# vtk DataFile Version 2.0
Wound Healing Simulation
ASCII
DATASET UNSTRUCTURED_GRID
POINTS 3012 float
69.9759 18.75 4
67.2507 60.3285 4
69.976 18.75 2
73.0099 25.446 4
71.1327 20.9142 4
68.6801 16.6661 4
67.8254 19.9261 3.98234
67.2507 60.3286 2
71.1327 54.0858 4
68.6801 58.3339 4
65.6939 62.2254 4
65.3119 59.001 3.98127
74.6784 42.3946 4
73.7221 47.2057 4
69.9759 18.75 0
73.0099 25.446 2
68.6801 16.6661 2
71.1327 20.9142 2
67.8259 19.9291 2
74.6792 32.6053 4
73.7222 27.7943 4
72.1454 23.1494 4
70.614 26.2209 3.98183
68.8856 21.958 3.98271
67.2507 14.6715 4
66.6367 17.9721 3.98125
65.796 21.0258 3.97266
67.2507 60.3285 0
71.1327 54.0858 2
68.6801 58.3339 2
65.694 62.2255 2
65.313 58.9975 2
72.1454 51.8506 4
69.9759 56.25 4
68.8362 53.1129 3.98175
64.0165 64.0165 4
66.6105 57.1336 3.98175
63.8854 60.7658 3.98307
63.4988 57.7694 3.97275
60.3285 67.2507 4
74.6792 42.3947 2
73.7222 47.2057 2
74.9194 39.9526 4
74.2788 44.8158 4
72.1681 42.0855 3.9809
73.0099 49.554 4
71.2491 46.598 3.98084
73.0099 25.446 0
71.1327 20.9142 0
68.6801 16.6661 0
67.8254 19.9261 0.0176572
74.6792 32.6053 2
73.7222 27.7943 2
67.2508 14.6715 2
72.1455 23.1494 2
70.614 26.2213 2
66.6376 17.9758 2
68.8859 21.96 2
65.7955 21.0265 2
74.9197 35.0474 4
74.2794 30.1841 4
72.1848 32.9432 3.98137
71.278 28.4313 3.98123
69.8154 24.0595 3.98247
68.3459 26.9516 3.97117
66.7616 22.9336 3.97195
65.694 12.7746 4
65.3232 16.1039 3.98127
64.7121 19.1965 3.9731
63.8838 22.0381 3.96851
71.1327 54.0858 0
65.6939 62.2254 0
68.6801 58.3339 0
65.3119 59.001 0.0187314
72.1455 51.8506 2
69.9759 56.25 2
68.8364 53.1111 2
64.0165 64.0165 2
66.6113 57.1301 2
63.887 60.7629 2
63.4983 57.7693 2
62.2254 65.694 4
58.8946 65.4142 3.99079
69.7688 50.9888 3.98156
67.7835 55.1671 3.98175
66.6483 52.2084 3.97097
62.336 62.4275 3.98643
64.6596 56.0303 3.97295
62.2014 59.4016 3.97363
61.8186 56.6756 3.96842
58.3339 68.6801 4
60.3285 67.2508 2
73.7221 47.2057 0
74.6784 42.3946 0
74.9197 39.9526 2
74.2794 44.8159 2
72.1677 42.0855 2
73.0099 49.554 2
71.249 46.5978 2
75 37.5 4
72.4054 39.8021 3.98142
71.7824 44.3528 3.98098
69.8031 41.7892 3.97057
70.575 48.8134 3.98113
68.9112 46.0142 3.97034
74.6792 32.6053 0
73.7222 27.7943 0
67.2507 14.6715 0
72.1454 23.1494 0
70.614 26.2209 0.0181681
68.8856 21.958 0.0172853
66.6367 17.9721 0.0187499
65.796 21.0258 0.0273442
74.9197 35.0474 2
74.2794 30.1841 2
72.1844 32.9435 2
71.278 28.4317 2
65.694 12.7745 2
65.3245 16.1075 2
69.8155 24.0606 2
68.3459 26.952 2
64.7116 19.197 2
66.7611 22.9342 2
63.8831 22.0382 2
72.4132 35.2241 3.98144
71.8038 30.6762 3.9814
69.8392 33.2683 3.97116
68.9651 29.0383 3.97095
67.6104 24.9122 3.97148
66.1918 27.6358 3.96802
64.0165 10.9835 4
64.7536 23.832 3.96842
63.8899 14.3274 3.98412
63.5112 17.4502 3.97288
62.9026 20.3246 3.96831
62.0813 22.9498 3.9673
60.6838 11.098 3.98742
57.6119 11.4501 3.97951
72.1454 51.8506 0
69.9759 56.25 0
68.8362 53.1129 0.0182454
64.0165 64.0165 0
63.8854 60.7658 0.0169322
66.6105 57.1336 0.0182464
63.4988 57.7694 0.027245
62.2255 65.694 2
58.8957 65.4137 2
69.7688 50.9879 2
67.784 55.1643 2
66.6479 52.2078 2
62.3377 62.4255 2
64.659 56.0299 2
62.2009 59.4022 2
61.818 56.676 2
60.6687 63.9769 3.98862
57.0256 66.7348 3.99168
57.5577 63.6906 3.98207
67.5064 50.1759 3.97038
65.7007 54.1723 3.97167
64.5345 51.3826 3.96726
60.7724 60.9358 3.97754
62.8163 55.0637 3.96835
60.654 58.1522 3.96731
60.3205 55.7751 3.96846
56.25 69.9759 4
58.3339 68.6801 2
60.3285 67.2507 0
58.9211 9.6563 3.98864
62.2254 9.30607 4
73.0099 49.554 0
74.2788 44.8158 0
71.2491 46.598 0.0191647
72.1681 42.0855 0.019105
74.9194 39.9526 0
75 37.5 2
72.4053 39.8023 2
71.7823 44.3526 2
69.8027 41.7889 2
70.5749 48.8132 2
68.9112 46.0137 2
72.4887 37.512 3.98115
70.0405 39.657 3.97083
69.4294 43.9069 3.97044
67.595 41.4965 3.96814
68.2648 48.1064 3.97028
66.7068 45.4382 3.96762
74.9197 35.0474 0
74.2794 30.1841 0
72.1848 32.9432 0.0186284
71.278 28.4313 0.0187664
65.694 12.7746 0
65.3232 16.1039 0.0187324
69.8154 24.0595 0.0175275
68.3459 26.9516 0.0288295
66.7616 22.9336 0.0280486
64.7121 19.1965 0.0269004
63.8838 22.0381 0.0314925
72.4131 35.2242 2
71.8038 30.6766 2
69.8389 33.2686 2
68.9652 29.0386 2
64.0165 10.9835 2
63.8916 14.3303 2
63.5107 17.4504 2
67.6101 24.9127 2
66.1917 27.636 2
62.9019 20.3248 2
64.7531 23.8322 2
62.0805 22.95 2
60.6856 11.0999 2
57.6125 11.4491 2
70.0571 35.3917 3.97099
69.4662 31.1495 3.97091
67.6533 33.5912 3.96849
66.7695 29.6237 3.96799
65.5212 25.7007 3.96823
64.1212 28.2612 3.96929
62.3416 12.6552 3.98624
62.8417 24.6435 3.96806
62.1978 15.788 3.97541
61.8072 18.6918 3.96713
61.2078 21.3494 3.96604
60.3923 23.7407 3.96855
59.2457 12.7819 3.97803
55.8741 10.2357 3.98193
56.404 13.1208 3.97507
69.7688 50.9888 0.0184373
62.2254 65.694 0
58.8946 65.4142 0.00921495
67.7835 55.1671 0.0182452
66.6483 52.2084 0.0290322
62.336 62.4275 0.0135679
62.2014 59.4016 0.0263699
64.6596 56.0303 0.0270489
61.8186 56.6756 0.031576
60.6701 63.9758 2
57.0263 66.7345 2
57.5578 63.692 2
67.5061 50.1754 2
65.7001 54.1717 2
64.534 51.3825 2
60.7724 60.9371 2
62.8157 55.0638 2
60.6536 58.153 2
60.3201 55.7752 2
55.0713 67.9317 3.99213
59.2187 62.3643 3.97899
55.8047 64.9093 3.98542
56.3256 62.0861 3.97705
65.3287 49.406 3.96718
63.7023 53.2891 3.96759
62.4196 50.6429 3.96708
59.3308 59.552 3.9724
61.0697 54.3003 3.96778
59.2807 56.9972 3.96486
59.2316 55.1696 3.96708
48.1026 68.578 3.98781
50.9491 69.9313 3.99235
54.0858 71.1327 4
56.25 69.976 2
58.3339 68.6801 0
57.0586 8.33617 3.98974
60.3285 7.74928 4
58.9228 9.65744 2
62.2255 9.30602 2
70.575 48.8134 0.0188729
71.7824 44.3528 0.0190203
68.9112 46.0142 0.0296615
69.8031 41.7892 0.0294334
72.4054 39.8021 0.0185784
75 37.5 0
72.4884 37.5121 2
70.0404 39.6569 2
69.4293 43.9066 2
67.5946 41.4963 2
68.2648 48.1059 2
66.7067 45.438 2
70.1285 37.5212 3.97098
67.8326 39.5116 3.96846
67.2206 43.4685 3.96778
65.5192 41.2057 3.97067
66.0658 47.416 3.96745
64.6173 44.8413 3.96942
72.4132 35.2241 0.0185556
71.8038 30.6762 0.0186028
69.8392 33.2683 0.0288438
68.9651 29.0383 0.0290486
64.0165 10.9835 0
63.8899 14.3274 0.0158769
63.5112 17.4502 0.0271206
67.6104 24.9122 0.0285201
66.1918 27.6358 0.0319841
64.7536 23.832 0.0315816
62.9026 20.3246 0.0316929
62.0813 22.9498 0.0327017
60.6838 11.098 0.0125822
57.6119 11.4501 0.0204907
70.0571 35.3919 2
69.4662 31.1498 2
67.653 33.5913 2
66.7695 29.6238 2
62.3433 12.6578 2
62.1975 15.7877 2
61.8068 18.6916 2
65.521 25.7009 2
64.1205 28.2614 2
61.2071 21.3494 2
62.8411 24.6436 2
60.3922 23.741 2
59.2461 12.7815 2
56.4043 13.1195 2
55.8746 10.2345 2
67.8686 35.5475 3.96856
67.2629 31.6229 3.96825
65.6703 33.9291 3.97096
64.6342 30.1969 3.96963
63.5182 26.4202 3.96881
62.2 28.7888 3.97272
60.7748 14.2263 3.97787
61.0049 25.3505 3.9702
60.6078 17.1355 3.97032
60.2082 19.8273 3.96533
59.6266 22.2734 3.96581
58.9238 24.3393 3.97069
54.0375 9.13764 3.98353
57.9088 14.339 3.97643
54.7861 12.0181 3.97706
55.3099 14.6587 3.9745
67.5064 50.1759 0.0296216
57.0256 66.7348 0.00831918
60.6687 63.9769 0.0113808
57.5577 63.6906 0.0179347
65.7007 54.1723 0.0283322
64.5345 51.3826 0.0327385
60.7724 60.9358 0.0224622
60.654 58.1522 0.0326857
62.8163 55.0637 0.0316526
60.3205 55.7751 0.0315446
55.0719 67.9317 2
59.2188 62.3656 2
55.8046 64.9103 2
56.3255 62.0876 2
65.3285 49.4058 2
63.7016 53.289 2
62.4199 50.6428 2
59.3306 59.5535 2
61.0693 54.3003 2
59.2804 56.9971 2
59.2314 55.1693 2
53.0433 68.9995 3.99224
53.9672 66.0124 3.98683
57.8789 60.8656 3.97619
54.6836 63.2052 3.98125
55.2091 60.6081 3.9762
63.1648 48.6519 3.96786
61.7279 52.5665 3.96684
60.2183 50.0011 3.96876
58.0117 58.2522 3.96892
59.3139 53.9331 3.96718
58.1093 55.7943 3.96528
50.1093 67.8561 3.98763
47.4632 66.5793 3.98465
46.0562 69.1571 3.98791
48.1026 68.5786 2
48.8032 70.7226 3.99245
50.9495 69.9314 2
51.8506 72.1454 4
54.0858 71.1327 2
56.25 69.9759 0
55.1033 7.14061 3.99085
58.3339 6.31992 4
57.0599 8.33671 2
60.3286 7.74926 2
58.9211 9.6563 0.0113633
62.2254 9.30607 0
68.2648 48.1064 0.0297193
69.4294 43.9069 0.0295564
66.7068 45.4382 0.0323798
67.595 41.4965 0.0318615
70.0405 39.657 0.0291728
72.4887 37.512 0.0188502
70.1282 37.5213 2
67.8325 39.5115 2
67.2207 43.4683 2
65.5184 41.2055 2
66.0657 47.4158 2
64.6166 44.8411 2
67.9289 37.5216 3.96856
65.7533 39.3677 3.97104
65.1416 43.0197 3.97015
63.6751 40.9224 3.97397
63.93 46.7082 3.96862
62.7329 44.204 3.97322
70.0571 35.3917 0.0290062
69.4662 31.1495 0.0290855
67.6533 33.5912 0.0315076
66.7695 29.6237 0.0320094
62.3416 12.6552 0.0137642
62.1978 15.788 0.0245886
61.8072 18.6918 0.032868
65.5212 25.7007 0.031765
64.1212 28.2612 0.0307103
62.8417 24.6435 0.031939
61.2078 21.3494 0.0339591
60.3923 23.7407 0.0314484
59.2457 12.7819 0.0219701
56.404 13.1208 0.024931
55.8741 10.2357 0.0180706
67.8685 35.5475 2
67.2628 31.6231 2
65.6699 33.9292 2
64.6337 30.1971 2
60.7748 14.2261 2
60.6074 17.1347 2
60.2082 19.8272 2
63.5177 26.4204 2
62.1988 28.7892 2
59.6284 22.2735 2
61.0045 25.3509 2
58.9229 24.3401 2
57.9084 14.3382 2
55.3098 14.6585 2
54.0378 9.13653 2
54.7863 12.0163 2
65.8441 35.6673 3.97088
65.1532 32.1579 3.97023
64.2243 34.2524 3.97436
62.5165 30.6457 3.97342
61.598 27.0848 3.97121
60.7639 29.1551 3.97632
59.3083 15.6753 3.97486
59.2582 25.8162 3.97378
59.1122 18.3689 3.96718
58.7149 20.8699 3.96373
58.2293 23.1132 3.96627
57.8962 24.6884 3.97271
52.1122 8.15506 3.98513
53.0579 11.0221 3.9794
56.6729 15.7532 3.97591
53.8077 13.6917 3.97574
54.3711 16.0144 3.97591
55.0713 67.9317 0.00786926
65.3287 49.406 0.0328239
55.8047 64.9093 0.0145842
59.2187 62.3643 0.0210074
56.3256 62.0861 0.0229544
63.7023 53.2891 0.0324088
62.4196 50.6429 0.0329202
59.3308 59.552 0.027604
59.2807 56.9972 0.0351424
61.0697 54.3003 0.0322213
59.2316 55.1696 0.0329164
53.0437 68.9995 2
53.9671 66.0131 2
57.8785 60.8669 2
54.6833 63.2062 2
55.209 60.6095 2
63.1646 48.6518 2
61.729 52.5666 2
60.2178 50.0007 2
58.0113 58.2538 2
59.3146 53.9328 2
58.1084 55.7937 2
52.0705 66.9991 3.98738
52.9535 64.217 3.98334
56.6445 59.4814 3.97455
53.68 61.6181 3.97803
54.2555 59.3098 3.97482
60.9185 47.8626 3.96939
59.6684 52.0875 3.96788
57.9371 49.5908 3.97032
56.7648 56.9688 3.96725
57.0904 54.1014 3.96585
50.1093 67.8566 2
49.3371 65.9197 3.9845
47.4631 66.5798 2
46.8926 64.7333 3.98299
45.5583 67.0963 3.98477
43.9732 69.5894 3.98802
46.0562 69.1577 2
46.6097 71.3671 3.99244
48.1026 68.578 0.012194
48.8035 70.7228 2
49.554 73.0099 4
50.9491 69.9313 0.0076489
51.8506 72.1455 2
54.0858 71.1327 0
53.0647 6.07207 3.99147
55.1042 7.14072 2
56.25 5.02411 4
58.3339 6.3199 2
57.0586 8.33617 0.0102631
60.3285 7.74928 0
66.0658 47.416 0.0325478
67.2206 43.4685 0.0322189
64.6173 44.8413 0.0305781
65.5192 41.2057 0.0293298
67.8326 39.5116 0.0315354
70.1285 37.5212 0.029023
67.9286 37.5216 2
65.7525 39.3676 2
65.1411 43.0195 2
63.674 40.9222 2
63.9293 46.708 2
62.7315 44.2037 2
65.857 37.5008 3.97084
63.8182 39.2621 3.97362
63.2451 42.54 3.97356
62.3176 40.6884 3.97734
61.8931 45.904 3.9713
61.3413 43.6672 3.97674
67.8686 35.5475 0.0314418
67.2629 31.6229 0.0317497
65.6703 33.9291 0.0290403
64.6342 30.1969 0.0303701
60.7748 14.2263 0.0221289
60.6078 17.1355 0.0296801
60.2082 19.8273 0.0346749
63.5182 26.4202 0.031192
62.2 28.7888 0.0272758
61.0049 25.3505 0.0298005
59.6266 22.2734 0.0341869
58.9238 24.3393 0.0293127
57.9088 14.339 0.0235672
55.3099 14.6587 0.0254993
54.0375 9.13764 0.0164734
54.7861 12.0181 0.022936
65.8433 35.6674 2
65.1531 32.158 2
64.2239 34.2525 2
62.5153 30.646 2
59.3077 15.6748 2
59.1122 18.3681 2
58.7161 20.8701 2
61.5972 27.0852 2
60.7631 29.1555 2
58.229 23.114 2
59.2575 25.8168 2
57.8956 24.6893 2
56.6724 15.7524 2
54.3705 16.0144 2
53.8077 13.6893 2
52.1124 8.15416 2
53.0579 11.0207 2
64.0197 35.633 3.97374
62.843 33.0526 3.97432
60.5072 30.6262 3.97641
59.4771 27.9295 3.97484
57.933 16.9941 3.97262
57.6533 25.7513 3.97528
57.6944 19.4941 3.96415
57.3223 21.8634 3.96285
57.1053 23.9744 3.96809
50.1126 7.28581 3.98692
51.2327 10.1284 3.98124
52.171 12.8049 3.97745
55.53 16.9866 3.97502
52.9744 15.2809 3.97371
53.7502 16.999 3.97927
53.0433 68.9995 0.0077643
53.9672 66.0124 0.0131747
63.1648 48.6519 0.0321396
54.6836 63.2052 0.0187541
57.8789 60.8656 0.0238091
55.2091 60.6081 0.023802
61.7279 52.5665 0.0331606
60.2183 50.0011 0.0312397
58.0117 58.2522 0.0310796
58.1093 55.7943 0.0347159
59.3139 53.9331 0.032817
52.0705 66.9997 2
52.9532 64.2178 2
56.6441 59.4823 2
53.6797 61.6191 2
54.2554 59.3113 2
60.9173 47.8621 2
59.6692 52.0873 2
57.9341 49.5899 2
56.7637 56.9732 2
57.0889 54.1008 2
51.1682 65.1266 3.98449
52.0458 62.5356 3.98068
55.4734 58.2393 3.97511
52.831 60.1273 3.97739
53.632 58.4598 3.979
58.1866 46.8213 3.97381
57.5036 51.7629 3.96749
56.1326 49.523 3.97061
55.4493 55.7686 3.96296
55.3098 53.3564 3.96392
50.1093 67.8561 0.0123708
49.337 65.9202 2
48.6183 64.12 3.98324
47.4632 66.5793 0.0153468
45.5582 67.0969 2
46.8925 64.7337 2
46.3823 63.0491 3.98248
45.1328 65.1942 3.98303
43.6314 67.4669 3.98484
41.8604 69.8767 3.98789
43.9732 69.5898 2
44.377 71.8619 3.99237
46.0562 69.1571 0.0120884
46.61 71.3673 2
47.2057 73.7222 4
48.8032 70.7226 0.00754738
49.554 73.0099 2
51.8506 72.1454 0
50.9547 5.13226 3.99209
53.0653 6.07201 2
54.0858 3.86728 4
55.1033 7.14061 0.00915433
56.25 5.02406 2
58.3339 6.31992 0
63.93 46.7082 0.0313836
65.1416 43.0197 0.0298476
62.7329 44.204 0.0267775
63.6751 40.9224 0.0260285
65.7533 39.3677 0.0289625
67.9289 37.5216 0.0314363
65.8563 37.5008 2
63.8172 39.262 2
63.244 42.5398 2
62.3161 40.6881 2
61.8917 45.9035 2
61.3399 43.6668 2
63.8809 37.455 3.97344
62.0389 39.3491 3.97687
61.0888 41.9435 3.97658
60.1388 44.7499 3.97566
65.8441 35.6673 0.0291248
65.1532 32.1579 0.0297724
64.2243 34.2524 0.025643
62.5165 30.6457 0.0265782
59.3083 15.6753 0.0251374
59.1122 18.3689 0.0328166
58.7149 20.8699 0.0362659
61.598 27.0848 0.0287902
60.7639 29.1551 0.023681
59.2582 25.8162 0.0262205
58.2293 23.1132 0.03373
57.8962 24.6884 0.0272858
56.6729 15.7532 0.024094
54.3711 16.0144 0.0240932
53.8077 13.6917 0.0242598
52.1122 8.15506 0.014872
53.0579 11.0221 0.020602
64.019 35.633 2
62.8419 33.0529 2
60.5061 30.6266 2
57.9323 16.9936 2
57.6947 19.4929 2
57.3233 21.864 2
59.4761 27.9301 2
57.1044 23.9755 2
57.6528 25.7523 2
50.1127 7.28477 2
55.5295 16.986 2
53.7495 16.9986 2
52.9742 15.2803 2
52.1711 12.804 2
51.2328 10.1274 2
62.074 35.3629 3.9759
60.1509 32.7581 3.9766
58.4864 30.0985 3.97691
57.1725 27.4102 3.97617
56.6236 18.1715 3.97193
56.1942 25.1344 3.97266
56.3242 20.5443 3.96182
56.0326 22.9 3.9627
48.0567 6.52795 3.98838
49.325 9.33406 3.98265
50.4328 12.0004 3.97882
51.3746 14.509 3.97444
54.4021 17.9383 3.97622
52.3534 17.0603 3.97189
52.0705 66.9991 0.0126248
52.9535 64.217 0.0166606
60.9185 47.8626 0.0306068
53.68 61.6181 0.0219726
56.6445 59.4814 0.0254547
54.2555 59.3098 0.0251769
59.6684 52.0875 0.0321206
57.9371 49.5908 0.029678
56.7648 56.9688 0.032746
57.0904 54.1014 0.0341546
51.168 65.1271 2
52.0454 62.5363 2
55.4728 58.2403 2
52.8309 60.1297 2
53.6315 58.4606 2
58.1851 46.8205 2
57.5028 51.7623 2
56.1296 49.5221 2
55.4492 55.7691 2
55.3115 53.3568 2
50.3464 63.3787 3.98294
51.2426 60.9299 3.97791
54.2055 57.2555 3.97513
52.3057 58.6197 3.97596
56.5242 44.1464 3.9778
55.3432 47.8588 3.97212
54.9906 51.3599 3.96655
53.9654 54.5157 3.96321
49.3371 65.9197 0.0154998
48.6182 64.1205 2
47.9622 62.4705 3.982
45.5583 67.0963 0.0152286
46.8926 64.7333 0.0170131
43.6314 67.4674 2
46.3823 63.0495 2
45.1327 65.1948 2
45.9878 61.5803 3.98279
44.7676 63.4493 3.98173
43.3569 65.5035 3.98285
41.6636 67.6856 3.98466
39.7022 70.0237 3.98811
41.8604 69.8772 2
42.1113 72.2068 3.99233
43.9732 69.5894 0.0119826
44.3773 71.8622 2
44.8159 74.2794 4
46.6097 71.3671 0.00756149
47.2057 73.7222 2
49.554 73.0099 0
48.7853 4.3229 3.9926
50.9551 5.1319 2
51.8506 2.85458 4
53.0647 6.07207 0.00853166
54.0858 3.86728 2
56.25 5.02411 0
61.8931 45.904 0.0286996
63.2451 42.54 0.0264357
61.3413 43.6672 0.0232604
62.3176 40.6884 0.0226572
63.8182 39.2621 0.0263758
65.857 37.5008 0.0291564
63.8797 37.455 2
62.0374 39.349 2
61.0872 41.9432 2
60.1374 44.7493 2
61.8782 37.4436 3.97714
60.0862 39.8321 3.97745
58.8203 42.8921 3.97745
64.0197 35.633 0.0262606
62.843 33.0526 0.0256762
60.5072 30.6262 0.0235875
57.933 16.9941 0.0273806
57.6944 19.4941 0.035853
57.3223 21.8634 0.0371491
59.4771 27.9295 0.0251615
57.6533 25.7513 0.0247208
57.1053 23.9744 0.0319133
55.53 16.9866 0.0249769
53.7502 16.999 0.0207312
52.9744 15.2809 0.0262938
50.1126 7.28581 0.0130753
52.171 12.8049 0.0225505
51.2327 10.1284 0.0187595
62.073 35.3631 2
60.1485 32.7584 2
58.4856 30.0992 2
56.623 18.171 2
56.3248 20.5419 2
56.0342 22.9009 2
57.1735 27.411 2
56.1951 25.1354 2
48.0567 6.52694 2
49.3251 9.33292 2
54.4018 17.9379 2
52.3525 17.0601 2
51.3742 14.5073 2
50.4329 11.9994 2
59.7311 35.1287 3.97712
57.8047 32.2959 3.97723
56.3934 29.3731 3.97739
55.3014 26.6401 3.97626
55.3205 19.2072 3.97083
54.831 24.0964 3.96473
54.9489 21.5912 3.95902
45.9628 5.88267 3.989
43.3743 7.47381 3.98597
47.3556 8.62573 3.98438
48.6001 11.2988 3.98005
49.7114 13.7521 3.97821
50.6281 16.1524 3.97742
53.1075 18.6843 3.97185
51.2879 18.0756 3.97978
51.1682 65.1266 0.0155098
52.0458 62.5356 0.0193179
58.1866 46.8213 0.0261883
52.831 60.1273 0.022612
55.4734 58.2393 0.0248904
53.632 58.4598 0.021002
57.5036 51.7629 0.0325062
56.1326 49.523 0.0293872
55.4493 55.7686 0.0370447
55.3098 53.3564 0.0360848
50.3461 63.3788 2
51.2422 60.9303 2
54.2051 57.2566 2
52.3051 58.6203 2
56.5233 44.1455 2
55.3425 47.8579 2
54.9914 51.3597 2
53.966 54.5169 2
49.5918 61.7413 3.98152
55.3659 41.6728 3.9761
50.5619 59.3202 3.97461
52.1655 56.4739 3.96966
53.9712 45.5149 3.97516
53.1979 49.2906 3.97042
52.6036 52.8206 3.9645
48.6183 64.12 0.0167648
47.9622 62.4709 2
47.3285 61.0033 3.98347
43.6314 67.4669 0.0151581
45.1328 65.1942 0.016969
46.3823 63.0491 0.0175182
41.6636 67.6858 2
43.3568 65.5042 2
45.988 61.5809 2
44.7676 63.4499 2
45.7655 60.6238 3.98127
44.484 61.8287 3.98147
43.1468 63.7213 3.98126
41.5464 65.6412 3.98214
39.6328 67.7651 3.98432
37.526 70.0485 3.98781
39.7023 70.0243 2
39.8179 72.4038 3.99219
41.8604 69.8767 0.0121065
42.1115 72.2071 2
42.3947 74.6792 4
44.377 71.8619 0.00762587
44.8159 74.2794 2
47.2057 73.7222 0
43.8521 5.35945 3.98904
46.5713 3.64731 3.99279
48.7855 4.3225 2
49.554 1.99015 4
50.9547 5.13226 0.00791085
51.8506 2.85453 2
54.0858 3.86728 0
60.1388 44.7499 0.0243423
61.0888 41.9435 0.0234242
62.0389 39.3491 0.0231339
63.8809 37.455 0.0265565
61.8766 37.4437 2
60.0851 39.8317 2
58.8191 42.8915 2
59.5867 37.5647 3.9776
57.7799 40.6335 3.97777
54.8036 39.6855 3.97608
62.074 35.3629 0.0240993
60.1509 32.7581 0.0234
58.4864 30.0985 0.0230868
56.6236 18.1715 0.0280682
56.3242 20.5443 0.0381757
56.0326 22.9 0.0373005
57.1725 27.4102 0.0238316
56.1942 25.1344 0.0273368
54.4021 17.9383 0.0237799
52.3534 17.0603 0.0281126
51.3746 14.509 0.0255564
48.0567 6.52795 0.0116156
49.325 9.33406 0.0173475
50.4328 12.0004 0.021184
59.7297 35.1289 2
45.9626 5.8821 2
43.3741 7.47332 2
57.8038 32.2967 2
56.3932 29.374 2
55.3199 19.2071 2
54.9515 21.5908 2
54.8301 24.0978 2
55.2972 26.6417 2
47.3557 8.6241 2
48.6002 11.2977 2
53.1073 18.6836 2
51.2876 18.0767 2
50.6277 16.1523 2
49.711 13.7512 2
57.1685 34.7741 3.97747
55.5306 31.5524 3.97774
54.319 28.4564 3.9782
53.6529 25.5467 3.97407
53.9382 20.1618 3.97185
53.5079 22.752 3.95626
41.3994 7.07931 3.9864
45.3605 7.99544 3.98631
42.8663 9.41712 3.98317
46.667 10.6569 3.98167
47.7439 13.1091 3.98026
48.9277 15.4136 3.97587
49.9955 17.7194 3.97597
51.6261 19.3528 3.97829
50.3464 63.3787 0.0170617
51.2426 60.9299 0.0220913
56.5242 44.1464 0.0221995
55.3432 47.8588 0.0278832
52.3057 58.6197 0.0240413
54.2055 57.2555 0.0248737
54.9906 51.3599 0.0334536
53.9654 54.5157 0.0367888
49.5913 61.741 2
55.3661 41.6727 2
50.5615 59.321 2
52.165 56.4749 2
53.9762 45.514 2
53.2016 49.2906 2
52.6047 52.8201 2
48.8464 60.1977 3.97946
52.229 42.5905 3.9814
49.7782 57.6115 3.97436
50.5499 54.4053 3.96596
51.6209 47.2236 3.97612
51.112 50.9123 3.96141
47.879 43.7331 3.9902
47.9622 62.4705 0.0179983
47.3288 61.0037 2
46.6169 59.7887 3.98252
41.6636 67.6856 0.0153384
43.3569 65.5035 0.0171513
44.7676 63.4493 0.0182725
45.9878 61.5803 0.0172122
39.633 67.7658 2
41.5463 65.641 2
45.7655 60.6246 2
43.1468 63.722 2
44.4841 61.8294 2
44.6224 60.2853 3.98244
42.951 62.0763 3.97978
41.6003 63.8146 3.98137
39.6478 65.6086 3.98121
37.5635 67.7469 3.9839
31.6968 65.1274 3.98202
33.3923 67.4845 3.98358
35.3336 69.9585 3.98785
37.526 70.0492 2
37.5095 72.4584 3.99207
39.7022 70.0237 0.0118917
39.8181 72.4042 2
39.9526 74.9197 4
42.1113 72.2068 0.00766641
42.3947 74.6792 2
44.8159 74.2794 0
41.7366 4.96866 3.98928
43.852 5.35891 2
44.3265 3.11038 3.99313
46.5714 3.64702 2
47.2057 1.27793 4
48.7853 4.3229 0.00740418
49.554 1.99013 2
51.8506 2.85458 0
58.8203 42.8921 0.0225509
60.0862 39.8321 0.0225542
61.8782 37.4436 0.0228568
59.5854 37.5648 2
57.7802 40.6332 2
54.8044 39.6854 2
56.5694 37.8839 3.97755
49.2625 41.3011 3.99056
52.8252 39.3003 3.98444
39.4429 6.8031 3.98629
59.7311 35.1287 0.0228808
57.8047 32.2959 0.0227683
56.3934 29.3731 0.0226102
55.3205 19.2072 0.0291658
54.9489 21.5912 0.0409829
54.831 24.0964 0.0352719
55.3014 26.6401 0.0237448
53.1075 18.6843 0.0281528
51.2879 18.0756 0.0202218
50.6281 16.1524 0.022576
45.9628 5.88267 0.0110047
49.7114 13.7521 0.0217905
47.3556 8.62573 0.0156196
48.6001 11.2988 0.019946
43.3743 7.47381 0.0140279
57.1666 34.7734 2
41.3994 7.07861 2
45.3602 7.99492 2
42.866 9.4167 2
55.5328 31.5527 2
54.3175 28.4577 2
53.9382 20.1623 2
53.508 22.7491 2
53.6504 25.5482 2
46.6671 10.6544 2
47.7438 13.1075 2
51.6262 19.3535 2
49.9946 17.7184 2
48.9269 15.4134 2
54.5998 33.9728 3.97629
53.2734 30.5438 3.97767
52.4176 27.263 3.97501
52.0477 24.1534 3.97657
52.3466 21.0886 3.97653
41.014 9.05031 3.98326
44.7252 9.99596 3.98412
42.4688 10.9042 3.98455
46.0046 12.7355 3.97852
47.6779 14.5936 3.97483
48.1028 16.9988 3.97487
49.8024 19.6827 3.97721
49.5918 61.7413 0.0184795
50.5619 59.3202 0.0253942
55.3659 41.6728 0.0239033
53.9712 45.5149 0.0248433
53.1979 49.2906 0.0295809
52.1655 56.4739 0.030338
52.6036 52.8206 0.0354977
48.8461 60.1963 2
52.2373 42.5922 2
49.7774 57.6121 2
50.5497 54.4067 2
51.6247 47.2242 2
51.1135 50.9115 2
47.8873 43.7526 2
47.9806 58.7326 3.97919
49.8304 45.2293 3.98073
48.5729 55.9037 3.97673
49.062 52.5666 3.97353
49.5314 49.0084 3.9709
45.6645 39.8537 3.88422
46.1136 42.6102 3.92086
46.2623 45.7735 3.98777
43.4833 41.1168 3.80165
41.8672 41.9964 3.67007
47.3285 61.0033 0.0165308
46.6166 59.7895 2
45.4644 58.7851 3.98178
39.6328 67.7651 0.0156803
41.5464 65.6412 0.0178608
43.1468 63.7213 0.0187374
44.484 61.8287 0.0185287
45.7655 60.6238 0.018729
41.6002 63.8146 2
37.5636 67.7477 2
39.6477 65.6092 2
44.6224 60.2859 2
42.9511 62.0768 2
41.754 62.4875 3.9804
42.4801 59.974 3.98198
39.894 63.548 3.97991
37.6423 65.5072 3.98174
35.4636 67.6561 3.98375
33.5753 65.3399 3.98126
31.9589 63.2974 3.98165
29.8829 64.7192 3.98309
31.6969 65.1281 2
31.3769 67.1947 3.98409
33.3923 67.4852 2
33.1567 69.7522 3.98764
35.3336 69.9594 2
35.1948 72.3727 3.992
37.526 70.0485 0.0121921
37.5096 72.4588 2
37.5 75 4
39.8179 72.4038 0.00781396
39.9526 74.9197 2
42.3947 74.6792 0
39.6243 4.71607 3.98955
41.7366 4.96801 2
42.0628 2.71791 3.99328
43.8521 5.35945 0.0109614
44.3266 3.11002 2
44.8158 0.721173 4
46.5713 3.64731 0.00720898
47.2057 1.27779 2
49.554 1.99015 0
57.7799 40.6335 0.0222336
59.5867 37.5647 0.0224012
54.8036 39.6855 0.0239215
49.2807 41.3058 2
56.568 37.884 2
52.8266 39.2932 2
53.6695 36.629 3.9771
47.1873 40.3702 3.929
50.2015 38.5109 3.99272
37.5168 6.67445 3.98628
39.4429 6.80223 2
39.2115 8.69345 3.98395
35.9426 8.494 3.98387
57.1685 34.7741 0.0225315
55.5306 31.5524 0.022259
54.319 28.4564 0.0217961
53.9382 20.1618 0.0281523
53.5079 22.752 0.043743
53.6529 25.5467 0.025932
51.6261 19.3528 0.0217097
49.9955 17.7194 0.0240293
48.9277 15.4136 0.0241272
45.3605 7.99544 0.0136903
47.7439 13.1091 0.0197417
46.667 10.6569 0.0183333
41.3994 7.07931 0.0135992
42.8663 9.41712 0.016833
54.5963 33.9743 2
41.0139 9.04984 2
44.7246 9.99565 2
42.4684 10.9042 2
53.2705 30.5428 2
52.4236 27.2647 2
52.3478 21.089 2
52.0488 24.1544 2
46.0043 12.7317 2
47.6773 14.5917 2
49.8025 19.683 2
48.1016 16.9976 2
52.1555 32.8871 3.98055
51.086 29.2225 3.97579
50.644 25.7934 3.972
49.898 22.2663 3.9803
40.5698 11.6099 3.9807
43.8586 11.9179 3.98001
45.7975 15.4303 3.98147
47.4933 19.2958 3.97749
46.0224 37.4825 3.8891
48.8464 60.1977 0.0205394
49.7782 57.6115 0.0256389
52.229 42.5905 0.0186013
51.6209 47.2236 0.0238756
51.112 50.9123 0.0385889
50.5499 54.4053 0.0340379
47.879 43.7331 0.0097968
47.9798 58.7328 2
49.8408 45.2367 2
48.5714 55.9052 2
49.0616 52.57 2
49.5344 49.0084 2
45.6974 39.8593 2
46.1364 42.63 2
46.2632 45.7727 2
43.5079 41.141 2
41.8809 42.0099 2
46.8273 57.3349 3.98256
44.2319 39.4005 3.80262
42.2188 40.8631 3.71966
47.8805 47.1975 3.9769
47.1291 54.2206 3.97376
47.4936 50.7194 3.96963
44.6327 47.3661 3.97811
44.7697 41.931 3.87307
44.733 44.5072 3.93755
42.3566 42.6261 3.81081
40.787 42.3298 3.7047
46.6169 59.7887 0.0174808
45.4643 58.7856 2
43.8699 57.7069 3.98418
37.5635 67.7469 0.0160992
39.6478 65.6086 0.0187894
41.6003 63.8146 0.0186297
42.951 62.0763 0.0202191
44.6224 60.2853 0.0175632
35.4637 67.6572 2
41.754 62.4877 2
39.8938 63.5483 2
37.6424 65.5078 2
42.4802 59.9744 2
40.6238 61.6436 3.98098
40.4422 58.2013 3.98096
37.837 63.2093 3.97994
35.5729 65.4287 3.98116
33.5754 65.3403 2
31.9587 63.298 2
33.6284 63.336 3.98053
30.3779 62.8569 3.98213
32.123 62.0026 3.98277
26.8689 61.4987 3.98068
28.0617 64.1472 3.98265
29.8829 64.7197 2
29.4063 66.7589 3.98455
31.6968 65.1274 0.017975
31.3769 67.1954 2
31.0141 69.4172 3.98764
33.3923 67.4845 0.0164183
33.1567 69.7528 2
32.8918 72.147 3.99212
35.3336 69.9585 0.0121504
35.1948 72.3732 2
35.0474 74.9194 4
37.5095 72.4584 0.00793182
37.5 75 2
39.9526 74.9197 0
35.6214 6.72562 3.98578
37.5237 4.61564 3.98961
39.6242 4.71527 2
39.7892 2.47439 3.99328
41.7366 4.96866 0.0107184
42.0628 2.71751 2
42.3946 0.32156 4
44.3265 3.11038 0.00686688
44.8159 0.72056 2
47.2057 1.27793 0
49.2625 41.3011 0.00944042
56.5694 37.8839 0.0224505
52.8252 39.3003 0.0155646
47.2058 40.3834 2
50.2131 38.5058 2
53.6771 36.6318 2
50.9903 35.5702 3.97736
47.8481 37.7481 3.94074
45.6637 35.1325 3.88474
43.4901 33.868 3.7967
41.8743 32.9978 3.66634
37.4585 8.5354 3.98444
37.5167 6.67346 2
39.4429 6.8031 0.0137073
39.2115 8.69246 2
38.9768 10.128 3.98342
35.8993 9.77522 3.9824
34.1513 8.82368 3.9833
35.9422 8.49288 2
54.5998 33.9728 0.0237118
53.2734 30.5438 0.0223332
52.4176 27.263 0.0249852
52.3466 21.0886 0.023466
52.0477 24.1534 0.0234291
49.8024 19.6827 0.0227866
48.1028 16.9988 0.025129
47.6779 14.5936 0.0251681
44.7252 9.99596 0.0158837
46.0046 12.7355 0.0214847
41.014 9.05031 0.0167424
42.4688 10.9042 0.0154539
52.1606 32.887 2
40.5699 11.6103 2
43.8575 11.9181 2
51.1001 29.2232 2
50.6485 25.795 2
49.8975 22.2646 2
45.7964 15.4252 2
47.4928 19.3013 2
49.696 31.4567 3.98411
49.0939 27.5656 3.97388
49.3049 24.4799 3.98305
47.1619 22.042 3.97457
38.303 12.7396 3.97884
42.1015 14.3078 3.97841
44.7936 18.49 3.97655
44.553 37.4904 3.80914
46.0738 37.4909 2
47.9806 58.7326 0.0208108
48.5729 55.9037 0.0232696
49.8304 45.2293 0.0192744
49.5314 49.0084 0.0290983
49.062 52.5666 0.0264699
45.6645 39.8537 0.115783
46.1136 42.6102 0.079135
46.2623 45.7735 0.012225
43.4833 41.1168 0.198354
41.8672 41.9964 0.32993
46.8258 57.335 2
44.2591 39.4194 2
42.209 40.8686 2
47.881 47.2005 2
47.127 54.2247 2
47.4948 50.7232 2
44.6397 47.3433 2
44.7931 41.9481 2
44.7482 44.524 2
42.3995 42.6541 2
40.7904 42.3275 2
45.3791 55.9255 3.98957
42.5386 39.2673 3.7312
40.6783 40.7697 3.80885
45.9586 48.8845 3.98544
45.477 52.5095 3.97934
43.3194 48.3828 4.00044
43.2679 46.0525 3.91998
43.465 43.7147 3.87099
40.966 43.7599 3.8025
39.2679 42.6551 3.72392
45.4644 58.7851 0.0182227
43.87 57.7075 2
42.0983 56.3267 3.9864
35.4636 67.6561 0.0162524
37.6423 65.5072 0.0182647
39.894 63.548 0.0200895
41.754 62.4875 0.0196026
42.4801 59.974 0.018022
35.5731 65.4301 2
40.6238 61.644 2
37.8368 63.2095 2
40.4423 58.2017 2
38.9213 56.4927 3.98851
38.2507 60.3259 3.9797
35.6068 63.2014 3.97858
33.5753 65.3399 0.0187446
31.9589 63.2974 0.0183547
33.6284 63.3366 2
30.3778 62.8573 2
32.1231 62.0032 2
28.6807 62.2017 3.98167
33.3456 61.5134 3.98186
31.0668 61.2199 3.98138
27.5705 59.5934 3.98097
23.7956 59.0804 3.97984
25.035 60.8717 3.98051
26.8691 61.4993 2
26.2286 63.4786 3.9822
28.0619 64.1477 2
27.4628 66.183 3.98471
29.8829 64.7192 0.0169112
29.4063 66.7594 2
28.9063 68.9432 3.98757
31.3769 67.1947 0.0159137
31.0141 69.4179 2
30.6141 71.778 3.99208
33.1567 69.7522 0.0123555
32.8916 72.1474 2
32.6054 74.6784 4
35.1948 72.3727 0.00799566
35.0474 74.9197 2
37.5 75 0
33.7241 6.98044 3.98535
35.4354 4.68589 3.98943
35.6212 6.72478 2
37.5146 2.38697 3.99326
37.5236 4.61494 2
39.6243 4.71607 0.0104475
39.7891 2.47394 2
39.9526 0.0806499 4
42.0628 2.71791 0.00671522
42.3947 0.320817 2
44.8158 0.721173 0
44.2472 35.5795 3.79735
42.229 34.1219 3.71634
47.1873 40.3702 0.070999
50.2015 38.5109 0.00728371
53.6695 36.629 0.0228954
47.8567 37.7508 2
51.0032 35.5691 2
45.6918 35.1152 2
43.5168 33.8437 2
41.8879 32.9843 2
48.0192 34.3059 3.96817
44.7726 33.0477 3.86566
42.3663 32.3693 3.80731
40.7949 32.6689 3.7022
37.3113 10.6326 3.98157
37.4584 8.53393 2
37.5168 6.67445 0.0137199
39.2115 8.69345 0.0160534
38.9771 10.1269 2
34.7546 10.3818 3.98112
35.8991 9.77396 2
32.3781 9.37119 3.98198
34.1508 8.82287 2
35.9426 8.494 0.0161298
52.1555 32.8871 0.0194508
51.086 29.2225 0.0242118
50.644 25.7934 0.0280032
49.898 22.2663 0.0196981
47.4933 19.2958 0.0225117
45.7975 15.4303 0.0185321
43.8586 11.9179 0.0199861
40.5698 11.6099 0.0193033
49.7072 31.4535 2
38.3025 12.7376 2
42.1012 14.31 2
49.1005 27.5654 2
49.3077 24.4758 2
47.1576 22.039 2
44.7933 18.5019 2
47.5332 29.5613 3.98595
46.9972 25.229 3.9847
44.2722 21.421 3.97551
36.5831 12.9371 3.97765
38.6826 14.8145 3.97715
41.7468 17.8608 3.97836
42.6571 37.4842 3.74314
44.574 37.4904 2
46.0224 37.4825 0.110896
46.8273 57.3349 0.0174405
47.1291 54.2206 0.0262356
47.8805 47.1975 0.0230963
47.4936 50.7194 0.0303685
44.2319 39.4005 0.19738
44.7697 41.931 0.126932
44.733 44.5072 0.0624472
44.6327 47.3661 0.021886
42.3566 42.6261 0.189194
42.2188 40.8631 0.280344
40.787 42.3298 0.295305
45.3772 55.9242 2
42.5287 39.2654 2
40.6664 40.7555 2
45.9585 48.8904 2
45.4757 52.5154 2
43.3227 48.4021 2
43.2978 46.0792 2
43.4923 43.7422 2
40.9952 43.7948 2
39.2604 42.6455 2
43.7124 54.4307 3.9964
40.7749 39.1566 3.83826
39.1315 40.8399 3.82879
43.604 50.4404 4.00378
41.8907 47.5963 3.95528
41.8142 45.1366 3.88171
39.3391 44.4604 3.80968
37.5019 42.754 3.74675
43.8699 57.7069 0.015816
42.0982 56.3273 2
40.4092 54.9268 3.98372
35.5729 65.4287 0.0188356
37.837 63.2093 0.0200619
40.6238 61.6436 0.0190159
40.4422 58.2013 0.0190358
35.6067 63.2026 2
38.2508 60.3259 2
38.9216 56.4923 2
37.9987 55.2426 3.99458
36.9341 57.6227 3.98243
35.3633 60.9091 3.97915
33.6284 63.336 0.0194681
30.3779 62.8569 0.017872
32.123 62.0026 0.0172257
33.3458 61.5142 2
28.6809 62.202 2
31.0671 61.2204 2
29.4041 60.2885 3.98023
32.3588 59.7454 3.98559
28.0288 58.3739 3.98797
27.5709 59.594 2
25.3832 58.5933 3.97831
22.7632 58.2354 3.97111
23.4019 60.35 3.97904
23.7958 59.0814 2
25.0352 60.8726 2
24.4316 62.7707 3.98212
26.8689 61.4987 0.0193176
26.2289 63.4793 2
25.5469 65.4926 3.98413
28.0617 64.1472 0.0173457
27.4628 66.1834 2
26.8359 68.3316 3.98758
29.4063 66.7589 0.0154484
28.9064 68.9435 2
28.369 71.2632 3.99218
31.0141 69.4172 0.0123576
30.6138 71.7783 2
30.1842 74.2788 4
32.8918 72.147 0.00788247
32.6053 74.6792 2
35.0474 74.9194 0
31.7886 7.4207 3.98449
33.3477 4.9252 3.98902
33.7239 6.97966 2
35.2448 2.46303 3.99321
35.4352 4.68531 2
35.6214 6.72562 0.0142224
37.5 0 4
37.5145 2.38659 2
37.5237 4.61564 0.0103856
39.7892 2.47439 0.00672176
39.9526 0.0802889 2
42.3946 0.32156 0
42.541 35.7084 3.7353
44.2709 35.5621 2
40.6871 34.2247 3.80785
42.2172 34.1187 2
47.8481 37.7481 0.0592552
50.9903 35.5702 0.0226355
45.6637 35.1325 0.115263
43.4901 33.868 0.203298
41.8743 32.9978 0.33366
48.0358 34.2921 2
44.7974 33.0313 2
42.4052 32.3411 2
40.7988 32.6701 2
46.0443 31.5974 3.94225
43.4573 31.2824 3.8741
40.9684 31.2353 3.80301
39.2744 32.3526 3.72325
35.6933 11.7792 3.97958
37.3115 10.6305 2
37.4585 8.5354 0.0155622
38.9768 10.128 0.0165778
33.0987 11.2201 3.97921
34.7544 10.3807 2
35.8993 9.77522 0.017601
30.483 10.0204 3.98119
32.3777 9.37066 2
34.1513 8.82368 0.0166957
49.696 31.4567 0.0158942
49.0939 27.5656 0.0261169
49.3049 24.4799 0.016945
47.1619 22.042 0.0254287
44.7936 18.49 0.0234461
42.1015 14.3078 0.021593
38.303 12.7396 0.0211586
36.5828 12.9355 2
47.541 29.5425 2
38.6817 14.812 2
41.7456 17.8676 2
47.0025 25.2252 2
44.2693 21.4017 2
45.3712 27.6845 4.00027
43.7391 24.1459 4.00558
41.3306 20.7939 3.97973
35.7733 14.7666 3.9771
38.6822 17.607 3.97856
40.8247 37.4772 3.84793
42.6515 37.4855 2
44.553 37.4904 0.190862
45.3791 55.9255 0.0104342
45.477 52.5095 0.0206551
45.9586 48.8845 0.0145587
42.5386 39.2673 0.268802
43.465 43.7147 0.129007
43.2679 46.0525 0.0800167
43.3194 48.3828 -0.000442975
40.966 43.7599 0.197501
40.6783 40.7697 0.191146
39.2679 42.6551 0.27608
43.7095 54.4294 2
40.7569 39.1468 2
39.1259 40.8256 2
43.6028 50.457 2
41.8838 47.6172 2
41.836 45.1629 2
37.5018 42.7479 2
39.3559 44.4859 2
41.8578 52.9896 3.99322
39.1464 39.1641 3.85628
37.4993 40.8824 3.84543
35.7379 42.6605 3.72436
40.865 49.6499 3.99936
39.8063 46.007 3.86158
37.5001 44.6849 3.79797
42.0983 56.3267 0.0135981
40.4087 54.927 2
38.7252 53.8299 3.99367
35.6068 63.2014 0.0214185
38.2507 60.3259 0.0203009
38.9213 56.4927 0.0114944
35.3635 60.9098 2
36.9348 57.6226 2
37.9988 55.2404 2
36.3228 55.3395 3.9935
34.4894 58.5167 3.98545
33.3456 61.5134 0.0181367
28.6807 62.2017 0.0183294
31.0668 61.2199 0.0186185
32.3593 59.7462 2
29.4046 60.2886 2
30.3061 57.8187 3.98401
28.0291 58.3748 2
26.9594 56.8255 3.97672
27.5705 59.5934 0.0190254
25.3834 58.5945 2
23.8537 56.7939 3.96657
21.344 57.3883 3.97016
21.9967 59.6206 3.97754
22.7634 58.2371 2
22.736 62.0211 3.98029
23.4021 60.351 2
23.7956 59.0804 0.0201637
25.035 60.8717 0.0194949
24.4318 62.7716 2
23.681 64.7103 3.98379
26.2286 63.4786 0.0177952
25.547 65.4933 2
24.808 67.5928 3.98739
27.4628 66.183 0.0152866
26.8359 68.3322 2
26.1642 70.6039 3.99224
28.9063 68.9432 0.0124336
28.3688 71.2634 2
27.7943 73.7221 4
30.6141 71.778 0.00791947
30.1841 74.2794 2
32.6054 74.6784 0
29.8112 7.99471 3.9836
31.253 5.33239 3.98822
31.7883 7.41995 2
32.9805 2.70127 3.99291
33.3474 4.92457 2
33.7241 6.98044 0.0146532
35.0474 0.080333 4
35.2446 2.46272 2
35.4354 4.68589 0.0105738
37.5 0 2
37.5146 2.38697 0.00674347
39.9526 0.0806499 0
40.777 35.8162 3.83877
42.5298 35.7107 2
44.2472 35.5795 0.202653
28.5437 10.6963 3.98032
39.1368 34.1664 3.82793
40.6732 34.2385 2
42.229 34.1219 0.283662
48.0192 34.3059 0.0318259
44.7726 33.0477 0.134335
42.3663 32.3693 0.192688
40.7949 32.6689 0.297798
46.0704 31.5854 2
43.4828 31.2559 2
40.9989 31.2034 2
39.2676 32.3622 2
44.2704 29.792 3.93304
41.8159 29.8603 3.8812
39.3481 30.5426 3.80861
37.5102 32.261 3.74602
34.0938 12.9397 3.97776
35.6934 11.7775 2
37.3113 10.6326 0.0184315
31.187 11.9899 3.97924
33.0988 11.2195 2
34.7546 10.3818 0.0188812
30.4824 10.019 2
32.3781 9.37119 0.0180162
47.5332 29.5613 0.0140512
46.9972 25.229 0.0152992
36.5831 12.9371 0.022346
44.2722 21.421 0.0244921
41.7468 17.8608 0.0216351
38.6826 14.8145 0.0228463
35.7733 14.7676 2
45.3767 27.6848 2
38.6804 17.6118 2
41.3273 20.7792 2
43.7411 24.1318 2
33.6098 15.8866 3.97662
42.9454 26.531 3.9968
40.8825 23.3582 4.01015
38.4152 20.389 3.97858
35.8509 17.5225 3.97857
39.1583 37.4861 3.87487
40.8059 37.4768 2
42.6571 37.4842 0.256855
43.7124 54.4307 0.00359632
43.604 50.4404 -0.00378369
40.7749 39.1566 0.161742
41.8142 45.1366 0.118286
41.8907 47.5963 0.0447187
39.3391 44.4604 0.190323
39.1315 40.8399 0.171214
37.5019 42.754 0.25325
41.8553 52.9872 2
39.1354 39.1543 2
37.4992 40.8614 2
40.8752 49.6655 2
35.742 42.6508 2
39.8294 46.0399 2
37.4961 44.7076 2
39.8004 51.8678 4.00102
37.4975 39.1805 3.87696
35.866 40.8544 3.82763
34.2159 42.3353 3.70301
35.6584 44.4728 3.80666
38.6726 48.654 3.97134
37.5073 46.31 3.87177
40.4092 54.9268 0.0162798
38.7248 53.8233 2
36.7389 53.1596 4.00003
35.3633 60.9091 0.0208474
36.9341 57.6227 0.017572
37.9987 55.2426 0.00541882
34.4902 58.5176 2
36.3239 55.3449 2
33.242 55.5019 3.99517
32.3588 59.7454 0.0144095
29.4041 60.2885 0.0197733
30.3069 57.819 2
28.716 55.314 3.97847
28.0288 58.3739 0.0120333
26.9591 56.8265 2
25.3384 55.1329 3.97365
21.8316 55.3348 3.96532
25.3832 58.5933 0.0216853
23.8534 56.7961 2
20.2302 57.0169 3.9748
20.6501 58.7725 3.97441
21.3439 57.3901 2
21.1672 61.1695 3.97852
21.9969 59.6215 2
22.7632 58.2354 0.0288914
21.8946 63.8377 3.98275
22.7363 62.0221 2
23.4019 60.35 0.0209553
24.4316 62.7707 0.0178775
23.6811 64.7111 2
22.8363 66.736 3.98692
25.5469 65.4926 0.0158672
24.8081 67.5936 2
24.0084 69.805 3.99232
26.8359 68.3316 0.0124183
26.1638 70.6042 2
25.446 73.0099 4
28.369 71.2632 0.00781718
27.7943 73.7222 2
30.1842 74.2788 0
27.8211 8.65464 3.98312
29.1551 5.87838 3.98738
29.8107 7.99346 2
30.7257 3.09844 3.99261
31.2527 5.33173 2
31.7886 7.4207 0.0155122
32.6053 0.320823 4
32.9802 2.70093 2
33.3477 4.9252 0.0109803
35.0474 0.0802903 2
35.2448 2.46303 0.00679054
37.5 0 0
39.1528 35.8187 3.85525
40.7587 35.8256 2
42.541 35.7084 0.264697
28.5433 10.6956 2
26.6224 11.3922 3.98037
29.2259 12.647 3.97977
37.5026 34.1343 3.84446
39.129 34.1817 2
40.6871 34.2247 0.19215
46.0443 31.5974 0.0577486
43.4573 31.2824 0.1259
40.9684 31.2353 0.19699
39.2744 32.3526 0.276748
44.2801 29.7788 2
41.8331 29.8425 2
39.3655 30.5112 2
37.5107 32.2667 2
42.282 28.4445 3.91055
39.8307 28.9876 3.88117
37.5151 30.3251 3.79856
35.7486 32.3516 3.72338
31.9159 14.4885 3.97769
34.0944 12.9391 2
35.6933 11.7792 0.0204218
31.1867 11.9881 2
33.0987 11.2201 0.0207851
30.483 10.0204 0.0188077
45.3712 27.6845 -0.000269316
43.7391 24.1459 -0.00558496
35.7733 14.7666 0.0228975
41.3306 20.7939 0.0202677
38.6822 17.607 0.0214433
33.6087 15.8851 2
35.8487 17.5221 2
42.9546 26.5299 2
38.4154 20.3872 2
40.88 23.3434 2
33.5536 17.3975 3.97807
40.3427 25.7061 3.99586
38.0684 22.9867 3.99757
35.5826 20.104 3.98025
37.4973 37.4971 3.89691
39.1451 37.4861 2
40.8247 37.4772 0.152069
41.8578 52.9896 0.00678373
40.865 49.6499 0.000644231
39.1464 39.1641 0.143718
39.8063 46.007 0.138424
37.5001 44.6849 0.202034
37.4993 40.8824 0.154574
35.7379 42.6605 0.275642
39.8 51.8695 2
37.4981 39.1679 2
35.8741 40.8394 2
38.6824 48.6904 2
34.2111 42.334 2
35.6421 44.5015 2
37.5052 46.3416 2
37.6496 50.9416 4.00684
35.8499 39.1822 3.85619
34.322 40.7862 3.80817
33.1294 42.0036 3.66921
34.0276 43.7578 3.80219
35.1706 45.9976 3.87338
36.8872 48.2879 3.93956
38.7252 53.8299 0.00633015
36.7379 53.1675 2
34.3853 52.4538 3.99745
34.4894 58.5167 0.014553
36.3228 55.3395 0.0064988
33.2423 55.5035 2
30.5476 53.3502 3.97682
30.3061 57.8187 0.0159923
28.7156 55.3165 2
26.9247 53.4269 3.97195
26.9594 56.8255 0.0232797
25.3381 55.1362 2
23.6207 53.4677 3.96111
20.5175 53.2046 3.96165
19.95 55.8188 3.96827
21.8305 55.3364 2
23.8537 56.7939 0.0334255
19.4454 57.8785 3.97319
20.2298 57.0183 2
19.7087 60.198 3.97709
20.6501 58.7735 2
21.344 57.3883 0.0298425
20.2074 62.8578 3.98057
21.1675 61.1706 2
21.9967 59.6206 0.0224589
20.9377 65.7647 3.9863
21.8947 63.8386 2
22.736 62.0211 0.0197142
23.681 64.7103 0.0162145
22.8364 66.7367 2
21.9109 68.8719 3.99207
24.808 67.5928 0.0126059
24.0079 69.8052 2
23.1494 72.1454 4
26.1642 70.6039 0.00776408
25.446 73.0099 2
27.7943 73.7221 0
25.8602 9.38342 3.98237
27.0699 6.54258 3.98646
27.8206 8.65394 2
28.4878 3.64447 3.9922
29.1547 5.87752 2
29.8112 7.99471 0.0164033
30.1841 0.720592 4
30.7253 3.09812 2
31.253 5.33239 0.0117753
32.6053 0.320817 2
32.9805 2.70127 0.00708823
35.0474 0.080333 0
37.4993 35.8209 3.87656
39.1414 35.8283 2
40.777 35.8162 0.161232
24.7772 12.0762 3.98062
23.7525 14.3645 3.97958
28.5437 10.6963 0.0196772
26.622 11.3918 2
29.2257 12.6461 2
27.2922 13.3802 3.97997
29.7818 14.2086 3.97954
35.8725 34.1628 3.82728
37.5027 34.1536 2
39.1368 34.1664 0.172071
37.5102 32.261 0.253979
44.2704 29.792 0.0669643
41.8159 29.8603 0.118797
39.3481 30.5426 0.191392
42.309 28.4172 2
39.8419 28.9532 2
37.5176 30.3054 2
35.7535 32.3626 2
40.0195 27.6217 3.90931
37.5189 28.6945 3.87582
35.6768 30.5509 3.81111
34.231 32.6755 3.70304
30.9282 16.85 3.97726
31.9159 14.4857 2
34.0938 12.9397 0.0222386
31.187 11.9899 0.0207623
42.9454 26.531 0.0032048
40.8825 23.3582 -0.0101484
33.6098 15.8866 0.0233849
35.8509 17.5225 0.0214294
38.4152 20.389 0.0214177
33.5509 17.4044 2
35.5851 20.1088 2
40.3469 25.6906 2
38.061 22.9691 2
32.8657 19.8064 3.98277
37.7898 25.2957 4.00391
35.1949 22.7217 3.99173
35.8387 37.5023 3.87506
37.4967 37.4969 2
39.1583 37.4861 0.12513
39.8004 51.8678 -0.00101957
38.6726 48.654 0.0286634
37.4975 39.1805 0.123037
37.5073 46.31 0.128233
35.6584 44.4728 0.19334
35.866 40.8544 0.172371
34.2159 42.3353 0.296992
37.6407 50.961 2
35.8628 39.1718 2
34.3343 40.7729 2
36.8806 48.322 2
33.1145 42.018 2
34.0009 43.7896 2
35.1553 46.0271 2
35.504 50.0919 3.99509
34.2302 39.1789 3.84036
32.7698 40.8766 3.71799
32.6411 42.6337 3.80977
33.1892 45.1349 3.87907
34.3142 47.3697 3.9153
36.7389 53.1596 -3.21042e-05
34.3819 52.4609 2
32.0559 51.1594 4.00186
33.242 55.5019 0.0048324
30.547 53.3557 2
28.4789 51.566 3.97784
28.716 55.314 0.0215288
26.924 53.4295 2
25.1428 51.7231 3.95954
25.3384 55.1329 0.0263515
23.62 53.4698 2
22.0394 51.7818 3.95663
19.2779 51.6151 3.96376
18.9522 54.2936 3.96172
20.5168 53.2041 2
18.4589 56.7104 3.97134
19.9493 55.8201 2
21.8316 55.3348 0.0346765
18.3728 59.1003 3.9725
19.4451 57.8795 2
20.2302 57.0169 0.0251964
18.6196 61.7619 3.97598
19.709 60.1996 2
20.6501 58.7725 0.025589
19.1267 64.675 3.98493
20.2074 62.8589 2
21.1672 61.1695 0.0214771
19.8851 67.8085 3.99195
20.9377 65.7655 2
21.8946 63.8377 0.0172466
22.8363 66.736 0.0130793
21.9104 68.872 2
20.9142 71.1327 4
24.0084 69.805 0.00768371
23.1494 72.1455 2
25.446 73.0099 0
23.0966 12.7918 3.98018
23.9727 10.1709 3.98188
25.0236 7.31319 3.98562
25.8598 9.38291 2
26.2795 4.32873 3.99175
27.0694 6.54203 2
27.8211 8.65464 0.0168842
27.7943 1.27781 4
28.4873 3.64415 2
29.1551 5.87838 0.0126215
30.1841 0.720551 2
30.7257 3.09844 0.00739124
32.6053 0.320823 0
35.8491 35.8257 3.8557
37.4986 35.8336 2
39.1528 35.8187 0.144749
24.777 12.0758 2
23.7528 14.3643 2
22.4816 15.0418 3.97935
25.3584 13.9129 3.97937
24.0272 15.6282 3.97942
26.6224 11.3922 0.0196279
29.2259 12.647 0.0202286
27.2923 13.3799 2
29.7812 14.2074 2
28.359 15.9843 3.97926
34.3298 34.2315 3.80648
35.8795 34.1786 2
37.5026 34.1343 0.155541
35.7486 32.3516 0.276623
37.5151 30.3251 0.201443
42.282 28.4445 0.0894476
39.8307 28.9876 0.118825
40.031 27.5981 2
37.5156 28.6692 2
35.6576 30.5187 2
34.2227 32.6772 2
37.5961 27.3298 3.92411
35.1897 29.0008 3.88058
34.046 31.2516 3.80267
33.1516 33.006 3.66908
30.2126 19.3578 3.9821
30.9275 16.8466 2
31.9159 14.4885 0.0223149
40.3427 25.7061 0.00413788
38.0684 22.9867 0.00243085
33.5536 17.3975 0.0219335
35.5826 20.104 0.0197487
32.8663 19.8143 2
35.1919 22.7141 2
37.781 25.276 2
32.3131 22.463 3.99603
35.0085 25.268 4.00249
34.1752 37.5072 3.84898
35.8516 37.5025 2
37.4973 37.4971 0.10309
37.6496 50.9416 -0.00683861
36.8872 48.2879 0.0604357
35.8499 39.1822 0.143814
35.1706 45.9976 0.126625
34.0276 43.7578 0.197812
34.322 40.7862 0.191826
33.1294 42.0036 0.33079
35.4972 50.1071 2
34.2545 39.169 2
32.7785 40.8824 2
34.2984 47.4082 2
32.6042 42.6601 2
33.1722 45.1591 2
33.3098 49.0865 3.99119
32.4533 39.288 3.73684
31.501 41.1284 3.80052
31.5396 43.7194 3.87329
32.3437 46.2998 3.91343
34.3853 52.4538 0.00254785
32.0545 51.1679 2
29.9409 49.6791 3.98775
30.5476 53.3502 0.0231784
28.4777 51.5647 2
26.5928 49.9527 3.9705
26.9247 53.4269 0.0280478
25.1416 51.7214 2
23.4356 50.1621 3.9654
23.6207 53.4677 0.0388887
22.0387 51.7809 2
20.5592 50.2898 3.96546
18.0752 50.3102 3.96802
17.894 52.7744 3.96361
19.2766 51.6145 2
17.4549 55.3277 3.96439
18.9497 54.2938 2
20.5175 53.2046 0.0383524
17.1422 57.8622 3.97066
18.4583 56.7112 2
19.95 55.8188 0.0317299
17.1384 60.5407 3.97496
18.3728 59.1014 2
19.4454 57.8785 0.0268079
17.4077 63.4658 3.98155
18.6197 61.7632 2
19.7087 60.198 0.0229104
17.9415 66.6172 3.99172
19.1266 64.676 2
20.2074 62.8578 0.0194308
18.75 69.9759 4
19.8845 67.8085 2
20.9377 65.7647 0.0137005
21.9109 68.8719 0.00792659
20.9142 71.1327 2
23.1494 72.1454 0
21.5879 13.6127 3.97973
22.1908 11.0309 3.98118
23.0968 12.7918 2
23.0413 8.17921 3.98495
23.9725 10.1703 2
24.1171 5.14357 3.99134
25.023 7.31262 2
25.8602 9.38342 0.0176281
25.446 1.99014 4
26.2788 4.32862 2
27.0699 6.54258 0.0135374
27.7943 1.27778 2
28.4878 3.64447 0.00779638
30.1841 0.720592 0
34.2247 35.8319 3.83667
35.8599 35.8355 2
37.4993 35.8209 0.123435
21.3078 15.8382 3.9802
24.7772 12.0762 0.0193835
23.7525 14.3645 0.0204161
25.3586 13.9127 2
22.4822 15.0418 2
24.0275 15.6285 2
23.2674 16.2605 3.97756
25.383 16.0972 3.97933
27.2922 13.3802 0.0200303
29.7818 14.2086 0.0204557
28.3582 15.985 2
27.4445 18.8115 3.98088
32.7873 34.1336 3.71649
34.346 34.2453 2
35.8725 34.1628 0.172723
34.231 32.6755 0.296958
35.6768 30.5509 0.188892
37.5189 28.6945 0.124179
40.0195 27.6217 0.0906923
37.5987 27.2986 2
33.1359 32.9941 2
35.185 28.9657 2
34.0085 31.2118 2
35.0867 27.4597 3.92403
33.2002 29.8762 3.87502
32.6597 32.3699 3.79723
29.5936 21.9539 3.9953
30.2136 19.3646 2
30.9282 16.85 0.0227357
37.7898 25.2957 -0.00390903
35.1949 22.7217 0.00827237
32.8657 19.8064 0.0172279
32.3123 22.4593 2
35.0254 25.2592 2
31.7722 25.6839 4.00799
32.3292 37.5087 3.74587
34.1983 37.5087 2
35.8387 37.5023 0.124945
35.504 50.0919 0.00491004
34.3142 47.3697 0.0847035
34.2302 39.1789 0.159642
33.1892 45.1349 0.120927
32.6411 42.6337 0.190227
32.7698 40.8766 0.282014
33.3061 49.08 2
32.4675 39.2857 2
31.4772 41.1502 2
32.3099 46.3274 2
31.5108 43.747 2
31.2549 47.9215 3.98878
30.7515 39.4163 3.79963
30.223 41.948 3.86609
30.564 44.8932 3.93391
32.0559 51.1594 -0.00185579
29.9388 49.6781 2
27.9986 48.1399 3.96652
28.4789 51.566 0.0221552
26.5918 49.9515 2
24.7741 48.4311 3.97285
25.1428 51.7231 0.0404611
23.435 50.16 2
21.7922 48.7556 3.96933
22.0394 51.7818 0.0433665
20.5578 50.2889 2
19.1456 49.0677 3.97196
16.9788 49.313 3.97233
16.8371 51.3906 3.96658
18.0764 50.3093 2
16.4164 53.8584 3.9645
17.8914 52.7743 2
19.2779 51.6151 0.036245
15.988 56.4639 3.9667
17.4542 55.3279 2
18.9522 54.2936 0.0382821
15.7538 59.2019 3.9721
17.142 57.8634 2
18.4589 56.7104 0.0286597
15.7895 62.1335 3.97711
17.1386 60.5424 2
18.3728 59.1003 0.0275028
16.0887 65.2998 3.99052
17.4075 63.4672 2
18.6196 61.7619 0.0240156
16.6661 68.6801 4
17.9407 66.617 2
19.1267 64.675 0.015066
18.75 69.9759 2
19.8851 67.8085 0.00805085
20.9142 71.1327 0
20.2207 14.6025 3.97869
21.5882 13.6127 2
20.5302 12.0014 3.98048
21.1441 9.14941 3.98444
22.1907 11.0307 2
23.0966 12.7918 0.0198205
22.0162 6.08271 3.99095
23.0409 8.17861 2
23.9727 10.1709 0.018115
23.1494 2.85457 4
24.1163 5.14356 2
25.0236 7.31319 0.0143833
25.446 1.99012 2
26.2795 4.32873 0.00824726
27.7943 1.27781 0
32.4545 35.7259 3.7289
34.2434 35.8454 2
35.8491 35.8257 0.1443
21.3085 15.8379 2
20.3068 16.9708 3.98164
22.1007 16.6448 3.97791
25.3584 13.9129 0.0206342
22.4816 15.0418 0.0206506
24.0272 15.6282 0.0205807
25.383 16.0976 2
23.2678 16.2609 2
24.2093 18.4656 3.97494
27.0334 21.4761 3.99116
28.359 15.9843 0.020741
27.4466 18.8116 2
31.526 33.8881 3.79977
32.7991 34.129 2
34.3298 34.2315 0.193521
33.1516 33.006 0.330918
34.046 31.2516 0.197334
35.1897 29.0008 0.119416
37.5961 27.3298 0.0758937
35.0678 27.4192 2
32.5942 32.3426 2
33.1846 29.8547 2
32.6322 28.1722 3.9352
31.5466 31.2966 3.8749
28.8764 24.4333 3.98051
29.5897 21.9623 2
30.2126 19.3578 0.0179017
35.0085 25.268 -0.00249079
32.3131 22.463 0.0039726
31.7733 25.6652 2
29.756 27.3513 3.96534
30.4275 37.5005 3.80803
32.3427 37.5059 2
34.1752 37.5072 0.151017
33.3098 49.0865 0.00880605
32.3437 46.2998 0.0865683
32.4533 39.288 0.263164
31.5396 43.7194 0.126714
31.501 41.1284 0.199482
31.2532 47.9247 2
30.721 39.4347 2
30.1988 41.9643 2
30.5541 44.9098 2
29.3468 46.524 4.00135
29.32 39.8535 3.88463
28.9343 43.1202 3.93469
29.9409 49.6791 0.0122487
27.997 48.1362 2
26.1133 46.6112 3.97657
26.5928 49.9527 0.0295032
24.774 48.4292 2
22.9781 47.0354 3.97351
23.4356 50.1621 0.0346044
21.7917 48.7543 2
20.1209 47.5887 3.97687
20.5592 50.2898 0.0345399
19.147 49.0666 2
17.7715 48.1576 3.97595
16.2194 48.6667 3.97541
16.9802 49.3122 2
15.9138 50.1545 3.96979
15.4172 52.4032 3.96629
16.8371 51.3901 2
18.0752 50.3102 0.0319797
14.8816 54.9681 3.96601
16.4158 53.8583 2
17.894 52.7744 0.0363926
14.466 57.7302 3.96884
15.9879 56.4643 2
17.4549 55.3277 0.0356136
14.2682 60.6872 3.97598
15.754 59.2033 2
17.1422 57.8622 0.0293428
14.3337 63.8584 3.98759
15.7893 62.1348 2
17.1384 60.5407 0.0250387
14.6715 67.2507 4
16.0875 65.2992 2
17.4077 63.4658 0.0184486
16.6661 68.6801 2
17.9415 66.6172 0.0082806
18.75 69.9759 0
18.9353 15.789 3.97931
20.2211 14.6024 2
18.9802 13.1129 3.97937
21.5879 13.6127 0.0202667
20.5304 12.0013 2
19.3433 10.2377 3.98386
19.9908 7.14738 3.9907
21.1439 9.14907 2
22.1908 11.0309 0.0188181
20.9142 3.86727 4
22.0152 6.08288 2
23.0413 8.17921 0.0150504
23.1494 2.85451 2
24.1171 5.14357 0.00865902
25.446 1.99014 0
30.77 35.6041 3.80292
32.4676 35.7263 2
34.2247 35.8319 0.163328
21.3078 15.8382 0.0197995
22.1014 16.645 2
20.3076 16.9701 2
19.2535 18.4192 3.97611
21.7867 17.8618 3.97993
25.383 16.0972 0.0206715
23.2674 16.2605 0.022444
24.2105 18.4661 2
22.2958 19.9097 3.97137
24.6155 21.3455 3.98924
26.4852 23.7423 3.96994
27.0332 21.4748 2
27.4445 18.8115 0.0191192
30.2532 33.0696 3.8776
31.507 33.8534 2
32.7873 34.1336 0.283507
32.6597 32.3699 0.20277
33.2002 29.8762 0.124981
35.0867 27.4597 0.0759723
32.6066 28.1529 2
31.5139 31.2647 2
30.2585 29.6026 3.95213
27.9999 26.5707 3.98377
28.8719 24.4475 2
29.5936 21.9539 0.00469678
31.7722 25.6839 -0.00798794
29.7534 27.3215 2
28.9567 37.5125 3.88957
30.4145 37.5012 2
32.3292 37.5087 0.254125
31.2549 47.9215 0.0112235
30.564 44.8932 0.0660917
30.7515 39.4163 0.200368
30.223 41.948 0.133907
29.3465 46.5369 2
29.2926 39.8717 2
28.9067 43.1425 2
27.5094 44.8211 3.97717
27.0924 40.5874 3.95764
27.9986 48.1399 0.0334772
26.1097 46.6139 2
24.2195 45.1601 3.97587
24.7741 48.4311 0.0271523
22.9782 47.0341 2
21.0944 45.858 3.97844
21.7922 48.7556 0.0306737
20.1212 47.5877 2
18.45 46.7126 3.97812
19.1456 49.0677 0.0280356
17.7728 48.1567 2
16.4229 47.6962 3.97658
16.2204 48.6661 2
15.2585 49.001 3.97294
16.9788 49.313 0.027671
15.9151 50.1539 2
14.5315 50.9732 3.96802
13.8455 53.4266 3.96627
15.418 52.4029 2
16.8371 51.3906 0.0334202
13.2629 56.1598 3.96738
14.8819 54.968 2
16.4164 53.8584 0.0355046
12.8519 59.1205 3.97386
14.4663 57.7309 2
15.988 56.4639 0.0333019
12.6795 62.3007 3.9851
14.2681 60.6881 2
15.7538 59.2019 0.0279048
12.7746 65.6939 4
14.3322 63.8572 2
15.7895 62.1335 0.0228934
14.6714 67.2507 2
16.0887 65.2998 0.00948329
16.6661 68.6801 0
17.6728 17.1654 3.97449
18.9358 15.7887 2
17.5121 14.3777 3.97846
20.2207 14.6025 0.0213073
18.9805 13.1127 2
17.6389 11.457 3.98276
20.5302 12.0014 0.0195194
19.3432 10.2374 2
18.051 8.34019 3.9905
18.75 5.0241 4
19.9897 7.14793 2
21.1441 9.14941 0.0155604
20.9142 3.86727 2
22.0162 6.08271 0.00904936
23.1494 2.85457 0
29.3393 35.1445 3.88705
30.7341 35.5805 2
32.4545 35.7259 0.2711
22.1007 16.6448 0.0220907
20.3068 16.9708 0.0183571
21.7876 17.8616 2
19.2542 18.4181 2
18.0021 19.9536 3.9706
20.8913 19.3924 3.97624
24.2093 18.4656 0.0250604
22.2963 19.9094 2
24.6156 21.3459 2
22.3931 21.7393 3.9772
24.7545 23.1863 3.97484
25.5853 25.9705 3.97453
26.4867 23.7417 2
27.0334 21.4761 0.00884432
28.6333 32.3779 3.93559
30.2253 33.0515 2
31.526 33.8881 0.200228
31.5466 31.2966 0.125099
32.6322 28.1722 0.0648018
30.2537 29.6017 2
27.2 29.1561 4.00509
27.9943 26.5821 2
28.8764 24.4333 0.0194914
29.756 27.3513 0.034663
27.2088 37.3659 3.93834
28.9128 37.5058 2
30.4275 37.5005 0.191975
29.3468 46.524 -0.001353
28.9343 43.1202 0.065313
29.32 39.8535 0.115366
27.5041 44.8435 2
27.0751 40.5997 2
25.5301 43.1342 3.98738
24.3465 39.449 3.97693
26.1133 46.6112 0.0234265
24.2133 45.1599 2
22.1082 43.91 3.97838
22.9781 47.0354 0.0264918
21.0932 45.857 2
19.1445 44.943 3.97815
20.1209 47.5887 0.0231347
18.4509 46.7116 2
16.7354 46.1943 3.97722
17.7715 48.1576 0.0240502
16.4238 47.6956 2
15.002 47.6559 3.97461
16.2194 48.6667 0.0245929
15.2597 49.0005 2
13.8308 49.5353 3.96989
15.9138 50.1545 0.0302064
14.5325 50.9729 2
12.9152 51.8672 3.96717
12.1492 54.5217 3.96808
13.8454 53.4266 2
15.4172 52.4032 0.0337052
11.5378 57.4532 3.97217
13.2632 56.1599 2
14.8816 54.9681 0.0339881
11.1344 60.6263 3.98281
12.8522 59.1207 2
14.466 57.7302 0.031157
10.9835 64.0165 4
12.678 62.2986 2
14.2682 60.6872 0.0240222
12.7745 65.694 2
14.3337 63.8584 0.0124053
14.6715 67.2507 0
16.4122 18.6643 3.96777
17.6731 17.1647 2
16.1042 15.7876 3.97717
18.9353 15.789 0.0206921
17.5125 14.3771 2
16.0207 12.8111 3.98091
18.9802 13.1129 0.0206306
17.6389 11.4566 2
16.2021 9.66319 3.99016
19.3433 10.2377 0.0161409
18.0498 8.34107 2
16.6661 6.31991 4
18.75 5.02404 2
19.9908 7.14738 0.00930249
20.9142 3.86727 0
27.7359 34.7907 3.93116
29.3111 35.1224 2
30.77 35.6041 0.197079
16.7171 21.3906 3.96146
21.7867 17.8618 0.0200666
19.2535 18.4192 0.023894
20.8918 19.3916 2
18.0027 19.9524 2
19.7607 21.5902 3.97358
22.2958 19.9097 0.0286344
24.6155 21.3455 0.0107585
22.3931 21.7392 2
24.7549 23.1861 2
22.9358 24.6211 3.97185
24.7409 28.5503 3.97772
25.5835 25.9694 2
26.4852 23.7423 0.03006
26.4791 31.7359 3.98523
28.6048 32.3556 2
30.2532 33.0696 0.122398
30.2585 29.6026 0.0478716
27.2213 29.1424 2
27.9999 26.5707 0.0162325
25.0374 36.8605 3.98507
27.1873 37.3589 2
28.9567 37.5125 0.110428
27.5094 44.8211 0.0228272
27.0924 40.5874 0.0423609
25.5149 43.1445 2
24.3307 39.4469 2
23.2422 41.8098 3.9798
22.0649 38.5178 3.97786
24.2195 45.1601 0.0241283
22.1061 43.9104 2
19.956 42.8723 3.97723
21.0944 45.858 0.0215556
19.1441 44.9429 2
17.0995 44.3608 3.97696
18.45 46.7126 0.0218846
16.7367 46.1938 2
14.9412 46.0767 3.97506
16.4229 47.6962 0.0234246
15.0031 47.6555 2
13.3451 47.9984 3.97128
15.2585 49.001 0.0270593
13.8317 49.535 2
12.1347 50.2467 3.96782
14.5315 50.9732 0.0319788
12.9155 51.867 2
11.1443 52.8329 3.96816
10.3283 55.7078 3.97258
12.1498 54.5217 2
13.8455 53.4266 0.033725
9.70137 58.8484 3.9808
11.5381 57.453 2
13.2629 56.1598 0.0326216
9.30605 62.2254 4
11.1329 60.6237 2
12.8519 59.1205 0.0261442
10.9835 64.0165 2
12.6795 62.3007 0.0148958
12.7746 65.6939 0
15.1623 20.1978 3.96739
16.4126 18.6636 2
14.7536 17.3127 3.97117
17.6728 17.1654 0.0255139
16.1046 15.7865 2
14.4836 14.294 3.97908
17.5121 14.3777 0.0215444
16.0208 12.8104 2
14.445 11.1144 3.98933
17.6389 11.457 0.0172358
16.201 9.66435 2
14.6715 7.74927 4
18.051 8.34019 0.00949564
16.6661 6.31988 2
18.75 5.0241 0
25.6937 34.2784 3.99162
27.7144 34.7931 2
29.3393 35.1445 0.112954
17.9049 22.3411 3.97082
15.5558 22.9311 3.96719
16.7178 21.3902 2
20.8913 19.3924 0.0237593
18.0021 19.9536 0.0293997
19.7611 21.5896 2
19.7581 24.4012 3.96967
22.3931 21.7393 0.0227954
24.7545 23.1863 0.025158
22.9355 24.6211 2
22.1093 27.8508 3.9722
24.036 31.2193 3.97618
24.7556 28.5507 2
25.5853 25.9705 0.0254722
26.4643 31.7139 2
28.6333 32.3779 0.0644106
27.2 29.1561 -0.00509026
22.7893 36.2868 3.98202
25.0165 36.8559 2
27.2088 37.3659 0.0616628
25.5301 43.1342 0.0126224
24.3465 39.449 0.0230703
23.233 41.8078 2
22.0569 38.5156 2
20.9743 40.6391 3.97607
20.3733 37.8016 3.9772
22.1082 43.91 0.0216154
19.9546 42.8724 2
17.5537 42.0808 3.97707
19.1445 44.943 0.0218541
17.1008 44.3604 2
14.9687 44.1878 3.97575
16.7354 46.1943 0.0227824
14.9422 46.0763 2
13.0302 46.2859 3.972
15.002 47.6559 0.0253942
13.3459 47.9981 2
11.509 48.5442 3.96826
13.8308 49.5353 0.0301113
12.1352 50.2466 2
10.2697 51.0778 3.96807
12.9152 51.8672 0.0328277
11.1448 52.8327 2
9.23695 53.8878 3.97225
8.3848 56.9815 3.98114
10.3287 55.7073 2
12.1492 54.5217 0.0319157
7.74927 60.3285 4
9.70019 58.8451 2
11.5378 57.4532 0.0278321
9.306 62.2255 2
11.1344 60.6263 0.0171854
10.9835 64.0165 0
13.9759 21.7609 3.96631
15.163 20.1975 2
13.4584 18.9118 3.96763
16.4122 18.6643 0.0322332
14.7541 17.3115 2
13.0303 15.8883 3.97643
16.1042 15.7876 0.0228271
14.4837 14.2929 2
12.7825 12.688 3.9877
16.0207 12.8111 0.019092
14.4437 11.1158 2
12.7746 9.30605 4
16.2021 9.66319 0.00983752
14.6715 7.74924 2
16.6661 6.31991 0
23.3704 33.821 3.9833
25.6728 34.2695 2
27.7359 34.7907 0.0688433
17.6993 24.0599 3.97095
17.9054 22.3409 2
14.3679 24.4632 3.96968
15.5565 22.9309 2
16.7171 21.3906 0.0385354
19.2007 27.2274 3.97129
19.7607 21.5902 0.0264152
19.7568 24.4009 2
21.4182 30.6912 3.97452
22.9358 24.6211 0.0281469
22.1183 27.8519 2
24.0201 31.2169 2
24.7409 28.5503 0.0222802
26.4791 31.7359 0.014766
20.4955 35.9466 3.97731
22.7859 36.2805 2
25.0374 36.8605 0.0149324
23.2422 41.8098 0.020196
22.0649 38.5178 0.0221367
20.98 40.6391 2
20.3776 37.8012 2
18.2945 39.0069 3.97749
19.956 42.8723 0.022767
17.5553 42.0802 2
14.9486 41.9085 3.97678
17.0995 44.3608 0.023035
14.9701 44.1874 2
12.7863 44.3831 3.97253
14.9412 46.0767 0.0249415
13.0311 46.2856 2
11.0148 46.7284 3.96868
13.3451 47.9984 0.028724
11.5095 48.5441 2
9.53278 49.2383 3.96777
12.1347 50.2467 0.0321849
10.2702 51.0776 2
8.26981 52.0015 3.97184
11.1443 52.8329 0.0318404
9.2374 53.8871 2
7.19369 55.0323 3.98207
6.31991 58.3339 4
8.38395 56.9782 2
10.3283 55.7078 0.0274195
7.74924 60.3285 2
9.70137 58.8484 0.0191969
9.30605 62.2254 0
13.2695 25.3722 3.97179
12.8511 23.2888 3.96693
13.9764 21.7606 2
12.2447 20.5581 3.96826
15.1623 20.1978 0.0326121
13.4592 18.9112 2
11.6624 17.5706 3.97304
14.7536 17.3127 0.0288294
13.0306 15.8873 2
11.2203 14.3736 3.98494
14.4836 14.294 0.0209238
12.7811 12.6898 2
10.9835 10.9835 4
14.445 11.1144 0.0106694
12.7745 9.306 2
14.6715 7.74927 0
20.8521 33.4216 3.97572
23.3754 33.831 2
25.6937 34.2784 0.00838153
16.0163 26.4192 3.97174
17.6994 24.0597 2
17.9049 22.3411 0.0291811
14.3678 24.4632 2
15.5558 22.9311 0.0328091
18.5695 30.1959 3.9748
19.2011 27.2276 2
19.7581 24.4012 0.0303343
21.4244 30.6922 2
22.1093 27.8508 0.0278013
24.036 31.2193 0.0238193
17.9072 35.9799 3.97805
20.4932 35.948 2
22.7893 36.2868 0.0179791
20.9743 40.6391 0.0239286
20.3733 37.8016 0.0227964
18.2956 39.0069 2
14.4561 39.1732 3.97757
17.5537 42.0808 0.0229251
14.9502 41.9082 2
12.4893 42.2698 3.9725
14.9687 44.1878 0.0242536
12.7872 44.3829 2
10.5994 44.7975 3.96917
13.0302 46.2859 0.0280021
11.0152 46.7283 2
8.91493 47.3178 3.96751
11.509 48.5442 0.0317362
9.533 49.2381 2
7.43674 50.035 3.97128
10.2697 51.0778 0.0319284
8.27017 52.0009 2
6.13434 53.0074 3.98246
9.23695 53.8878 0.0277484
7.19317 55.0295 2
5.0241 56.25 4
6.31988 58.3339 2
8.3848 56.9815 0.0188573
7.74927 60.3285 0
13.5325 26.8259 3.97117
11.9571 24.794 3.96865
13.269 25.3722 2
11.1466 22.2392 3.9682
12.8511 23.2887 2
13.9759 21.7609 0.0336933
12.2458 20.5579 2
10.3937 19.3242 3.97216
13.4584 18.9118 0.0323689
11.6631 17.5702 2
9.76175 16.158 3.98171
13.0303 15.8883 0.0235683
11.2187 14.376 2
9.30607 12.7746 4
12.7825 12.688 0.0123037
10.9835 10.9835 2
12.7746 9.30605 0
18.0803 33.1308 3.97708
20.8573 33.4215 2
23.3704 33.821 0.0167021
15.6358 29.6541 3.9738
16.0163 26.4194 2
17.6993 24.0599 0.0290464
14.3679 24.4632 0.030316
18.5674 30.1959 2
19.2007 27.2274 0.0287069
21.4182 30.6912 0.0254754
15.0756 36.0256 3.97787
17.9102 35.98 2
20.4955 35.9466 0.0226871
12.7083 37.8296 3.9769
18.2945 39.0069 0.0225073
14.4571 39.1731 2
12.0021 40.1366 3.9734
14.9486 41.9085 0.0232161
12.49 42.2697 2
10.2083 42.7737 3.96941
12.7863 44.3831 0.0274664
10.5997 44.7974 2
8.3928 45.3198 3.96733
11.0148 46.7284 0.0313211
8.91503 47.3176 2
6.72803 48.0003 3.9708
9.53278 49.2383 0.0322277
7.43692 50.0345 2
5.21118 50.9108 3.98221
8.26981 52.0015 0.0281586
6.13408 53.0055 2
3.86727 54.0858 4
7.19369 55.0323 0.0179281
5.02404 56.25 2
6.31991 58.3339 0
13.0052 29.0441 3.97081
11.3977 26.4938 3.96878
13.5319 26.8259 2
10.2045 23.9704 3.96832
11.9576 24.794 2
13.2695 25.3722 0.0282138
9.24573 21.1409 3.97214
11.1475 22.2392 2
12.8511 23.2888 0.0330742
12.2447 20.5581 0.0317359
10.3946 19.3244 2
8.41779 18.0294 3.98072
11.6624 17.5706 0.0269565
9.76052 16.1613 2
7.74928 14.6715 4
11.2203 14.3736 0.0150588
9.30602 12.7745 2
10.9835 10.9835 0
14.6343 32.8745 3.97595
18.0805 33.1313 2
20.8521 33.4216 0.0242772
15.6362 29.6543 2
16.0163 26.4192 0.0282564
18.5695 30.1959 0.025204
13.0058 36.2123 3.97541
15.0771 36.0261 2
17.9072 35.9799 0.0219473
12.7091 37.8295 2
11.3436 38.3088 3.97434
14.4561 39.1732 0.022431
12.0035 40.1365 2
9.79663 40.7515 3.97014
12.4893 42.2698 0.0274953
10.2089 42.7735 2
7.94172 43.2689 3.96754
10.5994 44.7975 0.0308269
8.39288 45.3196 2
6.13431 45.9054 3.9703
8.91493 47.3178 0.0324934
6.7281 47.9999 2
4.42274 48.7515 3.98157
7.43674 50.035 0.0287207
5.21106 50.9098 2
2.85457 51.8506 4
6.13434 53.0074 0.0175419
3.86727 54.0858 2
5.0241 56.25 0
12.152 31.2656 3.97208
10.8191 28.4214 3.9689
13.006 29.0443 2
9.41894 25.7998 3.96818
11.3977 26.4938 2
13.5325 26.8259 0.028832
8.23242 23.0244 3.97185
10.2051 23.9704 2
11.9571 24.794 0.0313468
7.19978 19.9791 3.98145
9.24662 21.1412 2
11.1466 22.2392 0.0318033
10.3937 19.3242 0.0278382
8.41714 18.0329 2
6.31992 16.6661 4
9.76175 16.158 0.018292
7.74926 14.6714 2
9.30607 12.7746 0
12.1789 34.3001 3.97549
14.6348 32.8748 2
18.0803 33.1308 0.0229179
15.6358 29.6541 0.0262037
10.9047 36.6124 3.97352
13.0063 36.2124 2
15.0756 36.0256 0.0221349
12.7083 37.8296 0.0230971
11.3445 38.3087 2
9.38711 38.8222 3.97045
12.0021 40.1366 0.0266045
9.79715 40.7514 2
7.55277 41.2107 3.96792
10.2083 42.7737 0.0305851
7.94169 43.2688 2
5.64624 43.7683 3.97023
8.3928 45.3198 0.0326692
6.1344 45.905 2
3.76839 46.5371 3.98098
6.72803 48.0003 0.0291973
4.42277 48.7511 2
1.99014 49.554 4
5.21118 50.9108 0.0177945
2.85451 51.8506 2
3.86727 54.0858 0
10.987 32.9249 3.97381
10.1383 30.3878 3.96931
12.1528 31.2658 2
8.72713 27.7331 3.96775
10.8194 28.4214 2
13.0052 29.0441 0.0291903
7.35787 24.983 3.97135
9.41921 25.7998 2
11.3977 26.4938 0.0312181
6.11665 22.0024 3.9823
8.23304 23.0248 2
10.2045 23.9704 0.0316815
5.02411 18.75 4
7.1995 19.982 2
9.24573 21.1409 0.0278567
8.41779 18.0294 0.0192772
6.3199 16.6661 2
7.74928 14.6715 0
10.5079 35.003 3.97314
12.1797 34.3002 2
14.6343 32.8745 0.0240497
9.05304 36.9852 3.97086
10.9061 36.6123 2
13.0058 36.2123 0.0245939
11.3436 38.3088 0.0256605
9.38796 38.8221 2
7.23328 39.182 3.96814
9.79663 40.7515 0.0298597
7.553 41.2106 2
5.26143 41.614 3.97004
7.94172 43.2689 0.0324564
5.64625 43.768 2
3.24613 44.2819 3.98089
6.13431 45.9054 0.0296986
3.76852 46.5368 2
1.27781 47.2057 4
4.42274 48.7515 0.0184256
1.99012 49.554 2
2.85457 51.8506 0
10.1436 33.8852 3.9736
9.42321 32.1585 3.97007
10.9877 32.925 2
8.07604 29.6966 3.96779
10.1387 30.3879 2
12.152 31.2656 0.0279196
6.60174 27.0088 3.97068
8.72713 27.7332 2
10.8191 28.4214 0.0310965
5.17202 24.095 3.9823
7.35818 24.9832 2
9.41894 25.7998 0.0318223
3.86728 20.9142 4
6.11656 22.0041 2
8.23242 23.0244 0.0281521
5.02406 18.75 2
7.19978 19.9791 0.0185489
6.31992 16.6661 0
8.87562 35.2809 3.97113
10.5087 35.003 2
12.1789 34.3001 0.0245132
7.01644 37.2062 3.96815
9.05354 36.9851 2
10.9047 36.6124 0.0264759
9.38711 38.8222 0.0295481
7.2336 39.1819 2
4.98919 39.4673 3.97005
7.55277 41.2107 0.0320836
5.26172 41.6137 2
2.8566 42.0022 3.9808
5.64624 43.7683 0.0297734
3.24618 44.2818 2
0.720592 44.8159 4
3.76839 46.5371 0.0190227
1.27778 47.2057 2
1.99014 49.554 0
8.91373 33.7003 3.97095
10.1444 33.8852 2
7.51315 31.6099 3.96802
9.42375 32.1586 2
10.987 32.9249 0.0261949
5.94673 29.0698 3.97067
8.07586 29.6966 2
10.1383 30.3878 0.0306884
4.3598 26.2475 3.9816
6.60182 27.009 2
8.72713 27.7331 0.0322475
2.85458 23.1494 4
5.17203 24.0958 2
7.35787 24.983 0.0286475
3.86728 20.9142 2
6.11665 22.0024 0.017695
5.02411 18.75 0
6.96634 35.3065 3.96836
8.87636 35.2809 2
10.5079 35.003 0.0268646
4.83917 37.3398 3.97062
7.01652 37.2061 2
9.05304 36.9852 0.0291363
7.23328 39.182 0.0318624
4.9895 39.4672 2
2.60471 39.7139 3.98056
5.26143 41.614 0.029965
2.85687 42.0023 2
0.320823 42.3947 4
3.24613 44.2819 0.0191129
0.720551 44.8159 2
1.27781 47.2057 0
7.12639 33.4615 3.96832
8.91417 33.7003 2
10.1436 33.8852 0.0264014
5.41751 31.1337 3.97079
7.51313 31.61 2
9.42321 32.1585 0.0299262
3.68149 28.4434 3.98118
5.94675 29.07 2
8.07604 29.6966 0.032208
1.99015 25.446 4
4.35984 26.2477 2
6.60174 27.0088 0.0293208
2.85453 23.1494 2
5.17202 24.095 0.0177034
3.86728 20.9142 0
4.85328 35.2515 3.97103
6.9667 35.3065 2
8.87562 35.2809 0.0288695
2.49608 37.4285 3.98124
4.83921 37.3398 2
7.01644 37.2062 0.0318452
4.98919 39.4673 0.0299487
2.60504 39.7143 2
0.080333 39.9526 4
2.8566 42.0022 0.0192044
0.320817 42.3947 2
0.720592 44.8159 0
5.04671 33.1902 3.97106
7.12652 33.4615 2
8.91373 33.7003 0.0290541
3.14577 30.6661 3.98097
5.41757 31.134 2
7.51315 31.6099 0.0319765
1.27793 27.7943 4
3.6816 28.4435 2
5.94673 29.0698 0.0293283
1.99013 25.446 2
4.3598 26.2475 0.0184032
2.85458 23.1494 0
2.54813 35.159 3.98131
4.85364 35.2518 2
6.96634 35.3065 0.0316422
0 37.5 4
2.49613 37.4289 2
4.83917 37.3398 0.0293803
2.60471 39.7139 0.0194378
0.0802903 39.9526 2
0.320823 42.3947 0
2.76576 32.9057 3.98137
5.04681 33.1905 2
7.12639 33.4615 0.0316763
0.721173 30.1842 4
3.14593 30.6665 2
5.41751 31.1337 0.0292116
1.27779 27.7943 2
3.68149 28.4434 0.0188217
1.99015 25.446 0
0.0806499 35.0474 4
2.54852 35.1594 2
4.85328 35.2515 0.028971
0 37.5 2
2.49608 37.4285 0.0187579
0.080333 39.9526 0
0.32156 32.6054 4
2.76585 32.9062 2
5.04671 33.1902 0.0289438
0.72056 30.1841 2
3.14577 30.6661 0.0190303
1.27793 27.7943 0
0.0802889 35.0474 2
2.54813 35.159 0.0186947
0 37.5 0
0.320817 32.6053 2
2.76576 32.9057 0.0186281
0.721173 30.1842 0
0.0806499 35.0474 0
0.32156 32.6054 0
CELLS 1910 17190
8 18 6 25 56 2 0 5 16
8 57 23 6 18 17 4 0 2
8 78 36 9 29 31 11 1 7
8 31 11 1 7 79 37 10 30
8 110 57 18 50 48 17 2 14
8 50 18 56 111 14 2 16 49
8 116 62 22 55 52 20 3 15
8 56 25 67 118 16 5 24 53
8 119 63 23 57 54 21 4 17
8 55 22 63 119 15 3 21 54
8 58 26 68 121 18 6 25 56
8 122 65 26 58 57 23 6 18
8 73 31 7 27 142 79 30 71
8 143 78 29 72 73 31 7 27
8 83 147 76 34 32 74 28 8
8 84 148 78 36 33 75 29 9
8 76 34 8 28 148 84 33 75
8 37 79 150 86 10 30 77 35
8 151 87 36 78 80 38 11 31
8 80 38 11 31 152 88 37 79
8 175 100 42 94 96 44 12 40
8 44 96 176 101 12 40 95 43
8 101 176 98 46 43 95 41 13
8 46 98 178 103 13 41 97 45
8 178 103 45 97 147 83 32 74
8 189 116 55 109 106 52 15 47
8 111 56 118 191 49 16 53 107
8 192 119 57 110 108 54 17 48
8 109 55 119 192 47 15 54 108
8 194 122 58 112 110 57 18 50
8 112 58 121 195 50 18 56 111
8 115 61 19 51 197 124 59 113
8 115 61 125 198 51 19 60 114
8 198 125 62 116 114 60 20 52
8 200 127 64 120 116 62 22 55
8 118 67 132 202 53 24 66 117
8 121 68 133 203 56 25 67 118
8 120 64 128 204 55 22 63 119
8 204 128 65 122 119 63 23 57
8 206 134 68 121 123 69 26 58
8 123 69 26 58 207 131 65 122
8 226 147 74 138 140 76 28 70
8 229 148 75 139 143 78 29 72
8 140 76 28 70 229 148 75 139
8 142 79 30 71 231 150 77 141
8 144 80 31 73 232 152 79 142
8 233 151 78 143 144 80 31 73
8 150 86 35 77 235 154 81 145
8 235 154 81 145 146 82 39 91
8 146 82 39 91 236 155 90 165
8 238 157 83 147 149 85 34 76
8 239 158 84 148 151 87 36 78
8 149 85 34 76 239 158 84 148
8 152 88 37 79 241 160 86 150
8 242 161 87 151 153 89 38 80
8 153 89 38 80 243 162 88 152
8 171 98 41 92 265 178 97 169
8 265 178 97 169 226 147 74 138
8 172 96 40 93 266 176 95 170
8 266 176 95 170 171 98 41 92
8 269 175 94 173 172 96 40 93
8 271 180 99 174 175 100 42 94
8 197 124 59 113 271 180 99 174
8 272 181 100 175 177 102 44 96
8 273 182 101 176 179 104 46 98
8 177 102 44 96 273 182 101 176
8 179 104 46 98 275 184 103 178
8 275 184 103 178 238 157 83 147
8 188 115 51 105 283 197 113 186
8 188 115 198 284 105 51 114 187
8 284 198 116 189 187 114 52 106
8 286 200 120 193 189 116 55 109
8 191 118 202 288 107 53 117 190
8 195 121 203 289 111 56 118 191
8 193 120 204 290 109 55 119 192
8 290 204 122 194 192 119 57 110
8 196 123 58 112 292 207 122 194
8 293 206 121 195 196 123 58 112
8 199 126 61 115 297 211 124 197
8 298 212 127 200 198 125 62 116
8 199 126 212 298 115 61 125 198
8 205 129 64 120 300 214 127 200
8 301 217 130 201 202 132 66 117
8 209 136 168 264 301 217 130 201
8 302 219 132 202 203 133 67 118
8 303 220 133 203 206 134 68 121
8 205 129 215 304 120 64 128 204
8 304 215 131 207 204 128 65 122
8 306 221 134 206 208 135 69 123
8 208 135 69 123 307 218 131 207
8 210 137 167 263 309 223 136 209
8 328 238 147 226 230 149 76 140
8 228 146 91 166 329 236 165 260
8 231 150 77 141 330 235 145 227
8 330 235 145 227 228 146 91 166
8 332 239 148 229 233 151 78 143
8 230 149 76 140 332 239 148 229
8 232 152 79 142 334 241 150 231
8 234 153 80 144 335 243 152 232
8 336 242 151 233 234 153 80 144
8 236 155 90 165 338 245 164 259
8 241 160 86 150 339 246 154 235
8 339 246 154 235 237 156 82 146
8 237 156 82 146 340 247 155 236
8 342 249 157 238 240 159 85 149
8 343 250 158 239 242 161 87 151
8 240 159 85 149 343 250 158 239
8 243 162 88 152 345 252 160 241
8 244 163 253 346 153 89 161 242
8 244 163 89 153 347 254 162 243
8 311 224 261 371 210 137 167 263
8 263 167 262 372 209 136 168 264
8 267 179 98 171 375 275 178 265
8 375 275 178 265 328 238 147 226
8 376 273 176 266 267 179 98 171
8 268 177 96 172 376 273 176 266
8 379 272 175 269 268 177 96 172
8 380 271 174 270 269 175 94 173
8 283 197 113 186 380 271 174 270
8 381 277 180 271 272 181 100 175
8 297 211 124 197 381 277 180 271
8 382 278 181 272 274 183 102 177
8 274 183 102 177 383 279 182 273
8 383 279 182 273 276 185 104 179
8 385 281 184 275 342 249 157 238
8 276 185 104 179 385 281 184 275
8 285 199 115 188 393 297 197 283
8 394 298 200 286 284 198 116 189
8 285 199 298 394 188 115 198 284
8 291 205 120 193 396 300 200 286
8 397 301 201 287 288 202 117 190
8 295 209 264 374 397 301 201 287
8 398 302 202 288 289 203 118 191
8 399 303 203 289 293 206 121 195
8 291 205 304 400 193 120 204 290
8 400 304 207 292 290 204 122 194
8 294 208 123 196 402 307 207 292
8 403 306 206 293 294 208 123 196
8 296 210 263 373 405 309 209 295
8 408 312 213 299 297 211 126 199
8 299 213 313 409 199 126 212 298
8 409 313 214 300 298 212 127 200
8 305 216 129 205 411 315 214 300
8 412 318 217 301 302 219 132 202
8 309 223 136 209 412 318 217 301
8 413 320 219 302 303 220 133 203
8 306 221 321 414 206 134 220 303
8 307 218 131 207 415 316 215 304
8 305 216 316 415 205 129 215 304
8 417 322 221 306 308 222 135 208
8 308 222 135 208 418 319 218 307
8 310 225 137 210 420 325 223 309
8 423 326 224 311 310 225 137 210
8 329 236 165 260 441 338 259 368
8 442 342 238 328 333 240 149 230
8 331 237 146 228 443 340 236 329
8 334 241 150 231 444 339 235 330
8 444 339 235 330 331 237 146 228
8 446 343 239 332 336 242 151 233
8 333 240 149 230 446 343 239 332
8 335 243 152 232 448 345 241 334
8 337 244 153 234 449 347 243 335
8 337 244 346 450 234 153 242 336
8 338 245 164 259 452 349 258 367
8 340 247 155 236 453 350 245 338
8 345 252 160 241 454 351 246 339
8 454 351 246 339 341 248 156 237
8 341 248 156 237 455 352 247 340
8 240 159 251 344 342 249 354 457
8 242 161 253 346 343 250 355 458
8 343 250 355 458 240 159 251 344
8 347 254 162 243 460 357 252 345
8 348 255 358 461 244 163 253 346
8 348 255 163 244 462 359 254 347
8 473 360 257 365 363 256 364 482
8 452 349 258 367 365 257 366 485
8 422 324 369 488 311 224 261 371
8 371 261 370 490 263 167 262 372
8 407 311 371 491 296 210 263 373
8 373 263 372 492 295 209 264 374
8 493 385 275 375 442 342 238 328
8 377 276 179 267 493 385 275 375
8 378 274 177 268 494 383 273 376
8 494 383 273 376 377 276 179 267
8 497 382 272 379 378 274 177 268
8 498 381 271 380 379 272 175 269
8 393 297 197 283 498 381 271 380
8 499 387 277 381 382 278 181 272
8 408 312 211 297 499 387 277 381
8 500 388 278 382 384 280 183 274
8 501 389 279 383 386 282 185 276
8 384 280 183 274 501 389 279 383
8 386 282 185 276 503 391 281 385
8 503 391 281 385 457 354 249 342
8 511 408 299 395 393 297 199 285
8 395 299 409 512 285 199 298 394
8 512 409 300 396 394 298 200 286
8 401 305 205 291 514 411 300 396
8 515 412 301 397 398 302 202 288
8 405 309 209 295 515 412 301 397
8 516 413 302 398 399 303 203 289
8 403 306 414 517 293 206 303 399
8 402 307 207 292 518 415 304 400
8 401 305 415 518 291 205 304 400
8 404 308 208 294 520 418 307 402
8 521 417 306 403 404 308 208 294
8 406 310 210 296 523 420 309 405
8 526 423 311 407 406 310 210 296
8 410 314 213 299 527 424 312 408
8 528 425 315 411 409 313 214 300
8 410 314 425 528 299 213 313 409
8 416 317 216 305 530 427 315 411
8 531 430 318 412 413 320 219 302
8 420 325 223 309 531 430 318 412
8 532 432 320 413 414 321 220 303
8 417 322 433 533 306 221 321 414
8 418 319 218 307 534 428 316 415
8 416 317 428 534 305 216 316 415
8 419 323 434 536 308 222 322 417
8 419 323 222 308 537 431 319 418
8 421 327 225 310 539 438 325 420
8 421 327 439 541 310 225 326 423
8 543 437 324 422 423 326 224 311
8 441 338 259 368 559 452 367 486
8 443 340 236 329 560 453 338 441
8 333 240 344 447 442 342 457 561
8 445 341 237 331 562 455 340 443
8 448 345 241 334 563 454 339 444
8 563 454 339 444 445 341 237 331
8 336 242 346 450 446 343 458 565
8 446 343 458 565 333 240 344 447
8 449 347 243 335 567 460 345 448
8 451 348 244 337 568 462 347 449
8 451 348 461 569 337 244 346 450
8 570 463 349 452 473 360 257 365
8 453 350 245 338 570 463 349 452
8 455 352 247 340 571 464 350 453
8 460 357 252 345 572 465 351 454
8 572 465 351 454 456 353 248 341
8 456 353 248 341 573 466 352 455
8 344 251 356 459 457 354 468 575
8 458 355 469 576 344 251 356 459
8 346 253 358 461 458 355 469 576
8 462 359 254 347 578 471 357 460
8 348 255 359 462 461 358 472 579
8 591 474 360 473 475 361 256 363
8 475 361 256 363 594 477 362 479
8 363 256 364 482 479 362 480 603
8 590 473 365 484 481 363 482 605
8 482 364 257 365 606 483 366 485
8 559 452 367 486 484 365 485 607
8 542 436 487 609 422 324 369 488
8 525 422 488 611 407 311 371 491
8 488 369 489 612 371 261 370 490
8 491 371 490 613 373 263 372 492
8 495 386 276 377 614 503 385 493
8 614 503 385 493 561 457 342 442
8 615 501 383 494 495 386 276 377
8 496 384 274 378 615 501 383 494
8 618 500 382 497 496 384 274 378
8 619 499 381 498 497 382 272 379
8 511 408 297 393 619 499 381 498
8 620 505 387 499 500 388 278 382
8 527 424 312 408 620 505 387 499
8 502 390 506 621 384 280 388 500
8 622 507 389 501 504 392 282 386
8 502 390 280 384 622 507 389 501
8 504 392 282 386 624 509 391 503
8 624 509 391 503 575 468 354 457
8 513 410 299 395 630 527 408 511
8 631 528 411 514 512 409 300 396
8 513 410 528 631 395 299 409 512
8 519 416 305 401 633 530 411 514
8 634 531 412 515 516 413 302 398
8 523 420 309 405 634 531 412 515
8 635 532 413 516 517 414 303 399
8 521 417 533 636 403 306 414 517
8 520 418 307 402 637 534 415 518
8 519 416 534 637 401 305 415 518
8 522 419 308 404 639 537 418 520
8 522 419 536 640 404 308 417 521
8 524 421 310 406 642 539 420 523
8 524 421 541 644 406 310 423 526
8 646 543 422 525 526 423 311 407
8 529 426 314 410 647 544 424 527
8 528 425 545 648 411 315 427 530
8 529 426 545 648 410 314 425 528
8 535 429 317 416 649 546 427 530
8 650 548 430 531 532 432 320 413
8 539 438 325 420 650 548 430 531
8 533 433 550 651 414 321 432 532
8 536 434 551 652 417 322 433 533
8 537 431 319 418 653 547 428 534
8 535 429 547 653 416 317 428 534
8 538 435 552 654 419 323 434 536
8 538 435 323 419 655 549 431 537
8 540 440 327 421 657 556 438 539
8 540 440 557 659 421 327 439 541
8 541 439 555 660 423 326 437 543
8 661 554 436 542 543 437 324 422
8 676 570 452 559 590 473 365 484
8 560 453 338 441 676 570 452 559
8 562 455 340 443 677 571 453 560
8 447 344 459 566 561 457 575 678
8 564 456 341 445 679 573 455 562
8 567 460 345 448 680 572 454 563
8 680 572 454 563 564 456 341 445
8 565 458 576 682 447 344 459 566
8 450 346 461 569 565 458 576 682
8 568 462 347 449 684 578 460 567
8 451 348 462 568 569 461 579 685
8 686 580 463 570 591 474 360 473
8 571 464 350 453 686 580 463 570
8 573 466 352 455 687 581 464 571
8 572 465 582 688 460 357 471 578
8 574 467 582 688 456 353 465 572
8 574 467 353 456 689 583 466 573
8 459 356 470 577 575 468 585 691
8 576 469 586 692 459 356 470 577
8 461 358 472 579 576 469 586 692
8 462 359 471 578 579 472 588 694
8 704 591 473 590 593 475 363 481
8 595 476 592 705 475 361 474 591
8 593 475 363 481 707 594 479 602
8 594 477 362 479 709 598 478 600
8 595 476 361 475 711 597 477 594
8 479 362 480 603 600 478 601 720
8 481 363 482 605 602 479 603 722
8 603 480 364 482 723 604 483 606
8 605 482 365 484 724 606 485 607
8 656 553 608 726 542 436 487 609
8 645 542 609 728 525 422 488 611
8 609 487 610 729 488 369 489 612
8 611 488 612 730 491 371 490 613
8 616 504 386 495 731 624 503 614
8 731 624 503 614 678 575 457 561
8 732 622 501 615 616 504 386 495
8 617 502 384 496 732 622 501 615
8 617 502 621 735 496 384 500 618
8 736 620 499 619 618 500 382 497
8 630 527 408 511 736 620 499 619
8 621 506 626 737 500 388 505 620
8 647 544 424 527 737 626 505 620
8 623 508 627 738 502 390 506 621
8 623 508 390 502 739 628 507 622
8 625 510 628 739 504 392 507 622
8 740 629 509 624 691 585 468 575
8 625 510 392 504 740 629 509 624
8 632 529 410 513 744 647 527 630
8 631 528 648 745 514 411 530 633
8 632 529 648 745 513 410 528 631
8 638 535 416 519 746 649 530 633
8 747 650 531 634 635 532 413 516
8 642 539 420 523 747 650 531 634
8 636 533 651 748 517 414 532 635
8 640 536 652 749 521 417 533 636
8 639 537 418 520 750 653 534 637
8 638 535 653 750 519 416 534 637
8 641 538 419 522 751 655 537 639
8 641 538 654 752 522 419 536 640
8 643 540 421 524 753 657 539 642
8 643 540 659 755 524 421 541 644
8 644 541 660 757 526 423 543 646
8 758 661 542 645 646 543 422 525
8 529 426 544 647 648 545 662 759
8 530 427 545 648 649 546 663 760
8 535 429 546 649 653 547 664 761
8 762 666 548 650 651 550 432 532
8 657 556 438 539 762 666 548 650
8 652 551 668 763 533 433 550 651
8 654 552 669 764 536 434 551 652
8 655 549 431 537 765 665 547 653
8 538 435 549 655 654 552 667 766
8 661 554 671 768 542 436 553 656
8 658 558 440 540 769 674 556 657
8 658 558 675 770 540 440 557 659
8 659 557 673 771 541 439 555 660
8 660 555 672 772 543 437 554 661
8 788 686 570 676 704 591 473 590
8 677 571 453 560 788 686 570 676
8 679 573 455 562 789 687 571 677
8 566 459 577 683 678 575 691 790
8 681 574 456 564 791 689 573 679
8 680 572 688 792 567 460 578 684
8 681 574 688 792 564 456 572 680
8 682 576 692 794 566 459 577 683
8 569 461 579 685 682 576 692 794
8 568 462 578 684 685 579 694 796
8 687 581 464 571 798 696 580 686
8 798 696 580 686 705 592 474 591
8 689 583 466 573 799 697 581 687
8 688 582 698 800 578 471 588 694
8 690 584 698 800 574 467 582 688
8 690 584 467 574 801 699 583 689
8 693 587 701 803 577 470 585 691
8 693 587 470 577 804 702 586 692
8 695 589 702 804 579 472 586 692
8 695 589 472 579 805 703 588 694
8 708 595 705 813 593 475 591 704
8 710 596 706 814 595 476 592 705
8 707 594 479 602 816 709 600 719
8 708 595 475 593 817 711 594 707
8 709 598 478 600 819 715 599 717
8 711 597 477 594 820 714 598 709
8 710 596 476 595 822 713 597 711
8 600 478 601 720 717 599 718 832
8 602 479 603 722 719 600 720 834
8 720 601 480 603 835 721 604 723
8 722 603 482 605 836 723 606 724
8 767 670 725 839 656 553 608 726
8 756 656 726 841 645 542 609 728
8 726 608 727 842 609 487 610 729
8 728 609 729 843 611 488 612 730
8 844 740 624 731 790 691 575 678
8 733 625 504 616 844 740 624 731
8 734 623 502 617 845 739 622 732
8 733 625 739 845 616 504 622 732
8 734 623 738 846 617 502 621 735
8 735 621 737 847 618 500 620 736
8 744 647 527 630 847 737 620 736
8 621 506 627 738 737 626 741 848
8 647 544 626 737 759 662 741 848
8 623 508 628 739 738 627 742 849
8 740 629 585 691 850 743 700 802
8 625 510 629 740 739 628 743 850
8 632 529 647 744 745 648 759 854
8 633 530 648 745 746 649 760 855
8 638 535 649 746 750 653 761 856
8 857 762 650 747 748 651 532 635
8 753 657 539 642 857 762 650 747
8 749 652 763 858 636 533 651 748
8 752 654 764 859 640 536 652 749
8 751 655 537 639 860 765 653 750
8 641 538 655 751 752 654 766 861
8 754 658 540 643 862 769 657 753
8 754 658 770 863 643 540 659 755
8 755 659 771 864 644 541 660 757
8 758 661 768 866 645 542 656 756
8 757 660 772 867 646 543 661 758
8 759 662 773 868 648 545 663 760
8 649 546 663 760 761 664 774 871
8 765 665 547 653 872 775 664 761
8 873 777 666 762 763 668 550 651
8 769 674 556 657 873 777 666 762
8 764 669 779 874 652 551 668 763
8 654 552 667 766 764 669 778 875
8 655 549 665 765 766 667 776 876
8 768 671 782 877 656 553 670 767
8 772 672 783 878 661 554 671 768
8 658 558 674 769 770 675 786 879
8 659 557 675 770 771 673 785 881
8 882 784 672 772 771 673 555 660
8 789 687 571 677 897 798 686 788
8 897 798 686 788 813 705 591 704
8 791 689 573 679 898 799 687 789
8 795 693 803 900 683 577 691 790
8 793 690 574 681 901 801 689 791
8 792 688 800 902 684 578 694 796
8 793 690 800 902 681 574 688 792
8 795 693 577 683 903 804 692 794
8 797 695 804 903 685 579 692 794
8 797 695 579 685 904 805 694 796
8 905 806 697 799 798 696 581 687
8 814 706 806 905 705 592 696 798
8 689 583 697 799 801 699 808 907
8 800 698 809 908 694 588 703 805
8 690 584 699 801 800 698 809 908
8 803 701 810 909 691 585 700 802
8 693 587 702 804 803 701 811 910
8 695 589 703 805 804 702 812 911
8 818 710 814 919 708 595 705 813
8 821 712 815 920 710 596 706 814
8 816 709 600 719 922 819 717 831
8 817 711 594 707 923 820 709 816
8 818 710 595 708 924 822 711 817
8 819 715 599 717 926 827 716 829
8 820 714 598 709 927 826 715 819
8 929 825 713 822 820 714 597 711
8 821 712 596 710 930 824 713 822
8 717 599 718 832 829 716 830 942
8 719 600 720 834 831 717 832 944
8 832 718 601 720 945 833 721 835
8 834 720 603 722 946 835 723 836
8 869 780 838 950 767 670 725 839
8 865 767 839 952 756 656 726 841
8 839 725 840 953 726 608 727 842
8 841 726 842 954 728 609 729 843
8 844 740 691 790 955 850 802 899
8 733 625 740 844 845 739 850 955
8 734 623 739 845 846 738 849 956
8 735 621 738 846 847 737 848 957
8 744 647 737 847 854 759 848 957
8 738 627 742 849 848 741 851 958
8 848 741 851 958 759 662 773 868
8 850 743 700 802 959 852 807 906
8 849 742 628 739 959 852 743 850
8 854 759 868 965 745 648 760 855
8 746 649 760 855 856 761 871 966
8 860 765 653 750 967 872 761 856
8 968 873 762 857 858 763 651 748
8 862 769 657 753 968 873 762 857
8 859 764 874 969 749 652 763 858
8 752 654 766 861 859 764 875 970
8 751 655 765 860 861 766 876 971
8 754 658 769 862 863 770 879 972
8 755 659 770 863 864 771 881 974
8 976 882 772 867 864 771 660 757
8 866 768 877 977 756 656 767 865
8 867 772 878 978 758 661 768 866
8 760 663 773 868 871 774 883 980
8 870 781 837 948 982 890 780 869
8 982 890 780 869 877 782 670 767
8 761 664 774 871 872 775 884 984
8 876 776 665 765 985 885 775 872
8 873 777 668 763 986 887 779 874
8 769 674 777 873 879 786 887 986
8 764 669 778 875 874 779 888 987
8 766 667 776 876 875 778 886 988
8 878 783 892 989 768 671 782 877
8 878 783 672 772 990 893 784 882
8 880 787 675 770 991 896 786 879
8 880 787 895 992 770 675 785 881
8 881 785 894 993 771 673 784 882
8 1006 905 799 898 897 798 687 789
8 919 814 905 1006 813 705 798 897
8 791 689 799 898 901 801 907 1007
8 900 803 909 1009 790 691 802 899
8 795 693 804 903 900 803 910 1010
8 902 800 908 1011 796 694 805 904
8 793 690 801 901 902 800 908 1011
8 797 695 805 904 903 804 911 1012
8 799 697 806 905 907 808 912 1013
8 920 815 912 1013 814 706 806 905
8 802 700 810 909 906 807 913 1014
8 801 699 808 907 908 809 914 1015
8 805 703 809 908 911 812 915 1016
8 803 701 811 910 909 810 916 1017
8 911 812 917 1018 804 702 811 910
8 925 821 920 1030 818 710 814 919
8 928 823 921 1031 821 712 815 920
8 922 819 717 831 1033 926 829 941
8 923 820 709 816 1034 927 819 922
8 1035 929 822 924 923 820 711 817
8 925 821 710 818 1036 930 822 924
8 1038 933 825 929 927 826 714 820
8 926 827 716 829 1039 935 828 939
8 927 826 715 819 1040 934 827 926
8 928 823 712 821 1041 931 824 930
8 1042 932 824 930 929 825 713 822
8 829 716 830 942 939 828 940 1058
8 831 717 832 944 941 829 942 1060
8 942 830 718 832 1061 943 833 945
8 944 832 720 834 1062 945 835 946
8 981 889 947 1064 870 781 837 948
8 948 837 949 1067 869 780 838 950
8 975 869 950 1069 865 767 839 952
8 950 838 951 1070 839 725 840 953
8 952 839 953 1071 841 726 842 954
8 955 850 802 899 1072 959 906 1008
8 956 849 739 845 1072 959 850 955
8 846 738 849 956 957 848 958 1073
8 957 848 958 1073 854 759 868 965
8 849 742 852 959 958 851 961 1076
8 960 853 961 1076 906 807 852 959
8 958 851 961 1076 868 773 883 980
8 960 853 807 906 1077 963 913 1014
8 855 760 868 965 966 871 980 1085
8 856 761 871 966 967 872 984 1086
8 971 876 765 860 1087 985 872 967
8 968 873 763 858 1088 986 874 969
8 862 769 873 968 972 879 986 1088
8 859 764 875 970 969 874 987 1089
8 861 766 876 971 970 875 988 1090
8 973 880 770 863 1091 991 879 972
8 973 880 992 1092 863 770 881 974
8 974 881 993 1093 864 771 882 976
8 979 870 948 1066 1094 982 869 975
8 1094 982 869 975 977 877 767 865
8 978 878 772 867 1095 990 882 976
8 978 878 989 1096 866 768 877 977
8 871 774 883 980 984 884 994 1099
8 983 891 999 1100 870 781 889 981
8 1101 1000 890 982 989 892 782 877
8 983 891 781 870 1101 1000 890 982
8 872 775 884 984 985 885 995 1103
8 876 776 885 985 988 886 996 1104
8 986 887 779 874 1105 998 888 987
8 879 786 887 986 991 896 998 1105
8 875 778 886 988 987 888 997 1106
8 990 893 1002 1107 878 783 892 989
8 1108 1003 893 990 993 894 784 882
8 880 787 896 991 992 895 1005 1109
8 993 894 785 881 1110 1004 895 992
8 898 799 905 1006 1007 907 1013 1120
8 1030 920 1013 1120 919 814 905 1006
8 901 801 907 1007 1011 908 1015 1121
8 899 802 909 1009 1008 906 1014 1122
8 900 803 910 1010 1009 909 1017 1123
8 1012 911 1018 1124 903 804 910 1010
8 904 805 908 1011 1012 911 1016 1125
8 1013 912 1020 1127 907 808 914 1015
8 1031 921 1020 1127 920 815 912 1013
8 1019 918 962 1075 1128 1021 913 1014
8 1128 1021 913 1014 1017 916 810 909
8 1015 914 1022 1129 908 809 915 1016
8 1016 915 1023 1130 911 812 917 1018
8 1018 917 1024 1131 910 811 916 1017
8 1037 928 1031 1148 925 821 920 1030
8 928 823 931 1041 1031 921 1032 1149
8 1033 926 829 941 1151 1039 939 1057
8 1034 927 819 922 1152 1040 926 1033
8 1153 1038 929 1035 1034 927 820 923
8 1154 1042 930 1036 1035 929 822 924
8 1037 928 821 925 1155 1041 930 1036
8 1039 935 828 939 1156 1047 938 1055
8 1157 1043 932 1042 1038 933 825 929
8 1038 933 826 927 1158 1045 934 1040
8 1040 934 827 926 1159 1046 935 1039
8 930 824 932 1042 1041 931 1044 1160
8 1051 936 1048 1165 1175 1052 937 1053
8 1156 1047 938 1055 1053 937 1054 1178
8 939 828 940 1058 1055 938 1056 1181
8 941 829 942 1060 1057 939 1058 1183
8 942 830 943 1061 1058 940 1059 1184
8 1060 942 832 944 1185 1061 945 1062
8 1082 964 1063 1188 981 889 947 1064
8 1097 981 1064 1190 979 870 948 1066
8 1064 947 1065 1191 948 837 949 1067
8 1066 948 1067 1193 975 869 950 1069
8 1067 949 1068 1194 950 838 951 1070
8 1069 950 1070 1195 952 839 953 1071
8 956 849 959 1072 1073 958 1076 1197
8 1074 960 1076 1197 1008 906 959 1072
8 1073 958 1076 1197 965 868 980 1085
8 1074 960 906 1008 1198 1077 1014 1122
8 1133 1026 1079 1199 1019 918 962 1075
8 1077 963 913 1014 1200 1080 962 1075
8 960 853 963 1077 1076 961 1078 1201
8 980 883 961 1076 1099 994 1078 1201
8 1210 1083 964 1082 1100 999 889 981
8 966 871 980 1085 1086 984 1099 1215
8 967 872 984 1086 1087 985 1103 1216
8 971 876 985 1087 1090 988 1104 1217
8 1088 986 874 969 1218 1105 987 1089
8 972 879 986 1088 1091 991 1105 1218
8 970 875 988 1090 1089 987 1106 1219
8 973 880 991 1091 1092 992 1109 1220
8 1093 993 881 974 1221 1110 992 1092
8 1222 1108 990 1095 1093 993 882 976
8 1223 1101 982 1094 1096 989 877 977
8 1098 983 870 979 1223 1101 982 1094
8 1095 990 1107 1224 978 878 989 1096
8 1098 983 1100 1225 979 870 981 1097
8 984 884 994 1099 1103 995 1111 1227
8 1102 1001 1115 1228 983 891 999 1100
8 1101 1000 892 989 1229 1116 1002 1107
8 1102 1001 891 983 1229 1116 1000 1101
8 985 885 995 1103 1104 996 1112 1230
8 988 886 996 1104 1106 997 1113 1231
8 1105 998 888 987 1232 1114 997 1106
8 991 896 998 1105 1109 1005 1114 1232
8 1108 1003 1117 1233 990 893 1002 1107
8 1108 1003 894 993 1233 1117 1004 1110
8 992 895 1005 1109 1110 1004 1118 1234
8 1120 1013 1127 1244 1007 907 1015 1121
8 1148 1031 1127 1244 1030 920 1013 1120
8 1121 1015 1129 1245 1011 908 1016 1125
8 1126 1019 1075 1196 1246 1128 1014 1122
8 1246 1128 1014 1122 1123 1017 909 1009
8 1124 1018 1131 1247 1010 910 1017 1123
8 1125 1016 1130 1248 1012 911 1018 1124
8 1127 1020 1137 1254 1015 914 1022 1129
8 1031 921 1032 1149 1127 1020 1137 1254
8 1134 1027 918 1019 1257 1140 1021 1128
8 1257 1140 1021 1128 1131 1024 916 1017
8 1129 1022 1141 1258 1016 915 1023 1130
8 1130 1023 1142 1259 1018 917 1024 1131
8 1261 1144 1025 1132 1133 1026 1079 1199
8 1255 1138 1025 1132 1135 1028 1144 1261
8 1133 1026 918 1019 1262 1145 1027 1134
8 1136 1029 1139 1256 1263 1146 1028 1135
8 1037 928 1041 1155 1148 1031 1149 1275
8 1041 931 1044 1160 1149 1032 1150 1276
8 1151 1039 939 1057 1278 1156 1055 1180
8 1152 1040 926 1033 1279 1159 1039 1151
8 1153 1038 927 1034 1280 1158 1040 1152
8 1281 1157 1042 1154 1153 1038 929 1035
8 1036 930 1042 1154 1155 1041 1160 1282
8 1283 1164 1046 1159 1156 1047 935 1039
8 1165 1048 1164 1283 1053 937 1047 1156
8 1157 1043 933 1038 1284 1161 1045 1158
8 1157 1043 1161 1284 1042 932 1044 1160
8 1040 934 1046 1159 1158 1045 1163 1285
8 1166 1049 1167 1292 1051 936 1048 1165
8 1166 1049 936 1051 1293 1168 1050 1172
8 1051 936 1052 1175 1172 1050 1173 1306
8 1174 1051 1165 1290 1308 1175 1053 1177
8 1053 937 1054 1178 1175 1052 1176 1309
8 1278 1156 1055 1180 1177 1053 1178 1311
8 1055 938 1056 1181 1178 1054 1179 1312
8 1057 939 1058 1183 1180 1055 1181 1314
8 1058 940 1059 1184 1181 1056 1182 1315
8 1060 942 1061 1185 1183 1058 1184 1316
8 1208 1081 1187 1321 1082 964 1063 1188
8 1209 1082 1188 1322 1097 981 1064 1190
8 1188 1063 1189 1323 1064 947 1065 1191
8 1190 1064 1191 1325 1066 948 1067 1193
8 1191 1065 1192 1326 1067 949 1068 1194
8 1067 1193 1069 950 1194 1327 1195 1070
8 1250 1133 1199 1330 1126 1019 1075 1196
8 1198 1077 1014 1122 1331 1200 1075 1196
8 1074 960 1077 1198 1197 1076 1201 1332
8 1085 980 1076 1197 1215 1099 1201 1332
8 1199 1079 1203 1333 1075 962 1080 1200
8 1132 1025 1119 1243 1199 1079 1203 1333
8 1201 1078 963 1077 1334 1202 1080 1200
8 1099 994 1078 1201 1227 1111 1202 1334
8 1343 1207 1081 1208 1210 1083 964 1082
8 1214 1084 1186 1319 1343 1207 1081 1208
8 1345 1210 1082 1209 1225 1100 981 1097
8 1346 1211 1083 1210 1228 1115 999 1100
8 1086 984 1099 1215 1216 1103 1227 1352
8 1087 985 1103 1216 1217 1104 1230 1353
8 1090 988 1104 1217 1219 1106 1231 1354
8 1218 1105 987 1089 1355 1232 1106 1219
8 1091 991 1105 1218 1220 1109 1232 1355
8 1092 992 1109 1220 1221 1110 1234 1356
8 1222 1108 1233 1357 1095 990 1107 1224
8 1222 1108 993 1093 1357 1233 1110 1221
8 1223 1101 989 1096 1358 1229 1107 1224
8 1226 1102 983 1098 1358 1229 1101 1223
8 1226 1102 1228 1359 1098 983 1100 1225
8 1103 995 1111 1227 1230 1112 1235 1360
8 1107 1002 1117 1233 1229 1116 1240 1362
8 1102 1001 1116 1229 1228 1115 1240 1362
8 1104 996 1112 1230 1231 1113 1236 1363
8 1364 1237 1114 1232 1231 1113 997 1106
8 1109 1005 1114 1232 1234 1118 1238 1365
8 1110 1004 1118 1234 1233 1117 1241 1366
8 1242 1374 1255 1138 1119 1243 1132 1025
8 1244 1127 1254 1376 1121 1015 1129 1245
8 1148 1031 1149 1275 1244 1127 1254 1376
8 1245 1129 1258 1377 1125 1016 1130 1248
8 1251 1134 1019 1126 1378 1257 1128 1246
8 1378 1257 1128 1246 1247 1131 1017 1123
8 1248 1130 1259 1379 1124 1018 1131 1247
8 1261 1381 1250 1133 1132 1249 1330 1199
8 1255 1380 1252 1135 1132 1249 1381 1261
8 1250 1133 1019 1126 1382 1262 1134 1251
8 1253 1136 1256 1385 1384 1263 1135 1252
8 1254 1137 1265 1387 1129 1022 1141 1258
8 1149 1032 1150 1276 1254 1137 1265 1387
8 1028 1135 1255 1138 1139 1256 1388 1266
8 1136 1029 1147 1264 1256 1139 1267 1389
8 1390 1268 1140 1257 1259 1142 1024 1131
8 1260 1143 1027 1134 1390 1268 1140 1257
8 1258 1141 1269 1391 1130 1023 1142 1259
8 1262 1145 1027 1134 1393 1271 1143 1260
8 1261 1144 1026 1133 1394 1272 1145 1262
8 1135 1028 1144 1261 1263 1146 1272 1394
8 1136 1029 1146 1263 1264 1147 1273 1395
8 1155 1041 1160 1282 1275 1149 1276 1405
8 1276 1150 1044 1160 1406 1277 1162 1286
8 1408 1283 1159 1279 1278 1156 1039 1151
8 1290 1165 1283 1408 1177 1053 1156 1278
8 1152 1040 1159 1279 1280 1158 1285 1409
8 1281 1157 1038 1153 1410 1284 1158 1280
8 1281 1157 1284 1410 1154 1042 1160 1282
8 1159 1046 1164 1283 1285 1163 1289 1412
8 1292 1167 1289 1412 1165 1048 1164 1283
8 1158 1045 1163 1285 1284 1161 1288 1413
8 1284 1161 1288 1413 1160 1044 1162 1286
8 1291 1166 1292 1418 1174 1051 1165 1290
8 1291 1166 1051 1174 1419 1293 1172 1305
8 1294 1169 1296 1421 1166 1049 1167 1292
8 1293 1168 1050 1172 1422 1295 1171 1303
8 1294 1169 1049 1166 1423 1297 1168 1293
8 1422 1295 1171 1303 1301 1170 1302 1435
8 1172 1050 1173 1306 1303 1171 1304 1438
8 1174 1051 1175 1308 1305 1172 1306 1440
8 1175 1052 1176 1309 1306 1173 1307 1441
8 1177 1053 1178 1311 1308 1175 1309 1443
8 1178 1054 1179 1312 1309 1176 1310 1444
8 1180 1055 1181 1314 1311 1178 1312 1446
8 1056 1181 1312 1179 1182 1315 1447 1313
8 1183 1058 1184 1316 1314 1181 1315 1448
8 1319 1186 1084 1214 1451 1317 1213 1350
8 1319 1186 1318 1453 1208 1081 1187 1321
8 1321 1187 1320 1456 1188 1063 1189 1323
8 1344 1208 1321 1457 1209 1082 1188 1322
8 1322 1188 1323 1458 1190 1064 1191 1325
8 1323 1189 1324 1459 1191 1065 1192 1326
8 1191 1325 1193 1067 1326 1460 1327 1194
8 1242 1374 1243 1119 1328 1462 1335 1204
8 1330 1199 1333 1465 1196 1075 1200 1331
8 1132 1249 1330 1199 1243 1375 1465 1333
8 1332 1201 1077 1198 1466 1334 1200 1331
8 1215 1099 1201 1332 1352 1227 1334 1466
8 1119 1243 1333 1203 1204 1335 1470 1338
8 1333 1203 1338 1470 1200 1080 1202 1334
8 1227 1111 1202 1334 1360 1235 1338 1470
8 1328 1462 1335 1204 1205 1336 1471 1339
8 1337 1206 1340 1472 1464 1329 1205 1336
8 1346 1211 1342 1479 1210 1083 1207 1343
8 1346 1211 1115 1228 1479 1342 1239 1361
8 1348 1212 1084 1214 1479 1342 1207 1343
8 1480 1343 1208 1344 1345 1210 1082 1209
8 1351 1214 1319 1454 1480 1343 1208 1344
8 1481 1346 1210 1345 1359 1228 1100 1225
8 1348 1212 1347 1483 1214 1084 1213 1350
8 1216 1103 1227 1352 1353 1230 1360 1488
8 1217 1104 1230 1353 1354 1231 1363 1489
8 1490 1364 1232 1355 1354 1231 1106 1219
8 1220 1109 1232 1355 1356 1234 1365 1491
8 1221 1110 1234 1356 1357 1233 1366 1492
8 1224 1107 1233 1357 1358 1229 1362 1493
8 1226 1102 1229 1358 1359 1228 1362 1493
8 1230 1112 1235 1360 1363 1236 1367 1496
8 1361 1239 1115 1228 1497 1371 1240 1362
8 1366 1241 1372 1498 1233 1117 1240 1362
8 1364 1237 1113 1231 1499 1368 1236 1363
8 1364 1237 1368 1499 1232 1114 1238 1365
8 1234 1118 1238 1365 1366 1241 1369 1500
8 1507 1373 1242 1374 1388 1266 1138 1255
8 1508 1374 1243 1375 1380 1255 1132 1249
8 1376 1254 1387 1509 1245 1129 1258 1377
8 1275 1149 1276 1405 1376 1254 1387 1509
8 1377 1258 1391 1510 1248 1130 1259 1379
8 1511 1390 1257 1378 1379 1259 1131 1247
8 1383 1260 1134 1251 1511 1390 1257 1378
8 1252 1135 1256 1385 1380 1255 1388 1512
8 1261 1381 1513 1394 1133 1250 1382 1262
8 1135 1252 1384 1263 1261 1381 1513 1394
8 1382 1262 1134 1251 1514 1393 1260 1383
8 1253 1136 1263 1384 1386 1264 1395 1516
8 1253 1136 1264 1386 1385 1256 1389 1517
8 1387 1265 1397 1519 1258 1141 1269 1391
8 1276 1150 1277 1406 1387 1265 1397 1519
8 1256 1139 1267 1389 1388 1266 1398 1520
8 1264 1147 1274 1396 1389 1267 1399 1521
8 1392 1270 1143 1260 1522 1400 1268 1390
8 1390 1268 1142 1259 1522 1400 1269 1391
8 1392 1270 1401 1523 1260 1143 1271 1393
8 1272 1394 1524 1402 1145 1262 1393 1271
8 1395 1273 1146 1263 1524 1402 1272 1394
8 1273 1395 1264 1147 1403 1526 1396 1274
8 1405 1276 1160 1282 1534 1406 1286 1411
8 1414 1287 1407 1535 1286 1162 1277 1406
8 1279 1159 1283 1408 1409 1285 1412 1537
8 1418 1292 1412 1537 1290 1165 1283 1408
8 1280 1158 1285 1409 1410 1284 1413 1538
8 1410 1284 1413 1538 1282 1160 1286 1411
8 1285 1163 1289 1412 1413 1288 1417 1540
8 1421 1296 1417 1540 1292 1167 1289 1412
8 1414 1287 1162 1286 1541 1416 1288 1413
8 1420 1294 1421 1545 1291 1166 1292 1418
8 1419 1293 1172 1305 1546 1422 1303 1437
8 1420 1294 1166 1291 1547 1423 1293 1419
8 1294 1169 1297 1423 1421 1296 1425 1548
8 1423 1297 1168 1293 1549 1424 1295 1422
8 1301 1170 1298 1427 1422 1295 1424 1549
8 1432 1300 1428 1554 1301 1170 1298 1427
8 1431 1299 1428 1554 1560 1430 1300 1432
8 1563 1433 1300 1432 1435 1302 1170 1301
8 1546 1422 1303 1437 1434 1301 1435 1565
8 1303 1171 1304 1438 1435 1302 1436 1566
8 1305 1172 1306 1440 1437 1303 1438 1568
8 1306 1173 1307 1441 1438 1304 1439 1569
8 1308 1175 1309 1443 1440 1306 1441 1571
8 1309 1176 1310 1444 1441 1307 1442 1572
8 1311 1178 1312 1446 1443 1309 1444 1574
8 1179 1312 1444 1310 1313 1447 1575 1445
8 1314 1181 1315 1448 1446 1312 1447 1576
8 1350 1213 1349 1486 1451 1317 1449 1579
8 1451 1317 1450 1581 1319 1186 1318 1453
8 1454 1319 1214 1351 1582 1451 1350 1487
8 1453 1318 1452 1584 1321 1187 1320 1456
8 1454 1319 1453 1585 1344 1208 1321 1457
8 1456 1320 1455 1586 1323 1189 1324 1459
8 1457 1321 1456 1587 1322 1188 1323 1458
8 1458 1323 1459 1588 1325 1191 1326 1460
8 1205 1336 1464 1329 1328 1462 1590 1461
8 1507 1373 1461 1590 1374 1242 1328 1462
8 1508 1374 1462 1591 1375 1243 1335 1467
8 1337 1206 1329 1464 1473 1341 1463 1594
8 1375 1243 1335 1467 1465 1333 1470 1596
8 1465 1333 1470 1596 1331 1200 1334 1466
8 1352 1227 1334 1466 1488 1360 1470 1596
8 1591 1462 1336 1468 1467 1335 1471 1597
8 1469 1337 1472 1598 1595 1464 1336 1468
8 1471 1339 1474 1600 1335 1204 1338 1470
8 1600 1474 1367 1496 1470 1338 1235 1360
8 1336 1205 1340 1472 1471 1339 1475 1601
8 1337 1206 1341 1473 1472 1340 1476 1602
8 1495 1370 1478 1609 1361 1239 1342 1479
8 1348 1212 1342 1479 1483 1347 1478 1609
8 1481 1346 1479 1610 1345 1210 1343 1480
8 1481 1346 1228 1359 1610 1479 1361 1494
8 1484 1348 1214 1351 1610 1479 1343 1480
8 1483 1347 1482 1612 1350 1213 1349 1486
8 1484 1348 1483 1613 1351 1214 1350 1487
8 1353 1230 1360 1488 1489 1363 1496 1616
8 1490 1364 1231 1354 1617 1499 1363 1489
8 1490 1364 1499 1617 1355 1232 1365 1491
8 1356 1234 1365 1491 1492 1366 1500 1619
8 1492 1366 1498 1620 1357 1233 1362 1493
8 1494 1361 1228 1359 1621 1497 1362 1493
8 1495 1370 1239 1361 1622 1504 1371 1497
8 1363 1236 1367 1496 1499 1368 1501 1623
8 1497 1371 1240 1362 1624 1505 1372 1498
8 1625 1503 1372 1498 1500 1369 1241 1366
8 1365 1238 1368 1499 1500 1369 1502 1626
8 1520 1398 1506 1633 1388 1266 1373 1507
8 1634 1507 1374 1508 1512 1388 1255 1380
8 1509 1387 1519 1635 1377 1258 1391 1510
8 1405 1276 1406 1534 1509 1387 1519 1635
8 1515 1392 1260 1383 1636 1522 1390 1511
8 1511 1390 1259 1379 1636 1522 1391 1510
8 1385 1256 1389 1517 1512 1388 1520 1637
8 1513 1394 1262 1382 1638 1524 1393 1514
8 1395 1516 1638 1524 1263 1384 1513 1394
8 1515 1392 1523 1639 1383 1260 1393 1514
8 1516 1395 1526 1640 1386 1264 1396 1518
8 1386 1264 1396 1518 1517 1389 1521 1641
8 1519 1397 1527 1643 1391 1269 1400 1522
8 1535 1407 1527 1643 1406 1277 1397 1519
8 1389 1267 1399 1521 1520 1398 1528 1644
8 1645 1529 1399 1521 1525 1404 1274 1396
8 1392 1270 1400 1522 1523 1401 1531 1646
8 1524 1402 1271 1393 1648 1532 1401 1523
8 1403 1526 1648 1532 1273 1395 1524 1402
8 1525 1404 1274 1396 1649 1533 1403 1526
8 1539 1414 1535 1657 1411 1286 1406 1534
8 1542 1415 1536 1658 1414 1287 1407 1535
8 1409 1285 1412 1537 1538 1413 1540 1660
8 1545 1421 1540 1660 1418 1292 1412 1537
8 1539 1414 1286 1411 1661 1541 1413 1538
8 1540 1417 1544 1663 1413 1288 1416 1541
8 1421 1296 1425 1548 1540 1417 1544 1663
8 1542 1415 1287 1414 1664 1543 1416 1541
8 1420 1294 1423 1547 1545 1421 1548 1666
8 1547 1423 1293 1419 1667 1549 1422 1546
8 1434 1301 1427 1553 1546 1422 1549 1667
8 1423 1297 1424 1549 1548 1425 1550 1668
8 1551 1426 1550 1668 1427 1298 1424 1549
8 1551 1426 1298 1427 1671 1552 1428 1554
8 1562 1432 1554 1674 1434 1301 1427 1553
8 1431 1299 1429 1558 1554 1428 1555 1675
8 1431 1299 1430 1560 1558 1429 1557 1680
8 1560 1430 1300 1432 1683 1559 1433 1563
8 1561 1431 1554 1674 1684 1560 1432 1562
8 1685 1563 1432 1562 1565 1435 1301 1434
8 1435 1302 1436 1566 1563 1433 1564 1686
8 1437 1303 1438 1568 1565 1435 1566 1688
8 1438 1304 1439 1569 1566 1436 1567 1689
8 1440 1306 1441 1571 1568 1438 1569 1691
8 1441 1307 1442 1572 1569 1439 1570 1692
8 1443 1309 1444 1574 1571 1441 1572 1694
8 1310 1444 1572 1442 1445 1575 1695 1573
8 1446 1312 1447 1576 1574 1444 1575 1696
8 1486 1349 1485 1614 1579 1449 1577 1699
8 1451 1317 1449 1579 1581 1450 1578 1701
8 1487 1350 1486 1615 1582 1451 1579 1702
8 1581 1450 1580 1704 1453 1318 1452 1584
8 1582 1451 1581 1705 1454 1319 1453 1585
8 1584 1452 1583 1706 1456 1320 1455 1586
8 1585 1453 1584 1707 1457 1321 1456 1587
8 1587 1456 1586 1708 1458 1323 1459 1588
8 1633 1506 1589 1710 1507 1373 1461 1590
8 1464 1329 1461 1590 1594 1463 1589 1710
8 1468 1336 1462 1591 1595 1464 1590 1711
8 1634 1507 1590 1711 1508 1374 1462 1591
8 1473 1341 1463 1594 1603 1477 1593 1716
8 1469 1337 1464 1595 1599 1473 1594 1717
8 1471 1597 1467 1335 1600 1718 1596 1470
8 1718 1600 1496 1616 1596 1470 1360 1488
8 1336 1468 1597 1471 1472 1598 1719 1601
8 1469 1337 1473 1599 1598 1472 1602 1720
8 1722 1604 1501 1623 1600 1474 1367 1496
8 1475 1601 1471 1339 1604 1722 1600 1474
8 1602 1476 1605 1723 1472 1340 1475 1601
8 1476 1602 1724 1606 1341 1473 1603 1477
8 1483 1347 1478 1609 1612 1482 1608 1731
8 1495 1370 1504 1622 1609 1478 1608 1731
8 1618 1495 1609 1732 1494 1361 1479 1610
8 1484 1348 1479 1610 1613 1483 1609 1732
8 1486 1349 1482 1612 1614 1485 1611 1733
8 1613 1483 1612 1734 1487 1350 1486 1615
8 1489 1363 1496 1616 1617 1499 1623 1736
8 1491 1365 1499 1617 1619 1500 1626 1737
8 1618 1495 1361 1494 1738 1622 1497 1621
8 1739 1625 1498 1620 1619 1500 1366 1492
8 1621 1497 1362 1493 1740 1624 1498 1620
8 1742 1631 1504 1622 1624 1505 1371 1497
8 1743 1628 1502 1626 1623 1501 1368 1499
8 1744 1630 1505 1624 1625 1503 1372 1498
8 1745 1629 1503 1625 1626 1502 1369 1500
8 1520 1398 1528 1644 1633 1506 1632 1751
8 1637 1520 1633 1752 1512 1388 1507 1634
8 1635 1519 1643 1753 1510 1391 1522 1636
8 1657 1535 1643 1753 1534 1406 1519 1635
8 1515 1392 1522 1636 1639 1523 1646 1754
8 1517 1389 1521 1641 1637 1520 1644 1755
8 1524 1638 1756 1648 1393 1514 1639 1523
8 1640 1526 1395 1516 1756 1648 1524 1638
8 1642 1525 1396 1518 1757 1649 1526 1640
8 1758 1645 1521 1641 1642 1525 1396 1518
8 1646 1531 1400 1522 1760 1650 1527 1643
8 1535 1407 1536 1658 1643 1527 1650 1760
8 1521 1399 1529 1645 1644 1528 1651 1761
8 1647 1530 1652 1762 1525 1404 1529 1645
8 1401 1523 1648 1532 1531 1646 1763 1655
8 1525 1404 1533 1649 1647 1530 1654 1765
8 1533 1649 1766 1656 1403 1526 1648 1532
8 1662 1542 1658 1774 1539 1414 1535 1657
8 1542 1415 1543 1664 1658 1536 1659 1775
8 1660 1540 1663 1777 1538 1413 1541 1661
8 1545 1421 1548 1666 1660 1540 1663 1777
8 1662 1542 1414 1539 1778 1664 1541 1661
8 1664 1543 1416 1541 1779 1665 1544 1663
8 1548 1425 1550 1668 1663 1544 1665 1779
8 1547 1423 1549 1667 1666 1548 1668 1781
8 1670 1551 1668 1781 1553 1427 1549 1667
8 1551 1426 1552 1671 1668 1550 1669 1782
8 1670 1551 1427 1553 1784 1671 1554 1674
8 1675 1555 1672 1785 1554 1428 1552 1671
8 1678 1556 1673 1789 1558 1429 1555 1675
8 1561 1431 1558 1681 1674 1554 1675 1790
8 1794 1677 1556 1678 1680 1557 1429 1558
8 1560 1430 1559 1683 1680 1557 1679 1797
8 1561 1431 1560 1684 1681 1558 1680 1798
8 1563 1433 1564 1686 1683 1559 1682 1800
8 1684 1560 1432 1562 1801 1683 1563 1685
8 1565 1435 1566 1688 1685 1563 1686 1802
8 1566 1436 1567 1689 1686 1564 1687 1803
8 1568 1438 1569 1691 1688 1566 1689 1805
8 1569 1439 1570 1692 1689 1567 1690 1806
8 1571 1441 1572 1694 1691 1569 1692 1808
8 1442 1572 1692 1570 1573 1695 1809 1693
8 1574 1444 1575 1696 1694 1572 1695 1810
8 1614 1485 1592 1712 1699 1577 1697 1813
8 1579 1449 1577 1699 1701 1578 1698 1815
8 1615 1486 1614 1735 1702 1579 1699 1816
8 1701 1578 1700 1818 1581 1450 1580 1704
8 1582 1451 1579 1702 1705 1581 1701 1819
8 1704 1580 1703 1820 1584 1452 1583 1706
8 1705 1581 1704 1821 1585 1453 1584 1707
8 1707 1584 1706 1822 1587 1456 1586 1708
8 1710 1589 1506 1633 1824 1709 1632 1751
8 1594 1463 1589 1710 1716 1593 1709 1824
8 1752 1633 1710 1825 1634 1507 1590 1711
8 1595 1464 1590 1711 1717 1594 1710 1825
8 1830 1714 1592 1712 1733 1611 1485 1614
8 1603 1477 1593 1716 1725 1607 1715 1834
8 1599 1473 1594 1717 1721 1603 1716 1835
8 1837 1722 1623 1736 1718 1600 1496 1616
8 1719 1601 1722 1837 1597 1471 1600 1718
8 1602 1720 1598 1472 1723 1838 1719 1601
8 1720 1602 1473 1599 1839 1724 1603 1721
8 1723 1605 1726 1840 1601 1475 1604 1722
8 1840 1726 1628 1743 1722 1604 1501 1623
8 1724 1606 1727 1841 1602 1476 1605 1723
8 1725 1607 1728 1842 1603 1477 1606 1724
8 1612 1482 1608 1731 1733 1611 1730 1849
8 1741 1627 1730 1849 1622 1504 1608 1731
8 1613 1483 1609 1732 1734 1612 1731 1850
8 1618 1495 1622 1738 1732 1609 1731 1850
8 1615 1486 1612 1734 1735 1614 1733 1851
8 1852 1743 1626 1737 1736 1623 1499 1617
8 1853 1745 1625 1739 1737 1626 1500 1619
8 1855 1742 1622 1738 1740 1624 1497 1621
8 1856 1744 1624 1740 1739 1625 1498 1620
8 1741 1627 1504 1622 1857 1746 1631 1742
8 1742 1631 1505 1624 1858 1749 1630 1744
8 1859 1747 1629 1745 1743 1628 1502 1626
8 1860 1748 1630 1744 1745 1629 1503 1625
8 1644 1528 1651 1761 1751 1632 1750 1865
8 1637 1520 1644 1755 1752 1633 1751 1866
8 1754 1646 1522 1636 1867 1760 1643 1753
8 1657 1535 1658 1774 1753 1643 1760 1867
8 1639 1523 1646 1754 1756 1648 1763 1868
8 1641 1521 1645 1758 1755 1644 1761 1869
8 1757 1649 1526 1640 1870 1766 1648 1756
8 1642 1525 1649 1757 1759 1647 1765 1871
8 1759 1647 1762 1872 1642 1525 1645 1758
8 1760 1650 1767 1874 1646 1531 1655 1763
8 1658 1536 1659 1775 1760 1650 1767 1874
8 1762 1652 1768 1875 1645 1529 1651 1761
8 1764 1653 1769 1876 1647 1530 1652 1762
8 1656 1766 1877 1773 1532 1648 1763 1655
8 1771 1879 1765 1654 1653 1764 1647 1530
8 1533 1649 1765 1654 1656 1766 1880 1772
8 1662 1542 1664 1778 1774 1658 1775 1887
8 1664 1543 1665 1779 1775 1659 1776 1888
8 1778 1664 1541 1661 1890 1779 1663 1777
8 1666 1548 1668 1781 1777 1663 1779 1890
8 1782 1669 1780 1891 1668 1550 1665 1779
8 1670 1551 1671 1784 1781 1668 1782 1893
8 1671 1552 1672 1785 1782 1669 1783 1894
8 1790 1675 1785 1896 1674 1554 1671 1784
8 1675 1555 1673 1789 1785 1672 1786 1897
8 1792 1676 1788 1903 1678 1556 1673 1789
8 1795 1678 1789 1904 1681 1558 1675 1790
8 1792 1676 1556 1678 1906 1791 1677 1794
8 1680 1557 1679 1797 1794 1677 1793 1909
8 1910 1794 1678 1795 1798 1680 1558 1681
8 1683 1559 1682 1800 1797 1679 1796 1912
8 1684 1560 1683 1801 1798 1680 1797 1913
8 1686 1564 1687 1803 1800 1682 1799 1915
8 1685 1563 1686 1802 1801 1683 1800 1916
8 1688 1566 1689 1805 1802 1686 1803 1917
8 1689 1567 1690 1806 1803 1687 1804 1918
8 1691 1569 1692 1808 1805 1689 1806 1920
8 1692 1570 1693 1809 1806 1690 1807 1921
8 1694 1572 1695 1810 1808 1692 1809 1922
8 1829 1713 1811 1926 1712 1592 1697 1813
8 1813 1697 1812 1928 1699 1577 1698 1815
8 1735 1614 1712 1828 1816 1699 1813 1929
8 1815 1698 1814 1931 1701 1578 1700 1818
8 1702 1579 1699 1816 1819 1701 1815 1932
8 1818 1700 1817 1933 1704 1580 1703 1820
8 1819 1701 1818 1934 1705 1581 1704 1821
8 1821 1704 1820 1935 1707 1584 1706 1822
8 1824 1709 1632 1751 1937 1823 1750 1865
8 1716 1593 1709 1824 1834 1715 1823 1937
8 1825 1710 1633 1752 1938 1824 1751 1866
8 1717 1594 1710 1825 1835 1716 1824 1938
8 1945 1830 1712 1828 1851 1733 1614 1735
8 1830 1714 1831 1946 1712 1592 1713 1829
8 1947 1832 1714 1830 1849 1730 1611 1733
8 1843 1729 1607 1725 1950 1833 1715 1834
8 1721 1603 1716 1835 1836 1725 1834 1951
8 1836 1725 1842 1953 1721 1603 1724 1839
8 1723 1838 1719 1601 1840 1954 1837 1722
8 1954 1840 1743 1852 1837 1722 1623 1736
8 1724 1839 1720 1602 1841 1955 1838 1723
8 1841 1727 1844 1956 1723 1605 1726 1840
8 1956 1844 1747 1859 1840 1726 1628 1743
8 1728 1842 1724 1606 1845 1957 1841 1727
8 1725 1607 1729 1843 1842 1728 1846 1958
8 1741 1627 1746 1857 1849 1730 1848 1965
8 1734 1612 1731 1850 1851 1733 1849 1966
8 1854 1741 1849 1966 1738 1622 1731 1850
8 1967 1859 1745 1853 1852 1743 1626 1737
8 1968 1860 1744 1856 1853 1745 1625 1739
8 1854 1741 1622 1738 1969 1857 1742 1855
8 1855 1742 1624 1740 1970 1858 1744 1856
8 1857 1746 1631 1742 1971 1861 1749 1858
8 1858 1749 1630 1744 1972 1863 1748 1860
8 1859 1747 1862 1973 1745 1629 1748 1860
8 1875 1768 1864 1977 1761 1651 1750 1865
8 1755 1644 1761 1869 1866 1751 1865 1978
8 1867 1760 1874 1979 1754 1646 1763 1868
8 1774 1658 1775 1887 1867 1760 1874 1979
8 1870 1766 1648 1756 1980 1877 1763 1868
8 1872 1762 1875 1981 1758 1645 1761 1869
8 1757 1649 1766 1870 1871 1765 1880 1982
8 1983 1879 1764 1873 1871 1765 1647 1759
8 1873 1764 1876 1984 1759 1647 1762 1872
8 1877 1773 1655 1763 1986 1881 1767 1874
8 1775 1659 1776 1888 1874 1767 1881 1986
8 1876 1769 1882 1987 1762 1652 1768 1875
8 1878 1770 1883 1988 1764 1653 1769 1876
8 1880 1772 1656 1766 1989 1886 1773 1877
8 1878 1770 1653 1764 1990 1884 1771 1879
8 1765 1654 1772 1880 1879 1771 1885 1991
8 1778 1664 1779 1890 1887 1775 1888 1997
8 1998 1889 1776 1888 1891 1780 1665 1779
8 1893 1782 1891 2000 1781 1668 1779 1890
8 1894 1783 1892 2001 1782 1669 1780 1891
8 1784 1671 1785 1896 1893 1782 1894 2003
8 1897 1786 1895 2004 1785 1672 1783 1894
8 1790 1675 1789 1904 1896 1785 1897 2006
8 1901 1787 1898 2007 1789 1673 1786 1897
8 1903 1788 1900 2013 1789 1673 1787 1901
8 1792 1676 1791 1906 1903 1788 1902 2016
8 1907 1792 1903 2017 1795 1678 1789 1904
8 1906 1791 1677 1794 2019 1905 1793 1909
8 1907 1792 1678 1795 2020 1906 1794 1910
8 1797 1679 1796 1912 1909 1793 1908 2022
8 1798 1680 1797 1913 1910 1794 1909 2023
8 1800 1682 1799 1915 1912 1796 1911 2025
8 1801 1683 1800 1916 1913 1797 1912 2026
8 1803 1687 1804 1918 1915 1799 1914 2028
8 1802 1686 1803 1917 1916 1800 1915 2029
8 1805 1689 1806 1920 1917 1803 1918 2030
8 1806 1690 1807 1921 1918 1804 1919 2031
8 1808 1692 1809 1922 1920 1806 1921 2032
8 1939 1826 1924 2037 1829 1713 1811 1926
8 1926 1811 1925 2039 1813 1697 1812 1928
8 1944 1829 1926 2040 1828 1712 1813 1929
8 1928 1812 1927 2042 1815 1698 1814 1931
8 1929 1813 1928 2043 1816 1699 1815 1932
8 1931 1814 1930 2044 1818 1700 1817 1933
8 1932 1815 1931 2045 1819 1701 1818 1934
8 1934 1818 1933 2046 1821 1704 1820 1935
8 2048 1936 1823 1937 1977 1864 1750 1865
8 1950 1833 1715 1834 2048 1936 1823 1937
8 1938 1824 1751 1866 2049 1937 1865 1978
8 1835 1716 1824 1938 1951 1834 1937 2049
8 1939 1826 1713 1829 2053 1942 1831 1946
8 1940 1827 1923 2035 2053 1942 1826 1939
8 1945 1830 1946 2058 1828 1712 1829 1944
8 2059 1947 1830 1945 1966 1849 1733 1851
8 1947 1832 1730 1849 2060 1948 1848 1965
8 1947 1832 1948 2060 1830 1714 1831 1946
8 1959 1847 1729 1843 2063 1949 1833 1950
8 1952 1843 1725 1836 2064 1950 1834 1951
8 1836 1725 1843 1952 1953 1842 1958 2066
8 1953 1842 1957 2067 1839 1724 1841 1955
8 1841 1955 1838 1723 1956 2068 1954 1840
8 2068 1956 1859 1967 1954 1840 1743 1852
8 1956 1844 1960 2069 1859 1747 1862 1973
8 1845 1957 1841 1727 1960 2069 1956 1844
8 1728 1842 1957 1845 1846 1958 2071 1961
8 1962 2072 1959 1847 1846 1958 1843 1729
8 1971 1861 1964 2077 1857 1746 1848 1965
8 1854 1741 1857 1969 1966 1849 1965 2078
8 1967 1859 1973 2079 1853 1745 1860 1968
8 1970 1858 1744 1856 2080 1972 1860 1968
8 1969 1857 1742 1855 2081 1971 1858 1970
8 1971 1861 1749 1858 2082 1974 1863 1972
8 1973 1862 1975 2083 1860 1748 1863 1972
8 1987 1882 1976 2086 1875 1768 1864 1977
8 1981 1875 1977 2087 1869 1761 1865 1978
8 1980 1877 1763 1868 2088 1986 1874 1979
8 1887 1775 1888 1997 1979 1874 1986 2088
8 1880 1982 2089 1989 1766 1870 1980 1877
8 1984 1876 1987 2090 1872 1762 1875 1981
8 1765 1871 1983 1879 1880 1982 2091 1991
8 1985 1878 1764 1873 2092 1990 1879 1983
8 1985 1878 1988 2093 1873 1764 1876 1984
8 2094 1992 1881 1986 1998 1889 1776 1888
8 1986 1881 1992 2094 1877 1773 1886 1989
8 1988 1883 1993 2095 1876 1769 1882 1987
8 1878 1770 1884 1990 1988 1883 1994 2096
8 1991 1885 1772 1880 2097 1996 1886 1989
8 1879 1771 1885 1991 1990 1884 1995 2098
8 2103 1998 1888 1997 2000 1891 1779 1890
8 2104 1999 1889 1998 2001 1892 1780 1891
8 2003 1894 2001 2106 1893 1782 1891 2000
8 2004 1895 2002 2107 1894 1783 1892 2001
8 2006 1897 2004 2109 1896 1785 1894 2003
8 2007 1898 2005 2110 1897 1786 1895 2004
8 2014 1901 2007 2112 1904 1789 1897 2006
8 2011 1899 2008 2113 1901 1787 1898 2007
8 2119 2010 1899 2011 2013 1900 1787 1901
8 2016 1902 2012 2122 1903 1788 1900 2013
8 2017 1903 2013 2123 1904 1789 1901 2014
8 1906 1791 1905 2019 2016 1902 2015 2125
8 1907 1792 1906 2020 2017 1903 2016 2126
8 1909 1793 1908 2022 2019 1905 2018 2128
8 2020 1906 1794 1910 2129 2019 1909 2023
8 1912 1796 1911 2025 2022 1908 2021 2131
8 1913 1797 1912 2026 2023 1909 2022 2132
8 1915 1799 1914 2028 2025 1911 2024 2134
8 1916 1800 1915 2029 2026 1912 2025 2135
8 1918 1804 1919 2031 2028 1914 2027 2136
8 1917 1803 1918 2030 2029 1915 2028 2137
8 1920 1806 1921 2032 2030 1918 2031 2138
8 1940 1827 1941 2054 2035 1923 2033 2140
8 2035 1923 2034 2143 1939 1826 1924 2037
8 2037 1924 2036 2146 1926 1811 1925 2039
8 2051 1939 2037 2147 1944 1829 1926 2040
8 2039 1925 2038 2149 1928 1812 1927 2042
8 2040 1926 2039 2150 1929 1813 1928 2043
8 2042 1927 2041 2151 1931 1814 1930 2044
8 2043 1928 2042 2152 1932 1815 1931 2045
8 2045 1931 2044 2153 1934 1818 1933 2046
8 2155 2047 1936 2048 2086 1976 1864 1977
8 2063 1949 1833 1950 2155 2047 1936 2048
8 2156 2048 1937 2049 2087 1977 1865 1978
8 2064 1950 1834 1951 2156 2048 1937 2049
8 2051 1939 1829 1944 2160 2053 1946 2058
8 2052 1940 2035 2144 2160 2053 1939 2051
8 2053 1942 1831 1946 2163 2057 1948 2060
8 2055 1943 1827 1940 2163 2057 1942 2053
8 2055 1943 2056 2164 1940 1827 1941 2054
8 2059 1947 1849 1966 2167 2060 1965 2078
8 2059 1947 2060 2167 1945 1830 1946 2058
8 2077 1964 2061 2168 1965 1848 1948 2060
8 2070 1963 1847 1959 2170 2062 1949 2063
8 2065 1959 1843 1952 2171 2063 1950 2064
8 2173 2072 1958 2066 2065 1959 1843 1952
8 1953 1842 1958 2066 2067 1957 2071 2174
8 2068 1956 2069 2175 1967 1859 1973 2079
8 2067 1957 2069 2175 1955 1841 1956 2068
8 1845 1957 2069 1960 1961 2071 2176 2073
8 2069 1960 2073 2176 1973 1862 1975 2083
8 2070 1963 2075 2177 1959 1847 1962 2072
8 1846 1958 2071 1961 1962 2072 2178 2074
8 2077 1964 1861 1971 2182 2076 1974 2082
8 2081 1971 2077 2183 1969 1857 1965 2078
8 2079 1973 2083 2184 1968 1860 1972 2080
8 2081 1971 1858 1970 2185 2082 1972 2080
8 2083 1975 2084 2186 1972 1863 1974 2082
8 2086 1976 1882 1987 2189 2085 1993 2095
8 2090 1987 2086 2190 1981 1875 1977 2087
8 2191 2094 1986 2088 2103 1998 1888 1997
8 2088 1986 2094 2191 1980 1877 1989 2089
8 1991 2091 2192 2097 1880 1982 2089 1989
8 2093 1988 2095 2193 1984 1876 1987 2090
8 1879 1983 2092 1990 1991 2091 2194 2098
8 1985 1878 1990 2092 2093 1988 2096 2195
8 2097 1996 1886 1989 2196 2099 1992 2094
8 2196 2099 1992 2094 2104 1999 1889 1998
8 1994 2096 1988 1883 2100 2197 2095 1993
8 2096 1994 1884 1990 2198 2101 1995 2098
8 1995 2098 2199 2102 1885 1991 2097 1996
8 2203 2104 1998 2103 2106 2001 1891 2000
8 2107 2002 2105 2204 2001 1892 1999 2104
8 2109 2004 2107 2206 2003 1894 2001 2106
8 2110 2005 2108 2207 2004 1895 2002 2107
8 2112 2007 2110 2209 2006 1897 2004 2109
8 2113 2008 2111 2210 2007 1898 2005 2110
8 2120 2011 2113 2212 2014 1901 2007 2112
8 2117 2009 2114 2213 2011 1899 2008 2113
8 2219 2116 2009 2117 2119 2010 1899 2011
8 2222 2118 2010 2119 2122 2012 1900 2013
8 2223 2119 2011 2120 2123 2013 1901 2014
8 2016 1902 2015 2125 2122 2012 2121 2225
8 2126 2016 2122 2226 2017 1903 2013 2123
8 2019 1905 2018 2128 2125 2015 2124 2228
8 2020 1906 2019 2129 2126 2016 2125 2229
8 2022 1908 2021 2131 2128 2018 2127 2231
8 2023 1909 2022 2132 2129 2019 2128 2232
8 2025 1911 2024 2134 2131 2021 2130 2234
8 2026 1912 2025 2135 2132 2022 2131 2235
8 1914 2028 2134 2024 2027 2136 2236 2133
8 2029 1915 2028 2137 2135 2025 2134 2237
8 2030 1918 2031 2138 2137 2028 2136 2238
8 2157 2050 2139 2240 2054 1941 2033 2140
8 2052 1940 2054 2161 2144 2035 2140 2242
8 2140 2033 2141 2243 2035 1923 2034 2143
8 2143 2034 2142 2246 2037 1924 2036 2146
8 2144 2035 2143 2247 2051 1939 2037 2147
8 2146 2036 2145 2249 2039 1925 2038 2149
8 2147 2037 2146 2250 2040 1926 2039 2150
8 2149 2038 2148 2251 2042 1927 2041 2151
8 2150 2039 2149 2252 2043 1928 2042 2152
8 2152 2042 2151 2253 2045 1931 2044 2153
8 2255 2154 2047 2155 2189 2085 1976 2086
8 2170 2062 1949 2063 2255 2154 2047 2155
8 2256 2155 2048 2156 2190 2086 1977 2087
8 2171 2063 1950 2064 2256 2155 2048 2156
8 2258 2159 2050 2157 2164 2056 1941 2054
8 2160 2053 1946 2058 2262 2163 2060 2167
8 2162 2055 1940 2052 2262 2163 2053 2160
8 2162 2055 2164 2263 2052 1940 2054 2161
8 2163 2057 1948 2060 2264 2165 2061 2168
8 2055 1943 2057 2163 2164 2056 2165 2264
8 2182 2076 2166 2268 2077 1964 2061 2168
8 2183 2077 2168 2269 2078 1965 2060 2167
8 2070 1963 2062 2170 2177 2075 2169 2271
8 2172 2070 1959 2065 2272 2170 2063 2171
8 2172 2070 2177 2273 2065 1959 2072 2173
8 2066 1958 2072 2173 2174 2071 2178 2274
8 2067 1957 2071 2174 2175 2069 2176 2275
8 2175 2069 2176 2275 2079 1973 2083 2184
8 2071 1961 2074 2178 2176 2073 2179 2276
8 2176 2073 2179 2276 2083 1975 2084 2186
8 2072 1962 2075 2177 2178 2074 2180 2277
8 2182 2076 1974 2082 2280 2181 2084 2186
8 2183 2077 1971 2081 2281 2182 2082 2185
8 2184 2083 2186 2282 2080 1972 2082 2185
8 2189 2085 1993 2095 2285 2188 2100 2197
8 2190 2086 1987 2090 2286 2189 2095 2193
8 2192 2097 1989 2089 2287 2196 2094 2191
8 2287 2196 2094 2191 2203 2104 1998 2103
8 2194 2098 1991 2091 2288 2199 2097 2192
8 2195 2096 2197 2289 2093 1988 2095 2193
8 2096 2195 2290 2198 1990 2092 2194 2098
8 2097 1996 2099 2196 2199 2102 2200 2291
8 2196 2099 1999 2104 2291 2200 2105 2204
8 2100 2197 2292 2201 1994 2096 2198 2101
8 1995 2098 2198 2101 2102 2199 2293 2202
8 2206 2107 2204 2296 2106 2001 2104 2203
8 2207 2108 2205 2297 2107 2002 2105 2204
8 2209 2110 2207 2299 2109 2004 2107 2206
8 2210 2111 2208 2300 2110 2005 2108 2207
8 2212 2113 2210 2302 2112 2007 2110 2209
8 2213 2114 2211 2303 2113 2008 2111 2210
8 2220 2117 2213 2305 2120 2011 2113 2212
8 2216 2115 2214 2306 2117 2009 2114 2213
8 2216 2115 2009 2117 2311 2217 2116 2219
8 2219 2116 2010 2119 2314 2218 2118 2222
8 2315 2219 2117 2220 2223 2119 2011 2120
8 2122 2012 2121 2225 2222 2118 2221 2317
8 2318 2222 2119 2223 2226 2122 2013 2123
8 2125 2015 2124 2228 2225 2121 2224 2320
8 2126 2016 2125 2229 2226 2122 2225 2321
8 2128 2018 2127 2231 2228 2124 2227 2323
8 2129 2019 2128 2232 2229 2125 2228 2324
8 2131 2021 2130 2234 2231 2127 2230 2326
8 2132 2022 2131 2235 2232 2128 2231 2327
8 2134 2024 2133 2236 2234 2130 2233 2328
8 2135 2025 2134 2237 2235 2131 2234 2329
8 2137 2028 2136 2238 2237 2134 2236 2330
8 2157 2050 2158 2259 2240 2139 2239 2332
8 2257 2157 2240 2334 2161 2054 2140 2242
8 2240 2139 2241 2335 2140 2033 2141 2243
8 2242 2140 2243 2337 2144 2035 2143 2247
8 2243 2141 2244 2338 2143 2034 2142 2246
8 2246 2142 2245 2341 2146 2036 2145 2249
8 2247 2143 2246 2342 2147 2037 2146 2250
8 2249 2145 2248 2343 2149 2038 2148 2251
8 2250 2146 2249 2344 2150 2039 2149 2252
8 2252 2149 2251 2345 2152 2042 2151 2253
8 2169 2271 2347 2254 2062 2170 2255 2154
8 2189 2085 2188 2285 2255 2154 2254 2347
8 2348 2255 2155 2256 2286 2189 2086 2190
8 2272 2170 2063 2171 2348 2255 2155 2256
8 2349 2258 2157 2257 2263 2164 2054 2161
8 2258 2159 2261 2351 2157 2050 2158 2259
8 2258 2159 2056 2164 2351 2261 2165 2264
8 2262 2163 2060 2167 2355 2264 2168 2269
8 2162 2055 2163 2262 2263 2164 2264 2355
8 2357 2266 2165 2264 2268 2166 2061 2168
8 2268 2166 2076 2182 2361 2267 2181 2280
8 2281 2182 2268 2362 2183 2077 2168 2269
8 2271 2169 2270 2364 2177 2075 2180 2277
8 2172 2070 2170 2272 2273 2177 2271 2365
8 2072 2173 2274 2178 2177 2273 2366 2277
8 2071 2174 2275 2176 2178 2274 2367 2276
8 2275 2176 2276 2367 2184 2083 2186 2282
8 2283 2187 2084 2186 2368 2278 2179 2276
8 2178 2074 2180 2277 2276 2179 2278 2368
8 2283 2187 2279 2370 2186 2084 2181 2280
8 2281 2182 2082 2185 2371 2280 2186 2282
8 2188 2285 2374 2284 2100 2197 2292 2201
8 2286 2189 2095 2193 2375 2285 2197 2289
8 2192 2097 2196 2287 2288 2199 2291 2376
8 2287 2196 2104 2203 2376 2291 2204 2296
8 2194 2098 2199 2288 2290 2198 2293 2377
8 2289 2197 2096 2195 2378 2292 2198 2290
8 2291 2200 2105 2204 2379 2294 2205 2297
8 2199 2102 2200 2291 2293 2202 2294 2379
8 2198 2101 2202 2293 2292 2201 2295 2380
8 2299 2207 2297 2383 2206 2107 2204 2296
8 2300 2208 2298 2384 2207 2108 2205 2297
8 2302 2210 2300 2386 2209 2110 2207 2299
8 2303 2211 2301 2387 2210 2111 2208 2300
8 2305 2213 2303 2389 2212 2113 2210 2302
8 2306 2214 2304 2390 2213 2114 2211 2303
8 2310 2216 2306 2392 2220 2117 2213 2305
8 2308 2215 2307 2393 2216 2115 2214 2306
8 2308 2215 2115 2216 2396 2309 2217 2311
8 2310 2216 2117 2220 2398 2311 2219 2315
8 2311 2217 2116 2219 2399 2312 2218 2314
8 2314 2218 2118 2222 2402 2313 2221 2317
8 2315 2219 2119 2223 2403 2314 2222 2318
8 2225 2121 2224 2320 2317 2221 2316 2405
8 2226 2122 2225 2321 2318 2222 2317 2406
8 2228 2124 2227 2323 2320 2224 2319 2408
8 2229 2125 2228 2324 2321 2225 2320 2409
8 2231 2127 2230 2326 2323 2227 2322 2411
8 2232 2128 2231 2327 2324 2228 2323 2412
8 2234 2130 2233 2328 2326 2230 2325 2413
8 2235 2131 2234 2329 2327 2231 2326 2414
8 2237 2134 2236 2330 2329 2234 2328 2415
8 2259 2158 2260 2352 2332 2239 2331 2417
8 2257 2157 2259 2350 2334 2240 2332 2419
8 2240 2139 2239 2332 2335 2241 2333 2420
8 2334 2240 2335 2422 2242 2140 2243 2337
8 2335 2241 2336 2423 2243 2141 2244 2338
8 2337 2243 2338 2425 2247 2143 2246 2342
8 2338 2244 2339 2426 2246 2142 2245 2341
8 2341 2245 2340 2428 2249 2145 2248 2343
8 2342 2246 2341 2429 2250 2146 2249 2344
8 2344 2249 2343 2430 2252 2149 2251 2345
8 2188 2285 2347 2254 2284 2374 2432 2346
8 2347 2254 2346 2432 2271 2169 2270 2364
8 2365 2271 2170 2272 2433 2347 2255 2348
8 2286 2189 2285 2375 2348 2255 2347 2433
8 2349 2258 2351 2435 2257 2157 2259 2350
8 2349 2258 2164 2263 2435 2351 2264 2355
8 2259 2158 2261 2351 2352 2260 2354 2437
8 2356 2265 2354 2437 2264 2165 2261 2351
8 2441 2357 2264 2355 2362 2268 2168 2269
8 2356 2265 2165 2264 2442 2358 2266 2357
8 2443 2359 2266 2357 2361 2267 2166 2268
8 2370 2279 2360 2446 2280 2181 2267 2361
8 2362 2268 2182 2281 2447 2361 2280 2371
8 2180 2277 2368 2278 2270 2364 2449 2363
8 2271 2365 2273 2177 2364 2450 2366 2277
8 2372 2283 2186 2282 2451 2368 2276 2367
8 2178 2274 2367 2276 2277 2366 2451 2368
8 2283 2187 2278 2368 2370 2279 2369 2452
8 2372 2283 2370 2453 2282 2186 2280 2371
8 2284 2374 2455 2373 2201 2292 2380 2295
8 2375 2285 2197 2289 2456 2374 2292 2378
8 2376 2291 2204 2296 2457 2379 2297 2383
8 2288 2199 2291 2376 2377 2293 2379 2457
8 2198 2290 2378 2292 2293 2377 2458 2380
8 2293 2202 2294 2379 2380 2295 2381 2459
8 2384 2298 2381 2459 2297 2205 2294 2379
8 2386 2300 2384 2463 2299 2207 2297 2383
8 2387 2301 2385 2464 2300 2208 2298 2384
8 2389 2303 2387 2466 2302 2210 2300 2386
8 2390 2304 2388 2467 2303 2211 2301 2387
8 2392 2306 2390 2469 2305 2213 2303 2389
8 2393 2307 2391 2470 2306 2214 2304 2390
8 2395 2308 2393 2472 2310 2216 2306 2392
8 2308 2215 2309 2396 2393 2307 2394 2473
8 2395 2308 2216 2310 2475 2396 2311 2398
8 2396 2309 2217 2311 2476 2397 2312 2399
8 2398 2311 2219 2315 2478 2399 2314 2403
8 2399 2312 2218 2314 2479 2400 2313 2402
8 2317 2221 2316 2405 2402 2313 2401 2482
8 2403 2314 2222 2318 2483 2402 2317 2406
8 2320 2224 2319 2408 2405 2316 2404 2485
8 2321 2225 2320 2409 2406 2317 2405 2486
8 2323 2227 2322 2411 2408 2319 2407 2488
8 2324 2228 2323 2412 2409 2320 2408 2489
8 2326 2230 2325 2413 2411 2322 2410 2490
8 2327 2231 2326 2414 2412 2323 2411 2491
8 2329 2234 2328 2415 2414 2326 2413 2492
8 2417 2331 2260 2352 2494 2416 2353 2438
8 2350 2259 2352 2436 2419 2332 2417 2496
8 2332 2239 2331 2417 2420 2333 2418 2497
8 2334 2240 2332 2419 2422 2335 2420 2499
8 2420 2333 2421 2500 2335 2241 2336 2423
8 2422 2335 2423 2502 2337 2243 2338 2425
8 2423 2336 2424 2503 2338 2244 2339 2426
8 2425 2338 2426 2505 2342 2246 2341 2429
8 2426 2339 2427 2506 2341 2245 2340 2428
8 2429 2341 2428 2507 2344 2249 2343 2430
8 2432 2346 2284 2374 2509 2431 2373 2455
8 2432 2346 2431 2509 2364 2270 2363 2449
8 2375 2285 2374 2456 2433 2347 2432 2510
8 2347 2433 2365 2271 2432 2510 2450 2364
8 2350 2259 2351 2435 2436 2352 2437 2514
8 2440 2356 2437 2514 2355 2264 2351 2435
8 2352 2260 2354 2437 2438 2353 2439 2516
8 2356 2265 2358 2442 2437 2354 2439 2516
8 2440 2356 2264 2355 2518 2442 2357 2441
8 2519 2443 2357 2441 2447 2361 2268 2362
8 2443 2359 2444 2520 2357 2266 2358 2442
8 2443 2359 2267 2361 2520 2444 2360 2446
8 2446 2360 2279 2370 2523 2445 2369 2452
8 2453 2370 2446 2524 2371 2280 2361 2447
8 2449 2363 2448 2525 2368 2278 2369 2452
8 2366 2277 2364 2450 2451 2368 2449 2526
8 2372 2283 2368 2451 2453 2370 2452 2527
8 2455 2373 2295 2380 2529 2454 2382 2460
8 2456 2374 2292 2378 2530 2455 2380 2458
8 2377 2293 2379 2457 2458 2380 2459 2531
8 2463 2384 2459 2531 2383 2297 2379 2457
8 2533 2461 2382 2460 2459 2381 2295 2380
8 2464 2385 2461 2533 2384 2298 2381 2459
8 2466 2387 2464 2537 2386 2300 2384 2463
8 2467 2388 2465 2538 2387 2301 2385 2464
8 2469 2390 2467 2540 2389 2303 2387 2466
8 2470 2391 2468 2541 2390 2304 2388 2467
8 2472 2393 2470 2543 2392 2306 2390 2469
8 2393 2307 2394 2473 2470 2391 2471 2544
8 2395 2308 2396 2475 2472 2393 2473 2546
8 2396 2309 2397 2476 2473 2394 2474 2547
8 2475 2396 2311 2398 2549 2476 2399 2478
8 2476 2397 2312 2399 2550 2477 2400 2479
8 2478 2399 2314 2403 2552 2479 2402 2483
8 2479 2400 2313 2402 2553 2480 2401 2482
8 2405 2316 2404 2485 2482 2401 2481 2556
8 2406 2317 2405 2486 2483 2402 2482 2557
8 2408 2319 2407 2488 2485 2404 2484 2559
8 2409 2320 2408 2489 2486 2405 2485 2560
8 2411 2322 2410 2490 2488 2407 2487 2561
8 2412 2323 2411 2491 2489 2408 2488 2562
8 2414 2326 2413 2492 2491 2411 2490 2563
8 2513 2434 2493 2565 2438 2353 2416 2494
8 2496 2417 2352 2436 2567 2494 2438 2515
8 2494 2416 2495 2568 2417 2331 2418 2497
8 2419 2332 2417 2496 2499 2420 2497 2570
8 2497 2418 2498 2571 2420 2333 2421 2500
8 2499 2420 2500 2573 2422 2335 2423 2502
8 2500 2421 2501 2574 2423 2336 2424 2503
8 2502 2423 2503 2576 2425 2338 2426 2505
8 2503 2424 2504 2577 2426 2339 2427 2506
8 2505 2426 2506 2578 2429 2341 2428 2507
8 2509 2431 2373 2455 2580 2508 2454 2529
8 2509 2431 2508 2580 2449 2363 2448 2525
8 2432 2510 2581 2509 2374 2456 2530 2455
8 2432 2510 2450 2364 2509 2581 2526 2449
8 2583 2511 2434 2513 2516 2439 2353 2438
8 2436 2352 2437 2514 2515 2438 2516 2588
8 2440 2356 2442 2518 2514 2437 2516 2588
8 2442 2358 2444 2520 2516 2439 2517 2589
8 2519 2443 2520 2591 2441 2357 2442 2518
8 2519 2443 2361 2447 2591 2520 2446 2524
8 2446 2360 2445 2523 2520 2444 2521 2592
8 2525 2448 2522 2593 2452 2369 2445 2523
8 2524 2446 2370 2453 2594 2523 2452 2527
8 2526 2449 2525 2595 2451 2368 2452 2527
8 2534 2462 2528 2597 2460 2382 2454 2529
8 2530 2455 2380 2458 2598 2529 2460 2532
8 2599 2533 2460 2532 2531 2459 2380 2458
8 2537 2464 2533 2599 2463 2384 2459 2531
8 2534 2462 2382 2460 2601 2535 2461 2533
8 2538 2465 2535 2601 2464 2385 2461 2533
8 2540 2467 2538 2604 2466 2387 2464 2537
8 2541 2468 2539 2605 2467 2388 2465 2538
8 2543 2470 2541 2607 2469 2390 2467 2540
8 2470 2391 2471 2544 2541 2468 2542 2608
8 2472 2393 2473 2546 2543 2470 2544 2610
8 2473 2394 2474 2547 2544 2471 2545 2611
8 2475 2396 2476 2549 2546 2473 2547 2613
8 2476 2397 2477 2550 2547 2474 2548 2614
8 2549 2476 2399 2478 2616 2550 2479 2552
8 2479 2400 2480 2553 2550 2477 2551 2617
8 2552 2479 2402 2483 2619 2553 2482 2557
8 2482 2401 2481 2556 2553 2480 2554 2620
8 2485 2404 2484 2559 2556 2481 2555 2623
8 2486 2405 2485 2560 2557 2482 2556 2624
8 2488 2407 2487 2561 2559 2484 2558 2625
8 2489 2408 2488 2562 2560 2485 2559 2626
8 2491 2411 2490 2563 2562 2488 2561 2627
8 2513 2434 2512 2585 2565 2493 2564 2630
8 2586 2513 2565 2632 2515 2438 2494 2567
8 2565 2493 2566 2633 2494 2416 2495 2568
8 2567 2494 2568 2635 2496 2417 2497 2570
8 2568 2495 2569 2636 2497 2418 2498 2571
8 2570 2497 2571 2638 2499 2420 2500 2573
8 2571 2498 2572 2639 2500 2421 2501 2574
8 2573 2500 2574 2641 2502 2423 2503 2576
8 2574 2501 2575 2642 2503 2424 2504 2577
8 2576 2503 2577 2643 2505 2426 2506 2578
8 2597 2528 2579 2645 2529 2454 2508 2580
8 2580 2508 2579 2645 2525 2448 2522 2593
8 2581 2509 2455 2530 2646 2580 2529 2598
8 2581 2509 2580 2646 2526 2449 2525 2595
8 2583 2511 2582 2648 2513 2434 2512 2585
8 2583 2511 2439 2516 2648 2582 2517 2589
8 2649 2583 2513 2586 2588 2516 2438 2515
8 2589 2517 2444 2520 2653 2587 2521 2592
8 2518 2442 2520 2591 2588 2516 2589 2654
8 2593 2522 2590 2655 2523 2445 2521 2592
8 2524 2446 2523 2594 2591 2520 2592 2656
8 2595 2525 2593 2657 2527 2452 2523 2594
8 2602 2536 2596 2659 2534 2462 2528 2597
8 2600 2534 2597 2660 2532 2460 2529 2598
8 2600 2534 2460 2532 2661 2601 2533 2599
8 2604 2538 2601 2661 2537 2464 2533 2599
8 2602 2536 2462 2534 2663 2603 2535 2601
8 2601 2535 2465 2538 2663 2603 2539 2605
8 2607 2541 2605 2665 2540 2467 2538 2604
8 2608 2542 2606 2666 2541 2468 2539 2605
8 2543 2470 2544 2610 2607 2541 2608 2668
8 2544 2471 2545 2611 2608 2542 2609 2669
8 2546 2473 2547 2613 2610 2544 2611 2671
8 2547 2474 2548 2614 2611 2545 2612 2672
8 2549 2476 2550 2616 2613 2547 2614 2674
8 2550 2477 2551 2617 2614 2548 2615 2675
8 2552 2479 2553 2619 2616 2550 2617 2677
8 2553 2480 2554 2620 2617 2551 2618 2678
8 2557 2482 2556 2624 2619 2553 2620 2680
8 2556 2481 2555 2623 2620 2554 2621 2681
8 2559 2484 2558 2625 2623 2555 2622 2683
8 2560 2485 2559 2626 2624 2556 2623 2684
8 2562 2488 2561 2627 2626 2559 2625 2685
8 2690 2629 2564 2630 2650 2584 2512 2585
8 2586 2513 2585 2651 2632 2565 2630 2691
8 2630 2564 2631 2692 2565 2493 2566 2633
8 2632 2565 2633 2694 2567 2494 2568 2635
8 2633 2566 2634 2695 2568 2495 2569 2636
8 2635 2568 2636 2697 2570 2497 2571 2638
8 2636 2569 2637 2698 2571 2498 2572 2639
8 2638 2571 2639 2700 2573 2500 2574 2641
8 2639 2572 2640 2701 2574 2501 2575 2642
8 2641 2574 2642 2702 2576 2503 2577 2643
8 2597 2528 2596 2659 2645 2579 2644 2704
8 2645 2579 2644 2704 2593 2522 2590 2655
8 2660 2597 2645 2705 2598 2529 2580 2646
8 2646 2580 2645 2705 2595 2525 2593 2657
8 2650 2584 2512 2585 2707 2647 2582 2648
8 2648 2582 2517 2589 2707 2647 2587 2653
8 2649 2583 2648 2708 2586 2513 2585 2651
8 2649 2583 2516 2588 2708 2648 2589 2654
8 2655 2590 2652 2710 2592 2521 2587 2653
8 2654 2589 2520 2591 2711 2653 2592 2656
8 2657 2593 2655 2712 2594 2523 2592 2656
8 2602 2536 2603 2663 2659 2596 2658 2714
8 2662 2602 2659 2715 2600 2534 2597 2660
8 2662 2602 2534 2600 2717 2663 2601 2661
8 2661 2601 2538 2604 2717 2663 2605 2665
8 2666 2606 2664 2718 2605 2539 2603 2663
8 2668 2608 2666 2720 2607 2541 2605 2665
8 2608 2542 2609 2669 2666 2606 2667 2721
8 2610 2544 2611 2671 2668 2608 2669 2723
8 2611 2545 2612 2672 2669 2609 2670 2724
8 2613 2547 2614 2674 2671 2611 2672 2726
8 2614 2548 2615 2675 2672 2612 2673 2727
8 2616 2550 2617 2677 2674 2614 2675 2729
8 2617 2551 2618 2678 2675 2615 2676 2730
8 2619 2553 2620 2680 2677 2617 2678 2732
8 2620 2554 2621 2681 2678 2618 2679 2733
8 2624 2556 2623 2684 2680 2620 2681 2735
8 2681 2621 2555 2623 2736 2682 2622 2683
8 2626 2559 2625 2685 2684 2623 2683 2737
8 2688 2628 2584 2650 2740 2686 2647 2707
8 2688 2628 2687 2742 2650 2584 2629 2690
8 2690 2629 2689 2745 2630 2564 2631 2692
8 2746 2690 2630 2691 2709 2650 2585 2651
8 2691 2630 2692 2747 2632 2565 2633 2694
8 2692 2631 2693 2748 2633 2566 2634 2695
8 2694 2633 2695 2750 2635 2568 2636 2697
8 2695 2634 2696 2751 2636 2569 2637 2698
8 2697 2636 2698 2753 2638 2571 2639 2700
8 2698 2637 2699 2754 2639 2572 2640 2701
8 2700 2639 2701 2755 2641 2574 2642 2702
8 2659 2596 2658 2714 2704 2644 2703 2757
8 2704 2644 2703 2757 2655 2590 2652 2710
8 2660 2597 2659 2715 2705 2645 2704 2758
8 2705 2645 2704 2758 2657 2593 2655 2712
8 2759 2706 2647 2707 2710 2652 2587 2653
8 2709 2650 2585 2651 2760 2707 2648 2708
8 2708 2648 2589 2654 2760 2707 2653 2711
8 2712 2655 2710 2761 2656 2592 2653 2711
8 2763 2713 2658 2714 2718 2664 2603 2663
8 2662 2602 2663 2717 2715 2659 2714 2764
8 2720 2666 2718 2767 2665 2605 2663 2717
8 2768 2719 2664 2718 2721 2667 2606 2666
8 2668 2608 2669 2723 2720 2666 2721 2770
8 2669 2609 2670 2724 2721 2667 2722 2771
8 2671 2611 2672 2726 2723 2669 2724 2773
8 2672 2612 2673 2727 2724 2670 2725 2774
8 2674 2614 2675 2729 2726 2672 2727 2776
8 2675 2615 2676 2730 2727 2673 2728 2777
8 2677 2617 2678 2732 2729 2675 2730 2779
8 2678 2618 2679 2733 2730 2676 2731 2780
8 2680 2620 2681 2735 2732 2678 2733 2782
8 2733 2679 2621 2681 2783 2734 2682 2736
8 2735 2681 2623 2684 2784 2736 2683 2737
8 2740 2686 2647 2707 2787 2738 2706 2759
8 2688 2628 2686 2740 2742 2687 2739 2789
8 2743 2688 2650 2709 2790 2740 2707 2760
8 2742 2687 2741 2792 2690 2629 2689 2745
8 2743 2688 2742 2793 2709 2650 2690 2746
8 2745 2689 2744 2795 2692 2631 2693 2748
8 2746 2690 2745 2796 2691 2630 2692 2747
8 2747 2692 2748 2797 2694 2633 2695 2750
8 2748 2693 2749 2798 2695 2634 2696 2751
8 2750 2695 2751 2800 2697 2636 2698 2753
8 2751 2696 2752 2801 2698 2637 2699 2754
8 2753 2698 2754 2802 2700 2639 2701 2755
8 2763 2713 2756 2804 2714 2658 2703 2757
8 2759 2706 2652 2710 2804 2756 2703 2757
8 2715 2659 2714 2764 2758 2704 2757 2805
8 2758 2704 2757 2805 2712 2655 2710 2761
8 2806 2759 2707 2760 2761 2710 2653 2711
8 2765 2716 2762 2808 2718 2664 2713 2763
8 2809 2763 2714 2764 2767 2718 2663 2717
8 2765 2716 2664 2718 2811 2766 2719 2768
8 2813 2768 2718 2767 2770 2721 2666 2720
8 2814 2769 2719 2768 2771 2722 2667 2721
8 2723 2669 2724 2773 2770 2721 2771 2816
8 2724 2670 2725 2774 2771 2722 2772 2817
8 2726 2672 2727 2776 2773 2724 2774 2819
8 2727 2673 2728 2777 2774 2725 2775 2820
8 2729 2675 2730 2779 2776 2727 2777 2822
8 2730 2676 2731 2780 2777 2728 2778 2823
8 2732 2678 2733 2782 2779 2730 2780 2825
8 2780 2731 2679 2733 2826 2781 2734 2783
8 2782 2733 2681 2735 2827 2783 2736 2784
8 2830 2785 2738 2787 2804 2756 2706 2759
8 2789 2739 2686 2740 2832 2786 2738 2787
8 2790 2740 2707 2760 2833 2787 2759 2806
8 2742 2687 2739 2789 2792 2741 2788 2835
8 2743 2688 2740 2790 2793 2742 2789 2836
8 2792 2741 2791 2838 2745 2689 2744 2795
8 2793 2742 2792 2839 2746 2690 2745 2796
8 2795 2744 2794 2841 2748 2693 2749 2798
8 2796 2745 2795 2842 2747 2692 2748 2797
8 2797 2748 2798 2843 2750 2695 2751 2800
8 2798 2749 2799 2844 2751 2696 2752 2801
8 2800 2751 2801 2845 2753 2698 2754 2802
8 2808 2762 2803 2847 2763 2713 2756 2804
8 2809 2763 2804 2848 2764 2714 2757 2805
8 2806 2759 2710 2761 2848 2804 2757 2805
8 2765 2716 2766 2811 2808 2762 2807 2850
8 2810 2765 2808 2851 2767 2718 2763 2809
8 2810 2765 2718 2767 2852 2811 2768 2813
8 2811 2766 2719 2768 2853 2812 2769 2814
8 2855 2814 2768 2813 2816 2771 2721 2770
8 2856 2815 2769 2814 2817 2772 2722 2771
8 2773 2724 2774 2819 2816 2771 2817 2858
8 2774 2725 2775 2820 2817 2772 2818 2859
8 2776 2727 2777 2822 2819 2774 2820 2861
8 2777 2728 2778 2823 2820 2775 2821 2862
8 2779 2730 2780 2825 2822 2777 2823 2864
8 2823 2778 2731 2780 2865 2824 2781 2826
8 2825 2780 2733 2782 2866 2826 2783 2827
8 2869 2828 2785 2830 2847 2803 2756 2804
8 2871 2829 2786 2832 2830 2785 2738 2787
8 2872 2830 2787 2833 2848 2804 2759 2806
8 2789 2739 2786 2832 2835 2788 2831 2874
8 2836 2789 2740 2790 2875 2832 2787 2833
8 2792 2741 2788 2835 2838 2791 2834 2877
8 2793 2742 2789 2836 2839 2792 2835 2878
8 2838 2791 2837 2880 2795 2744 2794 2841
8 2839 2792 2838 2881 2796 2745 2795 2842
8 2841 2794 2840 2882 2798 2749 2799 2844
8 2842 2795 2841 2883 2797 2748 2798 2843
8 2843 2798 2844 2884 2800 2751 2801 2845
8 2886 2846 2803 2847 2850 2807 2762 2808
8 2851 2808 2847 2887 2809 2763 2804 2848
8 2850 2807 2766 2811 2889 2849 2812 2853
8 2810 2765 2811 2852 2851 2808 2850 2890
8 2852 2811 2768 2813 2891 2853 2814 2855
8 2853 2812 2769 2814 2892 2854 2815 2856
8 2894 2856 2814 2855 2858 2817 2771 2816
8 2817 2772 2818 2859 2856 2815 2857 2895
8 2819 2774 2820 2861 2858 2817 2859 2897
8 2820 2775 2821 2862 2859 2818 2860 2898
8 2822 2777 2823 2864 2861 2820 2862 2900
8 2823 2778 2824 2865 2862 2821 2863 2901
8 2864 2823 2780 2825 2902 2865 2826 2866
8 2904 2867 2828 2869 2886 2846 2803 2847
8 2869 2828 2868 2906 2830 2785 2829 2871
8 2907 2869 2830 2872 2887 2847 2804 2848
8 2871 2829 2870 2909 2832 2786 2831 2874
8 2910 2871 2832 2875 2872 2830 2787 2833
8 2835 2788 2831 2874 2877 2834 2873 2912
8 2836 2789 2832 2875 2878 2835 2874 2913
8 2877 2834 2876 2915 2838 2791 2837 2880
8 2839 2792 2835 2878 2881 2838 2877 2916
8 2880 2837 2879 2917 2841 2794 2840 2882
8 2881 2838 2880 2918 2842 2795 2841 2883
8 2883 2841 2882 2919 2843 2798 2844 2884
8 2921 2885 2846 2886 2889 2849 2807 2850
8 2922 2886 2847 2887 2890 2850 2808 2851
8 2889 2849 2812 2853 2924 2888 2854 2892
8 2890 2850 2811 2852 2925 2889 2853 2891
8 2891 2853 2814 2855 2926 2892 2856 2894
8 2892 2854 2815 2856 2927 2893 2857 2895
8 2858 2817 2859 2897 2894 2856 2895 2929
8 2859 2818 2860 2898 2895 2857 2896 2930
8 2861 2820 2862 2900 2897 2859 2898 2932
8 2862 2821 2863 2901 2898 2860 2899 2933
8 2864 2823 2865 2902 2900 2862 2901 2934
8 2904 2867 2846 2886 2936 2903 2885 2921
8 2904 2867 2903 2936 2869 2828 2868 2906
8 2937 2904 2869 2907 2922 2886 2847 2887
8 2906 2868 2905 2939 2871 2829 2870 2909
8 2907 2869 2906 2940 2872 2830 2871 2910
8 2909 2870 2908 2942 2874 2831 2873 2912
8 2910 2871 2909 2943 2875 2832 2874 2913
8 2912 2873 2911 2945 2877 2834 2876 2915
8 2878 2835 2874 2913 2916 2877 2912 2946
8 2915 2876 2914 2947 2880 2837 2879 2917
8 2916 2877 2915 2948 2881 2838 2880 2918
8 2918 2880 2917 2949 2883 2841 2882 2919
8 2921 2885 2849 2889 2951 2920 2888 2924
8 2952 2921 2886 2922 2925 2889 2850 2890
8 2924 2888 2854 2892 2954 2923 2893 2927
8 2925 2889 2853 2891 2955 2924 2892 2926
8 2926 2892 2856 2894 2956 2927 2895 2929
8 2895 2857 2896 2930 2927 2893 2928 2957
8 2897 2859 2898 2932 2929 2895 2930 2959
8 2898 2860 2899 2933 2930 2896 2931 2960
8 2900 2862 2901 2934 2932 2898 2933 2961
8 2936 2903 2885 2921 2963 2935 2920 2951
8 2936 2903 2935 2963 2906 2868 2905 2939
8 2937 2904 2886 2922 2964 2936 2921 2952
8 2937 2904 2936 2964 2907 2869 2906 2940
8 2939 2905 2938 2966 2909 2870 2908 2942
8 2940 2906 2939 2967 2910 2871 2909 2943
8 2942 2908 2941 2969 2912 2873 2911 2945
8 2943 2909 2942 2970 2913 2874 2912 2946
8 2945 2911 2944 2971 2915 2876 2914 2947
8 2946 2912 2945 2972 2916 2877 2915 2948
8 2948 2915 2947 2973 2918 2880 2917 2949
8 2951 2920 2888 2924 2975 2950 2923 2954
8 2952 2921 2889 2925 2976 2951 2924 2955
8 2927 2893 2928 2957 2954 2923 2953 2978
8 2955 2924 2892 2926 2979 2954 2927 2956
8 2929 2895 2930 2959 2956 2927 2957 2980
8 2930 2896 2931 2960 2957 2928 2958 2981
8 2932 2898 2933 2961 2959 2930 2960 2982
8 2951 2920 2950 2975 2963 2935 2962 2984
8 2963 2935 2962 2984 2939 2905 2938 2966
8 2964 2936 2921 2952 2985 2963 2951 2976
8 2964 2936 2963 2985 2940 2906 2939 2967
8 2966 2938 2965 2987 2942 2908 2941 2969
8 2967 2939 2966 2988 2943 2909 2942 2970
8 2969 2941 2968 2989 2945 2911 2944 2971
8 2970 2942 2969 2990 2946 2912 2945 2972
8 2972 2945 2971 2991 2948 2915 2947 2973
8 2954 2923 2953 2978 2975 2950 2974 2993
8 2976 2951 2924 2955 2994 2975 2954 2979
8 2957 2928 2958 2981 2978 2953 2977 2995
8 2956 2927 2957 2980 2979 2954 2978 2996
8 2959 2930 2960 2982 2980 2957 2981 2997
8 2984 2962 2983 2999 2966 2938 2965 2987
8 2975 2950 2974 2993 2984 2962 2983 2999
8 2976 2951 2975 2994 2985 2963 2984 3000
8 2985 2963 2984 3000 2967 2939 2966 2988
8 2987 2965 2986 3001 2969 2941 2968 2989
8 2988 2966 2987 3002 2970 2942 2969 2990
8 2990 2969 2989 3003 2972 2945 2971 2991
8 2978 2953 2977 2995 2993 2974 2992 3004
8 2979 2954 2978 2996 2994 2975 2993 3005
8 2980 2957 2981 2997 2996 2978 2995 3006
8 2974 2993 2999 2983 2992 3004 3007 2998
8 2983 2999 2987 2965 2998 3007 3001 2986
8 3000 2984 2999 3008 2988 2966 2987 3002
8 2994 2975 2993 3005 3000 2984 2999 3008
8 3002 2987 3001 3009 2990 2969 2989 3003
8 2996 2978 2995 3006 3005 2993 3004 3010
8 3005 2993 3004 3010 3008 2999 3007 3011
8 3008 2999 3007 3011 3002 2987 3001 3009

CELL_TYPES 1910
12
12
12
12
12
12
12
12
12
12
12
12
12
12
12
12
12
12
12
12
12
12
12
12
12
12
12
12
12
12
12
12
12
12
12
12
12
12
12
12
12
12
12
12
12
12
12
12
12
12
12
12
12
12
12
12
12
12
12
12
12
12
12
12
12
12
12
12
12
12
12
12
12
12
12
12
12
12
12
12
12
12
12
12
12
12
12
12
12
12
12
12
12
12
12
12
12
12
12
12
12
12
12
12
12
12
12
12
12
12
12
12
12
12
12
12
12
12
12
12
12
12
12
12
12
12
12
12
12
12
12
12
12
12
12
12
12
12
12
12
12
12
12
12
12
12
12
12
12
12
12
12
12
12
12
12
12
12
12
12
12
12
12
12
12
12
12
12
12
12
12
12
12
12
12
12
12
12
12
12
12
12
12
12
12
12
12
12
12
12
12
12
12
12
12
12
12
12
12
12
12
12
12
12
12
12
12
12
12
12
12
12
12
12
12
12
12
12
12
12
12
12
12
12
12
12
12
12
12
12
12
12
12
12
12
12
12
12
12
12
12
12
12
12
12
12
12
12
12
12
12
12
12
12
12
12
12
12
12
12
12
12
12
12
12
12
12
12
12
12
12
12
12
12
12
12
12
12
12
12
12
12
12
12
12
12
12
12
12
12
12
12
12
12
12
12
12
12
12
12
12
12
12
12
12
12
12
12
12
12
12
12
12
12
12
12
12
12
12
12
12
12
12
12
12
12
12
12
12
12
12
12
12
12
12
12
12
12
12
12
12
12
12
12
12
12
12
12
12
12
12
12
12
12
12
12
12
12
12
12
12
12
12
12
12
12
12
12
12
12
12
12
12
12
12
12
12
12
12
12
12
12
12
12
12
12
12
12
12
12
12
12
12
12
12
12
12
12
12
12
12
12
12
12
12
12
12
12
12
12
12
12
12
12
12
12
12
12
12
12
12
12
12
12
12
12
12
12
12
12
12
12
12
12
12
12
12
12
12
12
12
12
12
12
12
12
12
12
12
12
12
12
12
12
12
12
12
12
12
12
12
12
12
12
12
12
12
12
12
12
12
12
12
12
12
12
12
12
12
12
12
12
12
12
12
12
12
12
12
12
12
12
12
12
12
12
12
12
12
12
12
12
12
12
12
12
12
12
12
12
12
12
12
12
12
12
12
12
12
12
12
12
12
12
12
12
12
12
12
12
12
12
12
12
12
12
12
12
12
12
12
12
12
12
12
12
12
12
12
12
12
12
12
12
12
12
12
12
12
12
12
12
12
12
12
12
12
12
12
12
12
12
12
12
12
12
12
12
12
12
12
12
12
12
12
12
12
12
12
12
12
12
12
12
12
12
12
12
12
12
12
12
12
12
12
12
12
12
12
12
12
12
12
12
12
12
12
12
12
12
12
12
12
12
12
12
12
12
12
12
12
12
12
12
12
12
12
12
12
12
12
12
12
12
12
12
12
12
12
12
12
12
12
12
12
12
12
12
12
12
12
12
12
12
12
12
12
12
12
12
12
12
12
12
12
12
12
12
12
12
12
12
12
12
12
12
12
12
12
12
12
12
12
12
12
12
12
12
12
12
12
12
12
12
12
12
12
12
12
12
12
12
12
12
12
12
12
12
12
12
12
12
12
12
12
12
12
12
12
12
12
12
12
12
12
12
12
12
12
12
12
12
12
12
12
12
12
12
12
12
12
12
12
12
12
12
12
12
12
12
12
12
12
12
12
12
12
12
12
12
12
12
12
12
12
12
12
12
12
12
12
12
12
12
12
12
12
12
12
12
12
12
12
12
12
12
12
12
12
12
12
12
12
12
12
12
12
12
12
12
12
12
12
12
12
12
12
12
12
12
12
12
12
12
12
12
12
12
12
12
12
12
12
12
12
12
12
12
12
12
12
12
12
12
12
12
12
12
12
12
12
12
12
12
12
12
12
12
12
12
12
12
12
12
12
12
12
12
12
12
12
12
12
12
12
12
12
12
12
12
12
12
12
12
12
12
12
12
12
12
12
12
12
12
12
12
12
12
12
12
12
12
12
12
12
12
12
12
12
12
12
12
12
12
12
12
12
12
12
12
12
12
12
12
12
12
12
12
12
12
12
12
12
12
12
12
12
12
12
12
12
12
12
12
12
12
12
12
12
12
12
12
12
12
12
12
12
12
12
12
12
12
12
12
12
12
12
12
12
12
12
12
12
12
12
12
12
12
12
12
12
12
12
12
12
12
12
12
12
12
12
12
12
12
12
12
12
12
12
12
12
12
12
12
12
12
12
12
12
12
12
12
12
12
12
12
12
12
12
12
12
12
12
12
12
12
12
12
12
12
12
12
12
12
12
12
12
12
12
12
12
12
12
12
12
12
12
12
12
12
12
12
12
12
12
12
12
12
12
12
12
12
12
12
12
12
12
12
12
12
12
12
12
12
12
12
12
12
12
12
12
12
12
12
12
12
12
12
12
12
12
12
12
12
12
12
12
12
12
12
12
12
12
12
12
12
12
12
12
12
12
12
12
12
12
12
12
12
12
12
12
12
12
12
12
12
12
12
12
12
12
12
12
12
12
12
12
12
12
12
12
12
12
12
12
12
12
12
12
12
12
12
12
12
12
12
12
12
12
12
12
12
12
12
12
12
12
12
12
12
12
12
12
12
12
12
12
12
12
12
12
12
12
12
12
12
12
12
12
12
12
12
12
12
12
12
12
12
12
12
12
12
12
12
12
12
12
12
12
12
12
12
12
12
12
12
12
12
12
12
12
12
12
12
12
12
12
12
12
12
12
12
12
12
12
12
12
12
12
12
12
12
12
12
12
12
12
12
12
12
12
12
12
12
12
12
12
12
12
12
12
12
12
12
12
12
12
12
12
12
12
12
12
12
12
12
12
12
12
12
12
12
12
12
12
12
12
12
12
12
12
12
12
12
12
12
12
12
12
12
12
12
12
12
12
12
12
12
12
12
12
12
12
12
12
12
12
12
12
12
12
12
12
12
12
12
12
12
12
12
12
12
12
12
12
12
12
12
12
12
12
12
12
12
12
12
12
12
12
12
12
12
12
12
12
12
12
12
12
12
12
12
12
12
12
12
12
12
12
12
12
12
12
12
12
12
12
12
12
12
12
12
12
12
12
12
12
12
12
12
12
12
12
12
12
12
12
12
12
12
12
12
12
12
12
12
12
12
12
12
12
12
12
12
12
12
12
12
12
12
12
12
12
12
12
12
12
12
12
12
12
12
12
12
12
12
12
12
12
12
12
12
12
12
12
12
12
12
12
12
12
12
12
12
12
12
12
12
12
12
12
12
12
12
12
12
12
12
12
12
12
12
12
12
12
12
12
12
12
12
12
12
12
12
12
12
12
12
12
12
12
12
12
12
12
12
12
12
12
12
12
12
12
12
12
12
12
12
12
12
12
12
12
12
12
12
12
12
12
12
12
12
12
12
12
12
12
12
12
12
12
12
12
12
12
12
12
12
12
12
12
12
12
12
12
12
12
12
12
12
12
12
12
12
12
12
12
12
12
12
12
12
12
12
12
12
12
12
12
12
12
12
12
12
12
12
12
12
12
12
12
12
12
12
12
12
12
12
12
12
12
12
12
12
12
12
12
12
12
12
12
12
12
12
12
12
12
12
12
12
12
12
12
12
12
12
12
12
12
12
12
12
12
12
12
12
12
12
12
12
12
12
12
12
12
12
12
12
12
12
12
12
12
12
12
12
12
12
12
12
12
12
12
12
12
12
12
12
12
12
12
12
12
12
12
12
12
12
12
12
12
12
12
12
12
12
12
12
12
12
12
12
12
12
12
12
12
12
12
12
12
12
12
12
12
12
12
12
12
12
12
12
12
12
12
12
12
12
12
12
12
12
12
12
12
12
12
12
12
12
12
12
12
12
12
12
12
12
12
12
12
12
12
12
12
12
12
12
12
12
12
12
12
12
12
12
12
12
12
12
12
12
12
12
12
12
12
12
12
12
12
12
12
12
12
12
12
12
12
12
12
12
12
12
12
12
12
12
12
12
12
12
12
12
12
12
12
12
12
12
12
12
12
12
12
12
12
12
12
12
12
12
12
12
12
12
12
12
12
12
12
12
12
12
12
12
12
12
12
12
12
12
12
12
12
12
12
12
12
12
12
12
12
12
12
12
12
12
12
12
12
12
12
12
12
12
12
12
12
12
12
12
12
12
12
12
12
12
12
12
12
12
12
12
12
12
12
12
12
12
12
12
12
12
12
12
12
12
12
12
12
12
12
12
12
12
12
12
12
12
12
12
12
12
12
12
12
12
12
12
12
12
12
12
12
12
12
12
12
12

POINT_DATA 3012
SCALARS Jp_lamdaP float 4
LOOKUP_TABLE default
0.999911 1 1 0.999911
1 1 1 1
0.999914 1 1 0.999914
0.999876 1 1 0.999876
0.999909 1 1 0.999909
0.999911 1 1 0.999911
0.999498 1 1 0.999498
1 1 1 1
1 1 1 1
1 1 1 1
0.999976 1 1 0.999976
0.999668 1 1 0.999668
0.999835 1 1 0.999835
0.999867 1 1 0.999867
0.999914 1 1 0.999914
0.999887 1 1 0.999887
0.999915 1 1 0.999915
0.999915 1 1 0.999915
0.999501 1 1 0.999501
1 1 1 1
0.99986 1 1 0.99986
0.999895 1 1 0.999895
0.999375 1 1 0.999375
0.999465 1 1 0.999465
0.999936 1 1 0.999936
0.999537 1 1 0.999537
0.998835 1 1 0.998835
1 1 1 1
0.999945 1 1 0.999945
0.999958 1 1 0.999958
1 1 1 1
0.999677 1 1 0.999677
0.999886 1 1 0.999886
0.999907 1 1 0.999907
0.999561 1 1 0.999561
1 1 1 1
0.999652 1 1 0.999652
0.999754 1 1 0.999754
0.998914 1 1 0.998914
1 1 1 1
1 1 1 1
0.999931 1 1 0.999931
1 1 1 1
0.999857 1 1 0.999857
0.99931 1 1 0.99931
1 1 1 1
0.999477 1 1 0.999477
0.999897 1 1 0.999897
0.999918 1 1 0.999918
0.999918 1 1 0.999918
0.999505 1 1 0.999505
0.999917 1 1 0.999917
0.999871 1 1 0.999871
0.999943 1 1 0.999943
0.999904 1 1 0.999904
0.999376 1 1 0.999376
0.999542 1 1 0.999542
0.999468 1 1 0.999468
0.998821 1 1 0.998821
1 1 1 1
0.999845 1 1 0.999845
0.999436 1 1 0.999436
0.999343 1 1 0.999343
0.99942 1 1 0.99942
0.998545 1 1 0.998545
0.998681 1 1 0.998681
0.999975 1 1 0.999975
0.999652 1 1 0.999652
0.998944 1 1 0.998944
0.999305 1.0011 1 0.998205
1 1 1 1
1 1 1 1
1 1 1 1
0.999685 1 1 0.999685
1 1 1 1
1 1 1 1
0.999511 1 1 0.999511
0.999997 1 1 0.999997
0.999618 1 1 0.999618
0.999785 1 1 0.999785
0.998912 1 1 0.998912
1 1 1 1
0.999983 1 1 0.999983
0.999458 1 1 0.999458
0.999548 1 1 0.999548
0.998512 1 1 0.998512
0.999873 1 1 0.999873
0.998812 1 1 0.998812
0.999037 1 1 0.999037
0.998456 1 1 0.998456
1 1 1 1
1 1 1 1
1 1 1 1
1 1 1 1
1 1 1 1
0.999925 1 1 0.999925
0.99937 1 1 0.99937
0.999936 1 1 0.999936
0.999447 1 1 0.999447
1 1 1 1
0.999287 1 1 0.999287
0.999446 1 1 0.999446
0.998198 1 1 0.998198
0.999508 1 1 0.999508
0.998349 1.00005 1 0.998298
0.999851 1 1 0.999851
0.999881 1 1 0.999881
0.999951 1 1 0.999951
0.999912 1 1 0.999912
0.999378 1 1 0.999378
0.999472 1 1 0.999472
0.999547 1 1 0.999547
0.998807 1 1 0.998807
1 1 1 1
0.999857 1 1 0.999857
0.999312 1 1 0.999312
0.999342 1 1 0.999342
0.999987 1 1 0.999987
0.999695 1 1 0.999695
0.999422 1 1 0.999422
0.998509 1 1 0.998509
0.998925 1 1 0.998925
0.998706 1 1 0.998706
0.99957 1.00136 1 0.998208
0.999308 1 1 0.999308
0.999317 1 1 0.999317
0.998332 1 1 0.998332
0.998436 1 1 0.998436
0.998566 1 1 0.998566
1.00277 1.0048 1 0.997975
1 1 1 1
1.00023 1.00211 1 0.998129
0.99984 1 1 0.99984
0.999008 1 1 0.999008
0.998856 1.00057 1 0.998282
1.00448 1.00652 1 0.997969
0.99994 1 1 0.99994
0.999414 1 1 0.999414
1 1 1 1
1 1 1 1
0.999518 1 1 0.999518
1 1 1 1
0.999795 1 1 0.999795
0.999623 1 1 0.999623
0.998909 1 1 0.998909
1 1 1 1
0.999989 1 1 0.999989
0.999498 1 1 0.999498
0.999586 1 1 0.999586
0.998514 1 1 0.998514
0.999892 1 1 0.999892
0.998815 1 1 0.998815
0.999037 1 1 0.999037
0.998442 1 1 0.998442
0.999943 1 1 0.999943
0.999999 1 1 0.999999
0.999554 1 1 0.999554
0.998401 1 1 0.998401
0.998666 1 1 0.998666
1.00209 1.00409 1 0.998009
0.999204 1 1 0.999204
0.998834 1.00049 1 0.998342
0.999073 1 1.00052 0.998551
0.998397 1.0001 1 0.998297
1 1 1 1
1 1 1 1
1 1 1 1
0.999967 1 1 0.999967
1 1 1 1
1 1 1 1
1 1 1 1
0.999414 1 1 0.999414
0.999332 1 1 0.999332
1 1 1 1
1 1 1 1
0.999289 1 1 0.999289
0.999416 1 1 0.999416
0.998212 1.00001 1 0.998198
0.999441 1 1 0.999441
0.998338 1.00004 1 0.998298
0.999278 1 1 0.999278
0.998143 1 1 0.998143
0.998288 1.00003 1 0.998258
1.00571 1.00797 1 0.997757
0.998351 1.00001 1 0.998337
1.00503 1.0072 1 0.997848
1 1 1 1
0.999869 1 1 0.999869
0.999179 1 1 0.999179
0.999343 1 1 0.999343
1 1 1 1
0.999739 1 1 0.999739
0.999426 1 1 0.999426
0.998473 1 1 0.998473
0.998732 1 1 0.998732
0.998906 1 1 0.998906
0.999844 1.00164 1 0.998211
0.999305 1 1 0.999305
0.999316 1 1 0.999316
0.998256 1 1 0.998256
0.998462 1 1 0.998462
1 1 1 1
0.999829 1 1 0.999829
0.999045 1 1 0.999045
0.998566 1 1 0.998566
1.00279 1.00486 1 0.997936
0.998977 1.00071 1 0.998273
1.00057 1.00242 1 0.998154
1.00417 1.00621 1 0.997974
0.999932 1 1 0.999932
0.999415 1 1 0.999415
0.998161 1 1 0.998161
0.99839 1 1 0.99839
1.00423 1.0064 1 0.99785
1.00319 1.00535 1 0.997852
1.00121 1.00315 1 0.998069
1.01096 1.01317 1 0.997819
0.9999 1 1 0.9999
1.00592 1.00801 1 0.997929
0.999141 1 1 0.999141
0.998762 1.00033 1 0.998429
1.00341 1.00539 1 0.998034
1.00911 1.01119 1 0.997935
0.999299 1 1 0.999299
0.99956 1 1 0.99956
0.999027 1 1.00008 0.998943
0.999475 1 1 0.999475
1 1 1 1
0.999995 1 1 0.999995
0.999573 1 1 0.999573
0.998517 1 1 0.998517
0.999905 1 1 0.999905
0.999037 1 1 0.999037
0.998818 1 1 0.998818
0.998427 1 1 0.998427
0.999956 1 1 0.999956
0.999999 1 1 0.999999
0.999556 1 1 0.999556
0.998402 1 1 0.998402
0.998671 1 1 0.998671
1.00151 1.00351 1 0.998007
0.999206 1 1 0.999206
0.998681 1.00033 1 0.998352
0.998879 1 1.00033 0.998547
0.998534 1.00025 1 0.998285
1 1 1 1
0.999371 1 1 0.999371
0.999729 1 1 0.999729
0.999087 1 1 0.999087
1.00366 1.00576 1 0.997914
1.00031 1.00213 1 0.998182
1.00803 1.01025 1 0.9978
0.999179 1 1.00044 0.998742
1.00071 1.00254 1 0.998173
0.999921 1.00008 1.00158 0.998267
1.00091 1.00275 1 0.998158
0.999915 1 1 0.999915
1 1 1 1
1 1 1 1
1 1 1 1
1 1 1 1
0.999986 1 1 0.999986
1 1 1 1
0.99996 1 1 0.99996
1 1 1 1
0.999442 1 1 0.999442
0.999379 1 1 0.999379
0.998338 1.00004 1 0.998298
0.998236 1.00004 1 0.998198
0.999291 1 1 0.999291
1 1 1 1
0.999277 1 1 0.999277
0.998144 1 1 0.998143
0.998308 1.00005 1 0.998257
1.00565 1.00791 1 0.997756
0.998349 1.00001 1 0.998337
1.00504 1.00721 1 0.997848
0.998132 1 1 0.998132
1.00554 1.00785 1 0.997704
1.00547 1.00768 1 0.99781
1.01769 1.02002 1 0.997713
1.00471 1.00685 1 0.997875
1.01572 1.018 1 0.997765
0.999302 1 1 0.999302
0.999315 1 1 0.999315
0.99818 1 1 0.99818
0.998489 1 1 0.998489
1 1 1 1
0.999817 1 1 0.999817
0.999082 1 1 0.999082
0.998566 1 1 0.998566
1.00281 1.00492 1 0.997898
1.00089 1.00272 1 0.998179
0.999085 1.00082 1 0.998265
1.00393 1.00596 1 0.997979
0.999923 1 1 0.999923
0.999415 1 1 0.999415
0.998138 1 1 0.998138
0.998388 1 1 0.998388
1.00443 1.0066 1 0.997841
1.00341 1.00553 1 0.99789
0.99989 1 1 0.99989
0.999139 1 1 0.999139
0.998762 1.0003 1 0.998461
1.00144 1.00337 1 0.998069
1.01129 1.0135 1 0.99782
1.00299 1.005 1 0.998001
1.006 1.00808 1 0.997931
1.0094 1.01149 1 0.997934
0.999302 1 1 0.999302
0.999199 1 1.00026 0.998943
0.999557 1 1 0.999557
1.00481 1.00703 1 0.997789
1.00451 1.00665 1 0.997872
1.01559 1.01792 1 0.99771
1.01317 1.01545 1 0.997754
1.00811 1.01025 1 0.997882
1.01603 1.01817 1 0.997898
0.999233 1 1 0.999233
1.01124 1.01333 1 0.997934
0.998709 1 1 0.998709
0.999195 1.00112 1 0.998076
1.00699 1.00915 1 0.997859
1.01155 1.01353 1 0.998039
0.999678 1 1 0.999678
0.998925 1 1 0.998925
0.999223 1 1.00021 0.999014
0.999064 1 1.00028 0.998785
0.998402 1 1 0.998402
1 1 1 1
0.999969 1 1 0.999969
0.999559 1 1 0.999559
0.998676 1 1 0.998676
1.00092 1.00292 1 0.998005
0.999208 1 1 0.999208
0.9987 1 1.00016 0.998544
0.998467 1.0001 1 0.998363
0.998643 1.00037 1 0.998273
1 1 1 1
0.999371 1 1 0.999371
0.999735 1 1 0.999735
0.999089 1 1 0.999084
1.00322 1.00532 1 0.997911
0.999735 1.00155 1 0.998184
1.00808 1.0103 1 0.997799
0.999085 1 1.00034 0.998745
1.00009 1.0019 1 0.998188
1.00021 1.00023 1.00173 0.998255
1.00047 1.00225 1 0.998228
1 1 1 1
0.999834 1 1 0.999834
0.998928 1 1 0.998928
0.999272 1 1.00001 0.999263
0.999172 1 1.00034 0.998831
1.01082 1.0131 1 0.997753
1.00435 1.00639 1 0.997972
1.01059 1.01284 1 0.997778
1.0004 1 1.00199 0.998411
1.00186 1.00377 1 0.998094
1.00077 1.00192 1.00086 0.997993
0.999901 1 1 0.999901
0.999589 1 1 0.999589
0.999923 1 1 0.999923
0.999917 1 1 0.999917
1 1 1 1
1 1 1 1
1 1 1 1
1 1 1 1
1 1 1 1
0.999997 1 1 0.999997
1 1 1 1
0.999981 1 1 0.999981
1 1 1 1
0.999953 1 1 0.999953
1 1 1 1
0.998345 1.00001 1 0.998336
0.998311 1.00005 1 0.998257
1.00502 1.00719 1 0.997847
1.00556 1.00783 1 0.997754
0.998143 1 1 0.998143
0.999276 1 1 0.999276
0.998132 1 1 0.998132
1.00561 1.00792 1 0.997705
1.00531 1.00751 1 0.997809
1.01789 1.02022 1 0.997718
1.00447 1.00661 1 0.997873
1.01518 1.01745 1 0.997765
1.00533 1.00765 1 0.997692
1.01819 1.02055 1 0.997683
1.01718 1.01949 1 0.997741
1.02265 1.0249 1 0.997804
1.01299 1.01526 1 0.997765
1.01834 1.02046 1 0.997919
0.998115 1 1 0.998115
0.998386 1 1 0.998386
1.0046 1.00678 1 0.997831
1.00361 1.0057 1 0.997929
0.999881 1 1 0.999881
0.999136 1 1 0.999136
0.998771 1.00028 1 0.998494
1.00167 1.0036 1 0.998069
1.0116 1.01381 1 0.997821
1.00608 1.00817 1 0.997934
1.00251 1.00456 1 0.997968
1.00966 1.01175 1 0.997934
0.999304 1 1 0.999304
0.999342 1 1.0004 0.998943
0.999554 1 1 0.999554
1.00496 1.00722 1 0.997755
1.00447 1.00661 1 0.997871
1.0154 1.01773 1 0.997711
1.01358 1.01586 1 0.99776
0.999233 1 1 0.999233
0.998703 1 1 0.998703
0.999423 1.00127 1.00003 0.998124
1.00831 1.01044 1 0.997888
1.01531 1.01743 1 0.997923
1.00705 1.00924 1 0.997831
1.01122 1.01331 1 0.997937
1.01093 1.0129 1 0.998057
0.998928 1 1 0.998928
0.999091 1 1.00032 0.998768
0.999674 1 1 0.999674
0.999303 1 1.00027 0.999034
1.01613 1.01852 1 0.997662
1.01587 1.01817 1 0.997745
1.02111 1.02343 1 0.997735
1.01746 1.01962 1 0.99788
1.01376 1.01585 1 0.997944
1.01625 1.01826 1 0.99803
0.998874 1 1 0.998874
1.0119 1.01381 1 0.99812
0.998399 1 1 0.998399
1.00195 1.00394 1.00018 0.997848
1.00958 1.01183 1 0.99778
1.01097 1.01291 1 0.998082
0.99975 1 1 0.99975
0.999162 1 1 0.999157
0.998772 1 1 0.998772
0.999644 1 1.00083 0.998811
0.998914 1 1.00019 0.998729
1 1 1 1
1.00272 1.00482 1 0.997908
0.99974 1 1 0.99974
0.999371 1 1 0.999371
0.999081 1 1 0.999081
0.999258 1.00107 1 0.998186
1.00812 1.01035 1 0.997797
0.998975 1 1.00023 0.998749
1.00059 1.00042 1.00193 0.998244
0.999604 1.00141 1 0.998202
1.00014 1.00185 1 0.998297
1 1 1 1
0.999839 1 1 0.999839
0.998929 1 1 0.998929
0.999264 1 1 0.999264
0.999271 1 1.00046 0.998811
1.01107 1.01336 1 0.997748
1.00405 1.00609 1 0.997972
1.01055 1.01281 1 0.99777
1.00054 1 1.00213 0.998415
1.00289 1.00479 1 0.998109
1.0008 1.00183 1.00096 0.998013
0.999879 1 1 0.999879
0.999417 1 1 0.999417
0.999113 1 1.00048 0.998637
0.999358 1 1.00038 0.998974
0.999429 1 1.00074 0.998685
1.01312 1.01537 1 0.997785
1.00634 1.00845 1 0.997913
1.0104 1.01249 1 0.997927
1.00195 1 1.00379 0.99817
1.00175 1.00389 1 0.997867
0.999905 1 1 0.999905
0.999526 1 1 0.999526
0.99957 1 1 0.99957
0.999385 1 1 0.999385
0.999597 1 1 0.999597
0.999925 1 1 0.999925
0.999924 1 1 0.999924
1 1 1 1
0.999919 1 1 0.999919
1 1 1 1
1 1 1 1
1 1 1 1
1 1 1 1
1 1 1 1
1 1 1 1
0.999994 1 1 0.999994
1 1 1 1
1 1 1 1
0.999976 1 1 0.999976
1 1 1 1
1.00426 1.0064 1 0.997871
1.00518 1.00739 1 0.997808
1.01465 1.01693 1 0.997764
1.0181 1.02042 1 0.997722
1.00571 1.00802 1 0.997705
0.998131 1 1 0.998131
1.00539 1.00772 1 0.997693
1.01813 1.0205 1 0.997676
1.01702 1.01932 1 0.997741
1.02227 1.02451 0.999995 0.997823
1.01323 1.0155 1 0.997761
1.01856 1.02068 1 0.99793
1.01702 1.01942 1 0.997651
1.02156 1.02385 1 0.997756
1.02063 1.02279 1 0.99789
1.02143 1.02383 0.999743 0.99791
1.01624 1.01841 1 0.997871
1.01958 1.02156 1 0.998063
1.00515 1.00745 1 0.997722
1.00442 1.00657 1 0.99787
1.01525 1.01758 1 0.997712
1.01403 1.0163 1 0.997765
0.999233 1 1 0.999233
0.998697 1 1 0.998697
0.999724 1.00137 1.00018 0.998172
1.00851 1.01064 1 0.997894
1.01459 1.01667 1 0.997947
1.01119 1.01328 1 0.997939
1.00712 1.00934 1 0.997803
1.01027 1.01222 1 0.998075
0.998931 1 1 0.998931
0.999052 1 1.0003 0.99875
0.99967 1 1 0.99967
0.99926 1 1.00021 0.999055
1.01608 1.01846 1 0.997663
1.01571 1.01801 1 0.997736
1.02108 1.02339 1 0.997747
1.01681 1.01898 1 0.99787
0.99887 1 1 0.99887
0.998471 1 1.00003 0.99844
1.00222 1.004 1.00039 0.997842
1.01347 1.01558 1 0.997924
1.01645 1.01841 1 0.998073
1.00929 1.01155 1 0.997769
1.01169 1.01359 1 0.998122
1.01183 1.01374 1 0.998118
0.998771 1 1 0.998771
0.998775 1 1.00005 0.998729
0.999888 1 1.00108 0.998806
0.99972 1 1 0.99972
0.999175 1 1 0.999175
1.02159 1.02391 1 0.99773
1.02075 1.02301 1 0.997789
1.0174 1.01942 0.999985 0.998031
1.01412 1.01604 1 0.998113
0.998691 1 1 0.998691
1.01347 1.01525 1 0.998246
0.998495 1 1.00029 0.998208
1.00537 1.00727 1.00051 0.997615
1.01004 1.01233 1 0.997738
0.999755 1 1 0.999755
0.999335 1 1 0.999335
0.999306 1 1.00035 0.998959
0.998734 1 1 0.998734
1.00061 1 1.00196 0.998652
0.998675 1 1 0.998675
1 1 1 1
0.999845 1 1 0.999845
1.01138 1.01367 1 0.997744
0.999264 1 1 0.999264
0.99893 1 1 0.99893
0.999428 1 1.00064 0.998791
1.00358 1.00561 1 0.997973
1.01041 1.01268 1 0.997762
1.0007 1 1.00229 0.998419
1.00047 1.00167 1.00077 0.998033
1.00379 1.00568 1 0.998125
0.999883 1 1 0.999883
0.999419 1 1 0.999419
0.999056 1 1.00041 0.998643
0.999492 1 1.00052 0.998973
0.999681 1 1.00101 0.998673
1.01328 1.01553 1 0.997781
1.00679 1.0089 1 0.997904
1.01028 1.01235 1 0.997949
1.00139 1 1.00324 0.998149
1.00152 1.00363 1.00006 0.997836
0.99951 1 1 0.99951
0.999153 1 1.00006 0.999093
1.00046 1 1.002 0.998469
1.0002 1 1.00148 0.99872
0.999539 1 1.00097 0.998571
1.01609 1.01801 1 0.998122
1.00652 1.00871 1 0.997831
1.00864 1.01069 1 0.997974
1.00309 1.00076 1.00433 0.997999
0.999891 1.00227 1 0.997631
0.999908 1 1 0.999908
0.999542 1 1 0.999542
0.999296 1 1 0.999296
0.999552 1 1 0.999552
0.999597 1 1 0.999597
0.999357 1 1 0.999357
0.99922 1 1 0.99922
0.99934 1 1 0.99934
0.9996 1 1 0.9996
0.999923 1 1 0.999923
0.999925 1 1 0.999925
1 1 1 1
0.999926 1 1 0.999926
1 1 1 1
1 1 1 1
1 1 1 1
1 1 1 1
1 1 1 1
1 1 1 1
0.999999 1 1 0.999999
1 1 1 1
0.999991 1 1 0.999991
1 1 1 1
1 1 1 1
1.01343 1.01571 1 0.997757
1.01685 1.01915 1 0.997741
1.01878 1.02088 1 0.997941
1.0219 1.02414 0.999974 0.997841
1.01806 1.02044 1 0.997669
1.00544 1.00776 1 0.997694
1.01713 1.01953 1 0.997641
1.02165 1.02396 1 0.99775
1.02064 1.02282 1 0.997871
1.02106 1.0234 0.999784 0.997921
1.01567 1.01784 1 0.997872
1.01914 1.02109 1 0.998094
1.02061 1.02295 1 0.997718
1.02226 1.02486 0.999575 0.997889
1.02158 1.02375 0.999851 0.998027
1.01778 1.01965 1 0.998164
1.01598 1.01836 1 0.997663
1.01552 1.01784 1 0.997727
1.02103 1.02332 1 0.997758
1.01618 1.01836 1 0.997859
0.998866 1 1 0.998866
0.998482 1 1 0.998482
1.00253 1.00412 1.00058 0.997836
1.01313 1.01526 1 0.997904
1.01665 1.01857 1 0.998115
1.01157 1.01347 1 0.998124
1.00901 1.01127 1 0.997758
1.0126 1.01447 1 0.998154
0.99877 1 1 0.99877
0.998728 1 1 0.998728
1.00037 1 1.00158 0.998801
0.99969 1 1 0.99969
0.999194 1 1 0.999194
1.02143 1.02375 1 0.997733
1.0209 1.02315 1 0.997794
1.01731 1.01939 0.99994 0.998025
0.998685 1 1 0.998685
0.998736 1.00023 1.00026 0.998246
1.00512 1.00676 1.00076 0.997606
1.01453 1.01646 1 0.998103
1.00985 1.01208 1 0.997797
1.01271 1.0145 1 0.998233
0.999762 1 1 0.999762
0.99873 1 1 0.99873
0.998717 1 1 0.998717
1.00053 1 1.0019 0.998641
0.999256 1 1.00029 0.998969
0.999312 1 1 0.999312
1.02182 1.02414 0.999936 0.997793
1.02125 1.02469 0.9987 0.997938
1.01649 1.01883 0.999581 0.998119
1.01825 1.02015 0.999863 0.998273
0.998574 1 1 0.998574
1.01082 1.01285 1 0.997991
1.00005 1.00058 1.00165 0.997831
1.00454 1.00604 1.00104 0.997479
0.999826 1 1 0.999826
0.999434 1 1 0.999434
0.999089 1 1 0.999089
1.0008 1 1.00208 0.998717
0.998656 1 1 0.998656
0.99913 1 1.00057 0.998563
0.999888 1 1 0.999888
0.999421 1 1 0.999421
1.01352 1.01578 1 0.997776
0.999507 1 1.00054 0.998971
0.99892 1 1.00027 0.99865
0.999952 1 1.00129 0.998662
1.00733 1.00945 1 0.997896
1.01031 1.01237 1 0.997971
1.00085 1 1.00273 0.998128
1.0014 1.00334 1.00027 0.997806
0.999511 1 1 0.999511
0.999103 1 1 0.999103
1.00047 1 1.00198 0.998487
1.0005 1 1.00178 0.998723
0.999088 1 1.00048 0.998613
1.01608 1.01797 1 0.998145
1.00619 1.00838 1 0.997831
1.00941 1.01139 1 0.998048
1.00306 1.00051 1.00458 0.997975
1.00045 1.00283 1.00003 0.997592
0.999237 1 1 0.999237
0.998932 1 1.00011 0.998817
1.00211 1 1.00378 0.998334
0.999865 1 1.00139 0.998474
1.02047 1.0243 0.997959 0.998304
1.01383 1.01575 0.999872 0.998235
1.00466 1.00702 1 0.99765
1.00295 1.00107 1.00426 0.997636
0.999558 1 1 0.999558
0.999309 1 1 0.999309
0.999164 1 1 0.999164
0.999596 1 1 0.999596
0.99933 1 1 0.99933
0.9996 1 1 0.9996
0.999201 1 1 0.999201
0.999351 1 1 0.999351
0.999094 1 1 0.999094
0.999186 1 1 0.999186
0.999334 1 1 0.999334
0.999591 1 1 0.999591
0.999917 1 1 0.999917
0.999922 1 1 0.999922
1 1 1 1
0.999925 1 1 0.999925
1 1 1 1
1 1 1 1
1 1 1 1
1 1 1 1
1 1 1 1
1 1 1 1
1 1 1 1
1 1 1 1
0.999999 1 1 0.999999
1 1 1 1
1 1 1 1
1.01511 1.01727 1 0.997872
1.02064 1.02284 1 0.997853
1.01868 1.0206 1 0.998125
1.02066 1.02294 0.99984 0.997931
1.02174 1.02405 1 0.997743
1.01726 1.01967 1 0.997631
1.02056 1.02288 1 0.997724
1.02117 1.02379 0.999563 0.997882
1.02139 1.02366 0.999752 0.998029
1.01914 1.02102 1 0.998162
1.02195 1.02448 0.999698 0.997835
1.02405 1.02854 0.997564 0.998058
1.02353 1.02613 0.999295 0.998168
1.02129 1.02361 1 0.997736
1.02104 1.02329 1 0.997799
1.0172 1.01931 0.999907 0.998019
0.998679 1 1 0.998679
0.998924 1.00046 1.00018 0.998284
1.00468 1.00625 1.00085 0.997596
1.01488 1.01682 1 0.998093
1.01208 1.01388 1 0.998219
1.01 1.01217 1 0.997855
0.998725 1 1 0.998725
0.998758 1 1 0.998758
1.00034 1 1.00171 0.99863
0.99977 1 1 0.99977
0.99915 1 1.00017 0.998978
0.999289 1 1 0.999289
1.02252 1.02482 0.999953 0.997798
1.02181 1.02478 0.99915 0.997944
1.01655 1.01881 0.999674 0.998109
0.998564 1 1 0.998564
1.0001 1.0008 1.0014 0.997909
1.0043 1.00591 1.0009 0.997503
1.0182 1.02012 0.99983 0.998285
1.01134 1.01338 1 0.997982
0.999857 1 1 0.999857
0.999434 1 1 0.999434
0.998667 1 1 0.998667
0.999479 1 1.00087 0.998614
1.00079 1 1.00206 0.998726
0.999069 1 1 0.999069
1.02473 1.02855 0.998312 0.997974
1.01712 1.02319 0.995984 0.998074
1.01774 1.02089 0.998603 0.998304
1.01545 1.01718 0.999981 0.998318
0.999269 1 1.00088 0.998386
1.00374 1.0048 1.0014 0.99755
1.00134 1.00106 1.00264 0.997647
0.999928 1 1 0.999928
0.999624 1 1 0.999624
0.999467 1 1 0.999467
0.999144 1 1 0.999144
0.999334 1 1.00048 0.998853
0.999947 1 1.00135 0.998596
0.998689 1 1 0.998689
1.00722 1 1.00851 0.998722
0.999513 1 1 0.999513
0.999113 1 1 0.999113
1.01596 1.01782 1 0.998168
1.00088 1 1.00216 0.998726
1.00066 1 1.00215 0.998504
0.998691 1 1.00004 0.998655
1.00575 1.00794 1 0.997832
1.01017 1.01207 1 0.998122
1.00311 1.00035 1.00482 0.99795
1.00103 1.00348 1 0.997553
0.999223 1 1 0.999223
0.999255 1 1.00043 0.998827
1.0025 1 1.00415 0.998355
0.999612 1 1.00112 0.998497
1.0212 1.02489 0.998084 0.99831
1.01325 1.01512 0.999949 0.998208
1.00552 1.00785 1 0.997689
1.00246 1.00109 1.00377 0.997602
0.999056 1 1 0.999056
1.01982 1.02526 0.996401 0.998292
1.00004 1 1.00144 0.998607
1.0008 1 1.00268 0.99813
1.01846 1.02139 0.998729 0.998401
1.00621 1.00848 1 0.997755
1.00412 1.00342 1.00323 0.997472
0.999321 1 1 0.999321
0.999162 1 1 0.999162
0.99904 1 1 0.99904
0.9996 1 1 0.9996
0.999361 1 1 0.999361
0.999182 1 1 0.999182
0.99959 1 1 0.99959
0.999336 1 1 0.999336
0.999077 1 1 0.999077
0.999207 1 1 0.999207
0.998994 1 1 0.998994
0.999064 1 1 0.999064
0.999195 1 1 0.999195
0.99933 1 1 0.99933
0.999572 1 1 0.999572
0.999911 1 1 0.999911
0.999916 1 1 0.999916
1 1 1 1
0.999921 1 1 0.999921
1 1 1 1
1 1 1 1
1 1 1 1
1 1 1 1
1 1 1 1
0.999952 1 1 0.999952
1 1 1 1
1 1 1 1
1 1 1 1
1 1 1 1
1 1 1 1
1 1 1 1
1.02052 1.0224 1 0.998161
1.02126 1.02361 0.99967 0.99803
1.02012 1.02275 0.999557 0.997875
1.02049 1.02282 1 0.99773
1.02197 1.02451 0.999669 0.99785
1.02461 1.02891 0.997776 0.998046
1.02356 1.02633 0.999116 0.998181
1.02426 1.02986 0.99653 0.998029
1.02699 1.03214 0.99683 0.998178
1.01233 1.02289 0.991288 0.998377
1.02322 1.0255 0.999971 0.997803
1.02236 1.02493 0.999542 0.99795
1.0166 1.01881 0.999732 0.998099
0.998611 1 1.00006 0.998554
1.00025 1.001 1.00126 0.997987
1.0038 1.00551 1.00078 0.997527
1.01827 1.02021 0.9998 0.998297
1.01134 1.0134 1 0.997972
0.998679 1 1 0.998679
0.999895 1 1.00123 0.998664
1.00094 1 1.00221 0.998735
0.999888 1 1 0.999888
0.999434 1 1 0.999434
0.99905 1 1 0.99905
1.02398 1.02811 0.997991 0.997988
0.999924 1 1 0.999924
0.999606 1 1 0.999606
1.01725 1.02258 0.996714 0.998073
1.01851 1.02162 0.998682 0.998272
0.999288 1 1.00084 0.998449
1.00192 1.00102 1.0033 0.997615
1.0039 1.00552 1.00084 0.997554
1.01461 1.01634 0.999995 0.998304
0.999518 1 1 0.999518
0.999142 1 1 0.999142
0.998638 1 1 0.998638
1.00421 1 1.00541 0.99881
1.00025 1 1.00168 0.99858
0.999349 1 1.00049 0.998862
1.02565 1.03112 0.996544 0.998143
1.01128 1.02146 0.991811 0.99821
1.0161 1.02012 0.997562 0.998496
1.00492 1.00705 0.999845 0.998042
1.00077 1 1.00234 0.998426
1.00396 1.00104 1.00547 0.997459
0.999625 1 1 0.999625
0.999575 1 1 0.999575
0.99938 1 1 0.99938
0.999152 1 1 0.999152
0.99897 1 1 0.99897
0.99937 1 1.00072 0.998649
1.01209 1 1.01358 0.99853
1.00001 1 1.00117 0.998841
0.99921 1 1 0.99921
0.999316 1 1.00048 0.998837
1.02199 1.02554 0.998221 0.998316
1.0128 1.01464 1 0.998182
0.999358 1 1.00084 0.99852
1.00278 1 1.00441 0.998374
1.00653 1.00879 1.00004 0.997727
1.00194 1.00103 1.00335 0.997567
0.99905 1 1 0.99905
1.02043 1.02671 0.995563 0.998317
0.99997 1 1.00135 0.998621
1.00079 1 1.00269 0.998105
1.01778 1.02077 0.998691 0.998376
1.00687 1.00909 1 0.997793
1.00375 1.00279 1.00348 0.997483
0.999769 1 1.00096 0.998813
1.01659 1.02544 0.992762 0.998598
0.999883 1 1.00146 0.998427
1.0022 1.00055 1.00379 0.997864
1.00882 1.01367 0.997124 0.998081
1.00171 1.00194 1.00221 0.997565
1.00495 1.00813 0.99816 0.998688
0.99916 1 1 0.99916
0.99905 1 1.00001 0.999038
0.998924 1 1 0.998924
0.999589 1 1 0.999589
0.999337 1 1 0.999337
0.999227 1 1 0.999227
0.999059 1 1 0.999059
0.999571 1 1 0.999571
0.99932 1 1 0.99932
0.99898 1 1 0.99898
0.999195 1 1 0.999195
0.99908 1 1 0.99908
0.998971 1 1 0.998971
0.999082 1 1 0.999082
0.999191 1 1 0.999191
0.999274 1 1 0.999274
0.999515 1 1 0.999515
0.999365 1 1 0.999365
0.999515 1 1 0.999515
0.999906 1 1 0.999906
0.99991 1 1 0.99991
1 1 1 1
0.999915 1 1 0.999915
1 1 1 1
1 1 1 1
1 1 1 1
1 1 1 1
1 1 1 1
0.999966 1 1 0.999966
0.999949 1 1 0.999949
1 1 1 1
1 1 1 1
1 1 1 1
1 1 1 1
1 1 1 1
1 1 1 1
1.02357 1.02651 0.998931 0.998195
1.02516 1.02928 0.997962 0.998034
1.02199 1.02454 0.999637 0.997866
1.02406 1.0296 0.99659 0.998027
1.0256 1.0306 0.996974 0.998175
1.01282 1.02279 0.991871 0.998363
1.02238 1.03125 0.993148 0.998245
1.00393 1.01596 0.990069 0.998074
1.01245 1.0246 0.989362 0.998766
0.999695 1 1 0.999695
1.02325 1.02765 0.997714 0.998002
1.01761 1.02202 0.99761 0.998072
1.01913 1.02224 0.998714 0.99824
0.999332 1 1.00082 0.998513
1.0028 1.00121 1.00402 0.997584
1.00446 1.00646 1.00045 0.997559
1.01376 1.01549 1 0.998291
0.998587 1 1 0.998587
1.00119 1 1.00229 0.9989
1.00043 1 1.00187 0.998565
0.99992 1 1 0.99992
0.999368 1 1.0005 0.998871
0.999569 1 1 0.999569
0.99914 1 1 0.99914
0.999588 1 1 0.999588
1.02483 1.03176 0.99512 0.998151
0.99965 1 1 0.99965
0.999574 1 1 0.999574
0.999344 1 1 0.999344
1.01185 1.02129 0.992533 0.998213
1.0157 1.01959 0.997728 0.998449
1.00008 1 1.00164 0.998444
1.00368 1.00066 1.00555 0.997481
1.00442 1.00632 1.00007 0.998042
0.999179 1 1 0.999179
0.998992 1 1.00004 0.998951
1.002 1 1.00322 0.998782
1.00985 1 1.0113 0.998566
0.999237 1 1.00057 0.998671
1.01566 1.0253 0.992359 0.998228
1.01121 1.02402 0.989146 0.99833
1.00956 1.01293 0.998437 0.998233
1.00474 1.00368 1.00317 0.997892
1.00327 1 1.00484 0.998439
0.999337 1 1 0.999337
0.999239 1 1 0.999239
0.999137 1 1 0.999137
0.99897 1 1 0.99897
0.999116 1 1.00032 0.998799
1.00866 1 1.01011 0.998564
1.01163 1 1.01317 0.998484
0.999044 1 1 0.999044
0.999971 1 1.00134 0.998634
1.02059 1.02804 0.9944 0.998342
1.01693 1.02004 0.998596 0.998351
1.00729 1.00948 1 0.997831
1.00075 1 1.00268 0.99808
1.00315 1.00206 1.0036 0.997495
0.999696 1 1.00085 0.998845
1.0157 1.02519 0.992123 0.998606
0.999644 1 1.0012 0.99845
1.00221 1.00026 1.00408 0.997874
1.01005 1.01423 0.997718 0.998149
1.0022 1.00196 1.00269 0.997552
1.00479 1.00836 0.998147 0.998308
0.999815 1 1.00113 0.998689
1.00501 1.01639 0.990197 0.99859
1.00035 1 1.00194 0.99841
1.00421 1.00004 1.00636 0.997831
1.00357 1.00469 1.00104 0.99785
0.956119 0.978281 0.98875 0.988466
0.98049 0.988289 0.997523 0.994572
0.981235 0.999977 0.982455 0.99878
0.876406 0.913734 0.971733 0.987049
0.845306 0.915772 0.936661 0.98547
0.99904 1 1 0.999036
0.99894 1 1 0.998937
0.998947 1 1 0.998947
0.99957 1 1 0.99957
0.999311 1 1 0.999311
0.999194 1 1 0.999194
0.999095 1 1 0.999095
0.998965 1 1 0.998965
0.999172 1 1 0.999172
0.999536 1 1 0.999536
0.999287 1 1 0.999287
0.998975 1 1 0.998975
0.999082 1 1 0.999082
0.99909 1 1 0.99909
0.999034 1 1 0.999034
0.999122 1 1 0.999122
0.999247 1 1 0.999247
0.999507 1 1 0.999507
0.999308 1 1 0.999308
0.999208 1 1 0.999208
0.999341 1 1 0.999341
0.999338 1 1 0.999338
0.999564 1 1 0.999564
0.999513 1 1 0.999513
0.999902 1 1 0.999902
0.999905 1 1 0.999905
1 1 1 1
0.99991 1 1 0.99991
1 1 1 1
1 1 1 1
1 1 1 1
1 1 1 1
1 1 1 1
0.999972 1 1 0.999972
0.999963 1 1 0.999963
1 1 1 1
0.999946 1 1 0.999946
1 1 1 1
1 1 1 1
1 1 1 1
1 1 1 1
1 1 1 1
1.02426 1.02909 0.99713 0.998172
1.02382 1.02929 0.996658 0.998025
1.01337 1.02258 0.992627 0.998349
1.0042 1.01572 0.990525 0.998111
1.02114 1.03 0.993141 0.998243
1.01645 1.02635 0.991647 0.998697
1.02263 1.02894 0.995581 0.998272
0.966803 0.984914 0.987748 0.993788
1.00978 1.01935 0.992153 0.998441
0.999705 1 1 0.999705
0.999694 1 1 0.999694
0.999418 1 1 0.999418
0.999446 1 1 0.999446
1.02376 1.03226 0.993593 0.998158
1.01205 1.02079 0.99321 0.998217
1.01545 1.01908 0.998039 0.998401
0.999233 1 1.00077 0.998462
1.00306 1.00021 1.00536 0.997502
1.00398 1.00582 1.00013 0.998043
1.00389 1 1.00517 0.998721
1.0077 1 1.00911 0.998602
0.999075 1 1.00038 0.998693
0.999573 1 1 0.999573
0.998955 1 1.00002 0.998931
0.999205 1 1 0.999205
0.999675 1 1 0.999675
0.999308 1 1 0.999308
1.01377 1.02409 0.991672 0.998243
0.999376 1 1 0.999376
0.999265 1 1 0.999265
0.999152 1 1 0.999152
1.01331 1.02565 0.989607 0.998338
1.00839 1.0121 0.998103 0.99823
1.00312 1 1.0047 0.998431
1.00471 1.00405 1.00277 0.997892
0.999018 1 1.00005 0.998971
0.998893 1 1.0001 0.998791
1.01202 1 1.01355 0.998484
1.00971 1 1.01118 0.998541
1.01077 1.02629 0.986575 0.99828
1.00163 1.01953 0.984103 0.998315
1.00515 1.00671 1.00051 0.997946
1.0014 1.00018 1.00282 0.998401
0.999059 1 1 0.999059
0.999113 1 1.00009 0.99902
1.00173 1 1.00296 0.998769
1.02125 1 1.02296 0.998337
0.942415 0.972763 0.980631 0.987937
0.999713 1 1.00084 0.998878
0.999554 1 1.00108 0.998474
1.01464 1.02478 0.991477 0.998613
1.01127 1.01471 0.998391 0.998217
1.00295 1.00212 1.0033 0.997538
1.00234 1 1.00447 0.997884
1.00385 1.0083 0.997658 0.99792
0.999803 1 1.00109 0.998714
1.00417 1.01634 0.989438 0.998576
0.999857 1 1.00144 0.998421
1.00396 1.00003 1.00611 0.997832
1.00368 1.00574 1.00008 0.997873
0.954241 0.979072 0.986241 0.988235
0.97535 0.986318 0.995817 0.993033
0.983215 0.998197 0.986156 0.998819
0.879338 0.913393 0.975543 0.986852
0.829669 0.903885 0.932576 0.984255
0.999496 1 1.00067 0.998831
0.896284 0.928801 0.977741 0.986959
0.88278 0.920272 0.97247 0.986416
0.982568 1.00639 0.977795 0.998503
1.00494 1 1.00646 0.998494
1.01039 1.00218 1.01019 0.998022
0.980864 0.994023 0.987795 0.998954
0.955836 0.972372 0.995094 0.98784
0.963709 0.970769 1.00027 0.992458
0.857782 0.913868 0.950836 0.987161
0.886343 0.947201 0.947809 0.987277
0.998975 1 1.00002 0.998951
0.998941 1 1 0.998941
0.99913 1 1 0.99913
0.999556 1 1 0.999556
0.9993 1 1 0.9993
0.999153 1 1 0.999153
0.999082 1 1 0.999082
0.998979 1 1 0.998979
0.999508 1 1 0.999508
0.999087 1 1 0.999087
0.99914 1 1 0.99914
0.999268 1 1 0.999268
0.99903 1 1 0.99903
0.999045 1 1 0.999045
0.999247 1 1.0002 0.99905
0.999109 1 1 0.999109
0.99928 1 1 0.99928
0.999306 1 1 0.999306
0.999193 1 1 0.999193
0.999157 1 1 0.999157
0.999187 1 1 0.999187
0.999129 1 1 0.999129
0.999068 1 1 0.999068
0.999322 1 1 0.999322
0.999341 1 1 0.999341
0.99957 1 1 0.99957
0.999311 1 1 0.999311
0.999547 1 1 0.999547
0.999901 1 1 0.999901
0.999512 1 1 0.999512
0.999902 1 1 0.999902
1 1 1 1
0.999905 1 1 0.999905
1 1 1 1
1 1 1 1
1 1 1 1
1 1 1 1
1 1 1 1
0.99969 1 1 0.99969
0.999972 1 1 0.999972
0.999971 1 1 0.999971
1 1 1 1
0.99996 1 1 0.99996
1 1 1 1
1 1 1 1
1 1 1 1
1 1 1 1
1 1 1 1
1.00526 1.01579 0.991467 0.998151
1.02025 1.02895 0.993288 0.998241
1.02013 1.02834 0.993377 0.998628
0.966777 0.982324 0.989521 0.994595
1.01013 1.01907 0.992705 0.998515
1.02437 1.03138 0.994954 0.998242
1.01672 1.02348 0.995112 0.998275
0.972673 0.984696 0.992652 0.995102
0.95605 0.977235 0.991007 0.987199
0.856758 0.90527 0.959766 0.986086
0.828897 0.893137 0.942056 0.985159
0.999406 1 1 0.999406
0.999704 1 1 0.999704
0.999694 1 1 0.999694
0.999406 1 1 0.999406
0.999228 1 1 0.999228
0.999266 1 1 0.999266
0.999409 1 1 0.999409
0.999427 1 1 0.999427
1.01232 1.02327 0.991026 0.998257
1.01578 1.02797 0.989785 0.998346
1.00717 1.01122 0.997765 0.998227
1.0033 1 1.00488 0.998423
1.00481 1.0042 1.00272 0.997892
1.01216 1 1.0137 0.998485
1.01083 1 1.01233 0.998519
0.998784 1 1 0.998784
0.99929 1 1 0.99929
0.998971 1 1 0.998971
0.999415 1 1 0.999415
0.999167 1 1 0.999167
1.01151 1.02648 0.987135 0.998261
0.999082 1 1 0.999082
0.999031 1 1 0.999031
1.00288 1.01876 0.986098 0.998295
1.00452 1.00669 0.999801 0.998044
1.00327 1.00048 1.00445 0.998347
1.00304 1 1.0043 0.99874
1.01874 1 1.02043 0.998345
1.01038 1.02387 0.988569 0.998243
0.9847 1.00591 0.98055 0.998327
0.998981 1.0003 1.00038 0.998302
1.00736 1 1.00895 0.998424
0.998933 1 1 0.998933
1.00085 1 1.00203 0.998825
1.01648 1 1.01798 0.998533
0.884639 0.931824 0.961538 0.987336
0.952019 0.974955 0.987304 0.989031
0.999611 1 1.00087 0.998739
0.999497 1 1.00107 0.998432
1.00454 1.01676 0.989404 0.998563
1.00385 1.00699 0.998987 0.997896
1.00353 1 1.00571 0.997834
0.953588 0.976685 0.989022 0.987189
0.977576 0.989452 0.994231 0.993731
0.985609 0.997009 0.9897 0.998854
0.873371 0.914127 0.968216 0.98678
0.815234 0.89131 0.930439 0.983028
0.999234 1 1.0004 0.998832
0.88939 0.931633 0.966889 0.987349
0.879306 0.915658 0.974007 0.985927
0.984784 1.00716 0.979257 0.998492
1.00449 1 1.00598 0.998513
1.00949 1.00111 1.01026 0.998124
0.973067 0.989946 0.983918 0.999016
0.959962 0.977926 0.994578 0.986983
0.966322 0.974661 0.997482 0.993947
0.85973 0.908545 0.959707 0.985999
0.885909 0.948072 0.946975 0.986755
1.00108 1 1.00206 0.999015
0.905267 0.926277 0.989372 0.987816
0.961184 0.97312 0.996393 0.991309
0.989061 1.00072 0.989413 0.998923
1.01173 1.00097 1.01185 0.998908
0.991138 0.98426 1.00772 0.999276
0.953082 0.965605 0.991953 0.995038
0.950848 0.961388 1.00216 0.986901
0.878597 0.928016 0.959976 0.986221
0.91428 0.966385 0.956427 0.989184
0.998935 1 1 0.998935
0.999109 1 1 0.999109
0.999722 1 1.00042 0.999301
0.999508 1 1 0.999508
0.99929 1 1 0.99929
0.999158 1 1 0.999158
0.999084 1 1 0.999084
0.999027 1 1 0.999027
0.999279 1 1 0.999279
0.999053 1 1 0.999053
0.999109 1 1 0.999109
0.999313 1 1.00024 0.999068
1.00127 1 1.00204 0.999232
0.999117 1 1.00009 0.999031
0.999109 1 1 0.999109
0.999304 1 1 0.999304
0.999179 1 1 0.999179
0.999156 1 1 0.999156
0.999184 1 1 0.999184
0.999132 1 1 0.999132
0.999146 1 1 0.999146
0.9991 1 1 0.9991
0.99911 1 1 0.99911
0.998916 1 1 0.998916
0.999466 1 1.00082 0.99865
0.998959 1 1 0.998959
0.999065 1 1 0.999065
0.999274 1 1 0.999274
0.99932 1 1 0.99932
0.999563 1 1 0.999563
0.999341 1 1 0.999341
0.99957 1 1 0.99957
0.999901 1 1 0.999901
0.99953 1 1 0.99953
0.999901 1 1 0.999901
1 1 1 1
0.999902 1 1 0.999902
1 1 1 1
1 1 1 1
1 1 1 1
1 1 1 1
1 1 1 1
0.999709 1 1 0.999709
0.999966 1 1 0.999966
0.99969 1 1 0.99969
1 1 1 1
0.999973 1 1 0.999973
0.999969 1 1 0.999969
1 1 1 1
1 1 1 1
1 1 1 1
1 1 1 1
1 1 1 1
0.885369 0.922476 0.972237 0.987182
0.887917 0.921817 0.975921 0.98699
0.9687 0.984588 0.98871 0.995098
1.01161 1.01871 0.994429 0.998589
1.02603 1.03342 0.994625 0.998213
0.968469 0.98004 0.991855 0.996308
1.01668 1.0232 0.995317 0.998311
0.958942 0.979971 0.989958 0.988467
0.870997 0.911289 0.968551 0.98682
0.819472 0.890898 0.934863 0.983916
0.991377 0.999238 0.994783 0.997336
0.955843 0.972409 0.994651 0.98825
0.850195 0.908438 0.948329 0.98688
0.883959 0.941288 0.952222 0.986215
0.999159 1 1 0.999159
0.999424 1 1 0.999424
0.999703 1 1 0.999703
0.999394 1 1 0.999394
0.999252 1 1 0.999252
0.999187 1 1 0.999187
0.999265 1 1 0.999265
0.9993 1 1 0.9993
0.999387 1 1 0.999387
0.999409 1 1 0.999409
1.01184 1.02626 0.987686 0.998243
1.00319 1.01713 0.988 0.998277
1.00395 1.00683 0.998995 0.998144
1.00482 1.00077 1.00576 0.998292
1.01575 1 1.01743 0.998352
1.00434 1 1.00564 0.99871
0.999042 1 1 0.999042
0.999104 1 1 0.999104
1.00927 1.02406 0.987301 0.998243
0.998923 1 1 0.998923
1.0008 1 1.002 0.998799
0.985868 1.00494 0.982729 0.998259
0.999219 1.00023 1.00057 0.99842
1.00772 1 1.0094 0.998333
1.0143 1 1.01581 0.99851
1.00057 1.00607 0.996003 0.998526
0.989192 1 0.990298 0.998883
1.01301 1 1.01453 0.998502
0.999049 1 1.00014 0.998908
0.999552 1 1.00078 0.998769
1.00846 1 1.00986 0.998618
0.909914 0.931398 0.98747 0.989329
0.892514 0.931387 0.970928 0.986957
0.947716 0.976355 0.982527 0.98793
0.998834 1 1 0.998834
1.00407 1 1.00554 0.998533
0.987471 1.00768 0.981432 0.998483
1.00869 1 1.01048 0.998225
0.884436 0.927818 0.965967 0.986827
0.958616 0.975633 0.993867 0.988622
0.963052 0.975399 0.994777 0.992526
0.969471 0.986555 0.983589 0.99908
0.861732 0.909236 0.960713 0.98651
0.881123 0.919542 0.972021 0.985801
0.879223 0.944371 0.943611 0.98665
1.00166 1 1.00264 0.99902
0.906283 0.929405 0.986789 0.988177
0.964426 0.975712 0.99715 0.991258
0.991249 1.00038 0.991885 0.99898
1.01117 1.00018 1.0121 0.998892
0.989992 0.98466 1.00636 0.999066
0.95408 0.966126 0.99419 0.993303
0.952461 0.966205 0.998357 0.987397
0.885197 0.935752 0.958343 0.987093
0.905686 0.959062 0.954779 0.989073
1.00233 0.999757 1.0031 0.99948
0.963345 0.975568 0.994152 0.99328
0.955898 0.967526 0.99402 0.993926
1.00701 0.994007 1.01337 0.999715
0.971212 0.970092 1.00412 0.997044
0.958557 0.963234 1.00847 0.986791
0.919773 0.953228 0.977311 0.987305
0.921927 0.977573 0.953921 0.988634
0.999089 1 1 0.999089
0.999657 1 1.00036 0.999302
1.00537 1 1.00594 0.99944
0.999279 1 1 0.999279
0.999108 1 1 0.999108
0.999062 1 1 0.999062
0.999368 1 1.00028 0.999087
0.999108 1 1 0.999108
0.999059 1 1.00003 0.999028
1.00309 1 1.00383 0.999264
1.0065 0.998592 1.00848 0.999446
1.00207 1 1.0029 0.999169
0.999049 1 1 0.999049
0.999156 1 1 0.999156
0.999182 1 1 0.999182
0.999134 1 1 0.999134
0.999105 1 1 0.999105
0.999145 1 1 0.999145
0.999115 1 1 0.999115
0.999051 1 1 0.999051
0.999174 1 1 0.999174
0.99893 1 1 0.99893
0.998936 1 1 0.998936
0.99943 1 1.00069 0.998736
0.999829 1 1.00149 0.998341
0.998931 1 1.00004 0.998887
0.999416 1 1.00069 0.998722
0.998987 1 1 0.998987
0.999163 1 1 0.999163
0.999063 1 1 0.999063
0.999273 1 1 0.999273
0.999536 1 1 0.999536
0.999318 1 1 0.999318
0.999562 1 1 0.999562
0.999899 1 1 0.999899
0.99957 1 1 0.99957
0.9999 1 1 0.9999
1 1 1 1
0.999901 1 1 0.999901
1 1 1 1
1 1 1 1
1 1 1 1
1 1 1 1
1 1 1 1
0.999609 1 1 0.999609
0.999957 1 1 0.999957
0.999666 1 1 0.999666
1 1 1 1
0.999968 1 1 0.999968
0.99969 1 1 0.99969
1 1 1 1
1 1 1 1
0.999973 1 1 0.999973
1 1 1 1
1 1 1 1
1 1 1 1
0.911054 0.931056 0.989469 0.988931
0.887721 0.926799 0.970686 0.986761
0.963202 0.977514 0.994167 0.991141
0.878854 0.915019 0.973656 0.986463
0.965494 0.981033 0.989491 0.994613
1.01553 1.02304 0.994302 0.998346
0.961055 0.980521 0.990334 0.989714
0.872025 0.914856 0.966432 0.986291
0.812315 0.890419 0.928373 0.982669
0.98772 0.997573 0.9934 0.996701
0.957143 0.9737 0.995917 0.987024
0.858739 0.914077 0.953073 0.985718
0.881246 0.941075 0.950026 0.985683
0.976864 0.988432 0.992174 0.996092
0.963513 0.967853 1.00902 0.986619
0.884937 0.93767 0.956443 0.986742
0.911773 0.967388 0.953812 0.988151
0.999025 1 1 0.999025
0.999184 1 1 0.999184
0.999441 1 1 0.999441
0.999276 1 1 0.999276
0.999049 1 1 0.999049
0.999204 1 1 0.999204
0.999265 1 1 0.999265
0.999275 1 1 0.999275
0.999324 1 1 0.999324
0.999365 1 1 0.999365
1.00834 1.02482 0.985644 0.998243
0.988212 1.00452 0.985549 0.998192
0.999402 1 1.00087 0.998538
1.00918 1.00028 1.01067 0.998243
1.01261 1 1.01415 0.998487
1.00058 1 1.00181 0.998774
0.998914 1 1 0.998914
0.998954 1 1.00004 0.998909
0.995554 1.00621 0.990857 0.998541
0.999303 1 1.00052 0.99878
1.0088 1 1.0102 0.998612
0.987887 1.00001 0.989057 0.99881
1.01196 1.00014 1.01335 0.998486
0.970214 0.993628 0.977404 0.999009
1.00578 0.999638 1.00688 0.999278
1.01109 1 1.01241 0.998698
0.998953 1 1.00016 0.998797
1.00582 1 1.00722 0.998618
0.962169 0.971552 0.996025 0.994295
0.913057 0.931292 0.990851 0.989472
0.886894 0.928303 0.967456 0.98753
1.00224 1 1.00322 0.999024
1.01048 0.999375 1.01225 0.998875
0.991513 1 0.992472 0.999034
0.915461 0.934506 0.990718 0.988799
0.961154 0.965998 1.00847 0.986626
0.957004 0.967461 0.994643 0.994519
0.981787 0.982703 1.00024 0.99883
0.886275 0.934821 0.961307 0.98623
0.967245 0.977795 0.997984 0.991208
0.902958 0.9573 0.953581 0.989149
1.00219 0.999548 1.00318 0.999463
0.962288 0.973947 0.994153 0.99384
0.959191 0.970451 0.994426 0.993937
1.008 0.995329 1.01316 0.999571
0.972234 0.971107 1.00457 0.996605
0.954687 0.964028 1.00424 0.986128
0.923691 0.979929 0.95281 0.989295
0.911386 0.948605 0.973525 0.986893
1.00411 0.995983 1.00845 0.999711
0.951762 0.966957 0.987188 0.997059
0.966356 0.980581 0.991001 0.994443
0.914121 0.968696 0.954951 0.988178
0.993996 0.980177 1.01493 0.999184
0.972439 0.970978 1.01435 0.98734
0.909627 0.937251 0.983042 0.987269
0.99957 1 1.00027 0.999302
1.00441 1 1.00502 0.999394
1.00983 0.998783 1.0115 0.999566
0.999107 1 1 0.999107
0.999026 1 1 0.999026
1.00542 1 1.00613 0.999297
0.999056 1 1 0.999056
1.00222 1 1.00305 0.999172
1.00842 0.998955 1.01006 0.999421
1.00346 0.999348 1.00463 0.999489
1.00166 1 1.0025 0.999167
0.99911 1 1 0.99911
0.999143 1 1 0.999143
0.99912 1 1 0.99912
0.999164 1 1 0.999164
0.999059 1 1 0.999059
0.999444 1 1.00032 0.999125
0.999014 1 1 0.999014
1.00111 1 1.00259 0.998527
0.998956 1 1 0.998956
0.999276 1 1.00056 0.998713
0.999201 1 1.00101 0.99819
0.999557 1 1.00127 0.998292
0.999761 1 1.00102 0.998741
0.999672 1 1.00132 0.998359
0.99907 1 1 0.99907
0.998945 1 1.00008 0.998862
0.99931 1 1.00052 0.998795
0.999016 1 1 0.999016
0.999189 1 1 0.999189
0.999482 1 1 0.999482
0.999271 1 1 0.999271
0.999534 1 1 0.999534
0.999891 1 1 0.999891
0.999561 1 1 0.999561
0.999898 1 1 0.999898
1 1 1 1
0.9999 1 1 0.9999
1 1 1 1
1 1 1 1
1 1 1 1
1 1 1 1
1 1 1 1
0.999483 1 1 0.999483
0.999878 1 1 0.999878
0.999608 1 1 0.999608
1 1 1 1
0.999931 1 1 0.999931
0.999623 1 1 0.999623
1 1 1 1
1 1 1 1
0.99997 1 1 0.99997
1 1 1 1
1 1 1 1
1 1 1 1
0.960344 0.9723 0.993815 0.99385
0.900627 0.928966 0.980633 0.988641
0.888987 0.924379 0.974805 0.986569
0.999201 1 1 0.999201
0.952971 0.965648 0.992339 0.994491
0.966588 0.978113 0.99709 0.991101
0.873431 0.915264 0.967531 0.98632
0.987797 0.998006 0.993786 0.99596
0.961199 0.974672 0.998102 0.988053
0.864939 0.923616 0.949552 0.986223
0.873774 0.935752 0.947417 0.985592
0.978473 0.989805 0.994316 0.994202
0.951103 0.962048 1.00121 0.987426
0.892941 0.940057 0.962852 0.986527
0.909804 0.96514 0.954256 0.987854
0.963861 0.974496 0.996263 0.992797
0.962648 0.960114 1.01717 0.985718
0.91191 0.951111 0.971833 0.986573
0.919573 0.975346 0.953663 0.988627
0.998912 1 1.00002 0.998897
0.999023 1 1.00001 0.999009
0.999209 1 1 0.999209
0.999046 1 1 0.999046
0.999078 1 1 0.999078
0.999221 1 1 0.999221
0.999282 1 1 0.999282
0.999348 1 1 0.999348
0.990098 1.00576 0.985857 0.998554
0.985953 1 0.987199 0.998738
0.998909 1 1 0.998909
1.01024 1 1.01179 0.998469
1.00905 1 1.01046 0.998607
0.999402 1 1.00061 0.998791
0.99902 1 1.00022 0.998804
0.97534 0.995621 0.980584 0.999027
1.00602 1 1.00739 0.998643
1.00957 1 1.01088 0.998699
0.999874 0.999674 1.0009 0.999302
0.999513 1 1.00068 0.998835
0.967665 0.987247 0.980779 0.999374
1.01082 0.997827 1.01358 0.999454
1.01241 1 1.01365 0.998769
1.00136 1 1.0026 0.998763
0.962329 0.968966 0.995606 0.997533
0.961908 0.970874 0.996363 0.994382
0.917184 0.931557 0.994897 0.989621
1.00191 0.999322 1.00314 0.999449
1.01013 0.996678 1.01407 0.99943
0.96205 0.972751 0.994571 0.994397
0.965427 0.963498 1.015 0.987198
0.968125 0.968418 1.0052 0.994526
0.915469 0.951378 0.975792 0.986127
0.961333 0.97233 0.994708 0.993949
0.926357 0.983691 0.951273 0.989953
1.00486 0.996824 1.00839 0.999677
0.951716 0.966496 0.987599 0.997073
0.964613 0.978611 0.990483 0.995166
1.00275 0.987012 1.01607 0.999876
0.911447 0.966828 0.954302 0.987863
0.964717 0.965471 1.01241 0.986975
0.919812 0.951399 0.980216 0.986313
1.00824 0.994136 1.01442 0.999771
0.962928 0.97848 0.986421 0.997654
0.953825 0.967003 0.991809 0.994519
0.884527 0.943747 0.950295 0.986273
0.912103 0.953306 0.970035 0.986335
0.97874 0.974845 1.00519 0.998811
0.974034 0.963566 1.02571 0.985527
1.00294 1 1.0036 0.999347
1.00901 0.998201 1.01129 0.999548
1.00314 0.988446 1.01529 0.999582
0.999064 1 1 0.999064
1.0018 1 1.00263 0.999176
1.00985 0.999772 1.01069 0.999396
1.00028 1 1.00113 0.99916
1.00326 0.999277 1.0045 0.999488
1.0064 0.998502 1.00863 0.999288
0.999155 1 1 0.999155
0.999068 1 1 0.999068
1.00008 1 1.00098 0.999095
1.00654 1 1.00787 0.99868
0.999097 1 1 0.999097
1.00058 1 1.00198 0.998605
1.0022 1 1.00413 0.998082
1.00005 1.00035 1.00188 0.997829
0.999093 1 1.0004 0.99869
0.999224 1 1.00109 0.998132
0.998909 1 1.00053 0.998384
1.00066 1 1.00208 0.998585
0.999552 1 1.00121 0.998339
0.999565 1 1.00061 0.998959
0.999694 1 1.00096 0.998735
0.99958 1 1.00121 0.998376
0.999392 1 1 0.999392
0.999062 1 1 0.999062
0.999004 1 1.00017 0.998837
0.999215 1 1 0.999215
0.99948 1 1 0.99948
0.999872 1 1 0.999872
0.999533 1 1 0.999533
0.999888 1 1 0.999888
1 1 1 1
0.999896 1 1 0.999896
1 1 1 1
1 1 1 1
1 1 1 1
1 1 1 1
1 1 1 1
0.999432 1 1 0.999432
0.999825 1 1 0.999825
0.999507 1 1 0.999507
1 1 1 1
0.999874 1 1 0.999874
0.999606 1 1 0.999606
1 1 1 1
1 1 1 1
0.999906 1 1 0.999906
1 1 1 1
1 1 1 1
1 1 1 1
0.952852 0.966015 0.989271 0.997072
0.960821 0.972826 0.993769 0.993852
0.900698 0.930072 0.979476 0.988711
0.999214 1 1 0.999214
0.999175 1 1 0.999175
0.999078 1 1 0.999078
0.964595 0.979477 0.990336 0.994416
0.954875 0.965827 0.994116 0.994512
0.96997 0.978738 0.99998 0.991061
0.984553 0.990365 0.9985 0.995625
0.951948 0.962961 1.00193 0.986657
0.884515 0.93129 0.962992 0.986275
0.915106 0.969346 0.955754 0.987748
0.963217 0.972151 0.996356 0.994434
0.95755 0.959893 1.011 0.986708
0.90653 0.94105 0.975305 0.98771
0.921326 0.978306 0.951961 0.989281
0.950971 0.963248 0.993683 0.993531
0.975067 0.968712 1.01986 0.986959
0.910084 0.93576 0.984986 0.987386
0.913216 0.965336 0.956418 0.989116
0.998889 1 1 0.998889
0.998968 1 1.00007 0.998894
0.999015 1 1.00002 0.998994
0.999042 1 1 0.999042
0.999108 1 1 0.999108
0.999288 1 1 0.999288
0.981986 0.998251 0.98465 0.999041
0.99477 0.999716 0.995726 0.999324
0.998928 1 1.00012 0.998812
1.00895 1 1.01026 0.998701
1.00656 1 1.0079 0.998668
0.999443 1 1.00063 0.998814
1.00132 1 1.00255 0.998772
0.979639 0.991039 0.989107 0.999384
1.01291 1 1.01407 0.998854
1.00621 0.993781 1.01303 0.99948
0.999505 1 1.00062 0.998885
0.995137 0.981022 1.01478 0.999619
0.995358 0.989723 1.00616 0.999538
1.00962 1 1.01065 0.998981
0.977236 0.982087 0.996803 0.998251
0.961266 0.968436 0.994849 0.997735
0.961757 0.970067 0.996951 0.994466
1.00625 0.998114 1.00852 0.999643
0.998242 0.989291 1.00952 0.999528
0.951797 0.966157 0.988016 0.997086
0.967453 0.962224 1.01545 0.990139
0.921021 0.948526 0.983277 0.987516
0.963966 0.976751 0.990983 0.99589
0.916486 0.970348 0.956175 0.987781
1.00716 0.994227 1.01322 0.999788
0.962282 0.978437 0.985616 0.997841
0.956083 0.96727 0.993861 0.99454
0.97759 0.971311 1.01009 0.996409
0.880604 0.942155 0.948163 0.98577
0.904717 0.944594 0.96993 0.987477
0.984166 0.969762 1.0284 0.986822
1.00431 0.978319 1.02682 0.999754
0.953633 0.966749 0.989291 0.997111
0.964099 0.978838 0.993661 0.991225
0.827476 0.8924 0.941051 0.985332
0.88719 0.939929 0.95654 0.986775
0.974791 0.969964 1.01846 0.986756
0.953134 0.965704 0.991746 0.995199
1.00865 0.997495 1.01166 0.99953
1.00755 0.9925 1.01558 0.999586
1.01874 0.997632 1.02164 0.999529
0.999152 1 1 0.999152
1.00335 0.998964 1.0049 0.999487
1.00717 0.999055 1.00878 0.999345
1.01731 1 1.01841 0.998918
1.00066 1 1.0016 0.999066
1.00682 1 1.00824 0.998596
1.01435 1 1.01641 0.997969
1.00013 1 1.00145 0.998684
1.00305 1 1.00501 0.998055
1.00389 1.00066 1.00569 0.99755
1.00128 1.00192 1.00191 0.997453
0.99919 1 1.00108 0.998114
1.00013 1.00045 1.00189 0.997799
0.999298 1 1.00123 0.998074
0.999642 1 1.0011 0.998546
0.998942 1 1.00048 0.998462
1.00056 1 1.0018 0.998758
1.0007 1 1.00209 0.998616
0.999513 1 1.00113 0.998387
0.999246 1 1 0.999246
0.999479 1 1.00052 0.998962
0.999599 1 1.00087 0.998729
0.99983 1 1 0.99983
0.999391 1 1 0.999391
0.999054 1 1 0.999054
0.999479 1 1 0.999479
0.999868 1 1 0.999868
1 1 1 1
0.999886 1 1 0.999886
1 1 1 1
1 1 1 1
1 1 1 1
1 1 1 1
1 1 1 1
0.999429 1 1 0.999429
0.99984 1 1 0.99984
0.999449 1 1 0.999449
1 1 1 1
0.999853 1 1 0.999853
0.999531 1 1 0.999531
1 1 1 1
1 1 1 1
0.99987 1 1 0.99987
1 1 1 1
1 1 1 1
1 1 1 1
0.96195 0.977893 0.986027 0.997637
0.952106 0.966426 0.988061 0.997087
0.960353 0.973248 0.992845 0.993861
0.999157 1 1 0.999157
0.999052 1 1 0.999052
0.999226 1 1 0.999226
0.999173 1 1 0.999173
0.999061 1 1 0.999061
0.999072 1 1 0.999072
0.998978 1 1 0.998978
0.954948 0.967292 0.993324 0.993873
0.962997 0.977047 0.99043 0.995144
0.955853 0.965917 0.99502 0.994534
0.924332 0.982435 0.950424 0.989935
0.95271 0.963149 0.996179 0.992957
0.962741 0.962488 1.0126 0.987813
0.91127 0.940207 0.982462 0.986524
0.948439 0.962939 0.992009 0.992876
0.96439 0.96222 1.01615 0.98633
0.922075 0.952671 0.980934 0.986697
0.905096 0.958688 0.954595 0.989005
0.947253 0.962601 0.989494 0.994504
0.967837 0.966315 1.01579 0.986009
0.921993 0.955074 0.97768 0.987401
0.884136 0.945745 0.947056 0.987118
0.998958 1 1 0.998957
0.998901 1 1.00001 0.998889
0.998938 1 1.00005 0.998892
0.999039 1 1 0.999039
0.989006 0.994116 0.995462 0.999394
1.00102 0.990433 1.01119 0.999505
0.998793 1 1 0.998793
1.00103 1 1.00225 0.998782
1.01187 1 1.01295 0.99894
0.999191 1 1.00031 0.99888
1.01044 1 1.01148 0.998967
0.991166 0.979333 1.013 0.999092
0.997116 0.990709 1.00683 0.999641
1.00418 0.999961 1.00517 0.999055
0.995668 0.976548 1.02057 0.999031
1.01025 0.995296 1.01572 0.999316
0.962506 0.96927 0.995446 0.997563
0.973281 0.980215 0.994485 0.998432
0.96052 0.968042 0.99428 0.997937
1.00531 0.993484 1.0121 0.999805
0.979611 0.97194 1.00903 0.998873
0.961311 0.97817 0.984705 0.99803
0.973834 0.965498 1.02318 0.985788
0.90928 0.942542 0.978151 0.986259
0.957228 0.967512 0.994781 0.994561
0.873694 0.936125 0.946869 0.985679
1.00881 0.980614 1.02897 0.999795
0.952542 0.966905 0.987984 0.997126
0.967213 0.979501 0.996238 0.991183
0.95658 0.966947 0.992049 0.997208
0.819859 0.891049 0.934974 0.984098
0.891012 0.939591 0.961301 0.986473
0.972975 0.965726 1.02101 0.986778
0.999265 0.98158 1.01874 0.999287
0.960505 0.973088 0.993086 0.993941
0.888807 0.92277 0.975718 0.987165
0.852527 0.908953 0.950201 0.987077
0.959362 0.958643 1.01391 0.987018
0.941044 0.961672 0.984887 0.993566
1.01124 0.996251 1.01546 0.99959
1.01886 0.995941 1.0235 0.999522
1.01347 1 1.01411 0.999371
1.00782 0.999573 1.00886 0.999402
1.01688 0.999433 1.0185 0.998983
1.01045 1.00041 1.0118 0.998245
1.00727 1 1.00878 0.998511
1.01346 1 1.01557 0.997921
1.00762 1.00017 1.00998 0.997497
1.00386 1 1.00585 0.998028
1.00379 1.00034 1.00597 0.9975
1.0033 1.00205 1.00394 0.997311
1.00254 1.00509 1 0.997467
1.00195 1.00355 1.00077 0.997636
1.00178 1.00221 1.00218 0.997403
0.998454 1 1.00013 0.998328
0.998902 1 1.00074 0.99816
1.00024 1.00058 1.0019 0.99777
0.999691 1 1.00112 0.998577
0.999621 1 1.00108 0.99854
0.998965 1 1.00043 0.99854
0.999481 1 1.00044 0.999042
1.00038 1 1.00159 0.998789
1.00071 1 1.00206 0.998647
0.999728 1 1 0.999728
0.999253 1 1.00001 0.999247
0.999381 1 1.00042 0.998964
1 1 1 1
0.999825 1 1 0.999825
0.999389 1 1 0.999389
0.999864 1 1 0.999864
1 1 1 1
1 1 1 1
1 1 1 1
1 1 1 1
1 1 1 1
0.999152 1 1 0.999152
0.999388 1 1 0.999388
0.999804 1 1 0.999804
0.999428 1 1 0.999428
1 1 1 1
0.999843 1 1 0.999843
0.999465 1 1 0.999465
1 1 1 1
1 1 1 1
0.999881 1 1 0.999881
1 1 1 1
1 1 1 1
1 1 1 1
0.95153 0.967087 0.986816 0.997058
0.961631 0.978039 0.985365 0.997827
0.951142 0.966858 0.986605 0.997102
0.999166 1 1 0.999166
0.999037 1 1 0.999037
0.998973 1 1 0.998973
0.999039 1 1 0.999039
0.998956 1 1 0.998956
0.999172 1 1 0.999172
0.999044 1 1 0.999044
0.999072 1 1 0.999072
0.998976 1 1 0.998976
0.999021 1 1 0.999021
0.95987 0.971923 0.996372 0.991194
0.95789 0.969886 0.993703 0.993891
0.962079 0.974721 0.991123 0.99587
0.902648 0.957335 0.953274 0.989092
0.92086 0.946823 0.984723 0.987667
0.941316 0.958719 0.989716 0.99205
0.972354 0.969505 1.01637 0.986783
0.948964 0.964052 0.991625 0.992664
0.979182 0.974489 1.01836 0.986698
0.912826 0.949374 0.973993 0.987176
0.885063 0.947389 0.946937 0.986564
0.968107 0.971628 1.0026 0.993794
0.968183 0.967559 1.01371 0.987113
0.876428 0.927727 0.958032 0.986089
0.845814 0.915736 0.937595 0.98512
0.999976 1 1.0007 0.999281
0.999583 1 1.00063 0.998959
0.999251 1 1.00036 0.998888
0.988486 0.977554 1.01264 0.99856
0.998586 0.990662 1.00825 0.999748
0.999366 1 1.00049 0.998876
1.01184 1 1.0129 0.998953
1.00466 0.999977 1.00563 0.999062
1.01083 0.996611 1.01497 0.999307
0.993243 0.974306 1.02039 0.999067
1.00987 0.999792 1.01074 0.999352
0.997678 0.983911 1.01516 0.998849
0.963837 0.973129 0.996202 0.994227
0.961258 0.968536 0.99471 0.997763
0.968919 0.978163 0.991925 0.998613
1.01386 0.983251 1.03131 0.999831
0.957161 0.969012 0.993322 0.994411
0.951411 0.967079 0.986619 0.997141
0.971111 0.969325 1.01716 0.984937
0.885746 0.932038 0.963578 0.986254
0.970649 0.980119 0.999186 0.991144
0.814493 0.891501 0.929554 0.982858
0.99764 0.979798 1.01884 0.999378
0.962044 0.97412 0.993622 0.993943
0.879753 0.915964 0.973471 0.986641
0.943036 0.963986 0.983626 0.994552
0.861031 0.914764 0.954723 0.985899
0.949644 0.956883 1.0065 0.986027
0.976521 0.981628 0.99616 0.998633
0.911384 0.931436 0.989257 0.989098
0.859525 0.906552 0.96132 0.986275
0.962872 0.968622 1.00746 0.986707
0.947455 0.962341 0.989651 0.994827
1.01864 0.994693 1.02457 0.999515
1.01499 0.999267 1.0164 0.999348
0.99362 1.00052 0.994269 0.99883
1.01617 0.998795 1.01837 0.999047
1.01099 1.00061 1.01207 0.998332
1.00236 1.00175 1.00272 0.9979
1.01234 1 1.0145 0.997874
1.00639 1.00031 1.00859 0.99751
0.999381 1.00147 1.00032 0.997596
1.00356 1 1.00612 0.99745
1.00352 1.00298 1.00321 0.997329
1.0049 1.0073 1 0.997611
1.00904 1.01133 1 0.997742
1.0051 1.0076 1.00002 0.997505
1.00238 1.00491 1 0.997481
0.999837 1.00193 1 0.997913
1.00094 1.00228 1.00107 0.997591
1.00226 1.00248 1.00244 0.997352
0.998479 1 1 0.998479
0.998409 1 1.00002 0.998385
0.998524 1 1.00032 0.998207
0.999318 1 1.00048 0.998842
0.999803 1 1.00121 0.998595
0.999626 1 1.0011 0.998533
0.999538 1 1 0.999538
0.999491 1 1.00045 0.999043
1.00023 1 1.00141 0.99882
1 1 1 1
0.999722 1 1 0.999722
0.999287 1 1.00004 0.999247
1 1 1 1
1 1 1 1
0.999819 1 1 0.999819
1 1 1 1
1 1 1 1
1 1 1 1
0.999074 1 1 0.999074
0.999336 1 1 0.999336
0.99914 1 1 0.99914
0.999776 1 1 0.999776
0.999388 1 1 0.999388
1 1 1 1
0.999807 1 1 0.999807
0.999427 1 1 0.999427
1 1 1 1
1 1 1 1
0.999847 1 1 0.999847
1 1 1 1
1 1 1 1
1 1 1 1
0.962432 0.97541 0.992193 0.994459
0.951365 0.966497 0.987233 0.997074
0.961346 0.978061 0.984862 0.998018
0.998968 1 1 0.998968
0.999176 1 1 0.999176
0.999023 1 1 0.999023
0.999053 1 1 0.999053
0.998988 1 1 0.998988
0.998953 1 1 0.998953
0.998874 1 1 0.998874
0.998955 1 1.00002 0.998933
0.999073 1 1 0.999073
0.998973 1 1 0.998973
0.999042 1 1.00003 0.999013
0.999177 1 1.00007 0.999104
0.881367 0.919314 0.972132 0.986206
0.962735 0.974439 0.996819 0.991142
0.959508 0.971078 0.994141 0.993908
0.880126 0.944754 0.944391 0.986449
0.92001 0.955807 0.975582 0.98664
0.967831 0.965422 1.01667 0.986059
0.951305 0.963314 0.993964 0.993531
0.968044 0.970083 1.00255 0.995357
0.830769 0.904515 0.933458 0.983943
0.967673 0.965519 1.01658 0.985886
0.882628 0.935342 0.956206 0.986861
0.959337 0.969691 0.993574 0.995722
0.959278 0.959793 1.01194 0.987675
0.857067 0.913946 0.950483 0.98662
1.00003 1 1.00041 0.99962
0.999749 1 1.00047 0.999283
1.00003 1 1.00108 0.998961
0.993017 0.974597 1.01982 0.999095
1.01246 0.998976 1.01421 0.999297
1.00501 1 1.00595 0.999068
1.0095 0.999981 1.01018 0.999351
0.997441 0.985157 1.01359 0.998894
1.00275 0.994244 1.00939 0.999178
0.910332 0.932295 0.988119 0.988182
0.963022 0.972428 0.995322 0.994982
0.960136 0.967775 0.994132 0.997962
0.996601 0.977973 1.01959 0.999466
0.941611 0.965922 0.979468 0.995267
0.962262 0.97506 0.992882 0.99395
0.957565 0.958735 1.01117 0.987744
0.869848 0.926559 0.951721 0.986417
0.873179 0.915626 0.966694 0.986498
0.976494 0.982123 0.995575 0.998688
0.900653 0.929232 0.980219 0.988804
0.873838 0.912206 0.97053 0.987027
0.947685 0.960907 0.993253 0.99294
0.951605 0.96487 0.998779 0.987458
0.966274 0.988434 0.97836 0.999203
0.886103 0.923491 0.971823 0.987335
0.958314 0.974519 0.995302 0.988014
0.961025 0.974812 0.99307 0.992736
1.01719 0.998344 1.01956 0.999325
0.989833 1.00027 0.990637 0.998919
0.982427 1.00233 0.981634 0.998482
1.01197 1.00087 1.01269 0.998418
1.00317 1.00218 1.0031 0.997892
1.00067 1.00318 0.999428 0.998069
1.00544 1.00049 1.00744 0.997523
0.999496 1.00108 1.00081 0.997611
1.00823 1.01021 1 0.998036
1.00383 1.00395 1.00254 0.997346
1.00474 1.00714 1 0.997616
1.01197 1.01392 1 0.998069
1.0147 1.01667 1 0.998061
1.00942 1.01176 1 0.997692
1.00884 1.0111 1 0.997764
1.00387 1.00616 1 0.99772
1.00459 1.00706 1 0.997543
1.00219 1.00471 1 0.997495
0.998565 1.00032 1 0.998248
1.00037 1.00231 1.00014 0.997929
1.0001 1.00108 1.00148 0.997546
0.998696 1 1 0.998696
0.998474 1 1 0.998474
0.998441 1 1 0.998441
0.999315 1 1 0.999315
0.999251 1 1.00041 0.998845
0.999888 1 1.00128 0.998613
0.999992 1 1 0.999992
0.999534 1 1 0.999534
0.99943 1 1.00039 0.999044
1 1 1 1
0.999999 1 1 0.999999
0.999717 1 1 0.999717
1 1 1 1
1 1 1 1
1 1 1 1
0.999046 1 1 0.999046
0.999075 1 1 0.999075
0.999266 1 1 0.999266
0.999746 1 1 0.999746
0.999337 1 1 0.999337
0.999128 1 1 0.999128
0.999999 1 1 0.999999
0.999778 1 1 0.999778
0.999387 1 1 0.999387
1 1 1 1
1 1 1 1
0.999809 1 1 0.999809
1 1 1 1
1 1 1 1
1 1 1 1
0.904131 0.925662 0.988717 0.987887
0.962185 0.974205 0.993152 0.994471
0.951509 0.96624 0.98763 0.997089
0.998955 1 1 0.998955
0.998905 1 1 0.998905
0.998883 1 1 0.998883
0.999067 1 1 0.999067
0.999002 1 1 0.999002
0.99895 1 1 0.99895
0.998944 1 1.00001 0.99893
0.998883 1 1.00001 0.998874
0.998824 1 1.00003 0.998794
0.999121 1 1 0.999121
0.999005 1 1 0.999005
0.999097 1 1 0.999097
0.871162 0.910182 0.970003 0.986729
0.876944 0.913883 0.973504 0.985698
0.966292 0.977583 0.997332 0.991094
0.815249 0.89093 0.931108 0.982758
0.883508 0.932679 0.960672 0.986059
0.971401 0.969071 1.01438 0.988192
0.968111 0.967068 1.00756 0.993565
0.957279 0.967119 0.995688 0.994112
0.857261 0.907467 0.958431 0.985647
0.951675 0.957227 1.00675 0.987538
0.956796 0.968843 0.992911 0.994616
0.951495 0.967333 0.996552 0.987031
1.00728 1 1.00819 0.9991
0.999837 1 1.00027 0.999571
0.999314 1 1.00003 0.999284
0.994107 0.983294 1.01207 0.998937
1.009 1 1.00965 0.99935
1.00314 0.994935 1.00918 0.999075
0.995221 0.998614 0.998215 0.998385
0.884131 0.932786 0.959932 0.987403
0.913985 0.932399 0.991273 0.988881
0.963283 0.97208 0.995199 0.995732
0.974939 0.982783 0.993243 0.998768
0.947635 0.960894 0.992342 0.993812
0.901059 0.930386 0.97938 0.988869
0.950419 0.962146 1.00105 0.986777
0.876279 0.917812 0.967836 0.986476
0.96987 0.989321 0.981516 0.998801
0.889375 0.928001 0.971104 0.986894
0.960213 0.976298 0.996496 0.986983
0.96544 0.974541 0.996324 0.994317
0.983406 0.996561 0.987779 0.999009
0.957671 0.97945 0.990562 0.98708
0.974133 0.987846 0.990739 0.995336
0.985967 1 0.986946 0.999008
0.983393 1.00294 0.982024 0.998461
0.984039 1.00579 0.979979 0.998365
1.00358 1.00252 1.00318 0.997884
1.00007 1.00337 0.998648 0.998064
1.0103 1.01466 0.997227 0.998471
0.999474 1.00062 1.00123 0.997625
1.00805 1.01004 1 0.998029
1.01674 1.0184 0.999945 0.998427
1.00446 1.00685 1 0.997622
1.01146 1.01342 1 0.998069
1.01578 1.01746 1 0.998351
1.01346 1.01523 1 0.998251
1.01453 1.01646 1 0.998098
1.01379 1.01585 1 0.997975
1.0094 1.01165 1 0.997781
1.0101 1.01243 1 0.997696
1.00864 1.01088 1 0.997786
0.999911 1.00194 1 0.997977
1.00446 1.00672 1 0.997755
1.00405 1.00648 1 0.997582
0.998525 1 1 0.998525
0.998893 1.00065 1 0.998242
1.00075 1.00264 1.00017 0.997945
0.999147 1 1 0.999147
0.998695 1 1 0.998695
0.998469 1 1 0.998469
0.999952 1 1 0.999952
0.999314 1 1 0.999314
0.999227 1 1.00038 0.998848
1 1 1 1
0.999983 1 1 0.999983
0.99953 1 1 0.99953
1 1 1 1
0.999998 1 1 0.999998
1 1 1 1
0.998976 1 1 0.998976
0.999035 1 1 0.999035
0.99919 1 1 0.99919
0.999077 1 1 0.999077
0.999266 1 1 0.999266
0.999693 1 1 0.999693
0.999998 1 1 0.999998
0.999748 1 1 0.999748
0.999337 1 1 0.999337
1 1 1 1
0.999999 1 1 0.999999
0.99978 1 1 0.99978
1 1 1 1
1 1 1 1
1 1 1 1
0.894087 0.927284 0.976943 0.986955
0.905098 0.928667 0.986885 0.987572
0.961465 0.972575 0.994061 0.994482
0.998942 1 1 0.998942
0.998858 1 1 0.998858
0.998934 1 1 0.998934
0.998738 1 1 0.998738
0.998816 1 1 0.998816
0.998928 1 1 0.998928
0.998874 1 1 0.998874
0.998822 1 1.00001 0.998814
0.998695 1 1 0.998695
0.998949 1 1 0.998949
0.998868 1.00034 1.00026 0.998276
0.999422 1 1.00026 0.999165
0.99909 1 1 0.99909
0.955348 0.976715 0.991349 0.986659
0.875044 0.910148 0.974491 0.986599
0.878576 0.916902 0.972217 0.985583
0.856565 0.907816 0.956847 0.986099
0.95623 0.959329 1.01115 0.985777
0.959917 0.966634 0.997189 0.995851
0.958052 0.969359 0.992652 0.995652
0.95524 0.968487 0.998317 0.987985
0.97432 0.990406 0.989048 0.994651
1.00158 1.00132 1.00197 0.998301
1.00573 1 1.00666 0.99908
0.999521 1 1 0.999521
1.00366 0.996668 1.00804 0.998985
0.998298 1.00064 0.999382 0.998281
0.944197 0.97457 0.980675 0.987926
0.892073 0.932453 0.969227 0.98707
0.918187 0.93284 0.994649 0.989588
0.973012 0.990016 0.984416 0.998384
0.959434 0.968885 0.997409 0.992818
0.890421 0.926248 0.974303 0.986675
0.959648 0.973783 0.997556 0.987899
0.981999 0.99648 0.986442 0.999012
0.959787 0.981503 0.989489 0.988263
0.97555 0.988693 0.99295 0.993712
1.00035 1.00535 0.996534 0.998493
0.985937 0.996681 0.992401 0.996795
0.984332 1.00365 0.982282 0.998442
0.986108 1.0054 0.982466 0.998319
1.00459 1.02261 0.983902 0.998448
0.999753 1.00358 0.998123 0.998058
1.00939 1.01384 0.997151 0.998461
1.0167 1.02279 0.995429 0.998614
1.00792 1.00992 1 0.998022
1.01665 1.01853 0.999735 0.998412
1.01767 1.01962 0.99958 0.998509
1.01108 1.01304 1 0.998068
1.01605 1.01774 1 0.998336
1.01365 1.01532 1 0.998355
1.01412 1.01586 1 0.998288
1.01312 1.01503 1 0.998119
1.01437 1.01626 1 0.998136
1.01355 1.01561 1 0.997969
1.01099 1.01311 1 0.997907
1.00412 1.00623 1 0.997905
1.00915 1.0114 1 0.997773
1.01074 1.01307 1 0.9977
0.998612 1.00028 1 0.99833
1.00029 1.00229 1 0.997999
1.00507 1.00729 1 0.99779
0.999008 1 1 0.999008
0.99852 1 1 0.99852
0.999233 1.001 1 0.998236
0.999871 1 1 0.999871
0.999148 1 1 0.999148
0.998694 1 1 0.998694
1 1 1 1
0.999935 1 1 0.999935
0.999315 1 1 0.999315
1 1 1 1
0.999974 1 1 0.999974
1 1 1 1
0.998757 1 1 0.998757
0.998976 1 1 0.998976
0.999071 1 1 0.999071
0.999023 1 1 0.999023
0.99917 1 1 0.99917
0.999589 1 1 0.999589
0.999266 1 1 0.999266
0.999695 1 1 0.999695
0.999995 1 1 0.999995
1 1 1 1
0.999998 1 1 0.999998
0.99975 1 1 0.99975
1 1 1 1
1 1 1 1
1 1 1 1
0.959614 0.980517 0.990163 0.988404
0.886846 0.92934 0.966447 0.987405
0.914177 0.934023 0.991121 0.98752
0.998833 1 1 0.998833
0.998963 1 1 0.998963
0.998827 1 1 0.998827
0.998749 1 1 0.998749
0.998585 1.00009 1.00002 0.998478
0.998748 1 1 0.998748
0.998834 1 1 0.998834
0.998623 1 1 0.998623
0.999162 1 1.00025 0.998913
0.998527 1 1 0.998527
1.00053 1.00213 1 0.998402
0.998563 1.00129 0.999437 0.99784
0.99923 1.00081 1.00006 0.998368
0.999706 1 1.0005 0.999209
0.972283 0.989213 0.988001 0.994822
0.957168 0.976969 0.992117 0.987517
0.869556 0.910951 0.967669 0.986451
0.966844 0.974614 1.00533 0.986764
0.955941 0.968909 0.990126 0.996455
0.978862 0.99185 0.990358 0.996513
0.993942 1.00394 0.991614 0.998414
0.999233 1.00067 1.00019 0.998374
1.00468 1 1.00563 0.99906
0.997697 1.00112 0.998415 0.998162
0.972578 0.984106 0.993495 0.994757
0.953181 0.976223 0.98726 0.988998
0.885223 0.928717 0.965118 0.987617
0.982617 0.998099 0.985462 0.999013
0.98179 0.990972 0.99579 0.994922
0.962203 0.982137 0.990127 0.989472
0.994287 1.0047 0.991117 0.998503
0.983961 0.995308 0.992373 0.996196
1.00364 1.02222 0.983541 0.998251
1.00651 1.01465 0.993894 0.998064
0.987825 1.00481 0.984804 0.99827
1.00509 1.02235 0.984657 0.99844
1.00849 1.02677 0.983706 0.998467
1.0086 1.01326 0.996946 0.99845
1.0164 1.02243 0.995496 0.998602
1.01359 1.01961 0.995649 0.998446
1.01649 1.01863 0.999501 0.998397
1.01729 1.01944 0.999392 0.998495
1.01519 1.01733 0.999592 0.998302
1.01629 1.01799 1 0.998322
1.01336 1.01503 1 0.998355
1.01332 1.01522 1 0.998129
1.01476 1.01646 1 0.998326
1.01288 1.01476 1 0.998147
1.01172 1.01378 1 0.997963
1.01335 1.01542 1 0.997964
1.01095 1.01307 1 0.997899
1.00584 1.00789 1 0.997965
0.999094 1.00092 1 0.998175
1.00393 1.00602 1 0.997925
1.00893 1.01119 1 0.997765
0.998849 1 1 0.998849
0.998734 1.0004 1 0.99833
1.00066 1.00265 1 0.998021
0.999766 1 1 0.999766
0.999007 1 1 0.999007
0.998515 1 1 0.998515
1 1 1 1
0.999856 1 1 0.999856
0.999149 1 1 0.999149
1 1 1 1
0.999918 1 1 0.999918
1 1 1 1
0.999413 1.00089 1 0.998522
0.998769 1 1 0.998769
0.998914 1 1 0.998914
0.998975 1 1 0.998975
0.999054 1 1 0.999054
0.999445 1 1 0.999445
0.999151 1 1 0.999151
0.999591 1 1 0.999591
0.999987 1 1 0.999987
0.999697 1 1 0.999697
0.999996 1 1 0.999996
1 1 1 1
1 1 1 1
0.999998 1 1 0.999998
1 1 1 1
0.971744 0.986149 0.990249 0.995095
0.955131 0.97986 0.9869 0.987702
0.88176 0.926039 0.964885 0.986837
1.00226 1.00403 1.00007 0.998179
0.998837 1 1 0.998837
0.99876 1 1 0.99876
0.998729 1 1 0.998729
0.998848 1.00026 1.00012 0.998467
0.999336 1.00066 1 0.998673
0.998552 1 1 0.998552
0.999391 1 1.00051 0.998878
0.998571 1 1 0.998571
0.999886 1.0015 1 0.998384
1.00117 1.0033 1 0.997872
1.00326 1.0058 0.999728 0.997744
0.999624 1.00195 0.999876 0.997798
0.999794 1.00134 1 0.99846
0.99816 1.0062 0.99314 0.998864
0.97232 0.989862 0.988149 0.994059
0.960375 0.977871 0.993428 0.988605
0.974096 0.988182 0.9906 0.995099
0.998187 1.00595 0.9936 0.998679
0.99951 1.0002 1.00086 0.998447
1.00124 1.00668 0.9964 0.998185
0.970552 0.980286 0.994128 0.995919
0.948316 0.976363 0.983064 0.988006
0.987521 1.00302 0.986016 0.998509
0.985374 0.995949 0.993871 0.995483
1.00447 1.023 0.983588 0.998271
1.00557 1.01292 0.994557 0.998177
1.01047 1.02759 0.985084 0.998235
1.01658 1.02115 0.997353 0.998163
1.00584 1.02206 0.985674 0.998431
1.01076 1.02783 0.984896 0.998471
1.00666 1.0198 0.988786 0.998314
1.01602 1.02191 0.995642 0.998589
1.01455 1.02013 0.996084 0.998444
1.01503 1.01875 0.998158 0.998188
1.017 1.0193 0.999262 0.998481
1.01528 1.01731 0.999686 0.998317
1.0147 1.0167 1 0.998034
1.01308 1.01475 1 0.998355
1.01289 1.01479 1 0.99813
1.01366 1.01576 1 0.997933
1.01264 1.01449 1 0.998176
1.01177 1.01382 1 0.997978
1.007 1.00909 1 0.997928
1.01087 1.01301 1 0.997892
1.00581 1.00788 1 0.997946
1.0004 1.00225 1 0.998151
0.998722 1 1 0.998722
0.99928 1.00108 1 0.998199
1.00372 1.00578 1 0.997945
0.999656 1 1 0.999656
0.998848 1 1 0.998848
0.998878 1.00055 1 0.99833
1 1 1 1
0.999754 1 1 0.999754
0.999005 1 1 0.999005
1 1 1 1
0.999841 1 1 0.999841
1 1 1 1
1.00069 1.00246 1 0.998238
0.999002 1.00047 1 0.998527
0.998726 1 1 0.998726
0.998788 1 1.00001 0.998781
0.998922 1 1 0.998922
0.999297 1 1 0.999297
0.999038 1 1 0.999038
0.999445 1 1 0.999445
0.999962 1 1 0.999962
0.999593 1 1 0.999593
0.99999 1 1 0.99999
1 1 1 1
0.999997 1 1 0.999997
1 1 1 1
1 1 1 1
1.00318 1.01047 0.993934 0.998848
0.968826 0.985554 0.989362 0.993597
0.957425 0.976067 0.992173 0.98864
1.00402 1.00569 1.00001 0.998325
1.00624 1.00831 1 0.997943
1.00217 1.00382 1.00013 0.998215
0.998711 1 1 0.998711
0.999145 1.00045 1.00024 0.998455
0.999794 1.00117 1 0.998621
1.00513 1.00715 1 0.997993
0.998616 1 1 0.998616
0.999133 1.00077 1 0.998365
1.00146 1.00354 1 0.997923
1.00796 1.0104 1 0.997585
1.01189 1.0164 0.997502 0.998064
1.00301 1.00571 0.999584 0.997726
1.00038 1.00262 1 0.997756
1.00147 1.00865 0.993917 0.998955
0.972636 0.989586 0.989656 0.993145
0.99929 1.00734 0.993053 0.99895
1.01352 1.0188 0.996147 0.998664
0.99998 1.00539 0.996355 0.998256
0.969458 0.982854 0.991958 0.994367
1.00541 1.02386 0.983659 0.99829
1.00405 1.01143 0.9944 0.998294
1.00916 1.02746 0.983874 0.998286
1.01886 1.02337 0.997417 0.998174
1.01375 1.02385 0.99194 0.998187
1.02583 1.03054 0.997138 0.998289
1.01281 1.0292 0.985582 0.998474
1.007 1.01936 0.989539 0.998318
1.01758 1.02401 0.995609 0.998098
1.01542 1.02062 0.996463 0.998441
1.01526 1.01847 0.998666 0.998186
1.01765 1.01979 0.99993 0.997972
1.01528 1.01724 0.999746 0.998332
1.01458 1.01658 1 0.998032
1.01649 1.01868 1 0.99785
1.01243 1.01433 1 0.99813
1.01358 1.01568 1 0.997934
1.00855 1.0107 1 0.997867
1.01182 1.01386 1 0.997992
1.00697 1.00906 1 0.997931
1.00077 1.00268 1 0.998095
1.0058 1.00789 1 0.997927
1.00036 1.00222 1 0.99814
0.998647 1 1 0.998647
0.999577 1 1 0.999577
0.998722 1 1 0.998722
0.999453 1.00123 1 0.998224
1 1 1 1
0.999645 1 1 0.999645
0.998847 1 1 0.998847
1 1 1 1
0.999742 1 1 0.999742
1 1 1 1
1.00048 1.00249 1 0.997988
1.0004 1.00219 1 0.998212
0.998627 1.00015 1 0.998473
0.998595 1.00006 1 0.998532
0.99873 1 1 0.99873
0.999139 1 1 0.999139
0.998929 1 1 0.998929
0.999297 1 1 0.999297
0.999909 1 1 0.999909
0.999445 1 1 0.999445
0.99997 1 1 0.99997
1 1 1 1
0.999993 1 1 0.999993
1 1 1 1
1 1 1 1
1.01249 1.01965 0.994497 0.998472
1.00041 1.0095 0.9924 0.998583
0.966786 0.985371 0.986657 0.994407
1.01012 1.01218 1 0.997964
1.00252 1.00404 1 0.998486
1.0138 1.01603 1 0.997808
1.00603 1.00811 1 0.997928
1.00205 1.00363 1.00018 0.998252
1.01586 1.01827 1 0.997636
1.00027 1.0017 1 0.998571
1.00507 1.00715 1 0.997937
1.02069 1.0231 0.999894 0.997754
1.00161 1.00364 1 0.997975
1.00855 1.01102 1 0.997557
1.01156 1.0154 0.998145 0.998074
1.00236 1.00494 0.999732 0.997706
1.0039 1.01052 0.994395 0.999049
1.02441 1.02845 0.997694 0.998369
1.01324 1.01861 0.996057 0.998666
0.999166 1.00409 0.996766 0.998324
1.00795 1.02703 0.983062 0.998339
1.01996 1.02461 0.997272 0.998186
1.0134 1.02412 0.99132 0.998201
1.02625 1.03166 0.996456 0.998295
1.02613 1.03214 0.995982 0.998188
1.00732 1.01879 0.990403 0.998322
1.01757 1.02365 0.995953 0.998105
1.021 1.02486 0.998264 0.997967
1.01551 1.01822 0.99916 0.998184
1.01732 1.01944 0.999958 0.997956
1.01884 1.02111 1 0.997774
1.01452 1.01652 1 0.998031
1.01634 1.01853 1 0.997848
1.01119 1.01344 1 0.997782
1.01352 1.01562 1 0.997934
1.00872 1.01088 1 0.997868
1.00133 1.00333 1 0.998007
1.00695 1.00904 1 0.997935
1.0009 1.00281 1 0.998097
0.998574 1 1 0.998574
1.0003 1.00217 1 0.998129
0.998645 1 1 0.998645
0.999604 1 1 0.999604
0.999894 1 1 0.999894
0.999596 1 1 0.999596
0.998722 1 1 0.998722
1 1 1 1
0.999634 1 1 0.999634
1 1 1 1
1.01841 1.0206 1 0.997851
1.0058 1.0079 1 0.997918
1.00036 1.0024 1 0.997971
0.999637 1.00136 1 0.998283
1.00007 1.00189 1 0.998186
0.998557 1.00008 1 0.998477
0.998967 1 1 0.998967
0.998735 1 1 0.998735
0.999142 1 1 0.999142
0.999819 1 1 0.999819
0.999297 1 1 0.999297
0.999924 1 1 0.999924
1 1 1 1
0.999979 1 1 0.999979
1 1 1 1
1 1 1 1
1.02537 1.02801 0.999296 0.998127
1.01615 1.02282 0.994917 0.998556
0.999391 1.00962 0.991539 0.998318
1.01819 1.02054 1 0.997702
1.00901 1.01099 1 0.998039
1.00096 1.00232 1 0.998645
1.01402 1.01622 1 0.99783
1.00582 1.00793 1 0.997913
1.02346 1.02579 1 0.997736
1.01456 1.017 1 0.997599
1.00514 1.00727 1 0.997881
1.02035 1.02268 0.999981 0.997748
1.01022 1.01272 1 0.99753
1.01346 1.01665 0.998777 0.998088
1.02984 1.0331 0.998568 0.998274
1.02604 1.02961 0.99816 0.998374
1.01409 1.01857 0.996925 0.998668
1.01386 1.02522 0.990686 0.998214
1.02723 1.03307 0.996038 0.9983
1.02611 1.03281 0.995303 0.998203
1.0261 1.02901 0.999144 0.99802
1.0175 1.02319 0.996318 0.998112
1.02143 1.02468 0.998865 0.99796
1.02093 1.02321 1 0.997765
1.01698 1.01908 1 0.99794
1.01902 1.02129 1 0.997775
1.01429 1.01662 1 0.997707
1.01616 1.01835 1 0.997847
1.0113 1.01355 1 0.997782
1.00221 1.00431 1 0.99791
1.00888 1.01104 1 0.997869
1.00157 1.00357 1 0.998008
0.998481 1 1 0.998481
1.00104 1.00295 1 0.998099
0.998572 1 1 0.998572
0.999598 1 1 0.999598
0.998644 1 1 0.998644
0.999599 1 1 0.999599
0.999899 1 1 0.999899
0.999948 1 1 0.999948
0.999617 1 1 0.999617
1 1 1 1
1.02008 1.02243 1 0.997708
1.0093 1.01139 1 0.997931
1.01827 1.02037 1 0.997945
1.00068 1.00253 1 0.998151
1.00649 1.0086 1 0.997912
1.00026 1.00231 1 0.997953
0.999212 1.00093 1 0.998282
0.998799 1 1 0.998799
0.998504 1.00002 1 0.998482
0.998969 1 1 0.998969
0.999706 1 1 0.999706
0.999145 1 1 0.999145
0.999836 1 1 0.999836
1 1 1 1
0.99994 1 1 0.99994
1 1 1 1
1 1 1 1
1.02719 1.02932 0.999923 0.998007
1.02513 1.02784 0.999239 0.998125
1.01745 1.02447 0.994501 0.998636
1.02364 1.02601 1 0.997693
1.01764 1.01998 1 0.997705
1.00798 1.00988 1 0.998116
1.01416 1.01634 1 0.997852
1.02338 1.02572 1 0.997719
1.01312 1.0156 1 0.997563
1.01823 1.02053 1 0.997742
1.02895 1.0313 0.999634 0.998081
1.02939 1.03268 0.998569 0.998237
1.02801 1.03135 0.998375 0.99838
1.0247 1.02713 0.999712 0.99792
1.026 1.03343 0.994578 0.998217
1.02571 1.02895 0.99884 0.998012
1.02257 1.02479 1 0.997833
1.02186 1.02453 0.999444 0.997952
1.02117 1.02345 1 0.997768
1.01685 1.01923 1 0.997667
1.01917 1.02145 1 0.997775
1.01404 1.01637 1 0.997708
1.00353 1.00571 1 0.997827
1.01141 1.01366 1 0.997781
1.00257 1.00467 1 0.99791
0.998385 1 1 0.998385
1.00182 1.00382 1 0.998008
0.998479 1 1 0.998479
0.999579 1 1 0.999579
0.99857 1 1 0.99857
0.999592 1 1 0.999592
0.999902 1 1 0.999902
0.999596 1 1 0.999596
0.999901 1 1 0.999901
1 1 1 1
1.02066 1.02311 1 0.99761
1.01199 1.01427 1 0.997756
1.02055 1.02287 1 0.997731
1.00086 1.00275 1 0.998118
1.00914 1.01123 1 0.997931
1.01821 1.02021 1 0.998038
0.998645 1 1 0.998645
1.00049 1.00235 1 0.998147
1.00728 1.0094 1 0.997907
0.998782 1.0005 1 0.998281
0.9988 1 1 0.9988
0.999603 1 1 0.999603
0.998971 1 1 0.998971
0.999719 1 1 0.999719
1 1 1 1
0.999853 1 1 0.999853
1 1 1 1
1 1 1 1
1.02668 1.02888 0.999983 0.997878
1.0274 1.02957 0.999906 0.997991
1.0256 1.02821 0.999343 0.998122
1.02304 1.0254 1 0.997698
1.01709 1.01942 1 0.997709
1.02332 1.02568 1 0.997703
1.02479 1.02693 1 0.99792
1.02884 1.03122 0.999624 0.998073
1.02838 1.0317 0.998587 0.998199
1.02511 1.02737 0.999871 0.997933
1.02185 1.02411 1 0.997793
1.02534 1.02887 0.998559 0.998004
1.02243 1.02468 1 0.997809
1.01824 1.0206 1 0.997693
1.02137 1.02366 1 0.99777
1.01652 1.0189 1 0.99767
1.00526 1.00752 1 0.997759
1.01384 1.01617 1 0.997709
1.00407 1.00626 1 0.997827
0.99831 1 1 0.998309
1.00294 1.00504 1 0.99791
0.998384 1 1 0.998384
0.99954 1 1 0.99954
0.998477 1 1 0.998477
0.999569 1 1 0.999569
0.999892 1 1 0.999892
0.999587 1 1 0.999587
0.999907 1 1 0.999907
0.999901 1 1 0.999901
1.02236 1.02465 1 0.997762
1.01478 1.0172 1 0.997621
1.02094 1.02338 1 0.997618
1.00259 1.00465 1 0.997956
1.01179 1.01406 1 0.997764
1.02093 1.02323 1 0.997755
0.998529 1 1 0.998529
1.00085 1.00278 1 0.998074
1.00889 1.01098 1 0.997931
0.999538 1 1 0.999538
0.998648 1 1 0.998648
1.00025 1.00211 1 0.998143
0.998802 1 1 0.998802
0.999613 1 1 0.999613
1 1 1 1
0.999731 1 1 0.999731
1 1 1 1
1 1 1 1
1.02313 1.02535 1 0.99784
1.0261 1.02832 0.999967 0.997877
1.02788 1.0301 0.999869 0.997976
1.02246 1.02481 1 0.997703
1.02252 1.02482 1 0.99776
1.02528 1.02749 0.999919 0.997929
1.02865 1.03108 0.999575 0.998065
1.02548 1.02759 1 0.997947
1.02168 1.02394 1 0.997801
1.01701 1.01935 1 0.997705
1.02238 1.02466 1 0.997784
1.018 1.02036 1 0.997684
1.00661 1.00891 1 0.99772
1.01619 1.01856 1 0.997674
1.00572 1.00798 1 0.997761
0.998244 1 1 0.998239
1.00459 1.00678 1 0.997827
0.99831 1 1 0.998308
0.999436 1 1 0.999436
0.998382 1 1 0.998382
0.999504 1 1 0.999504
1 1 1 1
0.999561 1 1 0.999561
0.9999 1 1 0.9999
0.99991 1 1 0.99991
1.02109 1.02334 1 0.997804
1.01605 1.01842 1 0.997674
1.02202 1.02431 1 0.99776
1.00501 1.00725 1 0.997775
1.01488 1.01728 1 0.997643
1.02131 1.02374 1 0.997626
0.998347 1 1 0.998347
1.00262 1.00467 1 0.997955
1.01165 1.01391 1 0.997771
0.999505 1 1 0.999505
0.998491 1 1 0.998491
1.00086 1.00284 1 0.998031
1 1 1 1
0.999548 1 1 0.999548
0.99865 1 1 0.99865
0.999624 1 1 0.999624
1 1 1 1
1 1 1 1
1.02182 1.02411 1 0.997768
1.02355 1.02576 1 0.997849
1.02551 1.02773 0.999965 0.997875
1.018 1.02039 1 0.997656
1.02168 1.02397 1 0.997764
1.0258 1.02807 0.999859 0.997937
1.02153 1.02377 1 0.997809
1.0171 1.01944 1 0.997705
1.00662 1.00888 1 0.997763
1.01769 1.02006 1 0.997676
1.00673 1.009 1 0.997751
0.998136 1.00003 1 0.998109
1.00619 1.00844 1 0.997763
0.998247 1.00001 1 0.998239
0.999385 1 1 0.999385
0.99831 1 1 0.998307
0.999434 1 1 0.999434
1 1 1 1
0.999463 1 1 0.999463
0.999941 1 1 0.999941
0.999907 1 1 0.999907
1.01901 1.02128 1 0.997776
1.01635 1.01868 1 0.997715
1.02098 1.02323 1 0.997805
1.00589 1.00813 1 0.99778
1.01645 1.01882 1 0.997669
1.02167 1.02397 1 0.997758
0.998275 1.00003 1 0.998241
1.00491 1.0071 1 0.997819
1.01496 1.01733 1 0.997664
0.999478 1 1 0.999478
0.998333 1 1 0.998333
1.00263 1.00469 1 0.997954
1 1 1 1
0.999514 1 1 0.999514
0.998452 1 1 0.998452
1 1 1 1
0.999558 1 1 0.999558
1 1 1 1
1.01822 1.02057 1 0.997692
1.02134 1.02363 1 0.997762
1.02399 1.02619 1 0.997858
1.00591 1.00818 1 0.997745
1.01799 1.02037 1 0.997669
1.02089 1.02318 1 0.997768
1.01722 1.01956 1 0.997706
1.00665 1.00891 1 0.997763
0.998127 1.00006 1 0.998065
1.00687 1.00911 1 0.997783
0.998168 1.00002 1 0.998143
0.999319 1 1 0.999319
0.998252 1.00001 1 0.99824
0.999382 1 1 0.999382
1 1 1 1
0.999431 1 1 0.999431
1 1 1 1
0.999894 1 1 0.999894
1.01633 1.01864 1 0.997734
1.01929 1.02156 1 0.997783
1.00538 1.00762 1 0.997786
1.01622 1.01854 1 0.997714
1.02089 1.02313 1 0.997807
0.998297 1.00004 1 0.998256
1.00581 1.00805 1 0.997777
1.01685 1.01923 1 0.997664
0.999438 1 1 0.999438
0.998296 1.00003 1 0.998268
1.0048 1.00695 1 0.997863
1 1 1 1
0.999483 1 1 0.999483
0.998318 1 1 0.998318
1 1 1 1
0.999522 1 1 0.999522
1 1 1 1
1.00555 1.00779 1 0.997781
1.01812 1.02048 1 0.997689
1.02078 1.02307 1 0.997757
0.998062 1 1 0.998062
1.00595 1.00822 1 0.997745
1.01795 1.02032 1 0.997681
1.00667 1.00893 1 0.997762
0.998128 1.00006 1 0.998069
0.999268 1 1 0.999268
0.998198 1.00002 1 0.998177
0.999316 1 1 0.999316
1 1 1 1
0.999379 1 1 0.999379
1 1 1 1
1 1 1 1
1.00506 1.00729 1 0.99778
1.01596 1.01826 1 0.997739
1.01956 1.02182 1 0.99779
0.998241 1.00001 1 0.998231
1.00564 1.00787 1 0.997784
1.01605 1.01838 1 0.997714
0.999393 1 1 0.999393
0.998308 1.00005 1 0.998255
1.00575 1.00799 1 0.997774
1 1 1 1
0.999442 1 1 0.999442
0.998321 1.00003 1 0.998294
1 1 1 1
0.999489 1 1 0.999489
1 1 1 1
0.998146 1 1 0.998146
1.00555 1.00782 1 0.997746
1.01806 1.02042 1 0.997685
0.99926 1 1 0.99926
0.998062 1 1 0.998061
1.00599 1.00826 1 0.997745
0.998129 1.00006 1 0.998072
0.999267 1 1 0.999267
1 1 1 1
0.999312 1 1 0.999312
1 1 1 1
1 1 1 1
0.998192 1 1 0.998192
1.00514 1.00738 1 0.997773
1.01561 1.01791 1 0.997744
0.999441 1 1 0.999441
0.998261 1.00003 1 0.998229
1.0059 1.00814 1 0.997782
1 1 1 1
0.999395 1 1 0.999395
0.998311 1.00006 1 0.998253
1 1 1 1
0.999445 1 1 0.999445
1 1 1 1
0.999261 1 1 0.999261
0.998117 1 1 0.998117
1.00554 1.00785 1 0.997711
1 1 1 1
0.999259 1 1 0.999259
0.998063 1 1 0.99806
0.999265 1 1 0.999265
1 1 1 1
1 1 1 1
0.999393 1 1 0.999393
0.9982 1.00001 1 0.998192
1.00521 1.00746 1 0.997765
1 1 1 1
0.999354 1 1 0.999354
0.99828 1.00005 1 0.998227
1 1 1 1
0.999396 1 1 0.999396
1 1 1 1
0.999811 1 1 0.999811
0.999325 1 1 0.999325
0.998088 1 1 0.998088
1 1 1 1
0.99926 1 1 0.99926
1 1 1 1
0.999829 1 1 0.999829
0.999356 1 1 0.999356
0.998214 1.00002 1 0.998193
0.999919 1 1 0.999919
0.999352 1 1 0.999352
1 1 1 1
1 1 1 1
0.999279 1 1 0.999279
1 1 1 1
0.999911 1 1 0.999911
0.999313 1 1 0.999313
1 1 1 1
1 1 1 1
1 1 1 1

VECTORS lamdaE float
1 1.00015 0.995337
0.999899 1.00033 0.997791
0.999733 1.00034 0.995492
1.00029 0.999928 0.995132
1.0001 0.999969 0.995386
1.00001 1.00028 0.995147
1.00122 1.00048 0.992603
0.999894 1.00021 0.997822
0.999813 1.00023 0.998037
0.999474 1.00066 0.998065
0.999879 1.0001 0.995606
1.00099 1.00124 0.991717
1.00021 1.00001 0.995068
0.999945 0.99998 0.995336
0.999493 1.00054 0.995621
1.00008 0.999906 0.995339
0.999722 1.00057 0.995285
0.999867 1.00004 0.99556
1.00137 1.00032 0.992537
1.00019 1 0.997679
1.00033 0.999984 0.994998
1.00021 0.999888 0.995301
1.0016 0.99999 0.992422
1.0014 1.00013 0.992637
0.999976 1.00018 0.995188
1.00104 1.00098 0.992408
1.00376 1.00033 0.988447
0.999849 1.00014 0.997881
0.999947 1.00011 0.99664
0.999685 1.0005 0.996645
0.999831 0.999883 0.997998
1.0009 1.00136 0.991726
1.00021 0.999848 0.995181
0.999946 1.00037 0.995247
1.00169 1.00018 0.992832
0.99948 0.999268 0.998551
1.00136 1.00083 0.992808
1.00064 1.00143 0.992145
1.00277 1.00204 0.987797
0.999569 0.998329 0.998857
1.00023 1.00001 0.997637
1.00009 1 0.996491
1.00019 0.999998 0.997659
0.999909 1.00004 0.995364
1.00179 1.00004 0.991483
0.999993 0.999959 0.997953
1.00191 1.00011 0.992552
0.999874 0.999845 0.995547
0.999649 1.00011 0.99572
0.999444 1.0009 0.995408
1.00151 1.00014 0.992485
1.00008 1.00001 0.996513
1.00011 0.999983 0.995214
0.999707 1.00049 0.99533
1.00001 0.999876 0.995491
1.00169 0.999954 0.99234
1.00121 1.0008 0.992339
1.00151 1.00004 0.99257
1.00375 1.00035 0.988437
1.00016 1 0.997682
1.00029 1.00001 0.995025
1.00161 1 0.993012
1.00166 1.00002 0.992305
1.00153 0.999971 0.992563
1.00407 0.999954 0.988194
1.0039 1.00002 0.988209
0.999792 0.999598 0.995887
1.00049 1.00161 0.992558
1.00355 1.00084 0.988299
1.00481 1.00006 0.986112
1.0001 1.00014 0.997764
0.999738 0.999651 0.998179
0.999891 1.00034 0.997777
1.00081 1.00145 0.991732
1.00024 0.999978 0.997723
1 1.00032 0.997779
1.00158 1.00013 0.991678
0.999577 0.999349 0.997441
1.00116 1.00092 0.991662
1.00051 1.00148 0.992874
1.0028 1.00199 0.987782
0.999671 0.998754 0.998597
0.999678 1.00004 0.995264
1.00179 0.99998 0.991532
1.00149 1.00041 0.991672
1.00405 1.0002 0.987319
1.00018 1.00114 0.994348
1.00339 1.00103 0.987685
1.00173 1.0034 0.988333
1.00387 1.00191 0.985845
0.999533 0.997959 0.999048
0.99951 0.998255 0.998941
1.00026 0.999985 0.99766
1.00024 1.00001 0.997637
1.00021 1 0.997656
1.00008 1.00001 0.996504
1.00182 1.00003 0.992107
1.00011 0.999967 0.996529
1.00185 1.00012 0.991983
1.0002 0.999995 0.997665
1.00171 0.999964 0.991666
1.0019 1.00011 0.99259
1.00423 0.999741 0.987485
1.00186 1.00002 0.992677
1.00426 0.999937 0.987257
1.00017 1.00001 0.995153
0.999885 0.999976 0.995434
0.999408 1.00084 0.995488
0.999806 0.999843 0.995678
1.00178 0.999956 0.992258
1.00162 0.999951 0.99251
1.00138 1.00058 0.992277
1.00374 1.00037 0.988427
1.00019 0.999999 0.997671
1.00007 1.00001 0.99524
1.00172 0.999979 0.991975
1.00174 1.00001 0.992213
0.999672 0.99982 0.996989
1.00074 1.00152 0.992684
1.00163 0.99992 0.99249
1.00408 0.99993 0.988087
1.00351 1.00088 0.988324
1.0039 1.00009 0.988286
1.0048 1.00007 0.986133
1.00169 0.999985 0.991707
1.00163 1 0.99235
1.00412 0.999685 0.988146
1.00413 0.999859 0.987966
1.00401 0.999882 0.98812
1.00506 0.999574 0.986472
0.999626 0.999225 0.998452
1.00491 0.99981 0.98621
1.00004 1.00175 0.992723
1.00265 1.00209 0.987899
1.00472 1.00049 0.985938
1.00517 0.999853 0.98568
0.999833 1.00094 0.993968
1.0002 1.00364 0.990706
1.00021 1.00001 0.997739
0.999958 1.0003 0.99778
1.00159 1.00011 0.991679
0.999633 0.99908 0.998508
1.00028 1.0017 0.992368
1.00111 1.00096 0.991671
1.00284 1.00193 0.987766
0.999594 0.99868 0.998696
0.999675 0.999949 0.995308
1.0018 1.00001 0.992155
1.00148 1.00044 0.992267
1.00405 1.00021 0.987318
1 1.00119 0.993515
1.0034 1.00101 0.987692
1.00172 1.00337 0.988326
1.00393 1.00187 0.98582
0.999797 1.00066 0.99444
0.999724 0.999372 0.995845
1.00025 1.00262 0.991712
1.00418 1.00008 0.987226
1.00377 1.00053 0.987506
1.00498 1.00007 0.985828
1.00098 1.00366 0.989452
1.00448 1.00073 0.985893
1.00278 1.00366 0.98607
1.00468 1.00119 0.985423
0.999571 0.997683 0.999124
0.999508 0.997906 0.999077
0.999464 0.998171 0.999003
0.999787 1.0005 0.994498
0.999602 0.998885 0.998618
1.00026 0.999974 0.997694
1.00024 1 0.997639
1.00177 1.00013 0.99141
1.00175 1.00003 0.991536
1.00019 1 0.997657
1.00018 0.999999 0.997665
1.0017 0.999972 0.99166
1.00183 1.0001 0.992009
1.00423 0.999737 0.987483
1.00177 1.00004 0.991478
1.00425 0.999937 0.987254
1.00168 0.99996 0.991708
1.00418 0.999666 0.987642
1.00426 0.999835 0.987345
1.00514 0.999134 0.986544
1.00424 1.00001 0.987213
1.00514 0.999488 0.986179
1.00018 0.999996 0.997665
0.99985 1.00002 0.995456
1.00173 0.999971 0.991032
1.00183 1 0.992117
0.999391 0.999987 0.998314
1.00105 1.00132 0.992804
1.00172 0.999894 0.992419
1.0041 0.999889 0.987981
1.0039 1.00016 0.988364
1.00347 1.00095 0.988348
1.00479 1.00009 0.986155
1.00167 0.999972 0.991708
1.00173 1 0.992248
1.00413 0.999668 0.987839
1.00415 0.999897 0.988024
0.999658 0.999304 0.998381
1.00027 1.00157 0.993209
1.0026 1.00225 0.988174
1.00401 0.999913 0.988102
1.00506 0.999462 0.986438
1.00471 1.00052 0.985847
1.0049 0.999863 0.986323
1.00516 0.999847 0.985709
0.999852 1.00095 0.993963
1.00027 1.0035 0.990719
1.00414 0.999664 0.987718
1.00414 0.999787 0.988027
1.00506 0.999208 0.986817
1.00509 0.999246 0.98649
1.00499 0.999592 0.986512
1.00523 0.998716 0.986839
0.999908 1.00133 0.993396
1.00519 0.999347 0.986171
1.00139 1.00341 0.988766
1.00407 1.00168 0.985672
1.00514 1.00053 0.985317
1.00517 0.999239 0.986409
1.00054 1.00359 0.990197
1.00011 1.00298 0.991497
1.00074 1.00462 0.989
1.00172 0.999991 0.991594
0.999524 0.998587 0.9988
0.999674 0.999855 0.995352
1.00135 1.00049 0.991715
1.00405 1.00023 0.987316
0.999916 1.00127 0.993447
1.0017 1.00334 0.988321
1.00341 1.001 0.987701
1.00399 1.00181 0.985795
0.999773 1.00061 0.994463
0.999736 0.999277 0.99588
1.00013 1.00276 0.991725
1.00418 1.00009 0.98722
1.00377 1.00052 0.98751
1.00499 1.00006 0.985811
1.00089 1.00371 0.989477
1.00452 1.00078 0.985895
1.00283 1.00375 0.986043
1.00462 1.00105 0.985382
0.999839 0.998859 0.99614
1.00054 1.00321 0.990598
1.00008 1.00179 0.992825
1.00037 1.00418 0.990006
1.00507 0.999858 0.985907
1.00479 1.00036 0.985835
1.00516 0.999697 0.985875
1.00172 1.00445 0.987356
1.00492 1.00038 0.985579
1.00373 1.00305 0.985205
1.00509 1.00057 0.985243
1.00027 1.00021 0.994056
1.00003 0.998329 0.996318
0.999651 0.997443 0.999156
0.999569 0.997639 0.999135
0.999493 0.997853 0.999101
0.999793 0.999976 0.995032
0.999582 0.998547 0.998767
0.999802 1.00055 0.994475
0.99964 0.998935 0.998561
1.00177 1.00007 0.991472
1.00178 1.00009 0.991435
1.00425 0.999939 0.98725
1.00423 0.999733 0.987481
1.00172 0.99998 0.991657
1.0002 1 0.997659
1.00169 0.999962 0.991708
1.00418 0.999672 0.987641
1.00426 0.999842 0.987342
1.00513 0.999139 0.986541
1.00423 1.00002 0.987204
1.00514 0.999488 0.986169
1.00415 0.99966 0.98772
1.0051 0.999021 0.986724
1.00516 0.999301 0.98634
1.00525 0.997937 0.987589
1.00512 0.999664 0.986035
1.00523 0.998527 0.987008
1.00169 0.999961 0.99171
1.00182 0.999985 0.992147
1.00415 0.999638 0.987534
1.00417 0.999932 0.988081
0.9997 0.999393 0.998301
1.00048 1.0015 0.993598
1.00262 1.00235 0.988448
1.00401 0.999932 0.988084
1.00505 0.999347 0.986405
1.0049 0.999917 0.986435
1.00469 1.00054 0.985756
1.00516 0.999839 0.985737
0.99988 1.00096 0.993957
1.00035 1.00339 0.990731
1.00414 0.999619 0.987657
1.00416 0.999769 0.988012
1.00507 0.999112 0.98691
1.00509 0.999361 0.986499
0.999974 1.00132 0.993386
1.00152 1.00334 0.988745
1.00409 1.00171 0.98568
1.00499 0.999652 0.986481
1.00523 0.998567 0.987001
1.00513 1.00051 0.985271
1.00518 0.999339 0.986191
1.00517 0.999209 0.986404
1.00059 1.0035 0.99021
1.00061 1.00449 0.989071
1.00015 1.00298 0.991484
1.00507 0.999113 0.986888
1.00508 0.999172 0.986819
1.0052 0.99803 0.987577
1.00524 0.998354 0.987129
1.0052 0.998791 0.986714
1.00518 0.997341 0.988217
1.00082 1.00353 0.98972
1.00517 0.998378 0.987105
1.00267 1.0033 0.986733
1.00486 1.00138 0.984619
1.00515 1.00035 0.98536
1.00511 0.998436 0.987275
1.00014 1.0022 0.992258
1.00115 1.00372 0.989004
1.00022 1.00479 0.989474
1.00125 1.00396 0.988821
1.00417 1.00011 0.987212
0.999745 0.999194 0.995915
0.999744 1.00057 0.994487
1.00004 1.00288 0.991737
1.00378 1.00051 0.987514
1.005 1.00006 0.985795
1.0008 1.00377 0.989502
1.00289 1.00386 0.986014
1.00457 1.00083 0.985897
1.00459 1.00093 0.985341
0.999844 0.998816 0.996155
1.00049 1.00329 0.990602
1.00005 1.00177 0.992858
1.00026 1.00433 0.989986
1.00507 0.999862 0.985892
1.00482 1.00035 0.985824
1.00517 0.999704 0.985862
1.00165 1.00452 0.987386
1.00497 1.00043 0.985598
1.00368 1.00299 0.985187
1.00507 1.00053 0.985212
0.99995 0.998526 0.996261
1.00015 1.00095 0.993552
1.00099 1.00426 0.988875
1.00009 1.0035 0.991184
1.0005 1.00461 0.989438
1.0052 0.999315 0.986228
1.00509 1.00001 0.985658
1.00513 0.998988 0.986598
1.00226 1.00461 0.986334
1.00511 1.00017 0.985525
1.00417 1.00194 0.984958
1.00026 1.00029 0.993991
1.00023 1.00155 0.992821
1.00025 1.0002 0.994102
1.00026 1.00022 0.994055
1.00006 0.998151 0.996912
1.00002 0.998319 0.9966
0.999803 0.997251 0.998071
0.999659 0.997398 0.999161
0.99957 0.997587 0.999145
0.999827 0.999463 0.9955
0.99959 0.998191 0.998912
0.999799 1.00003 0.995006
0.999621 0.998607 0.998714
0.999819 1.00058 0.994452
0.999675 0.998992 0.998503
1.00423 1.00003 0.987195
1.00425 0.999848 0.987339
1.00514 0.999501 0.986159
1.00513 0.999144 0.986538
1.00418 0.999678 0.987639
1.00168 0.999964 0.991706
1.00414 0.999657 0.987719
1.0051 0.999025 0.986725
1.00515 0.999316 0.986333
1.00525 0.99783 0.987711
1.00512 0.999668 0.986025
1.00523 0.998546 0.986994
1.00508 0.998994 0.986794
1.00522 0.997652 0.987956
1.00525 0.998154 0.987346
1.00524 0.996648 0.988863
1.00521 0.99894 0.986623
1.00518 0.997039 0.988458
1.00414 0.999577 0.987596
1.00418 0.999762 0.987998
1.00507 0.999025 0.987002
1.00509 0.999475 0.986508
1.00006 1.00129 0.993374
1.00154 1.00333 0.988725
1.00411 1.00174 0.985686
1.005 0.999712 0.986451
1.00523 0.998417 0.987163
1.00518 0.99933 0.986211
1.00512 1.00052 0.985225
1.00517 0.999179 0.986398
1.00063 1.0034 0.990223
1.00059 1.00437 0.989141
1.00019 1.00295 0.991471
1.00507 0.999071 0.986831
1.00509 0.999169 0.98681
1.0052 0.997838 0.987785
1.00524 0.998416 0.987091
1.00089 1.00349 0.989698
1.00275 1.00322 0.986721
1.00473 1.00146 0.984696
1.00519 0.998941 0.986596
1.00518 0.997149 0.988437
1.00515 1.00038 0.985257
1.00517 0.998383 0.987122
1.00511 0.998336 0.987399
1.00122 1.00371 0.988999
1.0012 1.00399 0.98882
1.00016 1.00221 0.992244
1.00018 1.00464 0.989596
1.0052 0.997849 0.987792
1.00522 0.998123 0.987553
1.00516 0.996773 0.9888
1.00519 0.996491 0.988999
1.00516 0.997643 0.98791
1.00513 0.996314 0.989349
1.00172 1.00346 0.988279
1.0051 0.997065 0.9884
1.0033 1.00318 0.985449
1.00509 1.0015 0.984248
1.00511 1.00001 0.985558
1.00507 0.99805 0.987647
1.00013 1.00162 0.992848
1.00013 1.00407 0.990339
1.00166 1.00319 0.988647
1.00044 1.00495 0.989058
1.00153 1.00333 0.989066
0.999846 0.998784 0.99617
1.00507 0.999865 0.985878
1.00002 1.00173 0.99289
1.00042 1.00341 0.990606
1.00015 1.00447 0.989966
1.00485 1.00034 0.985812
1.00518 0.999712 0.985848
1.00167 1.0045 0.987416
1.00365 1.00292 0.98517
1.005 1.00047 0.985616
1.00504 1.0005 0.985181
0.999953 0.998513 0.996268
1.00013 1.00093 0.993567
1.00098 1.00421 0.988895
0.999996 1.00359 0.991181
1.0004 1.00461 0.989357
1.0052 0.999322 0.986215
1.0051 1.00001 0.985638
1.00513 0.998965 0.986566
1.00219 1.00463 0.986336
1.00514 1.00017 0.98551
1.00435 1.00183 0.984964
1.00024 1.00049 0.993861
1.00014 1.00241 0.99216
1.00129 1.00435 0.988189
1.00008 1.00461 0.990217
1.0009 1.00413 0.989328
1.00515 0.998404 0.987168
1.00512 0.999539 0.986012
1.00511 0.998316 0.98698
1.00256 1.00391 0.986169
1.00494 1.00084 0.984928
1.00026 1.0003 0.993987
1.00024 1.00153 0.99273
1.00019 1.00159 0.992776
1.00019 1.0023 0.992289
1.0002 1.00158 0.992855
1.00021 1.00025 0.994119
1.00025 1.0002 0.994103
1.0001 0.998065 0.996922
1.00026 1.00023 0.994055
1.00007 0.998162 0.996913
0.999902 0.997023 0.998099
1.00001 0.998316 0.996876
0.999772 0.99721 0.998626
0.999669 0.997352 0.999166
0.999881 0.998994 0.995878
0.999823 0.999515 0.995477
0.999613 0.997872 0.999021
0.999616 0.998264 0.99886
0.999803 1.00009 0.99498
0.999659 0.998656 0.998659
1.00511 0.999672 0.986014
1.00515 0.999319 0.986326
1.00524 0.998558 0.98698
1.00524 0.997721 0.987833
1.00509 0.999029 0.986727
1.00415 0.999656 0.987719
1.00508 0.998993 0.986796
1.00522 0.997658 0.987966
1.00525 0.998165 0.987344
1.00524 0.996419 0.989077
1.00522 0.998942 0.986601
1.00518 0.996921 0.988583
1.0052 0.997692 0.987974
1.0052 0.996425 0.989117
1.00521 0.996452 0.989083
1.00521 0.995517 0.990022
1.00517 0.99769 0.987843
1.00516 0.995955 0.989538
1.00508 0.999025 0.986775
1.00509 0.999175 0.986801
1.0052 0.99764 0.987992
1.00524 0.998474 0.987054
1.00097 1.00346 0.989675
1.00284 1.00316 0.986709
1.00463 1.00144 0.984773
1.00519 0.999093 0.986478
1.00517 0.996956 0.988658
1.00517 0.998388 0.98714
1.00515 1.0004 0.985156
1.00511 0.998234 0.987524
1.00118 1.00375 0.988994
1.00102 1.00408 0.988818
1.00018 1.00222 0.992229
1.00014 1.00457 0.989719
1.0052 0.997854 0.987784
1.00522 0.998197 0.987437
1.00516 0.996654 0.988963
1.00519 0.996592 0.988875
1.00169 1.00362 0.988236
1.00331 1.00313 0.985559
1.00511 1.00145 0.984211
1.00516 0.997814 0.987707
1.00513 0.996065 0.98952
1.00511 1.00003 0.985529
1.00511 0.997088 0.988404
1.00508 0.997821 0.98778
1.00173 1.00318 0.988619
1.00149 1.00322 0.989138
1.00042 1.00501 0.989019
1.00014 1.00161 0.992781
1.00009 1.00397 0.990455
1.00515 0.996449 0.989252
1.00519 0.996276 0.989295
1.00515 0.995458 0.990057
1.00512 0.996202 0.989223
1.00205 1.0038 0.987408
1.00512 0.996652 0.988989
1.00374 1.00292 0.984697
1.00511 1.00156 0.984039
1.00508 0.999576 0.985834
1.00008 1.00104 0.993326
1.0001 1.00329 0.991328
1.00034 1.00451 0.98978
1.00197 1.00281 0.988611
1.00068 1.00478 0.988632
1.00183 1.00236 0.988934
0.999953 0.998506 0.996274
1.00012 1.00091 0.993582
1.0052 0.99933 0.986201
0.999896 1.00369 0.991179
1.00089 1.00425 0.988915
1.0003 1.00463 0.989276
1.00513 1.00001 0.985617
1.00513 0.998943 0.986533
1.00209 1.00467 0.986338
1.00448 1.00177 0.984969
1.00516 1.00014 0.985496
1.00023 1.00048 0.993863
1.00009 1.00244 0.992181
1.0013 1.00439 0.988154
0.999949 1.00468 0.990193
1.0008 1.00403 0.989386
1.00515 0.998414 0.987144
1.00513 0.999539 0.98598
1.00511 0.998356 0.987033
1.00264 1.00377 0.986032
1.00493 1.00098 0.984907
1.00022 1.00179 0.992647
0.999841 1.00386 0.991037
1.00183 1.0035 0.988063
1.00009 1.00493 0.989685
1.00135 1.00309 0.989269
1.00511 0.996972 0.988371
1.00511 0.99957 0.985951
1.00509 0.99825 0.986986
1.00372 1.00277 0.985621
1.00503 1.00084 0.984808
1.00026 1.0003 0.993984
1.00024 1.00155 0.992758
1.00006 1.00234 0.992218
1.00017 1.00161 0.992732
1.00018 1.00161 0.992852
1.00011 1.00235 0.992229
1.00003 1.00279 0.99201
1.0001 1.00242 0.992087
1.00015 1.00167 0.992852
1.00016 1.00034 0.99412
1.00021 1.00025 0.994119
1.00013 0.998039 0.996911
1.00024 1.0002 0.994104
1.00011 0.998086 0.99692
0.999973 0.996902 0.998099
1.00008 0.998169 0.996916
0.999891 0.996998 0.998106
0.999736 0.997159 0.999191
0.999936 0.998594 0.996199
0.999873 0.999052 0.995853
0.999656 0.997586 0.999101
0.999817 0.999578 0.995455
0.999631 0.997935 0.998989
0.999648 0.998322 0.998809
1.00522 0.998945 0.98658
1.00525 0.99818 0.987342
1.00518 0.9968 0.988709
1.00523 0.996197 0.989292
1.00521 0.997663 0.987976
1.00507 0.998992 0.986798
1.0052 0.997765 0.987883
1.00521 0.996568 0.989003
1.0052 0.996526 0.989003
1.00521 0.995265 0.990215
1.00517 0.997723 0.987833
1.00516 0.995734 0.98972
1.00516 0.99666 0.989049
1.00522 0.99506 0.99043
1.00516 0.995308 0.990207
1.00514 0.996008 0.989504
1.0052 0.997859 0.987776
1.00521 0.998267 0.987321
1.00517 0.996543 0.989125
1.00519 0.996691 0.988751
1.00173 1.00369 0.988193
1.0033 1.00311 0.985669
1.0051 1.00146 0.984174
1.00517 0.997986 0.987504
1.00513 0.995825 0.98969
1.00511 0.997111 0.988408
1.00511 1.00007 0.9855
1.00509 0.997593 0.987912
1.00181 1.00321 0.988591
1.00154 1.00297 0.98921
1.0004 1.00504 0.988979
1.00015 1.00159 0.992714
1.00007 1.00387 0.990572
1.00515 0.996497 0.989248
1.0052 0.996323 0.989249
1.00515 0.995568 0.989936
1.00208 1.00381 0.987377
1.00388 1.00291 0.984802
1.0051 1.00155 0.983992
1.00512 0.996229 0.989213
1.00507 0.99938 0.986126
1.00511 0.99661 0.988836
1.00009 1.00095 0.993419
1.00208 1.00269 0.988566
1.00165 1.00225 0.989447
1.0008 1.00485 0.988571
1.00034 1.00455 0.989796
1.0001 1.00327 0.991268
1.00518 0.995575 0.989852
1.0052 0.995304 0.990192
1.00513 0.995168 0.990133
1.00516 0.995547 0.989839
1.00257 1.00342 0.986856
1.00511 0.997613 0.98776
1.00465 1.00278 0.983412
1.00503 1.00182 0.98374
1.00014 1.00027 0.99402
1.00009 1.00254 0.992109
1.00024 1.00393 0.990567
1.0005 1.00503 0.988892
1.00227 1.00213 0.988447
1.00177 1.00347 0.9882
1.00022 1.00048 0.993866
1.00004 1.00245 0.992201
1.00515 0.998424 0.987119
0.999824 1.00471 0.990171
1.00132 1.0044 0.988119
1.00058 1.00391 0.989447
1.00514 0.999538 0.985949
1.00511 0.998405 0.987085
1.00275 1.00366 0.985894
1.00493 1.0011 0.984887
1.00019 1.00178 0.992659
0.999907 1.00384 0.991031
1.00187 1.00357 0.988059
0.999955 1.00502 0.989677
1.00117 1.00288 0.989683
1.00511 0.996963 0.988569
1.0051 0.999561 0.986018
1.0051 0.998316 0.986995
1.00361 1.0029 0.985423
1.00504 1.00086 0.984706
0.999939 1.00265 0.992045
0.999765 1.00486 0.990039
1.00257 1.00261 0.987733
1.00044 1.00408 0.988985
1.00512 0.995532 0.98976
1.00492 0.997598 0.988276
1.00503 0.999732 0.985731
1.00403 1.00155 0.984959
1.00025 1.00155 0.992786
1.00008 1.00235 0.992239
0.999846 1.00302 0.992123
1.00015 1.00165 0.99285
1.00004 1.0024 0.992169
1.00014 1.00168 0.992846
0.999975 1.00277 0.992014
1.00011 1.00242 0.992123
0.999908 1.0029 0.99205
1.00008 1.00288 0.991762
1.00013 1.00251 0.991941
1.00013 1.00176 0.992773
1.00011 1.00043 0.994104
1.00016 1.00032 0.994118
1.00014 0.998045 0.996891
1.00021 1.00024 0.99412
1.00013 0.998066 0.996907
1.00003 0.996819 0.998087
1.00011 0.998104 0.99692
0.999966 0.996867 0.998106
0.999878 0.996976 0.998109
1.00002 0.998214 0.99644
0.999941 0.99862 0.996174
0.999723 0.997269 0.999167
0.999864 0.999112 0.995827
0.999664 0.997639 0.999079
0.999652 0.997992 0.998946
1.00517 0.997754 0.987822
1.0052 0.996601 0.988922
1.00516 0.995516 0.989901
1.00521 0.995003 0.990408
1.00522 0.996721 0.988889
1.00521 0.997841 0.987792
1.00517 0.996649 0.989083
1.0052 0.995208 0.990323
1.00517 0.995307 0.990166
1.00514 0.995948 0.989586
1.00519 0.995414 0.990145
1.00516 0.994992 0.990599
1.00515 0.995118 0.990262
1.00515 0.996544 0.989243
1.0052 0.99637 0.989202
1.00515 0.995678 0.989815
1.00211 1.00383 0.987347
1.00405 1.00287 0.984907
1.00509 1.00156 0.983945
1.00513 0.99625 0.989203
1.00509 0.996564 0.988683
1.00505 0.999182 0.986419
1.00218 1.00257 0.988521
1.00143 1.00217 0.989961
1.00095 1.00493 0.988511
1.0001 1.00087 0.993512
1.00028 1.00454 0.989812
1.00011 1.00324 0.991207
1.00517 0.995644 0.989907
1.0052 0.995227 0.990248
1.00514 0.995204 0.990178
1.00257 1.00347 0.986824
1.00447 1.00271 0.983733
1.00495 1.00167 0.984064
1.00516 0.995603 0.989775
1.00512 0.997552 0.987709
1.00013 1.00024 0.994168
1.0001 1.00254 0.992106
1.00204 1.00212 0.98864
1.00164 1.00353 0.988661
1.00045 1.00494 0.989105
1.00022 1.00396 0.990498
1.00517 0.994999 0.990563
1.00514 0.994926 0.990474
1.00512 0.995122 0.990278
1.00513 0.995652 0.989549
1.00287 1.00273 0.986255
1.00481 1.00054 0.985267
1.00499 1.00315 0.982876
1.00019 0.999851 0.994552
1.0002 1.00101 0.99343
1.0001 1.00171 0.992749
1.00003 1.00351 0.991212
1.00008 1.00464 0.989889
1.00017 1.00487 0.989183
1.00253 1.00111 0.988583
1.00173 1.00346 0.989328
1.00016 1.0018 0.99267
0.999967 1.00386 0.991026
1.00511 0.996957 0.988767
1.00001 1.00503 0.989668
1.00189 1.00369 0.988057
1.00095 1.00272 0.990095
1.00509 0.999534 0.986088
1.00511 0.998373 0.987004
1.00351 1.00299 0.985229
1.00505 1.00087 0.984605
0.999958 1.00273 0.991965
0.999848 1.0047 0.990088
1.00247 1.00266 0.987832
1.00077 1.00415 0.989065
1.00513 0.995415 0.989925
1.005 0.997596 0.988077
1.00503 0.999703 0.985765
1.00437 1.00171 0.984809
0.999798 1.00345 0.991544
1.00512 0.9951 0.990249
1.00049 1.00501 0.989329
1.00252 1.00302 0.98726
1.00495 0.996047 0.98987
1.00483 0.998719 0.986404
1.00474 1.00119 0.984955
1.00008 1.00239 0.99226
0.999831 1.00298 0.9921
0.99956 1.00345 0.99221
1.00015 1.00165 0.99284
1.00011 1.00241 0.99216
0.999871 1.0028 0.992018
1.00014 1.00175 0.992761
1.00011 1.00251 0.991962
0.999813 1.00296 0.992052
1.00012 1.00281 0.991798
1.00002 1.00273 0.992151
0.999983 1.00295 0.991852
1.00017 1.00303 0.991479
1.00025 1.00254 0.991749
1.00016 1.00186 0.992628
1.00008 1.00053 0.994052
1.00011 1.00044 0.994101
1.00014 0.998089 0.996849
1.00016 1.00033 0.994117
1.00013 0.998077 0.996888
1.00006 0.996761 0.998075
1.00013 0.998093 0.996905
1.00002 0.996784 0.998093
0.999961 0.996836 0.998109
1.00019 0.999786 0.994646
1.00008 0.997967 0.996588
1.00002 0.998236 0.996425
0.999812 0.996987 0.999212
0.999944 0.998656 0.996149
0.999724 0.997346 0.999148
0.999677 0.997701 0.999055
1.00514 0.995888 0.989669
1.00518 0.995303 0.990125
1.00518 0.99535 0.990216
1.00518 0.996633 0.989117
1.00518 0.995327 0.990288
1.00516 0.994968 0.99062
1.00514 0.995157 0.990248
1.00516 0.994937 0.99065
1.00515 0.994947 0.990553
1.00491 0.995039 0.990963
1.00517 0.995714 0.989961
1.0052 0.995145 0.990304
1.00513 0.995245 0.990223
1.00259 1.00352 0.986792
1.0043 1.00264 0.984056
1.0049 1.00152 0.984389
1.00515 0.995665 0.989712
1.00512 0.997499 0.987658
1.00182 1.00217 0.988833
1.00158 1.00357 0.989119
1.00029 1.00489 0.989319
1.00012 1.00019 0.994316
1.00012 1.00252 0.992103
1.0002 1.00402 0.990429
1.00518 0.994977 0.990527
1.00018 0.99987 0.994548
1.00017 1.00104 0.993366
1.00514 0.99493 0.990488
1.00512 0.995124 0.990269
1.00264 1.00292 0.986678
1.00495 1.00296 0.983047
1.00486 1.00041 0.985187
1.00512 0.995799 0.989445
1.00011 1.00169 0.992929
1.00007 1.00347 0.991192
1.00276 1.00149 0.988341
1.00115 1.00345 0.98972
1.00024 1.00477 0.989359
1.00004 1.00469 0.989975
1.00519 0.994945 0.990408
1.00509 0.994872 0.990581
1.0051 0.995059 0.990061
1.0048 0.996525 0.989064
1.00267 1.00243 0.987253
1.0045 1.00315 0.983767
1.00012 1.00111 0.993295
1.00017 1.00114 0.993332
1.00027 1.00176 0.992687
1.00009 1.00291 0.991529
0.999947 1.00421 0.990775
1.00063 1.00445 0.989318
0.999642 1.00502 0.9897
1.00194 1.00092 0.989858
0.99998 1.00278 0.991886
0.999968 1.00462 0.99014
1.00514 0.995289 0.99009
1.00506 0.997626 0.987879
1.00107 1.00422 0.989146
1.00237 1.00266 0.987929
1.00505 0.999678 0.985797
1.00471 1.00188 0.984657
0.999844 1.00347 0.991502
1.00512 0.994962 0.99039
1.00028 1.00493 0.989441
1.00254 1.00288 0.987139
1.00499 0.995949 0.989805
1.00475 0.998809 0.98665
1.00477 1.00133 0.984998
0.999877 1.0045 0.990727
1.0045 0.99494 0.991996
1.00158 1.00404 0.988912
1.00318 1.00298 0.986602
1.00485 0.996649 0.98913
1.0041 1.00067 0.985994
0.999377 0.996844 0.991482
0.999785 1.00298 0.992078
0.999452 1.00353 0.992202
0.999737 1.00353 0.99201
1.00014 1.00176 0.992749
1.0001 1.00255 0.991982
1.00017 1.00275 0.991835
0.999752 1.00296 0.992053
1.00016 1.00186 0.992626
1.00023 1.0026 0.991738
0.999978 1.00282 0.992026
1.00014 1.00308 0.991482
1.00006 1.00289 0.991825
1.00007 1.00262 0.992097
1.00026 1.00318 0.991179
1.0002 1.00309 0.991381
1.00035 1.00266 0.991486
1.0002 1.00194 0.992375
1.00027 1.00247 0.99196
1.00019 1.00203 0.992262
1.00007 1.00058 0.994002
1.00007 1.00054 0.99405
1.00016 0.998175 0.99624
1.00011 1.00043 0.994098
1.00015 0.99813 0.996563
1.00003 0.996718 0.999174
1.00013 0.998111 0.996885
1.00006 0.996724 0.99808
1.00002 0.99675 0.998096
1.00015 0.999749 0.994729
1.00019 0.99976 0.994652
1.0001 0.997828 0.996699
1.00007 0.997973 0.99684
0.999887 0.996784 0.999246
1.00003 0.998253 0.996409
0.999803 0.997054 0.999201
0.999727 0.997408 0.999129
1.00513 0.995197 0.990234
1.00515 0.994948 0.990641
1.00516 0.995239 0.990432
1.00516 0.994936 0.990647
1.00514 0.994949 0.990545
1.00492 0.995184 0.990617
1.00517 0.994965 0.990479
1.00098 0.994858 0.988231
1.00411 0.994924 0.993497
1.00005 1.00115 0.993508
1.00519 0.994955 0.990493
1.00513 0.994937 0.990503
1.00512 0.995123 0.990259
1.00241 1.00308 0.9871
1.00478 1.00287 0.983216
1.00496 1.00027 0.98511
1.00511 0.995974 0.989338
1.00309 1.00165 0.988101
1.00053 1.00344 0.990116
1.00035 1.00466 0.989537
1.00016 0.999909 0.994544
1.00002 1.0047 0.990062
1.0001 1.00167 0.993107
1.00011 1.00345 0.991173
1.00015 1.00104 0.993301
1.00518 0.99494 0.990416
1.00012 1.00109 0.993392
1.00016 1.00117 0.993328
1.00026 1.00177 0.992603
1.00509 0.994886 0.990564
1.00511 0.995131 0.990017
1.00284 1.00239 0.987292
1.00433 1.00271 0.984264
1.00471 0.996911 0.988981
1.00004 1.00294 0.991651
1.00001 1.0042 0.990594
1.00183 1.00161 0.989697
1 1.00482 0.989745
1.00054 1.00434 0.989389
1.00514 0.995 0.990553
1.00511 0.994874 0.990502
1.00503 0.99603 0.989296
1.00454 0.998475 0.988485
1.00172 1.00272 0.989047
1.00012 1.00208 0.992334
1.00029 1.00196 0.992141
1.0001 1.00265 0.991826
0.999895 1.00421 0.991053
0.999983 1.00441 0.99026
1.00007 1.00455 0.989683
1.00033 1.00364 0.990271
0.99993 1.00346 0.991457
0.999996 1.00481 0.989552
1.00516 0.994918 0.990528
1.00503 0.995816 0.989739
1.00471 0.998874 0.986895
1.00258 1.00273 0.98702
1.0048 1.00145 0.985042
0.99989 1.00444 0.990849
1.00442 0.994951 0.992113
1.00122 1.00394 0.989059
1.00295 1.00304 0.986597
1.00479 0.996423 0.989469
1.00423 1.00069 0.985965
0.999386 0.996747 0.989461
1.00003 1.00437 0.990617
1.00332 0.996537 0.992131
1.00114 1.00351 0.989325
1.00267 1.00202 0.987426
1.00399 0.997706 0.988432
1.00033 0.995561 0.954374
0.996904 0.995047 0.973585
0.997079 1.00259 0.990454
0.999788 0.996908 0.905995
0.994735 0.997724 0.884132
0.999365 1.00358 0.992195
0.999464 1.00376 0.992064
0.999812 1.00292 0.992297
1.00016 1.00185 0.992625
1.00027 1.00252 0.991727
1.00013 1.0031 0.991484
1.00013 1.00282 0.991798
0.999931 1.00295 0.991902
1.00024 1.00303 0.991337
1.00019 1.00192 0.992447
1.00034 1.00265 0.991504
1.00008 1.00262 0.992019
1.0002 1.00321 0.991265
1.00025 1.00321 0.99126
0.99996 1.00292 0.991746
1.00034 1.0031 0.991142
1.00036 1.00264 0.991441
1.00021 1.00202 0.992249
1.00034 1.00268 0.991551
1.00025 1.00267 0.991727
1.00012 1.00247 0.992065
1.00026 1.0025 0.991894
1.00022 1.0018 0.992579
1.0002 1.00204 0.992251
1.00012 1.00055 0.993966
1.00007 1.00059 0.994
1.00014 0.998243 0.996214
1.00007 1.00055 0.994047
1.00015 0.998186 0.996238
1.00004 0.996725 0.999166
1.00016 0.99817 0.996277
1.00006 0.99672 0.998611
1.00006 0.996688 0.998083
1.0001 0.999758 0.994808
1.00015 0.99974 0.994731
1.00012 0.99773 0.996774
1.00019 0.999733 0.994658
1.0001 0.997792 0.996953
0.999942 0.996616 0.999275
1.00008 0.998012 0.996558
0.999875 0.996868 0.99923
0.999798 0.997111 0.999189
1.00514 0.994952 0.990538
1.00516 0.994936 0.990644
1.00493 0.995256 0.990272
1.00082 0.995015 0.988334
1.00516 0.994961 0.99047
1.00401 0.995425 0.993012
1.0049 0.996402 0.991226
0.997217 0.99513 0.972256
1.00086 0.996512 0.9896
1.00007 1.00119 0.993448
1.0001 1.0011 0.993502
1.00002 1.00214 0.992577
1.00008 1.0021 0.992538
1.00518 0.994931 0.990424
1.00507 0.994892 0.990547
1.00511 0.995176 0.989973
1.00323 1.00212 0.987333
1.00417 1.00204 0.984756
1.00463 0.997325 0.988894
1.00157 1.00244 0.989538
1.00042 1.00462 0.989787
1.00043 1.00422 0.989459
1.00013 1.00124 0.993323
1.00004 1.00421 0.990411
1.00007 1.00294 0.991774
1.00012 1.00108 0.993489
1.00022 1.0018 0.992517
1.00515 0.994978 0.990544
1.00011 1.00212 0.992445
1.00027 1.00199 0.992302
0.999962 1.00254 0.992163
1.00512 0.99488 0.990419
1.00494 0.995867 0.98933
1.00214 1.00209 0.98896
1.00421 0.998348 0.988865
0.999968 1.00406 0.990958
1.00014 1.00457 0.989829
1.00035 1.00393 0.990249
1.00049 1.00442 0.989614
1.00471 0.994914 0.991378
1.0051 0.995665 0.990025
1.00504 0.996489 0.989174
1.00231 0.99981 0.990982
0.999989 1.00324 0.991458
1.00011 1.00322 0.991248
0.999451 1.00455 0.991081
0.999649 1.0051 0.990092
1.00002 0.994899 0.948107
0.999871 1.0044 0.990971
1.00077 1.0039 0.989204
1.00435 0.994922 0.992226
1.00472 0.996281 0.989808
1.00433 1.00066 0.985933
1.00267 1.00312 0.986591
0.99955 0.9965 0.987384
0.999894 1.00457 0.990703
1.00352 0.99626 0.992149
1.00104 1.00358 0.989364
1.00297 1.00169 0.987394
1.00425 0.997844 0.988487
1.00144 0.995818 0.946522
0.996735 0.995248 0.969398
0.996971 1.00232 0.990208
0.999785 0.997503 0.909169
0.994723 0.997663 0.874559
0.999807 1.00365 0.991661
0.99988 0.995237 0.915058
0.995339 0.99703 0.885692
1.00201 1.00039 0.990766
1.00053 1.0034 0.990311
1.00228 1.00054 0.988799
0.996745 1.00358 0.990031
1.00024 0.997228 0.951815
0.994946 0.996679 0.967295
0.998273 0.998802 0.912888
0.99478 0.998985 0.881991
0.999255 1.00394 0.992118
0.999706 1.00312 0.992229
0.999609 1.00236 0.993568
1.0002 1.00188 0.992518
1.00034 1.00268 0.991521
1.00015 1.0031 0.991295
1.00013 1.00323 0.99135
1.00011 1.0026 0.99194
1.00023 1.00199 0.992261
1.00019 1.00328 0.991217
1.00033 1.00309 0.991158
1.00038 1.0026 0.991498
0.99996 1.00288 0.99183
1.00015 1.0033 0.991423
0.999642 1.00311 0.991931
1.00043 1.00304 0.990992
1.00043 1.00272 0.991363
1.00038 1.00265 0.991532
1.00024 1.00267 0.991749
1.00045 1.00273 0.991343
1.00008 1.00284 0.991797
1.00004 1.00257 0.991868
0.999737 1.00374 0.991412
0.999975 1.00274 0.992047
1.00014 1.00248 0.992061
1.00017 1.00173 0.992731
1.00025 1.00251 0.991828
1.00024 1.0018 0.992514
1.00018 1.00047 0.993954
1.00021 1.00205 0.992241
1.00011 1.00056 0.993968
1.00012 0.998233 0.996801
1.00007 1.0006 0.993997
1.00014 0.998224 0.996507
1.00009 0.996752 0.998008
1.00015 0.9982 0.996236
1.00004 0.996735 0.999163
1.00009 0.996727 0.998048
1.0001 1.0013 0.993289
1.00006 0.99981 0.994816
1.0001 0.999745 0.994811
1.00013 0.997695 0.996796
1.00016 0.999729 0.994732
1.00013 0.9977 0.996775
0.999985 0.996512 0.999288
1.00008 0.997799 0.997187
0.999957 0.996691 0.998765
0.999919 0.996922 0.998198
1.00048 0.995361 0.988464
1.00515 0.994959 0.990463
1.0039 0.996175 0.992525
0.996754 0.995103 0.973668
1.00068 0.996401 0.98986
1.00495 0.995834 0.991017
1.00329 0.997057 0.989228
0.996911 0.996889 0.976219
1.00008 0.995595 0.952275
0.999351 0.998297 0.916168
0.994661 0.997771 0.882872
0.999958 1.00216 0.992503
1.00008 1.00118 0.993447
1.00015 1.00104 0.993496
1.00002 1.00215 0.992544
0.999925 1.00299 0.991923
1.00016 1.00269 0.99186
1.00007 1.00246 0.99224
1.00002 1.00223 0.992466
1.00517 0.994924 0.99053
1.00513 0.994892 0.990331
1.00495 0.995634 0.989366
1.00233 1.00174 0.988875
1.00389 0.998319 0.989249
1.00038 1.00424 0.990227
1.00085 1.00431 0.989547
1.00036 1.00468 0.9894
1.00018 1.002 0.992464
0.999973 1.00406 0.990863
1.00012 1.00218 0.992559
0.999926 1.0024 0.992499
1.00471 0.994896 0.991451
0.999977 1.00326 0.991534
1.00008 1.00327 0.991405
1.00504 0.995395 0.989953
1.00466 0.996114 0.989515
1.00229 0.999784 0.990746
0.999706 1.00476 0.990614
0.999989 1.00476 0.990164
1.00339 0.996407 0.991888
1.00468 0.996044 0.990653
1.00424 0.995439 0.99119
1.00134 1.00057 0.991231
1.00002 1.0041 0.99057
0.999656 1.00436 0.990885
0.999669 1.00515 0.990416
0.999914 0.99484 0.916234
1.00051 0.995022 0.956809
0.999812 1.00474 0.99079
1.00095 1.00356 0.989405
1.00362 0.995882 0.992169
1.00449 0.998053 0.988543
1.00332 1.00141 0.987367
1.00054 0.99513 0.952772
0.997151 0.995656 0.968667
0.996812 1.00228 0.989932
0.999088 0.997323 0.917753
0.99471 0.99769 0.86477
0.999749 1.00365 0.991678
0.999883 0.995855 0.914019
0.995318 0.997105 0.880874
1.00198 1.00034 0.990819
1.00053 1.00328 0.99037
1.00235 1.00065 0.989275
0.997094 1.00334 0.990657
1.00139 0.997009 0.945891
0.994916 0.996111 0.971164
0.998543 0.99944 0.913389
0.994903 0.99877 0.879811
0.99934 1.00323 0.993206
0.995471 0.996812 0.885569
0.995085 0.998603 0.899996
0.999651 1.00185 0.992943
0.99955 1.00343 0.992301
0.996167 1.0028 0.991184
0.994825 0.999063 0.970525
0.998349 0.999233 0.943864
0.995161 0.999867 0.919035
0.994806 0.995813 0.8891
0.999712 1.00321 0.992161
0.999724 1.00207 0.993521
0.998863 1.00255 0.9939
1.00023 1.00197 0.992272
1.00038 1.00258 0.991556
1.00032 1.00306 0.991174
1.00015 1.00335 0.991174
0.99992 1.00288 0.991915
1.00042 1.00273 0.991358
1.00016 1.00322 0.991366
1.00044 1.00303 0.991006
0.999445 1.00335 0.992055
0.997803 1.00433 0.993739
1.00019 1.00338 0.991175
1.00061 1.0031 0.990728
1.0004 1.00263 0.991513
1.00027 1.00263 0.991771
1.00044 1.00276 0.991323
1.0001 1.00284 0.991775
1.00008 1.00253 0.991962
0.999859 1.00334 0.991627
1.00009 1.00286 0.991606
0.999949 1.00269 0.992035
1.00021 1.00288 0.991539
0.999856 1.00495 0.989614
0.999545 1.00413 0.991153
0.999785 1.00373 0.991404
0.99986 1.00308 0.991896
1 1.00274 0.99204
1.00009 1.00181 0.992762
1.00014 1.00252 0.992056
1.00018 1.00172 0.992736
1.00023 1.00034 0.993967
1.00025 1.00181 0.992449
1.00018 1.00045 0.993961
1.00013 0.998226 0.996802
1.00011 1.00056 0.99397
1.00014 0.99821 0.996514
1.00006 0.996739 0.998027
1.00016 0.9982 0.996218
1.00003 0.996759 0.999158
1.00004 0.996744 0.999161
1.00013 1.00143 0.993322
1.00006 0.999903 0.994726
1.0001 1.0013 0.993294
1.00014 0.99769 0.996785
1.00006 0.999803 0.994819
1.0001 0.999742 0.994813
1.00013 0.997685 0.996793
1.00002 0.996454 0.999289
1.00011 0.99768 0.997253
1 0.996526 0.998799
0.999985 0.996689 0.998282
0.999836 0.996065 0.907986
0.994879 0.99705 0.884819
0.997909 0.994884 0.973993
1.00057 0.995721 0.990137
1.00501 0.995082 0.990809
0.996505 0.995854 0.977483
1.00346 0.996278 0.989551
1.00114 0.995962 0.951531
0.999803 0.997585 0.907625
0.994685 0.997618 0.873187
0.998621 0.995065 0.981125
0.999996 0.997825 0.952354
0.998324 0.999023 0.911819
0.994775 0.99774 0.881609
1.00004 1.00316 0.991539
0.999967 1.00216 0.992576
1.00012 1.00114 0.993448
1.00004 1.00212 0.992511
0.999903 1.00289 0.992049
1.00018 1.00315 0.991402
1.00014 1.00269 0.991878
1.0002 1.00275 0.991648
1.0001 1.00243 0.992156
0.999965 1.00233 0.992398
1.0047 0.994921 0.99153
1.00511 0.995166 0.989897
1.00416 0.995845 0.989861
1.00216 0.999904 0.99051
1.00033 1.00447 0.990235
0.999928 1.00494 0.990146
1.00006 1.00322 0.991563
0.999914 1.0033 0.991609
1.00343 0.995816 0.992114
0.99997 1.00427 0.990477
0.999638 1.00446 0.990765
1.00479 0.995828 0.990325
1.00381 0.995451 0.991657
1.00181 1.00052 0.990674
0.9999 1.00514 0.990258
1.00059 0.99768 0.992727
1.00237 0.995842 0.994719
1.00004 1.0028 0.991192
0.999754 1.00469 0.990291
0.999765 1.00481 0.990193
0.999498 1.00512 0.990515
0.994768 0.996698 0.900459
0.999898 0.994868 0.91927
1.00003 0.994914 0.948085
0.99956 1.00384 0.991694
1.00053 1.00311 0.990428
1.00199 0.999977 0.990879
1.00248 1.00083 0.989747
0.999853 0.995499 0.920191
1.00012 0.997024 0.946006
0.994905 0.995548 0.967418
0.997426 1.00221 0.991236
0.998403 0.999058 0.904106
0.995311 0.997061 0.882367
0.994914 0.998527 0.885416
0.999046 1.00322 0.993213
0.995397 0.995845 0.891379
0.995251 0.998797 0.899528
0.999955 1.00173 0.992872
0.9993 1.00356 0.992294
0.995987 1.00016 0.994093
0.994854 0.998291 0.969388
0.99744 0.999119 0.952578
0.997295 0.999889 0.909448
0.994792 0.995884 0.894732
0.997838 1.0037 0.995294
0.995146 0.996683 0.910828
0.994738 0.995825 0.910148
0.995932 1.00219 0.999271
0.994791 0.999923 0.977138
0.995238 0.99998 0.952991
0.994812 0.99993 0.907176
0.994875 0.994782 0.8925
0.999819 1.0018 0.993472
0.999018 1.00258 0.994088
0.997343 1.0041 0.995258
1.00041 1.00276 0.991351
1.00046 1.00301 0.99102
1.00018 1.0031 0.991309
0.999257 1.00358 0.992183
1.00054 1.00317 0.990708
1.00014 1.00345 0.991157
0.997844 1.00423 0.994157
0.99596 1.00522 0.996459
0.998363 1.00441 0.993406
1.00036 1.00338 0.990918
1.00044 1.00278 0.991302
1.00011 1.00285 0.991753
1.00009 1.00254 0.992055
1.00009 1.00283 0.99167
0.999882 1.00334 0.991632
0.999958 1.00273 0.992065
1.00007 1.00297 0.99179
0.999288 1.00259 0.99312
1.00113 1.00065 0.991831
1.00025 1.00275 0.991649
1.0001 1.00391 0.990439
1.00134 1.0049 0.987568
0.999814 1.00475 0.990656
0.999722 1.00493 0.990005
0.999647 1.0041 0.991216
0.999716 1.00345 0.991585
0.999836 1.00372 0.991395
0.999928 1.00302 0.991895
1.00004 1.00205 0.992621
1.00006 1.0027 0.992034
1.00012 1.0018 0.992758
1.00024 1.00035 0.99396
1.0002 1.00171 0.992741
1.00023 1.00037 0.993971
1.00012 0.998215 0.996817
1.00018 1.00045 0.993967
1.00014 0.998207 0.99652
1.00002 0.996825 0.998025
1.00016 0.998185 0.996225
1.00004 0.996758 0.998592
1.00003 0.996757 0.99916
1.00015 1.00174 0.992795
1.0001 1.00001 0.994574
1.0001 1.00148 0.993154
1.00014 0.997728 0.996731
1.00006 0.999896 0.994728
1.00007 1.00135 0.993297
1.00003 0.996431 0.999286
1.00013 0.997687 0.996786
1.00007 0.999785 0.994822
1.00013 0.997675 0.996791
1.00001 0.996467 0.999289
0.999984 0.996517 0.999287
0.99472 0.995089 0.893068
0.999859 0.995636 0.913191
0.995149 0.998929 0.899741
0.995068 0.997221 0.882161
0.996648 0.995343 0.974805
1.0035 0.996196 0.989901
1.0003 0.996548 0.950209
0.99979 0.997199 0.916954
0.994717 0.9977 0.863374
0.998443 0.995721 0.980155
1.00127 0.997621 0.942632
0.998493 0.999326 0.912558
0.994792 0.998402 0.876522
0.995555 0.996288 0.975601
0.997833 0.998914 0.944604
0.995794 0.999805 0.904963
0.994832 0.995567 0.883616
1.00001 1.00392 0.990875
0.999996 1.00313 0.991651
0.999936 1.00222 0.992648
0.999868 1.00279 0.992176
1.00034 1.00342 0.990713
1.00016 1.00307 0.991494
1.00008 1.00271 0.991894
1.00035 1.0028 0.991479
1.00023 1.00273 0.99174
1.00012 1.00242 0.99207
1.00358 0.995549 0.992323
1.00473 0.995553 0.990001
1.00371 0.995372 0.992114
1.00214 1.00031 0.990131
1.00005 1.00512 0.990102
0.999721 1.00457 0.990645
0.999922 1.00442 0.990384
0.999945 1.00468 0.990183
1.00082 0.997552 0.993047
0.999882 1.00485 0.990158
0.999733 1.00512 0.990488
1.00261 0.995855 0.994198
1.00053 1.00271 0.991044
0.998572 0.997097 0.994299
0.998448 0.998277 0.999849
0.998791 1.00448 0.99186
0.999955 1.00492 0.989849
0.999445 1.00507 0.990592
0.994802 0.996532 0.916416
0.994759 0.996686 0.898434
0.999886 0.994849 0.910724
0.998762 1.00322 0.993221
0.999115 1.00363 0.99227
1.00025 1.00166 0.992815
0.995396 0.995025 0.892301
0.99776 0.998943 0.944842
0.994857 0.997417 0.969734
0.996128 0.998854 0.997221
0.995779 0.999903 0.919096
0.995562 0.999015 0.899081
0.994831 0.995837 0.894963
0.997704 1.00367 0.995519
0.99525 0.995806 0.913685
0.994732 0.995711 0.910185
0.996161 1.00246 0.998374
0.994825 0.999673 0.978527
0.99614 0.999941 0.944917
0.994872 0.994839 0.893235
0.994857 0.999956 0.913744
0.995761 1.00499 0.997911
0.994638 0.994693 0.929846
0.994785 0.994961 0.913723
0.994821 0.995804 0.883906
0.995009 1.00057 0.993696
0.995055 0.999873 0.956087
0.994934 0.999993 0.912406
0.99923 1.00262 0.994275
0.997768 1.00418 0.994573
0.995521 1.00515 0.998039
1.00053 1.00319 0.990689
1.00007 1.00349 0.991137
0.997844 1.00412 0.994564
1.00026 1.0033 0.990983
0.998394 1.00426 0.993421
0.996062 1.00467 0.99689
0.995704 1.0051 0.997686
0.998592 1.00352 0.993416
1.00009 1.0028 0.991735
0.999899 1.00334 0.991637
0.999989 1.00275 0.992097
0.999445 1.00277 0.99299
1.00004 1.00289 0.99178
0.999839 1.00226 0.992812
1.00046 1.00112 0.992638
1.00101 1.00256 0.99
1.00033 1.00259 0.991761
1.00049 1.00383 0.990217
1.00179 1.00371 0.987368
1.00183 1.00426 0.98707
1.00012 1.00493 0.989723
1.00109 1.00486 0.987683
0.999881 1.00404 0.990993
0.999736 1.00482 0.990586
0.999574 1.00495 0.990396
0.99975 1.00406 0.99128
0.99977 1.00336 0.991677
1.00001 1.00231 0.992398
0.999986 1.00295 0.991895
1.00007 1.00202 0.992623
1.00021 1.0005 0.99387
1.00015 1.00179 0.992753
1.00025 1.00035 0.993957
1.00008 0.998236 0.996841
1.00024 1.00036 0.993975
1.00013 0.998198 0.996539
0.999964 0.996911 0.998047
1.00016 0.998161 0.996236
0.999999 0.996832 0.998592
1 0.9968 0.999163
1.00025 1.00195 0.992226
1.00015 1.00025 0.994046
1.00016 1.00175 0.992793
1.00016 0.997826 0.99661
1.0001 1.00002 0.994442
1.00009 1.00148 0.992988
1.00003 0.996473 0.99927
1.00014 0.997726 0.996736
1.00006 0.999885 0.99473
1.00003 0.99644 0.999287
1.00013 0.997684 0.996787
1.00001 0.99647 0.99929
0.994836 0.994847 0.913328
0.994749 0.995719 0.897475
0.999845 0.996061 0.914282
1.00045 1.00289 0.991107
0.99478 0.996896 0.91461
0.995166 0.998264 0.89943
0.995242 0.996871 0.886059
0.998563 0.996281 0.978779
0.999556 0.998135 0.951951
0.998348 0.998711 0.902731
0.994772 0.998817 0.879469
0.996417 0.996236 0.97166
0.997497 0.998808 0.95238
0.997179 0.999906 0.908752
0.994815 0.996289 0.885523
0.994873 0.99737 0.967831
0.995396 0.999962 0.951639
0.994877 0.999971 0.913687
0.994879 0.994829 0.892358
1.00021 1.00423 0.990153
1.00003 1.00395 0.990764
0.999996 1.00309 0.991762
1.00031 1.00351 0.990687
1.00031 1.00344 0.990841
1.00014 1.00301 0.991587
1.00037 1.00278 0.991513
1.00024 1.00271 0.991831
1.0009 0.997294 0.993332
1.00275 0.995892 0.993649
1.00004 1.00459 0.990075
1.00124 1.00262 0.990883
0.999993 1.00513 0.990461
0.999933 1.00486 0.990121
0.999955 1.00493 0.989923
0.998168 0.997592 0.994851
0.99965 1.00507 0.990544
0.999416 1.00407 0.991919
0.998516 0.997879 0.999866
0.999946 1.00494 0.989901
0.996707 0.998404 0.994835
0.996166 0.999817 1.0023
0.998738 1.0053 0.991711
0.999813 1.00498 0.990493
0.994636 0.994825 0.934591
0.994792 0.996707 0.916665
0.994749 0.996766 0.896409
0.997527 1.00366 0.995768
0.996114 1.00236 0.997458
0.995241 0.994863 0.916485
0.995326 0.999983 0.953354
0.994833 0.999017 0.975429
0.994851 0.999943 0.912985
0.994699 0.995714 0.910214
0.994861 0.99523 0.893956
0.996066 1.00471 0.997608
0.994637 0.994708 0.929737
0.994777 0.994976 0.917811
0.994889 1.00139 0.997035
0.994806 0.996524 0.885718
0.994957 0.999258 0.95117
0.995055 0.999998 0.916967
0.995088 1.00437 0.998796
0.994683 0.994701 0.934242
0.994762 0.997133 0.914743
0.994757 0.998072 0.881834
0.995905 0.999969 0.912985
0.99492 0.998857 0.985325
0.995374 1.00075 0.943582
0.998246 1.00421 0.993886
0.995651 1.00515 0.997701
0.994917 1.00506 0.99999
1.00016 1.00325 0.991049
0.998401 1.00427 0.993436
0.996187 1.00387 0.997319
0.998754 1.00367 0.993332
0.995886 1.00415 0.997665
0.997691 1.0035 0.995886
0.999634 1.00292 0.992859
0.999934 1.00286 0.991772
0.999948 1.00234 0.992918
0.999587 1.00391 0.991032
0.999756 1.00155 0.993437
1.00081 1.00241 0.990418
1.00197 1.00326 0.987886
1.00405 1.00231 0.985079
1.00088 1.00375 0.989991
1.00214 1.00386 0.986798
1.00275 1.00327 0.987205
1.00055 1.00473 0.988589
1.00181 1.00417 0.9873
0.999815 1.00465 0.990312
1.00016 1.00496 0.989681
1.00085 1.0048 0.9878
0.999997 1.0028 0.991927
0.999838 1.00402 0.991018
0.999664 1.00489 0.990516
0.999826 1.00329 0.991768
1.00005 1.00229 0.992394
1.00017 1.00075 0.99368
1.00011 1.002 0.992625
1.00021 1.0005 0.993866
1.00004 0.998365 0.996273
1.00026 1.00036 0.993954
1.00011 0.99823 0.996283
0.999838 0.996997 0.999179
1.00014 0.998176 0.996256
0.999944 0.996916 0.998602
0.999962 0.996866 0.999164
1.00028 1.00215 0.991949
1.00021 1.00053 0.99364
1.00024 1.00198 0.992315
1.00016 0.997978 0.99644
1.00016 1.00026 0.993997
1.00016 1.00176 0.992791
1.00002 0.996567 0.99924
1.00015 0.997819 0.996619
1.0001 1.00003 0.994311
1.00004 0.996459 0.999275
1.00014 0.997723 0.996741
1.00003 0.996448 0.999288
0.994672 0.994727 0.930425
0.994802 0.995757 0.913139
0.994731 0.996501 0.897712
1.0004 1.00291 0.99119
1.00039 1.00293 0.99107
1.00044 1.0033 0.990816
0.994769 0.994828 0.913381
0.994737 0.99619 0.914638
0.995237 0.998235 0.899115
0.996135 0.995805 0.973998
0.998455 0.999354 0.943451
0.995274 0.999918 0.918834
0.994825 0.996864 0.882055
0.99492 0.997212 0.970943
0.996255 0.999977 0.948751
0.994833 0.999965 0.914182
0.994873 0.994865 0.89298
0.994869 0.997617 0.966727
0.995239 0.999975 0.952993
0.994941 1.00001 0.91288
0.994817 0.996269 0.888836
1.00036 1.00408 0.990035
1.00019 1.00423 0.990126
1.00008 1.00399 0.990652
1.00037 1.00345 0.990664
1.00026 1.00345 0.990971
1.00039 1.00276 0.991547
0.997731 0.998014 0.99539
0.998249 0.997723 0.999906
0.999991 1.00488 0.989997
0.999996 1.00325 0.991982
0.99978 1.00505 0.990495
1.00004 1.00483 0.989799
0.999476 1.00498 0.990573
0.996404 0.998012 0.995173
0.998764 1.00478 0.992365
0.996018 1.00062 1.00157
0.999823 1.00457 0.990584
0.995355 0.997643 0.995375
0.99648 1.00221 0.998245
0.998674 1.00523 0.992517
0.994645 0.994808 0.939667
0.994639 0.994823 0.936003
0.994788 0.996808 0.916897
0.99636 1.00454 0.997285
0.995018 1.00132 0.994272
0.994663 0.994724 0.92963
0.994869 0.999168 0.954033
0.994932 0.999968 0.908049
0.994775 0.994695 0.921899
0.994815 0.997002 0.882331
0.995215 1.00413 0.999177
0.994686 0.994724 0.935846
0.994724 0.996394 0.914781
0.994944 0.999122 0.981473
0.994771 0.998641 0.876878
0.994819 0.999961 0.913443
0.995101 1.00053 0.952883
0.995 1.00423 0.996969
0.994662 0.99474 0.930791
0.99512 0.999176 0.900024
0.994649 0.997838 0.883604
0.996078 0.999178 0.904915
0.995975 0.999984 0.951731
0.995344 1.00027 0.974999
0.995923 1.00518 0.997386
0.99519 1.00381 0.999918
0.996527 1.00344 0.998606
0.998871 1.00377 0.993248
0.99606 1.00349 0.997651
0.996817 1.00391 0.996364
0.999703 1.00281 0.993033
1.00007 1.0025 0.993025
1.0006 1.00363 0.990623
1.00142 1.00465 0.987564
1.00061 1.00231 0.990847
1.00221 1.00341 0.987434
1.00388 1.00383 0.984255
1.00504 1.00174 0.98391
1.00356 1.00214 0.985812
1.00401 1.00254 0.984951
1.00249 1.004 0.986228
1.00224 1.00343 0.987874
1.00244 1.00301 0.987616
1.00012 1.00489 0.989183
1.00069 1.00472 0.988741
1.00181 1.00409 0.987534
0.999908 1.00396 0.990883
0.999945 1.00462 0.990325
1.00018 1.00498 0.989637
1.00013 1.00112 0.993362
1.00006 1.00276 0.991916
0.999799 1.004 0.991043
1.00009 1.00227 0.992389
1.00018 1.00076 0.993676
0.99995 0.998584 0.996201
1.00022 1.0005 0.993863
1.00004 0.998364 0.996268
0.999771 0.997159 0.99917
1.00011 0.99822 0.99628
0.99987 0.997025 0.998613
0.999906 0.99696 0.999168
1.00034 1.00232 0.991862
1.00029 1.00074 0.993495
1.00031 1.00215 0.992003
1.00017 0.998162 0.99624
1.00022 1.00052 0.993721
1.00026 1.00199 0.992404
1 0.996701 0.999201
1.00016 0.997963 0.996452
1.00017 1.00026 0.993948
1.00003 0.996545 0.999249
1.00015 0.997815 0.996628
1.00004 0.996453 0.999281
0.994662 0.994698 0.933976
0.994658 0.994713 0.930318
0.994811 0.996499 0.913058
1.00028 1.00317 0.991014
1.00028 1.00359 0.990759
1.00035 1.00293 0.991273
1.00037 1.00299 0.991066
1.00035 1.00337 0.990782
1.00029 1.0034 0.990856
1.00048 1.00345 0.990512
0.99473 0.995611 0.909602
0.994768 0.994913 0.917526
0.994694 0.995604 0.914672
0.994842 0.99511 0.893606
0.994872 0.99711 0.968233
0.995228 0.999964 0.946528
0.994875 0.999922 0.919488
0.994861 0.998032 0.96605
0.994927 1 0.94553
0.995007 1.00001 0.917808
0.994789 0.995973 0.894543
0.995385 0.996603 0.969992
0.994941 1.00039 0.945101
0.994797 0.999911 0.907843
0.994778 0.999007 0.881378
0.999806 1.00465 0.990467
1.00029 1.00414 0.990053
1.0002 1.00432 0.9901
1.00044 1.00337 0.990641
0.996289 0.997775 0.995554
0.99588 1.00151 1.00083
1.00004 1.00488 0.989698
0.999452 1.00503 0.990653
0.999072 1.00463 0.99302
0.999751 1.00468 0.990546
0.998467 1.00523 0.992521
0.995253 0.998853 0.992637
0.995865 1.0034 0.998629
0.997936 1.005 0.993204
0.995192 0.99862 0.991263
0.99748 1.00439 0.996834
0.99465 0.994818 0.934662
0.994643 0.994762 0.942502
0.994632 0.994808 0.93741
0.995076 1.00387 0.999517
0.994935 0.997903 0.986061
0.994675 0.994722 0.937474
0.996437 1.00074 0.944181
0.994853 0.99993 0.918591
0.994687 0.995839 0.914819
0.994754 0.99897 0.879842
0.994967 1.00273 0.997603
0.994657 0.99472 0.930698
0.995244 0.998484 0.899693
0.994921 1.00062 0.97618
0.994675 0.99769 0.874087
0.99725 0.999895 0.908415
0.994921 0.999993 0.944892
0.995464 1.00466 0.991385
0.994945 0.994848 0.913919
0.995013 0.997063 0.885482
0.998695 0.998096 0.912617
0.995311 0.999962 0.951757
0.994887 1.00001 0.969075
0.995423 1.00282 1
0.995754 1.00414 0.998571
0.997944 1.00132 0.996952
0.996002 1.00428 0.996842
0.998558 1.00305 0.99358
1.00293 1.00043 0.989825
1.00162 1.00327 0.990212
1.00179 1.00456 0.987438
1.00285 1.00425 0.984838
1.00248 1.00357 0.986982
1.0041 1.00383 0.983859
1.00448 1.0037 0.982963
1.00504 1.00106 0.984571
1.00511 1.00178 0.984058
1.00499 1.00188 0.983847
1.00311 1.00225 0.986428
1.00362 1.00214 0.986037
1.00396 1.00278 0.984823
1.00164 1.00425 0.987775
1.0021 1.00339 0.987859
1.00213 1.00277 0.988023
1.00009 1.0049 0.989573
1.00016 1.00491 0.989374
1.00085 1.0047 0.988895
1.00003 1.00196 0.992663
1.00004 1.00381 0.990894
1.00006 1.00459 0.990339
0.99986 0.998817 0.996108
1.00014 1.00114 0.993346
1.00012 1.00271 0.991905
1.00019 1.00075 0.993672
0.999949 0.998597 0.996192
0.999679 0.997366 0.999156
1.00005 0.998357 0.996263
0.999762 0.997196 0.999167
0.999836 0.997057 0.999172
1.00028 1.00328 0.990984
1.0004 1.00249 0.991624
1.00033 1.001 0.993152
1.00035 1.00233 0.991849
1.00015 0.998405 0.996024
1.00028 1.00075 0.993494
1.00029 1.0022 0.992057
0.999972 0.996869 0.999154
1.00016 0.998159 0.996253
1.00022 1.00052 0.993802
1.00001 0.99667 0.999213
1.00016 0.997953 0.996465
1.00003 0.996519 0.999259
0.99466 0.9947 0.929501
0.994677 0.994707 0.935605
0.994643 0.994751 0.930194
1.00035 1.00312 0.99104
1.00019 1.00366 0.99073
1.0001 1.00384 0.990621
1.00014 1.00362 0.99073
1.0003 1.00401 0.990417
1.00035 1.00305 0.991061
1.00029 1.00346 0.990747
1.00032 1.00337 0.990852
1.0004 1.00356 0.990589
1.00013 1.00393 0.990778
0.99512 0.998607 0.899143
0.994746 0.99585 0.909668
0.994795 0.994798 0.921661
0.994815 0.995655 0.894766
0.994938 0.999981 0.908464
0.994885 0.998718 0.964623
0.994924 1.00012 0.952717
0.994894 0.997002 0.96681
0.99501 1.00014 0.953133
0.994843 0.999956 0.914879
0.994931 0.998752 0.879051
0.995016 0.995063 0.971727
0.994928 1.00013 0.953527
0.995681 0.999877 0.918063
0.994743 0.997724 0.882237
0.99877 1.00378 0.992838
0.999857 1.00474 0.990412
1.00027 1.00417 0.990071
0.995063 0.999828 0.989816
0.995495 1.00413 0.999
0.999759 1.00463 0.990508
0.997887 1.00523 0.992526
0.99813 1.00481 0.993236
0.996736 1.00398 0.996846
0.994928 0.998892 0.991447
0.996204 1.00235 0.998086
0.995979 1.00017 0.991512
0.995056 0.996233 0.915959
0.994652 0.99483 0.936049
0.994656 0.994714 0.945343
0.99499 1.00102 0.997978
0.994893 1.00112 0.972383
0.994651 0.994761 0.930587
0.996421 0.999994 0.950298
0.995201 0.999903 0.918411
0.995463 0.998103 0.899373
0.99471 0.99779 0.864436
0.995265 1.00488 0.99181
0.994879 0.995457 0.91375
0.995187 0.997099 0.882866
0.994896 0.999996 0.970091
0.998517 0.999242 0.913149
0.996183 0.999959 0.947548
0.995553 1.0033 0.988768
0.994846 0.994865 0.89379
0.999472 0.997959 0.917105
0.99779 0.998699 0.944455
0.994861 0.997482 0.971784
0.995151 1.00482 0.998518
0.997889 1.00153 0.996848
1.0026 0.999981 0.992017
0.997484 1.00329 0.994052
1.00192 1.00073 0.990172
1.00398 0.999126 0.988181
1.00212 1.00444 0.987309
1.00294 1.00409 0.984919
1.0044 1.00158 0.984969
1.00432 1.00381 0.983464
1.00445 1.0034 0.983033
1.00492 1.00071 0.985007
1.00513 0.999383 0.986016
1.00514 1.0012 0.984242
1.00499 1.00101 0.984637
1.0048 1.0017 0.984586
1.00509 1.00176 0.983994
1.00494 1.00202 0.983785
1.00267 1.00339 0.986679
1.00307 1.00227 0.986676
1.00364 1.0022 0.986264
1.00101 1.00441 0.988515
1.00146 1.00425 0.987901
1.00196 1.00335 0.987842
0.999937 1.0034 0.991346
1.00022 1.00479 0.989588
1.00022 1.00494 0.989564
0.999764 0.999235 0.996434
1.00008 1.00197 0.992628
1.00016 1.00367 0.990906
0.999599 0.997613 0.997963
0.999857 0.998879 0.996367
1.00016 1.00115 0.993329
0.999947 0.998614 0.996184
0.999673 0.997413 0.999149
0.999753 0.997229 0.999164
1.0002 1.00362 0.990741
1.00039 1.00276 0.991369
1.00023 1.00336 0.990951
1.00034 1.00127 0.992863
1.00035 1.00255 0.991617
1.00011 0.99867 0.995818
1.00032 1.00101 0.993153
1.00038 1.0023 0.991837
0.999929 0.99708 0.999104
1.00015 0.998391 0.996037
1.00027 1.00076 0.993493
0.999976 0.996841 0.999169
1.00016 0.998153 0.996267
1.00001 0.996642 0.999224
0.995627 0.99483 0.916973
0.994655 0.994705 0.92941
0.99467 0.99468 0.937251
1.00041 1.00321 0.99081
1.00034 1.00316 0.991066
1.00012 1.00374 0.990702
1.00022 1.00365 0.990758
1.00024 1.00376 0.990664
1.0002 1.00394 0.990517
1.00029 1.00425 0.990001
0.999883 1.00434 0.990319
1.00038 1.00329 0.990847
1.00021 1.00365 0.990667
1.00002 1.00399 0.99074
0.999436 1.00441 0.991981
0.995288 0.997456 0.884665
0.995535 0.998775 0.898666
0.994725 0.99611 0.909722
0.995204 0.99845 0.884723
0.994842 0.999945 0.914613
0.994938 1.00038 0.945104
0.995422 0.997092 0.964738
0.995042 0.995201 0.973386
0.994722 0.997752 0.873051
0.994907 0.999989 0.949167
0.997199 0.999881 0.908629
0.994882 0.996281 0.974032
0.995527 0.999969 0.953577
0.999329 0.998146 0.909306
0.99891 1.00197 0.994942
0.998982 1.00378 0.992782
0.99978 1.00482 0.990358
0.994836 0.9993 0.991679
0.996133 1.00356 0.996855
0.998225 1.00467 0.993266
0.997468 1.00216 0.997893
0.995504 1.00012 0.991612
0.997002 0.999415 0.993964
0.994774 0.998078 0.894338
0.994932 0.995631 0.919901
0.99465 0.994826 0.937436
0.994957 1.00511 0.992145
0.994884 0.999857 0.970375
0.994795 0.996178 0.913663
0.995221 0.999993 0.945819
0.998621 0.997893 0.903647
0.995302 0.996933 0.886884
0.995852 1.00349 0.988736
0.994816 0.995558 0.89823
0.999815 0.996924 0.908791
0.994894 0.997706 0.967824
0.997516 0.99878 0.952101
0.997592 1.00033 0.99222
0.99984 0.995825 0.908708
1.00003 0.998048 0.952018
0.994868 0.99634 0.967418
0.997865 1.00175 0.99684
1.00194 0.999047 0.99249
1.00372 0.999476 0.98955
1.00088 1.00105 0.990523
1.00346 0.999731 0.98815
1.00458 0.998279 0.987804
1.00301 1.00393 0.984999
1.00424 1.00158 0.984944
1.00499 0.998273 0.987075
1.00441 1.00311 0.983101
1.0049 1.00053 0.98504
1.00508 0.997745 0.987609
1.00514 0.997767 0.987595
1.00516 0.999827 0.985519
1.00511 0.99927 0.986114
1.00511 1.00093 0.984526
1.0051 1.00112 0.98436
1.00494 1.00096 0.984703
1.00409 1.00195 0.985524
1.00463 1.00167 0.98472
1.00503 1.00166 0.983928
1.00214 1.00361 0.987404
1.00273 1.00331 0.986665
1.00307 1.00224 0.986923
1.00041 1.004 0.989972
1.00107 1.00443 0.988505
1.00127 1.00423 0.988029
0.999689 0.999992 0.99517
1.00009 1.00324 0.991338
1.00038 1.00468 0.989601
0.999503 0.997845 0.999113
0.999747 0.999331 0.995811
1.00013 1.00196 0.992592
0.999598 0.997617 0.999127
0.999838 0.998928 0.996066
0.999669 0.997466 0.999141
1.00051 1.00337 0.990582
1.00025 1.00361 0.990722
1.00039 1.00307 0.991054
1.00031 1.00158 0.992618
1.00035 1.0028 0.991367
1.00023 1.00338 0.990918
1.00007 0.998927 0.995643
1.00033 1.00128 0.992865
1.00032 1.0026 0.991609
0.999879 0.997295 0.999055
1.00012 0.998649 0.99583
1.00032 1.00102 0.993153
0.999933 0.997037 0.999119
1.00015 0.99838 0.996051
0.99998 0.996799 0.999183
0.995407 0.996472 0.885958
0.995391 0.994845 0.916823
0.994671 0.994711 0.929319
1.00025 1.00342 0.990795
1.001 1.00289 0.990679
1.00028 1.0036 0.990562
1.00025 1.00369 0.990785
1.00038 1.00368 0.990706
1.00003 1.00397 0.990617
1.00006 1.00426 0.990306
1.00023 1.00426 0.990097
1.00019 1.00462 0.98984
0.999835 1.00118 0.993472
1.00016 1.00382 0.990702
0.99952 1.00407 0.991712
0.999814 0.997394 0.904737
0.995239 0.99744 0.879756
0.995749 0.998992 0.898229
0.994708 0.997854 0.86369
0.99681 0.998838 0.917901
0.994881 0.999982 0.947831
0.995182 0.995084 0.971047
0.994965 0.996411 0.972565
0.998521 0.999326 0.911956
0.996177 0.999969 0.946181
0.994894 0.997889 0.97345
0.998744 0.9988 0.944464
1.00206 0.998218 0.993363
0.999043 1.00193 0.99472
0.999187 1.00383 0.992741
0.995021 1.00027 0.99167
0.998499 1.002 0.997688
0.997627 0.999604 0.993333
0.999556 0.999002 0.990246
0.999918 0.994838 0.916012
0.994896 0.997169 0.895124
0.994781 0.99486 0.923759
0.996042 1.00378 0.988857
0.994883 0.997739 0.965922
0.994802 0.996104 0.898414
0.998813 0.998511 0.943449
0.999803 0.997438 0.917968
0.997381 0.999791 0.990196
0.999867 0.995492 0.913983
1.00136 0.997442 0.942751
0.994898 0.996124 0.970855
0.998818 0.996453 0.992355
1.00005 0.996136 0.952266
0.996367 0.996081 0.973271
1.00137 0.997928 0.992919
1.00354 0.998487 0.989504
1.0049 0.997422 0.98921
1.00287 1.00029 0.988123
1.00431 0.998469 0.987807
1.00479 0.99688 0.988756
1.00413 1.00159 0.98492
1.00488 0.998471 0.987005
1.00509 0.995994 0.989136
1.00489 1.00036 0.985072
1.00507 0.997718 0.98761
1.00512 0.996163 0.989208
1.00511 0.996836 0.988784
1.00515 0.997597 0.987796
1.00517 0.998511 0.987004
1.00515 1.00016 0.985415
1.00516 0.999868 0.985552
1.00509 0.99916 0.986212
1.00499 1.00077 0.985027
1.00511 1.00094 0.984577
1.0051 1.00104 0.984477
1.00334 1.00263 0.986259
1.00406 1.00202 0.985512
1.00447 1.00172 0.984853
1.00117 1.00361 0.989019
1.0022 1.00358 0.987386
1.0028 1.00325 0.98665
0.999827 1.00083 0.994076
1.00052 1.00385 0.989982
1.00118 1.00439 0.988495
0.999535 0.998129 0.99898
0.999702 1.00009 0.995119
1.00021 1.00314 0.991332
0.99954 0.99787 0.998487
0.999733 0.999419 0.995782
0.999607 0.997673 0.999115
1.00073 1.00295 0.990628
1.00033 1.00348 0.990626
1.00033 1.00343 0.990725
1.00032 1.0036 0.990704
1.00032 1.00315 0.991052
1.00027 1.00192 0.992341
1 0.999188 0.995507
1.00031 1.00157 0.992623
1.00028 1.00287 0.991365
0.999822 0.997497 0.999011
1.00007 0.99891 0.995652
1.00032 1.00129 0.992867
0.999883 0.997256 0.99907
1.00012 0.998632 0.995841
0.999939 0.997002 0.999134
0.999852 0.995249 0.914986
0.995451 0.99668 0.888031
0.995243 0.99486 0.916665
1.0001 1.00362 0.99078
1.00019 1.00385 0.990454
1.00071 1.00291 0.990903
1.00184 1.00309 0.988865
1.00037 1.00386 0.990416
1.00019 1.00425 0.990293
1.0002 1.00423 0.990194
1.00007 1.00446 0.990099
1.00052 1.00344 0.989357
1.00087 1.00025 0.992989
1.00423 0.998148 0.989041
0.999862 1.0011 0.993669
0.999768 1.00361 0.991439
0.999115 0.997628 0.951654
0.999771 0.997817 0.908699
0.995302 0.997068 0.881305
0.999168 0.999552 0.901822
0.995863 0.999957 0.951041
0.994895 0.996349 0.97406
0.994874 0.997887 0.975441
0.997436 0.998631 0.95381
0.995955 0.99831 0.974618
1.00318 0.996173 0.992807
1.00139 0.998847 0.993483
0.999193 1.00198 0.994489
0.998398 0.999568 0.992772
1.00056 0.999227 0.988823
1.00001 0.994896 0.948102
0.999901 0.994869 0.919413
0.995006 0.996452 0.896009
0.997013 0.999583 0.988106
0.994919 0.996046 0.967697
0.999855 0.995821 0.91497
1.00013 0.998271 0.951452
0.998143 0.997748 0.992717
1.00128 0.996192 0.951121
0.996619 0.995625 0.970056
1.00139 0.996339 0.991172
0.999224 0.995823 0.978658
1.00338 0.99762 0.989508
1.00483 0.996672 0.989154
1.00496 0.995913 0.990115
1.00408 0.998675 0.987808
1.0047 0.99696 0.988693
1.00513 0.995278 0.989917
1.00476 0.998654 0.986937
1.00509 0.996078 0.989106
1.00509 0.995049 0.9902
1.00507 0.997697 0.987612
1.00513 0.996159 0.989169
1.00512 0.995851 0.989763
1.00511 0.99661 0.988928
1.00513 0.997499 0.988138
1.00515 0.997422 0.987998
1.00517 0.998532 0.986981
1.00519 0.999294 0.986227
1.00513 1.00028 0.985333
1.00515 1.00021 0.985385
1.00517 0.999909 0.985584
1.0044 1.00113 0.985761
1.00493 1.00084 0.985048
1.0051 1.00096 0.984628
1.00203 1.00291 0.988185
1.00335 1.00261 0.986256
1.00404 1.00209 0.985501
1.00015 1.0013 0.993015
1.00124 1.00354 0.989006
1.00219 1.00361 0.987367
0.999627 0.998605 0.998727
0.999881 1.00084 0.994048
1.00067 1.00366 0.989992
0.999588 0.998223 0.998904
0.999721 1.00019 0.995067
0.99959 0.997902 0.999037
1.00176 1.0034 0.988255
1.00077 1.00282 0.990614
1.00042 1.00346 0.990396
1.00017 1.00353 0.99067
1.00027 1.00348 0.990691
1.00025 1.00236 0.991918
1.00026 1.0032 0.991051
1.00025 1.00192 0.992348
0.999917 0.999476 0.995372
0.999755 0.997699 0.998976
1 0.999163 0.995515
1.0003 1.00156 0.992628
0.999826 0.997474 0.999024
1.00006 0.998897 0.995661
0.999888 0.997213 0.999084
1.00036 0.995222 0.955156
0.999864 0.995492 0.91401
0.995408 0.997203 0.885021
1.00011 1.00411 0.990346
1.00047 1.00286 0.991127
1.00049 1.00376 0.990421
1.0017 1.00303 0.988945
1.00324 1.00272 0.986533
1.0008 1.00342 0.989485
0.999934 1.00434 0.990357
1.00114 1.0035 0.988731
1.00064 1.00058 0.992941
1.00256 1.00039 0.989098
1.00451 0.997217 0.990235
1.0044 0.996839 0.989866
1.00373 0.997989 0.989746
0.99955 1.00135 0.99387
0.996046 0.996355 0.97415
1.0002 0.997121 0.949407
0.998371 0.997756 0.917654
0.99805 0.999313 0.944375
0.994861 0.998208 0.976492
0.996136 0.99821 0.979081
0.999969 0.998189 0.992254
1.00341 0.99588 0.992802
1.00101 0.999359 0.993605
1.00223 0.999491 0.98734
0.996714 0.997491 0.974787
1.00035 0.995226 0.956804
0.999887 0.994847 0.910723
0.997578 0.998804 0.992956
0.9967 0.994859 0.972274
1.00029 0.996668 0.949709
1.00113 0.996529 0.991296
0.998734 0.99572 0.977879
1.0038 0.995843 0.991175
1.00304 0.998007 0.988107
1.00474 0.995988 0.989072
1.00487 0.995756 0.990102
1.00513 0.994871 0.990525
1.00461 0.997044 0.98863
1.00513 0.995238 0.989872
1.00508 0.994961 0.990473
1.00509 0.996149 0.989075
1.00509 0.995185 0.990167
1.00513 0.995299 0.990241
1.00514 0.996149 0.989129
1.00512 0.995816 0.989665
1.00512 0.996565 0.988947
1.00512 0.996395 0.98907
1.00513 0.997355 0.988298
1.00518 0.998666 0.986932
1.00517 0.998555 0.986957
1.00519 0.999359 0.986197
1.00518 0.999793 0.985877
1.00478 1.00027 0.985788
1.00513 1.00032 0.985342
1.00515 1.00025 0.985354
1.00308 1.00162 0.987675
1.0044 1.00117 0.985767
1.00486 1.00091 0.985069
1.00045 1.00163 0.992135
1.00205 1.00293 0.988181
1.00337 1.00259 0.986253
0.999782 0.999126 0.998395
1.00023 1.00127 0.993004
1.00132 1.00347 0.988993
0.99971 0.998722 0.998605
0.999926 1.00087 0.994021
0.999657 0.998309 0.998807
1.00307 1.00303 0.986239
1.00185 1.00351 0.988246
1.00117 1.00369 0.988925
1.00075 1.00277 0.9906
1.0005 1.00342 0.990307
1.00043 1.00271 0.991312
1.00022 1.00354 0.990656
1.00024 1.00237 0.991923
0.999836 0.999851 0.995141
1.00024 1.00192 0.992356
0.99992 0.999437 0.995384
0.999689 0.99791 0.998937
0.99976 0.997675 0.998987
1 0.99914 0.995523
0.999827 0.997437 0.999037
0.996617 0.99551 0.975766
1.00058 0.995356 0.946861
0.999841 0.995148 0.920212
1.00473 1.00148 0.984807
1.00062 1.00367 0.990424
1.00158 1.00299 0.989026
1.00109 1.00343 0.989259
1.00315 1.00265 0.986542
1.00275 1.00117 0.98821
1.00174 1.00357 0.988109
1.00039 1.00086 0.992898
1.00295 1.00025 0.989102
1.00451 0.996937 0.989887
1.00482 0.997116 0.988437
1.00422 0.995794 0.991404
1.00429 0.99651 0.989725
1.00315 0.997747 0.990451
1.00007 0.9972 0.993204
0.995917 0.996338 0.97249
0.999806 0.996634 0.947798
0.996127 0.997594 0.977193
1.00019 0.997162 0.99433
1.00307 0.99556 0.99278
1.00096 0.997124 0.987902
0.996537 0.996193 0.976497
1.00003 0.994912 0.948175
1.00054 0.997046 0.991474
0.998534 0.996254 0.976653
1.00347 0.995547 0.991468
1.00297 0.997583 0.988463
1.00459 0.994962 0.991222
1.00447 0.997392 0.990746
1.0048 0.995568 0.990091
1.00514 0.994884 0.990404
1.00513 0.994887 0.990434
1.00512 0.995205 0.989829
1.00507 0.99496 0.990462
1.00514 0.995075 0.990357
1.00509 0.99532 0.990134
1.00512 0.995296 0.990193
1.00512 0.996065 0.989442
1.00512 0.995785 0.989567
1.00512 0.99658 0.988945
1.00518 0.997915 0.987604
1.00513 0.997208 0.988458
1.00518 0.998541 0.987093
1.0052 0.999479 0.986083
1.00518 0.999425 0.986167
1.00518 0.999805 0.98582
1.00487 1.00006 0.986043
1.00365 1.00058 0.987684
1.00479 1.00034 0.985823
1.00512 1.00038 0.985351
1.00096 1.00134 0.991569
1.00303 1.00167 0.987681
1.00441 1.00121 0.985773
0.999877 0.999615 0.998102
1.00063 1.00144 0.992115
1.00207 1.00292 0.988179
0.999848 0.999219 0.998285
1.00033 1.0012 0.992991
0.999793 0.998816 0.998483
1.0045 1.00131 0.985281
1.00309 1.00306 0.986275
1.00226 1.00361 0.987249
1.00195 1.00361 0.988236
1.00122 1.00364 0.988967
1.0007 1.00319 0.99041
1.0006 1.00337 0.990216
1.00031 1.00286 0.991309
0.999802 1.00034 0.994713
1.00019 1.00241 0.991927
0.999839 0.999796 0.995161
0.999638 0.998163 0.998866
0.999923 0.999401 0.995396
0.999691 0.997879 0.998951
0.999764 0.997654 0.998997
1.00087 0.995616 0.991717
0.996861 0.995107 0.972118
1.00005 0.995106 0.955904
1.00385 1.00085 0.986205
1.00512 0.999714 0.985918
1.00465 1.00126 0.984918
1.00137 1.00343 0.989031
1.00304 1.00259 0.986543
1.00312 1.0011 0.988
1.00508 0.997764 0.987767
1.00334 1.0001 0.989102
1.00451 0.996668 0.98953
1.00484 0.997142 0.988676
1.00501 0.996205 0.989217
1.00428 0.995424 0.991423
1.0041 0.995944 0.991186
1.00445 0.996299 0.989579
1.00017 0.997402 0.993347
0.995878 0.996521 0.970553
1.00051 0.996764 0.996469
1.00414 0.99566 0.992139
1.00069 0.997532 0.988068
0.996567 0.995594 0.974132
1.0035 0.99496 0.99173
1.00291 0.997687 0.988845
1.00463 0.995083 0.99148
1.00455 0.996655 0.990668
1.00515 0.994929 0.990375
1.00521 0.995061 0.990538
1.00515 0.994909 0.990282
1.00513 0.994898 0.990423
1.00514 0.994986 0.990377
1.00507 0.99496 0.990452
1.00514 0.995053 0.990329
1.00516 0.995591 0.989886
1.00511 0.995298 0.990145
1.00513 0.996076 0.989437
1.00518 0.997437 0.988094
1.00512 0.996597 0.988943
1.00518 0.997928 0.987613
1.00522 0.999172 0.986337
1.00518 0.998414 0.987253
1.0052 0.999429 0.98614
1.00494 0.999913 0.986055
1.00518 0.999817 0.985763
1.00486 1.00005 0.986021
1.00381 1.00024 0.987742
1.00128 1.00079 0.991511
1.00362 1.00062 0.98768
1.00479 1.00041 0.985859
0.999954 1.00005 0.997857
1.00102 1.00127 0.991563
1.00296 1.00176 0.987688
0.999936 0.999733 0.998002
1.00074 1.00135 0.992101
0.999911 0.999325 0.998178
1.00503 1.0005 0.985345
1.00461 1.00126 0.985161
1.0036 1.00226 0.986047
1.00312 1.00309 0.986309
1.0022 1.00367 0.987253
1.00125 1.00347 0.98916
1.00125 1.0036 0.98901
1.00057 1.00331 0.990434
0.999933 1.00089 0.993975
1.00022 1.00298 0.991309
0.999795 1.00029 0.994733
0.99962 0.998521 0.998721
0.999843 0.999745 0.99518
0.999631 0.998118 0.998895
0.999694 0.997853 0.998964
1.00419 0.994911 0.992352
1.00098 0.995418 0.990197
0.996697 0.994886 0.972129
1.00512 0.998446 0.987084
1.0042 1.00043 0.986269
1.00514 0.998483 0.987126
1.00512 0.999706 0.985943
1.00459 1.00102 0.985038
1.00512 0.996988 0.988292
1.00349 1.00102 0.987796
1.00508 0.997912 0.987623
1.00513 0.995618 0.989571
1.00486 0.997162 0.98892
1.00497 0.996275 0.989127
1.00426 0.995553 0.99153
1.00378 0.995968 0.990958
1.00021 0.997555 0.993436
1.00516 0.994919 0.990359
1.00416 0.996188 0.992172
1.00047 0.997547 0.98821
1.00466 0.995204 0.991739
1.00458 0.995794 0.990598
1.00515 0.994909 0.990418
1.0052 0.994962 0.990458
1.00519 0.994928 0.990518
1.00513 0.994908 0.990412
1.00513 0.994969 0.990399
1.00519 0.995175 0.990264
1.00513 0.995028 0.990301
1.00516 0.995595 0.98983
1.00518 0.997119 0.988397
1.00514 0.996089 0.989432
1.00518 0.997456 0.988097
1.00524 0.998869 0.986635
1.00518 0.997941 0.987622
1.00522 0.999167 0.986356
1.00501 0.999818 0.98605
1.00519 0.999378 0.986198
1.00494 0.99992 0.98607
1.00393 1.00013 0.98765
1.00486 1.00005 0.985998
1.00381 1.00025 0.987733
1.00134 1.0004 0.993077
1.00017 1.00003 0.995118
1.00133 1.00074 0.992186
1.00359 1.00066 0.987677
1.00001 1.00012 0.997792
1.00114 1.00112 0.991556
0.999997 0.999838 0.997897
1.0052 0.998416 0.987144
1.00515 0.999553 0.986039
1.00507 1.00038 0.985421
1.00459 1.00068 0.985892
1.00472 1.00121 0.985044
1.00364 1.0023 0.986023
1.00223 1.00274 0.988047
1.00215 1.00374 0.987257
1.00116 1.00352 0.989186
1.00027 1.00143 0.992891
1.00044 1.00344 0.990457
0.999863 1.00091 0.993995
0.999637 0.999031 0.998463
0.999789 1.00023 0.994753
0.999595 0.998439 0.998781
0.999629 0.998075 0.998919
1.00514 0.995117 0.990115
1.00448 0.994907 0.992428
1.00134 0.994889 0.98871
1.00513 0.997376 0.987975
1.00513 0.998505 0.986946
1.00456 1.00003 0.986324
1.00514 0.998596 0.987058
1.00512 0.999709 0.985969
1.00514 0.995912 0.989664
1.0051 0.997004 0.988209
1.00507 0.998065 0.987481
1.00512 0.995624 0.989579
1.00498 0.996374 0.989036
1.0043 0.995783 0.991664
1.0052 0.994938 0.990567
1.00516 0.994926 0.990501
1.00421 0.996744 0.99221
1.00516 0.99489 0.990455
1.0052 0.994938 0.990377
1.00519 0.994927 0.990475
1.0052 0.995074 0.990518
1.00513 0.994951 0.990422
1.00517 0.995169 0.990223
1.0052 0.996899 0.988611
1.00516 0.995598 0.989773
1.00519 0.997127 0.988404
1.00525 0.998606 0.986899
1.00518 0.997475 0.9881
1.00523 0.998867 0.986648
1.00507 0.999738 0.986044
1.00522 0.999161 0.986375
1.00501 0.999817 0.986064
1.00402 1.0001 0.987515
1.00494 0.999927 0.986084
1.00394 1.00012 0.987648
1.00145 1.00011 0.993196
1.00381 1.00025 0.987724
1.00148 1.00032 0.993018
1.00013 1 0.995285
1 1.00025 0.996445
1.00148 1.00066 0.992741
1.00002 1.00023 0.997748
1.00517 0.997843 0.987775
1.00522 0.99916 0.986302
1.0052 0.998217 0.987295
1.00489 0.999972 0.98611
1.00516 0.999626 0.985962
1.00509 1.00027 0.985496
1.00462 1.00064 0.985889
1.00326 1.00129 0.987605
1.00368 1.00233 0.985997
1.00226 1.00269 0.988036
1.00071 1.00162 0.991875
1.00106 1.00357 0.989213
1.0001 1.00156 0.992923
0.999706 0.999742 0.998099
0.999784 1.00094 0.994015
0.999592 0.998921 0.998568
0.999583 0.998363 0.998831
1.00518 0.995133 0.990178
1.00516 0.995129 0.990101
1.00467 0.994888 0.99247
1.00516 0.9966 0.988948
1.00513 0.997423 0.987958
1.00513 0.998562 0.986804
1.00513 0.998708 0.986991
1.00515 0.99589 0.989544
1.00509 0.997021 0.988125
1.00512 0.995616 0.989587
1.00518 0.995134 0.990474
1.00519 0.99494 0.990549
1.00517 0.994929 0.990643
1.00515 0.995614 0.989969
1.0052 0.994926 0.990433
1.0052 0.995158 0.990372
1.00521 0.996612 0.989095
1.00516 0.99516 0.990182
1.00522 0.99688 0.988616
1.00523 0.998401 0.987135
1.00519 0.997139 0.988412
1.00524 0.998608 0.986901
1.00512 0.999611 0.986091
1.00523 0.998865 0.986662
1.00507 0.999732 0.986058
1.00411 1.00009 0.987366
1.00501 0.999816 0.986078
1.00403 1.00008 0.987519
1.00155 1.00003 0.993138
1.00394 1.0001 0.987646
1.00157 1.00006 0.993108
1.00017 0.999909 0.995329
1.00162 1.00022 0.992967
0.999875 1.00015 0.995437
0.999625 1.00052 0.998009
1.00518 0.99774 0.987761
1.0052 0.998755 0.986833
1.00518 0.997881 0.987647
1.00498 0.999715 0.986445
1.00522 0.999016 0.986408
1.00521 0.998022 0.987444
1.00378 1.00033 0.987642
1.00489 0.999928 0.986093
1.00517 0.999699 0.985885
1.00464 1.00059 0.985888
1.0033 1.00126 0.987598
1.00111 1.00122 0.991475
1.00227 1.00265 0.988026
1.00058 1.00174 0.991895
0.999788 1.00042 0.997807
0.999965 1.00167 0.992951
0.999628 0.999596 0.998244
0.99956 0.998789 0.998661
1.00518 0.995755 0.989682
1.00517 0.99511 0.990195
1.00516 0.995151 0.990084
1.00516 0.996508 0.98901
1.00512 0.997468 0.98794
1.00514 0.995873 0.989425
1.00515 0.995732 0.989994
1.00519 0.995102 0.990482
1.00518 0.994943 0.990531
1.00516 0.995522 0.99011
1.00513 0.996775 0.988934
1.0052 0.995234 0.990226
1.00521 0.996753 0.988859
1.0052 0.998082 0.987575
1.00523 0.996857 0.98862
1.00524 0.998387 0.987133
1.00514 0.999453 0.986232
1.00524 0.9986 0.986904
1.00512 0.999607 0.986101
1.0042 1.00003 0.987258
1.00506 0.999726 0.986072
1.00411 1.00008 0.987373
1.00162 1.0001 0.992945
1.00404 1.00006 0.987523
1.00166 0.999995 0.993029
1.00024 0.999894 0.995242
1.00168 1.00002 0.993029
0.999947 0.999961 0.995505
0.999638 1.00033 0.995572
1.00517 0.997046 0.988582
1.0052 0.998667 0.986863
1.00518 0.997567 0.987928
1.00505 0.999429 0.986556
1.0052 0.998832 0.986739
1.00518 0.997919 0.987519
1.00398 0.999949 0.987713
1.00498 0.999616 0.98636
1.00521 0.998871 0.986516
1.00133 1.00064 0.991631
1.0038 1.00032 0.987651
1.0049 0.999888 0.986076
1.00334 1.00123 0.987591
1.00104 1.00131 0.991478
0.999819 1.00071 0.997731
1.00045 1.00186 0.991922
0.999719 1.00026 0.997907
0.999565 0.999415 0.998378
1.00515 0.995952 0.989613
1.00517 0.995788 0.989665
1.00518 0.995083 0.990211
1.00516 0.996418 0.989072
1.00513 0.996942 0.988802
1.00515 0.995712 0.990037
1.00519 0.995068 0.99049
1.00517 0.995451 0.990251
1.00514 0.996671 0.989001
1.00518 0.998074 0.987665
1.00521 0.996896 0.988622
1.0052 0.998243 0.987384
1.00512 0.999175 0.986558
1.00524 0.998382 0.987132
1.00513 0.99945 0.98624
1.00425 0.999948 0.987241
1.00511 0.999609 0.986111
1.0042 1.00003 0.987265
1.00172 1.00015 0.991462
1.00412 1.00007 0.987381
1.00172 1.00007 0.992199
1.00019 0.999941 0.997741
1.00176 0.99997 0.992922
1.00004 0.999882 0.995431
0.999736 1.00002 0.995664
1.00516 0.996795 0.98892
1.0052 0.998359 0.987269
1.00517 0.997128 0.988536
1.00511 0.999254 0.986393
1.0052 0.998658 0.986891
1.00518 0.99739 0.988095
1.00409 0.999724 0.987479
1.00504 0.999434 0.986567
1.0052 0.998908 0.986645
1.00147 1.00015 0.99186
1.00398 0.999905 0.987618
1.00499 0.99951 0.986274
0.999868 1.00059 0.997787
1.00131 1.00066 0.991634
1.00381 1.00031 0.987661
1.00098 1.00137 0.991485
0.999815 1.00059 0.997741
0.999626 1.00011 0.998029
1.00513 0.996874 0.988838
1.00514 0.996007 0.989604
1.00517 0.995822 0.989647
1.00519 0.998087 0.987552
1.00513 0.996854 0.988868
1.00515 0.995691 0.99008
1.00514 0.996559 0.989068
1.00518 0.998057 0.987666
1.00513 0.999105 0.986809
1.0052 0.998405 0.987193
1.00512 0.999291 0.986528
1.00427 0.999782 0.987182
1.00513 0.999443 0.986247
1.00425 0.999944 0.987246
1.00176 1.00013 0.99141
1.0042 1.00003 0.987271
1.00173 1.00014 0.991459
1.00021 0.999976 0.997696
1.00175 1.00005 0.99154
1.00011 0.999932 0.99655
0.999838 0.999848 0.995617
1.00514 0.997145 0.988561
1.0052 0.998212 0.987375
1.00515 0.996784 0.988941
1.00513 0.999292 0.98635
1.0052 0.998412 0.987181
1.00517 0.997214 0.988489
1.00422 0.999644 0.987344
1.00512 0.999347 0.986417
1.0052 0.998651 0.986919
1.00161 0.999896 0.991858
1.00409 0.999725 0.987461
1.00504 0.99944 0.986577
0.999993 1.00029 0.997824
1.00147 1.00013 0.991866
1.00397 0.999863 0.987522
0.99988 1.00054 0.997757
1.00129 1.00066 0.991635
0.999761 1.00053 0.997774
1.00518 0.997953 0.987735
1.00513 0.996923 0.988764
1.00514 0.996056 0.989595
1.0051 0.999006 0.986949
1.00519 0.998013 0.987646
1.00513 0.996771 0.988933
1.00518 0.99804 0.987666
1.00513 0.99911 0.986807
1.00426 0.999689 0.987295
1.00511 0.99941 0.986498
1.00427 0.999829 0.98723
1.0018 1.00006 0.991416
1.00425 0.999938 0.987252
1.00176 1.00013 0.991411
1.00023 1.00001 0.997645
1.00173 1.00014 0.991455
1.00022 0.999988 0.997672
1.00019 0.999887 0.995181
1.00519 0.998168 0.987434
1.00514 0.996984 0.988676
1.00513 0.999208 0.986468
1.0052 0.99822 0.987368
1.00515 0.996769 0.988963
1.00426 0.999701 0.987467
1.00513 0.999299 0.986345
1.0052 0.998463 0.987093
1.00174 0.999858 0.991686
1.00422 0.999692 0.987399
1.00513 0.999445 0.98644
1.00015 1.00005 0.997777
1.00162 0.999889 0.991865
1.00409 0.999721 0.987443
0.999972 1.00031 0.997812
1.00147 1.00012 0.99187
0.999881 1.00052 0.997732
1.00506 0.998994 0.987028
1.00518 0.998012 0.987667
1.00514 0.996975 0.988691
1.00418 0.999648 0.98747
1.0051 0.999019 0.986949
1.00519 0.997936 0.987741
1.00513 0.999117 0.986806
1.00427 0.99968 0.987275
1.00179 1.00002 0.991475
1.00426 0.999874 0.987277
1.00178 1.00007 0.991417
1.00025 1.00001 0.997622
1.00176 1.00012 0.991412
1.00023 1.00001 0.99764
1.00023 0.999996 0.997654
1.0051 0.999154 0.986596
1.00519 0.997992 0.98762
1.00515 0.996824 0.988792
1.00423 0.999691 0.987542
1.00512 0.999216 0.986461
1.0052 0.998228 0.987362
1.00178 0.999941 0.99155
1.00425 0.999708 0.987462
1.00513 0.999304 0.98634
1.00025 0.999943 0.997695
1.00173 0.999873 0.991691
1.00422 0.999732 0.987454
1.00011 1.00009 0.997799
1.00161 0.999897 0.991873
0.999974 1.0003 0.997793
1.00413 0.999707 0.987715
1.00505 0.998958 0.986968
1.00518 0.998068 0.987598
1.00174 0.999971 0.991622
1.0042 0.999628 0.987444
1.0051 0.999029 0.98695
1.00428 0.999667 0.987255
1.00178 1.00001 0.991482
1.00027 1.00001 0.9976
1.00177 1.00008 0.991418
1.00026 1.00002 0.997609
1.00023 1.00002 0.997634
1.00417 0.999685 0.987657
1.00509 0.999051 0.986695
1.00519 0.997819 0.987806
1.00184 1.00001 0.992745
1.00422 0.999689 0.987541
1.00511 0.999225 0.986454
1.00027 0.999949 0.997638
1.00178 0.99996 0.991552
1.00424 0.999715 0.987456
1.00022 0.999976 0.997726
1.00173 0.999899 0.991696
1.00008 1.0001 0.997815
1.00175 0.999973 0.991641
1.00413 0.999663 0.987635
1.00505 0.998921 0.986907
1.00022 0.999999 0.997628
1.00172 0.99997 0.991625
1.00422 0.999612 0.987418
1.00178 0.999997 0.991485
1.00026 1.00001 0.997605
1.00026 1.00002 0.997602
1.00185 0.999988 0.992775
1.00417 0.999681 0.987657
1.00508 0.998947 0.986794
0.999928 0.999987 0.997961
1.00176 1.00001 0.991544
1.00422 0.999685 0.98754
1.00026 0.99996 0.997664
1.00178 0.999979 0.991553
1.0002 0.999996 0.997756
1.00019 0.999997 0.995164
1.00176 0.999971 0.992252
1.00414 0.999621 0.987555
1.00023 0.999998 0.997636
1.00172 0.99997 0.991634
1.00027 1 0.997606
0.999854 1 0.995478
1.00178 0.999987 0.992204
1.00417 0.999679 0.987657
1.00007 0.999986 0.996529
1.00176 1.00001 0.991553
1.00025 0.999972 0.997689
1.00019 0.999993 0.997654
1.00168 0.999972 0.991711
1.00019 0.999997 0.997645
1.00003 0.999993 0.996574
1.00172 0.999989 0.991653
1.00025 0.999975 0.997652
1.0002 0.999989 0.997666
1.0002 0.999985 0.997655

TENSORS stress float
0.00166553 -8.55664e-05 0.000166724
-8.55664e-05 0.000631021 -2.18813e-05
0.000166724 -2.18813e-05 0.000610132
0.00522478 -0.000127752 0.000155895
-0.000127752 0.00274716 1.67601e-05
0.000155895 1.67601e-05 0.00272203
0.00147943 -1.43139e-05 7.89045e-05
-1.43139e-05 0.000531007 -8.28681e-06
7.89045e-05 -8.28681e-06 0.000500722
0.00179964 -5.21712e-05 0.000167411
-5.21712e-05 0.000685473 -1.40833e-05
0.000167411 -1.40833e-05 0.00066732
0.00172877 -7.72173e-05 0.000163324
-7.72173e-05 0.000660099 -1.98835e-05
0.000163324 -1.98835e-05 0.000640348
0.00160794 -8.13635e-05 0.000171578
-8.13635e-05 0.000593626 -2.14816e-05
0.000171578 -2.14816e-05 0.000574271
0.00144873 -5.68889e-05 2.4188e-05
-5.68889e-05 0.000434678 -8.81166e-06
2.4188e-05 -8.81166e-06 0.000356004
0.00509051 -0.000120781 3.93066e-07
-0.000120781 0.00265243 -2.32581e-07
3.93066e-07 -2.32581e-07 0.002637
0.00525437 3.07689e-05 6.78466e-05
3.07689e-05 0.00271022 3.62351e-06
6.78466e-05 3.62351e-06 0.00269736
0.00502607 -0.000244884 5.83005e-06
-0.000244884 0.00263394 3.77411e-06
5.83005e-06 3.77411e-06 0.00259262
0.00168111 6.00189e-05 0.000160723
6.00189e-05 0.000638184 1.44124e-05
0.000160723 1.44124e-05 0.000627797
0.000674044 0.000167088 2.09033e-05
0.000167088 -1.91586e-06 1.31255e-05
2.09033e-05 1.31255e-05 -8.76279e-05
0.00162866 -3.11284e-05 0.000179172
-3.11284e-05 0.000579898 2.16454e-06
0.000179172 2.16454e-06 0.000568988
0.00127261 -1.63594e-05 2.83561e-05
-1.63594e-05 0.000392873 1.07732e-06
2.83561e-05 1.07732e-06 0.000356989
0.00136236 -7.35945e-07 -2.44619e-05
-7.35945e-07 0.000462912 4.75307e-06
-2.44619e-05 4.75307e-06 0.000428754
0.00152925 -5.50201e-05 6.07481e-05
-5.50201e-05 0.000539573 -3.45754e-06
6.07481e-05 -3.45754e-06 0.000512684
0.0014873 4.81946e-06 8.58926e-05
4.81946e-06 0.000541684 -7.72039e-06
8.58926e-05 -7.72039e-06 0.000506658
0.00149672 -3.25905e-05 7.03069e-05
-3.25905e-05 0.000528791 -7.62344e-06
7.03069e-05 -7.62344e-06 0.000503172
0.00151467 -9.99485e-05 -2.9559e-05
-9.99485e-05 0.00046231 2.71963e-06
-2.9559e-05 2.71963e-06 0.000392409
0.0053443 -0.000106931 0.000207792
-0.000106931 0.00276929 -5.68199e-06
0.000207792 -5.68199e-06 0.00277053
0.00178574 -3.54812e-05 0.00017073
-3.54812e-05 0.000673992 -1.05786e-05
0.00017073 -1.05786e-05 0.00065633
0.00179039 -6.67621e-05 0.000164685
-6.67621e-05 0.000686427 -1.72142e-05
0.000164685 -1.72142e-05 0.000667938
0.00148611 -9.45856e-05 4.45849e-05
-9.45856e-05 0.000423794 -6.73131e-06
4.45849e-05 -6.73131e-06 0.000352932
0.00146775 -7.39496e-05 3.30399e-05
-7.39496e-05 0.000426196 -7.93748e-06
3.30399e-05 -7.93748e-06 0.000354858
0.00143469 -5.14499e-05 0.00015852
-5.14499e-05 0.000487261 -1.79137e-05
0.00015852 -1.79137e-05 0.000471111
0.00143908 -4.15142e-05 1.71997e-05
-4.15142e-05 0.000448362 -9.73564e-06
1.71997e-05 -9.73564e-06 0.00036052
0.00200518 -0.000205784 1.28608e-05
-0.000205784 0.000615562 -5.45893e-06
1.28608e-05 -5.45893e-06 0.000482511
0.00494815 -0.000155434 -0.000140142
-0.000155434 0.00257231 -9.2286e-06
-0.000140142 -9.2286e-06 0.00255447
0.00338122 4.96036e-05 -9.66271e-05
4.96036e-05 0.0016245 -7.09779e-06
-9.66271e-05 -7.09779e-06 0.00160626
0.00327059 -6.54734e-05 -9.02384e-05
-6.54734e-05 0.00158822 -3.4441e-06
-9.02384e-05 -3.4441e-06 0.00156048
0.00468743 -0.000160564 1.00069e-05
-0.000160564 0.00242571 -1.02744e-06
1.00069e-05 -1.02744e-06 0.00240675
0.000613284 0.000156701 -2.14072e-06
0.000156701 -3.73144e-05 -5.21924e-07
-2.14072e-06 -5.21924e-07 -0.000119984
0.00155787 5.11669e-05 0.000170975
5.11669e-05 0.000549826 1.26206e-05
0.000170975 1.26206e-05 0.00053252
0.00173049 0.000117092 0.000172813
0.000117092 0.000669395 1.84249e-05
0.000172813 1.84249e-05 0.000648931
0.00257717 0.000163224 0.000105569
0.000163224 0.00106432 1.29606e-05
0.000105569 1.29606e-05 0.00100278
0.00368445 -0.000221815 6.35149e-06
-0.000221815 0.00185189 3.16548e-06
6.35149e-06 3.16548e-06 0.00182079
0.00262204 0.000193656 0.000103937
0.000193656 0.00111625 1.44105e-05
0.000103937 1.44105e-05 0.00105086
0.000662368 0.000124653 2.29768e-05
0.000124653 -1.48131e-06 1.63786e-05
2.29768e-05 1.63786e-05 -7.64502e-05
0.000922506 0.000167438 9.32725e-06
0.000167438 6.13339e-05 4.58391e-06
9.32725e-06 4.58391e-06 -8.9486e-05
0.0029817 -0.000103623 8.6184e-05
-0.000103623 0.00141403 3.19052e-06
8.6184e-05 3.19052e-06 0.00141725
0.00540406 5.99253e-05 3.80412e-06
5.99253e-05 0.00279353 -1.2007e-06
3.80412e-06 -1.2007e-06 0.00280008
0.00337964 4.86074e-05 -7.94375e-05
4.86074e-05 0.0016158 -2.74352e-06
-7.94375e-05 -2.74352e-06 0.00160077
0.00530874 5.74704e-05 0.000204716
5.74704e-05 0.00274113 1.97887e-06
0.000204716 1.97887e-06 0.00274731
0.00130059 5.51983e-05 3.14142e-05
5.51983e-05 0.00040698 1.7197e-06
3.14142e-05 1.7197e-06 0.000374215
0.000694475 6.55612e-06 1.61394e-05
6.55612e-06 -6.61462e-05 1.55278e-06
1.61394e-05 1.55278e-06 -0.000135992
0.00518077 0.000176149 0.000100099
0.000176149 0.0026864 8.40425e-06
0.000100099 8.40425e-06 0.0026653
0.00265534 4.95418e-05 0.000104622
4.95418e-05 0.00107624 5.98227e-06
0.000104622 5.98227e-06 0.00102584
0.00119422 -7.40379e-05 -4.23092e-05
-7.40379e-05 0.000359808 5.38775e-06
-4.23092e-05 5.38775e-06 0.000321705
0.00127301 -4.8582e-05 -3.61392e-05
-4.8582e-05 0.000407044 5.35259e-06
-3.61392e-05 5.35259e-06 0.000373646
0.00144737 5.58137e-05 -1.27938e-05
5.58137e-05 0.000522151 5.36149e-06
-1.27938e-05 5.36149e-06 0.000480587
0.00153662 -0.000113297 -9.02537e-05
-0.000113297 0.000467979 1.36096e-05
-9.02537e-05 1.36096e-05 0.000404186
0.00338054 1.48514e-05 -8.45698e-05
1.48514e-05 0.00162317 -1.57138e-06
-8.45698e-05 -1.57138e-06 0.00160534
0.00152925 -4.05264e-05 6.80043e-05
-4.05264e-05 0.000534876 -2.88843e-06
6.80043e-05 -2.88843e-06 0.000508947
0.00138817 2.58905e-05 8.50239e-05
2.58905e-05 0.000486175 -5.72686e-06
8.50239e-05 -5.72686e-06 0.000451509
0.00152117 -4.5565e-05 6.42353e-05
-4.5565e-05 0.000535164 -5.68876e-06
6.42353e-05 -5.68876e-06 0.000510588
0.00153619 -8.1089e-05 -2.38015e-05
-8.1089e-05 0.000447122 9.24465e-07
-2.38015e-05 9.24465e-07 0.000382086
0.00151177 -8.93599e-05 -3.44561e-05
-8.93599e-05 0.000474231 2.63564e-06
-3.44561e-05 2.63564e-06 0.000398555
0.00152598 -0.000100752 -2.49316e-05
-0.000100752 0.000456645 1.99896e-06
-2.49316e-05 1.99896e-06 0.000390177
0.00200327 -0.000204133 -6.27543e-06
-0.000204133 0.000612881 1.68961e-06
-6.27543e-06 1.68961e-06 0.000480098
0.00527418 4.70094e-05 0.000198193
4.70094e-05 0.00272148 -9.00041e-08
0.000198193 -9.00041e-08 0.00272797
0.00177011 -1.81525e-05 0.000171917
-1.81525e-05 0.000666124 -7.18416e-06
0.000171917 -7.18416e-06 0.000649684
0.00238754 2.84719e-05 2.92982e-05
2.84719e-05 0.00093719 -9.69909e-07
2.92982e-05 -9.69909e-07 0.000878727
0.00149318 -7.6363e-05 3.83261e-05
-7.6363e-05 0.000419334 -4.66924e-06
3.83261e-05 -4.66924e-06 0.000350867
0.00148238 -8.60349e-05 4.01445e-05
-8.60349e-05 0.000424129 -7.30591e-06
4.01445e-05 -7.30591e-06 0.000354797
0.00193995 -0.00012597 1.10947e-05
-0.00012597 0.00052773 -2.68922e-06
1.10947e-05 -2.68922e-06 0.000410445
0.00161316 -0.000163421 1.46705e-05
-0.000163421 0.000365433 -5.13628e-06
1.46705e-05 -5.13628e-06 0.000238066
0.00111595 -3.16062e-06 0.000118471
-3.16062e-06 0.000306828 -1.27793e-05
0.000118471 -1.27793e-05 0.000293809
0.00113812 4.84413e-06 9.12801e-06
4.84413e-06 0.000302356 -9.86599e-06
9.12801e-06 -9.86599e-06 0.000217206
0.00198498 -0.000222552 1.21636e-05
-0.000222552 0.000628273 -5.57702e-06
1.21636e-05 -5.57702e-06 0.000485838
0.00122612 -0.000189749 7.88519e-06
-0.000189749 7.12087e-05 -2.27905e-06
7.88519e-06 -2.27905e-06 -9.11957e-05
0.00546842 0.000108972 -0.000207531
0.000108972 0.00283416 -1.56081e-05
-0.000207531 -1.56081e-05 0.00283599
0.00436776 -0.000179724 -0.000112165
-0.000179724 0.00224261 -6.77146e-06
-0.000112165 -6.77146e-06 0.00222272
0.00521626 -7.9949e-05 -0.000168887
-7.9949e-05 0.00270917 -1.07402e-05
-0.000168887 -1.07402e-05 0.00270292
0.000531004 0.000154444 -2.14823e-05
0.000154444 -8.29935e-05 -1.3435e-05
-2.14823e-05 -1.3435e-05 -0.000164481
0.00551329 0.000139888 -2.90793e-06
0.000139888 0.00285838 -1.70624e-06
-2.90793e-06 -1.70624e-06 0.00285927
0.00548427 3.67599e-05 -8.52495e-06
3.67599e-05 0.00285083 -7.61691e-07
-8.52495e-06 -7.61691e-07 0.0028496
0.000555372 0.000116591 -2.89919e-07
0.000116591 -0.000111791 -2.2635e-07
-2.89919e-07 -2.2635e-07 -0.000192301
0.00244746 -0.000116674 -4.97522e-05
-0.000116674 0.00111369 -8.73043e-07
-4.97522e-05 -8.73043e-07 0.00109226
0.000551984 0.000166311 -7.93954e-07
0.000166311 -8.33871e-05 -2.90954e-07
-7.93954e-07 -2.90954e-07 -0.000168264
0.00143214 9.87145e-05 3.28066e-05
9.87145e-05 0.000458726 5.43806e-07
3.28066e-05 5.43806e-07 0.000393419
0.000903191 0.000162952 3.60505e-07
0.000162952 4.76829e-05 -3.90747e-07
3.60505e-07 -3.90747e-07 -0.00010229
0.00349204 -0.000106594 0.000110639
-0.000106594 0.00171131 5.04305e-06
0.000110639 5.04305e-06 0.00171241
0.0006121 -4.93544e-05 1.77345e-06
-4.93544e-05 2.20524e-05 7.33338e-06
1.77345e-06 7.33338e-06 -1.61549e-05
0.000672896 8.62384e-05 1.71455e-05
8.62384e-05 -6.39883e-05 8.19742e-06
1.71455e-05 8.19742e-06 -0.000140709
0.000704373 0.000138507 2.18347e-05
0.000138507 -1.27461e-05 1.37539e-05
2.18347e-05 1.37539e-05 -9.76426e-05
0.000996676 0.000135935 1.29032e-05
0.000135935 -6.55687e-06 5.08912e-06
1.29032e-05 5.08912e-06 -0.000142739
0.00221671 3.17248e-05 6.85147e-05
3.17248e-05 0.000932212 8.81551e-06
6.85147e-05 8.81551e-06 0.000886409
0.000951315 0.000163108 1.08235e-05
0.000163108 2.94375e-05 5.6386e-06
1.08235e-05 5.6386e-06 -0.00011491
0.00094209 0.000167258 8.17022e-06
0.000167258 0.000143292 5.24099e-06
8.17022e-06 5.24099e-06 -9.73583e-06
0.00091657 0.000198178 4.35205e-06
0.000198178 -5.31161e-06 5.99495e-07
4.35205e-06 5.99495e-07 -0.000190027
0.00262297 -0.000116198 4.61693e-05
-0.000116198 0.00120377 2.35001e-06
4.61693e-05 2.35001e-06 0.00120398
0.00284218 -0.00012872 9.19733e-06
-0.00012872 0.00133748 -4.40083e-07
9.19733e-06 -4.40083e-07 0.00133423
0.00548831 1.20194e-05 -0.000202459
1.20194e-05 0.00283831 -8.13604e-06
-0.000202459 -8.13604e-06 0.00284339
0.00544325 5.09574e-05 -0.000209355
5.09574e-05 0.00281428 -4.60278e-06
-0.000209355 -4.60278e-06 0.00282146
0.00536986 8.01299e-05 -1.63279e-07
8.01299e-05 0.00278264 -2.1994e-06
-1.63279e-07 -2.1994e-06 0.0027847
0.00336654 6.52085e-06 -9.40942e-05
6.52085e-06 0.00160624 -3.25595e-06
-9.40942e-05 -3.25595e-06 0.00159386
0.00165935 2.852e-05 4.47016e-05
2.852e-05 0.000496926 7.39565e-07
4.47016e-05 7.39565e-07 0.000437863
0.00343268 9.38706e-05 -8.06109e-05
9.38706e-05 0.00164911 -3.9026e-06
-8.06109e-05 -3.9026e-06 0.00163137
0.00168548 6.78812e-05 4.34138e-05
6.78812e-05 0.000515847 1.52598e-06
4.34138e-05 1.52598e-06 0.000453035
0.00534191 0.000141312 0.00020802
0.000141312 0.00277661 4.8184e-06
0.00020802 4.8184e-06 0.00277241
0.000625284 8.12756e-06 1.7946e-05
8.12756e-06 -0.000102742 3.73603e-07
1.7946e-05 3.73603e-07 -0.000170995
0.00268028 1.84661e-05 0.000105348
1.84661e-05 0.00108883 3.92813e-06
0.000105348 3.92813e-06 0.00104045
0.00104671 3.17304e-05 1.23002e-05
3.17304e-05 -1.42653e-05 1.02679e-06
1.23002e-05 1.02679e-06 -0.000131971
0.00257322 9.17544e-05 0.000105649
9.17544e-05 0.0010373 7.49877e-06
0.000105649 7.49877e-06 0.000983912
0.00106452 7.53928e-05 1.19955e-05
7.53928e-05 2.73938e-06 2.4878e-06
1.19955e-05 2.4878e-06 -0.000121752
0.00164291 3.79783e-05 -0.000177337
3.79783e-05 0.000590798 1.39625e-06
-0.000177337 1.39625e-06 0.00058021
0.00125279 5.68452e-06 -2.89036e-05
5.68452e-06 0.000384131 1.60617e-06
-2.89036e-05 1.60617e-06 0.000349455
0.00135812 0.000117264 -1.18718e-07
0.000117264 0.000496804 7.22423e-06
-1.18718e-07 7.22423e-06 0.000441729
0.00121426 -6.65922e-05 -4.313e-05
-6.65922e-05 0.000370877 5.74433e-06
-4.313e-05 5.74433e-06 0.000335737
0.00164923 -6.07202e-05 -9.02801e-05
-6.07202e-05 0.000505478 7.46455e-06
-9.02801e-05 7.46455e-06 0.000447266
0.00158716 -9.74411e-05 -8.90081e-05
-9.74411e-05 0.000486335 1.20499e-05
-8.90081e-05 1.20499e-05 0.000425569
0.00152068 -0.000118304 -9.20509e-05
-0.000118304 0.000469626 1.40496e-05
-9.20509e-05 1.40496e-05 0.000401774
0.00199979 -0.000202653 -2.43385e-05
-0.000202653 0.000609958 8.36253e-06
-2.43385e-05 8.36253e-06 0.000477428
0.00534459 -8.28573e-05 2.04181e-06
-8.28573e-05 0.00276872 -1.33867e-06
2.04181e-06 -1.33867e-06 0.00277047
0.00149329 4.44219e-05 7.67776e-05
4.44219e-05 0.000513349 -2.4439e-06
7.67776e-05 -2.4439e-06 0.000489221
0.00112873 6.70955e-07 -4.71634e-05
6.70955e-07 0.000193825 8.06919e-07
-4.71634e-05 8.06919e-07 0.000133616
0.0015563 -4.5771e-05 -2.80418e-05
-4.5771e-05 0.000451355 1.33263e-06
-2.80418e-05 1.33263e-06 0.000388076
0.0027274 5.41909e-05 0.000122527
5.41909e-05 0.00126651 -1.9977e-06
0.000122527 -1.9977e-06 0.00125547
0.00182647 -5.52893e-05 -3.03342e-05
-5.52893e-05 0.000686437 -3.61418e-07
-3.03342e-05 -3.61418e-07 0.000610467
0.00153761 -9.29935e-05 -2.30245e-05
-9.29935e-05 0.00045378 1.36857e-06
-2.30245e-05 1.36857e-06 0.00038875
0.00180076 -0.000118249 -8.19964e-06
-0.000118249 0.00044555 1.41525e-06
-8.19964e-06 1.41525e-06 0.000327551
0.00197816 -0.000222307 -5.12686e-06
-0.000222307 0.000625484 1.61474e-06
-5.12686e-06 1.61474e-06 0.000482983
0.00182748 -0.000172206 -3.63702e-06
-0.000172206 0.000489653 8.66474e-07
-3.63702e-06 8.66474e-07 0.000362858
0.00123952 -0.000190476 2.8889e-07
-0.000190476 7.75898e-05 -8.73935e-08
2.8889e-07 -8.73935e-08 -8.46636e-05
0.000661589 1.20371e-05 1.83337e-05
1.20371e-05 -8.29675e-05 -1.23808e-06
1.83337e-05 -1.23808e-06 -0.000148506
0.00146385 1.6702e-05 2.96845e-05
1.6702e-05 0.000398082 -2.45499e-06
2.96845e-05 -2.45499e-06 0.000333231
0.00161916 -2.85874e-05 1.26246e-05
-2.85874e-05 0.000324287 -1.09457e-06
1.26246e-05 -1.09457e-06 0.0002156
0.00163287 -9.28744e-05 1.24091e-05
-9.28744e-05 0.000341296 -2.22776e-06
1.24091e-05 -2.22776e-06 0.000224787
0.00158485 -0.000137753 1.37185e-05
-0.000137753 0.000331903 -3.95129e-06
1.37185e-05 -3.95129e-06 0.000209469
0.00171873 -0.000142365 2.5456e-06
-0.000142365 0.000282781 -7.50455e-07
2.5456e-06 -7.50455e-07 0.000142136
0.00385686 0.000149211 0.000102634
0.000149211 0.00193497 -4.07621e-06
0.000102634 -4.07621e-06 0.00192456
0.00127398 -0.000173794 6.70724e-06
-0.000173794 7.33356e-05 -1.9547e-06
6.70724e-06 -1.9547e-06 -8.14976e-05
0.000391936 -5.081e-05 1.07141e-05
-5.081e-05 -0.000133917 -1.17303e-05
1.07141e-05 -1.17303e-05 -0.00019625
0.000824243 -0.000160599 8.05314e-06
-0.000160599 1.18207e-05 -6.52887e-06
8.05314e-06 -6.52887e-06 -0.000137557
0.00131236 -0.000216207 9.09462e-06
-0.000216207 0.000148084 -2.15433e-06
9.09462e-06 -2.15433e-06 -2.61047e-05
0.00144943 -0.000231932 4.25823e-06
-0.000231932 0.000118843 3.69023e-07
4.25823e-06 3.69023e-07 -5.70242e-05
0.000450645 1.12248e-06 5.60353e-06
1.12248e-06 -8.37482e-05 -9.49984e-06
5.60353e-06 -9.49984e-06 -0.000132453
0.000642175 -1.88763e-05 1.14757e-06
-1.88763e-05 2.56825e-05 -4.26712e-06
1.14757e-06 -4.26712e-06 -7.55723e-05
0.00551691 0.000152619 -0.000219288
0.000152619 0.00286391 -1.64714e-05
-0.000219288 -1.64714e-05 0.00286335
0.0053455 1.88188e-05 -0.000188569
1.88188e-05 0.00276912 -1.3053e-05
-0.000188569 -1.3053e-05 0.00277073
0.000547376 0.000108602 -1.75954e-05
0.000108602 -0.000117732 -9.56096e-06
-1.75954e-05 -9.56096e-06 -0.000198079
0.00373948 -0.000153058 -9.73132e-05
-0.000153058 0.00186737 -3.82376e-06
-9.73132e-05 -3.82376e-06 0.00185724
0.000442021 8.55751e-05 -1.40711e-05
8.55751e-05 -0.000117332 -1.25576e-05
-1.40711e-05 -1.25576e-05 -0.000184239
0.000506752 0.000151658 -1.97886e-05
0.000151658 -0.000104962 -1.25865e-05
-1.97886e-05 -1.25865e-05 -0.000191433
0.000897254 0.000160333 -1.00023e-05
0.000160333 4.17598e-05 -5.6421e-06
-1.00023e-05 -5.6421e-06 -0.000107622
0.0033252 -0.000124247 6.26466e-06
-0.000124247 0.0016192 -3.36851e-07
6.26466e-06 -3.36851e-07 0.00161682
0.000535494 -5.91049e-05 2.27406e-07
-5.91049e-05 -1.93037e-05 3.82576e-07
2.27406e-07 3.82576e-07 -5.82732e-05
0.00163861 0.000110382 4.31591e-05
0.000110382 0.000501437 2.54421e-06
4.31591e-05 2.54421e-06 0.000433702
0.00156784 0.000155462 4.11702e-05
0.000155462 0.000493154 2.21831e-06
4.11702e-05 2.21831e-06 0.000418105
0.00100915 0.000138678 1.80991e-07
0.000138678 1.9936e-06 -1.56141e-07
1.80991e-07 -1.56141e-07 -0.000134954
0.000620414 3.06861e-05 -6.43945e-07
3.06861e-05 4.00356e-06 1.46781e-07
-6.43945e-07 1.46781e-07 -5.08256e-05
0.000950601 0.000163177 4.63569e-07
0.000163177 2.93881e-05 2.86564e-07
4.63569e-07 2.86564e-07 -0.000114938
0.000852381 0.000152953 4.45641e-07
0.000152953 8.89553e-05 -7.66557e-07
4.45641e-07 -7.66557e-07 -6.15724e-05
0.00100124 0.000206199 -2.32474e-07
0.000206199 4.09474e-05 3.20749e-07
-2.32474e-07 3.20749e-07 -0.000145217
0.000647804 -5.61935e-06 7.35368e-06
-5.61935e-06 3.31487e-05 8.67928e-06
7.35368e-06 8.67928e-06 -1.25962e-05
0.000601587 -6.68205e-05 -9.30902e-07
-6.68205e-05 1.37742e-05 6.10062e-06
-9.30902e-07 6.10062e-06 -1.81512e-05
0.000722752 3.88262e-05 3.03523e-06
3.88262e-05 8.23987e-05 4.1557e-06
3.03523e-06 4.1557e-06 -1.40703e-05
0.00103138 0.000115761 1.25717e-05
0.000115761 -1.98688e-06 4.11321e-06
1.25717e-05 4.11321e-06 -0.000134102
0.000977141 0.000153793 1.23623e-05
0.000153793 1.01912e-05 5.62225e-06
1.23623e-05 5.62225e-06 -0.000130315
0.00133536 0.000186389 6.57565e-06
0.000186389 9.08121e-05 1.71004e-06
6.57565e-06 1.71004e-06 -7.3434e-05
0.000917531 0.000144601 6.27558e-06
0.000144601 0.000174791 5.98967e-06
6.27558e-06 5.98967e-06 3.54039e-05
0.000937891 0.000190359 4.88404e-06
0.000190359 -5.37986e-05 1.94784e-06
4.88404e-06 1.94784e-06 -0.000226721
0.000882181 0.00019565 4.39096e-06
0.00019565 5.82443e-05 7.81077e-07
4.39096e-06 7.81077e-07 -0.000139973
0.00157985 0.000266762 1.98072e-07
0.000266762 0.0003202 -4.34596e-07
1.98072e-07 -4.34596e-07 0.000122176
0.00243233 -0.000104732 3.37892e-05
-0.000104732 0.00108591 2.87828e-06
3.37892e-05 2.87828e-06 0.00108891
0.00252481 -0.000117127 3.79567e-06
-0.000117127 0.00114741 -3.64214e-07
3.79567e-06 -3.64214e-07 0.00114698
0.00268852 -0.000132388 -4.17564e-05
-0.000132388 0.00125017 -2.42074e-06
-4.17564e-05 -2.42074e-06 0.0012454
0.000460977 1.50997e-05 4.00822e-06
1.50997e-05 -7.44162e-05 -8.08992e-06
4.00822e-06 -8.08992e-06 -0.000117296
0.00353671 0.000134782 8.8811e-05
0.000134782 0.00174329 -3.53456e-06
8.8811e-05 -3.53456e-06 0.00173695
0.00552472 0.00015687 -0.000222451
0.00015687 0.00286994 -1.50318e-05
-0.000222451 -1.50318e-05 0.00286875
0.00542894 4.9616e-05 -0.000205194
4.9616e-05 0.00280429 -6.51977e-06
-0.000205194 -6.51977e-06 0.00281117
0.000651677 7.84762e-05 -1.88522e-05
7.84762e-05 -8.46138e-05 -4.417e-06
-1.88522e-05 -4.417e-06 -0.000157329
0.000635367 3.47358e-05 -1.86847e-05
3.47358e-05 -9.56871e-05 -2.08295e-06
-1.86847e-05 -2.08295e-06 -0.000166437
0.00532366 -2.37131e-05 -0.000200167
-2.37131e-05 0.00274701 -9.86508e-07
-0.000200167 -9.86508e-07 0.00275472
0.00529537 1.76308e-05 -6.3965e-07
1.76308e-05 0.00273201 -1.29859e-07
-6.3965e-07 -1.29859e-07 0.00273923
0.000613528 2.86198e-08 -1.10271e-07
2.86198e-08 -0.000111093 -9.14747e-08
-1.10271e-07 -9.14747e-08 -0.000178227
0.00164376 2.73194e-05 4.43711e-05
2.73194e-05 0.000487549 1.34411e-06
4.43711e-05 1.34411e-06 0.000428099
0.0010419 3.57013e-05 6.25372e-08
3.57013e-05 -1.67815e-05 -1.81198e-07
6.25372e-08 -1.81198e-07 -0.000134767
0.000624417 6.80631e-05 -3.76293e-07
6.80631e-05 -9.58411e-05 -2.48874e-07
-3.76293e-07 -2.48874e-07 -0.000170436
0.00103833 7.73164e-05 -7.48989e-08
7.73164e-05 -1.14163e-05 -1.5422e-07
-7.48989e-08 -1.5422e-07 -0.000136393
0.000606052 -2.36598e-05 1.83195e-05
-2.36598e-05 -0.000116584 -7.07213e-07
1.83195e-05 -7.07213e-07 -0.000181844
0.00104028 1.39198e-05 1.20561e-05
1.39198e-05 -1.73148e-05 3.92896e-07
1.20561e-05 3.92896e-07 -0.000132783
0.00104525 5.39941e-05 1.21571e-05
5.39941e-05 -1.27381e-05 1.82184e-06
1.21571e-05 1.82184e-06 -0.000133689
0.00141532 5.17751e-05 3.30506e-06
5.17751e-05 5.95015e-05 3.38484e-08
3.30506e-06 3.38484e-08 -6.92494e-05
0.00105447 9.48438e-05 1.21286e-05
9.48438e-05 2.52596e-06 3.22812e-06
1.21286e-05 3.22812e-06 -0.000125597
0.00141161 0.000107202 3.40609e-06
0.000107202 7.40332e-05 4.80122e-07
3.40609e-06 4.80122e-07 -6.62111e-05
0.00529525 -4.45242e-05 -0.000206385
-4.45242e-05 0.00273442 1.08794e-07
-0.000206385 1.08794e-07 0.00274004
0.0012551 -0.000115837 -3.07244e-05
-0.000115837 0.000390935 3.20826e-06
-3.07244e-05 3.20826e-06 0.00035433
-0.00023087 -1.17138e-06 -1.31887e-05
-1.17138e-06 -0.000596717 2.12953e-06
-1.31887e-05 2.12953e-06 -0.000673803
0.00163888 -4.16866e-05 -9.12313e-05
-4.16866e-05 0.000494906 5.44841e-06
-9.12313e-05 5.44841e-06 0.000436921
0.0041563 0.000274224 -7.62888e-07
0.000274224 0.00215 4.34039e-06
-7.62888e-07 4.34039e-06 0.0021025
0.00251881 -0.000145915 -8.96588e-05
-0.000145915 0.0010703 1.37416e-05
-8.96588e-05 1.37416e-05 0.0010049
0.00163158 -7.99232e-05 -8.93852e-05
-7.99232e-05 0.000501731 9.78537e-06
-8.93852e-05 9.78537e-06 0.000442978
0.00163394 -0.000109723 -2.54638e-05
-0.000109723 0.000347089 4.9279e-06
-2.54638e-05 4.9279e-06 0.000228562
0.0020288 -0.000180335 -2.30407e-05
-0.000180335 0.000606506 7.01519e-06
-2.30407e-05 7.01519e-06 0.000480464
0.00201802 -0.000224986 -2.20709e-05
-0.000224986 0.000650119 8.25176e-06
-2.20709e-05 8.25176e-06 0.000507132
0.00126693 -0.000192187 -6.74841e-06
-0.000192187 9.18625e-05 1.95897e-06
-6.74841e-06 1.95897e-06 -7.03681e-05
0.000608378 8.19519e-06 -4.35703e-08
8.19519e-06 -0.000112148 -3.24453e-08
-4.35703e-08 -3.24453e-08 -0.000178509
0.00157047 -5.76939e-05 -2.78952e-05
-5.76939e-05 0.000458489 3.1453e-07
-2.78952e-05 3.1453e-07 0.000396722
0.00118392 -2.44639e-05 -6.23752e-06
-2.44639e-05 7.16885e-05 2.9414e-07
-6.23752e-06 2.9414e-07 -4.11323e-05
0.00182659 -9.49547e-05 -4.59523e-06
-9.49547e-05 0.000451748 6.7577e-07
-4.59523e-06 6.7577e-07 0.000336751
0.00395178 0.000140319 -4.29608e-06
0.000140319 0.00198854 -6.24842e-07
-4.29608e-06 -6.24842e-07 0.00197963
0.00141852 -5.08515e-05 -7.1546e-07
-5.08515e-05 0.000467274 3.77866e-07
-7.1546e-07 3.77866e-07 0.000397209
0.00131813 -0.000187883 6.47208e-07
-0.000187883 0.000304463 -1.3626e-06
6.47208e-07 -1.3626e-06 0.000155223
0.00161144 -0.000137317 -4.93917e-06
-0.000137317 0.000346971 1.059e-06
-4.93917e-06 1.059e-06 0.000224571
0.00151231 -0.000135982 -2.53798e-06
-0.000135982 0.000161137 5.47874e-07
-2.53798e-06 5.47874e-07 2.03307e-05
0.00121514 -0.000209931 2.76215e-07
-0.000209931 9.01729e-05 -8.89279e-09
2.76215e-07 -8.89279e-09 -8.46617e-05
0.00150634 -0.000184128 3.06124e-07
-0.000184128 0.000206052 -1.61403e-07
3.06124e-07 -1.61403e-07 5.198e-05
0.00145922 -0.000231441 5.5816e-07
-0.000231441 0.000128054 -6.52131e-09
5.5816e-07 -6.52131e-09 -4.71826e-05
0.000521112 -4.40396e-06 -7.1274e-07
-4.40396e-06 -4.47897e-05 1.34855e-07
-7.1274e-07 1.34855e-07 -9.37981e-05
0.000661234 -3.59056e-05 -5.41434e-07
-3.59056e-05 3.54233e-05 -4.40157e-08
-5.41434e-07 -4.40157e-08 -6.7509e-05
0.00103193 -1.18237e-05 1.19165e-05
-1.18237e-05 -1.94103e-05 -9.66721e-07
1.19165e-05 -9.66721e-07 -0.000133793
0.00164061 -5.55055e-05 1.20793e-05
-5.55055e-05 0.000339188 -1.53184e-06
1.20793e-05 -1.53184e-06 0.00022757
0.00168746 -4.23415e-05 2.11409e-06
-4.23415e-05 0.000234554 -1.12835e-07
2.11409e-06 -1.12835e-07 0.000110854
0.00136946 -0.000106285 4.15672e-06
-0.000106285 6.44047e-05 -4.72179e-07
4.15672e-06 -4.72179e-07 -7.09122e-05
0.00163544 -0.000171266 4.48774e-06
-0.000171266 0.00025869 -1.01744e-06
4.48774e-06 -1.01744e-06 0.000112384
0.00168072 -0.000165916 -5.13982e-07
-0.000165916 0.000156135 5.17555e-07
-5.13982e-07 5.17555e-07 1.91705e-05
0.000401127 -2.65758e-05 8.43093e-06
-2.65758e-05 -0.000119041 -1.05833e-05
8.43093e-06 -1.05833e-05 -0.000173641
0.00150364 -0.000214198 2.41229e-06
-0.000214198 0.000119655 4.28202e-07
2.41229e-06 4.28202e-07 -4.12965e-05
0.000653975 -0.000129834 4.4708e-06
-0.000129834 -8.93569e-06 -5.81571e-06
4.4708e-06 -5.81571e-06 -0.000151095
0.000904279 -0.000204606 7.78613e-06
-0.000204606 -2.61716e-05 -4.61447e-06
7.78613e-06 -4.61447e-06 -0.000214173
0.00179615 -0.000278299 3.4949e-06
-0.000278299 0.000355765 -1.53009e-08
3.4949e-06 -1.53009e-08 0.000160984
0.00179402 -0.000267776 -9.78021e-07
-0.000267776 0.000258031 3.09748e-06
-9.78021e-07 3.09748e-06 8.88475e-05
0.000732909 -7.55496e-05 2.91979e-06
-7.55496e-05 7.56897e-05 -4.15643e-06
2.91979e-06 -4.15643e-06 -4.24058e-05
0.000582575 -9.28016e-06 8.64728e-07
-9.28016e-06 -4.24596e-06 -3.47071e-06
8.64728e-07 -3.47071e-06 -9.40942e-05
0.00102286 -0.000127685 3.21443e-07
-0.000127685 0.000257234 -4.72445e-07
3.21443e-07 -4.72445e-07 0.000104637
0.000585794 8.78916e-05 -1.70673e-05
8.78916e-05 -0.000109851 -7.3707e-06
-1.70673e-05 -7.3707e-06 -0.000186922
0.00315966 -0.000146211 -6.51627e-05
-0.000146211 0.00152754 -2.18914e-06
-6.51627e-05 -2.18914e-06 0.00151967
0.000451267 -7.10168e-05 2.30261e-06
-7.10168e-05 -6.28463e-05 -7.1015e-06
2.30261e-06 -7.1015e-06 -0.000104039
0.000511734 0.000132868 -1.84763e-05
0.000132868 -0.000118111 -1.16348e-05
-1.84763e-05 -1.16348e-05 -0.00020229
0.00101321 0.00014119 -1.33826e-05
0.00014119 5.76108e-06 -5.40631e-06
-1.33826e-05 -5.40631e-06 -0.000131941
0.00040221 2.23234e-05 -8.89632e-06
2.23234e-05 -0.000119512 -1.04462e-05
-8.89632e-06 -1.04462e-05 -0.000173074
0.00071966 0.00013654 -6.16575e-06
0.00013654 1.04576e-05 -6.59489e-06
-6.16575e-06 -6.59489e-06 -0.000137263
0.000953159 0.000163403 -1.06235e-05
0.000163403 3.14655e-05 -5.18628e-06
-1.06235e-05 -5.18628e-06 -0.000112882
0.00103522 0.000209982 -6.67268e-06
0.000209982 5.80604e-05 -1.08446e-06
-6.67268e-06 -1.08446e-06 -0.000128863
0.0005364 -1.64755e-05 1.50445e-06
-1.64755e-05 -2.9511e-05 3.80639e-07
1.50445e-06 3.80639e-07 -7.45389e-05
0.000544058 -7.1918e-05 -4.32284e-07
-7.1918e-05 -1.81276e-05 2.78755e-07
-4.32284e-07 2.78755e-07 -5.08695e-05
0.000638542 -6.44432e-07 6.1535e-07
-6.44432e-07 2.83438e-05 3.22695e-07
6.1535e-07 3.22695e-07 -6.06131e-05
0.00102765 0.000117875 6.88332e-08
0.000117875 -3.00228e-06 -2.6297e-07
6.88332e-08 -2.6297e-07 -0.000135849
0.000987367 0.000155787 4.03241e-07
0.000155787 1.71883e-05 -1.91282e-07
4.03241e-07 -1.91282e-07 -0.00012381
0.00131486 0.000184459 1.89468e-07
0.000184459 8.32443e-05 2.24946e-08
1.89468e-07 2.24946e-08 -8.09201e-05
0.000790932 0.000127663 -3.56318e-07
0.000127663 0.000103276 3.36015e-07
-3.56318e-07 3.36015e-07 -3.35444e-05
0.0011242 0.000203197 -2.48335e-07
0.000203197 5.53614e-05 -9.44247e-08
-2.48335e-07 -9.44247e-08 -0.000119235
0.00109798 0.000212273 1.19722e-06
0.000212273 0.000184011 -1.46621e-06
1.19722e-06 -1.46621e-06 -1.5987e-05
0.00117797 0.000238462 -6.84249e-07
0.000238462 8.51645e-05 6.6707e-07
-6.84249e-07 6.6707e-07 -0.000109249
0.00058559 -6.54363e-05 -7.40171e-07
-6.54363e-05 -6.25287e-06 5.05276e-06
-7.40171e-07 5.05276e-06 -3.24746e-05
0.0007414 8.74441e-05 4.45063e-06
8.74441e-05 8.36192e-05 3.99972e-06
4.45063e-06 3.99972e-06 -3.12062e-05
0.000687413 -1.81999e-05 7.38959e-07
-1.81999e-05 5.17251e-05 3.70364e-06
7.38959e-07 3.70364e-06 -1.75205e-05
0.000879977 9.13615e-05 1.03062e-06
9.13615e-05 0.000192916 8.73588e-07
1.03062e-06 8.73588e-07 5.35941e-05
0.00137239 0.000161595 5.63134e-06
0.000161595 8.17568e-05 9.56837e-07
5.63134e-06 9.56837e-07 -7.40542e-05
0.00123068 0.000200576 6.99275e-06
0.000200576 7.1191e-05 2.23788e-06
6.99275e-06 2.23788e-06 -9.94821e-05
0.00158494 0.000239239 1.46761e-06
0.000239239 0.000152984 3.65743e-08
1.46761e-06 3.65743e-08 -2.05008e-05
0.00102904 0.000179648 2.65498e-06
0.000179648 0.000211737 4.15796e-06
2.65498e-06 4.15796e-06 2.90017e-05
0.0013802 0.000247308 9.05847e-07
0.000247308 0.000143794 5.70317e-07
9.05847e-07 5.70317e-07 -4.23052e-05
0.00143128 0.000261044 2.51574e-06
0.000261044 0.000320974 -1.74098e-06
2.51574e-06 -1.74098e-06 9.28651e-05
0.00168716 0.000277358 8.54978e-07
0.000277358 0.000311062 1.43819e-07
8.54978e-07 1.43819e-07 0.000113725
0.000656819 -6.17223e-06 2.01825e-06
-6.17223e-06 1.30467e-05 2.16439e-06
2.01825e-06 2.16439e-06 -3.2852e-05
0.000579943 -4.47286e-05 7.18243e-07
-4.47286e-05 -3.17524e-05 4.34627e-06
7.18243e-07 4.34627e-06 -4.9168e-05
0.00233603 -9.12827e-05 2.88578e-05
-9.12827e-05 0.00102108 3.30242e-06
2.88578e-05 3.30242e-06 0.00102745
0.00237824 -0.00010268 2.72574e-06
-0.00010268 0.00105377 -2.69321e-07
2.72574e-06 -2.69321e-07 0.00105718
0.00244417 -0.000114789 -3.57447e-05
-0.000114789 0.00110038 -2.66996e-06
-3.57447e-05 -2.66996e-06 0.00110038
0.000485241 2.12135e-05 3.0563e-06
2.12135e-05 -6.26473e-05 -6.78473e-06
3.0563e-06 -6.78473e-06 -9.85553e-05
0.00320455 0.000124489 7.21894e-05
0.000124489 0.00154573 -3.19665e-06
7.21894e-05 -3.19665e-06 0.00154211
0.000538544 1.30382e-05 -2.9874e-07
1.30382e-05 -3.10054e-05 1.56039e-07
-2.9874e-07 1.56039e-07 -7.41478e-05
0.00362686 0.000125727 -3.21792e-06
0.000125727 0.00179333 -4.41567e-07
-3.21792e-06 -4.41567e-07 0.00178909
0.000645214 9.02047e-05 -1.86068e-05
9.02047e-05 -8.23335e-05 -5.82406e-06
-1.86068e-05 -5.82406e-06 -0.000158128
0.000646206 3.14528e-05 -1.80617e-05
3.14528e-05 -9.1521e-05 -3.09585e-06
-1.80617e-05 -3.09585e-06 -0.000162171
0.00102413 7.88467e-05 -1.17967e-05
7.88467e-05 -1.90625e-05 -2.77744e-06
-1.17967e-05 -2.77744e-06 -0.000144415
0.00103104 3.77442e-05 -1.23245e-05
3.77442e-05 -2.28756e-05 -1.37237e-06
-1.23245e-05 -1.37237e-06 -0.000141035
0.00066016 -5.42571e-06 -1.86574e-05
-5.42571e-06 -8.7625e-05 -6.81584e-07
-1.86574e-05 -6.81584e-07 -0.00015288
0.00535154 -9.58867e-05 -0.000213583
-9.58867e-05 0.00277258 3.07634e-06
-0.000213583 3.07634e-06 0.00277518
0.000643427 -5.29062e-07 1.26446e-07
-5.29062e-07 -9.60423e-05 -3.73531e-07
1.26446e-07 -3.73531e-07 -0.000161027
0.00103967 1.85729e-05 -3.71144e-08
1.85729e-05 -1.73104e-05 -6.87973e-08
-3.71144e-08 -6.87973e-08 -0.000132923
0.00104173 5.55138e-05 -4.39062e-08
5.55138e-05 -1.43718e-05 -1.46879e-07
-4.39062e-08 -1.46879e-07 -0.000135602
0.00140723 5.10028e-05 -4.95831e-08
5.10028e-05 5.52779e-05 -1.60408e-08
-4.95831e-08 -1.60408e-08 -7.35711e-05
0.00103738 9.72075e-05 -6.66096e-08
9.72075e-05 -6.28809e-06 -1.90607e-07
-6.66096e-08 -1.90607e-07 -0.000135152
0.00140325 0.000108754 -6.96801e-09
0.000108754 6.93263e-05 -4.021e-08
-6.96801e-09 -4.021e-08 -7.14234e-05
0.00104185 -1.70496e-07 1.19841e-05
-1.70496e-07 -1.44602e-05 -2.76464e-07
1.19841e-05 -2.76464e-07 -0.000128985
0.00141163 2.92162e-05 3.19518e-06
2.92162e-05 5.82957e-05 6.64686e-08
3.19518e-06 6.64686e-08 -6.69936e-05
0.00141134 8.06579e-05 3.29628e-06
8.06579e-05 6.33971e-05 2.14599e-07
3.29628e-06 2.14599e-07 -7.08051e-05
0.00171265 7.46782e-05 -1.12351e-06
7.46782e-05 9.6462e-05 -4.40561e-07
-1.12351e-06 -4.40561e-07 -1.58651e-05
0.00141222 0.000135983 4.04838e-06
0.000135983 8.47923e-05 6.89202e-07
4.04838e-06 6.89202e-07 -6.2798e-05
0.00168001 0.000142841 -6.65347e-07
0.000142841 0.00010887 -9.90518e-07
-6.65347e-07 -9.90518e-07 -2.13997e-05
0.000627331 3.67055e-06 -1.77591e-05
3.67055e-06 -0.000100087 9.81426e-07
-1.77591e-05 9.81426e-07 -0.000167627
0.00163794 -2.03929e-05 -9.13877e-05
-2.03929e-05 0.000492313 3.52739e-06
-9.13877e-05 3.52739e-06 0.000435986
0.000732335 -1.915e-05 -1.37007e-05
-1.915e-05 -0.000190205 1.66378e-06
-1.37007e-05 1.66378e-06 -0.000307283
0.00201217 -9.58617e-05 -2.25196e-05
-9.58617e-05 0.000557159 3.47104e-06
-2.25196e-05 3.47104e-06 0.000443841
0.00407483 0.000121446 -0.000126296
0.000121446 0.00205619 6.22285e-06
-0.000126296 6.22285e-06 0.00205053
0.00244836 -8.32291e-05 -7.72531e-05
-8.32291e-05 0.00105672 1.05289e-05
-7.72531e-05 1.05289e-05 0.000998864
0.00194795 -0.000228276 -1.73846e-05
-0.000228276 0.000672872 7.15078e-06
-1.73846e-05 7.15078e-06 0.000521928
0.00161948 -0.000135851 -2.31918e-05
-0.000135851 0.000350999 5.7492e-06
-2.31918e-05 5.7492e-06 0.000228888
0.0013038 -0.00012942 -6.34761e-06
-0.00012942 3.81915e-05 1.35526e-06
-6.34761e-06 1.35526e-06 -0.00010275
0.00174247 -0.000194785 -7.47206e-06
-0.000194785 0.000340995 1.97578e-06
-7.47206e-06 1.97578e-06 0.000187642
0.00107924 -0.000200876 -7.52755e-06
-0.000200876 1e-05 1.97666e-06
-7.52755e-06 1.97666e-06 -0.000165082
0.00146387 -0.000230778 -2.82196e-06
-0.000230778 0.000133774 -4.89474e-07
-2.82196e-06 -4.89474e-07 -4.08302e-05
0.00060641 -1.34871e-05 -7.8298e-06
-1.34871e-05 3.52801e-06 9.3923e-06
-7.8298e-06 9.3923e-06 -4.63805e-05
0.000709816 -5.41258e-05 -2.54555e-06
-5.41258e-05 6.44771e-05 3.43534e-06
-2.54555e-06 3.43534e-06 -4.14094e-05
0.000883406 -7.40502e-06 -3.72986e-07
-7.40502e-06 -0.000105096 -1.15104e-07
-3.72986e-07 -1.15104e-07 -0.000220464
0.00164684 -5.64961e-05 -5.17402e-06
-5.64961e-05 0.000341508 5.32995e-07
-5.17402e-06 5.32995e-07 0.00022995
0.00169887 -3.87545e-05 -2.31834e-06
-3.87545e-05 0.000237561 2.98419e-07
-2.31834e-06 2.98419e-07 0.00011561
0.00154203 -0.000109376 1.63742e-07
-0.000109376 0.000164091 9.29015e-09
1.63742e-07 9.29015e-09 2.89282e-05
0.000541695 -3.77927e-05 1.68469e-08
-3.77927e-05 -4.05489e-05 2.91095e-07
1.68469e-08 2.91095e-07 -9.63901e-05
0.000854486 -0.000152375 -4.44506e-07
-0.000152375 0.000104408 2.47838e-08
-4.44506e-07 2.47838e-08 -4.11377e-05
0.00099572 -0.000211426 1.60043e-06
-0.000211426 2.71461e-05 -1.31121e-06
1.60043e-06 -1.31121e-06 -0.000161326
0.00168249 -0.000171043 -2.20304e-06
-0.000171043 0.00028451 5.61928e-07
-2.20304e-06 5.61928e-07 0.000137955
0.00171135 -0.000167417 1.35867e-07
-0.000167417 0.00016861 1.19313e-07
1.35867e-07 1.19313e-07 3.43201e-05
0.00168583 -0.000272515 -2.04318e-06
-0.000272515 0.000293938 1.87868e-07
-2.04318e-06 1.87868e-07 9.87083e-05
0.00150937 -0.000214309 4.00664e-07
-0.000214309 0.000122845 -7.91366e-08
4.00664e-07 -7.91366e-08 -3.77747e-05
0.00175786 -0.000267598 6.25676e-07
-0.000267598 0.000232896 5.37591e-07
6.25676e-07 5.37591e-07 6.34452e-05
0.000724035 -8.59926e-05 -1.79782e-07
-8.59926e-05 7.09039e-05 -1.94117e-07
-1.79782e-07 -1.94117e-07 -4.85873e-05
0.000613146 -7.85156e-05 -7.5753e-07
-7.85156e-05 1.03051e-05 -7.36075e-07
-7.5753e-07 -7.36075e-07 -0.000131439
0.000665437 -1.98802e-05 1.61434e-07
-1.98802e-05 4.21353e-05 2.1927e-07
1.61434e-07 2.1927e-07 -4.8391e-05
0.00168246 -1.56619e-05 1.72948e-06
-1.56619e-05 0.000223264 -1.46653e-07
1.72948e-06 -1.46653e-07 0.000101277
0.00169452 -7.13166e-05 1.94427e-06
-7.13166e-05 0.000236564 2.32446e-07
1.94427e-06 2.32446e-07 0.000110986
0.00164979 -5.58079e-05 -1.33495e-06
-5.58079e-05 8.3675e-05 8.67533e-07
-1.33495e-06 8.67533e-07 -2.77755e-05
0.00164508 -0.000136384 -1.85845e-06
-0.000136384 0.000102621 1.0512e-06
-1.85845e-06 1.0512e-06 -2.43494e-05
0.00152614 -0.000193993 8.62613e-07
-0.000193993 9.91338e-05 1.26254e-06
8.62613e-07 1.26254e-06 -4.68167e-05
0.0017505 -0.000189166 -2.00284e-06
-0.000189166 0.000123764 1.39884e-06
-2.00284e-06 1.39884e-06 8.32273e-06
0.000672883 -0.000109103 3.7764e-06
-0.000109103 3.58654e-05 -4.01201e-06
3.7764e-06 -4.01201e-06 -9.47322e-05
0.00162697 -0.000248519 -1.46986e-06
-0.000248519 0.000118283 1.94665e-06
-1.46986e-06 1.94665e-06 -3.25668e-05
0.000983259 -0.000201688 2.23526e-06
-0.000201688 0.00012784 -4.5174e-06
2.23526e-06 -4.5174e-06 -5.75356e-05
0.00123026 -0.000260986 5.93163e-06
-0.000260986 9.97189e-05 -2.64416e-06
5.93163e-06 -2.64416e-06 -0.00011353
0.00182652 -0.00030319 1.30752e-06
-0.00030319 0.000321344 2.95988e-06
1.30752e-06 2.95988e-06 0.000120295
0.00191321 -0.000295107 -3.04471e-06
-0.000295107 0.00028115 3.9341e-06
-3.04471e-06 3.9341e-06 0.000122461
0.000611116 -1.2707e-05 1.01648e-06
-1.2707e-05 9.96234e-06 -3.04508e-06
1.01648e-06 -3.04508e-06 -6.86072e-05
0.000808919 -0.000128797 1.72046e-06
-0.000128797 0.000102895 7.11166e-07
1.72046e-06 7.11166e-07 -4.29756e-05
0.000610167 -5.99206e-05 2.67576e-07
-5.99206e-05 3.09225e-05 -9.94028e-07
2.67576e-07 -9.94028e-07 -0.000106551
0.00117943 -0.000188004 -1.30305e-06
-0.000188004 0.000331055 1.73939e-06
-1.30305e-06 1.73939e-06 0.000165313
0.00102108 0.000120128 -1.30889e-05
0.000120128 -5.71569e-06 -4.58263e-06
-1.30889e-05 -4.58263e-06 -0.0001393
0.000493925 -7.08417e-05 5.66473e-07
-7.08417e-05 -4.83269e-05 -5.40674e-06
5.66473e-07 -5.40674e-06 -8.02754e-05
0.000433029 -3.39719e-05 -1.49036e-06
-3.39719e-05 -8.49791e-05 -8.79094e-06
-1.49036e-06 -8.79094e-06 -0.000130557
0.000601442 -3.33082e-05 9.156e-07
-3.33082e-05 1.07413e-05 -4.23634e-06
9.156e-07 -4.23634e-06 -7.75057e-05
0.00100117 0.000158332 -1.21858e-05
0.000158332 2.6185e-05 -6.12374e-06
-1.21858e-05 -6.12374e-06 -0.000115403
0.00129932 0.000182763 -6.25757e-06
0.000182763 7.84987e-05 -1.67871e-06
-6.25757e-06 -1.67871e-06 -8.55942e-05
0.000663058 0.000107957 -4.06795e-06
0.000107957 3.05852e-05 -4.31514e-06
-4.06795e-06 -4.31514e-06 -0.000103214
0.00137157 0.0002337 -5.22742e-06
0.0002337 0.000343129 -4.70594e-06
-5.22742e-06 -4.70594e-06 0.000140453
0.00132302 0.000216726 -5.81383e-06
0.000216726 0.000172198 -1.9896e-06
-5.81383e-06 -1.9896e-06 -4.12988e-06
0.000850945 0.000215742 -3.63099e-06
0.000215742 -0.00010701 1.99895e-06
-3.63099e-06 1.99895e-06 -0.000298581
0.000558466 -6.15068e-05 -1.46074e-07
-6.15068e-05 -2.40375e-05 9.73299e-08
-1.46074e-07 9.73299e-08 -4.91098e-05
0.000739271 7.63477e-05 3.28877e-07
7.63477e-05 8.78284e-05 -2.09439e-07
3.28877e-07 -2.09439e-07 -2.87031e-05
0.000623329 -3.38622e-05 -6.59519e-07
-3.38622e-05 1.79094e-05 6.78205e-07
-6.59519e-07 6.78205e-07 -5.18238e-05
0.000777199 5.87827e-05 9.86445e-07
5.87827e-05 0.000130205 -6.24448e-07
9.86445e-07 -6.24448e-07 -3.68941e-06
0.00136185 0.000160631 4.54816e-07
0.000160631 7.90918e-05 -1.56021e-07
4.54816e-07 -1.56021e-07 -7.68337e-05
0.00126723 0.000202918 2.29271e-07
0.000202918 9.60015e-05 -5.30894e-10
2.29271e-07 -5.30894e-10 -7.50444e-05
0.00158731 0.000239657 2.42321e-07
0.000239657 0.000153541 1.77534e-07
2.42321e-07 1.77534e-07 -2.02595e-05
0.00099431 0.000178192 8.23277e-07
0.000178192 0.000195479 7.28256e-07
8.23277e-07 7.28256e-07 1.39434e-05
0.00157198 0.00025882 -7.7773e-07
0.00025882 0.000259615 -4.00768e-07
-7.7773e-07 -4.00768e-07 7.26201e-05
0.00118858 0.000242672 3.93594e-07
0.000242672 0.000182193 -2.47962e-06
3.93594e-07 -2.47962e-06 -4.61714e-05
0.00151245 0.000264345 -2.30027e-06
0.000264345 0.000215313 1.30509e-07
-2.30027e-06 1.30509e-07 2.02002e-05
0.000573153 -5.34708e-05 5.93074e-07
-5.34708e-05 -2.68022e-05 4.47353e-06
5.93074e-07 4.47353e-06 -4.74434e-05
0.000684561 -2.15585e-05 1.29368e-06
-2.15585e-05 4.25163e-05 2.68591e-06
1.29368e-06 2.68591e-06 -1.40231e-05
0.000979007 0.000136037 2.09674e-06
0.000136037 0.000217611 2.10381e-06
2.09674e-06 2.10381e-06 6.31462e-05
0.000825035 5.59843e-05 -5.02807e-07
5.59843e-05 0.00016688 2.45865e-06
-5.02807e-07 2.45865e-06 4.97449e-05
0.00105149 0.000132915 9.60474e-08
0.000132915 0.000295321 -5.18466e-07
9.60474e-08 -5.18466e-07 0.000135182
0.00164024 0.000208937 1.30255e-06
0.000208937 0.000143473 -1.13295e-06
1.30255e-06 -1.13295e-06 -1.45665e-05
0.0014744 0.000254442 1.26079e-06
0.000254442 0.000141835 9.61277e-07
1.26079e-06 9.61277e-07 -4.19632e-05
0.00175103 0.000278012 1.56487e-07
0.000278012 0.000198744 -4.50866e-07
1.56487e-07 -4.50866e-07 2.96839e-05
0.00131145 0.000236224 3.04589e-06
0.000236224 0.000357158 4.84369e-06
3.04589e-06 4.84369e-06 0.000133347
0.00171488 0.000299624 2.40806e-06
0.000299624 0.000290765 6.05394e-07
2.40806e-06 6.05394e-07 9.4569e-05
0.000805025 0.000223754 2.9457e-06
0.000223754 -0.000116967 -1.95237e-06
2.9457e-06 -1.95237e-06 -0.000335958
0.000652448 -1.00722e-05 2.37637e-06
-1.00722e-05 1.21448e-05 2.16372e-06
2.37637e-06 2.16372e-06 -3.51971e-05
0.00070201 3.59418e-05 2.63736e-07
3.59418e-05 6.61251e-05 1.01066e-06
2.63736e-07 1.01066e-06 -1.08623e-05
0.000672356 3.5757e-06 1.7444e-06
3.5757e-06 2.25684e-05 2.13636e-06
1.7444e-06 2.13636e-06 -2.2806e-05
0.000650685 -2.27919e-05 -4.4894e-07
-2.27919e-05 1.13272e-05 1.61302e-08
-4.4894e-07 1.61302e-08 -3.55699e-05
0.00126026 -5.13495e-05 1.05216e-06
-5.13495e-05 0.0003619 2.55989e-06
1.05216e-06 2.55989e-06 0.000350126
0.000936086 -5.14213e-05 6.60237e-07
-5.14213e-05 0.000177302 -7.10881e-08
6.60237e-07 -7.10881e-08 0.000161643
0.000907749 -4.72557e-05 2.39973e-05
-4.72557e-05 0.000171379 7.11827e-06
2.39973e-05 7.11827e-06 0.000174723
0.00229916 -8.92928e-05 2.75989e-06
-8.92928e-05 0.000998497 -2.39743e-07
2.75989e-06 -2.39743e-07 0.00100532
0.00232069 -0.0001 -3.2299e-05
-0.0001 0.00101936 -3.05302e-06
-3.2299e-05 -3.05302e-06 0.00102335
0.00050332 4.10407e-05 -2.92436e-07
4.10407e-05 -5.33661e-05 -5.83944e-06
-2.92436e-07 -5.83944e-06 -8.49124e-05
0.00291764 0.000120769 4.91264e-05
0.000120769 0.00137363 -3.08065e-06
4.91264e-05 -3.08065e-06 0.00137125
0.000548456 2.00893e-05 -2.68712e-07
2.00893e-05 -2.64964e-05 1.95134e-07
-2.68712e-07 1.95134e-07 -6.27942e-05
0.0033194 0.000116702 -4.07095e-06
0.000116702 0.00161027 -3.4994e-07
-4.07095e-06 -3.4994e-07 0.00160863
0.000605263 1.02434e-05 -4.65453e-06
1.02434e-05 6.00741e-06 8.29212e-06
-4.65453e-06 8.29212e-06 -3.74729e-05
0.00371698 0.000115129 -0.000110005
0.000115129 0.00184316 4.97764e-06
-0.000110005 4.97764e-06 0.00184112
0.00102793 9.97078e-05 -1.23267e-05
9.97078e-05 -1.1057e-05 -3.54834e-06
-1.23267e-05 -3.54834e-06 -0.000140587
0.00103449 5.93225e-05 -1.20304e-05
5.93225e-05 -1.77011e-05 -2.09135e-06
-1.20304e-05 -2.09135e-06 -0.000139402
0.00140248 0.00010705 -3.94867e-06
0.00010705 6.88568e-05 -6.17356e-07
-3.94867e-06 -6.17356e-07 -7.20232e-05
0.00140155 5.04416e-05 -3.53251e-06
5.04416e-05 5.26329e-05 -2.61753e-08
-3.53251e-06 -2.61753e-08 -7.63111e-05
0.00103819 2.20123e-05 -1.22188e-05
2.20123e-05 -1.77796e-05 -5.82552e-07
-1.22188e-05 -5.82552e-07 -0.000133553
0.000612469 2.32894e-05 -1.82723e-05
2.32894e-05 -0.000113118 -3.97397e-08
-1.82723e-05 -3.97397e-08 -0.000178254
0.00103703 2.13316e-06 1.86183e-08
2.13316e-06 -1.72362e-05 -9.7346e-08
1.86183e-08 -9.7346e-08 -0.0001318
0.00140229 3.09785e-05 -8.45528e-08
3.09785e-05 5.27377e-05 6.9452e-08
-8.45528e-08 6.9452e-08 -7.26945e-05
0.00140967 7.81226e-05 3.0862e-08
7.81226e-05 6.34732e-05 -6.97248e-08
3.0862e-08 -6.97248e-08 -7.07054e-05
0.00173922 7.49967e-05 -4.77849e-08
7.49967e-05 0.000108067 2.49917e-07
-4.77849e-08 2.49917e-07 -2.20315e-06
0.00139327 0.000135125 -1.88539e-07
0.000135125 7.57901e-05 -4.84785e-08
-1.88539e-07 -4.84785e-08 -7.19791e-05
0.00168511 0.00014104 -2.34054e-07
0.00014104 0.000116217 6.32537e-08
-2.34054e-07 6.32537e-08 -1.40419e-05
0.00139907 7.09341e-06 3.35365e-06
7.09341e-06 5.38285e-05 -3.17547e-08
3.35365e-06 -3.17547e-08 -7.01767e-05
0.00172769 4.33409e-05 -1.85028e-06
4.33409e-05 0.000101682 1.58583e-07
-1.85028e-06 1.58583e-07 -3.06154e-06
0.0017011 0.000114631 -1.11777e-06
0.000114631 9.77986e-05 -7.92559e-07
-1.11777e-06 -7.92559e-07 -2.25771e-05
0.00182656 8.05014e-05 -1.14376e-06
8.05014e-05 9.68382e-05 1.0462e-07
-1.14376e-06 1.0462e-07 6.84113e-06
0.00166892 0.000170775 -1.88411e-07
0.000170775 0.000133033 -1.1124e-06
-1.88411e-07 -1.1124e-06 -9.17144e-06
0.00170974 0.000164485 -2.63249e-06
0.000164485 6.59807e-05 -1.17738e-06
-2.63249e-06 -1.17738e-06 -4.00372e-05
0.000730649 -4.46904e-06 -1.18164e-05
-4.46904e-06 -0.000192965 6.44058e-07
-1.18164e-05 6.44058e-07 -0.000309379
0.00167757 -5.89483e-05 -2.22252e-05
-5.89483e-05 0.000357897 2.52459e-06
-2.22252e-05 2.52459e-06 0.00024638
0.00171658 -3.24766e-05 -6.64546e-06
-3.24766e-05 0.000244339 3.99119e-07
-6.64546e-06 3.99119e-07 0.000124309
0.00171268 -0.000112689 -4.93318e-06
-0.000112689 0.000262749 8.58027e-07
-4.93318e-06 8.58027e-07 0.00012772
0.000699134 -5.05881e-05 -1.09827e-05
-5.05881e-05 4.90604e-05 1.10566e-05
-1.09827e-05 1.10566e-05 -9.37078e-06
0.000880899 -0.000163495 -7.04117e-06
-0.000163495 0.000120419 6.55377e-06
-7.04117e-06 6.55377e-06 -2.71481e-05
0.00110421 -0.000219612 -4.73932e-06
-0.000219612 9.03543e-05 1.57323e-06
-4.73932e-06 1.57323e-06 -9.88293e-05
0.00172853 -0.000170684 -8.14439e-06
-0.000170684 0.000309735 2.14075e-06
-8.14439e-06 2.14075e-06 0.000162957
0.00173911 -0.00016869 -9.24784e-08
-0.00016869 0.000179436 -7.24626e-07
-9.24784e-08 -7.24626e-07 4.78547e-05
0.0015173 -0.000214553 -1.93114e-06
-0.000214553 0.000127155 -4.9824e-07
-1.93114e-06 -4.9824e-07 -3.31409e-05
0.00159602 -0.000267581 -5.46725e-06
-0.000267581 0.000244695 -9.37874e-08
-5.46725e-06 -9.37874e-08 4.89282e-05
0.00172434 -0.000267056 2.65015e-06
-0.000267056 0.000209425 -2.60528e-06
2.65015e-06 -2.60528e-06 3.98326e-05
0.000728284 -9.31757e-05 -3.95691e-06
-9.31757e-05 7.06571e-05 3.70578e-06
-3.95691e-06 3.70578e-06 -4.84836e-05
0.000478733 -6.93176e-05 -1.78916e-06
-6.93176e-05 -6.59837e-05 -6.87246e-07
-1.78916e-06 -6.87246e-07 -0.000207464
0.000702308 -2.72833e-05 -1.21402e-06
-2.72833e-05 6.24174e-05 3.64593e-06
-1.21402e-06 3.64593e-06 -2.90805e-05
0.00154871 -1.35842e-05 -2.37436e-06
-1.35842e-05 0.000144333 1.36092e-07
-2.37436e-06 1.36092e-07 2.13263e-05
0.00170506 -7.84451e-05 -2.37746e-06
-7.84451e-05 0.000242553 4.04939e-07
-2.37746e-06 4.04939e-07 0.000116378
0.00166665 -5.22972e-05 6.17651e-07
-5.22972e-05 9.26904e-05 4.61409e-07
6.17651e-07 4.61409e-07 -1.4963e-05
0.00166678 -0.000133744 -1.34136e-06
-0.000133744 0.00011286 3.52902e-07
-1.34136e-06 3.52902e-07 -1.44017e-05
0.000756807 -0.000125455 4.03254e-07
-0.000125455 8.4185e-05 2.81666e-07
4.03254e-07 2.81666e-07 -4.87719e-05
0.00107848 -0.000210291 -1.18611e-06
-0.000210291 0.000177881 5.86294e-08
-1.18611e-06 5.86294e-08 -8.25885e-06
0.00110405 -0.000247103 1.61244e-06
-0.000247103 3.20002e-05 -8.60085e-07
1.61244e-06 -8.60085e-07 -0.000178309
0.00156382 -0.000195259 -4.90979e-07
-0.000195259 0.00012202 4.11236e-07
-4.90979e-07 4.11236e-07 -2.61399e-05
0.00178926 -0.000189813 1.42477e-06
-0.000189813 0.0001491 1.80385e-07
1.42477e-06 1.80385e-07 3.76979e-05
0.00173165 -0.000301883 -7.58114e-07
-0.000301883 0.000264919 6.3195e-07
-7.58114e-07 6.3195e-07 6.13488e-05
0.00165809 -0.000248944 1.29044e-07
-0.000248944 0.000136571 2.8714e-07
1.29044e-07 2.8714e-07 -1.39046e-05
0.00195795 -0.000295438 1.5275e-06
-0.000295438 0.000308258 -4.36782e-07
1.5275e-06 -4.36782e-07 0.000152149
0.000955394 -0.000151215 3.11323e-07
-0.000151215 0.000191702 4.30324e-07
3.11323e-07 4.30324e-07 4.07183e-05
0.00107758 -0.000186197 -2.52881e-07
-0.000186197 0.00027788 1.58446e-07
-2.52881e-07 1.58446e-07 0.000109861
0.000652143 -1.9243e-05 1.09396e-07
-1.9243e-05 3.32688e-05 1.91434e-07
1.09396e-07 1.91434e-07 -4.60305e-05
0.000453675 -2.6873e-05 -2.35333e-07
-2.6873e-05 -6.75483e-05 -5.94647e-07
-2.35333e-07 -5.94647e-07 -0.000196938
0.00168992 -3.12391e-05 -1.2776e-06
-3.12391e-05 0.000100609 -3.19108e-08
-1.2776e-06 -3.19108e-08 -6.80533e-06
0.00183786 -9.09005e-05 -7.17252e-07
-9.09005e-05 0.000192185 1.15809e-06
-7.17252e-07 1.15809e-06 7.755e-05
0.00162964 -6.48913e-05 5.92658e-07
-6.48913e-05 3.71306e-06 5.07372e-08
5.92658e-07 5.07372e-08 -8.76399e-05
0.00175746 -0.000162137 -3.72048e-06
-0.000162137 9.12665e-05 9.94139e-07
-3.72048e-06 9.94139e-07 -5.23755e-06
0.00170204 -0.000220574 -3.31604e-06
-0.000220574 0.000126011 2.81633e-06
-3.31604e-06 2.81633e-06 -2.85745e-06
0.00188154 -0.00019033 1.47126e-06
-0.00019033 0.000176106 -1.67498e-07
1.47126e-06 -1.67498e-07 8.16274e-05
0.00087125 -0.000175873 1.29465e-06
-0.000175873 0.000121184 -1.83788e-06
1.29465e-06 -1.83788e-06 -4.28738e-05
0.00161418 -0.000264873 -4.13267e-06
-0.000264873 7.36892e-05 3.00404e-06
-4.13267e-06 3.00404e-06 -5.60138e-05
0.000768853 -0.000211496 1.55556e-06
-0.000211496 -4.11144e-05 -5.2358e-06
1.55556e-06 -5.2358e-06 -0.000248741
0.00169483 -0.000327086 3.57348e-06
-0.000327086 0.000320308 -1.03362e-07
3.57348e-06 -1.03362e-07 8.51823e-05
0.00169128 -0.000315119 5.21169e-07
-0.000315119 0.000198396 5.44342e-06
5.21169e-07 5.44342e-06 -3.58642e-06
0.00192013 -0.000287823 -3.84408e-08
-0.000287823 0.000269751 1.36763e-06
-3.84408e-08 1.36763e-06 0.00011988
0.000595316 -1.99643e-05 1.33746e-06
-1.99643e-05 -8.28368e-07 -2.89547e-06
1.33746e-06 -2.89547e-06 -7.07128e-05
0.000557501 -2.48896e-05 -4.77648e-07
-2.48896e-05 3.36341e-06 -1.7412e-06
-4.77648e-07 -1.7412e-06 -0.000119542
0.000866259 -0.000185381 -1.73614e-07
-0.000185381 0.000125503 1.42028e-06
-1.73614e-07 1.42028e-06 -3.89885e-05
0.000818145 -0.000131246 1.14638e-06
-0.000131246 0.000159835 1.19185e-06
1.14638e-06 1.19185e-06 -1.87075e-06
0.00134191 -0.00022797 -2.19319e-06
-0.00022797 0.000419775 3.53184e-06
-2.19319e-06 3.53184e-06 0.000248811
0.000538995 -5.77048e-05 -8.90526e-07
-5.77048e-05 -3.7059e-05 -4.57347e-06
-8.90526e-07 -4.57347e-06 -6.11387e-05
0.00134979 0.000159534 -4.74202e-06
0.000159534 7.59677e-05 -1.27505e-06
-4.74202e-06 -1.27505e-06 -8.00613e-05
0.000543753 -4.99996e-05 -1.72207e-07
-4.99996e-05 -2.38529e-05 -2.96442e-06
-1.72207e-07 -2.96442e-06 -9.48752e-05
0.000732816 5.45219e-05 -1.56385e-06
5.45219e-05 8.07726e-05 -4.10436e-06
-1.56385e-06 -4.10436e-06 -3.10195e-05
0.000674083 2.54127e-05 1.56456e-06
2.54127e-05 6.61178e-05 -1.95314e-06
1.56456e-06 -1.95314e-06 -6.16289e-05
0.00129817 0.000205239 -6.58724e-06
0.000205239 0.000116936 -2.19595e-06
-6.58724e-06 -2.19595e-06 -5.45607e-05
0.00159577 0.000240461 -2.40469e-07
0.000240461 0.000157558 4.75588e-07
-2.40469e-07 4.75588e-07 -1.65947e-05
0.00105368 0.000189265 -2.07134e-06
0.000189265 0.000234157 -3.23653e-06
-2.07134e-06 -3.23653e-06 5.10032e-05
0.00098292 0.000228359 -2.50659e-06
0.000228359 6.33745e-05 -2.46307e-06
-2.50659e-06 -2.46307e-06 -0.000165746
0.00173908 0.000268985 -3.45634e-06
0.000268985 0.000360814 -1.47553e-06
-3.45634e-06 -1.47553e-06 0.000172975
0.00131553 0.000250053 -6.08628e-06
0.000250053 0.000106914 2.27867e-07
-6.08628e-06 2.27867e-07 -8.58929e-05
0.000571688 -5.12161e-05 5.34031e-08
-5.12161e-05 -2.87776e-05 1.78963e-09
5.34031e-08 1.78963e-09 -4.89057e-05
0.000640038 -2.99778e-05 -6.19344e-07
-2.99778e-05 1.86831e-05 2.86989e-07
-6.19344e-07 2.86989e-07 -3.83063e-05
0.000925117 0.000132466 2.35204e-07
0.000132466 0.000185768 5.92877e-07
2.35204e-07 5.92877e-07 3.26719e-05
0.000718963 5.20304e-06 -4.59151e-07
5.20304e-06 9.96877e-05 4.07644e-07
-4.59151e-07 4.07644e-07 -1.06794e-05
0.000678903 9.2684e-05 7.54747e-07
9.2684e-05 7.19947e-05 -4.68191e-07
7.54747e-07 -4.68191e-07 -8.09729e-05
0.0016355 0.000210042 2.1215e-07
0.000210042 0.000138296 -5.78264e-07
2.1215e-07 -5.78264e-07 -2.02726e-05
0.00148691 0.000254497 7.00372e-07
0.000254497 0.000150268 5.03305e-07
7.00372e-07 5.03305e-07 -3.36289e-05
0.00168075 0.000275736 1.62551e-06
0.000275736 0.00015847 2.39787e-07
1.62551e-06 2.39787e-07 -1.11183e-05
0.0011625 0.000223417 1.0219e-06
0.000223417 0.000278699 1.56692e-06
1.0219e-06 1.56692e-06 5.40168e-05
0.00175466 0.000303538 3.02448e-07
0.000303538 0.00030579 5.5372e-08
3.02448e-07 5.5372e-08 0.00010904
0.0011109 0.000247629 -2.11286e-06
0.000247629 5.31285e-05 -1.03525e-07
-2.11286e-06 -1.03525e-07 -0.000167959
0.000685595 -1.64937e-05 2.20978e-06
-1.64937e-05 3.51958e-05 2.29323e-06
2.20978e-06 2.29323e-06 -1.50953e-05
0.000779218 3.51404e-05 6.22247e-07
3.51404e-05 0.000122223 2.28961e-06
6.22247e-07 2.28961e-06 2.95535e-05
0.000979238 0.000193277 -1.47531e-06
0.000193277 0.000212144 2.58307e-08
-1.47531e-06 2.58307e-08 3.07859e-05
0.00106207 5.08719e-05 1.47687e-07
5.08719e-05 0.000301182 1.043e-06
1.47687e-07 1.043e-06 0.000166665
0.00127091 0.000114833 -4.19068e-06
0.000114833 0.000382916 -4.56583e-06
-4.19068e-06 -4.56583e-06 0.000228221
0.00169747 0.000222146 -2.70969e-06
0.000222146 0.000134406 -2.67587e-06
-2.70969e-06 -2.67587e-06 -9.48223e-06
0.00168337 0.000308746 1.79341e-06
0.000308746 0.000209298 1.80232e-07
1.79341e-06 1.80232e-07 1.96431e-05
0.00151229 0.000295472 2.96137e-06
0.000295472 2.95634e-05 -1.08162e-06
2.96137e-06 -1.08162e-06 -0.000136691
0.000991317 0.000223115 -1.58421e-08
0.000223115 0.00014959 2.5865e-06
-1.58421e-08 2.5865e-06 -9.11246e-05
0.00144747 0.000300997 6.08277e-06
0.000300997 0.00015191 -2.90556e-07
6.08277e-06 -2.90556e-07 -6.35472e-05
0.000654614 -1.85163e-05 -1.78113e-07
-1.85163e-05 1.39411e-05 8.53208e-09
-1.78113e-07 8.53208e-09 -3.36433e-05
0.000570482 1.37811e-05 1.49133e-06
1.37811e-05 -1.97595e-05 1.42666e-06
1.49133e-06 1.42666e-06 -9.28634e-05
0.000586658 6.25246e-08 -5.81421e-07
6.25246e-08 -5.49535e-06 -7.71518e-08
-5.81421e-07 -7.71518e-08 -7.91027e-05
0.00092445 7.30485e-05 6.19143e-07
7.30485e-05 0.000204202 -2.48326e-07
6.19143e-07 -2.48326e-07 0.000112921
0.000706431 5.55621e-05 1.79692e-06
5.55621e-05 6.86108e-05 1.2489e-06
1.79692e-06 1.2489e-06 -6.95405e-06
0.00065531 1.6001e-05 1.72264e-06
1.6001e-05 1.57372e-05 2.18471e-06
1.72264e-06 2.18471e-06 -3.02078e-05
0.000653826 -1.66115e-05 -6.40386e-07
-1.66115e-05 1.34581e-05 2.52141e-08
-6.40386e-07 2.52141e-08 -3.27282e-05
0.00125683 -3.98901e-05 7.7302e-07
-3.98901e-05 0.000354957 2.46359e-06
7.7302e-07 2.46359e-06 0.000345015
0.000651438 -3.08455e-05 -9.03102e-07
-3.08455e-05 1.23101e-05 -2.19629e-06
-9.03102e-07 -2.19629e-06 -3.4765e-05
0.00129249 -4.81543e-05 -5.10425e-06
-4.81543e-05 0.000380316 -1.34848e-06
-5.10425e-06 -1.34848e-06 0.000369024
0.000875816 -3.80387e-05 2.24717e-05
-3.80387e-05 0.000144098 7.2985e-06
2.24717e-05 7.2985e-06 0.000150231
0.00130391 -5.57881e-05 -9.56854e-06
-5.57881e-05 0.000393597 -3.73094e-06
-9.56854e-06 -3.73094e-06 0.000380122
0.00156021 -6.17482e-05 2.04557e-05
-6.17482e-05 0.000555453 1.93225e-06
2.04557e-05 1.93225e-06 0.000562011
0.0022649 -8.72565e-05 -2.85798e-05
-8.72565e-05 0.000977338 -3.51893e-06
-2.85798e-05 -3.51893e-06 0.000984631
0.00051279 5.48733e-05 -7.29784e-07
5.48733e-05 -5.2194e-05 -4.9157e-06
-7.29784e-07 -4.9157e-06 -7.93326e-05
0.000539561 3.25345e-05 1.49242e-07
3.25345e-05 -3.40646e-05 2.16978e-07
1.49242e-07 2.16978e-07 -6.48163e-05
0.00267053 0.000106619 3.73133e-05
0.000106619 0.00122326 -3.37237e-06
3.73133e-05 -3.37237e-06 0.00122449
0.00301732 0.000110007 -5.91493e-06
0.000110007 0.00142986 -3.20122e-07
-5.91493e-06 -3.20122e-07 0.00143019
0.000614708 1.86037e-05 -3.63157e-06
1.86037e-05 1.13328e-05 7.04355e-06
-3.63157e-06 7.04355e-06 -2.53807e-05
0.00341158 0.000106209 -9.6015e-05
0.000106209 0.00166138 4.38444e-06
-9.6015e-05 4.38444e-06 0.00166214
0.00137818 0.000134589 -4.55199e-06
0.000134589 6.87223e-05 -8.1275e-07
-4.55199e-06 -8.1275e-07 -7.92548e-05
0.00139762 7.8483e-05 -3.66852e-06
7.8483e-05 5.76861e-05 -3.54752e-07
-3.66852e-06 -3.54752e-07 -7.68194e-05
0.00168351 0.000140262 1.66907e-07
0.000140262 0.000119757 1.09264e-06
1.66907e-07 1.09264e-06 -1.06309e-05
0.00176567 7.53281e-05 9.70824e-07
7.53281e-05 0.0001195 6.84072e-07
9.70824e-07 6.84072e-07 1.1299e-05
0.00139184 3.4147e-05 -3.20142e-06
3.4147e-05 4.64259e-05 1.05539e-07
-3.20142e-06 1.05539e-07 -7.9204e-05
0.00104206 6.77475e-06 -1.19212e-05
6.77475e-06 -1.46081e-05 -2.16575e-08
-1.19212e-05 -2.16575e-08 -0.000129138
0.00139685 1.05103e-05 6.7532e-08
1.05103e-05 5.23007e-05 1.94842e-09
6.7532e-08 1.94842e-09 -7.18075e-05
0.00173432 3.3447e-05 -1.12053e-06
3.3447e-05 0.000106755 -2.71474e-08
-1.12053e-06 -2.71474e-08 2.36441e-06
0.00171403 0.000113435 -1.48201e-07
0.000113435 0.000106376 6.9615e-08
-1.48201e-07 6.9615e-08 -1.3831e-05
0.00180037 7.96495e-05 1.60305e-06
7.96495e-05 8.06108e-05 9.79897e-07
1.60305e-06 9.79897e-07 -5.33437e-06
0.00165611 0.000171561 -2.55595e-07
0.000171561 0.000123164 -7.75095e-08
-2.55595e-07 -7.75095e-08 -1.96225e-05
0.00172883 0.000161954 -3.55978e-07
0.000161954 7.40749e-05 9.74319e-07
-3.55978e-07 9.74319e-07 -2.92294e-05
0.00171801 2.10737e-07 -1.21088e-06
2.10737e-07 0.000110005 4.2004e-08
-1.21088e-06 4.2004e-08 6.08588e-06
0.00168504 4.04906e-05 -2.72317e-08
4.04906e-05 2.87357e-05 6.94604e-07
-2.72317e-08 6.94604e-07 -5.54451e-05
0.00185852 0.000127043 -3.65058e-06
0.000127043 0.000123795 -9.63412e-07
-3.65058e-06 -9.63412e-07 3.34888e-05
0.00189235 8.53779e-05 2.33281e-06
8.53779e-05 0.000119183 1.693e-07
2.33281e-06 1.693e-07 5.21821e-05
0.00167008 0.000175884 -1.472e-06
0.000175884 7.90468e-05 -2.69576e-06
-1.472e-06 -2.69576e-06 -4.11275e-05
0.00183878 0.000172808 2.15415e-06
0.000172808 9.91714e-05 1.33936e-07
2.15415e-06 1.33936e-07 1.31932e-05
0.00141088 -1.19294e-05 -5.21286e-06
-1.19294e-05 6.27896e-05 2.42014e-07
-5.21286e-06 2.42014e-07 -6.12437e-05
0.00172329 -8.25097e-05 -6.81475e-06
-8.25097e-05 0.000252892 6.41465e-07
-6.81475e-06 6.41465e-07 0.000126328
0.00167384 -5.00165e-05 1.59807e-06
-5.00165e-05 9.59724e-05 -7.47821e-07
1.59807e-06 -7.47821e-07 -7.98559e-06
0.00168258 -0.000131429 -4.4714e-07
-0.000131429 0.00011966 -2.18532e-07
-4.4714e-07 -2.18532e-07 -7.95098e-06
0.000889002 -0.000147014 -4.94131e-06
-0.000147014 0.000160711 5.46189e-06
-4.94131e-06 5.46189e-06 2.47241e-05
0.00121332 -0.000221947 -4.13088e-06
-0.000221947 0.000251155 4.1401e-06
-4.13088e-06 4.1401e-06 6.37388e-05
0.000901013 -0.000227005 -2.77366e-06
-0.000227005 -8.17906e-05 4.62316e-07
-2.77366e-06 4.62316e-07 -0.000288652
0.00160402 -0.000196647 -1.58043e-06
-0.000196647 0.000146283 1.08701e-07
-1.58043e-06 1.08701e-07 -4.10485e-06
0.00182242 -0.000190087 3.40229e-06
-0.000190087 0.000171344 -1.8877e-06
3.40229e-06 -1.8877e-06 6.40224e-05
0.00168917 -0.000249349 2.10154e-06
-0.000249349 0.00015506 -1.40251e-06
2.10154e-06 -1.40251e-06 4.9597e-06
0.00162265 -0.000300972 -9.46351e-07
-0.000300972 0.000200057 -1.62029e-06
-9.46351e-07 -1.62029e-06 -6.27038e-06
0.00199891 -0.000295262 4.76369e-06
-0.000295262 0.000333705 -6.36897e-06
4.76369e-06 -6.36897e-06 0.000180276
0.000898584 -0.000150943 -1.04804e-06
-0.000150943 0.000160452 5.25826e-07
-1.04804e-06 5.25826e-07 9.48013e-06
0.000723285 -0.000138173 -5.52413e-07
-0.000138173 6.53269e-05 -1.10129e-06
-5.52413e-07 -1.10129e-06 -9.16918e-05
0.000716687 -2.41776e-05 -1.47064e-06
-2.41776e-05 6.92094e-05 3.20964e-06
-1.47064e-06 3.20964e-06 -1.03864e-05
0.000419642 -5.45847e-06 4.42143e-07
-5.45847e-06 -8.99135e-05 -5.27643e-07
4.42143e-07 -5.27643e-07 -0.00021443
0.00168566 -3.10312e-05 -2.05094e-08
-3.10312e-05 9.87205e-05 3.50646e-08
-2.05094e-08 3.50646e-08 -8.81327e-06
0.00176364 -9.01536e-05 -2.91871e-08
-9.01536e-05 0.000149874 -2.22817e-07
-2.91871e-08 -2.22817e-07 3.33424e-05
0.00170094 -6.49039e-05 1.63112e-06
-6.49039e-05 4.49433e-05 -4.09977e-07
1.63112e-06 -4.09977e-07 -4.35554e-05
0.00170708 -0.00015885 -1.41685e-06
-0.00015885 7.00656e-05 6.04742e-07
-1.41685e-06 6.04742e-07 -2.84153e-05
0.000967846 -0.000175623 -4.37557e-07
-0.000175623 0.000176083 1.0067e-06
-4.37557e-07 1.0067e-06 1.23001e-05
0.00087413 -0.000217501 1.41433e-06
-0.000217501 1.91032e-05 -2.13786e-06
1.41433e-06 -2.13786e-06 -0.000187034
0.0016148 -0.000321356 -9.06862e-08
-0.000321356 0.00027146 6.29577e-07
-9.06862e-08 6.29577e-07 3.49869e-05
0.0016505 -0.000217736 -1.46824e-06
-0.000217736 0.000101072 7.01899e-07
-1.46824e-06 7.01899e-07 -3.11087e-05
0.00176603 -0.00018851 2.10394e-06
-0.00018851 0.000105109 -1.09461e-06
2.10394e-06 -1.09461e-06 1.42211e-05
0.00168839 -0.000316316 -7.94136e-07
-0.000316316 0.000198561 9.56785e-07
-7.94136e-07 9.56785e-07 -4.43144e-06
0.0016703 -0.000267438 -3.94076e-07
-0.000267438 0.000106381 1.02437e-06
-3.94076e-07 1.02437e-06 -2.3598e-05
0.00181052 -0.000282273 3.12822e-06
-0.000282273 0.000196502 -4.76915e-06
3.12822e-06 -4.76915e-06 5.0626e-05
0.00100071 -0.000197521 3.65177e-07
-0.000197521 0.000201773 1.16294e-06
3.65177e-07 1.16294e-06 3.50821e-05
0.00119444 -0.000208204 2.3965e-06
-0.000208204 0.000326749 9.85148e-07
2.3965e-06 9.85148e-07 0.000163234
0.000820773 -0.000101649 -2.93184e-07
-0.000101649 0.000157206 2.62292e-08
-2.93184e-07 2.62292e-08 -3.02793e-06
0.000503605 4.57089e-07 -1.0367e-06
4.57089e-07 -5.42489e-05 2.58109e-07
-1.0367e-06 2.58109e-07 -0.000125555
0.000462233 4.82998e-06 -2.64246e-07
4.82998e-06 -5.45509e-05 -7.27402e-07
-2.64246e-07 -7.27402e-07 -0.000172807
0.00177586 -4.19543e-05 2.3398e-07
-4.19543e-05 8.49567e-05 -5.8187e-07
2.3398e-07 -5.8187e-07 1.95263e-06
0.0018054 -9.31975e-05 1.00024e-06
-9.31975e-05 9.43187e-05 4.22503e-07
1.00024e-06 4.22503e-07 1.0373e-05
0.00181978 -0.000185675 -3.96392e-07
-0.000185675 0.00010216 -8.46743e-07
-3.96392e-07 -8.46743e-07 2.30573e-05
0.00157239 -0.000216587 -7.71802e-07
-0.000216587 1.35737e-05 6.66619e-07
-7.71802e-07 6.66619e-07 -8.86336e-05
0.00103606 -0.000209866 -1.32278e-06
-0.000209866 0.000204254 -2.5004e-06
-1.32278e-06 -2.5004e-06 1.81427e-05
0.00218124 -0.000315602 -2.62068e-06
-0.000315602 0.000345893 1.28991e-06
-2.62068e-06 1.28991e-06 0.00022035
0.000614306 -0.000220735 1.74991e-06
-0.000220735 -0.00016679 -5.72287e-06
1.74991e-06 -5.72287e-06 -0.000390912
0.00173882 -0.000361989 3.53736e-06
-0.000361989 0.000294367 1.64615e-06
3.53736e-06 1.64615e-06 4.25041e-05
0.00155929 -0.000309455 1.79421e-06
-0.000309455 9.00474e-05 4.12488e-06
1.79421e-06 4.12488e-06 -0.000105526
0.000309587 1.43916e-05 6.81311e-07
1.43916e-05 -0.000167423 -3.48128e-06
6.81311e-07 -3.48128e-06 -0.000230562
0.000770434 -2.83076e-05 8.03694e-07
-2.83076e-05 0.000131707 -1.1248e-06
8.03694e-07 -1.1248e-06 2.09499e-05
0.000972282 -6.30365e-05 -7.5278e-07
-6.30365e-05 0.000239162 -1.17171e-07
-7.5278e-07 -1.17171e-07 9.98289e-05
0.00111438 -0.000214518 -4.16138e-06
-0.000214518 0.000252246 1.43222e-06
-4.16138e-06 1.43222e-06 8.35601e-05
0.00061383 -0.000118901 2.92652e-06
-0.000118901 2.88797e-05 2.79338e-06
2.92652e-06 2.79338e-06 -0.00014579
0.000548871 -0.000171783 8.76467e-08
-0.000171783 -7.95369e-05 7.66578e-07
8.76467e-08 7.66578e-07 -0.000237209
0.000572436 -4.9749e-05 -1.09147e-06
-4.9749e-05 -2.90254e-05 -4.36999e-06
-1.09147e-06 -4.36999e-06 -4.8837e-05
0.000597031 -3.29568e-05 -1.8776e-06
-3.29568e-05 -5.36938e-06 -2.24442e-06
-1.8776e-06 -2.24442e-06 -6.22767e-05
0.00163108 0.000211276 -9.37859e-07
0.000211276 0.000132807 -1.97437e-08
-9.37859e-07 -1.97437e-08 -2.6323e-05
0.000601875 -6.35463e-05 1.48584e-06
-6.35463e-05 3.02042e-05 -2.20612e-06
1.48584e-06 -2.20612e-06 -7.57828e-05
0.000769959 0.000118329 -9.81795e-07
0.000118329 9.53824e-05 -3.33353e-07
-9.81795e-07 -3.33353e-07 -5.36509e-05
0.000329 5.56347e-05 1.42265e-06
5.56347e-05 -0.00013748 5.26918e-07
1.42265e-06 5.26918e-07 -0.000283834
0.00152215 0.000255818 -8.85321e-07
0.000255818 0.000172617 -2.301e-07
-8.85321e-07 -2.301e-07 -1.14584e-05
0.00160535 0.000272839 6.04929e-07
0.000272839 0.000116156 5.19941e-07
6.04929e-07 5.19941e-07 -5.38554e-05
0.000941769 0.000204153 2.91672e-07
0.000204153 0.000160165 -1.63409e-06
2.91672e-07 -1.63409e-06 -6.50411e-05
0.00139188 0.000268903 -1.8987e-06
0.000268903 0.000208409 -5.06005e-07
-1.8987e-06 -5.06005e-07 -1.25681e-05
0.00175621 0.000304836 -3.93774e-06
0.000304836 0.000299917 -8.13837e-07
-3.93774e-06 -8.13837e-07 0.00010292
0.000652838 -1.73546e-05 -2.62519e-07
-1.73546e-05 1.68663e-05 9.37368e-08
-2.62519e-07 9.37368e-08 -3.3449e-05
0.000710022 -1.429e-05 -9.42068e-07
-1.429e-05 8.0772e-05 3.53541e-07
-9.42068e-07 3.53541e-07 -8.76131e-06
0.00100525 0.000195587 -6.95133e-07
0.000195587 0.000229214 3.96208e-08
-6.95133e-07 3.96208e-08 4.70407e-05
0.000792655 1.36276e-05 2.55078e-07
1.36276e-05 0.000141956 -1.4196e-07
2.55078e-07 -1.4196e-07 1.35201e-05
0.000928488 0.000126861 7.20366e-07
0.000126861 0.000200681 5.13703e-07
7.20366e-07 5.13703e-07 3.90982e-05
0.0016869 0.000224456 -1.78371e-06
0.000224456 0.000127714 -1.2968e-06
-1.78371e-06 -1.2968e-06 -1.73409e-05
0.0016526 0.000305904 1.33666e-06
0.000305904 0.00018829 3.2946e-07
1.33666e-06 3.2946e-07 -1.30298e-06
0.00165206 0.000300143 5.0928e-07
0.000300143 0.000110472 2.32917e-07
5.0928e-07 2.32917e-07 -5.4897e-05
0.000785729 0.00020991 7.84013e-08
0.00020991 2.40388e-05 3.11723e-06
7.84013e-08 3.11723e-06 -0.000213514
0.00159 0.000312948 -1.59923e-06
0.000312948 0.000240009 -6.13581e-07
-1.59923e-06 -6.13581e-07 2.07781e-05
0.000775215 2.69742e-05 9.04608e-07
2.69742e-05 0.000108211 1.64843e-06
9.04608e-07 1.64843e-06 2.83398e-05
0.000518912 -1.52378e-05 -1.26377e-06
-1.52378e-05 -2.38868e-05 2.76747e-06
-1.26377e-06 2.76747e-06 -0.000129701
0.00103107 0.000209153 -2.90986e-06
0.000209153 0.0002116 -9.77691e-07
-2.90986e-06 -9.77691e-07 1.64396e-05
0.000794484 8.24914e-05 -3.32842e-06
8.24914e-05 0.000162142 -2.76062e-06
-3.32842e-06 -2.76062e-06 1.85765e-06
0.000852464 0.000185166 -8.80261e-07
0.000185166 0.000130582 -2.06152e-06
-8.80261e-07 -2.06152e-06 -3.75059e-05
0.00157048 0.000238719 1.49671e-07
0.000238719 -1.20686e-05 -2.45282e-06
1.49671e-07 -2.45282e-06 -0.000132925
0.00186096 0.000348166 2.87755e-06
0.000348166 0.00028181 -1.84901e-06
2.87755e-06 -1.84901e-06 8.13659e-05
0.00150887 0.000307397 3.00125e-06
0.000307397 1.66562e-05 2.56421e-07
3.00125e-06 2.56421e-07 -0.000150649
0.00174514 0.000301584 4.10307e-06
0.000301584 0.000500429 7.21932e-06
4.10307e-06 7.21932e-06 0.000243558
0.00168689 0.000341085 -4.71878e-07
0.000341085 0.000278048 -1.02829e-06
-4.71878e-07 -1.02829e-06 5.00226e-05
0.000641663 -2.6985e-05 -1.39134e-06
-2.6985e-05 8.07886e-06 -2.25765e-06
-1.39134e-06 -2.25765e-06 -4.04071e-05
0.000642938 1.78507e-05 7.98486e-07
1.78507e-05 2.42768e-05 3.67237e-07
7.98486e-07 3.67237e-07 -4.95532e-05
0.000567439 -7.60198e-06 -1.82836e-07
-7.60198e-06 -1.37296e-05 8.47356e-07
-1.82836e-07 8.47356e-07 -9.65682e-05
0.000487064 -3.3823e-05 -7.44754e-07
-3.3823e-05 -6.50754e-05 -1.16705e-06
-7.44754e-07 -1.16705e-06 -0.000137531
0.00068803 2.52234e-05 -1.87417e-07
2.52234e-05 5.66401e-05 3.53527e-08
-1.87417e-07 3.53527e-08 -1.74668e-05
0.000712701 3.17746e-05 -1.76864e-07
3.17746e-05 7.19666e-05 -3.56957e-07
-1.76864e-07 -3.56957e-07 -1.18987e-05
0.000836009 6.05874e-05 -7.92e-07
6.05874e-05 0.000152862 -1.06973e-06
-7.92e-07 -1.06973e-06 5.91307e-05
0.000579083 -2.06243e-05 6.91859e-07
-2.06243e-05 5.23294e-06 4.90888e-07
6.91859e-07 4.90888e-07 -8.70053e-05
0.000710086 4.4848e-05 8.21687e-07
4.4848e-05 6.61179e-05 1.29917e-06
8.21687e-07 1.29917e-06 -5.01147e-06
0.000659097 2.25732e-05 1.69559e-06
2.25732e-05 2.17224e-05 2.21063e-06
1.69559e-06 2.21063e-06 -2.50964e-05
0.000656763 -5.10238e-06 -8.45662e-07
-5.10238e-06 1.69073e-05 1.62928e-08
-8.45662e-07 1.62928e-08 -2.91974e-05
0.00126223 -2.84888e-05 8.35285e-07
-2.84888e-05 0.000355202 2.40313e-06
8.35285e-07 2.40313e-06 0.000346236
0.000637387 -3.76768e-05 -4.53722e-07
-3.76768e-05 5.5772e-06 -2.15819e-06
-4.53722e-07 -2.15819e-06 -4.14535e-05
0.00129602 -3.69434e-05 -4.38285e-06
-3.69434e-05 0.000377689 -1.41364e-06
-4.38285e-06 -1.41364e-06 0.000367983
0.000883761 -3.13024e-05 1.87209e-05
-3.13024e-05 0.000142971 7.61624e-06
1.87209e-05 7.61624e-06 0.000150404
0.00132385 -4.58728e-05 -8.30126e-06
-4.58728e-05 0.000398241 -5.30018e-06
-8.30126e-06 -5.30018e-06 0.000387172
0.000823842 -3.90133e-05 7.00172e-06
-3.90133e-05 0.000113411 2.84636e-06
7.00172e-06 2.84636e-06 0.000119039
0.00219663 -8.19432e-05 -5.23085e-06
-8.19432e-05 0.000929558 -1.8349e-06
-5.23085e-06 -1.8349e-06 0.000938176
0.000545007 4.24195e-05 -3.9548e-08
4.24195e-05 -4.41971e-05 -4.00445e-06
-3.9548e-08 -4.00445e-06 -6.41137e-05
0.00054034 4.7632e-05 -9.55749e-08
4.7632e-05 -3.70077e-05 9.87016e-08
-9.55749e-08 9.87016e-08 -6.37202e-05
0.00248204 9.28078e-05 2.82463e-05
9.28078e-05 0.00110644 -3.6545e-06
2.82463e-05 -3.6545e-06 0.00111122
0.0005866 2.4173e-05 -2.96895e-06
2.4173e-05 -8.10383e-06 5.89525e-06
-2.96895e-06 5.89525e-06 -3.8228e-05
0.00276312 0.000107215 -6.01906e-06
0.000107215 0.00127695 -3.92884e-07
-6.01906e-06 -3.92884e-07 0.00127818
0.00311148 9.99719e-05 -7.91404e-05
9.99719e-05 0.00148266 3.75149e-06
-7.91404e-05 3.75149e-06 0.00148537
0.00164214 0.000172181 -1.32857e-06
0.000172181 0.000112946 7.35537e-07
-1.32857e-06 7.35537e-07 -3.04014e-05
0.00173043 0.000111354 1.24914e-06
0.000111354 0.000116836 1.02358e-06
1.24914e-06 1.02358e-06 -3.08778e-06
0.00174544 0.000159448 2.29396e-06
0.000159448 8.07069e-05 2.35679e-06
2.29396e-06 2.35679e-06 -1.98737e-05
0.00178382 7.88518e-05 3.02976e-06
7.88518e-05 6.97457e-05 7.27021e-07
3.02976e-06 7.27021e-07 -1.20309e-05
0.00173856 2.60062e-05 -6.40224e-07
2.60062e-05 0.000110717 1.56217e-07
-6.40224e-07 1.56217e-07 6.62757e-06
0.00139354 1.32343e-05 -3.05246e-06
1.32343e-05 5.0212e-05 6.15604e-08
-3.05246e-06 6.15604e-08 -7.39429e-05
0.00169984 2.54499e-06 -1.02105e-06
2.54499e-06 9.92127e-05 -2.86744e-08
-1.02105e-06 -2.86744e-08 -6.34672e-06
0.00174326 3.71894e-05 1.14243e-06
3.71894e-05 6.47303e-05 -1.40657e-08
1.14243e-06 -1.40657e-08 -2.13958e-05
0.00182685 0.000125402 -1.39443e-06
0.000125402 0.000106039 -4.3864e-07
-1.39443e-06 -4.3864e-07 1.43922e-05
0.0018159 8.35569e-05 2.39115e-06
8.35569e-05 7.40622e-05 4.95594e-07
2.39115e-06 4.95594e-07 1.05141e-05
0.00168664 0.000174622 -7.33564e-07
0.000174622 9.52407e-05 -2.41184e-07
-7.33564e-07 -2.41184e-07 -2.49218e-05
0.00179849 0.000174562 3.45278e-06
0.000174562 7.466e-05 1.30129e-06
3.45278e-06 1.30129e-06 -8.00775e-06
0.00173616 -6.25707e-06 -1.0263e-06
-6.25707e-06 7.87554e-05 -1.20968e-07
-1.0263e-06 -1.20968e-07 -6.86185e-06
0.00175978 4.11134e-05 2.66962e-06
4.11134e-05 3.67765e-05 4.00269e-07
2.66962e-06 4.00269e-07 -1.96621e-05
0.001843 0.000127117 1.81394e-06
0.000127117 7.88361e-05 -2.66453e-07
1.81394e-06 -2.66453e-07 1.1252e-05
0.00186042 0.000213045 4.1729e-07
0.000213045 0.000121831 -1.30188e-06
4.1729e-07 -1.30188e-06 2.98355e-05
0.00167984 -3.0807e-05 5.9728e-07
-3.0807e-05 9.62984e-05 1.29972e-07
5.9728e-07 1.29972e-07 -1.13521e-05
0.00168597 -9.12597e-05 1.30938e-06
-9.12597e-05 0.00010577 -1.14482e-06
1.30938e-06 -1.14482e-06 -1.27862e-05
0.00178377 -6.52739e-05 3.46173e-06
-6.52739e-05 9.32306e-05 -9.15827e-07
3.46173e-06 -9.15827e-07 7.55193e-06
0.0016592 -0.00015539 -2.68566e-09
-0.00015539 4.97562e-05 -1.41865e-07
-2.68566e-09 -1.41865e-07 -5.0636e-05
0.00112204 -0.00018872 -1.44858e-06
-0.00018872 0.000265945 3.62066e-06
-1.44858e-06 3.62066e-06 9.90982e-05
0.000955718 -0.000222099 -1.20661e-07
-0.000222099 6.66398e-05 1.70394e-06
-1.20661e-07 1.70394e-06 -0.000137447
0.00157257 -0.000318154 -3.57842e-06
-0.000318154 0.00024605 1.18352e-06
-3.57842e-06 1.18352e-06 7.60369e-06
0.00159882 -0.000214968 3.16661e-07
-0.000214968 7.63672e-05 -6.30894e-07
3.16661e-07 -6.30894e-07 -5.91348e-05
0.00166396 -0.000187353 3.65496e-06
-0.000187353 4.19869e-05 -2.38492e-06
3.65496e-06 -2.38492e-06 -4.54234e-05
0.00172598 -0.000270072 3.13107e-06
-0.000270072 0.000138125 -8.50885e-07
3.13107e-06 -8.50885e-07 7.84867e-06
0.00169773 -0.000318252 -1.70224e-06
-0.000318252 0.000205241 -3.04728e-06
-1.70224e-06 -3.04728e-06 1.17727e-06
0.0017025 -0.000276862 2.26801e-06
-0.000276862 0.000125246 -1.07613e-05
2.26801e-06 -1.07613e-05 -1.67005e-05
0.0012038 -0.000215651 1.66284e-06
-0.000215651 0.000319335 8.06742e-07
1.66284e-06 8.06742e-07 0.00014917
0.00104504 -0.000195324 2.10985e-06
-0.000195324 0.000231788 -2.94392e-06
2.10985e-06 -2.94392e-06 7.33721e-05
0.000739083 -8.10541e-05 7.47992e-07
-8.10541e-05 0.000106129 -1.15886e-06
7.47992e-07 -1.15886e-06 -5.31895e-05
0.000396715 1.32436e-05 -1.453e-06
1.32436e-05 -0.00011567 2.75846e-06
-1.453e-06 2.75846e-06 -0.000188872
0.000432783 3.14152e-05 9.18618e-07
3.14152e-05 -7.32758e-05 3.30013e-07
9.18618e-07 3.30013e-07 -0.000188326
0.00183594 -4.61338e-05 3.03269e-07
-4.61338e-05 0.000122108 -1.3552e-07
3.03269e-07 -1.3552e-07 3.87762e-05
0.00182948 -9.72516e-05 1.02618e-06
-9.72516e-05 0.000106317 -6.07203e-07
1.02618e-06 -6.07203e-07 2.12002e-05
0.00179102 -0.00018094 -1.89835e-06
-0.00018094 8.8976e-05 1.61995e-07
-1.89835e-06 1.61995e-07 8.42677e-06
0.00110224 -0.00021421 -5.18481e-07
-0.00021421 0.000239823 1.00607e-06
-5.18481e-07 1.00607e-06 5.31415e-05
0.0011013 -0.000257242 1.55625e-06
-0.000257242 0.000106887 -2.84885e-06
1.55625e-06 -2.84885e-06 -0.000118999
0.00165209 -0.000358274 -2.62794e-07
-0.000358274 0.000248903 7.76869e-07
-2.62794e-07 7.76869e-07 -6.12135e-06
0.00160344 -0.000217615 3.58328e-07
-0.000217615 2.72571e-05 -2.75408e-07
3.58328e-07 -2.75408e-07 -7.53414e-05
0.00165083 -0.000311237 8.15061e-07
-0.000311237 0.000144464 -2.45751e-06
8.15061e-07 -2.45751e-06 -4.5231e-05
0.00184173 -0.000296003 -4.97896e-07
-0.000296003 0.000162447 -1.08909e-06
-4.97896e-07 -1.08909e-06 3.69394e-05
0.000342147 2.72568e-05 5.54093e-09
2.72568e-05 -0.000151661 -8.25591e-07
5.54093e-09 -8.25591e-07 -0.000212055
0.00114475 -0.000215829 -2.13043e-07
-0.000215829 0.000262521 9.578e-07
-2.13043e-07 9.578e-07 9.44736e-05
0.000663595 -0.000178702 -3.89066e-07
-0.000178702 -3.6926e-06 3.59052e-07
-3.89066e-07 3.59052e-07 -0.000156174
0.000937616 -0.000145671 -5.61837e-07
-0.000145671 0.000218675 2.61999e-07
-5.61837e-07 2.61999e-07 3.73773e-05
0.00103278 -6.42559e-05 -1.50071e-08
-6.42559e-05 0.000274774 -3.11508e-07
-1.50071e-08 -3.11508e-07 0.000135733
0.000644763 4.71024e-06 -3.69964e-07
4.71024e-06 5.31815e-05 3.94613e-07
-3.69964e-07 3.94613e-07 -5.4955e-05
0.00154808 -5.0373e-05 -7.62154e-09
-5.0373e-05 -7.10656e-05 1.75374e-07
-7.62154e-09 1.75374e-07 -0.000141876
0.00198651 -0.000137202 1.72971e-06
-0.000137202 0.000132486 -2.07702e-07
1.72971e-06 -2.07702e-07 7.37408e-05
0.00156612 -0.000207448 1.02187e-06
-0.000207448 -5.47732e-05 -5.68127e-07
1.02187e-06 -5.68127e-07 -0.000131497
0.00198367 -0.000274143 -8.55218e-07
-0.000274143 0.000165609 -1.15866e-06
-8.55218e-07 -1.15866e-06 6.86914e-05
0.00112986 -0.000231601 -2.98847e-06
-0.000231601 0.000222953 -2.57381e-06
-2.98847e-06 -2.57381e-06 2.70183e-05
0.00183053 -0.000330103 2.06171e-06
-0.000330103 0.000176679 4.38218e-06
2.06171e-06 4.38218e-06 1.96074e-05
0.00123597 -0.000310548 -3.56246e-08
-0.000310548 0.000123444 -2.21568e-06
-3.56246e-08 -2.21568e-06 -0.00014723
0.00166079 -0.000372814 -1.91869e-07
-0.000372814 0.000241398 3.43062e-06
-1.91869e-07 3.43062e-06 -2.54262e-05
0.000331286 4.66958e-05 -1.37129e-06
4.66958e-05 -0.000162594 -2.52869e-06
-1.37129e-06 -2.52869e-06 -0.00021437
0.000764403 -4.49594e-06 4.10908e-07
-4.49594e-06 0.000119795 -1.0436e-06
4.10908e-07 -1.0436e-06 2.48954e-05
0.00096814 -9.03201e-05 -9.5001e-07
-9.03201e-05 0.0002432 1.1656e-06
-9.5001e-07 1.1656e-06 0.000115924
0.000894684 -2.05451e-05 -1.70475e-06
-2.05451e-05 0.000197676 1.20568e-06
-1.70475e-06 1.20568e-06 2.93048e-05
0.000710565 -0.00019634 -1.87255e-06
-0.00019634 -1.2673e-05 -1.20272e-06
-1.87255e-06 -1.20272e-06 -0.000178971
0.000950444 -0.000202645 -5.1263e-06
-0.000202645 0.000171843 1.8375e-06
-5.1263e-06 1.8375e-06 -9.6384e-06
0.000625609 -2.5603e-05 -2.08242e-06
-2.5603e-05 1.86232e-06 -2.17375e-06
-2.08242e-06 -2.17375e-06 -4.86065e-05
0.000627501 -5.217e-05 1.24496e-07
-5.217e-05 3.03227e-05 -1.52933e-06
1.24496e-07 -1.52933e-06 -5.55393e-05
0.0016787 0.000227107 -1.7751e-06
0.000227107 0.0001216 -9.23887e-08
-1.7751e-06 -9.23887e-08 -2.46808e-05
0.000487017 -2.1622e-05 7.05953e-07
-2.1622e-05 -3.83994e-05 -1.18309e-06
7.05953e-07 -1.18309e-06 -0.000160423
0.00100668 0.000195599 1.07899e-06
0.000195599 0.000231181 -1.04854e-06
1.07899e-06 -1.04854e-06 4.91965e-05
0.000286374 6.76465e-05 2.16512e-06
6.76465e-05 -0.00017707 1.09614e-06
2.16512e-06 1.09614e-06 -0.000326735
0.0016415 0.000304542 -3.44094e-07
0.000304542 0.000177464 3.07992e-07
-3.44094e-07 3.07992e-07 -1.22371e-05
0.00181452 0.00030633 -1.9506e-06
0.00030633 0.000202374 1.21919e-06
-1.9506e-06 1.21919e-06 3.76511e-05
0.000731725 0.000208752 -1.62034e-06
0.000208752 -1.3986e-05 8.26077e-07
-1.62034e-06 8.26077e-07 -0.000249954
0.00174661 0.000325347 -2.59663e-06
0.000325347 0.000336964 9.82387e-07
-2.59663e-06 9.82387e-07 0.000112997
0.000703177 3.23742e-06 -7.78246e-07
3.23742e-06 6.39792e-05 1.76544e-07
-7.78246e-07 1.76544e-07 -1.31944e-05
0.000649882 6.12012e-06 4.46444e-07
6.12012e-06 5.12995e-05 1.21746e-06
4.46444e-07 1.21746e-06 -5.5782e-05
0.00122081 0.000225556 -6.21753e-07
0.000225556 0.000331104 -2.69803e-06
-6.21753e-07 -2.69803e-06 0.000130976
0.000578379 1.42539e-05 -6.89932e-07
1.42539e-05 1.65264e-05 -2.52523e-07
-6.89932e-07 -2.52523e-07 -0.00012646
0.000666927 0.000152285 -1.61387e-06
0.000152285 1.69939e-05 -7.0396e-07
-1.61387e-06 -7.0396e-07 -0.000133487
0.00184875 0.00024953 -2.5829e-06
0.00024953 0.000147106 -1.32211e-06
-2.5829e-06 -1.32211e-06 2.83262e-05
0.00192807 0.000348741 1.4344e-06
0.000348741 0.000322731 -2.3935e-07
1.4344e-06 -2.3935e-07 0.000124007
0.00166903 0.000324258 1.4832e-06
0.000324258 0.000100517 1.92703e-06
1.4832e-06 1.92703e-06 -6.89738e-05
0.00135902 0.00027253 3.12569e-06
0.00027253 0.00028963 4.29795e-06
3.12569e-06 4.29795e-06 2.84232e-05
0.00159651 0.00033821 -3.02084e-06
0.00033821 0.000224371 5.21644e-07
-3.02084e-06 5.21644e-07 -6.19637e-06
0.000444655 -2.52974e-05 -5.20876e-07
-2.52974e-05 -7.4619e-05 2.29422e-06
-5.20876e-07 2.29422e-06 -0.000163561
0.000350208 7.12869e-05 1.67942e-08
7.12869e-05 -9.6044e-05 1.15083e-06
1.67942e-08 1.15083e-06 -0.000232928
0.00125357 0.000236544 1.82255e-06
0.000236544 0.000310527 3.32753e-06
1.82255e-06 3.32753e-06 9.43771e-05
-0.000485878 5.50815e-05 3.06568e-06
5.50815e-05 -0.000614897 -1.75451e-07
3.06568e-06 -1.75451e-07 -0.000773926
0.00188174 0.000260106 -2.86216e-06
0.000260106 3.02986e-05 -9.1122e-07
-2.86216e-06 -9.1122e-07 -4.36662e-05
0.00211574 0.000308562 4.39675e-07
0.000308562 0.000294944 -7.57779e-08
4.39675e-07 -7.57779e-08 0.000159084
0.00178497 0.000377524 -1.78899e-06
0.000377524 0.000230071 -3.30054e-06
-1.78899e-06 -3.30054e-06 1.52989e-05
6.28974e-05 0.000191181 -4.88678e-07
0.000191181 -0.000516571 1.60402e-06
-4.88678e-07 1.60402e-06 -0.000776366
0.000702187 4.33068e-05 -8.94532e-07
4.33068e-05 6.37147e-05 -5.82131e-07
-8.94532e-07 -5.82131e-07 -1.30359e-05
0.000647131 2.24903e-05 -9.15655e-08
2.24903e-05 3.79999e-05 4.3714e-07
-9.15655e-08 4.3714e-07 -4.84431e-05
0.000889634 9.42419e-06 -1.27373e-06
9.42419e-06 0.00017973 -9.77447e-07
-1.27373e-06 -9.77447e-07 9.38026e-05
0.000673802 -8.01594e-06 -1.39094e-06
-8.01594e-06 4.1806e-05 -1.14763e-06
-1.39094e-06 -1.14763e-06 -2.72771e-05
0.000504815 -1.50529e-05 -1.84599e-07
-1.50529e-05 -4.63349e-05 -8.05663e-07
-1.84599e-07 -8.05663e-07 -0.000130515
0.000694597 1.56598e-05 2.371e-08
1.56598e-05 5.89316e-05 -3.91917e-09
2.371e-08 -3.91917e-09 -1.32428e-05
0.000677594 5.99234e-05 -5.27731e-07
5.99234e-05 6.9993e-05 -3.5299e-07
-5.27731e-07 -3.5299e-07 -2.78968e-05
0.000649633 1.07935e-05 6.1907e-07
1.07935e-05 4.86258e-05 3.92111e-07
6.1907e-07 3.92111e-07 -4.49384e-05
0.000761227 3.06048e-05 8.10893e-07
3.06048e-05 0.000107309 -2.86626e-07
8.10893e-07 -2.86626e-07 1.60136e-05
0.000732981 -2.92487e-05 1.06058e-06
-2.92487e-05 9.65456e-05 -5.70193e-07
1.06058e-06 -5.70193e-07 -3.52485e-06
0.000569164 3.47934e-05 5.69449e-07
3.47934e-05 -1.24307e-06 1.25164e-06
5.69449e-07 1.25164e-06 -9.5417e-05
0.00068175 5.71034e-05 1.08465e-06
5.71034e-05 5.40858e-05 1.65042e-06
1.08465e-06 1.65042e-06 -2.02857e-05
0.000622037 3.28307e-05 1.20851e-06
3.28307e-05 5.41118e-06 2.05479e-06
1.20851e-06 2.05479e-06 -4.32573e-05
0.000635397 -4.32604e-06 -7.31442e-07
-4.32604e-06 8.72133e-06 1.60374e-08
-7.31442e-07 1.60374e-08 -3.86272e-05
0.00127076 -1.77351e-05 6.54012e-07
-1.77351e-05 0.00035882 2.34337e-06
6.54012e-07 2.34337e-06 0.000350236
0.000636005 -3.42241e-05 -1.95995e-07
-3.42241e-05 6.08928e-06 -2.19754e-06
-1.95995e-07 -2.19754e-06 -4.07836e-05
0.00130256 -2.57898e-05 -3.65492e-06
-2.57898e-05 0.000378925 -1.48025e-06
-3.65492e-06 -1.48025e-06 0.000370013
0.000887336 -2.38695e-05 1.56432e-05
-2.38695e-05 0.000140712 7.92322e-06
1.56432e-05 7.92322e-06 0.000149058
0.00133162 -3.47693e-05 -6.88895e-06
-3.47693e-05 0.000398475 -5.31691e-06
-6.88895e-06 -5.31691e-06 0.000388803
0.000830998 -3.17024e-05 5.6676e-06
-3.17024e-05 0.000111465 2.95498e-06
5.6676e-06 2.95498e-06 0.000118705
0.000768062 -3.81471e-05 -1.53415e-06
-3.81471e-05 8.04415e-05 -2.0496e-06
-1.53415e-06 -2.0496e-06 8.60905e-05
0.000564538 3.5354e-05 4.06687e-07
3.5354e-05 -4.29585e-05 -3.51822e-06
4.06687e-07 -3.51822e-06 -5.75099e-05
0.000560402 4.65713e-05 -6.08592e-08
4.65713e-05 -3.41738e-05 1.12197e-07
-6.08592e-08 1.12197e-07 -5.49778e-05
0.0022879 7.74801e-05 2.25205e-05
7.74801e-05 0.000985002 -3.8236e-06
2.25205e-05 -3.8236e-06 0.000993838
0.000567344 3.89045e-05 -1.88787e-06
3.89045e-05 -2.26432e-05 5.13095e-06
-1.88787e-06 5.13095e-06 -4.84962e-05
0.00254796 9.40682e-05 -5.23734e-06
9.40682e-05 0.00114515 -3.51983e-07
-5.23734e-06 -3.51983e-07 0.00114965
0.00283994 9.63748e-05 -5.91865e-05
9.63748e-05 0.00132008 3.34843e-06
-5.91865e-05 3.34843e-06 0.00132396
0.001701 0.000173357 7.57133e-07
0.000173357 0.000110211 2.28438e-06
7.57133e-07 2.28438e-06 -9.9511e-06
0.00179772 0.000123653 1.73901e-07
0.000123653 8.99429e-05 4.97128e-07
1.73901e-07 4.97128e-07 -3.03641e-06
0.00176343 0.000176352 3.78199e-06
0.000176352 5.32256e-05 1.98601e-06
3.78199e-06 1.98601e-06 -2.61445e-05
0.00172281 8.16727e-05 2.17621e-06
8.16727e-05 1.9633e-05 9.16984e-07
2.17621e-06 9.16984e-07 -4.05969e-05
0.00181381 3.47607e-05 2.85589e-06
3.47607e-05 0.000108173 -8.11075e-08
2.85589e-06 -8.11075e-08 2.0037e-05
0.00168866 1.36281e-06 -7.08732e-07
1.36281e-06 9.21094e-05 -2.08064e-08
-7.08732e-07 -2.08064e-08 -1.50183e-05
0.00179393 -2.69618e-06 -2.40652e-07
-2.69618e-06 0.000112593 -2.08501e-08
-2.40652e-07 -2.08501e-08 2.75479e-05
0.00175509 4.09752e-05 1.89802e-06
4.09752e-05 4.58203e-05 -1.57358e-07
1.89802e-06 -1.57358e-07 -1.2743e-05
0.00182402 0.000131029 3.65197e-07
0.000131029 6.54403e-05 -4.92556e-07
3.65197e-07 -4.92556e-07 -2.24266e-06
0.00191223 0.000210351 2.03292e-07
0.000210351 0.000139353 2.21824e-07
2.03292e-07 2.21824e-07 4.94004e-05
0.0016768 -6.95572e-06 -1.0736e-06
-6.95572e-06 7.90728e-06 -1.84527e-07
-1.0736e-06 -1.84527e-07 -5.45227e-05
0.00193065 8.69454e-05 3.08138e-06
8.69454e-05 7.16941e-05 2.17213e-07
3.08138e-06 2.17213e-07 3.42986e-05
0.00184937 0.000191321 1.82387e-06
0.000191321 2.97627e-05 -3.57795e-07
1.82387e-06 -3.57795e-07 -3.83476e-05
0.00189478 -5.02234e-05 1.77518e-06
-5.02234e-05 0.00015837 3.61683e-07
1.77518e-06 3.61683e-07 7.47239e-05
0.0018487 -0.000101044 6.41283e-07
-0.000101044 0.000115713 -7.51803e-07
6.41283e-07 -7.51803e-07 2.94298e-05
0.00175914 -0.000175635 -1.24267e-06
-0.000175635 7.4848e-05 2.2251e-07
-1.24267e-06 2.2251e-07 -7.18146e-06
0.00117063 -0.000218736 8.5009e-08
-0.000218736 0.000276506 4.40501e-06
8.5009e-08 4.40501e-06 8.92484e-05
0.00164983 -0.000298628 -1.82162e-06
-0.000298628 0.000414671 1.64965e-06
-1.82162e-06 1.64965e-06 0.000186875
0.00157448 -0.00035617 -3.33671e-06
-0.00035617 0.000208051 -1.09616e-07
-3.33671e-06 -1.09616e-07 -4.92421e-05
0.00163094 -0.000218478 4.68209e-07
-0.000218478 3.90965e-05 -6.09069e-07
4.68209e-07 -6.09069e-07 -6.38309e-05
0.00150805 -0.000278908 -2.58999e-07
-0.000278908 -2.06026e-05 -3.05644e-06
-2.58999e-07 -3.05644e-06 -0.000146536
0.00172249 -0.000312576 -2.17787e-06
-0.000312576 0.000185437 -8.28731e-06
-2.17787e-06 -8.28731e-06 1.49561e-06
0.00116833 -0.000216712 2.33369e-06
-0.000216712 0.000269213 1.58658e-06
2.33369e-06 1.58658e-06 0.000101794
0.000694628 -0.000177882 -6.79758e-06
-0.000177882 2.44164e-05 -1.53265e-07
-6.79758e-06 -1.53265e-07 -0.000121728
0.00136646 -0.000177382 2.31764e-07
-0.000177382 0.000476151 1.73478e-07
2.31764e-07 1.73478e-07 0.000283029
0.00038983 1.84133e-05 5.19945e-08
1.84133e-05 -0.000124262 1.12242e-06
5.19945e-08 1.12242e-06 -0.00018382
0.000909948 -6.35864e-05 1.02576e-06
-6.35864e-05 0.000200023 2.81846e-07
1.02576e-06 2.81846e-07 6.56962e-05
0.000524316 3.42972e-05 1.66435e-06
3.42972e-05 -2.30947e-05 1.6609e-06
1.66435e-06 1.6609e-06 -0.000128301
0.00171002 -5.13436e-05 -7.03195e-07
-5.13436e-05 2.02712e-05 1.23664e-07
-7.03195e-07 1.23664e-07 -5.0211e-05
0.00195366 -0.000141007 1.6838e-07
-0.000141007 0.000116031 -7.27526e-08
1.6838e-07 -7.27526e-08 5.39935e-05
0.00167868 -0.00020952 -1.74667e-07
-0.00020952 1.12411e-05 4.80618e-07
-1.74667e-07 4.80618e-07 -6.57929e-05
0.00117944 -0.000233213 -2.96333e-07
-0.000233213 0.000247967 1.57322e-06
-2.96333e-07 1.57322e-06 5.21143e-05
0.0010972 -0.000294782 -1.35455e-06
-0.000294782 4.8661e-05 -4.04995e-08
-1.35455e-06 -4.04995e-08 -0.00021238
0.00167908 -0.000371257 -3.35774e-06
-0.000371257 0.0002542 5.77216e-08
-3.35774e-06 5.77216e-08 -5.76521e-06
0.00194613 -0.00027811 1.00241e-06
-0.00027811 0.000146553 -5.65998e-07
1.00241e-06 -5.65998e-07 4.76908e-05
0.001692 -0.000324893 1.11371e-06
-0.000324893 9.06606e-05 -2.18857e-06
1.11371e-06 -2.18857e-06 -6.64762e-05
0.000487487 3.65143e-05 -5.24629e-08
3.65143e-05 -7.39206e-05 -8.63122e-07
-5.24629e-08 -8.63122e-07 -0.000122268
0.000772635 -8.14639e-06 -5.26809e-07
-8.14639e-06 0.0001238 3.07668e-07
-5.26809e-07 3.07668e-07 2.93488e-05
0.000363745 -0.000164976 -2.88736e-06
-0.000164976 -0.000208533 2.66724e-06
-2.88736e-06 2.66724e-06 -0.000367415
0.00137668 -0.000224364 1.60807e-07
-0.000224364 0.000429271 -2.76521e-07
1.60807e-07 -2.76521e-07 0.000249255
0.000931097 -5.52002e-05 -1.54325e-07
-5.52002e-05 0.000225279 -3.33319e-07
-1.54325e-07 -3.33319e-07 5.70785e-05
0.000857399 -6.56933e-05 -4.23342e-07
-6.56933e-05 0.000178948 1.31474e-06
-4.23342e-07 1.31474e-06 5.13574e-05
0.00191133 -7.66702e-05 2.91648e-06
-7.66702e-05 6.75768e-05 1.41196e-07
2.91648e-06 1.41196e-07 2.34693e-05
0.00191068 -0.000198575 7.47771e-07
-0.000198575 4.55486e-05 -1.13799e-06
7.47771e-07 -1.13799e-06 1.02885e-05
0.0018446 -0.000232162 7.04112e-07
-0.000232162 6.35707e-05 -9.40264e-07
7.04112e-07 -9.40264e-07 -4.62035e-06
0.00197453 -0.000369315 5.70801e-06
-0.000369315 0.000133531 -1.29922e-06
5.70801e-06 -1.29922e-06 9.84361e-06
0.000176267 -0.000174252 -3.78517e-06
-0.000174252 -0.000355986 -3.65707e-06
-3.78517e-06 -3.65707e-06 -0.00056171
0.00166484 -0.000376733 -9.32522e-07
-0.000376733 0.000212887 1.1384e-05
-9.32522e-07 1.1384e-05 -2.99751e-05
0.00214559 -0.000417669 1.34848e-06
-0.000417669 0.000609276 -3.62825e-06
1.34848e-06 -3.62825e-06 0.00030268
0.000652317 3.70057e-05 3.65496e-07
3.70057e-05 1.46597e-05 -1.5839e-06
3.65496e-07 -1.5839e-06 -2.64559e-05
0.000705448 -9.48326e-05 2.3344e-06
-9.48326e-05 8.07065e-05 -1.9031e-06
2.3344e-06 -1.9031e-06 3.20252e-06
0.00048484 3.33596e-05 -1.16243e-06
3.33596e-05 -4.71584e-05 -1.52707e-06
-1.16243e-06 -1.52707e-06 -0.000131658
0.000744184 -3.98624e-05 -8.65035e-09
-3.98624e-05 0.00012406 1.49797e-06
-8.65035e-09 1.49797e-06 4.95556e-06
0.000634515 -1.37268e-05 1.2522e-06
-1.37268e-05 4.35738e-05 -1.4056e-06
1.2522e-06 -1.4056e-06 -8.92285e-05
0.000195065 -0.000101239 6.92286e-07
-0.000101239 -0.000186293 7.18216e-07
6.92286e-07 7.18216e-07 -0.000352035
0.000138995 -0.000158852 -1.02612e-06
-0.000158852 -0.000377761 -2.0999e-06
-1.02612e-06 -2.0999e-06 -0.000528163
0.00251058 -0.000323355 -9.1867e-06
-0.000323355 0.00113777 2.27843e-06
-9.1867e-06 2.27843e-06 0.000886532
0.000665097 -1.68985e-05 -1.09723e-06
-1.68985e-05 3.71798e-05 -9.31809e-07
-1.09723e-06 -9.31809e-07 -3.56715e-05
0.000824293 1.17964e-05 3.34578e-07
1.17964e-05 0.000155277 -9.63072e-07
3.34578e-07 -9.63072e-07 4.45618e-05
0.00212832 0.000259523 -1.22636e-06
0.000259523 0.000308552 1.10875e-07
-1.22636e-06 1.10875e-07 0.000192005
0.000733555 4.89094e-05 -8.46009e-07
4.89094e-05 0.000114733 1.36254e-06
-8.46009e-07 1.36254e-06 -3.74366e-05
0.00142437 0.000244031 1.08552e-06
0.000244031 0.000460669 -2.94384e-06
1.08552e-06 -2.94384e-06 0.00025329
0.000448748 0.000117844 5.71709e-08
0.000117844 -0.000112141 9.54407e-07
5.71709e-08 9.54407e-07 -0.000245963
0.00195409 0.000345595 -2.10875e-06
0.000345595 0.000341639 3.73078e-07
-2.10875e-06 3.73078e-07 0.000145308
0.00181644 0.000340051 -1.94752e-06
0.000340051 0.000177081 3.81212e-06
-1.94752e-06 3.81212e-06 5.69438e-06
0.000951241 0.000243446 -4.65779e-07
0.000243446 6.4571e-05 -6.00086e-07
-4.65779e-07 -6.00086e-07 -0.000200733
0.00150066 0.000335419 -2.61881e-06
0.000335419 0.000165287 2.82444e-06
-2.61881e-06 2.82444e-06 -6.72887e-05
0.000490181 -1.86354e-06 -9.80418e-08
-1.86354e-06 -4.07083e-05 1.03017e-06
-9.80418e-08 1.03017e-06 -0.000135981
0.000398906 8.04072e-05 -5.89084e-07
8.04072e-05 -6.78188e-05 -1.94123e-06
-5.89084e-07 -1.94123e-06 -0.00020745
0.0012162 0.000235207 2.26062e-06
0.000235207 0.000300656 -2.18606e-06
2.26062e-06 -2.18606e-06 7.98582e-05
0.000612316 0.000135624 -1.21541e-06
0.000135624 1.20184e-05 -2.72822e-06
-1.21541e-06 -2.72822e-06 -0.000154327
0.00197469 0.000257621 9.00254e-07
0.000257621 7.97647e-05 -1.10515e-06
9.00254e-07 -1.10515e-06 8.25534e-06
0.00202153 0.000310682 2.90443e-06
0.000310682 0.000245828 7.72405e-07
2.90443e-06 7.72405e-07 0.000105438
0.00178933 0.000371255 -1.2556e-06
0.000371255 0.000226711 -2.94173e-08
-1.2556e-06 -2.94173e-08 1.46596e-05
0.00101232 0.000273286 5.34712e-07
0.000273286 2.44397e-06 1.23138e-06
5.34712e-07 1.23138e-06 -0.000261275
0.00055685 2.33213e-05 -5.14557e-07
2.33213e-05 -9.54302e-06 2.40933e-06
-5.14557e-07 2.40933e-06 -0.000104685
0.00197179 0.000204795 -2.17061e-06
0.000204795 5.63994e-05 1.10567e-06
-2.17061e-06 1.10567e-06 1.43831e-05
0.0014878 0.000226688 5.99086e-07
0.000226688 0.000566385 3.26324e-06
5.99086e-07 3.26324e-06 0.000379569
0.00112778 0.000237061 2.97487e-06
0.000237061 0.000225042 4.37233e-06
2.97487e-06 4.37233e-06 2.51574e-06
0.00234816 0.000305464 -1.54048e-05
0.000305464 0.000330563 -3.07552e-06
-1.54048e-05 -3.07552e-06 0.000240109
0.00110323 0.000342741 -2.90551e-06
0.000342741 -0.000223227 -6.0315e-06
-2.90551e-06 -6.0315e-06 -0.000417196
0.00173317 0.000361371 -2.51817e-06
0.000361371 0.000328843 3.27409e-08
-2.51817e-06 3.27409e-08 6.47423e-05
0.000728346 3.50327e-05 -1.35128e-06
3.50327e-05 8.54121e-05 -3.23809e-07
-1.35128e-06 -3.23809e-07 -6.00278e-07
0.000751509 2.59892e-05 -8.44553e-07
2.59892e-05 0.000103818 -3.35119e-07
-8.44553e-07 -3.35119e-07 1.56954e-05
0.000903385 1.23512e-05 -7.34843e-07
1.23512e-05 0.000203028 4.73499e-07
-7.34843e-07 4.73499e-07 0.000113469
0.000661402 -1.17435e-05 -2.17166e-07
-1.17435e-05 4.15675e-05 -1.64735e-06
-2.17166e-07 -1.64735e-06 -3.20316e-05
0.000696251 3.26587e-05 5.95479e-07
3.26587e-05 7.72037e-05 -1.08597e-08
5.95479e-07 -1.08597e-08 -1.68563e-05
0.000453992 9.80359e-07 -7.43137e-07
9.80359e-07 -4.98639e-05 3.75318e-07
-7.43137e-07 3.75318e-07 -0.000150707
0.000669535 -2.00134e-06 -4.14246e-07
-2.00134e-06 5.25184e-05 -3.1295e-08
-4.14246e-07 -3.1295e-08 -2.58594e-05
0.000555135 -2.48402e-05 -6.48305e-07
-2.48402e-05 -2.61716e-06 3.72537e-07
-6.48305e-07 3.72537e-07 -0.000100369
0.000610757 -1.57437e-05 6.29873e-07
-1.57437e-05 2.35134e-05 -1.58367e-07
6.29873e-07 -1.58367e-07 -6.69192e-05
0.000795506 2.66298e-05 3.82447e-07
2.66298e-05 0.000142437 2.259e-08
3.82447e-07 2.259e-08 3.55455e-05
0.000952226 1.84516e-05 3.3382e-07
1.84516e-05 0.000201766 -1.1122e-06
3.3382e-07 -1.1122e-06 0.000116712
0.000741951 -3.73666e-05 1.23683e-06
-3.73666e-05 9.40682e-05 -7.29158e-07
1.23683e-06 -7.29158e-07 -6.48374e-08
0.000779884 2.43216e-05 2.67423e-07
2.43216e-05 0.000129895 3.26273e-07
2.67423e-07 3.26273e-07 2.02855e-05
0.000663402 2.79625e-05 1.91766e-06
2.79625e-05 6.1376e-05 1.4076e-06
1.91766e-06 1.4076e-06 -4.36055e-05
0.000692884 1.74307e-05 1.2897e-06
1.74307e-05 5.99076e-05 1.73103e-06
1.2897e-06 1.73103e-06 -1.66481e-05
0.000618553 -1.77591e-05 -1.67686e-07
-1.77591e-05 3.45033e-06 1.89136e-06
-1.67686e-07 1.89136e-06 -4.47487e-05
0.000631484 -9.35854e-06 -2.77975e-07
-9.35854e-06 9.21088e-06 4.51496e-08
-2.77975e-07 4.51496e-08 -3.82927e-05
0.00127595 -7.41015e-06 5.38516e-07
-7.41015e-06 0.000361817 2.23421e-06
5.38516e-07 2.23421e-06 0.000352927
0.000645015 -2.50855e-05 5.32957e-07
-2.50855e-05 1.37185e-05 -2.32921e-06
5.32957e-07 -2.32921e-06 -3.31884e-05
0.00130721 -1.52919e-05 -2.73984e-06
-1.52919e-05 0.000380718 -1.53997e-06
-2.73984e-06 -1.53997e-06 0.000372036
0.000880908 -1.63188e-05 1.16865e-05
-1.63188e-05 0.000133906 8.12192e-06
1.16865e-05 8.12192e-06 0.00014283
0.00134327 -2.3975e-05 -4.93275e-06
-2.3975e-05 0.000403009 -5.42413e-06
-4.93275e-06 -5.42413e-06 0.000393958
0.000840024 -2.42087e-05 3.81837e-06
-2.42087e-05 0.000112109 3.06454e-06
3.81837e-06 3.06454e-06 0.000120389
0.000782566 -3.0682e-05 -1.05222e-06
-3.0682e-05 8.22556e-05 -2.0261e-06
-1.05222e-06 -2.0261e-06 8.96854e-05
0.00067857 1.07232e-05 8.43932e-07
1.07232e-05 2.65342e-05 -1.803e-06
8.43932e-07 -1.803e-06 -1.13094e-05
0.000580029 2.78518e-05 4.75118e-07
2.78518e-05 -4.11368e-05 -3.56502e-06
4.75118e-07 -3.56502e-06 -5.20649e-05
0.000585524 3.6258e-05 1.72514e-08
3.6258e-05 -3.046e-05 8.88729e-08
1.72514e-08 8.88729e-08 -4.53152e-05
0.00217262 6.30828e-05 1.91593e-05
6.30828e-05 0.000909046 -4.02927e-06
1.91593e-05 -4.02927e-06 0.000921498
0.000584581 5.10536e-05 1.39125e-06
5.10536e-05 -1.87188e-05 4.59182e-06
1.39125e-06 4.59182e-06 -4.06692e-05
0.00237753 8.02702e-05 -3.5944e-06
8.02702e-05 0.00103815 -2.51791e-07
-3.5944e-06 -2.51791e-07 0.00104624
0.00263798 9.51649e-05 -3.54874e-05
9.51649e-05 0.00119767 3.56949e-06
-3.54874e-05 3.56949e-06 0.00120197
0.00196188 0.000207574 3.69601e-07
0.000207574 0.000155654 2.2296e-06
3.69601e-07 2.2296e-06 6.77511e-05
0.00180234 0.00013496 -7.24138e-07
0.00013496 5.03471e-05 2.37765e-08
-7.24138e-07 2.37765e-08 -1.75596e-05
0.00174656 4.31621e-05 8.43955e-07
4.31621e-05 5.22417e-05 -3.10958e-07
8.43955e-07 -3.10958e-07 -8.43625e-06
0.00184743 1.031e-06 1.21034e-06
1.031e-06 0.000143908 -2.40098e-07
1.21034e-06 -2.40098e-07 5.94394e-05
0.00173226 -2.28158e-06 -1.28116e-06
-2.28158e-06 3.90987e-05 -2.58466e-08
-1.28116e-06 -2.58466e-08 -2.0679e-05
0.00191234 8.17366e-05 2.54823e-07
8.17366e-05 6.14307e-05 -2.61345e-09
2.54823e-07 -2.61345e-09 2.28741e-05
0.00186506 0.000194771 -7.43465e-07
0.000194771 3.68285e-05 -2.87348e-07
-7.43465e-07 -2.87348e-07 -3.03504e-05
0.00189092 2.58622e-06 3.054e-06
2.58622e-06 3.55022e-05 7.11912e-08
3.054e-06 7.11912e-08 1.01833e-05
0.00196249 0.000120043 2.09169e-06
0.000120043 3.65758e-05 1.65483e-07
2.09169e-06 1.65483e-07 3.58118e-06
0.00186857 6.50307e-05 -4.20727e-06
6.50307e-05 3.45621e-05 2.28791e-06
-4.20727e-06 2.28791e-06 5.73147e-05
0.00187952 -5.24007e-05 -1.62811e-06
-5.24007e-05 0.000115885 -1.75022e-07
-1.62811e-06 -1.75022e-07 4.57376e-05
0.00192239 -0.00014588 -2.70662e-06
-0.00014588 9.87598e-05 6.03376e-07
-2.70662e-06 6.03376e-07 3.3843e-05
0.00179909 -0.000212033 -2.31837e-06
-0.000212033 8.10709e-05 1.02007e-06
-2.31837e-06 1.02007e-06 3.88778e-06
0.00124935 -0.000237019 -2.5884e-07
-0.000237019 0.000284025 6.17236e-06
-2.5884e-07 6.17236e-06 8.75936e-05
0.00100427 -0.00028333 -3.58205e-07
-0.00028333 7.28808e-07 5.60407e-06
-3.58205e-07 5.60407e-06 -0.000252547
0.00178835 -0.000375018 -5.15791e-06
-0.000375018 0.000319656 -3.52105e-06
-5.15791e-06 -3.52105e-06 6.63535e-05
0.00190889 -0.000279848 2.5431e-06
-0.000279848 0.000128309 -4.33901e-07
2.5431e-06 -4.33901e-07 2.78911e-05
0.00154749 -0.000314981 -3.10813e-06
-0.000314981 8.12786e-06 -6.11197e-06
-3.10813e-06 -6.11197e-06 -0.00014808
0.000141067 -0.000143961 -3.13016e-06
-0.000143961 -0.000331518 5.26825e-06
-3.13016e-06 5.26825e-06 -0.000484903
0.00193737 -0.000260841 1.10218e-05
-0.000260841 0.000766216 -3.24378e-06
1.10218e-05 -3.24378e-06 0.000584242
0.000742525 -1.90974e-05 -1.49065e-07
-1.90974e-05 0.000106411 -2.37532e-07
-1.49065e-07 -2.37532e-07 -4.78205e-05
0.000612518 1.50529e-05 -2.73403e-07
1.50529e-05 -2.81064e-06 8.07439e-07
-2.73403e-07 8.07439e-07 -4.8109e-05
0.000814612 1.84063e-05 1.63344e-07
1.84063e-05 0.000145782 1.36045e-06
1.63344e-07 1.36045e-06 5.19126e-05
0.000806465 -3.53358e-05 4.33525e-07
-3.53358e-05 0.000149328 1.96909e-06
4.33525e-07 1.96909e-06 2.12427e-05
0.00186601 -7.73708e-05 2.10314e-07
-7.73708e-05 3.92051e-05 4.56626e-08
2.10314e-07 4.56626e-08 -2.4318e-06
0.000632324 1.37533e-05 1.0521e-06
1.37533e-05 3.27286e-06 9.73806e-08
1.0521e-06 9.73806e-08 -3.76336e-05
0.000577752 -2.81835e-05 -1.54104e-06
-2.81835e-05 -8.42929e-06 -3.98603e-08
-1.54104e-06 -3.98603e-08 -7.64124e-05
0.00190106 -0.000191482 -3.09363e-07
-0.000191482 5.53022e-05 2.52932e-07
-3.09363e-07 2.52932e-07 1.436e-05
0.0018069 -0.000232668 -1.63285e-06
-0.000232668 4.01325e-05 5.0619e-07
-1.63285e-06 5.0619e-07 -2.91716e-05
0.000445511 -0.000194641 1.51843e-06
-0.000194641 -0.000190746 3.47988e-06
1.51843e-06 3.47988e-06 -0.000393739
0.00198969 -0.000403691 -1.45927e-06
-0.000403691 0.000524232 6.44992e-07
-1.45927e-06 6.44992e-07 0.000216305
0.0014912 -0.000364544 2.35748e-06
-0.000364544 9.93619e-05 -1.6445e-06
2.35748e-06 -1.6445e-06 -0.000136886
0.00200889 -0.000369061 2.416e-06
-0.000369061 0.000165909 -1.01743e-06
2.416e-06 -1.01743e-06 3.99136e-05
0.000744493 -1.73601e-05 9.81436e-07
-1.73601e-05 0.000106239 -1.00861e-06
9.81436e-07 -1.00861e-06 2.24144e-05
0.000761129 -2.6265e-05 2.08312e-07
-2.6265e-05 0.000134239 1.13412e-06
2.08312e-07 1.13412e-06 1.35099e-05
0.000931565 -0.000206337 -2.70272e-06
-0.000206337 7.77025e-05 -5.22428e-07
-2.70272e-06 -5.22428e-07 -8.20743e-05
0.00151474 -0.000242755 1.20237e-05
-0.000242755 0.000557865 -3.21242e-06
1.20237e-05 -3.21242e-06 0.000349247
0.000498149 -8.07892e-05 -2.24654e-06
-8.07892e-05 -2.36609e-05 1.59209e-08
-2.24654e-06 1.59209e-08 -0.000184834
0.000718798 -1.37158e-05 3.16486e-07
-1.37158e-05 0.00010037 -4.88304e-07
3.16486e-07 -4.88304e-07 -3.50684e-05
0.0018981 -8.51373e-05 2.84712e-06
-8.51373e-05 -4.59216e-06 -4.70563e-07
2.84712e-06 -4.70563e-07 -3.41573e-05
0.00182798 -0.000207136 8.848e-07
-0.000207136 -1.97251e-05 -7.42097e-07
8.848e-07 -7.42097e-07 -1.47076e-05
0.00198506 -0.000336869 -1.34617e-06
-0.000336869 6.42995e-05 -1.89095e-06
-1.34617e-06 -1.89095e-06 -1.63278e-05
0.00162372 -0.000411544 2.56491e-06
-0.000411544 4.8065e-05 1.33863e-06
2.56491e-06 1.33863e-06 -0.000106983
0.000612749 -0.000171653 -8.80555e-06
-0.000171653 -8.9265e-05 -7.34201e-06
-8.80555e-06 -7.34201e-06 -0.000290115
0.00241916 -0.000475236 -7.1091e-06
-0.000475236 0.00073553 5.88631e-06
-7.1091e-06 5.88631e-06 0.000408725
0.000443324 5.74278e-05 -1.13197e-06
5.74278e-05 -7.80392e-05 -2.51815e-06
-1.13197e-06 -2.51815e-06 -0.000150362
0.000694898 -5.70335e-05 2.69562e-06
-5.70335e-05 6.30441e-05 -1.12181e-06
2.69562e-06 -1.12181e-06 -8.15044e-06
0.000927778 -7.62637e-05 1.63122e-06
-7.62637e-05 0.000210645 4.35234e-07
1.63122e-06 4.35234e-07 0.000117304
0.000477508 1.96447e-05 -1.02188e-06
1.96447e-05 -3.34599e-05 1.74207e-06
-1.02188e-06 1.74207e-06 -0.00014879
0.000943043 -5.28111e-05 -6.09414e-07
-5.28111e-05 0.000228476 6.09689e-07
-6.09414e-07 6.09689e-07 0.000108787
0.00100719 -4.64954e-05 2.6492e-06
-4.64954e-05 0.000233424 1.86997e-07
2.6492e-06 1.86997e-07 8.62125e-05
-0.000241255 -8.76968e-05 6.34176e-06
-8.76968e-05 -0.000320525 4.26874e-07
6.34176e-06 4.26874e-07 -0.000595325
0.000274103 -0.000213343 -1.63204e-05
-0.000213343 -0.000283056 1.79926e-06
-1.63204e-05 1.79926e-06 -0.00044206
0.000502647 3.15978e-05 -1.64124e-07
3.15978e-05 -2.95479e-05 -8.51783e-07
-1.64124e-07 -8.51783e-07 -0.000129065
0.00068356 0.000104108 -3.68846e-06
0.000104108 9.62674e-05 -3.28271e-06
-3.68846e-06 -3.28271e-06 -4.65137e-05
0.0020429 0.000255353 -2.01928e-06
0.000255353 0.000114395 -1.0035e-06
-2.01928e-06 -1.0035e-06 4.5172e-05
0.00195014 0.000314233 -2.65111e-07
0.000314233 0.000209242 2.07614e-06
-2.65111e-07 2.07614e-06 6.409e-05
0.00164305 0.000191796 -6.23077e-06
0.000191796 0.000591702 -2.23363e-06
-6.23077e-06 -2.23363e-06 0.000424287
0.00107736 0.000224161 -2.12595e-06
0.000224161 0.000231239 -8.71071e-06
-2.12595e-06 -8.71071e-06 8.04039e-06
0.0018171 0.000367169 9.35569e-07
0.000367169 0.000235848 1.60452e-06
9.35569e-07 1.60452e-06 2.58676e-05
0.00197359 0.000354717 8.5928e-07
0.000354717 0.000531046 6.17515e-08
8.5928e-07 6.17515e-08 0.000262483
0.000634325 4.6183e-05 7.20598e-07
4.6183e-05 4.59907e-05 -8.50482e-07
7.20598e-07 -8.50482e-07 -5.78121e-05
0.00191974 0.000196179 8.76513e-08
0.000196179 1.24979e-05 -1.76273e-07
8.76513e-08 -1.76273e-07 -2.03705e-05
0.00096245 0.000164177 8.577e-07
0.000164177 0.000260244 1.75296e-06
8.577e-07 1.75296e-06 8.63527e-05
0.000783068 0.000209045 1.55441e-06
0.000209045 3.02846e-05 -1.37798e-07
1.55441e-06 -1.37798e-07 -0.000191809
0.00219025 0.000298908 2.64926e-06
0.000298908 0.000244593 4.71754e-07
2.64926e-06 4.71754e-07 0.000154144
0.00141176 0.000361877 -8.0153e-07
0.000361877 -5.3177e-05 -2.54726e-06
-8.0153e-07 -2.54726e-06 -0.000246354
0.00206992 0.000389522 -1.62857e-07
0.000389522 0.000531008 2.27022e-07
-1.62857e-07 2.27022e-07 0.000263419
0.00113708 0.000111646 -2.55993e-06
0.000111646 0.000355688 3.0214e-06
-2.55993e-06 3.0214e-06 0.000216792
0.00236637 0.000213199 -3.56219e-05
0.000213199 0.000313624 -7.46882e-06
-3.56219e-05 -7.46882e-06 0.000314669
0.00243885 0.000348389 -4.23194e-06
0.000348389 0.00105829 5.09823e-07
-4.23194e-06 5.09823e-07 0.000849496
0.00211559 0.000351585 -6.87297e-06
0.000351585 0.00070964 1.34575e-06
-6.87297e-06 1.34575e-06 0.000462855
0.0019938 0.000410339 -1.52494e-05
0.000410339 0.000151549 -1.21737e-05
-1.52494e-05 -1.21737e-05 2.47148e-05
0.00121141 0.000352285 -1.11924e-05
0.000352285 -1.49777e-05 -1.70737e-06
-1.11924e-05 -1.70737e-06 -0.00025857
0.000725525 0.000271227 2.4147e-05
0.000271227 -0.000524679 -1.33301e-05
2.4147e-05 -1.33301e-05 -0.000738447
0.000589821 3.98428e-05 5.38691e-07
3.98428e-05 1.77345e-05 -3.441e-07
5.38691e-07 -3.441e-07 -7.36923e-05
0.000717134 1.98104e-05 -1.89876e-08
1.98104e-05 0.000104303 7.83815e-07
-1.89876e-08 7.83815e-07 1.27133e-05
0.0012027 4.14049e-05 1.06424e-07
4.14049e-05 0.000367974 -8.21311e-07
1.06424e-07 -8.21311e-07 0.00027367
0.000651986 -5.67699e-05 -8.01487e-08
-5.67699e-05 4.77392e-05 -2.09442e-06
-8.01487e-08 -2.09442e-06 -3.40679e-05
0.000602582 -4.3866e-05 -1.22102e-06
-4.3866e-05 2.14649e-05 -5.91075e-08
-1.22102e-06 -5.91075e-08 -7.33522e-05
0.00089254 0.000107263 -3.32561e-07
0.000107263 0.000199667 4.53082e-07
-3.32561e-07 4.53082e-07 9.12356e-05
0.000449362 -2.77291e-05 -9.40615e-07
-2.77291e-05 -6.29579e-05 1.65475e-06
-9.40615e-07 1.65475e-06 -0.000155913
0.000666021 -2.35532e-05 -3.42221e-08
-2.35532e-05 5.46546e-05 -2.51725e-08
-3.42221e-08 -2.51725e-08 -2.84378e-05
0.000657007 3.24212e-05 -7.83231e-08
3.24212e-05 4.54933e-05 -3.30476e-07
-7.83231e-08 -3.30476e-07 -5.09874e-05
0.000807933 1.3106e-05 -5.61085e-07
1.3106e-05 0.000121134 -1.21912e-07
-5.61085e-07 -1.21912e-07 3.41116e-05
0.000772587 9.71586e-06 3.38739e-07
9.71586e-06 0.000115539 -3.58327e-08
3.38739e-07 -3.58327e-08 1.34113e-05
0.000803039 -1.58728e-05 -6.02567e-08
-1.58728e-05 0.000127918 -1.6433e-07
-6.02567e-08 -1.6433e-07 3.23054e-05
0.000857746 1.15369e-05 -5.77699e-07
1.15369e-05 0.000144523 -1.97391e-06
-5.77699e-07 -1.97391e-06 5.92285e-05
0.000829552 2.39284e-05 -8.30617e-07
2.39284e-05 0.000136881 -1.51548e-06
-8.30617e-07 -1.51548e-06 3.25248e-05
0.000817247 5.92189e-05 5.14413e-07
5.92189e-05 0.000132762 5.84711e-07
5.14413e-07 5.84711e-07 3.32885e-05
0.000698825 3.65082e-05 2.79625e-07
3.65082e-05 8.09878e-05 1.21756e-06
2.79625e-07 1.21756e-06 -2.9458e-05
0.000534332 -1.77755e-05 -1.69577e-07
-1.77755e-05 -3.52764e-05 1.95934e-06
-1.69577e-07 1.95934e-06 -0.000114309
0.000889901 -1.9092e-05 1.39468e-07
-1.9092e-05 0.000208353 -8.32554e-07
1.39468e-07 -8.32554e-07 9.60389e-05
0.000480032 -5.12052e-06 -5.61205e-07
-5.12052e-06 -6.17107e-05 2.03232e-06
-5.61205e-07 2.03232e-06 -0.000145202
0.000595058 8.40401e-06 -8.78012e-07
8.40401e-06 -7.73099e-06 1.84112e-06
-8.78012e-07 1.84112e-06 -5.78686e-05
0.000610274 1.65602e-05 8.33019e-07
1.65602e-05 1.4735e-07 -1.16477e-09
8.33019e-07 -1.16477e-09 -4.8945e-05
0.000582356 2.42307e-06 1.95869e-07
2.42307e-06 -4.43029e-05 3.68503e-06
1.95869e-07 3.68503e-06 -5.78768e-05
0.000620578 -2.74944e-06 -1.06407e-06
-2.74944e-06 3.95798e-06 -2.12708e-06
-1.06407e-06 -2.12708e-06 -4.4353e-05
0.000955819 -4.61859e-06 -1.82811e-06
-4.61859e-06 0.000174553 -1.62004e-06
-1.82811e-06 -1.62004e-06 0.000163498
0.00230262 -1.2423e-05 7.50257e-06
-1.2423e-05 0.000966641 5.07177e-06
7.50257e-06 5.07177e-06 0.000983461
0.00134946 -1.37354e-05 -2.87507e-06
-1.37354e-05 0.000406013 -5.37139e-06
-2.87507e-06 -5.37139e-06 0.000397088
0.000839774 -1.63172e-05 2.02197e-06
-1.63172e-05 0.000108648 3.13633e-06
2.02197e-06 3.13633e-06 0.000117672
0.000795952 -2.28434e-05 -4.96239e-07
-2.28434e-05 8.51714e-05 -2.05039e-06
-4.96239e-07 -2.05039e-06 9.37369e-05
0.000641715 8.48117e-06 -3.57463e-07
8.48117e-06 7.64045e-06 -1.79076e-06
-3.57463e-07 -1.79076e-06 -2.96988e-05
0.00065846 -2.01778e-06 7.77762e-07
-2.01778e-06 1.58689e-05 -8.31565e-08
7.77762e-07 -8.31565e-08 -2.27053e-05
0.000605722 2.11796e-05 3.92891e-07
2.11796e-05 -2.99552e-05 -3.51193e-06
3.92891e-07 -3.51193e-06 -3.85368e-05
0.000912713 3.32518e-05 -4.00624e-07
3.32518e-05 0.000154891 5.16456e-08
-4.00624e-07 5.16456e-08 0.000145423
0.00212253 5.02427e-05 1.52072e-05
5.02427e-05 0.000872776 -4.21606e-06
1.52072e-05 -4.21606e-06 0.000887883
0.000593965 3.78161e-05 9.79136e-08
3.78161e-05 -2.49944e-05 3.8208e-06
9.79136e-08 3.8208e-06 -4.02507e-05
0.00223304 6.55911e-05 -2.80248e-06
6.55911e-05 0.000945477 -1.68479e-07
-2.80248e-06 -1.68479e-07 0.000957232
0.00244765 8.24964e-05 -2.47466e-05
8.24964e-05 0.00107974 3.92633e-06
-2.47466e-05 3.92633e-06 0.00108721
0.00189034 0.000198395 -3.61776e-06
0.000198395 4.90444e-05 -1.06003e-06
-3.61776e-06 -1.06003e-06 -1.71734e-05
0.00189867 7.70684e-05 -1.88386e-06
7.70684e-05 5.376e-05 -2.58933e-07
-1.88386e-06 -2.58933e-07 1.42222e-05
0.00178339 -1.0397e-08 -2.29362e-06
-1.0397e-08 6.77689e-05 -3.62723e-07
-2.29362e-06 -3.62723e-07 1.0657e-05
0.00187601 3.63561e-06 8.67774e-08
3.63561e-06 3.05798e-05 -1.71382e-07
8.67774e-08 -1.71382e-07 4.80203e-06
0.0019237 0.000118103 1.98677e-07
0.000118103 2.8963e-05 -9.23808e-08
1.98677e-07 -9.23808e-08 -5.59591e-06
0.00178787 5.89961e-05 3.23241e-06
5.89961e-05 -2.00996e-05 8.27074e-08
3.23241e-06 8.27074e-08 -5.64461e-06
0.00191297 1.26465e-05 7.45876e-07
1.26465e-05 -1.17322e-05 -2.25495e-07
7.45876e-07 -2.25495e-07 -6.52112e-06
0.00262983 0.000248149 2.80936e-05
0.000248149 -0.000144075 3.98803e-07
2.80936e-05 3.98803e-07 -0.000144337
0.00199891 3.0517e-05 -2.73947e-05
3.0517e-05 0.000244861 7.45293e-06
-2.73947e-05 7.45293e-06 0.000294842
0.000648581 7.19702e-05 -7.8173e-07
7.19702e-05 4.1409e-05 -8.62056e-07
-7.8173e-07 -8.62056e-07 -2.60564e-05
0.00181432 -7.78316e-05 -2.74237e-06
-7.78316e-05 8.11392e-06 -1.28759e-07
-2.74237e-06 -1.28759e-07 -3.14409e-05
0.00189027 -0.000184183 -1.15042e-06
-0.000184183 6.58483e-05 1.06543e-06
-1.15042e-06 1.06543e-06 1.79125e-05
0.00176886 -0.000234311 5.37179e-07
-0.000234311 1.66857e-05 1.52378e-06
5.37179e-07 1.52378e-06 -5.34384e-05
0.000653606 -0.000209071 2.60883e-06
-0.000209071 -6.20016e-05 7.95744e-06
2.60883e-06 7.95744e-06 -0.000260872
0.00160462 -0.00036884 1.32401e-06
-0.00036884 0.000317614 6.655e-06
1.32401e-06 6.655e-06 9.07451e-06
0.00148619 -0.000368674 -5.9542e-07
-0.000368674 7.4571e-05 -8.97174e-06
-5.9542e-07 -8.97174e-06 -0.000158719
0.00208245 -0.000373237 -5.18166e-06
-0.000373237 0.000218426 -3.01868e-06
-5.18166e-06 -3.01868e-06 8.93173e-05
0.0016612 -0.000252351 1.02578e-05
-0.000252351 0.000490581 -2.40956e-06
1.02578e-05 -2.40956e-06 0.000322209
0.000448347 -0.000158779 8.94709e-06
-0.000158779 -6.00776e-05 -4.58706e-06
8.94709e-06 -4.58706e-06 -0.000226627
0.000899372 -9.27805e-05 4.81465e-07
-9.27805e-05 0.000201964 -1.19886e-06
4.81465e-07 -1.19886e-06 4.05992e-05
0.000633694 2.36362e-06 -1.05461e-06
2.36362e-06 3.65174e-06 1.78083e-06
-1.05461e-06 1.78083e-06 -3.64844e-05
0.000801977 -1.66459e-05 1.2494e-06
-1.66459e-05 0.00015727 -2.22544e-07
1.2494e-06 -2.22544e-07 1.78804e-05
0.000951969 -4.38444e-05 1.17596e-06
-4.38444e-05 0.000232115 -9.78798e-08
1.17596e-06 -9.78798e-08 0.000147655
0.000793273 -1.97106e-05 9.58084e-08
-1.97106e-05 0.000150274 -1.17485e-08
9.58084e-08 -1.17485e-08 2.96408e-05
0.000446125 -2.06635e-05 -1.67458e-06
-2.06635e-05 -9.05873e-05 1.33887e-06
-1.67458e-06 1.33887e-06 -0.000155579
0.00192822 -9.63127e-05 -2.14621e-07
-9.63127e-05 -7.1242e-06 1.41427e-07
-2.14621e-07 1.41427e-07 -2.46353e-05
0.000546749 3.61684e-05 5.57909e-08
3.61684e-05 -1.48958e-05 -1.10403e-06
5.57909e-08 -1.10403e-06 -8.78527e-05
0.000685003 -5.35822e-05 4.60215e-07
-5.35822e-05 6.36076e-05 3.63827e-07
4.60215e-07 3.63827e-07 -1.11919e-05
0.000792642 -4.37323e-05 -3.138e-07
-4.37323e-05 0.000134298 7.77929e-07
-3.138e-07 7.77929e-07 3.85146e-05
0.00183745 -0.000211598 1.0938e-06
-0.000211598 -1.06841e-05 -3.04204e-07
1.0938e-06 -3.04204e-07 -1.3188e-05
0.00200472 -0.000335344 -9.33083e-07
-0.000335344 8.84444e-05 -4.22865e-07
-9.33083e-07 -4.22865e-07 4.71233e-06
0.00108087 -0.000228895 3.88512e-06
-0.000228895 0.000163733 1.37478e-07
3.88512e-06 1.37478e-07 -3.69526e-05
0.00193221 -0.000431735 4.62013e-06
-0.000431735 0.000485605 3.02024e-07
4.62013e-06 3.02024e-07 0.000167018
0.00182278 -0.000424495 -1.80192e-07
-0.000424495 0.000170599 1.81229e-06
-1.80192e-07 1.81229e-06 8.69732e-06
0.000553279 -7.96144e-06 -3.40899e-07
-7.96144e-06 1.28862e-05 -1.40522e-07
-3.40899e-07 -1.40522e-07 -0.000100727
0.000830952 -6.4269e-05 -1.50875e-06
-6.4269e-05 0.00016973 3.91558e-07
-1.50875e-06 3.91558e-07 4.19195e-05
0.000711672 -0.000248662 -4.20839e-06
-0.000248662 -1.85902e-05 1.0736e-06
-4.20839e-06 1.0736e-06 -0.000202862
0.000525378 -9.38039e-05 -2.79667e-07
-9.38039e-05 6.516e-05 -1.27715e-06
-2.79667e-07 -1.27715e-06 -0.000174518
0.000710483 -6.3139e-05 1.37143e-08
-6.3139e-05 6.51924e-05 -3.24171e-07
1.37143e-08 -3.24171e-07 -7.88705e-05
0.00219107 -0.000192798 -2.33136e-06
-0.000192798 0.000128719 -1.31339e-06
-2.33136e-06 -1.31339e-06 0.000124775
0.00175559 -0.000227228 -7.44809e-06
-0.000227228 -9.63263e-05 1.62041e-06
-7.44809e-06 1.62041e-06 -7.4709e-05
0.0024196 -0.000465699 -5.29877e-06
-0.000465699 0.00033966 -9.97943e-07
-5.29877e-06 -9.97943e-07 0.000204793
0.00279322 -0.000529662 -2.0933e-05
-0.000529662 0.000810879 2.69452e-06
-2.0933e-05 2.69452e-06 0.00058604
0.00117263 -0.000260325 -1.05015e-05
-0.000260325 0.00025073 -4.04432e-06
-1.05015e-05 -4.04432e-06 2.07807e-05
0.000477893 1.38719e-05 1.38974e-06
1.38719e-05 -5.00926e-05 -1.64912e-06
1.38974e-06 -1.64912e-06 -0.000142817
0.000489449 4.75763e-05 7.03514e-07
4.75763e-05 -4.89897e-05 -2.65287e-08
7.03514e-07 -2.65287e-08 -0.000147659
0.000568831 5.59597e-06 7.20712e-07
5.59597e-06 7.02816e-06 -1.0826e-06
7.20712e-07 -1.0826e-06 -9.92213e-05
0.00121441 -0.000133336 -8.3999e-07
-0.000133336 0.000404969 3.0054e-06
-8.3999e-07 3.0054e-06 0.000275973
0.000615592 -5.26435e-05 2.36075e-07
-5.26435e-05 2.42169e-05 3.26225e-06
2.36075e-07 3.26225e-06 -9.73801e-05
0.000153309 -6.14497e-05 2.31596e-06
-6.14497e-05 -0.000130202 1.45791e-06
2.31596e-06 1.45791e-06 -0.000375941
0.000539587 -0.000281265 3.32393e-06
-0.000281265 7.56214e-05 -2.27814e-06
3.32393e-06 -2.27814e-06 -0.000223138
0.000774957 7.77109e-05 1.13763e-06
7.77109e-05 0.000139565 -4.24905e-06
1.13763e-06 -4.24905e-06 2.4628e-05
0.000199285 7.46512e-05 1.54649e-07
7.46512e-05 -0.000186674 -1.3619e-06
1.54649e-07 -1.3619e-06 -0.000342633
0.00209523 0.000190773 7.15756e-06
0.000190773 9.81286e-05 3.60921e-07
7.15756e-06 3.60921e-07 7.47907e-05
0.00201041 0.000291264 1.12594e-05
0.000291264 0.000146832 2.51204e-06
1.12594e-05 2.51204e-06 5.73236e-05
0.00178737 0.000384423 8.06586e-06
0.000384423 0.000152617 3.10416e-06
8.06586e-06 3.10416e-06 -3.96955e-05
0.000472144 0.000184847 8.4757e-07
0.000184847 -0.00014714 -1.88389e-06
8.4757e-07 -1.88389e-06 -0.000368507
0.00237446 0.000415734 3.18279e-06
0.000415734 0.000713615 1.56424e-06
3.18279e-06 1.56424e-06 0.000444236
0.00125935 9.36181e-05 -1.79326e-07
9.36181e-05 0.000415365 5.66617e-07
-1.79326e-07 5.66617e-07 0.000286368
0.00215996 0.00018436 -2.5367e-06
0.00018436 0.000216074 2.29441e-07
-2.5367e-06 2.29441e-07 0.00022564
0.00151223 0.000248653 -1.65585e-06
0.000248653 0.00052631 -1.43206e-07
-1.65585e-06 -1.43206e-07 0.000337772
0.00154491 0.000303164 -6.06429e-07
0.000303164 0.000411272 1.37838e-06
-6.06429e-07 1.37838e-06 0.000161383
0.00200215 0.000396614 -1.421e-06
0.000396614 0.000162315 -2.76068e-06
-1.421e-06 -2.76068e-06 4.15298e-05
0.00157549 0.000386666 -2.11345e-06
0.000386666 0.000185833 3.41371e-06
-2.11345e-06 3.41371e-06 -6.63264e-05
0.0017168 0.000342008 2.95033e-05
0.000342008 -0.000247153 1.85597e-06
2.95033e-05 1.85597e-06 -0.000546815
0.00117915 0.000161317 -3.35172e-06
0.000161317 0.000386399 -4.48602e-07
-3.35172e-06 -4.48602e-07 0.000236118
0.00226201 0.000305123 -4.0923e-05
0.000305123 0.000323841 -2.14715e-05
-4.0923e-05 -2.14715e-05 0.000322393
0.00121847 0.000243333 -4.60548e-06
0.000243333 0.000314181 -3.1704e-07
-4.60548e-06 -3.1704e-07 0.0001282
0.000988699 0.000288678 -3.23533e-06
0.000288678 2.67273e-05 -3.31289e-06
-3.23533e-06 -3.31289e-06 -0.000227808
0.000284179 0.000374717 -1.27826e-05
0.000374717 -0.000636875 -8.25218e-06
-1.27826e-05 -8.25218e-06 -0.000833882
0.00947779 0.000313849 -0.000156891
0.000313849 0.00221102 -3.80756e-05
-0.000156891 -3.80756e-05 0.00128614
0.00505267 0.000647162 0.00012685
0.000647162 0.000636656 -1.35882e-05
0.00012685 -1.35882e-05 0.000172545
0.00156718 0.000488692 2.11278e-05
0.000488692 5.77034e-05 1.32716e-05
2.11278e-05 1.32716e-05 -0.000139647
-0.00481188 -0.000592551 0.000277554
-0.000592551 -0.00142295 8.24408e-06
0.000277554 8.24408e-06 -0.00244026
0.00672078 -0.00181011 -1.31857e-05
-0.00181011 0.00122855 8.68733e-06
-1.31857e-05 8.68733e-06 0.00276246
0.00055885 2.90756e-05 2.14239e-06
2.90756e-05 1.96349e-05 4.71299e-07
2.14239e-06 4.71299e-07 -7.32504e-05
0.000888138 2.15737e-05 6.64827e-07
2.15737e-05 0.000200443 -7.19389e-07
6.64827e-07 -7.19389e-07 0.00010675
0.000910392 6.90062e-05 -1.9935e-06
6.90062e-05 0.000206732 -1.85024e-06
-1.9935e-06 -1.85024e-06 0.000109846
0.000650507 -5.89283e-05 3.73048e-08
-5.89283e-05 5.25357e-05 -1.71155e-06
3.73048e-08 -1.71155e-06 -3.49827e-05
0.000636311 5.57203e-05 -1.1778e-06
5.57203e-05 3.64658e-05 -1.31342e-06
-1.1778e-06 -1.31342e-06 -6.33489e-05
0.000779299 -3.34256e-05 1.45125e-07
-3.34256e-05 0.000120831 -4.51689e-07
1.45125e-07 -4.51689e-07 1.81655e-05
0.000862601 7.77575e-06 -1.28311e-06
7.77575e-06 0.000159984 1.62691e-06
-1.28311e-06 1.62691e-06 6.3488e-05
0.000698887 3.98879e-06 -5.09141e-07
3.98879e-06 6.11455e-05 6.23347e-07
-5.09141e-07 6.23347e-07 -2.7764e-05
0.000756268 6.82527e-05 -1.27069e-06
6.82527e-05 0.000108349 -4.16297e-07
-1.27069e-06 -4.16297e-07 1.71973e-07
0.000596866 -7.79837e-06 -4.80795e-08
-7.79837e-06 6.71344e-06 7.00818e-07
-4.80795e-08 7.00818e-07 -7.48813e-05
0.000694982 2.0843e-05 8.72727e-08
2.0843e-05 7.5941e-05 2.7068e-08
8.72727e-08 2.7068e-08 -3.21663e-05
0.000783662 1.36671e-05 6.25599e-07
1.36671e-05 0.000100659 4.20633e-07
6.25599e-07 4.20633e-07 1.46852e-05
0.000827789 2.98288e-05 -4.83462e-07
2.98288e-05 0.000134973 -1.87458e-07
-4.83462e-07 -1.87458e-07 3.41266e-05
0.000977417 7.16616e-05 -7.99041e-07
7.16616e-05 0.000221651 -6.9614e-07
-7.99041e-07 -6.9614e-07 0.000119511
0.000496056 3.29657e-05 3.27092e-07
3.29657e-05 -5.34276e-05 -2.0575e-06
3.27092e-07 -2.0575e-06 -0.000145239
0.000852092 6.8017e-05 1.5323e-06
6.8017e-05 0.000148993 8.7335e-07
1.5323e-06 8.7335e-07 4.49769e-05
0.000621574 -1.61912e-05 9.79878e-07
-1.61912e-05 2.05207e-05 3.25391e-07
9.79878e-07 3.25391e-07 -8.07812e-05
0.000512238 -4.77697e-05 -1.13856e-06
-4.77697e-05 -4.1852e-05 1.66427e-06
-1.13856e-06 1.66427e-06 -0.000126924
0.00080318 6.66883e-06 -7.93924e-07
6.66883e-06 0.000137653 -3.96372e-08
-7.93924e-07 -3.96372e-08 3.1214e-05
0.000807803 4.32415e-05 -4.08898e-08
4.32415e-05 0.000139352 -1.94039e-06
-4.08898e-08 -1.94039e-06 3.55376e-05
0.000676018 -1.13359e-05 -9.39459e-07
-1.13359e-05 7.32126e-05 -5.38471e-08
-9.39459e-07 -5.38471e-08 -2.75876e-05
0.000809339 -1.21448e-05 1.04968e-06
-1.21448e-05 0.000146341 -5.39213e-07
1.04968e-06 -5.39213e-07 4.30025e-05
0.000689321 -7.18088e-05 -2.04601e-06
-7.18088e-05 6.04872e-05 1.23066e-06
-2.04601e-06 1.23066e-06 -2.03507e-05
0.000517397 -3.6154e-06 1.29732e-07
-3.6154e-06 -3.72782e-05 7.38437e-07
1.29732e-07 7.38437e-07 -0.000123034
0.000626771 -6.72725e-06 -1.14409e-06
-6.72725e-06 5.98678e-06 2.06677e-06
-1.14409e-06 2.06677e-06 -4.29213e-05
0.000617035 -1.15887e-05 7.10093e-07
-1.15887e-05 4.07798e-06 -2.61362e-08
7.10093e-07 -2.61362e-08 -4.55729e-05
0.000610712 6.96049e-06 -3.6837e-07
6.96049e-06 -2.63198e-05 5.3219e-06
-3.6837e-07 5.3219e-06 -4.0622e-05
0.00061377 8.11524e-06 -5.02473e-07
8.11524e-06 1.33486e-06 -1.94786e-06
-5.02473e-07 -1.94786e-06 -4.70575e-05
0.000591485 2.30789e-06 3.2251e-07
2.30789e-06 -3.87852e-05 -1.56798e-08
3.2251e-07 -1.56798e-08 -5.24439e-05
0.00231522 -1.41643e-06 -3.70148e-07
-1.41643e-06 0.000973546 5.16339e-06
-3.70148e-07 5.16339e-06 0.000990258
0.000626297 -2.84274e-06 -5.0912e-07
-2.84274e-06 -1.87592e-05 -5.41975e-06
-5.0912e-07 -5.41975e-06 -3.20414e-05
0.00157407 -9.39192e-06 -1.38424e-07
-9.39192e-06 0.000538114 7.72132e-08
-1.38424e-07 7.72132e-08 0.000551013
0.00079559 -1.4596e-05 -1.6552e-08
-1.4596e-05 8.15904e-05 -2.04607e-06
-1.6552e-08 -2.04607e-06 9.09539e-05
0.000641645 -3.91188e-06 6.4224e-07
-3.91188e-06 8.99698e-06 -1.64565e-06
6.4224e-07 -1.64565e-06 -2.70032e-05
0.000651171 -1.09434e-05 4.43789e-07
-1.09434e-05 1.27686e-05 -1.366e-08
4.43789e-07 -1.366e-08 -2.46602e-05
0.000617696 1.41971e-05 3.13548e-07
1.41971e-05 -2.56182e-05 -3.34493e-06
3.13548e-07 -3.34493e-06 -3.25324e-05
0.000636347 -1.43527e-05 -1.66361e-06
-1.43527e-05 2.75006e-06 1.73884e-06
-1.66361e-06 1.73884e-06 -3.57202e-05
0.000897417 2.45521e-05 -8.87528e-08
2.45521e-05 0.000141329 -7.18459e-07
-8.87528e-08 -7.18459e-07 0.000134634
0.0020623 3.72064e-05 1.16704e-05
3.72064e-05 0.000832354 -4.35594e-06
1.16704e-05 -4.35594e-06 0.000849656
0.000593197 2.93959e-05 -4.51765e-07
2.93959e-05 -3.23649e-05 3.54969e-06
-4.51765e-07 3.54969e-06 -4.39238e-05
0.00218883 5.18452e-05 -7.37074e-06
5.18452e-05 0.000913694 1.14312e-06
-7.37074e-06 1.14312e-06 0.000928127
0.00228535 6.78301e-05 -1.90348e-05
6.78301e-05 0.000977054 4.06145e-06
-1.90348e-05 4.06145e-06 0.000988192
0.0018787 0.000116206 -2.60593e-06
0.000116206 1.79698e-05 -6.39547e-07
-2.60593e-06 -6.39547e-07 -1.82631e-05
0.00185921 4.19458e-06 -2.5362e-06
4.19458e-06 2.48626e-05 -3.34527e-07
-2.5362e-06 -3.34527e-07 -1.40472e-06
0.0015819 5.01847e-05 1.19828e-05
5.01847e-05 -0.000147146 4.33526e-07
1.19828e-05 4.33526e-07 -0.000140621
0.0022184 0.000178406 3.03207e-05
0.000178406 -0.000272754 7.41082e-06
3.03207e-05 7.41082e-06 -0.000265226
0.00188581 1.59616e-06 -2.96745e-06
1.59616e-06 -2.12826e-05 -5.54645e-07
-2.96745e-06 -5.54645e-07 -1.58972e-05
0.0018047 4.1304e-05 4.20573e-06
4.1304e-05 0.000144047 -1.9172e-06
4.20573e-06 -1.9172e-06 0.000176785
0.00306035 -5.52601e-06 -2.56817e-05
-5.52601e-06 0.000841999 2.55024e-06
-2.56817e-05 2.55024e-06 0.000821009
0.00244292 -5.07858e-05 0.000104156
-5.07858e-05 -0.000739981 -2.14081e-05
0.000104156 -2.14081e-05 -0.000746948
0.00256418 3.9714e-05 8.99074e-06
3.9714e-05 0.000124661 1.12379e-05
8.99074e-06 1.12379e-05 0.000182411
0.000669267 6.45261e-05 -1.02895e-07
6.45261e-05 5.65759e-05 -1.01182e-06
-1.02895e-07 -1.01182e-06 -1.39567e-05
0.000685986 -7.82931e-06 7.01289e-07
-7.82931e-06 6.80832e-05 -1.57133e-07
7.01289e-07 -1.57133e-07 -4.01086e-06
0.00065826 -8.33253e-05 1.12616e-07
-8.33253e-05 5.36502e-05 -9.35427e-08
1.12616e-07 -9.35427e-08 -3.20378e-05
0.000700058 -3.48244e-05 -9.22933e-07
-3.48244e-05 9.46057e-05 4.80746e-07
-9.22933e-07 4.80746e-07 -3.19022e-06
0.00194936 -0.000105797 -4.9013e-06
-0.000105797 -1.49564e-05 2.83692e-07
-4.9013e-06 2.83692e-07 -1.93638e-05
0.001825 -0.000212846 -8.17939e-07
-0.000212846 -1.06569e-05 9.58128e-07
-8.17939e-07 9.58128e-07 -2.01675e-05
0.00198175 -0.000330111 -4.77764e-06
-0.000330111 8.95862e-05 1.2578e-06
-4.77764e-06 1.2578e-06 2.40422e-06
0.00183444 -0.000318311 4.85589e-06
-0.000318311 0.000572364 5.91435e-06
4.85589e-06 5.91435e-06 0.000367658
0.00116356 -0.00036824 8.68022e-06
-0.00036824 7.67926e-05 -4.91939e-06
8.68022e-06 -4.91939e-06 -0.000230125
0.00208449 -0.000442409 5.01554e-06
-0.000442409 0.000326083 -4.00787e-06
5.01554e-06 -4.00787e-06 0.000157524
0.00100421 -0.00026165 -4.70031e-06
-0.00026165 0.000164059 1.2333e-06
-4.70031e-06 1.2333e-06 -3.9824e-05
0.0014279 -0.000103539 -3.33683e-07
-0.000103539 0.000527209 -3.29806e-07
-3.33683e-07 -3.29806e-07 0.000321494
0.000343138 -7.55719e-05 -1.253e-06
-7.55719e-05 -0.000145032 3.40431e-07
-1.253e-06 3.40431e-07 -0.000284153
0.000704922 -3.12681e-05 -6.06463e-07
-3.12681e-05 7.20113e-05 1.43551e-06
-6.06463e-07 1.43551e-06 -1.38539e-07
0.000666194 -7.66844e-05 -2.46931e-07
-7.66844e-05 8.24987e-05 -1.03839e-06
-2.46931e-07 -1.03839e-06 -5.34082e-05
0.000805394 -7.13368e-06 -1.781e-07
-7.13368e-06 0.000158515 -4.03608e-07
-1.781e-07 -4.03608e-07 4.59612e-05
0.00068326 7.46207e-06 1.77976e-07
7.46207e-06 6.97485e-05 5.70645e-07
1.77976e-07 5.70645e-07 -5.34274e-06
0.000596101 1.54296e-05 -2.13802e-06
1.54296e-05 2.27152e-05 2.76553e-06
-2.13802e-06 2.76553e-06 -7.45607e-05
0.00217698 -0.000174187 1.14519e-06
-0.000174187 0.000135495 6.97368e-07
1.14519e-06 6.97368e-07 0.000139861
0.000680454 -5.31812e-06 1.01079e-06
-5.31812e-06 7.5414e-05 -4.57353e-07
1.01079e-06 -4.57353e-07 -2.06465e-05
0.000690431 1.00346e-05 1.66053e-06
1.00346e-05 7.5619e-05 -2.50925e-07
1.66053e-06 -2.50925e-07 -2.55402e-05
0.000521633 5.65917e-05 -8.44835e-08
5.65917e-05 -1.38379e-05 1.53865e-06
-8.44835e-08 1.53865e-06 -0.000115593
0.00176909 -0.000230239 -1.3574e-06
-0.000230239 -0.000109377 -1.3011e-06
-1.3574e-06 -1.3011e-06 -9.29061e-05
0.00194414 -0.000430652 1.53298e-06
-0.000430652 9.27567e-05 -2.7755e-07
1.53298e-06 -2.7755e-07 -3.30913e-05
0.00130195 -0.00030555 -9.69383e-07
-0.00030555 0.000307006 -1.75551e-06
-9.69383e-07 -1.75551e-06 7.20872e-05
0.00223297 -0.000490252 -4.91778e-06
-0.000490252 0.000512476 2.03565e-06
-4.91778e-06 2.03565e-06 0.000292594
0.00104543 -6.11214e-05 -8.28003e-07
-6.11214e-05 0.000293163 5.4159e-07
-8.28003e-07 5.4159e-07 0.000170403
0.000641267 -7.32437e-05 -3.30933e-07
-7.32437e-05 3.84429e-05 9.93231e-07
-3.30933e-07 9.93231e-07 -9.22865e-05
0.000971381 -0.000316522 2.24732e-06
-0.000316522 0.000319743 -4.66333e-07
2.24732e-06 -4.66333e-07 1.34983e-05
0.00102684 -0.000142919 3.10416e-07
-0.000142919 0.000335758 2.22235e-07
3.10416e-07 2.22235e-07 9.48011e-05
0.00220274 -0.000189179 -1.78008e-05
-0.000189179 9.57398e-05 8.95827e-08
-1.78008e-05 8.95827e-08 0.000153369
0.00233591 -0.000360148 -1.93038e-05
-0.000360148 0.000194557 5.31062e-06
-1.93038e-05 5.31062e-06 0.000204065
0.00284073 -0.000573018 -1.18241e-05
-0.000573018 0.000650315 -4.62066e-06
-1.18241e-05 -4.62066e-06 0.000457562
0.00189872 -0.00044494 -2.59554e-06
-0.00044494 0.000521972 3.90486e-06
-2.59554e-06 3.90486e-06 0.000305893
0.000595071 7.26008e-06 -7.40699e-07
7.26008e-06 3.86193e-05 -2.47538e-06
-7.40699e-07 -2.47538e-06 -7.99239e-05
0.000580869 -7.24157e-05 6.93302e-07
-7.24157e-05 2.72224e-05 -3.60792e-06
6.93302e-07 -3.60792e-06 -9.73748e-05
0.000577222 -9.22096e-05 -8.90215e-07
-9.22096e-05 7.43221e-05 3.75705e-06
-8.90215e-07 3.75705e-06 -7.85066e-05
0.00044774 -0.000119167 1.80404e-06
-0.000119167 0.000167856 -6.17967e-06
1.80404e-06 -6.17967e-06 -0.000209248
0.00070545 -0.000311061 2.92151e-05
-0.000311061 -0.00258062 -5.302e-06
2.92151e-05 -5.302e-06 -0.00304064
0.00133282 8.49299e-05 7.05576e-07
8.49299e-05 0.000451002 -3.54194e-06
7.05576e-07 -3.54194e-06 0.000329879
0.000451285 0.000143319 2.50189e-06
0.000143319 -7.63947e-05 1.4924e-07
2.50189e-06 1.4924e-07 -0.000246221
0.00191481 0.000162111 3.88924e-05
0.000162111 9.69141e-05 5.88e-06
3.88924e-05 5.88e-06 0.000111878
0.00209677 0.000387639 1.3898e-05
0.000387639 0.000220485 6.0804e-06
1.3898e-05 6.0804e-06 0.000103951
0.0017622 0.000407125 5.21398e-06
0.000407125 0.000294098 6.48212e-06
5.21398e-06 6.48212e-06 3.2967e-05
0.000869104 0.000245201 4.36975e-06
0.000245201 5.34825e-05 2.43965e-06
4.36975e-06 2.43965e-06 -0.00019917
0.0028265 0.000423121 5.33627e-05
0.000423121 0.000121515 1.81192e-05
5.33627e-05 1.81192e-05 -0.00028585
0.00125531 0.000142765 1.87018e-06
0.000142765 0.000431944 -2.34931e-07
1.87018e-06 -2.34931e-07 0.000285456
0.00237831 0.000308653 -1.01941e-05
0.000308653 0.000371458 -1.14283e-06
-1.01941e-05 -1.14283e-06 0.000383202
0.00105922 0.000229749 1.08141e-06
0.000229749 0.000239438 6.08724e-08
1.08141e-06 6.08724e-08 5.50667e-05
0.00124484 0.000323306 1.23026e-06
0.000323306 0.000177833 -8.14645e-07
1.23026e-06 -8.14645e-07 -8.36228e-05
0.00133804 0.000454622 -5.08584e-06
0.000454622 -0.00010588 -1.26065e-06
-5.08584e-06 -1.26065e-06 -0.000301024
0.00320358 -0.000213584 -9.38894e-05
-0.000213584 -0.00128838 -3.05916e-05
-9.38894e-05 -3.05916e-05 -0.00225006
0.00514112 0.000529306 -1.28195e-05
0.000529306 0.000449537 -2.92799e-05
-1.28195e-05 -2.92799e-05 -0.0001231
0.000316403 0.000350651 -4.12402e-06
0.000350651 -0.000489155 8.20402e-06
-4.12402e-06 8.20402e-06 -0.000711832
-0.00110223 -0.000438283 0.000129208
-0.000438283 0.000888976 5.1085e-05
0.000129208 5.1085e-05 -0.00030689
-4.06772e-05 -0.00179211 -8.02575e-05
-0.00179211 -0.00118133 -9.85155e-05
-8.02575e-05 -9.85155e-05 0.000544954
0.00108951 0.000167142 -4.0013e-06
0.000167142 0.000325916 -3.00216e-06
-4.0013e-06 -3.00216e-06 0.000193053
0.000378478 0.000344827 0.000124482
0.000344827 0.0013688 -2.24658e-05
0.000124482 -2.24658e-05 0.000379002
0.00118751 -0.000591045 -8.21158e-05
-0.000591045 0.00199441 -0.000139386
-8.21158e-05 -0.000139386 0.000761984
0.00272224 0.000451415 -2.68939e-05
0.000451415 0.000609811 -1.12237e-05
-2.68939e-05 -1.12237e-05 0.000626894
0.00103142 0.000158929 -1.08555e-05
0.000158929 0.000216243 -1.70481e-06
-1.08555e-05 -1.70481e-06 2.8904e-05
-1.70845e-05 0.000378945 -1.6374e-05
0.000378945 -0.000520119 -1.41694e-05
-1.6374e-05 -1.41694e-05 -0.000797423
0.000155702 0.000400468 3.0016e-05
0.000400468 -0.000602552 6.16553e-05
3.0016e-05 6.16553e-05 -0.000721308
0.0107974 0.000534002 -2.72781e-05
0.000534002 0.00345206 -2.92547e-05
-2.72781e-05 -2.92547e-05 0.00197978
0.00327581 0.00086125 9.93904e-06
0.00086125 0.000715644 1.05956e-05
9.93904e-06 1.05956e-05 -0.000424104
0.00212553 -0.00156569 0.000195902
-0.00156569 -0.000307499 0.000149847
0.000195902 0.000149847 2.80273e-05
0.00407765 -0.000885622 -3.09594e-08
-0.000885622 -0.00112339 0.000198365
-3.09594e-08 0.000198365 0.000232511
0.000690785 8.76167e-06 9.78271e-07
8.76167e-06 9.82025e-05 -7.61102e-07
9.78271e-07 -7.61102e-07 4.37054e-06
0.00082348 6.90878e-05 1.32345e-06
6.90878e-05 0.000161556 8.46607e-07
1.32345e-06 8.46607e-07 6.34013e-05
0.00139198 0.000125426 -2.34792e-06
0.000125426 0.000500654 -2.67807e-06
-2.34792e-06 -2.67807e-06 0.000412212
0.000657405 4.28578e-06 5.13706e-07
4.28578e-06 5.75904e-05 -5.24616e-07
5.13706e-07 -5.24616e-07 -3.31681e-05
0.000753711 3.05982e-05 -2.17342e-08
3.05982e-05 0.000108395 -1.33005e-06
-2.17342e-08 -1.33005e-06 1.7903e-06
0.000574038 -1.17266e-05 -1.0985e-06
-1.17266e-05 -9.01712e-06 -4.53209e-07
-1.0985e-06 -4.53209e-07 -0.000107546
0.00081052 3.6528e-05 -6.40568e-07
3.6528e-05 0.000124941 5.92649e-07
-6.40568e-07 5.92649e-07 2.71197e-05
0.000717734 1.50739e-05 -8.07094e-08
1.50739e-05 6.05651e-05 9.17886e-07
-8.07094e-08 9.17886e-07 -2.60071e-05
0.000504298 -8.62631e-07 3.16637e-07
-8.62631e-07 -4.33241e-05 7.37732e-07
3.16637e-07 7.37732e-07 -0.000130573
0.000838014 2.75464e-05 1.54755e-07
2.75464e-05 0.000142312 2.71986e-07
1.54755e-07 2.71986e-07 4.08695e-05
0.000828064 2.52537e-05 9.19505e-08
2.52537e-05 0.000136628 2.93388e-07
9.19505e-08 2.93388e-07 3.23275e-05
0.000714295 1.87174e-05 5.81648e-07
1.87174e-05 8.80539e-05 -3.54622e-07
5.81648e-07 -3.54622e-07 -2.17611e-05
0.000551754 3.6238e-05 -2.00995e-07
3.6238e-05 -2.06686e-05 -1.80162e-07
-2.00995e-07 -1.80162e-07 -0.000111807
0.00106248 3.92669e-05 -9.46438e-08
3.92669e-05 0.000268099 -1.13266e-06
-9.46438e-08 -1.13266e-06 0.000172477
0.000202593 4.11325e-05 -1.39698e-06
4.11325e-05 -0.00019885 -3.48614e-06
-1.39698e-06 -3.48614e-06 -0.000295122
0.00077784 -7.17057e-05 -1.44319e-07
-7.17057e-05 0.000107655 5.24842e-07
-1.44319e-07 5.24842e-07 -1.57776e-06
0.000796296 -5.53952e-05 -9.10278e-07
-5.53952e-05 0.000139343 -7.81601e-07
-9.10278e-07 -7.81601e-07 2.44596e-05
0.000818381 -2.19698e-05 -5.38947e-07
-2.19698e-05 0.000151829 -3.55425e-07
-5.38947e-07 -3.55425e-07 4.08636e-05
0.000828705 1.82567e-05 -4.99847e-07
1.82567e-05 0.000143547 -2.91644e-07
-4.99847e-07 -2.91644e-07 4.50554e-05
0.000866404 9.91317e-06 -1.74674e-06
9.91317e-06 0.000183153 -2.09467e-06
-1.74674e-06 -2.09467e-06 6.27216e-05
0.000743383 2.64364e-05 6.49389e-07
2.64364e-05 0.000102334 -7.72528e-07
6.49389e-07 -7.72528e-07 2.93802e-06
0.00034814 -8.15974e-06 3.49817e-07
-8.15974e-06 -0.000144637 -1.6435e-06
3.49817e-07 -1.6435e-06 -0.000231185
0.000633114 1.87094e-05 8.21274e-07
1.87094e-05 3.84304e-05 3.1893e-07
8.21274e-07 3.1893e-07 -5.9124e-05
0.000676532 -3.0795e-05 -3.55452e-08
-3.0795e-05 5.63214e-05 3.42082e-07
-3.55452e-08 3.42082e-07 -3.02996e-05
0.000723641 -2.96961e-05 -2.29569e-07
-2.96961e-05 9.56622e-05 -1.90365e-08
-2.29569e-07 -1.90365e-08 -2.48855e-06
0.000685247 -3.73612e-05 -1.66111e-06
-3.73612e-05 4.90358e-05 9.88922e-07
-1.66111e-06 9.88922e-07 -2.28387e-05
0.000724142 -2.19548e-05 1.40336e-06
-2.19548e-05 8.0336e-05 -4.33229e-07
1.40336e-06 -4.33229e-07 -1.328e-05
0.0006405 -6.63599e-05 -1.27315e-08
-6.63599e-05 3.01904e-05 1.58854e-07
-1.27315e-08 1.58854e-07 -5.07178e-05
0.000657187 -5.18835e-06 -1.66812e-06
-5.18835e-06 1.96184e-05 2.21286e-06
-1.66812e-06 2.21286e-06 -2.8897e-05
0.00053208 -4.07503e-06 1.04346e-06
-4.07503e-06 -2.15228e-05 -5.67599e-07
1.04346e-06 -5.67599e-07 -0.000112197
0.000626825 5.70043e-06 8.89383e-07
5.70043e-06 8.03674e-06 -2.15461e-08
8.89383e-07 -2.15461e-08 -4.20939e-05
0.00137178 1.6015e-05 -2.69694e-06
1.6015e-05 0.000421122 5.23939e-06
-2.69694e-06 5.23939e-06 0.000410697
0.000620753 2.49807e-05 -2.45209e-07
2.49807e-05 6.17871e-06 -1.89084e-06
-2.45209e-07 -1.89084e-06 -4.33994e-05
0.000980182 8.23546e-06 -1.57489e-06
8.23546e-06 0.000190464 8.03545e-07
-1.57489e-06 8.03545e-07 0.000178317
0.000850994 3.7457e-06 -3.73654e-06
3.7457e-06 0.000114224 5.00655e-06
-3.73654e-06 5.00655e-06 0.000122847
0.000601781 2.07361e-06 9.3295e-08
2.07361e-06 -3.25621e-05 -3.67642e-06
9.3295e-08 -3.67642e-06 -4.63161e-05
0.00232297 2.16392e-07 4.04623e-06
2.16392e-07 0.000978177 -5.33806e-09
4.04623e-06 -5.33806e-09 0.000994823
0.000866169 -3.42942e-06 -3.91043e-06
-3.42942e-06 0.000122899 -5.06917e-06
-3.91043e-06 -5.06917e-06 0.000132008
0.000675617 6.64653e-05 1.54262e-06
6.64653e-05 6.73079e-05 -3.83037e-07
1.54262e-06 -3.83037e-07 -1.05233e-05
0.000635941 1.72888e-05 -8.77475e-07
1.72888e-05 9.01379e-06 -1.86822e-06
-8.77475e-07 -1.86822e-06 -2.80376e-05
0.000633335 -4.83396e-06 8.28293e-07
-4.83396e-06 5.3913e-06 1.2547e-08
8.28293e-07 1.2547e-08 -3.15178e-05
0.000620131 8.11297e-06 1.47916e-07
8.11297e-06 -2.54328e-05 -3.29367e-06
1.47916e-07 -3.29367e-06 -3.17111e-05
0.000655821 -2.43144e-05 -1.58433e-06
-2.43144e-05 1.62969e-05 1.7761e-06
-1.58433e-06 1.7761e-06 -2.19664e-05
0.00059551 1.41075e-05 1.23224e-08
1.41075e-05 -3.91446e-05 -7.57827e-07
1.23224e-08 -7.57827e-07 -4.58274e-05
0.0020403 2.47757e-05 7.82632e-06
2.47757e-05 0.000815689 -4.52129e-06
7.82632e-06 -4.52129e-06 0.000834373
0.00120382 3.04024e-05 -7.92826e-07
3.04024e-05 0.000321987 2.00002e-06
-7.92826e-07 2.00002e-06 0.000316571
0.00148692 3.19658e-05 1.84899e-07
3.19658e-05 0.000494796 1.43417e-06
1.84899e-07 1.43417e-06 0.000508148
0.000917592 3.52848e-05 -1.47334e-05
3.52848e-05 0.000165908 7.22085e-06
-1.47334e-05 7.22085e-06 0.000173424
0.00168524 0.000106355 5.96742e-05
0.000106355 -0.000469784 1.52267e-05
5.96742e-05 1.52267e-05 -0.00046095
0.00186991 -9.13789e-06 1.93661e-06
-9.13789e-06 -2.45776e-05 3.81414e-07
1.93661e-06 3.81414e-07 -2.06798e-05
0.00193953 5.37449e-05 3.21726e-05
5.37449e-05 0.000238216 -7.14373e-06
3.21726e-05 -7.14373e-06 0.000257519
0.00112782 8.01658e-05 -8.22145e-06
8.01658e-05 -0.00100794 -7.17558e-06
-8.22145e-06 -7.17558e-06 -0.00102513
0.00184471 3.51321e-05 1.58323e-05
3.51321e-05 -0.000177531 1.12768e-06
1.58323e-05 1.12768e-06 -0.000135752
0.00234252 -1.3035e-05 -3.88144e-07
-1.3035e-05 0.000366613 -1.60916e-06
-3.88144e-07 -1.60916e-06 0.000349754
0.00335949 -5.91385e-05 -5.88108e-05
-5.91385e-05 0.000775693 4.17038e-06
-5.88108e-05 4.17038e-06 0.00076032
0.0032302 -7.37651e-05 0.00011421
-7.37651e-05 0.000506872 -5.57606e-06
0.00011421 -5.57606e-06 0.000313343
0.00908005 -0.000348928 7.46639e-06
-0.000348928 0.00221476 2.47652e-05
7.46639e-06 2.47652e-05 0.00088434
0.00784862 0.00143769 0.000274733
0.00143769 0.00381476 -0.000121832
0.000274733 -0.000121832 0.00384304
0.00403153 0.00150543 2.57323e-07
0.00150543 0.00280282 1.53508e-05
2.57323e-07 1.53508e-05 0.00356091
0.000424297 -7.63978e-05 2.43046e-06
-7.63978e-05 -7.48511e-05 -4.5641e-07
2.43046e-06 -4.5641e-07 -0.000163892
0.000684551 -9.82812e-06 1.26861e-06
-9.82812e-06 6.74442e-05 -1.47422e-07
1.26861e-06 -1.47422e-07 -4.73942e-06
0.000711154 -7.26691e-05 -1.5678e-06
-7.26691e-05 8.77185e-05 1.47709e-06
-1.5678e-06 1.47709e-06 1.10534e-05
0.000638031 -3.17687e-05 -3.75147e-07
-3.17687e-05 4.4072e-05 2.31856e-07
-3.75147e-07 2.31856e-07 -4.35925e-05
0.000726982 7.14223e-05 -1.52789e-08
7.14223e-05 0.00011254 1.09306e-06
-1.52789e-08 1.09306e-06 5.89577e-06
0.0008028 0.0001203 1.41361e-06
0.0001203 0.000147818 1.7185e-06
1.41361e-06 1.7185e-06 4.06594e-05
0.000774554 -7.02533e-06 1.90698e-06
-7.02533e-06 0.000132551 -1.91169e-06
1.90698e-06 -1.91169e-06 3.4817e-05
0.000621222 -2.87989e-05 -6.88185e-07
-2.87989e-05 4.12589e-05 6.77501e-07
-6.88185e-07 6.77501e-07 -5.08486e-05
0.00212239 -0.00015901 4.09086e-06
-0.00015901 0.00011523 1.39163e-06
4.09086e-06 1.39163e-06 0.000127832
0.00181919 -0.000239338 5.50469e-06
-0.000239338 -0.000112292 -1.84053e-06
5.50469e-06 -1.84053e-06 -9.95033e-05
0.00163326 -0.000406079 2.43875e-06
-0.000406079 -7.02799e-05 2.83037e-06
2.43875e-06 2.83037e-06 -0.000188374
0.00121666 -0.000322975 7.56797e-06
-0.000322975 0.000249679 4.08116e-06
7.56797e-06 4.08116e-06 1.06665e-05
0.00187673 -0.000466371 4.99354e-06
-0.000466371 0.000328001 -4.96359e-07
4.99354e-06 -4.96359e-07 0.000111409
0.00147053 -0.000356731 4.26902e-07
-0.000356731 0.000599913 7.07557e-07
4.26902e-07 7.07557e-07 0.000286141
0.00174143 -0.000214998 -6.93553e-07
-0.000214998 0.000721295 -1.01058e-06
-6.93553e-07 -1.01058e-06 0.000479765
0.000737999 -0.000107869 7.85184e-07
-0.000107869 9.5241e-05 -5.43606e-07
7.85184e-07 -5.43606e-07 -4.80121e-05
0.000730574 -2.28928e-05 -1.75783e-07
-2.28928e-05 0.000104717 2.29908e-06
-1.75783e-07 2.29908e-06 4.23291e-06
0.000923925 -2.49036e-05 -2.64581e-07
-2.49036e-05 0.000211621 -4.67079e-06
-2.64581e-07 -4.67079e-06 9.53418e-05
0.000946075 -1.78455e-05 1.07344e-06
-1.78455e-05 0.000232217 7.96748e-07
1.07344e-06 7.96748e-07 0.000135699
0.000706106 0.000118771 2.56346e-06
0.000118771 0.000100516 3.28404e-06
2.56346e-06 3.28404e-06 -8.34392e-07
0.00182526 -0.000183847 -4.12318e-07
-0.000183847 -7.03972e-05 6.7532e-07
-4.12318e-07 6.7532e-07 -1.91609e-05
0.000705986 2.32372e-05 -1.48158e-06
2.32372e-05 0.000104343 2.57619e-07
-1.48158e-06 2.57619e-07 -1.35802e-05
0.000826928 -7.36001e-05 -1.40816e-06
-7.36001e-05 0.000164184 7.27883e-07
-1.40816e-06 7.27883e-07 4.59813e-05
0.00172296 -0.000341707 1.14877e-06
-0.000341707 -0.000131111 -1.57455e-06
1.14877e-06 -1.57455e-06 -0.000126406
0.00159428 -0.000477291 2.23437e-07
-0.000477291 1.24427e-06 1.91088e-06
2.23437e-07 1.91088e-06 -0.000166708
0.00150585 -0.000412683 -5.70151e-09
-0.000412683 0.000311586 -1.57084e-06
-5.70151e-09 -1.57084e-06 8.18068e-05
0.000885732 -0.000116826 5.17833e-07
-0.000116826 0.000246482 -2.85578e-06
5.17833e-07 -2.85578e-06 7.65737e-05
0.0010009 -0.000165864 -3.01177e-07
-0.000165864 0.000443488 3.09042e-07
-3.01177e-07 3.09042e-07 9.32285e-05
0.00318134 -0.000293391 -2.55456e-05
-0.000293391 0.000689789 4.70786e-06
-2.55456e-05 4.70786e-06 0.000675531
0.00273914 -0.000482776 -3.01089e-05
-0.000482776 0.000497067 5.15532e-06
-3.01089e-05 5.15532e-06 0.000499109
0.0014978 -0.000513183 -8.70145e-06
-0.000513183 5.77229e-05 2.32324e-06
-8.70145e-06 2.32324e-06 -0.000112796
0.000353331 -0.000290816 -5.25304e-06
-0.000290816 -0.000169878 1.7364e-05
-5.25304e-06 1.7364e-05 -0.000408929
0.000658723 -0.000120121 1.83542e-06
-0.000120121 7.52883e-05 -1.63079e-07
1.83542e-06 -1.63079e-07 -5.63137e-05
0.000544967 -8.75219e-05 2.30661e-06
-8.75219e-05 3.60948e-05 -3.79751e-06
2.30661e-06 -3.79751e-06 -0.00010721
0.00105654 -5.99979e-05 4.06896e-07
-5.99979e-05 0.000463471 -5.81998e-06
4.06896e-07 -5.81998e-06 0.000164785
-0.00453983 -5.37119e-05 0.000242389
-5.37119e-05 -0.00288511 1.93504e-06
0.000242389 1.93504e-06 -0.00214934
0.009638 -0.000120903 -9.9724e-06
-0.000120903 0.00287393 -6.90502e-08
-9.9724e-06 -6.90502e-08 0.00219961
0.00143267 0.000123462 3.66689e-06
0.000123462 0.00052788 -1.50832e-06
3.66689e-06 -1.50832e-06 0.000388839
0.000825688 0.000209595 2.8929e-06
0.000209595 0.00012059 -2.1703e-06
2.8929e-06 -2.1703e-06 -6.12186e-05
0.00206092 0.000283896 3.25313e-05
0.000283896 0.000186581 2.042e-05
3.25313e-05 2.042e-05 0.00021571
0.00243595 0.00053608 9.43617e-06
0.00053608 0.000451709 7.84424e-06
9.43617e-06 7.84424e-06 0.000259892
0.00168848 0.0003734 7.53824e-06
0.0003734 0.000428685 1.71425e-06
7.53824e-06 1.71425e-06 0.000160627
0.00961284 0.000447675 4.26256e-05
0.000447675 0.00243474 8.58893e-06
4.26256e-05 8.58893e-06 0.0013399
0.00731281 0.000801371 -0.000142007
0.000801371 0.00118657 -3.04395e-05
-0.000142007 -3.04395e-05 0.000697362
-0.000793359 0.000215627 2.9485e-07
0.000215627 -0.000948534 -1.82739e-05
2.9485e-07 -1.82739e-05 -0.00120961
0.00697939 -0.0011647 -5.71654e-05
-0.0011647 0.00341493 2.58857e-05
-5.71654e-05 2.58857e-05 0.00290772
-0.0074244 -0.00181824 -0.000453972
-0.00181824 -0.00363754 -0.000347995
-0.000453972 -0.000347995 -0.00187189
0.000935779 0.000160808 -3.11439e-07
0.000160808 0.000249249 -1.74336e-06
-3.11439e-07 -1.74336e-06 0.000115595
-0.00240631 -0.00053351 0.000100624
-0.00053351 -0.00191035 1.11026e-05
0.000100624 1.11026e-05 -0.00208422
-0.00219063 -0.000451667 -0.000115598
-0.000451667 0.000956377 -5.69158e-05
-0.000115598 -5.69158e-05 -0.000583942
0.00270325 0.000419054 -6.31565e-06
0.000419054 0.000584144 -1.04809e-06
-6.31565e-06 -1.04809e-06 0.000616283
0.000856233 0.000186807 -2.002e-06
0.000186807 0.000148482 8.97452e-07
-2.002e-06 8.97452e-07 -5.27494e-05
0.000852281 0.000387189 3.34626e-06
0.000387189 -4.15583e-05 1.76059e-06
3.34626e-06 1.76059e-06 -0.000310838
0.00106419 0.000340918 1.28791e-05
0.000340918 -1.36607e-05 1.20259e-05
1.28791e-05 1.20259e-05 -3.80867e-05
0.0077787 0.000398728 -4.34577e-05
0.000398728 0.00135773 -2.48426e-05
-4.34577e-05 -2.48426e-05 -0.000362412
0.00634013 0.00115364 -5.0713e-05
0.00115364 0.00165318 -2.01734e-05
-5.0713e-05 -2.01734e-05 0.000872045
0.00887211 -0.00137465 9.86242e-05
-0.00137465 0.00416756 -4.30416e-05
9.86242e-05 -4.30416e-05 0.00411416
0.00336973 -0.00106984 0.000117034
-0.00106984 -0.00167933 0.000245465
0.000117034 0.000245465 -0.000318206
0.00146138 0.000144121 -1.29806e-05
0.000144121 0.000567236 -6.6222e-06
-1.29806e-05 -6.6222e-06 0.000450514
-0.00479565 0.000164947 -7.84559e-05
0.000164947 0.000612854 -4.50695e-05
-7.84559e-05 -4.50695e-05 -0.00153954
0.0027228 0.00021287 -0.000128697
0.00021287 0.0012126 -0.000182154
-0.000128697 -0.000182154 -0.000914965
0.000780888 0.000347861 -1.54682e-05
0.000347861 -0.000156371 4.18814e-06
-1.54682e-05 4.18814e-06 -0.000163211
0.00117312 0.000384858 -4.06822e-05
0.000384858 0.000394118 -1.3911e-05
-4.06822e-05 -1.3911e-05 0.000154441
0.00239015 0.000313604 -6.72527e-05
0.000313604 0.00115739 -6.51134e-06
-6.72527e-05 -6.51134e-06 0.000822221
0.00287875 0.000885849 -4.8293e-05
0.000885849 0.000331535 -1.55295e-05
-4.8293e-05 -1.55295e-05 6.13953e-06
0.00110282 0.000549794 0.000131082
0.000549794 -3.29078e-05 9.8081e-05
0.000131082 9.8081e-05 -0.00250831
0.00930555 -0.00151257 4.12367e-05
-0.00151257 0.00300306 0.000209842
4.12367e-05 0.000209842 0.0026494
0.00349758 -0.000682958 -2.46752e-05
-0.000682958 -0.00205331 -2.8755e-05
-2.46752e-05 -2.8755e-05 -0.000779794
0.000873703 8.65346e-05 2.92134e-06
8.65346e-05 0.000196193 3.16439e-06
2.92134e-06 3.16439e-06 9.21757e-05
0.00121166 0.00011384 4.79397e-06
0.00011384 0.000388833 2.62635e-06
4.79397e-06 2.62635e-06 0.000302004
0.000187633 4.99891e-05 2.04542e-06
4.99891e-05 -0.000161896 -3.31614e-06
2.04542e-06 -3.31614e-06 -0.000241548
0.000506738 4.44204e-05 1.11445e-06
4.44204e-05 -4.2888e-05 -1.7298e-07
1.11445e-06 -1.7298e-07 -0.00012956
0.000756912 4.71436e-05 -6.55899e-07
4.71436e-05 0.000118672 -1.28874e-06
-6.55899e-07 -1.28874e-06 6.01511e-06
0.000781907 -6.34418e-06 -3.46939e-07
-6.34418e-06 0.000109996 5.78778e-07
-3.46939e-07 5.78778e-07 6.24603e-06
0.000784232 -1.42485e-06 1.45242e-06
-1.42485e-06 0.000116621 -1.62566e-07
1.45242e-06 -1.62566e-07 1.23954e-05
0.00057519 2.95428e-05 1.61756e-07
2.95428e-05 -5.95064e-06 2.47546e-06
1.61756e-07 2.47546e-06 -9.55815e-05
0.00079255 4.11882e-05 2.35693e-09
4.11882e-05 0.000137812 -7.45195e-07
2.35693e-09 -7.45195e-07 2.26185e-05
0.000885939 3.32215e-05 -9.5086e-08
3.32215e-05 0.000165139 2.46567e-07
-9.5086e-08 2.46567e-07 6.90988e-05
0.000803529 -3.26526e-05 -2.80471e-07
-3.26526e-05 0.000124894 4.70927e-07
-2.80471e-07 4.70927e-07 1.39634e-05
0.000211406 3.4639e-05 4.54908e-08
3.4639e-05 -0.000183835 3.72603e-07
4.54908e-08 3.72603e-07 -0.000279003
-0.00023881 1.99681e-05 -2.59938e-06
1.99681e-05 -0.000333003 -2.2853e-06
-2.59938e-06 -2.2853e-06 -0.0004356
0.000922556 -3.36922e-06 -2.39076e-06
-3.36922e-06 0.000195967 -2.46258e-06
-2.39076e-06 -2.46258e-06 9.03773e-05
0.000933589 7.9575e-06 -4.54721e-07
7.9575e-06 0.000218985 -1.13624e-06
-4.54721e-07 -1.13624e-06 8.81997e-05
0.00081997 -5.16662e-05 1.45936e-08
-5.16662e-05 0.000156154 -7.36806e-07
1.45936e-08 -7.36806e-07 4.21124e-05
0.000879195 -1.87056e-05 -3.06936e-07
-1.87056e-05 0.000167003 9.69668e-07
-3.06936e-07 9.69668e-07 7.14143e-05
0.000843139 -4.25306e-05 2.69465e-07
-4.25306e-05 0.000160042 -5.3388e-07
2.69465e-07 -5.3388e-07 4.59625e-05
0.000774039 2.07225e-05 -2.63525e-07
2.07225e-05 0.000116899 -1.11471e-07
-2.63525e-07 -1.11471e-07 1.85148e-05
0.00054271 -3.47067e-05 -1.45839e-08
-3.47067e-05 -3.02649e-05 6.68575e-07
-1.45839e-08 6.68575e-07 -0.000118027
0.000655946 2.73357e-05 7.76955e-07
2.73357e-05 5.16602e-05 6.88986e-07
7.76955e-07 6.88986e-07 -4.4487e-05
0.000491321 -9.95959e-06 -7.92572e-07
-9.95959e-06 -3.69229e-05 -3.09944e-06
-7.92572e-07 -3.09944e-06 -0.000143266
0.000538077 -2.55088e-05 1.43701e-06
-2.55088e-05 -2.90746e-05 -8.26934e-07
1.43701e-06 -8.26934e-07 -0.000115547
0.000805722 -1.26486e-05 3.12147e-06
-1.26486e-05 0.000107828 -4.16679e-06
3.12147e-06 -4.16679e-06 1.30083e-05
0.000150374 -3.99392e-05 8.36314e-07
-3.99392e-05 -0.000225042 5.74015e-07
8.36314e-07 5.74015e-07 -0.000369776
0.000333001 2.01181e-05 -4.37921e-07
2.01181e-05 -0.000122416 -7.55454e-07
-4.37921e-07 -7.55454e-07 -0.000227023
0.000729919 1.19116e-05 2.68142e-07
1.19116e-05 9.30242e-05 3.9146e-07
2.68142e-07 3.9146e-07 -5.84176e-06
0.000662477 3.74334e-06 -1.34503e-07
3.74334e-06 4.92569e-05 5.16933e-07
-1.34503e-07 5.16933e-07 -3.77182e-05
0.000729899 -1.48042e-05 -8.16683e-08
-1.48042e-05 9.80387e-05 -2.58475e-08
-8.16683e-08 -2.58475e-08 3.53345e-06
0.000624602 7.73906e-06 -6.22112e-07
7.73906e-06 2.04106e-05 8.67796e-07
-6.22112e-07 8.67796e-07 -5.3236e-05
0.000771696 -1.19066e-05 2.9404e-07
-1.19066e-05 0.000121555 -1.0985e-07
2.9404e-07 -1.0985e-07 2.45722e-05
0.000696519 -3.49674e-05 -3.43152e-07
-3.49674e-05 6.22768e-05 6.37399e-08
-3.43152e-07 6.37399e-08 -1.40658e-05
0.000610156 4.1018e-05 -6.98097e-07
4.1018e-05 -7.46258e-06 2.16323e-06
-6.98097e-07 2.16323e-06 -5.73809e-05
0.000588872 -5.76973e-05 1.39905e-06
-5.76973e-05 -4.29611e-06 -9.04728e-07
1.39905e-06 -9.04728e-07 -8.36162e-05
0.000634565 8.66214e-06 -2.54429e-07
8.66214e-06 6.91199e-06 -2.65349e-08
-2.54429e-07 -2.65349e-08 -4.1758e-05
0.00137065 2.51771e-05 -4.68846e-06
2.51771e-05 0.000420852 5.31444e-06
-4.68846e-06 5.31444e-06 0.000410081
0.000626023 -1.19396e-05 7.66434e-07
-1.19396e-05 6.66777e-06 -1.91395e-06
7.66434e-07 -1.91395e-06 -4.282e-05
0.000972827 1.49232e-05 -2.51045e-06
1.49232e-05 0.000186364 7.51013e-07
-2.51045e-06 7.51013e-07 0.000174155
0.000790724 1.45628e-05 -2.84942e-07
1.45628e-05 7.90471e-05 1.97311e-06
-2.84942e-07 1.97311e-06 8.76167e-05
0.000586046 6.05981e-06 4.65723e-07
6.05981e-06 -4.17238e-05 -3.7022e-06
4.65723e-07 -3.7022e-06 -5.56788e-05
0.00233442 1.29839e-05 3.7032e-06
1.29839e-05 0.000985482 4.34774e-08
3.7032e-06 4.34774e-08 0.00100183
0.00233134 1.87832e-06 -4.36579e-07
1.87832e-06 0.000983158 -5.18337e-06
-4.36579e-07 -5.18337e-06 0.00099969
0.00099724 7.08059e-05 -1.2989e-06
7.08059e-05 0.000248505 -1.30516e-06
-1.2989e-06 -1.30516e-06 0.000173819
0.000644146 2.71557e-05 -9.83032e-07
2.71557e-05 1.54301e-05 -2.10709e-06
-9.83032e-07 -2.10709e-06 -2.37513e-05
0.00066831 -5.34434e-06 6.92445e-07
-5.34434e-06 6.12802e-05 8.63077e-07
6.92445e-07 8.63077e-07 -1.52128e-05
0.000621785 2.49436e-06 4.47306e-08
2.49436e-06 -2.51962e-05 -3.41711e-06
4.47306e-08 -3.41711e-06 -3.14067e-05
0.000635003 -7.4553e-06 2.36376e-07
-7.4553e-06 8.46408e-06 -3.13802e-08
2.36376e-07 -3.13802e-08 -2.8618e-05
0.000642805 -2.3631e-05 -1.36622e-06
-2.3631e-05 1.12059e-05 1.58807e-06
-1.36622e-06 1.58807e-06 -2.60749e-05
0.000608283 7.97673e-06 -1.8605e-07
7.97673e-06 -3.24523e-05 -2.28776e-08
-1.8605e-07 -2.28776e-08 -3.86719e-05
0.00203602 1.26886e-05 3.43011e-06
1.26886e-05 0.000810711 -4.66867e-06
3.43011e-06 -4.66867e-06 0.000830141
0.00118861 2.01851e-05 -6.90049e-07
2.01851e-05 0.000309771 1.99849e-06
-6.90049e-07 1.99849e-06 0.000306276
0.00142331 2.13454e-05 1.29764e-06
2.13454e-05 0.000452439 4.56953e-08
1.29764e-06 4.56953e-08 0.000467738
0.000871314 2.53106e-05 -1.34677e-05
2.53106e-05 0.000132414 7.11646e-06
-1.34677e-05 7.11646e-06 0.000142968
-0.00766651 0.000286104 0.000178781
0.000286104 -0.00342378 1.04885e-06
0.000178781 1.04885e-06 -0.00411764
-0.00197213 0.000107793 0.000195108
0.000107793 0.0013144 1.35632e-05
0.000195108 1.35632e-05 8.03063e-05
0.00392354 0.000206718 -0.000197291
0.000206718 0.00026859 -4.31851e-06
-0.000197291 -4.31851e-06 0.000344008
0.000491594 3.33234e-05 3.33842e-05
3.33234e-05 -0.000838844 -6.89426e-06
3.33842e-05 -6.89426e-06 -0.000843694
0.00136549 -2.19433e-05 1.83766e-05
-2.19433e-05 -0.000263142 -6.07506e-07
1.83766e-05 -6.07506e-07 -0.000277117
0.000535447 4.8508e-05 4.36956e-06
4.8508e-05 -0.000704848 -4.86773e-06
4.36956e-06 -4.86773e-06 -0.000710144
0.00247679 -9.51975e-05 3.49531e-07
-9.51975e-05 0.000239263 3.40384e-06
3.49531e-07 3.40384e-06 0.00020555
0.00824862 0.000134767 3.80845e-05
0.000134767 0.0014926 -2.89899e-05
3.80845e-05 -2.89899e-05 0.000484207
-0.00343198 0.000824214 -3.21514e-05
0.000824214 -0.000983091 -8.25505e-06
-3.21514e-05 -8.25505e-06 -0.00189519
-0.00167559 0.00161224 -9.24052e-05
0.00161224 -0.000404385 4.30278e-05
-9.24052e-05 4.30278e-05 0.000941861
0.00141181 -0.000199499 5.52839e-05
-0.000199499 -0.000689915 4.92864e-06
5.52839e-05 4.92864e-06 -0.000878954
0.0112665 -0.000159703 7.27134e-05
-0.000159703 0.00334369 -2.92969e-05
7.27134e-05 -2.92969e-05 0.00194504
0.00192065 0.00153868 0.00011447
0.00153868 -0.000153507 -0.000207893
0.00011447 -0.000207893 0.00039623
0.00546608 0.00115858 -0.000143691
0.00115858 0.000378764 9.91446e-05
-0.000143691 9.91446e-05 0.000776304
0.00071909 7.04292e-05 -1.10247e-06
7.04292e-05 0.000116304 7.22968e-08
-1.10247e-06 7.22968e-08 -4.06822e-06
0.000563294 1.23361e-05 -2.46581e-07
1.23361e-05 2.39006e-06 -7.2237e-07
-2.46581e-07 -7.2237e-07 -8.39108e-05
0.000695394 -8.1482e-05 -1.16553e-06
-8.1482e-05 7.80483e-05 1.12333e-06
-1.16553e-06 1.12333e-06 2.23887e-06
0.000576268 -1.66807e-06 8.52825e-08
-1.66807e-06 1.36754e-05 4.62225e-07
8.52825e-08 4.62225e-07 -7.82216e-05
0.000703569 6.51905e-05 9.18907e-07
6.51905e-05 0.000103756 1.47624e-06
9.18907e-07 1.47624e-06 -3.41701e-06
0.000861695 7.50884e-05 1.76078e-09
7.50884e-05 0.000190712 -8.41603e-08
1.76078e-09 -8.41603e-08 7.06197e-05
0.000761822 8.61409e-05 1.66038e-06
8.61409e-05 0.000129774 1.72808e-06
1.66038e-06 1.72808e-06 2.0127e-05
0.000691754 6.35595e-06 1.8071e-06
6.35595e-06 7.52367e-05 -4.19573e-07
1.8071e-06 -4.19573e-07 -2.88571e-05
0.000669359 -1.64931e-05 6.14324e-07
-1.64931e-05 7.36611e-05 -1.00278e-06
6.14324e-07 -1.00278e-06 -2.75266e-05
0.000545485 -8.7477e-06 -7.00181e-07
-8.7477e-06 -1.04973e-05 7.41406e-07
-7.00181e-07 7.41406e-07 -9.71756e-05
0.00149402 -0.000173153 1.48877e-05
-0.000173153 -0.000207797 -9.51201e-07
1.48877e-05 -9.51201e-07 -0.000162179
0.00156036 -0.000340444 1.86117e-05
-0.000340444 -0.000205149 -4.23109e-06
1.86117e-05 -4.23109e-06 -0.000215734
0.000141716 -0.000365013 1.43675e-05
-0.000365013 -0.000761312 2.31148e-06
1.43675e-05 2.31148e-06 -0.000900602
0.000986705 -0.000373453 2.18437e-06
-0.000373453 4.19795e-05 -4.17698e-07
2.18437e-06 -4.17698e-07 -0.000195383
0.00160309 -0.000199707 6.17227e-08
-0.000199707 0.000744717 8.10025e-06
6.17227e-08 8.10025e-06 0.000423769
0.00107379 -0.000158297 5.50708e-07
-0.000158297 0.000357912 2.58545e-07
5.50708e-07 2.58545e-07 0.000166829
0.000936878 -6.98303e-05 -8.1727e-07
-6.98303e-05 0.00021656 2.14583e-07
-8.1727e-07 2.14583e-07 0.000108287
0.000712855 3.35584e-05 -1.55551e-06
3.35584e-05 0.000109468 1.98018e-06
-1.55551e-06 1.98018e-06 -5.92979e-06
0.0017456 -0.000221776 1.66432e-06
-0.000221776 -4.99551e-05 -1.67645e-06
1.66432e-06 -1.67645e-06 -3.93793e-05
0.000652089 -5.30118e-05 -2.80854e-07
-5.30118e-05 7.50566e-05 -2.37458e-07
-2.80854e-07 -2.37458e-07 -5.85381e-05
0.000462902 -7.21069e-05 8.17748e-07
-7.21069e-05 -7.28353e-06 -1.37885e-06
8.17748e-07 -1.37885e-06 -0.000154251
0.00210382 -0.000451188 4.68729e-06
-0.000451188 0.000170988 -5.95623e-07
4.68729e-06 -5.95623e-07 0.000163047
0.00106976 -0.000477525 9.3225e-07
-0.000477525 -0.000158828 3.64761e-06
9.3225e-07 3.64761e-06 -0.000318705
0.000901722 -0.000363152 9.35807e-06
-0.000363152 0.000126378 -3.70215e-06
9.35807e-06 -3.70215e-06 -0.000134844
0.00144179 -0.000109295 -4.92707e-07
-0.000109295 0.000653524 -3.26766e-06
-4.92707e-07 -3.26766e-06 0.000372169
0.00115306 -0.000303737 -1.97098e-05
-0.000303737 -1.98265e-05 1.05639e-06
-1.97098e-05 1.05639e-06 -0.000265682
0.00117162 -0.000357684 -3.06692e-05
-0.000357684 -1.89035e-05 1.00941e-05
-3.06692e-05 1.00941e-05 -6.14145e-05
-0.000173626 -0.000208832 -2.04593e-05
-0.000208832 -0.000282303 3.82455e-05
-2.04593e-05 3.82455e-05 -0.000572281
0.000441372 3.01613e-05 3.15057e-07
3.01613e-05 -4.4073e-05 1.42696e-06
3.15057e-07 1.42696e-06 -0.000175338
0.000486606 -0.000105194 2.45523e-06
-0.000105194 -1.93104e-06 -1.16475e-06
2.45523e-06 -1.16475e-06 -0.000149137
0.000728177 -7.61562e-05 2.35413e-06
-7.61562e-05 0.000200178 -6.52011e-06
2.35413e-06 -6.52011e-06 -9.92562e-06
0.000367455 0.000163055 -0.000130315
0.000163055 0.00308028 1.72874e-06
-0.000130315 1.72874e-06 0.00167942
0.00196412 -0.000315805 1.82968e-05
-0.000315805 0.00145616 1.88022e-05
1.82968e-05 1.88022e-05 0.00133828
0.000463742 0.000593124 -6.14228e-05
0.000593124 -0.00281405 1.79505e-05
-6.14228e-05 1.79505e-05 -0.00340973
0.00071956 0.000145894 4.64035e-06
0.000145894 0.000139212 9.40122e-07
4.64035e-06 9.40122e-07 7.5876e-06
0.000665962 0.000213644 4.8518e-06
0.000213644 6.93014e-05 5.43687e-06
4.8518e-06 5.43687e-06 -0.000144296
0.00235137 0.000372525 1.87926e-05
0.000372525 0.000371327 1.14718e-05
1.87926e-05 1.14718e-05 0.000420822
0.00197268 0.000407351 1.64474e-05
0.000407351 0.000562712 1.26667e-05
1.64474e-05 1.26667e-05 0.000297878
0.00630262 -0.00063091 5.29846e-05
-0.00063091 0.00243238 3.26878e-05
5.29846e-05 3.26878e-05 0.00258408
0.002063 -3.9418e-05 -0.000120906
-3.9418e-05 -0.00148992 -1.0558e-05
-0.000120906 -1.0558e-05 -0.0030558
0.00298289 0.0010419 -8.35361e-05
0.0010419 -0.000330628 -1.91832e-05
-8.35361e-05 -1.91832e-05 -0.00106185
0.000493184 0.000203506 2.60432e-05
0.000203506 -0.000149299 -2.10214e-05
2.60432e-05 -2.10214e-05 -0.000137265
-0.00364577 -0.000714122 -7.08825e-05
-0.000714122 -0.00113242 -9.90523e-05
-7.08825e-05 -9.90523e-05 -0.00146075
-0.000359583 -0.000676928 -5.96663e-05
-0.000676928 0.00105962 6.90355e-06
-5.96663e-05 6.90355e-06 -0.000501021
0.00801712 -0.00142553 0.000167867
-0.00142553 0.000751836 0.0001335
0.000167867 0.0001335 0.00217899
0.000657506 0.000107979 5.11168e-06
0.000107979 0.000129962 -2.51666e-06
5.11168e-06 -2.51666e-06 6.41941e-06
-0.00162046 8.38176e-08 -6.76553e-05
8.38176e-08 0.00161138 -2.08477e-05
-6.76553e-05 -2.08477e-05 -0.000209609
0.00311901 0.000240339 -1.3886e-05
0.000240339 0.00136396 -5.56018e-05
-1.3886e-05 -5.56018e-05 -0.000828625
0.00119337 0.000342676 -7.40388e-06
0.000342676 0.000105328 4.12522e-06
-7.40388e-06 4.12522e-06 5.07903e-05
0.000624174 0.000246685 -3.31726e-07
0.000246685 0.00012441 2.03646e-06
-3.31726e-07 2.03646e-06 -0.000110435
-0.000247962 0.000229392 3.00781e-05
0.000229392 -0.000295228 -3.32268e-05
3.00781e-05 -3.32268e-05 -0.000536368
0.00548468 0.00125877 -8.38798e-06
0.00125877 0.00179175 3.56714e-06
-8.38798e-06 3.56714e-06 0.00110804
0.0103393 0.0005468 5.16891e-05
0.0005468 0.0036792 1.95906e-05
5.16891e-05 1.95906e-05 0.00181591
0.00299721 -0.000967458 1.6187e-05
-0.000967458 -0.000745803 -3.15432e-05
1.6187e-05 -3.15432e-05 -0.000957767
0.00818718 -0.000937089 8.76095e-06
-0.000937089 0.0010153 -2.73189e-05
8.76095e-06 -2.73189e-05 0.00221907
0.00114148 0.000197793 -1.29959e-05
0.000197793 0.000456852 -8.70032e-06
-1.29959e-05 -8.70032e-06 0.000335489
0.00250088 2.41437e-05 -9.17316e-05
2.41437e-05 0.000808862 -3.4142e-05
-9.17316e-05 -3.4142e-05 -0.000598659
0.000238816 7.43831e-05 -2.31683e-05
7.43831e-05 0.000260848 -8.28462e-05
-2.31683e-05 -8.28462e-05 -0.00121078
-0.000987205 4.55369e-05 -1.58966e-05
4.55369e-05 -0.000484287 -1.788e-05
-1.58966e-05 -1.788e-05 -0.000634701
0.00192307 0.000363265 -3.14523e-05
0.000363265 0.000767885 4.34191e-05
-3.14523e-05 4.34191e-05 0.000103855
0.00943052 0.000858751 3.33069e-05
0.000858751 0.00388814 -1.5493e-06
3.33069e-05 -1.5493e-06 0.00111577
-0.00684526 -0.00143972 -3.80807e-05
-0.00143972 -0.00392924 9.99712e-05
-3.80807e-05 9.99712e-05 -0.00570389
0.00651479 0.000335674 6.98456e-06
0.000335674 -0.000780317 -0.000137962
6.98456e-06 -0.000137962 0.00080276
0.00099207 9.39186e-05 2.31203e-06
9.39186e-05 0.000250468 6.3086e-06
2.31203e-06 6.3086e-06 0.000168544
0.000915617 0.000107793 -3.98938e-06
0.000107793 0.00026336 -9.22198e-07
-3.98938e-06 -9.22198e-07 0.00017586
0.000321015 6.54594e-05 -3.49899e-06
6.54594e-05 5.29635e-05 -7.05787e-08
-3.49899e-06 -7.05787e-08 -7.04851e-05
0.000800723 7.79826e-05 -2.17995e-06
7.79826e-05 0.000132923 -8.74953e-07
-2.17995e-06 -8.74953e-07 2.42146e-05
0.000854364 -3.12383e-05 -6.29575e-07
-3.12383e-05 0.000163943 4.1781e-07
-6.29575e-07 4.1781e-07 4.64726e-05
0.0006917 3.59384e-05 4.88307e-07
3.59384e-05 5.25275e-05 1.21383e-06
4.88307e-07 1.21383e-06 -4.47343e-05
0.00023766 2.93414e-05 1.40544e-06
2.93414e-05 -0.000157974 1.77308e-06
1.40544e-06 1.77308e-06 -0.000252565
0.000844066 -1.61742e-06 9.54053e-07
-1.61742e-06 0.000151237 1.21312e-07
9.54053e-07 1.21312e-07 3.22786e-05
0.000876485 1.74971e-05 6.83639e-08
1.74971e-05 0.000174307 -7.2214e-07
6.83639e-08 -7.2214e-07 6.70058e-05
0.000338002 -3.54572e-07 -4.94446e-07
-3.54572e-07 9.12485e-06 2.17455e-06
-4.94446e-07 2.17455e-06 -0.000102859
7.75086e-05 1.71599e-05 -5.8074e-06
1.71599e-05 1.96313e-05 -1.09224e-06
-5.8074e-06 -1.09224e-06 -0.000119025
0.000871351 -1.24903e-05 -2.12639e-06
-1.24903e-05 0.000278425 -6.98261e-06
-2.12639e-06 -6.98261e-06 0.000170101
0.000967149 4.24011e-05 -1.13473e-06
4.24011e-05 0.000235177 -3.09336e-06
-1.13473e-06 -3.09336e-06 0.000114589
0.000862535 -9.15606e-05 1.42338e-06
-9.15606e-05 0.000160414 8.23958e-07
1.42338e-06 8.23958e-07 5.28284e-05
0.000772491 2.27643e-05 -4.4825e-07
2.27643e-05 0.000112987 -1.33974e-07
-4.4825e-07 -1.33974e-07 1.60042e-05
0.000703241 -4.21203e-05 -1.9806e-06
-4.21203e-05 6.36377e-05 2.36102e-06
-1.9806e-06 2.36102e-06 -2.37503e-05
0.000571974 -2.19966e-05 1.21251e-06
-2.19966e-05 -3.05972e-07 9.9728e-07
1.21251e-06 9.9728e-07 -9.98216e-05
0.000732861 2.36768e-05 3.2112e-07
2.36768e-05 9.68987e-05 1.37903e-07
3.2112e-07 1.37903e-07 -7.83923e-07
0.000661252 -8.29949e-06 -7.12027e-07
-8.29949e-06 4.20149e-05 5.63251e-08
-7.12027e-07 5.63251e-08 -4.41306e-05
0.000919558 -1.63293e-06 -1.74622e-07
-1.63293e-06 0.000184536 -2.08338e-06
-1.74622e-07 -2.08338e-06 9.39554e-05
0.000217251 -2.90803e-05 2.73678e-06
-2.90803e-05 -0.000178718 -3.73814e-06
2.73678e-06 -3.73814e-06 -0.00025513
0.000399404 -8.67323e-05 1.31349e-06
-8.67323e-05 -0.000171197 -9.17048e-07
1.31349e-06 -9.17048e-07 -0.000266149
0.000891992 -3.84151e-05 -2.02143e-06
-3.84151e-05 0.000163194 -3.44765e-07
-2.02143e-06 -3.44765e-07 6.38236e-05
0.000465352 -7.85747e-05 3.92797e-06
-7.85747e-05 -5.60945e-05 2.16338e-06
3.92797e-06 2.16338e-06 -0.000190489
0.00111117 -0.000212279 -6.11182e-07
-0.000212279 0.000282363 6.26013e-06
-6.11182e-07 6.26013e-06 7.56631e-05
0.00123831 -9.19152e-05 1.60742e-06
-9.19152e-05 0.0004036 -1.33555e-06
1.60742e-06 -1.33555e-06 0.000277952
0.00033221 -6.19058e-05 -1.82568e-06
-6.19058e-05 -0.00010796 -3.98074e-06
-1.82568e-06 -3.98074e-06 -0.000251522
0.000644125 7.18341e-06 -3.11153e-07
7.18341e-06 4.98029e-05 -2.63449e-07
-3.11153e-07 -2.63449e-07 -5.29116e-05
0.000384318 9.17791e-06 4.61537e-07
9.17791e-06 -0.000101289 1.64683e-07
4.61537e-07 1.64683e-07 -0.000195895
0.000845421 2.44978e-07 -1.85746e-07
2.44978e-07 0.000158643 6.43248e-07
-1.85746e-07 6.43248e-07 5.82476e-05
0.000750468 -2.35128e-05 -5.77818e-07
-2.35128e-05 0.000108329 5.34257e-07
-5.77818e-07 5.34257e-07 1.37911e-05
0.000652665 -5.70966e-06 -7.01914e-07
-5.70966e-06 3.34893e-05 9.13796e-07
-7.01914e-07 9.13796e-07 -3.88415e-05
0.000823874 -4.24317e-05 2.70696e-07
-4.24317e-05 0.000163198 -5.11535e-07
2.70696e-07 -5.11535e-07 5.96699e-05
0.000697647 -3.94903e-05 -5.10061e-07
-3.94903e-05 6.41623e-05 -3.17643e-10
-5.10061e-07 -3.17643e-10 -1.14934e-05
0.000628067 3.22336e-05 -1.74292e-06
3.22336e-05 1.5208e-06 1.83004e-06
-1.74292e-06 1.83004e-06 -4.78501e-05
0.000732277 -6.93354e-05 1.5819e-06
-6.93354e-05 8.60995e-05 -1.05563e-06
1.5819e-06 -1.05563e-06 7.31738e-06
0.000666899 -3.09158e-07 -2.78432e-07
-3.09158e-07 2.17071e-05 1.99848e-08
-2.78432e-07 1.99848e-08 -2.60476e-05
0.00136079 3.45678e-05 -7.01451e-06
3.45678e-05 0.000416367 5.27241e-06
-7.01451e-06 5.27241e-06 0.000405214
0.000645464 -1.99156e-05 1.82029e-06
-1.99156e-05 1.3667e-05 -1.97328e-06
1.82029e-06 -1.97328e-06 -3.53521e-05
0.00097577 2.29157e-05 -3.39275e-06
2.29157e-05 0.000188681 7.11809e-07
-3.39275e-06 7.11809e-07 0.000176154
0.000796337 2.27744e-05 -6.58377e-07
2.27744e-05 8.60546e-05 2.00849e-06
-6.58377e-07 2.00849e-06 9.35519e-05
0.000578821 1.2146e-05 4.57448e-07
1.2146e-05 -4.58106e-05 -3.77095e-06
4.57448e-07 -3.77095e-06 -5.982e-05
0.00155598 2.20294e-05 5.36934e-06
2.20294e-05 0.000529231 -1.47393e-06
5.36934e-06 -1.47393e-06 0.00054144
0.00232677 1.53346e-05 4.07884e-06
1.53346e-05 0.00098128 -5.07734e-06
4.07884e-06 -5.07734e-06 0.000997583
0.000740593 3.36119e-07 9.60859e-07
3.36119e-07 9.12248e-05 -1.4215e-06
9.60859e-07 -1.4215e-06 1.43482e-05
0.000668975 2.17168e-05 -5.67306e-07
2.17168e-05 2.81782e-05 -2.16659e-06
-5.67306e-07 -2.16659e-06 -1.26101e-05
0.000733273 -2.20486e-06 9.61755e-07
-2.20486e-06 9.30529e-05 2.10274e-07
9.61755e-07 2.10274e-07 1.84718e-05
0.000614817 -3.55005e-06 9.45569e-08
-3.55005e-06 -2.91359e-05 -3.56315e-06
9.45569e-08 -3.56315e-06 -3.60161e-05
0.000636223 1.74237e-05 5.0803e-08
1.74237e-05 1.00864e-05 -1.19069e-08
5.0803e-08 -1.19069e-08 -2.85246e-05
0.000672222 -7.88716e-05 -3.23305e-06
-7.88716e-05 5.84374e-05 1.87075e-06
-3.23305e-06 1.87075e-06 -1.39097e-05
0.00204205 6.32332e-07 -1.18102e-06
6.32332e-07 0.000812976 -4.74444e-06
-1.18102e-06 -4.74444e-06 0.000832687
0.0006116 2.32696e-06 -1.6002e-07
2.32696e-06 -3.09402e-05 -7.63355e-09
-1.6002e-07 -7.63355e-09 -3.71238e-05
0.000621159 -1.67773e-05 -1.23817e-06
-1.67773e-05 -1.28307e-07 1.74542e-06
-1.23817e-06 1.74542e-06 -3.69232e-05
0.000596695 7.86278e-06 -3.44465e-07
7.86278e-06 -3.93085e-05 3.35162e-06
-3.44465e-07 3.35162e-06 -4.54832e-05
0.00205015 1.40346e-05 -3.55285e-06
1.40346e-05 0.00081917 -4.23558e-08
-3.55285e-06 -4.23558e-08 0.000838509
0.00204288 2.54364e-05 -1.01627e-05
2.54364e-05 0.000817288 4.39647e-06
-1.01627e-05 4.39647e-06 0.000836041
-0.00347691 -0.000231873 -3.81531e-05
-0.000231873 0.000996676 1.36729e-05
-3.81531e-05 1.36729e-05 -0.000816697
-0.0010392 0.000409552 -5.77787e-05
0.000409552 -0.000485424 1.37197e-05
-5.77787e-05 1.37197e-05 -0.000924998
0.00347708 -0.000264855 -0.000186271
-0.000264855 0.00103983 0.00014347
-0.000186271 0.00014347 -0.000909218
-0.0027853 0.000144824 0.000266169
0.000144824 0.00138066 -0.000117427
0.000266169 -0.000117427 0.0002327
0.000989036 0.000197203 -5.32023e-05
0.000197203 -0.000795443 1.1914e-05
-5.32023e-05 1.1914e-05 -0.000906208
0.00228507 -0.00014265 9.71366e-05
-0.00014265 7.61737e-05 -9.89914e-06
9.71366e-05 -9.89914e-06 5.60998e-05
0.00163144 -0.000406915 -5.83286e-05
-0.000406915 -0.00159389 -5.36964e-05
-5.83286e-05 -5.36964e-05 -0.00280399
0.00880781 0.000856706 -7.72777e-05
0.000856706 0.00432493 -1.82212e-05
-7.72777e-05 -1.82212e-05 0.00387805
-0.00753696 0.00178099 -0.000449627
0.00178099 -0.00379881 0.00035058
-0.000449627 0.00035058 -0.00187529
0.00252568 -7.06575e-05 -9.77404e-06
-7.06575e-05 -0.000212306 -4.78967e-06
-9.77404e-06 -4.78967e-06 -0.000383567
0.00431027 -0.000291339 3.86541e-05
-0.000291339 -3.28591e-05 -5.0831e-05
3.86541e-05 -5.0831e-05 -0.00202865
0.00942293 0.00159894 -5.80983e-05
0.00159894 0.0029936 -6.56756e-05
-5.80983e-05 -6.56756e-05 0.00361123
0.00268723 0.00110178 -5.86538e-05
0.00110178 -0.00135676 0.000137148
-5.86538e-05 0.000137148 -0.000848435
0.00245228 -0.000570232 -5.83713e-05
-0.000570232 -0.000604573 1.6878e-05
-5.83713e-05 1.6878e-05 -0.000815706
0.00262113 -0.000694387 0.000168094
-0.000694387 0.000279346 -0.000116459
0.000168094 -0.000116459 -0.00278805
-0.00506517 0.000766076 -5.47989e-05
0.000766076 -0.00443678 -0.000265882
-5.47989e-05 -0.000265882 -0.00441619
0.0026015 0.000682307 -5.13832e-05
0.000682307 -0.00290525 -2.48061e-06
-5.13832e-05 -2.48061e-06 -0.00172765
0.000803911 -1.44655e-05 7.49166e-07
-1.44655e-05 0.000166847 4.21456e-07
7.49166e-07 4.21456e-07 3.62665e-05
0.000720295 5.85465e-05 -1.80569e-06
5.85465e-05 0.000112631 -9.20643e-07
-1.80569e-06 -9.20643e-07 -2.06305e-06
0.00067266 5.52881e-05 1.54973e-08
5.52881e-05 6.31652e-05 -8.90955e-07
1.54973e-08 -8.90955e-07 -1.96414e-05
0.000644966 6.65375e-05 2.56767e-06
6.65375e-05 7.23919e-05 1.66936e-06
2.56767e-06 1.66936e-06 -3.33221e-05
0.000682278 3.72508e-05 2.99958e-08
3.72508e-05 8.39402e-05 3.09794e-07
2.99958e-08 3.09794e-07 -4.89798e-05
0.000830319 7.54346e-05 1.64768e-07
7.54346e-05 0.00017401 1.05643e-06
1.64768e-07 1.05643e-06 5.50328e-05
0.000676673 2.04084e-05 -1.00235e-06
2.04084e-05 7.75366e-05 1.74339e-06
-1.00235e-06 1.74339e-06 -2.8314e-05
0.000891762 0.000113551 2.94031e-07
0.000113551 0.000212007 4.21973e-07
2.94031e-07 4.21973e-07 8.80107e-05
0.000842635 6.47856e-05 -1.69641e-07
6.47856e-05 0.0001817 4.9472e-07
-1.69641e-07 4.9472e-07 6.60248e-05
0.000578464 -5.16823e-06 -2.05499e-06
-5.16823e-06 2.30133e-05 1.21811e-07
-2.05499e-06 1.21811e-07 -8.13539e-05
0.00104167 -0.000202761 3.43021e-05
-0.000202761 -0.000399553 -1.5082e-05
3.43021e-05 -1.5082e-05 -0.000370972
0.000884205 -0.000389018 2.98796e-05
-0.000389018 -0.000459452 -4.98761e-06
2.98796e-05 -4.98761e-06 -0.00047651
0.0014691 -0.000510915 1.65449e-05
-0.000510915 5.73328e-05 -2.32257e-06
1.65449e-05 -2.32257e-06 -0.000103312
0.000864251 -0.000384033 8.5083e-06
-0.000384033 9.35173e-05 -1.5951e-05
8.5083e-06 -1.5951e-05 -0.000196602
0.00160169 -0.000137645 -1.31212e-06
-0.000137645 0.000710439 1.20227e-05
-1.31212e-06 1.20227e-05 0.000451102
0.000674373 -8.6723e-05 -1.20295e-06
-8.6723e-05 0.000120503 4.11477e-06
-1.20295e-06 4.11477e-06 -3.43011e-05
0.000602889 6.83618e-05 -5.26883e-07
6.83618e-05 5.21885e-05 -1.24275e-06
-5.26883e-07 -1.24275e-06 -8.45768e-05
0.000759886 -5.17946e-05 -5.17958e-07
-5.17946e-05 0.000143721 1.556e-06
-5.17958e-07 1.556e-06 2.71566e-06
0.0014849 -0.000283773 -1.72148e-06
-0.000283773 0.000110029 -3.1008e-07
-1.72148e-06 -3.1008e-07 -4.61637e-05
0.000802119 -8.81022e-06 1.91986e-07
-8.81022e-06 0.000176917 5.80008e-07
1.91986e-07 5.80008e-07 2.7994e-05
0.00131631 -0.000116128 -2.77161e-08
-0.000116128 0.00054121 1.7511e-07
-2.77161e-08 1.7511e-07 0.000320171
0.00119654 -0.00036531 -1.72583e-06
-0.00036531 -3.16996e-05 -1.31827e-06
-1.72583e-06 -1.31827e-06 -7.05394e-05
0.000875534 -0.000250496 -1.48951e-05
-0.000250496 0.000267462 4.93493e-06
-1.48951e-05 4.93493e-06 -7.75536e-06
0.000114077 -0.000389307 -1.43427e-05
-0.000389307 -0.000649415 -2.13858e-05
-1.43427e-05 -2.13858e-05 -0.000625195
0.000907183 -0.000183728 -1.96664e-05
-0.000183728 0.000266186 2.37391e-05
-1.96664e-05 2.37391e-05 0.000170621
-0.000142248 -4.7217e-05 -3.80996e-06
-4.7217e-05 -0.000235061 2.77125e-05
-3.80996e-06 2.77125e-05 -0.000464991
0.000657761 3.24688e-06 4.51535e-08
3.24688e-06 6.78019e-05 -7.78477e-07
4.51535e-08 -7.78477e-07 -6.77256e-05
0.000611164 2.68875e-05 1.54923e-06
2.68875e-05 0.000136733 -5.00688e-06
1.54923e-06 -5.00688e-06 -6.44317e-05
0.00169663 -4.28314e-05 -1.5019e-05
-4.28314e-05 0.00085206 -4.92904e-06
-1.5019e-05 -4.92904e-06 -0.000436334
-0.00195086 6.03564e-05 -0.000102763
6.03564e-05 0.00218694 -5.02452e-06
-0.000102763 -5.02452e-06 0.000481753
-0.00890363 -0.000422044 -0.000273132
-0.000422044 -0.004643 4.76075e-06
-0.000273132 4.76075e-06 -0.0045398
-9.77825e-05 8.33278e-05 5.30425e-06
8.33278e-05 -0.000274775 -2.39684e-06
5.30425e-06 -2.39684e-06 -0.000410106
0.000153058 0.00013052 2.1506e-06
0.00013052 -0.000114414 4.72854e-06
2.1506e-06 4.72854e-06 -0.000342032
0.00171453 0.000330365 1.60397e-05
0.000330365 0.000383445 4.11208e-06
1.60397e-05 4.11208e-06 0.000325641
-0.00337121 0.000283868 -2.45589e-05
0.000283868 0.00088279 9.91906e-06
-2.45589e-05 9.91906e-06 -0.00109107
0.00179339 0.000524074 -7.53258e-05
0.000524074 0.0001852 -7.0111e-05
-7.53258e-05 -7.0111e-05 -0.00281573
0.00292832 0.000948072 0.000115312
0.000948072 0.000354348 2.29721e-05
0.000115312 2.29721e-05 -0.000166513
0.000468521 0.000287236 7.17139e-06
0.000287236 -3.1969e-05 -2.06881e-05
7.17139e-06 -2.06881e-05 -8.18921e-05
0.0114401 -0.00114448 1.54944e-05
-0.00114448 0.00339567 -8.46211e-05
1.54944e-05 -8.46211e-05 0.00324108
0.00366459 0.000261841 0.000112787
0.000261841 0.00164593 6.90768e-05
0.000112787 6.90768e-05 -0.000610521
0.00821477 -0.000827787 4.23689e-05
-0.000827787 0.00124397 5.79691e-06
4.23689e-05 5.79691e-06 0.00253112
0.00105214 0.000185387 3.24704e-06
0.000185387 0.000445943 -1.58594e-06
3.24704e-06 -1.58594e-06 0.000320118
0.00289736 3.03246e-05 6.42511e-06
3.03246e-05 0.001226 -5.44199e-06
6.42511e-06 -5.44199e-06 -3.1187e-06
0.000680812 0.000100362 1.07431e-05
0.000100362 0.000211836 1.31314e-05
1.07431e-05 1.31314e-05 -0.00128481
-0.000221416 0.000173884 -7.68148e-06
0.000173884 -0.000134417 -1.37206e-06
-7.68148e-06 -1.37206e-06 -0.000320445
0.00251603 0.000547324 -6.60898e-05
0.000547324 0.000896962 -3.6526e-05
-6.60898e-05 -3.6526e-05 0.000189531
0.00248463 0.00129267 6.17709e-05
0.00129267 0.000714992 4.90382e-05
6.17709e-05 4.90382e-05 -0.00230297
0.00504252 0.000137564 -9.64242e-06
0.000137564 -0.0021895 -9.31752e-05
-9.64242e-06 -9.31752e-05 -0.000179906
0.00164419 -0.000881315 -2.58753e-05
-0.000881315 0.000126151 -3.02149e-05
-2.58753e-05 -3.02149e-05 -0.00113146
0.000832357 0.000130115 -6.96376e-06
0.000130115 0.000508201 -1.06074e-05
-6.96376e-06 -1.06074e-05 0.000367564
0.000803432 -5.83625e-05 -5.88438e-06
-5.83625e-05 0.000116299 -1.77811e-05
-5.88438e-06 -1.77811e-05 -7.61359e-06
0.00253348 -2.72216e-06 2.14179e-05
-2.72216e-06 0.000343596 -7.07481e-05
2.14179e-05 -7.07481e-05 -0.000765391
0.00278492 0.000721183 5.84044e-05
0.000721183 -0.00277564 2.37525e-06
5.84044e-05 2.37525e-06 -0.00170939
-0.000838413 7.35097e-05 -3.90284e-06
7.35097e-05 -0.000138217 -1.80396e-05
-3.90284e-06 -1.80396e-05 -0.00058978
0.0100681 0.000979342 0.000112484
0.000979342 0.00478624 4.58724e-05
0.000112484 4.58724e-05 0.00145338
-0.00908919 -0.000292777 6.31147e-05
-0.000292777 -0.000940375 0.000151481
6.31147e-05 0.000151481 -0.00263086
0.00180688 0.000185885 1.52317e-05
0.000185885 0.000783727 6.83669e-06
1.52317e-05 6.83669e-06 0.00068578
0.000584364 0.00010407 -3.67477e-06
0.00010407 0.000186072 7.02571e-09
-3.67477e-06 7.02571e-09 5.47807e-05
0.000387255 8.13221e-05 -6.37804e-06
8.13221e-05 0.000271744 9.58731e-08
-6.37804e-06 9.58731e-08 0.000116205
0.000793667 0.000127504 1.02148e-06
0.000127504 0.00013104 1.1288e-06
1.02148e-06 1.1288e-06 6.6537e-06
0.000729309 5.07487e-05 8.1423e-07
5.07487e-05 8.59395e-05 1.14655e-06
8.1423e-07 1.14655e-06 -1.72883e-05
0.000775541 -1.12986e-07 5.53713e-06
-1.12986e-07 0.000275239 5.79164e-06
5.53713e-06 5.79164e-06 0.000151179
0.000701063 4.14951e-05 -2.02994e-07
4.14951e-05 7.47937e-05 -2.50484e-07
-2.02994e-07 -2.50484e-07 -3.8113e-05
0.00075159 -2.60705e-05 -6.07114e-07
-2.60705e-05 0.000214041 -1.39223e-06
-6.07114e-07 -1.39223e-06 0.000101581
0.00023011 2.04088e-05 7.91274e-06
2.04088e-05 0.000102751 3.16544e-06
7.91274e-06 3.16544e-06 -4.02762e-05
0.00108639 1.83456e-05 -1.11846e-05
1.83456e-05 0.000549308 -1.05482e-05
-1.11846e-05 -1.05482e-05 0.000466643
0.000177026 -3.2855e-05 -2.77204e-06
-3.2855e-05 -0.000135886 -7.22479e-06
-2.77204e-06 -7.22479e-06 -0.000238896
0.000621838 -3.1847e-05 1.27804e-06
-3.1847e-05 1.73622e-05 3.189e-06
1.27804e-06 3.189e-06 -7.42897e-05
0.000789745 2.3966e-05 -3.4098e-07
2.3966e-05 0.000130337 -7.48048e-09
-3.4098e-07 -7.48048e-09 3.14179e-05
0.000825949 1.50696e-06 -4.42068e-06
1.50696e-06 0.000136594 2.88522e-06
-4.42068e-06 2.88522e-06 5.04282e-05
0.000716676 -3.2475e-05 2.16251e-06
-3.2475e-05 0.000102598 2.54162e-07
2.16251e-06 2.54162e-07 2.45223e-05
0.000686144 6.73047e-06 -2.90835e-07
6.73047e-06 5.42527e-05 1.73684e-07
-2.90835e-07 1.73684e-07 -3.79451e-05
0.00073505 -7.62848e-05 2.61601e-06
-7.62848e-05 0.000103237 -1.52011e-07
2.61601e-06 -1.52011e-07 9.9638e-06
0.000500784 -7.24706e-05 -1.84683e-06
-7.24706e-05 -8.23834e-05 -1.04947e-06
-1.84683e-06 -1.04947e-06 -0.000166415
0.000238575 -0.000147116 6.61585e-06
-0.000147116 -0.000205861 -2.51784e-07
6.61585e-06 -2.51784e-07 -0.00037295
0.00102379 -6.37975e-05 -7.89298e-07
-6.37975e-05 0.000243493 8.77409e-07
-7.89298e-07 8.77409e-07 0.000139491
0.00106398 -0.000134208 -5.5527e-07
-0.000134208 0.000276778 2.20742e-06
-5.5527e-07 2.20742e-06 0.000132605
0.000351958 -0.000171171 -1.17243e-06
-0.000171171 -0.000191516 3.96743e-06
-1.17243e-06 3.96743e-06 -0.000389685
0.00075102 -0.000187209 -5.49762e-06
-0.000187209 4.096e-05 4.27361e-08
-5.49762e-06 4.27361e-08 -0.000163542
0.000965772 -0.000159779 -1.87034e-06
-0.000159779 0.000264236 3.41143e-06
-1.87034e-06 3.41143e-06 9.96347e-05
0.000555379 -0.000158362 1.27061e-06
-0.000158362 -3.33682e-05 1.93024e-07
1.27061e-06 1.93024e-07 -0.000229153
0.000840782 -5.30694e-05 7.79286e-07
-5.30694e-05 0.000162207 2.52414e-07
7.79286e-07 2.52414e-07 5.26444e-05
0.00103196 -8.67355e-05 -1.2634e-06
-8.67355e-05 0.000293232 -6.49149e-07
-1.2634e-06 -6.49149e-07 0.000163135
0.000527608 -8.42021e-05 1.41925e-06
-8.42021e-05 1.68103e-05 -7.98227e-06
1.41925e-06 -7.98227e-06 -0.00012489
0.000962683 -5.68949e-06 -7.59454e-07
-5.68949e-06 0.000226023 -3.81249e-07
-7.59454e-07 -3.81249e-07 0.000125313
0.000531465 1.93905e-06 2.52574e-07
1.93905e-06 -1.47189e-05 -5.72779e-08
2.52574e-07 -5.72779e-08 -0.000110904
0.000645864 6.87153e-06 -3.65532e-07
6.87153e-06 3.19007e-05 7.16645e-07
-3.65532e-07 7.16645e-07 -4.47036e-05
0.000802579 -3.97987e-05 2.11409e-08
-3.97987e-05 0.000146605 1.96226e-07
2.11409e-08 1.96226e-07 4.48406e-05
0.000696769 -2.24985e-05 -2.45834e-07
-2.24985e-05 6.534e-05 2.08415e-08
-2.45834e-07 2.08415e-08 -1.20839e-05
0.000630005 3.19025e-05 -8.70931e-07
3.19025e-05 6.77818e-06 1.82998e-06
-8.70931e-07 1.82998e-06 -4.51335e-05
0.000745179 -5.61651e-05 7.49708e-07
-5.61651e-05 9.74057e-05 -1.11417e-06
7.49708e-07 -1.11417e-06 1.72279e-05
0.000648588 2.34951e-05 -7.37326e-07
2.34951e-05 1.33565e-05 -3.8484e-08
-7.37326e-07 -3.8484e-08 -3.6305e-05
0.00132939 4.57593e-05 -8.06099e-06
4.57593e-05 0.000401854 3.54261e-06
-8.06099e-06 3.54261e-06 0.000389765
0.000672619 -1.28234e-05 2.09169e-06
-1.28234e-05 2.5368e-05 -2.01951e-06
2.09169e-06 -2.01951e-06 -2.27629e-05
0.00095844 3.15981e-05 -4.28323e-06
3.15981e-05 0.000180208 6.29662e-07
-4.28323e-06 6.29662e-07 0.000167275
0.000810604 3.09328e-05 -1.21764e-06
3.09328e-05 9.87878e-05 2.04809e-06
-1.21764e-06 2.04809e-06 0.000105213
0.000563765 1.88046e-05 7.5056e-07
1.88046e-05 -5.42752e-05 -3.91714e-06
7.5056e-07 -3.91714e-06 -6.84162e-05
0.00155896 3.27887e-05 7.26534e-06
3.27887e-05 0.000534537 -1.35007e-06
7.26534e-06 -1.35007e-06 0.00054572
0.00232807 2.89782e-05 7.99814e-06
2.89782e-05 0.000984373 -4.94731e-06
7.99814e-06 -4.94731e-06 0.00100001
0.000468099 2.92325e-06 4.08954e-07
2.92325e-06 -5.7596e-05 -1.62867e-06
4.08954e-07 -1.62867e-06 -0.000151078
0.000376321 -4.07459e-07 -1.89091e-07
-4.07459e-07 -0.000142736 -3.1879e-06
-1.89091e-07 -3.1879e-06 -0.000190576
0.000769345 1.17265e-05 9.73735e-08
1.17265e-05 0.000113176 9.00436e-08
9.73735e-08 9.00436e-08 3.26395e-05
0.00060993 -9.55964e-06 1.00573e-07
-9.55964e-06 -3.13149e-05 -3.74479e-06
1.00573e-07 -3.74479e-06 -3.99061e-05
0.000495132 5.42193e-06 8.97139e-07
5.42193e-06 -7.33962e-05 -4.59493e-08
8.97139e-07 -4.59493e-08 -0.000115459
0.000463389 -7.22365e-05 -8.20064e-07
-7.22365e-05 -6.23738e-05 1.55407e-06
-8.20064e-07 1.55407e-06 -0.00013973
0.00208653 -1.17683e-05 -5.55173e-06
-1.17683e-05 0.000839298 -4.79775e-06
-5.55173e-06 -4.79775e-06 0.000858523
0.000613331 -3.52751e-06 -1.23056e-07
-3.52751e-06 -2.99149e-05 -3.05254e-08
-1.23056e-07 -3.05254e-08 -3.67592e-05
0.000619358 -5.81816e-06 -1.20814e-06
-5.81816e-06 -1.59963e-07 1.97798e-06
-1.20814e-06 1.97798e-06 -3.83311e-05
0.00205408 1.9055e-06 -3.60393e-06
1.9055e-06 0.00082012 6.81679e-09
-3.60393e-06 6.81679e-09 0.000839781
0.000600341 2.22516e-06 -1.856e-07
2.22516e-06 -3.73117e-05 3.38849e-06
-1.856e-07 3.38849e-06 -4.34667e-05
0.00205069 1.53332e-05 -3.26866e-06
1.53332e-05 0.000819634 4.57635e-06
-3.26866e-06 4.57635e-06 0.000838915
0.000638962 -0.000123139 -7.89376e-05
-0.000123139 -0.000147169 2.66293e-05
-7.89376e-05 2.66293e-05 -0.00143448
0.00151035 0.000144219 -1.96244e-05
0.000144219 0.00286663 -1.03994e-05
-1.96244e-05 -1.03994e-05 0.00175743
0.00132001 -0.000318751 -0.000200125
-0.000318751 0.00185684 -5.40923e-06
-0.000200125 -5.40923e-06 0.0010466
0.00075292 6.82146e-05 6.60171e-07
6.82146e-05 0.000112841 1.7341e-07
6.60171e-07 1.7341e-07 -7.08668e-06
0.00361898 -0.000195884 -2.73455e-05
-0.000195884 0.00211463 8.5209e-05
-2.73455e-05 8.5209e-05 0.00108083
0.00330364 -0.000304302 -6.566e-05
-0.000304302 0.00107698 7.35394e-06
-6.566e-05 7.35394e-06 -0.00110814
0.00166331 0.000554915 0.00013362
0.000554915 0.00265353 -0.000133809
0.00013362 -0.000133809 0.00192431
0.00402776 -0.000199681 1.61289e-05
-0.000199681 0.000350327 -3.0492e-05
1.61289e-05 -3.0492e-05 9.87897e-05
0.0106793 -0.000196957 9.37721e-05
-0.000196957 0.00313597 -4.99433e-05
9.37721e-05 -4.99433e-05 0.00145943
-0.00303627 0.00120099 -0.000102896
0.00120099 -0.00374027 0.000120287
-0.000102896 0.000120287 -0.00291253
0.00479319 0.00122166 2.08632e-05
0.00122166 -6.00117e-05 4.16314e-05
2.08632e-05 4.16314e-05 0.000403528
0.00475739 -0.000699664 -8.33382e-05
-0.000699664 0.000342627 -1.32733e-07
-8.33382e-05 -1.32733e-07 -0.000203011
0.00977934 -0.000524327 5.40979e-05
-0.000524327 0.00376416 -1.4294e-05
5.40979e-05 -1.4294e-05 0.00169547
0.00581301 0.000832181 5.12905e-05
0.000832181 0.000335252 -9.41493e-05
5.12905e-05 -9.41493e-05 0.000161233
0.00472125 0.000637472 -1.36515e-05
0.000637472 -0.00157073 1.03616e-05
-1.36515e-05 1.03616e-05 -0.000512599
0.00461186 -0.00117582 6.08723e-06
-0.00117582 0.000673524 -3.6349e-06
6.08723e-06 -3.6349e-06 -0.000275777
0.0107106 -0.0010462 7.09477e-05
-0.0010462 0.00521382 -4.17759e-05
7.09477e-05 -4.17759e-05 0.00165453
0.00278029 -0.000166322 5.83683e-05
-0.000166322 7.61924e-06 -0.000146574
5.83683e-05 -0.000146574 -0.000249999
0.00631595 0.000262835 -2.64972e-05
0.000262835 -0.000767421 7.24529e-05
-2.64972e-05 7.24529e-05 0.00082554
0.000746877 -3.25704e-05 1.83884e-08
-3.25704e-05 0.000124379 2.4241e-07
1.83884e-08 2.4241e-07 -1.58767e-05
0.000739894 -4.20795e-05 2.89842e-07
-4.20795e-05 0.000132639 1.35149e-07
2.89842e-07 1.35149e-07 -1.81077e-06
0.000824429 8.51662e-05 -1.08263e-06
8.51662e-05 0.000178434 -5.78529e-07
-1.08263e-06 -5.78529e-07 6.18275e-05
0.000732411 3.01257e-05 5.66454e-08
3.01257e-05 9.11303e-05 3.59258e-07
5.66454e-08 3.59258e-07 -2.69252e-05
0.000830034 8.19892e-05 -7.45626e-07
8.19892e-05 0.000173742 6.80551e-07
-7.45626e-07 6.80551e-07 4.06801e-05
0.000837363 6.15133e-05 6.89334e-08
6.15133e-05 0.000176885 1.96552e-06
6.89334e-08 1.96552e-06 6.03796e-05
0.00096424 0.000106519 -7.97963e-07
0.000106519 0.00025145 -4.72081e-10
-7.97963e-07 -4.72081e-10 0.000128969
0.000970324 0.000111616 7.82399e-07
0.000111616 0.000264622 2.4412e-06
7.82399e-07 2.4412e-06 0.000144225
0.00109662 -0.000222669 5.1495e-05
-0.000222669 -0.000161638 -1.73203e-05
5.1495e-05 -1.73203e-05 -0.000208517
0.000937797 -0.000348662 7.73372e-06
-0.000348662 -0.00019793 -1.62915e-05
7.73372e-06 -1.62915e-05 -0.000224099
0.000715924 -0.000146719 -1.37162e-06
-0.000146719 0.000124666 3.37999e-07
-1.37162e-06 3.37999e-07 -2.42955e-05
0.00246975 -0.000328362 1.15485e-05
-0.000328362 0.00112202 -2.54152e-05
1.15485e-05 -2.54152e-05 0.000859548
0.0019897 -0.00015434 -2.79442e-06
-0.00015434 0.000920087 6.97758e-06
-2.79442e-06 6.97758e-06 0.000695025
0.000908649 -5.68734e-05 -1.96483e-06
-5.68734e-05 0.000228857 -1.84589e-06
-1.96483e-06 -1.84589e-06 8.32483e-05
0.000779133 1.29151e-05 3.71486e-07
1.29151e-05 0.000149 3.60011e-07
3.71486e-07 3.60011e-07 7.02619e-06
0.000299188 -0.000408681 -1.02718e-05
-0.000408681 -0.000590038 -6.00908e-07
-1.02718e-05 -6.00908e-07 -0.000568219
0.00110592 4.23433e-05 4.7655e-08
4.23433e-05 0.000422166 2.14722e-06
4.7655e-08 2.14722e-06 0.000212708
0.00104581 -0.00013583 -7.65661e-06
-0.00013583 0.000398789 1.63664e-06
-7.65661e-06 1.63664e-06 0.000175535
0.000409483 -0.000151714 4.20955e-06
-0.000151714 -4.11297e-05 3.92451e-06
4.20955e-06 3.92451e-06 -9.03637e-05
0.00074132 3.54524e-05 1.53764e-06
3.54524e-05 0.000104385 -1.11715e-06
1.53764e-06 -1.11715e-06 -2.29357e-05
0.00137662 -0.000343061 1.52637e-05
-0.000343061 3.27565e-05 -3.27669e-05
1.52637e-05 -3.27669e-05 0.000207383
0.000212361 -0.000114927 -7.20886e-06
-0.000114927 0.000102635 2.94834e-05
-7.20886e-06 2.94834e-05 2.56039e-07
0.000650718 -7.17753e-07 -1.15946e-06
-7.17753e-07 0.00025288 1.04054e-05
-1.15946e-06 1.04054e-05 2.08991e-06
0.00137414 0.000182732 1.67332e-06
0.000182732 0.000533711 -2.76097e-06
1.67332e-06 -2.76097e-06 0.000362198
0.000893191 -3.55295e-05 -9.90239e-06
-3.55295e-05 0.000593592 -6.28867e-06
-9.90239e-06 -6.28867e-06 5.61406e-05
0.00139166 -5.48265e-05 6.5813e-05
-5.48265e-05 0.000735663 -5.67808e-06
6.5813e-05 -5.67808e-06 -0.000571219
-0.00426044 -5.80177e-05 -0.000115627
-5.80177e-05 0.00135661 6.07984e-06
-0.000115627 6.07984e-06 -0.000701394
0.000893826 0.000158872 1.28206e-05
0.000158872 0.000405561 5.76263e-07
1.28206e-05 5.76263e-07 0.000273977
-0.000862913 0.000229056 1.12761e-05
0.000229056 -0.000502568 1.18511e-05
1.12761e-05 1.18511e-05 -0.00074445
0.00312455 1.80094e-05 7.70926e-05
1.80094e-05 0.00153493 7.85294e-07
7.70926e-05 7.85294e-07 0.0004577
0.00778099 0.000489263 0.00012778
0.000489263 0.0035141 6.86985e-05
0.00012778 6.86985e-05 0.000389097
0.00296539 0.000663046 -9.03578e-05
0.000663046 0.00124345 -8.12471e-05
-9.03578e-05 -8.12471e-05 0.000233499
0.00386556 -0.000537702 -2.75072e-06
-0.000537702 0.000979391 -0.000157921
-2.75072e-06 -0.000157921 -0.000216752
0.00106055 0.000119744 3.83607e-05
0.000119744 0.000191924 0.000110374
3.83607e-05 0.000110374 -0.00131966
0.00393617 -9.13283e-06 -1.44121e-06
-9.13283e-06 -0.00358091 -8.95063e-05
-1.44121e-06 -8.95063e-05 -0.0010466
0.000687213 0.0001482 8.34879e-07
0.0001482 0.000420895 -1.50994e-06
8.34879e-07 -1.50994e-06 0.000265349
0.00079507 -5.81169e-05 5.23134e-07
-5.81169e-05 0.000142146 -5.97608e-06
5.23134e-07 -5.97608e-06 4.05088e-06
0.00269067 1.79313e-05 3.4228e-05
1.79313e-05 0.000589191 1.01991e-05
3.4228e-05 1.01991e-05 -0.000261484
-0.000928773 0.000119893 -9.05642e-06
0.000119893 -0.00036072 -5.27073e-06
-9.05642e-06 -5.27073e-06 -0.000725921
0.00501183 0.000735715 1.08381e-05
0.000735715 -0.00152765 -1.0403e-05
1.08381e-05 -1.0403e-05 -0.000486578
0.00525893 0.000860152 9.85049e-05
0.000860152 0.00282039 4.45502e-05
9.85049e-05 4.45502e-05 -0.000631094
0.00320409 0.000236301 -5.52322e-05
0.000236301 0.00218377 7.04373e-06
-5.52322e-05 7.04373e-06 0.00118945
0.000316922 0.000159884 -1.43202e-05
0.000159884 0.000270104 -1.53756e-05
-1.43202e-05 -1.53756e-05 4.58633e-05
0.00176158 4.51232e-05 1.11397e-06
4.51232e-05 -3.07321e-05 -1.84564e-05
1.11397e-06 -1.84564e-05 -6.32177e-06
0.00365813 -0.000156673 2.92711e-05
-0.000156673 0.00205754 -8.45019e-05
2.92711e-05 -8.45019e-05 0.00106483
0.00586046 0.00125469 0.000140228
0.00125469 0.00019402 -9.93175e-05
0.000140228 -9.93175e-05 0.000784617
0.00591608 -0.000127737 -7.71601e-05
-0.000127737 0.00106748 0.000137132
-7.71601e-05 0.000137132 0.00102678
0.000940365 0.000190043 -1.56506e-05
0.000190043 -1.88455e-05 -4.8827e-05
-1.56506e-05 -4.8827e-05 -4.45447e-05
-0.000530431 0.00080134 0.000114182
0.00080134 0.00232916 3.62557e-05
0.000114182 3.62557e-05 -0.0028675
0.000918472 0.000147357 2.6059e-06
0.000147357 0.000351817 6.08583e-06
2.6059e-06 6.08583e-06 0.000217253
0.00033929 8.51992e-05 4.17913e-06
8.51992e-05 0.00024375 1.89309e-06
4.17913e-06 1.89309e-06 8.56958e-05
0.0012253 4.02387e-05 -2.8183e-05
4.02387e-05 0.000802112 -1.84586e-05
-2.8183e-05 -1.84586e-05 0.000696422
0.000471252 -1.88942e-05 9.81429e-07
-1.88942e-05 -6.99479e-05 3.3719e-06
9.81429e-07 3.3719e-06 -0.000171768
0.000804758 -3.66999e-05 2.18646e-06
-3.66999e-05 0.000244276 4.22135e-06
2.18646e-06 4.22135e-06 0.000133236
2.9501e-05 -2.65515e-06 1.01758e-06
-2.65515e-06 -2.32575e-05 4.18513e-06
1.01758e-06 4.18513e-06 -0.000166939
0.000695388 -5.88111e-05 7.34285e-07
-5.88111e-05 0.000147439 -5.28899e-07
7.34285e-07 -5.28899e-07 5.31711e-05
0.000120822 -9.49307e-06 2.79973e-06
-9.49307e-06 -5.77058e-06 3.01031e-07
2.79973e-06 3.01031e-07 -9.29948e-05
0.00117048 -0.000174452 8.04783e-06
-0.000174452 0.000580247 -7.81735e-06
8.04783e-06 -7.81735e-06 0.000412758
0.00123731 -4.75036e-05 -1.86873e-06
-4.75036e-05 0.000396925 3.88876e-06
-1.86873e-06 3.88876e-06 0.000315881
0.000363644 2.28231e-05 -8.14902e-07
2.28231e-05 -0.000125616 1.43512e-06
-8.14902e-07 1.43512e-06 -0.000218608
0.00135324 -0.000123896 1.09277e-06
-0.000123896 0.000446931 1.97303e-06
1.09277e-06 1.97303e-06 0.0003447
-8.87729e-05 -0.00013339 4.55305e-06
-0.00013339 -0.000270091 1.38629e-06
4.55305e-06 1.38629e-06 -0.000487111
0.000428955 -5.11894e-05 -4.42173e-06
-5.11894e-05 -9.2022e-05 9.5393e-07
-4.42173e-06 9.5393e-07 -0.000164676
0.000117442 -0.000132968 1.77885e-06
-0.000132968 -0.000276574 -1.17785e-06
1.77885e-06 -1.17785e-06 -0.00043031
0.00102143 -0.000246266 9.34048e-06
-0.000246266 0.000185088 -1.28147e-06
9.34048e-06 -1.28147e-06 -4.33061e-05
0.00127801 -0.000284022 -3.55259e-06
-0.000284022 0.000183634 4.34336e-06
-3.55259e-06 4.34336e-06 -5.86101e-05
0.00165557 -0.00019025 -2.54554e-06
-0.00019025 0.00060628 1.99277e-07
-2.54554e-06 1.99277e-07 0.000452017
0.000709753 -0.00020311 -5.77516e-07
-0.00020311 -4.54176e-06 1.57411e-07
-5.77516e-07 1.57411e-07 -0.000215516
0.00194358 -0.000303183 2.00062e-06
-0.000303183 0.000694199 -1.24008e-06
2.00062e-06 -1.24008e-06 0.000485924
0.000160626 -0.000107054 -2.39297e-06
-0.000107054 -0.000223845 7.68543e-07
-2.39297e-06 7.68543e-07 -0.000405303
0.000908743 -0.000198295 -3.4948e-07
-0.000198295 0.000136342 4.85025e-07
-3.4948e-07 4.85025e-07 -6.59856e-05
0.000575477 -4.91258e-05 4.14493e-08
-4.91258e-05 2.13128e-05 -5.26276e-08
4.14493e-08 -5.26276e-08 -0.000106007
0.001037 -0.000173818 -3.46864e-06
-0.000173818 0.000306606 2.33375e-06
-3.46864e-06 2.33375e-06 0.000139107
-2.02261e-05 -0.000102918 -2.0619e-06
-0.000102918 -0.000359995 -2.58985e-06
-2.0619e-06 -2.58985e-06 -0.000545591
0.000644884 2.91508e-05 5.78387e-07
2.91508e-05 4.14834e-05 1.06687e-06
5.78387e-07 1.06687e-06 -4.83502e-05
0.000733286 -3.87893e-05 8.72014e-07
-3.87893e-05 0.000105353 -1.2058e-07
8.72014e-07 -1.2058e-07 -5.96834e-06
0.000835863 -8.18659e-05 2.5791e-06
-8.18659e-05 0.000188641 -2.82882e-06
2.5791e-06 -2.82882e-06 5.37017e-05
0.000697511 -7.8275e-06 3.116e-07
-7.8275e-06 8.27072e-05 -2.64527e-07
3.116e-07 -2.64527e-07 -1.50941e-05
0.000708446 -8.07101e-06 -5.87293e-07
-8.07101e-06 7.45127e-05 -1.34057e-07
-5.87293e-07 -1.34057e-07 -7.61419e-06
0.000626722 3.59762e-05 -1.03695e-06
3.59762e-05 8.35204e-06 2.01681e-06
-1.03695e-06 2.01681e-06 -4.66831e-05
0.000754356 -3.69834e-05 6.74668e-07
-3.69834e-05 0.000104128 -8.40807e-07
6.74668e-07 -8.40807e-07 2.214e-05
0.000647742 2.78824e-05 -5.6394e-07
2.78824e-05 1.57782e-05 -7.39076e-08
-5.6394e-07 -7.39076e-08 -3.56006e-05
0.000587666 4.31476e-05 -1.07899e-06
4.31476e-05 -2.78536e-05 3.94411e-06
-1.07899e-06 3.94411e-06 -4.56296e-05
0.000695562 -3.1914e-06 2.04074e-06
-3.1914e-06 3.76367e-05 -1.92453e-06
2.04074e-06 -1.92453e-06 -1.0453e-05
0.000589512 3.49924e-05 1.43192e-07
3.49924e-05 -3.34393e-05 1.06264e-08
1.43192e-07 1.06264e-08 -4.9145e-05
0.00221177 6.93608e-05 -4.23051e-06
6.93608e-05 0.000929501 1.83044e-06
-4.23051e-06 1.83044e-06 0.0009407
0.000563057 2.70547e-05 8.76559e-07
2.70547e-05 -5.2438e-05 -3.97555e-06
8.76559e-07 -3.97555e-06 -6.71785e-05
0.00155181 4.31733e-05 8.72625e-06
4.31733e-05 0.00053507 -1.16841e-06
8.72625e-06 -1.16841e-06 0.000545032
0.00232098 4.2001e-05 1.23335e-05
4.2001e-05 0.000983885 -4.71931e-06
1.23335e-05 -4.71931e-06 0.000998504
0.000450781 -2.76942e-06 1.73931e-07
-2.76942e-06 -7.87516e-05 -1.89728e-06
1.73931e-07 -1.89728e-06 -0.000169644
0.000362702 -3.02139e-06 -6.15601e-08
-3.02139e-06 -0.000151758 -3.01131e-06
-6.15601e-08 -3.01131e-06 -0.000205403
0.000617485 1.30965e-05 -4.37585e-07
1.30965e-05 2.82788e-05 -9.20776e-07
-4.37585e-07 -9.20776e-07 -6.30517e-05
0.000606829 -1.57324e-05 1.01031e-07
-1.57324e-05 -3.15164e-05 -3.93579e-06
1.01031e-07 -3.93579e-06 -4.26716e-05
0.000347099 -1.02039e-06 -3.26689e-07
-1.02039e-06 -0.000159753 -1.0529e-06
-3.26689e-07 -1.0529e-06 -0.00020835
0.000784293 2.17384e-05 -1.32539e-07
2.17384e-05 0.000129795 1.69548e-06
-1.32539e-07 1.69548e-06 4.41278e-05
0.0021531 -2.43992e-05 -9.93929e-06
-2.43992e-05 0.000879772 -4.77932e-06
-9.93929e-06 -4.77932e-06 0.00089785
0.000606273 -9.59527e-06 -1.67776e-07
-9.59527e-06 -3.34305e-05 -4.60899e-08
-1.67776e-07 -4.60899e-08 -4.19152e-05
0.000327703 -9.72481e-08 5.45991e-07
-9.72481e-08 -0.000170326 2.11872e-06
5.45991e-07 2.11872e-06 -0.00021424
0.00207765 -1.04361e-05 -3.45484e-06
-1.04361e-05 0.000833874 4.29272e-08
-3.45484e-06 4.29272e-08 0.000853262
0.000608318 -3.51222e-06 -1.12538e-07
-3.51222e-06 -3.27434e-05 3.51147e-06
-1.12538e-07 3.51147e-06 -3.9532e-05
0.00206597 3.19777e-06 1.21827e-06
3.19777e-06 0.00082718 4.69295e-06
1.21827e-06 4.69295e-06 0.000846752
0.00104076 5.17069e-06 2.45694e-07
5.17069e-06 0.000469664 1.33923e-05
2.45694e-07 1.33923e-05 0.00021537
0.00118183 -9.47809e-05 7.21484e-06
-9.47809e-05 0.000180457 -7.31254e-06
7.21484e-06 -7.31254e-06 -0.00110418
0.00182878 7.50794e-05 2.63177e-05
7.50794e-05 0.00301047 -3.35395e-05
2.63177e-05 -3.35395e-05 0.00205946
0.000781414 7.49018e-05 -1.78691e-07
7.49018e-05 0.000123241 3.18934e-07
-1.78691e-07 3.18934e-07 9.76096e-06
0.000621264 4.69352e-05 5.96562e-07
4.69352e-05 1.46379e-05 -2.26586e-08
5.96562e-07 -2.26586e-08 -9.02395e-05
0.000932113 0.000104075 8.50385e-07
0.000104075 0.00020822 1.67865e-06
8.50385e-07 1.67865e-06 8.73216e-05
0.0023898 -5.4694e-05 8.46987e-06
-5.4694e-05 0.000234428 0.000138177
8.46987e-06 0.000138177 -0.000818579
0.00319179 -0.000164297 -3.89927e-07
-0.000164297 0.00199101 4.69381e-07
-3.89927e-07 4.69381e-07 0.00086423
0.00350895 -0.000342108 5.19567e-05
-0.000342108 0.00133335 -0.000105202
5.19567e-05 -0.000105202 -0.00106484
0.00536848 -0.00078562 -6.41731e-05
-0.00078562 0.000867585 2.38043e-07
-6.41731e-05 2.38043e-07 0.000282999
0.00219191 -0.000634346 -9.83886e-05
-0.000634346 0.000230535 7.24099e-05
-9.83886e-05 7.24099e-05 -0.0022993
0.00952871 0.00117235 8.42089e-05
0.00117235 0.00313875 4.78647e-05
8.42089e-05 4.78647e-05 0.0027336
0.00222789 0.000211091 3.64797e-05
0.000211091 -0.00304073 -6.76025e-05
3.64797e-05 -6.76025e-05 -0.00199335
0.00529626 -0.00120521 -1.64889e-05
-0.00120521 0.00129717 3.65605e-06
-1.64889e-05 3.65605e-06 0.000540709
0.00667973 -0.000887996 -4.49466e-06
-0.000887996 0.00303693 1.69675e-05
-4.49466e-06 1.69675e-05 -6.72793e-05
-0.00251776 0.000718077 -2.18832e-05
0.000718077 -0.000336402 -9.26092e-05
-2.18832e-05 -9.26092e-05 -0.0017929
0.00495657 3.39222e-05 -1.36491e-05
3.39222e-05 -0.0022347 3.7539e-05
-1.36491e-05 3.7539e-05 -0.000166751
0.00227027 -0.000802211 -4.10182e-05
-0.000802211 0.000316818 -1.76054e-05
-4.10182e-05 -1.76054e-05 -0.000342987
0.0111013 -0.00115497 -3.12336e-05
-0.00115497 0.00507106 4.37645e-05
-3.12336e-05 4.37645e-05 0.0014051
-0.00920741 -9.44119e-05 4.6422e-05
-9.44119e-05 -0.000778072 -0.00017281
4.6422e-05 -0.00017281 -0.00268532
0.00351063 -0.000686394 1.41711e-05
-0.000686394 -0.00192297 -2.8162e-05
1.41711e-05 -2.8162e-05 -0.0006548
0.000741358 3.92494e-05 -4.88141e-07
3.92494e-05 9.69603e-05 3.04469e-06
-4.88141e-07 3.04469e-06 -3.32424e-05
0.000650351 5.249e-06 1.73312e-07
5.249e-06 6.78497e-05 -5.02891e-07
1.73312e-07 -5.02891e-07 -7.20265e-05
0.000769068 -6.33182e-05 5.21024e-07
-6.33182e-05 0.000150531 -2.37697e-07
5.21024e-07 -2.37697e-07 1.20821e-05
0.000747041 5.26504e-05 -5.13907e-07
5.26504e-05 0.000100524 -6.81602e-07
-5.13907e-07 -6.81602e-07 -2.02313e-05
0.000886799 0.000118574 1.02751e-06
0.000118574 0.000208341 9.57052e-07
1.02751e-06 9.57052e-07 7.77883e-05
0.00104652 0.000118677 -1.10643e-06
0.000118677 0.000301603 3.62348e-07
-1.10643e-06 3.62348e-07 0.000177353
0.000328367 -0.000411369 1.95409e-05
-0.000411369 -0.000589599 7.76769e-06
1.95409e-05 7.76769e-06 -0.000605659
-0.000625018 -0.00010252 1.84908e-05
-0.00010252 -0.00062051 -2.17856e-05
1.84908e-05 -2.17856e-05 -0.000630632
0.000904438 5.97738e-05 -1.13095e-06
5.97738e-05 0.00022939 -1.00236e-06
-1.13095e-06 -1.00236e-06 8.21923e-05
0.00152977 -0.000181254 2.531e-05
-0.000181254 0.00062595 -3.25861e-05
2.531e-05 -3.25861e-05 0.000411333
0.00139455 1.99674e-05 -2.25362e-06
1.99674e-05 0.000579847 8.12462e-07
-2.25362e-06 8.12462e-07 0.000368346
0.000672283 2.24593e-05 -1.57678e-07
2.24593e-05 6.62847e-05 9.12841e-07
-1.57678e-07 9.12841e-07 -6.61578e-05
0.00059821 9.44216e-05 3.44535e-07
9.44216e-05 8.54117e-05 -2.02954e-07
3.44535e-07 -2.02954e-07 -7.19009e-05
0.00024929 -0.000355126 -3.56351e-06
-0.000355126 -0.000535616 -2.97422e-06
-3.56351e-06 -2.97422e-06 -0.00051599
0.000779046 -2.03164e-05 3.28936e-06
-2.03164e-05 0.000312536 -1.42933e-06
3.28936e-06 -1.42933e-06 8.2008e-05
0.000606271 -7.13113e-05 2.11907e-05
-7.13113e-05 0.000339019 -4.43286e-07
2.11907e-05 -4.43286e-07 0.000227451
0.000902588 6.81254e-05 2.88397e-06
6.81254e-05 0.000209023 -6.41469e-06
2.88397e-06 -6.41469e-06 8.44376e-05
-0.0025649 0.000143135 -7.0828e-05
0.000143135 -0.00112781 -1.28195e-05
-7.0828e-05 -1.28195e-05 -0.00150621
1.92968e-05 7.92529e-06 7.98956e-06
7.92529e-06 1.30582e-05 3.41367e-05
7.98956e-06 3.41367e-05 -0.00010158
0.00130535 3.79603e-06 3.24369e-06
3.79603e-06 0.000597191 1.96243e-06
3.24369e-06 1.96243e-06 0.000409336
0.00099314 -3.15024e-05 9.3195e-08
-3.15024e-05 -4.30223e-05 7.26823e-07
9.3195e-08 7.26823e-07 -0.000520802
0.000719522 -2.82438e-05 -1.5381e-05
-2.82438e-05 0.00045745 -7.9941e-06
-1.5381e-05 -7.9941e-06 -1.1719e-06
0.00100897 -3.59866e-05 0.000150736
-3.59866e-05 0.000594397 -5.95783e-06
0.000150736 -5.95783e-06 -0.000743908
0.000640927 0.000171177 1.21752e-05
0.000171177 0.000373543 1.28701e-05
1.21752e-05 1.28701e-05 0.000208143
0.00160942 0.000398221 9.13967e-06
0.000398221 0.000505997 -1.27791e-05
9.13967e-06 -1.27791e-05 0.000265519
0.000833228 -5.81977e-05 6.49595e-06
-5.81977e-05 0.000184773 4.93279e-06
6.49595e-06 4.93279e-06 3.12823e-05
-0.00218359 0.000468817 3.6381e-05
0.000468817 7.43135e-05 4.55206e-05
3.6381e-05 4.55206e-05 -0.00343323
-0.010523 0.000306951 -6.58375e-05
0.000306951 -0.00371 -0.000187265
-6.58375e-05 -0.000187265 -0.00559468
0.00261079 3.07209e-05 3.56666e-05
3.07209e-05 0.000788887 5.89044e-05
3.56666e-05 5.89044e-05 0.000115079
0.0023582 0.000338777 -4.35903e-05
0.000338777 -0.00297151 6.69042e-05
-4.35903e-05 6.69042e-05 -0.00197688
0.000490564 0.000152404 6.57898e-06
0.000152404 0.000359298 -2.13482e-06
6.57898e-06 -2.13482e-06 0.000163332
0.00159775 -4.85876e-06 1.05052e-05
-4.85876e-06 -0.000141015 -1.7585e-05
1.05052e-05 -1.7585e-05 -5.27313e-05
0.00324276 -0.000118421 -5.34098e-07
-0.000118421 0.00194232 -7.28698e-07
-5.34098e-07 -7.28698e-07 0.00083824
0.00137148 0.000211235 -2.50276e-05
0.000211235 0.000370987 -3.43406e-06
-2.50276e-05 -3.43406e-06 -9.35467e-05
0.00288027 0.00115346 5.49929e-05
0.00115346 -0.00150176 -0.000135539
5.49929e-05 -0.000135539 -0.000802537
-0.00231939 0.00067971 1.87999e-05
0.00067971 -0.00102572 9.11434e-05
1.87999e-05 9.11434e-05 -0.00202034
0.00672799 3.65656e-06 6.25081e-05
3.65656e-06 0.00502225 -2.40852e-05
6.25081e-05 -2.40852e-05 0.000152566
0.00183028 -3.40094e-05 3.96191e-05
-3.40094e-05 0.00135855 -1.90546e-05
3.96191e-05 -1.90546e-05 0.000991786
0.00112799 3.58054e-05 -6.39799e-06
3.58054e-05 0.000472201 -1.24383e-05
-6.39799e-06 -1.24383e-05 0.000223808
0.00346769 -0.000219476 0.000187708
-0.000219476 0.000942417 -0.00014562
0.000187708 -0.00014562 -0.000950074
0.00414284 0.00156279 -1.95433e-06
0.00156279 0.00278965 -1.60001e-05
-1.95433e-06 -1.60001e-05 0.0036267
-0.00472728 0.00075943 4.1352e-05
0.00075943 -0.00450047 0.000256472
4.1352e-05 0.000256472 -0.00445503
0.0125002 -0.00105504 0.000104591
-0.00105504 0.0051661 -9.80462e-05
0.000104591 -9.80462e-05 0.00160513
0.00396614 -0.000395598 -8.23315e-05
-0.000395598 0.0013298 8.95343e-05
-8.23315e-05 8.95343e-05 0.00116837
0.000801431 0.0001129 5.69149e-06
0.0001129 0.000500839 5.16393e-06
5.69149e-06 5.16393e-06 0.00033631
-0.000102076 7.59996e-06 -1.15547e-05
7.59996e-06 5.87423e-05 1.98311e-06
-1.15547e-05 1.98311e-06 -8.03866e-05
0.00127956 -0.000249303 1.46047e-05
-0.000249303 0.000821365 -1.27055e-05
1.46047e-05 -1.27055e-05 0.00056233
0.00104111 -7.16488e-05 1.32812e-06
-7.16488e-05 0.000335159 2.76409e-06
1.32812e-06 2.76409e-06 0.000247558
-0.000424598 -2.96348e-05 4.80786e-06
-2.96348e-05 -0.000315892 1.18024e-05
4.80786e-06 1.18024e-05 -0.00041148
0.000148919 -0.000154132 -1.20885e-06
-0.000154132 3.81266e-05 -3.60046e-07
-1.20885e-06 -3.60046e-07 -0.00012063
0.00132784 -0.000268556 2.43081e-05
-0.000268556 0.000600973 -1.50681e-05
2.43081e-05 -1.50681e-05 0.000320486
0.00211481 -0.000175195 -4.57197e-06
-0.000175195 0.000872735 4.00097e-06
-4.57197e-06 4.00097e-06 0.00076074
0.00174427 -0.000300363 1.94387e-06
-0.000300363 0.000692691 -1.7436e-08
1.94387e-06 -1.7436e-08 0.000463156
0.00122916 -0.000287439 8.73722e-06
-0.000287439 0.000430494 2.10029e-06
8.73722e-06 2.10029e-06 5.88876e-05
7.045e-05 -0.000114095 -1.78932e-06
-0.000114095 -0.000307075 -4.40898e-08
-1.78932e-06 -4.40898e-08 -0.000445111
0.00130485 -0.00026913 -2.13201e-07
-0.00026913 0.000314562 1.38005e-06
-2.13201e-07 1.38005e-06 7.45745e-05
0.00216646 -0.000397584 1.15317e-06
-0.000397584 0.000697892 2.54067e-06
1.15317e-06 2.54067e-06 0.000379607
0.00176029 -0.000374575 -2.55952e-06
-0.000374575 0.00034649 2.4356e-06
-2.55952e-06 2.4356e-06 7.40199e-05
0.000598908 -0.000213287 3.93068e-07
-0.000213287 -0.000164939 6.28066e-06
3.93068e-07 6.28066e-06 -0.000378672
0.00132975 -0.000290691 -3.2894e-06
-0.000290691 0.000214992 1.89835e-06
-3.2894e-06 1.89835e-06 -3.15134e-05
0.00102488 -0.000231508 -6.78679e-06
-0.000231508 0.000157109 2.21366e-06
-6.78679e-06 2.21366e-06 -6.60271e-05
0.0017378 -0.000275559 4.8963e-06
-0.000275559 0.000609611 -2.21863e-06
4.8963e-06 -2.21863e-06 0.000409722
0.00132451 -0.000246316 2.75238e-06
-0.000246316 0.000342327 -2.7631e-06
2.75238e-06 -2.7631e-06 0.000149782
9.89663e-05 -5.04045e-05 1.45237e-06
-5.04045e-05 -0.000255331 4.30906e-07
1.45237e-06 4.30906e-07 -0.000412202
0.000751889 -0.000162377 1.60541e-06
-0.000162377 0.000120488 -7.88047e-07
1.60541e-06 -7.88047e-07 -6.70105e-05
0.00110025 -0.000212352 5.96447e-06
-0.000212352 0.00025122 -4.49321e-06
5.96447e-06 -4.49321e-06 5.08886e-05
0.000609905 3.2208e-05 1.45468e-06
3.2208e-05 2.99589e-05 1.72551e-06
1.45468e-06 1.72551e-06 -7.75722e-05
0.000882435 -7.95108e-05 -4.0421e-07
-7.95108e-05 0.000204297 3.79714e-07
-4.0421e-07 3.79714e-07 6.91398e-05
0.00106965 -0.000184824 -6.16737e-07
-0.000184824 0.000327185 -6.47306e-07
-6.16737e-07 -6.47306e-07 0.00015731
0.000609877 2.91785e-05 -1.1552e-06
2.91785e-05 2.1941e-06 2.16695e-06
-1.1552e-06 2.16695e-06 -5.77413e-05
0.000725036 -1.9445e-06 -6.96845e-07
-1.9445e-06 8.55652e-05 -2.73584e-07
-6.96845e-07 -2.73584e-07 -4.9641e-06
0.000629875 -2.31867e-05 5.47274e-08
-2.31867e-05 5.12832e-05 -4.63239e-07
5.47274e-08 -4.63239e-07 -6.21787e-05
0.000766311 -2.74221e-05 5.3537e-07
-2.74221e-05 0.000110279 -1.11532e-06
5.3537e-07 -1.11532e-06 2.54306e-05
0.000657834 1.61703e-05 -2.74646e-07
1.61703e-05 2.3796e-05 -1.02603e-07
-2.74646e-07 -1.02603e-07 -2.99499e-05
0.000570625 5.16461e-05 -7.70854e-07
5.16461e-05 -2.8594e-05 4.26934e-06
-7.70854e-07 4.26934e-06 -4.97772e-05
0.000673985 6.17505e-06 1.91195e-06
6.17505e-06 2.81957e-05 -1.84886e-06
1.91195e-06 -1.84886e-06 -2.16752e-05
0.000589592 4.45088e-05 -5.2534e-08
4.45088e-05 -2.65554e-05 -1.93125e-08
-5.2534e-08 -1.93125e-08 -4.45178e-05
0.00225684 7.6024e-05 -2.37559e-05
7.6024e-05 0.000963548 3.7949e-06
-2.37559e-05 3.7949e-06 0.000973376
0.000577653 3.57487e-05 9.467e-07
3.57487e-05 -4.03295e-05 -3.92397e-06
9.467e-07 -3.92397e-06 -5.60762e-05
0.0015317 5.37368e-05 1.04351e-05
5.37368e-05 0.000529735 -1.02248e-06
1.04351e-05 -1.02248e-06 0.000538041
0.00231703 5.49503e-05 1.62358e-05
5.49503e-05 0.00098669 -4.39213e-06
1.62358e-05 -4.39213e-06 0.000999874
0.00070798 5.60225e-05 -2.45068e-07
5.60225e-05 7.24388e-05 -9.80956e-07
-2.45068e-07 -9.80956e-07 -2.21565e-05
0.000650466 1.57449e-05 -5.98648e-07
1.57449e-05 1.40313e-05 -2.39812e-06
-5.98648e-07 -2.39812e-06 -4.1676e-05
0.000587453 3.4181e-05 -1.09057e-06
3.4181e-05 9.87768e-06 -9.20379e-07
-1.09057e-06 -9.20379e-07 -8.69122e-05
0.000594097 -2.23599e-05 2.73119e-07
-2.23599e-05 -3.63482e-05 -4.25252e-06
2.73119e-07 -4.25252e-06 -5.06884e-05
0.0004822 9.44457e-06 -1.166e-06
9.44457e-06 -8.2174e-05 -1.06867e-06
-1.166e-06 -1.06867e-06 -0.000134612
0.000799479 3.43143e-05 1.75256e-07
3.43143e-05 0.000134307 1.098e-07
1.75256e-07 1.098e-07 4.37373e-05
0.00223902 -3.74522e-05 -1.45906e-05
-3.74522e-05 0.000932743 -4.7069e-06
-1.45906e-05 -4.7069e-06 0.00094913
0.000600325 -1.55599e-05 -2.25029e-07
-1.55599e-05 -3.54697e-05 -5.21544e-08
-2.25029e-07 -5.21544e-08 -4.64455e-05
0.000305496 -1.52039e-06 -5.76866e-07
-1.52039e-06 -0.00018403 1.19422e-06
-5.76866e-07 1.19422e-06 -0.000233289
0.00214392 -2.31448e-05 -3.60218e-06
-2.31448e-05 0.000874013 8.55611e-08
-3.60218e-06 8.55611e-08 0.000892338
0.000605866 -9.69162e-06 -1.70404e-07
-9.69162e-06 -3.35975e-05 3.65158e-06
-1.70404e-07 3.65158e-06 -4.20035e-05
0.00208191 -9.0875e-06 5.79984e-06
-9.0875e-06 0.000836214 4.73312e-06
5.79984e-06 4.73312e-06 0.000855661
0.00167701 -3.59741e-05 -5.65357e-06
-3.59741e-05 -6.91422e-05 2.00694e-05
-5.65357e-06 2.00694e-05 -2.43079e-05
0.00108983 -8.87163e-06 -1.12396e-07
-8.87163e-06 0.000409315 -1.9985e-06
-1.12396e-07 -1.9985e-06 0.00022643
0.00172169 -8.72303e-05 9.60022e-05
-8.72303e-05 0.000458872 -2.1773e-05
9.60022e-05 -2.1773e-05 -0.000759641
0.000602994 7.90137e-06 2.07454e-07
7.90137e-06 -4.45636e-06 -5.16565e-07
2.07454e-07 -5.16565e-07 -0.000101549
0.000871359 3.30734e-05 -5.95722e-07
3.30734e-05 0.00015814 -3.77011e-07
-5.95722e-07 -3.77011e-07 4.97039e-05
0.000813064 7.78514e-05 7.66978e-07
7.78514e-05 0.000138859 4.20169e-07
7.66978e-07 4.20169e-07 2.96654e-05
0.000641762 3.17135e-05 2.07248e-07
3.17135e-05 2.04327e-05 1.63065e-07
2.07248e-07 1.63065e-07 -7.97608e-05
0.000758313 5.19681e-05 6.26848e-08
5.19681e-05 0.000105405 3.44443e-07
6.26848e-08 3.44443e-07 -1.18801e-05
0.000744875 4.10738e-05 -9.2145e-09
4.10738e-05 8.92835e-05 -9.96307e-08
-9.2145e-09 -9.96307e-08 -1.97156e-05
0.000821731 0.000154751 1.40687e-06
0.000154751 0.000160143 2.11545e-06
1.40687e-06 2.11545e-06 2.21071e-05
4.52284e-05 2.42904e-05 4.29557e-05
2.42904e-05 0.000111731 0.000134315
4.29557e-05 0.000134315 -0.00133575
0.00252293 -4.51067e-05 -8.40911e-06
-4.51067e-05 0.000589719 4.67622e-05
-8.40911e-06 4.67622e-05 -0.000267381
0.00285059 -0.000130009 1.69163e-05
-0.000130009 0.00186589 -6.53683e-05
1.69163e-05 -6.53683e-05 0.000711833
0.00371102 -0.000133292 -2.3193e-05
-0.000133292 -0.00369662 4.09198e-05
-2.3193e-05 4.09198e-05 -0.0011116
0.00335526 -0.00101495 -6.16444e-05
-0.00101495 0.00114721 5.72487e-05
-6.16444e-05 5.72487e-05 0.000164254
-0.0018153 -0.00108998 1.02722e-05
-0.00108998 -0.000510653 6.9402e-05
1.02722e-05 6.9402e-05 -0.00408384
0.00745676 0.00137225 6.3842e-05
0.00137225 0.00418727 -3.31632e-05
6.3842e-05 -3.31632e-05 0.00240177
0.00387345 -0.000950268 -2.15592e-05
-0.000950268 0.00103335 4.87242e-06
-2.15592e-05 4.87242e-06 0.000333215
-2.49976e-05 -0.00043337 3.20392e-05
-0.00043337 0.00110894 1.52116e-05
3.20392e-05 1.52116e-05 -0.00287637
0.00437785 -8.44076e-06 -6.43095e-06
-8.44076e-06 0.00236678 -6.89444e-06
-6.43095e-06 -6.89444e-06 0.00137011
0.00802705 -0.000947261 -2.90568e-05
-0.000947261 0.000986792 -3.46916e-05
-2.90568e-05 -3.46916e-05 0.00221022
7.20316e-05 1.86208e-05 -0.000116287
1.86208e-05 -0.000941208 6.26265e-05
-0.000116287 6.26265e-05 -0.000805482
0.000752004 0.000961363 -1.98332e-05
0.000961363 0.00136992 -9.60097e-05
-1.98332e-05 -9.60097e-05 -0.00256969
-0.00688934 -0.00143512 5.26667e-05
-0.00143512 -0.00407441 -0.000112292
5.26667e-05 -0.000112292 -0.00582259
0.00377669 -0.000888471 1.69703e-05
-0.000888471 -0.0011924 -0.000196946
1.69703e-05 -0.000196946 0.000237688
0.000776815 1.18772e-05 -1.43412e-07
1.18772e-05 0.000122516 -6.56051e-08
-1.43412e-07 -6.56051e-08 1.13064e-05
0.000683725 4.01338e-05 3.78277e-07
4.01338e-05 6.91645e-05 -2.40636e-07
3.78277e-07 -2.40636e-07 -6.22993e-05
0.000759593 1.59051e-05 1.12205e-07
1.59051e-05 0.000141623 -1.35238e-06
1.12205e-07 -1.35238e-06 -5.57633e-06
0.00078208 4.42026e-05 -4.47359e-07
4.42026e-05 0.000129532 -2.17504e-06
-4.47359e-07 -2.17504e-06 5.63348e-07
-1.24184e-05 -0.000368002 -3.90628e-07
-0.000368002 -0.000707299 2.38255e-05
-3.90628e-07 2.38255e-05 -0.000768664
0.001225 -5.51858e-05 -1.03462e-05
-5.51858e-05 0.000697403 -2.78905e-05
-1.03462e-05 -2.78905e-05 0.000594811
0.000597943 2.20906e-05 -1.69557e-06
2.20906e-05 9.01602e-06 -1.55241e-06
-1.69557e-06 -1.55241e-06 -0.000113227
0.000707899 0.000101595 -1.4126e-06
0.000101595 0.000155063 1.89959e-06
-1.4126e-06 1.89959e-06 -3.0841e-06
0.00220963 -5.52193e-05 9.78581e-06
-5.52193e-05 0.00110602 -2.42366e-05
9.78581e-06 -2.42366e-05 0.000900183
0.000827073 5.15857e-05 -6.57008e-08
5.15857e-05 0.000164628 1.8839e-06
-6.57008e-08 1.8839e-06 4.36409e-05
0.000782137 7.08122e-05 -1.94366e-06
7.08122e-05 0.00031725 -2.15662e-06
-1.94366e-06 -2.15662e-06 0.000115235
-0.000209031 3.07529e-05 3.35211e-05
3.07529e-05 -4.0723e-08 -1.44057e-05
3.35211e-05 -1.44057e-05 -0.000473373
0.000551583 -3.42821e-06 3.25582e-05
-3.42821e-06 0.00032095 5.34457e-08
3.25582e-05 5.34457e-08 0.000234712
0.000279019 0.000118868 -3.47836e-07
0.000118868 -6.59032e-06 -4.08576e-06
-3.47836e-07 -4.08576e-06 -0.000149323
0.000183882 -8.31258e-05 -2.53252e-05
-8.31258e-05 0.000654471 -3.99558e-05
-2.53252e-05 -3.99558e-05 -0.000463014
0.00345006 9.73153e-05 1.71514e-05
9.73153e-05 0.00184696 2.10763e-05
1.71514e-05 2.10763e-05 0.00166961
0.000915612 -1.60809e-05 6.68078e-06
-1.60809e-05 0.000577158 6.95364e-06
6.68078e-06 6.95364e-06 5.16096e-05
0.00136255 -3.39167e-05 1.69868e-07
-3.39167e-05 0.000182174 3.058e-07
1.69868e-07 3.058e-07 -0.000122217
0.000532888 -2.89028e-05 -2.39569e-06
-2.89028e-05 0.000318646 -1.21909e-05
-2.39569e-06 -1.21909e-05 -7.13399e-05
-0.000198198 8.92789e-05 5.04698e-07
8.92789e-05 2.19231e-05 6.53172e-06
5.04698e-07 6.53172e-06 -0.000147877
-0.000432977 0.000240744 3.11813e-05
0.000240744 -0.000663588 3.82225e-05
3.11813e-05 3.82225e-05 -0.000811902
0.00141491 -2.82999e-05 1.41405e-05
-2.82999e-05 -0.000257246 -2.71304e-06
1.41405e-05 -2.71304e-06 -9.69793e-05
0.00383973 -0.000862038 0.00012405
-0.000862038 0.00360985 -0.000125186
0.00012405 -0.000125186 -0.00111575
0.0073435 0.00142562 -5.96542e-05
0.00142562 0.00359698 3.68932e-05
-5.96542e-05 3.68932e-05 0.00206475
0.0029524 -8.64327e-05 -2.07413e-05
-8.64327e-05 0.00183052 6.52376e-05
-2.07413e-05 6.52376e-05 0.000697138
0.00480601 0.00123681 -2.23395e-05
0.00123681 -9.3406e-05 -3.7446e-05
-2.23395e-05 -3.7446e-05 0.000429581
-0.000151172 0.000121056 -5.69948e-06
0.000121056 0.000346045 6.85569e-06
-5.69948e-06 6.85569e-06 -0.000105837
0.00115266 1.94898e-05 -1.74775e-07
1.94898e-05 0.000415457 2.08755e-06
-1.74775e-07 2.08755e-06 0.00024404
0.00339639 -0.000268583 6.46419e-05
-0.000268583 0.00100407 -7.41656e-06
6.46419e-05 -7.41656e-06 -0.00109441
0.000310479 -0.000139928 2.22098e-06
-0.000139928 -0.000615838 2.42177e-05
2.22098e-06 2.42177e-05 -0.000541245
-0.00153184 0.00167078 9.78362e-05
0.00167078 -0.000362969 -4.23336e-05
9.78362e-05 -4.23336e-05 0.00098924
0.00611787 0.000836745 -4.62165e-05
0.000836745 0.000257823 9.43011e-05
-4.62165e-05 9.43011e-05 0.000250338
-0.00246063 -0.000772923 6.65744e-05
-0.000772923 0.000184275 -6.06736e-05
6.65744e-05 -6.06736e-05 -0.00442709
0.0010853 -8.96575e-05 4.33158e-05
-8.96575e-05 0.000575806 -1.19761e-05
4.33158e-05 -1.19761e-05 0.000353524
0.000839707 -0.000106632 6.42209e-05
-0.000106632 -0.00013595 -2.64656e-05
6.42209e-05 -2.64656e-05 -0.00133947
-0.00178125 0.000156166 -0.000195007
0.000156166 0.00130954 -1.51133e-05
-0.000195007 -1.51133e-05 0.000118484
0.00226914 0.00151696 -0.000127128
0.00151696 1.36347e-05 0.000202845
-0.000127128 0.000202845 0.00043865
0.00787658 -0.000574487 1.92785e-05
-0.000574487 0.00359295 -1.71532e-05
1.92785e-05 -1.71532e-05 0.000478003
0.00337598 -0.000403193 -6.13985e-05
-0.000403193 0.000895613 5.5035e-05
-6.13985e-05 5.5035e-05 0.000595261
-0.000925734 3.5724e-05 2.29247e-05
3.5724e-05 -0.000405439 1.40816e-05
2.29247e-05 1.40816e-05 -0.000567573
0.000105856 -0.000165529 -1.08013e-05
-0.000165529 0.000216055 1.35459e-06
-1.08013e-05 1.35459e-06 -4.49864e-05
0.000368403 -0.000234453 2.11628e-05
-0.000234453 6.50733e-05 -5.52067e-06
2.11628e-05 -5.52067e-06 -8.83545e-05
-0.000756824 -0.000127668 -3.91732e-06
-0.000127668 -0.000442636 6.56972e-06
-3.91732e-06 6.56972e-06 -0.000588886
-0.000640205 -0.00014371 1.44137e-06
-0.00014371 -0.000428026 -4.11961e-06
1.44137e-06 -4.11961e-06 -0.000711425
0.00291625 -0.000492683 2.64569e-05
-0.000492683 0.00109944 -4.64392e-06
2.64569e-05 -4.64392e-06 0.000820633
0.00348538 -0.000469927 -7.10942e-06
-0.000469927 0.0015993 2.67906e-06
-7.10942e-06 2.67906e-06 0.00135667
0.00200018 -0.000351754 4.00319e-06
-0.000351754 0.000795979 1.01322e-06
4.00319e-06 1.01322e-06 0.000445472
0.0011541 -0.000339123 7.62198e-06
-0.000339123 0.000160305 -4.63822e-06
7.62198e-06 -4.63822e-06 -0.000196151
0.00170023 -0.000302877 -6.09414e-06
-0.000302877 0.00050408 1.23578e-06
-6.09414e-06 1.23578e-06 0.000252325
0.00222983 -0.000408441 1.81634e-06
-0.000408441 0.000703449 1.55567e-07
1.81634e-06 1.55567e-07 0.00038272
0.00197877 -0.000406965 1.18635e-06
-0.000406965 0.000488214 -5.16276e-06
1.18635e-06 -5.16276e-06 0.000168851
0.00180884 -0.00036405 -3.53457e-07
-0.00036405 0.000307302 -3.0073e-06
-3.53457e-07 -3.0073e-06 7.07075e-05
0.00209145 -0.000392848 -4.10682e-06
-0.000392848 0.000534806 4.16024e-06
-4.10682e-06 4.16024e-06 0.000273651
0.00174939 -0.000375605 -1.1064e-06
-0.000375605 0.000341939 -4.41119e-07
-1.1064e-06 -4.41119e-07 6.44267e-05
0.000348767 -0.000178082 5.05125e-06
-0.000178082 -0.000288209 1.14715e-06
5.05125e-06 1.14715e-06 -0.000477385
0.00108426 -0.000250261 2.15712e-06
-0.000250261 0.000109396 -6.99407e-08
2.15712e-06 -6.99407e-08 -0.000102114
0.00137413 -0.000296355 -9.14795e-07
-0.000296355 0.000242991 -2.7261e-06
-9.14795e-07 -2.7261e-06 -7.58003e-06
0.00118778 -0.000214643 2.44063e-06
-0.000214643 0.000319763 7.27837e-07
2.44063e-06 7.27837e-07 0.000124799
0.001287 -0.000233789 -2.07326e-06
-0.000233789 0.000346711 -1.67864e-06
-2.07326e-06 -1.67864e-06 0.000153078
0.00069755 -0.00018877 4.78621e-06
-0.00018877 -1.37816e-05 -4.19333e-06
4.78621e-06 -4.19333e-06 -0.000190572
0.000579691 -4.37002e-05 2.20781e-06
-4.37002e-05 2.09172e-05 1.55868e-06
2.20781e-06 1.55868e-06 -0.000118915
0.000526828 -8.6105e-05 -2.71449e-07
-8.6105e-05 9.30275e-07 9.20927e-07
-2.71449e-07 9.20927e-07 -0.000160674
0.00135515 -0.000219003 2.89509e-06
-0.000219003 0.000471541 -3.15647e-06
2.89509e-06 -3.15647e-06 0.00027787
0.000556148 4.2157e-05 -6.3309e-08
4.2157e-05 -1.73905e-05 2.89054e-06
-6.3309e-08 2.89054e-06 -9.10037e-05
0.00074175 -1.37952e-05 -3.69256e-07
-1.37952e-05 0.000110326 -5.60808e-07
-3.69256e-07 -5.60808e-07 -3.93334e-06
0.00116407 -0.00010815 1.07601e-07
-0.00010815 0.000371552 -5.6284e-07
1.07601e-07 -5.6284e-07 0.000229793
0.000529604 6.03029e-05 -1.27791e-06
6.03029e-05 -4.17626e-05 6.04782e-06
-1.27791e-06 6.04782e-06 -6.69926e-05
0.000646397 2.60998e-05 -2.7595e-07
2.60998e-05 2.19734e-05 -2.75754e-07
-2.7595e-07 -2.75754e-07 -3.79217e-05
0.000794298 -2.33688e-05 -2.41066e-07
-2.33688e-05 0.000127123 -1.50005e-06
-2.41066e-07 -1.50005e-06 3.35144e-05
0.000667327 1.44598e-05 1.52747e-06
1.44598e-05 2.8462e-05 -2.07336e-06
1.52747e-06 -2.07336e-06 -2.51492e-05
0.000574094 5.38295e-05 2.77619e-08
5.38295e-05 -2.55973e-05 -1.40969e-08
2.77619e-08 -1.40969e-08 -4.72713e-05
0.00229729 8.92794e-05 -2.63798e-05
8.92794e-05 0.000995874 3.43484e-06
-2.63798e-05 3.43484e-06 0.00100265
0.000587746 4.60665e-05 5.15589e-07
4.60665e-05 -2.74779e-05 -4.08435e-06
5.15589e-07 -4.08435e-06 -4.56551e-05
0.00228371 7.82449e-05 2.4319e-06
7.82449e-05 0.000980215 1.99945e-07
2.4319e-06 1.99945e-07 0.000989584
0.0022824 6.70434e-05 1.96437e-05
6.70434e-05 0.000972657 -3.98763e-06
1.96437e-05 -3.98763e-06 0.000984191
0.000725622 4.2631e-05 -1.87141e-07
4.2631e-05 9.04085e-05 -6.43867e-07
-1.87141e-07 -6.43867e-07 -2.29915e-05
0.00077427 7.32163e-05 -2.21453e-07
7.32163e-05 0.000120622 -1.33267e-06
-2.21453e-07 -1.33267e-06 1.47254e-05
0.000658571 7.55966e-06 -7.32818e-07
7.55966e-06 1.7907e-05 -2.54415e-06
-7.32818e-07 -2.54415e-06 -4.23581e-05
0.000727192 6.67776e-05 -9.90198e-08
6.67776e-05 8.33265e-05 2.27918e-08
-9.90198e-08 2.27918e-08 -1.14381e-05
0.000582105 -2.92947e-05 1.58272e-07
-2.92947e-05 -3.86105e-05 -4.67657e-06
1.58272e-07 -4.67657e-06 -5.68169e-05
0.000651432 1.55155e-05 -1.1073e-07
1.55155e-05 1.50374e-05 -7.82365e-08
-1.1073e-07 -7.82365e-08 -4.06435e-05
0.000678058 3.6932e-05 -1.18608e-06
3.6932e-05 5.22746e-05 5.58142e-07
-1.18608e-06 5.58142e-07 -3.64653e-05
0.00233561 -5.09331e-05 -1.91595e-05
-5.09331e-05 0.000993117 -4.62292e-06
-1.91595e-05 -4.62292e-06 0.00100731
0.000595329 -2.20999e-05 -2.10323e-07
-2.20999e-05 -3.5502e-05 -5.43744e-08
-2.10323e-07 -5.43744e-08 -4.97254e-05
0.00061021 1.90361e-05 -7.29201e-07
1.90361e-05 -7.75735e-06 1.23558e-06
-7.29201e-07 1.23558e-06 -5.89961e-05
0.00222166 -3.61684e-05 -3.73882e-06
-3.61684e-05 0.000922066 1.31578e-07
-3.73882e-06 1.31578e-07 0.000938775
0.000599726 -1.54279e-05 -2.15981e-07
-1.54279e-05 -3.59244e-05 3.79633e-06
-2.15981e-07 3.79633e-06 -4.67487e-05
0.00212897 -2.18456e-05 9.96825e-06
-2.18456e-05 0.000864844 4.70079e-06
9.96825e-06 4.70079e-06 0.000883417
0.000881139 -7.65031e-05 5.69259e-06
-7.65031e-05 0.000109024 1.82948e-05
5.69259e-06 1.82948e-05 1.39838e-06
0.00157014 -5.62836e-05 -1.19729e-05
-5.62836e-05 -0.000155642 1.79338e-05
-1.19729e-05 1.79338e-05 -5.79781e-05
0.00116834 -2.03755e-05 4.70528e-06
-2.03755e-05 0.000351641 -9.7397e-06
4.70528e-06 -9.7397e-06 0.000253321
0.000738073 4.29145e-05 -1.64239e-07
4.29145e-05 8.86927e-05 -2.02675e-09
-1.64239e-07 -2.02675e-09 -1.95898e-05
0.00071402 2.03781e-05 4.4296e-07
2.03781e-05 6.74977e-05 2.57447e-08
4.4296e-07 2.57447e-08 -3.89435e-05
0.000578818 2.3314e-05 -1.92627e-06
2.3314e-05 -1.06874e-05 -1.99569e-06
-1.92627e-06 -1.99569e-06 -0.000117347
0.000509642 -2.44284e-06 -2.36744e-07
-2.44284e-06 -4.89508e-05 -7.92603e-07
-2.36744e-07 -7.92603e-07 -0.000154505
0.00105714 0.000109264 -8.35981e-07
0.000109264 0.000282631 -1.00829e-06
-8.35981e-07 -1.00829e-06 0.000155503
0.000674215 1.34293e-05 -5.43378e-07
1.34293e-05 3.46185e-05 3.08287e-07
-5.43378e-07 3.08287e-07 -6.22091e-05
0.000681246 3.76955e-05 -1.7102e-07
3.76955e-05 5.24236e-05 -1.27631e-06
-1.7102e-07 -1.27631e-06 -5.83109e-05
0.000770148 4.8881e-05 -9.88179e-08
4.8881e-05 0.000106422 -9.14059e-08
-9.88179e-08 -9.14059e-08 -5.18152e-06
0.000904807 8.19863e-05 5.25565e-07
8.19863e-05 0.00018879 3.86095e-07
5.25565e-07 3.86095e-07 6.67469e-05
0.000999637 5.54736e-05 -1.01542e-07
5.54736e-05 0.000256334 -4.58794e-07
-1.01542e-07 -4.58794e-07 0.000136038
0.00238853 0.000132085 0.000123778
0.000132085 0.00115004 0.000180054
0.000123778 0.000180054 -0.00101285
0.000672544 6.58302e-05 1.01882e-05
6.58302e-05 0.000200615 4.85066e-05
1.01882e-05 4.85066e-05 -0.00126439
0.00253454 -2.90258e-05 -1.35931e-05
-2.90258e-05 0.000896095 -1.08541e-05
-1.35931e-05 -1.08541e-05 0.000207916
0.00795778 -0.000837477 -6.72317e-05
-0.000837477 0.00106767 -7.7322e-05
-6.72317e-05 -7.7322e-05 0.00236131
-0.0107005 0.000594615 -4.09135e-05
0.000594615 -0.0035595 0.000206278
-4.09135e-05 0.000206278 -0.00558653
0.00549422 -0.000966103 -0.000108855
-0.000966103 0.00200004 5.40122e-05
-0.000108855 5.40122e-05 0.00130919
0.0100441 -0.000657349 -5.26174e-05
-0.000657349 0.00418218 -1.76991e-05
-5.26174e-05 -1.76991e-05 0.000964069
0.00241352 -0.00011238 -1.43271e-05
-0.00011238 0.000334949 5.31746e-05
-1.43271e-05 5.31746e-05 8.9344e-06
0.0112302 -0.000143055 1.92289e-05
-0.000143055 0.00542936 -1.61523e-05
1.92289e-05 -1.61523e-05 0.00156556
0.00181463 -0.000859704 4.82182e-05
-0.000859704 0.0001372 5.09612e-05
4.82182e-05 5.09612e-05 -0.00100821
0.00304556 -0.00105284 -0.000107327
-0.00105284 -0.00175598 -0.000236299
-0.000107327 -0.000236299 -0.000389651
0.00342871 0.000151242 -9.5316e-05
0.000151242 0.000694399 2.4063e-05
-9.5316e-05 2.4063e-05 0.000202021
0.00922013 0.000690199 -1.08229e-05
0.000690199 0.00419301 2.03685e-05
-1.08229e-05 2.03685e-05 0.00113536
0.010212 -0.00164736 -1.99436e-05
-0.00164736 0.00324069 -0.000188468
-1.99436e-05 -0.000188468 0.00317016
0.00597474 -0.00165708 5.41322e-05
-0.00165708 0.0010348 4.40899e-06
5.41322e-05 4.40899e-06 0.0025181
0.000205876 5.05594e-05 4.85725e-08
5.05594e-05 -0.000134357 -2.11253e-06
4.85725e-08 -2.11253e-06 -0.000238628
0.00096305 8.91451e-06 2.50269e-07
8.91451e-06 0.000239339 1.85573e-06
2.50269e-07 1.85573e-06 0.000117441
0.000694524 4.33871e-05 -7.98589e-08
4.33871e-05 7.75997e-05 -2.27627e-06
-7.98589e-08 -2.27627e-06 -5.5408e-05
0.00117361 -5.3741e-06 -3.83138e-05
-5.3741e-06 0.000670109 1.81875e-05
-3.83138e-05 1.81875e-05 7.49893e-05
0.00101426 -4.2979e-05 -7.17975e-05
-4.2979e-05 0.000605667 -3.02224e-05
-7.17975e-05 -3.02224e-05 0.000535492
0.000712111 -1.88537e-06 -1.56793e-06
-1.88537e-06 9.96501e-05 3.56203e-06
-1.56793e-06 3.56203e-06 -2.30461e-05
-0.000745089 6.25645e-05 -1.91727e-06
6.25645e-05 -0.000518039 -4.52115e-06
-1.91727e-06 -4.52115e-06 -0.000739657
0.000579581 7.72925e-05 1.27126e-07
7.72925e-05 0.000169013 -2.97398e-06
1.27126e-07 -2.97398e-06 1.44713e-05
0.000611977 8.24399e-05 -3.89594e-06
8.24399e-05 0.000330157 3.91563e-06
-3.89594e-06 3.91563e-06 0.000130624
-0.000300834 -2.63027e-05 0.000107609
-2.63027e-05 0.000614977 -3.89524e-05
0.000107609 -3.89524e-05 -0.000518893
-0.00241163 -4.55637e-06 -2.19416e-05
-4.55637e-06 -0.00133542 1.16943e-05
-2.19416e-05 1.16943e-05 -0.00149056
0.00220831 0.000241126 -2.34584e-05
0.000241126 0.00128021 -3.80616e-05
-2.34584e-05 -3.80616e-05 0.000543691
0.00188274 -3.42399e-07 6.66597e-05
-3.42399e-07 0.000843094 9.37519e-06
6.66597e-05 9.37519e-06 -0.000491713
0.000732295 -1.87595e-05 1.61411e-05
-1.87595e-05 0.000450542 8.69087e-06
1.61411e-05 8.69087e-06 2.67126e-06
0.00176135 -4.60744e-05 -7.78627e-07
-4.60744e-05 0.000420475 -3.78321e-07
-7.78627e-07 -3.78321e-07 0.000284485
-0.00271187 0.000154238 5.11306e-05
0.000154238 -0.000970865 8.17774e-06
5.11306e-05 8.17774e-06 -0.00155426
0.00339237 9.96318e-05 -1.84946e-05
9.96318e-05 0.00104788 -5.442e-06
-1.84946e-05 -5.442e-06 0.000574949
0.00121611 -1.0401e-06 1.39384e-06
-1.0401e-06 0.000373456 7.94305e-06
1.39384e-06 7.94305e-06 0.000282129
0.0156138 -0.00114672 0.000112297
-0.00114672 0.00686989 -2.05058e-05
0.000112297 -2.05058e-05 0.00321527
0.00915979 0.00121983 -6.81071e-05
0.00121983 0.00292817 -3.81199e-05
-6.81071e-05 -3.81199e-05 0.00243949
0.00356686 -0.000306007 -5.65421e-05
-0.000306007 0.00123619 0.000108175
-5.65421e-05 0.000108175 -0.00108927
-0.00727202 0.00185589 0.00045741
0.00185589 -0.00367462 -0.00034937
0.00045741 -0.00034937 -0.00182894
0.00086987 -0.000103954 -1.38926e-06
-0.000103954 0.000609062 -1.71761e-06
-1.38926e-06 -1.71761e-06 0.000318499
0.00122514 -8.82366e-05 -7.5432e-06
-8.82366e-05 9.97382e-05 7.32999e-06
-7.5432e-06 7.32999e-06 -0.00115873
-0.00266666 0.000208033 -0.000266452
0.000208033 0.00132763 0.000118418
-0.000266452 0.000118418 0.000218453
0.00191337 -0.000299782 -2.51619e-05
-0.000299782 0.00021225 3.32064e-05
-2.51619e-05 3.32064e-05 -6.73815e-05
0.00964338 0.00167936 6.07797e-05
0.00167936 0.00308905 6.16598e-05
6.07797e-05 6.16598e-05 0.00359328
0.00748946 -0.00109343 7.07766e-05
-0.00109343 0.00312986 -4.68043e-05
7.07766e-05 -4.68043e-05 0.000271133
0.00127908 -0.000241902 1.23568e-05
-0.000241902 0.000318707 2.47231e-05
1.23568e-05 2.47231e-05 0.000397669
-0.00342347 -0.000211903 2.58581e-05
-0.000211903 0.000978248 -1.4274e-05
2.58581e-05 -1.4274e-05 -0.00078227
0.00796765 0.00151041 -0.000275992
0.00151041 0.00385328 0.000128393
-0.000275992 0.000128393 0.00380965
0.00239576 -0.000578131 -0.000156906
-0.000578131 -9.32519e-05 0.000108231
-0.000156906 0.000108231 -0.00300666
0.00230614 -0.000810764 7.11485e-05
-0.000810764 0.000325071 -2.598e-05
7.11485e-05 -2.598e-05 -1.11716e-05
-0.000733359 -0.0001234 -2.15255e-05
-0.0001234 -0.000234665 1.25691e-05
-2.15255e-05 1.25691e-05 -0.000485325
0.000409944 -0.000233164 -3.14608e-06
-0.000233164 0.000121366 3.99536e-06
-3.14608e-06 3.99536e-06 -9.54927e-05
0.00395602 -0.000544121 3.07164e-05
-0.000544121 0.00155311 3.5194e-06
3.07164e-05 3.5194e-06 0.0014523
-0.0025157 -3.54887e-05 -6.09733e-06
-3.54887e-05 -0.00140747 8.46143e-06
-6.09733e-06 8.46143e-06 -0.00169137
0.000750239 -0.000297903 2.93439e-06
-0.000297903 3.07341e-06 5.89895e-07
2.93439e-06 5.89895e-07 -0.000282253
0.00204121 -0.000480283 4.86474e-06
-0.000480283 0.000385986 -2.76198e-07
4.86474e-06 -2.76198e-07 0.000155169
0.00260212 -0.000398634 -9.59785e-06
-0.000398634 0.00107062 2.38688e-06
-9.59785e-06 2.38688e-06 0.00074359
0.00127813 -0.000343976 -2.29636e-06
-0.000343976 0.000204374 -3.12102e-06
-2.29636e-06 -3.12102e-06 -0.000131388
0.00208877 -0.000465911 4.73107e-06
-0.000465911 0.000416319 -4.1636e-06
4.73107e-06 -4.1636e-06 0.000157245
0.00226192 -0.000415787 -3.75563e-06
-0.000415787 0.000693423 -1.84845e-06
-3.75563e-06 -1.84845e-06 0.000370532
0.00154758 -0.000371783 -9.03113e-08
-0.000371783 0.000229255 -3.06374e-06
-9.03113e-08 -3.06374e-06 -7.73277e-05
0.00190114 -0.000388077 -2.35397e-07
-0.000388077 0.000292439 -6.21383e-06
-2.35397e-07 -6.21383e-06 6.31281e-05
0.00168568 -0.0003088 -1.74506e-06
-0.0003088 0.000156243 -3.19455e-06
-1.74506e-06 -3.19455e-06 -3.21265e-05
0.00161988 -0.000351375 2.10529e-06
-0.000351375 0.000202293 -1.38504e-06
2.10529e-06 -1.38504e-06 -3.90504e-05
0.00168245 -0.000354386 1.70113e-06
-0.000354386 0.00023882 -1.60894e-06
1.70113e-06 -1.60894e-06 4.60074e-06
0.00163008 -0.000311972 -1.73593e-06
-0.000311972 0.000319436 4.41594e-06
-1.73593e-06 4.41594e-06 9.16717e-05
0.00188046 -0.000376138 -1.8583e-06
-0.000376138 0.000426394 2.17652e-07
-1.8583e-06 2.17652e-07 0.00016318
0.00175233 -0.000378268 2.95231e-07
-0.000378268 0.000345468 -2.85728e-06
2.95231e-07 -2.85728e-06 6.27768e-05
0.00110113 -0.000224623 3.01618e-06
-0.000224623 0.000194594 1.64368e-07
3.01618e-06 1.64368e-07 -8.00813e-07
0.000642684 -0.000199748 -5.9092e-07
-0.000199748 -0.000115401 -1.37369e-06
-5.9092e-07 -1.37369e-06 -0.000303109
0.0015453 -0.000285793 6.0063e-06
-0.000285793 0.000371381 -5.56214e-06
6.0063e-06 -5.56214e-06 0.000162557
0.000745126 -0.000143955 -1.76061e-07
-0.000143955 8.33764e-05 -3.14125e-07
-1.76061e-07 -3.14125e-07 -8.18558e-05
0.000881554 -0.000182222 2.00302e-07
-0.000182222 0.00014562 -1.16893e-07
2.00302e-07 -1.16893e-07 -4.30164e-05
0.000832164 -0.000191538 -1.99762e-06
-0.000191538 8.13891e-05 -2.85759e-07
-1.99762e-06 -2.85759e-07 -0.000105996
0.000530639 4.1815e-05 1.12201e-06
4.1815e-05 -2.29177e-05 4.36696e-06
1.12201e-06 4.36696e-06 -0.000117806
0.0007806 -6.72853e-05 9.65191e-07
-6.72853e-05 0.000143332 5.94906e-07
9.65191e-07 5.94906e-07 -4.97765e-06
0.000992155 -0.000127065 -2.04876e-06
-0.000127065 0.000279565 9.25373e-07
-2.04876e-06 9.25373e-07 0.000112199
0.00134577 9.96828e-05 -1.3523e-05
9.96828e-05 0.000454036 4.15717e-06
-1.3523e-05 4.15717e-06 0.000423374
0.000649081 1.95219e-05 -5.15999e-07
1.95219e-05 3.20361e-05 -6.31039e-07
-5.15999e-07 -6.31039e-07 -4.10901e-05
0.000858532 -5.04807e-05 -1.55723e-06
-5.04807e-05 0.000182068 -1.84533e-06
-1.55723e-06 -1.84533e-06 6.11545e-05
0.000749708 4.73535e-05 -2.68123e-05
4.73535e-05 9.46126e-05 3.46126e-06
-2.68123e-05 3.46126e-06 9.42464e-05
0.000982034 7.76848e-05 -7.97131e-06
7.76848e-05 0.000226578 9.52462e-08
-7.97131e-06 9.52462e-08 0.000201217
0.000681107 2.20323e-05 8.13795e-07
2.20323e-05 4.05125e-05 -2.56712e-06
8.13795e-07 -2.56712e-06 -1.92849e-05
0.000581007 5.75143e-05 -1.44581e-07
5.75143e-05 -1.99826e-05 -4.46561e-06
-1.44581e-07 -4.46561e-06 -4.24958e-05
0.00234007 9.14163e-05 2.75991e-06
9.14163e-05 0.0010218 2.44682e-07
2.75991e-06 2.44682e-07 0.0010281
0.00230248 8.00019e-05 2.29288e-05
8.00019e-05 0.000992193 -3.68374e-06
2.29288e-05 -3.68374e-06 0.00100118
0.000680572 3.82757e-05 2.74541e-08
3.82757e-05 5.28397e-05 -5.46351e-07
2.74541e-08 -5.46351e-07 -5.56569e-05
0.000791243 5.85462e-05 -9.42928e-08
5.85462e-05 0.000127586 -1.67396e-06
-9.42928e-08 -1.67396e-06 1.97218e-05
0.000678235 2.90313e-05 5.33376e-08
2.90313e-05 5.1272e-05 5.9501e-08
5.33376e-08 5.9501e-08 -5.36879e-05
0.000662418 -3.76087e-06 -9.4138e-07
-3.76087e-06 2.11614e-05 -2.71469e-06
-9.4138e-07 -2.71469e-06 -4.32868e-05
0.00073575 4.78678e-05 6.5369e-07
4.78678e-05 8.71587e-05 2.07115e-08
6.5369e-07 2.07115e-08 -1.02515e-05
0.000571213 -3.28363e-05 -4.19115e-07
-3.28363e-05 -3.95282e-05 -5.02695e-06
-4.19115e-07 -5.02695e-06 -6.14734e-05
0.000646437 1.09103e-05 -1.05453e-07
1.09103e-05 1.21532e-05 -7.39715e-08
-1.05453e-07 -7.39715e-08 -4.8546e-05
0.000752606 5.96624e-05 2.10413e-07
5.96624e-05 0.000112373 1.59236e-06
2.10413e-07 1.59236e-06 7.49696e-06
0.00246041 -6.46729e-05 -2.50244e-05
-6.46729e-05 0.00107118 -4.44441e-06
-2.50244e-05 -4.44441e-06 0.00108276
0.000578783 -2.85979e-05 -3.65e-07
-2.85979e-05 -4.08412e-05 -3.69299e-08
-3.65e-07 -3.69299e-08 -5.88273e-05
0.000639782 1.65449e-05 5.24248e-07
1.65449e-05 8.82281e-06 2.53058e-06
5.24248e-07 2.53058e-06 -4.68551e-05
0.00232592 -4.9872e-05 -3.67705e-06
-4.9872e-05 0.00098689 1.82838e-07
-3.67705e-06 1.82838e-07 0.00100138
0.000588877 -2.18523e-05 -2.32256e-07
-2.18523e-05 -3.91402e-05 4.10807e-06
-2.32256e-07 4.10807e-06 -5.3237e-05
0.00221027 -3.48868e-05 1.43337e-05
-3.48868e-05 0.000914853 4.65264e-06
1.43337e-05 4.65264e-06 0.000931838
0.00360186 9.52246e-06 7.58984e-05
9.52246e-06 0.00138136 2.77314e-05
7.58984e-05 2.77314e-05 0.000450728
0.000852603 -7.37677e-05 -2.31838e-07
-7.37677e-05 0.000133683 6.22951e-06
-2.31838e-07 6.22951e-06 1.18435e-05
0.00141818 -6.69304e-05 -1.36507e-05
-6.69304e-05 -0.000254215 1.44226e-06
-1.36507e-05 1.44226e-06 -0.000108979
0.000744561 9.7567e-05 -3.23125e-06
9.7567e-05 8.82328e-05 3.31437e-08
-3.23125e-06 3.31437e-08 -2.92891e-05
0.000817453 4.59207e-05 3.9574e-08
4.59207e-05 0.00013099 4.68545e-07
3.9574e-08 4.68545e-07 2.56295e-05
0.000594337 1.35681e-05 3.272e-07
1.35681e-05 -1.51709e-06 6.51334e-07
3.272e-07 6.51334e-07 -0.000106238
0.000803048 1.86483e-05 -7.01603e-08
1.86483e-05 0.000115594 -9.16429e-08
-7.01603e-08 -9.16429e-08 1.13277e-05
0.000899554 6.08068e-05 -3.92577e-07
6.08068e-05 0.000177775 -8.80808e-08
-3.92577e-07 -8.80808e-08 6.56315e-05
0.000831293 8.43863e-05 5.25223e-07
8.43863e-05 0.00015017 7.8565e-07
5.25223e-07 7.8565e-07 2.89619e-05
0.000786126 7.17199e-05 -1.99228e-06
7.17199e-05 0.000116582 -3.16605e-06
-1.99228e-06 -3.16605e-06 -1.04735e-05
0.000308605 1.07887e-05 -3.2134e-07
1.07887e-05 -0.000152734 -1.11336e-06
-3.2134e-07 -1.11336e-06 -0.000265737
0.000820691 0.00010227 -5.2942e-07
0.00010227 0.000143361 6.93248e-08
-5.2942e-07 6.93248e-08 2.45865e-05
0.000640998 4.80359e-06 5.42217e-07
4.80359e-06 1.94956e-05 -1.29759e-06
5.42217e-07 -1.29759e-06 -8.45751e-05
0.000745227 5.07289e-05 -4.31392e-07
5.07289e-05 0.000107345 2.78766e-07
-4.31392e-07 2.78766e-07 -8.80259e-06
0.00167784 0.000121624 5.42975e-06
0.000121624 0.000683412 5.39262e-06
5.42975e-06 5.39262e-06 0.000566075
0.00100261 -0.000630437 7.16846e-05
-0.000630437 0.00198909 0.000147576
7.16846e-05 0.000147576 0.000755087
0.00307026 0.000183513 1.58908e-05
0.000183513 0.00143587 5.47792e-05
1.58908e-05 5.47792e-05 -0.000764927
0.00113907 8.67825e-05 -1.42443e-05
8.67825e-05 0.00033106 -3.79833e-05
-1.42443e-05 -3.79833e-05 -0.00114804
0.00798602 -0.00138285 -0.000187374
-0.00138285 0.000858571 -0.00014381
-0.000187374 -0.00014381 0.00221144
0.00491999 -0.000435162 3.62593e-05
-0.000435162 0.000892913 0.000181404
3.62593e-05 0.000181404 -4.38026e-05
0.000556049 -0.000612856 -9.81023e-05
-0.000612856 0.00128645 9.7333e-05
-9.81023e-05 9.7333e-05 -0.00272805
0.00198313 -0.000220742 -3.63029e-05
-0.000220742 0.000402266 7.70389e-05
-3.63029e-05 7.70389e-05 -0.000134701
0.00327164 -0.000122945 1.55325e-05
-0.000122945 0.000673348 4.79301e-05
1.55325e-05 4.79301e-05 0.000370781
-0.000426464 -0.00169804 7.10305e-05
-0.00169804 -0.00129123 8.80608e-05
7.10305e-05 8.80608e-05 0.000383584
0.00519164 0.000685618 5.74156e-06
0.000685618 0.00326482 -1.1056e-05
5.74156e-06 -1.1056e-05 -0.000509376
0.00209364 -0.000904402 -2.68126e-05
-0.000904402 -0.00122567 3.55004e-05
-2.68126e-05 3.55004e-05 -0.00124566
0.00120092 0.000324655 1.38922e-06
0.000324655 -0.000252481 3.27817e-05
1.38922e-06 3.27817e-05 -0.000330911
0.00802563 0.000490589 -2.81193e-05
0.000490589 0.00394592 2.75527e-06
-2.81193e-05 2.75527e-06 0.0010592
0.00170226 -0.001453 -0.000103418
-0.001453 -0.000580892 -0.000129638
-0.000103418 -0.000129638 -0.000199966
0.000747283 0.000252905 4.26781e-06
0.000252905 0.000125967 -9.24226e-06
4.26781e-06 -9.24226e-06 9.00382e-06
0.000705904 7.52643e-05 4.22432e-06
7.52643e-05 0.000143866 -4.84952e-07
4.22432e-06 -4.84952e-07 4.03435e-05
0.000799018 3.27414e-05 -3.67044e-07
3.27414e-05 0.000151081 -4.93239e-07
-3.67044e-07 -4.93239e-07 2.4657e-05
0.000259438 -1.72206e-05 -0.000154766
-1.72206e-05 0.000929027 -4.43998e-05
-0.000154766 -4.43998e-05 -0.0001729
-0.00185826 9.5318e-05 7.76068e-06
9.5318e-05 -0.00101979 -1.27137e-05
7.76068e-06 -1.27137e-05 -0.00123104
0.000691355 0.000117002 -9.75889e-08
0.000117002 0.000235229 2.6543e-07
-9.75889e-08 2.6543e-07 7.20734e-05
0.000583965 0.000253343 9.12951e-06
0.000253343 0.000221492 3.50085e-06
9.12951e-06 3.50085e-06 5.62576e-05
0.000647046 0.000219632 -3.83876e-06
0.000219632 0.000386638 -3.04616e-05
-3.83876e-06 -3.04616e-05 -0.000234084
-0.000149953 0.000389212 2.26072e-05
0.000389212 -0.000491499 1.16351e-07
2.26072e-05 1.16351e-07 -0.000758158
-0.000288705 0.000165961 0.000122014
0.000165961 0.00264098 1.2273e-05
0.000122014 1.2273e-05 0.000863511
0.00192325 -2.60954e-05 -4.45821e-06
-2.60954e-05 0.000881367 1.52275e-05
-4.45821e-06 1.52275e-05 -0.000193019
0.000523164 -2.27702e-05 3.14463e-06
-2.27702e-05 0.00032228 1.18637e-05
3.14463e-06 1.18637e-05 -5.65506e-05
0.000256372 -7.69477e-05 -3.03469e-05
-7.69477e-05 0.000403359 8.02372e-06
-3.03469e-05 8.02372e-06 9.68303e-05
0.000637274 -0.000124333 -4.43095e-05
-0.000124333 -0.000954982 3.04843e-06
-4.43095e-05 3.04843e-06 -0.000778519
0.00170412 -8.20743e-05 -7.88878e-05
-8.20743e-05 0.000319241 2.24434e-05
-7.88878e-05 2.24434e-05 -0.000887624
-0.00139136 -0.00108314 4.77264e-05
-0.00108314 -0.00026409 -7.43202e-05
4.77264e-05 -7.43202e-05 -0.00375854
-0.0025835 0.00123249 0.000108693
0.00123249 -0.00368863 -0.000120649
0.000108693 -0.000120649 -0.00300689
0.00182585 0.000623222 -0.000135055
0.000623222 0.00263197 0.000134873
-0.000135055 0.000134873 0.00199703
0.00209207 -0.000125961 -1.06931e-05
-0.000125961 0.000551511 4.71548e-07
-1.06931e-05 4.71548e-07 0.000772309
0.00158119 0.000157751 1.94625e-05
0.000157751 0.00284592 9.06573e-06
1.94625e-05 9.06573e-06 0.0018018
-0.00368087 0.000893327 2.99895e-05
0.000893327 -0.00103963 9.80028e-06
2.99895e-05 9.80028e-06 -0.00208265
0.00375315 -0.000932886 1.97372e-05
-0.000932886 0.00131101 -4.53035e-06
1.97372e-05 -4.53035e-06 0.000542132
0.010103 -0.000430749 9.05318e-06
-0.000430749 0.00351874 -8.84818e-06
9.05318e-06 -8.84818e-06 0.00165441
0.00224664 -0.000479814 -3.31944e-06
-0.000479814 0.000553012 2.30741e-05
-3.31944e-06 2.30741e-05 0.000632174
-0.007565 0.000342531 -0.000176263
0.000342531 -0.00355065 7.38234e-07
-0.000176263 7.38234e-07 -0.00419805
0.0111695 -0.000185484 -6.57957e-05
-0.000185484 0.00337241 2.29061e-05
-6.57957e-05 2.29061e-05 0.00188495
0.00420125 -0.00105711 3.77112e-06
-0.00105711 0.000247746 -1.10976e-05
3.77112e-06 -1.10976e-05 -0.000402699
0.000721689 -0.000239854 -2.28233e-05
-0.000239854 0.000323005 1.48603e-05
-2.28233e-05 1.48603e-05 4.15309e-05
0.00175449 -0.000398981 -3.12921e-06
-0.000398981 0.00031303 1.21198e-06
-3.12921e-06 1.21198e-06 0.000292714
0.0028303 -0.000451956 1.29888e-05
-0.000451956 0.000693982 -3.13676e-06
1.29888e-05 -3.13676e-06 0.000668579
-0.00147648 -9.88633e-05 -3.72959e-06
-9.88633e-05 -0.00112424 2.11451e-07
-3.72959e-06 2.11451e-07 -0.00141983
0.00136014 -0.000417215 -3.97565e-06
-0.000417215 6.09181e-05 -1.62004e-06
-3.97565e-06 -1.62004e-06 -0.000177128
0.00218821 -0.000496034 2.67067e-06
-0.000496034 0.000334056 -5.2976e-07
2.67067e-06 -5.2976e-07 0.000142058
0.00137307 -0.000347898 -1.06629e-05
-0.000347898 0.000236978 -2.53795e-06
-1.06629e-05 -2.53795e-06 -8.08277e-05
0.00155988 -0.000418899 1.50433e-07
-0.000418899 0.000145774 3.57176e-07
1.50433e-07 3.57176e-07 -0.000113825
0.00187388 -0.000397332 -1.40819e-06
-0.000397332 0.000164547 -4.98501e-06
-1.40819e-06 -4.98501e-06 -1.97545e-05
0.00110921 -0.000336929 -4.49239e-06
-0.000336929 -3.26133e-05 -2.6482e-08
-4.49239e-06 -2.6482e-08 -0.00032696
0.00162552 -0.000364219 -4.16563e-07
-0.000364219 0.000137089 4.13327e-07
-4.16563e-07 4.13327e-07 -8.76745e-05
0.00175203 -0.000313353 -1.55915e-06
-0.000313353 0.000111128 -5.41556e-06
-1.55915e-06 -5.41556e-06 -4.32034e-05
0.00159791 -0.000248915 -3.44071e-06
-0.000248915 4.49319e-05 -3.41609e-06
-3.44071e-06 -3.41609e-06 -9.5985e-05
0.00150059 -0.000289738 -1.56169e-06
-0.000289738 7.82806e-05 -2.35049e-06
-1.56169e-06 -2.35049e-06 -0.000117402
0.00158125 -0.000295004 7.71305e-07
-0.000295004 0.000100838 1.25665e-06
7.71305e-07 1.25665e-06 -8.31506e-05
0.00134292 -0.000296841 -3.20153e-06
-0.000296841 7.91891e-05 1.19663e-07
-3.20153e-06 1.19663e-07 -0.000142736
0.00158005 -0.000344182 1.89648e-06
-0.000344182 0.000187033 -1.43385e-07
1.89648e-06 -1.43385e-07 -5.03747e-05
0.00155816 -0.000344712 1.3337e-06
-0.000344712 0.000171438 1.47152e-06
1.3337e-06 1.47152e-06 -6.02989e-05
0.00121913 -0.000248066 -8.76021e-09
-0.000248066 0.000158168 3.02978e-06
-8.76021e-09 3.02978e-06 -4.54117e-05
0.00131984 -0.000288704 2.4788e-06
-0.000288704 0.000145578 -1.05169e-06
2.4788e-06 -1.05169e-06 -7.9042e-05
0.00149721 -0.000344814 -1.33931e-06
-0.000344814 0.000219267 -2.54585e-06
-1.33931e-06 -2.54585e-06 -4.43653e-05
0.000986258 -0.000190189 -1.09133e-06
-0.000190189 0.000159474 1.62373e-06
-1.09133e-06 1.62373e-06 -1.75888e-05
0.00113632 -0.00022608 3.42198e-07
-0.00022608 0.000208654 -6.84355e-07
3.42198e-07 -6.84355e-07 1.40441e-05
0.000932078 -0.000220709 -6.49168e-07
-0.000220709 5.37654e-05 -5.1768e-06
-6.49168e-07 -5.1768e-06 -0.000132812
0.000670136 -5.70741e-05 -9.49779e-07
-5.70741e-05 4.32229e-05 4.66261e-06
-9.49779e-07 4.66261e-06 -7.67334e-05
0.000926763 -0.000145814 2.12228e-07
-0.000145814 0.000187705 8.36144e-08
2.12228e-07 8.36144e-08 2.05672e-05
0.000534205 -0.000145902 -2.69997e-06
-0.000145902 -5.30404e-05 5.43413e-07
-2.69997e-06 5.43413e-07 -0.000234489
0.000430848 6.39323e-05 2.01552e-06
6.39323e-05 -7.75499e-05 7.15934e-06
2.01552e-06 7.15934e-06 -0.000119379
0.000690919 -2.5855e-05 -3.44787e-07
-2.5855e-05 6.83016e-05 -3.9968e-07
-3.44787e-07 -3.9968e-07 -3.09171e-05
0.00104864 -9.9546e-05 6.68897e-07
-9.9546e-05 0.00030313 -1.30672e-06
6.68897e-07 -1.30672e-06 0.000146681
0.00247938 0.00012667 -7.98047e-06
0.00012667 0.0011202 1.53099e-06
-7.98047e-06 1.53099e-06 0.00111708
0.000552339 6.85041e-05 -3.08075e-07
6.85041e-05 -1.48859e-05 -2.42501e-07
-3.08075e-07 -2.42501e-07 -4.75962e-05
0.00072883 -1.07002e-06 1.68077e-06
-1.07002e-06 7.58613e-05 -3.87163e-06
1.68077e-06 -3.87163e-06 1.91465e-06
0.00241198 0.000103043 2.92176e-06
0.000103043 0.00107156 2.5171e-07
2.92176e-06 2.5171e-07 0.00107506
0.000577453 6.60683e-05 -1.06503e-06
6.60683e-05 -9.94516e-06 -5.03298e-06
-1.06503e-06 -5.03298e-06 -3.72667e-05
0.00239702 9.36141e-05 2.78793e-05
9.36141e-05 0.00105597 -3.24403e-06
2.78793e-05 -3.24403e-06 0.00106178
0.000894052 0.000102087 -3.56243e-07
0.000102087 0.00017511 8.73073e-07
-3.56243e-07 8.73073e-07 5.43909e-05
0.000764651 5.11785e-05 -1.40743e-07
5.11785e-05 0.000103404 -2.60301e-07
-1.40743e-07 -2.60301e-07 -7.87054e-06
0.000798504 3.99837e-05 -8.68493e-08
3.99837e-05 0.00013713 -2.09901e-06
-8.68493e-08 -2.09901e-06 2.02103e-05
0.00066893 -7.98386e-06 -1.14241e-06
-7.98386e-06 2.85827e-05 -3.13711e-06
-1.14241e-06 -3.13711e-06 -4.04105e-05
0.0007286 2.95858e-05 4.22665e-07
2.95858e-05 8.65191e-05 1.25216e-07
4.22665e-07 1.25216e-07 -1.68689e-05
0.000639082 3.93613e-05 7.59816e-07
3.93613e-05 3.45237e-05 9.22988e-07
7.59816e-07 9.22988e-07 -7.45838e-05
0.000569887 -3.94425e-05 -6.25087e-07
-3.94425e-05 -3.40941e-05 -5.41935e-06
-6.25087e-07 -5.41935e-06 -5.98811e-05
0.000647758 2.76978e-06 -3.48279e-08
2.76978e-06 1.42702e-05 -6.67021e-08
-3.48279e-08 -6.67021e-08 -5.07522e-05
0.000721938 4.58044e-05 1.08959e-06
4.58044e-05 7.55077e-05 1.36626e-06
1.08959e-06 1.36626e-06 -1.8689e-05
0.00257299 -7.79569e-05 -3.1689e-05
-7.79569e-05 0.00114287 -4.15417e-06
-3.1689e-05 -4.15417e-06 0.00115179
0.000564129 -3.41329e-05 -4.49595e-07
-3.41329e-05 -4.37625e-05 -3.24634e-08
-4.49595e-07 -3.24634e-08 -6.56664e-05
0.00064712 1.35828e-05 8.34732e-07
1.35828e-05 1.3312e-05 2.69002e-06
8.34732e-07 2.69002e-06 -4.75357e-05
0.00243033 -6.3561e-05 -4.14628e-06
-6.3561e-05 0.00105293 2.39337e-07
-4.14628e-06 2.39337e-07 0.00106486
0.000577623 -2.79162e-05 -2.96154e-07
-2.79162e-05 -4.16924e-05 4.5421e-06
-2.96154e-07 4.5421e-06 -5.94767e-05
0.0022959 -4.83749e-05 1.86733e-05
-4.83749e-05 0.000968723 4.54616e-06
1.86733e-05 4.54616e-06 0.000983618
-0.00483207 8.53921e-05 -8.55449e-06
8.53921e-05 0.000557214 4.72942e-05
-8.55449e-06 4.72942e-05 -0.00151487
0.00330958 -3.55228e-05 4.34164e-07
-3.55228e-05 0.00138972 1.07808e-05
4.34164e-07 1.07808e-05 0.000407776
0.000881054 -7.46072e-05 -5.17792e-06
-7.46072e-05 0.000165455 -4.90319e-06
-5.17792e-06 -4.90319e-06 2.97971e-05
0.000596189 6.04072e-05 -4.83971e-07
6.04072e-05 -6.02144e-07 2.75531e-07
-4.83971e-07 2.75531e-07 -0.000111158
0.00164478 0.000237233 -5.79845e-07
0.000237233 0.000614914 1.34211e-06
-5.79845e-07 1.34211e-06 0.000465296
0.000621407 6.12176e-05 -2.71996e-06
6.12176e-05 1.65539e-05 -1.88893e-07
-2.71996e-06 -1.88893e-07 -0.000101304
0.000996736 1.91322e-05 5.6067e-08
1.91322e-05 0.00022367 -8.10121e-08
5.6067e-08 -8.10121e-08 0.000121457
0.00119655 0.000100819 1.71684e-06
0.000100819 0.000349178 5.5723e-07
1.71684e-06 5.5723e-07 0.000233705
0.000569702 3.17131e-05 -7.58682e-07
3.17131e-05 -1.09142e-05 2.97259e-06
-7.58682e-07 2.97259e-06 -0.000119008
0.00062337 4.81563e-05 -1.13033e-06
4.81563e-05 3.57205e-05 5.12019e-07
-1.13033e-06 5.12019e-07 -8.74978e-05
0.000779317 5.79264e-05 -3.49343e-07
5.79264e-05 0.000110979 -2.12608e-07
-3.49343e-07 -2.12608e-07 -1.18287e-05
0.00087086 0.000104757 -3.96908e-07
0.000104757 0.00018564 -2.78657e-06
-3.96908e-07 -2.78657e-06 3.67508e-05
0.000444812 0.000157621 2.39177e-06
0.000157621 -0.0001084 -6.02612e-06
2.39177e-06 -6.02612e-06 -0.000208896
0.000823587 7.17259e-05 -2.86063e-07
7.17259e-05 0.000156237 -4.97934e-07
-2.86063e-07 -4.97934e-07 3.27349e-05
0.000973464 0.00010827 4.01709e-07
0.00010827 0.00027935 2.39201e-06
4.01709e-07 2.39201e-06 0.000158568
-0.00530915 -0.000716238 -0.000295065
-0.000716238 -0.00150686 1.54676e-05
-0.000295065 1.54676e-05 -0.00245478
-0.00251888 -0.000495578 0.000121584
-0.000495578 0.000936494 5.86929e-05
0.000121584 5.86929e-05 -0.000592232
0.00364426 0.000205961 -0.000108178
0.000205961 0.00160471 -6.89752e-05
-0.000108178 -6.89752e-05 -0.000641732
-0.00766394 -0.00175407 0.000363996
-0.00175407 -0.003601 0.00030471
0.000363996 0.00030471 -0.00187344
0.0111872 -0.00115272 -7.52393e-05
-0.00115272 0.00341947 9.01513e-05
-7.52393e-05 9.01513e-05 0.00335237
-0.000722571 0.000859886 1.72908e-06
0.000859886 9.01569e-05 -4.93162e-05
1.72908e-06 -4.93162e-05 -0.00360933
0.00306653 -3.83398e-05 -0.000148824
-3.83398e-05 0.000918565 4.91695e-05
-0.000148824 4.91695e-05 0.000117604
0.00278868 0.000332087 -1.17721e-05
0.000332087 0.000719707 1.84698e-05
-1.17721e-05 1.84698e-05 0.000454446
0.00810731 -0.00128983 -0.000128129
-0.00128983 0.00394056 4.75897e-05
-0.000128129 4.75897e-05 0.00399133
0.000222446 0.000730223 -5.39034e-06
0.000730223 0.000495127 -1.87264e-05
-5.39034e-06 -1.87264e-05 -0.00244686
0.00129945 0.000572318 -6.29331e-05
0.000572318 0.000181976 -6.90401e-05
-6.29331e-05 -6.90401e-05 -0.000221195
0.0039781 0.00116989 -0.000141279
0.00116989 0.000400867 -8.71567e-05
-0.000141279 -8.71567e-05 -0.00175292
0.00208076 0.000538945 1.60229e-05
0.000538945 0.00051574 -2.14675e-05
1.60229e-05 -2.14675e-05 0.000308412
0.000783189 0.00024137 -4.66106e-06
0.00024137 0.000140282 1.09194e-06
-4.66106e-06 1.09194e-06 2.75199e-05
0.00127931 8.22245e-05 -1.8155e-06
8.22245e-05 0.000460533 5.60185e-07
-1.8155e-06 5.60185e-07 0.000361493
-0.00074567 0.000177466 -3.95085e-05
0.000177466 -0.000303089 -3.92137e-05
-3.95085e-05 -3.92137e-05 -0.000819754
0.00289671 0.000373062 -1.616e-05
0.000373062 0.00143198 -1.10557e-05
-1.616e-05 -1.10557e-05 0.00125534
0.00114959 0.000498433 1.40537e-05
0.000498433 0.000109728 -3.87071e-06
1.40537e-05 -3.87071e-06 -0.0001671
0.00322947 0.000811888 8.73507e-05
0.000811888 0.000533557 2.7408e-05
8.73507e-05 2.7408e-05 0.000459925
-0.0043681 -4.6752e-05 -0.000261127
-4.6752e-05 -0.00308514 -9.27065e-08
-0.000261127 -9.27065e-08 -0.00221819
-0.00214248 9.86959e-05 0.000101533
9.86959e-05 0.00194276 1.66838e-06
0.000101533 1.66838e-06 2.26021e-05
0.00181378 -5.12726e-05 -5.93485e-05
-5.12726e-05 0.000840232 2.18609e-05
-5.93485e-05 2.18609e-05 -2.29358e-05
0.00317149 -0.000252714 -5.91673e-05
-0.000252714 0.00103376 -3.42659e-05
-5.91673e-05 -3.42659e-05 0.00122215
0.00203222 -0.000839166 -4.11657e-05
-0.000839166 0.000192198 5.70027e-06
-4.11657e-05 5.70027e-06 -0.000402678
0.001841 0.000106 -1.74186e-05
0.000106 0.00292907 3.30695e-05
-1.74186e-05 3.30695e-05 0.0019936
0.00205289 -0.000609725 0.000127602
-0.000609725 0.00012309 -0.000104066
0.000127602 -0.000104066 -0.00227135
0.0096407 0.000892908 6.34455e-05
0.000892908 0.00464316 1.27651e-05
6.34455e-05 1.27651e-05 0.0040924
0.00255811 -0.000623675 -1.80522e-05
-0.000623675 0.000562736 6.52066e-06
-1.80522e-05 6.52066e-06 0.000503861
-0.00098417 0.000464807 4.70371e-05
0.000464807 -0.000519398 -1.38938e-05
4.70371e-05 -1.38938e-05 -0.000973984
0.00394454 -0.000195305 -3.92381e-05
-0.000195305 -0.000253207 4.9193e-05
-3.92381e-05 4.9193e-05 -0.00228639
0.00585595 -0.00110556 -3.10607e-05
-0.00110556 0.00135106 1.31947e-05
-3.10607e-05 1.31947e-05 0.000681661
0.000246234 -0.000354033 3.33588e-05
-0.000354033 -0.000522539 -8.22585e-06
3.33588e-05 -8.22585e-06 -0.000740961
0.00929019 -0.000355492 2.20181e-05
-0.000355492 0.00225199 -3.05143e-05
2.20181e-05 -3.05143e-05 0.000947038
0.0040649 -0.000543814 5.45642e-05
-0.000543814 -9.09075e-06 -3.2615e-05
5.45642e-05 -3.2615e-05 -0.000154478
-0.000440434 -0.000258448 -1.87697e-05
-0.000258448 -0.000926545 6.16254e-06
-1.87697e-05 6.16254e-06 -0.000863743
0.000737937 -0.000331523 -7.0166e-06
-0.000331523 -0.000435285 -1.01628e-06
-7.0166e-06 -1.01628e-06 -0.000417999
0.00301796 -0.000473791 2.18913e-05
-0.000473791 0.000635708 -1.62911e-05
2.18913e-05 -1.62911e-05 0.000618851
0.000429375 -0.000332868 -9.95264e-06
-0.000332868 -0.000393814 -3.59912e-06
-9.95264e-06 -3.59912e-06 -0.00063313
0.00169416 -0.000452955 -1.04516e-07
-0.000452955 8.53852e-05 -2.2106e-07
-1.04516e-07 -2.2106e-07 -9.60605e-05
0.00210858 -0.000412058 -4.08941e-06
-0.000412058 0.000173136 -1.29595e-06
-4.08941e-06 -1.29595e-06 5.02695e-05
0.0012179 -0.000386267 -2.13494e-06
-0.000386267 -2.71465e-05 2.83686e-06
-2.13494e-06 2.83686e-06 -0.000287786
0.00179485 -0.000389386 -2.53329e-06
-0.000389386 0.000124759 1.68008e-07
-2.53329e-06 1.68008e-07 -6.0303e-05
0.00179109 -0.000310568 -2.13547e-06
-0.000310568 3.22799e-05 -1.61184e-06
-2.13547e-06 -1.61184e-06 -8.40243e-05
0.00139309 -0.000343181 3.27614e-06
-0.000343181 6.39101e-06 4.32083e-06
3.27614e-06 4.32083e-06 -0.000214143
0.00169172 -0.00030468 1.10825e-08
-0.00030468 8.35149e-05 6.64491e-07
1.10825e-08 6.64491e-07 -6.88627e-05
0.00179817 -0.00025653 -2.57387e-06
-0.00025653 0.000100069 -2.19472e-06
-2.57387e-06 -2.19472e-06 -7.4141e-06
0.00183936 -0.00023255 -1.87977e-06
-0.00023255 0.000183991 -1.02042e-06
-1.87977e-06 -1.02042e-06 7.08688e-05
0.00164377 -0.000248956 -2.41739e-06
-0.000248956 7.08428e-05 2.87267e-06
-2.41739e-06 2.87267e-06 -6.57656e-05
0.0017208 -0.000256247 -9.7836e-07
-0.000256247 0.000151904 -5.46906e-06
-9.7836e-07 -5.46906e-06 -2.46641e-06
0.00163319 -0.000287749 -3.61843e-06
-0.000287749 0.000180689 -1.68683e-06
-3.61843e-06 -1.68683e-06 -1.58321e-05
0.00160884 -0.00029525 1.16256e-06
-0.00029525 0.000137343 5.18095e-07
1.16256e-06 5.18095e-07 -5.84053e-05
0.00148733 -0.000281655 1.68165e-06
-0.000281655 5.09581e-05 5.78411e-06
1.68165e-06 5.78411e-06 -0.000128658
0.00129556 -0.000257586 -6.39519e-06
-0.000257586 0.000111556 1.87787e-06
-6.39519e-06 1.87787e-06 -9.07422e-05
0.00143196 -0.000303675 -9.73649e-09
-0.000303675 0.000127783 -6.39256e-08
-9.73649e-09 -6.39256e-08 -9.41762e-05
0.00158787 -0.00034121 2.8482e-06
-0.00034121 0.000197856 8.25073e-07
2.8482e-06 8.25073e-07 -3.62401e-05
0.0011188 -0.00021467 -2.62957e-06
-0.00021467 0.000159375 3.0505e-06
-2.62957e-06 3.0505e-06 -2.90803e-05
0.00124217 -0.000249076 7.02761e-07
-0.000249076 0.000169038 8.61131e-07
7.02761e-07 8.61131e-07 -3.48366e-05
0.00115759 -0.000277475 2.81276e-06
-0.000277475 5.71824e-05 -4.6785e-06
2.81276e-06 -4.6785e-06 -0.000165486
0.000722014 -0.000119296 -4.58498e-06
-0.000119296 4.24127e-05 3.98242e-06
-4.58498e-06 3.98242e-06 -9.59075e-05
0.00107798 -0.000199077 5.63577e-07
-0.000199077 0.000210366 -4.74846e-07
5.63577e-07 -4.74846e-07 3.18343e-05
0.00122314 -0.000232001 -2.50028e-07
-0.000232001 0.000253121 -2.4398e-06
-2.50028e-07 -2.4398e-06 5.84472e-05
0.000432058 1.63109e-05 -2.03089e-06
1.63109e-05 -9.28365e-05 9.24263e-06
-2.03089e-06 9.24263e-06 -0.000141441
0.000747226 -8.31152e-05 1.70263e-07
-8.31152e-05 9.14447e-05 4.72796e-07
1.70263e-07 4.72796e-07 -3.45211e-05
0.00114323 -0.000157066 4.2838e-07
-0.000157066 0.000313273 -5.0121e-07
4.2838e-07 -5.0121e-07 0.000141789
0.00278034 0.000134006 -4.2924e-05
0.000134006 0.00129932 2.28402e-06
-4.2924e-05 2.28402e-06 0.00129481
0.000546207 4.93139e-05 -3.87461e-07
4.93139e-05 -1.64182e-05 -5.92994e-07
-3.87461e-07 -5.92994e-07 -5.63882e-05
0.000852135 -7.20142e-05 3.12578e-06
-7.20142e-05 0.00016216 -4.56427e-06
3.12578e-06 -4.56427e-06 5.82558e-05
0.00171736 9.32845e-05 1.93393e-05
9.32845e-05 0.00067012 4.27144e-08
1.93393e-05 4.27144e-08 0.00066685
0.000604965 6.37108e-05 -2.26991e-07
6.37108e-05 1.46476e-05 -5.94526e-06
-2.26991e-07 -5.94526e-06 -1.74749e-05
0.00249778 0.000105709 3.49819e-05
0.000105709 0.00112203 -2.65935e-06
3.49819e-05 -2.65935e-06 0.00112512
0.000927011 0.000113138 1.90506e-06
0.000113138 0.000180138 9.75458e-07
1.90506e-06 9.75458e-07 5.96682e-05
0.000639098 5.57365e-05 -2.79693e-07
5.57365e-05 2.07896e-05 5.33267e-07
-2.79693e-07 5.33267e-07 -8.94035e-05
0.000697886 2.30855e-05 -3.11445e-07
2.30855e-05 6.27551e-05 -1.4704e-06
-3.11445e-07 -1.4704e-06 -4.80155e-05
0.000893233 7.25006e-05 5.74486e-07
7.25006e-05 0.000180272 5.70683e-07
5.74486e-07 5.70683e-07 6.52162e-05
0.000722759 1.7996e-05 1.9026e-07
1.7996e-05 7.73209e-05 4.88845e-08
1.9026e-07 4.88845e-08 -2.71041e-05
0.000671328 -7.32872e-06 -1.30915e-06
-7.32872e-06 3.36048e-05 -3.60201e-06
-1.30915e-06 -3.60201e-06 -4.09895e-05
0.000571632 -4.27266e-05 -9.21428e-07
-4.27266e-05 -2.61752e-05 -5.93549e-06
-9.21428e-07 -5.93549e-06 -5.52629e-05
0.000644439 -5.66436e-06 2.20262e-07
-5.66436e-06 1.55431e-05 -8.04865e-08
2.20262e-07 -8.04865e-08 -5.38143e-05
0.000657218 8.04453e-07 4.34365e-08
8.04453e-07 2.97462e-05 1.47245e-06
4.34365e-08 1.47245e-06 -6.17147e-05
0.00265364 -9.04185e-05 -3.87116e-05
-9.04185e-05 0.00119647 -3.75763e-06
-3.87116e-05 -3.75763e-06 0.00120287
0.000552889 -3.51941e-05 -3.39947e-07
-3.51941e-05 -4.4553e-05 -8.00849e-09
-3.39947e-07 -8.00849e-09 -6.97538e-05
0.000636672 9.27277e-06 1.47291e-06
9.27277e-06 9.74765e-06 2.84474e-06
1.47291e-06 2.84474e-06 -5.60901e-05
0.0025462 -7.7174e-05 -4.29131e-06
-7.7174e-05 0.00112664 2.78653e-07
-4.29131e-06 2.78653e-07 0.00113577
0.000558215 -3.37407e-05 -3.32765e-08
-3.37407e-05 -4.74897e-05 4.96892e-06
-3.32765e-08 4.96892e-06 -6.92004e-05
0.00241447 -6.25735e-05 2.30562e-05
-6.25735e-05 0.00104298 4.42891e-06
2.30562e-05 4.42891e-06 0.00105519
0.00039227 0.000302144 -0.000142985
0.000302144 0.00136724 5.07507e-05
-0.000142985 5.07507e-05 0.000415245
-0.00195479 -7.00151e-05 7.71894e-06
-7.00151e-05 0.00142758 1.31318e-05
7.71894e-06 1.31318e-05 -0.000580139
0.0030582 -6.6053e-05 -6.10858e-05
-6.6053e-05 0.00145836 -3.79073e-06
-6.10858e-05 -3.79073e-06 0.000431601
0.000504912 2.88507e-05 1.99618e-06
2.88507e-05 -5.52148e-05 -1.09761e-06
1.99618e-06 -1.09761e-06 -0.000160244
0.0006038 3.97068e-05 1.83042e-06
3.97068e-05 4.55044e-06 2.43529e-07
1.83042e-06 2.43529e-07 -0.000110819
0.00124013 0.000196316 -1.17026e-06
0.000196316 0.000388988 6.68334e-07
-1.17026e-06 6.68334e-07 0.000247991
0.00158752 0.000265189 1.84603e-06
0.000265189 0.000532202 -7.49822e-07
1.84603e-06 -7.49822e-07 0.000353748
0.00103694 0.000154752 -6.23467e-06
0.000154752 0.000283353 -2.36705e-06
-6.23467e-06 -2.36705e-06 0.000136305
0.00094337 9.90317e-05 1.33731e-06
9.90317e-05 0.000220726 2.65515e-06
1.33731e-06 2.65515e-06 9.28172e-05
0.000801005 6.72746e-05 3.2015e-06
6.72746e-05 0.000125145 2.02819e-06
3.2015e-06 2.02819e-06 3.57482e-06
0.000689283 0.00011936 -3.30758e-06
0.00011936 8.61698e-05 -3.08491e-06
-3.30758e-06 -3.08491e-06 -5.69485e-05
-0.000660863 7.70361e-05 -9.29304e-07
7.70361e-05 -0.000722319 -3.19572e-07
-9.29304e-07 -3.19572e-07 -0.000870533
0.00116593 0.000240041 1.44713e-06
0.000240041 0.000240852 -3.5712e-06
1.44713e-06 -3.5712e-06 0.000126428
0.00222296 0.000482503 3.63159e-06
0.000482503 0.000525505 -1.23803e-05
3.63159e-06 -1.23803e-05 0.000331446
0.000583246 0.000177683 -5.18211e-06
0.000177683 -1.33515e-05 -2.59719e-07
-5.18211e-06 -2.59719e-07 -0.000118252
0.000562964 5.91575e-05 1.45005e-06
5.91575e-05 1.27262e-05 -1.3888e-06
1.45005e-06 -1.3888e-06 -9.76177e-05
0.0109045 0.000608475 -6.94686e-05
0.000608475 0.0029781 3.66493e-05
-6.94686e-05 3.66493e-05 0.00162969
-0.000782058 -0.000567586 -0.000145535
-0.000567586 0.00124851 -4.33465e-05
-0.000145535 -4.33465e-05 0.000132578
-0.00082946 -0.000755708 6.95588e-05
-0.000755708 0.00106801 -2.27679e-05
6.95588e-05 -2.27679e-05 -0.000530102
-0.00254521 -0.000652993 -1.06513e-05
-0.000652993 -0.000888491 0.000110962
-1.06513e-05 0.000110962 -0.000928233
0.0106957 0.000640055 4.34678e-06
0.000640055 0.0050146 -5.94046e-06
4.34678e-06 -5.94046e-06 0.00193749
0.000908085 0.000318813 -5.2558e-05
0.000318813 -0.000272192 -1.94006e-05
-5.2558e-05 -1.94006e-05 -0.000383194
0.00145065 0.000597968 -2.0573e-05
0.000597968 0.000195241 -1.08317e-05
-2.0573e-05 -1.08317e-05 -0.00011316
0.00932551 0.000601444 3.25796e-05
0.000601444 0.00314548 1.96641e-05
3.25796e-05 1.96641e-05 0.00132721
0.00545277 0.00119066 -3.02904e-05
0.00119066 0.000928897 -3.89402e-05
-3.02904e-05 -3.89402e-05 0.000450347
0.00188248 0.000585548 7.16651e-07
0.000585548 0.000233758 -4.11614e-06
7.16651e-07 -4.11614e-06 7.08726e-05
0.000990258 0.000404123 5.59108e-06
0.000404123 6.72353e-05 -1.96033e-06
5.59108e-06 -1.96033e-06 -0.000131407
0.000932235 0.000229802 -1.65225e-05
0.000229802 0.000232857 1.42778e-05
-1.65225e-05 1.42778e-05 0.000125238
0.00263726 0.000646634 -3.95825e-05
0.000646634 0.000744325 -1.32311e-05
-3.95825e-05 -1.32311e-05 0.000478707
0.0022944 0.000740548 -2.92361e-06
0.000740548 1.0646e-05 1.69382e-05
-2.92361e-06 1.69382e-05 -9.41584e-05
0.000583939 -0.000300396 -2.93692e-05
-0.000300396 -0.00276417 3.15058e-06
-2.93692e-05 3.15058e-06 -0.00319012
0.00238684 -0.00033196 -1.12875e-06
-0.00033196 0.0013578 -1.81109e-05
-1.12875e-06 -1.81109e-05 0.00139055
-0.00399632 1.55894e-05 0.000126786
1.55894e-05 0.00133056 -1.00872e-05
0.000126786 -1.00872e-05 -0.000736027
0.00233811 -0.000678283 -3.51713e-05
-0.000678283 0.000381494 5.02661e-06
-3.51713e-05 5.02661e-06 0.000244753
0.00342343 -0.000986511 3.45928e-05
-0.000986511 0.000744373 -1.26955e-05
3.45928e-05 -1.26955e-05 -0.000215617
0.0012266 -0.000265947 0.000174675
-0.000265947 0.00163696 7.19039e-06
0.000174675 7.19039e-06 0.000909944
0.0114955 -0.00021987 -0.000109872
-0.00021987 0.00376715 5.89476e-05
-0.000109872 5.89476e-05 0.00213453
0.000709314 -0.000390444 -2.28236e-05
-0.000390444 -0.000359346 -2.62183e-06
-2.28236e-05 -2.62183e-06 -0.000490239
0.00806733 6.77194e-05 -3.59715e-05
6.77194e-05 0.00137964 2.59065e-05
-3.59715e-05 2.59065e-05 0.000393114
0.00446594 -0.000614799 6.65947e-05
-0.000614799 4.4031e-05 1.50321e-06
6.65947e-05 1.50321e-06 -0.000434815
0.00238902 -0.000386619 3.57699e-05
-0.000386619 0.000479292 -1.06251e-05
3.57699e-05 -1.06251e-05 0.000175848
0.00331564 -0.00020756 -8.31045e-05
-0.00020756 0.000183117 -2.84643e-06
-8.31045e-05 -2.84643e-06 5.49045e-05
-0.00102027 -0.000233439 -1.48917e-05
-0.000233439 -0.00139545 4.14344e-06
-1.48917e-05 4.14344e-06 -0.00133842
0.00153672 -0.000396955 5.26202e-07
-0.000396955 -0.000141366 -7.92137e-07
5.26202e-07 -7.92137e-07 -0.000149352
0.0022322 -0.000328828 1.17288e-05
-0.000328828 0.000118036 -8.40747e-06
1.17288e-05 -8.40747e-06 0.000142937
0.00130312 -0.000420128 -1.5931e-06
-0.000420128 -0.000109017 2.7494e-06
-1.5931e-06 2.7494e-06 -0.000283507
0.00180298 -0.000383769 -2.16126e-06
-0.000383769 2.84466e-05 -7.54733e-08
-2.16126e-06 -7.54733e-08 -9.18742e-05
0.00206757 -0.000297044 -4.38139e-07
-0.000297044 8.69553e-05 1.10392e-06
-4.38139e-07 1.10392e-06 3.3583e-05
0.00162392 -0.000374053 -2.24973e-06
-0.000374053 3.65231e-05 4.70545e-06
-2.24973e-06 4.70545e-06 -0.000148395
0.00183933 -0.000311271 5.28214e-07
-0.000311271 6.05062e-05 1.50996e-06
5.28214e-07 1.50996e-06 -5.51436e-05
0.00172374 -0.000261102 -7.39776e-07
-0.000261102 -4.92049e-06 9.33177e-07
-7.39776e-07 9.33177e-07 -8.76868e-05
0.00164592 -0.000297624 3.67538e-06
-0.000297624 6.27185e-05 5.43485e-06
3.67538e-06 5.43485e-06 -8.79662e-05
0.00174934 -0.000256331 -2.17416e-07
-0.000256331 7.10124e-05 1.15407e-06
-2.17416e-07 1.15407e-06 -3.74074e-05
0.00204809 -0.000253931 -3.61563e-08
-0.000253931 0.000264381 -3.20153e-07
-3.61563e-08 -3.20153e-07 0.000167942
0.00175607 -0.000230781 -3.72744e-06
-0.000230781 0.00012705 3.5334e-06
-3.72744e-06 3.5334e-06 1.71598e-05
0.00180917 -0.000240516 2.07125e-06
-0.000240516 0.000190198 -3.39037e-06
2.07125e-06 -3.39037e-06 6.24263e-05
0.00168183 -0.000249144 1.87865e-06
-0.000249144 9.22546e-05 7.64079e-06
1.87865e-06 7.64079e-06 -4.01306e-05
0.00172496 -0.000258299 4.69672e-07
-0.000258299 0.000154967 -7.96633e-07
4.69672e-07 -7.96633e-07 -2.02428e-07
0.00165147 -0.000249251 -1.61527e-06
-0.000249251 0.000156755 -3.02223e-06
-1.61527e-06 -3.02223e-06 -1.11632e-05
0.001453 -0.000250891 -5.59957e-06
-0.000250891 0.000139729 2.18139e-07
-5.59957e-06 2.18139e-07 -4.97503e-05
0.00166589 -0.000291259 3.78543e-07
-0.000291259 0.000201906 -5.31446e-07
3.78543e-07 -5.31446e-07 4.01386e-06
0.00171663 -0.000300935 2.85506e-06
-0.000300935 0.000196741 3.0776e-06
2.85506e-06 3.0776e-06 8.57126e-07
0.00110258 -0.000214405 -6.15671e-06
-0.000214405 6.34652e-05 2.95667e-06
-6.15671e-06 2.95667e-06 -0.000120236
0.00126573 -0.000254356 -1.54802e-06
-0.000254356 9.56552e-05 6.83715e-07
-1.54802e-06 6.83715e-07 -0.00010624
0.00151009 -0.000309711 3.71869e-06
-0.000309711 0.00017047 -7.28881e-07
3.71869e-06 -7.28881e-07 -5.15308e-05
0.000783583 -0.000142731 -5.84265e-06
-0.000142731 2.68176e-05 5.53863e-06
-5.84265e-06 5.53863e-06 -0.000120299
0.00112428 -0.000214881 7.99857e-07
-0.000214881 0.000160037 2.76594e-07
7.99857e-07 2.76594e-07 -2.80336e-05
0.0012707 -0.00025079 3.02321e-06
-0.00025079 0.000182831 -1.86474e-06
3.02321e-06 -1.86474e-06 -2.14614e-05
0.000432785 -4.8215e-05 -1.03364e-05
-4.8215e-05 -0.000115352 1.07348e-05
-1.03364e-05 1.07348e-05 -0.00017281
0.000791493 -0.000134487 -4.01148e-07
-0.000134487 8.16429e-05 8.15181e-08
-4.01148e-07 8.15181e-08 -5.88151e-05
0.00106479 -0.000195574 1.3173e-06
-0.000195574 0.000200575 -1.89792e-06
1.3173e-06 -1.89792e-06 2.3072e-05
0.0033518 0.000156221 -6.20885e-05
0.000156221 0.00163464 2.24427e-06
-6.20885e-05 2.24427e-06 0.00162461
0.000560173 -2.83779e-06 7.47049e-07
-2.83779e-06 -2.32017e-05 -3.64125e-07
7.47049e-07 -3.64125e-07 -7.19749e-05
0.000864866 -0.00013068 4.49887e-06
-0.00013068 0.000159873 -3.84164e-06
4.49887e-06 -3.84164e-06 2.89703e-05
0.00294824 0.000132366 6.20525e-06
0.000132366 0.00139483 4.07345e-07
6.20525e-06 4.07345e-07 0.00139111
0.000668995 3.23322e-05 3.63317e-06
3.23322e-05 4.98009e-05 -7.59623e-06
3.63317e-06 -7.59623e-06 1.10675e-05
0.0026763 0.000115671 4.8263e-05
0.000115671 0.00123098 -2.20987e-06
4.8263e-05 -2.20987e-06 0.00123191
0.000891875 0.000185478 2.98992e-06
0.000185478 0.000129118 -3.01183e-06
2.98992e-06 -3.01183e-06 -3.93582e-05
0.000823299 0.000137627 1.02392e-06
0.000137627 0.000128872 -1.09718e-07
1.02392e-06 -1.09718e-07 1.49385e-06
0.000507027 3.41318e-05 -5.94406e-07
3.41318e-05 -5.42639e-05 -6.22887e-07
-5.94406e-07 -6.22887e-07 -0.000169974
0.000371715 1.95924e-05 4.83696e-07
1.95924e-05 -0.000134786 1.40721e-07
4.83696e-07 1.40721e-07 -0.000238979
0.000591246 3.11756e-06 -2.26792e-07
3.11756e-06 -2.31489e-06 4.576e-07
-2.26792e-07 4.576e-07 -0.000109944
0.000659941 -4.00961e-06 -1.46868e-06
-4.00961e-06 2.92866e-05 -3.73388e-06
-1.46868e-06 -3.73388e-06 -5.33008e-05
0.000644536 -8.72685e-07 2.53341e-07
-8.72685e-07 2.48267e-05 1.71552e-06
2.53341e-07 1.71552e-06 -7.31125e-05
0.000632888 -1.25731e-05 3.25009e-07
-1.25731e-05 1.29086e-05 -1.84e-07
3.25009e-07 -1.84e-07 -6.18298e-05
0.000574301 -4.6742e-05 -1.1111e-06
-4.6742e-05 -1.6872e-05 -6.5407e-06
-1.1111e-06 -6.5407e-06 -4.95326e-05
0.00272292 -0.000102727 -4.52355e-05
-0.000102727 0.00124422 -3.25901e-06
-4.52355e-05 -3.25901e-06 0.00124803
0.000547434 -4.08663e-05 7.92182e-08
-4.08663e-05 -4.0635e-05 -2.67005e-09
7.92182e-08 -2.67005e-09 -6.93207e-05
0.000610539 -4.35695e-06 1.6892e-06
-4.35695e-06 -2.8925e-06 3.14684e-06
1.6892e-06 3.14684e-06 -7.25432e-05
0.0026492 -9.02378e-05 -4.27806e-06
-9.02378e-05 0.00119347 3.23766e-07
-4.27806e-06 3.23766e-07 0.00119984
0.000540208 -3.68619e-05 5.16249e-07
-3.68619e-05 -5.15279e-05 5.39482e-06
5.16249e-07 5.39482e-06 -7.68381e-05
0.00251729 -7.6196e-05 2.86811e-05
-7.6196e-05 0.00110903 4.23532e-06
2.86811e-05 4.23532e-06 0.00111843
0.0105486 0.000445281 0.00016626
0.000445281 0.00262166 6.95184e-05
0.00016626 6.95184e-05 0.00166515
-0.00264938 -0.00062883 -9.93403e-05
-0.00062883 -0.00193568 -1.12554e-05
-9.93403e-05 -1.12554e-05 -0.00210409
-0.00402663 0.000214202 -4.50848e-05
0.000214202 0.000479475 -3.40114e-05
-4.50848e-05 -3.40114e-05 -0.00190401
0.000637982 1.29112e-05 5.92347e-06
1.29112e-05 1.9044e-05 4.86058e-07
5.92347e-06 4.86058e-07 -9.22209e-05
0.000855071 0.000167017 -1.73384e-06
0.000167017 0.000173385 1.24997e-06
-1.73384e-06 1.24997e-06 4.02087e-05
0.00125171 0.000176326 -3.378e-07
0.000176326 0.000401923 -3.45333e-07
-3.378e-07 -3.45333e-07 0.000253129
0.00125345 0.000234307 -2.85997e-06
0.000234307 0.000343894 1.91808e-07
-2.85997e-06 1.91808e-07 0.000171674
0.00155586 0.00029006 1.96555e-05
0.00029006 0.000413006 -2.98028e-07
1.96555e-05 -2.98028e-07 0.000205669
0.00023954 0.000152722 -2.09612e-06
0.000152722 -0.00020672 -2.34515e-06
-2.09612e-06 -2.34515e-06 -0.000365043
0.000502775 0.000120529 -1.82939e-06
0.000120529 -9.68603e-06 -2.40742e-06
-1.82939e-06 -2.40742e-06 -0.000150848
0.000200401 0.000159163 6.17243e-07
0.000159163 -0.000248946 1.42607e-06
6.17243e-07 1.42607e-06 -0.000418506
0.000990179 0.000229136 -2.36164e-07
0.000229136 0.000154895 6.10595e-07
-2.36164e-07 6.10595e-07 3.64079e-05
0.000394347 0.00023212 4.17734e-06
0.00023212 -0.00028689 2.50086e-07
4.17734e-06 2.50086e-07 -0.000446816
0.00334417 0.000530165 -3.21827e-06
0.000530165 0.00113062 -4.64285e-06
-3.21827e-06 -4.64285e-06 0.000955967
0.0020701 0.000496365 -5.38445e-06
0.000496365 0.00034201 2.7287e-06
-5.38445e-06 2.7287e-06 0.000169499
0.00158235 0.000428574 3.54882e-06
0.000428574 0.000199155 -3.43573e-06
3.54882e-06 -3.43573e-06 2.18733e-05
0.000361204 0.000178977 -1.75308e-06
0.000178977 -0.000123407 4.80999e-06
-1.75308e-06 4.80999e-06 -0.000230055
0.00520589 0.000503049 -2.19448e-05
0.000503049 0.000383297 1.06595e-05
-2.19448e-05 1.06595e-05 0.000448229
0.00830966 0.000426714 6.61935e-05
0.000426714 0.00169607 3.91973e-05
6.61935e-05 3.91973e-05 0.000256176
0.00543925 -0.00109338 6.83112e-05
-0.00109338 0.00306406 -6.05833e-05
6.83112e-05 -6.05833e-05 0.00253442
0.00408771 0.00102794 0.000296189
0.00102794 0.000279683 0.000122566
0.000296189 0.000122566 -0.00265964
0.00157854 0.00055585 -1.69186e-05
0.00055585 0.000186374 1.26074e-05
-1.69186e-05 1.26074e-05 0.00019716
0.00332227 0.000925296 -7.42148e-05
0.000925296 1.70485e-06 -2.4138e-05
-7.42148e-05 -2.4138e-05 -0.000243511
0.00347317 0.000754814 4.05257e-05
0.000754814 0.000575369 2.1266e-05
4.05257e-05 2.1266e-05 0.000568658
0.00288845 0.000663705 5.21491e-06
0.000663705 0.000674638 8.0919e-06
5.21491e-06 8.0919e-06 0.000517199
0.000698025 0.00035465 -8.35342e-06
0.00035465 -3.07338e-05 1.71547e-05
-8.35342e-06 1.71547e-05 -0.000218296
0.00361444 0.000848811 -0.000114343
0.000848811 0.000643645 -3.0047e-05
-0.000114343 -3.0047e-05 0.000455394
0.00292783 -0.000204178 -8.32467e-05
-0.000204178 0.000409979 8.52262e-06
-8.32467e-05 8.52262e-06 0.000107832
0.00994857 -0.000238556 5.87508e-07
-0.000238556 0.00289877 -9.97548e-07
5.87508e-07 -9.97548e-07 0.00222754
-0.00856726 -0.00045101 0.000284769
-0.00045101 -0.00477437 -8.2646e-06
0.000284769 -8.2646e-06 -0.00448663
0.00101394 -0.000425295 -3.99508e-05
-0.000425295 -0.000322439 9.06433e-06
-3.99508e-05 9.06433e-06 -0.000385915
0.0061706 -0.000760965 0.000116727
-0.000760965 0.000911025 1.79811e-05
0.000116727 1.79811e-05 0.00045993
0.00129013 -0.000392957 2.60368e-05
-0.000392957 -0.00193189 5.73088e-05
2.60368e-05 5.73088e-05 -0.00314297
0.00148007 -0.000311846 2.07312e-05
-0.000311846 -5.51714e-05 -1.65423e-08
2.07312e-05 -1.65423e-08 -0.000221609
0.00249353 -9.12733e-05 -3.28829e-06
-9.12733e-05 -0.000349155 6.38484e-06
-3.28829e-06 6.38484e-06 -0.000509784
0.00404967 -0.000328404 1.7789e-05
-0.000328404 0.0010092 -7.91485e-06
1.7789e-05 -7.91485e-06 0.00104375
0.00345343 -7.93258e-05 7.16006e-05
-7.93258e-05 0.000801755 8.07825e-07
7.16006e-05 8.07825e-07 0.00077076
3.64501e-05 -0.000324429 -7.37789e-06
-0.000324429 -0.000927405 7.43201e-06
-7.37789e-06 7.43201e-06 -0.000922954
0.00175697 -0.000313496 -2.66967e-07
-0.000313496 -0.000136311 5.30495e-07
-2.66967e-07 5.30495e-07 -0.000110072
0.00176214 -0.000204598 1.20298e-05
-0.000204598 -0.000163594 -1.61221e-06
1.20298e-05 -1.61221e-06 -8.62252e-05
0.00156276 -0.000361351 1.51125e-06
-0.000361351 -8.75639e-05 1.04523e-06
1.51125e-06 1.04523e-06 -0.00020502
0.00193563 -0.000292186 2.14505e-06
-0.000292186 1.95237e-05 1.06471e-06
2.14505e-06 1.06471e-06 -3.46558e-05
0.00184492 -0.000228312 1.35101e-06
-0.000228312 3.18403e-05 1.46342e-06
1.35101e-06 1.46342e-06 -2.48587e-06
0.00186627 -0.000310564 5.98802e-06
-0.000310564 7.6072e-05 3.92734e-06
5.98802e-06 3.92734e-06 -3.85012e-05
0.0018389 -0.000264251 8.752e-07
-0.000264251 6.61722e-05 4.81564e-07
8.752e-07 4.81564e-07 -1.63702e-05
0.00196672 -0.00023304 -1.20269e-06
-0.00023304 0.00018291 9.98338e-07
-1.20269e-06 9.98338e-07 0.000104432
0.00169218 -0.000255353 3.18462e-06
-0.000255353 3.75651e-05 4.09707e-06
3.18462e-06 4.09707e-06 -7.1615e-05
0.00184127 -0.00024585 1.00844e-07
-0.00024585 0.00015145 6.50172e-07
1.00844e-07 6.50172e-07 5.42757e-05
0.00166953 -0.000231359 3.79688e-06
-0.000231359 8.56543e-05 -1.94932e-06
3.79688e-06 -1.94932e-06 -2.4924e-05
0.0016875 -0.000229745 -2.57781e-06
-0.000229745 7.90432e-05 7.70554e-06
-2.57781e-06 7.70554e-06 -2.77434e-05
0.00184205 -0.000239384 -2.07994e-06
-0.000239384 0.000207878 1.02136e-07
-2.07994e-06 1.02136e-07 8.35563e-05
0.00174052 -0.000228623 7.41569e-07
-0.000228623 0.000189134 -1.97185e-06
7.41569e-07 -1.97185e-06 4.08237e-05
0.00173006 -0.000259946 2.05718e-06
-0.000259946 0.000158368 3.51725e-06
2.05718e-06 3.51725e-06 2.50596e-06
0.00169621 -0.000251538 7.13977e-07
-0.000251538 0.00018375 -6.77397e-07
7.13977e-07 -6.77397e-07 1.49135e-05
0.00167391 -0.000232227 -2.89797e-06
-0.000232227 0.000234002 -9.23981e-07
-2.89797e-06 -9.23981e-07 6.36791e-05
0.000958813 -0.000188832 -8.92325e-06
-0.000188832 -7.00933e-05 2.04778e-06
-8.92325e-06 2.04778e-06 -0.00024137
0.00151446 -0.000256074 -1.02567e-06
-0.000256074 0.000178521 -1.83258e-07
-1.02567e-06 -1.83258e-07 -1.18641e-05
0.00168959 -0.00029376 3.77862e-06
-0.00029376 0.000217566 6.34164e-07
3.77862e-06 6.34164e-07 1.85286e-05
0.000965332 -0.000166244 -9.06934e-06
-0.000166244 6.34906e-05 6.02421e-06
-9.06934e-06 6.02421e-06 -8.59118e-05
0.00117914 -0.00021853 1.84612e-07
-0.00021853 0.00010646 6.03456e-07
1.84612e-07 6.03456e-07 -7.74336e-05
0.00119501 -0.000247291 2.65979e-06
-0.000247291 5.62162e-05 -7.10026e-07
2.65979e-06 -7.10026e-07 -0.000144584
0.000441006 -8.31426e-05 -1.45286e-05
-8.31426e-05 -0.000128637 1.19842e-05
-1.45286e-05 1.19842e-05 -0.000196449
0.000866798 -0.00015371 4.04763e-07
-0.00015371 7.54157e-05 1.75969e-07
4.04763e-07 1.75969e-07 -7.35575e-05
0.00113856 -0.00021579 4.50562e-06
-0.00021579 0.000166229 -2.45621e-06
4.50562e-06 -2.45621e-06 -2.1633e-05
0.00403612 0.000163962 -9.90455e-05
0.000163962 0.00203263 3.46557e-06
-9.90455e-05 3.46557e-06 0.00202022
0.000583804 -5.59512e-05 6.20494e-07
-5.59512e-05 -2.99869e-05 -2.67841e-07
6.20494e-07 -2.67841e-07 -8.96231e-05
0.00089191 -0.000150007 5.82032e-06
-0.000150007 0.000137617 -4.8092e-06
5.82032e-06 -4.8092e-06 -4.68722e-06
0.00356204 0.000134746 6.91831e-06
0.000134746 0.00175155 3.14802e-07
6.91831e-06 3.14802e-07 0.00174678
0.000691628 -1.25816e-05 8.24727e-06
-1.25816e-05 4.9268e-05 -9.06749e-06
8.24727e-06 -9.06749e-06 1.41727e-07
0.00311079 0.000110426 8.38083e-05
0.000110426 0.00148437 -3.00836e-06
8.38083e-05 -3.00836e-06 0.00148617
0.00100677 0.000219434 -2.29832e-06
0.000219434 0.000106413 -3.89867e-06
-2.29832e-06 -3.89867e-06 -8.94476e-05
0.00128425 0.000219071 1.6788e-07
0.000219071 0.000361399 -1.45894e-07
1.6788e-07 -1.45894e-07 0.000186597
0.000714466 0.000126258 -6.15799e-07
0.000126258 4.44491e-05 -4.95657e-06
-6.15799e-07 -4.95657e-06 -0.000103713
0.00067346 0.000149403 -8.67927e-07
0.000149403 5.19271e-05 3.39457e-07
-8.67927e-07 3.39457e-07 -8.1054e-05
0.00055169 5.0398e-05 -1.48658e-07
5.0398e-05 -2.79818e-05 -3.3969e-07
-1.48658e-07 -3.3969e-07 -0.000148055
0.000754352 6.12333e-05 -2.45858e-06
6.12333e-05 9.39927e-05 -3.5527e-06
-2.45858e-06 -3.5527e-06 -9.90262e-06
0.00048869 -1.28871e-05 4.47726e-07
-1.28871e-05 -6.46933e-05 1.48578e-06
4.47726e-07 1.48578e-06 -0.000169355
0.000643678 -6.1576e-06 2.65671e-07
-6.1576e-06 2.25195e-05 -2.65419e-07
2.65671e-07 -2.65419e-07 -6.09773e-05
0.000577314 -4.39799e-05 -1.59632e-06
-4.39799e-05 -9.41348e-06 -7.2248e-06
-1.59632e-06 -7.2248e-06 -4.59601e-05
0.000598014 -1.58658e-05 1.31137e-06
-1.58658e-05 -6.22431e-06 3.51684e-06
1.31137e-06 3.51684e-06 -8.08622e-05
0.000542196 -4.48159e-05 2.32759e-07
-4.48159e-05 -3.6057e-05 -4.32128e-08
2.32759e-07 -4.32128e-08 -6.82316e-05
0.00280024 -0.000114114 -5.28251e-05
-0.000114114 0.00129679 -2.66941e-06
-5.28251e-05 -2.66941e-06 0.00129809
0.00271643 -0.000102614 -3.25265e-06
-0.000102614 0.00123995 3.20335e-07
-3.25265e-06 3.20335e-07 0.00124365
0.000529698 -3.51106e-05 1.87574e-06
-3.51106e-05 -5.20567e-05 5.84525e-06
1.87574e-06 5.84525e-06 -7.99252e-05
0.00261979 -8.94648e-05 3.5037e-05
-8.94648e-05 0.00117581 3.92562e-06
3.5037e-05 3.92562e-06 0.00118228
0.00303273 -6.26662e-06 5.91378e-06
-6.26662e-06 -0.000234001 1.80707e-05
5.91378e-06 1.80707e-05 -0.000199987
0.00239483 -0.000525044 4.91505e-05
-0.000525044 -0.00174266 2.31422e-05
4.91505e-05 2.31422e-05 -0.00281543
0.00619827 -0.000712845 -4.97133e-05
-0.000712845 0.00238047 -5.89494e-05
-4.97133e-05 -5.89494e-05 0.00263218
0.00140677 0.000289881 8.81417e-06
0.000289881 0.000179383 5.32138e-06
8.81417e-06 5.32138e-06 -3.90427e-05
0.00146355 0.000203275 2.72025e-06
0.000203275 0.00052069 1.40845e-06
2.72025e-06 1.40845e-06 0.000368519
0.000978324 0.000209094 -4.08145e-06
0.000209094 0.000190303 2.4154e-06
-4.08145e-06 2.4154e-06 2.31452e-05
0.000720078 0.000198876 1.1313e-06
0.000198876 6.0788e-05 1.83853e-06
1.1313e-06 1.83853e-06 -0.000108231
0.00123285 0.000265017 -4.95099e-07
0.000265017 0.000230999 -3.61337e-06
-4.95099e-07 -3.61337e-06 2.568e-05
0.000676824 0.000242025 2.37541e-06
0.000242025 -0.000126446 4.86906e-07
2.37541e-06 4.86906e-07 -0.000299355
0.00101495 0.000238057 -2.23865e-06
0.000238057 0.000199232 -1.89412e-06
-2.23865e-06 -1.89412e-06 8.62314e-06
0.000674666 0.000215877 2.28296e-06
0.000215877 -7.79785e-06 4.51668e-06
2.28296e-06 4.51668e-06 -0.000129679
0.00125369 0.000306495 2.19606e-06
0.000306495 0.00018432 -4.28286e-07
2.19606e-06 -4.28286e-07 1.44395e-05
0.00233237 0.000451527 2.80338e-06
0.000451527 0.000580269 6.73992e-06
2.80338e-06 6.73992e-06 0.00041531
0.00166462 0.000429756 -7.83734e-08
0.000429756 0.000117112 -6.21465e-07
-7.83734e-08 -6.21465e-07 -6.24389e-05
0.00156682 0.000396857 3.29464e-06
0.000396857 7.5107e-05 8.48396e-06
3.29464e-06 8.48396e-06 -4.39367e-05
0.00114551 0.000429365 -2.20664e-06
0.000429365 -0.000149662 -2.99979e-06
-2.20664e-06 -2.99979e-06 -0.000316173
0.000562187 0.000340421 2.32174e-07
0.000340421 -0.000325755 3.15923e-06
2.32174e-07 3.15923e-06 -0.000480659
0.00111025 0.000292572 2.13892e-05
0.000292572 -0.000283077 2.38215e-05
2.13892e-05 2.38215e-05 -0.000260932
0.00509714 0.000627738 -4.18149e-05
0.000627738 0.000168129 -9.40725e-06
-4.18149e-05 -9.40725e-06 0.000134926
0.00203036 0.000221536 0.000220346
0.000221536 -0.00149532 2.3131e-05
0.000220346 2.3131e-05 -0.00303059
0.000831538 0.000708008 3.70482e-06
0.000708008 -0.00102709 -1.34836e-05
3.70482e-06 -1.34836e-05 -0.00131175
0.00228406 0.000601286 -2.5182e-05
0.000601286 0.000232943 -2.09205e-06
-2.5182e-05 -2.09205e-06 0.000199113
0.00198107 0.000572584 -5.02887e-05
0.000572584 0.00023771 -2.05413e-05
-5.02887e-05 -2.05413e-05 8.00818e-05
0.00235931 -0.000168777 6.63624e-06
-0.000168777 0.000149488 1.02964e-06
6.63624e-06 1.02964e-06 0.000102211
0.00120507 -1.86766e-05 -2.3519e-06
-1.86766e-05 -0.000261038 4.75555e-06
-2.3519e-06 4.75555e-06 -0.000452939
0.000815465 0.000591734 8.21469e-05
0.000591734 -0.00265936 -2.64063e-05
8.21469e-05 -2.64063e-05 -0.00328325
0.00020923 -0.000207233 -1.16043e-05
-0.000207233 -0.000742035 2.60847e-05
-1.16043e-05 2.60847e-05 -0.000767001
0.00305382 -9.28563e-05 -2.37732e-05
-9.28563e-05 -0.000187755 3.3525e-05
-2.37732e-05 3.3525e-05 -0.000501208
0.00201581 -0.000228691 -1.12928e-05
-0.000228691 -2.6199e-05 4.082e-06
-1.12928e-05 4.082e-06 3.17992e-05
0.00282514 -0.000112505 -5.77757e-06
-0.000112505 0.00044168 -2.88084e-06
-5.77757e-06 -2.88084e-06 0.000394253
0.00157969 -0.000132189 2.70464e-05
-0.000132189 -0.000255272 -4.93642e-07
2.70464e-05 -4.93642e-07 -0.00017537
0.00295623 -6.30743e-05 2.34299e-05
-6.30743e-05 0.000811121 2.16575e-06
2.34299e-05 2.16575e-06 0.000769282
0.00127111 -0.000297012 -1.37118e-05
-0.000297012 -0.000393512 6.98676e-06
-1.37118e-05 6.98676e-06 -0.000368197
0.00174643 -0.000214585 1.0684e-06
-0.000214585 -0.00018722 2.08105e-06
1.0684e-06 2.08105e-06 -0.000121803
0.00190864 -0.000218807 1.84117e-06
-0.000218807 -1.70911e-05 4.415e-07
1.84117e-06 4.415e-07 1.34046e-05
0.00177481 -0.000285419 2.51748e-06
-0.000285419 -6.0783e-05 1.67521e-06
2.51748e-06 1.67521e-06 -0.000116221
0.00183546 -0.000237777 4.49415e-07
-0.000237777 2.24118e-05 8.25681e-08
4.49415e-07 8.25681e-08 -1.76464e-05
0.00189456 -0.00022166 -2.49525e-07
-0.00022166 9.95021e-05 9.15025e-07
-2.49525e-07 9.15025e-07 4.00244e-05
0.00194953 -0.000268023 1.13216e-06
-0.000268023 0.000134996 1.04288e-06
1.13216e-06 1.04288e-06 5.20352e-05
0.00186812 -0.000236724 -6.94278e-07
-0.000236724 0.00012873 5.45003e-08
-6.94278e-07 5.45003e-08 4.75998e-05
0.00168377 -0.000209269 1.35769e-06
-0.000209269 6.87574e-05 7.58952e-08
1.35769e-06 7.58952e-08 -2.78589e-05
0.00164043 -0.000237925 -1.00809e-06
-0.000237925 4.18293e-05 1.98351e-06
-1.00809e-06 1.98351e-06 -5.61209e-05
0.0016905 -0.00023231 5.53128e-07
-0.00023231 0.000100427 -7.38063e-07
5.53128e-07 -7.38063e-07 -1.03578e-05
0.00167276 -0.000217013 2.05666e-06
-0.000217013 0.000116719 -1.91786e-06
2.05666e-06 -1.91786e-06 -1.67182e-05
0.00187222 -0.000238001 -4.90561e-06
-0.000238001 0.000223894 5.10051e-06
-4.90561e-06 5.10051e-06 0.000103072
0.00179476 -0.000229778 -1.02377e-06
-0.000229778 0.000217739 1.52003e-07
-1.02377e-06 1.52003e-07 7.23911e-05
0.00156936 -0.000202194 -2.05671e-06
-0.000202194 0.000150647 -5.11804e-07
-2.05671e-06 -5.11804e-07 -8.2598e-06
0.00174121 -0.000254112 2.86207e-06
-0.000254112 0.00021102 1.38374e-06
2.86207e-06 1.38374e-06 4.11897e-05
0.00160604 -0.000229535 1.00248e-06
-0.000229535 0.000194566 -6.11406e-07
1.00248e-06 -6.11406e-07 2.33423e-05
0.00127089 -0.000184447 -7.31791e-06
-0.000184447 8.26451e-05 2.13334e-06
-7.31791e-06 2.13334e-06 -7.8602e-05
0.000989175 -0.000162464 -1.13212e-05
-0.000162464 3.09171e-05 5.25422e-06
-1.13212e-05 5.25422e-06 -0.000110603
0.00112762 -0.0001996 -2.2159e-06
-0.0001996 2.77273e-05 4.11347e-07
-2.2159e-06 4.11347e-07 -0.000144418
0.00158488 -0.000262304 3.73214e-06
-0.000262304 0.00022279 -5.63958e-07
3.73214e-06 -5.63958e-07 3.12581e-05
0.000539919 -0.000156263 -2.00633e-05
-0.000156263 -8.78996e-05 1.30196e-05
-2.00633e-05 1.30196e-05 -0.00016985
0.00090463 -0.000163887 7.03859e-07
-0.000163887 3.08169e-05 5.36213e-07
7.03859e-07 5.36213e-07 -0.000118551
0.00127814 -0.000224602 6.99576e-06
-0.000224602 0.000161791 -1.78957e-06
6.99576e-06 -1.78957e-06 -2.25385e-05
0.00456993 0.000183091 -0.000117341
0.000183091 0.00235147 6.19006e-06
-0.000117341 6.19006e-06 0.00233151
0.000600201 -0.000119858 1.52068e-07
-0.000119858 -3.5116e-05 -1.33214e-08
1.52068e-07 -1.33214e-08 -0.000109852
0.000885096 -0.000161294 7.59285e-06
-0.000161294 8.66383e-05 -5.63322e-06
7.59285e-06 -5.63322e-06 -6.38244e-05
0.00418271 0.000142262 6.24957e-06
0.000142262 0.00211368 6.92807e-07
6.24957e-06 6.92807e-07 0.00210491
0.000727923 -7.46751e-05 1.34621e-05
-7.46751e-05 5.18848e-05 -1.1129e-05
1.34621e-05 -1.1129e-05 -1.09012e-05
0.00373916 0.000108687 0.000114648
0.000108687 0.00184868 -5.37335e-06
0.000114648 -5.37335e-06 0.00184857
0.00107589 0.000239658 -5.37839e-06
0.000239658 2.44285e-05 -1.59299e-06
-5.37839e-06 -1.59299e-06 -0.000175763
0.00117163 0.000232564 -4.2696e-07
0.000232564 0.000207513 -4.94644e-08
-4.2696e-07 -4.94644e-08 9.6934e-06
0.00108664 0.000197233 -2.11039e-06
0.000197233 0.000209414 -2.81391e-06
-2.11039e-06 -2.81391e-06 3.07507e-05
0.00165904 0.000251041 -2.02973e-06
0.000251041 0.00058312 1.9397e-06
-2.02973e-06 1.9397e-06 0.000402293
0.000832479 0.00013638 -1.10181e-06
0.00013638 0.000112514 -1.91795e-06
-1.10181e-06 -1.91795e-06 -3.59916e-05
0.000872688 0.000106482 -3.68283e-06
0.000106482 0.00015698 -4.15925e-06
-3.68283e-06 -4.15925e-06 3.52647e-05
0.000608836 7.05099e-05 5.67259e-08
7.05099e-05 2.89108e-06 3.13546e-07
5.67259e-08 3.13546e-07 -0.000120252
0.000660012 1.81563e-05 -5.85e-07
1.81563e-05 3.32014e-05 -1.12258e-07
-5.85e-07 -1.12258e-07 -6.2892e-05
0.000583582 -2.9843e-05 -3.6236e-06
-2.9843e-05 -4.90872e-06 -7.88231e-06
-3.6236e-06 -7.88231e-06 -4.66855e-05
0.000583376 -2.12654e-05 1.15492e-06
-2.12654e-05 -1.11715e-05 3.80869e-06
1.15492e-06 3.80869e-06 -9.37433e-05
0.000528481 -4.75985e-05 3.92835e-07
-4.75985e-05 -3.66061e-05 -1.56606e-07
3.92835e-07 -1.56606e-07 -7.33858e-05
0.00293547 -0.000123287 -6.44569e-05
-0.000123287 0.00138231 -2.1445e-06
-6.44569e-05 -2.1445e-06 0.0013814
0.000512762 -4.29249e-05 1.72983e-06
-4.29249e-05 -5.37108e-05 6.36973e-06
1.72983e-06 6.36973e-06 -8.53648e-05
0.00278294 -0.000114886 -2.48765e-06
-0.000114886 0.00128641 2.96956e-07
-2.48765e-06 2.96956e-07 0.00128732
0.00271244 -0.000102174 4.21896e-05
-0.000102174 0.0012372 3.51558e-06
4.21896e-05 3.51558e-06 0.00124087
0.00029397 4.03369e-05 1.27952e-05
4.03369e-05 -0.000826541 7.43303e-06
1.27952e-05 7.43303e-06 -0.000802564
0.00422041 1.83305e-05 4.57118e-05
1.83305e-05 0.000240529 5.19261e-06
4.57118e-05 5.19261e-06 0.000117051
0.00975165 0.000532105 -8.24009e-05
0.000532105 0.00283967 -3.82426e-05
-8.24009e-05 -3.82426e-05 0.00170395
0.000313403 0.000199297 1.57301e-06
0.000199297 -0.000454967 2.28271e-06
1.57301e-06 2.28271e-06 -0.000638147
0.00170642 0.000315003 1.87605e-06
0.000315003 0.000240811 3.0893e-06
1.87605e-06 3.0893e-06 4.72171e-05
0.00106057 0.000267839 -3.37183e-06
0.000267839 -1.9559e-05 6.13697e-07
-3.37183e-06 6.13697e-07 -0.000233996
0.00113626 0.000238952 -1.02312e-07
0.000238952 0.00029117 1.73178e-06
-1.02312e-07 1.73178e-06 0.000112593
0.000840612 0.000233079 -1.47522e-06
0.000233079 8.6091e-06 -1.98214e-08
-1.47522e-06 -1.98214e-08 -0.000193606
0.00130449 0.000299602 7.32251e-06
0.000299602 0.000208962 1.21364e-06
7.32251e-06 1.21364e-06 2.5232e-05
0.0021572 0.0004318 -6.48866e-06
0.0004318 0.000388079 -3.28476e-06
-6.48866e-06 -3.28476e-06 0.000202979
0.00212872 0.000382241 -2.81583e-06
0.000382241 0.000663847 1.43282e-06
-2.81583e-06 1.43282e-06 0.000483782
0.00135 0.000375784 1.03854e-05
0.000375784 4.21224e-05 1.88068e-05
1.03854e-05 1.88068e-05 -0.000113741
0.00209304 0.000456432 -2.51684e-06
0.000456432 0.000354318 7.4789e-07
-2.51684e-06 7.4789e-07 0.000174778
0.00200438 0.000413017 -1.33778e-05
0.000413017 0.000207796 1.35294e-06
-1.33778e-05 1.35294e-06 5.56895e-05
0.000709109 0.000194593 1.27298e-05
0.000194593 -0.000461868 5.95286e-06
1.27298e-05 5.95286e-06 -0.000510289
0.00116825 0.000366549 9.1643e-06
0.000366549 -0.000127032 2.18081e-07
9.1643e-06 2.18081e-07 -0.000245714
0.001111 0.000421071 -6.58686e-06
0.000421071 -0.000177022 -6.89601e-06
-6.58686e-06 -6.89601e-06 -0.000343606
0.00155524 0.000296475 2.75677e-06
0.000296475 -5.9043e-05 5.00309e-06
2.75677e-06 5.00309e-06 -5.99296e-05
0.00509904 0.000407394 2.98373e-05
0.000407394 0.000121337 -1.47103e-05
2.98373e-05 -1.47103e-05 -7.43973e-05
0.00241399 0.000531552 1.16352e-05
0.000531552 0.00053791 -2.26354e-05
1.16352e-05 -2.26354e-05 0.00050332
0.00145477 -3.9866e-05 2.36761e-05
-3.9866e-05 -2.81486e-06 1.26628e-06
2.36761e-05 1.26628e-06 -1.94108e-05
0.00211742 -0.000102248 -2.0967e-05
-0.000102248 7.25507e-05 -8.11612e-07
-2.0967e-05 -8.11612e-07 2.34457e-05
0.00127035 0.000156816 2.54385e-05
0.000156816 -0.000690092 -7.05503e-06
2.54385e-05 -7.05503e-06 -0.000935942
0.000483657 -0.000174437 -2.7177e-05
-0.000174437 -0.000806407 2.08559e-05
-2.7177e-05 2.08559e-05 -0.000737095
0.00305822 -0.000165591 -8.89367e-05
-0.000165591 0.000526725 -4.60781e-07
-8.89367e-05 -4.60781e-07 0.000495453
0.00187517 -0.000162478 2.14214e-06
-0.000162478 -6.7208e-05 -1.90456e-06
2.14214e-06 -1.90456e-06 1.03151e-05
0.00228291 -6.48471e-05 -8.1332e-06
-6.48471e-05 0.000378911 1.95555e-07
-8.1332e-06 1.95555e-07 0.000337471
0.00196355 -0.000168941 2.38749e-06
-0.000168941 2.5764e-06 1.27792e-06
2.38749e-06 1.27792e-06 8.47716e-06
0.00219763 -2.85851e-05 4.46036e-06
-2.85851e-05 0.000187356 7.49201e-07
4.46036e-06 7.49201e-07 0.00015809
0.00176099 -0.000226822 -5.62537e-06
-0.000226822 -0.000201226 2.29892e-06
-5.62537e-06 2.29892e-06 -0.00014383
0.0019149 -0.000214148 -1.83484e-06
-0.000214148 -5.75072e-06 -6.89013e-08
-1.83484e-06 -6.89013e-08 1.86256e-05
0.00194985 -0.000179873 -1.96385e-06
-0.000179873 4.59169e-05 4.47752e-07
-1.96385e-06 4.47752e-07 1.60938e-05
0.00185565 -0.000247342 -1.75579e-06
-0.000247342 2.90771e-05 -8.43804e-07
-1.75579e-06 -8.43804e-07 -1.60935e-05
0.00180087 -0.000216693 1.07578e-07
-0.000216693 5.35868e-05 -2.58651e-07
1.07578e-07 -2.58651e-07 -1.03102e-05
0.00184579 -0.00019136 8.3459e-08
-0.00019136 0.000106694 1.68669e-07
8.3459e-08 1.68669e-07 2.45426e-05
0.00177686 -0.000240274 -2.41428e-06
-0.000240274 7.90035e-05 -5.28769e-07
-2.41428e-06 -5.28769e-07 -4.4522e-06
0.00172413 -0.000210506 3.10348e-07
-0.000210506 9.07232e-05 -8.52957e-08
3.10348e-07 -8.52957e-08 -5.96352e-06
0.00171633 -0.000195948 1.92638e-06
-0.000195948 0.000103975 -8.20397e-07
1.92638e-06 -8.20397e-07 -1.61168e-05
0.00170856 -0.000233108 -2.23438e-06
-0.000233108 0.000113791 4.1923e-07
-2.23438e-06 4.1923e-07 2.81376e-06
0.00170012 -0.000217393 -6.6388e-08
-0.000217393 0.000133366 -3.66056e-07
-6.6388e-08 -3.66056e-07 7.90313e-08
0.00155726 -0.000187307 -9.91231e-07
-0.000187307 0.000120139 -4.70463e-07
-9.91231e-07 -4.70463e-07 -3.08145e-05
0.00184519 -0.000230832 -1.60105e-06
-0.000230832 0.000244123 3.15298e-06
-1.60105e-06 3.15298e-06 0.000101742
0.0015714 -0.000202856 -5.47171e-07
-0.000202856 0.000151497 -1.32101e-07
-5.47171e-07 -1.32101e-07 -6.56571e-06
0.00127102 -0.000164475 -6.64327e-06
-0.000164475 6.59039e-05 1.93126e-06
-6.64327e-06 1.93126e-06 -8.90996e-05
0.00154146 -0.000227058 4.83745e-06
-0.000227058 0.000156851 -2.8968e-07
4.83745e-06 -2.8968e-07 -1.52956e-05
0.00121003 -0.000181799 -6.56732e-08
-0.000181799 4.74793e-05 -3.52825e-08
-6.56732e-08 -3.52825e-08 -0.000114042
0.00099992 -0.000146096 -1.206e-05
-0.000146096 1.72254e-05 5.58083e-06
-1.206e-05 5.58083e-06 -0.000116881
0.00047483 -0.000154606 -1.97039e-05
-0.000154606 -0.000137437 1.23924e-05
-1.97039e-05 1.23924e-05 -0.000222978
0.000954554 -0.000159603 1.50773e-07
-0.000159603 1.22557e-05 -6.95545e-08
1.50773e-07 -6.95545e-08 -0.000129067
0.00128353 -0.000209411 5.39955e-06
-0.000209411 0.000118355 -1.61201e-06
5.39955e-06 -1.61201e-06 -5.45421e-05
0.0050631 0.000161819 -0.000137781
0.000161819 0.00263097 7.77964e-06
-0.000137781 7.77964e-06 0.00261324
0.00058947 -0.000147017 -1.90841e-06
-0.000147017 -6.21274e-05 4.91422e-07
-1.90841e-06 4.91422e-07 -0.00014401
0.000857081 -0.000163485 9.6045e-06
-0.000163485 6.87827e-06 -4.89704e-06
9.6045e-06 -4.89704e-06 -0.000142786
0.00475232 0.000162659 1.15406e-05
0.000162659 0.00245358 1.37603e-06
1.15406e-05 1.37603e-06 0.00243612
0.000746644 -0.0001247 1.84483e-05
-0.0001247 4.35425e-05 -1.25646e-05
1.84483e-05 -1.25646e-05 -3.1859e-05
0.00434977 0.000120133 0.000134937
0.000120133 0.0022051 -7.15672e-06
0.000134937 -7.15672e-06 0.00219965
0.00150901 0.000265957 -4.98618e-06
0.000265957 0.000218825 1.37047e-06
-4.98618e-06 1.37047e-06 2.32072e-05
0.00109976 0.000241457 -3.57102e-07
0.000241457 3.40374e-05 1.35188e-06
-3.57102e-07 1.35188e-06 -0.000167725
0.0009972 0.00020058 -5.79632e-06
0.00020058 6.01657e-05 -1.27601e-06
-5.79632e-06 -1.27601e-06 -0.000124451
0.00133373 0.000245655 -6.74302e-07
0.000245655 0.000306887 1.94775e-06
-6.74302e-07 1.94775e-06 0.000107146
0.00102607 0.000191151 -1.38891e-06
0.000191151 0.000177419 8.43448e-08
-1.38891e-06 8.43448e-08 -5.8458e-07
0.000933259 0.000148962 -5.53328e-06
0.000148962 0.000166797 -5.23308e-06
-5.53328e-06 -5.23308e-06 2.4876e-05
0.00091719 0.000143153 -1.2611e-07
0.000143153 0.0001614 3.21373e-07
-1.2611e-07 3.21373e-07 1.3003e-05
0.000741132 8.24722e-05 -3.06836e-07
8.24722e-05 8.31635e-05 -1.75623e-07
-3.06836e-07 -1.75623e-07 -3.56355e-05
0.000672248 1.38794e-05 -8.19528e-06
1.38794e-05 3.95923e-05 -9.3598e-06
-8.19528e-06 -9.3598e-06 -1.17778e-05
0.000603706 -1.20132e-05 1.04296e-06
-1.20132e-05 5.15853e-07 3.71578e-06
1.04296e-06 3.71578e-06 -9.26254e-05
0.00051914 -3.80321e-05 -5.93287e-08
-3.80321e-05 -4.00006e-05 -2.49436e-07
-5.93287e-08 -2.49436e-07 -8.21084e-05
0.00319989 -0.000126823 -8.42399e-05
-0.000126823 0.00154153 -2.18715e-06
-8.42399e-05 -2.18715e-06 0.00153924
0.00048994 -4.87586e-05 1.39661e-06
-4.87586e-05 -5.86081e-05 6.99038e-06
1.39661e-06 6.99038e-06 -9.52317e-05
0.00289272 -0.000127123 -2.35407e-06
-0.000127123 0.00135788 2.91174e-07
-2.35407e-06 2.91174e-07 0.00135577
0.0027721 -0.000114578 4.8028e-05
-0.000114578 0.00127972 3.00996e-06
4.8028e-05 3.00996e-06 0.00128056
0.000743832 4.94178e-05 1.31561e-05
4.94178e-05 -0.000446072 -4.80071e-06
1.31561e-05 -4.80071e-06 -0.000437387
0.00192695 4.80621e-06 -6.99688e-06
4.80621e-06 -0.000122467 1.70653e-07
-6.99688e-06 1.70653e-07 -9.57029e-05
0.00420898 1.07775e-05 0.000126356
1.07775e-05 4.85374e-06 2.05357e-05
0.000126356 2.05357e-05 0.000165305
0.00187825 0.000357998 -1.90814e-06
0.000357998 0.000250444 1.40827e-06
-1.90814e-06 1.40827e-06 7.10093e-05
0.000779123 0.000254301 1.17557e-06
0.000254301 -0.000196225 -1.44205e-06
1.17557e-06 -1.44205e-06 -0.000384718
0.00191254 0.000315468 -5.8312e-07
0.000315468 0.000253072 3.52085e-06
-5.8312e-07 3.52085e-06 8.40949e-05
0.00173216 0.000316259 1.25371e-06
0.000316259 0.000257028 5.47068e-07
1.25371e-06 5.47068e-07 6.34496e-05
0.000761696 0.000251313 -3.87549e-07
0.000251313 -0.00019322 3.08644e-06
-3.87549e-07 3.08644e-06 -0.000404507
0.00185927 0.000343677 -4.66694e-06
0.000343677 0.000117643 1.53504e-06
-4.66694e-06 1.53504e-06 -3.4997e-05
0.00190326 0.000355034 -2.30055e-06
0.000355034 0.000529182 -3.84087e-07
-2.30055e-06 -3.84087e-07 0.000334901
0.00212263 0.000424639 -4.15961e-08
0.000424639 0.000374357 -1.17056e-06
-4.15961e-08 -1.17056e-06 0.000188151
0.00180213 0.000241883 -1.01232e-05
0.000241883 1.40754e-05 -2.16912e-07
-1.01232e-05 -2.16912e-07 -8.60808e-05
0.00249946 0.000482605 5.10817e-06
0.000482605 0.000580461 3.80146e-06
5.10817e-06 3.80146e-06 0.000400933
0.0019513 0.000411558 -1.39391e-06
0.000411558 0.000173258 3.23569e-07
-1.39391e-06 3.23569e-07 1.93001e-05
0.000898396 0.000209006 2.63373e-06
0.000209006 -0.00032661 2.48806e-06
2.63373e-06 2.48806e-06 -0.000383722
-2.52486e-05 0.000289823 1.15159e-06
0.000289823 -0.000739657 -3.49684e-06
1.15159e-06 -3.49684e-06 -0.000854551
0.00163107 0.000295654 -3.9414e-05
0.000295654 -3.27207e-05 -1.77917e-05
-3.9414e-05 -1.77917e-05 -4.66089e-05
0.00177931 3.29196e-05 1.6073e-06
3.29196e-05 -4.9433e-05 -3.80286e-07
1.6073e-06 -3.80286e-07 -8.53371e-05
0.00208166 -2.60126e-05 4.87425e-07
-2.60126e-05 0.000369749 2.84954e-06
4.87425e-07 2.84954e-06 0.000357402
0.00139482 -1.18488e-05 -5.9819e-05
-1.18488e-05 -0.000246271 -9.02457e-06
-5.9819e-05 -9.02457e-06 -0.000347232
0.00216007 -0.000190539 -2.76241e-05
-0.000190539 0.000112502 6.16298e-07
-2.76241e-05 6.16298e-07 0.000185128
0.00127041 -7.06063e-05 -7.91561e-06
-7.06063e-05 -0.000242713 -5.81154e-07
-7.91561e-06 -5.81154e-07 -0.000281651
0.00190219 -0.000161483 3.22035e-07
-0.000161483 -2.89835e-05 -3.86208e-07
3.22035e-07 -3.86208e-07 -1.79726e-05
0.00200948 -2.88755e-05 -3.38668e-06
-2.88755e-05 5.73811e-05 6.96042e-07
-3.38668e-06 6.96042e-07 3.38994e-05
0.00202137 -6.00988e-05 -5.77668e-06
-6.00988e-05 5.72368e-05 -5.17768e-07
-5.77668e-06 -5.17768e-07 3.54275e-05
0.0019155 -0.000208697 -3.50619e-06
-0.000208697 5.30522e-06 -7.74533e-07
-3.50619e-06 -7.74533e-07 2.26737e-05
0.00190833 -0.000172476 5.06357e-07
-0.000172476 3.24464e-05 -1.50052e-07
5.06357e-07 -1.50052e-07 5.21576e-07
0.00196989 -0.000139227 -4.1202e-07
-0.000139227 0.000102392 -3.18871e-07
-4.1202e-07 -3.18871e-07 4.94493e-05
0.00170802 -0.000212215 -4.27867e-07
-0.000212215 7.62968e-06 -1.0051e-06
-4.27867e-07 -1.0051e-06 -6.0667e-05
0.00177035 -0.000188022 -1.45937e-08
-0.000188022 6.62801e-05 -6.87007e-08
-1.45937e-08 -6.87007e-08 -1.68054e-05
0.00174863 -0.000159953 1.43474e-06
-0.000159953 8.40862e-05 -4.28389e-07
1.43474e-06 -4.28389e-07 -2.37464e-05
0.00177071 -0.000211919 -6.99758e-07
-0.000211919 0.000115594 -1.7156e-07
-6.99758e-07 -1.7156e-07 1.88439e-05
0.00174321 -0.000195718 3.84507e-08
-0.000195718 0.000120867 -1.20588e-07
3.84507e-08 -1.20588e-07 9.06281e-07
0.00162065 -0.000168879 -4.53216e-08
-0.000168879 0.000122327 -4.82438e-07
-4.53216e-08 -4.82438e-07 -1.93466e-05
0.00172797 -0.000217867 -1.71323e-06
-0.000217867 0.000150146 1.06485e-06
-1.71323e-06 1.06485e-06 1.69953e-05
0.0015725 -0.000187645 -2.05541e-07
-0.000187645 0.000127827 -1.80974e-08
-2.05541e-07 -1.80974e-08 -2.28011e-05
0.00131069 -0.0001481 -5.55428e-06
-0.0001481 7.28422e-05 1.64527e-06
-5.55428e-06 1.64527e-06 -7.79752e-05
0.00157404 -0.000203462 1.67435e-06
-0.000203462 0.000152573 5.18586e-07
1.67435e-06 5.18586e-07 -4.62558e-06
0.00130222 -0.000165714 -2.01463e-07
-0.000165714 8.28444e-05 5.04112e-08
-2.01463e-07 5.04112e-08 -7.20051e-05
0.00103026 -0.000130325 -1.27693e-05
-0.000130325 2.04252e-05 5.21219e-06
-1.27693e-05 5.21219e-06 -0.00010989
0.00115286 -0.000179407 6.62331e-06
-0.000179407 1.44861e-05 -1.83008e-06
6.62331e-06 -1.83008e-06 -0.000147338
0.0010024 -0.000144876 2.18057e-07
-0.000144876 1.8155e-05 2.39436e-08
2.18057e-07 2.39436e-08 -0.00011571
0.00234392 -9.1165e-05 -2.38235e-05
-9.1165e-05 0.000947693 7.67644e-06
-2.38235e-05 7.67644e-06 0.000875227
0.00161563 -3.56851e-05 -0.000162423
-3.56851e-05 0.000584607 1.66106e-05
-0.000162423 1.66106e-05 0.000566351
0.0015085 -0.000129189 -3.20695e-06
-0.000129189 0.000462914 -2.34843e-07
-3.20695e-06 -2.34843e-07 0.000381723
0.000933369 -0.000157802 1.09775e-05
-0.000157802 1.28607e-06 -5.20976e-06
1.09775e-05 -5.20976e-06 -0.000139985
0.005206 0.000126394 7.06565e-07
0.000126394 0.00270986 -1.27829e-07
7.06565e-07 -1.27829e-07 0.00269524
0.00065934 -0.000165836 2.07433e-05
-0.000165836 -2.13767e-05 -1.27514e-05
2.07433e-05 -1.27514e-05 -0.000107008
0.00491626 0.000121888 0.000154577
0.000121888 0.0025412 -1.06058e-05
0.000154577 -1.06058e-05 0.00252876
0.00188733 0.000255131 9.41657e-07
0.000255131 0.000207064 8.04962e-07
9.41657e-07 8.04962e-07 5.63516e-05
0.00157846 0.000263454 3.11623e-07
0.000263454 0.000177193 2.69646e-06
3.11623e-07 2.69646e-06 -1.78867e-06
0.00154633 0.000272846 -4.85369e-07
0.000272846 0.000237569 -4.03868e-07
-4.85369e-07 -4.03868e-07 4.19161e-05
0.00119523 0.000214464 -7.11274e-06
0.000214464 8.59971e-05 -1.38994e-06
-7.11274e-06 -1.38994e-06 -9.13433e-05
0.00115773 0.000245953 3.75024e-06
0.000245953 6.41399e-05 6.43757e-07
3.75024e-06 6.43757e-07 -0.000139631
0.00112379 0.000210344 -8.08031e-07
0.000210344 0.00013469 8.19805e-07
-8.08031e-07 8.19805e-07 -5.18221e-05
0.000886324 0.00016178 -8.0991e-06
0.00016178 7.42989e-05 -4.65783e-06
-8.0991e-06 -4.65783e-06 -7.66371e-05
0.000990275 0.000186904 1.38601e-06
0.000186904 0.000159879 4.17576e-06
1.38601e-06 4.17576e-06 -1.77543e-05
0.000805605 0.000133693 -1.35499e-07
0.000133693 9.44549e-05 -8.76506e-08
-1.35499e-07 -8.76506e-08 -4.48438e-05
0.000786519 8.65842e-05 -1.37344e-05
8.65842e-05 9.253e-05 -1.17214e-05
-1.37344e-05 -1.17214e-05 2.49499e-05
0.000637865 5.88763e-05 1.78786e-06
5.88763e-05 2.15217e-05 3.16439e-06
1.78786e-06 3.16439e-06 -9.18675e-05
0.000536095 1.80911e-06 -7.0018e-07
1.80911e-06 -3.65868e-05 -4.27694e-07
-7.0018e-07 -4.27694e-07 -8.62673e-05
0.00361554 -0.000122496 -0.000110458
-0.000122496 0.00178796 -3.94566e-06
-0.000110458 -3.94566e-06 0.00178401
0.000447121 -4.6288e-05 1.21564e-06
-4.6288e-05 -7.84273e-05 7.86811e-06
1.21564e-06 7.86811e-06 -0.000121413
0.00310316 -0.00013928 -3.19359e-06
-0.00013928 0.00148736 3.27832e-07
-3.19359e-06 3.27832e-07 0.00148192
0.00285952 -0.000127658 5.37742e-05
-0.000127658 0.00133845 2.42064e-06
5.37742e-05 2.42064e-06 0.00133607
0.00178211 0.000133831 -3.3662e-06
0.000133831 -4.41887e-05 -1.00897e-07
-3.3662e-06 -1.00897e-07 -0.000106696
0.00191565 4.15178e-05 1.34715e-05
4.15178e-05 0.000168753 2.24113e-06
1.34715e-05 2.24113e-06 0.000169238
0.0038201 -2.22512e-05 -8.19865e-05
-2.22512e-05 0.000700488 -1.37673e-05
-8.19865e-05 -1.37673e-05 0.000726836
0.00171809 0.000296807 -3.26385e-06
0.000296807 5.59947e-05 1.16398e-06
-3.26385e-06 1.16398e-06 -9.12665e-05
0.00172178 0.000343407 -1.12096e-06
0.000343407 0.000179536 -1.44859e-07
-1.12096e-06 -1.44859e-07 5.8866e-07
0.00128626 0.000312077 -1.75233e-05
0.000312077 8.67674e-05 -7.00193e-06
-1.75233e-05 -7.00193e-06 -0.000107248
0.00192766 0.000305623 2.40397e-06
0.000305623 0.000265999 7.87875e-07
2.40397e-06 7.87875e-07 9.87016e-05
0.00177049 0.00031792 -8.72578e-07
0.00031792 0.000281565 -2.59465e-06
-8.72578e-07 -2.59465e-06 8.79438e-05
0.00216098 0.000239135 -9.64834e-07
0.000239135 0.000232504 1.24661e-06
-9.64834e-07 1.24661e-06 0.00013425
0.00171848 0.000337875 -1.51322e-06
0.000337875 4.83034e-05 8.33103e-07
-1.51322e-06 8.33103e-07 -0.000105687
0.00209764 0.00041835 1.86704e-06
0.00041835 0.000364971 -1.69019e-07
1.86704e-06 -1.69019e-07 0.000177497
0.00179886 0.000245147 -9.42446e-07
0.000245147 1.73458e-05 1.84933e-07
-9.42446e-07 1.84933e-07 -8.41611e-05
0.00206552 0.000420956 1.85754e-05
0.000420956 0.000218602 1.63659e-06
1.85754e-05 1.63659e-06 6.18243e-05
0.00142878 0.000230224 -1.93272e-05
0.000230224 -2.18005e-05 -3.5729e-06
-1.93272e-05 -3.5729e-06 -8.71479e-05
0.00198263 4.39708e-05 -5.70048e-06
4.39708e-05 6.46265e-05 -1.48884e-07
-5.70048e-06 -1.48884e-07 2.2758e-05
0.001868 4.42848e-05 -2.3858e-06
4.42848e-05 5.01366e-06 2.51195e-07
-2.3858e-06 2.51195e-07 -3.34668e-05
0.0028553 -1.14213e-05 -3.95627e-05
-1.14213e-05 0.0008326 -4.78553e-06
-3.95627e-05 -4.78553e-06 0.000814511
0.00184968 -0.000153013 -7.76251e-06
-0.000153013 -6.18703e-05 -1.76975e-06
-7.76251e-06 -1.76975e-06 -4.57618e-05
0.00192393 -2.88518e-05 4.19063e-06
-2.88518e-05 -1.25517e-05 -4.82432e-07
4.19063e-06 -4.82432e-07 -3.2657e-05
0.00199374 -6.48231e-05 -1.11038e-07
-6.48231e-05 2.64959e-05 1.15939e-07
-1.11038e-07 1.15939e-07 1.02501e-05
0.00195635 -4.49283e-05 -1.91102e-06
-4.49283e-05 0.000105086 -1.64614e-07
-1.91102e-06 -1.64614e-07 5.46598e-05
0.00186145 -0.000164238 2.64669e-06
-0.000164238 1.71727e-05 -8.77998e-07
2.64669e-06 -8.77998e-07 -1.70199e-05
0.00185057 -0.000138376 6.54032e-07
-0.000138376 4.28113e-05 -9.31226e-08
6.54032e-07 -9.31226e-08 -1.63073e-05
0.00181873 -0.000113511 3.48843e-06
-0.000113511 9.71042e-05 -1.23067e-06
3.48843e-06 -1.23067e-06 -4.90694e-07
0.00169044 -0.000184602 2.03023e-07
-0.000184602 2.36744e-05 -4.04148e-10
2.03023e-07 -4.04148e-10 -6.0475e-05
0.0017861 -0.000160879 -1.46011e-08
-0.000160879 0.000104329 -1.52237e-07
-1.46011e-08 -1.52237e-07 -3.43115e-06
0.00169133 -0.000143023 2.72042e-07
-0.000143023 0.000122125 -4.42213e-07
2.72042e-07 -4.42213e-07 -1.00704e-05
0.00177026 -0.000195385 -1.41506e-06
-0.000195385 0.000138033 5.28544e-07
-1.41506e-06 5.28544e-07 1.82224e-05
0.00162484 -0.000168582 -2.45985e-07
-0.000168582 0.000124306 2.80107e-08
-2.45985e-07 2.80107e-08 -1.71175e-05
0.00134956 -0.000128526 -4.78141e-06
-0.000128526 7.68131e-05 1.28635e-06
-4.78141e-06 1.28635e-06 -6.99984e-05
0.00158634 -0.000187933 6.32026e-07
-0.000187933 0.000134874 4.1521e-07
6.32026e-07 4.1521e-07 -1.54281e-05
0.00133077 -0.000148737 -1.24781e-07
-0.000148737 8.22811e-05 8.76094e-08
-1.24781e-07 8.76094e-08 -6.83064e-05
0.00103391 -0.00011448 -1.2656e-05
-0.00011448 1.19678e-05 4.53612e-06
-1.2656e-05 4.53612e-06 -0.000116585
0.00133423 -0.000167043 6.05109e-06
-0.000167043 0.000100203 -1.74797e-06
6.05109e-06 -1.74797e-06 -5.45047e-05
0.00102116 -0.000128006 2.21637e-07
-0.000128006 1.43282e-05 8.17643e-08
2.21637e-07 8.17643e-08 -0.00011544
0.00239513 -0.000101039 -3.11743e-05
-0.000101039 0.00096345 6.84573e-06
-3.11743e-05 6.84573e-06 0.000898287
0.000995078 -0.000143278 1.20716e-05
-0.000143278 1.36256e-05 -5.39555e-06
1.20716e-05 -5.39555e-06 -0.000119994
0.00250819 -0.000138356 3.49508e-05
-0.000138356 0.00103616 -4.07546e-06
3.49508e-05 -4.07546e-06 0.000970157
0.00170147 -7.60859e-05 -0.000167204
-7.60859e-05 0.000641939 2.05497e-05
-0.000167204 2.05497e-05 0.000622744
0.00343737 5.13716e-06 -0.000165598
5.13716e-06 0.00166984 8.485e-06
-0.000165598 8.485e-06 0.00165334
0.00260356 -0.000186936 0.000103423
-0.000186936 0.00109478 -1.34288e-05
0.000103423 -1.34288e-05 0.00103093
0.00533086 0.000130148 0.000156819
0.000130148 0.00280031 -1.59406e-05
0.000156819 -1.59406e-05 0.0027755
0.00199457 0.00025432 -1.57714e-06
0.00025432 0.00023304 -4.10892e-07
-1.57714e-06 -4.10892e-07 9.43983e-05
0.00156066 0.000223033 2.6442e-06
0.000223033 0.000120075 1.149e-06
2.6442e-06 1.149e-06 -4.02602e-05
0.00184889 0.000255474 3.23826e-07
0.000255474 0.000181616 -9.59625e-07
3.23826e-07 -9.59625e-07 3.43438e-05
0.00133727 0.000209572 -6.71516e-06
0.000209572 0.000121993 -1.13186e-06
-6.71516e-06 -1.13186e-06 -4.50378e-05
0.00159833 0.000262187 5.88167e-07
0.000262187 0.00018381 3.62443e-07
5.88167e-07 3.62443e-07 4.22575e-06
0.00157482 0.00027916 3.44482e-06
0.00027916 0.000251261 -5.51284e-07
3.44482e-06 -5.51284e-07 5.56477e-05
0.00118711 0.000213749 -2.54594e-08
0.000213749 8.35719e-05 5.01588e-08
-2.54594e-08 5.01588e-08 -9.35343e-05
0.000879381 0.000159813 -1.0448e-05
0.000159813 -4.60508e-06 -4.54268e-06
-1.0448e-05 -4.54268e-06 -0.000151537
0.00125134 0.000220284 4.90568e-06
0.000220284 0.000209522 3.14271e-06
4.90568e-06 3.14271e-06 2.10724e-05
0.000855948 0.00015504 -7.79647e-07
0.00015504 5.49184e-05 5.32806e-07
-7.79647e-07 5.32806e-07 -9.49031e-05
0.000726541 0.00014747 -1.97086e-05
0.00014747 3.80956e-05 -1.25603e-05
-1.97086e-05 -1.25603e-05 -4.32718e-05
0.000660397 0.000115874 3.12735e-06
0.000115874 1.23576e-05 4.32279e-06
3.12735e-06 4.32279e-06 -0.000124095
0.000566679 6.16601e-05 -3.73515e-07
6.16601e-05 -3.00522e-05 -2.62374e-07
-3.73515e-07 -2.62374e-07 -9.39073e-05
0.00430773 -0.000113006 -0.000141699
-0.000113006 0.00219775 -8.32187e-06
-0.000141699 -8.32187e-06 0.0021885
0.000394439 -2.26393e-05 3.05302e-06
-2.26393e-05 -0.000112037 8.97006e-06
3.05302e-06 8.97006e-06 -0.000162218
0.0034914 -0.000150197 -5.61488e-06
-0.000150197 0.00172053 4.11849e-07
-5.61488e-06 4.11849e-07 0.00171126
0.0030344 -0.000142794 6.10068e-05
-0.000142794 0.00144783 1.90092e-06
6.10068e-05 1.90092e-06 0.00144142
0.00184779 0.000139665 -2.24874e-06
0.000139665 3.91352e-06 8.56941e-07
-2.24874e-06 8.56941e-07 -6.51484e-05
0.00183423 0.000132167 6.79864e-07
0.000132167 -1.35188e-05 -3.12144e-07
6.79864e-07 -3.12144e-07 -7.53825e-05
0.00270035 3.5543e-05 -5.27839e-05
3.5543e-05 0.000582939 -5.99248e-06
-5.27839e-05 -5.99248e-06 0.000585548
0.00199175 0.00021232 1.37134e-06
0.00021232 0.000162029 1.28667e-06
1.37134e-06 1.28667e-06 5.35328e-05
0.0017128 0.000291571 -6.23949e-07
0.000291571 6.5013e-05 1.76409e-07
-6.23949e-07 1.76409e-07 -8.15883e-05
0.00156822 0.000329468 -7.33258e-07
0.000329468 0.000108737 -3.57316e-06
-7.33258e-07 -3.57316e-06 -6.9869e-05
0.0019381 0.000295091 -2.16733e-07
0.000295091 0.000276581 -2.55015e-06
-2.16733e-07 -2.55015e-06 0.00011111
0.00196927 0.000229269 -9.04041e-07
0.000229269 0.000121764 -2.73903e-07
-9.04041e-07 -2.73903e-07 2.28322e-05
0.00159322 0.00033246 1.50304e-06
0.00033246 -1.21223e-05 -3.326e-07
1.50304e-06 -3.326e-07 -0.000167398
0.00180687 0.000244587 1.20341e-05
0.000244587 4.10399e-05 -2.71728e-07
1.20341e-05 -2.71728e-07 -6.05287e-05
0.00192592 3.47548e-05 -6.22592e-07
3.47548e-05 7.67879e-05 6.18482e-07
-6.22592e-07 6.18482e-07 2.15344e-05
0.00194072 4.34686e-05 3.62093e-07
4.34686e-05 4.46238e-05 -1.49555e-08
3.62093e-07 -1.49555e-08 2.00805e-06
0.00198653 5.53418e-05 -5.67051e-06
5.53418e-05 7.0621e-05 -1.19776e-06
-5.67051e-06 -1.19776e-06 3.17708e-05
0.00164103 -1.49077e-05 -1.51555e-06
-1.49077e-05 -3.4342e-05 5.47824e-08
-1.51555e-06 5.47824e-08 -9.95555e-05
0.00196972 -7.30075e-05 5.45694e-06
-7.30075e-05 -2.62345e-06 -7.79286e-08
5.45694e-06 -7.79286e-08 -1.30062e-05
0.00188189 -4.67629e-05 -1.16258e-06
-4.67629e-05 5.76441e-05 6.29251e-07
-1.16258e-06 6.29251e-07 7.22838e-06
0.00201509 -5.6763e-05 3.31466e-07
-5.6763e-05 0.000209305 -1.14773e-06
3.31466e-07 -1.14773e-06 0.000124116
0.00172907 -0.000137508 1.94595e-06
-0.000137508 -1.86992e-05 -1.8061e-07
1.94595e-06 -1.8061e-07 -8.37735e-05
0.0018386 -0.000113896 2.17475e-06
-0.000113896 0.000105934 -6.06024e-07
2.17475e-06 -6.06024e-07 8.55706e-06
0.00173671 -0.000103273 1.19911e-06
-0.000103273 0.000116609 -1.01261e-06
1.19911e-06 -1.01261e-06 -6.44888e-06
0.00183057 -0.00016141 -1.3773e-06
-0.00016141 0.000128718 1.63274e-07
-1.3773e-06 1.63274e-07 2.11129e-05
0.00168958 -0.000141254 -1.38356e-07
-0.000141254 0.000123344 -5.4186e-08
-1.38356e-07 -5.4186e-08 -8.54947e-06
0.00138732 -0.000104327 -4.1556e-06
-0.000104327 7.58408e-05 9.2138e-07
-4.1556e-06 9.2138e-07 -6.59913e-05
0.00162984 -0.000168241 7.57525e-08
-0.000168241 0.000126754 4.42131e-07
7.57525e-08 4.42131e-07 -1.44051e-05
0.0013564 -0.000128546 -1.45822e-07
-0.000128546 7.77713e-05 8.97433e-08
-1.45822e-07 8.97433e-08 -6.87857e-05
0.00103944 -9.71899e-05 -1.23256e-05
-9.71899e-05 5.23459e-06 3.75798e-06
-1.23256e-05 3.75798e-06 -0.000122117
0.00135095 -0.000149332 5.21508e-06
-0.000149332 9.17089e-05 -1.43185e-06
5.21508e-06 -1.43185e-06 -5.8637e-05
0.00103309 -0.000111955 9.7651e-08
-0.000111955 1.03889e-05 1.73834e-07
9.7651e-08 1.73834e-07 -0.000117458
0.00244013 -0.000113664 -3.87285e-05
-0.000113664 0.000981679 6.45289e-06
-3.87285e-05 6.45289e-06 0.000918903
0.00100688 -0.00012549 1.26208e-05
-0.00012549 5.16169e-06 -5.05581e-06
1.26208e-05 -5.05581e-06 -0.000124016
0.00250365 -0.000134641 3.16443e-05
-0.000134641 0.00102374 -3.51172e-06
3.16443e-05 -3.51172e-06 0.000962554
0.00174458 -6.65959e-05 -0.00016331
-6.65959e-05 0.000663208 1.8523e-05
-0.00016331 1.8523e-05 0.000644565
0.00264617 -0.000158515 0.000103339
-0.000158515 0.0011121 -1.54804e-05
0.000103339 -1.54804e-05 0.00105051
0.00149776 -1.08103e-05 -7.70455e-05
-1.08103e-05 0.000532004 7.78041e-06
-7.70455e-05 7.78041e-06 0.000503266
0.00513005 0.000222147 1.43306e-05
0.000222147 0.00267907 -2.99143e-06
1.43306e-05 -2.99143e-06 0.00264311
0.00179698 0.000202721 1.28611e-06
0.000202721 0.000103731 7.4407e-07
1.28611e-06 7.4407e-07 -2.5214e-05
0.00178115 0.000220941 -1.40295e-07
0.000220941 0.000203087 -4.83155e-07
-1.40295e-07 -4.83155e-07 5.38077e-05
0.00186799 0.00024936 -2.98908e-06
0.00024936 0.000157796 4.27547e-08
-2.98908e-06 4.27547e-08 1.75649e-05
0.00170267 0.000203915 -4.09707e-06
0.000203915 0.000311429 -7.26132e-07
-4.09707e-06 -7.26132e-07 0.000155905
0.00153483 0.000226888 8.56837e-07
0.000226888 0.000101224 -9.96834e-07
8.56837e-07 -9.96834e-07 -5.81346e-05
0.00181533 0.000256117 -2.00024e-06
0.000256117 0.000158795 -2.89396e-06
-2.00024e-06 -2.89396e-06 1.49767e-05
0.000938483 0.000154919 -1.20897e-05
0.000154919 -1.50571e-05 -4.75901e-06
-1.20897e-05 -4.75901e-06 -0.000154023
0.00125018 0.000203817 9.47067e-08
0.000203817 7.22458e-05 1.7276e-07
9.47067e-08 1.7276e-07 -9.41642e-05
0.00161848 0.00026134 2.71396e-06
0.00026134 0.00018963 -1.18972e-06
2.71396e-06 -1.18972e-06 9.31044e-06
0.00116012 0.000211738 6.8271e-06
0.000211738 7.04763e-05 1.1822e-06
6.8271e-06 1.1822e-06 -0.000106241
0.000915606 0.000161684 -6.59943e-07
0.000161684 1.52638e-05 1.85428e-07
-6.59943e-07 1.85428e-07 -0.000131807
0.000620161 0.000185532 -2.29233e-05
0.000185532 -4.03273e-05 -1.23565e-05
-2.29233e-05 -1.23565e-05 -0.000128627
0.000819504 0.000148811 6.64035e-06
0.000148811 3.23765e-05 5.85618e-06
6.64035e-06 5.85618e-06 -0.000116352
0.000598576 0.000137624 2.12071e-07
0.000137624 -2.96736e-05 3.56475e-07
2.12071e-07 3.56475e-07 -0.000110422
0.00508123 -0.000113308 -0.000157856
-0.000113308 0.00266382 -1.46897e-05
-0.000157856 -1.46897e-05 0.00264074
0.000402217 4.73962e-05 9.08084e-06
4.73962e-05 -0.000122337 1.077e-05
9.08084e-06 1.077e-05 -0.000182647
0.00409683 -0.00016317 -1.03623e-05
-0.00016317 0.00208358 8.52712e-07
-1.03623e-05 8.52712e-07 0.00206735
0.00334824 -0.000161384 7.243e-05
-0.000161384 0.00163887 1.68313e-06
7.243e-05 1.68313e-06 0.00162702
0.0017913 0.000113744 4.52937e-07
0.000113744 1.13468e-05 1.66198e-06
4.52937e-07 1.66198e-06 -6.68678e-05
0.00181897 0.000141211 -2.17032e-09
0.000141211 -1.46499e-05 2.14194e-07
-2.17032e-09 2.14194e-07 -8.37431e-05
0.00185098 0.000135953 4.26864e-06
0.000135953 -7.59392e-06 2.28742e-07
4.26864e-06 2.28742e-07 -7.07789e-05
0.00194857 0.000208415 7.76038e-07
0.000208415 0.000140732 -1.03362e-07
7.76038e-07 -1.03362e-07 3.42007e-05
0.00169836 0.00028577 -2.11508e-07
0.00028577 6.92732e-05 -1.33252e-06
-2.11508e-07 -1.33252e-06 -7.6623e-05
0.00175709 0.000219009 1.51117e-06
0.000219009 1.16519e-07 -1.22819e-06
1.51117e-06 -1.22819e-06 -9.95798e-05
0.00190945 3.46794e-05 2.78171e-07
3.46794e-05 0.000122801 3.75857e-07
2.78171e-07 3.75857e-07 5.39622e-05
0.00189184 3.49468e-05 8.72343e-07
3.49468e-05 5.82294e-05 -2.8097e-07
8.72343e-07 -2.8097e-07 3.21771e-06
0.00188414 4.35274e-05 5.16523e-06
4.35274e-05 2.08763e-05 3.53948e-07
5.16523e-06 3.53948e-07 -2.26506e-05
0.00173522 -2.1339e-05 -2.0546e-06
-2.1339e-05 2.04584e-05 9.43765e-08
-2.0546e-06 9.43765e-08 -4.3834e-05
0.00170538 -3.06443e-05 9.73078e-07
-3.06443e-05 5.03392e-05 -8.26386e-07
9.73078e-07 -8.26386e-07 -3.72517e-05
0.0017983 -4.84972e-05 6.56951e-07
-4.84972e-05 4.96356e-06 1.06333e-06
6.56951e-07 1.06333e-06 -4.56257e-05
0.00187847 -5.64324e-05 -1.01265e-06
-5.64324e-05 0.00013107 4.45352e-07
-1.01265e-06 4.45352e-07 4.19079e-05
0.00177588 -5.6535e-05 2.69763e-07
-5.6535e-05 0.000130786 -6.82218e-07
2.69763e-07 -6.82218e-07 1.85136e-05
0.00184768 -0.000114558 1.05241e-06
-0.000114558 0.000108993 3.94546e-08
1.05241e-06 3.94546e-08 1.1753e-05
0.00171881 -0.000104349 9.96427e-07
-0.000104349 0.000109259 -5.08247e-07
9.96427e-07 -5.08247e-07 -1.39179e-05
0.00142484 -7.15702e-05 -3.93894e-06
-7.15702e-05 7.32177e-05 2.43489e-07
-3.93894e-06 2.43489e-07 -6.2724e-05
0.00167519 -0.000140899 -3.05835e-07
-0.000140899 0.000117044 2.6578e-07
-3.05835e-07 2.6578e-07 -1.47676e-05
0.00138525 -0.000103905 -3.1726e-08
-0.000103905 7.0406e-05 1.41779e-07
-3.1726e-08 1.41779e-07 -7.12629e-05
0.0010358 -7.57978e-05 -1.20669e-05
-7.57978e-05 -7.71637e-06 3.05669e-06
-1.20669e-05 3.05669e-06 -0.000133004
0.00136235 -0.000128478 4.3324e-06
-0.000128478 7.82063e-05 -1.08036e-06
4.3324e-06 -1.08036e-06 -6.80869e-05
0.00103706 -9.43884e-05 -3.40383e-08
-9.43884e-05 3.12352e-06 1.60179e-07
-3.40383e-08 1.60179e-07 -0.000123575
0.00243073 -0.000129557 -4.25046e-05
-0.000129557 0.000972507 5.91898e-06
-4.25046e-05 5.91898e-06 0.000908098
0.00102997 -0.000109405 1.2582e-05
-0.000109405 7.38451e-06 -4.26826e-06
1.2582e-05 -4.26826e-06 -0.000119733
0.00250671 -0.000124362 3.05421e-05
-0.000124362 0.00101745 -2.68481e-06
3.05421e-05 -2.68481e-06 0.000958002
0.00178612 -5.75409e-05 -0.000163558
-5.75409e-05 0.000681223 1.59865e-05
-0.000163558 1.59865e-05 0.000662876
0.00261096 -0.000137752 0.000102276
-0.000137752 0.0010818 -1.36036e-05
0.000102276 -1.36036e-05 0.00102503
0.00150325 -2.52464e-05 -6.99546e-05
-2.52464e-05 0.00052782 7.13064e-06
-6.99546e-05 7.13064e-06 0.000502572
0.00135349 2.06485e-06 2.62014e-05
2.06485e-06 0.000450354 -4.528e-06
2.62014e-05 -4.528e-06 0.000416695
0.00191416 0.000119793 6.54333e-07
0.000119793 0.000146477 2.09243e-06
6.54333e-07 2.09243e-06 4.65254e-05
0.00171625 0.000183755 -9.60848e-07
0.000183755 0.000130925 3.46054e-07
-9.60848e-07 3.46054e-07 -1.04253e-05
0.00181391 0.000203371 -7.57652e-07
0.000203371 0.000107409 -8.08525e-08
-7.57652e-07 -8.08525e-08 -1.8622e-05
0.00168103 0.000182191 -3.76395e-06
0.000182191 0.000261986 -7.67412e-07
-3.76395e-06 -7.67412e-07 0.000114062
0.00173331 0.000216726 8.25051e-07
0.000216726 0.000179514 1.65328e-07
8.25051e-07 1.65328e-07 2.93471e-05
0.00173689 0.000244321 4.50985e-07
0.000244321 8.07681e-05 -1.57543e-07
4.50985e-07 -1.57543e-07 -6.11092e-05
0.0010227 0.000144043 -1.28874e-05
0.000144043 1.14322e-05 -4.62859e-06
-1.28874e-05 -4.62859e-06 -0.000121019
0.00146401 0.000195613 3.27851e-06
0.000195613 0.000170589 7.93696e-07
3.27851e-06 7.93696e-07 1.42056e-05
0.00151033 0.000230798 1.1146e-06
0.000230798 8.34908e-05 -1.89018e-06
1.1146e-06 -1.89018e-06 -7.48721e-05
0.000562729 0.000167608 -2.21066e-05
0.000167608 -8.7102e-05 -1.10204e-05
-2.21066e-05 -1.10204e-05 -0.000172303
0.000973697 0.000157358 -5.28717e-07
0.000157358 5.31599e-06 -1.40313e-08
-5.28717e-07 -1.40313e-08 -0.00013385
0.00117963 0.000199077 7.57756e-06
0.000199077 3.22989e-05 1.80115e-06
7.57756e-06 1.80115e-06 -0.000133598
0.000963994 0.000164581 1.04686e-05
0.000164581 4.21378e-05 5.18372e-06
1.04686e-05 5.18372e-06 -0.000105251
0.00057861 0.000172333 1.69223e-06
0.000172333 -6.25543e-05 5.06205e-07
1.69223e-06 5.06205e-07 -0.000150336
0.00549042 -7.129e-05 -0.000164928
-7.129e-05 0.00289898 -1.84173e-05
-0.000164928 -1.84173e-05 0.0028736
0.000455802 0.000127095 1.59258e-05
0.000127095 -0.0001119 1.24723e-05
1.59258e-05 1.24723e-05 -0.000188335
0.00481623 -0.000141964 -7.61633e-06
-0.000141964 0.00250273 3.72817e-07
-7.61633e-06 3.72817e-07 0.00248433
0.00386325 -0.000184584 9.01385e-05
-0.000184584 0.00195072 2.73458e-06
9.01385e-05 2.73458e-06 0.00193105
0.00175191 8.264e-05 -1.73938e-07
8.264e-05 3.55279e-05 6.74105e-07
-1.73938e-07 6.74105e-07 -4.19459e-05
0.00179719 0.000113005 8.58735e-07
0.000113005 2.05682e-05 6.46177e-07
8.58735e-07 6.46177e-07 -5.78327e-05
0.00180983 0.00014286 2.97989e-06
0.00014286 -2.46018e-05 -5.73654e-08
2.97989e-06 -5.73654e-08 -9.34492e-05
0.00190712 0.0002042 1.74252e-07
0.0002042 0.000120019 -1.09322e-06
1.74252e-07 -1.09322e-06 1.55309e-05
0.00173568 -6.63839e-06 2.16969e-06
-6.63839e-06 6.58224e-05 4.26067e-08
2.16969e-06 4.26067e-08 -2.45375e-05
0.00193943 2.87125e-05 1.57094e-07
2.87125e-05 0.000136501 -2.34963e-07
1.57094e-07 -2.34963e-07 6.92043e-05
0.00184816 3.45978e-05 2.36041e-06
3.45978e-05 3.43506e-05 2.26876e-07
2.36041e-06 2.26876e-07 -2.00389e-05
0.00186018 -2.5605e-05 -4.051e-06
-2.5605e-05 9.34125e-05 -4.73637e-07
-4.051e-06 -4.73637e-07 3.02573e-05
0.00166249 -2.25406e-05 -1.84186e-06
-2.25406e-05 2.47597e-05 -3.13143e-07
-1.84186e-06 -3.13143e-07 -6.12132e-05
0.00178525 -2.36429e-05 2.28496e-06
-2.36429e-05 0.000153821 -5.17946e-07
2.28496e-06 -5.17946e-07 4.45808e-05
0.00174936 -5.61157e-05 -2.25164e-06
-5.61157e-05 5.64853e-05 1.57635e-06
-2.25164e-06 1.57635e-06 -3.66593e-05
0.00172663 -5.76114e-05 4.89814e-08
-5.76114e-05 0.000105737 3.13935e-07
4.89814e-08 3.13935e-07 -9.84176e-06
0.00146481 -3.89989e-05 -3.66736e-06
-3.89989e-05 7.91545e-05 1.59853e-07
-3.66736e-06 1.59853e-07 -4.9155e-05
0.00171529 -0.000104109 9.00741e-07
-0.000104109 0.000109999 -3.9083e-08
9.00741e-07 -3.9083e-08 -1.30877e-05
0.00141204 -6.97932e-05 1.24091e-07
-6.97932e-05 6.23752e-05 -1.19305e-07
1.24091e-07 -1.19305e-07 -7.32961e-05
0.00102887 -5.05733e-05 -1.20832e-05
-5.05733e-05 -2.01923e-05 2.20057e-06
-1.20832e-05 2.20057e-06 -0.000142957
0.0013847 -0.000101506 3.8885e-06
-0.000101506 6.5819e-05 -6.40447e-07
3.8885e-06 -6.40447e-07 -7.54598e-05
0.001035 -7.46319e-05 8.17966e-09
-7.46319e-05 -8.29126e-06 2.36149e-07
8.17966e-09 2.36149e-07 -0.00013331
0.000623215 -7.14864e-05 -1.86879e-05
-7.14864e-05 -9.88061e-05 4.51937e-06
-1.86879e-05 4.51937e-06 -0.000169949
0.00104345 -9.19358e-05 1.21827e-05
-9.19358e-05 5.82929e-06 -3.47849e-06
1.21827e-05 -3.47849e-06 -0.0001202
0.00157341 -8.16634e-05 4.15785e-05
-8.16634e-05 0.000463011 -2.62281e-06
4.15785e-05 -2.62281e-06 0.000399854
0.00536546 -0.000111315 -0.000204455
-0.000111315 0.00277276 1.2223e-05
-0.000204455 1.2223e-05 0.00277564
0.00259418 -0.000112824 0.000101849
-0.000112824 0.0010612 -1.10737e-05
0.000101849 -1.10737e-05 0.00100729
0.00151902 -3.98359e-05 -6.30899e-05
-3.98359e-05 0.000532079 5.16479e-06
-6.30899e-05 5.16479e-06 0.000507296
0.00127214 -4.43153e-05 3.70246e-05
-4.43153e-05 0.000401291 -5.07871e-06
3.70246e-05 -5.07871e-06 0.000368583
0.00191134 8.6274e-05 1.17258e-06
8.6274e-05 0.000161311 1.46563e-06
1.17258e-06 1.46563e-06 7.10244e-05
0.00180662 0.000125049 6.19358e-07
0.000125049 0.000165289 1.57442e-06
6.19358e-07 1.57442e-06 4.10083e-05
0.00194263 0.000117156 4.11397e-07
0.000117156 0.000169441 1.73914e-08
4.11397e-07 1.73914e-08 6.86497e-05
0.00139663 0.000142852 -4.43578e-06
0.000142852 6.08428e-05 -6.41891e-07
-4.43578e-06 -6.41891e-07 -8.27683e-05
0.00174016 0.000181865 2.34434e-07
0.000181865 0.000144178 3.06643e-09
2.34434e-07 3.06643e-09 3.91337e-06
0.00182974 0.000204329 -7.99836e-07
0.000204329 0.000109594 -7.62825e-07
-7.99836e-07 -7.62825e-07 -1.35898e-05
0.000669511 0.000106994 -1.46091e-05
0.000106994 -0.000210688 -4.53703e-06
-1.46091e-05 -4.53703e-06 -0.000339713
0.00170083 0.000184033 2.04364e-06
0.000184033 0.000273778 5.8686e-07
2.04364e-06 5.8686e-07 0.000125756
0.00168643 0.000212544 1.11133e-06
0.000212544 0.000156422 -1.24771e-07
1.11133e-06 -1.24771e-07 5.3424e-06
0.000543939 0.000125729 -1.91326e-05
0.000125729 -0.000111938 -8.89714e-06
-1.91326e-05 -8.89714e-06 -0.000191141
0.000817785 0.00013434 4.67005e-07
0.00013434 -0.000107589 2.2414e-07
4.67005e-07 2.2414e-07 -0.000240765
0.00121643 0.000186763 9.19735e-06
0.000186763 2.42505e-05 1.954e-06
9.19735e-06 1.954e-06 -0.000132914
0.00554892 1.45227e-05 -0.000177708
1.45227e-05 0.00290454 -1.7266e-05
-0.000177708 -1.7266e-05 0.00289375
0.000543826 0.000154363 1.41539e-06
0.000154363 -9.65049e-05 5.31529e-07
1.41539e-06 5.31529e-07 -0.000182793
0.000995638 0.000159169 1.22526e-05
0.000159169 1.82135e-05 4.83357e-06
1.22526e-05 4.83357e-06 -0.00012112
0.000491904 0.000158908 1.97959e-05
0.000158908 -0.000108632 1.25495e-05
1.97959e-05 1.25495e-05 -0.000197041
0.00531808 -7.84976e-05 7.12633e-06
-7.84976e-05 0.00278784 -1.20374e-06
7.12633e-06 -1.20374e-06 0.00277048
0.0045352 -0.000205755 0.000109132
-0.000205755 0.002356 6.36636e-06
0.000109132 6.36636e-06 0.00232638
0.00179909 5.41778e-05 -9.44163e-07
5.41778e-05 9.48012e-05 -6.0754e-07
-9.44163e-07 -6.0754e-07 4.02417e-06
0.00180667 8.23087e-05 -4.70268e-08
8.23087e-05 6.47212e-05 4.79341e-07
-4.70268e-08 4.79341e-07 -1.29867e-05
0.00180891 0.000112425 1.00997e-06
0.000112425 3.36032e-05 -2.58785e-07
1.00997e-06 -2.58785e-07 -4.51372e-05
0.0016602 1.72799e-06 2.20444e-06
1.72799e-06 7.19654e-05 -4.52478e-07
2.20444e-06 -4.52478e-07 -3.92565e-05
0.00170768 -4.78397e-06 4.28602e-07
-4.78397e-06 5.41308e-05 1.4946e-07
4.28602e-07 1.4946e-07 -3.48384e-05
0.00196907 2.15413e-05 -9.82106e-07
2.15413e-05 0.000150179 2.13348e-08
-9.82106e-07 2.13348e-08 8.41911e-05
0.00160712 -1.5643e-05 -3.13658e-06
-1.5643e-05 -8.26127e-06 9.51857e-07
-3.13658e-06 9.51857e-07 -9.26225e-05
0.00175884 -1.86265e-05 1.09976e-06
-1.86265e-05 0.000137441 -2.9351e-07
1.09976e-06 -2.9351e-07 2.83353e-05
0.00172902 -1.47607e-05 -1.42147e-06
-1.47607e-05 0.000229864 -1.90252e-07
-1.42147e-06 -1.90252e-07 0.000106945
0.00167669 -5.87982e-05 -6.41105e-07
-5.87982e-05 8.07964e-05 8.85851e-07
-6.41105e-07 8.85851e-07 -3.80917e-05
0.00157286 -3.91796e-05 -3.25574e-09
-3.91796e-05 0.000141779 6.9986e-08
-3.25574e-09 6.9986e-08 1.30905e-05
0.000761882 -2.34647e-05 -1.37545e-05
-2.34647e-05 -0.000180211 1.60116e-06
-1.37545e-05 1.60116e-06 -0.000302672
0.00140745 -7.02283e-05 3.92257e-06
-7.02283e-05 5.62083e-05 -5.09748e-07
3.92257e-06 -5.09748e-07 -7.93889e-05
0.00102849 -4.74866e-05 -2.55227e-08
-4.74866e-05 -2.09554e-05 1.15911e-07
-2.55227e-08 1.15911e-07 -0.000143326
0.000629087 -2.03553e-05 -1.79682e-05
-2.03553e-05 -0.000100624 2.93336e-06
-1.79682e-05 2.93336e-06 -0.000171244
0.00104041 -7.25854e-05 1.20868e-05
-7.25854e-05 -5.5243e-06 -2.58011e-06
1.20868e-05 -2.58011e-06 -0.000130138
0.000631975 -5.60849e-05 -1.69346e-07
-5.60849e-05 -9.24108e-05 3.45844e-07
-1.69346e-07 3.45844e-07 -0.00016465
0.00540985 -5.85618e-06 -0.000195946
-5.85618e-06 0.00279467 7.55671e-06
-0.000195946 7.55671e-06 0.00279952
0.000665162 -6.29435e-05 1.6193e-05
-6.29435e-05 -7.00511e-05 -6.3792e-06
1.6193e-05 -6.3792e-06 -0.000143282
0.00340522 -7.35463e-05 9.36799e-05
-7.35463e-05 0.00163206 -2.95334e-06
9.36799e-05 -2.95334e-06 0.00161557
0.00121486 -6.64537e-05 4.27106e-05
-6.64537e-05 0.000369842 -5.62648e-06
4.27106e-05 -5.62648e-06 0.000334142
0.00181688 8.09786e-05 -2.29123e-08
8.09786e-05 0.000128438 1.48834e-07
-2.29123e-08 1.48834e-07 3.21056e-05
0.00166265 7.36166e-05 2.02889e-06
7.36166e-05 8.17424e-05 1.94137e-06
2.02889e-06 1.94137e-06 -3.4541e-05
0.0019101 8.35168e-05 -2.42779e-07
8.35168e-05 0.000161299 -3.37476e-07
-2.42779e-07 -3.37476e-07 7.15196e-05
0.00141428 0.000101448 -3.27628e-06
0.000101448 5.77007e-05 -1.85291e-07
-3.27628e-06 -1.85291e-07 -7.95506e-05
0.00176253 0.000123524 5.31999e-07
0.000123524 0.000136591 1.62245e-07
5.31999e-07 1.62245e-07 1.09948e-05
0.00197913 0.000114427 -1.15468e-06
0.000114427 0.00019721 -1.95351e-06
-1.15468e-06 -1.95351e-06 9.56006e-05
0.000716837 8.69583e-05 -1.42802e-05
8.69583e-05 -0.000198537 -3.46115e-06
-1.42802e-05 -3.46115e-06 -0.000324849
0.00157269 0.000147576 -5.97972e-07
0.000147576 0.000165064 4.99466e-08
-5.97972e-07 4.99466e-08 2.18413e-05
0.00176403 0.000179879 9.06305e-07
0.000179879 0.000157656 -4.89514e-07
9.06305e-07 -4.89514e-07 1.84988e-05
0.000559551 8.97709e-05 -1.76407e-05
8.97709e-05 -0.000120235 -6.79061e-06
-1.76407e-05 -6.79061e-06 -0.000194236
0.000644821 0.000106512 -2.7864e-06
0.000106512 -0.000224519 -5.69222e-07
-2.7864e-06 -5.69222e-07 -0.000354014
0.0017204 0.000186044 8.00586e-06
0.000186044 0.000285487 1.95922e-06
8.00586e-06 1.95922e-06 0.000137335
0.0054967 9.64039e-05 -0.000195502
9.64039e-05 0.00285484 -1.60603e-05
-0.000195502 -1.60603e-05 0.00285409
0.000540689 0.000118951 5.58793e-07
0.000118951 -0.000113836 3.40297e-07
5.58793e-07 3.40297e-07 -0.000193549
0.000616339 0.000125064 1.26634e-05
0.000125064 -0.000224702 4.5461e-06
1.26634e-05 4.5461e-06 -0.000358659
0.00546247 2.7958e-05 1.23208e-05
2.7958e-05 0.0028534 4.73238e-07
1.23208e-05 4.73238e-07 0.00284447
0.000508197 0.000140794 1.88505e-05
0.000140794 -0.000115443 1.09351e-05
1.88505e-05 1.09351e-05 -0.000202716
0.00515087 -0.000113782 0.000151418
-0.000113782 0.00268364 8.76577e-06
0.000151418 8.76577e-06 0.00267073
0.00177522 3.81945e-05 4.00039e-07
3.81945e-05 0.000130353 -4.91629e-07
4.00039e-07 -4.91629e-07 2.15939e-05
0.00175994 5.20408e-05 -1.08899e-06
5.20408e-05 7.76558e-05 2.61488e-07
-1.08899e-06 2.61488e-07 -1.42338e-05
0.00185654 8.1551e-05 1.22243e-08
8.1551e-05 9.08915e-05 -4.62621e-08
1.22243e-08 -4.62621e-08 1.29943e-05
0.00170952 -3.71854e-06 -7.58601e-07
-3.71854e-06 0.000224555 -3.32201e-07
-7.58601e-07 -3.32201e-07 0.00010362
0.00169218 -1.32186e-07 3.49274e-07
-1.32186e-07 8.99101e-05 5.63606e-08
3.49274e-07 5.63606e-08 -1.96769e-05
0.00168952 -1.37522e-06 5.72747e-07
-1.37522e-06 4.77952e-05 -1.36109e-08
5.72747e-07 -1.36109e-08 -3.97612e-05
0.00173279 -1.38946e-05 -2.76661e-07
-1.38946e-05 0.000121304 4.82744e-07
-2.76661e-07 4.82744e-07 1.23082e-05
0.0017326 -1.43816e-05 2.44559e-06
-1.43816e-05 0.000231662 -2.2365e-07
2.44559e-06 -2.2365e-07 0.000108727
0.000778307 -8.51218e-06 -1.31384e-05
-8.51218e-06 -0.000173048 7.44566e-07
-1.31384e-05 7.44566e-07 -0.000293591
0.00167385 -3.93851e-05 4.33954e-06
-3.93851e-05 0.000200451 -1.9788e-07
4.33954e-06 -1.9788e-07 7.13492e-05
0.000893342 -2.25555e-05 -2.44612e-06
-2.25555e-05 -0.000104269 2.59787e-07
-2.44612e-06 2.59787e-07 -0.000225697
0.0006328 -5.72887e-06 -1.82089e-05
-5.72887e-06 -0.000103598 1.96001e-06
-1.82089e-05 1.96001e-06 -0.0001733
0.00103153 -4.55963e-05 1.17466e-05
-4.55963e-05 -1.96791e-05 -1.94767e-06
1.17466e-05 -1.94767e-06 -0.000141763
0.000616261 -2.75137e-05 6.55819e-07
-2.75137e-05 -0.000109413 -2.33212e-08
6.55819e-07 -2.33212e-08 -0.000179055
0.00540482 -0.000102109 -0.000206574
-0.000102109 0.00279773 7.46902e-06
-0.000206574 7.46902e-06 0.00279997
0.000617144 -4.0428e-05 1.72161e-05
-4.0428e-05 -0.000101642 -3.5031e-06
1.72161e-05 -3.5031e-06 -0.000173497
0.00540171 -4.12238e-05 7.98961e-06
-4.12238e-05 0.00279069 2.17175e-08
7.98961e-06 2.17175e-08 0.0027956
0.00154474 -1.52913e-05 0.000170421
-1.52913e-05 0.000539386 -8.75654e-06
0.000170421 -8.75654e-06 0.000524979
0.0016589 5.75557e-05 1.72036e-06
5.75557e-05 8.04756e-05 3.8536e-07
1.72036e-06 3.8536e-07 -3.34071e-05
0.00179205 8.52349e-05 -2.66701e-06
8.52349e-05 0.000106642 -3.7931e-07
-2.66701e-06 -3.7931e-07 1.22434e-05
0.00142762 6.08208e-05 -2.64043e-06
6.08208e-05 6.61181e-05 1.66764e-07
-2.64043e-06 1.66764e-07 -6.42519e-05
0.00166611 7.2476e-05 5.45737e-07
7.2476e-05 8.47089e-05 5.37931e-08
5.45737e-07 5.37931e-08 -3.1611e-05
0.00190248 8.08623e-05 -1.66817e-06
8.08623e-05 0.000157339 -2.51063e-06
-1.66817e-06 -2.51063e-06 6.80613e-05
0.00106684 7.03468e-05 -1.21386e-05
7.03468e-05 -3.28769e-06 -2.20647e-06
-1.21386e-05 -2.20647e-06 -0.000124038
0.00141398 0.000101324 3.2349e-08
0.000101324 5.82588e-05 1.08116e-07
3.2349e-08 1.08116e-07 -7.91256e-05
0.00171383 0.000121902 -2.03718e-07
0.000121902 0.000105251 -9.82975e-07
-2.03718e-07 -9.82975e-07 -2.16714e-05
0.000581882 6.31395e-05 -1.71517e-05
6.31395e-05 -0.000121935 -4.87551e-06
-1.71517e-05 -4.87551e-06 -0.000193362
0.000851195 9.29125e-05 -3.22411e-06
9.29125e-05 -0.000119924 -3.80518e-07
-3.22411e-06 -3.80518e-07 -0.0002459
0.00175017 0.000152248 5.0175e-06
0.000152248 0.000270303 1.21384e-06
5.0175e-06 1.21384e-06 0.000127463
0.00548359 0.000148855 -0.000215061
0.000148855 0.00284371 -1.55644e-05
-0.000215061 -1.55644e-05 0.00284387
0.000569372 8.78852e-05 7.09498e-08
8.78852e-05 -0.000114922 1.08807e-07
7.09498e-08 1.08807e-07 -0.000189033
0.000618829 0.000106095 8.85878e-06
0.000106095 -0.000239304 3.26003e-06
8.85878e-06 3.26003e-06 -0.000369238
0.00543662 0.000115544 1.03912e-05
0.000115544 0.00282745 2.14613e-06
1.03912e-05 2.14613e-06 0.00282346
0.000542296 0.000110798 1.76156e-05
0.000110798 -0.000113513 8.78234e-06
1.76156e-05 8.78234e-06 -0.000193297
0.00540103 2.37525e-05 0.000185247
2.37525e-05 0.00280604 1.30995e-05
0.000185247 1.30995e-05 0.00280521
0.00171011 2.64684e-05 -6.94937e-07
2.64684e-05 0.000229409 -2.11903e-07
-6.94937e-07 -2.11903e-07 0.000109385
0.00174101 3.37855e-05 -9.07672e-07
3.37855e-05 0.000113563 1.38746e-07
-9.07672e-07 1.38746e-07 3.77705e-06
0.00172356 4.96865e-05 -1.50782e-06
4.96865e-05 6.27488e-05 3.37101e-07
-1.50782e-06 3.37101e-07 -3.02125e-05
0.000764243 -8.82919e-06 -1.36603e-05
-8.82919e-06 -0.000176423 -3.10472e-07
-1.36603e-05 -3.10472e-07 -0.000295079
0.00173015 2.49624e-06 2.76638e-06
2.49624e-06 0.000236485 -1.26001e-07
2.76638e-06 -1.26001e-07 0.00011556
0.00171859 -2.08522e-06 -4.91524e-07
-2.08522e-06 0.000104835 3.87445e-07
-4.91524e-07 3.87445e-07 -3.10948e-06
0.00174034 -1.4354e-05 6.12956e-06
-1.4354e-05 0.000235861 -1.10961e-07
6.12956e-06 -1.10961e-07 0.00011291
0.000766286 -8.3621e-06 -1.87324e-06
-8.3621e-06 -0.00018061 1.62744e-07
-1.87324e-06 1.62744e-07 -0.000301333
0.00063853 -2.444e-05 -1.8428e-05
-2.444e-05 -0.00010234 7.81215e-07
-1.8428e-05 7.81215e-07 -0.000170967
0.00101245 -2.08763e-05 9.65202e-06
-2.08763e-05 -3.53545e-05 -1.2757e-06
9.65202e-06 -1.2757e-06 -0.00015575
0.000617114 4.23604e-06 2.22432e-07
4.23604e-06 -0.000112845 5.22768e-08
2.22432e-07 5.22768e-08 -0.000182193
0.00545324 -8.03546e-05 -0.000214209
-8.03546e-05 0.00282347 5.12127e-06
-0.000214209 5.12127e-06 0.00282756
0.000621513 -2.70762e-05 1.79292e-05
-2.70762e-05 -0.000105385 -2.34988e-06
1.79292e-05 -2.34988e-06 -0.000175775
0.00543871 4.61744e-06 -3.01293e-06
4.61744e-06 0.00280971 1.22557e-06
-3.01293e-06 1.22557e-06 0.00281646
0.00542146 -6.17002e-05 0.000206909
-6.17002e-05 0.00280006 -6.7726e-06
0.000206909 -6.7726e-06 0.00280638
0.00142321 3.9251e-05 -2.72356e-06
3.9251e-05 6.86089e-05 -5.39198e-08
-2.72356e-06 -5.39198e-08 -5.8497e-05
0.00169011 6.0442e-05 -7.8165e-07
6.0442e-05 9.74478e-05 -9.48851e-07
-7.8165e-07 -9.48851e-07 -1.33466e-05
0.00176683 8.97324e-05 -4.07853e-06
8.97324e-05 8.47086e-05 -4.17554e-07
-4.07853e-06 -4.17554e-07 -7.77076e-06
0.00106231 3.90291e-05 -1.19981e-05
3.90291e-05 -6.90135e-06 -1.51764e-06
-1.19981e-05 -1.51764e-06 -0.000123878
0.0014112 6.10705e-05 1.70688e-07
6.10705e-05 5.5114e-05 6.22455e-08
1.70688e-07 6.22455e-08 -7.56162e-05
0.00166811 7.12496e-05 -1.11738e-06
7.12496e-05 8.71513e-05 -1.74265e-06
-1.11738e-06 -1.74265e-06 -2.92007e-05
0.000606798 3.81191e-05 -1.67866e-05
3.81191e-05 -0.000114619 -3.59691e-06
-1.67866e-05 -3.59691e-06 -0.000184586
0.00103745 7.15144e-05 2.04363e-07
7.15144e-05 -1.94322e-05 2.14933e-07
2.04363e-07 2.14933e-07 -0.00014063
0.00141651 0.000101317 3.84333e-06
0.000101317 6.02324e-05 4.97271e-07
3.84333e-06 4.97271e-07 -7.72933e-05
0.00545941 0.000152096 -0.000227412
0.000152096 0.00283105 -1.36584e-05
-0.000227412 -1.36584e-05 0.00283089
0.000603001 6.4822e-05 2.82408e-07
6.4822e-05 -0.000109562 1.98865e-07
2.82408e-07 1.98865e-07 -0.000181254
0.000987208 9.89651e-05 8.93926e-06
9.89651e-05 -4.06081e-05 2.84834e-06
8.93926e-06 2.84834e-06 -0.000166196
0.00544326 0.000162207 5.73554e-06
0.000162207 0.00282736 2.25534e-06
5.73554e-06 2.25534e-06 0.00282468
0.000581324 8.67052e-05 1.69391e-05
8.67052e-05 -0.000108015 6.93025e-06
1.69391e-05 6.93025e-06 -0.000182214
0.005408 0.000136239 0.000202588
0.000136239 0.00280893 1.70851e-05
0.000202588 1.70851e-05 0.0028068
0.00105911 1.20958e-05 -1.26022e-05
1.20958e-05 -3.46275e-06 -8.84793e-07
-1.26022e-05 -8.84793e-07 -0.000118342
0.00156377 2.16093e-05 3.11549e-06
2.16093e-05 0.00014523 1.08674e-07
3.11549e-06 1.08674e-07 2.4092e-05
0.00170442 2.84899e-05 -1.97125e-06
2.84899e-05 9.49462e-05 2.60781e-07
-1.97125e-06 2.60781e-07 -1.58789e-05
0.000665168 2.78288e-05 -1.89465e-05
2.78288e-05 -9.29224e-05 -4.79116e-07
-1.89465e-05 -4.79116e-07 -0.000154944
0.000755224 -3.47479e-06 -2.15229e-06
-3.47479e-06 -0.000183088 4.41612e-08
-2.15229e-06 4.41612e-08 -0.00030194
0.00175329 8.73865e-06 6.34914e-06
8.73865e-06 0.000249764 1.81718e-07
6.34914e-06 1.81718e-07 0.00012885
0.000750179 -7.81676e-06 9.40342e-06
-7.81676e-06 -0.000190602 -4.0475e-07
9.40342e-06 -4.0475e-07 -0.000311491
0.000628824 -3.25849e-06 2.19239e-07
-3.25849e-06 -0.000108086 3.32798e-07
2.19239e-07 3.32798e-07 -0.000176586
0.00546246 4.68054e-05 -0.000221024
4.68054e-05 0.00282502 -7.80465e-07
-0.000221024 -7.80465e-07 0.0028319
0.000598873 1.41207e-05 1.75539e-05
1.41207e-05 -0.000123884 -1.24163e-06
1.75539e-05 -1.24163e-06 -0.000192681
0.00544856 -7.98221e-05 -7.87294e-06
-7.98221e-05 0.00282106 1.3985e-06
-7.87294e-06 1.3985e-06 0.00282482
0.00541761 2.5602e-05 0.000198832
2.5602e-05 0.002798 -2.94781e-06
0.000198832 -2.94781e-06 0.0028042
0.00105547 2.07173e-05 -1.24471e-05
2.07173e-05 -8.09646e-06 -1.23523e-06
-1.24471e-05 -1.23523e-06 -0.000123091
0.00139738 3.87659e-05 -5.89926e-08
3.87659e-05 5.17098e-05 -9.83276e-08
-5.89926e-08 -9.83276e-08 -7.39023e-05
0.00172617 6.31675e-05 -3.10095e-06
6.31675e-05 0.000117099 -1.59709e-06
-3.10095e-06 -1.59709e-06 9.39875e-06
0.00259891 4.26099e-05 -0.000108115
4.26099e-05 0.00104395 -3.21582e-06
-0.000108115 -3.21582e-06 0.000996445
0.001044 4.09912e-05 2.15243e-07
4.09912e-05 -1.73288e-05 2.10161e-07
2.15243e-07 2.10161e-07 -0.000134575
0.00139365 6.12331e-05 3.46265e-06
6.12331e-05 4.34402e-05 6.71156e-08
3.46265e-06 6.71156e-08 -8.76625e-05
0.00541961 0.000128101 -0.000230547
0.000128101 0.00280811 -1.04298e-05
-0.000230547 -1.04298e-05 0.00280941
0.000639394 5.24515e-05 7.09683e-07
5.24515e-05 -9.4171e-05 2.78596e-07
7.09683e-07 2.78596e-07 -0.000165375
0.00101292 7.28163e-05 1.20346e-05
7.28163e-05 -3.2818e-05 2.60004e-06
1.20346e-05 2.60004e-06 -0.000154443
0.00547866 0.000164363 1.44528e-06
0.000164363 0.00284523 1.65006e-06
1.44528e-06 1.65006e-06 0.00284381
0.000633384 6.83844e-05 1.73563e-05
6.83844e-05 -9.09842e-05 5.61904e-06
1.73563e-05 5.61904e-06 -0.00016337
0.00540977 0.000185259 0.000213476
0.000185259 0.0028142 1.85395e-05
0.000213476 1.85395e-05 0.00280854
0.000702584 8.46291e-06 -1.63899e-05
8.46291e-06 -5.98824e-05 -1.82701e-06
-1.63899e-05 -1.82701e-06 -0.00012834
0.000897335 9.80636e-06 6.26751e-07
9.80636e-06 -9.6999e-05 1.74453e-07
6.26751e-07 1.74453e-07 -0.00021321
0.00141337 1.65261e-05 6.13838e-06
1.65261e-05 5.87137e-05 2.5071e-07
6.13838e-06 2.5071e-07 -6.35126e-05
0.00535708 -9.27616e-05 -0.000205621
-9.27616e-05 0.00277966 1.38518e-07
-0.000205621 1.38518e-07 0.00277715
0.000624799 7.76192e-06 -3.842e-07
7.76192e-06 -0.000111164 2.17512e-07
-3.842e-07 2.17512e-07 -0.000175899
0.000750166 1.57181e-06 9.33422e-06
1.57181e-06 -0.000187414 2.42726e-07
9.33422e-06 2.42726e-07 -0.000306458
0.000595554 2.01409e-05 1.78459e-05
2.01409e-05 -0.000127437 1.57091e-07
1.78459e-05 1.57091e-07 -0.000195565
0.00542939 1.13135e-05 2.68852e-06
1.13135e-05 0.00280958 -5.4422e-07
2.68852e-06 -5.4422e-07 0.00281357
0.00546962 9.63794e-06 0.000209939
9.63794e-06 0.00282481 -1.1408e-06
0.000209939 -1.1408e-06 0.00283268
0.00264121 4.04844e-06 -0.000105171
4.04844e-06 0.00106631 -2.06312e-06
-0.000105171 -2.06312e-06 0.00101994
0.00105686 2.33204e-05 6.17212e-08
2.33204e-05 -7.49711e-06 4.66494e-08
6.17212e-08 4.66494e-08 -0.000122629
0.0013702 3.84832e-05 3.29944e-06
3.84832e-05 3.40639e-05 -1.55896e-07
3.29944e-06 -1.55896e-07 -9.0048e-05
0.00506569 -6.37178e-05 -6.11079e-05
-6.37178e-05 0.00261301 2.34038e-07
-6.11079e-05 2.34038e-07 0.00259833
0.00065139 4.39134e-05 -1.5597e-08
4.39134e-05 -8.89106e-05 2.59999e-07
-1.5597e-08 2.59999e-07 -0.0001584
0.00104077 4.3459e-05 1.19314e-05
4.3459e-05 -1.94518e-05 1.96953e-06
1.19314e-05 1.96953e-06 -0.000136916
0.00546299 9.53036e-05 -1.11549e-05
9.53036e-05 0.0028287 -8.56696e-07
-1.11549e-05 -8.56696e-07 0.00283209
0.00067041 7.27467e-05 1.88984e-05
7.27467e-05 -7.54572e-05 4.63686e-06
1.88984e-05 4.63686e-06 -0.000147314
0.00547116 0.000188061 0.000224441
0.000188061 0.00284813 1.76512e-05
0.000224441 1.76512e-05 0.0028432
0.00166919 -4.524e-05 -0.000178853
-4.524e-05 0.000606177 5.30851e-07
-0.000178853 5.30851e-07 0.00059458
0.0016441 2.28406e-05 -4.33753e-05
2.28406e-05 0.000483103 1.73666e-07
-4.33753e-05 1.73666e-07 0.000429479
0.000740463 9.85335e-06 1.22633e-05
9.85335e-06 -0.000187695 9.45712e-07
1.22633e-05 9.45712e-07 -0.000305267
0.00538584 -3.8362e-05 8.12395e-06
-3.8362e-05 0.00279162 7.70255e-07
8.12395e-06 7.70255e-07 0.002793
0.000628872 -1.11862e-05 1.827e-05
-1.11862e-05 -0.000104584 9.92476e-07
1.827e-05 9.92476e-07 -0.000171704
0.00545538 -5.84524e-05 0.00022503
-5.84524e-05 0.00282503 -1.3524e-06
0.00022503 -1.3524e-06 0.00282978
0.00127094 -1.99488e-06 -2.96885e-05
-1.99488e-06 0.000396412 -6.43902e-07
-2.96885e-05 -6.43902e-07 0.000362541
0.00163888 1.12301e-05 -4.38622e-05
1.12301e-05 0.000483728 -4.56257e-07
-4.38622e-05 -4.56257e-07 0.00042727
0.00104543 2.44526e-05 1.2142e-05
2.44526e-05 -1.39578e-05 1.35603e-06
1.2142e-05 1.35603e-06 -0.000129256
0.00335339 4.22591e-05 8.24881e-05
4.22591e-05 0.00159975 1.80013e-06
8.24881e-05 1.80013e-06 0.00158684
0.000662156 5.25299e-05 1.89325e-05
5.25299e-05 -8.23411e-05 3.68514e-06
1.89325e-05 3.68514e-06 -0.000152101
0.00549918 8.81214e-05 0.000215033
8.81214e-05 0.00284563 1.0983e-05
0.000215033 1.0983e-05 0.00285136
0.00530526 -2.43302e-05 -8.83815e-06
-2.43302e-05 0.00274799 -1.41352e-06
-8.83815e-06 -1.41352e-06 0.00274863
0.000635903 3.86089e-05 1.94378e-05
3.86089e-05 -0.000104861 1.82586e-06
1.94378e-05 1.82586e-06 -0.000166617
0.00530635 5.39165e-05 0.00020968
5.39165e-05 0.00274297 -2.13389e-07
0.00020968 -2.13389e-07 0.00274683
0.0033037 2.66845e-05 9.62128e-05
2.66845e-05 0.00157597 2.56231e-06
9.62128e-05 2.56231e-06 0.00156267
0.000671197 4.83377e-06 1.83809e-05
4.83377e-06 -7.80526e-05 2.488e-06
1.83809e-05 2.488e-06 -0.000145061
0.00542428 -3.37089e-05 0.000207255
-3.37089e-05 0.00280512 5.05755e-06
0.000207255 5.05755e-06 0.00280955
0.00532268 -0.000130615 0.0002047
-0.000130615 0.00276443 -2.28603e-06
0.0002047 -2.28603e-06 0.00276005
0.00532925 -1.81394e-05 0.000204487
-1.81394e-05 0.00274767 2.48218e-06
0.000204487 2.48218e-06 0.00275538
