# vtk DataFile Version 2.0
Wound Healing Simulation
ASCII
DATASET UNSTRUCTURED_GRID
POINTS 3012 float
69.9759 18.75 4
67.2507 60.3285 4
69.976 18.75 2
73.0099 25.446 4
71.1327 20.9142 4
68.6801 16.6661 4
67.8276 19.9249 3.98748
67.2507 60.3286 2
71.1327 54.0858 4
68.6801 58.3339 4
65.6939 62.2254 4
65.3141 59.0039 3.98859
74.6784 42.3946 4
73.7221 47.2057 4
69.9759 18.75 0
73.0099 25.446 2
68.6801 16.6661 2
71.1327 20.9142 2
67.8282 19.9262 2
74.6792 32.6053 4
73.7222 27.7943 4
72.1454 23.1494 4
70.6157 26.2225 3.98602
68.8878 21.9583 3.98711
67.2507 14.6715 4
66.6391 17.9694 3.98807
65.8031 21.0217 3.98221
67.2507 60.3285 0
71.1327 54.0858 2
68.6801 58.3339 2
65.694 62.2255 2
65.3145 59.0034 2
72.1454 51.8506 4
69.9759 56.25 4
68.8386 53.1129 3.98679
64.0165 64.0165 4
66.6128 57.1358 3.98827
63.8874 60.7688 3.98994
63.5053 57.7786 3.98393
60.3285 67.2507 4
74.6792 42.3947 2
73.7222 47.2057 2
74.9194 39.9526 4
74.2788 44.8158 4
72.169 42.0855 3.98438
73.0099 49.554 4
71.2507 46.5972 3.98586
73.0099 25.446 0
71.1327 20.9142 0
68.6801 16.6661 0
67.8276 19.9249 0.0125174
74.6792 32.6053 2
73.7222 27.7943 2
67.2508 14.6715 2
72.1455 23.1494 2
70.6158 26.2233 2
66.6397 17.9701 2
68.8882 21.9598 2
65.8033 21.0211 2
74.9197 35.0474 4
74.2794 30.1841 4
72.1857 32.9434 3.98496
71.2795 28.4324 3.98589
69.8175 24.0609 3.98662
68.3507 26.952 3.97801
66.768 22.9317 3.9808
65.694 12.7746 4
65.3255 16.1002 3.9891
64.7196 19.1889 3.98348
63.8961 22.0289 3.97912
71.1327 54.0858 0
65.6939 62.2254 0
68.6801 58.3339 0
65.3141 59.0039 0.0114106
72.1455 51.8506 2
69.9759 56.25 2
68.8389 53.1113 2
64.0165 64.0165 2
66.6133 57.1349 2
63.8877 60.7686 2
63.5054 57.7793 2
62.2254 65.694 4
58.8948 65.4159 3.99265
69.7709 50.9878 3.98636
67.786 55.1684 3.98769
66.6552 52.211 3.98043
62.3374 62.4299 3.99133
64.6668 56.0371 3.98389
62.2065 59.412 3.9844
61.8309 56.6916 3.98143
58.3339 68.6801 4
60.3285 67.2508 2
73.7221 47.2057 0
74.6784 42.3946 0
74.9197 39.9526 2
74.2794 44.8159 2
72.169 42.0857 2
73.0099 49.554 2
71.2507 46.5971 2
75 37.5 4
72.4059 39.8021 3.98349
71.7837 44.3525 3.98531
69.8067 41.7896 3.9767
70.5769 48.8123 3.98616
68.9163 46.0147 3.97775
74.6792 32.6053 0
73.7222 27.7943 0
67.2507 14.6715 0
72.1454 23.1494 0
70.6157 26.2225 0.0139809
68.8878 21.9583 0.0128941
66.6391 17.9694 0.0119257
65.8031 21.0217 0.0177918
74.9197 35.0474 2
74.2794 30.1841 2
72.1857 32.9434 2
71.2796 28.4327 2
65.694 12.7745 2
65.326 16.1003 2
69.8176 24.0621 2
68.3506 26.9521 2
64.7199 19.1879 2
66.768 22.9314 2
63.8963 22.0281 2
72.4138 35.2242 3.9838
71.8051 30.6767 3.98576
69.843 33.2687 3.97727
68.9699 29.0387 3.97793
67.6159 24.9118 3.97925
66.1999 27.6338 3.97491
64.0165 10.9835 4
64.7646 23.8261 3.97759
63.8915 14.324 3.99023
63.5182 17.4389 3.98478
62.916 20.3112 3.98027
62.1041 22.9343 3.97745
60.6848 11.0953 3.99183
57.6132 11.4401 3.98691
72.1454 51.8506 0
69.9759 56.25 0
68.8386 53.1129 0.0132077
64.0165 64.0165 0
63.8874 60.7688 0.0100611
66.6128 57.1358 0.0117266
63.5053 57.7786 0.0160726
62.2255 65.694 2
58.895 65.416 2
69.7711 50.9866 2
67.7865 55.167 2
66.6551 52.2113 2
62.3377 62.4297 2
64.667 56.0379 2
62.2065 59.4127 2
61.8309 56.6925 2
60.6695 63.979 3.99206
57.0253 66.7367 3.99319
57.5588 63.6971 3.98741
67.5125 50.1774 3.97902
65.7083 54.177 3.98251
64.546 51.3897 3.97682
60.7755 60.9451 3.98534
62.8295 55.077 3.98154
60.6642 58.1704 3.9815
60.3377 55.7987 3.98037
56.25 69.9759 4
58.3339 68.6801 2
60.3285 67.2507 0
58.9218 9.65362 3.99241
62.2254 9.30607 4
73.0099 49.554 0
74.2788 44.8158 0
71.2507 46.5972 0.014143
72.169 42.0855 0.0156241
74.9194 39.9526 0
75 37.5 2
72.4059 39.8024 2
71.7837 44.3527 2
69.8067 41.7896 2
70.5769 48.8117 2
68.9162 46.0146 2
72.4892 37.512 3.98334
70.0427 39.6574 3.97527
69.4339 43.9074 3.97753
67.6013 41.4984 3.97347
68.2704 48.1073 3.97823
66.7156 45.4414 3.97481
74.9197 35.0474 0
74.2794 30.1841 0
72.1857 32.9434 0.0150352
71.2795 28.4324 0.0141084
65.694 12.7746 0
65.3255 16.1002 0.0108955
69.8175 24.0609 0.0133799
68.3507 26.952 0.021994
66.768 22.9317 0.0192021
64.7196 19.1889 0.016521
63.8961 22.0289 0.0208814
72.4138 35.2241 2
71.8052 30.6767 2
69.843 33.2689 2
68.9699 29.0388 2
64.0165 10.9835 2
63.8918 14.3241 2
63.5184 17.4381 2
67.6159 24.9118 2
66.1999 27.6336 2
62.9165 20.3103 2
64.7647 23.8256 2
62.1044 22.9337 2
60.685 11.0954 2
57.6132 11.4394 2
70.0597 35.3923 3.97593
69.4707 31.1498 3.97799
67.66 33.5906 3.97402
66.7776 29.622 3.97479
65.5306 25.6973 3.97602
64.1526 28.253 3.97394
62.3426 12.6523 3.99113
62.8666 24.6312 3.97605
62.2023 15.7765 3.9852
61.8215 18.6735 3.98178
61.2288 21.3301 3.97819
60.4383 23.7165 3.97689
59.2475 12.7715 3.98552
55.875 10.2268 3.98836
56.4065 13.1026 3.98372
69.7709 50.9878 0.0136423
62.2254 65.694 0
58.8948 65.4159 0.00734615
67.786 55.1684 0.0123071
66.6552 52.211 0.0195678
62.3374 62.4299 0.00867375
62.2065 59.412 0.0155979
64.6668 56.0371 0.0161098
61.8309 56.6916 0.0185704
60.6698 63.979 2
57.0255 66.7368 2
57.5587 63.6977 2
67.5123 50.1774 2
65.7084 54.1776 2
64.546 51.3903 2
60.7755 60.9459 2
62.8297 55.078 2
60.6642 58.1712 2
60.3379 55.7994 2
55.0707 67.9336 3.99346
59.2208 62.3724 3.98601
55.8051 64.9144 3.98887
56.3285 62.0981 3.98428
65.339 49.4111 3.97562
63.7157 53.2993 3.97941
62.4518 50.6588 3.97499
59.3371 59.5674 3.98314
61.0887 54.3208 3.98056
59.2965 57.0258 3.97948
59.253 55.1972 3.98111
48.1032 68.5817 3.99025
50.9484 69.9331 3.99388
54.0858 71.1327 4
56.25 69.976 2
58.3339 68.6801 0
57.0589 8.33349 3.9929
60.3285 7.74928 4
58.9221 9.65357 2
62.2255 9.30602 2
70.5769 48.8123 0.0138378
71.7837 44.3525 0.0146914
68.9163 46.0147 0.0222461
69.8067 41.7896 0.0232973
72.4059 39.8021 0.0165079
75 37.5 0
72.4892 37.5122 2
70.0428 39.6574 2
69.4339 43.9074 2
67.6014 41.4986 2
68.2703 48.1072 2
66.7156 45.4416 2
70.1307 37.5217 3.97526
67.8367 39.5128 3.97203
67.2289 43.4712 3.97441
65.5609 41.2119 3.97251
66.0752 47.42 3.97524
64.6594 44.8517 3.9739
72.4138 35.2242 0.0161963
71.8051 30.6767 0.014242
69.843 33.2687 0.0227268
68.9699 29.0387 0.0220709
64.0165 10.9835 0
63.8915 14.324 0.00977059
63.5182 17.4389 0.0152158
67.6159 24.9118 0.0207473
66.1999 27.6338 0.0250885
64.7646 23.8261 0.0224096
62.916 20.3112 0.01973
62.1041 22.9343 0.0225535
60.6848 11.0953 0.00817054
57.6132 11.4401 0.0130928
70.0599 35.3925 2
69.4708 31.15 2
67.6601 33.5905 2
66.7777 29.6219 2
62.3429 12.6525 2
62.2024 15.7759 2
61.8218 18.6725 2
65.5306 25.697 2
64.1527 28.2528 2
61.2293 21.3293 2
62.8668 24.6307 2
60.4387 23.7159 2
59.2475 12.7708 2
56.4065 13.1018 2
55.8751 10.226 2
67.8734 35.5477 3.97283
67.2709 31.6216 3.97493
65.7034 33.9262 3.97283
64.6696 30.1897 3.97367
63.5458 26.4103 3.97454
62.2645 28.7737 3.97455
60.7772 14.2159 3.98509
61.0557 25.3298 3.97531
60.618 17.1164 3.98307
60.2321 19.8029 3.97986
59.6736 22.245 3.97677
58.9916 24.3075 3.97734
54.038 9.13039 3.98895
57.9121 14.3214 3.98342
54.7876 12.0018 3.98496
55.3141 14.6332 3.98238
67.5125 50.1774 0.0209839
57.0253 66.7367 0.00681353
60.6695 63.979 0.0079449
57.5588 63.6971 0.0125878
65.7083 54.177 0.0174931
64.546 51.3897 0.0231782
60.7755 60.9451 0.0146577
60.6642 58.1704 0.0184987
62.8295 55.077 0.0184604
60.3377 55.7987 0.0196335
55.0709 67.9336 2
59.2207 62.3733 2
55.805 64.915 2
56.3284 62.0988 2
65.3389 49.4115 2
63.7158 53.3002 2
62.4519 50.6594 2
59.3372 59.5683 2
61.0888 54.3216 2
59.2966 57.0265 2
59.2532 55.1979 2
53.0426 69.0013 3.9937
53.9673 66.0164 3.98949
57.8831 60.8792 3.98368
54.6847 63.2143 3.98553
55.2135 60.6261 3.98266
63.2029 48.6662 3.97412
61.7534 52.5846 3.97788
60.2847 50.0285 3.97399
58.0232 58.2735 3.98096
59.3398 53.9608 3.9797
58.1354 55.8271 3.9775
50.1098 67.8597 3.99006
47.4638 66.5861 3.98798
46.0569 69.1612 3.99046
48.1032 68.5821 2
48.8026 70.7243 3.99403
50.9487 69.9331 2
51.8506 72.1454 4
54.0858 71.1327 2
56.25 69.9759 0
55.1031 7.1381 3.9931
58.3339 6.31992 4
57.0592 8.33336 2
60.3286 7.74926 2
58.9218 9.65362 0.00758863
62.2254 9.30607 0
68.2704 48.1073 0.0217715
69.4339 43.9074 0.0224726
66.7156 45.4414 0.0251878
67.6013 41.4984 0.0265255
70.0427 39.6574 0.0247284
72.4892 37.512 0.0166634
70.1308 37.5218 2
67.8368 39.5129 2
67.2289 43.4714 2
65.5611 41.2122 2
66.0751 47.4203 2
64.6594 44.852 2
67.9329 37.5224 3.97195
65.7904 39.3715 3.97103
65.1825 43.0282 3.97343
63.7616 40.9326 3.97226
63.9735 46.7207 3.97413
62.8155 44.2215 3.9744
70.0597 35.3923 0.0240709
69.4707 31.1498 0.0220144
67.66 33.5906 0.0259826
66.7776 29.622 0.0252074
62.3426 12.6523 0.00887331
62.2023 15.7765 0.0147966
61.8215 18.6735 0.0182165
65.5306 25.6973 0.0239806
64.1526 28.253 0.0260636
62.8666 24.6312 0.0239521
61.2288 21.3301 0.0218095
60.4383 23.7165 0.0231144
59.2475 12.7715 0.014479
56.4065 13.1026 0.0162789
55.875 10.2268 0.0116353
67.8736 35.5477 2
67.271 31.6215 2
65.7036 33.926 2
64.6697 30.1896 2
60.7772 14.2153 2
60.6181 17.1155 2
60.2326 19.802 2
63.5459 26.41 2
62.2646 28.7735 2
59.6742 22.2443 2
61.056 25.3294 2
58.9921 24.3071 2
57.9121 14.3207 2
55.314 14.6323 2
54.038 9.12977 2
54.7876 12.0009 2
65.8801 35.6667 3.97169
65.1932 32.152 3.97368
64.2907 34.2489 3.97282
62.6028 30.6321 3.97338
61.6596 27.067 3.97363
60.8583 29.1343 3.97544
59.3136 15.6582 3.98347
59.3424 25.7861 3.97764
59.13 18.342 3.98194
58.7506 20.839 3.97785
58.2978 23.0775 3.97549
57.9815 24.6513 3.97772
52.1126 8.14912 3.98928
53.0584 11.0084 3.98598
56.6788 15.7297 3.9826
53.8106 13.668 3.98328
54.3783 15.9841 3.98214
55.0707 67.9336 0.00654064
65.339 49.4111 0.0243751
55.8051 64.9144 0.0111314
59.2208 62.3724 0.0139916
56.3285 62.0981 0.0157203
63.7157 53.2993 0.0205918
62.4518 50.6588 0.0250126
59.3371 59.5674 0.0168642
59.2965 57.0258 0.0205229
61.0887 54.3208 0.0194396
59.253 55.1972 0.0188944
53.0428 69.0014 2
53.9672 66.0169 2
57.8831 60.8799 2
54.6845 63.2149 2
55.2133 60.627 2
63.2029 48.6666 2
61.7536 52.5854 2
60.2848 50.0292 2
58.0233 58.2743 2
59.34 53.9615 2
58.1355 55.8277 2
52.0708 67.0028 3.98985
52.9537 64.2243 3.98663
56.6515 59.4999 3.98239
53.6823 61.6312 3.98375
54.2628 59.3325 3.98132
61.0035 47.888 3.97318
59.7231 52.1171 3.97752
58.0372 49.6298 3.97574
56.7828 57.0017 3.97774
57.1323 54.1371 3.97752
50.1097 67.86 2
49.3374 65.9263 3.98778
47.4636 66.5866 2
46.8926 64.7434 3.98642
45.5589 67.1037 3.98787
43.9739 69.5936 3.99049
46.0569 69.1616 2
46.6093 71.3688 3.99421
48.1032 68.5817 0.009752
48.8029 70.7244 2
49.554 73.0099 4
50.9484 69.9331 0.00612454
51.8506 72.1455 2
54.0858 71.1327 0
53.0641 6.06969 3.9933
55.1033 7.13797 2
56.25 5.02411 4
58.3339 6.3199 2
57.0589 8.33349 0.00710037
60.3285 7.74928 0
66.0752 47.42 0.024763
67.2289 43.4712 0.0255863
64.6594 44.8517 0.0261019
65.5609 41.2119 0.0274884
67.8367 39.5128 0.0279743
70.1307 37.5217 0.024744
67.933 37.5224 2
65.7905 39.3716 2
65.1826 43.0285 2
63.7618 40.9329 2
63.9735 46.7211 2
62.8156 44.2218 2
65.8933 37.5024 3.97059
63.9035 39.2685 3.97091
63.3366 42.5545 3.97315
62.4386 40.7008 3.97254
61.9768 45.9254 3.97437
61.4615 43.6897 3.97461
67.8734 35.5477 0.0271713
67.2709 31.6216 0.0250709
65.7034 33.9262 0.0271689
64.6696 30.1897 0.026333
60.7772 14.2159 0.0149063
60.618 17.1164 0.0169275
60.2321 19.8029 0.0201394
63.5458 26.4103 0.0254616
62.2645 28.7737 0.0254512
61.0557 25.3298 0.0246914
59.6736 22.245 0.0232308
58.9916 24.3075 0.0226644
57.9121 14.3214 0.0165751
55.3141 14.6332 0.01762
54.038 9.13039 0.0110459
54.7876 12.0018 0.0150409
65.8804 35.6666 2
65.1933 32.1518 2
64.2909 34.2486 2
62.603 30.6319 2
59.3135 15.6573 2
59.1304 18.341 2
58.7513 20.8381 2
61.6598 27.0667 2
60.8585 29.1341 2
58.2984 23.077 2
59.3428 25.7857 2
57.982 24.6509 2
56.6787 15.7289 2
54.3781 15.9832 2
53.8106 13.667 2
52.1125 8.14855 2
53.0584 11.0077 2
64.0954 35.6323 3.97155
62.9395 33.0438 3.97287
60.6241 30.6066 3.97269
59.5807 27.9021 3.97384
57.943 16.9705 3.98267
57.7527 25.7136 3.97921
57.7222 19.4609 3.98046
57.3817 21.8244 3.9754
57.1991 23.9323 3.97505
50.1126 7.28126 3.98949
51.2327 10.1171 3.98668
52.1726 12.7855 3.98455
55.5401 16.958 3.98258
52.979 15.249 3.98163
53.7605 16.9655 3.98228
53.0426 69.0013 0.00630324
53.9673 66.0164 0.0105136
63.2029 48.6662 0.0258793
54.6847 63.2143 0.0144683
57.8831 60.8792 0.0163219
55.2135 60.6261 0.0173359
61.7534 52.5846 0.0221205
60.2847 50.0285 0.0260131
58.0232 58.2735 0.0190389
58.1354 55.8271 0.0225005
59.3398 53.9608 0.0203046
52.0707 67.0032 2
52.9535 64.2249 2
56.6515 59.5007 2
53.6821 61.632 2
54.2627 59.3335 2
61.0035 47.8884 2
59.7234 52.1178 2
58.0374 49.6303 2
56.783 57.0027 2
57.1325 54.1375 2
51.1682 65.1332 3.98734
52.0467 62.5463 3.98483
55.4845 58.2622 3.9818
52.8363 60.1455 3.98223
53.6434 58.4828 3.98035
58.3177 46.86 3.97549
57.5739 51.8009 3.97687
56.26 49.5661 3.98122
55.479 55.8077 3.97662
55.3683 53.3961 3.9723
50.1098 67.8597 0.00993647
49.3372 65.9267 2
48.6183 64.1297 3.986
47.4638 66.5861 0.0120231
45.5587 67.1041 2
46.8924 64.7439 2
46.382 63.0621 3.98521
45.1329 65.205 3.98654
43.632 67.4746 3.98802
41.8611 69.8812 3.99045
43.9739 69.5941 2
44.3767 71.8636 3.99419
46.0569 69.1612 0.00953865
46.6095 71.3689 2
47.2057 73.7222 4
48.8026 70.7243 0.00596525
49.554 73.0099 2
51.8506 72.1454 0
50.9538 5.13013 3.99349
53.0643 6.06953 2
54.0858 3.86728 4
55.1031 7.1381 0.00689807
56.25 5.02406 2
58.3339 6.31992 0
63.9735 46.7207 0.0258682
65.1825 43.0282 0.0265692
62.8155 44.2215 0.0256011
63.7616 40.9326 0.0277362
65.7904 39.3715 0.0289679
67.9329 37.5224 0.0280496
65.8933 37.5024 2
63.9037 39.2686 2
63.3368 42.5548 2
62.4388 40.701 2
61.9769 45.9257 2
61.4616 43.6899 2
63.9636 37.4577 3.97063
62.1643 39.3569 3.9715
61.2288 41.9632 3.97317
60.2614 44.7786 3.97496
65.8801 35.6667 0.0283081
65.1932 32.152 0.026318
64.2907 34.2489 0.0271793
62.6028 30.6321 0.0266199
59.3136 15.6582 0.016529
59.13 18.342 0.0180581
58.7506 20.839 0.0221519
61.6596 27.067 0.0263692
60.8583 29.1343 0.0245551
59.3424 25.7861 0.0223638
58.2978 23.0775 0.0245139
57.9815 24.6513 0.0222836
56.6788 15.7297 0.0174005
54.3783 15.9841 0.0178587
53.8106 13.668 0.0167169
52.1126 8.14912 0.0107154
53.0584 11.0084 0.0140203
64.0959 35.6322 2
62.9396 33.0435 2
60.6243 30.6064 2
57.9431 16.9696 2
57.7228 19.4598 2
57.3824 21.8237 2
59.5809 27.9018 2
57.1997 23.932 2
57.7532 25.7134 2
50.1126 7.28082 2
55.54 16.957 2
53.7604 16.9644 2
52.9789 15.2479 2
52.1725 12.7847 2
51.2326 10.1165 2
62.1979 35.3585 3.97141
60.304 32.743 3.97254
58.6336 30.069 3.97266
57.3028 27.3695 3.97412
56.6402 18.1418 3.98252
56.3062 25.0889 3.97454
56.3649 20.5058 3.97766
56.1201 22.8535 3.97236
48.0562 6.52449 3.98977
49.3244 9.32537 3.987
50.4333 11.984 3.98493
51.3787 14.4845 3.98311
54.418 17.9062 3.98263
52.363 17.0207 3.98133
52.0708 67.0028 0.0101526
52.9537 64.2243 0.0133674
61.0035 47.888 0.0268159
53.6823 61.6312 0.016245
56.6515 59.4999 0.0176137
54.2628 59.3325 0.0186837
59.7231 52.1171 0.0224785
58.0372 49.6298 0.0242618
56.7828 57.0017 0.0222552
57.1323 54.1371 0.0224827
51.168 65.1337 2
52.0465 62.5469 2
55.4845 58.2632 2
52.836 60.1463 2
53.6432 58.4838 2
58.3179 46.8603 2
57.5742 51.8013 2
56.2602 49.5667 2
55.4793 55.8087 2
55.3686 53.3969 2
50.3465 63.3878 3.98555
51.2451 60.9444 3.98302
54.2244 57.2767 3.98011
52.3152 58.6455 3.98064
56.7365 44.1941 3.97342
55.5069 47.9091 3.97682
55.0826 51.3991 3.97313
54.0128 54.5584 3.97495
49.3374 65.9263 0.0122192
48.6181 64.1301 2
47.9623 62.483 3.98483
45.5589 67.1037 0.0121339
46.8926 64.7434 0.0135844
43.6318 67.4751 2
46.3818 63.0626 2
45.1327 65.2055 2
45.9874 61.5957 3.98427
44.7673 63.4635 3.98576
43.3568 65.515 3.98672
41.664 67.6938 3.98799
39.7026 70.0284 3.99032
41.8611 69.8816 2
42.1111 72.2084 3.9941
43.9739 69.5936 0.00950571
44.3769 71.8638 2
44.8159 74.2794 4
46.6093 71.3688 0.00578588
47.2057 73.7222 2
49.554 73.0099 0
48.7842 4.32121 3.99371
50.954 5.12997 2
51.8506 2.85458 4
53.0641 6.06969 0.00670038
54.0858 3.86728 2
56.25 5.02411 0
61.9768 45.9254 0.0256251
63.3366 42.5545 0.0268476
61.4615 43.6897 0.0253938
62.4386 40.7008 0.0274574
63.9035 39.2685 0.0290904
65.8933 37.5024 0.0294142
63.9637 37.4577 2
62.1646 39.357 2
61.2289 41.9634 2
60.2614 44.7788 2
61.9996 37.445 3.97119
60.2606 39.851 3.97252
59.0108 42.9255 3.97374
64.0954 35.6323 0.0284513
62.9395 33.0438 0.0271262
60.6241 30.6066 0.0273137
57.943 16.9705 0.0173349
57.7222 19.4609 0.019542
57.3817 21.8244 0.0245988
59.5807 27.9021 0.0261637
57.7527 25.7136 0.0207932
57.1991 23.9323 0.0249497
55.5401 16.958 0.017423
53.7605 16.9655 0.0177172
52.979 15.249 0.0183671
50.1126 7.28126 0.0105079
52.1726 12.7855 0.0154462
51.2327 10.1171 0.0133177
62.1984 35.3586 2
60.304 32.7427 2
58.6339 30.069 2
56.6405 18.1407 2
56.3658 20.5046 2
56.1211 22.8532 2
57.3031 27.3692 2
56.3069 25.089 2
48.0563 6.52401 2
49.3243 9.32494 2
54.418 17.905 2
52.3628 17.0197 2
51.3786 14.4836 2
50.4332 11.9833 2
59.9079 35.1193 3.97217
58.0132 32.2664 3.9733
56.5599 29.3305 3.97195
55.4615 26.5879 3.97665
55.3467 19.175 3.9822
54.9424 24.042 3.9715
55.0098 21.5475 3.97524
45.9621 5.87959 3.99007
43.3733 7.46892 3.98814
47.3547 8.61943 3.98725
48.5998 11.2859 3.9855
49.7143 13.732 3.98387
50.6348 16.1178 3.98118
53.1278 18.6449 3.9806
51.3048 18.0334 3.98529
51.1682 65.1332 0.012656
52.0467 62.5463 0.0151721
58.3177 46.86 0.0245126
52.8363 60.1455 0.0177722
55.4845 58.2622 0.0182047
53.6434 58.4828 0.0196545
57.5739 51.8009 0.0231313
56.26 49.5661 0.0187758
55.479 55.8077 0.0233842
55.3683 53.3961 0.0276977
50.3463 63.3882 2
51.2448 60.9451 2
54.2245 57.2779 2
52.315 58.6462 2
56.7367 44.1943 2
55.507 47.9098 2
55.0829 51.3996 2
54.0132 54.5602 2
49.5922 61.7529 3.98424
55.6678 41.7147 3.97541
50.5685 59.3384 3.98068
52.1903 56.5016 3.97743
54.2071 45.5787 3.9765
53.3559 49.3374 3.97466
52.6791 52.8604 3.97183
48.6183 64.1297 0.0140005
47.962 62.4834 2
47.3295 61.0185 3.98375
43.632 67.4746 0.0119762
45.1329 65.205 0.0134593
46.382 63.0621 0.0147919
41.6638 67.6943 2
43.3566 65.5155 2
45.9871 61.5962 2
44.7671 63.464 2
45.7664 60.6404 3.98342
44.4832 61.8457 3.98448
43.1466 63.7364 3.98563
41.5463 65.6531 3.98669
39.6329 67.7736 3.98783
37.5261 70.0536 3.99023
39.7027 70.0289 2
39.8179 72.4055 3.99403
41.8611 69.8812 0.00955455
42.1112 72.2086 2
42.3947 74.6792 4
44.3767 71.8636 0.00581485
44.8159 74.2794 2
47.2057 73.7222 0
43.8514 5.35668 3.99032
46.5703 3.6458 3.99394
48.7845 4.32101 2
49.554 1.99015 4
50.9538 5.13013 0.00651267
51.8506 2.85453 2
54.0858 3.86728 0
60.2614 44.7786 0.0250423
61.2288 41.9632 0.0268262
62.1643 39.3569 0.0285029
63.9636 37.4577 0.0293666
62.0002 37.4451 2
60.261 39.8511 2
59.0109 42.9256 2
59.7714 37.5684 3.97211
58.0217 40.6632 3.97319
55.1434 39.728 3.97635
62.1979 35.3585 0.02859
60.304 32.743 0.0274562
58.6336 30.069 0.027336
56.6402 18.1418 0.0174848
56.3649 20.5058 0.0223437
56.1201 22.8535 0.0276413
57.3028 27.3695 0.0258768
56.3062 25.0889 0.0254621
54.418 17.9062 0.0173741
52.363 17.0207 0.018667
51.3787 14.4845 0.0168866
48.0562 6.52449 0.0102327
49.3244 9.32537 0.0130023
50.4333 11.984 0.0150746
59.9087 35.1194 2
45.9621 5.87911 2
43.3733 7.46842 2
58.013 32.2662 2
56.5605 29.3304 2
55.3472 19.1737 2
55.011 21.5458 2
54.9433 24.0427 2
55.4619 26.5881 2
47.3547 8.61891 2
48.5997 11.2855 2
53.128 18.6437 2
51.3049 18.0326 2
50.6346 16.1169 2
49.7142 13.7313 2
57.4214 34.7598 3.97441
55.7501 31.5132 3.97252
54.5227 28.3923 3.97657
53.7866 25.4847 3.97453
53.9743 20.1223 3.98196
53.5904 22.6951 3.97211
41.3983 7.07408 3.98836
45.3594 7.99092 3.98748
42.8649 9.40964 3.98665
46.666 10.6471 3.98556
47.7453 13.0927 3.98409
48.932 15.3889 3.98302
50.0079 17.6871 3.97911
51.6547 19.3098 3.98703
50.3465 63.3878 0.0144547
51.2451 60.9444 0.016978
56.7365 44.1941 0.0265765
55.5069 47.9091 0.023183
52.3152 58.6455 0.0193629
54.2244 57.2767 0.019891
55.0826 51.3991 0.0268672
54.0128 54.5584 0.0250548
49.5919 61.7533 2
55.669 41.7145 2
50.5682 59.3392 2
52.1905 56.5023 2
54.208 45.5792 2
53.3561 49.3373 2
52.6796 52.8606 2
48.8497 60.2113 3.98276
52.5778 42.6577 3.97616
49.7921 57.6378 3.97949
50.6013 54.4373 3.97582
51.8351 47.2816 3.97823
51.2292 50.9521 3.97102
48.2141 43.8139 3.98909
47.9623 62.483 0.0151709
47.3291 61.0188 2
46.6193 59.8054 3.9828
41.664 67.6938 0.0120056
43.3568 65.515 0.0132818
44.7673 63.4635 0.0142362
45.9874 61.5957 0.0157346
39.6328 67.7741 2
41.5462 65.6535 2
45.7661 60.6408 2
43.1464 63.7367 2
44.4829 61.8462 2
44.6238 60.3032 3.98373
42.9504 62.0947 3.98502
41.6 63.8301 3.98557
39.6478 65.6215 3.9865
37.5634 67.7561 3.98781
31.6971 65.1402 3.98656
33.392 67.4937 3.98771
35.3333 69.9636 3.99018
37.526 70.0541 2
37.5096 72.46 3.99394
39.7026 70.0284 0.00968162
39.8179 72.4058 2
39.9526 74.9197 4
42.1111 72.2084 0.0058966
42.3947 74.6792 2
44.8159 74.2794 0
41.7359 4.96578 3.99058
43.8514 5.35622 2
44.3256 3.10913 3.99405
46.5705 3.64556 2
47.2057 1.27793 4
48.7842 4.32121 0.00629149
49.554 1.99013 2
51.8506 2.85458 0
59.0108 42.9255 0.026261
60.2606 39.851 0.0274794
61.9996 37.445 0.0288144
59.7722 37.5685 2
58.0225 40.6633 2
55.1441 39.7279 2
56.846 37.8993 3.97463
49.6555 41.3427 3.98228
53.1838 39.3139 3.97669
39.4416 6.79749 3.98858
59.9079 35.1193 0.0278335
58.0132 32.2664 0.0266977
56.5599 29.3305 0.0280459
55.3467 19.175 0.0177952
55.0098 21.5475 0.0247584
54.9424 24.042 0.0285017
55.4615 26.5879 0.0233492
53.1278 18.6449 0.0193961
51.3048 18.0334 0.0147085
50.6348 16.1178 0.0188227
45.9621 5.87959 0.00992973
49.7143 13.732 0.0161326
47.3547 8.61943 0.0127514
48.5998 11.2859 0.0145036
43.3733 7.46892 0.0118612
57.4225 34.7599 2
41.3984 7.07353 2
45.3594 7.99044 2
42.8649 9.40911 2
55.7499 31.5132 2
54.523 28.3928 2
53.9749 20.1206 2
53.5914 22.6908 2
53.7873 25.4854 2
46.6659 10.6466 2
47.745 13.0922 2
51.6552 19.309 2
50.0079 17.6861 2
48.9318 15.388 2
54.9254 33.9695 3.97461
53.5144 30.4756 3.97291
52.606 27.1856 3.97624
52.1559 24.0796 3.97361
52.3972 21.0472 3.98116
41.0129 9.04278 3.98666
44.723 9.99018 3.98588
42.4675 10.8954 3.98494
46.0047 12.7212 3.98423
47.6818 14.574 3.98371
48.1149 16.9762 3.98096
49.8197 19.5876 3.97717
49.5922 61.7529 0.0157617
50.5685 59.3384 0.0193243
55.6678 41.7147 0.0245883
54.2071 45.5787 0.0234979
53.3559 49.3374 0.0253419
52.1903 56.5016 0.0225693
52.6791 52.8604 0.0281665
48.8493 60.2117 2
52.5792 42.6571 2
49.792 57.6386 2
50.6016 54.4385 2
51.8352 47.281 2
51.2297 50.9515 2
48.2119 43.8179 2
47.9884 58.7536 3.98198
50.1388 45.2949 3.97494
48.6027 55.9288 3.98091
49.1395 52.6062 3.97538
49.6884 49.0564 3.97372
46.0713 39.8913 3.9074
46.4662 42.7055 3.95526
46.5309 45.858 3.98966
43.914 41.1941 3.91675
42.0815 42.0217 3.89034
47.3295 61.0185 0.016255
46.6188 59.8057 2
45.4691 58.8023 3.98293
39.6329 67.7736 0.0121691
41.5463 65.6531 0.0133064
43.1466 63.7364 0.0143698
44.4832 61.8457 0.0155182
45.7664 60.6404 0.0165833
41.5998 63.8304 2
37.5634 67.7566 2
39.6477 65.6219 2
44.6234 60.3036 2
42.9501 62.095 2
41.7535 62.5056 3.98538
42.4818 59.996 3.98457
39.8935 63.5656 3.98543
37.6424 65.5207 3.98603
35.4634 67.6655 3.98779
33.5754 65.3537 3.98633
31.9596 63.3139 3.98559
29.8832 64.731 3.98657
31.6972 65.1406 2
31.3765 67.2033 3.9878
33.3921 67.4941 2
33.156 69.757 3.9902
35.3332 69.9641 2
35.1949 72.3744 3.9939
37.5261 70.0536 0.00977072
37.5095 72.4603 2
37.5 75 4
39.8179 72.4055 0.0059652
39.9526 74.9197 2
42.3947 74.6792 0
39.6234 4.71289 3.99074
41.736 4.96529 2
42.062 2.71675 3.99422
43.8514 5.35668 0.0096807
44.3257 3.10887 2
44.8158 0.721173 4
46.5703 3.6458 0.0060638
47.2057 1.27779 2
49.554 1.99015 0
58.0217 40.6632 0.02681
59.7714 37.5684 0.027888
55.1434 39.728 0.0236499
49.6593 41.3452 2
56.8466 37.8994 2
53.1844 39.3135 2
54.0251 36.6289 3.97594
47.5883 40.4415 3.96404
50.621 38.5135 3.98058
37.5153 6.66852 3.98856
39.4417 6.79694 2
39.2103 8.68514 3.98695
35.9407 8.48483 3.98725
57.4214 34.7598 0.0255931
55.7501 31.5132 0.0274826
54.5227 28.3923 0.0234314
53.9743 20.1223 0.0180449
53.5904 22.6951 0.0278933
53.7866 25.4847 0.0254725
51.6547 19.3098 0.0129736
50.0079 17.6871 0.0208914
48.932 15.3889 0.0169788
45.3594 7.99092 0.0125179
47.7453 13.0927 0.0159128
46.666 10.6471 0.0144388
41.3983 7.07408 0.011638
42.8649 9.40964 0.0133483
54.9269 33.9697 2
41.0129 9.04218 2
44.723 9.98977 2
42.4674 10.8948 2
53.5144 30.4745 2
52.6066 27.1877 2
52.3981 21.0462 2
52.1576 24.0792 2
46.0044 12.7207 2
47.6815 14.5733 2
49.8201 19.5861 2
48.1148 16.9751 2
52.4715 32.8689 3.97675
51.3507 29.143 3.9718
50.8065 25.7111 3.97298
49.9462 22.1668 3.97933
40.5682 11.5985 3.9847
43.8573 11.9107 3.98502
45.8031 15.4094 3.98349
47.5058 19.2086 3.97882
46.4117 37.5059 3.9118
48.8497 60.2113 0.0172363
49.7921 57.6378 0.0205078
52.5778 42.6577 0.0238437
51.8351 47.2816 0.0217716
51.2292 50.9521 0.028985
50.6013 54.4373 0.0241753
48.2141 43.8139 0.0109137
47.988 58.7539 2
50.1404 45.2971 2
48.6026 55.9299 2
49.1399 52.6094 2
49.6887 49.0558 2
46.0825 39.8966 2
46.4763 42.7154 2
46.5287 45.8482 2
43.9265 41.2007 2
42.0868 42.0235 2
46.8408 57.3572 3.9828
44.6771 39.4749 3.90764
42.4577 40.8901 3.90512
48.1142 47.2553 3.97772
47.1743 54.2652 3.98156
47.6015 50.762 3.97587
44.8283 47.4342 3.99943
45.1425 41.9867 3.91267
44.9491 44.6159 3.95655
42.726 42.7163 3.91907
40.9418 42.3574 3.91595
46.6193 59.8054 0.0172044
45.4686 58.8026 2
43.8774 57.7275 3.98373
37.5634 67.7561 0.0121869
39.6478 65.6215 0.0135034
41.6 63.8301 0.0144316
42.9504 62.0947 0.0149842
44.6238 60.3032 0.0162712
35.4634 67.666 2
41.7532 62.5059 2
39.8933 63.5659 2
37.6423 65.5211 2
42.4814 59.9964 2
40.6233 61.6646 3.98466
40.4459 58.2301 3.98426
37.8369 63.2271 3.98547
35.573 65.4429 3.9862
33.5755 65.354 2
31.9596 63.3142 2
33.6292 63.3539 3.98534
30.3786 62.8723 3.98567
32.1233 62.0212 3.98505
26.8681 61.5155 3.98467
28.062 64.1588 3.98639
29.8833 64.7314 2
29.4059 66.7668 3.98781
31.6971 65.1402 0.0134396
31.3766 67.2038 2
31.0132 69.4219 3.99017
33.392 67.4937 0.0122903
33.1559 69.7574 2
32.892 72.1487 3.99393
35.3333 69.9636 0.00981503
35.1949 72.3747 2
35.0474 74.9194 4
37.5096 72.46 0.00606406
37.5 75 2
39.9526 74.9197 0
35.6197 6.71949 3.98864
37.5225 4.61236 3.99086
39.6235 4.71243 2
39.7884 2.4732 3.99434
41.7359 4.96578 0.00942169
42.0621 2.71646 2
42.3946 0.32156 4
44.3256 3.10913 0.00594841
44.8159 0.72056 2
47.2057 1.27793 0
49.6555 41.3427 0.0177213
56.846 37.8993 0.025369
53.1838 39.3139 0.0233141
47.5925 40.443 2
50.6226 38.5143 2
54.0253 36.6291 2
51.4057 35.5831 3.9665
48.2583 37.7738 3.97463
46.0697 35.1363 3.91358
43.9129 33.8162 3.91367
42.0746 32.9903 3.88881
37.457 8.52681 3.98711
37.5153 6.66797 2
39.4416 6.79749 0.0114244
39.2104 8.6845 2
38.9754 10.1171 3.98653
35.8972 9.76397 3.98607
34.1491 8.81425 3.98709
35.9406 8.48414 2
54.9254 33.9695 0.0253863
53.5144 30.4756 0.0270922
52.606 27.1856 0.0237564
52.3972 21.0472 0.0188397
52.1559 24.0796 0.0263941
49.8197 19.5876 0.022825
48.1149 16.9762 0.0190422
47.6818 14.574 0.0162941
44.723 9.99018 0.0141196
46.0047 12.7212 0.0157736
41.0129 9.04278 0.0133365
42.4675 10.8954 0.0150553
52.473 32.8682 2
40.5681 11.5979 2
43.8571 11.9103 2
51.3532 29.1446 2
50.8086 25.7122 2
49.9473 22.1651 2
45.8027 15.4088 2
47.5061 19.2075 2
50.0368 31.4022 3.96543
49.3076 27.4562 3.97908
49.4174 24.3782 3.98027
47.1904 21.9111 3.97775
38.3006 12.7224 3.9846
42.1007 14.2933 3.98354
44.8018 18.4421 3.9832
44.9624 37.5136 3.90951
46.4294 37.5107 2
47.9884 58.7536 0.0180192
48.6027 55.9288 0.0190944
50.1388 45.2949 0.0250636
49.6884 49.0564 0.026285
49.1395 52.6062 0.0246192
46.0713 39.8913 0.0926037
46.4662 42.7055 0.0447361
46.5309 45.858 0.0103355
43.914 41.1941 0.083254
42.0815 42.0217 0.109665
46.8404 57.3576 2
44.6913 39.479 2
42.4592 40.8891 2
48.1144 47.2549 2
47.1744 54.2662 2
47.6021 50.7633 2
44.8303 47.4198 2
45.1514 41.9948 2
44.9606 44.6283 2
42.7444 42.7254 2
40.9477 42.3559 2
45.4007 55.9447 3.98339
42.8063 39.2748 3.92014
40.9089 40.8073 3.96058
46.1132 48.9303 3.98098
45.5546 52.5611 3.98339
43.4752 48.4797 3.9973
43.3672 46.1872 3.96291
43.7103 43.8042 3.90779
41.2116 43.8816 3.92018
39.3153 42.6866 3.92765
45.4691 58.8023 0.0170675
43.8769 57.7278 2
42.1083 56.3547 3.98489
35.4634 67.6655 0.0122111
37.6424 65.5207 0.0139699
39.8935 63.5656 0.014566
41.7535 62.5056 0.0146246
42.4818 59.996 0.0154282
35.573 65.4433 2
40.6229 61.6649 2
37.8368 63.2273 2
40.4454 58.2304 2
38.9269 56.5257 3.98698
38.2508 60.3498 3.9851
35.6072 63.2208 3.98522
33.5754 65.3537 0.0136717
31.9596 63.3139 0.0144121
33.6292 63.3542 2
30.3787 62.8726 2
32.1233 62.0214 2
28.681 62.2175 3.98546
33.3461 61.5343 3.98511
31.0663 61.2385 3.98499
27.5665 59.614 3.98291
23.7883 59.1008 3.98285
25.0332 60.888 3.98381
26.8683 61.5157 2
26.2285 63.4909 3.98603
28.0622 64.1591 2
27.4624 66.1905 3.98779
29.8832 64.731 0.0134286
29.406 66.7673 2
28.9054 68.9473 3.99016
31.3765 67.2033 0.0122018
31.0131 69.4223 2
30.6144 71.7797 3.99395
33.156 69.757 0.00980256
32.8918 72.1489 2
32.6054 74.6784 4
35.1949 72.3744 0.00609662
35.0474 74.9197 2
37.5 75 0
33.7222 6.97409 3.98836
35.4338 4.68273 3.99085
35.6197 6.71887 2
37.5139 2.38583 3.99441
37.5226 4.6119 2
39.6234 4.71289 0.00926401
39.7885 2.4729 2
39.9526 0.0806499 4
42.062 2.71675 0.00578327
42.3947 0.320817 2
44.8158 0.721173 0
44.6835 35.5385 3.9073
42.4564 34.1171 3.90387
47.5883 40.4415 0.0359553
50.621 38.5135 0.0194216
54.0251 36.6289 0.0240605
48.2613 37.7725 2
51.4074 35.582 2
46.0784 35.1285 2
43.9293 33.8057 2
42.079 32.9901 2
48.4188 34.2755 3.99529
45.1372 33.0312 3.90651
42.7234 32.2989 3.91952
40.9338 32.6541 3.91903
37.3093 10.62 3.98574
37.457 8.52613 2
37.5153 6.66852 0.0114387
39.2103 8.68514 0.0130485
38.9754 10.1164 2
34.7523 10.3694 3.9857
35.8972 9.76321 2
32.3758 9.36082 3.98644
34.149 8.8135 2
35.9407 8.48483 0.0127548
52.4715 32.8689 0.0232498
51.3507 29.143 0.0282045
50.8065 25.7111 0.0270152
49.9462 22.1668 0.0206695
47.5058 19.2086 0.0211849
45.8031 15.4094 0.0165075
43.8573 11.9107 0.0149769
40.5682 11.5985 0.0152998
50.0385 31.4017 2
38.3003 12.7217 2
42.1001 14.2927 2
49.3097 27.4565 2
49.4191 24.3766 2
47.1916 21.9119 2
44.8019 18.4413 2
47.8279 29.5659 3.97212
47.1181 25.1 3.98317
44.2916 21.2908 3.98224
36.5803 12.9189 3.98412
38.6801 14.7911 3.98317
41.7501 17.8202 3.98151
42.9479 37.4944 3.9131
44.983 37.5128 2
46.4117 37.5059 0.0882016
46.8408 57.3572 0.0171973
47.1743 54.2652 0.0184406
48.1142 47.2553 0.022279
47.6015 50.762 0.0241347
44.6771 39.4749 0.092363
45.1425 41.9867 0.087329
44.9491 44.6159 0.043454
44.8283 47.4342 0.000571423
42.726 42.7163 0.0809321
42.4577 40.8901 0.094877
40.9418 42.3574 0.0840455
45.4003 55.9451 2
42.81 39.2732 2
40.9087 40.8044 2
46.1136 48.9299 2
45.5553 52.5619 2
43.4757 48.4979 2
43.392 46.2 2
43.7242 43.8131 2
41.2245 43.8842 2
39.3184 42.6852 2
43.7403 54.4566 3.98843
41.0012 39.1744 3.97326
39.2401 40.8908 3.9746
43.7232 50.5399 3.99229
41.9795 47.7211 3.98889
41.8911 45.2037 3.90308
39.4458 44.6275 3.92626
37.4953 42.8201 3.9276
43.8774 57.7275 0.0162739
42.1076 56.3551 2
40.4214 54.9635 3.98627
35.573 65.4429 0.0138001
37.8369 63.2271 0.0145289
40.6233 61.6646 0.0153432
40.4459 58.2301 0.0157441
35.6071 63.2209 2
38.2503 60.3497 2
38.9261 56.5267 2
38.0005 55.2844 3.98697
36.9356 57.6557 3.98498
35.3638 60.934 3.98508
33.6292 63.3539 0.0146558
30.3786 62.8723 0.0143337
32.1233 62.0212 0.0149473
33.346 61.5345 2
28.6811 62.2177 2
31.0663 61.2386 2
29.4021 60.3082 3.98433
32.3556 59.7672 3.98435
28.0182 58.3935 3.98364
27.5667 59.6141 2
25.3753 58.6134 3.98175
22.7507 58.2592 3.9795
23.3983 60.3674 3.98242
23.7884 59.1011 2
25.0333 60.8883 2
24.4309 62.7831 3.98545
26.8681 61.5155 0.0153278
26.2287 63.4911 2
25.5465 65.5003 3.98767
28.062 64.1588 0.013613
27.4626 66.1909 2
26.835 68.3356 3.99011
29.4059 66.7668 0.012192
28.9053 68.9477 2
28.3695 71.2649 3.99395
31.0132 69.4219 0.00982674
30.6142 71.78 2
30.1842 74.2788 4
32.892 72.1487 0.00607089
32.6053 74.6792 2
35.0474 74.9194 0
31.7865 7.41394 3.98814
33.3457 4.92188 3.99071
33.7221 6.97343 2
35.2441 2.46197 3.99439
35.4339 4.68221 2
35.6197 6.71949 0.0113648
37.5 0 4
37.514 2.38553 2
37.5225 4.61236 0.00913536
39.7884 2.4732 0.00566459
39.9526 0.0802889 2
42.3946 0.32156 0
42.8134 35.722 3.91743
44.6949 35.5358 2
40.9084 34.1995 3.96067
42.4582 34.1179 2
48.2583 37.7738 0.0253693
51.4057 35.5831 0.0334975
46.0697 35.1363 0.0864207
43.9129 33.8162 0.0863277
42.0746 32.9903 0.11119
48.4234 34.2723 2
45.1481 33.0244 2
42.7393 32.2918 2
40.9361 32.6548 2
46.3675 31.5525 3.97917
43.7025 31.2169 3.90989
41.2139 31.1213 3.91292
39.3055 32.3216 3.92701
35.6906 11.764 3.98432
37.3093 10.6192 2
37.457 8.52681 0.0128887
38.9754 10.1171 0.0134745
33.0961 11.2059 3.98448
34.7523 10.3685 2
35.8972 9.76397 0.0139279
30.4804 10.0089 3.98576
32.3756 9.36 2
34.1491 8.81425 0.0129105
50.0368 31.4022 0.0345716
49.3076 27.4562 0.0209246
49.4174 24.3782 0.0197317
47.1904 21.9111 0.0222501
44.8018 18.4421 0.0168036
42.1007 14.2933 0.0164649
38.3006 12.7224 0.0154027
36.58 12.9181 2
47.8284 29.5635 2
38.6795 14.7904 2
41.7498 17.8193 2
47.1203 25.1008 2
44.2924 21.2892 2
45.5851 27.7065 3.99032
43.8128 24.0165 3.99113
41.3428 20.6963 3.98143
35.7701 14.7433 3.9834
38.6805 17.5767 3.98152
41.0503 37.4855 3.97094
42.9531 37.4953 2
44.9624 37.5136 0.0904866
45.4007 55.9447 0.0166082
45.5546 52.5611 0.0166092
46.1132 48.9303 0.0190226
42.8063 39.2748 0.0798555
43.7103 43.8042 0.0922075
43.3672 46.1872 0.0370926
43.4752 48.4797 0.00270263
41.2116 43.8816 0.0798169
40.9089 40.8073 0.0394221
39.3153 42.6866 0.0723452
43.7399 54.4576 2
41.0022 39.1728 2
39.2392 40.8895 2
43.7233 50.5467 2
41.9821 47.7313 2
41.9097 45.2112 2
37.4975 42.8191 2
39.4607 44.6244 2
41.8865 53.0326 3.99449
39.2391 39.176 3.96608
37.4966 40.9361 3.96719
35.6815 42.6885 3.92844
40.9604 49.7708 4.00225
39.8033 46.0943 3.89983
37.4983 44.8802 3.9276
42.1083 56.3547 0.015113
40.4204 54.9638 2
38.7301 53.8979 3.98782
35.6072 63.2208 0.0147845
38.2508 60.3498 0.0149031
38.9269 56.5257 0.0130173
35.3635 60.9339 2
36.9349 57.655 2
37.9994 55.2837 2
36.3193 55.4194 3.98835
34.4874 58.5469 3.98485
33.3461 61.5343 0.01489
28.681 62.2175 0.0145375
31.0663 61.2385 0.0150073
32.3556 59.7672 2
29.4022 60.3082 2
30.2937 57.84 3.98476
28.0183 58.3935 2
26.9363 56.8434 3.98084
27.5665 59.614 0.0170864
25.3754 58.6135 2
23.8297 56.8248 3.97653
21.3256 57.4181 3.9791
21.9898 59.6394 3.98215
22.7507 58.2597 2
22.7343 62.0343 3.98444
23.3984 60.3678 2
23.7883 59.1008 0.0171504
25.0332 60.888 0.0161851
24.431 62.7835 2
23.6803 64.7186 3.98724
26.2285 63.4909 0.0139728
25.5466 65.5007 2
24.8073 67.5966 3.99001
27.4624 66.1905 0.0122107
26.835 68.3359 2
26.1647 70.6057 3.99393
28.9054 68.9473 0.00984109
28.3692 71.2651 2
27.7943 73.7221 4
30.6144 71.7797 0.00605173
30.1841 74.2794 2
32.6054 74.6784 0
29.809 7.98714 3.98766
31.2507 5.3291 3.99039
31.7864 7.41312 2
32.9799 2.70008 3.9943
33.3457 4.92131 2
33.7222 6.97409 0.011644
35.0474 0.080333 4
35.2441 2.46165 2
35.4338 4.68273 0.00915271
37.5 0 2
37.5139 2.38583 0.00558703
39.9526 0.0806499 0
41.0081 35.8081 3.9724
42.8155 35.7239 2
44.6835 35.5385 0.0927027
28.5412 10.6843 3.98562
39.237 34.1167 3.97424
40.9075 34.2032 2
42.4564 34.1171 0.0961274
48.4188 34.2755 0.00471299
45.1372 33.0312 0.0934867
42.7234 32.2989 0.0804769
40.9338 32.6541 0.0809652
46.3813 31.5502 2
43.7094 31.2087 2
41.2275 31.116 2
39.3078 32.322 2
44.4133 29.7303 3.96798
41.8956 29.8054 3.90477
39.4464 30.379 3.92662
37.4839 32.1829 3.92924
34.0904 12.9218 3.98371
35.6905 11.7631 2
37.3093 10.62 0.0142597
31.1841 11.9741 3.98473
33.0961 11.2049 2
34.7523 10.3694 0.014298
30.4803 10.0081 2
32.3758 9.36082 0.0135628
47.8279 29.5659 0.0278766
47.1181 25.1 0.0168258
36.5803 12.9189 0.0158763
44.2916 21.2908 0.0177632
41.7501 17.8202 0.0184921
38.6801 14.7911 0.0168278
35.7695 14.7425 2
45.5868 27.6992 2
38.6801 17.5757 2
41.3428 20.694 2
43.8151 24.0186 2
33.6054 15.8598 3.98328
43.0794 26.4971 3.99727
40.9226 23.2682 3.98431
38.4222 20.3042 3.9833
35.8466 17.4902 3.98308
39.2458 37.485 3.96196
41.0509 37.4857 2
42.9479 37.4944 0.0868959
43.7403 54.4566 0.011567
43.7232 50.5399 0.0077133
41.0012 39.1744 0.0267386
41.8911 45.2037 0.0969241
41.9795 47.7211 0.0111114
39.4458 44.6275 0.0737419
39.2401 40.8908 0.0253968
37.4953 42.8201 0.0723972
41.8855 53.0346 2
39.2397 39.1752 2
37.4964 40.9345 2
40.9601 49.7726 2
35.6796 42.6869 2
39.8246 46.1109 2
37.4956 44.8769 2
39.8291 51.9558 4.00127
37.4947 39.185 3.9508
35.7549 40.8977 3.97454
34.0533 42.3541 3.91717
35.5347 44.628 3.92377
38.75 48.7655 4.00786
37.4988 46.4128 3.89991
40.4214 54.9635 0.0137254
38.729 53.8963 2
36.7175 53.2552 3.99665
35.3638 60.934 0.0149196
36.9356 57.6557 0.0150192
38.0005 55.2844 0.0130297
34.4871 58.5464 2
36.3186 55.4175 2
33.2221 55.5337 3.98619
32.3556 59.7672 0.0156541
29.4021 60.3082 0.0156674
30.2938 57.8398 2
28.6759 55.3326 3.98105
28.0182 58.3935 0.0163575
26.9364 56.8434 2
25.2953 55.1625 3.97759
21.7935 55.3654 3.97557
25.3753 58.6134 0.0182531
23.8298 56.8251 2
20.2089 57.048 3.98138
20.6395 58.7973 3.98114
21.3256 57.4185 2
21.1639 61.1841 3.98376
21.9899 59.6399 2
22.7507 58.2592 0.0204989
21.8935 63.8465 3.9866
22.7345 62.0348 2
23.3983 60.3674 0.0175827
24.4309 62.7831 0.0145543
23.6805 64.719 2
22.8356 66.7403 3.98987
25.5465 65.5003 0.0123269
24.8073 67.5969 2
24.009 69.8068 3.99384
26.835 68.3356 0.00989004
26.1644 70.6058 2
25.446 73.0099 4
28.3695 71.2649 0.00604797
27.7943 73.7222 2
30.1842 74.2788 0
27.8189 8.64686 3.98732
29.1526 5.87484 3.99004
29.8089 7.98639 2
30.7251 3.09726 3.99409
31.2507 5.32844 2
31.7865 7.41394 0.0118582
32.6053 0.320823 4
32.9798 2.69976 2
33.3457 4.92188 0.00929366
35.0474 0.0802903 2
35.2441 2.46197 0.00560821
37.5 0 0
39.244 35.8066 3.96615
41.0085 35.8102 2
42.8134 35.722 0.0825733
28.5412 10.6836 2
26.6201 11.3797 3.98531
29.223 12.6307 3.98481
37.491 34.0675 3.96585
39.2359 34.1171 2
40.9084 34.1995 0.0393303
46.3675 31.5525 0.0208289
43.7025 31.2169 0.0901118
41.2139 31.1213 0.0870782
39.3055 32.3216 0.0729854
44.4271 29.7212 2
41.9136 29.7961 2
39.4586 30.3813 2
37.4843 32.1822 2
42.3402 28.3494 3.9504
39.821 28.9117 3.90755
37.4887 30.1179 3.92814
35.6683 32.311 3.92752
31.9118 14.4666 3.98385
34.0902 12.9209 2
35.6906 11.764 0.0156782
31.184 11.9732 2
33.0961 11.2059 0.0155231
30.4804 10.0089 0.0142363
45.5851 27.7065 0.00967847
43.8128 24.0165 0.00886707
35.7701 14.7433 0.0166042
41.3428 20.6963 0.018572
38.6805 17.5767 0.0184766
33.605 15.8595 2
35.8461 17.4896 2
43.0818 26.4954 2
38.4218 20.3031 2
40.9233 23.2629 2
33.5475 17.3673 3.98469
40.4582 25.6147 4.0112
38.0795 22.8298 3.99213
35.5826 20.0563 3.98383
37.4954 37.4927 3.93682
39.2462 37.485 2
41.0503 37.4855 0.0290585
41.8865 53.0326 0.00550969
40.9604 49.7708 -0.00224626
39.2391 39.176 0.0339195
39.8033 46.0943 0.100171
37.4983 44.8802 0.0723971
37.4966 40.9361 0.0328149
35.6815 42.6885 0.0715617
39.8284 51.9558 2
37.4951 39.1841 2
35.7551 40.8971 2
38.7462 48.7914 2
34.0498 42.3541 2
35.5255 44.6301 2
37.4951 46.433 2
37.6731 51.0565 4.01065
35.7553 39.1884 3.96653
34.0905 40.8116 3.95751
32.9109 42.0147 3.88965
33.7684 43.8744 3.91807
35.1763 46.0916 3.90552
36.8788 48.4136 3.99241
38.7301 53.8979 0.0121815
36.717 53.2519 2
34.3528 52.5133 3.98979
34.4874 58.5469 0.0151465
36.3193 55.4194 0.011649
33.222 55.5325 2
30.5022 53.4335 3.98419
30.2937 57.84 0.0152418
28.6761 55.3324 2
26.8607 53.4619 3.97695
26.9363 56.8434 0.0191567
25.2954 55.1626 2
23.5506 53.504 3.97416
20.4454 53.2459 3.97275
19.9188 55.8515 3.98021
21.7936 55.3657 2
23.8297 56.8248 0.023469
19.4307 57.909 3.98076
20.209 57.0484 2
19.7026 60.218 3.98265
20.6396 58.7978 2
21.3256 57.4181 0.0208952
20.2057 62.8678 3.9856
21.164 61.1846 2
21.9898 59.6394 0.0178461
20.937 65.7694 3.98955
21.8937 63.847 2
22.7343 62.0343 0.0155569
23.6803 64.7186 0.012758
22.8356 66.7407 2
21.9115 68.874 3.99374
24.8073 67.5966 0.00998529
24.0087 69.8069 2
23.1494 72.1454 4
26.1647 70.6057 0.00606877
25.446 73.0099 2
27.7943 73.7221 0
25.8581 9.37494 3.98691
27.0674 6.53899 3.98965
27.8188 8.64613 2
28.4872 3.64316 3.99388
29.1525 5.87422 2
29.809 7.98714 0.0123405
30.1841 0.720592 4
30.7249 3.09693 2
31.2507 5.3291 0.0096071
32.6053 0.320817 2
32.9799 2.70008 0.00570211
35.0474 0.080333 0
37.4959 35.806 3.95005
39.2439 35.8072 2
41.0081 35.8081 0.0275998
24.7749 12.0626 3.98532
23.7489 14.3466 3.98432
28.5412 10.6843 0.0143764
26.6202 11.3791 2
29.223 12.63 2
27.2891 13.3638 3.98462
29.7776 14.1891 3.98379
35.7504 34.1017 3.97446
37.4906 34.0683 2
39.237 34.1167 0.0257608
37.4839 32.1829 0.070758
44.4133 29.7303 0.0320178
41.8956 29.8054 0.0952255
39.4464 30.379 0.0733793
42.3529 28.3381 2
39.839 28.898 2
37.4889 30.1223 2
35.6668 32.3106 2
40.0244 27.522 3.96919
37.4965 28.5794 3.90315
35.5229 30.3686 3.92547
34.0466 32.6364 3.91713
30.9231 16.8221 3.98363
31.9117 14.4658 2
34.0904 12.9218 0.0162867
31.1841 11.9741 0.015272
43.0794 26.4971 0.00272696
40.9226 23.2682 0.0156877
33.6054 15.8598 0.0167152
35.8466 17.4902 0.0169181
38.4222 20.3042 0.0166975
33.5471 17.3673 2
35.5821 20.055 2
40.4578 25.6122 2
38.0792 22.8297 2
32.8605 19.7714 3.98508
37.7985 25.1293 4.02665
35.2022 22.6132 3.98385
35.7481 37.4964 3.96227
37.4958 37.4927 2
39.2458 37.485 0.0380355
39.8291 51.9558 -0.00126895
38.75 48.7655 -0.00786407
37.4947 39.185 0.0491959
37.4988 46.4128 0.100086
35.5347 44.628 0.0762329
35.7549 40.8977 0.0254618
34.0533 42.3541 0.0828266
37.6723 51.0624 2
35.7556 39.1879 2
34.0904 40.8078 2
36.8758 48.4257 2
32.9059 42.0145 2
33.7583 43.882 2
35.1538 46.1052 2
35.4331 50.1949 4.00956
33.998 39.1854 3.96969
32.5309 40.8863 3.90514
32.2602 42.7042 3.91832
33.1137 45.1883 3.91059
34.2769 47.4764 3.96682
36.7175 53.2552 0.00334996
34.3529 52.5119 2
31.974 51.2401 3.99023
33.2221 55.5337 0.0138131
30.5027 53.434 2
28.3996 51.6452 3.97975
28.6759 55.3326 0.0189463
26.8611 53.4619 2
25.0483 51.7843 3.97172
25.2953 55.1625 0.0224115
23.5509 53.5041 2
21.9352 51.8295 3.97185
19.1753 51.655 3.97254
18.904 54.3277 3.9759
20.4455 53.2462 2
18.4367 56.7412 3.98145
19.9188 55.8519 2
21.7935 55.3654 0.0244273
18.3635 59.1251 3.98098
19.4308 57.9094 2
20.2089 57.048 0.0186171
18.6161 61.7755 3.9844
19.7027 60.2185 2
20.6395 58.7973 0.0188569
19.1258 64.6803 3.98884
20.2058 62.8684 2
21.1639 61.1841 0.016243
19.8855 67.8106 3.99353
20.9371 65.7698 2
21.8935 63.8465 0.0134006
22.8356 66.7403 0.0101267
21.9112 68.874 2
20.9142 71.1327 4
24.009 69.8068 0.0061553
23.1494 72.1455 2
25.446 73.0099 0
23.0942 12.7773 3.98494
23.9707 10.1614 3.9867
25.0213 7.30908 3.98944
25.8582 9.37425 2
26.279 4.32738 3.99363
27.0673 6.53836 2
27.8189 8.64686 0.0126828
27.7943 1.27781 4
28.487 3.64289 2
29.1526 5.87484 0.00996039
30.1841 0.720551 2
30.7251 3.09726 0.00591268
32.6053 0.320823 0
35.7507 35.8064 3.96651
37.496 35.8068 2
39.244 35.8066 0.0338476
24.775 12.0621 2
23.7491 14.3464 2
22.4773 15.0231 3.98378
25.3552 13.8959 3.98419
24.0217 15.6082 3.98336
26.6201 11.3797 0.014685
29.223 12.6307 0.0151925
27.2892 13.3634 2
29.7776 14.1884 2
28.3534 15.963 3.98415
34.0931 34.1869 3.9598
35.7512 34.1023 2
37.491 34.0675 0.0341546
35.6683 32.311 0.0724828
37.4887 30.1179 0.0718623
42.3402 28.3494 0.0496012
39.821 28.9117 0.0924487
40.0322 27.5104 2
37.4961 28.5624 2
35.5101 30.3717 2
34.0467 32.6363 2
37.6167 27.2005 3.97093
35.1492 28.8956 3.90612
33.7527 31.1147 3.91628
32.9103 32.9765 3.89022
30.2041 19.3244 3.98505
30.9229 16.8216 2
31.9118 14.4666 0.0161467
40.4582 25.6147 -0.0112046
38.0795 22.8298 0.00787003
33.5475 17.3673 0.0153056
35.5826 20.0563 0.016169
32.8596 19.7717 2
35.2015 22.6102 2
37.7999 25.1328 2
32.3061 22.3829 3.98493
34.955 25.14 4.00668
33.9489 37.4968 3.96931
35.7485 37.4965 2
37.4954 37.4927 0.0631836
37.6731 51.0565 -0.0106499
36.8788 48.4136 0.00758906
35.7553 39.1884 0.0334683
35.1763 46.0916 0.0944758
33.7684 43.8744 0.0819326
34.0905 40.8116 0.0424914
32.9109 42.0147 0.110355
35.4324 50.1979 2
33.9983 39.1831 2
32.5284 40.8838 2
34.2694 47.5056 2
32.2454 42.7075 2
33.0946 45.205 2
33.1978 49.1844 4.00823
32.1805 39.2767 3.91872
31.072 41.1809 3.91557
31.2852 43.7861 3.90733
32.2316 46.4027 3.96457
34.3528 52.5133 0.0102052
31.9744 51.2414 2
29.8109 49.7542 3.98355
30.5022 53.4335 0.0158114
28.4002 51.6425 2
26.4641 50.0238 3.9721
26.8607 53.4619 0.023047
25.0489 51.7838 2
23.3023 50.2231 3.97257
23.5506 53.504 0.025838
21.9357 51.8298 2
20.4335 50.3365 3.97251
17.9633 50.3465 3.97439
17.8132 52.8095 3.97426
19.1758 51.6552 2
17.4233 55.357 3.9785
18.904 54.3281 2
20.4454 53.2459 0.0272483
17.1276 57.8875 3.9819
18.4367 56.7416 2
19.9188 55.8515 0.0197851
17.133 60.5589 3.98289
18.3637 59.1256 2
19.4307 57.909 0.019244
17.406 63.4731 3.98758
18.6162 61.7761 2
19.7026 60.218 0.0173546
17.9416 66.6191 3.99321
19.1259 64.6808 2
20.2057 62.8678 0.0144023
18.75 69.9759 4
19.8852 67.8106 2
20.937 65.7694 0.0104481
21.9115 68.874 0.00626255
20.9142 71.1327 2
23.1494 72.1454 0
21.5848 13.5973 3.98451
22.1889 11.0207 3.98622
23.0944 12.7772 2
23.0393 8.17443 3.98928
23.9708 10.161 2
24.1166 5.14207 3.99346
25.0211 7.30856 2
25.8581 9.37494 0.0130913
25.446 1.99014 4
26.2787 4.32716 2
27.0674 6.53899 0.0103527
27.7943 1.27778 2
28.4872 3.64316 0.00612206
30.1841 0.720592 0
33.9911 35.8096 3.97135
35.751 35.8071 2
37.4959 35.806 0.0499475
21.3021 15.8188 3.98305
24.7749 12.0626 0.0146788
23.7489 14.3466 0.0156751
25.3553 13.8955 2
22.4776 15.023 2
24.022 15.6081 2
23.2606 16.2397 3.98318
25.3769 16.0758 3.98417
27.2891 13.3638 0.0153785
29.7776 14.1891 0.0162109
28.3536 15.9627 2
27.4357 18.784 3.98469
32.5444 34.106 3.90595
34.0949 34.1889 2
35.7504 34.1017 0.0255414
34.0466 32.6364 0.0828686
35.5229 30.3686 0.0745316
37.4965 28.5794 0.0968502
40.0244 27.522 0.0308084
37.6135 27.1666 2
32.9096 32.9768 2
35.1294 28.8797 2
33.7381 31.1012 2
35.0647 27.3253 3.97506
33.0825 29.8003 3.90698
32.2475 32.2757 3.91558
29.5673 21.9184 3.99161
30.2037 19.3244 2
30.9231 16.8221 0.0163733
37.7985 25.1293 -0.0266493
35.2022 22.6132 0.0161465
32.8605 19.7714 0.0149205
32.3053 22.3837 2
34.9589 25.1441 2
31.657 25.599 3.99416
32.0463 37.4978 3.91486
33.9498 37.4963 2
35.7481 37.4964 0.0377313
35.4331 50.1949 -0.00955501
34.2769 47.4764 0.0331816
33.998 39.1854 0.0303121
33.1137 45.1883 0.089405
32.2602 42.7042 0.0816792
32.5309 40.8863 0.0948583
33.1978 49.1686 2
32.1778 39.2739 2
31.0555 41.1879 2
32.2139 46.4191 2
31.275 43.7952 2
31.0852 48.0059 4.00032
30.3044 39.4562 3.90786
29.8489 41.975 3.90701
30.3733 44.9812 3.96408
31.974 51.2401 0.00977377
29.8116 49.749 2
27.8115 48.2215 3.97716
28.3996 51.6452 0.0202538
26.4651 50.0221 2
24.5988 48.5014 3.97482
25.0483 51.7843 0.0282802
23.3031 50.2232 2
21.6113 48.8142 3.97496
21.9352 51.8295 0.0281542
20.4343 50.3365 2
19.0034 49.1095 3.97615
16.8721 49.3442 3.97719
16.7537 51.4217 3.97492
17.964 50.3467 2
16.3739 53.8852 3.97663
17.8135 52.8098 2
19.1753 51.655 0.0274559
15.9673 56.4889 3.9805
17.4233 55.3574 2
18.904 54.3277 0.0240985
15.7454 59.2198 3.98267
17.1277 57.888 2
18.4367 56.7412 0.0185539
15.7863 62.1435 3.98589
17.1331 60.5596 2
18.3635 59.1251 0.0190161
16.0882 65.3016 3.99282
17.4061 63.4736 2
18.6161 61.7755 0.015601
16.6661 68.6801 4
17.9413 66.6191 2
19.1258 64.6803 0.0111624
18.75 69.9759 2
19.8855 67.8106 0.00647064
20.9142 71.1327 0
20.2167 14.5861 3.98381
21.5851 13.5973 2
20.528 11.9903 3.98564
21.1424 9.1441 3.98914
22.189 11.0204 2
23.0942 12.7773 0.0150585
22.0156 6.08105 3.99331
23.0392 8.17408 2
23.9707 10.1614 0.0132957
23.1494 2.85457 4
24.1162 5.14193 2
25.0213 7.30908 0.0105619
25.446 1.99012 2
26.279 4.32738 0.00637118
27.7943 1.27781 0
32.1848 35.716 3.91946
33.9921 35.8107 2
35.7507 35.8064 0.0334857
21.3023 15.8184 2
20.299 16.9529 3.98333
22.0936 16.6242 3.98212
25.3552 13.8959 0.0158092
22.4773 15.0231 0.0162173
24.0217 15.6082 0.0166428
25.3773 16.0756 2
23.2609 16.2397 2
24.1997 18.438 3.9819
27.0041 21.4417 3.98485
28.3534 15.963 0.01585
27.4355 18.784 2
31.0782 33.8057 3.91281
32.5423 34.1092 2
34.0931 34.1869 0.040203
32.9103 32.9765 0.109782
33.7527 31.1147 0.0837215
35.1492 28.8956 0.0938817
37.6167 27.2005 0.0290687
35.0513 27.3074 2
32.243 32.2803 2
33.0635 29.7814 2
32.4942 28.0518 3.98502
31.2578 31.2028 3.90866
28.7709 24.3839 3.98667
29.5663 21.9193 2
30.2041 19.3244 0.0149452
34.955 25.14 -0.0066828
32.3061 22.3829 0.0150733
31.6588 25.5867 2
29.5929 27.2888 3.97606
30.0214 37.4853 3.90911
32.0444 37.4973 2
33.9489 37.4968 0.0306859
33.1978 49.1844 -0.00822916
32.2316 46.4027 0.0354339
32.1805 39.2767 0.0812785
31.2852 43.7861 0.0926703
31.072 41.1809 0.0844308
31.0869 48.0063 2
30.2904 39.4649 2
29.8381 41.9824 2
30.3597 44.9944 2
29.1066 46.5676 3.9951
28.916 39.8657 3.90873
28.5865 43.1892 3.96722
29.8109 49.7542 0.0164508
27.8125 48.217 2
25.8779 46.6911 3.98101
26.4641 50.0238 0.0278953
24.5997 48.5014 2
22.7517 47.11 3.9795
23.3023 50.2231 0.0274256
21.6123 48.8141 2
19.9509 47.6382 3.97836
20.4335 50.3365 0.0274888
19.0042 49.1098 2
17.6478 48.1917 3.97887
16.1245 48.694 3.97931
16.8727 49.3447 2
15.8325 50.1815 3.97633
15.3633 52.4275 3.97607
16.7541 51.422 2
17.9633 50.3465 0.0256077
14.8578 54.9887 3.97856
16.374 53.8856 2
17.8132 52.8095 0.0257449
14.4534 57.7487 3.98206
15.9672 56.4894 2
17.4233 55.357 0.0215016
14.264 60.6978 3.98484
15.7455 59.2204 2
17.1276 57.8875 0.0180973
14.3324 63.8608 3.99205
15.7863 62.1441 2
17.133 60.5589 0.0171127
14.6715 67.2507 4
16.0879 65.3016 2
17.406 63.4731 0.0124161
16.6661 68.6801 2
17.9416 66.6191 0.00679454
18.75 69.9759 0
18.9302 15.7733 3.98309
20.2168 14.5858 2
18.9776 13.1011 3.9849
21.5848 13.5973 0.0154878
20.5283 11.9901 2
19.3417 10.2317 3.98886
19.9902 7.1457 3.99324
21.1424 9.14378 2
22.1889 11.0207 0.0137781
20.9142 3.86727 4
22.0153 6.08105 2
23.0393 8.17443 0.010719
23.1494 2.85451 2
24.1166 5.14207 0.00654208
25.446 1.99014 0
30.311 35.5331 3.91064
32.1824 35.7176 2
33.9911 35.8096 0.0286484
21.3021 15.8188 0.0169477
22.0938 16.6238 2
20.299 16.9522 2
19.2372 18.3995 3.98249
21.7775 17.8401 3.98232
25.3769 16.0758 0.0158268
23.2606 16.2397 0.0168188
24.1998 18.438 2
22.2702 19.8808 3.98089
24.5807 21.3083 3.98291
26.394 23.7069 3.98047
27.0042 21.4422 2
27.4357 18.784 0.015313
29.8466 33.0057 3.9061
31.0631 33.7882 2
32.5444 34.106 0.0940483
32.2475 32.2757 0.0844156
33.0825 29.8003 0.0930198
35.0647 27.3253 0.0249372
32.4813 28.047 2
31.2611 31.2027 2
30.0468 29.5073 3.97556
27.8341 26.5252 3.97286
28.7712 24.3886 2
29.5673 21.9184 0.00839245
31.657 25.599 0.00583798
29.5857 27.2521 2
28.5706 37.4925 3.91382
30.0085 37.4884 2
32.0463 37.4978 0.0851403
31.0852 48.0059 -0.000316842
30.3733 44.9812 0.0359237
30.3044 39.4562 0.092136
29.8489 41.975 0.0929912
29.1091 46.5874 2
28.9036 39.8709 2
28.5724 43.1981 2
27.19 44.8427 3.98081
26.6946 40.628 3.99404
27.8115 48.2215 0.0228359
25.8781 46.6901 2
23.9252 45.2397 3.97345
24.5988 48.5014 0.0251806
22.7526 47.1095 2
20.8868 45.9196 3.97786
21.6113 48.8142 0.0250381
19.9517 47.6385 2
18.2955 46.7522 3.97681
19.0034 49.1095 0.0238535
17.6484 48.1923 2
16.3157 47.724 3.97891
16.125 48.6945 2
15.1803 49.0245 3.97752
16.8721 49.3442 0.0228114
15.833 50.1819 2
14.478 50.9936 3.97628
13.8197 53.443 3.97752
15.3636 52.4279 2
16.7537 51.4217 0.0250846
13.2477 56.1755 3.9807
14.8578 54.9892 2
16.3739 53.8852 0.0233743
12.8458 59.1314 3.98469
14.4535 57.7492 2
15.9673 56.4889 0.0194985
12.6777 62.3035 3.99093
14.264 60.6981 2
15.7454 59.2198 0.0173323
12.7746 65.6939 4
14.3321 63.8607 2
15.7863 62.1435 0.014109
14.6714 67.2507 2
16.0882 65.3016 0.00718321
16.6661 68.6801 0
17.6638 17.1488 3.98247
18.9302 15.7728 2
17.509 14.3656 3.98401
20.2167 14.5861 0.0161901
18.9779 13.1007 2
17.6374 11.4506 3.98802
20.528 11.9903 0.0143565
19.3419 10.2314 2
18.0503 8.33853 3.99318
18.75 5.0241 4
19.9899 7.14577 2
21.1424 9.1441 0.0108559
20.9142 3.86727 2
22.0156 6.08105 0.00668797
23.1494 2.85457 0
28.9132 35.1039 3.90744
30.2965 35.5291 2
32.1848 35.716 0.0805427
22.0936 16.6242 0.0178776
20.299 16.9529 0.016667
21.7775 17.8395 2
19.2372 18.3988 2
17.9718 19.9317 3.98146
20.869 19.368 3.98232
24.1997 18.438 0.0181048
22.2703 19.88 2
24.581 21.3087 2
22.3449 21.7052 3.98242
24.6757 23.153 3.98051
25.4207 25.9344 3.97187
26.3949 23.7064 2
27.0041 21.4417 0.0151482
28.2292 32.2804 3.95538
29.8381 33.0046 2
31.0782 33.8057 0.0871908
31.2578 31.2028 0.0913413
32.4942 28.0518 0.0149833
30.0225 29.4962 2
26.9504 29.1164 3.98583
27.8298 26.5224 2
28.7709 24.3839 0.013329
29.5929 27.2888 0.0239389
26.7977 37.3517 3.96889
28.5599 37.4894 2
30.0214 37.4853 0.0908902
29.1066 46.5676 0.00490189
28.5865 43.1892 0.0327812
28.916 39.8657 0.0912707
27.1928 44.8459 2
26.6887 40.6348 2
25.1735 43.1918 3.96926
23.9358 39.4276 3.96901
25.8779 46.6911 0.0189863
23.9224 45.241 2
21.8536 43.9699 3.97665
22.7517 47.11 0.020498
20.8876 45.9201 2
18.9538 44.9834 3.97452
19.9509 47.6382 0.0216438
18.2959 46.753 2
16.6072 46.2231 3.97477
17.6478 48.1917 0.0211325
16.3162 47.7246 2
14.9114 47.6777 3.97653
16.1245 48.694 0.0206878
15.1808 49.0249 2
13.7772 49.5526 3.97648
15.8325 50.1815 0.0236704
14.4784 50.9941 2
12.8872 51.8799 3.977
12.1351 54.5325 3.97956
13.8198 53.4435 2
15.3633 52.4275 0.0239326
11.5299 57.4629 3.98384
13.2476 56.1761 2
14.8578 54.9887 0.0214411
11.1322 60.6295 3.9899
12.8458 59.1317 2
14.4534 57.7487 0.0179396
10.9835 64.0165 4
12.6775 62.3032 2
14.264 60.6978 0.015159
12.7745 65.694 2
14.3324 63.8608 0.00795189
14.6715 67.2507 0
16.3953 18.6426 3.98211
17.6637 17.1481 2
16.0997 15.7746 3.98372
18.9302 15.7733 0.0169128
17.5091 14.3649 2
16.0191 12.8041 3.98642
18.9776 13.1011 0.0151015
17.6376 11.45 2
16.2015 9.66166 3.99288
19.3417 10.2317 0.0111391
18.0501 8.33864 2
16.6661 6.31991 4
18.75 5.02404 2
19.9902 7.1457 0.00675544
20.9142 3.86727 0
27.3073 34.7403 3.95655
28.8999 35.1002 2
30.311 35.5331 0.08936
16.6709 21.3674 3.97878
21.7775 17.8401 0.0176794
19.2372 18.3995 0.0175127
20.869 19.3672 2
17.9719 19.931 2
19.7123 21.5607 3.98451
22.2702 19.8808 0.0191133
24.5807 21.3083 0.0170937
22.3452 21.7039 2
24.6757 23.1529 2
22.8214 24.5877 3.97592
24.4936 28.511 3.96793
25.418 25.9324 2
26.394 23.7069 0.0195286
26.0716 31.6881 3.99088
28.2189 32.2717 2
29.8466 33.0057 0.0938984
30.0468 29.5073 0.0244419
26.9553 29.1164 2
27.8341 26.5252 0.0271448
24.614 36.8516 3.97958
26.7919 37.3558 2
28.5706 37.4925 0.0861833
27.19 44.8427 0.0191877
26.6946 40.628 0.00596076
25.1704 43.1948 2
23.9331 39.4301 2
22.9028 41.8097 3.97873
21.668 38.4983 3.97308
23.9252 45.2397 0.0265541
21.8541 43.9715 2
19.6994 42.8964 3.97448
20.8868 45.9196 0.0221398
18.9536 44.9841 2
16.9333 44.3879 3.97199
18.2955 46.7522 0.0231876
16.6074 46.2237 2
14.833 46.0969 3.97384
16.3157 47.724 0.0210909
14.9118 47.6783 2
13.2857 48.0134 3.97538
15.1803 49.0245 0.0224798
13.7776 49.5531 2
12.1073 50.2566 3.97659
14.478 50.9936 0.0237209
12.8875 51.8805 2
11.1311 52.8397 3.97867
10.3203 55.7137 3.98273
12.1351 54.5332 2
13.8197 53.443 0.0224758
9.69865 58.8516 3.98871
11.5297 57.4635 2
13.2477 56.1755 0.0192972
9.30605 62.2254 4
11.1319 60.6293 2
12.8458 59.1314 0.0153091
10.9835 64.0165 2
12.6777 62.3035 0.00907334
12.7746 65.6939 0
15.1394 20.1769 3.98013
16.3953 18.642 2
14.7448 17.2973 3.9827
17.6638 17.1488 0.0175317
16.0998 15.7737 2
14.4815 14.2861 3.98536
17.509 14.3656 0.0159944
16.0193 12.8034 2
14.4442 11.1128 3.99236
17.6374 11.4506 0.0119753
16.2013 9.66172 2
14.6715 7.74927 4
18.0503 8.33853 0.00682221
16.6661 6.31988 2
18.75 5.0241 0
25.2581 34.2522 3.98757
27.3 34.7395 2
28.9132 35.1039 0.0925576
17.8429 22.3119 3.98513
15.5157 22.9114 3.97616
16.6708 21.3666 2
20.869 19.368 0.0176773
17.9718 19.9317 0.0185407
19.7124 21.5598 2
19.6444 24.3647 3.979
22.3449 21.7052 0.0175844
24.6757 23.153 0.0194909
22.8194 24.5858 2
21.8725 27.8054 3.96896
23.6596 31.1708 3.9713
24.4958 28.5106 2
25.4207 25.9344 0.0281331
26.0748 31.6832 2
28.2292 32.2804 0.0446218
26.9504 29.1164 0.0141662
22.3908 36.2676 3.97596
24.6103 36.8512 2
26.7977 37.3517 0.0311067
25.1735 43.1918 0.0307352
23.9358 39.4276 0.0309886
22.9011 41.8112 2
21.6687 38.4989 2
20.63 40.6336 3.97411
20.0234 37.7788 3.97498
21.8536 43.9699 0.0233526
19.6997 42.8971 2
17.3267 42.1045 3.97411
18.9538 44.9834 0.0254826
16.9333 44.3884 2
14.832 44.2056 3.97274
16.6072 46.2231 0.0252312
14.8331 46.0974 2
12.9588 46.2992 3.97354
14.9114 47.6777 0.0234669
13.286 48.0139 2
11.4801 48.552 3.97533
13.7772 49.5526 0.0235187
12.1077 50.2571 2
10.2577 51.0818 3.97783
12.8872 51.8799 0.0229963
11.1313 52.8404 2
9.22934 53.8906 3.98185
8.38217 56.9836 3.98772
10.3202 55.7144 2
12.1351 54.5325 0.0204363
7.74927 60.3285 4
9.69822 58.8512 2
11.5299 57.4629 0.0161576
9.306 62.2255 2
11.1322 60.6295 0.0100987
10.9835 64.0165 0
13.9514 21.7438 3.97821
15.1394 20.1761 2
13.4449 18.8942 3.98147
16.3953 18.6426 0.0178942
14.7449 17.2964 2
13.0266 15.8787 3.98469
16.0997 15.7746 0.0162758
14.4815 14.2852 2
12.7816 12.686 3.99146
16.0191 12.8041 0.013577
14.444 11.1128 2
12.7746 9.30605 4
16.2015 9.66166 0.00711685
14.6715 7.74924 2
16.6661 6.31991 0
22.9753 33.7877 3.97365
25.2519 34.2506 2
27.3073 34.7403 0.0434525
17.6114 24.0305 3.97859
17.8426 22.311 2
14.2989 24.4438 3.97459
15.5151 22.9102 2
16.6709 21.3674 0.0212207
19.006 27.1845 3.96766
19.7123 21.5607 0.0154877
19.6428 24.3642 2
21.1064 30.6468 3.97111
22.8214 24.5877 0.0240824
21.8734 27.8049 2
23.6548 31.1709 2
24.4936 28.511 0.0320679
26.0716 31.6881 0.0091233
20.1541 35.9149 3.97476
22.3873 36.2686 2
24.614 36.8516 0.0204192
22.9028 41.8097 0.0212702
21.668 38.4983 0.0269154
20.6277 40.6339 2
20.022 37.7792 2
18.0088 39.001 3.97349
19.6994 42.8964 0.0255185
17.3269 42.1051 2
14.7793 41.9211 3.97307
16.9333 44.3879 0.0280107
14.832 44.206 2
12.6973 44.3951 3.97332
14.833 46.0969 0.0261637
12.9589 46.2998 2
10.9829 46.735 3.97388
13.2857 48.0134 0.0246198
11.4805 48.5526 2
9.52209 49.2404 3.97651
12.1073 50.2566 0.0234105
10.258 51.0824 2
8.26273 52.0023 3.98094
11.1311 52.8397 0.0213258
9.22943 53.891 2
7.19118 55.0329 3.98722
6.31991 58.3339 4
8.38164 56.9827 2
10.3203 55.7137 0.0172653
7.74924 60.3285 2
9.69865 58.8516 0.011287
9.30605 62.2254 0
13.2206 25.3571 3.98029
12.819 23.2739 3.97677
13.951 21.7427 2
12.23 20.5437 3.98038
15.1394 20.1769 0.0198663
13.4449 18.8933 2
11.656 17.5597 3.98436
14.7448 17.2973 0.0172994
13.0267 15.8781 2
11.219 14.3708 3.99024
14.4815 14.2861 0.0146383
12.7814 12.6861 2
10.9835 10.9835 4
14.4442 11.1128 0.00763739
12.7745 9.306 2
14.6715 7.74927 0
20.5326 33.382 3.97288
22.9739 33.7888 2
25.2581 34.2522 0.0124259
15.8862 26.3918 3.97149
17.6103 24.0296 2
17.8429 22.3119 0.0148737
14.2985 24.4433 2
15.5157 22.9114 0.0238415
18.3416 30.1583 3.9697
19.0063 27.1842 2
19.6444 24.3647 0.0209957
21.1032 30.6462 2
21.8725 27.8054 0.0310428
23.6596 31.1708 0.0287026
17.6522 35.9591 3.97279
20.1513 35.9152 2
22.3908 36.2676 0.0240353
20.63 40.6336 0.0258856
20.0234 37.7788 0.0250225
18.0078 39.0013 2
14.2913 39.176 3.97187
17.3267 42.1045 0.0258863
14.7794 41.9215 2
12.3846 42.2789 3.97239
14.832 44.2056 0.0272589
12.6973 44.3956 2
10.5592 44.8038 3.97389
12.9588 46.2992 0.0264646
10.9831 46.7355 2
8.90554 47.3188 3.97519
11.4801 48.552 0.0246662
9.52243 49.2409 2
7.43042 50.0347 3.97961
10.2577 51.0818 0.0221698
8.26302 52.0026 2
6.13186 53.0066 3.98703
9.22934 53.8906 0.0181475
7.19074 55.0315 2
5.0241 56.25 4
6.31988 58.3339 2
8.38217 56.9836 0.0122795
7.74927 60.3285 0
13.4587 26.8075 3.97296
11.9339 24.784 3.97562
13.2204 25.3566 2
11.1334 22.2296 3.9788
12.8188 23.2731 2
13.9514 21.7438 0.0217918
12.2298 20.5425 2
10.386 19.315 3.98366
13.4449 18.8942 0.0185295
11.656 17.5588 2
9.75972 16.1543 3.98905
13.0266 15.8787 0.0153054
11.2187 14.3709 2
9.30607 12.7746 4
12.7816 12.686 0.00854486
10.9835 10.9835 2
12.7746 9.30605 0
17.8174 33.1015 3.97178
20.5312 33.3821 2
22.9753 33.7877 0.0263498
15.4717 29.6283 3.97175
15.886 26.3917 2
17.6114 24.0305 0.0214147
14.2989 24.4438 0.0254085
18.3411 30.1582 2
19.006 27.1845 0.0323402
21.1064 30.6468 0.0288872
14.8968 36.0148 3.97196
17.6505 35.9592 2
20.1541 35.9149 0.02524
12.5896 37.8283 3.97174
18.0088 39.001 0.0265103
14.2909 39.1763 2
11.9015 40.141 3.97105
14.7793 41.9211 0.0269272
12.3846 42.2792 2
10.1584 42.779 3.97296
12.6973 44.3951 0.0266837
10.5592 44.8043 2
8.38325 45.3209 3.97512
10.9829 46.735 0.0261193
8.90574 47.3193 2
6.72247 47.9993 3.97835
9.52209 49.2404 0.0234884
7.43073 50.0348 2
5.20888 50.909 3.98675
8.26273 52.0023 0.0190623
6.13166 53.0051 2
3.86727 54.0858 4
7.19118 55.0329 0.0127754
5.02404 56.25 2
6.31991 58.3339 0
12.913 29.0271 3.97026
11.365 26.4847 3.97405
13.4585 26.8071 2
10.194 23.9652 3.97674
11.9338 24.7834 2
13.2206 25.3571 0.0197063
9.23839 21.1351 3.98217
11.1333 22.2287 2
12.819 23.2739 0.023234
12.23 20.5437 0.0196242
10.3858 19.3139 2
8.41545 18.0259 3.98824
11.656 17.5597 0.0156424
9.75936 16.1544 2
7.74928 14.6715 4
11.219 14.3708 0.00976415
9.30602 12.7745 2
10.9835 10.9835 0
14.4662 32.8568 3.97203
17.8191 33.1015 2
20.5326 33.382 0.0271224
15.4716 29.6283 2
15.8862 26.3918 0.0285129
18.3416 30.1583 0.030297
12.8817 36.2071 3.97132
14.8964 36.0148 2
17.6522 35.9591 0.0272065
12.5895 37.8284 2
11.2611 38.3093 3.97127
14.2913 39.176 0.0281342
11.9013 40.1412 2
9.74663 40.7544 3.9715
12.3846 42.2789 0.0276129
10.1585 42.7794 2
7.93254 43.2699 3.97445
10.5592 44.8038 0.0261132
8.38332 45.3213 2
6.12877 45.9045 3.97813
8.90554 47.3188 0.0248064
6.72267 47.9994 2
4.42081 48.7496 3.98632
7.43042 50.0347 0.0203934
5.20883 50.908 2
2.85457 51.8506 4
6.13186 53.0066 0.0129674
3.86727 54.0858 2
5.0241 56.25 0
12.0549 31.2523 3.97123
10.7775 28.4124 3.97274
12.9129 29.0269 2
9.40997 25.7968 3.9754
11.3649 26.4843 2
13.4587 26.8075 0.0270426
8.22636 23.0218 3.98004
10.194 23.9645 2
11.9339 24.784 0.0243846
7.19759 19.9768 3.98747
9.23837 21.1343 2
11.1334 22.2296 0.0212029
10.386 19.315 0.0163375
8.41494 18.0264 2
6.31992 16.6661 4
9.75972 16.1543 0.010946
7.74926 14.6714 2
9.30607 12.7746 0
12.0758 34.2921 3.97141
14.4662 32.8568 2
17.8174 33.1015 0.0282213
15.4717 29.6283 0.0282549
10.8243 36.61 3.97111
12.8818 36.2072 2
14.8968 36.0148 0.0280439
12.5896 37.8283 0.0282583
11.2612 38.3094 2
9.34396 38.823 3.9709
11.9015 40.141 0.0289525
9.74659 40.7547 2
7.54577 41.2107 3.97282
10.1584 42.779 0.027042
7.93259 43.2702 2
5.64087 43.7676 3.97801
8.38325 45.3209 0.0248792
6.12887 45.9045 2
3.76665 46.5359 3.98619
6.72247 47.9993 0.0216471
4.42082 48.7491 2
1.99014 49.554 4
5.20888 50.909 0.0132541
2.85451 51.8506 2
3.86727 54.0858 0
10.9179 32.9166 3.97197
10.0914 30.3801 3.97231
12.0547 31.2522 2
8.71835 27.7309 3.9747
10.7774 28.4122 2
12.913 29.0271 0.0297445
7.3526 24.9821 3.97869
9.40997 25.7964 2
11.365 26.4847 0.0259507
6.11474 22.0018 3.98657
8.2265 23.0215 2
10.194 23.9652 0.0232558
5.02411 18.75 4
7.19713 19.9779 2
9.23839 21.1351 0.0178314
8.41545 18.0259 0.0117613
6.3199 16.6661 2
7.74928 14.6715 0
10.4338 34.9987 3.97146
12.0757 34.2922 2
14.4662 32.8568 0.0279692
9.01584 36.9844 3.97083
10.8247 36.6101 2
12.8817 36.2071 0.0286847
11.2611 38.3093 0.0287346
9.34402 38.8232 2
7.22865 39.181 3.97172
9.74663 40.7544 0.0285049
7.54578 41.211 2
5.25738 41.6133 3.97653
7.93254 43.2699 0.0255478
5.64091 43.7677 2
3.24453 44.2814 3.98588
6.12877 45.9045 0.0218664
3.7667 46.5358 2
1.27781 47.2057 4
4.42081 48.7496 0.0136822
1.99012 49.554 2
2.85457 51.8506 0
10.0856 33.8799 3.97202
9.38536 32.1527 3.9729
10.9178 32.9166 2
8.06834 29.6948 3.97387
10.0913 30.38 2
12.0549 31.2523 0.0287683
6.59663 27.0085 3.97801
8.71833 27.7308 2
10.7775 28.4124 0.0272647
5.17025 24.0956 3.98616
7.35272 24.982 2
9.40997 25.7968 0.0246042
3.86728 20.9142 4
6.11452 22.0031 2
8.22636 23.0218 0.0199566
5.02406 18.75 2
7.19759 19.9768 0.0125337
6.31992 16.6661 0
8.84225 35.2785 3.97118
10.4338 34.9987 2
12.0758 34.2921 0.0285949
7.01272 37.2052 3.97198
9.01587 36.9844 2
10.8243 36.61 0.0288872
9.34396 38.823 0.0291034
7.2287 39.1811 2
4.98675 39.4666 3.97479
7.54577 41.2107 0.0271828
5.25742 41.6133 2
2.85546 42.002 3.98468
5.64087 43.7676 0.0219928
3.24456 44.2817 2
0.720592 44.8159 4
3.76665 46.5359 0.0138121
1.27778 47.2057 2
1.99014 49.554 0
8.88285 33.6964 3.97225
10.0855 33.8799 2
7.50675 31.6087 3.97378
9.38525 32.1526 2
10.9179 32.9166 0.028032
5.94232 29.0698 3.97735
8.06827 29.6947 2
10.0914 30.3801 0.0276863
4.35808 26.2484 3.98602
6.59668 27.0085 2
8.71835 27.7309 0.0253047
2.85458 23.1494 4
5.17013 24.0966 2
7.3526 24.9821 0.021314
3.86728 20.9142 2
6.11474 22.0018 0.0134288
5.02411 18.75 0
6.96308 35.3056 3.97198
8.8423 35.2785 2
10.4338 34.9987 0.0285437
4.83713 37.3394 3.97504
7.01275 37.2053 2
9.01584 36.9844 0.0291665
7.22865 39.181 0.0282772
4.98679 39.4667 2
2.60412 39.7138 3.983
5.25738 41.6133 0.0234663
2.85555 42.0025 2
0.320823 42.3947 4
3.24453 44.2814 0.0141152
0.720551 44.8159 2
1.27781 47.2057 0
7.12186 33.4605 3.97318
8.88278 33.6964 2
10.0856 33.8799 0.0279826
5.41389 31.1338 3.97689
7.50662 31.6086 2
9.38536 32.1527 0.0270967
3.68009 28.4441 3.98561
5.94228 29.0699 2
8.06834 29.6948 0.0261273
1.99015 25.446 4
4.35802 26.249 2
6.59663 27.0085 0.0219853
2.85453 23.1494 2
5.17025 24.0956 0.0138381
3.86728 20.9142 0
4.85153 35.2515 3.97509
6.96313 35.3056 2
8.84225 35.2785 0.0288237
2.49561 37.4284 3.98312
4.83716 37.3396 2
7.01272 37.2052 0.0280178
4.98675 39.4666 0.025206
2.60419 39.7144 2
0.080333 39.9526 4
2.85546 42.002 0.0153213
0.320817 42.3947 2
0.720592 44.8159 0
5.0442 33.1904 3.97611
7.12179 33.4605 2
8.88285 33.6964 0.027747
3.14476 30.6664 3.98477
5.41376 31.134 2
7.50675 31.6087 0.0262161
1.27793 27.7943 4
3.68007 28.4443 2
5.94232 29.0698 0.0226543
1.99013 25.446 2
4.35808 26.2484 0.0139798
2.85458 23.1494 0
2.54778 35.159 3.98312
4.85158 35.2517 2
6.96308 35.3056 0.0280208
0 37.5 4
2.4957 37.429 2
4.83713 37.3394 0.0249562
2.60412 39.7138 0.0169957
0.0802903 39.9526 2
0.320823 42.3947 0
2.76514 32.9058 3.98382
5.04412 33.1906 2
7.12186 33.4605 0.0268195
0.721173 30.1842 4
3.14471 30.6665 2
5.41389 31.1338 0.0231077
1.27779 27.7943 2
3.68009 28.4441 0.0143874
1.99015 25.446 0
0.0806499 35.0474 4
2.54787 35.1595 2
4.85153 35.2515 0.024912
0 37.5 2
2.49561 37.4284 0.0168771
0.080333 39.9526 0
0.32156 32.6054 4
2.76514 32.9061 2
5.0442 33.1904 0.0238887
0.72056 30.1841 2
3.14476 30.6664 0.0152313
1.27793 27.7943 0
0.0802889 35.0474 2
2.54778 35.159 0.0168774
0 37.5 0
0.320817 32.6053 2
2.76514 32.9058 0.0161802
0.721173 30.1842 0
0.0806499 35.0474 0
0.32156 32.6054 0
CELLS 1910 17190
8 18 6 25 56 2 0 5 16
8 57 23 6 18 17 4 0 2
8 78 36 9 29 31 11 1 7
8 31 11 1 7 79 37 10 30
8 110 57 18 50 48 17 2 14
8 50 18 56 111 14 2 16 49
8 116 62 22 55 52 20 3 15
8 56 25 67 118 16 5 24 53
8 119 63 23 57 54 21 4 17
8 55 22 63 119 15 3 21 54
8 58 26 68 121 18 6 25 56
8 122 65 26 58 57 23 6 18
8 73 31 7 27 142 79 30 71
8 143 78 29 72 73 31 7 27
8 83 147 76 34 32 74 28 8
8 84 148 78 36 33 75 29 9
8 76 34 8 28 148 84 33 75
8 37 79 150 86 10 30 77 35
8 151 87 36 78 80 38 11 31
8 80 38 11 31 152 88 37 79
8 175 100 42 94 96 44 12 40
8 44 96 176 101 12 40 95 43
8 101 176 98 46 43 95 41 13
8 46 98 178 103 13 41 97 45
8 178 103 45 97 147 83 32 74
8 189 116 55 109 106 52 15 47
8 111 56 118 191 49 16 53 107
8 192 119 57 110 108 54 17 48
8 109 55 119 192 47 15 54 108
8 194 122 58 112 110 57 18 50
8 112 58 121 195 50 18 56 111
8 115 61 19 51 197 124 59 113
8 115 61 125 198 51 19 60 114
8 198 125 62 116 114 60 20 52
8 200 127 64 120 116 62 22 55
8 118 67 132 202 53 24 66 117
8 121 68 133 203 56 25 67 118
8 120 64 128 204 55 22 63 119
8 204 128 65 122 119 63 23 57
8 206 134 68 121 123 69 26 58
8 123 69 26 58 207 131 65 122
8 226 147 74 138 140 76 28 70
8 229 148 75 139 143 78 29 72
8 140 76 28 70 229 148 75 139
8 142 79 30 71 231 150 77 141
8 144 80 31 73 232 152 79 142
8 233 151 78 143 144 80 31 73
8 150 86 35 77 235 154 81 145
8 235 154 81 145 146 82 39 91
8 146 82 39 91 236 155 90 165
8 238 157 83 147 149 85 34 76
8 239 158 84 148 151 87 36 78
8 149 85 34 76 239 158 84 148
8 152 88 37 79 241 160 86 150
8 242 161 87 151 153 89 38 80
8 153 89 38 80 243 162 88 152
8 171 98 41 92 265 178 97 169
8 265 178 97 169 226 147 74 138
8 172 96 40 93 266 176 95 170
8 266 176 95 170 171 98 41 92
8 269 175 94 173 172 96 40 93
8 271 180 99 174 175 100 42 94
8 197 124 59 113 271 180 99 174
8 272 181 100 175 177 102 44 96
8 273 182 101 176 179 104 46 98
8 177 102 44 96 273 182 101 176
8 179 104 46 98 275 184 103 178
8 275 184 103 178 238 157 83 147
8 188 115 51 105 283 197 113 186
8 188 115 198 284 105 51 114 187
8 284 198 116 189 187 114 52 106
8 286 200 120 193 189 116 55 109
8 191 118 202 288 107 53 117 190
8 195 121 203 289 111 56 118 191
8 193 120 204 290 109 55 119 192
8 290 204 122 194 192 119 57 110
8 196 123 58 112 292 207 122 194
8 293 206 121 195 196 123 58 112
8 199 126 61 115 297 211 124 197
8 298 212 127 200 198 125 62 116
8 199 126 212 298 115 61 125 198
8 205 129 64 120 300 214 127 200
8 301 217 130 201 202 132 66 117
8 209 136 168 264 301 217 130 201
8 302 219 132 202 203 133 67 118
8 303 220 133 203 206 134 68 121
8 205 129 215 304 120 64 128 204
8 304 215 131 207 204 128 65 122
8 306 221 134 206 208 135 69 123
8 208 135 69 123 307 218 131 207
8 210 137 167 263 309 223 136 209
8 328 238 147 226 230 149 76 140
8 228 146 91 166 329 236 165 260
8 231 150 77 141 330 235 145 227
8 330 235 145 227 228 146 91 166
8 332 239 148 229 233 151 78 143
8 230 149 76 140 332 239 148 229
8 232 152 79 142 334 241 150 231
8 234 153 80 144 335 243 152 232
8 336 242 151 233 234 153 80 144
8 236 155 90 165 338 245 164 259
8 241 160 86 150 339 246 154 235
8 339 246 154 235 237 156 82 146
8 237 156 82 146 340 247 155 236
8 342 249 157 238 240 159 85 149
8 343 250 158 239 242 161 87 151
8 240 159 85 149 343 250 158 239
8 243 162 88 152 345 252 160 241
8 244 163 253 346 153 89 161 242
8 244 163 89 153 347 254 162 243
8 311 224 261 371 210 137 167 263
8 263 167 262 372 209 136 168 264
8 267 179 98 171 375 275 178 265
8 375 275 178 265 328 238 147 226
8 376 273 176 266 267 179 98 171
8 268 177 96 172 376 273 176 266
8 379 272 175 269 268 177 96 172
8 380 271 174 270 269 175 94 173
8 283 197 113 186 380 271 174 270
8 381 277 180 271 272 181 100 175
8 297 211 124 197 381 277 180 271
8 382 278 181 272 274 183 102 177
8 274 183 102 177 383 279 182 273
8 383 279 182 273 276 185 104 179
8 385 281 184 275 342 249 157 238
8 276 185 104 179 385 281 184 275
8 285 199 115 188 393 297 197 283
8 394 298 200 286 284 198 116 189
8 285 199 298 394 188 115 198 284
8 291 205 120 193 396 300 200 286
8 397 301 201 287 288 202 117 190
8 295 209 264 374 397 301 201 287
8 398 302 202 288 289 203 118 191
8 399 303 203 289 293 206 121 195
8 291 205 304 400 193 120 204 290
8 400 304 207 292 290 204 122 194
8 294 208 123 196 402 307 207 292
8 403 306 206 293 294 208 123 196
8 296 210 263 373 405 309 209 295
8 408 312 213 299 297 211 126 199
8 299 213 313 409 199 126 212 298
8 409 313 214 300 298 212 127 200
8 305 216 129 205 411 315 214 300
8 412 318 217 301 302 219 132 202
8 309 223 136 209 412 318 217 301
8 413 320 219 302 303 220 133 203
8 306 221 321 414 206 134 220 303
8 307 218 131 207 415 316 215 304
8 305 216 316 415 205 129 215 304
8 417 322 221 306 308 222 135 208
8 308 222 135 208 418 319 218 307
8 310 225 137 210 420 325 223 309
8 423 326 224 311 310 225 137 210
8 329 236 165 260 441 338 259 368
8 442 342 238 328 333 240 149 230
8 331 237 146 228 443 340 236 329
8 334 241 150 231 444 339 235 330
8 444 339 235 330 331 237 146 228
8 446 343 239 332 336 242 151 233
8 333 240 149 230 446 343 239 332
8 335 243 152 232 448 345 241 334
8 337 244 153 234 449 347 243 335
8 337 244 346 450 234 153 242 336
8 338 245 164 259 452 349 258 367
8 340 247 155 236 453 350 245 338
8 345 252 160 241 454 351 246 339
8 454 351 246 339 341 248 156 237
8 341 248 156 237 455 352 247 340
8 240 159 251 344 342 249 354 457
8 242 161 253 346 343 250 355 458
8 343 250 355 458 240 159 251 344
8 347 254 162 243 460 357 252 345
8 348 255 358 461 244 163 253 346
8 348 255 163 244 462 359 254 347
8 473 360 257 365 363 256 364 482
8 452 349 258 367 365 257 366 485
8 422 324 369 488 311 224 261 371
8 371 261 370 490 263 167 262 372
8 407 311 371 491 296 210 263 373
8 373 263 372 492 295 209 264 374
8 493 385 275 375 442 342 238 328
8 377 276 179 267 493 385 275 375
8 378 274 177 268 494 383 273 376
8 494 383 273 376 377 276 179 267
8 497 382 272 379 378 274 177 268
8 498 381 271 380 379 272 175 269
8 393 297 197 283 498 381 271 380
8 499 387 277 381 382 278 181 272
8 408 312 211 297 499 387 277 381
8 500 388 278 382 384 280 183 274
8 501 389 279 383 386 282 185 276
8 384 280 183 274 501 389 279 383
8 386 282 185 276 503 391 281 385
8 503 391 281 385 457 354 249 342
8 511 408 299 395 393 297 199 285
8 395 299 409 512 285 199 298 394
8 512 409 300 396 394 298 200 286
8 401 305 205 291 514 411 300 396
8 515 412 301 397 398 302 202 288
8 405 309 209 295 515 412 301 397
8 516 413 302 398 399 303 203 289
8 403 306 414 517 293 206 303 399
8 402 307 207 292 518 415 304 400
8 401 305 415 518 291 205 304 400
8 404 308 208 294 520 418 307 402
8 521 417 306 403 404 308 208 294
8 406 310 210 296 523 420 309 405
8 526 423 311 407 406 310 210 296
8 410 314 213 299 527 424 312 408
8 528 425 315 411 409 313 214 300
8 410 314 425 528 299 213 313 409
8 416 317 216 305 530 427 315 411
8 531 430 318 412 413 320 219 302
8 420 325 223 309 531 430 318 412
8 532 432 320 413 414 321 220 303
8 417 322 433 533 306 221 321 414
8 418 319 218 307 534 428 316 415
8 416 317 428 534 305 216 316 415
8 419 323 434 536 308 222 322 417
8 419 323 222 308 537 431 319 418
8 421 327 225 310 539 438 325 420
8 421 327 439 541 310 225 326 423
8 543 437 324 422 423 326 224 311
8 441 338 259 368 559 452 367 486
8 443 340 236 329 560 453 338 441
8 333 240 344 447 442 342 457 561
8 445 341 237 331 562 455 340 443
8 448 345 241 334 563 454 339 444
8 563 454 339 444 445 341 237 331
8 336 242 346 450 446 343 458 565
8 446 343 458 565 333 240 344 447
8 449 347 243 335 567 460 345 448
8 451 348 244 337 568 462 347 449
8 451 348 461 569 337 244 346 450
8 570 463 349 452 473 360 257 365
8 453 350 245 338 570 463 349 452
8 455 352 247 340 571 464 350 453
8 460 357 252 345 572 465 351 454
8 572 465 351 454 456 353 248 341
8 456 353 248 341 573 466 352 455
8 344 251 356 459 457 354 468 575
8 458 355 469 576 344 251 356 459
8 346 253 358 461 458 355 469 576
8 462 359 254 347 578 471 357 460
8 348 255 359 462 461 358 472 579
8 591 474 360 473 475 361 256 363
8 475 361 256 363 594 477 362 479
8 363 256 364 482 479 362 480 603
8 590 473 365 484 481 363 482 605
8 482 364 257 365 606 483 366 485
8 559 452 367 486 484 365 485 607
8 542 436 487 609 422 324 369 488
8 525 422 488 611 407 311 371 491
8 488 369 489 612 371 261 370 490
8 491 371 490 613 373 263 372 492
8 495 386 276 377 614 503 385 493
8 614 503 385 493 561 457 342 442
8 615 501 383 494 495 386 276 377
8 496 384 274 378 615 501 383 494
8 618 500 382 497 496 384 274 378
8 619 499 381 498 497 382 272 379
8 511 408 297 393 619 499 381 498
8 620 505 387 499 500 388 278 382
8 527 424 312 408 620 505 387 499
8 502 390 506 621 384 280 388 500
8 622 507 389 501 504 392 282 386
8 502 390 280 384 622 507 389 501
8 504 392 282 386 624 509 391 503
8 624 509 391 503 575 468 354 457
8 513 410 299 395 630 527 408 511
8 631 528 411 514 512 409 300 396
8 513 410 528 631 395 299 409 512
8 519 416 305 401 633 530 411 514
8 634 531 412 515 516 413 302 398
8 523 420 309 405 634 531 412 515
8 635 532 413 516 517 414 303 399
8 521 417 533 636 403 306 414 517
8 520 418 307 402 637 534 415 518
8 519 416 534 637 401 305 415 518
8 522 419 308 404 639 537 418 520
8 522 419 536 640 404 308 417 521
8 524 421 310 406 642 539 420 523
8 524 421 541 644 406 310 423 526
8 646 543 422 525 526 423 311 407
8 529 426 314 410 647 544 424 527
8 528 425 545 648 411 315 427 530
8 529 426 545 648 410 314 425 528
8 535 429 317 416 649 546 427 530
8 650 548 430 531 532 432 320 413
8 539 438 325 420 650 548 430 531
8 533 433 550 651 414 321 432 532
8 536 434 551 652 417 322 433 533
8 537 431 319 418 653 547 428 534
8 535 429 547 653 416 317 428 534
8 538 435 552 654 419 323 434 536
8 538 435 323 419 655 549 431 537
8 540 440 327 421 657 556 438 539
8 540 440 557 659 421 327 439 541
8 541 439 555 660 423 326 437 543
8 661 554 436 542 543 437 324 422
8 676 570 452 559 590 473 365 484
8 560 453 338 441 676 570 452 559
8 562 455 340 443 677 571 453 560
8 447 344 459 566 561 457 575 678
8 564 456 341 445 679 573 455 562
8 567 460 345 448 680 572 454 563
8 680 572 454 563 564 456 341 445
8 565 458 576 682 447 344 459 566
8 450 346 461 569 565 458 576 682
8 568 462 347 449 684 578 460 567
8 451 348 462 568 569 461 579 685
8 686 580 463 570 591 474 360 473
8 571 464 350 453 686 580 463 570
8 573 466 352 455 687 581 464 571
8 572 465 582 688 460 357 471 578
8 574 467 582 688 456 353 465 572
8 574 467 353 456 689 583 466 573
8 459 356 470 577 575 468 585 691
8 576 469 586 692 459 356 470 577
8 461 358 472 579 576 469 586 692
8 462 359 471 578 579 472 588 694
8 704 591 473 590 593 475 363 481
8 595 476 592 705 475 361 474 591
8 593 475 363 481 707 594 479 602
8 594 477 362 479 709 598 478 600
8 595 476 361 475 711 597 477 594
8 479 362 480 603 600 478 601 720
8 481 363 482 605 602 479 603 722
8 603 480 364 482 723 604 483 606
8 605 482 365 484 724 606 485 607
8 656 553 608 726 542 436 487 609
8 645 542 609 728 525 422 488 611
8 609 487 610 729 488 369 489 612
8 611 488 612 730 491 371 490 613
8 616 504 386 495 731 624 503 614
8 731 624 503 614 678 575 457 561
8 732 622 501 615 616 504 386 495
8 617 502 384 496 732 622 501 615
8 617 502 621 735 496 384 500 618
8 736 620 499 619 618 500 382 497
8 630 527 408 511 736 620 499 619
8 621 506 626 737 500 388 505 620
8 647 544 424 527 737 626 505 620
8 623 508 627 738 502 390 506 621
8 623 508 390 502 739 628 507 622
8 625 510 628 739 504 392 507 622
8 740 629 509 624 691 585 468 575
8 625 510 392 504 740 629 509 624
8 632 529 410 513 744 647 527 630
8 631 528 648 745 514 411 530 633
8 632 529 648 745 513 410 528 631
8 638 535 416 519 746 649 530 633
8 747 650 531 634 635 532 413 516
8 642 539 420 523 747 650 531 634
8 636 533 651 748 517 414 532 635
8 640 536 652 749 521 417 533 636
8 639 537 418 520 750 653 534 637
8 638 535 653 750 519 416 534 637
8 641 538 419 522 751 655 537 639
8 641 538 654 752 522 419 536 640
8 643 540 421 524 753 657 539 642
8 643 540 659 755 524 421 541 644
8 644 541 660 757 526 423 543 646
8 758 661 542 645 646 543 422 525
8 529 426 544 647 648 545 662 759
8 530 427 545 648 649 546 663 760
8 535 429 546 649 653 547 664 761
8 762 666 548 650 651 550 432 532
8 657 556 438 539 762 666 548 650
8 652 551 668 763 533 433 550 651
8 654 552 669 764 536 434 551 652
8 655 549 431 537 765 665 547 653
8 538 435 549 655 654 552 667 766
8 661 554 671 768 542 436 553 656
8 658 558 440 540 769 674 556 657
8 658 558 675 770 540 440 557 659
8 659 557 673 771 541 439 555 660
8 660 555 672 772 543 437 554 661
8 788 686 570 676 704 591 473 590
8 677 571 453 560 788 686 570 676
8 679 573 455 562 789 687 571 677
8 566 459 577 683 678 575 691 790
8 681 574 456 564 791 689 573 679
8 680 572 688 792 567 460 578 684
8 681 574 688 792 564 456 572 680
8 682 576 692 794 566 459 577 683
8 569 461 579 685 682 576 692 794
8 568 462 578 684 685 579 694 796
8 687 581 464 571 798 696 580 686
8 798 696 580 686 705 592 474 591
8 689 583 466 573 799 697 581 687
8 688 582 698 800 578 471 588 694
8 690 584 698 800 574 467 582 688
8 690 584 467 574 801 699 583 689
8 693 587 701 803 577 470 585 691
8 693 587 470 577 804 702 586 692
8 695 589 702 804 579 472 586 692
8 695 589 472 579 805 703 588 694
8 708 595 705 813 593 475 591 704
8 710 596 706 814 595 476 592 705
8 707 594 479 602 816 709 600 719
8 708 595 475 593 817 711 594 707
8 709 598 478 600 819 715 599 717
8 711 597 477 594 820 714 598 709
8 710 596 476 595 822 713 597 711
8 600 478 601 720 717 599 718 832
8 602 479 603 722 719 600 720 834
8 720 601 480 603 835 721 604 723
8 722 603 482 605 836 723 606 724
8 767 670 725 839 656 553 608 726
8 756 656 726 841 645 542 609 728
8 726 608 727 842 609 487 610 729
8 728 609 729 843 611 488 612 730
8 844 740 624 731 790 691 575 678
8 733 625 504 616 844 740 624 731
8 734 623 502 617 845 739 622 732
8 733 625 739 845 616 504 622 732
8 734 623 738 846 617 502 621 735
8 735 621 737 847 618 500 620 736
8 744 647 527 630 847 737 620 736
8 621 506 627 738 737 626 741 848
8 647 544 626 737 759 662 741 848
8 623 508 628 739 738 627 742 849
8 740 629 585 691 850 743 700 802
8 625 510 629 740 739 628 743 850
8 632 529 647 744 745 648 759 854
8 633 530 648 745 746 649 760 855
8 638 535 649 746 750 653 761 856
8 857 762 650 747 748 651 532 635
8 753 657 539 642 857 762 650 747
8 749 652 763 858 636 533 651 748
8 752 654 764 859 640 536 652 749
8 751 655 537 639 860 765 653 750
8 641 538 655 751 752 654 766 861
8 754 658 540 643 862 769 657 753
8 754 658 770 863 643 540 659 755
8 755 659 771 864 644 541 660 757
8 758 661 768 866 645 542 656 756
8 757 660 772 867 646 543 661 758
8 759 662 773 868 648 545 663 760
8 649 546 663 760 761 664 774 871
8 765 665 547 653 872 775 664 761
8 873 777 666 762 763 668 550 651
8 769 674 556 657 873 777 666 762
8 764 669 779 874 652 551 668 763
8 654 552 667 766 764 669 778 875
8 655 549 665 765 766 667 776 876
8 768 671 782 877 656 553 670 767
8 772 672 783 878 661 554 671 768
8 658 558 674 769 770 675 786 879
8 659 557 675 770 771 673 785 881
8 882 784 672 772 771 673 555 660
8 789 687 571 677 897 798 686 788
8 897 798 686 788 813 705 591 704
8 791 689 573 679 898 799 687 789
8 795 693 803 900 683 577 691 790
8 793 690 574 681 901 801 689 791
8 792 688 800 902 684 578 694 796
8 793 690 800 902 681 574 688 792
8 795 693 577 683 903 804 692 794
8 797 695 804 903 685 579 692 794
8 797 695 579 685 904 805 694 796
8 905 806 697 799 798 696 581 687
8 814 706 806 905 705 592 696 798
8 689 583 697 799 801 699 808 907
8 800 698 809 908 694 588 703 805
8 690 584 699 801 800 698 809 908
8 803 701 810 909 691 585 700 802
8 693 587 702 804 803 701 811 910
8 695 589 703 805 804 702 812 911
8 818 710 814 919 708 595 705 813
8 821 712 815 920 710 596 706 814
8 816 709 600 719 922 819 717 831
8 817 711 594 707 923 820 709 816
8 818 710 595 708 924 822 711 817
8 819 715 599 717 926 827 716 829
8 820 714 598 709 927 826 715 819
8 929 825 713 822 820 714 597 711
8 821 712 596 710 930 824 713 822
8 717 599 718 832 829 716 830 942
8 719 600 720 834 831 717 832 944
8 832 718 601 720 945 833 721 835
8 834 720 603 722 946 835 723 836
8 869 780 838 950 767 670 725 839
8 865 767 839 952 756 656 726 841
8 839 725 840 953 726 608 727 842
8 841 726 842 954 728 609 729 843
8 844 740 691 790 955 850 802 899
8 733 625 740 844 845 739 850 955
8 734 623 739 845 846 738 849 956
8 735 621 738 846 847 737 848 957
8 744 647 737 847 854 759 848 957
8 738 627 742 849 848 741 851 958
8 848 741 851 958 759 662 773 868
8 850 743 700 802 959 852 807 906
8 849 742 628 739 959 852 743 850
8 854 759 868 965 745 648 760 855
8 746 649 760 855 856 761 871 966
8 860 765 653 750 967 872 761 856
8 968 873 762 857 858 763 651 748
8 862 769 657 753 968 873 762 857
8 859 764 874 969 749 652 763 858
8 752 654 766 861 859 764 875 970
8 751 655 765 860 861 766 876 971
8 754 658 769 862 863 770 879 972
8 755 659 770 863 864 771 881 974
8 976 882 772 867 864 771 660 757
8 866 768 877 977 756 656 767 865
8 867 772 878 978 758 661 768 866
8 760 663 773 868 871 774 883 980
8 870 781 837 948 982 890 780 869
8 982 890 780 869 877 782 670 767
8 761 664 774 871 872 775 884 984
8 876 776 665 765 985 885 775 872
8 873 777 668 763 986 887 779 874
8 769 674 777 873 879 786 887 986
8 764 669 778 875 874 779 888 987
8 766 667 776 876 875 778 886 988
8 878 783 892 989 768 671 782 877
8 878 783 672 772 990 893 784 882
8 880 787 675 770 991 896 786 879
8 880 787 895 992 770 675 785 881
8 881 785 894 993 771 673 784 882
8 1006 905 799 898 897 798 687 789
8 919 814 905 1006 813 705 798 897
8 791 689 799 898 901 801 907 1007
8 900 803 909 1009 790 691 802 899
8 795 693 804 903 900 803 910 1010
8 902 800 908 1011 796 694 805 904
8 793 690 801 901 902 800 908 1011
8 797 695 805 904 903 804 911 1012
8 799 697 806 905 907 808 912 1013
8 920 815 912 1013 814 706 806 905
8 802 700 810 909 906 807 913 1014
8 801 699 808 907 908 809 914 1015
8 805 703 809 908 911 812 915 1016
8 803 701 811 910 909 810 916 1017
8 911 812 917 1018 804 702 811 910
8 925 821 920 1030 818 710 814 919
8 928 823 921 1031 821 712 815 920
8 922 819 717 831 1033 926 829 941
8 923 820 709 816 1034 927 819 922
8 1035 929 822 924 923 820 711 817
8 925 821 710 818 1036 930 822 924
8 1038 933 825 929 927 826 714 820
8 926 827 716 829 1039 935 828 939
8 927 826 715 819 1040 934 827 926
8 928 823 712 821 1041 931 824 930
8 1042 932 824 930 929 825 713 822
8 829 716 830 942 939 828 940 1058
8 831 717 832 944 941 829 942 1060
8 942 830 718 832 1061 943 833 945
8 944 832 720 834 1062 945 835 946
8 981 889 947 1064 870 781 837 948
8 948 837 949 1067 869 780 838 950
8 975 869 950 1069 865 767 839 952
8 950 838 951 1070 839 725 840 953
8 952 839 953 1071 841 726 842 954
8 955 850 802 899 1072 959 906 1008
8 956 849 739 845 1072 959 850 955
8 846 738 849 956 957 848 958 1073
8 957 848 958 1073 854 759 868 965
8 849 742 852 959 958 851 961 1076
8 960 853 961 1076 906 807 852 959
8 958 851 961 1076 868 773 883 980
8 960 853 807 906 1077 963 913 1014
8 855 760 868 965 966 871 980 1085
8 856 761 871 966 967 872 984 1086
8 971 876 765 860 1087 985 872 967
8 968 873 763 858 1088 986 874 969
8 862 769 873 968 972 879 986 1088
8 859 764 875 970 969 874 987 1089
8 861 766 876 971 970 875 988 1090
8 973 880 770 863 1091 991 879 972
8 973 880 992 1092 863 770 881 974
8 974 881 993 1093 864 771 882 976
8 979 870 948 1066 1094 982 869 975
8 1094 982 869 975 977 877 767 865
8 978 878 772 867 1095 990 882 976
8 978 878 989 1096 866 768 877 977
8 871 774 883 980 984 884 994 1099
8 983 891 999 1100 870 781 889 981
8 1101 1000 890 982 989 892 782 877
8 983 891 781 870 1101 1000 890 982
8 872 775 884 984 985 885 995 1103
8 876 776 885 985 988 886 996 1104
8 986 887 779 874 1105 998 888 987
8 879 786 887 986 991 896 998 1105
8 875 778 886 988 987 888 997 1106
8 990 893 1002 1107 878 783 892 989
8 1108 1003 893 990 993 894 784 882
8 880 787 896 991 992 895 1005 1109
8 993 894 785 881 1110 1004 895 992
8 898 799 905 1006 1007 907 1013 1120
8 1030 920 1013 1120 919 814 905 1006
8 901 801 907 1007 1011 908 1015 1121
8 899 802 909 1009 1008 906 1014 1122
8 900 803 910 1010 1009 909 1017 1123
8 1012 911 1018 1124 903 804 910 1010
8 904 805 908 1011 1012 911 1016 1125
8 1013 912 1020 1127 907 808 914 1015
8 1031 921 1020 1127 920 815 912 1013
8 1019 918 962 1075 1128 1021 913 1014
8 1128 1021 913 1014 1017 916 810 909
8 1015 914 1022 1129 908 809 915 1016
8 1016 915 1023 1130 911 812 917 1018
8 1018 917 1024 1131 910 811 916 1017
8 1037 928 1031 1148 925 821 920 1030
8 928 823 931 1041 1031 921 1032 1149
8 1033 926 829 941 1151 1039 939 1057
8 1034 927 819 922 1152 1040 926 1033
8 1153 1038 929 1035 1034 927 820 923
8 1154 1042 930 1036 1035 929 822 924
8 1037 928 821 925 1155 1041 930 1036
8 1039 935 828 939 1156 1047 938 1055
8 1157 1043 932 1042 1038 933 825 929
8 1038 933 826 927 1158 1045 934 1040
8 1040 934 827 926 1159 1046 935 1039
8 930 824 932 1042 1041 931 1044 1160
8 1051 936 1048 1165 1175 1052 937 1053
8 1156 1047 938 1055 1053 937 1054 1178
8 939 828 940 1058 1055 938 1056 1181
8 941 829 942 1060 1057 939 1058 1183
8 942 830 943 1061 1058 940 1059 1184
8 1060 942 832 944 1185 1061 945 1062
8 1082 964 1063 1188 981 889 947 1064
8 1097 981 1064 1190 979 870 948 1066
8 1064 947 1065 1191 948 837 949 1067
8 1066 948 1067 1193 975 869 950 1069
8 1067 949 1068 1194 950 838 951 1070
8 1069 950 1070 1195 952 839 953 1071
8 956 849 959 1072 1073 958 1076 1197
8 1074 960 1076 1197 1008 906 959 1072
8 1073 958 1076 1197 965 868 980 1085
8 1074 960 906 1008 1198 1077 1014 1122
8 1133 1026 1079 1199 1019 918 962 1075
8 1077 963 913 1014 1200 1080 962 1075
8 960 853 963 1077 1076 961 1078 1201
8 980 883 961 1076 1099 994 1078 1201
8 1210 1083 964 1082 1100 999 889 981
8 966 871 980 1085 1086 984 1099 1215
8 967 872 984 1086 1087 985 1103 1216
8 971 876 985 1087 1090 988 1104 1217
8 1088 986 874 969 1218 1105 987 1089
8 972 879 986 1088 1091 991 1105 1218
8 970 875 988 1090 1089 987 1106 1219
8 973 880 991 1091 1092 992 1109 1220
8 1093 993 881 974 1221 1110 992 1092
8 1222 1108 990 1095 1093 993 882 976
8 1223 1101 982 1094 1096 989 877 977
8 1098 983 870 979 1223 1101 982 1094
8 1095 990 1107 1224 978 878 989 1096
8 1098 983 1100 1225 979 870 981 1097
8 984 884 994 1099 1103 995 1111 1227
8 1102 1001 1115 1228 983 891 999 1100
8 1101 1000 892 989 1229 1116 1002 1107
8 1102 1001 891 983 1229 1116 1000 1101
8 985 885 995 1103 1104 996 1112 1230
8 988 886 996 1104 1106 997 1113 1231
8 1105 998 888 987 1232 1114 997 1106
8 991 896 998 1105 1109 1005 1114 1232
8 1108 1003 1117 1233 990 893 1002 1107
8 1108 1003 894 993 1233 1117 1004 1110
8 992 895 1005 1109 1110 1004 1118 1234
8 1120 1013 1127 1244 1007 907 1015 1121
8 1148 1031 1127 1244 1030 920 1013 1120
8 1121 1015 1129 1245 1011 908 1016 1125
8 1126 1019 1075 1196 1246 1128 1014 1122
8 1246 1128 1014 1122 1123 1017 909 1009
8 1124 1018 1131 1247 1010 910 1017 1123
8 1125 1016 1130 1248 1012 911 1018 1124
8 1127 1020 1137 1254 1015 914 1022 1129
8 1031 921 1032 1149 1127 1020 1137 1254
8 1134 1027 918 1019 1257 1140 1021 1128
8 1257 1140 1021 1128 1131 1024 916 1017
8 1129 1022 1141 1258 1016 915 1023 1130
8 1130 1023 1142 1259 1018 917 1024 1131
8 1261 1144 1025 1132 1133 1026 1079 1199
8 1255 1138 1025 1132 1135 1028 1144 1261
8 1133 1026 918 1019 1262 1145 1027 1134
8 1136 1029 1139 1256 1263 1146 1028 1135
8 1037 928 1041 1155 1148 1031 1149 1275
8 1041 931 1044 1160 1149 1032 1150 1276
8 1151 1039 939 1057 1278 1156 1055 1180
8 1152 1040 926 1033 1279 1159 1039 1151
8 1153 1038 927 1034 1280 1158 1040 1152
8 1281 1157 1042 1154 1153 1038 929 1035
8 1036 930 1042 1154 1155 1041 1160 1282
8 1283 1164 1046 1159 1156 1047 935 1039
8 1165 1048 1164 1283 1053 937 1047 1156
8 1157 1043 933 1038 1284 1161 1045 1158
8 1157 1043 1161 1284 1042 932 1044 1160
8 1040 934 1046 1159 1158 1045 1163 1285
8 1166 1049 1167 1292 1051 936 1048 1165
8 1166 1049 936 1051 1293 1168 1050 1172
8 1051 936 1052 1175 1172 1050 1173 1306
8 1174 1051 1165 1290 1308 1175 1053 1177
8 1053 937 1054 1178 1175 1052 1176 1309
8 1278 1156 1055 1180 1177 1053 1178 1311
8 1055 938 1056 1181 1178 1054 1179 1312
8 1057 939 1058 1183 1180 1055 1181 1314
8 1058 940 1059 1184 1181 1056 1182 1315
8 1060 942 1061 1185 1183 1058 1184 1316
8 1208 1081 1187 1321 1082 964 1063 1188
8 1209 1082 1188 1322 1097 981 1064 1190
8 1188 1063 1189 1323 1064 947 1065 1191
8 1190 1064 1191 1325 1066 948 1067 1193
8 1191 1065 1192 1326 1067 949 1068 1194
8 1067 1193 1069 950 1194 1327 1195 1070
8 1250 1133 1199 1330 1126 1019 1075 1196
8 1198 1077 1014 1122 1331 1200 1075 1196
8 1074 960 1077 1198 1197 1076 1201 1332
8 1085 980 1076 1197 1215 1099 1201 1332
8 1199 1079 1203 1333 1075 962 1080 1200
8 1132 1025 1119 1243 1199 1079 1203 1333
8 1201 1078 963 1077 1334 1202 1080 1200
8 1099 994 1078 1201 1227 1111 1202 1334
8 1343 1207 1081 1208 1210 1083 964 1082
8 1214 1084 1186 1319 1343 1207 1081 1208
8 1345 1210 1082 1209 1225 1100 981 1097
8 1346 1211 1083 1210 1228 1115 999 1100
8 1086 984 1099 1215 1216 1103 1227 1352
8 1087 985 1103 1216 1217 1104 1230 1353
8 1090 988 1104 1217 1219 1106 1231 1354
8 1218 1105 987 1089 1355 1232 1106 1219
8 1091 991 1105 1218 1220 1109 1232 1355
8 1092 992 1109 1220 1221 1110 1234 1356
8 1222 1108 1233 1357 1095 990 1107 1224
8 1222 1108 993 1093 1357 1233 1110 1221
8 1223 1101 989 1096 1358 1229 1107 1224
8 1226 1102 983 1098 1358 1229 1101 1223
8 1226 1102 1228 1359 1098 983 1100 1225
8 1103 995 1111 1227 1230 1112 1235 1360
8 1107 1002 1117 1233 1229 1116 1240 1362
8 1102 1001 1116 1229 1228 1115 1240 1362
8 1104 996 1112 1230 1231 1113 1236 1363
8 1364 1237 1114 1232 1231 1113 997 1106
8 1109 1005 1114 1232 1234 1118 1238 1365
8 1110 1004 1118 1234 1233 1117 1241 1366
8 1242 1374 1255 1138 1119 1243 1132 1025
8 1244 1127 1254 1376 1121 1015 1129 1245
8 1148 1031 1149 1275 1244 1127 1254 1376
8 1245 1129 1258 1377 1125 1016 1130 1248
8 1251 1134 1019 1126 1378 1257 1128 1246
8 1378 1257 1128 1246 1247 1131 1017 1123
8 1248 1130 1259 1379 1124 1018 1131 1247
8 1261 1381 1250 1133 1132 1249 1330 1199
8 1255 1380 1252 1135 1132 1249 1381 1261
8 1250 1133 1019 1126 1382 1262 1134 1251
8 1253 1136 1256 1385 1384 1263 1135 1252
8 1254 1137 1265 1387 1129 1022 1141 1258
8 1149 1032 1150 1276 1254 1137 1265 1387
8 1028 1135 1255 1138 1139 1256 1388 1266
8 1136 1029 1147 1264 1256 1139 1267 1389
8 1390 1268 1140 1257 1259 1142 1024 1131
8 1260 1143 1027 1134 1390 1268 1140 1257
8 1258 1141 1269 1391 1130 1023 1142 1259
8 1262 1145 1027 1134 1393 1271 1143 1260
8 1261 1144 1026 1133 1394 1272 1145 1262
8 1135 1028 1144 1261 1263 1146 1272 1394
8 1136 1029 1146 1263 1264 1147 1273 1395
8 1155 1041 1160 1282 1275 1149 1276 1405
8 1276 1150 1044 1160 1406 1277 1162 1286
8 1408 1283 1159 1279 1278 1156 1039 1151
8 1290 1165 1283 1408 1177 1053 1156 1278
8 1152 1040 1159 1279 1280 1158 1285 1409
8 1281 1157 1038 1153 1410 1284 1158 1280
8 1281 1157 1284 1410 1154 1042 1160 1282
8 1159 1046 1164 1283 1285 1163 1289 1412
8 1292 1167 1289 1412 1165 1048 1164 1283
8 1158 1045 1163 1285 1284 1161 1288 1413
8 1284 1161 1288 1413 1160 1044 1162 1286
8 1291 1166 1292 1418 1174 1051 1165 1290
8 1291 1166 1051 1174 1419 1293 1172 1305
8 1294 1169 1296 1421 1166 1049 1167 1292
8 1293 1168 1050 1172 1422 1295 1171 1303
8 1294 1169 1049 1166 1423 1297 1168 1293
8 1422 1295 1171 1303 1301 1170 1302 1435
8 1172 1050 1173 1306 1303 1171 1304 1438
8 1174 1051 1175 1308 1305 1172 1306 1440
8 1175 1052 1176 1309 1306 1173 1307 1441
8 1177 1053 1178 1311 1308 1175 1309 1443
8 1178 1054 1179 1312 1309 1176 1310 1444
8 1180 1055 1181 1314 1311 1178 1312 1446
8 1056 1181 1312 1179 1182 1315 1447 1313
8 1183 1058 1184 1316 1314 1181 1315 1448
8 1319 1186 1084 1214 1451 1317 1213 1350
8 1319 1186 1318 1453 1208 1081 1187 1321
8 1321 1187 1320 1456 1188 1063 1189 1323
8 1344 1208 1321 1457 1209 1082 1188 1322
8 1322 1188 1323 1458 1190 1064 1191 1325
8 1323 1189 1324 1459 1191 1065 1192 1326
8 1191 1325 1193 1067 1326 1460 1327 1194
8 1242 1374 1243 1119 1328 1462 1335 1204
8 1330 1199 1333 1465 1196 1075 1200 1331
8 1132 1249 1330 1199 1243 1375 1465 1333
8 1332 1201 1077 1198 1466 1334 1200 1331
8 1215 1099 1201 1332 1352 1227 1334 1466
8 1119 1243 1333 1203 1204 1335 1470 1338
8 1333 1203 1338 1470 1200 1080 1202 1334
8 1227 1111 1202 1334 1360 1235 1338 1470
8 1328 1462 1335 1204 1205 1336 1471 1339
8 1337 1206 1340 1472 1464 1329 1205 1336
8 1346 1211 1342 1479 1210 1083 1207 1343
8 1346 1211 1115 1228 1479 1342 1239 1361
8 1348 1212 1084 1214 1479 1342 1207 1343
8 1480 1343 1208 1344 1345 1210 1082 1209
8 1351 1214 1319 1454 1480 1343 1208 1344
8 1481 1346 1210 1345 1359 1228 1100 1225
8 1348 1212 1347 1483 1214 1084 1213 1350
8 1216 1103 1227 1352 1353 1230 1360 1488
8 1217 1104 1230 1353 1354 1231 1363 1489
8 1490 1364 1232 1355 1354 1231 1106 1219
8 1220 1109 1232 1355 1356 1234 1365 1491
8 1221 1110 1234 1356 1357 1233 1366 1492
8 1224 1107 1233 1357 1358 1229 1362 1493
8 1226 1102 1229 1358 1359 1228 1362 1493
8 1230 1112 1235 1360 1363 1236 1367 1496
8 1361 1239 1115 1228 1497 1371 1240 1362
8 1366 1241 1372 1498 1233 1117 1240 1362
8 1364 1237 1113 1231 1499 1368 1236 1363
8 1364 1237 1368 1499 1232 1114 1238 1365
8 1234 1118 1238 1365 1366 1241 1369 1500
8 1507 1373 1242 1374 1388 1266 1138 1255
8 1508 1374 1243 1375 1380 1255 1132 1249
8 1376 1254 1387 1509 1245 1129 1258 1377
8 1275 1149 1276 1405 1376 1254 1387 1509
8 1377 1258 1391 1510 1248 1130 1259 1379
8 1511 1390 1257 1378 1379 1259 1131 1247
8 1383 1260 1134 1251 1511 1390 1257 1378
8 1252 1135 1256 1385 1380 1255 1388 1512
8 1261 1381 1513 1394 1133 1250 1382 1262
8 1135 1252 1384 1263 1261 1381 1513 1394
8 1382 1262 1134 1251 1514 1393 1260 1383
8 1253 1136 1263 1384 1386 1264 1395 1516
8 1253 1136 1264 1386 1385 1256 1389 1517
8 1387 1265 1397 1519 1258 1141 1269 1391
8 1276 1150 1277 1406 1387 1265 1397 1519
8 1256 1139 1267 1389 1388 1266 1398 1520
8 1264 1147 1274 1396 1389 1267 1399 1521
8 1392 1270 1143 1260 1522 1400 1268 1390
8 1390 1268 1142 1259 1522 1400 1269 1391
8 1392 1270 1401 1523 1260 1143 1271 1393
8 1272 1394 1524 1402 1145 1262 1393 1271
8 1395 1273 1146 1263 1524 1402 1272 1394
8 1273 1395 1264 1147 1403 1526 1396 1274
8 1405 1276 1160 1282 1534 1406 1286 1411
8 1414 1287 1407 1535 1286 1162 1277 1406
8 1279 1159 1283 1408 1409 1285 1412 1537
8 1418 1292 1412 1537 1290 1165 1283 1408
8 1280 1158 1285 1409 1410 1284 1413 1538
8 1410 1284 1413 1538 1282 1160 1286 1411
8 1285 1163 1289 1412 1413 1288 1417 1540
8 1421 1296 1417 1540 1292 1167 1289 1412
8 1414 1287 1162 1286 1541 1416 1288 1413
8 1420 1294 1421 1545 1291 1166 1292 1418
8 1419 1293 1172 1305 1546 1422 1303 1437
8 1420 1294 1166 1291 1547 1423 1293 1419
8 1294 1169 1297 1423 1421 1296 1425 1548
8 1423 1297 1168 1293 1549 1424 1295 1422
8 1301 1170 1298 1427 1422 1295 1424 1549
8 1432 1300 1428 1554 1301 1170 1298 1427
8 1431 1299 1428 1554 1560 1430 1300 1432
8 1563 1433 1300 1432 1435 1302 1170 1301
8 1546 1422 1303 1437 1434 1301 1435 1565
8 1303 1171 1304 1438 1435 1302 1436 1566
8 1305 1172 1306 1440 1437 1303 1438 1568
8 1306 1173 1307 1441 1438 1304 1439 1569
8 1308 1175 1309 1443 1440 1306 1441 1571
8 1309 1176 1310 1444 1441 1307 1442 1572
8 1311 1178 1312 1446 1443 1309 1444 1574
8 1179 1312 1444 1310 1313 1447 1575 1445
8 1314 1181 1315 1448 1446 1312 1447 1576
8 1350 1213 1349 1486 1451 1317 1449 1579
8 1451 1317 1450 1581 1319 1186 1318 1453
8 1454 1319 1214 1351 1582 1451 1350 1487
8 1453 1318 1452 1584 1321 1187 1320 1456
8 1454 1319 1453 1585 1344 1208 1321 1457
8 1456 1320 1455 1586 1323 1189 1324 1459
8 1457 1321 1456 1587 1322 1188 1323 1458
8 1458 1323 1459 1588 1325 1191 1326 1460
8 1205 1336 1464 1329 1328 1462 1590 1461
8 1507 1373 1461 1590 1374 1242 1328 1462
8 1508 1374 1462 1591 1375 1243 1335 1467
8 1337 1206 1329 1464 1473 1341 1463 1594
8 1375 1243 1335 1467 1465 1333 1470 1596
8 1465 1333 1470 1596 1331 1200 1334 1466
8 1352 1227 1334 1466 1488 1360 1470 1596
8 1591 1462 1336 1468 1467 1335 1471 1597
8 1469 1337 1472 1598 1595 1464 1336 1468
8 1471 1339 1474 1600 1335 1204 1338 1470
8 1600 1474 1367 1496 1470 1338 1235 1360
8 1336 1205 1340 1472 1471 1339 1475 1601
8 1337 1206 1341 1473 1472 1340 1476 1602
8 1495 1370 1478 1609 1361 1239 1342 1479
8 1348 1212 1342 1479 1483 1347 1478 1609
8 1481 1346 1479 1610 1345 1210 1343 1480
8 1481 1346 1228 1359 1610 1479 1361 1494
8 1484 1348 1214 1351 1610 1479 1343 1480
8 1483 1347 1482 1612 1350 1213 1349 1486
8 1484 1348 1483 1613 1351 1214 1350 1487
8 1353 1230 1360 1488 1489 1363 1496 1616
8 1490 1364 1231 1354 1617 1499 1363 1489
8 1490 1364 1499 1617 1355 1232 1365 1491
8 1356 1234 1365 1491 1492 1366 1500 1619
8 1492 1366 1498 1620 1357 1233 1362 1493
8 1494 1361 1228 1359 1621 1497 1362 1493
8 1495 1370 1239 1361 1622 1504 1371 1497
8 1363 1236 1367 1496 1499 1368 1501 1623
8 1497 1371 1240 1362 1624 1505 1372 1498
8 1625 1503 1372 1498 1500 1369 1241 1366
8 1365 1238 1368 1499 1500 1369 1502 1626
8 1520 1398 1506 1633 1388 1266 1373 1507
8 1634 1507 1374 1508 1512 1388 1255 1380
8 1509 1387 1519 1635 1377 1258 1391 1510
8 1405 1276 1406 1534 1509 1387 1519 1635
8 1515 1392 1260 1383 1636 1522 1390 1511
8 1511 1390 1259 1379 1636 1522 1391 1510
8 1385 1256 1389 1517 1512 1388 1520 1637
8 1513 1394 1262 1382 1638 1524 1393 1514
8 1395 1516 1638 1524 1263 1384 1513 1394
8 1515 1392 1523 1639 1383 1260 1393 1514
8 1516 1395 1526 1640 1386 1264 1396 1518
8 1386 1264 1396 1518 1517 1389 1521 1641
8 1519 1397 1527 1643 1391 1269 1400 1522
8 1535 1407 1527 1643 1406 1277 1397 1519
8 1389 1267 1399 1521 1520 1398 1528 1644
8 1645 1529 1399 1521 1525 1404 1274 1396
8 1392 1270 1400 1522 1523 1401 1531 1646
8 1524 1402 1271 1393 1648 1532 1401 1523
8 1403 1526 1648 1532 1273 1395 1524 1402
8 1525 1404 1274 1396 1649 1533 1403 1526
8 1539 1414 1535 1657 1411 1286 1406 1534
8 1542 1415 1536 1658 1414 1287 1407 1535
8 1409 1285 1412 1537 1538 1413 1540 1660
8 1545 1421 1540 1660 1418 1292 1412 1537
8 1539 1414 1286 1411 1661 1541 1413 1538
8 1540 1417 1544 1663 1413 1288 1416 1541
8 1421 1296 1425 1548 1540 1417 1544 1663
8 1542 1415 1287 1414 1664 1543 1416 1541
8 1420 1294 1423 1547 1545 1421 1548 1666
8 1547 1423 1293 1419 1667 1549 1422 1546
8 1434 1301 1427 1553 1546 1422 1549 1667
8 1423 1297 1424 1549 1548 1425 1550 1668
8 1551 1426 1550 1668 1427 1298 1424 1549
8 1551 1426 1298 1427 1671 1552 1428 1554
8 1562 1432 1554 1674 1434 1301 1427 1553
8 1431 1299 1429 1558 1554 1428 1555 1675
8 1431 1299 1430 1560 1558 1429 1557 1680
8 1560 1430 1300 1432 1683 1559 1433 1563
8 1561 1431 1554 1674 1684 1560 1432 1562
8 1685 1563 1432 1562 1565 1435 1301 1434
8 1435 1302 1436 1566 1563 1433 1564 1686
8 1437 1303 1438 1568 1565 1435 1566 1688
8 1438 1304 1439 1569 1566 1436 1567 1689
8 1440 1306 1441 1571 1568 1438 1569 1691
8 1441 1307 1442 1572 1569 1439 1570 1692
8 1443 1309 1444 1574 1571 1441 1572 1694
8 1310 1444 1572 1442 1445 1575 1695 1573
8 1446 1312 1447 1576 1574 1444 1575 1696
8 1486 1349 1485 1614 1579 1449 1577 1699
8 1451 1317 1449 1579 1581 1450 1578 1701
8 1487 1350 1486 1615 1582 1451 1579 1702
8 1581 1450 1580 1704 1453 1318 1452 1584
8 1582 1451 1581 1705 1454 1319 1453 1585
8 1584 1452 1583 1706 1456 1320 1455 1586
8 1585 1453 1584 1707 1457 1321 1456 1587
8 1587 1456 1586 1708 1458 1323 1459 1588
8 1633 1506 1589 1710 1507 1373 1461 1590
8 1464 1329 1461 1590 1594 1463 1589 1710
8 1468 1336 1462 1591 1595 1464 1590 1711
8 1634 1507 1590 1711 1508 1374 1462 1591
8 1473 1341 1463 1594 1603 1477 1593 1716
8 1469 1337 1464 1595 1599 1473 1594 1717
8 1471 1597 1467 1335 1600 1718 1596 1470
8 1718 1600 1496 1616 1596 1470 1360 1488
8 1336 1468 1597 1471 1472 1598 1719 1601
8 1469 1337 1473 1599 1598 1472 1602 1720
8 1722 1604 1501 1623 1600 1474 1367 1496
8 1475 1601 1471 1339 1604 1722 1600 1474
8 1602 1476 1605 1723 1472 1340 1475 1601
8 1476 1602 1724 1606 1341 1473 1603 1477
8 1483 1347 1478 1609 1612 1482 1608 1731
8 1495 1370 1504 1622 1609 1478 1608 1731
8 1618 1495 1609 1732 1494 1361 1479 1610
8 1484 1348 1479 1610 1613 1483 1609 1732
8 1486 1349 1482 1612 1614 1485 1611 1733
8 1613 1483 1612 1734 1487 1350 1486 1615
8 1489 1363 1496 1616 1617 1499 1623 1736
8 1491 1365 1499 1617 1619 1500 1626 1737
8 1618 1495 1361 1494 1738 1622 1497 1621
8 1739 1625 1498 1620 1619 1500 1366 1492
8 1621 1497 1362 1493 1740 1624 1498 1620
8 1742 1631 1504 1622 1624 1505 1371 1497
8 1743 1628 1502 1626 1623 1501 1368 1499
8 1744 1630 1505 1624 1625 1503 1372 1498
8 1745 1629 1503 1625 1626 1502 1369 1500
8 1520 1398 1528 1644 1633 1506 1632 1751
8 1637 1520 1633 1752 1512 1388 1507 1634
8 1635 1519 1643 1753 1510 1391 1522 1636
8 1657 1535 1643 1753 1534 1406 1519 1635
8 1515 1392 1522 1636 1639 1523 1646 1754
8 1517 1389 1521 1641 1637 1520 1644 1755
8 1524 1638 1756 1648 1393 1514 1639 1523
8 1640 1526 1395 1516 1756 1648 1524 1638
8 1642 1525 1396 1518 1757 1649 1526 1640
8 1758 1645 1521 1641 1642 1525 1396 1518
8 1646 1531 1400 1522 1760 1650 1527 1643
8 1535 1407 1536 1658 1643 1527 1650 1760
8 1521 1399 1529 1645 1644 1528 1651 1761
8 1647 1530 1652 1762 1525 1404 1529 1645
8 1401 1523 1648 1532 1531 1646 1763 1655
8 1525 1404 1533 1649 1647 1530 1654 1765
8 1533 1649 1766 1656 1403 1526 1648 1532
8 1662 1542 1658 1774 1539 1414 1535 1657
8 1542 1415 1543 1664 1658 1536 1659 1775
8 1660 1540 1663 1777 1538 1413 1541 1661
8 1545 1421 1548 1666 1660 1540 1663 1777
8 1662 1542 1414 1539 1778 1664 1541 1661
8 1664 1543 1416 1541 1779 1665 1544 1663
8 1548 1425 1550 1668 1663 1544 1665 1779
8 1547 1423 1549 1667 1666 1548 1668 1781
8 1670 1551 1668 1781 1553 1427 1549 1667
8 1551 1426 1552 1671 1668 1550 1669 1782
8 1670 1551 1427 1553 1784 1671 1554 1674
8 1675 1555 1672 1785 1554 1428 1552 1671
8 1678 1556 1673 1789 1558 1429 1555 1675
8 1561 1431 1558 1681 1674 1554 1675 1790
8 1794 1677 1556 1678 1680 1557 1429 1558
8 1560 1430 1559 1683 1680 1557 1679 1797
8 1561 1431 1560 1684 1681 1558 1680 1798
8 1563 1433 1564 1686 1683 1559 1682 1800
8 1684 1560 1432 1562 1801 1683 1563 1685
8 1565 1435 1566 1688 1685 1563 1686 1802
8 1566 1436 1567 1689 1686 1564 1687 1803
8 1568 1438 1569 1691 1688 1566 1689 1805
8 1569 1439 1570 1692 1689 1567 1690 1806
8 1571 1441 1572 1694 1691 1569 1692 1808
8 1442 1572 1692 1570 1573 1695 1809 1693
8 1574 1444 1575 1696 1694 1572 1695 1810
8 1614 1485 1592 1712 1699 1577 1697 1813
8 1579 1449 1577 1699 1701 1578 1698 1815
8 1615 1486 1614 1735 1702 1579 1699 1816
8 1701 1578 1700 1818 1581 1450 1580 1704
8 1582 1451 1579 1702 1705 1581 1701 1819
8 1704 1580 1703 1820 1584 1452 1583 1706
8 1705 1581 1704 1821 1585 1453 1584 1707
8 1707 1584 1706 1822 1587 1456 1586 1708
8 1710 1589 1506 1633 1824 1709 1632 1751
8 1594 1463 1589 1710 1716 1593 1709 1824
8 1752 1633 1710 1825 1634 1507 1590 1711
8 1595 1464 1590 1711 1717 1594 1710 1825
8 1830 1714 1592 1712 1733 1611 1485 1614
8 1603 1477 1593 1716 1725 1607 1715 1834
8 1599 1473 1594 1717 1721 1603 1716 1835
8 1837 1722 1623 1736 1718 1600 1496 1616
8 1719 1601 1722 1837 1597 1471 1600 1718
8 1602 1720 1598 1472 1723 1838 1719 1601
8 1720 1602 1473 1599 1839 1724 1603 1721
8 1723 1605 1726 1840 1601 1475 1604 1722
8 1840 1726 1628 1743 1722 1604 1501 1623
8 1724 1606 1727 1841 1602 1476 1605 1723
8 1725 1607 1728 1842 1603 1477 1606 1724
8 1612 1482 1608 1731 1733 1611 1730 1849
8 1741 1627 1730 1849 1622 1504 1608 1731
8 1613 1483 1609 1732 1734 1612 1731 1850
8 1618 1495 1622 1738 1732 1609 1731 1850
8 1615 1486 1612 1734 1735 1614 1733 1851
8 1852 1743 1626 1737 1736 1623 1499 1617
8 1853 1745 1625 1739 1737 1626 1500 1619
8 1855 1742 1622 1738 1740 1624 1497 1621
8 1856 1744 1624 1740 1739 1625 1498 1620
8 1741 1627 1504 1622 1857 1746 1631 1742
8 1742 1631 1505 1624 1858 1749 1630 1744
8 1859 1747 1629 1745 1743 1628 1502 1626
8 1860 1748 1630 1744 1745 1629 1503 1625
8 1644 1528 1651 1761 1751 1632 1750 1865
8 1637 1520 1644 1755 1752 1633 1751 1866
8 1754 1646 1522 1636 1867 1760 1643 1753
8 1657 1535 1658 1774 1753 1643 1760 1867
8 1639 1523 1646 1754 1756 1648 1763 1868
8 1641 1521 1645 1758 1755 1644 1761 1869
8 1757 1649 1526 1640 1870 1766 1648 1756
8 1642 1525 1649 1757 1759 1647 1765 1871
8 1759 1647 1762 1872 1642 1525 1645 1758
8 1760 1650 1767 1874 1646 1531 1655 1763
8 1658 1536 1659 1775 1760 1650 1767 1874
8 1762 1652 1768 1875 1645 1529 1651 1761
8 1764 1653 1769 1876 1647 1530 1652 1762
8 1656 1766 1877 1773 1532 1648 1763 1655
8 1771 1879 1765 1654 1653 1764 1647 1530
8 1533 1649 1765 1654 1656 1766 1880 1772
8 1662 1542 1664 1778 1774 1658 1775 1887
8 1664 1543 1665 1779 1775 1659 1776 1888
8 1778 1664 1541 1661 1890 1779 1663 1777
8 1666 1548 1668 1781 1777 1663 1779 1890
8 1782 1669 1780 1891 1668 1550 1665 1779
8 1670 1551 1671 1784 1781 1668 1782 1893
8 1671 1552 1672 1785 1782 1669 1783 1894
8 1790 1675 1785 1896 1674 1554 1671 1784
8 1675 1555 1673 1789 1785 1672 1786 1897
8 1792 1676 1788 1903 1678 1556 1673 1789
8 1795 1678 1789 1904 1681 1558 1675 1790
8 1792 1676 1556 1678 1906 1791 1677 1794
8 1680 1557 1679 1797 1794 1677 1793 1909
8 1910 1794 1678 1795 1798 1680 1558 1681
8 1683 1559 1682 1800 1797 1679 1796 1912
8 1684 1560 1683 1801 1798 1680 1797 1913
8 1686 1564 1687 1803 1800 1682 1799 1915
8 1685 1563 1686 1802 1801 1683 1800 1916
8 1688 1566 1689 1805 1802 1686 1803 1917
8 1689 1567 1690 1806 1803 1687 1804 1918
8 1691 1569 1692 1808 1805 1689 1806 1920
8 1692 1570 1693 1809 1806 1690 1807 1921
8 1694 1572 1695 1810 1808 1692 1809 1922
8 1829 1713 1811 1926 1712 1592 1697 1813
8 1813 1697 1812 1928 1699 1577 1698 1815
8 1735 1614 1712 1828 1816 1699 1813 1929
8 1815 1698 1814 1931 1701 1578 1700 1818
8 1702 1579 1699 1816 1819 1701 1815 1932
8 1818 1700 1817 1933 1704 1580 1703 1820
8 1819 1701 1818 1934 1705 1581 1704 1821
8 1821 1704 1820 1935 1707 1584 1706 1822
8 1824 1709 1632 1751 1937 1823 1750 1865
8 1716 1593 1709 1824 1834 1715 1823 1937
8 1825 1710 1633 1752 1938 1824 1751 1866
8 1717 1594 1710 1825 1835 1716 1824 1938
8 1945 1830 1712 1828 1851 1733 1614 1735
8 1830 1714 1831 1946 1712 1592 1713 1829
8 1947 1832 1714 1830 1849 1730 1611 1733
8 1843 1729 1607 1725 1950 1833 1715 1834
8 1721 1603 1716 1835 1836 1725 1834 1951
8 1836 1725 1842 1953 1721 1603 1724 1839
8 1723 1838 1719 1601 1840 1954 1837 1722
8 1954 1840 1743 1852 1837 1722 1623 1736
8 1724 1839 1720 1602 1841 1955 1838 1723
8 1841 1727 1844 1956 1723 1605 1726 1840
8 1956 1844 1747 1859 1840 1726 1628 1743
8 1728 1842 1724 1606 1845 1957 1841 1727
8 1725 1607 1729 1843 1842 1728 1846 1958
8 1741 1627 1746 1857 1849 1730 1848 1965
8 1734 1612 1731 1850 1851 1733 1849 1966
8 1854 1741 1849 1966 1738 1622 1731 1850
8 1967 1859 1745 1853 1852 1743 1626 1737
8 1968 1860 1744 1856 1853 1745 1625 1739
8 1854 1741 1622 1738 1969 1857 1742 1855
8 1855 1742 1624 1740 1970 1858 1744 1856
8 1857 1746 1631 1742 1971 1861 1749 1858
8 1858 1749 1630 1744 1972 1863 1748 1860
8 1859 1747 1862 1973 1745 1629 1748 1860
8 1875 1768 1864 1977 1761 1651 1750 1865
8 1755 1644 1761 1869 1866 1751 1865 1978
8 1867 1760 1874 1979 1754 1646 1763 1868
8 1774 1658 1775 1887 1867 1760 1874 1979
8 1870 1766 1648 1756 1980 1877 1763 1868
8 1872 1762 1875 1981 1758 1645 1761 1869
8 1757 1649 1766 1870 1871 1765 1880 1982
8 1983 1879 1764 1873 1871 1765 1647 1759
8 1873 1764 1876 1984 1759 1647 1762 1872
8 1877 1773 1655 1763 1986 1881 1767 1874
8 1775 1659 1776 1888 1874 1767 1881 1986
8 1876 1769 1882 1987 1762 1652 1768 1875
8 1878 1770 1883 1988 1764 1653 1769 1876
8 1880 1772 1656 1766 1989 1886 1773 1877
8 1878 1770 1653 1764 1990 1884 1771 1879
8 1765 1654 1772 1880 1879 1771 1885 1991
8 1778 1664 1779 1890 1887 1775 1888 1997
8 1998 1889 1776 1888 1891 1780 1665 1779
8 1893 1782 1891 2000 1781 1668 1779 1890
8 1894 1783 1892 2001 1782 1669 1780 1891
8 1784 1671 1785 1896 1893 1782 1894 2003
8 1897 1786 1895 2004 1785 1672 1783 1894
8 1790 1675 1789 1904 1896 1785 1897 2006
8 1901 1787 1898 2007 1789 1673 1786 1897
8 1903 1788 1900 2013 1789 1673 1787 1901
8 1792 1676 1791 1906 1903 1788 1902 2016
8 1907 1792 1903 2017 1795 1678 1789 1904
8 1906 1791 1677 1794 2019 1905 1793 1909
8 1907 1792 1678 1795 2020 1906 1794 1910
8 1797 1679 1796 1912 1909 1793 1908 2022
8 1798 1680 1797 1913 1910 1794 1909 2023
8 1800 1682 1799 1915 1912 1796 1911 2025
8 1801 1683 1800 1916 1913 1797 1912 2026
8 1803 1687 1804 1918 1915 1799 1914 2028
8 1802 1686 1803 1917 1916 1800 1915 2029
8 1805 1689 1806 1920 1917 1803 1918 2030
8 1806 1690 1807 1921 1918 1804 1919 2031
8 1808 1692 1809 1922 1920 1806 1921 2032
8 1939 1826 1924 2037 1829 1713 1811 1926
8 1926 1811 1925 2039 1813 1697 1812 1928
8 1944 1829 1926 2040 1828 1712 1813 1929
8 1928 1812 1927 2042 1815 1698 1814 1931
8 1929 1813 1928 2043 1816 1699 1815 1932
8 1931 1814 1930 2044 1818 1700 1817 1933
8 1932 1815 1931 2045 1819 1701 1818 1934
8 1934 1818 1933 2046 1821 1704 1820 1935
8 2048 1936 1823 1937 1977 1864 1750 1865
8 1950 1833 1715 1834 2048 1936 1823 1937
8 1938 1824 1751 1866 2049 1937 1865 1978
8 1835 1716 1824 1938 1951 1834 1937 2049
8 1939 1826 1713 1829 2053 1942 1831 1946
8 1940 1827 1923 2035 2053 1942 1826 1939
8 1945 1830 1946 2058 1828 1712 1829 1944
8 2059 1947 1830 1945 1966 1849 1733 1851
8 1947 1832 1730 1849 2060 1948 1848 1965
8 1947 1832 1948 2060 1830 1714 1831 1946
8 1959 1847 1729 1843 2063 1949 1833 1950
8 1952 1843 1725 1836 2064 1950 1834 1951
8 1836 1725 1843 1952 1953 1842 1958 2066
8 1953 1842 1957 2067 1839 1724 1841 1955
8 1841 1955 1838 1723 1956 2068 1954 1840
8 2068 1956 1859 1967 1954 1840 1743 1852
8 1956 1844 1960 2069 1859 1747 1862 1973
8 1845 1957 1841 1727 1960 2069 1956 1844
8 1728 1842 1957 1845 1846 1958 2071 1961
8 1962 2072 1959 1847 1846 1958 1843 1729
8 1971 1861 1964 2077 1857 1746 1848 1965
8 1854 1741 1857 1969 1966 1849 1965 2078
8 1967 1859 1973 2079 1853 1745 1860 1968
8 1970 1858 1744 1856 2080 1972 1860 1968
8 1969 1857 1742 1855 2081 1971 1858 1970
8 1971 1861 1749 1858 2082 1974 1863 1972
8 1973 1862 1975 2083 1860 1748 1863 1972
8 1987 1882 1976 2086 1875 1768 1864 1977
8 1981 1875 1977 2087 1869 1761 1865 1978
8 1980 1877 1763 1868 2088 1986 1874 1979
8 1887 1775 1888 1997 1979 1874 1986 2088
8 1880 1982 2089 1989 1766 1870 1980 1877
8 1984 1876 1987 2090 1872 1762 1875 1981
8 1765 1871 1983 1879 1880 1982 2091 1991
8 1985 1878 1764 1873 2092 1990 1879 1983
8 1985 1878 1988 2093 1873 1764 1876 1984
8 2094 1992 1881 1986 1998 1889 1776 1888
8 1986 1881 1992 2094 1877 1773 1886 1989
8 1988 1883 1993 2095 1876 1769 1882 1987
8 1878 1770 1884 1990 1988 1883 1994 2096
8 1991 1885 1772 1880 2097 1996 1886 1989
8 1879 1771 1885 1991 1990 1884 1995 2098
8 2103 1998 1888 1997 2000 1891 1779 1890
8 2104 1999 1889 1998 2001 1892 1780 1891
8 2003 1894 2001 2106 1893 1782 1891 2000
8 2004 1895 2002 2107 1894 1783 1892 2001
8 2006 1897 2004 2109 1896 1785 1894 2003
8 2007 1898 2005 2110 1897 1786 1895 2004
8 2014 1901 2007 2112 1904 1789 1897 2006
8 2011 1899 2008 2113 1901 1787 1898 2007
8 2119 2010 1899 2011 2013 1900 1787 1901
8 2016 1902 2012 2122 1903 1788 1900 2013
8 2017 1903 2013 2123 1904 1789 1901 2014
8 1906 1791 1905 2019 2016 1902 2015 2125
8 1907 1792 1906 2020 2017 1903 2016 2126
8 1909 1793 1908 2022 2019 1905 2018 2128
8 2020 1906 1794 1910 2129 2019 1909 2023
8 1912 1796 1911 2025 2022 1908 2021 2131
8 1913 1797 1912 2026 2023 1909 2022 2132
8 1915 1799 1914 2028 2025 1911 2024 2134
8 1916 1800 1915 2029 2026 1912 2025 2135
8 1918 1804 1919 2031 2028 1914 2027 2136
8 1917 1803 1918 2030 2029 1915 2028 2137
8 1920 1806 1921 2032 2030 1918 2031 2138
8 1940 1827 1941 2054 2035 1923 2033 2140
8 2035 1923 2034 2143 1939 1826 1924 2037
8 2037 1924 2036 2146 1926 1811 1925 2039
8 2051 1939 2037 2147 1944 1829 1926 2040
8 2039 1925 2038 2149 1928 1812 1927 2042
8 2040 1926 2039 2150 1929 1813 1928 2043
8 2042 1927 2041 2151 1931 1814 1930 2044
8 2043 1928 2042 2152 1932 1815 1931 2045
8 2045 1931 2044 2153 1934 1818 1933 2046
8 2155 2047 1936 2048 2086 1976 1864 1977
8 2063 1949 1833 1950 2155 2047 1936 2048
8 2156 2048 1937 2049 2087 1977 1865 1978
8 2064 1950 1834 1951 2156 2048 1937 2049
8 2051 1939 1829 1944 2160 2053 1946 2058
8 2052 1940 2035 2144 2160 2053 1939 2051
8 2053 1942 1831 1946 2163 2057 1948 2060
8 2055 1943 1827 1940 2163 2057 1942 2053
8 2055 1943 2056 2164 1940 1827 1941 2054
8 2059 1947 1849 1966 2167 2060 1965 2078
8 2059 1947 2060 2167 1945 1830 1946 2058
8 2077 1964 2061 2168 1965 1848 1948 2060
8 2070 1963 1847 1959 2170 2062 1949 2063
8 2065 1959 1843 1952 2171 2063 1950 2064
8 2173 2072 1958 2066 2065 1959 1843 1952
8 1953 1842 1958 2066 2067 1957 2071 2174
8 2068 1956 2069 2175 1967 1859 1973 2079
8 2067 1957 2069 2175 1955 1841 1956 2068
8 1845 1957 2069 1960 1961 2071 2176 2073
8 2069 1960 2073 2176 1973 1862 1975 2083
8 2070 1963 2075 2177 1959 1847 1962 2072
8 1846 1958 2071 1961 1962 2072 2178 2074
8 2077 1964 1861 1971 2182 2076 1974 2082
8 2081 1971 2077 2183 1969 1857 1965 2078
8 2079 1973 2083 2184 1968 1860 1972 2080
8 2081 1971 1858 1970 2185 2082 1972 2080
8 2083 1975 2084 2186 1972 1863 1974 2082
8 2086 1976 1882 1987 2189 2085 1993 2095
8 2090 1987 2086 2190 1981 1875 1977 2087
8 2191 2094 1986 2088 2103 1998 1888 1997
8 2088 1986 2094 2191 1980 1877 1989 2089
8 1991 2091 2192 2097 1880 1982 2089 1989
8 2093 1988 2095 2193 1984 1876 1987 2090
8 1879 1983 2092 1990 1991 2091 2194 2098
8 1985 1878 1990 2092 2093 1988 2096 2195
8 2097 1996 1886 1989 2196 2099 1992 2094
8 2196 2099 1992 2094 2104 1999 1889 1998
8 1994 2096 1988 1883 2100 2197 2095 1993
8 2096 1994 1884 1990 2198 2101 1995 2098
8 1995 2098 2199 2102 1885 1991 2097 1996
8 2203 2104 1998 2103 2106 2001 1891 2000
8 2107 2002 2105 2204 2001 1892 1999 2104
8 2109 2004 2107 2206 2003 1894 2001 2106
8 2110 2005 2108 2207 2004 1895 2002 2107
8 2112 2007 2110 2209 2006 1897 2004 2109
8 2113 2008 2111 2210 2007 1898 2005 2110
8 2120 2011 2113 2212 2014 1901 2007 2112
8 2117 2009 2114 2213 2011 1899 2008 2113
8 2219 2116 2009 2117 2119 2010 1899 2011
8 2222 2118 2010 2119 2122 2012 1900 2013
8 2223 2119 2011 2120 2123 2013 1901 2014
8 2016 1902 2015 2125 2122 2012 2121 2225
8 2126 2016 2122 2226 2017 1903 2013 2123
8 2019 1905 2018 2128 2125 2015 2124 2228
8 2020 1906 2019 2129 2126 2016 2125 2229
8 2022 1908 2021 2131 2128 2018 2127 2231
8 2023 1909 2022 2132 2129 2019 2128 2232
8 2025 1911 2024 2134 2131 2021 2130 2234
8 2026 1912 2025 2135 2132 2022 2131 2235
8 1914 2028 2134 2024 2027 2136 2236 2133
8 2029 1915 2028 2137 2135 2025 2134 2237
8 2030 1918 2031 2138 2137 2028 2136 2238
8 2157 2050 2139 2240 2054 1941 2033 2140
8 2052 1940 2054 2161 2144 2035 2140 2242
8 2140 2033 2141 2243 2035 1923 2034 2143
8 2143 2034 2142 2246 2037 1924 2036 2146
8 2144 2035 2143 2247 2051 1939 2037 2147
8 2146 2036 2145 2249 2039 1925 2038 2149
8 2147 2037 2146 2250 2040 1926 2039 2150
8 2149 2038 2148 2251 2042 1927 2041 2151
8 2150 2039 2149 2252 2043 1928 2042 2152
8 2152 2042 2151 2253 2045 1931 2044 2153
8 2255 2154 2047 2155 2189 2085 1976 2086
8 2170 2062 1949 2063 2255 2154 2047 2155
8 2256 2155 2048 2156 2190 2086 1977 2087
8 2171 2063 1950 2064 2256 2155 2048 2156
8 2258 2159 2050 2157 2164 2056 1941 2054
8 2160 2053 1946 2058 2262 2163 2060 2167
8 2162 2055 1940 2052 2262 2163 2053 2160
8 2162 2055 2164 2263 2052 1940 2054 2161
8 2163 2057 1948 2060 2264 2165 2061 2168
8 2055 1943 2057 2163 2164 2056 2165 2264
8 2182 2076 2166 2268 2077 1964 2061 2168
8 2183 2077 2168 2269 2078 1965 2060 2167
8 2070 1963 2062 2170 2177 2075 2169 2271
8 2172 2070 1959 2065 2272 2170 2063 2171
8 2172 2070 2177 2273 2065 1959 2072 2173
8 2066 1958 2072 2173 2174 2071 2178 2274
8 2067 1957 2071 2174 2175 2069 2176 2275
8 2175 2069 2176 2275 2079 1973 2083 2184
8 2071 1961 2074 2178 2176 2073 2179 2276
8 2176 2073 2179 2276 2083 1975 2084 2186
8 2072 1962 2075 2177 2178 2074 2180 2277
8 2182 2076 1974 2082 2280 2181 2084 2186
8 2183 2077 1971 2081 2281 2182 2082 2185
8 2184 2083 2186 2282 2080 1972 2082 2185
8 2189 2085 1993 2095 2285 2188 2100 2197
8 2190 2086 1987 2090 2286 2189 2095 2193
8 2192 2097 1989 2089 2287 2196 2094 2191
8 2287 2196 2094 2191 2203 2104 1998 2103
8 2194 2098 1991 2091 2288 2199 2097 2192
8 2195 2096 2197 2289 2093 1988 2095 2193
8 2096 2195 2290 2198 1990 2092 2194 2098
8 2097 1996 2099 2196 2199 2102 2200 2291
8 2196 2099 1999 2104 2291 2200 2105 2204
8 2100 2197 2292 2201 1994 2096 2198 2101
8 1995 2098 2198 2101 2102 2199 2293 2202
8 2206 2107 2204 2296 2106 2001 2104 2203
8 2207 2108 2205 2297 2107 2002 2105 2204
8 2209 2110 2207 2299 2109 2004 2107 2206
8 2210 2111 2208 2300 2110 2005 2108 2207
8 2212 2113 2210 2302 2112 2007 2110 2209
8 2213 2114 2211 2303 2113 2008 2111 2210
8 2220 2117 2213 2305 2120 2011 2113 2212
8 2216 2115 2214 2306 2117 2009 2114 2213
8 2216 2115 2009 2117 2311 2217 2116 2219
8 2219 2116 2010 2119 2314 2218 2118 2222
8 2315 2219 2117 2220 2223 2119 2011 2120
8 2122 2012 2121 2225 2222 2118 2221 2317
8 2318 2222 2119 2223 2226 2122 2013 2123
8 2125 2015 2124 2228 2225 2121 2224 2320
8 2126 2016 2125 2229 2226 2122 2225 2321
8 2128 2018 2127 2231 2228 2124 2227 2323
8 2129 2019 2128 2232 2229 2125 2228 2324
8 2131 2021 2130 2234 2231 2127 2230 2326
8 2132 2022 2131 2235 2232 2128 2231 2327
8 2134 2024 2133 2236 2234 2130 2233 2328
8 2135 2025 2134 2237 2235 2131 2234 2329
8 2137 2028 2136 2238 2237 2134 2236 2330
8 2157 2050 2158 2259 2240 2139 2239 2332
8 2257 2157 2240 2334 2161 2054 2140 2242
8 2240 2139 2241 2335 2140 2033 2141 2243
8 2242 2140 2243 2337 2144 2035 2143 2247
8 2243 2141 2244 2338 2143 2034 2142 2246
8 2246 2142 2245 2341 2146 2036 2145 2249
8 2247 2143 2246 2342 2147 2037 2146 2250
8 2249 2145 2248 2343 2149 2038 2148 2251
8 2250 2146 2249 2344 2150 2039 2149 2252
8 2252 2149 2251 2345 2152 2042 2151 2253
8 2169 2271 2347 2254 2062 2170 2255 2154
8 2189 2085 2188 2285 2255 2154 2254 2347
8 2348 2255 2155 2256 2286 2189 2086 2190
8 2272 2170 2063 2171 2348 2255 2155 2256
8 2349 2258 2157 2257 2263 2164 2054 2161
8 2258 2159 2261 2351 2157 2050 2158 2259
8 2258 2159 2056 2164 2351 2261 2165 2264
8 2262 2163 2060 2167 2355 2264 2168 2269
8 2162 2055 2163 2262 2263 2164 2264 2355
8 2357 2266 2165 2264 2268 2166 2061 2168
8 2268 2166 2076 2182 2361 2267 2181 2280
8 2281 2182 2268 2362 2183 2077 2168 2269
8 2271 2169 2270 2364 2177 2075 2180 2277
8 2172 2070 2170 2272 2273 2177 2271 2365
8 2072 2173 2274 2178 2177 2273 2366 2277
8 2071 2174 2275 2176 2178 2274 2367 2276
8 2275 2176 2276 2367 2184 2083 2186 2282
8 2283 2187 2084 2186 2368 2278 2179 2276
8 2178 2074 2180 2277 2276 2179 2278 2368
8 2283 2187 2279 2370 2186 2084 2181 2280
8 2281 2182 2082 2185 2371 2280 2186 2282
8 2188 2285 2374 2284 2100 2197 2292 2201
8 2286 2189 2095 2193 2375 2285 2197 2289
8 2192 2097 2196 2287 2288 2199 2291 2376
8 2287 2196 2104 2203 2376 2291 2204 2296
8 2194 2098 2199 2288 2290 2198 2293 2377
8 2289 2197 2096 2195 2378 2292 2198 2290
8 2291 2200 2105 2204 2379 2294 2205 2297
8 2199 2102 2200 2291 2293 2202 2294 2379
8 2198 2101 2202 2293 2292 2201 2295 2380
8 2299 2207 2297 2383 2206 2107 2204 2296
8 2300 2208 2298 2384 2207 2108 2205 2297
8 2302 2210 2300 2386 2209 2110 2207 2299
8 2303 2211 2301 2387 2210 2111 2208 2300
8 2305 2213 2303 2389 2212 2113 2210 2302
8 2306 2214 2304 2390 2213 2114 2211 2303
8 2310 2216 2306 2392 2220 2117 2213 2305
8 2308 2215 2307 2393 2216 2115 2214 2306
8 2308 2215 2115 2216 2396 2309 2217 2311
8 2310 2216 2117 2220 2398 2311 2219 2315
8 2311 2217 2116 2219 2399 2312 2218 2314
8 2314 2218 2118 2222 2402 2313 2221 2317
8 2315 2219 2119 2223 2403 2314 2222 2318
8 2225 2121 2224 2320 2317 2221 2316 2405
8 2226 2122 2225 2321 2318 2222 2317 2406
8 2228 2124 2227 2323 2320 2224 2319 2408
8 2229 2125 2228 2324 2321 2225 2320 2409
8 2231 2127 2230 2326 2323 2227 2322 2411
8 2232 2128 2231 2327 2324 2228 2323 2412
8 2234 2130 2233 2328 2326 2230 2325 2413
8 2235 2131 2234 2329 2327 2231 2326 2414
8 2237 2134 2236 2330 2329 2234 2328 2415
8 2259 2158 2260 2352 2332 2239 2331 2417
8 2257 2157 2259 2350 2334 2240 2332 2419
8 2240 2139 2239 2332 2335 2241 2333 2420
8 2334 2240 2335 2422 2242 2140 2243 2337
8 2335 2241 2336 2423 2243 2141 2244 2338
8 2337 2243 2338 2425 2247 2143 2246 2342
8 2338 2244 2339 2426 2246 2142 2245 2341
8 2341 2245 2340 2428 2249 2145 2248 2343
8 2342 2246 2341 2429 2250 2146 2249 2344
8 2344 2249 2343 2430 2252 2149 2251 2345
8 2188 2285 2347 2254 2284 2374 2432 2346
8 2347 2254 2346 2432 2271 2169 2270 2364
8 2365 2271 2170 2272 2433 2347 2255 2348
8 2286 2189 2285 2375 2348 2255 2347 2433
8 2349 2258 2351 2435 2257 2157 2259 2350
8 2349 2258 2164 2263 2435 2351 2264 2355
8 2259 2158 2261 2351 2352 2260 2354 2437
8 2356 2265 2354 2437 2264 2165 2261 2351
8 2441 2357 2264 2355 2362 2268 2168 2269
8 2356 2265 2165 2264 2442 2358 2266 2357
8 2443 2359 2266 2357 2361 2267 2166 2268
8 2370 2279 2360 2446 2280 2181 2267 2361
8 2362 2268 2182 2281 2447 2361 2280 2371
8 2180 2277 2368 2278 2270 2364 2449 2363
8 2271 2365 2273 2177 2364 2450 2366 2277
8 2372 2283 2186 2282 2451 2368 2276 2367
8 2178 2274 2367 2276 2277 2366 2451 2368
8 2283 2187 2278 2368 2370 2279 2369 2452
8 2372 2283 2370 2453 2282 2186 2280 2371
8 2284 2374 2455 2373 2201 2292 2380 2295
8 2375 2285 2197 2289 2456 2374 2292 2378
8 2376 2291 2204 2296 2457 2379 2297 2383
8 2288 2199 2291 2376 2377 2293 2379 2457
8 2198 2290 2378 2292 2293 2377 2458 2380
8 2293 2202 2294 2379 2380 2295 2381 2459
8 2384 2298 2381 2459 2297 2205 2294 2379
8 2386 2300 2384 2463 2299 2207 2297 2383
8 2387 2301 2385 2464 2300 2208 2298 2384
8 2389 2303 2387 2466 2302 2210 2300 2386
8 2390 2304 2388 2467 2303 2211 2301 2387
8 2392 2306 2390 2469 2305 2213 2303 2389
8 2393 2307 2391 2470 2306 2214 2304 2390
8 2395 2308 2393 2472 2310 2216 2306 2392
8 2308 2215 2309 2396 2393 2307 2394 2473
8 2395 2308 2216 2310 2475 2396 2311 2398
8 2396 2309 2217 2311 2476 2397 2312 2399
8 2398 2311 2219 2315 2478 2399 2314 2403
8 2399 2312 2218 2314 2479 2400 2313 2402
8 2317 2221 2316 2405 2402 2313 2401 2482
8 2403 2314 2222 2318 2483 2402 2317 2406
8 2320 2224 2319 2408 2405 2316 2404 2485
8 2321 2225 2320 2409 2406 2317 2405 2486
8 2323 2227 2322 2411 2408 2319 2407 2488
8 2324 2228 2323 2412 2409 2320 2408 2489
8 2326 2230 2325 2413 2411 2322 2410 2490
8 2327 2231 2326 2414 2412 2323 2411 2491
8 2329 2234 2328 2415 2414 2326 2413 2492
8 2417 2331 2260 2352 2494 2416 2353 2438
8 2350 2259 2352 2436 2419 2332 2417 2496
8 2332 2239 2331 2417 2420 2333 2418 2497
8 2334 2240 2332 2419 2422 2335 2420 2499
8 2420 2333 2421 2500 2335 2241 2336 2423
8 2422 2335 2423 2502 2337 2243 2338 2425
8 2423 2336 2424 2503 2338 2244 2339 2426
8 2425 2338 2426 2505 2342 2246 2341 2429
8 2426 2339 2427 2506 2341 2245 2340 2428
8 2429 2341 2428 2507 2344 2249 2343 2430
8 2432 2346 2284 2374 2509 2431 2373 2455
8 2432 2346 2431 2509 2364 2270 2363 2449
8 2375 2285 2374 2456 2433 2347 2432 2510
8 2347 2433 2365 2271 2432 2510 2450 2364
8 2350 2259 2351 2435 2436 2352 2437 2514
8 2440 2356 2437 2514 2355 2264 2351 2435
8 2352 2260 2354 2437 2438 2353 2439 2516
8 2356 2265 2358 2442 2437 2354 2439 2516
8 2440 2356 2264 2355 2518 2442 2357 2441
8 2519 2443 2357 2441 2447 2361 2268 2362
8 2443 2359 2444 2520 2357 2266 2358 2442
8 2443 2359 2267 2361 2520 2444 2360 2446
8 2446 2360 2279 2370 2523 2445 2369 2452
8 2453 2370 2446 2524 2371 2280 2361 2447
8 2449 2363 2448 2525 2368 2278 2369 2452
8 2366 2277 2364 2450 2451 2368 2449 2526
8 2372 2283 2368 2451 2453 2370 2452 2527
8 2455 2373 2295 2380 2529 2454 2382 2460
8 2456 2374 2292 2378 2530 2455 2380 2458
8 2377 2293 2379 2457 2458 2380 2459 2531
8 2463 2384 2459 2531 2383 2297 2379 2457
8 2533 2461 2382 2460 2459 2381 2295 2380
8 2464 2385 2461 2533 2384 2298 2381 2459
8 2466 2387 2464 2537 2386 2300 2384 2463
8 2467 2388 2465 2538 2387 2301 2385 2464
8 2469 2390 2467 2540 2389 2303 2387 2466
8 2470 2391 2468 2541 2390 2304 2388 2467
8 2472 2393 2470 2543 2392 2306 2390 2469
8 2393 2307 2394 2473 2470 2391 2471 2544
8 2395 2308 2396 2475 2472 2393 2473 2546
8 2396 2309 2397 2476 2473 2394 2474 2547
8 2475 2396 2311 2398 2549 2476 2399 2478
8 2476 2397 2312 2399 2550 2477 2400 2479
8 2478 2399 2314 2403 2552 2479 2402 2483
8 2479 2400 2313 2402 2553 2480 2401 2482
8 2405 2316 2404 2485 2482 2401 2481 2556
8 2406 2317 2405 2486 2483 2402 2482 2557
8 2408 2319 2407 2488 2485 2404 2484 2559
8 2409 2320 2408 2489 2486 2405 2485 2560
8 2411 2322 2410 2490 2488 2407 2487 2561
8 2412 2323 2411 2491 2489 2408 2488 2562
8 2414 2326 2413 2492 2491 2411 2490 2563
8 2513 2434 2493 2565 2438 2353 2416 2494
8 2496 2417 2352 2436 2567 2494 2438 2515
8 2494 2416 2495 2568 2417 2331 2418 2497
8 2419 2332 2417 2496 2499 2420 2497 2570
8 2497 2418 2498 2571 2420 2333 2421 2500
8 2499 2420 2500 2573 2422 2335 2423 2502
8 2500 2421 2501 2574 2423 2336 2424 2503
8 2502 2423 2503 2576 2425 2338 2426 2505
8 2503 2424 2504 2577 2426 2339 2427 2506
8 2505 2426 2506 2578 2429 2341 2428 2507
8 2509 2431 2373 2455 2580 2508 2454 2529
8 2509 2431 2508 2580 2449 2363 2448 2525
8 2432 2510 2581 2509 2374 2456 2530 2455
8 2432 2510 2450 2364 2509 2581 2526 2449
8 2583 2511 2434 2513 2516 2439 2353 2438
8 2436 2352 2437 2514 2515 2438 2516 2588
8 2440 2356 2442 2518 2514 2437 2516 2588
8 2442 2358 2444 2520 2516 2439 2517 2589
8 2519 2443 2520 2591 2441 2357 2442 2518
8 2519 2443 2361 2447 2591 2520 2446 2524
8 2446 2360 2445 2523 2520 2444 2521 2592
8 2525 2448 2522 2593 2452 2369 2445 2523
8 2524 2446 2370 2453 2594 2523 2452 2527
8 2526 2449 2525 2595 2451 2368 2452 2527
8 2534 2462 2528 2597 2460 2382 2454 2529
8 2530 2455 2380 2458 2598 2529 2460 2532
8 2599 2533 2460 2532 2531 2459 2380 2458
8 2537 2464 2533 2599 2463 2384 2459 2531
8 2534 2462 2382 2460 2601 2535 2461 2533
8 2538 2465 2535 2601 2464 2385 2461 2533
8 2540 2467 2538 2604 2466 2387 2464 2537
8 2541 2468 2539 2605 2467 2388 2465 2538
8 2543 2470 2541 2607 2469 2390 2467 2540
8 2470 2391 2471 2544 2541 2468 2542 2608
8 2472 2393 2473 2546 2543 2470 2544 2610
8 2473 2394 2474 2547 2544 2471 2545 2611
8 2475 2396 2476 2549 2546 2473 2547 2613
8 2476 2397 2477 2550 2547 2474 2548 2614
8 2549 2476 2399 2478 2616 2550 2479 2552
8 2479 2400 2480 2553 2550 2477 2551 2617
8 2552 2479 2402 2483 2619 2553 2482 2557
8 2482 2401 2481 2556 2553 2480 2554 2620
8 2485 2404 2484 2559 2556 2481 2555 2623
8 2486 2405 2485 2560 2557 2482 2556 2624
8 2488 2407 2487 2561 2559 2484 2558 2625
8 2489 2408 2488 2562 2560 2485 2559 2626
8 2491 2411 2490 2563 2562 2488 2561 2627
8 2513 2434 2512 2585 2565 2493 2564 2630
8 2586 2513 2565 2632 2515 2438 2494 2567
8 2565 2493 2566 2633 2494 2416 2495 2568
8 2567 2494 2568 2635 2496 2417 2497 2570
8 2568 2495 2569 2636 2497 2418 2498 2571
8 2570 2497 2571 2638 2499 2420 2500 2573
8 2571 2498 2572 2639 2500 2421 2501 2574
8 2573 2500 2574 2641 2502 2423 2503 2576
8 2574 2501 2575 2642 2503 2424 2504 2577
8 2576 2503 2577 2643 2505 2426 2506 2578
8 2597 2528 2579 2645 2529 2454 2508 2580
8 2580 2508 2579 2645 2525 2448 2522 2593
8 2581 2509 2455 2530 2646 2580 2529 2598
8 2581 2509 2580 2646 2526 2449 2525 2595
8 2583 2511 2582 2648 2513 2434 2512 2585
8 2583 2511 2439 2516 2648 2582 2517 2589
8 2649 2583 2513 2586 2588 2516 2438 2515
8 2589 2517 2444 2520 2653 2587 2521 2592
8 2518 2442 2520 2591 2588 2516 2589 2654
8 2593 2522 2590 2655 2523 2445 2521 2592
8 2524 2446 2523 2594 2591 2520 2592 2656
8 2595 2525 2593 2657 2527 2452 2523 2594
8 2602 2536 2596 2659 2534 2462 2528 2597
8 2600 2534 2597 2660 2532 2460 2529 2598
8 2600 2534 2460 2532 2661 2601 2533 2599
8 2604 2538 2601 2661 2537 2464 2533 2599
8 2602 2536 2462 2534 2663 2603 2535 2601
8 2601 2535 2465 2538 2663 2603 2539 2605
8 2607 2541 2605 2665 2540 2467 2538 2604
8 2608 2542 2606 2666 2541 2468 2539 2605
8 2543 2470 2544 2610 2607 2541 2608 2668
8 2544 2471 2545 2611 2608 2542 2609 2669
8 2546 2473 2547 2613 2610 2544 2611 2671
8 2547 2474 2548 2614 2611 2545 2612 2672
8 2549 2476 2550 2616 2613 2547 2614 2674
8 2550 2477 2551 2617 2614 2548 2615 2675
8 2552 2479 2553 2619 2616 2550 2617 2677
8 2553 2480 2554 2620 2617 2551 2618 2678
8 2557 2482 2556 2624 2619 2553 2620 2680
8 2556 2481 2555 2623 2620 2554 2621 2681
8 2559 2484 2558 2625 2623 2555 2622 2683
8 2560 2485 2559 2626 2624 2556 2623 2684
8 2562 2488 2561 2627 2626 2559 2625 2685
8 2690 2629 2564 2630 2650 2584 2512 2585
8 2586 2513 2585 2651 2632 2565 2630 2691
8 2630 2564 2631 2692 2565 2493 2566 2633
8 2632 2565 2633 2694 2567 2494 2568 2635
8 2633 2566 2634 2695 2568 2495 2569 2636
8 2635 2568 2636 2697 2570 2497 2571 2638
8 2636 2569 2637 2698 2571 2498 2572 2639
8 2638 2571 2639 2700 2573 2500 2574 2641
8 2639 2572 2640 2701 2574 2501 2575 2642
8 2641 2574 2642 2702 2576 2503 2577 2643
8 2597 2528 2596 2659 2645 2579 2644 2704
8 2645 2579 2644 2704 2593 2522 2590 2655
8 2660 2597 2645 2705 2598 2529 2580 2646
8 2646 2580 2645 2705 2595 2525 2593 2657
8 2650 2584 2512 2585 2707 2647 2582 2648
8 2648 2582 2517 2589 2707 2647 2587 2653
8 2649 2583 2648 2708 2586 2513 2585 2651
8 2649 2583 2516 2588 2708 2648 2589 2654
8 2655 2590 2652 2710 2592 2521 2587 2653
8 2654 2589 2520 2591 2711 2653 2592 2656
8 2657 2593 2655 2712 2594 2523 2592 2656
8 2602 2536 2603 2663 2659 2596 2658 2714
8 2662 2602 2659 2715 2600 2534 2597 2660
8 2662 2602 2534 2600 2717 2663 2601 2661
8 2661 2601 2538 2604 2717 2663 2605 2665
8 2666 2606 2664 2718 2605 2539 2603 2663
8 2668 2608 2666 2720 2607 2541 2605 2665
8 2608 2542 2609 2669 2666 2606 2667 2721
8 2610 2544 2611 2671 2668 2608 2669 2723
8 2611 2545 2612 2672 2669 2609 2670 2724
8 2613 2547 2614 2674 2671 2611 2672 2726
8 2614 2548 2615 2675 2672 2612 2673 2727
8 2616 2550 2617 2677 2674 2614 2675 2729
8 2617 2551 2618 2678 2675 2615 2676 2730
8 2619 2553 2620 2680 2677 2617 2678 2732
8 2620 2554 2621 2681 2678 2618 2679 2733
8 2624 2556 2623 2684 2680 2620 2681 2735
8 2681 2621 2555 2623 2736 2682 2622 2683
8 2626 2559 2625 2685 2684 2623 2683 2737
8 2688 2628 2584 2650 2740 2686 2647 2707
8 2688 2628 2687 2742 2650 2584 2629 2690
8 2690 2629 2689 2745 2630 2564 2631 2692
8 2746 2690 2630 2691 2709 2650 2585 2651
8 2691 2630 2692 2747 2632 2565 2633 2694
8 2692 2631 2693 2748 2633 2566 2634 2695
8 2694 2633 2695 2750 2635 2568 2636 2697
8 2695 2634 2696 2751 2636 2569 2637 2698
8 2697 2636 2698 2753 2638 2571 2639 2700
8 2698 2637 2699 2754 2639 2572 2640 2701
8 2700 2639 2701 2755 2641 2574 2642 2702
8 2659 2596 2658 2714 2704 2644 2703 2757
8 2704 2644 2703 2757 2655 2590 2652 2710
8 2660 2597 2659 2715 2705 2645 2704 2758
8 2705 2645 2704 2758 2657 2593 2655 2712
8 2759 2706 2647 2707 2710 2652 2587 2653
8 2709 2650 2585 2651 2760 2707 2648 2708
8 2708 2648 2589 2654 2760 2707 2653 2711
8 2712 2655 2710 2761 2656 2592 2653 2711
8 2763 2713 2658 2714 2718 2664 2603 2663
8 2662 2602 2663 2717 2715 2659 2714 2764
8 2720 2666 2718 2767 2665 2605 2663 2717
8 2768 2719 2664 2718 2721 2667 2606 2666
8 2668 2608 2669 2723 2720 2666 2721 2770
8 2669 2609 2670 2724 2721 2667 2722 2771
8 2671 2611 2672 2726 2723 2669 2724 2773
8 2672 2612 2673 2727 2724 2670 2725 2774
8 2674 2614 2675 2729 2726 2672 2727 2776
8 2675 2615 2676 2730 2727 2673 2728 2777
8 2677 2617 2678 2732 2729 2675 2730 2779
8 2678 2618 2679 2733 2730 2676 2731 2780
8 2680 2620 2681 2735 2732 2678 2733 2782
8 2733 2679 2621 2681 2783 2734 2682 2736
8 2735 2681 2623 2684 2784 2736 2683 2737
8 2740 2686 2647 2707 2787 2738 2706 2759
8 2688 2628 2686 2740 2742 2687 2739 2789
8 2743 2688 2650 2709 2790 2740 2707 2760
8 2742 2687 2741 2792 2690 2629 2689 2745
8 2743 2688 2742 2793 2709 2650 2690 2746
8 2745 2689 2744 2795 2692 2631 2693 2748
8 2746 2690 2745 2796 2691 2630 2692 2747
8 2747 2692 2748 2797 2694 2633 2695 2750
8 2748 2693 2749 2798 2695 2634 2696 2751
8 2750 2695 2751 2800 2697 2636 2698 2753
8 2751 2696 2752 2801 2698 2637 2699 2754
8 2753 2698 2754 2802 2700 2639 2701 2755
8 2763 2713 2756 2804 2714 2658 2703 2757
8 2759 2706 2652 2710 2804 2756 2703 2757
8 2715 2659 2714 2764 2758 2704 2757 2805
8 2758 2704 2757 2805 2712 2655 2710 2761
8 2806 2759 2707 2760 2761 2710 2653 2711
8 2765 2716 2762 2808 2718 2664 2713 2763
8 2809 2763 2714 2764 2767 2718 2663 2717
8 2765 2716 2664 2718 2811 2766 2719 2768
8 2813 2768 2718 2767 2770 2721 2666 2720
8 2814 2769 2719 2768 2771 2722 2667 2721
8 2723 2669 2724 2773 2770 2721 2771 2816
8 2724 2670 2725 2774 2771 2722 2772 2817
8 2726 2672 2727 2776 2773 2724 2774 2819
8 2727 2673 2728 2777 2774 2725 2775 2820
8 2729 2675 2730 2779 2776 2727 2777 2822
8 2730 2676 2731 2780 2777 2728 2778 2823
8 2732 2678 2733 2782 2779 2730 2780 2825
8 2780 2731 2679 2733 2826 2781 2734 2783
8 2782 2733 2681 2735 2827 2783 2736 2784
8 2830 2785 2738 2787 2804 2756 2706 2759
8 2789 2739 2686 2740 2832 2786 2738 2787
8 2790 2740 2707 2760 2833 2787 2759 2806
8 2742 2687 2739 2789 2792 2741 2788 2835
8 2743 2688 2740 2790 2793 2742 2789 2836
8 2792 2741 2791 2838 2745 2689 2744 2795
8 2793 2742 2792 2839 2746 2690 2745 2796
8 2795 2744 2794 2841 2748 2693 2749 2798
8 2796 2745 2795 2842 2747 2692 2748 2797
8 2797 2748 2798 2843 2750 2695 2751 2800
8 2798 2749 2799 2844 2751 2696 2752 2801
8 2800 2751 2801 2845 2753 2698 2754 2802
8 2808 2762 2803 2847 2763 2713 2756 2804
8 2809 2763 2804 2848 2764 2714 2757 2805
8 2806 2759 2710 2761 2848 2804 2757 2805
8 2765 2716 2766 2811 2808 2762 2807 2850
8 2810 2765 2808 2851 2767 2718 2763 2809
8 2810 2765 2718 2767 2852 2811 2768 2813
8 2811 2766 2719 2768 2853 2812 2769 2814
8 2855 2814 2768 2813 2816 2771 2721 2770
8 2856 2815 2769 2814 2817 2772 2722 2771
8 2773 2724 2774 2819 2816 2771 2817 2858
8 2774 2725 2775 2820 2817 2772 2818 2859
8 2776 2727 2777 2822 2819 2774 2820 2861
8 2777 2728 2778 2823 2820 2775 2821 2862
8 2779 2730 2780 2825 2822 2777 2823 2864
8 2823 2778 2731 2780 2865 2824 2781 2826
8 2825 2780 2733 2782 2866 2826 2783 2827
8 2869 2828 2785 2830 2847 2803 2756 2804
8 2871 2829 2786 2832 2830 2785 2738 2787
8 2872 2830 2787 2833 2848 2804 2759 2806
8 2789 2739 2786 2832 2835 2788 2831 2874
8 2836 2789 2740 2790 2875 2832 2787 2833
8 2792 2741 2788 2835 2838 2791 2834 2877
8 2793 2742 2789 2836 2839 2792 2835 2878
8 2838 2791 2837 2880 2795 2744 2794 2841
8 2839 2792 2838 2881 2796 2745 2795 2842
8 2841 2794 2840 2882 2798 2749 2799 2844
8 2842 2795 2841 2883 2797 2748 2798 2843
8 2843 2798 2844 2884 2800 2751 2801 2845
8 2886 2846 2803 2847 2850 2807 2762 2808
8 2851 2808 2847 2887 2809 2763 2804 2848
8 2850 2807 2766 2811 2889 2849 2812 2853
8 2810 2765 2811 2852 2851 2808 2850 2890
8 2852 2811 2768 2813 2891 2853 2814 2855
8 2853 2812 2769 2814 2892 2854 2815 2856
8 2894 2856 2814 2855 2858 2817 2771 2816
8 2817 2772 2818 2859 2856 2815 2857 2895
8 2819 2774 2820 2861 2858 2817 2859 2897
8 2820 2775 2821 2862 2859 2818 2860 2898
8 2822 2777 2823 2864 2861 2820 2862 2900
8 2823 2778 2824 2865 2862 2821 2863 2901
8 2864 2823 2780 2825 2902 2865 2826 2866
8 2904 2867 2828 2869 2886 2846 2803 2847
8 2869 2828 2868 2906 2830 2785 2829 2871
8 2907 2869 2830 2872 2887 2847 2804 2848
8 2871 2829 2870 2909 2832 2786 2831 2874
8 2910 2871 2832 2875 2872 2830 2787 2833
8 2835 2788 2831 2874 2877 2834 2873 2912
8 2836 2789 2832 2875 2878 2835 2874 2913
8 2877 2834 2876 2915 2838 2791 2837 2880
8 2839 2792 2835 2878 2881 2838 2877 2916
8 2880 2837 2879 2917 2841 2794 2840 2882
8 2881 2838 2880 2918 2842 2795 2841 2883
8 2883 2841 2882 2919 2843 2798 2844 2884
8 2921 2885 2846 2886 2889 2849 2807 2850
8 2922 2886 2847 2887 2890 2850 2808 2851
8 2889 2849 2812 2853 2924 2888 2854 2892
8 2890 2850 2811 2852 2925 2889 2853 2891
8 2891 2853 2814 2855 2926 2892 2856 2894
8 2892 2854 2815 2856 2927 2893 2857 2895
8 2858 2817 2859 2897 2894 2856 2895 2929
8 2859 2818 2860 2898 2895 2857 2896 2930
8 2861 2820 2862 2900 2897 2859 2898 2932
8 2862 2821 2863 2901 2898 2860 2899 2933
8 2864 2823 2865 2902 2900 2862 2901 2934
8 2904 2867 2846 2886 2936 2903 2885 2921
8 2904 2867 2903 2936 2869 2828 2868 2906
8 2937 2904 2869 2907 2922 2886 2847 2887
8 2906 2868 2905 2939 2871 2829 2870 2909
8 2907 2869 2906 2940 2872 2830 2871 2910
8 2909 2870 2908 2942 2874 2831 2873 2912
8 2910 2871 2909 2943 2875 2832 2874 2913
8 2912 2873 2911 2945 2877 2834 2876 2915
8 2878 2835 2874 2913 2916 2877 2912 2946
8 2915 2876 2914 2947 2880 2837 2879 2917
8 2916 2877 2915 2948 2881 2838 2880 2918
8 2918 2880 2917 2949 2883 2841 2882 2919
8 2921 2885 2849 2889 2951 2920 2888 2924
8 2952 2921 2886 2922 2925 2889 2850 2890
8 2924 2888 2854 2892 2954 2923 2893 2927
8 2925 2889 2853 2891 2955 2924 2892 2926
8 2926 2892 2856 2894 2956 2927 2895 2929
8 2895 2857 2896 2930 2927 2893 2928 2957
8 2897 2859 2898 2932 2929 2895 2930 2959
8 2898 2860 2899 2933 2930 2896 2931 2960
8 2900 2862 2901 2934 2932 2898 2933 2961
8 2936 2903 2885 2921 2963 2935 2920 2951
8 2936 2903 2935 2963 2906 2868 2905 2939
8 2937 2904 2886 2922 2964 2936 2921 2952
8 2937 2904 2936 2964 2907 2869 2906 2940
8 2939 2905 2938 2966 2909 2870 2908 2942
8 2940 2906 2939 2967 2910 2871 2909 2943
8 2942 2908 2941 2969 2912 2873 2911 2945
8 2943 2909 2942 2970 2913 2874 2912 2946
8 2945 2911 2944 2971 2915 2876 2914 2947
8 2946 2912 2945 2972 2916 2877 2915 2948
8 2948 2915 2947 2973 2918 2880 2917 2949
8 2951 2920 2888 2924 2975 2950 2923 2954
8 2952 2921 2889 2925 2976 2951 2924 2955
8 2927 2893 2928 2957 2954 2923 2953 2978
8 2955 2924 2892 2926 2979 2954 2927 2956
8 2929 2895 2930 2959 2956 2927 2957 2980
8 2930 2896 2931 2960 2957 2928 2958 2981
8 2932 2898 2933 2961 2959 2930 2960 2982
8 2951 2920 2950 2975 2963 2935 2962 2984
8 2963 2935 2962 2984 2939 2905 2938 2966
8 2964 2936 2921 2952 2985 2963 2951 2976
8 2964 2936 2963 2985 2940 2906 2939 2967
8 2966 2938 2965 2987 2942 2908 2941 2969
8 2967 2939 2966 2988 2943 2909 2942 2970
8 2969 2941 2968 2989 2945 2911 2944 2971
8 2970 2942 2969 2990 2946 2912 2945 2972
8 2972 2945 2971 2991 2948 2915 2947 2973
8 2954 2923 2953 2978 2975 2950 2974 2993
8 2976 2951 2924 2955 2994 2975 2954 2979
8 2957 2928 2958 2981 2978 2953 2977 2995
8 2956 2927 2957 2980 2979 2954 2978 2996
8 2959 2930 2960 2982 2980 2957 2981 2997
8 2984 2962 2983 2999 2966 2938 2965 2987
8 2975 2950 2974 2993 2984 2962 2983 2999
8 2976 2951 2975 2994 2985 2963 2984 3000
8 2985 2963 2984 3000 2967 2939 2966 2988
8 2987 2965 2986 3001 2969 2941 2968 2989
8 2988 2966 2987 3002 2970 2942 2969 2990
8 2990 2969 2989 3003 2972 2945 2971 2991
8 2978 2953 2977 2995 2993 2974 2992 3004
8 2979 2954 2978 2996 2994 2975 2993 3005
8 2980 2957 2981 2997 2996 2978 2995 3006
8 2974 2993 2999 2983 2992 3004 3007 2998
8 2983 2999 2987 2965 2998 3007 3001 2986
8 3000 2984 2999 3008 2988 2966 2987 3002
8 2994 2975 2993 3005 3000 2984 2999 3008
8 3002 2987 3001 3009 2990 2969 2989 3003
8 2996 2978 2995 3006 3005 2993 3004 3010
8 3005 2993 3004 3010 3008 2999 3007 3011
8 3008 2999 3007 3011 3002 2987 3001 3009

CELL_TYPES 1910
12
12
12
12
12
12
12
12
12
12
12
12
12
12
12
12
12
12
12
12
12
12
12
12
12
12
12
12
12
12
12
12
12
12
12
12
12
12
12
12
12
12
12
12
12
12
12
12
12
12
12
12
12
12
12
12
12
12
12
12
12
12
12
12
12
12
12
12
12
12
12
12
12
12
12
12
12
12
12
12
12
12
12
12
12
12
12
12
12
12
12
12
12
12
12
12
12
12
12
12
12
12
12
12
12
12
12
12
12
12
12
12
12
12
12
12
12
12
12
12
12
12
12
12
12
12
12
12
12
12
12
12
12
12
12
12
12
12
12
12
12
12
12
12
12
12
12
12
12
12
12
12
12
12
12
12
12
12
12
12
12
12
12
12
12
12
12
12
12
12
12
12
12
12
12
12
12
12
12
12
12
12
12
12
12
12
12
12
12
12
12
12
12
12
12
12
12
12
12
12
12
12
12
12
12
12
12
12
12
12
12
12
12
12
12
12
12
12
12
12
12
12
12
12
12
12
12
12
12
12
12
12
12
12
12
12
12
12
12
12
12
12
12
12
12
12
12
12
12
12
12
12
12
12
12
12
12
12
12
12
12
12
12
12
12
12
12
12
12
12
12
12
12
12
12
12
12
12
12
12
12
12
12
12
12
12
12
12
12
12
12
12
12
12
12
12
12
12
12
12
12
12
12
12
12
12
12
12
12
12
12
12
12
12
12
12
12
12
12
12
12
12
12
12
12
12
12
12
12
12
12
12
12
12
12
12
12
12
12
12
12
12
12
12
12
12
12
12
12
12
12
12
12
12
12
12
12
12
12
12
12
12
12
12
12
12
12
12
12
12
12
12
12
12
12
12
12
12
12
12
12
12
12
12
12
12
12
12
12
12
12
12
12
12
12
12
12
12
12
12
12
12
12
12
12
12
12
12
12
12
12
12
12
12
12
12
12
12
12
12
12
12
12
12
12
12
12
12
12
12
12
12
12
12
12
12
12
12
12
12
12
12
12
12
12
12
12
12
12
12
12
12
12
12
12
12
12
12
12
12
12
12
12
12
12
12
12
12
12
12
12
12
12
12
12
12
12
12
12
12
12
12
12
12
12
12
12
12
12
12
12
12
12
12
12
12
12
12
12
12
12
12
12
12
12
12
12
12
12
12
12
12
12
12
12
12
12
12
12
12
12
12
12
12
12
12
12
12
12
12
12
12
12
12
12
12
12
12
12
12
12
12
12
12
12
12
12
12
12
12
12
12
12
12
12
12
12
12
12
12
12
12
12
12
12
12
12
12
12
12
12
12
12
12
12
12
12
12
12
12
12
12
12
12
12
12
12
12
12
12
12
12
12
12
12
12
12
12
12
12
12
12
12
12
12
12
12
12
12
12
12
12
12
12
12
12
12
12
12
12
12
12
12
12
12
12
12
12
12
12
12
12
12
12
12
12
12
12
12
12
12
12
12
12
12
12
12
12
12
12
12
12
12
12
12
12
12
12
12
12
12
12
12
12
12
12
12
12
12
12
12
12
12
12
12
12
12
12
12
12
12
12
12
12
12
12
12
12
12
12
12
12
12
12
12
12
12
12
12
12
12
12
12
12
12
12
12
12
12
12
12
12
12
12
12
12
12
12
12
12
12
12
12
12
12
12
12
12
12
12
12
12
12
12
12
12
12
12
12
12
12
12
12
12
12
12
12
12
12
12
12
12
12
12
12
12
12
12
12
12
12
12
12
12
12
12
12
12
12
12
12
12
12
12
12
12
12
12
12
12
12
12
12
12
12
12
12
12
12
12
12
12
12
12
12
12
12
12
12
12
12
12
12
12
12
12
12
12
12
12
12
12
12
12
12
12
12
12
12
12
12
12
12
12
12
12
12
12
12
12
12
12
12
12
12
12
12
12
12
12
12
12
12
12
12
12
12
12
12
12
12
12
12
12
12
12
12
12
12
12
12
12
12
12
12
12
12
12
12
12
12
12
12
12
12
12
12
12
12
12
12
12
12
12
12
12
12
12
12
12
12
12
12
12
12
12
12
12
12
12
12
12
12
12
12
12
12
12
12
12
12
12
12
12
12
12
12
12
12
12
12
12
12
12
12
12
12
12
12
12
12
12
12
12
12
12
12
12
12
12
12
12
12
12
12
12
12
12
12
12
12
12
12
12
12
12
12
12
12
12
12
12
12
12
12
12
12
12
12
12
12
12
12
12
12
12
12
12
12
12
12
12
12
12
12
12
12
12
12
12
12
12
12
12
12
12
12
12
12
12
12
12
12
12
12
12
12
12
12
12
12
12
12
12
12
12
12
12
12
12
12
12
12
12
12
12
12
12
12
12
12
12
12
12
12
12
12
12
12
12
12
12
12
12
12
12
12
12
12
12
12
12
12
12
12
12
12
12
12
12
12
12
12
12
12
12
12
12
12
12
12
12
12
12
12
12
12
12
12
12
12
12
12
12
12
12
12
12
12
12
12
12
12
12
12
12
12
12
12
12
12
12
12
12
12
12
12
12
12
12
12
12
12
12
12
12
12
12
12
12
12
12
12
12
12
12
12
12
12
12
12
12
12
12
12
12
12
12
12
12
12
12
12
12
12
12
12
12
12
12
12
12
12
12
12
12
12
12
12
12
12
12
12
12
12
12
12
12
12
12
12
12
12
12
12
12
12
12
12
12
12
12
12
12
12
12
12
12
12
12
12
12
12
12
12
12
12
12
12
12
12
12
12
12
12
12
12
12
12
12
12
12
12
12
12
12
12
12
12
12
12
12
12
12
12
12
12
12
12
12
12
12
12
12
12
12
12
12
12
12
12
12
12
12
12
12
12
12
12
12
12
12
12
12
12
12
12
12
12
12
12
12
12
12
12
12
12
12
12
12
12
12
12
12
12
12
12
12
12
12
12
12
12
12
12
12
12
12
12
12
12
12
12
12
12
12
12
12
12
12
12
12
12
12
12
12
12
12
12
12
12
12
12
12
12
12
12
12
12
12
12
12
12
12
12
12
12
12
12
12
12
12
12
12
12
12
12
12
12
12
12
12
12
12
12
12
12
12
12
12
12
12
12
12
12
12
12
12
12
12
12
12
12
12
12
12
12
12
12
12
12
12
12
12
12
12
12
12
12
12
12
12
12
12
12
12
12
12
12
12
12
12
12
12
12
12
12
12
12
12
12
12
12
12
12
12
12
12
12
12
12
12
12
12
12
12
12
12
12
12
12
12
12
12
12
12
12
12
12
12
12
12
12
12
12
12
12
12
12
12
12
12
12
12
12
12
12
12
12
12
12
12
12
12
12
12
12
12
12
12
12
12
12
12
12
12
12
12
12
12
12
12
12
12
12
12
12
12
12
12
12
12
12
12
12
12
12
12
12
12
12
12
12
12
12
12
12
12
12
12
12
12
12
12
12
12
12
12
12
12
12
12
12
12
12
12
12
12
12
12
12
12
12
12
12
12
12
12
12
12
12
12
12
12
12
12
12
12
12
12
12
12
12
12
12
12
12
12
12
12
12
12
12
12
12
12
12
12
12
12
12
12
12
12
12
12
12
12
12
12
12
12
12
12
12
12
12
12
12
12
12
12
12
12
12
12
12
12
12
12
12
12
12
12
12
12
12
12
12
12
12
12
12
12
12
12
12
12
12
12
12
12
12
12
12
12
12
12
12
12
12
12
12
12
12
12
12
12
12
12
12
12
12
12
12
12
12
12
12
12
12
12
12
12
12
12
12
12
12
12
12
12
12
12
12
12
12
12
12
12
12
12
12
12
12
12
12
12
12
12
12
12
12
12
12
12
12
12
12
12
12
12
12
12
12
12
12
12
12
12
12
12
12
12
12
12
12
12
12
12
12
12
12
12
12
12
12
12
12
12
12
12
12
12
12
12
12
12
12
12
12
12
12
12
12
12
12
12
12
12
12
12
12
12
12
12
12
12
12
12
12
12
12
12
12
12
12
12
12
12
12
12
12
12
12
12
12
12
12
12
12
12
12
12
12
12
12
12
12
12
12
12
12
12
12
12
12
12
12
12
12
12
12
12
12
12
12
12
12
12
12
12
12
12
12
12
12
12
12
12
12
12
12
12
12
12
12
12
12
12
12
12
12
12
12
12
12
12
12
12
12
12
12
12
12
12
12
12
12
12
12
12
12
12
12
12
12
12
12
12
12
12
12
12
12
12
12
12
12
12
12
12
12
12
12
12
12
12
12
12
12
12
12
12
12
12
12
12
12
12
12
12
12
12
12
12
12
12
12
12
12
12
12
12
12
12
12
12
12
12
12
12
12
12
12
12
12
12
12
12
12
12
12
12
12
12
12
12
12
12

POINT_DATA 3012
SCALARS Jp_lamdaP float 4
LOOKUP_TABLE default
1 1 1 1
1 1 1 1
1 1 1 1
0.999993 1 1 0.999993
0.999999 1 1 0.999999
1 1 1 1
0.999904 1 1 0.999904
1 1 1 1
1 1 1 1
1 1 1 1
1 1 1 1
0.999975 1 1 0.999975
0.999981 1 1 0.999981
0.999994 1 1 0.999994
1 1 1 1
0.999994 1 1 0.999994
1 1 1 1
1 1 1 1
0.999905 1 1 0.999905
1 1 1 1
0.99999 1 1 0.99999
0.999997 1 1 0.999997
0.999834 1 1 0.999834
0.999885 1 1 0.999885
1 1 1 1
0.999926 1 1 0.999926
0.999724 1 1 0.999724
1 1 1 1
0.999999 1 1 0.999999
1 1 1 1
1 1 1 1
0.999978 1 1 0.999978
0.999998 1 1 0.999998
1 1 1 1
0.999926 1 1 0.999926
1 1 1 1
0.999963 1 1 0.999963
0.999987 1 1 0.999987
0.999766 1 1 0.999766
1 1 1 1
1 1 1 1
0.999997 1 1 0.999997
1 1 1 1
0.99999 1 1 0.99999
0.999834 1 1 0.999834
1 1 1 1
0.999889 1 1 0.999889
0.999995 1 1 0.999995
1 1 1 1
1 1 1 1
0.999906 1 1 0.999906
0.999991 1 1 0.999991
0.999992 1 1 0.999992
1 1 1 1
0.999998 1 1 0.999998
0.999835 1 1 0.999835
0.999927 1 1 0.999927
0.999886 1 1 0.999886
0.999718 1 1 0.999718
1 1 1 1
0.999987 1 1 0.999987
0.999854 1 1 0.999854
0.999818 1 1 0.999818
0.999861 1 1 0.999861
0.999554 1 1 0.999554
0.999655 1 1 0.999655
1 1 1 1
0.999952 1 1 0.999952
0.999773 1 1 0.999773
0.999495 1 1 0.999495
1 1 1 1
1 1 1 1
1 1 1 1
0.999981 1 1 0.999981
1 1 1 1
1 1 1 1
0.999931 1 1 0.999931
1 1 1 1
0.999967 1 1 0.999967
0.99999 1 1 0.99999
0.999765 1 1 0.999765
1 1 1 1
1 1 1 1
0.999908 1 1 0.999908
0.999946 1 1 0.999946
0.999625 1 1 0.999625
0.999997 1 1 0.999997
0.999744 1 1 0.999744
0.999789 1 1 0.999789
0.9996 1 1 0.9996
1 1 1 1
1 1 1 1
1 1 1 1
1 1 1 1
1 1 1 1
0.999994 1 1 0.999994
0.999845 1 1 0.999845
0.999998 1 1 0.999998
0.99989 1 1 0.99989
1 1 1 1
0.999809 1 1 0.999809
0.999872 1 1 0.999872
0.999414 1 1 0.999414
0.9999 1 1 0.9999
0.999479 1 1 0.999479
0.999984 1 1 0.999984
0.999993 1 1 0.999993
1 1 1 1
0.999999 1 1 0.999999
0.999837 1 1 0.999837
0.999888 1 1 0.999888
0.999928 1 1 0.999928
0.999711 1 1 0.999711
1 1 1 1
0.999989 1 1 0.999989
0.999817 1 1 0.999817
0.999819 1 1 0.999819
1 1 1 1
0.999968 1 1 0.999968
0.999862 1 1 0.999862
0.999539 1 1 0.999539
0.999766 1 1 0.999766
0.999664 1 1 0.999664
0.999496 1 1 0.999496
0.999819 1 1 0.999819
0.999813 1 1 0.999813
0.999454 1 1 0.999454
0.999499 1 1 0.999499
0.99959 1 1 0.99959
0.999328 1 1 0.999328
1 1 1 1
0.999457 1 1 0.999457
0.999996 1 1 0.999996
0.999786 1 1 0.999786
0.999534 1 1 0.999534
0.999403 1 1 0.999403
1 1 1 1
0.999863 1 1 0.999863
1 1 1 1
1 1 1 1
0.999936 1 1 0.999936
1 1 1 1
0.999994 1 1 0.999994
0.99997 1 1 0.99997
0.999764 1 1 0.999764
1 1 1 1
1 1 1 1
0.999913 1 1 0.999913
0.999951 1 1 0.999951
0.999626 1 1 0.999626
0.999998 1 1 0.999998
0.999744 1 1 0.999744
0.999789 1 1 0.999789
0.999595 1 1 0.999595
1 1 1 1
1 1 1 1
0.999878 1 1 0.999878
0.999562 1 1 0.999562
0.999695 1 1 0.999695
0.999432 1 1 0.999432
0.999821 1 1 0.999821
0.999575 1 1 0.999575
0.999613 1 1 0.999613
0.999529 1 1 0.999529
1 1 1 1
1 1 1 1
1 1 1 1
1 1 1 1
1 1 1 1
1 1 1 1
1 1 1 1
0.999889 1 1 0.999889
0.999843 1 1 0.999843
1 1 1 1
1 1 1 1
0.999811 1 1 0.999811
0.999873 1 1 0.999873
0.999414 1 1 0.999414
0.9999 1 1 0.9999
0.99948 1 1 0.99948
0.999801 1 1 0.999801
0.999374 1 1 0.999374
0.999451 1 1 0.999451
0.999225 1 1 0.999225
0.999514 1 1 0.999514
0.999296 1 1 0.999296
1 1 1 1
0.999991 1 1 0.999991
0.999779 1 1 0.999779
0.99982 1 1 0.99982
1 1 1 1
0.999983 1 1 0.999983
0.999864 1 1 0.999864
0.999525 1 1 0.999525
0.999674 1 1 0.999674
0.999759 1 1 0.999759
0.999497 1 1 0.999497
0.999817 1 1 0.999817
0.999813 1 1 0.999813
0.999425 1 1 0.999425
0.999509 1 1 0.999509
1 1 1 1
0.999994 1 1 0.999994
0.999798 1 1 0.999798
0.999592 1 1 0.999592
0.999311 1 1 0.999311
0.999531 1 1 0.999531
0.999464 1 1 0.999464
0.999405 1 1 0.999405
1 1 1 1
0.999863 1 1 0.999863
0.999382 1 1 0.999382
0.999483 1 1 0.999483
0.999253 1 1 0.999253
0.999258 1 1 0.999258
0.999407 1 1 0.999407
0.999244 1 1 0.999244
1 1 1 1
0.999368 1 1 0.999368
0.999806 1 1 0.999806
0.999585 1 1 0.999585
0.99944 1 1 0.99944
0.999376 1 1 0.999376
0.999832 1 1 0.999832
0.999907 1 1 0.999907
0.999653 1 1 0.999653
0.999916 1 1 0.999916
1 1 1 1
1 1 1 1
0.999957 1 1 0.999957
0.999628 1 1 0.999628
1 1 1 1
0.999789 1 1 0.999789
0.999745 1 1 0.999745
0.99959 1 1 0.99959
1 1 1 1
1 1 1 1
0.999878 1 1 0.999878
0.999562 1 1 0.999562
0.999697 1 1 0.999697
0.999432 1 1 0.999432
0.999821 1 1 0.999821
0.999581 1 1 0.999581
0.999612 1 1 0.999612
0.999521 1 1 0.999521
1 1 1 1
0.999849 1 1 0.999849
0.999913 1 1 0.999913
0.999682 1 1 0.999682
0.999369 1 1 0.999369
0.999519 1 1 0.999519
0.999336 1 1 0.999336
0.999643 1 1 0.999643
0.999504 1 1 0.999504
0.999505 1 1 0.999505
0.999467 1 1 0.999467
0.999978 1 1 0.999978
1 1 1 1
1 1 1 1
1 1 1 1
1 1 1 1
1 1 1 1
1 1 1 1
1 1 1 1
1 1 1 1
0.999902 1 1 0.999902
0.999871 1 1 0.999871
0.99948 1 1 0.99948
0.999414 1 1 0.999414
0.999813 1 1 0.999813
1 1 1 1
0.9998 1 1 0.9998
0.999374 1 1 0.999374
0.999451 1 1 0.999451
0.999224 1 1 0.999224
0.999514 1 1 0.999514
0.999296 1 1 0.999296
0.999362 1 1 0.999362
0.999183 1 1 0.999183
0.999263 1 1 0.999263
0.999169 1 1 0.999169
0.99933 1 1 0.99933
0.999234 1 1 0.999234
0.999815 1 1 0.999815
0.999814 1 1 0.999814
0.999396 1 1 0.999396
0.999519 1 1 0.999519
1 1 1 1
0.999991 1 1 0.999991
0.999811 1 1 0.999811
0.999593 1 1 0.999593
0.999294 1 1 0.999294
0.999471 1 1 0.999471
0.999528 1 1 0.999528
0.999406 1 1 0.999406
1 1 1 1
0.999864 1 1 0.999864
0.999371 1 1 0.999371
0.999483 1 1 0.999483
0.999246 1 1 0.999246
0.999276 1 1 0.999276
0.999999 1 1 0.999999
0.999806 1 1 0.999806
0.999596 1 1 0.999596
0.999407 1 1 0.999407
0.99924 1 1 0.99924
0.999427 1 1 0.999427
0.999369 1 1 0.999369
0.999375 1 1 0.999375
0.999833 1 1 0.999833
0.99965 1 1 0.99965
0.999906 1 1 0.999906
0.99922 1 1 0.99922
0.999264 1 1 0.999264
0.999157 1 1 0.999157
0.999191 1 1 0.999191
0.999317 1 1 0.999317
0.999247 1 1 0.999247
0.999818 1 1 0.999818
0.999351 1 1 0.999351
0.999644 1 1 0.999644
0.999475 1 1 0.999475
0.99936 1 1 0.99936
0.999402 1 1 0.999402
0.999944 1 1 0.999944
0.999654 1 1 0.999654
0.99966 1 1 0.99966
0.999572 1 1 0.999572
0.999563 1 1 0.999563
1 1 1 1
1 1 1 1
0.999878 1 1 0.999878
0.999699 1 1 0.999699
0.999432 1 1 0.999432
0.999821 1 1 0.999821
0.999611 1 1 0.999611
0.999587 1 1 0.999587
0.999513 1 1 0.999513
1 1 1 1
0.999848 1 1 0.999848
0.999914 1 1 0.999914
0.999681 1 1 0.999681
0.999368 1 1 0.999368
0.99952 1 1 0.99952
0.999336 1 1 0.999336
0.999643 1 1 0.999643
0.999512 1 1 0.999512
0.999502 1 1 0.999502
0.999486 1 1 0.999486
1 1 1 1
0.99994 1 1 0.99994
0.999666 1 1 0.999666
0.99971 1 1 0.99971
0.99957 1 1 0.99957
0.999284 1 1 0.999284
0.99943 1 1 0.99943
0.999301 1 1 0.999301
0.999525 1 1 0.999525
0.999458 1 1 0.999458
0.999389 1 1 0.999389
0.999969 1 1 0.999969
0.999825 1 1 0.999825
0.999985 1 1 0.999985
0.99998 1 1 0.99998
1 1 1 1
1 1 1 1
1 1 1 1
1 1 1 1
1 1 1 1
1 1 1 1
1 1 1 1
1 1 1 1
1 1 1 1
1 1 1 1
1 1 1 1
0.999515 1 1 0.999515
0.999451 1 1 0.999451
0.999297 1 1 0.999297
0.999224 1 1 0.999224
0.999374 1 1 0.999374
0.9998 1 1 0.9998
0.999362 1 1 0.999362
0.999183 1 1 0.999183
0.999263 1 1 0.999263
0.999166 1 1 0.999166
0.999329 1 1 0.999329
0.999234 1 1 0.999234
0.99917 1 1 0.99917
0.99913 1 1 0.999129
0.999199 1 1 0.999199
0.999156 1 1 0.999156
0.999261 1 1 0.999261
0.999258 1 1 0.999258
0.999361 1 1 0.999361
0.999483 1 1 0.999483
0.999239 1 1 0.999239
0.999294 1 1 0.999294
0.999998 1 1 0.999998
0.999806 1 1 0.999806
0.999608 1 1 0.999608
0.999406 1 1 0.999406
0.999236 1 1 0.999236
0.999369 1 1 0.999369
0.999414 1 1 0.999414
0.999374 1 1 0.999374
0.999834 1 1 0.999834
0.999646 1 1 0.999646
0.999905 1 1 0.999905
0.999205 1 1 0.999205
0.999264 1 1 0.999264
0.999148 1 1 0.999148
0.999195 1 1 0.999195
0.999818 1 1 0.999818
0.999642 1 1 0.999642
0.999488 1 1 0.999488
0.999322 1 1 0.999322
0.999253 1 1 0.999253
0.999349 1 1 0.999349
0.999352 1 1 0.999352
0.999407 1 1 0.999407
0.999655 1 1 0.999655
0.999562 1 1 0.999562
0.999942 1 1 0.999942
0.999666 1 1 0.999666
0.999121 1 1 0.999121
0.999168 1 1 0.999168
0.999111 1 1 0.999111
0.999181 1 1 0.999181
0.999316 1 1 0.999316
0.999274 1 1 0.999274
0.999657 1 1 0.999657
0.999407 1 1 0.999407
0.999544 1 1 0.999544
0.999385 1 1 0.999385
0.999305 1 1 0.999305
0.999405 1 1 0.999405
0.999963 1 1 0.999963
0.999702 1 1 0.999702
0.999576 1 1 0.999576
0.999558 1 1 0.999558
0.999531 1 1 0.999531
1 1 1 1
0.999367 1 1 0.999367
0.999915 1 1 0.999915
0.999848 1 1 0.999848
0.99968 1 1 0.99968
0.999521 1 1 0.999521
0.999336 1 1 0.999336
0.999644 1 1 0.999644
0.999498 1 1 0.999498
0.999519 1 1 0.999519
0.999504 1 1 0.999504
1 1 1 1
0.999942 1 1 0.999942
0.999665 1 1 0.999665
0.999709 1 1 0.999709
0.999566 1 1 0.999566
0.999283 1 1 0.999283
0.99943 1 1 0.99943
0.999298 1 1 0.999298
0.999526 1 1 0.999526
0.999463 1 1 0.999463
0.999398 1 1 0.999398
0.999957 1 1 0.999957
0.999742 1 1 0.999742
0.999551 1 1 0.999551
0.999586 1 1 0.999586
0.999513 1 1 0.999513
0.999264 1 1 0.999264
0.999387 1 1 0.999387
0.999345 1 1 0.999345
0.999419 1 1 0.999419
0.999333 1 1 0.999333
0.999972 1 1 0.999972
0.99978 1 1 0.99978
0.999814 1 1 0.999814
0.999707 1 1 0.999707
0.999836 1 1 0.999836
0.99999 1 1 0.99999
0.999987 1 1 0.999987
1 1 1 1
0.999983 1 1 0.999983
1 1 1 1
1 1 1 1
1 1 1 1
1 1 1 1
1 1 1 1
1 1 1 1
1 1 1 1
1 1 1 1
1 1 1 1
1 1 1 1
1 1 1 1
0.999328 1 1 0.999328
0.999264 1 1 0.999264
0.999234 1 1 0.999234
0.999162 1 1 0.999162
0.999184 1 1 0.999184
0.999362 1 1 0.999362
0.99917 1 1 0.99917
0.999123 1 1 0.999123
0.999199 1 1 0.999199
0.999155 1 1 0.999155
0.999259 1 1 0.999259
0.999257 1 1 0.999257
0.999107 1 1 0.999103
0.999375 1.00026 1 0.999113
0.999195 1 1 0.999195
0.999147 1 1 0.999147
0.999266 1 1 0.999266
0.999278 1 1 0.999278
0.999191 1 1 0.999191
0.999264 1 1 0.999264
0.99914 1 1 0.99914
0.999199 1 1 0.999199
0.999819 1 1 0.999819
0.999641 1 1 0.999641
0.999501 1 1 0.999501
0.999328 1 1 0.999328
0.999259 1 1 0.999259
0.999352 1 1 0.999352
0.999339 1 1 0.999339
0.999412 1 1 0.999412
0.999656 1 1 0.999656
0.999553 1 1 0.999553
0.999939 1 1 0.999939
0.999671 1 1 0.999671
0.999121 1 1 0.999121
0.999171 1 1 0.999171
0.999111 1 1 0.999111
0.999183 1 1 0.999183
0.999657 1 1 0.999657
0.999554 1 1 0.999554
0.999384 1 1 0.999384
0.999311 1 1 0.999311
0.9993 1 1 0.9993
0.9993 1 1 0.9993
0.999408 1 1 0.999408
0.999422 1 1 0.999422
0.999576 1 1 0.999576
0.999528 1 1 0.999528
0.999555 1 1 0.999555
0.999946 1 1 0.999946
0.999708 1 1 0.999708
0.999112 1.00003 1 0.999086
0.999103 1 1 0.999103
0.9992 1 1 0.9992
0.999353 1 1 0.999353
0.999585 1 1 0.999585
0.999458 1 1 0.999458
0.999475 1 1 0.999475
0.999267 1 1 0.999267
0.999257 1 1 0.999257
0.999946 1 1 0.999946
0.99977 1 1 0.99977
0.999594 1 1 0.999594
0.999548 1 1 0.999548
0.999479 1 1 0.999479
0.999498 1 1 0.999498
1 1 1 1
0.999944 1 1 0.999944
0.999281 1 1 0.999281
0.999709 1 1 0.999709
0.999665 1 1 0.999665
0.999562 1 1 0.999562
0.999431 1 1 0.999431
0.999295 1 1 0.999295
0.999528 1 1 0.999528
0.999407 1 1 0.999407
0.999468 1 1 0.999468
0.99996 1 1 0.99996
0.999742 1 1 0.999742
0.999558 1 1 0.999558
0.999585 1 1 0.999585
0.999505 1 1 0.999505
0.999262 1 1 0.999262
0.999384 1 1 0.999384
0.99935 1 1 0.99935
0.999412 1 1 0.999412
0.999318 1 1 0.999318
0.999773 1 1 0.999773
0.999593 1 1 0.999593
0.999474 1 1 0.999474
0.999494 1 1 0.999494
0.999459 1 1 0.999459
0.999379 1 1 0.999379
0.999306 1 1 0.999306
0.999335 1 1 0.999335
0.999432 1 1.00009 0.99934
0.999192 1 1 0.999192
0.999975 1 1 0.999975
0.999789 1 1 0.999789
0.999648 1 1 0.999648
0.999802 1 1 0.999802
0.999836 1 1 0.999836
0.999691 1 1 0.999691
0.999603 1 1 0.999603
0.999687 1 1 0.999687
0.999845 1 1 0.999845
0.999992 1 1 0.999992
0.999991 1 1 0.999991
1 1 1 1
0.999988 1 1 0.999988
1 1 1 1
1 1 1 1
1 1 1 1
1 1 1 1
1 1 1 1
1 1 1 1
1 1 1 1
1 1 1 1
1 1 1 1
1 1 1 1
1 1 1 1
0.999258 1 1 0.999258
0.9992 1 1 0.9992
0.999256 1 1 0.999256
0.999153 1 1 0.999153
0.999118 1 1 0.999118
0.99917 1 1 0.99917
0.999105 1 1 0.999101
0.999292 1.00018 1 0.999115
0.999189 1 1 0.999189
0.999141 1 1 0.999141
0.999266 1 1 0.999266
0.999293 1 1 0.999293
0.999625 1.00054 1 0.999089
0.999545 1.00042 1 0.999125
0.999199 1.00001 1 0.999193
0.999342 1 1 0.999342
0.999122 1 1 0.999122
0.999173 1 1 0.999173
0.999111 1 1 0.999111
0.999184 1 1 0.999184
0.999658 1 1 0.999658
0.999565 1 1 0.999565
0.999383 1 1 0.999383
0.999307 1 1 0.999307
0.999326 1 1 0.999326
0.99941 1 1 0.99941
0.999294 1 1 0.999294
0.999438 1 1 0.999438
0.999577 1 1 0.999577
0.999524 1 1 0.999524
0.999553 1 1 0.999553
0.999929 1 1 0.999929
0.999714 1 1 0.999714
0.999111 1.00002 1 0.999088
0.999108 1 1 0.999108
0.99922 1.00001 1 0.99921
0.999584 1 1 0.999584
0.999489 1 1 0.999489
0.999264 1 1 0.999264
0.999343 1 1 0.999343
0.999282 1 1 0.999282
0.999456 1 1 0.999456
0.999947 1 1 0.999947
0.999548 1 1 0.999548
0.999506 1 1 0.999506
0.999478 1 1 0.999478
0.999599 1 1 0.999599
0.999758 1 1 0.999758
0.999209 1.00013 1 0.999083
0.999092 1 1 0.999092
0.999309 1.00006 1 0.999249
0.999465 1.00005 1 0.999418
0.999541 1 1 0.999541
0.999325 1 1 0.999325
0.999348 1 1 0.999348
0.999245 1 1.00007 0.999175
0.99996 1 1 0.99996
0.999805 1 1 0.999805
0.999639 1 1 0.999639
0.999472 1 1 0.999472
0.999509 1 1 0.999509
0.999448 1 1 0.999448
0.999963 1 1 0.999963
0.999742 1 1 0.999742
0.99926 1 1 0.99926
0.999584 1 1 0.999584
0.999564 1 1 0.999564
0.999498 1 1 0.999498
0.999381 1 1 0.999381
0.999355 1 1 0.999355
0.999406 1 1 0.999406
0.999303 1 1 0.999303
0.999773 1 1 0.999773
0.999598 1 1 0.999598
0.999484 1 1 0.999484
0.9995 1 1 0.9995
0.999463 1 1 0.999463
0.999378 1 1 0.999378
0.999311 1 1 0.999311
0.999376 1 1 0.999376
0.999383 1 1.00005 0.999331
0.999173 1 1 0.999173
0.999624 1 1 0.999624
0.999487 1 1 0.999487
0.999463 1 1.00006 0.9994
0.999416 1 1 0.999416
0.999569 1.00022 1 0.99935
0.999963 1.00068 0.999872 0.99941
0.999177 1 1 0.999177
1.00073 1 1.00158 0.99916
0.999797 1 1 0.999797
0.999656 1 1 0.999656
0.999568 1 1 0.999568
0.999836 1 1 0.999836
0.999674 1 1 0.999674
0.999845 1 1 0.999845
0.99959 1 1 0.99959
0.999693 1 1 0.999693
0.999521 1 1 0.999521
0.999589 1 1 0.999589
0.999696 1 1 0.999696
0.99985 1 1 0.99985
0.999992 1 1 0.999992
0.999992 1 1 0.999992
1 1 1 1
0.999991 1 1 0.999991
1 1 1 1
1 1 1 1
1 1 1 1
1 1 1 1
1 1 1 1
1 1 1 1
1 1 1 1
1 1 1 1
1 1 1 1
1 1 1 1
1 1 1 1
0.999266 1 1 0.999266
0.999183 1 1 0.999183
0.999307 1 1 0.999307
0.999136 1 1 0.999136
0.999191 1.00007 1 0.999117
0.999102 1 1 0.999098
0.999522 1.00043 1 0.999093
0.999517 1.00039 1 0.999124
0.999221 1.00002 1 0.999199
0.999337 1 1 0.999337
0.999892 1.00079 1 0.999105
0.999815 1.00065 1 0.999164
0.999317 1.00006 1 0.999261
0.999106 1.00002 1 0.99909
0.999113 1 1 0.999113
0.999249 1.00003 1 0.99922
0.999583 1 1 0.999583
0.999502 1 1 0.999502
0.999261 1 1 0.999261
0.999333 1 1 0.999333
0.999453 1 1 0.999453
0.999307 1 1 0.999307
0.999547 1 1 0.999547
0.999514 1 1 0.999514
0.999478 1 1 0.999478
0.999947 1 1 0.999947
0.999604 1 1 0.999604
0.999746 1 1 0.999746
0.999288 1.0002 1 0.999085
0.99909 1 1 0.99909
0.999279 1.00004 1 0.999237
0.999539 1 1 0.999539
0.999369 1 1 0.999369
0.999265 1 1.00009 0.99918
0.999825 1.0004 1 0.999428
0.999323 1 1 0.999323
0.999972 1 1 0.999972
0.999806 1 1 0.999806
0.999508 1 1 0.999508
0.999454 1 1 0.999454
0.999477 1 1 0.999477
0.999629 1 1 0.999629
0.999483 1.00038 1 0.999107
0.999459 1.00035 1 0.999108
1.00036 1.00109 0.999905 0.999368
1.00055 1.00111 1 0.999437
0.999473 1 1 0.999473
1.00039 1 1.00127 0.999123
0.99941 1 1.00016 0.999254
0.999995 1 1 0.999995
0.999874 1 1 0.999874
0.999809 1 1 0.999809
0.999652 1 1 0.999652
0.999514 1 1 0.999514
0.999393 1 1 0.999393
0.999491 1 1 0.999491
0.999428 1 1 0.999428
0.999773 1 1 0.999773
0.999603 1 1 0.999603
0.999377 1 1 0.999377
0.999505 1 1 0.999505
0.999495 1 1 0.999495
0.999467 1 1 0.999467
0.999315 1 1 0.999315
0.999417 1 1 0.999417
0.999361 1 1.00004 0.999322
0.999153 1 1 0.999153
0.99962 1 1 0.99962
0.999495 1 1 0.999495
0.999475 1 1.00007 0.999409
0.999424 1 1 0.999424
0.999496 1.00015 1 0.999342
0.99974 1.00038 0.999949 0.999408
0.999196 1 1 0.999196
1.00035 1 1.0012 0.999151
0.999537 1 1 0.999537
0.999465 1.0002 1 0.999265
0.99942 1 1 0.99942
0.999574 1 1.00026 0.999315
1.00149 1.00238 0.999722 0.999391
0.999749 1.00059 1 0.99916
1.00145 1 1.00237 0.999077
0.999664 1 1 0.999664
0.999568 1 1 0.999568
0.999492 1 1 0.999492
0.999845 1 1 0.999845
0.999699 1 1 0.999699
0.999578 1 1 0.999578
0.99985 1 1 0.99985
0.999695 1 1 0.999695
0.999511 1 1 0.999511
0.999602 1 1 0.999602
0.99946 1 1 0.99946
0.999508 1 1 0.999508
0.999614 1 1 0.999614
0.999715 1 1 0.999715
0.99985 1 1 0.99985
0.999991 1 1 0.999991
0.999992 1 1 0.999992
1 1 1 1
0.999992 1 1 0.999992
1 1 1 1
1 1 1 1
1 1 1 1
1 1 1 1
1 1 1 1
0.999999 1 1 0.999999
1 1 1 1
1 1 1 1
1 1 1 1
1 1 1 1
1 1 1 1
1 1 1 1
0.999332 1 1 0.999332
0.999248 1.00004 1 0.999205
0.999508 1.00038 1 0.999124
0.999438 1.00034 1 0.999097
0.999952 1.00084 1 0.99911
0.999866 1.00071 1 0.999156
0.999359 1.00008 1 0.999275
1.00006 1.00091 1 0.999148
0.999804 1.00061 1 0.999194
0.999556 1.00027 1 0.999287
0.999371 1.00028 1 0.999088
0.999089 1 1 0.999087
0.999244 1.00002 1 0.999224
0.999536 1 1 0.999536
0.99939 1 1 0.99939
0.999191 1 1.00001 0.999185
1.00016 1.00072 1 0.999438
0.999321 1 1 0.999321
0.999507 1 1 0.999507
0.99946 1 1 0.99946
0.999482 1 1 0.999482
0.999984 1 1 0.999984
0.999806 1 1 0.999806
0.99962 1 1 0.99962
0.999428 1.00032 1 0.999111
0.999993 1 1 0.999993
0.999865 1 1 0.999865
0.999536 1.00043 1 0.999108
1.00066 1.00132 1 0.999345
0.999485 1 1 0.999485
0.99983 1 1.0006 0.999233
0.99973 1 1.0006 0.99913
1.00017 1.00073 1 0.999436
0.999833 1 1 0.999833
0.999651 1 1 0.999651
0.999486 1 1 0.999486
0.999459 1 1 0.999455
0.999378 1 1 0.999378
0.999516 1 1 0.999516
1.00002 1.00087 1 0.999146
1.00097 1.00178 1 0.99919
1.00193 1.00283 0.999601 0.999503
0.999243 1 1 0.999243
0.999851 1 1.00042 0.999431
1.0022 1 1.0031 0.9991
0.999874 1 1 0.999874
0.999853 1 1 0.999853
0.999756 1 1 0.999756
0.999658 1 1 0.999658
0.999551 1 1 0.999551
0.999413 1 1 0.999413
0.999324 1 1.00001 0.999317
0.999459 1 1 0.999459
0.999615 1 1 0.999615
0.999503 1 1 0.999503
0.999464 1.00013 1 0.999335
0.999509 1.0001 1 0.999406
0.999431 1 1 0.999431
0.999461 1 1.00004 0.999419
0.999216 1 1 0.999216
1.00001 1 1.00087 0.999142
0.999537 1 1 0.999537
0.999428 1.00015 1 0.999281
0.999421 1 1 0.999421
0.999775 1 1.00047 0.999301
1.00079 1.00166 0.99974 0.999383
1.00003 1.00087 1 0.999166
1.00137 1 1.00229 0.999078
0.999449 1 1 0.999449
1.00817 1.00947 0.999383 0.999328
0.999359 1 1 0.999359
1.00109 1 1.0019 0.999185
0.998838 1.00243 0.997225 0.99919
1.00105 1 1.00202 0.999032
1.00633 1.00918 0.997941 0.999232
0.999568 1 1 0.999568
0.999492 1 1 0.999492
0.99944 1 1 0.99944
0.999851 1 1 0.999851
0.999695 1 1 0.999695
0.999615 1 1 0.999615
0.999501 1 1 0.999501
0.99985 1 1 0.99985
0.999706 1 1 0.999706
0.999457 1 1 0.999457
0.999613 1 1 0.999613
0.999519 1 1 0.999519
0.999439 1 1 0.999439
0.999545 1 1 0.999545
0.999622 1 1 0.999622
0.999695 1 1 0.999695
0.999826 1 1 0.999826
0.999733 1 1 0.999733
0.999826 1 1 0.999826
0.99999 1 1 0.99999
0.999991 1 1 0.999991
1 1 1 1
0.999992 1 1 0.999992
1 1 1 1
1 1 1 1
1 1 1 1
1 1 1 1
1 1 1 1
1 1 1 1
0.999998 1 1 0.999998
1 1 1 1
1 1 1 1
1 1 1 1
1 1 1 1
1 1 1 1
1 1 1 1
0.999389 1.0001 1 0.999289
0.999939 1.00079 1 0.999149
0.999991 1.00088 1 0.999115
1.00009 1.00094 1 0.999147
0.999872 1.00067 1 0.9992
0.99943 1.00013 1 0.999296
1.00058 1.00136 1 0.999221
1.00539 1.01078 0.99527 0.999402
1.00758 1.00851 0.99968 0.999396
0.999905 1 1 0.999905
0.999385 1.00027 1 0.999114
0.999605 1.0005 1 0.999109
1.00087 1.00155 1 0.999322
0.999496 1 1 0.999496
1.00046 1 1.00124 0.999212
0.999254 1 1.00012 0.999136
0.999803 1.00037 1 0.999435
0.99948 1 1 0.99948
0.999481 1 1 0.999481
0.999364 1 1 0.999364
0.999991 1 1 0.999991
0.999518 1 1 0.999518
0.999857 1 1 0.999857
0.999651 1 1 0.999651
0.999857 1 1 0.999857
0.999882 1.00074 1 0.999142
0.999885 1 1 0.999885
0.999853 1 1 0.999853
0.999737 1 1 0.999737
1.00124 1.00205 1 0.999194
1.00101 1.00207 0.999469 0.999473
0.999732 1 1.00029 0.999438
1.00242 1 1.00333 0.999091
0.99941 1 1.00016 0.999248
0.999671 1 1 0.999671
0.999546 1 1 0.999546
0.999446 1 1 0.999446
0.999418 1 1.00009 0.999332
0.999423 1 1 0.999423
1.00231 1.00313 1.00004 0.999138
1.00146 1.00476 0.997374 0.999335
1.00014 1.0011 0.999716 0.999322
1.00125 1 1.00212 0.999127
1.00199 1 1.00265 0.999342
0.999739 1 1 0.999739
0.999692 1 1 0.999692
0.999637 1 1 0.999637
0.99956 1 1 0.99956
0.999469 1 1 0.999469
0.999355 1 1 0.999355
1.001 1 1.00171 0.999291
0.999536 1 1 0.999536
0.999421 1 1 0.999421
0.999359 1.00006 1 0.999296
1.00004 1.00095 0.999713 0.999375
1.0003 1.00113 1 0.999171
0.99996 1 1.00067 0.999287
1.00114 1 1.00207 0.999078
0.999457 1 1 0.999457
1.00783 1.00958 0.998936 0.999335
0.999362 1 1 0.999362
1.00099 1 1.00181 0.999186
0.999989 1.00294 0.99784 0.99922
1.00154 1 1.00252 0.999028
1.00817 1.01139 0.997595 0.999219
0.999398 1 1 0.999398
0.998486 1.00771 0.9916 0.999237
0.99973 1 1.00041 0.999325
1.0045 1 1.00538 0.999119
1.00055 1.00041 1.00109 0.999055
0.958906 0.963823 0.998569 0.996324
1.00384 1.00098 1.00429 0.998583
0.990563 1.00982 0.981611 0.999301
0.929482 0.94432 0.985734 0.998532
0.936773 0.969273 0.967465 0.998971
0.999492 1 1 0.999492
0.999443 1 1 0.999443
0.999412 1 1 0.999412
0.999849 1 1 0.999849
0.999698 1 1 0.999698
0.999613 1 1 0.999613
0.99953 1 1 0.99953
0.999454 1 1 0.999454
0.99961 1 1 0.99961
0.999836 1 1 0.999836
0.999704 1 1 0.999704
0.999445 1 1 0.999445
0.999542 1 1 0.999542
0.999553 1 1 0.999553
0.999472 1 1 0.999472
0.99959 1 1 0.99959
0.999692 1 1 0.999692
0.999825 1 1 0.999825
0.999719 1 1 0.999719
0.999628 1 1 0.999628
0.999704 1 1 0.999704
0.999716 1 1 0.999716
0.999843 1 1 0.999843
0.999826 1 1 0.999826
0.99999 1 1 0.99999
0.99999 1 1 0.99999
1 1 1 1
0.999991 1 1 0.999991
1 1 1 1
1 1 1 1
1 1 1 1
1 1 1 1
1 1 1 1
1 1 1 1
1 1 1 1
1 1 1 1
0.999997 1 1 0.999997
1 1 1 1
1 1 1 1
1 1 1 1
1 1 1 1
1 1 1 1
0.99992 1.00071 1 0.999206
1.00008 1.00093 1 0.999147
0.999306 1 1 0.999306
1.00681 1.01076 0.996687 0.999411
1.00065 1.00144 1 0.999218
1.00767 1.00851 0.999803 0.999361
1.0068 1.00765 1.00004 0.999124
0.978787 0.984914 0.995516 0.998256
1.00747 1.00865 0.999327 0.999496
0.999911 1 1 0.999911
0.999905 1 1 0.999905
0.999776 1 1 0.999776
0.999791 1 1 0.999791
0.999735 1.0006 1 0.999137
1.00154 1.00234 1 0.999197
1.00014 1.00122 0.999481 0.999443
0.999444 1 1 0.999444
1.00217 1 1.00309 0.999081
0.999385 1 1.00013 0.999254
0.999433 1 1 0.999433
0.999546 1 1.0002 0.999346
0.999433 1 1 0.999433
0.999852 1 1 0.999852
0.99954 1 1 0.99954
0.999684 1 1 0.999684
0.999895 1 1 0.999895
0.999719 1 1 0.999719
1.00184 1.00265 1.00003 0.999154
0.999758 1 1 0.999758
0.999704 1 1 0.999704
0.999636 1 1 0.999636
1.00255 1.00491 0.998305 0.99934
0.999591 1.00073 0.999541 0.999322
1.0017 1 1.00236 0.99934
1.00118 1 1.00207 0.999119
0.999564 1 1 0.999564
0.999473 1 1 0.999473
1.00036 1 1.00106 0.999292
0.999443 1 1.0001 0.999343
1.0081 1.00896 0.999954 0.999197
1.00137 1.00438 0.997704 0.999295
1.0001 1.0003 1.00073 0.999068
1.00124 1 1.00199 0.999252
0.999601 1 1 0.999601
0.999585 1 1 0.999585
0.999433 1 1 0.999433
1.00146 1 1.00223 0.999233
0.953678 0.963719 0.993349 0.996207
0.999466 1 1 0.999466
0.999365 1 1 0.999365
1.00748 1.00963 0.998534 0.999341
1.00121 1.0034 0.99857 0.99925
1.00218 1 1.00316 0.999024
1.00111 1 1.00192 0.999188
1.01021 1.01347 0.997573 0.999206
0.999404 1 1 0.999404
0.998583 1.00791 0.991511 0.999228
0.999576 1 1.00025 0.999327
1.00436 1 1.00524 0.999123
0.999925 1.00053 1.00033 0.999066
0.957712 0.964303 0.9966 0.996553
0.998201 0.997355 1.00292 0.997929
0.993907 1.01161 0.983156 0.999329
0.935592 0.946889 0.989849 0.998203
0.929911 0.964551 0.965137 0.998912
0.999405 1 1 0.999405
0.937381 0.94628 0.992733 0.997848
0.952676 0.970199 0.982834 0.999088
0.979863 1.00201 0.978663 0.999219
1.00243 1 1.00312 0.999313
1.00897 1 1.00981 0.999168
0.994544 1.01017 0.985178 0.999346
0.96991 0.970814 1.00301 0.99607
1.00657 1.00375 1.00505 0.997769
0.929729 0.951967 0.978167 0.99844
0.976426 1.00163 0.975483 0.999337
0.999446 1 1 0.999446
0.999413 1 1 0.999413
0.999402 1 1 0.999402
0.999846 1 1 0.999846
0.999713 1 1 0.999713
0.999598 1 1 0.999598
0.999538 1 1 0.999538
0.999451 1 1 0.999451
0.999825 1 1 0.999825
0.999554 1 1 0.999554
0.999603 1 1 0.999603
0.999703 1 1 0.999703
0.999461 1 1 0.999461
0.999513 1 1 0.999513
0.999621 1 1.0002 0.999424
0.999604 1 1 0.999604
0.999712 1 1 0.999712
0.999719 1 1 0.999719
0.999615 1 1 0.999615
0.999616 1 1 0.999616
0.999601 1 1 0.999601
0.99955 1 1 0.99955
0.99954 1 1 0.99954
0.999683 1 1 0.999683
0.999704 1 1 0.999704
0.999837 1 1 0.999837
0.9997 1 1 0.9997
0.999834 1 1 0.999834
0.999988 1 1 0.999988
0.999826 1 1 0.999826
0.999989 1 1 0.999989
1 1 1 1
0.99999 1 1 0.99999
1 1 1 1
1 1 1 1
1 1 1 1
1 1 1 1
1 1 1 1
0.999907 1 1 0.999907
1 1 1 1
1 1 1 1
1 1 1 1
1 1 1 1
1 1 1 1
1 1 1 1
1 1 1 1
1 1 1 1
1 1 1 1
1.00835 1.0111 0.997862 0.99942
1.00074 1.00153 1 0.999214
1.00771 1.00848 0.999903 0.999327
0.980443 0.98446 0.997253 0.998663
1.00767 1.00848 0.99969 0.999507
1.00721 1.00808 1.00003 0.999109
1.01002 1.0092 1.00159 0.999223
0.986407 0.986526 1.00134 0.998537
0.961529 0.967064 0.99872 0.995551
0.922845 0.9443 0.979583 0.997648
0.931813 0.961226 0.970407 0.998963
0.999771 1 1 0.999771
0.999911 1 1 0.999911
0.999904 1 1 0.999904
0.99977 1 1 0.99977
0.999685 1 1 0.999685
0.999705 1 1 0.999705
0.999775 1 1 0.999775
0.999783 1 1 0.999783
1.00132 1.00213 1.00003 0.999171
1.00359 1.00513 0.999126 0.999345
0.999125 1.00049 0.999317 0.999322
1.00173 1 1.00239 0.999339
1.00157 1 1.00247 0.999112
0.999741 1 1.00045 0.999292
0.999504 1 1.00017 0.999332
0.999477 1 1 0.999477
0.999715 1 1 0.999715
0.999568 1 1 0.999568
0.999776 1 1 0.999776
0.999635 1 1 0.999635
1.00836 1.00973 0.999465 0.999177
0.999608 1 1 0.999608
0.999587 1 1 0.999587
1.00041 1.00385 0.997283 0.999292
0.999863 1.00036 1.0004 0.999101
1.00181 1 1.00258 0.99923
0.999428 1 1 0.999428
1.00138 1 1.00214 0.999237
1.00144 1.01195 0.990472 0.999141
1.00015 1.00085 1.00017 0.999125
1.00018 1 1.00103 0.999149
1.00431 1 1.0051 0.999215
0.999528 1 1 0.999528
0.999466 1 1 0.999466
0.999852 1 1.00054 0.999308
0.932418 0.948709 0.984544 0.998257
0.96002 0.965575 0.997851 0.996387
0.999409 1 1 0.999409
0.999329 1 1 0.999329
0.999032 1.00831 0.991577 0.999219
0.999201 1.00069 0.999438 0.999078
1.00398 1 1.00485 0.999127
0.958896 0.964993 0.998152 0.995522
0.998387 0.99796 1.00184 0.99859
0.997502 1.01381 0.984545 0.999357
0.930131 0.946952 0.984407 0.997794
0.922488 0.959357 0.962674 0.998853
0.999404 1 1 0.999404
0.931481 0.948326 0.983874 0.998337
0.95473 0.96835 0.98682 0.999102
0.981953 1.00221 0.980566 0.999209
1.00192 1 1.0026 0.999317
1.00822 1 1.00904 0.999182
0.989952 1.0076 0.983137 0.999335
0.971404 0.972653 1.00295 0.995774
1.00128 0.998997 1.00383 0.998457
0.931579 0.952059 0.980707 0.997738
0.97051 0.999199 0.971986 0.999282
0.999387 1 1 0.999387
0.970041 0.973026 0.997588 0.999342
1.01496 1.01744 0.997914 0.999648
0.990108 1 0.990761 0.999341
1.00717 1 1.00773 0.999441
1.00868 1.00361 1.00542 0.999633
0.996049 0.995804 1.00121 0.99904
0.975449 0.973225 1.00639 0.995919
0.949362 0.973023 0.977929 0.997703
0.995165 1.01773 0.978322 0.999493
0.999415 1 1 0.999415
0.999395 1 1 0.999395
0.999822 1 1.00042 0.999401
0.999825 1 1 0.999825
0.999713 1 1 0.999713
0.999616 1 1 0.999616
0.999555 1 1 0.999555
0.99945 1 1 0.99945
0.999712 1 1 0.999712
0.999522 1 1 0.999522
0.999604 1 1 0.999604
0.999664 1 1.00024 0.999419
0.999957 1 1.00055 0.999402
0.999582 1 1.00009 0.999495
0.999609 1 1 0.999609
0.999718 1 1 0.999718
0.999602 1 1 0.999602
0.999616 1 1 0.999616
0.9996 1 1 0.9996
0.999547 1 1 0.999547
0.999573 1 1 0.999573
0.999542 1 1 0.999542
0.999504 1 1 0.999504
0.999467 1 1 0.999467
0.999468 1 1 0.999468
0.99952 1 1 0.99952
0.999541 1 1 0.999541
0.999656 1 1 0.999656
0.999682 1 1 0.999682
0.999824 1 1 0.999824
0.999704 1 1 0.999704
0.999837 1 1 0.999837
0.999986 1 1 0.999986
0.999825 1 1 0.999825
0.999988 1 1 0.999988
1 1 1 1
0.999989 1 1 0.999989
1 1 1 1
1 1 1 1
1 1 1 1
1 1 1 1
1 1 1 1
0.999915 1 1 0.999915
1 1 1 1
0.999907 1 1 0.999907
1 1 1 1
1 1 1 1
1 1 1 1
1 1 1 1
1 1 1 1
1 1 1 1
1 1 1 1
1 1 1 1
0.931981 0.946121 0.986563 0.998472
0.957074 0.96929 0.988133 0.999255
0.983518 0.98512 0.999391 0.998982
1.00771 1.00832 0.999878 0.999518
1.00766 1.00855 1.00003 0.999093
0.98595 0.985026 1.00167 0.999268
1.00902 1.009 1.0008 0.999231
0.964428 0.969134 0.998795 0.996344
0.930376 0.945324 0.985712 0.998453
0.927618 0.961034 0.966283 0.99891
1.00045 0.997569 1.00343 0.999456
0.9711 0.972563 1.00227 0.996237
0.927797 0.950965 0.977175 0.998426
0.971256 0.995989 0.975977 0.99917
0.999651 1 1 0.999651
0.999779 1 1 0.999779
0.999911 1 1 0.999911
0.999765 1 1 0.999765
0.999695 1 1 0.999695
0.999667 1 1 0.999667
0.999708 1 1 0.999708
0.999724 1 1 0.999724
0.999764 1 1 0.999764
0.999774 1 1 0.999774
1.00862 1.01046 0.999025 0.999158
0.99959 1.00325 0.997063 0.999289
0.999635 1.00037 1.00013 0.999134
1.00214 1 1.00293 0.999208
1.00121 1 1.00198 0.999241
0.999423 1 1 0.999423
0.999588 1 1 0.999588
0.999615 1 1 0.999615
1.00292 1.01177 0.992138 0.999112
0.999523 1 1 0.999523
0.999452 1 1 0.999452
0.999478 1.00054 0.999843 0.999097
1.00051 1 1.00133 0.999183
1.00336 1 1.00416 0.999199
1.00042 1 1.00112 0.999301
1.00403 1.01275 0.992393 0.998997
1.00584 1 1.00658 0.999257
1.00397 1 1.00476 0.999214
0.999516 1 1 0.999516
0.999433 1 1 0.999433
0.999337 1 1 0.999337
0.969207 0.974159 0.995652 0.999262
0.934639 0.947843 0.988323 0.99772
0.957125 0.965399 0.995221 0.996191
0.999403 1 1 0.999403
1.0015 1 1.00218 0.999322
0.983904 1.00233 0.982407 0.999199
1.00767 1 1.00848 0.999195
0.929357 0.947913 0.982688 0.997697
0.969823 0.971893 1.00104 0.99683
1.00239 0.999983 1.0046 0.997817
0.987842 1.00518 0.983409 0.999332
0.935179 0.95187 0.983921 0.998521
0.955277 0.968959 0.986819 0.999048
0.96272 0.993508 0.969801 0.999185
0.999385 1 1 0.999385
0.966642 0.972748 0.994439 0.999279
1.01442 1.01699 0.997815 0.999651
0.992262 1 0.992908 0.999349
1.00733 1 1.00789 0.999444
1.00815 1.00315 1.00574 0.999247
0.996716 0.996001 1.00265 0.998074
0.974042 0.974693 1.00353 0.995816
0.955094 0.975983 0.97995 0.99862
0.988211 1.01147 0.977592 0.999403
0.999758 1 1.00021 0.999549
1.0202 1.02067 0.999791 0.999747
1.02383 1.0267 0.997399 0.999801
1.00796 1 1.00825 0.999717
0.997596 0.991768 1.00632 0.999563
0.981212 0.979378 1.00607 0.995831
0.977054 0.991585 0.986623 0.998705
0.989574 1.01351 0.976996 0.999375
0.999387 1 1 0.999387
0.99977 1 1.00036 0.999415
1.00077 1 1.0013 0.999467
0.999712 1 1 0.999712
0.999604 1 1 0.999604
0.999531 1 1 0.999531
0.999696 1 1.00028 0.999415
0.999609 1 1 0.999609
0.999527 1 1.00003 0.999496
1.00034 1 1.00093 0.999404
1.00032 1 1.00086 0.999463
0.999631 1 1.00021 0.999418
0.99953 1 1 0.99953
0.999616 1 1 0.999616
0.9996 1 1 0.9996
0.999544 1 1 0.999544
0.999543 1 1 0.999543
0.999573 1 1 0.999573
0.999509 1 1 0.999509
0.999479 1 1 0.999479
0.999478 1 1 0.999478
0.999436 1 1 0.999436
0.99947 1 1 0.99947
0.999448 1 1 0.999448
0.999409 1 1 0.999409
0.999548 1 1 0.999548
0.999497 1 1 0.999497
0.999531 1 1 0.999531
0.999615 1 1 0.999615
0.999541 1 1 0.999541
0.999655 1 1 0.999655
0.999802 1 1 0.999802
0.999682 1 1 0.999682
0.999823 1 1 0.999823
0.999982 1 1 0.999982
0.999836 1 1 0.999836
0.999985 1 1 0.999985
1 1 1 1
0.999987 1 1 0.999987
1 1 1 1
1 1 1 1
1 1 1 1
1 1 1 1
1 1 1 1
0.999872 1 1 0.999872
1 1 1 1
0.999897 1 1 0.999897
1 1 1 1
1 1 1 1
0.999908 1 1 0.999908
1 1 1 1
1 1 1 1
1 1 1 1
1 1 1 1
1 1 1 1
1 1 1 1
0.97031 0.973239 0.997591 0.999399
0.932704 0.94613 0.987732 0.998054
1.01302 1.01756 0.995904 0.999633
0.954074 0.967372 0.987035 0.999209
0.982047 0.983685 0.999902 0.998433
1.00811 1.00884 1.00004 0.999239
0.965512 0.96899 0.999247 0.997162
0.928094 0.946392 0.982931 0.997694
0.923484 0.960969 0.962092 0.998856
0.997945 0.998576 1.00023 0.999138
0.970649 0.970836 1.00377 0.996053
0.929925 0.954427 0.97658 0.997694
0.971678 0.996392 0.976007 0.99917
1.00029 1.00409 0.996955 0.999265
0.971152 0.970932 1.00436 0.995888
0.958596 0.978583 0.980974 0.998574
0.992896 1.01593 0.977883 0.999433
0.999579 1 1 0.999579
0.999663 1 1 0.999663
0.999787 1 1 0.999787
0.999705 1 1 0.999705
0.9996 1 1 0.9996
0.999676 1 1 0.999676
0.99971 1 1 0.99971
0.99971 1 1 0.99971
0.999735 1 1 0.999735
0.999753 1 1 0.999753
1.00454 1.01191 0.993619 0.999083
0.998433 1.00022 0.999148 0.999069
1.00081 1 1.00159 0.999216
1.00267 1 1.00349 0.999184
1.00105 1 1.00176 0.999293
0.999438 1 1 0.999438
0.999518 1 1 0.999518
0.999517 1 1 0.999517
1.00194 1.01039 0.992621 0.999014
0.999441 1 1 0.999441
0.999426 1 1.00009 0.999335
1.00453 1 1.00531 0.999222
1.00383 1 1.00462 0.999215
0.99838 1.01062 0.988715 0.999166
1.01601 1 1.01665 0.999372
1.00006 1 1.00078 0.999284
0.999453 1 1 0.999453
0.999339 1 1 0.999339
1.02117 1.02164 0.999768 0.999776
0.970137 0.973637 0.997059 0.999344
0.934181 0.948567 0.986376 0.998436
0.999383 1 1 0.999383
1.00729 1 1.00785 0.999447
0.993485 1 0.994124 0.999357
0.970859 0.973769 0.997628 0.999383
0.97384 0.972349 1.00579 0.995766
0.998047 0.995939 1.00325 0.998871
1.00447 1.002 1.00363 0.998837
0.951068 0.972564 0.980147 0.997706
1.01416 1.01685 0.997703 0.999655
0.986635 1.00949 0.977931 0.999413
0.999697 1 1.00014 0.999562
1.02038 1.02068 0.999921 0.999786
1.02471 1.0279 0.997088 0.999803
1.00796 0.999985 1.00837 0.99961
0.998496 0.993857 1.0054 0.999271
0.984709 0.98141 1.00765 0.995742
0.992891 1.01761 0.976242 0.999452
0.968622 0.985537 0.984536 0.998274
0.999975 1 1.00026 0.999711
1.02524 1.02701 0.998346 0.999927
1.02713 1.02994 0.997446 0.999823
0.99391 1.01499 0.979787 0.999435
1.00543 0.993808 1.01187 0.999832
0.982503 0.98009 1.00635 0.996139
0.963178 0.979468 0.984767 0.99858
0.999697 1 1.00027 0.99943
1.00052 1 1.00109 0.999431
1.00312 1 1.00355 0.999569
0.999609 1 1 0.999609
0.999496 1 1 0.999496
1.00078 1 1.00138 0.999406
0.999533 1 1 0.999533
0.999742 1 1.00033 0.999417
1.0007 1 1.00126 0.99944
0.999863 1 1.00035 0.999509
0.999446 1 1 0.999446
0.999545 1 1 0.999545
0.999573 1 1 0.999573
0.999513 1 1 0.999513
0.999479 1 1 0.999479
0.999482 1 1 0.999482
0.99945 1 1 0.99945
0.999458 1 1 0.999458
1.00016 1 1.00084 0.999325
0.999473 1 1 0.999473
0.999445 1 1 0.999445
0.999317 1 1 0.999317
0.99942 1 1 0.99942
0.999532 1 1 0.999532
0.999411 1 1 0.999411
0.999614 1 1 0.999614
0.99954 1 1 0.99954
0.999527 1 1 0.999527
0.999542 1 1 0.999542
0.999625 1 1 0.999625
0.999776 1 1 0.999776
0.999655 1 1 0.999655
0.999802 1 1 0.999802
0.999977 1 1 0.999977
0.999822 1 1 0.999822
0.999981 1 1 0.999981
1 1 1 1
0.999984 1 1 0.999984
1 1 1 1
1 1 1 1
1 1 1 1
1 1 1 1
1 1 1 1
0.999816 1 1 0.999816
0.999975 1 1 0.999975
0.999871 1 1 0.999871
1 1 1 1
0.99999 1 1 0.99999
0.999878 1 1 0.999878
1 1 1 1
1 1 1 1
1 1 1 1
1 1 1 1
1 1 1 1
1 1 1 1
1.0201 1.02069 0.999662 0.999762
0.965034 0.972508 0.993073 0.999235
0.935419 0.946289 0.990704 0.997788
0.999666 1 1 0.999666
1.02623 1.02905 0.997425 0.999842
1.01421 1.01796 0.99668 0.999637
0.949585 0.967563 0.982316 0.999087
0.996052 0.999373 0.99789 0.998784
0.971399 0.971501 1.00373 0.99618
0.933681 0.957423 0.976695 0.998473
0.969522 0.994069 0.976185 0.999101
1.00159 1.00719 0.996052 0.998381
0.972019 0.971361 1.00471 0.995982
0.959119 0.978499 0.981962 0.998201
0.990141 1.0143 0.976804 0.999363
0.994063 0.998517 0.997476 0.998059
0.977233 0.974483 1.00777 0.995089
0.969071 0.988132 0.982805 0.997868
0.990458 1.0157 0.97577 0.999361
0.999509 1 1 0.999509
0.999572 1 1 0.999572
0.999675 1 1 0.999675
0.999585 1 1 0.999585
0.999614 1 1 0.999614
0.999684 1 1 0.999684
0.999714 1 1 0.999714
0.999746 1 1 0.999746
0.999863 1.00784 0.993047 0.999031
1.00323 1 1.00404 0.999187
0.999518 1 1 0.999518
1.00359 1 1.00438 0.999216
0.9995 1 1.00017 0.999333
0.999449 1 1 0.999449
0.999455 1 1 0.999455
1.00179 1.00979 0.992902 0.999174
0.999348 1 1 0.999348
1.00088 1 1.0016 0.999278
1.0145 1 1.01516 0.999354
0.999456 1 1 0.999456
0.999359 1.00289 0.996934 0.999545
1.01309 1 1.01363 0.99946
0.999352 1 1 0.999352
0.999392 1 1 0.999392
1.02541 1.02618 0.999312 0.999933
1.0206 1.02111 0.999723 0.99978
0.971019 0.97298 0.998555 0.999429
0.999574 1 1 0.999574
1.00843 0.999979 1.00895 0.999505
1.02052 1.0207 0.999995 0.999825
0.980461 0.976388 1.00838 0.995828
1.00177 0.995885 1.00753 0.998394
0.967973 0.986326 0.983468 0.99789
1.02532 1.02881 0.996807 0.999806
0.99668 1.02222 0.975472 0.999529
1.00015 1 1.00047 0.999678
1.02592 1.02776 0.998278 0.999927
1.02731 1.0299 0.997638 0.999853
1.00667 0.995016 1.01179 0.999931
0.990395 1.01311 0.978199 0.999364
0.981097 0.980964 1.00385 0.996302
0.964633 0.98292 0.983571 0.997788
1.00636 0.998015 1.0086 0.999771
1.02269 1.02465 0.998144 0.999947
1.02712 1.0293 0.998035 0.999839
0.970966 0.99583 0.97583 0.999182
0.967618 0.98668 0.982769 0.997874
1.00197 0.991867 1.01004 1.00014
0.977963 0.975301 1.00675 0.996006
1.00029 1 1.00089 0.999395
1.00223 1 1.00268 0.999554
1.0122 1 1.01262 0.999581
0.999535 1 1 0.999535
0.999781 1 1.00037 0.999416
1.00095 1 1.00154 0.999416
0.999446 1 1 0.999446
0.99994 1 1.00043 0.999507
1.00282 1 1.00337 0.999448
0.999479 1 1 0.999479
0.999485 1 1 0.999485
0.99962 1 1.00018 0.999442
1.00187 1 1.00255 0.999325
0.999481 1 1 0.999481
0.999874 1 1.00053 0.999345
1.00063 1 1.00141 0.999215
0.999283 1 1.00001 0.999277
0.999442 1 1 0.999442
0.999299 1 1 0.999299
0.999475 1 1 0.999475
0.999513 1 1 0.999513
0.999435 1 1 0.999435
0.999611 1 1 0.999611
0.99953 1 1 0.99953
0.999413 1 1 0.999413
0.999752 1 1 0.999752
0.99961 1 1 0.99961
0.999533 1 1 0.999533
0.999635 1 1 0.999635
0.999776 1 1 0.999776
0.999968 1 1 0.999968
0.999802 1 1 0.999802
0.999975 1 1 0.999975
1 1 1 1
0.99998 1 1 0.99998
1 1 1 1
1 1 1 1
1 1 1 1
1 1 1 1
1 1 1 1
0.99979 1 1 0.99979
0.999958 1 1 0.999958
0.999827 1 1 0.999827
1 1 1 1
0.999974 1 1 0.999974
0.99987 1 1 0.99987
1 1 1 1
1 1 1 1
0.99998 1 1 0.99998
1 1 1 1
1 1 1 1
1 1 1 1
1.02633 1.02731 0.999119 0.999923
1.01996 1.02073 0.999473 0.999764
0.966123 0.972511 0.994187 0.99924
0.999671 1 1 0.999671
0.999639 1 1 0.999639
0.999587 1 1 0.999587
1.02619 1.02913 0.997318 0.999822
1.02698 1.02943 0.997777 0.999844
1.01593 1.01836 0.997973 0.99964
1.00793 1.01067 0.998149 0.999143
0.972279 0.970985 1.00541 0.995942
0.955203 0.975181 0.98177 0.997702
0.991423 1.0164 0.976008 0.999407
0.990289 0.996579 0.994814 0.99887
0.977135 0.974437 1.00689 0.995902
0.971222 0.987679 0.984713 0.998603
0.993121 1.0191 0.975053 0.999444
0.982136 0.989721 0.993389 0.99894
0.981898 0.976778 1.00923 0.996049
0.96855 0.983489 0.986268 0.998523
0.993547 1.01627 0.978141 0.999488
0.999491 1 1 0.999491
0.999509 1 1 0.999509
0.999565 1 1 0.999565
0.999583 1 1 0.999583
0.999627 1 1 0.999627
0.999717 1 1 0.999717
1.00542 1.00883 0.997439 0.999183
1.01288 1 1.01356 0.999336
0.999456 1 1 0.999456
1.00158 1 1.00231 0.999272
0.999358 1 1 0.999358
0.999452 1 1 0.999452
0.999389 1 1 0.999389
1.00186 1.0039 0.998429 0.999536
0.999369 1 1 0.999369
1.01274 0.999153 1.01412 0.999485
0.999426 1 1 0.999426
1.01756 0.996618 1.02127 0.999754
0.998152 0.998092 1.00044 0.999624
0.999368 1 1 0.999368
1.0204 1.02142 0.99904 0.999961
1.02467 1.02554 0.99921 0.999939
1.02 1.02057 0.99965 0.999784
1.00035 1 1.00071 0.999645
1.00235 0.994656 1.00775 0.999985
1.02654 1.02844 0.998226 0.999927
0.988322 0.984545 1.00616 0.997688
0.97248 0.98732 0.986275 0.998676
1.02777 1.02993 0.998015 0.999884
0.992283 1.01532 0.97789 0.999409
1.00527 0.99862 1.00687 0.999788
1.02227 1.02386 0.998493 0.999951
1.02803 1.02969 0.998548 0.999841
1.00316 0.990691 1.01341 0.99918
0.970972 0.99636 0.975321 0.999178
0.969183 0.986247 0.984075 0.998602
0.981903 0.978056 1.00776 0.996205
1.02489 0.999283 1.02574 0.999889
1.02634 1.02712 0.999325 0.999921
1.01452 1.01816 0.996799 0.999628
0.930897 0.960182 0.970502 0.998969
0.956201 0.976944 0.980132 0.998607
0.987239 0.980422 1.01089 0.996104
0.982458 0.988718 0.994759 0.998904
1.00121 1 1.00167 0.999539
1.01327 1 1.01369 0.999586
1.0195 1 1.01998 0.999532
0.999445 1 1 0.999445
1.00006 1 1.00055 0.999504
1.00226 1 1.00281 0.999456
1.01044 1 1.01112 0.999328
0.999752 1 1.00032 0.999433
1.00211 1 1.00281 0.999303
1.00559 1 1.00645 0.999141
0.999596 1 1.00023 0.999366
1.00109 1 1.00188 0.999211
1.00155 1 1.00243 0.999118
0.999188 1 1.00001 0.999181
0.99941 1 1 0.99941
0.999354 1 1.00009 0.999263
0.99928 1 1 0.99928
0.999531 1 1 0.999531
0.999491 1 1 0.999491
0.99958 1 1 0.99958
0.999524 1 1 0.999524
0.99945 1 1 0.99945
0.999731 1 1 0.999731
0.999612 1 1 0.999612
0.999528 1 1 0.999528
0.999954 1 1 0.999954
0.999753 1 1 0.999753
0.999606 1 1 0.999606
0.999776 1 1 0.999776
0.999965 1 1 0.999965
1 1 1 1
0.999973 1 1 0.999973
1 1 1 1
1 1 1 1
1 1 1 1
1 1 1 1
1 1 1 1
0.999786 1 1 0.999786
0.999973 1 1 0.999973
0.999799 1 1 0.999799
1 1 1 1
0.999972 1 1 0.999972
0.999838 1 1 0.999838
1 1 1 1
1 1 1 1
0.999973 1 1 0.999973
1 1 1 1
1 1 1 1
1 1 1 1
1.02299 1.02462 0.998468 0.999945
1.02666 1.02773 0.999037 0.999923
1.0197 1.02078 0.999175 0.999767
0.999627 1 1 0.999627
0.999572 1 1 0.999572
0.999675 1 1 0.999675
0.999637 1 1 0.999637
0.999576 1 1 0.999576
0.999567 1 1 0.999567
0.99952 1 1 0.99952
1.02257 1.02505 0.997775 0.9998
1.02659 1.0294 0.997419 0.999853
1.02737 1.02982 0.997777 0.999846
0.996656 1.02316 0.974559 0.999527
0.991817 1.00002 0.993695 0.998086
0.979769 0.975757 1.00747 0.996668
0.971027 0.984257 0.988782 0.997751
0.98444 0.989869 0.996028 0.998481
0.981987 0.97866 1.00746 0.995966
0.969965 0.987096 0.984828 0.997784
0.988639 1.01187 0.977652 0.999379
0.977916 0.983198 0.995354 0.99927
0.976251 0.980153 1.00012 0.995895
0.983128 0.995895 0.988532 0.998633
0.977191 1.00044 0.977422 0.999327
0.999475 1 1 0.999475
0.99949 1 1 0.99949
0.999509 1 1 0.999509
0.999582 1 1 0.999582
1.00385 1.00489 0.999434 0.999527
1.01268 0.998226 1.01497 0.999509
0.999449 1 1 0.999449
0.999386 1 1 0.999386
0.999385 1 1 0.999385
0.999428 1 1 0.999428
0.99936 1 1 0.99936
1.00864 0.994502 1.01446 0.999755
0.999123 0.999017 1.00044 0.999668
0.999382 1 1 0.999382
1.01811 0.990083 1.02837 0.999943
1.00336 1 1.00395 0.999413
1.02591 1.02635 0.999645 0.999931
1.01813 1.019 0.999185 0.999967
1.02403 1.02491 0.999198 0.999945
1.00409 0.999178 1.00511 0.999805
1.0045 0.990653 1.01388 1.0001
1.02184 1.02312 0.998792 0.999955
0.977872 0.975241 1.00671 0.996015
0.967789 0.982091 0.987646 0.997764
1.02849 1.03007 0.998619 0.999843
0.96923 0.99384 0.976102 0.999115
1.02686 0.99841 1.02863 0.999873
1.02658 1.02749 0.999189 0.999922
1.01573 1.01857 0.997579 0.999631
0.986964 0.991399 0.9956 0.999926
0.926556 0.960018 0.966192 0.998916
0.955287 0.975548 0.980965 0.998233
0.989192 0.980648 1.01238 0.996376
1.01367 0.997889 1.01598 0.999835
1.02057 1.02078 1.00004 0.999757
0.957041 0.968892 0.9885 0.99926
0.926295 0.94925 0.977351 0.998431
0.980285 0.975909 1.00854 0.995978
0.98152 0.990301 0.992654 0.998468
1.01446 1 1.01487 0.99959
1.02018 1 1.02066 0.999529
1.01523 1 1.01581 0.999434
1.00176 1 1.0023 0.999465
1.01089 1 1.01154 0.999348
1.00823 1 1.0091 0.999141
1.00247 1 1.00319 0.999281
1.0056 1 1.00648 0.999122
1.00311 1 1.00409 0.99902
1.00157 1 1.00236 0.999208
1.00139 1 1.00229 0.9991
1.00083 1 1.00177 0.999068
0.999161 1 1 0.999161
0.999303 1 1 0.999303
0.999277 1 1.00011 0.999164
0.999496 1 1 0.999496
0.999421 1 1 0.999421
0.999423 1 1.00017 0.999248
0.99956 1 1 0.99956
0.999526 1 1 0.999526
0.999508 1 1 0.999508
0.999699 1 1 0.999699
0.999587 1 1 0.999587
0.999534 1 1 0.999534
0.999931 1 1 0.999931
0.999732 1 1 0.999732
0.999613 1 1 0.999613
1 1 1 1
0.999952 1 1 0.999952
0.999754 1 1 0.999754
0.999962 1 1 0.999962
1 1 1 1
1 1 1 1
1 1 1 1
1 1 1 1
1 1 1 1
0.999628 1 1 0.999628
0.999763 1 1 0.999763
0.999963 1 1 0.999963
0.999786 1 1 0.999786
1 1 1 1
0.999976 1 1 0.999976
0.999807 1 1 0.999807
1 1 1 1
1 1 1 1
0.999986 1 1 0.999986
1 1 1 1
1 1 1 1
1 1 1 1
1.02572 1.02647 0.999336 0.999926
1.02266 1.02388 0.998852 0.999949
1.02703 1.02815 0.998978 0.999923
0.999632 1 1 0.999632
0.999565 1 1 0.999565
0.999548 1 1 0.999548
0.999559 1 1 0.999559
0.999531 1 1 0.999531
0.999635 1 1 0.999635
0.999565 1 1 0.999565
0.999568 1 1 0.999568
0.999518 1 1 0.999518
0.999518 1 1 0.999518
1.01435 1.01555 0.999178 0.99964
1.02341 1.02619 0.997493 0.999802
1.0267 1.02943 0.997465 0.999883
0.986582 1.00961 0.977791 0.999391
0.975799 0.989463 0.987531 0.998643
0.983222 0.988296 0.996788 0.998071
0.979287 0.980025 1.0032 0.996063
0.981907 0.983443 1.00006 0.998378
0.980328 0.979183 1.00517 0.996018
0.973511 0.989692 0.985402 0.998222
0.972265 0.998202 0.974725 0.999273
0.997497 0.982162 1.01702 0.998615
0.978967 0.98112 1.00167 0.996144
0.950925 0.973904 0.978632 0.997724
0.9378 0.969864 0.967938 0.998968
0.999555 1 1 0.999555
0.999476 1 1 0.999476
0.999488 1 1 0.999488
1.00048 0.992871 1.00791 0.999756
1.00012 1 1.00041 0.999714
0.99943 1 1 0.99943
0.999351 1 1 0.999351
0.999423 1 1.00003 0.99939
1.00385 1 1.00444 0.999413
1.01776 0.991622 1.02642 0.999945
1.00379 1 1.00435 0.999433
1.01125 0.997552 1.01406 0.999676
1.02059 1.02082 1 0.999768
1.0251 1.02558 0.999593 0.999938
1.01581 1.01657 0.999277 0.999972
1.02867 0.99759 1.03131 0.999855
0.985728 0.990483 0.996474 0.99872
1.02686 1.02787 0.999098 0.999922
0.981006 0.978714 1.00721 0.995169
0.952863 0.973506 0.98099 0.997762
1.01754 1.01898 0.998948 0.999635
0.92285 0.960177 0.962219 0.998863
1.01406 0.998271 1.01598 0.999838
1.02052 1.02087 0.999899 0.99976
0.953855 0.966728 0.98746 0.999214
0.978644 0.989591 0.989952 0.998976
0.929162 0.953302 0.976909 0.997716
0.97998 0.97692 1.00766 0.995507
0.995216 0.99765 0.997917 0.999643
0.970169 0.973093 0.99759 0.999403
0.923313 0.943679 0.980711 0.997662
0.974816 0.973061 1.00592 0.99591
0.997877 0.996502 1.0024 0.998979
1.02042 1 1.02091 0.999526
1.01782 1 1.0184 0.999433
0.997495 1 0.998224 0.999269
1.01116 1 1.01179 0.999368
1.00776 1 1.00861 0.999157
1.00163 1 1.00257 0.999056
1.0055 1 1.0064 0.999103
1.00275 1 1.00373 0.999022
0.999126 1 1.00003 0.999092
1.00122 1 1.00214 0.999081
1.0004 1 1.00133 0.999075
0.999176 1 1 0.999176
0.999247 1 1 0.999247
0.999244 1 1 0.999244
0.999166 1 1 0.999166
0.999412 1 1 0.999412
0.999282 1 1 0.999282
0.99937 1 1.00022 0.999147
0.999563 1 1 0.999563
0.999509 1 1 0.999509
0.999432 1 1 0.999432
0.999664 1 1 0.999664
0.999562 1 1 0.999562
0.999522 1 1 0.999522
0.999897 1 1 0.999897
0.999699 1 1 0.999699
0.999595 1 1 0.999595
1 1 1 1
0.99993 1 1 0.99993
0.999733 1 1 0.999733
1 1 1 1
1 1 1 1
0.999949 1 1 0.999949
1 1 1 1
1 1 1 1
1 1 1 1
0.999603 1 1 0.999603
0.99974 1 1 0.99974
0.999622 1 1 0.999622
0.999955 1 1 0.999955
0.999763 1 1 0.999763
1 1 1 1
0.999966 1 1 0.999966
0.999786 1 1 0.999786
1 1 1 1
1 1 1 1
0.999979 1 1 0.999979
1 1 1 1
1 1 1 1
1 1 1 1
1.01933 1.01953 1 0.999808
1.02664 1.02743 0.999312 0.999925
1.0223 1.02319 0.999182 0.999953
0.999554 1 1 0.999554
0.999637 1 1 0.999637
0.999558 1 1 0.999558
0.999567 1 1 0.999567
0.999554 1 1 0.999554
0.99953 1 1 0.99953
0.99951 1 1 0.99951
0.999515 1 1 0.999515
0.999569 1 1 0.999569
0.999516 1 1 0.999516
0.999518 1 1 0.999518
0.999507 1 1 0.999507
0.955194 0.970781 0.984853 0.999077
1.01348 1.01479 0.99907 0.999643
1.02459 1.02757 0.997295 0.999805
0.965571 0.993862 0.972352 0.999159
0.975086 0.991874 0.985182 0.997861
0.975133 0.979357 0.999777 0.995908
0.984341 0.980591 1.00447 0.999354
0.996813 0.980608 1.01698 0.999552
0.931681 0.965074 0.966443 0.998919
0.981838 0.979969 1.00635 0.995588
0.952152 0.973973 0.979005 0.99856
0.992645 0.989003 1.00416 0.999526
0.97682 0.975483 1.00512 0.996269
0.92753 0.949643 0.978236 0.998444
1.00009 1 1.00041 0.999679
0.999556 1 1 0.999556
0.999477 1 1 0.999477
1.01729 0.993184 1.02433 0.999944
1.00447 1 1.00506 0.999412
0.999449 1 1.00005 0.999398
1.00408 1 1.00465 0.999436
1.01082 0.99864 1.01251 0.999687
1.00907 1 1.00939 0.999685
0.968937 0.973711 0.9959 0.999193
1.02032 1.02053 0.999986 0.999808
1.02438 1.02483 0.999616 0.999945
1.01447 0.998693 1.01596 0.999843
0.980163 0.991777 0.988941 0.999341
1.02038 1.02097 0.999666 0.999762
0.9824 0.978096 1.00766 0.996761
0.932997 0.956163 0.977256 0.998482
0.948902 0.966951 0.982225 0.999092
0.994893 0.998268 0.996959 0.99966
0.964439 0.972201 0.992772 0.999238
0.931121 0.944356 0.987497 0.998469
0.997737 0.994664 1.00494 0.998155
0.976272 0.975542 1.00479 0.995979
0.990177 1.00562 0.985175 0.999465
0.931748 0.946175 0.986247 0.998485
0.973322 0.973097 1.00409 0.996156
1.00253 1.0033 1.00119 0.99804
1.02122 1 1.02181 0.999431
0.994937 1 0.995652 0.999282
0.990075 1.00022 0.990608 0.999247
1.00748 1 1.00831 0.999173
1.0016 1 1.00255 0.999059
0.999573 1.00035 1 0.999227
1.00242 1 1.00339 0.999025
0.999402 1 1.0003 0.999102
0.999328 1.00001 1 0.999315
0.999974 1 1.00089 0.999083
0.999181 1 1 0.999181
0.999359 1 1 0.999359
0.999387 1 1 0.999387
0.999279 1 1 0.999279
0.999262 1 1 0.999262
0.999343 1 1 0.999343
0.999257 1 1 0.999257
0.999172 1 1 0.999172
0.999525 1 1 0.999525
0.999411 1 1 0.999411
0.999262 1 1 0.999262
0.999647 1 1 0.999647
0.999562 1 1 0.999562
0.999522 1 1 0.999522
0.999856 1 1 0.999856
0.999665 1 1 0.999665
0.999564 1 1 0.999564
1 1 1 1
0.999897 1 1 0.999897
0.999699 1 1 0.999699
1 1 1 1
1 1 1 1
0.999929 1 1 0.999929
1 1 1 1
1 1 1 1
1 1 1 1
0.999608 1 1 0.999608
0.999605 1 1 0.999605
0.999715 1 1 0.999715
0.999942 1 1 0.999942
0.999739 1 1 0.999739
0.999617 1 1 0.999617
1 1 1 1
0.999956 1 1 0.999956
0.999762 1 1 0.999762
1 1 1 1
1 1 1 1
0.999968 1 1 0.999968
1 1 1 1
1 1 1 1
1 1 1 1
0.969656 0.972755 0.997469 0.999343
1.01934 1.01953 1 0.999811
1.02752 1.02831 0.999304 0.999925
0.999549 1 1 0.999549
0.999561 1 1 0.999561
0.999521 1 1 0.999521
0.999575 1 1 0.999575
0.999561 1 1 0.999561
0.999529 1 1 0.999529
0.999516 1 1 0.999516
0.999512 1 1 0.999512
0.999477 1 1 0.999477
0.99951 1 1 0.99951
0.999517 1 1 0.999517
0.999508 1 1 0.999508
0.931192 0.946152 0.985671 0.998496
0.955389 0.969091 0.986749 0.999099
1.01288 1.01418 0.99907 0.999646
0.925922 0.960742 0.964847 0.99887
0.949535 0.970699 0.980422 0.997731
0.989359 0.984863 1.00763 0.996961
1.00256 0.980641 1.02381 0.998571
0.993199 0.989068 1.00559 0.99859
0.930426 0.951392 0.980167 0.997751
0.981101 0.978636 1.00597 0.996573
0.994295 0.990683 1.00502 0.998632
0.97692 0.975637 1.00516 0.996174
1.00768 1 1.00819 0.9995
0.99994 1 1.00027 0.999674
0.999557 1 1 0.999557
1.00964 0.999061 1.0109 0.999698
1.00438 1 1.00494 0.999438
1.00881 0.999978 1.00918 0.999657
1.00158 1.00067 1.00146 0.999447
0.931484 0.949593 0.982613 0.998288
0.96984 0.973209 0.997227 0.999309
1.01994 1.02018 0.999918 0.999848
0.993536 0.998523 0.995326 0.999679
0.998829 0.994115 1.00579 0.998962
0.9656 0.972424 0.993734 0.999243
0.97685 0.97387 1.00714 0.995952
0.927788 0.945235 0.9838 0.997705
0.992218 1.00554 0.987291 0.999451
0.932591 0.946361 0.987379 0.998047
0.973414 0.972148 1.0053 0.996021
1.00268 1.00026 1.00357 0.998844
1.00934 1.01138 0.998728 0.999252
0.962533 0.967187 0.999673 0.995514
0.998555 1.00169 0.997764 0.999104
0.992387 1 0.993087 0.999295
0.991764 1.00029 0.99224 0.999233
0.993304 1.00097 0.993043 0.999295
1.00152 1 1.00246 0.999062
0.999613 1.00049 0.999904 0.999224
1.00051 1.00162 0.999396 0.999497
0.999698 1 1.00059 0.999113
0.999351 1.00003 1 0.999316
0.999896 1.00039 1 0.999509
0.999187 1 1 0.999187
0.999359 1 1 0.999359
0.999484 1 1 0.999484
0.99946 1 1 0.99946
0.999402 1 1 0.999402
0.999375 1 1 0.999375
0.999338 1 1 0.999338
0.999281 1 1 0.999281
0.999276 1 1 0.999276
0.999443 1 1 0.999443
0.999358 1 1 0.999358
0.99927 1 1 0.99927
0.999623 1 1 0.999623
0.999523 1 1 0.999523
0.99941 1 1 0.99941
0.999822 1 1 0.999822
0.999647 1 1 0.999647
0.999561 1 1 0.999561
1 1 1 1
0.999856 1 1 0.999856
0.999667 1 1 0.999667
1 1 1 1
1 1 1 1
0.999896 1 1 0.999896
1 1 1 1
1 1 1 1
1 1 1 1
0.999599 1 1 0.999599
0.999599 1 1 0.999599
0.999694 1 1 0.999694
0.999608 1 1 0.999608
0.999715 1 1 0.999715
0.999921 1 1 0.999921
1 1 1 1
0.999943 1 1 0.999943
0.999739 1 1 0.999739
1 1 1 1
1 1 1 1
0.999958 1 1 0.999958
1 1 1 1
1 1 1 1
1 1 1 1
0.938815 0.948099 0.992319 0.997872
0.967494 0.972873 0.995218 0.999249
1.01937 1.01956 1 0.999814
0.999543 1 1 0.999543
0.999517 1 1 0.999517
0.999566 1 1 0.999566
0.99956 1 1 0.99956
0.999523 1 1 0.999523
0.999517 1 1 0.999517
0.999513 1 1 0.999513
0.999481 1 1 0.999481
0.999503 1 1 0.999503
0.999471 1 1 0.999471
0.999615 1 1.00026 0.999358
0.999507 1 1 0.999507
0.99951 1 1 0.99951
0.972485 0.97684 1.00006 0.99548
0.936402 0.948396 0.989167 0.998166
0.954907 0.968574 0.98684 0.999038
0.932161 0.952057 0.98056 0.998513
0.97826 0.975205 1.00787 0.995297
0.996406 0.990385 1.00653 0.999547
0.996517 0.993189 1.00424 0.999116
0.977175 0.977127 1.00376 0.996298
0.991767 0.998919 0.994196 0.998636
1.00607 1.00132 1.0057 0.999058
1.00615 1 1.00666 0.99949
0.999669 1 1 0.999669
1.00767 1 1.00804 0.999632
1.00062 1.00096 1.00017 0.999487
0.95553 0.965271 0.993653 0.996232
0.934837 0.948877 0.987397 0.997778
0.971179 0.972797 0.998909 0.999427
0.994174 1.00578 0.989022 0.999437
1.00679 1.00376 1.00497 0.998055
0.935961 0.946435 0.991143 0.997771
0.973912 0.971796 1.00606 0.996138
1.0034 1.01052 0.993696 0.999245
0.964874 0.968773 0.999679 0.996295
0.999715 1.00378 0.997651 0.998295
1.00355 1.01036 0.994196 0.999058
0.998271 0.994992 1.00389 0.999406
0.992297 1.00033 0.992746 0.999218
0.994101 1.00087 0.993949 0.99928
1.0011 1.00657 0.995204 0.999361
0.999507 1.00055 0.999738 0.999221
0.999661 1.00103 0.999144 0.999492
1.00073 1.0021 0.99908 0.999553
0.999376 1.00006 1 0.999318
0.999722 1.00023 0.999994 0.999499
0.999897 1.00039 0.999987 0.999522
0.999359 1 1 0.999359
0.999477 1 1 0.999477
0.999473 1 1 0.999473
0.999477 1 1 0.999477
0.999417 1 1 0.999417
0.999418 1 1 0.999418
0.999372 1 1 0.999372
0.999367 1 1 0.999367
0.999399 1 1 0.999399
0.999335 1 1 0.999335
0.999283 1 1 0.999283
0.999574 1 1 0.999574
0.999453 1 1 0.999453
0.999373 1 1 0.999373
0.999795 1 1 0.999795
0.999621 1 1 0.999621
0.999521 1 1 0.999521
0.999999 1 1 0.999999
0.999822 1 1 0.999822
0.999648 1 1 0.999648
1 1 1 1
1 1 1 1
0.999856 1 1 0.999856
1 1 1 1
1 1 1 1
1 1 1 1
0.999577 1 1 0.999577
0.999599 1 1 0.999599
0.999662 1 1 0.999662
0.99959 1 1 0.99959
0.999685 1 1 0.999685
0.999888 1 1 0.999888
0.999715 1 1 0.999715
0.999921 1 1 0.999921
1 1 1 1
1 1 1 1
1 1 1 1
0.999945 1 1 0.999945
1 1 1 1
1 1 1 1
1 1 1 1
0.966658 0.970669 0.999592 0.996274
0.934623 0.950607 0.98477 0.998392
0.97029 0.973544 0.997342 0.999313
0.999513 1 1 0.999513
0.999571 1 1 0.999571
0.999526 1 1 0.999526
0.99956 1 1 0.99956
0.999532 1 1 0.999532
0.99954 1 1 0.99954
0.999484 1 1 0.999484
0.999491 1 1 0.999491
0.999468 1 1 0.999468
0.999474 1 1 0.999474
0.999389 1 1 0.999389
0.999167 1 1.00011 0.999053
0.999425 1 1.00006 0.999368
0.999504 1 1 0.999504
0.989888 0.994079 0.996868 0.998913
0.971075 0.973864 1.001 0.996141
0.930208 0.948153 0.983322 0.997714
0.975541 0.975041 1.00444 0.99609
0.992016 0.991531 1.0009 0.999588
0.992746 0.997044 0.996317 0.999371
0.997221 1.00475 0.993324 0.999174
1.00315 1.00066 1.00337 0.999124
1.0051 1 1.00563 0.999478
0.998539 1.00109 0.997932 0.999524
0.987088 0.986386 1.00225 0.99847
0.962296 0.966874 0.99885 0.996412
0.933273 0.949193 0.984729 0.998475
0.999914 1.00962 0.99114 0.999239
1.00619 1.00721 1.00002 0.998971
0.966145 0.968484 1.00048 0.997104
0.999731 1.0082 0.992513 0.999078
0.995055 0.995503 1.00047 0.999081
0.998498 1.01136 0.988125 0.999152
1.00828 1.00666 1.00249 0.99913
0.995687 1.0008 0.995627 0.999265
1.00111 1.00616 0.995611 0.999362
1.00232 1.00567 0.997308 0.999358
0.999162 1.00064 0.999033 0.999486
1.00057 1.00182 0.99921 0.999546
1.00028 1.00109 0.999799 0.999396
0.99953 1.00004 1 0.999489
0.999695 1.00018 1 0.999513
0.999384 1 1 0.999384
0.99947 1 1 0.99947
0.999479 1 1 0.999479
0.999383 1 1 0.999383
0.999494 1 1 0.999494
0.999427 1 1 0.999427
0.999374 1 1 0.999374
0.999368 1 1 0.999368
0.999364 1 1 0.999364
0.999401 1 1 0.999401
0.999508 1 1 0.999508
0.999409 1 1 0.999409
0.999332 1 1 0.999332
0.999757 1 1 0.999757
0.999573 1 1 0.999573
0.999463 1 1 0.999463
0.999994 1 1 0.999994
0.999795 1 1 0.999795
0.99962 1 1 0.99962
1 1 1 1
0.999998 1 1 0.999998
0.999823 1 1 0.999823
1 1 1 1
1 1 1 1
1 1 1 1
0.999555 1 1 0.999555
0.999583 1 1 0.999583
0.999643 1 1 0.999643
0.9996 1 1 0.9996
0.999659 1 1 0.999659
0.999851 1 1 0.999851
0.999677 1 1 0.999677
0.999888 1 1 0.999888
1 1 1 1
0.999922 1 1 0.999922
1 1 1 1
1 1 1 1
1 1 1 1
1 1 1 1
1 1 1 1
0.983543 0.986272 0.998377 0.998855
0.960573 0.967849 0.996241 0.996228
0.932631 0.950505 0.983424 0.997734
0.999479 1 1 0.999479
0.99953 1 1 0.99953
0.99956 1 1 0.99956
0.999538 1 1 0.999538
0.999529 1 1 0.999529
0.999574 1 1 0.999574
0.999479 1 1 0.999479
0.999465 1 1 0.999465
0.999488 1 1 0.999488
0.999415 1 1 0.999415
0.999195 1 1 0.999195
1.00188 1.00307 1 0.998819
0.999185 1 1.00013 0.999057
0.999377 1 1 0.999377
0.999407 1.00412 0.996038 0.99927
0.990707 0.995444 0.996686 0.99855
0.972779 0.974818 1.00105 0.996866
0.995289 0.998434 0.998243 0.998606
1.00166 1.00589 0.996673 0.999114
1.00162 1.00012 1.00231 0.999191
1.00006 1.00062 1.00002 0.999419
0.988246 0.985341 1.00382 0.999133
0.9591 0.966694 0.99586 0.996269
0.994548 1.00592 0.989589 0.999097
0.99265 0.995585 0.998333 0.998717
1.00024 1.01136 0.989857 0.999133
1.00642 1.00585 1.00136 0.999215
1.00946 1.01086 0.999492 0.999114
1.00401 1.00496 1 0.999058
1.00088 1.00568 0.995863 0.999362
1.00359 1.0061 0.998138 0.999364
0.999776 1.00054 1 0.999238
1.00035 1.00143 0.999384 0.999539
1.00064 1.00129 0.999957 0.999394
0.999288 1.00005 1 0.999238
0.999513 1.00001 1 0.999504
0.999408 1 1 0.999404
0.999276 1 1 0.999276
0.999485 1 1 0.999485
0.999383 1 1 0.999383
0.999326 1 1 0.999326
0.999436 1 1 0.999436
0.999377 1 1 0.999377
0.999374 1 1 0.999374
0.999361 1 1 0.999361
0.999394 1 1 0.999394
0.999479 1 1 0.999479
0.99971 1 1 0.99971
0.999518 1 1 0.999518
0.999419 1 1 0.999419
0.999982 1 1 0.999982
0.999756 1 1 0.999756
0.999572 1 1 0.999572
1 1 1 1
0.999991 1 1 0.999991
0.999794 1 1 0.999794
1 1 1 1
0.999997 1 1 0.999997
1 1 1 1
0.999506 1 1 0.999506
0.999556 1 1 0.999556
0.999625 1 1 0.999625
0.999589 1 1 0.999589
0.999647 1 1 0.999647
0.999818 1 1 0.999818
0.999657 1 1 0.999657
0.999851 1 1 0.999851
1 1 1 1
0.999888 1 1 0.999888
1 1 1 1
1 1 1 1
1 1 1 1
1 1 1 1
1 1 1 1
1.00102 1.00445 0.997094 0.999483
0.983208 0.987573 0.997407 0.998169
0.964002 0.968098 0.999444 0.996324
0.999508 1 1 0.999508
0.999366 1 1 0.999366
0.999488 1 1 0.999488
0.999537 1 1 0.999537
0.999526 1 1 0.999526
0.999561 1 1 0.999561
0.999273 1.00001 1 0.999268
0.999502 1 1 0.999502
0.999442 1 1 0.999442
0.999204 1 1 0.999204
0.999639 1.00073 1 0.998913
1.00374 1.00519 0.999519 0.999042
1.00121 1.00238 1 0.998833
0.99906 1 1 0.99906
1.00158 1.00608 0.996229 0.999298
0.988709 0.994916 0.995633 0.99812
1.00446 1.00676 0.998653 0.999054
1.00049 1.00106 1 0.99943
1.00086 1.00025 1.00116 0.999448
0.986402 0.98512 1.00298 0.998327
1.0024 1.01173 0.991654 0.999115
1.00449 1.00492 1.00027 0.999302
1.00963 1.01133 0.999187 0.999132
1.00474 1.00566 1 0.999093
1.00179 1.00265 1 0.99914
1.00176 1.00247 1 0.999285
1.00491 1.00661 0.998947 0.99937
0.999913 1.00067 1 0.999244
0.999276 1.00013 1 0.999142
1.00084 1.00145 1 0.999392
0.999347 1.0001 1 0.99925
0.999175 1 1 0.999175
0.999427 1 1 0.999423
0.999274 1 1 0.999274
0.999236 1 1 0.999236
0.999383 1 1 0.999383
0.999326 1 1 0.999326
0.999325 1 1 0.999325
0.99938 1 1 0.99938
0.999375 1 1 0.999375
0.999446 1 1 0.999446
0.999387 1 1 0.999387
0.999476 1 1 0.999476
0.999668 1 1 0.999668
0.999964 1 1 0.999964
0.99971 1 1 0.99971
0.999529 1 1 0.999529
1 1 1 1
0.999977 1 1 0.999977
0.999756 1 1 0.999756
1 1 1 1
0.999988 1 1 0.999988
1 1 1 1
0.999415 1 1 0.999415
0.999496 1 1 0.999496
0.999585 1 1 0.999585
0.999557 1 1 0.999557
0.999626 1 1 0.999626
0.999789 1 1 0.999789
0.999651 1 1 0.999651
0.999817 1 1 0.999817
0.999998 1 1 0.999998
0.99985 1 1 0.99985
1 1 1 1
1 1 1 1
1 1 1 1
1 1 1 1
1 1 1 1
1.00104 1.00233 0.999381 0.999339
0.999968 1.00343 0.997079 0.999469
0.982886 0.986214 0.997845 0.998777
0.999318 1 1 0.999318
0.999557 1 1 0.999557
0.999222 1 1 0.999222
0.999359 1 1 0.999359
0.999497 1 1 0.999497
0.999966 1.00095 1 0.999013
0.999549 1 1 0.999549
0.999262 1 1 0.999261
1.00032 1.00133 1 0.998993
0.999214 1 1 0.999214
0.99977 1.00088 1 0.99889
1.00308 1.00438 0.999671 0.999036
1.00028 1.00144 1 0.998846
1.00335 1.00748 0.996569 0.999326
1.00076 1.00135 1 0.999413
1.00021 1.00078 1 0.999427
1.00174 1.00002 1.00224 0.999476
1.00992 1.01188 0.998911 0.99915
1.00575 1.00663 1 0.999128
1.00236 1.00323 1 0.999135
1.00226 1.00298 1 0.999284
1.00044 1.00121 1 0.999231
1.00006 1.00081 1 0.99925
0.999238 1.00009 1 0.999147
0.999138 1 1 0.999138
0.999411 1.00015 1 0.999261
0.999171 1 1 0.999171
0.99916 1 1 0.99916
0.999273 1 1 0.999273
0.999234 1 1 0.999234
0.999251 1 1 0.999251
0.999325 1 1 0.999325
0.999325 1 1 0.999325
0.999392 1 1 0.999392
0.999376 1 1 0.999376
0.999447 1 1 0.999447
0.999626 1 1 0.999626
0.999472 1 1 0.999472
0.999667 1 1 0.999667
0.999946 1 1 0.999946
1 1 1 1
0.999959 1 1 0.999959
0.99971 1 1 0.99971
1 1 1 1
0.999972 1 1 0.999972
1 1 1 1
0.99925 1 1 0.99925
0.99934 1 1 0.99934
0.999403 1 1 0.999403
0.999537 1 1 0.999537
0.999487 1 1 0.999487
0.999587 1 1 0.999587
0.999764 1 1 0.999764
0.999626 1 1 0.999626
0.999789 1 1 0.999789
0.999991 1 1 0.999991
0.999817 1 1 0.999817
0.999999 1 1 0.999999
1 1 1 1
1 1 1 1
1 1 1 1
1 1 1 1
1.00054 1.0013 1 0.999249
1.00232 1.0034 0.999567 0.99936
0.999669 1.00315 0.997069 0.999455
0.99938 1.00029 1 0.999093
0.999361 1 1 0.999361
0.999606 1 1 0.999606
0.999239 1 1 0.999239
0.999351 1 1 0.999351
1.00109 1.00213 1 0.99896
0.999842 1.00085 1 0.998992
0.999254 1 1 0.999254
1.00052 1.00154 1 0.998987
0.999895 1.00103 1 0.998867
1.00311 1.00429 0.99979 0.999031
1.00115 1.00182 1 0.999323
1.00057 1.00117 1 0.999401
0.999791 1.00037 1 0.999424
1.00274 1.00361 1 0.99913
1.00256 1.00328 1 0.999283
1.0004 1.00116 1 0.999233
0.99969 1.0005 1 0.999195
0.999219 1.00007 1 0.999152
0.999134 1 1 0.999134
0.999149 1 1 0.999149
0.999167 1 1 0.999167
0.999159 1 1 0.999159
0.999192 1 1 0.999192
0.999233 1 1 0.999233
0.99925 1 1 0.99925
0.999326 1 1 0.999326
0.999325 1 1 0.999325
0.999392 1 1 0.999392
0.999573 1 1 0.999573
0.999448 1 1 0.999448
0.999625 1 1 0.999625
0.999933 1 1 0.999933
0.999667 1 1 0.999667
0.999942 1 1 0.999942
1 1 1 1
1 1 1 1
0.999953 1 1 0.999953
1 1 1 1
0.999123 1 1 0.999123
0.999326 1 1 0.999326
0.999312 1 1 0.999312
0.999468 1 1 0.999468
0.999338 1 1 0.999338
0.999392 1 1 0.999392
0.999538 1 1 0.999538
0.999729 1 1 0.999729
0.999589 1 1 0.999589
0.999764 1 1 0.999764
0.999977 1 1 0.999977
0.999789 1 1 0.999789
0.999993 1 1 0.999993
1 1 1 1
1 1 1 1
1 1 1 1
1 1 1 1
1.00151 1.00236 1 0.999147
1.0005 1.00126 1 0.999247
1.00321 1.00404 0.999796 0.999381
1.00018 1.00117 1 0.999006
0.999379 1.00028 1 0.999096
0.999404 1 1 0.999404
0.999257 1 1 0.999257
1.00111 1.00215 1 0.99896
0.999814 1.00084 1 0.998971
1.00067 1.00169 1 0.99898
1.00164 1.00241 1 0.999237
1.00116 1.00187 1 0.9993
1.00037 1.00098 1 0.99939
1.00079 1.00162 1 0.999172
1.00045 1.00121 1 0.999234
0.99982 1.00063 1 0.999193
0.999234 1.00006 1 0.999174
0.99913 1 1 0.99913
0.999149 1 1 0.999149
0.999173 1 1 0.999173
0.999158 1 1 0.999158
0.999192 1 1 0.999192
0.999277 1 1 0.999277
0.999249 1 1 0.999249
0.999326 1 1 0.999326
0.999514 1 1 0.999514
0.999392 1 1 0.999392
0.999572 1 1 0.999572
0.99992 1 1 0.99992
0.999625 1 1 0.999625
0.999929 1 1 0.999929
0.999999 1 1 0.999999
0.999938 1 1 0.999938
1 1 1 1
1 1 1 1
0.999066 1.00002 1 0.999043
0.999199 1 1 0.999199
0.999145 1 1 0.999145
0.999419 1 1 0.999419
0.999324 1 1 0.999324
0.999374 1 1 0.999374
0.999664 1 1 0.999664
0.999467 1 1 0.999467
0.999337 1 1 0.999337
0.999539 1 1 0.999539
0.999729 1 1 0.999729
0.99996 1 1 0.99996
0.999764 1 1 0.999764
0.999981 1 1 0.999981
1 1 1 1
0.999996 1 1 0.999996
1 1 1 1
1 1 1 1
1.00097 1.00185 1 0.999118
1.0018 1.00267 1 0.999129
1.00059 1.00135 1 0.999245
0.999982 1.00098 1 0.999003
0.999373 1.00028 1 0.999098
1.00098 1.00202 1 0.99896
1.00179 1.00263 1 0.999165
1.00183 1.00259 1 0.999237
1.00118 1.0019 1 0.999276
1.00058 1.0014 1 0.999173
0.999965 1.00082 1 0.99915
0.999931 1.00074 1 0.999192
0.999242 1.00007 1 0.999174
0.999182 1 1 0.999182
0.99915 1 1 0.99915
0.999174 1 1 0.999174
0.999251 1 1 0.999251
0.999191 1 1 0.999191
0.999276 1 1 0.999276
0.999473 1 1 0.999473
0.999325 1 1 0.999325
0.999513 1 1 0.999513
0.999905 1 1 0.999905
0.99957 1 1 0.99957
0.999916 1 1 0.999916
0.999998 1 1 0.999998
0.999926 1 1 0.999926
1 1 1 1
1 1 1 1
0.999243 1.00012 1 0.999119
0.999105 1 1 0.999105
0.999057 1.00002 1 0.999036
0.999319 1 1 0.999319
0.99921 1 1 0.99921
0.999167 1 1 0.999167
0.99959 1 1 0.99959
0.999399 1 1 0.999399
0.999323 1 1 0.999323
0.999936 1 1 0.999936
0.999665 1 1 0.999665
0.999467 1 1 0.999467
0.99973 1 1 0.99973
0.999965 1 1 0.999965
1 1 1 1
0.999985 1 1 0.999985
1 1 1 1
1 1 1 1
1.00038 1.00126 1 0.999115
1.00088 1.00177 1 0.999113
1.00208 1.00297 1 0.99911
0.999842 1.00084 1 0.998999
1.00073 1.00161 1 0.999123
1.00186 1.00269 1 0.999171
1.00204 1.00281 1 0.999236
1.00035 1.00117 1 0.999174
1.00006 1.00091 1 0.99915
0.999291 1.00012 1 0.999169
0.999249 1.00007 1 0.999175
0.999186 1 1 0.999186
0.999236 1 1 0.999236
0.999176 1 1 0.999176
0.999252 1 1 0.999252
0.999451 1 1 0.999451
0.999276 1 1 0.999276
0.999473 1 1 0.999473
0.99989 1 1 0.99989
0.999512 1 1 0.999512
0.9999 1 1 0.9999
1 1 1 1
0.999912 1 1 0.999912
0.999998 1 1 0.999998
1 1 1 1
0.999311 1.00017 1 0.999137
0.999139 1 1 0.999139
0.999238 1.00012 1 0.999121
0.999214 1 1 0.999214
0.999118 1 1 0.999118
0.999052 1.00002 1 0.99903
0.999488 1 1 0.999488
0.999318 1 1 0.999318
0.99922 1 1 0.99922
0.999909 1 1 0.999909
0.999572 1 1 0.999572
0.999379 1 1 0.999379
1 1 1 1
0.999943 1 1 0.999943
0.999666 1 1 0.999666
0.999971 1 1 0.999971
1 1 1 1
1 1 1 1
1.00008 1.00096 1 0.999122
1.00064 1.00152 1 0.999123
1.00074 1.00163 1 0.999108
0.999545 1.00042 1 0.999124
1.00068 1.00156 1 0.999119
1.00192 1.00274 1 0.999176
1.00015 1.001 1 0.99915
0.999301 1.00013 1 0.999169
0.99924 1 1 0.99924
0.99919 1 1 0.99919
0.999253 1 1 0.999253
0.999404 1 1 0.999404
0.999253 1 1 0.999253
0.999452 1 1 0.999452
0.999878 1 1 0.999878
0.999472 1 1 0.999472
0.999888 1 1 0.999888
1 1 1 1
0.999896 1 1 0.999896
0.999998 1 1 0.999998
0.999999 1 1 0.999999
0.999268 1.00012 1 0.999145
0.999171 1 1 0.999171
0.999349 1.00021 1 0.999138
0.999227 1 1 0.999227
0.999144 1 1 0.999144
0.999232 1.00011 1 0.999123
0.999423 1 1 0.999423
0.999236 1 1 0.999236
0.999131 1 1 0.999131
0.999889 1 1 0.999889
0.999479 1 1 0.999479
0.999317 1 1 0.999317
1 1 1 1
0.999916 1 1 0.999916
0.999555 1 1 0.999555
1 1 1 1
0.99995 1 1 0.99995
1 1 1 1
0.999367 1.00023 1 0.999136
0.999921 1.0008 1 0.999124
1.00093 1.0018 1 0.999131
0.999197 1 1 0.999197
0.999466 1.00034 1 0.999126
1.00066 1.00154 1 0.999116
0.999315 1.00015 1 0.99917
0.99924 1 1 0.99924
0.999372 1 1 0.999372
0.999269 1 1 0.999269
0.999419 1 1 0.999419
0.999854 1 1 0.999854
0.999452 1 1 0.999452
0.999876 1 1 0.999876
1 1 1 1
0.999887 1 1 0.999887
1 1 1 1
0.999997 1 1 0.999997
0.999176 1 1 0.999176
0.999209 1.00006 1 0.999144
0.999232 1 1 0.999232
0.999171 1 1 0.999171
0.999391 1.00025 1 0.999138
0.999426 1 1 0.999426
0.999225 1 1 0.999225
0.999149 1 1 0.999149
0.999875 1 1 0.999875
0.999434 1 1 0.999434
0.999258 1 1 0.999258
1 1 1 1
0.999893 1 1 0.999893
0.99947 1 1 0.99947
1 1 1 1
0.999922 1 1 0.999922
1 1 1 1
0.999213 1 1 0.999213
0.99926 1.00012 1 0.999139
0.999744 1.00062 1 0.999125
0.999344 1 1 0.999344
0.999197 1 1 0.999197
0.999369 1.00024 1 0.999128
0.999241 1 1 0.999241
0.999377 1 1 0.999377
0.999823 1 1 0.999823
0.999435 1 1 0.999435
0.999852 1 1 0.999852
1 1 1 1
0.999874 1 1 0.999874
1 1 1 1
1 1 1 1
0.999225 1 1 0.999225
0.999172 1 1 0.999172
0.999143 1 1 0.999143
0.999416 1 1 0.999416
0.999231 1 1 0.999231
0.999171 1 1 0.999171
0.999864 1 1 0.999864
0.999425 1 1 0.999425
0.999223 1 1 0.999223
1 1 1 1
0.999877 1 1 0.999877
0.999444 1 1 0.999444
1 1 1 1
0.999897 1 1 0.999897
1 1 1 1
0.999375 1 1 0.999375
0.999197 1 1 0.999197
0.999169 1.00003 1 0.999142
0.999803 1 1 0.999803
0.999346 1 1 0.999346
0.999197 1 1 0.999197
0.999382 1 1 0.999382
0.999821 1 1 0.999821
1 1 1 1
0.99985 1 1 0.99985
1 1 1 1
1 1 1 1
0.999398 1 1 0.999398
0.999219 1 1 0.999219
0.999167 1 1 0.999167
0.999858 1 1 0.999858
0.999415 1 1 0.999415
0.999231 1 1 0.999231
1 1 1 1
0.999864 1 1 0.999864
0.999424 1 1 0.999424
1 1 1 1
0.99988 1 1 0.99988
1 1 1 1
0.999799 1 1 0.999799
0.999363 1 1 0.999363
0.999182 1 1 0.999182
1 1 1 1
0.999802 1 1 0.999802
0.999349 1 1 0.999349
0.99982 1 1 0.99982
1 1 1 1
1 1 1 1
0.999835 1 1 0.999835
0.999398 1 1 0.999398
0.999213 1 1 0.999213
1 1 1 1
0.999849 1 1 0.999849
0.999414 1 1 0.999414
1 1 1 1
0.999865 1 1 0.999865
1 1 1 1
0.999963 1 1 0.999963
0.999813 1 1 0.999813
0.999351 1 1 0.999351
1 1 1 1
0.999802 1 1 0.999802
1 1 1 1
0.999973 1 1 0.999973
0.999832 1 1 0.999832
0.999398 1 1 0.999398
0.99999 1 1 0.99999
0.999848 1 1 0.999848
1 1 1 1
1 1 1 1
0.999805 1 1 0.999805
1 1 1 1
0.999984 1 1 0.999984
0.999825 1 1 0.999825
1 1 1 1
1 1 1 1
1 1 1 1

VECTORS lamdaE float
0.998966 1.00014 0.996772
0.99916 0.999213 0.998717
0.998891 1.00024 0.996828
0.999356 1.00004 0.996365
0.998996 1.00027 0.996652
0.999066 0.999747 0.996927
0.99967 1.00071 0.99472
0.999189 0.999088 0.998754
0.9989 1.00032 0.99861
0.99891 0.999659 0.998754
0.999334 0.998716 0.997424
0.999673 1.00041 0.994772
0.999641 0.999997 0.995956
0.999279 0.999902 0.996469
0.998807 1.00038 0.996891
0.999258 1.00007 0.996446
0.999003 0.999812 0.996985
0.998909 1.00036 0.996724
0.99973 1.00067 0.99472
0.999525 0.999992 0.998264
0.999448 0.999955 0.996316
0.999158 1.00019 0.996509
1.00052 1.00004 0.993924
0.999923 1.00055 0.994457
0.999246 0.999141 0.997185
0.999499 1.0007 0.995015
1.00096 1.00117 0.991946
0.999216 0.998955 0.998792
0.998954 1.00026 0.997608
0.998981 0.999734 0.997859
0.999315 0.998574 0.998866
0.999611 1.00049 0.994774
0.999194 1.00025 0.996491
0.998996 1.00031 0.996813
1.00014 1.00048 0.994763
0.999376 0.998069 0.999072
0.999744 1.0005 0.995318
0.999611 1.00013 0.995132
1.00031 1.00163 0.992381
0.999494 0.997605 0.999175
0.99962 1 0.998187
0.999355 0.999966 0.997403
0.999737 0.999999 0.998094
0.999344 0.999922 0.996343
1.00095 1.00001 0.992648
0.9992 1.00011 0.998527
1.00071 0.999955 0.994259
0.999161 1.0001 0.996526
0.998816 1.00051 0.996787
0.99894 0.999874 0.997053
0.999792 1.0006 0.994716
0.9995 0.999981 0.997227
0.999357 0.999941 0.996396
0.999204 0.999133 0.997243
0.99906 1.00026 0.99659
1.00056 1.00003 0.993902
0.999551 1.00066 0.995017
0.99998 1.00051 0.994454
1.00103 1.00119 0.991866
0.999619 1 0.998185
0.999471 0.999965 0.996249
1.00078 0.999998 0.993995
1.00062 0.999911 0.99388
1.00023 1.0003 0.994169
1.00251 0.999996 0.990328
1.00148 1.0007 0.991208
0.999465 0.998445 0.997499
0.999392 1.00043 0.995467
1.00044 1.00156 0.992468
1.00169 1.0013 0.990081
0.998981 1.00017 0.998544
0.999343 0.998426 0.998937
0.999046 0.999496 0.998696
0.999548 1.00058 0.994776
0.999207 1.00021 0.998448
0.998958 1.00009 0.998592
1.00002 1.00052 0.993887
0.999399 0.99813 0.998399
0.999654 1.00064 0.994524
0.999579 1.00009 0.995564
1.00031 1.00162 0.992369
0.999458 0.997842 0.9991
0.999663 0.998781 0.996408
1.00039 1.00021 0.993566
0.999874 1.00065 0.994172
1.00162 1.00069 0.990799
0.999576 0.999586 0.996354
1.00061 1.00133 0.99213
1.0001 1.0018 0.992624
1.00077 1.00187 0.991204
0.999546 0.997325 0.999238
0.999489 0.997557 0.999196
0.999382 1.00002 0.998391
0.999558 1 0.99824
0.999712 1 0.998113
0.999429 0.999983 0.997291
1.00094 1.00001 0.993251
0.999245 1.00005 0.997473
1.00066 0.999946 0.993806
0.999731 0.999997 0.998103
1.00108 0.99997 0.99242
1.00081 0.999985 0.994043
1.003 0.99976 0.98909
1.00057 1.00002 0.994415
1.00264 0.999877 0.989681
0.999576 0.999969 0.996088
0.999265 0.999916 0.996476
0.999156 0.999093 0.997309
0.998962 1.00035 0.996666
1.00059 1.00003 0.993881
1.00004 1.00044 0.994454
0.999606 1.00062 0.995013
1.00111 1.00123 0.991787
0.999667 1 0.998149
0.999381 0.999938 0.996342
1.00084 0.999979 0.993161
1.00066 0.999899 0.993846
0.999404 0.998406 0.998211
0.999473 1.00038 0.995577
1.00028 1.00027 0.994161
1.00249 0.999993 0.990226
1.00052 1.0016 0.992387
1.00152 1.00074 0.991276
1.0017 1.0013 0.990085
1.00098 1.00001 0.992582
1.00063 0.999927 0.993826
1.00285 0.999799 0.989608
1.00263 0.99975 0.990076
1.00209 1.00029 0.990547
1.00349 0.999742 0.988499
0.999485 0.997965 0.999046
1.00225 1.00075 0.989525
0.999566 0.999948 0.995402
1.00004 1.00173 0.99268
1.00118 1.00189 0.990591
1.00216 1.00123 0.989271
0.999687 0.999057 0.996025
1.00008 1.00069 0.993734
0.999137 1.00019 0.998468
0.99893 0.99993 0.998631
0.999986 1.00055 0.9939
0.999416 0.998048 0.999063
0.999531 1.00014 0.995232
0.999578 1.00075 0.994515
1.00031 1.00161 0.992357
0.999453 0.997815 0.999125
0.999669 0.998729 0.99643
1.00036 1.00019 0.994077
0.999792 1.00065 0.994644
1.00161 1.00068 0.990817
0.999581 0.999554 0.995775
1.00059 1.00132 0.992138
1.00008 1.0018 0.992616
1.00078 1.00187 0.991164
0.999607 0.99917 0.996107
0.99974 0.998384 0.996671
1.00001 1.00057 0.993946
1.00214 1.00026 0.990214
1.00103 1.00109 0.99156
1.00243 1.00075 0.989236
1.00008 1.00144 0.992999
1.00114 1.00145 0.990906
1.00047 1.00241 0.991378
1.00093 1.00215 0.990715
0.999622 0.997048 0.999282
0.999551 0.997272 0.999253
0.999487 0.997504 0.999217
0.99973 0.998697 0.996327
0.999516 0.997723 0.999124
0.999281 1.0001 0.998428
0.999457 1 0.998331
1.00064 0.999918 0.993318
1.00088 1.00001 0.992749
0.999678 1 0.99814
0.999739 0.999999 0.998092
1.00107 0.999978 0.992431
1.00076 0.999992 0.993594
1.003 0.999762 0.989094
1.00051 0.999986 0.993473
1.00263 0.999887 0.98968
1.0011 0.999962 0.992363
1.00324 0.999703 0.988675
1.00278 0.999801 0.989478
1.004 0.99944 0.987555
1.00246 1.00001 0.989877
1.0036 0.999542 0.98821
0.999703 0.999997 0.998117
0.99929 0.999898 0.996438
1.00085 0.999961 0.992375
1.00069 0.999902 0.993813
0.999314 0.998339 0.99896
0.999551 1.00035 0.995684
1.00033 1.00023 0.994155
1.00248 0.999988 0.990124
1.00155 1.0008 0.991344
1.0006 1.00165 0.992307
1.0017 1.0013 0.990088
1.00099 0.999992 0.992569
1.00068 0.999913 0.993795
1.00283 0.999784 0.989402
1.00263 0.999794 0.990169
0.999467 0.998005 0.999018
0.999569 0.999916 0.995729
1.00012 1.00174 0.992776
1.00207 1.00032 0.990554
1.00348 0.99968 0.988362
1.00111 1.00189 0.990578
1.00231 1.00077 0.989578
1.00216 1.00123 0.989279
0.999668 0.999121 0.996011
1.00008 1.00068 0.99373
1.00316 0.999733 0.988811
1.00262 0.999768 0.99005
1.0038 0.999564 0.988071
1.00367 0.999322 0.988176
1.00292 1.00019 0.988961
1.00403 0.999229 0.987867
0.999628 0.999459 0.995701
1.00284 1.00052 0.988679
1.00002 1.00159 0.992879
1.00053 1.00218 0.991206
1.00164 1.00203 0.98982
1.00252 1.00101 0.988919
1.0001 1.00117 0.99324
1.00009 1.00014 0.994255
1.00026 1.00178 0.99231
1.00031 1.00021 0.99363
0.999446 0.99778 0.999149
0.999672 0.998686 0.996452
0.999695 1.00076 0.994248
1.0016 1.00067 0.990835
0.999578 0.999513 0.995746
1.00006 1.00179 0.99261
1.00058 1.00131 0.992147
1.00078 1.00186 0.991124
0.999618 0.999112 0.996122
0.999734 0.998363 0.996686
1.00001 1.00058 0.993952
1.00214 1.00027 0.990221
1.00101 1.00107 0.991583
1.00242 1.00075 0.989238
1.00004 1.00149 0.992999
1.00116 1.00146 0.990949
1.00046 1.0024 0.991373
1.00091 1.00215 0.990671
0.999813 0.998069 0.996849
1.00007 1.00099 0.993424
1.00001 1.00006 0.994473
1.00019 1.00162 0.992622
1.00305 1.00014 0.988644
1.00168 1.00125 0.99019
1.0029 1.00062 0.988444
1.00034 1.00226 0.991802
1.00143 1.00149 0.990417
1.00049 1.00314 0.990576
1.00108 1.00206 0.990281
1.00015 0.999077 0.995227
0.99993 0.997644 0.997045
0.999706 0.99681 0.999312
0.999634 0.997006 0.999292
0.999558 0.997221 0.999268
0.999788 0.998369 0.996559
0.999551 0.997468 0.99919
0.999727 0.99874 0.996305
0.999519 0.997754 0.999101
1.00052 0.999969 0.993473
1.00074 0.999975 0.993082
1.00262 0.999896 0.989679
1.00299 0.999766 0.989099
1.00106 0.999986 0.992441
0.999747 1 0.998087
1.00111 0.999967 0.992358
1.00324 0.999702 0.988679
1.00277 0.999813 0.989477
1.004 0.999446 0.987556
1.00245 1.00002 0.989879
1.00361 0.999538 0.98821
1.0033 0.999678 0.988597
1.00427 0.999364 0.987101
1.00378 0.999453 0.987977
1.00443 0.999053 0.987151
1.00339 0.99976 0.988385
1.00412 0.999031 0.987738
1.00101 0.999981 0.992554
1.00072 0.999912 0.993762
1.00281 0.999762 0.989197
1.00264 0.999829 0.990263
0.999453 0.998058 0.998989
0.999586 0.999911 0.99604
1.00021 1.00175 0.99287
1.00205 1.00036 0.990561
1.00347 0.999617 0.988225
1.00236 1.00078 0.989631
1.00104 1.00188 0.990564
1.00215 1.00122 0.989287
0.999652 0.999185 0.995997
1.00008 1.00066 0.993726
1.00313 0.999721 0.988751
1.00264 0.999761 0.990045
1.00382 0.999537 0.987992
1.00367 0.999394 0.988311
0.999618 0.99952 0.995699
1.00005 1.0016 0.99288
1.00053 1.00215 0.991305
1.00296 1.00024 0.988953
1.00403 0.99914 0.987835
1.00158 1.00204 0.989712
1.00284 1.00052 0.988678
1.00246 1.00098 0.988938
1.00011 1.00111 0.993247
1.00026 1.00174 0.992321
1.00009 1.00015 0.994244
1.00411 0.999484 0.987556
1.00363 0.999447 0.988367
1.00429 0.99929 0.987294
1.00423 0.998856 0.987727
1.00348 0.999724 0.988099
1.00435 0.998547 0.987832
1.00007 1.00144 0.992996
1.00314 1.00021 0.988396
1.00039 1.00202 0.991849
1.00078 1.00261 0.990334
1.00189 1.00206 0.989131
1.00271 1.00061 0.989162
1.00013 0.99974 0.994575
1.00034 1.00181 0.992152
1.00025 1.00136 0.992688
1.00025 1.00236 0.991835
1.00214 1.00027 0.990227
0.999728 0.998341 0.996702
0.999631 0.999052 0.996138
1.00002 1.00058 0.993957
1.00098 1.00107 0.991607
1.00242 1.00075 0.98924
1.00001 1.00154 0.992999
1.00046 1.0024 0.991367
1.00118 1.00146 0.990992
1.00088 1.00215 0.990627
0.999804 0.998062 0.996857
1.00006 1.00103 0.993423
1.00002 1.00005 0.994484
1.00018 1.00165 0.992612
1.00305 1.00015 0.988635
1.00166 1.00125 0.990205
1.0029 1.00062 0.988448
1.0003 1.00227 0.991811
1.00146 1.00151 0.990465
1.00051 1.00314 0.99054
1.00104 1.00202 0.990481
0.999874 0.997836 0.996965
1.00005 0.999644 0.994821
1.00029 1.00189 0.992229
1.00018 1.00115 0.99311
1.00015 1.00246 0.9919
1.00358 0.999843 0.987936
1.00202 1.00124 0.989514
1.00316 1.00045 0.988155
1.0003 1.00324 0.99091
1.0016 1.00144 0.990129
1.00065 1.00333 0.989661
1.00012 0.99922 0.995134
1.00018 1.00007 0.994183
1.00017 0.998971 0.99529
1.00014 0.999097 0.995222
0.999965 0.997443 0.997554
0.999919 0.997625 0.997272
0.999829 0.996622 0.998457
0.999718 0.996772 0.999321
0.999645 0.996962 0.999302
0.999854 0.998109 0.996698
0.999615 0.997209 0.999235
0.999794 0.998388 0.996544
0.999554 0.99751 0.99917
0.999721 0.998786 0.996284
0.99952 0.997786 0.999077
1.00245 1.00004 0.989881
1.00277 0.99982 0.989476
1.00361 0.999541 0.98821
1.004 0.999452 0.987558
1.00324 0.999701 0.988682
1.00111 0.999971 0.992354
1.0033 0.999677 0.988594
1.00427 0.999365 0.987105
1.00377 0.999465 0.987979
1.00445 0.999031 0.987094
1.0034 0.999758 0.988378
1.00412 0.999036 0.987741
1.00433 0.999328 0.98702
1.00473 0.998999 0.986573
1.00429 0.998961 0.987491
1.00467 0.998769 0.987048
1.0039 0.999337 0.987842
1.00438 0.998423 0.987859
1.0031 0.99971 0.988692
1.00266 0.999746 0.990039
1.00384 0.999515 0.987912
1.00366 0.999467 0.988445
0.999611 0.999565 0.995695
1.00007 1.0016 0.992883
1.00055 1.00211 0.991405
1.003 1.00028 0.988945
1.00402 0.999052 0.987802
1.00284 1.00053 0.988676
1.00152 1.00205 0.989605
1.0024 1.00095 0.988957
1.00012 1.00105 0.993254
1.00027 1.00171 0.992332
1.00008 1.00016 0.994232
1.00414 0.999462 0.987411
1.00365 0.999408 0.988368
1.00429 0.999251 0.987251
1.00423 0.998896 0.987753
1.00009 1.00139 0.993005
1.00043 1.00201 0.991831
1.00074 1.00261 0.99046
1.00348 0.999825 0.988163
1.00437 0.998439 0.987845
1.00181 1.00212 0.989065
1.00315 1.00019 0.988391
1.00265 1.00052 0.989191
1.00034 1.00182 0.992166
1.00026 1.00237 0.991779
1.00013 0.99976 0.994567
1.00025 1.00129 0.992762
1.00456 0.99916 0.986779
1.00415 0.999104 0.987695
1.00453 0.998987 0.987107
1.00452 0.998414 0.987556
1.00394 0.999161 0.987872
1.0046 0.99818 0.98767
1.00036 1.00185 0.992074
1.00324 0.999422 0.988874
1.00039 1.00254 0.991159
1.00106 1.00303 0.989567
1.00205 1.00208 0.988646
1.0028 1.00054 0.989121
1.00015 0.999563 0.994725
1.00026 1.00084 0.993174
1.00035 1.00223 0.991741
1.00021 1.00213 0.992127
1.00025 1.00254 0.991623
0.999797 0.998054 0.996865
1.00306 1.00017 0.988626
1.00002 1.00003 0.994495
1.00004 1.00109 0.993422
1.00018 1.00168 0.992602
1.00163 1.00125 0.99022
1.0029 1.00061 0.988452
1.00027 1.00228 0.991821
1.00054 1.00316 0.990504
1.00148 1.00153 0.990513
1.00101 1.00198 0.99068
0.999869 0.997827 0.996969
1.00006 0.999636 0.994829
1.00027 1.00189 0.992226
1.00017 1.00116 0.993111
1.00014 1.00249 0.991846
1.00358 0.999859 0.987923
1.00202 1.00123 0.989521
1.00314 1.00046 0.98814
1.00026 1.00324 0.990925
1.00161 1.00147 0.990167
1.00075 1.00331 0.989741
1.00009 0.9994 0.995013
1.00018 1.00067 0.993575
1.00028 1.00273 0.99143
1.0001 1.00213 0.992301
1.00009 1.00314 0.991378
1.0039 0.99945 0.987695
1.00224 1.00107 0.989237
1.00298 0.999923 0.988813
1.0002 1.00423 0.989994
1.00142 1.00266 0.989266
1.00011 0.99923 0.995134
1.00017 1.0002 0.993982
1.00018 1.00009 0.994128
1.00014 1.00084 0.993626
1.00019 1.00005 0.994187
1.0002 0.998897 0.995309
1.00017 0.998975 0.995288
1.00002 0.997277 0.997611
1.00013 0.999114 0.995218
0.999971 0.997434 0.997563
0.999908 0.996417 0.998507
0.99991 0.997612 0.997497
0.999808 0.99659 0.998902
0.99973 0.996736 0.999329
0.999906 0.997913 0.996792
0.999858 0.998119 0.996691
0.999694 0.996987 0.999263
0.99961 0.997253 0.999222
0.999799 0.998405 0.996528
0.999556 0.997551 0.99915
1.00341 0.999757 0.988371
1.00377 0.999471 0.987981
1.00412 0.999038 0.987744
1.00448 0.999012 0.987036
1.00428 0.999365 0.987108
1.0033 0.999677 0.98859
1.00434 0.99933 0.98702
1.00475 0.999009 0.986515
1.00429 0.998967 0.987496
1.00467 0.998716 0.987052
1.00391 0.999339 0.987828
1.0044 0.998388 0.987828
1.0048 0.999002 0.986433
1.00496 0.998757 0.986446
1.00454 0.998489 0.987426
1.00479 0.998539 0.987008
1.00422 0.998689 0.98781
1.0046 0.998135 0.987803
1.00416 0.999438 0.987265
1.00367 0.999375 0.988369
1.00429 0.999214 0.987209
1.00423 0.998933 0.987779
1.00012 1.00134 0.993014
1.00047 1.002 0.991813
1.0007 1.00262 0.990586
1.00348 0.999926 0.988228
1.00438 0.998331 0.987857
1.00317 1.00017 0.988386
1.00172 1.00218 0.989
1.00259 1.00043 0.98922
1.00034 1.00181 0.992181
1.00027 1.00239 0.991724
1.00012 0.999778 0.99456
1.00026 1.00121 0.992836
1.00457 0.99916 0.986777
1.00416 0.999088 0.987713
1.00448 0.99897 0.987158
1.00453 0.998413 0.987573
1.00039 1.00184 0.992071
1.00039 1.00249 0.991263
1.00104 1.00309 0.989556
1.00395 0.999255 0.987868
1.00454 0.998054 0.987858
1.00204 1.00214 0.988604
1.00327 0.999442 0.98887
1.00275 1.0003 0.989204
1.00037 1.00222 0.991745
1.00026 1.00254 0.99161
1.0002 1.00214 0.992119
1.00015 0.999557 0.994652
1.00027 1.00079 0.993223
1.00484 0.99877 0.98663
1.00455 0.998646 0.987298
1.00477 0.998127 0.987301
1.00419 0.998473 0.987956
1.00037 1.00222 0.991682
1.00363 0.999016 0.988952
1.00029 1.003 0.990652
1.00134 1.00354 0.988533
1.00241 1.00205 0.988145
1.00017 0.999422 0.994685
1.00026 1.00054 0.993617
1.0002 1.0016 0.99267
1.00034 1.00232 0.991682
1.00019 1.00266 0.991677
1.00032 1.00249 0.991499
0.999863 0.997819 0.996974
1.00006 0.999629 0.994837
1.00358 0.999873 0.987909
1.00017 1.00118 0.993112
1.00026 1.00188 0.992224
1.00014 1.00252 0.991792
1.00202 1.00123 0.989528
1.00312 1.00047 0.988125
1.00024 1.00323 0.99094
1.00086 1.00329 0.98982
1.00163 1.00149 0.990207
1.00008 0.999402 0.995016
1.00019 1.00066 0.993581
1.00025 1.00272 0.991465
1.00011 1.00212 0.992297
1.00008 1.00318 0.991296
1.00388 0.999494 0.987696
1.00227 1.00106 0.989211
1.00306 0.999784 0.988873
1.00016 1.00421 0.989965
1.00142 1.00284 0.989106
1.00016 1.00038 0.993898
1.00013 1.00163 0.992659
1.00014 1.00371 0.990753
1.00006 1.00295 0.991484
1.00019 1.00347 0.990835
1.00419 0.998176 0.988406
1.00237 1.00147 0.988806
1.00321 0.998759 0.988809
1.00048 1.00462 0.989471
1.00117 1.00349 0.988149
1.00011 0.999239 0.995133
1.00017 1.00019 0.994031
1.00015 1.00097 0.993292
1.00018 1.00011 0.994074
1.0002 1.00005 0.994188
1.00013 1.00083 0.993546
1.00008 1.0014 0.993136
1.00012 1.00078 0.993547
1.00022 0.999999 0.994204
1.00021 0.998892 0.995286
1.0002 0.998896 0.99531
1.00006 0.997174 0.997622
1.00017 0.998979 0.995286
1.00002 0.997273 0.997615
0.999965 0.996257 0.998546
0.999977 0.99742 0.997572
0.9999 0.996395 0.998506
0.999784 0.99655 0.999352
0.999958 0.997727 0.996884
0.999911 0.997921 0.996788
0.999766 0.996787 0.999287
0.999863 0.99813 0.996684
0.999684 0.997018 0.999255
0.999606 0.997291 0.999208
1.00392 0.999341 0.987814
1.00428 0.998977 0.987502
1.00442 0.998351 0.987796
1.00467 0.998662 0.987056
1.00477 0.999015 0.986456
1.00434 0.999333 0.987019
1.0048 0.999028 0.986421
1.00496 0.998781 0.986437
1.00456 0.998497 0.987388
1.00479 0.998455 0.987043
1.00424 0.998691 0.987814
1.00456 0.998074 0.987849
1.00504 0.998714 0.986304
1.00501 0.998421 0.986649
1.00479 0.998062 0.987409
1.00455 0.998061 0.987941
1.00458 0.99916 0.986776
1.00417 0.999067 0.98773
1.00443 0.998951 0.987208
1.00454 0.99841 0.987589
1.00041 1.00184 0.992068
1.0004 1.00244 0.991366
1.00101 1.00315 0.989546
1.00395 0.999348 0.987863
1.00448 0.997936 0.988045
1.00331 0.999463 0.988867
1.00202 1.00219 0.988561
1.00271 1.00008 0.989286
1.00039 1.00221 0.99175
1.00028 1.00254 0.991596
1.00018 1.00216 0.992111
1.00015 0.999554 0.994579
1.00028 1.00074 0.993273
1.00479 0.998764 0.986704
1.00455 0.998697 0.987275
1.00476 0.998175 0.987383
1.00041 1.00222 0.99167
1.00039 1.00296 0.990765
1.00128 1.00363 0.988509
1.00427 0.998491 0.987931
1.00239 1.00186 0.988305
1.00345 0.998985 0.989044
1.00017 0.999403 0.994702
1.00035 1.00232 0.99168
1.00032 1.00248 0.991533
1.00018 1.00272 0.991635
1.00021 1.00159 0.992701
1.00026 1.00053 0.993559
1.0049 0.99851 0.986809
1.00484 0.998121 0.987276
1.00477 0.998065 0.987215
1.00471 0.997831 0.987738
1.00035 1.00247 0.991476
1.00316 1.00041 0.988218
1.00051 1.00397 0.989425
1.00158 1.00399 0.987759
1.00018 0.99928 0.99482
1.00026 1.00038 0.993808
1.00022 1.00131 0.992984
1.00016 1.00232 0.99203
1.00037 1.00247 0.991524
1.0003 1.00266 0.991391
1.00008 0.999403 0.995019
1.00019 1.00065 0.993588
1.00386 0.99954 0.987698
1.00011 1.00211 0.992293
1.00022 1.00272 0.991501
1.00007 1.00323 0.991214
1.0023 1.00105 0.989186
1.00314 0.999637 0.988932
1.00013 1.00419 0.989937
1.00141 1.00304 0.988946
1.00017 1.00037 0.993903
1.00014 1.00162 0.992687
1.0001 1.00368 0.990842
1.00006 1.00296 0.991505
1.00013 1.00356 0.990798
1.00426 0.998226 0.988323
1.00244 1.00131 0.988825
1.00314 0.998689 0.989436
1.00038 1.00461 0.989431
1.00132 1.00387 0.98784
1.00015 1.00116 0.993096
1.0001 1.00246 0.991863
1.00009 1.0043 0.990202
1.00009 1.0036 0.990626
1.00488 0.997278 0.988145
1.00439 0.997068 0.988893
1.00257 1.00184 0.9878
1.00055 1.00481 0.988267
1.00018 1.00019 0.99408
1.00015 1.00099 0.99333
1.0001 1.00161 0.992847
1.0002 1.00005 0.994188
1.00013 1.00082 0.993467
1.00022 0.999989 0.994205
1.00009 1.0014 0.993071
1.00012 1.00077 0.99357
1.00006 1.00185 0.992691
1.00008 1.00128 0.993119
1.00013 1.00072 0.993582
1.00023 0.999984 0.994191
1.00021 0.998934 0.995237
1.00021 0.998892 0.995285
1.00009 0.997142 0.9976
1.0002 0.998891 0.995311
1.00006 0.997187 0.997619
1.00001 0.996176 0.99854
1.00003 0.997272 0.99762
0.999959 0.996237 0.998546
0.99989 0.996376 0.998504
1 0.997542 0.996984
0.999961 0.997735 0.99688
0.999831 0.9966 0.999312
0.999916 0.997928 0.996784
0.999756 0.996819 0.99928
0.999674 0.997053 0.999247
1.00425 0.998693 0.987819
1.00458 0.998505 0.987351
1.00453 0.998015 0.987896
1.0048 0.99837 0.987078
1.00496 0.998807 0.986429
1.0048 0.999055 0.98641
1.00501 0.998712 0.986359
1.005 0.998437 0.986667
1.00479 0.998048 0.987417
1.00453 0.998008 0.987935
1.00507 0.998433 0.986533
1.00505 0.997819 0.987191
1.00489 0.997636 0.987655
1.00475 0.998753 0.986777
1.00456 0.99875 0.987253
1.00475 0.998219 0.987465
1.00045 1.00221 0.991658
1.0005 1.00291 0.990879
1.00123 1.00376 0.988486
1.00435 0.998504 0.987908
1.00328 0.998955 0.989135
1.00238 1.00168 0.988466
1.00037 1.00232 0.991678
1.00029 1.00247 0.991567
1.00017 1.00276 0.991593
1.00017 0.99938 0.994719
1.00021 1.00156 0.992733
1.00026 1.00052 0.9935
1.00492 0.99852 0.986752
1.00482 0.998153 0.987268
1.00483 0.998099 0.987186
1.00039 1.00248 0.991445
1.00044 1.00394 0.98967
1.00165 1.00397 0.987752
1.00456 0.99795 0.987946
1.00317 1.00034 0.988175
1.00018 0.999258 0.994908
1.00025 1.00038 0.993809
1.00032 1.00243 0.991519
1.00031 1.00257 0.991502
1.00016 1.00231 0.992
1.00021 1.00134 0.992936
1.00499 0.998053 0.987052
1.00498 0.99771 0.987393
1.00504 0.997511 0.98738
1.00433 0.99788 0.988317
1.00011 1.00318 0.991058
1.0022 1.00318 0.987245
1.00081 1.00475 0.988683
1.00019 0.999111 0.995111
1.00018 1.00009 0.994168
1.00023 1.00033 0.993758
1.0002 1.00117 0.993091
1.00013 1.00201 0.992378
1.00005 1.00309 0.99136
1.00049 1.00179 0.991789
1.00022 1.00294 0.991808
1.00018 1.00035 0.993907
1.00015 1.00161 0.992716
1.00431 0.998282 0.988239
1.00006 1.00297 0.991526
1.00006 1.00366 0.99093
1.00007 1.00366 0.990761
1.00251 1.00113 0.988843
1.00308 0.998614 0.990059
1.00029 1.00459 0.98939
1.00148 1.00418 0.987531
1.00015 1.0012 0.993054
1.0001 1.00249 0.991884
1.00007 1.0043 0.990268
1.00013 1.00363 0.990674
1.00496 0.99728 0.987986
1.0043 0.997213 0.988971
1.00268 1.00172 0.98803
1.00072 1.00483 0.988129
1.00011 1.00189 0.992537
1.00498 0.996747 0.988222
1.00007 1.00341 0.991222
1.00034 1.00432 0.989685
1.00506 0.99621 0.988696
1.00406 0.998782 0.987961
1.00162 1.00427 0.987508
1.00015 1.001 0.993368
1.0001 1.00161 0.992842
1.00005 1.00216 0.992379
1.00022 0.999984 0.994206
1.00013 1.00077 0.993593
1.00009 1.00141 0.993006
1.00023 0.999978 0.99419
1.00013 1.00073 0.993581
1.00007 1.00187 0.992633
1.00009 1.00129 0.993179
1.00007 1.00216 0.992329
1.00008 1.00171 0.992703
1.00009 1.00122 0.993261
1.00017 1.00068 0.993617
1.00023 1.00003 0.994141
1.00021 0.998986 0.995196
1.00021 0.998937 0.995238
1.00011 0.997146 0.997565
1.00021 0.998895 0.995285
1.00009 0.997163 0.997595
1.00004 0.99614 0.998522
1.00007 0.9972 0.997617
1.00001 0.996148 0.998544
0.999953 0.996216 0.998546
1.0002 0.998957 0.995243
1.00005 0.997365 0.997076
1.00001 0.997549 0.996979
0.999889 0.996421 0.999337
0.999963 0.997745 0.996876
0.999823 0.99663 0.999304
0.999747 0.996848 0.999272
1.00451 0.997955 0.987929
1.00479 0.998037 0.987425
1.005 0.998449 0.986684
1.00498 0.998714 0.986414
1.00508 0.998423 0.986537
1.00506 0.997841 0.987135
1.00487 0.997622 0.987668
1.00508 0.997918 0.987023
1.0051 0.997334 0.987648
1.00497 0.996353 0.988517
1.00494 0.998537 0.986694
1.0048 0.998181 0.987261
1.0049 0.998151 0.987157
1.00043 1.00249 0.991415
1.00037 1.0039 0.989914
1.00169 1.00389 0.987745
1.00441 0.998062 0.988154
1.00317 1.00024 0.988134
1.00028 1.00239 0.991514
1.00033 1.00247 0.991611
1.00015 1.00231 0.991971
1.00018 0.999235 0.994996
1.00025 1.00038 0.993809
1.0002 1.00136 0.992888
1.00499 0.997979 0.987144
1.00019 0.999105 0.995109
1.00017 1.00009 0.994126
1.00498 0.997749 0.987368
1.00498 0.997648 0.987302
1.00007 1.00315 0.991209
1.00079 1.00472 0.988544
1.0022 1.00305 0.987263
1.00432 0.997889 0.988352
1.00023 1.00032 0.993885
1.00019 1.00117 0.993091
1.00058 1.00188 0.991604
1.00013 1.00242 0.992184
1.00003 1.00318 0.991274
1.00014 1.00197 0.992387
1.00506 0.997169 0.987805
1.00511 0.997669 0.987339
1.00502 0.99641 0.98831
1.0034 0.999738 0.988062
1.00022 1.00319 0.991089
1.00134 1.00467 0.987712
1.00017 0.999969 0.994215
1.00019 1.00023 0.99399
1.00011 1.00095 0.993579
1.00017 1.00115 0.993056
1.00012 1.00186 0.992633
0.999972 1.00267 0.991832
0.999871 1.00411 0.990926
1.00019 1.00184 0.992314
1.00016 1.00123 0.993011
1.0001 1.00251 0.991906
1.00503 0.997278 0.987826
1.00421 0.997385 0.989052
1.00018 1.00366 0.990721
1.00005 1.0043 0.990334
1.00279 1.00164 0.988262
1.00089 1.00488 0.98799
1.0001 1.00192 0.992524
1.00498 0.996761 0.988267
1.00005 1.00332 0.991241
1.00032 1.00428 0.989649
1.00505 0.996132 0.988627
1.00413 0.998724 0.98804
1.00151 1.00441 0.987608
1.00004 1.0028 0.99181
1.00517 0.995994 0.989393
1.00036 1.00371 0.990624
1.00074 1.00469 0.988999
1.00487 0.996312 0.98867
1.00237 1.00224 0.987636
1.00122 1 0.991679
1.0001 1.00161 0.992838
1.00005 1.00216 0.992376
1.00011 1.0024 0.992022
1.00023 0.999971 0.99419
1.00013 1.00074 0.993579
1.00008 1.00128 0.993238
1.00008 1.00189 0.992574
1.00023 1.00002 0.994137
1.00017 1.00067 0.993587
1.00008 1.00217 0.992308
1.0001 1.00121 0.993255
1.00008 1.00173 0.992756
1.00009 1.00205 0.992388
1.00006 1.00151 0.993012
1.00015 1.00113 0.993269
1.00023 1.00067 0.993474
1.00024 1.00006 0.993997
1.00019 1.00069 0.993642
1.00023 1.00008 0.994
1.0002 0.999012 0.995178
1.00021 0.998986 0.995197
1.00013 0.997192 0.997101
1.00021 0.99894 0.995238
1.00012 0.99717 0.997346
1.00002 0.996087 0.999369
1.00009 0.997184 0.997591
1.00004 0.996107 0.998526
1.00001 0.996121 0.998547
1.0002 0.998844 0.995355
1.0002 0.998958 0.99524
1.00009 0.997224 0.997152
1.00004 0.997372 0.99729
0.99994 0.996271 0.999359
1.00001 0.997556 0.996974
0.999882 0.996451 0.99933
0.999814 0.996663 0.999296
1.00485 0.997597 0.987681
1.00507 0.997858 0.98708
1.00509 0.998412 0.986541
1.00508 0.997918 0.987013
1.00509 0.997331 0.987609
1.00493 0.99649 0.988611
1.00508 0.996931 0.987978
1.00233 1.00004 0.988705
1.00509 0.995669 0.989307
1.00017 0.999895 0.994387
1.00498 0.997909 0.987235
1.00499 0.997774 0.987344
1.00493 0.997814 0.987225
1.00004 1.00313 0.991359
1.00079 1.00473 0.988404
1.0022 1.00298 0.987281
1.00432 0.997946 0.988388
1.00066 1.00199 0.991421
1.00001 1.00188 0.992564
1.00001 1.00325 0.991187
1.0002 0.999102 0.995107
1.00016 1.00192 0.992396
1.00023 1.00032 0.994011
1.00019 1.00117 0.99309
1.00017 1.0001 0.994083
1.00504 0.99714 0.987857
1.00017 0.99996 0.994271
1.0002 1.00024 0.993987
1.00011 1.00093 0.993484
1.00512 0.99747 0.987347
1.00498 0.996708 0.988217
1.00031 1.00282 0.991159
1.0011 1.00475 0.987683
1.00345 0.999808 0.988065
1.00017 1.00116 0.993117
1.00011 1.00184 0.992608
1.00014 1.00215 0.992073
0.99987 1.0039 0.991052
0.999994 1.00269 0.991896
1.00512 0.99683 0.988123
1.00515 0.997922 0.987013
1.00461 0.997137 0.988375
1.00205 1.00254 0.988359
1.0002 1.00343 0.990825
1.00012 1.00078 0.993507
1.00012 1.00108 0.993253
1.00011 1.00148 0.993038
1.00008 1.00175 0.9927
1.00007 1.0023 0.992265
0.999872 1.00334 0.991483
0.99975 1.00423 0.99075
1.00009 1.00194 0.99251
1.00003 1.00324 0.99126
1.00501 0.996776 0.988311
1.00502 0.996059 0.988559
1.00422 0.998637 0.98812
1.00029 1.00424 0.989613
1.0014 1.00454 0.987708
1.00002 1.00275 0.9919
1.00513 0.99579 0.989375
1.00023 1.00368 0.99066
1.00052 1.0047 0.989107
1.00491 0.995999 0.988862
1.00235 1.00242 0.987601
1.00123 1.00001 0.990578
1.00009 1.00311 0.991416
1.00512 0.99524 0.990427
1.00006 1.00398 0.99069
1.00053 1.00472 0.988871
1.00303 0.998853 0.988681
1.00084 0.995198 0.964875
0.996576 1.00122 0.980946
1.0008 1.00009 0.992601
0.998094 0.997524 0.957528
0.99445 0.998262 0.957359
1.00005 1.00217 0.992372
1.00009 1.00241 0.992067
1.00018 1.0022 0.992156
1.00023 1.00002 0.994134
1.00017 1.00065 0.993556
1.00011 1.0012 0.99325
1.00007 1.00174 0.99281
1.00008 1.00216 0.992287
1.00014 1.00113 0.993226
1.00023 1.00007 0.994048
1.00023 1.00065 0.993513
1.00008 1.00206 0.992398
1.00007 1.0015 0.993
1.00009 1.0014 0.993019
1.00009 1.00167 0.992799
1.00021 1.00105 0.99312
1.00027 1.00069 0.993364
1.00023 1.00007 0.993993
1.00025 1.00068 0.993502
1.0002 1.00105 0.993253
1.00014 1.00075 0.993575
1.0002 1.0007 0.993577
1.00023 1.00006 0.994111
1.00023 1.00009 0.993998
1.0002 0.999019 0.995174
1.0002 0.999009 0.995178
1.00012 0.997237 0.997083
1.00021 0.998984 0.995198
1.00013 0.997195 0.9971
1.00003 0.996093 0.999363
1.00012 0.997194 0.997128
1.00004 0.99609 0.998938
1.00004 0.996074 0.998529
1.0002 0.998757 0.995438
1.0002 0.998839 0.995354
1.00011 0.997115 0.997219
1.00021 0.998957 0.995236
1.00008 0.997218 0.997365
0.99998 0.996155 0.999376
1.00005 0.99739 0.997061
0.999932 0.996318 0.99935
0.999874 0.99648 0.999322
1.00508 0.997335 0.98757
1.00509 0.99792 0.987004
1.00488 0.996619 0.988704
1.00217 0.998888 0.988832
1.00506 0.99693 0.988043
1.00515 0.996008 0.989175
1.00517 0.997099 0.987901
0.998546 0.999532 0.978596
1.00351 0.996936 0.989107
1.00018 0.999857 0.994422
1.00018 0.99989 0.994386
1.00011 1.00069 0.993721
1.00009 1.00064 0.993815
1.00504 0.997109 0.987909
1.00513 0.997347 0.987355
1.00498 0.996912 0.988123
1.00039 1.00248 0.991229
1.00087 1.0048 0.987654
1.00349 0.999912 0.988068
1.0001 1.00247 0.99183
0.999881 1.0037 0.991179
1.00002 1.00271 0.991961
1.0002 1.00025 0.993983
1.00011 1.00182 0.992584
1.00017 1.00116 0.993179
1.00017 0.999953 0.994328
1.00011 1.00092 0.993389
1.00498 0.996869 0.988165
1.00012 1.00078 0.993604
1.00012 1.00106 0.993293
1.00012 1.00145 0.992984
1.00515 0.997519 0.98711
1.00462 0.997232 0.988304
1.00026 1.00328 0.990812
1.002 1.00284 0.988208
1.00009 1.00177 0.9927
1.00002 1.0023 0.992296
0.999773 1.00425 0.990744
0.999916 1.0035 0.991338
1.00525 0.996967 0.987734
1.00504 0.997121 0.987513
1.00305 1.0004 0.98843
1.00016 1.004 0.990376
1.00011 1.00151 0.992856
1.00005 1.00164 0.992862
1.00003 1.00235 0.992225
0.999936 1.00411 0.990572
0.99985 0.995047 0.962499
0.999995 1.00269 0.99199
1.00011 1.00364 0.990695
1.00509 0.995553 0.989358
1.00494 0.995693 0.989056
1.00232 1.00261 0.987567
1.00031 1.00466 0.989214
1.00121 1.00001 0.989471
1.00002 1.00314 0.991462
1.00511 0.995123 0.990357
1.00001 1.00394 0.990714
1.00047 1.00481 0.988871
1.00332 0.998809 0.988667
1.00069 0.99566 0.962809
0.996456 1.00102 0.977551
1.00071 1.00012 0.992903
0.997405 0.997972 0.957569
0.994426 0.998235 0.954204
1.00003 1.00291 0.991771
0.998972 0.995059 0.958018
0.994632 0.999682 0.958302
1.00426 0.995787 0.990951
0.999766 1.00423 0.990977
1.00068 1.00346 0.989799
1.00019 0.999729 0.99525
0.998268 0.998748 0.964755
0.995105 1.0015 0.976641
0.99655 0.99948 0.959117
0.994838 0.998256 0.964422
1.00006 1.00243 0.992113
1.00015 1.00222 0.992153
1.00013 1.00186 0.992674
1.00023 1.00007 0.994099
1.00023 1.00064 0.993552
1.00015 1.00112 0.993184
1.00008 1.00149 0.992988
1.00008 1.00207 0.992408
1.00024 1.00008 0.993993
1.00008 1.00139 0.993048
1.00022 1.00107 0.993163
1.00027 1.00067 0.993429
1.00009 1.00168 0.992773
1.00019 1.00132 0.992881
1.00015 1.00144 0.992952
1.00027 1.00098 0.993152
1.00027 1.00067 0.993464
1.00025 1.00068 0.9935
1.0002 1.00104 0.993214
1.00028 1.00096 0.993147
1.00014 1.00115 0.993208
1.00023 1.00121 0.993038
1 1.0018 0.992777
1.00011 1.00087 0.993514
1.00014 1.00076 0.993574
1.00021 1.00008 0.99412
1.0002 1.0007 0.993513
1.00023 1.00007 0.994072
1.0002 0.999031 0.995171
1.00023 1.0001 0.993995
1.0002 0.999015 0.995174
1.00009 0.997263 0.997524
1.0002 0.999008 0.995177
1.00011 0.99723 0.997304
1.00006 0.996118 0.998478
1.00013 0.997198 0.997099
1.00003 0.996098 0.999361
1.00006 0.996093 0.998507
1.00018 0.999855 0.994414
1.0002 0.998718 0.995484
1.0002 0.998756 0.995438
1.00012 0.997037 0.997275
1.00021 0.998835 0.995353
1.00011 0.997108 0.99722
1.00001 0.996062 0.999392
1.00007 0.997231 0.997566
0.99999 0.996197 0.998938
0.999966 0.996348 0.998475
1.00189 0.997834 0.988955
1.00505 0.996937 0.988108
1.0052 0.996349 0.989043
0.998069 0.998841 0.980627
1.0034 0.997594 0.989338
1.00523 0.996578 0.987906
1.0048 0.997635 0.988764
0.999044 0.997259 0.982248
0.999222 0.995624 0.96371
0.997599 0.99783 0.95753
0.994521 0.997404 0.957206
1.00008 1.00065 0.993713
1.00018 0.999859 0.994421
1.00018 0.999887 0.994385
1.00011 1.00069 0.993696
1.00005 1.00122 0.9933
1.00009 1.00107 0.99339
1.0001 1.0007 0.993752
1.00009 1.00065 0.993771
1.00483 0.996886 0.988208
1.00516 0.997064 0.987208
1.00459 0.997374 0.988234
1.00033 1.00309 0.990798
1.00195 1.00303 0.988055
0.999794 1.00425 0.99074
0.999958 1.00368 0.991193
0.999983 1.0023 0.992328
1.00012 1.00105 0.993333
1.0001 1.0018 0.992701
1.00013 1.00079 0.993702
1.00012 1.00142 0.99293
1.00513 0.997184 0.987598
1.00009 1.0015 0.99292
1.00007 1.00165 0.992832
1.00492 0.997359 0.987526
1.00272 1.00019 0.98878
1.00026 1.00401 0.990182
1.00006 1.00236 0.992169
0.999958 1.00416 0.99058
1.00436 1.00061 0.986804
1.0042 0.99732 0.989466
1.00049 1.00268 0.990099
1.00004 1.00359 0.991057
1.00005 1.00176 0.992655
1.0001 1.00211 0.992342
1.00008 1.00288 0.991604
0.998759 0.994831 0.956543
1.00044 0.995089 0.966741
0.999958 1.00317 0.991509
0.99996 1.00395 0.990739
1.00509 0.99502 0.990286
1.00361 0.998824 0.988653
1.00041 1.00493 0.988872
1.00059 0.995267 0.961761
0.996507 1.0011 0.97883
1.0004 1.00015 0.99321
0.997311 0.997574 0.958924
0.994393 0.998222 0.95104
0.99999 1.00294 0.991764
0.999015 0.995133 0.956413
0.994611 0.999778 0.95707
1.00443 0.996114 0.990862
0.999672 1.00425 0.991015
1.00055 1.0032 0.989909
1.00016 0.998581 0.995791
0.998369 0.998714 0.962528
0.995361 1.00283 0.979345
0.996279 0.999702 0.958278
0.995032 0.998349 0.962737
0.999966 1.00258 0.992258
0.994535 0.999828 0.961892
0.996247 1.00072 0.974628
1.00161 0.998327 0.993692
0.999454 1.00398 0.992152
0.998773 1.00159 0.996487
0.996423 1.00132 0.983422
0.995921 1.00107 0.962171
0.995796 0.999619 0.960032
0.996892 0.997383 0.969365
1.00012 1.00224 0.99215
1.00012 1.00189 0.992592
0.999882 1.00134 0.993346
1.00024 1.00008 0.993993
1.00027 1.00066 0.993494
1.00021 1.00109 0.993205
1.00007 1.00138 0.993077
1.0001 1.00169 0.992748
1.00027 1.00066 0.993465
1.00018 1.00136 0.992922
1.00027 1.00097 0.993147
1.00011 1.00141 0.993029
1.00019 1.00087 0.993571
1.00029 1.00104 0.993035
1.0003 1.00096 0.99311
1.00026 1.00067 0.993497
1.00021 1.00103 0.993174
1.00027 1.00097 0.99315
1.00013 1.00115 0.993204
1.00024 1.00117 0.993024
1.00007 1.00137 0.993086
1.00027 1.00113 0.993007
1.00018 1.00137 0.992899
1.00005 1.00245 0.992038
0.99985 1.00358 0.991242
0.99996 1.00227 0.992304
0.999994 1.00185 0.992764
1.00009 1.00108 0.993353
1.00011 1.00089 0.993508
1.00019 1.00014 0.994109
1.00014 1.00077 0.993573
1.00021 1.00008 0.99412
1.00018 0.99907 0.995165
1.00023 1.00007 0.994033
1.0002 0.999027 0.995173
1.00006 0.997304 0.997529
1.00021 0.999012 0.995174
1.0001 0.997258 0.997306
1.00004 0.996126 0.998483
1.00012 0.99722 0.997084
1.00002 0.996118 0.999357
1.00003 0.996102 0.999359
1.00018 0.999926 0.994505
1.00019 0.998739 0.995476
1.00017 0.999868 0.994413
1.00012 0.997008 0.997303
1.0002 0.998718 0.995484
1.00021 0.998752 0.995438
1.00012 0.99704 0.997272
1.00002 0.996001 0.999403
1.00009 0.997108 0.997632
1.00002 0.996077 0.998968
1.00001 0.996206 0.998516
0.998639 0.995904 0.957045
0.994568 0.998973 0.960679
0.998292 0.997777 0.982045
1.00328 0.998396 0.989566
1.00529 0.99612 0.987908
0.998896 0.997197 0.985042
1.0048 0.99789 0.988721
0.999924 0.995019 0.965949
0.997441 0.997562 0.957205
0.994453 0.997742 0.95391
1.00021 0.996975 0.989058
0.997766 0.997853 0.967137
0.996257 0.999856 0.958857
0.995327 0.998433 0.961443
1.00008 1.00129 0.993145
1.00009 1.00064 0.993749
1.00018 0.999855 0.99442
1.0001 1.00069 0.993671
1.00004 1.00119 0.993363
1.00008 1.0013 0.993178
1.0001 1.00106 0.993371
1.00012 1.00092 0.993444
1.0001 1.0007 0.993701
1.00009 1.00065 0.993727
1.00499 0.997392 0.987465
1.00476 0.997487 0.987542
1.00237 0.999966 0.989132
1.00035 1.00406 0.989989
0.999986 1.00417 0.990587
1.00009 1.00239 0.992113
1.00007 1.00165 0.992801
1.00007 1.0015 0.992984
1.00449 0.999941 0.986789
1.00007 1.00178 0.992631
1.00012 1.0021 0.992283
1.00389 0.997477 0.989359
1.00037 1.00301 0.990321
1.00015 1.00355 0.99085
1.00013 1.0028 0.991627
1.00203 1.00366 0.988657
1.00136 0.999428 0.99281
0.999996 1.00297 0.991607
1.00005 1.00195 0.992544
1.00016 1.00208 0.992171
1.00026 1.0024 0.991768
0.995934 0.998643 0.964702
0.998828 0.995352 0.957291
1.00012 0.995153 0.961918
0.999957 1.00297 0.991757
0.999594 1.00424 0.991054
1.00469 0.996372 0.990772
1.00042 1.00299 0.990015
0.999124 0.995101 0.957439
0.998075 0.998731 0.964657
0.995541 1.00242 0.97654
1.00035 0.997395 0.996285
0.996446 0.999808 0.957678
0.994518 0.999853 0.957095
0.995387 0.998417 0.962074
0.999888 1.00263 0.992257
0.994729 0.999581 0.962571
0.996212 1.00097 0.974554
1.00176 0.998524 0.993519
0.999242 1.00383 0.992194
0.999341 0.99967 0.997662
0.99651 1.00172 0.979425
0.996067 1.00222 0.964659
0.99649 0.99911 0.960379
0.996831 0.997539 0.969067
0.99945 1.00187 0.994143
0.997744 1.00051 0.977899
1.00032 1.00029 0.979477
0.997979 1.00187 0.996442
0.997198 1.00166 0.9891
0.995711 1.00137 0.964171
0.995224 0.99996 0.962477
0.998137 0.998692 0.966556
1.00011 1.0019 0.992511
0.999968 1.00127 0.993425
0.999753 1.00014 0.994723
1.00027 1.00066 0.993465
1.00028 1.00095 0.993141
1.00016 1.00139 0.992963
1.00007 1.00136 0.993106
1.00029 1.00097 0.993112
1.00028 1.00108 0.993016
1.00016 1.00068 0.993673
0.999953 1.00036 0.994462
1.00036 1.00057 0.993391
1.00028 1.00103 0.99302
1.00026 1.00097 0.993153
1.00013 1.00115 0.993201
1.00024 1.00114 0.99301
1.00026 1.00113 0.993009
1.00006 1.00142 0.993075
1.00019 1.00134 0.992913
1.00008 1.00177 0.992664
1.00026 1.00124 0.992893
0.999962 1.00266 0.992008
1.00006 1.00243 0.992091
0.999828 1.00341 0.991445
1.00016 1.00392 0.990424
1.00002 1.00275 0.991926
0.999828 1.00346 0.99141
0.999967 1.00227 0.992406
1.00008 1.00142 0.992947
0.999984 1.0019 0.992751
1.00009 1.00109 0.993344
1.00017 1.00024 0.994041
1.00011 1.0009 0.993502
1.00019 1.00014 0.994107
1.00015 0.999153 0.995145
1.00022 1.00009 0.994119
1.00018 0.999065 0.995166
1.00003 0.997373 0.997529
1.0002 0.999021 0.995174
1.00007 0.997305 0.997311
1 0.996192 0.998487
1.00011 0.997246 0.997087
1.00002 0.996138 0.998919
1.00002 0.996123 0.999357
1.00017 1.00005 0.994263
1.00018 0.998821 0.995421
1.00017 0.99993 0.99439
1.00012 0.997035 0.997295
1.00019 0.99874 0.995476
1.00017 0.999885 0.994412
1.00002 0.995983 0.999408
1.00013 0.997007 0.997303
1.0002 0.998717 0.995484
1.00012 0.997045 0.99727
1.00002 0.99601 0.9994
1.00001 0.996073 0.999387
0.99507 0.998975 0.96489
0.99855 0.995338 0.957116
0.996051 1.00169 0.973812
0.994579 0.999104 0.95947
0.999352 0.997212 0.980895
1.0048 0.998083 0.988632
0.999449 0.99537 0.967977
0.997819 0.998051 0.95824
0.994385 0.998203 0.950609
0.99965 0.997863 0.987135
0.998576 0.997447 0.962451
0.996402 0.999644 0.957589
0.995254 0.998628 0.960235
0.996758 0.99843 0.987232
0.99707 0.999968 0.962268
0.995599 0.999652 0.958853
0.997117 0.998398 0.966101
1.0001 1.00172 0.992755
1.00008 1.0013 0.993194
1.0001 1.00064 0.993786
1.00003 1.00116 0.993425
1.00012 1.00156 0.992781
1.00008 1.00128 0.993225
1.0001 1.00106 0.993353
1.00016 1.00101 0.993365
1.00013 1.00091 0.993512
1.00011 1.0007 0.99365
1.00464 0.999373 0.986777
1.00358 0.997829 0.989248
1.00027 1.00332 0.99054
1.00025 1.00348 0.990644
1.00016 1.00275 0.99165
1.00013 1.00209 0.992224
1.00009 1.0018 0.992606
1.00006 1.00197 0.992541
1.00248 1.00211 0.988926
1.00015 1.00213 0.992212
1.00027 1.00237 0.991799
1.00133 0.99958 0.992393
1.00021 1.00267 0.991619
1 1.00137 0.992989
0.999876 1.00059 0.994742
1.00022 1.00183 0.992081
1.00019 1.00199 0.992263
1.00029 1.00238 0.991659
0.999683 0.999845 0.978294
0.995941 0.999252 0.964625
0.998705 0.995846 0.956731
0.999809 1.00272 0.992255
0.999052 1.00375 0.992238
1.00175 0.998693 0.993363
0.994781 0.999309 0.964352
0.996619 1.00118 0.961667
0.996605 1.00142 0.981518
0.999943 0.99805 0.998926
0.995765 0.999417 0.959989
0.996007 1.00124 0.97448
0.99657 0.997683 0.969443
0.999393 1.00195 0.994045
0.997426 1 0.9801
1.00006 1.00068 0.979732
0.998001 1.00208 0.996621
0.996976 1.00102 0.989017
0.996002 1.0017 0.961273
0.998246 0.998282 0.968061
0.995028 0.999661 0.962296
0.998287 1.00128 0.996907
1.00389 1.00084 0.982641
1.00142 1.00158 0.979064
0.997384 0.998053 0.966146
0.995115 1.00278 0.99704
0.99552 0.999121 0.967601
0.994569 1.00011 0.963529
1.00006 1.00119 0.993502
0.999891 1.0003 0.994404
0.999408 0.999267 0.99631
1.0003 1.00097 0.993115
1.00026 1.00112 0.992998
1.00015 1.00047 0.993775
1.0003 1.00105 0.993012
1.00035 1.00054 0.99338
1.00009 1.00013 0.994353
0.999637 1.00003 0.995102
1.0004 1.00078 0.99306
1.00026 1.00113 0.99301
1.00005 1.00146 0.993063
1.0002 1.0013 0.992927
1.00026 1.00124 0.992879
1.0001 1.00171 0.992718
0.999832 1.00214 0.992746
0.999901 1.00267 0.992091
0.999824 1.00399 0.990844
1.00008 1.00241 0.992144
0.999946 1.0034 0.991385
1.00007 1.00435 0.989858
1.00014 1.0041 0.990229
1.00004 1.00312 0.991459
1.0001 1.00395 0.990427
1.0001 1.00186 0.992575
1.00003 1.00278 0.991839
0.999806 1.00334 0.991578
0.999972 1.00227 0.992508
1.00008 1.00139 0.993029
1.00016 1.00043 0.993867
1.00009 1.00111 0.993336
1.00017 1.00025 0.994036
1.00011 0.999265 0.995103
1.00019 1.00014 0.994104
1.00015 0.999142 0.995146
0.999967 0.997486 0.997514
1.00019 0.999058 0.995167
1.00003 0.997381 0.997309
0.999954 0.996284 0.998487
1.00008 0.997295 0.997093
0.999989 0.996198 0.998922
0.999996 0.996162 0.999358
1.00019 1.00024 0.993912
1.00016 0.998982 0.995152
1.00018 1.00006 0.994259
1.0001 0.997129 0.997243
1.00018 0.998831 0.995338
1.00016 0.999936 0.994275
1.00001 0.996011 0.999403
1.00012 0.99703 0.997296
1.00019 0.998739 0.995477
1.00002 0.995983 0.999407
1.00013 0.997007 0.997302
1.00002 0.996019 0.999397
0.998425 1.00055 0.978082
0.995154 0.998536 0.96418
0.998536 0.995271 0.957635
1.00021 1.00103 0.993181
0.999152 1.0008 0.981736
0.995852 1.00139 0.973742
0.994488 0.999118 0.959425
0.999431 0.999045 0.985299
0.998505 0.997825 0.967031
0.996321 0.999734 0.957036
0.995333 0.998698 0.959405
0.996416 0.999438 0.982452
0.996121 1.00081 0.965797
0.996746 0.99986 0.959482
0.997217 0.998327 0.965523
0.995521 1.0023 0.97834
0.995584 1.00048 0.961621
0.995106 0.999864 0.961803
0.997825 0.998621 0.966778
1.00016 1.00186 0.992449
1.00009 1.00174 0.992728
1.00007 1.00129 0.993243
1.00017 1.00152 0.992779
1.00012 1.00155 0.992867
1.00009 1.00125 0.993271
1.00017 1.00101 0.993382
1.00014 1.0009 0.99358
1.00293 1.00058 0.989196
1.00134 0.999733 0.991974
1.00006 1.00197 0.992538
1.00041 1.00249 0.991631
1.00029 1.0023 0.991831
1.00014 1.00218 0.992251
1.00018 1.00203 0.99228
1.00071 1.00081 0.993286
1.00027 1.00234 0.9918
1.00032 1.00198 0.992067
0.999999 0.999911 0.994628
1.00023 1.00183 0.992431
0.998478 0.998722 0.997252
0.998858 1.00243 0.994998
1.00031 1.00141 0.99231
1.00026 1.00199 0.992179
1.0057 1.0007 0.981587
0.999763 1.00031 0.978092
0.99594 0.999841 0.964558
0.999313 1.00201 0.993952
0.998021 1.002 0.996773
0.997153 0.999508 0.982289
0.995848 1.00022 0.964809
0.99698 1.00121 0.984596
0.994898 0.999883 0.961788
0.999916 1.00103 0.979989
0.998454 0.998041 0.969567
0.998378 1.00147 0.996375
1.00368 1.00093 0.982952
1.00187 1.00144 0.980102
0.995446 1.00349 0.99957
0.997543 0.998039 0.965359
0.995027 0.999338 0.965567
0.99492 0.999984 0.962216
0.996999 1.00099 0.999445
1.00832 1.0004 0.979306
0.999523 1.00034 0.981619
0.99545 0.998065 0.961588
0.99484 0.999783 0.96188
0.995379 0.999266 0.997923
0.99519 1.00015 0.962178
1.00001 1.00049 0.994089
0.999507 0.999498 0.996148
0.998412 0.998747 0.998931
1.0003 1.00109 0.993004
1.00034 1.00053 0.993369
1.0002 0.999995 0.994243
1.00036 1.00091 0.993033
0.999788 0.999709 0.995123
0.999541 1.0016 0.993735
1.00025 1.00125 0.992865
1.00013 1.00165 0.992772
0.999955 1.00212 0.992658
0.999402 1.0041 0.991531
0.999841 1.00268 0.992174
0.99973 1.00391 0.991058
1.00012 1.0049 0.989493
1.00072 1.00435 0.988939
1.00007 1.00339 0.991325
1.00019 1.00448 0.989621
1.00032 1.00368 0.990593
0.999918 1.00359 0.991021
1.00014 1.00396 0.990369
1.00009 1.00225 0.992216
1.00007 1.0031 0.991447
1.00004 1.00398 0.99043
1.00015 1.00077 0.993556
1.00009 1.00185 0.992548
1.00003 1.0028 0.991753
1.00008 1.00136 0.993112
1.00015 1.00045 0.993859
1.00007 0.999427 0.995018
1.00016 1.00026 0.994031
1.00012 0.999259 0.995102
0.999923 0.997638 0.997044
1.00016 0.999132 0.995148
0.999986 0.997493 0.997076
0.999854 0.9964 0.999358
1.00004 0.997374 0.997091
0.999943 0.996286 0.998922
0.999962 0.996226 0.999358
1.00023 1.00032 0.993771
1.00014 0.99918 0.994963
1.0002 1.00024 0.993974
1.00007 0.997274 0.997155
1.00016 0.998995 0.99513
1.00018 1.00007 0.994256
0.99999 0.996093 0.999388
1.0001 0.997119 0.997247
1.00017 0.998841 0.995254
1.00002 0.996004 0.999405
1.00012 0.997026 0.997297
1.00003 0.995984 0.999406
1.00488 1.00002 0.981583
0.998336 1.00071 0.978233
0.995128 0.998317 0.964387
1.0002 1.00104 0.993202
1.00023 1.00109 0.993048
1.00015 1.00153 0.992848
1.00125 1.00208 0.97884
0.998894 1.00054 0.98198
0.995664 1.00101 0.973662
0.995839 1.00018 0.985988
0.996722 0.999991 0.962338
0.995726 0.999845 0.958738
0.997105 0.998365 0.965613
0.995377 1.0009 0.982396
0.996039 1.0014 0.962386
0.995139 1.00004 0.963177
0.997996 0.998639 0.96822
0.995677 1.00213 0.979882
0.995047 1.00057 0.965507
0.994566 1.00013 0.964077
0.996721 0.997562 0.969328
1.00024 1.00177 0.992428
1.00016 1.00187 0.992436
1.00009 1.00176 0.992702
1.00017 1.00153 0.992774
1.00011 1.00155 0.992953
1.00018 1.00101 0.993399
1.00147 1.00013 0.993577
0.999972 0.999252 0.994517
1.00016 1.0021 0.992298
1.00043 1.00194 0.992053
1.00024 1.00236 0.99194
1.00025 1.00178 0.99237
1.00023 1.002 0.992219
0.998843 0.999986 0.997282
1.00027 1.00147 0.992542
0.998584 1.00183 0.996132
1.0002 1.0015 0.992781
0.996969 0.99873 0.999506
0.998415 1.00038 0.998325
1.00007 1.00173 0.992674
1.01102 1.00031 0.977389
1.00672 1.00062 0.980529
0.999851 1.00081 0.977891
0.998519 1.00161 0.995838
0.995956 1.00143 0.99873
1.00348 1.00101 0.983262
0.995324 1.0001 0.972545
0.995036 1.00004 0.963252
1.00227 1.00122 0.981139
0.997447 0.998111 0.965439
0.997275 1.00105 0.999386
1.00901 1.00039 0.97848
0.99926 1.00013 0.981838
0.995034 1.00048 0.992103
0.9954 0.99845 0.960225
0.995321 0.99996 0.962492
0.995065 1.0001 0.966786
0.996297 1.00097 1.00241
1.00521 0.999733 0.981415
0.996664 1.00142 0.973273
0.994586 0.997105 0.957176
0.995195 0.999585 0.959542
0.995137 1.00008 0.965829
0.995233 0.999444 0.988491
0.999618 0.999777 0.995989
0.998534 0.998488 0.99885
0.9986 1.00014 0.997576
1.00032 1.001 0.993005
0.999941 0.99935 0.995143
0.999409 1.00173 0.993894
0.999259 1.00312 0.992856
1.00008 1.00211 0.992571
0.999703 1.00406 0.991295
1.00007 1.00508 0.989425
0.999622 1.00384 0.991273
1.00015 1.00492 0.989455
1.00099 1.0049 0.988132
1.0013 1.0045 0.987851
1.00045 1.00353 0.990052
1.00071 1.00435 0.98888
1.0003 1.00462 0.989384
1.00028 1.00321 0.991017
1.00023 1.00351 0.99075
1.00001 1.0029 0.991604
0.999968 1.00355 0.991113
1.00015 1.00382 0.990508
1.00015 1.00122 0.993106
1.0001 1.00223 0.992222
1.00011 1.00309 0.991434
1.00003 0.999679 0.99484
1.00015 1.00077 0.993551
1.00009 1.00183 0.992521
1.00015 1.00047 0.99385
1.00007 0.999427 0.995015
0.999854 0.997826 0.996986
1.00012 0.999252 0.995102
0.999927 0.997642 0.997042
0.999804 0.996551 0.999345
0.999992 0.99749 0.997076
0.999879 0.996416 0.998916
0.999914 0.996317 0.999356
1.00024 1.00041 0.993742
1.00015 0.999331 0.994954
1.00022 1.00033 0.993813
1.00002 0.99746 0.997049
1.00015 0.999191 0.995023
1.00021 1.00024 0.994036
0.999953 0.996217 0.999366
1.00006 0.997264 0.99716
1.00016 0.999012 0.995109
0.999993 0.996075 0.999393
1.0001 0.997109 0.99725
1.00002 0.995996 0.999407
1.00815 1.00079 0.979012
1.00452 1.00029 0.981882
0.998232 1.00076 0.978402
1.00023 1.0012 0.992938
1.00015 1.00179 0.992588
1.00019 1.00107 0.993223
1.00023 1.00111 0.993034
1.00016 1.00152 0.992797
1.00016 1.00158 0.992756
1.00015 1.00176 0.992577
1.00013 1.00054 0.979427
1.00163 1.00197 0.97984
0.998636 1.0003 0.982225
0.998129 0.998477 0.969662
0.994883 1.00023 0.979184
0.995882 1.00235 0.963405
0.994762 1.00006 0.961841
0.995565 0.99997 0.978217
0.995264 1.00008 0.962571
0.994876 1.00003 0.963008
0.996611 0.997722 0.968985
0.995579 0.997863 0.985536
0.995033 1.00021 0.962585
0.9955 0.999998 0.962406
0.994772 0.998103 0.964437
1.00023 1.00163 0.992629
1.00023 1.00173 0.992422
1.00015 1.00188 0.992423
1.00016 1.00154 0.992768
0.999265 1.00155 0.99729
0.998425 1.00131 0.997253
1.00028 1.00171 0.99231
1.00021 1.00198 0.992259
1.00022 1.00161 0.992774
1.00022 1.0015 0.992721
1.00004 1.00178 0.992603
0.996551 1.00046 0.998721
0.998261 1.00034 0.998717
0.999918 1.00161 0.993036
0.9958 0.997623 1.0009
0.998837 1.00218 0.995984
1.00585 1.0007 0.98147
1.01314 0.999515 0.974863
1.00774 1.00052 0.979471
0.997549 1.00111 0.999333
0.995372 0.99938 0.998268
1.00971 1.00042 0.977654
0.995265 1.00014 0.962526
0.994682 0.999995 0.961679
0.998997 0.999918 0.982058
0.995529 0.998676 0.959628
0.996345 1.00072 1.00256
1.00486 0.999993 0.981736
0.99644 1.0011 0.973207
0.995019 0.999459 0.993095
0.994508 0.997656 0.953986
0.996295 0.999825 0.960217
0.995261 1.0001 0.964182
0.99649 1.00159 0.999983
0.998913 1.00037 0.977637
0.994928 0.998801 0.960745
0.996469 0.999734 0.958721
0.995653 1.00064 0.965831
0.994843 0.999855 0.983079
0.998715 0.998233 0.998764
0.998468 1.00037 0.997567
1.00007 0.998925 0.996842
0.99926 1.00187 0.994053
0.998947 1.00317 0.993078
1.00029 1.00391 0.990126
1.00001 1.00399 0.991058
1.00023 1.00509 0.989245
1.0012 1.00456 0.987723
1.00019 1.00494 0.989418
1.00103 1.00489 0.988009
1.00162 1.00423 0.987231
1.00204 1.00336 0.987421
1.00125 1.00379 0.988786
1.00134 1.00453 0.987663
1.00042 1.0029 0.99068
1.00046 1.00351 0.990129
1.00071 1.00436 0.98882
1.00027 1.00298 0.991186
1.00025 1.00326 0.99099
1.00014 1.00335 0.990906
1.00015 1.00176 0.992529
1.00003 1.00282 0.991701
1.00002 1.0035 0.991206
1.00001 1.00004 0.994501
1.00015 1.0012 0.993107
1.00011 1.00221 0.992228
0.999795 0.998035 0.996904
1.00003 0.999686 0.994833
1.00014 1.00077 0.993545
1.00007 0.999426 0.995012
0.999859 0.997832 0.996982
0.999727 0.99673 0.999331
0.999932 0.997646 0.99704
0.999794 0.996576 0.999341
0.999855 0.996441 0.999349
1.00021 1.00132 0.992898
1.00025 1.00051 0.993618
1.00014 0.999465 0.99484
1.00024 1.0004 0.993742
0.999975 0.997653 0.996946
1.00014 0.999344 0.994953
1.00021 1.00034 0.993854
0.999905 0.996375 0.999341
1.00002 0.997448 0.997055
1.00016 0.999198 0.995083
0.999958 0.996195 0.999373
1.00006 0.997254 0.997165
0.999997 0.996058 0.999398
1.0039 1.00084 0.982641
1.00884 1.00089 0.978217
1.00417 1.00057 0.982182
1.00022 1.00121 0.992965
1.00015 1.0018 0.992543
1.00012 1.00214 0.992226
1.00014 1.00171 0.992595
1.00012 1.00214 0.992317
1.00023 1.00111 0.993021
1.00017 1.00151 0.992747
1.00014 1.00159 0.992761
1.00019 1.00174 0.992522
1.00011 1.00186 0.992617
0.996374 1.00057 0.974436
0.999925 1.00091 0.97968
1.00205 1.002 0.98084
0.996486 0.997902 0.969385
0.994995 1.00007 0.963936
0.995151 1.00025 0.976366
0.995058 1.0001 0.965483
0.995425 0.996855 0.980462
0.994996 1.00012 0.965667
0.994852 0.999941 0.962461
0.994933 0.99822 0.962752
0.995158 0.994806 0.985285
0.995106 1.00007 0.966274
0.995991 0.999913 0.959606
0.994454 0.998247 0.95694
0.99987 1.00138 0.993441
1.00019 1.0017 0.9926
1.00023 1.0017 0.992415
0.996042 1.00195 0.997955
0.998108 1.00011 0.999136
1.00023 1.0015 0.99266
1.00002 1.00189 0.992533
0.999916 1.00156 0.993083
0.998678 1.0021 0.995713
0.995775 0.997304 1.00096
0.998676 1.00252 0.994555
0.99699 1.00102 0.997073
0.999367 1.00025 0.97813
1.00681 1.00051 0.98048
1.01523 0.998755 0.972337
0.996342 1.00054 1.00269
0.994922 0.999561 0.986351
1.0045 1.00025 0.982057
0.995416 1.00007 0.961866
0.995395 0.99979 0.960288
0.996224 1.00062 0.973142
0.994448 0.998157 0.950795
0.996533 1.00147 1.00022
0.99883 1.0005 0.977793
0.994909 0.998756 0.959532
0.994885 0.999743 0.985254
0.996217 0.999819 0.957813
0.995628 0.999946 0.962836
0.997893 1.00021 0.99696
0.995293 0.998711 0.965032
0.997236 0.997857 0.95768
0.997215 1.00068 0.96225
0.994909 1.00003 0.984898
0.998408 1.00056 0.99755
0.99989 0.998666 0.996865
1.00191 0.999015 0.992401
0.998649 1.00321 0.9933
0.999964 1.00397 0.990413
1.0019 1.00212 0.988455
1.00037 1.00509 0.989064
1.00126 1.00442 0.987726
1.0025 1.0026 0.987412
1.00106 1.00489 0.987885
1.00162 1.00421 0.987271
1.00266 1.00203 0.987503
1.00277 1.00139 0.987939
1.0017 1.00318 0.988121
1.00204 1.00324 0.987456
1.001 1.00315 0.98972
1.00118 1.00387 0.988611
1.00137 1.00455 0.987475
1.00048 1.00257 0.99113
1.00042 1.00287 0.9908
1.00047 1.0035 0.990206
1.00025 1.00214 0.99199
1.00024 1.00296 0.991232
1.00023 1.0033 0.990963
1.00001 1.00059 0.993962
1.00016 1.00176 0.99253
1.00005 1.00276 0.991798
0.999712 0.998322 0.99721
1.00001 1.00006 0.994491
1.00015 1.00119 0.993108
0.999662 0.99697 0.998366
0.99979 0.998066 0.997111
1.00003 0.999692 0.994827
0.999865 0.997839 0.996979
0.999716 0.996764 0.999325
0.999784 0.996603 0.999337
1.00017 1.00166 0.99259
1.00025 1.00068 0.993442
1.00021 1.00136 0.992859
1.0001 0.999613 0.994758
1.00025 1.00052 0.993619
0.999921 0.997835 0.996862
1.00013 0.999485 0.99484
1.00025 1.00041 0.993741
0.999848 0.99655 0.999316
0.999971 0.997646 0.99695
1.00014 0.999363 0.994953
0.99991 0.996347 0.999348
1.00002 0.997438 0.997061
0.999963 0.996169 0.99938
0.998239 0.999672 0.981159
1.00367 1.00093 0.982934
1.00953 1.00104 0.977423
1.00006 1.00243 0.9921
1.00022 1.00124 0.992992
1.00017 1.0018 0.992498
1.00015 1.00172 0.992633
1.00013 1.00211 0.992272
1.00013 1.00212 0.992275
1.00011 1.00241 0.992018
1.00006 1.00212 0.992318
1.00012 1.00161 0.992765
1.00023 1.00172 0.992467
1.00009 1.00187 0.992595
1.00006 1.0022 0.992661
0.994731 0.999548 0.958022
0.996248 1.00089 0.974344
0.999689 1.0012 0.97993
0.995164 0.998402 0.961771
0.995249 0.999917 0.962294
0.995044 1.00021 0.962667
0.995225 0.995706 0.98344
0.995041 0.994819 0.988906
0.994411 0.998202 0.953897
0.994952 1.00013 0.962664
0.996201 0.999827 0.959539
0.995473 0.997314 0.988153
0.995786 0.999709 0.967254
0.996582 0.999897 0.957704
0.999411 1.00115 0.994446
0.999972 1.00135 0.993443
1.00015 1.00178 0.99257
0.995738 0.996998 1.00097
0.998684 1.0019 0.995457
0.999885 1.00151 0.993129
0.999061 1.00242 0.994396
0.996554 1.00117 0.997233
0.998274 1.00125 0.994848
0.995709 0.999524 0.96094
0.99977 1.00012 0.979807
1.00777 1.00032 0.979491
0.996497 1.00136 1.0005
0.994909 0.9997 0.986772
0.998724 1.00063 0.977966
0.995698 0.999468 0.965728
0.996357 0.999878 0.957093
0.994811 0.998766 0.959476
0.997712 1.00002 0.997061
0.995373 0.998391 0.964272
0.997159 0.997884 0.957647
0.994853 1.00019 0.980473
0.996193 1.00056 0.965362
0.99896 0.999708 0.996424
0.998541 0.995862 0.957341
0.997363 1.00009 0.965724
0.99509 1.00082 0.97852
0.999636 0.99848 0.996894
1.00154 0.99881 0.99318
1.00323 0.997086 0.991143
0.999639 1.00404 0.9907
1.00198 1.00208 0.988467
1.00374 0.998645 0.988499
1.00131 1.00428 0.98773
1.00244 1.0024 0.98747
1.00372 0.999172 0.988333
1.00163 1.00418 0.987312
1.00268 1.00189 0.987528
1.00355 0.999253 0.98861
1.00321 0.999605 0.988959
1.0024 1.00177 0.988264
1.00276 1.00129 0.988055
1.00135 1.00276 0.98899
1.00173 1.00314 0.988229
1.00203 1.00312 0.98749
1.0007 1.00263 0.99067
1.00088 1.00316 0.989734
1.0011 1.00396 0.988435
1.00043 1.00213 0.991696
1.00051 1.00257 0.99112
1.00041 1.00285 0.990921
1.00003 1.00122 0.99333
1.00026 1.00213 0.992004
1.00022 1.00294 0.991278
0.999664 0.998668 0.996488
1.00001 1.00059 0.993951
1.00018 1.00175 0.992531
0.999535 0.997227 0.99928
0.999724 0.998363 0.996706
1 1.00007 0.994481
0.999639 0.996966 0.999304
0.999797 0.99808 0.99687
0.999705 0.996799 0.999319
1.00011 1.002 0.992442
1.00018 1.00165 0.992596
1.00022 1.00099 0.993188
1.00007 0.999768 0.994669
1.00025 1.00068 0.993445
1.0002 1.00138 0.99282
0.999865 0.998004 0.996801
1.0001 0.999613 0.99476
1.00025 1.00051 0.99362
0.999784 0.996724 0.999295
0.999916 0.997832 0.996865
1.00013 0.999498 0.99484
0.999854 0.996522 0.999323
0.999967 0.997638 0.996955
0.999916 0.99632 0.999356
0.995218 0.999558 0.961515
0.998084 0.99967 0.981325
1.00346 1.001 0.983229
1.00005 1.00248 0.992054
1.00005 1.00277 0.991854
1.00006 1.00269 0.991852
1.00016 1.00172 0.99267
1.00014 1.00207 0.992318
1.00012 1.0021 0.992233
1.00007 1.00213 0.992293
1.0001 1.00243 0.991992
0.999962 1.00293 0.991819
1.00014 1.00181 0.992459
1.00009 1.00189 0.992572
1 1.00207 0.992671
0.998109 0.998048 0.956539
0.994626 0.999759 0.956877
0.996105 1.00109 0.974269
0.99437 0.998198 0.950842
0.995285 0.999855 0.959369
0.995503 1.00015 0.967073
0.995117 0.994788 0.984967
0.995285 0.9974 0.984616
0.996321 0.999224 0.957225
0.995567 1.00003 0.964896
0.996585 0.996825 0.98418
0.997059 1.00086 0.961842
1.00082 1.00105 0.992639
0.99959 1.001 0.99435
1.00006 1.00131 0.993446
0.996077 1.00143 0.997376
0.999381 1.00234 0.994232
0.998889 1.00156 0.994377
1.00161 0.99951 0.990925
0.998728 0.994857 0.956703
0.995586 0.999686 0.963008
1.0002 0.999958 0.981476
0.997602 0.999719 0.997196
0.994946 1 0.982469
0.995358 0.998158 0.964442
0.99641 1.00084 0.961934
0.997755 0.99906 0.958436
0.998897 0.99977 0.995769
0.998512 0.995709 0.957179
0.998445 0.998724 0.961737
0.995009 1.00106 0.981909
0.999868 1.00012 0.994973
0.999233 0.996934 0.962849
0.996643 0.999206 0.98441
1.00119 0.998604 0.993958
1.00307 0.997295 0.991051
1.00468 0.995214 0.990066
1.00204 1.00203 0.988477
1.00378 0.998633 0.988447
1.00466 0.996077 0.989296
1.00238 1.00221 0.987528
1.00369 0.999086 0.988321
1.00458 0.996502 0.989086
1.00269 1.00176 0.987554
1.00352 0.999194 0.988588
1.00393 0.997506 0.989532
1.00351 0.998606 0.989539
1.0032 0.999468 0.989086
1.00286 1.00027 0.988904
1.00214 1.00179 0.988791
1.00241 1.00181 0.988284
1.00275 1.00118 0.988172
1.00111 1.00248 0.989818
1.00139 1.00277 0.98912
1.00175 1.0031 0.988338
1.00057 1.00212 0.991388
1.00072 1.00263 0.99065
1.00077 1.00317 0.989749
1.00011 1.00148 0.992879
1.00045 1.0021 0.991701
1.00054 1.00257 0.99111
0.999628 0.999078 0.996111
1.00005 1.00115 0.993331
1.00028 1.00212 0.992017
0.999498 0.997459 0.999229
0.999663 0.998708 0.996466
1.00001 1.00058 0.993939
0.999558 0.997246 0.998785
0.999733 0.998372 0.9967
0.999626 0.997031 0.999289
1.00012 1.00234 0.992079
1.00011 1.00204 0.992394
1.00014 1.00143 0.992906
1.0002 1.00164 0.992602
1.00022 1.00099 0.993188
1 1.00004 0.9945
0.999809 0.998158 0.996756
1.00007 0.999759 0.994675
1.00024 1.0007 0.993448
0.999713 0.996897 0.999279
0.99986 0.998 0.996803
1.0001 0.999615 0.994762
0.999791 0.996702 0.999301
0.999911 0.997831 0.996868
0.99986 0.996493 0.999331
0.998767 0.99602 0.957793
0.994962 0.999976 0.960572
0.997895 0.999671 0.981484
1.00004 1.00255 0.992009
1.00004 1.00279 0.991769
1 1.00273 0.991915
1.00016 1.00278 0.991651
0.999979 1.00307 0.991636
1.00009 1.00215 0.992268
1.00009 1.00245 0.991967
0.999934 1.00283 0.991859
0.999837 1.00291 0.991575
1.00012 1.00237 0.991915
1.00159 1.00173 0.990263
0.999956 1.00214 0.992547
0.999983 1.00194 0.992681
0.999201 0.999153 0.961019
0.997441 0.998196 0.956722
0.994501 1.00001 0.956815
0.996717 0.999469 0.956548
0.995598 1.00067 0.962563
0.994943 0.997419 0.989007
0.996836 0.996967 0.986495
0.997078 0.998936 0.965957
0.999687 0.998186 0.981147
1.00314 0.999199 0.989631
1.00043 1.00088 0.992621
0.999727 1.00085 0.994251
0.999429 1.0018 0.993921
1.00234 0.999856 0.990184
0.99978 0.995533 0.962105
0.998827 0.99532 0.957679
0.995444 0.999904 0.965084
0.998776 0.99986 0.995093
0.994849 1.00139 0.978816
0.998565 0.995376 0.957502
0.997861 0.999669 0.965763
1.00013 1.00002 0.995027
1.0001 0.995794 0.964871
0.996482 1.00016 0.980637
1.00182 1.00208 0.990834
1.0003 0.996614 0.987915
1.00292 0.997534 0.990954
1.00445 0.995742 0.989824
1.00515 0.995872 0.988748
1.00385 0.998626 0.988398
1.00463 0.996326 0.989225
1.00507 0.995688 0.989036
1.00367 0.998977 0.98831
1.00458 0.996668 0.989009
1.00478 0.996431 0.988858
1.0035 0.999141 0.988566
1.00388 0.997632 0.989474
1.00404 0.997513 0.989413
1.00343 0.998424 0.989704
1.00334 0.999299 0.989131
1.00318 0.999342 0.989215
1.00287 1.00029 0.988873
1.00267 1.0007 0.988888
1.00174 1.00181 0.98932
1.00213 1.00183 0.988766
1.00242 1.00185 0.988304
1.00085 1.00212 0.990864
1.0011 1.00248 0.989909
1.00142 1.00278 0.98925
1.00016 1.0016 0.992603
1.00061 1.00212 0.991371
1.00075 1.00264 0.99063
0.999628 0.999516 0.99565
1.00012 1.00145 0.992889
1.00047 1.00209 0.991705
0.999466 0.997735 0.999155
0.999618 0.999144 0.996091
1.00006 1.00109 0.993333
0.999502 0.997505 0.999209
0.999661 0.998753 0.996444
0.999555 0.997283 0.999249
1.00024 1.00253 0.991695
1.00011 1.00232 0.992083
1.00014 1.00184 0.992453
1.0001 1.00206 0.992345
1.00014 1.00149 0.992838
0.999962 1.00049 0.994129
1.00022 1.00098 0.993189
1.00002 1.00002 0.994507
0.999737 0.998373 0.996681
0.999633 0.997071 0.999268
0.999803 0.998156 0.996759
1.00007 0.999748 0.994681
0.999722 0.996876 0.999284
0.999855 0.997996 0.996806
0.999797 0.996678 0.999307
1.00075 0.996389 0.963865
0.998443 0.996083 0.957006
0.994565 1.00036 0.96061
1.00001 1.00289 0.991685
0.999956 1.0027 0.991975
0.999982 1.00307 0.991674
1.00013 1.00277 0.991653
1.00028 1.00298 0.99122
0.999937 1.0029 0.991668
0.999908 1.00271 0.991899
0.999974 1.00306 0.991404
1.00002 1.00263 0.991818
1.00043 1.00207 0.991229
1.00186 1.00162 0.990545
1.00322 1.00016 0.988247
1.00135 1.00162 0.990473
0.999773 1.00248 0.992635
0.999482 0.99834 0.979808
0.998929 0.99902 0.962048
0.997579 0.998426 0.957438
0.997886 1.00057 0.961869
0.997025 0.997059 0.98875
0.999936 0.997993 0.98539
1.00345 0.997415 0.990586
1.00319 0.998882 0.989992
1.00028 1.00072 0.992598
1.00353 1.00035 0.989431
0.999176 0.998581 0.981202
1.00036 0.995521 0.966246
0.998675 0.995746 0.957172
1.00031 0.999942 0.995067
0.996285 1.00089 0.982952
0.999636 0.995777 0.966896
1.00195 1.0011 0.991055
0.999743 0.997699 0.986099
1.00417 0.999978 0.988479
1.0047 0.997355 0.988708
1.00424 0.996196 0.989582
1.00505 0.99586 0.988713
1.00515 0.996601 0.98832
1.00453 0.996553 0.989151
1.005 0.995853 0.989036
1.00503 0.996917 0.988064
1.0046 0.996843 0.988933
1.00477 0.996635 0.988801
1.00472 0.997537 0.988096
1.00383 0.997756 0.989417
1.0039 0.997576 0.989533
1.00377 0.998651 0.988725
1.00334 0.998239 0.989868
1.00331 0.999171 0.989215
1.00318 0.999982 0.988785
1.00288 1.00031 0.988841
1.00266 1.00072 0.988863
1.0024 1.00098 0.989196
1.00129 1.00171 0.990218
1.00172 1.00183 0.98941
1.00212 1.00186 0.988742
1.00031 1.00172 0.992235
1.00087 1.00212 0.990857
1.00109 1.00248 0.989999
0.999598 1.00006 0.995192
1.00018 1.00163 0.992604
1.00065 1.00212 0.991355
0.999461 0.998016 0.999045
0.999626 0.99957 0.995641
1.00014 1.00141 0.992899
0.999478 0.997778 0.999122
0.999611 0.999202 0.99607
0.999508 0.997548 0.999187
1.00036 1.00272 0.991298
1.00024 1.00251 0.991729
1.00022 1.00212 0.992092
1.00011 1.00231 0.992087
1.00014 1.00189 0.992401
0.999977 1.00098 0.993604
1.00014 1.00154 0.992769
0.999968 1.00048 0.994135
0.999659 0.99869 0.996508
1.00003 0.999997 0.994514
0.999733 0.998357 0.996689
0.999553 0.997283 0.999248
0.999645 0.99705 0.999272
0.999797 0.998153 0.996763
0.99973 0.996858 0.999289
0.999404 0.998079 0.980575
1.0005 0.996351 0.960711
0.998523 0.995942 0.957378
1.00082 1.0026 0.990562
0.999984 1.00308 0.991712
1.00011 1.00277 0.991655
0.99998 1.00298 0.991668
1.00022 1.00307 0.991187
1.00027 1.0019 0.991955
1.00011 1.00324 0.991234
0.999992 1.00291 0.991723
1.00058 1.00208 0.991355
1.00158 1.0016 0.990606
1.00287 1.00025 0.988878
1.00484 0.998335 0.986706
1.00316 1.00004 0.988206
1.00117 1.00144 0.990683
1.00289 0.997104 0.992498
0.999371 0.99885 0.978261
0.999067 0.998855 0.963424
0.999753 0.997818 0.982782
1.00352 0.996835 0.991454
1.00289 0.998456 0.990362
1.0035 0.998626 0.988331
0.998995 0.997589 0.983608
1.00013 0.995499 0.961813
1.00216 1.00003 0.991269
0.99971 0.998829 0.984292
1.00416 0.999002 0.988541
1.00465 0.997645 0.989021
1.00525 0.996385 0.98814
1.00517 0.997591 0.987655
1.0049 0.995885 0.988678
1.00513 0.996278 0.988388
1.00499 0.997048 0.988213
1.00499 0.995969 0.989037
1.00505 0.996849 0.988074
1.00489 0.997982 0.987295
1.00474 0.996836 0.988744
1.00461 0.997556 0.988283
1.00431 0.998405 0.987901
1.00375 0.997636 0.989653
1.00378 0.998654 0.988713
1.00362 0.999394 0.988323
1.00327 0.999044 0.989298
1.00315 0.999895 0.988805
1.00286 1.0004 0.988837
1.00266 1.00075 0.988839
1.00235 1.00099 0.989147
1.00192 1.00116 0.989872
1.00068 1.0015 0.991785
1.00129 1.00172 0.990311
1.00169 1.00185 0.9895
0.999574 1.00056 0.994739
1.00033 1.00172 0.992233
1.0009 1.0021 0.990849
0.999391 0.998373 0.998922
0.999637 1.00001 0.995187
1.0002 1.00163 0.992606
0.999452 0.998066 0.999006
0.999624 0.999612 0.995631
0.999486 0.997821 0.999088
1.00065 1.0026 0.990689
1.00035 1.00268 0.991308
1.00038 1.00223 0.991748
1.00025 1.00248 0.991763
1.00021 1.00211 0.992112
1.00002 1.0014 0.993129
1.00014 1.00195 0.992348
0.999963 1.00102 0.993603
0.999587 0.999102 0.996218
0.999972 1.00048 0.994141
0.999661 0.998652 0.996526
0.999488 0.997526 0.999205
0.999732 0.998342 0.996698
0.999563 0.997248 0.999255
0.999656 0.997031 0.999275
1.00303 0.997677 0.991103
0.999403 0.998321 0.977193
1.00013 0.99672 0.964355
1.00091 1.0017 0.991028
1.00201 1.00153 0.989369
1.00061 1.00263 0.990679
1.00003 1.00303 0.991668
1.00016 1.00315 0.991151
1.00048 1.00187 0.991832
1.00292 0.99989 0.989245
1.00069 1.00211 0.991481
1.00116 1.00158 0.990666
1.00285 1.00023 0.988945
1.00455 0.999027 0.986546
1.0051 0.997031 0.987389
1.00487 0.998391 0.986749
1.00318 1.00001 0.988163
1.00317 0.997043 0.992665
0.999191 0.999599 0.976061
1.00383 0.996399 0.992307
1.00507 0.996996 0.988653
1.00332 0.998462 0.98859
0.999462 0.996703 0.979792
1.00418 0.998111 0.988616
1.00459 0.997922 0.989291
1.00513 0.996355 0.988338
1.00518 0.997211 0.987669
1.00506 0.996911 0.987959
1.00514 0.996653 0.987739
1.00512 0.995911 0.988457
1.00496 0.996893 0.988211
1.00483 0.997617 0.987727
1.00506 0.996865 0.988084
1.00485 0.997965 0.987397
1.00463 0.998341 0.987341
1.00449 0.997578 0.98847
1.00436 0.998403 0.987866
1.00417 0.998871 0.987775
1.0038 0.998656 0.988701
1.00363 0.999389 0.988316
1.00332 0.999934 0.988371
1.00312 0.999807 0.988825
1.00282 1.00037 0.988847
1.00233 1.00069 0.989493
1.00231 1.001 0.989099
1.00187 1.00115 0.989848
1.00112 1.00106 0.991378
0.999646 1.00074 0.994372
1.00068 1.00151 0.991781
1.00128 1.00173 0.990404
0.999241 0.998886 0.998797
0.999645 1.00047 0.994729
1.00035 1.00174 0.992231
0.999365 0.998474 0.998883
0.999668 0.999998 0.995182
0.999447 0.998132 0.998968
1.00122 1.00224 0.989702
1.00065 1.00258 0.990593
1.00072 1.00213 0.991215
1.00033 1.00265 0.991318
1.00035 1.00221 0.991758
1.00007 1.0017 0.992776
1.0002 1.00211 0.992132
0.999988 1.00146 0.993123
0.999552 0.999557 0.995817
0.99995 1.00106 0.993601
0.999596 0.999045 0.996238
0.999446 0.997786 0.99913
0.999662 0.998614 0.996545
0.999491 0.997484 0.99922
0.999575 0.997218 0.999262
1.00504 0.996562 0.987984
1.00305 0.997483 0.99057
0.999461 0.997597 0.97876
1.00301 1.0002 0.989143
1.00072 1.00156 0.991543
1.00296 1.00023 0.988228
1.00204 1.00155 0.989299
1.00039 1.00267 0.990798
1.00458 0.999 0.986877
1.00068 1.00184 0.991711
1.003 0.999807 0.989149
1.00505 0.998404 0.986445
1.00286 1.00016 0.989012
1.00476 0.999019 0.986334
1.00505 0.99718 0.987406
1.00473 0.998496 0.986787
1.0033 0.996865 0.99284
1.00501 0.997192 0.987698
1.00499 0.997087 0.988622
1.00304 0.998299 0.988843
1.00502 0.996261 0.98854
1.00522 0.996936 0.987681
1.00502 0.996873 0.988046
1.00514 0.996768 0.987861
1.00511 0.997452 0.987401
1.00491 0.996776 0.988209
1.00482 0.997693 0.987718
1.00475 0.998178 0.98732
1.00482 0.997953 0.987499
1.00465 0.998367 0.987337
1.00446 0.998686 0.987422
1.00441 0.998402 0.98783
1.00419 0.998871 0.987759
1.00384 0.999389 0.987918
1.00364 0.999383 0.988309
1.00332 0.999929 0.988369
1.00282 1.0003 0.988957
1.00278 1.00034 0.988858
1.00233 1.00069 0.989497
1.00154 1.00069 0.990958
1.00181 1.00114 0.989824
1.00112 1.00108 0.99137
0.99974 1.00068 0.995023
0.999161 0.999558 0.996883
0.999716 1.00064 0.994793
1.00069 1.00152 0.991777
0.999219 0.999023 0.998754
0.999715 1.00039 0.994718
0.999344 0.998562 0.99884
1.00352 0.99932 0.988403
1.00197 1.00149 0.98905
1.00135 1.00222 0.98959
1.00111 1.00191 0.990644
1.00065 1.00256 0.990496
1.00067 1.00213 0.991236
1.00021 1.00176 0.992476
1.00033 1.00221 0.991768
1.00005 1.00171 0.992774
0.999575 1 0.995345
0.999958 1.00154 0.993117
0.999557 0.999508 0.99583
0.999403 0.998094 0.999017
0.999604 0.99899 0.996258
0.999442 0.997746 0.999156
0.999497 0.997442 0.999235
1.00498 0.997775 0.987172
1.00507 0.99678 0.988507
1.00314 0.997495 0.990042
1.00443 0.99888 0.987218
1.00265 1.00026 0.989544
1.00052 1.00139 0.992052
1.00317 1.00017 0.988366
1.00207 1.00157 0.989228
1.00513 0.998727 0.986204
1.00455 0.999101 0.986696
1.00307 0.999752 0.989052
1.00505 0.998421 0.98644
1.005 0.999005 0.986122
1.00502 0.997298 0.987432
1.00514 0.997725 0.987145
1.00505 0.997115 0.98773
1.005 0.997109 0.988592
1.00496 0.996838 0.988134
1.00513 0.996852 0.987983
1.00511 0.997376 0.987485
1.00505 0.998192 0.986805
1.0048 0.997755 0.987709
1.0047 0.998248 0.987347
1.00456 0.998886 0.987021
1.00467 0.998389 0.987332
1.00446 0.998686 0.987425
1.00411 0.999116 0.98767
1.00421 0.998873 0.987743
1.00384 0.999388 0.987914
1.00328 0.999855 0.988515
1.00333 0.999924 0.988367
1.00282 1.0003 0.988956
1.00194 1.00042 0.990455
1.00232 1.00069 0.9895
1.00154 1.00069 0.990945
0.999926 1.00052 0.994895
1.00112 1.00109 0.991362
0.999844 1.00066 0.994976
0.999032 1.00008 0.996714
0.999091 0.999624 0.997751
0.999808 1.00056 0.995179
0.999197 0.99915 0.998704
1.00449 0.998631 0.987386
1.00284 1.00046 0.988875
1.00337 0.999021 0.98902
1.0016 1.00162 0.989952
1.00209 1.00153 0.989018
1.00148 1.00219 0.989479
1.00107 1.00196 0.990652
1.00047 1.00167 0.992074
1.00063 1.00213 0.991256
1.00019 1.00174 0.992479
0.999617 1.00039 0.994897
1.00002 1.00171 0.992774
0.999552 0.999998 0.995352
0.999312 0.998515 0.998883
0.999562 0.999449 0.995842
0.999404 0.998038 0.999056
0.99944 0.997701 0.999181
1.00514 0.998061 0.986722
1.00501 0.997749 0.987162
1.00505 0.996914 0.989021
1.00498 0.998588 0.986491
1.0044 0.998962 0.987278
1.00233 1.0003 0.989947
1.00338 1.00009 0.988506
1.00512 0.998678 0.986205
1.00453 0.999202 0.986517
1.00503 0.998445 0.986433
1.00515 0.998039 0.986753
1.00514 0.997726 0.987101
1.00507 0.99705 0.987763
1.00515 0.998306 0.986571
1.00511 0.997315 0.987569
1.00503 0.998177 0.986855
1.00479 0.998847 0.98663
1.00465 0.998321 0.987375
1.00456 0.998894 0.987032
1.00423 0.999299 0.987273
1.00446 0.998687 0.987427
1.00412 0.999119 0.987667
1.00354 0.999575 0.988303
1.00385 0.999386 0.98791
1.00328 0.999853 0.988516
1.00231 1.00015 0.990034
1.00282 1.00029 0.988955
1.00196 1.00041 0.990442
1.00016 1.00029 0.994754
1.00155 1.0007 0.990933
1.00002 1.00051 0.994844
0.999014 1.00024 0.996642
0.999955 1.0006 0.994926
0.998962 1.00018 0.996766
0.998975 0.99964 0.998704
1.00477 0.998881 0.986771
1.00394 0.999238 0.98787
1.00436 0.998739 0.987578
1.00232 1.00095 0.98948
1.00283 1.00033 0.9889
1.00323 0.998733 0.989629
1.00091 1.00145 0.991432
1.0016 1.00163 0.989945
1.00221 1.00158 0.988984
1.00102 1.002 0.99066
1.00044 1.00167 0.992082
0.999674 1.00069 0.994511
1.00017 1.00172 0.992482
0.999559 1.00046 0.994902
0.999156 0.99908 0.998755
0.99953 0.999999 0.995358
0.99933 0.998427 0.998927
0.999407 0.997985 0.999092
1.00511 0.998103 0.986734
1.00514 0.998064 0.986685
1.00507 0.997725 0.987152
1.00501 0.998438 0.986593
1.00436 0.99905 0.987337
1.00512 0.998615 0.986206
1.00514 0.998235 0.986585
1.00517 0.998067 0.986725
1.00513 0.997725 0.987057
1.00514 0.998247 0.986602
1.00506 0.998633 0.986449
1.00501 0.998158 0.986904
1.00481 0.998883 0.986615
1.00447 0.99931 0.986733
1.00457 0.998901 0.987042
1.00423 0.999307 0.987272
1.00367 0.999663 0.987959
1.00412 0.999118 0.987664
1.00355 0.999575 0.988299
1.00251 0.999935 0.989849
1.00328 0.99985 0.988516
1.00232 1.00013 0.990029
1.00041 1.00005 0.994583
1.00197 1.00039 0.990428
1.00024 1.00029 0.994691
0.999119 1.0002 0.99655
1.00012 1.00048 0.994797
0.998945 1.00032 0.996708
0.998885 1.00031 0.996824
1.00493 0.998494 0.986643
1.00435 0.999034 0.98728
1.00475 0.998847 0.986736
1.00319 0.99999 0.98865
1.00393 0.999317 0.987906
1.00422 0.998844 0.987775
1.00149 1.00092 0.990768
1.00231 1.00088 0.98933
1.00282 1.00019 0.988926
0.999801 1.00082 0.994129
1.0009 1.00143 0.991445
1.0016 1.00165 0.989938
1.00042 1.00167 0.99209
0.999584 1.0008 0.994523
0.999005 0.999692 0.998647
0.999496 1.00055 0.994907
0.999186 0.998958 0.9988
0.999353 0.998338 0.99897
1.00509 0.998261 0.986669
1.00511 0.998118 0.986724
1.00514 0.998073 0.986648
1.00504 0.998291 0.986696
1.00509 0.998496 0.986462
1.00515 0.998249 0.986584
1.00518 0.9981 0.986696
1.00514 0.9982 0.986634
1.00505 0.998584 0.986455
1.00485 0.999064 0.986451
1.00483 0.998919 0.986599
1.00447 0.99937 0.986785
1.0039 0.999691 0.987341
1.00422 0.999318 0.987271
1.00368 0.999668 0.987953
1.00264 0.999921 0.989618
1.00354 0.999579 0.988295
1.00253 0.99992 0.989848
1.00055 0.999932 0.993471
1.00233 1.00011 0.990023
1.00046 1.00005 0.99404
0.999259 1.00013 0.998446
1.00033 1.00029 0.994631
0.999041 1.00026 0.996623
0.998866 1.00044 0.996763
1.00492 0.998468 0.986753
1.00447 0.998907 0.987059
1.00492 0.998541 0.986701
1.00366 0.999418 0.988009
1.00434 0.999063 0.987294
1.00473 0.998817 0.9867
1.00214 1.00022 0.989944
1.00321 0.999982 0.988644
1.00393 0.999399 0.987942
1.00006 1.00065 0.993759
1.00151 1.00089 0.990633
1.00229 1.00082 0.989181
0.998981 1.00016 0.998546
0.999713 1.0009 0.994149
1.00088 1.00143 0.99146
0.999498 1.0009 0.994534
0.99902 0.999555 0.998686
0.999217 0.998826 0.998839
1.00504 0.998443 0.986572
1.0051 0.998246 0.986668
1.00512 0.998135 0.986715
1.00492 0.998886 0.986453
1.00509 0.998483 0.986467
1.00516 0.998256 0.986583
1.00505 0.998528 0.986461
1.00484 0.999037 0.986444
1.0044 0.999426 0.986967
1.00447 0.999434 0.986837
1.00391 0.999737 0.987499
1.00292 0.999929 0.988799
1.00368 0.999668 0.987946
1.00265 0.999918 0.989611
1.00063 0.999978 0.993274
1.00254 0.999907 0.989846
1.00055 0.999937 0.993469
0.999317 1.00005 0.998426
1.00048 1.00006 0.993536
0.999221 1.00012 0.997503
0.998963 1.00033 0.996691
1.00485 0.998615 0.986795
1.00456 0.998791 0.98714
1.00492 0.998457 0.986764
1.00385 0.999333 0.987899
1.0045 0.998885 0.987079
1.0049 0.998585 0.986758
1.00258 0.999784 0.989567
1.00367 0.999485 0.988171
1.00433 0.999089 0.987308
1.00036 1.00026 0.993525
1.00219 1.00022 0.989892
1.00323 0.999973 0.988637
0.999085 1.00035 0.998465
1.00001 1.00068 0.993783
1.00152 1.00086 0.990499
0.998945 1.00005 0.998583
0.999637 1.00096 0.99417
0.99903 0.999406 0.998727
1.00487 0.998828 0.986587
1.00503 0.998468 0.986582
1.00511 0.998231 0.986667
1.00447 0.999207 0.987018
1.00492 0.998865 0.986473
1.00509 0.998477 0.986471
1.00484 0.999008 0.986437
1.00439 0.999439 0.98696
1.00336 0.99972 0.988177
1.00392 0.999785 0.987656
1.00289 0.999946 0.988973
1.00083 1.00004 0.992812
1.00266 0.999909 0.989605
1.00064 0.999977 0.993263
0.99938 1.00001 0.998386
1.00054 0.999947 0.993468
0.999336 1.00004 0.998416
0.999256 1.00009 0.996481
1.00464 0.998883 0.987063
1.00485 0.99855 0.986812
1.00401 0.999245 0.987705
1.00457 0.998777 0.987129
1.00491 0.998447 0.986775
1.0028 0.999715 0.989515
1.00387 0.999329 0.987891
1.00452 0.998863 0.987099
1.00058 0.999956 0.993385
1.00259 0.999831 0.98966
1.00369 0.999557 0.988334
0.99924 1.00027 0.998417
1.00034 1.00027 0.99354
1.00223 1.00021 0.989839
0.999028 1.00028 0.998489
0.999949 1.0007 0.993811
0.998911 0.999934 0.998622
1.00439 0.999202 0.987196
1.00486 0.998851 0.986588
1.00502 0.998494 0.986593
1.00343 0.999563 0.988199
1.00447 0.999211 0.987017
1.00492 0.998841 0.986494
1.00438 0.999456 0.986953
1.00332 0.999746 0.988222
1.00109 1.00003 0.992327
1.00287 0.999959 0.989147
1.00085 1.00004 0.992789
0.999502 1.00001 0.998282
1.00065 0.999979 0.993253
0.999417 1 0.998357
0.999362 1.00002 0.998403
1.00416 0.999221 0.987479
1.00463 0.998814 0.987025
1.00486 0.998485 0.986829
1.00296 0.999678 0.989238
1.00402 0.99925 0.987696
1.00458 0.998764 0.987117
1.00074 0.999845 0.993184
1.00279 0.99973 0.989513
1.00389 0.999325 0.987883
0.999388 1.00009 0.998376
1.00058 0.999946 0.993395
1.0026 0.999874 0.989753
0.99919 1.00025 0.998429
1.00031 1.00027 0.993555
0.998961 1.00023 0.998519
1.00336 0.999619 0.988536
1.00441 0.999181 0.987055
1.00486 0.998873 0.98659
1.0012 0.999964 0.992176
1.00344 0.999556 0.988188
1.00448 0.999212 0.987017
1.00328 0.99977 0.988268
1.0011 1.00002 0.992318
0.999692 1.00001 0.998129
1.00087 1.00004 0.992766
0.999569 1.00001 0.998225
0.999455 0.999994 0.998322
1.00317 0.999654 0.988868
1.00418 0.999193 0.987409
1.00463 0.998744 0.986988
1.00094 0.999897 0.993924
1.00296 0.999689 0.98923
1.00404 0.999255 0.987688
0.999513 0.999979 0.998304
1.00074 0.999844 0.993193
1.00279 0.999744 0.989511
0.999344 1.00011 0.99839
1.00057 0.999941 0.993405
0.999138 1.00024 0.998441
1.0012 0.999959 0.992203
1.00336 0.999583 0.988439
1.00443 0.999156 0.986913
0.9998 1 0.998052
1.0012 0.999965 0.992177
1.00344 0.999551 0.988177
1.00111 1.00001 0.992306
0.999742 1.00001 0.998092
0.999642 1 0.998168
1.00114 0.999954 0.993542
1.00317 0.999649 0.988869
1.0042 0.999165 0.987339
0.999436 0.999971 0.998377
1.00087 0.999903 0.992902
1.00297 0.999695 0.989222
0.999469 1 0.998332
1.00073 0.99985 0.993202
0.999306 1.00012 0.998402
0.999784 1.00001 0.995681
1.0012 0.99996 0.992827
1.00336 0.999552 0.988341
0.999802 0.999998 0.998049
1.0012 0.999964 0.992182
0.999779 1 0.998062
0.999531 0.999982 0.996009
1.00107 0.999965 0.993071
1.00318 0.999647 0.988871
0.999504 0.999972 0.997208
1.00087 0.999918 0.992885
0.999433 1.00002 0.998358
0.999788 0.999994 0.998058
1.00115 0.99996 0.992279
0.999802 0.999996 0.998048
0.999628 0.999995 0.997039
1.00103 0.999969 0.992532
0.99954 0.999985 0.998277
0.999756 0.999989 0.99809
0.999656 0.999985 0.998176

TENSORS stress float
0.00118946 -2.02072e-06 6.85238e-05
-2.02072e-06 0.000289228 -7.8478e-06
6.85238e-05 -7.8478e-06 0.000269524
0.00323671 -8.17568e-05 6.29452e-05
-8.17568e-05 0.00136177 3.4449e-06
6.29452e-05 3.4449e-06 0.00135751
0.00120306 3.40039e-05 3.24489e-05
3.40039e-05 0.000305666 -2.46707e-06
3.24489e-05 -2.46707e-06 0.000280835
0.00158704 -1.28009e-05 8.55675e-05
-1.28009e-05 0.000471513 -6.17386e-06
8.55675e-05 -6.17386e-06 0.000449982
0.00129337 -1.14804e-05 7.45652e-05
-1.14804e-05 0.000343266 -7.93242e-06
7.45652e-05 -7.93242e-06 0.000322059
0.00113337 2.49412e-05 5.78075e-05
2.49412e-05 0.000251514 -7.17345e-06
5.78075e-05 -7.17345e-06 0.000233247
0.00110645 -2.1377e-06 8.79918e-06
-2.1377e-06 0.000201174 -4.15713e-06
8.79918e-06 -4.15713e-06 0.000152141
0.0031925 -9.41195e-05 2.3046e-06
-9.41195e-05 0.00133623 -2.88639e-07
2.3046e-06 -2.88639e-07 0.00133141
0.00395013 -0.000170777 1.63896e-06
-0.000170777 0.00177546 2.19641e-06
1.63896e-06 2.19641e-06 0.00175128
0.00322282 -0.000134365 1.13625e-05
-0.000134365 0.00138033 1.5945e-06
1.13625e-05 1.5945e-06 0.00136483
0.00113415 -3.67023e-05 4.81041e-05
-3.67023e-05 0.000226068 4.17946e-06
4.81041e-05 4.17946e-06 0.00021734
0.000748305 2.0978e-05 7.48424e-06
2.0978e-05 2.96927e-06 4.64782e-06
7.48424e-06 4.64782e-06 -3.87697e-05
0.0017534 -8.87481e-06 0.000102415
-8.87481e-06 0.00054068 8.4817e-07
0.000102415 8.4817e-07 0.00051797
0.00131837 8.73898e-06 1.58691e-05
8.73898e-06 0.000332326 1.35765e-06
1.58691e-05 1.35765e-06 0.000307457
0.00125289 7.77157e-05 -3.31143e-06
7.77157e-05 0.000343214 2.93141e-06
-3.31143e-06 2.93141e-06 0.000312079
0.00146843 6.48402e-06 3.7201e-05
6.48402e-06 0.000414936 -2.212e-06
3.7201e-05 -2.212e-06 0.000391239
0.00113358 4.22942e-05 2.6971e-05
4.22942e-05 0.000257912 -2.42543e-06
2.6971e-05 -2.42543e-06 0.00023661
0.00128987 3.12056e-05 3.73564e-05
3.12056e-05 0.000351594 -2.32744e-06
3.73564e-05 -2.32744e-06 0.000325018
0.00121826 -1.29939e-05 -1.39092e-05
-1.29939e-05 0.000254793 3.78601e-07
-1.39092e-05 3.78601e-07 0.000208121
0.00479539 -5.61169e-06 0.000101935
-5.61169e-06 0.00216299 -1.07923e-06
0.000101935 -1.07923e-06 0.00215791
0.00165831 -7.29358e-06 8.92547e-05
-7.29358e-06 0.000502104 -4.64646e-06
8.92547e-05 -4.64646e-06 0.00048119
0.00143975 -1.32883e-05 7.98448e-05
-1.32883e-05 0.000408855 -7.4021e-06
7.98448e-05 -7.4021e-06 0.000387125
0.00144752 -2.24957e-05 1.75947e-05
-2.24957e-05 0.000310631 -3.40715e-06
1.75947e-05 -3.40715e-06 0.000261358
0.00121794 -1.2116e-06 9.0427e-06
-1.2116e-06 0.00024231 -4.67983e-06
9.0427e-06 -4.67983e-06 0.000191106
0.00114709 4.29142e-05 4.59827e-05
4.29142e-05 0.000242474 -6.81186e-06
4.59827e-05 -6.81186e-06 0.000227889
0.00102102 4.39236e-06 8.38946e-06
4.39236e-06 0.000166204 -3.41865e-06
8.38946e-06 -3.41865e-06 0.000121041
0.00150111 -8.69003e-05 3.82691e-06
-8.69003e-05 0.000318782 -1.51936e-06
3.82691e-06 -1.51936e-06 0.00024176
0.00313139 -9.96148e-05 -4.97135e-05
-9.96148e-05 0.00130122 -3.11701e-06
-4.97135e-05 -3.11701e-06 0.00129644
0.00256193 -5.92397e-05 -3.55028e-05
-5.92397e-05 0.00102387 -7.45341e-07
-3.55028e-05 -7.45341e-07 0.00100352
0.00223138 -7.96117e-05 -2.49347e-05
-7.96117e-05 0.000845152 -5.82761e-07
-2.49347e-05 -5.82761e-07 0.000828303
0.00296701 -8.85613e-05 1.32202e-06
-8.85613e-05 0.00120314 -1.62629e-07
1.32202e-06 -1.62629e-07 0.00120237
0.00069152 1.28184e-05 -1.03759e-07
1.28184e-05 -2.194e-05 -1.59273e-07
-1.03759e-07 -1.59273e-07 -6.41785e-05
0.00161786 2.42607e-05 8.17336e-05
2.42607e-05 0.000500539 4.98663e-06
8.17336e-05 4.98663e-06 0.000479209
0.00160329 7.00036e-06 7.09261e-05
7.00036e-06 0.000508236 5.66842e-06
7.09261e-05 5.66842e-06 0.000487763
0.00218561 6.8156e-05 4.4623e-05
6.8156e-05 0.00073767 5.24487e-06
4.4623e-05 5.24487e-06 0.000695226
0.00270563 -9.09854e-05 1.44082e-05
-9.09854e-05 0.00105604 1.36793e-06
1.44082e-05 1.36793e-06 0.00105793
0.00189258 2.87298e-05 3.43432e-05
2.87298e-05 0.000608905 4.05188e-06
3.43432e-05 4.05188e-06 0.000571091
0.00068044 -1.51196e-05 7.52229e-06
-1.51196e-05 -2.91448e-05 6.68579e-06
7.52229e-06 6.68579e-06 -6.68662e-05
0.000913235 5.84782e-05 3.64789e-06
5.84782e-05 5.79504e-05 8.15688e-07
3.64789e-06 8.15688e-07 -1.7395e-05
0.00251456 -6.37086e-05 3.80505e-05
-6.37086e-05 0.000941497 3.30534e-06
3.80505e-05 3.30534e-06 0.000950874
0.00497209 -1.26952e-05 1.41413e-06
-1.26952e-05 0.0022508 -5.1544e-07
1.41413e-06 -5.1544e-07 0.00224527
0.00300229 8.34576e-06 -4.0587e-05
8.34576e-06 0.0012212 -9.34712e-07
-4.0587e-05 -9.34712e-07 0.00120599
0.0051715 1.24806e-05 0.000111006
1.24806e-05 0.00234875 3.78903e-07
0.000111006 3.78903e-07 0.00234352
0.0013523 7.6607e-06 1.36821e-05
7.6607e-06 0.000346173 8.93466e-07
1.36821e-05 8.93466e-07 0.000320052
0.000796036 -4.56368e-06 1.44094e-05
-4.56368e-06 -7.16262e-05 2.08086e-06
1.44094e-05 2.08086e-06 -0.000128035
0.00441106 -2.78178e-05 2.60959e-05
-2.78178e-05 0.00197782 1.13192e-06
2.60959e-05 1.13192e-06 0.00196771
0.00234337 8.85228e-06 5.33083e-05
8.85228e-06 0.00076983 3.1642e-06
5.33083e-05 3.1642e-06 0.000729996
0.00134485 2.95345e-06 -1.59775e-05
2.95345e-06 0.000355387 2.01139e-06
-1.59775e-05 2.01139e-06 0.000329905
0.00132224 6.53661e-05 -4.07414e-06
6.53661e-05 0.000377198 2.92573e-06
-4.07414e-06 2.92573e-06 0.000346463
0.0011425 7.00986e-05 -6.22423e-06
7.00986e-05 0.00026998 2.36842e-06
-6.22423e-06 2.36842e-06 0.000244394
0.00128244 -2.71632e-05 -3.6447e-05
-2.71632e-05 0.000282275 4.86289e-06
-3.6447e-05 4.86289e-06 0.000238636
0.00318388 4.10021e-05 -4.14569e-05
4.10021e-05 0.0013121 -1.04724e-06
-4.14569e-05 -1.04724e-06 0.00129352
0.00149393 1.98461e-06 3.69739e-05
1.98461e-06 0.000420512 -1.52557e-06
3.69739e-05 -1.52557e-06 0.000397653
0.00110131 5.13464e-05 2.0104e-05
5.13464e-05 0.000221604 -2.32112e-06
2.0104e-05 -2.32112e-06 0.0002058
0.00138381 1.91435e-05 3.78408e-05
1.91435e-05 0.000387358 -2.43377e-06
3.78408e-05 -2.43377e-06 0.000362188
0.00149883 -3.10231e-05 -1.34854e-05
-3.10231e-05 0.000335314 2.42634e-07
-1.34854e-05 2.42634e-07 0.000287716
0.00111993 -3.49102e-08 -1.08963e-05
-3.49102e-08 0.000214064 3.43639e-07
-1.08963e-05 3.43639e-07 0.000170599
0.00131626 -2.08041e-05 -1.47439e-05
-2.08041e-05 0.000287359 3.5377e-07
-1.47439e-05 3.5377e-07 0.00023974
0.00162917 -9.2185e-05 -2.20794e-06
-9.2185e-05 0.000381659 7.87768e-07
-2.20794e-06 7.87768e-07 0.000303558
0.00496695 3.37612e-05 0.000100978
3.37612e-05 0.00224847 1.33101e-07
0.000100978 1.33101e-07 0.00224275
0.00163949 2.16463e-06 9.15229e-05
2.16463e-06 0.000490926 -3.34214e-06
9.15229e-05 -3.34214e-06 0.000469711
0.00225119 4.19677e-05 1.23772e-05
4.19677e-05 0.000717513 -1.07082e-06
1.23772e-05 -1.07082e-06 0.000669863
0.00148546 -2.31287e-05 1.95592e-05
-2.31287e-05 0.00032101 -2.42898e-06
1.95592e-05 -2.42898e-06 0.000273034
0.00133655 -1.15165e-05 1.30593e-05
-1.15165e-05 0.000277653 -4.36099e-06
1.30593e-05 -4.36099e-06 0.000227341
0.0019402 -7.6379e-05 6.30437e-06
-7.6379e-05 0.000423176 -1.97609e-06
6.30437e-06 -1.97609e-06 0.000340402
0.00123363 -7.81404e-05 5.76533e-06
-7.81404e-05 0.000134525 -2.77604e-06
5.76533e-06 -2.77604e-06 5.36229e-05
0.00122459 4.55457e-05 4.1943e-05
4.55457e-05 0.000262206 -6.59353e-06
4.1943e-05 -6.59353e-06 0.00025435
0.000978863 2.96806e-05 6.72789e-06
2.96806e-05 0.00014759 -2.93449e-06
6.72789e-06 -2.93449e-06 0.000109416
0.00132109 -7.37698e-05 2.77151e-06
-7.37698e-05 0.000262587 -9.70182e-07
2.77151e-06 -9.70182e-07 0.000188931
0.00112393 -9.45069e-05 2.50649e-06
-9.45069e-05 6.34173e-05 -8.18113e-07
2.50649e-06 -8.18113e-07 -3.53086e-05
0.0038774 -8.53399e-05 -6.57284e-05
-8.53399e-05 0.00172184 -3.97042e-06
-6.57284e-05 -3.97042e-06 0.00170957
0.00293701 -8.98557e-05 -4.49394e-05
-8.98557e-05 0.0011841 -3.11862e-06
-4.49394e-05 -3.11862e-06 0.00118439
0.00328933 -0.000104465 -5.55557e-05
-0.000104465 0.00140229 -3.06963e-06
-5.55557e-05 -3.06963e-06 0.00139326
0.000641031 1.2753e-05 -6.40016e-06
1.2753e-05 -4.46146e-05 -5.25906e-06
-6.40016e-06 -5.25906e-06 -8.67031e-05
0.00445771 -3.20568e-05 -2.83002e-06
-3.20568e-05 0.00200723 -2.32334e-07
-2.83002e-06 -2.32334e-07 0.0019989
0.0037532 -9.26554e-05 2.42058e-06
-9.26554e-05 0.00165946 -2.21202e-07
2.42058e-06 -2.21202e-07 0.00164669
0.000636942 6.66926e-05 -5.37351e-07
6.66926e-05 -7.73894e-05 -1.55927e-07
-5.37351e-07 -1.55927e-07 -0.000128491
0.00188241 -6.50424e-05 -1.75167e-05
-6.50424e-05 0.000615817 -7.07461e-07
-1.75167e-05 -7.07461e-07 0.000614734
0.000662583 3.67002e-05 -2.60337e-07
3.67002e-05 -3.82362e-05 -8.66096e-08
-2.60337e-07 -8.66096e-08 -8.39761e-05
0.00116083 -2.53443e-05 9.68262e-06
-2.53443e-05 0.00022808 4.63211e-07
9.68262e-06 4.63211e-07 0.000194474
0.000866224 5.73754e-05 1.64766e-07
5.73754e-05 3.21923e-05 -2.17524e-07
1.64766e-07 -2.17524e-07 -4.25003e-05
0.00264801 -7.05762e-05 4.19149e-05
-7.05762e-05 0.00101698 3.28812e-06
4.19149e-05 3.28812e-06 0.00102393
0.000723607 -5.06673e-05 1.75029e-06
-5.06673e-05 -1.67227e-05 4.23129e-06
1.75029e-06 4.23129e-06 -3.66386e-05
0.000781066 5.82419e-05 1.41902e-05
5.82419e-05 -2.94317e-05 6.19264e-06
1.41902e-05 6.19264e-06 -8.16517e-05
0.000800718 5.93855e-05 1.26583e-05
5.93855e-05 2.09531e-05 7.47707e-06
1.26583e-05 7.47707e-06 -2.87962e-05
0.00104886 7.71862e-05 6.22239e-06
7.71862e-05 2.4688e-05 2.62782e-06
6.22239e-06 2.62782e-06 -6.00424e-05
0.00156832 -5.31332e-05 2.08077e-05
-5.31332e-05 0.000443715 3.68737e-06
2.08077e-05 3.68737e-06 0.000418626
0.000961854 7.31458e-05 3.95432e-06
7.31458e-05 6.0537e-05 1.42232e-06
3.95432e-06 1.42232e-06 -1.56825e-05
0.000890049 4.14371e-05 3.5343e-06
4.14371e-05 6.16895e-05 1.64384e-06
3.5343e-06 1.64384e-06 -1.21274e-05
0.000884941 8.62672e-05 1.9388e-06
8.62672e-05 1.28141e-05 -5.72187e-07
1.9388e-06 -5.72187e-07 -7.85671e-05
0.00234486 -5.69742e-05 3.30183e-05
-5.69742e-05 0.000845291 3.37834e-06
3.30183e-05 3.37834e-06 0.000857248
0.00246011 -6.3921e-05 7.85056e-07
-6.3921e-05 0.000912618 -9.84516e-08
7.85056e-07 -9.84516e-08 0.000922234
0.0046115 1.34805e-05 -9.56609e-05
1.34805e-05 0.00207347 -2.96371e-06
-9.56609e-05 -2.96371e-06 0.00206821
0.00487379 -1.21928e-05 -9.94351e-05
-1.21928e-05 0.00220205 -1.12391e-06
-9.94351e-05 -1.12391e-06 0.00219674
0.00512983 1.41242e-05 3.47963e-06
1.41242e-05 0.00232984 -5.58049e-07
3.47963e-06 -5.58049e-07 0.00232365
0.00307809 -9.33401e-06 -4.08352e-05
-9.33401e-06 0.00125739 -5.25353e-07
-4.08352e-05 -5.25353e-07 0.0012411
0.00162872 8.05629e-06 2.33124e-05
8.05629e-06 0.000372526 1.56301e-07
2.33124e-05 1.56301e-07 0.000322503
0.00290657 -1.01064e-05 -4.15361e-05
-1.01064e-05 0.00117878 -1.07028e-06
-4.15361e-05 -1.07028e-06 0.00116289
0.00153897 2.52499e-05 2.07312e-05
2.52499e-05 0.000347247 3.78454e-07
2.07312e-05 3.78454e-07 0.000301604
0.00516229 8.03155e-05 0.000103622
8.03155e-05 0.00234814 1.4098e-06
0.000103622 1.4098e-06 0.00234019
0.000767557 -1.38943e-06 1.30632e-05
-1.38943e-06 -9.7077e-05 3.08205e-07
1.30632e-05 3.08205e-07 -0.00015528
0.00239164 -1.45204e-05 5.55766e-05
-1.45204e-05 0.000787179 2.22602e-06
5.55766e-05 2.22602e-06 0.000745496
0.00124989 1.59249e-05 8.05109e-06
1.59249e-05 1.01963e-05 1.65482e-06
8.05109e-06 1.65482e-06 -8.10604e-05
0.00226142 5.09083e-05 5.04964e-05
5.09083e-05 0.000740419 3.64583e-06
5.04964e-05 3.64583e-06 0.000699706
0.00119909 4.55183e-05 7.878e-06
4.55183e-05 1.63498e-05 1.66661e-06
7.878e-06 1.66661e-06 -7.0869e-05
0.00171598 1.79634e-05 -9.90814e-05
1.79634e-05 0.000525325 3.94504e-07
-9.90814e-05 3.94504e-07 0.00050343
0.00130917 -9.26671e-06 -1.71096e-05
-9.26671e-06 0.000328473 1.50332e-06
-1.71096e-05 1.50332e-06 0.000303601
0.00100034 6.16369e-05 -7.92132e-06
6.16369e-05 0.000172117 1.90025e-06
-7.92132e-06 1.90025e-06 0.000154744
0.00134853 2.45515e-05 -1.14006e-05
2.45515e-05 0.000373582 2.41289e-06
-1.14006e-05 2.41289e-06 0.000347043
0.00155785 -2.81164e-05 -4.6719e-05
-2.81164e-05 0.000364297 4.03936e-06
-4.6719e-05 4.03936e-06 0.000318132
0.0013761 -3.50688e-05 -4.05168e-05
-3.50688e-05 0.000312715 5.09759e-06
-4.05168e-05 5.09759e-06 0.000268211
0.00120215 -1.00873e-05 -3.15683e-05
-1.00873e-05 0.000252461 4.18739e-06
-3.15683e-05 4.18739e-06 0.000211342
0.00179044 -9.81704e-05 -8.97283e-06
-9.81704e-05 0.000461965 3.4066e-06
-8.97283e-06 3.4066e-06 0.000382694
0.00505299 7.90095e-06 -2.90527e-06
7.90095e-06 0.00229067 -5.04475e-07
-2.90527e-06 -5.04475e-07 0.00228519
0.00147837 1.3196e-06 3.84427e-05
1.3196e-06 0.0004111 -8.8109e-07
3.84427e-05 -8.8109e-07 0.000387906
0.00115715 7.74843e-06 -2.49476e-05
7.74843e-06 0.000130158 3.04235e-07
-2.49476e-05 3.04235e-07 7.87639e-05
0.00151607 -2.49394e-05 -1.39112e-05
-2.49394e-05 0.000334989 2.48354e-07
-1.39112e-05 2.48354e-07 0.000288348
0.0020275 6.54443e-05 3.34974e-05
6.54443e-05 0.000694409 -1.48015e-06
3.34974e-05 -1.48015e-06 0.000691024
0.00129424 2.92461e-05 -6.75864e-06
2.92461e-05 0.000310878 2.80223e-07
-6.75864e-06 2.80223e-07 0.000273449
0.00141644 -3.00174e-05 -1.36768e-05
-3.00174e-05 0.000314762 3.1445e-07
-1.36768e-05 3.1445e-07 0.000267351
0.00175559 -7.08657e-05 -4.43271e-06
-7.08657e-05 0.000325549 6.71547e-07
-4.43271e-06 6.71547e-07 0.000241713
0.00149515 -8.30155e-05 -1.76785e-06
-8.30155e-05 0.000349998 7.54039e-07
-1.76785e-06 7.54039e-07 0.00027482
0.0015102 -8.57172e-05 -1.03881e-06
-8.57172e-05 0.000278791 1.03898e-07
-1.03881e-06 1.03898e-07 0.000198362
0.00113336 -9.42312e-05 -3.7899e-08
-9.42312e-05 6.79136e-05 7.94531e-08
-3.7899e-08 7.94531e-08 -3.06464e-05
0.00075084 2.65726e-06 1.28797e-05
2.65726e-06 -9.71348e-05 -1.56628e-06
1.28797e-05 -1.56628e-06 -0.00015416
0.00146084 -1.67991e-05 1.8754e-05
-1.67991e-05 0.000306404 -2.00665e-06
1.8754e-05 -2.00665e-06 0.000258384
0.00161595 -5.24389e-06 7.45544e-06
-5.24389e-06 0.000216966 -1.58617e-06
7.45544e-06 -1.58617e-06 0.000130832
0.00157311 -5.21142e-05 7.53267e-06
-5.21142e-05 0.000214631 -1.28131e-06
7.53267e-06 -1.28131e-06 0.000131736
0.00145934 -7.82813e-05 7.01055e-06
-7.82813e-05 0.000204118 -2.92183e-06
7.01055e-06 -2.92183e-06 0.000120054
0.00182604 -8.51953e-05 2.1798e-06
-8.51953e-05 0.000280777 -6.49695e-07
2.1798e-06 -6.49695e-07 0.000179572
0.0028335 8.00548e-05 4.30269e-05
8.00548e-05 0.00111458 -3.0466e-06
4.30269e-05 -3.0466e-06 0.0011195
0.00116182 -9.09269e-05 2.59224e-06
-9.09269e-05 3.53943e-05 -1.25856e-06
2.59224e-06 -1.25856e-06 -6.45014e-05
0.000683718 6.21377e-05 2.2539e-06
6.21377e-05 -2.08351e-05 -4.51199e-06
2.2539e-06 -4.51199e-06 -5.80341e-05
0.00070114 -4.92557e-05 2.58723e-06
-4.92557e-05 -3.68648e-05 -1.00316e-06
2.58723e-06 -1.00316e-06 -0.000108527
0.00122369 -0.000102358 2.38281e-06
-0.000102358 0.000161349 -8.85941e-07
2.38281e-06 -8.85941e-07 6.29037e-05
0.0012527 -0.000105766 9.96593e-07
-0.000105766 9.22417e-05 -2.48355e-07
9.96593e-07 -2.48355e-07 -1.5523e-05
0.000634193 5.35479e-05 2.53459e-06
5.35479e-05 -6.24457e-05 -4.46881e-06
2.53459e-06 -4.46881e-06 -8.76903e-05
0.00081431 3.26957e-05 8.71372e-07
3.26957e-05 1.28377e-05 -2.43203e-06
8.71372e-07 -2.43203e-06 -4.04535e-05
0.0042528 -3.12649e-05 -8.11458e-05
-3.12649e-05 0.00190237 -3.75412e-06
-8.11458e-05 -3.75412e-06 0.00189478
0.00349781 -0.000103331 -5.89376e-05
-0.000103331 0.00152528 -3.52286e-06
-5.89376e-05 -3.52286e-06 0.00151305
0.000579987 5.86848e-05 -1.0181e-05
5.86848e-05 -0.000105336 -5.90064e-06
-1.0181e-05 -5.90064e-06 -0.000156307
0.00277698 -7.99318e-05 -4.21647e-05
-7.99318e-05 0.00109052 -3.06584e-06
-4.21647e-05 -3.06584e-06 0.00109491
0.000617907 -4.23762e-05 -1.84776e-06
-4.23762e-05 -5.49654e-05 -5.35681e-06
-1.84776e-06 -5.35681e-06 -9.26249e-05
0.000597861 3.24452e-05 -7.62143e-06
3.24452e-05 -6.68821e-05 -5.09931e-06
-7.62143e-06 -5.09931e-06 -0.000113163
0.000833453 5.6221e-05 -3.58106e-06
5.6221e-05 1.4016e-05 -1.26017e-06
-3.58106e-06 -1.26017e-06 -6.02912e-05
0.00263068 -7.11046e-05 7.20276e-07
-7.11046e-05 0.00100801 -1.27075e-07
7.20276e-07 -1.27075e-07 0.00101508
0.000696724 -4.76548e-05 1.249e-07
-4.76548e-05 -3.22679e-05 7.91108e-08
1.249e-07 7.91108e-08 -5.13629e-05
0.00141955 6.06362e-05 1.82601e-05
6.06362e-05 0.000311626 2.40238e-07
1.82601e-05 2.40238e-07 0.000264786
0.00125261 5.05649e-05 1.51673e-05
5.05649e-05 0.000266589 2.76118e-07
1.51673e-05 2.76118e-07 0.000221921
0.00103202 7.73088e-05 3.92071e-07
7.73088e-05 1.68218e-05 -1.28146e-07
3.92071e-07 -1.28146e-07 -6.7803e-05
0.000693171 -5.80951e-05 7.45915e-08
-5.80951e-05 -2.02883e-05 8.20064e-08
7.45915e-08 8.20064e-08 -5.12673e-05
0.000905827 6.99254e-05 1.02837e-07
6.99254e-05 3.15105e-05 3.03077e-07
1.02837e-07 3.03077e-07 -4.42897e-05
0.000840593 3.52568e-05 2.7204e-07
3.52568e-05 3.61671e-05 -2.83829e-07
2.7204e-07 -2.83829e-07 -3.74526e-05
0.000840155 8.42197e-05 -7.81672e-08
8.42197e-05 -1.15116e-05 -1.58743e-07
-7.81672e-08 -1.58743e-07 -0.000103172
0.000691233 -5.7306e-05 1.51095e-06
-5.7306e-05 -2.57223e-05 4.47574e-06
1.51095e-06 4.47574e-06 -5.14845e-05
0.000752983 -4.22921e-05 2.44862e-06
-4.22921e-05 -1.16448e-05 3.83771e-06
2.44862e-06 3.83771e-06 -2.58386e-05
0.000758598 -6.57213e-06 2.45171e-06
-6.57213e-06 -1.09342e-05 2.28685e-06
2.45171e-06 2.28685e-06 -6.30337e-05
0.00109539 6.88933e-05 7.08661e-06
6.88933e-05 5.44847e-06 2.39966e-06
7.08661e-06 2.39966e-06 -8.11321e-05
0.00101096 7.89597e-05 4.96209e-06
7.89597e-05 5.29924e-05 2.43704e-06
4.96209e-06 2.43704e-06 -2.74641e-05
0.00124262 9.76314e-05 3.39848e-06
9.76314e-05 6.50921e-05 1.43907e-06
3.39848e-06 1.43907e-06 -3.84324e-05
0.000856787 2.44062e-05 2.85487e-06
2.44062e-05 4.41468e-05 2.04676e-06
2.85487e-06 2.04676e-06 -2.40323e-05
0.000926896 8.94695e-05 1.53003e-06
8.94695e-05 3.62343e-06 -2.70618e-08
1.53003e-06 -2.70618e-08 -8.81997e-05
0.001056 8.97811e-05 2.14061e-06
8.97811e-05 0.000128823 9.69362e-08
2.14061e-06 9.69362e-08 3.59194e-05
0.00106701 0.000102651 -5.61864e-07
0.000102651 9.87155e-05 -1.53876e-06
-5.61864e-07 -1.53876e-06 -1.34565e-06
0.00222571 -5.07102e-05 2.88105e-05
-5.07102e-05 0.000774145 3.45347e-06
2.88105e-05 3.45347e-06 0.000788577
0.00230614 -5.71531e-05 6.45825e-07
-5.71531e-05 0.000823949 -8.06683e-08
6.45825e-07 -8.06683e-08 0.000836194
0.00240871 -6.39752e-05 -3.31111e-05
-6.39752e-05 0.000885083 -3.18689e-06
-3.31111e-05 -3.18689e-06 0.000894998
0.000678906 4.37081e-05 2.88534e-06
4.37081e-05 -4.69663e-05 -3.96273e-06
2.88534e-06 -3.96273e-06 -6.61671e-05
0.00268084 7.20633e-05 3.89874e-05
7.20633e-05 0.00102922 -3.15038e-06
3.89874e-05 -3.15038e-06 0.00103674
0.00448317 9.39976e-07 -9.09313e-05
9.39976e-07 0.00201241 -3.51226e-06
-9.09313e-05 -3.51226e-06 0.00200653
0.00470775 1.01174e-05 -9.72627e-05
1.01174e-05 0.00212007 -2.10618e-06
-9.72627e-05 -2.10618e-06 0.00211492
0.000709458 3.11765e-05 -1.21953e-05
3.11765e-05 -9.13294e-05 -3.00081e-06
-1.21953e-05 -3.00081e-06 -0.000142082
0.000734179 1.81969e-05 -1.27495e-05
1.81969e-05 -9.83049e-05 -1.78609e-06
-1.27495e-05 -1.78609e-06 -0.000154172
0.0050752 -3.03545e-05 -0.000102428
-3.03545e-05 0.00230197 -1.99023e-07
-0.000102428 -1.99023e-07 0.00229627
0.00517547 8.60492e-06 -1.22567e-06
8.60492e-06 0.00235125 4.88224e-07
-1.22567e-06 4.88224e-07 0.00234568
0.000760073 4.43125e-07 -9.01597e-08
4.43125e-07 -9.99381e-05 -3.62717e-07
-9.01597e-08 -3.62717e-07 -0.000158146
0.00158711 8.02439e-06 2.19873e-05
8.02439e-06 0.000364198 3.66606e-07
2.19873e-05 3.66606e-07 0.000317144
0.00124436 1.96243e-05 1.59844e-07
1.96243e-05 7.93894e-06 5.88292e-08
1.59844e-07 5.88292e-08 -8.33556e-05
0.000668258 4.24001e-05 7.43376e-08
4.24001e-05 -0.000101742 -7.16079e-08
7.43376e-08 -7.16079e-08 -0.000152182
0.00119561 4.72661e-05 5.24429e-09
4.72661e-05 1.52583e-05 -1.54591e-07
5.24429e-09 -1.54591e-07 -7.21938e-05
0.000743584 -7.12552e-06 1.32407e-05
-7.12552e-06 -0.000111609 -6.90012e-07
1.32407e-05 -6.90012e-07 -0.00017037
0.00128659 7.2755e-06 8.33757e-06
7.2755e-06 9.3875e-06 4.05731e-07
8.33757e-06 4.05731e-07 -8.57173e-05
0.00122524 3.0514e-05 7.87795e-06
3.0514e-05 1.62774e-05 1.57313e-06
7.87795e-06 1.57313e-06 -7.17364e-05
0.0015059 1.90484e-05 3.5457e-06
1.90484e-05 6.27153e-05 1.36439e-06
3.5457e-06 1.36439e-06 -4.30592e-05
0.00115288 5.75977e-05 7.58894e-06
5.75977e-05 8.28971e-06 2.11219e-06
7.58894e-06 2.11219e-06 -7.87592e-05
0.00144307 5.24868e-05 3.37802e-06
5.24868e-05 6.47222e-05 5.04244e-07
3.37802e-06 5.04244e-07 -3.63275e-05
0.00510578 1.11998e-05 -0.000111875
1.11998e-05 0.00231643 -7.94028e-07
-0.000111875 -7.94028e-07 0.00231104
0.00129677 -1.53824e-05 -1.48139e-05
-1.53824e-05 0.000320674 1.08267e-06
-1.48139e-05 1.08267e-06 0.000295367
6.03688e-06 4.41386e-08 -1.28913e-05
4.41386e-08 -0.000482324 2.49944e-06
-1.28913e-05 2.49944e-06 -0.000542222
0.00157248 -1.72423e-05 -4.81564e-05
-1.72423e-05 0.000362531 2.77252e-06
-4.81564e-05 2.77252e-06 0.00031715
0.00275813 9.90214e-05 -1.51797e-05
9.90214e-05 0.00109073 1.26506e-06
-1.51797e-05 1.26506e-06 0.00108921
0.00164719 1.25165e-05 -2.52102e-05
1.25165e-05 0.000489123 3.84084e-06
-2.52102e-05 3.84084e-06 0.000455869
0.00148113 -3.46347e-05 -4.38272e-05
-3.46347e-05 0.000345346 4.8618e-06
-4.38272e-05 4.8618e-06 0.000299824
0.00156566 -6.55359e-05 -1.39456e-05
-6.55359e-05 0.000225092 3.15508e-06
-1.39456e-05 3.15508e-06 0.000140229
0.00180318 -9.4185e-05 -9.06204e-06
-9.4185e-05 0.000431992 3.24861e-06
-9.06204e-06 3.24861e-06 0.000351917
0.00168513 -9.19496e-05 -7.25595e-06
-9.19496e-05 0.000445956 2.74342e-06
-7.25595e-06 2.74342e-06 0.000369218
0.00114496 -9.40864e-05 -2.03318e-06
-9.40864e-05 7.35584e-05 8.3685e-07
-2.03318e-06 8.3685e-07 -2.48532e-05
0.000754398 4.54822e-06 -3.54014e-08
4.54822e-06 -9.66337e-05 -2.86111e-07
-3.54014e-08 -2.86111e-07 -0.000153649
0.00151199 -1.33514e-05 -1.51167e-05
-1.33514e-05 0.00033088 9.50986e-08
-1.51167e-05 9.50986e-08 0.000284202
0.00123122 -5.17676e-06 -2.83016e-06
-5.17676e-06 1.43813e-05 4.09178e-08
-2.83016e-06 4.09178e-08 -7.40498e-05
0.00178841 -5.40126e-05 -2.22983e-06
-5.40126e-05 0.000328461 2.94903e-07
-2.22983e-06 2.94903e-07 0.000246647
0.00279798 7.89828e-05 -6.50675e-07
7.89828e-05 0.00109727 -1.4487e-07
-6.50675e-07 -1.4487e-07 0.00110191
0.0011233 3.93407e-05 1.76097e-06
3.93407e-05 0.000208126 1.9796e-07
1.76097e-06 1.9796e-07 0.000176053
0.0010963 -5.1892e-05 1.43522e-07
-5.1892e-05 0.000168341 -8.89907e-08
1.43522e-07 -8.89907e-08 9.66405e-05
0.00146418 -7.75395e-05 -1.99505e-06
-7.75395e-05 0.000208138 2.61114e-07
-1.99505e-06 2.61114e-07 0.000124055
0.00151259 -7.80658e-05 -1.78085e-06
-7.80658e-05 0.00011445 4.27536e-07
-1.78085e-06 4.27536e-07 1.19595e-05
0.00100487 -9.28628e-05 -3.32254e-07
-9.28628e-05 4.90163e-05 -1.36015e-07
-3.32254e-07 -1.36015e-07 -4.90296e-05
0.00141746 -9.74115e-05 3.1947e-08
-9.74115e-05 0.000167023 -6.79148e-08
3.1947e-08 -6.79148e-08 6.76819e-05
0.00124037 -0.000104742 1.11627e-07
-0.000104742 8.58401e-05 1.57504e-07
1.11627e-07 1.57504e-07 -2.16987e-05
0.000654643 5.61359e-05 -2.17102e-07
5.61359e-05 -4.95758e-05 4.41481e-08
-2.17102e-07 4.41481e-08 -7.56714e-05
0.000787599 2.9664e-05 -2.93419e-07
2.9664e-05 -1.82058e-06 1.30167e-07
-2.93419e-07 1.30167e-07 -5.49449e-05
0.00126519 -3.16108e-06 7.93563e-06
-3.16108e-06 5.46351e-06 -1.7623e-06
7.93563e-06 -1.7623e-06 -8.83326e-05
0.00154814 -2.26685e-05 7.18655e-06
-2.26685e-05 0.000199155 -1.31237e-06
7.18655e-06 -1.31237e-06 0.000117322
0.00186412 -9.7503e-06 2.36784e-06
-9.7503e-06 0.000268568 -8.41118e-07
2.36784e-06 -8.41118e-07 0.000168158
0.00126988 -5.25633e-05 4.15525e-06
-5.25633e-05 -3.41531e-05 -4.77951e-07
4.15525e-06 -4.77951e-07 -0.000134926
0.00147934 -9.41097e-05 2.6616e-06
-9.41097e-05 0.000147527 -1.14762e-06
2.6616e-06 -1.14762e-06 4.62212e-05
0.00177067 -8.33992e-05 1.02068e-07
-8.33992e-05 0.000200412 1.30249e-07
1.02068e-07 1.30249e-07 9.57072e-05
0.000581334 6.0862e-05 1.57732e-06
6.0862e-05 -8.18197e-05 -4.76293e-06
1.57732e-06 -4.76293e-06 -0.000113474
0.00133687 -0.000102019 6.30288e-07
-0.000102019 7.7568e-05 -9.07722e-07
6.30288e-07 -9.07722e-07 -3.04585e-05
0.000710913 -1.87392e-05 1.97002e-06
-1.87392e-05 -2.85765e-05 -1.01924e-06
1.97002e-06 -1.01924e-06 -9.84834e-05
0.000639098 -7.4843e-05 1.83415e-06
-7.4843e-05 -9.91339e-05 -1.28682e-06
1.83415e-06 -1.28682e-06 -0.000191979
0.00167873 -0.000130029 5.42111e-07
-0.000130029 0.000367395 2.83619e-08
5.42111e-07 2.83619e-08 0.000257917
0.00149767 -0.000117786 -8.79216e-07
-0.000117786 0.000187759 8.13245e-07
-8.79216e-07 8.13245e-07 7.72932e-05
0.000857017 3.82725e-06 1.67459e-06
3.82725e-06 3.93028e-05 -2.33723e-06
1.67459e-06 -2.33723e-06 -2.31972e-05
0.000803014 3.83528e-05 7.93209e-07
3.83528e-05 3.14549e-06 -1.88303e-06
7.93209e-07 -1.88303e-06 -4.2202e-05
0.0008741 -2.83443e-05 5.40906e-07
-2.83443e-05 4.31164e-05 -7.39655e-07
5.40906e-07 -7.39655e-07 -3.49675e-05
0.000625881 5.6257e-05 -1.11495e-05
5.6257e-05 -0.000105702 -5.1881e-06
-1.11495e-05 -5.1881e-06 -0.000157266
0.0025958 -7.15067e-05 -3.79159e-05
-7.15067e-05 0.000989727 -3.10199e-06
-3.79159e-05 -3.10199e-06 0.000996967
0.000675809 -4.42832e-05 -2.96593e-06
-4.42832e-05 -4.44815e-05 -3.89887e-06
-2.96593e-06 -3.89887e-06 -6.27825e-05
0.000566711 4.65383e-05 -8.4083e-06
4.65383e-05 -9.10095e-05 -5.63168e-06
-8.4083e-06 -5.63168e-06 -0.000139912
0.00100956 7.73531e-05 -5.97191e-06
7.73531e-05 6.23164e-06 -2.99971e-06
-5.97191e-06 -2.99971e-06 -7.83147e-05
0.000578974 -6.0168e-05 -1.49645e-06
-6.0168e-05 -7.92291e-05 -4.90564e-06
-1.49645e-06 -4.90564e-06 -0.00011086
0.000754435 2.97694e-05 -2.25778e-06
2.97694e-05 -8.94003e-06 -1.92314e-06
-2.25778e-06 -1.92314e-06 -8.19769e-05
0.000862503 6.68061e-05 -3.71062e-06
6.68061e-05 9.18818e-06 -9.02813e-07
-3.71062e-06 -9.02813e-07 -6.62159e-05
0.000790196 8.19739e-05 -2.45407e-06
8.19739e-05 -3.86262e-05 2.26292e-07
-2.45407e-06 2.26292e-07 -0.000130536
0.000657843 -5.57398e-05 1.96984e-07
-5.57398e-05 -4.45452e-05 7.25722e-08
1.96984e-07 7.25722e-08 -6.97103e-05
0.000728386 -4.00195e-05 -1.09832e-08
-4.00195e-05 -2.47967e-05 8.40469e-08
-1.09832e-08 8.40469e-08 -3.85511e-05
0.000787204 -2.96492e-05 1.27853e-07
-2.96492e-05 2.16018e-06 1.47135e-07
1.27853e-07 1.47135e-07 -4.84638e-05
0.00110578 7.02249e-05 3.35102e-07
7.02249e-05 1.15804e-05 -1.67065e-07
3.35102e-07 -1.67065e-07 -7.51293e-05
0.000956975 7.66757e-05 2.767e-07
7.66757e-05 2.61874e-05 2.11273e-07
2.767e-07 2.11273e-07 -5.39138e-05
0.00123132 9.79025e-05 2.21833e-07
9.79025e-05 5.99034e-05 7.23751e-08
2.21833e-07 7.23751e-08 -4.37336e-05
0.000822834 2.10457e-05 -3.00912e-07
2.10457e-05 2.88207e-05 1.68553e-09
-3.00912e-07 1.68553e-09 -3.95154e-05
0.00105414 9.50859e-05 -9.16249e-08
9.50859e-05 7.06472e-05 -9.45649e-08
-9.16249e-08 -9.45649e-08 -2.11445e-05
0.00101554 8.78728e-05 2.41534e-07
8.78728e-05 0.000107772 -3.35001e-07
2.41534e-07 -3.35001e-07 1.49978e-05
0.000942818 9.78663e-05 -6.86746e-07
9.78663e-05 3.4113e-05 4.29742e-07
-6.86746e-07 4.29742e-07 -6.62361e-05
0.000766636 -3.57986e-05 2.69525e-06
-3.57986e-05 -1.34322e-05 3.50743e-06
2.69525e-06 3.50743e-06 -2.3466e-05
0.000783669 -1.40966e-08 2.75456e-06
-1.40966e-08 5.83879e-07 1.82978e-06
2.75456e-06 1.82978e-06 -5.88084e-05
0.000770843 -3.2386e-05 1.06926e-06
-3.2386e-05 -9.63716e-06 2.32355e-06
1.06926e-06 2.32355e-06 -5.22723e-05
0.000888605 2.04696e-05 1.00039e-06
2.04696e-05 5.42642e-05 8.44406e-07
1.00039e-06 8.44406e-07 -1.93208e-05
0.00131364 8.46186e-05 4.28819e-06
8.46186e-05 4.85325e-05 9.35067e-07
4.28819e-06 9.35067e-07 -5.51423e-05
0.00116727 0.000100977 2.44706e-06
0.000100977 8.7925e-05 1.42467e-06
2.44706e-06 1.42467e-06 -1.01994e-05
0.00134043 0.000106995 1.42814e-06
0.000106995 7.49127e-05 1.46631e-06
1.42814e-06 1.46631e-06 -3.71619e-05
0.00106163 6.13658e-05 1.97338e-06
6.13658e-05 0.000140541 9.7336e-07
1.97338e-06 9.7336e-07 5.37129e-05
0.00115137 0.000106181 7.93418e-08
0.000106181 9.90491e-05 -2.66958e-07
7.93418e-08 -2.66958e-07 2.18294e-07
0.00104669 0.000101616 8.70494e-07
0.000101616 0.000125675 -1.25014e-06
8.70494e-07 -1.25014e-06 1.81889e-05
0.000755252 9.14445e-05 4.43525e-07
9.14445e-05 -8.1941e-05 -1.36996e-06
4.43525e-07 -1.36996e-06 -0.000185629
0.00083192 -1.74114e-05 9.9808e-07
-1.74114e-05 4.4529e-06 1.72713e-06
9.9808e-07 1.72713e-06 -2.40438e-05
0.000773989 -2.73386e-05 1.86745e-06
-2.73386e-05 -2.2896e-05 3.40692e-06
1.86745e-06 3.40692e-06 -2.7839e-05
0.00216382 -4.48976e-05 2.53342e-05
-4.48976e-05 0.000733173 3.57932e-06
2.53342e-05 3.57932e-06 0.000749723
0.00221128 -5.08637e-05 8.21779e-07
-5.08637e-05 0.00076535 -8.00752e-08
8.21779e-07 -8.00752e-08 0.000780023
0.00227262 -5.69875e-05 -2.96005e-05
-5.69875e-05 0.000805276 -3.30318e-06
-2.96005e-05 -3.30318e-06 0.000817866
0.000708243 3.75796e-05 2.94378e-06
3.75796e-05 -3.96847e-05 -3.54562e-06
2.94378e-06 -3.54562e-06 -5.42136e-05
0.00250113 6.493e-05 3.39855e-05
6.493e-05 0.000929187 -3.24251e-06
3.39855e-05 -3.24251e-06 0.000939179
0.000698601 4.77219e-05 -2.11508e-07
4.77219e-05 -3.52314e-05 5.18315e-08
-2.11508e-07 5.18315e-08 -5.53049e-05
0.00269893 7.14875e-05 -6.05532e-07
7.14875e-05 0.0010388 -1.22033e-07
-6.05532e-07 -1.22033e-07 0.00104617
0.000665853 4.61487e-05 -1.17649e-05
4.61487e-05 -0.000103097 -4.05561e-06
-1.17649e-05 -4.05561e-06 -0.000153845
0.000743349 2.8079e-05 -1.24826e-05
2.8079e-05 -8.14933e-05 -2.25434e-06
-1.24826e-05 -2.25434e-06 -0.000134474
0.0011785 4.78182e-05 -7.73401e-06
4.78182e-05 7.11235e-06 -1.85292e-06
-7.73401e-06 -1.85292e-06 -8.0513e-05
0.0012387 2.12654e-05 -7.83226e-06
2.12654e-05 5.66187e-06 -1.5239e-06
-7.83226e-06 -1.5239e-06 -8.56423e-05
0.00075504 4.54954e-06 -1.32646e-05
4.54954e-06 -0.000101765 -1.08948e-06
-1.32646e-05 -1.08948e-06 -0.000159858
0.00519482 -2.45913e-05 -0.000109462
-2.45913e-05 0.00236077 7.80271e-07
-0.000109462 7.80271e-07 0.00235548
0.00076431 -9.21076e-07 9.04502e-08
-9.21076e-07 -0.000101355 -3.29319e-07
9.04502e-08 -3.29319e-07 -0.000160059
0.00128767 1.1172e-05 6.42284e-08
1.1172e-05 1.01294e-05 -4.5052e-07
6.42284e-08 -4.5052e-07 -8.49221e-05
0.00120918 3.06587e-05 -3.92653e-08
3.06587e-05 8.78843e-06 3.50573e-08
-3.92653e-08 3.50573e-08 -7.93625e-05
0.00152118 1.86647e-05 9.76301e-08
1.86647e-05 7.07058e-05 1.18318e-07
9.76301e-08 1.18318e-07 -3.50503e-05
0.0011576 5.95805e-05 1.68844e-07
5.95805e-05 1.17903e-05 -1.28849e-07
1.68844e-07 -1.28849e-07 -7.55487e-05
0.00145078 5.4902e-05 1.45007e-08
5.4902e-05 6.86732e-05 -3.64015e-08
1.45007e-08 -3.64015e-08 -3.25165e-05
0.00129395 -9.77827e-08 8.2775e-06
-9.77827e-08 8.84231e-06 -7.96306e-07
8.2775e-06 -7.96306e-07 -8.68294e-05
0.00155348 1.44455e-05 3.8247e-06
1.44455e-05 6.49042e-05 3.40114e-07
3.8247e-06 3.40114e-07 -4.5237e-05
0.00148254 3.50975e-05 3.45994e-06
3.50975e-05 6.94812e-05 8.86558e-07
3.45994e-06 8.86558e-07 -3.24662e-05
0.00164993 1.53445e-05 1.13333e-06
1.53445e-05 9.83697e-05 1.13169e-06
1.13333e-06 1.13169e-06 -9.1337e-06
0.00138429 7.02481e-05 3.33849e-06
7.02481e-05 5.42751e-05 4.75174e-07
3.33849e-06 4.75174e-07 -4.78504e-05
0.00156974 5.69749e-05 9.12844e-07
5.69749e-05 8.28047e-05 4.40827e-08
9.12844e-07 4.40827e-08 -2.01559e-05
0.000770646 8.34508e-06 -1.27418e-05
8.34508e-06 -8.94673e-05 9.28526e-07
-1.27418e-05 9.28526e-07 -0.000146647
0.00158276 -1.16899e-06 -4.91542e-05
-1.16899e-06 0.000365792 1.82866e-06
-4.91542e-05 1.82866e-06 0.000320443
0.000839375 -3.55867e-06 -8.41011e-06
-3.55867e-06 -0.000191941 1.90785e-06
-8.41011e-06 1.90785e-06 -0.000282719
0.0019887 -5.48762e-05 -1.26954e-05
-5.48762e-05 0.000434205 1.99904e-06
-1.26954e-05 1.99904e-06 0.000353605
0.00279026 7.83626e-05 -4.46401e-05
7.83626e-05 0.00109456 3.21711e-06
-4.46401e-05 3.21711e-06 0.00109883
0.00161786 4.21125e-05 -2.23611e-05
4.21125e-05 0.000471766 3.13229e-06
-2.23611e-05 3.13229e-06 0.00044154
0.00149659 -6.36883e-05 -5.09019e-06
-6.36883e-05 0.000375669 1.69438e-06
-5.09019e-06 1.69438e-06 0.000303942
0.00147219 -7.71157e-05 -1.07709e-05
-7.71157e-05 0.000213896 3.42866e-06
-1.07709e-05 3.42866e-06 0.000129779
0.00119402 -7.07806e-05 -4.7759e-06
-7.07806e-05 -5.4519e-05 1.16172e-06
-4.7759e-06 1.16172e-06 -0.000158284
0.00167176 -0.0001039 -3.37867e-06
-0.0001039 0.00029799 1.34765e-06
-3.37867e-06 1.34765e-06 0.000199193
0.000781935 -8.30508e-05 -1.91619e-06
-8.30508e-05 -6.53342e-05 5.94931e-07
-1.91619e-06 5.94931e-07 -0.000162958
0.00122627 -0.00010365 -3.38694e-07
-0.00010365 7.85446e-05 4.88864e-07
-3.38694e-07 4.88864e-07 -2.87658e-05
0.000682014 5.55324e-05 -1.78192e-06
5.55324e-05 -3.40705e-05 4.50526e-06
-1.78192e-06 4.50526e-06 -6.04472e-05
0.000756488 1.91024e-05 -1.89314e-06
1.91024e-05 -1.84409e-05 2.09385e-06
-1.89314e-06 2.09385e-06 -7.1708e-05
0.00108468 4.84186e-07 -3.86094e-07
4.84186e-07 -8.81721e-05 -2.25218e-07
-3.86094e-07 -2.25218e-07 -0.000182876
0.00158537 -2.49395e-05 -2.41477e-06
-2.49395e-05 0.000217516 2.76743e-07
-2.41477e-06 2.76743e-07 0.000135665
0.00177333 -7.11561e-06 -1.76636e-06
-7.11561e-06 0.00021852 4.15329e-07
-1.76636e-06 4.15329e-07 0.000117301
0.00156055 -5.64597e-05 9.08349e-07
-5.64597e-05 0.000120598 -2.02153e-07
9.08349e-07 -2.02153e-07 2.12292e-05
0.000640998 5.76887e-05 -2.6372e-07
5.76887e-05 -5.06167e-05 4.86991e-08
-2.6372e-07 4.86991e-08 -8.2002e-05
0.000830399 -2.9403e-05 -8.13475e-08
-2.9403e-05 3.30236e-05 -1.02651e-07
-8.13475e-08 -1.02651e-07 -3.71849e-05
0.00075777 -8.00671e-05 7.51314e-07
-8.00671e-05 -3.63396e-05 -5.93071e-07
7.51314e-07 -5.93071e-07 -0.000128268
0.00164185 -9.73716e-05 -7.49253e-07
-9.73716e-05 0.000230823 1.2835e-07
-7.49253e-07 1.2835e-07 0.000129387
0.00159163 -7.83131e-05 -5.39789e-07
-7.83131e-05 0.000104672 5.00739e-07
-5.39789e-07 5.00739e-07 1.34245e-07
0.0013775 -0.000117231 -9.90441e-07
-0.000117231 0.000210844 4.74147e-07
-9.90441e-07 4.74147e-07 0.000100784
0.00133657 -0.000101506 -4.86707e-08
-0.000101506 7.72722e-05 1.71582e-08
-4.86707e-08 1.71582e-08 -3.07039e-05
0.00131472 -0.000110526 3.63842e-07
-0.000110526 9.47261e-05 6.72112e-07
3.63842e-07 6.72112e-07 -1.51374e-05
0.000808144 -1.05558e-06 -2.6775e-07
-1.05558e-06 1.21491e-05 -7.14013e-08
-2.6775e-07 -7.14013e-08 -4.9972e-05
0.000841332 -8.29255e-06 -4.35702e-07
-8.29255e-06 2.18023e-05 -2.44695e-07
-4.35702e-07 -2.44695e-07 -5.36785e-05
0.000787406 3.60606e-05 2.20186e-08
3.60606e-05 -5.31136e-06 2.22081e-07
2.20186e-08 2.22081e-07 -5.06253e-05
0.00190521 3.71783e-06 2.45737e-06
3.71783e-06 0.000264914 -9.46351e-07
2.45737e-06 -9.46351e-07 0.000159737
0.00162753 -2.75026e-05 3.14569e-06
-2.75026e-05 0.000156691 -6.89354e-07
3.14569e-06 -6.89354e-07 5.91615e-05
0.00180179 -5.94428e-06 8.23828e-07
-5.94428e-06 0.00019167 -4.6366e-07
8.23828e-07 -4.6366e-07 8.43557e-05
0.00161469 -5.01594e-05 1.06487e-06
-5.01594e-05 9.6088e-05 -8.00208e-08
1.06487e-06 -8.00208e-08 -5.83683e-06
0.00122465 -9.17972e-05 1.46338e-06
-9.17972e-05 -3.97461e-05 -7.89372e-07
1.46338e-06 -7.89372e-07 -0.000147626
0.00170179 -7.46385e-05 -1.40819e-06
-7.46385e-05 0.000127947 8.59835e-07
-1.40819e-06 8.59835e-07 2.81309e-05
0.000817004 -1.51647e-05 2.44877e-06
-1.51647e-05 2.44559e-05 -1.63339e-06
2.44877e-06 -1.63339e-06 -4.39457e-05
0.00138243 -0.000105847 -1.48577e-06
-0.000105847 7.05766e-05 -6.60783e-07
-1.48577e-06 -6.60783e-07 -3.85591e-05
0.000925401 -8.20327e-05 1.05658e-06
-8.20327e-05 6.41185e-05 2.54294e-07
1.05658e-06 2.54294e-07 -2.14265e-05
0.000746278 -9.0928e-05 1.48004e-06
-9.0928e-05 -5.83815e-05 -1.79622e-06
1.48004e-06 -1.79622e-06 -0.000164979
0.001503 -0.000128325 1.07543e-06
-0.000128325 0.000249118 6.93767e-07
1.07543e-06 6.93767e-07 0.000131957
0.00186139 -0.000132388 -2.59932e-06
-0.000132388 0.000356787 2.33985e-06
-2.59932e-06 2.33985e-06 0.00025106
0.000805058 3.2228e-05 1.39264e-06
3.2228e-05 -1.83696e-06 -1.58027e-06
1.39264e-06 -1.58027e-06 -4.11917e-05
0.000908697 -3.82995e-05 1.22145e-06
-3.82995e-05 5.49829e-05 9.29105e-08
1.22145e-06 9.29105e-08 -2.38863e-05
0.000780336 -3.7865e-06 6.92987e-07
-3.7865e-06 -1.12819e-05 -1.38362e-06
6.92987e-07 -1.38362e-06 -8.16798e-05
0.000990939 -7.44229e-05 -1.14593e-07
-7.44229e-05 0.000109539 1.05166e-06
-1.14593e-07 1.05166e-06 2.1945e-05
0.00111073 7.17135e-05 -7.348e-06
7.17135e-05 1.49502e-05 -2.80768e-06
-7.348e-06 -2.80768e-06 -7.19145e-05
0.000701844 -3.81824e-05 -2.97041e-06
-3.81824e-05 -3.88696e-05 -3.57117e-06
-2.97041e-06 -3.57117e-06 -5.22387e-05
0.000630817 -5.30811e-05 -2.5817e-06
-5.30811e-05 -6.04791e-05 -4.35527e-06
-2.5817e-06 -4.35527e-06 -8.48325e-05
0.00080107 -3.72294e-05 -9.26833e-07
-3.72294e-05 1.0042e-05 -2.48952e-06
-9.26833e-07 -2.48952e-06 -4.08807e-05
0.000905642 7.44704e-05 -4.28881e-06
7.44704e-05 1.03749e-06 -2.10049e-06
-4.28881e-06 -2.10049e-06 -7.87551e-05
0.00122761 9.83703e-05 -3.31363e-06
9.83703e-05 5.85848e-05 -1.38361e-06
-3.31363e-06 -1.38361e-06 -4.51682e-05
0.000797078 1.62353e-05 -2.44044e-06
1.62353e-05 1.77305e-05 -1.87961e-06
-2.44044e-06 -1.87961e-06 -5.07831e-05
0.000982272 8.61592e-05 -2.16864e-06
8.61592e-05 9.05635e-05 -1.02618e-06
-2.16864e-06 -1.02618e-06 -2.11961e-06
0.00117115 0.000100281 -1.76515e-06
0.000100281 0.000132443 -1.17642e-07
-1.76515e-06 -1.17642e-07 4.07082e-05
0.000812247 9.27752e-05 -2.11554e-06
9.27752e-05 -3.37732e-05 1.00577e-06
-2.11554e-06 1.00577e-06 -0.000134386
0.000743457 -3.47746e-05 9.77136e-08
-3.47746e-05 -2.53485e-05 2.98088e-08
9.77136e-08 2.98088e-08 -3.52326e-05
0.000805465 5.6453e-06 3.10366e-08
5.6453e-06 1.49018e-05 -3.3221e-08
3.10366e-08 -3.3221e-08 -4.5741e-05
0.000787355 -3.59833e-05 -9.72879e-08
-3.59833e-05 -9.71105e-07 2.1491e-07
-9.72879e-08 2.1491e-07 -4.36226e-05
0.000902573 1.15613e-05 2.39211e-07
1.15613e-05 6.08117e-05 -2.19716e-07
2.39211e-07 -2.19716e-07 -1.2131e-05
0.00133316 8.58407e-05 8.4386e-07
8.58407e-05 5.86303e-05 2.3096e-07
8.4386e-07 2.3096e-07 -4.52971e-05
0.00112287 9.98569e-05 9.22366e-08
9.98569e-05 6.65801e-05 4.76829e-08
9.22366e-08 4.76829e-08 -3.14962e-05
0.00134079 0.000107114 -4.12237e-08
0.000107114 7.53027e-05 5.41777e-07
-4.12237e-08 5.41777e-07 -3.67481e-05
0.000991832 6.24607e-05 2.82397e-07
6.24607e-05 0.000104791 2.42018e-07
2.82397e-07 2.42018e-07 1.87354e-05
0.00131769 0.000113195 -5.21327e-07
0.000113195 0.000186487 -8.97453e-07
-5.21327e-07 -8.97453e-07 8.76555e-05
0.00106656 0.000102983 2.41293e-07
0.000102983 0.000135136 -6.89307e-07
2.41293e-07 -6.89307e-07 2.70791e-05
0.000887782 9.73681e-05 -1.70112e-06
9.73681e-05 -8.66635e-06 -1.38766e-08
-1.70112e-06 -1.38766e-08 -0.000110433
0.000774877 -3.14055e-05 2.3074e-06
-3.14055e-05 -1.62289e-05 3.43204e-06
2.3074e-06 3.43204e-06 -2.3398e-05
0.00079403 -3.28437e-05 1.03393e-06
-3.28437e-05 -3.00821e-06 2.05522e-06
1.03393e-06 2.05522e-06 -3.97675e-05
0.000989032 3.1691e-05 1.47771e-06
3.1691e-05 0.000102576 5.37267e-07
1.47771e-06 5.37267e-07 2.33633e-05
0.000865008 3.66635e-06 7.50781e-07
3.66635e-06 3.75947e-05 1.3883e-06
7.50781e-07 1.3883e-06 -2.68804e-05
0.000960473 6.37807e-05 1.10383e-06
6.37807e-05 9.99258e-05 -7.80404e-08
1.10383e-06 -7.80404e-08 1.29091e-05
0.0014365 8.95503e-05 2.42012e-06
8.95503e-05 6.53802e-05 2.00241e-07
2.42012e-06 2.00241e-07 -4.42015e-05
0.00120584 0.000109658 7.33557e-07
0.000109658 7.81329e-05 1.38714e-06
7.33557e-07 1.38714e-06 -2.8197e-05
0.00146318 0.000114753 -7.15044e-07
0.000114753 0.000112584 1.16087e-06
-7.15044e-07 1.16087e-06 -2.11424e-06
0.00110221 0.000100037 2.67712e-06
0.000100037 0.000171011 2.3006e-06
2.67712e-06 2.3006e-06 6.66704e-05
0.00117664 0.000112315 1.58892e-06
0.000112315 9.46456e-05 -1.2998e-07
1.58892e-06 -1.2998e-07 -7.66316e-06
0.000476264 7.98359e-05 1.91557e-06
7.98359e-05 -0.000191282 -1.87624e-06
1.91557e-06 -1.87624e-06 -0.000308707
0.000825629 -2.14132e-05 1.1714e-06
-2.14132e-05 4.70778e-06 1.80653e-06
1.1714e-06 1.80653e-06 -2.57511e-05
0.000852384 5.08296e-06 3.8284e-07
5.08296e-06 2.43391e-05 7.94269e-07
3.8284e-07 7.94269e-07 -2.26289e-05
0.000843789 -1.23446e-05 7.64523e-07
-1.23446e-05 7.68481e-06 1.75885e-06
7.64523e-07 1.75885e-06 -1.93621e-05
0.000833077 -1.59368e-05 1.30758e-07
-1.59368e-05 5.71403e-06 3.10675e-09
1.30758e-07 3.10675e-09 -2.29026e-05
0.00131779 -2.92891e-05 1.97752e-06
-2.92891e-05 0.000262708 2.05037e-06
1.97752e-06 2.05037e-06 0.000262733
0.00104287 -2.99251e-05 7.95455e-07
-2.99251e-05 0.000121243 -2.95843e-08
7.95455e-07 -2.95843e-08 0.00011789
0.00101463 -2.67205e-05 2.08383e-05
-2.67205e-05 0.000109383 6.30144e-06
2.08383e-05 6.30144e-06 0.000122094
0.00215539 -4.49737e-05 9.75412e-07
-4.49737e-05 0.000727561 -7.37763e-08
9.75412e-07 -7.37763e-08 0.000744333
0.00219539 -5.08404e-05 -2.64566e-05
-5.08404e-05 0.000755779 -3.4349e-06
-2.64566e-05 -3.4349e-06 0.000770726
0.000723808 3.34555e-05 2.59342e-06
3.34555e-05 -3.9207e-05 -3.43137e-06
2.59342e-06 -3.43137e-06 -5.04971e-05
0.00237425 5.82641e-05 3.03989e-05
5.82641e-05 0.000855008 -3.37392e-06
3.03989e-05 -3.37392e-06 0.000867429
0.000729942 3.93061e-05 2.37551e-09
3.93061e-05 -2.81304e-05 7.04042e-08
2.37551e-09 7.04042e-08 -4.30188e-05
0.00254246 6.45513e-05 -8.1154e-07
6.45513e-05 0.000951191 -1.04502e-07
-8.1154e-07 -1.04502e-07 0.000960983
0.000719302 5.08262e-05 -1.51214e-06
5.08262e-05 -2.30331e-05 4.32735e-06
-1.51214e-06 4.32735e-06 -4.39171e-05
0.00271304 7.10915e-05 -4.2291e-05
7.10915e-05 0.00104638 3.30333e-06
-4.2291e-05 3.30333e-06 0.00105357
0.00116727 6.16756e-05 -7.80276e-06
6.16756e-05 1.76757e-05 -2.33447e-06
-7.80276e-06 -2.33447e-06 -6.99293e-05
0.00120561 3.38319e-05 -7.64387e-06
3.38319e-05 7.52639e-06 -1.40974e-06
-7.64387e-06 -1.40974e-06 -8.07996e-05
0.00145138 5.32917e-05 -3.39954e-06
5.32917e-05 6.90529e-05 -5.78393e-07
-3.39954e-06 -5.78393e-07 -3.21157e-05
0.00153681 1.8547e-05 -3.53539e-06
1.8547e-05 7.88491e-05 -1.09794e-06
-3.53539e-06 -1.09794e-06 -2.68878e-05
0.00128352 1.37271e-05 -8.29697e-06
1.37271e-05 8.27252e-06 -1.34202e-06
-8.29697e-06 -1.34202e-06 -8.67649e-05
0.00077571 4.78716e-06 -1.32792e-05
4.78716e-06 -9.55048e-05 3.27773e-08
-1.32792e-05 3.27773e-08 -0.000154315
0.00129273 1.73445e-06 -1.42986e-08
1.73445e-06 8.02954e-06 -2.8511e-07
-1.42986e-08 -2.8511e-07 -8.77125e-05
0.00156336 1.61705e-05 6.30302e-09
1.61705e-05 7.00763e-05 -4.4004e-07
6.30302e-09 -4.4004e-07 -4.00328e-05
0.00148212 3.20914e-05 8.77286e-08
3.20914e-05 6.97091e-05 1.20507e-07
8.77286e-08 1.20507e-07 -3.21592e-05
0.00161259 1.45326e-05 -1.36504e-08
1.45326e-05 7.62479e-05 1.84364e-07
-1.36504e-08 1.84364e-07 -3.18109e-05
0.00140087 7.09644e-05 -8.67209e-08
7.09644e-05 6.23116e-05 -3.42617e-08
-8.67209e-08 -3.42617e-08 -3.99034e-05
0.00157774 5.66266e-05 -4.20053e-08
5.66266e-05 8.70614e-05 9.4056e-08
-4.20053e-08 9.4056e-08 -1.58686e-05
0.00156771 6.55047e-06 4.08423e-06
6.55047e-06 6.70924e-05 -8.38178e-07
4.08423e-06 -8.38178e-07 -4.36269e-05
0.00161741 1.30555e-05 1.1205e-06
1.30555e-05 5.72859e-05 9.45379e-07
1.1205e-06 9.45379e-07 -5.63018e-05
0.00159636 3.51941e-05 1.1242e-06
3.51941e-05 8.14771e-05 5.1536e-07
1.1242e-06 5.1536e-07 -2.25968e-05
0.00182325 1.02041e-05 2.11396e-07
1.02041e-05 0.000165113 5.7343e-07
2.11396e-07 5.7343e-07 5.87232e-05
0.00151455 7.0947e-05 6.92165e-07
7.0947e-05 7.49411e-05 -4.24088e-07
6.92165e-07 -4.24088e-07 -3.0081e-05
0.00166553 4.71701e-05 -1.60445e-06
4.71701e-05 0.00010158 3.70146e-07
-1.60445e-06 3.70146e-07 4.91768e-06
0.000902544 2.08777e-06 -7.95671e-06
2.08777e-06 -0.000182515 1.15542e-06
-7.95671e-06 1.15542e-06 -0.000278164
0.00161517 -2.90618e-05 -1.21725e-05
-2.90618e-05 0.0002317 1.63937e-06
-1.21725e-05 1.63937e-06 0.000149909
0.00168176 -7.60191e-07 -5.61734e-06
-7.60191e-07 0.000168171 1.75916e-06
-5.61734e-06 1.75916e-06 6.61877e-05
0.00185456 -6.05279e-05 -3.56498e-06
-6.05279e-05 0.000277065 2.7574e-07
-3.56498e-06 2.7574e-07 0.000179093
0.000682875 4.37106e-05 -3.83511e-06
4.37106e-05 -3.01628e-05 4.26734e-06
-3.83511e-06 4.26734e-06 -6.03918e-05
0.000890379 -3.33635e-05 -2.93016e-06
-3.33635e-05 6.40256e-05 1.36223e-06
-2.93016e-06 1.36223e-06 -6.47684e-06
0.000884988 -8.59222e-05 -6.34743e-07
-8.59222e-05 3.05419e-05 5.19508e-08
-6.34743e-07 5.19508e-08 -6.04953e-05
0.00181047 -0.000100838 -4.46617e-06
-0.000100838 0.000317313 1.69897e-06
-4.46617e-06 1.69897e-06 0.000215729
0.00141119 -7.31706e-05 -1.45298e-06
-7.31706e-05 8.19617e-06 3.05951e-07
-1.45298e-06 3.05951e-07 -9.61692e-05
0.00133673 -0.000101026 -8.11477e-07
-0.000101026 7.7223e-05 9.74297e-07
-8.11477e-07 9.74297e-07 -3.0707e-05
0.00107259 -0.000104308 -1.32342e-06
-0.000104308 5.23598e-05 8.418e-07
-1.32342e-06 8.418e-07 -5.82688e-05
0.0011251 -0.000102954 2.20505e-06
-0.000102954 -1.70876e-06 -2.55438e-07
2.20505e-06 -2.55438e-07 -0.000110948
0.000775365 1.59698e-06 -2.57763e-06
1.59698e-06 -6.82183e-06 1.75051e-06
-2.57763e-06 1.75051e-06 -6.83363e-05
0.000822901 -5.21013e-06 -1.13918e-06
-5.21013e-06 1.14727e-05 2.35048e-07
-1.13918e-06 2.35048e-07 -6.36808e-05
0.000772701 3.5704e-05 -8.36796e-07
3.5704e-05 -1.28856e-05 2.07536e-06
-8.36796e-07 2.07536e-06 -5.83765e-05
0.00174457 4.36404e-06 -1.8223e-06
4.36404e-06 0.000177489 3.14737e-07
-1.8223e-06 3.14737e-07 7.05928e-05
0.00162783 -3.23707e-05 -8.63842e-07
-3.23707e-05 0.000155183 9.35458e-08
-8.63842e-07 9.35458e-08 5.78239e-05
0.00167317 -3.32952e-06 -7.03143e-07
-3.32952e-06 0.000123524 5.62535e-07
-7.03143e-07 5.62535e-07 1.57715e-05
0.00170523 -4.88908e-05 2.65295e-07
-4.88908e-05 0.000144253 -1.57202e-07
2.65295e-07 -1.57202e-07 4.2609e-05
0.000820556 -1.85005e-05 1.74361e-07
-1.85005e-05 2.42498e-05 -2.10649e-07
1.74361e-07 -2.10649e-07 -4.37071e-05
0.00101045 -8.64607e-05 -1.42495e-07
-8.64607e-05 0.000106491 2.80951e-07
-1.42495e-07 2.80951e-07 2.05161e-05
0.000835245 -9.38539e-05 5.67313e-07
-9.38539e-05 -8.77709e-06 -8.42962e-07
5.67313e-07 -8.42962e-07 -0.000114134
0.00146737 -9.76055e-05 2.75049e-07
-9.76055e-05 8.95397e-05 -5.3497e-07
2.75049e-07 -5.3497e-07 -1.81598e-05
0.00162038 -7.2682e-05 2.76259e-07
-7.2682e-05 8.20908e-05 8.80634e-07
2.76259e-07 8.80634e-07 -1.68562e-05
0.00124069 -0.000117591 -1.68085e-08
-0.000117591 0.000116382 2.06984e-07
-1.68085e-08 2.06984e-07 -1.46051e-06
0.00139585 -0.000104938 -1.8788e-07
-0.000104938 7.60957e-05 1.92573e-07
-1.8788e-07 1.92573e-07 -3.27913e-05
0.00160311 -0.000123162 9.12462e-07
-0.000123162 0.000223963 4.63176e-07
9.12462e-07 4.63176e-07 0.000119346
0.000949363 -4.47353e-05 -1.7103e-07
-4.47353e-05 7.77528e-05 -2.10881e-07
-1.7103e-07 -2.10881e-07 -1.85365e-06
0.000963803 -7.84171e-05 -2.81448e-07
-7.84171e-05 9.53919e-05 3.62415e-07
-2.81448e-07 3.62415e-07 6.56344e-06
0.000801946 3.37335e-05 1.34119e-07
3.37335e-05 -2.83443e-06 8.70703e-08
1.34119e-07 8.70703e-08 -4.24838e-05
0.000790847 1.28073e-05 -9.74729e-08
1.28073e-05 -8.87295e-06 -5.14641e-07
-9.74729e-08 -5.14641e-07 -7.63856e-05
0.00165866 1.92777e-06 1.43763e-06
1.92777e-06 9.36104e-05 -1.24841e-06
1.43763e-06 -1.24841e-06 -1.87237e-05
0.00170446 -2.56241e-05 1.14241e-06
-2.56241e-05 0.000149826 -8.98028e-08
1.14241e-06 -8.98028e-08 4.73138e-05
0.00179651 -1.52727e-06 2.98593e-07
-1.52727e-06 0.000165686 -1.78056e-07
2.98593e-07 -1.78056e-07 5.812e-05
0.00161433 -4.07275e-05 -4.63562e-07
-4.07275e-05 6.50192e-05 -7.72862e-07
-4.63562e-07 -7.72862e-07 -3.52158e-05
0.00147384 -9.60519e-05 -1.58091e-06
-9.60519e-05 4.52733e-05 5.59107e-08
-1.58091e-06 5.59107e-08 -6.06927e-05
0.00171099 -6.99202e-05 5.319e-07
-6.99202e-05 0.00010329 9.33192e-08
5.319e-07 9.33192e-08 5.0203e-06
0.000926201 -7.86063e-05 1.213e-06
-7.86063e-05 6.55798e-05 5.84484e-07
1.213e-06 5.84484e-07 -1.62778e-05
0.00127874 -0.000103572 -3.58358e-06
-0.000103572 -4.33565e-06 5.46351e-07
-3.58358e-06 5.46351e-07 -0.00010305
0.000690663 -8.31522e-05 -1.11366e-07
-8.31522e-05 -5.76367e-05 -6.04672e-07
-1.11366e-07 -6.04672e-07 -0.000154826
0.00110445 -0.000112568 1.69095e-06
-0.000112568 0.000110118 -1.29103e-06
1.69095e-06 -1.29103e-06 -8.62276e-06
0.00131898 -0.000127077 9.14526e-07
-0.000127077 0.000134143 2.23287e-06
9.14526e-07 2.23287e-06 1.12792e-05
0.00201369 -0.000138726 -1.1064e-06
-0.000138726 0.000422628 1.74494e-06
-1.1064e-06 1.74494e-06 0.000316779
0.000818051 2.16195e-05 1.62403e-06
2.16195e-05 1.39816e-06 -1.56721e-06
1.62403e-06 -1.56721e-06 -3.47549e-05
0.000747898 3.74273e-06 5.30104e-07
3.74273e-06 -3.11361e-05 -1.27248e-06
5.30104e-07 -1.27248e-06 -9.40824e-05
0.000968878 -9.11024e-05 2.44462e-07
-9.11024e-05 9.34585e-05 1.3512e-06
2.44462e-07 1.3512e-06 3.6411e-06
0.000973975 -5.96223e-05 8.26882e-07
-5.96223e-05 9.84477e-05 1.07955e-07
8.26882e-07 1.07955e-07 1.66096e-05
0.000964936 -9.10019e-05 -4.7075e-07
-9.10019e-05 9.87992e-05 2.01055e-06
-4.7075e-07 2.01055e-06 5.73039e-06
0.000720579 -3.38604e-05 -2.59618e-06
-3.38604e-05 -3.71146e-05 -3.47635e-06
-2.59618e-06 -3.47635e-06 -4.68571e-05
0.00135269 8.70665e-05 -2.81515e-06
8.70665e-05 6.87747e-05 -5.06814e-07
-2.81515e-06 -5.06814e-07 -3.54161e-05
0.000800312 -3.8997e-05 -9.99038e-07
-3.8997e-05 5.88569e-06 -2.10952e-06
-9.99038e-07 -2.10952e-06 -3.68278e-05
0.000851503 -5.35085e-06 -1.53554e-06
-5.35085e-06 3.97009e-05 -2.22605e-06
-1.53554e-06 -2.22605e-06 -2.05323e-05
0.000913241 3.67108e-06 -3.10981e-07
3.67108e-06 6.55753e-05 -1.12369e-06
-3.10981e-07 -1.12369e-06 -6.70109e-06
0.0010852 9.90913e-05 -2.51873e-06
9.90913e-05 4.87088e-05 -1.43289e-06
-2.51873e-06 -1.43289e-06 -4.93475e-05
0.00133914 0.000107156 -1.41396e-06
0.000107156 7.47068e-05 -3.75457e-07
-1.41396e-06 -3.75457e-07 -3.73235e-05
0.000933501 7.76361e-05 -1.60128e-06
7.76361e-05 7.69379e-05 -4.54168e-07
-1.60128e-06 -4.54168e-07 -9.59144e-06
0.00110066 0.000105068 -2.14859e-06
0.000105068 0.000152021 -9.96584e-07
-2.14859e-06 -9.96584e-07 4.33184e-05
0.001486 0.0001203 -1.64506e-06
0.0001203 0.000274943 -1.00751e-06
-1.64506e-06 -1.00751e-06 0.000176104
0.00102753 0.000103555 -3.48001e-06
0.000103555 6.82842e-05 2.08659e-06
-3.48001e-06 2.08659e-06 -3.15742e-05
0.000752644 -3.06862e-05 1.00679e-07
-3.06862e-05 -2.77663e-05 2.55822e-08
1.00679e-07 2.55822e-08 -3.48278e-05
0.000801912 -3.31845e-05 -8.21984e-08
-3.31845e-05 1.1355e-06 7.51932e-08
-8.21984e-08 7.51932e-08 -3.55539e-05
0.000950301 3.9137e-05 3.13402e-07
3.9137e-05 8.31462e-05 -8.72181e-08
3.13402e-07 -8.72181e-08 3.76452e-06
0.00087349 -8.37229e-06 1.20858e-08
-8.37229e-06 4.11345e-05 6.32669e-08
1.20858e-08 6.32669e-08 -2.2495e-05
0.00090917 5.28625e-05 4.07934e-07
5.28625e-05 7.13783e-05 -2.92281e-07
4.07934e-07 -2.92281e-07 -1.5044e-05
0.00144858 9.03029e-05 1.0794e-06
9.03029e-05 7.16809e-05 4.55903e-07
1.0794e-06 4.55903e-07 -3.81899e-05
0.00121196 0.000110605 1.56441e-07
0.000110605 8.16149e-05 -1.30031e-08
1.56441e-07 -1.30031e-08 -2.47627e-05
0.00141097 0.000114312 8.67804e-07
0.000114312 8.64443e-05 7.82202e-07
8.67804e-07 7.82202e-07 -2.86675e-05
0.00102964 9.68133e-05 8.21247e-07
9.68133e-05 0.000134944 9.17115e-07
8.21247e-07 9.17115e-07 3.08735e-05
0.00130859 0.000117244 5.44957e-07
0.000117244 0.000164456 -8.24222e-07
5.44957e-07 -8.24222e-07 6.22028e-05
0.000873108 9.87007e-05 -1.46139e-06
9.87007e-05 1.22385e-05 -8.09006e-07
-1.46139e-06 -8.09006e-07 -0.000105288
0.000813618 -2.67737e-05 1.16395e-06
-2.67737e-05 2.68549e-06 1.90794e-06
1.16395e-06 1.90794e-06 -3.03472e-05
0.00085988 -8.89393e-06 5.23054e-07
-8.89393e-06 2.8715e-05 1.26435e-06
5.23054e-07 1.26435e-06 -2.64678e-05
0.00104662 9.24554e-05 6.43688e-07
9.24554e-05 0.000141118 -1.77667e-07
6.43688e-07 -1.77667e-07 4.56147e-05
0.000927131 1.80287e-05 6.15004e-07
1.80287e-05 7.7642e-05 6.17116e-07
6.15004e-07 6.17116e-07 3.79689e-07
0.00102298 5.28682e-05 7.21176e-07
5.28682e-05 0.000137582 -7.54725e-07
7.21176e-07 -7.54725e-07 4.29928e-05
0.00150662 8.94337e-05 -1.4188e-06
8.94337e-05 6.85541e-05 -1.20237e-06
-1.4188e-06 -1.20237e-06 -4.07403e-05
0.00125998 0.000119294 8.58639e-07
0.000119294 8.13862e-05 1.07292e-06
8.58639e-07 1.07292e-06 -2.79703e-05
0.00118151 0.000117926 -3.52153e-06
0.000117926 -3.37742e-05 -2.71984e-07
-3.52153e-06 -2.71984e-07 -0.000139694
0.000974012 9.88523e-05 8.54542e-07
9.88523e-05 0.000112833 2.34651e-06
8.54542e-07 2.34651e-06 -7.03321e-06
0.00121938 0.000123082 3.88313e-06
0.000123082 0.000138027 -9.06059e-07
3.88313e-06 -9.06059e-07 1.75174e-05
0.000823718 -2.01715e-05 6.56102e-08
-2.01715e-05 4.06394e-06 1.08572e-09
6.56102e-08 1.08572e-09 -2.64083e-05
0.000705769 -1.8584e-05 5.32142e-07
-1.8584e-05 -5.47903e-05 1.51093e-06
5.32142e-07 1.51093e-06 -0.000102946
0.000793296 -1.14493e-05 -6.52069e-07
-1.14493e-05 -7.95747e-06 -7.21198e-09
-6.52069e-07 -7.21198e-09 -5.48594e-05
0.00106344 1.31797e-05 9.59908e-07
1.31797e-05 0.000143469 5.87959e-08
9.59908e-07 5.87959e-08 8.53316e-05
0.000862315 1.12228e-05 1.5335e-06
1.12228e-05 2.79527e-05 9.24802e-07
1.5335e-06 9.24802e-07 -1.8431e-05
0.000850228 -5.14021e-06 7.42527e-07
-5.14021e-06 8.05587e-06 1.75262e-06
7.42527e-07 1.75262e-06 -1.81806e-05
0.000841559 -1.28635e-05 3.58656e-08
-1.28635e-05 6.6673e-06 2.05018e-08
3.58656e-08 2.05018e-08 -2.04305e-05
0.00131203 -2.38974e-05 1.42932e-06
-2.38974e-05 0.000254006 2.01033e-06
1.42932e-06 2.01033e-06 0.000255893
0.000832745 -1.49532e-05 -1.02009e-06
-1.49532e-05 6.1352e-06 -1.82263e-06
-1.02009e-06 -1.82263e-06 -2.26046e-05
0.00133375 -2.76151e-05 -3.71882e-06
-2.76151e-05 0.000270769 -1.17654e-06
-3.71882e-06 -1.17654e-06 0.000271082
0.00101653 -2.29069e-05 1.77455e-05
-2.29069e-05 0.000102851 6.22867e-06
1.77455e-05 6.22867e-06 0.000117497
0.00132177 -3.06198e-05 -9.00158e-06
-3.06198e-05 0.000270756 -3.18313e-06
-9.00158e-06 -3.18313e-06 0.000269201
0.00154732 -3.31275e-05 1.6022e-05
-3.31275e-05 0.000394921 2.06793e-06
1.6022e-05 2.06793e-06 0.000410565
0.00214923 -4.49667e-05 -2.33609e-05
-4.49667e-05 0.00072316 -3.55921e-06
-2.33609e-05 -3.55921e-06 0.00074016
0.000730131 3.0238e-05 2.18067e-06
3.0238e-05 -4.18926e-05 -3.41494e-06
2.18067e-06 -3.41494e-06 -5.08451e-05
0.000741296 3.41302e-05 -1.3628e-07
3.41302e-05 -3.00434e-05 1.71406e-08
-1.3628e-07 1.71406e-08 -4.1478e-05
0.0023168 5.24317e-05 2.71306e-05
5.24317e-05 0.000816911 -3.52238e-06
2.71306e-05 -3.52238e-06 0.00083136
0.00240528 5.82554e-05 -7.45686e-07
5.82554e-05 0.000872134 -8.66108e-08
-7.45686e-07 -8.66108e-08 0.000884291
0.000748156 4.16368e-05 -2.31656e-06
4.16368e-05 -1.83178e-05 3.83472e-06
-2.31656e-06 3.83472e-06 -3.36377e-05
0.00257993 6.40777e-05 -3.86028e-05
6.40777e-05 0.000971125 3.36316e-06
-3.86028e-05 3.36316e-06 0.00098074
0.00141823 7.18304e-05 -3.59083e-06
7.18304e-05 7.07348e-05 -5.5758e-07
-3.59083e-06 -5.5758e-07 -3.15815e-05
0.00148523 3.27526e-05 -3.39995e-06
3.27526e-05 7.17165e-05 -6.18892e-07
-3.39995e-06 -6.18892e-07 -3.02266e-05
0.00158505 5.74007e-05 -6.9729e-07
5.74007e-05 9.09641e-05 1.90391e-07
-6.9729e-07 1.90391e-07 -1.19783e-05
0.00157422 1.36492e-05 -1.08285e-06
1.36492e-05 5.37213e-05 -8.26541e-07
-1.08285e-06 -8.26541e-07 -5.49079e-05
0.0015786 1.95966e-05 -3.67245e-06
1.95966e-05 7.7991e-05 -1.19689e-06
-3.67245e-06 -1.19689e-06 -3.21191e-05
0.00130427 6.53992e-06 -8.29052e-06
6.53992e-06 1.35641e-05 1.57038e-07
-8.29052e-06 1.57038e-07 -8.21747e-05
0.00157855 1.08054e-05 4.8182e-08
1.08054e-05 7.27162e-05 -3.63465e-07
4.8182e-08 -3.63465e-07 -3.80917e-05
0.00161071 4.8653e-06 2.27766e-07
4.8653e-06 5.19911e-05 1.32129e-07
2.27766e-07 1.32129e-07 -6.22709e-05
0.00161022 3.44318e-05 2.86658e-08
3.44318e-05 8.88429e-05 1.13751e-07
2.86658e-08 1.13751e-07 -1.51202e-05
0.00175121 9.5905e-06 -7.31099e-08
9.5905e-06 0.000126493 -2.81426e-07
-7.31099e-08 -2.81426e-07 2.03553e-05
0.00152606 7.23083e-05 -1.46377e-07
7.23083e-05 8.0364e-05 5.79667e-08
-1.46377e-07 5.79667e-08 -2.49081e-05
0.00163183 4.66105e-05 -4.9518e-09
4.66105e-05 8.15159e-05 4.95168e-07
-4.9518e-09 4.95168e-07 -1.52338e-05
0.00164121 1.59976e-07 1.89145e-06
1.59976e-07 6.38973e-05 -8.50435e-07
1.89145e-06 -8.50435e-07 -5.13003e-05
0.00179476 1.37784e-05 -8.80239e-08
1.37784e-05 0.000126574 7.21083e-07
-8.80239e-08 7.21083e-07 1.33308e-05
0.001612 2.63391e-05 -3.52326e-07
2.63391e-05 6.02119e-05 1.07779e-06
-3.52326e-07 1.07779e-06 -4.09823e-05
0.0017918 5.12387e-06 -6.46272e-08
5.12387e-06 0.000135385 1.5131e-07
-6.46272e-08 1.5131e-07 3.00335e-05
0.00151433 6.48613e-05 -1.2456e-06
6.48613e-05 3.80926e-05 -9.94523e-07
-1.2456e-06 -9.94523e-07 -6.23985e-05
0.00184085 3.93454e-05 -4.86447e-07
3.93454e-05 0.000168491 -1.15396e-07
-4.86447e-07 -1.15396e-07 7.42197e-05
0.00157064 4.37622e-06 -5.34204e-06
4.37622e-06 8.33008e-05 1.54674e-06
-5.34204e-06 1.54674e-06 -2.53262e-05
0.0016218 -3.40424e-05 -4.89904e-06
-3.40424e-05 0.000150699 7.80325e-07
-4.89904e-06 7.80325e-07 5.35221e-05
0.00156109 -2.78776e-06 -2.00251e-06
-2.78776e-06 6.37928e-05 1.34512e-06
-2.00251e-06 1.34512e-06 -4.4416e-05
0.00179952 -4.82442e-05 -1.45255e-06
-4.82442e-05 0.000194244 -1.55835e-07
-1.45255e-06 -1.55835e-07 9.28857e-05
0.000837807 -2.17477e-05 -2.68434e-06
-2.17477e-05 3.11235e-05 1.38989e-06
-2.68434e-06 1.38989e-06 -3.64375e-05
0.00108941 -9.04999e-05 -1.45932e-06
-9.04999e-05 0.000145945 3.4178e-07
-1.45932e-06 3.4178e-07 5.95409e-05
0.00091539 -9.6162e-05 -2.63416e-07
-9.6162e-05 3.6531e-05 8.70553e-08
-2.63416e-07 8.70553e-08 -6.75548e-05
0.00171229 -0.000103399 -1.10218e-06
-0.000103399 0.000219952 3.06093e-07
-1.10218e-06 3.06093e-07 0.000112436
0.00153905 -7.0735e-05 5.8778e-07
-7.0735e-05 3.62525e-05 3.85923e-08
5.8778e-07 3.85923e-08 -6.18194e-05
0.00140877 -0.000104075 1.55053e-06
-0.000104075 8.14072e-05 9.55896e-07
1.55053e-06 9.55896e-07 -2.72391e-05
0.000988052 -0.000107275 -6.62934e-07
-0.000107275 -1.14038e-05 -3.43978e-08
-6.62934e-07 -3.43978e-08 -0.00012996
0.00133874 -0.000113736 3.5446e-06
-0.000113736 8.7758e-05 -2.61717e-06
3.5446e-06 -2.61717e-06 -1.57013e-05
0.00096789 -3.60409e-05 -1.28767e-06
-3.60409e-05 8.68552e-05 -4.06121e-07
-1.28767e-06 -4.06121e-07 7.85382e-06
0.000946351 -6.45044e-05 -7.55684e-07
-6.45044e-05 8.23084e-05 -6.37626e-07
-7.55684e-07 -6.37626e-07 -5.30548e-06
0.000793186 3.33434e-05 -9.10956e-07
3.33434e-05 -7.03758e-06 1.79645e-06
-9.10956e-07 1.79645e-06 -4.68031e-05
0.000808678 2.34888e-05 -1.8176e-07
2.34888e-05 -1.07656e-06 3.19341e-07
-1.8176e-07 3.19341e-07 -6.68921e-05
0.00167921 2.79295e-06 -1.51027e-07
2.79295e-06 0.00010386 -7.44495e-08
-1.51027e-07 -7.44495e-08 -8.44701e-06
0.00173951 -2.29873e-05 -5.73073e-07
-2.29873e-05 0.000167263 5.72393e-08
-5.73073e-07 5.72393e-08 6.52054e-05
0.00171266 -2.34365e-06 -7.55501e-07
-2.34365e-06 0.000124799 7.83315e-07
-7.55501e-07 7.83315e-07 1.77223e-05
0.0016659 -4.19147e-05 -9.23532e-08
-4.19147e-05 9.14812e-05 -4.49407e-07
-9.23532e-08 -4.49407e-07 -8.52872e-06
0.0009847 -6.40162e-05 -2.16784e-07
-6.40162e-05 9.36531e-05 8.442e-08
-2.16784e-07 8.442e-08 1.26133e-05
0.000773209 -8.60099e-05 5.04553e-07
-8.60099e-05 -1.4168e-05 -4.35748e-07
5.04553e-07 -4.35748e-07 -0.000110066
0.00110564 -0.000111974 1.16664e-07
-0.000111974 0.000112464 -1.60156e-07
1.16664e-07 -1.60156e-07 -6.60336e-06
0.00161337 -9.9058e-05 -5.53941e-07
-9.9058e-05 0.000119836 -5.16797e-07
-5.53941e-07 -5.16797e-07 1.32864e-05
0.00162311 -6.88148e-05 -5.04634e-07
-6.88148e-05 6.11584e-05 3.9616e-07
-5.04634e-07 3.9616e-07 -3.4225e-05
0.00131218 -0.000125498 -2.56338e-07
-0.000125498 0.000131275 6.02294e-07
-2.56338e-07 6.02294e-07 7.74017e-06
0.0014053 -0.000105917 -2.20152e-07
-0.000105917 5.9415e-05 1.24477e-06
-2.20152e-07 1.24477e-06 -3.93378e-05
0.00163233 -0.000125304 1.03962e-06
-0.000125304 0.000224102 -1.41108e-06
1.03962e-06 -1.41108e-06 0.000121164
0.00101793 -9.34536e-05 5.46418e-08
-9.34536e-05 0.000118087 -3.62318e-08
5.46418e-08 -3.62318e-08 2.82383e-05
0.000991242 -8.843e-05 6.11717e-08
-8.843e-05 0.000110922 1.80148e-07
6.11717e-08 1.80148e-07 1.8272e-05
0.000959664 -4.20386e-05 -3.33347e-07
-4.20386e-05 8.94915e-05 -1.202e-08
-3.33347e-07 -1.202e-08 8.79566e-06
0.000699312 2.68468e-05 -2.21741e-07
2.68468e-05 -6.1235e-05 -1.58821e-09
-2.21741e-07 -1.58821e-09 -9.84826e-05
0.000773636 2.04643e-05 5.15178e-08
2.04643e-05 -2.07219e-05 -3.44517e-07
5.15178e-08 -3.44517e-07 -8.12643e-05
0.00172683 5.17209e-06 2.3811e-07
5.17209e-06 0.00010142 -9.65806e-07
2.3811e-07 -9.65806e-07 -1.0067e-05
0.00166095 -8.38325e-06 1.22203e-06
-8.38325e-06 8.78293e-05 -3.54794e-07
1.22203e-06 -3.54794e-07 -1.58824e-05
0.00160997 -4.56084e-05 1.19917e-06
-4.56084e-05 3.49639e-05 -1.32858e-06
1.19917e-06 -1.32858e-06 -6.58908e-05
0.00136998 -8.29679e-05 -1.6624e-08
-8.29679e-05 -4.25064e-05 -1.94446e-06
-1.6624e-08 -1.94446e-06 -0.000141489
0.000939702 -9.13825e-05 -1.51104e-07
-9.13825e-05 7.58829e-05 1.32337e-06
-1.51104e-07 1.32337e-06 -1.45186e-05
0.00205202 -0.000130097 -1.42059e-06
-0.000130097 0.000355609 1.22547e-06
-1.42059e-06 1.22547e-06 0.000260395
0.000365874 -7.04628e-05 -2.31164e-07
-7.04628e-05 -0.000223162 -1.88643e-06
-2.31164e-07 -1.88643e-06 -0.000327939
0.00121225 -0.000124817 2.84556e-06
-0.000124817 0.000143891 -1.0272e-06
2.84556e-06 -1.0272e-06 9.95494e-06
0.00166558 -0.000143313 1.38609e-06
-0.000143313 0.000281352 2.24116e-06
1.38609e-06 2.24116e-06 0.000152835
0.000606103 1.97667e-05 1.28144e-06
1.97667e-05 -0.000113782 -2.30598e-06
1.28144e-06 -2.30598e-06 -0.000149656
0.000968508 7.06016e-07 1.3327e-06
7.06016e-07 8.44055e-05 -6.38176e-07
1.3327e-06 -6.38176e-07 2.80498e-05
0.000982625 -2.80544e-05 7.23324e-08
-2.80544e-05 9.7496e-05 -1.40101e-07
7.23324e-08 -1.40101e-07 2.61239e-05
0.000972138 -9.17564e-05 -5.0483e-07
-9.17564e-05 9.56387e-05 2.19242e-06
-5.0483e-07 2.19242e-06 4.46746e-06
0.00107217 -6.33549e-05 3.64853e-07
-6.33549e-05 0.000152133 1.40699e-06
3.64853e-07 1.40699e-06 6.2842e-05
0.000927628 -8.91529e-05 -2.46132e-07
-8.91529e-05 7.26687e-05 1.99098e-06
-2.46132e-07 1.99098e-06 -2.13352e-05
0.000732067 -3.00435e-05 -2.14303e-06
-3.00435e-05 -3.84243e-05 -3.45679e-06
-2.14303e-06 -3.45679e-06 -4.5386e-05
0.000809874 -3.26795e-05 -1.4173e-06
-3.26795e-05 5.26026e-06 -1.82729e-06
-1.4173e-06 -1.82729e-06 -3.13187e-05
0.0014645 9.12306e-05 -6.19342e-07
9.12306e-05 7.98901e-05 6.34736e-07
-6.19342e-07 6.34736e-07 -3.02719e-05
0.000892419 -2.24367e-05 -1.71472e-07
-2.24367e-05 5.00467e-05 -1.33183e-06
-1.71472e-07 -1.33183e-06 -1.27103e-05
0.000889304 3.28833e-05 -1.07032e-06
3.28833e-05 5.01208e-05 -4.26575e-07
-1.07032e-06 -4.26575e-07 -2.81267e-05
0.000860315 4.39587e-05 -1.12993e-07
4.39587e-05 4.40809e-05 -1.9136e-07
-1.12993e-07 -1.9136e-07 -4.17729e-05
0.00121673 0.000111445 -1.04364e-06
0.000111445 8.44086e-05 -1.57729e-06
-1.04364e-06 -1.57729e-06 -2.20048e-05
0.00135479 0.000113686 7.60289e-07
0.000113686 5.83054e-05 1.19163e-07
7.60289e-07 1.19163e-07 -5.72071e-05
0.000949709 9.31635e-05 -5.75209e-07
9.31635e-05 9.46039e-05 -2.65038e-07
-5.75209e-07 -2.65038e-07 -9.09074e-06
0.00125568 0.000116701 -2.02007e-06
0.000116701 0.00020834 9.1301e-07
-2.02007e-06 9.1301e-07 9.08007e-05
0.00143801 0.000122109 -2.57152e-06
0.000122109 0.00023308 -8.25558e-07
-2.57152e-06 -8.25558e-07 0.000130875
0.000815316 -2.59052e-05 2.29377e-08
-2.59052e-05 3.75359e-06 2.39987e-08
2.29377e-08 2.39987e-08 -2.92398e-05
0.000862853 -1.84287e-05 -1.76934e-07
-1.84287e-05 3.01929e-05 1.56112e-07
-1.76934e-07 1.56112e-07 -2.48684e-05
0.00100781 9.06943e-05 -4.43968e-07
9.06943e-05 0.000122394 -2.88714e-07
-4.43968e-07 -2.88714e-07 2.73913e-05
0.000913889 1.23021e-05 1.43567e-07
1.23021e-05 6.85268e-05 8.28936e-09
1.43567e-07 8.28936e-09 -7.62411e-06
0.000939998 5.94333e-05 1.41958e-07
5.94333e-05 9.58876e-05 -6.17217e-07
1.41958e-07 -6.17217e-07 -7.08852e-07
0.0015118 9.16393e-05 -6.93775e-07
9.16393e-05 7.32731e-05 -2.15662e-07
-6.93775e-07 -2.15662e-07 -3.65766e-05
0.00128616 0.000120195 1.00656e-06
0.000120195 9.36729e-05 -9.25685e-08
1.00656e-06 -9.25685e-08 -1.59271e-05
0.00131376 0.000121261 6.16508e-07
0.000121261 2.78704e-05 1.46528e-06
6.16508e-07 1.46528e-06 -7.63655e-05
0.000782821 8.99056e-05 6.42092e-07
8.99056e-05 1.38952e-05 1.61626e-06
6.42092e-07 1.61626e-06 -0.00010574
0.00122993 0.000123352 -4.0899e-07
0.000123352 0.000144981 -9.21039e-07
-4.0899e-07 -9.21039e-07 2.16616e-05
0.00085554 -9.54084e-06 7.11953e-07
-9.54084e-06 2.56412e-05 1.13567e-06
7.11953e-07 1.13567e-06 -2.42386e-05
0.00079494 -5.94813e-06 1.31261e-07
-5.94813e-06 -2.63228e-07 1.40743e-06
1.31261e-07 1.40743e-06 -6.9364e-05
0.00112666 0.000102232 2.60918e-07
0.000102232 0.000197737 -6.35368e-07
2.60918e-07 -6.35368e-07 8.85234e-05
0.000825852 3.21947e-05 3.97518e-07
3.21947e-05 3.04381e-05 5.21584e-07
3.97518e-07 5.21584e-07 -6.00916e-05
0.0010154 7.06087e-05 1.27425e-07
7.06087e-05 0.000130361 -1.11548e-06
1.27425e-07 -1.11548e-06 2.652e-05
0.0016453 9.15138e-05 -2.4848e-06
9.15138e-05 9.55868e-05 7.05622e-07
-2.4848e-06 7.05622e-07 3.19167e-06
0.00165617 0.00014792 3.01759e-07
0.00014792 0.000276634 -1.34284e-06
3.01759e-07 -1.34284e-06 0.000157543
0.00022575 9.30852e-05 6.73726e-08
9.30852e-05 -0.000569364 -1.53285e-06
6.73726e-08 -1.53285e-06 -0.000667565
0.00160634 0.000132067 4.12334e-06
0.000132067 0.000428441 2.92624e-06
4.12334e-06 2.92624e-06 0.000298192
8.70231e-05 7.92935e-05 4.24882e-07
7.92935e-05 -0.000441761 -1.02307e-06
4.24882e-07 -1.02307e-06 -0.000578375
0.000823057 -1.81384e-05 -1.33405e-06
-1.81384e-05 4.0631e-06 -1.76835e-06
-1.33405e-06 -1.76835e-06 -2.64017e-05
0.000790264 -1.23429e-05 1.34924e-07
-1.23429e-05 -9.81015e-06 5.4052e-07
1.34924e-07 5.4052e-07 -5.76967e-05
0.000787885 -2.14919e-05 1.94375e-07
-2.14919e-05 -6.86698e-06 1.12728e-06
1.94375e-07 1.12728e-06 -6.66933e-05
0.000747645 -2.74711e-05 -6.79132e-07
-2.74711e-05 -3.29803e-05 -7.47769e-07
-6.79132e-07 -7.47769e-07 -7.99355e-05
0.000874184 -2.58332e-06 2.18564e-07
-2.58332e-06 3.2958e-05 -3.5429e-08
2.18564e-07 -3.5429e-08 -1.25887e-05
0.000913815 -1.73075e-05 1.77593e-07
-1.73075e-05 6.14029e-05 -3.87272e-07
1.77593e-07 -3.87272e-07 4.43825e-06
0.00101732 5.69617e-06 2.60135e-07
5.69617e-06 0.000120628 -2.87306e-08
2.60135e-07 -2.87306e-08 5.6273e-05
0.000806951 -3.22675e-05 1.04504e-07
-3.22675e-05 6.36013e-06 5.88777e-07
1.04504e-07 5.88777e-07 -5.10339e-05
0.000890685 -1.68743e-05 1.04752e-07
-1.68743e-05 3.80275e-05 8.17142e-07
1.04752e-07 8.17142e-07 -5.88629e-06
0.000842251 1.37327e-06 7.81602e-07
1.37327e-06 2.85544e-06 1.61482e-06
7.81602e-07 1.61482e-06 -2.34835e-05
0.000844515 -9.36638e-06 -1.43369e-07
-9.36638e-06 5.27062e-06 1.77838e-08
-1.43369e-07 1.77838e-08 -2.10188e-05
0.00130792 -1.78374e-05 1.20112e-06
-1.78374e-05 0.00024731 1.94333e-06
1.20112e-06 1.94333e-06 0.000250243
0.000839997 -1.31594e-05 -6.61673e-07
-1.31594e-05 6.00551e-06 -1.80871e-06
-6.61673e-07 -1.80871e-06 -2.11338e-05
0.00132488 -2.23787e-05 -3.0807e-06
-2.23787e-05 0.000260584 -1.16075e-06
-3.0807e-06 -1.16075e-06 0.000262635
0.00100708 -1.89893e-05 1.42605e-05
-1.89893e-05 9.21859e-05 6.18177e-06
1.42605e-05 6.18177e-06 0.000108338
0.00134439 -2.63521e-05 -7.71068e-06
-2.63521e-05 0.000275988 -4.39327e-06
-7.71068e-06 -4.39327e-06 0.000276529
0.000961854 -2.41757e-05 5.83033e-06
-2.41757e-05 7.38976e-05 2.36957e-06
5.83033e-06 2.36957e-06 8.83482e-05
0.00206889 -4.33182e-05 -6.18664e-06
-4.33182e-05 0.00067447 -1.55628e-06
-6.18664e-06 -1.55628e-06 0.000692598
0.000743737 2.70657e-05 1.661e-06
2.70657e-05 -4.05255e-05 -3.39984e-06
1.661e-06 -3.39984e-06 -4.72446e-05
0.000747364 3.06128e-05 -1.19086e-07
3.06128e-05 -3.29365e-05 2.17511e-08
-1.19086e-07 2.17511e-08 -4.19672e-05
0.00226853 4.64214e-05 2.38572e-05
4.64214e-05 0.000784303 -3.65644e-06
2.38572e-05 -3.65644e-06 0.000800589
0.000760524 3.4952e-05 -2.79434e-06
3.4952e-05 -1.99451e-05 3.46538e-06
-2.79434e-06 3.46538e-06 -3.15375e-05
0.00232187 5.21934e-05 -9.95358e-07
5.21934e-05 0.000820558 -8.55325e-08
-9.95358e-07 -8.55325e-08 0.000834847
0.0024289 5.76911e-05 -3.37852e-05
5.76911e-05 0.000885255 3.42865e-06
-3.37852e-05 3.42865e-06 0.000897258
0.00153722 7.35893e-05 -1.5183e-06
7.35893e-05 8.56072e-05 4.26664e-07
-1.5183e-06 4.26664e-07 -1.99123e-05
0.00162834 3.27756e-05 -6.28031e-07
3.27756e-05 9.83723e-05 -2.12512e-07
-6.28031e-07 -2.12512e-07 -5.44067e-06
0.00159852 4.60839e-05 1.71502e-06
4.60839e-05 6.15517e-05 4.48969e-07
1.71502e-06 4.48969e-07 -3.52752e-05
0.0016772 8.87227e-06 -2.46115e-07
8.87227e-06 8.68133e-05 -1.23199e-06
-2.46115e-07 -1.23199e-06 -1.9066e-05
0.00160304 1.35073e-08 -1.08802e-06
1.35073e-08 4.60919e-05 -7.16749e-07
-1.08802e-06 -7.16749e-07 -6.88556e-05
0.00158852 1.41973e-05 -3.79033e-06
1.41973e-05 7.78677e-05 1.48875e-07
-3.79033e-06 1.48875e-07 -3.29911e-05
0.00166761 3.85917e-06 2.05114e-07
3.85917e-06 7.79011e-05 -3.3911e-07
2.05114e-07 -3.3911e-07 -3.75668e-05
0.00180358 9.71321e-06 9.70285e-08
9.71321e-06 0.000132525 -1.3619e-07
9.70285e-08 -1.3619e-07 1.91412e-05
0.00161703 2.46025e-05 1.57797e-08
2.46025e-05 6.15748e-05 3.6685e-07
1.57797e-08 3.6685e-07 -4.0019e-05
0.00173879 5.04236e-06 1.29229e-07
5.04236e-06 0.000106097 -8.11887e-07
1.29229e-07 -8.11887e-07 1.54633e-06
0.00156535 6.65653e-05 -5.51589e-07
6.65653e-05 6.39334e-05 1.42594e-07
-5.51589e-07 1.42594e-07 -3.65145e-05
0.00171828 3.87976e-05 1.28047e-06
3.87976e-05 0.000106046 -5.25904e-07
1.28047e-06 -5.25904e-07 1.26247e-05
0.00176637 1.1593e-05 -4.35242e-08
1.1593e-05 0.000102749 -4.57377e-07
-4.35242e-08 -4.57377e-07 -1.20417e-05
0.00174824 5.79046e-06 -6.10556e-07
5.79046e-06 9.2895e-05 6.177e-07
-6.10556e-07 6.177e-07 -1.58589e-05
0.00171068 1.81271e-05 -9.99181e-08
1.81271e-05 8.47287e-05 5.80812e-07
-9.99181e-08 5.80812e-07 -1.32173e-05
0.00182993 5.98339e-05 -1.29726e-06
5.98339e-05 0.00016323 -4.37877e-07
-1.29726e-06 -4.37877e-07 7.00928e-05
0.00169705 3.61316e-06 -1.44356e-06
3.61316e-06 0.000112772 1.12241e-06
-1.44356e-06 1.12241e-06 4.86116e-07
0.00176791 -2.2053e-05 -2.68379e-06
-2.2053e-05 0.000181184 4.55461e-07
-2.68379e-06 4.55461e-07 7.95523e-05
0.00159144 -3.28791e-06 -1.65399e-06
-3.28791e-06 6.51849e-05 1.53609e-06
-1.65399e-06 1.53609e-06 -4.14691e-05
0.00170973 -4.25111e-05 -3.8892e-07
-4.25111e-05 0.000113938 3.2569e-08
-3.8892e-07 3.2569e-08 1.41623e-05
0.00104477 -6.41048e-05 -1.37178e-06
-6.41048e-05 0.00012452 -4.29048e-07
-1.37178e-06 -4.29048e-07 4.30701e-05
0.000878539 -9.01909e-05 6.00868e-07
-9.01909e-05 4.08628e-05 -3.67724e-07
6.00868e-07 -3.67724e-07 -5.38461e-05
0.00109793 -0.000110984 -8.80284e-07
-0.000110984 0.000110265 1.43392e-06
-8.80284e-07 1.43392e-06 -9.10162e-06
0.00175235 -0.000102018 1.17324e-07
-0.000102018 0.000194091 -1.83166e-07
1.17324e-07 -1.83166e-07 8.6963e-05
0.00154805 -6.80151e-05 -8.99522e-07
-6.80151e-05 2.57431e-05 1.18047e-06
-8.99522e-07 1.18047e-06 -6.67979e-05
0.00152419 -0.000108106 2.77622e-06
-0.000108106 0.000119428 1.93115e-06
2.77622e-06 1.93115e-06 2.06299e-05
0.00127572 -0.000122702 -8.49682e-07
-0.000122702 0.000113346 -8.56021e-07
-8.49682e-07 -8.56021e-07 -1.08038e-05
0.00127493 -0.000112649 2.30329e-07
-0.000112649 3.82891e-05 -6.03931e-06
2.30329e-07 -6.03931e-06 -6.18666e-05
0.00106416 -9.57226e-05 -1.88133e-07
-9.57226e-05 0.000141451 -1.34677e-06
-1.88133e-07 -1.34677e-06 5.15459e-05
0.00102735 -8.81564e-05 -2.25828e-07
-8.81564e-05 0.000128174 -2.01789e-06
-2.25828e-07 -2.01789e-06 3.56801e-05
0.000935475 -2.58601e-05 7.55285e-08
-2.58601e-05 7.61916e-05 7.54922e-08
7.55285e-08 7.54922e-08 -3.68754e-06
0.000587782 2.85295e-05 -1.07964e-06
2.85295e-05 -0.000120376 1.68404e-06
-1.07964e-06 1.68404e-06 -0.000158551
0.000803764 3.41411e-05 -1.23566e-07
3.41411e-05 -6.89273e-06 3.37204e-07
-1.23566e-07 3.37204e-07 -6.57986e-05
0.00166813 4.55332e-06 -3.23954e-07
4.55332e-06 7.47549e-05 2.28736e-07
-3.23954e-07 2.28736e-07 -3.60202e-05
0.00171376 -9.27564e-06 -3.01187e-07
-9.27564e-06 0.000115964 -2.22498e-07
-3.01187e-07 -2.22498e-07 1.17831e-05
0.00177384 -4.78457e-05 -1.09819e-06
-4.78457e-05 0.000122257 -1.15797e-07
-1.09819e-06 -1.15797e-07 2.21659e-05
0.00103017 -9.53267e-05 -1.32273e-08
-9.53267e-05 0.000121185 2.20647e-07
-1.32273e-08 2.20647e-07 3.05007e-05
0.000771339 -8.8941e-05 1.13552e-06
-8.8941e-05 -1.52268e-05 -1.0333e-06
1.13552e-06 -1.0333e-06 -0.000119534
0.00114434 -0.000120893 -1.30661e-07
-0.000120893 0.000112279 -1.17067e-07
-1.30661e-07 -1.17067e-07 -2.21568e-05
0.00159378 -8.77166e-05 5.4536e-07
-8.77166e-05 6.93051e-05 -1.27184e-06
5.4536e-07 -1.27184e-06 -2.99477e-05
0.00154006 -0.000135615 -1.76e-07
-0.000135615 0.000216824 -1.77857e-07
-1.76e-07 -1.77857e-07 9.17697e-05
0.00158925 -0.00011953 -1.29915e-06
-0.00011953 0.000127795 -2.63824e-08
-1.29915e-06 -2.63824e-08 3.34548e-05
0.000601474 2.29189e-05 7.2534e-08
2.29189e-05 -0.000116334 -5.85972e-07
7.2534e-08 -5.85972e-07 -0.000151974
0.00102168 -9.41582e-05 1.56601e-08
-9.41582e-05 0.00012087 1.17852e-07
1.56601e-08 1.17852e-07 2.95013e-05
0.000939969 -8.94429e-05 -5.54522e-07
-8.94429e-05 7.95126e-05 1.69824e-07
-5.54522e-07 1.69824e-07 -1.40184e-05
0.0010574 -6.52523e-05 -3.0045e-07
-6.52523e-05 0.000146995 8.02904e-07
-3.0045e-07 8.02904e-07 5.59557e-05
0.00100975 -2.44143e-05 1.77467e-08
-2.44143e-05 0.000112427 1.25992e-08
1.77467e-08 1.25992e-08 4.0926e-05
0.000863292 1.35305e-05 -2.24478e-07
1.35305e-05 2.62582e-05 1.90936e-07
-2.24478e-07 1.90936e-07 -2.92419e-05
0.00179262 2.94334e-06 1.39815e-07
2.94334e-06 0.000126763 -9.29105e-07
1.39815e-07 -9.29105e-07 1.90419e-05
0.00175219 -1.07486e-05 3.23758e-07
-1.07486e-05 0.000104881 -6.08245e-08
3.23758e-07 -6.08245e-08 4.50286e-06
0.00142877 -5.59255e-05 1.90383e-06
-5.59255e-05 -6.57738e-05 -1.19755e-06
1.90383e-06 -1.19755e-06 -0.000167685
0.00181173 -0.000108604 2.09192e-07
-0.000108604 0.000125376 -2.79758e-06
2.09192e-07 -2.79758e-06 2.82041e-05
0.00095769 -9.33195e-05 -8.21805e-07
-9.33195e-05 8.66556e-05 1.39729e-06
-8.21805e-07 1.39729e-06 -7.70383e-06
0.00162247 -0.000136956 2.60106e-06
-0.000136956 0.000176498 2.73234e-06
2.60106e-06 2.73234e-06 6.09904e-05
0.000672601 -9.14127e-05 -6.62875e-07
-9.14127e-05 -7.41576e-05 -2.42274e-06
-6.62875e-07 -2.42274e-06 -0.000198924
0.00149338 -0.000142201 7.33815e-07
-0.000142201 0.000271402 1.25705e-06
7.33815e-07 1.25705e-06 0.000124894
0.000617995 1.9124e-05 8.49228e-07
1.9124e-05 -0.000109664 -2.31965e-06
8.49228e-07 -2.31965e-06 -0.000143203
0.000982164 -8.35118e-07 1.11364e-06
-8.35118e-07 9.02121e-05 -7.77605e-07
1.11364e-06 -7.77605e-07 3.76153e-05
0.00104889 -2.58429e-05 2.45546e-07
-2.58429e-05 0.000132575 6.43036e-07
2.45546e-07 6.43036e-07 6.47946e-05
0.000979445 -2.91938e-05 4.12549e-07
-2.91938e-05 0.000100823 -7.49145e-07
4.12549e-07 -7.49145e-07 1.82832e-05
0.00106308 -9.61769e-05 -3.07298e-07
-9.61769e-05 0.000141302 2.29358e-06
-3.07298e-07 2.29358e-06 4.72174e-05
0.0009665 -9.23273e-05 -1.01472e-06
-9.23273e-05 9.46666e-05 3.05099e-06
-1.01472e-06 3.05099e-06 -2.10257e-06
0.000815783 -2.4797e-05 -1.46742e-06
-2.4797e-05 4.08648e-06 -1.7772e-06
-1.46742e-06 -1.7772e-06 -2.88179e-05
0.000861397 -2.60055e-05 -3.69414e-07
-2.60055e-05 2.94893e-05 -1.16997e-06
-3.69414e-07 -1.16997e-06 -2.55341e-05
0.0015241 9.40852e-05 5.13516e-07
9.40852e-05 8.16104e-05 1.0691e-06
5.13516e-07 1.0691e-06 -2.88067e-05
0.000911253 4.04435e-06 -2.82989e-07
4.04435e-06 6.50044e-05 -6.56879e-07
-2.82989e-07 -6.56879e-07 -1.00342e-05
0.000960185 8.85751e-05 -4.25502e-07
8.85751e-05 9.94411e-05 -1.83037e-07
-4.25502e-07 -1.83037e-07 4.91966e-06
0.000865745 4.88012e-05 -6.38537e-07
4.88012e-05 5.50573e-05 -2.45887e-07
-6.38537e-07 -2.45887e-07 -4.11635e-05
0.0013117 0.000121086 -7.82334e-07
0.000121086 0.00010561 -1.5982e-06
-7.82334e-07 -1.5982e-06 -4.23318e-06
0.00143198 0.00012414 1.727e-06
0.00012414 8.21065e-05 4.53166e-07
1.727e-06 4.53166e-07 -2.03729e-05
0.000601606 8.15849e-05 -2.91171e-07
8.15849e-05 -7.97356e-05 4.01402e-07
-2.91171e-07 4.01402e-07 -0.000199221
0.00127806 0.000125454 -1.80594e-06
0.000125454 0.000171839 5.357e-07
-1.80594e-06 5.357e-07 4.54942e-05
0.000854892 -1.76777e-05 -1.88313e-07
-1.76777e-05 2.50224e-05 1.00461e-07
-1.88313e-07 1.00461e-07 -2.48754e-05
0.000845949 2.50869e-07 7.87617e-08
2.50869e-07 2.65243e-05 5.73712e-07
7.87617e-08 5.73712e-07 -4.24256e-05
0.00108589 0.000100119 1.85905e-08
0.000100119 0.000179447 -8.59927e-07
1.85905e-08 -8.59927e-07 7.13344e-05
0.00087869 1.41765e-05 -1.72978e-07
1.41765e-05 5.47263e-05 -5.15557e-09
-1.72978e-07 -5.15557e-09 -3.3129e-05
0.000934652 6.52368e-05 -1.01165e-06
6.52368e-05 9.09736e-05 -9.55282e-07
-1.01165e-06 -9.55282e-07 -1.30953e-05
0.00178962 9.33624e-05 -1.51406e-06
9.33624e-05 0.000166059 -1.00373e-07
-1.51406e-06 -1.00373e-07 7.27065e-05
0.00163678 0.000146347 1.50569e-06
0.000146347 0.000260233 1.61252e-07
1.50569e-06 1.61252e-07 0.000142533
0.000820543 0.000112398 -7.24e-07
0.000112398 -0.000251157 5.73055e-07
-7.24e-07 5.73055e-07 -0.000342866
0.00125797 0.000116069 1.23368e-06
0.000116069 0.000250225 1.29156e-06
1.23368e-06 1.29156e-06 0.00012056
0.000647892 0.000105511 -1.40743e-06
0.000105511 -0.000153975 -7.47131e-07
-1.40743e-06 -7.47131e-07 -0.000297228
0.000794957 -1.07037e-05 3.61025e-07
-1.07037e-05 -3.16678e-06 1.28278e-06
3.61025e-07 1.28278e-06 -6.5623e-05
0.000782083 3.23004e-05 3.85956e-07
3.23004e-05 1.71343e-06 2.86839e-07
3.85956e-07 2.86839e-07 -8.29276e-05
0.00104825 9.90152e-05 8.13502e-07
9.90152e-05 0.000161761 -4.5835e-07
8.13502e-07 -4.5835e-07 4.32517e-05
0.000619395 4.66231e-05 2.82299e-07
4.66231e-05 -7.61101e-05 6.37164e-07
2.82299e-07 6.37164e-07 -0.000180694
0.00203625 6.54737e-05 -1.40814e-06
6.54737e-05 0.000226175 4.63904e-07
-1.40814e-06 4.63904e-07 0.000140664
0.00142604 0.000111316 2.23063e-06
0.000111316 -6.2458e-05 1.54217e-07
2.23063e-06 1.54217e-07 -0.000143432
0.00138353 0.000147762 1.39947e-06
0.000147762 0.000112821 -3.56703e-06
1.39947e-06 -3.56703e-06 -2.06471e-05
0.000353562 8.05844e-05 3.95431e-07
8.05844e-05 -0.000232655 1.30597e-06
3.95431e-07 1.30597e-06 -0.000389682
0.000865225 3.41991e-06 -5.95023e-07
3.41991e-06 3.24163e-05 -5.42075e-07
-5.95023e-07 -5.42075e-07 -1.66624e-05
0.000873667 -6.02819e-06 -1.03842e-07
-6.02819e-06 3.98753e-05 3.82728e-07
-1.03842e-07 3.82728e-07 -2.04453e-05
0.000957378 -1.06576e-05 2.11044e-07
-1.06576e-05 8.6724e-05 7.18333e-07
2.11044e-07 7.18333e-07 1.92964e-05
0.000867771 -1.52471e-05 -6.53678e-07
-1.52471e-05 2.7976e-05 -8.18727e-07
-6.53678e-07 -8.18727e-07 -1.65073e-05
0.000763328 -3.0742e-05 1.43755e-07
-3.0742e-05 -1.84365e-05 -7.96848e-07
1.43755e-07 -7.96848e-07 -7.61173e-05
0.000877723 -1.1725e-05 7.73501e-08
-1.1725e-05 3.10014e-05 3.69372e-08
7.73501e-08 3.69372e-08 -1.27812e-05
0.000939791 1.54788e-05 -1.50815e-07
1.54788e-05 8.23682e-05 -3.28737e-07
-1.50815e-07 -3.28737e-07 1.52183e-05
0.0008282 -1.50756e-05 1.52167e-07
-1.50756e-05 1.95978e-05 2.99293e-07
1.52167e-07 2.99293e-07 -3.89294e-05
0.000972503 7.67399e-07 3.76559e-07
7.67399e-07 9.87003e-05 2.32508e-07
3.76559e-07 2.32508e-07 2.76595e-05
0.000816693 -3.34273e-05 -2.14576e-07
-3.34273e-05 1.58492e-05 6.78556e-07
-2.14576e-07 6.78556e-07 -4.94953e-05
0.000775417 1.56215e-05 3.75714e-07
1.56215e-05 -9.57753e-06 7.56179e-07
3.75714e-07 7.56179e-07 -6.70829e-05
0.000888286 8.79275e-07 2.39147e-07
8.79275e-07 3.53754e-05 7.27344e-07
2.39147e-07 7.27344e-07 -8.25593e-06
0.000834051 5.41819e-06 6.74015e-07
5.41819e-06 -1.14664e-06 1.54872e-06
6.74015e-07 1.54872e-06 -2.81658e-05
0.000840838 -5.42747e-06 -2.58655e-07
-5.42747e-06 2.2193e-06 7.0726e-09
-2.58655e-07 7.0726e-09 -2.41885e-05
0.001314 -1.17697e-05 9.92968e-07
-1.17697e-05 0.000247849 1.87368e-06
9.92968e-07 1.87368e-06 0.000251008
0.000835555 -1.4316e-05 -3.07467e-07
-1.4316e-05 6.9919e-07 -1.71518e-06
-3.07467e-07 -1.71518e-06 -2.56303e-05
0.00132834 -1.65526e-05 -2.45321e-06
-1.65526e-05 0.000258253 -1.19153e-06
-2.45321e-06 -1.19153e-06 0.000261132
0.00100948 -1.46667e-05 1.12994e-05
-1.46667e-05 8.94269e-05 6.24175e-06
1.12994e-05 6.24175e-06 0.000106201
0.00134246 -2.13257e-05 -5.91223e-06
-2.13257e-05 0.000269704 -4.32327e-06
-5.91223e-06 -4.32327e-06 0.000271827
0.000961653 -1.9924e-05 4.38851e-06
-1.9924e-05 6.79918e-05 2.36376e-06
4.38851e-06 2.36376e-06 8.40664e-05
0.000905236 -2.45188e-05 -2.3021e-06
-2.45188e-05 4.39742e-05 -1.61262e-06
-2.3021e-06 -1.61262e-06 5.83957e-05
0.000754231 2.34635e-05 1.20543e-06
2.34635e-05 -4.03978e-05 -3.33395e-06
1.20543e-06 -3.33395e-06 -4.48394e-05
0.000756422 2.72994e-05 -1.61523e-07
2.72994e-05 -3.38734e-05 1.92069e-08
-1.61523e-07 1.92069e-08 -4.06637e-05
0.0022198 4.0174e-05 2.03384e-05
4.0174e-05 0.000751979 -3.7542e-06
2.03384e-05 -3.7542e-06 0.000770006
0.000765985 3.10256e-05 -2.41315e-06
3.10256e-05 -2.32694e-05 3.38681e-06
-2.41315e-06 3.38681e-06 -3.23825e-05
0.00227722 4.64022e-05 -1.11352e-06
4.64022e-05 0.000789823 -7.84343e-08
-1.11352e-06 -7.84343e-08 0.000805919
0.00233398 5.19053e-05 -2.96458e-05
5.19053e-05 0.000827892 3.51371e-06
-2.96458e-05 3.51371e-06 0.000842021
0.00161301 6.83053e-05 1.38105e-06
6.83053e-05 8.80937e-05 1.68859e-06
1.38105e-06 1.68859e-06 -1.23215e-05
0.00162205 2.27804e-05 6.4809e-08
2.27804e-05 6.29779e-05 -3.33975e-07
6.4809e-08 -3.33975e-07 -3.90169e-05
0.00160888 3.8297e-05 1.9452e-06
3.8297e-05 5.02398e-05 -1.20409e-06
1.9452e-06 -1.20409e-06 -4.23187e-05
0.00168101 5.02843e-06 1.84484e-07
5.02843e-06 7.44385e-05 -1.56094e-06
1.84484e-07 -1.56094e-06 -2.93199e-05
0.00181495 6.7905e-06 1.88153e-07
6.7905e-06 0.000140055 -8.7136e-07
1.88153e-07 -8.7136e-07 2.64527e-05
0.00169217 2.67769e-06 -1.33465e-06
2.67769e-06 9.09854e-05 8.96805e-08
-1.33465e-06 8.96805e-08 -2.47235e-05
0.00175202 1.27136e-05 -1.23683e-07
1.27136e-05 9.85326e-05 -8.63835e-09
-1.23683e-07 -8.63835e-09 -1.56244e-05
0.00177879 1.86604e-06 3.15491e-07
1.86604e-06 0.000109732 -2.03488e-07
3.15491e-07 -2.03488e-07 1.1674e-06
0.00170959 1.86085e-05 5.11614e-07
1.86085e-05 8.37733e-05 -1.24526e-07
5.11614e-07 -1.24526e-07 -1.39931e-05
0.00168973 5.50172e-05 9.07066e-09
5.50172e-05 9.05046e-05 -1.22408e-07
9.07066e-09 -1.22408e-07 -2.31919e-06
0.00178711 7.19527e-06 -1.29954e-06
7.19527e-06 0.000105892 -2.27126e-07
-1.29954e-06 -2.27126e-07 -4.34316e-06
0.00184249 3.0083e-07 -7.62943e-07
3.0083e-07 0.000125409 2.73958e-07
-7.62943e-07 2.73958e-07 2.70442e-05
0.00181766 3.68524e-05 6.8156e-08
3.68524e-05 0.00012314 8.93851e-07
6.8156e-08 8.93851e-07 3.07571e-05
0.00163563 4.20229e-06 -8.97161e-07
4.20229e-06 6.09602e-05 1.30852e-06
-8.97161e-07 1.30852e-06 -4.90181e-05
0.00175858 -1.02834e-05 -1.04707e-06
-1.02834e-05 0.00014022 3.64549e-07
-1.04707e-06 3.64549e-07 3.55442e-05
0.00190986 -4.97999e-05 -9.16392e-07
-4.97999e-05 0.000195408 5.66863e-07
-9.16392e-07 5.66863e-07 9.60785e-05
0.00110797 -9.85284e-05 -2.49489e-07
-9.85284e-05 0.000159834 -6.25547e-07
-2.49489e-07 -6.25547e-07 6.89577e-05
0.00119032 -0.000108135 3.37616e-07
-0.000108135 0.000199673 1.34524e-07
3.37616e-07 1.34524e-07 9.57694e-05
0.00114642 -0.000119878 -1.60047e-06
-0.000119878 0.000117256 1.74078e-06
-1.60047e-06 1.74078e-06 -1.79362e-05
0.00183725 -9.2759e-05 -2.34601e-07
-9.2759e-05 0.000190691 2.44348e-07
-2.34601e-07 2.44348e-07 9.12218e-05
0.00115506 -0.00010956 -3.31482e-06
-0.00010956 -8.61144e-05 1.5105e-06
-3.31482e-06 1.5105e-06 -0.000179582
0.00148351 -0.000131048 -1.84536e-06
-0.000131048 0.000187352 -3.07148e-06
-1.84536e-06 -3.07148e-06 6.55965e-05
0.00106804 -9.6393e-05 3.1471e-07
-9.6393e-05 0.000144488 -1.83193e-06
3.1471e-07 -1.83193e-06 5.29316e-05
0.000903708 -8.721e-05 -1.4822e-06
-8.721e-05 6.17878e-05 -2.21077e-06
-1.4822e-06 -2.21077e-06 -3.11227e-05
0.00103254 -7.49692e-05 3.62416e-07
-7.49692e-05 0.000137749 -8.64452e-08
3.62416e-07 -8.64452e-08 4.4251e-05
0.000585807 2.41611e-05 -9.82393e-07
2.41611e-05 -0.000124568 1.11483e-06
-9.82393e-07 1.11483e-06 -0.000159976
0.00103763 -1.46229e-05 2.71111e-08
-1.46229e-05 0.000125937 1.13693e-07
2.71111e-08 1.13693e-07 5.5441e-05
0.000749092 2.66658e-05 -1.59576e-07
2.66658e-05 -3.61955e-05 9.72562e-07
-1.59576e-07 9.72562e-07 -9.10399e-05
0.00177646 4.00784e-06 -6.71566e-08
4.00784e-06 0.000116471 -2.61972e-07
-6.71566e-08 -2.61972e-07 8.04026e-06
0.00172622 -1.26701e-05 8.35863e-07
-1.26701e-05 9.29193e-05 -1.03983e-07
8.35863e-07 -1.03983e-07 -7.86045e-06
0.00163017 -5.79651e-05 2.86629e-07
-5.79651e-05 3.5228e-05 -4.05734e-07
2.86629e-07 -4.05734e-07 -6.69791e-05
0.00103724 -9.69967e-05 -1.57344e-08
-9.69967e-05 0.000126097 6.60506e-07
-1.57344e-08 6.60506e-07 3.12142e-05
0.000796077 -9.59957e-05 -2.02422e-07
-9.59957e-05 -4.16357e-06 2.7713e-07
-2.02422e-07 2.7713e-07 -0.000126368
0.00164092 -0.000148293 -1.82817e-06
-0.000148293 0.000343913 1.20003e-06
-1.82817e-06 1.20003e-06 0.00019732
0.00184813 -0.00011116 -7.74219e-07
-0.00011116 0.000153752 5.94352e-07
-7.74219e-07 5.94352e-07 5.75754e-05
0.00150135 -0.000132982 1.92894e-06
-0.000132982 0.000111614 -1.1552e-06
1.92894e-06 -1.1552e-06 -3.69887e-06
0.000719101 1.91078e-05 1.64676e-07
1.91078e-05 -5.627e-05 -5.65615e-07
1.64676e-07 -5.65615e-07 -8.87414e-05
0.000966755 1.04751e-05 -3.14501e-07
1.04751e-05 8.18243e-05 1.73269e-07
-3.14501e-07 1.73269e-07 2.96611e-05
0.000868056 -8.69336e-05 -8.46125e-07
-8.69336e-05 4.00581e-05 2.29844e-07
-8.46125e-07 2.29844e-07 -5.32717e-05
0.00100859 -9.01392e-05 1.14752e-06
-9.01392e-05 0.000115073 7.32861e-07
1.14752e-06 7.32861e-07 2.05349e-05
0.000930926 -3.02198e-05 -4.55682e-08
-3.02198e-05 7.61024e-05 -3.26974e-07
-4.55682e-08 -3.26974e-07 -7.34317e-06
0.000986603 -2.2663e-05 -5.36898e-07
-2.2663e-05 9.94653e-05 8.48843e-07
-5.36898e-07 8.48843e-07 3.16448e-05
0.00176926 3.58472e-06 -2.40017e-06
3.58472e-06 9.88232e-05 -3.38528e-07
-2.40017e-06 -3.38528e-07 -3.07092e-06
0.00175718 -2.26066e-05 1.60832e-07
-2.26066e-05 8.66242e-05 6.07891e-07
1.60832e-07 6.07891e-07 -9.87177e-06
0.0018131 -8.04999e-05 5.16134e-07
-8.04999e-05 8.42113e-05 -1.81457e-06
5.16134e-07 -1.81457e-06 -1.13763e-05
0.00170046 -0.000134577 1.74823e-07
-0.000134577 7.50476e-05 -2.13168e-06
1.74823e-07 -2.13168e-06 -1.9911e-05
0.000703719 -8.28032e-05 -1.6164e-06
-8.28032e-05 -2.91617e-05 1.11786e-06
-1.6164e-06 1.11786e-06 -0.000131575
0.00142659 -0.000145236 -1.17734e-06
-0.000145236 0.000179838 3.49684e-06
-1.17734e-06 3.49684e-06 2.26479e-05
0.00165627 -0.000142423 4.77298e-07
-0.000142423 0.00042572 -2.13938e-06
4.77298e-07 -2.13938e-06 0.000284605
0.000840581 1.53225e-05 6.02737e-07
1.53225e-05 5.52559e-06 -1.6454e-06
6.02737e-07 -1.6454e-06 -2.38946e-05
0.00084957 -4.29004e-05 8.91842e-07
-4.29004e-05 2.63688e-05 -8.35071e-07
8.91842e-07 -8.35071e-07 -2.23588e-05
0.000741629 1.0486e-05 4.77076e-07
1.0486e-05 -3.45701e-05 -1.34791e-06
4.77076e-07 -1.34791e-06 -8.78901e-05
0.000943531 -2.80156e-05 8.89642e-07
-2.80156e-05 7.80928e-05 -1.13352e-07
8.89642e-07 -1.13352e-07 1.19668e-05
0.000943657 1.01006e-05 -1.20907e-07
1.01006e-05 7.89121e-05 -1.80338e-07
-1.20907e-07 -1.80338e-07 4.37762e-06
0.000822499 -8.70983e-05 2.19507e-06
-8.70983e-05 3.7695e-05 1.79355e-06
2.19507e-06 1.79355e-06 -6.2361e-05
0.000812613 -8.38258e-05 -2.21011e-06
-8.38258e-05 -7.62002e-06 2.34813e-06
-2.21011e-06 2.34813e-06 -9.423e-05
0.00177583 -0.000133006 -1.63356e-06
-0.000133006 0.000530838 2.8934e-06
-1.63356e-06 2.8934e-06 0.000433236
0.000863115 -2.58512e-05 -4.411e-07
-2.58512e-05 2.91054e-05 -1.08688e-06
-4.411e-07 -1.08688e-06 -2.08279e-05
0.00089745 7.58522e-06 -4.12549e-07
7.58522e-06 5.36973e-05 -1.74668e-07
-4.12549e-07 -1.74668e-07 -1.51529e-05
0.00191835 9.477e-05 7.93204e-07
9.477e-05 0.000229074 3.38892e-07
7.93204e-07 3.38892e-07 0.000134728
0.000926168 2.02901e-05 -5.54585e-07
2.02901e-05 8.04604e-05 -5.05404e-07
-5.54585e-07 -5.05404e-07 -7.63268e-06
0.00105112 9.8309e-05 -7.48126e-07
9.8309e-05 0.000164282 -2.15017e-06
-7.48126e-07 -2.15017e-06 5.72395e-05
0.000853389 6.01373e-05 -1.46699e-06
6.01373e-05 5.19146e-05 -5.78306e-07
-1.46699e-06 -5.78306e-07 -5.24588e-05
0.00160374 0.000144155 3.16406e-07
0.000144155 0.000236448 3.49362e-07
3.16406e-07 3.49362e-07 0.000120227
0.00143527 0.000132656 2.24402e-06
0.000132656 7.66461e-05 3.36304e-06
2.24402e-06 3.36304e-06 -8.58753e-06
0.00088512 9.87984e-05 1.08269e-07
9.87984e-05 5.93148e-05 9.20047e-07
1.08269e-07 9.20047e-07 -6.98361e-05
0.00111203 0.000127502 -4.04294e-06
0.000127502 8.20156e-05 -1.22879e-06
-4.04294e-06 -1.22879e-06 -6.73567e-05
0.000799257 1.35039e-06 2.08406e-07
1.35039e-06 9.32481e-07 4.71017e-07
2.08406e-07 4.71017e-07 -6.34591e-05
0.000840163 4.00576e-05 -1.3194e-07
4.00576e-05 3.34533e-05 -8.09605e-07
-1.3194e-07 -8.09605e-07 -5.14241e-05
0.00107468 0.000100513 -6.49186e-07
0.000100513 0.000177752 -1.03684e-06
-6.49186e-07 -1.03684e-06 5.97261e-05
0.00086043 5.65372e-05 -3.05362e-07
5.65372e-05 4.93262e-05 -1.90418e-07
-3.05362e-07 -1.90418e-07 -5.54016e-05
0.00202451 6.25846e-05 -4.25827e-08
6.25846e-05 0.000214899 8.11414e-07
-4.25827e-08 8.11414e-07 0.000127922
0.00146533 0.000112503 2.00237e-06
0.000112503 -2.8346e-05 -1.39224e-06
2.00237e-06 -1.39224e-06 -0.000110245
0.00187561 0.000165404 -2.69273e-06
0.000165404 0.000360703 -2.59363e-07
-2.69273e-06 -2.59363e-07 0.000230163
0.000691842 9.9561e-05 1.04894e-06
9.9561e-05 -6.98615e-05 4.00565e-07
1.04894e-06 4.00565e-07 -0.000225431
0.000945366 2.03284e-06 3.49658e-07
2.03284e-06 8.06906e-05 4.66186e-07
3.49658e-07 4.66186e-07 8.78805e-06
0.00158703 3.1276e-05 -2.84994e-06
3.1276e-05 -1.56581e-05 -6.099e-07
-2.84994e-06 -6.099e-07 -9.6081e-05
0.00114194 8.68915e-05 3.03383e-07
8.68915e-05 0.000206218 1.60788e-06
3.03383e-07 1.60788e-06 0.000104471
0.00107968 0.000103577 5.18953e-07
0.000103577 0.000158859 1.094e-06
5.18953e-07 1.094e-06 3.24492e-05
0.0021433 8.97676e-05 2.3279e-07
8.97676e-05 0.000211883 -1.72936e-07
2.3279e-07 -1.72936e-07 0.000140146
0.00164016 0.000162541 3.50393e-06
0.000162541 8.76564e-05 -3.78661e-06
3.50393e-06 -3.78661e-06 -2.43166e-05
0.00167039 0.000153758 -1.15838e-07
0.000153758 0.000377008 1.97382e-06
-1.15838e-07 1.97382e-06 0.000206081
0.000960291 -1.88426e-06 -1.12491e-06
-1.88426e-06 8.47068e-05 -3.55907e-07
-1.12491e-06 -3.55907e-07 2.5396e-05
0.000952977 -1.10116e-05 -5.8099e-08
-1.10116e-05 8.43366e-05 4.16986e-08
-5.8099e-08 4.16986e-08 1.68869e-05
0.000950384 -4.90134e-06 3.50321e-07
-4.90134e-06 8.7623e-05 8.82974e-07
3.50321e-07 8.82974e-07 1.24699e-05
0.000871258 -1.5764e-05 -1.85741e-07
-1.5764e-05 2.83243e-05 -8.09315e-07
-1.85741e-07 -8.09315e-07 -1.59032e-05
0.000867608 -7.28139e-06 4.171e-08
-7.28139e-06 4.10909e-05 2.25567e-08
4.171e-08 2.25567e-08 -1.77162e-05
0.000855335 4.40965e-06 -3.23544e-07
4.40965e-06 3.82312e-05 -9.05232e-07
-3.23544e-07 -9.05232e-07 -3.00894e-05
0.000880044 -1.77825e-05 -1.3626e-07
-1.77825e-05 3.25881e-05 2.08508e-08
-1.3626e-07 2.08508e-08 -1.20984e-05
0.000795822 -1.66721e-05 -4.74263e-07
-1.66721e-05 5.97947e-07 3.42508e-07
-4.74263e-07 3.42508e-07 -5.66472e-05
0.000942682 -1.50032e-05 2.59066e-07
-1.50032e-05 8.2063e-05 -3.8133e-07
2.59066e-07 -3.8133e-07 1.04186e-05
0.000911893 3.64548e-06 9.53052e-08
3.64548e-06 6.85847e-05 4.80541e-07
9.53052e-08 4.80541e-07 2.28557e-06
0.000932741 1.93829e-07 4.89289e-07
1.93829e-07 7.68325e-05 -2.38146e-07
4.89289e-07 -2.38146e-07 9.59713e-07
0.000839973 -3.1496e-05 6.58635e-08
-3.1496e-05 2.78574e-05 5.45064e-07
6.58635e-08 5.45064e-07 -4.33108e-05
0.000948195 1.09555e-05 3.65617e-07
1.09555e-05 8.4858e-05 1.38071e-07
3.65617e-07 1.38071e-07 2.14261e-05
0.000886567 7.63265e-06 1.05768e-06
7.63265e-06 4.8198e-05 4.75087e-07
1.05768e-06 4.75087e-07 -9.91797e-06
0.000885715 2.50847e-06 3.27963e-07
2.50847e-06 3.41647e-05 6.76285e-07
3.27963e-07 6.76285e-07 -1.01174e-05
0.000831195 9.2531e-06 4.17932e-07
9.2531e-06 -1.63441e-06 1.51338e-06
4.17932e-07 1.51338e-06 -2.93977e-05
0.000837404 -1.44868e-06 -1.61155e-07
-1.44868e-06 7.1002e-07 1.05098e-09
-1.61155e-07 1.05098e-09 -2.63347e-05
0.00131841 -5.75752e-06 7.54388e-07
-5.75752e-06 0.000248814 1.83104e-06
7.54388e-07 1.83104e-06 0.000251793
0.000843344 -1.20303e-05 -2.47298e-07
-1.20303e-05 3.66839e-06 -1.60161e-06
-2.47298e-07 -1.60161e-06 -2.28105e-05
0.00133644 -1.06552e-05 -1.80432e-06
-1.06552e-05 0.000260113 -1.21497e-06
-1.80432e-06 -1.21497e-06 0.000263121
0.00101595 -1.01506e-05 8.33811e-06
-1.01506e-05 9.02792e-05 6.33768e-06
8.33811e-06 6.33768e-06 0.000107236
0.00135055 -1.5671e-05 -4.38942e-06
-1.5671e-05 0.000270107 -4.27598e-06
-4.38942e-06 -4.27598e-06 0.000272881
0.00097176 -1.52733e-05 3.09369e-06
-1.52733e-05 6.88735e-05 2.39263e-06
3.09369e-06 2.39263e-06 8.57361e-05
0.000915538 -2.00214e-05 -1.69815e-06
-2.00214e-05 4.33759e-05 -1.57945e-06
-1.69815e-06 -1.57945e-06 5.95158e-05
0.000834709 1.14232e-05 3.05001e-07
1.14232e-05 7.9802e-08 -1.59392e-06
3.05001e-07 -1.59392e-06 -2.70965e-05
0.000766096 1.90985e-05 9.69716e-07
1.90985e-05 -3.94039e-05 -3.23223e-06
9.69716e-07 -3.23223e-06 -4.16746e-05
0.00076968 2.3766e-05 -1.31253e-07
2.3766e-05 -3.23619e-05 2.41892e-08
-1.31253e-07 2.41892e-08 -3.68823e-05
0.00216321 3.35442e-05 1.68726e-05
3.35442e-05 0.000716119 -3.81358e-06
1.68726e-05 -3.81358e-06 0.00073584
0.000772773 2.76106e-05 -1.9781e-06
2.76106e-05 -2.52403e-05 3.35695e-06
-1.9781e-06 3.35695e-06 -3.21193e-05
0.00222647 4.0241e-05 -1.34159e-06
4.0241e-05 0.000756381 -7.25243e-08
-1.34159e-06 -7.25243e-08 0.00077422
0.00228114 4.62076e-05 -2.60228e-05
4.62076e-05 0.0007928 3.66574e-06
-2.60228e-05 3.66574e-06 0.000808747
0.00154156 5.01284e-05 7.62775e-07
5.01284e-05 1.38375e-05 -2.60168e-07
7.62775e-07 -2.60168e-07 -7.86842e-05
0.00170386 1.90361e-05 5.86729e-07
1.90361e-05 8.05782e-05 -7.92359e-07
5.86729e-07 -7.92359e-07 -1.70317e-05
0.00180979 1.83247e-06 8.31015e-07
1.83247e-06 0.000126404 -8.58329e-07
8.31015e-07 -8.58329e-07 1.80861e-05
0.0017312 1.40846e-05 2.03395e-07
1.40846e-05 9.10526e-05 1.63519e-07
2.03395e-07 1.63519e-07 -2.24432e-05
0.00179457 7.35987e-06 -1.29346e-07
7.35987e-06 0.000108657 1.09316e-07
-1.29346e-07 1.09316e-07 -1.30422e-06
0.00182533 9.97836e-07 1.94368e-07
9.97836e-07 0.000115416 -6.17674e-08
1.94368e-07 -6.17674e-08 1.62336e-05
0.00175037 3.73468e-05 2.6967e-07
3.73468e-05 8.92233e-05 3.39821e-07
2.6967e-07 3.39821e-07 -2.94647e-06
0.00179609 -1.35775e-06 -1.75719e-06
-1.35775e-06 0.000100128 1.57811e-07
-1.75719e-06 1.57811e-07 -7.94467e-07
0.0019143 1.31669e-05 -2.78861e-06
1.31669e-05 0.000154472 2.19101e-07
-2.78861e-06 2.19101e-07 6.45452e-05
0.00170958 1.10412e-05 -1.46067e-06
1.10412e-05 3.1921e-05 2.99787e-07
-1.46067e-06 2.99787e-07 -4.20379e-05
0.00179116 5.20719e-06 6.69792e-07
5.20719e-06 0.000121832 7.66579e-07
6.69792e-07 7.66579e-07 1.27125e-05
0.00170937 -1.46863e-05 -8.68684e-08
-1.46863e-05 8.53532e-05 -3.56705e-07
-8.68684e-08 -3.56705e-07 -1.57894e-05
0.00185782 -6.04245e-05 -1.21586e-06
-6.04245e-05 0.000150193 -1.63823e-07
-1.21586e-06 -1.63823e-07 4.75864e-05
0.00111057 -0.000100383 -3.71465e-08
-0.000100383 0.000162284 2.47356e-07
-3.71465e-08 2.47356e-07 6.69055e-05
0.000874441 -9.86633e-05 5.64227e-07
-9.86633e-05 4.20785e-05 2.7565e-06
5.64227e-07 2.7565e-06 -7.73705e-05
0.00164153 -0.000147694 -2.24716e-06
-0.000147694 0.000339969 2.4608e-06
-2.24716e-06 2.4608e-06 0.000194508
0.00186388 -0.000113186 3.67035e-06
-0.000113186 0.000172231 2.27028e-06
3.67035e-06 2.27028e-06 7.71077e-05
0.00129648 -0.000125779 -1.73034e-06
-0.000125779 4.17022e-06 -2.02792e-06
-1.73034e-06 -2.02792e-06 -0.000110723
0.000668454 -7.75738e-05 -1.26667e-06
-7.75738e-05 -6.38019e-05 -1.00726e-06
-1.26667e-06 -1.00726e-06 -0.000156336
0.00109914 -9.39862e-05 2.62843e-06
-9.39862e-05 0.000161402 -3.00154e-06
2.62843e-06 -3.00154e-06 6.82255e-05
0.000877299 5.45121e-06 -3.8753e-08
5.45121e-06 4.32241e-05 -4.39288e-07
-3.8753e-08 -4.39288e-07 -3.71036e-05
0.000824901 1.8731e-05 -7.78007e-07
1.8731e-05 -5.76263e-07 1.0978e-06
-7.78007e-07 1.0978e-06 -3.19635e-05
0.000956968 2.52578e-05 -6.80315e-07
2.52578e-05 7.6742e-05 1.04876e-06
-6.80315e-07 1.04876e-06 2.46784e-05
0.000923976 -8.84748e-06 -5.66971e-07
-8.84748e-06 6.68798e-05 1.07265e-06
-5.66971e-07 1.07265e-06 -1.43065e-06
0.00179093 4.06705e-06 2.55978e-07
4.06705e-06 0.000110219 2.0072e-07
2.55978e-07 2.0072e-07 9.8361e-06
0.000838756 1.44603e-05 9.40444e-09
1.44603e-05 4.235e-06 1.27174e-08
9.40444e-09 1.27174e-08 -2.51462e-05
0.000783842 -3.69907e-06 -3.09534e-07
-3.69907e-06 -1.24416e-05 7.38527e-08
-3.09534e-07 7.38527e-08 -5.89641e-05
0.00179512 -2.39007e-05 -2.218e-07
-2.39007e-05 0.000105261 -3.78128e-07
-2.218e-07 -3.78128e-07 8.24602e-06
0.00172352 -7.86326e-05 -2.27327e-07
-7.86326e-05 4.37335e-05 4.6896e-08
-2.27327e-07 4.6896e-08 -5.47168e-05
0.000759887 -8.47991e-05 8.55844e-08
-8.47991e-05 3.0588e-06 1.75584e-06
8.55844e-08 1.75584e-06 -9.77381e-05
0.00136262 -0.000128468 -7.68841e-07
-0.000128468 0.000274164 3.53258e-07
-7.68841e-07 3.53258e-07 0.000128352
0.00126615 -0.000136408 8.855e-07
-0.000136408 9.07492e-05 8.90538e-07
8.855e-07 8.90538e-07 -5.9628e-05
0.00174288 -0.00013733 5.4898e-07
-0.00013733 0.000101453 -2.41983e-07
5.4898e-07 -2.41983e-07 6.73807e-06
0.000921674 -1.36147e-05 9.99584e-07
-1.36147e-05 6.02903e-05 -4.94337e-07
9.99584e-07 -4.94337e-07 8.75935e-06
0.000925729 -1.50104e-05 -4.45474e-07
-1.50104e-05 7.00256e-05 4.32581e-07
-4.45474e-07 4.32581e-07 3.1665e-06
0.000923456 -8.81262e-05 4.56254e-07
-8.81262e-05 4.60926e-05 4.702e-07
4.56254e-07 4.702e-07 -4.29994e-05
0.00127081 -0.000109033 1.01671e-06
-0.000109033 0.000266201 -1.17761e-06
1.01671e-06 -1.17761e-06 0.000176629
0.000787865 -6.17065e-05 -1.08183e-07
-6.17065e-05 1.70544e-05 3.09125e-07
-1.08183e-07 3.09125e-07 -8.20102e-05
0.000937169 5.64192e-06 5.63124e-08
5.64192e-06 7.65805e-05 -2.55354e-07
5.63124e-08 -2.55354e-07 8.73502e-07
0.00179792 -2.1041e-07 -2.72528e-06
-2.1041e-07 9.172e-05 -1.94679e-07
-2.72528e-06 -1.94679e-07 4.3014e-06
0.00207132 -2.79094e-05 7.86501e-07
-2.79094e-05 0.000223505 1.64074e-06
7.86501e-07 1.64074e-06 0.000127432
0.00172055 -0.000120238 -3.22926e-06
-0.000120238 -1.28811e-05 -4.15518e-06
-3.22926e-06 -4.15518e-06 -9.11705e-05
0.00125261 -0.00014442 -7.46017e-07
-0.00014442 -5.61981e-05 1.73834e-06
-7.46017e-07 1.73834e-06 -0.000172153
0.00109098 -8.72056e-05 -2.51826e-06
-8.72056e-05 0.000166536 -4.5767e-07
-2.51826e-06 -4.5767e-07 6.24096e-05
0.00175555 -0.00016281 -2.35187e-06
-0.00016281 0.000442345 -5.29324e-08
-2.35187e-06 -5.29324e-08 0.000266364
0.000701761 3.56626e-05 -1.01935e-06
3.56626e-05 -5.47348e-05 -1.23989e-06
-1.01935e-06 -1.23989e-06 -0.000100617
0.000852085 -1.7643e-05 5.13654e-07
-1.7643e-05 2.23462e-05 -9.26364e-07
5.13654e-07 -9.26364e-07 -2.5638e-05
0.00105525 -2.99939e-05 5.0544e-07
-2.99939e-05 0.000145062 -2.90426e-07
5.0544e-07 -2.90426e-07 8.48356e-05
0.000777917 1.731e-05 -6.22826e-07
1.731e-05 -4.36048e-06 -5.25415e-07
-6.22826e-07 -5.25415e-07 -7.28225e-05
0.00106761 -4.43631e-06 1.92993e-07
-4.43631e-06 0.000147349 2.22607e-08
1.92993e-07 2.22607e-08 7.46431e-05
0.000672166 -1.2201e-05 1.84083e-07
-1.2201e-05 -4.70085e-05 5.87026e-07
1.84083e-07 5.87026e-07 -0.00013416
0.00119081 -7.13236e-05 4.86901e-06
-7.13236e-05 0.000244867 3.32174e-07
4.86901e-06 3.32174e-07 0.000135679
0.000816719 -9.18046e-05 -6.47445e-06
-9.18046e-05 1.29896e-05 2.76739e-06
-6.47445e-06 2.76739e-06 -7.11757e-05
0.000796056 1.43468e-05 -3.83082e-07
1.43468e-05 9.40906e-07 -3.33617e-07
-3.83082e-07 -3.33617e-07 -6.53595e-05
0.000894265 4.40137e-05 -1.45555e-06
4.40137e-05 6.27186e-05 -1.64598e-06
-1.45555e-06 -1.64598e-06 -2.21427e-05
0.00198636 5.97622e-05 1.43106e-06
5.97622e-05 0.00019013 2.27696e-07
1.43106e-06 2.27696e-07 0.000101652
0.00156129 0.000114931 1.70266e-07
0.000114931 3.47803e-05 7.99523e-07
1.70266e-07 7.99523e-07 -4.80245e-05
0.00110418 6.09006e-05 -1.72727e-06
6.09006e-05 0.000175204 -9.50706e-07
-1.72727e-06 -9.50706e-07 7.08362e-05
0.00110634 0.000102073 -1.92067e-06
0.000102073 0.000195864 -1.79893e-06
-1.92067e-06 -1.79893e-06 7.85829e-05
0.00240555 0.000184465 -1.50755e-06
0.000184465 0.000629298 1.86507e-06
-1.50755e-06 1.86507e-06 0.000501451
0.00106284 0.000119726 -1.49503e-06
0.000119726 0.000110932 -7.34402e-07
-1.49503e-06 -7.34402e-07 -4.36976e-05
0.00092966 1.64598e-05 1.06712e-07
1.64598e-05 7.52261e-05 -5.06319e-07
1.06712e-07 -5.06319e-07 1.7033e-06
0.00176072 3.03212e-05 -5.33616e-07
3.03212e-05 7.16061e-05 2.91074e-08
-5.33616e-07 2.91074e-08 -8.1899e-06
0.000985755 7.06836e-05 1.06195e-07
7.06836e-05 0.000121881 7.94588e-07
1.06195e-07 7.94588e-07 2.25094e-05
0.000893115 9.36399e-05 4.86336e-08
9.36399e-05 6.4012e-05 -1.82701e-07
4.86336e-08 -1.82701e-07 -6.43393e-05
0.00189376 8.6008e-05 1.24458e-06
8.6008e-05 8.90018e-05 -1.93599e-07
1.24458e-06 -1.93599e-07 1.68967e-05
0.00192272 0.000171786 6.69754e-07
0.000171786 0.000222754 -4.73434e-07
6.69754e-07 -4.73434e-07 0.000111822
0.00171008 0.000156916 5.37698e-07
0.000156916 0.000406104 1.03016e-06
5.37698e-07 1.03016e-06 0.000236293
0.00102484 3.10671e-05 -1.00933e-07
3.10671e-05 0.000134829 8.41283e-07
-1.00933e-07 8.41283e-07 4.77543e-05
0.00219015 4.99947e-05 -4.32607e-06
4.99947e-05 0.0002443 -8.33236e-07
-4.32607e-06 -8.33236e-07 0.000183432
0.00157737 0.000107578 -1.47745e-06
0.000107578 0.000417057 2.62039e-07
-1.47745e-06 2.62039e-07 0.00030625
0.0018403 0.000149388 -2.15643e-06
0.000149388 0.000537069 9.52753e-07
-2.15643e-06 9.52753e-07 0.000387406
0.00192639 0.000163177 2.97085e-06
0.000163177 7.21218e-05 -1.21606e-06
2.97085e-06 -1.21606e-06 9.48438e-06
0.00117773 0.000143657 -1.3215e-06
0.000143657 2.74724e-05 -1.4992e-07
-1.3215e-06 -1.4992e-07 -0.000129318
0.000701863 6.49245e-05 1.21694e-05
6.49245e-05 -0.000263303 1.26302e-06
1.21694e-05 1.26302e-06 -0.000355533
0.000954114 -6.46162e-06 -2.3596e-07
-6.46162e-06 8.48881e-05 -6.77949e-07
-2.3596e-07 -6.77949e-07 1.73694e-05
0.000950187 -1.97134e-06 7.17472e-08
-1.97134e-06 8.77307e-05 3.1456e-09
7.17472e-08 3.1456e-09 1.24776e-05
0.000966137 1.20668e-05 2.52533e-07
1.20668e-05 9.31872e-05 -7.86244e-09
2.52533e-07 -7.86244e-09 1.24804e-05
0.000870505 -2.93015e-05 -4.28208e-08
-2.93015e-05 2.8634e-05 -7.67879e-07
-4.28208e-08 -7.67879e-07 -1.67818e-05
0.000807948 -4.18875e-05 -5.25588e-07
-4.18875e-05 7.37037e-06 -5.32567e-08
-5.25588e-07 -5.32567e-08 -5.01686e-05
0.000993916 4.27279e-05 -8.04673e-07
4.27279e-05 0.000114899 6.03418e-08
-8.04673e-07 6.03418e-08 4.7412e-05
0.000921406 -1.74589e-05 4.11844e-08
-1.74589e-05 7.04804e-05 -7.70795e-07
4.11844e-08 -7.70795e-07 -2.19256e-06
0.000869655 -1.75676e-05 -1.8422e-07
-1.75676e-05 2.88781e-05 3.63031e-08
-1.8422e-07 3.63031e-08 -1.75013e-05
0.000824404 -1.72233e-06 1.47518e-07
-1.72233e-06 1.13609e-05 -1.81955e-08
1.47518e-07 -1.81955e-08 -4.4503e-05
0.000924342 -3.22554e-06 2.95959e-07
-3.22554e-06 7.22209e-05 -5.75813e-07
2.95959e-07 -5.75813e-07 -3.92985e-06
0.000948975 -1.38624e-05 -1.7656e-07
-1.38624e-05 8.4325e-05 -1.10182e-07
-1.7656e-07 -1.10182e-07 2.10806e-05
0.000929569 -2.36412e-05 1.82901e-07
-2.36412e-05 7.5421e-05 -1.81025e-08
1.82901e-07 -1.81025e-08 4.90584e-06
0.000913349 -8.43461e-06 -7.18259e-08
-8.43461e-06 6.52383e-05 5.7155e-08
-7.18259e-08 5.7155e-08 -1.00515e-05
0.000930908 -6.21807e-07 4.73927e-07
-6.21807e-07 7.53104e-05 -2.06148e-07
4.73927e-07 -2.06148e-07 9.22841e-06
0.000985379 4.98939e-06 6.05622e-07
4.98939e-06 9.82691e-05 -1.74053e-07
6.05622e-07 -1.74053e-07 3.67385e-05
0.000831067 9.59727e-06 -7.26279e-08
9.59727e-06 1.47268e-05 4.68386e-07
-7.26279e-08 4.68386e-07 -4.48085e-05
0.000752575 3.47152e-06 2.66475e-07
3.47152e-06 -3.68562e-05 1.12036e-06
2.66475e-07 1.12036e-06 -8.2892e-05
0.00101623 -4.43218e-06 3.00582e-07
-4.43218e-06 0.000121013 -1.22042e-08
3.00582e-07 -1.22042e-08 5.9675e-05
0.000739127 5.31027e-06 -4.07404e-07
5.31027e-06 -4.16673e-05 1.14789e-06
-4.07404e-07 1.14789e-06 -8.86473e-05
0.000832182 1.19055e-05 2.55554e-07
1.19055e-05 -5.50114e-07 1.51571e-06
2.55554e-07 1.51571e-06 -2.86814e-05
0.000831184 1.69414e-06 -2.24042e-07
1.69414e-06 -1.66901e-06 4.33735e-09
-2.24042e-07 4.33735e-09 -2.93926e-05
0.000780215 5.24644e-07 2.62395e-07
5.24644e-07 -3.97009e-05 3.04827e-06
2.62395e-07 3.04827e-06 -4.01015e-05
0.000840962 -8.53866e-06 4.76164e-08
-8.53866e-06 2.68264e-06 -1.52062e-06
4.76164e-08 -1.52062e-06 -2.439e-05
0.00106451 -4.5451e-06 -1.13479e-06
-4.5451e-06 0.000112935 -1.25966e-06
-1.13479e-06 -1.25966e-06 0.000114314
0.00210317 -7.02168e-06 5.10739e-06
-7.02168e-06 0.000671344 3.97438e-06
5.10739e-06 3.97438e-06 0.000694269
0.00136031 -9.94096e-06 -2.74268e-06
-9.94096e-06 0.000273112 -4.27543e-06
-2.74268e-06 -4.27543e-06 0.000275928
0.000981077 -1.04361e-05 1.68085e-06
-1.04361e-05 7.09102e-05 2.43335e-06
1.68085e-06 2.43335e-06 8.80595e-05
0.000930193 -1.50788e-05 -1.20962e-06
-1.50788e-05 4.63646e-05 -1.54832e-06
-1.20962e-06 -1.54832e-06 6.34202e-05
0.000842122 7.73433e-06 2.13588e-07
7.73433e-06 2.5209e-06 -1.56488e-06
2.13588e-07 -1.56488e-06 -2.29158e-05
0.000841106 1.0788e-05 -3.71137e-08
1.0788e-05 3.18597e-06 1.29882e-08
-3.71137e-08 1.29882e-08 -2.40086e-05
0.00077416 1.44704e-05 5.39348e-07
1.44704e-05 -3.92525e-05 -3.17748e-06
5.39348e-07 -3.17748e-06 -3.9779e-05
0.00106283 2.13656e-05 -4.86989e-07
2.13656e-05 0.000119573 3.20885e-08
-4.86989e-07 3.20885e-08 0.000118633
0.00212123 2.66768e-05 1.38435e-05
2.66768e-05 0.000688793 -3.88523e-06
1.38435e-05 -3.88523e-06 0.00070996
0.000783572 2.40614e-05 -1.44313e-06
2.40614e-05 -2.51404e-05 3.31715e-06
-1.44313e-06 3.31715e-06 -2.97364e-05
0.0021741 3.38108e-05 -1.41752e-06
3.38108e-05 0.000722664 -6.49897e-08
-1.41752e-06 -6.49897e-08 0.000742164
0.0022389 4.02782e-05 -2.25244e-05
4.02782e-05 0.000763853 3.77963e-06
-2.25244e-05 3.77963e-06 0.000781487
0.00167551 3.79012e-05 -4.14252e-07
3.79012e-05 5.11447e-05 -7.76438e-09
-4.14252e-07 -7.76438e-09 -4.07609e-05
0.00179574 2.3936e-06 1.30412e-06
2.3936e-06 9.88232e-05 -4.9916e-07
1.30412e-06 -4.9916e-07 -1.16758e-06
0.00180193 3.62005e-06 9.75923e-07
3.62005e-06 0.00011154 2.563e-07
9.75923e-07 2.563e-07 1.82319e-06
0.00179747 1.62737e-06 1.74117e-07
1.62737e-06 0.000100372 1.51337e-07
1.74117e-07 1.51337e-07 -6.75514e-07
0.00182079 1.30646e-05 -1.20463e-07
1.30646e-05 0.000106119 1.24426e-07
-1.20463e-07 1.24426e-07 1.56501e-05
0.00177395 7.91756e-06 1.85106e-06
7.91756e-06 8.02553e-05 -6.64353e-10
1.85106e-06 -6.64353e-10 6.65333e-06
0.00173101 8.36103e-06 -2.30619e-06
8.36103e-06 5.25987e-05 -8.65214e-08
-2.30619e-06 -8.65214e-08 -3.09285e-05
0.00376275 -7.23821e-05 4.93139e-06
-7.23821e-05 0.000982962 -4.39693e-07
4.93139e-06 -4.39693e-07 0.000937111
0.00141727 1.01599e-05 -2.43543e-06
1.01599e-05 -0.000149548 6.09684e-08
-2.43543e-06 6.09684e-08 -0.000208346
0.000874277 1.90307e-05 8.65656e-08
1.90307e-05 3.32724e-05 -6.79625e-07
8.65656e-08 -6.79625e-07 -8.6323e-06
0.00179218 4.3173e-06 1.69569e-06
4.3173e-06 0.000111513 1.20949e-07
1.69569e-06 1.20949e-07 1.25722e-05
0.00182044 -2.49971e-05 -1.05301e-06
-2.49971e-05 0.000117038 -9.66622e-07
-1.05301e-06 -9.66622e-07 1.95855e-05
0.00166816 -7.6886e-05 1.8621e-06
-7.6886e-05 2.05297e-05 9.30357e-07
1.8621e-06 9.30357e-07 -8.01531e-05
0.000845249 -8.8119e-05 1.65085e-06
-8.8119e-05 5.04197e-05 9.24217e-07
1.65085e-06 9.24217e-07 -4.88746e-05
0.0011539 -0.000118171 8.27796e-07
-0.000118171 0.000168534 2.81482e-06
8.27796e-07 2.81482e-06 1.57548e-05
0.00120242 -0.000132361 1.77235e-06
-0.000132361 5.3846e-05 -1.37896e-06
1.77235e-06 -1.37896e-06 -9.17204e-05
0.00187875 -0.000142873 1.26431e-06
-0.000142873 0.000175487 -6.43464e-07
1.26431e-06 -6.43464e-07 8.06499e-05
0.00105015 -9.07475e-05 3.85268e-06
-9.07475e-05 0.000108047 -3.30056e-06
3.85268e-06 -3.30056e-06 1.67615e-05
0.000681546 -8.16921e-05 -2.19875e-06
-8.16921e-05 -4.20397e-05 -7.3929e-06
-2.19875e-06 -7.3929e-06 -0.000123268
0.000707569 -5.62709e-05 2.12539e-07
-5.62709e-05 -2.48018e-05 3.84981e-07
2.12539e-07 3.84981e-07 -0.000124456
0.000839786 1.38095e-05 -7.46277e-07
1.38095e-05 4.55017e-06 1.69307e-06
-7.46277e-07 1.69307e-06 -2.48185e-05
0.000941695 -4.87974e-06 -6.1653e-08
-4.87974e-06 7.95477e-05 -5.21318e-07
-6.1653e-08 -5.21318e-07 2.80119e-06
0.00109908 -3.66278e-05 -4.57244e-07
-3.66278e-05 0.000156685 4.09726e-07
-4.57244e-07 4.09726e-07 0.000105063
0.000917017 -6.50052e-06 -5.85396e-07
-6.50052e-06 6.57099e-05 1.01857e-06
-5.85396e-07 1.01857e-06 -1.26151e-06
0.000712577 3.0964e-06 1.59759e-07
3.0964e-06 -5.27668e-05 7.82734e-07
1.59759e-07 7.82734e-07 -9.80261e-05
0.00178105 -5.61183e-07 -5.98521e-07
-5.61183e-07 8.53208e-05 -2.06461e-07
-5.98521e-07 -2.06461e-07 -1.4615e-06
0.000786161 1.32537e-05 2.00107e-07
1.32537e-05 -1.01283e-05 -5.04531e-07
2.00107e-07 -5.04531e-07 -5.54586e-05
0.000859496 -2.62597e-05 -4.36841e-07
-2.62597e-05 2.87997e-05 2.46806e-08
-4.36841e-07 2.46806e-08 -2.10734e-05
0.000899691 -1.08119e-05 -7.15707e-07
-1.08119e-05 6.31845e-05 4.77295e-07
-7.15707e-07 4.77295e-07 1.32501e-06
0.00182523 -2.86856e-05 1.32795e-06
-2.86856e-05 8.86835e-05 -1.82191e-07
1.32795e-06 -1.82191e-07 -6.26879e-06
0.00186536 -0.000123197 -1.65695e-06
-0.000123197 7.50526e-05 2.41601e-07
-1.65695e-06 2.41601e-07 -5.69601e-06
0.000895335 -8.43992e-05 -4.82319e-07
-8.43992e-05 5.35544e-05 2.92201e-07
-4.82319e-07 2.92201e-07 -4.69982e-05
0.00112386 -0.000130562 1.93198e-07
-0.000130562 0.000135778 -6.30486e-07
1.93198e-07 -6.30486e-07 -4.45583e-05
0.0015018 -0.00015556 3.20539e-07
-0.00015556 7.01496e-05 4.07988e-07
3.20539e-07 4.07988e-07 -4.75059e-05
0.000879387 8.42127e-06 -1.68439e-07
8.42127e-06 4.99067e-05 1.66101e-08
-1.68439e-07 1.66101e-08 -1.81591e-05
0.000988955 -2.14405e-05 -1.37412e-07
-2.14405e-05 0.000108971 3.63261e-08
-1.37412e-07 3.63261e-08 3.41307e-05
0.000767835 -9.06714e-05 -4.05073e-06
-9.06714e-05 -7.70058e-06 8.98434e-07
-4.05073e-06 8.98434e-07 -9.60069e-05
0.0010626 -5.33223e-05 5.17085e-07
-5.33223e-05 0.000175112 -5.37416e-07
5.17085e-07 -5.37416e-07 6.91941e-05
0.000858614 -2.64836e-05 9.92702e-08
-2.64836e-05 5.1366e-05 8.46065e-07
9.92702e-08 8.46065e-07 -3.60645e-05
0.00207739 -1.98001e-05 -2.28506e-06
-1.98001e-05 0.000199097 4.9827e-07
-2.28506e-06 4.9827e-07 0.000117664
0.00240888 -6.60439e-05 -7.32802e-07
-6.60439e-05 0.000328251 4.02342e-07
-7.32802e-07 4.02342e-07 0.000246964
0.0016977 -0.000164909 1.57779e-06
-0.000164909 2.03309e-05 -3.23057e-06
1.57779e-06 -3.23057e-06 -7.05045e-05
0.00171198 -0.000167986 -5.66876e-06
-0.000167986 0.000334128 6.92897e-07
-5.66876e-06 6.92897e-07 0.000184798
0.00101222 -9.70094e-05 -1.05596e-06
-9.70094e-05 0.000145297 -1.31007e-06
-1.05596e-06 -1.31007e-06 1.12929e-05
0.00072322 1.16175e-05 5.82875e-08
1.16175e-05 -3.16292e-05 -7.17624e-07
5.82875e-08 -7.17624e-07 -9.23068e-05
0.000822466 3.92562e-05 -1.07597e-07
3.92562e-05 2.26616e-05 -7.60318e-07
-1.07597e-07 -7.60318e-07 -4.32489e-05
0.00107647 1.41555e-05 5.47247e-07
1.41555e-05 0.000156127 4.96181e-07
5.47247e-07 4.96181e-07 8.71491e-05
0.000889801 -4.10677e-05 1.0652e-06
-4.10677e-05 6.10029e-05 2.61418e-09
1.0652e-06 2.61418e-09 -1.41458e-05
0.0010376 4.34871e-06 5.41815e-07
4.34871e-06 0.000133333 7.70744e-07
5.41815e-07 7.70744e-07 5.60198e-05
0.000867949 -1.47017e-05 -3.56061e-07
-1.47017e-05 6.4317e-05 -1.156e-06
-3.56061e-07 -1.156e-06 -2.98908e-05
0.000765134 -6.61782e-05 6.52629e-06
-6.61782e-05 3.8282e-05 1.40546e-06
6.52629e-06 1.40546e-06 -8.80055e-05
0.000912688 3.42983e-05 -4.85504e-07
3.42983e-05 6.95556e-05 -1.59521e-06
-4.85504e-07 -1.59521e-06 -5.80715e-06
0.000837468 5.5657e-05 -1.94939e-07
5.5657e-05 4.19625e-05 -1.92133e-07
-1.94939e-07 -1.92133e-07 -5.51724e-05
0.00200868 2.93696e-05 2.6782e-06
2.93696e-05 0.000195903 3.83429e-08
2.6782e-06 3.83429e-08 0.000116836
0.00159526 8.16448e-05 1.74316e-06
8.16448e-05 -5.79104e-05 -5.77721e-07
1.74316e-06 -5.77721e-07 -0.000130079
0.00217723 0.000179952 -4.79478e-07
0.000179952 0.000342642 9.62964e-07
-4.79478e-07 9.62964e-07 0.000232964
0.000702898 8.3863e-05 2.94227e-07
8.3863e-05 -3.26943e-05 -4.19691e-07
2.94227e-07 -4.19691e-07 -0.000162911
0.00172331 0.000159007 -5.99897e-08
0.000159007 0.000420551 1.02074e-06
-5.99897e-08 1.02074e-06 0.000252908
0.00102392 2.3805e-05 -8.69834e-08
2.3805e-05 0.000133543 5.64016e-08
-8.69834e-08 5.64016e-08 4.89507e-05
0.00181253 4.60118e-05 -1.68048e-06
4.60118e-05 3.68628e-05 -4.06355e-07
-1.68048e-06 -4.06355e-07 -1.79715e-05
0.0012078 9.2373e-05 -7.17789e-07
9.2373e-05 0.000229558 2.60597e-07
-7.17789e-07 2.60597e-07 0.000120295
0.00135502 0.00012372 -6.7739e-07
0.00012372 0.000298719 6.71035e-07
-6.7739e-07 6.71035e-07 0.000150341
0.00183442 0.000152244 1.234e-06
0.000152244 2.10951e-05 -6.75533e-07
1.234e-06 -6.75533e-07 -4.08579e-05
0.00133861 0.00015318 -1.02961e-06
0.00015318 0.000115242 1.25666e-06
-1.02961e-06 1.25666e-06 -4.64598e-05
0.00180371 5.63542e-05 3.54263e-06
5.63542e-05 0.000103955 6.56118e-07
3.54263e-06 6.56118e-07 9.96953e-06
0.00107044 4.38217e-05 -4.86575e-07
4.38217e-05 0.000157002 -5.57052e-07
-4.86575e-07 -5.57052e-07 6.35483e-05
0.00235171 0.000108505 -3.62005e-06
0.000108505 0.000265568 -7.14484e-06
-3.62005e-06 -7.14484e-06 0.000263756
0.00121839 0.000110488 -2.36216e-06
0.000110488 0.000249986 -1.10567e-06
-2.36216e-06 -1.10567e-06 0.000134001
0.00109006 0.000117516 -3.41989e-06
0.000117516 0.000164759 -5.25508e-07
-3.41989e-06 -5.25508e-07 -1.29295e-05
0.000135619 0.000150223 -2.7625e-06
0.000150223 -0.000638526 -1.76344e-06
-2.7625e-06 -1.76344e-06 -0.000761075
0.0066255 -7.3502e-05 -3.86456e-05
-7.3502e-05 0.00216479 -1.07393e-05
-3.86456e-05 -1.07393e-05 0.0015148
0.00275046 -2.05929e-06 7.28415e-05
-2.05929e-06 2.03034e-05 3.61203e-06
7.28415e-05 3.61203e-06 -0.000421876
0.00084857 0.000152508 1.08152e-05
0.000152508 -0.000305111 1.61452e-05
1.08152e-05 1.61452e-05 -0.00031361
-0.00210546 -0.000293843 -1.42024e-05
-0.000293843 -0.000990861 -1.29534e-05
-1.42024e-05 -1.29534e-05 -0.000946303
0.00248032 -0.000444157 -2.5306e-05
-0.000444157 0.000139852 -4.48483e-06
-2.5306e-05 -4.48483e-06 0.00113053
0.000956681 -3.69892e-06 -2.21029e-07
-3.69892e-06 9.11959e-05 -8.62603e-07
-2.21029e-07 -8.62603e-07 1.58867e-05
0.000972778 5.98813e-06 1.88678e-07
5.98813e-06 9.7922e-05 -3.09159e-07
1.88678e-07 -3.09159e-07 1.79927e-05
0.00103981 3.41523e-05 -7.5996e-09
3.41523e-05 0.00013025 -3.53153e-07
-7.5996e-09 -3.53153e-07 4.94697e-05
0.000855642 -3.95714e-05 2.52065e-07
-3.95714e-05 2.4484e-05 -8.36882e-07
2.52065e-07 -8.36882e-07 -2.38849e-05
0.000755839 2.0261e-05 -5.67959e-07
2.0261e-05 -2.37431e-05 -4.33486e-07
-5.67959e-07 -4.33486e-07 -8.07122e-05
0.000951137 -3.61542e-05 -2.85061e-08
-3.61542e-05 8.44641e-05 -3.64227e-07
-2.85061e-08 -3.64227e-07 2.14431e-05
0.00101388 -1.43772e-05 -3.55969e-07
-1.43772e-05 0.000119907 -2.24243e-07
-3.55969e-07 -2.24243e-07 5.0328e-05
0.000896499 -7.85317e-06 3.46823e-07
-7.85317e-06 5.73417e-05 -1.20413e-06
3.46823e-07 -1.20413e-06 -1.9095e-05
0.000914109 1.80209e-05 -5.04443e-07
1.80209e-05 6.27349e-05 -3.14556e-07
-5.04443e-07 -3.14556e-07 -6.50312e-07
0.000804422 1.58869e-06 7.15528e-08
1.58869e-06 -5.72579e-06 4.6856e-07
7.15528e-08 4.6856e-07 -5.31182e-05
0.000868426 1.01497e-05 -2.5619e-07
1.01497e-05 3.44149e-05 -4.44503e-08
-2.5619e-07 -4.44503e-08 -2.45793e-05
0.000918832 -7.38799e-06 -5.4311e-08
-7.38799e-06 6.8444e-05 2.30855e-07
-5.4311e-08 2.30855e-07 -6.60061e-06
0.000931157 -4.62503e-06 6.80191e-08
-4.62503e-06 7.46334e-05 -1.23241e-07
6.80191e-08 -1.23241e-07 8.52417e-06
0.000860765 1.37277e-05 5.64536e-07
1.37277e-05 3.54309e-05 -3.09977e-07
5.64536e-07 -3.09977e-07 -2.96534e-05
0.0009639 8.63723e-06 6.43502e-07
8.63723e-06 8.96367e-05 -1.58678e-07
6.43502e-07 -1.58678e-07 2.04022e-05
0.000859399 5.68789e-06 8.44713e-07
5.68789e-06 2.6436e-05 4.22785e-07
8.44713e-07 4.22785e-07 -3.6429e-05
0.000826432 1.12936e-06 8.38738e-07
1.12936e-06 7.79734e-06 1.86502e-07
8.38738e-07 1.86502e-07 -5.17188e-05
0.000721586 -3.43538e-05 -1.26165e-06
-3.43538e-05 -4.91067e-05 1.21986e-06
-1.26165e-06 1.21986e-06 -9.74145e-05
0.000941717 6.89753e-06 -2.21333e-07
6.89753e-06 7.38162e-05 3.57904e-07
-2.21333e-07 3.57904e-07 1.37957e-05
0.00101348 6.49176e-05 7.52862e-08
6.49176e-05 0.000115616 -5.64428e-08
7.52862e-08 -5.64428e-08 5.00101e-05
0.000866472 3.12807e-06 -4.56456e-07
3.12807e-06 4.07476e-05 3.70548e-07
-4.56456e-07 3.70548e-07 -1.90198e-05
0.000937948 9.53816e-06 4.62227e-07
9.53816e-06 7.48018e-05 -3.42756e-07
4.62227e-07 -3.42756e-07 1.5573e-05
0.000868722 -2.38683e-05 -1.2208e-06
-2.38683e-05 2.84633e-05 7.27215e-07
-1.2208e-06 7.27215e-07 -1.80419e-05
0.000748482 4.59127e-06 1.35444e-07
4.59127e-06 -3.40333e-05 3.82696e-07
1.35444e-07 3.82696e-07 -8.27523e-05
0.00083722 1.28041e-05 -7.81706e-08
1.28041e-05 2.14669e-06 1.58885e-06
-7.81706e-08 1.58885e-06 -2.60814e-05
0.000829461 4.15466e-06 -1.63204e-07
4.15466e-06 -2.17385e-06 8.42322e-10
-1.63204e-07 8.42322e-10 -3.02171e-05
0.000794988 4.93683e-06 -2.6938e-07
4.93683e-06 -3.07592e-05 4.32928e-06
-2.6938e-07 4.32928e-06 -3.16476e-05
0.000829864 -6.08957e-06 2.62434e-07
-6.08957e-06 -2.41228e-06 -1.48054e-06
2.62434e-07 -1.48054e-06 -3.00794e-05
0.00078331 5.74951e-07 1.55042e-07
5.74951e-07 -3.80593e-05 -6.06948e-09
1.55042e-07 -6.06948e-09 -3.84833e-05
0.00211754 -9.68575e-07 1.85144e-07
-9.68575e-07 0.000678616 4.01843e-06
1.85144e-07 4.01843e-06 0.000701445
0.00080118 -3.79119e-06 -5.56171e-07
-3.79119e-06 -2.79151e-05 -4.29205e-06
-5.56171e-07 -4.29205e-06 -2.81518e-05
0.00154295 -5.93807e-06 -2.7277e-07
-5.93807e-06 0.000370745 2.07443e-08
-2.7277e-07 2.07443e-08 0.000390788
0.000943201 -9.91543e-06 -7.26391e-07
-9.91543e-06 5.00104e-05 -1.53374e-06
-7.26391e-07 -1.53374e-06 6.74286e-05
0.000845266 3.49895e-06 -1.60066e-08
3.49895e-06 3.03711e-06 -1.61845e-06
-1.60066e-08 -1.61845e-06 -2.10908e-05
0.000841855 7.04906e-06 3.35177e-08
7.04906e-06 2.10613e-06 4.90481e-09
3.35177e-08 4.90481e-09 -2.32906e-05
0.000780275 9.68551e-06 3.14604e-07
9.68551e-06 -3.88592e-05 -3.12854e-06
3.14604e-07 -3.12854e-06 -3.79768e-05
0.000845058 1.01627e-05 -5.39424e-07
1.01627e-05 4.96925e-06 1.65824e-06
-5.39424e-07 1.65824e-06 -2.22299e-05
0.00105368 1.60431e-05 -2.45696e-07
1.60431e-05 0.000110347 -6.23334e-07
-2.45696e-07 -6.23334e-07 0.000111257
0.00209095 1.99271e-05 1.02611e-05
1.99271e-05 0.000668769 -3.93776e-06
1.02611e-05 -3.93776e-06 0.00069105
0.000783875 1.96878e-05 -1.04178e-06
1.96878e-05 -2.97257e-05 3.2513e-06
-1.04178e-06 3.2513e-06 -3.22852e-05
0.0021521 2.63197e-05 -5.70357e-06
2.63197e-05 0.000706393 1.10843e-06
-5.70357e-06 1.10843e-06 0.000727279
0.00218256 3.39637e-05 -1.87251e-05
3.39637e-05 0.00072793 3.86681e-06
-1.87251e-05 3.86681e-06 0.000747228
0.00173652 1.33316e-05 1.47293e-06
1.33316e-05 6.28981e-05 2.14219e-07
1.47293e-06 2.14219e-07 -2.81428e-05
0.00180286 3.9239e-06 1.77628e-06
3.9239e-06 0.000103 2.18551e-07
1.77628e-06 2.18551e-07 1.82334e-06
0.00178926 5.99062e-06 5.6638e-06
5.99062e-06 0.000103672 -2.61108e-07
5.6638e-06 -2.61108e-07 3.03975e-05
0.00169251 -3.09691e-05 4.19698e-06
-3.09691e-05 -5.6823e-05 1.34336e-06
4.19698e-06 1.34336e-06 -0.000113806
0.00183309 7.27127e-06 -3.65215e-07
7.27127e-06 0.000103303 1.84096e-07
-3.65215e-07 1.84096e-07 2.04838e-05
0.00178975 1.46249e-05 1.21683e-06
1.46249e-05 5.27643e-05 -3.28028e-07
1.21683e-06 -3.28028e-07 -9.74105e-06
0.00217376 1.85331e-05 -6.15343e-07
1.85331e-05 0.000231558 1.75996e-06
-6.15343e-07 1.75996e-06 0.000145737
0.00323197 -0.000136484 0.000139237
-0.000136484 0.000590435 2.14325e-05
0.000139237 2.14325e-05 0.000336268
0.00115926 -4.41816e-05 -4.66131e-06
-4.41816e-05 -0.000307461 7.93024e-07
-4.66131e-06 7.93024e-07 -0.000374877
0.000877071 2.19383e-05 -7.02157e-07
2.19383e-05 3.5348e-05 -7.3498e-07
-7.02157e-07 -7.3498e-07 -6.66626e-06
0.000871521 -1.36818e-05 6.2423e-07
-1.36818e-05 3.40521e-05 -3.78652e-08
6.2423e-07 -3.78652e-08 -9.44909e-06
0.000873674 -3.4138e-05 -1.8594e-07
-3.4138e-05 4.30396e-05 8.6417e-09
-1.8594e-07 8.6417e-09 -1.11715e-05
0.000878591 -2.76939e-05 -9.42278e-07
-2.76939e-05 5.56105e-05 1.34607e-07
-9.42278e-07 1.34607e-07 -2.98229e-06
0.00180557 -1.00197e-06 2.61255e-06
-1.00197e-06 9.95102e-05 -5.05635e-07
2.61255e-06 -5.05635e-07 1.34466e-05
0.0016958 -3.04724e-05 1.45855e-06
-3.04724e-05 1.55012e-05 -2.01591e-07
1.45855e-06 -2.01591e-07 -7.87285e-05
0.00199708 -0.000126198 -2.1037e-06
-0.000126198 0.000153625 2.12854e-06
-2.1037e-06 2.12854e-06 6.97747e-05
0.000741523 -8.3225e-05 2.54958e-06
-8.3225e-05 -3.78173e-05 2.13119e-06
2.54958e-06 2.13119e-06 -0.000133866
0.000445556 -9.62951e-05 3.65489e-06
-9.62951e-05 -0.000200378 -1.45499e-06
3.65489e-06 -1.45499e-06 -0.000380545
0.00178921 -0.000168537 1.37788e-06
-0.000168537 0.000216653 -1.38066e-06
1.37788e-06 -1.38066e-06 9.84909e-05
0.000764436 -8.8681e-05 -5.80223e-06
-8.8681e-05 -5.94259e-06 9.27867e-08
-5.80223e-06 9.27867e-08 -9.80508e-05
0.000989097 -3.83193e-05 -9.04709e-07
-3.83193e-05 0.000134062 -6.45523e-07
-9.04709e-07 -6.45523e-07 3.08829e-05
0.00104526 -4.32381e-05 -9.18097e-07
-4.32381e-05 0.000149793 1.19327e-06
-9.18097e-07 1.19327e-06 6.21228e-05
0.000871414 -5.04226e-06 -1.04765e-06
-5.04226e-06 3.47512e-05 9.54393e-07
-1.04765e-06 9.54393e-07 -1.51061e-05
0.000904581 -3.45436e-05 -3.27001e-07
-3.45436e-05 6.83091e-05 3.17567e-08
-3.27001e-07 3.17567e-08 -9.13939e-06
0.000979408 6.54123e-06 -7.02201e-07
6.54123e-06 0.000101299 5.30256e-07
-7.02201e-07 5.30256e-07 3.50421e-05
0.000872461 -3.78515e-06 1.1925e-08
-3.78515e-06 3.63795e-05 2.65521e-07
1.1925e-08 2.65521e-07 -8.97853e-06
0.000737509 1.82628e-05 2.20172e-07
1.82628e-05 -2.17939e-05 9.48675e-07
2.20172e-07 9.48675e-07 -8.5388e-05
0.00178341 -1.50808e-05 -4.61442e-07
-1.50808e-05 6.14996e-05 1.07457e-06
-4.61442e-07 1.07457e-06 -2.02336e-05
0.00088272 1.03401e-05 4.61539e-07
1.03401e-05 5.14299e-05 -4.61339e-07
4.61539e-07 -4.61339e-07 -7.32884e-06
0.000844594 2.03858e-05 5.23243e-07
2.03858e-05 3.4312e-05 -3.9321e-10
5.23243e-07 -3.9321e-10 -3.0849e-05
0.000957294 4.31783e-05 -2.94627e-07
4.31783e-05 9.40687e-05 7.05624e-07
-2.94627e-07 7.05624e-07 2.39737e-05
0.00200407 -6.16745e-05 -3.46805e-06
-6.16745e-05 0.000114939 4.24488e-07
-3.46805e-06 4.24488e-07 3.01737e-05
0.00171205 -0.000159048 1.07417e-06
-0.000159048 3.30938e-05 -1.16222e-06
1.07417e-06 -1.16222e-06 -5.73968e-05
0.000970723 -0.000100688 -6.03181e-07
-0.000100688 0.000110259 -2.73725e-07
-6.03181e-07 -2.73725e-07 -1.8958e-05
0.0017952 -0.000171583 -6.16215e-07
-0.000171583 0.000383253 -7.72549e-07
-6.16215e-07 -7.72549e-07 0.000228611
0.000953401 -1.23953e-05 -3.74297e-07
-1.23953e-05 9.15313e-05 9.7127e-08
-3.74297e-07 9.7127e-08 1.80633e-05
0.00095272 -5.3343e-06 1.19545e-07
-5.3343e-06 9.44554e-05 6.94139e-07
1.19545e-07 6.94139e-07 1.55918e-05
0.000861079 -6.98709e-05 3.31057e-06
-6.98709e-05 8.2129e-05 -8.69821e-07
3.31057e-06 -8.69821e-07 -3.91715e-05
0.00103391 -4.11534e-05 2.86193e-07
-4.11534e-05 0.000153724 -9.27016e-07
2.86193e-07 -9.27016e-07 5.4015e-05
0.00173182 -7.7117e-06 -2.02863e-06
-7.7117e-06 -2.1559e-05 1.63943e-06
-2.02863e-06 1.63943e-06 -0.000107424
0.00214598 -0.000147221 4.94301e-06
-0.000147221 0.000144354 -4.28247e-06
4.94301e-06 -4.28247e-06 6.30821e-05
0.00180375 -0.00017426 -3.79026e-06
-0.00017426 0.000250244 -1.24372e-06
-3.79026e-06 -1.24372e-06 0.000125007
0.00113666 -0.000128896 -2.11616e-06
-0.000128896 0.000198769 -1.00192e-07
-2.11616e-06 -1.00192e-07 5.8018e-05
0.00085189 2.22358e-05 -8.06207e-07
2.22358e-05 4.16879e-05 5.51047e-08
-8.06207e-07 5.51047e-08 -3.27421e-05
0.000888911 -3.5777e-05 7.27734e-07
-3.5777e-05 6.43045e-05 -4.5077e-07
7.27734e-07 -4.5077e-07 -9.74203e-06
0.000943804 -2.58891e-05 3.23521e-07
-2.58891e-05 8.82172e-05 1.10659e-07
3.23521e-07 1.10659e-07 7.98219e-06
0.00087053 -9.77884e-06 -1.73202e-06
-9.77884e-06 7.99236e-05 6.44487e-07
-1.73202e-06 6.44487e-07 -4.69629e-05
0.00045231 -3.75615e-05 -3.18009e-06
-3.75615e-05 -0.000904818 -8.17973e-06
-3.18009e-06 -8.17973e-06 -0.00132576
0.000999791 1.34513e-05 1.28595e-07
1.34513e-05 0.000120104 -9.857e-07
1.28595e-07 -9.857e-07 3.8165e-05
0.000838505 7.47805e-05 1.03995e-06
7.47805e-05 4.16166e-05 6.94243e-07
1.03995e-06 6.94243e-07 -6.57971e-05
0.00144328 4.22721e-05 3.81675e-06
4.22721e-05 -0.00016936 7.99775e-07
3.81675e-06 7.99775e-07 -0.000218258
0.00174893 0.000140776 -1.32842e-06
0.000140776 -2.52653e-05 5.17977e-07
-1.32842e-06 5.17977e-07 -8.72264e-05
0.00147839 0.000162226 -2.1041e-07
0.000162226 0.000194128 2.69319e-06
-2.1041e-07 2.69319e-06 2.60455e-05
0.00081434 9.5477e-05 2.01807e-06
9.5477e-05 3.15367e-05 4.77785e-07
2.01807e-06 4.77785e-07 -0.000116559
0.00280792 5.14671e-05 -1.96358e-06
5.14671e-05 0.000438633 6.92607e-08
-1.96358e-06 6.92607e-08 0.000330871
0.000978696 4.1106e-05 5.75322e-07
4.1106e-05 0.000113431 -3.72589e-07
5.75322e-07 -3.72589e-07 2.04881e-05
0.00205319 0.000103568 -4.06583e-06
0.000103568 0.000109951 -2.36767e-06
-4.06583e-06 -2.36767e-06 0.000114324
0.00104966 0.000102094 4.86304e-07
0.000102094 0.000164049 -3.48976e-07
4.86304e-07 -3.48976e-07 4.98095e-05
0.00105408 0.000118507 -2.19401e-07
0.000118507 0.0001539 3.63653e-07
-2.19401e-07 3.63653e-07 -2.55087e-05
0.000935652 0.000180184 -2.82973e-06
0.000180184 -0.000263813 2.93728e-07
-2.82973e-06 2.93728e-07 -0.000379256
0.00199917 -0.000175559 -2.98711e-05
-0.000175559 -5.12752e-05 -1.03972e-05
-2.98711e-05 -1.03972e-05 -0.000627184
0.00334651 -7.38277e-05 6.0466e-06
-7.38277e-05 0.000230731 -1.16411e-05
6.0466e-06 -1.16411e-05 -0.000308921
0.000905552 0.000146387 5.38149e-06
0.000146387 -0.000276967 1.66166e-06
5.38149e-06 1.66166e-06 -0.000289218
-0.00170627 -0.000263359 1.91037e-05
-0.000263359 -0.000613224 4.24652e-06
1.91037e-05 4.24652e-06 -0.000809237
0.000360712 -0.000476599 1.15103e-05
-0.000476599 -0.0010329 1.76907e-07
1.15103e-05 1.76907e-07 9.51709e-05
0.00109552 6.59925e-05 -2.23078e-07
6.59925e-05 0.000176605 -1.02187e-06
-2.23078e-07 -1.02187e-06 8.53247e-05
0.00064621 6.19473e-05 -8.72181e-05
6.19473e-05 0.000497926 -2.11318e-05
-8.72181e-05 -2.11318e-05 0.000235366
0.00152203 -0.000275436 -3.76339e-05
-0.000275436 0.000432148 -2.29712e-05
-3.76339e-05 -2.29712e-05 0.000779118
0.00125015 0.000126002 -6.43116e-06
0.000126002 -0.000228428 1.35487e-07
-6.43116e-06 1.35487e-07 -0.000196673
0.00115045 5.86313e-05 -2.46519e-06
5.86313e-05 0.000239718 -1.69947e-06
-2.46519e-06 -1.69947e-06 0.000112953
0.00125742 0.00014244 -6.5491e-06
0.00014244 0.000240553 -1.73364e-06
-6.5491e-06 -1.73364e-06 4.17184e-05
0.00138682 0.000186698 5.94353e-06
0.000186698 1.62916e-05 2.79173e-05
5.94353e-06 2.79173e-05 5.95209e-05
0.00647423 -0.000268948 -5.51525e-05
-0.000268948 0.00210591 -1.50152e-05
-5.51525e-05 -1.50152e-05 0.00111669
0.00153397 7.14787e-05 1.30515e-05
7.14787e-05 -0.00068541 2.17895e-05
1.30515e-05 2.17895e-05 -0.00146053
4.33514e-05 -0.000432032 -4.14519e-05
-0.000432032 -0.000304429 -1.39733e-05
-4.14519e-05 -1.39733e-05 1.17455e-05
0.000441616 -0.000222611 -3.20218e-05
-0.000222611 -0.00159738 2.00328e-06
-3.20218e-05 2.00328e-06 -0.000874056
0.000976996 1.19895e-06 -2.28881e-07
1.19895e-06 0.000101986 -7.29267e-07
-2.28881e-07 -7.29267e-07 2.25996e-05
0.0009871 2.49184e-05 -2.61893e-07
2.49184e-05 0.000102776 1.56184e-07
-2.61893e-07 1.56184e-07 2.29427e-05
0.00116851 5.88823e-05 -1.12092e-07
5.88823e-05 0.000202224 -1.01067e-06
-1.12092e-07 -1.01067e-06 0.000126453
0.000858372 1.94773e-06 -8.7223e-08
1.94773e-06 2.76003e-05 -3.34357e-07
-8.7223e-08 -3.34357e-07 -2.19184e-05
0.000910166 1.04818e-06 -5.26198e-07
1.04818e-06 5.5785e-05 -4.10794e-07
-5.26198e-07 -4.10794e-07 -2.31462e-06
0.000858316 -2.0718e-05 -2.58347e-07
-2.0718e-05 3.01899e-05 -6.30397e-07
-2.58347e-07 -6.30397e-07 -3.18541e-05
0.000941312 -7.87526e-06 -8.27635e-08
-7.87526e-06 7.91025e-05 -3.02328e-07
-8.27635e-08 -3.02328e-07 1.28636e-05
0.000935276 -9.72696e-06 -4.04565e-08
-9.72696e-06 7.7758e-05 9.30066e-08
-4.04565e-08 9.30066e-08 2.71146e-06
0.000742465 -4.56607e-06 3.9341e-07
-4.56607e-06 -3.76536e-05 3.94407e-07
3.9341e-07 3.94407e-07 -8.63694e-05
0.000878283 -3.06965e-06 -1.2339e-07
-3.06965e-06 4.48814e-05 -3.0439e-07
-1.2339e-07 -3.0439e-07 -1.9847e-05
0.000949448 -1.84916e-05 -1.83765e-07
-1.84916e-05 7.57671e-05 3.37788e-07
-1.83765e-07 3.37788e-07 1.21935e-05
0.000903949 2.03579e-05 4.05571e-07
2.03579e-05 5.19381e-05 -2.08739e-07
4.05571e-07 -2.08739e-07 -8.92864e-06
0.000940883 1.04497e-05 4.0055e-08
1.04497e-05 7.74847e-05 3.79019e-08
4.0055e-08 3.79019e-08 7.81646e-06
0.000855478 -7.139e-06 6.01358e-07
-7.139e-06 2.38662e-05 6.53219e-08
6.01358e-07 6.53219e-08 -4.23359e-05
0.00101733 3.08663e-05 -8.31471e-08
3.08663e-05 0.00011498 -1.06195e-06
-8.31471e-08 -1.06195e-06 4.44817e-05
0.000961249 -5.39421e-05 1.4887e-07
-5.39421e-05 7.94221e-05 1.5423e-07
1.4887e-07 1.5423e-07 1.51524e-05
0.000957484 -3.64247e-05 -3.98114e-07
-3.64247e-05 8.12243e-05 4.93822e-08
-3.98114e-07 4.93822e-08 2.01793e-05
0.000955397 -4.43826e-06 -3.78335e-07
-4.43826e-06 8.0425e-05 -6.16659e-08
-3.78335e-07 -6.16659e-08 2.05026e-05
0.000948057 4.55979e-05 -2.90619e-07
4.55979e-05 7.73624e-05 -2.79141e-07
-2.90619e-07 -2.79141e-07 1.34686e-05
0.000939651 2.28528e-05 -2.37138e-08
2.28528e-05 7.26145e-05 -5.99816e-08
-2.37138e-08 -5.99816e-08 5.26855e-06
0.000905852 4.03536e-05 1.71264e-07
4.03536e-05 5.86594e-05 3.07135e-07
1.71264e-07 3.07135e-07 -5.15642e-06
0.00103818 5.62383e-05 -1.30791e-08
5.62383e-05 0.000123022 -1.24593e-07
-1.30791e-08 -1.24593e-07 5.58941e-05
0.000855862 1.64041e-05 7.67783e-07
1.64041e-05 4.03577e-05 1.52508e-06
7.67783e-07 1.52508e-06 -2.93751e-05
0.0008664 1.2275e-05 -1.07644e-07
1.2275e-05 3.72537e-05 4.45379e-07
-1.07644e-07 4.45379e-07 -2.01092e-05
0.00087668 3.42193e-07 -3.89054e-08
3.42193e-07 4.43166e-05 -1.72154e-08
-3.89054e-08 -1.72154e-08 -1.42904e-05
0.000863814 3.2783e-06 -8.78015e-07
3.2783e-06 2.53533e-05 6.78627e-07
-8.78015e-07 6.78627e-07 -2.00804e-05
0.000857968 1.07691e-05 3.4348e-07
1.07691e-05 2.71003e-05 -6.09348e-07
3.4348e-07 -6.09348e-07 -2.9617e-05
0.000817279 -1.37524e-05 4.34608e-08
-1.37524e-05 6.54141e-07 2.18619e-08
4.34608e-08 2.18619e-08 -4.59564e-05
0.000840179 1.34435e-05 -3.89503e-07
1.34435e-05 4.09402e-06 1.67515e-06
-3.89503e-07 1.67515e-06 -2.42659e-05
0.000760312 6.05518e-06 3.63256e-07
6.05518e-06 -2.62399e-05 -4.16982e-07
3.63256e-07 -4.16982e-07 -7.59921e-05
0.000833851 6.24493e-06 -1.50387e-07
6.24493e-06 1.28308e-07 -4.51662e-09
-1.50387e-07 -4.51662e-09 -2.79996e-05
0.00137104 1.0772e-05 -2.766e-06
1.0772e-05 0.000279673 4.29757e-06
-2.766e-06 4.29757e-06 0.000281435
0.000827754 -3.54963e-06 5.02593e-07
-3.54963e-06 -3.20164e-06 -1.52974e-06
5.02593e-07 -1.52974e-06 -3.11904e-05
0.00107807 5.61713e-06 -1.22512e-06
5.61713e-06 0.000120956 6.25012e-07
-1.22512e-06 6.25012e-07 0.000121586
0.000992642 2.96852e-06 -2.57574e-06
2.96852e-06 7.55313e-05 3.93419e-06
-2.57574e-06 3.93419e-06 9.2348e-05
0.00078711 6.18909e-07 -4.03906e-08
6.18909e-07 -3.602e-05 -3.03848e-06
-4.03906e-08 -3.03848e-06 -3.64748e-05
0.00212156 -5.26363e-07 2.02313e-06
-5.26363e-07 0.000680786 2.78635e-10
2.02313e-06 2.78635e-10 0.000703571
0.000999462 -3.72959e-06 -1.77505e-06
-3.72959e-06 7.8986e-05 -3.91147e-06
-1.77505e-06 -3.91147e-06 9.61902e-05
0.00086531 3.97251e-05 3.57027e-07
3.97251e-05 3.1819e-05 -1.53424e-07
3.57027e-07 -1.53424e-07 -1.216e-05
0.000846395 -7.56009e-07 -7.42763e-08
-7.56009e-07 3.48907e-06 -1.59517e-06
-7.42763e-08 -1.59517e-06 -1.9996e-05
0.000846396 2.83617e-06 -4.96015e-08
2.83617e-06 3.53573e-06 1.2885e-09
-4.96015e-08 1.2885e-09 -2.05767e-05
0.000788375 4.62847e-06 3.91187e-08
4.62847e-06 -3.6375e-05 -3.09539e-06
3.91187e-08 -3.09539e-06 -3.44383e-05
0.00084286 6.41189e-06 -2.44978e-07
6.41189e-06 2.36821e-06 1.55263e-06
-2.44978e-07 1.55263e-06 -2.2995e-05
0.000781499 9.85214e-06 5.23736e-08
9.85214e-06 -3.85164e-05 -6.34905e-07
5.23736e-08 -6.34905e-07 -3.75608e-05
0.00205691 1.30597e-05 6.79386e-06
1.30597e-05 0.000647884 -3.96821e-06
6.79386e-06 -3.96821e-06 0.000671072
0.00132538 1.87422e-05 -1.26489e-06
1.87422e-05 0.000256465 1.94502e-06
-1.26489e-06 1.94502e-06 0.000258556
0.00155362 1.72294e-05 3.49858e-07
1.72294e-05 0.000381507 1.2407e-06
3.49858e-07 1.2407e-06 0.000400595
0.00103663 1.94602e-05 -1.43059e-05
1.94602e-05 0.000108593 6.43195e-06
-1.43059e-05 6.43195e-06 0.000123537
-0.000627114 2.00502e-05 5.88154e-06
2.00502e-05 -0.00122129 3.80711e-06
5.88154e-06 3.80711e-06 -0.0012852
0.00195358 5.60492e-06 2.6845e-06
5.60492e-06 0.000163472 -4.54657e-09
2.6845e-06 -4.54657e-09 8.13307e-05
0.00216852 1.88911e-05 -9.68349e-08
1.88911e-05 0.000259363 -2.47846e-06
-9.68349e-08 -2.47846e-06 0.000193124
0.00112202 -6.44348e-05 2.73743e-05
-6.44348e-05 -0.000272486 -3.48875e-07
2.73743e-05 -3.48875e-07 -0.000510185
0.00173754 -3.87019e-05 -1.64454e-06
-3.87019e-05 4.90483e-05 1.10028e-08
-1.64454e-06 1.10028e-08 -3.24767e-05
0.00176833 1.48609e-05 -3.5864e-06
1.48609e-05 -1.05542e-05 -1.80079e-06
-3.5864e-06 -1.80079e-06 -9.41869e-05
0.00201801 2.83331e-05 -1.22364e-05
2.83331e-05 0.000231398 1.61218e-06
-1.22364e-05 1.61218e-06 0.000141697
0.00154018 -7.69799e-05 0.00012763
-7.69799e-05 -1.45972e-05 -2.47463e-06
0.00012763 -2.47463e-06 -0.000347035
0.00620498 9.16603e-05 -1.74477e-05
9.16603e-05 0.0018873 -2.28931e-07
-1.74477e-05 -2.28931e-07 0.00112307
0.00421793 0.000558126 -1.46475e-05
0.000558126 0.00184914 3.2078e-06
-1.46475e-05 3.2078e-06 0.00206286
0.00184772 0.000472515 -1.84738e-05
0.000472515 0.000223308 6.8062e-06
-1.84738e-05 6.8062e-06 0.00111353
0.000735969 -4.11606e-05 1.12729e-06
-4.11606e-05 -2.51796e-05 -5.83927e-07
1.12729e-06 -5.83927e-07 -8.14248e-05
0.000877202 -9.72409e-06 1.91165e-07
-9.72409e-06 3.62572e-05 -3.36809e-08
1.91165e-07 -3.36809e-08 -6.32969e-06
0.000870364 -4.5592e-05 -8.25935e-07
-4.5592e-05 3.58082e-05 8.1262e-07
-8.25935e-07 8.1262e-07 -9.36475e-06
0.000841316 -1.23965e-05 -3.20922e-07
-1.23965e-05 2.83529e-05 4.23857e-08
-3.20922e-07 4.23857e-08 -2.77852e-05
0.000875446 4.01202e-05 4.16567e-08
4.01202e-05 5.65124e-05 7.80788e-07
4.16567e-08 7.80788e-07 -1.01575e-05
0.000928056 5.17275e-05 1.97595e-07
5.17275e-05 7.76246e-05 8.05361e-07
1.97595e-07 8.05361e-07 1.50361e-05
0.000914057 -2.89852e-05 7.3252e-07
-2.89852e-05 6.88908e-05 -7.42714e-07
7.3252e-07 -7.42714e-07 1.24198e-05
0.000829716 -4.33863e-05 -5.70509e-07
-4.33863e-05 2.59291e-05 4.81494e-07
-5.70509e-07 4.81494e-07 -3.07701e-05
0.00144879 -9.48707e-06 2.63655e-06
-9.48707e-06 -9.68672e-05 -9.24881e-07
2.63655e-06 -9.24881e-07 -0.000178802
0.00153722 -5.7443e-05 -1.51214e-06
-5.7443e-05 -0.000133672 3.63193e-07
-1.51214e-06 3.63193e-07 -0.000221109
0.00170416 -0.000154204 -3.89046e-06
-0.000154204 3.56347e-05 2.72347e-06
-3.89046e-06 2.72347e-06 -5.44442e-05
0.000872591 -0.000101766 1.52796e-06
-0.000101766 4.72797e-05 1.10374e-06
1.52796e-06 1.10374e-06 -7.93002e-05
0.00171205 -0.000168272 2.18574e-06
-0.000168272 0.000347424 -5.28901e-07
2.18574e-06 -5.28901e-07 0.000184811
0.000930628 -7.12849e-05 3.41368e-08
-7.12849e-05 0.000112397 -1.03869e-06
3.41368e-08 -1.03869e-06 -3.99933e-06
0.00119739 -6.69222e-05 2.35426e-07
-6.69222e-05 0.000241707 -3.58719e-07
2.35426e-07 -3.58719e-07 0.000136721
0.000868668 -1.84721e-05 -7.69265e-07
-1.84721e-05 5.58002e-05 2.42172e-07
-7.69265e-07 2.42172e-07 -2.44382e-05
0.000859229 6.21196e-06 4.00851e-07
6.21196e-06 4.23339e-05 4.28418e-07
4.00851e-07 4.28418e-07 -2.22089e-05
0.00102173 5.27802e-06 -7.95034e-07
5.27802e-06 0.000124669 1.29294e-09
-7.95034e-07 1.29294e-09 5.27077e-05
0.00105682 1.26861e-06 3.99206e-07
1.26861e-06 0.000141548 -2.37523e-08
3.99206e-07 -2.37523e-08 8.49521e-05
0.000836657 7.07321e-05 1.15928e-06
7.07321e-05 3.11598e-05 1.19761e-06
1.15928e-06 1.19761e-06 -4.00449e-05
0.00158885 -3.79319e-06 -2.93089e-07
-3.79319e-06 -9.7492e-05 -3.25077e-06
-2.93089e-07 -3.25077e-06 -0.000182103
0.000869627 2.28245e-05 -3.61276e-07
2.28245e-05 5.16801e-05 3.56039e-07
-3.61276e-07 3.56039e-07 -2.13354e-05
0.00088059 -2.4334e-05 -3.20889e-07
-2.4334e-05 5.68514e-05 -3.17125e-07
-3.20889e-07 -3.17125e-07 -1.6015e-05
0.00220389 -0.000148239 -5.01486e-07
-0.000148239 0.000184189 2.0482e-06
-5.01486e-07 2.0482e-06 0.000104926
0.00110546 -0.000147055 9.29074e-07
-0.000147055 -9.32577e-05 1.96351e-07
9.29074e-07 1.96351e-07 -0.000210611
0.00117763 -0.000132187 7.98788e-07
-0.000132187 0.000214982 -9.87977e-07
7.98788e-07 -9.87977e-07 6.83829e-05
0.000974807 -2.80885e-05 1.2066e-07
-2.80885e-05 0.000105072 -2.83506e-07
1.2066e-07 -2.83506e-07 2.2513e-05
0.00101773 -2.48481e-05 2.67372e-07
-2.48481e-05 0.000157509 4.08161e-07
2.67372e-07 4.08161e-07 3.00567e-05
0.00255715 -9.06447e-05 -8.32808e-06
-9.06447e-05 0.000455329 1.07571e-05
-8.32808e-06 1.07571e-05 0.000377953
0.00276411 -0.000235472 -3.13189e-06
-0.000235472 0.000556515 -6.11755e-06
-3.13189e-06 -6.11755e-06 0.000463531
7.09554e-05 -0.000108776 -4.51574e-06
-0.000108776 -0.000423755 -1.0863e-07
-4.51574e-06 -1.0863e-07 -0.000552765
0.00132525 -8.89308e-05 -4.0548e-06
-8.89308e-05 0.000311861 2.48234e-06
-4.0548e-06 2.48234e-06 0.000159219
0.000750823 -6.38543e-05 8.10883e-07
-6.38543e-05 -1.0591e-05 1.73535e-08
8.10883e-07 1.73535e-08 -8.68664e-05
0.000954518 -4.41511e-05 1.49585e-06
-4.41511e-05 9.3016e-05 1.547e-07
1.49585e-06 1.547e-07 1.26573e-05
0.000980401 -1.77326e-05 -1.88375e-06
-1.77326e-05 0.00010995 5.1779e-07
-1.88375e-06 5.1779e-07 1.43657e-05
-0.0029832 -1.64372e-05 -1.19445e-05
-1.64372e-05 -0.00141062 -1.20679e-06
-1.19445e-05 -1.20679e-06 -0.00121934
0.00698666 -2.81247e-05 -2.2911e-05
-2.81247e-05 0.00236372 -1.28701e-06
-2.2911e-05 -1.28701e-06 0.00180204
0.000900738 3.88602e-05 1.19297e-06
3.88602e-05 7.68888e-05 -6.07272e-07
1.19297e-06 -6.07272e-07 -1.55829e-05
0.000943486 9.64824e-05 1.9809e-06
9.64824e-05 0.000111056 -3.10214e-07
1.9809e-06 -3.10214e-07 -1.15274e-06
0.00175149 9.69601e-05 -3.25231e-06
9.69601e-05 -4.93174e-05 3.53758e-06
-3.25231e-06 3.53758e-06 -3.73192e-05
0.00183735 0.000214103 -2.02974e-07
0.000214103 0.000161112 1.37166e-06
-2.02974e-07 1.37166e-06 5.35179e-05
0.00103357 0.000119165 2.88983e-06
0.000119165 0.000150011 8.66965e-07
2.88983e-06 8.66965e-07 -2.90759e-05
0.00551252 2.78471e-05 3.55031e-05
2.78471e-05 0.00155271 -8.24523e-06
3.55031e-05 -8.24523e-06 0.000804227
0.00381435 -6.06225e-05 -6.99161e-05
-6.06225e-05 0.000425907 -1.81969e-05
-6.99161e-05 -1.81969e-05 -2.38986e-06
0.000285368 0.000112092 -3.80414e-06
0.000112092 -0.000601603 -1.80089e-05
-3.80414e-06 -1.80089e-05 -0.000598033
0.00328349 -0.000428584 2.90894e-05
-0.000428584 0.00161885 1.57213e-05
2.90894e-05 1.57213e-05 0.00161751
-0.00179529 -0.000518443 1.37767e-05
-0.000518443 -0.00221003 -1.45442e-05
1.37767e-05 -1.45442e-05 -0.000931439
0.00102027 7.95135e-05 4.86504e-08
7.95135e-05 0.00014333 -2.71811e-07
4.86504e-08 -2.71811e-07 4.97078e-05
-0.00248474 -0.000108798 2.35686e-06
-0.000108798 -0.00121693 -1.3141e-06
2.35686e-06 -1.3141e-06 -0.00105554
0.000177999 -0.000259102 -1.14223e-05
-0.000259102 -0.000145116 -2.49826e-06
-1.14223e-05 -2.49826e-06 2.50429e-05
0.00215633 0.000154372 -1.58798e-06
0.000154372 0.000213753 -2.00911e-06
-1.58798e-06 -2.00911e-06 0.000246697
0.000937636 6.70651e-05 -4.10791e-08
6.70651e-05 0.000139501 -9.01539e-07
-4.10791e-08 -9.01539e-07 1.25679e-05
0.000671147 0.000113792 1.27003e-07
0.000113792 -5.72614e-05 2.94235e-07
1.27003e-07 2.94235e-07 -0.000254302
-0.000241846 0.000110451 1.57689e-05
0.000110451 -0.000756649 8.2894e-06
1.57689e-05 8.2894e-06 -0.000689922
0.00490563 -0.000197382 -3.3538e-07
-0.000197382 0.00122562 -2.62429e-07
-3.3538e-07 -2.62429e-07 0.000172807
0.00434046 0.000143409 -2.47083e-05
0.000143409 0.000805708 -1.65843e-05
-2.47083e-05 -1.65843e-05 0.000286193
0.00376256 -0.000597652 1.29151e-05
-0.000597652 0.00132177 -2.84657e-06
1.29151e-05 -2.84657e-06 0.00145033
0.000783756 -0.000280276 9.32333e-06
-0.000280276 -0.0015637 2.60717e-05
9.32333e-06 2.60717e-05 -0.000657501
0.00113635 4.63238e-05 -2.43049e-06
4.63238e-05 0.000201977 -2.16033e-06
-2.43049e-06 -2.16033e-06 0.00011835
-0.000950263 -8.18137e-05 -5.05134e-05
-8.18137e-05 -0.000414244 -7.0895e-06
-5.05134e-05 -7.0895e-06 -0.000620642
0.00173769 -2.48297e-05 -3.56414e-05
-2.48297e-05 4.34345e-05 -3.36155e-05
-3.56414e-05 -3.36155e-05 -6.49637e-05
0.000835318 0.000120949 -1.05439e-05
0.000120949 -0.000136981 -7.13056e-06
-1.05439e-05 -7.13056e-06 -0.000156102
0.00160556 0.000116176 -1.05811e-05
0.000116176 0.000535448 -2.86839e-06
-1.05811e-05 -2.86839e-06 0.000383129
0.000971696 4.89426e-05 -1.29199e-05
4.89426e-05 0.000204272 -4.09621e-06
-1.29199e-05 -4.09621e-06 0.000147714
0.00300298 0.000373306 -9.50965e-05
0.000373306 0.000461247 1.35181e-05
-9.50965e-05 1.35181e-05 1.181e-05
-3.01573e-05 -0.000258457 2.23471e-05
-0.000258457 -0.000739358 2.37672e-05
2.23471e-05 2.37672e-05 -0.00208924
0.00633171 -0.000590805 -5.30847e-05
-0.000590805 0.00168867 -1.84989e-06
-5.30847e-05 -1.84989e-06 0.00189874
0.000574298 -0.000127566 -8.19626e-06
-0.000127566 -0.00166284 -1.3172e-05
-8.19626e-06 -1.3172e-05 -0.00106166
0.000929958 3.15537e-05 2.20471e-07
3.15537e-05 7.61715e-05 8.70729e-07
2.20471e-07 8.70729e-07 -4.85068e-06
0.00107905 5.65718e-05 1.02685e-06
5.65718e-05 0.000154941 6.83054e-07
1.02685e-06 6.83054e-07 7.83456e-05
0.000661007 5.62327e-05 8.60923e-07
5.62327e-05 -4.81858e-05 -3.09749e-06
8.60923e-07 -3.09749e-06 -0.000120162
0.000757319 2.45224e-05 1.87821e-07
2.45224e-05 -2.98344e-05 -3.72803e-07
1.87821e-07 -3.72803e-07 -7.85906e-05
0.000972084 3.00301e-05 -5.51144e-07
3.00301e-05 9.08382e-05 -4.75967e-07
-5.51144e-07 -4.75967e-07 2.89698e-05
0.00103598 -3.30366e-05 -1.49239e-07
-3.30366e-05 0.000121838 8.83791e-08
-1.49239e-07 8.83791e-08 5.86167e-05
0.000872174 -8.40893e-06 -7.22634e-07
-8.40893e-06 4.27245e-05 -4.55356e-07
-7.22634e-07 -4.55356e-07 -2.19376e-05
0.000935008 7.23378e-06 -6.62205e-07
7.23378e-06 7.35286e-05 5.50847e-07
-6.62205e-07 5.50847e-07 3.86385e-06
0.000941109 1.57838e-05 4.03608e-07
1.57838e-05 7.31989e-05 -3.95544e-07
4.03608e-07 -3.95544e-07 1.17993e-05
0.000927985 -1.03796e-05 -4.66019e-08
-1.03796e-05 6.42469e-05 -2.17256e-08
-4.66019e-08 -2.17256e-08 -2.04896e-06
0.000944364 -3.78566e-05 1.6842e-07
-3.78566e-05 7.09692e-05 7.42121e-08
1.6842e-07 7.42121e-08 6.19459e-06
0.000958201 1.51102e-05 6.81288e-08
1.51102e-05 8.53673e-05 8.19722e-08
6.81288e-08 8.19722e-08 1.63282e-05
0.00119545 -2.50888e-05 1.17895e-06
-2.50888e-05 0.000205683 -8.36702e-07
1.17895e-06 -8.36702e-07 0.000139596
0.000944344 -2.01904e-05 9.06659e-08
-2.01904e-05 6.60265e-05 -2.01402e-07
9.06659e-08 -2.01402e-07 -2.85822e-07
0.000950645 3.50037e-06 1.98566e-07
3.50037e-06 7.77333e-05 1.69857e-07
1.98566e-07 1.69857e-07 9.44224e-06
0.00095912 -2.72811e-05 8.54092e-08
-2.72811e-05 8.44708e-05 -5.5648e-07
8.54092e-08 -5.5648e-07 2.29411e-05
0.000874166 2.13711e-05 -2.38401e-07
2.13711e-05 3.44371e-05 -5.37474e-07
-2.38401e-07 -5.37474e-07 -2.74697e-05
0.000930225 -1.66831e-06 2.52235e-07
-1.66831e-06 6.77197e-05 -1.85443e-07
2.52235e-07 -1.85443e-07 6.80698e-07
0.000891718 3.9394e-05 -9.19347e-08
3.9394e-05 5.10399e-05 -5.52895e-09
-9.19347e-08 -5.52895e-09 -1.25899e-05
0.000971588 3.76147e-05 -5.1151e-07
3.76147e-05 8.51965e-05 -4.03011e-07
-5.1151e-07 -4.03011e-07 1.96109e-05
0.000857822 3.23318e-05 7.08847e-07
3.23318e-05 3.6571e-05 9.13426e-07
7.08847e-07 9.13426e-07 -2.85573e-05
0.00097014 3.63299e-05 4.2386e-07
3.63299e-05 8.73955e-05 6.72127e-08
4.2386e-07 6.72127e-08 1.82122e-05
0.00091804 2.94859e-05 1.45199e-07
2.94859e-05 5.95083e-05 2.97118e-07
1.45199e-07 2.97118e-07 -7.61983e-06
0.000878133 4.45399e-06 1.06655e-06
4.45399e-06 5.12315e-05 5.62925e-07
1.06655e-06 5.62925e-07 -2.93914e-05
0.000793801 -5.07311e-05 -7.91332e-08
-5.07311e-05 3.3465e-05 6.63371e-07
-7.91332e-08 6.63371e-07 -6.55527e-05
0.000731012 3.951e-06 -1.72936e-07
3.951e-06 -2.06416e-05 5.87352e-07
-1.72936e-07 5.87352e-07 -9.72021e-05
0.000882299 1.63362e-05 1.65683e-07
1.63362e-05 5.53027e-05 3.94223e-07
1.65683e-07 3.94223e-07 -1.4817e-05
0.000876741 1.84571e-05 2.17525e-07
1.84571e-05 4.38893e-05 1.06323e-06
2.17525e-07 1.06323e-06 -1.57635e-05
0.000883478 1.07379e-05 -1.79415e-07
1.07379e-05 4.7199e-05 -6.03101e-08
-1.79415e-07 -6.03101e-08 -1.08983e-05
0.000862848 1.95593e-05 -4.54417e-07
1.95593e-05 2.70551e-05 7.35657e-07
-4.54417e-07 7.35657e-07 -1.91427e-05
0.000893162 1.1917e-05 3.17394e-07
1.1917e-05 5.11482e-05 -2.74889e-07
3.17394e-07 -2.74889e-07 -6.23226e-06
0.000873404 2.76124e-06 -7.09086e-08
2.76124e-06 3.0713e-05 7.82021e-09
-7.09086e-08 7.82021e-09 -1.50499e-05
0.000835719 1.69654e-05 -7.22164e-07
1.69654e-05 3.58276e-06 1.67893e-06
-7.22164e-07 1.67893e-06 -2.52534e-05
0.000764952 1.45567e-06 4.57133e-07
1.45567e-06 -2.86254e-05 -6.90746e-07
4.57133e-07 -6.90746e-07 -7.46676e-05
0.000837888 9.11375e-06 -7.63105e-08
9.11375e-06 2.69187e-06 -3.74444e-09
-7.63105e-08 -3.74444e-09 -2.55854e-05
0.00136639 1.62685e-05 -4.46411e-06
1.62685e-05 0.000279559 4.30183e-06
-4.46411e-06 4.30183e-06 0.000280948
0.000832148 6.28742e-07 6.2708e-07
6.28742e-07 -9.94389e-07 -1.58498e-06
6.2708e-07 -1.58498e-06 -2.90414e-05
0.00107512 1.07329e-05 -1.93117e-06
1.07329e-05 0.000120939 6.10993e-07
-1.93117e-06 6.10993e-07 0.000121315
0.000947255 9.5051e-06 -6.3722e-07
9.5051e-06 5.26376e-05 1.55385e-06
-6.3722e-07 1.55385e-06 6.93422e-05
0.000782648 5.16539e-06 2.58238e-07
5.16539e-06 -3.78104e-05 -3.05983e-06
2.58238e-07 -3.05983e-06 -3.85603e-05
0.00213025 6.18216e-06 1.86309e-06
6.18216e-06 0.000685934 1.4463e-08
1.86309e-06 1.4463e-08 0.000708532
0.00212507 -8.17137e-08 9.98423e-07
-8.17137e-08 0.000682667 -4.03892e-06
9.98423e-07 -4.03892e-06 0.000705405
0.00110804 2.56379e-05 -9.16821e-07
2.56379e-05 0.000159129 -3.40433e-07
-9.16821e-07 -3.40433e-07 0.000116794
0.000846561 -4.45856e-06 -2.21547e-07
-4.45856e-06 4.34594e-06 -1.53563e-06
-2.21547e-07 -1.53563e-06 -1.93641e-05
0.000870851 2.68036e-06 6.67728e-07
2.68036e-06 3.45337e-05 4.49255e-07
6.67728e-07 4.49255e-07 -9.10439e-06
0.000794098 -5.4836e-07 -1.01744e-07
-5.4836e-07 -3.37602e-05 -3.05949e-06
-1.01744e-07 -3.05949e-06 -3.13764e-05
0.000848109 -1.22328e-06 3.08769e-08
-1.22328e-06 4.34593e-06 2.36637e-09
3.08769e-08 2.36637e-09 -1.91408e-05
0.000845175 2.20753e-06 -1.72943e-07
2.20753e-06 2.76696e-06 1.57432e-06
-1.72943e-07 1.57432e-06 -2.13185e-05
0.000791238 4.83237e-06 -1.32192e-07
4.83237e-06 -3.48398e-05 1.00022e-08
-1.32192e-07 1.00022e-08 -3.29414e-05
0.00202911 6.26254e-06 2.99767e-06
6.26254e-06 0.000631493 -3.98013e-06
2.99767e-06 -3.98013e-06 0.000655279
0.00131727 1.26672e-05 -7.60167e-07
1.26672e-05 0.000248975 1.89943e-06
-7.60167e-07 1.89943e-06 0.000252605
0.00151225 1.16945e-05 1.97078e-06
1.16945e-05 0.000355963 3.11313e-08
1.97078e-06 3.11313e-08 0.000376238
0.00102778 1.43495e-05 -1.19636e-05
1.43495e-05 9.91135e-05 6.41206e-06
-1.19636e-05 6.41206e-06 0.000115517
-0.00448009 0.000123099 -1.13382e-05
0.000123099 -0.00219781 4.37172e-06
-1.13382e-05 4.37172e-06 -0.00213385
-0.00116161 0.000230863 -8.94777e-06
0.000230863 -0.000790546 1.34541e-05
-8.94777e-06 1.34541e-05 -0.000618946
0.000658232 -2.35122e-05 -9.56237e-05
-2.35122e-05 -0.000542559 -1.00474e-05
-9.56237e-05 -1.00474e-05 -0.000766736
0.00255204 -4.09527e-05 3.55393e-06
-4.09527e-05 0.000525508 -2.14845e-07
3.55393e-06 -2.14845e-07 0.000431938
0.00144672 1.15625e-05 -8.72481e-06
1.15625e-05 -0.000207557 -8.04242e-07
-8.72481e-06 -8.04242e-07 -0.000289159
0.00120991 -2.03076e-05 2.28864e-05
-2.03076e-05 -9.11723e-06 -2.43127e-06
2.28864e-05 -2.43127e-06 -0.000259121
0.00211772 3.3969e-05 -2.28726e-08
3.3969e-05 0.000289724 1.67662e-06
-2.28726e-08 1.67662e-06 0.000201589
0.00522529 0.000260582 -2.1045e-05
0.000260582 0.00133926 -7.06744e-06
-2.1045e-05 -7.06744e-06 0.000689133
-0.00332132 0.000266416 -1.18962e-05
0.000266416 -0.00138352 -1.86924e-06
-1.18962e-05 -1.86924e-06 -0.00137317
5.95167e-05 0.00050155 3.41392e-06
0.00050155 -0.00102662 -6.44272e-06
3.41392e-06 -6.44272e-06 7.05706e-05
0.00163009 -1.06143e-05 5.06976e-05
-1.06143e-05 0.000171427 -1.10799e-05
5.06976e-05 -1.10799e-05 -6.0154e-05
0.00646783 0.0004271 4.11238e-06
0.0004271 0.00196486 -8.24994e-06
4.11238e-06 -8.24994e-06 0.00109122
-8.43349e-05 0.000453659 -3.93117e-05
0.000453659 -0.000326774 1.17435e-05
-3.93117e-05 1.17435e-05 4.00567e-05
0.00303058 0.000270793 -4.40074e-05
0.000270793 -2.04266e-05 2.32703e-05
-4.40074e-05 2.32703e-05 0.000647098
0.000861865 3.41234e-05 -6.80001e-07
3.41234e-05 4.80543e-05 -3.26274e-08
-6.80001e-07 -3.26274e-08 -2.15791e-05
0.000793861 -1.15992e-05 9.69665e-08
-1.15992e-05 4.50098e-06 -3.44234e-07
9.69665e-08 -3.44234e-07 -5.09555e-05
0.000868577 -4.3116e-05 -8.03555e-07
-4.3116e-05 3.36644e-05 7.81086e-07
-8.03555e-07 7.81086e-07 -1.02315e-05
0.000789138 6.60957e-06 2.17136e-07
6.60957e-06 2.06925e-06 2.43757e-07
2.17136e-07 2.43757e-07 -5.50705e-05
0.000887966 4.57804e-05 7.57616e-07
4.57804e-05 6.42789e-05 7.57294e-07
7.57616e-07 7.57294e-07 -1.84779e-06
0.000925592 2.96236e-05 -6.72827e-07
2.96236e-05 8.11627e-05 3.81104e-07
-6.72827e-07 3.81104e-07 1.25402e-05
0.000896305 3.54656e-05 1.13182e-06
3.54656e-05 6.57674e-05 9.95848e-07
1.13182e-06 9.95848e-07 -4.18228e-07
0.00085574 -1.95013e-05 6.35032e-07
-1.95013e-05 3.69023e-05 2.38551e-07
6.35032e-07 2.38551e-07 -2.41714e-05
0.000852255 -2.7241e-05 3.95616e-07
-2.7241e-05 3.79985e-05 -5.55233e-07
3.95616e-07 -5.55233e-07 -2.06237e-05
0.000775154 -3.9028e-05 -2.32405e-07
-3.9028e-05 -1.99144e-06 4.98759e-07
-2.32405e-07 4.98759e-07 -5.99756e-05
0.0014354 4.64794e-07 -2.95218e-07
4.64794e-07 -0.000179351 -1.08979e-06
-2.95218e-07 -1.08979e-06 -0.000263217
0.00199848 -0.000141996 -1.74534e-06
-0.000141996 9.15015e-05 4.45343e-06
-1.74534e-06 4.45343e-06 1.53368e-05
0.000330078 -0.000115745 4.43292e-06
-0.000115745 -0.000474727 1.03887e-06
4.43292e-06 1.03887e-06 -0.000584028
0.0012431 -0.00013699 2.35851e-06
-0.00013699 0.000243286 -3.21929e-07
2.35851e-06 -3.21929e-07 9.26741e-05
0.00112536 -4.18907e-05 2.85815e-06
-4.18907e-05 0.00021309 -8.61148e-07
2.85815e-06 -8.61148e-07 8.58041e-05
0.00102468 -4.09393e-05 -1.7956e-07
-4.09393e-05 0.000130329 -6.0596e-07
-1.7956e-07 -6.0596e-07 4.62942e-05
0.000872924 -2.08705e-05 -9.5352e-07
-2.08705e-05 4.98169e-05 -2.26087e-07
-9.5352e-07 -2.26087e-07 -2.18812e-05
0.000887318 2.33619e-05 -5.78548e-07
2.33619e-05 6.18763e-05 8.61662e-08
-5.78548e-07 8.61662e-08 -9.87562e-06
0.00173911 -6.9995e-05 -6.1552e-06
-6.9995e-05 3.91459e-05 1.93995e-06
-6.1552e-06 1.93995e-06 -3.80369e-05
0.000803829 -2.97555e-05 -1.79721e-07
-2.97555e-05 1.64001e-05 1.05484e-07
-1.79721e-07 1.05484e-07 -6.04591e-05
0.000905878 -4.72596e-05 5.89281e-07
-4.72596e-05 6.63136e-05 -3.30593e-07
5.89281e-07 -3.30593e-07 -1.50277e-05
0.00205751 -0.000206384 6.33298e-07
-0.000206384 0.000217619 -9.01081e-07
6.33298e-07 -9.01081e-07 0.000126073
0.000441324 -0.000120197 1.18663e-06
-0.000120197 -0.000217928 1.31258e-06
1.18663e-06 1.31258e-06 -0.000346558
0.00118374 -8.46979e-05 1.96558e-06
-8.46979e-05 0.000229725 -5.24232e-07
1.96558e-06 -5.24232e-07 8.34214e-05
0.00103024 -3.13817e-05 -8.00539e-07
-3.13817e-05 0.000137852 -3.70936e-07
-8.00539e-07 -3.70936e-07 3.7653e-05
0.00271151 -0.000201316 -2.11028e-07
-0.000201316 0.000679457 -3.10752e-06
-2.11028e-07 -3.10752e-06 0.000583341
0.00217126 -0.000214943 -8.32669e-06
-0.000214943 0.000540533 2.64402e-07
-8.32669e-06 2.64402e-07 0.000426769
0.000876625 -9.63873e-06 -4.93496e-06
-9.63873e-06 9.10975e-05 4.49627e-06
-4.93496e-06 4.49627e-06 -4.14352e-05
0.000880481 2.61682e-05 4.65768e-07
2.61682e-05 5.69849e-05 1.11494e-06
4.65768e-07 1.11494e-06 -2.02636e-05
0.000854276 -7.92936e-05 1.24705e-06
-7.92936e-05 3.87893e-05 2.23392e-07
1.24705e-06 2.23392e-07 -4.61161e-05
0.00101083 -3.83589e-05 2.26183e-07
-3.83589e-05 0.000107086 1.60783e-06
2.26183e-07 1.60783e-06 2.15336e-05
0.00111429 3.42316e-06 -5.05904e-05
3.42316e-06 0.000818835 9.15619e-07
-5.05904e-05 9.15619e-07 0.000724629
0.00129591 -1.17683e-05 1.35515e-05
-1.17683e-05 0.00068444 2.59729e-06
1.35515e-05 2.59729e-06 0.00064933
0.000155333 0.000167286 -4.41853e-05
0.000167286 -0.00107605 1.77859e-05
-4.41853e-05 1.77859e-05 -0.00161582
0.000958861 7.80689e-05 8.4679e-07
7.80689e-05 0.000113916 7.70483e-07
8.4679e-07 7.70483e-07 2.00624e-05
0.000743377 7.52437e-05 3.30914e-06
7.52437e-05 4.75509e-05 5.22341e-07
3.30914e-06 5.22341e-07 -7.99644e-05
0.00323821 0.000186116 2.5455e-06
0.000186116 0.000754969 -1.52223e-06
2.5455e-06 -1.52223e-06 0.000774058
0.000122431 8.66088e-05 5.74134e-06
8.66088e-05 -0.000334354 1.54729e-06
5.74134e-06 1.54729e-06 -0.000532691
0.00308526 -0.000278185 4.87067e-05
-0.000278185 0.00132669 9.3893e-06
4.87067e-05 9.3893e-06 0.00150028
0.00100435 -0.000274982 5.94551e-06
-0.000274982 -0.000602846 1.61209e-05
5.94551e-06 1.61209e-05 -0.00141211
0.00455105 0.00018282 -7.68134e-05
0.00018282 0.000695326 -5.53867e-05
-7.68134e-05 -5.53867e-05 2.6697e-05
-0.0013482 8.0371e-05 7.56271e-06
8.0371e-05 -0.00125105 -1.51867e-06
7.56271e-06 -1.51867e-06 -0.00120783
-0.00228282 -0.000350747 5.33078e-05
-0.000350747 -0.00131509 2.35669e-05
5.33078e-05 2.35669e-05 -0.00123357
0.0015044 -0.000259256 3.66711e-05
-0.000259256 0.000512865 1.82726e-05
3.66711e-05 1.82726e-05 0.000670877
0.0034383 -0.000340823 4.38444e-05
-0.000340823 1.81897e-05 2.64377e-05
4.38444e-05 2.64377e-05 0.00102496
0.000986892 5.68702e-05 3.01469e-07
5.68702e-05 0.000129199 -2.78034e-07
3.01469e-07 -2.78034e-07 4.41579e-05
6.52368e-05 -0.000103815 -1.72987e-05
-0.000103815 8.02943e-05 -3.51673e-06
-1.72987e-05 -3.51673e-06 8.60103e-06
0.00198948 -2.37786e-05 -3.16599e-06
-2.37786e-05 0.000179581 -9.47228e-06
-3.16599e-06 -9.47228e-06 7.38805e-05
0.00133631 0.000107707 -3.64497e-06
0.000107707 0.000156728 -4.57894e-07
-3.64497e-06 -4.57894e-07 8.5916e-05
0.000807773 6.32274e-05 -1.67501e-06
6.32274e-05 0.000141775 -5.64526e-07
-1.67501e-06 -5.64526e-07 -1.73434e-05
3.571e-05 6.38471e-05 9.75696e-06
6.38471e-05 -0.00026589 -1.29386e-05
9.75696e-06 -1.29386e-05 -0.000301514
0.00557049 0.000502803 -3.35183e-05
0.000502803 0.00155458 -1.30999e-05
-3.35183e-05 -1.30999e-05 0.000895319
0.00784608 -0.000380268 4.86419e-06
-0.000380268 0.00258948 4.43157e-06
4.86419e-06 4.43157e-06 0.00146402
0.000376795 -0.000333525 5.56584e-06
-0.000333525 -0.00107647 6.9046e-06
5.56584e-06 6.9046e-06 -0.000849281
0.00343946 -0.000173869 2.54209e-06
-0.000173869 0.000168268 1.30253e-06
2.54209e-06 1.30253e-06 0.000801468
0.00138669 0.000104221 -5.1016e-06
0.000104221 0.000366313 -6.15943e-06
-5.1016e-06 -6.15943e-06 0.000296822
0.001789 -4.02326e-06 -2.46133e-05
-4.02326e-06 0.000228178 -5.72117e-06
-2.46133e-05 -5.72117e-06 0.000101825
0.0013854 -6.65591e-06 -7.00749e-06
-6.65591e-06 -1.47167e-05 -1.62813e-05
-7.00749e-06 -1.62813e-05 -7.65661e-05
-0.000221661 -3.03602e-05 -1.45667e-05
-3.03602e-05 -0.000271884 -1.12572e-05
-1.45667e-05 -1.12572e-05 -0.000384421
0.00316674 0.000278016 -1.09103e-05
0.000278016 0.00113067 4.77909e-05
-1.09103e-05 4.77909e-05 0.000740029
0.00839915 -0.000239552 1.67038e-05
-0.000239552 0.00253761 -8.08113e-06
1.67038e-05 -8.08113e-06 0.00117631
-0.00238435 -0.000182582 -4.53977e-05
-0.000182582 -0.00246774 -3.10838e-05
-4.53977e-05 -3.10838e-05 -0.00261353
0.00403099 3.05941e-05 -7.57083e-07
3.05941e-05 0.000519436 -2.19662e-05
-7.57083e-07 -2.19662e-05 0.00113403
0.000934397 5.51715e-05 9.63373e-08
5.51715e-05 7.92432e-05 1.27636e-06
9.63373e-08 1.27636e-06 1.83488e-06
0.000923417 6.84756e-05 -3.99539e-07
6.84756e-05 8.48969e-05 -7.8865e-07
-3.99539e-07 -7.8865e-07 1.39769e-05
0.000576252 4.14866e-05 1.4014e-06
4.14866e-05 -8.76498e-05 -2.34617e-06
1.4014e-06 -2.34617e-06 -0.000146784
0.000939879 5.09449e-05 -9.59837e-07
5.09449e-05 7.0081e-05 -8.68338e-07
-9.59837e-07 -8.68338e-07 1.01988e-05
0.000932016 -2.47288e-05 6.82835e-08
-2.47288e-05 6.64241e-05 6.45356e-08
6.82835e-08 6.45356e-08 4.37965e-08
0.000998234 -1.2969e-05 -8.29169e-07
-1.2969e-05 0.000103075 2.58115e-07
-8.29169e-07 2.58115e-07 3.68181e-05
0.000882397 1.57101e-08 -5.78762e-07
1.57101e-08 4.71936e-05 7.21159e-07
-5.78762e-07 7.21159e-07 -2.07208e-05
0.000954601 8.50326e-06 3.50736e-07
8.50326e-06 7.60307e-05 4.17827e-10
3.50736e-07 4.17827e-10 1.03725e-05
0.000939017 -1.18706e-05 -1.95562e-07
-1.18706e-05 6.40796e-05 1.07499e-07
-1.95562e-07 1.07499e-07 -2.35055e-06
0.000989426 -1.82035e-05 3.0092e-07
-1.82035e-05 9.96684e-05 4.62381e-07
3.0092e-07 4.62381e-07 3.29846e-05
0.00112345 -3.69055e-05 2.47348e-07
-3.69055e-05 0.000177946 5.96268e-07
2.47348e-07 5.96268e-07 0.000121701
0.00100029 -4.15718e-05 1.60303e-06
-4.15718e-05 8.53399e-05 -3.82484e-07
1.60303e-06 -3.82484e-07 2.36679e-05
0.000882715 3.51318e-05 1.07419e-06
3.51318e-05 3.96039e-05 2.89989e-07
1.07419e-06 2.89989e-07 -2.93243e-05
0.000930341 -1.86443e-05 8.01854e-07
-1.86443e-05 6.63115e-05 -3.10282e-07
8.01854e-07 -3.10282e-07 4.99111e-07
0.000875102 3.98158e-05 -2.63861e-07
3.98158e-05 4.24227e-05 -4.20009e-07
-2.63861e-07 -4.20009e-07 -2.12308e-05
0.000921304 2.98949e-05 -7.04307e-07
2.98949e-05 5.68279e-05 -5.0197e-07
-7.04307e-07 -5.0197e-07 -7.88575e-06
0.000958197 3.50729e-05 -2.14544e-07
3.50729e-05 7.9461e-05 -1.44019e-07
-2.14544e-07 -1.44019e-07 1.16021e-05
0.000875149 3.53641e-05 2.82198e-07
3.53641e-05 4.74161e-05 3.50913e-07
2.82198e-07 3.50913e-07 -1.85222e-05
0.000913084 3.83692e-05 4.16823e-08
3.83692e-05 5.70646e-05 -1.63395e-07
4.16823e-08 -1.63395e-07 -1.02598e-05
0.000879122 1.99062e-05 1.32373e-06
1.99062e-05 4.65663e-05 1.04905e-06
1.32373e-06 1.04905e-06 -2.47636e-05
0.000935217 2.62625e-05 3.19767e-07
2.62625e-05 6.1513e-05 5.0132e-07
3.19767e-07 5.0132e-07 -4.73149e-06
0.000889674 -4.58658e-05 2.36195e-07
-4.58658e-05 6.9833e-05 5.10511e-07
2.36195e-07 5.10511e-07 -1.66225e-05
0.00096559 -3.81398e-06 -2.46644e-07
-3.81398e-06 9.72651e-05 -4.89543e-08
-2.46644e-07 -4.89543e-08 1.65951e-05
0.000783165 -4.00518e-05 1.00752e-07
-4.00518e-05 2.58783e-05 2.51059e-06
1.00752e-07 2.51059e-06 -6.89988e-05
0.00101999 -9.63538e-05 -1.78843e-06
-9.63538e-05 0.000137175 3.47839e-06
-1.78843e-06 3.47839e-06 2.37469e-05
0.00107141 -3.16117e-05 5.4639e-07
-3.16117e-05 0.000161723 -1.83845e-07
5.4639e-07 -1.83845e-07 7.69698e-05
0.00079858 -5.38393e-05 3.61932e-07
-5.38393e-05 3.73552e-05 -1.95207e-06
3.61932e-07 -1.95207e-06 -5.93794e-05
0.000898943 3.43598e-06 -2.56136e-07
3.43598e-06 6.75154e-05 -5.78577e-07
-2.56136e-07 -5.78577e-07 -7.78834e-06
0.000757487 1.08061e-05 3.82255e-07
1.08061e-05 -1.74925e-05 1.12649e-06
3.82255e-07 1.12649e-06 -8.28443e-05
0.000907495 1.60169e-05 -3.30013e-07
1.60169e-05 6.96178e-05 -6.67747e-07
-3.30013e-07 -6.67747e-07 -8.72306e-07
0.000890968 7.29507e-06 -1.84152e-08
7.29507e-06 5.16668e-05 3.43875e-07
-1.84152e-08 3.43875e-07 -8.2421e-06
0.000857385 2.16371e-05 -5.27073e-07
2.16371e-05 2.57278e-05 8.97604e-07
-5.27073e-07 8.97604e-07 -2.18284e-05
0.000895191 -6.29875e-06 1.79093e-07
-6.29875e-06 5.51385e-05 -5.47873e-07
1.79093e-07 -5.47873e-07 -4.22187e-06
0.000865597 3.15796e-06 -2.98187e-07
3.15796e-06 2.8688e-05 1.20426e-08
-2.98187e-07 1.20426e-08 -1.77762e-05
0.000830436 2.0319e-05 -9.28294e-07
2.0319e-05 4.19253e-06 1.70545e-06
-9.28294e-07 1.70545e-06 -2.55596e-05
0.00088424 -6.75595e-06 9.70202e-07
-6.75595e-06 3.66703e-05 -7.22171e-07
9.70202e-07 -7.22171e-07 -9.38283e-06
0.000837686 1.25436e-05 -1.45853e-07
1.25436e-05 4.24145e-06 8.21625e-10
-1.45853e-07 8.21625e-10 -2.44654e-05
0.00136032 2.17689e-05 -6.14721e-06
2.17689e-05 0.000279878 4.2955e-06
-6.14721e-06 4.2955e-06 0.000280608
0.000834594 3.98849e-06 9.43e-07
3.98849e-06 7.11539e-07 -1.63207e-06
9.43e-07 -1.63207e-06 -2.74557e-05
0.001071 1.5875e-05 -2.58281e-06
1.5875e-05 0.000121368 5.86388e-07
-2.58281e-06 5.86388e-07 0.000121317
0.000942299 1.46766e-05 -1.16654e-06
1.46766e-05 5.33699e-05 1.56934e-06
-1.16654e-06 1.56934e-06 6.94759e-05
0.000779691 9.87876e-06 4.86531e-07
9.87876e-06 -3.78673e-05 -3.10005e-06
4.86531e-07 -3.10005e-06 -3.88675e-05
0.0015382 1.19416e-05 3.97883e-06
1.19416e-05 0.000369691 -1.19805e-06
3.97883e-06 -1.19805e-06 0.000389209
0.00212908 6.93379e-06 4.61356e-06
6.93379e-06 0.000685587 -4.00445e-06
4.61356e-06 -4.00445e-06 0.000708149
0.000925206 -2.67182e-05 7.31387e-07
-2.67182e-05 6.23481e-05 -3.26085e-07
7.31387e-07 -3.26085e-07 1.7277e-05
0.000843794 -8.29559e-06 -2.65849e-07
-8.29559e-06 4.83255e-06 -1.45758e-06
-2.65849e-07 -1.45758e-06 -1.99284e-05
0.000912566 -7.81426e-06 4.39101e-07
-7.81426e-06 5.59147e-05 1.55581e-07
4.39101e-07 1.55581e-07 1.2572e-05
0.000797858 -5.58814e-06 -3.44147e-07
-5.58814e-06 -3.08408e-05 -3.02893e-06
-3.44147e-07 -3.02893e-06 -2.87477e-05
0.000848303 -5.01642e-06 -2.88813e-08
-5.01642e-06 5.26607e-06 -2.68142e-09
-2.88813e-08 -2.68142e-09 -1.84511e-05
0.00088099 -2.84466e-05 -9.21087e-07
-2.84466e-05 3.77665e-05 1.03501e-06
-9.21087e-07 1.03501e-06 -4.26715e-06
0.00201548 -5.16496e-07 -7.02055e-07
-5.16496e-07 0.000623939 -3.97907e-06
-7.02055e-07 -3.97907e-06 0.00064792
0.000793047 -3.06103e-07 -7.57048e-08
-3.06103e-07 -3.43671e-05 2.4464e-09
-7.57048e-08 2.4464e-09 -3.19816e-05
0.00084894 -1.72836e-06 4.95997e-08
-1.72836e-06 4.71432e-06 1.57332e-06
4.95997e-08 1.57332e-06 -1.87651e-05
0.000794923 5.03812e-06 -2.13046e-07
5.03812e-06 -3.28569e-05 3.09097e-06
-2.13046e-07 3.09097e-06 -3.10032e-05
0.00203224 6.64763e-06 -1.98035e-06
6.64763e-06 0.00063335 -1.47829e-08
-1.98035e-06 -1.47829e-08 0.000657063
0.00206228 1.3105e-05 -8.91426e-06
1.3105e-05 0.000650934 3.95376e-06
-8.91426e-06 3.95376e-06 0.000674075
-0.0010788 8.82936e-05 -2.6816e-05
8.82936e-05 -0.000416916 1.70676e-06
-2.6816e-05 1.70676e-06 -0.000588745
-0.00111043 0.000240776 7.90699e-06
0.000240776 -0.000391382 1.72371e-06
7.90699e-06 1.72371e-06 -0.000407686
0.00175525 4.8511e-05 -4.806e-05
4.8511e-05 -1.9798e-05 2.51616e-05
-4.806e-05 2.51616e-05 -8.25393e-05
-0.00123561 0.000265816 3.09913e-05
0.000265816 -0.000793449 -1.09274e-05
3.09913e-05 -1.09274e-05 -0.000580709
0.00202514 4.13606e-05 -8.06952e-05
4.13606e-05 0.000254521 1.18119e-06
-8.06952e-05 1.18119e-06 -6.05933e-05
0.00183947 3.16232e-05 2.82121e-05
3.16232e-05 0.000158957 -3.97468e-06
2.82121e-05 -3.97468e-06 7.38979e-05
0.00130925 -0.000105696 -4.9543e-05
-0.000105696 -0.00039102 -7.82609e-06
-4.9543e-05 -7.82609e-06 -0.000947264
0.00551951 0.000432019 7.83341e-05
0.000432019 0.00268319 -2.37056e-05
7.83341e-05 -2.37056e-05 0.00278238
-0.00165461 0.000535157 1.55613e-05
0.000535157 -0.0022468 1.79461e-05
1.55613e-05 1.79461e-05 -0.000935097
0.00132998 6.20796e-05 -3.00952e-06
6.20796e-05 -9.93458e-05 2.13958e-06
-3.00952e-06 2.13958e-06 -0.000312941
0.00230148 0.000283623 1.05806e-05
0.000283623 5.713e-05 -1.55712e-05
1.05806e-05 -1.55712e-05 -0.00105545
0.00412456 0.000644836 -5.76879e-06
0.000644836 0.00114337 -5.6297e-06
-5.76879e-06 -5.6297e-06 0.00149145
0.0020157 0.000274497 -3.19424e-06
0.000274497 -0.000643979 4.76852e-06
-3.19424e-06 4.76852e-06 7.07708e-06
0.00168875 5.23061e-06 -1.56564e-05
5.23061e-06 -0.00029501 -1.4425e-06
-1.56564e-05 -1.4425e-06 -0.000481709
0.00330896 0.000409205 6.00021e-05
0.000409205 0.000657413 -4.02255e-05
6.00021e-05 -4.02255e-05 -0.000558976
-0.00360922 0.000245552 -8.08731e-05
0.000245552 -0.0030156 2.02893e-05
-8.08731e-05 2.02893e-05 -0.00283056
0.00108532 0.000147824 -1.22943e-05
0.000147824 -0.00141272 1.80974e-05
-1.22943e-05 1.80974e-05 -0.000834856
0.000976294 -1.584e-05 1.10444e-06
-1.584e-05 0.000109056 3.99293e-07
1.10444e-06 3.99293e-07 3.25673e-05
0.000918069 3.20307e-05 -1.26666e-06
3.20307e-05 7.75306e-05 -3.57822e-07
-1.26666e-06 -3.57822e-07 9.04969e-06
0.000867917 5.88773e-06 7.36515e-07
5.88773e-06 4.35472e-05 -2.32826e-07
7.36515e-07 -2.32826e-07 -1.1733e-05
0.000918228 5.12226e-05 1.82494e-06
5.12226e-05 8.12904e-05 7.56804e-07
1.82494e-06 7.56804e-07 1.56493e-05
0.000840413 1.12995e-05 -1.75141e-07
1.12995e-05 3.61846e-05 6.84946e-07
-1.75141e-07 6.84946e-07 -3.96952e-05
0.000959401 2.96771e-05 1.55889e-07
2.96771e-05 9.99548e-05 5.28064e-07
1.55889e-07 5.28064e-07 3.14013e-05
0.000866613 -5.85648e-06 -3.00986e-07
-5.85648e-06 4.71724e-05 1.03437e-06
-3.00986e-07 1.03437e-06 -1.72293e-05
0.000972467 5.55266e-05 -7.17771e-07
5.55266e-05 0.000104317 2.57941e-07
-7.17771e-07 2.57941e-07 3.68659e-05
0.000955231 2.07765e-05 -3.61072e-07
2.07765e-05 9.47754e-05 3.37673e-07
-3.61072e-07 3.37673e-07 3.08331e-05
0.000797301 -2.24074e-05 -8.57624e-07
-2.24074e-05 9.96803e-06 -3.43614e-07
-8.57624e-07 -3.43614e-07 -5.04177e-05
0.00104636 -5.61784e-05 6.01128e-06
-5.61784e-05 -0.000308947 -2.28851e-07
6.01128e-06 -2.28851e-07 -0.000388089
0.00159687 -0.000182936 1.5717e-06
-0.000182936 7.41441e-06 3.80227e-06
1.5717e-06 3.80227e-06 -8.31178e-05
0.000815675 -0.000132431 8.96109e-06
-0.000132431 -1.0412e-05 1.83602e-07
8.96109e-06 1.83602e-07 -0.000139021
0.00101196 -7.62749e-05 5.18391e-06
-7.62749e-05 0.000133963 -1.40353e-06
5.18391e-06 -1.40353e-06 -8.66652e-06
0.00106949 -2.06248e-05 6.217e-07
-2.06248e-05 0.000162534 -1.2683e-06
6.217e-07 -1.2683e-06 5.68561e-05
0.000833501 -4.90443e-05 -6.03626e-07
-4.90443e-05 2.96438e-05 -5.98419e-07
-6.03626e-07 -5.98419e-07 -5.40474e-05
0.0008625 3.95547e-05 -8.97938e-08
3.95547e-05 4.65091e-05 -2.63276e-07
-8.97938e-08 -2.63276e-07 -3.10883e-05
0.00091453 -2.35364e-05 -3.01983e-08
-2.35364e-05 7.6608e-05 5.49857e-07
-3.01983e-08 5.49857e-07 -2.03315e-06
0.00165846 -0.000162393 -6.83693e-07
-0.000162393 0.000155931 -3.75186e-07
-6.83693e-07 -3.75186e-07 7.94309e-05
0.000967682 -1.66345e-06 -2.09761e-07
-1.66345e-06 9.87263e-05 -3.81931e-07
-2.09761e-07 -3.81931e-07 1.45603e-05
0.0010445 -3.66132e-05 -3.96325e-07
-3.66132e-05 0.000127343 -7.47684e-08
-3.96325e-07 -7.47684e-08 3.94817e-05
0.00154774 -0.000184338 1.60794e-07
-0.000184338 0.000240706 -1.34571e-06
1.60794e-07 -1.34571e-06 0.00012309
0.00109433 -2.71387e-05 -1.38423e-06
-2.71387e-05 0.000186796 9.92019e-07
-1.38423e-06 9.92019e-07 5.71273e-05
-0.000157176 -0.000196085 -8.12268e-07
-0.000196085 -0.000813411 -8.8665e-06
-8.12268e-07 -8.8665e-06 -0.000728328
0.00179615 -7.34478e-05 -4.71978e-06
-7.34478e-05 0.000574238 9.94572e-06
-4.71978e-06 9.94572e-06 0.000414589
0.000569222 1.89889e-05 -2.06072e-06
1.89889e-05 -0.000124792 5.60252e-06
-2.06072e-06 5.60252e-06 -0.000211048
0.000917667 6.84632e-06 4.09835e-07
6.84632e-06 6.34887e-05 9.01211e-07
4.09835e-07 9.01211e-07 -1.5061e-05
0.000899696 2.12409e-05 -4.99889e-07
2.12409e-05 5.09262e-05 1.20708e-06
-4.99889e-07 1.20708e-06 -3.79941e-05
0.00157039 -1.6219e-06 -8.8929e-06
-1.6219e-06 0.000145896 1.13847e-07
-8.8929e-06 1.13847e-07 3.02131e-05
2.98104e-05 -1.59548e-06 -6.65356e-06
-1.59548e-06 0.000249461 -1.0319e-06
-6.65356e-06 -1.0319e-06 9.74078e-05
-0.0050164 -5.07648e-05 5.16508e-06
-5.07648e-05 -0.00259465 4.53868e-06
5.16508e-06 4.53868e-06 -0.0024783
0.000881425 6.99213e-05 2.03288e-06
6.99213e-05 8.00823e-05 1.45419e-06
2.03288e-06 1.45419e-06 -6.73114e-06
0.000165456 2.06634e-05 4.00309e-06
2.06634e-05 -0.000173503 1.5007e-06
4.00309e-06 1.5007e-06 -0.000337727
0.0013419 8.14441e-05 8.80722e-06
8.14441e-05 0.000178817 -2.49496e-06
8.80722e-06 -2.49496e-06 8.74619e-05
-0.00123596 -5.43694e-05 1.82744e-05
-5.43694e-05 -0.00055609 2.78255e-06
1.82744e-05 2.78255e-06 -0.000739677
0.00305703 -0.000401803 1.0892e-05
-0.000401803 0.000539145 4.24364e-06
1.0892e-05 4.24364e-06 -0.000792693
0.00545911 0.000468405 8.44737e-05
0.000468405 0.00151115 -3.11176e-05
8.44737e-05 -3.11176e-05 0.00102363
5.44333e-05 6.13481e-05 -1.34648e-05
6.13481e-05 -0.000268087 1.24229e-05
-1.34648e-05 1.24229e-05 -0.000249478
0.00525495 -0.000547209 4.33748e-05
-0.000547209 0.00142501 3.92522e-05
4.33748e-05 3.92522e-05 0.00152031
0.00209414 -2.20742e-05 2.82204e-05
-2.20742e-05 0.00021703 1.39149e-05
2.82204e-05 1.39149e-05 0.000113515
0.00323195 -0.00015319 1.6991e-05
-0.00015319 0.000172035 1.38216e-05
1.6991e-05 1.38216e-05 0.0007878
0.00116671 9.47456e-05 8.47079e-07
9.47456e-05 0.000257579 -7.91133e-07
8.47079e-07 -7.91133e-07 0.000188063
0.00155241 -2.20721e-06 5.31094e-07
-2.20721e-06 0.000117341 -3.39572e-06
5.31094e-07 -3.39572e-06 9.82365e-06
0.0015589 -7.86118e-06 -2.03343e-06
-7.86118e-06 7.41049e-05 -1.61763e-06
-2.03343e-06 -1.61763e-06 1.56691e-05
6.73801e-05 1.82358e-05 1.40217e-06
1.82358e-05 -0.000119114 3.2124e-07
1.40217e-06 3.2124e-07 -0.00023195
0.00324532 0.000344261 -2.55945e-05
0.000344261 0.000870978 -2.34727e-05
-2.55945e-05 -2.34727e-05 0.000566547
0.00441094 9.58776e-05 3.59784e-05
9.58776e-05 0.000793994 1.03673e-05
3.59784e-05 1.03673e-05 -0.000730603
0.00245302 1.55191e-05 1.09664e-06
1.55191e-05 -0.000514387 -7.98601e-06
1.09664e-06 -7.98601e-06 0.000130456
0.000880325 -0.000216428 -9.20569e-06
-0.000216428 -0.000685337 1.95416e-05
-9.20569e-06 1.95416e-05 -0.000774254
0.00112182 4.54315e-05 -2.75625e-06
4.54315e-05 0.000307995 -9.43053e-06
-2.75625e-06 -9.43053e-06 0.000270319
0.000966751 2.16281e-06 2.19083e-06
2.16281e-06 6.80602e-05 4.49568e-06
2.19083e-06 4.49568e-06 1.28297e-05
0.00170789 1.63378e-06 -3.37979e-06
1.63378e-06 0.000225668 -9.51293e-06
-3.37979e-06 -9.51293e-06 0.00014899
0.00109363 0.000135341 1.15697e-05
0.000135341 -0.00131652 -1.87494e-05
1.15697e-05 -1.87494e-05 -0.000805378
-0.00131902 6.73761e-05 9.55392e-06
6.73761e-05 -0.000669357 -6.85209e-06
9.55392e-06 -6.85209e-06 -0.00088863
0.0074574 -6.65715e-06 4.83455e-05
-6.65715e-06 0.00218437 1.24934e-05
4.83455e-05 1.24934e-05 0.000927985
-0.00107336 -3.50179e-05 1.37151e-05
-3.50179e-05 -0.000925331 -5.22708e-05
1.37151e-05 -5.22708e-05 -0.000990174
0.00119216 8.80977e-05 2.09141e-06
8.80977e-05 0.000221396 3.34684e-06
2.09141e-06 3.34684e-06 0.000151071
0.000715826 5.81351e-05 -8.98172e-07
5.81351e-05 -2.1758e-05 1.74133e-06
-8.98172e-07 1.74133e-06 -8.41562e-05
0.000494078 1.87861e-05 -3.79074e-07
1.87861e-05 -9.30846e-05 -3.13799e-06
-3.79074e-07 -3.13799e-06 -0.000151961
0.000958881 6.46225e-05 -3.64451e-07
6.46225e-05 7.93979e-05 -2.02489e-07
-3.64451e-07 -2.02489e-07 1.2988e-05
0.000927836 1.62362e-06 -5.87715e-07
1.62362e-06 5.76645e-05 -1.20373e-07
-5.87715e-07 -1.20373e-07 -7.78459e-06
0.000804252 -2.99475e-05 -1.63389e-06
-2.99475e-05 4.09577e-06 2.36046e-06
-1.63389e-06 2.36046e-06 -6.39437e-05
0.000943568 3.93583e-05 1.59653e-07
3.93583e-05 6.83922e-05 2.47227e-08
1.59653e-07 2.47227e-08 1.10912e-06
0.000888439 -4.92469e-05 2.36008e-08
-4.92469e-05 2.98093e-05 -3.7427e-07
2.36008e-08 -3.7427e-07 -3.37739e-05
0.00102049 -5.6096e-05 2.02369e-06
-5.6096e-05 0.000117316 1.41746e-06
2.02369e-06 1.41746e-06 5.67053e-05
0.000753453 -1.45165e-05 8.72797e-07
-1.45165e-05 -2.39974e-06 1.15783e-06
8.72797e-07 1.15783e-06 -4.85937e-05
0.000934218 -6.18315e-06 5.70686e-07
-6.18315e-06 4.81567e-05 -1.21935e-07
5.70686e-07 -1.21935e-07 -1.48163e-05
0.000943783 3.44831e-05 -6.53385e-07
3.44831e-05 6.99092e-05 -1.60287e-07
-6.53385e-07 -1.60287e-07 3.56687e-06
0.000892952 3.84988e-05 -2.01211e-07
3.84988e-05 5.83782e-05 -3.53156e-07
-2.01211e-07 -3.53156e-07 -8.33514e-06
0.000899016 4.14502e-05 -7.15087e-07
4.14502e-05 4.9486e-05 -7.41296e-07
-7.15087e-07 -7.41296e-07 -1.77714e-05
0.00092143 2.13712e-05 8.76482e-08
2.13712e-05 5.38359e-05 2.37044e-07
8.76482e-08 2.37044e-07 -1.23702e-05
0.000936972 2.13415e-05 5.85656e-07
2.13415e-05 7.56654e-05 3.24941e-07
5.85656e-07 3.24941e-07 5.02058e-06
0.000827116 -3.68681e-05 4.1963e-07
-3.68681e-05 4.20759e-05 1.18294e-06
4.1963e-07 1.18294e-06 -3.39481e-05
0.000849921 -2.79767e-05 -1.55025e-07
-2.79767e-05 5.0197e-05 -7.57581e-07
-1.55025e-07 -7.57581e-07 -3.32011e-05
0.000760066 -4.90657e-05 1.21341e-06
-4.90657e-05 2.23667e-05 1.73349e-06
1.21341e-06 1.73349e-06 -8.97888e-05
0.00105471 -1.11057e-05 -7.91445e-07
-1.11057e-05 0.000143863 -1.05232e-06
-7.91445e-07 -1.05232e-06 6.33142e-05
0.00102955 -5.27211e-05 -3.16011e-07
-5.27211e-05 0.000148475 7.8508e-07
-3.16011e-07 7.8508e-07 5.22157e-05
0.00058151 -7.84424e-05 -1.51595e-06
-7.84424e-05 -8.86049e-05 3.27283e-06
-1.51595e-06 3.27283e-06 -0.000210103
0.000929702 -9.27248e-05 -3.1589e-06
-9.27248e-05 9.25512e-05 8.58558e-07
-3.1589e-06 8.58558e-07 -2.34604e-05
0.000972031 -6.77229e-05 -9.1674e-07
-6.77229e-05 0.000114771 1.51346e-06
-9.1674e-07 1.51346e-06 2.01801e-05
0.000899459 -9.00213e-05 8.0462e-08
-9.00213e-05 7.74067e-05 2.27877e-07
8.0462e-08 2.27877e-07 -3.57399e-05
0.000915723 -6.57736e-06 2.28624e-07
-6.57736e-06 6.80227e-05 1.20429e-06
2.28624e-07 1.20429e-06 -3.35065e-06
0.000997652 -3.36042e-05 -5.54061e-07
-3.36042e-05 0.000122602 -5.26666e-07
-5.54061e-07 -5.26666e-07 3.66256e-05
0.000799028 -5.62581e-05 7.11634e-07
-5.62581e-05 3.89684e-05 -3.30022e-06
7.11634e-07 -3.30022e-06 -5.54477e-05
0.00106947 2.72167e-06 -7.28663e-07
2.72167e-06 0.000157105 -1.56925e-06
-7.28663e-07 -1.56925e-06 8.30465e-05
0.000836911 1.02522e-05 6.23191e-08
1.02522e-05 2.4368e-05 -2.29348e-08
6.23191e-08 -2.29348e-08 -3.99167e-05
0.000858554 2.88996e-05 -2.38247e-07
2.88996e-05 2.86656e-05 1.09376e-06
-2.38247e-07 1.09376e-06 -2.21775e-05
0.000907121 1.20949e-06 1.33409e-07
1.20949e-06 6.11815e-05 -4.42351e-07
1.33409e-07 -4.42351e-07 4.80973e-07
0.000865747 1.38356e-05 -3.43127e-07
1.38356e-05 3.03655e-05 -6.13825e-08
-3.43127e-07 -6.13825e-08 -1.73569e-05
0.000822942 2.46441e-05 -1.12279e-06
2.46441e-05 4.26561e-06 1.73694e-06
-1.12279e-06 1.73694e-06 -2.68684e-05
0.000874074 -4.63581e-06 8.40106e-07
-4.63581e-06 3.30185e-05 -8.33275e-07
8.40106e-07 -8.33275e-07 -1.35404e-05
0.000831779 1.92023e-05 -8.90156e-08
1.92023e-05 4.38513e-06 9.60568e-10
-8.90156e-08 9.60568e-10 -2.52631e-05
0.00133017 2.717e-05 -6.94394e-06
2.717e-05 0.000269489 3.0871e-06
-6.94394e-06 3.0871e-06 0.000269082
0.000837113 8.8122e-06 1.03751e-06
8.8122e-06 3.53727e-06 -1.64669e-06
1.03751e-06 -1.64669e-06 -2.50414e-05
0.00106697 2.10004e-05 -3.19786e-06
2.10004e-05 0.000123028 5.54992e-07
-3.19786e-06 5.54992e-07 0.000122241
0.000933626 1.96347e-05 -1.71753e-06
1.96347e-05 5.33178e-05 1.58261e-06
-1.71753e-06 1.58261e-06 6.85451e-05
0.000778527 1.46925e-05 7.59788e-07
1.46925e-05 -3.58057e-05 -3.1416e-06
7.59788e-07 -3.1416e-06 -3.72576e-05
0.00153293 1.79598e-05 5.29689e-06
1.79598e-05 0.000369984 -1.14418e-06
5.29689e-06 -1.14418e-06 0.00038896
0.00212447 1.38846e-05 8.03711e-06
1.38846e-05 0.000685116 -3.93846e-06
8.03711e-06 -3.93846e-06 0.000707352
0.000722989 -1.44244e-06 -2.50448e-07
-1.44244e-06 -4.07463e-05 -1.01772e-06
-2.50448e-07 -1.01772e-06 -9.31967e-05
0.000618226 -1.25741e-05 -2.13847e-07
-1.25741e-05 -0.000111486 -1.82767e-06
-2.13847e-07 -1.82767e-06 -0.000139914
0.00094667 -1.21746e-05 5.40904e-10
-1.21746e-05 7.51397e-05 3.22087e-08
5.40904e-10 3.22087e-08 2.89084e-05
0.000799078 -1.05762e-05 -4.40758e-07
-1.05762e-05 -2.77495e-05 -3.02378e-06
-4.40758e-07 -3.02378e-06 -2.67893e-05
0.00072616 -8.71683e-06 4.21516e-08
-8.71683e-06 -5.72377e-05 1.6717e-08
4.21516e-08 1.6717e-08 -8.28946e-05
0.000720899 -3.6488e-05 7.83394e-08
-3.6488e-05 -4.4346e-05 6.55291e-07
7.83394e-08 6.55291e-07 -8.93575e-05
0.00201877 -7.18805e-06 -4.57073e-06
-7.18805e-06 0.000626707 -3.96374e-06
-4.57073e-06 -3.96374e-06 0.000650438
0.000792447 -5.38688e-06 -1.49421e-07
-5.38688e-06 -3.37919e-05 -6.18498e-09
-1.49421e-07 -6.18498e-09 -3.16524e-05
0.000848344 -5.64716e-06 6.44415e-08
-5.64716e-06 5.27542e-06 1.53595e-06
6.44415e-08 1.53595e-06 -1.84418e-05
0.00201531 -1.19649e-07 -1.93381e-06
-1.19649e-07 0.000623837 -7.5966e-10
-1.93381e-06 -7.5966e-10 0.000647813
0.000793512 -6.92221e-08 4.8643e-08
-6.92221e-08 -3.41576e-05 3.07008e-06
4.8643e-08 3.07008e-06 -3.17798e-05
0.0020362 7.02626e-06 -4.46324e-06
7.02626e-06 0.000635649 4.00165e-06
-4.46324e-06 4.00165e-06 0.000659279
0.00103089 1.08376e-05 -2.49423e-05
1.08376e-05 -0.000183468 7.33863e-06
-2.49423e-05 7.33863e-06 -0.000307438
0.00113218 0.000131163 1.23143e-06
0.000131163 0.000732861 -2.94812e-06
1.23143e-06 -2.94812e-06 0.000737811
0.000529975 6.17559e-06 5.67137e-05
6.17559e-06 0.000386762 -1.31324e-05
5.67137e-05 -1.31324e-05 0.00023094
0.000897917 1.78515e-05 -4.07262e-08
1.78515e-05 5.80795e-05 1.17735e-07
-4.07262e-08 1.17735e-07 -9.84693e-06
0.00158935 2.70122e-05 -5.00859e-06
2.70122e-05 0.000113425 1.39539e-05
-5.00859e-06 1.39539e-05 6.33281e-05
0.00150466 4.05991e-05 -1.45506e-05
4.05991e-05 -0.000168268 4.96135e-06
-1.45506e-05 4.96135e-06 -0.000259497
0.00125874 0.000309847 5.06428e-05
0.000309847 0.000416932 -2.71231e-05
5.06428e-05 -2.71231e-05 0.000823176
0.00318615 5.73103e-05 -3.40701e-05
5.73103e-05 0.000632455 6.87904e-06
-3.40701e-05 6.87904e-06 0.0003946
0.00881319 0.00053796 1.7563e-05
0.00053796 0.00310481 -1.13123e-05
1.7563e-05 -1.13123e-05 0.00215084
-0.00236112 0.000407502 4.58881e-05
0.000407502 -0.00195227 -1.09935e-05
4.58881e-05 -1.09935e-05 -0.00149821
0.00289524 0.000288017 3.04133e-05
0.000288017 -5.61758e-05 -2.3725e-05
3.04133e-05 -2.3725e-05 0.000558403
0.0021653 -3.6218e-06 -4.42036e-05
-3.6218e-06 -0.000336966 4.03414e-06
-4.42036e-05 4.03414e-06 -0.000687613
0.00688031 0.000387168 3.45031e-05
0.000387168 0.00240036 -1.31534e-05
3.45031e-05 -1.31534e-05 0.00124525
0.00360456 0.000431418 -4.68257e-06
0.000431418 0.000165627 3.43953e-06
-4.68257e-06 3.43953e-06 0.000285623
0.00294649 0.000164235 -4.05303e-06
0.000164235 -0.000341011 2.22442e-06
-4.05303e-06 2.22442e-06 0.000268759
0.00432475 -0.000191485 5.61092e-05
-0.000191485 0.000698743 -2.87259e-05
5.61092e-05 -2.87259e-05 0.000215654
0.00677976 0.000410572 2.6507e-05
0.000410572 0.00224722 -8.73834e-06
2.6507e-05 -8.73834e-06 0.000642522
0.00239052 0.00028885 1.15065e-05
0.00028885 -0.000314069 4.41309e-05
1.15065e-05 4.41309e-05 -0.000366238
0.00393545 4.78672e-05 -4.60568e-07
4.78672e-05 0.000334674 1.30018e-05
-4.60568e-07 1.30018e-05 0.000996262
0.000915625 -1.8428e-05 4.91769e-07
-1.8428e-05 7.13181e-05 5.04114e-07
4.91769e-07 5.04114e-07 -8.3524e-06
0.000940874 -2.98821e-05 4.69978e-07
-2.98821e-05 9.21332e-05 1.12177e-08
4.69978e-07 1.12177e-08 1.43085e-05
0.000971279 3.97062e-05 -9.09129e-07
3.97062e-05 0.000107235 -5.11048e-08
-9.09129e-07 -5.11048e-08 3.85786e-05
0.000910936 -1.06862e-05 -2.09264e-07
-1.06862e-05 6.43802e-05 -1.02455e-08
-2.09264e-07 -1.02455e-08 -7.51413e-06
0.000934221 3.86736e-05 -5.21721e-07
3.86736e-05 8.62413e-05 3.40783e-07
-5.21721e-07 3.40783e-07 1.15463e-05
0.000987112 1.58994e-05 5.57637e-07
1.58994e-05 0.000116031 8.42517e-07
5.57637e-07 8.42517e-07 4.72197e-05
0.00102683 5.09266e-05 -4.79816e-07
5.09266e-05 0.000131717 1.187e-07
-4.79816e-07 1.187e-07 6.50322e-05
0.00106333 5.66752e-05 6.77502e-07
5.66752e-05 0.000154265 7.97197e-07
6.77502e-07 7.97197e-07 8.94067e-05
0.000610461 -0.000125587 1.99161e-05
-0.000125587 -0.000375675 -7.37937e-06
1.99161e-05 -7.37937e-06 -0.000429265
0.00104829 -0.000160168 5.3914e-06
-0.000160168 -2.33881e-06 -1.73421e-06
5.3914e-06 -1.73421e-06 -0.00012095
0.000929176 -9.26971e-05 -2.00623e-06
-9.26971e-05 9.00481e-05 -1.77237e-07
-2.00623e-06 -1.77237e-07 7.49535e-06
0.00146287 -4.89872e-05 2.55515e-06
-4.89872e-05 0.000361441 -2.50309e-06
2.55515e-06 -2.50309e-06 0.000235775
0.00106283 -4.50089e-05 -1.0514e-06
-4.50089e-05 0.000136372 -1.17684e-06
-1.0514e-06 -1.17684e-06 4.77004e-05
0.00106061 -1.34397e-05 -9.63583e-07
-1.34397e-05 0.000143745 -5.9732e-07
-9.63583e-07 -5.9732e-07 6.30953e-05
0.000984704 1.14498e-05 2.44023e-08
1.14498e-05 0.000102897 -9.21831e-08
2.44023e-08 -9.21831e-08 2.23182e-05
0.00131031 -0.000254698 -5.64849e-06
-0.000254698 -7.77894e-05 3.85651e-07
-5.64849e-06 3.85651e-07 -3.7639e-05
0.000990456 1.0813e-05 1.22374e-07
1.0813e-05 0.000104146 -5.74367e-07
1.22374e-07 -5.74367e-07 1.41243e-05
0.001061 -2.33991e-05 -9.33953e-07
-2.33991e-05 0.000132862 1.24287e-07
-9.33953e-07 1.24287e-07 3.99058e-05
0.000972612 -6.29139e-05 -3.54426e-07
-6.29139e-05 0.000144226 1.65429e-06
-3.54426e-07 1.65429e-06 -9.96526e-06
0.00107241 -2.43932e-06 1.5504e-07
-2.43932e-06 0.00013901 1.04871e-06
1.5504e-07 1.04871e-06 6.45587e-05
-0.00193841 -0.000223203 7.09453e-06
-0.000223203 -0.00144447 -9.45216e-06
7.09453e-06 -9.45216e-06 -0.00139267
0.00156092 2.14317e-05 -7.72357e-06
2.14317e-05 0.000585344 1.44452e-05
-7.72357e-06 1.44452e-05 0.000433867
0.000541579 3.36129e-06 -8.27891e-07
3.36129e-06 -0.000150652 3.84921e-06
-8.27891e-07 3.84921e-06 -0.000226594
0.000994188 7.76128e-05 5.22392e-07
7.76128e-05 0.000105013 1.51501e-06
5.22392e-07 1.51501e-06 2.14398e-05
0.00129112 -2.33355e-08 8.984e-06
-2.33355e-08 0.000311974 1.33011e-06
8.984e-06 1.33011e-06 0.000243688
0.00136347 -6.03112e-06 1.25226e-05
-6.03112e-06 4.69848e-05 5.67711e-07
1.25226e-05 5.67711e-07 -7.18024e-05
-0.00108681 -3.45291e-06 1.79239e-05
-3.45291e-06 -0.00033786 -3.13287e-07
1.79239e-05 -3.13287e-07 -0.00055214
0.000864436 7.81232e-05 5.31506e-06
7.81232e-05 0.000106347 2.98219e-06
5.31506e-06 2.98219e-06 3.80248e-05
-0.000165023 3.1607e-05 -5.20071e-07
3.1607e-05 -0.000219627 6.96399e-06
-5.20071e-07 6.96399e-06 -0.000337416
0.00136218 -2.03949e-06 1.87152e-05
-2.03949e-06 3.11446e-05 -9.69299e-07
1.87152e-05 -9.69299e-07 -5.55773e-05
0.00575606 -0.000480484 6.07049e-05
-0.000480484 0.00164565 2.14141e-05
6.07049e-05 2.14141e-05 0.000210646
0.00547455 0.000458459 -2.68058e-05
0.000458459 0.0017312 -6.89782e-05
-2.68058e-05 -6.89782e-05 0.00110765
0.00318222 -0.000324767 1.05642e-05
-0.000324767 0.000104505 6.96311e-05
1.05642e-05 6.96311e-05 2.21301e-05
0.00181147 -9.90656e-06 -1.11237e-06
-9.90656e-06 0.000222769 1.25182e-05
-1.11237e-06 1.25182e-05 0.000166083
0.00109045 1.40712e-05 7.05004e-07
1.40712e-05 -0.00142972 4.48391e-06
7.05004e-07 4.48391e-06 -0.000760039
0.000903326 6.18959e-05 6.56921e-07
6.18959e-05 0.00018896 1.91193e-07
6.56921e-07 1.91193e-07 0.000142122
0.000985089 2.25436e-06 -1.08738e-06
2.25436e-06 8.13112e-05 3.01811e-07
-1.08738e-06 3.01811e-07 2.72514e-05
0.00135646 1.21531e-06 -1.68549e-06
1.21531e-06 8.06526e-05 8.77475e-07
-1.68549e-06 8.77475e-07 1.13459e-05
-0.000514387 7.58656e-05 5.39006e-07
7.58656e-05 -0.000191683 -1.27831e-06
5.39006e-07 -1.27831e-06 -0.000336427
0.00293113 0.000157357 3.67217e-06
0.000157357 -0.00027843 -2.55877e-06
3.67217e-06 -2.55877e-06 0.000287712
0.00521102 0.000260394 3.8847e-05
0.000260394 0.000913029 1.54308e-06
3.8847e-05 1.54308e-06 -0.000190993
0.00320116 0.000120665 -4.72678e-05
0.000120665 0.00068802 -3.86998e-06
-4.72678e-05 -3.86998e-06 0.000547809
-0.000581132 3.60592e-05 2.43965e-06
3.60592e-05 -0.000373507 -1.20412e-05
2.43965e-06 -1.20412e-05 -0.00045312
0.00117515 1.33696e-06 -3.75879e-06
1.33696e-06 0.000271673 9.25825e-06
-3.75879e-06 9.25825e-06 0.000202645
0.00159752 1.96507e-05 7.85376e-06
1.96507e-05 0.000120721 -1.33131e-05
7.85376e-06 -1.33131e-05 5.91883e-05
0.0029554 0.00028373 4.03501e-05
0.00028373 -8.21474e-05 -2.30047e-05
4.03501e-05 -2.30047e-05 0.000602891
0.00205604 0.000332459 -1.06826e-05
0.000332459 -0.000416238 -5.13938e-05
-1.06826e-05 -5.13938e-05 -0.00044983
0.00145932 0.000228121 1.714e-05
0.000228121 0.000285602 -1.14469e-05
1.714e-05 -1.14469e-05 0.000330234
0.00270808 -0.000185717 9.35421e-05
-0.000185717 0.00041325 8.3639e-06
9.35421e-05 8.3639e-06 -0.000946729
0.000856602 7.64294e-05 -8.61628e-07
7.64294e-05 4.66133e-05 6.27186e-06
-8.61628e-07 6.27186e-06 -1.92569e-05
0.000935102 1.41344e-05 1.24155e-06
1.41344e-05 0.000125562 2.58009e-06
1.24155e-06 2.58009e-06 7.16688e-05
0.000258059 -3.61769e-05 6.91814e-06
-3.61769e-05 -6.94958e-05 -5.05991e-06
6.91814e-06 -5.05991e-06 -0.000168012
0.00100321 1.81759e-05 -6.83894e-07
1.81759e-05 9.63079e-05 -1.88055e-07
-6.83894e-07 -1.88055e-07 3.10716e-05
0.000826118 -5.26731e-05 -1.13026e-06
-5.26731e-05 -1.05078e-06 3.11184e-07
-1.13026e-06 3.11184e-07 -6.55191e-05
0.000967728 -5.46236e-05 -1.30422e-06
-5.46236e-05 8.30971e-05 1.35231e-06
-1.30422e-06 1.35231e-06 1.99624e-05
0.000958882 -1.92812e-05 -5.84913e-08
-1.92812e-05 6.53806e-05 -2.56365e-07
-5.84913e-08 -2.56365e-07 1.14763e-06
0.000742436 -2.07106e-05 -8.65196e-07
-2.07106e-05 -2.20216e-05 1.68392e-06
-8.65196e-07 1.68392e-06 -6.60362e-05
0.000727299 -4.40493e-05 1.57515e-06
-4.40493e-05 3.39854e-05 -3.24404e-07
1.57515e-06 -3.24404e-07 -6.50803e-05
0.000912346 1.28234e-05 -3.23065e-07
1.28234e-05 4.94978e-05 -1.04905e-07
-3.23065e-07 -1.04905e-07 -1.70211e-05
0.00100314 3.34604e-05 -2.85182e-07
3.34604e-05 0.000109263 -1.21018e-07
-2.85182e-07 -1.21018e-07 3.90558e-05
0.00101042 -3.38767e-05 3.59086e-07
-3.38767e-05 0.000130525 3.69105e-07
3.59086e-07 3.69105e-07 5.27307e-05
0.000660241 -4.9301e-05 2.24973e-06
-4.9301e-05 1.60024e-05 2.0444e-06
2.24973e-06 2.0444e-06 -0.000106224
0.000807842 -1.208e-05 -2.49444e-06
-1.208e-05 2.9659e-05 -1.26589e-06
-2.49444e-06 -1.26589e-06 -5.09837e-05
0.000682536 -5.41791e-05 2.49008e-07
-5.41791e-05 -1.30242e-05 -1.59872e-07
2.49008e-07 -1.59872e-07 -0.000121081
0.001033 -0.000107158 9.63181e-07
-0.000107158 0.000155864 1.69906e-06
9.63181e-07 1.69906e-06 1.40526e-05
0.00113846 -0.000111158 -4.13094e-06
-0.000111158 0.000157216 2.97864e-06
-4.13094e-06 2.97864e-06 2.45216e-05
0.00128208 -6.66153e-05 -4.99156e-07
-6.66153e-05 0.000274278 -1.37778e-06
-4.99156e-07 -1.37778e-06 0.000176511
0.000779459 -8.83702e-05 -6.80102e-07
-8.83702e-05 8.02761e-06 4.39595e-07
-6.80102e-07 4.39595e-07 -0.000117041
0.00136319 -0.000115488 -5.50197e-07
-0.000115488 0.000310512 -2.64004e-07
-5.50197e-07 -2.64004e-07 0.000198952
0.000686436 -6.90215e-05 -1.50292e-06
-6.90215e-05 -2.42561e-05 6.04537e-07
-1.50292e-06 6.04537e-07 -0.000126718
0.000942748 -9.30157e-05 2.55615e-07
-9.30157e-05 9.87762e-05 -3.91577e-07
2.55615e-07 -3.91577e-07 -1.50453e-05
0.000939691 -1.32296e-05 -5.20872e-07
-1.32296e-05 8.31501e-05 9.81317e-07
-5.20872e-07 9.81317e-07 6.36116e-06
0.0010311 -6.83834e-05 -1.09334e-06
-6.83834e-05 0.000143649 9.13861e-07
-1.09334e-06 9.13861e-07 4.88647e-05
0.000775997 -8.35712e-05 2.96443e-07
-8.35712e-05 1.60403e-05 -1.99563e-06
2.96443e-07 -1.99563e-06 -9.68093e-05
0.00087549 2.6284e-05 -2.21143e-07
2.6284e-05 4.02728e-05 1.24055e-06
-2.21143e-07 1.24055e-06 -1.5725e-05
0.000837183 -4.94011e-06 4.21665e-07
-4.94011e-06 2.67084e-05 5.62113e-08
4.21665e-07 5.62113e-08 -4.48996e-05
0.0009266 -3.55212e-05 9.311e-07
-3.55212e-05 8.48665e-05 -2.01228e-06
9.311e-07 -2.01228e-06 -2.34514e-06
0.000914041 8.30909e-06 -1.72615e-08
8.30909e-06 6.50108e-05 -1.04091e-06
-1.72615e-08 -1.04091e-06 1.79648e-06
0.00086325 2.13754e-05 -1.68548e-07
2.13754e-05 3.08731e-05 -1.04265e-07
-1.68548e-07 -1.04265e-07 -1.9823e-05
0.000817461 3.02143e-05 -1.16317e-06
3.02143e-05 6.22056e-06 1.76495e-06
-1.16317e-06 1.76495e-06 -2.71311e-05
0.000867814 5.62534e-06 5.26263e-07
5.62534e-06 3.15968e-05 -1.0301e-06
5.26263e-07 -1.0301e-06 -1.6199e-05
0.000824365 2.5588e-05 -9.6838e-09
2.5588e-05 4.78763e-06 -5.60162e-09
-9.6838e-09 -5.60162e-09 -2.63794e-05
0.000746551 2.77358e-05 -1.50316e-06
2.77358e-05 -3.72131e-05 3.30978e-06
-1.50316e-06 3.30978e-06 -4.21812e-05
0.000834231 1.75663e-05 9.69042e-07
1.75663e-05 5.14424e-06 -1.68867e-06
9.69042e-07 -1.68867e-06 -2.43851e-05
0.000765627 2.38469e-05 1.34641e-07
2.38469e-05 -3.3327e-05 1.35004e-08
1.34641e-07 1.35004e-08 -3.67514e-05
0.00206179 3.64071e-05 -4.83335e-06
3.64071e-05 0.000664109 1.54134e-06
-4.83335e-06 1.54134e-06 0.000683745
0.000777643 1.94683e-05 1.02689e-06
1.94683e-05 -3.24143e-05 -3.17881e-06
1.02689e-06 -3.17881e-06 -3.46343e-05
0.00152617 2.37842e-05 6.49112e-06
2.37842e-05 0.000370658 -1.08237e-06
6.49112e-06 -1.08237e-06 0.000388826
0.00211761 2.06492e-05 1.13468e-05
2.06492e-05 0.000684652 -3.85096e-06
1.13468e-05 -3.85096e-06 0.000706329
0.000745046 -2.16591e-05 9.85352e-08
-2.16591e-05 -3.46192e-05 -8.75153e-07
9.85352e-08 -8.75153e-07 -8.68135e-05
0.000588848 -1.58385e-05 -2.5835e-07
-1.58385e-05 -0.000123873 -1.88049e-06
-2.5835e-07 -1.88049e-06 -0.000155425
0.000842382 -3.27303e-06 -2.31605e-07
-3.27303e-06 2.18005e-05 -5.49959e-07
-2.31605e-07 -5.49959e-07 -2.99147e-05
0.000794957 -1.55664e-05 -5.26128e-07
-1.55664e-05 -2.61837e-05 -3.06567e-06
-5.26128e-07 -3.06567e-06 -2.70532e-05
0.000602665 -1.26372e-05 2.76624e-08
-1.26372e-05 -0.000119543 -5.72123e-07
2.76624e-08 -5.72123e-07 -0.000148274
0.000961374 -9.77344e-07 -1.7112e-07
-9.77344e-07 8.48489e-05 4.5603e-07
-1.7112e-07 4.5603e-07 3.71427e-05
0.00204689 -1.39705e-05 -8.04233e-06
-1.39705e-05 0.000644085 -3.95734e-06
-8.04233e-06 -3.95734e-06 0.000667053
0.000788657 -1.03631e-05 -1.08857e-07
-1.03631e-05 -3.3367e-05 -1.93366e-08
-1.08857e-07 -1.93366e-08 -3.23147e-05
0.000603633 -8.96522e-06 1.34242e-07
-8.96522e-06 -0.000121815 1.39787e-06
1.34242e-07 1.39787e-06 -0.000148359
0.00201692 -6.83781e-06 -2.05543e-06
-6.83781e-06 0.000625529 1.48199e-08
-2.05543e-06 1.48199e-08 0.00064932
0.000787736 -5.191e-06 1.68195e-07
-5.191e-06 -3.63534e-05 3.04148e-06
1.68195e-07 3.04148e-06 -3.41746e-05
0.00201655 2.81171e-07 -6.31186e-07
2.81171e-07 0.000624487 3.9949e-06
-6.31186e-07 3.9949e-06 0.000648445
0.00108565 4.00165e-06 4.04422e-06
4.00165e-06 0.000109002 -1.11777e-06
4.04422e-06 -1.11777e-06 4.15441e-05
0.00115438 6.71032e-06 -1.22447e-06
6.71032e-06 -0.0001068 6.32665e-07
-1.22447e-06 6.32665e-07 -0.000226876
0.000994369 0.000101864 3.64574e-05
0.000101864 0.000737283 -6.77378e-06
3.64574e-05 -6.77378e-06 0.0007001
0.000925809 1.75633e-05 1.3014e-07
1.75633e-05 7.08663e-05 6.41696e-08
1.3014e-07 6.41696e-08 4.97146e-06
0.000849179 -4.59013e-06 6.3511e-08
-4.59013e-06 2.55758e-05 3.59623e-08
6.3511e-08 3.59623e-08 -4.04095e-05
0.000985232 2.94198e-05 -3.56286e-07
2.94198e-05 0.000106739 7.39722e-07
-3.56286e-07 7.39722e-07 3.41953e-05
0.00170748 1.51796e-05 3.98199e-06
1.51796e-05 0.000231854 1.87091e-05
3.98199e-06 1.87091e-05 0.000160246
0.00136976 2.38514e-05 -3.91046e-06
2.38514e-05 -2.81538e-05 2.65559e-06
-3.91046e-06 2.65559e-06 -8.36195e-05
0.00121282 3.36699e-05 1.95974e-05
3.36699e-05 -0.000335629 -1.92851e-05
1.95974e-05 -1.92851e-05 -0.000464902
0.00355716 -2.8066e-05 -4.32805e-05
-2.8066e-05 0.000426312 1.4678e-05
-4.32805e-05 1.4678e-05 0.000163301
0.00119414 0.000316112 -1.00112e-05
0.000316112 -0.000129655 7.90146e-06
-1.00112e-05 7.90146e-06 -0.00139505
0.00474349 0.000522948 5.71099e-05
0.000522948 0.00104651 -2.3683e-05
5.71099e-05 -2.3683e-05 0.00110041
0.0017558 0.000126301 7.23617e-06
0.000126301 -0.00110132 -1.72342e-05
7.23617e-06 -1.72342e-05 -0.000473051
0.00279025 -0.000156366 -8.93838e-06
-0.000156366 0.000114185 5.29638e-06
-8.93838e-06 5.29638e-06 -6.21609e-05
0.00548095 0.000201543 3.38927e-05
0.000201543 0.00158685 -3.05422e-05
3.38927e-05 -3.05422e-05 0.000173627
0.000849448 8.28763e-05 -9.39529e-06
8.28763e-05 -0.000641594 7.29044e-06
-9.39529e-06 7.29044e-06 -0.000651526
0.00260039 3.32227e-05 -1.14245e-06
3.32227e-05 -0.000504017 1.06634e-06
-1.14245e-06 1.06634e-06 0.00017401
0.0054867 -0.000467393 1.02647e-05
-0.000467393 0.00138211 -6.23722e-05
1.02647e-05 -6.23722e-05 0.00110666
0.00783154 0.000203436 4.9569e-05
0.000203436 0.00286941 -2.1079e-05
4.9569e-05 -2.1079e-05 0.00133016
-0.000649672 5.76923e-05 1.616e-05
5.76923e-05 -0.000815353 4.27096e-05
1.616e-05 4.27096e-05 -0.000964662
0.000578914 -0.000103472 6.31399e-06
-0.000103472 -0.00162394 7.39446e-06
6.31399e-06 7.39446e-06 -0.00102048
0.000966824 -1.26404e-06 7.25454e-08
-1.26404e-06 8.99718e-05 9.29542e-07
7.25454e-08 9.29542e-07 1.20774e-05
0.000908153 -1.14688e-05 1.18172e-08
-1.14688e-05 6.93079e-05 -1.46003e-07
1.18172e-08 -1.46003e-07 -1.17626e-05
0.000918664 -3.78541e-05 -3.19304e-07
-3.78541e-05 8.08066e-05 -3.20543e-07
-3.19304e-07 -3.20543e-07 2.45148e-06
0.000914362 9.25982e-06 -3.00242e-07
9.25982e-06 6.66254e-05 -4.08259e-07
-3.00242e-07 -4.08259e-07 -5.62786e-06
0.00103241 7.20738e-05 1.17115e-06
7.20738e-05 0.000138384 4.08241e-08
1.17115e-06 4.08241e-08 6.50034e-05
0.00107565 5.49381e-05 -4.92229e-08
5.49381e-05 0.000158465 1.76267e-07
-4.92229e-08 1.76267e-07 9.10289e-05
0.00271221 -0.000305786 9.81237e-06
-0.000305786 0.000648601 -4.15592e-06
9.81237e-06 -4.15592e-06 0.000625353
-0.000278554 -4.1173e-05 6.55315e-06
-4.1173e-05 -0.00048442 -3.70874e-06
6.55315e-06 -3.70874e-06 -0.000645326
0.00107147 3.74565e-05 1.56137e-07
3.74565e-05 0.000153414 -7.00204e-07
1.56137e-07 -7.00204e-07 7.04836e-05
0.00130565 -6.478e-05 2.05714e-06
-6.478e-05 0.00025952 -5.56028e-06
2.05714e-06 -5.56028e-06 0.00016007
0.00114296 2.02987e-06 -3.49988e-07
2.02987e-06 0.000185351 -2.04841e-06
-3.49988e-07 -2.04841e-06 9.75966e-05
0.000966937 -7.58585e-06 3.74957e-07
-7.58585e-06 8.23616e-05 -1.82609e-07
3.74957e-07 -1.82609e-07 6.98105e-06
0.000963579 3.99167e-05 1.6802e-07
3.99167e-05 8.80197e-05 -3.67321e-08
1.6802e-07 -3.67321e-08 7.12055e-06
0.000871364 -0.000277501 -9.54458e-06
-0.000277501 -2.02412e-05 1.79495e-06
-9.54458e-06 1.79495e-06 -1.34753e-05
0.000913671 -1.83381e-05 8.66988e-07
-1.83381e-05 4.71681e-05 -1.35346e-06
8.66988e-07 -1.35346e-06 -2.7543e-05
0.00100421 2.07524e-05 -4.23211e-07
2.07524e-05 0.000340057 -1.88333e-06
-4.23211e-07 -1.88333e-06 0.000198322
0.000963981 1.86872e-06 1.07249e-06
1.86872e-06 8.5491e-05 9.58589e-07
1.07249e-06 9.58589e-07 1.46219e-05
-0.00204889 -0.000114874 3.40917e-06
-0.000114874 -0.00101523 -1.12545e-05
3.40917e-06 -1.12545e-05 -0.00125954
0.000851711 4.94699e-07 9.04491e-07
4.94699e-07 0.000210011 1.9923e-05
9.04491e-07 1.9923e-05 0.000178877
0.000998586 -1.77514e-05 5.89151e-07
-1.77514e-05 0.000103796 2.86829e-06
5.89151e-07 2.86829e-06 2.88532e-05
0.00119191 1.50998e-06 -5.29792e-07
1.50998e-06 0.000355229 1.71128e-07
-5.29792e-07 1.71128e-07 0.000273096
0.000924437 9.09977e-07 7.41702e-07
9.09977e-07 0.000103996 7.24848e-07
7.41702e-07 7.24848e-07 3.19393e-05
0.00118471 -8.93403e-06 3.45587e-05
-8.93403e-06 -3.29004e-05 -7.9047e-08
3.45587e-05 -7.9047e-08 -0.000155386
0.00074809 7.6058e-05 6.10347e-06
7.6058e-05 9.8599e-05 7.79781e-06
6.10347e-06 7.79781e-06 4.28446e-05
0.00104197 0.000162686 1.0116e-05
0.000162686 0.000384561 -1.50608e-05
1.0116e-05 -1.50608e-05 0.000268076
0.000999102 2.36041e-06 -5.6547e-06
2.36041e-06 9.22824e-05 -3.71353e-06
-5.6547e-06 -3.71353e-06 3.93975e-05
0.00288014 0.000102926 -3.05024e-05
0.000102926 0.000335675 -2.83291e-06
-3.05024e-05 -2.83291e-06 -0.000755954
-0.00350824 2.48799e-05 -1.89738e-05
2.48799e-05 -0.00261181 5.53045e-05
-1.89738e-05 5.53045e-05 -0.00275983
0.000920018 1.45044e-06 -3.01999e-06
1.45044e-06 -0.000120277 7.50646e-06
-3.01999e-06 7.50646e-06 -0.000184735
0.00176679 0.000116233 -5.923e-06
0.000116233 -0.00101127 1.68372e-05
-5.923e-06 1.68372e-05 -0.000444856
0.000390572 3.82221e-05 -3.8477e-06
3.82221e-05 9.25431e-05 -3.40244e-06
-3.8477e-06 -3.40244e-06 2.77897e-05
0.000912559 5.95119e-07 -2.31089e-06
5.95119e-07 0.000125355 1.68151e-06
-2.31089e-06 1.68151e-06 5.00923e-05
0.00138074 1.55411e-05 4.54219e-06
1.55411e-05 -1.76172e-05 -2.65473e-06
4.54219e-06 -2.65473e-06 -8.62501e-05
0.0018729 0.000279259 4.9659e-05
0.000279259 0.000208777 1.49951e-06
4.9659e-05 1.49951e-06 0.000125657
0.00199697 0.000280736 2.39793e-06
0.000280736 -0.000697226 -6.52676e-06
2.39793e-06 -6.52676e-06 -7.71065e-06
0.000847037 0.000108206 9.8364e-06
0.000108206 -0.000665968 -8.65292e-06
9.8364e-06 -8.65292e-06 -0.000626491
0.00727217 0.000164494 1.30338e-05
0.000164494 0.00267331 -1.85312e-05
1.30338e-05 -1.85312e-05 0.00125342
-0.000456871 3.39751e-06 -2.53791e-05
3.39751e-06 -6.79985e-05 -1.39788e-05
-2.53791e-05 -1.39788e-05 -0.000209995
0.0010862 1.40296e-06 -2.89528e-06
1.40296e-06 0.000109308 1.05389e-06
-2.89528e-06 1.05389e-06 4.00795e-05
0.00181468 4.233e-05 4.58894e-05
4.233e-05 1.49962e-05 -2.37433e-05
4.58894e-05 -2.37433e-05 -7.15768e-05
0.00153426 0.000488693 1.86657e-05
0.000488693 7.18593e-05 -3.54271e-06
1.86657e-05 -3.54271e-06 0.000963945
-0.0043837 0.00027416 6.87059e-05
0.00027416 -0.00323962 -2.0551e-05
6.87059e-05 -2.0551e-05 -0.00302225
0.00790569 0.000245785 1.94712e-05
0.000245785 0.00271291 -4.63642e-05
1.94712e-05 -4.63642e-05 0.00110443
0.0027281 -7.42765e-05 -5.81054e-07
-7.42765e-05 0.000442843 9.94891e-05
-5.81054e-07 9.94891e-05 0.000363563
0.00148801 1.09124e-05 -4.74825e-06
1.09124e-05 0.00040167 8.93961e-06
-4.74825e-06 8.93961e-06 0.000353865
0.000185655 -3.30366e-05 1.22632e-06
-3.30366e-05 -0.000103613 1.33227e-06
1.22632e-06 1.33227e-06 -0.000217655
0.000413993 -5.90682e-05 3.55749e-06
-5.90682e-05 7.80123e-05 -4.68335e-06
3.55749e-06 -4.68335e-06 -9.09308e-05
0.000933787 -2.82676e-05 -2.38052e-07
-2.82676e-05 5.66914e-05 -6.91288e-07
-2.38052e-07 -6.91288e-07 -9.11805e-06
0.000686625 -2.29758e-05 -4.67874e-07
-2.29758e-05 -6.49237e-05 2.78753e-06
-4.67874e-07 2.78753e-06 -0.000106875
0.000757674 -1.16578e-05 2.21246e-07
-1.16578e-05 5.11106e-05 1.36735e-07
2.21246e-07 1.36735e-07 -3.84355e-05
0.000905521 -9.57208e-05 5.60707e-06
-9.57208e-05 0.000210995 -7.83275e-07
5.60707e-06 -7.83275e-07 2.72514e-05
0.00123488 -3.618e-05 -8.64327e-07
-3.618e-05 0.000239571 -3.22012e-07
-8.64327e-07 -3.22012e-07 0.000160539
0.00115546 -8.79614e-05 5.64814e-07
-8.79614e-05 0.000254573 4.18806e-07
5.64814e-07 4.18806e-07 0.000127539
0.00103036 -0.000110199 1.98722e-06
-0.000110199 0.000195511 3.36789e-06
1.98722e-06 3.36789e-06 6.59586e-06
0.000573204 -5.28672e-05 -5.32911e-07
-5.28672e-05 -6.57704e-05 -1.8424e-06
-5.32911e-07 -1.8424e-06 -0.000168698
0.00110113 -0.000108842 -4.81778e-07
-0.000108842 0.00019112 6.29821e-08
-4.81778e-07 6.29821e-08 4.53787e-05
0.00165775 -0.000148074 -1.43806e-06
-0.000148074 0.000422673 2.17465e-06
-1.43806e-06 2.17465e-06 0.00025494
0.00155571 -0.000142569 -4.14696e-06
-0.000142569 0.000329225 2.78242e-06
-4.14696e-06 2.78242e-06 0.000181451
0.000739088 -9.05689e-05 -1.69465e-06
-9.05689e-05 -3.44897e-05 2.46886e-06
-1.69465e-06 2.46886e-06 -0.000149817
0.00105117 -0.000108274 -1.21767e-06
-0.000108274 0.000111207 8.40683e-07
-1.21767e-06 8.40683e-07 -2.29165e-05
0.000967836 -9.78178e-05 -7.19013e-07
-9.78178e-05 9.99198e-05 -1.37175e-06
-7.19013e-07 -1.37175e-06 -2.87144e-05
0.00116993 -0.000103978 4.46799e-07
-0.000103978 0.000208817 -8.99731e-07
4.46799e-07 -8.99731e-07 0.00010526
0.00107941 -0.00010095 1.81102e-06
-0.00010095 0.000164782 -8.38396e-07
1.81102e-06 -8.38396e-07 5.67621e-05
0.000761425 -3.73983e-05 -2.28426e-07
-3.73983e-05 1.52854e-06 1.44732e-06
-2.28426e-07 1.44732e-06 -8.7482e-05
0.000899336 -7.49789e-05 4.65546e-07
-7.49789e-05 8.52982e-05 -1.54902e-07
4.65546e-07 -1.54902e-07 -1.63229e-05
0.00095115 -9.30303e-05 3.68513e-06
-9.30303e-05 0.000102588 -2.50515e-06
3.68513e-06 -2.50515e-06 -9.01285e-06
0.000883994 2.90665e-05 -3.02322e-07
2.90665e-05 4.8386e-05 1.39655e-06
-3.02322e-07 1.39655e-06 -1.52114e-05
0.000951171 -2.30305e-05 -1.60776e-07
-2.30305e-05 9.04519e-05 -2.82334e-08
-1.60776e-07 -2.82334e-08 1.25615e-05
0.00109465 -6.84377e-05 2.2045e-07
-6.84377e-05 0.000174667 -6.76922e-07
2.2045e-07 -6.76922e-07 7.98633e-05
0.000807766 3.48476e-05 -1.06191e-06
3.48476e-05 6.4346e-06 1.87919e-06
-1.06191e-06 1.87919e-06 -3.04932e-05
0.000865369 2.35554e-05 -3.7523e-08
2.35554e-05 3.46525e-05 -1.13195e-07
-3.7523e-08 -1.13195e-07 -2.11162e-05
0.00076229 -4.15612e-06 4.59508e-07
-4.15612e-06 -1.26807e-05 -1.12282e-06
4.59508e-07 -1.12282e-06 -8.4539e-05
0.000868577 1.67732e-05 4.36695e-07
1.67732e-05 3.3577e-05 -1.2627e-06
4.36695e-07 -1.2627e-06 -1.70703e-05
0.000816415 3.26038e-05 1.71098e-08
3.26038e-05 5.82302e-06 -2.89238e-08
1.71098e-08 -2.89238e-08 -2.77515e-05
0.000733244 3.18669e-05 -1.83434e-06
3.18669e-05 -3.70672e-05 3.34639e-06
-1.83434e-06 3.34639e-06 -4.41152e-05
0.000826656 2.66794e-05 9.10145e-07
2.66794e-05 5.74331e-06 -1.80158e-06
9.10145e-07 -1.80158e-06 -2.54532e-05
0.000760873 2.81863e-05 9.47351e-08
2.81863e-05 -2.98191e-05 -1.73857e-09
9.47351e-08 -1.73857e-09 -3.4833e-05
0.00211792 3.93459e-05 -1.89882e-05
3.93459e-05 0.000699388 3.55987e-06
-1.89882e-05 3.55987e-06 0.000718006
0.000777986 2.41469e-05 1.32338e-06
2.41469e-05 -2.71779e-05 -3.22692e-06
1.32338e-06 -3.22692e-06 -3.05862e-05
0.00152133 2.96428e-05 7.65943e-06
2.96428e-05 0.000374045 -1.00828e-06
7.65943e-06 -1.00828e-06 0.00039099
0.00211043 2.72095e-05 1.44254e-05
2.72095e-05 0.000685173 -3.74605e-06
1.44254e-05 -3.74605e-06 0.000706038
0.000866864 1.32059e-05 -5.07659e-07
1.32059e-05 3.05648e-05 -4.97979e-07
-5.07659e-07 -4.97979e-07 -2.2935e-05
0.000809791 -1.80519e-05 -6.65249e-07
-1.80519e-05 -5.21349e-06 -1.41061e-06
-6.65249e-07 -1.41061e-06 -3.76683e-05
0.000791781 9.56294e-06 -6.57139e-07
9.56294e-06 -6.25562e-06 -4.975e-07
-6.57139e-07 -4.975e-07 -5.98051e-05
0.000788143 -2.04767e-05 -5.83659e-07
-2.04767e-05 -2.46914e-05 -3.1638e-06
-5.83659e-07 -3.1638e-06 -2.78632e-05
0.000709707 -1.61221e-05 -1.08737e-07
-1.61221e-05 -6.00229e-05 -6.04459e-07
-1.08737e-07 -6.04459e-07 -9.09852e-05
0.000968343 -4.64426e-06 -1.1548e-08
-4.64426e-06 8.7843e-05 -4.76529e-08
-1.1548e-08 -4.76529e-08 3.68546e-05
0.0020897 -2.07941e-05 -1.13254e-05
-2.07941e-05 0.000670523 -3.93648e-06
-1.13254e-05 -3.93648e-06 0.000692326
0.000781933 -1.53163e-05 -1.31464e-07
-1.53163e-05 -3.30777e-05 -1.88582e-08
-1.31464e-07 -1.88582e-08 -3.38449e-05
0.000592915 -1.26564e-05 6.22045e-08
-1.26564e-05 -0.000124519 7.19077e-07
6.22045e-08 7.19077e-07 -0.000153571
0.00203817 -1.35913e-05 -1.87053e-06
-1.35913e-05 0.000639049 2.93986e-08
-1.87053e-06 2.93986e-08 0.000662173
0.000778841 -1.01602e-05 3.73775e-07
-1.01602e-05 -3.86538e-05 3.03098e-06
3.73775e-07 3.03098e-06 -3.75141e-05
0.00201366 -6.47419e-06 3.05179e-06
-6.47419e-06 0.000623574 3.96455e-06
3.05179e-06 3.96455e-06 0.000647427
0.00108177 2.10775e-06 3.44469e-06
2.10775e-06 0.000216415 -8.82695e-06
3.44469e-06 -8.82695e-06 0.000142509
0.0010579 3.08692e-06 -1.62589e-06
3.08692e-06 9.67074e-05 8.94047e-07
-1.62589e-06 8.94047e-07 3.118e-05
0.00121303 2.18867e-06 2.28276e-05
2.18867e-06 -7.25265e-05 2.28589e-06
2.28276e-05 2.28589e-06 -0.000186233
0.000841701 -3.26822e-05 7.39267e-08
-3.26822e-05 1.83768e-05 -2.97489e-07
7.39267e-08 -2.97489e-07 -4.65526e-05
0.000978635 -1.11164e-05 -1.23593e-07
-1.11164e-05 9.70622e-05 -3.54718e-07
-1.23593e-07 -3.54718e-07 2.61269e-05
0.000955756 1.76129e-05 1.07036e-06
1.76129e-05 8.53873e-05 -7.44581e-08
1.07036e-06 -7.44581e-08 2.11266e-05
0.00085235 -1.72008e-05 2.54605e-08
-1.72008e-05 2.49742e-05 2.38917e-08
2.54605e-08 2.38917e-08 -3.96091e-05
0.000928228 9.40314e-06 2.53353e-08
9.40314e-06 7.36375e-05 3.25467e-07
2.53353e-08 3.25467e-07 1.92959e-06
0.000959415 3.75189e-06 -6.38991e-07
3.75189e-06 8.79869e-05 2.9933e-07
-6.38991e-07 2.9933e-07 1.72053e-05
0.000926518 8.53499e-05 2.63049e-07
8.53499e-05 7.98976e-05 9.54824e-07
2.63049e-07 9.54824e-07 4.14979e-07
0.00134282 -2.90949e-07 4.86881e-06
-2.90949e-07 -1.51811e-05 2.55991e-05
4.86881e-06 2.55991e-05 -7.85265e-05
0.0012942 1.24972e-05 1.23643e-06
1.24972e-05 4.40591e-05 6.44961e-06
1.23643e-06 6.44961e-06 -2.22201e-05
0.00115989 2.07365e-05 -2.21064e-06
2.07365e-05 -0.000168654 -9.7484e-06
-2.21064e-06 -9.7484e-06 -0.000223473
0.00114319 2.11523e-05 2.27292e-06
2.11523e-05 -0.001442 -1.30007e-05
2.27292e-06 -1.30007e-05 -0.000751186
0.000687227 -0.00015561 -4.44888e-05
-0.00015561 -0.00111477 6.11949e-05
-4.44888e-05 6.11949e-05 -0.00144428
0.00225493 9.20084e-05 3.88979e-05
9.20084e-05 0.00024169 -2.66308e-05
3.88979e-05 -2.66308e-05 -0.00111118
0.00504415 0.000398677 2.75331e-05
0.000398677 0.00152818 -2.26532e-05
2.75331e-05 -2.26532e-05 0.00118015
0.00196764 -0.000311096 -2.52794e-05
-0.000311096 -0.000311361 9.28387e-06
-2.52794e-05 9.28387e-06 -0.000774419
0.00232258 -0.000102214 3.81723e-05
-0.000102214 5.13014e-05 -3.99548e-05
3.81723e-05 -3.99548e-05 -0.00136141
0.00361265 1.60301e-05 -1.77978e-05
1.60301e-05 0.000738823 1.61443e-06
-1.77978e-05 1.61443e-06 0.000528564
0.0034434 -0.000143331 -2.58644e-06
-0.000143331 0.000153835 -1.03613e-05
-2.58644e-06 -1.03613e-05 0.000782087
0.00354243 -0.000274329 -3.21238e-06
-0.000274329 0.000745432 -1.06309e-05
-3.21238e-06 -1.06309e-05 0.000696262
0.00293211 -0.000361367 1.10324e-05
-0.000361367 -0.000377115 -8.62358e-05
1.10324e-05 -8.62358e-05 -0.00118376
-0.00137624 -0.000160145 4.00838e-05
-0.000160145 -0.00213558 2.85991e-05
4.00838e-05 2.85991e-05 -0.00235248
0.000412837 -0.000196225 2.67901e-05
-0.000196225 -0.00152363 3.5439e-06
2.67901e-05 3.5439e-06 -0.000863453
0.00106384 -3.99472e-05 -9.19713e-09
-3.99472e-05 0.000134552 1.66128e-06
-9.19713e-09 1.66128e-06 6.2873e-05
0.000873653 1.28182e-07 7.61292e-08
1.28182e-07 4.1495e-05 -5.97814e-08
7.61292e-08 -5.97814e-08 -3.65849e-05
0.000863996 -2.09193e-06 -4.72579e-07
-2.09193e-06 4.80399e-05 -1.23269e-06
-4.72579e-07 -1.23269e-06 -3.41235e-05
0.000914855 2.15573e-05 -8.12176e-08
2.15573e-05 6.78356e-05 -1.25009e-06
-8.12176e-08 -1.25009e-06 -5.07503e-06
0.00427161 -0.000334897 1.01194e-05
-0.000334897 0.00169636 2.98482e-06
1.01194e-05 2.98482e-06 0.00166952
0.000905892 8.37341e-06 5.12658e-06
8.37341e-06 0.000319361 -8.67582e-06
5.12658e-06 -8.67582e-06 0.000197669
0.00084868 -2.4105e-05 8.59708e-08
-2.4105e-05 1.6297e-05 -1.65282e-06
8.59708e-08 -1.65282e-06 -5.84239e-05
0.000919855 3.7885e-05 5.73499e-07
3.7885e-05 6.98275e-05 -1.57899e-06
5.73499e-07 -1.57899e-06 -1.26762e-05
0.00139877 -3.19138e-06 1.13928e-06
-3.19138e-06 0.000308944 -6.19364e-06
1.13928e-06 -6.19364e-06 0.000232989
0.000919214 9.88461e-07 -3.01908e-08
9.88461e-07 5.96893e-05 6.75016e-08
-3.01908e-08 6.75016e-08 -1.11126e-05
0.000907838 -9.70274e-06 -1.44623e-06
-9.70274e-06 6.03184e-05 -9.48803e-08
-1.44623e-06 -9.48803e-08 -1.73977e-05
0.000355312 -0.000132433 -4.71733e-06
-0.000132433 0.000198801 -4.63424e-06
-4.71733e-06 -4.63424e-06 -2.89826e-05
0.000989933 -1.07629e-05 2.67139e-06
-1.07629e-05 0.000292254 5.49311e-06
2.67139e-06 5.49311e-06 0.000267816
0.000896079 -1.22923e-05 1.07535e-06
-1.22923e-05 6.01804e-05 -5.60741e-08
1.07535e-06 -5.60741e-08 -1.11421e-05
8.69214e-05 2.84071e-05 -1.00081e-05
2.84071e-05 0.000521472 -2.2921e-05
-1.00081e-05 -2.2921e-05 -0.00012456
0.00152911 -4.09059e-05 2.04158e-06
-4.09059e-05 0.000558385 1.28329e-05
2.04158e-06 1.28329e-05 0.000479242
0.00132721 -2.40748e-07 -8.98319e-06
-2.40748e-07 0.00033608 -1.43545e-06
-8.98319e-06 -1.43545e-06 0.000265078
0.000887385 1.11182e-06 -7.10999e-08
1.11182e-06 0.000150583 1.08552e-07
-7.10999e-08 1.08552e-07 5.76196e-05
0.0005521 1.96892e-06 -6.41389e-06
1.96892e-06 -0.000107913 2.14141e-06
-6.41389e-06 2.14141e-06 -0.000184319
0.00140933 4.62129e-05 1.92887e-06
4.62129e-05 0.000577533 4.96466e-06
1.92887e-06 4.96466e-06 0.000528149
0.00162523 0.000178533 -6.25169e-05
0.000178533 0.000405206 1.12954e-05
-6.25169e-05 1.12954e-05 0.000445171
0.000686008 -1.2506e-07 -3.74897e-06
-1.2506e-07 1.88911e-06 -5.3858e-06
-3.74897e-06 -5.3858e-06 -7.9338e-05
0.00314652 0.000210411 5.33138e-05
0.000210411 0.000544754 -7.88437e-05
5.33138e-05 -7.88437e-05 -0.000788327
0.00489559 0.000405468 -3.31227e-05
0.000405468 0.00145068 2.9696e-05
-3.31227e-05 2.9696e-05 0.00116965
0.00116945 1.14456e-05 9.10047e-07
1.14456e-05 -0.000159656 9.88174e-06
9.10047e-07 9.88174e-06 -0.000227408
0.00312864 0.000289186 -3.14892e-05
0.000289186 8.86473e-05 2.0794e-05
-3.14892e-05 2.0794e-05 0.0007066
-0.000352187 -2.17161e-05 2.26989e-05
-2.17161e-05 -2.21634e-05 -2.97011e-06
2.26989e-05 -2.97011e-06 -0.000171469
0.0010627 8.86359e-07 2.05466e-06
8.86359e-07 0.000100216 -1.02155e-06
2.05466e-06 -1.02155e-06 3.32027e-05
0.00152851 3.23687e-05 1.27153e-05
3.23687e-05 -0.000154815 -4.74724e-06
1.27153e-05 -4.74724e-06 -0.000271209
0.00180452 -2.60457e-05 -1.25257e-05
-2.60457e-05 0.000110789 2.1903e-05
-1.25257e-05 2.1903e-05 0.000173271
-6.53058e-05 0.00051566 -3.61753e-06
0.00051566 -0.00106702 5.14303e-06
-3.61753e-06 5.14303e-06 3.53456e-05
0.00314743 0.000462422 2.268e-06
0.000462422 7.08135e-05 6.20686e-07
2.268e-06 6.20686e-07 0.000248169
0.00244919 -6.38653e-05 3.76574e-05
-6.38653e-05 0.000265546 -1.72187e-05
3.76574e-05 -1.72187e-05 -0.0014315
0.000735085 -7.07139e-05 2.85414e-05
-7.07139e-05 0.000303436 -7.25143e-06
2.85414e-05 -7.25143e-06 0.000229675
0.00102336 4.237e-06 2.29456e-05
4.237e-06 -0.000187203 -6.61265e-06
2.29456e-05 -6.61265e-06 -0.000320094
-0.00104143 0.000233426 9.28657e-06
0.000233426 -0.000686925 -1.205e-05
9.28657e-06 -1.205e-05 -0.000526788
-4.11599e-05 0.000468516 4.26234e-05
0.000468516 -0.00025588 -2.15598e-06
4.26234e-05 -2.15598e-06 0.000103213
0.00890541 0.00053052 2.49795e-05
0.00053052 0.00309203 -4.98881e-05
2.49795e-05 -4.98881e-05 0.0016871
0.00290943 -0.000284689 -6.07749e-05
-0.000284689 0.000312306 8.69269e-05
-6.07749e-05 8.69269e-05 -0.000124129
0.000289231 -3.9151e-05 -5.20435e-06
-3.9151e-05 -5.57334e-05 7.95143e-06
-5.20435e-06 7.95143e-06 -0.00018171
0.000408008 -2.95003e-05 2.01543e-07
-2.95003e-05 8.41158e-05 -6.00307e-07
2.01543e-07 -6.00307e-07 -8.79017e-05
0.00161786 -0.000160512 1.25743e-05
-0.000160512 0.000546197 -3.78481e-06
1.25743e-05 -3.78481e-06 0.000412245
0.000755114 1.38165e-05 -2.48645e-06
1.38165e-05 5.35288e-05 -1.24672e-06
-2.48645e-06 -1.24672e-06 -2.75591e-05
0.000374894 -5.56454e-05 9.56981e-07
-5.56454e-05 -3.70276e-05 -7.1208e-07
9.56981e-07 -7.1208e-07 -0.000225791
0.00114865 -0.000126695 4.69952e-06
-0.000126695 0.000229682 5.2096e-06
4.69952e-06 5.2096e-06 3.39687e-05
0.00164374 -0.00013003 -1.53055e-06
-0.00013003 0.000489533 -8.15824e-07
-1.53055e-06 -8.15824e-07 0.000356494
0.00125408 -0.000120093 2.30541e-07
-0.000120093 0.000295761 1.12037e-06
2.30541e-07 1.12037e-06 0.000107653
0.00122136 -0.000142224 -1.04766e-06
-0.000142224 0.00017205 7.20633e-07
-1.04766e-06 7.20633e-07 -1.51496e-05
0.00119531 -0.000111775 -8.48569e-07
-0.000111775 0.000239156 -1.99105e-06
-8.48569e-07 -1.99105e-06 8.94957e-05
0.00159113 -0.000145062 2.15666e-07
-0.000145062 0.000380251 3.96518e-07
2.15666e-07 3.96518e-07 0.000213593
0.00124746 -0.000138585 -1.20492e-06
-0.000138585 0.000143047 -4.745e-07
-1.20492e-06 -4.745e-07 -2.53667e-05
0.00144887 -0.000139806 -2.95883e-06
-0.000139806 0.000205966 -1.18238e-06
-2.95883e-06 -1.18238e-06 6.06101e-05
0.00167278 -0.000141349 -4.60141e-06
-0.000141349 0.000397436 4.01983e-06
-4.60141e-06 4.01983e-06 0.000264597
0.0014202 -0.000137699 -8.3736e-07
-0.000137699 0.000255192 5.93654e-07
-8.3736e-07 5.93654e-07 0.000104539
0.000641321 -8.29275e-05 -1.21369e-07
-8.29275e-05 -8.64092e-05 -3.32283e-07
-1.21369e-07 -3.32283e-07 -0.000190674
0.000871786 -9.61857e-05 1.55429e-06
-9.61857e-05 3.45637e-05 -4.42337e-07
1.55429e-06 -4.42337e-07 -8.00596e-05
0.000981415 -0.000106178 1.65475e-06
-0.000106178 7.40429e-05 -2.0106e-06
1.65475e-06 -2.0106e-06 -6.1506e-05
0.00102844 -9.19587e-05 -2.71667e-07
-9.19587e-05 0.000132727 5.56717e-07
-2.71667e-07 5.56717e-07 3.37114e-05
0.00112378 -0.00010125 -1.67458e-07
-0.00010125 0.000185969 -3.9602e-07
-1.67458e-07 -3.9602e-07 8.20976e-05
0.000811338 -8.72229e-05 3.46876e-06
-8.72229e-05 2.73416e-05 -2.67678e-07
3.46876e-06 -2.67678e-07 -7.72337e-05
0.000851367 1.18287e-05 1.85671e-07
1.18287e-05 3.75187e-05 1.43507e-06
1.85671e-07 1.43507e-06 -3.74118e-05
0.000861914 -4.10208e-05 5.05193e-08
-4.10208e-05 5.40438e-05 4.98391e-07
5.05193e-08 4.98391e-07 -3.4372e-05
0.0011081 -8.16094e-05 1.22837e-06
-8.16094e-05 0.000192934 -1.33268e-06
1.22837e-06 -1.33268e-06 9.19751e-05
0.000791863 4.4429e-05 -9.47597e-07
4.4429e-05 3.4811e-06 2.1611e-06
-9.47597e-07 2.1611e-06 -3.98526e-05
0.000864834 1.74071e-05 -1.3974e-07
1.74071e-05 3.944e-05 -8.86504e-08
-1.3974e-07 -8.86504e-08 -2.49928e-05
0.000957732 -3.01248e-05 4.04131e-07
-3.01248e-05 9.49373e-05 -1.02485e-06
4.04131e-07 -1.02485e-06 1.61068e-05
0.00074478 3.5959e-05 -3.13967e-06
3.5959e-05 -2.41479e-05 4.62128e-06
-3.13967e-06 4.62128e-06 -3.35932e-05
0.00080316 3.97322e-05 1.39032e-07
3.97322e-05 4.88191e-06 -7.77892e-08
1.39032e-07 -7.77892e-08 -3.26738e-05
0.000854616 2.06607e-05 4.29918e-07
2.06607e-05 2.87513e-05 -1.32964e-06
4.29918e-07 -1.32964e-06 -2.68271e-05
0.000814364 3.50357e-05 7.28462e-07
3.50357e-05 4.87349e-06 -1.92786e-06
7.28462e-07 -1.92786e-06 -2.8906e-05
0.000753039 3.25377e-05 5.08285e-08
3.25377e-05 -2.68142e-05 -2.14532e-08
5.08285e-08 -2.14532e-08 -3.39497e-05
0.00213553 4.55031e-05 -2.1586e-05
4.55031e-05 0.000716014 3.43559e-06
-2.1586e-05 3.43559e-06 0.000732969
0.000777167 2.86843e-05 1.63896e-06
2.86843e-05 -2.1385e-05 -3.27946e-06
1.63896e-06 -3.27946e-06 -2.64513e-05
0.00211945 3.95872e-05 1.07371e-06
3.95872e-05 0.000701127 6.68452e-08
1.07371e-06 6.68452e-08 0.000719579
0.00210944 3.35665e-05 1.73784e-05
3.35665e-05 0.000690153 -3.64512e-06
1.73784e-05 -3.64512e-06 0.000709897
0.000911633 8.76768e-06 -1.31663e-07
8.76768e-06 6.00491e-05 -5.64912e-07
-1.31663e-07 -5.64912e-07 -7.81693e-06
0.000863765 2.43301e-05 -8.95855e-07
2.43301e-05 3.1892e-05 -9.62828e-07
-8.95855e-07 -9.62828e-07 -2.55989e-05
0.000804641 -2.49828e-05 -6.90571e-07
-2.49828e-05 -5.33592e-06 -1.58033e-06
-6.90571e-07 -1.58033e-06 -4.00163e-05
0.000867797 1.16281e-05 -1.42753e-07
1.16281e-05 3.03503e-05 -4.61225e-08
-1.42753e-07 -4.61225e-08 -2.27857e-05
0.000774429 -2.45693e-05 -9.86472e-07
-2.45693e-05 -2.62533e-05 -3.25629e-06
-9.86472e-07 -3.25629e-06 -3.17733e-05
0.00081789 -1.957e-05 -1.13622e-07
-1.957e-05 -4.98496e-07 3.65916e-09
-1.13622e-07 3.65916e-09 -3.30821e-05
0.000836667 3.2603e-06 1.45909e-07
3.2603e-06 1.33757e-05 2.48054e-09
1.45909e-07 2.48054e-09 -3.64688e-05
0.00214549 -2.75677e-05 -1.45828e-05
-2.75677e-05 0.000704982 -3.91358e-06
-1.45828e-05 -3.91358e-06 0.000725306
0.000771435 -2.00974e-05 -1.19802e-07
-2.00974e-05 -3.35414e-05 -2.09405e-08
-1.19802e-07 -2.09405e-08 -3.65911e-05
0.000825959 -1.66283e-05 8.91583e-08
-1.66283e-05 1.32859e-06 8.22109e-07
8.91583e-08 8.22109e-07 -2.90294e-05
0.00208116 -2.04581e-05 -1.75452e-06
-2.04581e-05 0.000665468 4.59604e-08
-1.75452e-06 4.59604e-08 0.000687459
0.000767325 -1.50635e-05 4.23953e-07
-1.50635e-05 -4.07955e-05 3.06769e-06
4.23953e-07 3.06769e-06 -4.14595e-05
0.00203137 -1.31876e-05 6.84535e-06
-1.31876e-05 0.000635018 3.92974e-06
6.84535e-06 3.92974e-06 0.000658288
0.000967925 -3.65421e-07 -2.63838e-06
-3.65421e-07 8.34254e-05 -4.0773e-06
-2.63838e-06 -4.0773e-06 1.92358e-05
0.000899048 1.36726e-06 2.29151e-06
1.36726e-06 0.00012257 -1.65675e-06
2.29151e-06 -1.65675e-06 4.22761e-05
0.00103303 2.13572e-06 -7.08939e-06
2.13572e-06 8.67956e-05 5.57926e-06
-7.08939e-06 5.57926e-06 2.28464e-05
0.000874067 -1.93292e-06 -2.52264e-07
-1.93292e-06 3.95482e-05 -1.29231e-08
-2.52264e-07 -1.29231e-08 -2.75982e-05
0.000931909 -1.43935e-05 -1.15584e-07
-1.43935e-05 7.19929e-05 2.62287e-07
-1.15584e-07 2.62287e-07 5.65921e-07
0.000881042 -1.25011e-05 1.43028e-07
-1.25011e-05 4.88545e-05 -1.38444e-06
1.43028e-07 -1.38444e-06 -2.73779e-05
0.000838675 -2.10067e-05 -3.14807e-08
-2.10067e-05 2.33145e-05 -5.53307e-07
-3.14807e-08 -5.53307e-07 -4.7507e-05
0.00102662 2.91941e-05 -4.22356e-07
2.91941e-05 0.000129793 -6.4933e-08
-4.22356e-07 -6.4933e-08 5.10407e-05
0.000834952 -2.39512e-05 -1.08119e-07
-2.39512e-05 1.41494e-05 1.08151e-07
-1.08119e-07 1.08151e-07 -4.94994e-05
0.00086056 -9.89515e-06 1.71375e-07
-9.89515e-06 3.48431e-05 -4.03001e-07
1.71375e-07 -4.03001e-07 -3.59136e-05
0.000923622 1.52588e-05 -1.82725e-07
1.52588e-05 7.10954e-05 -4.93258e-08
-1.82725e-07 -4.93258e-08 -1.06818e-07
0.000945404 2.49547e-05 2.01e-07
2.49547e-05 8.09967e-05 3.81102e-07
2.01e-07 3.81102e-07 4.95048e-06
0.00100489 1.78778e-05 -9.26782e-08
1.78778e-05 0.000118566 5.84219e-07
-9.26782e-08 5.84219e-07 4.30918e-05
0.00164044 -2.98009e-05 3.18609e-05
-2.98009e-05 6.31768e-05 3.31502e-05
3.18609e-05 3.31502e-05 -8.18812e-05
0.00155662 -1.61877e-06 1.77195e-06
-1.61877e-06 0.000103964 1.06033e-05
1.77195e-06 1.06033e-05 4.36865e-05
0.00100067 1.07646e-05 2.196e-06
1.07646e-05 -6.32022e-05 -7.63525e-07
2.196e-06 -7.63525e-07 -0.000122494
0.00337621 -0.000129052 -1.34452e-05
-0.000129052 0.000242324 -2.5797e-05
-1.34452e-05 -2.5797e-05 0.000858615
-0.003089 0.000106116 -1.06731e-05
0.000106116 -0.00244157 -4.4263e-05
-1.06731e-05 -4.4263e-05 -0.00266681
0.00187237 -0.00032762 -0.000100486
-0.00032762 -0.000425176 8.33535e-05
-0.000100486 8.33535e-05 -0.00097515
0.00788277 0.000188441 -3.59072e-05
0.000188441 0.00231303 -4.11255e-05
-3.59072e-05 -4.11255e-05 0.00125663
0.00220174 -0.000272988 -3.99878e-05
-0.000272988 -5.40173e-05 4.11215e-05
-3.99878e-05 4.11215e-05 -0.00045605
0.00803113 -0.000154506 3.90644e-05
-0.000154506 0.00266516 -7.64018e-07
3.90644e-05 -7.64018e-07 0.00139498
0.000727141 -0.000188371 1.67402e-05
-0.000188371 -0.00085982 -1.43663e-05
1.67402e-05 -1.43663e-05 -0.000982417
0.00074995 -0.000237422 -8.9336e-06
-0.000237422 -0.00145584 -2.4931e-05
-8.9336e-06 -2.4931e-05 -0.000650647
0.00243685 -9.68001e-05 -7.50244e-05
-9.68001e-05 0.000358048 -4.3015e-05
-7.50244e-05 -4.3015e-05 -8.99805e-05
0.00814755 -0.000405352 -2.22454e-05
-0.000405352 0.00226558 4.90572e-05
-2.22454e-05 4.90572e-05 0.00132465
0.00773291 -0.000624191 3.20565e-05
-0.000624191 0.00226798 1.24067e-05
3.20565e-05 1.24067e-05 0.00248554
0.00252023 -0.000403801 1.43989e-05
-0.000403801 0.000188882 4.30747e-07
1.43989e-05 4.30747e-07 0.00116649
0.000823143 1.58143e-05 8.65855e-07
1.58143e-05 3.53784e-05 1.74137e-06
8.65855e-07 1.74137e-06 -3.04496e-05
0.00100394 -2.96163e-05 -1.0751e-07
-2.96163e-05 0.00010717 2.75843e-07
-1.0751e-07 2.75843e-07 3.40392e-05
0.000828859 3.05811e-07 1.51581e-07
3.05811e-07 1.7341e-05 -1.05689e-06
1.51581e-07 -1.05689e-06 -6.05855e-05
0.00225242 -0.000138591 1.69226e-05
-0.000138591 0.00113831 -1.04791e-06
1.69226e-05 -1.04791e-06 0.000943541
0.000900627 -3.0634e-05 -7.39735e-06
-3.0634e-05 0.000259216 -6.39255e-06
-7.39735e-06 -6.39255e-06 0.000239338
0.000868199 -8.95599e-06 -5.68213e-07
-8.95599e-06 3.1728e-05 -6.08131e-07
-5.68213e-07 -6.08131e-07 -3.96815e-05
0.000886431 -4.37571e-05 -1.42645e-06
-4.37571e-05 4.8097e-05 -2.87979e-06
-1.42645e-06 -2.87979e-06 -2.87772e-05
0.00086202 -1.30885e-05 -4.86128e-07
-1.30885e-05 4.32394e-05 -3.08377e-07
-4.86128e-07 -3.08377e-07 -2.7347e-05
0.000558148 -3.77125e-05 1.26493e-06
-3.77125e-05 6.47336e-05 4.57211e-06
1.26493e-06 4.57211e-06 -1.72339e-05
-0.000319999 -7.20959e-06 2.2063e-05
-7.20959e-06 0.00022133 -2.23037e-05
2.2063e-05 -2.23037e-05 -0.000387868
-0.00012421 -1.05889e-05 -1.5898e-06
-1.05889e-05 -0.000302158 6.08965e-06
-1.5898e-06 6.08965e-06 -0.000401597
0.00161871 0.000129201 2.11522e-05
0.000129201 0.000720522 -9.42934e-06
2.11522e-05 -9.42934e-06 0.000415019
0.00150483 -2.20839e-06 1.70638e-05
-2.20839e-06 0.000130804 -4.77182e-07
1.70638e-05 -4.77182e-07 5.92718e-06
0.000899689 7.5857e-07 -4.63058e-07
7.5857e-07 8.96545e-05 -7.39987e-07
-4.63058e-07 -7.39987e-07 1.49971e-05
0.000577176 6.71273e-07 3.75207e-07
6.71273e-07 -5.61795e-05 -6.30935e-08
3.75207e-07 -6.30935e-08 -0.000159816
-0.000774393 -3.02043e-05 -2.38214e-05
-3.02043e-05 -0.000193943 1.08561e-05
-2.38214e-05 1.08561e-05 -0.000360112
0.00134844 4.13658e-05 2.80147e-05
4.13658e-05 -0.000287822 -4.35281e-05
2.80147e-05 -4.35281e-05 -0.000512572
0.00104013 3.81101e-07 6.91349e-06
3.81101e-07 9.23498e-05 -5.73846e-06
6.91349e-06 -5.73846e-06 2.70432e-05
0.00940689 0.000189118 6.17181e-05
0.000189118 0.00316646 8.38807e-06
6.17181e-05 8.38807e-06 0.00161009
0.00538105 0.000630037 -4.96414e-05
0.000630037 0.00139753 3.05318e-05
-4.96414e-05 3.05318e-05 0.00148976
0.00115838 2.5427e-05 -2.19002e-05
2.5427e-05 -0.000371227 1.8113e-05
-2.19002e-05 1.8113e-05 -0.000527093
-0.00167723 0.000546467 -1.36682e-05
0.000546467 -0.00221724 -1.85205e-05
-1.36682e-05 -1.85205e-05 -0.000911984
0.000238348 -4.10606e-05 -7.81911e-06
-4.10606e-05 0.000100703 -7.88853e-07
-7.81911e-06 -7.88853e-07 3.1351e-06
0.00113921 1.00341e-06 5.95859e-07
1.00341e-06 -0.000115139 -5.21164e-07
5.95859e-07 -5.21164e-07 -0.000245003
-0.00125439 0.000268181 -2.9093e-05
0.000268181 -0.0007637 1.01201e-05
-2.9093e-05 1.01201e-05 -0.00056168
0.00213941 -0.00025107 -7.89072e-06
-0.00025107 5.53755e-05 2.86648e-05
-7.89072e-06 2.86648e-05 -0.000229505
0.00381409 0.000658926 7.72181e-06
0.000658926 0.0010545 6.21218e-06
7.72181e-06 6.21218e-06 0.00137948
0.00541953 0.000138887 3.5749e-05
0.000138887 0.001344 -1.99841e-05
3.5749e-05 -1.99841e-05 -0.000198648
0.00260173 -0.000198265 2.63183e-05
-0.000198265 0.000765241 1.09899e-05
2.63183e-05 1.09899e-05 0.000859023
-0.00109132 8.16305e-05 2.58548e-05
8.16305e-05 -0.000422032 -1.77459e-06
2.58548e-05 -1.77459e-06 -0.000587839
0.00283518 0.000488996 1.90258e-05
0.000488996 0.00132307 -5.07718e-06
1.90258e-05 -5.07718e-06 0.00147151
0.00525024 0.000486343 -4.23226e-05
0.000486343 0.00138628 3.7072e-05
-4.23226e-05 3.7072e-05 7.19187e-05
0.0021994 -0.00037146 -1.45524e-05
-0.00037146 0.000127397 2.49931e-05
-1.45524e-05 2.49931e-05 -0.000423512
0.000577789 -3.08515e-06 -2.8535e-06
-3.08515e-06 0.000169039 5.21467e-06
-2.8535e-06 5.21467e-06 1.45655e-06
0.000780435 -0.000125767 1.3493e-06
-0.000125767 0.000145792 -2.56245e-06
1.3493e-06 -2.56245e-06 -1.53772e-05
0.00207328 -0.000172512 8.77294e-06
-0.000172512 0.000448918 1.25777e-06
8.77294e-06 1.25777e-06 0.000391518
-0.000139477 -1.49601e-05 -1.44676e-06
-1.49601e-05 -0.000278977 1.865e-07
-1.44676e-06 1.865e-07 -0.000470952
0.000730997 -0.000104857 2.90012e-06
-0.000104857 3.46755e-05 6.5892e-08
2.90012e-06 6.5892e-08 -0.000159382
0.00105927 -0.000157689 -1.69428e-07
-0.000157689 -2.55447e-05 5.48566e-07
-1.69428e-07 5.48566e-07 -0.000180983
0.00143251 -0.000127434 -1.56419e-06
-0.000127434 0.000373597 -1.46681e-06
-1.56419e-06 -1.46681e-06 0.000186847
0.001188 -0.000139456 -9.82081e-07
-0.000139456 0.000146711 -9.22509e-07
-9.82081e-07 -9.22509e-07 -3.60078e-05
0.00179689 -0.000172969 -1.94527e-06
-0.000172969 0.000321373 -2.35495e-06
-1.94527e-06 -2.35495e-06 0.000176643
0.00149781 -0.000140888 9.50897e-07
-0.000140888 0.000325131 -1.63587e-06
9.50897e-07 -1.63587e-06 0.00015935
0.00128092 -0.000136993 5.42599e-07
-0.000136993 0.000157852 -9.86264e-07
5.42599e-07 -9.86264e-07 -6.01099e-06
0.00149197 -0.000142452 -2.39696e-06
-0.000142452 0.000162094 -3.5253e-06
-2.39696e-06 -3.5253e-06 2.59292e-05
0.00143985 -0.000129018 -2.3362e-06
-0.000129018 0.00012933 -2.57836e-06
-2.3362e-06 -2.57836e-06 4.00334e-06
0.0011485 -0.000120532 -2.8156e-06
-0.000120532 7.86796e-05 2.97531e-07
-2.8156e-06 2.97531e-07 -5.66806e-05
0.00130197 -0.000132201 4.74811e-07
-0.000132201 0.000128364 -8.08061e-07
4.74811e-07 -8.08061e-07 -1.54724e-05
0.0013251 -0.000119493 -2.22993e-06
-0.000119493 0.000233259 2.55621e-06
-2.22993e-06 2.55621e-06 0.000115519
0.00132458 -0.000126272 -1.8273e-07
-0.000126272 0.000218149 7.06539e-07
-1.8273e-07 7.06539e-07 8.35973e-05
0.00127007 -0.00013213 1.83694e-06
-0.00013213 0.000174021 -1.04004e-06
1.83694e-06 -1.04004e-06 2.04639e-05
0.000961369 -9.40197e-05 -6.56254e-07
-9.40197e-05 8.03071e-05 -6.72955e-07
-6.56254e-07 -6.72955e-07 -1.75538e-05
0.000758738 -8.77289e-05 -2.65648e-07
-8.77289e-05 -2.33417e-05 -1.17547e-06
-2.65648e-07 -1.17547e-06 -0.000126465
0.000998497 -0.000101571 4.84649e-06
-0.000101571 0.000100373 -3.30379e-06
4.84649e-06 -3.30379e-06 -1.35147e-05
0.000908107 -4.3784e-05 -3.66181e-07
-4.3784e-05 6.45738e-05 1.3442e-06
-3.66181e-07 1.3442e-06 -1.93803e-05
0.00100827 -8.45071e-05 2.91796e-07
-8.45071e-05 0.000122249 5.05804e-07
2.91796e-07 5.05804e-07 2.46117e-05
0.00107076 -9.82093e-05 9.19127e-07
-9.82093e-05 0.000159523 6.46741e-07
9.19127e-07 6.46741e-07 5.53667e-05
0.00080507 6.19362e-05 -4.01775e-07
6.19362e-05 1.71812e-05 2.62258e-06
-4.01775e-07 2.62258e-06 -3.66769e-05
0.000882286 1.4307e-06 -2.36989e-09
1.4307e-06 5.48022e-05 -3.19455e-08
-2.36989e-09 -3.19455e-08 -2.13395e-05
0.000968391 -4.84353e-05 -2.57153e-08
-4.84353e-05 0.000110028 -4.9688e-07
-2.57153e-08 -4.9688e-07 2.2e-05
0.00136149 4.70239e-05 -1.27821e-05
4.70239e-05 0.000313975 3.12389e-06
-1.27821e-05 3.12389e-06 0.000304302
0.000783459 4.34263e-05 8.5658e-09
4.34263e-05 -1.15234e-06 -1.73298e-07
8.5658e-09 -1.73298e-07 -4.44044e-05
0.000849131 6.92133e-06 5.80934e-07
6.92133e-06 3.22922e-05 -1.46796e-06
5.80934e-07 -1.46796e-06 -3.29567e-05
0.000909222 3.10237e-05 -2.02606e-05
3.10237e-05 6.84603e-05 3.51669e-06
-2.02606e-05 3.51669e-06 7.75515e-05
0.00107365 4.05415e-05 -5.37267e-06
4.05415e-05 0.000151989 3.66968e-07
-5.37267e-06 3.66968e-07 0.000143747
0.000796785 4.42899e-05 4.82173e-07
4.42899e-05 2.20165e-06 -2.1045e-06
4.82173e-07 -2.1045e-06 -3.58475e-05
0.00077414 3.32992e-05 1.85019e-06
3.32992e-05 -1.58793e-05 -3.34277e-06
1.85019e-06 -3.34277e-06 -2.31105e-05
0.00214544 4.57361e-05 8.48774e-07
4.57361e-05 0.000722327 6.84811e-08
8.48774e-07 6.84811e-08 0.000739044
0.00212361 3.97671e-05 2.02586e-05
3.97671e-05 0.000704307 -3.53367e-06
2.02586e-05 -3.53367e-06 0.000722587
0.000850672 -8.52475e-06 -3.37472e-09
-8.52475e-06 2.84502e-05 -1.21241e-06
-3.37472e-09 -1.21241e-06 -4.21242e-05
0.000871046 3.35452e-06 -4.33192e-07
3.35452e-06 3.49962e-05 -1.336e-06
-4.33192e-07 -1.336e-06 -2.44225e-05
0.000905515 -9.35032e-06 -3.74369e-09
-9.35032e-06 5.53886e-05 -2.25594e-08
-3.74369e-09 -2.25594e-08 -1.19402e-05
0.000798939 -3.65414e-05 -5.21523e-07
-3.65414e-05 -3.27247e-06 -1.90033e-06
-5.21523e-07 -1.90033e-06 -4.05425e-05
0.000882461 -1.77166e-06 4.80905e-07
-1.77166e-06 3.98479e-05 -9.06844e-08
4.80905e-07 -9.06844e-08 -1.62702e-05
0.00076089 -2.8258e-05 -1.33132e-06
-2.8258e-05 -2.75063e-05 -3.3793e-06
-1.33132e-06 -3.3793e-06 -3.51747e-05
0.000814347 -2.1362e-05 -1.96675e-07
-2.1362e-05 2.93144e-07 1.3154e-08
-1.96675e-07 1.3154e-08 -3.43924e-05
0.000889506 3.06954e-05 9.61425e-07
3.06954e-05 4.62177e-05 6.92501e-07
9.61425e-07 6.92501e-07 -9.86082e-06
0.00220036 -3.39815e-05 -1.83115e-05
-3.39815e-05 0.000739719 -3.84536e-06
-1.83115e-05 -3.84536e-06 0.000758459
0.000760636 -2.42174e-05 -2.45719e-07
-2.42174e-05 -3.34398e-05 -5.43889e-09
-2.45719e-07 -5.43889e-09 -3.88805e-05
0.000833081 -1.94523e-05 3.27751e-07
-1.94523e-05 7.97444e-06 1.43173e-06
3.27751e-07 1.43173e-06 -2.471e-05
0.00213176 -2.72965e-05 -1.57829e-06
-2.72965e-05 0.000697064 5.90342e-08
-1.57829e-06 5.90342e-08 0.00071761
0.000756299 -1.97584e-05 5.16624e-07
-1.97584e-05 -4.1528e-05 3.15108e-06
5.16624e-07 3.15108e-06 -4.44673e-05
0.00206742 -2.00518e-05 1.01105e-05
-2.00518e-05 0.000657607 3.89513e-06
1.01105e-05 3.89513e-06 0.000679817
0.00149391 -4.92881e-06 2.08205e-05
-4.92881e-06 0.000170464 6.00228e-06
2.08205e-05 6.00228e-06 7.5693e-05
0.000953002 3.05094e-07 1.02528e-06
3.05094e-07 7.28321e-05 -2.66228e-07
1.02528e-06 -2.66228e-07 9.50571e-06
0.000750668 6.20349e-07 4.18946e-06
6.20349e-07 5.05088e-05 5.04778e-06
4.18946e-06 5.04778e-06 -3.57529e-05
0.00095069 3.46927e-05 -6.56139e-07
3.46927e-05 9.60522e-05 -2.02061e-08
-6.56139e-07 -2.02061e-08 1.40244e-05
0.000945424 -5.69409e-06 1.05346e-07
-5.69409e-06 7.74891e-05 3.00264e-07
1.05346e-07 3.00264e-07 1.06932e-05
0.000920303 -1.79969e-05 6.10192e-08
-1.79969e-05 6.49767e-05 4.18953e-07
6.10192e-08 4.18953e-07 -7.03798e-06
0.000933213 -2.29681e-05 1.15652e-07
-2.29681e-05 7.28936e-05 -1.74477e-07
1.15652e-07 -1.74477e-07 2.42528e-06
0.000942353 5.16887e-06 1.2651e-07
5.16887e-06 8.17338e-05 -3.73234e-07
1.2651e-07 -3.73234e-07 5.03648e-06
0.000958304 1.85589e-05 -6.09692e-08
1.85589e-05 9.16346e-05 4.82592e-07
-6.09692e-08 4.82592e-07 1.35619e-05
0.000968329 2.64865e-05 -2.54624e-07
2.64865e-05 9.95399e-05 -1.13617e-06
-2.54624e-07 -1.13617e-06 1.71901e-05
0.000816874 -1.95896e-06 2.84935e-07
-1.95896e-06 1.8282e-05 5.45409e-08
2.84935e-07 5.45409e-08 -5.74764e-05
0.000892256 3.69518e-05 3.4288e-07
3.69518e-05 5.83296e-05 -2.75332e-07
3.4288e-07 -2.75332e-07 -1.44165e-05
0.00093662 -3.57756e-05 3.13614e-07
-3.57756e-05 6.89462e-05 -4.83682e-07
3.13614e-07 -4.83682e-07 -4.21808e-06
0.000958413 9.22102e-06 -7.96727e-08
9.22102e-06 9.34499e-05 1.03369e-07
-7.96727e-08 1.03369e-07 1.8642e-05
0.00142293 1.24479e-05 2.65123e-06
1.24479e-05 0.000343627 7.71656e-07
2.65123e-06 7.71656e-07 0.00026743
0.00146382 -0.000261279 3.74958e-05
-0.000261279 0.00046119 2.648e-05
3.74958e-05 2.648e-05 0.00072465
0.00183129 -2.58633e-05 3.02277e-06
-2.58633e-05 0.000165961 9.20432e-06
3.02277e-06 9.20432e-06 2.36246e-05
0.00169199 -2.12575e-06 1.24026e-06
-2.12575e-06 0.00016852 -3.62027e-06
1.24026e-06 -3.62027e-06 0.000109814
0.00324687 -0.000295433 -3.5992e-05
-0.000295433 -2.0954e-05 -2.91976e-05
-3.5992e-05 -2.91976e-05 0.000899941
0.00423521 -0.000298689 5.99372e-07
-0.000298689 0.00040985 -5.66335e-05
5.99372e-07 -5.66335e-05 0.000266244
0.00293824 -1.04503e-05 -9.67637e-05
-1.04503e-05 -0.000340779 8.74687e-05
-9.67637e-05 8.74687e-05 -0.00111976
0.00218418 -0.000294159 -5.6598e-05
-0.000294159 0.000167915 8.84014e-05
-5.6598e-05 8.84014e-05 -0.000208205
0.00264875 -0.000152712 -7.04315e-06
-0.000152712 0.000618184 1.75107e-05
-7.04315e-06 1.75107e-05 0.000334814
0.000425258 -0.000431637 -1.3499e-05
-0.000431637 -0.000939506 -2.80046e-06
-1.3499e-05 -2.80046e-06 0.000136374
0.00482659 -0.000128095 1.22042e-05
-0.000128095 0.00107113 4.46629e-05
1.22042e-05 4.46629e-05 -0.0002677
8.79128e-05 -0.000320269 -2.95399e-06
-0.000320269 -0.00114911 -5.21413e-07
-2.95399e-06 -5.21413e-07 -0.000870659
0.00304907 0.000149274 -6.87474e-05
0.000149274 0.000596261 -4.11421e-05
-6.87474e-05 -4.11421e-05 0.000408642
0.00875385 -0.000420065 1.31322e-06
-0.000420065 0.0029794 3.81364e-05
1.31322e-06 3.81364e-05 0.00183113
-4.41215e-05 -0.000397476 9.15374e-06
-0.000397476 -0.000215106 -1.0948e-05
9.15374e-06 -1.0948e-05 0.000103832
0.000667095 0.0001032 -1.08551e-06
0.0001032 -3.33529e-05 -4.23142e-07
-1.08551e-06 -4.23142e-07 -9.78266e-05
0.00106187 1.70707e-05 2.34569e-06
1.70707e-05 0.000154726 8.31949e-08
2.34569e-06 8.31949e-08 9.02805e-05
0.000940188 -1.11216e-05 -6.03853e-07
-1.11216e-05 7.79937e-05 -8.53047e-07
-6.03853e-07 -8.53047e-07 3.37923e-06
-0.000788252 -2.5925e-05 -1.98645e-05
-2.5925e-05 -0.000116274 -2.11263e-05
-1.98645e-05 -2.11263e-05 -0.000684116
-6.05668e-05 -1.58211e-05 -6.85176e-07
-1.58211e-05 -0.000258487 -5.26455e-06
-6.85176e-07 -5.26455e-06 -0.000343988
0.000750322 7.75333e-06 8.22569e-07
7.75333e-06 -1.22309e-05 3.03143e-07
8.22569e-07 3.03143e-07 -8.24282e-05
0.000764854 4.54453e-05 1.64365e-06
4.54453e-05 0.000120066 6.99147e-07
1.64365e-06 6.99147e-07 1.86026e-05
0.000640043 7.94046e-05 1.91368e-06
7.94046e-05 0.000166667 -1.3117e-05
1.91368e-06 -1.3117e-05 -7.41809e-05
-0.000620689 8.81243e-05 1.23072e-05
8.81243e-05 -0.000615883 1.1306e-05
1.23072e-05 1.1306e-05 -0.000754118
0.00123665 -1.03941e-05 4.71873e-05
-1.03941e-05 0.000834888 -2.21483e-06
4.71873e-05 -2.21483e-06 0.000694776
0.00118874 -2.42599e-06 -2.29581e-06
-2.42599e-06 8.11773e-06 -4.36171e-07
-2.29581e-06 -4.36171e-07 -9.74984e-05
0.000466802 1.873e-06 7.06319e-06
1.873e-06 -0.000160584 -2.30397e-06
7.06319e-06 -2.30397e-06 -0.000239452
4.6429e-05 -3.44171e-05 3.32649e-06
-3.44171e-05 2.61513e-05 4.4263e-06
3.32649e-06 4.4263e-06 -8.29964e-05
0.0016319 -0.000241271 2.27524e-05
-0.000241271 -0.000213315 -3.45821e-05
2.27524e-05 -3.45821e-05 -0.000398714
0.00124689 -2.571e-06 -2.16841e-05
-2.571e-06 -4.70596e-05 -2.28331e-06
-2.16841e-05 -2.28331e-06 -0.000172356
0.00191818 0.000140885 2.02511e-06
0.000140885 -0.000173831 1.22698e-05
2.02511e-06 1.22698e-05 -0.00149582
-0.00236953 0.000423565 -4.48511e-05
0.000423565 -0.0018757 7.67521e-06
-4.48511e-05 7.67521e-06 -0.0014536
0.00122755 0.000313695 -4.87284e-05
0.000313695 0.000409152 2.41456e-05
-4.87284e-05 2.41456e-05 0.000823569
0.00165962 -0.000160726 -4.35289e-06
-0.000160726 0.000248121 4.49008e-06
-4.35289e-06 4.49008e-06 0.000399765
0.00114481 0.000125612 -1.96144e-06
0.000125612 0.000738692 3.05137e-06
-1.96144e-06 3.05137e-06 0.000761712
-0.00359936 0.000242948 1.0225e-05
0.000242948 -0.00135319 8.84638e-08
1.0225e-05 8.84638e-08 -0.00143563
0.00310452 -0.000381555 -7.53835e-06
-0.000381555 0.000524262 1.40367e-05
-7.53835e-06 1.40367e-05 -0.000300257
0.00685468 0.000412146 -1.60863e-05
0.000412146 0.0020784 1.42758e-06
-1.60863e-05 1.42758e-06 0.000896163
0.000221104 -0.000162122 -2.88869e-06
-0.000162122 -0.000458297 5.94249e-06
-2.88869e-06 5.94249e-06 -0.000407778
-0.00479163 0.00011998 1.08384e-05
0.00011998 -0.00235628 -9.90422e-06
1.08384e-05 -9.90422e-06 -0.0022847
0.0066662 0.000379273 -3.40243e-06
0.000379273 0.00221756 3.96018e-06
-3.40243e-06 3.96018e-06 0.00117869
0.00323658 -0.000187884 -1.99829e-05
-0.000187884 -4.23325e-05 2.77658e-05
-1.99829e-05 2.77658e-05 -0.000640099
-0.000183233 -8.44592e-05 -8.66493e-06
-8.44592e-05 -0.000299269 -7.97072e-07
-8.66493e-06 -7.97072e-07 -0.000499783
0.00124876 -0.000139501 -8.3764e-07
-0.000139501 6.97042e-05 -8.14917e-08
-8.3764e-07 -8.14917e-08 3.04474e-05
0.00170944 -0.000161809 4.65201e-06
-0.000161809 5.77122e-05 -3.56518e-06
4.65201e-06 -3.56518e-06 5.2872e-05
0.000311592 -8.2975e-05 -1.3352e-06
-8.2975e-05 -0.000159379 -4.11207e-06
-1.3352e-06 -4.11207e-06 -0.000353605
0.0012591 -0.000163047 -1.25089e-06
-0.000163047 6.87032e-05 -1.82655e-06
-1.25089e-06 -1.82655e-06 -8.60518e-05
0.00157388 -0.000180313 -3.46351e-06
-0.000180313 3.52104e-05 -3.01422e-06
-3.46351e-06 -3.01422e-06 -7.22068e-05
0.00115277 -0.000136762 -9.17758e-08
-0.000136762 0.000120563 -2.57853e-06
-9.17758e-08 -2.57853e-06 -5.75879e-05
0.00138992 -0.00015466 7.89235e-07
-0.00015466 0.000116639 -8.60581e-07
7.89235e-07 -8.60581e-07 -2.79621e-05
0.00175021 -0.000152279 -2.33676e-06
-0.000152279 0.000173035 -4.05628e-06
-2.33676e-06 -4.05628e-06 6.59844e-05
0.00130679 -0.000135135 9.59395e-07
-0.000135135 0.000168259 -6.50824e-07
9.59395e-07 -6.50824e-07 9.14819e-06
0.00137247 -0.000136239 -3.36124e-07
-0.000136239 9.70603e-05 -7.66022e-07
-3.36124e-07 -7.66022e-07 -3.74959e-05
0.0016767 -0.000130398 -2.33553e-06
-0.000130398 0.0001636 -3.94634e-06
-2.33553e-06 -3.94634e-06 6.13214e-05
0.00161981 -0.000120399 -2.13282e-06
-0.000120399 0.000174415 -3.18002e-06
-2.13282e-06 -3.18002e-06 7.42926e-05
0.00136028 -0.000124825 -2.93153e-06
-0.000124825 0.000125573 -1.41478e-06
-2.93153e-06 -1.41478e-06 1.37473e-06
0.00143245 -0.000126058 8.33499e-07
-0.000126058 0.000126196 1.2936e-07
8.33499e-07 1.2936e-07 3.14448e-06
0.000718144 -9.63248e-05 -2.62245e-06
-9.63248e-05 -0.000120277 1.33069e-06
-2.62245e-06 1.33069e-06 -0.000242323
0.00132445 -0.000126738 1.19249e-06
-0.000126738 0.000169611 -1.08535e-06
1.19249e-06 -1.08535e-06 3.56014e-05
0.00114325 -0.000124115 2.8802e-06
-0.000124115 4.47641e-05 -2.76724e-07
2.8802e-06 -2.76724e-07 -9.75187e-05
0.00102112 -0.000100901 -8.50914e-07
-0.000100901 9.53345e-05 1.11971e-06
-8.50914e-07 1.11971e-06 -8.18458e-06
0.00101072 -0.00010484 4.70358e-07
-0.00010484 7.43879e-05 -2.15085e-07
4.70358e-07 -2.15085e-07 -4.24756e-05
0.000972037 -0.000110929 2.41859e-06
-0.000110929 3.6664e-05 -2.09856e-06
2.41859e-06 -2.09856e-06 -9.9586e-05
0.000976096 -7.95124e-05 -1.80938e-06
-7.95124e-05 8.76436e-05 4.56456e-07
-1.80938e-06 4.56456e-07 8.52128e-07
0.0010437 -9.73657e-05 -2.29185e-07
-9.73657e-05 0.000121727 -4.66227e-07
-2.29185e-07 -4.66227e-07 2.36361e-05
0.000879776 -9.27047e-05 5.25015e-07
-9.27047e-05 4.15639e-05 -1.81222e-06
5.25015e-07 -1.81222e-06 -6.04243e-05
0.000869282 1.66865e-05 -5.83794e-07
1.66865e-05 5.1151e-05 2.90547e-06
-5.83794e-07 2.90547e-06 -1.10933e-05
0.000951152 -3.90276e-05 7.30095e-07
-3.90276e-05 8.63439e-05 3.73971e-07
7.30095e-07 3.73971e-07 2.66259e-06
0.00098289 -7.56589e-05 1.02697e-06
-7.56589e-05 0.00010899 4.92996e-07
1.02697e-06 4.92996e-07 1.27952e-05
0.000680447 4.48685e-05 -2.82733e-06
4.48685e-05 -4.17481e-05 3.88638e-06
-2.82733e-06 3.88638e-06 -5.96921e-05
0.000784375 2.98178e-05 -2.55613e-07
2.98178e-05 2.89709e-06 -2.28607e-07
-2.55613e-07 -2.28607e-07 -4.90278e-05
0.000910324 -9.84423e-06 2.9731e-07
-9.84423e-06 7.04715e-05 -1.62769e-06
2.9731e-07 -1.62769e-06 -6.81381e-06
0.00223218 6.38133e-05 -9.5392e-06
6.38133e-05 0.00078543 1.37231e-06
-9.5392e-06 1.37231e-06 0.000796757
0.000728447 4.0908e-05 1.43413e-07
4.0908e-05 -2.40753e-05 -1.26812e-08
1.43413e-07 -1.26812e-08 -3.77544e-05
0.000774157 4.24941e-05 8.56785e-07
4.24941e-05 -5.82358e-06 -2.3053e-06
8.56785e-07 -2.3053e-06 -4.92844e-05
0.0021862 5.14166e-05 8.73993e-07
5.14166e-05 0.000751358 6.29424e-08
8.73993e-07 6.29424e-08 0.000766244
0.000769891 3.79167e-05 2.18121e-06
3.79167e-05 -1.04101e-05 -3.47752e-06
2.18121e-06 -3.47752e-06 -2.05342e-05
0.00215647 4.58235e-05 2.31772e-05
4.58235e-05 0.000729235 -3.42908e-06
2.31772e-05 -3.42908e-06 0.000745733
0.000974944 3.08057e-05 -3.86112e-07
3.08057e-05 0.00010322 -1.6261e-07
-3.86112e-07 -1.6261e-07 2.74103e-05
0.000875296 -5.68307e-07 6.55997e-08
-5.68307e-07 4.18416e-05 -3.08994e-07
6.55997e-08 -3.08994e-07 -2.94126e-05
0.000868365 -7.18894e-06 -3.95326e-07
-7.18894e-06 3.78922e-05 -1.53888e-06
-3.95326e-07 -1.53888e-06 -2.64273e-05
0.000789435 -4.21155e-05 -6.80708e-07
-4.21155e-05 -3.89926e-06 -2.18519e-06
-6.80708e-07 -2.18519e-06 -4.35544e-05
0.00085649 -1.17708e-05 5.29369e-07
-1.17708e-05 2.80601e-05 -5.80932e-08
5.29369e-07 -5.80932e-08 -3.15297e-05
0.000862036 3.48528e-06 4.77967e-07
3.48528e-06 3.50713e-05 7.24614e-07
4.77967e-07 7.24614e-07 -3.42525e-05
0.000755996 -3.16276e-05 -1.96544e-06
-3.16276e-05 -2.41327e-05 -3.49763e-06
-1.96544e-06 -3.49763e-06 -3.36963e-05
0.000804805 -2.89641e-05 -2.19081e-07
-2.89641e-05 -9.67352e-07 1.11523e-08
-2.19081e-07 1.11523e-08 -3.77042e-05
0.000866164 -9.10928e-06 9.58197e-07
-9.10928e-06 3.12618e-05 9.44874e-07
9.58197e-07 9.44874e-07 -2.47979e-05
0.00224046 -4.01357e-05 -2.16225e-05
-4.01357e-05 0.00076719 -3.75531e-06
-2.16225e-05 -3.75531e-06 0.000784346
0.000747083 -2.77607e-05 -1.60463e-07
-2.77607e-05 -3.45629e-05 2.98759e-09
-1.60463e-07 2.98759e-09 -4.21851e-05
0.000823031 -2.01063e-05 8.1151e-07
-2.01063e-05 5.10184e-06 1.54374e-06
8.1151e-07 1.54374e-06 -2.95414e-05
0.00218863 -3.38512e-05 -1.65199e-06
-3.38512e-05 0.000732854 7.32443e-08
-1.65199e-06 7.32443e-08 0.00075178
0.000744139 -2.38384e-05 6.72382e-07
-2.38384e-05 -4.20399e-05 3.28201e-06
6.72382e-07 3.28201e-06 -4.73955e-05
0.00211991 -2.69428e-05 1.32187e-05
-2.69428e-05 0.000690129 3.86835e-06
1.32187e-05 3.86835e-06 0.000710901
-0.000914115 -0.000104346 3.18202e-05
-0.000104346 -0.000390578 8.15137e-06
3.18202e-05 8.15137e-06 -0.000591936
0.00148371 -9.24459e-06 1.95445e-06
-9.24459e-06 0.000148245 3.08965e-06
1.95445e-06 3.08965e-06 5.53847e-05
0.000948786 9.53954e-07 6.01242e-06
9.53954e-07 6.91427e-05 3.43294e-06
6.01242e-06 3.43294e-06 6.70428e-06
0.000934568 1.76509e-05 -5.51305e-07
1.76509e-05 8.58965e-05 5.75026e-07
-5.51305e-07 5.75026e-07 4.85171e-06
0.00107011 8.40935e-05 -5.20073e-08
8.40935e-05 0.000168241 1.01647e-06
-5.20073e-08 1.01647e-06 7.74692e-05
0.000962989 3.66964e-05 -2.80802e-07
3.66964e-05 0.000103852 3.19349e-07
-2.80802e-07 3.19349e-07 1.78824e-05
0.00101894 -2.76353e-05 1.22302e-07
-2.76353e-05 0.000117788 -4.25712e-07
1.22302e-07 -4.25712e-07 4.76906e-05
0.000965806 1.57617e-05 3.60531e-07
1.57617e-05 9.23013e-05 4.77785e-07
3.60531e-07 4.77785e-07 1.71454e-05
0.000840977 -1.24332e-05 -6.79636e-07
-1.24332e-05 2.67509e-05 1.1453e-06
-6.79636e-07 1.1453e-06 -4.93538e-05
0.000844315 1.03807e-05 -4.32338e-07
1.03807e-05 3.51091e-05 -2.58607e-08
-4.32338e-07 -2.58607e-08 -4.32158e-05
0.000912006 1.42995e-05 2.17494e-07
1.42995e-05 6.92481e-05 -1.53325e-08
2.17494e-07 -1.53325e-08 -1.22878e-05
0.00100868 4.67249e-05 8.2299e-07
4.67249e-05 0.000136818 -8.2123e-07
8.2299e-07 -8.2123e-07 4.65725e-05
0.000822951 4.57702e-05 2.12616e-06
4.57702e-05 1.66962e-05 -1.77286e-06
2.12616e-06 -1.77286e-06 -6.28969e-05
0.000927796 3.24025e-05 -1.69855e-07
3.24025e-05 7.97784e-05 -6.72409e-07
-1.69855e-07 -6.72409e-07 3.32621e-06
0.00108991 2.89075e-05 5.11073e-07
2.89075e-05 0.000171723 3.08066e-07
5.11073e-07 3.08066e-07 9.53866e-05
-0.00193324 -0.000277814 1.48249e-05
-0.000277814 -0.000995018 2.46689e-05
1.48249e-05 2.46689e-05 -0.000969258
0.000203841 -0.000259025 9.97631e-06
-0.000259025 -0.000154868 2.93665e-06
9.97631e-06 2.93665e-06 1.87434e-05
0.00194246 -2.41886e-05 -2.40464e-05
-2.41886e-05 0.000217444 -1.42947e-05
-2.40464e-05 -1.42947e-05 7.61315e-05
-0.00164152 -0.00045411 -1.02357e-05
-0.00045411 -0.002065 1.32956e-05
-1.02357e-05 1.32956e-05 -0.000888492
0.00434345 -0.000492341 -2.5546e-05
-0.000492341 0.00115732 -4.10401e-05
-2.5546e-05 -4.10401e-05 0.00126526
0.00399157 1.66847e-05 4.46635e-05
1.66847e-05 0.000714038 2.15101e-05
4.46635e-05 2.15101e-05 -0.000543133
0.00202205 -0.000145152 -7.96871e-05
-0.000145152 0.000289603 7.84284e-05
-7.96871e-05 7.84284e-05 -0.000351402
0.00288656 0.000112724 -3.92988e-05
0.000112724 0.000387022 -1.32291e-05
-3.92988e-05 -1.32291e-05 6.58875e-05
0.00303677 -0.000530656 -7.91259e-06
-0.000530656 0.000996012 9.59639e-06
-7.91259e-06 9.59639e-06 0.00115765
0.00228146 -7.61607e-05 1.81549e-05
-7.61607e-05 2.47742e-06 3.3752e-05
1.81549e-05 3.3752e-05 -0.00124219
0.00141989 0.00022198 -9.00746e-05
0.00022198 -0.00011626 -8.8883e-05
-9.00746e-05 -8.8883e-05 -0.000709893
0.00299464 0.000123994 -9.65393e-05
0.000123994 0.000551671 -3.45344e-05
-9.65393e-05 -3.45344e-05 -0.00071986
0.00237437 0.000242614 1.15096e-05
0.000242614 0.000698648 -6.54189e-06
1.15096e-05 -6.54189e-06 0.000570591
0.00087628 0.000103218 -1.07981e-06
0.000103218 6.55828e-05 -5.19813e-08
-1.07981e-06 -5.19813e-08 2.98278e-06
0.00124904 2.23403e-05 -3.11772e-07
2.23403e-05 0.000249531 -2.25504e-06
-3.11772e-07 -2.25504e-06 0.000184814
-0.000255314 4.1362e-05 -2.52602e-05
4.1362e-05 -0.000333781 -1.45143e-05
-2.52602e-05 -1.45143e-05 -0.000514001
0.00152862 8.53955e-05 -2.28031e-06
8.53955e-05 0.000477441 -5.32968e-06
-2.28031e-06 -5.32968e-06 0.000374494
0.000989732 0.000163005 1.24533e-05
0.000163005 0.000120699 1.86348e-07
1.24533e-05 1.86348e-07 3.00288e-06
0.000734534 0.000196399 3.72447e-05
0.000196399 -0.000322701 2.49003e-05
3.72447e-05 2.49003e-05 -0.000380321
-0.00292477 -1.39788e-05 -4.50725e-06
-1.39788e-05 -0.00152486 -8.46099e-06
-4.50725e-06 -8.46099e-06 -0.00123407
3.18767e-05 3.00294e-08 5.97333e-06
3.00294e-08 0.000221041 1.06675e-06
5.97333e-06 1.06675e-06 4.79172e-05
0.000874083 -3.14588e-06 -1.54724e-05
-3.14588e-06 -0.000114585 -5.37735e-07
-1.54724e-05 -5.37735e-07 -0.000200103
0.000674225 -0.000142171 -3.28962e-05
-0.000142171 -0.000240254 -8.39288e-06
-3.28962e-05 -8.39288e-06 -0.000102395
0.00362079 -0.00043682 -5.33257e-05
-0.00043682 0.000722601 -2.98955e-06
-5.33257e-05 -2.98955e-06 9.97492e-05
0.00101755 0.000101212 -3.54235e-05
0.000101212 0.000724554 8.35634e-06
-3.54235e-05 8.35634e-06 0.000710994
0.00109979 0.000272085 2.54844e-05
0.000272085 -0.000249389 -4.20535e-05
2.54844e-05 -4.20535e-05 -0.00164722
0.00653531 0.000459197 -9.16685e-05
0.000459197 0.00325626 1.52118e-05
-9.16685e-05 1.52118e-05 0.00330826
0.00122826 -0.000227291 9.47423e-06
-0.000227291 -2.24621e-05 5.14856e-07
9.47423e-06 5.14856e-07 -1.54328e-05
-0.000978031 0.000213473 -1.60731e-05
0.000213473 -0.000353837 -2.23183e-06
-1.60731e-05 -2.23183e-06 -0.000367195
0.00241315 0.000249488 -7.99179e-06
0.000249488 0.000172968 1.37377e-05
-7.99179e-06 1.37377e-05 -0.00105984
0.00379775 -0.000149211 2.87265e-06
-0.000149211 0.000641263 6.22695e-06
2.87265e-06 6.22695e-06 0.000146865
0.000260782 -0.000125771 -3.39731e-06
-0.000125771 -0.000386747 -8.04439e-06
-3.39731e-06 -8.04439e-06 -0.000476503
0.00652832 7.5386e-05 3.1255e-05
7.5386e-05 0.00212559 3.77381e-06
3.1255e-05 3.77381e-06 0.0012693
0.00136276 5.37852e-05 1.70647e-06
5.37852e-05 -0.000559445 -6.49572e-06
1.70647e-06 -6.49572e-06 -0.000832572
0.000525865 -0.000115979 -6.38013e-06
-0.000115979 -0.000258146 -5.10443e-08
-6.38013e-06 -5.10443e-08 -0.000282894
0.00137137 -0.000158729 -5.09155e-07
-0.000158729 -9.28144e-05 -4.26481e-07
-5.09155e-07 -4.26481e-07 -0.000108247
0.00199964 -0.000193508 -3.67144e-06
-0.000193508 6.02949e-05 -2.56307e-07
-3.67144e-06 -2.56307e-07 4.3628e-05
0.00141059 -0.000166649 -2.90094e-06
-0.000166649 0.00013914 -3.09897e-06
-2.90094e-06 -3.09897e-06 -1.42543e-05
0.00162235 -0.000179202 -2.7151e-06
-0.000179202 5.54491e-05 1.03442e-06
-2.7151e-06 1.03442e-06 -5.0959e-05
0.00170854 -0.000154055 -6.12584e-06
-0.000154055 5.78498e-09 1.01753e-06
-6.12584e-06 1.01753e-06 -6.78465e-05
0.00100016 -0.000137142 2.6398e-06
-0.000137142 -7.89218e-05 8.23218e-07
2.6398e-06 8.23218e-07 -0.000223809
0.001528 -0.000141995 -8.11869e-07
-0.000141995 5.8087e-05 1.62269e-07
-8.11869e-07 1.62269e-07 -4.79398e-05
0.0015437 -0.000122223 -1.58646e-06
-0.000122223 -3.48521e-05 -1.51364e-07
-1.58646e-06 -1.51364e-07 -0.0001101
0.00125895 -0.000130566 2.1022e-06
-0.000130566 3.54494e-05 1.77468e-06
2.1022e-06 1.77468e-06 -9.75582e-05
0.00148156 -0.000123531 -4.73813e-07
-0.000123531 6.31267e-05 7.72697e-07
-4.73813e-07 7.72697e-07 -3.87611e-05
0.00161272 -0.000113262 -1.94769e-06
-0.000113262 8.32513e-05 -5.05637e-07
-1.94769e-06 -5.05637e-07 5.44489e-06
0.00188838 -0.000113333 -4.56591e-07
-0.000113333 0.000283663 -1.79312e-06
-4.56591e-07 -1.79312e-06 0.000198421
0.00155731 -0.000116207 -1.17767e-06
-0.000116207 0.000141934 1.53356e-06
-1.17767e-06 1.53356e-06 4.44149e-05
0.00144288 -0.000114872 -1.09263e-06
-0.000114872 0.000121005 -3.61189e-06
-1.09263e-06 -3.61189e-06 1.57091e-05
0.00134247 -0.00011886 -2.87929e-06
-0.00011886 0.00014272 -2.60057e-07
-2.87929e-06 -2.60057e-07 2.46471e-05
0.0014698 -0.000127704 1.03387e-06
-0.000127704 0.000183229 -3.53858e-07
1.03387e-06 -3.53858e-07 5.90553e-05
0.00141679 -0.000122972 3.07433e-06
-0.000122972 0.000118585 2.75518e-06
3.07433e-06 2.75518e-06 -2.14927e-06
0.000793952 -9.43954e-05 -2.77675e-06
-9.43954e-05 -5.95759e-05 2.1521e-06
-2.77675e-06 2.1521e-06 -0.000170676
0.00104538 -0.000108988 1.66101e-07
-0.000108988 5.02866e-05 -5.68925e-08
1.66101e-07 -5.68925e-08 -7.07901e-05
0.00149752 -0.00013281 4.37784e-06
-0.00013281 0.000259085 -2.25314e-06
4.37784e-06 -2.25314e-06 0.000126446
0.000950353 -8.52101e-05 -1.62751e-06
-8.52101e-05 6.39654e-05 6.73142e-07
-1.62751e-06 6.73142e-07 -2.67902e-05
0.00107728 -0.000102755 1.51991e-07
-0.000102755 0.000122756 -1.95791e-07
1.51991e-07 -1.95791e-07 1.90609e-05
0.00073273 -9.18992e-05 1.37355e-06
-9.18992e-05 -6.59643e-05 -2.89602e-06
1.37355e-06 -2.89602e-06 -0.000182065
0.000823039 -1.68137e-05 -2.49391e-06
-1.68137e-05 2.39893e-05 2.53778e-06
-2.49391e-06 2.53778e-06 -4.50648e-05
0.0010184 -8.19678e-05 -1.21763e-08
-8.19678e-05 0.000108521 -4.98464e-08
-1.21763e-08 -4.98464e-08 2.16876e-05
0.00111956 -0.000100375 1.11233e-06
-0.000100375 0.000159756 -6.91622e-07
1.11233e-06 -6.91622e-07 6.14731e-05
0.000621514 5.36271e-05 -1.96919e-06
5.36271e-05 -6.50856e-05 4.57608e-06
-1.96919e-06 4.57608e-06 -8.98993e-05
0.000813261 4.99029e-06 -3.18595e-08
4.99029e-06 2.14059e-05 4.03917e-08
-3.18595e-08 4.03917e-08 -4.15224e-05
0.000994165 -4.41337e-05 1.59152e-06
-4.41337e-05 0.000108893 -5.64553e-07
1.59152e-06 -5.64553e-07 2.48019e-05
0.00238923 6.47679e-05 -3.11221e-05
6.47679e-05 0.000873714 3.07733e-06
-3.11221e-05 3.07733e-06 0.000883848
0.00070357 4.78754e-05 -1.23488e-07
4.78754e-05 -2.86068e-05 -1.17557e-07
-1.23488e-07 -1.17557e-07 -4.72853e-05
0.000757678 1.01484e-05 2.23727e-06
1.01484e-05 -1.18573e-05 -2.69102e-06
2.23727e-06 -2.69102e-06 -6.36759e-05
0.00161364 5.0036e-05 1.20371e-05
5.0036e-05 0.000453891 -7.47155e-07
1.20371e-05 -7.47155e-07 0.000462764
0.000758392 4.28794e-05 2.46184e-06
4.28794e-05 -8.47072e-06 -3.75637e-06
2.46184e-06 -3.75637e-06 -2.23858e-05
0.00222185 5.18131e-05 2.66694e-05
5.18131e-05 0.000771747 -3.33583e-06
2.66694e-05 -3.33583e-06 0.000786152
0.000961061 4.71649e-05 1.69165e-07
4.71649e-05 9.84109e-05 7.92982e-07
1.69165e-07 7.92982e-07 1.63821e-05
0.000942389 7.50188e-06 -1.39679e-07
7.50188e-06 8.32491e-05 5.18508e-07
-1.39679e-07 5.18508e-07 8.94301e-06
0.000883613 -2.38835e-05 -3.44018e-07
-2.38835e-05 5.18896e-05 -1.28369e-06
-3.44018e-07 -1.28369e-06 -1.66318e-05
0.000922478 1.10679e-05 2.41491e-07
1.10679e-05 6.74009e-05 5.90309e-07
2.41491e-07 5.90309e-07 -4.83911e-06
0.000866258 -2.78127e-05 1.77312e-07
-2.78127e-05 3.45546e-05 -4.48876e-08
1.77312e-07 -4.48876e-08 -2.81688e-05
0.000768631 -4.07681e-05 -1.03604e-06
-4.07681e-05 -9.38286e-06 -2.33663e-06
-1.03604e-06 -2.33663e-06 -5.22868e-05
0.000750631 -3.54493e-05 -2.45269e-06
-3.54493e-05 -2.10241e-05 -3.58544e-06
-2.45269e-06 -3.58544e-06 -3.23371e-05
0.000792178 -3.78648e-05 -1.44427e-07
-3.78648e-05 -3.12932e-06 -1.58043e-08
-1.44427e-07 -1.58043e-08 -4.23175e-05
0.000864293 -4.2596e-05 -1.00314e-07
-4.2596e-05 3.04239e-05 1.34364e-06
-1.00314e-07 1.34364e-06 -2.75986e-05
0.00226342 -4.59689e-05 -2.47187e-05
-4.59689e-05 0.000786106 -3.60637e-06
-2.47187e-05 -3.60637e-06 0.000801715
0.000736863 -3.10194e-05 -2.17142e-07
-3.10194e-05 -3.39845e-05 2.05649e-08
-2.17142e-07 2.05649e-08 -4.34862e-05
0.000811372 -2.06843e-05 1.47754e-06
-2.06843e-05 1.78788e-06 1.78537e-06
1.47754e-06 1.78537e-06 -3.44501e-05
0.00223766 -4.01157e-05 -1.29854e-06
-4.01157e-05 0.000765037 8.30966e-08
-1.29854e-06 8.30966e-08 0.000782318
0.000732667 -2.73027e-05 1.15483e-06
-2.73027e-05 -4.18895e-05 3.41094e-06
1.15483e-06 3.41094e-06 -4.94768e-05
0.00217354 -3.36672e-05 1.62897e-05
-3.36672e-05 0.000724172 3.82248e-06
1.62897e-05 3.82248e-06 0.000743306
0.00129817 8.63596e-05 9.78887e-05
8.63596e-05 0.000695665 2.6494e-05
9.78887e-05 2.6494e-05 0.000430358
0.000277664 -0.000117094 5.43398e-06
-0.000117094 0.0001883 3.54559e-06
5.43398e-06 3.54559e-06 6.23359e-05
0.00143954 -1.23642e-05 -1.63851e-05
-1.23642e-05 0.000104566 -2.62595e-08
-1.63851e-05 -2.62595e-08 1.33689e-05
0.000930256 5.1427e-06 2.90956e-07
5.1427e-06 8.26955e-05 5.77615e-07
2.90956e-07 5.77615e-07 2.16422e-06
0.00093442 1.83507e-05 4.70034e-08
1.83507e-05 8.79089e-05 4.55408e-07
4.70034e-08 4.55408e-07 2.22323e-06
0.000965403 8.13746e-05 -1.00735e-07
8.13746e-05 0.000116597 4.92166e-08
-1.00735e-07 4.92166e-08 2.63058e-05
0.0010891 0.000100752 7.91249e-07
0.000100752 0.000173485 9.98236e-07
7.91249e-07 9.98236e-07 7.82948e-05
0.000994489 7.00498e-05 -6.95333e-07
7.00498e-05 0.000133339 6.00816e-07
-6.95333e-07 6.00816e-07 3.91916e-05
0.000874924 2.0255e-05 9.5927e-08
2.0255e-05 5.07705e-05 7.16761e-07
9.5927e-08 7.16761e-07 -2.81976e-05
0.000890014 1.31155e-05 4.37543e-08
1.31155e-05 5.72809e-05 7.66155e-07
4.37543e-08 7.66155e-07 -2.40857e-05
0.000829441 4.9384e-05 -5.11637e-07
4.9384e-05 4.31116e-05 -6.02295e-07
-5.11637e-07 -6.02295e-07 -4.5701e-05
0.000255172 5.99388e-05 -2.46865e-07
5.99388e-05 -0.000249812 1.37495e-06
-2.46865e-07 1.37495e-06 -0.00034421
0.000840439 8.36485e-05 2.00096e-07
8.36485e-05 2.53958e-05 -1.44796e-06
2.00096e-07 -1.44796e-06 -6.50718e-05
0.00193102 0.0001762 3.49319e-06
0.0001762 0.000469031 -4.56396e-06
3.49319e-06 -4.56396e-06 0.000357232
0.000910024 5.28317e-05 -1.67388e-06
5.28317e-05 7.80209e-05 -2.69653e-07
-1.67388e-06 -2.69653e-07 -3.31805e-06
0.000861604 9.89615e-06 -3.10212e-07
9.89615e-06 4.89103e-05 -4.38171e-07
-3.10212e-07 -4.38171e-07 -2.48993e-05
0.00899568 -0.00012896 -3.23788e-05
-0.00012896 0.00273945 -1.47206e-05
-3.23788e-05 -1.47206e-05 0.00177545
-0.00178355 -0.000277296 -1.86289e-05
-0.000277296 -0.0007843 1.24405e-06
-1.86289e-05 1.24405e-06 -0.000959113
0.00150698 -0.000264579 -3.48204e-05
-0.000264579 0.00055589 -2.07202e-05
-3.48204e-05 -2.07202e-05 0.000713535
-0.00234136 -0.000327698 -2.5355e-05
-0.000327698 -0.00152442 -6.9356e-06
-2.5355e-05 -6.9356e-06 -0.00128196
0.00908851 -0.000369111 5.33296e-05
-0.000369111 0.00314266 2.49266e-05
5.33296e-05 2.49266e-05 0.00157499
0.00204104 6.48905e-05 1.20343e-05
6.48905e-05 0.000122478 1.51646e-05
1.20343e-05 1.51646e-05 -3.09838e-05
0.0019259 0.000245066 -3.50957e-05
0.000245066 3.57598e-05 -2.30924e-05
-3.50957e-05 -2.30924e-05 -0.000437984
0.00637593 -0.000295116 4.14923e-05
-0.000295116 0.0017407 1.75317e-05
4.14923e-05 1.75317e-05 0.000691267
0.00229986 0.000181547 -6.37068e-06
0.000181547 -4.45267e-05 -4.31271e-05
-6.37068e-06 -4.31271e-05 -0.00046592
0.00220312 0.000274172 1.59161e-05
0.000274172 0.000397994 1.13334e-05
1.59161e-05 1.13334e-05 0.000253524
0.000893924 0.000159446 4.7168e-07
0.000159446 2.20161e-05 -4.68479e-06
4.7168e-07 -4.68479e-06 -0.000119076
0.000952987 8.49943e-05 -3.10484e-06
8.49943e-05 9.88171e-05 1.89295e-06
-3.10484e-06 1.89295e-06 4.05769e-05
0.00201083 0.000215283 -3.6903e-05
0.000215283 0.000598918 -1.8642e-05
-3.6903e-05 -1.8642e-05 0.000490472
0.000479831 0.000197317 -1.26834e-05
0.000197317 -0.000428092 1.35805e-05
-1.26834e-05 1.35805e-05 -0.000498518
0.000360245 -3.21025e-05 8.6486e-07
-3.21025e-05 -0.00102745 -4.29685e-06
8.6486e-07 -4.29685e-06 -0.00147677
0.00158898 1.50477e-05 -5.84125e-06
1.50477e-05 0.00072483 -2.70541e-07
-5.84125e-06 -2.70541e-07 0.000739533
-0.00117209 8.30495e-06 -1.44689e-05
8.30495e-06 -0.000381296 1.02392e-06
-1.44689e-05 1.02392e-06 -0.000602974
0.0021128 -0.000271894 -3.7666e-05
-0.000271894 0.000353622 9.90776e-06
-3.7666e-05 9.90776e-06 0.000343977
0.00376392 -0.000181863 1.77855e-06
-0.000181863 0.000465648 -1.94997e-05
1.77855e-06 -1.94997e-05 -0.000278406
0.000123037 -8.09645e-06 -7.09956e-05
-8.09645e-06 0.000199488 2.22494e-05
-7.09956e-05 2.22494e-05 7.75973e-06
0.00782873 0.000449914 -2.77736e-05
0.000449914 0.00285795 1.74456e-05
-2.77736e-05 1.74456e-05 0.00170979
0.000809405 -0.00013767 6.85559e-07
-0.00013767 -0.00014568 -1.64963e-06
6.85559e-07 -1.64963e-06 -0.000196318
0.00520546 0.000204444 2.07889e-05
0.000204444 0.00140147 9.50828e-06
2.07889e-05 9.50828e-06 0.000670931
0.00316681 5.1363e-05 3.95334e-05
5.1363e-05 0.000130298 -2.40253e-06
3.95334e-05 -2.40253e-06 -0.000323525
0.0029196 -0.000148215 -4.79349e-06
-0.000148215 0.00085834 5.26936e-07
-4.79349e-06 5.26936e-07 0.000761616
0.00159018 2.72561e-05 -5.69313e-05
2.72561e-05 0.000143472 2.03005e-07
-5.69313e-05 2.03005e-07 -0.000129377
0.00114192 -0.00015333 3.42743e-06
-0.00015333 -0.000199708 -1.76717e-06
3.42743e-06 -1.76717e-06 -0.000216407
0.00178531 -0.000188802 -1.16188e-06
-0.000188802 -2.01584e-05 2.44984e-06
-1.16188e-06 2.44984e-06 -4.89569e-05
0.00233318 -0.000137113 -7.77214e-06
-0.000137113 0.000189231 -1.96629e-07
-7.77214e-06 -1.96629e-07 0.000152385
0.00172602 -0.00017979 4.24886e-06
-0.00017979 0.000103863 2.0973e-06
4.24886e-06 2.0973e-06 -9.95788e-07
0.0018277 -0.000152359 2.07164e-07
-0.000152359 7.37574e-05 1.27643e-06
2.07164e-07 1.27643e-06 5.6899e-06
0.00186147 -0.000103234 -1.06875e-06
-0.000103234 5.20152e-05 1.7019e-06
-1.06875e-06 1.7019e-06 -7.23389e-06
0.00131093 -0.000132216 2.65413e-06
-0.000132216 -5.54972e-05 3.35702e-06
2.65413e-06 3.35702e-06 -0.000160357
0.00168226 -0.000125111 -2.88405e-08
-0.000125111 4.07781e-05 1.51771e-06
-2.88405e-08 1.51771e-06 -3.64321e-05
0.00165226 -0.000100796 3.06783e-08
-0.000100796 1.25961e-05 2.51278e-06
3.06783e-08 2.51278e-06 -6.15601e-05
0.00131016 -0.000117439 3.50229e-06
-0.000117439 -2.5357e-05 3.70611e-06
3.50229e-06 3.70611e-06 -0.000126897
0.00154974 -0.000112472 -1.9989e-07
-0.000112472 5.63925e-05 1.47549e-06
-1.9989e-07 1.47549e-06 -2.30231e-05
0.00171764 -0.000101902 6.55377e-07
-0.000101902 0.0001359 2.21842e-07
6.55377e-07 2.21842e-07 5.82832e-05
0.00160344 -0.000106903 -2.3528e-06
-0.000106903 0.000139117 1.16734e-06
-2.3528e-06 1.16734e-06 5.67543e-05
0.00175746 -0.000109618 1.91445e-06
-0.000109618 0.000240679 -2.44075e-06
1.91445e-06 -2.44075e-06 0.00014638
0.00151638 -0.000112758 1.90108e-06
-0.000112758 0.000120802 4.92087e-06
1.90108e-06 4.92087e-06 2.57888e-05
0.00144301 -0.000113774 2.59891e-07
-0.000113774 0.000120569 -5.84864e-07
2.59891e-07 -5.84864e-07 1.49089e-05
0.00141915 -0.000111023 -1.32451e-06
-0.000111023 0.000132925 -1.50446e-06
-1.32451e-06 -1.50446e-06 2.48979e-05
0.000935133 -9.87263e-05 -3.23141e-06
-9.87263e-05 -3.86081e-05 9.96526e-07
-3.23141e-06 9.96526e-07 -0.000150194
0.00132933 -0.000117362 8.70576e-08
-0.000117362 0.000136345 -2.36167e-07
8.70576e-08 -2.36167e-07 1.79311e-05
0.00158568 -0.000130905 3.76548e-06
-0.000130905 0.000244251 5.17104e-07
3.76548e-06 5.17104e-07 0.000120059
0.00100149 -9.30659e-05 -2.32056e-06
-9.30659e-05 7.04187e-05 1.23455e-06
-2.32056e-06 1.23455e-06 -2.64193e-05
0.000893535 -9.79829e-05 -6.6765e-07
-9.79829e-05 -6.01854e-06 7.53947e-07
-6.6765e-07 7.53947e-07 -0.000116235
0.0013356 -0.000119933 3.14094e-06
-0.000119933 0.000202059 -1.71524e-06
3.14094e-06 -1.71524e-06 8.20498e-05
0.000749804 -3.11493e-05 -2.52273e-06
-3.11493e-05 -1.95027e-05 1.82129e-06
-2.52273e-06 1.82129e-06 -9.11891e-05
0.00103624 -8.95964e-05 7.59919e-08
-8.95964e-05 0.000107002 -2.01101e-07
7.59919e-08 -2.01101e-07 1.58066e-05
0.00114173 -0.00010505 1.55605e-06
-0.00010505 0.000154557 -1.57109e-06
1.55605e-06 -1.57109e-06 5.0634e-05
0.000590526 5.96427e-05 -1.06262e-06
5.96427e-05 -7.70932e-05 5.11563e-06
-1.06262e-06 5.11563e-06 -0.000109289
0.00083797 -2.04383e-05 -1.42367e-08
-2.04383e-05 3.0416e-05 2.4651e-07
-1.42367e-08 2.4651e-07 -3.8339e-05
0.00106445 -7.51981e-05 1.81635e-06
-7.51981e-05 0.000130702 -5.13672e-07
1.81635e-06 -5.13672e-07 4.44613e-05
0.00259709 7.36243e-05 -3.46473e-05
7.36243e-05 0.000988766 3.02772e-06
-3.46473e-05 3.02772e-06 0.000995995
0.000661315 5.63953e-05 5.71542e-08
5.63953e-05 -4.26162e-05 -1.41868e-07
5.71542e-08 -1.41868e-07 -6.82998e-05
0.000780381 -1.87644e-05 2.35515e-06
-1.87644e-05 1.16258e-06 -2.48411e-06
2.35515e-06 -2.48411e-06 -6.05868e-05
0.00244183 6.5314e-05 5.02935e-07
6.5314e-05 0.000901654 8.95531e-08
5.02935e-07 8.95531e-08 0.000911429
0.000732622 5.06442e-05 1.42601e-06
5.06442e-05 -1.23153e-05 -4.30588e-06
1.42601e-06 -4.30588e-06 -3.17397e-05
0.00232759 5.81468e-05 3.06017e-05
5.81468e-05 0.000835179 -3.222e-06
3.06017e-05 -3.222e-06 0.000847274
0.00101252 8.98205e-05 1.93227e-07
8.98205e-05 0.000124483 4.54927e-07
1.93227e-07 4.54927e-07 3.30031e-05
0.000913755 6.17792e-05 3.52535e-07
6.17792e-05 7.5767e-05 1.32241e-07
3.52535e-07 1.32241e-07 -7.46931e-06
0.00081523 -1.49714e-05 -8.00023e-07
-1.49714e-05 1.92999e-05 -6.01265e-07
-8.00023e-07 -6.01265e-07 -5.69162e-05
0.000896281 -6.39857e-06 7.90406e-08
-6.39857e-06 5.8274e-05 9.26065e-07
7.90406e-08 9.26065e-07 -1.61514e-05
0.000854649 -3.28819e-05 2.37812e-08
-3.28819e-05 3.62027e-05 1.09715e-07
2.37812e-08 1.09715e-07 -3.26999e-05
0.000759677 -3.67823e-05 -1.21409e-06
-3.67823e-05 -9.27994e-06 -2.28599e-06
-1.21409e-06 -2.28599e-06 -5.80589e-05
0.000848708 -3.99262e-05 1.12159e-07
-3.99262e-05 2.51255e-05 1.52325e-06
1.12159e-07 1.52325e-06 -3.73508e-05
0.000782197 -4.05782e-05 -1.77901e-08
-4.05782e-05 -3.12842e-06 -1.07623e-07
-1.77901e-08 -1.07623e-07 -4.57761e-05
0.000743121 -4.14702e-05 -2.48986e-06
-4.14702e-05 -1.69181e-05 -3.7223e-06
-2.48986e-06 -3.7223e-06 -3.08852e-05
0.00227083 -5.16551e-05 -2.71823e-05
-5.16551e-05 0.000797383 -3.39808e-06
-2.71823e-05 -3.39808e-06 0.000811411
0.000733804 -3.45879e-05 -6.62474e-08
-3.45879e-05 -2.95808e-05 2.19448e-08
-6.62474e-08 2.19448e-08 -4.08136e-05
0.000792331 -3.34573e-05 1.47241e-06
-3.34573e-05 -3.73752e-06 1.99544e-06
1.47241e-06 1.99544e-06 -4.24583e-05
0.00226595 -4.59753e-05 -1.15803e-06
-4.59753e-05 0.000786634 9.04927e-08
-1.15803e-06 9.04927e-08 0.000802347
0.000721171 -3.04384e-05 1.59439e-06
-3.04384e-05 -4.20608e-05 3.54699e-06
1.59439e-06 3.54699e-06 -5.15029e-05
0.0022283 -3.99651e-05 1.99302e-05
-3.99651e-05 0.000759435 3.75325e-06
1.99302e-05 3.75325e-06 0.000776873
0.00720052 3.33054e-05 4.90934e-05
3.33054e-05 0.00215044 7.44439e-06
4.90934e-05 7.44439e-06 0.00140056
-0.00216599 -8.46428e-05 -4.70757e-07
-8.46428e-05 -0.00108772 1.36562e-06
-4.70757e-07 1.36562e-06 -0.000975964
-0.000952076 -7.6816e-05 -3.02728e-05
-7.6816e-05 -0.000477 -1.6537e-06
-3.02728e-05 -1.6537e-06 -0.000691872
0.000902188 3.33931e-07 2.01119e-07
3.33931e-07 7.06001e-05 7.30135e-07
2.01119e-07 7.30135e-07 -1.49492e-05
0.000856837 7.83269e-05 -2.05334e-07
7.83269e-05 6.17176e-05 -3.5071e-07
-2.05334e-07 -3.5071e-07 -2.73037e-05
0.00105505 7.4394e-05 4.53742e-07
7.4394e-05 0.000165721 5.33999e-09
4.53742e-07 5.33999e-09 7.16162e-05
0.00101833 9.74795e-05 -7.94274e-07
9.74795e-05 0.000137396 -2.09974e-07
-7.94274e-07 -2.09974e-07 4.24473e-05
0.0011413 0.000106162 5.75875e-06
0.000106162 0.000191281 1.94625e-06
5.75875e-06 1.94625e-06 9.02117e-05
0.000658882 8.00725e-05 -8.11276e-07
8.00725e-05 -4.07874e-05 1.58642e-06
-8.11276e-07 1.58642e-06 -0.000135373
0.000630935 5.03859e-05 -3.01477e-07
5.03859e-05 -5.90411e-05 -1.92539e-07
-3.01477e-07 -1.92539e-07 -0.000147555
0.000622937 7.83949e-05 5.08625e-07
7.83949e-05 -6.27033e-05 -9.46094e-08
5.08625e-07 -9.46094e-08 -0.000160868
0.000799434 7.2903e-05 2.64707e-07
7.2903e-05 1.20289e-05 2.64611e-08
2.64707e-07 2.64611e-08 -8.02283e-05
0.000293928 8.00404e-05 1.47719e-06
8.00404e-05 -0.00028341 6.58968e-07
1.47719e-06 6.58968e-07 -0.000378914
0.00292485 0.0002085 1.3939e-06
0.0002085 0.000970051 -4.92972e-07
1.3939e-06 -4.92972e-07 0.000862915
0.00171562 0.00018435 3.40289e-06
0.00018435 0.000189502 -1.05549e-06
3.40289e-06 -1.05549e-06 6.56893e-05
0.00134616 0.000150826 1.23738e-06
0.000150826 0.000183921 -7.55282e-07
1.23738e-06 -7.55282e-07 7.66134e-05
0.00100615 5.47188e-05 -3.35863e-06
5.47188e-05 0.000140547 1.16295e-06
-3.35863e-06 1.16295e-06 5.86541e-05
0.0022997 -6.13551e-05 -2.27731e-05
-6.13551e-05 -0.000160837 -1.1947e-05
-2.27731e-05 -1.1947e-05 -0.000388515
0.00451492 -0.000134114 5.44045e-06
-0.000134114 0.00093046 4.21692e-07
5.44045e-06 4.21692e-07 7.72964e-06
0.00437667 -0.00044804 -3.68557e-05
-0.00044804 0.00202009 -2.71557e-05
-3.68557e-05 -2.71557e-05 0.00206912
0.00682441 -0.000144288 0.000174988
-0.000144288 0.0020144 5.61112e-05
0.000174988 5.61112e-05 0.000788191
0.00346524 0.00027732 4.70343e-05
0.00027732 0.000805803 4.95353e-05
4.70343e-05 4.95353e-05 0.000611813
0.0019695 0.000128385 -4.29413e-05
0.000128385 3.59597e-05 -1.40539e-05
-4.29413e-05 -1.40539e-05 -0.000209941
0.00176988 0.000192271 2.91558e-05
0.000192271 4.76426e-05 1.64186e-05
2.91558e-05 1.64186e-05 3.02933e-05
0.00195337 0.000263502 -1.85041e-06
0.000263502 0.000276082 5.17465e-06
-1.85041e-06 5.17465e-06 0.000150588
0.000238429 0.000119113 -2.91837e-06
0.000119113 -0.000293048 3.07948e-06
-2.91837e-06 3.07948e-06 -0.000430224
0.00193094 0.000274115 -6.81534e-05
0.000274115 0.000256185 -4.82841e-05
-6.81534e-05 -4.82841e-05 0.000195703
0.00327281 -7.8363e-05 -0.000141015
-7.8363e-05 0.000861234 -8.68595e-07
-0.000141015 -8.68595e-07 0.000476651
0.00687317 4.34907e-05 1.27059e-05
4.34907e-05 0.00230504 -2.93337e-06
1.27059e-05 -2.93337e-06 0.00168058
-0.00486113 -5.46687e-05 8.0346e-06
-5.46687e-05 -0.00263811 4.63482e-06
8.0346e-06 4.63482e-06 -0.00243293
0.00112604 -0.000149648 -5.84841e-07
-0.000149648 -3.07915e-06 1.09467e-05
-5.84841e-07 1.09467e-05 -4.07291e-05
0.00470207 3.1228e-05 6.42489e-05
3.1228e-05 0.000919212 -2.33813e-08
6.42489e-05 -2.33813e-08 0.000526983
0.000949877 -0.000122484 5.31954e-05
-0.000122484 -0.000479195 1.10015e-05
5.31954e-05 1.10015e-05 -0.00113164
0.00150149 -0.000108975 4.13059e-06
-0.000108975 0.00015467 6.17543e-07
4.13059e-06 6.17543e-07 8.99312e-05
0.00150256 8.67487e-05 -1.47914e-06
8.67487e-05 -1.18332e-05 -2.61575e-06
-1.47914e-06 -2.61575e-06 -0.000261128
0.00343978 -5.64189e-05 3.5216e-06
-5.64189e-05 0.000932115 -9.53444e-06
3.5216e-06 -9.53444e-06 0.000875732
0.00128634 5.47431e-05 1.87866e-05
5.47431e-05 -0.000125507 -2.40554e-06
1.87866e-05 -2.40554e-06 -0.000229604
0.00149363 -0.000185037 3.27082e-06
-0.000185037 -0.000134547 3.38428e-07
3.27082e-06 3.38428e-07 -0.000181462
0.00204417 -0.000130848 -2.20085e-07
-0.000130848 5.27457e-05 -1.64155e-06
-2.20085e-07 -1.64155e-06 1.2326e-05
0.00233211 -3.53106e-05 2.06153e-06
-3.53106e-05 0.000272326 -2.26705e-06
2.06153e-06 -2.26705e-06 0.000217322
0.00171918 -0.000147744 8.50628e-06
-0.000147744 3.22713e-05 8.83775e-07
8.50628e-06 8.83775e-07 -3.66577e-05
0.00186128 -0.000101392 2.58964e-06
-0.000101392 6.5206e-05 -4.361e-07
2.58964e-06 -4.361e-07 3.96999e-06
0.00192068 -5.78257e-05 1.04401e-06
-5.78257e-05 0.000133733 6.34887e-07
1.04401e-06 6.34887e-07 5.21951e-05
0.00187022 -0.000128446 3.92549e-06
-0.000128446 0.000141287 2.81884e-06
3.92549e-06 2.81884e-06 6.19662e-05
0.00183309 -0.000104418 6.94006e-07
-0.000104418 0.000112319 3.95748e-07
6.94006e-07 3.95748e-07 3.58644e-05
0.00187527 -8.23936e-05 -3.91058e-07
-8.23936e-05 0.00016056 2.06714e-06
-3.91058e-07 2.06714e-06 7.14299e-05
0.00148265 -0.000111361 2.85889e-06
-0.000111361 2.73209e-05 2.24879e-06
2.85889e-06 2.24879e-06 -5.36817e-05
0.00155628 -0.000100911 5.8194e-07
-0.000100911 6.37519e-05 -1.01186e-06
5.8194e-07 -1.01186e-06 -1.34795e-05
0.00149646 -9.37632e-05 2.83386e-06
-9.37632e-05 6.16289e-05 3.59278e-07
2.83386e-06 3.59278e-07 -3.14176e-05
0.00131871 -0.000100376 -9.87737e-07
-0.000100376 -5.55411e-06 3.93861e-06
-9.87737e-07 3.93861e-06 -8.50176e-05
0.00158758 -0.000104452 -1.26549e-06
-0.000104452 0.0001523 -1.11739e-06
-1.26549e-06 -1.11739e-06 5.982e-05
0.00172878 -0.000107839 1.69212e-07
-0.000107839 0.000250331 -1.18332e-06
1.69212e-07 -1.18332e-06 0.000147801
0.00144191 -0.000112643 1.4488e-06
-0.000112643 0.000119363 2.13296e-06
1.4488e-06 2.13296e-06 1.33612e-05
0.00141819 -0.000110018 3.31682e-07
-0.000110018 0.00013255 -4.0972e-07
3.31682e-07 -4.0972e-07 2.41879e-05
0.00146911 -0.000109549 -1.95507e-06
-0.000109549 0.000187465 -3.51138e-07
-1.95507e-06 -3.51138e-07 8.10599e-05
0.000756578 -8.41978e-05 -3.85745e-06
-8.41978e-05 -9.7243e-05 1.53244e-06
-3.85745e-06 1.53244e-06 -0.000197523
0.00102998 -0.000101359 -5.2593e-07
-0.000101359 1.35808e-05 4.71532e-07
-5.2593e-07 4.71532e-07 -9.72085e-05
0.0013167 -0.000115897 2.75546e-06
-0.000115897 0.000130241 -3.61932e-07
2.75546e-06 -3.61932e-07 1.14854e-05
0.000826091 -5.66753e-05 -3.29437e-06
-5.66753e-05 1.01936e-05 1.842e-06
-3.29437e-06 1.842e-06 -6.58869e-05
0.00105123 -9.47844e-05 1.27248e-07
-9.47844e-05 9.47909e-05 3.84406e-08
1.27248e-07 3.84406e-08 -2.05814e-06
0.00100575 -0.00010209 1.19887e-06
-0.00010209 5.38562e-05 -6.00039e-07
1.19887e-06 -6.00039e-07 -5.54939e-05
0.000630316 4.57156e-05 -3.33667e-06
4.57156e-05 -5.34903e-05 4.85217e-06
-3.33667e-06 4.85217e-06 -9.0996e-05
0.000857136 -3.43475e-05 1.48341e-07
-3.43475e-05 3.70146e-05 3.68265e-08
1.48341e-07 3.68265e-08 -3.55963e-05
0.00111336 -9.34166e-05 2.22206e-06
-9.34166e-05 0.000145554 -1.23338e-06
2.22206e-06 -1.23338e-06 5.39614e-05
0.00283528 8.29286e-05 -3.9658e-05
8.29286e-05 0.00111802 3.03898e-06
-3.9658e-05 3.03898e-06 0.00112213
0.000652713 4.71207e-05 6.88483e-07
4.71207e-05 -4.68206e-05 -2.84332e-08
6.88483e-07 -2.84332e-08 -7.76266e-05
0.000850628 -2.30795e-05 2.90518e-06
-2.30795e-05 3.56278e-05 -2.1297e-06
2.90518e-06 -2.1297e-06 -3.29224e-05
0.00264529 7.3469e-05 6.01752e-07
7.3469e-05 0.00101383 1.11409e-07
6.01752e-07 1.11409e-07 0.00102076
0.000697757 5.42731e-05 1.40034e-06
5.42731e-05 -2.33079e-05 -4.7262e-06
1.40034e-06 -4.7262e-06 -4.90577e-05
0.00249054 6.52734e-05 3.49604e-05
6.52734e-05 0.000927414 -3.20626e-06
3.49604e-05 -3.20626e-06 0.000936938
0.00108474 9.91307e-05 -3.78665e-07
9.91307e-05 0.000154314 -6.70849e-07
-3.78665e-07 -6.70849e-07 5.67556e-05
0.00105953 9.23052e-05 2.36569e-07
9.23052e-05 0.000149071 1.37786e-07
2.36569e-07 1.37786e-07 5.7858e-05
0.000949738 4.33303e-05 -1.22198e-06
4.33303e-05 8.73156e-05 -2.68233e-07
-1.22198e-06 -2.68233e-07 4.77127e-06
0.000881109 7.87305e-05 2.37079e-07
7.87305e-05 6.20401e-05 -1.24525e-07
2.37079e-07 -1.24525e-07 -2.32287e-05
0.000818485 -2.14249e-06 -4.1603e-07
-2.14249e-06 2.18815e-05 -7.4944e-08
-4.1603e-07 -7.4944e-08 -5.55606e-05
0.000758251 -8.68899e-06 -2.2244e-06
-8.68899e-06 -6.57205e-06 -1.77991e-06
-2.2244e-06 -1.77991e-06 -6.44044e-05
0.000830879 -4.03895e-05 1.85638e-07
-4.03895e-05 2.43596e-05 1.2329e-06
1.85638e-07 1.2329e-06 -4.58188e-05
0.000774363 -3.8558e-05 1.13632e-07
-3.8558e-05 -1.48509e-06 -2.34102e-07
1.13632e-07 -2.34102e-07 -5.03363e-05
0.000727601 -4.99832e-05 -1.88418e-06
-4.99832e-05 -1.52939e-05 -3.996e-06
-1.88418e-06 -3.996e-06 -3.37697e-05
0.00079663 -4.09757e-05 1.09197e-06
-4.09757e-05 3.69871e-06 2.21693e-06
1.09197e-06 2.21693e-06 -3.87554e-05
0.000722744 -3.96288e-05 7.07024e-08
-3.96288e-05 -2.79175e-05 -2.70757e-08
7.07024e-08 -2.70757e-08 -4.15629e-05
0.00231935 -5.77256e-05 -2.99683e-05
-5.77256e-05 0.000830853 -3.19601e-06
-2.99683e-05 -3.19601e-06 0.000842932
0.00228136 -5.17229e-05 -6.7202e-07
-5.17229e-05 0.000801935 8.71521e-08
-6.7202e-07 8.71521e-08 0.00081606
0.000717043 -3.37544e-05 2.31204e-06
-3.37544e-05 -3.81766e-05 3.59642e-06
2.31204e-06 3.59642e-06 -4.93232e-05
0.00226984 -4.60618e-05 2.31066e-05
-4.60618e-05 0.000787994 3.64459e-06
2.31066e-05 3.64459e-06 0.000803781
0.00112512 -7.16338e-05 -5.77088e-05
-7.16338e-05 -0.000376413 -1.36421e-06
-5.77088e-05 -1.36421e-06 -0.000619012
0.00169049 -0.000135612 3.77572e-06
-0.000135612 -0.000454649 -7.45391e-07
3.77572e-06 -7.45391e-07 -0.00109612
0.0025274 -0.000297698 -4.33307e-05
-0.000297698 0.00102751 -9.98901e-06
-4.33307e-05 -9.98901e-06 0.00116927
0.00120134 0.000113121 6.14082e-06
0.000113121 0.000178454 1.74269e-06
6.14082e-06 1.74269e-06 7.26836e-05
0.00112914 7.72419e-05 2.86939e-07
7.72419e-05 0.000205073 -7.23487e-07
2.86939e-07 -7.23487e-07 0.000111063
0.000939989 9.37555e-05 -6.65271e-07
9.37555e-05 9.75703e-05 -6.25082e-07
-6.65271e-07 -6.25082e-07 2.89036e-06
0.000908611 9.23926e-05 2.33436e-07
9.23926e-05 8.98557e-05 2.46654e-07
2.33436e-07 2.46654e-07 -6.10582e-06
0.00102915 0.000101317 -1.58225e-07
0.000101317 0.000136886 -6.21381e-07
-1.58225e-07 -6.21381e-07 3.5193e-05
0.000629846 8.82023e-05 -1.17177e-07
8.82023e-05 -9.29717e-05 1.92075e-06
-1.17177e-07 1.92075e-06 -0.000179753
0.00105347 0.000100522 1.5635e-07
0.000100522 0.000158018 -1.7926e-06
1.5635e-07 -1.7926e-06 5.55517e-05
0.000977669 7.05815e-05 -1.457e-06
7.05815e-05 0.000108919 1.37232e-06
-1.457e-06 1.37232e-06 1.42433e-05
0.000959466 0.000110501 1.54202e-07
0.000110501 5.59023e-05 -1.76414e-07
1.54202e-07 -1.76414e-07 -4.01773e-05
0.00215478 0.000176568 7.41578e-07
0.000176568 0.000590342 2.16389e-06
7.41578e-07 2.16389e-06 0.000485429
0.00160338 0.000164361 1.58056e-06
0.000164361 0.000177867 -1.57744e-06
1.58056e-06 -1.57744e-06 6.36794e-05
0.00184674 0.000150308 8.32621e-06
0.000150308 8.36778e-05 6.47416e-06
8.32621e-06 6.47416e-06 -3.98121e-05
0.00130731 0.000167672 4.38613e-07
0.000167672 -1.52808e-05 2.50879e-07
4.38613e-07 2.50879e-07 -0.000138693
0.000834194 0.000126111 -1.50767e-06
0.000126111 -7.10029e-05 3.46944e-06
-1.50767e-06 3.46944e-06 -0.000173516
0.000414758 4.25998e-05 -7.30908e-06
4.25998e-05 -0.000422975 2.05724e-06
-7.30908e-06 2.05724e-06 -0.000430466
0.0037755 -4.97384e-05 -1.06612e-05
-4.97384e-05 0.000384372 1.39309e-06
-1.06612e-05 1.39309e-06 9.03464e-05
0.00150098 -0.00017506 7.73662e-06
-0.00017506 -0.000488244 5.61295e-06
7.73662e-06 5.61295e-06 -0.00132031
0.00284809 0.000210568 4.57039e-05
0.000210568 0.000237111 2.40927e-05
4.57039e-05 2.40927e-05 -0.000143811
0.00126221 0.000162018 -7.66808e-06
0.000162018 -0.000124449 3.6896e-07
-7.66808e-06 3.6896e-07 -0.000154819
0.000427095 0.000188581 -1.78529e-05
0.000188581 -0.000414198 -1.2488e-05
-1.78529e-05 -1.2488e-05 -0.000547678
0.00255192 -8.15391e-05 1.28291e-05
-8.15391e-05 0.000496992 -4.80533e-06
1.28291e-05 -4.80533e-06 0.000397987
0.00120455 -1.17705e-05 -2.2002e-05
-1.17705e-05 -3.8037e-06 2.94736e-06
-2.2002e-05 2.94736e-06 -0.000347709
0.00075765 0.000205156 4.73847e-05
0.000205156 -0.000866681 -9.72888e-06
4.73847e-05 -9.72888e-06 -0.00144557
0.000209286 -6.45251e-05 -6.50532e-06
-6.45251e-05 -0.000509548 1.29546e-05
-6.50532e-06 1.29546e-05 -0.000524988
0.00359146 0.000149863 3.7098e-05
0.000149863 0.000881364 -4.30546e-06
3.7098e-05 -4.30546e-06 0.000586353
0.00171567 -3.26217e-05 4.92231e-06
-3.26217e-05 3.78888e-05 -1.82405e-06
4.92231e-06 -1.82405e-06 -7.13807e-07
0.0020896 7.12581e-05 1.35825e-06
7.12581e-05 0.000294424 -2.82603e-06
1.35825e-06 -2.82603e-06 0.000200727
0.00116152 3.05912e-05 3.90609e-06
3.05912e-05 -0.000324071 -3.15381e-06
3.90609e-06 -3.15381e-06 -0.000401524
0.00239176 4.11342e-05 -1.79895e-06
4.11342e-05 0.000369949 -3.34375e-06
-1.79895e-06 -3.34375e-06 0.000277959
0.00168141 -0.000121376 1.52936e-06
-0.000121376 -0.000117934 -9.57505e-07
1.52936e-06 -9.57505e-07 -0.000160007
0.00195389 -3.49677e-05 3.69076e-06
-3.49677e-05 7.18907e-05 3.94918e-07
3.69076e-06 3.94918e-07 1.26787e-05
0.00209994 -1.00961e-05 3.75244e-07
-1.00961e-05 0.000250476 -2.18934e-06
3.75244e-07 -2.18934e-06 0.000168691
0.0019766 -0.000102563 1.45363e-06
-0.000102563 0.000133856 6.25681e-07
1.45363e-06 6.25681e-07 7.01506e-05
0.00187612 -6.08472e-05 -2.49893e-08
-6.08472e-05 0.00010865 -5.32441e-07
-2.49893e-08 -5.32441e-07 2.62257e-05
0.00180373 -4.47788e-05 -5.20513e-07
-4.47788e-05 0.000118371 -4.1188e-07
-5.20513e-07 -4.1188e-07 1.92344e-05
0.00195412 -0.000107073 -5.26314e-07
-0.000107073 0.000182396 -1.70548e-07
-5.26314e-07 -1.70548e-07 0.000103747
0.00183039 -8.46964e-05 2.43075e-09
-8.46964e-05 0.000147192 -8.83685e-07
2.43075e-09 -8.83685e-07 5.96155e-05
0.00151821 -7.20453e-05 6.93224e-07
-7.20453e-05 2.77011e-05 1.98554e-06
6.93224e-07 1.98554e-06 -7.05808e-05
0.00138207 -9.96214e-05 -5.65643e-07
-9.96214e-05 -1.4898e-05 -2.28096e-06
-5.65643e-07 -2.28096e-06 -9.1727e-05
0.00151773 -9.38802e-05 5.61654e-07
-9.38802e-05 7.19377e-05 -7.73364e-07
5.61654e-07 -7.73364e-07 -2.11959e-05
0.0014909 -9.42636e-05 4.90263e-07
-9.42636e-05 8.40819e-05 2.14773e-07
4.90263e-07 2.14773e-07 -1.85931e-05
0.00141569 -9.92943e-05 -3.02513e-06
-9.92943e-05 6.29388e-05 1.65496e-06
-3.02513e-06 1.65496e-06 -2.77364e-05
0.00154916 -0.000101808 -2.58493e-07
-0.000101808 0.000156294 -7.05948e-07
-2.58493e-07 -7.05948e-07 5.4692e-05
0.00144157 -9.77497e-05 -1.7391e-06
-9.77497e-05 0.000130759 -1.64839e-07
-1.7391e-06 -1.64839e-07 2.61884e-05
0.00141788 -0.000109033 1.94158e-06
-0.000109033 0.000132466 6.6812e-07
1.94158e-06 6.6812e-07 2.37745e-05
0.00127685 -0.000102657 4.22789e-07
-0.000102657 8.84906e-05 -2.47084e-07
4.22789e-07 -2.47084e-07 -1.83092e-05
0.00127977 -9.72323e-05 -3.67394e-06
-9.72323e-05 0.000128183 7.9055e-07
-3.67394e-06 7.9055e-07 2.85979e-05
0.000903535 -6.89237e-05 -4.13823e-06
-6.89237e-05 2.42059e-05 1.93345e-06
-4.13823e-06 1.93345e-06 -5.58649e-05
0.000883514 -8.86873e-05 -8.45364e-07
-8.86873e-05 -2.93076e-05 5.79494e-07
-8.45364e-07 5.79494e-07 -0.000128756
0.00110988 -0.000103316 1.9574e-06
-0.000103316 5.81495e-05 -1.66365e-07
1.9574e-06 -1.66365e-07 -5.17975e-05
0.000637422 -1.12591e-05 -5.99414e-06
-1.12591e-05 -4.86353e-05 4.9862e-06
-5.99414e-06 4.9862e-06 -9.07659e-05
0.000881459 -5.89509e-05 1.68914e-07
-5.89509e-05 3.90678e-05 -9.24826e-09
1.68914e-07 -9.24826e-09 -3.75737e-05
0.00110159 -9.66914e-05 2.67732e-06
-9.66914e-05 0.000119284 -1.20534e-06
2.67732e-06 -1.20534e-06 2.24263e-05
0.00297721 9.11471e-05 -4.42167e-05
9.11471e-05 0.00120141 3.01123e-06
-4.42167e-05 3.01123e-06 0.00120181
0.000672885 1.61927e-05 -2.29853e-07
1.61927e-05 -3.64012e-05 -1.45073e-07
-2.29853e-07 -1.45073e-07 -7.233e-05
0.000920158 -4.06674e-05 3.50934e-06
-4.06674e-05 6.93547e-05 -2.13096e-06
3.50934e-06 -2.13096e-06 -3.44054e-06
0.00282508 8.1236e-05 9.18765e-07
8.1236e-05 0.00111356 1.47141e-07
9.18765e-07 1.47141e-07 0.00111742
0.00069544 3.65299e-05 4.48636e-06
3.65299e-05 -2.45055e-05 -4.60987e-06
4.48636e-06 -4.60987e-06 -5.53445e-05
0.00268299 7.26647e-05 3.97916e-05
7.26647e-05 0.00103345 -3.32855e-06
3.97916e-05 -3.32855e-06 0.00104015
0.000877566 9.58091e-05 -2.952e-07
9.58091e-05 2.01812e-05 -6.9526e-07
-2.952e-07 -6.9526e-07 -8.29797e-05
0.00100555 9.49919e-05 -5.12799e-08
9.49919e-05 0.000113027 -5.01276e-07
-5.12799e-08 -5.01276e-07 1.60578e-05
0.00108263 8.49573e-05 -9.43773e-07
8.49573e-05 0.000147096 -1.55981e-07
-9.43773e-07 -1.55981e-07 5.96049e-05
0.00110116 9.46482e-05 -1.26596e-07
9.46482e-05 0.000170714 -6.09257e-07
-1.26596e-07 -6.09257e-07 7.9791e-05
0.000931259 4.5605e-05 -7.09173e-07
4.5605e-05 7.78466e-05 -3.11209e-07
-7.09173e-07 -3.11209e-07 -4.05792e-06
0.000801851 9.94342e-06 -2.23307e-06
9.94342e-06 1.70619e-05 -1.46067e-06
-2.23307e-06 -1.46067e-06 -4.85163e-05
0.000819611 1.19433e-05 1.8e-07
1.19433e-05 2.25412e-05 5.14453e-08
1.8e-07 5.14453e-08 -5.55413e-05
0.000780407 -3.0039e-05 -1.70831e-07
-3.0039e-05 5.47941e-06 -9.17472e-09
-1.70831e-07 -9.17472e-09 -5.18729e-05
0.000696767 -5.82304e-05 -1.27382e-06
-5.82304e-05 -2.16808e-05 -4.2171e-06
-1.27382e-06 -4.2171e-06 -4.63138e-05
0.000787012 -4.09902e-05 1.16287e-06
-4.09902e-05 5.45871e-06 2.33509e-06
1.16287e-06 2.33509e-06 -4.35184e-05
0.000703027 -4.71443e-05 5.95661e-08
-4.71443e-05 -2.92212e-05 -7.18387e-08
5.95661e-08 -7.18387e-08 -4.69976e-05
0.00242547 -6.4423e-05 -3.34715e-05
-6.4423e-05 0.000894015 -3.01904e-06
-3.34715e-05 -3.01904e-06 0.000903771
0.000709859 -3.82124e-05 2.81183e-06
-3.82124e-05 -3.49711e-05 3.60586e-06
2.81183e-06 3.60586e-06 -4.83438e-05
0.00230902 -5.77106e-05 -4.00729e-07
-5.77106e-05 0.000824329 7.73217e-08
-4.00729e-07 7.73217e-08 0.000836612
0.00228888 -5.16788e-05 2.62518e-05
-5.16788e-05 0.000805041 3.48476e-06
2.62518e-05 3.48476e-06 0.000819263
0.000535786 -3.18756e-05 -3.84034e-07
-3.18756e-05 -0.000403277 -1.50958e-07
-3.84034e-07 -1.50958e-07 -0.000438114
0.00316599 -5.67887e-05 1.91969e-06
-5.67887e-05 0.000365213 1.06584e-05
1.91969e-06 1.06584e-05 4.18292e-05
0.00583086 0.000124502 -7.3678e-05
0.000124502 0.00175532 -9.73466e-06
-7.3678e-05 -9.73466e-06 0.00102269
0.000845997 9.4032e-05 3.28597e-06
9.4032e-05 -2.73316e-05 1.33099e-06
3.28597e-06 1.33099e-06 -0.000121527
0.00142793 0.000127143 4.16073e-06
0.000127143 0.00019526 -1.3678e-06
4.16073e-06 -1.3678e-06 8.33368e-05
0.00080401 9.66504e-05 5.71426e-08
9.66504e-05 -1.76393e-05 -7.26721e-07
5.71426e-08 -7.26721e-07 -0.000121689
0.00113186 0.000103403 -1.09318e-06
0.000103403 0.000205759 -2.12495e-06
-1.09318e-06 -2.12495e-06 0.00010869
0.00094963 9.79661e-05 -9.57384e-07
9.79661e-05 9.89127e-05 -1.11869e-06
-9.57384e-07 -1.11869e-06 -3.50361e-06
0.00100991 0.000106873 2.22558e-06
0.000106873 9.33718e-05 1.29599e-06
2.22558e-06 1.29599e-06 4.23116e-06
0.00170042 0.000155827 -2.16674e-06
0.000155827 0.000232713 -3.35305e-06
-2.16674e-06 -3.35305e-06 0.000126183
0.00150342 0.000135205 9.14582e-07
0.000135205 0.000334933 -4.44939e-07
9.14582e-07 -4.44939e-07 0.000238503
0.000960671 0.000126377 -1.60946e-06
0.000126377 -3.16622e-07 5.36567e-06
-1.60946e-06 5.36567e-06 -0.000102226
0.00160114 0.000163971 -1.13488e-06
0.000163971 0.000179262 4.70627e-08
-1.13488e-06 4.70627e-08 6.56393e-05
0.00154568 0.000136131 -8.52622e-07
0.000136131 -9.19639e-06 -7.94195e-07
-8.52622e-07 -7.94195e-07 -0.000137241
0.00154241 4.14377e-05 9.58066e-06
4.14377e-05 -0.000116614 4.1272e-06
9.58066e-06 4.1272e-06 -0.000208217
0.00204857 0.000153142 4.28232e-06
0.000153142 0.000191688 2.11037e-06
4.28232e-06 2.11037e-06 6.89299e-05
0.00125908 0.000163147 -4.55615e-06
0.000163147 -3.97612e-05 1.73219e-06
-4.55615e-06 1.73219e-06 -0.00016246
0.00107442 3.56489e-05 6.31493e-08
3.56489e-05 -9.80106e-05 -5.13117e-07
6.31493e-08 -5.13117e-07 -0.00011044
0.00469705 -0.00013988 4.81325e-05
-0.00013988 0.000721859 2.16626e-05
4.81325e-05 2.16626e-05 0.00039744
0.00167295 0.000154497 -1.10033e-08
0.000154497 0.000146469 -7.56077e-06
-1.10033e-08 -7.56077e-06 0.00010708
0.0017277 -1.37825e-05 6.34443e-06
-1.37825e-05 9.97005e-05 -1.60238e-06
6.34443e-06 -1.60238e-06 2.4796e-05
0.0018865 -5.00528e-05 -1.19452e-06
-5.00528e-05 0.000203606 6.13556e-07
-1.19452e-06 6.13556e-07 8.55904e-05
0.000666734 5.86726e-05 5.3801e-05
5.86726e-05 -0.000464705 2.04516e-07
5.3801e-05 2.04516e-07 -0.000883408
0.00016077 -2.02571e-05 -7.87592e-06
-2.02571e-05 -0.000756097 4.10564e-06
-7.87592e-06 4.10564e-06 -0.000782964
0.00255055 7.38253e-05 -2.95694e-05
7.38253e-05 0.000546721 3.94382e-06
-2.95694e-05 3.94382e-06 0.000466222
0.00123232 2.39542e-05 2.06408e-07
2.39542e-05 -0.000294469 4.21731e-06
2.06408e-07 4.21731e-06 -0.000365036
0.00214294 3.2436e-05 1.35901e-06
3.2436e-05 0.000216398 9.19226e-07
1.35901e-06 9.19226e-07 0.000126368
0.00192683 3.097e-06 1.82984e-07
3.097e-06 0.000123686 1.32917e-07
1.82984e-07 1.32917e-07 3.95515e-05
0.00148748 8.08302e-06 1.95575e-06
8.08302e-06 -0.000114152 -1.37913e-06
1.95575e-06 -1.37913e-06 -0.000198421
0.00155649 -3.56e-05 5.42139e-06
-3.56e-05 -0.000141352 1.84003e-06
5.42139e-06 1.84003e-06 -0.000204557
0.00175898 -1.08897e-05 -1.86725e-06
-1.08897e-05 7.18849e-05 -1.59768e-08
-1.86725e-06 -1.59768e-08 -9.11268e-06
0.00168586 -9.02801e-06 5.20109e-07
-9.02801e-06 6.01361e-05 -1.10371e-06
5.20109e-07 -1.10371e-06 -3.1642e-05
0.00195238 -6.45385e-05 -3.2166e-06
-6.45385e-05 0.000146734 -3.16378e-07
-3.2166e-06 -3.16378e-07 6.38119e-05
0.0018101 -4.50607e-05 -5.4512e-07
-4.50607e-05 0.000124502 -2.36806e-07
-5.4512e-07 -2.36806e-07 2.66032e-05
0.00155705 -3.53399e-05 -6.76112e-07
-3.53399e-05 2.16931e-05 -1.772e-07
-6.76112e-07 -1.772e-07 -8.01569e-05
0.00178921 -8.69606e-05 -2.33144e-06
-8.69606e-05 0.000135748 -3.25209e-06
-2.33144e-06 -3.25209e-06 4.96977e-05
0.00161833 -7.31328e-05 4.6264e-07
-7.31328e-05 7.61338e-05 6.26996e-07
4.6264e-07 6.26996e-07 -2.23387e-05
0.00155727 -7.53939e-05 -2.34736e-07
-7.53939e-05 6.98115e-05 6.64633e-07
-2.34736e-07 6.64633e-07 -3.34527e-05
0.00154491 -9.41118e-05 -1.19631e-06
-9.41118e-05 8.51989e-05 -1.87942e-06
-1.19631e-06 -1.87942e-06 -8.01541e-06
0.00149794 -9.35183e-05 2.09013e-07
-9.35183e-05 8.69859e-05 -2.95779e-07
2.09013e-07 -2.95779e-07 -1.56099e-05
0.00143398 -9.19682e-05 -1.43572e-06
-9.19682e-05 8.66554e-05 4.76565e-07
-1.43572e-06 4.76565e-07 -1.91033e-05
0.00136968 -9.58368e-05 -2.156e-07
-9.58368e-05 6.23285e-05 3.35907e-07
-2.156e-07 3.35907e-07 -3.83554e-05
0.0012909 -9.31125e-05 -1.76481e-07
-9.31125e-05 5.37871e-05 -2.75548e-07
-1.76481e-07 -2.75548e-07 -5.04737e-05
0.00124255 -8.85453e-05 -3.75556e-06
-8.85453e-05 7.21558e-05 7.89132e-07
-3.75556e-06 7.89132e-07 -2.70593e-05
0.00107925 -9.5633e-05 2.63608e-06
-9.5633e-05 -1.31144e-05 -1.39363e-07
2.63608e-06 -1.39363e-07 -0.000120324
0.0010694 -8.93248e-05 2.1476e-07
-8.93248e-05 1.99602e-05 6.21302e-09
2.1476e-07 6.21302e-09 -7.95418e-05
0.000966744 -7.18192e-05 -5.21038e-06
-7.18192e-05 2.21412e-05 2.05452e-06
-5.21038e-06 2.05452e-06 -5.91513e-05
0.000568449 -3.37305e-05 -7.3377e-06
-3.37305e-05 -8.77059e-05 5.32641e-06
-7.3377e-06 5.32641e-06 -0.000134867
0.000930211 -7.12905e-05 1.86181e-07
-7.12905e-05 3.8234e-05 3.01646e-08
1.86181e-07 3.01646e-08 -4.21546e-05
0.00101605 -9.34808e-05 1.90614e-06
-9.34808e-05 4.15167e-05 -2.87794e-07
1.90614e-06 -2.87794e-07 -5.71317e-05
0.00311293 0.0001015 -4.62607e-05
0.0001015 0.00128898 2.93444e-06
-4.62607e-05 2.93444e-06 0.00128426
0.000698647 -3.84423e-06 -3.17356e-07
-3.84423e-06 -1.97906e-05 -4.82228e-08
-3.17356e-07 -4.82228e-08 -6.28855e-05
0.000959011 -5.88083e-05 3.84437e-06
-5.88083e-05 8.0132e-05 -1.91722e-06
3.84437e-06 -1.91722e-06 2.44445e-06
0.00299005 9.06085e-05 9.80496e-07
9.06085e-05 0.00121094 1.78751e-07
9.80496e-07 1.78751e-07 0.00121062
0.000737502 1.36166e-05 6.05297e-06
1.36166e-05 -4.91877e-06 -4.58045e-06
6.05297e-06 -4.58045e-06 -4.07748e-05
0.002852 8.05306e-05 4.41808e-05
8.05306e-05 0.00112858 -3.29876e-06
4.41808e-05 -3.29876e-06 0.00113201
0.000621787 9.10343e-05 -8.83241e-08
9.10343e-05 -0.000164438 -6.48576e-07
-8.83241e-08 -6.48576e-07 -0.000275678
0.000712988 8.86323e-05 4.10942e-08
8.86323e-05 -6.73416e-05 -1.60626e-07
4.10942e-08 -1.60626e-07 -0.000171047
0.00112797 9.5071e-05 -1.49623e-06
9.5071e-05 0.000146505 -2.95621e-07
-1.49623e-06 -2.95621e-07 5.32469e-05
0.00092746 9.08838e-05 -2.7143e-07
9.08838e-05 7.22283e-05 -5.77273e-07
-2.7143e-07 -5.77273e-07 -2.4137e-05
0.000990604 8.00115e-05 -2.04628e-07
8.00115e-05 9.98681e-05 -1.66906e-07
-2.04628e-07 -1.66906e-07 1.29503e-05
0.000888845 2.8862e-05 -2.72917e-06
2.8862e-05 6.22567e-05 -1.21869e-06
-2.72917e-06 -1.21869e-06 -9.5276e-06
0.000915124 4.73657e-05 2.52849e-07
4.73657e-05 6.97464e-05 -5.47575e-07
2.52849e-07 -5.47575e-07 -1.1592e-05
0.00080394 1.49455e-06 3.44765e-08
1.49455e-06 2.13214e-05 9.64728e-08
3.44765e-08 9.64728e-08 -4.50984e-05
0.000678229 -5.1815e-05 -2.67171e-06
-5.1815e-05 -2.75132e-05 -4.1844e-06
-2.67171e-06 -4.1844e-06 -5.74824e-05
0.000800797 -4.18661e-05 1.27243e-06
-4.18661e-05 1.78113e-05 2.2656e-06
1.27243e-06 2.2656e-06 -3.99263e-05
0.000667185 -5.61746e-05 -1.95014e-08
-5.61746e-05 -3.85376e-05 -1.07741e-07
-1.95014e-08 -1.07741e-07 -6.24533e-05
0.00257707 -7.19238e-05 -3.75244e-05
-7.19238e-05 0.00097983 -2.9533e-06
-3.75244e-05 -2.9533e-06 0.000986914
0.000679324 -4.43101e-05 2.9498e-06
-4.43101e-05 -4.26926e-05 3.69041e-06
2.9498e-06 3.69041e-06 -5.97868e-05
0.00239621 -6.43801e-05 -4.20585e-07
-6.43801e-05 0.000877921 7.99495e-08
-4.20585e-07 7.99495e-08 0.000887934
0.00230925 -5.75928e-05 2.85154e-05
-5.75928e-05 0.000823431 3.26362e-06
2.85154e-05 3.26362e-06 0.000835907
0.00150137 -1.97241e-05 1.07182e-05
-1.97241e-05 -0.00011535 8.19533e-07
1.07182e-05 8.19533e-07 -0.000191745
0.00106517 -5.53279e-05 4.27117e-07
-5.53279e-05 -0.000197771 1.71252e-06
4.27117e-07 1.71252e-06 -0.000244636
0.00227926 -0.000107013 6.98367e-05
-0.000107013 -4.63167e-06 1.57514e-05
6.98367e-05 1.57514e-05 -0.000260149
0.00214186 0.000149948 2.30787e-06
0.000149948 0.000478675 -2.83431e-06
2.30787e-06 -2.83431e-06 0.000372768
0.000832375 9.65708e-05 -1.57017e-06
9.65708e-05 -2.12039e-05 5.15732e-07
-1.57017e-06 5.15732e-07 -0.000110023
0.000709586 0.000102389 -2.80209e-06
0.000102389 -0.000275234 1.22987e-06
-2.80209e-06 1.22987e-06 -0.000390209
0.00144045 0.000127952 4.54386e-07
0.000127952 0.000200457 1.69082e-07
4.54386e-07 1.69082e-07 8.76349e-05
0.000413435 8.02449e-05 -3.00294e-06
8.02449e-05 -0.000209406 6.01707e-07
-3.00294e-06 6.01707e-07 -0.000311836
0.00185104 0.000129836 -1.99482e-06
0.000129836 0.000165594 -4.6355e-06
-1.99482e-06 -4.6355e-06 4.44403e-05
0.00137513 0.000124692 -1.51973e-06
0.000124692 0.000272527 -8.71788e-07
-1.51973e-06 -8.71788e-07 0.000181139
0.00165995 0.000152042 -3.17877e-07
0.000152042 0.000207755 7.30275e-07
-3.17877e-07 7.30275e-07 0.00010122
0.00174619 6.57729e-05 4.38193e-06
6.57729e-05 5.82605e-05 2.21442e-06
4.38193e-06 2.21442e-06 -5.65505e-05
0.00163197 0.000165436 1.28131e-06
0.000165436 0.000196232 3.08477e-06
1.28131e-06 3.08477e-06 8.31885e-05
0.0017901 0.000144878 -1.12593e-06
0.000144878 0.000102084 -1.12469e-06
-1.12593e-06 -1.12469e-06 -2.82521e-05
0.00166841 4.96331e-05 -2.67085e-07
4.96331e-05 -3.90619e-05 -4.9735e-07
-2.67085e-07 -4.9735e-07 -0.000132642
0.00182726 0.000140029 -1.98832e-06
0.000140029 9.85179e-05 -1.02702e-06
-1.98832e-06 -1.02702e-06 -2.37738e-05
0.00115052 3.37513e-05 -4.56319e-06
3.37513e-05 -6.31443e-05 -6.80237e-06
-4.56319e-06 -6.80237e-06 -7.77309e-05
0.00162214 -6.80126e-06 5.38025e-06
-6.80126e-06 -7.31403e-06 -2.42867e-07
5.38025e-06 -2.42867e-07 -9.41536e-05
0.00176821 -4.98943e-06 -8.78166e-07
-4.98943e-06 0.000120277 1.24653e-07
-8.78166e-07 1.24653e-07 4.44534e-05
0.000886857 -9.99853e-06 -9.82581e-06
-9.99853e-06 -0.000260341 2.65344e-06
-9.82581e-06 2.65344e-06 -0.000396153
0.00131388 1.87551e-05 -2.45054e-06
1.87551e-05 -0.000267031 3.25742e-06
-2.45054e-06 3.25742e-06 -0.000330528
0.00207157 2.59094e-05 8.08355e-06
2.59094e-05 0.000154407 2.8202e-06
8.08355e-06 2.8202e-06 6.61531e-05
0.00187571 4.39856e-06 -3.04125e-06
4.39856e-06 9.51886e-05 -3.30961e-07
-3.04125e-06 -3.30961e-07 1.19502e-05
0.00172689 5.74538e-06 4.88338e-07
5.74538e-06 1.56136e-05 6.71029e-07
4.88338e-07 6.71029e-07 -6.76476e-05
0.00180532 1.41472e-06 1.61872e-06
1.41472e-06 8.90559e-05 -3.83247e-07
1.61872e-06 -3.83247e-07 -3.70333e-06
0.00146046 -1.12704e-05 -3.10556e-06
-1.12704e-05 -8.3822e-05 5.36628e-07
-3.10556e-06 5.36628e-07 -0.000164286
0.00174405 -7.83348e-06 -6.78208e-08
-7.83348e-06 9.25697e-05 1.61435e-07
-6.78208e-08 1.61435e-07 2.56112e-07
0.00164329 -2.80281e-06 -3.31218e-07
-2.80281e-06 5.42381e-05 -6.01285e-07
-3.31218e-07 -6.01285e-07 -4.57357e-05
0.00183587 -4.5764e-05 -1.7627e-06
-4.5764e-05 0.000140502 7.64843e-08
-1.7627e-06 7.64843e-08 4.38199e-05
0.0016413 -3.64577e-05 -1.20483e-07
-3.64577e-05 6.47088e-05 6.84962e-07
-1.20483e-07 6.84962e-07 -3.7241e-05
0.0016307 -3.79165e-05 -1.16521e-06
-3.79165e-05 8.15573e-05 -5.16134e-07
-1.16521e-06 -5.16134e-07 -2.19029e-05
0.00172346 -7.42119e-05 6.59177e-07
-7.42119e-05 0.000127081 -6.61872e-07
6.59177e-07 -6.61872e-07 2.84287e-05
0.00159359 -7.50086e-05 2.32991e-07
-7.50086e-05 8.72578e-05 5.31158e-07
2.32991e-07 5.31158e-07 -1.60573e-05
0.00151552 -7.72948e-05 -1.73863e-06
-7.72948e-05 8.27151e-05 3.67213e-07
-1.73863e-06 3.67213e-07 -2.2724e-05
0.00150819 -9.29044e-05 1.76722e-07
-9.29044e-05 9.15075e-05 -8.45423e-07
1.76722e-07 -8.45423e-07 -1.10119e-05
0.00143589 -9.13438e-05 1.14559e-07
-9.13438e-05 8.71585e-05 -6.88641e-08
1.14559e-07 -6.88641e-08 -1.8502e-05
0.00131295 -8.43657e-05 -3.59517e-06
-8.43657e-05 6.80447e-05 1.06459e-06
-3.59517e-06 1.06459e-06 -3.33477e-05
0.00114741 -8.86579e-05 1.49391e-06
-8.86579e-05 -1.9596e-05 -2.48042e-07
1.49391e-06 -2.48042e-07 -0.000123536
0.0012342 -8.7631e-05 2.6589e-08
-8.7631e-05 6.77996e-05 -1.05632e-07
2.6589e-08 -1.05632e-07 -3.12573e-05
0.00102406 -6.94889e-05 -6.2498e-06
-6.94889e-05 1.78042e-05 2.35265e-06
-6.2498e-06 2.35265e-06 -6.45651e-05
0.000860389 -8.14018e-05 3.21535e-06
-8.14018e-05 -8.75757e-05 -5.82006e-07
3.21535e-06 -5.82006e-07 -0.000186985
0.00098032 -7.26662e-05 2.28083e-07
-7.26662e-05 2.91687e-05 -2.29837e-08
2.28083e-07 -2.29837e-08 -5.23007e-05
0.00171122 -8.85682e-06 -7.88633e-06
-8.85682e-06 0.000516647 3.61602e-06
-7.88633e-06 3.61602e-06 0.000471243
0.00107013 3.6171e-05 -5.08866e-05
3.6171e-05 0.000210328 6.91137e-06
-5.08866e-05 6.91137e-06 0.000191411
0.00124832 -1.84723e-05 -1.26434e-06
-1.84723e-05 0.0002694 -7.81043e-08
-1.26434e-06 -7.81043e-08 0.000224373
0.000973349 -7.4005e-05 4.45251e-06
-7.4005e-05 6.09516e-05 -1.70995e-06
4.45251e-06 -1.70995e-06 -1.98078e-05
0.00318626 9.90047e-05 2.43194e-06
9.90047e-05 0.00133044 2.54421e-07
2.43194e-06 2.54421e-07 0.00132524
0.000767476 -1.96004e-05 7.34252e-06
-1.96004e-05 9.73564e-06 -4.82377e-06
7.34252e-06 -4.82377e-06 -3.2232e-05
0.00299561 8.69949e-05 4.97541e-05
8.69949e-05 0.00121591 -3.16236e-06
4.97541e-05 -3.16236e-06 0.00121541
0.00127026 0.000108387 -2.10068e-07
0.000108387 -3.06764e-05 2.24151e-07
-2.10068e-07 2.24151e-07 -0.000135731
0.000789031 0.000100155 2.50625e-06
0.000100155 -0.000140134 1.28078e-06
2.50625e-06 1.28078e-06 -0.000253955
0.000808052 9.96521e-05 -1.98558e-07
9.96521e-05 -7.48774e-05 -1.09667e-07
-1.98558e-07 -1.09667e-07 -0.000187611
0.00114569 0.000100537 -1.79883e-06
0.000100537 0.000124 -5.35241e-07
-1.79883e-06 -5.35241e-07 2.58408e-05
0.000543872 8.12769e-05 -1.40689e-07
8.12769e-05 -0.000157192 4.96247e-07
-1.40689e-07 4.96247e-07 -0.000261435
0.00102831 8.9433e-05 -2.98119e-07
8.9433e-05 9.65698e-05 -9.08029e-08
-2.98119e-07 -9.08029e-08 3.9361e-06
0.000950831 4.87264e-05 -3.18418e-06
4.87264e-05 8.49315e-05 -9.6411e-07
-3.18418e-06 -9.6411e-07 9.8595e-06
0.000906398 7.53432e-05 9.05772e-07
7.53432e-05 5.6774e-05 3.22464e-08
9.05772e-07 3.22464e-08 -2.96048e-05
0.000828337 2.37848e-05 -8.26624e-08
2.37848e-05 3.17798e-05 1.97047e-07
-8.26624e-08 1.97047e-07 -3.98725e-05
0.000711208 -3.1751e-05 -4.85637e-06
-3.1751e-05 -1.00134e-05 -4.08827e-06
-4.85637e-06 -4.08827e-06 -4.615e-05
0.000820661 -1.58395e-05 1.38493e-06
-1.58395e-05 3.20604e-05 1.64222e-06
1.38493e-06 1.64222e-06 -3.43538e-05
0.000636988 -6.24935e-05 -7.29064e-08
-6.24935e-05 -4.72551e-05 -1.34915e-07
-7.29064e-08 -1.34915e-07 -7.84107e-05
0.00273997 -8.01e-05 -4.15967e-05
-8.01e-05 0.00107213 -2.97652e-06
-4.15967e-05 -2.97652e-06 0.00107594
0.000637604 -5.32182e-05 2.54144e-06
-5.32182e-05 -5.55701e-05 3.95945e-06
2.54144e-06 3.95945e-06 -7.86201e-05
0.00254488 -7.21723e-05 -4.6915e-07
-7.21723e-05 0.000962716 9.48476e-08
-4.6915e-07 9.48476e-08 0.000970047
0.00237189 -6.41771e-05 3.07712e-05
-6.41771e-05 0.000864285 3.02803e-06
3.07712e-05 3.02803e-06 0.000874594
0.00167063 1.11595e-05 6.51785e-06
1.11595e-05 1.81506e-05 1.47385e-06
6.51785e-06 1.47385e-06 -7.99527e-05
0.00207569 -2.25384e-05 -1.77481e-06
-2.25384e-05 0.000209951 -7.98145e-07
-1.77481e-06 -7.98145e-07 0.00013648
0.00217703 -9.45731e-05 -1.14398e-06
-9.45731e-05 0.000299937 3.15767e-08
-1.14398e-06 3.15767e-08 0.00023751
0.00164415 0.000117581 -5.59829e-06
0.000117581 8.27194e-05 -3.03094e-06
-5.59829e-06 -3.03094e-06 -3.23191e-05
0.00173191 0.000135427 -3.09086e-07
0.000135427 0.00029301 6.1132e-07
-3.09086e-07 6.1132e-07 0.00019114
0.000748826 9.67446e-05 -8.25062e-06
9.67446e-05 -5.1839e-05 4.39992e-07
-8.25062e-06 4.39992e-07 -0.000135065
0.00145405 0.0001271 2.15656e-06
0.0001271 0.000100676 1.638e-06
2.15656e-06 1.638e-06 -1.25354e-05
0.00147407 0.000129562 -3.19858e-06
0.000129562 0.000216541 7.31353e-07
-3.19858e-06 7.31353e-07 0.000102767
0.00204461 6.6799e-05 -6.33286e-07
6.6799e-05 0.000214658 1.38991e-06
-6.33286e-07 1.38991e-06 9.52545e-05
0.00166207 0.00012563 -2.46286e-06
0.00012563 6.969e-05 -1.98288e-06
-2.46286e-06 -1.98288e-06 -5.45965e-05
0.00162204 0.000148876 1.39457e-06
0.000148876 0.000184361 5.93075e-06
1.39457e-06 5.93075e-06 7.75754e-05
0.0017595 6.70214e-05 -4.43158e-07
6.70214e-05 6.388e-05 -4.03153e-08
-4.43158e-07 -4.03153e-08 -5.1269e-05
0.00214193 0.000156955 6.90277e-07
0.000156955 0.000265776 -5.43507e-07
6.90277e-07 -5.43507e-07 0.000133237
0.00181618 5.58147e-05 -1.11082e-05
5.58147e-05 4.15988e-05 -5.03354e-06
-1.11082e-05 -5.03354e-06 -5.32418e-05
0.00189663 -4.29705e-06 3.08652e-06
-4.29705e-06 0.000133683 9.94633e-08
3.08652e-06 9.94633e-08 3.7277e-05
0.00177594 -4.45111e-06 -5.85746e-07
-4.45111e-06 6.59845e-05 -5.83215e-07
-5.85746e-07 -5.83215e-07 -2.01211e-05
0.00200406 5.73904e-06 -6.72612e-06
5.73904e-06 0.000235102 2.63919e-06
-6.72612e-06 2.63919e-06 0.00015883
0.00178171 4.62157e-06 -2.90874e-06
4.62157e-06 4.71732e-05 1.12334e-06
-2.90874e-06 1.12334e-06 -3.52278e-05
0.00187996 2.9106e-06 1.93625e-06
2.9106e-06 0.00010191 2.21199e-06
1.93625e-06 2.21199e-06 1.9758e-05
0.00180104 2.18308e-06 -5.16401e-07
2.18308e-06 8.7249e-05 -2.15075e-07
-5.16401e-07 -2.15075e-07 -4.14653e-06
0.00176817 6.58503e-06 1.13735e-06
6.58503e-06 9.51779e-05 -3.41653e-07
1.13735e-06 -3.41653e-07 -9.52437e-06
0.00178238 -6.94137e-06 3.88393e-07
-6.94137e-06 0.000114251 1.2513e-06
3.88393e-07 1.2513e-06 2.14829e-05
0.00163192 -4.64745e-06 -5.87517e-07
-4.64745e-06 5.27662e-05 4.11586e-08
-5.87517e-07 4.11586e-08 -4.74694e-05
0.00162924 -8.78481e-06 -1.45616e-06
-8.78481e-06 7.20626e-05 8.53992e-07
-1.45616e-06 8.53992e-07 -3.578e-05
0.00172222 -3.76257e-05 8.1708e-07
-3.76257e-05 0.000105941 1.0368e-06
8.1708e-07 1.0368e-06 3.90198e-06
0.00163955 -3.80942e-05 -4.76405e-08
-3.80942e-05 8.59869e-05 -1.3397e-07
-4.76405e-08 -1.3397e-07 -1.74324e-05
0.00156125 -4.61949e-05 -2.15651e-06
-4.61949e-05 7.99828e-05 -5.41658e-07
-2.15651e-06 -5.41658e-07 -2.40407e-05
0.00162502 -7.44332e-05 1.29612e-06
-7.44332e-05 0.000102245 3.41875e-07
1.29612e-06 3.41875e-07 -1.11746e-06
0.00152232 -7.67978e-05 1.04932e-07
-7.67978e-05 8.57338e-05 4.53591e-07
1.04932e-07 4.53591e-07 -1.96678e-05
0.0013942 -7.34489e-05 -3.80621e-06
-7.34489e-05 6.95726e-05 8.15118e-07
-3.80621e-06 8.15118e-07 -3.22927e-05
0.00143789 -9.07664e-05 1.73494e-06
-9.07664e-05 8.77176e-05 -6.16196e-07
1.73494e-06 -6.16196e-07 -1.78501e-05
0.001313 -8.37054e-05 9.90205e-08
-8.37054e-05 6.7657e-05 2.02319e-08
9.90205e-08 2.02319e-08 -3.36265e-05
0.00108372 -6.65093e-05 -6.99829e-06
-6.65093e-05 1.58916e-05 2.60831e-06
-6.99829e-06 2.60831e-06 -6.91348e-05
0.00122565 -8.67187e-05 3.37108e-06
-8.67187e-05 6.33782e-05 -8.93346e-07
3.37108e-06 -8.93346e-07 -3.55269e-05
0.00103355 -6.95946e-05 2.88845e-07
-6.95946e-05 2.21247e-05 -1.0129e-07
2.88845e-07 -1.0129e-07 -6.03384e-05
0.00182218 -1.00639e-05 -7.70653e-06
-1.00639e-05 0.000562364 3.78133e-06
-7.70653e-06 3.78133e-06 0.000516213
0.00099579 -7.37106e-05 5.284e-06
-7.37106e-05 3.74458e-05 -1.91774e-06
5.284e-06 -1.91774e-06 -4.42571e-05
0.00190417 -2.62478e-05 1.57435e-05
-2.62478e-05 0.000610762 -1.05615e-06
1.57435e-05 -1.05615e-06 0.000566832
0.00121476 5.54844e-07 -6.83472e-05
5.54844e-07 0.000297479 7.79607e-06
-6.83472e-05 7.79607e-06 0.000277507
0.00223241 5.34763e-05 -5.12577e-05
5.34763e-05 0.000834353 1.32528e-06
-5.12577e-05 1.32528e-06 0.000821587
0.00195623 -2.82501e-05 3.46334e-05
-2.82501e-05 0.000638241 -4.11431e-06
3.46334e-05 -4.11431e-06 0.000598865
0.00323427 8.28538e-05 6.12822e-05
8.28538e-05 0.00135719 -3.37451e-06
6.12822e-05 -3.37451e-06 0.00135304
0.0016453 0.000105151 -4.01787e-06
0.000105151 8.35958e-05 -3.71284e-06
-4.01787e-06 -3.71284e-06 -2.57951e-05
0.00156339 0.000119579 4.34089e-06
0.000119579 0.000195019 3.41768e-07
4.34089e-06 3.41768e-07 8.70333e-05
0.00128006 0.000110144 1.48721e-06
0.000110144 -1.5135e-05 1.03407e-06
1.48721e-06 1.03407e-06 -0.000111791
0.00116113 0.000105 -1.99046e-06
0.000105 9.07118e-05 -1.06627e-06
-1.99046e-06 -1.06627e-06 -1.30531e-05
0.00115463 0.00011592 -5.27986e-07
0.00011592 4.48318e-05 2.23001e-07
-5.27986e-07 2.23001e-07 -7.02186e-05
0.000992325 0.000108521 1.62332e-07
0.000108521 1.35336e-05 5.42827e-07
1.62332e-07 5.42827e-07 -0.000100708
0.00109155 9.82278e-05 -1.88711e-07
9.82278e-05 9.88741e-05 -1.38743e-07
-1.88711e-07 -1.38743e-07 5.91495e-07
0.000984482 6.96033e-05 -3.41115e-06
6.96033e-05 8.24825e-05 -1.26495e-06
-3.41115e-06 -1.26495e-06 4.10647e-06
0.00092545 8.37179e-05 8.72856e-07
8.37179e-05 4.48436e-05 6.78005e-08
8.72856e-07 6.78005e-08 -4.71457e-05
0.00085723 4.53995e-05 -2.58391e-07
4.53995e-05 3.58089e-05 2.87505e-08
-2.58391e-07 2.87505e-08 -3.83367e-05
0.000748159 -4.78353e-07 -6.15625e-06
-4.78353e-07 6.22565e-06 -4.07237e-06
-6.15625e-06 -4.07237e-06 -3.43565e-05
0.0007441 1.83306e-05 1.75649e-06
1.83306e-05 -1.13422e-05 1.20142e-06
1.75649e-06 1.20142e-06 -8.26945e-05
0.000644926 -4.04105e-05 -1.1695e-07
-4.04105e-05 -4.40208e-05 -1.00533e-07
-1.1695e-07 -1.00533e-07 -7.94882e-05
0.00289766 -8.83958e-05 -4.64593e-05
-8.83958e-05 0.00116624 -2.87341e-06
-4.64593e-05 -2.87341e-06 0.0011659
0.00058011 -6.09429e-05 1.53887e-06
-6.09429e-05 -7.77902e-05 4.42612e-06
1.53887e-06 4.42612e-06 -0.000108414
0.00271764 -8.08191e-05 -6.78379e-07
-8.08191e-05 0.00105979 1.27045e-07
-6.78379e-07 1.27045e-07 0.00106395
0.0025086 -7.19495e-05 3.38402e-05
-7.19495e-05 0.000943241 2.83389e-06
3.38402e-05 2.83389e-06 0.000950922
0.0018296 1.49997e-05 -1.86738e-09
1.49997e-05 9.27929e-05 9.57029e-07
-1.86738e-09 9.57029e-07 -1.24393e-05
0.00170304 1.03041e-05 5.47184e-07
1.03041e-05 3.36089e-05 4.25971e-08
5.47184e-07 4.25971e-08 -6.44177e-05
0.00241726 -2.43627e-05 -1.99874e-05
-2.43627e-05 0.000420288 -2.33108e-06
-1.99874e-05 -2.33108e-06 0.000349683
0.00178822 6.38473e-05 -7.88579e-07
6.38473e-05 0.000102252 5.93397e-07
-7.88579e-07 5.93397e-07 -1.32706e-05
0.00175712 0.000120195 1.67266e-07
0.000120195 0.000146073 -1.22693e-06
1.67266e-07 -1.22693e-06 3.10979e-05
0.00141362 0.000124101 -3.78644e-06
0.000124101 0.000152962 2.34494e-06
-3.78644e-06 2.34494e-06 5.51091e-05
0.00214381 0.000149803 1.78246e-06
0.000149803 0.000448415 4.41619e-07
1.78246e-06 4.41619e-07 0.000337111
0.00195924 6.67198e-05 -5.28607e-07
6.67198e-05 0.000169234 -1.09217e-07
-5.28607e-07 -1.09217e-07 4.99275e-05
0.00149359 0.000121809 9.11502e-07
0.000121809 -1.61023e-05 6.11022e-07
9.11502e-07 6.11022e-07 -0.000143487
0.00174925 6.85725e-05 -3.56582e-06
6.85725e-05 5.89087e-05 -2.33762e-06
-3.56582e-06 -2.33762e-06 -5.67296e-05
0.0018172 3.15371e-06 2.24464e-06
3.15371e-06 9.3043e-05 -5.30997e-08
2.24464e-06 -5.30997e-08 -1.08258e-05
0.00183018 -2.73449e-06 -5.85578e-07
-2.73449e-06 9.85916e-05 -1.40215e-07
-5.85578e-07 -1.40215e-07 1.41118e-06
0.00189078 -1.17176e-06 -5.59824e-06
-1.17176e-06 0.00012104 3.98526e-07
-5.59824e-06 3.98526e-07 3.55891e-05
0.00186879 1.36068e-05 3.89365e-07
1.36068e-05 0.000136554 -2.55444e-07
3.89365e-07 -2.55444e-07 2.83347e-05
0.00183302 3.83041e-06 -2.24076e-06
3.83041e-06 0.000103735 6.60728e-07
-2.24076e-06 6.60728e-07 1.36054e-05
0.00177081 7.38624e-06 -1.76813e-07
7.38624e-06 9.67625e-05 -5.18985e-08
-1.76813e-07 -5.18985e-08 -7.35689e-06
0.00167254 5.22698e-06 4.14687e-07
5.22698e-06 7.70607e-05 -4.58352e-07
4.14687e-07 -4.58352e-07 -3.42451e-05
0.00164081 -6.24646e-06 2.31515e-08
-6.24646e-06 6.16059e-05 1.18195e-06
2.31515e-08 1.18195e-06 -3.88872e-05
0.00167446 -8.10922e-06 -3.55555e-07
-8.10922e-06 9.56358e-05 5.69064e-07
-3.55555e-07 5.69064e-07 -1.20751e-05
0.00158841 -1.39301e-05 -2.90597e-06
-1.39301e-05 8.40321e-05 1.32402e-06
-2.90597e-06 1.32402e-06 -2.38971e-05
0.00165101 -3.77798e-05 1.32097e-06
-3.77798e-05 9.17929e-05 2.68967e-07
1.32097e-06 2.68967e-07 -1.15781e-05
0.00157141 -4.45193e-05 -7.00926e-08
-4.45193e-05 8.49857e-05 -2.33598e-07
-7.00926e-08 -2.33598e-07 -1.90347e-05
0.00143841 -5.18289e-05 -4.04437e-06
-5.18289e-05 6.78386e-05 8.12763e-09
-4.04437e-06 8.12763e-09 -3.26609e-05
0.00152995 -7.62491e-05 2.30929e-06
-7.62491e-05 8.91658e-05 4.98867e-07
2.30929e-06 4.98867e-07 -1.61916e-05
0.00139099 -7.27392e-05 7.42419e-08
-7.27392e-05 6.76898e-05 3.83367e-07
7.42419e-08 3.83367e-07 -3.40799e-05
0.00114915 -5.95277e-05 -7.65298e-06
-5.95277e-05 1.9274e-05 2.25284e-06
-7.65298e-06 2.25284e-06 -6.74649e-05
0.00131271 -8.29918e-05 3.74437e-06
-8.29918e-05 6.71091e-05 -1.0092e-06
3.74437e-06 -1.0092e-06 -3.40626e-05
0.00109254 -6.57921e-05 3.69959e-07
-6.57921e-05 1.89841e-05 2.70317e-08
3.69959e-07 2.70317e-08 -6.59662e-05
0.00195448 -1.93415e-05 -1.0746e-05
-1.93415e-05 0.000611621 3.31966e-06
-1.0746e-05 3.31966e-06 0.000567397
0.00103763 -6.95179e-05 6.16204e-06
-6.95179e-05 2.37899e-05 -2.41341e-06
6.16204e-06 -2.41341e-06 -5.8775e-05
0.00201155 -3.26495e-05 1.6995e-05
-3.26495e-05 0.00065439 -1.14297e-06
1.6995e-05 -1.14297e-06 0.00061033
0.00129079 -7.65499e-06 -7.27924e-05
-7.65499e-06 0.000340213 7.55076e-06
-7.27924e-05 7.55076e-06 0.0003189
0.00207907 -4.71522e-05 4.13092e-05
-4.71522e-05 0.000694112 -6.30296e-06
4.13092e-05 -6.30296e-06 0.000652266
0.00122916 3.58783e-05 -3.18807e-05
3.58783e-05 0.000313861 2.45109e-06
-3.18807e-05 2.45109e-06 0.000288851
0.00331116 0.000135825 1.18245e-05
0.000135825 0.00142199 -1.58938e-06
1.18245e-05 -1.58938e-06 0.00140633
0.00194 7.51485e-05 -2.10344e-06
7.51485e-05 0.00021642 -1.45084e-06
-2.10344e-06 -1.45084e-06 0.000102004
0.00156295 0.00010075 -5.96958e-07
0.00010075 9.54669e-05 -3.32844e-06
-5.96958e-07 -3.32844e-06 -1.24387e-05
0.00170416 0.000108183 -3.03091e-06
0.000108183 0.000126375 1.45853e-06
-3.03091e-06 1.45853e-06 1.81071e-05
0.00160501 0.000115879 -1.42596e-06
0.000115879 0.000265305 -3.7507e-07
-1.42596e-06 -3.7507e-07 0.000161406
0.00138672 0.000116173 5.66298e-07
0.000116173 0.000100528 -1.60854e-06
5.66298e-07 -1.60854e-06 -6.57832e-06
0.00134098 0.000113348 2.57858e-06
0.000113348 2.60026e-05 1.89285e-06
2.57858e-06 1.89285e-06 -6.23385e-05
0.00101298 8.07457e-05 -4.40052e-06
8.07457e-05 6.333e-05 -2.22794e-06
-4.40052e-06 -2.22794e-06 -2.10168e-05
0.00116444 0.000105602 -1.30253e-07
0.000105602 9.32394e-05 -1.10702e-07
-1.30253e-07 -1.10702e-07 -1.0844e-05
0.00152143 0.000131484 1.78118e-06
0.000131484 0.000230618 7.96791e-07
1.78118e-06 7.96791e-07 0.00011432
0.00102666 9.54349e-05 1.32574e-06
9.54349e-05 6.82145e-05 2.10104e-07
1.32574e-06 2.10104e-07 -3.01509e-05
0.000913377 6.61227e-05 -2.2193e-07
6.61227e-05 4.61628e-05 -1.91502e-07
-2.2193e-07 -1.91502e-07 -3.1822e-05
0.00078496 3.49607e-05 -7.72213e-06
3.49607e-05 2.47315e-05 -4.69135e-06
-7.72213e-06 -4.69135e-06 -2.15366e-05
0.000766661 4.27909e-05 2.2766e-06
4.27909e-05 -1.1933e-05 7.65147e-07
2.2766e-06 7.65147e-07 -8.51815e-05
0.000686358 -5.14282e-06 1.03329e-07
-5.14282e-06 -2.08308e-05 -3.7971e-08
1.03329e-07 -3.7971e-08 -6.23038e-05
0.00308727 -8.81576e-05 -5.64731e-05
-8.81576e-05 0.00128251 -2.81284e-06
-5.64731e-05 -2.81284e-06 0.00127834
0.000588137 -6.15416e-05 1.26509e-06
-6.15416e-05 -6.79265e-05 4.62891e-06
1.26509e-06 4.62891e-06 -0.000106046
0.00288347 -9.03664e-05 -1.00328e-06
-9.03664e-05 0.0011568 1.76251e-07
-1.00328e-06 1.76251e-07 0.00115686
0.0027032 -8.13506e-05 3.73865e-05
-8.13506e-05 0.00105151 2.72869e-06
3.73865e-05 2.72869e-06 0.00105606
0.00179197 1.94576e-05 -2.97994e-07
1.94576e-05 8.43424e-05 4.60879e-07
-2.97994e-07 4.60879e-07 -2.14643e-05
0.00177727 1.69855e-05 -8.492e-07
1.69855e-05 6.26397e-05 2.30328e-07
-8.492e-07 2.30328e-07 -4.33132e-05
0.00183522 8.90646e-06 -5.80367e-06
8.90646e-06 9.74108e-05 -1.443e-06
-5.80367e-06 -1.443e-06 -3.92321e-07
0.0018067 6.44271e-05 1.0073e-06
6.44271e-05 0.000109039 -1.64784e-07
1.0073e-06 -1.64784e-07 -4.3658e-06
0.00185039 0.000122512 1.05809e-06
0.000122512 0.000199955 7.50722e-08
1.05809e-06 7.50722e-08 8.49655e-05
0.00185181 6.59844e-05 8.39585e-07
6.59844e-05 0.000113412 -1.56778e-06
8.39585e-07 -1.56778e-06 -5.72161e-06
0.0018118 8.24754e-06 9.21375e-08
8.24754e-06 9.3889e-05 3.94723e-08
9.21375e-08 3.94723e-08 -1.38501e-05
0.00185041 5.58153e-06 2.60783e-07
5.58153e-06 0.000108902 -1.45002e-07
2.60783e-07 -1.45002e-07 4.58855e-06
0.00174505 -4.53124e-07 -2.2064e-06
-4.53124e-07 5.40571e-05 -2.40898e-07
-2.2064e-06 -2.40898e-07 -4.38992e-05
0.00181075 4.41431e-06 -6.35989e-07
4.41431e-06 0.000107554 -5.61576e-09
-6.35989e-07 -5.61576e-09 5.32661e-08
0.00188538 7.90748e-06 5.8921e-07
7.90748e-06 0.000163553 -3.33934e-07
5.8921e-07 -3.33934e-07 5.17175e-05
0.00175081 8.05638e-06 -1.05648e-06
8.05638e-06 8.69921e-05 1.27025e-07
-1.05648e-06 1.27025e-07 -1.65506e-05
0.00175922 6.21556e-06 3.33869e-07
6.21556e-06 0.000121771 -3.97183e-07
3.33869e-07 -3.97183e-07 1.02073e-05
0.00153538 7.56218e-07 -5.85296e-07
7.56218e-07 3.6869e-05 -1.42717e-07
-5.85296e-07 -1.42717e-07 -7.65728e-05
0.00170312 -8.10492e-06 6.09221e-07
-8.10492e-06 0.000110878 3.26117e-07
6.09221e-07 3.26117e-07 3.26469e-06
0.00160004 -1.46453e-05 -8.65657e-07
-1.46453e-05 9.02754e-05 7.68633e-07
-8.65657e-07 7.68633e-07 -1.77547e-05
0.00145743 -2.16952e-05 -4.81526e-06
-2.16952e-05 6.5658e-05 1.1944e-06
-4.81526e-06 1.1944e-06 -3.75431e-05
0.00158486 -4.43827e-05 2.0339e-06
-4.43827e-05 9.15826e-05 5.8706e-08
2.0339e-06 5.8706e-08 -1.24549e-05
0.00144267 -5.07834e-05 1.42618e-08
-5.07834e-05 6.96843e-05 -1.28168e-07
1.42618e-08 -1.28168e-07 -3.07808e-05
0.00116543 -4.37398e-05 -7.94625e-06
-4.37398e-05 8.5093e-06 1.3136e-06
-7.94625e-06 1.3136e-06 -7.75299e-05
0.001386 -7.19322e-05 4.06329e-06
-7.19322e-05 6.48946e-05 -6.23548e-08
4.06329e-06 -6.23548e-08 -3.67767e-05
0.00114711 -5.79003e-05 2.61919e-07
-5.79003e-05 1.68756e-05 3.22893e-07
2.61919e-07 3.22893e-07 -6.96172e-05
0.00210738 -2.77268e-05 -1.45892e-05
-2.77268e-05 0.000669405 2.47616e-06
-1.45892e-05 2.47616e-06 0.000626927
0.00109612 -6.50854e-05 7.11117e-06
-6.50854e-05 1.93868e-05 -2.50893e-06
7.11117e-06 -2.50893e-06 -6.54926e-05
0.00211839 -4.29528e-05 1.612e-05
-4.29528e-05 0.00069107 -1.18099e-06
1.612e-05 -1.18099e-06 0.000648684
0.00140244 -8.9729e-06 -7.66001e-05
-8.9729e-06 0.000391695 6.75011e-06
-7.66001e-05 6.75011e-06 0.00036998
0.00219006 -5.55424e-05 4.50934e-05
-5.55424e-05 0.000740142 -6.1443e-06
4.50934e-05 -6.1443e-06 0.000698271
0.00130057 3.26371e-05 -3.5763e-05
3.26371e-05 0.000353904 2.23577e-06
-3.5763e-05 2.23577e-06 0.000327569
0.00128136 7.81739e-05 4.07965e-06
7.81739e-05 0.000352062 -2.9825e-06
4.07965e-06 -2.9825e-06 0.000320906
0.00167249 2.6456e-05 -1.34301e-06
2.6456e-05 5.52626e-05 3.92788e-07
-1.34301e-06 3.92788e-07 -5.45443e-05
0.00163654 7.48938e-05 -3.15967e-06
7.48938e-05 9.58366e-05 -1.15977e-06
-3.15967e-06 -1.15977e-06 -1.446e-05
0.00178306 7.26987e-05 -1.90855e-06
7.26987e-05 0.000134447 -9.34227e-07
-1.90855e-06 -9.34227e-07 1.95113e-05
0.00156431 0.000101514 -2.96193e-06
0.000101514 0.000166237 -1.18395e-06
-2.96193e-06 -1.18395e-06 6.17886e-05
0.00171597 0.000105362 1.34088e-06
0.000105362 0.00017793 6.61176e-07
1.34088e-06 6.61176e-07 6.99447e-05
0.00172618 0.000110124 4.49272e-06
0.000110124 0.000151063 3.14129e-06
4.49272e-06 3.14129e-06 4.39382e-05
0.000983167 8.11742e-05 -5.66006e-06
8.11742e-05 -5.48179e-07 -2.44511e-06
-5.66006e-06 -2.44511e-06 -8.81759e-05
0.00124894 0.000105497 1.69424e-06
0.000105497 7.69978e-05 9.20525e-07
1.69424e-06 9.20525e-07 -2.8096e-05
0.00120646 0.000112697 6.48131e-07
0.000112697 3.94228e-06 1.48027e-06
6.48131e-07 1.48027e-06 -0.000102237
0.000787615 6.22932e-05 -1.04899e-05
6.22932e-05 1.95877e-05 -5.60446e-06
-1.04899e-05 -5.60446e-06 -3.1612e-05
0.000972088 7.79596e-05 -3.76018e-07
7.79596e-05 4.25045e-05 -2.24783e-07
-3.76018e-07 -2.24783e-07 -4.14163e-05
0.00117173 0.000106371 2.22737e-06
0.000106371 9.78713e-05 1.00586e-06
2.22737e-06 1.00586e-06 -6.55175e-06
0.000857203 6.26548e-05 2.9956e-06
6.26548e-05 1.77267e-05 9.90006e-07
2.9956e-06 9.90006e-07 -5.9894e-05
0.000697801 2.97969e-05 8.11602e-09
2.97969e-05 -1.47526e-05 -1.26089e-09
8.11602e-09 -1.26089e-09 -6.12193e-05
0.0033885 -7.13107e-05 -6.73441e-05
-7.13107e-05 0.00145738 -3.92415e-06
-6.73441e-05 -3.92415e-06 0.00144969
0.000640414 -1.1528e-05 4.09492e-06
-1.1528e-05 -4.1424e-05 4.4072e-06
4.09492e-06 4.4072e-06 -8.23899e-05
0.00305869 -0.000100521 -1.97094e-06
-0.000100521 0.00126528 2.60312e-07
-1.97094e-06 2.60312e-07 0.00126029
0.00288433 -9.13069e-05 4.12799e-05
-9.13069e-05 0.00115484 2.68805e-06
4.12799e-05 2.68805e-06 0.00115551
0.00183421 8.9362e-06 -2.39568e-07
8.9362e-06 0.00011766 -4.2218e-07
-2.39568e-07 -4.2218e-07 1.03345e-05
0.00180748 1.90354e-05 -2.72289e-07
1.90354e-05 9.27976e-05 1.04955e-07
-2.72289e-07 1.04955e-07 -1.32061e-05
0.00173916 1.85103e-05 3.03676e-07
1.85103e-05 3.98281e-05 -9.82814e-07
3.03676e-07 -9.82814e-07 -6.68687e-05
0.00183877 6.49126e-05 1.86723e-06
6.49126e-05 0.000122342 -3.15323e-07
1.86723e-06 -3.15323e-07 1.10836e-05
0.00182985 -2.24532e-07 -3.34406e-07
-2.24532e-07 0.000121429 -4.03113e-07
-3.34406e-07 -4.03113e-07 1.02193e-05
0.001849 6.27562e-06 -1.21562e-07
6.27562e-06 0.000112806 -3.71754e-08
-1.21562e-07 -3.71754e-08 5.02278e-06
0.00188722 7.6039e-06 -1.5391e-06
7.6039e-06 0.000126543 1.09383e-07
-1.5391e-06 1.09383e-07 2.17473e-05
0.00176888 -8.59017e-07 -1.74284e-06
-8.59017e-07 8.73715e-05 5.1723e-08
-1.74284e-06 5.1723e-08 -1.95327e-05
0.0018116 1.2706e-05 -9.11398e-08
1.2706e-05 0.000123699 -1.89462e-07
-9.11398e-08 -1.89462e-07 1.20601e-05
0.0018762 9.86373e-06 -8.15799e-07
9.86373e-06 0.000185589 6.0262e-08
-8.15799e-07 6.0262e-08 7.12198e-05
0.00186134 7.29445e-06 4.79172e-07
7.29445e-06 0.000174202 -5.48025e-07
4.79172e-07 -5.48025e-07 6.24058e-05
0.00169437 2.16659e-06 6.53001e-07
2.16659e-06 0.000121425 -4.92443e-07
6.53001e-07 -4.92443e-07 8.46382e-06
0.00128027 -8.55504e-07 -3.69025e-06
-8.55504e-07 -4.70443e-05 1.08186e-06
-3.69025e-06 1.08186e-06 -0.000156635
0.00160555 -1.38189e-05 9.45084e-07
-1.38189e-05 9.35614e-05 2.15796e-07
9.45084e-07 2.15796e-07 -1.45601e-05
0.00146796 -1.92806e-05 -5.79728e-07
-1.92806e-05 7.0723e-05 2.54707e-07
-5.79728e-07 2.54707e-07 -3.2449e-05
0.00117324 -2.17944e-05 -7.82557e-06
-2.17944e-05 9.2175e-07 1.26038e-06
-7.82557e-06 1.26038e-06 -8.63205e-05
0.00144197 -4.75816e-05 3.93243e-06
-4.75816e-05 6.90596e-05 -2.53774e-07
3.93243e-06 -2.53774e-07 -3.12919e-05
0.0011799 -4.38738e-05 1.12899e-09
-4.38738e-05 1.50487e-05 1.0614e-07
1.12899e-09 1.0614e-07 -7.08714e-05
0.000686731 -2.57011e-05 -1.19607e-05
-2.57011e-05 -9.67129e-05 2.61304e-06
-1.19607e-05 2.61304e-06 -0.00014597
0.00114524 -5.64643e-05 7.78077e-06
-5.64643e-05 1.4493e-05 -1.65928e-06
7.78077e-06 -1.65928e-06 -7.1757e-05
0.00144693 -4.35594e-05 1.97073e-05
-4.35594e-05 0.000315799 -7.37505e-07
1.97073e-05 -7.37505e-07 0.000270748
0.00449373 1.06147e-05 -9.06584e-05
1.06147e-05 0.00201978 3.20866e-06
-9.06584e-05 3.20866e-06 0.0020136
0.00227993 -5.26976e-05 4.80793e-05
-5.26976e-05 0.00077083 -5.48585e-06
4.80793e-05 -5.48585e-06 0.000729209
0.00137211 2.25324e-05 -3.5749e-05
2.25324e-05 0.000382409 2.23326e-06
-3.5749e-05 2.23326e-06 0.000357296
0.00133939 7.28756e-05 3.67069e-06
7.28756e-05 0.000383667 -2.91489e-06
3.67069e-06 -2.91489e-06 0.00035212
0.00174574 1.32935e-05 -1.90179e-07
1.32935e-05 9.58863e-05 -2.82926e-07
-1.90179e-07 -2.82926e-07 -1.19935e-05
0.00146221 3.73628e-05 -2.08441e-06
3.73628e-05 -8.63423e-06 2.16247e-07
-2.08441e-06 2.16247e-07 -0.000117702
0.00176995 2.67336e-05 -4.18818e-07
2.67336e-05 0.00010894 -2.79958e-07
-4.18818e-07 -2.79958e-07 -3.87235e-07
0.00116762 7.11836e-05 -4.43163e-06
7.11836e-05 -8.83316e-05 -1.74439e-06
-4.43163e-06 -1.74439e-06 -0.000193844
0.00167098 7.57633e-05 1.9775e-07
7.57633e-05 0.000115497 2.14409e-09
1.9775e-07 2.14409e-09 5.23575e-06
0.00162825 7.05738e-05 3.65494e-07
7.05738e-05 5.37437e-05 -1.41047e-07
3.65494e-07 -1.41047e-07 -6.17654e-05
0.000654519 6.4011e-05 -8.3914e-06
6.4011e-05 -0.000230704 -2.98707e-06
-8.3914e-06 -2.98707e-06 -0.00032116
0.00158914 0.000103748 9.03978e-07
0.000103748 0.00017838 1.08256e-07
9.03978e-07 1.08256e-07 7.37445e-05
0.00188036 0.000110392 3.112e-06
0.000110392 0.000266328 1.8399e-06
3.112e-06 1.8399e-06 0.000158228
0.000740893 7.40691e-05 -1.20354e-05
7.40691e-05 -2.36936e-05 -5.68102e-06
-1.20354e-05 -5.68102e-06 -7.74447e-05
0.000776846 7.42561e-05 -1.06202e-07
7.42561e-05 -0.000111226 1.30555e-07
-1.06202e-07 1.30555e-07 -0.000199954
0.000891287 9.51146e-05 4.06358e-06
9.51146e-05 -0.000112175 2.32043e-06
4.06358e-06 2.32043e-06 -0.000218457
0.00386339 -6.74118e-05 -7.45136e-05
-6.74118e-05 0.00171586 -4.94791e-06
-7.45136e-05 -4.94791e-06 0.00170364
0.000676609 5.39703e-05 -1.60639e-08
5.39703e-05 -3.31088e-05 2.50449e-08
-1.60639e-08 2.50449e-08 -8.42277e-05
0.000933685 7.52989e-05 4.02938e-06
7.52989e-05 2.33688e-05 2.0037e-06
4.02938e-06 2.0037e-06 -6.01921e-05
0.000610669 2.47514e-05 6.29857e-06
2.47514e-05 -5.47227e-05 4.64904e-06
6.29857e-06 4.64904e-06 -0.000101331
0.00328819 -9.90524e-05 -4.16313e-06
-9.90524e-05 0.00140393 1.79039e-07
-4.16313e-06 1.79039e-07 0.001395
0.00301244 -0.000101444 4.43505e-05
-0.000101444 0.00123732 2.62717e-06
4.43505e-05 2.62717e-06 0.00123302
0.00177343 -1.11839e-06 -1.08703e-06
-1.11839e-06 9.7205e-05 -5.68301e-07
-1.08703e-06 -5.68301e-07 -1.2457e-05
0.00183943 8.68941e-06 -4.05629e-07
8.68941e-06 0.000117387 8.80329e-09
-4.05629e-07 8.80329e-09 1.01949e-05
0.00182523 1.892e-05 4.22705e-07
1.892e-05 0.00010285 -3.49995e-07
4.22705e-07 -3.49995e-07 -3.34563e-06
0.00186627 1.08823e-05 -8.9489e-07
1.08823e-05 0.000168831 -3.18771e-07
-8.9489e-07 -3.18771e-07 5.51429e-05
0.00181197 3.81938e-06 -4.54866e-07
3.81938e-06 0.000112285 -8.29928e-08
-4.54866e-07 -8.29928e-08 1.16798e-06
0.00187798 1.06877e-06 -1.2866e-06
1.06877e-06 0.000127272 2.04348e-07
-1.2866e-06 2.04348e-07 1.95335e-05
0.00173368 1.58546e-05 -2.65037e-07
1.58546e-05 8.13988e-05 2.30406e-07
-2.65037e-07 2.30406e-07 -2.99422e-05
0.00181298 1.18606e-05 6.85628e-07
1.18606e-05 0.000152319 -2.49905e-07
6.85628e-07 -2.49905e-07 3.78847e-05
0.00182136 6.21771e-06 -2.99962e-06
6.21771e-06 0.000197925 4.73324e-07
-2.99962e-06 4.73324e-07 8.70346e-05
0.00186562 3.66401e-06 2.28094e-06
3.66401e-06 0.000212311 -1.1749e-06
2.28094e-06 -1.1749e-06 9.98233e-05
0.00159395 2.04743e-06 6.39357e-09
2.04743e-06 0.000118765 3.02469e-08
6.39357e-09 3.02469e-08 1.11648e-05
0.000821913 -3.53727e-06 -9.28824e-06
-3.53727e-06 -0.000208119 2.32663e-06
-9.28824e-06 2.32663e-06 -0.000303869
0.00147444 -1.92581e-05 3.19295e-06
-1.92581e-05 7.37605e-05 -6.54827e-07
3.19295e-06 -6.54827e-07 -2.94901e-05
0.00119267 -1.94913e-05 -6.24061e-08
-1.94913e-05 1.00695e-05 -2.17732e-07
-6.24061e-08 -2.17732e-07 -7.70866e-05
0.000704827 -1.48267e-05 -1.1974e-05
-1.48267e-05 -9.44055e-05 1.7784e-06
-1.1974e-05 1.7784e-06 -0.000145037
0.00118787 -4.24625e-05 8.1152e-06
-4.24625e-05 1.8216e-05 -1.23935e-06
8.1152e-06 -1.23935e-06 -6.75035e-05
0.000688794 -2.24368e-05 -5.55979e-08
-2.24368e-05 -9.57368e-05 1.34299e-07
-5.55979e-08 1.34299e-07 -0.000144917
0.00450954 4.74901e-06 -9.2407e-05
4.74901e-06 0.00202362 2.3728e-06
-9.2407e-05 2.3728e-06 0.0020182
0.000763319 -4.26107e-05 1.38412e-05
-4.26107e-05 -4.83253e-05 -4.49935e-06
1.38412e-05 -4.49935e-06 -9.85941e-05
0.00298739 1.91925e-05 3.52567e-05
1.91925e-05 0.00122307 6.48563e-07
3.52567e-05 6.48563e-07 0.00120712
0.00135398 2.67863e-05 1.15881e-05
2.67863e-05 0.00037626 -2.20857e-06
1.15881e-05 -2.20857e-06 0.000349966
0.00177826 3.03486e-06 -3.25195e-07
3.03486e-06 0.000123005 -3.25358e-07
-3.25195e-07 -3.25358e-07 1.48445e-05
0.00166492 1.9229e-05 -1.07938e-06
1.9229e-05 9.04077e-05 -5.51617e-07
-1.07938e-06 -5.51617e-07 -1.55669e-05
0.00173265 1.23048e-05 1.87349e-07
1.23048e-05 8.90267e-05 6.36118e-08
1.87349e-07 6.36118e-08 -1.86831e-05
0.00145277 4.70569e-05 -3.53941e-06
4.70569e-05 4.41093e-05 -6.57987e-07
-3.53941e-06 -6.57987e-07 -5.90687e-05
0.00154104 3.74455e-05 3.74358e-07
3.74455e-05 3.05525e-05 1.57317e-07
3.74358e-07 1.57317e-07 -7.79071e-05
0.00186395 2.69155e-05 3.6847e-07
2.69155e-05 0.000160729 -5.18982e-07
3.6847e-07 -5.18982e-07 5.18998e-05
0.000749376 5.39289e-05 -9.15804e-06
5.39289e-05 -0.00021913 -2.80011e-06
-9.15804e-06 -2.80011e-06 -0.000309316
0.00154386 8.06521e-05 -1.27482e-06
8.06521e-05 0.000110544 -4.3843e-07
-1.27482e-06 -4.3843e-07 6.56303e-06
0.00169876 7.64039e-05 3.3508e-06
7.64039e-05 0.000131677 5.18752e-07
3.3508e-06 5.18752e-07 2.14677e-05
0.000702421 6.85957e-05 -1.2864e-05
6.85957e-05 -6.93876e-05 -4.88616e-06
-1.2864e-05 -4.88616e-06 -0.000122036
0.000698929 6.59548e-05 -2.23059e-06
6.59548e-05 -0.000210234 -6.28111e-07
-2.23059e-06 -6.28111e-07 -0.000301327
0.00161389 0.000105988 4.78625e-06
0.000105988 0.000190456 1.45739e-06
4.78625e-06 1.45739e-06 8.56393e-05
0.00432303 -7.69303e-05 -7.78469e-05
-7.69303e-05 0.00195559 -5.28234e-06
-7.78469e-05 -5.28234e-06 0.00194017
0.000670574 6.79311e-05 5.70698e-07
6.79311e-05 -5.80764e-05 1.87835e-07
5.70698e-07 1.87835e-07 -0.000111356
0.000564528 6.70407e-05 5.48433e-06
6.70407e-05 -0.000224863 2.8766e-06
5.48433e-06 2.8766e-06 -0.000314693
0.00364375 -8.67905e-05 -4.46782e-06
-8.67905e-05 0.00160206 3.01699e-07
-4.46782e-06 3.01699e-07 0.00158971
0.00057184 4.66462e-05 7.86676e-06
4.66462e-05 -8.35352e-05 5.31694e-06
7.86676e-06 5.31694e-06 -0.000134443
0.00315811 -0.000111975 4.71744e-05
-0.000111975 0.00133413 2.55486e-06
4.71744e-05 2.55486e-06 0.0013244
0.00182155 7.48152e-06 -9.42266e-07
7.48152e-06 0.000149109 -6.93815e-07
-9.42266e-07 -6.93815e-07 3.72459e-05
0.00180477 -1.42031e-07 1.28413e-07
-1.42031e-07 0.000115835 2.12972e-07
1.28413e-07 2.12972e-07 6.21092e-06
0.00184232 8.65805e-06 -2.14333e-07
8.65805e-06 0.00011582 2.06386e-07
-2.14333e-07 2.06386e-07 8.75976e-06
0.00180035 -2.0094e-06 -3.50666e-06
-2.0094e-06 0.000178124 -2.81521e-07
-3.50666e-06 -2.81521e-07 6.86715e-05
0.001855 1.07365e-05 6.38558e-07
1.07365e-05 0.000163777 2.01512e-08
6.38558e-07 2.01512e-08 5.04391e-05
0.00180292 1.05084e-05 8.47571e-07
1.05084e-05 0.00010782 1.5238e-07
8.47571e-07 1.5238e-07 -3.32794e-06
0.00174403 1.25191e-05 1.72802e-06
1.25191e-05 0.000116053 -5.43542e-08
1.72802e-06 -5.43542e-08 1.57576e-06
0.00179837 6.16351e-06 1.081e-06
6.16351e-06 0.000186611 -2.0129e-07
1.081e-06 -2.0129e-07 7.55519e-05
0.000910761 2.42705e-07 -9.39135e-06
2.42705e-07 -0.000197236 1.41893e-06
-9.39135e-06 1.41893e-06 -0.000298024
0.00192051 4.83201e-06 4.51482e-06
4.83201e-06 0.000291095 -1.35253e-06
4.51482e-06 -1.35253e-06 0.000185511
0.00102656 -1.19916e-06 -1.82326e-06
-1.19916e-06 -9.78328e-05 5.8277e-07
-1.82326e-06 5.8277e-07 -0.000191482
0.000705843 -5.77381e-06 -1.23526e-05
-5.77381e-06 -0.000108578 1.66414e-06
-1.23526e-05 1.66414e-06 -0.000163893
0.00122264 -1.89042e-05 7.84426e-06
-1.89042e-05 2.44281e-05 -1.81035e-06
7.84426e-06 -1.81035e-06 -6.26808e-05
0.000713436 -5.63723e-06 1.98112e-07
-5.63723e-06 -9.04751e-05 -1.51597e-07
1.98112e-07 -1.51597e-07 -0.000141282
0.00457704 6.40802e-06 -9.36761e-05
6.40802e-06 0.0020556 1.49937e-06
-9.36761e-05 1.49937e-06 0.00205045
0.000679162 -1.7126e-05 1.14615e-05
-1.7126e-05 -0.000100748 -2.26368e-06
1.14615e-05 -2.26368e-06 -0.000149645
0.00453581 1.3119e-05 9.61522e-07
1.3119e-05 0.00203659 3.68473e-07
9.61522e-07 3.68473e-07 0.00203129
0.00153692 -8.79575e-06 8.16821e-05
-8.79575e-06 0.000452754 -3.31209e-06
8.16821e-05 -3.31209e-06 0.000432019
0.00192148 8.02711e-06 -7.33462e-07
8.02711e-06 0.000221391 -7.57756e-07
-7.33462e-07 -7.57756e-07 0.000114768
0.00173027 2.40025e-06 6.58906e-07
2.40025e-06 9.69127e-05 6.03682e-07
6.58906e-07 6.03682e-07 -1.07174e-05
0.00148735 1.89061e-05 -3.17538e-06
1.89061e-05 4.86181e-05 -9.09372e-07
-3.17538e-06 -9.09372e-07 -5.43342e-05
0.00166797 1.86389e-05 3.74454e-07
1.86389e-05 9.07452e-05 -3.19689e-07
3.74454e-07 -3.19689e-07 -1.52223e-05
0.00171952 1.1277e-05 1.49252e-06
1.1277e-05 8.20985e-05 1.32877e-07
1.49252e-06 1.32877e-07 -2.54382e-05
0.00121538 4.17495e-05 -8.00096e-06
4.17495e-05 8.51449e-06 -2.01616e-06
-8.00096e-06 -2.01616e-06 -7.95203e-05
0.00148655 4.75657e-05 -1.0078e-07
4.75657e-05 6.04263e-05 2.23968e-07
-1.0078e-07 2.23968e-07 -4.27634e-05
0.0016181 3.75133e-05 1.8643e-06
3.75133e-05 6.88474e-05 3.38316e-07
1.8643e-06 3.38316e-07 -3.90113e-05
0.000696152 4.96047e-05 -1.28968e-05
4.96047e-05 -9.26163e-05 -4.00431e-06
-1.28968e-05 -4.00431e-06 -0.00014395
0.000976043 6.00551e-05 -2.46772e-06
6.00551e-05 -9.89061e-05 -5.36949e-07
-2.46772e-06 -5.36949e-07 -0.000188377
0.00192443 9.01446e-05 3.77193e-06
9.01446e-05 0.000311739 9.42139e-07
3.77193e-06 9.42139e-07 0.00020928
0.00459183 -3.05923e-05 -9.06434e-05
-3.05923e-05 0.00207662 -4.23817e-06
-9.06434e-05 -4.23817e-06 0.00206809
0.000663853 6.25928e-05 1.7492e-07
6.25928e-05 -8.78647e-05 2.23539e-07
1.7492e-07 2.23539e-07 -0.000140842
0.000743594 6.80931e-05 5.00909e-06
6.80931e-05 -0.000189635 2.00681e-06
5.00909e-06 2.00681e-06 -0.000281389
0.00409173 -5.50614e-05 1.74117e-06
-5.50614e-05 0.00183104 9.61067e-08
1.74117e-06 9.61067e-08 0.00181967
0.00057222 6.05024e-05 1.01615e-05
6.05024e-05 -0.000106248 5.67648e-06
1.01615e-05 5.67648e-06 -0.000159361
0.0034341 -0.000108603 5.51218e-05
-0.000108603 0.00149382 3.20028e-06
5.51218e-05 3.20028e-06 0.00148074
0.00179554 1.14819e-05 -2.88409e-06
1.14819e-05 0.000182099 -8.74174e-07
-2.88409e-06 -8.74174e-07 7.46786e-05
0.0018426 5.40086e-06 4.31954e-07
5.40086e-06 0.000161786 8.17323e-08
4.31954e-07 8.17323e-08 4.99159e-05
0.00183272 4.24923e-07 1.43894e-06
4.24923e-07 0.000132934 9.4902e-07
1.43894e-06 9.4902e-07 2.33454e-05
0.000944703 -1.26567e-05 -9.82194e-06
-1.26567e-05 -0.000186767 -2.25056e-07
-9.82194e-06 -2.25056e-07 -0.00028675
0.00180919 5.33411e-06 1.01188e-06
5.33411e-06 0.000182814 1.4412e-08
1.01188e-06 1.4412e-08 7.33299e-05
0.0018376 1.08385e-05 2.35625e-06
1.08385e-05 0.000155624 8.9727e-08
2.35625e-06 8.9727e-08 4.26537e-05
0.00177995 5.82687e-06 4.96225e-06
5.82687e-06 0.000177733 -4.6908e-07
4.96225e-06 -4.6908e-07 6.64882e-05
0.000911423 -4.52056e-07 -1.39768e-06
-4.52056e-07 -0.000194059 5.27169e-07
-1.39768e-06 5.27169e-07 -0.000294505
0.000763396 3.34701e-06 -1.31478e-05
3.34701e-06 -9.94455e-05 9.72364e-07
-1.31478e-05 9.72364e-07 -0.000158824
0.00122483 1.97504e-06 6.14354e-06
1.97504e-06 9.08603e-06 -1.3871e-06
6.14354e-06 -1.3871e-06 -8.24503e-05
0.000748309 3.70818e-06 2.93707e-07
3.70818e-06 -8.83739e-05 -3.41849e-08
2.93707e-07 -3.41849e-08 -0.000143751
0.00478041 7.39077e-06 -9.67242e-05
7.39077e-06 0.00215607 6.61415e-07
-9.67242e-05 6.61415e-07 0.00215051
0.000733856 3.70113e-06 1.17046e-05
3.70113e-06 -8.07978e-05 -1.79935e-06
1.17046e-05 -1.79935e-06 -0.000131527
0.00463198 4.08865e-05 4.25393e-06
4.08865e-05 0.0020846 1.91238e-07
4.25393e-06 1.91238e-07 0.00207821
0.00457071 1.82351e-05 9.72885e-05
1.82351e-05 0.00205356 -1.60219e-06
9.72885e-05 -1.60219e-06 0.00204857
0.00156474 8.88798e-06 -3.37022e-06
8.88798e-06 7.79117e-05 -1.37556e-06
-3.37022e-06 -1.37556e-06 -2.68844e-05
0.00175012 6.72222e-06 4.70379e-07
6.72222e-06 0.00013057 3.30776e-07
4.70379e-07 3.30776e-07 2.36649e-05
0.00168132 1.88876e-06 1.18858e-06
1.88876e-06 7.04e-05 1.15993e-06
1.18858e-06 1.15993e-06 -3.67006e-05
0.00123442 1.59754e-05 -7.75446e-06
1.59754e-05 4.16876e-06 -1.90018e-06
-7.75446e-06 -1.90018e-06 -8.50739e-05
0.00152221 1.91467e-05 1.82232e-07
1.91467e-05 6.58978e-05 -1.17225e-07
1.82232e-07 -1.17225e-07 -3.7117e-05
0.00166778 1.80398e-05 1.48176e-06
1.80398e-05 8.95053e-05 -8.77402e-08
1.48176e-06 -8.77402e-08 -1.64662e-05
0.00071733 2.97151e-05 -1.26238e-05
2.97151e-05 -9.64326e-05 -3.22528e-06
-1.26238e-05 -3.22528e-06 -0.000147769
0.00121673 4.26244e-05 -4.74542e-08
4.26244e-05 9.84411e-06 1.6825e-07
-4.74542e-08 1.6825e-07 -7.84008e-05
0.00152071 4.80357e-05 3.84873e-06
4.80357e-05 7.69015e-05 1.20355e-06
3.84873e-06 1.20355e-06 -2.6298e-05
0.00471127 6.45356e-07 -0.000101457
6.45356e-07 0.00212566 -3.41282e-06
-0.000101457 -3.41282e-06 0.00212042
0.000681898 4.82752e-05 2.13621e-08
4.82752e-05 -9.96665e-05 1.02923e-07
2.13621e-08 1.02923e-07 -0.000151078
0.00119475 6.62205e-05 5.83247e-06
6.62205e-05 1.71741e-05 1.91316e-06
5.83247e-06 1.91316e-06 -7.158e-05
0.00444193 -2.29158e-05 4.67247e-06
-2.29158e-05 0.00200125 2.66743e-07
4.67247e-06 2.66743e-07 0.00199239
0.000624196 5.72145e-05 1.12688e-05
5.72145e-05 -0.000107393 5.06897e-06
1.12688e-05 5.06897e-06 -0.000160372
0.00387236 -7.05936e-05 6.75044e-05
-7.05936e-05 0.00171916 4.02784e-06
6.75044e-05 4.02784e-06 0.00170791
0.00131555 4.01506e-06 -8.45387e-06
4.01506e-06 1.48217e-05 -7.87836e-07
-8.45387e-06 -7.87836e-07 -8.11265e-05
0.00161871 6.20796e-06 1.10313e-06
6.20796e-06 8.68619e-05 5.36136e-09
1.10313e-06 5.36136e-09 -2.22798e-05
0.00186437 2.19692e-06 2.05839e-06
2.19692e-06 0.000174644 9.78159e-07
2.05839e-06 9.78159e-07 6.27595e-05
0.00076951 1.42312e-05 -1.38187e-05
1.42312e-05 -0.000107826 -5.61416e-07
-1.38187e-05 -5.61416e-07 -0.000166741
0.000929388 -5.50368e-06 -1.64996e-06
-5.50368e-06 -0.000195266 3.09509e-08
-1.64996e-06 3.09509e-08 -0.000295264
0.00181502 1.23037e-05 5.44836e-06
1.23037e-05 0.000185903 1.9895e-07
5.44836e-06 1.9895e-07 7.63905e-05
0.00090375 -6.37632e-07 6.21481e-06
-6.37632e-07 -0.000195176 -2.56317e-07
6.21481e-06 -2.56317e-07 -0.00029528
0.000759484 6.75399e-06 1.29752e-07
6.75399e-06 -0.000102293 4.89722e-07
1.29752e-07 4.89722e-07 -0.000161716
0.00511492 1.57718e-05 -0.000101686
1.57718e-05 0.00232144 -3.29671e-07
-0.000101686 -3.29671e-07 0.00231535
0.00077714 1.26679e-05 1.24005e-05
1.26679e-05 -7.47762e-05 -1.44152e-06
1.24005e-05 -1.44152e-06 -0.000130399
0.00488943 1.21248e-05 1.75531e-06
1.21248e-05 0.00220963 3.78637e-07
1.75531e-06 3.78637e-07 0.00220414
0.00468014 1.8177e-05 0.000102331
1.8177e-05 0.00210583 -8.15758e-07
0.000102331 -8.15758e-07 0.00210101
0.00128151 5.63349e-06 -8.20215e-06
5.63349e-06 1.20197e-05 -1.87146e-06
-8.20215e-06 -1.87146e-06 -8.05334e-05
0.00147931 7.3317e-06 -5.21358e-08
7.3317e-06 3.08831e-05 -1.16414e-07
-5.21358e-08 -1.16414e-07 -7.46554e-05
0.00158145 5.36743e-06 1.64095e-06
5.36743e-06 4.10897e-05 1.38747e-06
1.64095e-06 1.38747e-06 -6.60917e-05
0.00245907 8.03217e-06 -5.67971e-05
8.03217e-06 0.000812716 -1.97662e-06
-5.67971e-05 -1.97662e-06 0.000770513
0.0012409 1.71022e-05 1.27125e-07
1.71022e-05 7.64718e-06 3.03404e-08
1.27125e-07 3.03404e-08 -8.18075e-05
0.001559 1.92289e-05 3.58144e-06
1.92289e-05 8.41651e-05 6.89655e-07
3.58144e-06 6.89655e-07 -1.89134e-05
0.00480209 6.88364e-06 -0.000108581
6.88364e-06 0.002165 -2.49737e-06
-0.000108581 -2.49737e-06 0.00216053
0.000717041 3.12187e-05 -1.41454e-09
3.12187e-05 -9.60647e-05 5.01235e-08
-1.41454e-09 5.01235e-08 -0.00014747
0.00121552 4.33311e-05 8.10724e-06
4.33311e-05 9.84326e-06 2.28656e-06
8.10724e-06 2.28656e-06 -7.8615e-05
0.00463136 6.96607e-06 1.91225e-06
6.96607e-06 0.00208702 4.50064e-07
1.91225e-06 4.50064e-07 0.00208121
0.000672227 4.75677e-05 1.21383e-05
4.75677e-05 -0.000104209 4.12848e-06
1.21383e-05 4.12848e-06 -0.000155675
0.00429791 -1.21894e-05 8.54334e-05
-1.21894e-05 0.00192601 4.14235e-06
8.54334e-05 4.14235e-06 0.00191875
0.000795094 6.85876e-06 -1.51472e-05
6.85876e-06 -9.20678e-05 -1.83997e-06
-1.51472e-05 -1.83997e-06 -0.000152045
0.00112088 9.55742e-07 3.23527e-07
9.55742e-07 -8.83247e-05 4.53541e-07
3.23527e-07 4.53541e-07 -0.000185418
0.00143575 9.24706e-07 4.81085e-06
9.24706e-07 -1.16941e-05 8.38597e-07
4.81085e-06 8.38597e-07 -0.000122503
0.00529655 -3.7328e-05 -0.000103891
-3.7328e-05 0.00241594 -1.69477e-06
-0.000103891 -1.69477e-06 0.00240662
0.000773799 1.00453e-05 -5.30194e-08
1.00453e-05 -0.000104127 2.13619e-07
-5.30194e-08 2.13619e-07 -0.000164013
0.000923096 1.31274e-06 6.43508e-06
1.31274e-06 -0.000199123 3.47304e-07
6.43508e-06 3.47304e-07 -0.000299142
0.00076947 1.4301e-05 1.30125e-05
1.4301e-05 -9.78463e-05 1.47458e-07
1.30125e-05 1.47458e-07 -0.000157513
0.00519777 5.20842e-05 4.17616e-06
5.20842e-05 0.00236415 4.87989e-07
4.17616e-06 4.87989e-07 0.00235687
0.00501275 7.62852e-05 0.00010653
7.62852e-05 0.00227381 2.292e-07
0.00010653 2.292e-07 0.00226587
0.00257074 -1.27175e-05 -6.10376e-05
-1.27175e-05 0.000856775 -2.04012e-06
-6.10376e-05 -2.04012e-06 0.000811189
0.00128287 7.42912e-06 -9.00618e-08
7.42912e-06 1.26227e-05 2.417e-08
-9.00618e-08 2.417e-08 -7.99141e-05
0.00139532 5.93031e-06 3.26802e-06
5.93031e-06 -1.54056e-05 1.13481e-06
3.26802e-06 1.13481e-06 -0.000121685
0.00467586 3.32431e-05 -3.06539e-05
3.32431e-05 0.0021036 -1.2471e-06
-3.06539e-05 -1.2471e-06 0.00209343
0.000766677 1.14513e-05 -1.35172e-07
1.14513e-05 -8.07163e-05 1.15797e-07
-1.35172e-07 1.15797e-07 -0.000134378
0.00125779 1.91022e-05 7.97511e-06
1.91022e-05 1.61354e-05 1.95991e-06
7.97511e-06 1.95991e-06 -7.34723e-05
0.00474945 1.42426e-05 -1.0727e-06
1.42426e-05 0.00214042 4.43658e-07
-1.0727e-06 4.43658e-07 0.00213558
0.000712273 3.31356e-05 1.28069e-05
3.31356e-05 -9.76248e-05 3.45009e-06
1.28069e-05 3.45009e-06 -0.000149146
0.00455689 1.63862e-05 9.63847e-05
1.63862e-05 0.00205006 3.99327e-06
9.63847e-05 3.99327e-06 0.00204416
0.00178465 -1.47757e-05 -0.000104834
-1.47757e-05 0.000547401 -9.68888e-08
-0.000104834 -9.68888e-08 0.000522001
0.00169943 7.2097e-06 -2.47266e-05
7.2097e-06 0.000387996 5.24404e-07
-2.47266e-05 5.24404e-07 0.000335609
0.000930852 1.28944e-06 8.27225e-06
1.28944e-06 -0.00018899 1.54157e-06
8.27225e-06 1.54157e-06 -0.000287234
0.00529078 -5.07738e-05 4.21672e-06
-5.07738e-05 0.00241396 -1.00666e-06
4.21672e-06 -1.00666e-06 0.00240408
0.000765385 7.80235e-06 1.37554e-05
7.80235e-06 -0.000107526 1.01305e-06
1.37554e-05 1.01305e-06 -0.000167851
0.0052593 1.49277e-05 0.000112779
1.49277e-05 0.00239231 1.04039e-06
0.000112779 1.04039e-06 0.00238637
0.00149124 -6.41231e-05 -8.78034e-06
-6.41231e-05 0.00041159 -8.19863e-07
-8.78034e-06 -8.19863e-07 0.000379418
0.00168822 4.98149e-06 -2.37216e-05
4.98149e-06 0.000393302 1.7576e-07
-2.37216e-05 1.7576e-07 0.000342233
0.00128364 7.02717e-06 7.8618e-06
7.02717e-06 1.30804e-05 1.96415e-06
7.8618e-06 1.96415e-06 -7.94761e-05
0.00315998 5.32327e-06 4.22253e-05
5.32327e-06 0.00129461 4.47516e-07
4.22253e-05 4.47516e-07 0.00127821
0.000767417 1.86337e-05 1.31669e-05
1.86337e-05 -8.01825e-05 3.01766e-06
1.31669e-05 3.01766e-06 -0.000134148
0.00470884 2.41718e-05 0.00010217
2.41718e-05 0.00212157 3.41198e-06
0.00010217 3.41198e-06 0.00211639
0.00526149 -4.54872e-05 -4.79881e-06
-4.54872e-05 0.00239516 4.53728e-07
-4.79881e-06 4.53728e-07 0.00238788
0.000768692 1.44034e-05 1.38019e-05
1.44034e-05 -0.000103601 1.96782e-06
1.38019e-05 1.96782e-06 -0.000162062
0.00528999 3.70516e-05 0.000107792
3.70516e-05 0.00241148 -1.10356e-06
0.000107792 -1.10356e-06 0.00240286
0.00330304 1.86196e-06 4.68218e-05
1.86196e-06 0.00136283 1.37659e-07
4.68218e-05 1.37659e-07 0.00134504
0.000773637 9.6032e-06 1.32288e-05
9.6032e-06 -8.88721e-05 2.63285e-06
1.32288e-05 2.63285e-06 -0.000146136
0.00485061 1.9889e-05 0.000103522
1.9889e-05 0.00218975 2.43238e-06
0.000103522 2.43238e-06 0.00218456
0.00519994 -0.000125324 0.0001006
-0.000125324 0.00237419 -6.88374e-08
0.0001006 -6.88374e-08 0.00236022
0.00503546 -7.10945e-05 0.00010035
-7.10945e-05 0.00228444 8.86833e-07
0.00010035 8.86833e-07 0.00227626
