# vtk DataFile Version 2.0
Wound Healing Simulation
ASCII
DATASET UNSTRUCTURED_GRID
POINTS 3012 float
69.9759 18.75 4
67.2507 60.3285 4
69.976 18.75 2
73.0099 25.446 4
71.1327 20.9142 4
68.6801 16.6661 4
67.826 19.9261 3.98352
67.2507 60.3286 2
71.1327 54.0858 4
68.6801 58.3339 4
65.6939 62.2254 4
65.3127 59.0019 3.98401
74.6784 42.3946 4
73.7221 47.2057 4
69.9759 18.75 0
73.0099 25.446 2
68.6801 16.6661 2
71.1327 20.9142 2
67.8264 19.9289 2
74.6792 32.6053 4
73.7222 27.7943 4
72.1454 23.1494 4
70.6146 26.221 3.98356
68.8863 21.9582 3.98421
67.2507 14.6715 4
66.6375 17.9717 3.98309
65.7977 21.0252 3.97515
67.2507 60.3285 0
71.1327 54.0858 2
68.6801 58.3339 2
65.694 62.2255 2
65.3139 58.999 2
72.1454 51.8506 4
69.9759 56.25 4
68.8367 53.1131 3.98314
64.0165 64.0165 4
66.6111 57.1341 3.98347
63.8864 60.7667 3.98608
63.5011 57.7723 3.9767
60.3285 67.2507 4
74.6792 42.3947 2
73.7222 47.2057 2
74.9194 39.9526 4
74.2788 44.8158 4
72.1685 42.0857 3.98218
73.0099 49.554 4
71.2497 46.5983 3.98247
73.0099 25.446 0
71.1327 20.9142 0
68.6801 16.6661 0
67.826 19.9261 0.0164782
74.6792 32.6053 2
73.7222 27.7943 2
67.2508 14.6715 2
72.1455 23.1494 2
70.6147 26.2216 2
66.6383 17.9747 2
68.8866 21.9602 2
65.7972 21.0255 2
74.9197 35.0474 4
74.2794 30.1841 4
72.1851 32.9432 3.98254
71.2786 28.4313 3.98298
69.8161 24.0598 3.98404
68.3477 26.951 3.9737
66.7634 22.9329 3.97476
65.694 12.7746 4
65.3244 16.1027 3.98475
64.7141 19.1951 3.97532
63.8864 22.0359 3.97138
71.1327 54.0858 0
65.6939 62.2254 0
68.6801 58.3339 0
65.3127 59.0019 0.0159934
72.1455 51.8506 2
69.9759 56.25 2
68.837 53.111 2
64.0165 64.0165 2
66.6119 57.1309 2
63.8877 60.7648 2
63.5009 57.7729 2
62.2254 65.694 4
58.8951 65.4145 3.99184
69.7693 50.989 3.98315
67.784 55.1674 3.98315
66.6498 52.2094 3.97338
62.3368 62.428 3.98854
64.6612 56.0317 3.97565
62.2037 59.4054 3.97837
61.8226 56.6807 3.97218
58.3339 68.6801 4
60.3285 67.2508 2
73.7221 47.2057 0
74.6784 42.3946 0
74.9197 39.9526 2
74.2794 44.8159 2
72.1682 42.0857 2
73.0099 49.554 2
71.2497 46.5979 2
75 37.5 4
72.4057 39.8023 3.98229
71.7829 44.353 3.98242
69.8045 41.7898 3.97242
70.5755 48.8137 3.98278
68.9128 46.0152 3.97264
74.6792 32.6053 0
73.7222 27.7943 0
67.2507 14.6715 0
72.1454 23.1494 0
70.6146 26.221 0.0164433
68.8863 21.9582 0.0157944
66.6375 17.9717 0.0169138
65.7977 21.0252 0.0248471
74.9197 35.0474 2
74.2794 30.1841 2
72.1848 32.9434 2
71.2786 28.4317 2
65.694 12.7745 2
65.3256 16.1051 2
69.8162 24.0609 2
68.3476 26.9512 2
64.7137 19.1949 2
66.763 22.9333 2
63.8859 22.0358 2
72.4135 35.2241 3.98227
71.8043 30.6762 3.98274
69.8405 33.2679 3.97291
68.9669 29.0377 3.97337
67.6121 24.9116 3.97405
66.1946 27.6341 3.96994
64.0165 10.9835 4
64.7565 23.8299 3.97088
63.8909 14.3262 3.98703
63.5143 17.4461 3.97763
62.9054 20.3222 3.9704
62.0904 22.9448 3.96949
60.6845 11.0971 3.98935
57.6126 11.4463 3.98258
72.1454 51.8506 0
69.9759 56.25 0
68.8367 53.1131 0.0168575
64.0165 64.0165 0
63.8864 60.7667 0.0139244
66.6111 57.1341 0.0165331
63.5011 57.7723 0.0232959
62.2255 65.694 2
58.8958 65.4142 2
69.7694 50.9878 2
67.7845 55.1645 2
66.6494 52.2089 2
62.338 62.4269 2
64.6609 56.0319 2
62.2036 59.4065 2
61.8223 56.6817 2
60.6694 63.9775 3.99037
57.0259 66.7352 3.99247
57.5586 63.6931 3.985
67.508 50.1771 3.97294
65.7022 54.1734 3.97419
64.5366 51.3849 3.96935
60.7738 60.9392 3.98082
62.8189 55.0669 3.97121
60.6582 58.1597 3.97325
60.3252 55.783 3.97134
56.25 69.9759 4
58.3339 68.6801 2
60.3285 67.2507 0
58.9216 9.65545 3.99029
62.2254 9.30607 4
73.0099 49.554 0
74.2788 44.8158 0
71.2497 46.5983 0.0175348
72.1685 42.0857 0.0178205
74.9194 39.9526 0
75 37.5 2
72.4056 39.8024 2
71.7828 44.3527 2
69.8042 41.7895 2
70.5756 48.8131 2
68.9128 46.0148 2
72.489 37.512 3.98205
70.0415 39.6573 3.97228
69.4309 43.9078 3.9726
67.5972 41.4974 3.96926
68.2664 48.1075 3.97266
66.7096 45.4399 3.96911
74.9197 35.0474 0
74.2794 30.1841 0
72.1851 32.9432 0.0174585
71.2786 28.4313 0.0170167
65.694 12.7746 0
65.3244 16.1027 0.0152453
69.8161 24.0598 0.0159562
68.3477 26.951 0.0262994
66.7634 22.9329 0.0252418
64.7141 19.1951 0.02468
63.8864 22.0359 0.0286199
72.4134 35.2241 2
71.8042 30.6765 2
69.8402 33.2682 2
68.9669 29.0379 2
64.0165 10.9835 2
63.8921 14.3279 2
63.5141 17.4454 2
67.6119 24.912 2
66.1945 27.6341 2
62.9051 20.3217 2
64.7561 23.8299 2
62.09 22.9448 2
60.6855 11.0981 2
57.6127 11.4455 2
70.0581 35.3916 3.97239
69.4676 31.149 3.97295
67.6554 33.5905 3.96956
66.7722 29.6223 3.96959
65.5239 25.6989 3.97029
64.1452 28.2557 3.96956
62.3423 12.6543 3.98836
62.8553 24.6381 3.96963
62.2003 15.7832 3.98035
61.813 18.6856 3.97183
61.2128 21.3452 3.9682
60.4204 23.7307 3.96893
59.2467 12.7777 3.98128
55.8745 10.2327 3.98425
56.4052 13.1135 3.979
69.7693 50.989 0.0168522
62.2254 65.694 0
58.8951 65.4145 0.00816404
67.784 55.1674 0.0168548
66.6498 52.2094 0.0266208
62.3368 62.428 0.0114629
62.2037 59.4054 0.0216265
64.6612 56.0317 0.0243462
61.8226 56.6807 0.0278198
60.6704 63.9768 2
57.0265 66.7352 2
57.5588 63.6943 2
67.5078 50.1766 2
65.7018 54.1731 2
64.5363 51.3849 2
60.7739 60.9405 2
62.8187 55.0676 2
60.6581 58.1609 2
60.3252 55.7835 2
55.0715 67.9322 3.99275
59.2199 62.3675 3.98214
55.8055 64.9111 3.98752
56.3273 62.0915 3.98079
65.3313 49.4083 3.96902
63.7046 53.2914 3.96974
62.4387 50.6502 3.96802
59.3336 59.558 3.97736
61.0727 54.3057 3.9695
59.2873 57.0092 3.97087
59.2375 55.1774 3.97412
48.1036 68.579 3.98866
50.9491 69.9318 3.99295
54.0858 71.1327 4
56.25 69.976 2
58.3339 68.6801 0
57.059 8.33551 3.99094
60.3285 7.74928 4
58.9226 9.65604 2
62.2255 9.30602 2
70.5755 48.8137 0.0172168
71.7829 44.353 0.0175814
68.9128 46.0152 0.0273619
69.8045 41.7898 0.0275841
72.4057 39.8023 0.0177101
75 37.5 0
72.4887 37.5121 2
70.0414 39.6572 2
69.4308 43.9075 2
67.5969 41.4973 2
68.2664 48.1071 2
66.7096 45.4398 2
70.1295 37.5213 3.9723
67.8343 39.5121 3.96929
67.2236 43.4698 3.9692
65.547 41.2089 3.9699
66.0683 47.418 3.96901
64.6481 44.8472 3.96912
72.4135 35.2241 0.0177262
71.8043 30.6762 0.0172607
69.8405 33.2679 0.0270947
68.9669 29.0377 0.0266287
64.0165 10.9835 0
63.8909 14.3262 0.0129743
63.5143 17.4461 0.0223693
67.6121 24.9116 0.0259479
66.1946 27.6341 0.0300613
64.7565 23.8299 0.0291167
62.9054 20.3222 0.0296046
62.0904 22.9448 0.0305062
60.6845 11.0971 0.0106525
57.6126 11.4463 0.0174237
70.0581 35.3918 2
69.4676 31.1492 2
67.6551 33.5906 2
66.7722 29.6223 2
62.3434 12.6556 2
62.2002 15.7823 2
61.8128 18.6846 2
65.5237 25.6989 2
64.1451 28.2557 2
61.2127 21.3449 2
62.855 24.6381 2
60.4205 23.7309 2
59.2468 12.7771 2
56.4051 13.1125 2
55.8746 10.2318 2
67.8702 35.5472 3.96934
67.2651 31.6219 3.96949
65.6931 33.9272 3.97003
64.6605 30.1923 3.96931
63.5367 26.4147 3.96954
62.2478 28.7799 3.97168
60.7762 14.2221 3.98119
61.0394 25.3405 3.97013
60.6132 17.1272 3.97657
60.2179 19.8209 3.96792
59.6517 22.2633 3.96745
58.967 24.3258 3.97033
54.0376 9.13557 3.98538
57.9106 14.3317 3.97956
54.7867 12.0125 3.98036
55.312 14.6481 3.97766
67.508 50.1771 0.0270575
57.0259 66.7352 0.00752945
60.6694 63.9775 0.00962655
57.5586 63.6931 0.015002
65.7022 54.1734 0.0258052
64.5366 51.3849 0.0306533
60.7738 60.9392 0.0191844
60.6582 58.1597 0.0267464
62.8189 55.0669 0.0287949
60.3252 55.783 0.028661
55.0719 67.9322 2
59.22 62.3686 2
55.8055 64.9121 2
56.3273 62.0928 2
65.331 49.4082 2
63.7042 53.2916 2
62.4387 50.6501 2
59.3336 59.5593 2
61.0728 54.3061 2
59.2874 57.0095 2
59.2376 55.1775 2
53.0433 69 3.99287
53.968 66.0136 3.9883
57.8809 60.8711 3.97913
54.6844 63.2091 3.98332
55.2112 60.6169 3.97868
63.1888 48.6594 3.96831
61.7373 52.5725 3.96812
60.2565 50.0129 3.96819
58.0171 58.2603 3.97326
59.3195 53.9408 3.96889
58.1217 55.8031 3.96816
50.1103 67.857 3.98864
47.4638 66.5817 3.98604
46.0571 69.1583 3.98867
48.1035 68.5795 2
48.8032 70.7231 3.99303
50.9495 69.9319 2
51.8506 72.1454 4
54.0858 71.1327 2
56.25 69.9759 0
55.1035 7.14014 3.99142
58.3339 6.31992 4
57.0597 8.33579 2
60.3286 7.74926 2
58.9216 9.65545 0.0097064
62.2254 9.30607 0
68.2664 48.1075 0.0273409
69.4309 43.9078 0.0274046
66.7096 45.4399 0.0308871
67.5972 41.4974 0.030742
70.0415 39.6573 0.0277176
72.489 37.512 0.0179515
70.1293 37.5213 2
67.8342 39.512 2
67.2234 43.4697 2
65.5467 41.2088 2
66.0683 47.4179 2
64.6479 44.8471 2
67.9305 37.5217 3.96925
65.7777 39.3696 3.9701
65.1711 43.0243 3.96951
63.7232 40.9278 3.97227
63.9583 46.7151 3.96864
62.7891 44.2133 3.97215
70.0581 35.3916 0.0276051
69.4676 31.149 0.0270499
67.6554 33.5905 0.0304387
66.7722 29.6223 0.0304062
62.3423 12.6543 0.0116429
62.2003 15.7832 0.0196521
61.813 18.6856 0.0281679
65.5239 25.6989 0.0297148
64.1452 28.2557 0.0304378
62.8553 24.6381 0.0303703
61.2128 21.3452 0.0318007
60.4204 23.7307 0.0310728
59.2467 12.7777 0.0187198
56.4052 13.1135 0.0210009
55.8745 10.2327 0.0157546
67.8701 35.5472 2
67.2651 31.6219 2
65.693 33.9272 2
64.6603 30.1922 2
60.7761 14.2213 2
60.613 17.1259 2
60.218 19.8199 2
63.5365 26.4147 2
62.2474 28.78 2
59.652 22.2635 2
61.0393 25.3407 2
58.9667 24.3262 2
57.9102 14.3308 2
55.3115 14.6473 2
54.0377 9.13484 2
54.7866 12.0114 2
65.8675 35.6666 3.96992
65.1793 32.1545 3.96958
64.2628 34.25 3.97183
62.5719 30.6378 3.97184
61.6397 27.0751 3.97053
60.8257 29.1438 3.9747
59.3112 15.6681 3.97888
59.3104 25.8023 3.97273
59.1214 18.3576 3.97319
58.7296 20.8616 3.96542
58.2717 23.0989 3.96683
57.9464 24.6718 3.97185
52.1123 8.15373 3.98629
53.058 11.018 3.98174
56.6761 15.7434 3.97879
53.8089 13.6831 3.9783
54.375 16.0022 3.97799
55.0715 67.9322 0.00725164
65.3313 49.4083 0.0309835
55.8055 64.9111 0.0124824
59.2199 62.3675 0.0178589
56.3273 62.0915 0.0192109
63.7046 53.2914 0.0302616
62.4387 50.6502 0.0319816
59.3336 59.558 0.0226431
59.2873 57.0092 0.0291345
61.0727 54.3057 0.0304953
59.2375 55.1774 0.0258785
53.0437 69.0001 2
53.9679 66.0143 2
57.8807 60.8722 2
54.6844 63.2103 2
55.2111 60.6183 2
63.1887 48.6593 2
61.737 52.5725 2
60.2565 50.0127 2
58.017 58.2618 2
59.3198 53.9407 2
58.1218 55.803 2
52.0715 67.0001 3.98857
52.9541 64.2201 3.98516
56.6477 59.4886 3.97686
53.6813 61.6237 3.98097
54.2589 59.321 3.97616
60.966 47.8743 3.96919
59.6974 52.0988 3.96785
57.9898 49.6056 3.97102
56.7735 56.9788 3.97054
57.1086 54.1094 3.96679
50.1102 67.8576 2
49.3377 65.9221 3.98599
47.4637 66.5822 2
46.8932 64.737 3.98457
45.5589 67.0988 3.98598
43.9739 69.5906 3.98866
46.0571 69.1588 2
46.6098 71.3675 3.99303
48.1036 68.579 0.0113407
48.8035 70.7233 2
49.554 73.0099 4
50.9491 69.9318 0.00704753
51.8506 72.1455 2
54.0858 71.1327 0
53.0647 6.07172 3.99166
55.1041 7.14024 2
56.25 5.02411 4
58.3339 6.3199 2
57.059 8.33551 0.00906482
60.3285 7.74928 0
66.0683 47.418 0.0309891
67.2236 43.4698 0.030803
64.6481 44.8472 0.0308812
65.547 41.2089 0.0300985
67.8343 39.5121 0.030707
70.1295 37.5213 0.027696
67.9303 37.5217 2
65.7774 39.3695 2
65.1709 43.0242 2
63.7229 40.9277 2
63.9579 46.715 2
62.7884 44.2131 2
65.8801 37.5013 3.96982
63.8596 39.2655 3.97189
63.3004 42.5476 3.97205
62.3791 40.6955 3.97446
61.9462 45.9146 3.97105
61.411 43.6788 3.97519
67.8702 35.5472 0.0306627
67.2651 31.6219 0.0305141
65.6931 33.9272 0.029972
64.6605 30.1923 0.030692
60.7762 14.2221 0.0188071
60.6132 17.1272 0.0234303
60.2179 19.8209 0.0320799
63.5367 26.4147 0.0304591
62.2478 28.7799 0.0283171
61.0394 25.3405 0.0298715
59.6517 22.2633 0.0325521
58.967 24.3258 0.0296738
57.9106 14.3317 0.0204383
55.312 14.6481 0.0223382
54.0376 9.13557 0.0146231
54.7867 12.0125 0.0196441
65.8671 35.6665 2
65.1793 32.1545 2
64.2627 34.2499 2
62.5716 30.6379 2
59.3108 15.6671 2
59.1214 18.3564 2
58.7302 20.8616 2
61.6392 27.0753 2
60.8256 29.144 2
58.2717 23.0993 2
59.3107 25.8026 2
57.9461 24.6723 2
56.6755 15.7425 2
54.3742 16.0015 2
53.8087 13.682 2
52.1123 8.15311 2
53.0578 11.0171 2
64.0581 35.6322 3.97153
62.893 33.0474 3.97224
60.574 30.6152 3.97502
59.5408 27.9157 3.97395
57.9385 16.9843 3.97735
57.7081 25.7338 3.97421
57.7081 19.4817 3.96971
57.3514 21.8507 3.96401
57.1609 23.9555 3.9687
50.1125 7.28511 3.98714
51.2326 10.1257 3.98296
52.1717 12.7994 3.98014
55.5358 16.975 3.97829
52.9762 15.2681 3.9758
53.7558 16.9853 3.9797
53.0433 69 0.00712593
53.968 66.0136 0.0116991
63.1888 48.6594 0.0316935
54.6844 63.2091 0.0166795
57.8809 60.8711 0.02087
55.2112 60.6169 0.0213201
61.7373 52.5725 0.0318777
60.2565 50.0129 0.0318064
58.0171 58.2603 0.0267439
58.1217 55.8031 0.0318418
59.3195 53.9408 0.031114
52.0714 67.0007 2
52.9539 64.2209 2
56.6475 59.4896 2
53.6812 61.6251 2
54.259 59.3224 2
60.9653 47.874 2
59.6979 52.0987 2
57.9881 49.6051 2
56.773 56.9834 2
57.1091 54.1092 2
51.1687 65.1292 3.98582
52.0467 62.5403 3.9831
55.4788 58.2485 3.97711
52.8336 60.1357 3.97879
53.6375 58.4704 3.97973
58.2536 46.8382 3.97381
57.5411 51.7745 3.9686
56.197 49.5403 3.97143
55.4635 55.7775 3.96733
55.3373 53.366 3.96666
50.1103 67.857 0.0113612
49.3375 65.9227 2
48.6189 64.1237 3.9847
47.4638 66.5817 0.0139574
45.5588 67.0994 2
46.893 64.7375 2
46.3828 63.0542 3.98394
45.1334 65.1981 3.98449
43.6319 67.4694 3.986
41.8609 69.8781 3.98852
43.9739 69.5911 2
44.3771 71.8624 3.99291
46.0571 69.1583 0.0113314
46.6101 71.3678 2
47.2057 73.7222 4
48.8032 70.7231 0.00697107
49.554 73.0099 2
51.8506 72.1454 0
50.9545 5.13188 3.99208
53.0651 6.07165 2
54.0858 3.86728 4
55.1035 7.14014 0.00858142
56.25 5.02406 2
58.3339 6.31992 0
63.9583 46.7151 0.0313575
65.1711 43.0243 0.0304897
62.7891 44.2133 0.0278549
63.7232 40.9278 0.027727
65.7777 39.3696 0.0298977
67.9305 37.5217 0.0307478
65.8797 37.5013 2
63.8591 39.2654 2
63.3 42.5475 2
62.3787 40.6954 2
61.9452 45.9143 2
61.4102 43.6786 2
63.9221 37.4564 3.97158
62.092 39.3534 3.97342
61.1603 41.9544 3.97511
60.2113 44.7641 3.97509
65.8675 35.6666 0.0300766
65.1793 32.1545 0.0304151
64.2628 34.25 0.0281738
62.5719 30.6378 0.0281599
59.3112 15.6681 0.0211181
59.1214 18.3576 0.0268055
58.7296 20.8616 0.0345756
61.6397 27.0751 0.0294716
60.8257 29.1438 0.0253017
59.3104 25.8023 0.0272669
58.2717 23.0989 0.0331691
57.9464 24.6718 0.0281523
56.6761 15.7434 0.0212147
54.375 16.0022 0.0220097
53.8089 13.6831 0.0216954
52.1123 8.15373 0.0137142
53.058 11.018 0.0182649
64.0576 35.6322 2
62.8926 33.0475 2
60.5741 30.6153 2
57.938 16.9832 2
57.7084 19.4801 2
57.352 21.8509 2
59.5404 27.916 2
57.1596 23.9562 2
57.7088 25.7342 2
50.1125 7.28458 2
55.5352 16.9739 2
53.7551 16.9844 2
52.9757 15.2669 2
52.1714 12.7985 2
51.2324 10.125 2
62.1274 35.3599 3.97311
60.2231 32.7479 3.97498
58.5645 30.0823 3.97611
57.2425 27.3904 3.97538
56.6328 18.1597 3.97692
56.2535 25.1123 3.97183
56.3438 20.5316 3.96761
56.0786 22.8816 3.96501
48.0564 6.5277 3.98808
49.3246 9.33277 3.98358
50.4331 11.9964 3.98115
51.3765 14.5021 3.97834
54.4109 17.9252 3.97917
52.3581 17.044 3.97519
52.0715 67.0001 0.0114255
52.9541 64.2201 0.0148428
60.966 47.8743 0.0308059
53.6813 61.6237 0.0190343
56.6477 59.4886 0.0231414
54.2589 59.321 0.0238427
59.6974 52.0988 0.0321519
57.9898 49.6056 0.0289849
56.7735 56.9788 0.0294598
57.1086 54.1094 0.0332141
51.1685 65.1298 2
52.0464 62.5412 2
55.4786 58.2495 2
52.8337 60.1371 2
53.6373 58.4714 2
58.253 46.8378 2
57.5412 51.7742 2
56.1958 49.5397 2
55.464 55.7785 2
55.3382 53.366 2
50.347 63.3821 3.98422
51.2441 60.9365 3.98077
54.2144 57.2652 3.97723
52.3105 58.6323 3.97672
56.6204 44.1688 3.97732
55.4265 47.8796 3.97396
55.0399 51.3748 3.96834
53.9878 54.5238 3.96611
49.3377 65.9221 0.0140121
48.6187 64.1243 2
47.9629 62.4757 3.98386
45.5589 67.0988 0.0140195
46.8932 64.737 0.0154335
43.6319 67.4701 2
46.3827 63.0547 2
45.1332 65.1987 2
45.9883 61.5865 3.98363
44.768 63.4546 3.98361
43.3573 65.5075 3.98439
41.6639 67.6882 3.9857
39.7025 70.0251 3.9886
41.861 69.8786 2
42.1113 72.2073 3.99283
43.9739 69.5906 0.0113378
44.3773 71.8627 2
44.8159 74.2794 4
46.6098 71.3675 0.0069743
47.2057 73.7222 2
49.554 73.0099 0
48.785 4.32268 3.99253
50.9549 5.13174 2
51.8506 2.85458 4
53.0647 6.07172 0.00833726
54.0858 3.86728 2
56.25 5.02411 0
61.9462 45.9146 0.0289538
63.3004 42.5476 0.0279513
61.411 43.6788 0.0248132
62.3791 40.6955 0.0255354
63.8596 39.2655 0.0281086
65.8801 37.5013 0.0301788
63.9214 37.4563 2
62.0913 39.3534 2
61.1598 41.9542 2
60.2102 44.7637 2
61.9311 37.444 3.97354
60.1688 39.8439 3.97622
58.9152 42.9099 3.97667
64.0581 35.6322 0.0284692
62.893 33.0474 0.0277648
60.574 30.6152 0.0249767
57.9385 16.9843 0.0226527
57.7081 19.4817 0.030292
57.3514 21.8507 0.0359907
59.5408 27.9157 0.0260524
57.7081 25.7338 0.0257944
57.1609 23.9555 0.0313015
55.5358 16.975 0.0217109
53.7558 16.9853 0.0202978
52.9762 15.2681 0.0241951
50.1125 7.28511 0.0128615
52.1717 12.7994 0.0198624
51.2326 10.1257 0.0170389
62.1263 35.3599 2
60.222 32.748 2
58.5637 30.0827 2
56.6324 18.1583 2
56.3441 20.5287 2
56.079 22.8823 2
57.2441 27.3907 2
56.254 25.1131 2
48.0564 6.52703 2
49.3245 9.33224 2
54.4104 17.9244 2
52.3574 17.0433 2
51.376 14.501 2
50.4328 11.9958 2
59.8079 35.12 3.97588
57.9061 32.2769 3.97702
56.4803 29.3506 3.97656
55.3891 26.6125 3.97557
55.3342 19.1939 3.97601
54.8888 24.0714 3.96748
54.979 21.5766 3.96615
45.9624 5.88243 3.98875
43.3739 7.47373 3.98583
47.3552 8.62546 3.98446
48.6 11.297 3.98155
49.713 13.7474 3.98029
50.6312 16.1383 3.97757
53.1183 18.6675 3.97508
51.2955 18.0578 3.98134
51.1687 65.1292 0.0141797
52.0467 62.5403 0.0168984
58.2536 46.8382 0.0261945
52.8336 60.1357 0.021212
55.4788 58.2485 0.0228892
53.6375 58.4704 0.0202707
57.5411 51.7745 0.0313978
56.197 49.5403 0.0285724
55.4635 55.7775 0.0326728
55.3373 53.366 0.0333435
50.3467 63.3827 2
51.244 60.9375 2
54.2142 57.2664 2
52.3104 58.6333 2
56.6196 44.1682 2
55.4245 47.8789 2
55.0402 51.3744 2
53.9887 54.5253 2
49.5924 61.7458 3.98291
55.4994 41.6877 3.97756
50.5658 59.328 3.9767
52.1771 56.4851 3.97087
54.0745 45.542 3.97712
53.2647 49.3095 3.97116
52.6366 52.83 3.96576
48.6189 64.1237 0.0152969
47.9627 62.4761 2
47.3299 61.0098 3.98337
43.6319 67.4694 0.013995
45.1334 65.1981 0.0155123
46.3828 63.0542 0.0160608
41.6639 67.6887 2
43.3572 65.5083 2
45.9883 61.5872 2
44.7679 63.4553 2
45.7668 60.6306 3.98211
44.4843 61.8354 3.98307
43.1472 63.7268 3.98313
41.5467 65.645 3.98371
39.633 67.7678 3.98538
37.526 70.0502 3.98849
39.7025 70.0258 2
39.818 72.4043 3.99265
41.8609 69.8781 0.0114829
42.1116 72.2076 2
42.3947 74.6792 4
44.3771 71.8624 0.00709084
44.8159 74.2794 2
47.2057 73.7222 0
43.8518 5.35919 3.989
46.571 3.64709 3.99277
48.7853 4.32242 2
49.554 1.99015 4
50.9545 5.13188 0.00792053
51.8506 2.85453 2
54.0858 3.86728 0
60.2113 44.7641 0.0249068
61.1603 41.9544 0.0248871
62.092 39.3534 0.0265833
63.9221 37.4564 0.0284244
61.9302 37.444 2
60.1681 39.8438 2
58.9145 42.9095 2
59.6636 37.5651 3.97604
57.8892 40.6485 3.97732
54.9407 39.7066 3.97716
62.1274 35.3599 0.0268875
60.2231 32.7479 0.0250205
58.5645 30.0823 0.0238925
56.6328 18.1597 0.0230824
56.3438 20.5316 0.0323924
56.0786 22.8816 0.034986
57.2425 27.3904 0.0246164
56.2535 25.1123 0.0281682
54.4109 17.9252 0.0208259
52.3581 17.044 0.0248096
51.3765 14.5021 0.0216605
48.0564 6.5277 0.0119215
49.3246 9.33277 0.0164154
50.4331 11.9964 0.0188469
59.8067 35.1201 2
45.9624 5.88205 2
43.3738 7.4733 2
57.9066 32.2773 2
56.4796 29.3512 2
55.3341 19.193 2
54.9798 21.5758 2
54.8886 24.0728 2
55.3838 26.614 2
47.3551 8.62464 2
48.5998 11.2965 2
53.1181 18.6666 2
51.295 18.0571 2
50.6307 16.1373 2
49.7124 13.7468 2
57.2718 34.7667 3.9774
55.6373 31.532 3.97823
54.4143 28.4225 3.97861
53.7249 25.515 3.9736
53.9564 20.146 3.97497
53.5472 22.7307 3.9614
41.399 7.07876 3.98646
45.3599 7.99567 3.98574
42.8659 9.41734 3.98333
46.6666 10.6565 3.982
47.7448 13.1069 3.98132
48.9294 15.4069 3.9784
50.0015 17.7072 3.97926
51.6397 19.3323 3.98302
50.347 63.3821 0.0157804
51.2441 60.9365 0.0192279
56.6204 44.1688 0.0226786
55.4265 47.8796 0.0260421
52.3105 58.6323 0.0232785
54.2144 57.2652 0.0227714
55.0399 51.3748 0.0316591
53.9878 54.5238 0.0338869
49.592 61.7461 2
55.4987 41.6873 2
50.5656 59.3292 2
52.1771 56.4859 2
54.0772 45.5413 2
53.2676 49.309 2
52.6388 52.8295 2
48.8488 60.2024 3.98104
52.3619 42.6152 3.97887
49.7855 57.622 3.97688
50.5727 54.4151 3.9685
51.7031 47.2451 3.97614
51.1599 50.926 3.96603
48.0001 43.7726 3.99135
47.9629 62.4757 0.0161409
47.3298 61.0102 2
46.619 59.7958 3.98275
41.6639 67.6882 0.0143013
43.3573 65.5075 0.0156105
44.768 63.4546 0.0163869
45.9883 61.5865 0.0163702
39.633 67.7685 2
41.5465 65.6453 2
45.7666 60.6314 2
43.1472 63.7274 2
44.4843 61.8361 2
44.6237 60.2927 3.98261
42.9513 62.0831 3.98192
41.6006 63.8198 3.9831
39.648 65.6127 3.98299
37.5635 67.75 3.9852
31.6966 65.1315 3.98372
33.392 67.4875 3.98515
35.3333 69.9603 3.98849
37.526 70.0509 2
37.5095 72.4589 3.99255
39.7025 70.0251 0.0113958
39.8181 72.4047 2
39.9526 74.9197 4
42.1113 72.2073 0.00717431
42.3947 74.6792 2
44.8159 74.2794 0
41.7364 4.96829 3.98939
43.8518 5.35871 2
44.3262 3.11016 3.99312
46.5712 3.6469 2
47.2057 1.27793 4
48.785 4.32268 0.00746846
49.554 1.99013 2
51.8506 2.85458 0
58.9152 42.9099 0.023332
60.1688 39.8439 0.0237831
61.9311 37.444 0.0264634
59.6632 37.565 2
57.8876 40.6482 2
54.9417 39.7049 2
56.6768 37.8903 3.97804
49.3948 41.3155 3.98902
52.9613 39.3051 3.98113
39.4425 6.80216 3.98656
59.8079 35.12 0.02412
57.9061 32.2769 0.0229781
56.4803 29.3506 0.0234399
55.3342 19.1939 0.023988
54.979 21.5766 0.0338451
54.8888 24.0714 0.032519
55.3891 26.6125 0.0244272
53.1183 18.6675 0.0249201
51.2955 18.0578 0.0186594
50.6312 16.1383 0.022432
45.9624 5.88243 0.0112515
49.713 13.7474 0.0197116
47.3552 8.62546 0.0155443
48.6 11.297 0.0184495
43.3739 7.47373 0.0141712
57.2702 34.767 2
41.3991 7.07828 2
45.3598 7.99537 2
42.8657 9.41694 2
55.6369 31.5324 2
54.4099 28.4242 2
53.9568 20.1456 2
53.5476 22.7282 2
53.7229 25.5164 2
46.6664 10.6555 2
47.7443 13.1063 2
51.6394 19.3314 2
50.0009 17.7062 2
48.9288 15.4064 2
54.729 33.9755 3.97693
53.3718 30.5059 3.97743
52.5139 27.2251 3.97547
52.0957 24.1222 3.97279
52.3701 21.0673 3.97863
41.0138 9.04978 3.98363
44.7243 9.99717 3.98327
42.4688 10.9052 3.98321
46.005 12.735 3.97954
47.6798 14.5905 3.97867
48.109 16.9951 3.97736
49.8113 19.6428 3.97652
49.5924 61.7458 0.0170912
50.5658 59.328 0.0233003
55.4994 41.6877 0.0224386
54.0745 45.542 0.0228819
53.2647 49.3095 0.0288353
52.1771 56.4851 0.029125
52.6366 52.83 0.0342375
48.8487 60.2022 2
52.3665 42.6142 2
49.7854 57.6235 2
50.5734 54.4159 2
51.7054 47.2441 2
51.1619 50.9251 2
48.0048 43.785 2
47.9855 58.742 3.97948
49.9466 45.2529 3.97827
48.5873 55.9129 3.97758
49.0939 52.5772 3.97209
49.5934 49.0261 3.97113
45.7984 39.8609 3.89118
46.2408 42.653 3.93197
46.3584 45.8169 3.99141
43.6335 41.1511 3.83939
41.9296 42.0164 3.7486
47.3299 61.0098 0.016626
46.6186 59.7964 2
45.4679 58.7925 3.98214
39.633 67.7678 0.0146194
41.5467 65.645 0.0162879
43.1472 63.7268 0.0168733
44.4843 61.8354 0.0169258
45.7668 60.6306 0.0178907
41.6006 63.8202 2
37.5635 67.7508 2
39.6479 65.6134 2
44.6236 60.2933 2
42.9513 62.0837 2
41.7542 62.4938 3.98215
42.481 59.9826 3.98286
39.8942 63.5539 3.98216
37.6424 65.5117 3.98308
35.4634 67.6593 3.9851
33.5751 65.3447 3.98321
31.9591 63.3032 3.98309
29.8826 64.7227 3.98437
31.6967 65.1323 2
31.3765 67.1974 3.98539
33.3921 67.4882 2
33.1561 69.7536 3.98833
35.3333 69.961 2
35.1947 72.3732 3.99251
37.526 70.0502 0.0115129
37.5095 72.4593 2
37.5 75 4
39.818 72.4043 0.00735245
39.9526 74.9197 2
42.3947 74.6792 0
39.6241 4.71543 3.98964
41.7365 4.9678 2
42.0625 2.71769 3.99324
43.8518 5.35919 0.0110036
44.3264 3.10986 2
44.8158 0.721173 4
46.571 3.64709 0.00722964
47.2057 1.27779 2
49.554 1.99015 0
57.8892 40.6485 0.0226798
59.6636 37.5651 0.0239649
54.9407 39.7066 0.0228371
49.4106 41.3188 2
56.6751 37.8905 2
52.9635 39.3072 2
53.8085 36.6317 3.97708
47.3209 40.3928 3.93839
50.3354 38.5107 3.99136
37.5163 6.67323 3.98684
39.4425 6.80165 2
39.2113 8.69219 3.98435
35.9421 8.49199 3.98467
57.2718 34.7667 0.0226045
55.6373 31.532 0.02177
54.4143 28.4225 0.0213877
53.9564 20.146 0.0250308
53.5472 22.7307 0.0386017
53.7249 25.515 0.0263971
51.6397 19.3323 0.0169766
50.0015 17.7072 0.0207367
48.9294 15.4069 0.0215981
45.3599 7.99567 0.0142621
47.7448 13.1069 0.018676
46.6666 10.6565 0.0180017
41.399 7.07876 0.0135397
42.8659 9.41734 0.0166729
54.7318 33.9748 2
41.0137 9.04944 2
44.7239 9.99707 2
42.4684 10.9051 2
53.3667 30.5052 2
52.5189 27.2265 2
52.3708 21.0659 2
52.0968 24.1235 2
46.0044 12.7336 2
47.6791 14.5897 2
49.8112 19.6415 2
48.1083 16.9947 2
52.2929 32.8924 3.98005
51.2014 29.1749 3.97816
50.7157 25.7567 3.97303
49.9203 22.2261 3.97806
40.5703 11.6098 3.98087
43.8585 11.9209 3.98013
45.8003 15.4296 3.98009
47.4998 19.2563 3.9769
46.1343 37.4877 3.89844
48.8488 60.2024 0.0189584
49.7855 57.622 0.023121
52.3619 42.6152 0.0211347
51.7031 47.2451 0.0238556
51.1599 50.926 0.0339711
50.5727 54.4151 0.0315008
48.0001 43.7726 0.00865134
47.9851 58.7428 2
49.953 45.2565 2
48.5871 55.9154 2
49.0944 52.5794 2
49.5966 49.0255 2
45.8257 39.8714 2
46.2598 42.6676 2
46.3585 45.811 2
43.6564 41.1696 2
41.941 42.025 2
46.8352 57.344 3.98269
44.38 39.4312 3.83954
42.2752 40.8789 3.78626
47.965 47.218 3.97636
47.1485 54.2344 3.97538
47.5333 50.732 3.96582
44.7015 47.4004 3.98641
44.9021 41.9509 3.89067
44.825 44.5512 3.94439
42.4869 42.6666 3.84837
40.8334 42.3584 3.78065
46.619 59.7958 0.0172463
45.4674 58.7929 2
43.8746 57.7167 3.98466
37.5635 67.75 0.0148006
39.648 65.6127 0.0170086
41.6006 63.8198 0.0168957
42.9513 62.0831 0.0180766
44.6237 60.2927 0.0173922
35.4635 67.6602 2
41.7542 62.4944 2
39.8941 63.5545 2
37.6424 65.5126 2
42.4811 59.983 2
40.6236 61.651 3.98212
40.4437 58.2118 3.98235
37.8373 63.2151 3.9814
35.573 65.4337 3.98295
33.5752 65.3453 2
31.9589 63.3039 2
33.6288 63.3426 3.98254
30.3779 62.862 3.98339
32.1227 62.0093 3.9836
26.8678 61.5051 3.98272
28.0614 64.1505 3.98406
29.8827 64.7235 2
29.4058 66.7611 3.98559
31.6966 65.1315 0.0162849
31.3766 67.1981 2
31.0133 69.4185 3.98831
33.392 67.4875 0.0148458
33.1561 69.7542 2
32.8916 72.1474 3.99255
35.3333 69.9603 0.0115052
35.1947 72.3737 2
35.0474 74.9194 4
37.5095 72.4589 0.00744847
37.5 75 2
39.9526 74.9197 0
35.621 6.72429 3.9865
37.5234 4.61499 3.9897
39.6242 4.71496 2
39.7889 2.47409 3.99331
41.7364 4.96829 0.0106058
42.0626 2.71738 2
42.3946 0.32156 4
44.3262 3.11016 0.00687927
44.8159 0.72056 2
47.2057 1.27793 0
49.3948 41.3155 0.0109778
56.6768 37.8903 0.0219645
52.9613 39.3051 0.0188722
47.3376 40.4055 2
50.3489 38.5087 2
53.8147 36.6329 2
51.1303 35.578 3.97916
47.9785 37.7398 3.95251
45.7992 35.1339 3.89216
43.6397 33.8416 3.8369
41.9373 32.986 3.74536
37.4582 8.53365 3.98476
37.5163 6.67255 2
39.4425 6.80216 0.0134365
39.2112 8.69162 2
38.977 10.1265 3.98347
35.899 9.77269 3.98301
34.1507 8.82153 3.98424
35.9419 8.49125 2
54.729 33.9755 0.0230691
53.3718 30.5059 0.0225739
52.5139 27.2251 0.0245349
52.3701 21.0673 0.0213657
52.0957 24.1222 0.0272116
49.8113 19.6428 0.0234783
48.109 16.9951 0.0226369
47.6798 14.5905 0.0213292
44.7243 9.99717 0.0167267
46.005 12.735 0.0204641
41.0138 9.04978 0.016369
42.4688 10.9052 0.0167935
52.2961 32.8925 2
40.5701 11.61 2
43.8576 11.921 2
51.2138 29.1754 2
50.7177 25.7594 2
49.921 22.225 2
45.7995 15.4279 2
47.4993 19.2553 2
49.8238 31.4221 3.97575
49.1903 27.5234 3.97623
49.3554 24.4404 3.98408
47.1744 21.993 3.97405
38.303 12.7365 3.97996
42.1016 14.3104 3.97842
44.7979 18.4729 3.97727
44.6746 37.4955 3.84166
46.171 37.4948 2
47.9855 58.742 0.0205247
48.5873 55.9129 0.0224209
49.9466 45.2529 0.0217264
49.5934 49.0261 0.0288748
49.0939 52.5772 0.0279081
45.7984 39.8609 0.108822
46.2408 42.653 0.0680278
46.3584 45.8169 0.00858679
43.6335 41.1511 0.160608
41.9296 42.0164 0.251399
46.8343 57.3451 2
44.3984 39.4443 2
42.2691 40.8806 2
47.9657 47.2201 2
47.1485 54.2394 2
47.5349 50.734 2
44.7057 47.3779 2
44.9215 41.9659 2
44.8416 44.5681 2
42.5177 42.6893 2
40.8328 42.3595 2
45.3903 55.935 3.98857
42.5973 39.2727 3.79874
40.733 40.7969 3.8617
46.015 48.899 3.98409
45.5066 52.5271 3.98209
43.3745 48.4281 4.00243
43.3136 46.1027 3.93512
43.5516 43.7485 3.88533
41.0449 43.8227 3.84352
39.2839 42.7062 3.79503
45.4679 58.7925 0.0178576
43.8742 57.7167 2
42.1042 56.3404 3.98721
35.4634 67.6593 0.0149047
37.6424 65.5117 0.0169164
39.8942 63.5539 0.0178417
41.7542 62.4938 0.0178489
42.481 59.9826 0.0171438
35.573 65.4347 2
40.6236 61.6517 2
37.8371 63.2158 2
40.4436 58.2131 2
38.9229 56.505 3.98903
38.2505 60.3329 3.98139
35.6071 63.2085 3.98134
33.5751 65.3447 0.0167878
31.9591 63.3032 0.0169107
33.6287 63.3433 2
30.3778 62.8626 2
32.1226 62.01 2
28.6804 62.2067 3.98316
33.3456 61.5215 3.98272
31.0659 61.2265 3.98314
27.5674 59.6015 3.98176
23.7915 59.0879 3.98057
25.0335 60.8776 3.98162
26.8678 61.5057 2
26.228 63.4829 3.98408
28.0616 64.1513 2
27.4623 66.185 3.98562
29.8826 64.7227 0.0156261
29.4059 66.7618 2
28.9055 68.9441 3.98829
31.3765 67.1974 0.0146148
31.0133 69.4192 2
30.6139 71.7784 3.99259
33.1561 69.7536 0.0116723
32.8915 72.1478 2
32.6054 74.6784 4
35.1947 72.3732 0.00749477
35.0474 74.9197 2
37.5 75 0
33.7236 6.97892 3.98604
35.435 4.68521 3.98951
35.6209 6.72365 2
37.5143 2.38674 3.99331
37.5235 4.61448 2
39.6241 4.71543 0.0103624
39.7889 2.47379 2
39.9526 0.0806499 4
42.0625 2.71769 0.00675875
42.3947 0.320817 2
44.8158 0.721173 0
44.395 35.5597 3.83422
42.2855 34.1155 3.78184
47.3209 40.3928 0.0616087
50.3354 38.5107 0.00863626
53.8085 36.6317 0.0229203
47.9921 37.7486 2
51.141 35.5774 2
45.8197 35.116 2
43.6651 33.8236 2
41.948 32.9766 2
48.1541 34.3062 3.97515
44.9085 33.0406 3.88251
42.4999 32.3365 3.84398
40.8427 32.6457 3.77878
37.3113 10.63 3.98213
37.458 8.53271 2
37.5163 6.67323 0.0131609
39.2113 8.69219 0.0156528
38.9771 10.1258 2
34.7542 10.3789 3.98226
35.899 9.77197 2
32.3774 9.36835 3.98354
34.1504 8.82099 2
35.9421 8.49199 0.0153272
52.2929 32.8924 0.0199522
51.2014 29.1749 0.0218398
50.7157 25.7567 0.0269651
49.9203 22.2261 0.0219394
47.4998 19.2563 0.0231041
45.8003 15.4296 0.0199099
43.8585 11.9209 0.0198704
40.5703 11.6098 0.0191287
49.8325 31.4172 2
38.3027 12.7359 2
42.1008 14.3117 2
49.1929 27.5263 2
49.357 24.4391 2
47.1743 21.9917 2
44.7973 18.4757 2
47.6633 29.5243 3.9907
47.0514 25.183 3.98331
44.2818 21.3584 3.97597
36.5827 12.9326 3.98033
38.6816 14.8103 3.97855
41.7482 17.8514 3.97761
42.7204 37.4881 3.80435
44.689 37.4959 2
46.1343 37.4877 0.10156
46.8352 57.344 0.0173059
47.1485 54.2344 0.0246219
47.965 47.218 0.0236437
47.5333 50.732 0.0341805
44.38 39.4312 0.160456
44.9021 41.9509 0.109327
44.825 44.5512 0.0556093
44.7015 47.4004 0.0135943
42.4869 42.6666 0.151631
42.2752 40.8789 0.21374
40.8334 42.3584 0.219349
45.39 55.9349 2
42.5947 39.2708 2
40.7255 40.7903 2
46.0152 48.9021 2
45.5082 52.5323 2
43.3772 48.447 2
43.3396 46.1288 2
43.5716 43.7681 2
41.0668 43.8453 2
39.2765 42.6997 2
43.7263 54.4459 3.99719
40.8329 39.1679 3.89284
39.1581 40.8833 3.89172
43.6475 50.4825 4.00164
41.9129 47.651 3.96888
41.8398 45.1727 3.89041
39.3485 44.5495 3.85396
37.4962 42.8191 3.81198
43.8746 57.7167 0.0153439
42.1034 56.3411 2
40.414 54.9484 3.99101
35.573 65.4337 0.0170496
37.8373 63.2151 0.0186014
40.6236 61.651 0.0178776
40.4437 58.2118 0.0176477
35.6069 63.2093 2
38.2503 60.3341 2
38.9228 56.5068 2
37.9973 55.2588 3.98803
36.9332 57.6328 3.98109
35.3636 60.9189 3.98236
33.6288 63.3426 0.0174563
30.3779 62.862 0.016609
32.1227 62.0093 0.0163958
33.3454 61.5222 2
28.6804 62.2073 2
31.0659 61.2271 2
29.4023 60.2952 3.98241
32.3563 59.754 3.98588
28.0227 58.3816 3.98601
27.5674 59.602 2
25.3783 58.6 3.97952
22.7568 58.2444 3.97394
23.3995 60.3567 3.97985
23.7915 59.0887 2
25.0335 60.8783 2
24.4307 62.7753 3.98352
26.8678 61.5051 0.0172796
26.2282 63.4836 2
25.5463 65.495 3.9856
28.0614 64.1505 0.0159447
27.4624 66.1857 2
26.835 68.3325 3.98833
29.4058 66.7611 0.0144125
28.9055 68.9446 2
28.3689 71.2635 3.99269
31.0133 69.4185 0.0116923
30.6137 71.7787 2
30.1842 74.2788 4
32.8916 72.1474 0.00745205
32.6053 74.6792 2
35.0474 74.9194 0
31.788 7.41885 3.98558
33.347 4.92437 3.98925
33.7235 6.97831 2
35.2444 2.46282 3.99333
35.4349 4.68471 2
35.621 6.72429 0.0134973
37.5 0 4
37.5143 2.38644 2
37.5234 4.61499 0.0102978
39.7889 2.47409 0.00668972
39.9526 0.0802889 2
42.3946 0.32156 0
42.601 35.7112 3.7999
44.4075 35.5484 2
40.7417 34.2028 3.86
42.2785 34.1152 2
47.9785 37.7398 0.0474927
51.1303 35.578 0.0208385
45.7992 35.1339 0.107835
43.6397 33.8416 0.163098
41.9373 32.986 0.254635
48.1689 34.2875 2
44.9292 33.0277 2
42.5242 32.3159 2
40.842 32.6439 2
46.1797 31.563 3.95006
43.5554 31.2536 3.88278
41.0577 31.1825 3.84285
39.2918 32.2994 3.79408
35.693 11.7755 3.98104
37.3115 10.629 2
37.4582 8.53365 0.0152446
38.977 10.1265 0.016534
33.098 11.2159 3.9811
34.7543 10.3782 2
35.899 9.77269 0.0169921
30.4821 10.0166 3.98293
32.3772 9.36791 2
34.1507 8.82153 0.0157635
49.8238 31.4221 0.024247
49.1903 27.5234 0.0237654
49.3554 24.4404 0.0159234
47.1744 21.993 0.0259498
44.7979 18.4729 0.0227328
42.1016 14.3104 0.0215777
38.303 12.7365 0.0200419
36.5825 12.932 2
47.666 29.5069 2
38.6809 14.8102 2
41.7475 17.853 2
47.0542 25.1818 2
44.2814 21.3494 2
45.4656 27.6585 4.00188
43.7718 24.0845 4.00212
41.3376 20.7375 3.97895
35.7725 14.76 3.9791
38.6815 17.6019 3.97712
40.8783 37.4812 3.90315
42.7251 37.4893 2
44.6746 37.4955 0.158336
45.3903 55.935 0.0114257
45.5066 52.5271 0.0179132
46.015 48.899 0.0159093
42.5973 39.2727 0.201257
43.5516 43.7485 0.114671
43.3136 46.1027 0.0648768
43.3745 48.4281 -0.00243481
41.0449 43.8227 0.156482
40.733 40.7969 0.138301
39.2839 42.7062 0.204967
43.7258 54.4469 2
40.8255 39.1633 2
39.1486 40.8737 2
43.6484 50.4979 2
41.9049 47.6657 2
41.862 45.1928 2
37.4971 42.8084 2
39.367 44.5661 2
41.8668 53.0202 3.99388
39.1725 39.1675 3.92682
37.4958 40.9261 3.90939
35.7139 42.7067 3.79474
40.882 49.7055 4.00086
39.8045 46.0706 3.87217
37.4945 44.7726 3.84191
42.1042 56.3404 0.0127923
40.4138 54.9488 2
38.726 53.8727 3.99574
35.6071 63.2085 0.0186574
38.2505 60.3329 0.0186092
38.9229 56.505 0.0109653
35.3633 60.9196 2
36.9332 57.6345 2
37.9976 55.2596 2
36.3186 55.3867 3.98849
34.4873 58.5311 3.98611
33.3456 61.5215 0.0172848
28.6804 62.2067 0.0168419
31.0659 61.2265 0.0168623
32.3562 59.7546 2
29.4023 60.2957 2
30.2991 57.8271 3.98589
28.0226 58.3821 2
26.9478 56.832 3.97925
27.5674 59.6015 0.0182448
25.3783 58.6007 2
23.8418 56.8028 3.97202
21.335 57.399 3.97322
21.9927 59.6273 3.97894
22.7567 58.2458 2
22.7347 62.0264 3.98223
23.3995 60.3575 2
23.7915 59.0879 0.0194343
25.0335 60.8776 0.0183807
24.4309 62.7761 2
23.6802 64.7133 3.98532
26.228 63.4829 0.0159159
25.5464 65.4957 2
24.8071 67.5937 3.98829
27.4623 66.185 0.014377
26.835 68.3331 2
26.164 70.6043 3.99279
28.9055 68.9441 0.0117137
28.3687 71.2638 2
27.7943 73.7221 4
30.6139 71.7784 0.00740771
30.1841 74.2794 2
32.6054 74.6784 0
29.8105 7.99223 3.98495
31.2522 5.3315 3.98871
31.7879 7.41825 2
32.98 2.70101 3.99316
33.3469 4.92382 2
33.7236 6.97892 0.0139611
35.0474 0.080333 4
35.2443 2.46253 2
35.435 4.68521 0.0104855
37.5 0 2
37.5143 2.38674 0.00669105
39.9526 0.0806499 0
40.8338 35.8074 3.89455
42.5979 35.7143 2
44.395 35.5597 0.165782
28.5428 10.6921 3.98255
39.1647 34.1208 3.89136
40.7321 34.2089 2
42.2855 34.1155 0.218163
48.1541 34.3062 0.0248484
44.9085 33.0406 0.11749
42.4999 32.3365 0.156024
40.8427 32.6457 0.221221
46.2018 31.5541 2
43.5689 31.2369 2
41.0788 31.1589 2
39.2857 32.3055 2
44.3451 29.7601 3.94173
41.8596 29.8347 3.89297
39.3707 30.4529 3.85474
37.5055 32.1893 3.81205
34.093 12.9342 3.9801
35.6931 11.7748 2
37.3113 10.63 0.0178737
31.1859 11.9844 3.98139
33.0982 11.2154 2
34.7542 10.3789 0.0177395
30.4819 10.0159 2
32.3774 9.36835 0.016456
47.6633 29.5243 0.00930169
47.0514 25.183 0.0166929
36.5827 12.9326 0.0196733
44.2818 21.3584 0.024027
41.7482 17.8514 0.0223862
38.6816 14.8103 0.0214534
35.7722 14.7599 2
45.4678 27.6572 2
38.68 17.6033 2
41.3363 20.7311 2
43.7731 24.0782 2
33.6082 15.8773 3.979
43.0049 26.4982 3.99717
40.9014 23.3068 4.00399
38.418 20.3544 3.97679
35.8485 17.5141 3.97793
39.1869 37.4838 3.93533
40.8716 37.4807 2
42.7204 37.4881 0.195652
43.7263 54.4459 0.00281233
43.6475 50.4825 -0.00164253
40.8329 39.1679 0.107155
41.8398 45.1727 0.109587
41.9129 47.651 0.0311185
39.3485 44.5495 0.146042
39.1581 40.8833 0.108281
37.4962 42.8191 0.188025
41.8692 53.0198 2
39.1602 39.165 2
37.4958 40.9136 2
40.8921 49.7146 2
35.7196 42.7013 2
39.8293 46.0944 2
37.4918 44.7842 2
39.8017 51.9252 3.99643
37.4943 39.1824 3.9464
35.8324 40.8934 3.89066
34.1593 42.3564 3.78008
35.6274 44.5532 3.8529
38.6827 48.7222 3.98126
37.4853 46.3818 3.87727
40.414 54.9484 0.00898689
38.7268 53.8716 2
36.7232 53.2157 4.00429
35.3636 60.9189 0.0176427
36.9332 57.6328 0.0189079
37.9973 55.2588 0.0119696
34.487 58.5316 2
36.3189 55.3893 2
33.2301 55.5159 3.99094
32.3563 59.754 0.0141201
29.4023 60.2952 0.0175904
30.2991 57.8278 2
28.697 55.3218 3.97918
28.0227 58.3816 0.0139871
26.9475 56.8324 2
25.318 55.1404 3.97411
21.8156 55.3455 3.96876
25.3783 58.6 0.0204844
23.8415 56.8048 2
20.2204 57.0273 3.97816
20.6449 58.7831 3.97666
21.3347 57.4007 2
21.1653 61.1749 3.98058
21.9926 59.6284 2
22.7568 58.2444 0.0260579
21.8936 63.8411 3.98463
22.7348 62.0273 2
23.3995 60.3567 0.0201534
24.4307 62.7753 0.0164813
23.6803 64.714 2
22.8353 66.7372 3.98823
25.5463 65.495 0.0143966
24.8071 67.5943 2
24.0083 69.8054 3.99283
26.835 68.3325 0.0116724
26.1638 70.6045 2
25.446 73.0099 4
28.3689 71.2635 0.00731048
27.7943 73.7222 2
30.1842 74.2788 0
27.8203 8.65198 3.98464
29.1542 5.87727 3.98817
29.8103 7.99148 2
30.7251 3.09821 3.9929
31.2521 5.331 2
31.788 7.41885 0.0144245
32.6053 0.320823 4
32.9799 2.70069 2
33.347 4.92437 0.0107508
35.0474 0.0802903 2
35.2444 2.46282 0.00666855
37.5 0 0
39.182 35.8124 3.92563
40.8252 35.8113 2
42.601 35.7112 0.200097
28.5427 10.6915 2
26.6215 11.3874 3.98277
29.2247 12.641 3.98216
37.501 34.0825 3.90815
39.1522 34.1311 2
40.7417 34.2028 0.139999
46.1797 31.563 0.0499437
43.5554 31.2536 0.117221
41.0577 31.1825 0.157146
39.2918 32.2994 0.205925
44.3635 29.7441 2
41.8776 29.8149 2
39.385 30.4342 2
37.508 32.2001 2
42.3423 28.4039 3.92466
39.8576 28.9284 3.89107
37.5235 30.2266 3.84148
35.7242 32.2975 3.79381
31.9147 14.4799 3.9805
34.0932 12.9338 2
35.693 11.7755 0.0189639
31.1861 11.9836 2
33.098 11.2159 0.0189018
30.4821 10.0166 0.0170748
45.4656 27.6585 -0.00188154
43.7718 24.0845 -0.00211644
35.7725 14.76 0.0209026
41.3376 20.7375 0.0210491
38.6815 17.6019 0.0228779
33.6075 15.8769 2
35.847 17.5148 2
43.01 26.496 2
38.4185 20.3493 2
40.8999 23.2969 2
33.5504 17.3882 3.98076
40.3887 25.648 4.00375
38.0709 22.8931 3.99459
35.5824 20.0876 3.97977
37.495 37.4944 3.95784
39.1738 37.484 2
40.8783 37.4812 0.0968479
41.8668 53.0202 0.00611656
40.882 49.7055 -0.000858889
39.1725 39.1675 0.0731841
39.8045 46.0706 0.127835
37.4945 44.7726 0.158087
37.4958 40.9261 0.090608
35.7139 42.7067 0.205264
39.8097 51.9255 2
37.4949 39.1796 2
35.8432 40.8841 2
38.6827 48.7542 2
34.1601 42.3583 2
35.6131 44.5716 2
37.4858 46.405 2
37.6403 51.008 4.00898
35.8192 39.1845 3.92702
34.2609 40.8066 3.86166
33.0573 42.0167 3.74667
33.9357 43.813 3.84173
35.1478 46.0528 3.88332
36.8632 48.3605 3.9525
38.726 53.8727 0.00426468
36.7235 53.2193 2
34.3655 52.4791 3.99386
34.4873 58.5311 0.0138916
36.3186 55.3867 0.0115058
33.2296 55.5164 2
30.5265 53.3743 3.97986
30.2991 57.8271 0.0141054
28.6966 55.323 2
26.8952 53.4328 3.97363
26.9478 56.832 0.020751
25.3175 55.1436 2
23.5879 53.474 3.96659
20.4834 53.2143 3.96182
19.9362 55.8295 3.97173
21.8145 55.347 2
23.8418 56.8028 0.0279763
19.4383 57.8884 3.97591
20.2199 57.0289 2
19.7056 60.2066 3.97818
20.6448 58.7842 2
21.335 57.399 0.0267833
20.2062 62.8616 3.98285
21.1654 61.176 2
21.9927 59.6273 0.021058
20.9367 65.7662 3.98794
21.8937 63.8419 2
22.7347 62.0264 0.0177735
23.6802 64.7133 0.0146843
22.8354 66.7378 2
21.9108 68.8724 3.99275
24.8071 67.5937 0.0117086
24.0079 69.8056 2
23.1494 72.1454 4
26.164 70.6043 0.00721218
25.446 73.0099 2
27.7943 73.7221 0
25.8595 9.38029 3.98424
27.0689 6.54143 3.98756
27.8202 8.65133 2
28.4872 3.64421 3.99263
29.154 5.87668 2
29.8105 7.99223 0.0150547
30.1841 0.720592 4
30.725 3.09793 2
31.2522 5.3315 0.0112891
32.6053 0.320817 2
32.98 2.70101 0.00683861
35.0474 0.080333 0
37.4969 35.8121 3.94689
39.1663 35.8154 2
40.8338 35.8074 0.105451
24.7763 12.0704 3.98305
23.7509 14.3561 3.98217
28.5428 10.6921 0.0174508
26.6215 11.3868 2
29.225 12.6403 2
27.2909 13.3735 3.98258
29.7801 14.2008 3.98166
35.8409 34.1151 3.89188
37.4994 34.0947 2
39.1647 34.1208 0.108641
37.5055 32.1893 0.187947
44.3451 29.7601 0.0582672
41.8596 29.8347 0.107033
39.3707 30.4529 0.145258
42.3634 28.3817 2
39.8725 28.9019 2
37.522 30.2176 2
35.7319 32.3029 2
40.0438 27.5589 3.92004
37.5319 28.6164 3.88566
35.6578 30.4584 3.85626
34.1783 32.6453 3.77961
30.9262 16.8369 3.98117
31.9146 14.4793 2
34.093 12.9342 0.0199014
31.1859 11.9844 0.0186067
43.0049 26.4982 0.00283482
40.9014 23.3068 -0.00399474
33.6082 15.8773 0.0209951
35.8485 17.5141 0.0220716
38.418 20.3544 0.0232148
33.5492 17.3883 2
35.5836 20.0878 2
40.3896 25.6385 2
38.0674 22.8888 2
32.8622 19.796 3.98133
37.7982 25.2056 4.0102
35.1968 22.6496 3.98902
35.8089 37.5003 3.93798
37.495 37.4937 2
39.1869 37.4838 0.064673
39.8017 51.9252 0.00357305
38.6827 48.7222 0.0187376
37.4943 39.1824 0.0535974
37.4853 46.3818 0.122726
35.6274 44.5532 0.1471
35.8324 40.8934 0.109343
34.1593 42.3564 0.219915
37.6486 51.021 2
35.8336 39.181 2
34.2689 40.8009 2
36.8555 48.3825 2
33.0471 42.0263 2
33.9183 43.8344 2
35.1333 46.0734 2
35.479 50.14 4.00286
34.1692 39.1855 3.89664
32.7069 40.8854 3.78403
32.496 42.6672 3.84855
33.1455 45.1658 3.89084
34.2727 47.4278 3.92981
36.7232 53.2157 -0.00429429
34.3662 52.4845 2
32.0207 51.184 4.00192
33.2301 55.5159 0.00906375
30.5261 53.3789 2
28.4445 51.5884 3.97782
28.697 55.3218 0.0208231
26.8942 53.4352 2
25.0995 51.738 3.96303
25.318 55.1404 0.0258942
23.5869 53.4762 2
21.9895 51.7951 3.96218
19.221 51.6294 3.96542
18.9317 54.3018 3.96467
20.4824 53.2137 2
18.4488 56.7206 3.97604
19.9354 55.831 2
21.8156 55.3455 0.0312412
18.3685 59.1098 3.97552
19.4379 57.8895 2
20.2204 57.0273 0.0218404
18.6177 61.7674 3.98041
19.7056 60.2079 2
20.6449 58.7831 0.0233402
19.1257 64.6766 3.98701
20.2063 62.8628 2
21.1653 61.1749 0.0194238
19.8848 67.809 3.99264
20.9368 65.7669 2
21.8936 63.8411 0.0153734
22.8353 66.7372 0.0117703
21.9104 68.8726 2
20.9142 71.1327 4
24.0083 69.8054 0.00716868
23.1494 72.1455 2
25.446 73.0099 0
23.0956 12.7852 3.9827
23.9719 10.167 3.98404
25.0226 7.31177 3.98707
25.8594 9.37974 2
26.2789 4.32853 3.9923
27.0686 6.54091 2
27.8203 8.65198 0.0153598
27.7943 1.27781 4
28.487 3.64392 2
29.1542 5.87727 0.0118274
30.1841 0.720551 2
30.7251 3.09821 0.00709908
32.6053 0.320823 0
35.8191 35.819 3.92873
37.4959 35.814 2
39.182 35.8124 0.074375
24.7765 12.07 2
23.7515 14.3559 2
22.4798 15.033 3.98167
25.357 13.9052 3.98209
24.0245 15.6189 3.98119
26.6215 11.3874 0.0172295
29.2247 12.641 0.0178412
27.2912 13.373 2
29.7802 14.2003 2
28.3562 15.9747 3.98205
34.2699 34.2019 3.86111
35.8513 34.1247 2
37.501 34.0825 0.0918488
35.7242 32.2975 0.20619
37.5235 30.2266 0.158525
42.3423 28.4039 0.0753449
39.8576 28.9284 0.108929
40.0553 27.5411 2
37.5358 28.5914 2
35.638 30.4333 2
34.1736 32.644 2
37.616 27.2551 3.9342
35.192 28.9321 3.88793
33.9516 31.1861 3.84196
33.0832 32.9838 3.74721
30.2079 19.3402 3.98505
30.9256 16.8372 2
31.9147 14.4799 0.0195007
40.3887 25.648 -0.00375265
38.0709 22.8931 0.00540722
33.5504 17.3882 0.0192392
35.5824 20.0876 0.0202349
32.8623 19.7971 2
35.1958 22.6485 2
37.7833 25.2005 2
32.3103 22.4145 3.99131
34.9946 25.1951 4.00516
34.1179 37.502 3.90483
35.8228 37.4991 2
37.495 37.4944 0.0421647
37.6403 51.008 -0.00897631
36.8632 48.3605 0.0474967
35.8192 39.1845 0.0729812
35.1478 46.0528 0.116682
33.9357 43.813 0.158265
34.2609 40.8066 0.138343
33.0573 42.0167 0.253326
35.4767 50.1558 2
34.1816 39.1816 2
32.7119 40.886 2
34.2676 47.4627 2
32.478 42.6851 2
33.1304 45.1858 2
33.2677 49.1313 4.00227
32.3892 39.2849 3.802
31.3444 41.1561 3.83857
31.4429 43.7488 3.88882
32.2735 46.3489 3.92839
34.3655 52.4791 0.00613719
32.0192 51.1922 2
29.8879 49.7036 3.99008
30.5265 53.3743 0.020137
28.4427 51.5885 2
26.5379 49.9755 3.97093
26.8952 53.4328 0.0263726
25.0977 51.7365 2
23.3728 50.1844 3.97063
23.5879 53.474 0.0334107
21.9884 51.794 2
20.4894 50.3095 3.9682
18.0093 50.3258 3.96903
17.8498 52.7868 3.96441
19.2199 51.629 2
17.4429 55.3353 3.96784
18.9307 54.3017 2
20.4834 53.2143 0.0381828
17.1358 57.8715 3.97516
18.448 56.7215 2
19.9362 55.8295 0.0282728
17.1362 60.5485 3.97718
18.3684 59.111 2
19.4383 57.8884 0.0240903
17.4066 63.4684 3.98448
18.6178 61.7687 2
19.7056 60.2066 0.0218174
17.9411 66.6175 3.99237
19.1257 64.6776 2
20.2062 62.8616 0.017146
18.75 69.9759 4
19.8844 67.8091 2
20.9367 65.7662 0.0120614
21.9108 68.8724 0.00725392
20.9142 71.1327 2
23.1494 72.1454 0
21.5866 13.6057 3.98213
22.1899 11.0265 3.98363
23.096 12.7851 2
23.0404 8.17735 3.98676
23.9719 10.1666 2
24.1165 5.14337 3.99201
25.0223 7.31129 2
25.8595 9.38029 0.0157604
25.446 1.99014 4
26.2786 4.32832 2
27.0689 6.54143 0.0124391
27.7943 1.27778 2
28.4872 3.64421 0.00736775
30.1841 0.720592 0
34.163 35.8191 3.8944
35.8326 35.8201 2
37.4969 35.8121 0.0531092
21.3052 15.8288 3.98166
24.7763 12.0704 0.0169513
23.7509 14.3561 0.0178306
25.3575 13.905 2
22.4804 15.0329 2
24.0251 15.6188 2
23.2639 16.251 3.98069
25.3799 16.0873 3.98176
27.2909 13.3735 0.0174164
29.7801 14.2008 0.01834
28.3565 15.9748 2
27.4398 18.7976 3.98405
32.7273 34.1148 3.78206
34.282 34.2084 2
35.8409 34.1151 0.108124
34.1783 32.6453 0.220393
35.6578 30.4584 0.143742
37.5319 28.6164 0.114343
40.0438 27.5589 0.0799563
37.6169 27.2249 2
33.068 32.9748 2
35.179 28.9114 2
33.9354 31.1589 2
35.0722 27.3828 3.93678
33.1701 29.8394 3.88689
32.5155 32.3271 3.83976
29.5797 21.9343 3.99707
30.2082 19.3424 2
30.9262 16.8369 0.0188338
37.7982 25.2056 -0.0101974
35.1968 22.6496 0.0109767
32.8622 19.796 0.0186737
32.3083 22.4143 2
35.0086 25.1884 2
31.7285 25.6353 4.00202
32.2678 37.5039 3.80658
34.1271 37.5031 2
35.8089 37.5003 0.0620219
35.479 50.14 -0.00285838
34.2727 47.4278 0.0701918
34.1692 39.1855 0.103364
33.1455 45.1658 0.109164
32.496 42.6672 0.151449
32.7069 40.8854 0.215968
33.2622 49.1243 2
32.3936 39.2812 2
31.3213 41.1697 2
32.251 46.3737 2
31.4242 43.7639 2
31.1892 47.9613 3.99321
30.596 39.4373 3.83578
30.0825 41.9584 3.88336
30.4728 44.9366 3.94142
32.0207 51.184 -0.00192009
29.8847 49.703 2
27.9221 48.1703 3.9717
28.4445 51.5884 0.02218
26.5361 49.9742 2
24.6955 48.4595 3.97377
25.0995 51.738 0.0369703
23.3723 50.1828 2
21.7093 48.7813 3.97104
21.9895 51.7951 0.0378217
20.4883 50.3086 2
19.0694 49.0871 3.97248
16.9156 49.3271 3.97212
16.7885 51.4028 3.96661
18.0096 50.3252 2
16.3999 53.8652 3.96526
17.8487 52.7865 2
19.221 51.6294 0.0345752
15.9799 56.4718 3.97025
17.4422 55.3359 2
18.9317 54.3018 0.0353275
15.7503 59.2087 3.97613
17.1355 57.8728 2
18.4488 56.7206 0.023961
15.7877 62.1374 3.98108
17.1362 60.55 2
18.3685 59.1098 0.0244827
16.088 65.3001 3.99167
17.4064 63.4696 2
18.6177 61.7674 0.0195921
16.6661 68.6801 4
17.9406 66.6175 2
19.1257 64.6766 0.0129901
18.75 69.9759 2
19.8848 67.809 0.00735825
20.9142 71.1327 0
20.2189 14.5948 3.98125
21.5871 13.6056 2
20.5292 11.9965 3.98303
21.1433 9.14724 3.98653
22.1901 11.0262 2
23.0956 12.7852 0.0173022
22.0155 6.08244 3.99185
23.0402 8.17693 2
23.9719 10.167 0.0159608
23.1494 2.85457 4
24.116 5.14321 2
25.0226 7.31177 0.0129305
25.446 1.99012 2
26.2789 4.32853 0.00770325
27.7943 1.27781 0
32.394 35.7175 3.79775
34.1732 35.8249 2
35.8191 35.819 0.0712746
21.3058 15.8286 2
20.3033 16.9628 3.98195
22.0971 16.6352 3.97945
25.357 13.9052 0.0179094
22.4798 15.033 0.0183269
24.0245 15.6189 0.0188057
25.3805 16.0872 2
23.2646 16.2509 2
24.2042 18.4523 3.97857
27.019 21.4575 3.9901
28.3562 15.9747 0.0179538
27.4407 18.7978 2
31.3773 33.8497 3.84031
32.7345 34.1145 2
34.2699 34.2019 0.138889
33.0832 32.9838 0.252792
33.9516 31.1861 0.158044
35.192 28.9321 0.112072
37.616 27.2551 0.0657984
35.0551 27.3494 2
32.4796 32.3103 2
33.1535 29.8109 2
32.5887 28.1114 3.95158
31.4467 31.2593 3.88908
28.832 24.405 3.98197
29.5768 21.938 2
30.2079 19.3402 0.0149468
34.9946 25.1951 -0.00515997
32.3103 22.4145 0.00869205
31.7353 25.6203 2
29.6979 27.3184 3.96742
30.3044 37.4949 3.84165
32.2675 37.5012 2
34.1179 37.502 0.0951733
33.2677 49.1313 -0.00226754
32.2735 46.3489 0.0716125
32.3892 39.2849 0.198
31.4429 43.7488 0.111185
31.3444 41.1561 0.161435
31.1858 47.9644 2
30.5746 39.4498 2
30.063 41.9719 2
30.4482 44.9538 2
29.251 46.5625 4.00116
29.1805 39.8537 3.89102
28.7976 43.1609 3.94471
29.8879 49.7036 0.00992331
27.9181 48.1669 2
26.0186 46.6435 3.97529
26.5379 49.9755 0.0290656
24.6949 48.4573 2
22.8783 47.0667 3.9754
23.3728 50.1844 0.0293717
21.7088 48.7802 2
20.0349 47.6118 3.97716
20.4894 50.3095 0.0317951
19.0701 49.0862 2
17.7023 48.1738 3.97572
16.1616 48.679 3.9743
16.9165 49.3265 2
15.8643 50.1659 3.96942
15.3861 52.4118 3.96676
16.7877 51.4025 2
18.0093 50.3258 0.030975
14.8751 54.9715 3.9668
16.3994 53.8653 2
17.8498 52.7868 0.0355948
14.4608 57.7369 3.97362
15.9795 56.4728 2
17.4429 55.3353 0.0321586
14.2663 60.6909 3.9797
15.7502 59.2102 2
17.1358 57.8715 0.0248369
14.3328 63.8591 3.98981
15.7875 62.1386 2
17.1362 60.5485 0.0228192
14.6715 67.2507 4
16.0873 65.2998 2
17.4066 63.4684 0.0155185
16.6661 68.6801 2
17.9411 66.6175 0.00762728
18.75 69.9759 0
18.9331 15.7821 3.98071
20.2194 14.5948 2
18.9791 13.1075 3.98208
21.5866 13.6057 0.0178654
20.5296 11.9964 2
19.3425 10.2352 3.98615
19.9901 7.14711 3.99179
21.1432 9.14695 2
22.1899 11.0265 0.016375
20.9142 3.86727 4
22.015 6.08244 2
23.0404 8.17735 0.0132429
23.1494 2.85451 2
24.1165 5.14337 0.00798559
25.446 1.99014 0
30.6127 35.5722 3.8389
32.4001 35.7189 2
34.163 35.8191 0.105598
21.3052 15.8288 0.018345
22.0978 16.6351 2
20.3038 16.9622 2
19.2456 18.4109 3.97816
21.7821 17.8525 3.98018
25.3799 16.0873 0.0182363
23.2639 16.251 0.019312
24.205 18.4522 2
22.2824 19.8975 3.97551
24.5985 21.3271 3.98371
26.4425 23.7237 3.96999
27.0185 21.4575 2
27.4398 18.7976 0.0159525
30.11 33.0464 3.88708
31.3493 33.8195 2
32.7273 34.1148 0.217941
32.5155 32.3271 0.160244
33.1701 29.8394 0.113111
35.0722 27.3828 0.0632187
32.5813 28.0986 2
31.4435 31.2397 2
30.1841 29.5524 3.9605
27.9386 26.5452 3.97853
28.8333 24.4145 2
29.5797 21.9343 0.0029276
31.7285 25.6353 -0.00202233
29.6959 27.2819 2
28.8441 37.5139 3.899
30.2968 37.499 2
32.2678 37.5039 0.193421
31.1892 47.9613 0.00678798
30.4728 44.9366 0.0585841
30.596 39.4373 0.164223
30.0825 41.9584 0.116641
29.2474 46.5778 2
29.1588 39.8725 2
28.7728 43.1776 2
27.3803 44.8567 3.98382
26.9519 40.5843 3.96585
27.9221 48.1703 0.0283002
26.0142 46.6457 2
24.1025 45.2005 3.97742
24.6955 48.4595 0.0262287
22.8779 47.0651 2
21.0066 45.885 3.97887
21.7093 48.7813 0.0289626
20.0367 47.6108 2
18.3688 46.732 3.97779
19.0694 49.0871 0.0275165
17.7026 48.1732 2
16.361 47.7089 3.97542
16.1621 48.6786 2
15.2076 49.0114 3.97192
16.9156 49.3271 0.0278775
15.8648 50.1655 2
14.4988 50.9813 3.96829
13.8364 53.4301 3.96821
15.3865 52.4118 2
16.7885 51.4028 0.0333944
13.2584 56.163 3.96997
14.8749 54.9718 2
16.3999 53.8652 0.0347386
12.8492 59.1243 3.97848
14.4607 57.738 2
15.9799 56.4718 0.0297534
12.6786 62.3013 3.9875
14.2661 60.692 2
15.7503 59.2087 0.0238703
12.7746 65.6939 4
14.3318 63.8585 2
15.7877 62.1374 0.0189153
14.6714 67.2507 2
16.088 65.3001 0.00833443
16.6661 68.6801 0
17.6686 17.1584 3.97805
18.9335 15.7818 2
17.5109 14.3723 3.98085
20.2189 14.5948 0.0187464
18.9795 13.1073 2
17.6381 11.4542 3.98518
20.5292 11.9965 0.016971
19.3427 10.235 2
18.0503 8.3399 3.99176
18.75 5.0241 4
19.9895 7.14733 2
21.1433 9.14724 0.0134662
20.9142 3.86727 2
22.0155 6.08244 0.00815471
23.1494 2.85457 0
29.2005 35.1282 3.89516
30.5936 35.5572 2
32.394 35.7175 0.202246
22.0971 16.6352 0.020547
20.3033 16.9628 0.0180523
21.7826 17.8522 2
19.2461 18.4101 2
17.9857 19.9444 3.97416
20.8797 19.3831 3.97805
24.2042 18.4523 0.0214345
22.2829 19.8971 2
24.5984 21.3278 2
22.3681 21.7246 3.97798
24.716 23.1717 3.97293
25.5202 25.9531 3.9692
26.446 23.7236 2
27.019 21.4575 0.00990053
28.4825 32.3427 3.94009
30.0857 33.0391 2
31.3773 33.8497 0.15969
31.4467 31.2593 0.110922
32.5887 28.1114 0.0484212
30.1676 29.5424 2
27.1088 29.1359 4.00323
27.9354 26.5467 2
28.832 24.405 0.0180285
29.6979 27.3184 0.0325752
27.0746 37.3685 3.94867
28.8129 37.5032 2
30.3044 37.4949 0.158348
29.251 46.5625 -0.00116078
28.7976 43.1609 0.0552924
29.1805 39.8537 0.108981
27.3746 44.8728 2
26.9386 40.6011 2
25.3984 43.1654 3.97947
24.2017 39.4366 3.97914
26.0186 46.6435 0.02471
24.0957 45.1995 2
21.9973 43.9401 3.97912
22.8783 47.0667 0.0246047
21.0069 45.8841 2
19.0499 44.963 3.97831
20.0349 47.6118 0.0228435
18.3704 46.7313 2
16.6657 46.2078 3.97593
17.7023 48.1738 0.0242774
16.3614 47.7086 2
14.9459 47.6659 3.97303
16.1616 48.679 0.025701
15.2083 49.0111 2
13.7951 49.5429 3.96965
15.8643 50.1659 0.0305848
14.4994 50.9811 2
12.9016 51.8711 3.9688
12.1466 54.5228 3.97037
13.8367 53.43 2
15.3861 52.4118 0.0332403
11.5352 57.4557 3.97557
13.2584 56.1638 2
14.8751 54.9715 0.0331986
11.1333 60.6272 3.98585
12.8491 59.1251 2
14.4608 57.7369 0.0263849
10.9835 64.0165 4
12.6774 62.3001 2
14.2663 60.6909 0.0203001
12.7745 65.694 2
14.3328 63.8591 0.0101872
14.6715 67.2507 0
16.4035 18.6537 3.97565
17.6689 17.1577 2
16.1023 15.7819 3.97988
18.9331 15.7821 0.0192935
17.5113 14.3717 2
16.02 12.8081 3.98326
18.9791 13.1075 0.0179237
17.6384 11.4539 2
16.2016 9.66278 3.99159
19.3425 10.2352 0.0138513
18.0498 8.34032 2
16.6661 6.31991 4
18.75 5.02404 2
19.9901 7.14711 0.00820635
20.9142 3.86727 0
27.5971 34.7824 3.94066
29.175 35.1126 2
30.6127 35.5722 0.161103
16.6919 21.3842 3.96704
21.7821 17.8525 0.0198168
19.2456 18.4109 0.0218444
20.8802 19.3826 2
17.9861 19.9435 2
19.7338 21.5791 3.97722
22.2824 19.8975 0.0244876
24.5985 21.3271 0.0162868
22.3683 21.7245 2
24.7174 23.171 2
22.8782 24.6059 3.97064
24.6509 28.5328 3.9747
25.5183 25.9515 2
26.4425 23.7237 0.0300113
26.3259 31.7107 3.98899
28.4571 32.3262 2
30.11 33.0464 0.112922
30.1841 29.5524 0.0395045
27.1206 29.1294 2
27.9386 26.5452 0.0214663
24.9009 36.8578 3.98918
27.0541 37.3656 2
28.8441 37.5139 0.100996
27.3803 44.8567 0.0161781
26.9519 40.5843 0.0341538
25.3858 43.1711 2
24.1898 39.4362 2
23.1007 41.7961 3.98024
21.9197 38.51 3.97759
24.1025 45.2005 0.0225801
21.997 43.9407 2
19.8421 42.8794 3.97805
21.0066 45.885 0.0211301
19.0504 44.9624 2
17.0133 44.3751 3.9766
18.3688 46.732 0.0222064
16.6663 46.2074 2
14.877 46.0863 3.97355
16.361 47.7089 0.0245776
14.9463 47.6656 2
13.3044 48.0056 3.97032
15.2076 49.0114 0.0280847
13.7957 49.5428 2
12.1199 50.2506 3.96911
14.4988 50.9813 0.0317108
12.902 51.8711 2
11.1415 52.8341 3.9708
10.3266 55.7083 3.9745
12.1469 54.523 2
13.8364 53.4301 0.0317883
9.70034 58.8492 3.98358
11.5352 57.4562 2
13.2584 56.163 0.0300258
9.30605 62.2254 4
11.132 60.6254 2
12.8492 59.1243 0.0215223
10.9835 64.0165 2
12.6786 62.3013 0.0124982
12.7746 65.6939 0
15.1529 20.1911 3.96951
16.4037 18.6529 2
14.7492 17.3056 3.97721
17.6686 17.1584 0.0219467
16.1026 15.7809 2
14.4827 14.2907 3.98172
17.5109 14.3723 0.0191518
16.0202 12.8074 2
14.4445 11.1138 3.99087
17.6381 11.4542 0.0148162
16.201 9.66336 2
14.6715 7.74927 4
18.0503 8.3399 0.00824279
16.6661 6.31988 2
18.75 5.0241 0
25.5527 34.2702 3.99103
27.5761 34.7742 2
29.2005 35.1282 0.10484
17.8712 22.3306 3.9801
15.5388 22.9239 3.97063
16.6923 21.3836 2
20.8797 19.3831 0.0219469
17.9857 19.9444 0.025837
19.7341 21.5785 2
19.6973 24.3857 3.96926
22.3681 21.7246 0.0220188
24.716 23.1717 0.0270673
22.8784 24.6053 2
22.019 27.8317 3.9712
23.8867 31.1954 3.97522
24.6578 28.533 2
25.5202 25.9531 0.0307951
26.3152 31.6966 2
28.4825 32.3427 0.0599059
27.1088 29.1359 -0.00322685
22.6512 36.2828 3.98069
24.8812 36.855 2
27.0746 37.3685 0.0513324
25.3984 43.1654 0.0205262
24.2017 39.4366 0.0208559
23.0952 41.7946 2
21.9138 38.5096 2
20.8406 40.638 3.97662
20.2434 37.7914 3.97754
21.9973 43.9401 0.0208813
19.8429 42.8795 2
17.4504 42.0967 3.97738
19.0499 44.963 0.0216869
17.0145 44.3748 2
14.8962 44.1964 3.97364
16.6657 46.2078 0.0240741
14.8773 46.0861 2
12.9812 46.2926 3.9706
14.9459 47.6659 0.0269735
13.3048 48.0055 2
11.4907 48.5482 3.96915
13.7951 49.5429 0.0303503
12.1203 50.2505 2
10.2668 51.079 3.97045
12.9016 51.8711 0.0311996
11.1419 52.8341 2
9.2352 53.888 3.97478
8.38416 56.9817 3.98256
10.3269 55.7081 2
12.1466 54.5228 0.0296257
7.74927 60.3285 4
9.69909 58.8465 2
11.5352 57.4557 0.0244297
9.306 62.2255 2
11.1333 60.6272 0.0141475
10.9835 64.0165 0
13.9676 21.7574 3.96855
15.1533 20.1903 2
13.4526 18.9045 3.97272
16.4035 18.6537 0.0243498
14.7495 17.3043 2
13.0285 15.8841 3.98043
16.1023 15.7819 0.020122
14.4828 14.2896 2
12.782 12.6873 3.98926
16.02 12.8081 0.0167396
14.4438 11.1145 2
12.7746 9.30605 4
16.2016 9.66278 0.0084144
14.6715 7.74924 2
16.6661 6.31991 0
23.2242 33.8077 3.97989
25.532 34.2665 2
27.5971 34.7824 0.0593359
17.6571 24.0464 3.97046
17.8714 22.3299 2
14.3276 24.4526 3.96995
15.5395 22.9236 2
16.6919 21.3842 0.0329608
19.1196 27.2098 3.97053
19.7338 21.5791 0.0227846
19.6971 24.3852 2
21.2971 30.6717 3.97292
22.8782 24.6059 0.0293627
22.022 27.8317 2
23.875 31.1959 2
24.6509 28.5328 0.0253013
26.3259 31.7107 0.0110057
20.3714 35.9305 3.97693
22.6479 36.28 2
24.9009 36.8578 0.0108234
23.1007 41.7961 0.019765
21.9197 38.51 0.0224067
20.8382 40.6387 2
20.2436 37.7918 2
18.1859 39.0006 3.97768
19.8421 42.8794 0.0219498
17.4511 42.0965 2
14.8756 41.9148 3.97364
17.0133 44.3751 0.0233987
14.8969 44.1963 2
12.7326 44.3887 3.97079
14.877 46.0863 0.0264491
12.9814 46.2925 2
10.992 46.7323 3.96875
13.3044 48.0056 0.0296822
11.4909 48.5482 2
9.52986 49.2394 3.97001
12.1199 50.2506 0.0308859
10.2672 51.0789 2
8.26796 52.0018 3.97451
11.1415 52.8341 0.0291973
9.23558 53.8875 2
7.19308 55.0322 3.9833
6.31991 58.3339 4
8.38332 56.9785 2
10.3266 55.7083 0.0254973
7.74924 60.3285 2
9.70034 58.8492 0.0164155
9.30605 62.2254 0
13.2388 25.3639 3.97106
12.8342 23.2836 3.96962
13.9682 21.7571 2
12.2403 20.5543 3.97058
15.1529 20.1911 0.0304892
13.453 18.9033 2
11.6594 17.566 3.978
14.7492 17.3056 0.0227872
13.0287 15.8829 2
11.2196 14.3725 3.98722
14.4827 14.2907 0.018275
12.7812 12.6881 2
10.9835 10.9835 4
14.4445 11.1138 0.00913492
12.7745 9.306 2
14.6715 7.74927 0
20.7327 33.4027 3.97518
23.2293 33.8091 2
25.5527 34.2702 0.00897107
15.9533 26.4048 3.97078
17.6571 24.046 2
17.8712 22.3306 0.0198984
14.3278 24.4524 2
15.5388 22.9239 0.0293742
18.4761 30.1788 3.9736
19.1187 27.2096 2
19.6973 24.3857 0.0307415
21.3042 30.6718 2
22.019 27.8317 0.0287978
23.8867 31.1954 0.0247756
17.8063 35.9659 3.97803
20.3684 35.931 2
22.6512 36.2828 0.0193065
20.8406 40.638 0.0233785
20.2434 37.7914 0.0224619
18.1879 39.0008 2
14.3941 39.1742 3.97471
17.4504 42.0967 0.0226211
14.8763 41.9146 2
12.4354 42.2736 3.97125
14.8962 44.1964 0.0263566
12.7329 44.3885 2
10.5718 44.8009 3.96875
12.9812 46.2926 0.0294004
10.9921 46.7323 2
8.91215 47.3188 3.96933
11.4907 48.5482 0.0308545
9.53008 49.2393 2
7.43492 50.0354 3.97388
10.2668 51.079 0.0295518
8.26829 52.0013 2
6.13366 53.0072 3.98393
9.2352 53.888 0.0252208
7.19255 55.0294 2
5.0241 56.25 4
6.31988 58.3339 2
8.38416 56.9817 0.0174436
7.74927 60.3285 0
13.4886 26.8163 3.9705
11.9443 24.7887 3.9706
13.2389 25.3637 2
11.144 22.2376 3.97025
12.8346 23.2834 2
13.9676 21.7574 0.0314479
12.2411 20.5536 2
10.3911 19.3213 3.97559
13.4526 18.9045 0.0272842
11.6597 17.5649 2
9.76072 16.1565 3.98509
13.0285 15.8841 0.0195733
11.2186 14.3738 2
9.30607 12.7746 4
12.782 12.6873 0.0107362
10.9835 10.9835 2
12.7746 9.30605 0
17.9757 33.1153 3.97631
20.7311 33.4025 2
23.2242 33.8077 0.0201061
15.5595 29.6406 3.97255
15.9529 26.4047 2
17.6571 24.0464 0.0295399
14.3276 24.4526 0.0300484
18.4764 30.1789 2
19.1196 27.2098 0.0294699
21.2971 30.6717 0.0270766
15.0025 36.0189 3.9752
17.8064 35.966 2
20.3714 35.9305 0.0230668
12.658 37.8283 3.97418
18.1859 39.0006 0.0223199
14.3946 39.174 2
11.9548 40.1384 3.97205
14.8756 41.9148 0.0263582
12.4356 42.2735 2
10.177 42.7762 3.96886
12.7326 44.3887 0.029211
10.5718 44.8009 2
8.39004 45.3206 3.96886
10.992 46.7323 0.0312508
8.91221 47.3187 2
6.72627 48.0006 3.97325
9.52986 49.2394 0.029994
7.43511 50.035 2
5.21052 50.9105 3.98381
8.26796 52.0018 0.0254872
6.13338 53.0052 2
3.86727 54.0858 4
7.19308 55.0322 0.0166959
5.02404 56.25 2
6.31991 58.3339 0
12.9548 29.0349 3.97011
11.3762 26.4878 3.96906
13.488 26.8161 2
10.2018 23.9688 3.97085
11.9448 24.7885 2
13.2388 25.3639 0.0289375
9.24415 21.1397 3.97425
11.1447 22.2373 2
12.8342 23.2836 0.0303812
12.2403 20.5543 0.0294157
10.3918 19.3209 2
8.41691 18.0282 3.9833
11.6594 17.566 0.0219989
9.75963 16.1586 2
7.74928 14.6715 4
11.2196 14.3725 0.0127758
9.30602 12.7745 2
10.9835 10.9835 0
14.5627 32.8647 3.97413
17.9765 33.1155 2
20.7327 33.4027 0.0248181
15.5598 29.6407 2
15.9533 26.4048 0.0292221
18.4761 30.1788 0.0263965
12.9531 36.209 3.973
15.0037 36.0189 2
17.8063 35.9659 0.0219674
12.6586 37.8282 2
11.3045 38.3086 3.97242
14.3941 39.1742 0.0252872
11.9554 40.1382 2
9.7683 40.7528 3.96938
12.4354 42.2736 0.0287478
10.1773 42.7761 2
7.93933 43.2694 3.9686
10.5718 44.8009 0.0312488
8.3901 45.3206 2
6.13258 45.9057 3.97268
8.91215 47.3188 0.0306702
6.7263 48.0003 2
4.42215 48.7513 3.98328
7.43492 50.0354 0.0261221
5.21038 50.9094 2
2.85457 51.8506 4
6.13366 53.0072 0.0160747
3.86727 54.0858 2
5.0241 56.25 0
12.1013 31.2579 3.97122
10.792 28.4154 3.96892
12.9552 29.0348 2
9.41652 25.7982 3.97003
11.3764 26.4876 2
13.4886 26.8163 0.0295011
8.23079 23.0235 3.97432
10.2023 23.9686 2
11.9443 24.7887 0.0294001
7.19926 19.9787 3.98277
9.24494 21.1397 2
11.144 22.2376 0.0297502
10.3911 19.3213 0.0244063
8.41625 18.031 2
6.31992 16.6661 4
9.76072 16.1565 0.0149147
7.74926 14.6714 2
9.30607 12.7746 0
12.1329 34.2952 3.9733
14.5637 32.8648 2
17.9757 33.1153 0.0236919
15.5595 29.6406 0.0274483
10.8663 36.6106 3.97193
12.9539 36.2089 2
15.0025 36.0189 0.0247961
12.658 37.8283 0.0258216
11.3051 38.3085 2
9.36163 38.8225 3.96988
11.9548 40.1384 0.0279534
9.76878 40.7527 2
7.55075 41.2107 3.96862
10.177 42.7762 0.0311378
7.93943 43.2693 2
5.64474 43.7686 3.97225
8.39004 45.3206 0.0311418
6.13264 45.9054 2
3.76784 46.5371 3.98266
6.72627 48.0006 0.026745
4.42209 48.7509 2
1.99014 49.554 4
5.21052 50.9105 0.0161859
2.85451 51.8506 2
3.86727 54.0858 0
10.9484 32.9198 3.97234
10.1091 30.3826 3.9691
12.102 31.2579 2
8.7244 27.7316 3.96944
10.7921 28.4153 2
12.9548 29.0349 0.0298947
7.35628 24.9823 3.97364
9.41679 25.7981 2
11.3762 26.4878 0.0309419
6.11609 22.0023 3.9836
8.23139 23.0237 2
10.2018 23.9688 0.0291513
5.02411 18.75 4
7.19901 19.9813 2
9.24415 21.1397 0.0257528
8.41691 18.0282 0.0166998
6.3199 16.6661 2
7.74928 14.6715 0
10.4723 35 3.9717
12.1338 34.2952 2
14.5627 32.8647 0.0258691
9.03037 36.9843 3.97009
10.8673 36.6105 2
12.9531 36.209 0.0269963
11.3045 38.3086 0.0275843
9.36213 38.8223 2
7.23117 39.1816 3.96898
9.7683 40.7528 0.0306186
7.55097 41.2106 2
5.26026 41.6141 3.97168
7.93933 43.2694 0.0314013
5.64483 43.7683 2
3.24565 44.282 3.98228
6.13258 45.9057 0.0273209
3.76791 46.5368 2
1.27781 47.2057 4
4.42215 48.7513 0.0167237
1.99012 49.554 2
2.85457 51.8506 0
10.1101 33.8816 3.97198
9.39821 32.1547 3.96968
10.9489 32.9198 2
8.07341 29.6952 3.9692
10.1095 30.3825 2
12.1013 31.2579 0.0287803
6.6001 27.0082 3.97313
8.72445 27.7315 2
10.792 28.4154 0.0310799
5.17146 24.0951 3.98372
7.35659 24.9824 2
9.41652 25.7982 0.029968
3.86728 20.9142 4
6.11602 22.004 2
8.23079 23.0235 0.0256827
5.02406 18.75 2
7.19926 19.9787 0.0172342
6.31992 16.6661 0
8.85472 35.2792 3.97024
10.4729 34.9999 2
12.1329 34.2952 0.0267023
7.0148 37.2055 3.96916
9.03049 36.9842 2
10.8663 36.6106 0.0280667
9.36163 38.8225 0.0301224
7.23133 39.1815 2
4.98813 39.4673 3.97164
7.55075 41.2107 0.031383
5.26047 41.6139 2
2.85626 42.0023 3.98192
5.64474 43.7686 0.0277524
3.24577 44.2819 2
0.720592 44.8159 4
3.76784 46.5371 0.0173412
1.27778 47.2057 2
1.99014 49.554 0
8.89205 33.6977 3.9702
10.1106 33.8816 2
7.51094 31.6089 3.96934
9.39848 32.1546 2
10.9484 32.9198 0.0276647
5.94529 29.0691 3.97288
8.07334 29.6951 2
10.1091 30.3826 0.0309001
4.35924 26.2475 3.98316
6.60018 27.0083 2
8.7244 27.7316 0.030561
2.85458 23.1494 4
5.17144 24.0959 2
7.35628 24.9823 0.0263649
3.86728 20.9142 2
6.11609 22.0023 0.0163964
5.02411 18.75 0
6.96496 35.3057 3.96928
8.85514 35.2791 2
10.4723 35 0.028296
4.83816 37.3396 3.97216
7.01489 37.2055 2
9.03037 36.9843 0.0299092
7.23117 39.1816 0.031022
4.98828 39.4671 2
2.60442 39.714 3.98157
5.26026 41.6141 0.0283184
2.85648 42.0025 2
0.320823 42.3947 4
3.24565 44.282 0.0177246
0.720551 44.8159 2
1.27781 47.2057 0
7.12475 33.4606 3.96953
8.8922 33.6976 2
10.1101 33.8816 0.0280206
5.41624 31.1331 3.97273
7.51099 31.6088 2
9.39821 32.1547 0.0303248
3.68101 28.4434 3.98267
5.94523 29.0692 2
8.07341 29.6952 0.0307981
1.99015 25.446 4
4.35924 26.2478 2
6.6001 27.0082 0.0268737
2.85453 23.1494 2
5.17146 24.0951 0.0162806
3.86728 20.9142 0
4.85243 35.2512 3.97235
6.96519 35.3057 2
8.85472 35.2792 0.0297582
2.49579 37.4285 3.98209
4.83822 37.3397 2
7.0148 37.2055 0.0308449
4.98813 39.4673 0.0283623
2.60463 39.7144 2
0.080333 39.9526 4
2.85626 42.0023 0.018083
0.320817 42.3947 2
0.720592 44.8159 0
5.04569 33.1898 3.97266
7.12491 33.4606 2
8.89205 33.6977 0.0297976
3.14537 30.666 3.98226
5.41627 31.1333 2
7.51094 31.6089 0.0306612
1.27793 27.7943 4
3.68103 28.4435 2
5.94529 29.0691 0.0271151
1.99013 25.446 2
4.35924 26.2475 0.016839
2.85458 23.1494 0
2.5479 35.159 3.98216
4.85267 35.2514 2
6.96496 35.3057 0.03072
0 37.5 4
2.49589 37.4289 2
4.83816 37.3396 0.027844
2.60442 39.714 0.018431
0.0802903 39.9526 2
0.320823 42.3947 0
2.76544 32.9057 3.98232
5.04584 33.19 2
7.12475 33.4606 0.0304718
0.721173 30.1842 4
3.14549 30.6665 2
5.41624 31.1331 0.0272719
1.27779 27.7943 2
3.68101 28.4434 0.0173325
1.99015 25.446 0
0.0806499 35.0474 4
2.54818 35.1594 2
4.85243 35.2512 0.0276548
0 37.5 2
2.49579 37.4285 0.0179069
0.080333 39.9526 0
0.32156 32.6054 4
2.7656 32.9061 2
5.04569 33.1898 0.0273394
0.72056 30.1841 2
3.14537 30.666 0.0177387
1.27793 27.7943 0
0.0802889 35.0474 2
2.5479 35.159 0.017839
0 37.5 0
0.320817 32.6053 2
2.76544 32.9057 0.0176828
0.721173 30.1842 0
0.0806499 35.0474 0
0.32156 32.6054 0
CELLS 1910 17190
8 18 6 25 56 2 0 5 16
8 57 23 6 18 17 4 0 2
8 78 36 9 29 31 11 1 7
8 31 11 1 7 79 37 10 30
8 110 57 18 50 48 17 2 14
8 50 18 56 111 14 2 16 49
8 116 62 22 55 52 20 3 15
8 56 25 67 118 16 5 24 53
8 119 63 23 57 54 21 4 17
8 55 22 63 119 15 3 21 54
8 58 26 68 121 18 6 25 56
8 122 65 26 58 57 23 6 18
8 73 31 7 27 142 79 30 71
8 143 78 29 72 73 31 7 27
8 83 147 76 34 32 74 28 8
8 84 148 78 36 33 75 29 9
8 76 34 8 28 148 84 33 75
8 37 79 150 86 10 30 77 35
8 151 87 36 78 80 38 11 31
8 80 38 11 31 152 88 37 79
8 175 100 42 94 96 44 12 40
8 44 96 176 101 12 40 95 43
8 101 176 98 46 43 95 41 13
8 46 98 178 103 13 41 97 45
8 178 103 45 97 147 83 32 74
8 189 116 55 109 106 52 15 47
8 111 56 118 191 49 16 53 107
8 192 119 57 110 108 54 17 48
8 109 55 119 192 47 15 54 108
8 194 122 58 112 110 57 18 50
8 112 58 121 195 50 18 56 111
8 115 61 19 51 197 124 59 113
8 115 61 125 198 51 19 60 114
8 198 125 62 116 114 60 20 52
8 200 127 64 120 116 62 22 55
8 118 67 132 202 53 24 66 117
8 121 68 133 203 56 25 67 118
8 120 64 128 204 55 22 63 119
8 204 128 65 122 119 63 23 57
8 206 134 68 121 123 69 26 58
8 123 69 26 58 207 131 65 122
8 226 147 74 138 140 76 28 70
8 229 148 75 139 143 78 29 72
8 140 76 28 70 229 148 75 139
8 142 79 30 71 231 150 77 141
8 144 80 31 73 232 152 79 142
8 233 151 78 143 144 80 31 73
8 150 86 35 77 235 154 81 145
8 235 154 81 145 146 82 39 91
8 146 82 39 91 236 155 90 165
8 238 157 83 147 149 85 34 76
8 239 158 84 148 151 87 36 78
8 149 85 34 76 239 158 84 148
8 152 88 37 79 241 160 86 150
8 242 161 87 151 153 89 38 80
8 153 89 38 80 243 162 88 152
8 171 98 41 92 265 178 97 169
8 265 178 97 169 226 147 74 138
8 172 96 40 93 266 176 95 170
8 266 176 95 170 171 98 41 92
8 269 175 94 173 172 96 40 93
8 271 180 99 174 175 100 42 94
8 197 124 59 113 271 180 99 174
8 272 181 100 175 177 102 44 96
8 273 182 101 176 179 104 46 98
8 177 102 44 96 273 182 101 176
8 179 104 46 98 275 184 103 178
8 275 184 103 178 238 157 83 147
8 188 115 51 105 283 197 113 186
8 188 115 198 284 105 51 114 187
8 284 198 116 189 187 114 52 106
8 286 200 120 193 189 116 55 109
8 191 118 202 288 107 53 117 190
8 195 121 203 289 111 56 118 191
8 193 120 204 290 109 55 119 192
8 290 204 122 194 192 119 57 110
8 196 123 58 112 292 207 122 194
8 293 206 121 195 196 123 58 112
8 199 126 61 115 297 211 124 197
8 298 212 127 200 198 125 62 116
8 199 126 212 298 115 61 125 198
8 205 129 64 120 300 214 127 200
8 301 217 130 201 202 132 66 117
8 209 136 168 264 301 217 130 201
8 302 219 132 202 203 133 67 118
8 303 220 133 203 206 134 68 121
8 205 129 215 304 120 64 128 204
8 304 215 131 207 204 128 65 122
8 306 221 134 206 208 135 69 123
8 208 135 69 123 307 218 131 207
8 210 137 167 263 309 223 136 209
8 328 238 147 226 230 149 76 140
8 228 146 91 166 329 236 165 260
8 231 150 77 141 330 235 145 227
8 330 235 145 227 228 146 91 166
8 332 239 148 229 233 151 78 143
8 230 149 76 140 332 239 148 229
8 232 152 79 142 334 241 150 231
8 234 153 80 144 335 243 152 232
8 336 242 151 233 234 153 80 144
8 236 155 90 165 338 245 164 259
8 241 160 86 150 339 246 154 235
8 339 246 154 235 237 156 82 146
8 237 156 82 146 340 247 155 236
8 342 249 157 238 240 159 85 149
8 343 250 158 239 242 161 87 151
8 240 159 85 149 343 250 158 239
8 243 162 88 152 345 252 160 241
8 244 163 253 346 153 89 161 242
8 244 163 89 153 347 254 162 243
8 311 224 261 371 210 137 167 263
8 263 167 262 372 209 136 168 264
8 267 179 98 171 375 275 178 265
8 375 275 178 265 328 238 147 226
8 376 273 176 266 267 179 98 171
8 268 177 96 172 376 273 176 266
8 379 272 175 269 268 177 96 172
8 380 271 174 270 269 175 94 173
8 283 197 113 186 380 271 174 270
8 381 277 180 271 272 181 100 175
8 297 211 124 197 381 277 180 271
8 382 278 181 272 274 183 102 177
8 274 183 102 177 383 279 182 273
8 383 279 182 273 276 185 104 179
8 385 281 184 275 342 249 157 238
8 276 185 104 179 385 281 184 275
8 285 199 115 188 393 297 197 283
8 394 298 200 286 284 198 116 189
8 285 199 298 394 188 115 198 284
8 291 205 120 193 396 300 200 286
8 397 301 201 287 288 202 117 190
8 295 209 264 374 397 301 201 287
8 398 302 202 288 289 203 118 191
8 399 303 203 289 293 206 121 195
8 291 205 304 400 193 120 204 290
8 400 304 207 292 290 204 122 194
8 294 208 123 196 402 307 207 292
8 403 306 206 293 294 208 123 196
8 296 210 263 373 405 309 209 295
8 408 312 213 299 297 211 126 199
8 299 213 313 409 199 126 212 298
8 409 313 214 300 298 212 127 200
8 305 216 129 205 411 315 214 300
8 412 318 217 301 302 219 132 202
8 309 223 136 209 412 318 217 301
8 413 320 219 302 303 220 133 203
8 306 221 321 414 206 134 220 303
8 307 218 131 207 415 316 215 304
8 305 216 316 415 205 129 215 304
8 417 322 221 306 308 222 135 208
8 308 222 135 208 418 319 218 307
8 310 225 137 210 420 325 223 309
8 423 326 224 311 310 225 137 210
8 329 236 165 260 441 338 259 368
8 442 342 238 328 333 240 149 230
8 331 237 146 228 443 340 236 329
8 334 241 150 231 444 339 235 330
8 444 339 235 330 331 237 146 228
8 446 343 239 332 336 242 151 233
8 333 240 149 230 446 343 239 332
8 335 243 152 232 448 345 241 334
8 337 244 153 234 449 347 243 335
8 337 244 346 450 234 153 242 336
8 338 245 164 259 452 349 258 367
8 340 247 155 236 453 350 245 338
8 345 252 160 241 454 351 246 339
8 454 351 246 339 341 248 156 237
8 341 248 156 237 455 352 247 340
8 240 159 251 344 342 249 354 457
8 242 161 253 346 343 250 355 458
8 343 250 355 458 240 159 251 344
8 347 254 162 243 460 357 252 345
8 348 255 358 461 244 163 253 346
8 348 255 163 244 462 359 254 347
8 473 360 257 365 363 256 364 482
8 452 349 258 367 365 257 366 485
8 422 324 369 488 311 224 261 371
8 371 261 370 490 263 167 262 372
8 407 311 371 491 296 210 263 373
8 373 263 372 492 295 209 264 374
8 493 385 275 375 442 342 238 328
8 377 276 179 267 493 385 275 375
8 378 274 177 268 494 383 273 376
8 494 383 273 376 377 276 179 267
8 497 382 272 379 378 274 177 268
8 498 381 271 380 379 272 175 269
8 393 297 197 283 498 381 271 380
8 499 387 277 381 382 278 181 272
8 408 312 211 297 499 387 277 381
8 500 388 278 382 384 280 183 274
8 501 389 279 383 386 282 185 276
8 384 280 183 274 501 389 279 383
8 386 282 185 276 503 391 281 385
8 503 391 281 385 457 354 249 342
8 511 408 299 395 393 297 199 285
8 395 299 409 512 285 199 298 394
8 512 409 300 396 394 298 200 286
8 401 305 205 291 514 411 300 396
8 515 412 301 397 398 302 202 288
8 405 309 209 295 515 412 301 397
8 516 413 302 398 399 303 203 289
8 403 306 414 517 293 206 303 399
8 402 307 207 292 518 415 304 400
8 401 305 415 518 291 205 304 400
8 404 308 208 294 520 418 307 402
8 521 417 306 403 404 308 208 294
8 406 310 210 296 523 420 309 405
8 526 423 311 407 406 310 210 296
8 410 314 213 299 527 424 312 408
8 528 425 315 411 409 313 214 300
8 410 314 425 528 299 213 313 409
8 416 317 216 305 530 427 315 411
8 531 430 318 412 413 320 219 302
8 420 325 223 309 531 430 318 412
8 532 432 320 413 414 321 220 303
8 417 322 433 533 306 221 321 414
8 418 319 218 307 534 428 316 415
8 416 317 428 534 305 216 316 415
8 419 323 434 536 308 222 322 417
8 419 323 222 308 537 431 319 418
8 421 327 225 310 539 438 325 420
8 421 327 439 541 310 225 326 423
8 543 437 324 422 423 326 224 311
8 441 338 259 368 559 452 367 486
8 443 340 236 329 560 453 338 441
8 333 240 344 447 442 342 457 561
8 445 341 237 331 562 455 340 443
8 448 345 241 334 563 454 339 444
8 563 454 339 444 445 341 237 331
8 336 242 346 450 446 343 458 565
8 446 343 458 565 333 240 344 447
8 449 347 243 335 567 460 345 448
8 451 348 244 337 568 462 347 449
8 451 348 461 569 337 244 346 450
8 570 463 349 452 473 360 257 365
8 453 350 245 338 570 463 349 452
8 455 352 247 340 571 464 350 453
8 460 357 252 345 572 465 351 454
8 572 465 351 454 456 353 248 341
8 456 353 248 341 573 466 352 455
8 344 251 356 459 457 354 468 575
8 458 355 469 576 344 251 356 459
8 346 253 358 461 458 355 469 576
8 462 359 254 347 578 471 357 460
8 348 255 359 462 461 358 472 579
8 591 474 360 473 475 361 256 363
8 475 361 256 363 594 477 362 479
8 363 256 364 482 479 362 480 603
8 590 473 365 484 481 363 482 605
8 482 364 257 365 606 483 366 485
8 559 452 367 486 484 365 485 607
8 542 436 487 609 422 324 369 488
8 525 422 488 611 407 311 371 491
8 488 369 489 612 371 261 370 490
8 491 371 490 613 373 263 372 492
8 495 386 276 377 614 503 385 493
8 614 503 385 493 561 457 342 442
8 615 501 383 494 495 386 276 377
8 496 384 274 378 615 501 383 494
8 618 500 382 497 496 384 274 378
8 619 499 381 498 497 382 272 379
8 511 408 297 393 619 499 381 498
8 620 505 387 499 500 388 278 382
8 527 424 312 408 620 505 387 499
8 502 390 506 621 384 280 388 500
8 622 507 389 501 504 392 282 386
8 502 390 280 384 622 507 389 501
8 504 392 282 386 624 509 391 503
8 624 509 391 503 575 468 354 457
8 513 410 299 395 630 527 408 511
8 631 528 411 514 512 409 300 396
8 513 410 528 631 395 299 409 512
8 519 416 305 401 633 530 411 514
8 634 531 412 515 516 413 302 398
8 523 420 309 405 634 531 412 515
8 635 532 413 516 517 414 303 399
8 521 417 533 636 403 306 414 517
8 520 418 307 402 637 534 415 518
8 519 416 534 637 401 305 415 518
8 522 419 308 404 639 537 418 520
8 522 419 536 640 404 308 417 521
8 524 421 310 406 642 539 420 523
8 524 421 541 644 406 310 423 526
8 646 543 422 525 526 423 311 407
8 529 426 314 410 647 544 424 527
8 528 425 545 648 411 315 427 530
8 529 426 545 648 410 314 425 528
8 535 429 317 416 649 546 427 530
8 650 548 430 531 532 432 320 413
8 539 438 325 420 650 548 430 531
8 533 433 550 651 414 321 432 532
8 536 434 551 652 417 322 433 533
8 537 431 319 418 653 547 428 534
8 535 429 547 653 416 317 428 534
8 538 435 552 654 419 323 434 536
8 538 435 323 419 655 549 431 537
8 540 440 327 421 657 556 438 539
8 540 440 557 659 421 327 439 541
8 541 439 555 660 423 326 437 543
8 661 554 436 542 543 437 324 422
8 676 570 452 559 590 473 365 484
8 560 453 338 441 676 570 452 559
8 562 455 340 443 677 571 453 560
8 447 344 459 566 561 457 575 678
8 564 456 341 445 679 573 455 562
8 567 460 345 448 680 572 454 563
8 680 572 454 563 564 456 341 445
8 565 458 576 682 447 344 459 566
8 450 346 461 569 565 458 576 682
8 568 462 347 449 684 578 460 567
8 451 348 462 568 569 461 579 685
8 686 580 463 570 591 474 360 473
8 571 464 350 453 686 580 463 570
8 573 466 352 455 687 581 464 571
8 572 465 582 688 460 357 471 578
8 574 467 582 688 456 353 465 572
8 574 467 353 456 689 583 466 573
8 459 356 470 577 575 468 585 691
8 576 469 586 692 459 356 470 577
8 461 358 472 579 576 469 586 692
8 462 359 471 578 579 472 588 694
8 704 591 473 590 593 475 363 481
8 595 476 592 705 475 361 474 591
8 593 475 363 481 707 594 479 602
8 594 477 362 479 709 598 478 600
8 595 476 361 475 711 597 477 594
8 479 362 480 603 600 478 601 720
8 481 363 482 605 602 479 603 722
8 603 480 364 482 723 604 483 606
8 605 482 365 484 724 606 485 607
8 656 553 608 726 542 436 487 609
8 645 542 609 728 525 422 488 611
8 609 487 610 729 488 369 489 612
8 611 488 612 730 491 371 490 613
8 616 504 386 495 731 624 503 614
8 731 624 503 614 678 575 457 561
8 732 622 501 615 616 504 386 495
8 617 502 384 496 732 622 501 615
8 617 502 621 735 496 384 500 618
8 736 620 499 619 618 500 382 497
8 630 527 408 511 736 620 499 619
8 621 506 626 737 500 388 505 620
8 647 544 424 527 737 626 505 620
8 623 508 627 738 502 390 506 621
8 623 508 390 502 739 628 507 622
8 625 510 628 739 504 392 507 622
8 740 629 509 624 691 585 468 575
8 625 510 392 504 740 629 509 624
8 632 529 410 513 744 647 527 630
8 631 528 648 745 514 411 530 633
8 632 529 648 745 513 410 528 631
8 638 535 416 519 746 649 530 633
8 747 650 531 634 635 532 413 516
8 642 539 420 523 747 650 531 634
8 636 533 651 748 517 414 532 635
8 640 536 652 749 521 417 533 636
8 639 537 418 520 750 653 534 637
8 638 535 653 750 519 416 534 637
8 641 538 419 522 751 655 537 639
8 641 538 654 752 522 419 536 640
8 643 540 421 524 753 657 539 642
8 643 540 659 755 524 421 541 644
8 644 541 660 757 526 423 543 646
8 758 661 542 645 646 543 422 525
8 529 426 544 647 648 545 662 759
8 530 427 545 648 649 546 663 760
8 535 429 546 649 653 547 664 761
8 762 666 548 650 651 550 432 532
8 657 556 438 539 762 666 548 650
8 652 551 668 763 533 433 550 651
8 654 552 669 764 536 434 551 652
8 655 549 431 537 765 665 547 653
8 538 435 549 655 654 552 667 766
8 661 554 671 768 542 436 553 656
8 658 558 440 540 769 674 556 657
8 658 558 675 770 540 440 557 659
8 659 557 673 771 541 439 555 660
8 660 555 672 772 543 437 554 661
8 788 686 570 676 704 591 473 590
8 677 571 453 560 788 686 570 676
8 679 573 455 562 789 687 571 677
8 566 459 577 683 678 575 691 790
8 681 574 456 564 791 689 573 679
8 680 572 688 792 567 460 578 684
8 681 574 688 792 564 456 572 680
8 682 576 692 794 566 459 577 683
8 569 461 579 685 682 576 692 794
8 568 462 578 684 685 579 694 796
8 687 581 464 571 798 696 580 686
8 798 696 580 686 705 592 474 591
8 689 583 466 573 799 697 581 687
8 688 582 698 800 578 471 588 694
8 690 584 698 800 574 467 582 688
8 690 584 467 574 801 699 583 689
8 693 587 701 803 577 470 585 691
8 693 587 470 577 804 702 586 692
8 695 589 702 804 579 472 586 692
8 695 589 472 579 805 703 588 694
8 708 595 705 813 593 475 591 704
8 710 596 706 814 595 476 592 705
8 707 594 479 602 816 709 600 719
8 708 595 475 593 817 711 594 707
8 709 598 478 600 819 715 599 717
8 711 597 477 594 820 714 598 709
8 710 596 476 595 822 713 597 711
8 600 478 601 720 717 599 718 832
8 602 479 603 722 719 600 720 834
8 720 601 480 603 835 721 604 723
8 722 603 482 605 836 723 606 724
8 767 670 725 839 656 553 608 726
8 756 656 726 841 645 542 609 728
8 726 608 727 842 609 487 610 729
8 728 609 729 843 611 488 612 730
8 844 740 624 731 790 691 575 678
8 733 625 504 616 844 740 624 731
8 734 623 502 617 845 739 622 732
8 733 625 739 845 616 504 622 732
8 734 623 738 846 617 502 621 735
8 735 621 737 847 618 500 620 736
8 744 647 527 630 847 737 620 736
8 621 506 627 738 737 626 741 848
8 647 544 626 737 759 662 741 848
8 623 508 628 739 738 627 742 849
8 740 629 585 691 850 743 700 802
8 625 510 629 740 739 628 743 850
8 632 529 647 744 745 648 759 854
8 633 530 648 745 746 649 760 855
8 638 535 649 746 750 653 761 856
8 857 762 650 747 748 651 532 635
8 753 657 539 642 857 762 650 747
8 749 652 763 858 636 533 651 748
8 752 654 764 859 640 536 652 749
8 751 655 537 639 860 765 653 750
8 641 538 655 751 752 654 766 861
8 754 658 540 643 862 769 657 753
8 754 658 770 863 643 540 659 755
8 755 659 771 864 644 541 660 757
8 758 661 768 866 645 542 656 756
8 757 660 772 867 646 543 661 758
8 759 662 773 868 648 545 663 760
8 649 546 663 760 761 664 774 871
8 765 665 547 653 872 775 664 761
8 873 777 666 762 763 668 550 651
8 769 674 556 657 873 777 666 762
8 764 669 779 874 652 551 668 763
8 654 552 667 766 764 669 778 875
8 655 549 665 765 766 667 776 876
8 768 671 782 877 656 553 670 767
8 772 672 783 878 661 554 671 768
8 658 558 674 769 770 675 786 879
8 659 557 675 770 771 673 785 881
8 882 784 672 772 771 673 555 660
8 789 687 571 677 897 798 686 788
8 897 798 686 788 813 705 591 704
8 791 689 573 679 898 799 687 789
8 795 693 803 900 683 577 691 790
8 793 690 574 681 901 801 689 791
8 792 688 800 902 684 578 694 796
8 793 690 800 902 681 574 688 792
8 795 693 577 683 903 804 692 794
8 797 695 804 903 685 579 692 794
8 797 695 579 685 904 805 694 796
8 905 806 697 799 798 696 581 687
8 814 706 806 905 705 592 696 798
8 689 583 697 799 801 699 808 907
8 800 698 809 908 694 588 703 805
8 690 584 699 801 800 698 809 908
8 803 701 810 909 691 585 700 802
8 693 587 702 804 803 701 811 910
8 695 589 703 805 804 702 812 911
8 818 710 814 919 708 595 705 813
8 821 712 815 920 710 596 706 814
8 816 709 600 719 922 819 717 831
8 817 711 594 707 923 820 709 816
8 818 710 595 708 924 822 711 817
8 819 715 599 717 926 827 716 829
8 820 714 598 709 927 826 715 819
8 929 825 713 822 820 714 597 711
8 821 712 596 710 930 824 713 822
8 717 599 718 832 829 716 830 942
8 719 600 720 834 831 717 832 944
8 832 718 601 720 945 833 721 835
8 834 720 603 722 946 835 723 836
8 869 780 838 950 767 670 725 839
8 865 767 839 952 756 656 726 841
8 839 725 840 953 726 608 727 842
8 841 726 842 954 728 609 729 843
8 844 740 691 790 955 850 802 899
8 733 625 740 844 845 739 850 955
8 734 623 739 845 846 738 849 956
8 735 621 738 846 847 737 848 957
8 744 647 737 847 854 759 848 957
8 738 627 742 849 848 741 851 958
8 848 741 851 958 759 662 773 868
8 850 743 700 802 959 852 807 906
8 849 742 628 739 959 852 743 850
8 854 759 868 965 745 648 760 855
8 746 649 760 855 856 761 871 966
8 860 765 653 750 967 872 761 856
8 968 873 762 857 858 763 651 748
8 862 769 657 753 968 873 762 857
8 859 764 874 969 749 652 763 858
8 752 654 766 861 859 764 875 970
8 751 655 765 860 861 766 876 971
8 754 658 769 862 863 770 879 972
8 755 659 770 863 864 771 881 974
8 976 882 772 867 864 771 660 757
8 866 768 877 977 756 656 767 865
8 867 772 878 978 758 661 768 866
8 760 663 773 868 871 774 883 980
8 870 781 837 948 982 890 780 869
8 982 890 780 869 877 782 670 767
8 761 664 774 871 872 775 884 984
8 876 776 665 765 985 885 775 872
8 873 777 668 763 986 887 779 874
8 769 674 777 873 879 786 887 986
8 764 669 778 875 874 779 888 987
8 766 667 776 876 875 778 886 988
8 878 783 892 989 768 671 782 877
8 878 783 672 772 990 893 784 882
8 880 787 675 770 991 896 786 879
8 880 787 895 992 770 675 785 881
8 881 785 894 993 771 673 784 882
8 1006 905 799 898 897 798 687 789
8 919 814 905 1006 813 705 798 897
8 791 689 799 898 901 801 907 1007
8 900 803 909 1009 790 691 802 899
8 795 693 804 903 900 803 910 1010
8 902 800 908 1011 796 694 805 904
8 793 690 801 901 902 800 908 1011
8 797 695 805 904 903 804 911 1012
8 799 697 806 905 907 808 912 1013
8 920 815 912 1013 814 706 806 905
8 802 700 810 909 906 807 913 1014
8 801 699 808 907 908 809 914 1015
8 805 703 809 908 911 812 915 1016
8 803 701 811 910 909 810 916 1017
8 911 812 917 1018 804 702 811 910
8 925 821 920 1030 818 710 814 919
8 928 823 921 1031 821 712 815 920
8 922 819 717 831 1033 926 829 941
8 923 820 709 816 1034 927 819 922
8 1035 929 822 924 923 820 711 817
8 925 821 710 818 1036 930 822 924
8 1038 933 825 929 927 826 714 820
8 926 827 716 829 1039 935 828 939
8 927 826 715 819 1040 934 827 926
8 928 823 712 821 1041 931 824 930
8 1042 932 824 930 929 825 713 822
8 829 716 830 942 939 828 940 1058
8 831 717 832 944 941 829 942 1060
8 942 830 718 832 1061 943 833 945
8 944 832 720 834 1062 945 835 946
8 981 889 947 1064 870 781 837 948
8 948 837 949 1067 869 780 838 950
8 975 869 950 1069 865 767 839 952
8 950 838 951 1070 839 725 840 953
8 952 839 953 1071 841 726 842 954
8 955 850 802 899 1072 959 906 1008
8 956 849 739 845 1072 959 850 955
8 846 738 849 956 957 848 958 1073
8 957 848 958 1073 854 759 868 965
8 849 742 852 959 958 851 961 1076
8 960 853 961 1076 906 807 852 959
8 958 851 961 1076 868 773 883 980
8 960 853 807 906 1077 963 913 1014
8 855 760 868 965 966 871 980 1085
8 856 761 871 966 967 872 984 1086
8 971 876 765 860 1087 985 872 967
8 968 873 763 858 1088 986 874 969
8 862 769 873 968 972 879 986 1088
8 859 764 875 970 969 874 987 1089
8 861 766 876 971 970 875 988 1090
8 973 880 770 863 1091 991 879 972
8 973 880 992 1092 863 770 881 974
8 974 881 993 1093 864 771 882 976
8 979 870 948 1066 1094 982 869 975
8 1094 982 869 975 977 877 767 865
8 978 878 772 867 1095 990 882 976
8 978 878 989 1096 866 768 877 977
8 871 774 883 980 984 884 994 1099
8 983 891 999 1100 870 781 889 981
8 1101 1000 890 982 989 892 782 877
8 983 891 781 870 1101 1000 890 982
8 872 775 884 984 985 885 995 1103
8 876 776 885 985 988 886 996 1104
8 986 887 779 874 1105 998 888 987
8 879 786 887 986 991 896 998 1105
8 875 778 886 988 987 888 997 1106
8 990 893 1002 1107 878 783 892 989
8 1108 1003 893 990 993 894 784 882
8 880 787 896 991 992 895 1005 1109
8 993 894 785 881 1110 1004 895 992
8 898 799 905 1006 1007 907 1013 1120
8 1030 920 1013 1120 919 814 905 1006
8 901 801 907 1007 1011 908 1015 1121
8 899 802 909 1009 1008 906 1014 1122
8 900 803 910 1010 1009 909 1017 1123
8 1012 911 1018 1124 903 804 910 1010
8 904 805 908 1011 1012 911 1016 1125
8 1013 912 1020 1127 907 808 914 1015
8 1031 921 1020 1127 920 815 912 1013
8 1019 918 962 1075 1128 1021 913 1014
8 1128 1021 913 1014 1017 916 810 909
8 1015 914 1022 1129 908 809 915 1016
8 1016 915 1023 1130 911 812 917 1018
8 1018 917 1024 1131 910 811 916 1017
8 1037 928 1031 1148 925 821 920 1030
8 928 823 931 1041 1031 921 1032 1149
8 1033 926 829 941 1151 1039 939 1057
8 1034 927 819 922 1152 1040 926 1033
8 1153 1038 929 1035 1034 927 820 923
8 1154 1042 930 1036 1035 929 822 924
8 1037 928 821 925 1155 1041 930 1036
8 1039 935 828 939 1156 1047 938 1055
8 1157 1043 932 1042 1038 933 825 929
8 1038 933 826 927 1158 1045 934 1040
8 1040 934 827 926 1159 1046 935 1039
8 930 824 932 1042 1041 931 1044 1160
8 1051 936 1048 1165 1175 1052 937 1053
8 1156 1047 938 1055 1053 937 1054 1178
8 939 828 940 1058 1055 938 1056 1181
8 941 829 942 1060 1057 939 1058 1183
8 942 830 943 1061 1058 940 1059 1184
8 1060 942 832 944 1185 1061 945 1062
8 1082 964 1063 1188 981 889 947 1064
8 1097 981 1064 1190 979 870 948 1066
8 1064 947 1065 1191 948 837 949 1067
8 1066 948 1067 1193 975 869 950 1069
8 1067 949 1068 1194 950 838 951 1070
8 1069 950 1070 1195 952 839 953 1071
8 956 849 959 1072 1073 958 1076 1197
8 1074 960 1076 1197 1008 906 959 1072
8 1073 958 1076 1197 965 868 980 1085
8 1074 960 906 1008 1198 1077 1014 1122
8 1133 1026 1079 1199 1019 918 962 1075
8 1077 963 913 1014 1200 1080 962 1075
8 960 853 963 1077 1076 961 1078 1201
8 980 883 961 1076 1099 994 1078 1201
8 1210 1083 964 1082 1100 999 889 981
8 966 871 980 1085 1086 984 1099 1215
8 967 872 984 1086 1087 985 1103 1216
8 971 876 985 1087 1090 988 1104 1217
8 1088 986 874 969 1218 1105 987 1089
8 972 879 986 1088 1091 991 1105 1218
8 970 875 988 1090 1089 987 1106 1219
8 973 880 991 1091 1092 992 1109 1220
8 1093 993 881 974 1221 1110 992 1092
8 1222 1108 990 1095 1093 993 882 976
8 1223 1101 982 1094 1096 989 877 977
8 1098 983 870 979 1223 1101 982 1094
8 1095 990 1107 1224 978 878 989 1096
8 1098 983 1100 1225 979 870 981 1097
8 984 884 994 1099 1103 995 1111 1227
8 1102 1001 1115 1228 983 891 999 1100
8 1101 1000 892 989 1229 1116 1002 1107
8 1102 1001 891 983 1229 1116 1000 1101
8 985 885 995 1103 1104 996 1112 1230
8 988 886 996 1104 1106 997 1113 1231
8 1105 998 888 987 1232 1114 997 1106
8 991 896 998 1105 1109 1005 1114 1232
8 1108 1003 1117 1233 990 893 1002 1107
8 1108 1003 894 993 1233 1117 1004 1110
8 992 895 1005 1109 1110 1004 1118 1234
8 1120 1013 1127 1244 1007 907 1015 1121
8 1148 1031 1127 1244 1030 920 1013 1120
8 1121 1015 1129 1245 1011 908 1016 1125
8 1126 1019 1075 1196 1246 1128 1014 1122
8 1246 1128 1014 1122 1123 1017 909 1009
8 1124 1018 1131 1247 1010 910 1017 1123
8 1125 1016 1130 1248 1012 911 1018 1124
8 1127 1020 1137 1254 1015 914 1022 1129
8 1031 921 1032 1149 1127 1020 1137 1254
8 1134 1027 918 1019 1257 1140 1021 1128
8 1257 1140 1021 1128 1131 1024 916 1017
8 1129 1022 1141 1258 1016 915 1023 1130
8 1130 1023 1142 1259 1018 917 1024 1131
8 1261 1144 1025 1132 1133 1026 1079 1199
8 1255 1138 1025 1132 1135 1028 1144 1261
8 1133 1026 918 1019 1262 1145 1027 1134
8 1136 1029 1139 1256 1263 1146 1028 1135
8 1037 928 1041 1155 1148 1031 1149 1275
8 1041 931 1044 1160 1149 1032 1150 1276
8 1151 1039 939 1057 1278 1156 1055 1180
8 1152 1040 926 1033 1279 1159 1039 1151
8 1153 1038 927 1034 1280 1158 1040 1152
8 1281 1157 1042 1154 1153 1038 929 1035
8 1036 930 1042 1154 1155 1041 1160 1282
8 1283 1164 1046 1159 1156 1047 935 1039
8 1165 1048 1164 1283 1053 937 1047 1156
8 1157 1043 933 1038 1284 1161 1045 1158
8 1157 1043 1161 1284 1042 932 1044 1160
8 1040 934 1046 1159 1158 1045 1163 1285
8 1166 1049 1167 1292 1051 936 1048 1165
8 1166 1049 936 1051 1293 1168 1050 1172
8 1051 936 1052 1175 1172 1050 1173 1306
8 1174 1051 1165 1290 1308 1175 1053 1177
8 1053 937 1054 1178 1175 1052 1176 1309
8 1278 1156 1055 1180 1177 1053 1178 1311
8 1055 938 1056 1181 1178 1054 1179 1312
8 1057 939 1058 1183 1180 1055 1181 1314
8 1058 940 1059 1184 1181 1056 1182 1315
8 1060 942 1061 1185 1183 1058 1184 1316
8 1208 1081 1187 1321 1082 964 1063 1188
8 1209 1082 1188 1322 1097 981 1064 1190
8 1188 1063 1189 1323 1064 947 1065 1191
8 1190 1064 1191 1325 1066 948 1067 1193
8 1191 1065 1192 1326 1067 949 1068 1194
8 1067 1193 1069 950 1194 1327 1195 1070
8 1250 1133 1199 1330 1126 1019 1075 1196
8 1198 1077 1014 1122 1331 1200 1075 1196
8 1074 960 1077 1198 1197 1076 1201 1332
8 1085 980 1076 1197 1215 1099 1201 1332
8 1199 1079 1203 1333 1075 962 1080 1200
8 1132 1025 1119 1243 1199 1079 1203 1333
8 1201 1078 963 1077 1334 1202 1080 1200
8 1099 994 1078 1201 1227 1111 1202 1334
8 1343 1207 1081 1208 1210 1083 964 1082
8 1214 1084 1186 1319 1343 1207 1081 1208
8 1345 1210 1082 1209 1225 1100 981 1097
8 1346 1211 1083 1210 1228 1115 999 1100
8 1086 984 1099 1215 1216 1103 1227 1352
8 1087 985 1103 1216 1217 1104 1230 1353
8 1090 988 1104 1217 1219 1106 1231 1354
8 1218 1105 987 1089 1355 1232 1106 1219
8 1091 991 1105 1218 1220 1109 1232 1355
8 1092 992 1109 1220 1221 1110 1234 1356
8 1222 1108 1233 1357 1095 990 1107 1224
8 1222 1108 993 1093 1357 1233 1110 1221
8 1223 1101 989 1096 1358 1229 1107 1224
8 1226 1102 983 1098 1358 1229 1101 1223
8 1226 1102 1228 1359 1098 983 1100 1225
8 1103 995 1111 1227 1230 1112 1235 1360
8 1107 1002 1117 1233 1229 1116 1240 1362
8 1102 1001 1116 1229 1228 1115 1240 1362
8 1104 996 1112 1230 1231 1113 1236 1363
8 1364 1237 1114 1232 1231 1113 997 1106
8 1109 1005 1114 1232 1234 1118 1238 1365
8 1110 1004 1118 1234 1233 1117 1241 1366
8 1242 1374 1255 1138 1119 1243 1132 1025
8 1244 1127 1254 1376 1121 1015 1129 1245
8 1148 1031 1149 1275 1244 1127 1254 1376
8 1245 1129 1258 1377 1125 1016 1130 1248
8 1251 1134 1019 1126 1378 1257 1128 1246
8 1378 1257 1128 1246 1247 1131 1017 1123
8 1248 1130 1259 1379 1124 1018 1131 1247
8 1261 1381 1250 1133 1132 1249 1330 1199
8 1255 1380 1252 1135 1132 1249 1381 1261
8 1250 1133 1019 1126 1382 1262 1134 1251
8 1253 1136 1256 1385 1384 1263 1135 1252
8 1254 1137 1265 1387 1129 1022 1141 1258
8 1149 1032 1150 1276 1254 1137 1265 1387
8 1028 1135 1255 1138 1139 1256 1388 1266
8 1136 1029 1147 1264 1256 1139 1267 1389
8 1390 1268 1140 1257 1259 1142 1024 1131
8 1260 1143 1027 1134 1390 1268 1140 1257
8 1258 1141 1269 1391 1130 1023 1142 1259
8 1262 1145 1027 1134 1393 1271 1143 1260
8 1261 1144 1026 1133 1394 1272 1145 1262
8 1135 1028 1144 1261 1263 1146 1272 1394
8 1136 1029 1146 1263 1264 1147 1273 1395
8 1155 1041 1160 1282 1275 1149 1276 1405
8 1276 1150 1044 1160 1406 1277 1162 1286
8 1408 1283 1159 1279 1278 1156 1039 1151
8 1290 1165 1283 1408 1177 1053 1156 1278
8 1152 1040 1159 1279 1280 1158 1285 1409
8 1281 1157 1038 1153 1410 1284 1158 1280
8 1281 1157 1284 1410 1154 1042 1160 1282
8 1159 1046 1164 1283 1285 1163 1289 1412
8 1292 1167 1289 1412 1165 1048 1164 1283
8 1158 1045 1163 1285 1284 1161 1288 1413
8 1284 1161 1288 1413 1160 1044 1162 1286
8 1291 1166 1292 1418 1174 1051 1165 1290
8 1291 1166 1051 1174 1419 1293 1172 1305
8 1294 1169 1296 1421 1166 1049 1167 1292
8 1293 1168 1050 1172 1422 1295 1171 1303
8 1294 1169 1049 1166 1423 1297 1168 1293
8 1422 1295 1171 1303 1301 1170 1302 1435
8 1172 1050 1173 1306 1303 1171 1304 1438
8 1174 1051 1175 1308 1305 1172 1306 1440
8 1175 1052 1176 1309 1306 1173 1307 1441
8 1177 1053 1178 1311 1308 1175 1309 1443
8 1178 1054 1179 1312 1309 1176 1310 1444
8 1180 1055 1181 1314 1311 1178 1312 1446
8 1056 1181 1312 1179 1182 1315 1447 1313
8 1183 1058 1184 1316 1314 1181 1315 1448
8 1319 1186 1084 1214 1451 1317 1213 1350
8 1319 1186 1318 1453 1208 1081 1187 1321
8 1321 1187 1320 1456 1188 1063 1189 1323
8 1344 1208 1321 1457 1209 1082 1188 1322
8 1322 1188 1323 1458 1190 1064 1191 1325
8 1323 1189 1324 1459 1191 1065 1192 1326
8 1191 1325 1193 1067 1326 1460 1327 1194
8 1242 1374 1243 1119 1328 1462 1335 1204
8 1330 1199 1333 1465 1196 1075 1200 1331
8 1132 1249 1330 1199 1243 1375 1465 1333
8 1332 1201 1077 1198 1466 1334 1200 1331
8 1215 1099 1201 1332 1352 1227 1334 1466
8 1119 1243 1333 1203 1204 1335 1470 1338
8 1333 1203 1338 1470 1200 1080 1202 1334
8 1227 1111 1202 1334 1360 1235 1338 1470
8 1328 1462 1335 1204 1205 1336 1471 1339
8 1337 1206 1340 1472 1464 1329 1205 1336
8 1346 1211 1342 1479 1210 1083 1207 1343
8 1346 1211 1115 1228 1479 1342 1239 1361
8 1348 1212 1084 1214 1479 1342 1207 1343
8 1480 1343 1208 1344 1345 1210 1082 1209
8 1351 1214 1319 1454 1480 1343 1208 1344
8 1481 1346 1210 1345 1359 1228 1100 1225
8 1348 1212 1347 1483 1214 1084 1213 1350
8 1216 1103 1227 1352 1353 1230 1360 1488
8 1217 1104 1230 1353 1354 1231 1363 1489
8 1490 1364 1232 1355 1354 1231 1106 1219
8 1220 1109 1232 1355 1356 1234 1365 1491
8 1221 1110 1234 1356 1357 1233 1366 1492
8 1224 1107 1233 1357 1358 1229 1362 1493
8 1226 1102 1229 1358 1359 1228 1362 1493
8 1230 1112 1235 1360 1363 1236 1367 1496
8 1361 1239 1115 1228 1497 1371 1240 1362
8 1366 1241 1372 1498 1233 1117 1240 1362
8 1364 1237 1113 1231 1499 1368 1236 1363
8 1364 1237 1368 1499 1232 1114 1238 1365
8 1234 1118 1238 1365 1366 1241 1369 1500
8 1507 1373 1242 1374 1388 1266 1138 1255
8 1508 1374 1243 1375 1380 1255 1132 1249
8 1376 1254 1387 1509 1245 1129 1258 1377
8 1275 1149 1276 1405 1376 1254 1387 1509
8 1377 1258 1391 1510 1248 1130 1259 1379
8 1511 1390 1257 1378 1379 1259 1131 1247
8 1383 1260 1134 1251 1511 1390 1257 1378
8 1252 1135 1256 1385 1380 1255 1388 1512
8 1261 1381 1513 1394 1133 1250 1382 1262
8 1135 1252 1384 1263 1261 1381 1513 1394
8 1382 1262 1134 1251 1514 1393 1260 1383
8 1253 1136 1263 1384 1386 1264 1395 1516
8 1253 1136 1264 1386 1385 1256 1389 1517
8 1387 1265 1397 1519 1258 1141 1269 1391
8 1276 1150 1277 1406 1387 1265 1397 1519
8 1256 1139 1267 1389 1388 1266 1398 1520
8 1264 1147 1274 1396 1389 1267 1399 1521
8 1392 1270 1143 1260 1522 1400 1268 1390
8 1390 1268 1142 1259 1522 1400 1269 1391
8 1392 1270 1401 1523 1260 1143 1271 1393
8 1272 1394 1524 1402 1145 1262 1393 1271
8 1395 1273 1146 1263 1524 1402 1272 1394
8 1273 1395 1264 1147 1403 1526 1396 1274
8 1405 1276 1160 1282 1534 1406 1286 1411
8 1414 1287 1407 1535 1286 1162 1277 1406
8 1279 1159 1283 1408 1409 1285 1412 1537
8 1418 1292 1412 1537 1290 1165 1283 1408
8 1280 1158 1285 1409 1410 1284 1413 1538
8 1410 1284 1413 1538 1282 1160 1286 1411
8 1285 1163 1289 1412 1413 1288 1417 1540
8 1421 1296 1417 1540 1292 1167 1289 1412
8 1414 1287 1162 1286 1541 1416 1288 1413
8 1420 1294 1421 1545 1291 1166 1292 1418
8 1419 1293 1172 1305 1546 1422 1303 1437
8 1420 1294 1166 1291 1547 1423 1293 1419
8 1294 1169 1297 1423 1421 1296 1425 1548
8 1423 1297 1168 1293 1549 1424 1295 1422
8 1301 1170 1298 1427 1422 1295 1424 1549
8 1432 1300 1428 1554 1301 1170 1298 1427
8 1431 1299 1428 1554 1560 1430 1300 1432
8 1563 1433 1300 1432 1435 1302 1170 1301
8 1546 1422 1303 1437 1434 1301 1435 1565
8 1303 1171 1304 1438 1435 1302 1436 1566
8 1305 1172 1306 1440 1437 1303 1438 1568
8 1306 1173 1307 1441 1438 1304 1439 1569
8 1308 1175 1309 1443 1440 1306 1441 1571
8 1309 1176 1310 1444 1441 1307 1442 1572
8 1311 1178 1312 1446 1443 1309 1444 1574
8 1179 1312 1444 1310 1313 1447 1575 1445
8 1314 1181 1315 1448 1446 1312 1447 1576
8 1350 1213 1349 1486 1451 1317 1449 1579
8 1451 1317 1450 1581 1319 1186 1318 1453
8 1454 1319 1214 1351 1582 1451 1350 1487
8 1453 1318 1452 1584 1321 1187 1320 1456
8 1454 1319 1453 1585 1344 1208 1321 1457
8 1456 1320 1455 1586 1323 1189 1324 1459
8 1457 1321 1456 1587 1322 1188 1323 1458
8 1458 1323 1459 1588 1325 1191 1326 1460
8 1205 1336 1464 1329 1328 1462 1590 1461
8 1507 1373 1461 1590 1374 1242 1328 1462
8 1508 1374 1462 1591 1375 1243 1335 1467
8 1337 1206 1329 1464 1473 1341 1463 1594
8 1375 1243 1335 1467 1465 1333 1470 1596
8 1465 1333 1470 1596 1331 1200 1334 1466
8 1352 1227 1334 1466 1488 1360 1470 1596
8 1591 1462 1336 1468 1467 1335 1471 1597
8 1469 1337 1472 1598 1595 1464 1336 1468
8 1471 1339 1474 1600 1335 1204 1338 1470
8 1600 1474 1367 1496 1470 1338 1235 1360
8 1336 1205 1340 1472 1471 1339 1475 1601
8 1337 1206 1341 1473 1472 1340 1476 1602
8 1495 1370 1478 1609 1361 1239 1342 1479
8 1348 1212 1342 1479 1483 1347 1478 1609
8 1481 1346 1479 1610 1345 1210 1343 1480
8 1481 1346 1228 1359 1610 1479 1361 1494
8 1484 1348 1214 1351 1610 1479 1343 1480
8 1483 1347 1482 1612 1350 1213 1349 1486
8 1484 1348 1483 1613 1351 1214 1350 1487
8 1353 1230 1360 1488 1489 1363 1496 1616
8 1490 1364 1231 1354 1617 1499 1363 1489
8 1490 1364 1499 1617 1355 1232 1365 1491
8 1356 1234 1365 1491 1492 1366 1500 1619
8 1492 1366 1498 1620 1357 1233 1362 1493
8 1494 1361 1228 1359 1621 1497 1362 1493
8 1495 1370 1239 1361 1622 1504 1371 1497
8 1363 1236 1367 1496 1499 1368 1501 1623
8 1497 1371 1240 1362 1624 1505 1372 1498
8 1625 1503 1372 1498 1500 1369 1241 1366
8 1365 1238 1368 1499 1500 1369 1502 1626
8 1520 1398 1506 1633 1388 1266 1373 1507
8 1634 1507 1374 1508 1512 1388 1255 1380
8 1509 1387 1519 1635 1377 1258 1391 1510
8 1405 1276 1406 1534 1509 1387 1519 1635
8 1515 1392 1260 1383 1636 1522 1390 1511
8 1511 1390 1259 1379 1636 1522 1391 1510
8 1385 1256 1389 1517 1512 1388 1520 1637
8 1513 1394 1262 1382 1638 1524 1393 1514
8 1395 1516 1638 1524 1263 1384 1513 1394
8 1515 1392 1523 1639 1383 1260 1393 1514
8 1516 1395 1526 1640 1386 1264 1396 1518
8 1386 1264 1396 1518 1517 1389 1521 1641
8 1519 1397 1527 1643 1391 1269 1400 1522
8 1535 1407 1527 1643 1406 1277 1397 1519
8 1389 1267 1399 1521 1520 1398 1528 1644
8 1645 1529 1399 1521 1525 1404 1274 1396
8 1392 1270 1400 1522 1523 1401 1531 1646
8 1524 1402 1271 1393 1648 1532 1401 1523
8 1403 1526 1648 1532 1273 1395 1524 1402
8 1525 1404 1274 1396 1649 1533 1403 1526
8 1539 1414 1535 1657 1411 1286 1406 1534
8 1542 1415 1536 1658 1414 1287 1407 1535
8 1409 1285 1412 1537 1538 1413 1540 1660
8 1545 1421 1540 1660 1418 1292 1412 1537
8 1539 1414 1286 1411 1661 1541 1413 1538
8 1540 1417 1544 1663 1413 1288 1416 1541
8 1421 1296 1425 1548 1540 1417 1544 1663
8 1542 1415 1287 1414 1664 1543 1416 1541
8 1420 1294 1423 1547 1545 1421 1548 1666
8 1547 1423 1293 1419 1667 1549 1422 1546
8 1434 1301 1427 1553 1546 1422 1549 1667
8 1423 1297 1424 1549 1548 1425 1550 1668
8 1551 1426 1550 1668 1427 1298 1424 1549
8 1551 1426 1298 1427 1671 1552 1428 1554
8 1562 1432 1554 1674 1434 1301 1427 1553
8 1431 1299 1429 1558 1554 1428 1555 1675
8 1431 1299 1430 1560 1558 1429 1557 1680
8 1560 1430 1300 1432 1683 1559 1433 1563
8 1561 1431 1554 1674 1684 1560 1432 1562
8 1685 1563 1432 1562 1565 1435 1301 1434
8 1435 1302 1436 1566 1563 1433 1564 1686
8 1437 1303 1438 1568 1565 1435 1566 1688
8 1438 1304 1439 1569 1566 1436 1567 1689
8 1440 1306 1441 1571 1568 1438 1569 1691
8 1441 1307 1442 1572 1569 1439 1570 1692
8 1443 1309 1444 1574 1571 1441 1572 1694
8 1310 1444 1572 1442 1445 1575 1695 1573
8 1446 1312 1447 1576 1574 1444 1575 1696
8 1486 1349 1485 1614 1579 1449 1577 1699
8 1451 1317 1449 1579 1581 1450 1578 1701
8 1487 1350 1486 1615 1582 1451 1579 1702
8 1581 1450 1580 1704 1453 1318 1452 1584
8 1582 1451 1581 1705 1454 1319 1453 1585
8 1584 1452 1583 1706 1456 1320 1455 1586
8 1585 1453 1584 1707 1457 1321 1456 1587
8 1587 1456 1586 1708 1458 1323 1459 1588
8 1633 1506 1589 1710 1507 1373 1461 1590
8 1464 1329 1461 1590 1594 1463 1589 1710
8 1468 1336 1462 1591 1595 1464 1590 1711
8 1634 1507 1590 1711 1508 1374 1462 1591
8 1473 1341 1463 1594 1603 1477 1593 1716
8 1469 1337 1464 1595 1599 1473 1594 1717
8 1471 1597 1467 1335 1600 1718 1596 1470
8 1718 1600 1496 1616 1596 1470 1360 1488
8 1336 1468 1597 1471 1472 1598 1719 1601
8 1469 1337 1473 1599 1598 1472 1602 1720
8 1722 1604 1501 1623 1600 1474 1367 1496
8 1475 1601 1471 1339 1604 1722 1600 1474
8 1602 1476 1605 1723 1472 1340 1475 1601
8 1476 1602 1724 1606 1341 1473 1603 1477
8 1483 1347 1478 1609 1612 1482 1608 1731
8 1495 1370 1504 1622 1609 1478 1608 1731
8 1618 1495 1609 1732 1494 1361 1479 1610
8 1484 1348 1479 1610 1613 1483 1609 1732
8 1486 1349 1482 1612 1614 1485 1611 1733
8 1613 1483 1612 1734 1487 1350 1486 1615
8 1489 1363 1496 1616 1617 1499 1623 1736
8 1491 1365 1499 1617 1619 1500 1626 1737
8 1618 1495 1361 1494 1738 1622 1497 1621
8 1739 1625 1498 1620 1619 1500 1366 1492
8 1621 1497 1362 1493 1740 1624 1498 1620
8 1742 1631 1504 1622 1624 1505 1371 1497
8 1743 1628 1502 1626 1623 1501 1368 1499
8 1744 1630 1505 1624 1625 1503 1372 1498
8 1745 1629 1503 1625 1626 1502 1369 1500
8 1520 1398 1528 1644 1633 1506 1632 1751
8 1637 1520 1633 1752 1512 1388 1507 1634
8 1635 1519 1643 1753 1510 1391 1522 1636
8 1657 1535 1643 1753 1534 1406 1519 1635
8 1515 1392 1522 1636 1639 1523 1646 1754
8 1517 1389 1521 1641 1637 1520 1644 1755
8 1524 1638 1756 1648 1393 1514 1639 1523
8 1640 1526 1395 1516 1756 1648 1524 1638
8 1642 1525 1396 1518 1757 1649 1526 1640
8 1758 1645 1521 1641 1642 1525 1396 1518
8 1646 1531 1400 1522 1760 1650 1527 1643
8 1535 1407 1536 1658 1643 1527 1650 1760
8 1521 1399 1529 1645 1644 1528 1651 1761
8 1647 1530 1652 1762 1525 1404 1529 1645
8 1401 1523 1648 1532 1531 1646 1763 1655
8 1525 1404 1533 1649 1647 1530 1654 1765
8 1533 1649 1766 1656 1403 1526 1648 1532
8 1662 1542 1658 1774 1539 1414 1535 1657
8 1542 1415 1543 1664 1658 1536 1659 1775
8 1660 1540 1663 1777 1538 1413 1541 1661
8 1545 1421 1548 1666 1660 1540 1663 1777
8 1662 1542 1414 1539 1778 1664 1541 1661
8 1664 1543 1416 1541 1779 1665 1544 1663
8 1548 1425 1550 1668 1663 1544 1665 1779
8 1547 1423 1549 1667 1666 1548 1668 1781
8 1670 1551 1668 1781 1553 1427 1549 1667
8 1551 1426 1552 1671 1668 1550 1669 1782
8 1670 1551 1427 1553 1784 1671 1554 1674
8 1675 1555 1672 1785 1554 1428 1552 1671
8 1678 1556 1673 1789 1558 1429 1555 1675
8 1561 1431 1558 1681 1674 1554 1675 1790
8 1794 1677 1556 1678 1680 1557 1429 1558
8 1560 1430 1559 1683 1680 1557 1679 1797
8 1561 1431 1560 1684 1681 1558 1680 1798
8 1563 1433 1564 1686 1683 1559 1682 1800
8 1684 1560 1432 1562 1801 1683 1563 1685
8 1565 1435 1566 1688 1685 1563 1686 1802
8 1566 1436 1567 1689 1686 1564 1687 1803
8 1568 1438 1569 1691 1688 1566 1689 1805
8 1569 1439 1570 1692 1689 1567 1690 1806
8 1571 1441 1572 1694 1691 1569 1692 1808
8 1442 1572 1692 1570 1573 1695 1809 1693
8 1574 1444 1575 1696 1694 1572 1695 1810
8 1614 1485 1592 1712 1699 1577 1697 1813
8 1579 1449 1577 1699 1701 1578 1698 1815
8 1615 1486 1614 1735 1702 1579 1699 1816
8 1701 1578 1700 1818 1581 1450 1580 1704
8 1582 1451 1579 1702 1705 1581 1701 1819
8 1704 1580 1703 1820 1584 1452 1583 1706
8 1705 1581 1704 1821 1585 1453 1584 1707
8 1707 1584 1706 1822 1587 1456 1586 1708
8 1710 1589 1506 1633 1824 1709 1632 1751
8 1594 1463 1589 1710 1716 1593 1709 1824
8 1752 1633 1710 1825 1634 1507 1590 1711
8 1595 1464 1590 1711 1717 1594 1710 1825
8 1830 1714 1592 1712 1733 1611 1485 1614
8 1603 1477 1593 1716 1725 1607 1715 1834
8 1599 1473 1594 1717 1721 1603 1716 1835
8 1837 1722 1623 1736 1718 1600 1496 1616
8 1719 1601 1722 1837 1597 1471 1600 1718
8 1602 1720 1598 1472 1723 1838 1719 1601
8 1720 1602 1473 1599 1839 1724 1603 1721
8 1723 1605 1726 1840 1601 1475 1604 1722
8 1840 1726 1628 1743 1722 1604 1501 1623
8 1724 1606 1727 1841 1602 1476 1605 1723
8 1725 1607 1728 1842 1603 1477 1606 1724
8 1612 1482 1608 1731 1733 1611 1730 1849
8 1741 1627 1730 1849 1622 1504 1608 1731
8 1613 1483 1609 1732 1734 1612 1731 1850
8 1618 1495 1622 1738 1732 1609 1731 1850
8 1615 1486 1612 1734 1735 1614 1733 1851
8 1852 1743 1626 1737 1736 1623 1499 1617
8 1853 1745 1625 1739 1737 1626 1500 1619
8 1855 1742 1622 1738 1740 1624 1497 1621
8 1856 1744 1624 1740 1739 1625 1498 1620
8 1741 1627 1504 1622 1857 1746 1631 1742
8 1742 1631 1505 1624 1858 1749 1630 1744
8 1859 1747 1629 1745 1743 1628 1502 1626
8 1860 1748 1630 1744 1745 1629 1503 1625
8 1644 1528 1651 1761 1751 1632 1750 1865
8 1637 1520 1644 1755 1752 1633 1751 1866
8 1754 1646 1522 1636 1867 1760 1643 1753
8 1657 1535 1658 1774 1753 1643 1760 1867
8 1639 1523 1646 1754 1756 1648 1763 1868
8 1641 1521 1645 1758 1755 1644 1761 1869
8 1757 1649 1526 1640 1870 1766 1648 1756
8 1642 1525 1649 1757 1759 1647 1765 1871
8 1759 1647 1762 1872 1642 1525 1645 1758
8 1760 1650 1767 1874 1646 1531 1655 1763
8 1658 1536 1659 1775 1760 1650 1767 1874
8 1762 1652 1768 1875 1645 1529 1651 1761
8 1764 1653 1769 1876 1647 1530 1652 1762
8 1656 1766 1877 1773 1532 1648 1763 1655
8 1771 1879 1765 1654 1653 1764 1647 1530
8 1533 1649 1765 1654 1656 1766 1880 1772
8 1662 1542 1664 1778 1774 1658 1775 1887
8 1664 1543 1665 1779 1775 1659 1776 1888
8 1778 1664 1541 1661 1890 1779 1663 1777
8 1666 1548 1668 1781 1777 1663 1779 1890
8 1782 1669 1780 1891 1668 1550 1665 1779
8 1670 1551 1671 1784 1781 1668 1782 1893
8 1671 1552 1672 1785 1782 1669 1783 1894
8 1790 1675 1785 1896 1674 1554 1671 1784
8 1675 1555 1673 1789 1785 1672 1786 1897
8 1792 1676 1788 1903 1678 1556 1673 1789
8 1795 1678 1789 1904 1681 1558 1675 1790
8 1792 1676 1556 1678 1906 1791 1677 1794
8 1680 1557 1679 1797 1794 1677 1793 1909
8 1910 1794 1678 1795 1798 1680 1558 1681
8 1683 1559 1682 1800 1797 1679 1796 1912
8 1684 1560 1683 1801 1798 1680 1797 1913
8 1686 1564 1687 1803 1800 1682 1799 1915
8 1685 1563 1686 1802 1801 1683 1800 1916
8 1688 1566 1689 1805 1802 1686 1803 1917
8 1689 1567 1690 1806 1803 1687 1804 1918
8 1691 1569 1692 1808 1805 1689 1806 1920
8 1692 1570 1693 1809 1806 1690 1807 1921
8 1694 1572 1695 1810 1808 1692 1809 1922
8 1829 1713 1811 1926 1712 1592 1697 1813
8 1813 1697 1812 1928 1699 1577 1698 1815
8 1735 1614 1712 1828 1816 1699 1813 1929
8 1815 1698 1814 1931 1701 1578 1700 1818
8 1702 1579 1699 1816 1819 1701 1815 1932
8 1818 1700 1817 1933 1704 1580 1703 1820
8 1819 1701 1818 1934 1705 1581 1704 1821
8 1821 1704 1820 1935 1707 1584 1706 1822
8 1824 1709 1632 1751 1937 1823 1750 1865
8 1716 1593 1709 1824 1834 1715 1823 1937
8 1825 1710 1633 1752 1938 1824 1751 1866
8 1717 1594 1710 1825 1835 1716 1824 1938
8 1945 1830 1712 1828 1851 1733 1614 1735
8 1830 1714 1831 1946 1712 1592 1713 1829
8 1947 1832 1714 1830 1849 1730 1611 1733
8 1843 1729 1607 1725 1950 1833 1715 1834
8 1721 1603 1716 1835 1836 1725 1834 1951
8 1836 1725 1842 1953 1721 1603 1724 1839
8 1723 1838 1719 1601 1840 1954 1837 1722
8 1954 1840 1743 1852 1837 1722 1623 1736
8 1724 1839 1720 1602 1841 1955 1838 1723
8 1841 1727 1844 1956 1723 1605 1726 1840
8 1956 1844 1747 1859 1840 1726 1628 1743
8 1728 1842 1724 1606 1845 1957 1841 1727
8 1725 1607 1729 1843 1842 1728 1846 1958
8 1741 1627 1746 1857 1849 1730 1848 1965
8 1734 1612 1731 1850 1851 1733 1849 1966
8 1854 1741 1849 1966 1738 1622 1731 1850
8 1967 1859 1745 1853 1852 1743 1626 1737
8 1968 1860 1744 1856 1853 1745 1625 1739
8 1854 1741 1622 1738 1969 1857 1742 1855
8 1855 1742 1624 1740 1970 1858 1744 1856
8 1857 1746 1631 1742 1971 1861 1749 1858
8 1858 1749 1630 1744 1972 1863 1748 1860
8 1859 1747 1862 1973 1745 1629 1748 1860
8 1875 1768 1864 1977 1761 1651 1750 1865
8 1755 1644 1761 1869 1866 1751 1865 1978
8 1867 1760 1874 1979 1754 1646 1763 1868
8 1774 1658 1775 1887 1867 1760 1874 1979
8 1870 1766 1648 1756 1980 1877 1763 1868
8 1872 1762 1875 1981 1758 1645 1761 1869
8 1757 1649 1766 1870 1871 1765 1880 1982
8 1983 1879 1764 1873 1871 1765 1647 1759
8 1873 1764 1876 1984 1759 1647 1762 1872
8 1877 1773 1655 1763 1986 1881 1767 1874
8 1775 1659 1776 1888 1874 1767 1881 1986
8 1876 1769 1882 1987 1762 1652 1768 1875
8 1878 1770 1883 1988 1764 1653 1769 1876
8 1880 1772 1656 1766 1989 1886 1773 1877
8 1878 1770 1653 1764 1990 1884 1771 1879
8 1765 1654 1772 1880 1879 1771 1885 1991
8 1778 1664 1779 1890 1887 1775 1888 1997
8 1998 1889 1776 1888 1891 1780 1665 1779
8 1893 1782 1891 2000 1781 1668 1779 1890
8 1894 1783 1892 2001 1782 1669 1780 1891
8 1784 1671 1785 1896 1893 1782 1894 2003
8 1897 1786 1895 2004 1785 1672 1783 1894
8 1790 1675 1789 1904 1896 1785 1897 2006
8 1901 1787 1898 2007 1789 1673 1786 1897
8 1903 1788 1900 2013 1789 1673 1787 1901
8 1792 1676 1791 1906 1903 1788 1902 2016
8 1907 1792 1903 2017 1795 1678 1789 1904
8 1906 1791 1677 1794 2019 1905 1793 1909
8 1907 1792 1678 1795 2020 1906 1794 1910
8 1797 1679 1796 1912 1909 1793 1908 2022
8 1798 1680 1797 1913 1910 1794 1909 2023
8 1800 1682 1799 1915 1912 1796 1911 2025
8 1801 1683 1800 1916 1913 1797 1912 2026
8 1803 1687 1804 1918 1915 1799 1914 2028
8 1802 1686 1803 1917 1916 1800 1915 2029
8 1805 1689 1806 1920 1917 1803 1918 2030
8 1806 1690 1807 1921 1918 1804 1919 2031
8 1808 1692 1809 1922 1920 1806 1921 2032
8 1939 1826 1924 2037 1829 1713 1811 1926
8 1926 1811 1925 2039 1813 1697 1812 1928
8 1944 1829 1926 2040 1828 1712 1813 1929
8 1928 1812 1927 2042 1815 1698 1814 1931
8 1929 1813 1928 2043 1816 1699 1815 1932
8 1931 1814 1930 2044 1818 1700 1817 1933
8 1932 1815 1931 2045 1819 1701 1818 1934
8 1934 1818 1933 2046 1821 1704 1820 1935
8 2048 1936 1823 1937 1977 1864 1750 1865
8 1950 1833 1715 1834 2048 1936 1823 1937
8 1938 1824 1751 1866 2049 1937 1865 1978
8 1835 1716 1824 1938 1951 1834 1937 2049
8 1939 1826 1713 1829 2053 1942 1831 1946
8 1940 1827 1923 2035 2053 1942 1826 1939
8 1945 1830 1946 2058 1828 1712 1829 1944
8 2059 1947 1830 1945 1966 1849 1733 1851
8 1947 1832 1730 1849 2060 1948 1848 1965
8 1947 1832 1948 2060 1830 1714 1831 1946
8 1959 1847 1729 1843 2063 1949 1833 1950
8 1952 1843 1725 1836 2064 1950 1834 1951
8 1836 1725 1843 1952 1953 1842 1958 2066
8 1953 1842 1957 2067 1839 1724 1841 1955
8 1841 1955 1838 1723 1956 2068 1954 1840
8 2068 1956 1859 1967 1954 1840 1743 1852
8 1956 1844 1960 2069 1859 1747 1862 1973
8 1845 1957 1841 1727 1960 2069 1956 1844
8 1728 1842 1957 1845 1846 1958 2071 1961
8 1962 2072 1959 1847 1846 1958 1843 1729
8 1971 1861 1964 2077 1857 1746 1848 1965
8 1854 1741 1857 1969 1966 1849 1965 2078
8 1967 1859 1973 2079 1853 1745 1860 1968
8 1970 1858 1744 1856 2080 1972 1860 1968
8 1969 1857 1742 1855 2081 1971 1858 1970
8 1971 1861 1749 1858 2082 1974 1863 1972
8 1973 1862 1975 2083 1860 1748 1863 1972
8 1987 1882 1976 2086 1875 1768 1864 1977
8 1981 1875 1977 2087 1869 1761 1865 1978
8 1980 1877 1763 1868 2088 1986 1874 1979
8 1887 1775 1888 1997 1979 1874 1986 2088
8 1880 1982 2089 1989 1766 1870 1980 1877
8 1984 1876 1987 2090 1872 1762 1875 1981
8 1765 1871 1983 1879 1880 1982 2091 1991
8 1985 1878 1764 1873 2092 1990 1879 1983
8 1985 1878 1988 2093 1873 1764 1876 1984
8 2094 1992 1881 1986 1998 1889 1776 1888
8 1986 1881 1992 2094 1877 1773 1886 1989
8 1988 1883 1993 2095 1876 1769 1882 1987
8 1878 1770 1884 1990 1988 1883 1994 2096
8 1991 1885 1772 1880 2097 1996 1886 1989
8 1879 1771 1885 1991 1990 1884 1995 2098
8 2103 1998 1888 1997 2000 1891 1779 1890
8 2104 1999 1889 1998 2001 1892 1780 1891
8 2003 1894 2001 2106 1893 1782 1891 2000
8 2004 1895 2002 2107 1894 1783 1892 2001
8 2006 1897 2004 2109 1896 1785 1894 2003
8 2007 1898 2005 2110 1897 1786 1895 2004
8 2014 1901 2007 2112 1904 1789 1897 2006
8 2011 1899 2008 2113 1901 1787 1898 2007
8 2119 2010 1899 2011 2013 1900 1787 1901
8 2016 1902 2012 2122 1903 1788 1900 2013
8 2017 1903 2013 2123 1904 1789 1901 2014
8 1906 1791 1905 2019 2016 1902 2015 2125
8 1907 1792 1906 2020 2017 1903 2016 2126
8 1909 1793 1908 2022 2019 1905 2018 2128
8 2020 1906 1794 1910 2129 2019 1909 2023
8 1912 1796 1911 2025 2022 1908 2021 2131
8 1913 1797 1912 2026 2023 1909 2022 2132
8 1915 1799 1914 2028 2025 1911 2024 2134
8 1916 1800 1915 2029 2026 1912 2025 2135
8 1918 1804 1919 2031 2028 1914 2027 2136
8 1917 1803 1918 2030 2029 1915 2028 2137
8 1920 1806 1921 2032 2030 1918 2031 2138
8 1940 1827 1941 2054 2035 1923 2033 2140
8 2035 1923 2034 2143 1939 1826 1924 2037
8 2037 1924 2036 2146 1926 1811 1925 2039
8 2051 1939 2037 2147 1944 1829 1926 2040
8 2039 1925 2038 2149 1928 1812 1927 2042
8 2040 1926 2039 2150 1929 1813 1928 2043
8 2042 1927 2041 2151 1931 1814 1930 2044
8 2043 1928 2042 2152 1932 1815 1931 2045
8 2045 1931 2044 2153 1934 1818 1933 2046
8 2155 2047 1936 2048 2086 1976 1864 1977
8 2063 1949 1833 1950 2155 2047 1936 2048
8 2156 2048 1937 2049 2087 1977 1865 1978
8 2064 1950 1834 1951 2156 2048 1937 2049
8 2051 1939 1829 1944 2160 2053 1946 2058
8 2052 1940 2035 2144 2160 2053 1939 2051
8 2053 1942 1831 1946 2163 2057 1948 2060
8 2055 1943 1827 1940 2163 2057 1942 2053
8 2055 1943 2056 2164 1940 1827 1941 2054
8 2059 1947 1849 1966 2167 2060 1965 2078
8 2059 1947 2060 2167 1945 1830 1946 2058
8 2077 1964 2061 2168 1965 1848 1948 2060
8 2070 1963 1847 1959 2170 2062 1949 2063
8 2065 1959 1843 1952 2171 2063 1950 2064
8 2173 2072 1958 2066 2065 1959 1843 1952
8 1953 1842 1958 2066 2067 1957 2071 2174
8 2068 1956 2069 2175 1967 1859 1973 2079
8 2067 1957 2069 2175 1955 1841 1956 2068
8 1845 1957 2069 1960 1961 2071 2176 2073
8 2069 1960 2073 2176 1973 1862 1975 2083
8 2070 1963 2075 2177 1959 1847 1962 2072
8 1846 1958 2071 1961 1962 2072 2178 2074
8 2077 1964 1861 1971 2182 2076 1974 2082
8 2081 1971 2077 2183 1969 1857 1965 2078
8 2079 1973 2083 2184 1968 1860 1972 2080
8 2081 1971 1858 1970 2185 2082 1972 2080
8 2083 1975 2084 2186 1972 1863 1974 2082
8 2086 1976 1882 1987 2189 2085 1993 2095
8 2090 1987 2086 2190 1981 1875 1977 2087
8 2191 2094 1986 2088 2103 1998 1888 1997
8 2088 1986 2094 2191 1980 1877 1989 2089
8 1991 2091 2192 2097 1880 1982 2089 1989
8 2093 1988 2095 2193 1984 1876 1987 2090
8 1879 1983 2092 1990 1991 2091 2194 2098
8 1985 1878 1990 2092 2093 1988 2096 2195
8 2097 1996 1886 1989 2196 2099 1992 2094
8 2196 2099 1992 2094 2104 1999 1889 1998
8 1994 2096 1988 1883 2100 2197 2095 1993
8 2096 1994 1884 1990 2198 2101 1995 2098
8 1995 2098 2199 2102 1885 1991 2097 1996
8 2203 2104 1998 2103 2106 2001 1891 2000
8 2107 2002 2105 2204 2001 1892 1999 2104
8 2109 2004 2107 2206 2003 1894 2001 2106
8 2110 2005 2108 2207 2004 1895 2002 2107
8 2112 2007 2110 2209 2006 1897 2004 2109
8 2113 2008 2111 2210 2007 1898 2005 2110
8 2120 2011 2113 2212 2014 1901 2007 2112
8 2117 2009 2114 2213 2011 1899 2008 2113
8 2219 2116 2009 2117 2119 2010 1899 2011
8 2222 2118 2010 2119 2122 2012 1900 2013
8 2223 2119 2011 2120 2123 2013 1901 2014
8 2016 1902 2015 2125 2122 2012 2121 2225
8 2126 2016 2122 2226 2017 1903 2013 2123
8 2019 1905 2018 2128 2125 2015 2124 2228
8 2020 1906 2019 2129 2126 2016 2125 2229
8 2022 1908 2021 2131 2128 2018 2127 2231
8 2023 1909 2022 2132 2129 2019 2128 2232
8 2025 1911 2024 2134 2131 2021 2130 2234
8 2026 1912 2025 2135 2132 2022 2131 2235
8 1914 2028 2134 2024 2027 2136 2236 2133
8 2029 1915 2028 2137 2135 2025 2134 2237
8 2030 1918 2031 2138 2137 2028 2136 2238
8 2157 2050 2139 2240 2054 1941 2033 2140
8 2052 1940 2054 2161 2144 2035 2140 2242
8 2140 2033 2141 2243 2035 1923 2034 2143
8 2143 2034 2142 2246 2037 1924 2036 2146
8 2144 2035 2143 2247 2051 1939 2037 2147
8 2146 2036 2145 2249 2039 1925 2038 2149
8 2147 2037 2146 2250 2040 1926 2039 2150
8 2149 2038 2148 2251 2042 1927 2041 2151
8 2150 2039 2149 2252 2043 1928 2042 2152
8 2152 2042 2151 2253 2045 1931 2044 2153
8 2255 2154 2047 2155 2189 2085 1976 2086
8 2170 2062 1949 2063 2255 2154 2047 2155
8 2256 2155 2048 2156 2190 2086 1977 2087
8 2171 2063 1950 2064 2256 2155 2048 2156
8 2258 2159 2050 2157 2164 2056 1941 2054
8 2160 2053 1946 2058 2262 2163 2060 2167
8 2162 2055 1940 2052 2262 2163 2053 2160
8 2162 2055 2164 2263 2052 1940 2054 2161
8 2163 2057 1948 2060 2264 2165 2061 2168
8 2055 1943 2057 2163 2164 2056 2165 2264
8 2182 2076 2166 2268 2077 1964 2061 2168
8 2183 2077 2168 2269 2078 1965 2060 2167
8 2070 1963 2062 2170 2177 2075 2169 2271
8 2172 2070 1959 2065 2272 2170 2063 2171
8 2172 2070 2177 2273 2065 1959 2072 2173
8 2066 1958 2072 2173 2174 2071 2178 2274
8 2067 1957 2071 2174 2175 2069 2176 2275
8 2175 2069 2176 2275 2079 1973 2083 2184
8 2071 1961 2074 2178 2176 2073 2179 2276
8 2176 2073 2179 2276 2083 1975 2084 2186
8 2072 1962 2075 2177 2178 2074 2180 2277
8 2182 2076 1974 2082 2280 2181 2084 2186
8 2183 2077 1971 2081 2281 2182 2082 2185
8 2184 2083 2186 2282 2080 1972 2082 2185
8 2189 2085 1993 2095 2285 2188 2100 2197
8 2190 2086 1987 2090 2286 2189 2095 2193
8 2192 2097 1989 2089 2287 2196 2094 2191
8 2287 2196 2094 2191 2203 2104 1998 2103
8 2194 2098 1991 2091 2288 2199 2097 2192
8 2195 2096 2197 2289 2093 1988 2095 2193
8 2096 2195 2290 2198 1990 2092 2194 2098
8 2097 1996 2099 2196 2199 2102 2200 2291
8 2196 2099 1999 2104 2291 2200 2105 2204
8 2100 2197 2292 2201 1994 2096 2198 2101
8 1995 2098 2198 2101 2102 2199 2293 2202
8 2206 2107 2204 2296 2106 2001 2104 2203
8 2207 2108 2205 2297 2107 2002 2105 2204
8 2209 2110 2207 2299 2109 2004 2107 2206
8 2210 2111 2208 2300 2110 2005 2108 2207
8 2212 2113 2210 2302 2112 2007 2110 2209
8 2213 2114 2211 2303 2113 2008 2111 2210
8 2220 2117 2213 2305 2120 2011 2113 2212
8 2216 2115 2214 2306 2117 2009 2114 2213
8 2216 2115 2009 2117 2311 2217 2116 2219
8 2219 2116 2010 2119 2314 2218 2118 2222
8 2315 2219 2117 2220 2223 2119 2011 2120
8 2122 2012 2121 2225 2222 2118 2221 2317
8 2318 2222 2119 2223 2226 2122 2013 2123
8 2125 2015 2124 2228 2225 2121 2224 2320
8 2126 2016 2125 2229 2226 2122 2225 2321
8 2128 2018 2127 2231 2228 2124 2227 2323
8 2129 2019 2128 2232 2229 2125 2228 2324
8 2131 2021 2130 2234 2231 2127 2230 2326
8 2132 2022 2131 2235 2232 2128 2231 2327
8 2134 2024 2133 2236 2234 2130 2233 2328
8 2135 2025 2134 2237 2235 2131 2234 2329
8 2137 2028 2136 2238 2237 2134 2236 2330
8 2157 2050 2158 2259 2240 2139 2239 2332
8 2257 2157 2240 2334 2161 2054 2140 2242
8 2240 2139 2241 2335 2140 2033 2141 2243
8 2242 2140 2243 2337 2144 2035 2143 2247
8 2243 2141 2244 2338 2143 2034 2142 2246
8 2246 2142 2245 2341 2146 2036 2145 2249
8 2247 2143 2246 2342 2147 2037 2146 2250
8 2249 2145 2248 2343 2149 2038 2148 2251
8 2250 2146 2249 2344 2150 2039 2149 2252
8 2252 2149 2251 2345 2152 2042 2151 2253
8 2169 2271 2347 2254 2062 2170 2255 2154
8 2189 2085 2188 2285 2255 2154 2254 2347
8 2348 2255 2155 2256 2286 2189 2086 2190
8 2272 2170 2063 2171 2348 2255 2155 2256
8 2349 2258 2157 2257 2263 2164 2054 2161
8 2258 2159 2261 2351 2157 2050 2158 2259
8 2258 2159 2056 2164 2351 2261 2165 2264
8 2262 2163 2060 2167 2355 2264 2168 2269
8 2162 2055 2163 2262 2263 2164 2264 2355
8 2357 2266 2165 2264 2268 2166 2061 2168
8 2268 2166 2076 2182 2361 2267 2181 2280
8 2281 2182 2268 2362 2183 2077 2168 2269
8 2271 2169 2270 2364 2177 2075 2180 2277
8 2172 2070 2170 2272 2273 2177 2271 2365
8 2072 2173 2274 2178 2177 2273 2366 2277
8 2071 2174 2275 2176 2178 2274 2367 2276
8 2275 2176 2276 2367 2184 2083 2186 2282
8 2283 2187 2084 2186 2368 2278 2179 2276
8 2178 2074 2180 2277 2276 2179 2278 2368
8 2283 2187 2279 2370 2186 2084 2181 2280
8 2281 2182 2082 2185 2371 2280 2186 2282
8 2188 2285 2374 2284 2100 2197 2292 2201
8 2286 2189 2095 2193 2375 2285 2197 2289
8 2192 2097 2196 2287 2288 2199 2291 2376
8 2287 2196 2104 2203 2376 2291 2204 2296
8 2194 2098 2199 2288 2290 2198 2293 2377
8 2289 2197 2096 2195 2378 2292 2198 2290
8 2291 2200 2105 2204 2379 2294 2205 2297
8 2199 2102 2200 2291 2293 2202 2294 2379
8 2198 2101 2202 2293 2292 2201 2295 2380
8 2299 2207 2297 2383 2206 2107 2204 2296
8 2300 2208 2298 2384 2207 2108 2205 2297
8 2302 2210 2300 2386 2209 2110 2207 2299
8 2303 2211 2301 2387 2210 2111 2208 2300
8 2305 2213 2303 2389 2212 2113 2210 2302
8 2306 2214 2304 2390 2213 2114 2211 2303
8 2310 2216 2306 2392 2220 2117 2213 2305
8 2308 2215 2307 2393 2216 2115 2214 2306
8 2308 2215 2115 2216 2396 2309 2217 2311
8 2310 2216 2117 2220 2398 2311 2219 2315
8 2311 2217 2116 2219 2399 2312 2218 2314
8 2314 2218 2118 2222 2402 2313 2221 2317
8 2315 2219 2119 2223 2403 2314 2222 2318
8 2225 2121 2224 2320 2317 2221 2316 2405
8 2226 2122 2225 2321 2318 2222 2317 2406
8 2228 2124 2227 2323 2320 2224 2319 2408
8 2229 2125 2228 2324 2321 2225 2320 2409
8 2231 2127 2230 2326 2323 2227 2322 2411
8 2232 2128 2231 2327 2324 2228 2323 2412
8 2234 2130 2233 2328 2326 2230 2325 2413
8 2235 2131 2234 2329 2327 2231 2326 2414
8 2237 2134 2236 2330 2329 2234 2328 2415
8 2259 2158 2260 2352 2332 2239 2331 2417
8 2257 2157 2259 2350 2334 2240 2332 2419
8 2240 2139 2239 2332 2335 2241 2333 2420
8 2334 2240 2335 2422 2242 2140 2243 2337
8 2335 2241 2336 2423 2243 2141 2244 2338
8 2337 2243 2338 2425 2247 2143 2246 2342
8 2338 2244 2339 2426 2246 2142 2245 2341
8 2341 2245 2340 2428 2249 2145 2248 2343
8 2342 2246 2341 2429 2250 2146 2249 2344
8 2344 2249 2343 2430 2252 2149 2251 2345
8 2188 2285 2347 2254 2284 2374 2432 2346
8 2347 2254 2346 2432 2271 2169 2270 2364
8 2365 2271 2170 2272 2433 2347 2255 2348
8 2286 2189 2285 2375 2348 2255 2347 2433
8 2349 2258 2351 2435 2257 2157 2259 2350
8 2349 2258 2164 2263 2435 2351 2264 2355
8 2259 2158 2261 2351 2352 2260 2354 2437
8 2356 2265 2354 2437 2264 2165 2261 2351
8 2441 2357 2264 2355 2362 2268 2168 2269
8 2356 2265 2165 2264 2442 2358 2266 2357
8 2443 2359 2266 2357 2361 2267 2166 2268
8 2370 2279 2360 2446 2280 2181 2267 2361
8 2362 2268 2182 2281 2447 2361 2280 2371
8 2180 2277 2368 2278 2270 2364 2449 2363
8 2271 2365 2273 2177 2364 2450 2366 2277
8 2372 2283 2186 2282 2451 2368 2276 2367
8 2178 2274 2367 2276 2277 2366 2451 2368
8 2283 2187 2278 2368 2370 2279 2369 2452
8 2372 2283 2370 2453 2282 2186 2280 2371
8 2284 2374 2455 2373 2201 2292 2380 2295
8 2375 2285 2197 2289 2456 2374 2292 2378
8 2376 2291 2204 2296 2457 2379 2297 2383
8 2288 2199 2291 2376 2377 2293 2379 2457
8 2198 2290 2378 2292 2293 2377 2458 2380
8 2293 2202 2294 2379 2380 2295 2381 2459
8 2384 2298 2381 2459 2297 2205 2294 2379
8 2386 2300 2384 2463 2299 2207 2297 2383
8 2387 2301 2385 2464 2300 2208 2298 2384
8 2389 2303 2387 2466 2302 2210 2300 2386
8 2390 2304 2388 2467 2303 2211 2301 2387
8 2392 2306 2390 2469 2305 2213 2303 2389
8 2393 2307 2391 2470 2306 2214 2304 2390
8 2395 2308 2393 2472 2310 2216 2306 2392
8 2308 2215 2309 2396 2393 2307 2394 2473
8 2395 2308 2216 2310 2475 2396 2311 2398
8 2396 2309 2217 2311 2476 2397 2312 2399
8 2398 2311 2219 2315 2478 2399 2314 2403
8 2399 2312 2218 2314 2479 2400 2313 2402
8 2317 2221 2316 2405 2402 2313 2401 2482
8 2403 2314 2222 2318 2483 2402 2317 2406
8 2320 2224 2319 2408 2405 2316 2404 2485
8 2321 2225 2320 2409 2406 2317 2405 2486
8 2323 2227 2322 2411 2408 2319 2407 2488
8 2324 2228 2323 2412 2409 2320 2408 2489
8 2326 2230 2325 2413 2411 2322 2410 2490
8 2327 2231 2326 2414 2412 2323 2411 2491
8 2329 2234 2328 2415 2414 2326 2413 2492
8 2417 2331 2260 2352 2494 2416 2353 2438
8 2350 2259 2352 2436 2419 2332 2417 2496
8 2332 2239 2331 2417 2420 2333 2418 2497
8 2334 2240 2332 2419 2422 2335 2420 2499
8 2420 2333 2421 2500 2335 2241 2336 2423
8 2422 2335 2423 2502 2337 2243 2338 2425
8 2423 2336 2424 2503 2338 2244 2339 2426
8 2425 2338 2426 2505 2342 2246 2341 2429
8 2426 2339 2427 2506 2341 2245 2340 2428
8 2429 2341 2428 2507 2344 2249 2343 2430
8 2432 2346 2284 2374 2509 2431 2373 2455
8 2432 2346 2431 2509 2364 2270 2363 2449
8 2375 2285 2374 2456 2433 2347 2432 2510
8 2347 2433 2365 2271 2432 2510 2450 2364
8 2350 2259 2351 2435 2436 2352 2437 2514
8 2440 2356 2437 2514 2355 2264 2351 2435
8 2352 2260 2354 2437 2438 2353 2439 2516
8 2356 2265 2358 2442 2437 2354 2439 2516
8 2440 2356 2264 2355 2518 2442 2357 2441
8 2519 2443 2357 2441 2447 2361 2268 2362
8 2443 2359 2444 2520 2357 2266 2358 2442
8 2443 2359 2267 2361 2520 2444 2360 2446
8 2446 2360 2279 2370 2523 2445 2369 2452
8 2453 2370 2446 2524 2371 2280 2361 2447
8 2449 2363 2448 2525 2368 2278 2369 2452
8 2366 2277 2364 2450 2451 2368 2449 2526
8 2372 2283 2368 2451 2453 2370 2452 2527
8 2455 2373 2295 2380 2529 2454 2382 2460
8 2456 2374 2292 2378 2530 2455 2380 2458
8 2377 2293 2379 2457 2458 2380 2459 2531
8 2463 2384 2459 2531 2383 2297 2379 2457
8 2533 2461 2382 2460 2459 2381 2295 2380
8 2464 2385 2461 2533 2384 2298 2381 2459
8 2466 2387 2464 2537 2386 2300 2384 2463
8 2467 2388 2465 2538 2387 2301 2385 2464
8 2469 2390 2467 2540 2389 2303 2387 2466
8 2470 2391 2468 2541 2390 2304 2388 2467
8 2472 2393 2470 2543 2392 2306 2390 2469
8 2393 2307 2394 2473 2470 2391 2471 2544
8 2395 2308 2396 2475 2472 2393 2473 2546
8 2396 2309 2397 2476 2473 2394 2474 2547
8 2475 2396 2311 2398 2549 2476 2399 2478
8 2476 2397 2312 2399 2550 2477 2400 2479
8 2478 2399 2314 2403 2552 2479 2402 2483
8 2479 2400 2313 2402 2553 2480 2401 2482
8 2405 2316 2404 2485 2482 2401 2481 2556
8 2406 2317 2405 2486 2483 2402 2482 2557
8 2408 2319 2407 2488 2485 2404 2484 2559
8 2409 2320 2408 2489 2486 2405 2485 2560
8 2411 2322 2410 2490 2488 2407 2487 2561
8 2412 2323 2411 2491 2489 2408 2488 2562
8 2414 2326 2413 2492 2491 2411 2490 2563
8 2513 2434 2493 2565 2438 2353 2416 2494
8 2496 2417 2352 2436 2567 2494 2438 2515
8 2494 2416 2495 2568 2417 2331 2418 2497
8 2419 2332 2417 2496 2499 2420 2497 2570
8 2497 2418 2498 2571 2420 2333 2421 2500
8 2499 2420 2500 2573 2422 2335 2423 2502
8 2500 2421 2501 2574 2423 2336 2424 2503
8 2502 2423 2503 2576 2425 2338 2426 2505
8 2503 2424 2504 2577 2426 2339 2427 2506
8 2505 2426 2506 2578 2429 2341 2428 2507
8 2509 2431 2373 2455 2580 2508 2454 2529
8 2509 2431 2508 2580 2449 2363 2448 2525
8 2432 2510 2581 2509 2374 2456 2530 2455
8 2432 2510 2450 2364 2509 2581 2526 2449
8 2583 2511 2434 2513 2516 2439 2353 2438
8 2436 2352 2437 2514 2515 2438 2516 2588
8 2440 2356 2442 2518 2514 2437 2516 2588
8 2442 2358 2444 2520 2516 2439 2517 2589
8 2519 2443 2520 2591 2441 2357 2442 2518
8 2519 2443 2361 2447 2591 2520 2446 2524
8 2446 2360 2445 2523 2520 2444 2521 2592
8 2525 2448 2522 2593 2452 2369 2445 2523
8 2524 2446 2370 2453 2594 2523 2452 2527
8 2526 2449 2525 2595 2451 2368 2452 2527
8 2534 2462 2528 2597 2460 2382 2454 2529
8 2530 2455 2380 2458 2598 2529 2460 2532
8 2599 2533 2460 2532 2531 2459 2380 2458
8 2537 2464 2533 2599 2463 2384 2459 2531
8 2534 2462 2382 2460 2601 2535 2461 2533
8 2538 2465 2535 2601 2464 2385 2461 2533
8 2540 2467 2538 2604 2466 2387 2464 2537
8 2541 2468 2539 2605 2467 2388 2465 2538
8 2543 2470 2541 2607 2469 2390 2467 2540
8 2470 2391 2471 2544 2541 2468 2542 2608
8 2472 2393 2473 2546 2543 2470 2544 2610
8 2473 2394 2474 2547 2544 2471 2545 2611
8 2475 2396 2476 2549 2546 2473 2547 2613
8 2476 2397 2477 2550 2547 2474 2548 2614
8 2549 2476 2399 2478 2616 2550 2479 2552
8 2479 2400 2480 2553 2550 2477 2551 2617
8 2552 2479 2402 2483 2619 2553 2482 2557
8 2482 2401 2481 2556 2553 2480 2554 2620
8 2485 2404 2484 2559 2556 2481 2555 2623
8 2486 2405 2485 2560 2557 2482 2556 2624
8 2488 2407 2487 2561 2559 2484 2558 2625
8 2489 2408 2488 2562 2560 2485 2559 2626
8 2491 2411 2490 2563 2562 2488 2561 2627
8 2513 2434 2512 2585 2565 2493 2564 2630
8 2586 2513 2565 2632 2515 2438 2494 2567
8 2565 2493 2566 2633 2494 2416 2495 2568
8 2567 2494 2568 2635 2496 2417 2497 2570
8 2568 2495 2569 2636 2497 2418 2498 2571
8 2570 2497 2571 2638 2499 2420 2500 2573
8 2571 2498 2572 2639 2500 2421 2501 2574
8 2573 2500 2574 2641 2502 2423 2503 2576
8 2574 2501 2575 2642 2503 2424 2504 2577
8 2576 2503 2577 2643 2505 2426 2506 2578
8 2597 2528 2579 2645 2529 2454 2508 2580
8 2580 2508 2579 2645 2525 2448 2522 2593
8 2581 2509 2455 2530 2646 2580 2529 2598
8 2581 2509 2580 2646 2526 2449 2525 2595
8 2583 2511 2582 2648 2513 2434 2512 2585
8 2583 2511 2439 2516 2648 2582 2517 2589
8 2649 2583 2513 2586 2588 2516 2438 2515
8 2589 2517 2444 2520 2653 2587 2521 2592
8 2518 2442 2520 2591 2588 2516 2589 2654
8 2593 2522 2590 2655 2523 2445 2521 2592
8 2524 2446 2523 2594 2591 2520 2592 2656
8 2595 2525 2593 2657 2527 2452 2523 2594
8 2602 2536 2596 2659 2534 2462 2528 2597
8 2600 2534 2597 2660 2532 2460 2529 2598
8 2600 2534 2460 2532 2661 2601 2533 2599
8 2604 2538 2601 2661 2537 2464 2533 2599
8 2602 2536 2462 2534 2663 2603 2535 2601
8 2601 2535 2465 2538 2663 2603 2539 2605
8 2607 2541 2605 2665 2540 2467 2538 2604
8 2608 2542 2606 2666 2541 2468 2539 2605
8 2543 2470 2544 2610 2607 2541 2608 2668
8 2544 2471 2545 2611 2608 2542 2609 2669
8 2546 2473 2547 2613 2610 2544 2611 2671
8 2547 2474 2548 2614 2611 2545 2612 2672
8 2549 2476 2550 2616 2613 2547 2614 2674
8 2550 2477 2551 2617 2614 2548 2615 2675
8 2552 2479 2553 2619 2616 2550 2617 2677
8 2553 2480 2554 2620 2617 2551 2618 2678
8 2557 2482 2556 2624 2619 2553 2620 2680
8 2556 2481 2555 2623 2620 2554 2621 2681
8 2559 2484 2558 2625 2623 2555 2622 2683
8 2560 2485 2559 2626 2624 2556 2623 2684
8 2562 2488 2561 2627 2626 2559 2625 2685
8 2690 2629 2564 2630 2650 2584 2512 2585
8 2586 2513 2585 2651 2632 2565 2630 2691
8 2630 2564 2631 2692 2565 2493 2566 2633
8 2632 2565 2633 2694 2567 2494 2568 2635
8 2633 2566 2634 2695 2568 2495 2569 2636
8 2635 2568 2636 2697 2570 2497 2571 2638
8 2636 2569 2637 2698 2571 2498 2572 2639
8 2638 2571 2639 2700 2573 2500 2574 2641
8 2639 2572 2640 2701 2574 2501 2575 2642
8 2641 2574 2642 2702 2576 2503 2577 2643
8 2597 2528 2596 2659 2645 2579 2644 2704
8 2645 2579 2644 2704 2593 2522 2590 2655
8 2660 2597 2645 2705 2598 2529 2580 2646
8 2646 2580 2645 2705 2595 2525 2593 2657
8 2650 2584 2512 2585 2707 2647 2582 2648
8 2648 2582 2517 2589 2707 2647 2587 2653
8 2649 2583 2648 2708 2586 2513 2585 2651
8 2649 2583 2516 2588 2708 2648 2589 2654
8 2655 2590 2652 2710 2592 2521 2587 2653
8 2654 2589 2520 2591 2711 2653 2592 2656
8 2657 2593 2655 2712 2594 2523 2592 2656
8 2602 2536 2603 2663 2659 2596 2658 2714
8 2662 2602 2659 2715 2600 2534 2597 2660
8 2662 2602 2534 2600 2717 2663 2601 2661
8 2661 2601 2538 2604 2717 2663 2605 2665
8 2666 2606 2664 2718 2605 2539 2603 2663
8 2668 2608 2666 2720 2607 2541 2605 2665
8 2608 2542 2609 2669 2666 2606 2667 2721
8 2610 2544 2611 2671 2668 2608 2669 2723
8 2611 2545 2612 2672 2669 2609 2670 2724
8 2613 2547 2614 2674 2671 2611 2672 2726
8 2614 2548 2615 2675 2672 2612 2673 2727
8 2616 2550 2617 2677 2674 2614 2675 2729
8 2617 2551 2618 2678 2675 2615 2676 2730
8 2619 2553 2620 2680 2677 2617 2678 2732
8 2620 2554 2621 2681 2678 2618 2679 2733
8 2624 2556 2623 2684 2680 2620 2681 2735
8 2681 2621 2555 2623 2736 2682 2622 2683
8 2626 2559 2625 2685 2684 2623 2683 2737
8 2688 2628 2584 2650 2740 2686 2647 2707
8 2688 2628 2687 2742 2650 2584 2629 2690
8 2690 2629 2689 2745 2630 2564 2631 2692
8 2746 2690 2630 2691 2709 2650 2585 2651
8 2691 2630 2692 2747 2632 2565 2633 2694
8 2692 2631 2693 2748 2633 2566 2634 2695
8 2694 2633 2695 2750 2635 2568 2636 2697
8 2695 2634 2696 2751 2636 2569 2637 2698
8 2697 2636 2698 2753 2638 2571 2639 2700
8 2698 2637 2699 2754 2639 2572 2640 2701
8 2700 2639 2701 2755 2641 2574 2642 2702
8 2659 2596 2658 2714 2704 2644 2703 2757
8 2704 2644 2703 2757 2655 2590 2652 2710
8 2660 2597 2659 2715 2705 2645 2704 2758
8 2705 2645 2704 2758 2657 2593 2655 2712
8 2759 2706 2647 2707 2710 2652 2587 2653
8 2709 2650 2585 2651 2760 2707 2648 2708
8 2708 2648 2589 2654 2760 2707 2653 2711
8 2712 2655 2710 2761 2656 2592 2653 2711
8 2763 2713 2658 2714 2718 2664 2603 2663
8 2662 2602 2663 2717 2715 2659 2714 2764
8 2720 2666 2718 2767 2665 2605 2663 2717
8 2768 2719 2664 2718 2721 2667 2606 2666
8 2668 2608 2669 2723 2720 2666 2721 2770
8 2669 2609 2670 2724 2721 2667 2722 2771
8 2671 2611 2672 2726 2723 2669 2724 2773
8 2672 2612 2673 2727 2724 2670 2725 2774
8 2674 2614 2675 2729 2726 2672 2727 2776
8 2675 2615 2676 2730 2727 2673 2728 2777
8 2677 2617 2678 2732 2729 2675 2730 2779
8 2678 2618 2679 2733 2730 2676 2731 2780
8 2680 2620 2681 2735 2732 2678 2733 2782
8 2733 2679 2621 2681 2783 2734 2682 2736
8 2735 2681 2623 2684 2784 2736 2683 2737
8 2740 2686 2647 2707 2787 2738 2706 2759
8 2688 2628 2686 2740 2742 2687 2739 2789
8 2743 2688 2650 2709 2790 2740 2707 2760
8 2742 2687 2741 2792 2690 2629 2689 2745
8 2743 2688 2742 2793 2709 2650 2690 2746
8 2745 2689 2744 2795 2692 2631 2693 2748
8 2746 2690 2745 2796 2691 2630 2692 2747
8 2747 2692 2748 2797 2694 2633 2695 2750
8 2748 2693 2749 2798 2695 2634 2696 2751
8 2750 2695 2751 2800 2697 2636 2698 2753
8 2751 2696 2752 2801 2698 2637 2699 2754
8 2753 2698 2754 2802 2700 2639 2701 2755
8 2763 2713 2756 2804 2714 2658 2703 2757
8 2759 2706 2652 2710 2804 2756 2703 2757
8 2715 2659 2714 2764 2758 2704 2757 2805
8 2758 2704 2757 2805 2712 2655 2710 2761
8 2806 2759 2707 2760 2761 2710 2653 2711
8 2765 2716 2762 2808 2718 2664 2713 2763
8 2809 2763 2714 2764 2767 2718 2663 2717
8 2765 2716 2664 2718 2811 2766 2719 2768
8 2813 2768 2718 2767 2770 2721 2666 2720
8 2814 2769 2719 2768 2771 2722 2667 2721
8 2723 2669 2724 2773 2770 2721 2771 2816
8 2724 2670 2725 2774 2771 2722 2772 2817
8 2726 2672 2727 2776 2773 2724 2774 2819
8 2727 2673 2728 2777 2774 2725 2775 2820
8 2729 2675 2730 2779 2776 2727 2777 2822
8 2730 2676 2731 2780 2777 2728 2778 2823
8 2732 2678 2733 2782 2779 2730 2780 2825
8 2780 2731 2679 2733 2826 2781 2734 2783
8 2782 2733 2681 2735 2827 2783 2736 2784
8 2830 2785 2738 2787 2804 2756 2706 2759
8 2789 2739 2686 2740 2832 2786 2738 2787
8 2790 2740 2707 2760 2833 2787 2759 2806
8 2742 2687 2739 2789 2792 2741 2788 2835
8 2743 2688 2740 2790 2793 2742 2789 2836
8 2792 2741 2791 2838 2745 2689 2744 2795
8 2793 2742 2792 2839 2746 2690 2745 2796
8 2795 2744 2794 2841 2748 2693 2749 2798
8 2796 2745 2795 2842 2747 2692 2748 2797
8 2797 2748 2798 2843 2750 2695 2751 2800
8 2798 2749 2799 2844 2751 2696 2752 2801
8 2800 2751 2801 2845 2753 2698 2754 2802
8 2808 2762 2803 2847 2763 2713 2756 2804
8 2809 2763 2804 2848 2764 2714 2757 2805
8 2806 2759 2710 2761 2848 2804 2757 2805
8 2765 2716 2766 2811 2808 2762 2807 2850
8 2810 2765 2808 2851 2767 2718 2763 2809
8 2810 2765 2718 2767 2852 2811 2768 2813
8 2811 2766 2719 2768 2853 2812 2769 2814
8 2855 2814 2768 2813 2816 2771 2721 2770
8 2856 2815 2769 2814 2817 2772 2722 2771
8 2773 2724 2774 2819 2816 2771 2817 2858
8 2774 2725 2775 2820 2817 2772 2818 2859
8 2776 2727 2777 2822 2819 2774 2820 2861
8 2777 2728 2778 2823 2820 2775 2821 2862
8 2779 2730 2780 2825 2822 2777 2823 2864
8 2823 2778 2731 2780 2865 2824 2781 2826
8 2825 2780 2733 2782 2866 2826 2783 2827
8 2869 2828 2785 2830 2847 2803 2756 2804
8 2871 2829 2786 2832 2830 2785 2738 2787
8 2872 2830 2787 2833 2848 2804 2759 2806
8 2789 2739 2786 2832 2835 2788 2831 2874
8 2836 2789 2740 2790 2875 2832 2787 2833
8 2792 2741 2788 2835 2838 2791 2834 2877
8 2793 2742 2789 2836 2839 2792 2835 2878
8 2838 2791 2837 2880 2795 2744 2794 2841
8 2839 2792 2838 2881 2796 2745 2795 2842
8 2841 2794 2840 2882 2798 2749 2799 2844
8 2842 2795 2841 2883 2797 2748 2798 2843
8 2843 2798 2844 2884 2800 2751 2801 2845
8 2886 2846 2803 2847 2850 2807 2762 2808
8 2851 2808 2847 2887 2809 2763 2804 2848
8 2850 2807 2766 2811 2889 2849 2812 2853
8 2810 2765 2811 2852 2851 2808 2850 2890
8 2852 2811 2768 2813 2891 2853 2814 2855
8 2853 2812 2769 2814 2892 2854 2815 2856
8 2894 2856 2814 2855 2858 2817 2771 2816
8 2817 2772 2818 2859 2856 2815 2857 2895
8 2819 2774 2820 2861 2858 2817 2859 2897
8 2820 2775 2821 2862 2859 2818 2860 2898
8 2822 2777 2823 2864 2861 2820 2862 2900
8 2823 2778 2824 2865 2862 2821 2863 2901
8 2864 2823 2780 2825 2902 2865 2826 2866
8 2904 2867 2828 2869 2886 2846 2803 2847
8 2869 2828 2868 2906 2830 2785 2829 2871
8 2907 2869 2830 2872 2887 2847 2804 2848
8 2871 2829 2870 2909 2832 2786 2831 2874
8 2910 2871 2832 2875 2872 2830 2787 2833
8 2835 2788 2831 2874 2877 2834 2873 2912
8 2836 2789 2832 2875 2878 2835 2874 2913
8 2877 2834 2876 2915 2838 2791 2837 2880
8 2839 2792 2835 2878 2881 2838 2877 2916
8 2880 2837 2879 2917 2841 2794 2840 2882
8 2881 2838 2880 2918 2842 2795 2841 2883
8 2883 2841 2882 2919 2843 2798 2844 2884
8 2921 2885 2846 2886 2889 2849 2807 2850
8 2922 2886 2847 2887 2890 2850 2808 2851
8 2889 2849 2812 2853 2924 2888 2854 2892
8 2890 2850 2811 2852 2925 2889 2853 2891
8 2891 2853 2814 2855 2926 2892 2856 2894
8 2892 2854 2815 2856 2927 2893 2857 2895
8 2858 2817 2859 2897 2894 2856 2895 2929
8 2859 2818 2860 2898 2895 2857 2896 2930
8 2861 2820 2862 2900 2897 2859 2898 2932
8 2862 2821 2863 2901 2898 2860 2899 2933
8 2864 2823 2865 2902 2900 2862 2901 2934
8 2904 2867 2846 2886 2936 2903 2885 2921
8 2904 2867 2903 2936 2869 2828 2868 2906
8 2937 2904 2869 2907 2922 2886 2847 2887
8 2906 2868 2905 2939 2871 2829 2870 2909
8 2907 2869 2906 2940 2872 2830 2871 2910
8 2909 2870 2908 2942 2874 2831 2873 2912
8 2910 2871 2909 2943 2875 2832 2874 2913
8 2912 2873 2911 2945 2877 2834 2876 2915
8 2878 2835 2874 2913 2916 2877 2912 2946
8 2915 2876 2914 2947 2880 2837 2879 2917
8 2916 2877 2915 2948 2881 2838 2880 2918
8 2918 2880 2917 2949 2883 2841 2882 2919
8 2921 2885 2849 2889 2951 2920 2888 2924
8 2952 2921 2886 2922 2925 2889 2850 2890
8 2924 2888 2854 2892 2954 2923 2893 2927
8 2925 2889 2853 2891 2955 2924 2892 2926
8 2926 2892 2856 2894 2956 2927 2895 2929
8 2895 2857 2896 2930 2927 2893 2928 2957
8 2897 2859 2898 2932 2929 2895 2930 2959
8 2898 2860 2899 2933 2930 2896 2931 2960
8 2900 2862 2901 2934 2932 2898 2933 2961
8 2936 2903 2885 2921 2963 2935 2920 2951
8 2936 2903 2935 2963 2906 2868 2905 2939
8 2937 2904 2886 2922 2964 2936 2921 2952
8 2937 2904 2936 2964 2907 2869 2906 2940
8 2939 2905 2938 2966 2909 2870 2908 2942
8 2940 2906 2939 2967 2910 2871 2909 2943
8 2942 2908 2941 2969 2912 2873 2911 2945
8 2943 2909 2942 2970 2913 2874 2912 2946
8 2945 2911 2944 2971 2915 2876 2914 2947
8 2946 2912 2945 2972 2916 2877 2915 2948
8 2948 2915 2947 2973 2918 2880 2917 2949
8 2951 2920 2888 2924 2975 2950 2923 2954
8 2952 2921 2889 2925 2976 2951 2924 2955
8 2927 2893 2928 2957 2954 2923 2953 2978
8 2955 2924 2892 2926 2979 2954 2927 2956
8 2929 2895 2930 2959 2956 2927 2957 2980
8 2930 2896 2931 2960 2957 2928 2958 2981
8 2932 2898 2933 2961 2959 2930 2960 2982
8 2951 2920 2950 2975 2963 2935 2962 2984
8 2963 2935 2962 2984 2939 2905 2938 2966
8 2964 2936 2921 2952 2985 2963 2951 2976
8 2964 2936 2963 2985 2940 2906 2939 2967
8 2966 2938 2965 2987 2942 2908 2941 2969
8 2967 2939 2966 2988 2943 2909 2942 2970
8 2969 2941 2968 2989 2945 2911 2944 2971
8 2970 2942 2969 2990 2946 2912 2945 2972
8 2972 2945 2971 2991 2948 2915 2947 2973
8 2954 2923 2953 2978 2975 2950 2974 2993
8 2976 2951 2924 2955 2994 2975 2954 2979
8 2957 2928 2958 2981 2978 2953 2977 2995
8 2956 2927 2957 2980 2979 2954 2978 2996
8 2959 2930 2960 2982 2980 2957 2981 2997
8 2984 2962 2983 2999 2966 2938 2965 2987
8 2975 2950 2974 2993 2984 2962 2983 2999
8 2976 2951 2975 2994 2985 2963 2984 3000
8 2985 2963 2984 3000 2967 2939 2966 2988
8 2987 2965 2986 3001 2969 2941 2968 2989
8 2988 2966 2987 3002 2970 2942 2969 2990
8 2990 2969 2989 3003 2972 2945 2971 2991
8 2978 2953 2977 2995 2993 2974 2992 3004
8 2979 2954 2978 2996 2994 2975 2993 3005
8 2980 2957 2981 2997 2996 2978 2995 3006
8 2974 2993 2999 2983 2992 3004 3007 2998
8 2983 2999 2987 2965 2998 3007 3001 2986
8 3000 2984 2999 3008 2988 2966 2987 3002
8 2994 2975 2993 3005 3000 2984 2999 3008
8 3002 2987 3001 3009 2990 2969 2989 3003
8 2996 2978 2995 3006 3005 2993 3004 3010
8 3005 2993 3004 3010 3008 2999 3007 3011
8 3008 2999 3007 3011 3002 2987 3001 3009

CELL_TYPES 1910
12
12
12
12
12
12
12
12
12
12
12
12
12
12
12
12
12
12
12
12
12
12
12
12
12
12
12
12
12
12
12
12
12
12
12
12
12
12
12
12
12
12
12
12
12
12
12
12
12
12
12
12
12
12
12
12
12
12
12
12
12
12
12
12
12
12
12
12
12
12
12
12
12
12
12
12
12
12
12
12
12
12
12
12
12
12
12
12
12
12
12
12
12
12
12
12
12
12
12
12
12
12
12
12
12
12
12
12
12
12
12
12
12
12
12
12
12
12
12
12
12
12
12
12
12
12
12
12
12
12
12
12
12
12
12
12
12
12
12
12
12
12
12
12
12
12
12
12
12
12
12
12
12
12
12
12
12
12
12
12
12
12
12
12
12
12
12
12
12
12
12
12
12
12
12
12
12
12
12
12
12
12
12
12
12
12
12
12
12
12
12
12
12
12
12
12
12
12
12
12
12
12
12
12
12
12
12
12
12
12
12
12
12
12
12
12
12
12
12
12
12
12
12
12
12
12
12
12
12
12
12
12
12
12
12
12
12
12
12
12
12
12
12
12
12
12
12
12
12
12
12
12
12
12
12
12
12
12
12
12
12
12
12
12
12
12
12
12
12
12
12
12
12
12
12
12
12
12
12
12
12
12
12
12
12
12
12
12
12
12
12
12
12
12
12
12
12
12
12
12
12
12
12
12
12
12
12
12
12
12
12
12
12
12
12
12
12
12
12
12
12
12
12
12
12
12
12
12
12
12
12
12
12
12
12
12
12
12
12
12
12
12
12
12
12
12
12
12
12
12
12
12
12
12
12
12
12
12
12
12
12
12
12
12
12
12
12
12
12
12
12
12
12
12
12
12
12
12
12
12
12
12
12
12
12
12
12
12
12
12
12
12
12
12
12
12
12
12
12
12
12
12
12
12
12
12
12
12
12
12
12
12
12
12
12
12
12
12
12
12
12
12
12
12
12
12
12
12
12
12
12
12
12
12
12
12
12
12
12
12
12
12
12
12
12
12
12
12
12
12
12
12
12
12
12
12
12
12
12
12
12
12
12
12
12
12
12
12
12
12
12
12
12
12
12
12
12
12
12
12
12
12
12
12
12
12
12
12
12
12
12
12
12
12
12
12
12
12
12
12
12
12
12
12
12
12
12
12
12
12
12
12
12
12
12
12
12
12
12
12
12
12
12
12
12
12
12
12
12
12
12
12
12
12
12
12
12
12
12
12
12
12
12
12
12
12
12
12
12
12
12
12
12
12
12
12
12
12
12
12
12
12
12
12
12
12
12
12
12
12
12
12
12
12
12
12
12
12
12
12
12
12
12
12
12
12
12
12
12
12
12
12
12
12
12
12
12
12
12
12
12
12
12
12
12
12
12
12
12
12
12
12
12
12
12
12
12
12
12
12
12
12
12
12
12
12
12
12
12
12
12
12
12
12
12
12
12
12
12
12
12
12
12
12
12
12
12
12
12
12
12
12
12
12
12
12
12
12
12
12
12
12
12
12
12
12
12
12
12
12
12
12
12
12
12
12
12
12
12
12
12
12
12
12
12
12
12
12
12
12
12
12
12
12
12
12
12
12
12
12
12
12
12
12
12
12
12
12
12
12
12
12
12
12
12
12
12
12
12
12
12
12
12
12
12
12
12
12
12
12
12
12
12
12
12
12
12
12
12
12
12
12
12
12
12
12
12
12
12
12
12
12
12
12
12
12
12
12
12
12
12
12
12
12
12
12
12
12
12
12
12
12
12
12
12
12
12
12
12
12
12
12
12
12
12
12
12
12
12
12
12
12
12
12
12
12
12
12
12
12
12
12
12
12
12
12
12
12
12
12
12
12
12
12
12
12
12
12
12
12
12
12
12
12
12
12
12
12
12
12
12
12
12
12
12
12
12
12
12
12
12
12
12
12
12
12
12
12
12
12
12
12
12
12
12
12
12
12
12
12
12
12
12
12
12
12
12
12
12
12
12
12
12
12
12
12
12
12
12
12
12
12
12
12
12
12
12
12
12
12
12
12
12
12
12
12
12
12
12
12
12
12
12
12
12
12
12
12
12
12
12
12
12
12
12
12
12
12
12
12
12
12
12
12
12
12
12
12
12
12
12
12
12
12
12
12
12
12
12
12
12
12
12
12
12
12
12
12
12
12
12
12
12
12
12
12
12
12
12
12
12
12
12
12
12
12
12
12
12
12
12
12
12
12
12
12
12
12
12
12
12
12
12
12
12
12
12
12
12
12
12
12
12
12
12
12
12
12
12
12
12
12
12
12
12
12
12
12
12
12
12
12
12
12
12
12
12
12
12
12
12
12
12
12
12
12
12
12
12
12
12
12
12
12
12
12
12
12
12
12
12
12
12
12
12
12
12
12
12
12
12
12
12
12
12
12
12
12
12
12
12
12
12
12
12
12
12
12
12
12
12
12
12
12
12
12
12
12
12
12
12
12
12
12
12
12
12
12
12
12
12
12
12
12
12
12
12
12
12
12
12
12
12
12
12
12
12
12
12
12
12
12
12
12
12
12
12
12
12
12
12
12
12
12
12
12
12
12
12
12
12
12
12
12
12
12
12
12
12
12
12
12
12
12
12
12
12
12
12
12
12
12
12
12
12
12
12
12
12
12
12
12
12
12
12
12
12
12
12
12
12
12
12
12
12
12
12
12
12
12
12
12
12
12
12
12
12
12
12
12
12
12
12
12
12
12
12
12
12
12
12
12
12
12
12
12
12
12
12
12
12
12
12
12
12
12
12
12
12
12
12
12
12
12
12
12
12
12
12
12
12
12
12
12
12
12
12
12
12
12
12
12
12
12
12
12
12
12
12
12
12
12
12
12
12
12
12
12
12
12
12
12
12
12
12
12
12
12
12
12
12
12
12
12
12
12
12
12
12
12
12
12
12
12
12
12
12
12
12
12
12
12
12
12
12
12
12
12
12
12
12
12
12
12
12
12
12
12
12
12
12
12
12
12
12
12
12
12
12
12
12
12
12
12
12
12
12
12
12
12
12
12
12
12
12
12
12
12
12
12
12
12
12
12
12
12
12
12
12
12
12
12
12
12
12
12
12
12
12
12
12
12
12
12
12
12
12
12
12
12
12
12
12
12
12
12
12
12
12
12
12
12
12
12
12
12
12
12
12
12
12
12
12
12
12
12
12
12
12
12
12
12
12
12
12
12
12
12
12
12
12
12
12
12
12
12
12
12
12
12
12
12
12
12
12
12
12
12
12
12
12
12
12
12
12
12
12
12
12
12
12
12
12
12
12
12
12
12
12
12
12
12
12
12
12
12
12
12
12
12
12
12
12
12
12
12
12
12
12
12
12
12
12
12
12
12
12
12
12
12
12
12
12
12
12
12
12
12
12
12
12
12
12
12
12
12
12
12
12
12
12
12
12
12
12
12
12
12
12
12
12
12
12
12
12
12
12
12
12
12
12
12
12
12
12
12
12
12
12
12
12
12
12
12
12
12
12
12
12
12
12
12
12
12
12
12
12
12
12
12
12
12
12
12
12
12
12
12
12
12
12
12
12
12
12
12
12
12
12
12
12
12
12
12
12
12
12
12
12
12
12
12
12
12
12
12
12
12
12
12
12
12
12
12
12
12
12
12
12
12
12
12
12
12
12
12
12
12
12
12
12
12
12
12
12
12
12
12
12
12
12
12
12
12
12
12
12
12
12
12
12
12
12
12
12
12
12
12
12
12
12
12
12
12
12
12
12
12
12
12
12
12
12
12
12
12
12
12
12
12
12
12
12
12
12
12
12
12
12
12
12
12
12
12
12
12
12
12
12
12
12
12
12
12
12
12
12
12
12
12
12
12
12
12
12
12
12
12
12
12
12
12
12
12
12
12
12
12
12
12
12
12
12
12
12
12
12
12
12
12
12
12
12
12
12
12
12
12
12
12
12
12
12
12
12
12
12
12
12
12
12
12
12
12
12
12
12
12
12
12
12
12
12
12
12
12
12
12
12
12
12
12
12
12
12
12
12
12
12
12
12
12
12
12
12
12
12
12
12
12
12
12
12
12
12
12
12
12
12
12
12
12
12
12
12
12
12
12
12
12
12
12
12
12
12
12
12
12
12
12
12
12
12
12
12
12
12
12
12
12
12
12
12
12
12
12
12
12
12
12
12
12
12
12
12
12
12
12
12
12
12
12
12
12
12
12
12
12
12
12
12
12
12
12
12
12
12
12
12
12
12
12
12
12
12
12
12
12
12
12
12
12
12
12
12
12
12
12
12
12
12
12
12
12
12
12
12
12
12
12
12
12
12
12
12
12
12
12
12
12
12
12
12
12
12
12
12
12
12
12

POINT_DATA 3012
SCALARS Jp_lamdaP float 4
LOOKUP_TABLE default
0.999957 1 1 0.999957
1 1 1 1
0.99996 1 1 0.99996
0.99993 1 1 0.99993
0.999953 1 1 0.999953
0.999965 1 1 0.999965
0.999664 1 1 0.999664
1 1 1 1
1 1 1 1
1 1 1 1
0.999999 1 1 0.999999
0.999825 1 1 0.999825
0.999892 1 1 0.999892
0.999924 1 1 0.999924
0.999961 1 1 0.999961
0.999937 1 1 0.999937
0.999969 1 1 0.999969
0.999957 1 1 0.999957
0.999668 1 1 0.999668
1 1 1 1
0.999919 1 1 0.999919
0.999943 1 1 0.999943
0.999549 1 1 0.999549
0.999629 1 1 0.999629
0.999983 1 1 0.999983
0.999714 1 1 0.999714
0.999186 1 1 0.999186
1 1 1 1
0.99997 1 1 0.99997
0.999983 1 1 0.999983
1 1 1 1
0.999833 1 1 0.999833
0.999936 1 1 0.999936
0.999958 1 1 0.999958
0.999707 1 1 0.999707
1 1 1 1
0.999796 1 1 0.999796
0.999881 1 1 0.999881
0.999282 1 1 0.999282
1 1 1 1
1 1 1 1
0.99996 1 1 0.99996
1 1 1 1
0.999913 1 1 0.999913
0.999497 1 1 0.999497
1 1 1 1
0.999635 1 1 0.999635
0.999943 1 1 0.999943
0.999959 1 1 0.999959
0.999972 1 1 0.999972
0.999672 1 1 0.999672
0.999946 1 1 0.999946
0.999926 1 1 0.999926
0.999987 1 1 0.999987
0.999949 1 1 0.999949
0.99955 1 1 0.99955
0.999718 1 1 0.999718
0.999632 1 1 0.999632
0.999172 1 1 0.999172
1 1 1 1
0.999905 1 1 0.999905
0.999584 1 1 0.999584
0.999524 1 1 0.999524
0.999587 1 1 0.999587
0.99891 1 1 0.99891
0.999044 1 1 0.999044
0.999998 1 1 0.999998
0.999804 1 1 0.999804
0.999299 1 1 0.999299
0.998688 1 1 0.998688
1 1 1 1
1 1 1 1
1 1 1 1
0.99984 1 1 0.99984
1 1 1 1
1 1 1 1
0.999683 1 1 0.999683
1 1 1 1
0.999787 1 1 0.999787
0.999896 1 1 0.999896
0.999281 1 1 0.999281
1 1 1 1
0.999998 1 1 0.999998
0.999636 1 1 0.999636
0.999721 1 1 0.999721
0.998926 1 1 0.998926
0.999942 1 1 0.999942
0.999201 1 1 0.999201
0.999365 1 1 0.999365
0.998936 1 1 0.998936
1 1 1 1
1 1 1 1
1 1 1 1
1 1 1 1
1 1 1 1
0.999953 1 1 0.999953
0.99954 1 1 0.99954
0.999964 1 1 0.999964
0.99962 1 1 0.99962
1 1 1 1
0.999467 1 1 0.999467
0.999604 1 1 0.999604
0.998611 1 1 0.998611
0.999659 1 1 0.999659
0.998719 1 1 0.998719
0.999903 1 1 0.999903
0.999933 1 1 0.999933
0.999991 1 1 0.999991
0.999953 1 1 0.999953
0.999552 1 1 0.999552
0.999636 1 1 0.999636
0.999722 1 1 0.999722
0.999157 1 1 0.999157
1 1 1 1
0.999913 1 1 0.999913
0.999491 1 1 0.999491
0.999524 1 1 0.999524
0.999999 1 1 0.999999
0.999836 1 1 0.999836
0.99959 1 1 0.99959
0.998881 1 1 0.998881
0.99928 1 1 0.99928
0.999064 1 1 0.999064
0.99869 1 1 0.99869
0.999485 1 1 0.999485
0.999499 1 1 0.999499
0.998712 1 1 0.998712
0.998817 1 1 0.998817
0.998936 1 1 0.998936
0.998495 1.00005 1 0.998447
1 1 1 1
0.998609 1 1 0.998609
0.999932 1 1 0.999932
0.99936 1 1 0.99936
0.998773 1 1 0.998773
0.998817 1.00033 1 0.998487
0.999983 1 1 0.999983
0.999623 1 1 0.999623
1 1 1 1
1 1 1 1
0.99969 1 1 0.99969
1 1 1 1
0.99991 1 1 0.99991
0.999791 1 1 0.999791
0.999279 1 1 0.999279
1 1 1 1
0.999999 1 1 0.999999
0.999661 1 1 0.999661
0.999745 1 1 0.999745
0.998928 1 1 0.998928
0.999955 1 1 0.999955
0.999203 1 1 0.999203
0.999365 1 1 0.999365
0.998924 1 1 0.998924
0.999982 1 1 0.999982
1 1 1 1
0.999706 1 1 0.999706
0.998821 1 1 0.998821
0.99907 1 1 0.99907
0.998801 1.00028 1 0.998517
0.999473 1 1 0.999473
0.998837 1 1 0.998837
0.999055 1 1.00006 0.998999
0.998801 1 1 0.998801
1 1 1 1
1 1 1 1
1 1 1 1
0.999995 1 1 0.999995
1 1 1 1
1 1 1 1
1 1 1 1
0.999601 1 1 0.999601
0.999516 1 1 0.999516
1 1 1 1
1 1 1 1
0.999469 1 1 0.999469
0.999588 1 1 0.999588
0.998612 1 1 0.998612
0.999622 1 1 0.999622
0.998719 1 1 0.998719
0.999456 1 1 0.999456
0.998551 1 1 0.998551
0.998676 1 1 0.998676
1.00024 1.002 1 0.998236
0.998759 1 1 0.998759
0.999265 1.00092 1 0.998344
1 1 1 1
0.999921 1 1 0.999921
0.999393 1 1 0.999393
0.999525 1 1 0.999525
1 1 1 1
0.999869 1 1 0.999869
0.999593 1 1 0.999593
0.998852 1 1 0.998852
0.999084 1 1 0.999084
0.999262 1 1 0.999262
0.998692 1 1 0.998692
0.999482 1 1 0.999482
0.999499 1 1 0.999499
0.998653 1 1 0.998653
0.998839 1 1 0.998839
1 1 1 1
0.999921 1 1 0.999921
0.999385 1 1 0.999385
0.998937 1 1 0.998937
0.998508 1.00009 1 0.998414
0.998769 1 1 0.998769
0.998627 1 1 0.998627
0.998843 1.00035 1 0.99849
0.999977 1 1 0.999977
0.999623 1 1 0.999623
0.998565 1 1 0.998565
0.998773 1 1 0.998773
0.999466 1.00115 1 0.998313
0.998559 1.00023 1 0.998332
0.99854 1 1 0.998539
1.00067 1.00238 1 0.998292
0.999963 1 1 0.999963
0.999017 1.00059 1 0.998428
0.999438 1 1 0.999438
0.998921 1 1 0.998921
0.998747 1.00018 1 0.998567
1.00026 1.00182 1 0.998434
0.999532 1 1 0.999532
0.999731 1 1 0.999731
0.999241 1 1 0.999241
0.99965 1 1 0.99965
1 1 1 1
1 1 1 1
0.999744 1 1 0.999744
0.998931 1 1 0.998931
0.999968 1 1 0.999968
0.999365 1 1 0.999365
0.999205 1 1 0.999205
0.998911 1 1 0.998911
0.999988 1 1 0.999988
1 1 1 1
0.999707 1 1 0.999707
0.998822 1 1 0.998822
0.999074 1 1 0.999074
0.998699 1.00018 1 0.998516
0.999474 1 1 0.999474
0.998847 1 1 0.998847
0.998998 1 1 0.998996
0.99879 1 1 0.99879
1 1 1 1
0.999582 1 1 0.999582
0.999825 1 1 0.999825
0.999334 1 1 0.999334
0.999278 1.00086 1 0.998421
0.998686 1 1 0.998686
1.00147 1.00315 1 0.998323
0.999123 1 1 0.999119
0.999041 1.00035 1 0.998696
0.999647 1 1.00088 0.998768
0.998686 1 1 0.998686
0.999957 1 1 0.999957
1 1 1 1
1 1 1 1
1 1 1 1
1 1 1 1
0.999999 1 1 0.999999
1 1 1 1
0.999992 1 1 0.999992
1 1 1 1
0.999624 1 1 0.999624
0.999566 1 1 0.999566
0.99872 1 1 0.99872
0.998612 1 1 0.998612
0.999471 1 1 0.999471
1 1 1 1
0.999455 1 1 0.999455
0.998552 1 1 0.998552
0.998676 1 1 0.998676
1.00006 1.00183 1 0.998235
0.998759 1 1 0.998759
0.999318 1.00098 1 0.998344
0.998537 1 1 0.998537
1.00052 1.00235 1 0.998177
0.999642 1.00135 1 0.998297
1.00621 1.00807 1 0.998156
0.999402 1.00103 1 0.998378
1.00377 1.00555 1 0.998237
0.999479 1 1 0.999479
0.9995 1 1 0.9995
0.998594 1 1 0.998594
0.998861 1 1 0.998861
1 1 1 1
0.999909 1 1 0.999909
0.99941 1 1 0.99941
0.998938 1 1 0.998938
0.998516 1.00014 1 0.99838
0.998646 1 1 0.998646
0.998765 1 1 0.998765
0.998854 1.00036 1 0.998494
0.999972 1 1 0.999972
0.999623 1 1 0.999623
0.998546 1 1 0.998546
0.998772 1 1 0.998772
0.999619 1.00132 1 0.998301
0.998681 1.00031 1 0.998367
0.999955 1 1 0.999955
0.999437 1 1 0.999437
0.998949 1 1 0.998949
0.998542 1 1 0.998539
1.00101 1.00273 1 0.998286
0.998699 1.00016 1 0.998539
0.999302 1.00088 1 0.998429
1.00051 1.00208 1 0.998434
0.999534 1 1 0.999534
0.99924 1 1 0.99924
0.999729 1 1 0.999729
0.999945 1.0017 1 0.99825
0.999558 1.00122 1 0.998337
1.00548 1.00734 1 0.998154
1.00211 1.0039 1 0.998218
0.999962 1.00161 1 0.998359
1.00594 1.00765 1 0.998307
0.999486 1 1 0.999486
1.00198 1.00359 1 0.998398
0.999117 1 1 0.999117
0.998655 1 1 0.998655
0.998874 1.00047 1 0.998409
1.00408 1.00559 1 0.998495
0.999814 1 1 0.999814
0.999223 1 1 0.999223
0.999294 1 1 0.999294
0.999104 1 1 0.999104
0.998822 1 1 0.998822
1 1 1 1
0.999993 1 1 0.999993
0.999709 1 1 0.999709
0.999078 1 1 0.999078
0.998602 1.00009 1 0.998516
0.999475 1 1 0.999475
0.998994 1 1 0.998994
0.998857 1 1 0.998857
0.998779 1 1 0.998779
1 1 1 1
0.999582 1 1 0.999582
0.999829 1 1 0.999829
0.999332 1 1 0.999332
0.999107 1.00069 1 0.998418
0.998691 1 1 0.998689
1.00107 1.00275 1 0.998322
0.99915 1 1.00003 0.999121
0.998902 1.00019 1 0.998708
0.999611 1 1.00085 0.998759
0.998742 1 1 0.998742
1 1 1 1
0.999896 1 1 0.999896
0.999234 1 1 0.999234
0.99945 1 1 0.99945
0.999125 1 1 0.999125
1.00227 1.00402 1 0.998259
1.00004 1.00154 1 0.998501
1.00354 1.00527 1 0.99827
1.00004 1 1.00119 0.998858
0.998881 1.00026 1 0.998625
0.999293 1 1.00075 0.998541
0.999946 1 1 0.999946
0.999697 1 1 0.999697
0.999964 1 1 0.999964
0.999959 1 1 0.999959
1 1 1 1
1 1 1 1
1 1 1 1
1 1 1 1
1 1 1 1
1 1 1 1
1 1 1 1
0.999998 1 1 0.999998
1 1 1 1
0.999989 1 1 0.999989
1 1 1 1
0.998759 1 1 0.998759
0.998676 1 1 0.998676
0.999367 1.00102 1 0.998344
0.999873 1.00164 1 0.998234
0.998552 1 1 0.998552
0.999455 1 1 0.999455
0.998537 1 1 0.998537
1.00046 1.00229 1 0.998177
0.999467 1.00117 1 0.998297
1.00634 1.0082 1 0.998155
0.999408 1.00103 1 0.998376
1.0033 1.00507 1 0.998237
1.00045 1.00229 1 0.998161
1.00817 1.01008 1 0.998109
1.00491 1.00672 1 0.998196
1.01201 1.01385 1 0.998185
1.00276 1.00451 1 0.998254
1.00844 1.01014 1 0.998315
0.998528 1 1 0.998528
0.998771 1 1 0.998771
0.999754 1.00147 1 0.998289
0.998805 1.0004 1 0.998402
0.999947 1 1 0.999947
0.999436 1 1 0.999436
0.998978 1 1 0.998978
0.998545 1 1 0.99854
1.00137 1.0031 1 0.99828
0.99958 1.00115 1 0.99843
0.998653 1.00014 1 0.998511
1.00082 1.00239 1 0.998434
0.999536 1 1 0.999536
0.999238 1 1 0.999238
0.999727 1 1 0.999727
1.00011 1.00189 1 0.99822
0.999511 1.00118 1 0.998336
1.00554 1.00741 1 0.998146
1.0027 1.00449 1 0.998224
0.999487 1 1 0.999487
0.999113 1 1 0.999113
0.998723 1 1.00003 0.998691
1.0002 1.00184 1 0.998369
1.00558 1.00728 1 0.99832
0.99905 1.00066 1 0.998388
1.00209 1.0037 1 0.9984
1.00365 1.00515 1 0.998507
0.999226 1 1 0.999226
0.999088 1 1 0.999088
0.99981 1 1 0.99981
0.999309 1 1 0.999309
1.00652 1.00844 1 0.998097
1.00505 1.00687 1 0.998188
1.01245 1.01435 1 0.998126
1.00782 1.00958 1 0.998249
1.00429 1.00593 1 0.998367
1.00932 1.01096 1 0.998376
0.999202 1 1 0.999202
1.00534 1.00683 1 0.998517
0.99889 1 1 0.99889
0.999144 1.00051 1.00018 0.998454
1.00177 1.00346 1 0.998325
1.00588 1.00738 1 0.998515
0.999859 1 1 0.999859
0.999395 1 1 0.999395
0.999094 1 1 0.999094
0.999125 1 1 0.999125
0.999041 1 1 0.999041
1 1 1 1
0.998917 1.0005 1 0.998416
0.999833 1 1 0.999833
0.999582 1 1 0.999582
0.99933 1 1 0.99933
0.998691 1 1 0.998691
1.00066 1.00235 1 0.998321
0.999124 1 1 0.999124
0.999635 1 1.00089 0.99875
0.998721 1 1 0.998721
0.998798 1 1 0.998798
1 1 1 1
0.999901 1 1 0.999901
0.999234 1 1 0.999234
0.99945 1 1 0.99945
0.999109 1 1 0.999109
1.00241 1.00416 1 0.998256
0.999595 1.0011 1 0.998502
1.00362 1.00536 1 0.998263
0.999934 1 1.00107 0.998861
0.998918 1.00028 1 0.998637
0.999452 1 1.00089 0.998559
0.999928 1 1 0.999928
0.999555 1 1 0.999555
0.999288 1 1.00029 0.998996
0.999217 1 1 0.999217
0.999059 1 1.00006 0.998995
1.00586 1.00762 1 0.998246
1.00088 1.00245 1 0.998432
1.00418 1.00581 1 0.998386
1.0021 1 1.00346 0.99865
0.998533 1.0001 1 0.998429
0.999949 1 1 0.999949
0.999639 1 1 0.999639
0.99968 1 1 0.99968
0.999521 1 1 0.999521
0.999704 1 1 0.999704
0.999967 1 1 0.999967
0.999965 1 1 0.999965
1 1 1 1
0.999961 1 1 0.999961
1 1 1 1
1 1 1 1
1 1 1 1
1 1 1 1
1 1 1 1
1 1 1 1
1 1 1 1
1 1 1 1
1 1 1 1
0.999997 1 1 0.999997
1 1 1 1
0.999439 1.00107 1 0.998375
0.999287 1.00099 1 0.998297
1.00283 1.0046 1 0.998237
1.00645 1.00831 1 0.998154
1.00041 1.00224 1 0.998177
0.998537 1 1 0.998537
1.00049 1.00233 1 0.998162
1.00826 1.01018 1 0.998101
1.00465 1.00646 1 0.998197
1.01194 1.01377 1 0.998193
1.00294 1.00469 1 0.998251
1.00847 1.01016 1 0.99832
1.00761 1.00955 1 0.998077
1.01398 1.01588 1 0.998129
1.00981 1.01157 1 0.998257
1.01206 1.01385 1 0.998232
1.00784 1.00956 1 0.998297
1.01081 1.01244 1 0.998398
1.00029 1.0021 1 0.998191
0.999463 1.00113 1 0.998336
1.00561 1.00748 1 0.998139
1.00329 1.00507 1 0.99823
0.999488 1 1 0.999488
0.999108 1 1 0.999108
0.998908 1 1.00018 0.998727
1.00046 1.00209 1 0.998379
1.00521 1.00689 1 0.998333
1.00216 1.00377 1 0.998401
0.999216 1.00085 1 0.998367
1.00325 1.00474 1 0.998518
0.999229 1 1 0.999229
0.999072 1 1 0.999072
0.999807 1 1 0.999807
0.999323 1 1 0.999323
1.00657 1.00849 1 0.998098
1.00517 1.007 1 0.998185
1.01214 1.01404 1 0.998132
1.00727 1.00904 1 0.998246
0.9992 1 1 0.9992
0.998952 1 1.00003 0.998921
0.999271 1.00043 1.00039 0.998449
1.00408 1.00573 1 0.998357
1.00927 1.01087 1 0.998411
1.00193 1.00362 1 0.998315
1.0052 1.00669 1 0.998519
1.00598 1.00745 1 0.998546
0.999094 1 1 0.999094
0.999037 1 1 0.999037
0.999122 1 1 0.999122
0.999833 1 1 0.999833
0.999408 1 1 0.999408
1.01371 1.01564 1 0.998103
1.01182 1.0137 1 0.99815
1.0103 1.01199 1 0.998337
1.00789 1.00944 1 0.998464
0.999065 1 1 0.999065
1.00753 1.00893 1 0.998608
0.999024 1 1.00029 0.998737
1.00033 1.00159 1.00051 0.998233
1.00475 1.0065 1 0.998263
0.999846 1 1 0.999846
0.999524 1 1 0.999524
0.999229 1 1 0.999229
0.999056 1 1 0.999056
0.998991 1 1 0.998991
0.998992 1 1 0.998992
1 1 1 1
0.999906 1 1 0.999906
1.00255 1.0043 1 0.998252
0.99945 1 1 0.99945
0.999234 1 1 0.999234
0.999093 1 1 0.999093
0.999221 1.00072 1 0.998503
1.00358 1.00534 1 0.998257
0.999866 1 1.001 0.998864
0.999319 1 1.00074 0.998577
0.999018 1.00037 1 0.998649
0.999933 1 1 0.999933
0.999557 1 1 0.999557
0.999247 1 1.00024 0.999005
0.999216 1 1 0.999216
0.999047 1 1.00007 0.998981
1.00588 1.00765 1 0.998242
1.00069 1.00227 1 0.998425
1.00416 1.00577 1 0.998405
1.00152 1 1.00289 0.998635
0.998615 1.00016 1.00006 0.998399
0.999626 1 1 0.999626
0.999291 1 1 0.999291
1.00058 1 1.00174 0.998844
0.99912 1 1.00011 0.999007
0.999047 1 1.00016 0.998888
1.00921 1.01072 1 0.998506
1.0009 1.00257 1 0.998343
1.00438 1.00596 1 0.998428
1.00277 1 1.00426 0.998512
0.998372 1.00018 1 0.998196
0.999952 1 1 0.999952
0.999653 1 1 0.999653
0.999436 1 1 0.999436
0.999664 1 1 0.999664
0.999704 1 1 0.999704
0.999497 1 1 0.999497
0.999372 1 1 0.999372
0.999487 1 1 0.999487
0.999709 1 1 0.999709
0.999965 1 1 0.999965
0.999967 1 1 0.999967
1 1 1 1
0.999967 1 1 0.999967
1 1 1 1
1 1 1 1
1 1 1 1
1 1 1 1
1 1 1 1
1 1 1 1
1 1 1 1
1 1 1 1
1 1 1 1
1 1 1 1
1 1 1 1
1.00309 1.00485 1 0.998248
1.00439 1.00621 1 0.998197
1.00849 1.01019 1 0.998324
1.01188 1.0137 1 0.998201
1.00834 1.01026 1 0.998094
1.00053 1.00237 1 0.998162
1.00766 1.00961 1 0.998071
1.01404 1.01594 1 0.998127
1.01013 1.01191 1 0.998243
1.01231 1.0141 1 0.998233
1.00722 1.00894 1 0.998297
1.01082 1.01242 1 0.998421
1.01327 1.0152 1 0.998097
1.0138 1.01563 1 0.9982
1.01255 1.01425 1 0.998329
1.01064 1.01217 1 0.998492
1.0066 1.00852 1 0.998099
1.00527 1.0071 1 0.998182
1.01184 1.01373 1 0.998137
1.00672 1.0085 1 0.998242
0.999198 1 1 0.999198
0.998952 1 1 0.998952
0.999393 1.00037 1.00058 0.998445
1.00385 1.00551 1 0.998347
1.00923 1.0108 1 0.998445
1.00513 1.00662 1 0.99852
1.00202 1.00372 1 0.998305
1.00595 1.00738 1 0.998576
0.999095 1 1 0.999095
0.999033 1 1 0.999033
0.999119 1 1 0.999119
0.999807 1 1 0.999807
0.99942 1 1 0.99942
1.01339 1.01531 1 0.998106
1.01168 1.01355 1 0.998157
1.01013 1.01181 1 0.998339
0.999061 1 1 0.999061
0.999025 1 1.00026 0.998768
1.00057 1.00159 1.00076 0.998226
1.00809 1.00965 1 0.998454
1.00475 1.00646 1 0.998307
1.00694 1.00835 1 0.998603
0.999849 1 1 0.999849
0.999053 1 1 0.999053
0.999011 1 1 0.999011
0.999003 1 1.00002 0.998984
0.999237 1 1 0.999237
0.999504 1 1 0.999504
1.01378 1.01568 1 0.998134
1.01228 1.01408 0.999989 0.998236
1.01016 1.01177 1 0.998415
1.0102 1.01163 1 0.998585
0.998976 1 1 0.998976
1.00481 1.0064 1 0.998413
1.00008 1 1.00165 0.998436
1.00149 1.00235 1.00104 0.998099
0.999885 1 1 0.999885
0.99959 1 1 0.99959
0.999317 1 1 0.999317
0.999037 1 1 0.999037
0.998986 1 1 0.998986
0.998953 1 1.00004 0.998918
0.999937 1 1 0.999937
0.999558 1 1 0.999558
1.00599 1.00776 1 0.998239
0.999215 1 1 0.999215
0.999105 1 1.00009 0.999013
0.99906 1 1.00009 0.998967
1.00047 1.00205 1 0.998419
1.00425 1.00584 1 0.998424
1.00097 1 1.00235 0.998621
0.998837 1.0002 1.00027 0.998369
0.999627 1 1 0.999627
0.9993 1 1 0.9993
1.00055 1 1.00169 0.998861
0.999159 1 1.00015 0.999012
0.998989 1 1.00008 0.998909
1.00932 1.01082 1 0.998518
1.00094 1.00261 1 0.998341
1.00451 1.00602 1 0.998504
1.00302 1 1.00453 0.998495
0.998349 1.00016 1.00003 0.998164
0.999388 1 1 0.999388
0.999072 1 1 0.999072
1.00245 1 1.00372 0.998729
0.998973 1 1.00016 0.998809
1.01595 1.01741 0.999954 0.998605
1.00968 1.01121 0.999872 0.998615
1.00233 1.00417 1 0.99817
1.00254 1.0001 1.00426 0.998187
0.999666 1 1 0.999666
0.999447 1 1 0.999447
0.999313 1 1 0.999313
0.999704 1 1 0.999704
0.999472 1 1 0.999472
0.999709 1 1 0.999709
0.999354 1 1 0.999354
0.999496 1 1 0.999496
0.99925 1 1 0.99925
0.99935 1 1 0.99935
0.999489 1 1 0.999489
0.999706 1 1 0.999706
0.999961 1 1 0.999961
0.999964 1 1 0.999964
1 1 1 1
0.999967 1 1 0.999967
1 1 1 1
1 1 1 1
1 1 1 1
1 1 1 1
1 1 1 1
1 1 1 1
1 1 1 1
1 1 1 1
1 1 1 1
1 1 1 1
1 1 1 1
1.00661 1.00833 1 0.998298
1.01046 1.01225 1 0.998229
1.01083 1.0124 1 0.998443
1.01254 1.01433 1 0.998234
1.01409 1.01599 1 0.998125
1.00772 1.00968 1 0.998065
1.01324 1.01517 1 0.998102
1.0132 1.01503 1 0.998198
1.01229 1.01398 1 0.998333
1.01159 1.01312 1 0.998488
1.01408 1.01594 1 0.998163
1.01574 1.01744 1 0.998328
1.01512 1.01674 0.999946 0.998454
1.01306 1.01498 1 0.998109
1.01155 1.01341 1 0.998164
1.00991 1.01159 1 0.998341
0.999058 1 1 0.999058
0.998978 1 1.00018 0.9988
1.00067 1.00161 1.00085 0.998219
1.00818 1.00975 1 0.998445
1.00653 1.00794 1 0.998599
1.00497 1.00663 1 0.998351
0.999051 1 1 0.999051
0.999031 1 1 0.999031
0.998977 1 1 0.998977
0.999852 1 1 0.999852
0.999246 1 1 0.999246
0.999484 1 1 0.999484
1.0143 1.01619 1 0.998137
1.01227 1.01406 0.999998 0.998239
1.01003 1.01165 1 0.998403
0.998969 1 1 0.998969
0.99989 1 1.0014 0.998494
1.00157 1.00257 1.0009 0.99811
1.01039 1.0118 1 0.9986
1.00516 1.00677 1 0.998406
0.999908 1 1 0.999908
0.99959 1 1 0.99959
0.99899 1 1 0.99899
0.998956 1 1.00001 0.998948
0.999038 1 1 0.999038
0.999302 1 1 0.999302
1.0162 1.01798 0.999998 0.998245
1.01137 1.01391 0.99915 0.998344
1.01205 1.01393 0.999562 0.998584
1.00873 1.0101 1 0.998644
0.999706 1 1.00088 0.998823
1.0019 1.00241 1.0014 0.998089
1.00091 1 1.00264 0.998276
0.999958 1 1 0.999958
0.99972 1 1 0.99972
0.999599 1 1 0.999599
0.999347 1 1 0.999347
0.999121 1 1 0.999121
0.998926 1 1.00002 0.998906
0.999017 1 1 0.999017
1.00341 1 1.0044 0.999013
0.999628 1 1 0.999628
0.999309 1 1 0.999309
1.00931 1.01079 1 0.99853
0.999151 1 1.00013 0.999017
1.00072 1 1.00185 0.998878
0.998933 1 1 0.99893
1.00097 1.00263 1 0.998338
1.00452 1.00595 1 0.998579
1.00327 1 1.0048 0.998479
0.998179 1.00005 1 0.998132
0.999378 1 1 0.999378
0.999081 1 1 0.999081
1.00285 1 1.00411 0.998744
0.998962 1 1.00013 0.998828
1.01564 1.01712 0.999936 0.998602
1.00898 1.01044 0.999949 0.998601
1.00274 1.00454 1 0.998207
1.00212 1.00019 1.00377 0.998161
0.999237 1 1 0.999237
1.0158 1.01893 0.998355 0.998565
0.999384 1 1.00048 0.998908
1.00124 1 1.00268 0.998561
1.01553 1.01728 0.999583 0.998694
1.0061 1.00788 1 0.998236
1.00335 1.00209 1.00323 0.998026
0.999459 1 1 0.999459
0.999312 1 1 0.999312
0.999193 1 1 0.999193
0.999709 1 1 0.999709
0.999505 1 1 0.999505
0.999335 1 1 0.999335
0.999705 1 1 0.999705
0.99949 1 1 0.99949
0.999234 1 1 0.999234
0.999369 1 1 0.999369
0.999155 1 1 0.999155
0.999231 1 1 0.999231
0.999375 1 1 0.999375
0.999498 1 1 0.999498
0.999695 1 1 0.999695
0.999957 1 1 0.999957
0.99996 1 1 0.99996
1 1 1 1
0.999963 1 1 0.999963
1 1 1 1
1 1 1 1
1 1 1 1
1 1 1 1
1 1 1 1
0.999974 1 1 0.999974
1 1 1 1
1 1 1 1
1 1 1 1
1 1 1 1
1 1 1 1
1 1 1 1
1.01254 1.01408 1 0.998483
1.01203 1.01372 1 0.998336
1.01258 1.01441 1 0.998195
1.0132 1.01512 1 0.998107
1.01379 1.01565 1 0.998173
1.01584 1.01756 1 0.998316
1.01553 1.01714 0.999953 0.998468
1.01698 1.01873 0.999993 0.998293
1.01896 1.02118 0.999382 0.998439
1.00841 1.01568 0.994216 0.998616
1.01481 1.0167 1 0.998139
1.01231 1.0141 1 0.998241
1.01002 1.01165 1 0.998391
0.999018 1 1.00006 0.998961
0.999812 1 1.00126 0.998552
1.00152 1.00263 1.00078 0.99812
1.0107 1.0121 1 0.998616
1.00511 1.00672 1 0.998398
0.998995 1 1 0.998995
0.998977 1 1 0.998977
0.999078 1 1.00004 0.999039
0.999931 1 1 0.999931
0.999591 1 1 0.999591
0.999286 1 1 0.999286
1.01597 1.01774 0.999997 0.998261
0.999954 1 1 0.999954
0.999706 1 1 0.999706
1.01121 1.01346 0.999435 0.998342
1.01323 1.01493 0.999764 0.998554
0.999703 1 1.00084 0.998864
1.00154 1 1.0033 0.998242
1.00143 1.0025 1.00084 0.998096
1.00819 1.00956 1 0.998637
0.99964 1 1 0.99964
0.999346 1 1 0.999346
0.998978 1 1 0.998978
1.00135 1 1.00227 0.999084
0.998908 1 1.00002 0.998886
0.999126 1 1 0.999126
1.01779 1.02031 0.999117 0.99841
1.01374 1.01664 0.998675 0.998465
1.01141 1.0146 0.998068 0.998782
1.00287 1.00452 0.999955 0.998405
1.00116 1 1.00234 0.998821
1.00404 1.00052 1.00547 0.998062
0.999724 1 1 0.999724
0.999678 1 1 0.999678
0.999521 1 1 0.999521
0.999348 1 1 0.999348
0.999195 1 1 0.999195
0.998951 1 1 0.998951
1.00518 1 1.00637 0.998814
0.999253 1 1.00015 0.999106
0.999369 1 1 0.999369
0.99909 1 1 0.99909
1.01541 1.01692 0.999913 0.9986
1.00856 1.00999 1 0.998586
0.998964 1 1.00012 0.998846
1.00313 1 1.00437 0.998759
1.0033 1.00503 1.00004 0.998244
1.00179 1.00031 1.00335 0.998135
0.999233 1 1 0.999233
1.01561 1.01925 0.997842 0.998584
0.999245 1 1.00033 0.998916
1.00122 1 1.00269 0.99854
1.01533 1.01706 0.999621 0.998674
1.00687 1.00862 1 0.998261
1.00339 1.00187 1.00348 0.998035
0.999197 1 1.00015 0.999044
1.01763 1.02338 0.995595 0.998783
0.999251 1 1.00049 0.998761
1.00223 1.00012 1.00379 0.99833
1.00743 1.01182 0.997225 0.998426
1.00198 1.00171 1.00221 0.998065
1.00575 1.00838 0.998499 0.998888
0.999311 1 1 0.999311
0.999192 1 1 0.999192
0.999096 1 1 0.999096
0.999705 1 1 0.999705
0.99949 1 1 0.99949
0.999387 1 1 0.999387
0.999218 1 1 0.999218
0.999694 1 1 0.999694
0.999488 1 1 0.999488
0.999148 1 1 0.999148
0.999374 1 1 0.999374
0.999246 1 1 0.999246
0.999139 1 1 0.999139
0.99928 1 1 0.99928
0.999377 1 1 0.999377
0.999456 1 1 0.999456
0.999651 1 1 0.999651
0.999523 1 1 0.999523
0.999654 1 1 0.999654
0.999954 1 1 0.999954
0.999956 1 1 0.999956
1 1 1 1
0.999959 1 1 0.999959
1 1 1 1
1 1 1 1
1 1 1 1
1 1 1 1
1 1 1 1
0.999982 1 1 0.999982
0.999971 1 1 0.999971
1 1 1 1
1 1 1 1
1 1 1 1
1 1 1 1
1 1 1 1
1 1 1 1
1.01591 1.01749 0.99996 0.998481
1.01598 1.0177 1 0.998304
1.01355 1.01539 1 0.998184
1.01713 1.01887 0.999999 0.998292
1.01822 1.02045 0.999382 0.998438
1.00966 1.01609 0.995049 0.998618
1.01621 1.0205 0.997283 0.998506
1.00764 1.01596 0.993275 0.998531
1.01614 1.02383 0.993607 0.998882
0.99978 1 1 0.99978
1.01577 1.01752 1 0.998276
1.01091 1.01288 0.999708 0.998341
1.01411 1.01572 0.999889 0.998524
0.999725 1 1.00082 0.998905
1.00222 1 1.00402 0.998208
1.00132 1.00277 1.00045 0.998104
1.00764 1.00902 1 0.99863
0.99894 1 1 0.99894
0.999298 1 1.00014 0.999155
0.998865 1 1 0.998865
0.99995 1 1 0.99995
0.99913 1 1 0.99913
0.999681 1 1 0.999681
0.999344 1 1 0.999344
0.999691 1 1 0.999691
1.01774 1.02084 0.998547 0.998416
0.999744 1 1 0.999744
0.999677 1 1 0.999677
0.99949 1 1 0.99949
1.014 1.01706 0.99852 0.998469
1.01077 1.01366 0.998404 0.998739
1.00044 1 1.00161 0.998836
1.00382 1.00023 1.00553 0.998063
1.00297 1.00445 1.00012 0.998409
0.999369 1 1 0.999369
0.999184 1 1 0.999184
1.00053 1 1.00147 0.999057
1.00421 1 1.00537 0.998847
0.998968 1 1 0.998968
1.01312 1.0184 0.996328 0.998482
1.0135 1.01843 0.996568 0.998586
1.00666 1.00968 0.998445 0.998564
1.00437 1.00286 1.00324 0.998281
1.00354 1 1.00478 0.998768
0.999491 1 1 0.999491
0.99941 1 1 0.99941
0.999326 1 1 0.999326
0.999195 1 1 0.999195
0.999055 1 1 0.999055
1.00264 1 1.0038 0.998853
1.00698 1 1.00824 0.998752
0.999229 1 1 0.999229
0.999072 1 1.00015 0.998923
1.01545 1.01947 0.997445 0.998603
1.01495 1.01671 0.999619 0.998654
1.00731 1.00904 1 0.998286
1.00119 1 1.00268 0.998519
1.00316 1.00152 1.0036 0.998045
0.999187 1 1.00012 0.999069
1.0174 1.02364 0.995104 0.998786
0.999256 1 1.00048 0.998775
1.00242 1.00003 1.00406 0.998342
1.00833 1.01206 0.99784 0.998476
1.00249 1.00175 1.00269 0.998055
1.00616 1.00885 0.998675 0.998657
0.999091 1 1.00016 0.998935
1.00361 1.01459 0.990398 0.998764
1.00054 1 1.00182 0.998728
1.00461 1 1.00636 0.998265
1.00271 1.00342 1.00104 0.998249
0.959234 0.973527 0.993852 0.991413
0.989744 0.990588 1.00303 0.996131
0.982668 1.00196 0.981703 0.999022
0.901378 0.927667 0.978972 0.992532
0.882303 0.935485 0.950381 0.992392
0.999191 1 1 0.999191
0.999107 1 1 0.999107
0.999106 1 1 0.999106
0.999694 1 1 0.999694
0.999479 1 1 0.999479
0.999373 1 1 0.999373
0.999262 1 1 0.999262
0.99914 1 1 0.99914
0.99936 1 1 0.99936
0.999668 1 1 0.999668
0.999468 1 1 0.999468
0.999145 1 1 0.999145
0.999277 1 1 0.999277
0.999286 1 1 0.999286
0.999214 1 1 0.999214
0.999322 1 1 0.999322
0.999434 1 1 0.999434
0.999648 1 1 0.999648
0.999483 1 1 0.999483
0.999381 1 1 0.999381
0.999496 1 1 0.999496
0.9995 1 1 0.9995
0.999689 1 1 0.999689
0.999653 1 1 0.999653
0.999953 1 1 0.999953
0.999954 1 1 0.999954
1 1 1 1
0.999956 1 1 0.999956
1 1 1 1
1 1 1 1
1 1 1 1
1 1 1 1
1 1 1 1
0.999986 1 1 0.999986
0.999981 1 1 0.999981
1 1 1 1
0.999968 1 1 0.999968
1 1 1 1
1 1 1 1
1 1 1 1
1 1 1 1
1 1 1 1
1.01759 1.01979 0.999402 0.998437
1.01719 1.01894 1 0.99829
1.01077 1.01643 0.995804 0.99862
1.008 1.01572 0.993827 0.998559
1.01578 1.02007 0.997284 0.998505
1.01791 1.0249 0.994341 0.998831
1.02124 1.02527 0.997576 0.998488
0.973344 0.984914 0.992782 0.995439
1.01411 1.01935 0.996064 0.99879
0.99979 1 1 0.99979
0.999779 1 1 0.999779
0.999556 1 1 0.999556
0.999582 1 1 0.999582
1.0178 1.02139 0.998057 0.998422
1.01443 1.01749 0.998514 0.998473
1.01037 1.01282 0.998886 0.998697
0.999623 1 1.00077 0.998852
1.00341 1 1.00536 0.998065
1.00317 1.00464 1.00013 0.998413
1.00179 1 1.00279 0.999006
1.0032 1 1.00433 0.998879
0.998985 1 1 0.998985
0.999676 1 1 0.999676
0.999172 1 1 0.999172
0.99939 1 1 0.99939
0.999763 1 1 0.999763
0.999459 1 1 0.999459
1.01175 1.01652 0.996808 0.998497
0.999523 1 1 0.999523
0.999428 1 1 0.999428
0.999327 1 1 0.999327
1.01532 1.01981 0.996996 0.998598
1.00538 1.00871 0.998145 0.99856
1.00343 1 1.00468 0.998764
1.00418 1.00309 1.00283 0.998268
0.999199 1 1 0.999199
0.999062 1 1 0.999062
1.00648 1 1.00773 0.998753
1.00353 1 1.0047 0.998833
1.01764 1.02253 0.996706 0.998499
1.00011 1.0146 0.987111 0.998585
1.0043 1.0053 1.00073 0.998281
1.00172 1 1.00306 0.998657
0.999266 1 1 0.999266
0.999241 1 1 0.999241
0.999529 1 1.00053 0.999001
1.01145 1 1.01284 0.998624
0.948839 0.971222 0.985706 0.991121
0.999203 1 1.00011 0.999093
0.99934 1 1.00055 0.998788
1.0166 1.02373 0.994232 0.99879
1.00934 1.01228 0.99857 0.998526
1.00324 1.00191 1.0033 0.998045
1.00281 1 1.00447 0.998353
1.0061 1.00913 0.998572 0.998422
0.999278 1 1.00032 0.998954
1.00284 1.0142 0.990036 0.99875
1.00009 1 1.00136 0.998736
1.00437 1 1.00611 0.998267
1.00296 1.00448 1.00023 0.998266
0.956987 0.973222 0.991747 0.9915
0.985575 0.989493 1.00114 0.994908
0.984749 1.00113 0.98455 0.999072
0.905466 0.928451 0.982914 0.992195
0.869825 0.925686 0.947435 0.991788
0.999526 1 1.00051 0.999021
0.915699 0.937522 0.98465 0.99195
0.913971 0.940031 0.979183 0.992948
0.9801 1.00507 0.976382 0.998745
1.00461 1 1.00585 0.998761
1.00942 1.00085 1.01016 0.998417
0.984449 0.998487 0.986728 0.999202
0.964337 0.972986 1.00009 0.991017
0.981002 0.981058 1.00544 0.99453
0.886786 0.928509 0.96233 0.99245
0.918562 0.963588 0.959159 0.993863
0.999117 1 1 0.999117
0.999103 1 1 0.999103
0.99922 1 1 0.99922
0.999684 1 1 0.999684
0.99948 1 1 0.99948
0.999344 1 1 0.999344
0.999274 1 1 0.999274
0.999151 1 1 0.999151
0.999648 1 1 0.999648
0.999285 1 1 0.999285
0.999339 1 1 0.999339
0.999452 1 1 0.999452
0.999207 1 1 0.999207
0.999238 1 1 0.999238
0.999418 1 1.0002 0.999221
0.999321 1 1 0.999321
0.999466 1 1 0.999466
0.999483 1 1 0.999483
0.999366 1 1 0.999366
0.999347 1 1 0.999347
0.999358 1 1 0.999358
0.999298 1 1 0.999298
0.999257 1 1 0.999257
0.999476 1 1 0.999476
0.999496 1 1 0.999496
0.999689 1 1 0.999689
0.999476 1 1 0.999476
0.999675 1 1 0.999675
0.999952 1 1 0.999952
0.999652 1 1 0.999652
0.999952 1 1 0.999952
1 1 1 1
0.999954 1 1 0.999954
1 1 1 1
1 1 1 1
1 1 1 1
1 1 1 1
1 1 1 1
0.999782 1 1 0.999782
0.999987 1 1 0.999987
0.999985 1 1 0.999985
1 1 1 1
0.999979 1 1 0.999979
1 1 1 1
1 1 1 1
1 1 1 1
1 1 1 1
1 1 1 1
1.00923 1.01579 0.994943 0.998589
1.01531 1.01973 0.997154 0.998504
1.02031 1.02619 0.995484 0.99878
0.975216 0.984083 0.994846 0.996123
1.01349 1.01907 0.995682 0.998838
1.02213 1.02683 0.996951 0.998471
1.01816 1.02301 0.996658 0.998591
0.978654 0.986526 0.99561 0.996394
0.959335 0.974353 0.994179 0.990352
0.884934 0.921482 0.968743 0.991325
0.87198 0.919778 0.955469 0.992218
0.999547 1 1 0.999547
0.999789 1 1 0.999789
0.999779 1 1 0.999779
0.999547 1 1 0.999547
0.999405 1 1 0.999405
0.999439 1 1 0.999439
0.999558 1 1 0.999558
0.999567 1 1 0.999567
1.01015 1.01461 0.997092 0.998513
1.01721 1.02166 0.997036 0.998609
1.0041 1.00773 0.99784 0.998555
1.00348 1 1.00473 0.998759
1.00401 1.00304 1.00272 0.998254
1.00602 1 1.00728 0.998753
1.00457 1 1.00576 0.998813
0.999069 1 1 0.999069
0.999446 1 1 0.999446
0.999202 1 1 0.999202
0.999555 1 1 0.999555
0.999328 1 1 0.999328
1.01801 1.02316 0.996485 0.998477
0.999284 1 1 0.999284
0.999244 1 1 0.999244
1.00152 1.01316 0.989919 0.998571
1.00409 1.00588 0.999867 0.998356
1.00337 1.00002 1.00475 0.99861
1.00006 1 1.00107 0.99899
1.01011 1 1.01149 0.998629
1.01561 1.02168 0.995618 0.998432
0.985027 1.00418 0.982345 0.99856
0.999561 1 1.00103 0.998531
1.00694 1 1.00829 0.998663
0.999176 1 1 0.999176
0.999534 1 1.00047 0.999068
1.00494 1 1.00614 0.998803
0.905265 0.938785 0.971828 0.992247
0.955433 0.972449 0.990642 0.991784
0.999391 1 1.00042 0.998973
0.999773 1 1.00103 0.998744
1.00299 1.01421 0.99019 0.998738
1.00328 1.00567 0.999339 0.998282
1.00397 1 1.00571 0.998269
0.958174 0.973769 0.993652 0.990271
0.986502 0.991307 0.999507 0.995644
0.987298 1.00055 0.987627 0.99912
0.900192 0.929805 0.976137 0.991819
0.856993 0.914898 0.945042 0.991183
0.99936 1 1.00034 0.999021
0.910083 0.940322 0.975289 0.992364
0.913138 0.937231 0.981406 0.992753
0.982865 1.00587 0.978368 0.998734
1.0041 1 1.00533 0.998776
1.00874 1.00048 1.00979 0.998484
0.977647 0.995642 0.982684 0.999228
0.965399 0.975203 0.999483 0.990458
0.981841 0.983536 1.00259 0.995701
0.888281 0.924849 0.96876 0.991433
0.917083 0.963556 0.957971 0.993526
1.00061 1 1.0015 0.99912
0.932376 0.943295 0.994449 0.993941
0.982076 0.984873 1.00106 0.996101
0.987707 1.00069 0.987925 0.999086
1.00998 1.00015 1.01076 0.999083
1.00037 0.993368 1.0075 0.999552
0.973559 0.979745 0.9969 0.996776
0.965488 0.968412 1.00652 0.990517
0.91076 0.948889 0.968051 0.991495
0.94145 0.981102 0.964353 0.995054
0.999101 1 1 0.999101
0.999198 1 1 0.999198
0.999762 1 1.00042 0.999341
0.999648 1 1 0.999648
0.999471 1 1 0.999471
0.999355 1 1 0.999355
0.999285 1 1 0.999285
0.999199 1 1 0.999199
0.999466 1 1 0.999466
0.999249 1 1 0.999249
0.999321 1 1 0.999321
0.999476 1 1.00024 0.999231
0.999871 1 1.00055 0.999317
0.999325 1 1.00009 0.999239
0.999323 1 1 0.999323
0.999482 1 1 0.999482
0.999351 1 1 0.999351
0.999347 1 1 0.999347
0.999356 1 1 0.999356
0.999298 1 1 0.999298
0.999324 1 1 0.999324
0.999278 1 1 0.999278
0.999268 1 1 0.999268
0.99911 1 1 0.99911
0.999614 1 1.00068 0.998938
0.999166 1 1 0.999166
0.999255 1 1 0.999255
0.999435 1 1 0.999435
0.999475 1 1 0.999475
0.999681 1 1 0.999681
0.999495 1 1 0.999495
0.999689 1 1 0.999689
0.999952 1 1 0.999952
0.999661 1 1 0.999661
0.999952 1 1 0.999952
1 1 1 1
0.999952 1 1 0.999952
1 1 1 1
1 1 1 1
1 1 1 1
1 1 1 1
1 1 1 1
0.999798 1 1 0.999798
0.999984 1 1 0.999984
0.999782 1 1 0.999782
1 1 1 1
0.999987 1 1 0.999987
0.999985 1 1 0.999985
1 1 1 1
1 1 1 1
1 1 1 1
1 1 1 1
1 1 1 1
0.908313 0.934476 0.979368 0.992479
0.920007 0.941101 0.984047 0.993435
0.977852 0.985009 0.996128 0.996593
1.01334 1.01871 0.995837 0.998886
1.02299 1.02822 0.996455 0.998453
0.977886 0.984688 0.995596 0.997485
1.01897 1.02287 0.997573 0.998606
0.960945 0.975154 0.993856 0.991521
0.897834 0.926267 0.976829 0.992296
0.862596 0.916531 0.949122 0.991605
0.996946 1.00001 0.998706 0.998223
0.963308 0.972603 0.999043 0.991391
0.880997 0.924978 0.959854 0.992287
0.916761 0.959925 0.961652 0.993118
0.999352 1 1 0.999352
0.99956 1 1 0.99956
0.999789 1 1 0.999789
0.999537 1 1 0.999537
0.999423 1 1 0.999423
0.99938 1 1 0.99938
0.999439 1 1 0.999439
0.999475 1 1 0.999475
0.99954 1 1 0.99954
0.999553 1 1 0.999553
1.01837 1.02361 0.996418 0.998455
1.00207 1.01096 0.992636 0.998558
1.0039 1.00649 0.998995 0.998431
1.00484 1.00006 1.00622 0.998564
1.00827 1 1.00965 0.998633
1.0005 1 1.00152 0.99898
0.999246 1 1 0.999246
0.999301 1 1 0.999301
1.01368 1.02171 0.993711 0.998418
0.99917 1 1 0.99917
0.999472 1 1.00042 0.999049
0.98676 1.00386 0.98443 0.998508
0.999935 1 1.00133 0.998603
1.00635 1 1.00776 0.998605
1.00499 1 1.00621 0.998788
1.00335 1.00831 0.996442 0.998635
0.992946 1 0.993967 0.998972
1.00823 1 1.00951 0.998736
0.999161 1 1 0.999161
0.999173 1 1.00013 0.999039
1.00081 1 1.00192 0.998888
0.933075 0.946012 0.991771 0.994508
0.911107 0.938527 0.978852 0.991758
0.952557 0.973844 0.986925 0.9911
0.999021 1 1 0.999021
1.00351 1 1.00472 0.998791
0.98561 1.00647 0.980526 0.998723
1.00807 1 1.00953 0.998551
0.907138 0.93852 0.974676 0.991676
0.964275 0.973608 0.998465 0.991936
0.979847 0.984598 1.00059 0.994589
0.974992 0.993593 0.982005 0.99926
0.891458 0.924848 0.971401 0.992275
0.91501 0.94063 0.979994 0.992621
0.912383 0.961718 0.95513 0.993269
1.00105 1 1.00193 0.99912
0.931707 0.945412 0.991445 0.994008
0.983606 0.98598 1.00151 0.996084
0.990106 1.00031 0.990665 0.999128
1.00971 0.999975 1.01068 0.999074
0.999905 0.994499 1.00623 0.999208
0.9744 0.979117 0.999955 0.995227
0.963423 0.970561 1.00202 0.990647
0.914312 0.952896 0.966627 0.992636
0.933974 0.974666 0.963256 0.994804
1.00156 0.99994 1.00213 0.999493
0.982786 0.98569 0.999953 0.997101
0.986531 0.984633 1.00433 0.997605
1.00978 0.99847 1.01161 0.999715
0.98677 0.982861 1.00576 0.998231
0.968059 0.969672 1.00816 0.990259
0.944281 0.968241 0.982171 0.992958
0.944857 0.987814 0.961695 0.994612
0.999176 1 1 0.999176
0.999702 1 1.00036 0.999347
1.00075 1 1.0013 0.999451
0.999465 1 1 0.999465
0.99932 1 1 0.99932
0.99926 1 1 0.99926
0.999522 1 1.00028 0.999241
0.999322 1 1 0.999322
0.999267 1 1.00003 0.999236
1.00027 1 1.00093 0.999338
1.00031 1 1.00086 0.999454
0.999496 1 1.00021 0.999283
0.999254 1 1 0.999254
0.999346 1 1 0.999346
0.999355 1 1 0.999355
0.999297 1 1 0.999297
0.999281 1 1 0.999281
0.999322 1 1 0.999322
0.999272 1 1 0.999272
0.99922 1 1 0.99922
0.999277 1 1 0.999277
0.999101 1 1 0.999101
0.999123 1 1 0.999123
0.999665 1 1.00068 0.998981
0.999988 1 1.00126 0.998733
0.999123 1 1 0.999123
0.999468 1 1.00048 0.99899
0.999191 1 1 0.999191
0.999342 1 1 0.999342
0.999253 1 1 0.999253
0.999433 1 1 0.999433
0.999657 1 1 0.999657
0.999473 1 1 0.999473
0.99968 1 1 0.99968
0.99995 1 1 0.99995
0.999689 1 1 0.999689
0.999951 1 1 0.999951
1 1 1 1
0.999952 1 1 0.999952
1 1 1 1
1 1 1 1
1 1 1 1
1 1 1 1
1 1 1 1
0.999724 1 1 0.999724
0.99998 1 1 0.99998
0.999765 1 1 0.999765
1 1 1 1
0.999985 1 1 0.999985
0.999782 1 1 0.999782
1 1 1 1
1 1 1 1
0.999987 1 1 0.999987
1 1 1 1
1 1 1 1
1 1 1 1
0.936408 0.946839 0.994423 0.994529
0.90899 0.936616 0.978411 0.991919
0.983527 0.987578 0.999917 0.995982
0.91183 0.935364 0.98157 0.993143
0.973742 0.983518 0.993997 0.996039
1.019 1.02276 0.997696 0.99862
0.961101 0.975733 0.992249 0.992698
0.898179 0.929553 0.974554 0.991477
0.854323 0.914232 0.942966 0.990991
0.994042 0.998775 0.997582 0.997674
0.965354 0.973003 1.00149 0.990667
0.886962 0.929375 0.962802 0.991237
0.913824 0.958527 0.960197 0.992882
0.990129 0.994477 0.998186 0.997438
0.968892 0.969738 1.00892 0.990298
0.914315 0.954144 0.965506 0.992492
0.939289 0.9817 0.962074 0.994516
0.999246 1 1 0.999246
0.999372 1 1 0.999372
0.999573 1 1 0.999573
0.999442 1 1 0.999442
0.999273 1 1 0.999273
0.999393 1 1 0.999393
0.999438 1 1 0.999438
0.999457 1 1 0.999457
0.999494 1 1 0.999494
0.999523 1 1 0.999523
1.0121 1.02235 0.991547 0.998405
0.989493 1.00392 0.987157 0.998456
1.00026 1 1.00159 0.998675
1.00628 1 1.00774 0.998547
1.0054 1 1.00663 0.998773
0.999378 1 1.00035 0.99903
0.999164 1 1 0.999164
0.999163 1 1 0.999163
0.997779 1.00734 0.991843 0.998654
0.999098 1 1.00005 0.99905
1.0009 1 1.00202 0.998883
0.991039 1 0.992114 0.998916
1.00693 1 1.00821 0.998729
0.977999 0.99822 0.980638 0.999088
1.00889 1 1.0096 0.999298
1.00141 1 1.00251 0.998904
0.999077 1 1 0.999077
1.00052 1 1.00164 0.998889
0.980023 0.9826 0.999766 0.99761
0.936175 0.946098 0.994806 0.994678
0.908261 0.93713 0.97643 0.992589
1.00159 1 1.00247 0.99912
1.00948 0.999724 1.0107 0.999064
0.990988 1 0.991814 0.999168
0.938555 0.948547 0.995001 0.994437
0.970866 0.97078 1.00993 0.99026
0.976048 0.980119 0.999503 0.996342
0.992716 0.993542 1.00033 0.998837
0.913262 0.950535 0.96904 0.991485
0.984318 0.986183 1.00205 0.996069
0.929133 0.970578 0.96224 0.994865
1.00162 0.999808 1.00232 0.99949
0.981869 0.984312 1.00009 0.997423
0.989508 0.987172 1.00476 0.997616
1.00982 0.998857 1.0114 0.999582
0.985638 0.982629 1.00529 0.997788
0.969948 0.972604 1.0074 0.989939
0.945807 0.990935 0.95922 0.995036
0.93113 0.960638 0.976744 0.99236
1.00327 0.998722 1.00485 0.999711
0.985895 0.986456 1.00033 0.9991
0.996724 0.995652 1.0032 0.997886
0.941596 0.98313 0.963023 0.994528
0.999236 0.98566 1.0143 0.999483
0.977503 0.975204 1.01178 0.990686
0.922505 0.944629 0.983626 0.992835
0.999621 1 1.00027 0.999353
1.0005 1 1.00109 0.999412
1.00312 1 1.00355 0.999566
0.999322 1 1 0.999322
0.999234 1 1 0.999234
1.00073 1 1.00138 0.999359
0.999258 1 1 0.999258
0.999611 1 1.00033 0.999286
1.00069 1 1.00126 0.999428
0.999849 1 1.00035 0.999495
0.999267 1 1 0.999267
0.999284 1 1 0.999284
0.999321 1 1 0.999321
0.999276 1 1 0.999276
0.999273 1 1 0.999273
0.999229 1 1 0.999229
0.999532 1 1.00029 0.99924
0.99915 1 1 0.99915
1.00134 1 1.00255 0.998795
0.999136 1 1 0.999136
0.999515 1 1.00055 0.998968
0.999586 1 1.001 0.998592
0.999884 1 1.00118 0.998709
0.999149 1 1.00012 0.999026
0.99983 1 1.00109 0.998743
0.999277 1 1 0.999277
0.999102 1 1 0.999102
0.99932 1 1.00028 0.999042
0.999215 1 1 0.999215
0.999363 1 1 0.999363
0.999613 1 1 0.999613
0.999432 1 1 0.999432
0.999656 1 1 0.999656
0.999945 1 1 0.999945
0.999679 1 1 0.999679
0.999949 1 1 0.999949
1 1 1 1
0.999951 1 1 0.999951
1 1 1 1
1 1 1 1
1 1 1 1
1 1 1 1
1 1 1 1
0.999626 1 1 0.999626
0.999926 1 1 0.999926
0.999722 1 1 0.999722
1 1 1 1
0.999961 1 1 0.999961
0.999731 1 1 0.999731
1 1 1 1
1 1 1 1
0.999986 1 1 0.999986
1 1 1 1
1 1 1 1
1 1 1 1
0.98083 0.983722 0.999662 0.997396
0.928343 0.945442 0.987685 0.994157
0.909906 0.934684 0.981655 0.991683
0.999398 1 1 0.999398
0.982381 0.981749 1.00275 0.997897
0.984619 0.9874 1.00122 0.995969
0.904929 0.934274 0.975507 0.99291
0.993033 0.998779 0.99718 0.997058
0.969785 0.974828 1.0036 0.991254
0.892596 0.936326 0.960902 0.992084
0.908236 0.955009 0.957995 0.992723
0.99192 0.996234 0.999786 0.995882
0.962129 0.966855 1.00442 0.990734
0.919896 0.95531 0.970548 0.992149
0.938302 0.980864 0.962153 0.994236
0.980267 0.984129 1.00122 0.994859
0.972935 0.966642 1.01743 0.989266
0.931179 0.96202 0.97575 0.991997
0.942731 0.986564 0.960752 0.994606
0.999151 1 1 0.999151
0.999236 1 1 0.999236
0.999391 1 1 0.999391
0.999268 1 1 0.999268
0.999297 1 1 0.999297
0.999406 1 1 0.999406
0.999462 1 1 0.999462
0.999513 1 1 0.999513
0.991796 1.00602 0.987178 0.998671
0.988675 1 0.989802 0.998861
0.999166 1 1 0.999166
1.00539 1 1.00668 0.998721
1.00111 1 1.00223 0.998878
0.999096 1 1.00004 0.999061
0.999086 1 1.00001 0.999081
0.983548 1.00039 0.984055 0.999098
1.00048 1 1.00156 0.998918
1.00219 1 1.00329 0.998902
1.00407 1 1.00477 0.999311
0.999107 1 1 0.999107
0.97683 0.991597 0.985608 0.999492
1.01212 0.999054 1.01363 0.999454
1.00025 1 1.00125 0.998999
0.999133 1 1.0001 0.999037
0.985722 0.987071 0.99935 0.999283
0.97973 0.982292 0.999741 0.997651
0.940393 0.94662 0.99856 0.994854
1.00151 0.999779 1.00224 0.999488
1.011 0.999442 1.01212 0.999452
0.980934 0.983157 0.999995 0.997744
0.975811 0.9709 1.01466 0.990538
0.98362 0.979933 1.0077 0.996093
0.935424 0.963418 0.979045 0.991724
0.991891 0.989046 1.00526 0.997628
0.948173 0.995397 0.956902 0.99546
1.00364 0.998924 1.00504 0.999678
0.984522 0.98554 0.999854 0.999112
0.995792 0.994221 1.00334 0.998246
1.00729 0.992179 1.01531 0.999923
0.939494 0.98217 0.962096 0.994235
0.973128 0.971984 1.01068 0.990596
0.931333 0.957912 0.980352 0.991739
1.00734 0.996003 1.01161 0.999771
0.995211 0.995455 1.00037 0.99938
0.983374 0.983544 1.00192 0.997908
0.917349 0.961914 0.960246 0.993152
0.930466 0.964025 0.973112 0.991857
0.98695 0.981546 1.00603 0.999475
0.978488 0.968574 1.02077 0.989678
1.00026 1 1.00089 0.999373
1.00202 0.999765 1.00271 0.99955
1.00582 0.993702 1.01262 0.999582
0.999261 1 1 0.999261
0.999654 1 1.00037 0.999289
1.00094 1 1.00154 0.999403
0.999263 1 1 0.999263
0.999929 1 1.00043 0.999496
1.00507 0.999223 1.00652 0.99934
0.999269 1 1 0.999269
0.999237 1 1 0.999237
1.00007 1 1.00086 0.999214
1.00626 1 1.00737 0.998895
0.999198 1 1 0.999198
1.0008 1 1.00195 0.998852
1.00259 1 1.00413 0.998469
1.00023 1 1.00188 0.998358
0.999343 1 1.00039 0.998954
0.999642 1 1.00109 0.998551
0.999311 1 1.00053 0.998787
1.00003 1 1.0011 0.998926
0.999785 1 1.00104 0.998743
0.999206 1 1 0.999206
0.999202 1 1.00018 0.999022
0.999712 1 1.00096 0.998752
0.999545 1 1 0.999545
0.99927 1 1 0.99927
0.999081 1 1 0.999081
0.999384 1 1 0.999384
0.999611 1 1 0.999611
0.999933 1 1 0.999933
0.999655 1 1 0.999655
0.999943 1 1 0.999943
1 1 1 1
0.999948 1 1 0.999948
1 1 1 1
1 1 1 1
1 1 1 1
1 1 1 1
1 1 1 1
0.999587 1 1 0.999587
0.999893 1 1 0.999893
0.999645 1 1 0.999645
1 1 1 1
0.999924 1 1 0.999924
0.999721 1 1 0.999721
1 1 1 1
1 1 1 1
0.999942 1 1 0.999942
1 1 1 1
1 1 1 1
1 1 1 1
0.982503 0.983679 0.999711 0.999094
0.980397 0.983242 0.999701 0.997404
0.928513 0.946302 0.986931 0.994195
0.999407 1 1 0.999407
0.99937 1 1 0.99937
0.99929 1 1 0.99929
0.995547 0.994187 1.00349 0.997884
0.984234 0.982835 1.00352 0.997915
0.98543 0.98725 1.00221 0.995957
0.99803 0.996561 1.00439 0.997101
0.963507 0.967553 1.00551 0.990365
0.914217 0.949912 0.970639 0.991536
0.941117 0.983401 0.962513 0.994274
0.975952 0.979341 1.00033 0.996212
0.967829 0.966401 1.01129 0.990299
0.929065 0.955959 0.978689 0.993029
0.944705 0.99004 0.958973 0.995032
0.966499 0.973392 0.997204 0.995703
0.981041 0.972062 1.01897 0.990448
0.923276 0.94352 0.985569 0.992872
0.940342 0.979798 0.964535 0.995018
0.999143 1 1 0.999143
0.999149 1 1 0.999149
0.999225 1 1 0.999225
0.999266 1 1 0.999266
0.99932 1 1 0.99932
0.999467 1 1 0.999467
0.989843 1.00254 0.98822 0.999106
0.999418 1 1.00009 0.999324
0.999085 1 1 0.999085
1.0026 1 1.00371 0.998901
1.0005 1 1.00155 0.998946
0.999093 1 1 0.999093
0.999331 1 1.00029 0.999044
0.987294 0.994758 0.993006 0.999487
1.00075 1 1.0017 0.999055
1.008 0.996292 1.01228 0.99948
0.999135 1 1 0.999135
1.00325 0.986662 1.01708 0.999736
0.993414 0.993177 1.00065 0.99959
0.999523 1 1.00036 0.999166
0.998519 0.99941 0.999502 0.999606
0.985858 0.987166 0.999302 0.999372
0.979496 0.981905 0.999855 0.997691
1.00398 0.999151 1.0052 0.999644
1.00251 0.993704 1.00911 0.99975
0.983335 0.984819 0.999369 0.999124
0.978092 0.9718 1.01332 0.993244
0.935522 0.95638 0.984977 0.99311
0.995134 0.992968 1.00358 0.998606
0.942077 0.984585 0.962322 0.994289
1.00672 0.996731 1.01024 0.999788
0.994545 0.995384 0.999704 0.999453
0.985466 0.984554 1.00301 0.997925
0.985651 0.978032 1.01029 0.997529
0.914373 0.960235 0.959019 0.99293
0.926428 0.959039 0.972917 0.992886
0.98876 0.974227 1.02471 0.990447
1.01003 0.984824 1.02574 0.999858
0.98339 0.984524 0.999739 0.999108
0.984583 0.989041 0.999469 0.996022
0.870966 0.919582 0.954477 0.992306
0.915607 0.955074 0.965899 0.992522
0.981479 0.973525 1.01797 0.990375
0.960427 0.972574 0.990748 0.996733
1.00083 0.999422 1.00188 0.999534
1.00883 0.995625 1.01369 0.999586
1.01901 0.999122 1.02038 0.999529
0.999258 1 1 0.999258
1.00005 1 1.00055 0.999496
1.0046 0.999649 1.00558 0.999375
1.01563 1 1.01658 0.999062
1.00056 1 1.00137 0.999187
1.00637 1 1.00754 0.998834
1.01267 1 1.01432 0.998376
1.00035 1 1.00145 0.998908
1.00343 1 1.00498 0.998456
1.00321 1 1.00511 0.998117
1.00051 1.00052 1.00191 0.998082
0.999672 1 1.00108 0.998596
1.00022 1 1.00189 0.998335
0.999735 1 1.00123 0.998511
0.999868 1 1.00096 0.998913
0.999316 1 1.00048 0.998836
0.999835 1 1.00077 0.999069
1.00008 1 1.00113 0.99895
0.999644 1 1.00087 0.998777
0.999448 1 1 0.999448
0.999208 1 1 0.999208
0.99925 1 1.00023 0.999018
0.999904 1 1 0.999904
0.999544 1 1 0.999544
0.999262 1 1 0.999262
0.99961 1 1 0.99961
0.999929 1 1 0.999929
1 1 1 1
0.99994 1 1 0.99994
1 1 1 1
1 1 1 1
1 1 1 1
1 1 1 1
1 1 1 1
0.999586 1 1 0.999586
0.999912 1 1 0.999912
0.999601 1 1 0.999601
1 1 1 1
0.999916 1 1 0.999916
0.999665 1 1 0.999665
1 1 1 1
1 1 1 1
0.999923 1 1 0.999923
1 1 1 1
1 1 1 1
1 1 1 1
0.995654 0.995307 1.00097 0.999378
0.984624 0.985358 1.00015 0.999107
0.980314 0.982681 1.00018 0.997414
0.999352 1 1 0.999352
0.999261 1 1 0.999261
0.999415 1 1 0.999415
0.999368 1 1 0.999368
0.999275 1 1 0.999275
0.999275 1 1 0.999275
0.999203 1 1 0.999203
0.985835 0.983997 1.00428 0.997593
0.993852 0.992331 1.00329 0.998244
0.986168 0.98392 1.00436 0.997933
0.948351 0.994856 0.957603 0.995459
0.969432 0.974823 0.999491 0.994976
0.973748 0.970202 1.01237 0.991388
0.93167 0.952244 0.986505 0.991778
0.966357 0.973908 0.99713 0.995103
0.972166 0.967544 1.01477 0.990148
0.933444 0.958496 0.981732 0.991985
0.933783 0.974509 0.963257 0.994759
0.959401 0.970616 0.991968 0.99645
0.970971 0.970177 1.011 0.989931
0.947277 0.970372 0.983105 0.992975
0.916906 0.962624 0.958474 0.993774
0.999184 1 1 0.999184
0.999143 1 1 0.999143
0.999146 1 1 0.999146
0.999264 1 1 0.999264
0.996343 0.997774 0.999083 0.999483
1.0044 0.993933 1.01103 0.999505
0.999079 1 1 0.999079
0.999382 1 1.00033 0.999051
1.00124 1 1.00213 0.999112
0.99913 1 1 0.99913
0.999415 1 1.00026 0.999153
0.998842 0.985178 1.01446 0.999419
0.994654 0.994361 1.00063 0.999667
0.999199 1 1 0.999199
1.0051 0.982177 1.0239 0.999452
1.00176 0.99679 1.00562 0.999367
0.986078 0.987012 0.999753 0.9993
0.996661 0.997534 0.99946 0.999664
0.986154 0.987344 0.999332 0.999462
1.00639 0.997654 1.00896 0.999805
0.987202 0.978077 1.00987 0.999461
0.993461 0.995152 0.998773 0.999527
0.976847 0.968445 1.01902 0.989845
0.92935 0.95449 0.981883 0.991626
0.987455 0.985597 1.00395 0.997943
0.909569 0.956466 0.957891 0.992772
1.01436 0.986274 1.02863 0.999858
0.984885 0.98581 0.999941 0.999121
0.985717 0.988955 1.00072 0.996009
0.963774 0.974459 0.990515 0.998506
0.863237 0.917147 0.949101 0.991696
0.9175 0.954351 0.969014 0.992129
0.983411 0.972293 1.02099 0.990638
1.00053 0.984967 1.01621 0.999602
0.982543 0.985036 1.00004 0.997433
0.92126 0.942119 0.984234 0.993524
0.883306 0.925394 0.961839 0.992389
0.974293 0.967711 1.01646 0.990499
0.953994 0.970475 0.987405 0.995556
1.01263 0.998194 1.01487 0.99959
1.01856 0.997644 1.02145 0.999522
1.01317 1 1.01378 0.999393
1.00423 1 1.00483 0.999409
1.01546 0.999789 1.01658 0.99911
1.00963 1 1.0111 0.998536
1.00659 1 1.00783 0.998771
1.01207 1 1.01375 0.998336
1.00632 1.00017 1.00812 0.998042
1.00421 1 1.00577 0.998443
1.00337 1 1.0053 0.998081
1.00284 1.00154 1.00335 0.997952
1.00013 1.00207 1 0.998065
0.999023 1 1.00077 0.998259
1.00061 1.0004 1.00218 0.998041
0.9989 1 1.00013 0.998774
0.99937 1 1.00074 0.998629
1.0002 1 1.0019 0.998311
0.999676 1 1.00072 0.998954
0.999926 1 1.00102 0.998906
0.999311 1 1.00043 0.998886
0.999313 1 1 0.999313
0.999668 1 1.00058 0.999092
1.00014 1 1.00116 0.998975
0.999833 1 1 0.999833
0.999448 1 1 0.999448
0.99921 1 1 0.99921
1 1 1 1
0.999899 1 1 0.999899
0.999543 1 1 0.999543
0.999925 1 1 0.999925
1 1 1 1
1 1 1 1
1 1 1 1
1 1 1 1
1 1 1 1
0.999349 1 1 0.999349
0.999553 1 1 0.999553
0.999892 1 1 0.999892
0.999585 1 1 0.999585
1 1 1 1
0.999916 1 1 0.999916
0.999614 1 1 0.999614
1 1 1 1
1 1 1 1
0.99994 1 1 0.99994
1 1 1 1
1 1 1 1
1 1 1 1
0.986264 0.98593 1.00123 0.999114
0.994618 0.995076 1.00009 0.999452
0.986521 0.987058 1.00034 0.99912
0.99936 1 1 0.99936
0.999249 1 1 0.999249
0.999194 1 1 0.999194
0.999249 1 1 0.999249
0.999184 1 1 0.999184
0.999366 1 1 0.999366
0.999259 1 1 0.999259
0.999276 1 1 0.999276
0.999198 1 1 0.999198
0.999224 1 1 0.999224
0.980644 0.983609 1.00094 0.996047
0.988476 0.986071 1.00484 0.997607
0.991887 0.990223 1.00308 0.998604
0.930035 0.971612 0.962184 0.994828
0.93441 0.953868 0.986318 0.993189
0.957999 0.96804 0.99518 0.994421
0.97763 0.974518 1.01298 0.990335
0.961047 0.971398 0.994402 0.994915
0.983546 0.977585 1.01599 0.990268
0.933714 0.962735 0.977188 0.992497
0.916408 0.963002 0.957918 0.993421
0.977868 0.977056 1.00517 0.995684
0.973571 0.973652 1.00944 0.99057
0.909781 0.948868 0.967096 0.991428
0.881104 0.934938 0.949811 0.992218
0.999399 1 1 0.999399
0.999185 1 1 0.999185
0.999142 1 1 0.999142
0.994964 0.983205 1.01287 0.9991
0.994771 0.994436 1.00059 0.999748
0.999125 1 1 0.999125
0.999447 1 1.00031 0.99914
0.999241 1 1.00003 0.999208
1.00249 0.997639 1.0055 0.99936
1.00289 0.981422 1.02241 0.999474
1.00373 1 1.00436 0.999381
1.00332 0.989255 1.015 0.999226
0.981381 0.983863 0.999905 0.997571
0.986276 0.987211 0.999662 0.99939
0.994768 0.995676 0.999365 0.999722
1.01768 0.986932 1.03131 0.999855
0.965673 0.976879 0.992323 0.996177
0.986261 0.987114 1 0.999134
0.976359 0.972658 1.01518 0.988796
0.913899 0.949342 0.970867 0.991553
0.986572 0.988915 1.00164 0.995997
0.85657 0.915696 0.943844 0.991086
0.999711 0.984167 1.01614 0.99966
0.982382 0.984969 0.999933 0.99744
0.913031 0.936455 0.981629 0.993233
0.954442 0.971792 0.985682 0.996413
0.888717 0.929741 0.964223 0.991343
0.964214 0.965283 1.00925 0.989737
0.980411 0.985217 0.996002 0.999117
0.937416 0.947592 0.994621 0.994612
0.887116 0.922323 0.970149 0.991423
0.972944 0.971985 1.01073 0.990359
0.967829 0.975211 0.995861 0.996554
1.01744 0.996044 1.02198 0.999515
1.01523 0.999821 1.01605 0.999379
0.993262 1 0.994269 0.998987
1.01522 0.999642 1.01644 0.999158
1.00992 1.00014 1.01119 0.9986
1.00237 1.00138 1.00272 0.99828
1.0113 1 1.01302 0.998296
1.00524 1.00028 1.00693 0.99805
0.999602 1.00144 1.00003 0.998132
1.00341 1 1.00538 0.998044
1.00305 1.00251 1.00258 0.997966
1.00349 1.00533 1 0.99816
1.00323 1.00498 1 0.998257
0.99961 1.00146 1.00002 0.998134
1.00026 1.00218 1 0.998076
0.998488 1 1 0.998488
0.999294 1 1.00107 0.99822
1.00071 1.00028 1.00244 0.997999
0.998911 1 1 0.998911
0.998837 1 1.00002 0.998813
0.998979 1 1.00032 0.998661
0.999175 1 1 0.999175
0.999782 1 1.00082 0.998966
0.999992 1 1.0011 0.998898
0.999706 1 1 0.999706
0.999319 1 1.00001 0.999313
0.999504 1 1.00039 0.999115
1 1 1 1
0.999829 1 1 0.999829
0.999449 1 1 0.999449
1 1 1 1
1 1 1 1
0.999894 1 1 0.999894
1 1 1 1
1 1 1 1
1 1 1 1
0.999286 1 1 0.999286
0.999513 1 1 0.999513
0.999339 1 1 0.999339
0.999875 1 1 0.999875
0.999553 1 1 0.999553
1 1 1 1
0.999894 1 1 0.999894
0.999585 1 1 0.999585
1 1 1 1
1 1 1 1
0.99992 1 1 0.99992
1 1 1 1
1 1 1 1
1 1 1 1
0.983674 0.985987 0.999897 0.997757
0.98484 0.985111 1.0006 0.999127
0.993295 0.994705 0.999057 0.999526
0.999186 1 1 0.999186
0.999368 1 1 0.999368
0.999236 1 1 0.999236
0.999261 1 1 0.999261
0.999207 1 1 0.999207
0.999179 1 1 0.999179
0.999122 1 1 0.999122
0.999165 1 1 0.999165
0.999276 1 1 0.999276
0.999193 1 1 0.999193
0.999218 1 1 0.999218
0.999254 1 1 0.999254
0.913101 0.938857 0.979578 0.992842
0.982143 0.984692 1.00139 0.996029
0.990307 0.987366 1.00537 0.997622
0.911862 0.961221 0.955194 0.993148
0.940362 0.967938 0.979331 0.992015
0.971388 0.969919 1.01166 0.989976
0.963351 0.970537 0.996659 0.995923
0.978324 0.976638 1.00469 0.997055
0.869398 0.925568 0.947237 0.991634
0.977023 0.972208 1.01551 0.989602
0.912539 0.952069 0.965744 0.992477
0.97426 0.979001 0.997844 0.997307
0.968812 0.966527 1.01146 0.991011
0.884206 0.926991 0.961363 0.99218
1.00005 1 1.00041 0.999647
0.999401 1 1 0.999401
0.999187 1 1 0.999187
1.00376 0.983857 1.02075 0.99949
1.00401 0.99918 1.00549 0.999353
0.999278 1 1.00006 0.999216
1.00403 1 1.00465 0.999383
1.00208 0.989458 1.01351 0.999263
1.00499 0.996209 1.00939 0.999437
0.93328 0.946111 0.992529 0.993863
0.981454 0.983502 0.999934 0.997983
0.986672 0.987447 0.999735 0.99948
0.998312 0.982891 1.01598 0.999718
0.954221 0.973759 0.982838 0.997046
0.982507 0.984855 1.00017 0.997449
0.970961 0.967993 1.01176 0.991406
0.895811 0.937802 0.962747 0.992186
0.905107 0.934726 0.975138 0.993001
0.979803 0.985966 0.994578 0.999167
0.929045 0.945983 0.987785 0.994239
0.899986 0.926448 0.978871 0.992406
0.967427 0.972389 0.999867 0.995029
0.963576 0.969227 1.00346 0.990745
0.9697 0.991769 0.97836 0.999375
0.908722 0.93532 0.978841 0.992564
0.965363 0.97346 1.00052 0.991167
0.980446 0.986066 0.999482 0.994816
1.018 0.999579 1.01907 0.999366
0.989693 1 0.990637 0.999047
0.981946 1.00156 0.981634 0.998764
1.01046 1.0002 1.01162 0.998663
1.00265 1.00157 1.00281 0.998276
1.00061 1.00271 0.999428 0.998473
1.00433 1.00038 1.0059 0.99806
0.999545 1.001 1.0004 0.998146
1.00647 1.00801 1 0.998472
1.00334 1.00348 1.00188 0.997979
1.00336 1.0052 1 0.998165
1.00732 1.00884 1 0.99849
1.00677 1.00829 1 0.998496
1.00214 1.0039 1 0.998247
1.00335 1.00509 1 0.998275
0.999379 1.00106 1 0.998319
0.999806 1.00165 1 0.998164
1.00035 1.00227 1 0.998087
0.99876 1 1 0.99876
0.998668 1.00004 1.00014 0.998495
0.999656 1 1.00148 0.998181
0.999086 1 1 0.999086
0.998907 1 1 0.998907
0.998853 1 1 0.998853
0.999555 1 1 0.999555
0.999181 1 1 0.999178
0.999885 1 1.00091 0.998978
1 1 1 1
0.999704 1 1 0.999704
0.999319 1 1.00001 0.999314
1 1 1 1
1 1 1 1
0.999825 1 1 0.999825
1 1 1 1
1 1 1 1
1 1 1 1
0.999268 1 1 0.999268
0.999288 1 1 0.999288
0.999459 1 1 0.999459
0.999855 1 1 0.999855
0.999513 1 1 0.999513
0.999329 1 1 0.999329
1 1 1 1
0.999877 1 1 0.999877
0.999553 1 1 0.999553
1 1 1 1
1 1 1 1
0.999897 1 1 0.999897
1 1 1 1
1 1 1 1
1 1 1 1
0.932049 0.943429 0.993926 0.993976
0.982568 0.984822 0.99994 0.997772
0.983763 0.984594 1.00002 0.99914
0.999174 1 1 0.999174
0.999139 1 1 0.999139
0.999117 1 1 0.999117
0.999273 1 1 0.999273
0.999219 1 1 0.999219
0.999174 1 1 0.999174
0.999163 1 1 0.999163
0.99912 1 1 0.99912
0.999053 1 1 0.999053
0.999232 1 1 0.999232
0.999213 1 1 0.999213
0.999253 1 1 0.999253
0.897711 0.925326 0.977652 0.992332
0.910483 0.93525 0.980733 0.992644
0.983926 0.985995 1.00189 0.996015
0.857208 0.915258 0.945034 0.991049
0.911159 0.949136 0.968316 0.991399
0.982477 0.977989 1.01296 0.991739
0.981234 0.974902 1.01102 0.995522
0.970809 0.975675 0.999126 0.995884
0.885512 0.923795 0.967041 0.991229
0.964704 0.964885 1.00872 0.991166
0.972644 0.976839 0.999433 0.99627
0.966748 0.972164 1.00382 0.990643
1.00741 1 1.00819 0.999224
0.999884 1 1.00027 0.999617
0.999403 1 1 0.999403
0.99802 0.986892 1.01199 0.999297
1.00432 1 1.00494 0.999386
1.00582 0.997322 1.00918 0.99935
0.99989 1.00067 1.00045 0.99877
0.905299 0.939613 0.970946 0.992311
0.936763 0.946468 0.995364 0.994356
0.981588 0.983366 0.999797 0.998393
0.97837 0.986638 0.992383 0.999231
0.966704 0.971813 0.998756 0.995982
0.929638 0.946789 0.987538 0.994276
0.966652 0.96906 1.00715 0.990434
0.901409 0.9315 0.975926 0.991567
0.973078 0.992273 0.981516 0.999122
0.910206 0.937407 0.978834 0.991979
0.968006 0.974582 1.00268 0.990596
0.982829 0.983684 1.00304 0.996105
0.986773 0.998558 0.989028 0.99916
0.959577 0.975367 0.99352 0.990228
0.987632 0.991831 0.998905 0.996858
0.986065 1 0.986946 0.999107
0.982534 1.0016 0.982202 0.998745
0.982795 1.00404 0.980125 0.998692
1.0027 1.00184 1.00259 0.998271
1.00026 1.00315 0.998648 0.998468
1.00669 1.01067 0.997227 0.998824
0.999432 1.00056 1.00071 0.998161
1.00653 1.00808 1 0.998468
1.0124 1.01366 1 0.998762
1.00323 1.00507 1 0.99817
1.00673 1.00826 1 0.99849
1.00881 1.01013 1 0.998692
1.00696 1.00835 1 0.998625
1.00663 1.00812 1 0.998523
1.00463 1.00619 1 0.998448
1.00093 1.0026 1 0.998335
1.00246 1.00422 1 0.99825
1.00347 1.00519 1 0.998294
0.998874 1.00034 1 0.998536
0.999452 1.00111 1 0.998349
1.00008 1.00189 1 0.998193
0.998983 1 1 0.998983
0.998755 1 1 0.998755
0.998715 1.00004 1.00017 0.998503
0.999439 1 1 0.999439
0.999087 1 1 0.999087
0.998903 1 1 0.998903
0.999987 1 1 0.999987
0.999555 1 1 0.999555
0.999192 1 1.00001 0.99918
1 1 1 1
0.999997 1 1 0.999997
0.999701 1 1 0.999701
1 1 1 1
1 1 1 1
1 1 1 1
0.999205 1 1 0.999205
0.999255 1 1 0.999255
0.9994 1 1 0.9994
0.99929 1 1 0.99929
0.999459 1 1 0.999459
0.999816 1 1 0.999816
1 1 1 1
0.999857 1 1 0.999857
0.999514 1 1 0.999514
1 1 1 1
1 1 1 1
0.99988 1 1 0.99988
1 1 1 1
1 1 1 1
1 1 1 1
0.915531 0.936898 0.985121 0.991953
0.931635 0.945067 0.992055 0.993681
0.98102 0.983198 1 0.997785
0.999163 1 1 0.999163
0.999099 1 1 0.999099
0.999157 1 1 0.999157
0.999054 1 1 0.999054
0.999069 1 1 0.999069
0.999161 1 1 0.999161
0.999118 1 1 0.999118
0.999062 1 1 0.999062
0.998994 1 1 0.998994
0.999088 1 1 0.999088
0.998983 1.00008 1.00026 0.99865
0.99928 1 1.00002 0.999256
0.999252 1 1 0.999252
0.965085 0.97848 0.99634 0.989933
0.90179 0.926236 0.98144 0.992019
0.912118 0.937837 0.979915 0.992511
0.885856 0.923531 0.96689 0.992053
0.971071 0.966847 1.01516 0.989371
0.97306 0.974234 1.00139 0.99741
0.975622 0.97937 0.99906 0.997111
0.967641 0.973724 1.00262 0.991161
0.985609 0.995531 0.993879 0.996131
1.00446 1.00132 1.00466 0.998479
1.00586 1 1.00666 0.999207
0.999588 1 1 0.999588
1.0062 0.998902 1.00804 0.999271
0.999602 1.00101 0.999875 0.998716
0.949779 0.973094 0.9848 0.991104
0.911127 0.939336 0.977935 0.991854
0.941285 0.947066 0.999036 0.994854
0.976741 0.993334 0.984416 0.998862
0.979971 0.980316 1.00481 0.994866
0.910715 0.936094 0.981012 0.991719
0.971189 0.975131 1.00489 0.991109
0.985454 0.999756 0.986537 0.999146
0.960988 0.975962 0.993257 0.991342
0.989153 0.993684 0.999933 0.995507
1.00107 1.00569 0.996702 0.998695
0.992615 0.996936 0.997805 0.997857
0.982868 1.00177 0.98238 0.998727
0.98518 1.00359 0.982985 0.99865
1.00342 1.01801 0.986921 0.99873
1.00012 1.00354 0.998123 0.998463
1.00533 1.00935 0.997193 0.998816
1.01283 1.01744 0.996566 0.998902
1.00656 1.0081 1 0.998464
1.01266 1.01401 0.999919 0.998748
1.01175 1.01298 0.999987 0.998793
1.0062 1.00772 1 0.99849
1.00892 1.01025 1 0.99868
1.00758 1.00891 1 0.998674
1.0072 1.00856 1 0.998655
1.00537 1.00685 1 0.998532
1.00655 1.00801 1 0.99855
1.00454 1.0061 1 0.998443
1.00184 1.00343 1 0.998417
0.998896 1.00045 1 0.998449
1.00084 1.00251 1 0.998329
1.00268 1.00444 1 0.998253
0.998831 1 1 0.998831
0.998845 1.00029 1 0.998556
0.999531 1.00115 1 0.998379
0.999349 1 1 0.999349
0.998979 1 1 0.998979
0.998749 1 1 0.998749
0.999951 1 1 0.999951
0.999441 1 1 0.999441
0.999087 1 1 0.999087
1 1 1 1
0.999978 1 1 0.999978
0.999554 1 1 0.999554
1 1 1 1
0.999995 1 1 0.999995
1 1 1 1
0.999083 1 1 0.999083
0.999205 1 1 0.999205
0.999304 1 1 0.999304
0.999243 1 1 0.999243
0.999383 1 1 0.999383
0.999736 1 1 0.999736
0.999459 1 1 0.999459
0.999817 1 1 0.999817
1 1 1 1
1 1 1 1
1 1 1 1
0.999859 1 1 0.999859
1 1 1 1
1 1 1 1
1 1 1 1
0.963204 0.97708 0.994443 0.991308
0.909451 0.939171 0.975737 0.992435
0.937935 0.948314 0.995276 0.99375
0.999081 1 1 0.999081
0.999175 1 1 0.999175
0.999078 1 1 0.999078
0.999059 1 1 0.999059
0.99891 1 1 0.99891
0.999044 1 1 0.999044
0.999072 1 1 0.999072
0.998948 1 1 0.998948
0.999099 1 1.00004 0.999061
0.998862 1 1 0.998862
1.00071 1.002 1 0.998716
0.99924 1.00095 1.00011 0.998176
0.999338 1.00058 1.00006 0.998701
0.999354 1 1.00008 0.999279
0.983482 0.992827 0.994256 0.99631
0.9647 0.976859 0.996709 0.990814
0.8965 0.927376 0.974944 0.991551
0.974175 0.975363 1.00842 0.990441
0.973303 0.980616 0.994714 0.997817
0.990018 0.996463 0.995914 0.997608
0.995844 1.00463 0.992594 0.998652
1.00173 1.00067 1.00249 0.998574
1.00481 1 1.00563 0.999189
0.997704 1.00112 0.997932 0.998653
0.979453 0.986308 0.996893 0.996144
0.956934 0.973513 0.99115 0.991747
0.907267 0.937591 0.974805 0.992667
0.985734 1.00115 0.985462 0.999131
0.994585 0.994089 1.00397 0.996539
0.961217 0.976355 0.99194 0.992494
0.995055 1.0044 0.99198 0.998705
0.990741 0.996486 0.996897 0.997329
1.01014 1.0203 0.991548 0.998482
1.00798 1.01454 0.995078 0.998444
0.987518 1.00302 0.985923 0.998606
1.00502 1.01796 0.988557 0.998723
1.0119 1.02068 0.992667 0.998722
1.00405 1.00826 0.997017 0.998808
1.01297 1.01708 0.997059 0.998891
1.01186 1.01489 0.998303 0.998707
1.01298 1.01442 0.999842 0.998735
1.01125 1.01256 0.999921 0.998781
1.00891 1.01034 1 0.998591
1.00895 1.01029 1 0.998668
1.00719 1.00852 1 0.998679
1.00646 1.00798 1 0.998499
1.00741 1.00874 1 0.998685
1.00513 1.00659 1 0.998552
1.00199 1.00356 1 0.998438
1.00447 1.00604 1 0.998438
1.00174 1.00334 1 0.998411
0.999297 1.00082 1 0.998481
0.998681 1 1 0.998681
0.998952 1.00048 1 0.998468
1.00079 1.00247 1 0.998323
0.999233 1 1 0.999233
0.99883 1 1 0.99883
0.998826 1.00025 1 0.998577
0.999895 1 1 0.999895
0.999348 1 1 0.999348
0.998975 1 1 0.998975
1 1 1 1
0.999939 1 1 0.999939
0.999442 1 1 0.999442
1 1 1 1
0.999969 1 1 0.999969
1 1 1 1
0.998951 1 1 0.998951
0.999094 1 1 0.999094
0.999209 1 1 0.999209
0.999206 1 1 0.999206
0.999292 1 1 0.999292
0.999625 1 1 0.999625
0.999366 1 1 0.999366
0.999737 1 1 0.999737
0.999999 1 1 0.999999
0.999819 1 1 0.999819
1 1 1 1
1 1 1 1
1 1 1 1
1 1 1 1
1 1 1 1
0.976182 0.986272 0.993291 0.996455
0.95746 0.974901 0.991062 0.990967
0.906196 0.937541 0.974665 0.991692
0.999045 1.00032 1 0.998721
0.999086 1 1 0.999086
0.999065 1 1 0.999065
0.999035 1 1 0.999035
0.998929 1 1.00003 0.998901
0.999033 1 1 0.999033
0.998901 1 1 0.998901
0.999084 1 1.00005 0.999035
0.998901 1 1 0.998901
1.00001 1.00129 1 0.998719
1.00095 1.00268 1 0.998278
1.00373 1.0058 0.999965 0.997974
0.999948 1.00168 1.00013 0.998148
0.999905 1.00115 1 0.998753
1.00033 1.00631 0.995033 0.999015
0.984405 0.994247 0.994382 0.995695
0.968032 0.978029 0.997907 0.991854
0.988084 0.995173 0.996422 0.996441
1.00064 1.00646 0.99541 0.998803
1.00082 1.0002 1.00195 0.998669
1.00361 1.00668 0.998336 0.998606
0.978888 0.985118 0.996497 0.997169
0.954315 0.97406 0.988467 0.991159
0.988459 1.0027 0.987067 0.998713
0.990254 0.996222 0.997272 0.996728
1.0096 1.02075 0.990583 0.998484
1.00758 1.01264 0.99646 0.998537
1.01695 1.02462 0.99405 0.998457
1.01407 1.01753 0.998195 0.998402
1.00669 1.01777 0.990393 0.998717
1.01337 1.02172 0.993087 0.998731
1.0082 1.01372 0.995977 0.998573
1.01299 1.01656 0.997606 0.998881
1.01307 1.01575 0.998654 0.998705
1.00935 1.01122 0.999694 0.998462
1.01079 1.01219 0.999851 0.998769
1.00885 1.01026 1 0.998609
1.00822 1.00986 1 0.998376
1.00684 1.00817 1 0.998685
1.00609 1.0076 1 0.998499
1.00364 1.00527 1 0.998378
1.0049 1.00634 1 0.998571
1.00213 1.00369 1 0.998445
0.999258 1.00082 1 0.998437
1.00162 1.00322 1 0.998406
0.999265 1.0008 1 0.998466
0.998641 1 1 0.998641
0.999117 1 1 0.999117
0.998702 1 1 0.998702
0.999001 1.00051 1 0.998487
0.999823 1 1 0.999823
0.999232 1 1 0.999232
0.998829 1 1 0.998829
1 1 1 1
0.999884 1 1 0.999884
0.999347 1 1 0.999347
1 1 1 1
0.999927 1 1 0.999927
1 1 1 1
0.998761 1 1 0.998761
0.998954 1 1 0.998954
0.999103 1 1 0.999103
0.999105 1 1 0.999105
0.999215 1 1 0.999215
0.999519 1 1 0.999519
0.999281 1 1 0.999281
0.999625 1 1 0.999625
0.99999 1 1 0.99999
0.999738 1 1 0.999738
1 1 1 1
1 1 1 1
1 1 1 1
1 1 1 1
1 1 1 1
1.00549 1.01007 0.996427 0.999036
0.976093 0.987212 0.99346 0.995246
0.961613 0.973861 0.995926 0.991462
0.999319 1.00053 1 0.998794
1.0009 1.00246 1 0.998443
0.998938 1.00014 1.00005 0.998748
0.999026 1 1 0.999026
0.998982 1 1.00009 0.998891
0.99905 1.00006 1 0.998995
1.00163 1.00323 1 0.998412
0.99894 1 1 0.99894
0.999144 1.00042 1 0.998721
1.00106 1.00275 1 0.998315
1.00506 1.00713 1 0.997943
1.01112 1.0137 0.999164 0.99829
1.00279 1.00487 0.999957 0.997973
1.0005 1.00238 1 0.99812
1.00344 1.00899 0.995412 0.999077
0.983003 0.993297 0.994664 0.994946
1.00308 1.00773 0.996428 0.998956
1.01315 1.01524 0.999106 0.998831
1.00251 1.00539 0.998466 0.998664
0.976068 0.98512 0.994964 0.995826
1.00891 1.02138 0.989291 0.998487
1.0065 1.01069 0.997217 0.998632
1.01576 1.02472 0.99275 0.998496
1.01612 1.01911 0.99865 0.99842
1.01068 1.01656 0.99576 0.998452
1.01975 1.02194 0.999306 0.998549
1.01457 1.02291 0.993107 0.99874
1.00816 1.01361 0.996037 0.998578
1.01109 1.01445 0.998314 0.998373
1.01424 1.01656 0.999014 0.998703
1.00945 1.01123 0.999776 0.998465
1.01023 1.01197 1 0.998289
1.00874 1.01013 1 0.998627
1.00794 1.00958 1 0.998375
1.00646 1.0082 1 0.998272
1.00572 1.00723 1 0.9985
1.0038 1.00543 1 0.998378
0.999732 1.00137 1 0.998368
1.00227 1.00382 1 0.998453
0.999384 1.00095 1 0.998438
0.998587 1 1 0.998587
0.999233 1.00078 1 0.998451
0.998633 1 1 0.998633
0.999037 1 1 0.999037
0.999758 1 1 0.999758
0.999117 1 1 0.999117
0.998723 1 1 0.998723
1 1 1 1
0.999813 1 1 0.999813
0.99923 1 1 0.99923
1 1 1 1
0.999873 1 1 0.999873
1 1 1 1
0.998741 1.00022 1 0.998523
0.998738 1 1 0.998738
0.998936 1 1 0.998936
0.998957 1 1 0.998957
0.999106 1 1 0.999106
0.99942 1 1 0.99942
0.999222 1 1 0.999222
0.999518 1 1 0.999518
0.99996 1 1 0.99996
0.999625 1 1 0.999625
0.999994 1 1 0.999994
1 1 1 1
1 1 1 1
1 1 1 1
1 1 1 1
1.01171 1.01478 0.998328 0.998653
1.00406 1.00928 0.995941 0.998879
0.974995 0.98618 0.992616 0.996012
1.00355 1.00515 1 0.99841
0.999234 1.00029 1 0.99894
1.00584 1.00759 1 0.998265
1.0008 1.00238 1 0.998429
0.998832 1 1.00006 0.998777
1.01002 1.01201 1 0.998038
0.999075 1.00012 1 0.998957
1.00167 1.0033 1 0.998367
1.01316 1.0151 1 0.99809
1.00115 1.0028 1 0.998353
1.00565 1.00775 1 0.99792
1.00952 1.01191 0.999339 0.998294
1.00134 1.00338 1 0.99797
1.00599 1.01099 0.995904 0.999142
1.01969 1.0211 0.999979 0.998644
1.01305 1.01519 0.999063 0.998829
1.00174 1.00409 0.998937 0.99872
1.01491 1.02496 0.991648 0.998536
1.01786 1.02048 0.99899 0.998438
1.01143 1.01719 0.995868 0.998462
1.02028 1.02274 0.999036 0.998558
1.0188 1.02107 0.999323 0.998454
1.00812 1.01343 0.99617 0.998582
1.01124 1.01413 0.998763 0.998379
1.01315 1.01495 0.99996 0.998267
1.00955 1.01127 0.999831 0.998467
1.0097 1.01144 1 0.998278
1.00928 1.01112 1 0.998182
1.00766 1.0093 1 0.998374
1.00634 1.00808 1 0.99827
1.00098 1.00271 1 0.998272
1.00395 1.00558 1 0.998377
1.00004 1.00167 1 0.998368
0.998502 1 1 0.998502
0.999513 1.00108 1 0.998439
0.998588 1 1 0.998588
0.998967 1 1 0.998967
0.998624 1 1 0.998624
0.999036 1 1 0.999036
0.999746 1 1 0.999746
0.999951 1 1 0.999951
0.999762 1 1 0.999762
0.999116 1 1 0.999116
1 1 1 1
0.999803 1 1 0.999803
1 1 1 1
1.00728 1.00899 1 0.998308
1.0001 1.00168 1 0.998419
0.998605 1.0001 1 0.998501
0.998778 1 1 0.998778
0.998714 1 1 0.998714
0.998941 1 1 0.998941
0.999314 1 1 0.999314
0.999109 1 1 0.999109
0.999421 1 1 0.999421
0.99991 1 1 0.99991
0.999517 1 1 0.999517
0.99997 1 1 0.99997
1 1 1 1
0.999997 1 1 0.999997
1 1 1 1
1 1 1 1
1.01829 1.0199 1 0.998425
1.01542 1.01819 0.998544 0.998727
1.00403 1.00962 0.995741 0.99872
1.01132 1.01322 1 0.998118
1.00275 1.00427 1 0.998489
0.999084 1 1 0.999084
1.00628 1.008 1 0.998289
1.00068 1.00227 1 0.998414
1.01686 1.01884 1 0.998061
1.00956 1.01157 1 0.998006
1.00179 1.00347 1 0.998323
1.01346 1.0154 1 0.998083
1.00712 1.00924 1 0.997897
1.01004 1.01237 0.999392 0.9983
1.02124 1.02281 0.999922 0.998537
1.02027 1.02168 0.99997 0.998642
1.01354 1.01543 0.999309 0.998828
1.0123 1.01795 0.995963 0.998473
1.02108 1.02368 0.998891 0.998567
1.01884 1.02156 0.998861 0.998469
1.0179 1.01963 1 0.998312
1.01146 1.01386 0.999247 0.998385
1.01277 1.01455 0.999985 0.998262
1.01219 1.01406 1 0.998159
1.00916 1.01092 1 0.998267
1.00924 1.01108 1 0.998182
1.0032 1.00502 1 0.998187
1.00623 1.00797 1 0.998269
1.00134 1.00307 1 0.998271
0.998482 1.00007 1 0.998409
1.00034 1.00197 1 0.998368
0.998507 1 1 0.998502
0.998882 1 1 0.998882
0.998589 1 1 0.998589
0.998966 1 1 0.998966
0.999732 1 1 0.999732
0.999035 1 1 0.999035
0.999741 1 1 0.999741
0.999949 1 1 0.999949
0.999976 1 1 0.999976
0.999766 1 1 0.999766
1 1 1 1
1.01013 1.01201 1 0.998138
1.00079 1.00238 1 0.998418
1.00679 1.00841 1 0.998396
0.99864 1 1 0.99864
1.00031 1.0019 1 0.998416
0.998479 1 1 0.998479
0.998779 1 1 0.998779
0.999188 1 1 0.999188
0.998946 1 1 0.998946
0.999316 1 1 0.999316
0.999848 1 1 0.999848
0.999422 1 1 0.999422
0.999924 1 1 0.999924
1 1 1 1
0.999981 1 1 0.999981
1 1 1 1
1 1 1 1
1.01925 1.02099 1 0.998302
1.01748 1.01909 0.999999 0.998423
1.01719 1.01979 0.99865 0.998798
1.01568 1.01766 1 0.998061
1.01087 1.01277 1 0.998122
1.00196 1.0034 1 0.998568
1.00668 1.00838 1 0.998314
1.0165 1.01849 1 0.998052
1.0089 1.01095 1 0.997975
1.01187 1.01382 1 0.998075
1.01903 1.02069 1 0.998373
1.02086 1.02247 0.999926 0.998503
1.02061 1.0221 0.999907 0.99864
1.01746 1.01924 1 0.998249
1.0188 1.02202 0.998366 0.998483
1.01787 1.01959 1 0.998311
1.0147 1.01653 1 0.998201
1.0124 1.01416 1 0.998257
1.01233 1.0142 1 0.998161
1.00602 1.0079 1 0.998137
1.00918 1.01102 1 0.998181
1.00343 1.00525 1 0.998188
0.99887 1.00054 1 0.998328
1.00169 1.00343 1 0.99827
0.99858 1.00017 1 0.998408
0.998796 1 1 0.998796
0.99851 1.00001 1 0.998502
0.99888 1 1 0.99888
0.999714 1 1 0.999714
0.998964 1 1 0.998964
0.999727 1 1 0.999727
0.999949 1 1 0.999949
0.999736 1 1 0.999736
0.99995 1 1 0.99995
1 1 1 1
1.01123 1.01321 1 0.998041
1.00308 1.00486 1 0.998226
1.01032 1.01218 1 0.998167
0.998584 1 1 0.998584
1.00078 1.00237 1 0.998415
1.00632 1.00785 1 0.998483
0.999042 1 1 0.999042
0.998658 1.00002 1 0.998637
1.00055 1.00214 1 0.998413
0.998779 1 1 0.998779
0.99919 1 1 0.99919
0.999779 1 1 0.999779
0.999317 1 1 0.999317
0.999859 1 1 0.999859
1 1 1 1
0.999937 1 1 0.999937
1 1 1 1
1 1 1 1
1.01761 1.01943 1 0.998212
1.01938 1.02113 1 0.998285
1.01796 1.01957 1 0.998421
1.01533 1.0173 1 0.998063
1.01046 1.01235 1 0.998126
1.01651 1.01851 1 0.998043
1.01669 1.01847 1 0.998251
1.01904 1.02071 1 0.998368
1.02034 1.02197 0.999929 0.99847
1.01775 1.01953 1 0.998258
1.01467 1.01653 1 0.998173
1.01777 1.01949 1 0.99831
1.01466 1.0165 1 0.998189
1.00813 1.01001 1 0.99814
1.01247 1.01433 1 0.998163
1.00595 1.00782 1 0.998139
0.999874 1.00162 1 0.998259
1.00369 1.00552 1 0.998188
0.999165 1.00084 1 0.998328
0.998729 1 1 0.998729
0.99868 1.00027 1 0.998408
0.998794 1 1 0.998794
0.999685 1 1 0.999685
0.998878 1 1 0.998878
0.999707 1 1 0.999707
0.999942 1 1 0.999942
0.999723 1 1 0.999723
0.999952 1 1 0.999952
0.99995 1 1 0.99995
1.01329 1.01517 1 0.998152
1.00487 1.00679 1 0.998094
1.01148 1.01347 1 0.99804
0.998902 1.00048 1 0.998426
1.00283 1.0046 1 0.998238
1.01045 1.01227 1 0.998197
0.99892 1 1 0.99892
0.998564 1.00002 1 0.998547
1.00076 1.00235 1 0.998411
0.999713 1 1 0.999713
0.999044 1 1 0.999044
0.998666 1.00003 1 0.998633
0.999192 1 1 0.999192
0.999788 1 1 0.999788
1 1 1 1
0.99987 1 1 0.99987
1 1 1 1
1 1 1 1
1.0154 1.01725 1 0.998186
1.01735 1.01918 1 0.99821
1.01926 1.02103 1 0.998267
1.01496 1.01693 1 0.998065
1.01499 1.01687 1 0.998145
1.0172 1.01897 1 0.998257
1.01911 1.02078 1 0.998362
1.01804 1.0198 1 0.998267
1.01458 1.01644 1 0.998177
1.00833 1.01021 1 0.998142
1.01464 1.0165 1 0.998176
1.00794 1.00981 1 0.99814
1.00109 1.00289 1 0.998208
1.00585 1.00772 1 0.998142
1.00027 1.00201 1 0.99826
0.998666 1 1 0.998666
0.99945 1.00112 1 0.998327
0.998728 1 1 0.998728
0.999619 1 1 0.999619
0.998793 1 1 0.998793
0.999664 1 1 0.999664
1 1 1 1
0.999701 1 1 0.999701
0.999947 1 1 0.999947
0.999953 1 1 0.999953
1.0129 1.01474 1 0.99818
1.00595 1.00783 1 0.998128
1.01311 1.01498 1 0.998153
0.999947 1.00169 1 0.998258
1.00481 1.00671 1 0.998113
1.01179 1.01378 1 0.99804
0.998754 1 1 0.998754
0.998889 1.00047 1 0.998424
1.00262 1.00438 1 0.998249
0.999668 1 1 0.999668
0.998888 1 1 0.998888
0.998553 1.00004 1 0.99851
1 1 1 1
0.999723 1 1 0.999723
0.999046 1 1 0.999046
0.999797 1 1 0.999797
1 1 1 1
1 1 1 1
1.01436 1.01624 1 0.99815
1.01584 1.01768 1 0.998195
1.0171 1.01893 1 0.998208
1.00892 1.01085 1 0.998097
1.01435 1.01624 1 0.998146
1.0177 1.01947 1 0.998264
1.0145 1.01635 1 0.998182
1.00838 1.01025 1 0.998143
1.00162 1.00339 1 0.998232
1.00773 1.00961 1 0.99814
1.00131 1.00308 1 0.998238
0.998546 1 1 0.998546
1.00067 1.00241 1 0.998261
0.998666 1 1 0.998666
0.999575 1 1 0.999575
0.998727 1 1 0.998727
0.999617 1 1 0.999617
1 1 1 1
0.99964 1 1 0.99964
0.999968 1 1 0.999968
0.999951 1 1 0.999951
1.01125 1.0131 1 0.998171
1.00626 1.00811 1 0.998165
1.01283 1.01468 1 0.998181
1.00045 1.00219 1 0.998264
1.00623 1.00811 1 0.998128
1.01292 1.0148 1 0.998153
0.998657 1 1 0.998657
0.999881 1.00159 1 0.998298
1.00472 1.00661 1 0.998132
0.999639 1 1 0.999639
0.998741 1 1 0.998741
0.998873 1.00045 1 0.998422
1 1 1 1
0.999676 1 1 0.999676
0.998855 1 1 0.998855
1 1 1 1
0.999733 1 1 0.999733
1 1 1 1
1.00888 1.01078 1 0.998123
1.01395 1.01583 1 0.998148
1.01632 1.01815 1 0.998203
1.00117 1.00297 1 0.998203
1.00894 1.01085 1 0.998105
1.01378 1.01566 1 0.998147
1.00844 1.01031 1 0.998143
1.00163 1.0034 1 0.998231
0.998495 1 1 0.998495
1.00153 1.00327 1 0.998269
0.998576 1 1 0.998576
0.999511 1 1 0.999511
0.998666 1 1 0.998666
0.999571 1 1 0.999571
1 1 1 1
0.999614 1 1 0.999614
1 1 1 1
0.999943 1 1 0.999943
1.0063 1.00813 1 0.998179
1.01138 1.01323 1 0.998172
1.00009 1.00183 1 0.998266
1.00615 1.008 1 0.998165
1.01276 1.01461 1 0.998182
0.998665 1 1 0.998665
1.0004 1.00214 1 0.998262
1.00649 1.00838 1 0.998128
0.999609 1 1 0.999609
0.998679 1 1 0.998679
0.999805 1.00147 1 0.998338
1 1 1 1
0.999644 1 1 0.999644
0.998728 1 1 0.998728
1 1 1 1
0.999685 1 1 0.999685
1 1 1 1
1.00079 1.00256 1 0.998235
1.00877 1.01066 1 0.998123
1.01347 1.01535 1 0.998146
0.99848 1 1 0.99848
1.00118 1.00298 1 0.998203
1.0089 1.01081 1 0.998113
1.00164 1.00341 1 0.998231
0.9985 1 1 0.9985
0.999458 1 1 0.999458
0.998606 1 1 0.998606
0.999508 1 1 0.999508
1 1 1 1
0.999568 1 1 0.999568
1 1 1 1
1 1 1 1
0.999916 1.00167 1 0.998253
1.00605 1.00788 1 0.998177
1.01151 1.01336 1 0.998174
0.998639 1 1 0.998639
1.00027 1.00201 1 0.998264
1.00603 1.00788 1 0.998165
0.999573 1 1 0.999573
0.998664 1 1 0.998664
1.00037 1.00211 1 0.998259
1 1 1 1
0.999612 1 1 0.999612
0.998702 1 1 0.998702
1 1 1 1
0.999649 1 1 0.999649
1 1 1 1
0.99855 1 1 0.99855
1.00077 1.00257 1 0.998204
1.00869 1.01059 1 0.998124
0.999442 1 1 0.999442
0.998481 1 1 0.998481
1.00119 1.00299 1 0.998203
0.998504 1 1 0.998504
0.999457 1 1 0.999457
1 1 1 1
0.999505 1 1 0.999505
1 1 1 1
1 1 1 1
0.998598 1 1 0.998598
0.999959 1.00172 1 0.998243
1.00582 1.00766 1 0.998174
0.999592 1 1 0.999592
0.998637 1 1 0.998637
1.00045 1.00219 1 0.998262
1 1 1 1
0.999575 1 1 0.999575
0.998663 1 1 0.998663
1 1 1 1
0.999615 1 1 0.999615
1 1 1 1
0.999443 1 1 0.999443
0.998526 1 1 0.998526
1.00076 1.00259 1 0.998174
1 1 1 1
0.999442 1 1 0.999442
0.998482 1 1 0.998482
0.999455 1 1 0.999455
1 1 1 1
1 1 1 1
0.999545 1 1 0.999545
0.998598 1 1 0.998598
0.999992 1.00176 1 0.998232
1 1 1 1
0.999536 1 1 0.999536
0.998636 1 1 0.998636
1 1 1 1
0.999576 1 1 0.999576
1 1 1 1
0.999864 1 1 0.999864
0.99949 1 1 0.99949
0.998502 1 1 0.998502
1 1 1 1
0.999442 1 1 0.999442
1 1 1 1
0.999882 1 1 0.999882
0.999522 1 1 0.999522
0.998598 1 1 0.998598
0.999946 1 1 0.999946
0.999534 1 1 0.999534
1 1 1 1
1 1 1 1
0.999457 1 1 0.999457
1 1 1 1
0.999937 1 1 0.999937
0.999492 1 1 0.999492
1 1 1 1
1 1 1 1
1 1 1 1

VECTORS lamdaE float
0.999689 1.0002 0.995695
0.999606 1.00005 0.998106
0.999471 1.0004 0.995813
0.999948 0.999919 0.995613
0.999748 1.00003 0.995807
0.999627 1.00024 0.995643
1.00083 1.00055 0.993087
0.999574 0.999921 0.998167
0.999574 1.00025 0.9982
0.999285 1.00048 0.998262
0.999596 0.999658 0.996362
1.00048 1.00106 0.99277
0.999986 1.00001 0.995385
0.999715 0.99995 0.995695
0.999273 1.00064 0.995908
0.999783 0.999898 0.995775
0.999431 1.00048 0.995762
0.99956 1.00012 0.995936
1.00095 1.00043 0.993034
0.999953 1 0.997876
0.999996 0.999971 0.995468
0.999866 0.999917 0.99575
1.00122 0.999942 0.993004
1.00098 1.00017 0.9932
0.999545 0.999895 0.996017
1.00054 1.00106 0.993025
1.00315 1.00044 0.989193
0.999526 0.999813 0.998242
0.999687 1.00013 0.996911
0.999438 1.00036 0.996977
0.999543 0.999473 0.998362
1.00037 1.00117 0.992784
0.99992 0.999859 0.995594
0.999687 1.0004 0.995622
1.00131 1.00017 0.993321
0.999363 0.998867 0.998778
1.00088 1.00082 0.993474
1.00019 1.00097 0.993358
1.00181 1.00218 0.989289
0.999447 0.998128 0.999026
0.999987 1.00001 0.99784
0.999838 0.999982 0.996789
0.999993 1 0.997828
0.999708 1.00002 0.995683
1.00148 1.00006 0.991903
0.999739 0.999956 0.998146
1.00152 1.00006 0.993081
0.999617 0.999845 0.995938
0.999385 1.00022 0.99605
0.999213 1.00079 0.995878
1.00106 1.00028 0.992992
0.999872 1.00001 0.996747
0.999823 0.999961 0.995642
0.999393 1.00007 0.996131
0.999697 0.999926 0.995897
1.00129 0.999902 0.992944
1.00064 1.00098 0.992994
1.00109 1.00007 0.993149
1.00313 1.00047 0.989199
0.999958 1 0.997859
1.00001 1.00001 0.995402
1.00134 1.00001 0.993316
1.00127 0.999986 0.992858
1.00113 0.999964 0.993129
1.00357 0.999877 0.98896
1.00333 0.999988 0.989011
0.999584 0.999172 0.996617
0.99986 1.00135 0.993735
1.00255 1.00136 0.989319
1.0043 1.00002 0.986902
0.999815 1.00015 0.997983
0.999495 0.999262 0.998503
0.999567 1.00018 0.99808
1.00028 1.00125 0.992802
0.999937 0.99998 0.997965
0.999725 1.0003 0.997998
1.00122 1.00013 0.992223
0.999426 0.998944 0.997861
1.00069 1.00091 0.992423
1.00007 1.00101 0.993968
1.00181 1.00213 0.989287
0.999497 0.998478 0.998832
0.999601 0.999522 0.995863
1.00141 0.999924 0.99215
1.0011 1.00044 0.992229
1.00356 1.00015 0.988072
0.999857 1.00057 0.995229
1.0026 1.00128 0.988729
1.00103 1.00286 0.990063
1.00264 1.00244 0.987415
0.999454 0.997803 0.999148
0.999409 0.998065 0.999076
0.999968 0.999966 0.997908
0.999982 1 0.997853
1 1 0.997831
0.99984 1 0.996771
1.0015 1.00004 0.992508
0.99984 0.999952 0.996836
1.00147 1.00008 0.992546
1.00001 1 0.997827
1.00145 0.999995 0.991972
1.00152 1.00009 0.993057
1.00382 0.999842 0.987925
1.00147 0.999962 0.993217
1.00378 0.99995 0.987909
0.99996 1.00001 0.995448
0.999645 0.999939 0.995821
0.999222 1.00026 0.996275
0.999531 0.999921 0.996039
1.00136 0.999894 0.992883
1.00118 0.999967 0.993106
1.00076 1.00083 0.992965
1.00312 1.0005 0.989205
0.999992 1 0.99784
0.99983 1 0.995581
1.00143 0.999995 0.992331
1.00134 0.999966 0.99279
0.999475 0.999296 0.997548
1.00009 1.00123 0.993876
1.00121 0.999911 0.993076
1.00358 0.999861 0.988826
1.00256 1.00143 0.989267
1.00332 1.00005 0.989119
1.00426 1.00006 0.986915
1.00144 1.00001 0.992001
1.00131 0.999996 0.992773
1.00375 0.999771 0.988458
1.00362 0.99985 0.98861
1.00349 0.99983 0.988856
1.0047 0.999564 0.986926
0.999526 0.998725 0.998715
1.00441 0.999762 0.986969
0.999761 1.00104 0.993946
1.00132 1.00241 0.989781
1.0038 1.00122 0.986721
1.00489 0.999614 0.986153
0.999761 1.00017 0.994847
1.00019 1.00239 0.991935
0.999916 1.00001 0.997971
0.999668 1.00026 0.998013
1.00122 1.00011 0.992229
0.999459 0.998745 0.998763
0.999909 1.00118 0.993535
1.00062 1.00098 0.992434
1.00182 1.00209 0.989285
0.999445 0.998414 0.998907
0.999605 0.999445 0.995903
1.00142 0.999958 0.992721
1.00107 1.00046 0.992808
1.00356 1.00015 0.988076
0.999766 1.00058 0.994501
1.00259 1.00127 0.98874
1.00099 1.00285 0.99007
1.00265 1.00244 0.987338
0.999638 1.00009 0.995226
0.999681 0.998966 0.996288
1.00007 1.00167 0.992882
1.00371 0.999998 0.987968
1.00318 1.0006 0.988312
1.00466 0.999947 0.986303
1.00056 1.00277 0.990993
1.00362 1.00122 0.98673
1.00169 1.00364 0.988122
1.00292 1.00253 0.986949
0.999523 0.997525 0.999199
0.999443 0.997755 0.999167
0.999379 0.998005 0.999116
0.999762 0.999777 0.995253
0.999542 0.998427 0.998842
0.999958 0.999963 0.997942
0.999964 0.999988 0.997877
1.00141 1.00008 0.991996
1.00143 1.00005 0.99196
0.999977 1 0.997842
0.999993 1 0.997829
1.00144 1 0.991971
1.00147 1.00009 0.992512
1.00383 0.999841 0.987923
1.00139 0.99998 0.992094
1.00378 0.999952 0.987904
1.00145 0.99999 0.99197
1.00384 0.999781 0.98794
1.0038 0.999904 0.987918
1.00486 0.999339 0.986571
1.00376 0.99997 0.987917
1.00484 0.999583 0.986378
0.999992 1 0.99783
0.999655 1 0.995762
1.00144 0.999992 0.991427
1.00141 0.999957 0.992721
0.999283 0.99934 0.998615
1.00034 1.00107 0.994003
1.00129 0.999875 0.993025
1.00359 0.999832 0.988691
1.00332 1.00011 0.989227
1.00258 1.00153 0.989215
1.00423 1.00009 0.986929
1.00143 1 0.991999
1.00139 0.999995 0.992697
1.00376 0.999761 0.988171
1.00364 0.999886 0.9887
0.999528 0.998798 0.998665
0.999896 1.00092 0.994351
1.00142 1.00248 0.989922
1.00349 0.999865 0.988847
1.0047 0.999476 0.986806
1.00369 1.00118 0.986702
1.00442 0.999804 0.987077
1.0049 0.999642 0.986167
0.999756 1.00021 0.99484
1.00023 1.00231 0.991941
1.00383 0.999772 0.987971
1.00371 0.999832 0.988489
1.00481 0.999402 0.986871
1.00474 0.999401 0.986646
1.00459 0.999588 0.987018
1.00511 0.998966 0.986594
0.99976 1.00058 0.994411
1.00495 0.999307 0.986403
1.00063 1.00276 0.99068
1.00243 1.00272 0.987226
1.00461 1.0008 0.985914
1.00509 0.999357 0.986158
1.00035 1.00253 0.99153
1.00015 1.00189 0.992496
1.00055 1.00329 0.990474
1.00135 0.999939 0.992189
0.999399 0.998342 0.998977
0.999609 0.99936 0.995942
1.00095 1.00053 0.992283
1.00356 1.00016 0.988079
0.999722 1.00061 0.994447
1.00094 1.00285 0.990077
1.00258 1.00126 0.988751
1.00266 1.00243 0.987261
0.999635 1.00002 0.995254
0.999679 0.99892 0.996312
1.00001 1.00173 0.992897
1.0037 1.00001 0.987967
1.00319 1.00059 0.98832
1.00467 0.999942 0.986293
1.0005 1.00281 0.991005
1.00368 1.00125 0.986739
1.00167 1.00365 0.988109
1.00293 1.00245 0.986944
0.99978 0.998579 0.996491
1.00027 1.0023 0.991906
0.999999 1.00091 0.993761
1.00025 1.00304 0.991263
1.00477 0.999784 0.986278
1.00431 1.00042 0.986449
1.00507 0.999696 0.985806
1.00098 1.00385 0.989271
1.00425 1.00086 0.986048
1.0019 1.0041 0.987131
1.0035 1.00189 0.986381
1.00026 0.999763 0.994462
0.999954 0.99813 0.996614
0.99962 0.997269 0.999224
0.999529 0.997471 0.999207
0.999437 0.997693 0.999183
0.999792 0.999399 0.995591
0.999541 0.998173 0.998946
0.999756 0.999829 0.995233
0.999558 0.998472 0.998799
1.00139 1 0.992088
1.00142 1.00008 0.99196
1.00378 0.999955 0.9879
1.00383 0.99984 0.987921
1.00145 1.00001 0.991971
1.00001 1 0.997823
1.00146 0.999992 0.99197
1.00384 0.999786 0.987938
1.0038 0.99991 0.987915
1.00486 0.999342 0.986565
1.00375 0.999985 0.987911
1.00484 0.999584 0.986371
1.00385 0.999771 0.987952
1.00488 0.999248 0.986633
1.00485 0.999466 0.986476
1.00515 0.998568 0.986827
1.00483 0.99968 0.986302
1.00517 0.998915 0.98644
1.00144 0.999987 0.991997
1.00146 0.999981 0.992619
1.00376 0.999737 0.987886
1.00366 0.999916 0.98879
0.999535 0.998875 0.998611
1.00003 1.00088 0.994696
1.00156 1.00252 0.990061
1.00348 0.99989 0.988838
1.0047 0.999385 0.986686
1.00442 0.999848 0.987184
1.00359 1.00115 0.986684
1.00489 0.999667 0.986181
0.999756 1.00024 0.994833
1.00027 1.00223 0.991947
1.00382 0.999736 0.987895
1.00372 0.999821 0.988477
1.00482 0.999346 0.986886
1.00474 0.999479 0.986754
0.999792 1.00058 0.994411
1.00074 1.00273 0.990654
1.00241 1.0028 0.987366
1.00459 0.999632 0.987021
1.00511 0.998857 0.986655
1.00459 1.00069 0.985812
1.00494 0.999311 0.986423
1.00509 0.999328 0.986159
1.00038 1.00246 0.991541
1.00047 1.00331 0.990491
1.00017 1.00188 0.992486
1.00486 0.999338 0.986829
1.00479 0.999389 0.98685
1.00514 0.998664 0.986845
1.00513 0.998826 0.986597
1.00503 0.998942 0.986578
1.00517 0.997967 0.987383
1.00044 1.00259 0.991268
1.00512 0.998735 0.98663
1.00139 1.00325 0.988945
1.00337 1.00288 0.985492
1.00499 1.00042 0.985456
1.00513 0.998767 0.986688
1.00016 1.00138 0.992988
1.00076 1.00288 0.990451
1.00027 1.0034 0.99074
1.0008 1.00337 0.99006
1.0037 1.00002 0.987966
0.999672 0.998886 0.996337
0.999631 0.99996 0.995283
0.999983 1.00178 0.992912
1.0032 1.00057 0.988328
1.00467 0.999936 0.986283
1.00042 1.00287 0.991017
1.00165 1.00366 0.988094
1.00376 1.00128 0.986748
1.00293 1.00238 0.986939
0.999777 0.99856 0.996499
1.00024 1.00235 0.991907
0.999997 1.00089 0.993784
1.00019 1.00314 0.991256
1.00477 0.999783 0.98627
1.00432 1.00043 0.986441
1.00508 0.9997 0.985791
1.00094 1.00381 0.989285
1.00432 1.00092 0.986083
1.00195 1.00416 0.987073
1.00337 1.00161 0.986867
0.999878 0.99831 0.996575
1.00008 1.0003 0.994239
1.00057 1.00347 0.990338
1.00015 1.00227 0.992202
1.0002 1.00402 0.990398
1.0051 0.99946 0.985998
1.00488 1.00004 0.985777
1.00513 0.999342 0.986056
1.0012 1.00472 0.987951
1.00456 1.00049 0.985882
1.00262 1.00332 0.986012
1.00023 0.999828 0.994455
1.00023 1.00093 0.993375
1.00028 0.99974 0.994456
1.00025 0.999778 0.994459
0.999997 0.997951 0.997148
0.999941 0.998119 0.996871
0.999778 0.997082 0.998223
0.999632 0.997226 0.999228
0.999538 0.997419 0.999216
0.999847 0.999066 0.995832
0.999561 0.997936 0.999022
0.999789 0.999444 0.99557
0.999563 0.998211 0.998912
0.999751 0.999877 0.995213
0.999575 0.998522 0.998754
1.00375 0.999995 0.987905
1.0038 0.999915 0.987912
1.00483 0.999595 0.986364
1.00487 0.999343 0.986559
1.00384 0.999792 0.987937
1.00145 0.999995 0.991969
1.00385 0.999769 0.987952
1.00488 0.99925 0.986633
1.00484 0.999478 0.986469
1.00516 0.998497 0.986914
1.00482 0.999684 0.986294
1.00516 0.998938 0.986433
1.00488 0.99923 0.986646
1.00514 0.998388 0.987076
1.00517 0.998695 0.986656
1.00516 0.997682 0.98771
1.00514 0.999195 0.986216
1.00516 0.997725 0.987616
1.00382 0.999701 0.987818
1.00374 0.999819 0.988465
1.00482 0.999296 0.9869
1.00475 0.999558 0.986861
0.999829 1.00057 0.99441
1.00079 1.00274 0.990628
1.00239 1.00286 0.987505
1.0046 0.999676 0.987024
1.0051 0.998746 0.986716
1.00493 0.999315 0.986443
1.00459 1.00057 0.98571
1.00509 0.999313 0.986159
1.0004 1.0024 0.991553
1.00045 1.0033 0.990509
1.00019 1.00186 0.992476
1.00487 0.999302 0.986737
1.0048 0.999386 0.98684
1.00513 0.998548 0.986937
1.00513 0.998862 0.986614
1.00049 1.00256 0.991261
1.00147 1.00323 0.988904
1.0032 1.00299 0.985749
1.00504 0.999055 0.986556
1.00517 0.997819 0.987555
1.005 1.00035 0.985363
1.00511 0.998732 0.986656
1.00512 0.998714 0.986778
1.0008 1.00289 0.990457
1.00079 1.00339 0.99001
1.00017 1.00139 0.992977
1.00022 1.00336 0.990822
1.00514 0.998553 0.9869
1.00514 0.998719 0.986874
1.00514 0.997894 0.987497
1.00516 0.99743 0.98793
1.00514 0.998173 0.987233
1.00513 0.996987 0.988415
1.00101 1.0028 0.990101
1.00512 0.997695 0.987612
1.00159 1.00406 0.987381
1.00431 1.00257 0.984727
1.00515 0.999947 0.985406
1.00512 0.998404 0.987017
1.00017 1.00104 0.993331
1.00017 1.00296 0.991346
1.00098 1.00296 0.990021
1.00042 1.00392 0.990075
1.00099 1.0031 0.989976
0.999772 0.998545 0.996508
1.00477 0.999782 0.986262
0.999999 1.00085 0.993806
1.0002 1.00242 0.991909
1.00012 1.00323 0.991248
1.00433 1.00043 0.986433
1.00508 0.999705 0.985776
1.00095 1.00374 0.989299
1.00202 1.00421 0.987015
1.00439 1.00097 0.986118
1.00325 1.00134 0.987349
0.999873 0.998306 0.996578
1.00009 1.00028 0.99425
1.00056 1.00342 0.990348
1.00009 1.00234 0.99221
1.00014 1.00414 0.99028
1.00511 0.999469 0.985977
1.00489 1.00005 0.985767
1.00513 0.999349 0.986023
1.00114 1.00476 0.987971
1.00453 1.00054 0.986
1.00285 1.00319 0.986066
1.00017 0.99998 0.994407
1.00017 1.00153 0.992925
1.0007 1.00435 0.989239
1 1.00353 0.991234
1.00032 1.00448 0.98984
1.00513 0.998768 0.986615
1.00503 0.999756 0.985729
1.00512 0.998307 0.986848
1.00139 1.0049 0.987243
1.00428 1.00148 0.985314
1.00022 0.999843 0.994452
1.00023 1.00093 0.993307
1.00022 1.00094 0.993337
1.00016 1.00164 0.992901
1.00023 1.00097 0.993357
1.00028 0.999765 0.994431
1.00027 0.999749 0.994455
1.00006 0.997832 0.99715
1.00025 0.999794 0.994456
1.00001 0.997952 0.997147
0.999883 0.996856 0.998245
0.999931 0.998114 0.997123
0.99975 0.997037 0.998734
0.999645 0.997182 0.999233
0.999905 0.998786 0.996017
0.999842 0.999105 0.995816
0.999606 0.997716 0.999074
0.999577 0.997976 0.998999
0.999784 0.999492 0.99555
0.999585 0.998247 0.998874
1.00482 0.999688 0.986287
1.00484 0.99948 0.986461
1.00516 0.998957 0.986427
1.00516 0.998426 0.987001
1.00487 0.999252 0.986632
1.00385 0.999767 0.987952
1.00488 0.99923 0.986648
1.00514 0.998398 0.987076
1.00517 0.998706 0.986656
1.00516 0.99756 0.987865
1.00514 0.999208 0.986198
1.00517 0.997606 0.987724
1.00514 0.998438 0.987038
1.00512 0.9977 0.987762
1.00517 0.997381 0.988007
1.00511 0.996883 0.988602
1.00514 0.998141 0.987207
1.00514 0.996805 0.988659
1.00487 0.999263 0.986645
1.00481 0.999389 0.986831
1.00513 0.99843 0.98703
1.00512 0.998895 0.98663
1.00055 1.00252 0.991254
1.00154 1.00322 0.988864
1.00302 1.00306 0.986007
1.00504 0.999171 0.986533
1.00516 0.997669 0.987727
1.0051 0.998727 0.986683
1.00501 1.00028 0.985269
1.00512 0.998647 0.986868
1.00078 1.00293 0.990462
1.00071 1.0035 0.989961
1.00018 1.0014 0.992966
1.00019 1.00331 0.990905
1.00514 0.998558 0.9869
1.00514 0.998758 0.986793
1.00515 0.997848 0.987568
1.00516 0.997531 0.987813
1.00102 1.00289 0.990067
1.00158 1.00402 0.987618
1.00419 1.00247 0.984699
1.00514 0.998293 0.987089
1.00514 0.996818 0.988534
1.00514 0.999961 0.98539
1.00511 0.997714 0.987625
1.00513 0.998227 0.987093
1.00102 1.00297 0.990014
1.00099 1.00307 0.990002
1.00036 1.00402 0.99006
1.00016 1.00104 0.993256
1.00014 1.0029 0.991425
1.00512 0.997768 0.987771
1.00514 0.997481 0.987953
1.00512 0.996321 0.989117
1.00511 0.996895 0.988403
1.00109 1.00341 0.989333
1.00511 0.997287 0.988175
1.00174 1.00409 0.986717
1.00489 1.00195 0.984401
1.00515 0.999457 0.985701
1.00014 1.00074 0.993493
1.00015 1.00248 0.992036
1.00018 1.00362 0.990849
1.00113 1.00282 0.989945
1.00053 1.00421 0.989585
1.00122 1.0026 0.989824
0.999868 0.998305 0.996581
1.00009 1.00025 0.994261
1.00512 0.999476 0.985957
1.00003 1.00242 0.992219
1.00051 1.00344 0.990358
1.00009 1.00427 0.990162
1.0049 1.00006 0.985757
1.00513 0.999357 0.985991
1.00107 1.0048 0.987991
1.00306 1.00313 0.986119
1.00449 1.00059 0.986123
1.00017 0.999981 0.994408
1.00014 1.00153 0.992941
1.00067 1.00439 0.989214
0.999938 1.0036 0.991236
1.00028 1.00441 0.989846
1.00513 0.998799 0.986592
1.00506 0.999766 0.985691
1.00512 0.998313 0.986908
1.00138 1.00486 0.987116
1.00431 1.0016 0.985372
1.00021 1.0011 0.993273
0.999919 1.00278 0.991961
1.00085 1.00431 0.988863
0.999929 1.0045 0.990234
1.00062 1.00406 0.989612
1.00513 0.997076 0.98815
1.00508 0.999396 0.986002
1.00508 0.99804 0.987138
1.00241 1.00419 0.986531
1.0045 1.00088 0.985294
1.00022 0.999856 0.994449
1.00023 1.00092 0.993343
1.00006 1.00169 0.992846
1.0002 1.00095 0.993299
1.00022 1.00098 0.993356
1.00011 1.00168 0.992847
1.00004 1.00209 0.992618
1.00012 1.00173 0.99272
1.00021 1.00105 0.993309
1.00025 0.999852 0.994396
1.00027 0.999778 0.994431
1.00011 0.997775 0.997122
1.00027 0.999758 0.994454
1.00007 0.997844 0.997145
0.999959 0.99672 0.998244
1.00001 0.997952 0.997148
0.999871 0.99683 0.998251
0.999718 0.996982 0.999255
0.99996 0.998498 0.996215
0.999905 0.998808 0.996003
0.999668 0.997476 0.999117
0.999837 0.999145 0.9958
0.999612 0.997754 0.999059
0.999594 0.998008 0.998972
1.00514 0.99922 0.986179
1.00517 0.99872 0.986656
1.00517 0.997485 0.987833
1.00515 0.997438 0.988021
1.00514 0.998408 0.987076
1.00488 0.99923 0.98665
1.00514 0.998486 0.986973
1.00512 0.997772 0.987707
1.00516 0.997449 0.987918
1.00511 0.996739 0.988706
1.00514 0.998164 0.987202
1.00513 0.9966 0.988785
1.00511 0.997855 0.987688
1.00508 0.996876 0.988601
1.00512 0.996253 0.989153
1.00512 0.996566 0.988889
1.00513 0.998562 0.986899
1.00513 0.998796 0.986712
1.00515 0.997805 0.987639
1.00516 0.997635 0.987696
1.00107 1.00293 0.990033
1.00158 1.00397 0.987855
1.00407 1.00237 0.984671
1.00514 0.998413 0.986944
1.00515 0.996654 0.988651
1.00511 0.997734 0.987638
1.00514 0.99999 0.985374
1.00514 0.998064 0.987169
1.00106 1.00298 0.990006
1.00104 1.00297 0.990026
1.00031 1.00412 0.990045
1.00016 1.00103 0.993179
1.00013 1.00284 0.991504
1.00512 0.997779 0.987765
1.00514 0.997507 0.987953
1.00512 0.996426 0.988972
1.00117 1.00341 0.989295
1.00192 1.00418 0.986841
1.00474 1.00173 0.984371
1.00511 0.99694 0.988388
1.00514 0.999301 0.9859
1.00511 0.997247 0.988026
1.00014 1.0007 0.993545
1.00119 1.00277 0.989922
1.00114 1.00251 0.990092
1.00055 1.00433 0.989489
1.00019 1.00361 0.990869
1.00014 1.00247 0.991973
1.00505 0.997225 0.988282
1.00514 0.996142 0.989236
1.00509 0.995882 0.989391
1.00511 0.996216 0.989127
1.0013 1.00362 0.988811
1.0051 0.997955 0.987323
1.00271 1.00376 0.985576
1.00497 1.00131 0.98462
1.00015 1.00028 0.993924
1.00013 1.00214 0.992405
1.00018 1.00314 0.991403
1.00014 1.00432 0.990141
1.00133 1.00254 0.989759
1.00126 1.00327 0.989209
1.00017 0.999982 0.994409
1.00012 1.00151 0.992957
1.00513 0.998831 0.98657
0.999881 1.00366 0.991239
1.00063 1.00443 0.989191
1.00016 1.00437 0.989853
1.00509 0.999775 0.985654
1.00511 0.998321 0.986967
1.0014 1.00486 0.986988
1.00433 1.00168 0.98543
1.0002 1.00108 0.993282
0.999969 1.00273 0.991993
1.00086 1.00437 0.988877
0.999836 1.00468 0.990206
1.00048 1.00385 0.989968
1.00513 0.997047 0.988335
1.00508 0.999405 0.986036
1.00508 0.998125 0.987098
1.00227 1.00433 0.986438
1.00458 1.00079 0.985274
0.999993 1.00196 0.992639
0.9998 1.0038 0.990978
1.00128 1.00392 0.988547
1.00003 1.00481 0.989199
1.00512 0.995602 0.989653
1.00503 0.997059 0.988484
1.00505 0.999295 0.986049
1.00299 1.00264 0.985557
1.00024 1.00091 0.993378
1.00007 1.00171 0.992862
0.999895 1.00234 0.992615
1.0002 1.00099 0.993354
1.00007 1.0017 0.992794
1.00021 1.00104 0.993305
1.00003 1.00208 0.992595
1.00012 1.00173 0.992746
0.999978 1.00233 0.992454
1.00008 1.00213 0.992438
1.00014 1.00181 0.992573
1.00021 1.00115 0.993197
1.00021 0.999937 0.994369
1.00025 0.99985 0.994394
1.00014 0.997759 0.997085
1.00027 0.999779 0.99443
1.00011 0.997799 0.997116
1.00002 0.996639 0.99822
1.00007 0.997856 0.997142
0.999951 0.99669 0.998251
0.99986 0.996806 0.998254
1.00002 0.998193 0.996413
0.999964 0.998511 0.996201
0.999741 0.997202 0.999166
0.999903 0.998836 0.99599
0.999668 0.997528 0.999103
0.999621 0.997791 0.999042
1.00514 0.998186 0.987197
1.00516 0.997519 0.98783
1.00513 0.996399 0.98891
1.00512 0.996594 0.988811
1.00513 0.997844 0.987652
1.00515 0.998536 0.986908
1.00511 0.997849 0.987695
1.00508 0.996919 0.988564
1.00512 0.996282 0.9891
1.00513 0.996519 0.988928
1.00502 0.997201 0.988427
1.00517 0.995787 0.989667
1.00515 0.995533 0.989613
1.00512 0.997789 0.987758
1.00513 0.997533 0.987952
1.00512 0.996533 0.988827
1.00124 1.00341 0.989256
1.00211 1.00428 0.986965
1.00459 1.00153 0.98434
1.00511 0.996983 0.988372
1.00512 0.997207 0.987877
1.00514 0.999147 0.986099
1.00125 1.00272 0.989898
1.00103 1.00244 0.990361
1.00057 1.00447 0.989393
1.00014 1.00065 0.993597
1.00019 1.00361 0.99089
1.00013 1.00245 0.99191
1.00504 0.997272 0.988313
1.00515 0.996072 0.9893
1.00509 0.995885 0.98943
1.00133 1.00364 0.988774
1.00256 1.00392 0.985868
1.00493 1.00106 0.984737
1.00511 0.996267 0.989063
1.00511 0.997921 0.987292
1.00015 1.00026 0.994054
1.00014 1.00214 0.992397
1.00119 1.00245 0.98984
1.00119 1.00327 0.989539
1.00018 1.00428 0.990146
1.00015 1.00318 0.991345
1.00513 0.995844 0.989593
1.00513 0.995253 0.990001
1.00508 0.99558 0.989746
1.0051 0.996422 0.989016
1.00137 1.00356 0.988193
1.00498 0.999753 0.985724
1.00368 1.00337 0.985178
1.00018 0.999953 0.99442
1.00014 1.00123 0.993243
1.00011 1.00175 0.99263
1.00007 1.003 0.991633
1.00007 1.00381 0.990786
1.00007 1.00429 0.99002
1.00184 1.0012 0.989879
1.00111 1.00284 0.990506
1.00019 1.00108 0.993291
1.00001 1.00271 0.992024
1.00513 0.997022 0.988519
0.999863 1.0048 0.990178
1.00086 1.00446 0.988892
1.00031 1.00368 0.990323
1.00509 0.999405 0.98607
1.00509 0.998203 0.987059
1.00211 1.00442 0.986349
1.0047 1.00068 0.985253
1.00002 1.00199 0.992586
0.999861 1.00385 0.990971
1.0012 1.004 0.988607
1.00026 1.0048 0.989315
1.00513 0.995525 0.989764
1.00505 0.997133 0.988272
1.00503 0.999298 0.986058
1.00333 1.00278 0.985416
0.999839 1.00288 0.992114
1.0051 0.994995 0.990211
1.00011 1.00473 0.990083
1.0014 1.00464 0.98758
1.00501 0.995893 0.989851
1.0049 0.998398 0.986789
1.00441 1.00145 0.985394
1.00007 1.00175 0.992878
0.99989 1.00233 0.992599
0.999742 1.00287 0.992365
1.00021 1.00103 0.9933
1.00012 1.00173 0.992773
0.999983 1.00209 0.992573
1.00022 1.00114 0.993187
1.00014 1.00181 0.992594
0.999945 1.00237 0.992416
1.00011 1.00209 0.992474
1.00006 1.00239 0.992251
1.00006 1.00231 0.992289
1.00015 1.00229 0.992213
1.00026 1.00186 0.992374
1.00023 1.00125 0.993064
1.00018 1.00001 0.994343
1.00021 0.999943 0.994368
1.00016 0.997785 0.997032
1.00025 0.999863 0.994393
1.00014 0.997791 0.997078
1.00006 0.996579 0.998197
1.00011 0.997822 0.99711
1.00001 0.996603 0.998227
0.999943 0.996662 0.998255
1.00016 0.999813 0.994595
1.00007 0.997951 0.996567
1.00003 0.998204 0.9964
0.999822 0.996942 0.999208
0.999967 0.998529 0.996187
0.999737 0.997264 0.99915
0.99967 0.997575 0.99909
1.00513 0.99647 0.988967
1.00512 0.996312 0.989048
1.00509 0.996962 0.988526
1.00512 0.997842 0.987702
1.00503 0.997148 0.988497
1.00515 0.995778 0.989654
1.00515 0.995572 0.989604
1.00515 0.995716 0.989661
1.00521 0.995089 0.990187
1.00505 0.994916 0.990584
1.00504 0.99732 0.988343
1.00517 0.996003 0.989365
1.00509 0.995875 0.989469
1.00136 1.00365 0.988737
1.00241 1.00409 0.98616
1.00488 1.0008 0.984854
1.00511 0.996323 0.988999
1.0051 0.997869 0.98726
1.00106 1.0024 0.989921
1.00114 1.00326 0.989865
1.00014 1.00433 0.990152
1.00015 1.00024 0.994183
1.00015 1.00213 0.99239
1.00012 1.00324 0.991287
1.00514 0.995808 0.989606
1.00017 0.999964 0.994417
1.00013 1.00124 0.993187
1.00513 0.995311 0.990007
1.00509 0.995537 0.989709
1.00119 1.00371 0.98853
1.00354 1.00334 0.985105
1.00493 0.99968 0.985717
1.00504 0.996418 0.988907
1.00012 1.00174 0.9928
1.00009 1.00297 0.991617
1.002 1.00147 0.989643
1.00072 1.00289 0.990755
1.00009 1.00436 0.990036
1.00006 1.00377 0.990847
1.00522 0.995156 0.990063
1.00506 0.995012 0.990349
1.00509 0.995154 0.989903
1.00505 0.9967 0.988292
1.00162 1.00295 0.988696
1.00413 1.00271 0.985053
1.00012 1.00109 0.993265
1.00014 1.0014 0.993081
1.00009 1.00227 0.992429
1.00004 1.00294 0.991552
1.00001 1.00358 0.991271
1.00022 1.00394 0.990249
0.999606 1.00466 0.990423
1.00119 1.00133 0.990995
1.00005 1.00201 0.992532
0.999925 1.00388 0.990965
1.00514 0.995442 0.989875
1.00505 0.997227 0.988061
1.00047 1.00481 0.989431
1.00112 1.00407 0.988663
1.005 0.999301 0.986066
1.00368 1.00295 0.985272
0.999853 1.00288 0.992079
1.00511 0.994976 0.990245
0.999958 1.00469 0.990177
1.00139 1.00448 0.987551
1.00499 0.995776 0.989732
1.00484 0.998413 0.987011
1.00432 1.00164 0.985426
0.999826 1.00413 0.99118
1.00479 0.995122 0.991426
1.00084 1.00471 0.989365
1.00241 1.00423 0.986969
1.00481 0.996745 0.988795
1.00398 1.00061 0.986428
0.999637 0.998232 0.99198
0.999884 1.00233 0.992583
0.999719 1.0029 0.992354
0.99994 1.00302 0.991985
1.00022 1.00114 0.993177
1.00013 1.00182 0.992616
1.00013 1.00205 0.992511
0.999925 1.00237 0.992377
1.00023 1.00124 0.99306
1.00024 1.00188 0.992374
1.00007 1.00244 0.992162
1.00014 1.0023 0.992215
1.0001 1.00227 0.99231
1.0002 1.00223 0.992163
1.00023 1.00243 0.99192
1.0002 1.0023 0.992101
1.00035 1.00195 0.992138
1.00027 1.0013 0.992861
1.00027 1.00178 0.992556
1.00026 1.00129 0.992872
1.00018 1.00004 0.994312
1.00018 1.00001 0.994342
1.00018 0.997852 0.996462
1.00021 0.999943 0.994367
1.00017 0.997821 0.996763
1.00003 0.996524 0.999223
1.00014 0.997822 0.997073
1.00006 0.996538 0.998203
1.00001 0.996569 0.998231
1.00014 0.999692 0.994744
1.00017 0.9998 0.994596
1.0001 0.997785 0.99669
1.00006 0.997955 0.996818
0.999893 0.996731 0.999244
1.00003 0.998213 0.996388
0.999814 0.997002 0.999196
0.999734 0.997329 0.999135
1.00515 0.995611 0.989596
1.00514 0.995768 0.989642
1.00504 0.997093 0.988567
1.00513 0.995725 0.98966
1.00521 0.995085 0.990126
1.00505 0.994921 0.990417
1.0052 0.994901 0.990283
1.00083 0.997536 0.988436
1.00455 0.994987 0.99239
1.00009 1.001 0.993563
1.00514 0.995769 0.98962
1.00513 0.995375 0.990012
1.00509 0.995497 0.989671
1.001 1.00383 0.988867
1.00343 1.00333 0.985032
1.00488 0.999622 0.985711
1.00497 0.996426 0.988796
1.0022 1.00164 0.989414
1.00031 1.00293 0.991012
1.00015 1.00439 0.990052
1.00016 0.999981 0.994415
1.00007 1.00372 0.990907
1.00014 1.00171 0.99297
1.0001 1.00295 0.991601
1.00012 1.00124 0.993131
1.00522 0.995051 0.990112
1.00011 1.00108 0.993362
1.00014 1.00141 0.993079
1.00011 1.00226 0.99232
1.00505 0.995051 0.990344
1.00509 0.995266 0.989775
1.0017 1.00281 0.988758
1.00378 1.00238 0.98528
1.00498 0.996968 0.988249
1.00004 1.00292 0.99164
1.00004 1.00354 0.991167
1.00113 1.0017 0.990746
0.999734 1.00465 0.990498
1.00027 1.00385 0.990305
1.00512 0.994976 0.990418
1.0051 0.994976 0.9903
1.00508 0.995791 0.989262
1.00428 0.999338 0.987925
1.00114 1.00309 0.989506
1.00007 1.00215 0.992288
1.00011 1.00248 0.991884
0.999934 1.00328 0.991564
0.999937 1.00399 0.990999
0.999985 1.00393 0.990727
0.999824 1.00455 0.990236
0.999886 1.00452 0.990346
0.999881 1.00287 0.992043
0.999802 1.00467 0.990273
1.00512 0.994953 0.990278
1.00497 0.99564 0.989613
1.0048 0.998413 0.987234
1.00138 1.00429 0.987525
1.00426 1.00182 0.985459
0.999785 1.004 0.991322
1.00471 0.995055 0.991449
1.00052 1.00453 0.989559
1.00205 1.00435 0.986992
1.00481 0.996565 0.989068
1.00409 1.00052 0.986359
0.999616 0.998155 0.990193
0.999961 1.0042 0.990805
1.00426 0.99579 0.991641
1.00048 1.00457 0.989528
1.00231 1.00292 0.987339
1.0042 0.998008 0.987766
1.00082 0.995557 0.957472
0.996154 0.997535 0.976187
0.998211 1.00123 0.99179
0.999882 0.996476 0.922689
0.994921 0.998144 0.908386
0.99971 1.00289 0.992342
0.999806 1.00311 0.992049
1.00008 1.00241 0.992264
1.00023 1.00124 0.993056
1.00026 1.00183 0.992373
1.00013 1.00231 0.992217
1.00012 1.00224 0.992332
1.00009 1.0025 0.992073
1.00022 1.00227 0.992059
1.00026 1.00128 0.992925
1.00035 1.00194 0.992157
1.0002 1.00224 0.992144
1.00021 1.00244 0.99195
1.00025 1.00243 0.991908
1.00017 1.0022 0.992128
1.00033 1.00233 0.991854
1.0004 1.00195 0.992001
1.00027 1.00132 0.99282
1.00035 1.00186 0.992289
1.00029 1.00198 0.992275
1.00016 1.00183 0.992595
1.00027 1.0018 0.992495
1.00025 1.0012 0.993078
1.00026 1.00129 0.992863
1.0002 1.00003 0.994282
1.00018 1.00004 0.994312
1.00017 0.997912 0.996442
1.00018 1.00001 0.994342
1.00018 0.997858 0.996461
1.00004 0.996526 0.999216
1.00018 0.997856 0.996494
1.00006 0.996525 0.998695
1.00006 0.996499 0.998208
1.00012 0.999625 0.99485
1.00014 0.999697 0.994742
1.00013 0.997656 0.996772
1.00017 0.999787 0.994597
1.0001 0.997756 0.996943
0.99995 0.996552 0.999272
1.00007 0.997994 0.996533
0.999883 0.996813 0.999226
0.999807 0.997049 0.999184
1.0052 0.995083 0.990065
1.00511 0.995737 0.989658
1.00505 0.994929 0.99025
1.00079 0.997166 0.988541
1.0052 0.994905 0.990249
1.00449 0.995314 0.992142
1.00492 0.996034 0.990971
0.997152 0.997576 0.974009
1.00168 0.996214 0.990096
1.00009 1.00096 0.993603
1.00011 1.00099 0.993557
0.999986 1.00211 0.992609
1.00007 1.00186 0.992746
1.00523 0.994942 0.990162
1.00503 0.995067 0.99034
1.00509 0.995375 0.989646
1.0019 1.00261 0.988819
1.0034 1.00199 0.985505
1.00492 0.997281 0.988204
1.001 1.0022 0.990489
0.999883 1.00465 0.990571
1.0003 1.00375 0.990361
1.00012 1.00144 0.993077
1.00007 1.00347 0.991064
1.00006 1.00292 0.991729
1.00011 1.00107 0.99346
1.00011 1.00225 0.99221
1.00513 0.994941 0.990397
1.00005 1.00221 0.992416
1.0001 1.00248 0.991997
0.999896 1.0031 0.991754
1.00511 0.994939 0.99029
1.00508 0.995644 0.989253
1.00141 1.00275 0.989469
1.0042 0.999279 0.988
0.99995 1.00398 0.990974
1.00006 1.00391 0.990602
0.999907 1.00457 0.990352
1.00007 1.00447 0.990224
1.00503 0.995238 0.990518
1.00509 0.994938 0.990344
1.00438 0.997478 0.989175
1.00144 1.00197 0.990269
0.999957 1.0034 0.991326
0.999978 1.00368 0.991013
0.999639 1.00459 0.990702
0.999797 1.00513 0.989801
1.00022 0.994917 0.952618
0.999722 1.0039 0.991463
1.00016 1.00441 0.989752
1.00464 0.995012 0.991465
1.00479 0.996395 0.989339
1.0042 1.00039 0.986288
1.00163 1.00444 0.987012
0.999677 0.998008 0.988367
0.999815 1.00426 0.990931
1.00436 0.995618 0.991601
1.00037 1.00454 0.989582
1.00243 1.00274 0.987329
1.00441 0.998009 0.987916
1.00148 0.995795 0.951891
0.995884 0.997695 0.972328
0.998144 1.0012 0.991716
0.999841 0.997081 0.924989
0.99469 0.998142 0.901062
0.999815 1.00367 0.991656
0.999898 0.995333 0.928935
0.995075 0.998779 0.909849
1.00326 0.998589 0.990853
1.00011 1.00442 0.990161
1.00269 1.0014 0.987667
0.997435 1.00248 0.992324
0.999738 0.996798 0.956493
0.994863 0.998049 0.970665
0.998453 0.998101 0.92787
0.994763 0.999708 0.909646
0.99968 1.00319 0.992113
0.999984 1.00263 0.992202
0.999966 1.00145 0.993645
1.00026 1.00125 0.99299
1.00034 1.00195 0.992175
1.00017 1.00232 0.992018
1.0002 1.00244 0.99198
1.0002 1.00225 0.992125
1.00028 1.00131 0.992822
1.00024 1.00246 0.991872
1.00032 1.00233 0.991881
1.0004 1.00195 0.992064
1.00019 1.00213 0.992188
1.00026 1.00249 0.991877
1.00021 1.00183 0.992387
1.00044 1.00233 0.991622
1.00041 1.00193 0.99211
1.00037 1.00184 0.992279
1.0003 1.00198 0.992275
1.00043 1.00197 0.992022
1.00015 1.00214 0.992314
1.00022 1.00193 0.992319
0.99985 1.00289 0.992042
1.00005 1.00199 0.99262
1.00016 1.00185 0.992594
1.00021 1.00118 0.99315
1.00027 1.00181 0.992434
1.00025 1.00121 0.993028
1.00024 0.999998 0.994271
1.00026 1.0013 0.992853
1.0002 1.00003 0.994283
1.00013 0.99794 0.996984
1.00018 1.00004 0.994312
1.00016 0.997901 0.996713
1.00009 0.996556 0.99813
1.00018 0.997863 0.99646
1.00004 0.996533 0.999214
1.0001 0.996528 0.998165
1.00011 1.00102 0.993512
1.00012 0.999614 0.99487
1.00012 0.999625 0.994849
1.00014 0.997592 0.996808
1.00014 0.9997 0.994739
1.00014 0.997637 0.996771
0.999995 0.996433 0.999287
1.00009 0.997765 0.997175
0.999964 0.996625 0.998762
0.999926 0.99686 0.99819
1.00065 0.996823 0.988669
1.00519 0.994909 0.990217
1.00444 0.99564 0.991894
0.99652 0.997172 0.975611
1.00143 0.996414 0.99033
1.00497 0.995538 0.990804
1.00389 0.996127 0.9901
0.997671 0.996386 0.978358
1.00006 0.995508 0.955787
0.999296 0.997769 0.929262
0.994651 0.998147 0.906925
0.999986 1.00196 0.992605
1.00009 1.00097 0.9936
1.00012 1.00097 0.993551
1.00001 1.00211 0.992568
0.999974 1.00288 0.991927
1.00019 1.00238 0.992092
1.0001 1.00202 0.992562
1.00003 1.00195 0.992672
1.00514 0.99491 0.990375
1.00513 0.994934 0.990274
1.00508 0.995437 0.989247
1.00156 1.00247 0.989434
1.00416 0.9992 0.988073
0.999928 1.00455 0.990361
1.00031 1.0044 0.990212
1.00016 1.00392 0.990478
1.00009 1.00248 0.992111
0.999948 1.00399 0.990948
1.00005 1.00227 0.992544
0.999919 1.00289 0.991945
1.00501 0.995124 0.990555
0.999957 1.00337 0.991406
0.999962 1.00367 0.991135
1.00505 0.994941 0.99023
1.00396 0.997261 0.989545
1.0016 1.0018 0.990123
0.999773 1.00466 0.990521
0.999979 1.00501 0.989819
1.00293 0.999088 0.990905
1.0044 0.996017 0.991116
1.00266 0.998114 0.990704
1.00076 1.00249 0.990583
0.999966 1.00384 0.990847
0.999761 1.00454 0.990561
0.999715 1.00518 0.990055
0.999941 0.994851 0.928757
1.00077 0.994979 0.959957
0.999694 1.00431 0.991057
1.00028 1.00445 0.989635
1.0044 0.995427 0.991566
1.0046 0.99806 0.988066
1.00253 1.00266 0.987323
1.00034 0.995269 0.955708
0.996292 0.997929 0.971893
0.998048 1.00099 0.991628
0.998682 0.996838 0.930998
0.994643 0.998144 0.893675
0.999725 1.00365 0.991682
0.999916 0.995768 0.927698
0.995202 0.998653 0.906323
1.00324 0.998463 0.990829
1.00003 1.00434 0.990277
1.00231 1.00139 0.988377
0.9978 1.00213 0.992964
1.00105 0.9968 0.952189
0.994995 0.997518 0.974101
0.998562 0.998835 0.928171
0.994901 0.999697 0.907609
0.999345 1.0031 0.993203
0.995264 0.998359 0.911544
0.994997 1.00078 0.926501
1.00026 1.00076 0.993014
0.99927 1.0042 0.992307
0.996615 1.00278 0.993686
0.994842 0.999548 0.975124
0.997657 0.998507 0.950485
0.995252 0.999902 0.932727
0.994749 0.998542 0.91715
0.999941 1.0028 0.99214
0.999996 1.00141 0.993573
0.999725 1.00014 0.994878
1.00028 1.0013 0.992823
1.00039 1.00195 0.992127
1.00031 1.00231 0.991907
1.00024 1.0025 0.991836
1.00019 1.00208 0.992249
1.00041 1.00195 0.992102
1.00026 1.00246 0.991867
1.00044 1.00236 0.991621
1.00006 1.00184 0.992547
0.999357 1.00193 0.993705
1.00032 1.00251 0.991736
1.00054 1.00218 0.99171
1.00039 1.00182 0.992268
1.00031 1.00196 0.992274
1.00043 1.00197 0.992018
1.00016 1.00214 0.992304
1.00023 1.00191 0.992361
1 1.00243 0.992252
1.00031 1.00187 0.992195
1.00003 1.00203 0.992586
1.00011 1.00277 0.991783
0.999709 1.00474 0.990149
0.999641 1.00352 0.9916
0.999858 1.00294 0.992026
0.999967 1.0022 0.99255
1.00006 1.00199 0.992616
1.00017 1.0012 0.993189
1.00015 1.00188 0.992593
1.00022 1.00118 0.993152
1.00025 0.999949 0.994285
1.00026 1.00121 0.992978
1.00024 0.999985 0.994274
1.00011 0.99797 0.996995
1.0002 1.00003 0.994285
1.00014 0.997929 0.996716
1.00006 0.996577 0.998138
1.00018 0.997883 0.996442
1.00003 0.996559 0.999209
1.00004 0.996538 0.999212
1.00015 1.00111 0.993552
1.00013 0.99966 0.994799
1.0001 1.00103 0.993513
1.00015 0.997566 0.996815
1.00012 0.999608 0.994871
1.00012 0.999628 0.994847
1.00015 0.99759 0.996805
1.00002 0.996373 0.999292
1.00011 0.997631 0.997252
1.00001 0.996455 0.998795
0.999995 0.996615 0.998277
0.999872 0.995891 0.923625
0.995188 0.998076 0.909743
0.997748 0.99668 0.976333
1.00121 0.996517 0.990571
1.005 0.995007 0.99064
0.996919 0.996007 0.980265
1.0039 0.995877 0.990276
1.00131 0.99565 0.955618
0.99983 0.996803 0.923457
0.994649 0.998142 0.899583
0.998403 0.997065 0.983285
0.999491 0.99734 0.956769
0.998469 0.998625 0.926201
0.994738 0.999376 0.90824
1.00011 1.00279 0.991722
1.00001 1.00195 0.992679
1.0001 1.00095 0.993597
1.00002 1.00208 0.992527
0.999973 1.00277 0.992014
1.00022 1.00257 0.991836
1.00019 1.00235 0.992082
1.00017 1.00216 0.992228
1.00011 1.00201 0.992491
1.00002 1.00201 0.992599
1.00498 0.994888 0.990598
1.00508 0.994933 0.990131
1.00354 0.997027 0.989921
1.00169 1.00172 0.989976
1.00017 1.00493 0.989837
0.999911 1.00472 0.990341
0.999931 1.00367 0.991259
0.999929 1.00334 0.991485
1.00312 0.998115 0.991123
0.999956 1.00387 0.990829
0.999767 1.00463 0.990435
1.00426 0.995943 0.99083
1.00232 0.998122 0.991426
1.001 1.00264 0.990071
0.999923 1.00513 0.989957
0.999919 0.999656 0.993469
1.00163 0.997864 0.994167
0.999747 1.004 0.990698
0.999942 1.00382 0.990891
0.999872 1.00452 0.990306
0.999774 1.00513 0.989975
0.994744 0.998291 0.923056
0.999936 0.99498 0.931508
1.00027 0.994958 0.952483
0.999596 1.00377 0.991709
0.999967 1.00421 0.990394
1.00325 0.998313 0.990807
1.00199 1.00151 0.989083
0.999886 0.995483 0.931987
0.999297 0.996737 0.952281
0.994895 0.996917 0.970726
0.998189 1.00119 0.99354
0.998454 0.998137 0.921679
0.995171 0.998492 0.907156
0.994998 0.999691 0.910975
0.999156 1.00308 0.993209
0.995167 0.997898 0.915735
0.995196 1.00094 0.925908
1.00059 1.00078 0.993005
0.998902 1.00432 0.9923
0.996378 1.00072 0.996276
0.994893 0.998774 0.973053
0.997646 0.998766 0.957115
0.997223 0.999888 0.926301
0.994733 0.998494 0.920856
0.998033 1.00237 0.995858
0.995021 0.998707 0.936725
0.994565 0.998698 0.940069
0.996159 1.00242 0.998956
0.994875 1.00002 0.981591
0.995578 1.00003 0.956695
0.994808 0.999936 0.925375
0.994812 0.997149 0.917924
1 1.00136 0.993502
0.999763 1.00023 0.995039
0.998957 1.00072 0.996389
1.0004 1.00197 0.992093
1.00045 1.00239 0.991619
1.00028 1.0024 0.991856
0.999932 1.00186 0.992708
1.00049 1.00221 0.991701
1.00031 1.00249 0.991741
0.999365 1.00176 0.993918
0.99781 1.00234 0.995922
0.999542 1.00272 0.992971
1.00042 1.00221 0.991826
1.00045 1.00197 0.992014
1.00016 1.00214 0.992293
1.00024 1.00192 0.992403
1.0003 1.0019 0.992208
1 1.00246 0.992245
1.00007 1.00204 0.992582
1.00008 1.00225 0.992424
0.999699 1.0018 0.993345
1.00046 1.00158 0.99219
1.00013 1.00266 0.991897
0.999775 1.00407 0.99087
1.00069 1.00494 0.988575
0.999823 1.00425 0.991035
0.999603 1.00479 0.990426
0.999704 1.00351 0.991689
0.999855 1.0026 0.992191
0.999871 1.00298 0.99201
0.999997 1.0022 0.992542
1.00013 1.00129 0.993173
1.00009 1.00199 0.992612
1.00019 1.0012 0.993187
1.00023 0.999967 0.994298
1.00023 1.00118 0.993155
1.00025 0.999955 0.994285
1.00007 0.998001 0.99702
1.00024 0.999985 0.994276
1.00012 0.99796 0.996733
1.00001 0.99666 0.998152
1.00016 0.997907 0.996445
1.00003 0.996592 0.998672
1.00003 0.996574 0.99921
1.00017 1.00126 0.993198
1.00016 0.999731 0.994687
1.00012 1.00115 0.993405
1.00016 0.997581 0.996793
1.00013 0.99965 0.994803
1.00008 1.00106 0.993513
1.00003 0.996352 0.999294
1.00015 0.997566 0.996816
1.00012 0.999596 0.994871
1.00015 0.997589 0.996803
1.00002 0.996383 0.999291
0.999993 0.996449 0.999283
0.99481 0.997096 0.917888
0.999904 0.995451 0.927069
0.995242 1.00071 0.926006
0.995229 0.998506 0.907487
0.997692 0.995747 0.976966
1.00386 0.996004 0.990456
1.00076 0.996108 0.955195
0.999849 0.996839 0.930049
0.994658 0.998141 0.892231
0.998341 0.997233 0.982151
1.00123 0.997065 0.948837
0.998564 0.99894 0.926715
0.994738 0.999544 0.904263
0.994972 0.999799 0.978089
0.998293 0.999725 0.949636
0.995906 0.999812 0.922817
0.994729 0.998205 0.911548
1.00011 1.0032 0.991362
1.00008 1.00279 0.991817
0.999992 1.002 0.992751
0.999976 1.00267 0.992101
1.00032 1.00268 0.991438
1.00022 1.00253 0.991887
1.00016 1.00235 0.992071
1.00029 1.00212 0.992179
1.00021 1.00211 0.992307
1.00012 1.00202 0.99242
1.00336 0.99734 0.991336
1.00412 0.995927 0.990547
1.00205 0.998204 0.99214
1.00129 1.00268 0.989569
1.00005 1.0051 0.989859
0.9998 1.00471 0.990311
0.999994 1.00383 0.99081
0.999982 1.00379 0.990915
1.00028 0.999495 0.993734
0.999929 1.00456 0.99033
0.999872 1.00514 0.989989
1.0017 0.997834 0.993791
1.00022 1.00373 0.990569
0.998689 0.997191 0.995694
0.998667 0.999117 0.998581
0.999595 1.00405 0.991096
1 1.0042 0.990494
0.999888 1.00503 0.989804
0.994698 0.998324 0.942276
0.994751 0.998261 0.921814
0.9999 0.995177 0.925566
0.998961 1.00306 0.99321
0.998599 1.00423 0.992278
1.00085 1.00079 0.993005
0.995121 0.997324 0.917216
0.997966 0.998678 0.950775
0.99486 0.998184 0.973845
0.996352 0.999822 0.999074
0.996217 0.99951 0.932528
0.995515 1.00111 0.925321
0.994739 0.998458 0.920907
0.998073 1.00233 0.996064
0.99507 0.997889 0.939344
0.994597 0.99886 0.939893
0.996363 1.00294 0.998308
0.994858 0.999929 0.982341
0.996302 1.00001 0.950475
0.994797 0.997565 0.919535
0.994891 0.999968 0.930036
0.996794 1.00302 0.99813
0.994398 0.995965 0.960351
0.994653 0.99754 0.943209
0.994747 0.998246 0.911691
0.994922 1.00165 0.994627
0.995846 0.999764 0.958938
0.994863 1.00001 0.928699
0.999875 1.00033 0.995198
0.999076 1.00064 0.996141
0.997162 1.00197 0.99825
1.00044 1.00225 0.991693
1.00028 1.00247 0.991745
0.999317 1.00166 0.994136
1.00036 1.00218 0.991896
0.99954 1.00266 0.992992
0.99806 1.00233 0.995571
0.997526 1.00274 0.996405
0.999496 1.00244 0.993246
1.0003 1.00193 0.992222
1.00001 1.00249 0.992238
1.00012 1.00203 0.992578
0.999807 1.00181 0.993275
1.00008 1.00217 0.992448
0.999586 1.00219 0.993256
1.00006 1.00187 0.992625
1.00033 1.0034 0.990456
1.00016 1.00254 0.992012
1.00007 1.00399 0.990726
1.0008 1.00448 0.988333
1.00088 1.0047 0.988197
0.999936 1.00473 0.990215
1.00055 1.00488 0.98869
0.99989 1.00328 0.991695
0.999782 1.0043 0.99094
0.99949 1.00481 0.990704
0.999765 1.00351 0.991779
0.999881 1.00256 0.992279
1.00009 1.00147 0.993061
1.00002 1.00219 0.992534
1.00015 1.00129 0.993171
1.00019 1.00005 0.994292
1.0002 1.0012 0.993186
1.00024 0.999963 0.994298
1.00001 0.998057 0.997052
1.00026 0.999949 0.994286
1.00008 0.997993 0.996763
0.999939 0.996757 0.998175
1.00013 0.997929 0.996466
0.999986 0.996672 0.99868
0.999995 0.996638 0.999212
1.00024 1.00138 0.992777
1.00019 0.999884 0.994291
1.00017 1.00127 0.993198
1.00016 0.997655 0.996717
1.00016 0.999739 0.994576
1.00009 1.00116 0.993258
1.00003 0.996381 0.999287
1.00016 0.997581 0.996796
1.00013 0.999638 0.994806
1.00003 0.996355 0.999294
1.00015 0.997565 0.996817
1.00002 0.996393 0.99929
0.994861 0.997132 0.940676
0.994855 0.997226 0.920337
0.999886 0.995885 0.928003
1.00036 1.00209 0.991984
0.994537 0.999199 0.942954
0.995327 1.00089 0.92549
0.995339 0.998695 0.909936
0.998424 0.997491 0.98064
0.999702 0.997732 0.956351
0.99847 0.998685 0.919852
0.994726 0.999748 0.905849
0.995678 0.999172 0.974357
0.9976 0.999173 0.955919
0.997354 0.999902 0.926035
0.99473 0.998507 0.912601
0.995075 0.999136 0.970577
0.995444 1.00083 0.955268
0.994839 0.999939 0.929743
0.99478 0.997411 0.917878
1.00023 1.00333 0.990986
1.00011 1.00323 0.9913
1.00009 1.00275 0.991912
1.00032 1.00258 0.991535
1.00033 1.00266 0.991532
1.00021 1.0025 0.991938
1.00031 1.00211 0.992194
1.00024 1.00207 0.992387
1.00057 0.999584 0.993973
1.00173 0.997827 0.993397
1.00001 1.00377 0.990939
1.00068 1.00358 0.990432
1.00003 1.00511 0.990001
0.999865 1.00469 0.990353
1.00004 1.00416 0.990521
0.998599 0.998174 0.996124
0.999916 1.00503 0.989885
1.00001 1.00354 0.991147
0.998766 0.99863 0.998579
1.00005 1.00372 0.990819
0.997176 0.998801 0.996169
0.997237 1.00002 1.00059
0.999727 1.00445 0.99071
0.999991 1.00469 0.990235
0.994318 0.996723 0.963919
0.994661 0.998669 0.942963
0.994763 0.998074 0.920592
0.998 1.00235 0.996291
0.996352 1.00312 0.997634
0.995035 0.997347 0.941916
0.995677 1.0001 0.957443
0.994861 0.999112 0.978714
0.994996 0.999973 0.929129
0.994601 0.998988 0.939729
0.994757 0.997887 0.921133
0.996864 1.00281 0.997982
0.994402 0.996095 0.960286
0.994598 0.997345 0.94769
0.994966 1.00259 0.997643
0.994754 0.998534 0.912723
0.995268 0.999471 0.955217
0.995189 1 0.931697
0.996008 1.00335 0.99863
0.99447 0.99501 0.966361
0.994542 0.999234 0.94317
0.994753 0.999422 0.908492
0.995633 0.999949 0.928866
0.995269 0.999324 0.988366
0.995949 1.00108 0.948271
0.999116 1.0004 0.995879
0.997205 1.00238 0.997774
0.995766 1.00286 1.00039
1.0003 1.00211 0.991965
0.999522 1.00255 0.993011
0.998405 1.00215 0.995208
0.999532 1.00234 0.99322
0.997575 1.00254 0.996379
0.997866 1.00364 0.995014
0.999916 1.00181 0.993205
1.00005 1.0021 0.992473
0.999759 1.0023 0.99317
0.999308 1.00419 0.991388
0.999643 1.00216 0.993055
1.00014 1.00328 0.990814
1.00098 1.0046 0.988328
1.00254 1.00376 0.986288
1.00036 1.00392 0.99058
1.00098 1.00456 0.988112
1.00159 1.0039 0.988403
1.00001 1.00498 0.989364
1.00092 1.00461 0.9884
0.99981 1.00405 0.991
0.999977 1.0047 0.990194
1.00043 1.00483 0.988806
1.00004 1.00191 0.992707
0.999865 1.00325 0.991668
0.999745 1.00436 0.990845
0.999909 1.00253 0.992366
1.00011 1.00147 0.993051
1.00014 1.00019 0.994244
1.00017 1.00128 0.993168
1.0002 1.00004 0.994293
0.999961 0.998181 0.996542
1.00025 0.999959 0.994298
1.00004 0.998053 0.996535
0.999811 0.996863 0.999237
1.0001 0.997969 0.996499
0.999923 0.996764 0.998693
0.999947 0.996714 0.999217
1.00028 1.00145 0.992631
1.00023 1.00006 0.99402
1.00025 1.00139 0.992859
1.00015 0.997787 0.996595
1.00019 0.999895 0.994258
1.00018 1.00128 0.993198
1.00001 0.996471 0.999267
1.00016 0.997655 0.996723
1.00015 0.999751 0.994465
1.00003 0.996372 0.99929
1.00016 0.997581 0.9968
1.00003 0.996359 0.999293
0.99432 0.99598 0.961168
0.994768 0.998188 0.94047
0.994883 0.997888 0.920478
1.00034 1.00211 0.992046
1.00033 1.00203 0.992054
1.00036 1.00239 0.99175
0.994617 0.997374 0.94301
0.994601 0.998798 0.942793
0.995375 1.00136 0.924977
0.995189 0.99904 0.976638
0.998481 0.99993 0.948816
0.995237 0.999895 0.932495
0.994747 0.998844 0.909949
0.995283 0.998508 0.973693
0.996388 1.00002 0.953536
0.994794 0.999997 0.93133
0.994746 0.997605 0.919417
0.994897 0.998847 0.969969
0.995702 1.00005 0.956843
0.994841 1.00002 0.929173
0.994722 0.998621 0.916912
1.00035 1.00298 0.991117
1.00023 1.0033 0.990989
1.00012 1.00327 0.991238
1.00035 1.00259 0.991518
1.00032 1.00264 0.991626
1.00034 1.0021 0.992209
0.998466 0.998746 0.996541
0.998597 0.998324 0.998587
1.00009 1.00411 0.990548
1.00039 1.00299 0.991198
0.999889 1.00504 0.989966
1.00012 1.00373 0.990718
0.999865 1.0047 0.990242
0.997136 0.998375 0.996533
0.999643 1.00419 0.991303
0.996947 1.00042 1.00034
1.00002 1.00365 0.991155
0.995721 0.998157 0.99699
0.997024 1.00279 0.997864
0.999165 1.00472 0.991783
0.994335 0.996121 0.971345
0.994358 0.996381 0.96578
0.994625 0.998893 0.94362
0.997084 1.00281 0.997832
0.995484 1.00242 0.995241
0.994445 0.996227 0.960218
0.995102 0.999472 0.959627
0.994851 0.999991 0.926191
0.994571 0.997183 0.952166
0.994766 0.998893 0.910164
0.995834 1.00381 0.998934
0.994387 0.994915 0.967984
0.994601 0.998783 0.943018
0.994923 0.999562 0.984142
0.99474 0.999563 0.904677
0.994802 0.999956 0.930568
0.995557 1.00091 0.955649
0.994918 1.00329 0.999163
0.994338 0.995608 0.961689
0.995214 1.0006 0.926609
0.994637 0.998125 0.907912
0.995992 0.998898 0.923046
0.996208 1.00009 0.955627
0.99573 1.00037 0.978163
0.997358 1.00281 0.997356
0.996013 1.0021 1.00036
0.996476 1.00308 0.998532
0.999582 1.00229 0.993194
0.997545 1.00249 0.996344
0.997424 1.00399 0.995266
0.999066 1.00328 0.993452
0.999938 1.00241 0.993086
1.00003 1.00403 0.991004
1.00089 1.00497 0.988073
0.99993 1.00317 0.991177
1.00108 1.00456 0.988192
1.00284 1.00453 0.985613
1.00421 1.00264 0.984375
1.00209 1.00351 0.987023
1.00253 1.00401 0.986156
1.00117 1.00463 0.987891
1.00117 1.00387 0.989116
1.00132 1.00362 0.988863
0.999865 1.00475 0.989933
1.0001 1.00499 0.989474
1.00096 1.00452 0.988606
0.999969 1.00276 0.991981
0.999899 1.00395 0.991007
1.00001 1.00466 0.990172
1.00007 1.00048 0.994075
1.00007 1.0019 0.992695
0.999841 1.00323 0.991642
1.00013 1.00147 0.993041
1.00014 1.00019 0.994242
0.999874 0.998359 0.996515
1.00021 1.00003 0.994293
0.999965 0.998177 0.996541
0.999744 0.997021 0.999229
1.00004 0.998043 0.996532
0.999841 0.996887 0.998709
0.999885 0.996807 0.999224
1.00034 1.00148 0.992636
1.00028 1.0002 0.993974
1.0003 1.00145 0.992674
1.00014 0.997954 0.996453
1.00024 1.00007 0.994095
1.00026 1.0014 0.992942
0.999972 0.99661 0.999238
1.00015 0.997783 0.996603
1.0002 0.999902 0.994225
1.00001 0.996451 0.999273
1.00015 0.997656 0.996729
1.00003 0.996365 0.999292
0.994386 0.994871 0.966295
0.994413 0.995638 0.961102
0.994692 0.998642 0.940363
1.00026 1.00215 0.992055
1.00016 1.00268 0.991807
1.00031 1.00212 0.992108
1.00032 1.00206 0.992061
1.00033 1.00243 0.991723
1.00026 1.00235 0.991938
1.00042 1.00245 0.991595
0.994557 0.998208 0.940107
0.994555 0.997367 0.947546
0.994665 0.998289 0.942636
0.994738 0.997735 0.920951
0.994865 0.999005 0.970886
0.995354 1.00004 0.952752
0.994859 0.999982 0.933861
0.995017 0.999016 0.969323
0.995084 1.00004 0.951392
0.995018 0.999992 0.932906
0.994726 0.998473 0.920803
0.995905 0.997334 0.97321
0.995116 1.00038 0.950408
0.994779 0.999937 0.92596
0.994766 0.999567 0.90924
1.00003 1.003 0.991694
1.00033 1.00298 0.991132
1.00024 1.00328 0.990993
1.00037 1.00259 0.991501
0.997238 0.99836 0.996894
0.996867 1.00076 1.00009
1.00012 1.00381 0.990617
0.999939 1.0046 0.99025
0.99973 1.00392 0.991901
0.999953 1.00363 0.991157
0.999092 1.00475 0.991742
0.99564 0.99913 0.994557
0.996646 1.00348 0.998206
0.99891 1.00386 0.99267
0.995437 0.999182 0.993295
0.997577 1.00468 0.996311
0.994322 0.996004 0.964872
0.994177 0.995498 0.973574
0.994388 0.996046 0.967638
0.995534 1.00427 0.999168
0.995191 0.998365 0.989344
0.994287 0.994873 0.969628
0.996578 1.00105 0.948833
0.995225 0.999943 0.93286
0.994662 0.998309 0.942864
0.994721 0.999718 0.906213
0.99514 1.00202 0.999528
0.994407 0.99542 0.961634
0.995355 1.00068 0.926083
0.994888 1.00092 0.980257
0.994642 0.99811 0.90048
0.99735 0.999889 0.925747
0.994962 1.00002 0.95085
0.995465 1.00363 0.994433
0.994939 0.996447 0.941606
0.995153 0.997985 0.910648
0.998566 0.997314 0.92786
0.995661 0.99999 0.956417
0.994899 0.999481 0.973156
0.996377 1.00109 1.00025
0.996125 1.0038 0.998515
0.998509 0.999704 0.998348
0.997025 1.00422 0.995519
0.99826 1.00348 0.993843
1.00231 1.00077 0.989954
1.00076 1.00385 0.990617
1.00118 1.00494 0.987929
1.00269 1.00319 0.985954
1.00118 1.00454 0.988058
1.00278 1.00461 0.985418
1.00413 1.0026 0.984519
1.00503 1.0007 0.984655
1.00429 1.00296 0.984634
1.00439 1.00262 0.984128
1.00166 1.00342 0.987835
1.00208 1.00353 0.987303
1.00253 1.0043 0.986025
1.00077 1.0045 0.98898
1.00107 1.00383 0.989115
1.00105 1.00337 0.989321
1.00001 1.00376 0.990884
0.999921 1.0047 0.990052
1.00021 1.00499 0.989585
0.999982 1.00109 0.993588
1.00003 1.00268 0.991976
0.99998 1.00386 0.991013
0.999785 0.998572 0.996459
1.00007 1.0005 0.994065
1.0001 1.00189 0.992682
1.00015 1.00019 0.99424
0.999877 0.998364 0.996512
0.99965 0.997209 0.999222
0.999968 0.998173 0.99654
0.999734 0.997055 0.999228
0.99981 0.996923 0.999229
1.00025 1.00225 0.992029
1.00037 1.00155 0.99253
1.00031 1.00035 0.993775
1.00034 1.00149 0.992626
1.0001 0.998157 0.996303
1.00028 1.00022 0.993971
1.00029 1.00148 0.992717
0.999925 0.996781 0.999204
1.00013 0.997953 0.996462
1.00024 1.00007 0.99417
0.999978 0.996578 0.999246
1.00015 0.997781 0.996612
1.00002 0.996426 0.999281
0.994392 0.995022 0.961036
0.994327 0.994869 0.967937
0.994504 0.995356 0.961028
1.0003 1.0021 0.992079
1.00012 1.00272 0.991767
1.00005 1.00306 0.991531
1.00013 1.00259 0.991811
1.00015 1.00309 0.991487
1.0003 1.00208 0.992068
1.00029 1.00246 0.991695
1.00025 1.00234 0.991934
1.00039 1.00247 0.991606
1.00014 1.00258 0.991985
0.995039 1.00029 0.926386
0.994604 0.998403 0.939965
0.994499 0.997415 0.952075
0.994752 0.998327 0.920872
0.994854 1 0.926722
0.994898 0.999132 0.967989
0.994987 1.00014 0.956375
0.995176 0.997545 0.969862
0.995483 1.00022 0.956381
0.994931 0.999964 0.931206
0.994946 0.999485 0.907073
0.995575 0.995487 0.974524
0.995047 1.00026 0.957097
0.995463 0.999879 0.932131
0.994973 0.998177 0.906855
0.999189 1.00218 0.993872
0.999991 1.00308 0.991749
1.00032 1.00299 0.991147
0.995471 0.999771 0.992105
0.996223 1.00399 0.998504
0.999921 1.00363 0.99116
0.998776 1.0049 0.991701
0.998919 1.00388 0.992698
0.997115 1.0042 0.996225
0.995073 0.99957 0.993544
0.997194 1.00302 0.996491
0.995887 1.00098 0.992894
0.99473 0.99798 0.942457
0.994311 0.995701 0.966666
0.994027 0.994946 0.975804
0.995299 1.00092 0.999956
0.994904 1.00077 0.975728
0.994474 0.995243 0.96157
0.996999 1.00032 0.953279
0.99518 0.999913 0.932165
0.995416 1.00112 0.925574
0.994658 0.99814 0.893024
0.995498 1.00359 0.99475
0.994847 0.997578 0.941385
0.995243 0.998345 0.908397
0.994923 0.999491 0.974324
0.998573 0.998604 0.927946
0.996309 0.999995 0.952708
0.996493 1.00041 0.992591
0.994876 0.996815 0.918849
0.999165 0.997201 0.93021
0.997856 0.998498 0.950999
0.994854 0.99843 0.975316
0.995833 1.00443 0.998478
0.998367 0.999718 0.998309
1.00287 0.998048 0.993146
0.997512 1.00352 0.9942
1.00146 1.00116 0.990454
1.00375 0.998574 0.98837
1.00149 1.00487 0.987783
1.00277 1.00328 0.986007
1.00441 1.00006 0.986267
1.00274 1.00465 0.985225
1.00406 1.00251 0.984593
1.00506 0.999482 0.985827
1.00508 0.999326 0.985993
1.00498 1.00142 0.984224
1.00503 1.00067 0.984709
1.00347 1.00317 0.985454
1.00401 1.00294 0.984492
1.00456 1.00259 0.983881
1.00147 1.00388 0.98821
1.00158 1.00338 0.98817
1.00207 1.00356 0.987583
1.00053 1.00393 0.989784
1.00065 1.00447 0.989076
1.00097 1.00379 0.989113
0.99995 1.0021 0.99261
1.00007 1.00371 0.99089
0.99998 1.00464 0.990171
0.999687 0.998917 0.996804
0.999996 1.00111 0.993567
1.00009 1.00261 0.991971
0.999567 0.997454 0.998136
0.999784 0.998615 0.996698
1.00007 1.00052 0.994053
0.999879 0.998371 0.996509
0.999641 0.99725 0.999218
0.999723 0.997086 0.999226
1.00018 1.00261 0.991742
1.00035 1.00175 0.992376
1.00022 1.00231 0.991996
1.0003 1.00051 0.993632
1.00034 1.00159 0.992526
1.00006 0.998362 0.996175
1.0003 1.00037 0.993773
1.00036 1.00149 0.992617
0.999867 0.996985 0.999167
1.0001 0.998154 0.996312
1.00027 1.00023 0.993968
0.999931 0.996747 0.999214
1.00013 0.997952 0.996471
0.999984 0.99655 0.999255
0.995134 0.996456 0.943445
0.994384 0.995204 0.960979
0.994243 0.994869 0.969592
1.00012 1.00304 0.991496
1.0003 1.00212 0.992103
1.0001 1.00276 0.991727
1.00017 1.0026 0.991843
1.00012 1.00299 0.991574
1.0001 1.00309 0.991476
1.00009 1.00343 0.991153
0.99998 1.00314 0.991441
1.00028 1.00232 0.99193
1.00034 1.00248 0.991617
1.0001 1.00263 0.991935
0.99958 1.00302 0.992838
0.995062 0.999023 0.909026
0.995321 1.00043 0.925769
0.994621 0.998645 0.939828
0.995163 0.999396 0.910377
0.994875 0.999943 0.930804
0.995068 1.0004 0.950601
0.995905 0.99758 0.967674
0.995657 0.995307 0.976384
0.994798 0.998157 0.899751
0.99547 1.00003 0.953243
0.997309 0.999893 0.925505
0.995265 0.996805 0.977119
0.9957 1.00003 0.958099
0.998999 0.997594 0.925442
0.999091 1.00081 0.995474
0.999371 1.0021 0.993846
0.999939 1.00317 0.991803
0.99491 0.999551 0.993771
0.997019 1.00362 0.996139
0.99901 1.00379 0.992726
0.998164 1.00264 0.996265
0.995558 1.00129 0.993048
0.997525 1.0009 0.99376
0.99477 0.9993 0.917176
0.99468 0.997157 0.946791
0.994285 0.995361 0.968462
0.995425 1.00427 0.995103
0.994911 0.999358 0.975084
0.994738 0.998144 0.941242
0.995254 1.00003 0.952047
0.998558 0.997372 0.921213
0.995442 0.998347 0.910786
0.996602 1.00072 0.992626
0.994932 0.996852 0.921235
0.999846 0.996396 0.924386
0.994868 0.998541 0.971361
0.997557 0.998637 0.957132
0.998269 0.998818 0.99431
0.999855 0.995728 0.924189
0.999287 0.997732 0.956691
0.994888 0.998046 0.970826
0.998176 0.999916 0.998327
1.00215 0.997483 0.993805
1.0039 0.997717 0.990557
1.00067 1.00154 0.990957
1.00359 0.999163 0.988282
1.00482 0.997322 0.988093
1.00281 1.00344 0.986059
1.00425 1.00025 0.986274
1.00496 0.997764 0.987714
1.00396 1.00246 0.984666
1.00506 0.999418 0.985817
1.0051 0.997634 0.987616
1.00514 0.998086 0.987117
1.00512 1.00014 0.985209
1.00508 0.999262 0.986014
1.00463 1.00148 0.984633
1.00487 1.00134 0.984358
1.00504 1.00062 0.984762
1.00254 1.00348 0.986639
1.0032 1.00315 0.985619
1.00375 1.00289 0.98435
1.00131 1.00343 0.988924
1.00154 1.00383 0.988181
1.00152 1.00332 0.988505
1.00022 1.00283 0.991462
1.00058 1.00393 0.989794
1.00054 1.00443 0.989173
0.999634 0.999436 0.995814
1.00003 1.00203 0.992589
1.00015 1.00365 0.990897
0.999445 0.997704 0.999187
0.999687 0.998985 0.996233
1.00001 1.00112 0.993545
0.999553 0.997451 0.999202
0.999781 0.99864 0.996426
0.999632 0.997295 0.999213
1.00026 1.00275 0.991545
1.00021 1.00261 0.991729
1.00032 1.00205 0.992122
1.00026 1.00071 0.99351
1.00032 1.00177 0.992378
1.00022 1.00232 0.991963
0.999998 0.998553 0.996092
1.0003 1.00051 0.993633
1.00033 1.00161 0.992522
0.999801 0.997184 0.999137
1.00006 0.998357 0.996181
1.0003 1.00038 0.993772
0.999874 0.996942 0.999178
1.0001 0.99815 0.99632
0.999938 0.996707 0.999224
0.995096 0.99855 0.911899
0.995066 0.996579 0.943256
0.994426 0.995328 0.960918
1.00002 1.00317 0.991455
1.00036 1.00335 0.991016
1 1.00353 0.991171
1.00019 1.00261 0.991875
1.00018 1.00292 0.991618
1.00001 1.00313 0.991465
1.00006 1.00312 0.991421
1.00005 1.00347 0.991139
0.999974 1.00396 0.990888
1.00012 1.00146 0.992819
1.00016 1.00256 0.991886
0.999623 1.00277 0.992729
0.999829 0.996539 0.921879
0.995057 0.99901 0.905289
0.995556 1.0006 0.925183
0.994652 0.998146 0.892612
0.996437 0.998805 0.931573
0.995211 1.00002 0.953885
0.995706 0.995146 0.973938
0.995054 0.997096 0.975434
0.998542 0.998493 0.927057
0.996362 0.999995 0.952295
0.995515 0.998177 0.976465
0.999068 0.99808 0.950566
1.00181 0.998942 0.992979
0.999327 1.00075 0.995239
0.999504 1.002 0.993833
0.99493 1.00179 0.993172
0.998861 1.00236 0.996034
0.997883 1.00112 0.993199
1.0007 0.998627 0.99016
0.999927 0.994846 0.928846
0.994801 0.998687 0.918913
0.994652 0.996548 0.951049
0.996726 1.00082 0.992752
0.994867 0.998594 0.970305
0.995003 0.997389 0.921362
0.99797 0.997947 0.950384
0.999877 0.997121 0.931069
0.998112 0.998909 0.992508
0.999903 0.995447 0.927624
1.00124 0.996726 0.949382
0.994987 0.997663 0.97383
0.999248 0.996371 0.994026
1.00009 0.996406 0.955569
0.995746 0.998552 0.976327
1.00145 0.996865 0.994441
1.00383 0.997083 0.990531
1.00503 0.996318 0.989505
1.00333 0.999762 0.988196
1.00465 0.997392 0.988081
1.00484 0.996442 0.989011
1.00413 1.00038 0.986282
1.00486 0.997844 0.987676
1.00508 0.996068 0.989074
1.00505 0.999363 0.985806
1.0051 0.997596 0.987616
1.00514 0.996474 0.988729
1.00514 0.99736 0.987995
1.00514 0.997946 0.987263
1.00515 0.998932 0.986432
1.00514 1.00025 0.985203
1.00512 1.00016 0.985192
1.00507 0.999201 0.986034
1.00401 1.00189 0.985389
1.00462 1.00148 0.984708
1.00476 1.00125 0.984492
1.00204 1.00323 0.987809
1.00261 1.00342 0.986608
1.00294 1.00318 0.985783
1.00068 1.00282 0.990631
1.00139 1.00338 0.988903
1.0016 1.00378 0.988151
0.999673 1.00015 0.995014
1.00029 1.00271 0.991461
1.00066 1.00389 0.989804
0.999439 0.997961 0.999098
0.99963 0.999533 0.995772
1.0001 1.00197 0.992569
0.999477 0.99773 0.998621
0.999685 0.99903 0.996215
0.99955 0.997525 0.999189
1.00036 1.0029 0.991218
1.00017 1.00284 0.991547
1.00022 1.00249 0.991809
1.00025 1.00261 0.991717
1.00027 1.0021 0.992123
1.00019 1.00101 0.993316
0.999916 0.998751 0.996046
1.00025 1.00071 0.993515
1.00027 1.00182 0.992379
0.999728 0.997369 0.999116
0.999996 0.998549 0.996097
1.00029 1.00052 0.993634
0.999808 0.997151 0.999146
1.00005 0.998357 0.996187
0.999882 0.996902 0.999189
0.999907 0.995175 0.929122
0.995042 0.99873 0.912597
0.994964 0.996687 0.943053
0.99994 1.00332 0.991413
0.999948 1.00374 0.991034
1.00019 1.00333 0.991187
1.00094 1.00348 0.989764
0.999947 1.00419 0.990706
1.00012 1.00314 0.991401
1.00004 1.00348 0.991126
0.99991 1.0038 0.991007
1.00007 1.00378 0.990052
1.00062 1.00158 0.992047
1.00394 0.999706 0.987937
0.999883 1.00164 0.993154
0.999768 1.00247 0.992617
1.00049 0.996856 0.954942
0.999815 0.996655 0.924444
0.995068 0.998813 0.906362
0.99888 0.998265 0.919927
0.995721 0.999978 0.955106
0.995248 0.997093 0.977579
0.995241 0.998065 0.978543
0.997495 0.998426 0.958235
0.996593 0.998644 0.976843
1.00382 0.996557 0.991295
1.00143 0.999012 0.993013
0.999561 1.00072 0.994994
0.998299 1.00116 0.992687
1.00152 0.999398 0.988837
1.00027 0.995006 0.95256
0.999932 0.994904 0.931711
0.994828 0.997675 0.920733
0.997858 0.999077 0.990688
0.994863 0.997471 0.9711
0.999881 0.995732 0.928515
0.999738 0.997649 0.956691
0.998899 0.997698 0.994364
1.00144 0.995893 0.955078
0.995903 0.998293 0.973146
1.00076 0.998776 0.992026
0.9994 0.996694 0.981105
1.00369 0.996423 0.990534
1.00501 0.995896 0.989366
1.00505 0.995304 0.99009
1.00452 0.997505 0.988068
1.00477 0.996429 0.988998
1.00506 0.995137 0.989986
1.00474 0.99791 0.987638
1.00508 0.996074 0.989053
1.00513 0.995371 0.989739
1.0051 0.997554 0.987617
1.00513 0.996491 0.988691
1.00512 0.996467 0.988956
1.00515 0.997177 0.988108
1.00516 0.998088 0.987272
1.00514 0.997806 0.987409
1.00515 0.998932 0.986418
1.00513 0.999484 0.985932
1.00486 1.00028 0.985545
1.00513 1.00026 0.985185
1.00513 1.00019 0.985174
1.00315 1.00235 0.986739
1.00402 1.00193 0.985388
1.00459 1.00149 0.984783
1.00116 1.00268 0.989841
1.0021 1.0032 0.98778
1.00269 1.00338 0.986577
0.999859 1.00068 0.994132
1.00072 1.00278 0.990633
1.00144 1.00338 0.988882
0.999474 0.998322 0.998933
0.999696 1.00019 0.994985
1.00037 1.00259 0.99146
0.999471 0.998021 0.999052
0.999629 0.999621 0.995728
0.999501 0.997768 0.999136
1.001 1.00309 0.989863
1.00039 1.00282 0.991208
1.00027 1.00283 0.991314
1.00009 1.00289 0.991549
1.00019 1.00256 0.99175
1.00015 1.00148 0.992915
1.00024 1.00212 0.992124
1.00019 1.00101 0.993325
0.99982 0.998988 0.995986
0.999652 0.997545 0.999104
0.999917 0.998738 0.996051
1.00025 1.00071 0.99352
0.999735 0.997345 0.999122
0.999994 0.998546 0.996101
0.999815 0.997111 0.999154
1.00104 0.994988 0.958165
0.999918 0.995777 0.927619
0.994986 0.999116 0.910575
0.999891 1.00395 0.990897
1.00006 1.00326 0.991359
0.999996 1.00416 0.990755
1.00085 1.00345 0.989858
1.00152 1.00395 0.988155
1.00022 1.0039 0.990107
0.99984 1.00368 0.991126
1.00042 1.00386 0.989724
1.0005 1.00197 0.991811
1.00189 1.00138 0.989191
1.00391 0.999422 0.988865
1.00456 0.997814 0.988203
1.00341 0.999625 0.988618
0.999509 1.002 0.993491
0.995699 0.998327 0.97586
1.00063 0.996128 0.953656
0.999261 0.996947 0.930809
0.998856 0.998815 0.950536
0.994943 0.998156 0.979759
0.996828 0.998541 0.981322
1.00078 0.998285 0.992269
1.00378 0.996378 0.991562
1.00132 0.999006 0.993049
1.00274 1.00024 0.98746
0.997803 0.996511 0.977277
1.00065 0.99502 0.959929
0.99988 0.995097 0.925699
0.998669 0.998482 0.994615
0.995797 0.99776 0.975312
1.00087 0.996217 0.954407
1.00077 0.998628 0.992165
0.998707 0.996967 0.980079
1.00341 0.998478 0.990583
1.00387 0.996602 0.989408
1.00499 0.995505 0.989208
1.00504 0.995249 0.99003
1.00507 0.994839 0.99053
1.00471 0.996428 0.988986
1.00506 0.995189 0.989949
1.00508 0.995062 0.990258
1.00508 0.996094 0.98903
1.00514 0.995441 0.989712
1.00513 0.995943 0.989499
1.00513 0.996508 0.988654
1.00512 0.996463 0.988861
1.00515 0.997384 0.987902
1.00515 0.997001 0.98822
1.00516 0.997968 0.987417
1.00515 0.99902 0.986435
1.00515 0.998935 0.986405
1.00513 0.99955 0.985903
1.00494 0.999737 0.986098
1.00415 1.00067 0.986423
1.00486 1.00034 0.985553
1.00512 1.0003 0.985168
1.00199 1.00216 0.988918
1.00313 1.00231 0.986754
1.00402 1.00197 0.985387
1.00003 1.00115 0.993332
1.00121 1.0027 0.989824
1.00215 1.00317 0.987752
0.999558 0.998768 0.998687
0.999909 1.00067 0.994123
1.00078 1.00273 0.990632
0.999526 0.998418 0.99885
0.999713 1.00024 0.994956
0.999513 0.998086 0.998997
1.00153 1.00363 0.988402
1.00106 1.00308 0.989903
1.00072 1.00297 0.99044
1.00038 1.00279 0.991198
1.00031 1.00284 0.991229
1.00024 1.00194 0.99231
1.00017 1.00263 0.991692
1.00014 1.00148 0.992924
0.999728 0.999328 0.995811
1.00018 1.001 0.993333
0.999826 0.998953 0.995996
0.999585 0.997716 0.999087
0.999658 0.997524 0.999108
0.999917 0.998726 0.996055
0.999741 0.997317 0.999128
0.996875 0.997003 0.977604
1.00079 0.995328 0.951551
0.999865 0.994921 0.932142
1.0032 1.00261 0.986603
1.00005 1.00412 0.990803
1.00075 1.00343 0.989953
1.00037 1.00396 0.98999
1.00142 1.00408 0.988097
1.00179 1.00187 0.989329
1.00076 1.00392 0.989396
1.00044 1.00232 0.991577
1.00212 1.00134 0.989367
1.00393 0.999325 0.98852
1.00471 0.998409 0.987368
1.0043 0.996639 0.990029
1.00451 0.997888 0.98788
1.00288 0.999457 0.989299
0.999974 0.998665 0.993844
0.996223 0.998484 0.974216
1.00036 0.996341 0.952818
0.996941 0.998212 0.979104
1.00081 0.997299 0.994309
1.00328 0.996289 0.991811
1.00184 0.99603 0.989475
0.997078 0.995725 0.979382
1.00027 0.99493 0.952718
1.00056 0.99892 0.992327
0.998822 0.997048 0.97879
1.00328 0.997555 0.99081
1.00381 0.996181 0.989516
1.00492 0.995169 0.990735
1.00478 0.996505 0.990779
1.00507 0.99518 0.989974
1.00504 0.994867 0.99048
1.00506 0.994886 0.990465
1.00505 0.995227 0.989912
1.00508 0.995049 0.990256
1.00512 0.99551 0.989864
1.00515 0.995511 0.989685
1.00513 0.995919 0.989432
1.00513 0.997033 0.988302
1.00512 0.996457 0.988766
1.00515 0.997399 0.987907
1.00517 0.998547 0.986774
1.00516 0.997847 0.987563
1.00515 0.998931 0.98652
1.00498 0.99951 0.986176
1.00513 0.999609 0.985875
1.00495 0.999754 0.986017
1.0044 0.99997 0.986781
1.00287 1.00104 0.98847
1.00409 1.00074 0.986485
1.00485 1.00038 0.98556
1.00038 1.00127 0.992589
1.00199 1.00218 0.988918
1.00311 1.00228 0.986768
0.999585 0.999253 0.998442
1.00017 1.00101 0.993312
1.00125 1.00271 0.989808
0.999597 0.998859 0.998599
0.999968 1.00064 0.994112
0.999582 0.998496 0.998759
1.00266 1.0031 0.986722
1.0015 1.00363 0.988429
1.00132 1.00317 0.989299
1.00112 1.00307 0.989943
1.00075 1.00294 0.990456
1.0004 1.00238 0.991637
1.00035 1.00284 0.991144
1.00017 1.00205 0.992309
0.99968 0.999804 0.995413
1.00012 1.00149 0.992932
0.999741 0.999263 0.995832
0.999544 0.99791 0.999037
0.999832 0.998921 0.996006
0.999587 0.997695 0.999094
0.999663 0.997505 0.999112
1.00105 0.997269 0.992103
0.99727 0.996415 0.973975
1.00012 0.995168 0.958982
1.00334 1.00064 0.987667
1.00488 0.999114 0.986686
1.00298 1.0024 0.98682
1.00052 1.00402 0.989871
1.00134 1.00419 0.988027
1.00213 1.00175 0.989123
1.00479 0.998638 0.987585
1.00231 1.00131 0.989541
1.00383 0.999235 0.988171
1.00464 0.998423 0.987594
1.00504 0.997308 0.988044
1.00453 0.995741 0.990395
1.00438 0.99671 0.989745
1.00457 0.997927 0.987558
1.00019 0.998704 0.993976
0.996169 0.998602 0.9721
1.00098 0.996575 0.996377
1.00459 0.995086 0.991884
1.00158 0.996399 0.989623
0.997502 0.995272 0.976662
1.00334 0.996838 0.991022
1.00376 0.996239 0.989643
1.00492 0.995096 0.990917
1.00485 0.995879 0.99062
1.00509 0.994948 0.99028
1.00512 0.995035 0.990236
1.00501 0.994915 0.990428
1.00503 0.994904 0.990458
1.00514 0.99533 0.989881
1.00508 0.995033 0.990255
1.00512 0.995584 0.989738
1.00514 0.996553 0.988733
1.00514 0.995896 0.989364
1.00513 0.997047 0.988309
1.00519 0.998264 0.987046
1.00514 0.997415 0.987912
1.00517 0.998549 0.986789
1.00504 0.99934 0.986224
1.00515 0.998839 0.986605
1.00498 0.999485 0.986188
1.00449 0.999866 0.986733
1.00495 0.999778 0.985936
1.00439 0.999978 0.986707
1.00326 1.00028 0.988514
1.00079 1.00091 0.99217
1.00284 1.00107 0.988479
1.00403 1.00081 0.986546
0.999589 0.999782 0.998214
1.00047 1.0012 0.992565
1.00197 1.00223 0.988918
0.999619 0.999375 0.99836
1.00028 1.00094 0.99329
0.999636 0.998953 0.998515
1.00411 1.00073 0.986187
1.00267 1.00297 0.986668
1.00221 1.00297 0.987801
1.00147 1.00361 0.988456
1.00125 1.00318 0.989333
1.00071 1.0027 0.990816
1.00077 1.00291 0.990472
1.00032 1.00247 0.991638
0.999759 1.00032 0.994775
1.00011 1.00213 0.992309
0.99969 0.999734 0.995437
0.999537 0.998194 0.998912
0.999754 0.999199 0.995853
0.999536 0.997879 0.999058
0.999589 0.997678 0.9991
1.00469 0.99508 0.991128
1.00114 0.996847 0.990875
0.996625 0.995901 0.974637
1.0051 0.998259 0.98722
1.00311 1.0002 0.988492
1.00516 0.998542 0.986829
1.00487 0.999319 0.986629
1.00271 1.00222 0.98705
1.00509 0.997787 0.987463
1.00245 1.00159 0.988928
1.00487 0.998653 0.987286
1.00513 0.99647 0.988606
1.0046 0.998468 0.987822
1.00498 0.997353 0.988024
1.00458 0.995843 0.990502
1.0043 0.996876 0.98945
1.00021 0.998716 0.994118
1.00512 0.995193 0.989858
1.00459 0.995562 0.99195
1.00134 0.996504 0.989747
1.00493 0.994907 0.991106
1.00486 0.995228 0.990465
1.00509 0.994939 0.990349
1.00513 0.995002 0.990212
1.00516 0.995214 0.990044
1.005 0.994925 0.990451
1.00514 0.995366 0.989897
1.00518 0.996258 0.988981
1.00511 0.995661 0.989612
1.00514 0.996665 0.988632
1.00518 0.998062 0.98726
1.00513 0.997063 0.988316
1.00518 0.998274 0.987056
1.00512 0.999225 0.986236
1.00516 0.998551 0.986805
1.00504 0.999338 0.986239
1.0046 0.999806 0.986602
1.00498 0.99946 0.986201
1.00448 0.999875 0.986741
1.00338 1.00008 0.988509
1.00438 0.999984 0.986632
1.00326 1.00029 0.988505
1.00096 1.00049 0.993487
0.999799 0.999979 0.995566
1.00085 1.00085 0.992798
1.0028 1.0011 0.988487
0.99965 0.999895 0.998129
1.0006 1.00107 0.992547
0.999659 0.999474 0.998268
1.00518 0.998554 0.98686
1.00489 0.999261 0.9865
1.00417 1.00077 0.986215
1.00329 1.00179 0.9869
1.00267 1.00285 0.986614
1.00216 1.00302 0.987815
1.00131 1.00261 0.989787
1.00118 1.00319 0.989367
1.00064 1.00271 0.99084
0.999971 1.00081 0.99396
1.00025 1.00256 0.99164
0.99973 1.00031 0.994788
0.999534 0.998624 0.998703
0.9997 0.999664 0.99546
0.999514 0.998136 0.998962
0.999532 0.997853 0.999075
1.00516 0.995687 0.98935
1.00486 0.995085 0.991449
1.00147 0.996326 0.989657
1.00514 0.998027 0.987223
1.00493 0.998344 0.987362
1.00294 0.999779 0.989291
1.00516 0.998595 0.986816
1.00487 0.999509 0.986572
1.00511 0.996702 0.988802
1.00508 0.997794 0.987393
1.00496 0.998683 0.986983
1.00512 0.996462 0.988618
1.00497 0.997376 0.988003
1.00466 0.995936 0.990628
1.00513 0.995302 0.990145
1.00514 0.995233 0.989989
1.00461 0.996016 0.992021
1.0051 0.994923 0.990413
1.00514 0.994996 0.990187
1.00517 0.995114 0.990096
1.00516 0.996405 0.988993
1.00514 0.995397 0.989912
1.00518 0.996302 0.988946
1.00517 0.997872 0.987493
1.00513 0.996774 0.98853
1.00519 0.998065 0.98726
1.00516 0.999121 0.986284
1.00517 0.998284 0.987065
1.00511 0.999222 0.986249
1.0047 0.999782 0.986429
1.00504 0.999337 0.986255
1.00459 0.999806 0.986609
1.00348 1.00006 0.988346
1.00447 0.999884 0.98675
1.00338 1.00008 0.988501
1.00106 1.00015 0.993669
1.00325 1.0003 0.988496
1.00108 1.0004 0.993457
0.999822 1.00005 0.995644
0.999699 1.00019 0.996764
1.00099 1.00078 0.993324
0.999699 1.00002 0.998048
1.00518 0.998309 0.987051
1.00509 0.998913 0.98674
1.00519 0.99845 0.986871
1.00419 1.00026 0.986777
1.00491 0.999244 0.986501
1.00421 1.00081 0.986243
1.00333 1.00181 0.98687
1.00217 1.00188 0.988878
1.00212 1.00307 0.987828
1.00127 1.00259 0.989807
1.00025 1.00118 0.993102
1.00056 1.00274 0.990862
0.999866 1.00088 0.993977
0.999503 0.999233 0.998443
0.999696 1.0003 0.994801
0.999511 0.998532 0.998784
0.999502 0.998079 0.999004
1.0051 0.995948 0.989393
1.00515 0.995701 0.989345
1.00496 0.995074 0.991739
1.00513 0.997373 0.988025
1.00513 0.99802 0.98724
1.00474 0.998435 0.987512
1.00516 0.998658 0.986803
1.00511 0.996696 0.988677
1.00507 0.997806 0.987322
1.0051 0.996459 0.98863
1.00516 0.996225 0.989203
1.00513 0.99537 0.99001
1.00517 0.995233 0.990119
1.00512 0.996914 0.98846
1.00517 0.995006 0.990147
1.00516 0.996391 0.988971
1.00513 0.997671 0.987891
1.00519 0.996351 0.98891
1.00517 0.997868 0.987494
1.00516 0.998984 0.986419
1.00519 0.998073 0.98726
1.00515 0.999121 0.986294
1.0048 0.999747 0.986288
1.0051 0.99922 0.986262
1.0047 0.999777 0.986436
1.0036 1.00006 0.988131
1.00459 0.999806 0.986616
1.00349 1.00004 0.988344
1.00115 1.00001 0.993663
1.00339 1.00007 0.988492
1.00116 1.0001 0.99361
0.999833 0.999959 0.995744
1.0012 1.0003 0.993434
0.999612 1.00022 0.995755
0.999406 1.00045 0.998181
1.00517 0.998282 0.987042
1.00513 0.998869 0.986606
1.00519 0.998331 0.986973
1.00457 0.999592 0.987131
1.00505 0.998785 0.986749
1.00519 0.998344 0.986882
1.00301 1.00073 0.988467
1.00422 1.00026 0.986755
1.00494 0.999224 0.986502
1.00337 1.00182 0.986841
1.00219 1.00184 0.988878
1.00057 1.0012 0.99245
1.00123 1.00257 0.989827
1.00011 1.00129 0.993131
0.99949 0.99992 0.998189
0.999777 1.00096 0.993991
0.999485 0.999099 0.998543
0.999494 0.99843 0.998855
1.00514 0.996763 0.988539
1.00511 0.995849 0.989426
1.00514 0.99575 0.98934
1.00513 0.997316 0.988069
1.00513 0.998005 0.987258
1.00511 0.99669 0.988552
1.00513 0.996994 0.988496
1.00515 0.996304 0.989126
1.00512 0.995439 0.989875
1.00512 0.996916 0.988552
1.00511 0.997769 0.987746
1.00516 0.996385 0.988949
1.00513 0.997764 0.987722
1.00514 0.998708 0.986774
1.00517 0.99786 0.987496
1.00515 0.998977 0.986427
1.00487 0.999664 0.98624
1.00513 0.999115 0.986304
1.0048 0.999744 0.986297
1.00372 1.00004 0.987925
1.0047 0.999771 0.986442
1.0036 1.00005 0.988133
1.00123 1.00005 0.993482
1.0035 1.00002 0.988343
1.00124 0.999981 0.993576
0.9999 0.999913 0.995694
1.00126 1.00005 0.993559
0.999649 1.00003 0.995875
0.999417 1.00041 0.99585
1.00515 0.997757 0.987669
1.00515 0.998907 0.986454
1.00517 0.998156 0.987169
1.00473 0.999376 0.986928
1.00513 0.998926 0.986555
1.00519 0.998353 0.986894
1.00341 1.00003 0.98846
1.00454 0.99951 0.987018
1.00501 0.998662 0.986758
1.00089 1.00075 0.992245
1.00303 1.00072 0.988466
1.00426 1.00027 0.986732
1.00221 1.00181 0.988878
1.00047 1.00129 0.992468
0.999538 1.00044 0.998023
0.999985 1.00141 0.993156
0.999449 0.999774 0.998284
0.999469 0.99895 0.998635
1.00512 0.997107 0.988291
1.00513 0.996733 0.988579
1.00512 0.995749 0.989459
1.00512 0.997261 0.988113
1.00512 0.997839 0.987667
1.00513 0.99699 0.988517
1.00515 0.996381 0.989049
1.00511 0.99692 0.988643
1.00511 0.99771 0.987795
1.00512 0.998636 0.986951
1.00513 0.997856 0.987554
1.00514 0.998815 0.986656
1.00492 0.999445 0.986342
1.00514 0.998976 0.986436
1.00486 0.999665 0.986252
1.00383 1.00001 0.987752
1.00478 0.999746 0.986306
1.00372 1.00004 0.987928
1.00135 1.0001 0.992065
1.00362 1.00003 0.988134
1.00132 1.00001 0.992804
0.999881 0.999949 0.997991
1.00133 0.999959 0.993492
0.999737 0.999912 0.99584
0.999478 1.00011 0.995989
1.00514 0.997659 0.987836
1.00516 0.998704 0.986715
1.00515 0.997832 0.987623
1.00484 0.999255 0.986566
1.00516 0.998893 0.986518
1.00517 0.998028 0.987297
1.00359 0.999716 0.988158
1.00473 0.999394 0.986925
1.00513 0.998981 0.986504
1.00109 1.00022 0.992371
1.00341 0.99998 0.988349
1.00451 0.999421 0.986905
0.999598 1.00054 0.998002
1.00085 1.00079 0.992254
1.00304 1.00071 0.988465
1.00038 1.00135 0.992497
0.999483 1.0003 0.998075
0.99941 0.999603 0.998382
1.00513 0.997761 0.987708
1.00513 0.997116 0.988292
1.00513 0.996702 0.988619
1.00513 0.998604 0.986903
1.00512 0.997784 0.987717
1.00513 0.996988 0.988539
1.00511 0.997646 0.987845
1.00512 0.99862 0.986956
1.00492 0.99934 0.986679
1.00513 0.998923 0.986538
1.00491 0.999531 0.986399
1.00391 0.999891 0.987473
1.00485 0.999661 0.986263
1.00382 1.00001 0.987755
1.00143 1.00011 0.991907
1.00372 1.00003 0.987931
1.00135 1.00009 0.992058
0.999915 0.99997 0.997946
1.00134 0.999996 0.992198
0.999817 0.99993 0.996882
0.999575 0.999896 0.995982
1.00515 0.997933 0.987532
1.00516 0.99861 0.986751
1.00514 0.997641 0.987842
1.00488 0.999303 0.986553
1.00516 0.998745 0.986641
1.00515 0.997907 0.987578
1.00375 0.999603 0.987977
1.00484 0.999323 0.986679
1.00516 0.998881 0.986582
1.00123 0.999916 0.992409
1.0036 0.999722 0.988134
1.00474 0.999413 0.986921
0.99971 1.00032 0.998034
1.00109 1.00021 0.992376
1.00342 0.999928 0.988237
0.999589 1.00045 0.997995
1.00081 1.00081 0.992262
0.999411 1.00019 0.998147
1.00515 0.998476 0.987031
1.00513 0.997792 0.987656
1.00513 0.997125 0.988293
1.00489 0.99922 0.986833
1.00513 0.998555 0.986969
1.00512 0.997736 0.987766
1.00512 0.998604 0.986961
1.00492 0.999344 0.986677
1.00393 0.999788 0.987542
1.0049 0.99962 0.986457
1.00391 0.999929 0.987559
1.0015 1.00008 0.9918
1.00382 1 0.987759
1.00143 1.00011 0.991902
0.999959 0.999997 0.997879
1.00135 1.00009 0.992051
0.99993 0.999979 0.997918
0.999886 0.999869 0.995625
1.00516 0.998588 0.986848
1.00515 0.997816 0.987605
1.00489 0.999269 0.986591
1.00516 0.998618 0.986748
1.00514 0.99762 0.987847
1.00382 0.999672 0.988089
1.00488 0.999306 0.986546
1.00516 0.998785 0.986568
1.00136 0.999833 0.992261
1.00375 0.999649 0.988069
1.00484 0.999393 0.986791
0.999856 1.00008 0.998004
1.00124 0.999907 0.992417
1.00361 0.999723 0.98811
0.99969 1.00031 0.998019
1.00109 1.00021 0.992378
0.999545 1.00042 0.998002
1.00488 0.99918 0.986904
1.00515 0.998513 0.986981
1.00513 0.997824 0.987604
1.00387 0.999717 0.987708
1.00489 0.999232 0.986835
1.00513 0.998502 0.987036
1.00492 0.999349 0.986674
1.00394 0.999784 0.987523
1.00153 1.00004 0.991788
1.0039 0.999965 0.987645
1.0015 1.00007 0.991798
1.00002 1.00001 0.997826
1.00143 1.00011 0.991897
0.999978 1 0.997861
0.999947 0.999986 0.997893
1.00489 0.99923 0.986655
1.00516 0.998474 0.986943
1.00515 0.997699 0.987679
1.00383 0.99971 0.98804
1.00488 0.999271 0.986583
1.00516 0.998626 0.986745
1.00143 0.999906 0.992085
1.00381 0.99968 0.988084
1.00487 0.99931 0.98654
0.999959 0.999953 0.997933
1.00136 0.999847 0.992266
1.00375 0.999687 0.98816
0.999811 1.00011 0.99802
1.00123 0.999912 0.992425
0.999687 1.00031 0.997998
1.00384 0.999763 0.987974
1.00488 0.999144 0.986815
1.00515 0.998548 0.98693
1.0015 0.999995 0.991895
1.00389 0.999707 0.987687
1.00489 0.999242 0.986836
1.00395 0.999777 0.987504
1.00152 1.00003 0.991794
1.00006 1.00001 0.997783
1.00149 1.00007 0.991795
1.00003 1.00001 0.997805
0.999991 1.00001 0.997845
1.00383 0.999731 0.988013
1.00488 0.999164 0.986678
1.00516 0.998363 0.987038
1.00152 0.999991 0.993138
1.00383 0.999708 0.988036
1.00488 0.999274 0.986575
0.999993 0.999947 0.997867
1.00143 0.999927 0.992089
1.00381 0.999688 0.988079
0.999925 0.999987 0.997961
1.00136 0.999871 0.992271
0.999784 1.00012 0.998029
1.00151 0.999985 0.991918
1.00384 0.999721 0.987882
1.00488 0.999107 0.986725
1.00003 1 0.997798
1.00149 0.999998 0.991898
1.0039 0.999699 0.987666
1.00152 1.00003 0.991797
1.00005 1.00001 0.997784
1.00005 1.00001 0.997791
1.00158 0.999986 0.99307
1.00384 0.999726 0.988013
1.00488 0.999098 0.986701
0.999737 0.999984 0.998115
1.00145 0.999993 0.991992
1.00384 0.999705 0.988033
0.999981 0.999961 0.997897
1.00143 0.99995 0.992094
0.999896 1.00001 0.997988
1 1 0.995392
1.00152 0.999984 0.992517
1.00385 0.999683 0.98779
1.00003 1 0.997802
1.00148 0.999998 0.991904
1.00006 1.00001 0.997779
0.999721 1 0.995685
1.00151 0.999987 0.992527
1.00384 0.999722 0.988013
0.999857 0.999984 0.996767
1.00145 0.999988 0.991997
0.999961 0.999974 0.997924
1.00001 0.999996 0.997818
1.00146 0.999987 0.99198
1.00001 1 0.997809
0.99986 0.999994 0.996759
1.00146 0.999991 0.991986
0.999989 0.999972 0.997872
1 0.999991 0.997833
0.999989 0.999985 0.997846

TENSORS stress float
0.00155437 -6.51478e-05 0.000140418
-6.51478e-05 0.000535012 -1.67468e-05
0.000140418 -1.67468e-05 0.000513994
0.00461604 -0.000105771 0.000132513
-0.000105771 0.00229306 1.02644e-05
0.000132513 1.02644e-05 0.0022783
0.00143848 1.05824e-05 7.05804e-05
1.05824e-05 0.000483656 -5.76406e-06
7.05804e-05 -5.76406e-06 0.000451899
0.00172095 -4.18035e-05 0.000140957
-4.18035e-05 0.00060891 -1.1217e-05
0.000140957 -1.1217e-05 0.000589953
0.00163059 -5.94744e-05 0.00013708
-5.94744e-05 0.000573456 -1.54305e-05
0.00013708 -1.54305e-05 0.000553344
0.00137009 -5.58281e-05 0.000136663
-5.58281e-05 0.000429754 -1.57175e-05
0.000136663 -1.57175e-05 0.000411091
0.00140679 -2.90233e-05 1.60033e-05
-2.90233e-05 0.000389304 -7.73181e-06
1.60033e-05 -7.73181e-06 0.00031644
0.00442776 -0.000135328 9.05518e-06
-0.000135328 0.00218875 -1.20958e-06
9.05518e-06 -1.20958e-06 0.00217246
0.00500433 -4.46273e-05 4.26001e-05
-4.46273e-05 0.00248116 2.09608e-06
4.26001e-05 2.09608e-06 0.00246755
0.00460765 -0.000301485 -1.3272e-05
-0.000301485 0.00233471 5.7674e-06
-1.3272e-05 5.7674e-06 0.00228146
0.00148762 1.59305e-05 0.000119139
1.59305e-05 0.000496476 9.29531e-06
0.000119139 9.29531e-06 0.000485786
0.000755029 0.000122369 1.6503e-05
0.000122369 3.48776e-05 1.07601e-05
1.6503e-05 1.07601e-05 -3.44289e-05
0.00162962 -2.27943e-05 0.000155454
-2.27943e-05 0.000550572 1.78615e-06
0.000155454 1.78615e-06 0.000534633
0.00126211 -1.77438e-05 1.61584e-05
-1.77438e-05 0.000359853 1.55397e-06
1.61584e-05 1.55397e-06 0.000327185
0.00140347 3.5688e-05 -1.39737e-05
3.5688e-05 0.000464551 4.20216e-06
-1.39737e-05 4.20216e-06 0.000430497
0.00148452 -3.41181e-05 5.46442e-05
-3.41181e-05 0.000482801 -3.24926e-06
5.46442e-05 -3.24926e-06 0.000458658
0.00137141 2.39627e-05 7.24229e-05
2.39627e-05 0.00045122 -5.06107e-06
7.24229e-05 -5.06107e-06 0.000417635
0.00145128 -1.10911e-05 6.20575e-05
-1.10911e-05 0.000478174 -5.74348e-06
6.20575e-05 -5.74348e-06 0.000452563
0.00147488 -7.50406e-05 -2.66722e-05
-7.50406e-05 0.000414104 1.93383e-06
-2.66722e-05 1.93383e-06 0.000350567
0.00515409 -0.000101834 0.000167062
-0.000101834 0.00256635 -3.56395e-06
0.000167062 -3.56395e-06 0.00256215
0.00170925 -2.70888e-05 0.000144412
-2.70888e-05 0.000598866 -8.53592e-06
0.000144412 -8.53592e-06 0.000579924
0.00169655 -5.25781e-05 0.00013812
-5.25781e-05 0.000601455 -1.35287e-05
0.00013812 -1.35287e-05 0.000582273
0.00145235 -6.91863e-05 3.45119e-05
-6.91863e-05 0.000373935 -5.27629e-06
3.45119e-05 -5.27629e-06 0.000312736
0.00142765 -4.93085e-05 2.43115e-05
-4.93085e-05 0.000380187 -6.65005e-06
2.43115e-05 -6.65005e-06 0.00031641
0.00118743 -1.45327e-05 0.000112988
-1.45327e-05 0.000326976 -1.24625e-05
0.000112988 -1.24625e-05 0.000311445
0.00127445 -1.55704e-05 1.07451e-05
-1.55704e-05 0.000338482 -8.59657e-06
1.07451e-05 -8.59657e-06 0.000260081
0.00196739 -0.000180212 1.06785e-05
-0.000180212 0.000563322 -4.05968e-06
1.06785e-05 -4.05968e-06 0.000446164
0.00424857 -0.000164748 -0.000101108
-0.000164748 0.00209151 -6.04374e-06
-0.000101108 -6.04374e-06 0.0020722
0.00322567 7.21231e-06 -8.10228e-05
7.21231e-06 0.00147748 -4.28998e-06
-8.10228e-05 -4.28998e-06 0.00145833
0.00298717 -9.15409e-05 -6.6371e-05
-9.15409e-05 0.00137199 -2.04246e-06
-6.6371e-05 -2.04246e-06 0.00134384
0.00397363 -0.000136231 6.7065e-06
-0.000136231 0.00192464 -5.1317e-07
6.7065e-06 -5.1317e-07 0.0019134
0.000640093 0.000107749 -2.9221e-07
0.000107749 -2.5208e-05 -3.71501e-07
-2.9221e-07 -3.71501e-07 -9.33315e-05
0.00153215 4.73409e-05 0.000143761
4.73409e-05 0.000505205 1.00805e-05
0.000143761 1.00805e-05 0.00048629
0.00174147 9.7768e-05 0.000145531
9.7768e-05 0.00063679 1.39422e-05
0.000145531 1.39422e-05 0.000617583
0.00249529 0.000143211 8.86962e-05
0.000143211 0.000969551 1.04741e-05
8.86962e-05 1.04741e-05 0.000914576
0.00320954 -0.000167329 1.29456e-05
-0.000167329 0.00149632 1.91492e-06
1.29456e-05 1.91492e-06 0.00147966
0.00250238 0.000144317 8.28559e-05
0.000144317 0.00100707 1.11888e-05
8.28559e-05 1.11888e-05 0.000948996
0.000686599 6.8255e-05 1.44392e-05
6.8255e-05 6.7801e-06 1.2824e-05
1.44392e-05 1.2824e-05 -5.2677e-05
0.000957595 0.000139477 6.71015e-06
0.000139477 8.95705e-05 3.70578e-06
6.71015e-06 3.70578e-06 -3.58398e-05
0.0027074 -9.959e-05 6.16367e-05
-9.959e-05 0.00119432 2.43542e-06
6.16367e-05 2.43542e-06 0.00119747
0.00520834 4.90639e-05 3.95547e-06
4.90639e-05 0.00258638 -9.29332e-07
3.95547e-06 -9.29332e-07 0.00258785
0.00323689 2.71987e-05 -6.5461e-05
2.71987e-05 0.00147502 -1.90506e-06
-6.5461e-05 -1.90506e-06 0.00145821
0.00519836 5.86519e-05 0.000167364
5.86519e-05 0.0025823 1.13279e-06
0.000167364 1.13279e-06 0.00258301
0.00132379 2.22731e-05 1.70811e-05
2.22731e-05 0.000393498 1.39754e-06
1.70811e-05 1.39754e-06 0.00036194
0.000729072 2.52672e-06 1.60055e-05
2.52672e-06 -6.2553e-05 1.89777e-06
1.60055e-05 1.89777e-06 -0.000127519
0.00491587 0.000143055 7.09437e-05
0.000143055 0.00243854 5.49647e-06
7.09437e-05 5.49647e-06 0.00242072
0.00255231 3.61872e-05 8.89233e-05
3.61872e-05 0.00097276 5.27269e-06
8.89233e-05 5.27269e-06 0.000925673
0.00119694 -6.2117e-05 -3.19513e-05
-6.2117e-05 0.000333636 4.03359e-06
-3.19513e-05 4.03359e-06 0.000300717
0.00129663 -1.95215e-05 -2.54433e-05
-1.95215e-05 0.000394969 4.00918e-06
-2.54433e-05 4.00918e-06 0.000365546
0.00141718 0.000110333 4.68382e-07
0.000110333 0.000498229 5.99359e-06
4.68382e-07 5.99359e-06 0.000449548
0.0014909 -9.46601e-05 -7.60625e-05
-9.46601e-05 0.000415809 1.06511e-05
-7.60625e-05 1.06511e-05 0.000357532
0.00330254 2.40103e-05 -7.05217e-05
2.40103e-05 0.00151816 -1.03978e-06
-7.05217e-05 -1.03978e-06 0.00149707
0.00148685 -3.65822e-05 5.93883e-05
-3.65822e-05 0.000483115 -2.2687e-06
5.93883e-05 -2.2687e-06 0.000457435
0.00120863 3.75846e-05 5.72606e-05
3.75846e-05 0.000356632 -4.01889e-06
5.72606e-05 -4.01889e-06 0.000329188
0.00147558 -2.82719e-05 5.67665e-05
-2.82719e-05 0.000481527 -4.76914e-06
5.67665e-05 -4.76914e-06 0.000458139
0.0014969 -6.85446e-05 -2.08673e-05
-6.85446e-05 0.000395858 7.22736e-07
-2.08673e-05 7.22736e-07 0.000338008
0.00138145 -5.2363e-05 -3.00921e-05
-5.2363e-05 0.0003872 9.15104e-07
-3.00921e-05 9.15104e-07 0.000317517
0.00148267 -7.98857e-05 -2.22578e-05
-7.98857e-05 0.000405013 1.55915e-06
-2.22578e-05 1.55915e-06 0.000346193
0.0019733 -0.000178844 -5.01768e-06
-0.000178844 0.000566048 1.33303e-06
-5.01768e-06 1.33303e-06 0.000449152
0.0051498 5.94406e-05 0.000158428
5.94406e-05 0.00255649 -2.00548e-07
0.000158428 -2.00548e-07 0.00255704
0.00170616 -1.19532e-05 0.00014752
-1.19532e-05 0.000596065 -5.79879e-06
0.00014752 -5.79879e-06 0.00057738
0.00235253 4.90553e-05 1.92313e-05
4.90553e-05 0.000873163 -1.23615e-06
1.92313e-05 -1.23615e-06 0.000816751
0.00145555 -6.83902e-05 3.12136e-05
-6.83902e-05 0.000371625 -4.20496e-06
3.12136e-05 -4.20496e-06 0.000309536
0.00144668 -6.45564e-05 3.10538e-05
-6.45564e-05 0.000376493 -5.96375e-06
3.10538e-05 -5.96375e-06 0.000315657
0.00196354 -0.000111383 1.007e-05
-0.000111383 0.000506514 -2.42327e-06
1.007e-05 -2.42327e-06 0.000402485
0.00153081 -0.00014082 1.24101e-05
-0.00014082 0.000292808 -4.37595e-06
1.24101e-05 -4.37595e-06 0.000181215
0.00111234 3.26246e-05 8.26192e-05
3.26246e-05 0.000281235 -9.23436e-06
8.26192e-05 -9.23436e-06 0.000267407
0.000896896 1.40813e-05 8.50051e-06
1.40813e-05 0.000156419 -7.20135e-06
8.50051e-06 -7.20135e-06 9.09917e-05
0.00183214 -0.000181017 8.62246e-06
-0.000181017 0.000534962 -4.42645e-06
8.62246e-06 -4.42645e-06 0.00041201
0.00128986 -0.000169341 6.9195e-06
-0.000169341 9.02121e-05 -9.96693e-07
6.9195e-06 -9.96693e-07 -5.2845e-05
0.00516539 4.8633e-05 -0.000165784
4.8633e-05 0.00256645 -1.05164e-05
-0.000165784 -1.05164e-05 0.00256588
0.00373815 -0.000149517 -8.73926e-05
-0.000149517 0.00179274 -3.60379e-06
-8.73926e-05 -3.60379e-06 0.00178079
0.00466281 -0.000141417 -0.000118855
-0.000141417 0.00232279 -8.15517e-06
-0.000118855 -8.15517e-06 0.00230467
0.000527676 0.000104178 -1.45233e-05
0.000104178 -8.52996e-05 -1.10116e-05
-1.45233e-05 -1.10116e-05 -0.0001522
0.00522055 9.57642e-05 -2.56067e-06
9.57642e-05 0.00259329 -1.30466e-06
-2.56067e-06 -1.30466e-06 0.00259228
0.00516736 -2.81843e-05 -7.84685e-06
-2.81843e-05 0.00258295 3.84753e-09
-7.84685e-06 3.84753e-09 0.00257508
0.000587833 0.000108482 -4.42335e-07
0.000108482 -0.000107489 -2.37093e-07
-4.42335e-07 -2.37093e-07 -0.000178567
0.00216264 -0.000100014 -3.72669e-05
-0.000100014 0.000893171 -1.83072e-07
-3.72669e-05 -1.83072e-07 0.000879481
0.000598524 0.000137627 -1.25616e-06
0.000137627 -6.70034e-05 -1.34195e-07
-1.25616e-06 -1.34195e-07 -0.000138427
0.0013099 4.69369e-05 2.39337e-05
4.69369e-05 0.000368891 3.03057e-07
2.39337e-05 3.03057e-07 0.000316639
0.000897355 0.000132193 3.60137e-07
0.000132193 5.38398e-05 -1.97156e-07
3.60137e-07 -1.97156e-07 -7.0291e-05
0.00307399 -0.000101094 8.23887e-05
-0.000101094 0.00140239 3.1909e-06
8.23887e-05 3.1909e-06 0.00140415
0.000613452 -6.42608e-05 -3.85098e-07
-6.42608e-05 4.21587e-07 6.03435e-06
-3.85098e-07 6.03435e-06 -3.16606e-05
0.000702583 7.75894e-05 1.6882e-05
7.75894e-05 -6.11336e-05 7.88967e-06
1.6882e-05 7.88967e-06 -0.000128885
0.000733766 0.000125892 2.11208e-05
0.000125892 -1.2763e-05 1.24871e-05
2.11208e-05 1.24871e-05 -8.71602e-05
0.00105151 0.000122922 1.14866e-05
0.000122922 2.57258e-06 4.47112e-06
1.14866e-05 4.47112e-06 -0.00011846
0.00191659 -1.07082e-05 4.81458e-05
-1.07082e-05 0.000724059 5.93003e-06
4.81458e-05 5.93003e-06 0.000686785
0.000991754 0.000142576 8.66176e-06
0.000142576 5.14065e-05 4.59069e-06
8.66176e-06 4.59069e-06 -7.43198e-05
0.000953253 0.000124246 5.88286e-06
0.000124246 0.000139273 3.83527e-06
5.88286e-06 3.83527e-06 1.879e-05
0.00092447 0.000164467 2.70781e-06
0.000164467 2.39401e-05 7.43087e-07
2.70781e-06 7.43087e-07 -0.000132125
0.00242972 -9.56569e-05 4.10562e-05
-9.56569e-05 0.00103304 2.5193e-06
4.10562e-05 2.5193e-06 0.00103741
0.00258668 -0.000106876 3.9202e-06
-0.000106876 0.00112823 -2.67641e-07
3.9202e-06 -2.67641e-07 0.00112935
0.0052008 1.09023e-05 -0.000161341
1.09023e-05 0.00257942 -6.47337e-06
-0.000161341 -6.47337e-06 0.00258053
0.00520886 4.3372e-05 -0.000166989
4.3372e-05 0.00258591 -3.1698e-06
-0.000166989 -3.1698e-06 0.00258781
0.00522024 7.65159e-05 -6.25226e-08
7.65159e-05 0.00260074 -1.44466e-06
-6.25226e-08 -1.44466e-06 0.00259754
0.00324545 -8.41328e-06 -7.89659e-05
-8.41328e-06 0.00147779 -2.04803e-06
-7.89659e-05 -2.04803e-06 0.00146286
0.00164088 1.993e-05 3.78823e-05
1.993e-05 0.000454965 4.84516e-07
3.78823e-05 4.84516e-07 0.000399036
0.00327049 6.85147e-05 -6.64126e-05
6.85147e-05 0.0014931 -3.09569e-06
-6.64126e-05 -3.09569e-06 0.00147625
0.00165658 5.26235e-05 3.63522e-05
5.26235e-05 0.000470009 1.03971e-06
3.63522e-05 1.03971e-06 0.000412666
0.00522364 0.000143546 0.0001704
0.000143546 0.00261184 3.27144e-06
0.0001704 3.27144e-06 0.00260242
0.000666155 1.22398e-06 1.66905e-05
1.22398e-06 -9.7649e-05 5.13534e-07
1.66905e-05 5.13534e-07 -0.000162041
0.0025865 7.67278e-06 9.01431e-05
7.67278e-06 0.00099008 3.53126e-06
9.01431e-05 3.53126e-06 0.000943634
0.00111624 2.71551e-05 1.15143e-05
2.71551e-05 2.42822e-07 1.31766e-06
1.15143e-05 1.31766e-06 -0.000109857
0.00247882 7.91555e-05 8.88763e-05
7.91555e-05 0.000939516 6.3934e-06
8.88763e-05 6.3934e-06 0.000890263
0.00112271 6.63193e-05 1.12263e-05
6.63193e-05 1.39455e-05 2.45757e-06
1.12263e-05 2.45757e-06 -9.91716e-05
0.00165104 2.93783e-05 -0.000154027
2.93783e-05 0.000564534 1.00597e-06
-0.000154027 1.00597e-06 0.000548739
0.00123919 -5.915e-06 -2.04916e-05
-5.915e-06 0.000350297 1.84569e-06
-2.04916e-05 1.84569e-06 0.000319315
0.00123547 0.000114808 -8.47304e-07
0.000114808 0.000395434 5.36147e-06
-8.47304e-07 5.36147e-06 0.000351297
0.0012328 -4.3609e-05 -3.17243e-05
-4.3609e-05 0.000354102 4.12671e-06
-3.17243e-05 4.12671e-06 0.000324145
0.00159148 -5.08594e-05 -7.62973e-05
-5.08594e-05 0.000443312 6.18783e-06
-7.62973e-05 6.18783e-06 0.000390419
0.00152945 -8.18593e-05 -7.45545e-05
-8.18593e-05 0.000425921 9.54569e-06
-7.45545e-05 9.54569e-06 0.000371189
0.00143167 -9.09803e-05 -7.45666e-05
-9.09803e-05 0.000403188 1.06571e-05
-7.45666e-05 1.06571e-05 0.000342541
0.00199061 -0.000178621 -2.01773e-05
-0.000178621 0.000575648 6.47496e-06
-2.01773e-05 6.47496e-06 0.000458848
0.0052107 -7.96244e-05 2.1373e-06
-7.96244e-05 0.00259572 -1.12179e-06
2.1373e-06 -1.12179e-06 0.00259215
0.00147659 3.75621e-05 6.81191e-05
3.75621e-05 0.000474988 -1.89659e-06
6.81191e-05 -1.89659e-06 0.00044999
0.00113154 4.45586e-06 -4.04495e-05
4.45586e-06 0.000170704 5.94394e-07
-4.04495e-05 5.94394e-07 0.000113023
0.0015098 -4.08963e-05 -2.45758e-05
-4.08963e-05 0.000396748 8.30962e-07
-2.45758e-05 8.30962e-07 0.000339455
0.0023524 7.06013e-05 8.30645e-05
7.06013e-05 0.000997039 -6.02347e-07
8.30645e-05 -6.02347e-07 0.000987347
0.00154205 -1.72809e-05 -2.14656e-05
-1.72809e-05 0.00050873 -6.37119e-07
-2.14656e-05 -6.37119e-07 0.000447959
0.00149584 -7.5694e-05 -2.04339e-05
-7.5694e-05 0.000401527 1.07054e-06
-2.04339e-05 1.07054e-06 0.000343955
0.00178179 -0.000103144 -7.10137e-06
-0.000103144 0.000402643 1.21742e-06
-7.10137e-06 1.21742e-06 0.000297468
0.00191574 -0.000187395 -4.07867e-06
-0.000187395 0.000581364 1.02169e-06
-4.07867e-06 1.02169e-06 0.000456671
0.00177307 -0.000149829 -2.60887e-06
-0.000149829 0.000429579 5.51809e-07
-2.60887e-06 5.51809e-07 0.000318829
0.00125012 -0.000165993 3.41429e-07
-0.000165993 6.99274e-05 2.08746e-07
3.41429e-07 2.08746e-07 -7.27545e-05
0.000695166 8.45712e-06 1.69845e-05
8.45712e-06 -8.09367e-05 -1.24695e-06
1.69845e-05 -1.24695e-06 -0.000143982
0.00145075 1.24149e-05 2.36647e-05
1.24149e-05 0.000362466 -2.46239e-06
2.36647e-05 -2.46239e-06 0.000301872
0.00160058 -2.25195e-05 1.16617e-05
-2.25195e-05 0.000278416 -1.17632e-06
1.16617e-05 -1.17632e-06 0.00017532
0.00157764 -7.98985e-05 1.1406e-05
-7.98985e-05 0.000281244 -2.18471e-06
1.1406e-05 -2.18471e-06 0.000175572
0.00154146 -0.000120224 1.22186e-05
-0.000120224 0.000278976 -3.66257e-06
1.22186e-05 -3.66257e-06 0.000170372
0.00176254 -0.000118472 3.13814e-06
-0.000118472 0.000304674 -7.92518e-07
3.13814e-06 -7.92518e-07 0.000177381
0.00334653 0.000129081 7.7607e-05
0.000129081 0.0015592 -2.54889e-06
7.7607e-05 -2.54889e-06 0.00155409
0.00132085 -0.000150517 6.06324e-06
-0.000150517 8.9389e-05 -1.88136e-06
6.06324e-06 -1.88136e-06 -4.6705e-05
0.000485024 -1.21329e-06 6.08713e-06
-1.21329e-06 -8.56972e-05 -8.23846e-06
6.08713e-06 -8.23846e-06 -0.000136173
0.000689572 -0.000117882 4.93859e-06
-0.000117882 -3.37559e-05 -4.41602e-06
4.93859e-06 -4.41602e-06 -0.00015306
0.00137187 -0.000192783 6.50629e-06
-0.000192783 0.000188261 -2.31313e-06
6.50629e-06 -2.31313e-06 3.0136e-05
0.00133592 -0.000178025 3.89027e-06
-0.000178025 5.99032e-05 4.79352e-07
3.89027e-06 4.79352e-07 -9.10574e-05
0.000514084 3.62496e-05 2.6706e-06
3.62496e-05 -6.68397e-05 -7.23911e-06
2.6706e-06 -7.23911e-06 -0.000106887
0.000684307 1.22057e-05 8.62506e-07
1.22057e-05 1.69887e-05 -3.48913e-06
8.62506e-07 -3.48913e-06 -6.49124e-05
0.00522224 0.000102401 -0.00017698
0.000102401 0.00259592 -1.12747e-05
-0.00017698 -1.12747e-05 0.00259456
0.00497416 -4.59987e-05 -0.000144905
-4.59987e-05 0.00247386 -8.99843e-06
-0.000144905 -8.99843e-06 0.00246843
0.000583572 9.94411e-05 -1.6298e-05
9.94411e-05 -0.000110524 -8.86069e-06
-1.6298e-05 -8.86069e-06 -0.000181606
0.00326143 -0.000131679 -7.31103e-05
-0.000131679 0.00151657 -2.49561e-06
-7.31103e-05 -2.49561e-06 0.00151085
0.000490411 3.50909e-05 -7.75541e-06
3.50909e-05 -9.18467e-05 -9.69967e-06
-7.75541e-06 -9.69967e-06 -0.00014628
0.00051777 0.000126758 -1.70897e-05
0.000126758 -0.000108321 -1.08531e-05
-1.70897e-05 -1.08531e-05 -0.000180057
0.000852844 0.000126861 -6.83567e-06
0.000126861 2.72357e-05 -4.33648e-06
-6.83567e-06 -4.33648e-06 -9.58948e-05
0.00294712 -0.00011281 4.55494e-06
-0.00011281 0.00133418 -2.31471e-07
4.55494e-06 -2.31471e-07 0.00133355
0.000568594 -7.40133e-05 1.11743e-07
-7.40133e-05 -2.15631e-05 2.61169e-07
1.11743e-07 2.61169e-07 -5.52077e-05
0.00159971 9.64655e-05 3.55835e-05
9.64655e-05 0.000448991 1.66272e-06
3.55835e-05 1.66272e-06 0.000388511
0.00152171 0.00013403 3.32147e-05
0.00013403 0.000436024 1.26779e-06
3.32147e-05 1.26779e-06 0.000370496
0.00106159 0.000125274 1.77104e-07
0.000125274 9.44927e-06 -1.86118e-07
1.77104e-07 -1.86118e-07 -0.000112123
0.000627984 -9.16104e-06 -5.55207e-07
-9.16104e-06 -4.69206e-06 1.41276e-07
-5.55207e-07 1.41276e-07 -4.91686e-05
0.000968251 0.000140701 5.81713e-07
0.000140701 3.88547e-05 1.03926e-07
5.81713e-07 1.03926e-07 -8.65627e-05
0.00084515 0.000113111 2.12175e-07
0.000113111 7.77885e-05 -2.59326e-07
2.12175e-07 -2.59326e-07 -4.04591e-05
0.000864065 0.000160609 -5.32959e-08
0.000160609 -1.14503e-05 1.76811e-07
-5.32959e-08 1.76811e-07 -0.000168063
0.000626381 -3.7768e-05 4.01109e-06
-3.7768e-05 4.96305e-06 6.84532e-06
4.01109e-06 6.84532e-06 -3.36334e-05
0.000638245 -6.92643e-05 -1.60929e-06
-6.92643e-05 7.15815e-06 5.06159e-06
-1.60929e-06 5.06159e-06 -1.90206e-05
0.000681726 1.03183e-05 2.12952e-06
1.03183e-05 2.90248e-05 3.39698e-06
2.12952e-06 3.39698e-06 -4.67992e-05
0.00108624 0.00010381 1.14381e-05
0.00010381 5.83265e-06 3.89487e-06
1.14381e-05 3.89487e-06 -0.000111967
0.00101889 0.000137865 1.0585e-05
0.000137865 1.87613e-05 4.76859e-06
1.0585e-05 4.76859e-06 -0.000105746
0.00132817 0.000155837 6.40776e-06
0.000155837 7.64716e-05 1.72251e-06
6.40776e-06 1.72251e-06 -6.95819e-05
0.000899631 9.55752e-05 4.6932e-06
9.55752e-05 0.000137631 3.87128e-06
4.6932e-06 3.87128e-06 2.89281e-05
0.000891108 0.000160528 3.81319e-06
0.000160528 -7.45792e-05 1.99617e-06
3.81319e-06 1.99617e-06 -0.000228588
0.00112537 0.000174248 2.6485e-06
0.000174248 0.000207865 1.22654e-06
2.6485e-06 1.22654e-06 4.9924e-05
0.00122414 0.000198161 -3.2982e-06
0.000198161 0.000172495 -6.19921e-07
-3.2982e-06 -6.19921e-07 3.72352e-06
0.00228203 -8.49986e-05 3.3967e-05
-8.49986e-05 0.000941454 2.85052e-06
3.3967e-05 2.85052e-06 0.000948798
0.00235638 -9.52283e-05 1.79713e-06
-9.52283e-05 0.00099157 -1.94491e-07
1.79713e-06 -1.94491e-07 0.000995947
0.00247493 -0.000106686 -3.97e-05
-0.000106686 0.00106612 -2.42575e-06
-3.97e-05 -2.42575e-06 0.00106709
0.000532174 4.67412e-05 1.73564e-06
4.67412e-05 -5.64515e-05 -6.38824e-06
1.73564e-06 -6.38824e-06 -9.21228e-05
0.00313795 0.000119333 6.61934e-05
0.000119333 0.00143626 -2.61185e-06
6.61934e-05 -2.61185e-06 0.0014341
0.00521625 0.000129764 -0.000178671
0.000129764 0.00259638 -1.07908e-05
-0.000178671 -1.07908e-05 0.00259238
0.00517577 2.25829e-05 -0.000162849
2.25829e-05 0.0025656 -4.65301e-06
-0.000162849 -4.65301e-06 0.00256789
0.000698795 6.19328e-05 -1.71338e-05
6.19328e-05 -7.0142e-05 -4.33894e-06
-1.71338e-05 -4.33894e-06 -0.000135989
0.000678399 2.51686e-05 -1.721e-05
2.51686e-05 -8.64182e-05 -2.17551e-06
-1.721e-05 -2.17551e-06 -0.000151904
0.00518129 -4.08356e-05 -0.000160055
-4.08356e-05 0.00257176 -7.95519e-07
-0.000160055 -7.95519e-07 0.00257347
0.00520027 1.55144e-05 -3.85055e-07
1.55144e-05 0.00258243 3.81513e-07
-3.85055e-07 3.81513e-07 0.00258375
0.000662376 -1.83483e-06 -1.46796e-07
-1.83483e-06 -0.000100128 -1.75386e-07
-1.46796e-07 -1.75386e-07 -0.00016405
0.0016248 2.13917e-05 3.73301e-05
2.13917e-05 0.000448575 9.11886e-07
3.73301e-05 9.11886e-07 0.000392865
0.00112402 3.1392e-05 1.14078e-07
3.1392e-05 4.77083e-06 -1.47662e-07
1.14078e-07 -1.47662e-07 -0.000105546
0.000663215 5.66133e-05 -4.39179e-08
5.66133e-05 -8.68556e-05 -1.76888e-07
-4.39179e-08 -1.76888e-07 -0.000152923
0.00111612 6.8753e-05 -6.61753e-08
6.8753e-05 1.06283e-05 -1.31679e-07
-6.61753e-08 -1.31679e-07 -0.000102888
0.000654275 -1.79857e-05 1.7003e-05
-1.79857e-05 -0.00010634 -4.94712e-07
1.7003e-05 -4.94712e-07 -0.000169583
0.00112221 1.19452e-05 1.13952e-05
1.19452e-05 -3.92292e-09 5.69016e-07
1.13952e-05 5.69016e-07 -0.000109622
0.00111567 4.72576e-05 1.14009e-05
4.72576e-05 5.29816e-06 1.96243e-06
1.14009e-05 1.96243e-06 -0.000106018
0.00140285 3.78739e-05 4.26491e-06
3.78739e-05 6.32277e-05 4.15346e-07
4.26491e-06 4.15346e-07 -6.09887e-05
0.00111199 8.4182e-05 1.12186e-05
8.4182e-05 1.25422e-05 3.10409e-06
1.12186e-05 3.10409e-06 -0.000102686
0.00140017 8.14168e-05 4.36478e-06
8.14168e-05 7.99078e-05 7.29913e-07
4.36478e-06 7.29913e-07 -5.06364e-05
0.00519483 -4.9022e-05 -0.000169316
-4.9022e-05 0.00258174 -5.2095e-07
-0.000169316 -5.2095e-07 0.0025814
0.0012738 -7.85993e-05 -1.886e-05
-7.85993e-05 0.000371791 2.06291e-06
-1.886e-05 2.06291e-06 0.000338688
-0.000174916 -5.61782e-07 -1.34981e-05
-5.61782e-07 -0.000568722 2.19064e-06
-1.34981e-05 2.19064e-06 -0.00064045
0.00158912 -3.43911e-05 -7.76258e-05
-3.43911e-05 0.00043761 4.55118e-06
-7.76258e-05 4.55118e-06 0.000384264
0.00344648 0.000193397 -1.28382e-05
0.000193397 0.00164332 2.07297e-06
-1.28382e-05 2.07297e-06 0.00161818
0.00218377 -8.30554e-05 -6.30087e-05
-8.30554e-05 0.000853159 9.39182e-06
-6.30087e-05 9.39182e-06 0.000801251
0.00157101 -6.76974e-05 -7.51979e-05
-6.76974e-05 0.000438945 8.04396e-06
-7.51979e-05 8.04396e-06 0.00038564
0.00157925 -9.45062e-05 -2.23815e-05
-9.45062e-05 0.00028685 4.35929e-06
-2.23815e-05 4.35929e-06 0.000180673
0.00200995 -0.000158864 -1.90249e-05
-0.000158864 0.000563513 5.67188e-06
-1.90249e-05 5.67188e-06 0.000453665
0.00203022 -0.00019502 -1.73261e-05
-0.00019502 0.000645732 6.92004e-06
-1.73261e-05 6.92004e-06 0.000519077
0.00122718 -0.000163582 -5.81596e-06
-0.000163582 5.86756e-05 1.3379e-06
-5.81596e-06 1.3379e-06 -8.36828e-05
0.000656724 8.99566e-06 3.58875e-09
8.99566e-06 -0.000102343 -1.47558e-07
3.58875e-09 -1.47558e-07 -0.000165558
0.00154091 -4.27975e-05 -2.57607e-05
-4.27975e-05 0.000410366 2.72202e-07
-2.57607e-05 2.72202e-07 0.000352952
0.00117704 -1.93358e-05 -5.04548e-06
-1.93358e-05 3.9408e-05 2.23607e-07
-5.04548e-06 2.23607e-07 -6.73727e-05
0.00181552 -8.27755e-05 -3.52988e-06
-8.27755e-05 0.000413666 4.89227e-07
-3.52988e-06 4.89227e-07 0.00030968
0.00338625 0.000123375 -2.17642e-06
0.000123375 0.00158165 -3.70306e-07
-2.17642e-06 -3.70306e-07 0.00157738
0.00126149 -1.20913e-05 1.69793e-06
-1.20913e-05 0.000352369 5.41845e-07
1.69793e-06 5.41845e-07 0.000300061
0.0012597 -0.000145609 6.52035e-07
-0.000145609 0.000285566 -6.85951e-07
6.52035e-07 -6.85951e-07 0.000165281
0.0015611 -0.000119539 -3.89021e-06
-0.000119539 0.000290206 7.32609e-07
-3.89021e-06 7.32609e-07 0.000181616
0.00146508 -0.000108753 -2.59935e-06
-0.000108753 0.000135659 6.0184e-07
-2.59935e-06 6.0184e-07 7.32359e-06
0.0010082 -0.000169299 -5.89858e-07
-0.000169299 -1.36864e-05 -5.04692e-07
-5.89858e-07 -5.04692e-07 -0.000169522
0.00155261 -0.000158983 2.05194e-07
-0.000158983 0.000220152 -8.93103e-08
2.05194e-07 -8.93103e-08 8.4976e-05
0.00141987 -0.000182758 4.77426e-07
-0.000182758 0.000106921 2.15581e-07
4.77426e-07 2.15581e-07 -4.44087e-05
0.00054843 3.06137e-05 -6.72475e-07
3.06137e-05 -4.85048e-05 8.98829e-08
-6.72475e-07 8.98829e-08 -8.84448e-05
0.000675554 -2.507e-06 -2.93547e-07
-2.507e-06 1.04341e-05 6.50126e-08
-2.93547e-07 6.50126e-08 -7.18836e-05
0.00111272 -9.66062e-06 1.12821e-05
-9.66062e-06 -4.20101e-06 -1.09384e-06
1.12821e-05 -1.09384e-06 -0.000113194
0.00160339 -4.63561e-05 1.12253e-05
-4.63561e-05 0.000285745 -1.58223e-06
1.12253e-05 -1.58223e-06 0.000181916
0.00176235 -3.03266e-05 3.03826e-06
-3.03266e-05 0.000276096 -2.54316e-07
3.03826e-06 -2.54316e-07 0.000156785
0.00124813 -8.17297e-05 5.21459e-06
-8.17297e-05 4.53582e-06 -9.39528e-07
5.21459e-06 -9.39528e-07 -0.000122808
0.00164682 -0.000144202 4.76277e-06
-0.000144202 0.000253621 -1.24344e-06
4.76277e-06 -1.24344e-06 0.000122481
0.00166118 -0.000121412 -2.16261e-07
-0.000121412 0.000184311 3.17909e-07
-2.16261e-07 3.17909e-07 5.54e-05
0.000478151 1.46746e-05 4.89762e-06
1.46746e-05 -8.92259e-05 -7.69684e-06
4.89762e-06 -7.69684e-06 -0.000133501
0.00142712 -0.000161713 2.7127e-06
-0.000161713 9.34854e-05 -2.28883e-07
2.7127e-06 -2.28883e-07 -4.81333e-05
0.000625085 -8.65249e-05 3.31022e-06
-8.65249e-05 -2.82852e-05 -2.77933e-06
3.31022e-06 -2.77933e-06 -0.000136483
0.000531919 -0.000141837 4.96956e-06
-0.000141837 -0.000185076 -4.63347e-06
4.96956e-06 -4.63347e-06 -0.000343974
0.00193088 -0.000240831 2.98193e-06
-0.000240831 0.000439614 2.7463e-07
2.98193e-06 2.7463e-07 0.000267944
0.00166689 -0.000200543 -1.5042e-07
-0.000200543 0.000203775 1.76238e-06
-1.5042e-07 1.76238e-06 5.24461e-05
0.000750386 -3.84818e-05 2.24458e-06
-3.84818e-05 5.53826e-05 -3.11168e-06
2.24458e-06 -3.11168e-06 -3.89001e-05
0.000649104 1.31243e-05 1.30864e-06
1.31243e-05 -2.44374e-06 -3.00894e-06
1.30864e-06 -3.00894e-06 -7.50139e-05
0.00086011 -7.81207e-05 1.08647e-06
-7.81207e-05 0.000118321 -6.16144e-07
1.08647e-06 -6.16144e-07 7.66628e-07
0.000627092 7.90768e-05 -1.59275e-05
7.90768e-05 -9.95968e-05 -6.96147e-06
-1.59275e-05 -6.96147e-06 -0.000167739
0.00282218 -0.000121203 -5.18221e-05
-0.000121203 0.00126627 -2.21112e-06
-5.18221e-05 -2.21112e-06 0.00126352
0.000510103 -7.22421e-05 8.40992e-07
-7.22421e-05 -5.51563e-05 -5.42108e-06
8.40992e-07 -5.42108e-06 -8.79577e-05
0.000537988 0.000118652 -1.68877e-05
0.000118652 -0.000116156 -1.04277e-05
-1.68877e-05 -1.04277e-05 -0.000189228
0.00106832 0.000127729 -1.17658e-05
0.000127729 1.4465e-05 -4.82679e-06
-1.17658e-05 -4.82679e-06 -0.000107673
0.000474942 -1.7942e-05 -4.4854e-06
-1.7942e-05 -8.82547e-05 -8.10375e-06
-4.4854e-06 -8.10375e-06 -0.000132603
0.000718483 9.99354e-05 -4.26737e-06
9.99354e-05 6.28167e-06 -4.02427e-06
-4.26737e-06 -4.02427e-06 -0.000109671
0.000935766 0.000137994 -8.00987e-06
0.000137994 2.14908e-05 -4.51873e-06
-8.00987e-06 -4.51873e-06 -0.000103532
0.000759029 0.00015377 -4.00147e-06
0.00015377 -7.20535e-05 -1.55941e-06
-4.00147e-06 -1.55941e-06 -0.00022879
0.000550973 -4.50352e-05 1.42179e-06
-4.50352e-05 -3.72033e-05 2.31506e-07
1.42179e-06 2.31506e-07 -7.50967e-05
0.000600064 -6.40031e-05 -2.80724e-07
-6.40031e-05 -1.6337e-05 1.60571e-07
-2.80724e-07 1.60571e-07 -4.10575e-05
0.000648929 -2.65889e-05 3.67377e-07
-2.65889e-05 7.41089e-06 3.92252e-07
3.67377e-07 3.92252e-07 -6.40407e-05
0.00108919 0.000105976 5.30342e-08
0.000105976 8.3681e-06 -1.68947e-07
5.30342e-08 -1.68947e-07 -0.00010995
0.00102066 0.000138924 4.40463e-07
0.000138924 2.05672e-05 -2.06867e-07
4.40463e-07 -2.06867e-07 -0.000104127
0.0013194 0.000156183 2.84974e-07
0.000156183 7.228e-05 2.71307e-08
2.84974e-07 2.71307e-08 -7.40322e-05
0.000795625 8.46953e-05 -1.42124e-09
8.46953e-05 8.09464e-05 1.0697e-07
-1.42124e-09 1.0697e-07 -2.62651e-05
0.00110752 0.000174508 -1.12744e-07
0.000174508 4.6339e-05 -6.57646e-08
-1.12744e-07 -6.57646e-08 -0.000109099
0.00106045 0.000168223 4.86382e-07
0.000168223 0.000172275 -5.50723e-07
4.86382e-07 -5.50723e-07 1.52952e-05
0.00114137 0.000195822 -7.3074e-07
0.000195822 0.000123526 1.52387e-06
-7.3074e-07 1.52387e-06 -4.50493e-05
0.00064218 -5.60793e-05 9.70733e-07
-5.60793e-05 -4.62169e-06 4.01744e-06
9.70733e-07 4.01744e-06 -2.39557e-05
0.000729161 4.77639e-05 2.96019e-06
4.77639e-05 4.91493e-05 3.07685e-06
2.96019e-06 3.07685e-06 -4.14741e-05
0.000659195 -3.7668e-05 3.57056e-07
-3.7668e-05 6.98841e-06 2.70174e-06
3.57056e-07 2.70174e-06 -4.88666e-05
0.000830659 4.84442e-05 2.87729e-07
4.84442e-05 0.000122107 1.32693e-06
2.87729e-07 1.32693e-06 1.15495e-05
0.0013736 0.000131232 6.16797e-06
0.000131232 8.08171e-05 1.48106e-06
6.16797e-06 1.48106e-06 -5.94678e-05
0.00124937 0.000172995 6.3588e-06
0.000172995 7.02217e-05 2.0981e-06
6.3588e-06 2.0981e-06 -8.1449e-05
0.001511 0.000181955 3.10148e-06
0.000181955 0.000116478 6.04071e-07
3.10148e-06 6.04071e-07 -3.87088e-05
0.00112298 0.000145031 2.54936e-06
0.000145031 0.000249807 2.75318e-06
2.54936e-06 2.75318e-06 0.000108373
0.00122992 0.000197531 -2.42117e-07
0.000197531 6.23879e-05 2.90659e-06
-2.42117e-07 2.90659e-06 -0.000103325
0.000988744 0.000180368 -9.63451e-07
0.000180368 0.000120244 -1.45886e-06
-9.63451e-07 -1.45886e-06 -6.27593e-05
0.00115011 0.000204468 6.45693e-09
0.000204468 7.75526e-05 3.081e-07
6.45693e-09 3.081e-07 -9.56726e-05
0.000702297 -2.44049e-05 1.50466e-06
-2.44049e-05 5.95697e-06 1.86974e-06
1.50466e-06 1.86974e-06 -3.38179e-05
0.000640983 -4.16611e-05 1.06377e-06
-4.16611e-05 -2.38151e-05 3.80571e-06
1.06377e-06 3.80571e-06 -3.6974e-05
0.00220491 -7.46368e-05 2.90738e-05
-7.46368e-05 0.000888597 3.24934e-06
2.90738e-05 3.24934e-06 0.000898754
0.00223016 -8.36831e-05 1.87971e-06
-8.36831e-05 0.000911138 -1.72562e-07
1.87971e-06 -1.72562e-07 0.000918814
0.0022728 -9.30204e-05 -3.50622e-05
-9.30204e-05 0.000943849 -2.69197e-06
-3.50622e-05 -2.69197e-06 0.000948716
0.000556272 5.00062e-05 1.15826e-06
5.00062e-05 -4.71038e-05 -5.60071e-06
1.15826e-06 -5.60071e-06 -7.80316e-05
0.00291503 0.000109589 5.46328e-05
0.000109589 0.00130677 -2.84524e-06
5.46328e-05 -2.84524e-06 0.00130701
0.000566006 4.41104e-05 -2.68974e-07
4.41104e-05 -3.79094e-05 1.09907e-07
-2.68974e-07 1.09907e-07 -7.35751e-05
0.00318382 0.000113739 -2.13001e-06
0.000113739 0.0014611 -2.54817e-07
-2.13001e-06 -2.54817e-07 0.00146011
0.000683453 7.34323e-05 -1.68431e-05
7.34323e-05 -7.3988e-05 -5.57743e-06
-1.68431e-05 -5.57743e-06 -0.000141244
0.000678746 3.04627e-05 -1.67337e-05
3.04627e-05 -8.46973e-05 -3.18275e-06
-1.67337e-05 -3.18275e-06 -0.000149843
0.00111541 7.05804e-05 -1.10648e-05
7.05804e-05 1.04216e-05 -2.69128e-06
-1.10648e-05 -2.69128e-06 -0.000103409
0.00112424 3.35774e-05 -1.15737e-05
3.35774e-05 5.10294e-06 -1.59065e-06
-1.15737e-05 -1.59065e-06 -0.000105347
0.000689978 -2.54791e-06 -1.7272e-05
-2.54791e-06 -8.64395e-05 -9.74584e-07
-1.7272e-05 -9.74584e-07 -0.000149241
0.0052308 -9.67095e-05 -0.000175944
-9.67095e-05 0.00260612 2.07557e-06
-0.000175944 2.07557e-06 0.00260351
0.000678745 -1.02768e-06 1.12046e-07
-1.02768e-06 -9.35409e-05 -3.21357e-07
1.12046e-07 -3.21357e-07 -0.000156462
0.00112609 1.64524e-05 -1.94807e-10
1.64524e-05 2.41604e-06 -1.39479e-07
-1.94807e-10 -1.39479e-07 -0.000107299
0.00111994 4.86474e-05 -1.63146e-08
4.86474e-05 7.97787e-06 -1.04745e-07
-1.63146e-08 -1.04745e-07 -0.000103542
0.00139651 3.73024e-05 -4.10871e-08
3.73024e-05 6.10151e-05 -3.582e-08
-4.10871e-08 -3.582e-08 -6.32634e-05
0.00110627 8.67572e-05 -3.44969e-08
8.67572e-05 1.02046e-05 -1.96917e-07
-3.44969e-08 -1.96917e-07 -0.000105625
0.00138789 8.34048e-05 -4.62152e-08
8.34048e-05 7.31383e-05 -5.10424e-08
-4.62152e-08 -5.10424e-08 -5.78146e-05
0.00113017 -3.46075e-07 1.13567e-05
-3.46075e-07 4.02664e-06 -2.15469e-07
1.13567e-05 -2.15469e-07 -0.000105335
0.00140855 2.25514e-05 4.07421e-06
2.25514e-05 6.05814e-05 3.0043e-07
4.07421e-06 3.0043e-07 -6.22953e-05
0.00140442 6.06654e-05 4.39565e-06
6.06654e-05 7.41523e-05 5.82081e-07
4.39565e-06 5.82081e-07 -5.29014e-05
0.00158903 5.18434e-05 -1.5341e-07
5.18434e-05 7.98915e-05 -1.73718e-07
-1.5341e-07 -1.73718e-07 -3.81394e-05
0.00139752 0.000106132 4.62884e-06
0.000106132 8.33028e-05 9.42776e-07
4.62884e-06 9.42776e-07 -5.18108e-05
0.00154923 9.70143e-05 -6.4072e-08
9.70143e-05 8.69871e-05 -5.03222e-07
-6.4072e-08 -5.03222e-07 -4.09546e-05
0.000665949 9.81746e-06 -1.6408e-05
9.81746e-06 -9.74552e-05 8.03376e-07
-1.6408e-05 8.03376e-07 -0.000161035
0.00160193 -1.47595e-05 -7.87766e-05
-1.47595e-05 0.000440539 3.02368e-06
-7.87766e-05 3.02368e-06 0.000387175
0.000737631 -1.47612e-05 -1.23938e-05
-1.47612e-05 -0.000208442 1.64982e-06
-1.23938e-05 1.64982e-06 -0.000318979
0.00204007 -8.43505e-05 -1.96945e-05
-8.43505e-05 0.00053835 3.11985e-06
-1.96945e-05 3.11985e-06 0.000436214
0.00343666 0.000111902 -9.27684e-05
0.000111902 0.00160908 3.41557e-06
-9.27684e-05 3.41557e-06 0.0016066
0.00207371 -2.74459e-05 -5.29773e-05
-2.74459e-05 0.000806032 6.58387e-06
-5.29773e-05 6.58387e-06 0.000760854
0.00192077 -0.000182811 -1.2255e-05
-0.000182811 0.000654129 5.71684e-06
-1.2255e-05 5.71684e-06 0.000531726
0.0015658 -0.00011815 -1.96007e-05
-0.00011815 0.000292855 4.93875e-06
-1.96007e-05 4.93875e-06 0.000184461
0.00116501 -9.87886e-05 -6.65036e-06
-9.87886e-05 -3.48228e-05 1.59019e-06
-6.65036e-06 1.59019e-06 -0.000164169
0.00177897 -0.000167277 -6.99465e-06
-0.000167277 0.000348028 1.94184e-06
-6.99465e-06 1.94184e-06 0.00021376
0.00064278 -0.000145501 -6.15062e-06
-0.000145501 -0.000216313 5.8427e-07
-6.15062e-06 5.8427e-07 -0.000369849
0.00146961 -0.000185528 -2.72011e-06
-0.000185528 0.000135349 -1.72525e-07
-2.72011e-06 -1.72525e-07 -1.61863e-05
0.000594827 2.21487e-05 -4.95196e-06
2.21487e-05 -2.28727e-05 6.96018e-06
-4.95196e-06 6.96018e-06 -6.30288e-05
0.000685416 -1.78958e-05 -2.22389e-06
-1.78958e-05 1.58699e-05 2.95354e-06
-2.22389e-06 2.95354e-06 -6.79541e-05
0.000934489 -5.39772e-06 -4.52251e-07
-5.39772e-06 -0.000103907 -1.79761e-07
-4.52251e-07 -1.79761e-07 -0.000214089
0.00161048 -4.75371e-05 -4.15327e-06
-4.75371e-05 0.00028883 4.01568e-07
-4.15327e-06 4.01568e-07 0.000184986
0.00172435 -2.67821e-05 -2.38586e-06
-2.67821e-05 0.000251951 3.28688e-07
-2.38586e-06 3.28688e-07 0.000133066
0.00152509 -8.66461e-05 8.48678e-07
-8.66461e-05 0.000159964 -2.18073e-07
8.48678e-07 -2.18073e-07 3.41141e-05
0.00056615 4.83183e-06 1.55304e-07
4.83183e-06 -4.22267e-05 1.8302e-07
1.55304e-07 1.8302e-07 -8.66036e-05
0.000833829 -0.000106399 -7.08438e-08
-0.000106399 8.68667e-05 3.54197e-07
-7.08438e-08 3.54197e-07 -2.41261e-05
0.00077015 -0.00015723 1.3993e-06
-0.00015723 -4.68881e-05 -1.69769e-06
1.3993e-06 -1.69769e-06 -0.000205971
0.00172291 -0.00014508 -1.58935e-06
-0.00014508 0.00029609 3.7456e-07
-1.58935e-06 3.7456e-07 0.000165093
0.00159522 -0.000118341 -4.69359e-07
-0.000118341 0.00014266 3.72257e-07
-4.69359e-07 3.72257e-07 1.51349e-05
0.0015956 -0.000219759 -1.67249e-06
-0.000219759 0.000248181 4.61327e-07
-1.67249e-06 4.61327e-07 7.77727e-05
0.00143994 -0.000162416 2.95399e-07
-0.000162416 9.89339e-05 -3.74592e-09
2.95399e-07 -3.74592e-09 -4.25505e-05
0.00162417 -0.00019929 4.4209e-07
-0.00019929 0.000177082 3.7976e-07
4.4209e-07 3.7976e-07 2.58293e-05
0.000733382 -4.38556e-05 -3.2022e-07
-4.38556e-05 4.55991e-05 -1.88646e-07
-3.2022e-07 -1.88646e-07 -4.92831e-05
0.000725261 -4.59413e-05 -6.45783e-07
-4.59413e-05 3.6803e-05 -4.47182e-07
-6.45783e-07 -4.47182e-07 -7.42587e-05
0.000677701 4.59411e-06 3.9223e-07
4.59411e-06 1.194e-05 2.4026e-07
3.9223e-07 2.4026e-07 -6.06337e-05
0.00176129 -8.73896e-06 2.77024e-06
-8.73896e-06 0.000265475 -2.59223e-07
2.77024e-06 -2.59223e-07 0.000146128
0.00167087 -5.42618e-05 3.41965e-06
-5.42618e-05 0.000226607 -1.82373e-07
3.41965e-06 -1.82373e-07 0.000105599
0.00166994 -3.55472e-05 -2.12184e-07
-3.55472e-05 0.00013544 5.27971e-07
-2.12184e-07 5.27971e-07 1.82098e-05
0.00154704 -9.53595e-05 -5.65096e-07
-9.53595e-05 9.8966e-05 3.54369e-07
-5.65096e-07 3.54369e-07 -2.64945e-05
0.00141347 -0.000140124 1.88975e-06
-0.000140124 6.09237e-05 2.87747e-07
1.88975e-06 2.87747e-07 -7.247e-05
0.0016616 -0.000132004 -2.73158e-06
-0.000132004 0.000115614 1.32237e-06
-2.73158e-06 1.32237e-06 5.00445e-07
0.000707676 -6.89256e-05 3.10916e-06
-6.89256e-05 3.16783e-05 -2.2394e-06
3.10916e-06 -2.2394e-06 -6.99911e-05
0.00153264 -0.000181968 -7.07423e-07
-0.000181968 9.87917e-05 1.36489e-06
-7.07423e-07 1.36489e-06 -3.97549e-05
0.0008966 -0.000152525 1.62501e-06
-0.000152525 9.73685e-05 -1.89088e-06
1.62501e-06 -1.89088e-06 -4.62364e-05
0.000924057 -0.000191042 4.90194e-06
-0.000191042 -2.549e-05 -4.29798e-06
4.90194e-06 -4.29798e-06 -0.000213999
0.00189685 -0.000243791 2.74485e-06
-0.000243791 0.000372587 2.03094e-06
2.74485e-06 2.03094e-06 0.000196717
0.00183022 -0.000227134 -3.16401e-06
-0.000227134 0.000242685 3.35532e-06
-3.16401e-06 3.35532e-06 9.73756e-05
0.000660629 3.51556e-06 1.53164e-06
3.51556e-06 4.62084e-07 -2.64543e-06
1.53164e-06 -2.64543e-06 -6.36366e-05
0.000812553 -9.43857e-05 1.8535e-06
-9.43857e-05 7.61606e-05 6.23389e-07
1.8535e-06 6.23389e-07 -3.91356e-05
0.000648445 -2.6529e-05 1.0836e-06
-2.6529e-05 7.62767e-06 -1.74666e-06
1.0836e-06 -1.74666e-06 -0.000101511
0.00106102 -0.000144886 9.91544e-08
-0.000144886 0.000226761 1.62032e-06
9.91544e-08 1.62032e-06 9.54486e-05
0.00108745 0.000108283 -1.18173e-05
0.000108283 8.21336e-06 -4.14958e-06
-1.18173e-05 -4.14958e-06 -0.000110627
0.000568169 -5.92304e-05 -1.08307e-06
-5.92304e-05 -3.58033e-05 -4.22841e-06
-1.08307e-06 -4.22841e-06 -5.93324e-05
0.000486164 -6.64347e-05 1.90058e-06
-6.64347e-05 -6.72506e-05 -7.22055e-06
1.90058e-06 -7.22055e-06 -0.000108059
0.000652803 -5.80557e-05 1.50772e-06
-5.80557e-05 1.40661e-05 -3.48576e-06
1.50772e-06 -3.48576e-06 -5.86965e-05
0.00102179 0.000140317 -1.00539e-05
0.000140317 2.21105e-05 -5.22288e-06
-1.00539e-05 -5.22288e-06 -0.000102857
0.00131499 0.000156651 -6.06222e-06
0.000156651 7.03727e-05 -1.7216e-06
-6.06222e-06 -1.7216e-06 -7.61911e-05
0.000694256 7.34017e-05 -2.93506e-06
7.34017e-05 2.55844e-05 -3.06629e-06
-2.93506e-06 -3.06629e-06 -7.9842e-05
0.000983149 0.000161349 -3.38624e-06
0.000161349 0.000129599 -3.22987e-06
-3.38624e-06 -3.22987e-06 -2.66444e-05
0.00138013 0.000192016 -4.53075e-06
0.000192016 0.000198539 -1.85582e-06
-4.53075e-06 -1.85582e-06 4.12757e-05
0.00106102 0.000193388 -1.27454e-06
0.000193388 7.70569e-05 -1.03702e-06
-1.27454e-06 -1.03702e-06 -9.14359e-05
0.000617464 -5.3474e-05 9.8951e-09
-5.3474e-05 -1.93588e-05 4.02341e-08
9.8951e-09 4.02341e-08 -3.81699e-05
0.000736477 4.05199e-05 4.15062e-07
4.05199e-05 5.80894e-05 -1.4925e-07
4.15062e-07 -1.4925e-07 -3.4657e-05
0.000649736 -5.37404e-05 -7.87446e-07
-5.37404e-05 5.2408e-06 5.5267e-07
-7.87446e-07 5.5267e-07 -5.23234e-05
0.000793437 2.29974e-05 6.01607e-07
2.29974e-05 9.98681e-05 -2.75868e-07
6.01607e-07 -2.75868e-07 -7.75854e-06
0.00135693 0.000130838 8.53327e-07
0.000130838 7.28442e-05 8.45059e-08
8.53327e-07 8.45059e-08 -6.75761e-05
0.00128164 0.000176302 1.70385e-07
0.000176302 8.86103e-05 3.17164e-08
1.70385e-07 3.17164e-08 -6.37502e-05
0.00151185 0.000181147 3.64592e-07
0.000181147 0.000119524 2.04487e-07
3.64592e-07 2.04487e-07 -3.56796e-05
0.000985745 0.000137557 2.58969e-07
0.000137557 0.000172992 6.18966e-07
2.58969e-07 6.18966e-07 3.33009e-05
0.00153978 0.000215994 -1.42037e-06
0.000215994 0.000237166 -9.14825e-07
-1.42037e-06 -9.14825e-07 6.99621e-05
0.00113617 0.000192652 1.05876e-07
0.000192652 0.000203127 -1.28443e-06
1.05876e-07 -1.28443e-06 1.71594e-05
0.00108879 0.00020018 -2.22202e-06
0.00020018 5.04047e-05 -1.11222e-06
-2.22202e-06 -1.11222e-06 -0.000115237
0.000638409 -4.8285e-05 1.24589e-06
-4.8285e-05 -1.73655e-05 3.82522e-06
1.24589e-06 3.82522e-06 -3.2966e-05
0.000691053 -3.90291e-05 9.73303e-07
-3.90291e-05 1.68884e-05 2.10942e-06
9.73303e-07 2.10942e-06 -3.01996e-05
0.000979236 8.94482e-05 2.27989e-06
8.94482e-05 0.000189769 1.52882e-06
2.27989e-06 1.52882e-06 6.61254e-05
0.000786934 2.9365e-05 -1.69682e-07
2.9365e-05 9.25014e-05 1.81356e-06
-1.69682e-07 1.81356e-06 1.23831e-06
0.000898278 0.00010452 4.95126e-07
0.00010452 0.000168732 3.38365e-07
4.95126e-07 3.38365e-07 3.97573e-05
0.00152311 0.000151124 2.2302e-06
0.000151124 0.000103326 -2.98114e-07
2.2302e-06 -2.98114e-07 -4.17655e-05
0.00142591 0.000198047 3.02061e-06
0.000198047 0.00010544 1.59877e-06
3.02061e-06 1.59877e-06 -5.64157e-05
0.00167195 0.000213165 -1.69004e-07
0.000213165 0.00016761 -3.79216e-07
-1.69004e-07 -3.79216e-07 1.17325e-05
0.00114579 0.000181982 3.95933e-06
0.000181982 0.000263404 4.02019e-06
3.95933e-06 4.02019e-06 8.42469e-05
0.00142916 0.000225626 2.72302e-06
0.000225626 0.000137493 3.7679e-06
2.72302e-06 3.7679e-06 -3.27922e-05
0.000314513 0.000148513 2.86134e-06
0.000148513 -0.000322253 -2.65198e-06
2.86134e-06 -2.65198e-06 -0.000513462
0.000696379 -2.74442e-05 1.94433e-06
-2.74442e-05 5.88233e-06 1.78375e-06
1.94433e-06 1.78375e-06 -3.47698e-05
0.000737267 2.02651e-05 4.39647e-07
2.02651e-05 4.61618e-05 7.41305e-07
4.39647e-07 7.41305e-07 -1.81138e-05
0.000719494 -1.47134e-05 1.17706e-06
-1.47134e-05 1.31737e-05 1.90899e-06
1.17706e-06 1.90899e-06 -2.5936e-05
0.00070612 -2.67156e-05 -3.16692e-08
-2.67156e-05 8.74351e-06 -9.79971e-09
-3.16692e-08 -9.79971e-09 -3.12789e-05
0.00126401 -4.65749e-05 1.33406e-06
-4.65749e-05 0.0003259 2.31549e-06
1.33406e-06 2.31549e-06 0.000317897
0.00095831 -4.67896e-05 7.73187e-07
-4.67896e-05 0.000157596 -5.17742e-08
7.73187e-07 -5.17742e-08 0.000146083
0.000928128 -4.08769e-05 2.42091e-05
-4.08769e-05 0.000148427 6.63915e-06
2.42091e-05 6.63915e-06 0.000154988
0.00218123 -7.35856e-05 1.86393e-06
-7.35856e-05 0.000874001 -1.58978e-07
1.86393e-06 -1.58978e-07 0.000884467
0.00219022 -8.2254e-05 -3.14101e-05
-8.2254e-05 0.000887404 -3.0533e-06
-3.14101e-05 -3.0533e-06 0.000895477
0.000568727 5.07096e-05 8.30311e-07
5.07096e-05 -4.64042e-05 -4.99711e-06
8.30311e-07 -4.99711e-06 -7.32999e-05
0.00273224 9.9461e-05 4.49836e-05
9.9461e-05 0.00119876 -3.15617e-06
4.49836e-05 -3.15617e-06 0.00120141
0.000581841 4.81771e-05 -2.33908e-07
4.81771e-05 -3.27353e-05 8.43046e-08
-2.33908e-07 8.43046e-08 -6.37238e-05
0.00297998 0.000106783 -2.89294e-06
0.000106783 0.00134229 -2.3301e-07
-2.89294e-06 -2.3301e-07 0.00134328
0.000595508 4.06301e-05 -2.21936e-06
4.06301e-05 -2.18567e-05 6.54967e-06
-2.21936e-06 6.54967e-06 -5.75209e-05
0.00323774 0.000107009 -8.1494e-05
0.000107009 0.00149027 3.14346e-06
-8.1494e-05 3.14346e-06 0.00149057
0.00110993 8.94879e-05 -1.13767e-05
8.94879e-05 1.27236e-05 -3.44121e-06
-1.13767e-05 -3.44121e-06 -0.000103642
0.00112703 5.26244e-05 -1.12915e-05
5.26244e-05 1.23555e-05 -2.13506e-06
-1.12915e-05 -2.13506e-06 -9.95165e-05
0.00136694 8.17645e-05 -4.6022e-06
8.17645e-05 6.15802e-05 -8.40469e-07
-4.6022e-06 -8.40469e-07 -6.95107e-05
0.00139043 3.69493e-05 -4.48934e-06
3.69493e-05 5.89709e-05 -4.58117e-07
-4.48934e-06 -4.58117e-07 -6.53755e-05
0.00112974 1.96718e-05 -1.15563e-05
1.96718e-05 4.72667e-06 -8.92438e-07
-1.15563e-05 -8.92438e-07 -0.000105102
0.000660701 1.63718e-05 -1.6941e-05
1.63718e-05 -0.000102856 -1.54484e-07
-1.6941e-05 -1.54484e-07 -0.000166014
0.00112513 1.8865e-06 2.3465e-08
1.8865e-06 1.21885e-06 -1.42834e-07
2.3465e-08 -1.42834e-07 -0.00010818
0.00140134 2.41909e-05 -8.47691e-08
2.41909e-05 5.7303e-05 7.56864e-10
-8.47691e-08 7.56864e-10 -6.56504e-05
0.00138789 5.78816e-05 3.93752e-09
5.78816e-05 6.65028e-05 -4.47287e-08
3.93752e-09 -4.47287e-08 -6.05279e-05
0.00163246 5.30845e-05 -1.17893e-07
5.30845e-05 0.000101285 1.90833e-07
-1.17893e-07 1.90833e-07 -1.53331e-05
0.00137758 0.000105899 -1.59061e-07
0.000105899 7.23963e-05 -9.87607e-08
-1.59061e-07 -9.87607e-08 -6.29103e-05
0.00155695 9.58699e-05 -1.0869e-07
9.58699e-05 9.55729e-05 6.12734e-08
-1.0869e-07 6.12734e-08 -3.24141e-05
0.00140331 6.4121e-06 4.28783e-06
6.4121e-06 5.76015e-05 -2.72894e-08
4.28783e-06 -2.72894e-08 -6.48581e-05
0.0016527 3.5048e-05 -6.72692e-07
3.5048e-05 9.83166e-05 3.67478e-07
-6.72692e-07 3.67478e-07 -1.55884e-05
0.00155898 7.88029e-05 -1.64048e-07
7.88029e-05 7.66985e-05 -4.49463e-07
-1.64048e-07 -4.49463e-07 -4.58508e-05
0.00173682 6.47238e-05 -1.19701e-06
6.47238e-05 9.52662e-05 2.01387e-07
-1.19701e-06 2.01387e-07 -8.15292e-06
0.00154678 0.000116143 1.42507e-07
0.000116143 0.000101872 -6.39508e-07
1.42507e-07 -6.39508e-07 -3.28968e-05
0.001675 0.000115621 -3.2155e-06
0.000115621 9.14272e-05 -7.89876e-07
-3.2155e-06 -7.89876e-07 -1.68794e-05
0.000752622 -2.83369e-06 -1.11685e-05
-2.83369e-06 -0.000205446 6.1574e-07
-1.11685e-05 6.1574e-07 -0.000316865
0.00163791 -5.02689e-05 -1.93769e-05
-5.02689e-05 0.000303233 2.33657e-06
-1.93769e-05 2.33657e-06 0.000199357
0.00168787 -2.02036e-05 -7.44479e-06
-2.02036e-05 0.000228788 6.96282e-07
-7.44479e-06 6.96282e-07 0.000110455
0.00180163 -9.18068e-05 -5.20723e-06
-9.18068e-05 0.000315163 8.97798e-07
-5.20723e-06 8.97798e-07 0.000190789
0.000656973 -5.69627e-06 -7.10038e-06
-5.69627e-06 7.88723e-06 7.56789e-06
-7.10038e-06 7.56789e-06 -3.77089e-05
0.000935134 -0.000119326 -5.25586e-06
-0.000119326 0.000143964 4.14867e-06
-5.25586e-06 4.14867e-06 3.0812e-05
0.00101218 -0.000173394 -2.21648e-06
-0.000173394 9.32722e-05 1.29178e-06
-2.21648e-06 1.29178e-06 -6.61265e-05
0.00180034 -0.000146013 -7.71649e-06
-0.000146013 0.000339308 2.04856e-06
-7.71649e-06 2.04856e-06 0.000208459
0.0015259 -0.000115115 -8.75903e-07
-0.000115115 9.89851e-05 -2.05807e-08
-8.75903e-07 -2.05807e-08 -2.71385e-05
0.00146511 -0.000163713 -2.23906e-06
-0.000163713 0.000111118 1.74821e-07
-2.23906e-06 1.74821e-07 -3.02611e-05
0.00125956 -0.000198631 -5.13981e-06
-0.000198631 5.5603e-05 -8.21147e-08
-5.13981e-06 -8.21147e-08 -0.000113425
0.0016151 -0.000199883 1.23486e-06
-0.000199883 0.000168538 -1.75986e-06
1.23486e-06 -1.75986e-06 1.71539e-05
0.000713415 -4.73954e-05 -3.32424e-06
-4.73954e-05 3.21392e-05 2.56806e-06
-3.32424e-06 2.56806e-06 -6.20744e-05
0.000661731 -3.71096e-05 -2.10068e-06
-3.71096e-05 1.97071e-06 -2.34173e-07
-2.10068e-06 -2.34173e-07 -0.00010851
0.000695411 -2.39048e-06 -1.34241e-06
-2.39048e-06 2.04751e-05 3.08197e-06
-1.34241e-06 3.08197e-06 -5.22549e-05
0.00159 -7.15571e-06 -2.37351e-06
-7.15571e-06 0.000167327 1.50427e-07
-2.37351e-06 1.50427e-07 4.65253e-05
0.00167317 -6.00421e-05 -1.77243e-06
-6.00421e-05 0.000228052 3.19352e-07
-1.77243e-06 3.19352e-07 0.000106651
0.00162636 -3.17622e-05 -2.75388e-07
-3.17622e-05 0.000109291 2.53115e-07
-2.75388e-07 2.53115e-07 -6.26097e-06
0.00161115 -9.40893e-05 -7.16755e-07
-9.40893e-05 0.000130478 8.11059e-08
-7.16755e-07 8.11059e-08 5.36518e-06
0.000769277 -7.93652e-05 1.45718e-07
-7.93652e-05 6.54514e-05 -3.64506e-08
1.45718e-07 -3.64506e-08 -3.73029e-05
0.00101476 -0.000162184 -4.09647e-07
-0.000162184 0.000160292 8.19987e-07
-4.09647e-07 8.19987e-07 1.52008e-05
0.000963638 -0.00018983 6.90942e-07
-0.00018983 8.5738e-06 -1.72334e-06
6.90942e-07 -1.72334e-06 -0.000177346
0.00154993 -0.00014599 -2.21746e-08
-0.00014599 0.000137198 3.8536e-08
-2.21746e-08 3.8536e-08 2.72211e-06
0.00167849 -0.000131734 8.04085e-07
-0.000131734 0.00012641 3.1353e-07
8.04085e-07 3.1353e-07 1.43545e-05
0.00170118 -0.000232454 -3.56293e-07
-0.000232454 0.000258168 4.1932e-07
-3.56293e-07 4.1932e-07 8.23696e-05
0.00155311 -0.000181905 2.03531e-07
-0.000181905 0.000109791 2.35513e-07
2.03531e-07 2.35513e-07 -2.82869e-05
0.00186977 -0.000228927 9.19688e-07
-0.000228927 0.000266921 -2.59714e-07
9.19688e-07 -2.59714e-07 0.000123012
0.0009164 -0.000106844 -1.34823e-09
-0.000106844 0.00013725 1.14704e-07
-1.34823e-09 1.14704e-07 1.91577e-05
0.00100593 -0.000143498 -3.44194e-07
-0.000143498 0.000197674 3.63059e-07
-3.44194e-07 3.63059e-07 6.47441e-05
0.000686806 -2.56638e-06 1.73935e-07
-2.56638e-06 1.47882e-05 1.73594e-07
1.73935e-07 1.73594e-07 -4.96731e-05
0.000583225 -2.95128e-06 -1.39993e-07
-2.95128e-06 -3.3267e-05 -7.27701e-07
-1.39993e-07 -7.27701e-07 -0.000136886
0.00161759 -1.90685e-05 2.7487e-07
-1.90685e-05 9.50448e-05 -2.07281e-08
2.7487e-07 -2.07281e-08 -2.12778e-05
0.00181728 -6.29368e-05 -5.97104e-08
-6.29368e-05 0.00022353 6.56588e-07
-5.97104e-08 6.56588e-07 0.000105249
0.00165377 -4.87453e-05 2.73534e-07
-4.87453e-05 5.05368e-05 1.39503e-07
2.73534e-07 1.39503e-07 -5.641e-05
0.00170157 -0.000118509 -3.84186e-06
-0.000118509 0.000107392 6.03617e-07
-3.84186e-06 6.03617e-07 3.73078e-06
0.00167883 -0.000159364 -2.69231e-06
-0.000159364 0.000148035 2.02214e-06
-2.69231e-06 2.02214e-06 2.50041e-05
0.00173092 -0.000136123 -3.4935e-07
-0.000136123 0.000109593 2.82876e-07
-3.4935e-07 2.82876e-07 1.23524e-05
0.000845624 -0.000139337 1.40497e-06
-0.000139337 9.06763e-05 -2.02714e-08
1.40497e-06 -2.02714e-08 -3.58342e-05
0.00161883 -0.000201161 -4.51869e-06
-0.000201161 9.38121e-05 2.8558e-06
-4.51869e-06 2.8558e-06 -2.91855e-05
0.000408959 -0.000135809 -1.76093e-07
-0.000135809 -0.000191161 -4.68368e-06
-1.76093e-07 -4.68368e-06 -0.000358594
0.00207335 -0.000284292 4.34177e-06
-0.000284292 0.000549432 -1.84273e-06
4.34177e-06 -1.84273e-06 0.000340561
0.00172891 -0.000244987 8.68222e-07
-0.000244987 0.000223297 4.52839e-06
8.68222e-07 4.52839e-06 4.77372e-05
0.00186009 -0.000233541 -6.97618e-07
-0.000233541 0.000228123 1.5129e-06
-6.97618e-07 1.5129e-06 8.77725e-05
0.000676012 -6.20541e-06 1.9913e-06
-6.20541e-06 7.11642e-06 -2.51981e-06
1.9913e-06 -2.51981e-06 -5.16748e-05
0.00059444 -9.61154e-06 2.39541e-07
-9.61154e-06 -1.47838e-05 -1.7961e-06
2.39541e-07 -1.7961e-06 -0.00011663
0.00088721 -0.0001525 6.02403e-07
-0.0001525 0.0001219 1.95123e-06
6.02403e-07 1.95123e-06 -1.14419e-05
0.000889079 -0.00010739 1.96617e-06
-0.00010739 0.000144903 -9.20729e-08
1.96617e-06 -9.20729e-08 1.75959e-05
0.00106267 -0.000168083 -4.41048e-07
-0.000168083 0.000223014 3.45801e-06
-4.41048e-07 3.45801e-06 8.53284e-05
0.000596076 -5.15749e-05 -1.50111e-06
-5.15749e-05 -3.18758e-05 -3.88798e-06
-1.50111e-06 -3.88798e-06 -5.0317e-05
0.00133487 0.000130222 -4.48344e-06
0.000130222 6.21366e-05 -1.34804e-06
-4.48344e-06 -1.34804e-06 -7.84257e-05
0.000625644 -7.09467e-05 9.19203e-08
-7.09467e-05 -3.39828e-06 -2.20637e-06
9.19203e-08 -2.20637e-06 -6.36326e-05
0.000729431 2.28647e-05 -5.65725e-07
2.28647e-05 5.15345e-05 -3.47229e-06
-5.65725e-07 -3.47229e-06 -3.79082e-05
0.000747326 -3.76494e-06 1.48854e-06
-3.76494e-06 7.20789e-05 -1.46378e-06
1.48854e-06 -1.46378e-06 -3.21882e-05
0.00129079 0.000178151 -6.09962e-06
0.000178151 9.43331e-05 -2.06132e-06
-6.09962e-06 -2.06132e-06 -5.85838e-05
0.0015026 0.000179843 -2.07226e-06
0.000179843 0.000117161 -1.9472e-07
-2.07226e-06 -1.9472e-07 -3.80441e-05
0.000924846 0.000144703 -2.15485e-06
0.000144703 0.000141214 -1.75156e-06
-2.15485e-06 -1.75156e-06 4.67383e-07
0.00133118 0.000208944 -2.40174e-06
0.000208944 0.000311744 -1.99397e-06
-2.40174e-06 -1.99397e-06 0.000121988
0.0018613 0.000234922 -3.56809e-06
0.000234922 0.00041781 -2.2228e-06
-3.56809e-06 -2.2228e-06 0.000249222
0.00105025 0.000197631 -4.55421e-06
0.000197631 3.55717e-05 -1.48938e-06
-4.55421e-06 -1.48938e-06 -0.000122689
0.000624913 -4.68416e-05 5.90214e-08
-4.68416e-05 -2.51933e-05 1.00939e-09
5.90214e-08 1.00939e-09 -4.05986e-05
0.000679628 -4.75717e-05 -5.8751e-07
-4.75717e-05 1.20962e-05 1.9108e-07
-5.8751e-07 1.9108e-07 -3.59445e-05
0.000922244 9.17898e-05 7.70844e-07
9.17898e-05 0.00015735 -1.71889e-08
7.70844e-07 -1.71889e-08 3.43609e-05
0.000739009 -1.68256e-05 -4.06899e-07
-1.68256e-05 6.47365e-05 2.2878e-07
-4.06899e-07 2.2878e-07 -2.37056e-05
0.000752541 6.99985e-05 1.00199e-06
6.99985e-05 8.24348e-05 -3.66529e-07
1.00199e-06 -3.66529e-07 -4.33294e-05
0.00153041 0.00015238 8.92992e-07
0.00015238 0.000105709 -1.35855e-07
8.92992e-07 -1.35855e-07 -3.98613e-05
0.00145422 0.000199802 4.26433e-07
0.000199802 0.000124192 5.32514e-07
4.26433e-07 5.32514e-07 -3.80099e-05
0.00163456 0.000213504 1.33131e-06
0.000213504 0.000146005 3.49689e-07
1.33131e-06 3.49689e-07 -1.07721e-05
0.00106093 0.000174681 1.2586e-06
0.000174681 0.000219773 1.19335e-06
1.2586e-06 1.19335e-06 4.17291e-05
0.00158604 0.000233691 2.01413e-06
0.000233691 0.000229617 -7.77787e-07
2.01413e-06 -7.77787e-07 5.98067e-05
0.000831841 0.000186688 -2.69898e-06
0.000186688 -4.17582e-05 -1.83947e-06
-2.69898e-06 -1.83947e-06 -0.000236336
0.000705055 -3.34579e-05 1.79615e-06
-3.34579e-05 1.63408e-05 1.80766e-06
1.79615e-06 1.80766e-06 -2.63973e-05
0.000787135 1.90496e-05 3.29936e-07
1.90496e-05 8.10289e-05 1.47161e-06
3.29936e-07 1.47161e-06 7.01052e-06
0.00106146 0.000162689 -3.76109e-07
0.000162689 0.00024129 -1.7614e-07
-3.76109e-07 -1.7614e-07 8.89184e-05
0.000854691 2.7987e-05 1.21985e-07
2.7987e-05 0.000136683 1.1043e-06
1.21985e-07 1.1043e-06 3.05491e-05
0.00111385 8.64705e-05 -2.82406e-06
8.64705e-05 0.000275119 -3.60492e-06
-2.82406e-06 -3.60492e-06 0.000141401
0.00160566 0.000160738 -2.61849e-06
0.000160738 0.000100289 -2.77154e-06
-2.61849e-06 -2.77154e-06 -3.52682e-05
0.00154725 0.000228545 1.54684e-06
0.000228545 0.000135501 1.08672e-06
1.54684e-06 1.08672e-06 -3.14508e-05
0.0014738 0.000230382 -4.35761e-07
0.000230382 2.33191e-05 -1.58138e-06
-4.35761e-07 -1.58138e-06 -0.000121706
0.000965179 0.000175304 -4.95045e-07
0.000175304 0.000157919 1.69515e-06
-4.95045e-07 1.69515e-06 -5.13154e-05
0.00134614 0.000236913 3.80969e-06
0.000236913 0.000116815 -1.92823e-08
3.80969e-06 -1.92823e-08 -7.27958e-05
0.00070076 -3.00816e-05 2.1853e-09
-3.00816e-05 9.01889e-06 -1.32671e-08
2.1853e-09 -1.32671e-08 -3.19127e-05
0.000630263 -6.7709e-07 1.36344e-06
-6.7709e-07 -2.09346e-05 1.10933e-06
1.36344e-06 1.10933e-06 -8.24108e-05
0.000652539 -1.61545e-05 -5.90966e-07
-1.61545e-05 -4.07983e-06 -6.8831e-08
-5.90966e-07 -6.8831e-08 -6.68686e-05
0.000923724 4.67112e-05 9.17102e-07
4.67112e-05 0.000161653 -3.58396e-07
9.17102e-07 -3.58396e-07 8.47428e-05
0.000749595 3.69245e-05 1.62584e-06
3.69245e-05 5.18409e-05 8.82142e-07
1.62584e-06 8.82142e-07 -1.14983e-05
0.000711082 -1.69551e-06 1.17072e-06
-1.69551e-06 8.34109e-06 1.85158e-06
1.17072e-06 1.85158e-06 -3.08596e-05
0.000714699 -1.96575e-05 -2.27741e-07
-1.96575e-05 1.12506e-05 1.11263e-08
-2.27741e-07 1.11263e-08 -2.81249e-05
0.00126423 -3.72103e-05 8.79358e-07
-3.72103e-05 0.000319851 2.31843e-06
8.79358e-07 2.31843e-06 0.000313517
0.000712429 -2.87397e-05 -1.19676e-06
-2.87397e-05 1.29101e-05 -1.91216e-06
-1.19676e-06 -1.91216e-06 -2.73426e-05
0.00128607 -4.37793e-05 -4.80326e-06
-4.37793e-05 0.000337862 -1.27397e-06
-4.80326e-06 -1.27397e-06 0.00033026
0.000912552 -3.37525e-05 2.17207e-05
-3.37525e-05 0.000130696 6.86783e-06
2.17207e-05 6.86783e-06 0.000139581
0.00128284 -4.94872e-05 -9.8578e-06
-4.94872e-05 0.000343327 -3.41872e-06
-9.8578e-06 -3.41872e-06 0.000333874
0.0015196 -5.22044e-05 1.99044e-05
-5.22044e-05 0.000487057 1.96049e-06
1.99044e-05 1.96049e-06 0.000496781
0.00215826 -7.23907e-05 -2.79839e-05
-7.23907e-05 0.000859786 -3.42644e-06
-2.79839e-05 -3.42644e-06 0.00087059
0.000592506 4.26251e-05 1.08767e-06
4.26251e-05 -4.13893e-05 -4.59441e-06
1.08767e-06 -4.59441e-06 -6.37777e-05
0.000591907 4.8801e-05 -2.96901e-07
4.8801e-05 -3.32498e-05 5.12652e-08
-2.96901e-07 5.12652e-08 -6.01456e-05
0.0026057 8.89842e-05 3.76544e-05
8.89842e-05 0.00112119 -3.51358e-06
3.76544e-05 -3.51358e-06 0.00112631
0.00279756 9.86447e-05 -3.37719e-06
9.86447e-05 0.00123511 -2.39991e-07
-3.37719e-06 -2.39991e-07 0.00123807
0.000610652 4.60834e-05 -1.53712e-06
4.60834e-05 -1.65676e-05 5.84013e-06
-1.53712e-06 5.84013e-06 -4.76273e-05
0.00303641 0.000100851 -6.99388e-05
0.000100851 0.00137271 3.07431e-06
-6.99388e-05 3.07431e-06 0.00137507
0.00136039 0.000105912 -4.87933e-06
0.000105912 6.27888e-05 -1.13905e-06
-4.87933e-06 -1.13905e-06 -7.27327e-05
0.00137443 5.82891e-05 -4.59468e-06
5.82891e-05 6.0692e-05 -6.56389e-07
-4.59468e-06 -6.56389e-07 -6.65684e-05
0.00156076 9.5798e-05 -1.34846e-07
9.5798e-05 0.000102041 6.19087e-07
-1.34846e-07 6.19087e-07 -2.60911e-05
0.00167536 5.43391e-05 1.71393e-07
5.43391e-05 0.000122406 3.72467e-07
1.71393e-07 3.72467e-07 7.2075e-06
0.001397 2.72543e-05 -4.10457e-06
2.72543e-05 5.55149e-05 -2.74676e-07
-4.10457e-06 -2.74676e-07 -6.75507e-05
0.00113016 6.717e-06 -1.13006e-05
6.717e-06 3.75778e-06 -1.6197e-07
-1.13006e-05 -1.6197e-07 -0.000105609
0.00140512 9.99823e-06 7.53289e-08
9.99823e-06 5.84194e-05 -8.73471e-08
7.53289e-08 -8.73471e-08 -6.41182e-05
0.00166342 2.46795e-05 -6.56656e-07
2.46795e-05 0.000104219 2.4333e-08
-6.56656e-07 2.4333e-08 -9.54934e-06
0.0015815 7.77948e-05 -8.20888e-08
7.77948e-05 9.11395e-05 -7.85923e-09
-8.20888e-08 -7.85923e-09 -3.12628e-05
0.00178318 6.74032e-05 9.85059e-07
6.74032e-05 0.000119459 7.42179e-07
9.85059e-07 7.42179e-07 1.85918e-05
0.0015389 0.000117169 -1.75822e-07
0.000117169 9.61043e-05 -5.68227e-08
-1.75822e-07 -5.68227e-08 -3.91976e-05
0.00168017 0.000113557 -2.31861e-07
0.000113557 9.20866e-05 7.42048e-07
-2.31861e-07 7.42048e-07 -1.39933e-05
0.00165225 -1.51026e-06 1.82269e-07
-1.51026e-06 0.000105194 1.58055e-07
1.82269e-07 1.58055e-07 -8.94786e-06
0.0017035 4.25556e-05 -3.151e-08
4.25556e-05 6.6254e-05 8.80065e-07
-3.151e-08 8.80065e-07 -3.65613e-05
0.00178016 9.5949e-05 -3.70037e-06
9.5949e-05 0.000131028 -5.64747e-07
-3.70037e-06 -5.64747e-07 3.10972e-05
0.00181563 7.443e-05 1.01582e-07
7.443e-05 0.000125422 3.46913e-07
1.01582e-07 3.46913e-07 3.69391e-05
0.00157233 0.00011816 -2.06605e-06
0.00011816 5.26005e-05 -2.12848e-06
-2.06605e-06 -2.12848e-06 -6.45197e-05
0.00191308 0.000127729 3.0957e-07
0.000127729 0.000183182 -3.79396e-08
3.0957e-07 -3.79396e-08 9.26077e-05
0.00141544 -5.98686e-06 -6.16299e-06
-5.98686e-06 6.71713e-05 4.079e-07
-6.16299e-06 4.079e-07 -5.50871e-05
0.00167971 -6.27814e-05 -7.02019e-06
-6.27814e-05 0.000231778 8.0912e-07
-7.02019e-06 8.0912e-07 0.000110125
0.00157802 -2.96485e-05 -5.55176e-07
-2.96485e-05 8.04602e-05 -3.12022e-07
-5.55176e-07 -3.12022e-07 -3.34939e-05
0.00167252 -9.32631e-05 -1.00091e-06
-9.32631e-05 0.000160471 -3.59727e-08
-1.00091e-06 -3.59727e-08 3.56689e-05
0.000859096 -9.17557e-05 -4.0898e-06
-9.17557e-05 0.00011501 2.74144e-06
-4.0898e-06 2.74144e-06 1.0963e-05
0.00114651 -0.000172795 -2.42457e-06
-0.000172795 0.000231259 3.44384e-06
-2.42457e-06 3.44384e-06 8.44791e-05
0.000940551 -0.000183428 -2.52037e-06
-0.000183428 7.78056e-06 1.14099e-06
-2.52037e-06 1.14099e-06 -0.000175842
0.00168687 -0.000151835 -1.96229e-06
-0.000151835 0.000213667 2.20544e-07
-1.96229e-06 2.20544e-07 7.81033e-05
0.00169527 -0.000131427 3.35086e-06
-0.000131427 0.000137176 -1.3531e-06
3.35086e-06 -1.3531e-06 2.81924e-05
0.00156234 -0.000181254 1.47665e-06
-0.000181254 0.000115094 -9.01166e-07
1.47665e-06 -9.01166e-07 -2.24765e-05
0.00148738 -0.000220375 -2.79162e-06
-0.000220375 0.00013382 -7.62313e-07
-2.79162e-06 -7.62313e-07 -4.18548e-05
0.00188474 -0.000228937 4.37033e-06
-0.000228937 0.00027705 -5.16042e-06
4.37033e-06 -5.16042e-06 0.000134822
0.000941164 -0.000103975 -1.52389e-06
-0.000103975 0.00015155 -2.64586e-07
-1.52389e-06 -2.64586e-07 3.38698e-05
0.000867883 -0.000109573 -1.75446e-06
-0.000109573 0.000113276 -1.19155e-06
-1.75446e-06 -1.19155e-06 -1.31271e-05
0.000709567 -5.41796e-06 -1.63878e-06
-5.41796e-06 2.69021e-05 2.77549e-06
-1.63878e-06 2.77549e-06 -3.77359e-05
0.000554235 1.34154e-05 -2.02848e-07
1.34154e-05 -5.0972e-05 3.53716e-07
-2.02848e-07 3.53716e-07 -0.000151612
0.00161175 -1.88172e-05 -2.29884e-09
-1.88172e-05 9.1833e-05 -4.45534e-10
-2.29884e-09 -4.45534e-10 -2.4532e-05
0.00174569 -6.18629e-05 -4.9252e-07
-6.18629e-05 0.000182164 2.73523e-10
-4.9252e-07 2.73523e-10 6.2634e-05
0.00169531 -4.79716e-05 6.00703e-07
-4.79716e-05 7.62464e-05 -2.07813e-07
6.00703e-07 -2.07813e-07 -2.94295e-05
0.00165979 -0.0001166 -8.43168e-07
-0.0001166 9.08543e-05 3.53894e-07
-8.43168e-07 3.53894e-07 -1.47424e-05
0.000960548 -0.000135868 -3.69457e-07
-0.000135868 0.000152775 5.7444e-07
-3.69457e-07 5.7444e-07 2.69739e-05
0.000671453 -0.000152462 9.79435e-07
-0.000152462 -4.11078e-05 -1.58218e-06
9.79435e-07 -1.58218e-06 -0.000207345
0.00154276 -0.00024705 -8.29849e-07
-0.00024705 0.000257637 4.44089e-07
-8.29849e-07 4.44089e-07 5.0526e-05
0.00162068 -0.000157115 -1.13536e-06
-0.000157115 0.000119241 4.61047e-07
-1.13536e-06 4.61047e-07 -6.12231e-06
0.00168155 -0.000137236 1.80412e-06
-0.000137236 8.03702e-05 -8.98051e-07
1.80412e-06 -8.98051e-07 -1.44926e-05
0.00170894 -0.000243589 -1.20977e-06
-0.000243589 0.000210948 9.00871e-07
-1.20977e-06 9.00871e-07 3.51544e-05
0.00163991 -0.000201406 -2.3073e-07
-0.000201406 0.000107674 6.85235e-07
-2.3073e-07 6.85235e-07 -1.52731e-05
0.00174974 -0.000228813 2.51912e-06
-0.000228813 0.000162597 -3.5941e-06
2.51912e-06 -3.5941e-06 2.49711e-05
0.000992681 -0.000160784 2.83633e-07
-0.000160784 0.000180732 5.24543e-07
2.83633e-07 5.24543e-07 4.61359e-05
0.00106622 -0.000160415 8.83989e-07
-0.000160415 0.000220914 5.60898e-07
8.83989e-07 5.60898e-07 8.60638e-05
0.000856896 -7.71241e-05 -4.53673e-07
-7.71241e-05 0.000124028 -1.59116e-07
-4.53673e-07 -1.59116e-07 3.73291e-07
0.000549438 8.85284e-06 -6.60987e-07
8.85284e-06 -6.38613e-05 1.0163e-07
-6.60987e-07 1.0163e-07 -0.000124164
0.000567353 1.50349e-05 -1.39577e-08
1.50349e-05 -3.3653e-05 -5.31008e-07
-1.39577e-08 -5.31008e-07 -0.000131378
0.00181662 -3.14303e-05 5.48935e-07
-3.14303e-05 0.000133158 -1.9934e-07
5.48935e-07 -1.9934e-07 3.05602e-05
0.00175601 -6.98231e-05 -2.314e-07
-6.98231e-05 0.000104353 2.16225e-07
-2.314e-07 2.16225e-07 4.31675e-06
0.00181227 -0.000135825 -2.30505e-06
-0.000135825 0.000130694 -3.467e-07
-2.30505e-06 -3.467e-07 4.63794e-05
0.00155745 -0.000160055 -2.03179e-06
-0.000160055 2.45649e-05 1.22401e-06
-2.03179e-06 1.22401e-06 -7.66228e-05
0.000879725 -0.000156481 -6.02035e-07
-0.000156481 0.000111034 -3.35156e-08
-6.02035e-07 -3.35156e-08 -3.27403e-05
0.0020395 -0.000235553 -3.09279e-06
-0.000235553 0.000281226 1.79693e-06
-3.09279e-06 1.79693e-06 0.000164096
-4.81442e-05 -0.0001135 -1.36213e-06
-0.0001135 -0.00046199 -5.68278e-06
-1.36213e-06 -5.68278e-06 -0.000640437
0.00247371 -0.000325704 2.8149e-06
-0.000325704 0.000706052 -8.19995e-08
2.8149e-06 -8.19995e-08 0.000487833
0.00161351 -0.000247753 1.91473e-06
-0.000247753 0.000110779 3.26834e-06
1.91473e-06 3.26834e-06 -6.00916e-05
0.000387698 1.64611e-05 1.31242e-06
1.64611e-05 -0.000155594 -3.40852e-06
1.31242e-06 -3.40852e-06 -0.000212317
0.000836648 -1.76043e-05 1.4425e-06
-1.76043e-05 0.000123446 -1.0097e-06
1.4425e-06 -1.0097e-06 3.13209e-05
0.000901393 -5.23722e-05 -5.08972e-07
-5.23722e-05 0.000157863 -4.20386e-07
-5.08972e-07 -4.20386e-07 4.61613e-05
0.000995035 -0.000164548 -1.60113e-06
-0.000164548 0.000173434 2.79274e-06
-1.60113e-06 2.79274e-06 3.77281e-05
0.000908478 -0.000105923 2.10569e-06
-0.000105923 0.000145014 2.17965e-06
2.10569e-06 2.17965e-06 1.17747e-05
0.00074598 -0.000149259 2.5497e-07
-0.000149259 2.27653e-05 1.93682e-06
2.5497e-07 1.93682e-06 -0.000111806
0.000614564 -4.56889e-05 -1.39781e-06
-4.56889e-05 -3.11129e-05 -3.844e-06
-1.39781e-06 -3.844e-06 -4.63833e-05
0.000665879 -5.04135e-05 -1.61712e-06
-5.04135e-05 4.47195e-06 -1.67441e-06
-1.61712e-06 -1.67441e-06 -4.36008e-05
0.00154096 0.000153772 -9.08033e-07
0.000153772 0.000109836 -1.22716e-07
-9.08033e-07 -1.22716e-07 -3.62117e-05
0.000706578 -6.64794e-05 1.04436e-06
-6.64794e-05 4.59884e-05 -1.45382e-06
1.04436e-06 -1.45382e-06 -3.99169e-05
0.000818838 8.48047e-05 -5.0901e-07
8.48047e-05 9.67468e-05 -9.59892e-07
-5.0901e-07 -9.59892e-07 -2.26561e-05
0.000631081 3.91269e-05 1.3586e-06
3.91269e-05 9.3537e-06 -5.07974e-07
1.3586e-06 -5.07974e-07 -0.00011292
0.00146494 0.000200633 -2.82494e-06
0.000200633 0.000133077 -7.19995e-07
-2.82494e-06 -7.19995e-07 -2.94416e-05
0.00160279 0.000213866 1.15972e-06
0.000213866 0.00012832 8.65754e-07
1.15972e-06 8.65754e-07 -2.93071e-05
0.000951142 0.000165464 -1.98187e-07
0.000165464 0.000162542 -8.18692e-07
-1.98187e-07 -8.18692e-07 -1.43988e-05
0.00139909 0.000227995 -1.55428e-06
0.000227995 0.000265665 -1.46832e-06
-1.55428e-06 -1.46832e-06 6.93004e-05
0.0017231 0.000240903 -4.05958e-06
0.000240903 0.000310774 -2.99191e-06
-4.05958e-06 -2.99191e-06 0.000141446
0.000695267 -3.44158e-05 -2.24201e-07
-3.44158e-05 1.12327e-05 3.60845e-08
-2.24201e-07 3.60845e-08 -3.16187e-05
0.000739923 -2.06697e-05 -7.35499e-07
-2.06697e-05 5.34676e-05 3.71312e-07
-7.35499e-07 3.71312e-07 -1.87177e-05
0.00100164 0.000157695 -7.5377e-07
0.000157695 0.000209274 -1.17931e-07
-7.5377e-07 -1.17931e-07 5.74508e-05
0.000798218 -7.66979e-06 2.21299e-07
-7.66979e-06 0.0001027 9.92639e-08
2.21299e-07 9.92639e-08 3.17982e-07
0.00089737 8.90808e-05 2.39212e-07
8.90808e-05 0.000158883 -2.58741e-07
2.39212e-07 -2.58741e-07 2.30593e-05
0.00162366 0.000164086 -1.61079e-06
0.000164086 0.000110653 -1.28456e-06
-1.61079e-06 -1.28456e-06 -2.59907e-05
0.00157732 0.000229516 1.55438e-06
0.000229516 0.000152215 6.72982e-07
1.55438e-06 6.72982e-07 -1.51703e-05
0.00157505 0.000231951 5.87076e-07
0.000231951 7.94068e-05 4.51554e-08
5.87076e-07 4.51554e-08 -6.42922e-05
0.000715637 0.000159152 3.31903e-07
0.000159152 1.4672e-05 2.94844e-06
3.31903e-07 2.94844e-06 -0.000191311
0.00167954 0.000260893 -1.04281e-06
0.000260893 0.00030512 7.64559e-09
-1.04281e-06 7.64559e-09 0.000112011
0.000779622 1.5663e-05 9.63371e-07
1.5663e-05 6.80638e-05 9.91139e-07
9.63371e-07 9.91139e-07 3.36238e-06
0.000583722 -2.81695e-05 -9.8041e-07
-2.81695e-05 -2.44517e-05 1.82914e-06
-9.8041e-07 1.82914e-06 -0.000111787
0.000923688 0.000158692 -2.46469e-06
0.000158692 0.000156829 -1.71521e-06
-2.46469e-06 -1.71521e-06 -1.1961e-05
0.000650662 3.81727e-05 -2.2205e-06
3.81727e-05 3.06326e-05 -1.29217e-06
-2.2205e-06 -1.29217e-06 -9.4548e-05
0.000995937 0.000147148 -9.89756e-07
0.000147148 0.000202652 -2.07122e-06
-9.89756e-07 -2.07122e-06 5.6994e-05
0.00162253 0.000179389 -2.08125e-06
0.000179389 3.95277e-05 -2.66976e-06
-2.08125e-06 -2.66976e-06 -6.80105e-05
0.00176278 0.000268219 7.71879e-07
0.000268219 0.000228589 -1.69801e-06
7.71879e-07 -1.69801e-06 5.84835e-05
0.00151673 0.000235924 1.92073e-06
0.000235924 2.80644e-05 -1.61306e-07
1.92073e-06 -1.61306e-07 -0.000112024
0.00177816 0.000243097 1.95897e-06
0.000243097 0.000549363 5.88965e-06
1.95897e-06 5.88965e-06 0.000320596
0.00120778 0.000239878 -1.09365e-06
0.000239878 3.71078e-06 -8.68344e-07
-1.09365e-06 -8.68344e-07 -0.000186993
0.000701694 -3.10179e-05 -1.69192e-06
-3.10179e-05 1.00349e-05 -1.79017e-06
-1.69192e-06 -1.79017e-06 -3.10646e-05
0.000684688 1.95726e-06 4.0026e-07
1.95726e-06 1.1414e-05 4.1105e-07
4.0026e-07 4.1105e-07 -5.06243e-05
0.000652739 -2.48788e-05 -2.76188e-07
-2.48788e-05 2.26092e-06 4.30208e-07
-2.76188e-07 4.30208e-07 -6.90479e-05
0.000574095 -4.40606e-05 -8.3969e-07
-4.40606e-05 -4.94946e-05 -7.74331e-07
-8.3969e-07 -7.74331e-07 -0.000111761
0.000739355 8.19411e-06 -2.78579e-09
8.19411e-06 4.50094e-05 1.41857e-08
-2.78579e-09 1.41857e-08 -1.73323e-05
0.000761429 6.19094e-06 9.46739e-09
6.19094e-06 6.38224e-05 -3.56888e-07
9.46739e-09 -3.56888e-07 -8.21855e-06
0.000852128 3.33171e-05 -1.90576e-07
3.33171e-05 0.000121334 -7.79958e-07
-1.90576e-07 -7.79958e-07 4.16765e-05
0.000661054 -2.90637e-05 7.09078e-07
-2.90637e-05 1.34032e-05 1.11241e-07
7.09078e-07 1.11241e-07 -6.42152e-05
0.000764084 2.20309e-05 5.19351e-07
2.20309e-05 5.50321e-05 7.39481e-07
5.19351e-07 7.39481e-07 -5.11182e-06
0.000712043 5.94753e-06 1.16248e-06
5.94753e-06 1.11561e-05 1.76607e-06
1.16248e-06 1.76607e-06 -2.88724e-05
0.000718397 -8.28123e-06 -3.60027e-07
-8.28123e-06 1.29696e-05 1.19092e-08
-3.60027e-07 1.19092e-08 -2.64021e-05
0.00127034 -2.72714e-05 8.72347e-07
-2.72714e-05 0.000318848 2.26472e-06
8.72347e-07 2.26472e-06 0.000313395
0.000710278 -2.50291e-05 -8.71669e-07
-2.50291e-05 9.55944e-06 -1.92753e-06
-8.71669e-07 -1.92753e-06 -3.00877e-05
0.00129053 -3.45928e-05 -4.11193e-06
-3.45928e-05 0.000334541 -1.3327e-06
-4.11193e-06 -1.3327e-06 0.000328391
0.000919765 -2.78841e-05 1.78812e-05
-2.78841e-05 0.000128527 7.13217e-06
1.78812e-05 7.13217e-06 0.000138646
0.0013085 -4.17467e-05 -8.41092e-06
-4.17467e-05 0.000350137 -4.95992e-06
-8.41092e-06 -4.95992e-06 0.00034272
0.00085591 -3.48066e-05 6.97807e-06
-3.48066e-05 9.8512e-05 2.65563e-06
6.97807e-06 2.65563e-06 0.000106989
0.00209584 -6.86851e-05 -5.96027e-06
-6.86851e-05 0.000816678 -1.66706e-06
-5.96027e-06 -1.66706e-06 0.000828632
0.000612346 3.7583e-05 7.44797e-07
3.7583e-05 -3.75184e-05 -4.23417e-06
7.44797e-07 -4.23417e-06 -5.57813e-05
0.000602755 4.58971e-05 -1.27106e-07
4.58971e-05 -3.45379e-05 3.79745e-08
-1.27106e-07 3.79745e-08 -5.7559e-05
0.00248417 7.80571e-05 3.08589e-05
7.80571e-05 0.00104534 -3.83725e-06
3.08589e-05 -3.83725e-06 0.00105312
0.000612812 4.85876e-05 -1.18439e-06
4.85876e-05 -2.09467e-05 5.19404e-06
-1.18439e-06 5.19404e-06 -4.80716e-05
0.00265548 8.92997e-05 -3.14842e-06
8.92997e-05 0.0011494 -2.19367e-07
-3.14842e-06 -2.19367e-07 0.00115451
0.00285376 9.56362e-05 -5.6753e-05
9.56362e-05 0.00126596 3.08032e-06
-5.6753e-05 3.08032e-06 0.00126974
0.00152866 0.000118037 -1.40186e-06
0.000118037 8.92406e-05 2.97071e-07
-1.40186e-06 2.97071e-07 -4.65837e-05
0.00160744 7.59285e-05 4.47363e-07
7.59285e-05 0.000107294 5.27327e-07
4.47363e-07 5.27327e-07 -1.48785e-05
0.00168123 0.000111387 3.01864e-06
0.000111387 9.04052e-05 1.76181e-06
3.01864e-06 1.76181e-06 -1.34341e-05
0.00183156 7.00273e-05 3.0107e-06
7.00273e-05 0.000144647 3.75238e-07
3.0107e-06 3.75238e-07 4.63314e-05
0.00167322 1.7015e-05 -9.09993e-07
1.7015e-05 0.000109821 -5.55539e-08
-9.09993e-07 -5.55539e-08 -3.85288e-06
0.00140543 1.29066e-05 -3.96823e-06
1.29066e-05 5.84295e-05 -1.24059e-07
-3.96823e-06 -1.24059e-07 -6.41414e-05
0.00163557 1.65735e-06 -5.70852e-07
1.65735e-06 9.57159e-05 -3.9003e-08
-5.70852e-07 -3.9003e-08 -1.95643e-05
0.00172526 3.6143e-05 7.94407e-07
3.6143e-05 8.01609e-05 -6.61141e-08
7.94407e-07 -6.61141e-08 -2.35014e-05
0.00173211 9.36495e-05 -1.10462e-06
9.36495e-05 0.000102452 -2.95341e-07
-1.10462e-06 -2.95341e-07 1.10943e-06
0.00177455 7.46699e-05 1.93393e-06
7.46699e-05 9.73171e-05 -9.729e-08
1.93393e-06 -9.729e-08 1.07905e-05
0.00159296 0.00011701 -7.60331e-07
0.00011701 6.99825e-05 -3.04043e-08
-7.60331e-07 -3.04043e-08 -4.70726e-05
0.00180363 0.000129061 3.24696e-06
0.000129061 0.000118091 8.60996e-07
3.24696e-06 8.60996e-07 2.99353e-05
0.00174314 -1.32748e-06 -4.11304e-07
-1.32748e-06 0.000102495 1.9252e-07
-4.11304e-07 1.9252e-07 -1.29454e-06
0.00167484 4.50219e-05 9.44771e-08
4.50219e-05 4.05508e-05 9.6946e-07
9.44771e-08 9.6946e-07 -4.77495e-05
0.00179732 9.55936e-05 -8.42632e-07
9.55936e-05 9.73472e-05 -6.28007e-08
-8.42632e-07 -6.28007e-08 1.79497e-05
0.00191402 0.000151261 -9.80323e-07
0.000151261 0.000180769 -1.17824e-06
-9.80323e-07 -1.17824e-06 9.1821e-05
0.00160568 -1.85748e-05 -4.50132e-07
-1.85748e-05 8.86338e-05 4.14814e-08
-4.50132e-07 4.14814e-08 -2.77708e-05
0.00167095 -6.24831e-05 -8.08989e-07
-6.24831e-05 0.000139318 -5.57754e-07
-8.08989e-07 -5.57754e-07 1.84609e-05
0.00174284 -4.73988e-05 1.58662e-06
-4.73988e-05 0.000105317 -3.97929e-07
1.58662e-06 -3.97929e-07 9.01291e-07
0.0016198 -0.000114354 1.61617e-06
-0.000114354 7.51391e-05 -2.44354e-07
1.61617e-06 -2.44354e-07 -3.23514e-05
0.0010953 -0.000143981 -1.76873e-06
-0.000143981 0.000228082 1.21515e-06
-1.76873e-06 1.21515e-06 0.000100413
0.000929536 -0.000169444 8.65033e-07
-0.000169444 0.000106063 1.79814e-06
8.65033e-07 1.79814e-06 -5.84456e-05
0.00102905 -0.000210613 -2.69826e-06
-0.000210613 -2.38445e-05 2.69195e-06
-2.69826e-06 2.69195e-06 -0.000229584
0.00156372 -0.000154903 2.05526e-07
-0.000154903 9.12776e-05 -5.04262e-07
2.05526e-07 -5.04262e-07 -3.6419e-05
0.00163535 -0.000138747 4.36911e-06
-0.000138747 5.29532e-05 -2.27572e-06
4.36911e-06 -2.27572e-06 -3.96061e-05
0.0016692 -0.000202075 3.80518e-06
-0.000202075 0.000125486 -1.37082e-06
3.80518e-06 -1.37082e-06 2.56077e-06
0.00171156 -0.000243915 -2.77289e-06
-0.000243915 0.000211843 -2.05652e-06
-2.77289e-06 -2.05652e-06 3.55275e-05
0.00165239 -0.00022522 2.57052e-06
-0.00022522 0.000105987 -8.85916e-06
2.57052e-06 -8.85916e-06 -2.91492e-05
0.00110457 -0.00016953 3.65785e-07
-0.00016953 0.000243412 -8.90685e-07
3.65785e-07 -8.90685e-07 0.000107447
0.00109508 -0.000163365 -6.75342e-08
-0.000163365 0.000233723 -3.36458e-06
-6.75342e-08 -3.36458e-06 9.95088e-05
0.00083594 -5.57925e-05 -2.25259e-07
-5.57925e-05 0.000109103 2.42783e-07
-2.25259e-07 2.42783e-07 -1.09977e-05
0.000421537 1.62028e-05 -1.90772e-06
1.62028e-05 -0.000135368 2.54097e-06
-1.90772e-06 2.54097e-06 -0.000197315
0.000545917 3.51368e-05 1.59318e-07
3.51368e-05 -4.76339e-05 5.25295e-07
1.59318e-07 5.25295e-07 -0.000142441
0.00181884 -3.36624e-05 2.49535e-07
-3.36624e-05 0.000137196 -4.20589e-08
2.49535e-07 -4.20589e-08 3.44582e-05
0.00178329 -7.26485e-05 4.37247e-07
-7.26485e-05 0.000121362 -3.48545e-07
4.37247e-07 -3.48545e-07 2.10502e-05
0.00174674 -0.000134008 -1.32634e-06
-0.000134008 9.72346e-05 2.52194e-08
-1.32634e-06 2.52194e-08 1.05408e-05
0.00102913 -0.000167265 -1.7532e-07
-0.000167265 0.000191935 9.80702e-07
-1.7532e-07 9.80702e-07 4.65875e-05
0.000764156 -0.000170828 1.47935e-06
-0.000170828 -1.15446e-05 -2.38071e-06
1.47935e-06 -2.38071e-06 -0.000194273
0.00168086 -0.000271743 -1.65617e-06
-0.000271743 0.000270161 1.05252e-06
-1.65617e-06 1.05252e-06 5.46744e-05
0.00160228 -0.000161288 5.32907e-07
-0.000161288 4.81983e-05 -1.52977e-07
5.32907e-07 -1.52977e-07 -5.35243e-05
0.00162417 -0.000245324 7.95137e-07
-0.000245324 0.000118225 -1.84376e-06
7.95137e-07 -1.84376e-06 -4.82794e-05
0.00177293 -0.000225104 -4.78134e-07
-0.000225104 0.000138307 -1.05353e-06
-4.78134e-07 -1.05353e-06 2.00688e-05
0.000402827 2.05738e-05 1.19541e-07
2.05738e-05 -0.000148139 -7.62697e-07
1.19541e-07 -7.62697e-07 -0.000203647
0.00105374 -0.00016851 -1.84709e-08
-0.00016851 0.000202923 6.04121e-07
-1.84709e-08 6.04121e-07 6.69495e-05
0.000792384 -0.000151494 -9.33285e-07
-0.000151494 5.27948e-05 -4.21383e-08
-9.33285e-07 -4.21383e-08 -7.86254e-05
0.000999751 -0.000116734 -4.88591e-07
-0.000116734 0.000201166 1.02857e-06
-4.88591e-07 1.02857e-06 6.27425e-05
0.000949596 -5.15032e-05 -8.60549e-08
-5.15032e-05 0.000185079 -3.21452e-08
-8.60549e-08 -3.21452e-08 7.32976e-05
0.000702067 7.54351e-06 -2.89005e-07
7.54351e-06 4.32826e-05 3.71593e-07
-2.89005e-07 3.71593e-07 -4.68367e-05
0.0016178 -3.88604e-05 -5.35355e-07
-3.88604e-05 1.31176e-05 -3.71535e-08
-5.35355e-07 -3.71535e-08 -8.11907e-05
0.00184994 -0.000102508 -1.1402e-06
-0.000102508 0.000118806 -4.05755e-08
-1.1402e-06 -4.05755e-08 4.04597e-05
0.00156083 -0.000148163 -1.96484e-07
-0.000148163 -1.75383e-05 2.85508e-07
-1.96484e-07 2.85508e-07 -9.81309e-05
0.00192548 -0.000202073 -1.15632e-06
-0.000202073 0.000173793 -2.43636e-07
-1.15632e-06 -2.43636e-07 8.08987e-05
0.00101809 -0.0001737 -1.92779e-06
-0.0001737 0.000176776 6.51983e-08
-1.92779e-06 6.51983e-08 2.26378e-05
0.00181535 -0.000254766 1.73203e-06
-0.000254766 0.000182612 3.62194e-06
1.73203e-06 3.62194e-06 4.30233e-05
0.000609741 -0.000183897 -1.55492e-06
-0.000183897 -0.000150893 -2.39094e-06
-1.55492e-06 -2.39094e-06 -0.000364339
0.00221141 -0.00032094 4.00327e-07
-0.00032094 0.000527377 2.15749e-06
4.00327e-07 2.15749e-06 0.000308662
0.000384075 3.52411e-05 -3.3993e-07
3.52411e-05 -0.000161943 -3.05911e-06
-3.3993e-07 -3.05911e-06 -0.000211788
0.000831771 -1.25561e-05 1.36156e-06
-1.25561e-05 0.000116467 -1.31118e-06
1.36156e-06 -1.31118e-06 3.25104e-05
0.000992565 -7.03385e-05 2.41785e-08
-7.03385e-05 0.000212201 6.69747e-07
2.41785e-08 6.69747e-07 0.000106452
0.000811925 -2.09141e-05 -1.56119e-07
-2.09141e-05 0.00010637 -6.41159e-07
-1.56119e-07 -6.41159e-07 -1.57915e-05
0.000867868 -0.000162607 -7.52973e-07
-0.000162607 8.47395e-05 1.10165e-06
-7.52973e-07 1.10165e-06 -5.23721e-05
0.000964162 -0.00016429 -3.46955e-06
-0.00016429 0.00014655 3.28699e-06
-3.46955e-06 3.28699e-06 8.4654e-08
0.000687855 -3.67606e-05 -2.01749e-06
-3.67606e-05 7.47625e-06 -1.68574e-06
-2.01749e-06 -1.68574e-06 -3.55296e-05
0.000672467 -6.38465e-05 6.33589e-08
-6.38465e-05 1.76623e-05 -9.52469e-07
6.33589e-08 -9.52469e-07 -5.48017e-05
0.00164197 0.000167672 -4.18288e-07
0.000167672 0.000120481 3.35382e-07
-4.18288e-07 3.35382e-07 -1.7301e-05
0.000733583 -4.1821e-05 9.0144e-07
-4.1821e-05 6.47535e-05 -7.30674e-07
9.0144e-07 -7.30674e-07 -3.44525e-05
0.000916835 0.000150616 3.12891e-07
0.000150616 0.000162719 -8.88354e-07
3.12891e-07 -8.88354e-07 1.23921e-05
0.000530953 4.74696e-05 1.48133e-06
4.74696e-05 -5.19359e-05 -2.30701e-07
1.48133e-06 -2.30701e-07 -0.000180391
0.00163635 0.000232251 -8.96172e-07
0.000232251 0.000184887 -1.72396e-07
-8.96172e-07 -1.72396e-07 1.69285e-05
0.00167723 0.000234093 7.36923e-07
0.000234093 0.000134845 1.65451e-06
7.36923e-07 1.65451e-06 -7.66011e-06
0.000556616 0.000149303 2.09599e-07
0.000149303 -7.80474e-05 6.44069e-07
2.09599e-07 6.44069e-07 -0.000281058
0.00194624 0.000280104 -6.25981e-07
0.000280104 0.000457324 2.0733e-07
-6.25981e-07 2.0733e-07 0.000260275
0.000738365 -1.1636e-05 -6.91926e-07
-1.1636e-05 4.50837e-05 1.3884e-07
-6.91926e-07 1.3884e-07 -1.91882e-05
0.000697897 -1.19055e-05 1.16859e-09
-1.19055e-05 3.94563e-05 9.4914e-07
1.16859e-09 9.4914e-07 -4.88518e-05
0.00105864 0.000168252 -4.54899e-07
0.000168252 0.000238065 -2.14926e-06
-4.54899e-07 -2.14926e-06 6.70343e-05
0.000630453 -5.64646e-06 -3.04288e-07
-5.64646e-06 1.04751e-05 1.30773e-07
-3.04288e-07 1.30773e-07 -0.000105988
0.000804789 0.000118433 -1.61583e-06
0.000118433 9.40952e-05 -6.63474e-07
-1.61583e-06 -6.63474e-07 -4.09956e-05
0.0018537 0.000186735 -2.31411e-06
0.000186735 0.000167149 -1.06984e-06
-2.31411e-06 -1.06984e-06 6.17604e-05
0.00181997 0.000268888 1.20611e-06
0.000268888 0.000259825 -3.17001e-07
1.20611e-06 -3.17001e-07 9.05523e-05
0.00158805 0.000244354 4.73481e-07
0.000244354 6.80708e-05 1.70523e-06
4.73481e-07 1.70523e-06 -7.34742e-05
0.00143714 0.000221017 2.39165e-06
0.000221017 0.000370673 4.02046e-06
2.39165e-06 4.02046e-06 0.00013862
0.00125888 0.000246137 -2.08839e-06
0.000246137 3.06716e-05 4.02657e-07
-2.08839e-06 4.02657e-07 -0.000161435
0.00055299 -3.2161e-05 -2.98547e-07
-3.2161e-05 -4.78149e-05 1.23273e-06
-2.98547e-07 1.23273e-06 -0.000124049
0.00034046 4.26264e-05 -6.17626e-07
4.26264e-05 -0.000141149 5.83113e-07
-6.17626e-07 5.83113e-07 -0.000252768
0.00107446 0.000173057 1.08016e-06
0.000173057 0.000231831 1.84563e-06
1.08016e-06 1.84563e-06 4.06505e-05
-0.000103615 4.86225e-05 1.54839e-06
4.86225e-05 -0.000399763 1.94969e-07
1.54839e-06 1.94969e-07 -0.000539441
0.00192636 0.000186629 -1.97493e-06
0.000186629 0.000101359 -7.18185e-07
-1.97493e-06 -7.18185e-07 2.36913e-05
0.00205057 0.000234526 1.95615e-06
0.000234526 0.000251505 -7.05655e-07
1.95615e-06 -7.05655e-07 0.000142082
0.00177366 0.000297666 -1.17458e-06
0.000297666 0.000203637 -2.29014e-06
-1.17458e-06 -2.29014e-06 2.60575e-05
-0.000182287 0.000122166 -9.40124e-07
0.000122166 -0.000612379 1.87233e-06
-9.40124e-07 1.87233e-06 -0.000846631
0.000736915 1.87709e-05 -7.68325e-07
1.87709e-05 4.56449e-05 -2.63131e-07
-7.68325e-07 -2.63131e-07 -1.91223e-05
0.000721063 -2.16092e-07 -3.50793e-07
-2.16092e-07 4.58801e-05 3.79295e-07
-3.50793e-07 3.79295e-07 -2.85538e-05
0.000833661 -1.87786e-05 -5.50837e-07
-1.87786e-05 0.000112636 1.17188e-07
-5.50837e-07 1.17188e-07 3.56139e-05
0.000723547 -2.49876e-05 -1.08477e-06
-2.49876e-05 3.26173e-05 -7.85867e-07
-1.08477e-06 -7.85867e-07 -2.70817e-05
0.000602618 -3.21094e-05 -2.4337e-07
-3.21094e-05 -2.37215e-05 -4.14811e-07
-2.4337e-07 -4.14811e-07 -9.65494e-05
0.000746334 1.08859e-06 6.2954e-09
1.08859e-06 4.63347e-05 -5.12642e-09
6.2954e-09 -5.12642e-09 -1.46708e-05
0.000754124 3.42093e-05 -4.42148e-07
3.42093e-05 7.35891e-05 -2.43532e-07
-4.42148e-07 -2.43532e-07 -1.07501e-05
0.000703738 -1.53261e-06 4.58422e-07
-1.53261e-06 3.94926e-05 2.86211e-07
4.58422e-07 2.86211e-07 -3.91802e-05
0.000814483 3.51437e-06 4.90394e-07
3.51437e-06 0.000100214 -8.51804e-08
4.90394e-07 -8.51804e-08 1.81076e-05
0.000764571 -3.51224e-05 7.37465e-07
-3.51224e-05 7.37648e-05 -4.35857e-07
7.37465e-07 -4.35857e-07 -1.02637e-05
0.000631693 2.09237e-05 4.70046e-07
2.09237e-05 -4.65559e-06 5.24179e-07
4.70046e-07 5.24179e-07 -8.36749e-05
0.000741819 3.59657e-05 8.05714e-07
3.59657e-05 4.48067e-05 8.68922e-07
8.05714e-07 8.68922e-07 -1.79669e-05
0.000693546 1.65052e-05 7.50793e-07
1.65052e-05 4.42681e-06 1.67196e-06
7.50793e-07 1.67196e-06 -3.68785e-05
0.000703477 -5.57655e-06 -2.79598e-07
-5.57655e-06 6.76613e-06 2.04394e-08
-2.79598e-07 2.04394e-08 -3.35046e-05
0.00127871 -1.77631e-05 7.01673e-07
-1.77631e-05 0.000320859 2.18165e-06
7.01673e-07 2.18165e-06 0.00031571
0.000710084 -1.99866e-05 -5.89434e-07
-1.99866e-05 8.85646e-06 -1.87558e-06
-5.89434e-07 -1.87558e-06 -3.07742e-05
0.00130152 -2.4934e-05 -3.40465e-06
-2.4934e-05 0.00033672 -1.40551e-06
-3.40465e-06 -1.40551e-06 0.000331252
0.000929029 -2.13571e-05 1.48771e-05
-2.13571e-05 0.000129039 7.40922e-06
1.48771e-05 7.40922e-06 0.00013984
0.00131879 -3.26334e-05 -6.87918e-06
-3.26334e-05 0.00035041 -5.00456e-06
-6.87918e-06 -5.00456e-06 0.00034428
0.000867039 -2.84595e-05 5.63121e-06
-2.84595e-05 9.82838e-05 2.75374e-06
5.63121e-06 2.75374e-06 0.000108251
0.000800501 -3.44581e-05 -1.92162e-06
-3.44581e-05 6.68617e-05 -1.86088e-06
-1.92162e-06 -1.86088e-06 7.53334e-05
0.00062093 3.21391e-05 5.88413e-07
3.21391e-05 -4.02492e-05 -3.88818e-06
5.88413e-07 -3.88818e-06 -5.43432e-05
0.000622171 3.87459e-05 -1.91006e-07
3.87459e-05 -3.1765e-05 5.9319e-08
-1.91006e-07 5.9319e-08 -5.02963e-05
0.00235254 6.62805e-05 2.50621e-05
6.62805e-05 0.000962955 -4.03379e-06
2.50621e-05 -4.03379e-06 0.000973783
0.000618484 4.62919e-05 -6.98903e-07
4.62919e-05 -2.51465e-05 4.77508e-06
-6.98903e-07 4.77508e-06 -4.84492e-05
0.00254208 7.90441e-05 -3.02784e-06
7.90441e-05 0.00107869 -2.02938e-07
-3.02784e-06 -2.02938e-07 0.00108621
0.00271098 8.86634e-05 -4.50885e-05
8.86634e-05 0.0011806 3.34546e-06
-4.50885e-05 3.34546e-06 0.00118597
0.00161514 0.000115995 1.6323e-06
0.000115995 8.81924e-05 2.26835e-06
1.6323e-06 2.26835e-06 -2.88052e-05
0.0016874 9.138e-05 1.26566e-06
9.138e-05 7.57946e-05 3.11796e-07
1.26566e-06 3.11796e-07 -2.69675e-05
0.00169931 0.000130501 5.01908e-06
0.000130501 5.58703e-05 1.34073e-06
5.01908e-06 1.34073e-06 -2.9888e-05
0.00173358 7.49031e-05 3.14012e-06
7.49031e-05 6.94831e-05 -8.90771e-07
3.14012e-06 -8.90771e-07 -1.50927e-05
0.00174933 3.05918e-05 1.81482e-06
3.05918e-05 9.54361e-05 -2.94253e-07
1.81482e-06 -2.94253e-07 -9.10451e-06
0.0016213 8.28953e-07 -1.04602e-06
8.28953e-07 8.74024e-05 -1.76456e-07
-1.04602e-06 -1.76456e-07 -2.89603e-05
0.00175324 1.07463e-06 -5.82376e-08
1.07463e-06 0.000108224 -1.81315e-08
-5.82376e-08 -1.81315e-08 4.5632e-06
0.00168571 4.19024e-05 9.74577e-07
4.19024e-05 5.20021e-05 -1.96193e-07
9.74577e-07 -1.96193e-07 -3.68392e-05
0.00176309 9.78955e-05 9.46384e-07
9.78955e-05 7.96949e-05 -2.01264e-07
9.46384e-07 -2.01264e-07 -7.46333e-07
0.00191755 0.000147478 3.96575e-07
0.000147478 0.000174012 2.83186e-07
3.96575e-07 2.83186e-07 8.62583e-05
0.00166147 -3.80091e-08 -1.36321e-06
-3.80091e-08 4.54527e-05 2.06961e-07
-1.36321e-06 2.06961e-07 -4.63113e-05
0.00200897 7.28757e-05 8.29801e-07
7.28757e-05 0.000182213 4.15999e-07
8.29801e-07 4.15999e-07 0.000113508
0.00165472 0.000137334 7.11617e-07
0.000137334 -2.9167e-05 -3.45747e-07
7.11617e-07 -3.45747e-07 -0.000102067
0.00181852 -3.56733e-05 5.92627e-07
-3.56733e-05 0.000139864 1.68583e-08
5.92627e-07 1.68583e-08 3.69919e-05
0.0018106 -7.53131e-05 9.89159e-07
-7.53131e-05 0.000138463 -4.45497e-07
9.89159e-07 -4.45497e-07 3.78828e-05
0.00168573 -0.000131588 9.52277e-07
-0.000131588 6.69565e-05 -1.60587e-07
9.52277e-07 -1.60587e-07 -2.20628e-05
0.00118477 -0.000178428 -1.75728e-07
-0.000178428 0.00027628 2.11359e-06
-1.75728e-07 2.11359e-06 0.000129327
0.00161379 -0.000230973 -3.03582e-07
-0.000230973 0.000459579 1.89392e-06
-3.03582e-07 1.89392e-06 0.000272811
0.000907105 -0.000219571 -2.03209e-06
-0.000219571 -0.000155451 1.5866e-06
-2.03209e-06 1.5866e-06 -0.000367252
0.00163973 -0.000162136 1.39854e-06
-0.000162136 6.85876e-05 -1.06882e-06
1.39854e-06 -1.06882e-06 -3.36284e-05
0.0015164 -0.000216669 1.41842e-07
-0.000216669 -1.498e-06 -3.2426e-06
1.41842e-07 -3.2426e-06 -0.000121138
0.00165103 -0.000244185 -1.59101e-06
-0.000244185 0.000132891 -6.61832e-06
-1.59101e-06 -6.61832e-06 -2.94263e-05
0.0011046 -0.000171923 8.58776e-07
-0.000171923 0.00022843 -9.61353e-07
8.58776e-07 -9.61353e-07 9.21906e-05
0.00078593 -0.000149307 -5.08359e-06
-0.000149307 5.42636e-05 -2.54956e-06
-5.08359e-06 -2.54956e-06 -7.353e-05
0.00111785 -0.00013058 2.40754e-07
-0.00013058 0.000277593 4.02927e-07
2.40754e-07 4.02927e-07 0.000130785
0.000414658 1.93539e-05 -7.28255e-07
1.93539e-05 -0.000142136 1.56864e-06
-7.28255e-07 1.56864e-06 -0.000196782
0.000972681 -4.46018e-05 2.59876e-07
-4.46018e-05 0.000194762 2.34705e-07
2.59876e-07 2.34705e-07 8.5291e-05
0.000575138 2.95939e-05 5.25387e-07
2.95939e-05 -3.33039e-05 1.58242e-06
5.25387e-07 1.58242e-06 -0.000121087
0.00171835 -3.81245e-05 -5.26123e-07
-3.81245e-05 6.72438e-05 5.52582e-08
-5.26123e-07 5.52582e-08 -2.67909e-05
0.00187101 -0.000103693 3.03902e-07
-0.000103693 0.00013065 2.93833e-08
3.03902e-07 2.93833e-08 5.32142e-05
0.00160853 -0.000148603 -3.036e-07
-0.000148603 1.07196e-05 2.41409e-07
-3.036e-07 2.41409e-07 -6.93395e-05
0.00107725 -0.000176752 1.46743e-07
-0.000176752 0.000206675 1.78289e-06
1.46743e-07 1.78289e-06 5.21906e-05
0.00084619 -0.000197609 -4.34069e-07
-0.000197609 -9.32226e-06 -9.01098e-08
-4.34069e-07 -9.01098e-08 -0.000219083
0.00189372 -0.000297161 -2.85301e-06
-0.000297161 0.000347435 1.15419e-06
-2.85301e-06 1.15419e-06 0.000134577
0.00188942 -0.000202998 9.91108e-07
-0.000202998 0.000154107 -5.86036e-07
9.91108e-07 -5.86036e-07 5.9778e-05
0.0017364 -0.000252044 1.4776e-06
-0.000252044 0.000134361 -1.09856e-06
1.4776e-06 -1.09856e-06 -5.26961e-06
0.00053815 2.26674e-05 3.64836e-07
2.26674e-05 -7.60021e-05 -7.48204e-07
3.64836e-07 -7.48204e-07 -0.000123394
0.000833063 -3.23658e-06 -3.7002e-07
-3.23658e-06 0.000115486 2.74061e-07
-3.7002e-07 2.74061e-07 3.23963e-05
0.000490587 -0.000133412 -1.90016e-06
-0.000133412 -0.000126812 1.63841e-06
-1.90016e-06 1.63841e-06 -0.000258502
0.00125074 -0.000175507 1.6064e-07
-0.000175507 0.000313422 7.4091e-08
1.6064e-07 7.4091e-08 0.00017072
0.000884246 -4.15048e-05 6.92408e-09
-4.15048e-05 0.000148773 -3.58148e-07
6.92408e-09 -3.58148e-07 2.39856e-05
0.000898242 -5.27889e-05 -6.00736e-07
-5.27889e-05 0.000159568 1.03632e-06
-6.00736e-07 1.03632e-06 5.35709e-05
0.00187899 -6.11018e-05 -6.33509e-08
-6.11018e-05 0.000108459 4.23736e-08
-6.33509e-08 4.23736e-08 3.81705e-05
0.00176712 -0.000144445 -1.77729e-06
-0.000144445 3.95893e-05 -6.54959e-07
-1.77729e-06 -6.54959e-07 -1.94925e-05
0.00178862 -0.00016729 2.00077e-06
-0.00016729 6.88361e-05 -2.30236e-07
2.00077e-06 -2.30236e-07 -3.00798e-06
0.00231298 -0.000287151 6.03924e-06
-0.000287151 0.000361951 -8.04437e-07
6.03924e-06 -8.04437e-07 0.000252772
0.00028355 -0.000130729 -2.49494e-06
-0.000130729 -0.000242197 -9.15448e-07
-2.49494e-06 -9.15448e-07 -0.000410003
0.00179187 -0.000299417 -1.90585e-06
-0.000299417 0.00024598 6.95821e-06
-1.90585e-06 6.95821e-06 4.7321e-05
0.00228648 -0.000325454 2.99418e-06
-0.000325454 0.000721308 -3.95591e-06
2.99418e-06 -3.95591e-06 0.000482275
0.0007041 2.11803e-05 6.95598e-07
2.11803e-05 1.27095e-05 -2.0728e-06
6.95598e-07 -2.0728e-06 -2.83945e-05
0.00073569 -8.02522e-05 1.54097e-06
-8.02522e-05 6.30304e-05 -1.97388e-06
1.54097e-06 -1.97388e-06 -1.10024e-05
0.000523307 1.42612e-05 1.84702e-07
1.42612e-05 -5.71384e-05 -2.3528e-06
1.84702e-07 -2.3528e-06 -0.000138154
0.000823462 -3.97563e-05 1.27064e-06
-3.97563e-05 0.000124839 3.11074e-07
1.27064e-06 3.11074e-07 2.11377e-05
0.000805802 -3.79742e-06 1.08651e-06
-3.79742e-06 9.87181e-05 -1.23577e-06
1.08651e-06 -1.23577e-06 -9.38009e-06
0.000419951 -0.000107404 -7.42148e-08
-0.000107404 -9.58979e-05 2.51687e-06
-7.42148e-08 2.51687e-06 -0.000231869
0.000478884 -0.000138327 -2.09556e-06
-0.000138327 -0.000182918 8.41388e-07
-2.09556e-06 8.41388e-07 -0.000305258
0.00182839 -0.000220045 -6.34222e-06
-0.000220045 0.000674383 3.62695e-06
-6.34222e-06 3.62695e-06 0.000500224
0.000717536 -3.55057e-05 -7.00051e-07
-3.55057e-05 3.11652e-05 -6.73215e-07
-7.00051e-07 -6.73215e-07 -3.10177e-05
0.000820791 -5.4677e-06 1.66978e-09
-5.4677e-06 0.000109615 1.09282e-07
1.66978e-09 1.09282e-07 1.98116e-05
0.0020857 0.000193079 -1.30112e-07
0.000193079 0.000296891 4.97281e-07
-1.30112e-07 4.97281e-07 0.000193799
0.000834188 1.94566e-05 -5.17626e-08
1.94566e-05 0.000130371 -6.12742e-07
-5.17626e-08 -6.12742e-07 9.02609e-06
0.0011745 0.000176935 1.10037e-06
0.000176935 0.000311134 -2.01949e-06
1.10037e-06 -2.01949e-06 0.000135838
0.000606137 8.99503e-05 -7.31925e-08
8.99503e-05 -1.69033e-05 2.05049e-06
-7.31925e-08 2.05049e-06 -0.000141873
0.00187845 0.000269249 3.22058e-07
0.000269249 0.000291582 8.42643e-07
3.22058e-07 8.42643e-07 0.000123304
0.0016727 0.00025329 1.78215e-06
0.00025329 0.000115628 4.34403e-06
1.78215e-06 4.34403e-06 -2.72576e-05
0.00101544 0.000193444 1.09429e-06
0.000193444 0.000147072 3.6041e-08
1.09429e-06 3.6041e-08 -8.81921e-05
0.00138638 0.000257789 -1.89961e-06
0.000257789 9.67023e-05 1.56214e-06
-1.89961e-06 1.56214e-06 -9.66325e-05
0.000587885 -1.14848e-05 1.05294e-07
-1.14848e-05 -2.32424e-05 6.82004e-07
1.05294e-07 6.82004e-07 -0.000104137
0.000573924 5.71207e-05 -4.32362e-07
5.71207e-05 -1.04284e-05 -1.46937e-06
-4.32362e-07 -1.46937e-06 -0.000123845
0.00104636 0.000171949 1.50165e-06
0.000171949 0.000226346 -1.74056e-06
1.50165e-06 -1.74056e-06 3.08354e-05
0.000680972 0.000100553 -8.84472e-07
0.000100553 3.53545e-05 -2.05819e-06
-8.84472e-07 -2.05819e-06 -0.000108778
0.0019871 0.000184101 2.04858e-07
0.000184101 0.000138353 -5.87919e-07
2.04858e-07 -5.87919e-07 6.3252e-05
0.00187524 0.000233448 2.00593e-06
0.000233448 0.000163747 6.82533e-07
2.00593e-06 6.82533e-07 4.97983e-05
0.00173846 0.000289712 -1.71753e-06
0.000289712 0.000182621 -3.61677e-07
-1.71753e-06 -3.61677e-07 6.97069e-06
0.000789201 0.000196488 5.71062e-07
0.000196488 -9.60271e-05 6.84457e-07
5.71062e-07 6.84457e-07 -0.000330438
0.00075554 -8.90063e-07 -2.07856e-07
-8.90063e-07 7.13504e-05 1.01793e-06
-2.07856e-07 1.01793e-06 -1.26727e-05
0.00185719 0.000144932 -3.60041e-07
0.000144932 2.80231e-05 1.15011e-06
-3.60041e-07 1.15011e-06 -1.95653e-05
0.00126778 0.000168786 -4.06686e-07
0.000168786 0.000394255 2.67096e-06
-4.06686e-07 2.67096e-06 0.000244195
0.00108387 0.000183458 9.49902e-07
0.000183458 0.000224089 3.50667e-06
9.49902e-07 3.50667e-06 2.0494e-05
0.00249812 0.000236314 -6.82084e-06
0.000236314 0.000409543 -8.00758e-07
-6.82084e-06 -8.00758e-07 0.000329615
0.00143151 0.00028921 -2.62024e-06
0.00028921 -6.29878e-05 -3.87598e-06
-2.62024e-06 -3.87598e-06 -0.00022399
0.00200539 0.000309859 -3.07296e-06
0.000309859 0.000463464 6.08774e-07
-3.07296e-06 6.08774e-07 0.000232084
0.000785371 7.28843e-06 -1.41378e-06
7.28843e-06 8.29467e-05 5.14658e-08
-1.41378e-06 5.14658e-08 8.49018e-06
0.000776445 -4.55952e-06 -2.70952e-07
-4.55952e-06 8.20971e-05 9.10892e-08
-2.70952e-07 9.10892e-08 4.01078e-06
0.000846177 -1.82563e-05 -4.92942e-07
-1.82563e-05 0.0001297 5.15049e-07
-4.92942e-07 5.15049e-07 4.56648e-05
0.000723428 -2.20823e-05 -4.06996e-07
-2.20823e-05 3.49882e-05 -9.43738e-07
-4.06996e-07 -9.43738e-07 -2.7157e-05
0.000744277 1.46751e-05 3.57825e-07
1.46751e-05 6.36658e-05 2.52732e-07
3.57825e-07 2.52732e-07 -1.54451e-05
0.000617176 -9.57836e-06 -7.83558e-07
-9.57836e-06 2.10053e-06 2.20865e-07
-7.83558e-07 2.20865e-07 -8.47864e-05
0.000730969 -1.01829e-05 -1.67453e-07
-1.01829e-05 4.3095e-05 -3.76059e-08
-1.67453e-07 -3.76059e-08 -2.28453e-05
0.000638018 -2.48186e-05 -5.56582e-07
-2.48186e-05 3.65824e-06 3.38727e-07
-5.56582e-07 3.38727e-07 -7.78751e-05
0.000720628 -3.53409e-05 5.47597e-07
-3.53409e-05 4.78382e-05 -3.1505e-07
5.47597e-07 -3.1505e-07 -3.39564e-05
0.000817587 1.5977e-05 3.08299e-07
1.5977e-05 0.000110929 1.91565e-07
3.08299e-07 1.91565e-07 2.19793e-05
0.00083987 -1.12949e-05 7.13933e-07
-1.12949e-05 0.000102073 -7.35514e-07
7.13933e-07 -7.35514e-07 2.12229e-05
0.000761589 -5.44361e-05 6.01203e-07
-5.44361e-05 6.78003e-05 -1.59206e-07
6.01203e-07 -1.59206e-07 -1.69313e-05
0.000828964 1.79134e-05 5.42516e-07
1.79134e-05 0.00011374 -5.19381e-08
5.42516e-07 -5.19381e-08 2.32417e-05
0.000734194 2.14846e-05 1.73736e-06
2.14846e-05 5.74132e-05 4.01347e-07
1.73736e-06 4.01347e-07 -3.01846e-05
0.000749391 1.05725e-05 9.19934e-07
1.05725e-05 4.85998e-05 9.71414e-07
9.19934e-07 9.71414e-07 -1.59883e-05
0.00068464 -1.36104e-06 2.13782e-07
-1.36104e-06 7.74648e-07 1.61493e-06
2.13782e-07 1.61493e-06 -4.06025e-05
0.000697762 -5.45081e-06 -2.10146e-07
-5.45081e-06 6.33058e-06 3.88848e-08
-2.10146e-07 3.88848e-08 -3.45974e-05
0.00128648 -8.42913e-06 5.249e-07
-8.42913e-06 0.000324142 2.10245e-06
5.249e-07 2.10245e-06 0.000318687
0.000715496 -1.34033e-05 2.0808e-08
-1.34033e-05 1.36829e-05 -1.88582e-06
2.0808e-08 -1.88582e-06 -2.66072e-05
0.0013117 -1.56702e-05 -2.5561e-06
-1.56702e-05 0.000340161 -1.45391e-06
-2.5561e-06 -1.45391e-06 0.00033485
0.000929192 -1.46149e-05 1.12234e-05
-1.46149e-05 0.000125571 7.59492e-06
1.12234e-05 7.59492e-06 0.000136805
0.00133512 -2.3287e-05 -5.08144e-06
-2.3287e-05 0.000355974 -5.07193e-06
-5.08144e-06 -5.07193e-06 0.000350354
0.000879975 -2.17697e-05 3.96785e-06
-2.17697e-05 0.000100494 2.8632e-06
3.96785e-06 2.8632e-06 0.000111301
0.000814313 -2.7849e-05 -1.35608e-06
-2.7849e-05 6.79442e-05 -1.86761e-06
-1.35608e-06 -1.86761e-06 7.805e-05
0.000719595 1.92423e-06 5.82904e-07
1.92423e-06 2.01332e-05 -2.08767e-06
5.82904e-07 -2.08767e-06 -1.79921e-05
0.000637571 2.57963e-05 4.94331e-07
2.57963e-05 -3.72675e-05 -3.79938e-06
4.94331e-07 -3.79938e-06 -4.7959e-05
0.000638726 3.28539e-05 -9.08324e-08
3.28539e-05 -3.02869e-05 6.49754e-08
-9.08324e-08 6.49754e-08 -4.45625e-05
0.00224842 5.44571e-05 2.05838e-05
5.44571e-05 0.000896103 -4.21379e-06
2.05838e-05 -4.21379e-06 0.000909847
0.000636961 4.0776e-05 -6.24976e-07
4.0776e-05 -2.29394e-05 4.3972e-06
-6.24976e-07 4.3972e-06 -4.18788e-05
0.00240935 6.76746e-05 -2.78078e-06
6.76746e-05 0.000996029 -1.72453e-07
-2.78078e-06 -1.72453e-07 0.00100639
0.00259608 7.96255e-05 -3.59221e-05
7.96255e-05 0.00110966 3.69853e-06
-3.59221e-05 3.69853e-06 0.00111703
0.00191644 0.000143499 1.46855e-06
0.000143499 0.000164668 2.01812e-06
1.46855e-06 2.01812e-06 7.81243e-05
0.00172867 0.00010006 1.60134e-06
0.00010006 6.19904e-05 -1.97965e-07
1.60134e-06 -1.97965e-07 -1.94864e-05
0.00169659 4.18141e-05 1.75622e-06
4.18141e-05 6.35365e-05 -6.83168e-07
1.75622e-06 -6.83168e-07 -2.58445e-05
0.00176124 3.61973e-06 6.39554e-07
3.61973e-06 0.000112764 -2.76692e-07
6.39554e-07 -2.76692e-07 9.24783e-06
0.00171394 1.89508e-06 -8.33759e-07
1.89508e-06 7.57234e-05 7.96993e-08
-8.33759e-07 7.96993e-08 -1.45852e-05
0.00193275 6.99869e-05 3.87493e-07
6.99869e-05 0.000139748 -7.01628e-08
3.87493e-07 -7.01628e-08 7.08693e-05
0.00170651 0.000139289 -7.20618e-07
0.000139289 -3.15644e-06 -2.37683e-07
-7.20618e-07 -2.37683e-07 -7.64227e-05
0.00181634 6.92456e-06 -2.08604e-07
6.92456e-06 6.76194e-05 4.94024e-07
-2.08604e-07 4.94024e-07 -1.0137e-07
0.00196835 9.82028e-05 1.94779e-06
9.82028e-05 0.000104529 1.38444e-07
1.94779e-06 1.38444e-07 5.0596e-05
0.00199826 6.07823e-05 -1.98608e-06
6.07823e-05 0.00012105 -4.71469e-07
-1.98608e-06 -4.71469e-07 0.000119617
0.00181738 -3.75174e-05 -3.76973e-07
-3.75174e-05 0.00012052 -5.85549e-08
-3.76973e-07 -5.85549e-08 2.67494e-05
0.00189749 -0.000106095 1.14124e-06
-0.000106095 0.000144489 8.79939e-08
1.14124e-06 8.79939e-08 6.79387e-05
0.00164306 -0.000149907 -1.01283e-06
-0.000149907 2.99749e-05 1.38516e-07
-1.01283e-06 1.38516e-07 -4.9624e-05
0.00111987 -0.000178956 3.28878e-07
-0.000178956 0.00022742 3.57134e-06
3.28878e-07 3.57134e-06 7.23031e-05
0.00111644 -0.0002137 7.04515e-07
-0.0002137 0.000150957 4.30475e-06
7.04515e-07 4.30475e-06 -5.62473e-05
0.00152913 -0.000269523 -2.34335e-06
-0.000269523 0.000143931 -9.45007e-07
-2.34335e-06 -9.45007e-07 -6.2245e-05
0.00185928 -0.000202112 2.91191e-06
-0.000202112 0.0001375 -1.0516e-06
2.91191e-06 -1.0516e-06 4.20324e-05
0.00160206 -0.000243177 -1.19001e-06
-0.000243177 6.04341e-05 -4.2533e-06
-1.19001e-06 -4.2533e-06 -7.83219e-05
0.000178414 -0.000109088 -3.27137e-06
-0.000109088 -0.0003013 2.2856e-06
-3.27137e-06 2.2856e-06 -0.000428361
0.00158117 -0.000193966 8.32351e-06
-0.000193966 0.000505763 -4.13828e-06
8.32351e-06 -4.13828e-06 0.000365176
0.000842811 -1.13801e-05 -1.73038e-07
-1.13801e-05 0.000114599 -2.57935e-07
-1.73038e-07 -2.57935e-07 -1.51493e-06
0.000700793 1.01323e-05 -5.72577e-07
1.01323e-05 1.46938e-05 1.37183e-06
-5.72577e-07 1.37183e-06 -3.03861e-05
0.000847383 1.54411e-05 -8.41128e-07
1.54411e-05 0.000122131 1.70654e-06
-8.41128e-07 1.70654e-06 3.94061e-05
0.000814419 -2.48162e-05 -5.80056e-07
-2.48162e-05 0.000112677 1.44255e-06
-5.80056e-07 1.44255e-06 6.5524e-06
0.00187162 -6.21161e-05 3.14713e-08
-6.21161e-05 0.000104071 -1.63263e-07
3.14713e-08 -1.63263e-07 3.42121e-05
0.000702682 7.41123e-06 7.61757e-07
7.41123e-06 1.26157e-05 6.32244e-08
7.61757e-07 6.32244e-08 -2.88318e-05
0.000636703 -2.19467e-05 -1.00377e-06
-2.19467e-05 -5.29979e-06 -2.31886e-08
-1.00377e-06 -2.31886e-08 -7.17758e-05
0.00184117 -0.000142302 -1.47751e-07
-0.000142302 8.94403e-05 1.91749e-07
-1.47751e-07 1.91749e-07 2.75596e-05
0.00165632 -0.000163354 -1.96785e-06
-0.000163354 -8.79563e-06 7.22012e-07
-1.96785e-06 7.22012e-07 -8.26336e-05
0.00049014 -0.000143756 4.5897e-07
-0.000143756 -0.000116698 2.80445e-06
4.5897e-07 2.80445e-06 -0.000281518
0.00175409 -0.000283329 -2.07209e-06
-0.000283329 0.000436497 8.4915e-07
-2.07209e-06 8.4915e-07 0.000192282
0.00149006 -0.000276779 1.316e-06
-0.000276779 7.95467e-05 -8.79709e-07
1.316e-06 -8.79709e-07 -0.000111692
0.00197127 -0.000273505 2.5885e-06
-0.000273505 0.000185051 -1.00695e-06
2.5885e-06 -1.00695e-06 7.52897e-05
0.000787148 -2.41551e-05 1.101e-06
-2.41551e-05 9.10164e-05 -8.07538e-07
1.101e-06 -8.07538e-07 1.24164e-05
0.000803405 -2.84736e-05 -1.14423e-07
-2.84736e-05 0.000113823 8.01645e-07
-1.14423e-07 8.01645e-07 9.00918e-06
0.000957854 -0.000158691 -1.17925e-06
-0.000158691 8.32249e-05 -1.74068e-07
-1.17925e-06 -1.74068e-07 -4.41274e-05
0.00119203 -0.000177105 8.20792e-06
-0.000177105 0.000314931 -2.15433e-06
8.20792e-06 -2.15433e-06 0.000167241
0.000600095 -8.49314e-05 -1.13578e-06
-8.49314e-05 -4.46571e-06 2.35477e-07
-1.13578e-06 2.35477e-07 -0.000135213
0.000815363 -8.51854e-06 3.27751e-07
-8.51854e-06 0.000107704 -5.32589e-07
3.27751e-07 -5.32589e-07 -1.73423e-06
0.00200887 -7.79252e-05 -2.10214e-06
-7.79252e-05 0.000119712 1.44691e-07
-2.10214e-06 1.44691e-07 6.73563e-05
0.00172619 -0.000135263 2.50077e-06
-0.000135263 -3.71182e-06 -1.65953e-07
2.50077e-06 -1.65953e-07 -5.23174e-05
0.00192918 -0.000263587 1.39196e-06
-0.000263587 6.08147e-05 -1.90031e-06
1.39196e-06 -1.90031e-06 -6.49117e-06
0.00156263 -0.000299848 2.43667e-06
-0.000299848 2.79633e-06 1.35948e-06
2.43667e-06 1.35948e-06 -0.000128495
0.000796263 -0.000129786 -5.02245e-06
-0.000129786 3.22509e-05 -3.99794e-06
-5.02245e-06 -3.99794e-06 -0.000134356
0.00268508 -0.000381718 -3.10614e-06
-0.000381718 0.000865676 3.04383e-06
-3.10614e-06 3.04383e-06 0.000603266
0.00051007 5.20778e-05 -1.32637e-06
5.20778e-05 -7.25083e-05 -2.59422e-06
-1.32637e-06 -2.59422e-06 -0.000140381
0.000741813 -4.61204e-05 1.72998e-06
-4.61204e-05 5.62014e-05 -1.66967e-06
1.72998e-06 -1.66967e-06 -1.33818e-05
0.000960589 -6.00858e-05 1.2467e-06
-6.00858e-05 0.000197632 -3.48249e-07
1.2467e-06 -3.48249e-07 0.000107699
0.000515683 1.3211e-05 5.22925e-08
1.3211e-05 -4.43447e-05 -3.7885e-07
5.22925e-08 -3.7885e-07 -0.00015057
0.00103249 -4.15301e-05 7.48471e-07
-4.15301e-05 0.00023331 -1.94519e-07
7.48471e-07 -1.94519e-07 0.000128848
0.000664381 -4.15826e-05 1.67167e-06
-4.15826e-05 1.3712e-05 -9.52571e-08
1.67167e-06 -9.52571e-08 -0.000106955
0.000270194 -7.65701e-05 4.39074e-06
-7.65701e-05 -0.000108824 1.37829e-06
4.39074e-06 1.37829e-06 -0.00029778
0.000591614 -0.000170213 -1.36414e-05
-0.000170213 -9.75213e-05 4.7025e-06
-1.36414e-05 4.7025e-06 -0.000217861
0.000605729 8.79122e-06 -1.07162e-07
8.79122e-06 -9.35721e-06 -7.57424e-08
-1.07162e-07 -7.57424e-08 -9.44227e-05
0.00077496 7.57822e-05 -2.71238e-06
7.57822e-05 0.000102366 -2.89126e-06
-2.71238e-06 -2.89126e-06 -1.31003e-05
0.00203178 0.000182103 -1.19867e-06
0.000182103 0.000165433 -4.6431e-07
-1.19867e-06 -4.6431e-07 9.28492e-05
0.00170439 0.000232988 -1.55522e-07
0.000232988 7.66527e-05 2.32493e-06
-1.55522e-07 2.32493e-06 -4.19068e-05
0.0014334 0.000130371 -4.06945e-06
0.000130371 0.000447263 -1.72987e-06
-4.06945e-06 -1.72987e-06 0.000302849
0.00102423 0.000170862 -1.54299e-06
0.000170862 0.000221981 -5.97521e-06
-1.54299e-06 -5.97521e-06 2.36318e-05
0.00164138 0.000277156 1.34508e-06
0.000277156 0.000128358 1.49085e-06
1.34508e-06 1.49085e-06 -4.52264e-05
0.00183568 0.000275489 8.80918e-08
0.000275489 0.000463727 -2.65015e-07
8.80918e-08 -2.65015e-07 0.000227436
0.000736024 2.13528e-05 6.64209e-07
2.13528e-05 6.86149e-05 -6.60653e-07
6.64209e-07 -6.60653e-07 -2.15483e-05
0.00189112 0.000140493 -5.91017e-07
0.000140493 4.1802e-05 -1.03738e-07
-5.91017e-07 -1.03738e-07 -7.81249e-07
0.000932827 0.000119125 6.57592e-07
0.000119125 0.000202817 1.72947e-06
6.57592e-07 1.72947e-06 6.30111e-05
0.000781785 0.000161137 6.55813e-07
0.000161137 5.63895e-05 -2.08178e-08
6.55813e-07 -2.08178e-08 -0.000146469
0.00207812 0.000221895 2.62156e-06
0.000221895 0.000179637 -4.91138e-08
2.62156e-06 -4.91138e-08 9.95614e-05
0.00161458 0.000297693 -3.89281e-07
0.000297693 3.43861e-05 -1.31634e-06
-3.89281e-07 -1.31634e-06 -0.000124571
0.00208295 0.000316885 7.39395e-07
0.000316885 0.000519331 6.52917e-07
7.39395e-07 6.52917e-07 0.000286271
0.00121181 6.06416e-05 -2.3785e-06
6.06416e-05 0.000350131 1.84991e-06
-2.3785e-06 1.84991e-06 0.000235022
0.00234109 0.00015812 -2.12651e-05
0.00015812 0.000315302 -3.09911e-06
-2.12651e-05 -3.09911e-06 0.000295208
0.00221872 0.000248331 -3.71908e-06
0.000248331 0.000892302 -2.01631e-07
-3.71908e-06 -2.01631e-07 0.000722606
0.00254727 0.000315114 -6.29735e-06
0.000315114 0.00095436 1.6546e-06
-6.29735e-06 1.6546e-06 0.00073262
0.00178924 0.000308131 -7.06462e-06
0.000308131 3.2088e-05 -6.33659e-06
-7.06462e-06 -6.33659e-06 -7.07276e-05
0.00142142 0.000294734 -7.27609e-06
0.000294734 8.95238e-05 -4.97192e-07
-7.27609e-06 -4.97192e-07 -0.000118623
0.000404674 0.000165112 1.33234e-05
0.000165112 -0.00050949 -3.69812e-06
1.33234e-05 -3.69812e-06 -0.000702887
0.000736 6.9307e-06 2.59282e-07
6.9307e-06 6.27364e-05 -2.03235e-07
2.59282e-07 -2.03235e-07 -1.75006e-05
0.000800206 -1.07312e-05 -2.83291e-07
-1.07312e-05 0.00010593 2.64586e-07
-2.83291e-07 2.64586e-07 2.12829e-05
0.00106061 4.63879e-06 4.02494e-07
4.63879e-06 0.000237682 -8.52683e-07
4.02494e-07 -8.52683e-07 0.000149137
0.000719609 -5.20493e-05 -2.57113e-07
-5.20493e-05 4.05389e-05 -1.1833e-06
-2.57113e-07 -1.1833e-06 -2.80373e-05
0.00067813 -4.74949e-05 -1.19289e-06
-4.74949e-05 2.4379e-05 3.31434e-07
-1.19289e-06 3.31434e-07 -5.54679e-05
0.000877317 8.27089e-05 -5.37301e-07
8.27089e-05 0.000146692 6.51566e-07
-5.37301e-07 6.51566e-07 5.61397e-05
0.000611451 -4.37453e-05 -4.70482e-07
-4.37453e-05 -9.72994e-06 3.33581e-07
-4.70482e-07 3.33581e-07 -9.38566e-05
0.000727672 -2.52041e-05 1.3879e-09
-2.52041e-05 4.44891e-05 -1.26509e-08
1.3879e-09 -1.26509e-08 -2.54159e-05
0.000701156 1.81501e-05 -3.69591e-08
1.81501e-05 2.98541e-05 -2.01864e-07
-3.69591e-08 -2.01864e-07 -5.12232e-05
0.000798406 -1.60769e-05 -1.22177e-07
-1.60769e-05 7.91958e-05 -5.62079e-07
-1.22177e-07 -5.62079e-07 -3.19046e-06
0.0008225 -4.23683e-06 2.1376e-07
-4.23683e-06 0.000103383 -2.78089e-09
2.1376e-07 -2.78089e-09 1.76536e-05
0.000832668 -3.28748e-05 -4.6037e-08
-3.28748e-05 0.000106007 -2.74063e-08
-4.6037e-08 -2.74063e-08 2.1613e-05
0.000845904 -1.88547e-05 -1.67474e-08
-1.88547e-05 9.81751e-05 -7.1014e-07
-1.67474e-08 -7.1014e-07 1.67715e-05
0.000848856 7.40392e-06 -7.55077e-08
7.40392e-06 0.000107736 -1.19249e-06
-7.55077e-08 -1.19249e-06 2.02029e-05
0.000841029 3.54281e-05 3.93964e-07
3.54281e-05 0.000105789 -1.27729e-07
3.93964e-07 -1.27729e-07 2.20897e-05
0.000741817 2.95705e-05 2.77554e-07
2.95705e-05 5.96046e-05 3.20824e-07
2.77554e-07 3.20824e-07 -3.21849e-05
0.000614858 -1.42949e-05 -8.71946e-08
-1.42949e-05 -2.97777e-05 1.36206e-06
-8.71946e-08 1.36206e-06 -9.65755e-05
0.000890515 -9.84308e-06 3.15127e-07
-9.84308e-06 0.000156944 -8.08e-07
3.15127e-07 -8.08e-07 6.43382e-05
0.000590492 -3.38367e-07 -6.64552e-07
-3.38367e-07 -3.88019e-05 1.36492e-06
-6.64552e-07 1.36492e-06 -0.000108278
0.000679459 9.84998e-06 -3.18202e-07
9.84998e-06 -8.47549e-07 1.6296e-06
-3.18202e-07 1.6296e-06 -4.32074e-05
0.000681942 8.28086e-06 2.81277e-07
8.28086e-06 -1.49111e-07 1.15789e-08
2.81277e-07 1.15789e-08 -4.18454e-05
0.000647198 1.29991e-06 1.29203e-07
1.29991e-06 -4.10759e-05 3.50266e-06
1.29203e-07 3.50266e-06 -5.08004e-05
0.000692493 -4.32226e-06 -4.20312e-07
-4.32226e-06 3.76864e-06 -1.72666e-06
-4.20312e-07 -1.72666e-06 -3.73462e-05
0.000987901 -5.97697e-06 -1.65337e-06
-5.97697e-06 0.000153858 -1.53197e-06
-1.65337e-06 -1.53197e-06 0.000146379
0.00223346 -1.07305e-05 7.01223e-06
-1.07305e-05 0.000869173 4.79522e-06
7.01223e-06 4.79522e-06 0.000887787
0.00134624 -1.42705e-05 -2.96682e-06
-1.42705e-05 0.000360319 -5.03087e-06
-2.96682e-06 -5.03087e-06 0.000354752
0.000880726 -1.47394e-05 2.08765e-06
-1.47394e-05 9.7076e-05 2.94249e-06
2.08765e-06 2.94249e-06 0.000108477
0.000827769 -2.08177e-05 -8.06878e-07
-2.08177e-05 7.01644e-05 -1.87971e-06
-8.06878e-07 -1.87971e-06 8.12368e-05
0.000687633 1.19102e-05 -2.95883e-07
1.19102e-05 2.74252e-06 -2.014e-06
-2.95883e-07 -2.014e-06 -3.3468e-05
0.000708358 7.79272e-07 2.47567e-07
7.79272e-07 1.38071e-05 -1.67789e-08
2.47567e-07 -1.67789e-08 -2.44454e-05
0.000656921 1.95175e-05 3.07846e-07
1.95175e-05 -3.04794e-05 -3.63083e-06
3.07846e-07 -3.63083e-06 -3.86547e-05
0.000974121 3.03029e-05 -4.8439e-07
3.03029e-05 0.000155251 3.68457e-08
-4.8439e-07 3.68457e-08 0.000146103
0.00218479 4.31179e-05 1.66212e-05
4.31179e-05 0.000853284 -4.33516e-06
1.66212e-05 -4.33516e-06 0.000869433
0.000649901 3.36702e-05 -5.29256e-07
3.36702e-05 -2.40074e-05 4.06337e-06
-5.29256e-07 4.06337e-06 -3.84786e-05
0.00229915 5.6016e-05 -2.52211e-06
5.6016e-05 0.000925873 -1.34123e-07
-2.52211e-06 -1.34123e-07 0.000939105
0.0024737 6.89667e-05 -2.85765e-05
6.89667e-05 0.00103335 4.04155e-06
-2.85765e-05 4.04155e-06 0.00104324
0.0017646 0.000141618 -2.12054e-06
0.000141618 2.63903e-05 -4.42903e-07
-2.12054e-06 -4.42903e-07 -4.72542e-05
0.00185062 6.7687e-05 6.52248e-07
6.7687e-05 9.39826e-05 -5.15209e-07
6.52248e-07 -5.15209e-07 2.48787e-05
0.00176761 9.86121e-07 -2.62124e-07
9.86121e-07 0.000106292 -2.24409e-07
-2.62124e-07 -2.24409e-07 1.74497e-05
0.00176722 9.3608e-06 2.3368e-07
9.3608e-06 4.11462e-05 1.13147e-07
2.3368e-07 1.13147e-07 -2.68552e-05
0.00185319 9.57544e-05 -6.92496e-07
9.57544e-05 4.63087e-05 -2.03488e-07
-6.92496e-07 -2.03488e-07 -8.44142e-06
0.00183713 5.87134e-05 2.03809e-06
5.87134e-05 2.89031e-05 1.33738e-06
2.03809e-06 1.33738e-06 1.98703e-05
0.00182604 1.61483e-05 7.29377e-07
1.61483e-05 1.24476e-05 -5.59247e-08
7.29377e-07 -5.59247e-08 -1.73086e-05
0.0028697 0.000140214 1.85599e-05
0.000140214 0.000226994 -3.57938e-07
1.85599e-05 -3.57938e-07 0.000195371
0.00186273 3.70151e-05 -1.92309e-05
3.70151e-05 0.00014127 -2.23648e-06
-1.92309e-05 -2.23648e-06 0.000152007
0.00072723 5.49839e-05 -6.58405e-07
5.49839e-05 4.80347e-05 -1.36349e-06
-6.58405e-07 -1.36349e-06 -1.34569e-05
0.00185678 -6.28774e-05 1.96619e-07
-6.28774e-05 9.55994e-05 6.0681e-09
1.96619e-07 6.0681e-09 2.61427e-05
0.00191865 -0.000137945 5.46157e-07
-0.000137945 0.000143313 2.72047e-07
5.46157e-07 2.72047e-07 7.89389e-05
0.0015266 -0.000159465 3.04508e-07
-0.000159465 -8.36633e-05 7.46242e-07
3.04508e-07 7.46242e-07 -0.000158878
0.000649882 -0.000152765 2.07791e-06
-0.000152765 -1.77703e-05 5.59639e-06
2.07791e-06 5.59639e-06 -0.000179022
0.00129961 -0.000246693 1.84879e-06
-0.000246693 0.000194772 6.17405e-06
1.84879e-06 6.17405e-06 -5.62494e-05
0.00126394 -0.000261365 -1.57768e-06
-0.000261365 -4.76183e-05 -4.95907e-06
-1.57768e-06 -4.95907e-06 -0.000233654
0.0016494 -0.000262947 -6.16447e-06
-0.000262947 1.71562e-05 -2.67349e-06
-6.16447e-06 -2.67349e-06 -9.37055e-05
0.00140941 -0.000182309 9.36301e-06
-0.000182309 0.000331782 -3.22617e-06
9.36301e-06 -3.22617e-06 0.000199173
0.000519971 -0.000132621 6.38872e-06
-0.000132621 -6.21611e-05 -8.65122e-06
6.38872e-06 -8.65122e-06 -0.000184037
0.000831504 -9.37529e-05 4.26159e-08
-9.37529e-05 0.000121854 -1.82234e-06
4.26159e-08 -1.82234e-06 -9.28555e-06
0.000699007 -4.59642e-06 -1.36511e-06
-4.59642e-06 1.0741e-05 2.2112e-06
-1.36511e-06 2.2112e-06 -3.05624e-05
0.0008392 -1.52908e-05 -5.58212e-08
-1.52908e-05 0.000126614 9.1761e-09
-5.58212e-08 9.1761e-09 1.429e-05
0.00103523 -5.45895e-05 9.6298e-08
-5.45895e-05 0.000235561 7.33554e-07
9.6298e-08 7.33554e-07 0.000155886
0.000775028 -2.07281e-05 -1.24639e-06
-2.07281e-05 9.63421e-05 8.49008e-07
-1.24639e-06 8.49008e-07 -8.03682e-06
0.000524489 -1.52897e-05 -8.93623e-07
-1.52897e-05 -7.3078e-05 1.6877e-06
-8.93623e-07 1.6877e-06 -0.000137306
0.00195832 -8.53017e-05 -3.97664e-07
-8.53017e-05 7.90233e-05 -9.03945e-08
-3.97664e-07 -9.03945e-08 3.26978e-05
0.000613707 2.90603e-05 6.21415e-08
2.90603e-05 -1.14459e-05 -9.10142e-07
6.21415e-08 -9.10142e-07 -7.9434e-05
0.000745087 -5.28219e-05 1.13874e-09
-5.28219e-05 6.44351e-05 1.9558e-07
1.13874e-09 1.9558e-07 -9.37912e-06
0.000823457 -3.26181e-05 -5.35164e-07
-3.26181e-05 0.000121174 7.53237e-07
-5.35164e-07 7.53237e-07 2.8414e-05
0.00177826 -0.000143315 8.11724e-07
-0.000143315 1.73971e-05 -3.9723e-07
8.11724e-07 -3.9723e-07 -3.04573e-05
0.00187438 -0.00025958 -1.38744e-06
-0.00025958 4.48036e-05 -3.79519e-07
-1.38744e-06 -3.79519e-07 -2.82549e-05
0.000919716 -0.000155404 2.61549e-06
-0.000155404 8.85944e-05 -1.20497e-09
2.61549e-06 -1.20497e-09 -7.21099e-05
0.0014851 -0.000292673 2.78009e-06
-0.000292673 0.000242675 -2.24736e-07
2.78009e-06 -2.24736e-07 -1.74185e-05
0.00173178 -0.000315843 3.33925e-07
-0.000315843 9.9192e-05 6.99579e-07
3.33925e-07 6.99579e-07 -3.73636e-05
0.000646065 -9.39165e-06 -2.62317e-07
-9.39165e-06 2.92323e-05 -2.36155e-08
-2.62317e-07 -2.36155e-08 -7.6076e-05
0.000878573 -5.50485e-05 -5.45707e-07
-5.50485e-05 0.000151387 2.1511e-07
-5.45707e-07 2.1511e-07 4.1842e-05
0.0005805 -0.000169224 -5.32503e-06
-0.000169224 -8.64925e-05 1.10795e-06
-5.32503e-06 1.10795e-06 -0.000223787
0.000730361 -8.36762e-05 4.26577e-07
-8.36762e-05 0.000125875 -2.28382e-07
4.26577e-07 -2.28382e-07 -4.76372e-05
0.000750124 -6.58644e-05 -3.18523e-07
-6.58644e-05 6.19441e-05 8.56954e-08
-3.18523e-07 8.56954e-08 -5.98533e-05
0.00208202 -0.00016054 -6.40708e-06
-0.00016054 0.000116055 1.53043e-07
-6.40708e-06 1.53043e-07 8.79738e-05
0.00184665 -0.000166142 -1.67775e-06
-0.000166142 2.10941e-05 1.19993e-06
-1.67775e-06 1.19993e-06 -1.49378e-05
0.00221087 -0.000355442 -1.45321e-06
-0.000355442 0.000228896 -7.41213e-07
-1.45321e-06 -7.41213e-07 0.000127431
0.00256283 -0.000392222 -1.52241e-05
-0.000392222 0.000688142 2.24748e-06
-1.52241e-05 2.24748e-06 0.00049657
0.000910056 -0.000161683 -7.03345e-06
-0.000161683 0.000122194 -2.61254e-06
-7.03345e-06 -2.61254e-06 -7.33777e-05
0.000511849 2.00491e-05 7.97972e-07
2.00491e-05 -5.88224e-05 -2.05215e-06
7.97972e-07 -2.05215e-06 -0.000147393
0.000511577 4.75576e-05 5.293e-07
4.75576e-05 -5.85994e-05 -1.20779e-06
5.293e-07 -1.20779e-06 -0.000154923
0.000768857 1.10034e-05 9.30591e-07
1.10034e-05 9.90338e-05 -8.33403e-07
9.30591e-07 -8.33403e-07 -5.61975e-06
0.00102004 -0.000101847 1.63974e-06
-0.000101847 0.000245945 2.00779e-07
1.63974e-06 2.00779e-07 0.000128376
0.000694095 -3.6385e-05 1.05787e-06
-3.6385e-05 3.37684e-05 9.0928e-07
1.05787e-06 9.0928e-07 -7.29025e-05
0.00044748 -4.04024e-05 2.67044e-06
-4.04024e-05 -4.93903e-05 2.36393e-07
2.67044e-06 2.36393e-07 -0.000209646
0.000779507 -0.000165547 7.13576e-06
-0.000165547 0.000167295 1.30493e-06
7.13576e-06 1.30493e-06 -5.54328e-05
0.000737917 5.62293e-05 7.67632e-07
5.62293e-05 7.82679e-05 -2.60656e-06
7.67632e-07 -2.60656e-06 -1.87663e-05
0.000616589 6.42165e-05 1.09589e-06
6.42165e-05 2.03206e-05 -3.44487e-07
1.09589e-06 -3.44487e-07 -0.000107886
0.00192687 0.000136017 2.62845e-06
0.000136017 5.78631e-05 -6.87053e-07
2.62845e-06 -6.87053e-07 1.93791e-05
0.00164707 0.000207176 5.21787e-06
0.000207176 -5.54603e-05 2.84782e-07
5.21787e-06 2.84782e-07 -0.000135307
0.00187784 0.00030957 5.19531e-06
0.00030957 0.000175361 1.4128e-06
5.19531e-06 1.4128e-06 1.84971e-05
0.000423428 0.000135325 1.72364e-06
0.000135325 -0.000144109 -1.37507e-06
1.72364e-06 -1.37507e-06 -0.000345416
0.00224 0.00033056 3.97632e-06
0.00033056 0.000615858 1.45206e-06
3.97632e-06 1.45206e-06 0.000382392
0.00111443 4.92875e-05 -2.80606e-07
4.92875e-05 0.000289784 5.90677e-07
-2.80606e-07 5.90677e-07 0.00018242
0.00196768 0.0001384 -1.8627e-06
0.0001384 0.000115838 -1.12346e-07
-1.8627e-06 -1.12346e-07 0.000101818
0.00135789 0.000178909 -1.19656e-06
0.000178909 0.000415775 -4.7604e-07
-1.19656e-06 -4.7604e-07 0.000258487
0.0017316 0.000253416 -8.22674e-07
0.000253416 0.000530664 1.47707e-06
-8.22674e-07 1.47707e-06 0.000305986
0.00192883 0.000305673 3.02544e-07
0.000305673 0.000109098 -1.89044e-06
3.02544e-07 -1.89044e-06 8.60536e-06
0.00149617 0.000304964 -1.05035e-06
0.000304964 0.000127419 2.3055e-06
-1.05035e-06 2.3055e-06 -8.62538e-05
0.00141719 0.000206747 2.06693e-05
0.000206747 -0.000211167 1.00862e-06
2.06693e-05 1.00862e-06 -0.000459968
0.00113631 9.39964e-05 -2.71664e-06
9.39964e-05 0.000304714 -1.37848e-06
-2.71664e-06 -1.37848e-06 0.000181813
0.00241242 0.000224339 -2.92189e-05
0.000224339 0.000377598 -1.36985e-05
-2.92189e-05 -1.36985e-05 0.000378158
0.00134312 0.000203918 -5.71587e-06
0.000203918 0.000396255 -1.43134e-06
-5.71587e-06 -1.43134e-06 0.000226734
0.00116491 0.000240494 -5.08529e-06
0.000240494 0.000138661 -8.41142e-07
-5.08529e-06 -8.41142e-07 -9.53386e-05
0.000576908 0.000322554 -9.19311e-06
0.000322554 -0.000497529 -5.11071e-06
-9.19311e-06 -5.11071e-06 -0.00067467
0.0086199 0.000157888 -0.000113239
0.000157888 0.00248087 -4.37697e-05
-0.000113239 -4.37697e-05 0.001545
0.00440228 0.000426693 0.000107095
0.000426693 0.000715883 -5.41011e-06
0.000107095 -5.41011e-06 6.79963e-05
0.000724407 0.000303833 1.32494e-05
0.000303833 -0.00031032 1.74441e-05
1.32494e-05 1.74441e-05 -0.000445278
-0.00429014 -0.000404707 0.000137147
-0.000404707 -0.00157913 -1.05177e-05
0.000137147 -1.05177e-05 -0.00209195
0.00454371 -0.00109645 -1.88516e-05
-0.00109645 0.000646665 -2.53461e-06
-1.88516e-05 -2.53461e-06 0.00220908
0.000759323 -4.84653e-06 7.65771e-07
-4.84653e-06 8.40688e-05 -4.31238e-07
7.65771e-07 -4.31238e-07 -1.12061e-06
0.000913022 -1.2356e-05 8.95873e-07
-1.2356e-05 0.000162815 -3.78543e-07
8.95873e-07 -3.78543e-07 7.45076e-05
0.000917931 4.11703e-05 -9.02122e-07
4.11703e-05 0.000157562 -1.92795e-06
-9.02122e-07 -1.92795e-06 6.8356e-05
0.000712918 -5.58533e-05 1.19963e-07
-5.58533e-05 4.17575e-05 -1.0611e-06
1.19963e-07 -1.0611e-06 -3.1777e-05
0.000672017 5.00298e-05 -1.02004e-06
5.00298e-05 1.55906e-05 -3.4937e-07
-1.02004e-06 -3.4937e-07 -6.75514e-05
0.000820837 -3.74012e-05 -6.71854e-08
-3.74012e-05 0.000103211 1.56075e-08
-6.71854e-08 1.56075e-08 1.72161e-05
0.000889005 -7.42815e-06 -1.22084e-06
-7.42815e-06 0.000134967 7.98636e-07
-1.22084e-06 7.98636e-07 5.17217e-05
0.000809148 -2.68657e-05 -5.21599e-07
-2.68657e-05 8.53196e-05 -4.33385e-07
-5.21599e-07 -4.33385e-07 1.23167e-06
0.00078264 5.22514e-05 -9.03242e-07
5.22514e-05 8.09421e-05 -3.01977e-07
-9.03242e-07 -3.01977e-07 -9.21657e-06
0.00066012 -6.35247e-06 -7.10462e-08
-6.35247e-06 7.48528e-07 6.01331e-07
-7.10462e-08 6.01331e-07 -6.80882e-05
0.00075256 2.13713e-05 -1.22512e-07
2.13713e-05 6.38389e-05 -1.12837e-08
-1.22512e-07 -1.12837e-08 -2.63358e-05
0.000831852 -1.6205e-05 2.41265e-07
-1.6205e-05 8.97136e-05 5.95717e-07
2.41265e-07 5.95717e-07 8.4654e-06
0.000850798 8.33514e-06 -4.0994e-07
8.33514e-06 0.000107953 -2.38564e-07
-4.0994e-07 -2.38564e-07 2.20977e-05
0.00089093 4.40108e-05 -3.71056e-07
4.40108e-05 0.000128874 -8.91278e-07
-3.71056e-07 -8.91278e-07 4.25826e-05
0.000658652 1.04445e-05 5.34664e-07
1.04445e-05 -4.94852e-06 -1.6636e-06
5.34664e-07 -1.6636e-06 -8.56697e-05
0.000863213 4.60565e-05 1.33308e-06
4.60565e-05 0.000113811 7.9191e-08
1.33308e-06 7.9191e-08 2.58742e-05
0.000683457 -6.52933e-06 1.03281e-06
-6.52933e-06 1.30531e-05 -2.35646e-07
1.03281e-06 -2.35646e-07 -7.33009e-05
0.000604648 -4.79013e-05 -1.23715e-06
-4.79013e-05 -2.96995e-05 1.36898e-06
-1.23715e-06 1.36898e-06 -0.000101049
0.00084118 1.21221e-05 -5.38754e-07
1.21221e-05 0.00011259 -2.17694e-07
-5.38754e-07 -2.17694e-07 2.47855e-05
0.000862194 5.39743e-05 2.1279e-07
5.39743e-05 0.000123758 -1.46823e-06
2.1279e-07 -1.46823e-06 3.53824e-05
0.000722713 8.24547e-07 -7.11545e-07
8.24547e-07 5.57972e-05 -3.43646e-07
-7.11545e-07 -3.43646e-07 -2.93137e-05
0.000833883 2.62524e-06 8.38766e-07
2.62524e-06 0.000114587 -4.41066e-07
8.38766e-07 -4.41066e-07 2.76665e-05
0.000733876 -4.98844e-05 -1.63378e-06
-4.98844e-05 4.37288e-05 6.62722e-07
-1.63378e-06 6.62722e-07 -2.38083e-05
0.000600373 1.28495e-06 1.05823e-07
1.28495e-06 -3.04598e-05 6.27661e-07
1.05823e-07 6.27661e-07 -0.000102006
0.000690547 9.34376e-06 -5.86771e-07
9.34376e-06 3.63693e-06 1.7255e-06
-5.86771e-07 1.7255e-06 -3.88062e-05
0.000680287 -2.23934e-06 2.16037e-07
-2.23934e-06 -8.70037e-07 -1.60203e-08
2.16037e-07 -1.60203e-08 -4.29356e-05
0.00066933 7.2354e-06 -3.81145e-07
7.2354e-06 -2.70207e-05 5.0599e-06
-3.81145e-07 5.0599e-06 -3.73898e-05
0.000679912 4.3713e-07 -4.35239e-09
4.3713e-07 -1.43607e-06 -1.63775e-06
-4.35239e-09 -1.63775e-06 -4.29862e-05
0.00065388 1.49908e-06 2.60462e-07
1.49908e-06 -3.72363e-05 -7.34466e-09
2.60462e-07 -7.34466e-09 -4.69994e-05
0.00224505 -1.14174e-06 5.87844e-08
-1.14174e-06 0.000875189 4.8754e-06
5.87844e-08 4.8754e-06 0.000893733
0.000680184 -4.36219e-06 -4.83563e-07
-4.36219e-06 -2.19031e-05 -5.07663e-06
-4.83563e-07 -5.07663e-06 -3.14567e-05
0.00155656 -8.34724e-06 -2.93083e-07
-8.34724e-06 0.000481534 4.8565e-08
-2.93083e-07 4.8565e-08 0.000496514
0.000828581 -1.34528e-05 -2.83368e-07
-1.34528e-05 6.65545e-05 -1.86191e-06
-2.83368e-07 -1.86191e-06 7.83079e-05
0.000689854 1.21531e-05 -1.89623e-07
1.21531e-05 4.35845e-06 -1.90611e-06
-1.89623e-07 -1.90611e-06 -3.04639e-05
0.000697749 3.48586e-07 2.10555e-07
3.48586e-07 8.32734e-06 3.55374e-08
2.10555e-07 3.55374e-08 -2.79785e-05
0.000666059 1.32289e-05 1.16295e-07
1.32289e-05 -2.87174e-05 -3.51461e-06
1.16295e-07 -3.51461e-06 -3.50641e-05
0.00069904 -7.81258e-06 -1.34329e-06
-7.81258e-06 8.48462e-06 2.08791e-06
-1.34329e-06 2.08791e-06 -2.98629e-05
0.000959665 2.24078e-05 -1.77868e-07
2.24078e-05 0.000142279 -7.38932e-07
-1.77868e-07 -7.38932e-07 0.000135962
0.00211565 3.17126e-05 1.26426e-05
3.17126e-05 0.000808703 -4.45455e-06
1.26426e-05 -4.45455e-06 0.000826852
0.000652254 2.70723e-05 -4.66089e-07
2.70723e-05 -2.83086e-05 3.85199e-06
-4.66089e-07 3.85199e-06 -3.9604e-05
0.00225087 4.38109e-05 -7.61937e-06
4.38109e-05 0.00089264 1.19952e-06
-7.61937e-06 1.19952e-06 0.000908219
0.00233351 5.71318e-05 -2.22806e-05
5.71318e-05 0.000946252 4.23387e-06
-2.22806e-05 4.23387e-06 0.000959091
0.00174206 9.30232e-05 -1.82815e-06
9.30232e-05 -9.8918e-06 -3.81677e-07
-1.82815e-06 -3.81677e-07 -6.56424e-05
0.0017279 1.12553e-05 2.64591e-07
1.12553e-05 2.05032e-05 -2.55177e-07
2.64591e-07 -2.55177e-07 -4.77007e-05
0.00167959 5.77001e-05 7.33209e-06
5.77001e-05 -6.16316e-05 -1.03956e-06
7.33209e-06 -1.03956e-06 -7.76358e-05
0.00210759 0.000100306 2.06288e-05
0.000100306 -9.86482e-05 4.00969e-06
2.06288e-05 4.00969e-06 -0.00014933
0.00183125 1.08473e-05 -2.15209e-06
1.08473e-05 1.37532e-05 -2.30184e-07
-2.15209e-06 -2.30184e-07 -1.6183e-05
0.00183855 4.34712e-05 3.55329e-06
4.34712e-05 0.000134273 9.72784e-07
3.55329e-06 9.72784e-07 0.000140435
0.0026474 -3.28805e-06 -1.70016e-05
-3.28805e-06 0.000569694 7.71874e-08
-1.70016e-05 7.71874e-08 0.000537997
0.00278444 1.55037e-05 0.00013802
1.55037e-05 -4.61049e-05 -1.2291e-05
0.00013802 -1.2291e-05 -0.000302624
0.00221799 4.99194e-06 -1.106e-05
4.99194e-06 0.000115677 -2.8639e-06
-1.106e-05 -2.8639e-06 6.84021e-05
0.000733885 5.40806e-05 -5.31007e-07
5.40806e-05 5.40958e-05 -1.2868e-06
-5.31007e-07 -1.2868e-06 -8.4497e-06
0.000739654 -9.708e-06 6.91599e-07
-9.708e-06 5.96208e-05 -6.13279e-08
6.91599e-07 -6.13279e-08 -5.47593e-06
0.000700171 -6.43369e-05 4.41834e-08
-6.43369e-05 4.35846e-05 -8.19399e-07
4.41834e-08 -8.19399e-07 -3.54194e-05
0.000730585 -2.49576e-05 -1.10287e-06
-2.49576e-05 7.11013e-05 -3.1723e-07
-1.10287e-06 -3.1723e-07 -1.51614e-05
0.00190623 -9.37561e-05 -9.21389e-08
-9.37561e-05 3.69939e-05 2.52938e-07
-9.21389e-08 2.52938e-07 -4.05738e-06
0.0017842 -0.000151741 -2.88575e-06
-0.000151741 1.3235e-05 5.78214e-07
-2.88575e-06 5.78214e-07 -3.54544e-05
0.00181427 -0.000254387 -6.75627e-06
-0.000254387 2.67535e-05 7.90075e-07
-6.75627e-06 7.90075e-07 -5.29918e-05
0.001268 -0.000210737 2.94359e-06
-0.000210737 0.000271404 3.45708e-06
2.94359e-06 3.45708e-06 0.000111567
8.85078e-05 -0.000189534 5.34661e-06
-0.000189534 -0.000491272 -1.56949e-06
5.34661e-06 -1.56949e-06 -0.000745931
0.00196411 -0.000336186 1.07647e-06
-0.000336186 0.000231126 -3.11707e-06
1.07647e-06 -3.11707e-06 8.92313e-05
0.000587869 -0.00015792 -6.24196e-06
-0.00015792 -6.82374e-05 2.65625e-07
-6.24196e-06 2.65625e-07 -0.000219845
0.0012685 -9.17555e-05 -9.12419e-07
-9.17555e-05 0.000401886 -2.00753e-06
-9.12419e-07 -2.00753e-06 0.000244785
0.000753688 -8.91059e-05 -2.05667e-06
-8.91059e-05 6.36368e-05 1.04273e-06
-2.05667e-06 1.04273e-06 -5.81029e-05
0.000756969 -2.58956e-05 -9.33236e-07
-2.58956e-05 6.70118e-05 1.88951e-06
-9.33236e-07 1.88951e-06 -3.85596e-06
0.000694603 -6.64508e-05 -1.17261e-06
-6.64508e-05 5.39482e-05 4.64284e-08
-1.17261e-06 4.64284e-08 -6.15048e-05
0.000806527 -1.23772e-05 -1.24183e-06
-1.23772e-05 0.000117454 1.0169e-06
-1.24183e-06 1.0169e-06 1.44031e-05
0.000736386 2.08925e-06 1.57357e-07
2.08925e-06 6.15891e-05 9.31166e-07
1.57357e-07 9.31166e-07 -7.42591e-06
0.000660625 1.64622e-05 -1.01342e-06
1.64622e-05 3.14209e-05 2.66047e-06
-1.01342e-06 2.66047e-06 -6.43184e-05
0.00203665 -0.000143325 8.76945e-07
-0.000143325 0.000115893 4.05781e-07
8.76945e-07 4.05781e-07 8.542e-05
0.000727875 4.19149e-06 7.50686e-07
4.19149e-06 6.81751e-05 -5.22231e-07
7.50686e-07 -5.22231e-07 -2.12129e-05
0.000681684 1.0538e-05 8.73515e-07
1.0538e-05 4.19462e-05 -1.7197e-07
8.73515e-07 -1.7197e-07 -5.58924e-05
0.00067628 6.22238e-05 -1.27435e-07
6.22238e-05 5.01342e-05 1.41913e-06
-1.27435e-07 1.41913e-06 -5.30343e-05
0.00191063 -0.000170733 -2.28237e-06
-0.000170733 3.70879e-05 2.22135e-08
-2.28237e-06 2.22135e-08 -2.73873e-06
0.00194609 -0.00033603 1.29798e-06
-0.00033603 9.33385e-05 -3.79074e-07
1.29798e-06 -3.79074e-07 -2.37704e-06
0.001107 -0.000212854 -6.86856e-07
-0.000212854 0.000212693 -4.82481e-07
-6.86856e-07 -4.82481e-07 1.39082e-05
0.00238616 -0.000382819 -2.6547e-06
-0.000382819 0.000590776 1.16347e-06
-2.6547e-06 1.16347e-06 0.000396412
0.00100507 -4.50213e-05 -5.13636e-07
-4.50213e-05 0.000230311 2.07403e-07
-5.13636e-07 2.07403e-07 0.000116743
0.000689676 -5.58302e-05 -5.51607e-07
-5.58302e-05 3.43399e-05 8.82951e-07
-5.51607e-07 8.82951e-07 -7.85017e-05
0.000919054 -0.000178623 3.0334e-06
-0.000178623 0.000240123 -7.61393e-07
3.0334e-06 -7.61393e-07 1.98387e-05
0.000999324 -0.00010152 7.60678e-07
-0.00010152 0.000255728 -4.34211e-07
7.60678e-07 -4.34211e-07 8.55186e-05
0.00210346 -0.000123816 -1.3175e-05
-0.000123816 0.000128269 3.50108e-06
-1.3175e-05 3.50108e-06 9.69986e-05
0.0021287 -0.000282467 -9.79664e-06
-0.000282467 9.05176e-05 8.59585e-07
-9.79664e-06 8.59585e-07 0.000103917
0.00241502 -0.000399235 -8.76121e-06
-0.000399235 0.000474066 -4.37188e-06
-8.76121e-06 -4.37188e-06 0.000320492
0.0015491 -0.000309133 -2.11044e-06
-0.000309133 0.000396347 1.86424e-06
-2.11044e-06 1.86424e-06 0.000200427
0.00066918 2.17946e-05 -6.03403e-07
2.17946e-05 4.84671e-05 -2.14812e-06
-6.03403e-07 -2.14812e-06 -6.41866e-05
0.00067715 -6.26192e-05 1.13695e-06
-6.26192e-05 5.36011e-05 -2.99735e-06
1.13695e-06 -2.99735e-06 -6.46459e-05
0.000685034 -5.70498e-05 1.01732e-06
-5.70498e-05 6.60849e-05 5.95579e-07
1.01732e-06 5.95579e-07 -5.60292e-05
0.000580919 -3.6852e-05 1.11485e-06
-3.6852e-05 0.000102781 -2.60262e-07
1.11485e-06 -2.60262e-07 -0.000152235
0.000480371 -0.000172185 2.55265e-05
-0.000172185 -0.00199763 -5.28387e-07
2.55265e-05 -5.28387e-07 -0.00248353
0.000998327 3.27451e-05 1.12437e-06
3.27451e-05 0.000221531 -2.23102e-06
1.12437e-06 -2.23102e-06 0.00012085
0.000463568 0.00010937 2.97217e-06
0.00010937 -7.60588e-05 1.09489e-06
2.97217e-06 1.09489e-06 -0.000221572
0.00166366 0.000123465 2.22816e-05
0.000123465 -4.53727e-05 2.57814e-06
2.22816e-05 2.57814e-06 -5.21979e-05
0.00206677 0.000303363 7.03426e-06
0.000303363 0.000184666 1.6118e-06
7.03426e-06 1.6118e-06 8.57313e-05
0.0015213 0.000312859 5.13226e-06
0.000312859 0.000138896 3.39423e-06
5.13226e-06 3.39423e-06 -8.16739e-05
0.000694378 0.000174365 4.66099e-06
0.000174365 -1.34366e-05 1.44272e-06
4.66099e-06 1.44272e-06 -0.000240615
0.0024804 0.00026147 2.91837e-05
0.00026147 0.00012989 6.18841e-06
2.91837e-05 6.18841e-06 -0.000186874
0.00101647 7.87665e-05 1.10431e-06
7.87665e-05 0.000244679 -4.38665e-07
1.10431e-06 -4.38665e-07 0.000123135
0.00232858 0.000224685 -7.9021e-06
0.000224685 0.000329042 -1.78669e-06
-7.9021e-06 -1.78669e-06 0.000337687
0.00106059 0.000182217 7.36293e-07
0.000182217 0.000248156 -2.93221e-07
7.36293e-07 -2.93221e-07 8.22473e-05
0.00118879 0.000250983 -2.6906e-07
0.000250983 0.000157863 -5.73194e-08
-2.6906e-07 -5.73194e-08 -7.88209e-05
0.00142376 0.000376155 -3.02664e-06
0.000376155 -7.77045e-05 -1.55525e-06
-3.02664e-06 -1.55525e-06 -0.000247915
0.00290917 -0.000144974 -7.16232e-05
-0.000144974 -0.000465287 -2.25741e-05
-7.16232e-05 -2.25741e-05 -0.00137028
0.00438861 0.000335204 2.96536e-07
0.000335204 0.00048739 -1.82121e-05
2.96536e-07 -1.82121e-05 -0.000255177
0.000180842 0.000231751 3.1523e-06
0.000231751 -0.000538379 6.94506e-06
3.1523e-06 6.94506e-06 -0.000691934
-0.000751537 -0.000323063 7.76064e-05
-0.000323063 0.000453595 2.73032e-05
7.76064e-05 2.73032e-05 -0.000284573
-0.000664557 -0.00107999 -2.82231e-05
-0.00107999 -0.00146283 -4.57966e-05
-2.82231e-05 -4.57966e-05 0.000262295
0.00120174 0.000135554 -3.35271e-06
0.000135554 0.000350283 -3.74029e-06
-3.35271e-06 -3.74029e-06 0.000231039
0.000446082 0.000220805 1.92533e-05
0.000220805 0.000933044 -3.11884e-05
1.92533e-05 -3.11884e-05 0.000242314
0.00122488 -0.000409807 -6.92864e-05
-0.000409807 0.00124758 -8.60398e-05
-6.92864e-05 -8.60398e-05 0.000837187
0.00272507 0.000336923 -2.451e-05
0.000336923 0.000603449 -7.99932e-06
-2.451e-05 -7.99932e-06 0.000616109
0.00114358 0.000123831 -1.14486e-05
0.000123831 0.000289636 -2.53334e-06
-1.14486e-05 -2.53334e-06 0.000113669
0.000996349 0.000365889 -1.77186e-05
0.000365889 -5.44975e-06 -1.04434e-05
-1.77186e-05 -1.04434e-05 -0.000259701
-0.000190832 0.00027884 1.90558e-05
0.00027884 -0.00074243 5.117e-05
1.90558e-05 5.117e-05 -0.000795782
0.00851117 0.000203521 -4.02544e-05
0.000203521 0.0028521 -2.38129e-05
-4.02544e-05 -2.38129e-05 0.00140654
0.00374401 0.000625397 -5.80263e-06
0.000625397 0.000828765 1.17041e-05
-5.80263e-06 1.17041e-05 -0.000393996
0.000800624 -0.000897566 7.57201e-05
-0.000897566 -0.000454023 6.59146e-05
7.57201e-05 6.59146e-05 2.92461e-05
0.00200334 -0.000574035 -9.58376e-06
-0.000574035 -0.0016585 9.54068e-05
-9.58376e-06 9.54068e-05 -0.0002765
0.000785668 -1.92911e-05 1.15603e-06
-1.92911e-05 9.86722e-05 -8.9441e-07
1.15603e-06 -8.9441e-07 1.07357e-05
0.000902226 3.92441e-05 5.43713e-07
3.92441e-05 0.000152642 5.7011e-07
5.43713e-07 5.7011e-07 6.29798e-05
0.00121571 8.7788e-05 -2.00741e-06
8.7788e-05 0.000331713 -2.79741e-06
-2.00741e-06 -2.79741e-06 0.000258213
0.000718393 3.54955e-06 1.5343e-07
3.54955e-06 4.62363e-05 -1.52411e-07
1.5343e-07 -1.52411e-07 -2.99052e-05
0.00078928 2.32267e-05 -3.14773e-07
2.32267e-05 8.3089e-05 -4.94456e-07
-3.14773e-07 -4.94456e-07 -5.73079e-06
0.000655392 -2.45007e-05 -6.82421e-07
-2.45007e-05 1.60303e-06 4.48486e-08
-6.82421e-07 4.48486e-08 -8.24296e-05
0.000859285 1.08704e-05 -4.54619e-07
1.08704e-05 0.000111801 3.67111e-07
-4.54619e-07 3.67111e-07 2.73361e-05
0.000824604 -1.44681e-05 -4.51181e-07
-1.44681e-05 8.51222e-05 7.88013e-07
-4.51181e-07 7.88013e-07 3.89419e-06
0.000597214 -1.97297e-06 4.67008e-07
-1.97297e-06 -3.14596e-05 6.07383e-07
4.67008e-07 6.07383e-07 -0.000104423
0.000846215 9.44454e-06 -4.53324e-08
9.44454e-06 0.000103497 -1.14702e-07
-4.53324e-08 -1.14702e-07 1.75485e-05
0.000864129 8.34947e-06 4.29152e-08
8.34947e-06 0.000116015 3.04182e-07
4.29152e-08 3.04182e-07 2.78132e-05
0.000765829 1.83698e-05 6.12748e-07
1.83698e-05 7.05516e-05 -3.07999e-07
6.12748e-07 -3.07999e-07 -2.19429e-05
0.000695149 1.33511e-05 -4.33766e-08
1.33511e-05 1.43145e-05 4.537e-08
-4.33766e-08 4.537e-08 -6.56124e-05
0.000955373 8.64372e-06 9.27234e-08
8.64372e-06 0.000160445 -1.07829e-06
9.27234e-08 -1.07829e-06 7.65668e-05
0.000597907 3.7439e-05 -1.37105e-06
3.7439e-05 -3.80426e-05 -5.31985e-06
-1.37105e-06 -5.31985e-06 -0.000119279
0.000832607 -6.49187e-05 -2.88767e-08
-6.49187e-05 9.47308e-05 -5.80923e-07
-2.88767e-08 -5.80923e-07 1.76785e-06
0.000853072 -5.27395e-05 -6.29745e-07
-5.27395e-05 0.000123149 -6.20074e-07
-6.29745e-07 -6.20074e-07 2.87429e-05
0.000846732 -1.62619e-05 -5.01754e-07
-1.62619e-05 0.000118915 -2.73284e-07
-5.01754e-07 -2.73284e-07 2.8325e-05
0.000869591 3.57352e-05 -5.12995e-07
3.57352e-05 0.000122113 -2.81398e-07
-5.12995e-07 -2.81398e-07 3.7213e-05
0.000822619 1.71176e-05 -7.99599e-07
1.71176e-05 0.000106531 -1.28262e-06
-7.99599e-07 -1.28262e-06 7.76371e-06
0.000784587 4.29229e-05 6.79507e-07
4.29229e-05 8.29893e-05 -8.88426e-07
6.79507e-07 -8.88426e-07 -3.04889e-06
0.000649041 1.8846e-05 5.92885e-07
1.8846e-05 -1.15681e-05 -1.51367e-06
5.92885e-07 -1.51367e-06 -8.87746e-05
0.000682027 4.57118e-05 1.63511e-06
4.57118e-05 3.39508e-05 7.47046e-07
1.63511e-06 7.47046e-07 -5.39634e-05
0.000727855 -4.80116e-06 1.89734e-08
-4.80116e-06 4.68523e-05 -1.67136e-07
1.89734e-08 -1.67136e-07 -2.7746e-05
0.000752192 -1.15071e-05 -1.78381e-07
-1.15071e-05 6.86751e-05 -8.26734e-11
-1.78381e-07 -8.26734e-11 -1.4146e-05
0.000726618 -1.37612e-05 -1.25322e-06
-1.37612e-05 3.38396e-05 4.42477e-07
-1.25322e-06 4.42477e-07 -2.8199e-05
0.000768329 -2.34792e-06 9.12975e-07
-2.34792e-06 6.50152e-05 -1.77552e-07
9.12975e-07 -1.77552e-07 -1.46912e-05
0.000698243 -4.49303e-05 -2.40601e-08
-4.49303e-05 2.25446e-05 8.02886e-08
-2.40601e-08 8.02886e-08 -4.52418e-05
0.000708362 1.09109e-05 -1.02591e-06
1.09109e-05 1.15427e-05 1.69262e-06
-1.02591e-06 1.69262e-06 -3.07793e-05
0.000605144 9.72076e-07 7.34192e-07
9.72076e-07 -2.27818e-05 -2.35864e-07
7.34192e-07 -2.35864e-07 -9.77117e-05
0.000694106 7.7686e-06 3.22348e-07
7.7686e-06 5.59732e-06 -2.42408e-08
3.22348e-07 -2.42408e-08 -3.68645e-05
0.00136186 1.66327e-05 -2.86045e-06
1.66327e-05 0.000370996 4.97745e-06
-2.86045e-06 4.97745e-06 0.000363891
0.000681704 9.45782e-06 1.91128e-07
9.45782e-06 -1.97521e-07 -1.61531e-06
1.91128e-07 -1.61531e-06 -4.22138e-05
0.00100956 8.82796e-06 -1.52285e-06
8.82796e-06 0.0001675 7.55097e-07
-1.52285e-06 7.55097e-07 0.000159052
0.000887114 3.88296e-06 -3.42276e-06
3.88296e-06 9.91259e-05 4.74514e-06
-3.42276e-06 4.74514e-06 0.000110095
0.000660146 1.67653e-06 5.22698e-08
1.67653e-06 -3.36175e-05 -3.48117e-06
5.22698e-08 -3.48117e-06 -4.34256e-05
0.00225163 4.56939e-08 3.4125e-06
4.56939e-08 0.000878992 -1.40422e-09
3.4125e-06 -1.40422e-09 0.000897482
0.000900535 -3.7464e-06 -3.27056e-06
-3.7464e-06 0.000106404 -4.75201e-06
-3.27056e-06 -4.75201e-06 0.000117849
0.000745972 6.4154e-05 1.04987e-06
6.4154e-05 6.68677e-05 -5.11765e-07
1.04987e-06 -5.11765e-07 -1.27704e-06
0.000702805 1.1907e-05 -4.58175e-07
1.1907e-05 1.14052e-05 -1.91657e-06
-4.58175e-07 -1.91657e-06 -2.31716e-05
0.000692527 2.46556e-06 4.06902e-07
2.46556e-06 5.84016e-06 1.50958e-08
4.06902e-07 1.50958e-08 -2.90845e-05
0.000664518 6.91189e-06 -6.73869e-08
6.91189e-06 -3.14026e-05 -3.49647e-06
-6.73869e-08 -3.49647e-06 -3.68444e-05
0.000708498 -9.45871e-06 -8.04995e-07
-9.45871e-06 1.42728e-05 2.03109e-06
-8.04995e-07 2.03109e-06 -2.21492e-05
0.000654345 1.32439e-05 -6.49611e-10
1.32439e-05 -3.58718e-05 -7.48078e-07
-6.49611e-10 -7.48078e-07 -4.20768e-05
0.00208594 2.08203e-05 8.42003e-06
2.08203e-05 0.000787802 -4.59116e-06
8.42003e-06 -4.59116e-06 0.000807256
0.00127577 2.7429e-05 -9.04981e-07
2.7429e-05 0.000323212 2.17121e-06
-9.04981e-07 2.17121e-06 0.00031823
0.00153149 2.71269e-05 3.55221e-07
2.71269e-05 0.000475571 1.46057e-06
3.55221e-07 1.46057e-06 0.000489767
0.000958301 2.99888e-05 -1.66437e-05
2.99888e-05 0.000153621 7.43393e-06
-1.66437e-05 7.43393e-06 0.000162133
0.00118089 5.78945e-05 3.97517e-05
5.78945e-05 -0.00051355 1.29174e-05
3.97517e-05 1.29174e-05 -0.00059165
0.00183801 5.29738e-06 2.08273e-06
5.29738e-06 1.38998e-05 1.02898e-07
2.08273e-06 1.02898e-07 -1.50131e-05
0.00183056 4.67046e-05 2.2766e-05
4.67046e-05 0.000138033 -1.07437e-06
2.2766e-05 -1.07437e-06 0.000137067
0.000808202 4.21338e-05 9.64518e-06
4.21338e-05 -0.000795291 -5.16568e-06
9.64518e-06 -5.16568e-06 -0.00106907
0.00175361 1.47251e-05 7.78161e-06
1.47251e-05 -0.000103456 1.09789e-06
7.78161e-06 1.09789e-06 -0.000121844
0.00211926 -1.22619e-05 -1.41893e-06
-1.22619e-05 0.000215259 -5.3083e-07
-1.41893e-06 -5.3083e-07 0.000187344
0.00297142 -2.86685e-05 -5.0717e-05
-2.86685e-05 0.000581895 5.50338e-06
-5.0717e-05 5.50338e-06 0.000569033
0.00276757 -0.000100293 0.000141228
-0.000100293 0.000251422 -1.15259e-05
0.000141228 -1.15259e-05 8.17437e-06
0.00766686 -0.000229337 -1.34549e-05
-0.000229337 0.0019683 1.68986e-05
-1.34549e-05 1.68986e-05 0.000852191
0.00626696 0.00095784 0.000126731
0.00095784 0.00309367 -5.38461e-05
0.000126731 -5.38461e-05 0.00326454
0.00252007 0.000938239 -3.34995e-06
0.000938239 0.0013748 1.5963e-05
-3.34995e-06 1.5963e-05 0.00239216
0.0004666 -6.45602e-05 1.7392e-06
-6.45602e-05 -8.48691e-05 -1.49446e-06
1.7392e-06 -1.49446e-06 -0.000166012
0.000735072 -8.64727e-06 9.23056e-07
-8.64727e-06 5.67265e-05 -6.43796e-08
9.23056e-07 -6.43796e-08 -7.15399e-06
0.000741724 -6.7017e-05 -1.23058e-06
-6.7017e-05 6.56442e-05 1.7428e-06
-1.23058e-06 1.7428e-06 -3.13965e-06
0.000694425 -2.43906e-05 -3.64638e-07
-2.43906e-05 4.34827e-05 1.22813e-07
-3.64638e-07 1.22813e-07 -3.88693e-05
0.000810961 6.13261e-05 1.32454e-07
6.13261e-05 0.000123838 2.17166e-07
1.32454e-07 2.17166e-07 2.27696e-05
0.000898628 0.000106845 8.86799e-07
0.000106845 0.00015823 6.11976e-07
8.86799e-07 6.11976e-07 6.26838e-05
0.000805274 -1.17349e-05 1.08412e-06
-1.17349e-05 0.000105538 -1.93702e-06
1.08412e-06 -1.93702e-06 2.08117e-05
0.000676429 -2.91697e-05 -6.29344e-07
-2.91697e-05 3.41205e-05 6.54294e-07
-6.29344e-07 6.54294e-07 -4.79768e-05
0.00200743 -0.000125622 7.18449e-06
-0.000125622 0.000123699 -1.63598e-07
7.18449e-06 -1.63598e-07 9.27815e-05
0.00204619 -0.000179653 1.5291e-06
-0.000179653 8.43467e-05 -1.14149e-06
1.5291e-06 -1.14149e-06 4.35138e-05
0.00160264 -0.000313483 -1.00586e-07
-0.000313483 -8.56893e-05 1.46659e-06
-1.00586e-07 1.46659e-06 -0.000175143
0.00110372 -0.000235872 3.32504e-06
-0.000235872 0.000192446 3.02304e-06
3.32504e-06 3.02304e-06 -5.59148e-06
0.00230573 -0.000379365 3.07702e-06
-0.000379365 0.00054515 6.37031e-07
3.07702e-06 6.37031e-07 0.000346844
0.000945688 -0.000183534 -1.01897e-06
-0.000183534 0.000251855 -1.3781e-06
-1.01897e-06 -1.3781e-06 3.37538e-05
0.00153379 -0.00016246 -1.20189e-06
-0.00016246 0.000554415 -3.82469e-07
-1.20189e-06 -3.82469e-07 0.000371788
0.000786665 -8.6701e-05 -1.89983e-06
-8.6701e-05 9.19331e-05 1.39999e-06
-1.89983e-06 1.39999e-06 -2.80592e-05
0.00078992 -1.95289e-05 -2.54071e-07
-1.95289e-05 0.000106495 2.17591e-06
-2.54071e-07 2.17591e-06 8.41161e-06
0.000988201 -5.37915e-06 -2.03819e-06
-5.37915e-06 0.000214067 -9.86805e-07
-2.03819e-06 -9.86805e-07 0.000104696
0.00100203 -8.72594e-06 9.52777e-07
-8.72594e-06 0.00022447 9.78472e-07
9.52777e-07 9.78472e-07 0.000135847
0.000707593 0.000109337 1.9862e-06
0.000109337 7.00983e-05 3.23294e-06
1.9862e-06 3.23294e-06 -3.30477e-05
0.00168259 -0.000123361 -2.77395e-07
-0.000123361 -9.09394e-05 -1.14665e-06
-2.77395e-07 -1.14665e-06 -0.000117243
0.000736638 3.10886e-05 -8.89973e-07
3.10886e-05 8.55455e-05 1.84217e-07
-8.89973e-07 1.84217e-07 -2.52941e-05
0.000814804 -5.274e-05 -7.03609e-07
-5.274e-05 0.000126345 4.27556e-08
-7.03609e-07 4.27556e-08 1.31451e-05
0.00192164 -0.00028335 1.47752e-07
-0.00028335 2.41471e-06 -1.63696e-06
1.47752e-07 -1.63696e-06 -2.14366e-06
0.00139998 -0.000335255 -5.10566e-07
-0.000335255 -5.16826e-05 2.39965e-06
-5.10566e-07 2.39965e-06 -0.000186224
0.00158672 -0.000312473 1.81783e-06
-0.000312473 0.000410937 -1.50358e-06
1.81783e-06 -1.50358e-06 0.000200919
0.000885037 -6.50682e-05 5.54904e-07
-6.50682e-05 0.000179745 -1.14997e-06
5.54904e-07 -1.14997e-06 4.76932e-05
0.00093973 -7.39221e-05 -2.52218e-07
-7.39221e-05 0.000284622 2.32339e-07
-2.52218e-07 2.32339e-07 4.0571e-05
0.00296802 -0.000189978 -1.47274e-05
-0.000189978 0.000749835 7.02354e-06
-1.47274e-05 7.02354e-06 0.000659865
0.00283291 -0.000382405 -1.95943e-05
-0.000382405 0.000555922 2.12815e-06
-1.95943e-05 2.12815e-06 0.00057914
0.000295257 -0.00029188 -5.64833e-06
-0.00029188 -0.000464181 -6.299e-07
-5.64833e-06 -6.299e-07 -0.000610837
0.00080211 -0.000193314 -3.39264e-06
-0.000193314 8.00574e-05 9.76044e-06
-3.39264e-06 9.76044e-06 -0.000141522
0.000660597 -9.71208e-05 5.66258e-07
-9.71208e-05 3.85304e-05 -1.35062e-06
5.66258e-07 -1.35062e-06 -7.82012e-05
0.000715414 -5.76965e-05 1.76954e-06
-5.76965e-05 8.10869e-05 -2.41398e-06
1.76954e-06 -2.41398e-06 -4.29467e-05
0.000800482 -2.37602e-05 -4.008e-08
-2.37602e-05 0.000177384 -4.21214e-07
-4.008e-08 -4.21214e-07 -8.28072e-06
-0.00401073 -2.0494e-05 0.000171546
-2.0494e-05 -0.00213145 1.477e-07
0.000171546 1.477e-07 -0.00173375
0.0092225 -0.000102264 -1.87863e-05
-0.000102264 0.00293637 3.06343e-06
-1.87863e-05 3.06343e-06 0.00233098
0.000938886 6.54282e-05 2.58201e-06
6.54282e-05 0.000204863 -4.05658e-08
2.58201e-06 -4.05658e-08 8.61274e-05
0.000718644 0.0001559 4.14342e-06
0.0001559 6.42436e-05 -6.525e-07
4.14342e-06 -6.525e-07 -9.71893e-05
0.00205362 0.000210878 1.66184e-05
0.000210878 0.000178585 1.1417e-05
1.66184e-05 1.1417e-05 0.000198215
0.00226352 0.00042801 6.02991e-06
0.00042801 0.000341126 4.46601e-06
6.02991e-06 4.46601e-06 0.000178852
0.00131881 0.00026932 6.63243e-06
0.00026932 0.000237192 1.71847e-06
6.63243e-06 1.71847e-06 -1.9032e-06
0.00698564 0.000338186 6.91271e-05
0.000338186 0.00163569 1.15982e-05
6.91271e-05 1.15982e-05 0.000584862
0.00622477 0.000486915 -0.000108032
0.000486915 0.00116627 -2.83121e-05
-0.000108032 -2.83121e-05 0.00053699
-0.000709663 0.000143456 2.53196e-06
0.000143456 -0.000945234 -1.95306e-05
2.53196e-06 -1.95306e-05 -0.00111207
0.00423206 -0.000754491 -1.06378e-05
-0.000754491 0.00216378 2.77746e-05
-1.06378e-05 2.77746e-05 0.00189622
-0.00595459 -0.00109638 -0.000183182
-0.00109638 -0.00349445 -0.000163194
-0.000183182 -0.000163194 -0.00161246
0.000953555 0.000131036 5.76052e-08
0.000131036 0.000221819 -1.3403e-06
5.76052e-08 -1.3403e-06 0.000101814
-0.00246526 -0.000301163 5.46558e-05
-0.000301163 -0.0015399 5.39722e-06
5.46558e-05 5.39722e-06 -0.0016104
-0.00122448 -0.000345851 -6.00768e-05
-0.000345851 0.000321477 -2.69021e-05
-6.00768e-05 -2.69021e-05 -0.000333662
0.00253273 0.000309515 -4.86004e-06
0.000309515 0.000470949 -1.65431e-06
-4.86004e-06 -1.65431e-06 0.00050646
0.000898583 0.000142447 -1.61152e-06
0.000142447 0.00018097 -1.84263e-07
-1.61152e-06 -1.84263e-07 -2.35411e-06
0.00068639 0.000304094 3.99673e-06
0.000304094 -0.000135499 1.81418e-06
3.99673e-06 1.81418e-06 -0.000385433
0.000665093 0.000223045 1.0968e-05
0.000223045 -0.00021924 9.93147e-06
1.0968e-05 9.93147e-06 -0.000205943
0.00771275 0.000128359 -2.19418e-05
0.000128359 0.00212505 -1.65419e-05
-2.19418e-05 -1.65419e-05 0.000580899
0.00638591 0.000802696 -4.28301e-05
0.000802696 0.00167809 -1.75037e-05
-4.28301e-05 -1.75037e-05 0.000853056
0.00715069 -0.00103352 4.84153e-05
-0.00103352 0.00335553 -2.56826e-05
4.84153e-05 -2.56826e-05 0.00351486
0.00172158 -0.000683883 6.52724e-05
-0.000683883 -0.00196039 0.000137601
6.52724e-05 0.000137601 -0.000491616
0.00132656 0.000103426 -1.14156e-05
0.000103426 0.000449049 -6.84273e-06
-1.14156e-05 -6.84273e-06 0.000347951
-0.00323541 -2.88921e-06 -8.68883e-05
-2.88921e-06 2.65292e-05 -3.14477e-05
-8.68883e-05 -3.14477e-05 -0.00119769
0.00217744 7.48293e-05 -9.5651e-05
7.48293e-05 0.000609578 -0.000121993
-9.5651e-05 -0.000121993 -0.000618383
-4.22603e-05 0.000249343 -1.90597e-05
0.000249343 -0.000549858 3.2762e-07
-1.90597e-05 3.2762e-07 -0.000555928
0.00162012 0.000328219 -3.75819e-05
0.000328219 0.000635326 -1.04914e-05
-3.75819e-05 -1.04914e-05 0.000433047
0.00286126 0.000240333 -6.94339e-05
0.000240333 0.00122522 -4.93174e-06
-6.94339e-05 -4.93174e-06 0.00100003
0.00379049 0.000738945 -6.63477e-05
0.000738945 0.000516516 -1.02093e-05
-6.63477e-05 -1.02093e-05 0.000110895
-0.00106683 0.000251451 9.08115e-05
0.000251451 -0.000989621 6.90589e-05
9.08115e-05 6.90589e-05 -0.00322957
0.00753686 -0.000992674 -1.04862e-05
-0.000992674 0.00211047 0.000103213
-1.04862e-05 0.000103213 0.00207227
0.00247658 -0.000406656 -1.26299e-05
-0.000406656 -0.00204 -2.88679e-05
-1.26299e-05 -2.88679e-05 -0.000677639
0.000947725 5.61717e-05 1.94269e-06
5.61717e-05 0.000186389 3.09286e-06
1.94269e-06 3.09286e-06 9.16497e-05
0.00113078 8.40522e-05 3.45521e-06
8.40522e-05 0.00028222 2.37815e-06
3.45521e-06 2.37815e-06 0.000207587
0.000446329 6.08118e-05 -6.19154e-07
6.08118e-05 -9.77923e-05 -7.36117e-06
-6.19154e-07 -7.36117e-06 -0.000153815
0.000584922 4.28545e-05 7.69587e-07
4.28545e-05 -3.90316e-05 -1.33749e-07
7.69587e-07 -1.33749e-07 -0.000111573
0.000822422 3.77156e-05 -7.50742e-07
3.77156e-05 0.000108684 -6.17927e-07
-7.50742e-07 -6.17927e-07 1.35989e-05
0.000842277 -1.36537e-05 -3.56954e-07
-1.36537e-05 0.000103984 7.93157e-07
-3.56954e-07 7.93157e-07 1.63453e-05
0.000841233 -1.08629e-05 3.53702e-07
-1.08629e-05 0.000103028 -1.24623e-07
3.53702e-07 -1.24623e-07 1.52728e-05
0.000713575 8.24973e-06 -2.95296e-07
8.24973e-06 2.40583e-05 2.54291e-06
-2.95296e-07 2.54291e-06 -5.48345e-05
0.000846247 3.40863e-05 1.6799e-07
3.40863e-05 0.000119967 -6.17838e-07
1.6799e-07 -6.17838e-07 2.52887e-05
0.000901708 8.47789e-06 -5.62223e-08
8.47789e-06 0.000129749 3.17256e-07
-5.62223e-08 3.17256e-07 4.58106e-05
0.00085955 -3.25485e-05 -4.51572e-08
-3.25485e-05 0.00011314 4.21143e-07
-4.51572e-08 4.21143e-07 1.81511e-05
0.000437358 2.20273e-05 5.00264e-07
2.20273e-05 -0.000122026 -5.16745e-07
5.00264e-07 -5.16745e-07 -0.000200455
0.00036922 4.57618e-06 1.44186e-06
4.57618e-06 -0.000116631 -4.61497e-06
1.44186e-06 -4.61497e-06 -0.000188077
0.000949833 -1.47538e-05 -1.39007e-06
-1.47538e-05 0.000161402 -3.22951e-06
-1.39007e-06 -3.22951e-06 7.09164e-05
0.000972527 -1.40113e-06 2.07146e-07
-1.40113e-06 0.00018976 -1.16356e-06
2.07146e-07 -1.16356e-06 8.45064e-05
0.00085331 -4.42344e-05 -5.79109e-09
-4.42344e-05 0.000125725 -3.87771e-07
-5.79109e-09 -3.87771e-07 3.24349e-05
0.000882916 4.948e-06 -6.85837e-07
4.948e-06 0.000125435 8.03773e-07
-6.85837e-07 8.03773e-07 4.26237e-05
0.000841761 -2.44414e-05 4.88697e-07
-2.44414e-05 0.000110415 -2.9567e-07
4.88697e-07 -2.9567e-07 1.58249e-05
0.000791552 3.88808e-05 -1.6917e-07
3.88808e-05 8.47645e-05 -6.26943e-08
-1.6917e-07 -6.26943e-08 -3.20218e-07
0.000732064 -8.32371e-06 -1.94252e-07
-8.32371e-06 3.53279e-05 5.10123e-07
-1.94252e-07 5.10123e-07 -4.1825e-05
0.000714666 4.92966e-05 1.09396e-06
4.92966e-05 4.58808e-05 -8.3169e-08
1.09396e-06 -8.3169e-08 -3.84647e-05
0.000609939 1.28372e-05 7.76942e-09
1.28372e-05 -2.24284e-05 -2.40469e-06
7.76942e-09 -2.40469e-06 -0.000111036
0.000697914 4.21701e-06 1.41035e-06
4.21701e-06 2.58437e-05 -1.28786e-06
1.41035e-06 -1.28786e-06 -4.94459e-05
0.000839822 1.86386e-05 2.86168e-06
1.86386e-05 0.000104246 -2.24422e-06
2.86168e-06 -2.24422e-06 1.36017e-05
0.000300956 -3.36211e-05 7.09064e-07
-3.36211e-05 -0.000153262 1.91763e-07
7.09064e-07 1.91763e-07 -0.000284922
0.0004046 3.73744e-05 1.47263e-07
3.73744e-05 -0.000108204 -1.41843e-07
1.47263e-07 -1.41843e-07 -0.000204524
0.000756867 3.76022e-05 4.38566e-07
3.76022e-05 7.50049e-05 4.76497e-07
4.38566e-07 4.76497e-07 -1.30042e-05
0.0007099 2.93361e-05 1.64166e-07
2.93361e-05 4.03957e-05 3.24734e-07
1.64166e-07 3.24734e-07 -3.56265e-05
0.00075751 2.71889e-06 -5.31739e-08
2.71889e-06 7.07681e-05 1.80857e-09
-5.31739e-08 1.80857e-09 -8.97573e-06
0.00069831 1.90538e-05 -6.13288e-07
1.90538e-05 2.24035e-05 4.26859e-07
-6.13288e-07 4.26859e-07 -4.09133e-05
0.000784943 3.65316e-06 2.60934e-07
3.65316e-06 8.55621e-05 3.29991e-07
2.60934e-07 3.29991e-07 3.79439e-06
0.000740793 -1.72667e-05 -2.05258e-07
-1.72667e-05 4.62328e-05 6.79395e-09
-2.05258e-07 6.79395e-09 -1.88333e-05
0.000686501 3.09714e-05 -8.45648e-07
3.09714e-05 -3.66812e-07 1.69093e-06
-8.45648e-07 1.69093e-06 -4.32479e-05
0.000652335 -3.67004e-05 9.22953e-07
-3.67004e-05 -6.67883e-06 -4.16804e-07
9.22953e-07 -4.16804e-07 -7.32866e-05
0.000695444 1.38389e-05 -1.77819e-07
1.38389e-05 4.27476e-06 -1.82195e-08
-1.77819e-07 -1.82195e-08 -3.81077e-05
0.00136023 2.50749e-05 -4.91379e-06
2.50749e-05 0.000372241 4.93483e-06
-4.91379e-06 4.93483e-06 0.000364667
0.00068715 -4.34074e-06 7.74256e-07
-4.34074e-06 1.41609e-06 -1.6217e-06
7.74256e-07 -1.6217e-06 -4.08942e-05
0.00100637 1.61805e-05 -2.40888e-06
1.61805e-05 0.000167334 7.26057e-07
-2.40888e-06 7.26057e-07 0.0001585
0.000835255 1.34643e-05 -4.93107e-07
1.34643e-05 7.10373e-05 1.84409e-06
-4.93107e-07 1.84409e-06 8.17014e-05
0.000647543 7.72473e-06 2.90109e-07
7.72473e-06 -4.01048e-05 -3.52553e-06
2.90109e-07 -3.52553e-06 -5.02642e-05
0.00225874 1.09623e-05 3.04712e-06
1.09623e-05 0.000883813 3.23524e-08
3.04712e-06 3.23524e-08 0.000902025
0.00225463 1.24527e-06 1.99804e-07
1.24527e-06 0.000880734 -4.8899e-06
1.99804e-07 -4.8899e-06 0.00089916
0.00104065 6.14594e-05 -1.31849e-06
6.14594e-05 0.000227627 -1.16082e-06
-1.31849e-06 -1.16082e-06 0.000162365
0.000715146 1.0959e-05 -6.65591e-07
1.0959e-05 1.77566e-05 -2.02566e-06
-6.65591e-07 -2.02566e-06 -1.77535e-05
0.000722363 1.14466e-06 6.35e-07
1.14466e-06 5.21558e-05 7.09209e-07
6.35e-07 7.09209e-07 -1.47804e-05
0.000663725 6.41189e-07 -1.86887e-07
6.41189e-07 -3.27567e-05 -3.55429e-06
-1.86887e-07 -3.55429e-06 -3.78834e-05
0.000699894 -4.13707e-07 2.87209e-07
-4.13707e-07 9.4874e-06 -2.95722e-08
2.87209e-07 -2.95722e-08 -2.4929e-05
0.000699918 -8.42421e-06 -6.72333e-07
-8.42421e-06 9.79355e-06 1.92699e-06
-6.72333e-07 1.92699e-06 -2.50897e-05
0.000663992 7.06267e-06 -1.50423e-07
7.06267e-06 -3.17908e-05 -9.19612e-09
-1.50423e-07 -9.19612e-09 -3.72336e-05
0.00208241 1.0025e-05 4.04839e-06
1.0025e-05 0.000783422 -4.70142e-06
4.04839e-06 -4.70142e-06 0.000803552
0.00126344 1.84266e-05 -6.11915e-07
1.84266e-05 0.000312727 2.1364e-06
-6.11915e-07 2.1364e-06 0.000309691
0.00147139 1.81268e-05 1.97417e-06
1.81268e-05 0.000436147 7.38246e-08
1.97417e-06 7.38246e-08 0.000452119
0.000914199 2.15204e-05 -1.46355e-05
2.15204e-05 0.000121837 7.26935e-06
-1.46355e-05 7.26935e-06 0.000133216
-0.00659926 0.000162242 0.000108842
0.000162242 -0.00314222 -1.3142e-06
0.000108842 -1.3142e-06 -0.00352801
-0.00184174 0.00018057 8.54273e-05
0.00018057 0.00026097 2.22594e-05
8.54273e-05 2.22594e-05 -0.000334669
0.00389949 7.80146e-05 -0.000163466
7.80146e-05 0.000721629 2.33535e-06
-0.000163466 2.33535e-06 0.000452732
0.00120897 2.19123e-05 3.39267e-05
2.19123e-05 -0.000344038 2.3151e-06
3.39267e-05 2.3151e-06 -0.000363216
0.00150482 -2.0399e-05 1.33173e-05
-2.0399e-05 -0.000188633 2.03948e-07
1.33173e-05 2.03948e-07 -0.00021401
0.000898674 2.61439e-05 1.53523e-05
2.61439e-05 -0.000564546 -2.38165e-06
1.53523e-05 -2.38165e-06 -0.000684577
0.00225449 -5.22909e-05 2.10278e-06
-5.22909e-05 0.000192721 1.9354e-06
2.10278e-06 1.9354e-06 0.000153161
0.00722058 0.000149248 1.03148e-05
0.000149248 0.00170311 -2.22129e-05
1.03148e-05 -2.22129e-05 0.000789862
-0.0035044 0.000463263 -2.9609e-05
0.000463263 -0.00126864 -2.9096e-06
-2.9609e-05 -2.9096e-06 -0.0017338
-0.00173121 0.000994229 -4.18387e-05
0.000994229 -0.00108614 1.65543e-05
-4.18387e-05 1.65543e-05 0.00042718
0.00155029 -0.000143477 4.84087e-05
-0.000143477 -0.000292265 1.24149e-05
4.84087e-05 1.24149e-05 -0.000583545
0.00811501 9.03931e-05 3.37902e-05
9.03931e-05 0.00246736 -1.31693e-05
3.37902e-05 -1.31693e-05 0.00116197
0.000463883 0.000864941 4.99435e-05
0.000864941 -0.000530839 -0.000102998
4.99435e-05 -0.000102998 0.000107324
0.00431464 0.00073017 -8.95968e-05
0.00073017 -7.31032e-05 7.06475e-05
-8.95968e-05 7.06475e-05 0.000816698
0.000739737 6.40606e-05 -1.12386e-06
6.40606e-05 8.11533e-05 -8.35774e-07
-1.12386e-06 -8.35774e-07 -2.57268e-05
0.000625487 1.03546e-05 -2.32517e-07
1.03546e-05 1.24326e-06 -6.01831e-07
-2.32517e-07 -6.01831e-07 -7.75738e-05
0.000734416 -6.98357e-05 -9.06395e-07
-6.98357e-05 6.03955e-05 1.37464e-06
-9.06395e-07 1.37464e-06 -6.45299e-06
0.00063025 1.59325e-06 1.66393e-07
1.59325e-06 1.14862e-05 1.12164e-06
1.66393e-07 1.12164e-06 -7.45038e-05
0.000769068 6.4643e-05 9.82868e-07
6.4643e-05 0.000101273 1.36717e-06
9.82868e-07 1.36717e-06 8.46475e-07
0.000894262 6.45643e-05 -5.7769e-07
6.45643e-05 0.000159211 -3.13626e-07
-5.7769e-07 -3.13626e-07 5.60451e-05
0.00082923 7.62344e-05 1.59355e-06
7.62344e-05 0.00012287 1.50645e-06
1.59355e-06 1.50645e-06 2.4966e-05
0.000725147 -3.21465e-06 9.19593e-07
-3.21465e-06 5.38622e-05 -5.62145e-07
9.19593e-07 -5.62145e-07 -3.427e-05
0.00070922 -1.80492e-05 4.39341e-07
-1.80492e-05 5.46496e-05 -8.66587e-07
4.39341e-07 -8.66587e-07 -3.34911e-05
0.000612346 -1.28097e-05 -2.11648e-07
-1.28097e-05 -7.50837e-06 1.377e-06
-2.11648e-07 1.377e-06 -8.65056e-05
0.00106145 -0.000117371 1.03017e-05
-0.000117371 -0.000425742 -3.24239e-06
1.03017e-05 -3.24239e-06 -0.00044793
0.00187643 -0.000286145 1.0426e-05
-0.000286145 7.53546e-06 -5.47084e-07
1.0426e-05 -5.47084e-07 -1.85459e-05
0.000330086 -0.000265888 9.22849e-06
-0.000265888 -0.00060655 3.64984e-06
9.22849e-06 3.64984e-06 -0.000720322
0.0015312 -0.0003104 2.34443e-06
-0.0003104 0.000380293 -2.67219e-07
2.34443e-06 -2.67219e-07 0.000158796
0.00139128 -0.000114268 7.3221e-08
-0.000114268 0.000513096 4.13388e-07
7.3221e-08 4.13388e-07 0.000284404
0.00107854 -8.93673e-05 -1.09888e-06
-8.93673e-05 0.000291151 1.15078e-07
-1.09888e-06 1.15078e-07 0.000148537
0.000914233 -4.24316e-05 -1.04653e-06
-4.24316e-05 0.000175836 9.70527e-07
-1.04653e-06 9.70527e-07 6.93088e-05
0.000734424 3.84039e-05 -1.14808e-06
3.84039e-05 8.33167e-05 2.01412e-06
-1.14808e-06 2.01412e-06 -2.47704e-05
0.00159159 -0.000155106 -2.55978e-06
-0.000155106 3.83984e-06 5.34892e-07
-2.55978e-06 5.34892e-07 -5.89785e-05
0.000637565 -3.7939e-05 -1.49861e-07
-3.7939e-05 2.75466e-05 2.83698e-08
-1.49861e-07 2.83698e-08 -9.03963e-05
0.000681769 -5.24536e-05 7.42549e-07
-5.24536e-05 6.3616e-05 -9.0839e-07
7.42549e-07 -9.0839e-07 -6.30867e-05
0.00184381 -0.000334469 4.96803e-06
-0.000334469 5.36444e-05 -1.88675e-06
4.96803e-06 -1.88675e-06 7.09651e-05
0.000435612 -0.000297569 1.60743e-06
-0.000297569 -0.000370117 1.59197e-06
1.60743e-06 1.59197e-06 -0.000510786
0.00100492 -0.000211066 4.51742e-06
-0.000211066 0.000182903 -1.97135e-06
4.51742e-06 -1.97135e-06 -4.29168e-05
0.00115373 -6.60495e-05 -4.37753e-07
-6.60495e-05 0.000365458 -1.22294e-06
-4.37753e-07 -1.22294e-06 0.00017758
0.000600713 -0.000208853 -3.56615e-06
-0.000208853 -0.000207122 -1.86782e-06
-3.56615e-06 -1.86782e-06 -0.000445176
0.00153134 -0.000284002 -2.09807e-05
-0.000284002 0.000231007 5.13563e-06
-2.09807e-05 5.13563e-06 0.000179602
0.000218339 -7.59309e-05 -1.4059e-05
-7.59309e-05 -0.000126429 2.24005e-05
-1.4059e-05 2.24005e-05 -0.000344134
0.000627754 3.38576e-05 7.94815e-08
3.38576e-05 1.705e-05 3.82683e-07
7.94815e-08 3.82683e-07 -9.68942e-05
0.000603183 -9.10334e-05 1.26342e-06
-9.10334e-05 1.56022e-05 -1.85244e-06
1.26342e-06 -1.85244e-06 -0.000112037
0.000788831 -4.29851e-05 1.08079e-06
-4.29851e-05 0.000124082 -1.38679e-06
1.08079e-06 -1.38679e-06 -1.60153e-05
0.000878635 5.87811e-05 -0.000115167
5.87811e-05 0.00216298 -6.50254e-08
-0.000115167 -6.50254e-08 0.00141611
0.00207778 -0.000171259 1.442e-05
-0.000171259 0.00139563 1.05328e-05
1.442e-05 1.05328e-05 0.00126442
0.000194399 0.000383921 -6.10408e-05
0.000383921 -0.00225007 2.60674e-05
-6.10408e-05 2.60674e-05 -0.00281342
0.000807574 0.000120276 4.18443e-06
0.000120276 0.00014821 1.85774e-06
4.18443e-06 1.85774e-06 3.04519e-05
0.00066943 0.000159653 7.19652e-06
0.000159653 7.59279e-05 4.26839e-06
7.19652e-06 4.26839e-06 -0.000111968
0.00237841 0.000280345 1.38124e-05
0.000280345 0.000370483 7.14161e-06
1.38124e-05 7.14161e-06 0.000416654
0.000805159 0.000250901 1.28819e-05
0.000250901 -4.63432e-05 7.75135e-06
1.28819e-05 7.75135e-06 -0.000292238
0.00495159 -0.000406895 4.4372e-05
-0.000406895 0.00206669 2.62522e-05
4.4372e-05 2.62522e-05 0.00215527
-0.000711831 -7.89047e-05 -6.71897e-05
-7.89047e-05 -0.00194796 -5.33506e-07
-6.71897e-05 -5.33506e-07 -0.0033398
0.00339804 0.000720408 -8.73019e-05
0.000720408 -0.000104222 -3.20767e-05
-8.73019e-05 -3.20767e-05 -0.000945709
0.00058018 0.000138986 2.6768e-05
0.000138986 -0.000174657 -1.59913e-05
2.6768e-05 -1.59913e-05 -0.000144983
-0.00428336 -0.000464992 -1.82455e-05
-0.000464992 -0.00166606 -3.92345e-05
-1.82455e-05 -3.92345e-05 -0.00176035
0.000317469 -0.000435282 6.18554e-06
-0.000435282 0.000571282 2.05642e-05
6.18554e-06 2.05642e-05 -8.80104e-05
0.00594245 -0.000894084 0.000106533
-0.000894084 0.000261392 8.89163e-05
0.000106533 8.89163e-05 0.00180467
0.000771345 8.87834e-05 3.54971e-06
8.87834e-05 0.000154054 -2.11587e-06
3.54971e-06 -2.11587e-06 4.69544e-05
-0.000767484 -8.4411e-05 -4.35388e-05
-8.4411e-05 0.000955591 -1.4738e-05
-4.35388e-05 -1.4738e-05 -8.53944e-07
0.00245436 8.50886e-05 -4.90153e-06
8.50886e-05 0.000759056 -2.98837e-05
-4.90153e-06 -2.98837e-05 -0.000508667
0.000746824 0.000232556 -8.51288e-06
0.000232556 -8.80208e-05 3.54366e-06
-8.51288e-06 3.54366e-06 -0.000144975
0.000726239 0.000184077 3.25546e-07
0.000184077 0.000185174 1.41631e-06
3.25546e-07 1.41631e-06 -2.03442e-05
0.000326108 0.000183355 3.54817e-05
0.000183355 -0.000118217 -2.4272e-05
3.54817e-05 -2.4272e-05 -0.000279208
0.00536384 0.000936795 -1.40058e-05
0.000936795 0.0014791 8.30169e-07
-1.40058e-05 8.30169e-07 0.0006961
0.00966268 2.47188e-05 4.25361e-05
2.47188e-05 0.0036561 1.29357e-05
4.25361e-05 1.29357e-05 0.00198781
0.00170771 -0.000618296 6.80438e-06
-0.000618296 -0.00115603 -1.33061e-05
6.80438e-06 -1.33061e-05 -0.000986595
0.00673775 -0.000563677 6.63578e-06
-0.000563677 0.000730716 -1.55138e-05
6.63578e-06 -1.55138e-05 0.00202038
0.000554487 0.000113601 -1.13095e-05
0.000113601 7.97366e-05 -8.10131e-06
-1.13095e-05 -8.10131e-06 -3.5182e-06
0.00190557 -2.61887e-05 -8.24415e-05
-2.61887e-05 0.000410118 -3.56426e-05
-8.24415e-05 -3.56426e-05 -0.000445104
0.00091318 5.06744e-05 -1.65107e-05
5.06744e-05 0.000247452 -6.93004e-05
-1.65107e-05 -6.93004e-05 -0.000789547
-0.000943644 1.4801e-05 -2.33503e-05
1.4801e-05 -0.000500375 -1.67384e-05
-2.33503e-05 -1.67384e-05 -0.000628965
0.00253291 0.000361732 3.13679e-06
0.000361732 0.00066974 5.26477e-05
3.13679e-06 5.26477e-05 9.88103e-05
0.00896465 0.00028584 2.81397e-05
0.00028584 0.00360775 5.64034e-07
2.81397e-05 5.64034e-07 0.0013787
-0.00672869 -0.000768699 -4.36906e-05
-0.000768699 -0.00420543 3.64861e-05
-4.36906e-05 3.64861e-05 -0.00533792
0.00517682 0.000207345 -3.95589e-07
0.000207345 -0.000712083 -9.8484e-05
-3.95589e-07 -9.8484e-05 0.000776705
0.000983302 7.29744e-05 2.13779e-06
7.29744e-05 0.000195352 5.50127e-06
2.13779e-06 5.50127e-06 0.000121999
0.000921768 9.16386e-05 -4.27509e-06
9.16386e-05 0.000175148 -8.08164e-07
-4.27509e-06 -8.08164e-07 0.000116188
0.00142839 8.11736e-05 -5.49471e-06
8.11736e-05 0.000507362 -4.53928e-06
-5.49471e-06 -4.53928e-06 0.000455464
0.000840119 7.06452e-05 -1.5613e-06
7.06452e-05 0.000108903 -6.80781e-07
-1.5613e-06 -6.80781e-07 1.93509e-05
0.000907568 -3.43479e-05 -2.71876e-07
-3.43479e-05 0.000147725 1.42947e-06
-2.71876e-07 1.42947e-06 4.77873e-05
0.000842918 1.64117e-05 4.7993e-08
1.64117e-05 9.65663e-05 1.33486e-06
4.7993e-08 1.33486e-06 1.20027e-05
0.00035618 1.18401e-05 8.10169e-08
1.18401e-05 -0.00016051 3.55463e-06
8.10169e-08 3.55463e-06 -0.000237372
0.000886826 1.35403e-06 6.60783e-07
1.35403e-06 0.000130033 5.70865e-08
6.60783e-07 5.70865e-08 3.36374e-05
0.000876201 3.26324e-07 -1.44939e-07
3.26324e-07 0.000121785 -1.83506e-07
-1.44939e-07 -1.83506e-07 3.08888e-05
0.000455297 1.67206e-07 2.47964e-07
1.67206e-07 -6.57348e-05 6.99949e-07
2.47964e-07 6.99949e-07 -0.000138239
4.43303e-05 3.22792e-06 -2.5432e-06
3.22792e-06 -0.000204304 -4.47183e-06
-2.5432e-06 -4.47183e-06 -0.000261662
0.000949292 -2.41227e-05 2.11226e-06
-2.41227e-05 0.000201104 -5.61442e-06
2.11226e-06 -5.61442e-06 0.000123519
0.000904461 3.34043e-05 1.24734e-07
3.34043e-05 0.000142878 -2.83169e-06
1.24734e-07 -2.83169e-06 4.67017e-05
0.000870171 -6.45189e-05 8.2384e-07
-6.45189e-05 0.000118101 6.7168e-07
8.2384e-07 6.7168e-07 2.84089e-05
0.000779624 4.1924e-05 -7.04811e-07
4.1924e-05 7.6323e-05 4.35364e-07
-7.04811e-07 4.35364e-07 -7.86892e-06
0.00082018 -1.51983e-05 -1.27371e-06
-1.51983e-05 8.52655e-05 1.85463e-06
-1.27371e-06 1.85463e-06 8.28543e-06
0.000676676 3.70464e-06 5.04745e-07
3.70464e-06 8.8218e-06 4.31818e-07
5.04745e-07 4.31818e-07 -7.5478e-05
0.000758921 4.51773e-05 3.17083e-07
4.51773e-05 7.11274e-05 2.20295e-07
3.17083e-07 2.20295e-07 -1.39523e-05
0.000807857 2.0475e-05 -5.0321e-07
2.0475e-05 8.67974e-05 2.5383e-07
-5.0321e-07 2.5383e-07 1.08825e-05
0.000926598 3.21867e-05 1.64731e-06
3.21867e-05 0.00015459 -1.71126e-06
1.64731e-06 -1.71126e-06 7.39839e-05
0.000565429 -8.71668e-07 2.40009e-06
-8.71668e-07 -3.07649e-05 -2.95007e-06
2.40009e-06 -2.95007e-06 -9.79851e-05
0.000638779 -7.42125e-05 1.54589e-06
-7.42125e-05 -2.28792e-05 -6.66784e-07
1.54589e-06 -6.66784e-07 -0.000114038
0.000907079 -1.60641e-06 -1.14587e-06
-1.60641e-06 0.000145732 -2.51201e-07
-1.14587e-06 -2.51201e-07 5.29426e-05
0.00053574 -4.94231e-05 2.34017e-06
-4.94231e-05 -2.65244e-05 1.60002e-06
2.34017e-06 1.60002e-06 -0.000148745
0.000993625 -0.000166437 -3.54489e-07
-0.000166437 0.000204075 4.06705e-06
-3.54489e-07 4.06705e-06 2.93555e-05
0.00117406 -5.66667e-05 1.36792e-06
-5.66667e-05 0.000323994 -9.95264e-07
1.36792e-06 -9.95264e-07 0.000212703
0.000480818 -5.13477e-05 -8.42044e-07
-5.13477e-05 -4.25814e-05 -2.86405e-06
-8.42044e-07 -2.86405e-06 -0.000172776
0.000701126 3.06684e-05 -5.46597e-07
3.06684e-05 5.2837e-05 -6.1219e-07
-5.46597e-07 -6.1219e-07 -4.11339e-05
0.000473986 2.80959e-05 8.58142e-07
2.80959e-05 -8.45722e-05 6.40673e-07
8.58142e-07 6.40673e-07 -0.000167623
0.000835629 2.43715e-05 -4.25425e-07
2.43715e-05 0.000117743 3.33786e-07
-4.25425e-07 3.33786e-07 2.98049e-05
0.000773532 -1.09209e-06 -5.18954e-07
-1.09209e-06 8.03585e-05 4.12011e-07
-5.18954e-07 4.12011e-07 4.11053e-07
0.000704227 1.88849e-05 -7.61046e-07
1.88849e-05 2.53688e-05 5.27599e-07
-7.61046e-07 5.27599e-07 -3.70876e-05
0.00081175 -2.41439e-05 4.3907e-07
-2.41439e-05 0.00010864 1.26628e-07
4.3907e-07 1.26628e-07 2.30785e-05
0.000741073 -1.89666e-05 -3.91627e-07
-1.89666e-05 4.78376e-05 4.66684e-08
-3.91627e-07 4.66684e-08 -1.69535e-05
0.000688314 3.60493e-05 -1.22877e-06
3.60493e-05 2.64604e-06 1.65975e-06
-1.22877e-06 1.65975e-06 -4.07671e-05
0.000776425 -4.60987e-05 1.25454e-06
-4.60987e-05 6.87961e-05 -4.5561e-07
1.25454e-06 -4.5561e-07 1.83896e-06
0.000709279 1.64556e-05 -2.82367e-07
1.64556e-05 1.12136e-05 -4.68995e-09
-2.82367e-07 -4.68995e-09 -3.1018e-05
0.0013511 3.38071e-05 -6.91602e-06
3.38071e-05 0.000370185 4.86679e-06
-6.91602e-06 4.86679e-06 0.000362086
0.000704277 -2.00556e-06 1.32363e-06
-2.00556e-06 8.67556e-06 -1.57542e-06
1.32363e-06 -1.57542e-06 -3.34139e-05
0.00100414 2.38524e-05 -3.26817e-06
2.38524e-05 0.000168508 6.85877e-07
-3.26817e-06 6.85877e-07 0.00015923
0.000833608 2.0811e-05 -9.46519e-07
2.0811e-05 7.43709e-05 1.8108e-06
-9.46519e-07 1.8108e-06 8.41894e-05
0.000636218 1.41595e-05 4.25607e-07
1.41595e-05 -4.48193e-05 -3.5577e-06
4.25607e-07 -3.5577e-06 -5.53421e-05
0.00155019 1.92068e-05 5.14299e-06
1.92068e-05 0.000480218 -1.418e-06
5.14299e-06 -1.418e-06 0.000494371
0.00226907 1.28327e-05 4.61153e-06
1.28327e-05 0.000890095 -4.81837e-06
4.61153e-06 -4.81837e-06 0.000908165
0.000791801 -1.04026e-05 5.7806e-07
-1.04026e-05 8.02612e-05 -1.17332e-06
5.7806e-07 -1.17332e-06 1.41926e-05
0.000726783 4.92534e-06 -3.63193e-07
4.92534e-06 2.33183e-05 -2.04904e-06
-3.63193e-07 -2.04904e-06 -1.34761e-05
0.000786413 -1.97898e-06 5.6311e-07
-1.97898e-06 8.28323e-05 1.409e-07
5.6311e-07 1.409e-07 1.75554e-05
0.000664107 -5.72557e-06 -2.82653e-07
-5.72557e-06 -3.25137e-05 -3.58343e-06
-2.82653e-07 -3.58343e-06 -3.79545e-05
0.000703197 5.29455e-06 2.34344e-08
5.29455e-06 1.08871e-05 -2.59085e-08
2.34344e-08 -2.59085e-08 -2.44189e-05
0.000710951 -5.91129e-05 -2.34154e-06
-5.91129e-05 4.11552e-05 1.90815e-06
-2.34154e-06 1.90815e-06 -2.21309e-05
0.00208198 -7.45745e-07 -4.43841e-07
-7.45745e-07 0.000782313 -4.71592e-06
-4.43841e-07 -4.71592e-06 0.000802683
0.000665029 7.91731e-07 -1.32183e-07
7.91731e-07 -3.20206e-05 -1.50383e-09
-1.32183e-07 -1.50383e-09 -3.71363e-05
0.000687928 -8.56792e-06 -4.3649e-07
-8.56792e-06 2.57841e-06 1.91559e-06
-4.3649e-07 1.91559e-06 -3.17885e-05
0.000664213 7.22976e-06 -4.67358e-08
7.22976e-06 -3.17434e-05 3.5276e-06
-4.67358e-08 3.5276e-06 -3.71951e-05
0.00208782 1.10875e-05 -3.05627e-06
1.10875e-05 0.000786707 -3.07333e-08
-3.05627e-06 -3.07333e-08 0.000806774
0.00209747 2.12368e-05 -1.10421e-05
2.12368e-05 0.00079461 4.49772e-06
-1.10421e-05 4.49772e-06 0.000814045
-0.00242738 -4.20943e-05 -4.95719e-05
-4.20943e-05 0.000310064 1.06993e-05
-4.95719e-05 1.06993e-05 -0.000723093
-0.0011444 0.000305846 -2.36704e-05
0.000305846 -0.00048591 6.28832e-06
-2.36704e-05 6.28832e-06 -0.000753153
0.00258013 -7.8517e-05 -0.000121051
-7.8517e-05 0.000537347 0.000100173
-0.000121051 0.000100173 -0.000618442
-0.00237678 0.000216192 0.000141207
0.000216192 0.000306088 -6.1328e-05
0.000141207 -6.1328e-05 -0.000164832
0.00234028 0.000132053 -9.84478e-05
0.000132053 4.70853e-05 1.60115e-05
-9.84478e-05 1.60115e-05 -0.00020418
0.0018996 -8.17212e-05 7.2453e-05
-8.17212e-05 -1.14315e-05 -1.09603e-05
7.2453e-05 -1.09603e-05 -5.53656e-05
0.00192356 -0.000385142 -9.19142e-05
-0.000385142 -0.000947667 -4.56314e-05
-9.19142e-05 -4.56314e-05 -0.00182133
0.00748117 0.000567383 -1.5908e-06
0.000567383 0.00368029 -1.60989e-05
-1.5908e-06 -1.60989e-05 0.00351316
-0.00601038 0.0010772 -0.000179325
0.0010772 -0.00363775 0.000162625
-0.000179325 0.000162625 -0.00160589
0.0020535 -3.06707e-05 -5.24706e-06
-3.06707e-05 -0.000165045 -6.48423e-06
-5.24706e-06 -6.48423e-06 -0.00042219
0.00376637 -4.21699e-05 2.2882e-05
-4.21699e-05 0.00038846 -3.14709e-05
2.2882e-05 -3.14709e-05 -0.00144804
0.0071712 0.00109075 -3.14627e-05
0.00109075 0.00233471 -3.7233e-05
-3.14627e-05 -3.7233e-05 0.00299376
0.00178836 0.000687764 -3.19261e-05
0.000687764 -0.00153435 6.84167e-05
-3.19261e-05 6.84167e-05 -0.000576474
0.00292427 -0.000413671 -5.1253e-05
-0.000413671 7.93409e-05 1.46951e-05
-5.1253e-05 1.46951e-05 -0.000398349
0.00329426 -0.00026756 0.000128031
-0.00026756 0.000910997 -8.4289e-05
0.000128031 -8.4289e-05 -0.00151303
-0.00531573 0.000384413 -5.43564e-05
0.000384413 -0.00447996 -0.00013036
-5.43564e-05 -0.00013036 -0.00419779
0.00150713 0.000425522 -2.9531e-05
0.000425522 -0.00286798 1.33273e-05
-2.9531e-05 1.33273e-05 -0.00155175
0.000819179 -1.36142e-05 6.06868e-07
-1.36142e-05 0.000124644 -2.27861e-07
6.06868e-07 -2.27861e-07 1.24455e-05
0.000799097 5.4645e-05 -1.72532e-06
5.4645e-05 0.00011326 -6.46062e-07
-1.72532e-06 -6.46062e-07 9.5109e-06
0.000760982 3.9064e-05 3.84336e-07
3.9064e-05 7.73733e-05 6.5102e-08
3.84336e-07 6.5102e-08 3.21031e-07
0.000756334 7.05898e-05 2.3659e-06
7.05898e-05 9.44412e-05 2.44918e-06
2.3659e-06 2.44918e-06 -4.97426e-06
0.000739551 2.99656e-05 -5.52611e-07
2.99656e-05 7.10136e-05 -4.00685e-08
-5.52611e-07 -4.00685e-08 -4.08648e-05
0.00090382 6.62032e-05 2.7051e-07
6.62032e-05 0.000166271 8.02139e-07
2.7051e-07 8.02139e-07 6.29735e-05
0.00074278 1.58584e-05 -1.92339e-07
1.58584e-05 7.04187e-05 2.43869e-06
-1.92339e-07 2.43869e-06 -2.42894e-05
0.000897421 9.41246e-05 -4.4007e-07
9.41246e-05 0.00016614 -3.44504e-08
-4.4007e-07 -3.44504e-08 6.35873e-05
0.000863993 5.10215e-05 -1.5454e-07
5.10215e-05 0.00014607 4.30965e-07
-1.5454e-07 4.30965e-07 4.88572e-05
0.000645617 -8.22639e-06 -1.24901e-06
-8.22639e-06 2.12181e-05 3.79378e-07
-1.24901e-06 3.79378e-07 -6.99938e-05
0.000622117 -0.000137496 2.15319e-05
-0.000137496 -0.000522004 -1.31751e-05
2.15319e-05 -1.31751e-05 -0.000550863
0.000906749 -0.000296996 1.76357e-05
-0.000296996 -0.000419231 -1.26856e-06
1.76357e-05 -1.26856e-06 -0.000415919
0.000908733 -0.000326586 1.14812e-05
-0.000326586 -0.000103318 1.43283e-07
1.14812e-05 1.43283e-07 -0.000241112
0.00118564 -0.0002262 7.5683e-06
-0.0002262 0.000271369 -8.91947e-06
7.5683e-06 -8.91947e-06 3.63716e-05
0.00130517 -7.54755e-05 -2.66629e-07
-7.54755e-05 0.000443499 1.88966e-06
-2.66629e-07 1.88966e-06 0.00025332
0.000697516 -6.63401e-05 -1.11525e-06
-6.63401e-05 7.9039e-05 2.13841e-06
-1.11525e-06 2.13841e-06 -5.45589e-05
0.000661622 6.0871e-05 2.07522e-07
6.0871e-05 4.2776e-05 5.68413e-07
2.07522e-07 5.68413e-07 -7.80127e-05
0.000730506 -4.18074e-05 -1.73796e-07
-4.18074e-05 7.92629e-05 9.75272e-07
-1.73796e-07 9.75272e-07 -3.86587e-05
0.00115593 -0.000198645 -7.60445e-07
-0.000198645 5.04322e-05 -3.61845e-07
-7.60445e-07 -3.61845e-07 -0.000107373
0.000854821 -3.80567e-06 -2.8946e-07
-3.80567e-06 0.000159184 -2.9541e-07
-2.8946e-07 -2.9541e-07 2.82313e-05
0.00108604 -6.99544e-05 -1.25138e-07
-6.99544e-05 0.000298313 1.29709e-07
-1.25138e-07 1.29709e-07 0.000149484
0.00114791 -0.000262864 -1.74391e-06
-0.000262864 5.0258e-06 -7.51354e-07
-1.74391e-06 -7.51354e-07 -2.50152e-05
0.000983917 -0.000107612 -7.62945e-06
-0.000107612 0.000254989 3.39598e-06
-7.62945e-06 3.39598e-06 5.03247e-05
-0.000949111 -0.000224622 -6.37655e-06
-0.000224622 -0.00110679 -1.21604e-05
-6.37655e-06 -1.21604e-05 -0.00110559
0.000879154 -0.000118955 -1.55136e-05
-0.000118955 0.00023666 1.69602e-05
-1.55136e-05 1.69602e-05 0.000134642
0.000448161 -7.71617e-06 -2.95615e-06
-7.71617e-06 -6.25426e-05 1.83903e-05
-2.95615e-06 1.83903e-05 -0.00019433
0.000771339 -3.18186e-06 -3.05158e-07
-3.18186e-06 9.09094e-05 -6.97798e-07
-3.05158e-07 -6.97798e-07 -2.56531e-05
0.000670655 2.15582e-05 8.27794e-07
2.15582e-05 6.36369e-05 -1.74577e-06
8.27794e-07 -1.74577e-06 -8.39903e-05
0.00138871 -1.65469e-05 -3.97049e-05
-1.65469e-05 0.000309059 -3.77108e-06
-3.97049e-05 -3.77108e-06 -0.000391552
-0.00096873 1.38271e-05 -6.46021e-05
1.38271e-05 0.00131645 -2.37942e-06
-6.46021e-05 -2.37942e-06 0.00035782
-0.00741368 -0.000204424 -0.00018428
-0.000204424 -0.00377342 4.43636e-06
-0.00018428 4.43636e-06 -0.00374433
0.000199339 8.054e-05 7.39214e-06
8.054e-05 -0.000145175 1.0429e-07
7.39214e-06 1.0429e-07 -0.000262512
-0.000310808 5.82261e-05 6.97461e-06
5.82261e-05 -0.00034853 2.67384e-06
6.97461e-06 2.67384e-06 -0.000559718
0.00137935 0.00020393 1.61207e-05
0.00020393 0.000261807 2.30976e-06
1.61207e-05 2.30976e-06 0.000191084
-0.00237845 6.46534e-05 7.78527e-06
6.46534e-05 0.000228443 8.77771e-06
7.78527e-06 8.77771e-06 -0.000874825
0.00220431 0.000117062 -4.1788e-05
0.000117062 0.000465985 -4.24125e-05
-4.1788e-05 -4.24125e-05 -0.00201634
0.00384507 0.000793434 6.70483e-05
0.000793434 0.00050637 2.79927e-06
6.70483e-05 2.79927e-06 -7.20417e-05
0.000585677 0.000209324 6.13718e-06
0.000209324 2.68929e-06 -7.48265e-06
6.13718e-06 -7.48265e-06 -2.49876e-05
0.0091442 -0.000832603 2.17106e-05
-0.000832603 0.00280163 -2.84829e-05
2.17106e-05 -2.84829e-05 0.00289425
0.00278603 8.82894e-05 8.3288e-05
8.82894e-05 0.00100753 6.1787e-05
8.3288e-05 6.1787e-05 -0.000298003
0.00648511 -0.000494321 2.90705e-05
-0.000494321 0.000895895 1.57624e-05
2.90705e-05 1.57624e-05 0.00222548
0.000889656 0.000135778 -1.18526e-06
0.000135778 0.00028873 -2.568e-06
-1.18526e-06 -2.568e-06 0.000198673
0.00204324 -2.13261e-05 4.85738e-06
-2.13261e-05 0.000610838 -8.67834e-06
4.85738e-06 -8.67834e-06 -0.000159149
0.0012732 6.59199e-05 6.21644e-06
6.59199e-05 0.000267497 1.23276e-05
6.21644e-06 1.23276e-05 -0.000789545
-5.03151e-07 0.000127039 -5.45825e-06
0.000127039 -3.08682e-05 -5.22703e-07
-5.45825e-06 -5.22703e-07 -0.000183205
0.00272511 0.000463567 -4.70772e-05
0.000463567 0.000600616 -3.41627e-05
-4.70772e-05 -3.41627e-05 7.71441e-05
0.00266433 0.000727072 4.6674e-05
0.000727072 0.000507144 3.27637e-05
4.6674e-05 3.27637e-05 -0.0020035
0.00413781 6.60392e-05 -4.73589e-06
6.60392e-05 -0.00182677 -5.84369e-05
-4.73589e-06 -5.84369e-05 3.18608e-05
0.000736443 -0.000423119 -1.67931e-05
-0.000423119 -0.000419575 -3.93185e-06
-1.67931e-05 -3.93185e-06 -0.00105999
0.00104837 7.65235e-05 -3.2609e-06
7.65235e-05 0.000488046 -8.08665e-06
-3.2609e-06 -8.08665e-06 0.000406062
0.00100409 -3.9321e-05 -1.13621e-05
-3.9321e-05 0.000135528 -2.71365e-05
-1.13621e-05 -2.71365e-05 -0.000196396
0.00205945 3.99862e-06 1.22751e-05
3.99862e-06 0.000217341 -6.18278e-05
1.22751e-05 -6.18278e-05 -0.000661679
0.00162827 0.00044171 2.77209e-05
0.00044171 -0.00281512 -1.62415e-05
2.77209e-05 -1.62415e-05 -0.00156698
-0.000973579 4.58067e-05 8.42453e-07
4.58067e-05 -0.000329987 -1.13821e-05
8.42453e-07 -1.13821e-05 -0.000685262
0.0101419 0.000499216 0.000100136
0.000499216 0.00432689 4.13945e-05
0.000100136 4.13945e-05 0.00179713
-0.00750801 -0.000214055 4.28847e-05
-0.000214055 -0.00116278 6.04277e-05
4.28847e-05 6.04277e-05 -0.00226272
0.00160373 0.000145637 1.40864e-05
0.000145637 0.000563171 7.3766e-06
1.40864e-05 7.3766e-06 0.000498471
0.00127307 0.000102249 -3.2695e-06
0.000102249 0.000418697 1.03077e-06
-3.2695e-06 1.03077e-06 0.000360782
0.00056917 7.94909e-05 -1.37407e-05
7.94909e-05 0.000162952 -6.93714e-06
-1.37407e-05 -6.93714e-06 0.000104375
0.000803726 0.00010701 6.10995e-07
0.00010701 9.14853e-05 1.21252e-06
6.10995e-07 1.21252e-06 -8.83738e-06
0.000787521 2.96769e-05 2.18981e-07
2.96769e-05 6.88418e-05 2.21075e-06
2.18981e-07 2.21075e-06 -1.91656e-05
0.000507025 -1.05374e-05 -7.96812e-07
-1.05374e-05 -3.25666e-05 9.58449e-06
-7.96812e-07 9.58449e-06 -0.00010523
0.000778173 3.5454e-05 -1.8181e-07
3.5454e-05 6.95649e-05 -4.3292e-07
-1.8181e-07 -4.3292e-07 -2.22858e-05
0.000881645 -3.57844e-05 2.33484e-07
-3.57844e-05 0.000166835 -1.17113e-06
2.33484e-07 -1.17113e-06 8.69143e-05
0.000217224 -1.2499e-05 4.41775e-06
-1.2499e-05 -0.000119702 3.44525e-06
4.41775e-06 3.44525e-06 -0.00018415
0.000640047 -1.26594e-05 -2.58032e-06
-1.26594e-05 0.000142015 -8.12672e-06
-2.58032e-06 -8.12672e-06 8.92553e-05
0.000791862 -1.71059e-05 -1.37481e-06
-1.71059e-05 0.000113983 -4.89402e-06
-1.37481e-06 -4.89402e-06 4.19854e-05
0.000745661 -2.66227e-06 -5.14651e-07
-2.66227e-06 4.02701e-05 2.4325e-06
-5.14651e-07 2.4325e-06 -3.90269e-05
0.000799312 4.54405e-05 -4.16779e-07
4.54405e-05 9.46909e-05 4.61429e-07
-4.16779e-07 4.61429e-07 8.74575e-06
0.000921157 3.01722e-05 -2.91355e-06
3.01722e-05 0.000149263 2.66329e-06
-2.91355e-06 2.66329e-06 7.27861e-05
0.000761651 3.26421e-07 8.20619e-07
3.26421e-07 7.38712e-05 3.84343e-08
8.20619e-07 3.84343e-08 6.12543e-06
0.000826254 3.3731e-05 3.93456e-07
3.3731e-05 9.92939e-05 1.34359e-07
3.93456e-07 1.34359e-07 1.86049e-05
0.00067895 -4.41348e-05 2.45958e-06
-4.41348e-05 5.38991e-05 -1.10437e-07
2.45958e-06 -1.10437e-07 -2.81646e-05
0.000623169 -5.0894e-05 -1.07166e-06
-5.0894e-05 -1.46285e-05 -8.65919e-07
-1.07166e-06 -8.65919e-07 -9.77143e-05
0.000456095 -9.95077e-05 4.37607e-06
-9.95077e-05 -8.23674e-05 6.55554e-07
4.37607e-06 6.55554e-07 -0.000230424
0.000995985 -2.2402e-05 -1.46404e-06
-2.2402e-05 0.000198288 5.59228e-07
-1.46404e-06 5.59228e-07 0.000103692
0.00102017 -8.90009e-05 -9.16208e-07
-8.90009e-05 0.000233799 1.44364e-06
-9.16208e-07 1.44364e-06 0.000106119
0.000314247 -0.000127412 3.80911e-07
-0.000127412 -0.00019317 2.22735e-06
3.80911e-07 2.22735e-06 -0.000364939
0.000636463 -0.000141093 -4.50611e-06
-0.000141093 -1.25034e-05 -5.08267e-07
-4.50611e-06 -5.08267e-07 -0.000187315
0.000988311 -0.000128709 -1.17577e-06
-0.000128709 0.000234123 2.28461e-06
-1.17577e-06 2.28461e-06 9.7618e-05
0.000709591 -0.000141631 4.02581e-07
-0.000141631 4.73549e-05 4.98888e-07
4.02581e-07 4.98888e-07 -0.00012147
0.000856161 -2.14323e-05 5.77199e-07
-2.14323e-05 0.00013433 7.5192e-07
5.77199e-07 7.5192e-07 4.00498e-05
0.000989882 -4.82618e-05 -8.57679e-07
-4.82618e-05 0.000225629 -7.15038e-07
-8.57679e-07 -7.15038e-07 0.000111075
0.000610606 -6.32147e-05 6.16242e-07
-6.32147e-05 3.9041e-05 -5.32281e-06
6.16242e-07 -5.32281e-06 -8.87936e-05
0.00100124 2.42453e-05 -1.6149e-06
2.42453e-05 0.000215801 -1.03102e-06
-1.6149e-06 -1.03102e-06 0.000124259
0.000618981 1.95402e-05 1.63811e-07
1.95402e-05 -2.25134e-06 -2.5957e-08
1.63811e-07 -2.5957e-08 -8.55562e-05
0.000700743 3.30935e-05 -2.07762e-07
3.30935e-05 2.80519e-05 6.47305e-07
-2.07762e-07 6.47305e-07 -3.82452e-05
0.000819162 -2.03243e-05 -1.4143e-07
-2.03243e-05 0.000111059 2.46221e-07
-1.4143e-07 2.46221e-07 2.68646e-05
0.000739701 -4.7892e-06 -5.38446e-07
-4.7892e-06 4.82443e-05 -3.01775e-08
-5.38446e-07 -3.01775e-08 -1.68293e-05
0.000694489 3.4498e-05 -1.30391e-06
3.4498e-05 9.36857e-06 1.64812e-06
-1.30391e-06 1.64812e-06 -3.47335e-05
0.000772667 -3.88725e-05 1.12242e-06
-3.88725e-05 6.85032e-05 -5.17094e-07
1.12242e-06 -5.17094e-07 1.2632e-06
0.000704441 2.6256e-05 -3.53869e-07
2.6256e-05 1.03882e-05 -7.46784e-09
-3.53869e-07 -7.46784e-09 -3.24423e-05
0.00132012 4.28885e-05 -7.91114e-06
4.28885e-05 0.000357775 3.34552e-06
-7.91114e-06 3.34552e-06 0.000348802
0.00071506 4.7338e-06 1.61744e-06
4.7338e-06 1.35499e-05 -1.61712e-06
1.61744e-06 -1.61712e-06 -2.82855e-05
0.000994139 3.17449e-05 -4.06271e-06
3.17449e-05 0.000166261 6.32736e-07
-4.06271e-06 6.32736e-07 0.00015646
0.000829269 2.78591e-05 -1.47042e-06
2.78591e-05 7.72611e-05 1.82224e-06
-1.47042e-06 1.82224e-06 8.60885e-05
0.000627668 2.09106e-05 6.23552e-07
2.09106e-05 -4.72882e-05 -3.58269e-06
6.23552e-07 -3.58269e-06 -5.81883e-05
0.00154731 2.85164e-05 6.85658e-06
2.85164e-05 0.000482642 -1.32723e-06
6.85658e-06 -1.32723e-06 0.000495918
0.00227874 2.43711e-05 8.78326e-06
2.43711e-05 0.000898411 -4.66764e-06
8.78326e-06 -4.66764e-06 0.000915798
0.000537184 3.1767e-06 -2.27517e-07
3.1767e-06 -5.66872e-05 -1.7231e-06
-2.27517e-07 -1.7231e-06 -0.000135177
0.000442672 -6.60744e-06 -3.79025e-07
-6.60744e-06 -0.000137379 -2.86028e-06
-3.79025e-07 -2.86028e-06 -0.000179368
0.00082145 1.93586e-06 4.64519e-08
1.93586e-06 0.000101007 8.24501e-08
4.64519e-08 8.24501e-08 3.21653e-05
0.000662717 -1.22814e-05 -2.27506e-07
-1.22814e-05 -3.22425e-05 -3.66582e-06
-2.27506e-07 -3.66582e-06 -3.8941e-05
0.000564127 -6.3388e-07 4.78235e-07
-6.3388e-07 -6.82912e-05 -3.61124e-08
4.78235e-07 -3.61124e-08 -0.000106461
0.000523451 -5.68662e-05 9.17465e-09
-5.68662e-05 -6.33212e-05 1.47131e-06
9.17465e-09 1.47131e-06 -0.000131287
0.00209915 -1.15757e-05 -4.95756e-06
-1.15757e-05 0.000792754 -4.69447e-06
-4.95756e-06 -4.69447e-06 0.000812801
0.0006665 -5.52758e-06 -1.5818e-07
-5.52758e-06 -3.11388e-05 -7.70137e-09
-1.5818e-07 -7.70137e-09 -3.65558e-05
0.000686788 -5.76937e-06 -4.61217e-07
-5.76937e-06 1.56886e-06 1.92865e-06
-4.61217e-07 1.92865e-06 -3.35552e-05
0.00208701 2.65694e-07 -3.11968e-06
2.65694e-07 0.00078519 1.2378e-09
-3.11968e-06 1.2378e-09 0.000805543
0.000664863 9.48959e-07 1.28198e-07
9.48959e-07 -3.21212e-05 3.51621e-06
1.28198e-07 3.51621e-06 -3.72221e-05
0.00209447 1.21428e-05 -4.49086e-06
1.21428e-05 0.000790711 4.64303e-06
-4.49086e-06 4.64303e-06 0.000810681
0.00101811 -3.44267e-05 -7.11104e-05
-3.44267e-05 -5.12361e-05 2.7978e-05
-7.11104e-05 2.7978e-05 -0.000814192
0.00142025 0.000154737 -8.26998e-06
0.000154737 0.00197594 -7.86137e-06
-8.26998e-06 -7.86137e-06 0.00139294
0.00124658 -0.000214975 -9.12091e-05
-0.000214975 0.00128095 -1.41549e-05
-9.12091e-05 -1.41549e-05 0.000759976
0.000777023 4.78293e-05 -1.18194e-07
4.78293e-05 8.38602e-05 2.09119e-07
-1.18194e-07 2.09119e-07 -1.45706e-05
0.002811 -7.22625e-05 -2.62666e-05
-7.22625e-05 0.00137157 6.9197e-05
-2.62666e-05 6.9197e-05 0.000573437
0.00276462 -0.000101325 -3.51319e-05
-0.000101325 0.000723123 3.58285e-06
-3.51319e-05 3.58285e-06 -0.000519378
0.00138017 0.000415635 9.88205e-05
0.000415635 0.00179876 -8.85883e-05
9.88205e-05 -8.85883e-05 0.00170926
0.00301846 -0.000135304 -2.73505e-06
-0.000135304 8.71048e-05 -2.40371e-05
-2.73505e-06 -2.40371e-05 -0.00019226
0.00942856 0.000155077 5.35645e-05
0.000155077 0.00319809 -3.46958e-05
5.35645e-05 -3.46958e-05 0.00154449
-0.00336501 0.000672696 -3.97517e-05
0.000672696 -0.00329093 5.38419e-05
-3.97517e-05 5.38419e-05 -0.00245623
0.00361892 0.000753357 2.21069e-05
0.000753357 -0.00046213 6.50739e-06
2.21069e-05 6.50739e-06 0.000465878
0.00435882 -0.00051618 -6.83816e-05
-0.00051618 0.000480666 2.68757e-07
-6.83816e-05 2.68757e-07 -0.000251856
0.00804166 -0.000103418 3.98296e-05
-0.000103418 0.00323926 -1.41991e-05
3.98296e-05 -1.41991e-05 0.00134364
0.00504853 0.000589366 2.35036e-05
0.000589366 0.000287346 -4.74278e-05
2.35036e-05 -4.74278e-05 0.000403372
0.00368462 0.000437812 -1.23098e-05
0.000437812 -0.00161123 2.32345e-06
-1.23098e-05 2.32345e-06 -0.000375954
0.00489774 -0.00089583 -2.68521e-06
-0.00089583 0.000872393 -1.03432e-05
-2.68521e-06 -1.03432e-05 -0.000161997
0.00985666 -0.000490363 5.23581e-05
-0.000490363 0.00486623 -1.29838e-05
5.23581e-05 -1.29838e-05 0.00184612
0.00167165 -4.31524e-05 3.40731e-05
-4.31524e-05 -0.000487184 -6.1781e-05
3.40731e-05 -6.1781e-05 -0.000636291
0.0052267 4.93542e-05 -1.3939e-05
4.93542e-05 -0.000673652 4.95587e-05
-1.3939e-05 4.95587e-05 0.000866078
0.000805805 -2.58377e-05 -8.99355e-08
-2.58377e-05 0.000110494 -6.2368e-07
-8.99355e-08 -6.2368e-07 -6.83474e-06
0.000800715 -3.58623e-05 4.57032e-07
-3.58623e-05 0.000117487 -2.8283e-08
4.57032e-07 -2.8283e-08 2.12872e-06
0.00092515 7.92061e-05 -9.12418e-07
7.92061e-05 0.000187813 4.09962e-07
-9.12418e-07 4.09962e-07 8.25484e-05
0.000755752 1.09755e-05 -7.49742e-07
1.09755e-05 6.13698e-05 -3.61727e-07
-7.49742e-07 -3.61727e-07 -3.72076e-05
0.000863604 6.80114e-05 -6.39978e-07
6.80114e-05 0.000141744 5.5063e-07
-6.39978e-07 5.5063e-07 3.03872e-05
0.00089696 4.97396e-05 8.35527e-07
4.97396e-05 0.000162014 1.99445e-06
8.35527e-07 1.99445e-06 6.03107e-05
0.000961951 8.81375e-05 -6.91371e-07
8.81375e-05 0.00019997 1.75237e-08
-6.91371e-07 1.75237e-08 9.87411e-05
0.000999297 9.59367e-05 1.00755e-06
9.59367e-05 0.000228418 2.02889e-06
1.00755e-06 2.02889e-06 0.000127479
0.0018214 -0.000199201 3.64825e-05
-0.000199201 0.00035954 -1.64685e-05
3.64825e-05 -1.64685e-05 0.000282275
0.000681989 -0.000236455 8.62437e-06
-0.000236455 -0.000267242 -9.80475e-06
8.62437e-06 -9.80475e-06 -0.000268534
0.000796807 -0.000132396 -5.08405e-07
-0.000132396 0.000126911 1.08682e-06
-5.08405e-07 1.08682e-06 1.79046e-06
0.00188638 -0.000137581 5.018e-06
-0.000137581 0.000714678 -1.28425e-05
5.018e-06 -1.28425e-05 0.000522903
0.00148429 -9.78875e-05 -1.54618e-06
-9.78875e-05 0.000523002 1.50119e-06
-1.54618e-06 1.50119e-06 0.000367321
0.000918283 -3.83055e-05 -1.26857e-06
-3.83055e-05 0.000191076 7.51527e-07
-1.26857e-06 7.51527e-07 6.47845e-05
0.000850074 1.51933e-05 1.56913e-07
1.51933e-05 0.000142213 7.60339e-09
1.56913e-07 7.60339e-09 2.02058e-05
0.000655689 -0.000325479 -8.68157e-06
-0.000325479 -0.000315452 5.56454e-07
-8.68157e-06 5.56454e-07 -0.000345014
0.000901093 2.42558e-05 -5.1688e-07
2.42558e-05 0.000200123 6.59916e-07
-5.1688e-07 6.59916e-07 4.73105e-05
0.000921068 -6.64643e-05 -1.26469e-07
-6.64643e-05 0.000180441 9.50644e-07
-1.26469e-07 9.50644e-07 4.19149e-05
0.000342336 -0.000100211 2.68253e-07
-0.000100211 -8.47047e-05 3.7568e-06
2.68253e-07 3.7568e-06 -0.00014403
0.000671258 1.48155e-05 4.69138e-07
1.48155e-05 1.78243e-05 3.51147e-07
4.69138e-07 3.51147e-07 -8.47517e-05
0.000770924 -0.000279653 4.07095e-05
-0.000279653 -0.000172694 -2.93791e-05
4.07095e-05 -2.93791e-05 -7.67387e-05
0.000765811 -7.88232e-05 -1.06382e-05
-7.88232e-05 0.000361881 2.26502e-05
-1.06382e-05 2.26502e-05 0.000251222
0.000770781 -3.41538e-06 -8.69533e-07
-3.41538e-06 0.000117513 9.2487e-06
-8.69533e-07 9.2487e-06 -1.33439e-05
0.00114341 0.000139457 1.32723e-06
0.000139457 0.000321804 -3.69032e-07
1.32723e-06 -3.69032e-07 0.000185795
0.00129542 -2.26827e-05 -2.15558e-05
-2.26827e-05 0.000315051 -1.05624e-06
-2.15558e-05 -1.05624e-06 7.19392e-05
0.00131074 -3.42095e-05 4.56771e-05
-3.42095e-05 0.000293242 -3.58373e-06
4.56771e-05 -3.58373e-06 -0.000403156
-0.0029275 -4.21308e-05 -2.9438e-05
-4.21308e-05 0.000440402 2.54306e-06
-2.9438e-05 2.54306e-06 -0.000780699
0.00103732 0.00013487 1.60137e-05
0.00013487 0.00039709 3.14877e-06
1.60137e-05 3.14877e-06 0.000304382
-0.000236194 0.000181737 1.756e-05
0.000181737 -0.000168127 1.12361e-05
1.756e-05 1.12361e-05 -0.000357289
0.00226939 -2.35578e-05 7.47694e-05
-2.35578e-05 0.000837491 1.19213e-05
7.47694e-05 1.19213e-05 0.000168421
0.00795571 3.82586e-05 9.64033e-05
3.82586e-05 0.00351624 4.90511e-05
9.64033e-05 4.90511e-05 0.00090996
0.00246198 0.000477972 -8.30101e-05
0.000477972 0.000667411 -8.43583e-05
-8.30101e-05 -8.43583e-05 -0.000250068
0.00314223 -0.000286464 1.49777e-05
-0.000286464 0.000411289 -5.09555e-05
1.49777e-05 -5.09555e-05 -0.000323041
0.0015719 7.56039e-05 2.87065e-05
7.56039e-05 0.000275903 9.33105e-05
2.87065e-05 9.33105e-05 -0.000807739
0.0031538 -1.26737e-05 3.90866e-06
-1.26737e-05 -0.00302311 -4.36404e-05
3.90866e-06 -4.36404e-05 -0.000792008
0.000660952 0.000103759 5.56766e-07
0.000103759 0.000280899 -1.20932e-06
5.56766e-07 -1.20932e-06 0.0001856
0.00109821 -3.57626e-05 -1.46961e-07
-3.57626e-05 0.000192629 -9.22473e-06
-1.46961e-07 -9.22473e-06 -0.000119722
0.00229995 1.19136e-05 2.16569e-05
1.19136e-05 0.000512232 6.42579e-06
2.16569e-05 6.42579e-06 -0.000245324
-0.000937369 7.81778e-05 -1.29225e-05
7.81778e-05 -0.000394362 -4.83284e-06
-1.29225e-05 -4.83284e-06 -0.000679394
0.00387165 0.000486351 9.92512e-06
0.000486351 -0.0015927 -1.97045e-06
9.92512e-06 -1.97045e-06 -0.000355637
0.00565919 0.000704147 6.35754e-05
0.000704147 0.00230883 2.37173e-05
6.35754e-05 2.37173e-05 -0.00029016
0.00310635 0.000185014 -4.23183e-05
0.000185014 0.00177417 2.12466e-06
-4.23183e-05 2.12466e-06 0.00117828
0.000147659 0.000126698 -2.36535e-05
0.000126698 7.60511e-05 -1.11389e-05
-2.36535e-05 -1.11389e-05 -7.83104e-05
0.00168798 1.03053e-05 -1.35135e-06
1.03053e-05 0.000262082 -2.78427e-05
-1.35135e-06 -2.78427e-05 1.38931e-05
0.00292136 -5.56013e-05 2.81173e-05
-5.56013e-05 0.00132808 -7.07088e-05
2.81173e-05 -7.07088e-05 0.000574532
0.00457244 0.000770971 8.52533e-05
0.000770971 -0.000184094 -7.09455e-05
8.52533e-05 -7.09455e-05 0.000821391
0.00369026 6.9133e-05 -4.86713e-05
6.9133e-05 0.000135944 5.65495e-05
-4.86713e-05 5.65495e-05 0.000215704
0.00190515 0.000229741 9.06525e-06
0.000229741 0.000270396 -2.95844e-05
9.06525e-06 -2.95844e-05 0.000300841
0.000668362 0.000308978 8.18655e-05
0.000308978 0.00165408 3.06466e-05
8.18655e-05 3.06466e-05 -0.0021705
0.000631124 0.000104569 4.2219e-06
0.000104569 5.96692e-05 6.20608e-06
4.2219e-06 6.20608e-06 -1.86213e-06
0.000699015 6.1138e-05 7.84612e-06
6.1138e-05 0.000229842 1.16939e-06
7.84612e-06 1.16939e-06 0.000170509
0.000538167 1.33504e-05 -5.0603e-06
1.33504e-05 0.000339728 -1.64278e-05
-5.0603e-06 -1.64278e-05 0.00024922
0.000631231 4.43278e-07 3.87298e-07
4.43278e-07 -2.09069e-05 2.55668e-06
3.87298e-07 2.55668e-06 -0.000105236
0.000694685 -3.48129e-05 9.04595e-07
-3.48129e-05 6.23431e-05 4.40553e-06
9.04595e-07 4.40553e-06 -1.72309e-05
0.000377576 -2.20391e-05 -1.53003e-06
-2.20391e-05 -5.14105e-05 1.06522e-05
-1.53003e-06 1.06522e-05 -0.000120117
0.000713282 -2.86426e-05 2.40227e-08
-2.86426e-05 6.88561e-05 -3.91888e-07
2.40227e-08 -3.91888e-07 -4.03439e-06
0.000448566 -1.28686e-05 1.75137e-06
-1.28686e-05 3.03357e-05 2.60694e-06
1.75137e-06 2.60694e-06 -2.26094e-05
0.000629852 -0.000126189 4.5823e-06
-0.000126189 0.00021757 -5.74209e-06
4.5823e-06 -5.74209e-06 7.40811e-05
0.00096179 -5.58984e-06 -1.17914e-06
-5.58984e-06 0.000181385 2.93743e-06
-1.17914e-06 2.93743e-06 0.000112632
0.000689088 4.49687e-05 -1.28711e-06
4.49687e-05 2.45719e-05 1.93411e-06
-1.28711e-06 1.93411e-06 -5.6242e-05
0.00121856 -7.63298e-05 1.02777e-06
-7.63298e-05 0.000345015 1.24757e-06
1.02777e-06 1.24757e-06 0.000255447
0.000135573 -8.15366e-05 4.11575e-06
-8.15366e-05 -0.000156104 1.76223e-06
4.11575e-06 1.76223e-06 -0.00034598
0.000546113 -2.46344e-05 -4.65962e-06
-2.46344e-05 -3.97557e-05 8.16278e-07
-4.65962e-06 8.16278e-07 -0.000114925
0.000277809 -9.03059e-05 1.43649e-06
-9.03059e-05 -0.000178945 -6.62527e-07
1.43649e-06 -6.62527e-07 -0.000316236
0.00103947 -0.000190889 5.56308e-06
-0.000190889 0.00021484 -1.40259e-06
5.56308e-06 -1.40259e-06 9.15589e-06
0.00116575 -0.00021162 -1.21721e-06
-0.00021162 0.000173225 4.67181e-06
-1.21721e-06 4.67181e-06 -3.62805e-05
0.00151365 -0.000129661 -2.28082e-06
-0.000129661 0.000499703 -2.79147e-07
-2.28082e-06 -2.79147e-07 0.000366245
0.000624336 -0.000152175 -3.02613e-07
-0.000152175 -2.75244e-05 -6.9939e-08
-3.02613e-07 -6.9939e-08 -0.000206304
0.00167153 -0.000228384 1.34742e-06
-0.000228384 0.0005347 -1.49528e-06
1.34742e-06 -1.49528e-06 0.000361992
0.000318399 -9.45727e-05 -1.92273e-06
-9.45727e-05 -0.000141441 -4.56462e-07
-1.92273e-06 -4.56462e-07 -0.000295454
0.000910652 -0.000160695 -2.20805e-07
-0.000160695 0.000141734 9.13053e-07
-2.20805e-07 9.13053e-07 -3.1193e-05
0.000766355 -1.98563e-05 7.66608e-08
-1.98563e-05 9.32424e-05 7.19309e-07
7.66608e-08 7.19309e-07 -1.35612e-05
0.00102497 -0.000130754 -2.42965e-06
-0.000130754 0.000253808 1.8778e-06
-2.42965e-06 1.8778e-06 0.000115761
0.000467043 -0.000120301 -1.39375e-06
-0.000120301 -8.49091e-05 -1.00606e-06
-1.39375e-06 -1.00606e-06 -0.00024899
0.000702576 4.35656e-05 2.90482e-07
4.35656e-05 3.70804e-05 9.14451e-07
2.90482e-07 9.14451e-07 -3.8092e-05
0.000714551 -1.03835e-05 7.45185e-07
-1.03835e-05 5.79306e-05 -9.828e-08
7.45185e-07 -9.828e-08 -3.78449e-05
0.000833152 -4.33329e-05 1.55837e-06
-4.33329e-05 0.000142948 -2.77739e-06
1.55837e-06 -2.77739e-06 2.47673e-05
0.00077122 8.29364e-06 9.67616e-08
8.29364e-06 8.3734e-05 -5.6882e-07
9.67616e-08 -5.6882e-07 3.7788e-07
0.000746898 8.7067e-06 -5.31975e-07
8.7067e-06 5.51132e-05 -1.36163e-07
-5.31975e-07 -1.36163e-07 -1.28446e-05
0.000686527 3.95322e-05 -1.51953e-06
3.95322e-05 1.01153e-05 1.60234e-06
-1.51953e-06 1.60234e-06 -3.59053e-05
0.000777616 -2.54027e-05 8.23423e-07
-2.54027e-05 7.1797e-05 -6.62771e-07
8.23423e-07 -6.62771e-07 4.59426e-06
0.00070038 3.17353e-05 -1.99776e-07
3.17353e-05 1.17849e-05 -5.76099e-09
-1.99776e-07 -5.76099e-09 -3.19881e-05
0.000632222 4.13428e-05 -1.07669e-06
4.13428e-05 -2.90679e-05 3.66538e-06
-1.07669e-06 3.66538e-06 -4.31081e-05
0.000720936 1.51388e-05 1.62424e-06
1.51388e-05 1.81279e-05 -1.64742e-06
1.62424e-06 -1.64742e-06 -2.39661e-05
0.000639567 3.49739e-05 1.20035e-07
3.49739e-05 -3.16615e-05 3.06974e-08
1.20035e-07 3.06974e-08 -4.41017e-05
0.0021498 5.90745e-05 -4.60798e-06
5.90745e-05 0.00083948 1.71822e-06
-4.60798e-06 1.71822e-06 0.000853149
0.000627173 2.80765e-05 7.86119e-07
2.80765e-05 -4.39898e-05 -3.62008e-06
7.86119e-07 -3.62008e-06 -5.54538e-05
0.00153284 3.74154e-05 8.32457e-06
3.74154e-05 0.0004796 -1.18374e-06
8.32457e-06 -1.18374e-06 0.000491825
0.002267 3.54826e-05 1.28096e-05
3.54826e-05 0.000895811 -4.44258e-06
1.28096e-05 -4.44258e-06 0.000912322
0.000549461 -1.10914e-05 -2.55176e-07
-1.10914e-05 -5.90585e-05 -1.43215e-06
-2.55176e-07 -1.43215e-06 -0.000134841
0.000422548 -9.04276e-06 -3.6256e-07
-9.04276e-06 -0.000149198 -2.78365e-06
-3.6256e-07 -2.78365e-06 -0.000195061
0.000692631 8.8537e-06 -3.97039e-07
8.8537e-06 2.99997e-05 -6.77736e-07
-3.97039e-07 -6.77736e-07 -4.67891e-05
0.000657189 -1.89348e-05 -2.54835e-07
-1.89348e-05 -3.29874e-05 -3.78018e-06
-2.54835e-07 -3.78018e-06 -4.18143e-05
0.000422849 -7.41437e-06 -1.69286e-07
-7.41437e-06 -0.000148506 -8.37514e-07
-1.69286e-07 -8.37514e-07 -0.00019101
0.000844818 1.25313e-05 -1.9879e-08
1.25313e-05 0.000120403 1.44461e-06
-1.9879e-08 1.44461e-06 4.74441e-05
0.00214344 -2.26337e-05 -9.07648e-06
-2.26337e-05 0.000820099 -4.65861e-06
-9.07648e-06 -4.65861e-06 0.000839139
0.000662833 -1.20731e-05 -1.29216e-07
-1.20731e-05 -3.20706e-05 -2.6066e-08
-1.29216e-07 -2.6066e-08 -3.87245e-05
0.000406542 -6.34658e-06 2.8892e-07
-6.34658e-06 -0.000157069 2.00932e-06
2.8892e-07 2.00932e-06 -0.000196558
0.00209523 -1.05671e-05 -3.15118e-06
-1.05671e-05 0.000790292 3.23178e-08
-3.15118e-06 3.23178e-08 0.00081044
0.000667918 -5.33956e-06 2.22813e-07
-5.33956e-06 -3.03114e-05 3.528e-06
2.22813e-07 3.528e-06 -3.57016e-05
0.00209137 1.28091e-06 -4.58929e-08
1.28091e-06 0.000787689 4.70952e-06
-4.58929e-08 4.70952e-06 0.000808001
0.00145617 1.70507e-05 -1.37931e-05
1.70507e-05 0.000493305 2.18666e-05
-1.37931e-05 2.18666e-05 0.000194149
0.00151705 -2.24556e-05 1.07176e-05
-2.24556e-05 0.000292279 -3.09783e-06
1.07176e-05 -3.09783e-06 -0.000468233
0.0017407 0.000111769 4.2865e-05
0.000111769 0.002158 -2.81371e-05
4.2865e-05 -2.81371e-05 0.00165783
0.000831323 5.16661e-05 -3.24132e-08
5.16661e-05 0.000109432 2.30803e-07
-3.24132e-08 2.30803e-07 1.57778e-05
0.000716997 2.138e-05 -4.49746e-08
2.138e-05 3.36778e-05 3.42348e-07
-4.49746e-08 3.42348e-07 -5.27821e-05
0.000902221 7.359e-05 -3.46069e-07
7.359e-05 0.000145721 9.22406e-07
-3.46069e-07 9.22406e-07 4.72432e-05
0.00185808 -1.4326e-05 6.41388e-06
-1.4326e-05 0.000151215 0.000109332
6.41388e-06 0.000109332 -0.000741926
0.00270955 -5.5587e-05 -7.05349e-06
-5.5587e-05 0.00129479 7.74113e-07
-7.05349e-06 7.74113e-07 0.000469976
0.00308276 -0.000117502 5.27602e-05
-0.000117502 0.00096861 -8.07627e-05
5.27602e-05 -8.07627e-05 -0.000330419
0.0045153 -0.00053879 -4.50922e-05
-0.00053879 0.00080203 -1.42848e-06
-4.50922e-05 -1.42848e-06 2.69706e-05
0.0016854 -0.000282395 -7.46186e-05
-0.000282395 0.000254396 4.72593e-05
-7.46186e-05 4.72593e-05 -0.00195437
0.00673331 0.000767716 6.14291e-05
0.000767716 0.00194606 1.01162e-05
6.14291e-05 1.01162e-05 0.00182379
0.00141512 0.000218555 1.93378e-05
0.000218555 -0.00295912 -5.20042e-05
1.93378e-05 -5.20042e-05 -0.00169111
0.00520695 -0.000888886 -9.13441e-06
-0.000888886 0.00139132 5.19006e-06
-9.13441e-06 5.19006e-06 0.000645566
0.00589656 -0.000446166 7.41154e-06
-0.000446166 0.00261103 3.15431e-06
7.41154e-06 3.15431e-06 8.26977e-05
-0.00168671 0.000238323 -9.40343e-06
0.000238323 -0.000750962 -4.60166e-05
-9.40343e-06 -4.60166e-05 -0.00152734
0.00408741 -2.68816e-05 -1.06425e-05
-2.68816e-05 -0.00185478 1.93825e-05
-1.06425e-05 1.93825e-05 -5.97725e-06
0.00280181 -0.000663853 -2.74131e-05
-0.000663853 0.000245553 -2.18554e-05
-2.74131e-05 -2.18554e-05 -0.000403614
0.0104999 -0.000732348 2.11987e-05
-0.000732348 0.00489208 2.84649e-05
2.11987e-05 2.84649e-05 0.00186108
-0.00754975 -2.9419e-05 5.16143e-05
-2.9419e-05 -0.00105112 -8.61484e-05
5.16143e-05 -8.61484e-05 -0.00231156
0.00238491 -0.00041405 6.17711e-08
-0.00041405 -0.0019985 -2.47564e-06
6.17711e-08 -2.47564e-06 -0.000656138
0.000802923 3.05205e-05 -6.30888e-07
3.05205e-05 9.01993e-05 6.01742e-07
-6.30888e-07 6.01742e-07 -1.75349e-05
0.000778362 -1.97925e-06 6.47552e-08
-1.97925e-06 9.49411e-05 -3.65496e-07
6.47552e-08 -3.65496e-07 -2.26344e-05
0.000792475 -5.11008e-05 6.79661e-07
-5.11008e-05 0.0001142 3.80923e-07
6.79661e-07 3.80923e-07 -3.38055e-06
0.000800616 3.40608e-05 -4.51727e-07
3.40608e-05 8.81542e-05 -4.10298e-07
-4.51727e-07 -4.10298e-07 -1.24095e-05
0.000963772 0.00010743 1.5219e-06
0.00010743 0.000198071 1.0382e-06
1.5219e-06 1.0382e-06 8.82827e-05
0.0010465 9.97094e-05 -4.05039e-07
9.97094e-05 0.000248732 6.99018e-07
-4.05039e-07 6.99018e-07 0.000146032
0.00154213 -0.000375425 6.71826e-06
-0.000375425 0.000134376 4.57691e-06
6.71826e-06 4.57691e-06 5.86569e-05
-0.000677547 -6.13874e-05 1.00828e-05
-6.13874e-05 -0.000648155 -1.40909e-05
1.00828e-05 -1.40909e-05 -0.000667819
0.000931394 5.62261e-05 1.85726e-07
5.62261e-05 0.000192746 7.42204e-07
1.85726e-07 7.42204e-07 6.62463e-05
0.00126672 -0.000113024 1.18555e-05
-0.000113024 0.000346416 -2.05634e-05
1.18555e-05 -2.05634e-05 0.000207815
0.000990155 2.07492e-06 -8.2564e-07
2.07492e-06 0.000248711 -1.10455e-06
-8.2564e-07 -1.10455e-06 9.74848e-05
0.000728616 1.44317e-05 4.4477e-07
1.44317e-05 5.16534e-05 3.7906e-08
4.4477e-07 3.7906e-08 -5.55769e-05
0.00081376 7.3114e-05 3.00946e-07
7.3114e-05 0.000130395 -3.79105e-07
3.00946e-07 -3.79105e-07 2.87776e-06
0.000376359 -0.000275826 -3.06366e-06
-0.000275826 -0.000379734 -2.58395e-06
-3.06366e-06 -2.58395e-06 -0.000378327
0.000942409 -3.61845e-05 1.90343e-06
-3.61845e-05 0.000217915 -2.87814e-06
1.90343e-06 -2.87814e-06 9.4182e-05
0.000449454 -3.79614e-05 1.82213e-05
-3.79614e-05 0.000197068 -1.89268e-07
1.82213e-05 -1.89268e-07 9.08779e-05
0.000964877 4.70326e-05 1.21524e-06
4.70326e-05 0.000192581 3.89732e-07
1.21524e-06 3.89732e-07 8.87613e-05
-0.00232149 8.29975e-05 -2.48819e-05
8.29975e-05 -0.00109909 -2.45777e-05
-2.48819e-05 -2.45777e-05 -0.00143354
0.000739698 -1.06372e-05 2.38809e-06
-1.06372e-05 0.000310738 2.46376e-05
2.38809e-06 2.46376e-05 0.000249738
0.00103879 1.03122e-05 1.04229e-06
1.03122e-05 0.000301615 2.70862e-06
1.04229e-06 2.70862e-06 0.000191063
0.0016924 -1.4851e-05 -1.96349e-06
-1.4851e-05 0.000215992 3.99844e-07
-1.96349e-06 3.99844e-07 6.07089e-05
0.0011309 -1.80928e-05 -1.00271e-05
-1.80928e-05 0.000211088 -2.71782e-06
-1.00271e-05 -2.71782e-06 -4.15816e-06
0.00115267 -3.46466e-05 0.000129437
-3.46466e-05 0.000232277 -1.322e-06
0.000129437 -1.322e-06 -0.000471368
0.000993018 0.000156356 1.98837e-05
0.000156356 0.000458181 1.26038e-05
1.98837e-05 1.26038e-05 0.000353002
0.00272559 0.000374308 3.23461e-06
0.000374308 0.00105972 -1.6212e-05
3.23461e-06 -1.6212e-05 0.000879429
0.0012326 -3.29207e-05 7.93162e-06
-3.29207e-05 0.000268237 8.14641e-06
7.93162e-06 8.14641e-06 -2.21007e-05
-0.00047228 0.000365325 5.01195e-06
0.000365325 -8.26613e-05 1.69556e-05
5.01195e-06 1.69556e-05 -0.00269356
-0.00956531 3.93496e-05 -4.03183e-05
3.93496e-05 -0.00367286 -8.10429e-05
-4.03183e-05 -8.10429e-05 -0.0049291
0.00256589 2.02547e-05 2.54481e-05
2.02547e-05 0.000831419 5.70655e-05
2.54481e-05 5.70655e-05 0.000205563
0.00162409 0.000310016 -1.91049e-05
0.000310016 -0.00291177 5.36216e-05
-1.91049e-05 5.36216e-05 -0.00163643
0.000489499 0.000110258 3.65112e-06
0.000110258 0.000285243 -1.038e-06
3.65112e-06 -1.038e-06 0.000148595
0.00146677 -3.02762e-06 6.03548e-06
-3.02762e-06 0.000132149 -1.19717e-05
6.03548e-06 -1.19717e-05 -6.55781e-05
0.00278368 -4.24661e-05 5.72143e-06
-4.24661e-05 0.00124596 -1.13863e-06
5.72143e-06 -1.13863e-06 0.00045044
0.00124042 0.000200802 1.86005e-05
0.000200802 -7.43025e-05 -2.96658e-06
1.86005e-05 -2.96658e-06 -0.000353825
0.00201467 0.000712657 3.00957e-05
0.000712657 -0.0016129 -6.70237e-05
3.00957e-05 -6.70237e-05 -0.000557605
-0.00163172 0.000238829 7.99958e-06
0.000238829 -0.00138556 4.30137e-05
7.99958e-06 4.30137e-05 -0.00169255
0.00673607 4.28703e-05 5.81318e-05
4.28703e-05 0.00418501 -1.89392e-05
5.81318e-05 -1.89392e-05 0.000353694
0.000647321 4.1721e-07 2.03928e-05
4.1721e-07 0.000618851 -1.07835e-05
2.03928e-05 -1.07835e-05 0.000338866
0.0014272 2.27833e-05 1.23651e-05
2.27833e-05 0.00044 -2.17624e-05
1.23651e-05 -2.17624e-05 0.000147918
0.00266887 -6.3195e-05 0.0001226
-6.3195e-05 0.00049703 -0.000101966
0.0001226 -0.000101966 -0.000618933
0.00279908 0.000985795 -4.74012e-06
0.000985795 0.00144012 -1.18655e-05
-4.74012e-06 -1.18655e-05 0.00251856
-0.00588697 0.00033132 3.78358e-05
0.00033132 -0.00476952 0.000130077
3.78358e-05 0.000130077 -0.0044883
0.0110334 -0.000490389 5.22319e-05
-0.000490389 0.00469822 -6.87105e-05
5.22319e-05 -6.87105e-05 0.00176662
0.00468721 -0.000342494 -8.81691e-05
-0.000342494 0.00133167 0.000111883
-8.81691e-05 0.000111883 0.00131609
0.00123148 6.5216e-05 4.44457e-06
6.5216e-05 0.000527633 6.12516e-06
4.44457e-06 6.12516e-06 0.000462916
7.92971e-05 -1.37569e-05 -5.75055e-06
-1.37569e-05 6.59065e-05 -8.83863e-07
-5.75055e-06 -8.83863e-07 -3.58872e-05
-9.6864e-06 -0.000148869 4.3928e-06
-0.000148869 9.35329e-05 -1.3296e-05
4.3928e-06 -1.3296e-05 -0.000128007
0.000732207 -4.10429e-05 1.0667e-06
-4.10429e-05 8.02601e-05 1.63747e-06
1.0667e-06 1.63747e-06 4.92973e-06
0.000227593 -1.31975e-05 9.72413e-06
-1.31975e-05 -9.32618e-05 1.31333e-05
9.72413e-06 1.31333e-05 -0.000146547
0.000350504 -7.86901e-05 -1.34799e-06
-7.86901e-05 6.73008e-05 2.7744e-07
-1.34799e-06 2.7744e-07 -6.08599e-05
0.0010774 -0.000184313 2.00983e-05
-0.000184313 0.000449187 -1.31231e-05
2.00983e-05 -1.31231e-05 0.000202328
0.00178541 -0.000108869 -3.19469e-06
-0.000108869 0.000651257 2.62604e-06
-3.19469e-06 2.62604e-06 0.000554312
0.0013805 -0.000196274 1.36805e-06
-0.000196274 0.000481185 3.85188e-07
1.36805e-06 3.85188e-07 0.000285238
0.00103176 -0.000208279 8.2546e-06
-0.000208279 0.000294317 2.42589e-06
8.2546e-06 2.42589e-06 -2.0222e-05
7.64232e-05 -7.54936e-05 -2.10469e-06
-7.54936e-05 -0.000289295 -1.57543e-06
-2.10469e-06 -1.57543e-06 -0.000414435
0.00107829 -0.000191556 -4.26913e-07
-0.000191556 0.000225079 1.16146e-06
-4.26913e-07 1.16146e-06 1.3004e-05
0.00236442 -0.000327336 2.35597e-06
-0.000327336 0.000820933 1.5732e-06
2.35597e-06 1.5732e-06 0.000556863
0.00162635 -0.000276568 -3.00586e-06
-0.000276568 0.00028825 1.68686e-06
-3.00586e-06 1.68686e-06 5.37084e-05
0.000541122 -0.000156673 -6.77988e-08
-0.000156673 -0.000147447 6.16064e-06
-6.77988e-08 6.16064e-06 -0.00033279
0.00134098 -0.000225313 -2.43005e-06
-0.000225313 0.000270977 1.51562e-06
-2.43005e-06 1.51562e-06 5.79363e-05
0.000914717 -0.000175548 -3.79883e-06
-0.000175548 0.000126599 9.13005e-07
-3.79883e-06 9.13005e-07 -5.89688e-05
0.00148433 -0.000206484 3.46808e-06
-0.000206484 0.000457469 -2.95807e-06
3.46808e-06 -2.95807e-06 0.000293334
0.00119033 -0.000188651 2.69171e-06
-0.000188651 0.000272499 -2.27204e-06
2.69171e-06 -2.27204e-06 0.000111774
0.000411979 -4.12482e-05 1.36895e-06
-4.12482e-05 -9.62776e-05 1.07676e-06
1.36895e-06 1.07676e-06 -0.000228766
0.000739805 -0.00012564 1.10508e-06
-0.00012564 9.51186e-05 -3.66303e-07
1.10508e-06 -3.66303e-07 -6.10139e-05
0.00116539 -0.000178598 5.10205e-06
-0.000178598 0.000284497 -3.05683e-06
5.10205e-06 -3.05683e-06 0.000114176
0.000709774 5.34889e-05 1.01533e-06
5.34889e-05 5.12096e-05 1.33618e-06
1.01533e-06 1.33618e-06 -3.80079e-05
0.000876463 -4.48643e-05 -2.81963e-07
-4.48643e-05 0.000156812 -1.14086e-07
-2.81963e-07 -1.14086e-07 4.57837e-05
0.00101207 -0.000128196 -6.54753e-07
-0.000128196 0.000244956 -3.53734e-07
-6.54753e-07 -3.53734e-07 0.000106441
0.000664961 4.74002e-05 -1.01687e-06
4.74002e-05 5.95949e-06 1.6921e-06
-1.01687e-06 1.6921e-06 -4.46576e-05
0.000749641 1.71184e-05 -6.98333e-07
1.71184e-05 6.18094e-05 -2.81259e-07
-6.98333e-07 -2.81259e-07 -1.3407e-05
0.000578507 -1.1571e-06 -4.76832e-08
-1.1571e-06 -1.54309e-05 -8.70728e-07
-4.76832e-08 -8.70728e-07 -0.000112682
0.000785583 -1.39102e-05 7.23733e-07
-1.39102e-05 7.70896e-05 -9.86772e-07
7.23733e-07 -9.86772e-07 8.13985e-06
0.000698072 3.41137e-05 -2.75416e-07
3.41137e-05 1.57381e-05 -5.03141e-08
-2.75416e-07 -5.03141e-08 -2.98917e-05
0.00061544 4.79907e-05 -1.16696e-06
4.79907e-05 -3.00919e-05 3.73233e-06
-1.16696e-06 3.73233e-06 -4.65265e-05
0.000711577 2.47316e-05 1.68231e-06
2.47316e-05 1.67746e-05 -1.66334e-06
1.68231e-06 -1.66334e-06 -2.63909e-05
0.000633744 4.22314e-05 6.30112e-08
4.22314e-05 -2.81564e-05 1.04273e-08
6.30112e-08 1.04273e-08 -4.22593e-05
0.00218656 6.42862e-05 -2.28888e-05
6.42862e-05 0.000867457 3.69728e-06
-2.28888e-05 3.69728e-06 0.000879976
0.000632136 3.55988e-05 8.70298e-07
3.55988e-05 -3.60237e-05 -3.63965e-06
8.70298e-07 -3.63965e-06 -4.84673e-05
0.00151411 4.64993e-05 9.75487e-06
4.64993e-05 0.000475817 -1.03465e-06
9.75487e-06 -1.03465e-06 0.000486592
0.00224593 4.61945e-05 1.65247e-05
4.61945e-05 0.000889106 -4.15806e-06
1.65247e-05 -4.15806e-06 0.000904492
0.000746297 4.07886e-05 -6.56718e-07
4.07886e-05 5.08065e-05 -6.3035e-07
-6.56718e-07 -6.3035e-07 -2.58868e-05
0.000693875 -1.28463e-06 -7.38913e-07
-1.28463e-06 3.0386e-06 -2.05655e-06
-7.38913e-07 -2.05655e-06 -4.35925e-05
0.000644412 2.63255e-05 -8.6695e-07
2.63255e-05 8.66879e-07 -6.23486e-07
-8.6695e-07 -6.23486e-07 -7.88119e-05
0.000645373 -2.58451e-05 -1.10748e-07
-2.58451e-05 -3.60468e-05 -3.93515e-06
-1.10748e-07 -3.93515e-06 -4.75553e-05
0.000550019 -2.93537e-06 -6.85604e-07
-2.93537e-06 -7.73129e-05 -8.315e-07
-6.85604e-07 -8.315e-07 -0.000122113
0.000852618 1.84653e-05 3.1072e-07
1.84653e-05 0.000120681 3.8782e-07
3.1072e-07 3.8782e-07 4.45489e-05
0.00221051 -3.38567e-05 -1.33963e-05
-3.38567e-05 0.000861732 -4.565e-06
-1.33963e-05 -4.565e-06 0.000879224
0.000655573 -1.8583e-05 -2.1016e-07
-1.8583e-05 -3.39241e-05 -2.3744e-08
-2.1016e-07 -2.3744e-08 -4.26581e-05
0.000396177 -7.78116e-06 -1.79371e-07
-7.78116e-06 -0.000163562 1.29964e-06
-1.79371e-07 1.29964e-06 -0.000206511
0.00213525 -2.16215e-05 -3.02841e-06
-2.16215e-05 0.000815006 6.621e-08
-3.02841e-06 6.621e-08 0.000834257
0.000663751 -1.18847e-05 2.75107e-07
-1.18847e-05 -3.14294e-05 3.61434e-06
2.75107e-07 3.61434e-06 -3.80501e-05
0.00209567 -9.54966e-06 4.43485e-06
-9.54966e-06 0.000790326 4.70294e-06
4.43485e-06 4.70294e-06 0.000810526
0.00157102 -1.26117e-05 -1.58821e-06
-1.26117e-05 0.000215505 2.95912e-05
-1.58821e-06 2.95912e-05 -5.55973e-05
0.00140085 1.12563e-05 -5.50747e-06
1.12563e-05 0.000417686 2.18016e-08
-5.50747e-06 2.18016e-08 0.000105732
0.0017074 -1.48038e-05 9.26111e-05
-1.48038e-05 0.000472328 -2.5217e-05
9.26111e-05 -2.5217e-05 -0.000305004
0.00068794 -1.77537e-05 -1.38032e-07
-1.77537e-05 1.13929e-05 -2.67552e-07
-1.38032e-07 -2.67552e-07 -6.90768e-05
0.000876988 9.82249e-06 -9.16646e-07
9.82249e-06 0.000126701 -4.39948e-07
-9.16646e-07 -4.39948e-07 3.80253e-05
0.000849941 4.90192e-05 1.39361e-06
4.90192e-05 0.000118444 2.56104e-07
1.39361e-06 2.56104e-07 2.76981e-05
0.000720978 6.31249e-06 1.62693e-07
6.31249e-06 3.10468e-05 1.17573e-07
1.62693e-07 1.17573e-07 -5.16439e-05
0.000807675 3.07191e-05 -2.21125e-08
3.07191e-05 9.16769e-05 2.22388e-07
-2.21125e-08 2.22388e-07 -5.40515e-06
0.000822596 1.23767e-05 -1.10493e-06
1.23767e-05 9.56164e-05 3.94569e-07
-1.10493e-06 3.94569e-07 6.08878e-06
0.000923511 0.000142666 6.63963e-07
0.000142666 0.000170214 7.87054e-07
6.63963e-07 7.87054e-07 5.79613e-05
0.000805642 2.40164e-05 2.83399e-05
2.40164e-05 0.000201134 0.000109233
2.83399e-05 0.000109233 -0.000833691
0.00219297 -4.66157e-06 -3.99536e-06
-4.66157e-06 0.000528643 3.29974e-05
-3.99536e-06 3.29974e-05 -0.000220203
0.0025452 -3.75066e-05 1.08531e-05
-3.75066e-05 0.0011813 -6.08234e-05
1.08531e-05 -6.08234e-05 0.000326405
0.00292948 -8.12491e-05 -1.47909e-05
-8.12491e-05 -0.0030782 1.05549e-05
-1.47909e-05 1.05549e-05 -0.000913626
0.00359795 -0.00076724 -3.52445e-05
-0.00076724 0.000964765 5.52901e-05
-3.52445e-05 5.52901e-05 4.0406e-05
-0.00131211 -0.000642494 3.26932e-05
-0.000642494 -0.000725372 2.23606e-05
3.26932e-05 2.23606e-05 -0.00347364
0.00577135 0.000819658 4.16309e-05
0.000819658 0.00329931 -2.57108e-05
4.16309e-05 -2.57108e-05 0.00199508
0.00431999 -0.000795852 -1.58905e-05
-0.000795852 0.000982345 2.95429e-06
-1.58905e-05 2.95429e-06 0.000186716
0.000564158 -0.00036918 4.21561e-05
-0.00036918 0.000613234 -3.24179e-06
4.21561e-05 -3.24179e-06 -0.00237682
0.00385675 -8.96476e-05 -2.76391e-05
-8.96476e-05 0.00199675 6.02004e-07
-2.76391e-05 6.02004e-07 0.00135445
0.00672683 -0.000575533 -1.91677e-05
-0.000575533 0.000753065 -2.75283e-05
-1.91677e-05 -2.75283e-05 0.0020444
0.00219314 -5.76444e-05 -4.96431e-05
-5.76444e-05 -0.000164867 3.29482e-05
-4.96431e-05 3.29482e-05 -9.25615e-05
0.000512555 0.000343491 2.36367e-05
0.000343491 0.000322976 -7.51124e-05
2.36367e-05 -7.51124e-05 -0.00239198
-0.00654374 -0.000779682 4.24817e-05
-0.000779682 -0.0042378 -4.20882e-05
4.24817e-05 -4.20882e-05 -0.00538342
0.00190263 -0.000562065 1.86706e-05
-0.000562065 -0.00169492 -9.20869e-05
1.86706e-05 -9.20869e-05 -0.000250378
0.000819322 -1.24243e-05 -1.33304e-06
-1.24243e-05 9.81556e-05 1.27731e-06
-1.33304e-06 1.27731e-06 8.98456e-06
0.000780651 3.00487e-05 1.67076e-07
3.00487e-05 7.93098e-05 1.03421e-07
1.67076e-07 1.03421e-07 -2.86238e-05
0.000773314 1.26806e-05 -5.68421e-08
1.26806e-05 9.73455e-05 -4.69878e-07
-5.68421e-08 -4.69878e-07 -2.38934e-05
0.000833469 3.42702e-05 2.48717e-07
3.42702e-05 0.000114118 -1.06973e-06
2.48717e-07 -1.06973e-06 7.67018e-06
0.00101488 -0.00032006 -8.49007e-07
-0.00032006 -0.000108139 1.75318e-05
-8.49007e-07 1.75318e-05 -0.000167054
0.000692924 -2.35518e-05 -7.13077e-06
-2.35518e-05 0.000331894 -1.84759e-05
-7.13077e-06 -1.84759e-05 0.000239437
0.000681663 9.57413e-07 1.42677e-07
9.57413e-07 1.95005e-05 -1.32808e-06
1.42677e-07 -1.32808e-06 -8.4903e-05
0.00085648 8.61826e-05 -9.40338e-07
8.61826e-05 0.000157998 3.92748e-07
-9.40338e-07 3.92748e-07 2.59974e-05
0.00156822 -5.33377e-05 7.88564e-06
-5.33377e-05 0.000581013 -1.95107e-05
7.88564e-06 -1.95107e-05 0.000452134
0.000767647 2.67763e-05 -5.27769e-07
2.67763e-05 8.19445e-05 -1.22158e-07
-5.27769e-07 -1.22158e-07 -2.00405e-05
0.000845785 3.11738e-05 -1.06755e-06
3.11738e-05 0.000195482 -1.69143e-06
-1.06755e-06 -1.69143e-06 8.47443e-05
-0.000419127 1.49678e-05 -6.91809e-07
1.49678e-05 -0.000198145 -1.10331e-05
-6.91809e-07 -1.10331e-05 -0.000586427
0.00113527 -3.41084e-05 2.02518e-05
-3.41084e-05 0.000547419 -6.44435e-07
2.02518e-05 -6.44435e-07 0.000499751
0.000571046 2.99652e-05 1.94582e-07
2.99652e-05 3.14999e-05 4.26897e-07
1.94582e-07 4.26897e-07 -6.07288e-05
0.000358196 -5.57537e-06 -2.69339e-05
-5.57537e-06 0.00074905 -4.98836e-05
-2.69339e-05 -4.98836e-05 -0.000311333
0.00259179 4.54323e-05 7.15515e-06
4.54323e-05 0.00129412 1.66834e-05
7.15515e-06 1.66834e-05 0.00118965
0.00136438 -1.50583e-05 1.81983e-05
-1.50583e-05 0.000360952 2.55336e-06
1.81983e-05 2.55336e-06 0.00011797
0.00131342 -1.60422e-05 -6.44488e-07
-1.60422e-05 7.3714e-05 -4.60093e-08
-6.44488e-07 -4.60093e-08 -5.67607e-05
0.000951435 -1.52957e-05 1.10413e-06
-1.52957e-05 0.000108454 -3.55062e-06
1.10413e-06 -3.55062e-06 -8.10613e-05
0.000419397 8.22101e-05 1.20168e-05
8.22101e-05 0.000264821 6.27856e-06
1.20168e-05 6.27856e-06 0.000147333
0.000575814 0.000172677 -2.79992e-05
0.000172677 -0.000312737 2.45817e-05
-2.79992e-05 2.45817e-05 -0.000388937
0.00126937 -1.19585e-05 9.65138e-06
-1.19585e-05 1.72959e-05 6.72918e-06
9.65138e-06 6.72918e-06 -0.000128295
0.00307642 -0.000546628 0.000145163
-0.000546628 0.00247842 -0.000116608
0.000145163 -0.000116608 -0.00105641
0.00669251 0.000873301 -3.94409e-05
0.000873301 0.00315354 2.73785e-05
-3.94409e-05 2.73785e-05 0.00217585
0.00263731 -3.10562e-05 -1.70323e-05
-3.10562e-05 0.00114884 6.28381e-05
-1.70323e-05 6.28381e-05 0.000317295
0.00371961 0.000762273 -1.60947e-05
0.000762273 -0.000499138 -3.43044e-06
-1.60947e-05 -3.43044e-06 0.000446008
-0.000555363 2.25622e-05 1.5124e-05
2.25622e-05 3.0986e-05 2.49776e-06
1.5124e-05 2.49776e-06 -0.000320426
0.00143235 1.67887e-05 5.63815e-06
1.67887e-05 0.000408983 2.76481e-08
5.63815e-06 2.76481e-08 0.000112552
0.00284193 -9.05294e-05 3.57753e-05
-9.05294e-05 0.000669226 -3.24045e-06
3.57753e-05 -3.24045e-06 -0.000532063
0.00109663 -0.000105475 -5.58479e-06
-0.000105475 -0.000550476 2.45165e-05
-5.58479e-06 2.45165e-05 -0.000344539
-0.00151986 0.00103888 4.34672e-05
0.00103888 -0.0010365 -1.62573e-05
4.34672e-05 -1.62573e-05 0.000480807
0.00501027 0.0006036 -1.86352e-05
0.0006036 0.000161252 4.51027e-05
-1.86352e-05 4.51027e-05 0.000411667
-0.00189583 -0.000576247 5.13913e-05
-0.000576247 -0.000352311 -3.99492e-05
5.13913e-05 -3.99492e-05 -0.00402897
0.000614596 -1.83371e-05 4.07586e-05
-1.83371e-05 0.000227623 -8.46367e-06
4.07586e-05 -8.46367e-06 0.000123906
0.000998369 -3.22952e-05 6.55164e-05
-3.22952e-05 -0.000106888 -2.73845e-05
6.55164e-05 -2.73845e-05 -0.00086911
-0.00168538 0.000205462 -8.25659e-05
0.000205462 0.00027761 -2.1713e-05
-8.25659e-05 -2.1713e-05 -0.000309937
0.000346596 0.00087293 -8.35552e-05
0.00087293 -0.000509758 0.000113778
-8.35552e-05 0.000113778 1.41133e-05
0.00829004 -0.000162232 1.27152e-05
-0.000162232 0.00376932 -2.92698e-05
1.27152e-05 -2.92698e-05 0.00100151
0.00302408 -0.000312959 -8.01544e-05
-0.000312959 0.000471053 6.94374e-05
-8.01544e-05 6.94374e-05 0.000134571
-0.000592249 -1.66168e-05 -8.31246e-06
-1.66168e-05 -0.000306056 1.14848e-05
-8.31246e-06 1.14848e-05 -0.000433828
7.45028e-05 -0.000103506 8.5824e-07
-0.000103506 0.000142832 -4.48516e-07
8.5824e-07 -4.48516e-07 -6.32492e-05
0.000822954 -0.000195043 1.81685e-05
-0.000195043 0.000286659 -8.3008e-06
1.81685e-05 -8.3008e-06 0.000149502
-7.60907e-06 -3.40686e-05 -3.33745e-06
-3.40686e-05 -0.000127423 4.2356e-06
-3.33745e-06 4.2356e-06 -0.000241131
-0.000300102 -9.54939e-05 3.46069e-07
-9.54939e-05 -0.000252868 -3.26126e-06
3.46069e-07 -3.26126e-06 -0.000504817
0.00201216 -0.000327591 2.21444e-05
-0.000327591 0.000620115 -5.13823e-06
2.21444e-05 -5.13823e-06 0.00038183
0.00263064 -0.000314838 -5.38453e-06
-0.000314838 0.00112169 1.05212e-06
-5.38453e-06 1.05212e-06 0.00091754
0.00162352 -0.000248078 2.34047e-06
-0.000248078 0.0005789 9.66129e-07
2.34047e-06 9.66129e-07 0.000277336
0.000749823 -0.000237591 4.94138e-06
-0.000237591 -9.20919e-05 -4.45182e-06
4.94138e-06 -4.45182e-06 -0.000374275
0.00117708 -0.000197531 -4.6553e-06
-0.000197531 0.000267372 4.15777e-07
-4.6553e-06 4.15777e-07 4.93324e-05
0.00204295 -0.000302981 1.64204e-06
-0.000302981 0.000639675 -2.76767e-08
1.64204e-06 -2.76767e-08 0.0003756
0.00173511 -0.000299327 3.10322e-06
-0.000299327 0.000320385 -4.32868e-06
3.10322e-06 -4.32868e-06 7.20597e-05
0.00153507 -0.000263241 7.31297e-07
-0.000263241 0.000127246 -3.46543e-06
7.31297e-07 -3.46543e-06 -7.1268e-05
0.00255387 -0.000332551 -5.76888e-06
-0.000332551 0.000818143 6.49039e-06
-5.76888e-06 6.49039e-06 0.000592159
0.00176105 -0.000287597 -1.23719e-06
-0.000287597 0.000351972 -6.51233e-08
-1.23719e-06 -6.51233e-08 0.000111501
0.000378685 -0.000138238 3.47879e-06
-0.000138238 -0.000220139 -3.35387e-07
3.47879e-06 -3.35387e-07 -0.000382517
0.000951784 -0.00018517 2.05271e-06
-0.00018517 8.20645e-05 -3.24293e-07
2.05271e-06 -3.24293e-07 -9.93738e-05
0.00158689 -0.000244375 -1.49121e-06
-0.000244375 0.000407837 -1.4631e-06
-1.49121e-06 -1.4631e-06 0.000191087
0.00111592 -0.000169038 1.33721e-06
-0.000169038 0.000271264 -3.37052e-07
1.33721e-06 -3.37052e-07 0.000110106
0.00117782 -0.000181318 -1.37709e-06
-0.000181318 0.000286149 -1.10085e-06
-1.37709e-06 -1.10085e-06 0.000124323
0.000741292 -0.000151494 3.6765e-06
-0.000151494 2.90828e-05 -2.44449e-06
3.6765e-06 -2.44449e-06 -0.00012021
0.00068848 -4.33775e-06 1.60275e-06
-4.33775e-06 4.89678e-05 1.42254e-06
1.60275e-06 1.42254e-06 -6.29458e-05
0.000655436 -6.11105e-05 1.08364e-07
-6.11105e-05 4.22941e-05 8.09939e-07
1.08364e-07 8.09939e-07 -9.11443e-05
0.00119423 -0.000159812 1.75362e-06
-0.000159812 0.000350608 -1.4881e-06
1.75362e-06 -1.4881e-06 0.000191488
0.000623447 6.33269e-05 6.78613e-08
6.33269e-05 -4.45781e-06 2.21091e-06
6.78613e-08 2.21091e-06 -6.67633e-05
0.000751906 1.16594e-05 -3.849e-07
1.16594e-05 7.57961e-05 -2.48529e-07
-3.849e-07 -2.48529e-07 -1.62866e-05
0.000961757 -6.34516e-05 -4.80471e-07
-6.34516e-05 0.000206573 -8.82717e-07
-4.80471e-07 -8.82717e-07 9.15734e-05
0.000597213 5.42533e-05 -1.99307e-06
5.42533e-05 -3.09378e-05 5.17158e-06
-1.99307e-06 5.17158e-06 -5.02958e-05
0.000681701 4.45678e-05 -2.84051e-07
4.45678e-05 1.4761e-05 -1.81362e-07
-2.84051e-07 -1.81362e-07 -3.57238e-05
0.00079598 -6.42122e-06 7.65857e-08
-6.42122e-06 8.74856e-05 -1.30445e-06
7.65857e-08 -1.30445e-06 1.13631e-05
0.000703211 3.256e-05 1.27062e-06
3.256e-05 1.80941e-05 -1.7656e-06
1.27062e-06 -1.7656e-06 -2.73675e-05
0.000625604 4.92996e-05 1.94316e-08
4.92996e-05 -2.40298e-05 -4.32877e-09
1.94316e-08 -4.32877e-09 -4.06605e-05
0.0021966 7.4442e-05 -2.59301e-05
7.4442e-05 0.000881481 3.35475e-06
-2.59301e-05 3.35475e-06 0.000891707
0.000636332 4.32272e-05 9.26149e-07
4.32272e-05 -2.66215e-05 -3.65809e-06
9.26149e-07 -3.65809e-06 -4.08077e-05
0.00220485 6.56218e-05 1.97973e-06
6.56218e-05 0.00087882 1.4209e-07
1.97973e-06 1.4209e-07 0.00089105
0.00222016 5.65161e-05 1.98094e-05
5.65161e-05 0.000880904 -3.84026e-06
1.98094e-05 -3.84026e-06 0.00089484
0.000782117 2.07283e-05 -2.59859e-07
2.07283e-05 8.05449e-05 -5.52714e-07
-2.59859e-07 -5.52714e-07 -1.07808e-05
0.000787938 5.40994e-05 -8.82125e-07
5.40994e-05 8.17887e-05 -1.05324e-06
-8.82125e-07 -1.05324e-06 -2.4187e-06
0.000695748 -9.70522e-06 -9.11254e-07
-9.70522e-06 3.83388e-06 -2.10752e-06
-9.11254e-07 -2.10752e-06 -4.56416e-05
0.000764124 4.70768e-05 -1.0002e-07
4.70768e-05 6.10538e-05 5.74357e-09
-1.0002e-07 5.74357e-09 -1.59065e-05
0.000631116 -3.28043e-05 -2.00982e-07
-3.28043e-05 -3.8994e-05 -4.1136e-06
-2.00982e-07 -4.1136e-06 -5.36424e-05
0.000699471 -2.27257e-06 -1.15752e-07
-2.27257e-06 6.65174e-06 -3.359e-08
-1.15752e-07 -3.359e-08 -4.00495e-05
0.000730608 2.93829e-05 -3.62619e-07
2.93829e-05 4.03454e-05 3.93093e-07
-3.62619e-07 3.93093e-07 -3.24307e-05
0.00228515 -4.52018e-05 -1.76326e-05
-4.52018e-05 0.000908845 -4.44842e-06
-1.76326e-05 -4.44842e-06 0.000924392
0.000647147 -2.5311e-05 -1.77268e-07
-2.5311e-05 -3.50585e-05 -3.14799e-08
-1.77268e-07 -3.14799e-08 -4.64689e-05
0.000683346 1.33244e-06 -2.73202e-07
1.33244e-06 -2.18015e-06 1.32409e-06
-2.73202e-07 1.32409e-06 -4.59369e-05
0.00219229 -3.28416e-05 -3.11596e-06
-3.28416e-05 0.000850758 1.00251e-07
-3.11596e-06 1.00251e-07 0.00086855
0.000656362 -1.82827e-05 2.02421e-07
-1.82827e-05 -3.3471e-05 3.71722e-06
2.02421e-07 3.71722e-06 -4.21253e-05
0.00212034 -2.05377e-05 8.78516e-06
-2.05377e-05 0.000806081 4.62228e-06
8.78516e-06 4.62228e-06 0.000825557
0.000911874 -5.10851e-05 8.96012e-06
-5.10851e-05 0.000120802 3.09822e-05
8.96012e-06 3.09822e-05 -0.000236107
0.00142962 -1.82454e-05 -7.76309e-06
-1.82454e-05 0.000130166 1.2507e-05
-7.76309e-06 1.2507e-05 -8.13224e-05
0.00138069 9.40377e-07 7.03229e-06
9.40377e-07 0.000349401 -1.78254e-05
7.03229e-06 -1.78254e-05 3.64972e-05
0.000769077 1.97181e-05 -1.8092e-07
1.97181e-05 6.67462e-05 -6.40286e-08
-1.8092e-07 -6.40286e-08 -2.10037e-05
0.000768623 -5.07035e-06 -7.8168e-08
-5.07035e-06 6.63694e-05 2.12288e-07
-7.8168e-08 2.12288e-07 -2.20031e-05
0.000723918 -3.61358e-06 -1.22231e-06
-3.61358e-06 4.328e-05 -1.68189e-06
-1.22231e-06 -1.68189e-06 -4.78066e-05
0.000645794 -2.07761e-05 -5.77271e-07
-2.07761e-05 -4.1998e-06 -6.876e-07
-5.77271e-07 -6.876e-07 -9.1049e-05
0.000967152 7.313e-05 -1.21982e-06
7.313e-05 0.000190715 -2.72597e-07
-1.21982e-06 -2.72597e-07 8.82168e-05
0.000733697 -1.29092e-05 4.8273e-08
-1.29092e-05 3.55725e-05 -1.04305e-07
4.8273e-08 -1.04305e-07 -4.49541e-05
0.000738768 9.10233e-06 9.1776e-07
9.10233e-06 4.67799e-05 -6.97143e-07
9.1776e-07 -6.97143e-07 -4.57871e-05
0.000799247 2.4502e-05 -9.60263e-08
2.4502e-05 8.58863e-05 -4.0601e-08
-9.60263e-08 -4.0601e-08 -5.84378e-06
0.000888703 5.73041e-05 1.73109e-07
5.73041e-05 0.000134059 1.90043e-07
1.73109e-07 1.90043e-07 3.39129e-05
0.000937308 2.67907e-05 -5.66699e-07
2.67907e-05 0.000175319 3.40141e-07
-5.66699e-07 3.40141e-07 7.83954e-05
0.00203781 2.99929e-05 9.49627e-05
2.99929e-05 0.00060368 0.000123956
9.49627e-05 0.000123956 -0.000623337
0.00118147 4.43776e-05 7.44758e-06
4.43776e-05 0.000259675 2.97408e-05
7.44758e-06 2.97408e-05 -0.000796685
0.0025488 6.16796e-06 -1.14292e-05
6.16796e-06 0.000925783 -2.3842e-05
-1.14292e-05 -2.3842e-05 0.000326071
0.00651511 -0.000516314 -3.9138e-05
-0.000516314 0.000831864 -7.19546e-05
-3.9138e-05 -7.19546e-05 0.00216117
-0.0095865 0.000314819 -5.01182e-05
0.000314819 -0.00345896 0.000106003
-5.01182e-05 0.000106003 -0.00482666
0.00471435 -0.000777145 -8.55627e-05
-0.000777145 0.00146321 5.05037e-05
-8.55627e-05 5.05037e-05 0.00066021
0.00843862 -0.0003544 -1.74826e-05
-0.0003544 0.00314691 -3.77266e-05
-1.74826e-05 -3.77266e-05 0.000727528
0.00311669 -0.000195749 -3.82759e-05
-0.000195749 0.000355181 4.65041e-05
-3.82759e-05 4.65041e-05 2.91634e-05
0.0102781 -0.000188454 4.72404e-05
-0.000188454 0.00462564 -1.61628e-05
4.72404e-05 -1.61628e-05 0.0016342
0.00139208 -0.000454882 2.92561e-05
-0.000454882 -0.000257828 1.94024e-05
2.92561e-05 1.94024e-05 -0.00080475
0.00159513 -0.000667089 -6.12549e-05
-0.000667089 -0.00199043 -0.000133924
-6.12549e-05 -0.000133924 -0.000509868
0.00432965 0.000116112 -9.4627e-05
0.000116112 0.00084385 -6.99973e-06
-9.4627e-05 -6.99973e-06 0.000491179
0.00813006 0.000183802 -9.13249e-06
0.000183802 0.00323623 3.68054e-05
-9.13249e-06 3.68054e-05 0.00101638
0.00801463 -0.00112739 -1.60221e-05
-0.00112739 0.00226001 -8.16052e-05
-1.60221e-05 -8.16052e-05 0.00237388
0.00418222 -0.00103663 3.21774e-05
-0.00103663 0.000504945 4.87269e-06
3.21774e-05 4.87269e-06 0.00210697
0.000539788 3.7174e-05 1.14545e-06
3.7174e-05 -3.73149e-06 1.12237e-06
1.14545e-06 1.12237e-06 -7.80498e-05
0.000913177 -1.24634e-05 -6.3665e-08
-1.24634e-05 0.000157674 6.08941e-07
-6.3665e-08 6.08941e-07 6.57467e-05
0.000785823 2.6649e-05 2.28968e-07
2.6649e-05 8.03609e-05 -6.1917e-07
2.28968e-07 -6.1917e-07 -2.58134e-05
0.000466552 3.48544e-05 -3.46408e-05
3.48544e-05 0.000214117 1.78715e-05
-3.46408e-05 1.78715e-05 -0.000239818
0.00104575 -7.24842e-05 -5.02093e-05
-7.24842e-05 0.000521744 -1.39224e-05
-5.02093e-05 -1.39224e-05 0.00049037
0.000683337 -3.58489e-06 1.84921e-07
-3.58489e-06 3.76837e-05 1.92105e-07
1.84921e-07 1.92105e-07 -6.52131e-05
0.000193564 8.09867e-06 3.02985e-07
8.09867e-06 -0.000168375 -5.64024e-06
3.02985e-07 -5.64024e-06 -0.000270414
0.000690517 2.89465e-05 -1.06522e-07
2.89465e-05 0.000102198 -2.0929e-06
-1.06522e-07 -2.0929e-06 6.7856e-06
0.000362971 2.73259e-05 -3.28307e-06
2.73259e-05 0.000106191 4.71483e-06
-3.28307e-06 4.71483e-06 -4.16492e-06
2.23538e-05 -1.30153e-05 6.54571e-05
-1.30153e-05 0.00062108 -3.54014e-05
6.54571e-05 -3.54014e-05 -0.00040375
-0.00120334 -9.90659e-06 -1.55893e-05
-9.90659e-06 -0.000759945 1.0039e-05
-1.55893e-05 1.0039e-05 -0.000856805
0.00136482 0.000156368 -1.01966e-05
0.000156368 0.000688526 -3.281e-05
-1.01966e-05 -3.281e-05 7.62225e-05
0.00156355 -1.37159e-06 7.39906e-05
-1.37159e-06 0.00036693 7.79122e-06
7.39906e-05 7.79122e-06 -0.000346248
0.00115059 -1.6542e-05 1.09586e-05
-1.6542e-05 0.000225727 3.0376e-06
1.09586e-05 3.0376e-06 1.08084e-05
0.00100165 -1.57141e-05 6.16278e-07
-1.57141e-05 -4.0576e-05 -8.45337e-07
6.16278e-07 -8.45337e-07 -0.000145392
-0.00171394 -1.60419e-06 -1.68825e-05
-1.60419e-06 -0.000510817 1.09849e-05
-1.68825e-05 1.09849e-05 -0.000949956
0.00268227 6.49735e-06 5.76352e-07
6.49735e-06 0.000138245 -3.09167e-05
5.76352e-07 -3.09167e-05 -0.000123215
0.00144463 6.62849e-06 -5.30217e-06
6.62849e-06 0.000371382 1.71161e-05
-5.30217e-06 1.71161e-05 7.88369e-05
0.0145727 -0.000605068 0.000108178
-0.000605068 0.00644507 -1.0845e-05
0.000108178 -1.0845e-05 0.00353417
0.00652625 0.000801119 -4.40918e-05
0.000801119 0.00187445 -1.1755e-05
-4.40918e-05 -1.1755e-05 0.00172791
0.00316012 -0.000107743 -5.44896e-05
-0.000107743 0.00090613 8.18251e-05
-5.44896e-05 8.18251e-05 -0.000347628
-0.00581155 0.00111769 0.000198296
0.00111769 -0.00359053 -0.000170631
0.000198296 -0.000170631 -0.00161902
0.000504171 -4.61619e-05 -4.49099e-06
-4.61619e-05 0.00025674 -2.15988e-07
-4.49099e-06 -2.15988e-07 0.000112208
0.00155862 -2.80974e-05 -1.04892e-05
-2.80974e-05 0.000246571 3.38455e-06
-1.04892e-05 3.38455e-06 -0.00051011
-0.00220169 0.000248944 -0.000143772
0.000248944 0.000318511 6.27791e-05
-0.000143772 6.27791e-05 -0.000139622
0.00180972 -0.000286978 -2.09324e-05
-0.000286978 -0.00010134 2.97889e-05
-2.09324e-05 2.97889e-05 -0.000362828
0.00783295 0.00119942 3.43428e-05
0.00119942 0.0026589 3.25741e-05
3.43428e-05 3.25741e-05 0.00324796
0.00724119 -0.000568705 5.96931e-05
-0.000568705 0.00298888 -3.27532e-05
5.96931e-05 -3.27532e-05 0.000518565
0.00135753 -0.000215214 9.05961e-06
-0.000215214 0.000224413 2.02326e-05
9.05961e-06 2.02326e-05 0.000375496
-0.00228585 -3.57561e-05 4.66754e-05
-3.57561e-05 0.000348152 -9.82221e-06
4.66754e-05 -9.82221e-06 -0.000671976
0.00539267 0.000957419 -0.000127237
0.000957419 0.00271426 6.47474e-05
-0.000127237 6.47474e-05 0.00280128
0.00268235 -0.000191779 -0.000115793
-0.000191779 0.000494289 8.62349e-05
-0.000115793 8.62349e-05 -0.00203081
0.00276038 -0.000709466 4.0375e-05
-0.000709466 0.000311406 -1.06103e-05
4.0375e-05 -1.06103e-05 -0.000248841
9.54547e-05 -6.50959e-05 3.87506e-06
-6.50959e-05 0.00016243 1.11324e-05
3.87506e-06 1.11324e-05 -2.71287e-05
0.000424613 -0.000180207 -2.69378e-06
-0.000180207 9.54953e-05 1.87149e-06
-2.69378e-06 1.87149e-06 -7.67879e-05
0.00344252 -0.000402296 2.75804e-05
-0.000402296 0.00122434 1.0881e-06
2.75804e-05 1.0881e-06 0.00117446
-0.00178813 -1.3759e-05 -6.09834e-06
-1.3759e-05 -0.0010199 7.46292e-06
-6.09834e-06 7.46292e-06 -0.00127603
0.000718319 -0.000223985 4.08814e-06
-0.000223985 -1.07479e-05 -2.75729e-07
4.08814e-06 -2.75729e-07 -0.000256335
0.00102589 -0.000311268 5.54737e-06
-0.000311268 -0.000159448 -7.01589e-07
5.54737e-06 -7.01589e-07 -0.00034463
0.00219934 -0.000285516 -7.37463e-06
-0.000285516 0.000851167 1.63046e-06
-7.37463e-06 1.63046e-06 0.000565359
0.0012026 -0.000266065 -3.30883e-06
-0.000266065 0.000134727 -2.48547e-06
-3.30883e-06 -2.48547e-06 -0.00013369
0.00171261 -0.000341545 4.7727e-06
-0.000341545 0.000187824 -1.70404e-06
4.7727e-06 -1.70404e-06 -4.19484e-06
0.00172299 -0.000278266 -2.99989e-06
-0.000278266 0.000457128 -8.14031e-07
-2.99989e-06 -8.14031e-07 0.000193923
0.00150485 -0.000282285 3.60315e-08
-0.000282285 0.000185042 -2.59125e-06
3.60315e-08 -2.59125e-06 -5.4858e-05
0.00175494 -0.00029617 1.00351e-06
-0.00029617 0.000177939 -4.40171e-06
1.00351e-06 -4.40171e-06 -1.84481e-06
0.00161587 -0.000237152 1.63612e-07
-0.000237152 0.000124259 -2.97851e-06
1.63612e-07 -2.97851e-06 -3.89225e-05
0.00168384 -0.000265723 2.15927e-07
-0.000265723 0.000242337 -5.24913e-07
2.15927e-07 -5.24913e-07 3.53046e-05
0.00157769 -0.000265985 1.06183e-06
-0.000265985 0.000149605 -6.27679e-07
1.06183e-06 -6.27679e-07 -4.81056e-05
0.00162744 -0.000249556 -9.40352e-07
-0.000249556 0.000361569 5.48607e-06
-9.40352e-07 5.48607e-06 0.000161271
0.00156016 -0.000262784 3.45803e-07
-0.000262784 0.00027905 3.46857e-07
3.45803e-07 3.46857e-07 5.36483e-05
0.0018483 -0.000295034 -1.15218e-06
-0.000295034 0.000390429 -2.7051e-06
-1.15218e-06 -2.7051e-06 0.000143873
0.0010006 -0.000173531 2.11062e-06
-0.000173531 0.000155075 -1.03704e-06
2.11062e-06 -1.03704e-06 -6.50519e-06
0.000585002 -0.000151162 -9.09121e-07
-0.000151162 -9.90179e-05 -1.91216e-06
-9.09121e-07 -1.91216e-06 -0.000257657
0.00138592 -0.000215595 4.58838e-06
-0.000215595 0.000324322 -5.13235e-06
4.58838e-06 -5.13235e-06 0.000147142
0.00077846 -9.7167e-05 4.521e-07
-9.7167e-05 8.04099e-05 1.24888e-06
4.521e-07 1.24888e-06 -5.2951e-05
0.000891278 -0.000142891 1.07086e-07
-0.000142891 0.00014647 4.69287e-07
1.07086e-07 4.69287e-07 -1.0207e-05
0.00084135 -0.000153692 -3.272e-07
-0.000153692 9.76867e-05 1.26025e-06
-3.272e-07 1.26025e-06 -6.14274e-05
0.000602322 6.78799e-05 1.44993e-06
6.78799e-05 -9.01086e-06 3.39203e-06
1.44993e-06 3.39203e-06 -8.77039e-05
0.00079837 -2.78263e-05 2.27141e-07
-2.78263e-05 0.000114996 -1.05386e-07
2.27141e-07 -1.05386e-07 -2.16709e-06
0.000902458 -8.80157e-05 -1.0981e-06
-8.80157e-05 0.000183363 2.31794e-07
-1.0981e-06 2.31794e-07 4.85585e-05
0.00132183 7.98798e-05 -1.39305e-05
7.98798e-05 0.000394979 3.30526e-06
-1.39305e-05 3.30526e-06 0.000373555
0.000661181 4.09006e-05 -5.44691e-07
4.09006e-05 1.16823e-05 -4.98358e-07
-5.44691e-07 -4.98358e-07 -4.83501e-05
0.000796084 -2.29745e-05 -1.48114e-07
-2.29745e-05 0.000102333 -1.74588e-06
-1.48114e-07 -1.74588e-06 6.92653e-06
0.000779123 4.31959e-05 -2.51005e-05
4.31959e-05 8.05692e-05 3.3185e-06
-2.51005e-05 3.3185e-06 8.3254e-05
0.000997369 6.53808e-05 -7.05393e-06
6.53808e-05 0.000198445 2.16844e-07
-7.05393e-06 2.16844e-07 0.000179947
0.000692836 4.04687e-05 5.47445e-07
4.04687e-05 2.01077e-05 -2.08402e-06
5.47445e-07 -2.08402e-06 -3.00726e-05
0.000637798 5.09534e-05 8.2625e-07
5.09534e-05 -1.66964e-05 -3.74822e-06
8.2625e-07 -3.74822e-06 -3.35882e-05
0.00222479 7.58295e-05 1.77044e-06
7.58295e-05 0.000898488 1.53643e-07
1.77044e-06 1.53643e-07 0.000908364
0.00221972 6.67317e-05 2.33155e-05
6.67317e-05 0.000888244 -3.52872e-06
2.33155e-05 -3.52872e-06 0.000900224
0.00072207 5.44161e-06 -1.14789e-07
5.44161e-06 4.03941e-05 -8.96568e-07
-1.14789e-07 -8.96568e-07 -4.93718e-05
0.000793281 3.51197e-05 -4.37778e-07
3.51197e-05 8.39253e-05 -1.46157e-06
-4.37778e-07 -1.46157e-06 -1.49144e-06
0.000754518 1.39896e-06 1.05966e-07
1.39896e-06 5.86678e-05 -3.22998e-08
1.05966e-07 -3.22998e-08 -2.82158e-05
0.000698486 -2.11549e-05 -1.08957e-06
-2.11549e-05 7.77122e-06 -2.27909e-06
-1.08957e-06 -2.27909e-06 -4.43745e-05
0.000768582 2.63397e-05 6.75451e-07
2.63397e-05 6.34619e-05 -1.66945e-08
6.75451e-07 -1.66945e-08 -1.50721e-05
0.000617847 -3.97128e-05 -2.76384e-07
-3.97128e-05 -4.04407e-05 -4.29184e-06
-2.76384e-07 -4.29184e-06 -5.82437e-05
0.000694759 -6.34722e-06 -1.53696e-07
-6.34722e-06 4.22654e-06 -1.91968e-08
-1.53696e-07 -1.91968e-08 -4.54907e-05
0.000782684 5.10741e-05 8.45391e-07
5.10741e-05 8.22057e-05 1.07943e-06
8.45391e-07 1.07943e-06 -2.11662e-06
0.00237524 -5.64463e-05 -2.27193e-05
-5.64463e-05 0.000965771 -4.26018e-06
-2.27193e-05 -4.26018e-06 0.000979072
0.00063362 -3.19732e-05 -3.27417e-07
-3.19732e-05 -3.7764e-05 -1.60626e-08
-3.27417e-07 -1.60626e-08 -5.22648e-05
0.000700308 -2.2118e-06 5.01001e-07
-2.2118e-06 7.59838e-06 2.18314e-06
5.01001e-07 2.18314e-06 -3.91752e-05
0.00226814 -4.43014e-05 -2.96486e-06
-4.43014e-05 0.000898465 1.29031e-07
-2.96486e-06 1.29031e-07 0.000914316
0.000647288 -2.48517e-05 2.38956e-07
-2.48517e-05 -3.49601e-05 3.86188e-06
2.38956e-07 3.86188e-06 -4.6284e-05
0.00218047 -3.18294e-05 1.27632e-05
-3.18294e-05 0.000843424 4.54958e-06
1.27632e-05 4.54958e-06 0.000861469
0.00232502 -3.30477e-05 7.09839e-05
-3.30477e-05 0.000686441 3.71139e-05
7.09839e-05 3.71139e-05 3.57362e-05
0.00102504 -4.6343e-05 5.84482e-07
-4.6343e-05 0.00018289 9.88036e-06
5.84482e-07 9.88036e-06 -0.000146948
0.00127268 -2.40572e-05 -8.75027e-06
-2.40572e-05 3.81458e-05 -8.36767e-06
-8.75027e-06 -8.36767e-06 -0.000117021
0.000834957 7.13674e-05 -2.27352e-06
7.13674e-05 0.000117219 -6.04106e-07
-2.27352e-06 -6.04106e-07 1.50196e-05
0.000833647 1.9447e-05 3.83773e-07
1.9447e-05 0.000101265 2.29809e-07
3.83773e-07 2.29809e-07 1.49298e-05
0.000709169 -1.24671e-05 5.02877e-07
-1.24671e-05 3.27271e-05 5.02175e-07
5.02877e-07 5.02175e-07 -5.52509e-05
0.000827959 -5.38327e-06 6.44269e-08
-5.38327e-06 9.45456e-05 -1.17574e-07
6.44269e-08 -1.17574e-07 9.13167e-06
0.00087431 2.83274e-05 -1.00653e-08
2.83274e-05 0.000129723 -2.52318e-07
-1.00653e-08 -2.52318e-07 3.58256e-05
0.000830485 5.36153e-05 3.77778e-07
5.36153e-05 0.000112157 7.30543e-07
3.77778e-07 7.30543e-07 1.23393e-05
0.000834255 4.04518e-05 -1.09035e-06
4.04518e-05 0.000115354 -1.87474e-06
-1.09035e-06 -1.87474e-06 1.04131e-05
0.000534658 -1.3046e-05 -2.76791e-07
-1.3046e-05 -5.87539e-05 -3.7372e-07
-2.76791e-07 -3.7372e-07 -0.000152294
0.00082775 7.77471e-05 4.25481e-07
7.77471e-05 0.000105761 -3.94296e-07
4.25481e-07 -3.94296e-07 1.05541e-05
0.000798141 -2.28066e-05 1.32811e-06
-2.28066e-05 6.62271e-05 -4.15328e-07
1.32811e-06 -4.15328e-07 -2.1147e-05
0.000832343 2.42163e-05 -2.42776e-07
2.42163e-05 0.000111638 1.1801e-07
-2.42776e-07 1.1801e-07 1.84157e-05
0.00131909 5.59758e-05 4.46155e-06
5.59758e-05 0.000417622 3.1504e-06
4.46155e-06 3.1504e-06 0.000328005
0.00111986 -0.000427699 7.09092e-05
-0.000427699 0.0013257 9.1911e-05
7.09092e-05 9.1911e-05 0.000876824
0.00238395 5.4944e-05 6.10604e-06
5.4944e-05 0.000788034 2.93905e-05
6.10604e-06 2.93905e-05 -0.000478172
0.00151234 5.75959e-05 -1.13543e-05
5.75959e-05 0.000346277 -4.83714e-05
-1.13543e-05 -4.83714e-05 -0.000727578
0.00583223 -0.000878008 -0.000111444
-0.000878008 0.000262281 -9.71843e-05
-0.000111444 -9.71843e-05 0.00181061
0.00376382 -0.000264844 2.13542e-07
-0.000264844 0.000318374 6.91831e-05
2.13542e-07 6.91831e-05 -0.000269572
0.000622729 -0.000460195 -9.15522e-05
-0.000460195 0.000320223 7.29894e-05
-9.15522e-05 7.29894e-05 -0.00242309
0.00284502 -0.000184198 -5.52331e-05
-0.000184198 0.000441728 8.81708e-05
-5.52331e-05 8.81708e-05 -6.40982e-05
0.00393502 -0.000110931 1.38553e-05
-0.000110931 0.000672565 3.79912e-05
1.38553e-05 3.79912e-05 0.000487895
-0.000788485 -0.00102486 2.71584e-05
-0.00102486 -0.00150329 4.12858e-05
2.71584e-05 4.12858e-05 0.000248694
0.00566599 0.000327484 5.17609e-06
0.000327484 0.00280966 9.58295e-06
5.17609e-06 9.58295e-06 -0.000146617
0.00143047 -0.000585183 -1.31639e-05
-0.000585183 -0.00126643 1.93258e-05
-1.31639e-05 1.93258e-05 -0.00102652
0.00189794 0.000264455 -2.49354e-05
0.000264455 -0.000116678 5.08875e-06
-2.49354e-05 5.08875e-06 -0.000332163
0.0083937 4.86544e-06 -4.18321e-05
4.86544e-06 0.00402309 3.24861e-05
-4.18321e-05 3.24861e-05 0.00167359
3.27468e-05 -0.000823702 -7.35915e-05
-0.000823702 -0.000766072 -7.08294e-05
-7.35915e-05 -7.08294e-05 -0.000213825
0.000479306 0.000178065 3.05748e-07
0.000178065 -6.4263e-05 -3.93941e-06
3.05748e-07 -3.93941e-06 -0.000143911
0.00087259 5.00354e-05 5.76935e-06
5.00354e-05 0.000174276 4.59347e-08
5.76935e-06 4.59347e-08 0.000100752
0.000990035 1.08758e-05 -5.18013e-07
1.08758e-05 0.000205277 4.36021e-07
-5.18013e-07 4.36021e-07 0.000112521
-0.00016771 -2.87906e-06 -0.000107541
-2.87906e-06 0.000411782 -2.09691e-05
-0.000107541 -2.09691e-05 -0.000564163
-0.00101576 6.63479e-05 7.91963e-06
6.63479e-05 -0.000645238 -7.99605e-06
7.91963e-06 -7.99605e-06 -0.000760712
0.000849078 6.54794e-05 2.55842e-06
6.54794e-05 0.000190438 -3.4406e-06
2.55842e-06 -3.4406e-06 9.1158e-05
0.000722954 0.000133357 4.83601e-06
0.000133357 0.000218779 2.64303e-06
4.83601e-06 2.64303e-06 0.000110748
0.000805148 0.00019135 -3.04035e-06
0.00019135 0.000364851 -2.56831e-05
-3.04035e-06 -2.56831e-05 -0.000133113
0.00048488 0.000307535 1.63888e-05
0.000307535 -0.000127963 4.54122e-06
1.63888e-05 4.54122e-06 -0.00033667
0.000386416 3.68247e-05 0.000117115
3.68247e-05 0.0018735 3.9356e-06
0.000117115 3.9356e-06 0.000896153
0.0015369 -2.16416e-05 -6.56131e-06
-2.16416e-05 0.000404161 8.72524e-06
-6.56131e-06 8.72524e-06 -0.000195749
0.000893656 -1.53285e-05 1.20916e-06
-1.53285e-05 7.83269e-05 2.13e-06
1.20916e-06 2.13e-06 -0.000114179
0.00136511 -7.90589e-05 -3.44653e-05
-7.90589e-05 0.000774476 6.9918e-06
-3.44653e-05 6.9918e-06 0.000635141
0.000992747 -0.000175577 -9.02755e-06
-0.000175577 -0.00084679 -1.41054e-05
-9.02755e-06 -1.41054e-05 -0.000812471
0.00179612 -2.47563e-05 -8.60479e-05
-2.47563e-05 0.000425121 2.52436e-05
-8.60479e-05 2.52436e-05 -0.00033926
-0.00108803 -0.000648598 5.00598e-05
-0.000648598 -0.000643895 -4.66674e-05
5.00598e-05 -4.66674e-05 -0.00337471
-0.00363082 0.00068746 5.6517e-05
0.00068746 -0.0034173 -7.04023e-05
5.6517e-05 -7.04023e-05 -0.00267136
0.00143286 0.000451957 -9.75945e-05
0.000451957 0.00177062 8.52831e-05
-9.75945e-05 8.52831e-05 0.00171614
0.00191133 -0.00010307 -1.27674e-06
-0.00010307 0.000320435 2.07767e-06
-1.27674e-06 2.07767e-06 0.000608001
0.00147951 0.000153948 7.34456e-06
0.000153948 0.00198007 7.37225e-06
7.34456e-06 7.37225e-06 0.00141327
-0.00365157 0.00050576 3.19999e-05
0.00050576 -0.0012155 3.33063e-06
3.19999e-05 3.33063e-06 -0.00181101
0.00390639 -0.000763674 5.38858e-06
-0.000763674 0.00119369 -1.00947e-06
5.38858e-06 -1.00947e-06 0.000221137
0.00958216 1.80754e-05 6.69797e-06
1.80754e-05 0.00372114 -5.45598e-06
6.69797e-06 -5.45598e-06 0.0019529
0.00107781 -0.000284851 3.53411e-06
-0.000284851 -4.49475e-05 1.68498e-05
3.53411e-06 1.68498e-05 5.24043e-05
-0.00662677 0.000203228 -0.000100361
0.000203228 -0.00327577 1.4412e-07
-0.000100361 1.4412e-07 -0.00361434
0.00794084 3.99053e-05 -2.89867e-05
3.99053e-05 0.0025676 1.54193e-05
-2.89867e-05 1.54193e-05 0.00111248
0.00516443 -0.000834315 3.18201e-06
-0.000834315 0.000672386 6.32303e-06
3.18201e-06 6.32303e-06 -0.000189837
0.000256016 -0.00015214 -1.88848e-05
-0.00015214 3.85042e-05 1.45272e-05
-1.88848e-05 1.45272e-05 -0.000178045
0.00148753 -0.000283511 -2.18128e-06
-0.000283511 0.000171806 7.69367e-07
-2.18128e-06 7.69367e-07 0.000184004
0.0022312 -0.000317988 1.76365e-05
-0.000317988 0.000337885 -2.91628e-06
1.76365e-05 -2.91628e-06 0.000367677
-0.00042971 -0.000129158 -5.78616e-06
-0.000129158 -0.000568155 1.19719e-06
-5.78616e-06 1.19719e-06 -0.000824702
0.00131949 -0.000328208 -3.59486e-06
-0.000328208 5.75694e-06 -1.02931e-06
-3.59486e-06 -1.02931e-06 -0.000187551
0.00206395 -0.00038437 2.25739e-06
-0.00038437 0.000233629 3.98607e-07
2.25739e-06 3.98607e-07 8.76765e-05
0.00163545 -0.000293059 -7.61287e-06
-0.000293059 0.000355428 -2.38102e-06
-7.61287e-06 -2.38102e-06 9.79112e-05
0.00152182 -0.00032511 1.66435e-06
-0.00032511 0.000101828 8.19519e-07
1.66435e-06 8.19519e-07 -9.25645e-05
0.00199028 -0.000316475 -1.06373e-06
-0.000316475 0.000226294 -3.70223e-06
-1.06373e-06 -3.70223e-06 8.17584e-05
0.001259 -0.000264294 -5.41596e-06
-0.000264294 4.39227e-05 1.14431e-07
-5.41596e-06 1.14431e-07 -0.000188368
0.00164445 -0.000286465 -4.52828e-07
-0.000286465 0.000116704 3.70588e-07
-4.52828e-07 3.70588e-07 -6.14963e-05
0.00176326 -0.000251173 -1.81246e-07
-0.000251173 0.000123978 -4.69768e-06
-1.81246e-07 -4.69768e-06 -7.92001e-06
0.00159461 -0.000200935 -1.02367e-06
-0.000200935 6.47582e-05 -3.20132e-06
-1.02367e-06 -3.20132e-06 -6.67536e-05
0.00162251 -0.000228044 -4.47827e-07
-0.000228044 0.000159844 -2.33123e-06
-4.47827e-07 -2.33123e-06 -1.58743e-05
0.0015211 -0.000228367 2.07571e-07
-0.000228367 7.15265e-05 1.32565e-06
2.07571e-07 1.32565e-06 -8.96933e-05
0.00124866 -0.000222697 -1.95039e-06
-0.000222697 4.05957e-05 1.25096e-06
-1.95039e-06 1.25096e-06 -0.000154622
0.00145766 -0.000247337 2.48326e-06
-0.000247337 0.000121293 -1.07455e-06
2.48326e-06 -1.07455e-06 -8.11605e-05
0.00160784 -0.000267718 1.62605e-06
-0.000267718 0.000165099 1.92187e-06
1.62605e-06 1.92187e-06 -3.15985e-05
0.00113115 -0.000195687 1.236e-06
-0.000195687 0.000154058 3.25582e-06
1.236e-06 3.25582e-06 -2.56105e-05
0.00110721 -0.000210561 1.8727e-06
-0.000210561 8.23543e-05 -9.14267e-07
1.8727e-06 -9.14267e-07 -0.000113035
0.000558181 -0.000191819 -7.53889e-07
-0.000191819 -0.000265366 -4.18222e-06
-7.53889e-07 -4.18222e-06 -0.000490422
0.000906456 -0.000146863 -1.3867e-06
-0.000146863 0.000106716 2.36566e-07
-1.3867e-06 2.36566e-07 -3.6404e-05
0.00108294 -0.000178758 -1.61718e-07
-0.000178758 0.00019595 -1.31486e-06
-1.61718e-07 -1.31486e-06 3.41014e-05
0.00078834 -0.000163813 -1.78007e-06
-0.000163813 2.05134e-05 -5.06452e-06
-1.78007e-06 -5.06452e-06 -0.000135028
0.000724045 -2.40749e-05 6.54788e-09
-2.40749e-05 4.70059e-05 3.67861e-06
6.54788e-09 3.67861e-06 -4.81168e-05
0.000916433 -0.000103812 1.02288e-06
-0.000103812 0.000156525 4.82945e-07
1.02288e-06 4.82945e-07 2.23717e-05
0.000671308 -0.000113328 -1.42703e-06
-0.000113328 2.36166e-05 1.57324e-06
-1.42703e-06 1.57324e-06 -0.000128335
0.000501312 7.55158e-05 1.42314e-06
7.55158e-05 -5.9954e-05 5.48794e-06
1.42314e-06 5.48794e-06 -9.49731e-05
0.00068438 6.55685e-06 -5.90343e-07
6.55685e-06 3.12243e-05 -4.54767e-07
-5.90343e-07 -4.54767e-07 -4.70204e-05
0.000920602 -5.81737e-05 -2.24643e-07
-5.81737e-05 0.000186048 -1.78631e-06
-2.24643e-07 -1.78631e-06 6.46051e-05
0.0023211 0.000104653 -9.24128e-06
0.000104653 0.000970951 1.30375e-06
-9.24128e-06 1.30375e-06 0.000972998
0.000604439 6.77092e-05 -9.6426e-08
6.77092e-05 -1.27649e-05 -1.16529e-07
-9.6426e-08 -1.16529e-07 -3.92023e-05
0.000695904 2.04712e-05 1.30394e-06
2.04712e-05 2.83493e-05 -2.67488e-06
1.30394e-06 -2.67488e-06 -3.09115e-05
0.00225898 8.50133e-05 1.84838e-06
8.50133e-05 0.000925972 1.54228e-07
1.84838e-06 1.54228e-07 0.000933496
0.000638412 5.99587e-05 1.61066e-07
5.99587e-05 -5.12221e-06 -4.0342e-06
1.61066e-07 -4.0342e-06 -2.6027e-05
0.00225975 7.71202e-05 2.71629e-05
7.71202e-05 0.000919325 -3.17792e-06
2.71629e-05 -3.17792e-06 0.000928868
0.000872115 6.56219e-05 -5.78716e-07
6.56219e-05 0.000129671 2.2417e-09
-5.78716e-07 2.2417e-09 3.07053e-05
0.000777086 1.82131e-05 -9.08203e-08
1.82131e-05 7.22729e-05 -2.87556e-07
-9.08203e-08 -2.87556e-07 -1.9066e-05
0.000783623 1.58377e-05 -2.48153e-07
1.58377e-05 8.48234e-05 -1.87063e-06
-2.48153e-07 -1.87063e-06 -7.88465e-06
0.000692833 -2.59883e-05 -1.15008e-06
-2.59883e-05 9.09651e-06 -2.62328e-06
-1.15008e-06 -2.62328e-06 -4.5934e-05
0.000748881 7.52476e-06 6.92043e-07
7.52476e-06 5.713e-05 7.00698e-09
6.92043e-07 7.00698e-09 -2.60278e-05
0.000719024 1.14497e-05 8.49641e-07
1.14497e-05 4.30241e-05 6.8859e-07
8.49641e-07 6.8859e-07 -4.71572e-05
0.000612857 -4.69105e-05 -4.87214e-07
-4.69105e-05 -3.62095e-05 -4.5011e-06
-4.87214e-07 -4.5011e-06 -5.69099e-05
0.000689425 -1.42453e-05 -1.42204e-07
-1.42453e-05 3.09292e-06 -2.44059e-08
-1.42204e-07 -2.44059e-08 -4.90701e-05
0.000754113 2.12912e-05 1.36242e-06
2.12912e-05 5.3223e-05 1.03145e-06
1.36242e-06 1.03145e-06 -2.34525e-05
0.00244598 -6.71602e-05 -2.79379e-05
-6.71602e-05 0.00101236 -3.97799e-06
-2.79379e-05 -3.97799e-06 0.00102344
0.000618554 -3.83097e-05 -3.02777e-07
-3.83097e-05 -4.03933e-05 5.60448e-09
-3.02777e-07 5.60448e-09 -5.79729e-05
0.000696502 -4.40488e-06 9.42828e-07
-4.40488e-06 5.77219e-06 2.21334e-06
9.42828e-07 2.21334e-06 -4.40279e-05
0.00234772 -5.55992e-05 -3.21021e-06
-5.55992e-05 0.00094937 1.65808e-07
-3.21021e-06 1.65808e-07 0.000962989
0.000633917 -3.12414e-05 1.74009e-07
-3.12414e-05 -3.76964e-05 4.06366e-06
1.74009e-07 4.06366e-06 -5.20682e-05
0.00224369 -4.31787e-05 1.68274e-05
-4.31787e-05 0.000883822 4.43838e-06
1.68274e-05 4.43838e-06 0.000900024
-0.00310525 -6.12835e-05 3.07933e-05
-6.12835e-05 5.42915e-05 3.44766e-05
3.07933e-05 3.44766e-05 -0.0011206
0.00230983 -5.77915e-05 1.95733e-06
-5.77915e-05 0.000752008 1.15053e-05
1.95733e-06 1.15053e-05 0.000103908
0.00115722 -4.23511e-05 -5.39905e-06
-4.23511e-05 0.000248048 -1.05344e-05
-5.39905e-06 -1.05344e-05 -5.44392e-05
0.000725618 3.50798e-05 -6.99996e-07
3.50798e-05 5.24523e-05 5.30636e-07
-6.99996e-07 5.30636e-07 -4.50597e-05
0.00124419 0.000164564 -3.76142e-07
0.000164564 0.000358189 6.23432e-07
-3.76142e-07 6.23432e-07 0.000232096
0.00077761 3.54601e-05 -1.52632e-06
3.54601e-05 8.9857e-05 -1.28243e-07
-1.52632e-06 -1.28243e-07 -1.66424e-05
0.000943465 -1.11529e-05 5.46906e-07
-1.11529e-05 0.000157758 -1.66999e-07
5.46906e-07 -1.66999e-07 7.32404e-05
0.00099609 6.06424e-05 1.349e-06
6.06424e-05 0.00019714 4.41841e-07
1.349e-06 4.41841e-07 0.00010257
0.000636277 6.65262e-06 1.5971e-07
6.65262e-06 -4.20269e-06 1.76969e-06
1.5971e-07 1.76969e-06 -9.62866e-05
0.00069027 1.98021e-05 -9.74183e-07
1.98021e-05 3.48129e-05 4.12628e-08
-9.74183e-07 4.12628e-08 -6.57937e-05
0.000778971 2.56778e-05 -5.93905e-09
2.56778e-05 8.26488e-05 -3.14358e-07
-5.93905e-09 -3.14358e-07 -2.02228e-05
0.000932448 6.70927e-05 7.53475e-07
6.70927e-05 0.000191124 -1.67719e-06
7.53475e-07 -1.67719e-06 6.8186e-05
0.000683031 0.000112696 3.81481e-06
0.000112696 -2.49168e-06 -5.74904e-06
3.81481e-06 -5.74904e-06 -9.71298e-05
0.00080133 4.75345e-05 2.64325e-07
4.75345e-05 9.72124e-05 -6.44779e-07
2.64325e-07 -6.44779e-07 -4.42663e-07
0.000892509 6.35524e-05 7.65928e-07
6.35524e-05 0.000179833 1.45881e-06
7.65928e-07 1.45881e-06 8.72568e-05
-0.00486583 -0.000481245 -0.000141195
-0.000481245 -0.00177315 2.11446e-05
-0.000141195 2.11446e-05 -0.00223065
-0.00151272 -0.000373077 6.88374e-05
-0.000373077 0.000307116 2.90635e-05
6.88374e-05 2.90635e-05 -0.000321585
0.00269816 5.72608e-05 -8.02069e-05
5.72608e-05 0.000950956 -6.5337e-05
-8.02069e-05 -6.5337e-05 -0.000354547
-0.00601508 -0.00104158 0.000136217
-0.00104158 -0.00352811 0.000145355
0.000136217 0.000145355 -0.00163219
0.00767253 -0.000806476 -1.88716e-05
-0.000806476 0.00225412 2.89933e-05
-1.88716e-05 2.89933e-05 0.00238078
0.000644549 0.000617517 3.47695e-05
0.000617517 -1.41298e-05 -2.49424e-05
3.47695e-05 -2.49424e-05 -0.00281814
0.00354894 -0.000119883 -0.000143067
-0.000119883 0.00072296 6.73573e-05
-0.000143067 6.73573e-05 3.67464e-05
0.00289926 0.000206553 -2.4243e-05
0.000206553 0.000456734 1.07057e-05
-2.4243e-05 1.07057e-05 0.000135381
0.006502 -0.00100497 -4.93266e-05
-0.00100497 0.00308669 3.42918e-05
-4.93266e-05 3.42918e-05 0.00335489
0.00144788 0.000318215 9.1981e-06
0.000318215 0.000709644 7.09581e-07
9.1981e-06 7.09581e-07 -0.00166112
0.00253842 0.00051202 -0.000107134
0.00051202 0.000756851 -6.93492e-05
-0.000107134 -6.93492e-05 8.68686e-05
0.00343676 0.000730476 -0.000181555
0.000730476 0.000722403 -7.29373e-05
-0.000181555 -7.29373e-05 -0.00136372
0.00202811 0.000421728 1.0827e-05
0.000421728 0.000494154 -1.39793e-05
1.0827e-05 -1.39793e-05 0.000324784
0.000761305 0.000182266 -4.34913e-06
0.000182266 8.42968e-05 1.35643e-06
-4.34913e-06 1.35643e-06 5.28266e-06
0.00106411 5.16259e-05 -1.46111e-07
5.16259e-05 0.000274152 -2.36037e-06
-1.46111e-07 -2.36037e-06 0.000201498
-0.000412375 0.000148779 -3.06699e-05
0.000148779 -0.000185722 -2.67525e-05
-3.06699e-05 -2.67525e-05 -0.000585675
0.00201448 0.000213434 -8.06114e-06
0.000213434 0.000865864 -8.21366e-06
-8.06114e-06 -8.21366e-06 0.000747971
0.00117349 0.000367656 8.01077e-06
0.000367656 0.000129119 -2.28711e-06
8.01077e-06 -2.28711e-06 -7.11632e-05
0.00266045 0.000564912 7.60852e-05
0.000564912 0.000286661 3.41439e-05
7.60852e-05 3.41439e-05 0.000251667
-0.00391208 -3.71544e-05 -0.000184121
-3.71544e-05 -0.00223136 -1.04552e-05
-0.000184121 -1.04552e-05 -0.00176549
-0.00108126 2.38392e-05 6.03869e-05
2.38392e-05 0.00122153 1.21805e-06
6.03869e-05 1.21805e-06 0.000132876
0.00164943 -4.46078e-05 -6.55904e-05
-4.46078e-05 0.000496303 8.94974e-06
-6.55904e-05 8.94974e-06 1.61388e-05
0.00248031 -0.000195022 -4.61672e-05
-0.000195022 0.0005485 -2.5553e-05
-4.61672e-05 -2.5553e-05 0.000824065
0.00303532 -0.0007461 -3.9482e-05
-0.0007461 0.000513052 4.61124e-06
-3.9482e-05 4.61124e-06 -0.000246039
0.00180863 0.000112935 -4.36468e-05
0.000112935 0.00217389 2.774e-05
-4.36468e-05 2.774e-05 0.0016488
-0.000370297 -0.000330679 9.66291e-05
-0.000330679 -0.000723919 -8.59477e-05
9.66291e-05 -8.59477e-05 -0.00302038
0.00865463 0.000595736 -1.10459e-05
0.000595736 0.00424605 4.93483e-06
-1.10459e-05 4.93483e-06 0.00401048
0.00211818 -0.000427347 -9.76514e-06
-0.000427347 0.000388586 3.50369e-06
-9.76514e-06 3.50369e-06 0.000368907
-0.00110568 0.000338353 1.29087e-05
0.000338353 -0.000480014 -5.41005e-06
1.29087e-05 -5.41005e-06 -0.000768935
0.0037278 1.97096e-05 -2.22695e-05
1.97096e-05 0.000422706 3.20234e-05
-2.22695e-05 3.20234e-05 -0.00149042
0.0057828 -0.000816765 -3.4027e-05
-0.000816765 0.00145035 1.10029e-05
-3.4027e-05 1.10029e-05 0.000596361
-0.000732393 -0.000178586 2.62996e-05
-0.000178586 -0.000879854 -7.47805e-06
2.62996e-05 -7.47805e-06 -0.00110836
0.00823966 -0.000244586 4.32518e-05
-0.000244586 0.00222843 -1.65905e-05
4.32518e-05 -1.65905e-05 0.00114157
0.00370675 -0.000339227 3.82258e-05
-0.000339227 0.000411836 -2.27758e-05
3.82258e-05 -2.27758e-05 -0.000114691
-0.000456414 -0.00016969 -2.14134e-05
-0.00016969 -0.000877684 7.304e-06
-2.14134e-05 7.304e-06 -0.000803238
0.00101333 -0.000261315 -2.90961e-06
-0.000261315 -0.000307871 -9.41282e-07
-2.90961e-06 -9.41282e-07 -0.000260159
0.00242477 -0.00034994 1.73605e-05
-0.00034994 0.000278113 -1.40448e-05
1.73605e-05 -1.40448e-05 0.000312018
0.00131377 -0.000324379 -1.12971e-05
-0.000324379 2.04185e-05 -2.22407e-06
-1.12971e-05 -2.22407e-06 -0.000176224
0.00165248 -0.000357415 -7.27537e-07
-0.000357415 1.90993e-05 2.30136e-07
-7.27537e-07 2.30136e-07 -0.000117918
0.00209055 -0.000330387 -3.61261e-06
-0.000330387 0.000162514 -2.52248e-07
-3.61261e-06 -2.52248e-07 7.1727e-05
0.00137456 -0.000311948 1.10436e-07
-0.000311948 3.70549e-05 1.82389e-06
1.10436e-07 1.82389e-06 -0.000159274
0.00178697 -0.000305485 -2.30305e-06
-0.000305485 0.000118502 -6.19887e-07
-2.30305e-06 -6.19887e-07 -2.58284e-05
0.00186399 -0.000250715 -2.79109e-06
-0.000250715 8.29113e-05 -1.44719e-06
-2.79109e-06 -1.44719e-06 -1.61881e-05
0.00152977 -0.000276536 6.77662e-07
-0.000276536 5.36028e-05 3.68272e-06
6.77662e-07 3.68272e-06 -0.000123051
0.00169762 -0.000243631 -1.24564e-07
-0.000243631 9.3363e-05 2.7013e-07
-1.24564e-07 2.7013e-07 -3.70017e-05
0.00175833 -0.000205425 -1.83393e-07
-0.000205425 9.79483e-05 -2.02166e-06
-1.83393e-07 -2.02166e-06 -1.71666e-06
0.00178115 -0.00018543 -1.28634e-07
-0.00018543 0.000159384 -1.12997e-06
-1.28634e-07 -1.12997e-06 4.83077e-05
0.00159197 -0.000197948 -2.26257e-06
-0.000197948 6.36092e-05 2.41761e-06
-2.26257e-06 2.41761e-06 -6.44189e-05
0.00171144 -0.00019965 7.35066e-07
-0.00019965 0.000171569 -5.01106e-06
7.35066e-07 -5.01106e-06 2.72066e-05
0.00168867 -0.000223217 -3.42121e-06
-0.000223217 0.000223701 -1.44276e-06
-3.42121e-06 -1.44276e-06 4.94741e-05
0.00164372 -0.000228989 1.43807e-06
-0.000228989 0.000170448 2.48388e-07
1.43807e-06 2.48388e-07 -5.64553e-06
0.00143897 -0.000220128 -2.56998e-07
-0.000220128 2.56946e-05 5.63469e-06
-2.56998e-07 5.63469e-06 -0.000133603
0.00109983 -0.000198763 -4.79736e-06
-0.000198763 1.88883e-05 3.2419e-06
-4.79736e-06 3.2419e-06 -0.000164804
0.00132368 -0.00022582 9.68548e-07
-0.00022582 8.36175e-05 -2.84482e-07
9.68548e-07 -2.84482e-07 -0.000110488
0.00118366 -0.000225851 2.27602e-06
-0.000225851 -2.67089e-05 -6.34539e-07
2.27602e-06 -6.34539e-07 -0.000224355
0.00101575 -0.00016698 -1.51013e-06
-0.00016698 0.000122728 2.15699e-06
-1.51013e-06 2.15699e-06 -3.47291e-05
0.0011973 -0.000198915 6.72098e-07
-0.000198915 0.000185313 1.50473e-07
6.72098e-07 1.50473e-07 5.80428e-06
0.000675575 -0.000177855 -2.20749e-07
-0.000177855 -0.00014825 -5.39566e-06
-2.20749e-07 -5.39566e-06 -0.000338574
0.000752911 -8.48046e-05 -3.78414e-06
-8.48046e-05 4.20565e-05 3.06906e-06
-3.78414e-06 3.06906e-06 -6.64032e-05
0.00103563 -0.000157938 3.78292e-08
-0.000157938 0.000176279 -4.35413e-07
3.78292e-08 -4.35413e-07 3.1638e-05
0.00115014 -0.000182873 -9.61328e-07
-0.000182873 0.000228879 -2.01492e-06
-9.61328e-07 -2.01492e-06 6.68321e-05
0.000492604 5.22832e-05 1.38878e-06
5.22832e-05 -6.95778e-05 7.24932e-06
1.38878e-06 7.24932e-06 -0.000111203
0.000748497 -4.2127e-05 3.89075e-07
-4.2127e-05 6.30414e-05 2.9983e-07
3.89075e-07 2.9983e-07 -3.61811e-05
0.00108121 -0.00011618 1.05229e-06
-0.00011618 0.000249423 -1.11115e-07
1.05229e-06 -1.11115e-07 0.000112402
0.00254826 0.000109081 -3.91816e-05
0.000109081 0.00110392 2.35798e-06
-3.91816e-05 2.35798e-06 0.00110485
0.000575252 6.80864e-05 1.5719e-08
6.80864e-05 -2.10106e-05 -3.21957e-07
1.5719e-08 -3.21957e-07 -5.49122e-05
0.000756355 -3.43114e-05 2.38283e-06
-3.43114e-05 6.90753e-05 -3.77e-06
2.38283e-06 -3.77e-06 -1.03405e-05
0.0016319 7.91685e-05 1.64683e-05
7.91685e-05 0.000575658 -3.04434e-07
1.64683e-05 -3.04434e-07 0.000576491
0.000637751 7.14374e-05 -1.81116e-06
7.14374e-05 7.63016e-06 -5.02613e-06
-1.81116e-06 -5.02613e-06 -1.98546e-05
0.00234277 8.74254e-05 3.25517e-05
8.74254e-05 0.000974488 -2.77229e-06
3.25517e-05 -2.77229e-06 0.000981431
0.000893622 8.14257e-05 8.76765e-07
8.14257e-05 0.000137694 4.30958e-07
8.76765e-07 4.30958e-07 3.24983e-05
0.000751233 2.70232e-05 -2.2566e-07
2.70232e-05 5.66134e-05 4.86722e-07
-2.2566e-07 4.86722e-07 -3.60829e-05
0.000742526 -1.32891e-05 1.06014e-07
-1.32891e-05 5.98018e-05 -1.72998e-06
1.06014e-07 -1.72998e-06 -3.38516e-05
0.000865575 3.97583e-05 5.60439e-07
3.97583e-05 0.00012334 6.15764e-07
5.60439e-07 6.15764e-07 2.98165e-05
0.000746607 -1.10603e-05 3.41716e-07
-1.10603e-05 5.57774e-05 -2.46631e-08
3.41716e-07 -2.46631e-08 -3.01834e-05
0.000678421 -2.66147e-05 -1.13571e-06
-2.66147e-05 6.16868e-06 -3.02878e-06
-1.13571e-06 -3.02878e-06 -5.31991e-05
0.000611157 -5.53486e-05 -2.54612e-07
-5.53486e-05 -2.8215e-05 -4.84142e-06
-2.54612e-07 -4.84142e-06 -5.1987e-05
0.000682571 -2.2553e-05 1.50696e-07
-2.2553e-05 3.76871e-06 -6.78822e-08
1.50696e-07 -6.78822e-08 -5.12547e-05
0.000713272 -2.59672e-05 8.8823e-08
-2.59672e-05 2.81133e-05 1.25487e-06
8.8823e-08 1.25487e-06 -4.7813e-05
0.00248901 -7.72633e-05 -3.30395e-05
-7.72633e-05 0.00104371 -3.5995e-06
-3.30395e-05 -3.5995e-06 0.00105272
0.000607561 -4.47868e-05 -2.96404e-07
-4.47868e-05 -3.96592e-05 3.79639e-08
-2.96404e-07 3.79639e-08 -6.00283e-05
0.000688176 -6.56009e-06 1.73618e-06
-6.56009e-06 2.96765e-06 2.33092e-06
1.73618e-06 2.33092e-06 -4.93434e-05
0.00242759 -6.65561e-05 -3.05932e-06
-6.65561e-05 0.00100121 1.91055e-07
-3.05932e-06 1.91055e-07 0.00101249
0.00062069 -3.72623e-05 4.12008e-07
-3.72623e-05 -3.93358e-05 4.26848e-06
4.12008e-07 4.26848e-06 -5.67748e-05
0.00232498 -5.47442e-05 2.07784e-05
-5.47442e-05 0.000935636 4.2867e-06
2.07784e-05 4.2867e-06 0.00094956
0.00073216 0.000213159 -1.89591e-05
0.000213159 0.00108373 4.50183e-05
-1.89591e-05 4.50183e-05 0.000358459
-0.00104463 -0.000129451 2.32787e-06
-0.000129451 0.00082645 9.96264e-06
2.32787e-06 9.96264e-06 -0.000268492
0.00222327 -7.65378e-05 -6.60407e-05
-7.65378e-05 0.000801234 -1.37053e-05
-6.60407e-05 -1.37053e-05 0.000155068
0.000658101 5.1837e-06 1.07913e-06
5.1837e-06 1.24941e-05 1.46681e-07
1.07913e-06 1.46681e-07 -8.14374e-05
0.000747834 1.40871e-05 4.51985e-07
1.40871e-05 7.11867e-05 6.46806e-07
4.51985e-07 6.46806e-07 -3.41285e-05
0.00101652 0.000142136 -6.31412e-07
0.000142136 0.000236337 3.92047e-07
-6.31412e-07 3.92047e-07 0.000114498
0.00123431 0.000187061 1.27235e-06
0.000187061 0.000320558 -4.42562e-07
1.27235e-06 -4.42562e-07 0.000175187
0.000929496 0.00010458 -2.89451e-06
0.00010458 0.000200602 -1.1987e-06
-2.89451e-06 -1.1987e-06 7.10752e-05
0.000842756 6.42378e-05 1.32457e-06
6.42378e-05 0.000119863 1.3225e-06
1.32457e-06 1.3225e-06 1.7551e-05
0.000754809 3.27931e-05 1.36667e-06
3.27931e-05 6.92253e-05 1.36552e-06
1.36667e-06 1.36552e-06 -3.34938e-05
0.000700918 7.97399e-05 -1.68422e-06
7.97399e-05 6.08092e-05 -1.62361e-06
-1.68422e-06 -1.62361e-06 -5.68508e-05
-0.000274877 7.11604e-05 -6.74774e-07
7.11604e-05 -0.00049594 8.47809e-08
-6.74774e-07 8.47809e-08 -0.000625568
0.00107365 0.000168746 1.76295e-07
0.000168746 0.000187798 -4.34991e-06
1.76295e-07 -4.34991e-06 7.68947e-05
0.00219777 0.000369674 4.03008e-06
0.000369674 0.000515913 -1.15604e-05
4.03008e-06 -1.15604e-05 0.000341081
0.000694704 0.000112387 -2.97959e-06
0.000112387 2.94029e-05 -5.90041e-07
-2.97959e-06 -5.90041e-07 -6.40918e-05
0.000679049 2.16875e-05 3.73211e-07
2.16875e-05 4.14656e-05 -1.09509e-06
3.73211e-07 -1.09509e-06 -4.42562e-05
0.0116845 0.000186101 -6.67591e-05
0.000186101 0.0037593 6.98432e-06
-6.67591e-05 6.98432e-06 0.00244558
-0.00153774 -0.000406214 -8.74325e-05
-0.000406214 0.000136409 -2.08004e-05
-8.74325e-05 -2.08004e-05 -0.000521146
0.000175825 -0.000476036 -5.11795e-06
-0.000476036 0.000703962 -3.35194e-05
-5.11795e-06 -3.35194e-05 3.40318e-05
-0.00400374 -0.000442377 1.40434e-05
-0.000442377 -0.00177639 5.54148e-05
1.40434e-05 5.54148e-05 -0.00155691
0.00923308 0.000111399 6.79434e-05
0.000111399 0.00451697 -1.38076e-05
6.79434e-05 -1.38076e-05 0.00161324
0.00219316 0.00026636 -2.7126e-05
0.00026636 0.000293998 -2.11822e-06
-2.7126e-05 -2.11822e-06 6.39288e-05
0.00166485 0.000479403 -3.93436e-05
0.000479403 0.00019474 -1.51665e-05
-3.93436e-05 -1.51665e-05 -0.000353737
0.00834209 3.9661e-05 4.26213e-05
3.9661e-05 0.0029582 1.39787e-05
4.26213e-05 1.39787e-05 0.0012943
0.00433536 0.000717933 7.01126e-06
0.000717933 0.000669383 -2.80174e-05
7.01126e-06 -2.80174e-05 3.6365e-05
0.00204433 0.00047653 2.27833e-06
0.00047653 0.000303129 1.00586e-05
2.27833e-06 1.00586e-05 0.000142751
0.000912306 0.000309709 3.99517e-06
0.000309709 8.81314e-06 -3.88885e-06
3.99517e-06 -3.88885e-06 -0.000160607
0.00105476 0.000180444 -1.34829e-05
0.000180444 0.000246841 8.70827e-06
-1.34829e-05 8.70827e-06 0.000170481
0.00173586 0.000426292 -2.56014e-05
0.000426292 0.000306363 -1.52424e-05
-2.56014e-05 -1.52424e-05 0.000124157
0.00187077 0.000515628 -1.55195e-05
0.000515628 -7.80106e-05 1.44423e-05
-1.55195e-05 1.44423e-05 -0.000138273
0.000594133 -0.000172182 -2.65843e-05
-0.000172182 -0.00213042 -4.25609e-06
-2.65843e-05 -4.25609e-06 -0.00254306
0.0022791 -0.000175767 3.61044e-06
-0.000175767 0.00133472 -8.71981e-06
3.61044e-06 -8.71981e-06 0.00128077
-0.00284639 -2.65914e-07 3.72886e-05
-2.65914e-07 0.000471657 -4.03908e-06
3.72886e-05 -4.03908e-06 -0.000779974
0.00267723 -0.000517796 -4.9481e-05
-0.000517796 0.000594426 6.69134e-06
-4.9481e-05 6.69134e-06 0.000510004
0.00377308 -0.000750098 1.81848e-06
-0.000750098 0.00087585 -1.3036e-05
1.81848e-06 -1.3036e-05 -0.000327964
0.00103745 -0.000182094 6.27432e-05
-0.000182094 0.00103498 1.73959e-05
6.27432e-05 1.73959e-05 0.000581289
0.00980342 7.74596e-05 -7.25811e-05
7.74596e-05 0.00358814 3.58901e-05
-7.25811e-05 3.58901e-05 0.00184808
0.000696445 -0.000250405 -1.32991e-05
-0.000250405 -0.000270288 -1.26036e-06
-1.32991e-05 -1.26036e-06 -0.000398694
0.00703573 7.4386e-05 -7.62355e-06
7.4386e-05 0.00158082 2.34569e-05
-7.62355e-06 2.34569e-05 0.000679421
0.00435899 -0.000431449 5.4955e-05
-0.000431449 0.00044435 -3.39855e-07
5.4955e-05 -3.39855e-07 -0.00031805
0.0018726 -0.0002588 1.98266e-05
-0.0002588 0.000358938 -4.20733e-06
1.98266e-05 -4.20733e-06 8.65743e-05
0.00318748 -0.000115539 -7.17527e-05
-0.000115539 0.000474178 -1.21484e-05
-7.17527e-05 -1.21484e-05 0.000176418
-0.000359852 -0.00019528 -1.96446e-05
-0.00019528 -0.00104721 5.92029e-06
-1.96446e-05 5.92029e-06 -0.000970819
0.00150217 -0.000315371 3.61321e-07
-0.000315371 -0.000190147 -5.98235e-07
3.61321e-07 -5.98235e-07 -0.000165885
0.00191318 -0.000235183 7.47839e-06
-0.000235183 -4.39229e-05 -4.39652e-06
7.47839e-06 -4.39652e-06 -1.68653e-05
0.00141116 -0.000342395 -1.04827e-06
-0.000342395 -0.000105129 9.07831e-07
-1.04827e-06 9.07831e-07 -0.000236828
0.00179199 -0.000304223 -1.09491e-06
-0.000304223 2.697e-05 -1.13625e-07
-1.09491e-06 -1.13625e-07 -6.10876e-05
0.00190507 -0.000220091 -1.63547e-06
-0.000220091 2.09617e-05 1.1708e-06
-1.63547e-06 1.1708e-06 -2.38805e-05
0.00150066 -0.000288992 -2.67752e-06
-0.000288992 -3.29485e-05 2.8233e-06
-2.67752e-06 2.8233e-06 -0.000176497
0.00180681 -0.000247822 3.70679e-07
-0.000247822 5.11672e-05 1.26186e-06
3.70679e-07 1.26186e-06 -4.76141e-05
0.00179101 -0.000206515 -2.66879e-07
-0.000206515 5.4973e-05 6.95416e-07
-2.66879e-07 6.95416e-07 -2.35882e-05
0.00163489 -0.000236626 1.52502e-06
-0.000236626 6.36265e-05 4.51091e-06
1.52502e-06 4.51091e-06 -6.52566e-05
0.0017199 -0.000205662 5.93059e-08
-0.000205662 7.71826e-05 1.12635e-06
5.93059e-08 1.12635e-06 -2.34479e-05
0.00193226 -0.000195702 1.7978e-06
-0.000195702 0.000214857 -4.40313e-07
1.7978e-06 -4.40313e-07 0.000120518
0.00170351 -0.000185182 -3.61903e-06
-0.000185182 0.000111273 2.97548e-06
-3.61903e-06 2.97548e-06 2.57001e-06
0.00173724 -0.000184373 2.88838e-06
-0.000184373 0.000166104 -2.99358e-06
2.88838e-06 -2.99358e-06 4.14973e-05
0.00158676 -0.000195349 -4.38875e-07
-0.000195349 6.06324e-05 6.86136e-06
-4.38875e-07 6.86136e-06 -6.40111e-05
0.00169691 -0.000199756 8.08096e-07
-0.000199756 0.00016346 -8.06615e-07
8.08096e-07 -8.06615e-07 1.88478e-05
0.00162125 -0.00018982 -1.47177e-06
-0.00018982 0.000162825 -2.35979e-06
-1.47177e-06 -2.35979e-06 1.03914e-05
0.00135393 -0.000196519 -6.7306e-06
-0.000196519 8.38315e-05 1.04879e-07
-6.7306e-06 1.04879e-07 -8.32566e-05
0.00166907 -0.00022197 6.49224e-07
-0.00022197 0.000213627 -3.74508e-07
6.49224e-07 -3.74508e-07 3.91698e-05
0.00164657 -0.000229237 1.56049e-06
-0.000229237 0.00017187 2.85818e-06
1.56049e-06 2.85818e-06 -4.56916e-06
0.00125081 -0.000191028 -4.31264e-06
-0.000191028 0.00017621 3.64118e-06
-4.31264e-06 3.64118e-06 9.56596e-06
0.00117895 -0.000203715 -1.16705e-06
-0.000203715 6.37665e-05 1.29211e-06
-1.16705e-06 1.29211e-06 -0.000120364
0.0013476 -0.000225759 3.56403e-06
-0.000225759 9.90915e-05 -1.30319e-06
3.56403e-06 -1.30319e-06 -9.36421e-05
0.000733571 -0.000104452 -4.28796e-06
-0.000104452 1.04536e-06 3.59833e-06
-4.28796e-06 3.59833e-06 -0.000116475
0.00108819 -0.000172885 3.8925e-07
-0.000172885 0.000160086 -3.83495e-07
3.8925e-07 -3.83495e-07 1.84621e-06
0.00132193 -0.000206513 1.26465e-06
-0.000206513 0.000249151 -3.16484e-06
1.26465e-06 -3.16484e-06 6.9225e-05
0.000491973 -3.93817e-06 -5.40746e-06
-3.93817e-06 -8.88125e-05 8.1834e-06
-5.40746e-06 8.1834e-06 -0.000134923
0.000813771 -9.42786e-05 -3.79774e-08
-9.42786e-05 7.56865e-05 1.94699e-07
-3.79774e-08 1.94699e-07 -3.40918e-05
0.00112227 -0.000160762 1.50168e-06
-0.000160762 0.000221459 -1.21401e-06
1.50168e-06 -1.21401e-06 7.68646e-05
0.00293223 0.00012632 -4.94862e-05
0.00012632 0.0013243 2.27194e-06
-4.94862e-05 2.27194e-06 0.00132065
0.000570281 3.22528e-05 3.83041e-07
3.22528e-05 -3.12703e-05 -3.86634e-07
3.83041e-07 -3.86634e-07 -7.12386e-05
0.000801493 -8.0894e-05 3.42386e-06
-8.0894e-05 9.0208e-05 -3.13335e-06
3.42386e-06 -3.13335e-06 -1.04114e-05
0.00265466 0.000109538 2.96897e-06
0.000109538 0.00116288 2.38337e-07
2.96897e-06 2.38337e-07 0.00116377
0.000642278 5.55219e-05 1.17559e-06
5.55219e-05 1.35393e-05 -5.93126e-06
1.17559e-06 -5.93126e-06 -1.9071e-05
0.00248676 9.74414e-05 4.05666e-05
9.74414e-05 0.00106243 -2.44361e-06
4.05666e-05 -2.44361e-06 0.00106679
0.00094762 0.000154578 8.97818e-07
0.000154578 0.000150572 -1.28717e-06
8.97818e-07 -1.28717e-06 1.54222e-05
0.000827288 0.00011024 6.35079e-07
0.00011024 0.000107149 -5.78541e-08
6.35079e-07 -5.78541e-08 -3.39358e-06
0.000646005 2.68068e-07 -6.81737e-07
2.68068e-07 3.21014e-06 -9.88091e-07
-6.81737e-07 -9.88091e-07 -9.81198e-05
0.000621691 -4.2469e-06 2.29318e-07
-4.2469e-06 -1.7269e-05 8.36128e-07
2.29318e-07 8.36128e-07 -0.000106819
0.000684574 -2.66955e-05 7.89281e-09
-2.66955e-05 2.34737e-05 2.02213e-07
7.89281e-09 2.02213e-07 -6.77961e-05
0.000661621 -2.5575e-05 -1.17982e-06
-2.5575e-05 1.40156e-06 -3.28492e-06
-1.17982e-06 -3.28492e-06 -6.55646e-05
0.000699149 -2.86869e-05 5.82862e-08
-2.86869e-05 2.46972e-05 1.61895e-06
5.82862e-08 1.61895e-06 -5.72746e-05
0.000662469 -3.08857e-05 3.43802e-07
-3.08857e-05 -1.60298e-06 -1.90171e-07
3.43802e-07 -1.90171e-07 -6.11864e-05
0.000606294 -6.62496e-05 7.14515e-07
-6.62496e-05 -1.96294e-05 -5.39363e-06
7.14515e-07 -5.39363e-06 -4.75926e-05
0.00252222 -8.72071e-05 -3.76182e-05
-8.72071e-05 0.00106981 -3.14442e-06
-3.76182e-05 -3.14442e-06 0.00107673
0.000600033 -5.26975e-05 -1.2822e-08
-5.26975e-05 -3.53441e-05 3.09174e-08
-1.2822e-08 3.09174e-08 -5.85813e-05
0.000663805 -2.00987e-05 1.95159e-06
-2.00987e-05 -6.30424e-06 2.54287e-06
1.95159e-06 2.54287e-06 -6.12778e-05
0.00248222 -7.6818e-05 -2.76393e-06
-7.6818e-05 0.00103922 2.10645e-07
-2.76393e-06 2.10645e-07 0.00104829
0.000605916 -4.30388e-05 6.72514e-07
-4.30388e-05 -4.09315e-05 4.48413e-06
6.72514e-07 4.48413e-06 -6.10583e-05
0.00240205 -6.57608e-05 2.56651e-05
-6.57608e-05 0.000985926 4.08589e-06
2.56651e-05 4.08589e-06 0.00099745
0.0097934 0.00030601 0.000126612
0.00030601 0.00283857 4.68296e-05
0.000126612 4.68296e-05 0.00191352
-0.00230433 -0.000341502 -5.62852e-05
-0.000341502 -0.00137294 -4.81842e-06
-5.62852e-05 -4.81842e-06 -0.00149143
-0.00282621 1.9537e-05 -5.52062e-05
1.9537e-05 -5.3152e-05 -1.94397e-05
-5.52062e-05 -1.94397e-05 -0.001386
0.00070473 -1.4134e-05 2.45389e-06
-1.4134e-05 4.35274e-05 1.95652e-06
2.45389e-06 1.95652e-06 -5.95146e-05
0.000795938 0.000131615 -8.32786e-07
0.000131615 0.000117567 1.31433e-06
-8.32786e-07 1.31433e-06 -3.73137e-07
0.00108642 0.00011917 5.25819e-07
0.00011917 0.000286219 4.68768e-11
5.25819e-07 4.68768e-11 0.000156776
0.00105732 0.000172666 -1.7634e-06
0.000172666 0.000225115 1.90236e-07
-1.7634e-06 1.90236e-07 8.27751e-05
0.00121661 0.000194707 1.37366e-05
0.000194707 0.000269097 5.71907e-07
1.37366e-05 5.71907e-07 0.000103167
0.000394881 0.000122345 -1.40128e-06
0.000122345 -0.000119039 -1.00608e-06
-1.40128e-06 -1.00608e-06 -0.00025547
0.000496613 8.34333e-05 -1.14735e-06
8.34333e-05 -4.83578e-05 -1.07917e-06
-1.14735e-06 -1.07917e-06 -0.000164613
0.000338215 0.000121568 4.54931e-07
0.000121568 -0.000164852 8.75969e-07
4.54931e-07 8.75969e-07 -0.000305708
0.000992796 0.000157751 -1.40175e-06
0.000157751 0.000148906 1.05164e-07
-1.40175e-06 1.05164e-07 3.39294e-05
0.000212094 0.000155964 1.62611e-06
0.000155964 -0.00036444 -1.20539e-06
1.62611e-06 -1.20539e-06 -0.000503062
0.00293472 0.000389354 -3.16463e-06
0.000389354 0.000921252 -3.8106e-06
-3.16463e-06 -3.8106e-06 0.000761224
0.00168774 0.000372776 -2.17398e-06
0.000372776 0.000124656 2.186e-06
-2.17398e-06 2.186e-06 -3.77967e-05
0.00153282 0.0003242 4.52184e-06
0.0003242 0.000187083 -2.77841e-06
4.52184e-06 -2.77841e-06 2.48263e-05
0.000660284 0.000119818 -4.37864e-06
0.000119818 3.07611e-05 5.33573e-06
-4.37864e-06 5.33573e-06 -6.25716e-05
0.00309834 0.000261681 6.81297e-06
0.000261681 -0.000249197 1.05888e-05
6.81297e-06 1.05888e-05 -0.000487394
0.00648137 0.000144259 2.35947e-05
0.000144259 0.00132063 2.27372e-05
2.35947e-05 2.27372e-05 -7.95479e-06
0.00604445 -0.00085357 -5.95441e-06
-0.00085357 0.00317762 -4.43613e-05
-5.95441e-06 -4.43613e-05 0.00298367
0.00550954 0.000476674 0.000310411
0.000476674 0.00161566 9.02192e-05
0.000310411 9.02192e-05 -0.000839005
0.00103347 0.000424113 2.83988e-05
0.000424113 -0.000377331 2.5458e-05
2.83988e-05 2.5458e-05 -0.000508746
0.00295389 0.000572701 -7.15209e-05
0.000572701 0.000124697 -2.3706e-05
-7.15209e-05 -2.3706e-05 -0.000289789
0.00314093 0.000521288 5.53053e-05
0.000521288 0.000564359 2.41855e-05
5.53053e-05 2.41855e-05 0.000578196
0.00238089 0.000496744 1.86916e-06
0.000496744 0.000431236 5.93447e-06
1.86916e-06 5.93447e-06 0.000295318
0.000631766 0.000271273 -1.93842e-06
0.000271273 -0.000106315 9.097e-06
-1.93842e-06 9.097e-06 -0.000266714
0.00257373 0.000581638 -8.281e-05
0.000581638 0.000259759 -4.61768e-05
-8.281e-05 -4.61768e-05 0.000166921
0.00308429 -0.000156013 -0.000128269
-0.000156013 0.000475525 5.98383e-06
-0.000128269 5.98383e-06 9.89284e-05
0.00920652 -0.000159897 5.24255e-06
-0.000159897 0.00287063 -3.3931e-06
5.24255e-06 -3.3931e-06 0.00223147
-0.00728551 -0.00023744 0.000192638
-0.00023744 -0.00389586 1.14512e-06
0.000192638 1.14512e-06 -0.00374905
0.00150198 -0.000302137 -2.7579e-05
-0.000302137 5.82642e-05 9.34893e-06
-2.7579e-05 9.34893e-06 -2.29522e-05
0.00547804 -0.000483607 7.84505e-05
-0.000483607 0.0011802 1.1351e-05
7.84505e-05 1.1351e-05 0.000396802
0.0014679 -0.000373389 7.40845e-05
-0.000373389 -0.00126084 4.89775e-05
7.40845e-05 4.89775e-05 -0.00214532
0.00119547 -0.000195299 1.26873e-05
-0.000195299 -4.40451e-06 -8.96142e-07
1.26873e-05 -8.96142e-07 -0.000187226
0.00200418 -2.82159e-05 -6.17823e-06
-2.82159e-05 -0.000285119 6.00506e-06
-6.17823e-06 6.00506e-06 -0.000559377
0.00397399 -0.00021266 1.45047e-05
-0.00021266 0.00119297 -4.02414e-06
1.45047e-05 -4.02414e-06 0.00112946
0.00309171 -1.87968e-05 5.8417e-05
-1.87968e-05 0.000641537 -4.44926e-06
5.8417e-05 -4.44926e-06 0.000624803
0.000572015 -0.000282553 -1.0937e-05
-0.000282553 -0.000656637 5.02061e-06
-1.0937e-05 5.02061e-06 -0.000644585
0.00178675 -0.000241803 -4.78654e-07
-0.000241803 -0.000103241 1.31986e-06
-4.78654e-07 1.31986e-06 -9.00471e-05
0.00179715 -0.000133315 7.47724e-06
-0.000133315 -5.47462e-05 -4.95107e-07
7.47724e-06 -4.95107e-07 -4.47766e-05
0.00155858 -0.000282626 3.16249e-06
-0.000282626 -7.91743e-05 -2.88706e-07
3.16249e-06 -2.88706e-07 -0.000163913
0.00189164 -0.000220751 1.84748e-06
-0.000220751 2.52713e-05 7.62591e-07
1.84748e-06 7.62591e-07 -2.50263e-05
0.00181387 -0.00015533 4.37346e-07
-0.00015533 4.7779e-05 1.12181e-06
4.37346e-07 1.12181e-06 5.29921e-08
0.001774 -0.000246096 6.3423e-06
-0.000246096 3.2029e-05 3.1379e-06
6.3423e-06 3.1379e-06 -6.66369e-05
0.00184079 -0.000205091 1.15441e-06
-0.000205091 9.03803e-05 3.71408e-07
1.15441e-06 3.71408e-07 1.18502e-05
0.00197812 -0.000171475 1.59308e-07
-0.000171475 0.000217563 7.33873e-07
1.59308e-07 7.33873e-07 0.000136959
0.00168264 -0.000205115 8.8934e-07
-0.000205115 5.77503e-05 3.72892e-06
8.8934e-07 3.72892e-06 -4.3722e-05
0.00177909 -0.00019181 -1.66105e-07
-0.00019181 0.000134397 4.83927e-07
-1.66105e-07 4.83927e-07 3.88284e-05
0.0016376 -0.000175915 4.46259e-06
-0.000175915 8.81348e-05 -1.58778e-06
4.46259e-06 -1.58778e-06 -2.37358e-05
0.00163496 -0.00018532 -4.15596e-06
-0.00018532 6.86886e-05 6.5818e-06
-4.15596e-06 6.5818e-06 -3.77065e-05
0.00177145 -0.000184454 -1.54402e-06
-0.000184454 0.00018503 -6.51833e-08
-1.54402e-06 -6.51833e-08 6.31622e-05
0.00170901 -0.000172562 6.42254e-07
-0.000172562 0.000200616 -1.44308e-06
6.42254e-07 -1.44308e-06 6.18288e-05
0.00168926 -0.000199974 8.99487e-07
-0.000199974 0.000158996 3.02148e-06
8.99487e-07 3.02148e-06 1.41462e-05
0.00166923 -0.000192238 8.45974e-07
-0.000192238 0.000191109 -7.28637e-07
8.45974e-07 -7.28637e-07 3.77977e-05
0.0015708 -0.000180803 -3.48292e-06
-0.000180803 0.00018422 -2.00062e-07
-3.48292e-06 -2.00062e-07 3.36375e-05
0.00110175 -0.000173863 -8.64068e-06
-0.000173863 6.52971e-06 1.99837e-06
-8.64068e-06 1.99837e-06 -0.000149381
0.0014452 -0.000201937 -1.34899e-06
-0.000201937 0.000136187 -3.66229e-09
-1.34899e-06 -3.66229e-09 -3.16014e-05
0.00167716 -0.00022179 4.12391e-06
-0.00022179 0.000218922 1.46538e-07
4.12391e-06 1.46538e-07 4.41089e-05
0.000900204 -0.000132881 -6.14291e-06
-0.000132881 4.32994e-05 5.3128e-06
-6.14291e-06 5.3128e-06 -8.50149e-05
0.00115374 -0.000183271 7.96646e-07
-0.000183271 0.000120573 9.58332e-07
7.96646e-07 9.58332e-07 -4.44504e-05
0.00125289 -0.000207888 2.35236e-06
-0.000207888 0.000105494 -3.75826e-07
2.35236e-06 -3.75826e-07 -7.89153e-05
0.000487739 -3.28513e-05 -8.65219e-06
-3.28513e-05 -0.000101114 9.17061e-06
-8.65219e-06 9.17061e-06 -0.000156592
0.000872154 -0.000117526 -6.19359e-09
-0.000117526 7.86855e-05 -2.95528e-07
-6.19359e-09 -2.95528e-07 -4.08928e-05
0.00114321 -0.000177555 2.77351e-06
-0.000177555 0.000187713 -3.11292e-06
2.77351e-06 -3.11292e-06 2.88515e-05
0.00345601 0.000139486 -7.2189e-05
0.000139486 0.00162121 2.39271e-06
-7.2189e-05 2.39271e-06 0.00161382
0.000602867 -1.1033e-05 4.01313e-07
-1.1033e-05 -2.84169e-05 -1.96617e-07
4.01313e-07 -1.96617e-07 -7.57223e-05
0.000894674 -0.000103251 4.74652e-06
-0.000103251 0.000119825 -3.10525e-06
4.74652e-06 -3.10525e-06 8.83414e-06
0.00309285 0.000119664 4.61464e-06
0.000119664 0.00141226 2.49538e-07
4.61464e-06 2.49538e-07 0.00141018
0.000659174 2.29732e-05 4.58888e-06
2.29732e-05 1.57972e-05 -6.90593e-06
4.58888e-06 -6.90593e-06 -2.37399e-05
0.00278315 0.000103863 5.87226e-05
0.000103863 0.00123324 -2.43329e-06
5.87226e-05 -2.43329e-06 0.00123566
0.00110636 0.000177666 -4.26354e-07
0.000177666 0.000207792 -4.67576e-06
-4.26354e-07 -4.67576e-06 5.02928e-05
0.00114339 0.000169429 5.26839e-07
0.000169429 0.000261314 2.63682e-07
5.26839e-07 2.63682e-07 0.000124566
0.000824503 9.50664e-05 -1.49167e-06
9.50664e-05 8.64979e-05 -1.93625e-06
-1.49167e-06 -1.93625e-06 -3.21765e-05
0.000741817 0.000127787 -1.13563e-07
0.000127787 6.63785e-05 4.78315e-07
-1.13563e-07 4.78315e-07 -4.88023e-05
0.000649301 2.16385e-05 -5.56223e-07
2.16385e-05 4.42603e-06 -2.08926e-07
-5.56223e-07 -2.08926e-07 -9.9199e-05
0.000718459 2.91954e-05 -2.22903e-06
2.91954e-05 4.11747e-05 -2.95429e-06
-2.22903e-06 -2.95429e-06 -4.24884e-05
0.000632724 -4.1688e-05 1.24655e-07
-4.1688e-05 -6.83161e-06 1.56978e-06
1.24655e-07 1.56978e-06 -9.74723e-05
0.00065804 -2.77868e-05 3.46514e-07
-2.77868e-05 1.4901e-06 -3.30502e-07
3.46514e-07 -3.30502e-07 -6.63241e-05
0.000597652 -6.92589e-05 6.86669e-07
-6.92589e-05 -1.56803e-05 -5.9502e-06
6.86669e-07 -5.9502e-06 -4.77713e-05
0.000648783 -3.40081e-05 1.3432e-06
-3.40081e-05 -8.36183e-06 2.89397e-06
1.3432e-06 2.89397e-06 -6.80414e-05
0.000586006 -6.34941e-05 1.93399e-07
-6.34941e-05 -3.25853e-05 -1.8352e-08
1.93399e-07 -1.8352e-08 -5.97395e-05
0.00256763 -9.67894e-05 -4.275e-05
-9.67894e-05 0.00110232 -2.64099e-06
-4.275e-05 -2.64099e-06 0.00110717
0.00251587 -8.67792e-05 -1.90963e-06
-8.67792e-05 0.0010656 2.02218e-07
-1.90963e-06 2.02218e-07 0.00107253
0.000591602 -4.98452e-05 1.0511e-06
-4.98452e-05 -4.10103e-05 4.72631e-06
1.0511e-06 4.72631e-06 -6.37221e-05
0.00246526 -7.6208e-05 3.07617e-05
-7.6208e-05 0.00102897 3.79293e-06
3.07617e-05 3.79293e-06 0.00103814
0.00275296 -7.53957e-07 -3.77629e-05
-7.53957e-07 -3.65988e-05 2.13565e-05
-3.77629e-05 2.13565e-05 -0.000116886
0.00153246 -0.000334019 2.85421e-05
-0.000334019 -0.00135734 1.1212e-05
2.85421e-05 1.1212e-05 -0.00227862
0.00441059 -0.00045867 -3.81829e-05
-0.00045867 0.00184037 -3.40208e-05
-3.81829e-05 -3.40208e-05 0.00194403
0.00171029 0.000241607 1.14837e-05
0.000241607 0.000421442 5.03563e-06
1.14837e-05 5.03563e-06 0.000242082
0.00125916 0.00013852 1.46501e-06
0.00013852 0.000381332 9.26528e-07
1.46501e-06 9.26528e-07 0.000251144
0.000906699 0.000160424 -1.47622e-06
0.000160424 0.000144836 2.06446e-06
-1.47622e-06 2.06446e-06 5.12989e-06
0.000727518 0.00014982 7.0186e-07
0.00014982 6.33557e-05 8.68931e-07
7.0186e-07 8.68931e-07 -7.86627e-05
0.00106166 0.000184559 -8.68367e-08
0.000184559 0.000188424 -2.49834e-06
-8.68367e-08 -2.49834e-06 2.14368e-05
0.000781749 0.000181197 -6.82296e-08
0.000181197 -3.18977e-05 5.16128e-07
-6.82296e-08 5.16128e-07 -0.00017186
0.000885306 0.000167826 -1.11669e-06
0.000167826 0.000129715 -3.67453e-07
-1.11669e-06 -3.67453e-07 -2.18759e-05
0.00101129 0.000153011 -1.26016e-06
0.000153011 0.000161144 5.61306e-06
-1.26016e-06 5.61306e-06 4.21008e-05
0.00103838 0.000214555 6.57686e-07
0.000214555 8.24996e-05 -1.84684e-07
6.57686e-07 -1.84684e-07 -6.06652e-05
0.00226355 0.000342443 1.65453e-06
0.000342443 0.000564513 6.22908e-06
1.65453e-06 6.22908e-06 0.000407245
0.00172155 0.000340825 -1.78199e-06
0.000340825 0.000151549 -4.20021e-07
-1.78199e-06 -4.20021e-07 -1.4487e-05
0.00137402 0.000290037 1.1891e-05
0.000290037 -4.87248e-05 9.07622e-06
1.1891e-05 9.07622e-06 -0.000162191
0.00128049 0.000347435 -1.91421e-06
0.000347435 -9.58241e-05 -2.70109e-06
-1.91421e-06 -2.70109e-06 -0.000260505
0.000722542 0.000263953 1.8955e-06
0.000263953 -0.000222097 3.88743e-06
1.8955e-06 3.88743e-06 -0.000368999
0.000661951 0.000195294 1.50104e-05
0.000195294 -0.000306464 1.13667e-05
1.50104e-05 1.13667e-05 -0.000303571
0.00524501 0.000414373 -2.76597e-05
0.000414373 0.000654387 3.11654e-07
-2.76597e-05 3.11654e-07 0.000306089
0.00171472 -2.08845e-05 9.53352e-05
-2.08845e-05 -0.000996935 2.65671e-05
9.53352e-05 2.65671e-05 -0.00232473
0.00181115 0.000521449 5.12335e-05
0.000521449 -0.000456504 1.39892e-06
5.12335e-05 1.39892e-06 -0.000984781
0.001802 0.000394478 -2.15924e-05
0.000394478 0.000121558 -2.9078e-06
-2.15924e-05 -2.9078e-06 0.000106812
0.00126366 0.0003988 -3.49452e-05
0.0003988 -8.42451e-05 -2.41699e-05
-3.49452e-05 -2.41699e-05 -0.000219828
0.00229789 -0.000124685 1.54939e-05
-0.000124685 0.00020258 -1.67307e-07
1.54939e-05 -1.67307e-07 0.000138399
0.00112463 6.89181e-06 -1.04007e-05
6.89181e-06 -0.000492542 3.06838e-06
-1.04007e-05 3.06838e-06 -0.000682234
0.000694162 0.000427736 7.11364e-05
0.000427736 -0.00197292 -2.32582e-05
7.11364e-05 -2.32582e-05 -0.0026339
0.000663919 -0.000130006 -5.72896e-06
-0.000130006 -0.000313828 1.83851e-05
-5.72896e-06 1.83851e-05 -0.000381647
0.00278912 -5.72284e-05 -2.14961e-06
-5.72284e-05 -3.70593e-05 2.6467e-05
-2.14961e-06 2.6467e-05 -0.000386193
0.00164605 -0.000137882 -4.81214e-06
-0.000137882 -4.04136e-05 9.41919e-07
-4.81214e-06 9.41919e-07 -6.3606e-05
0.00233516 -5.14183e-05 -5.15662e-06
-5.14183e-05 0.000234828 -1.94875e-06
-5.15662e-06 -1.94875e-06 0.000192178
0.00157706 -7.49384e-05 2.09852e-05
-7.49384e-05 -0.000152316 -1.50768e-06
2.09852e-05 -1.50768e-06 -0.000156825
0.00285595 -4.01952e-05 1.86202e-05
-4.01952e-05 0.000694816 -2.88843e-07
1.86202e-05 -2.88843e-07 0.00065358
0.00173862 -0.000251434 -8.37578e-06
-0.000251434 -0.000119594 3.2125e-06
-8.37578e-06 3.2125e-06 -0.00012373
0.00181751 -0.000140928 2.42881e-06
-0.000140928 -5.62087e-05 8.90656e-07
2.42881e-06 8.90656e-07 -5.16627e-05
0.00185797 -0.000150377 4.25763e-07
-0.000150377 4.43186e-05 -7.27095e-08
4.25763e-07 -7.27095e-08 2.2833e-05
0.00184121 -0.000219271 3.32881e-06
-0.000219271 1.16166e-05 1.11784e-06
3.32881e-06 1.11784e-06 -4.42062e-05
0.00183142 -0.000168507 5.10587e-07
-0.000168507 4.89438e-05 4.96346e-08
5.10587e-07 4.96346e-08 -3.28801e-06
0.00184772 -0.000155382 1.40722e-06
-0.000155382 0.000123552 6.48067e-07
1.40722e-06 6.48067e-07 5.5196e-05
0.00188801 -0.000204434 7.87438e-07
-0.000204434 0.000124025 1.21275e-06
7.87438e-07 1.21275e-06 4.54358e-05
0.00186347 -0.00017436 -1.07488e-06
-0.00017436 0.000154165 5.71376e-08
-1.07488e-06 5.71376e-08 7.21179e-05
0.00165785 -0.000155019 2.61276e-06
-0.000155019 7.73773e-05 -1.79641e-07
2.61276e-06 -1.79641e-07 -2.45562e-05
0.00162313 -0.000188152 -3.23512e-06
-0.000188152 5.20668e-05 1.70746e-06
-3.23512e-06 1.70746e-06 -4.47666e-05
0.00165023 -0.000176087 4.16981e-07
-0.000176087 9.86951e-05 -4.68596e-07
4.16981e-07 -4.68596e-07 -1.31965e-05
0.00159667 -0.000158552 1.524e-06
-0.000158552 0.000112688 -1.04549e-06
1.524e-06 -1.04549e-06 -1.7626e-05
0.00180615 -0.000184401 -5.02216e-06
-0.000184401 0.000204064 3.98213e-06
-5.02216e-06 3.98213e-06 8.49674e-05
0.00170483 -0.000170901 -3.53155e-07
-0.000170901 0.000195322 -1.99987e-07
-3.53155e-07 -1.99987e-07 5.84077e-05
0.00145212 -0.000152721 -2.55139e-06
-0.000152721 0.000105734 1.68156e-07
-2.55139e-06 1.68156e-07 -3.72595e-05
0.00171056 -0.000194527 2.94946e-06
-0.000194527 0.000215703 7.48782e-07
2.94946e-06 7.48782e-07 6.1526e-05
0.00149785 -0.000177498 7.07569e-07
-0.000177498 0.000142339 -4.11834e-07
7.07569e-07 -4.11834e-07 -9.17975e-06
0.0012864 -0.000159623 -6.8357e-06
-0.000159623 7.94381e-05 1.75417e-06
-6.8357e-06 1.75417e-06 -6.22758e-05
0.00101967 -0.000142596 -9.13453e-06
-0.000142596 4.70034e-05 4.92804e-06
-9.13453e-06 4.92804e-06 -8.01337e-05
0.00112573 -0.000173996 -1.92263e-06
-0.000173996 2.4028e-05 4.95839e-07
-1.92263e-06 4.95839e-07 -0.0001313
0.00149765 -0.000205005 3.86919e-06
-0.000205005 0.000166805 -3.07991e-07
3.86919e-06 -3.07991e-07 -1.38568e-06
0.000532155 -0.000107622 -1.3746e-05
-0.000107622 -8.96525e-05 1.09069e-05
-1.3746e-05 1.09069e-05 -0.0001581
0.000916245 -0.000136702 6.6434e-07
-0.000136702 5.31215e-05 3.76721e-07
6.6434e-07 3.76721e-07 -7.58955e-05
0.00106788 -0.000176575 5.28808e-06
-0.000176575 7.14881e-05 -1.55381e-06
5.28808e-06 -1.55381e-06 -9.213e-05
0.00388113 0.000151287 -9.03498e-05
0.000151287 0.00186749 3.37416e-06
-9.03498e-05 3.37416e-06 0.00185533
0.000628584 -6.83621e-05 1.7712e-07
-6.83621e-05 -2.48228e-05 -2.02939e-07
1.7712e-07 -2.02939e-07 -8.37375e-05
0.000970338 -0.000128923 5.62466e-06
-0.000128923 0.000133853 -4.58568e-06
5.62466e-06 -4.58568e-06 1.23538e-05
0.0035653 0.000124663 3.4926e-06
0.000124663 0.00168022 3.90346e-07
3.4926e-06 3.90346e-07 0.00167537
0.000702692 -2.82811e-05 8.91214e-06
-2.82811e-05 2.56593e-05 -8.03317e-06
8.91214e-06 -8.03317e-06 -2.30091e-05
0.0032235 0.000102659 8.37909e-05
0.000102659 0.00148201 -3.40279e-06
8.37909e-05 -3.40279e-06 0.00148305
0.00105069 0.000186977 -2.63451e-06
0.000186977 9.30709e-05 -1.21783e-06
-2.63451e-06 -1.21783e-06 -8.1178e-05
0.00104388 0.000172693 -7.16631e-08
0.000172693 0.000174733 -1.72573e-06
-7.16631e-08 -1.72573e-06 1.80727e-05
0.00112712 0.000161519 -1.24221e-06
0.000161519 0.000228901 -2.49201e-06
-1.24221e-06 -2.49201e-06 8.94696e-05
0.00133157 0.000183674 -4.40457e-07
0.000183674 0.00036763 6.23655e-07
-4.40457e-07 6.23655e-07 0.000229397
0.00087693 0.000102593 -1.15246e-06
0.000102593 0.000114678 -8.82434e-07
-1.15246e-06 -8.82434e-07 -3.71284e-06
0.00080335 5.96547e-05 -2.86902e-06
5.96547e-05 8.70345e-05 -2.43049e-06
-2.86902e-06 -2.43049e-06 -9.85286e-06
0.000660955 4.38132e-05 -4.55333e-09
4.38132e-05 9.24275e-06 3.94072e-07
-4.55333e-09 3.94072e-07 -9.60749e-05
0.000675771 -1.04326e-05 -3.81548e-07
-1.04326e-05 1.55616e-05 -7.66044e-08
-3.81548e-07 -7.66044e-08 -6.44596e-05
0.000589521 -5.79702e-05 -1.22619e-06
-5.79702e-05 -1.80091e-05 -6.24898e-06
-1.22619e-06 -6.24898e-06 -5.45766e-05
0.000627828 -4.28149e-05 9.05122e-07
-4.28149e-05 -1.32207e-05 3.26312e-06
9.05122e-07 3.26312e-06 -8.13872e-05
0.000566238 -7.22198e-05 2.66929e-07
-7.22198e-05 -3.30141e-05 -1.43935e-07
2.66929e-07 -1.43935e-07 -6.54361e-05
0.00266821 -0.000105798 -5.04666e-05
-0.000105798 0.00116467 -2.21133e-06
-5.04666e-05 -2.21133e-06 0.0011674
0.000571036 -5.9999e-05 7.9953e-07
-5.9999e-05 -4.27418e-05 5.04735e-06
7.9953e-07 5.04735e-06 -6.89636e-05
0.00255309 -9.67476e-05 -1.38008e-06
-9.67476e-05 0.00109374 1.86884e-07
-1.38008e-06 1.86884e-07 0.00109849
0.00250719 -8.60685e-05 3.59079e-05
-8.60685e-05 0.00106017 3.40381e-06
3.59079e-05 3.40381e-06 0.00106716
0.000621547 2.6989e-05 1.23498e-05
2.6989e-05 -0.000472095 6.27081e-06
1.23498e-05 6.27081e-06 -0.00047965
0.00419942 6.17638e-05 2.51826e-05
6.17638e-05 0.000503014 9.56393e-06
2.51826e-05 9.56393e-06 0.000226643
0.00792867 0.00037935 -9.20309e-05
0.00037935 0.00232412 -3.58578e-05
-9.20309e-05 -3.58578e-05 0.00128212
0.000861586 0.000186572 2.87318e-06
0.000186572 -0.000103848 1.69608e-06
2.87318e-06 1.69608e-06 -0.000252122
0.00152 0.000237102 2.98128e-06
0.000237102 0.000138084 -9.13672e-07
2.98128e-06 -9.13672e-07 -1.76274e-05
0.00111636 0.000205853 -8.76865e-07
0.000205853 9.8126e-05 -1.3889e-06
-8.76865e-07 -1.3889e-06 -7.50016e-05
0.00104699 0.000176023 -1.22029e-06
0.000176023 0.000238712 1.87326e-07
-1.22029e-06 1.87326e-07 9.12835e-05
0.000889204 0.000172777 -1.50027e-06
0.000172777 9.65708e-05 -3.18597e-07
-1.50027e-06 -3.18597e-07 -7.1336e-05
0.00125854 0.00021914 6.12007e-06
0.00021914 0.000213539 2.41313e-06
6.12007e-06 2.41313e-06 6.72425e-05
0.00237691 0.000350593 -8.89884e-06
0.000350593 0.000537729 -4.74955e-06
-8.89884e-06 -4.74955e-06 0.000376677
0.00178539 0.000268103 -3.90947e-07
0.000268103 0.000488789 2.02578e-06
-3.90947e-07 2.02578e-06 0.0003414
0.00129563 0.000277326 8.34953e-06
0.000277326 5.17503e-05 1.39371e-05
8.34953e-06 1.39371e-05 -0.000101327
0.00186334 0.000344771 -1.42915e-06
0.000344771 0.000235527 1.01807e-06
-1.42915e-06 1.01807e-06 7.20485e-05
0.00216806 0.000332217 -8.19231e-06
0.000332217 0.000302125 2.77008e-06
-8.19231e-06 2.77008e-06 0.000157903
0.000762712 0.000135156 1.60002e-05
0.000135156 -0.000436283 5.22595e-06
1.60002e-05 5.22595e-06 -0.00050065
0.00134986 0.000283474 8.7743e-06
0.000283474 -5.9724e-05 1.66271e-06
8.7743e-06 1.66271e-06 -0.00017579
0.00110552 0.00033225 -6.63238e-06
0.00033225 -0.000199285 -7.52213e-06
-6.63238e-06 -7.52213e-06 -0.000365099
0.00112906 0.000188073 -5.43119e-06
0.000188073 -8.05575e-05 2.82212e-06
-5.43119e-06 2.82212e-06 -8.70445e-05
0.0049528 0.000209389 3.99213e-05
0.000209389 0.000432612 -4.91098e-07
3.99213e-05 -4.91098e-07 2.62548e-05
0.001347 0.000322176 3.90205e-06
0.000322176 8.67921e-05 -1.51237e-05
3.90205e-06 -1.51237e-05 6.54793e-05
0.00130835 -3.30536e-05 1.99358e-05
-3.30536e-05 -9.67981e-05 2.39786e-06
1.99358e-05 2.39786e-06 -0.000129644
0.00198557 -5.87789e-05 -1.23281e-05
-5.87789e-05 8.27944e-05 -6.63309e-07
-1.23281e-05 -6.63309e-07 2.01285e-05
0.00170355 0.000130814 5.36066e-05
0.000130814 -0.000431909 -8.83941e-06
5.36066e-05 -8.83941e-06 -0.000690009
0.000114054 -0.000101728 -2.04676e-05
-0.000101728 -0.000848696 1.34212e-05
-2.04676e-05 1.34212e-05 -0.000838272
0.00229677 -9.53287e-05 -6.56189e-05
-9.53287e-05 0.000202692 5.66243e-06
-6.56189e-05 5.66243e-06 0.000155212
0.00161597 -0.000102895 7.27443e-07
-0.000102895 -0.000142553 3.09048e-07
7.27443e-07 3.09048e-07 -0.000134579
0.0022679 -5.058e-05 -3.64303e-06
-5.058e-05 0.000325389 5.37648e-07
-3.64303e-06 5.37648e-07 0.000280816
0.00195363 -0.000136286 6.58334e-06
-0.000136286 4.35265e-05 -2.38372e-08
6.58334e-06 -2.38372e-08 2.36449e-05
0.00194035 -2.75024e-05 4.79897e-06
-2.75024e-05 6.71279e-05 -2.94261e-07
4.79897e-06 -2.94261e-07 1.82701e-05
0.00185709 -0.000149557 -1.67591e-06
-0.000149557 -5.08202e-05 1.28195e-06
-1.67591e-06 1.28195e-06 -4.86137e-05
0.00178553 -0.000146657 -1.7048e-06
-0.000146657 6.48158e-06 -1.44386e-07
-1.7048e-06 -1.44386e-07 -1.5175e-05
0.00183465 -0.000136671 1.7509e-06
-0.000136671 5.08496e-05 4.94489e-07
1.7509e-06 4.94489e-07 -9.9719e-07
0.00184561 -0.000180339 -7.6814e-07
-0.000180339 4.91117e-05 -7.54606e-07
-7.6814e-07 -7.54606e-07 -7.50405e-06
0.00176949 -0.000153395 2.96892e-07
-0.000153395 8.14543e-05 -6.79271e-08
2.96892e-07 -6.79271e-08 1.05004e-05
0.00166936 -0.000137025 1.60906e-06
-0.000137025 4.57374e-05 3.05513e-07
1.60906e-06 3.05513e-07 -4.4723e-05
0.00175148 -0.000176521 -4.57812e-06
-0.000176521 9.25825e-05 4.66187e-08
-4.57812e-06 4.66187e-08 9.20374e-06
0.0016837 -0.000155183 1.87149e-07
-0.000155183 9.38998e-05 -1.99439e-07
1.87149e-07 -1.99439e-07 -7.9461e-06
0.00164792 -0.000143101 1.72233e-06
-0.000143101 0.000107826 -4.01778e-07
1.72233e-06 -4.01778e-07 -1.51405e-05
0.00166375 -0.000176253 -3.05305e-06
-0.000176253 0.000109739 5.92916e-07
-3.05305e-06 5.92916e-07 -2.16722e-06
0.0016022 -0.000158077 -5.60797e-08
-0.000158077 0.000115176 -2.08134e-07
-5.60797e-08 -2.08134e-07 -1.48815e-05
0.00146801 -0.000138999 -1.68796e-06
-0.000138999 0.000100002 2.77861e-07
-1.68796e-06 2.77861e-07 -3.90135e-05
0.00169478 -0.000169081 -6.67637e-07
-0.000169081 0.00018676 1.84045e-06
-6.67637e-07 1.84045e-06 5.17227e-05
0.00144508 -0.000152762 -4.32684e-07
-0.000152762 9.99187e-05 -1.24321e-07
-4.32684e-07 -1.24321e-07 -4.28419e-05
0.00132962 -0.000143144 -6.37075e-06
-0.000143144 8.99459e-05 2.07216e-06
-6.37075e-06 2.07216e-06 -4.76397e-05
0.00143195 -0.000174635 4.89973e-06
-0.000174635 0.000104627 -7.17529e-07
4.89973e-06 -7.17529e-07 -4.79191e-05
0.0011727 -0.00015378 2.03189e-08
-0.00015378 1.53537e-05 -1.60867e-07
2.03189e-08 -1.60867e-07 -0.00012694
0.0010469 -0.000131617 -1.05813e-05
-0.000131617 2.66431e-05 4.37912e-06
-1.05813e-05 4.37912e-06 -9.24287e-05
0.000487639 -0.000135115 -1.77921e-05
-0.000135115 -0.000138734 1.10687e-05
-1.77921e-05 1.10687e-05 -0.00021103
0.000982705 -0.000140757 4.31044e-07
-0.000140757 2.77619e-05 3.46633e-07
4.31044e-07 3.46633e-07 -9.92467e-05
0.00116436 -0.000175061 4.46613e-06
-0.000175061 4.95484e-05 -8.36653e-07
4.46613e-06 -8.36653e-07 -0.000105278
0.00433414 0.000173767 -9.71413e-05
0.000173767 0.00213581 5.2806e-06
-9.71413e-05 5.2806e-06 0.00211522
0.000633373 -0.000102004 -1.73862e-07
-0.000102004 -3.64703e-05 2.76824e-07
-1.73862e-07 2.76824e-07 -0.000105778
0.000946903 -0.000141614 7.16611e-06
-0.000141614 7.19921e-05 -4.35096e-06
7.16611e-06 -4.35096e-06 -5.7883e-05
0.00403381 0.00014013 6.54296e-06
0.00014013 0.0019522 6.36394e-07
6.54296e-06 6.36394e-07 0.00194121
0.000777567 -7.10259e-05 1.20181e-05
-7.10259e-05 5.34848e-05 -9.84388e-06
1.20181e-05 -9.84388e-06 -6.3612e-06
0.00368718 0.000110992 9.99492e-05
0.000110992 0.001746 -4.19294e-06
9.99492e-05 -4.19294e-06 0.00174305
0.000882365 0.00018067 -3.46097e-06
0.00018067 -0.000126132 1.76035e-06
-3.46097e-06 1.76035e-06 -0.000291181
0.000805109 0.000171031 -1.11667e-06
0.000171031 -4.7319e-05 1.6118e-06
-1.11667e-06 1.6118e-06 -0.000220134
0.00109603 0.000170532 -3.48e-06
0.000170532 0.000150752 -2.044e-06
-3.48e-06 -2.044e-06 -4.96783e-06
0.000971509 0.000167115 -3.71107e-07
0.000167115 0.000135914 9.13033e-07
-3.71107e-07 9.13033e-07 -1.97844e-05
0.00098778 0.000150151 -3.31103e-07
0.000150151 0.000153069 -7.39906e-07
-3.31103e-07 -7.39906e-07 1.55041e-05
0.000941285 0.000100734 -4.36488e-06
0.000100734 0.000150352 -3.11545e-06
-4.36488e-06 -3.11545e-06 4.00507e-05
0.000909225 0.00010843 8.98315e-08
0.00010843 0.000131707 -3.79872e-07
8.98315e-08 -3.79872e-07 1.37428e-05
0.000738942 4.17673e-05 -2.99365e-07
4.17673e-05 5.32107e-05 1.09499e-07
-2.99365e-07 1.09499e-07 -4.28054e-05
0.000635505 -2.12791e-05 -5.32014e-06
-2.12791e-05 9.86549e-07 -6.72093e-06
-5.32014e-06 -6.72093e-06 -4.17107e-05
0.000649721 -3.74625e-05 6.601e-07
-3.74625e-05 2.38281e-06 3.26971e-06
6.601e-07 3.26971e-06 -7.66289e-05
0.000547768 -6.66183e-05 7.25556e-08
-6.66183e-05 -3.95132e-05 -2.62419e-07
7.25556e-08 -2.62419e-07 -7.70547e-05
0.00288259 -0.000114105 -6.30849e-05
-0.000114105 0.00129003 -2.02459e-06
-6.30849e-05 -2.02459e-06 0.00129029
0.000538836 -7.30648e-05 -3.00415e-07
-7.30648e-05 -4.90719e-05 5.58435e-06
-3.00415e-07 5.58435e-06 -8.12572e-05
0.00262975 -0.00010688 -1.40405e-06
-0.00010688 0.00114321 1.7996e-07
-1.40405e-06 1.7996e-07 0.00114557
0.00254284 -9.61922e-05 4.00093e-05
-9.61922e-05 0.00108761 2.93657e-06
4.00093e-05 2.93657e-06 0.00109237
0.00105485 5.06253e-05 1.20854e-05
5.06253e-05 -0.000290016 1.76983e-06
1.20854e-05 1.76983e-06 -0.000323369
0.00168565 -4.49004e-06 -3.98734e-06
-4.49004e-06 -4.37547e-05 2.72742e-06
-3.98734e-06 2.72742e-06 -6.95296e-05
0.00298703 -6.11605e-06 7.47754e-05
-6.11605e-06 -0.000190525 -4.9729e-06
7.47754e-05 -4.9729e-06 -0.000302689
0.00182977 0.000273532 -1.55893e-06
0.000273532 0.000243046 -4.32843e-06
-1.55893e-06 -4.32843e-06 9.46997e-05
0.000762452 0.000189225 -1.05006e-06
0.000189225 -0.000143094 -5.52985e-07
-1.05006e-06 -5.52985e-07 -0.000281151
0.00179086 0.000236409 -1.78401e-06
0.000236409 0.000202664 1.16494e-06
-1.78401e-06 1.16494e-06 5.5316e-05
0.00169623 0.000247298 9.86056e-07
0.000247298 0.000241469 4.69092e-07
9.86056e-07 4.69092e-07 8.29103e-05
0.000484913 0.000168077 -4.04077e-06
0.000168077 -0.000244872 1.35558e-06
-4.04077e-06 1.35558e-06 -0.000411488
0.00181274 0.000270131 -4.46994e-06
0.000270131 0.000120238 1.79865e-06
-4.46994e-06 1.79865e-06 -2.27886e-05
0.0016494 0.000251277 -4.50598e-07
0.000251277 0.000412908 3.59401e-07
-4.50598e-07 3.59401e-07 0.000261046
0.00216182 0.000336094 -2.60904e-07
0.000336094 0.00041695 -2.16539e-06
-2.60904e-07 -2.16539e-06 0.000254252
0.00181975 0.000183254 -4.83279e-06
0.000183254 6.1133e-05 1.91733e-06
-4.83279e-06 1.91733e-06 -4.063e-05
0.00216836 0.000360037 4.56358e-06
0.000360037 0.00040606 3.29212e-06
4.56358e-06 3.29212e-06 0.000243783
0.00205576 0.00032746 -1.04913e-06
0.00032746 0.00024081 4.32428e-07
-1.04913e-06 4.32428e-07 9.60774e-05
0.00113409 0.000155948 6.79216e-07
0.000155948 -0.000215067 1.23348e-06
6.79216e-07 1.23348e-06 -0.000281323
0.000979229 0.000257011 -4.1888e-06
0.000257011 -0.000235701 -3.64469e-06
-4.1888e-06 -3.64469e-06 -0.00035449
0.000991512 0.000179009 -2.74167e-05
0.000179009 -0.000157805 -7.81954e-06
-2.74167e-05 -7.81954e-06 -0.00017216
0.00169277 2.23971e-05 5.20985e-06
2.23971e-05 -6.51655e-05 4.38406e-07
5.20985e-06 4.38406e-07 -0.000124754
0.00197831 -1.23697e-05 -1.74809e-06
-1.23697e-05 0.000288129 3.97213e-07
-1.74809e-06 3.97213e-07 0.000256803
0.00134091 2.07075e-06 -4.66544e-05
2.07075e-06 -0.000218369 -3.44546e-06
-4.66544e-05 -3.44546e-06 -0.000298659
0.00154738 -0.000128657 -1.65096e-05
-0.000128657 -0.000201101 1.27425e-06
-1.65096e-05 1.27425e-06 -0.000181587
0.00146935 -6.03559e-05 -9.72229e-06
-6.03559e-05 -0.00015993 1.01952e-06
-9.72229e-06 1.01952e-06 -0.000206894
0.00195184 -0.000130147 -4.0263e-07
-0.000130147 4.70465e-05 -2.37505e-07
-4.0263e-07 -2.37505e-07 2.64647e-05
0.00192787 -2.84937e-05 -4.18279e-07
-2.84937e-05 4.98754e-05 2.85696e-07
-4.18279e-07 2.85696e-07 3.60089e-06
0.00190218 -5.35202e-05 -1.21087e-06
-5.35202e-05 6.0418e-05 -8.85019e-07
-1.21087e-06 -8.85019e-07 6.77944e-06
0.00173103 -0.000142612 -2.08881e-06
-0.000142612 -2.02966e-05 -4.69093e-07
-2.08881e-06 -4.69093e-07 -4.27657e-05
0.00188059 -0.000132374 8.42992e-07
-0.000132374 8.62512e-05 -1.14039e-07
8.42992e-07 -1.14039e-07 3.07692e-05
0.00184909 -0.000106835 5.5272e-07
-0.000106835 9.59224e-05 -2.13337e-07
5.5272e-07 -2.13337e-07 1.48068e-05
0.00169643 -0.000152404 -1.95654e-06
-0.000152404 4.15771e-05 -6.07883e-07
-1.95654e-06 -6.07883e-07 -3.18944e-05
0.00167233 -0.000137021 1.87036e-07
-0.000137021 5.29275e-05 -1.3551e-08
1.87036e-07 -1.3551e-08 -3.94371e-05
0.00170503 -0.000118382 1.47714e-06
-0.000118382 0.000102281 -2.31178e-07
1.47714e-06 -2.31178e-07 -1.33192e-05
0.00170873 -0.000155258 -2.36374e-06
-0.000155258 0.000109955 -1.96027e-07
-2.36374e-06 -1.96027e-07 8.20347e-06
0.00165408 -0.000141881 -7.66988e-08
-0.000141881 0.000112834 -6.06403e-08
-7.66988e-08 -6.06403e-08 -9.89175e-06
0.0015312 -0.00012211 -1.01842e-06
-0.00012211 0.00011319 4.02781e-07
-1.01842e-06 4.02781e-07 -2.22636e-05
0.00160727 -0.000157621 -1.28177e-06
-0.000157621 0.000117438 5.48789e-07
-1.28177e-06 5.48789e-07 -1.2363e-05
0.00148625 -0.000139617 -1.14931e-07
-0.000139617 0.000107789 -9.30168e-08
-1.14931e-07 -9.30168e-08 -3.10442e-05
0.00135047 -0.000127007 -5.5946e-06
-0.000127007 8.89992e-05 1.8208e-06
-5.5946e-06 1.8208e-06 -4.67139e-05
0.00143931 -0.000152831 2.3752e-06
-0.000152831 9.47192e-05 -1.78881e-07
2.3752e-06 -1.78881e-07 -4.78078e-05
0.00132375 -0.000142123 -7.56194e-08
-0.000142123 8.73271e-05 4.09519e-08
-7.56194e-08 4.09519e-08 -5.0048e-05
0.00106823 -0.00011664 -1.11817e-05
-0.00011664 2.4086e-05 4.51672e-06
-1.11817e-05 4.51672e-06 -9.05928e-05
0.00105484 -0.000147644 6.11098e-06
-0.000147644 -5.11616e-05 -1.79434e-06
6.11098e-06 -1.79434e-06 -0.000193986
0.00103021 -0.000129713 1.59864e-07
-0.000129713 1.71958e-05 -4.74634e-08
1.59864e-07 -4.74634e-08 -0.000101693
0.00224699 -5.67494e-05 -1.53703e-05
-5.67494e-05 0.000855692 7.0656e-06
-1.53703e-05 7.0656e-06 0.000788511
0.00133696 -1.70008e-05 -0.000127179
-1.70008e-05 0.000398975 1.26531e-05
-0.000127179 1.26531e-05 0.000379306
0.00148203 -9.32826e-05 -2.36362e-07
-9.32826e-05 0.000428652 -1.11948e-10
-2.36362e-07 -1.11948e-10 0.000355759
0.00094845 -0.000139277 9.15189e-06
-0.000139277 1.02246e-05 -3.982e-06
9.15189e-06 -3.982e-06 -0.000116755
0.00454021 0.000146703 1.07358e-05
0.000146703 0.0022475 1.05838e-06
1.07358e-05 1.05838e-06 0.00222994
0.000763851 -0.000124479 1.68767e-05
-0.000124479 3.13902e-05 -1.08457e-05
1.68767e-05 -1.08457e-05 -3.9331e-05
0.00415419 0.000108664 0.000119595
0.000108664 0.00201522 -6.14455e-06
0.000119595 -6.14455e-06 0.00200813
0.00188144 0.00019549 -3.75235e-08
0.00019549 0.0002389 4.33054e-07
-3.75235e-08 4.33054e-07 0.000102704
0.00141057 0.000201203 -8.28999e-07
0.000201203 8.63632e-05 1.47782e-06
-8.28999e-07 1.47782e-06 -6.47926e-05
0.00114005 0.00019736 -2.25497e-07
0.00019736 1.75461e-05 -1.61883e-08
-2.25497e-07 -1.61883e-08 -0.000149098
0.00108247 0.000173388 -5.2137e-06
0.000173388 5.92035e-05 -9.79929e-07
-5.2137e-06 -9.79929e-07 -9.90297e-05
0.000556623 0.000155052 1.01467e-06
0.000155052 -0.000189092 3.55652e-06
1.01467e-06 3.55652e-06 -0.000360524
0.0010634 0.000167143 -8.94324e-07
0.000167143 0.000135645 3.03371e-07
-8.94324e-07 3.03371e-07 -1.97633e-05
0.000979488 0.000129035 -5.85207e-06
0.000129035 0.000132285 -3.77378e-06
-5.85207e-06 -3.77378e-06 1.10312e-05
0.000858638 0.000139463 1.35301e-06
0.000139463 8.30306e-05 1.42861e-06
1.35301e-06 1.42861e-06 -5.27724e-05
0.000801278 8.95513e-05 -1.52095e-07
8.95513e-05 7.2684e-05 -1.62011e-07
-1.52095e-07 -1.62011e-07 -3.53062e-05
0.000738972 3.691e-05 -9.12931e-06
3.691e-05 4.80199e-05 -8.0689e-06
-9.12931e-06 -8.0689e-06 -4.6313e-06
0.00068929 2.4773e-05 1.28209e-06
2.4773e-05 2.42865e-05 2.34816e-06
1.28209e-06 2.34816e-06 -6.87348e-05
0.000554547 -3.3165e-05 -4.8611e-07
-3.3165e-05 -4.23191e-05 -2.9068e-07
-4.8611e-07 -2.9068e-07 -8.47015e-05
0.00320057 -0.000117556 -8.17656e-05
-0.000117556 0.00147443 -2.3695e-06
-8.17656e-05 -2.3695e-06 0.00147217
0.000499944 -7.59232e-05 -1.30188e-06
-7.59232e-05 -6.30463e-05 6.42005e-06
-1.30188e-06 6.42005e-06 -0.000102285
0.00280866 -0.000118594 -1.83985e-06
-0.000118594 0.00124949 2.14084e-07
-1.83985e-06 2.14084e-07 0.0012487
0.00260811 -0.000106927 4.4185e-05
-0.000106927 0.00113098 2.42213e-06
4.4185e-05 2.42213e-06 0.00113328
0.00183312 0.00010121 1.99245e-06
0.00010121 1.5398e-05 1.75211e-06
1.99245e-06 1.75211e-06 -5.78357e-05
0.00190451 4.4849e-05 5.95411e-06
4.4849e-05 0.000157884 -3.29055e-07
5.95411e-06 -3.29055e-07 0.000124343
0.00335418 -3.13906e-05 -4.82756e-05
-3.13906e-05 0.00069265 -1.07449e-05
-4.82756e-05 -1.07449e-05 0.00063721
0.00173131 0.000230364 -3.18882e-06
0.000230364 9.27681e-05 7.13827e-07
-3.18882e-06 7.13827e-07 -4.55808e-05
0.00164257 0.000259794 -2.9802e-06
0.000259794 0.000163562 -6.88422e-08
-2.9802e-06 -6.88422e-08 1.78154e-05
0.000845718 0.000204057 -1.35838e-05
0.000204057 -8.34066e-05 -8.62707e-07
-1.35838e-05 -8.62707e-07 -0.000212593
0.00183662 0.000231458 1.77901e-06
0.000231458 0.000226711 3.7702e-07
1.77901e-06 3.7702e-07 8.0691e-05
0.00188803 0.000258428 -6.92225e-07
0.000258428 0.000353498 -1.48488e-06
-6.92225e-07 -1.48488e-06 0.000192116
0.0021233 0.000182201 -2.6812e-06
0.000182201 0.000234187 1.63714e-06
-2.6812e-06 1.63714e-06 0.000134955
0.00171236 0.000268405 -1.33725e-06
0.000268405 6.67485e-05 7.12545e-07
-1.33725e-06 7.12545e-07 -7.77821e-05
0.00201135 0.000325732 2.89622e-06
0.000325732 0.00032932 1.94497e-07
2.89622e-06 1.94497e-07 0.000164496
0.00180975 0.000182834 -6.71465e-07
0.000182834 5.46089e-05 1.38053e-07
-6.71465e-07 1.38053e-07 -4.72141e-05
0.00205941 0.000328732 9.2743e-06
0.000328732 0.000231605 -3.35762e-07
9.2743e-06 -3.35762e-07 8.63159e-05
0.00165275 0.000174993 -2.09166e-05
0.000174993 6.52709e-05 -4.59851e-06
-2.09166e-05 -4.59851e-06 -1.90247e-06
0.00195809 2.57187e-05 -2.17952e-07
2.57187e-05 0.000103933 2.20535e-07
-2.17952e-07 2.20535e-07 4.69451e-05
0.00190788 2.89061e-05 -1.45204e-06
2.89061e-05 5.6597e-05 -2.08413e-07
-1.45204e-06 -2.08413e-07 -1.44709e-06
0.00267682 8.65859e-06 -2.9749e-05
8.65859e-06 0.000689244 -3.67432e-06
-2.9749e-05 -3.67432e-06 0.000656708
0.00195875 -0.000124928 -1.1239e-05
-0.000124928 5.34827e-05 -4.30157e-07
-1.1239e-05 -4.30157e-07 3.22332e-05
0.00194901 -2.99241e-05 -4.72429e-07
-2.99241e-05 5.138e-05 4.62829e-07
-4.72429e-07 4.62829e-07 6.43669e-06
0.00186993 -5.55038e-05 8.44001e-07
-5.55038e-05 3.08249e-05 -1.88212e-09
8.44001e-07 -1.88212e-09 -1.73999e-05
0.00188267 -3.85863e-05 -1.20223e-07
-3.85863e-05 0.000104848 -5.84764e-08
-1.20223e-07 -5.84764e-08 2.55369e-05
0.0019157 -0.000128348 7.83043e-07
-0.000128348 0.0001155 -2.70065e-07
7.83043e-07 -2.70065e-07 5.60501e-05
0.00185723 -0.000106673 -4.90291e-07
-0.000106673 0.000106227 -2.32344e-07
-4.90291e-07 -2.32344e-07 2.3958e-05
0.00178649 -8.65938e-05 2.2957e-06
-8.65938e-05 0.000113756 -1.21812e-06
2.2957e-06 -1.21812e-06 5.30982e-06
0.00167028 -0.000136931 -1.8723e-06
-0.000136931 5.73315e-05 -3.07478e-07
-1.8723e-06 -3.07478e-07 -3.69293e-05
0.00172184 -0.00011862 -9.52079e-08
-0.00011862 0.000112003 6.55071e-08
-9.52079e-08 6.55071e-08 -3.57281e-06
0.00158983 -9.86085e-05 -7.28562e-07
-9.86085e-05 0.000115659 4.66779e-08
-7.28562e-07 4.66779e-08 -1.55358e-05
0.00166087 -0.000140608 -1.31347e-06
-0.000140608 0.000118118 2.17242e-07
-1.31347e-06 2.17242e-07 -4.35473e-06
0.00152178 -0.000121561 -1.17406e-07
-0.000121561 0.000105531 1.2704e-07
-1.17406e-07 1.2704e-07 -2.97658e-05
0.00136002 -0.000107033 -5.09669e-06
-0.000107033 8.14739e-05 1.65414e-06
-5.09669e-06 1.65414e-06 -5.30754e-05
0.0015053 -0.000140306 1.38473e-06
-0.000140306 0.00011606 -4.39213e-07
1.38473e-06 -4.39213e-07 -2.26014e-05
0.00134574 -0.000125953 -7.34461e-08
-0.000125953 8.64814e-05 8.79841e-09
-7.34461e-08 8.79841e-09 -4.89842e-05
0.00108453 -0.00010306 -1.13252e-05
-0.00010306 2.19196e-05 4.15028e-06
-1.13252e-05 4.15028e-06 -9.20215e-05
0.00131821 -0.000141132 5.8641e-06
-0.000141132 8.48805e-05 -1.85744e-06
5.8641e-06 -1.85744e-06 -5.22863e-05
0.00106245 -0.000114849 2.05779e-07
-0.000114849 1.9959e-05 1.29394e-08
2.05779e-07 1.29394e-08 -9.44091e-05
0.00228656 -7.05562e-05 -2.2079e-05
-7.05562e-05 0.000862932 5.90265e-06
-2.2079e-05 5.90265e-06 0.000804171
0.00100976 -0.000127908 1.04631e-05
-0.000127908 5.70233e-06 -4.46222e-06
1.04631e-05 -4.46222e-06 -0.000113041
0.00241219 -0.000107343 3.13327e-05
-0.000107343 0.000938084 -3.00633e-06
3.13327e-05 -3.00633e-06 0.000878374
0.00162236 -5.81354e-05 -0.000141905
-5.81354e-05 0.000563331 1.60873e-05
-0.000141905 1.60873e-05 0.000543513
0.00312823 2.37987e-05 -0.000134087
2.37987e-05 0.00143259 4.94218e-06
-0.000134087 4.94218e-06 0.00141541
0.00251969 -0.000142523 8.36408e-05
-0.000142523 0.00100857 -1.06033e-05
8.36408e-05 -1.06033e-05 0.000949942
0.00473649 0.00010613 0.000134618
0.00010613 0.00235432 -9.91578e-06
0.000134618 -9.91578e-06 0.00233954
0.00185045 0.0001882 -2.12249e-06
0.0001882 0.000185905 -1.51106e-07
-2.12249e-06 -1.51106e-07 5.41357e-05
0.00178216 0.000189344 1.37976e-06
0.000189344 0.000264738 1.93946e-07
1.37976e-06 1.93946e-07 0.000125784
0.00175357 0.000193496 7.76726e-07
0.000193496 0.000169663 1.69884e-07
7.76726e-07 1.69884e-07 3.46762e-05
0.00118893 0.00017275 -5.93163e-06
0.00017275 4.16683e-05 -2.42227e-07
-5.93163e-06 -2.42227e-07 -0.000106856
0.00144888 0.000201898 5.90717e-08
0.000201898 0.000104314 3.81244e-07
5.90717e-08 3.81244e-07 -4.64242e-05
0.00135037 0.000211163 2.00427e-06
0.000211163 0.000135901 -1.79003e-07
2.00427e-06 -1.79003e-07 -3.21359e-05
0.00115832 0.000179424 -5.19091e-07
0.000179424 0.000101535 4.53278e-07
-5.19091e-07 4.53278e-07 -5.80252e-05
0.00094341 0.000138036 -7.95123e-06
0.000138036 5.13387e-05 -3.94937e-06
-7.95123e-06 -3.94937e-06 -7.63222e-05
0.00102874 0.000163512 2.13489e-06
0.000163512 0.000119336 2.91421e-06
2.13489e-06 2.91421e-06 -3.57096e-05
0.000861179 0.000119403 -4.0847e-07
0.000119403 6.6473e-05 -4.15139e-08
-4.0847e-07 -4.15139e-08 -5.3154e-05
0.000788978 8.86651e-05 -1.30989e-05
8.86651e-05 6.42412e-05 -9.5965e-06
-1.30989e-05 -9.5965e-06 -3.03147e-07
0.00065585 7.71524e-05 2.39239e-06
7.71524e-05 -7.57313e-06 2.17012e-06
2.39239e-06 2.17012e-06 -0.000113386
0.000591156 1.38703e-05 1.51229e-07
1.38703e-05 -2.99434e-05 -2.5898e-07
1.51229e-07 -2.5898e-07 -8.1475e-05
0.00363214 -0.000109131 -0.000104726
-0.000109131 0.00172634 -4.36939e-06
-0.000104726 -4.36939e-06 0.00172102
0.000470086 -5.73191e-05 1.7606e-07
-5.73191e-05 -8.28079e-05 7.11861e-06
1.7606e-07 7.11861e-06 -0.000127664
0.00312185 -0.00013203 -3.19631e-06
-0.00013203 0.00143215 3.34064e-07
-3.19631e-06 3.34064e-07 0.00142718
0.00275511 -0.000119477 4.95474e-05
-0.000119477 0.00121954 1.98686e-06
4.95474e-05 1.98686e-06 0.00121866
0.00185796 0.000101019 -1.04185e-06
0.000101019 5.28951e-05 1.42114e-06
-1.04185e-06 1.42114e-06 -2.29025e-05
0.00181348 0.000100278 6.66597e-07
0.000100278 1.33223e-05 -3.13143e-07
6.66597e-07 -3.13143e-07 -5.99728e-05
0.00245363 3.84525e-05 -4.1e-05
3.84525e-05 0.00046384 -6.88756e-06
-4.1e-05 -6.88756e-06 0.000432422
0.00192351 0.000162818 2.97906e-07
0.000162818 0.000150812 1.38854e-06
2.97906e-07 1.38854e-06 3.99211e-05
0.00170855 0.000223879 -6.02904e-07
0.000223879 8.79189e-05 -2.90735e-07
-6.02904e-07 -2.90735e-07 -4.90664e-05
0.00143386 0.000244557 -1.67213e-08
0.000244557 7.24636e-05 -6.91068e-07
-1.67213e-08 -6.91068e-07 -7.05725e-05
0.00189911 0.000227281 7.38651e-07
0.000227281 0.000260205 -9.24067e-07
7.38651e-07 -9.24067e-07 0.000115401
0.00193345 0.000173696 -1.98805e-07
0.000173696 0.000129731 -9.35904e-08
-1.98805e-07 -9.35904e-08 2.93943e-05
0.00160296 0.000266028 4.91773e-07
0.000266028 1.00009e-05 -9.19109e-07
4.91773e-07 -9.19109e-07 -0.000135967
0.00176776 0.000179967 5.99101e-06
0.000179967 4.72345e-05 -1.48178e-06
5.99101e-06 -1.48178e-06 -5.44685e-05
0.00190258 2.37855e-05 1.14024e-06
2.37855e-05 0.000110271 7.23694e-07
1.14024e-06 7.23694e-07 3.50448e-05
0.00187255 2.54854e-05 -3.83736e-07
2.54854e-05 5.85549e-05 -3.67704e-08
-3.83736e-07 -3.67704e-08 -8.64947e-07
0.00210254 3.56011e-05 -7.88529e-06
3.56011e-05 0.000167396 -1.33459e-06
-7.88529e-06 -1.33459e-06 0.000111612
0.00160923 -9.38268e-06 -9.74207e-07
-9.38268e-06 -2.38111e-05 2.60999e-07
-9.74207e-07 2.60999e-07 -0.000112589
0.00183232 -5.75462e-05 4.02882e-07
-5.75462e-05 -1.61032e-06 4.6452e-07
4.02882e-07 4.6452e-07 -4.4026e-05
0.00183872 -4.02451e-05 -6.69273e-07
-4.02451e-05 7.84492e-05 5.42136e-07
-6.69273e-07 5.42136e-07 -1.17844e-06
0.00194279 -4.49589e-05 6.66451e-07
-4.49589e-05 0.000189701 -6.69967e-07
6.66451e-07 -6.69967e-07 8.95382e-05
0.00187556 -0.00010687 -1.83231e-06
-0.00010687 0.000121767 2.1245e-07
-1.83231e-06 2.1245e-07 3.84293e-05
0.00179071 -8.68242e-05 9.94211e-07
-8.68242e-05 0.000115019 -5.25716e-07
9.94211e-07 -5.25716e-07 6.62457e-06
0.00163502 -6.88642e-05 -5.15855e-07
-6.88642e-05 0.000108153 -5.97843e-07
-5.15855e-07 -5.97843e-07 -1.79848e-05
0.00174616 -0.000118377 -9.1293e-07
-0.000118377 0.000125963 3.21061e-07
-9.1293e-07 3.21061e-07 1.04833e-05
0.00157268 -9.69925e-05 -1.23612e-07
-9.69925e-05 0.000104851 7.18223e-08
-1.23612e-07 7.18223e-08 -2.61584e-05
0.00138451 -8.34935e-05 -4.90489e-06
-8.34935e-05 7.94497e-05 1.24592e-06
-4.90489e-06 1.24592e-06 -5.35297e-05
0.00151106 -0.000120898 9.57432e-07
-0.000120898 9.72346e-05 -1.67187e-07
9.57432e-07 -1.67187e-07 -3.78942e-05
0.00136287 -0.000106321 -6.55671e-08
-0.000106321 8.20695e-05 1.24206e-07
-6.55671e-08 1.24206e-07 -5.22429e-05
0.0010999 -8.75471e-05 -1.11993e-05
-8.75471e-05 1.91572e-05 3.49024e-06
-1.11993e-05 3.49024e-06 -9.49198e-05
0.00134158 -0.00012486 5.40737e-06
-0.00012486 8.42559e-05 -1.78415e-06
5.40737e-06 -1.78415e-06 -5.09479e-05
0.00108756 -0.000100941 1.31582e-07
-0.000100941 2.24029e-05 1.21717e-07
1.31582e-07 1.21717e-07 -9.10375e-05
0.00234456 -8.79782e-05 -2.92123e-05
-8.79782e-05 0.000884958 5.23855e-06
-2.92123e-05 5.23855e-06 0.000829943
0.00105076 -0.000112881 1.1121e-05
-0.000112881 1.24877e-05 -4.52573e-06
1.1121e-05 -4.52573e-06 -0.000101541
0.00240229 -0.000108473 2.7863e-05
-0.000108473 0.000922858 -2.83711e-06
2.7863e-05 -2.83711e-06 0.000868376
0.00166119 -5.11456e-05 -0.000137463
-5.11456e-05 0.000584184 1.46172e-05
-0.000137463 1.46172e-05 0.000564716
0.00254624 -0.000133541 8.69404e-05
-0.000133541 0.00100842 -1.25531e-05
8.69404e-05 -1.25531e-05 0.000952596
0.00146749 1.29795e-05 -6.94506e-05
1.29795e-05 0.000489577 5.50476e-06
-6.94506e-05 5.50476e-06 0.000459199
0.00478081 0.000295632 -9.19328e-06
0.000295632 0.00242149 -5.2522e-06
-9.19328e-06 -5.2522e-06 0.00237042
0.00174299 0.000151318 4.41861e-07
0.000151318 0.000109208 7.56438e-07
4.41861e-07 7.56438e-07 -1.72842e-05
0.00169221 0.000163128 -1.12093e-06
0.000163128 0.000177457 -5.04637e-07
-1.12093e-06 -5.04637e-07 4.14066e-05
0.00177436 0.000186524 -2.39054e-06
0.000186524 0.000142902 5.54227e-09
-2.39054e-06 5.54227e-09 1.00857e-05
0.00177247 0.000180291 -3.77531e-06
0.000180291 0.000332256 -6.01351e-07
-3.77531e-06 -6.01351e-07 0.000195455
0.00153119 0.000181289 6.07506e-07
0.000181289 0.000122993 -3.13848e-07
6.07506e-07 -3.13848e-07 -1.52313e-05
0.001622 0.000191452 2.41304e-06
0.000191452 9.8385e-05 -6.96874e-07
2.41304e-06 -6.96874e-07 -3.53091e-05
0.000969199 0.000138496 -1.02687e-05
0.000138496 1.33148e-06 -3.50971e-06
-1.02687e-05 -3.50971e-06 -0.000123543
0.00124656 0.000177613 -9.19931e-08
0.000177613 7.28558e-05 3.59703e-07
-9.19931e-08 3.59703e-07 -7.66398e-05
0.00149921 0.000203469 3.66254e-06
0.000203469 0.000128502 -9.49423e-07
3.66254e-06 -9.49423e-07 -2.18992e-05
0.00124509 0.000186395 5.06554e-06
0.000186395 0.00014998 2.2369e-06
5.06554e-06 2.2369e-06 -1.10594e-05
0.000931333 0.000136003 -7.31864e-07
0.000136003 4.35665e-05 1.59193e-07
-7.31864e-07 1.59193e-07 -8.36092e-05
0.000736179 0.00014282 -1.88223e-05
0.00014282 2.04312e-05 -1.02892e-05
-1.88223e-05 -1.02892e-05 -5.36109e-05
0.000746204 0.000109651 4.31305e-06
0.000109651 2.68001e-06 3.55914e-06
4.31305e-06 3.55914e-06 -0.000115307
0.000632292 8.23231e-05 -2.94202e-07
8.23231e-05 -1.63541e-05 4.40413e-08
-2.94202e-07 4.40413e-08 -8.04119e-05
0.00423349 -9.73629e-05 -0.000124208
-9.73629e-05 0.00207842 -8.38064e-06
-0.000124208 -8.38064e-06 0.00206584
0.000480514 2.77888e-06 5.20121e-06
2.77888e-06 -8.97904e-05 7.78629e-06
5.20121e-06 7.78629e-06 -0.000139134
0.00353131 -0.000143314 -5.91501e-06
-0.000143314 0.00167299 4.92147e-07
-5.91501e-06 4.92147e-07 0.00166299
0.00303116 -0.000136041 5.75221e-05
-0.000136041 0.00138132 1.73846e-06
5.75221e-05 1.73846e-06 0.00137569
0.00175665 8.78958e-05 5.3403e-08
8.78958e-05 3.17448e-05 1.43531e-06
5.3403e-08 1.43531e-06 -5.89351e-05
0.00178672 0.000102253 -2.66811e-07
0.000102253 9.62827e-06 3.9609e-07
-2.66811e-07 3.9609e-07 -6.56167e-05
0.00185639 0.000102195 -1.61985e-06
0.000102195 3.42944e-05 -1.80895e-06
-1.61985e-06 -1.80895e-06 -3.94167e-05
0.00189908 0.000160545 7.27363e-07
0.000160545 0.000138516 -1.57169e-07
7.27363e-07 -1.57169e-07 2.88849e-05
0.0016746 0.000216792 -2.33755e-07
0.000216792 7.66871e-05 -1.34256e-06
-2.33755e-07 -1.34256e-06 -5.8862e-05
0.00175236 0.000165386 1.85419e-06
0.000165386 2.737e-05 -1.76689e-06
1.85419e-06 -1.76689e-06 -7.40533e-05
0.00186216 2.60746e-05 -3.85361e-07
2.60746e-05 0.000120382 5.298e-07
-3.85361e-07 5.298e-07 3.1539e-05
0.00188165 2.53218e-05 1.08497e-07
2.53218e-05 0.000100406 -3.2738e-07
1.08497e-07 -3.2738e-07 2.36999e-05
0.00175997 2.59158e-05 1.03826e-06
2.59158e-05 -6.88017e-07 -1.6715e-07
1.03826e-06 -1.6715e-07 -6.26082e-05
0.00173075 -1.54044e-05 -1.53122e-06
-1.54044e-05 4.45682e-05 1.74209e-08
-1.53122e-06 1.74209e-08 -4.30143e-05
0.00171131 -2.23286e-05 8.77467e-07
-2.23286e-05 7.10743e-05 -3.95215e-07
8.77467e-07 -3.95215e-07 -3.1308e-05
0.00180118 -4.18184e-05 -3.15726e-07
-4.18184e-05 5.64181e-05 5.41916e-07
-3.15726e-07 5.41916e-07 -2.35669e-05
0.00181528 -4.5147e-05 -5.72231e-07
-4.5147e-05 0.000118716 3.63812e-07
-5.72231e-07 3.63812e-07 1.5708e-05
0.00171037 -3.78843e-05 1.84905e-07
-3.78843e-05 0.000131826 -4.50889e-07
1.84905e-07 -4.50889e-07 1.30015e-05
0.0017846 -8.7497e-05 3.40296e-07
-8.7497e-05 0.000110748 1.18542e-07
3.40296e-07 1.18542e-07 2.32744e-06
0.00161235 -7.01157e-05 1.16488e-07
-7.01157e-05 9.69517e-05 -2.90721e-07
1.16488e-07 -2.90721e-07 -2.92161e-05
0.00140706 -5.27991e-05 -5.38573e-06
-5.27991e-05 7.29935e-05 8.46945e-07
-5.38573e-06 8.46945e-07 -5.76597e-05
0.00154857 -9.69129e-05 5.08969e-07
-9.69129e-05 9.00196e-05 5.71772e-08
5.08969e-07 5.71772e-08 -4.0947e-05
0.00137879 -8.24822e-05 1.98669e-08
-8.24822e-05 7.40965e-05 1.03459e-07
1.98669e-08 1.03459e-07 -5.87053e-05
0.00110728 -6.79526e-05 -1.12057e-05
-6.79526e-05 1.10304e-05 2.86921e-06
-1.12057e-05 2.86921e-06 -0.000102774
0.00136449 -0.000105507 4.92474e-06
-0.000105507 8.19737e-05 -1.39184e-06
4.92474e-06 -1.39184e-06 -5.20956e-05
0.00110081 -8.50579e-05 -1.32028e-09
-8.50579e-05 1.86411e-05 1.57998e-07
-1.32028e-09 1.57998e-07 -9.4926e-05
0.00235018 -9.90975e-05 -3.23397e-05
-9.90975e-05 0.000882541 4.62076e-06
-3.23397e-05 4.62076e-06 0.000826222
0.001086 -9.8763e-05 1.13736e-05
-9.8763e-05 2.02351e-05 -3.99488e-06
1.13736e-05 -3.99488e-06 -9.26838e-05
0.00240997 -0.000102619 2.67034e-05
-0.000102619 0.0009189 -2.27659e-06
2.67034e-05 -2.27659e-06 0.000866268
0.00170019 -4.49352e-05 -0.000137233
-4.49352e-05 0.000600678 1.26844e-05
-0.000137233 1.26844e-05 0.000581478
0.00251012 -0.000117412 8.57217e-05
-0.000117412 0.000979962 -1.11313e-05
8.57217e-05 -1.11313e-05 0.000928449
0.00146402 -4.67456e-06 -6.23076e-05
-4.67456e-06 0.000479847 5.44455e-06
-6.23076e-05 5.44455e-06 0.000454295
0.00138129 3.64586e-05 1.50424e-05
3.64586e-05 0.000443081 -4.15196e-06
1.50424e-05 -4.15196e-06 0.000409652
0.00186758 9.03317e-05 -4.47052e-08
9.03317e-05 0.000149728 1.76493e-06
-4.47052e-08 1.76493e-06 4.29988e-05
0.00159903 0.000130509 -1.89053e-06
0.000130509 0.000100663 2.08324e-07
-1.89053e-06 2.08324e-07 -3.30276e-05
0.00176825 0.000152689 -1.01053e-06
0.000152689 0.000118029 -1.25511e-07
-1.01053e-06 -1.25511e-07 -6.40974e-06
0.00163684 0.000147862 -4.47423e-06
0.000147862 0.000227997 -1.42878e-06
-4.47423e-06 -1.42878e-06 9.55699e-05
0.00169394 0.000161826 1.08807e-06
0.000161826 0.000182067 2.79314e-07
1.08807e-06 2.79314e-07 4.54565e-05
0.00169858 0.000184864 1.79893e-06
0.000184864 0.000100759 3.85949e-07
1.79893e-06 3.85949e-07 -3.31599e-05
0.00104528 0.00013006 -1.11555e-05
0.00013006 7.98616e-06 -3.77418e-06
-1.11555e-05 -3.77418e-06 -0.000110417
0.00142846 0.000166636 3.15679e-06
0.000166636 0.000138638 4.08073e-07
3.15679e-06 4.08073e-07 1.14021e-06
0.00128653 0.000173534 2.57222e-06
0.000173534 -1.5444e-05 -3.17514e-07
2.57222e-06 -3.17514e-07 -0.000152993
0.000640322 0.000148965 -2.02407e-05
0.000148965 -5.41757e-05 -9.37412e-06
-2.02407e-05 -9.37412e-06 -0.000128502
0.00100709 0.000140403 -7.33997e-07
0.000140403 2.23557e-05 3.21572e-07
-7.33997e-07 3.21572e-07 -0.000102693
0.00131533 0.000182948 6.54193e-06
0.000182948 0.000110162 1.1751e-06
6.54193e-06 1.1751e-06 -4.03172e-05
0.000927334 0.000134642 7.35128e-06
0.000134642 4.07473e-05 4.6033e-06
7.35128e-06 4.6033e-06 -8.61012e-05
0.000634401 0.000129111 6.88923e-07
0.000129111 -3.26371e-05 2.34181e-07
6.88923e-07 2.34181e-07 -0.000105879
0.00487928 -9.43959e-05 -0.000131747
-9.43959e-05 0.00245735 -1.32497e-05
-0.000131747 -1.32497e-05 0.00243257
0.000490831 7.00607e-05 9.51137e-06
7.00607e-05 -9.17157e-05 9.18388e-06
9.51137e-06 9.18388e-06 -0.000153597
0.00404632 -0.000145198 -9.55859e-06
-0.000145198 0.00197723 7.6419e-07
-9.55859e-06 7.6419e-07 0.00196094
0.00340533 -0.000155785 6.97837e-05
-0.000155785 0.00160232 1.7844e-06
6.97837e-05 1.7844e-06 0.0015903
0.00176252 6.56312e-05 -4.9937e-07
6.56312e-05 6.72765e-05 3.47838e-07
-4.9937e-07 3.47838e-07 -2.65511e-05
0.00176229 8.73172e-05 5.03763e-07
8.73172e-05 3.7318e-05 4.84029e-07
5.03763e-07 4.84029e-07 -5.2681e-05
0.00171682 0.000102697 2.60954e-06
0.000102697 -3.05783e-05 -8.62646e-07
2.60954e-06 -8.62646e-07 -0.0001052
0.00188066 0.000158304 5.19397e-07
0.000158304 0.000129534 -1.27418e-06
5.19397e-07 -1.27418e-06 2.12017e-05
0.00174014 -5.05422e-06 1.19717e-06
-5.05422e-06 8.47854e-05 9.22179e-08
1.19717e-06 9.22179e-08 -1.91203e-05
0.00187855 2.21924e-05 -3.76751e-08
2.21924e-05 0.000127028 -1.57574e-07
-3.76751e-08 -1.57574e-07 3.84951e-05
0.00185653 2.63221e-05 -4.20788e-07
2.63221e-05 8.79257e-05 -2.11991e-07
-4.20788e-07 -2.11991e-07 9.75858e-06
0.00185967 -1.87404e-05 -2.77942e-06
-1.87404e-05 0.000116979 -7.35495e-07
-2.77942e-06 -7.35495e-07 3.06197e-05
0.00170263 -1.53137e-05 -1.14958e-06
-1.53137e-05 6.58537e-05 -1.31428e-07
-1.14958e-06 -1.31428e-07 -3.54559e-05
0.00176128 -1.12493e-05 1.0873e-06
-1.12493e-05 0.000164161 -3.9298e-07
1.0873e-06 -3.9298e-07 4.86326e-05
0.00169101 -4.53865e-05 -1.54231e-06
-4.53865e-05 4.92087e-05 1.23734e-06
-1.54231e-06 1.23734e-06 -5.66376e-05
0.00167656 -3.7689e-05 4.0333e-07
-3.7689e-05 0.000115937 1.69009e-07
4.0333e-07 1.69009e-07 -4.87786e-06
0.00137751 -2.40473e-05 -4.3837e-06
-2.40473e-05 3.75449e-05 2.96821e-07
-4.3837e-06 2.96821e-07 -8.95513e-05
0.00159892 -6.98836e-05 7.04484e-07
-6.98836e-05 9.09611e-05 -6.55764e-09
7.04484e-07 -6.55764e-09 -3.50947e-05
0.0013936 -5.05805e-05 -3.57712e-07
-5.05805e-05 6.28831e-05 6.81966e-08
-3.57712e-07 6.81966e-08 -6.75189e-05
0.00111214 -4.38859e-05 -1.14053e-05
-4.38859e-05 2.30773e-06 2.3099e-06
-1.14053e-05 2.3099e-06 -0.000111307
0.00136704 -7.93786e-05 4.59158e-06
-7.93786e-05 6.54552e-05 -1.00381e-06
4.59158e-06 -1.00381e-06 -6.70048e-05
0.00110738 -6.69784e-05 6.19569e-09
-6.69784e-05 1.06915e-05 1.58635e-07
6.19569e-09 1.58635e-07 -0.000102901
0.000661786 -5.61782e-05 -1.68782e-05
-5.61782e-05 -8.76328e-05 4.15666e-06
-1.68782e-05 4.15666e-06 -0.00015218
0.00111008 -8.28786e-05 1.12435e-05
-8.28786e-05 2.25397e-05 -3.24837e-06
1.12435e-05 -3.24837e-06 -9.0498e-05
0.0015436 -6.81224e-05 3.4902e-05
-6.81224e-05 0.000418804 -2.00518e-06
3.4902e-05 -2.00518e-06 0.000362119
0.00505977 -0.000113717 -0.000169135
-0.000113717 0.00250972 9.64329e-06
-0.000169135 9.64329e-06 0.00250693
0.00249499 -9.66188e-05 8.56333e-05
-9.66188e-05 0.000961671 -9.21097e-06
8.56333e-05 -9.21097e-06 0.000912521
0.00148021 -2.39504e-05 -5.59371e-05
-2.39504e-05 0.000481597 4.38781e-06
-5.59371e-05 4.38781e-06 0.000457965
0.00129293 -1.57238e-05 2.57607e-05
-1.57238e-05 0.000386765 -3.89368e-06
2.57607e-05 -3.89368e-06 0.000357821
0.00188712 6.55337e-05 7.0124e-07
6.55337e-05 0.000168655 1.04545e-06
7.0124e-07 1.04545e-06 6.69337e-05
0.00169153 8.56808e-05 -5.7333e-07
8.56808e-05 0.000135667 1.20747e-06
-5.7333e-07 1.20747e-06 1.25175e-05
0.00188513 8.79631e-05 2.74927e-07
8.79631e-05 0.000164295 -2.55211e-10
2.74927e-07 -2.55211e-10 5.67642e-05
0.00126181 0.000108671 -5.58466e-06
0.000108671 -9.07733e-06 -9.63484e-07
-5.58466e-06 -9.63484e-07 -0.000141048
0.0016821 0.000131553 9.91625e-08
0.000131553 0.000147544 -1.54916e-08
9.91625e-08 -1.54916e-08 1.51199e-05
0.00179525 0.000154408 -6.99386e-07
0.000154408 0.00012738 -9.02259e-07
-6.99386e-07 -9.02259e-07 4.93779e-06
0.00065132 9.41662e-05 -1.32327e-05
9.41662e-05 -0.000236056 -4.04605e-06
-1.32327e-05 -4.04605e-06 -0.000351951
0.00167076 0.000151176 1.49274e-06
0.000151176 0.000247439 3.87991e-07
1.49274e-06 3.87991e-07 0.000114491
0.00169217 0.000160657 2.8538e-06
0.000160657 0.000184699 6.38873e-07
2.8538e-06 6.38873e-07 4.74879e-05
0.000591545 0.000119099 -1.80844e-05
0.000119099 -9.78576e-05 -7.8602e-06
-1.80844e-05 -7.8602e-06 -0.00016821
0.000822867 0.000120461 5.10061e-07
0.000120461 -0.000118225 -8.23203e-09
5.10061e-07 -8.23203e-09 -0.000237435
0.0010633 0.000151671 8.08811e-06
0.000151671 -6.67766e-05 1.37842e-06
8.08811e-06 1.37842e-06 -0.000204821
0.0051742 -5.08824e-05 -0.000138592
-5.08824e-05 0.00260789 -1.32385e-05
-0.000138592 -1.32385e-05 0.00258904
0.000600571 0.000137364 1.46324e-06
0.000137364 -7.46167e-05 5.20707e-07
1.46324e-06 5.20707e-07 -0.000149159
0.0010292 0.000141547 1.01679e-05
0.000141547 3.47511e-05 4.41069e-06
1.01679e-05 4.41069e-06 -9.04422e-05
0.000495957 0.000121576 1.52352e-05
0.000121576 -0.000107661 1.01471e-05
1.52352e-05 1.01471e-05 -0.000179224
0.0046082 -0.000105521 -3.94231e-06
-0.000105521 0.00229403 -1.32556e-07
-3.94231e-06 -1.32556e-07 0.00227728
0.00383168 -0.000173831 8.3823e-05
-0.000173831 0.0018588 3.01996e-06
8.3823e-05 3.01996e-06 0.00183924
0.00180128 4.09258e-05 -9.05805e-07
4.09258e-05 0.000112184 -3.10712e-07
-9.05805e-07 -3.10712e-07 8.78577e-06
0.00178422 6.48836e-05 -1.56852e-07
6.48836e-05 7.58044e-05 3.80046e-07
-1.56852e-07 3.80046e-07 -1.79438e-05
0.00176624 8.71282e-05 7.75056e-07
8.71282e-05 4.18185e-05 -6.31003e-07
7.75056e-07 -6.31003e-07 -4.75281e-05
0.00167953 4.8942e-06 1.24654e-06
4.8942e-06 0.000111422 -2.19982e-07
1.24654e-06 -2.19982e-07 -5.13034e-06
0.00172784 -2.32746e-06 3.60632e-08
-2.32746e-06 8.17185e-05 7.462e-08
3.60632e-08 7.462e-08 -2.11693e-05
0.00189432 1.63556e-05 -7.78262e-07
1.63556e-05 0.00013348 -1.11711e-07
-7.78262e-07 -1.11711e-07 4.52379e-05
0.00168402 -9.5667e-06 -1.98383e-06
-9.5667e-06 5.50134e-05 4.37994e-07
-1.98383e-06 4.37994e-07 -4.52298e-05
0.001747 -8.12942e-06 1.1089e-06
-8.12942e-06 0.000155382 -1.56519e-07
1.1089e-06 -1.56519e-07 3.99807e-05
0.00172264 -6.34753e-06 -2.42244e-06
-6.34753e-06 0.000225118 -8.37395e-08
-2.42244e-06 -8.37395e-08 0.000103773
0.00164249 -3.74576e-05 7.35916e-07
-3.74576e-05 9.99527e-05 6.60715e-07
7.35916e-07 6.60715e-07 -2.28573e-05
0.00156174 -2.34054e-05 -1.40215e-08
-2.34054e-05 0.000140747 6.81404e-08
-1.40215e-08 6.81404e-08 1.45238e-05
0.000785344 -1.8315e-05 -1.32018e-05
-1.8315e-05 -0.000190919 1.73249e-06
-1.32018e-05 1.73249e-06 -0.000307118
0.00138687 -5.05965e-05 4.24746e-06
-5.05965e-05 5.64121e-05 -6.91522e-07
4.24746e-06 -6.91522e-07 -7.39073e-05
0.00110833 -4.09873e-05 1.282e-08
-4.09873e-05 -1.74798e-07 1.09205e-07
1.282e-08 1.09205e-07 -0.000113507
0.000659296 -2.0257e-05 -1.65578e-05
-2.0257e-05 -9.62919e-05 2.83348e-06
-1.65578e-05 2.83348e-06 -0.000161547
0.00111065 -6.49812e-05 1.13549e-05
-6.49812e-05 1.20362e-05 -2.57909e-06
1.13549e-05 -2.57909e-06 -0.000101234
0.000668624 -4.19258e-05 -2.03476e-07
-4.19258e-05 -8.35298e-05 2.56183e-07
-2.03476e-07 2.56183e-07 -0.00014855
0.00512072 -9.90466e-06 -0.000157722
-9.90466e-06 0.00253643 5.92074e-06
-0.000157722 5.92074e-06 0.00253752
0.000698245 -5.6047e-05 1.59959e-05
-5.6047e-05 -6.32776e-05 -5.94229e-06
1.59959e-05 -5.94229e-06 -0.000128048
0.00324158 -5.75389e-05 7.57372e-05
-5.75389e-05 0.00147722 -1.386e-06
7.57372e-05 -1.386e-06 0.0014614
0.00122992 -4.39666e-05 3.12858e-05
-4.39666e-05 0.000349907 -4.04751e-06
3.12858e-05 -4.04751e-06 0.000319626
0.00180805 5.80513e-05 4.99929e-08
5.80513e-05 0.000141978 2.16433e-07
4.99929e-08 2.16433e-07 3.56558e-05
0.00158612 4.77288e-05 5.19013e-07
4.77288e-05 7.40314e-05 1.30002e-06
5.19013e-07 1.30002e-06 -4.49002e-05
0.0018642 6.29338e-05 -2.03842e-07
6.29338e-05 0.000156109 -1.91052e-07
-2.03842e-07 -1.91052e-07 5.46475e-05
0.001415 7.69627e-05 -4.3105e-06
7.69627e-05 6.60815e-05 -3.24411e-07
-4.3105e-06 -3.24411e-07 -6.1361e-05
0.00164694 8.3947e-05 4.64847e-07
8.3947e-05 0.000108728 1.18567e-07
4.64847e-07 1.18567e-07 -1.54792e-05
0.00190139 8.52725e-05 -5.24265e-07
8.52725e-05 0.000178188 -1.5929e-06
-5.24265e-07 -1.5929e-06 6.98786e-05
0.000671146 7.51474e-05 -1.31869e-05
7.51474e-05 -0.000241411 -3.18878e-06
-1.31869e-05 -3.18878e-06 -0.000355672
0.001521 0.000116886 -1.18152e-06
0.000116886 0.000138519 -1.82566e-07
-1.18152e-06 -1.82566e-07 7.77818e-06
0.00176501 0.000132436 2.11617e-06
0.000132436 0.000194504 -3.51821e-07
2.11617e-06 -3.51821e-07 6.33637e-05
0.000598826 8.51667e-05 -1.66243e-05
8.51667e-05 -0.000108999 -6.16052e-06
-1.66243e-05 -6.16052e-06 -0.000175245
0.000651324 9.49731e-05 -2.75582e-06
9.49731e-05 -0.000236208 -6.06386e-07
-2.75582e-06 -6.06386e-07 -0.000352689
0.00170695 0.000154635 7.78856e-06
0.000154635 0.000268163 1.85773e-06
7.78856e-06 1.85773e-06 0.00013468
0.00520894 3.49463e-05 -0.000156379
3.49463e-05 0.00259963 -1.1428e-05
-0.000156379 -1.1428e-05 0.00259505
0.000581044 0.00011076 8.24887e-07
0.00011076 -0.000103031 2.86644e-07
8.24887e-07 2.86644e-07 -0.0001741
0.00060238 0.000111184 1.12656e-05
0.000111184 -0.0002435 3.48444e-06
1.12656e-05 3.48444e-06 -0.00036355
0.00501525 -3.62859e-05 1.04066e-05
-3.62859e-05 0.00251447 -5.74769e-07
1.04066e-05 -5.74769e-07 0.0024995
0.000532183 0.000123277 1.68348e-05
0.000123277 -0.000109535 9.66839e-06
1.68348e-05 9.66839e-06 -0.000185101
0.00435852 -0.000168594 9.92618e-05
-0.000168594 0.00216553 6.45451e-06
9.92618e-05 6.45451e-06 0.00214147
0.00176886 2.98591e-05 -6.96561e-08
2.98591e-05 0.000154845 -2.5854e-07
-6.96561e-08 -2.5854e-07 4.04984e-05
0.00174805 3.91553e-05 -4.81838e-07
3.91553e-05 8.70865e-05 1.65342e-07
-4.81838e-07 1.65342e-07 -1.7143e-05
0.00180469 6.39462e-05 3.79837e-07
6.39462e-05 8.34642e-05 -5.9847e-08
3.79837e-07 -5.9847e-08 -1.0211e-05
0.00170034 -2.50742e-06 -2.32164e-06
-2.50742e-06 0.000215935 -1.53939e-07
-2.32164e-06 -1.53939e-07 9.65984e-05
0.00170965 3.83038e-06 6.00253e-07
3.83038e-06 0.000127831 2.58066e-08
6.00253e-07 2.58066e-08 1.2428e-05
0.00172732 2.31606e-06 7.41711e-07
2.31606e-06 8.48529e-05 -8.40857e-08
7.41711e-07 -8.40857e-08 -1.70167e-05
0.00173458 -5.7136e-06 7.25305e-07
-5.7136e-06 0.000147656 3.45129e-07
7.25305e-07 3.45129e-07 3.2365e-05
0.00172697 -6.004e-06 1.9385e-06
-6.004e-06 0.000227282 -2.15545e-07
1.9385e-06 -2.15545e-07 0.000105906
0.000794058 -6.50489e-06 -1.24242e-05
-6.50489e-06 -0.000189505 7.08349e-07
-1.24242e-05 7.08349e-07 -0.00030449
0.00174898 -2.29321e-05 5.32419e-06
-2.29321e-05 0.000245717 -3.82522e-07
5.32419e-06 -3.82522e-07 0.000120368
0.000952468 -1.71296e-05 -2.56801e-06
-1.71296e-05 -9.67592e-05 3.68485e-07
-2.56801e-06 3.68485e-07 -0.0002115
0.000675967 -6.53675e-06 -1.69524e-05
-6.53675e-06 -9.40839e-05 1.87962e-06
-1.69524e-05 1.87962e-06 -0.000159894
0.00110838 -3.93957e-05 1.11882e-05
-3.93957e-05 -4.88196e-07 -2.09725e-06
1.11882e-05 -2.09725e-06 -0.000113633
0.000659978 -2.12934e-05 4.55641e-07
-2.12934e-05 -9.69812e-05 1.96405e-09
4.55641e-07 1.96405e-09 -0.000161719
0.00517622 -7.88252e-05 -0.000164682
-7.88252e-05 0.00257057 4.93856e-06
-0.000164682 4.93856e-06 0.00256954
0.000660268 -2.74789e-05 1.55973e-05
-2.74789e-05 -8.9589e-05 -3.34209e-06
1.55973e-05 -3.34209e-06 -0.000153883
0.0051274 -2.71225e-05 1.13796e-05
-2.71225e-05 0.00254445 -1.69609e-07
1.13796e-05 -1.69609e-07 0.002543
0.0014991 -1.50019e-05 0.000142856
-1.50019e-05 0.000486143 -6.82671e-06
0.000142856 -6.82671e-06 0.000469309
0.00168068 3.82264e-05 7.02332e-07
3.82264e-05 0.000127722 2.92684e-07
7.02332e-07 2.92684e-07 1.10294e-05
0.00177057 6.15648e-05 -1.49921e-06
6.15648e-05 0.000115996 -1.91313e-07
-1.49921e-06 -1.91313e-07 1.09472e-05
0.00143396 4.18737e-05 -3.85859e-06
4.18737e-05 7.60347e-05 -5.10027e-08
-3.85859e-06 -5.10027e-08 -4.74019e-05
0.00158658 4.69413e-05 3.95458e-07
4.69413e-05 7.52715e-05 -8.75915e-10
3.95458e-07 -8.75915e-10 -4.37136e-05
0.0018394 6.04986e-05 -6.96259e-07
6.04986e-05 0.000142395 -1.72473e-06
-6.96259e-07 -1.72473e-06 4.11958e-05
0.0011195 6.23057e-05 -1.1257e-05
6.23057e-05 2.66863e-06 -2.04967e-06
-1.1257e-05 -2.04967e-06 -0.000107087
0.00139825 7.66058e-05 4.05766e-08
7.66058e-05 5.7261e-05 1.51421e-07
4.05766e-08 1.51421e-07 -7.03007e-05
0.00160142 8.22664e-05 7.62972e-07
8.22664e-05 8.13591e-05 -7.24285e-07
7.62972e-07 -7.24285e-07 -4.39119e-05
0.000619903 5.91219e-05 -1.62105e-05
5.91219e-05 -0.000111504 -4.54996e-06
-1.62105e-05 -4.54996e-06 -0.000175651
0.0008686 8.27351e-05 -3.23266e-06
8.27351e-05 -0.00012967 -4.76157e-07
-3.23266e-06 -4.76157e-07 -0.000243206
0.00178623 0.000125237 5.29362e-06
0.000125237 0.000289501 9.9166e-07
5.29362e-06 9.9166e-07 0.000159993
0.00520524 9.65983e-05 -0.00017472
9.65983e-05 0.00258741 -1.07875e-05
-0.00017472 -1.07875e-05 0.00258662
0.000600371 8.2156e-05 8.47673e-08
8.2156e-05 -0.000108127 1.20672e-07
8.47673e-08 1.20672e-07 -0.000174546
0.000648539 9.58338e-05 7.92366e-06
9.58338e-05 -0.000238049 2.72058e-06
7.92366e-06 2.72058e-06 -0.000355104
0.00512629 5.29159e-05 1.00601e-05
5.29159e-05 0.00255786 1.1567e-06
1.00601e-05 1.1567e-06 0.00255152
0.000572956 0.000101504 1.65037e-05
0.000101504 -0.000107358 7.7289e-06
1.65037e-05 7.7289e-06 -0.000178745
0.00486208 -4.60587e-05 0.000136283
-4.60587e-05 0.00241798 8.50185e-06
0.000136283 8.50185e-06 0.00241063
0.00171242 2.12669e-05 -2.30615e-06
2.12669e-05 0.000225718 -1.81501e-07
-2.30615e-06 -1.81501e-07 0.000107587
0.00173986 2.53661e-05 -1.57033e-07
2.53661e-05 0.000141076 9.29715e-08
-1.57033e-07 9.29715e-08 2.5997e-05
0.00169694 3.71842e-05 -5.72125e-07
3.71842e-05 6.37882e-05 1.96892e-07
-5.72125e-07 1.96892e-07 -4.12413e-05
0.000781837 -1.02759e-05 -1.29012e-05
-1.02759e-05 -0.000193545 -1.76738e-07
-1.29012e-05 -1.76738e-07 -0.000306715
0.00172173 3.85717e-06 2.07108e-06
3.85717e-06 0.000228 -5.72976e-08
2.07108e-06 -5.72976e-08 0.000108666
0.00173353 2.69525e-06 8.98502e-07
2.69525e-06 0.000140997 1.19744e-07
8.98502e-07 1.19744e-07 2.67524e-05
0.00173155 -5.97284e-06 6.17279e-06
-5.97284e-06 0.000229629 -7.37817e-08
6.17279e-06 -7.37817e-08 0.000108221
0.000782116 -6.43635e-06 -1.92708e-06
-6.43635e-06 -0.000196707 1.50261e-07
-1.92708e-06 1.50261e-07 -0.000311864
0.0006885 -1.54943e-05 -1.70846e-05
-1.54943e-05 -9.08129e-05 6.94126e-07
-1.70846e-05 6.94126e-07 -0.000156525
0.0011094 -1.51463e-05 8.95996e-06
-1.51463e-05 -8.31068e-06 -1.24031e-06
8.95996e-06 -1.24031e-06 -0.000121581
0.000662206 2.83482e-06 1.75175e-07
2.83482e-06 -0.000102265 9.25883e-08
1.75175e-07 9.25883e-08 -0.000167851
0.0052663 -6.57411e-05 -0.000173932
-6.57411e-05 0.00261932 3.19319e-06
-0.000173932 3.19319e-06 0.00261888
0.000662747 -1.4598e-05 1.63597e-05
-1.4598e-05 -9.53816e-05 -2.2897e-06
1.63597e-05 -2.2897e-06 -0.000160381
0.00521212 1.39709e-05 -1.44795e-07
1.39709e-05 0.00258558 7.21437e-07
-1.44795e-07 7.21437e-07 0.0025875
0.00515063 -5.1993e-05 0.000170265
-5.1993e-05 0.00255252 -4.94939e-06
0.000170265 -4.94939e-06 0.00255416
0.00144746 2.66757e-05 -3.901e-06
2.66757e-05 8.52346e-05 -2.98341e-07
-3.901e-06 -2.98341e-07 -3.64881e-05
0.00166225 4.09073e-05 3.09033e-08
4.09073e-05 0.000116432 -4.92767e-07
3.09033e-08 -4.92767e-07 1.2971e-06
0.00173416 6.52286e-05 -2.54959e-06
6.52286e-05 9.06589e-05 -2.18157e-07
-2.54959e-06 -2.18157e-07 -1.3123e-05
0.00111659 3.24947e-05 -1.11075e-05
3.24947e-05 -1.84099e-06 -1.53103e-06
-1.11075e-05 -1.53103e-06 -0.000110027
0.00140553 4.1953e-05 2.16803e-07
4.1953e-05 5.91879e-05 7.85332e-08
2.16803e-07 7.85332e-08 -6.45048e-05
0.0015867 4.6119e-05 5.16844e-09
4.6119e-05 7.64978e-05 -1.24956e-06
5.16844e-09 -1.24956e-06 -4.2539e-05
0.000649104 3.5282e-05 -1.5803e-05
3.5282e-05 -0.000103255 -3.48573e-06
-1.5803e-05 -3.48573e-06 -0.000166889
0.00111049 6.38885e-05 9.63389e-08
6.38885e-05 -1.97409e-06 1.84064e-07
9.63389e-08 1.84064e-07 -0.000112085
0.00138143 7.62443e-05 4.68331e-06
7.62443e-05 4.82396e-05 6.96811e-07
4.68331e-06 6.96811e-07 -7.94481e-05
0.0051916 0.000112246 -0.000186175
0.000112246 0.00257875 -9.48631e-06
-0.000186175 -9.48631e-06 0.00257756
0.000638233 5.99947e-05 1.7418e-07
5.99947e-05 -0.000100904 1.59818e-07
1.7418e-07 1.59818e-07 -0.000165252
0.00106036 9.02425e-05 8.1861e-06
9.02425e-05 -2.117e-05 2.32303e-06
8.1861e-06 2.32303e-06 -0.000133947
0.00515217 0.000109082 5.09462e-06
0.000109082 0.00256373 1.5827e-06
5.09462e-06 1.5827e-06 0.00256054
0.000606202 7.94867e-05 1.5739e-05
7.94867e-05 -0.000104749 6.22156e-06
1.5739e-05 6.22156e-06 -0.000171166
0.00507742 7.1217e-05 0.000162366
7.1217e-05 0.00252591 1.13499e-05
0.000162366 1.13499e-05 0.00252316
0.00114866 9.48583e-06 -1.17315e-05
9.48583e-06 1.41277e-05 -6.80994e-07
-1.17315e-05 -6.80994e-07 -9.49727e-05
0.0015369 1.6016e-05 2.32665e-06
1.6016e-05 0.000127057 8.82885e-08
2.32665e-06 8.82885e-08 7.51915e-06
0.00170924 1.98937e-05 1.62299e-08
1.98937e-05 0.000126018 1.77588e-07
1.62299e-08 1.77588e-07 1.01982e-05
0.000692623 2.31299e-05 -1.74499e-05
2.31299e-05 -9.35006e-05 -3.96273e-07
-1.74499e-05 -3.96273e-07 -0.000154185
0.000772086 -4.50495e-06 -2.1108e-06
-4.50495e-06 -0.000199944 2.88836e-08
-2.1108e-06 2.88836e-08 -0.000313285
0.00174389 1.02098e-05 6.50169e-06
1.02098e-05 0.000240459 6.85368e-08
6.50169e-06 6.85368e-08 0.00012112
0.000768966 -5.95531e-06 8.49815e-06
-5.95531e-06 -0.000204645 -3.51597e-07
8.49815e-06 -3.51597e-07 -0.000319961
0.000669569 -5.29424e-07 1.42778e-07
-5.29424e-07 -0.000101593 2.95561e-07
1.42778e-07 2.95561e-07 -0.00016706
0.00531672 5.52495e-05 -0.000182583
5.52495e-05 0.00264456 -8.92246e-07
-0.000182583 -8.92246e-07 0.00264564
0.000644746 1.18267e-05 1.6197e-05
1.18267e-05 -0.000112535 -1.17841e-06
1.6197e-05 -1.17841e-06 -0.000177837
0.00528342 -6.27571e-05 -7.61426e-06
-6.27571e-05 0.00262807 1.2148e-06
-7.61426e-06 1.2148e-06 0.00262772
0.0052293 5.73531e-05 0.000160567
5.73531e-05 0.00259812 -2.13465e-06
0.000160567 -2.13465e-06 0.00259757
0.00113062 1.65456e-05 -1.16247e-05
1.65456e-05 4.67886e-06 -1.32685e-06
-1.16247e-05 -1.32685e-06 -0.000103422
0.00137278 2.58777e-05 6.97343e-08
2.58777e-05 4.21678e-05 -4.96453e-08
6.97343e-08 -4.96453e-08 -7.92142e-05
0.00164635 4.34646e-05 -7.2459e-07
4.34646e-05 0.00010643 -9.66808e-07
-7.2459e-07 -9.66808e-07 -7.14886e-06
0.00254984 2.9186e-05 -9.23755e-05
2.9186e-05 0.000968653 -2.73698e-06
-9.23755e-05 -2.73698e-06 0.00092258
0.00112498 3.46989e-05 1.48596e-07
3.46989e-05 2.36546e-06 1.78945e-07
1.48596e-07 1.78945e-07 -0.000105998
0.00137529 4.18705e-05 4.34494e-06
4.18705e-05 4.13568e-05 2.53575e-07
4.34494e-06 2.53575e-07 -8.25971e-05
0.00517458 0.000110175 -0.000189186
0.000110175 0.00257208 -7.49289e-06
-0.000189186 -7.49289e-06 0.00256935
0.000678911 4.2901e-05 4.29742e-07
4.2901e-05 -8.54391e-05 2.11981e-07
4.29742e-07 2.11981e-07 -0.000149701
0.00111311 6.57381e-05 1.12542e-05
6.57381e-05 -3.31293e-07 2.4114e-06
1.12542e-05 2.4114e-06 -0.000110776
0.005191 0.000128056 3.17565e-07
0.000128056 0.00258296 1.42792e-06
3.17565e-07 1.42792e-06 0.0025798
0.000664187 5.98698e-05 1.61501e-05
5.98698e-05 -8.59183e-05 5.06143e-06
1.61501e-05 5.06143e-06 -0.000150395
0.00510695 0.000127546 0.000172989
0.000127546 0.00254167 1.24747e-05
0.000172989 1.24747e-05 0.00253731
0.000725878 7.77734e-06 -1.60893e-05
7.77734e-06 -6.74907e-05 -1.68578e-06
-1.60893e-05 -1.68578e-06 -0.000132349
0.00095815 7.13571e-06 6.07441e-07
7.13571e-06 -9.28772e-05 2.69866e-07
6.07441e-07 2.69866e-07 -0.000203391
0.0013554 1.05481e-05 6.02708e-06
1.05481e-05 2.5048e-05 2.71943e-07
6.02708e-06 2.71943e-07 -9.58673e-05
0.00525969 -8.99333e-05 -0.000167521
-8.99333e-05 0.00262647 -1.15265e-06
-0.000167521 -1.15265e-06 0.00261892
0.000672916 8.2216e-06 -2.84368e-07
8.2216e-06 -0.000100568 2.25464e-07
-2.84368e-07 2.25464e-07 -0.000163476
0.000768659 9.53903e-07 8.57929e-06
9.53903e-07 -0.000202857 1.42149e-07
8.57929e-06 1.42149e-07 -0.000316357
0.000647564 1.74722e-05 1.65649e-05
1.74722e-05 -0.000113815 1.32655e-07
1.65649e-05 1.32655e-07 -0.000179164
0.00530731 2.24437e-05 3.06231e-06
2.24437e-05 0.00264218 1.55447e-08
3.06231e-06 1.55447e-08 0.00264083
0.00531743 3.23929e-05 0.000171515
3.23929e-05 0.00264124 -4.10957e-07
0.000171515 -4.10957e-07 0.00264341
0.00259591 -5.4623e-07 -9.1817e-05
-5.4623e-07 0.000989725 -1.93724e-06
-9.1817e-05 -1.93724e-06 0.000943723
0.00114418 1.91129e-05 -1.17711e-08
1.91129e-05 1.1815e-05 5.41852e-08
-1.17711e-08 5.41852e-08 -9.63514e-05
0.00129702 2.52826e-05 4.07942e-06
2.52826e-05 -1.45432e-06 8.71567e-08
4.07942e-06 8.71567e-08 -0.000122496
0.00490673 -6.50452e-05 -3.15595e-05
-6.50452e-05 0.00243005 -4.56535e-07
-3.15595e-05 -4.56535e-07 0.00241543
0.000692755 3.22256e-05 -3.976e-08
3.22256e-05 -8.05101e-05 2.25888e-07
-3.976e-08 2.25888e-07 -0.000144907
0.00114546 3.74656e-05 1.12547e-05
3.74656e-05 1.30711e-05 1.93876e-06
1.12547e-05 1.93876e-06 -9.54386e-05
0.00520973 7.274e-05 -1.18469e-05
7.274e-05 0.00258717 -2.82299e-07
-1.18469e-05 -2.82299e-07 0.00258721
0.000710359 5.84592e-05 1.72528e-05
5.84592e-05 -6.62569e-05 4.25037e-06
1.72528e-05 4.25037e-06 -0.000131389
0.00517795 0.000146329 0.000181818
0.000146329 0.00258042 1.2221e-05
0.000181818 1.2221e-05 0.00257509
0.00166257 -3.4324e-05 -0.000155768
-3.4324e-05 0.000569051 3.9009e-07
-0.000155768 3.9009e-07 0.000551978
0.00164613 1.80168e-05 -3.75914e-05
1.80168e-05 0.000449993 2.69304e-07
-3.75914e-05 2.69304e-07 0.000397059
0.000774257 7.36197e-06 1.14201e-05
7.36197e-06 -0.000196181 1.00186e-06
1.14201e-05 1.00186e-06 -0.000308129
0.0052659 -3.65515e-05 8.61973e-06
-3.65515e-05 0.00262588 -1.55786e-07
8.61973e-06 -1.55786e-07 0.00262164
0.000668645 -5.69956e-06 1.71164e-05
-5.69956e-06 -0.000100037 9.18774e-07
1.71164e-05 9.18774e-07 -0.000164507
0.00531693 -4.91076e-05 0.000187905
-4.91076e-05 0.00264686 -3.52207e-07
0.000187905 -3.52207e-07 0.00264667
0.00133197 -2.05824e-05 -1.4557e-05
-2.05824e-05 0.000401149 -8.85461e-07
-1.4557e-05 -8.85461e-07 0.000367545
0.00163959 1.02325e-05 -3.76464e-05
1.02325e-05 0.000450627 -2.03686e-07
-3.76464e-05 -2.03686e-07 0.000395953
0.00114466 2.00586e-05 1.1386e-05
2.00586e-05 1.19377e-05 1.46014e-06
1.1386e-05 1.46014e-06 -9.63199e-05
0.00325941 3.4592e-05 6.85557e-05
3.4592e-05 0.00148492 1.20808e-06
6.85557e-05 1.20808e-06 0.00146962
0.000700775 4.07044e-05 1.73952e-05
4.07044e-05 -7.58826e-05 3.51818e-06
1.73952e-05 3.51818e-06 -0.000140529
0.00521765 8.33982e-05 0.000172347
8.33982e-05 0.00259125 8.25561e-06
0.000172347 8.25561e-06 0.00259179
0.00520695 -2.63952e-05 -8.93574e-06
-2.63952e-05 0.00259479 -4.87246e-07
-8.93574e-06 -4.87246e-07 0.0025901
0.000685224 3.03048e-05 1.7867e-05
3.03048e-05 -9.33987e-05 1.71039e-06
1.7867e-05 1.71039e-06 -0.000153895
0.00521981 5.88718e-05 0.000172423
5.88718e-05 0.00259767 -8.18408e-07
0.000172423 -8.18408e-07 0.00259545
0.00326467 2.95146e-05 8.42238e-05
2.95146e-05 0.00149121 1.65204e-06
8.42238e-05 1.65204e-06 0.00147461
0.000703834 7.05601e-06 1.70146e-05
7.05601e-06 -7.67847e-05 2.49516e-06
1.70146e-05 2.49516e-06 -0.000140513
0.00521005 -4.01208e-05 0.000164957
-4.01208e-05 0.00258787 4.30782e-06
0.000164957 4.30782e-06 0.00258738
0.00520262 -0.000135297 0.00016627
-0.000135297 0.00259951 -1.05961e-06
0.00016627 -1.05961e-06 0.00258973
0.00519171 -2.9802e-05 0.000163647
-2.9802e-05 0.00257437 2.00658e-06
0.000163647 2.00658e-06 0.00257642
