# vtk DataFile Version 2.0
Wound Healing Simulation
ASCII
DATASET UNSTRUCTURED_GRID
POINTS 3012 float
69.9759 18.75 4
67.2507 60.3285 4
69.976 18.75 2
73.0099 25.446 4
71.1327 20.9142 4
68.6801 16.6661 4
67.8252 19.9261 3.98192
67.2507 60.3286 2
71.1327 54.0858 4
68.6801 58.3339 4
65.6939 62.2254 4
65.3116 59.0008 3.98075
74.6784 42.3946 4
73.7221 47.2057 4
69.9759 18.75 0
73.0099 25.446 2
68.6801 16.6661 2
71.1327 20.9142 2
67.8258 19.9292 2
74.6792 32.6053 4
73.7222 27.7943 4
72.1454 23.1494 4
70.6138 26.2209 3.98131
68.8854 21.958 3.98226
67.2507 14.6715 4
66.6366 17.9722 3.98094
65.7955 21.0262 3.97187
67.2507 60.3285 0
71.1327 54.0858 2
68.6801 58.3339 2
65.694 62.2255 2
65.3128 58.9972 2
72.1454 51.8506 4
69.9759 56.25 4
68.836 53.1129 3.98127
64.0165 64.0165 4
66.6103 57.1335 3.98141
63.8851 60.7655 3.98204
63.4984 57.7689 3.97224
60.3285 67.2507 4
74.6792 42.3947 2
73.7222 47.2057 2
74.9194 39.9526 4
74.2788 44.8158 4
72.168 42.0854 3.98058
73.0099 49.554 4
71.249 46.5979 3.98042
73.0099 25.446 0
71.1327 20.9142 0
68.6801 16.6661 0
67.8252 19.9261 0.0180786
74.6792 32.6053 2
73.7222 27.7943 2
67.2508 14.6715 2
72.1455 23.1494 2
70.6138 26.2213 2
66.6375 17.976 2
68.8857 21.96 2
65.795 21.0269 2
74.9197 35.0474 4
74.2794 30.1841 4
72.1846 32.9432 3.98097
71.2779 28.4313 3.98079
69.8152 24.0595 3.98198
68.3454 26.9518 3.97051
66.761 22.9338 3.97125
65.694 12.7746 4
65.3229 16.1041 3.98057
64.7118 19.1968 3.97265
63.8829 22.0387 3.96789
71.1327 54.0858 0
65.6939 62.2254 0
68.6801 58.3339 0
65.3116 59.0008 0.0192502
72.1455 51.8506 2
69.9759 56.25 2
68.8362 53.111 2
64.0165 64.0165 2
66.6112 57.13 2
63.8867 60.7624 2
63.4979 57.7688 2
62.2254 65.694 4
58.8944 65.4141 3.99047
69.7686 50.9888 3.98111
67.7833 55.1671 3.98132
66.6478 52.2082 3.97022
62.3357 62.4273 3.98577
64.6592 56.03 3.97236
62.2005 59.4003 3.9719
61.818 56.675 3.96891
58.3339 68.6801 4
60.3285 67.2508 2
73.7221 47.2057 0
74.6784 42.3946 0
74.9197 39.9526 2
74.2794 44.8159 2
72.1675 42.0855 2
73.0099 49.554 2
71.2489 46.5978 2
75 37.5 4
72.4053 39.8021 3.98108
71.7823 44.3527 3.98065
69.8028 41.7891 3.97017
70.5748 48.8134 3.9807
68.9108 46.014 3.96984
74.6792 32.6053 0
73.7222 27.7943 0
67.2507 14.6715 0
72.1454 23.1494 0
70.6138 26.2209 0.0186854
68.8854 21.958 0.0177362
66.6366 17.9722 0.0190573
65.7955 21.0262 0.0281327
74.9197 35.0474 2
74.2794 30.1841 2
72.1842 32.9435 2
71.2778 28.4317 2
65.694 12.7745 2
65.3243 16.108 2
69.8153 24.0606 2
68.3453 26.9523 2
64.7112 19.1974 2
66.7606 22.9345 2
63.8823 22.039 2
72.4131 35.2241 3.98117
71.8037 30.6762 3.98104
69.8388 33.2684 3.97058
68.9647 29.0384 3.97037
67.6098 24.9125 3.97075
66.1909 27.6361 3.96761
64.0165 10.9835 4
64.7528 23.8325 3.96791
63.8895 14.3278 3.98325
63.5106 17.4509 3.97217
62.9021 20.3252 3.96773
62.0753 22.9519 3.96707
60.6836 11.0982 3.98692
57.6116 11.4512 3.97852
72.1454 51.8506 0
69.9759 56.25 0
68.836 53.1129 0.0187324
64.0165 64.0165 0
63.8851 60.7655 0.0179646
66.6103 57.1335 0.0185912
63.4984 57.7689 0.0277599
62.2255 65.694 2
58.8956 65.4135 2
69.7686 50.9879 2
67.7838 55.1642 2
66.6474 52.2075 2
62.3375 62.4252 2
64.6587 56.0296 2
62.2 59.4008 2
61.8175 56.6751 2
60.6684 63.9768 3.98812
57.0255 66.7347 3.9915
57.5574 63.6899 3.98129
67.5059 50.1758 3.96978
65.7002 54.1721 3.97101
64.5337 51.3821 3.96673
60.7719 60.9348 3.9766
62.8155 55.0633 3.96756
60.6526 58.1496 3.96598
60.3201 55.7747 3.96799
56.25 69.9759 4
58.3339 68.6801 2
60.3285 67.2507 0
58.9209 9.65649 3.98815
62.2254 9.30607 4
73.0099 49.554 0
74.2788 44.8158 0
71.249 46.5979 0.0195786
72.168 42.0854 0.0194222
74.9194 39.9526 0
75 37.5 2
72.4052 39.8023 2
71.7822 44.3525 2
69.8023 41.7888 2
70.5747 48.8132 2
68.9108 46.0135 2
72.4887 37.5119 3.9809
70.0401 39.6569 3.97031
69.429 43.9068 3.97008
67.593 41.4962 3.9681
68.2644 48.1062 3.9697
66.7037 45.4375 3.96741
74.9197 35.0474 0
74.2794 30.1841 0
72.1846 32.9432 0.019031
71.2779 28.4313 0.0192067
65.694 12.7746 0
65.3229 16.1041 0.0194341
69.8152 24.0595 0.0180194
68.3454 26.9518 0.0294872
66.761 22.9338 0.0287496
64.7118 19.1968 0.0273545
63.8829 22.0387 0.0321106
72.4131 35.2242 2
71.8037 30.6766 2
69.8384 33.2687 2
68.9647 29.0388 2
64.0165 10.9835 2
63.8914 14.3309 2
63.5101 17.4514 2
67.6096 24.9131 2
66.1909 27.6364 2
62.9014 20.3254 2
64.7523 23.8328 2
62.0745 22.9522 2
60.6856 11.1003 2
57.6123 11.45 2
70.0568 35.3918 3.97052
69.4658 31.1496 3.9704
67.6525 33.5913 3.96812
66.7683 29.624 3.96765
65.5203 25.7011 3.96775
64.1117 28.2631 3.9694
62.3414 12.6554 3.98565
62.8343 24.6457 3.96796
62.197 15.7893 3.97405
61.8064 18.6926 3.96694
61.2028 21.3515 3.96558
60.3804 23.7441 3.96856
59.2454 12.7829 3.97715
55.874 10.2363 3.98137
56.4038 13.1231 3.97494
69.7686 50.9888 0.018893
62.2254 65.694 0
58.8944 65.4141 0.00953243
67.7833 55.1671 0.0186788
66.6478 52.2082 0.0297847
62.3357 62.4273 0.0142296
62.2005 59.4003 0.028102
64.6592 56.03 0.0276389
61.818 56.675 0.0310936
60.67 63.9755 2
57.0263 66.7344 2
57.5576 63.6915 2
67.5056 50.1751 2
65.6997 54.1714 2
64.5332 51.3818 2
60.7719 60.936 2
62.815 55.0633 2
60.6522 58.1499 2
60.3197 55.7746 2
55.0713 67.9316 3.99201
59.2183 62.3633 3.97791
55.8045 64.9089 3.98491
56.3253 62.0845 3.97617
65.3271 49.4054 3.9668
63.7016 53.2886 3.96695
62.4118 50.6406 3.96694
59.3299 59.5503 3.97074
61.0684 54.2993 3.96668
59.2779 56.9957 3.96374
59.231 55.1682 3.96606
48.1024 68.5777 3.9876
50.949 69.9313 3.9922
54.0858 71.1327 4
56.25 69.976 2
58.3339 68.6801 0
57.0584 8.33627 3.98944
60.3285 7.74928 4
58.9228 9.65776 2
62.2255 9.30602 2
70.5748 48.8134 0.0193015
71.7823 44.3527 0.0193474
68.9108 46.014 0.0301588
69.8028 41.7891 0.0298271
72.4053 39.8021 0.0189158
75 37.5 0
72.4883 37.5121 2
70.04 39.6569 2
69.4289 43.9065 2
67.5928 41.496 2
68.2644 48.1057 2
66.7034 45.4373 2
70.1282 37.5213 3.97062
67.8318 39.5115 3.96828
67.2174 43.468 3.96773
65.5094 41.2047 3.97119
66.0631 47.4153 3.96713
64.6055 44.8395 3.96967
72.4131 35.2241 0.0188344
71.8037 30.6762 0.018963
69.8388 33.2684 0.0294163
68.9647 29.0384 0.0296285
64.0165 10.9835 0
63.8895 14.3278 0.0167539
63.5106 17.4509 0.0278325
67.6098 24.9125 0.0292534
66.1909 27.6361 0.0323872
64.7528 23.8325 0.0320927
62.9021 20.3252 0.0322713
62.0753 22.9519 0.0329276
60.6836 11.0982 0.0130786
57.6116 11.4512 0.0214768
70.0568 35.392 2
69.4658 31.1499 2
67.6523 33.5915 2
66.7684 29.6242 2
62.3433 12.6583 2
62.1968 15.789 2
61.8058 18.6927 2
65.5201 25.7015 2
64.111 28.2634 2
61.2021 21.3517 2
62.8338 24.6459 2
60.3803 23.7446 2
59.246 12.7826 2
56.4043 13.1217 2
55.8746 10.2351 2
67.868 35.5476 3.96828
67.2618 31.6232 3.96792
65.662 33.9299 3.97119
64.6244 30.1986 3.96993
63.5102 26.4223 3.96881
62.1839 28.7918 3.97302
60.7745 14.2273 3.97695
60.9913 25.3539 3.97033
60.6063 17.1378 3.96883
60.2064 19.8285 3.96444
59.6156 22.2769 3.96596
58.9081 24.3438 3.97098
54.0374 9.13803 3.98302
57.9082 14.3409 3.97585
54.7858 12.0191 3.97601
55.3093 14.6613 3.97377
67.5059 50.1758 0.0302241
57.0255 66.7347 0.00850046
60.6684 63.9768 0.0118849
57.5574 63.6899 0.0187066
65.7002 54.1721 0.0289853
64.5337 51.3821 0.0332741
60.7719 60.9348 0.023404
60.6526 58.1496 0.0340204
62.8155 55.0633 0.032441
60.3201 55.7747 0.032008
55.0719 67.9316 2
59.2184 62.3646 2
55.8044 64.9099 2
56.325 62.0862 2
65.3268 49.4051 2
63.701 53.2884 2
62.412 50.6405 2
59.3295 59.552 2
61.0682 54.2991 2
59.2776 56.9955 2
59.2309 55.1679 2
53.0432 68.9994 3.9921
53.9669 66.0121 3.98645
57.8782 60.8638 3.9754
54.6834 63.2043 3.98045
55.2087 60.6047 3.97549
63.1557 48.6497 3.96795
61.7227 52.5646 3.96659
60.2048 49.998 3.96881
58.0098 58.25 3.96802
59.3092 53.9311 3.96734
58.1039 55.7927 3.96453
50.1091 67.8559 3.98739
47.4631 66.5787 3.98432
46.056 69.1568 3.98774
48.1023 68.5784 2
48.8031 70.7225 3.99231
50.9494 69.9313 2
51.8506 72.1454 4
54.0858 71.1327 2
56.25 69.9759 0
55.1032 7.14068 3.99073
58.3339 6.31992 4
57.0599 8.3369 2
60.3286 7.74926 2
58.9209 9.65649 0.0118471
62.2254 9.30607 0
68.2644 48.1062 0.0303012
69.429 43.9068 0.0299244
66.7037 45.4375 0.0325899
67.593 41.4962 0.0318977
70.0401 39.6569 0.0296935
72.4887 37.5119 0.0191045
70.1279 37.5213 2
67.8317 39.5114 2
67.2179 43.4678 2
65.5086 41.2045 2
66.0631 47.4151 2
64.6045 44.8392 2
67.9285 37.5216 3.96846
65.7454 39.3672 3.97152
65.1302 43.0183 3.97051
63.6606 40.9209 3.97496
63.9195 46.7062 3.96881
62.7154 44.2013 3.97354
70.0568 35.3918 0.0294841
69.4658 31.1496 0.0296029
67.6525 33.5913 0.0318838
66.7683 29.624 0.032348
62.3414 12.6554 0.0143537
62.197 15.7893 0.0259464
61.8064 18.6926 0.0330552
65.5203 25.7011 0.0322472
64.1117 28.2631 0.0306023
62.8343 24.6457 0.0320429
61.2028 21.3515 0.0344207
60.3804 23.7441 0.0314446
59.2454 12.7829 0.02285
56.4038 13.1231 0.0250631
55.874 10.2363 0.0186276
67.868 35.5477 2
67.2619 31.6234 2
65.6614 33.93 2
64.6238 30.1988 2
60.7744 14.2273 2
60.6062 17.1369 2
60.206 19.8286 2
63.5097 26.4226 2
62.1827 28.7923 2
59.6176 22.2772 2
60.991 25.3544 2
58.9071 24.3447 2
57.9081 14.3401 2
55.3094 14.661 2
54.0378 9.13678 2
54.7863 12.0172 2
65.8358 35.6677 3.97125
65.1442 32.1591 3.97054
64.2121 34.2535 3.97524
62.499 30.6485 3.97374
61.5843 27.088 3.97141
60.7445 29.1588 3.97666
59.3075 15.6769 3.97355
59.2406 25.8206 3.97406
59.1099 18.3712 3.96652
58.71 20.8729 3.96348
58.2143 23.1181 3.96637
57.8794 24.6935 3.97284
52.1121 8.15525 3.98486
53.0577 11.0229 3.97868
56.6719 15.7557 3.97512
53.8073 13.6939 3.97552
54.3699 16.0172 3.9753
55.0713 67.9316 0.0079897
65.3271 49.4054 0.0332034
55.8045 64.9089 0.0150901
59.2183 62.3633 0.0220886
56.3253 62.0845 0.0238299
63.7016 53.2886 0.033046
62.4118 50.6406 0.0330596
59.3299 59.5503 0.0292623
59.2779 56.9957 0.0362557
61.0684 54.2993 0.0333244
59.231 55.1682 0.0339398
53.0437 68.9994 2
53.9669 66.0129 2
57.8777 60.8653 2
54.683 63.2053 2
55.2086 60.6064 2
63.1554 48.6495 2
61.7237 52.5646 2
60.2043 49.9975 2
58.0094 58.2514 2
59.3105 53.9308 2
58.1031 55.7921 2
52.0703 66.9989 3.98711
52.9534 64.2163 3.98288
56.6435 59.4789 3.97429
53.6795 61.6167 3.97739
54.2542 59.3065 3.97446
60.902 47.8592 3.96947
59.6578 52.0847 3.96784
57.9205 49.5868 3.97031
56.7615 56.9667 3.96736
57.083 54.0992 3.96548
50.109 67.8564 2
49.337 65.9192 3.98418
47.463 66.5793 2
46.8924 64.7323 3.98263
45.5581 67.0956 3.98444
43.973 69.589 3.98787
46.056 69.1574 2
46.6097 71.367 3.99231
48.1024 68.5777 0.0124027
48.8035 70.7227 2
49.554 73.0099 4
50.949 69.9313 0.00779883
51.8506 72.1455 2
54.0858 71.1327 0
53.0646 6.07207 3.99145
55.1043 7.14077 2
56.25 5.02411 4
58.3339 6.3199 2
57.0584 8.33627 0.0105586
60.3285 7.74928 0
66.0631 47.4153 0.0328689
67.2174 43.468 0.0322735
64.6055 44.8395 0.0303256
65.5094 41.2047 0.0288145
67.8318 39.5115 0.0317231
70.1282 37.5213 0.0293753
67.9282 37.5217 2
65.7444 39.3671 2
65.1295 43.018 2
63.6592 40.9207 2
63.9186 46.7058 2
62.7136 44.2008 2
65.8493 37.5007 3.97126
63.8057 39.2613 3.97471
63.2274 42.5378 3.97411
62.298 40.6859 3.97705
61.8759 45.9009 3.97148
61.3207 43.664 3.97717
67.868 35.5476 0.0317227
67.2618 31.6232 0.0320791
65.662 33.9299 0.0288112
64.6244 30.1986 0.030069
60.7745 14.2273 0.0230519
60.6063 17.1378 0.0311706
60.2064 19.8285 0.0355583
63.5102 26.4223 0.0311855
62.1839 28.7918 0.0269791
60.9913 25.3539 0.029666
59.6156 22.2769 0.034037
58.9081 24.3438 0.0290151
57.9082 14.3409 0.0241522
55.3093 14.6613 0.0262272
54.0374 9.13803 0.0169792
54.7858 12.0191 0.0239905
65.8349 35.6677 2
65.1439 32.1593 2
64.2114 34.2537 2
62.4978 30.6489 2
59.3068 15.6768 2
59.1102 18.3703 2
58.7121 20.8732 2
61.5836 27.0885 2
60.7438 29.1593 2
58.2136 23.119 2
59.2399 25.8213 2
57.8788 24.6945 2
56.6716 15.7549 2
54.3695 16.0173 2
53.8074 13.6908 2
52.1124 8.15428 2
53.0579 11.0214 2
64.0072 35.6336 3.97439
62.8281 33.0547 3.97487
60.4852 30.6299 3.9768
59.4583 27.9337 3.97503
57.9315 16.9966 3.97109
57.6353 25.7566 3.97548
57.6909 19.4968 3.96284
57.3097 21.8684 3.96288
57.0869 23.9801 3.96799
50.1125 7.28599 3.98686
51.2326 10.1289 3.98078
52.1705 12.8059 3.97705
55.5283 16.9894 3.97422
52.9735 15.2835 3.97312
53.7485 17.002 3.97872
53.0432 68.9994 0.00790058
53.9669 66.0121 0.0135549
63.1557 48.6497 0.0320539
54.6834 63.2043 0.019553
57.8782 60.8638 0.0246029
55.2087 60.6047 0.0245123
61.7227 52.5646 0.0334119
60.2048 49.998 0.0311919
58.0098 58.25 0.0319836
58.1039 55.7927 0.0354702
59.3092 53.9311 0.0326601
52.0703 66.9995 2
52.9531 64.2171 2
56.6432 59.4799 2
53.6792 61.6174 2
54.2541 59.3083 2
60.9009 47.8586 2
59.6581 52.0843 2
57.9174 49.5857 2
56.7603 56.9711 2
57.0817 54.0986 2
51.1681 65.1261 3.98422
52.0455 62.5345 3.97987
55.4714 58.2366 3.9748
52.8301 60.1237 3.97726
53.63 58.4566 3.97921
58.1646 46.8166 3.97387
57.4904 51.7594 3.96723
56.1138 49.5182 3.97069
55.4444 55.7667 3.96251
55.2996 53.3535 3.96327
50.1091 67.8559 0.0126116
49.3369 65.9197 2
48.6182 64.1192 3.98296
47.4631 66.5787 0.0156769
45.5581 67.0963 2
46.8924 64.7329 2
46.3821 63.0479 3.98215
45.1327 65.1932 3.98265
43.6313 67.4662 3.98452
41.8603 69.8763 3.98773
43.973 69.5896 2
44.3769 71.8618 3.99225
46.056 69.1568 0.0122621
46.61 71.3672 2
47.2057 73.7222 4
48.8031 70.7225 0.00769375
49.554 73.0099 2
51.8506 72.1454 0
50.9547 5.13232 3.99209
53.0654 6.07203 2
54.0858 3.86728 4
55.1032 7.14068 0.00927292
56.25 5.02406 2
58.3339 6.31992 0
63.9195 46.7062 0.0311863
65.1302 43.0183 0.0294887
62.7154 44.2013 0.0264638
63.6606 40.9209 0.025045
65.7454 39.3672 0.0284835
67.9285 37.5216 0.031538
65.8484 37.5007 2
63.8044 39.2612 2
63.2259 42.5374 2
62.2961 40.6854 2
61.8744 45.9003 2
61.319 43.6634 2
63.8671 37.455 3.97394
62.0183 39.3481 3.977
61.0661 41.9405 3.97685
60.1161 44.746 3.97594
65.8358 35.6677 0.0287496
65.1442 32.1591 0.0294611
64.2121 34.2535 0.0247644
62.499 30.6485 0.0262563
59.3075 15.6769 0.0264465
59.1099 18.3712 0.0334822
58.71 20.8729 0.0365189
61.5843 27.088 0.0285856
60.7445 29.1588 0.0233362
59.2406 25.8206 0.0259424
58.2143 23.1181 0.0336294
57.8794 24.6935 0.0271578
56.6719 15.7557 0.0248755
54.3699 16.0172 0.0246971
53.8073 13.6939 0.0244817
52.1121 8.15525 0.0151365
53.0577 11.0229 0.0213153
64.0061 35.6336 2
62.827 33.0551 2
60.4838 30.6304 2
57.9307 16.9965 2
57.6921 19.4954 2
57.3114 21.8689 2
59.4574 27.9344 2
57.0858 23.9814 2
57.6348 25.7577 2
50.1127 7.28474 2
55.528 16.9888 2
53.748 17.0017 2
52.9736 15.2828 2
52.171 12.8049 2
51.2328 10.1277 2
62.0563 35.3648 3.97651
60.1266 32.7615 3.97674
58.4619 30.104 3.97702
57.1501 27.4163 3.97644
56.621 18.1747 3.96995
56.1746 25.1408 3.97298
56.3184 20.5479 3.96114
56.0172 22.9059 3.96324
48.0567 6.528 3.98846
49.3248 9.3344 3.9824
50.4325 12.0012 3.97831
51.3739 14.5106 3.97389
54.3999 17.9415 3.97525
52.3518 17.0634 3.97101
52.0703 66.9989 0.0128895
52.9534 64.2163 0.0171174
60.902 47.8592 0.0305271
53.6795 61.6167 0.022614
56.6435 59.4789 0.0257057
54.2542 59.3065 0.0255409
59.6578 52.0847 0.0321639
57.9205 49.5868 0.0296899
56.7615 56.9667 0.0326398
57.083 54.0992 0.0345208
51.1679 65.1266 2
52.0452 62.5351 2
55.4709 58.2377 2
52.8301 60.1269 2
53.6296 58.4577 2
58.1631 46.8157 2
57.489 51.7587 2
56.1102 49.5171 2
55.4444 55.767 2
55.3018 53.354 2
50.3462 63.378 3.98258
51.2419 60.9282 3.97707
54.2023 57.2529 3.97484
52.3038 58.6163 3.97536
56.4965 44.1406 3.97771
55.3187 47.8533 3.97235
54.9741 51.3555 3.96625
53.9595 54.5137 3.96462
49.337 65.9192 0.015815
48.6182 64.1197 2
47.962 62.4695 3.98167
45.5581 67.0956 0.0155578
46.8924 64.7323 0.0173742
43.6313 67.4668 2
46.3823 63.0484 2
45.1327 65.1938 2
45.9876 61.5789 3.98282
44.7674 63.4479 3.98126
43.3568 65.5024 3.98241
41.6635 67.6849 3.98438
39.7022 70.0232 3.98794
41.8603 69.8768 2
42.1112 72.2067 3.99223
43.973 69.589 0.0121328
44.3772 71.8621 2
44.8159 74.2794 4
46.6097 71.367 0.0076919
47.2057 73.7222 2
49.554 73.0099 0
48.7853 4.32294 3.99262
50.9552 5.1319 2
51.8506 2.85458 4
53.0646 6.07207 0.00855127
54.0858 3.86728 2
56.25 5.02411 0
61.8759 45.9009 0.0285206
63.2274 42.5378 0.0258897
61.3207 43.664 0.0228309
62.298 40.6859 0.0229459
63.8057 39.2613 0.0252926
65.8493 37.5007 0.0287402
63.8658 37.4549 2
62.0164 39.3481 2
61.0644 41.9398 2
60.1148 44.7453 2
61.8578 37.4441 3.97756
60.0598 39.8298 3.9773
58.7928 42.8872 3.97738
64.0072 35.6336 0.025608
62.8281 33.0547 0.025133
60.4852 30.6299 0.0231986
57.9315 16.9966 0.028911
57.6909 19.4968 0.0371594
57.3097 21.8684 0.0371242
59.4583 27.9337 0.0249703
57.6353 25.7566 0.0245243
57.0869 23.9801 0.0320089
55.5283 16.9894 0.0257819
53.7485 17.002 0.0212758
52.9735 15.2835 0.0268811
50.1125 7.28599 0.0131443
52.1705 12.8059 0.0229496
51.2326 10.1289 0.019225
62.0549 35.3651 2
60.1243 32.7619 2
58.4612 30.1048 2
56.6201 18.1745 2
56.3208 20.5449 2
56.0189 22.9069 2
57.1509 27.4172 2
56.1753 25.1421 2
48.0567 6.52686 2
49.3251 9.33297 2
54.3997 17.9413 2
52.3512 17.0633 2
51.3736 14.5082 2
50.4328 12.0001 2
59.7055 35.1313 3.97724
57.775 32.3008 3.97706
56.367 29.3799 3.97741
55.2754 26.6478 3.9769
55.3165 19.2113 3.96821
54.8123 24.1033 3.96403
54.9402 21.5969 3.95943
45.9628 5.88272 3.98902
43.3743 7.47388 3.98601
47.3556 8.6258 3.98437
48.5999 11.2994 3.97962
49.7107 13.753 3.97778
50.6268 16.1547 3.97698
53.1047 18.6877 3.97064
51.2861 18.0806 3.9793
51.1681 65.1261 0.0157757
52.0455 62.5345 0.0201257
58.1646 46.8166 0.0261289
52.8301 60.1237 0.0227424
55.4714 58.2366 0.0251974
53.63 58.4566 0.0207877
57.4904 51.7594 0.0327652
56.1138 49.5182 0.0293107
55.4444 55.7667 0.0374853
55.2996 53.3535 0.0367274
50.346 63.3781 2
51.2416 60.9285 2
54.2021 57.2542 2
52.3034 58.6172 2
56.4956 44.1396 2
55.318 47.8523 2
54.9751 51.3552 2
53.9601 54.5148 2
49.5916 61.7403 3.98131
55.3297 41.6724 3.97615
50.5605 59.3171 3.97453
52.1614 56.4704 3.96852
53.9417 45.5088 3.97501
53.1776 49.285 3.97011
52.5926 52.8188 3.96308
48.6182 64.1192 0.0170414
47.9621 62.4698 2
47.3281 61.0021 3.9836
43.6313 67.4662 0.0154771
45.1327 65.1932 0.0173516
46.3821 63.0479 0.0178475
41.6636 67.6851 2
43.3568 65.5032 2
45.9878 61.5796 2
44.7675 63.4487 2
45.765 60.6224 3.98151
44.4838 61.827 3.98117
43.1467 63.7198 3.98074
41.5464 65.6401 3.98172
39.6328 67.7643 3.98406
37.526 70.048 3.98756
39.7022 70.0238 2
39.8179 72.4037 3.99206
41.8603 69.8763 0.0122704
42.1115 72.207 2
42.3947 74.6792 4
44.3769 71.8618 0.00774754
44.8159 74.2794 2
47.2057 73.7222 0
43.852 5.35956 3.98904
46.5712 3.64735 3.99279
48.7856 4.32248 2
49.554 1.99015 4
50.9547 5.13232 0.00791084
51.8506 2.85453 2
54.0858 3.86728 0
60.1161 44.746 0.0240552
61.0661 41.9405 0.0231533
62.0183 39.3481 0.022996
63.8671 37.455 0.0260619
61.8562 37.4443 2
60.0587 39.8296 2
58.7916 42.8864 2
59.5619 37.5647 3.9776
57.7496 40.6312 3.97759
54.7651 39.6855 3.97616
62.0563 35.3648 0.0234883
60.1266 32.7615 0.0232561
58.4619 30.104 0.022984
56.621 18.1747 0.0300507
56.3184 20.5479 0.0388638
56.0172 22.9059 0.036756
57.1501 27.4163 0.0235637
56.1746 25.1408 0.0270223
54.3999 17.9415 0.0247508
52.3518 17.0634 0.0289899
51.3739 14.5106 0.0261084
48.0567 6.528 0.0115442
49.3248 9.3344 0.0176043
50.4325 12.0012 0.0216926
59.7044 35.1314 2
45.9626 5.88213 2
43.3741 7.4733 2
57.7742 32.3018 2
56.3665 29.3807 2
55.316 19.2118 2
54.9444 21.5962 2
54.8111 24.1051 2
55.2711 26.6496 2
47.3557 8.62386 2
48.6003 11.2979 2
53.1049 18.6872 2
51.2861 18.0819 2
50.6267 16.1545 2
49.7105 13.752 2
57.1387 34.7744 3.97733
55.4993 31.5574 3.97741
54.2905 28.4651 3.97782
53.6299 25.5557 3.97473
53.9327 20.1669 3.96841
53.4955 22.7577 3.95634
41.3994 7.0795 3.98639
45.3604 7.99541 3.98645
42.8663 9.41712 3.98304
46.667 10.6571 3.98157
47.7433 13.11 3.97969
48.9265 15.4152 3.97528
49.9934 17.7211 3.97566
51.6232 19.358 3.97812
50.3462 63.378 0.0174214
51.2419 60.9282 0.0229335
56.4965 44.1406 0.0222915
55.3187 47.8533 0.0276545
52.3038 58.6163 0.024643
54.2023 57.2529 0.0251552
54.9741 51.3555 0.0337452
53.9595 54.5137 0.0353829
49.5912 61.74 2
55.3292 41.672 2
50.5603 59.3184 2
52.1613 56.4714 2
53.9464 45.5083 2
53.1816 49.2852 2
52.5936 52.8179 2
48.8456 60.1967 3.97904
52.1899 42.5827 3.98159
49.7751 57.609 3.97354
50.5425 54.4032 3.96615
51.5962 47.2174 3.9763
51.097 50.9087 3.95948
47.843 43.7223 3.98948
47.962 62.4695 0.0183268
47.3284 61.0025 2
46.6159 59.7876 3.98319
41.6635 67.6849 0.0156223
43.3568 65.5024 0.0175863
44.7674 63.4479 0.0187406
45.9876 61.5789 0.0171803
39.633 67.765 2
41.5462 65.6399 2
45.7651 60.6233 2
43.1468 63.7206 2
44.484 61.8278 2
44.6219 60.2836 3.98261
42.9508 62.0744 3.97928
41.6002 63.8131 3.98092
39.6477 65.6074 3.98079
37.5635 67.7459 3.98346
31.697 65.1263 3.98163
33.3925 67.4837 3.98314
35.3337 69.958 3.98764
37.526 70.0488 2
37.5095 72.4582 3.99197
39.7022 70.0232 0.0120639
39.8181 72.4041 2
39.9526 74.9197 4
42.1112 72.2067 0.00777172
42.3947 74.6792 2
44.8159 74.2794 0
41.7365 4.96879 3.98925
43.852 5.35892 2
44.3265 3.11045 3.99313
46.5714 3.64704 2
47.2057 1.27793 4
48.7853 4.32294 0.0073809
49.554 1.99013 2
51.8506 2.85458 0
58.7928 42.8872 0.022616
60.0598 39.8298 0.0227022
61.8578 37.4441 0.0224396
59.5611 37.565 2
57.75 40.6313 2
54.7658 39.6846 2
56.5371 37.8844 3.97743
49.2229 41.2923 3.98931
52.7862 39.3029 3.98353
39.4428 6.8034 3.9862
59.7055 35.1313 0.0227624
57.775 32.3008 0.0229373
56.367 29.3799 0.0225917
55.3165 19.2113 0.0317946
54.9402 21.5969 0.040569
54.8123 24.1033 0.0359741
55.2754 26.6478 0.0230964
53.1047 18.6877 0.0293557
51.2861 18.0806 0.0207011
50.6268 16.1547 0.0230179
45.9628 5.88272 0.0109843
49.7107 13.753 0.0222236
47.3556 8.6258 0.0156313
48.5999 11.2994 0.0203768
43.3743 7.47388 0.0139878
57.1372 34.7739 2
41.3994 7.07865 2
45.3601 7.99486 2
42.8661 9.41673 2
55.502 31.5572 2
54.2894 28.4664 2
53.933 20.1683 2
53.4948 22.7561 2
53.627 25.5574 2
46.6672 10.6541 2
47.7435 13.1079 2
51.6237 19.3586 2
49.9926 17.7196 2
48.9259 15.4148 2
54.5612 33.9737 3.9762
53.2425 30.5531 3.97759
52.3879 27.2727 3.97555
52.0326 24.1615 3.97713
52.3392 21.0948 3.97591
41.0139 9.05052 3.98306
44.7253 9.99572 3.98437
42.4686 10.904 3.9852
46.004 12.7358 3.97796
47.6769 14.5946 3.97418
48.1007 17.0002 3.97427
49.8006 19.6909 3.97586
49.5916 61.7403 0.0186941
50.5605 59.3171 0.0254739
55.3297 41.6724 0.0238542
53.9417 45.5088 0.0249928
53.1776 49.285 0.0298902
52.1614 56.4704 0.0314826
52.5926 52.8188 0.0369166
48.8454 60.1953 2
52.1999 42.5854 2
49.7748 57.6099 2
50.5426 54.4045 2
51.5998 47.2188 2
51.0983 50.907 2
47.8525 43.7435 2
47.9787 58.7307 3.9791
49.796 45.2219 3.98026
48.5678 55.9011 3.97635
49.0517 52.5647 3.97401
49.5128 49.0033 3.97102
45.6244 39.8497 3.88346
46.0777 42.5981 3.91785
46.2346 45.7624 3.98702
43.4407 41.109 3.79251
41.8513 41.9904 3.65051
47.3281 61.0021 0.0164022
46.6158 59.7884 2
45.4633 58.7835 3.98185
39.6328 67.7643 0.015944
41.5464 65.6401 0.0182756
43.1467 63.7198 0.0192635
44.4838 61.827 0.0188309
45.765 60.6224 0.0184896
41.6002 63.8132 2
37.5637 67.7467 2
39.6477 65.608 2
44.622 60.2843 2
42.9511 62.0751 2
41.7538 62.4857 3.98003
42.4797 59.9718 3.98204
39.8939 63.5463 3.9793
37.6423 65.5056 3.98125
35.4637 67.6551 3.98332
33.5755 65.3385 3.98072
31.959 63.2959 3.98137
29.8831 64.7183 3.9828
31.6971 65.1271 2
31.377 67.194 3.98373
33.3925 67.4844 2
33.1569 69.7518 3.98746
35.3337 69.9589 2
35.1949 72.3725 3.9919
37.526 70.048 0.0124369
37.5096 72.4587 2
37.5 75 4
39.8179 72.4037 0.00794115
39.9526 74.9197 2
42.3947 74.6792 0
39.6242 4.71622 3.98953
41.7366 4.96803 2
42.0628 2.71798 3.99329
43.852 5.35956 0.0109632
44.3266 3.11003 2
44.8158 0.721173 4
46.5712 3.64735 0.00721257
47.2057 1.27779 2
49.554 1.99015 0
57.7496 40.6312 0.0224107
59.5619 37.5647 0.0224005
54.7651 39.6855 0.0238418
49.2422 41.2994 2
56.5361 37.8844 2
52.787 39.2951 2
53.6298 36.6299 3.97724
47.1478 40.3688 3.92596
50.1624 38.5147 3.99237
37.5168 6.67476 3.9862
39.4429 6.80232 2
39.2113 8.69393 3.98376
35.9426 8.4945 3.98382
57.1387 34.7744 0.0226654
55.4993 31.5574 0.0225891
54.2905 28.4651 0.0221774
53.9327 20.1669 0.0315934
53.4955 22.7577 0.0436621
53.6299 25.5557 0.0252654
51.6232 19.358 0.0218813
49.9934 17.7211 0.0243366
48.9265 15.4152 0.0247185
45.3604 7.99541 0.0135505
47.7433 13.11 0.02031
46.667 10.6571 0.0184284
41.3994 7.0795 0.0136097
42.8663 9.41712 0.0169552
54.557 33.9758 2
41.0139 9.04993 2
44.7247 9.99543 2
42.4683 10.904 2
53.2399 30.5522 2
52.3936 27.2746 2
52.3407 21.0953 2
52.033 24.1635 2
46.0041 12.7312 2
47.6765 14.5922 2
49.8012 19.6913 2
48.0994 16.9984 2
52.1148 32.8877 3.97998
51.0505 29.2342 3.97514
50.6229 25.8015 3.9729
49.8908 22.2761 3.98235
40.5695 11.6102 3.98065
43.8582 11.9169 3.98016
45.7963 15.4311 3.98148
47.4914 19.3045 3.97733
45.9914 37.4826 3.8859
48.8456 60.1967 0.0209647
49.7751 57.609 0.0264565
52.1899 42.5827 0.018407
51.5962 47.2174 0.0236968
51.097 50.9087 0.0405163
50.5425 54.4032 0.0338543
47.843 43.7223 0.0105176
47.9781 58.7315 2
49.8079 45.2308 2
48.5669 55.903 2
49.0517 52.568 2
49.5156 49.0014 2
45.6611 39.8565 2
46.1009 42.6208 2
46.2366 45.7645 2
43.4636 41.1342 2
41.8665 42.0057 2
46.8245 57.3326 3.98237
44.1889 39.3932 3.79251
42.2035 40.859 3.70157
47.8563 47.1949 3.97891
47.1221 54.2173 3.97335
47.4811 50.7171 3.97003
44.6125 47.3577 3.97715
44.7317 41.9241 3.86823
44.7042 44.4963 3.9348
42.322 42.6149 3.80212
40.7766 42.3217 3.68613
46.6159 59.7876 0.0168146
45.4634 58.7842 2
43.8686 57.7046 3.98402
37.5635 67.7459 0.0165357
39.6477 65.6074 0.0192143
41.6002 63.8131 0.0190815
42.9508 62.0744 0.0207173
44.6219 60.2836 0.0173906
35.4638 67.6563 2
41.754 62.4861 2
39.8938 63.5467 2
37.6425 65.5064 2
42.48 59.9723 2
40.6237 61.6415 3.98071
40.442 58.1984 3.98101
37.837 63.2072 3.97952
35.5731 65.4272 3.9806
33.5756 65.339 2
31.9589 63.2966 2
33.6285 63.3341 3.97995
30.3781 62.8557 3.98196
32.1233 62.0009 3.98296
26.8695 61.4976 3.9803
28.062 64.1467 3.98247
29.8832 64.7189 2
29.4064 66.7583 3.98431
31.697 65.1263 0.0183735
31.3771 67.1948 2
31.0144 69.4169 3.98746
33.3925 67.4837 0.016865
33.1569 69.7525 2
32.8919 72.1469 3.99203
35.3337 69.958 0.0123596
35.1948 72.373 2
35.0474 74.9194 4
37.5095 72.4582 0.00802963
37.5 75 2
39.9526 74.9197 0
35.6214 6.72597 3.98566
37.5236 4.61582 3.98961
39.6242 4.71531 2
39.7892 2.47447 3.99329
41.7365 4.96879 0.0107457
42.0628 2.71752 2
42.3946 0.32156 4
44.3265 3.11045 0.0068689
44.8159 0.72056 2
47.2057 1.27793 0
49.2229 41.2923 0.0106946
56.5371 37.8844 0.0225692
52.7862 39.3029 0.0164716
47.1666 40.3735 2
50.1727 38.5078 2
53.6374 36.6327 2
50.9505 35.5735 3.97701
47.8103 37.748 3.93841
45.623 35.1367 3.88214
43.4459 33.8764 3.78604
41.8556 33.0043 3.64704
37.4585 8.53582 3.98438
37.5167 6.6736 2
39.4428 6.8034 0.0137994
39.2115 8.69262 2
38.9766 10.1285 3.98361
35.8992 9.776 3.98221
34.1514 8.82452 3.98312
35.9423 8.49305 2
54.5612 33.9737 0.0238005
53.2425 30.5531 0.0224084
52.3879 27.2727 0.0244471
52.3392 21.0948 0.0240877
52.0326 24.1615 0.0228698
49.8006 19.6909 0.0241354
48.1007 17.0002 0.0257307
47.6769 14.5946 0.0258221
44.7253 9.99572 0.0156266
46.004 12.7358 0.0220377
41.0139 9.05052 0.0169372
42.4686 10.904 0.0148024
52.1205 32.8875 2
40.5698 11.6104 2
43.8573 11.9174 2
51.0646 29.235 2
50.6266 25.8041 2
49.8904 22.2738 2
45.7952 15.4249 2
47.4913 19.3111 2
49.6566 31.4666 3.9856
49.0663 27.574 3.97366
49.2891 24.4867 3.98082
47.1593 22.0503 3.97788
38.3028 12.7405 3.97842
42.101 14.3076 3.97851
44.7922 18.4975 3.97698
44.5184 37.4903 3.80049
46.0466 37.4893 2
47.9787 58.7307 0.0209024
48.5678 55.9011 0.0236531
49.796 45.2219 0.0197402
49.5128 49.0033 0.0289763
49.0517 52.5647 0.0259885
45.6244 39.8497 0.116537
46.0777 42.5981 0.0821462
46.2346 45.7624 0.0129777
43.4407 41.109 0.207491
41.8513 41.9904 0.349487
46.8234 57.3334 2
44.2207 39.4135 2
42.1946 40.8662 2
47.8578 47.1962 2
47.1206 54.2217 2
47.4831 50.7203 2
44.6211 47.335 2
44.7554 41.9431 2
44.7229 44.5144 2
42.3683 42.6435 2
40.7815 42.3191 2
45.375 55.9224 3.98922
42.5228 39.2669 3.71325
40.6648 40.7614 3.79537
45.9417 48.8806 3.98623
45.467 52.5053 3.97934
43.3035 48.3717 3.99961
43.2517 46.0393 3.91643
43.4382 43.7068 3.867
40.9443 43.7419 3.79141
39.261 42.6369 3.70596
45.4633 58.7835 0.0181482
43.8687 57.7054 2
42.0967 56.3229 3.98612
35.4637 67.6551 0.0166792
37.6423 65.5056 0.0187466
39.8939 63.5463 0.0206977
41.7538 62.4857 0.0199737
42.4797 59.9718 0.0179593
35.5732 65.4287 2
40.6239 61.6421 2
37.8368 63.2076 2
40.4422 58.1992 2
38.9215 56.4892 3.98908
38.2508 60.3233 3.97948
35.6068 63.1991 3.97765
33.5755 65.3385 0.0192789
31.959 63.2959 0.0186345
33.6284 63.3348 2
30.3781 62.8562 2
32.1235 62.0016 2
28.681 62.201 3.98165
33.3457 61.5111 3.98166
31.0675 61.2184 3.98114
27.5719 59.5921 3.98087
23.7972 59.0786 3.97945
25.0357 60.8706 3.98028
26.8697 61.4984 2
26.2289 63.4779 3.98183
28.0621 64.1472 2
27.463 66.1825 3.98455
29.8831 64.7183 0.0172035
29.4065 66.7588 2
28.9066 68.943 3.98738
31.377 67.194 0.0162717
31.0143 69.4176 2
30.6142 71.7779 3.99197
33.1569 69.7518 0.0125359
32.8917 72.1473 2
32.6054 74.6784 4
35.1949 72.3725 0.00810264
35.0474 74.9197 2
37.5 75 0
33.7242 6.981 3.98518
35.4355 4.68609 3.98943
35.6212 6.72494 2
37.5147 2.38704 3.99325
37.5236 4.61503 2
39.6242 4.71622 0.0104736
39.7891 2.47395 2
39.9526 0.0806499 4
42.0628 2.71798 0.00670742
42.3947 0.320817 2
44.8158 0.721173 0
44.2023 35.5859 3.78806
42.2115 34.1263 3.69957
47.1478 40.3688 0.0740432
50.1624 38.5147 0.00762773
53.6298 36.6299 0.0227557
47.817 37.7527 2
50.9636 35.5721 2
45.6529 35.1191 2
43.4735 33.8499 2
41.8718 32.9884 2
47.9795 34.3042 3.96506
44.7323 33.0518 3.86175
42.328 32.3807 3.79756
40.7814 32.6776 3.68351
37.3111 10.6332 3.9814
37.4584 8.53407 2
37.5168 6.67476 0.0137967
39.2113 8.69393 0.0162366
38.9772 10.1271 2
34.7547 10.383 3.98113
35.8992 9.77397 2
32.3783 9.37194 3.98151
34.1507 8.82301 2
35.9426 8.4945 0.0161763
52.1148 32.8877 0.0200248
51.0505 29.2342 0.0248587
50.6229 25.8015 0.0270996
49.8908 22.2761 0.0176549
47.4914 19.3045 0.0226744
45.7963 15.4311 0.0185184
43.8582 11.9169 0.0198402
40.5695 11.6102 0.0193487
49.6685 31.462 2
38.3025 12.7384 2
42.1011 14.3095 2
49.0708 27.5735 2
49.2915 24.4825 2
47.1551 22.0481 2
44.7921 18.5109 2
47.4924 29.5705 3.98468
46.9801 25.2358 3.98324
44.2702 21.4327 3.97489
36.583 12.9388 3.97721
38.6826 14.8158 3.97671
41.7465 17.8659 3.97844
42.6415 37.484 3.72636
44.5421 37.4909 2
45.9914 37.4826 0.114096
46.8245 57.3326 0.0176263
47.1221 54.2173 0.0266474
47.8563 47.1949 0.0210897
47.4811 50.7171 0.0299674
44.1889 39.3932 0.207486
44.7317 41.9241 0.131774
44.7042 44.4963 0.0651954
44.6125 47.3577 0.022846
42.322 42.6149 0.197883
42.2035 40.859 0.298429
40.7766 42.3217 0.313872
45.3738 55.922 2
42.5137 39.2649 2
40.6534 40.7471 2
45.9427 48.8865 2
45.4667 52.5119 2
43.3077 48.3905 2
43.2819 46.0665 2
43.4679 43.735 2
40.9752 43.7807 2
39.2577 42.6301 2
43.707 54.4253 3.99585
40.7609 39.1523 3.82219
39.1236 40.8279 3.81122
43.5915 50.4308 4.00405
41.8851 47.5832 3.9522
41.8045 45.1268 3.87938
39.3381 44.4346 3.79721
37.5037 42.7325 3.72759
43.8686 57.7046 0.015984
42.0966 56.3236 2
40.408 54.9207 3.98221
35.5731 65.4272 0.0194016
37.837 63.2072 0.0204837
40.6237 61.6415 0.0192869
40.442 58.1984 0.018988
35.6067 63.2004 2
38.2511 60.3239 2
38.9214 56.4898 2
37.998 55.2356 3.99276
36.9346 57.6196 3.983
35.3633 60.9058 3.97797
33.6285 63.3341 0.0200536
30.3781 62.8557 0.0180351
32.1233 62.0009 0.0170432
33.346 61.5119 2
28.6813 62.2014 2
31.0678 61.219 2
29.405 60.2877 3.98004
32.3599 59.743 3.98603
28.0311 58.3728 3.9886
27.5723 59.593 2
25.3851 58.5922 3.97764
22.7653 58.2333 3.97028
23.4029 60.3484 3.97871
23.7972 59.0797 2
25.0359 60.8717 2
24.432 62.7698 3.98187
26.8695 61.4976 0.0197044
26.2291 63.4787 2
25.5471 65.4922 3.98383
28.062 64.1467 0.0175261
27.463 66.1831 2
26.8361 68.3314 3.98743
29.4064 66.7583 0.0156906
28.9066 68.9433 2
28.3692 71.2631 3.99206
31.0144 69.4169 0.0125354
30.6139 71.7782 2
30.1842 74.2788 4
32.8919 72.1469 0.00796938
32.6053 74.6792 2
35.0474 74.9194 0
31.7887 7.42116 3.98418
33.3478 4.92552 3.98897
33.7239 6.9798 2
35.2449 2.46309 3.9932
35.4353 4.68541 2
35.6214 6.72597 0.0143447
37.5 0 4
37.5145 2.38662 2
37.5236 4.61582 0.0103853
39.7892 2.47447 0.00670977
39.9526 0.0802889 2
42.3946 0.32156 0
42.5218 35.7082 3.71658
44.2295 35.5671 2
40.6712 34.2335 3.79485
42.2008 34.1202 2
47.8103 37.748 0.0615875
50.9505 35.5735 0.0229885
45.623 35.1367 0.117855
43.4459 33.8764 0.213965
41.8556 33.0043 0.352959
47.9968 34.2926 2
44.7581 33.0343 2
42.3727 32.3495 2
40.7878 32.6793 2
46.0044 31.6096 3.93978
43.4291 31.2905 3.86997
40.9441 31.2536 3.79237
39.2646 32.3719 3.7054
35.6934 11.7806 3.97934
37.3118 10.6306 2
37.4585 8.53582 0.0156175
38.9766 10.1285 0.0163862
33.099 11.2213 3.97863
34.7544 10.3808 2
35.8992 9.776 0.0177904
30.4833 10.0215 3.98088
32.3778 9.37139 2
34.1514 8.82452 0.0168821
49.6566 31.4666 0.0144019
49.0663 27.574 0.0263402
49.2891 24.4867 0.0191758
47.1593 22.0503 0.0221242
44.7922 18.4975 0.0230247
42.101 14.3076 0.0214947
38.3028 12.7405 0.0215822
36.5829 12.9355 2
47.5014 29.5497 2
38.682 14.8129 2
41.7452 17.8717 2
46.9855 25.2326 2
44.2675 21.414 2
45.3438 27.6945 4.00104
43.7277 24.1543 4.00684
41.3283 20.8093 3.97916
35.7734 14.7681 3.97717
38.6821 17.6124 3.97834
40.8115 37.4773 3.83149
42.6364 37.4853 2
44.5184 37.4903 0.199513
45.375 55.9224 0.0107772
45.467 52.5053 0.0206623
45.9417 48.8806 0.0137672
42.5228 39.2669 0.286752
43.4382 43.7068 0.133003
43.2517 46.0393 0.0835725
43.3035 48.3717 0.000394501
40.9443 43.7419 0.208588
40.6648 40.7614 0.204634
39.261 42.6369 0.294041
43.7047 54.4255 2
40.7428 39.144 2
39.1245 40.8127 2
43.5913 50.4469 2
41.8784 47.6044 2
41.8246 45.1546 2
37.5033 42.7294 2
39.3554 44.4641 2
41.8536 52.9787 3.99393
39.1431 39.1622 3.83432
37.5019 40.8754 3.82513
35.7479 42.643 3.70678
40.8646 49.6366 3.99829
39.8059 45.9875 3.85814
37.5021 44.6617 3.78759
42.0967 56.3229 0.0138794
40.4067 54.9221 2
38.7246 53.8143 3.99454
35.6068 63.1991 0.0223514
38.2508 60.3233 0.0205156
38.9215 56.4892 0.0109154
35.3635 60.9065 2
36.9351 57.6204 2
37.9977 55.2334 2
36.3239 55.3273 3.9956
34.4899 58.5121 3.98529
33.3457 61.5111 0.0183419
28.681 62.201 0.0183459
31.0675 61.2184 0.0188645
32.3604 59.744 2
29.4055 60.288 2
30.3085 57.8176 3.98376
28.0312 58.374 2
26.9631 56.8246 3.97587
27.5719 59.5921 0.019133
25.3851 58.5936 2
23.8569 56.7915 3.96386
21.3466 57.3857 3.96971
21.9981 59.6186 3.97722
22.7653 58.2351 2
22.7366 62.0199 3.97981
23.403 60.3496 2
23.7972 59.0786 0.0205505
25.0357 60.8706 0.0197246
24.4322 62.7708 2
23.6813 64.7097 3.98347
26.2289 63.4779 0.0181667
25.5472 65.493 2
24.8083 67.5926 3.98722
27.463 66.1825 0.0154539
26.8362 68.3321 2
26.1643 70.6038 3.99212
28.9066 68.943 0.0126193
28.3689 71.2633 2
27.7943 73.7221 4
30.6142 71.7779 0.00803217
30.1841 74.2794 2
32.6054 74.6784 0
29.8114 7.9955 3.98326
31.2531 5.33261 3.98812
31.7884 7.42034 2
32.9806 2.70138 3.99288
33.3475 4.92465 2
33.7242 6.981 0.0148167
35.0474 0.080333 4
35.2446 2.46276 2
35.4355 4.68609 0.0105715
37.5 0 2
37.5147 2.38704 0.00674601
39.9526 0.0806499 0
40.7637 35.8203 3.8216
42.5121 35.711 2
44.2023 35.5859 0.211943
28.5441 10.6973 3.97982
39.1256 34.1798 3.81044
40.6577 34.2475 2
42.2115 34.1263 0.300431
47.9795 34.3042 0.0349419
44.7323 33.0518 0.138246
42.328 32.3807 0.202441
40.7814 32.6776 0.31649
46.0313 31.5959 2
43.4573 31.2612 2
40.977 31.2182 2
39.2636 32.3792 2
44.2461 29.8037 3.93066
41.8012 29.8698 3.87833
39.344 30.5699 3.79594
37.5094 32.2847 3.72679
34.0939 12.9414 3.97705
35.6934 11.777 2
37.3111 10.6332 0.0186043
31.1874 11.9915 3.97882
33.0992 11.2206 2
34.7547 10.383 0.0188744
30.4824 10.0194 2
32.3783 9.37194 0.0184902
47.4924 29.5705 0.015318
46.9801 25.2358 0.0167578
36.583 12.9388 0.022795
44.2702 21.4327 0.0251099
41.7465 17.8659 0.0215557
38.6826 14.8158 0.0232851
35.7738 14.7718 2
45.3479 27.6942 2
38.6804 17.6162 2
41.3249 20.7961 2
43.7303 24.1417 2
33.6102 15.889 3.97666
42.929 26.5429 3.9975
40.8753 23.3728 4.0113
38.4143 20.3934 3.98077
35.8515 17.5234 3.97911
39.1511 37.4872 3.8559
40.7939 37.4772 2
42.6415 37.484 0.273643
43.707 54.4253 0.00415053
43.5915 50.4308 -0.00404974
40.7609 39.1523 0.177806
41.8045 45.1268 0.120615
41.8851 47.5832 0.0478015
39.3381 44.4346 0.202788
39.1236 40.8279 0.188782
37.5037 42.7325 0.272415
41.8526 52.9761 2
39.1312 39.1515 2
37.5016 40.8518 2
40.8719 49.6523 2
35.7468 42.6358 2
39.8277 46.0213 2
37.4975 44.688 2
39.7952 51.852 4.00176
37.4994 39.175 3.85791
35.8785 40.8424 3.81036
34.2305 42.3288 3.68385
35.6641 44.4483 3.79384
38.672 48.6339 3.96755
37.514 46.2878 3.87137
40.408 54.9207 0.0177888
38.7241 53.8084 2
36.7394 53.1467 3.99971
35.3633 60.9058 0.0220311
36.9346 57.6196 0.016998
37.998 55.2356 0.00723866
34.4907 58.5128 2
36.3249 55.3321 2
33.2447 55.4962 3.99574
32.3599 59.743 0.0139678
29.405 60.2877 0.0199645
30.3091 57.8182 2
28.7217 55.313 3.97868
28.0311 58.3728 0.011397
26.9625 56.8259 2
25.3443 55.1314 3.97286
21.8348 55.3327 3.96578
25.3851 58.5922 0.0223556
23.8564 56.7937 2
20.2327 57.0142 3.97308
20.6517 58.7696 3.9737
21.3462 57.3874 2
21.1681 61.168 3.97784
21.9981 59.6198 2
22.7653 58.2333 0.0297161
21.895 63.8369 3.98232
22.7368 62.021 2
23.4029 60.3484 0.0212949
24.432 62.7698 0.018132
23.6813 64.7105 2
22.8366 66.7358 3.98662
25.5471 65.4922 0.016166
24.8083 67.5935 2
24.0085 69.805 3.99222
26.8361 68.3314 0.012573
26.164 70.6041 2
25.446 73.0099 4
28.3692 71.2631 0.00793928
27.7943 73.7222 2
30.1842 74.2788 0
27.8213 8.65534 3.98277
29.1553 5.87879 3.98717
29.8107 7.99379 2
30.7258 3.09848 3.99258
31.2528 5.33188 2
31.7887 7.42116 0.0158232
32.6053 0.320823 4
32.9803 2.70093 2
33.3478 4.92552 0.011028
35.0474 0.0802903 2
35.2449 2.46309 0.00679949
37.5 0 0
39.1472 35.8229 3.83385
40.7445 35.8285 2
42.5218 35.7082 0.283419
28.5433 10.6963 2
26.6227 11.3935 3.97967
29.2265 12.6485 3.97919
37.5024 34.1433 3.82397
39.1248 34.1961 2
40.6712 34.2335 0.205154
46.0044 31.6096 0.060223
43.4291 31.2905 0.130025
40.9441 31.2536 0.207633
39.2646 32.3719 0.294596
44.2507 29.7919 2
41.8183 29.8488 2
39.3602 30.5348 2
37.5101 32.2865 2
42.2624 28.4592 3.90705
39.8211 29.0078 3.87829
37.5125 30.351 3.78819
35.7564 32.3718 3.70569
31.9163 14.4911 3.97739
34.0948 12.9408 2
35.6934 11.7806 0.0206606
31.1869 11.9884 2
33.099 11.2213 0.0213704
30.4833 10.0215 0.0191212
45.3438 27.6945 -0.00104164
43.7277 24.1543 -0.00683833
35.7734 14.7681 0.0228327
41.3283 20.8093 0.0208355
38.6821 17.6124 0.0216622
33.6091 15.8862 2
35.8489 17.5249 2
42.938 26.5429 2
38.4138 20.3925 2
40.8739 23.3588 2
33.5545 17.3992 3.97817
40.3317 25.7245 3.99336
38.0676 23.0115 3.99778
35.5831 20.1085 3.98096
37.4982 37.4981 3.87803
39.1403 37.4871 2
40.8115 37.4773 0.168509
41.8536 52.9787 0.00606676
40.8646 49.6366 0.00171266
39.1431 39.1622 0.165682
39.8059 45.9875 0.141857
37.5021 44.6617 0.21241
37.5019 40.8754 0.174867
35.7479 42.643 0.293224
39.7977 51.8558 2
37.4996 39.1621 2
35.8797 40.8265 2
38.6858 48.6718 2
34.2242 42.3271 2
35.648 44.48 2
37.5128 46.3222 2
37.6539 50.9245 4.00382
35.858 39.1803 3.83459
34.3406 40.7796 3.79498
33.1497 41.9995 3.65009
34.052 43.741 3.79171
35.1788 45.9803 3.87018
36.8987 48.2653 3.93639
38.7246 53.8143 0.00545748
36.7377 53.1538 2
34.389 52.445 3.99687
34.4899 58.5121 0.0147066
36.3239 55.3273 0.004395
33.2449 55.4986 2
30.5538 53.3459 3.97733
30.3085 57.8176 0.0162443
28.721 55.316 2
26.9339 53.4268 3.97177
26.9631 56.8246 0.0241262
25.3436 55.1349 2
23.6307 53.4651 3.95898
20.5305 53.2011 3.96222
19.9533 55.8154 3.96714
21.8335 55.3341 2
23.8569 56.7915 0.0361407
19.4473 57.8759 3.97253
20.2321 57.0156 2
19.7096 60.1952 3.97682
20.6515 58.7705 2
21.3466 57.3857 0.0302899
20.2079 62.857 3.98007
21.1683 61.1694 2
21.9981 59.6186 0.0227789
20.938 65.7644 3.98582
21.895 63.8378 2
22.7366 62.0199 0.0201865
23.6813 64.7097 0.0165286
22.8367 66.7365 2
21.911 68.8719 3.99193
24.8083 67.5926 0.012776
24.008 69.8052 2
23.1494 72.1454 4
26.1643 70.6038 0.00787584
25.446 73.0099 2
27.7943 73.7221 0
25.8605 9.38423 3.98185
27.0701 6.54292 3.98619
27.8205 8.65447 2
28.488 3.64456 3.99212
29.1548 5.87764 2
29.8114 7.9955 0.0167439
30.1841 0.720592 4
30.7254 3.09814 2
31.2531 5.33261 0.01188
32.6053 0.320817 2
32.9806 2.70138 0.00712133
35.0474 0.080333 0
37.5002 35.828 3.85714
39.1344 35.8331 2
40.7637 35.8203 0.178405
24.7776 12.0779 3.97984
23.7531 14.3667 3.97888
28.5441 10.6973 0.0201842
26.6221 11.3931 2
29.2259 12.6472 2
27.2928 13.3821 3.97902
29.7825 14.2107 3.97898
35.8819 34.1775 3.81014
37.5023 34.1662 2
39.1256 34.1798 0.189565
37.5094 32.2847 0.273205
44.2461 29.8037 0.0693419
41.8012 29.8698 0.121675
39.344 30.5699 0.204064
42.2873 28.4314 2
39.8328 28.9719 2
37.5161 30.3256 2
35.7563 32.3798 2
40.0098 27.641 3.90726
37.5123 28.7186 3.87365
35.6774 30.5796 3.79859
34.2429 32.6846 3.68413
30.9294 16.8536 3.97744
31.9162 14.4859 2
34.0939 12.9414 0.0229506
31.1874 11.9915 0.0211832
42.929 26.5429 0.00249755
40.8753 23.3728 -0.0112997
33.6102 15.889 0.023337
35.8515 17.5234 0.0208887
38.4143 20.3934 0.0192266
33.5509 17.4096 2
35.5852 20.1121 2
40.3346 25.7093 2
38.0607 22.996 2
32.8674 19.8073 3.98434
37.7865 25.3194 4.002
35.1948 22.7418 3.9936
35.847 37.5027 3.85625
37.4982 37.4982 2
39.1511 37.4872 0.144102
39.7952 51.852 -0.00175536
38.672 48.6339 0.0324453
37.4994 39.175 0.142091
37.514 46.2878 0.12863
35.6641 44.4483 0.206164
35.8785 40.8424 0.189639
34.2305 42.3288 0.316148
37.6407 50.9436 2
35.8711 39.1694 2
34.3521 40.766 2
36.8854 48.3012 2
33.133 42.0149 2
34.0242 43.7765 2
35.1638 46.01 2
35.5086 50.0801 3.99433
34.2476 39.176 3.82346
32.7901 40.8745 3.70039
32.6791 42.6246 3.79966
33.2037 45.1273 3.87626
34.328 47.3518 3.9118
36.7394 53.1467 0.000287806
34.3851 52.4529 2
32.0661 51.1548 4.00342
33.2447 55.4962 0.00426419
30.5528 53.3523 2
28.4903 51.5625 3.97841
28.7217 55.313 0.0213164
26.933 53.4301 2
25.1567 51.7186 3.95881
25.3443 55.1314 0.0271429
23.6297 53.4671 2
22.0555 51.7771 3.95581
19.2974 51.6102 3.96331
18.9574 54.2903 3.96292
20.5297 53.2005 2
18.4616 56.7076 3.97006
19.9523 55.8166 2
21.8348 55.3327 0.0342182
18.3741 59.0981 3.97167
19.4468 57.877 2
20.2327 57.0142 0.0269179
18.6203 61.7608 3.9752
19.7098 60.1968 2
20.6517 58.7696 0.0263024
19.127 64.6745 3.98438
20.2079 62.8582 2
21.1681 61.168 0.0221603
19.8852 67.8085 3.99181
20.938 65.7653 2
21.895 63.8369 0.0176826
22.8366 66.7358 0.0133794
21.9105 68.8719 2
20.9142 71.1327 4
24.0085 69.805 0.00777771
23.1494 72.1455 2
25.446 73.0099 0
23.0971 12.7935 3.97949
23.973 10.172 3.98124
25.0237 7.31358 3.98523
25.8599 9.38369 2
26.2797 4.32876 3.99165
27.0695 6.54225 2
27.8213 8.65534 0.0172345
27.7943 1.27781 4
28.4874 3.64415 2
29.1553 5.87879 0.0128268
30.1841 0.720551 2
30.7258 3.09848 0.0074195
32.6053 0.320823 0
35.8551 35.8294 3.83367
37.4999 35.8414 2
39.1472 35.8229 0.16615
24.7772 12.0774 2
23.7532 14.3665 2
22.4823 15.0437 3.97918
25.359 13.9153 3.97836
24.0287 15.6304 3.97948
26.6227 11.3935 0.0203327
29.2265 12.6485 0.0208076
27.2926 13.3818 2
29.7815 14.2086 2
28.3603 15.9871 3.97834
34.3452 34.2411 3.79245
35.8823 34.1935 2
37.5024 34.1433 0.176034
35.7564 32.3718 0.294311
37.5125 30.351 0.211811
42.2624 28.4592 0.0929461
39.8211 29.0078 0.121715
40.0238 27.6183 2
37.5107 28.6903 2
35.6605 30.5429 2
34.2334 32.6873 2
37.59 27.3539 3.92122
35.1918 29.0223 3.87743
34.067 31.2703 3.79201
33.1689 33.0138 3.64936
30.2145 19.363 3.98152
30.9281 16.8474 2
31.9163 14.4911 0.0226126
40.3317 25.7245 0.00663834
38.0676 23.0115 0.00222242
33.5545 17.3992 0.0218276
35.5831 20.1085 0.0190427
32.8673 19.8184 2
35.1923 22.7334 2
37.78 25.3019 2
32.3153 22.4777 3.99607
35.0135 25.2881 4.00185
34.1906 37.5092 3.83254
35.8584 37.5037 2
37.4982 37.4981 0.121973
37.6539 50.9245 -0.00381848
36.8987 48.2653 0.06361
35.858 39.1803 0.165408
35.1788 45.9803 0.129817
34.052 43.741 0.208291
34.3406 40.7796 0.20502
33.1497 41.9995 0.349913
35.4988 50.0901 2
34.2699 39.1677 2
32.7974 40.8811 2
34.313 47.3911 2
32.6397 42.6524 2
33.187 45.1525 2
33.3222 49.0753 3.98907
32.4729 39.2892 3.71873
31.5487 41.1219 3.79077
31.5677 43.7135 3.86894
32.3663 46.2856 3.90979
34.389 52.445 0.00312684
32.0642 51.1648 2
29.9578 49.6736 3.98649
30.5538 53.3459 0.0226652
28.4886 51.5606 2
26.6109 49.9472 3.96992
26.9339 53.4268 0.0282274
25.1553 51.7161 2
23.4556 50.1546 3.96468
23.6307 53.4651 0.0410195
22.0547 51.7758 2
20.5818 50.2833 3.96535
18.0977 50.305 3.96792
17.9084 52.7704 3.96416
19.296 51.6095 2
17.4581 55.3259 3.96383
18.9545 54.2904 2
20.5305 53.2011 0.0377793
17.144 57.8597 3.96917
18.4609 56.7083 2
19.9533 55.8154 0.0328568
17.139 60.5384 3.97444
18.3739 59.0992 2
19.4473 57.8759 0.0274706
17.408 63.4652 3.98082
18.6203 61.7622 2
19.7096 60.1952 0.0231838
17.9417 66.6171 3.99148
19.1269 64.6756 2
20.2079 62.857 0.0199261
18.75 69.9759 4
19.8846 67.8085 2
20.938 65.7644 0.0141795
21.911 68.8719 0.00807475
20.9142 71.1327 2
23.1494 72.1454 0
21.5883 13.6144 3.97907
22.1911 11.0321 3.9805
23.0971 12.7935 2
23.0415 8.17977 3.98446
23.9725 10.1713 2
24.1174 5.14358 3.9912
25.0231 7.31294 2
25.8605 9.38423 0.0181456
25.446 1.99014 4
26.2789 4.32865 2
27.0701 6.54292 0.0138095
27.7943 1.27778 2
28.488 3.64456 0.00787653
30.1841 0.720592 0
34.2412 35.837 3.82044
35.8666 35.8396 2
37.5002 35.828 0.142855
21.309 15.8405 3.98012
24.7776 12.0779 0.0201586
23.7531 14.3667 0.0211186
25.359 13.9149 2
22.4828 15.044 2
24.0286 15.6308 2
23.2693 16.2616 3.97714
25.3847 16.1001 3.97892
27.2928 13.3821 0.0209829
29.7825 14.2107 0.0210165
28.3588 15.988 2
27.4459 18.8156 3.98006
32.8045 34.14 3.69898
34.3602 34.2554 2
35.8819 34.1775 0.189856
34.2429 32.6846 0.315865
35.6774 30.5796 0.201413
37.5123 28.7186 0.126347
40.0098 27.641 0.0927432
37.592 27.3205 2
33.1516 32.9999 2
35.1869 28.9844 2
34.0297 31.2284 2
35.089 27.4804 3.92054
33.2102 29.8868 3.87237
32.6953 32.3826 3.78734
29.5989 21.9589 3.99498
30.2146 19.3727 2
30.9294 16.8536 0.0225631
37.7865 25.3194 -0.00199517
35.1948 22.7418 0.00640012
32.8674 19.8073 0.0156633
32.3152 22.4719 2
35.031 25.278 2
31.7819 25.6995 4.00814
32.3467 37.5102 3.72915
34.2126 37.5095 2
35.847 37.5027 0.143751
35.5086 50.0801 0.00566865
34.328 47.3518 0.0882021
34.2476 39.176 0.176536
33.2037 45.1273 0.123742
32.6791 42.6246 0.200336
32.7901 40.8745 0.29961
33.3174 49.0699 2
32.4877 39.2871 2
31.5235 41.1452 2
32.3325 46.3144 2
31.5374 43.7415 2
31.276 47.9109 3.98744
30.7991 39.4115 3.79003
30.2642 41.9451 3.86246
30.5951 44.8807 3.93157
32.0661 51.1548 -0.00342017
29.9553 49.6731 2
28.0231 48.1329 3.96573
28.4903 51.5625 0.0215917
26.61 49.9454 2
24.7993 48.4231 3.9727
25.1567 51.7186 0.0411895
23.4551 50.152 2
21.8186 48.7476 3.96949
22.0555 51.7771 0.0441876
20.5803 50.2823 2
19.1692 49.0619 3.97213
16.999 49.3085 3.97253
16.8533 51.3866 3.96669
18.0991 50.3039 2
16.4242 53.8555 3.96439
17.9058 52.7702 2
19.2974 51.6102 0.0366924
15.9897 56.4625 3.9662
17.4569 55.3259 2
18.9574 54.2903 0.03708
15.7548 59.2 3.97081
17.1437 57.8607 2
18.4616 56.7076 0.0299413
15.79 62.1324 3.976
17.1393 60.5402 2
18.3741 59.0981 0.0283256
16.0889 65.2997 3.99019
17.4077 63.4667 2
18.6203 61.7608 0.0247986
16.6661 68.6801 4
17.9408 66.6169 2
19.127 64.6745 0.0156221
18.75 69.9759 2
19.8852 67.8085 0.00819284
20.9142 71.1327 0
20.2213 14.6046 3.97778
21.5885 13.6146 2
20.5305 12.0027 3.97982
21.1443 9.15006 3.98389
22.1908 11.0318 2
23.0971 12.7935 0.0205054
22.0165 6.08276 3.99071
23.0409 8.17904 2
23.973 10.172 0.0187561
23.1494 2.85457 4
24.1164 5.14359 2
25.0237 7.31358 0.0147681
25.446 1.99012 2
26.2797 4.32876 0.00834633
27.7943 1.27781 0
32.472 35.7274 3.71081
34.26 35.8494 2
35.8551 35.8294 0.166328
21.3095 15.84 2
20.3083 16.9725 3.98133
22.1022 16.647 3.97565
25.359 13.9153 0.0216446
22.4823 15.0437 0.0208166
24.0287 15.6304 0.0205196
25.384 16.1005 2
23.2694 16.2627 2
24.2108 18.4699 3.97381
27.0385 21.4814 3.99114
28.3603 15.9871 0.0216575
27.4474 18.8159 2
31.5702 33.8984 3.78925
32.8141 34.1329 2
34.3452 34.2411 0.20755
33.1689 33.0138 0.350642
34.067 31.2703 0.207995
35.1918 29.0223 0.122571
37.59 27.3539 0.0787814
35.0746 27.4394 2
32.6287 32.3538 2
33.1956 29.8662 2
32.6442 28.1912 3.93196
31.5718 31.3069 3.87068
28.888 24.4395 3.98091
29.5943 21.9698 2
30.2145 19.363 0.018476
35.0135 25.2881 -0.00184932
32.3153 22.4777 0.00392545
31.7838 25.6791 2
29.7736 27.3623 3.96834
30.4649 37.5024 3.79908
32.3596 37.508 2
34.1906 37.5092 0.167455
33.3222 49.0753 0.010933
32.3663 46.2856 0.0902069
32.4729 39.2892 0.281271
31.5677 43.7135 0.131063
31.5487 41.1219 0.209225
31.2731 47.9141 2
30.7644 39.431 2
30.2398 41.9617 2
30.5793 44.8989 2
29.3766 46.5141 4.00157
29.3636 39.8526 3.88322
28.9737 43.1096 3.9315
29.9578 49.6736 0.013512
28.0214 48.1285 2
26.1437 46.6029 3.97675
26.6109 49.9472 0.0300819
24.7992 48.4207 2
23.0097 47.0264 3.97373
23.4556 50.1546 0.0353208
21.8179 48.7463 2
20.1458 47.582 3.97688
20.5818 50.2833 0.0346541
19.171 49.0606 2
17.7941 48.1526 3.97614
16.2384 48.6627 3.97568
17.0003 49.3076 2
15.9313 50.1508 3.97005
15.4283 52.4002 3.96637
16.8534 51.386 2
18.0977 50.305 0.0320764
14.8838 54.9667 3.96535
16.4234 53.8554 2
17.9084 52.7704 0.0358439
14.4671 57.7285 3.96766
15.9897 56.4626 2
17.4581 55.3259 0.0361672
14.2687 60.6862 3.97497
15.755 59.2014 2
17.144 57.8597 0.0308265
14.334 63.8583 3.987
15.7897 62.1337 2
17.139 60.5384 0.0255595
14.6715 67.2507 4
16.0876 65.2991 2
17.408 63.4652 0.0191782
16.6661 68.6801 2
17.9417 66.6171 0.00852214
18.75 69.9759 0
18.936 15.791 3.97887
20.2216 14.6044 2
18.9806 13.1144 3.97861
21.5883 13.6144 0.020931
20.5305 12.0026 2
19.3435 10.2384 3.98326
19.991 7.14744 3.99037
21.1439 9.14966 2
22.1911 11.0321 0.0194964
20.9142 3.86727 4
22.0152 6.08294 2
23.0415 8.17977 0.0155412
23.1494 2.85451 2
24.1174 5.14358 0.00880493
25.446 1.99014 0
30.8169 35.6131 3.79329
32.4839 35.7293 2
34.2412 35.837 0.179561
21.309 15.8405 0.0198807
22.1027 16.6473 2
20.3089 16.9716 2
19.2562 18.4217 3.97439
21.7882 17.8646 3.97923
25.3847 16.1001 0.0210806
23.2693 16.2616 0.0228589
24.2116 18.4703 2
22.3 19.9139 3.96992
24.6209 21.3516 3.99013
26.4968 23.7477 3.97049
27.038 21.4798 2
27.4459 18.8156 0.019939
30.2941 33.0769 3.87508
31.5495 33.8637 2
32.8045 34.14 0.301022
32.6953 32.3826 0.212657
33.2102 29.8868 0.127634
35.089 27.4804 0.0794628
32.6127 28.1685 2
31.5377 31.2732 2
30.2844 29.6162 3.94963
28.0192 26.5783 3.98542
28.8832 24.4554 2
29.5989 21.9589 0.00501511
31.7819 25.6995 -0.00813653
29.7707 27.3321 2
28.9902 37.515 3.88647
30.4483 37.5032 2
32.3467 37.5102 0.270851
31.276 47.9109 0.0125581
30.5951 44.8807 0.0684328
30.7991 39.4115 0.209968
30.2642 41.9451 0.137544
29.3763 46.5253 2
29.3337 39.8714 2
28.9462 43.134 2
27.549 44.8144 3.97604
27.1347 40.59 3.95517
28.0231 48.1329 0.0342698
26.1403 46.6051 2
24.2564 45.1498 3.97591
24.7993 48.4231 0.027301
23.0096 47.0252 2
21.121 45.8503 3.97833
21.8186 48.7476 0.0305075
20.1456 47.5807 2
18.4747 46.7068 3.97825
19.1692 49.0619 0.0278691
17.7957 48.1516 2
16.4429 47.6922 3.97682
16.2395 48.662 2
15.276 48.9975 3.97317
16.999 49.3085 0.0274749
15.9326 50.1501 2
14.544 50.9702 3.96817
13.8515 53.4247 3.96604
15.4292 52.3997 2
16.8533 51.3866 0.0333092
13.2635 56.1591 3.9674
14.8835 54.9668 2
16.4242 53.8555 0.0356114
12.8526 59.1196 3.97278
14.4675 57.729 2
15.9897 56.4625 0.0337962
12.6798 62.3005 3.98439
14.2686 60.6869 2
15.7548 59.2 0.0291857
12.7746 65.6939 4
14.3324 63.8569 2
15.79 62.1324 0.0240038
14.6714 67.2507 2
16.0889 65.2997 0.0098086
16.6661 68.6801 0
17.6745 17.1679 3.97357
18.9363 15.7906 2
17.5126 14.3792 3.97779
20.2213 14.6046 0.0222244
18.9808 13.1141 2
17.6391 11.4578 3.9821
20.5305 12.0027 0.0201795
19.3433 10.2381 2
18.0512 8.34027 3.99013
18.75 5.0241 4
19.9897 7.14809 2
21.1443 9.15006 0.0161109
20.9142 3.86727 2
22.0165 6.08276 0.00929331
23.1494 2.85457 0
29.3813 35.15 3.88544
30.7754 35.588 2
32.472 35.7274 0.289188
22.1022 16.647 0.0243456
20.3083 16.9725 0.0186653
21.7889 17.8643 2
19.2568 18.4205 2
18.0065 19.9585 3.96442
20.8949 19.3957 3.97523
24.2108 18.4699 0.0261889
22.3001 19.9136 2
24.6207 21.3521 2
22.4008 21.7444 3.97679
24.7659 23.1918 3.97656
25.6054 25.9771 3.97527
26.4984 23.7469 2
27.0385 21.4814 0.00886209
28.6741 32.3905 3.9335
30.2649 33.0572 2
31.5702 33.8984 0.210745
31.5718 31.3069 0.129317
32.6442 28.1912 0.0680396
30.2795 29.6158 2
27.2292 29.1654 4.00538
28.0127 26.591 2
28.888 24.4395 0.0190912
29.7736 27.3623 0.0316584
27.2491 37.367 3.93587
28.9425 37.5064 2
30.4649 37.5024 0.200918
29.3766 46.5141 -0.00156807
28.9737 43.1096 0.0684963
29.3636 39.8526 0.116779
27.5409 44.8382 2
27.1174 40.5992 2
25.571 43.1255 3.98806
24.3896 39.45 3.9766
26.1437 46.6029 0.0232493
24.2495 45.15 2
22.1436 43.9012 3.97825
23.0097 47.0264 0.0262688
21.1193 45.8493 2
19.173 44.9375 3.97802
20.1458 47.582 0.0231214
18.4755 46.7057 2
16.7594 46.1901 3.97733
17.7941 48.1526 0.0238617
16.4441 47.6914 2
15.0209 47.6524 3.97468
16.2384 48.6627 0.0243236
15.2773 48.9969 2
13.8444 49.5325 3.97014
15.9313 50.1508 0.0299503
14.545 50.9698 2
12.9214 51.8653 3.96704
12.1499 54.5213 3.96762
13.8512 53.4246 2
15.4283 52.4002 0.0336309
11.5383 57.4528 3.9716
13.2639 56.1592 2
14.8838 54.9667 0.0346521
11.1347 60.6261 3.98202
12.8529 59.1195 2
14.4671 57.7285 0.0323408
10.9835 64.0165 4
12.6781 62.2982 2
14.2687 60.6862 0.0250303
12.7745 65.694 2
14.334 63.8583 0.0130046
14.6715 67.2507 0
16.415 18.6664 3.96652
17.6746 17.1671 2
16.105 15.7893 3.97585
18.936 15.791 0.0211256
17.5129 14.3785 2
16.0209 12.812 3.98018
18.9806 13.1144 0.0213872
17.639 11.4574 2
16.2023 9.66333 3.98976
19.3435 10.2384 0.0167355
18.0498 8.3413 2
16.6661 6.31991 4
18.75 5.02404 2
19.991 7.14744 0.00963239
20.9142 3.86727 0
27.7776 34.795 3.92834
29.351 35.1311 2
30.8169 35.6131 0.206711
16.7212 21.3937 3.96485
21.7882 17.8646 0.0207726
19.2562 18.4217 0.0256051
20.8952 19.3949 2
18.007 19.9574 2
19.7692 21.5946 3.97258
22.3 19.9139 0.0300805
24.6209 21.3516 0.00986905
22.4007 21.7444 2
24.7662 23.1915 2
22.9537 24.627 3.97235
24.7701 28.5579 3.97798
25.6036 25.9756 2
26.4968 23.7477 0.0295119
26.5211 31.7468 3.98404
28.6465 32.3672 2
30.2941 33.0769 0.124918
30.2844 29.6162 0.0503673
27.251 29.1498 2
28.0192 26.5783 0.0145773
25.0781 36.8598 3.98394
27.2301 37.3588 2
28.9902 37.515 0.11353
27.549 44.8144 0.023963
27.1347 40.59 0.0448289
25.5551 43.1363 2
24.3738 39.4494 2
23.2851 41.8112 3.97982
22.1076 38.5189 3.97779
24.2564 45.1498 0.0240894
22.1416 43.9015 2
19.9896 42.8681 3.97703
21.121 45.8503 0.0216663
19.1728 44.9373 2
17.1266 44.3564 3.97709
18.4747 46.7068 0.0217488
16.7609 46.1894 2
14.9619 46.0731 3.97515
16.4429 47.6922 0.0231795
15.0221 47.6519 2
13.3604 47.9957 3.97159
15.276 48.9975 0.026833
13.8454 49.532 2
12.1422 50.2449 3.9678
14.544 50.9702 0.0318305
12.9217 51.8651 2
11.1452 52.8325 3.96762
10.3287 55.7076 3.97199
12.1505 54.5212 2
13.8515 53.4247 0.0339631
9.70158 58.8483 3.98029
11.5386 57.4525 2
13.2635 56.1591 0.0325961
9.30605 62.2254 4
11.1331 60.6232 2
12.8526 59.1196 0.0272204
10.9835 64.0165 2
12.6798 62.3005 0.0156067
12.7746 65.6939 0
15.1637 20.1992 3.96644
16.4152 18.6658 2
14.7551 17.3152 3.96974
17.6745 17.1679 0.0264262
16.1053 15.7882 2
14.484 14.2951 3.97825
17.5126 14.3792 0.0222067
16.021 12.8113 2
14.4451 11.1146 3.9889
17.6391 11.4578 0.0179018
16.201 9.66465 2
14.6715 7.74927 4
18.0512 8.34027 0.00986679
16.6661 6.31988 2
18.75 5.0241 0
25.7364 34.2839 3.991
27.756 34.802 2
29.3813 35.15 0.114565
17.9144 22.3433 3.9689
15.5661 22.934 3.96755
16.7218 21.3936 2
20.8949 19.3957 0.0247663
18.0065 19.9585 0.0355809
19.7695 21.5942 2
19.7781 24.4076 3.97012
22.4008 21.7444 0.0232104
24.7659 23.1918 0.0234425
22.9533 24.6268 2
22.1383 27.8581 3.97249
24.0779 31.2282 3.97637
24.785 28.558 2
25.6054 25.9771 0.0247301
26.5051 31.7222 2
28.6741 32.3905 0.0664984
27.2292 29.1654 -0.00538485
22.8305 36.2869 3.98211
25.059 36.8582 2
27.2491 37.367 0.0641272
25.571 43.1255 0.0119392
24.3896 39.45 0.0233959
23.2756 41.8097 2
22.1 38.517 2
21.0145 40.6378 3.97585
20.4103 37.8019 3.97706
22.1436 43.9012 0.0217496
19.9884 42.8685 2
17.5838 42.0763 3.97675
19.173 44.9375 0.021981
17.1281 44.356 2
14.9906 44.184 3.97584
16.7594 46.1901 0.0226704
14.963 46.0726 2
13.0468 46.2834 3.97257
15.0209 47.6524 0.0253177
13.3613 47.9953 2
11.5178 48.5426 3.96837
13.8444 49.5325 0.0298574
12.1428 50.2447 2
10.2706 51.0776 3.96757
12.9214 51.8653 0.032959
11.1457 52.8323 2
9.23749 53.8875 3.97153
8.38496 56.9815 3.9808
10.3291 55.707 2
12.1499 54.5213 0.0323765
7.74927 60.3285 4
9.70037 58.8449 2
11.5383 57.4528 0.0283998
9.306 62.2255 2
11.1347 60.6261 0.0179789
10.9835 64.0165 0
13.9802 21.7631 3.96599
15.1644 20.1992 2
13.4595 18.9129 3.96729
16.415 18.6664 0.0334822
14.7555 17.3142 2
13.0311 15.8898 3.97496
16.105 15.7893 0.0241487
14.4839 14.294 2
12.7827 12.6882 3.9872
16.0209 12.812 0.0198169
14.4437 11.1162 2
12.7746 9.30605 4
16.2023 9.66333 0.0102398
14.6715 7.74924 2
16.6661 6.31991 0
23.4135 33.8253 3.98358
25.7138 34.2735 2
27.7776 34.795 0.071663
17.717 24.0645 3.97048
17.9147 22.343 2
14.3839 24.4666 3.96945
15.5669 22.934 2
16.7212 21.3937 0.0351516
19.2253 27.2342 3.97161
19.7692 21.5946 0.0274167
19.7762 24.4074 2
21.4557 30.6991 3.97488
22.9537 24.627 0.0276522
22.1477 27.8592 2
24.0606 31.2256 2
24.7701 28.5579 0.0220212
26.5211 31.7468 0.0159635
20.5326 35.9493 3.97723
22.8282 36.2818 2
25.0781 36.8598 0.0160564
23.2851 41.8112 0.0201765
22.1076 38.5189 0.0222051
21.0207 40.6373 2
20.4144 37.8016 2
18.325 39.0067 3.97741
19.9896 42.8681 0.0229677
17.5854 42.0759 2
14.9739 41.9046 3.97698
17.1266 44.3564 0.0229071
14.9922 44.1835 2
12.8049 44.3811 3.97314
14.9619 46.0731 0.0248509
13.0477 46.2831 2
11.0246 46.7269 3.96892
13.3604 47.9957 0.0284124
11.5183 48.5423 2
9.5337 49.2381 3.96732
12.1422 50.2449 0.0321992
10.271 51.0773 2
8.27036 52.0014 3.97117
11.1452 52.8325 0.0323808
9.23793 53.8868 2
7.19389 55.0323 3.98164
6.31991 58.3339 4
8.38407 56.9781 2
10.3287 55.7076 0.028007
7.74924 60.3285 2
9.70158 58.8483 0.019714
9.30605 62.2254 0
13.2826 25.375 3.97183
12.8594 23.2912 3.96704
13.98 21.7629 2
12.245 20.5586 3.96787
15.1637 20.1992 0.033557
13.4604 18.9126 2
11.663 17.5717 3.97214
14.7551 17.3152 0.0302599
13.0313 15.889 2
11.2206 14.3739 3.98406
14.484 14.2951 0.0217486
12.7811 12.6902 2
10.9835 10.9835 4
14.4451 11.1146 0.0111004
12.7745 9.306 2
14.6715 7.74927 0
20.8898 33.4284 3.97578
23.4166 33.8354 2
25.7364 34.2839 0.00900197
16.0361 26.4239 3.97183
17.7171 24.0643 2
17.9144 22.3433 0.0310951
14.3838 24.4667 2
15.5661 22.934 0.0324467
18.5984 30.2027 3.97491
19.2249 27.2343 2
19.7781 24.4076 0.0298812
21.4591 30.6995 2
22.1383 27.8581 0.0275128
24.0779 31.2282 0.0236323
17.9364 35.9821 3.97812
20.5312 35.9516 2
22.8305 36.2869 0.0178866
21.0145 40.6378 0.0241489
20.4103 37.8019 0.0229447
18.3252 39.0066 2
14.4791 39.1715 3.97772
17.5838 42.0763 0.0232462
14.9755 41.9042 2
12.5068 42.2687 3.97335
14.9906 44.184 0.0241624
12.806 44.3808 2
10.611 44.7963 3.96952
13.0468 46.2834 0.0274323
11.0251 46.7267 2
8.91605 47.3177 3.96706
11.5178 48.5426 0.0316328
9.53391 49.2379 2
7.43732 50.0349 3.97059
10.2706 51.0776 0.0324342
8.27071 52.0006 2
6.13455 53.0074 3.98201
9.23749 53.8875 0.0284674
7.19334 55.0294 2
5.0241 56.25 4
6.31988 58.3339 2
8.38496 56.9815 0.0191955
7.74927 60.3285 0
13.5469 26.829 3.97142
11.9649 24.796 3.96861
13.2818 25.3751 2
11.1474 22.2399 3.96767
12.8595 23.2913 2
13.9802 21.7631 0.0340076
12.246 20.5585 2
10.3939 19.3245 3.97194
13.4595 18.9129 0.0327128
11.6638 17.5716 2
9.76205 16.1583 3.98086
13.0311 15.8898 0.0250397
11.2189 14.3767 2
9.30607 12.7746 4
12.7827 12.6882 0.0127998
10.9835 10.9835 2
12.7746 9.30605 0
18.1105 33.1374 3.97724
20.8936 33.4288 2
23.4135 33.8253 0.0164196
15.6587 29.6587 3.97406
16.0357 26.4241 2
17.717 24.0645 0.029524
14.3839 24.4666 0.030545
18.5956 30.2027 2
19.2253 27.2342 0.0283879
21.4557 30.6991 0.0251234
15.0967 36.0295 3.97775
17.9391 35.9825 2
20.5326 35.9493 0.0227673
12.7254 37.8297 3.97768
18.325 39.0067 0.0225908
14.48 39.1715 2
12.0161 40.1363 3.97406
14.9739 41.9046 0.0230169
12.5076 42.2685 2
10.2188 42.7728 3.96988
12.8049 44.3811 0.0268565
10.6114 44.7961 2
8.39478 45.3197 3.96708
11.0246 46.7269 0.0310819
8.91607 47.3174 2
6.72862 48.0003 3.97011
9.5337 49.2381 0.03268
7.43749 50.0343 2
5.21139 50.9108 3.98172
8.27036 52.0014 0.0288345
6.13427 53.0055 2
3.86727 54.0858 4
7.19389 55.0323 0.0183625
5.02404 56.25 2
6.31991 58.3339 0
13.0213 29.0471 3.97098
11.4068 26.4958 3.96884
13.5461 26.8291 2
10.2054 23.9709 3.96784
11.9656 24.7962 2
13.2826 25.375 0.0281747
9.24616 21.1412 3.97136
11.1483 22.24 2
12.8594 23.2912 0.0329625
12.245 20.5586 0.0321344
10.3948 19.3248 2
8.41789 18.0295 3.98045
11.663 17.5717 0.0278632
9.76075 16.1619 2
7.74928 14.6715 4
11.2206 14.3739 0.0159442
9.30602 12.7745 2
10.9835 10.9835 0
14.6555 32.8782 3.97622
18.1092 33.1378 2
20.8898 33.4284 0.0242218
15.6593 29.6591 2
16.0361 26.4239 0.0281714
18.5984 30.2027 0.0250877
13.0203 36.2138 3.97662
15.0979 36.0299 2
17.9364 35.9821 0.0218798
12.7266 37.8297 2
11.3582 38.309 3.97453
14.4791 39.1715 0.0222792
12.0175 40.1361 2
9.80566 40.7511 3.97052
12.5068 42.2687 0.0266498
10.2196 42.7726 2
7.9439 43.2688 3.96739
10.611 44.7963 0.0304826
8.3948 45.3194 2
6.1347 45.9054 3.96981
8.91605 47.3177 0.0329373
6.72872 47.9997 2
4.42295 48.7515 3.98104
7.43732 50.0349 0.0294134
5.21127 50.9098 2
2.85457 51.8506 4
6.13455 53.0074 0.0179851
3.86727 54.0858 2
5.0241 56.25 0
12.1675 31.2681 3.97226
10.8294 28.4233 3.96906
13.0224 29.0474 2
9.42012 25.8002 3.9676
11.4069 26.4959 2
13.5469 26.829 0.0285836
8.23297 23.0248 3.9711
10.206 23.9711 2
11.9649 24.796 0.0313865
7.19992 19.9792 3.98108
9.24704 21.1418 2
11.1474 22.2399 0.0323304
10.3939 19.3245 0.0280579
8.41716 18.0332 2
6.31992 16.6661 4
9.76205 16.1583 0.0191401
7.74926 14.6714 2
9.30607 12.7746 0
12.192 34.302 3.97619
14.6562 32.8786 2
18.1105 33.1374 0.0227595
15.6587 29.6587 0.0259372
10.9173 36.6129 3.974
13.0211 36.2139 2
15.0967 36.0295 0.02225
12.7254 37.8297 0.0223172
11.3594 38.3088 2
9.39664 38.8222 3.97075
12.0161 40.1363 0.0259398
9.80633 40.7509 2
7.55501 41.2107 3.96777
10.2188 42.7728 0.0301158
7.94352 43.2686 2
5.64657 43.7683 3.96976
8.39478 45.3197 0.0329173
6.13481 45.9049 2
3.76853 46.5372 3.98059
6.72862 48.0003 0.0298881
4.42299 48.751 2
1.99014 49.554 4
5.21139 50.9108 0.0182786
2.85451 51.8506 2
3.86727 54.0858 0
10.9991 32.9266 3.97414
10.1483 30.3894 3.96947
12.1687 31.2684 2
8.72994 27.7338 3.96746
10.8298 28.4235 2
13.0213 29.0471 0.0290248
7.35842 24.9832 3.97062
9.42039 25.8004 2
11.4068 26.4958 0.0311611
6.11684 22.0025 3.9818
8.23358 23.0253 2
10.2054 23.9709 0.0321584
5.02411 18.75 4
7.19959 19.9822 2
9.24616 21.1412 0.0286377
8.41789 18.0295 0.0195487
6.3199 16.6661 2
7.74928 14.6715 0
10.5182 35.0039 3.97378
12.1933 34.3022 2
14.6555 32.8782 0.0237826
9.06171 36.9855 3.9712
10.9187 36.6128 2
13.0203 36.2138 0.023379
11.3582 38.309 0.0254688
9.39777 38.8221 2
7.2355 39.182 3.96804
9.80566 40.7511 0.0294786
7.55516 41.2105 2
5.26173 41.614 3.96962
7.9439 43.2688 0.0326146
5.64663 43.7679 2
3.24624 44.2819 3.98053
6.1347 45.9054 0.0301929
3.76867 46.5369 2
1.27781 47.2057 4
4.42295 48.7515 0.0189575
1.99012 49.554 2
2.85457 51.8506 0
10.1535 33.8864 3.97422
9.43223 32.1598 3.97022
11.0002 32.9268 2
8.07901 29.6972 3.9676
10.1489 30.3896 2
12.1675 31.2681 0.0277423
6.60204 27.009 3.97025
8.72979 27.7339 2
10.8294 28.4233 0.030941
5.17222 24.0951 3.98178
7.35873 24.9836 2
9.42012 25.8002 0.0324021
3.86728 20.9142 4
6.11673 22.0043 2
8.23297 23.0248 0.0289036
5.02406 18.75 2
7.19992 19.9792 0.0189165
6.31992 16.6661 0
8.88248 35.2816 3.97136
10.5192 35.0039 2
12.192 34.302 0.0238142
7.01759 37.2063 3.96804
9.06235 36.9854 2
10.9173 36.6129 0.0259992
9.39664 38.8222 0.0292494
7.23595 39.1819 2
4.98938 39.4673 3.96974
7.55501 41.2107 0.0322265
5.26208 41.6137 2
2.8567 42.0022 3.98047
5.64657 43.7683 0.0302409
3.24631 44.2818 2
0.720592 44.8159 4
3.76853 46.5372 0.0194103
1.27778 47.2057 2
1.99014 49.554 0
8.9209 33.7012 3.97123
10.1545 33.8865 2
7.51562 31.6105 3.9678
9.43301 32.1599 2
10.9991 32.9266 0.0258599
5.94706 29.0699 3.97025
8.07867 29.6973 2
10.1483 30.3894 0.0305314
4.35992 26.2475 3.98126
6.60215 27.0093 2
8.72994 27.7338 0.0325377
2.85458 23.1494 4
5.17222 24.0959 2
7.35842 24.9832 0.0293753
3.86728 20.9142 2
6.11684 22.0025 0.0181959
5.02411 18.75 0
6.96681 35.3068 3.96816
8.88335 35.2815 2
10.5182 35.0039 0.0262235
4.83951 37.3398 3.9702
7.01774 37.2063 2
9.06171 36.9855 0.0287994
7.2355 39.182 0.0319567
4.98974 39.4672 2
2.60476 39.7139 3.98036
5.26173 41.614 0.0303809
2.857 42.0023 2
0.320823 42.3947 4
3.24624 44.2819 0.0194685
0.720551 44.8159 2
1.27781 47.2057 0
7.12724 33.4619 3.96801
8.92137 33.7013 2
10.1535 33.8864 0.0257765
5.41778 31.1338 3.9704
7.51549 31.6105 2
9.43223 32.1598 0.029777
3.6816 28.4434 3.98081
5.94712 29.0702 2
8.07901 29.6972 0.0323978
1.99015 25.446 4
4.35998 26.2477 2
6.60204 27.009 0.0297546
2.85453 23.1494 2
5.17222 24.0951 0.0182173
3.86728 20.9142 0
4.85364 35.2516 3.97057
6.9672 35.3068 2
8.88248 35.2816 0.0286424
2.49619 37.4285 3.98095
4.83953 37.3399 2
7.01759 37.2063 0.0319643
4.98938 39.4673 0.0302568
2.60513 39.7142 2
0.080333 39.9526 4
2.8567 42.0022 0.0195296
0.320817 42.3947 2
0.720592 44.8159 0
5.04708 33.1904 3.97049
7.12725 33.4619 2
8.9209 33.7012 0.0287728
3.14586 30.6661 3.98068
5.41787 31.1341 2
7.51562 31.6105 0.0321986
1.27793 27.7943 4
3.68174 28.4436 2
5.94706 29.0699 0.0297504
1.99013 25.446 2
4.35992 26.2475 0.0187408
2.85458 23.1494 0
2.54824 35.159 3.98097
4.85404 35.2519 2
6.96681 35.3068 0.0318351
0 37.5 4
2.49623 37.4289 2
4.83951 37.3398 0.0298012
2.60476 39.7139 0.0196441
0.0802903 39.9526 2
0.320823 42.3947 0
2.76587 32.9057 3.98105
5.04719 33.1907 2
7.12724 33.4619 0.0319885
0.721173 30.1842 4
3.14604 30.6665 2
5.41778 31.1338 0.0296027
1.27779 27.7943 2
3.6816 28.4434 0.0191898
1.99015 25.446 0
0.0806499 35.0474 4
2.54867 35.1594 2
4.85364 35.2516 0.0294295
0 37.5 2
2.49619 37.4285 0.0190451
0.080333 39.9526 0
0.32156 32.6054 4
2.76596 32.9062 2
5.04708 33.1904 0.0295074
0.72056 30.1841 2
3.14586 30.6661 0.0193216
1.27793 27.7943 0
0.0802889 35.0474 2
2.54824 35.159 0.0190308
0 37.5 0
0.320817 32.6053 2
2.76587 32.9057 0.0189508
0.721173 30.1842 0
0.0806499 35.0474 0
0.32156 32.6054 0
CELLS 1910 17190
8 18 6 25 56 2 0 5 16
8 57 23 6 18 17 4 0 2
8 78 36 9 29 31 11 1 7
8 31 11 1 7 79 37 10 30
8 110 57 18 50 48 17 2 14
8 50 18 56 111 14 2 16 49
8 116 62 22 55 52 20 3 15
8 56 25 67 118 16 5 24 53
8 119 63 23 57 54 21 4 17
8 55 22 63 119 15 3 21 54
8 58 26 68 121 18 6 25 56
8 122 65 26 58 57 23 6 18
8 73 31 7 27 142 79 30 71
8 143 78 29 72 73 31 7 27
8 83 147 76 34 32 74 28 8
8 84 148 78 36 33 75 29 9
8 76 34 8 28 148 84 33 75
8 37 79 150 86 10 30 77 35
8 151 87 36 78 80 38 11 31
8 80 38 11 31 152 88 37 79
8 175 100 42 94 96 44 12 40
8 44 96 176 101 12 40 95 43
8 101 176 98 46 43 95 41 13
8 46 98 178 103 13 41 97 45
8 178 103 45 97 147 83 32 74
8 189 116 55 109 106 52 15 47
8 111 56 118 191 49 16 53 107
8 192 119 57 110 108 54 17 48
8 109 55 119 192 47 15 54 108
8 194 122 58 112 110 57 18 50
8 112 58 121 195 50 18 56 111
8 115 61 19 51 197 124 59 113
8 115 61 125 198 51 19 60 114
8 198 125 62 116 114 60 20 52
8 200 127 64 120 116 62 22 55
8 118 67 132 202 53 24 66 117
8 121 68 133 203 56 25 67 118
8 120 64 128 204 55 22 63 119
8 204 128 65 122 119 63 23 57
8 206 134 68 121 123 69 26 58
8 123 69 26 58 207 131 65 122
8 226 147 74 138 140 76 28 70
8 229 148 75 139 143 78 29 72
8 140 76 28 70 229 148 75 139
8 142 79 30 71 231 150 77 141
8 144 80 31 73 232 152 79 142
8 233 151 78 143 144 80 31 73
8 150 86 35 77 235 154 81 145
8 235 154 81 145 146 82 39 91
8 146 82 39 91 236 155 90 165
8 238 157 83 147 149 85 34 76
8 239 158 84 148 151 87 36 78
8 149 85 34 76 239 158 84 148
8 152 88 37 79 241 160 86 150
8 242 161 87 151 153 89 38 80
8 153 89 38 80 243 162 88 152
8 171 98 41 92 265 178 97 169
8 265 178 97 169 226 147 74 138
8 172 96 40 93 266 176 95 170
8 266 176 95 170 171 98 41 92
8 269 175 94 173 172 96 40 93
8 271 180 99 174 175 100 42 94
8 197 124 59 113 271 180 99 174
8 272 181 100 175 177 102 44 96
8 273 182 101 176 179 104 46 98
8 177 102 44 96 273 182 101 176
8 179 104 46 98 275 184 103 178
8 275 184 103 178 238 157 83 147
8 188 115 51 105 283 197 113 186
8 188 115 198 284 105 51 114 187
8 284 198 116 189 187 114 52 106
8 286 200 120 193 189 116 55 109
8 191 118 202 288 107 53 117 190
8 195 121 203 289 111 56 118 191
8 193 120 204 290 109 55 119 192
8 290 204 122 194 192 119 57 110
8 196 123 58 112 292 207 122 194
8 293 206 121 195 196 123 58 112
8 199 126 61 115 297 211 124 197
8 298 212 127 200 198 125 62 116
8 199 126 212 298 115 61 125 198
8 205 129 64 120 300 214 127 200
8 301 217 130 201 202 132 66 117
8 209 136 168 264 301 217 130 201
8 302 219 132 202 203 133 67 118
8 303 220 133 203 206 134 68 121
8 205 129 215 304 120 64 128 204
8 304 215 131 207 204 128 65 122
8 306 221 134 206 208 135 69 123
8 208 135 69 123 307 218 131 207
8 210 137 167 263 309 223 136 209
8 328 238 147 226 230 149 76 140
8 228 146 91 166 329 236 165 260
8 231 150 77 141 330 235 145 227
8 330 235 145 227 228 146 91 166
8 332 239 148 229 233 151 78 143
8 230 149 76 140 332 239 148 229
8 232 152 79 142 334 241 150 231
8 234 153 80 144 335 243 152 232
8 336 242 151 233 234 153 80 144
8 236 155 90 165 338 245 164 259
8 241 160 86 150 339 246 154 235
8 339 246 154 235 237 156 82 146
8 237 156 82 146 340 247 155 236
8 342 249 157 238 240 159 85 149
8 343 250 158 239 242 161 87 151
8 240 159 85 149 343 250 158 239
8 243 162 88 152 345 252 160 241
8 244 163 253 346 153 89 161 242
8 244 163 89 153 347 254 162 243
8 311 224 261 371 210 137 167 263
8 263 167 262 372 209 136 168 264
8 267 179 98 171 375 275 178 265
8 375 275 178 265 328 238 147 226
8 376 273 176 266 267 179 98 171
8 268 177 96 172 376 273 176 266
8 379 272 175 269 268 177 96 172
8 380 271 174 270 269 175 94 173
8 283 197 113 186 380 271 174 270
8 381 277 180 271 272 181 100 175
8 297 211 124 197 381 277 180 271
8 382 278 181 272 274 183 102 177
8 274 183 102 177 383 279 182 273
8 383 279 182 273 276 185 104 179
8 385 281 184 275 342 249 157 238
8 276 185 104 179 385 281 184 275
8 285 199 115 188 393 297 197 283
8 394 298 200 286 284 198 116 189
8 285 199 298 394 188 115 198 284
8 291 205 120 193 396 300 200 286
8 397 301 201 287 288 202 117 190
8 295 209 264 374 397 301 201 287
8 398 302 202 288 289 203 118 191
8 399 303 203 289 293 206 121 195
8 291 205 304 400 193 120 204 290
8 400 304 207 292 290 204 122 194
8 294 208 123 196 402 307 207 292
8 403 306 206 293 294 208 123 196
8 296 210 263 373 405 309 209 295
8 408 312 213 299 297 211 126 199
8 299 213 313 409 199 126 212 298
8 409 313 214 300 298 212 127 200
8 305 216 129 205 411 315 214 300
8 412 318 217 301 302 219 132 202
8 309 223 136 209 412 318 217 301
8 413 320 219 302 303 220 133 203
8 306 221 321 414 206 134 220 303
8 307 218 131 207 415 316 215 304
8 305 216 316 415 205 129 215 304
8 417 322 221 306 308 222 135 208
8 308 222 135 208 418 319 218 307
8 310 225 137 210 420 325 223 309
8 423 326 224 311 310 225 137 210
8 329 236 165 260 441 338 259 368
8 442 342 238 328 333 240 149 230
8 331 237 146 228 443 340 236 329
8 334 241 150 231 444 339 235 330
8 444 339 235 330 331 237 146 228
8 446 343 239 332 336 242 151 233
8 333 240 149 230 446 343 239 332
8 335 243 152 232 448 345 241 334
8 337 244 153 234 449 347 243 335
8 337 244 346 450 234 153 242 336
8 338 245 164 259 452 349 258 367
8 340 247 155 236 453 350 245 338
8 345 252 160 241 454 351 246 339
8 454 351 246 339 341 248 156 237
8 341 248 156 237 455 352 247 340
8 240 159 251 344 342 249 354 457
8 242 161 253 346 343 250 355 458
8 343 250 355 458 240 159 251 344
8 347 254 162 243 460 357 252 345
8 348 255 358 461 244 163 253 346
8 348 255 163 244 462 359 254 347
8 473 360 257 365 363 256 364 482
8 452 349 258 367 365 257 366 485
8 422 324 369 488 311 224 261 371
8 371 261 370 490 263 167 262 372
8 407 311 371 491 296 210 263 373
8 373 263 372 492 295 209 264 374
8 493 385 275 375 442 342 238 328
8 377 276 179 267 493 385 275 375
8 378 274 177 268 494 383 273 376
8 494 383 273 376 377 276 179 267
8 497 382 272 379 378 274 177 268
8 498 381 271 380 379 272 175 269
8 393 297 197 283 498 381 271 380
8 499 387 277 381 382 278 181 272
8 408 312 211 297 499 387 277 381
8 500 388 278 382 384 280 183 274
8 501 389 279 383 386 282 185 276
8 384 280 183 274 501 389 279 383
8 386 282 185 276 503 391 281 385
8 503 391 281 385 457 354 249 342
8 511 408 299 395 393 297 199 285
8 395 299 409 512 285 199 298 394
8 512 409 300 396 394 298 200 286
8 401 305 205 291 514 411 300 396
8 515 412 301 397 398 302 202 288
8 405 309 209 295 515 412 301 397
8 516 413 302 398 399 303 203 289
8 403 306 414 517 293 206 303 399
8 402 307 207 292 518 415 304 400
8 401 305 415 518 291 205 304 400
8 404 308 208 294 520 418 307 402
8 521 417 306 403 404 308 208 294
8 406 310 210 296 523 420 309 405
8 526 423 311 407 406 310 210 296
8 410 314 213 299 527 424 312 408
8 528 425 315 411 409 313 214 300
8 410 314 425 528 299 213 313 409
8 416 317 216 305 530 427 315 411
8 531 430 318 412 413 320 219 302
8 420 325 223 309 531 430 318 412
8 532 432 320 413 414 321 220 303
8 417 322 433 533 306 221 321 414
8 418 319 218 307 534 428 316 415
8 416 317 428 534 305 216 316 415
8 419 323 434 536 308 222 322 417
8 419 323 222 308 537 431 319 418
8 421 327 225 310 539 438 325 420
8 421 327 439 541 310 225 326 423
8 543 437 324 422 423 326 224 311
8 441 338 259 368 559 452 367 486
8 443 340 236 329 560 453 338 441
8 333 240 344 447 442 342 457 561
8 445 341 237 331 562 455 340 443
8 448 345 241 334 563 454 339 444
8 563 454 339 444 445 341 237 331
8 336 242 346 450 446 343 458 565
8 446 343 458 565 333 240 344 447
8 449 347 243 335 567 460 345 448
8 451 348 244 337 568 462 347 449
8 451 348 461 569 337 244 346 450
8 570 463 349 452 473 360 257 365
8 453 350 245 338 570 463 349 452
8 455 352 247 340 571 464 350 453
8 460 357 252 345 572 465 351 454
8 572 465 351 454 456 353 248 341
8 456 353 248 341 573 466 352 455
8 344 251 356 459 457 354 468 575
8 458 355 469 576 344 251 356 459
8 346 253 358 461 458 355 469 576
8 462 359 254 347 578 471 357 460
8 348 255 359 462 461 358 472 579
8 591 474 360 473 475 361 256 363
8 475 361 256 363 594 477 362 479
8 363 256 364 482 479 362 480 603
8 590 473 365 484 481 363 482 605
8 482 364 257 365 606 483 366 485
8 559 452 367 486 484 365 485 607
8 542 436 487 609 422 324 369 488
8 525 422 488 611 407 311 371 491
8 488 369 489 612 371 261 370 490
8 491 371 490 613 373 263 372 492
8 495 386 276 377 614 503 385 493
8 614 503 385 493 561 457 342 442
8 615 501 383 494 495 386 276 377
8 496 384 274 378 615 501 383 494
8 618 500 382 497 496 384 274 378
8 619 499 381 498 497 382 272 379
8 511 408 297 393 619 499 381 498
8 620 505 387 499 500 388 278 382
8 527 424 312 408 620 505 387 499
8 502 390 506 621 384 280 388 500
8 622 507 389 501 504 392 282 386
8 502 390 280 384 622 507 389 501
8 504 392 282 386 624 509 391 503
8 624 509 391 503 575 468 354 457
8 513 410 299 395 630 527 408 511
8 631 528 411 514 512 409 300 396
8 513 410 528 631 395 299 409 512
8 519 416 305 401 633 530 411 514
8 634 531 412 515 516 413 302 398
8 523 420 309 405 634 531 412 515
8 635 532 413 516 517 414 303 399
8 521 417 533 636 403 306 414 517
8 520 418 307 402 637 534 415 518
8 519 416 534 637 401 305 415 518
8 522 419 308 404 639 537 418 520
8 522 419 536 640 404 308 417 521
8 524 421 310 406 642 539 420 523
8 524 421 541 644 406 310 423 526
8 646 543 422 525 526 423 311 407
8 529 426 314 410 647 544 424 527
8 528 425 545 648 411 315 427 530
8 529 426 545 648 410 314 425 528
8 535 429 317 416 649 546 427 530
8 650 548 430 531 532 432 320 413
8 539 438 325 420 650 548 430 531
8 533 433 550 651 414 321 432 532
8 536 434 551 652 417 322 433 533
8 537 431 319 418 653 547 428 534
8 535 429 547 653 416 317 428 534
8 538 435 552 654 419 323 434 536
8 538 435 323 419 655 549 431 537
8 540 440 327 421 657 556 438 539
8 540 440 557 659 421 327 439 541
8 541 439 555 660 423 326 437 543
8 661 554 436 542 543 437 324 422
8 676 570 452 559 590 473 365 484
8 560 453 338 441 676 570 452 559
8 562 455 340 443 677 571 453 560
8 447 344 459 566 561 457 575 678
8 564 456 341 445 679 573 455 562
8 567 460 345 448 680 572 454 563
8 680 572 454 563 564 456 341 445
8 565 458 576 682 447 344 459 566
8 450 346 461 569 565 458 576 682
8 568 462 347 449 684 578 460 567
8 451 348 462 568 569 461 579 685
8 686 580 463 570 591 474 360 473
8 571 464 350 453 686 580 463 570
8 573 466 352 455 687 581 464 571
8 572 465 582 688 460 357 471 578
8 574 467 582 688 456 353 465 572
8 574 467 353 456 689 583 466 573
8 459 356 470 577 575 468 585 691
8 576 469 586 692 459 356 470 577
8 461 358 472 579 576 469 586 692
8 462 359 471 578 579 472 588 694
8 704 591 473 590 593 475 363 481
8 595 476 592 705 475 361 474 591
8 593 475 363 481 707 594 479 602
8 594 477 362 479 709 598 478 600
8 595 476 361 475 711 597 477 594
8 479 362 480 603 600 478 601 720
8 481 363 482 605 602 479 603 722
8 603 480 364 482 723 604 483 606
8 605 482 365 484 724 606 485 607
8 656 553 608 726 542 436 487 609
8 645 542 609 728 525 422 488 611
8 609 487 610 729 488 369 489 612
8 611 488 612 730 491 371 490 613
8 616 504 386 495 731 624 503 614
8 731 624 503 614 678 575 457 561
8 732 622 501 615 616 504 386 495
8 617 502 384 496 732 622 501 615
8 617 502 621 735 496 384 500 618
8 736 620 499 619 618 500 382 497
8 630 527 408 511 736 620 499 619
8 621 506 626 737 500 388 505 620
8 647 544 424 527 737 626 505 620
8 623 508 627 738 502 390 506 621
8 623 508 390 502 739 628 507 622
8 625 510 628 739 504 392 507 622
8 740 629 509 624 691 585 468 575
8 625 510 392 504 740 629 509 624
8 632 529 410 513 744 647 527 630
8 631 528 648 745 514 411 530 633
8 632 529 648 745 513 410 528 631
8 638 535 416 519 746 649 530 633
8 747 650 531 634 635 532 413 516
8 642 539 420 523 747 650 531 634
8 636 533 651 748 517 414 532 635
8 640 536 652 749 521 417 533 636
8 639 537 418 520 750 653 534 637
8 638 535 653 750 519 416 534 637
8 641 538 419 522 751 655 537 639
8 641 538 654 752 522 419 536 640
8 643 540 421 524 753 657 539 642
8 643 540 659 755 524 421 541 644
8 644 541 660 757 526 423 543 646
8 758 661 542 645 646 543 422 525
8 529 426 544 647 648 545 662 759
8 530 427 545 648 649 546 663 760
8 535 429 546 649 653 547 664 761
8 762 666 548 650 651 550 432 532
8 657 556 438 539 762 666 548 650
8 652 551 668 763 533 433 550 651
8 654 552 669 764 536 434 551 652
8 655 549 431 537 765 665 547 653
8 538 435 549 655 654 552 667 766
8 661 554 671 768 542 436 553 656
8 658 558 440 540 769 674 556 657
8 658 558 675 770 540 440 557 659
8 659 557 673 771 541 439 555 660
8 660 555 672 772 543 437 554 661
8 788 686 570 676 704 591 473 590
8 677 571 453 560 788 686 570 676
8 679 573 455 562 789 687 571 677
8 566 459 577 683 678 575 691 790
8 681 574 456 564 791 689 573 679
8 680 572 688 792 567 460 578 684
8 681 574 688 792 564 456 572 680
8 682 576 692 794 566 459 577 683
8 569 461 579 685 682 576 692 794
8 568 462 578 684 685 579 694 796
8 687 581 464 571 798 696 580 686
8 798 696 580 686 705 592 474 591
8 689 583 466 573 799 697 581 687
8 688 582 698 800 578 471 588 694
8 690 584 698 800 574 467 582 688
8 690 584 467 574 801 699 583 689
8 693 587 701 803 577 470 585 691
8 693 587 470 577 804 702 586 692
8 695 589 702 804 579 472 586 692
8 695 589 472 579 805 703 588 694
8 708 595 705 813 593 475 591 704
8 710 596 706 814 595 476 592 705
8 707 594 479 602 816 709 600 719
8 708 595 475 593 817 711 594 707
8 709 598 478 600 819 715 599 717
8 711 597 477 594 820 714 598 709
8 710 596 476 595 822 713 597 711
8 600 478 601 720 717 599 718 832
8 602 479 603 722 719 600 720 834
8 720 601 480 603 835 721 604 723
8 722 603 482 605 836 723 606 724
8 767 670 725 839 656 553 608 726
8 756 656 726 841 645 542 609 728
8 726 608 727 842 609 487 610 729
8 728 609 729 843 611 488 612 730
8 844 740 624 731 790 691 575 678
8 733 625 504 616 844 740 624 731
8 734 623 502 617 845 739 622 732
8 733 625 739 845 616 504 622 732
8 734 623 738 846 617 502 621 735
8 735 621 737 847 618 500 620 736
8 744 647 527 630 847 737 620 736
8 621 506 627 738 737 626 741 848
8 647 544 626 737 759 662 741 848
8 623 508 628 739 738 627 742 849
8 740 629 585 691 850 743 700 802
8 625 510 629 740 739 628 743 850
8 632 529 647 744 745 648 759 854
8 633 530 648 745 746 649 760 855
8 638 535 649 746 750 653 761 856
8 857 762 650 747 748 651 532 635
8 753 657 539 642 857 762 650 747
8 749 652 763 858 636 533 651 748
8 752 654 764 859 640 536 652 749
8 751 655 537 639 860 765 653 750
8 641 538 655 751 752 654 766 861
8 754 658 540 643 862 769 657 753
8 754 658 770 863 643 540 659 755
8 755 659 771 864 644 541 660 757
8 758 661 768 866 645 542 656 756
8 757 660 772 867 646 543 661 758
8 759 662 773 868 648 545 663 760
8 649 546 663 760 761 664 774 871
8 765 665 547 653 872 775 664 761
8 873 777 666 762 763 668 550 651
8 769 674 556 657 873 777 666 762
8 764 669 779 874 652 551 668 763
8 654 552 667 766 764 669 778 875
8 655 549 665 765 766 667 776 876
8 768 671 782 877 656 553 670 767
8 772 672 783 878 661 554 671 768
8 658 558 674 769 770 675 786 879
8 659 557 675 770 771 673 785 881
8 882 784 672 772 771 673 555 660
8 789 687 571 677 897 798 686 788
8 897 798 686 788 813 705 591 704
8 791 689 573 679 898 799 687 789
8 795 693 803 900 683 577 691 790
8 793 690 574 681 901 801 689 791
8 792 688 800 902 684 578 694 796
8 793 690 800 902 681 574 688 792
8 795 693 577 683 903 804 692 794
8 797 695 804 903 685 579 692 794
8 797 695 579 685 904 805 694 796
8 905 806 697 799 798 696 581 687
8 814 706 806 905 705 592 696 798
8 689 583 697 799 801 699 808 907
8 800 698 809 908 694 588 703 805
8 690 584 699 801 800 698 809 908
8 803 701 810 909 691 585 700 802
8 693 587 702 804 803 701 811 910
8 695 589 703 805 804 702 812 911
8 818 710 814 919 708 595 705 813
8 821 712 815 920 710 596 706 814
8 816 709 600 719 922 819 717 831
8 817 711 594 707 923 820 709 816
8 818 710 595 708 924 822 711 817
8 819 715 599 717 926 827 716 829
8 820 714 598 709 927 826 715 819
8 929 825 713 822 820 714 597 711
8 821 712 596 710 930 824 713 822
8 717 599 718 832 829 716 830 942
8 719 600 720 834 831 717 832 944
8 832 718 601 720 945 833 721 835
8 834 720 603 722 946 835 723 836
8 869 780 838 950 767 670 725 839
8 865 767 839 952 756 656 726 841
8 839 725 840 953 726 608 727 842
8 841 726 842 954 728 609 729 843
8 844 740 691 790 955 850 802 899
8 733 625 740 844 845 739 850 955
8 734 623 739 845 846 738 849 956
8 735 621 738 846 847 737 848 957
8 744 647 737 847 854 759 848 957
8 738 627 742 849 848 741 851 958
8 848 741 851 958 759 662 773 868
8 850 743 700 802 959 852 807 906
8 849 742 628 739 959 852 743 850
8 854 759 868 965 745 648 760 855
8 746 649 760 855 856 761 871 966
8 860 765 653 750 967 872 761 856
8 968 873 762 857 858 763 651 748
8 862 769 657 753 968 873 762 857
8 859 764 874 969 749 652 763 858
8 752 654 766 861 859 764 875 970
8 751 655 765 860 861 766 876 971
8 754 658 769 862 863 770 879 972
8 755 659 770 863 864 771 881 974
8 976 882 772 867 864 771 660 757
8 866 768 877 977 756 656 767 865
8 867 772 878 978 758 661 768 866
8 760 663 773 868 871 774 883 980
8 870 781 837 948 982 890 780 869
8 982 890 780 869 877 782 670 767
8 761 664 774 871 872 775 884 984
8 876 776 665 765 985 885 775 872
8 873 777 668 763 986 887 779 874
8 769 674 777 873 879 786 887 986
8 764 669 778 875 874 779 888 987
8 766 667 776 876 875 778 886 988
8 878 783 892 989 768 671 782 877
8 878 783 672 772 990 893 784 882
8 880 787 675 770 991 896 786 879
8 880 787 895 992 770 675 785 881
8 881 785 894 993 771 673 784 882
8 1006 905 799 898 897 798 687 789
8 919 814 905 1006 813 705 798 897
8 791 689 799 898 901 801 907 1007
8 900 803 909 1009 790 691 802 899
8 795 693 804 903 900 803 910 1010
8 902 800 908 1011 796 694 805 904
8 793 690 801 901 902 800 908 1011
8 797 695 805 904 903 804 911 1012
8 799 697 806 905 907 808 912 1013
8 920 815 912 1013 814 706 806 905
8 802 700 810 909 906 807 913 1014
8 801 699 808 907 908 809 914 1015
8 805 703 809 908 911 812 915 1016
8 803 701 811 910 909 810 916 1017
8 911 812 917 1018 804 702 811 910
8 925 821 920 1030 818 710 814 919
8 928 823 921 1031 821 712 815 920
8 922 819 717 831 1033 926 829 941
8 923 820 709 816 1034 927 819 922
8 1035 929 822 924 923 820 711 817
8 925 821 710 818 1036 930 822 924
8 1038 933 825 929 927 826 714 820
8 926 827 716 829 1039 935 828 939
8 927 826 715 819 1040 934 827 926
8 928 823 712 821 1041 931 824 930
8 1042 932 824 930 929 825 713 822
8 829 716 830 942 939 828 940 1058
8 831 717 832 944 941 829 942 1060
8 942 830 718 832 1061 943 833 945
8 944 832 720 834 1062 945 835 946
8 981 889 947 1064 870 781 837 948
8 948 837 949 1067 869 780 838 950
8 975 869 950 1069 865 767 839 952
8 950 838 951 1070 839 725 840 953
8 952 839 953 1071 841 726 842 954
8 955 850 802 899 1072 959 906 1008
8 956 849 739 845 1072 959 850 955
8 846 738 849 956 957 848 958 1073
8 957 848 958 1073 854 759 868 965
8 849 742 852 959 958 851 961 1076
8 960 853 961 1076 906 807 852 959
8 958 851 961 1076 868 773 883 980
8 960 853 807 906 1077 963 913 1014
8 855 760 868 965 966 871 980 1085
8 856 761 871 966 967 872 984 1086
8 971 876 765 860 1087 985 872 967
8 968 873 763 858 1088 986 874 969
8 862 769 873 968 972 879 986 1088
8 859 764 875 970 969 874 987 1089
8 861 766 876 971 970 875 988 1090
8 973 880 770 863 1091 991 879 972
8 973 880 992 1092 863 770 881 974
8 974 881 993 1093 864 771 882 976
8 979 870 948 1066 1094 982 869 975
8 1094 982 869 975 977 877 767 865
8 978 878 772 867 1095 990 882 976
8 978 878 989 1096 866 768 877 977
8 871 774 883 980 984 884 994 1099
8 983 891 999 1100 870 781 889 981
8 1101 1000 890 982 989 892 782 877
8 983 891 781 870 1101 1000 890 982
8 872 775 884 984 985 885 995 1103
8 876 776 885 985 988 886 996 1104
8 986 887 779 874 1105 998 888 987
8 879 786 887 986 991 896 998 1105
8 875 778 886 988 987 888 997 1106
8 990 893 1002 1107 878 783 892 989
8 1108 1003 893 990 993 894 784 882
8 880 787 896 991 992 895 1005 1109
8 993 894 785 881 1110 1004 895 992
8 898 799 905 1006 1007 907 1013 1120
8 1030 920 1013 1120 919 814 905 1006
8 901 801 907 1007 1011 908 1015 1121
8 899 802 909 1009 1008 906 1014 1122
8 900 803 910 1010 1009 909 1017 1123
8 1012 911 1018 1124 903 804 910 1010
8 904 805 908 1011 1012 911 1016 1125
8 1013 912 1020 1127 907 808 914 1015
8 1031 921 1020 1127 920 815 912 1013
8 1019 918 962 1075 1128 1021 913 1014
8 1128 1021 913 1014 1017 916 810 909
8 1015 914 1022 1129 908 809 915 1016
8 1016 915 1023 1130 911 812 917 1018
8 1018 917 1024 1131 910 811 916 1017
8 1037 928 1031 1148 925 821 920 1030
8 928 823 931 1041 1031 921 1032 1149
8 1033 926 829 941 1151 1039 939 1057
8 1034 927 819 922 1152 1040 926 1033
8 1153 1038 929 1035 1034 927 820 923
8 1154 1042 930 1036 1035 929 822 924
8 1037 928 821 925 1155 1041 930 1036
8 1039 935 828 939 1156 1047 938 1055
8 1157 1043 932 1042 1038 933 825 929
8 1038 933 826 927 1158 1045 934 1040
8 1040 934 827 926 1159 1046 935 1039
8 930 824 932 1042 1041 931 1044 1160
8 1051 936 1048 1165 1175 1052 937 1053
8 1156 1047 938 1055 1053 937 1054 1178
8 939 828 940 1058 1055 938 1056 1181
8 941 829 942 1060 1057 939 1058 1183
8 942 830 943 1061 1058 940 1059 1184
8 1060 942 832 944 1185 1061 945 1062
8 1082 964 1063 1188 981 889 947 1064
8 1097 981 1064 1190 979 870 948 1066
8 1064 947 1065 1191 948 837 949 1067
8 1066 948 1067 1193 975 869 950 1069
8 1067 949 1068 1194 950 838 951 1070
8 1069 950 1070 1195 952 839 953 1071
8 956 849 959 1072 1073 958 1076 1197
8 1074 960 1076 1197 1008 906 959 1072
8 1073 958 1076 1197 965 868 980 1085
8 1074 960 906 1008 1198 1077 1014 1122
8 1133 1026 1079 1199 1019 918 962 1075
8 1077 963 913 1014 1200 1080 962 1075
8 960 853 963 1077 1076 961 1078 1201
8 980 883 961 1076 1099 994 1078 1201
8 1210 1083 964 1082 1100 999 889 981
8 966 871 980 1085 1086 984 1099 1215
8 967 872 984 1086 1087 985 1103 1216
8 971 876 985 1087 1090 988 1104 1217
8 1088 986 874 969 1218 1105 987 1089
8 972 879 986 1088 1091 991 1105 1218
8 970 875 988 1090 1089 987 1106 1219
8 973 880 991 1091 1092 992 1109 1220
8 1093 993 881 974 1221 1110 992 1092
8 1222 1108 990 1095 1093 993 882 976
8 1223 1101 982 1094 1096 989 877 977
8 1098 983 870 979 1223 1101 982 1094
8 1095 990 1107 1224 978 878 989 1096
8 1098 983 1100 1225 979 870 981 1097
8 984 884 994 1099 1103 995 1111 1227
8 1102 1001 1115 1228 983 891 999 1100
8 1101 1000 892 989 1229 1116 1002 1107
8 1102 1001 891 983 1229 1116 1000 1101
8 985 885 995 1103 1104 996 1112 1230
8 988 886 996 1104 1106 997 1113 1231
8 1105 998 888 987 1232 1114 997 1106
8 991 896 998 1105 1109 1005 1114 1232
8 1108 1003 1117 1233 990 893 1002 1107
8 1108 1003 894 993 1233 1117 1004 1110
8 992 895 1005 1109 1110 1004 1118 1234
8 1120 1013 1127 1244 1007 907 1015 1121
8 1148 1031 1127 1244 1030 920 1013 1120
8 1121 1015 1129 1245 1011 908 1016 1125
8 1126 1019 1075 1196 1246 1128 1014 1122
8 1246 1128 1014 1122 1123 1017 909 1009
8 1124 1018 1131 1247 1010 910 1017 1123
8 1125 1016 1130 1248 1012 911 1018 1124
8 1127 1020 1137 1254 1015 914 1022 1129
8 1031 921 1032 1149 1127 1020 1137 1254
8 1134 1027 918 1019 1257 1140 1021 1128
8 1257 1140 1021 1128 1131 1024 916 1017
8 1129 1022 1141 1258 1016 915 1023 1130
8 1130 1023 1142 1259 1018 917 1024 1131
8 1261 1144 1025 1132 1133 1026 1079 1199
8 1255 1138 1025 1132 1135 1028 1144 1261
8 1133 1026 918 1019 1262 1145 1027 1134
8 1136 1029 1139 1256 1263 1146 1028 1135
8 1037 928 1041 1155 1148 1031 1149 1275
8 1041 931 1044 1160 1149 1032 1150 1276
8 1151 1039 939 1057 1278 1156 1055 1180
8 1152 1040 926 1033 1279 1159 1039 1151
8 1153 1038 927 1034 1280 1158 1040 1152
8 1281 1157 1042 1154 1153 1038 929 1035
8 1036 930 1042 1154 1155 1041 1160 1282
8 1283 1164 1046 1159 1156 1047 935 1039
8 1165 1048 1164 1283 1053 937 1047 1156
8 1157 1043 933 1038 1284 1161 1045 1158
8 1157 1043 1161 1284 1042 932 1044 1160
8 1040 934 1046 1159 1158 1045 1163 1285
8 1166 1049 1167 1292 1051 936 1048 1165
8 1166 1049 936 1051 1293 1168 1050 1172
8 1051 936 1052 1175 1172 1050 1173 1306
8 1174 1051 1165 1290 1308 1175 1053 1177
8 1053 937 1054 1178 1175 1052 1176 1309
8 1278 1156 1055 1180 1177 1053 1178 1311
8 1055 938 1056 1181 1178 1054 1179 1312
8 1057 939 1058 1183 1180 1055 1181 1314
8 1058 940 1059 1184 1181 1056 1182 1315
8 1060 942 1061 1185 1183 1058 1184 1316
8 1208 1081 1187 1321 1082 964 1063 1188
8 1209 1082 1188 1322 1097 981 1064 1190
8 1188 1063 1189 1323 1064 947 1065 1191
8 1190 1064 1191 1325 1066 948 1067 1193
8 1191 1065 1192 1326 1067 949 1068 1194
8 1067 1193 1069 950 1194 1327 1195 1070
8 1250 1133 1199 1330 1126 1019 1075 1196
8 1198 1077 1014 1122 1331 1200 1075 1196
8 1074 960 1077 1198 1197 1076 1201 1332
8 1085 980 1076 1197 1215 1099 1201 1332
8 1199 1079 1203 1333 1075 962 1080 1200
8 1132 1025 1119 1243 1199 1079 1203 1333
8 1201 1078 963 1077 1334 1202 1080 1200
8 1099 994 1078 1201 1227 1111 1202 1334
8 1343 1207 1081 1208 1210 1083 964 1082
8 1214 1084 1186 1319 1343 1207 1081 1208
8 1345 1210 1082 1209 1225 1100 981 1097
8 1346 1211 1083 1210 1228 1115 999 1100
8 1086 984 1099 1215 1216 1103 1227 1352
8 1087 985 1103 1216 1217 1104 1230 1353
8 1090 988 1104 1217 1219 1106 1231 1354
8 1218 1105 987 1089 1355 1232 1106 1219
8 1091 991 1105 1218 1220 1109 1232 1355
8 1092 992 1109 1220 1221 1110 1234 1356
8 1222 1108 1233 1357 1095 990 1107 1224
8 1222 1108 993 1093 1357 1233 1110 1221
8 1223 1101 989 1096 1358 1229 1107 1224
8 1226 1102 983 1098 1358 1229 1101 1223
8 1226 1102 1228 1359 1098 983 1100 1225
8 1103 995 1111 1227 1230 1112 1235 1360
8 1107 1002 1117 1233 1229 1116 1240 1362
8 1102 1001 1116 1229 1228 1115 1240 1362
8 1104 996 1112 1230 1231 1113 1236 1363
8 1364 1237 1114 1232 1231 1113 997 1106
8 1109 1005 1114 1232 1234 1118 1238 1365
8 1110 1004 1118 1234 1233 1117 1241 1366
8 1242 1374 1255 1138 1119 1243 1132 1025
8 1244 1127 1254 1376 1121 1015 1129 1245
8 1148 1031 1149 1275 1244 1127 1254 1376
8 1245 1129 1258 1377 1125 1016 1130 1248
8 1251 1134 1019 1126 1378 1257 1128 1246
8 1378 1257 1128 1246 1247 1131 1017 1123
8 1248 1130 1259 1379 1124 1018 1131 1247
8 1261 1381 1250 1133 1132 1249 1330 1199
8 1255 1380 1252 1135 1132 1249 1381 1261
8 1250 1133 1019 1126 1382 1262 1134 1251
8 1253 1136 1256 1385 1384 1263 1135 1252
8 1254 1137 1265 1387 1129 1022 1141 1258
8 1149 1032 1150 1276 1254 1137 1265 1387
8 1028 1135 1255 1138 1139 1256 1388 1266
8 1136 1029 1147 1264 1256 1139 1267 1389
8 1390 1268 1140 1257 1259 1142 1024 1131
8 1260 1143 1027 1134 1390 1268 1140 1257
8 1258 1141 1269 1391 1130 1023 1142 1259
8 1262 1145 1027 1134 1393 1271 1143 1260
8 1261 1144 1026 1133 1394 1272 1145 1262
8 1135 1028 1144 1261 1263 1146 1272 1394
8 1136 1029 1146 1263 1264 1147 1273 1395
8 1155 1041 1160 1282 1275 1149 1276 1405
8 1276 1150 1044 1160 1406 1277 1162 1286
8 1408 1283 1159 1279 1278 1156 1039 1151
8 1290 1165 1283 1408 1177 1053 1156 1278
8 1152 1040 1159 1279 1280 1158 1285 1409
8 1281 1157 1038 1153 1410 1284 1158 1280
8 1281 1157 1284 1410 1154 1042 1160 1282
8 1159 1046 1164 1283 1285 1163 1289 1412
8 1292 1167 1289 1412 1165 1048 1164 1283
8 1158 1045 1163 1285 1284 1161 1288 1413
8 1284 1161 1288 1413 1160 1044 1162 1286
8 1291 1166 1292 1418 1174 1051 1165 1290
8 1291 1166 1051 1174 1419 1293 1172 1305
8 1294 1169 1296 1421 1166 1049 1167 1292
8 1293 1168 1050 1172 1422 1295 1171 1303
8 1294 1169 1049 1166 1423 1297 1168 1293
8 1422 1295 1171 1303 1301 1170 1302 1435
8 1172 1050 1173 1306 1303 1171 1304 1438
8 1174 1051 1175 1308 1305 1172 1306 1440
8 1175 1052 1176 1309 1306 1173 1307 1441
8 1177 1053 1178 1311 1308 1175 1309 1443
8 1178 1054 1179 1312 1309 1176 1310 1444
8 1180 1055 1181 1314 1311 1178 1312 1446
8 1056 1181 1312 1179 1182 1315 1447 1313
8 1183 1058 1184 1316 1314 1181 1315 1448
8 1319 1186 1084 1214 1451 1317 1213 1350
8 1319 1186 1318 1453 1208 1081 1187 1321
8 1321 1187 1320 1456 1188 1063 1189 1323
8 1344 1208 1321 1457 1209 1082 1188 1322
8 1322 1188 1323 1458 1190 1064 1191 1325
8 1323 1189 1324 1459 1191 1065 1192 1326
8 1191 1325 1193 1067 1326 1460 1327 1194
8 1242 1374 1243 1119 1328 1462 1335 1204
8 1330 1199 1333 1465 1196 1075 1200 1331
8 1132 1249 1330 1199 1243 1375 1465 1333
8 1332 1201 1077 1198 1466 1334 1200 1331
8 1215 1099 1201 1332 1352 1227 1334 1466
8 1119 1243 1333 1203 1204 1335 1470 1338
8 1333 1203 1338 1470 1200 1080 1202 1334
8 1227 1111 1202 1334 1360 1235 1338 1470
8 1328 1462 1335 1204 1205 1336 1471 1339
8 1337 1206 1340 1472 1464 1329 1205 1336
8 1346 1211 1342 1479 1210 1083 1207 1343
8 1346 1211 1115 1228 1479 1342 1239 1361
8 1348 1212 1084 1214 1479 1342 1207 1343
8 1480 1343 1208 1344 1345 1210 1082 1209
8 1351 1214 1319 1454 1480 1343 1208 1344
8 1481 1346 1210 1345 1359 1228 1100 1225
8 1348 1212 1347 1483 1214 1084 1213 1350
8 1216 1103 1227 1352 1353 1230 1360 1488
8 1217 1104 1230 1353 1354 1231 1363 1489
8 1490 1364 1232 1355 1354 1231 1106 1219
8 1220 1109 1232 1355 1356 1234 1365 1491
8 1221 1110 1234 1356 1357 1233 1366 1492
8 1224 1107 1233 1357 1358 1229 1362 1493
8 1226 1102 1229 1358 1359 1228 1362 1493
8 1230 1112 1235 1360 1363 1236 1367 1496
8 1361 1239 1115 1228 1497 1371 1240 1362
8 1366 1241 1372 1498 1233 1117 1240 1362
8 1364 1237 1113 1231 1499 1368 1236 1363
8 1364 1237 1368 1499 1232 1114 1238 1365
8 1234 1118 1238 1365 1366 1241 1369 1500
8 1507 1373 1242 1374 1388 1266 1138 1255
8 1508 1374 1243 1375 1380 1255 1132 1249
8 1376 1254 1387 1509 1245 1129 1258 1377
8 1275 1149 1276 1405 1376 1254 1387 1509
8 1377 1258 1391 1510 1248 1130 1259 1379
8 1511 1390 1257 1378 1379 1259 1131 1247
8 1383 1260 1134 1251 1511 1390 1257 1378
8 1252 1135 1256 1385 1380 1255 1388 1512
8 1261 1381 1513 1394 1133 1250 1382 1262
8 1135 1252 1384 1263 1261 1381 1513 1394
8 1382 1262 1134 1251 1514 1393 1260 1383
8 1253 1136 1263 1384 1386 1264 1395 1516
8 1253 1136 1264 1386 1385 1256 1389 1517
8 1387 1265 1397 1519 1258 1141 1269 1391
8 1276 1150 1277 1406 1387 1265 1397 1519
8 1256 1139 1267 1389 1388 1266 1398 1520
8 1264 1147 1274 1396 1389 1267 1399 1521
8 1392 1270 1143 1260 1522 1400 1268 1390
8 1390 1268 1142 1259 1522 1400 1269 1391
8 1392 1270 1401 1523 1260 1143 1271 1393
8 1272 1394 1524 1402 1145 1262 1393 1271
8 1395 1273 1146 1263 1524 1402 1272 1394
8 1273 1395 1264 1147 1403 1526 1396 1274
8 1405 1276 1160 1282 1534 1406 1286 1411
8 1414 1287 1407 1535 1286 1162 1277 1406
8 1279 1159 1283 1408 1409 1285 1412 1537
8 1418 1292 1412 1537 1290 1165 1283 1408
8 1280 1158 1285 1409 1410 1284 1413 1538
8 1410 1284 1413 1538 1282 1160 1286 1411
8 1285 1163 1289 1412 1413 1288 1417 1540
8 1421 1296 1417 1540 1292 1167 1289 1412
8 1414 1287 1162 1286 1541 1416 1288 1413
8 1420 1294 1421 1545 1291 1166 1292 1418
8 1419 1293 1172 1305 1546 1422 1303 1437
8 1420 1294 1166 1291 1547 1423 1293 1419
8 1294 1169 1297 1423 1421 1296 1425 1548
8 1423 1297 1168 1293 1549 1424 1295 1422
8 1301 1170 1298 1427 1422 1295 1424 1549
8 1432 1300 1428 1554 1301 1170 1298 1427
8 1431 1299 1428 1554 1560 1430 1300 1432
8 1563 1433 1300 1432 1435 1302 1170 1301
8 1546 1422 1303 1437 1434 1301 1435 1565
8 1303 1171 1304 1438 1435 1302 1436 1566
8 1305 1172 1306 1440 1437 1303 1438 1568
8 1306 1173 1307 1441 1438 1304 1439 1569
8 1308 1175 1309 1443 1440 1306 1441 1571
8 1309 1176 1310 1444 1441 1307 1442 1572
8 1311 1178 1312 1446 1443 1309 1444 1574
8 1179 1312 1444 1310 1313 1447 1575 1445
8 1314 1181 1315 1448 1446 1312 1447 1576
8 1350 1213 1349 1486 1451 1317 1449 1579
8 1451 1317 1450 1581 1319 1186 1318 1453
8 1454 1319 1214 1351 1582 1451 1350 1487
8 1453 1318 1452 1584 1321 1187 1320 1456
8 1454 1319 1453 1585 1344 1208 1321 1457
8 1456 1320 1455 1586 1323 1189 1324 1459
8 1457 1321 1456 1587 1322 1188 1323 1458
8 1458 1323 1459 1588 1325 1191 1326 1460
8 1205 1336 1464 1329 1328 1462 1590 1461
8 1507 1373 1461 1590 1374 1242 1328 1462
8 1508 1374 1462 1591 1375 1243 1335 1467
8 1337 1206 1329 1464 1473 1341 1463 1594
8 1375 1243 1335 1467 1465 1333 1470 1596
8 1465 1333 1470 1596 1331 1200 1334 1466
8 1352 1227 1334 1466 1488 1360 1470 1596
8 1591 1462 1336 1468 1467 1335 1471 1597
8 1469 1337 1472 1598 1595 1464 1336 1468
8 1471 1339 1474 1600 1335 1204 1338 1470
8 1600 1474 1367 1496 1470 1338 1235 1360
8 1336 1205 1340 1472 1471 1339 1475 1601
8 1337 1206 1341 1473 1472 1340 1476 1602
8 1495 1370 1478 1609 1361 1239 1342 1479
8 1348 1212 1342 1479 1483 1347 1478 1609
8 1481 1346 1479 1610 1345 1210 1343 1480
8 1481 1346 1228 1359 1610 1479 1361 1494
8 1484 1348 1214 1351 1610 1479 1343 1480
8 1483 1347 1482 1612 1350 1213 1349 1486
8 1484 1348 1483 1613 1351 1214 1350 1487
8 1353 1230 1360 1488 1489 1363 1496 1616
8 1490 1364 1231 1354 1617 1499 1363 1489
8 1490 1364 1499 1617 1355 1232 1365 1491
8 1356 1234 1365 1491 1492 1366 1500 1619
8 1492 1366 1498 1620 1357 1233 1362 1493
8 1494 1361 1228 1359 1621 1497 1362 1493
8 1495 1370 1239 1361 1622 1504 1371 1497
8 1363 1236 1367 1496 1499 1368 1501 1623
8 1497 1371 1240 1362 1624 1505 1372 1498
8 1625 1503 1372 1498 1500 1369 1241 1366
8 1365 1238 1368 1499 1500 1369 1502 1626
8 1520 1398 1506 1633 1388 1266 1373 1507
8 1634 1507 1374 1508 1512 1388 1255 1380
8 1509 1387 1519 1635 1377 1258 1391 1510
8 1405 1276 1406 1534 1509 1387 1519 1635
8 1515 1392 1260 1383 1636 1522 1390 1511
8 1511 1390 1259 1379 1636 1522 1391 1510
8 1385 1256 1389 1517 1512 1388 1520 1637
8 1513 1394 1262 1382 1638 1524 1393 1514
8 1395 1516 1638 1524 1263 1384 1513 1394
8 1515 1392 1523 1639 1383 1260 1393 1514
8 1516 1395 1526 1640 1386 1264 1396 1518
8 1386 1264 1396 1518 1517 1389 1521 1641
8 1519 1397 1527 1643 1391 1269 1400 1522
8 1535 1407 1527 1643 1406 1277 1397 1519
8 1389 1267 1399 1521 1520 1398 1528 1644
8 1645 1529 1399 1521 1525 1404 1274 1396
8 1392 1270 1400 1522 1523 1401 1531 1646
8 1524 1402 1271 1393 1648 1532 1401 1523
8 1403 1526 1648 1532 1273 1395 1524 1402
8 1525 1404 1274 1396 1649 1533 1403 1526
8 1539 1414 1535 1657 1411 1286 1406 1534
8 1542 1415 1536 1658 1414 1287 1407 1535
8 1409 1285 1412 1537 1538 1413 1540 1660
8 1545 1421 1540 1660 1418 1292 1412 1537
8 1539 1414 1286 1411 1661 1541 1413 1538
8 1540 1417 1544 1663 1413 1288 1416 1541
8 1421 1296 1425 1548 1540 1417 1544 1663
8 1542 1415 1287 1414 1664 1543 1416 1541
8 1420 1294 1423 1547 1545 1421 1548 1666
8 1547 1423 1293 1419 1667 1549 1422 1546
8 1434 1301 1427 1553 1546 1422 1549 1667
8 1423 1297 1424 1549 1548 1425 1550 1668
8 1551 1426 1550 1668 1427 1298 1424 1549
8 1551 1426 1298 1427 1671 1552 1428 1554
8 1562 1432 1554 1674 1434 1301 1427 1553
8 1431 1299 1429 1558 1554 1428 1555 1675
8 1431 1299 1430 1560 1558 1429 1557 1680
8 1560 1430 1300 1432 1683 1559 1433 1563
8 1561 1431 1554 1674 1684 1560 1432 1562
8 1685 1563 1432 1562 1565 1435 1301 1434
8 1435 1302 1436 1566 1563 1433 1564 1686
8 1437 1303 1438 1568 1565 1435 1566 1688
8 1438 1304 1439 1569 1566 1436 1567 1689
8 1440 1306 1441 1571 1568 1438 1569 1691
8 1441 1307 1442 1572 1569 1439 1570 1692
8 1443 1309 1444 1574 1571 1441 1572 1694
8 1310 1444 1572 1442 1445 1575 1695 1573
8 1446 1312 1447 1576 1574 1444 1575 1696
8 1486 1349 1485 1614 1579 1449 1577 1699
8 1451 1317 1449 1579 1581 1450 1578 1701
8 1487 1350 1486 1615 1582 1451 1579 1702
8 1581 1450 1580 1704 1453 1318 1452 1584
8 1582 1451 1581 1705 1454 1319 1453 1585
8 1584 1452 1583 1706 1456 1320 1455 1586
8 1585 1453 1584 1707 1457 1321 1456 1587
8 1587 1456 1586 1708 1458 1323 1459 1588
8 1633 1506 1589 1710 1507 1373 1461 1590
8 1464 1329 1461 1590 1594 1463 1589 1710
8 1468 1336 1462 1591 1595 1464 1590 1711
8 1634 1507 1590 1711 1508 1374 1462 1591
8 1473 1341 1463 1594 1603 1477 1593 1716
8 1469 1337 1464 1595 1599 1473 1594 1717
8 1471 1597 1467 1335 1600 1718 1596 1470
8 1718 1600 1496 1616 1596 1470 1360 1488
8 1336 1468 1597 1471 1472 1598 1719 1601
8 1469 1337 1473 1599 1598 1472 1602 1720
8 1722 1604 1501 1623 1600 1474 1367 1496
8 1475 1601 1471 1339 1604 1722 1600 1474
8 1602 1476 1605 1723 1472 1340 1475 1601
8 1476 1602 1724 1606 1341 1473 1603 1477
8 1483 1347 1478 1609 1612 1482 1608 1731
8 1495 1370 1504 1622 1609 1478 1608 1731
8 1618 1495 1609 1732 1494 1361 1479 1610
8 1484 1348 1479 1610 1613 1483 1609 1732
8 1486 1349 1482 1612 1614 1485 1611 1733
8 1613 1483 1612 1734 1487 1350 1486 1615
8 1489 1363 1496 1616 1617 1499 1623 1736
8 1491 1365 1499 1617 1619 1500 1626 1737
8 1618 1495 1361 1494 1738 1622 1497 1621
8 1739 1625 1498 1620 1619 1500 1366 1492
8 1621 1497 1362 1493 1740 1624 1498 1620
8 1742 1631 1504 1622 1624 1505 1371 1497
8 1743 1628 1502 1626 1623 1501 1368 1499
8 1744 1630 1505 1624 1625 1503 1372 1498
8 1745 1629 1503 1625 1626 1502 1369 1500
8 1520 1398 1528 1644 1633 1506 1632 1751
8 1637 1520 1633 1752 1512 1388 1507 1634
8 1635 1519 1643 1753 1510 1391 1522 1636
8 1657 1535 1643 1753 1534 1406 1519 1635
8 1515 1392 1522 1636 1639 1523 1646 1754
8 1517 1389 1521 1641 1637 1520 1644 1755
8 1524 1638 1756 1648 1393 1514 1639 1523
8 1640 1526 1395 1516 1756 1648 1524 1638
8 1642 1525 1396 1518 1757 1649 1526 1640
8 1758 1645 1521 1641 1642 1525 1396 1518
8 1646 1531 1400 1522 1760 1650 1527 1643
8 1535 1407 1536 1658 1643 1527 1650 1760
8 1521 1399 1529 1645 1644 1528 1651 1761
8 1647 1530 1652 1762 1525 1404 1529 1645
8 1401 1523 1648 1532 1531 1646 1763 1655
8 1525 1404 1533 1649 1647 1530 1654 1765
8 1533 1649 1766 1656 1403 1526 1648 1532
8 1662 1542 1658 1774 1539 1414 1535 1657
8 1542 1415 1543 1664 1658 1536 1659 1775
8 1660 1540 1663 1777 1538 1413 1541 1661
8 1545 1421 1548 1666 1660 1540 1663 1777
8 1662 1542 1414 1539 1778 1664 1541 1661
8 1664 1543 1416 1541 1779 1665 1544 1663
8 1548 1425 1550 1668 1663 1544 1665 1779
8 1547 1423 1549 1667 1666 1548 1668 1781
8 1670 1551 1668 1781 1553 1427 1549 1667
8 1551 1426 1552 1671 1668 1550 1669 1782
8 1670 1551 1427 1553 1784 1671 1554 1674
8 1675 1555 1672 1785 1554 1428 1552 1671
8 1678 1556 1673 1789 1558 1429 1555 1675
8 1561 1431 1558 1681 1674 1554 1675 1790
8 1794 1677 1556 1678 1680 1557 1429 1558
8 1560 1430 1559 1683 1680 1557 1679 1797
8 1561 1431 1560 1684 1681 1558 1680 1798
8 1563 1433 1564 1686 1683 1559 1682 1800
8 1684 1560 1432 1562 1801 1683 1563 1685
8 1565 1435 1566 1688 1685 1563 1686 1802
8 1566 1436 1567 1689 1686 1564 1687 1803
8 1568 1438 1569 1691 1688 1566 1689 1805
8 1569 1439 1570 1692 1689 1567 1690 1806
8 1571 1441 1572 1694 1691 1569 1692 1808
8 1442 1572 1692 1570 1573 1695 1809 1693
8 1574 1444 1575 1696 1694 1572 1695 1810
8 1614 1485 1592 1712 1699 1577 1697 1813
8 1579 1449 1577 1699 1701 1578 1698 1815
8 1615 1486 1614 1735 1702 1579 1699 1816
8 1701 1578 1700 1818 1581 1450 1580 1704
8 1582 1451 1579 1702 1705 1581 1701 1819
8 1704 1580 1703 1820 1584 1452 1583 1706
8 1705 1581 1704 1821 1585 1453 1584 1707
8 1707 1584 1706 1822 1587 1456 1586 1708
8 1710 1589 1506 1633 1824 1709 1632 1751
8 1594 1463 1589 1710 1716 1593 1709 1824
8 1752 1633 1710 1825 1634 1507 1590 1711
8 1595 1464 1590 1711 1717 1594 1710 1825
8 1830 1714 1592 1712 1733 1611 1485 1614
8 1603 1477 1593 1716 1725 1607 1715 1834
8 1599 1473 1594 1717 1721 1603 1716 1835
8 1837 1722 1623 1736 1718 1600 1496 1616
8 1719 1601 1722 1837 1597 1471 1600 1718
8 1602 1720 1598 1472 1723 1838 1719 1601
8 1720 1602 1473 1599 1839 1724 1603 1721
8 1723 1605 1726 1840 1601 1475 1604 1722
8 1840 1726 1628 1743 1722 1604 1501 1623
8 1724 1606 1727 1841 1602 1476 1605 1723
8 1725 1607 1728 1842 1603 1477 1606 1724
8 1612 1482 1608 1731 1733 1611 1730 1849
8 1741 1627 1730 1849 1622 1504 1608 1731
8 1613 1483 1609 1732 1734 1612 1731 1850
8 1618 1495 1622 1738 1732 1609 1731 1850
8 1615 1486 1612 1734 1735 1614 1733 1851
8 1852 1743 1626 1737 1736 1623 1499 1617
8 1853 1745 1625 1739 1737 1626 1500 1619
8 1855 1742 1622 1738 1740 1624 1497 1621
8 1856 1744 1624 1740 1739 1625 1498 1620
8 1741 1627 1504 1622 1857 1746 1631 1742
8 1742 1631 1505 1624 1858 1749 1630 1744
8 1859 1747 1629 1745 1743 1628 1502 1626
8 1860 1748 1630 1744 1745 1629 1503 1625
8 1644 1528 1651 1761 1751 1632 1750 1865
8 1637 1520 1644 1755 1752 1633 1751 1866
8 1754 1646 1522 1636 1867 1760 1643 1753
8 1657 1535 1658 1774 1753 1643 1760 1867
8 1639 1523 1646 1754 1756 1648 1763 1868
8 1641 1521 1645 1758 1755 1644 1761 1869
8 1757 1649 1526 1640 1870 1766 1648 1756
8 1642 1525 1649 1757 1759 1647 1765 1871
8 1759 1647 1762 1872 1642 1525 1645 1758
8 1760 1650 1767 1874 1646 1531 1655 1763
8 1658 1536 1659 1775 1760 1650 1767 1874
8 1762 1652 1768 1875 1645 1529 1651 1761
8 1764 1653 1769 1876 1647 1530 1652 1762
8 1656 1766 1877 1773 1532 1648 1763 1655
8 1771 1879 1765 1654 1653 1764 1647 1530
8 1533 1649 1765 1654 1656 1766 1880 1772
8 1662 1542 1664 1778 1774 1658 1775 1887
8 1664 1543 1665 1779 1775 1659 1776 1888
8 1778 1664 1541 1661 1890 1779 1663 1777
8 1666 1548 1668 1781 1777 1663 1779 1890
8 1782 1669 1780 1891 1668 1550 1665 1779
8 1670 1551 1671 1784 1781 1668 1782 1893
8 1671 1552 1672 1785 1782 1669 1783 1894
8 1790 1675 1785 1896 1674 1554 1671 1784
8 1675 1555 1673 1789 1785 1672 1786 1897
8 1792 1676 1788 1903 1678 1556 1673 1789
8 1795 1678 1789 1904 1681 1558 1675 1790
8 1792 1676 1556 1678 1906 1791 1677 1794
8 1680 1557 1679 1797 1794 1677 1793 1909
8 1910 1794 1678 1795 1798 1680 1558 1681
8 1683 1559 1682 1800 1797 1679 1796 1912
8 1684 1560 1683 1801 1798 1680 1797 1913
8 1686 1564 1687 1803 1800 1682 1799 1915
8 1685 1563 1686 1802 1801 1683 1800 1916
8 1688 1566 1689 1805 1802 1686 1803 1917
8 1689 1567 1690 1806 1803 1687 1804 1918
8 1691 1569 1692 1808 1805 1689 1806 1920
8 1692 1570 1693 1809 1806 1690 1807 1921
8 1694 1572 1695 1810 1808 1692 1809 1922
8 1829 1713 1811 1926 1712 1592 1697 1813
8 1813 1697 1812 1928 1699 1577 1698 1815
8 1735 1614 1712 1828 1816 1699 1813 1929
8 1815 1698 1814 1931 1701 1578 1700 1818
8 1702 1579 1699 1816 1819 1701 1815 1932
8 1818 1700 1817 1933 1704 1580 1703 1820
8 1819 1701 1818 1934 1705 1581 1704 1821
8 1821 1704 1820 1935 1707 1584 1706 1822
8 1824 1709 1632 1751 1937 1823 1750 1865
8 1716 1593 1709 1824 1834 1715 1823 1937
8 1825 1710 1633 1752 1938 1824 1751 1866
8 1717 1594 1710 1825 1835 1716 1824 1938
8 1945 1830 1712 1828 1851 1733 1614 1735
8 1830 1714 1831 1946 1712 1592 1713 1829
8 1947 1832 1714 1830 1849 1730 1611 1733
8 1843 1729 1607 1725 1950 1833 1715 1834
8 1721 1603 1716 1835 1836 1725 1834 1951
8 1836 1725 1842 1953 1721 1603 1724 1839
8 1723 1838 1719 1601 1840 1954 1837 1722
8 1954 1840 1743 1852 1837 1722 1623 1736
8 1724 1839 1720 1602 1841 1955 1838 1723
8 1841 1727 1844 1956 1723 1605 1726 1840
8 1956 1844 1747 1859 1840 1726 1628 1743
8 1728 1842 1724 1606 1845 1957 1841 1727
8 1725 1607 1729 1843 1842 1728 1846 1958
8 1741 1627 1746 1857 1849 1730 1848 1965
8 1734 1612 1731 1850 1851 1733 1849 1966
8 1854 1741 1849 1966 1738 1622 1731 1850
8 1967 1859 1745 1853 1852 1743 1626 1737
8 1968 1860 1744 1856 1853 1745 1625 1739
8 1854 1741 1622 1738 1969 1857 1742 1855
8 1855 1742 1624 1740 1970 1858 1744 1856
8 1857 1746 1631 1742 1971 1861 1749 1858
8 1858 1749 1630 1744 1972 1863 1748 1860
8 1859 1747 1862 1973 1745 1629 1748 1860
8 1875 1768 1864 1977 1761 1651 1750 1865
8 1755 1644 1761 1869 1866 1751 1865 1978
8 1867 1760 1874 1979 1754 1646 1763 1868
8 1774 1658 1775 1887 1867 1760 1874 1979
8 1870 1766 1648 1756 1980 1877 1763 1868
8 1872 1762 1875 1981 1758 1645 1761 1869
8 1757 1649 1766 1870 1871 1765 1880 1982
8 1983 1879 1764 1873 1871 1765 1647 1759
8 1873 1764 1876 1984 1759 1647 1762 1872
8 1877 1773 1655 1763 1986 1881 1767 1874
8 1775 1659 1776 1888 1874 1767 1881 1986
8 1876 1769 1882 1987 1762 1652 1768 1875
8 1878 1770 1883 1988 1764 1653 1769 1876
8 1880 1772 1656 1766 1989 1886 1773 1877
8 1878 1770 1653 1764 1990 1884 1771 1879
8 1765 1654 1772 1880 1879 1771 1885 1991
8 1778 1664 1779 1890 1887 1775 1888 1997
8 1998 1889 1776 1888 1891 1780 1665 1779
8 1893 1782 1891 2000 1781 1668 1779 1890
8 1894 1783 1892 2001 1782 1669 1780 1891
8 1784 1671 1785 1896 1893 1782 1894 2003
8 1897 1786 1895 2004 1785 1672 1783 1894
8 1790 1675 1789 1904 1896 1785 1897 2006
8 1901 1787 1898 2007 1789 1673 1786 1897
8 1903 1788 1900 2013 1789 1673 1787 1901
8 1792 1676 1791 1906 1903 1788 1902 2016
8 1907 1792 1903 2017 1795 1678 1789 1904
8 1906 1791 1677 1794 2019 1905 1793 1909
8 1907 1792 1678 1795 2020 1906 1794 1910
8 1797 1679 1796 1912 1909 1793 1908 2022
8 1798 1680 1797 1913 1910 1794 1909 2023
8 1800 1682 1799 1915 1912 1796 1911 2025
8 1801 1683 1800 1916 1913 1797 1912 2026
8 1803 1687 1804 1918 1915 1799 1914 2028
8 1802 1686 1803 1917 1916 1800 1915 2029
8 1805 1689 1806 1920 1917 1803 1918 2030
8 1806 1690 1807 1921 1918 1804 1919 2031
8 1808 1692 1809 1922 1920 1806 1921 2032
8 1939 1826 1924 2037 1829 1713 1811 1926
8 1926 1811 1925 2039 1813 1697 1812 1928
8 1944 1829 1926 2040 1828 1712 1813 1929
8 1928 1812 1927 2042 1815 1698 1814 1931
8 1929 1813 1928 2043 1816 1699 1815 1932
8 1931 1814 1930 2044 1818 1700 1817 1933
8 1932 1815 1931 2045 1819 1701 1818 1934
8 1934 1818 1933 2046 1821 1704 1820 1935
8 2048 1936 1823 1937 1977 1864 1750 1865
8 1950 1833 1715 1834 2048 1936 1823 1937
8 1938 1824 1751 1866 2049 1937 1865 1978
8 1835 1716 1824 1938 1951 1834 1937 2049
8 1939 1826 1713 1829 2053 1942 1831 1946
8 1940 1827 1923 2035 2053 1942 1826 1939
8 1945 1830 1946 2058 1828 1712 1829 1944
8 2059 1947 1830 1945 1966 1849 1733 1851
8 1947 1832 1730 1849 2060 1948 1848 1965
8 1947 1832 1948 2060 1830 1714 1831 1946
8 1959 1847 1729 1843 2063 1949 1833 1950
8 1952 1843 1725 1836 2064 1950 1834 1951
8 1836 1725 1843 1952 1953 1842 1958 2066
8 1953 1842 1957 2067 1839 1724 1841 1955
8 1841 1955 1838 1723 1956 2068 1954 1840
8 2068 1956 1859 1967 1954 1840 1743 1852
8 1956 1844 1960 2069 1859 1747 1862 1973
8 1845 1957 1841 1727 1960 2069 1956 1844
8 1728 1842 1957 1845 1846 1958 2071 1961
8 1962 2072 1959 1847 1846 1958 1843 1729
8 1971 1861 1964 2077 1857 1746 1848 1965
8 1854 1741 1857 1969 1966 1849 1965 2078
8 1967 1859 1973 2079 1853 1745 1860 1968
8 1970 1858 1744 1856 2080 1972 1860 1968
8 1969 1857 1742 1855 2081 1971 1858 1970
8 1971 1861 1749 1858 2082 1974 1863 1972
8 1973 1862 1975 2083 1860 1748 1863 1972
8 1987 1882 1976 2086 1875 1768 1864 1977
8 1981 1875 1977 2087 1869 1761 1865 1978
8 1980 1877 1763 1868 2088 1986 1874 1979
8 1887 1775 1888 1997 1979 1874 1986 2088
8 1880 1982 2089 1989 1766 1870 1980 1877
8 1984 1876 1987 2090 1872 1762 1875 1981
8 1765 1871 1983 1879 1880 1982 2091 1991
8 1985 1878 1764 1873 2092 1990 1879 1983
8 1985 1878 1988 2093 1873 1764 1876 1984
8 2094 1992 1881 1986 1998 1889 1776 1888
8 1986 1881 1992 2094 1877 1773 1886 1989
8 1988 1883 1993 2095 1876 1769 1882 1987
8 1878 1770 1884 1990 1988 1883 1994 2096
8 1991 1885 1772 1880 2097 1996 1886 1989
8 1879 1771 1885 1991 1990 1884 1995 2098
8 2103 1998 1888 1997 2000 1891 1779 1890
8 2104 1999 1889 1998 2001 1892 1780 1891
8 2003 1894 2001 2106 1893 1782 1891 2000
8 2004 1895 2002 2107 1894 1783 1892 2001
8 2006 1897 2004 2109 1896 1785 1894 2003
8 2007 1898 2005 2110 1897 1786 1895 2004
8 2014 1901 2007 2112 1904 1789 1897 2006
8 2011 1899 2008 2113 1901 1787 1898 2007
8 2119 2010 1899 2011 2013 1900 1787 1901
8 2016 1902 2012 2122 1903 1788 1900 2013
8 2017 1903 2013 2123 1904 1789 1901 2014
8 1906 1791 1905 2019 2016 1902 2015 2125
8 1907 1792 1906 2020 2017 1903 2016 2126
8 1909 1793 1908 2022 2019 1905 2018 2128
8 2020 1906 1794 1910 2129 2019 1909 2023
8 1912 1796 1911 2025 2022 1908 2021 2131
8 1913 1797 1912 2026 2023 1909 2022 2132
8 1915 1799 1914 2028 2025 1911 2024 2134
8 1916 1800 1915 2029 2026 1912 2025 2135
8 1918 1804 1919 2031 2028 1914 2027 2136
8 1917 1803 1918 2030 2029 1915 2028 2137
8 1920 1806 1921 2032 2030 1918 2031 2138
8 1940 1827 1941 2054 2035 1923 2033 2140
8 2035 1923 2034 2143 1939 1826 1924 2037
8 2037 1924 2036 2146 1926 1811 1925 2039
8 2051 1939 2037 2147 1944 1829 1926 2040
8 2039 1925 2038 2149 1928 1812 1927 2042
8 2040 1926 2039 2150 1929 1813 1928 2043
8 2042 1927 2041 2151 1931 1814 1930 2044
8 2043 1928 2042 2152 1932 1815 1931 2045
8 2045 1931 2044 2153 1934 1818 1933 2046
8 2155 2047 1936 2048 2086 1976 1864 1977
8 2063 1949 1833 1950 2155 2047 1936 2048
8 2156 2048 1937 2049 2087 1977 1865 1978
8 2064 1950 1834 1951 2156 2048 1937 2049
8 2051 1939 1829 1944 2160 2053 1946 2058
8 2052 1940 2035 2144 2160 2053 1939 2051
8 2053 1942 1831 1946 2163 2057 1948 2060
8 2055 1943 1827 1940 2163 2057 1942 2053
8 2055 1943 2056 2164 1940 1827 1941 2054
8 2059 1947 1849 1966 2167 2060 1965 2078
8 2059 1947 2060 2167 1945 1830 1946 2058
8 2077 1964 2061 2168 1965 1848 1948 2060
8 2070 1963 1847 1959 2170 2062 1949 2063
8 2065 1959 1843 1952 2171 2063 1950 2064
8 2173 2072 1958 2066 2065 1959 1843 1952
8 1953 1842 1958 2066 2067 1957 2071 2174
8 2068 1956 2069 2175 1967 1859 1973 2079
8 2067 1957 2069 2175 1955 1841 1956 2068
8 1845 1957 2069 1960 1961 2071 2176 2073
8 2069 1960 2073 2176 1973 1862 1975 2083
8 2070 1963 2075 2177 1959 1847 1962 2072
8 1846 1958 2071 1961 1962 2072 2178 2074
8 2077 1964 1861 1971 2182 2076 1974 2082
8 2081 1971 2077 2183 1969 1857 1965 2078
8 2079 1973 2083 2184 1968 1860 1972 2080
8 2081 1971 1858 1970 2185 2082 1972 2080
8 2083 1975 2084 2186 1972 1863 1974 2082
8 2086 1976 1882 1987 2189 2085 1993 2095
8 2090 1987 2086 2190 1981 1875 1977 2087
8 2191 2094 1986 2088 2103 1998 1888 1997
8 2088 1986 2094 2191 1980 1877 1989 2089
8 1991 2091 2192 2097 1880 1982 2089 1989
8 2093 1988 2095 2193 1984 1876 1987 2090
8 1879 1983 2092 1990 1991 2091 2194 2098
8 1985 1878 1990 2092 2093 1988 2096 2195
8 2097 1996 1886 1989 2196 2099 1992 2094
8 2196 2099 1992 2094 2104 1999 1889 1998
8 1994 2096 1988 1883 2100 2197 2095 1993
8 2096 1994 1884 1990 2198 2101 1995 2098
8 1995 2098 2199 2102 1885 1991 2097 1996
8 2203 2104 1998 2103 2106 2001 1891 2000
8 2107 2002 2105 2204 2001 1892 1999 2104
8 2109 2004 2107 2206 2003 1894 2001 2106
8 2110 2005 2108 2207 2004 1895 2002 2107
8 2112 2007 2110 2209 2006 1897 2004 2109
8 2113 2008 2111 2210 2007 1898 2005 2110
8 2120 2011 2113 2212 2014 1901 2007 2112
8 2117 2009 2114 2213 2011 1899 2008 2113
8 2219 2116 2009 2117 2119 2010 1899 2011
8 2222 2118 2010 2119 2122 2012 1900 2013
8 2223 2119 2011 2120 2123 2013 1901 2014
8 2016 1902 2015 2125 2122 2012 2121 2225
8 2126 2016 2122 2226 2017 1903 2013 2123
8 2019 1905 2018 2128 2125 2015 2124 2228
8 2020 1906 2019 2129 2126 2016 2125 2229
8 2022 1908 2021 2131 2128 2018 2127 2231
8 2023 1909 2022 2132 2129 2019 2128 2232
8 2025 1911 2024 2134 2131 2021 2130 2234
8 2026 1912 2025 2135 2132 2022 2131 2235
8 1914 2028 2134 2024 2027 2136 2236 2133
8 2029 1915 2028 2137 2135 2025 2134 2237
8 2030 1918 2031 2138 2137 2028 2136 2238
8 2157 2050 2139 2240 2054 1941 2033 2140
8 2052 1940 2054 2161 2144 2035 2140 2242
8 2140 2033 2141 2243 2035 1923 2034 2143
8 2143 2034 2142 2246 2037 1924 2036 2146
8 2144 2035 2143 2247 2051 1939 2037 2147
8 2146 2036 2145 2249 2039 1925 2038 2149
8 2147 2037 2146 2250 2040 1926 2039 2150
8 2149 2038 2148 2251 2042 1927 2041 2151
8 2150 2039 2149 2252 2043 1928 2042 2152
8 2152 2042 2151 2253 2045 1931 2044 2153
8 2255 2154 2047 2155 2189 2085 1976 2086
8 2170 2062 1949 2063 2255 2154 2047 2155
8 2256 2155 2048 2156 2190 2086 1977 2087
8 2171 2063 1950 2064 2256 2155 2048 2156
8 2258 2159 2050 2157 2164 2056 1941 2054
8 2160 2053 1946 2058 2262 2163 2060 2167
8 2162 2055 1940 2052 2262 2163 2053 2160
8 2162 2055 2164 2263 2052 1940 2054 2161
8 2163 2057 1948 2060 2264 2165 2061 2168
8 2055 1943 2057 2163 2164 2056 2165 2264
8 2182 2076 2166 2268 2077 1964 2061 2168
8 2183 2077 2168 2269 2078 1965 2060 2167
8 2070 1963 2062 2170 2177 2075 2169 2271
8 2172 2070 1959 2065 2272 2170 2063 2171
8 2172 2070 2177 2273 2065 1959 2072 2173
8 2066 1958 2072 2173 2174 2071 2178 2274
8 2067 1957 2071 2174 2175 2069 2176 2275
8 2175 2069 2176 2275 2079 1973 2083 2184
8 2071 1961 2074 2178 2176 2073 2179 2276
8 2176 2073 2179 2276 2083 1975 2084 2186
8 2072 1962 2075 2177 2178 2074 2180 2277
8 2182 2076 1974 2082 2280 2181 2084 2186
8 2183 2077 1971 2081 2281 2182 2082 2185
8 2184 2083 2186 2282 2080 1972 2082 2185
8 2189 2085 1993 2095 2285 2188 2100 2197
8 2190 2086 1987 2090 2286 2189 2095 2193
8 2192 2097 1989 2089 2287 2196 2094 2191
8 2287 2196 2094 2191 2203 2104 1998 2103
8 2194 2098 1991 2091 2288 2199 2097 2192
8 2195 2096 2197 2289 2093 1988 2095 2193
8 2096 2195 2290 2198 1990 2092 2194 2098
8 2097 1996 2099 2196 2199 2102 2200 2291
8 2196 2099 1999 2104 2291 2200 2105 2204
8 2100 2197 2292 2201 1994 2096 2198 2101
8 1995 2098 2198 2101 2102 2199 2293 2202
8 2206 2107 2204 2296 2106 2001 2104 2203
8 2207 2108 2205 2297 2107 2002 2105 2204
8 2209 2110 2207 2299 2109 2004 2107 2206
8 2210 2111 2208 2300 2110 2005 2108 2207
8 2212 2113 2210 2302 2112 2007 2110 2209
8 2213 2114 2211 2303 2113 2008 2111 2210
8 2220 2117 2213 2305 2120 2011 2113 2212
8 2216 2115 2214 2306 2117 2009 2114 2213
8 2216 2115 2009 2117 2311 2217 2116 2219
8 2219 2116 2010 2119 2314 2218 2118 2222
8 2315 2219 2117 2220 2223 2119 2011 2120
8 2122 2012 2121 2225 2222 2118 2221 2317
8 2318 2222 2119 2223 2226 2122 2013 2123
8 2125 2015 2124 2228 2225 2121 2224 2320
8 2126 2016 2125 2229 2226 2122 2225 2321
8 2128 2018 2127 2231 2228 2124 2227 2323
8 2129 2019 2128 2232 2229 2125 2228 2324
8 2131 2021 2130 2234 2231 2127 2230 2326
8 2132 2022 2131 2235 2232 2128 2231 2327
8 2134 2024 2133 2236 2234 2130 2233 2328
8 2135 2025 2134 2237 2235 2131 2234 2329
8 2137 2028 2136 2238 2237 2134 2236 2330
8 2157 2050 2158 2259 2240 2139 2239 2332
8 2257 2157 2240 2334 2161 2054 2140 2242
8 2240 2139 2241 2335 2140 2033 2141 2243
8 2242 2140 2243 2337 2144 2035 2143 2247
8 2243 2141 2244 2338 2143 2034 2142 2246
8 2246 2142 2245 2341 2146 2036 2145 2249
8 2247 2143 2246 2342 2147 2037 2146 2250
8 2249 2145 2248 2343 2149 2038 2148 2251
8 2250 2146 2249 2344 2150 2039 2149 2252
8 2252 2149 2251 2345 2152 2042 2151 2253
8 2169 2271 2347 2254 2062 2170 2255 2154
8 2189 2085 2188 2285 2255 2154 2254 2347
8 2348 2255 2155 2256 2286 2189 2086 2190
8 2272 2170 2063 2171 2348 2255 2155 2256
8 2349 2258 2157 2257 2263 2164 2054 2161
8 2258 2159 2261 2351 2157 2050 2158 2259
8 2258 2159 2056 2164 2351 2261 2165 2264
8 2262 2163 2060 2167 2355 2264 2168 2269
8 2162 2055 2163 2262 2263 2164 2264 2355
8 2357 2266 2165 2264 2268 2166 2061 2168
8 2268 2166 2076 2182 2361 2267 2181 2280
8 2281 2182 2268 2362 2183 2077 2168 2269
8 2271 2169 2270 2364 2177 2075 2180 2277
8 2172 2070 2170 2272 2273 2177 2271 2365
8 2072 2173 2274 2178 2177 2273 2366 2277
8 2071 2174 2275 2176 2178 2274 2367 2276
8 2275 2176 2276 2367 2184 2083 2186 2282
8 2283 2187 2084 2186 2368 2278 2179 2276
8 2178 2074 2180 2277 2276 2179 2278 2368
8 2283 2187 2279 2370 2186 2084 2181 2280
8 2281 2182 2082 2185 2371 2280 2186 2282
8 2188 2285 2374 2284 2100 2197 2292 2201
8 2286 2189 2095 2193 2375 2285 2197 2289
8 2192 2097 2196 2287 2288 2199 2291 2376
8 2287 2196 2104 2203 2376 2291 2204 2296
8 2194 2098 2199 2288 2290 2198 2293 2377
8 2289 2197 2096 2195 2378 2292 2198 2290
8 2291 2200 2105 2204 2379 2294 2205 2297
8 2199 2102 2200 2291 2293 2202 2294 2379
8 2198 2101 2202 2293 2292 2201 2295 2380
8 2299 2207 2297 2383 2206 2107 2204 2296
8 2300 2208 2298 2384 2207 2108 2205 2297
8 2302 2210 2300 2386 2209 2110 2207 2299
8 2303 2211 2301 2387 2210 2111 2208 2300
8 2305 2213 2303 2389 2212 2113 2210 2302
8 2306 2214 2304 2390 2213 2114 2211 2303
8 2310 2216 2306 2392 2220 2117 2213 2305
8 2308 2215 2307 2393 2216 2115 2214 2306
8 2308 2215 2115 2216 2396 2309 2217 2311
8 2310 2216 2117 2220 2398 2311 2219 2315
8 2311 2217 2116 2219 2399 2312 2218 2314
8 2314 2218 2118 2222 2402 2313 2221 2317
8 2315 2219 2119 2223 2403 2314 2222 2318
8 2225 2121 2224 2320 2317 2221 2316 2405
8 2226 2122 2225 2321 2318 2222 2317 2406
8 2228 2124 2227 2323 2320 2224 2319 2408
8 2229 2125 2228 2324 2321 2225 2320 2409
8 2231 2127 2230 2326 2323 2227 2322 2411
8 2232 2128 2231 2327 2324 2228 2323 2412
8 2234 2130 2233 2328 2326 2230 2325 2413
8 2235 2131 2234 2329 2327 2231 2326 2414
8 2237 2134 2236 2330 2329 2234 2328 2415
8 2259 2158 2260 2352 2332 2239 2331 2417
8 2257 2157 2259 2350 2334 2240 2332 2419
8 2240 2139 2239 2332 2335 2241 2333 2420
8 2334 2240 2335 2422 2242 2140 2243 2337
8 2335 2241 2336 2423 2243 2141 2244 2338
8 2337 2243 2338 2425 2247 2143 2246 2342
8 2338 2244 2339 2426 2246 2142 2245 2341
8 2341 2245 2340 2428 2249 2145 2248 2343
8 2342 2246 2341 2429 2250 2146 2249 2344
8 2344 2249 2343 2430 2252 2149 2251 2345
8 2188 2285 2347 2254 2284 2374 2432 2346
8 2347 2254 2346 2432 2271 2169 2270 2364
8 2365 2271 2170 2272 2433 2347 2255 2348
8 2286 2189 2285 2375 2348 2255 2347 2433
8 2349 2258 2351 2435 2257 2157 2259 2350
8 2349 2258 2164 2263 2435 2351 2264 2355
8 2259 2158 2261 2351 2352 2260 2354 2437
8 2356 2265 2354 2437 2264 2165 2261 2351
8 2441 2357 2264 2355 2362 2268 2168 2269
8 2356 2265 2165 2264 2442 2358 2266 2357
8 2443 2359 2266 2357 2361 2267 2166 2268
8 2370 2279 2360 2446 2280 2181 2267 2361
8 2362 2268 2182 2281 2447 2361 2280 2371
8 2180 2277 2368 2278 2270 2364 2449 2363
8 2271 2365 2273 2177 2364 2450 2366 2277
8 2372 2283 2186 2282 2451 2368 2276 2367
8 2178 2274 2367 2276 2277 2366 2451 2368
8 2283 2187 2278 2368 2370 2279 2369 2452
8 2372 2283 2370 2453 2282 2186 2280 2371
8 2284 2374 2455 2373 2201 2292 2380 2295
8 2375 2285 2197 2289 2456 2374 2292 2378
8 2376 2291 2204 2296 2457 2379 2297 2383
8 2288 2199 2291 2376 2377 2293 2379 2457
8 2198 2290 2378 2292 2293 2377 2458 2380
8 2293 2202 2294 2379 2380 2295 2381 2459
8 2384 2298 2381 2459 2297 2205 2294 2379
8 2386 2300 2384 2463 2299 2207 2297 2383
8 2387 2301 2385 2464 2300 2208 2298 2384
8 2389 2303 2387 2466 2302 2210 2300 2386
8 2390 2304 2388 2467 2303 2211 2301 2387
8 2392 2306 2390 2469 2305 2213 2303 2389
8 2393 2307 2391 2470 2306 2214 2304 2390
8 2395 2308 2393 2472 2310 2216 2306 2392
8 2308 2215 2309 2396 2393 2307 2394 2473
8 2395 2308 2216 2310 2475 2396 2311 2398
8 2396 2309 2217 2311 2476 2397 2312 2399
8 2398 2311 2219 2315 2478 2399 2314 2403
8 2399 2312 2218 2314 2479 2400 2313 2402
8 2317 2221 2316 2405 2402 2313 2401 2482
8 2403 2314 2222 2318 2483 2402 2317 2406
8 2320 2224 2319 2408 2405 2316 2404 2485
8 2321 2225 2320 2409 2406 2317 2405 2486
8 2323 2227 2322 2411 2408 2319 2407 2488
8 2324 2228 2323 2412 2409 2320 2408 2489
8 2326 2230 2325 2413 2411 2322 2410 2490
8 2327 2231 2326 2414 2412 2323 2411 2491
8 2329 2234 2328 2415 2414 2326 2413 2492
8 2417 2331 2260 2352 2494 2416 2353 2438
8 2350 2259 2352 2436 2419 2332 2417 2496
8 2332 2239 2331 2417 2420 2333 2418 2497
8 2334 2240 2332 2419 2422 2335 2420 2499
8 2420 2333 2421 2500 2335 2241 2336 2423
8 2422 2335 2423 2502 2337 2243 2338 2425
8 2423 2336 2424 2503 2338 2244 2339 2426
8 2425 2338 2426 2505 2342 2246 2341 2429
8 2426 2339 2427 2506 2341 2245 2340 2428
8 2429 2341 2428 2507 2344 2249 2343 2430
8 2432 2346 2284 2374 2509 2431 2373 2455
8 2432 2346 2431 2509 2364 2270 2363 2449
8 2375 2285 2374 2456 2433 2347 2432 2510
8 2347 2433 2365 2271 2432 2510 2450 2364
8 2350 2259 2351 2435 2436 2352 2437 2514
8 2440 2356 2437 2514 2355 2264 2351 2435
8 2352 2260 2354 2437 2438 2353 2439 2516
8 2356 2265 2358 2442 2437 2354 2439 2516
8 2440 2356 2264 2355 2518 2442 2357 2441
8 2519 2443 2357 2441 2447 2361 2268 2362
8 2443 2359 2444 2520 2357 2266 2358 2442
8 2443 2359 2267 2361 2520 2444 2360 2446
8 2446 2360 2279 2370 2523 2445 2369 2452
8 2453 2370 2446 2524 2371 2280 2361 2447
8 2449 2363 2448 2525 2368 2278 2369 2452
8 2366 2277 2364 2450 2451 2368 2449 2526
8 2372 2283 2368 2451 2453 2370 2452 2527
8 2455 2373 2295 2380 2529 2454 2382 2460
8 2456 2374 2292 2378 2530 2455 2380 2458
8 2377 2293 2379 2457 2458 2380 2459 2531
8 2463 2384 2459 2531 2383 2297 2379 2457
8 2533 2461 2382 2460 2459 2381 2295 2380
8 2464 2385 2461 2533 2384 2298 2381 2459
8 2466 2387 2464 2537 2386 2300 2384 2463
8 2467 2388 2465 2538 2387 2301 2385 2464
8 2469 2390 2467 2540 2389 2303 2387 2466
8 2470 2391 2468 2541 2390 2304 2388 2467
8 2472 2393 2470 2543 2392 2306 2390 2469
8 2393 2307 2394 2473 2470 2391 2471 2544
8 2395 2308 2396 2475 2472 2393 2473 2546
8 2396 2309 2397 2476 2473 2394 2474 2547
8 2475 2396 2311 2398 2549 2476 2399 2478
8 2476 2397 2312 2399 2550 2477 2400 2479
8 2478 2399 2314 2403 2552 2479 2402 2483
8 2479 2400 2313 2402 2553 2480 2401 2482
8 2405 2316 2404 2485 2482 2401 2481 2556
8 2406 2317 2405 2486 2483 2402 2482 2557
8 2408 2319 2407 2488 2485 2404 2484 2559
8 2409 2320 2408 2489 2486 2405 2485 2560
8 2411 2322 2410 2490 2488 2407 2487 2561
8 2412 2323 2411 2491 2489 2408 2488 2562
8 2414 2326 2413 2492 2491 2411 2490 2563
8 2513 2434 2493 2565 2438 2353 2416 2494
8 2496 2417 2352 2436 2567 2494 2438 2515
8 2494 2416 2495 2568 2417 2331 2418 2497
8 2419 2332 2417 2496 2499 2420 2497 2570
8 2497 2418 2498 2571 2420 2333 2421 2500
8 2499 2420 2500 2573 2422 2335 2423 2502
8 2500 2421 2501 2574 2423 2336 2424 2503
8 2502 2423 2503 2576 2425 2338 2426 2505
8 2503 2424 2504 2577 2426 2339 2427 2506
8 2505 2426 2506 2578 2429 2341 2428 2507
8 2509 2431 2373 2455 2580 2508 2454 2529
8 2509 2431 2508 2580 2449 2363 2448 2525
8 2432 2510 2581 2509 2374 2456 2530 2455
8 2432 2510 2450 2364 2509 2581 2526 2449
8 2583 2511 2434 2513 2516 2439 2353 2438
8 2436 2352 2437 2514 2515 2438 2516 2588
8 2440 2356 2442 2518 2514 2437 2516 2588
8 2442 2358 2444 2520 2516 2439 2517 2589
8 2519 2443 2520 2591 2441 2357 2442 2518
8 2519 2443 2361 2447 2591 2520 2446 2524
8 2446 2360 2445 2523 2520 2444 2521 2592
8 2525 2448 2522 2593 2452 2369 2445 2523
8 2524 2446 2370 2453 2594 2523 2452 2527
8 2526 2449 2525 2595 2451 2368 2452 2527
8 2534 2462 2528 2597 2460 2382 2454 2529
8 2530 2455 2380 2458 2598 2529 2460 2532
8 2599 2533 2460 2532 2531 2459 2380 2458
8 2537 2464 2533 2599 2463 2384 2459 2531
8 2534 2462 2382 2460 2601 2535 2461 2533
8 2538 2465 2535 2601 2464 2385 2461 2533
8 2540 2467 2538 2604 2466 2387 2464 2537
8 2541 2468 2539 2605 2467 2388 2465 2538
8 2543 2470 2541 2607 2469 2390 2467 2540
8 2470 2391 2471 2544 2541 2468 2542 2608
8 2472 2393 2473 2546 2543 2470 2544 2610
8 2473 2394 2474 2547 2544 2471 2545 2611
8 2475 2396 2476 2549 2546 2473 2547 2613
8 2476 2397 2477 2550 2547 2474 2548 2614
8 2549 2476 2399 2478 2616 2550 2479 2552
8 2479 2400 2480 2553 2550 2477 2551 2617
8 2552 2479 2402 2483 2619 2553 2482 2557
8 2482 2401 2481 2556 2553 2480 2554 2620
8 2485 2404 2484 2559 2556 2481 2555 2623
8 2486 2405 2485 2560 2557 2482 2556 2624
8 2488 2407 2487 2561 2559 2484 2558 2625
8 2489 2408 2488 2562 2560 2485 2559 2626
8 2491 2411 2490 2563 2562 2488 2561 2627
8 2513 2434 2512 2585 2565 2493 2564 2630
8 2586 2513 2565 2632 2515 2438 2494 2567
8 2565 2493 2566 2633 2494 2416 2495 2568
8 2567 2494 2568 2635 2496 2417 2497 2570
8 2568 2495 2569 2636 2497 2418 2498 2571
8 2570 2497 2571 2638 2499 2420 2500 2573
8 2571 2498 2572 2639 2500 2421 2501 2574
8 2573 2500 2574 2641 2502 2423 2503 2576
8 2574 2501 2575 2642 2503 2424 2504 2577
8 2576 2503 2577 2643 2505 2426 2506 2578
8 2597 2528 2579 2645 2529 2454 2508 2580
8 2580 2508 2579 2645 2525 2448 2522 2593
8 2581 2509 2455 2530 2646 2580 2529 2598
8 2581 2509 2580 2646 2526 2449 2525 2595
8 2583 2511 2582 2648 2513 2434 2512 2585
8 2583 2511 2439 2516 2648 2582 2517 2589
8 2649 2583 2513 2586 2588 2516 2438 2515
8 2589 2517 2444 2520 2653 2587 2521 2592
8 2518 2442 2520 2591 2588 2516 2589 2654
8 2593 2522 2590 2655 2523 2445 2521 2592
8 2524 2446 2523 2594 2591 2520 2592 2656
8 2595 2525 2593 2657 2527 2452 2523 2594
8 2602 2536 2596 2659 2534 2462 2528 2597
8 2600 2534 2597 2660 2532 2460 2529 2598
8 2600 2534 2460 2532 2661 2601 2533 2599
8 2604 2538 2601 2661 2537 2464 2533 2599
8 2602 2536 2462 2534 2663 2603 2535 2601
8 2601 2535 2465 2538 2663 2603 2539 2605
8 2607 2541 2605 2665 2540 2467 2538 2604
8 2608 2542 2606 2666 2541 2468 2539 2605
8 2543 2470 2544 2610 2607 2541 2608 2668
8 2544 2471 2545 2611 2608 2542 2609 2669
8 2546 2473 2547 2613 2610 2544 2611 2671
8 2547 2474 2548 2614 2611 2545 2612 2672
8 2549 2476 2550 2616 2613 2547 2614 2674
8 2550 2477 2551 2617 2614 2548 2615 2675
8 2552 2479 2553 2619 2616 2550 2617 2677
8 2553 2480 2554 2620 2617 2551 2618 2678
8 2557 2482 2556 2624 2619 2553 2620 2680
8 2556 2481 2555 2623 2620 2554 2621 2681
8 2559 2484 2558 2625 2623 2555 2622 2683
8 2560 2485 2559 2626 2624 2556 2623 2684
8 2562 2488 2561 2627 2626 2559 2625 2685
8 2690 2629 2564 2630 2650 2584 2512 2585
8 2586 2513 2585 2651 2632 2565 2630 2691
8 2630 2564 2631 2692 2565 2493 2566 2633
8 2632 2565 2633 2694 2567 2494 2568 2635
8 2633 2566 2634 2695 2568 2495 2569 2636
8 2635 2568 2636 2697 2570 2497 2571 2638
8 2636 2569 2637 2698 2571 2498 2572 2639
8 2638 2571 2639 2700 2573 2500 2574 2641
8 2639 2572 2640 2701 2574 2501 2575 2642
8 2641 2574 2642 2702 2576 2503 2577 2643
8 2597 2528 2596 2659 2645 2579 2644 2704
8 2645 2579 2644 2704 2593 2522 2590 2655
8 2660 2597 2645 2705 2598 2529 2580 2646
8 2646 2580 2645 2705 2595 2525 2593 2657
8 2650 2584 2512 2585 2707 2647 2582 2648
8 2648 2582 2517 2589 2707 2647 2587 2653
8 2649 2583 2648 2708 2586 2513 2585 2651
8 2649 2583 2516 2588 2708 2648 2589 2654
8 2655 2590 2652 2710 2592 2521 2587 2653
8 2654 2589 2520 2591 2711 2653 2592 2656
8 2657 2593 2655 2712 2594 2523 2592 2656
8 2602 2536 2603 2663 2659 2596 2658 2714
8 2662 2602 2659 2715 2600 2534 2597 2660
8 2662 2602 2534 2600 2717 2663 2601 2661
8 2661 2601 2538 2604 2717 2663 2605 2665
8 2666 2606 2664 2718 2605 2539 2603 2663
8 2668 2608 2666 2720 2607 2541 2605 2665
8 2608 2542 2609 2669 2666 2606 2667 2721
8 2610 2544 2611 2671 2668 2608 2669 2723
8 2611 2545 2612 2672 2669 2609 2670 2724
8 2613 2547 2614 2674 2671 2611 2672 2726
8 2614 2548 2615 2675 2672 2612 2673 2727
8 2616 2550 2617 2677 2674 2614 2675 2729
8 2617 2551 2618 2678 2675 2615 2676 2730
8 2619 2553 2620 2680 2677 2617 2678 2732
8 2620 2554 2621 2681 2678 2618 2679 2733
8 2624 2556 2623 2684 2680 2620 2681 2735
8 2681 2621 2555 2623 2736 2682 2622 2683
8 2626 2559 2625 2685 2684 2623 2683 2737
8 2688 2628 2584 2650 2740 2686 2647 2707
8 2688 2628 2687 2742 2650 2584 2629 2690
8 2690 2629 2689 2745 2630 2564 2631 2692
8 2746 2690 2630 2691 2709 2650 2585 2651
8 2691 2630 2692 2747 2632 2565 2633 2694
8 2692 2631 2693 2748 2633 2566 2634 2695
8 2694 2633 2695 2750 2635 2568 2636 2697
8 2695 2634 2696 2751 2636 2569 2637 2698
8 2697 2636 2698 2753 2638 2571 2639 2700
8 2698 2637 2699 2754 2639 2572 2640 2701
8 2700 2639 2701 2755 2641 2574 2642 2702
8 2659 2596 2658 2714 2704 2644 2703 2757
8 2704 2644 2703 2757 2655 2590 2652 2710
8 2660 2597 2659 2715 2705 2645 2704 2758
8 2705 2645 2704 2758 2657 2593 2655 2712
8 2759 2706 2647 2707 2710 2652 2587 2653
8 2709 2650 2585 2651 2760 2707 2648 2708
8 2708 2648 2589 2654 2760 2707 2653 2711
8 2712 2655 2710 2761 2656 2592 2653 2711
8 2763 2713 2658 2714 2718 2664 2603 2663
8 2662 2602 2663 2717 2715 2659 2714 2764
8 2720 2666 2718 2767 2665 2605 2663 2717
8 2768 2719 2664 2718 2721 2667 2606 2666
8 2668 2608 2669 2723 2720 2666 2721 2770
8 2669 2609 2670 2724 2721 2667 2722 2771
8 2671 2611 2672 2726 2723 2669 2724 2773
8 2672 2612 2673 2727 2724 2670 2725 2774
8 2674 2614 2675 2729 2726 2672 2727 2776
8 2675 2615 2676 2730 2727 2673 2728 2777
8 2677 2617 2678 2732 2729 2675 2730 2779
8 2678 2618 2679 2733 2730 2676 2731 2780
8 2680 2620 2681 2735 2732 2678 2733 2782
8 2733 2679 2621 2681 2783 2734 2682 2736
8 2735 2681 2623 2684 2784 2736 2683 2737
8 2740 2686 2647 2707 2787 2738 2706 2759
8 2688 2628 2686 2740 2742 2687 2739 2789
8 2743 2688 2650 2709 2790 2740 2707 2760
8 2742 2687 2741 2792 2690 2629 2689 2745
8 2743 2688 2742 2793 2709 2650 2690 2746
8 2745 2689 2744 2795 2692 2631 2693 2748
8 2746 2690 2745 2796 2691 2630 2692 2747
8 2747 2692 2748 2797 2694 2633 2695 2750
8 2748 2693 2749 2798 2695 2634 2696 2751
8 2750 2695 2751 2800 2697 2636 2698 2753
8 2751 2696 2752 2801 2698 2637 2699 2754
8 2753 2698 2754 2802 2700 2639 2701 2755
8 2763 2713 2756 2804 2714 2658 2703 2757
8 2759 2706 2652 2710 2804 2756 2703 2757
8 2715 2659 2714 2764 2758 2704 2757 2805
8 2758 2704 2757 2805 2712 2655 2710 2761
8 2806 2759 2707 2760 2761 2710 2653 2711
8 2765 2716 2762 2808 2718 2664 2713 2763
8 2809 2763 2714 2764 2767 2718 2663 2717
8 2765 2716 2664 2718 2811 2766 2719 2768
8 2813 2768 2718 2767 2770 2721 2666 2720
8 2814 2769 2719 2768 2771 2722 2667 2721
8 2723 2669 2724 2773 2770 2721 2771 2816
8 2724 2670 2725 2774 2771 2722 2772 2817
8 2726 2672 2727 2776 2773 2724 2774 2819
8 2727 2673 2728 2777 2774 2725 2775 2820
8 2729 2675 2730 2779 2776 2727 2777 2822
8 2730 2676 2731 2780 2777 2728 2778 2823
8 2732 2678 2733 2782 2779 2730 2780 2825
8 2780 2731 2679 2733 2826 2781 2734 2783
8 2782 2733 2681 2735 2827 2783 2736 2784
8 2830 2785 2738 2787 2804 2756 2706 2759
8 2789 2739 2686 2740 2832 2786 2738 2787
8 2790 2740 2707 2760 2833 2787 2759 2806
8 2742 2687 2739 2789 2792 2741 2788 2835
8 2743 2688 2740 2790 2793 2742 2789 2836
8 2792 2741 2791 2838 2745 2689 2744 2795
8 2793 2742 2792 2839 2746 2690 2745 2796
8 2795 2744 2794 2841 2748 2693 2749 2798
8 2796 2745 2795 2842 2747 2692 2748 2797
8 2797 2748 2798 2843 2750 2695 2751 2800
8 2798 2749 2799 2844 2751 2696 2752 2801
8 2800 2751 2801 2845 2753 2698 2754 2802
8 2808 2762 2803 2847 2763 2713 2756 2804
8 2809 2763 2804 2848 2764 2714 2757 2805
8 2806 2759 2710 2761 2848 2804 2757 2805
8 2765 2716 2766 2811 2808 2762 2807 2850
8 2810 2765 2808 2851 2767 2718 2763 2809
8 2810 2765 2718 2767 2852 2811 2768 2813
8 2811 2766 2719 2768 2853 2812 2769 2814
8 2855 2814 2768 2813 2816 2771 2721 2770
8 2856 2815 2769 2814 2817 2772 2722 2771
8 2773 2724 2774 2819 2816 2771 2817 2858
8 2774 2725 2775 2820 2817 2772 2818 2859
8 2776 2727 2777 2822 2819 2774 2820 2861
8 2777 2728 2778 2823 2820 2775 2821 2862
8 2779 2730 2780 2825 2822 2777 2823 2864
8 2823 2778 2731 2780 2865 2824 2781 2826
8 2825 2780 2733 2782 2866 2826 2783 2827
8 2869 2828 2785 2830 2847 2803 2756 2804
8 2871 2829 2786 2832 2830 2785 2738 2787
8 2872 2830 2787 2833 2848 2804 2759 2806
8 2789 2739 2786 2832 2835 2788 2831 2874
8 2836 2789 2740 2790 2875 2832 2787 2833
8 2792 2741 2788 2835 2838 2791 2834 2877
8 2793 2742 2789 2836 2839 2792 2835 2878
8 2838 2791 2837 2880 2795 2744 2794 2841
8 2839 2792 2838 2881 2796 2745 2795 2842
8 2841 2794 2840 2882 2798 2749 2799 2844
8 2842 2795 2841 2883 2797 2748 2798 2843
8 2843 2798 2844 2884 2800 2751 2801 2845
8 2886 2846 2803 2847 2850 2807 2762 2808
8 2851 2808 2847 2887 2809 2763 2804 2848
8 2850 2807 2766 2811 2889 2849 2812 2853
8 2810 2765 2811 2852 2851 2808 2850 2890
8 2852 2811 2768 2813 2891 2853 2814 2855
8 2853 2812 2769 2814 2892 2854 2815 2856
8 2894 2856 2814 2855 2858 2817 2771 2816
8 2817 2772 2818 2859 2856 2815 2857 2895
8 2819 2774 2820 2861 2858 2817 2859 2897
8 2820 2775 2821 2862 2859 2818 2860 2898
8 2822 2777 2823 2864 2861 2820 2862 2900
8 2823 2778 2824 2865 2862 2821 2863 2901
8 2864 2823 2780 2825 2902 2865 2826 2866
8 2904 2867 2828 2869 2886 2846 2803 2847
8 2869 2828 2868 2906 2830 2785 2829 2871
8 2907 2869 2830 2872 2887 2847 2804 2848
8 2871 2829 2870 2909 2832 2786 2831 2874
8 2910 2871 2832 2875 2872 2830 2787 2833
8 2835 2788 2831 2874 2877 2834 2873 2912
8 2836 2789 2832 2875 2878 2835 2874 2913
8 2877 2834 2876 2915 2838 2791 2837 2880
8 2839 2792 2835 2878 2881 2838 2877 2916
8 2880 2837 2879 2917 2841 2794 2840 2882
8 2881 2838 2880 2918 2842 2795 2841 2883
8 2883 2841 2882 2919 2843 2798 2844 2884
8 2921 2885 2846 2886 2889 2849 2807 2850
8 2922 2886 2847 2887 2890 2850 2808 2851
8 2889 2849 2812 2853 2924 2888 2854 2892
8 2890 2850 2811 2852 2925 2889 2853 2891
8 2891 2853 2814 2855 2926 2892 2856 2894
8 2892 2854 2815 2856 2927 2893 2857 2895
8 2858 2817 2859 2897 2894 2856 2895 2929
8 2859 2818 2860 2898 2895 2857 2896 2930
8 2861 2820 2862 2900 2897 2859 2898 2932
8 2862 2821 2863 2901 2898 2860 2899 2933
8 2864 2823 2865 2902 2900 2862 2901 2934
8 2904 2867 2846 2886 2936 2903 2885 2921
8 2904 2867 2903 2936 2869 2828 2868 2906
8 2937 2904 2869 2907 2922 2886 2847 2887
8 2906 2868 2905 2939 2871 2829 2870 2909
8 2907 2869 2906 2940 2872 2830 2871 2910
8 2909 2870 2908 2942 2874 2831 2873 2912
8 2910 2871 2909 2943 2875 2832 2874 2913
8 2912 2873 2911 2945 2877 2834 2876 2915
8 2878 2835 2874 2913 2916 2877 2912 2946
8 2915 2876 2914 2947 2880 2837 2879 2917
8 2916 2877 2915 2948 2881 2838 2880 2918
8 2918 2880 2917 2949 2883 2841 2882 2919
8 2921 2885 2849 2889 2951 2920 2888 2924
8 2952 2921 2886 2922 2925 2889 2850 2890
8 2924 2888 2854 2892 2954 2923 2893 2927
8 2925 2889 2853 2891 2955 2924 2892 2926
8 2926 2892 2856 2894 2956 2927 2895 2929
8 2895 2857 2896 2930 2927 2893 2928 2957
8 2897 2859 2898 2932 2929 2895 2930 2959
8 2898 2860 2899 2933 2930 2896 2931 2960
8 2900 2862 2901 2934 2932 2898 2933 2961
8 2936 2903 2885 2921 2963 2935 2920 2951
8 2936 2903 2935 2963 2906 2868 2905 2939
8 2937 2904 2886 2922 2964 2936 2921 2952
8 2937 2904 2936 2964 2907 2869 2906 2940
8 2939 2905 2938 2966 2909 2870 2908 2942
8 2940 2906 2939 2967 2910 2871 2909 2943
8 2942 2908 2941 2969 2912 2873 2911 2945
8 2943 2909 2942 2970 2913 2874 2912 2946
8 2945 2911 2944 2971 2915 2876 2914 2947
8 2946 2912 2945 2972 2916 2877 2915 2948
8 2948 2915 2947 2973 2918 2880 2917 2949
8 2951 2920 2888 2924 2975 2950 2923 2954
8 2952 2921 2889 2925 2976 2951 2924 2955
8 2927 2893 2928 2957 2954 2923 2953 2978
8 2955 2924 2892 2926 2979 2954 2927 2956
8 2929 2895 2930 2959 2956 2927 2957 2980
8 2930 2896 2931 2960 2957 2928 2958 2981
8 2932 2898 2933 2961 2959 2930 2960 2982
8 2951 2920 2950 2975 2963 2935 2962 2984
8 2963 2935 2962 2984 2939 2905 2938 2966
8 2964 2936 2921 2952 2985 2963 2951 2976
8 2964 2936 2963 2985 2940 2906 2939 2967
8 2966 2938 2965 2987 2942 2908 2941 2969
8 2967 2939 2966 2988 2943 2909 2942 2970
8 2969 2941 2968 2989 2945 2911 2944 2971
8 2970 2942 2969 2990 2946 2912 2945 2972
8 2972 2945 2971 2991 2948 2915 2947 2973
8 2954 2923 2953 2978 2975 2950 2974 2993
8 2976 2951 2924 2955 2994 2975 2954 2979
8 2957 2928 2958 2981 2978 2953 2977 2995
8 2956 2927 2957 2980 2979 2954 2978 2996
8 2959 2930 2960 2982 2980 2957 2981 2997
8 2984 2962 2983 2999 2966 2938 2965 2987
8 2975 2950 2974 2993 2984 2962 2983 2999
8 2976 2951 2975 2994 2985 2963 2984 3000
8 2985 2963 2984 3000 2967 2939 2966 2988
8 2987 2965 2986 3001 2969 2941 2968 2989
8 2988 2966 2987 3002 2970 2942 2969 2990
8 2990 2969 2989 3003 2972 2945 2971 2991
8 2978 2953 2977 2995 2993 2974 2992 3004
8 2979 2954 2978 2996 2994 2975 2993 3005
8 2980 2957 2981 2997 2996 2978 2995 3006
8 2974 2993 2999 2983 2992 3004 3007 2998
8 2983 2999 2987 2965 2998 3007 3001 2986
8 3000 2984 2999 3008 2988 2966 2987 3002
8 2994 2975 2993 3005 3000 2984 2999 3008
8 3002 2987 3001 3009 2990 2969 2989 3003
8 2996 2978 2995 3006 3005 2993 3004 3010
8 3005 2993 3004 3010 3008 2999 3007 3011
8 3008 2999 3007 3011 3002 2987 3001 3009

CELL_TYPES 1910
12
12
12
12
12
12
12
12
12
12
12
12
12
12
12
12
12
12
12
12
12
12
12
12
12
12
12
12
12
12
12
12
12
12
12
12
12
12
12
12
12
12
12
12
12
12
12
12
12
12
12
12
12
12
12
12
12
12
12
12
12
12
12
12
12
12
12
12
12
12
12
12
12
12
12
12
12
12
12
12
12
12
12
12
12
12
12
12
12
12
12
12
12
12
12
12
12
12
12
12
12
12
12
12
12
12
12
12
12
12
12
12
12
12
12
12
12
12
12
12
12
12
12
12
12
12
12
12
12
12
12
12
12
12
12
12
12
12
12
12
12
12
12
12
12
12
12
12
12
12
12
12
12
12
12
12
12
12
12
12
12
12
12
12
12
12
12
12
12
12
12
12
12
12
12
12
12
12
12
12
12
12
12
12
12
12
12
12
12
12
12
12
12
12
12
12
12
12
12
12
12
12
12
12
12
12
12
12
12
12
12
12
12
12
12
12
12
12
12
12
12
12
12
12
12
12
12
12
12
12
12
12
12
12
12
12
12
12
12
12
12
12
12
12
12
12
12
12
12
12
12
12
12
12
12
12
12
12
12
12
12
12
12
12
12
12
12
12
12
12
12
12
12
12
12
12
12
12
12
12
12
12
12
12
12
12
12
12
12
12
12
12
12
12
12
12
12
12
12
12
12
12
12
12
12
12
12
12
12
12
12
12
12
12
12
12
12
12
12
12
12
12
12
12
12
12
12
12
12
12
12
12
12
12
12
12
12
12
12
12
12
12
12
12
12
12
12
12
12
12
12
12
12
12
12
12
12
12
12
12
12
12
12
12
12
12
12
12
12
12
12
12
12
12
12
12
12
12
12
12
12
12
12
12
12
12
12
12
12
12
12
12
12
12
12
12
12
12
12
12
12
12
12
12
12
12
12
12
12
12
12
12
12
12
12
12
12
12
12
12
12
12
12
12
12
12
12
12
12
12
12
12
12
12
12
12
12
12
12
12
12
12
12
12
12
12
12
12
12
12
12
12
12
12
12
12
12
12
12
12
12
12
12
12
12
12
12
12
12
12
12
12
12
12
12
12
12
12
12
12
12
12
12
12
12
12
12
12
12
12
12
12
12
12
12
12
12
12
12
12
12
12
12
12
12
12
12
12
12
12
12
12
12
12
12
12
12
12
12
12
12
12
12
12
12
12
12
12
12
12
12
12
12
12
12
12
12
12
12
12
12
12
12
12
12
12
12
12
12
12
12
12
12
12
12
12
12
12
12
12
12
12
12
12
12
12
12
12
12
12
12
12
12
12
12
12
12
12
12
12
12
12
12
12
12
12
12
12
12
12
12
12
12
12
12
12
12
12
12
12
12
12
12
12
12
12
12
12
12
12
12
12
12
12
12
12
12
12
12
12
12
12
12
12
12
12
12
12
12
12
12
12
12
12
12
12
12
12
12
12
12
12
12
12
12
12
12
12
12
12
12
12
12
12
12
12
12
12
12
12
12
12
12
12
12
12
12
12
12
12
12
12
12
12
12
12
12
12
12
12
12
12
12
12
12
12
12
12
12
12
12
12
12
12
12
12
12
12
12
12
12
12
12
12
12
12
12
12
12
12
12
12
12
12
12
12
12
12
12
12
12
12
12
12
12
12
12
12
12
12
12
12
12
12
12
12
12
12
12
12
12
12
12
12
12
12
12
12
12
12
12
12
12
12
12
12
12
12
12
12
12
12
12
12
12
12
12
12
12
12
12
12
12
12
12
12
12
12
12
12
12
12
12
12
12
12
12
12
12
12
12
12
12
12
12
12
12
12
12
12
12
12
12
12
12
12
12
12
12
12
12
12
12
12
12
12
12
12
12
12
12
12
12
12
12
12
12
12
12
12
12
12
12
12
12
12
12
12
12
12
12
12
12
12
12
12
12
12
12
12
12
12
12
12
12
12
12
12
12
12
12
12
12
12
12
12
12
12
12
12
12
12
12
12
12
12
12
12
12
12
12
12
12
12
12
12
12
12
12
12
12
12
12
12
12
12
12
12
12
12
12
12
12
12
12
12
12
12
12
12
12
12
12
12
12
12
12
12
12
12
12
12
12
12
12
12
12
12
12
12
12
12
12
12
12
12
12
12
12
12
12
12
12
12
12
12
12
12
12
12
12
12
12
12
12
12
12
12
12
12
12
12
12
12
12
12
12
12
12
12
12
12
12
12
12
12
12
12
12
12
12
12
12
12
12
12
12
12
12
12
12
12
12
12
12
12
12
12
12
12
12
12
12
12
12
12
12
12
12
12
12
12
12
12
12
12
12
12
12
12
12
12
12
12
12
12
12
12
12
12
12
12
12
12
12
12
12
12
12
12
12
12
12
12
12
12
12
12
12
12
12
12
12
12
12
12
12
12
12
12
12
12
12
12
12
12
12
12
12
12
12
12
12
12
12
12
12
12
12
12
12
12
12
12
12
12
12
12
12
12
12
12
12
12
12
12
12
12
12
12
12
12
12
12
12
12
12
12
12
12
12
12
12
12
12
12
12
12
12
12
12
12
12
12
12
12
12
12
12
12
12
12
12
12
12
12
12
12
12
12
12
12
12
12
12
12
12
12
12
12
12
12
12
12
12
12
12
12
12
12
12
12
12
12
12
12
12
12
12
12
12
12
12
12
12
12
12
12
12
12
12
12
12
12
12
12
12
12
12
12
12
12
12
12
12
12
12
12
12
12
12
12
12
12
12
12
12
12
12
12
12
12
12
12
12
12
12
12
12
12
12
12
12
12
12
12
12
12
12
12
12
12
12
12
12
12
12
12
12
12
12
12
12
12
12
12
12
12
12
12
12
12
12
12
12
12
12
12
12
12
12
12
12
12
12
12
12
12
12
12
12
12
12
12
12
12
12
12
12
12
12
12
12
12
12
12
12
12
12
12
12
12
12
12
12
12
12
12
12
12
12
12
12
12
12
12
12
12
12
12
12
12
12
12
12
12
12
12
12
12
12
12
12
12
12
12
12
12
12
12
12
12
12
12
12
12
12
12
12
12
12
12
12
12
12
12
12
12
12
12
12
12
12
12
12
12
12
12
12
12
12
12
12
12
12
12
12
12
12
12
12
12
12
12
12
12
12
12
12
12
12
12
12
12
12
12
12
12
12
12
12
12
12
12
12
12
12
12
12
12
12
12
12
12
12
12
12
12
12
12
12
12
12
12
12
12
12
12
12
12
12
12
12
12
12
12
12
12
12
12
12
12
12
12
12
12
12
12
12
12
12
12
12
12
12
12
12
12
12
12
12
12
12
12
12
12
12
12
12
12
12
12
12
12
12
12
12
12
12
12
12
12
12
12
12
12
12
12
12
12
12
12
12
12
12
12
12
12
12
12
12
12
12
12
12
12
12
12
12
12
12
12
12
12
12
12
12
12
12
12
12
12
12
12
12
12
12
12
12
12
12
12
12
12
12
12
12
12
12
12
12
12
12
12
12
12
12
12
12
12
12
12
12
12
12
12
12
12
12
12
12
12
12
12
12
12
12
12
12
12
12
12
12
12
12
12
12
12
12
12
12
12
12
12
12
12
12
12
12
12
12
12
12
12
12
12
12
12
12
12
12
12
12
12
12
12
12
12
12
12
12
12
12
12
12
12
12
12
12
12
12
12
12
12
12
12
12
12
12
12
12
12
12
12
12
12
12
12
12
12
12
12
12
12
12
12
12
12
12
12
12
12
12
12
12
12
12
12
12
12
12
12
12
12
12
12
12
12
12
12
12
12
12
12
12
12
12
12
12
12
12
12
12
12
12
12
12
12
12
12
12
12
12
12
12
12
12
12
12
12
12
12
12
12
12
12
12
12
12
12
12
12
12
12
12
12
12
12
12
12
12
12
12
12
12
12
12
12
12
12
12
12
12
12
12
12
12
12
12
12
12
12
12
12
12
12
12
12
12
12
12
12
12
12
12
12
12
12
12
12
12
12
12
12
12
12
12
12
12
12
12
12
12
12
12
12
12
12
12
12
12
12
12
12
12
12
12
12
12
12
12
12
12
12
12
12
12
12
12
12
12
12
12
12
12
12
12
12
12
12
12
12
12
12
12
12
12
12
12
12
12
12
12
12
12
12
12
12
12
12
12
12
12
12
12
12
12
12
12
12
12
12
12
12
12
12
12
12
12
12
12
12
12
12
12
12
12
12
12
12
12
12
12
12
12
12
12
12
12
12
12
12
12
12
12
12
12
12
12
12
12
12
12
12
12
12
12
12
12
12
12
12
12
12
12
12
12
12
12
12
12
12
12
12
12
12
12
12
12
12
12
12
12
12
12
12
12
12
12
12

POINT_DATA 3012
SCALARS Jp_lamdaP float 4
LOOKUP_TABLE default
0.999897 1 1 0.999897
1 1 1 1
0.9999 1 1 0.9999
0.99986 1 1 0.99986
0.999895 1 1 0.999895
0.999895 1 1 0.999895
0.999452 1 1 0.999452
1 1 1 1
1 1 1 1
1 1 1 1
0.999966 1 1 0.999966
0.99962 1 1 0.99962
0.999819 1 1 0.999819
0.999851 1 1 0.999851
0.9999 1 1 0.9999
0.999872 1 1 0.999872
0.9999 1 1 0.9999
0.999902 1 1 0.999902
0.999455 1 1 0.999455
1 1 1 1
0.999842 1 1 0.999842
0.99988 1 1 0.99988
0.999327 1 1 0.999327
0.999419 1 1 0.999419
0.999919 1 1 0.999919
0.999489 1 1 0.999489
0.99874 1 1 0.99874
1 1 1 1
0.999938 1 1 0.999938
0.999951 1 1 0.999951
1 1 1 1
0.999628 1 1 0.999628
0.999871 1 1 0.999871
0.999893 1 1 0.999893
0.999521 1 1 0.999521
1 1 1 1
0.999611 1 1 0.999611
0.999711 1 1 0.999711
0.99881 1 1 0.99881
1 1 1 1
1 1 1 1
0.999923 1 1 0.999923
1 1 1 1
0.99984 1 1 0.99984
0.999259 1 1 0.999259
1 1 1 1
0.999433 1 1 0.999433
0.999882 1 1 0.999882
0.999906 1 1 0.999906
0.999902 1 1 0.999902
0.999459 1 1 0.999459
0.999908 1 1 0.999908
0.999855 1 1 0.999855
0.999927 1 1 0.999927
0.999891 1 1 0.999891
0.999327 1 1 0.999327
0.999494 1 1 0.999494
0.999422 1 1 0.999422
0.998726 1 1 0.998726
1 1 1 1
0.999828 1 1 0.999828
0.999397 1 1 0.999397
0.999293 1 1 0.999293
0.999373 1 1 0.999373
0.998462 1.00001 1 0.998447
0.998583 1 1 0.998583
0.999963 1 1 0.999963
0.999604 1 1 0.999604
0.998848 1 1 0.998848
1.00037 1.0023 1 0.998078
1 1 1 1
1 1 1 1
1 1 1 1
0.999637 1 1 0.999637
1 1 1 1
1 1 1 1
0.999463 1 1 0.999463
0.999994 1 1 0.999994
0.99957 1 1 0.99957
0.999747 1 1 0.999747
0.998807 1 1 0.998807
1 1 1 1
0.999976 1 1 0.999976
0.999408 1 1 0.999408
0.9995 1 1 0.9995
0.998478 1.00008 1 0.998401
0.99985 1 1 0.99985
0.998707 1 1 0.998707
0.998939 1 1 0.998939
0.998326 1 1 0.998326
1 1 1 1
1 1 1 1
1 1 1 1
1 1 1 1
1 1 1 1
0.999916 1 1 0.999916
0.999324 1 1 0.999324
0.999928 1 1 0.999928
0.999399 1 1 0.999399
1 1 1 1
0.999239 1 1 0.999239
0.999403 1 1 0.999403
0.998317 1.00023 1 0.998091
0.999465 1 1 0.999465
0.998798 1.00061 1 0.998187
0.999836 1 1 0.999836
0.999866 1 1 0.999866
0.999935 1 1 0.999935
0.999899 1 1 0.999899
0.999329 1 1 0.999329
0.999427 1 1 0.999427
0.999499 1 1 0.999499
0.998712 1 1 0.998712
1 1 1 1
0.999841 1 1 0.999841
0.999264 1 1 0.999264
0.999292 1 1 0.999292
0.999982 1 1 0.999982
0.99965 1 1 0.99965
0.999376 1 1 0.999376
0.998434 1.00002 1 0.99841
0.998829 1 1 0.998829
0.998609 1 1 0.998609
1.0007 1.00262 1 0.998081
0.99926 1 1 0.99926
0.999267 1 1 0.999267
0.998268 1.00003 1 0.998234
0.998412 1.00008 1 0.998335
0.998467 1 1 0.998467
1.00462 1.00678 1 0.997853
1 1 1 1
1.00154 1.00355 1 0.998003
0.999806 1 1 0.999806
0.998905 1 1 0.998905
0.999699 1.00155 1 0.998152
1.00711 1.0093 1 0.997837
0.999924 1 1 0.999924
0.999351 1 1 0.999351
1 1 1 1
1 1 1 1
0.999469 1 1 0.999469
1 1 1 1
0.999755 1 1 0.999755
0.999574 1 1 0.999574
0.998805 1 1 0.998805
1 1 1 1
0.999984 1 1 0.999984
0.999453 1 1 0.999453
0.999542 1 1 0.999542
0.998449 1.00005 1 0.998403
0.999869 1 1 0.999869
0.99871 1 1 0.99871
0.998939 1 1 0.998939
0.998312 1 1 0.998311
0.999929 1 1 0.999929
0.999997 1 1 0.999997
0.999505 1 1 0.999505
0.998552 1.00026 1 0.99829
0.998558 1 1 0.998558
1.00347 1.00561 1 0.997878
0.999122 1 1 0.999122
0.999134 1.00092 1 0.998211
0.998982 1 1.00056 0.998421
0.998761 1.0006 1 0.99816
1 1 1 1
1 1 1 1
1 1 1 1
0.999957 1 1 0.999957
1 1 1 1
1 1 1 1
1 1 1 1
0.999362 1 1 0.999362
0.999283 1 1 0.999283
1 1 1 1
1 1 1 1
0.999241 1 1 0.999241
0.999368 1 1 0.999368
0.998419 1.00033 1 0.998091
0.99939 1 1 0.99939
0.998754 1.00057 1 0.998187
0.99923 1 1 0.99923
0.998091 1.00005 1 0.998038
0.998646 1.0005 1 0.998148
1.00789 1.01028 1 0.997637
0.998688 1.00046 1 0.998225
1.00737 1.00967 1 0.997723
1 1 1 1
0.999853 1 1 0.999853
0.999122 1 1 0.999122
0.999293 1 1 0.999293
1 1 1 1
0.999697 1 1 0.999697
0.999379 1 1 0.999379
0.99841 1.00004 1 0.998373
0.998636 1 1 0.998636
0.99881 1 1 0.99881
1.00104 1.00296 1 0.998085
0.999257 1 1 0.999257
0.999267 1 1 0.999267
0.998176 1.00002 1 0.998153
0.998442 1.00008 1 0.998362
1 1 1 1
0.999795 1 1 0.999795
0.998946 1 1 0.998946
0.998467 1 1 0.998467
1.00462 1.00682 1 0.997814
0.999798 1.00166 1 0.998142
1.00194 1.00391 1 0.99803
1.00674 1.00892 1 0.997842
0.999915 1 1 0.999915
0.999358 1 1.00001 0.999352
0.998063 1.00001 1 0.998057
0.998379 1.00009 1 0.99829
1.00602 1.00831 1 0.997733
1.00513 1.00741 1 0.997731
1.00271 1.00478 1 0.997947
1.01441 1.01674 1 0.997704
0.999875 1 1 0.999875
1.00882 1.01104 1 0.997804
0.99905 1 1 0.99905
0.998718 1.00042 1 0.998295
1.00555 1.00767 1 0.997896
1.01163 1.01384 1 0.997814
0.999228 1 1 0.999228
0.999508 1 1 0.999508
0.999242 1 1.00039 0.998857
0.999425 1 1 0.999425
1 1 1 1
0.999992 1 1 0.999992
0.999525 1 1 0.999525
0.998421 1.00002 1 0.998406
0.999881 1 1 0.999881
0.998938 1 1 0.998938
0.998713 1 1 0.998713
0.998302 1.00001 1 0.998296
0.999944 1 1 0.999944
0.999998 1 1 0.999998
0.999508 1 1 0.999508
0.998495 1.00021 1 0.99829
0.998563 1 1 0.998563
1.00284 1.00498 1 0.997876
0.999124 1 1 0.999124
0.998844 1.00062 1 0.998222
0.998886 1 1.00047 0.998417
0.998908 1.00076 1 0.998147
1 1 1 1
0.999306 1 1 0.999306
0.999697 1 1 0.999697
0.999191 1 1.00018 0.999014
1.00527 1.0075 1 0.997785
1.00133 1.00329 1 0.99805
1.01054 1.0129 1 0.997671
0.999066 1 1.00044 0.998629
1.00161 1.00358 1 0.998039
1.00017 1.00047 1.00158 0.998125
1.0026 1.00459 1 0.998019
0.999901 1 1 0.999901
1 1 1 1
1 1 1 1
1 1 1 1
1 1 1 1
0.99998 1 1 0.99998
1 1 1 1
0.999948 1 1 0.999948
1 1 1 1
0.999391 1 1 0.999391
0.999327 1 1 0.999327
0.998748 1.00056 1 0.998187
0.998523 1.00043 1 0.998091
0.999243 1 1 0.999243
1 1 1 1
0.999229 1 1 0.999229
0.998137 1.0001 1 0.998038
0.998708 1.00056 1 0.998148
1.00781 1.0102 1 0.997636
0.998647 1.00042 1 0.998225
1.00739 1.00969 1 0.997723
0.99803 1 1 0.998028
1.00737 1.00981 1 0.997587
1.00794 1.01027 1 0.997687
1.02105 1.0235 1 0.99761
1.00671 1.00898 1 0.997748
1.019 1.02139 1 0.997654
0.999254 1 1 0.999254
0.999266 1 1 0.999266
0.998086 1.00001 1 0.998073
0.998469 1.00008 1 0.998389
1 1 1 1
0.999785 1 1 0.999785
0.998987 1 1 0.998987
0.998467 1 1 0.998467
1.00461 1.00685 1 0.997776
1.00231 1.00427 1 0.998056
0.999886 1.00176 1 0.998133
1.00641 1.00858 1 0.997847
0.999905 1 1 0.999905
0.999363 1 1.00001 0.999352
0.998038 1.00001 1 0.998033
0.998364 1.00008 1 0.998288
1.00623 1.00853 1 0.997726
1.00533 1.00758 1 0.99777
0.999865 1 1 0.999865
0.999047 1 1 0.999047
0.998844 1.00052 1 0.998327
1.00296 1.00502 1 0.997947
1.01473 1.01706 1 0.997707
1.00499 1.00714 1 0.997862
1.00881 1.01103 1 0.997807
1.01192 1.01414 1 0.997814
0.999231 1 1 0.999231
0.99932 1 1.00046 0.998858
0.999511 1 1.00001 0.999505
1.0066 1.00895 1 0.997674
1.00633 1.00859 1 0.997756
1.01872 1.02117 1 0.997606
1.01675 1.01915 1 0.997644
1.01107 1.01334 1 0.997765
1.01867 1.02091 1 0.997804
0.999155 1 1 0.999155
1.01376 1.01597 1 0.997823
0.998589 1 1 0.998589
0.999645 1.00172 1 0.997928
1.00909 1.01139 1 0.997723
1.01316 1.01526 1 0.99793
0.999638 1 1 0.999638
0.998838 1 1 0.998838
0.999501 1 1.00057 0.998934
0.999151 1 1.00046 0.998696
0.998436 1.00015 1 0.99829
1 1 1 1
0.999958 1 1 0.999958
0.99951 1 1 0.99951
0.998568 1 1 0.998568
1.00219 1.00433 1 0.997874
0.999126 1 1 0.999126
0.998739 1 1.00032 0.998414
0.998499 1.00027 1 0.998232
0.99905 1.00092 1 0.998134
1 1 1 1
0.999306 1 1 0.999306
0.999703 1 1 0.999703
0.999147 1 1.00014 0.999011
1.00486 1.00709 1 0.997782
1.00055 1.0025 1 0.998052
1.01064 1.01301 1 0.99767
0.999075 1 1.00044 0.998633
1.00108 1.00303 1 0.998053
1.00053 1.00069 1.00173 0.998113
1.00229 1.00421 1 0.998087
1 1 1 1
0.999812 1 1 0.999812
0.998839 1 1 0.998839
0.999415 1 1.00021 0.999207
0.999394 1 1.00064 0.998751
1.0137 1.01611 1 0.997629
1.00606 1.00823 1 0.997839
1.01251 1.01488 1 0.99766
1.00028 1 1.00199 0.998285
1.00355 1.0056 1 0.99796
1.0021 1.0034 1.00086 0.997849
0.999886 1 1 0.999886
0.999557 1 1 0.999557
0.99991 1 1 0.99991
0.999903 1 1 0.999903
1 1 1 1
1 1 1 1
1 1 1 1
1 1 1 1
1 1 1 1
0.999995 1 1 0.999995
1 1 1 1
0.999974 1 1 0.999974
1 1 1 1
0.99994 1 1 0.99994
1 1 1 1
0.998593 1.00037 1 0.998224
0.998734 1.00059 1 0.998148
1.00734 1.00964 1 0.997722
1.0077 1.01008 1 0.997635
0.998192 1.00015 1 0.998038
0.999229 1 1 0.999229
0.998037 1.00001 1 0.998028
1.00743 1.00986 1 0.997588
1.00772 1.01006 1 0.997686
1.02125 1.02369 1 0.997617
1.00646 1.00873 1 0.997746
1.01848 1.02088 1 0.997653
1.00708 1.00953 1 0.997576
1.02124 1.02371 1 0.997586
1.02069 1.02311 1 0.997634
1.02608 1.02843 1 0.99772
1.01595 1.01835 1 0.997647
1.02078 1.023 1 0.997828
0.998013 1 1 0.998009
0.998352 1.00007 1 0.998285
1.00641 1.00871 1 0.997718
1.00553 1.00774 1 0.997808
0.999856 1 1 0.999856
0.999044 1 1 0.999044
0.998936 1.00058 1 0.99836
1.00322 1.00528 1 0.997947
1.01505 1.01738 1 0.997711
1.00882 1.01104 1 0.997809
1.00435 1.00654 1 0.997829
1.01219 1.01441 1 0.997813
0.999234 1 1 0.999234
0.999369 1 1.00051 0.998859
0.999515 1 1.00001 0.999502
1.00674 1.00913 1 0.997639
1.00633 1.00859 1 0.997755
1.01849 1.02093 1 0.997611
1.01711 1.01951 1 0.997649
0.999155 1 1 0.999155
0.998619 1.00004 1 0.998582
0.999838 1.00183 1.00003 0.997977
1.01125 1.01351 1 0.997769
1.01794 1.02015 1 0.997831
1.00919 1.01153 1 0.997694
1.01376 1.01597 1 0.997826
1.01255 1.01463 1 0.99795
0.998841 1 1 0.998841
0.999168 1 1.00049 0.998679
0.999633 1 1 0.999633
0.99953 1 1.00058 0.998956
1.01922 1.02171 1 0.997561
1.01917 1.02158 1 0.99764
1.02356 1.02597 1 0.99765
1.02028 1.02254 1 0.997797
1.01613 1.01833 1 0.997845
1.01826 1.02035 1 0.997952
0.998775 1 1 0.998775
1.01342 1.01542 1 0.998028
0.99826 1 1 0.99826
1.00362 1.00576 1.00018 0.997695
1.01141 1.0138 1 0.997647
1.01217 1.01422 1 0.997978
0.999718 1 1 0.999718
0.999185 1 1.0001 0.999089
0.998679 1 1 0.998679
0.999864 1 1.00114 0.998725
0.998925 1 1.00028 0.998643
1 1 1 1
1.0044 1.00664 1 0.997779
0.999709 1 1 0.999709
0.999306 1 1 0.999306
0.999087 1 1.00008 0.999007
0.999864 1.00181 1 0.998054
1.01077 1.01313 1 0.997668
0.999131 1 1.00049 0.998637
1.00099 1.00096 1.00193 0.998102
1.0007 1.00264 1 0.998067
1.00207 1.00392 1 0.998156
1 1 1 1
0.999818 1 1 0.999818
0.99884 1 1 0.99884
0.999335 1 1.00013 0.999207
0.99959 1 1.00086 0.99873
1.01395 1.01636 1 0.997625
1.00594 1.00812 1 0.997839
1.01249 1.01487 1 0.997651
1.00041 1 1.00213 0.998289
1.00501 1.00705 1 0.997974
1.00186 1.00304 1.00096 0.99787
0.999862 1 1 0.999862
0.999375 1 1 0.999375
0.999015 1 1.00048 0.998539
0.999736 1 1.00083 0.998905
0.999515 1 1.00091 0.998604
1.01531 1.01768 1 0.997675
1.00816 1.0104 1 0.997786
1.01187 1.01409 1 0.997813
1.00183 1 1.00379 0.998044
1.00302 1.00531 1 0.997723
0.999889 1 1 0.999889
0.999493 1 1 0.999493
0.999538 1 1 0.999538
0.999345 1 1 0.999345
0.999565 1 1 0.999565
0.999912 1 1 0.999912
0.999911 1 1 0.999911
1 1 1 1
0.999905 1 1 0.999905
1 1 1 1
1 1 1 1
1 1 1 1
1 1 1 1
1 1 1 1
1 1 1 1
0.999991 1 1 0.999991
1 1 1 1
1 1 1 1
0.999967 1 1 0.999967
1 1 1 1
1.00626 1.00853 1 0.997743
1.00758 1.00992 1 0.997686
1.01799 1.02039 1 0.997652
1.02146 1.0239 1 0.997623
1.00749 1.00993 1 0.997588
0.998044 1.00002 1 0.998027
1.00711 1.00956 1 0.997577
1.02116 1.02364 1 0.997579
1.02055 1.02297 1 0.997634
1.02541 1.02787 0.999865 0.997741
1.01627 1.01867 1 0.997643
1.02106 1.02327 1 0.997841
1.0201 1.0226 1 0.997554
1.02456 1.02716 0.999797 0.997675
1.02362 1.02586 1 0.997808
1.02419 1.02706 0.999365 0.997841
1.01867 1.02095 1 0.997771
1.02187 1.02397 0.99996 0.997987
1.00692 1.00934 1 0.997605
1.00632 1.00858 1 0.997753
1.0183 1.02073 1 0.997615
1.01749 1.01988 1 0.997654
0.999155 1 1 0.999155
0.998686 1.00011 1 0.998576
1.00017 1.00196 1.00018 0.998026
1.01143 1.01369 1 0.997773
1.01719 1.01938 1 0.997859
1.01374 1.01595 1 0.997829
1.0093 1.01166 1 0.997664
1.01188 1.01394 1 0.99797
0.998844 1 1 0.998844
0.999146 1 1.00049 0.998661
0.999629 1 1 0.999629
0.999452 1 1.00047 0.998978
1.0192 1.02169 1 0.997562
1.01891 1.02133 1 0.99763
1.02351 1.02591 1 0.997664
1.01968 1.02195 1 0.997784
0.998771 1 1 0.998771
0.998435 1.0001 1.00003 0.998303
1.00385 1.00578 1.00039 0.997689
1.01587 1.01809 1 0.997822
1.01839 1.02043 1 0.997996
1.01106 1.01345 1 0.997636
1.0133 1.0153 1 0.99803
1.01315 1.01517 1 0.998016
0.998678 1 1 0.998678
0.998757 1 1.00011 0.998644
1.00023 1 1.00151 0.99872
0.999687 1 1 0.999687
0.999133 1 1.00002 0.999109
1.02423 1.02664 0.999997 0.997651
1.02361 1.02596 1 0.997711
1.01946 1.02171 0.999834 0.997962
1.01589 1.01789 1 0.998033
0.998579 1 1 0.998579
1.01534 1.01721 1 0.998162
0.998396 1.00005 1.00029 0.998058
1.00691 1.00896 1.00051 0.99746
1.0114 1.01383 1 0.997609
0.999731 1 1 0.999731
0.999282 1 1 0.999282
0.999378 1 1.00049 0.998884
0.99864 1 1 0.99864
1.00095 1 1.00239 0.998561
0.998587 1 1 0.998587
1 1 1 1
0.999824 1 1 0.999824
1.01425 1.01667 1 0.99762
0.999272 1 1.00006 0.999208
0.998841 1 1 0.998841
0.999896 1 1.00119 0.998708
1.00562 1.0078 1 0.997839
1.01233 1.01472 1 0.997643
1.00058 1 1.00229 0.998294
1.00125 1.00259 1.00077 0.99789
1.00626 1.00829 1 0.997989
0.999866 1 1 0.999866
0.999377 1 1 0.999377
0.998958 1 1.00041 0.998545
0.999974 1 1.00107 0.998903
0.999769 1 1.00118 0.998593
1.01545 1.01782 1 0.99767
1.00865 1.01089 1 0.997777
1.01175 1.01394 1 0.997836
1.00126 1 1.00324 0.998021
1.00253 1.00479 1.00006 0.997693
0.999475 1 1 0.999475
0.999325 1 1.00029 0.999035
1.00036 1 1.002 0.99837
1.00052 1 1.00188 0.998643
0.999482 1 1.001 0.998489
1.0177 1.01971 1 0.998029
1.00799 1.01031 1 0.997702
1.0098 1.01197 1 0.997861
1.00316 1.00096 1.00433 0.997866
1.00022 1.00274 1 0.997487
0.999893 1 1 0.999893
0.999509 1 1 0.999509
0.999256 1 1 0.999256
0.999518 1 1 0.999518
0.999565 1 1 0.999565
0.999317 1 1 0.999317
0.999176 1 1 0.999176
0.999298 1 1 0.999298
0.999569 1 1 0.999569
0.99991 1 1 0.99991
0.999912 1 1 0.999912
1 1 1 1
0.999912 1 1 0.999912
1 1 1 1
1 1 1 1
1 1 1 1
1 1 1 1
1 1 1 1
1 1 1 1
0.999999 1 1 0.999999
1 1 1 1
0.999987 1 1 0.999987
1 1 1 1
1 1 1 1
1.01654 1.01895 1 0.997638
1.02039 1.02281 1 0.997634
1.02133 1.02353 1 0.997854
1.02471 1.02733 0.999683 0.997763
1.02106 1.02355 1 0.997572
1.00712 1.00956 1 0.997577
1.02028 1.02279 1 0.997542
1.02484 1.02736 0.999877 0.997667
1.0235 1.02577 1 0.997789
1.02378 1.02675 0.999257 0.997854
1.01809 1.02036 1 0.997771
1.02141 1.02346 0.999968 0.998021
1.02365 1.02607 1 0.997636
1.02483 1.02831 0.998789 0.997825
1.02372 1.02627 0.999554 0.99796
1.01981 1.02177 1 0.998087
1.01914 1.02163 1 0.997563
1.01865 1.02108 1 0.997619
1.02345 1.02584 1 0.997678
1.01912 1.02139 1 0.997772
0.998766 1 1 0.998766
0.998437 1.00009 1 0.998346
1.00406 1.00581 1.00058 0.997682
1.01556 1.0178 1 0.997799
1.01852 1.02052 1 0.998041
1.01328 1.01527 1 0.998032
1.01075 1.01316 1 0.997624
1.01405 1.01602 1 0.998054
0.998677 1 1 0.998677
0.998645 1 1 0.998645
1.00086 1 1.00215 0.998715
0.999656 1 1 0.999656
0.999129 1 1 0.999129
1.02405 1.02646 1 0.997654
1.02382 1.02616 1 0.997715
1.01935 1.02164 0.999802 0.997955
0.998573 1 1 0.998573
0.998839 1.00049 1.00026 0.998097
1.00654 1.00835 1.00076 0.99745
1.01634 1.01836 1 0.998022
1.01116 1.01352 1 0.997672
1.01439 1.01628 1 0.998146
0.99974 1 1 0.99974
0.998635 1 1 0.998635
0.998636 1 1 0.998636
1.00082 1 1.00227 0.998549
0.999325 1 1.00043 0.998893
0.999258 1 1 0.999258
1.02456 1.02717 0.999738 0.997723
1.02345 1.02757 0.998116 0.997871
1.01798 1.02082 0.999168 0.99805
1.02051 1.02257 0.999785 0.998201
0.998453 1 1 0.998453
1.01246 1.0146 1 0.997889
1.00027 1.00097 1.00165 0.997666
1.00494 1.00659 1.00104 0.997321
0.999812 1 1 0.999812
0.999392 1 1 0.999392
0.999025 1 1 0.999025
1.00112 1 1.00249 0.998629
0.998559 1 1 0.998559
0.999372 1 1.00091 0.998465
0.999871 1 1 0.999871
0.99938 1 1 0.99938
1.01569 1.01807 1 0.997665
0.999977 1 1.00108 0.998901
0.998821 1 1.00027 0.998551
0.99996 1 1.00138 0.998583
1.00932 1.01158 1 0.997769
1.01182 1.01399 1 0.997859
1.00072 1 1.00273 0.997998
1.00216 1.00424 1.00027 0.997662
0.999477 1 1 0.999477
0.999138 1 1.00009 0.999045
1.00037 1 1.00198 0.998388
1.00082 1 1.00218 0.998647
0.999013 1 1.00048 0.998537
1.01771 1.01969 1 0.998055
1.00759 1.00991 1 0.997704
1.01079 1.01288 1 0.997935
1.00304 1.00062 1.00458 0.997839
1.00089 1.00342 1.00003 0.997446
0.999194 1 1 0.999194
0.999346 1 1.0006 0.998745
1.00201 1 1.00378 0.998231
0.999835 1 1.00145 0.998387
1.02112 1.02608 0.996932 0.99823
1.01486 1.01688 0.999872 0.99814
1.00526 1.00776 1 0.997518
1.00294 1.0012 1.00426 0.997494
0.999525 1 1 0.999525
0.999268 1 1 0.999268
0.999123 1 1 0.999123
0.999565 1 1 0.999565
0.999289 1 1 0.999289
0.999568 1 1 0.999568
0.999158 1 1 0.999158
0.999309 1 1 0.999309
0.999052 1 1 0.999052
0.999139 1 1 0.999139
0.999289 1 1 0.999289
0.999559 1 1 0.999559
0.999904 1 1 0.999904
0.999909 1 1 0.999909
1 1 1 1
0.999912 1 1 0.999912
1 1 1 1
1 1 1 1
1 1 1 1
1 1 1 1
1 1 1 1
1 1 1 1
1 1 1 1
1 1 1 1
0.999998 1 1 0.999998
1 1 1 1
1 1 1 1
1.01749 1.01976 1 0.997772
1.02336 1.02564 1 0.997769
1.02095 1.02296 0.999975 0.998054
1.02338 1.02638 0.999204 0.997867
1.02515 1.02755 1 0.997659
1.02049 1.02302 1 0.997531
1.02365 1.02607 1 0.997643
1.02383 1.02716 0.998933 0.997817
1.02357 1.02627 0.999401 0.997961
1.0212 1.02315 1 0.998087
1.02453 1.02761 0.999233 0.997768
1.02548 1.03092 0.996722 0.997996
1.02521 1.0284 0.998796 0.998102
1.02388 1.02629 1 0.997657
1.024 1.02634 1 0.997719
1.01921 1.02153 0.999781 0.997947
0.998567 1 1 0.998567
0.999332 1.00102 1.00018 0.998137
1.00598 1.00771 1.00085 0.99744
1.01677 1.01879 1 0.998012
1.01357 1.01547 1 0.998131
1.01123 1.01353 1 0.997734
0.99863 1 1 0.99863
0.998685 1 1 0.998685
1.00054 1 1.002 0.998536
0.999748 1 1 0.999748
0.999155 1 1.00025 0.998903
0.999234 1 1 0.999234
1.02514 1.02772 0.999762 0.997728
1.02413 1.0277 0.998644 0.997878
1.01809 1.02078 0.999328 0.998041
0.998503 1.00006 1 0.998443
1.00038 1.00124 1.0014 0.997748
1.00447 1.00623 1.0009 0.997349
1.02036 1.02244 0.999753 0.998212
1.01306 1.01522 1 0.997879
0.999845 1 1 0.999845
0.999392 1 1 0.999392
0.998573 1 1 0.998573
0.999859 1 1.00134 0.998522
1.00108 1 1.00244 0.998641
0.999004 1 1 0.999004
1.02634 1.03088 0.997678 0.997912
1.0181 1.0253 0.994954 0.99801
1.01901 1.02273 0.998125 0.998237
1.01728 1.01917 0.999905 0.998242
0.999138 1 1.00088 0.998256
1.0042 1.0054 1.0014 0.997412
1.00197 1.00186 1.00264 0.997475
0.999922 1 1 0.999922
0.999602 1 1 0.999602
0.999435 1 1 0.999435
0.99909 1 1 0.99909
0.999382 1 1.0006 0.998779
1.00034 1 1.00183 0.998512
0.998596 1 1 0.998596
1.0086 1 1.00997 0.99864
0.999479 1 1 0.999479
0.999077 1 1.00002 0.999055
1.0176 1.01956 1 0.998081
1.00131 1 1.00266 0.99865
1.00056 1 1.00215 0.998405
0.998621 1 1.00004 0.998586
1.00702 1.00933 1 0.997706
1.01175 1.01377 1 0.998009
1.00301 1.00039 1.00482 0.997812
1.00156 1.00416 1 0.997405
0.999179 1 1 0.999179
0.999641 1 1.00089 0.998756
1.0024 1 1.00415 0.998253
0.999625 1 1.00121 0.998412
1.02215 1.02688 0.997151 0.998238
1.01435 1.01632 0.999949 0.998111
1.00614 1.00861 1 0.997557
1.00264 1.00142 1.00377 0.997458
0.999006 1 1 0.999006
1.02035 1.02717 0.995124 0.998225
1.0004 1 1.00187 0.998526
1.00069 1 1.00268 0.998019
1.01951 1.02266 0.998589 0.998329
1.00629 1.00867 1 0.997632
1.00417 1.00362 1.00323 0.997329
0.999281 1 1 0.999281
0.99912 1 1 0.99912
0.999 1 1 0.999
0.999568 1 1 0.999568
0.99932 1 1 0.99932
0.999139 1 1 0.999139
0.999558 1 1 0.999558
0.999291 1 1 0.999291
0.999035 1 1 0.999035
0.99916 1 1 0.99916
0.998955 1 1 0.998955
0.999019 1 1 0.999019
0.999144 1 1 0.999144
0.999283 1 1 0.999283
0.999537 1 1 0.999537
0.999897 1 1 0.999897
0.999903 1 1 0.999903
1 1 1 1
0.999908 1 1 0.999908
1 1 1 1
1 1 1 1
1 1 1 1
1 1 1 1
1 1 1 1
0.999947 1 1 0.999947
1 1 1 1
1 1 1 1
1 1 1 1
1 1 1 1
1 1 1 1
1 1 1 1
1.02259 1.02455 1 0.998087
1.02347 1.02631 0.999264 0.997962
1.02283 1.02606 0.999046 0.997809
1.02366 1.02607 1 0.997649
1.0244 1.0275 0.999202 0.997785
1.02597 1.03119 0.996949 0.997984
1.02499 1.02843 0.998541 0.998115
1.02547 1.03204 0.995655 0.997968
1.02832 1.03444 0.995962 0.998115
1.01314 1.02474 0.990349 0.99832
1.02574 1.02829 0.999788 0.997734
1.02483 1.02791 0.999118 0.997884
1.01816 1.02074 0.99944 0.998032
0.998598 1.00011 1.00006 0.998433
1.00061 1.00152 1.00126 0.99783
1.00389 1.00575 1.00078 0.997378
1.02033 1.02243 0.999724 0.998223
1.01316 1.01532 1 0.997869
0.998588 1 1 0.998588
1.00043 1 1.00186 0.998579
1.0013 1 1.00265 0.998653
0.999879 1 1 0.999879
0.999392 1 1 0.999392
0.998984 1 1 0.998984
1.02565 1.03062 0.997248 0.997926
0.999918 1 1 0.999918
0.999583 1 1 0.999583
1.01816 1.02461 0.995681 0.998009
1.01975 1.02347 0.998158 0.998205
0.999164 1 1.00084 0.998325
1.00247 1.00173 1.0033 0.997446
1.00455 1.00631 1.00084 0.997415
1.01641 1.01826 0.999959 0.998227
0.999489 1 1 0.999489
0.999087 1 1 0.999087
0.99854 1 1 0.99854
1.00539 1 1.00666 0.998734
1.00057 1 1.00208 0.998499
0.999465 1 1.00068 0.99879
1.02758 1.03382 0.995873 0.998078
1.01097 1.02308 0.990005 0.998147
1.0175 1.02189 0.997272 0.998426
1.0055 1.0078 0.99975 0.997959
1.00065 1 1.00234 0.99831
1.00409 1.00134 1.00547 0.9973
0.999601 1 1 0.999601
0.999552 1 1 0.999552
0.999348 1 1 0.999348
0.999102 1 1 0.999102
0.998909 1 1 0.998909
0.999515 1 1.00095 0.998567
1.01389 1 1.01546 0.998454
1.00008 1 1.00132 0.998767
0.999164 1 1 0.999164
0.99964 1 1.00087 0.998767
1.02316 1.02763 0.997402 0.998246
1.01394 1.01589 1 0.998082
0.999372 1 1.00094 0.998436
1.00268 1 1.00441 0.998274
1.00721 1.0096 1.00004 0.997596
1.00233 1.00157 1.00335 0.997421
0.999022 1 1.00002 0.999
1.02104 1.02884 0.994153 0.998252
1.00024 1 1.0017 0.998541
1.00068 1 1.00269 0.997992
1.01864 1.02193 0.998473 0.998303
1.00687 1.00922 1 0.997674
1.00391 1.00309 1.00348 0.997341
0.999853 1 1.0011 0.998752
1.01637 1.02629 0.991769 0.998554
0.999919 1 1.00158 0.998339
1.00216 1.00063 1.00379 0.997744
1.00924 1.01418 0.997124 0.997999
1.00161 1.00197 1.00221 0.997435
1.00427 1.00791 0.997756 0.998629
0.999118 1 1 0.999118
0.999041 1 1.00004 0.998998
0.998882 1 1 0.998882
0.999556 1 1 0.999556
0.999293 1 1 0.999293
0.999181 1 1 0.999181
0.999018 1 1 0.999018
0.999537 1 1 0.999537
0.999273 1 1 0.999273
0.998938 1 1 0.998938
0.999143 1 1 0.999143
0.999034 1 1 0.999034
0.99893 1 1 0.99893
0.999027 1 1 0.999027
0.999138 1 1 0.999138
0.999223 1 1 0.999223
0.999477 1 1 0.999477
0.999321 1 1 0.999321
0.999474 1 1 0.999474
0.999891 1 1 0.999891
0.999896 1 1 0.999896
1 1 1 1
0.999902 1 1 0.999902
1 1 1 1
1 1 1 1
1 1 1 1
1 1 1 1
1 1 1 1
0.999961 1 1 0.999961
0.999944 1 1 0.999944
1 1 1 1
1 1 1 1
1 1 1 1
1 1 1 1
1 1 1 1
1 1 1 1
1.02478 1.02849 0.998267 0.998128
1.02645 1.03147 0.997148 0.997973
1.02427 1.02738 0.999168 0.997803
1.0253 1.03183 0.995699 0.997966
1.02686 1.03282 0.996105 0.998112
1.01374 1.02451 0.991166 0.998301
1.02443 1.03381 0.992736 0.998181
1.00107 1.01596 0.987374 0.997948
1.01127 1.02488 0.987967 0.99874
0.999674 1 1 0.999674
1.02497 1.03033 0.99686 0.997939
1.0185 1.024 0.996616 0.998008
1.02038 1.02412 0.998174 0.998174
0.999214 1 1.00082 0.998394
1.00306 1.00163 1.00402 0.997417
1.0052 1.00735 1.00045 0.997419
1.01551 1.01732 1 0.998212
0.998486 1 1 0.998486
1.00219 1 1.00336 0.99883
1.00064 1 1.00216 0.998486
0.999914 1 1 0.999914
0.999475 1 1.00068 0.9988
0.999542 1 1 0.999542
0.999084 1 1 0.999084
0.999564 1 1 0.999564
1.02669 1.03445 0.994398 0.998086
0.999627 1 1 0.999627
0.999551 1 1 0.999551
0.999311 1 1 0.999311
1.01165 1.0228 0.99093 0.99815
1.01714 1.02144 0.99741 0.998378
0.999969 1 1.00164 0.998329
1.00391 1.00105 1.00555 0.997329
1.00489 1.00691 1.00004 0.997959
0.999131 1 1 0.999131
0.998965 1 1.00008 0.998887
1.00231 1 1.00361 0.998705
1.0112 1 1.01273 0.99849
0.999331 1 1.00074 0.99859
1.01676 1.02744 0.991422 0.998165
1.01114 1.02591 0.987314 0.998266
1.01045 1.01396 0.998387 0.998154
1.00458 1.00386 1.00292 0.997802
1.00319 1 1.00484 0.998354
0.999299 1 1 0.999299
0.999199 1 1 0.999199
0.999092 1 1 0.999092
0.998937 1 1.00002 0.998914
0.999188 1 1.00046 0.99873
1.01 1 1.01153 0.998487
1.0126 1 1.01421 0.998416
0.999039 1 1.00005 0.998993
1.00014 1 1.00159 0.998556
1.02141 1.03049 0.99289 0.998279
1.01764 1.02114 0.998289 0.998277
1.00723 1.00954 1 0.997715
1.00064 1 1.00268 0.997966
1.00343 1.00248 1.0036 0.997353
0.999792 1 1.00101 0.998786
1.01522 1.02595 0.990964 0.998564
0.999605 1 1.00124 0.998365
1.00214 1.00031 1.00408 0.997755
1.01045 1.01479 0.997653 0.998071
1.00207 1.00196 1.00269 0.997422
1.00399 1.00812 0.997687 0.998208
0.999894 1 1.00127 0.998627
1.00527 1.01678 0.990117 0.998549
1.00027 1 1.00194 0.998329
1.0041 1.00004 1.00636 0.997723
1.00356 1.00488 1.00093 0.997759
0.954456 0.979105 0.987011 0.987653
0.977838 0.987729 0.99583 0.994132
0.981143 0.999495 0.98291 0.998707
0.868317 0.90895 0.969522 0.985328
0.833675 0.909563 0.932214 0.983215
0.999029 1 1.00003 0.998996
0.998936 1 1.00004 0.998897
0.99891 1 1 0.99891
0.999536 1 1 0.999536
0.999263 1 1 0.999263
0.999143 1 1 0.999143
0.999049 1 1 0.999049
0.998922 1 1 0.998922
0.999119 1 1 0.999119
0.999499 1 1 0.999499
0.999236 1 1 0.999236
0.998933 1 1 0.998933
0.999028 1 1 0.999028
0.999035 1 1 0.999035
0.998988 1 1 0.998988
0.999066 1 1 0.999066
0.999195 1 1 0.999195
0.999467 1 1 0.999467
0.999257 1 1 0.999257
0.999161 1 1 0.999161
0.999299 1 1 0.999299
0.999293 1 1 0.999293
0.999529 1 1 0.999529
0.999473 1 1 0.999473
0.999887 1 1 0.999887
0.99989 1 1 0.99989
1 1 1 1
0.999896 1 1 0.999896
1 1 1 1
1 1 1 1
1 1 1 1
1 1 1 1
1 1 1 1
0.999968 1 1 0.999968
0.999959 1 1 0.999959
1 1 1 1
0.999941 1 1 0.999941
1 1 1 1
1 1 1 1
1 1 1 1
1 1 1 1
1 1 1 1
1.02544 1.03121 0.996283 0.998109
1.02508 1.03155 0.995752 0.997964
1.01446 1.02419 0.992203 0.998283
1.00233 1.01572 0.988805 0.997987
1.02296 1.03238 0.992683 0.998179
1.0157 1.02675 0.990567 0.998667
1.02353 1.02995 0.995543 0.998218
0.964919 0.984914 0.986274 0.993334
1.00833 1.01935 0.990837 0.99834
0.999682 1 1 0.999682
0.999673 1 1 0.999673
0.999383 1 1 0.999383
0.999411 1 1 0.999411
1.02547 1.03491 0.992779 0.998094
1.01177 1.02212 0.991709 0.998153
1.01691 1.02098 0.997676 0.99833
0.999118 1 1.00077 0.998348
1.00352 1.00081 1.00536 0.997358
1.00432 1.00625 1.00013 0.997958
1.00439 1 1.00576 0.998641
1.0086 1 1.01009 0.998527
0.999155 1 1.00054 0.998613
0.999549 1 1 0.999549
0.998956 1 1.00009 0.998864
0.99916 1 1 0.99916
0.999653 1 1 0.999653
0.999273 1 1 0.999273
1.01489 1.02641 0.99058 0.998179
0.999339 1 1 0.999339
0.999227 1 1 0.999227
0.999113 1 1 0.999113
1.01339 1.02763 0.987841 0.998273
1.00925 1.01311 0.998043 0.998151
1.00303 1 1.0047 0.998344
1.00458 1.00423 1.00255 0.997808
0.999008 1 1.0001 0.998913
0.998913 1 1.0002 0.998716
1.01316 1 1.01477 0.998416
1.01104 1 1.0126 0.998464
1.00958 1.02738 0.984419 0.998229
1.00248 1.02107 0.983526 0.998243
1.00532 1.00711 1.00035 0.997865
1.00101 1.0003 1.00236 0.998349
0.999009 1 1 0.999009
0.999158 1 1.00019 0.998967
1.00245 1 1.00374 0.998713
1.02306 1 1.02483 0.998268
0.939725 0.972913 0.978575 0.987035
0.999873 1 1.00106 0.998819
0.999474 1 1.00109 0.99839
1.01379 1.02539 0.990105 0.998573
1.01159 1.01529 0.998213 0.998144
1.00282 1.00212 1.0033 0.997408
1.00222 1 1.00447 0.997765
1.00327 1.00815 0.99737 0.997777
0.999887 1 1.00124 0.998653
1.00456 1.01688 0.98933 0.998535
0.999776 1 1.00144 0.998341
1.00386 1.00004 1.00611 0.997724
1.00349 1.00583 0.999892 0.997783
0.95317 0.980571 0.984557 0.987303
0.97269 0.985612 0.994342 0.992505
0.983383 0.997676 0.986916 0.998742
0.871099 0.908581 0.973166 0.985183
0.817637 0.897488 0.927916 0.9818
0.999448 1 1.00067 0.998784
0.890055 0.925998 0.975409 0.985416
0.872439 0.91395 0.969834 0.984272
0.983462 1.00647 0.97866 0.998445
1.00492 1 1.0065 0.998427
1.01059 1.00246 1.01019 0.997936
0.980202 0.993183 0.988043 0.998873
0.954086 0.972344 0.994205 0.986942
0.960382 0.969168 0.999057 0.99187
0.849106 0.909405 0.947417 0.985516
0.877546 0.942877 0.944831 0.985056
0.99904 1 1.00013 0.998911
0.998902 1 1 0.998902
0.999108 1 1 0.999108
0.99952 1 1 0.99952
0.99925 1 1 0.99925
0.999099 1 1 0.999099
0.999029 1 1 0.999029
0.998936 1 1 0.998936
0.999468 1 1 0.999468
0.999032 1 1 0.999032
0.999084 1 1 0.999084
0.999218 1 1 0.999218
0.998986 1 1 0.998986
0.998993 1 1 0.998993
0.999204 1 1.0002 0.999007
0.999051 1 1 0.999051
0.999227 1 1 0.999227
0.999255 1 1 0.999255
0.999147 1 1 0.999147
0.999104 1 1 0.999104
0.999141 1 1 0.999141
0.999084 1 1 0.999084
0.999017 1 1 0.999017
0.999279 1 1 0.999279
0.999299 1 1 0.999299
0.999537 1 1 0.999537
0.999265 1 1 0.999265
0.999511 1 1 0.999511
0.999885 1 1 0.999885
0.999471 1 1 0.999471
0.999887 1 1 0.999887
1 1 1 1
0.99989 1 1 0.99989
1 1 1 1
1 1 1 1
1 1 1 1
1 1 1 1
1 1 1 1
0.999665 1 1 0.999665
0.999968 1 1 0.999968
0.999967 1 1 0.999967
1 1 1 1
0.999956 1 1 0.999956
1 1 1 1
1 1 1 1
1 1 1 1
1 1 1 1
1 1 1 1
1.00363 1.01579 0.989976 0.998029
1.02187 1.03117 0.992783 0.998177
1.01984 1.02887 0.992625 0.998593
0.963231 0.981694 0.986946 0.99417
1.0085 1.01907 0.991193 0.99842
1.02541 1.03255 0.994896 0.998186
1.01666 1.02355 0.995079 0.998183
0.970503 0.984091 0.991412 0.994735
0.954813 0.97795 0.989881 0.986323
0.848661 0.900667 0.957107 0.984486
0.81637 0.885634 0.93786 0.982868
0.999371 1 1 0.999371
0.999682 1 1 0.999682
0.999672 1 1 0.999672
0.999371 1 1 0.999371
0.999185 1 1 0.999185
0.999221 1 1 0.999221
0.999369 1 1 0.999369
0.999391 1 1 0.999391
1.0136 1.02584 0.98986 0.998194
1.0161 1.03008 0.988126 0.99828
1.0081 1.01229 0.997703 0.998148
1.00321 1 1.00488 0.998335
1.00475 1.00437 1.00258 0.997813
1.01351 1 1.01512 0.998416
1.01214 1 1.01372 0.998441
0.998725 1 1.00002 0.998703
0.999255 1 1 0.999255
0.99893 1 1.00002 0.998912
0.99938 1 1 0.99938
0.999133 1 1 0.999133
1.01043 1.02748 0.985167 0.998211
0.999033 1 1 0.999033
0.999001 1 1.00002 0.99898
1.00363 1.02037 0.985337 0.998223
1.00448 1.0069 0.999622 0.997967
1.00284 1.00061 1.00394 0.99829
1.00386 1 1.00519 0.998677
1.02036 1 1.02212 0.998276
1.00928 1.02461 0.986816 0.998198
0.985207 1.0065 0.980542 0.998264
0.99838 1.00051 0.999625 0.998249
1.00695 1 1.00859 0.998374
0.998879 1 1.00001 0.998869
1.00134 1 1.00257 0.998767
1.0187 1 1.02026 0.998468
0.878164 0.929474 0.958369 0.985838
0.950347 0.975654 0.985627 0.988265
0.99965 1 1.00097 0.998679
0.999418 1 1.00107 0.998352
1.00512 1.01748 0.989309 0.998522
1.00356 1.00699 0.998786 0.997807
1.00342 1 1.00571 0.997725
0.952091 0.977044 0.987953 0.986342
0.975093 0.989091 0.992606 0.993191
0.985438 0.996267 0.990345 0.998773
0.865145 0.909302 0.965699 0.985234
0.803163 0.884649 0.926067 0.980371
0.999187 1 1.0004 0.998785
0.882771 0.928637 0.964298 0.985805
0.868348 0.908926 0.971205 0.983682
0.985142 1.00726 0.979573 0.998435
1.00445 1 1.00602 0.998447
1.00968 1.00124 1.0104 0.998044
0.972087 0.988685 0.984251 0.998944
0.958286 0.978545 0.993219 0.985984
0.962628 0.972867 0.996001 0.993448
0.85107 0.903699 0.95677 0.984315
0.877394 0.944238 0.943856 0.984482
1.00106 1 1.00208 0.998987
0.896472 0.921024 0.987401 0.985762
0.955032 0.970217 0.994682 0.989612
0.989356 1.0006 0.989863 0.998884
1.01201 1.00123 1.01191 0.998866
0.988611 0.981844 1.00772 0.99918
0.947673 0.961905 0.990625 0.994528
0.947243 0.959654 1.00123 0.985853
0.868739 0.921932 0.957051 0.98459
0.906193 0.962526 0.953725 0.987154
0.998895 1 1 0.998895
0.999087 1 1 0.999087
0.999705 1 1.00042 0.999284
0.999468 1 1 0.999468
0.99924 1 1 0.99924
0.999102 1 1 0.999102
0.999028 1 1 0.999028
0.998983 1 1 0.998983
0.999226 1 1 0.999226
0.999001 1 1 0.999001
0.999051 1 1 0.999051
0.999272 1 1.00024 0.999027
1.00273 1 1.00352 0.999214
0.999063 1 1.00009 0.998976
0.999046 1 1 0.999046
0.999253 1 1 0.999253
0.999133 1 1 0.999133
0.999103 1 1 0.999103
0.999138 1 1 0.999138
0.999089 1 1 0.999089
0.999098 1 1 0.999098
0.999051 1 1 0.999051
0.999068 1 1 0.999068
0.998867 1 1 0.998867
0.99948 1 1.00091 0.998572
0.998903 1 1 0.998903
0.999014 1 1 0.999014
0.99923 1 1 0.99923
0.999277 1 1 0.999277
0.999531 1 1 0.999531
0.999298 1 1 0.999298
0.999537 1 1 0.999537
0.999886 1 1 0.999886
0.999493 1 1 0.999493
0.999885 1 1 0.999885
1 1 1 1
0.999887 1 1 0.999887
1 1 1 1
1 1 1 1
1 1 1 1
1 1 1 1
1 1 1 1
0.999684 1 1 0.999684
0.999961 1 1 0.999961
0.999665 1 1 0.999665
1 1 1 1
0.999969 1 1 0.999969
0.999965 1 1 0.999965
1 1 1 1
1 1 1 1
1 1 1 1
1 1 1 1
1 1 1 1
0.878572 0.918934 0.970117 0.985528
0.877844 0.916251 0.972814 0.984857
0.965005 0.984175 0.985769 0.994677
1.01012 1.01871 0.993056 0.998502
1.0272 1.03473 0.994561 0.998154
0.965647 0.978497 0.990864 0.995967
1.0164 1.02325 0.995073 0.998225
0.958228 0.981401 0.98864 0.987607
0.862827 0.906726 0.965965 0.985114
0.807074 0.883719 0.930559 0.981421
0.989468 0.99911 0.993254 0.997076
0.954151 0.972474 0.993713 0.987366
0.841148 0.90344 0.945035 0.985202
0.874549 0.936196 0.949417 0.983921
0.99911 1 1 0.99911
0.999389 1 1 0.999389
0.999681 1 1 0.999681
0.999359 1 1 0.999359
0.99921 1 1 0.99921
0.999135 1 1 0.999135
0.999221 1 1 0.999221
0.999251 1 1 0.999251
0.999346 1 1 0.999346
0.999372 1 1 0.999372
1.01091 1.02714 0.98598 0.998194
1.00378 1.01873 0.987096 0.998205
1.00376 1.00691 0.998797 0.998071
1.00433 1.00093 1.00518 0.998231
1.01717 1 1.01892 0.998284
1.00537 1 1.00674 0.998641
0.998993 1 1 0.998993
0.999056 1 1 0.999056
1.00867 1.0249 0.985934 0.998201
0.998876 1 1.00002 0.998858
1.00134 1 1.0026 0.99874
0.98614 1.00536 0.982655 0.998192
0.998417 1.00036 0.999686 0.998371
1.00758 1.00017 1.00914 0.998276
1.01627 1 1.01786 0.998443
0.999919 1.00557 0.995881 0.998491
0.988831 1 0.989958 0.998861
1.01346 1 1.01503 0.998449
0.999728 1 1.00089 0.998841
0.999796 1 1.0011 0.998701
1.0102 1 1.01166 0.998555
0.901958 0.926516 0.985726 0.987591
0.886371 0.928949 0.968217 0.985488
0.945435 0.976699 0.980707 0.987033
0.998786 1 1 0.998786
1.00403 1 1.00557 0.998468
0.98771 1.00776 0.981645 0.998427
1.0088 1 1.01067 0.998152
0.8772 0.924274 0.963175 0.985355
0.957246 0.976272 0.992758 0.987665
0.958651 0.973191 0.993063 0.991941
0.96829 0.984966 0.984036 0.999018
0.852515 0.904271 0.95742 0.984694
0.870352 0.913214 0.968986 0.98357
0.870103 0.939969 0.940291 0.984452
1.00167 1 1.00268 0.998993
0.897616 0.924299 0.984694 0.986227
0.958604 0.973061 0.995545 0.98955
0.991551 1.00037 0.992234 0.998945
1.01139 1.00025 1.0123 0.998848
0.987007 0.981742 1.00636 0.999015
0.948957 0.963099 0.992507 0.992755
0.949346 0.964733 0.99754 0.986477
0.876828 0.931036 0.955789 0.98534
0.897499 0.954972 0.952089 0.98711
1.00277 0.999757 1.00354 0.999474
0.957355 0.972931 0.99205 0.991876
0.948079 0.963868 0.991032 0.99252
1.00575 0.992674 1.01346 0.999715
0.966402 0.966107 1.00363 0.996685
0.955106 0.961226 1.00792 0.985827
0.911936 0.948551 0.97555 0.985494
0.913163 0.974644 0.94965 0.986595
0.999067 1 1 0.999067
0.999684 1 1.0004 0.999284
1.00742 1 1.008 0.999431
0.999225 1 1 0.999225
0.999051 1 1 0.999051
0.999009 1 1 0.999009
0.999328 1 1.00028 0.999047
0.999044 1 1 0.999044
0.999004 1 1.00003 0.998973
1.00479 1 1.00554 0.999249
1.00979 0.998587 1.01178 0.999446
1.0034 1 1.00425 0.999148
0.998989 1 1 0.998989
0.999102 1 1 0.999102
0.999136 1 1 0.999136
0.999093 1 1 0.999093
0.999057 1 1 0.999057
0.999096 1 1 0.999096
0.999073 1 1 0.999073
0.999005 1 1 0.999005
0.999147 1 1 0.999147
0.998885 1 1 0.998885
0.998888 1 1 0.998888
0.999363 1 1.00069 0.99867
0.999755 1 1.00152 0.998234
0.998943 1 1.00012 0.998825
0.99942 1 1.00077 0.99865
0.998933 1 1 0.998933
0.999114 1 1 0.999114
0.999011 1 1 0.999011
0.999228 1 1 0.999228
0.999501 1 1 0.999501
0.999276 1 1 0.999276
0.99953 1 1 0.99953
0.999884 1 1 0.999884
0.999537 1 1 0.999537
0.999885 1 1 0.999885
1 1 1 1
0.999885 1 1 0.999885
1 1 1 1
1 1 1 1
1 1 1 1
1 1 1 1
1 1 1 1
0.999577 1 1 0.999577
0.999951 1 1 0.999951
0.999639 1 1 0.999639
1 1 1 1
0.999963 1 1 0.999963
0.999665 1 1 0.999665
1 1 1 1
1 1 1 1
0.999969 1 1 0.999969
1 1 1 1
1 1 1 1
1 1 1 1
0.901794 0.925185 0.987516 0.987039
0.881277 0.923748 0.96838 0.985174
0.956783 0.974664 0.992135 0.989436
0.868746 0.909101 0.970892 0.984259
0.962623 0.980279 0.987705 0.994212
1.01494 1.02308 0.993765 0.998268
0.961067 0.981818 0.989894 0.988858
0.86394 0.910211 0.963908 0.984704
0.800378 0.883776 0.924148 0.979967
0.985847 0.9972 0.992167 0.996421
0.954754 0.973623 0.994565 0.985979
0.850608 0.909613 0.950322 0.984016
0.872251 0.936808 0.946908 0.983293
0.972435 0.986862 0.98963 0.995706
0.960639 0.966719 1.00826 0.985569
0.87642 0.933004 0.95374 0.984915
0.903812 0.964165 0.950738 0.985974
0.998988 1 1.00002 0.998966
0.999137 1 1 0.999137
0.999407 1 1 0.999407
0.999236 1 1 0.999236
0.998987 1 1 0.998987
0.999154 1 1 0.999154
0.999221 1 1 0.999221
0.999224 1 1 0.999224
0.999276 1 1 0.999276
0.999323 1 1 0.999323
1.0083 1.02583 0.984677 0.998205
0.988488 1.00498 0.985446 0.998121
0.99835 1 0.999858 0.998492
1.00936 1.00066 1.01054 0.99818
1.01424 1 1.01584 0.998419
1.00107 1 1.00236 0.998712
0.99886 1 1.00001 0.998847
0.999299 1 1.00046 0.99884
0.995368 1.00606 0.990856 0.998505
0.999675 1 1.00097 0.998711
1.01053 1 1.012 0.998549
0.987612 1.00011 0.988705 0.998783
1.01287 1.00033 1.01412 0.998431
0.969173 0.992714 0.977284 0.998979
1.00544 0.999335 1.00684 0.999274
1.0139 1 1.01526 0.998654
0.99916 1 1.00044 0.998724
1.00666 1 1.00812 0.998556
0.956777 0.968734 0.994575 0.993044
0.905213 0.926354 0.989335 0.987713
0.880125 0.925501 0.964519 0.985953
1.00226 1 1.00327 0.998998
1.01078 0.999271 1.0127 0.998829
0.991698 1 0.992688 0.999003
0.907366 0.929851 0.988778 0.986894
0.958332 0.964473 1.00817 0.985583
0.951849 0.964458 0.992893 0.99399
0.978289 0.979272 1.00018 0.998822
0.878305 0.93024 0.95893 0.984609
0.962198 0.975841 0.996493 0.98949
0.896056 0.95427 0.951181 0.98719
1.00252 0.999496 1.00357 0.999455
0.956073 0.971278 0.991778 0.992505
0.950718 0.966481 0.991091 0.992532
1.00687 0.994117 1.01326 0.999569
0.968509 0.967827 1.00447 0.996254
0.949418 0.96126 1.00268 0.985042
0.915884 0.976984 0.949507 0.987312
0.905451 0.945094 0.972485 0.985161
1.00449 0.995062 1.00977 0.999711
0.94286 0.962503 0.983377 0.996151
0.958246 0.97682 0.987799 0.993102
0.905906 0.965249 0.95184 0.986006
0.992424 0.978715 1.01493 0.999094
0.969947 0.969285 1.01446 0.986419
0.906437 0.935845 0.982813 0.985514
0.999805 1 1.00052 0.999283
1.00642 1 1.00705 0.99938
1.01227 0.998589 1.01414 0.999566
0.999043 1 1 0.999043
0.998971 1 1 0.998971
1.00736 1 1.00808 0.999284
0.998997 1 1 0.998997
1.00332 1 1.00417 0.999151
1.01147 0.998772 1.0133 0.999421
1.0044 0.998735 1.00619 0.999489
1.00235 1 1.00321 0.999146
0.999063 1 1 0.999063
0.999095 1 1 0.999095
0.999078 1 1 0.999078
0.999136 1 1 0.999136
0.999013 1 1 0.999013
0.999425 1 1.00033 0.999093
0.998981 1 1 0.998981
1.00104 1 1.00259 0.998455
0.99891 1 1 0.99891
0.999207 1 1.00056 0.998643
0.99909 1 1.00101 0.998079
0.999465 1 1.00129 0.998178
0.999918 1 1.00126 0.998665
0.999621 1 1.00137 0.998253
0.999011 1 1 0.999011
0.998961 1 1.00016 0.998798
0.999332 1 1.0006 0.998728
0.998962 1 1 0.998962
0.999141 1 1 0.999141
0.999445 1 1 0.999445
0.999226 1 1 0.999226
0.9995 1 1 0.9995
0.999874 1 1 0.999874
0.999529 1 1 0.999529
0.999882 1 1 0.999882
1 1 1 1
0.999885 1 1 0.999885
1 1 1 1
1 1 1 1
1 1 1 1
1 1 1 1
1 1 1 1
0.999442 1 1 0.999442
0.999864 1 1 0.999864
0.999576 1 1 0.999576
1 1 1 1
0.999923 1 1 0.999923
0.999594 1 1 0.999594
1 1 1 1
1 1 1 1
0.999966 1 1 0.999966
1 1 1 1
1 1 1 1
1 1 1 1
0.953507 0.969102 0.991327 0.992516
0.890969 0.923094 0.978107 0.986802
0.882351 0.921201 0.97242 0.984994
0.999144 1 1 0.999144
0.946315 0.962428 0.990013 0.993177
0.960954 0.975852 0.995295 0.989389
0.863514 0.909771 0.96443 0.984163
0.986939 0.997879 0.99336 0.995647
0.957983 0.974088 0.99627 0.987149
0.857035 0.920013 0.946325 0.984384
0.86479 0.93136 0.944351 0.983241
0.974465 0.988073 0.992453 0.993726
0.94738 0.960409 0.999933 0.986499
0.885305 0.935804 0.960692 0.984745
0.901488 0.961235 0.951463 0.985686
0.958547 0.971468 0.994438 0.992219
0.958247 0.95767 1.01612 0.984729
0.907488 0.948679 0.971287 0.984859
0.911597 0.972634 0.949987 0.986588
0.998916 1 1.00009 0.998827
0.999095 1 1.00015 0.998949
0.999163 1 1 0.999163
0.998983 1 1 0.998983
0.999018 1 1 0.999018
0.999172 1 1 0.999172
0.999231 1 1 0.999231
0.999302 1 1 0.999302
0.989957 1.00577 0.985734 0.998518
0.985512 1.00004 0.986748 0.998705
0.99884 1 1 0.998839
1.01165 1.00035 1.01291 0.998412
1.01092 1 1.01239 0.998543
0.999872 1 1.00115 0.998722
0.999309 1 1.00058 0.998732
0.973977 0.99447 0.980373 0.999
1.00691 1 1.00834 0.998581
1.01162 1 1.01298 0.998656
0.999508 0.999358 1.00085 0.9993
1.00005 1 1.00129 0.998763
0.966504 0.98633 0.980553 0.999333
1.01014 0.997149 1.01358 0.999454
1.01696 1 1.01826 0.998725
1.00164 1 1.00294 0.998701
0.954976 0.964508 0.993364 0.996732
0.956346 0.967919 0.994867 0.993141
0.909628 0.926586 0.993784 0.987839
1.00189 0.99923 1.00323 0.999438
1.00927 0.995769 1.01414 0.999427
0.955085 0.969592 0.991852 0.99313
0.962 0.961195 1.01478 0.986262
0.963951 0.965357 1.00449 0.994081
0.909832 0.948274 0.974702 0.984363
0.951475 0.967377 0.990951 0.992543
0.91967 0.980649 0.949183 0.988027
1.00529 0.996351 1.0093 0.999676
0.942539 0.961725 0.983825 0.996163
0.955954 0.97482 0.986633 0.993933
1.00105 0.985357 1.01607 0.999857
0.902984 0.962761 0.95152 0.985698
0.961274 0.963209 1.0122 0.985961
0.916866 0.950066 0.98013 0.984619
1.00783 0.99327 1.01489 0.999771
0.954632 0.974417 0.982802 0.99684
0.947095 0.963543 0.98965 0.993209
0.874713 0.93835 0.947354 0.983985
0.907499 0.950692 0.9695 0.984597
0.97688 0.973204 1.00519 0.998597
0.971666 0.961948 1.02614 0.984367
1.00469 1 1.00536 0.999329
1.01111 0.997701 1.0139 0.999546
1.00328 0.987538 1.01637 0.999582
0.999006 1 1 0.999006
1.00284 1 1.00369 0.999155
1.0128 0.999491 1.01393 0.999396
1.00073 1 1.00159 0.999137
1.00432 0.998954 1.00589 0.999488
1.00641 0.998105 1.00905 0.999275
0.999124 1 1 0.999124
0.999022 1 1 0.999022
1.00006 1 1.001 0.999064
1.00648 1 1.00787 0.998624
0.999076 1 1 0.999076
1.00052 1 1.00198 0.998539
1.0021 1 1.00413 0.997979
1.00028 1.00072 1.00188 0.997688
0.99902 1 1.0004 0.998617
0.999104 1 1.00109 0.998011
0.998795 1 1.00053 0.998271
1.00078 1 1.00229 0.998493
0.99948 1 1.00125 0.998228
0.999904 1 1.00101 0.998891
0.999848 1 1.00119 0.998658
0.999542 1 1.00127 0.998272
0.999347 1 1 0.999347
0.999004 1 1 0.999004
0.999028 1 1.00026 0.998772
0.999168 1 1 0.999168
0.999443 1 1 0.999443
0.999853 1 1 0.999853
0.999499 1 1 0.999499
0.999872 1 1 0.999872
1 1 1 1
0.999881 1 1 0.999881
1 1 1 1
1 1 1 1
1 1 1 1
1 1 1 1
1 1 1 1
0.999388 1 1 0.999388
0.999805 1 1 0.999805
0.999468 1 1 0.999468
1 1 1 1
0.999859 1 1 0.999859
0.999574 1 1 0.999574
1 1 1 1
1 1 1 1
0.999896 1 1 0.999896
1 1 1 1
1 1 1 1
1 1 1 1
0.944294 0.961679 0.985696 0.996171
0.954191 0.96966 0.991468 0.992515
0.891041 0.924259 0.976875 0.986881
0.999158 1 1 0.999158
0.999117 1 1 0.999117
0.999017 1 1 0.999017
0.955255 0.975178 0.986407 0.993068
0.946546 0.961566 0.991121 0.993199
0.965667 0.977004 0.999045 0.989342
0.980844 0.989129 0.996402 0.995205
0.947424 0.961083 1.0002 0.985595
0.876447 0.926176 0.961064 0.984645
0.907271 0.965667 0.953324 0.985529
0.959071 0.970128 0.994638 0.993932
0.953173 0.957118 1.01033 0.985693
0.900293 0.937116 0.974338 0.986009
0.913669 0.9754 0.948765 0.987296
0.946155 0.960192 0.992404 0.992923
0.971644 0.967153 1.01892 0.985987
0.907089 0.934389 0.984914 0.985653
0.906091 0.961829 0.954382 0.987079
0.998818 1 1 0.998818
0.999066 1 1.00024 0.998824
0.999204 1 1.00027 0.998932
0.998979 1 1 0.998979
0.99905 1 1 0.99905
0.999238 1 1 0.999238
0.980644 0.997062 0.984502 0.999016
0.994422 0.999389 0.995703 0.999324
0.999318 1 1.00058 0.998741
1.01011 1 1.01146 0.998659
1.00751 1 1.00892 0.998606
0.999838 1 1.0011 0.99874
1.00164 1 1.00293 0.998712
0.97854 0.990097 0.988973 0.999347
1.01628 1 1.01748 0.998817
1.006 0.992791 1.01383 0.99948
0.999837 1 1.00101 0.998824
0.993413 0.979514 1.01463 0.999569
0.996269 0.98879 1.00804 0.99953
1.01302 1 1.01409 0.998945
0.970078 0.978241 0.994072 0.997569
0.954146 0.964243 0.992538 0.996968
0.956182 0.967079 0.995466 0.993235
1.0069 0.997913 1.00937 0.999641
0.996566 0.9877 1.00952 0.999457
0.943212 0.961937 0.984299 0.996175
0.963019 0.959043 1.01507 0.989237
0.917282 0.947054 0.982593 0.985721
0.954892 0.973161 0.98639 0.994766
0.908446 0.966453 0.953746 0.985566
1.0068 0.993528 1.01358 0.999788
0.954799 0.974751 0.982413 0.997066
0.947676 0.962882 0.990914 0.993231
0.975765 0.969813 1.01009 0.996086
0.871127 0.93747 0.944928 0.983389
0.898293 0.94047 0.968959 0.985752
0.981417 0.968157 1.02826 0.985834
1.00348 0.977204 1.02718 0.999714
0.94507 0.962363 0.985758 0.996219
0.957433 0.975639 0.991722 0.989531
0.814806 0.884581 0.936993 0.983061
0.87872 0.935377 0.953787 0.984946
0.971203 0.968001 1.01782 0.985745
0.952316 0.96438 0.992686 0.994766
1.01063 0.99693 1.01423 0.999526
1.00747 0.99188 1.01614 0.999586
1.01807 0.996708 1.02191 0.999529
0.999198 1 1.00007 0.999128
1.00431 0.99884 1.006 0.999487
1.00738 0.998586 1.00947 0.999339
1.01735 1 1.01849 0.998882
1.00064 1 1.00161 0.999035
1.00678 1 1.00826 0.998534
1.01489 1 1.01706 0.997863
1.00007 1 1.00145 0.998624
1.00299 1 1.00505 0.997945
1.00437 1.0011 1.00589 0.997395
1.00211 1.00291 1.00191 0.997298
0.999058 1 1.00108 0.997982
1.00027 1.00073 1.00189 0.997656
0.999172 1 1.00123 0.997944
0.999538 1 1.0011 0.998442
0.998833 1 1.00048 0.998354
1.00086 1 1.00219 0.998674
1.0008 1 1.00228 0.998526
0.999447 1 1.00117 0.998279
0.99928 1 1.00009 0.999186
0.999755 1 1.00086 0.998894
0.999744 1 1.00109 0.998652
0.999806 1 1 0.999806
0.999346 1 1 0.999346
0.998997 1 1 0.998997
0.999441 1 1 0.999441
0.999848 1 1 0.999848
1 1 1 1
0.999869 1 1 0.999869
1 1 1 1
1 1 1 1
1 1 1 1
1 1 1 1
1 1 1 1
0.999383 1 1 0.999383
0.999817 1 1 0.999817
0.999405 1 1 0.999405
1 1 1 1
0.999834 1 1 0.999834
0.999494 1 1 0.999494
1 1 1 1
1 1 1 1
0.999854 1 1 0.999854
1 1 1 1
1 1 1 1
1 1 1 1
0.953705 0.973803 0.982488 0.996817
0.943638 0.962057 0.98461 0.996186
0.953495 0.970158 0.990229 0.992523
0.999098 1 1 0.999098
0.998989 1 1 0.998989
0.999172 1 1 0.999172
0.999115 1 1 0.999115
0.998999 1 1 0.998999
0.999011 1 1 0.999011
0.998912 1 1 0.998912
0.946115 0.96322 0.98971 0.992455
0.954129 0.973143 0.986474 0.993905
0.945756 0.960574 0.991293 0.993221
0.916669 0.978926 0.947773 0.988003
0.947915 0.96043 0.994536 0.992392
0.957611 0.959298 1.01161 0.986781
0.90478 0.936902 0.980537 0.984884
0.942821 0.959691 0.990091 0.992253
0.96115 0.960053 1.01614 0.985238
0.919185 0.951299 0.980923 0.985034
0.896792 0.954474 0.951906 0.987037
0.943285 0.959879 0.988688 0.993957
0.965501 0.964417 1.01648 0.984896
0.913919 0.950298 0.975756 0.985614
0.875243 0.941374 0.944028 0.984876
0.999104 1 1.00021 0.998892
0.998888 1 1.00007 0.998818
0.999166 1 1.00035 0.998821
0.998976 1 1 0.998976
0.987952 0.993159 0.995389 0.999364
1.001 0.989046 1.01259 0.999505
0.998754 1 1.00004 0.998718
1.00142 1 1.0027 0.998722
1.01408 1 1.01519 0.998908
0.999402 1 1.00058 0.998819
1.01378 1 1.01487 0.998931
0.989363 0.977771 1.01288 0.99899
0.998459 0.98943 1.00949 0.999637
1.00576 0.999748 1.007 0.999025
0.993362 0.974806 1.02015 0.998903
1.01277 0.994761 1.01881 0.999309
0.955216 0.964898 0.99318 0.996764
0.96573 0.976318 0.991337 0.997799
0.953295 0.963902 0.99177 0.997203
1.0044 0.992363 1.01233 0.999805
0.978121 0.97065 1.00903 0.998681
0.954037 0.974405 0.981754 0.997294
0.972309 0.964698 1.0236 0.984653
0.902574 0.938986 0.976266 0.984589
0.947129 0.96219 0.991033 0.993254
0.864382 0.931413 0.943759 0.983337
1.00804 0.979599 1.02928 0.999766
0.944086 0.962568 0.984507 0.996233
0.961242 0.976818 0.994516 0.989481
0.955356 0.965196 0.992958 0.996825
0.807373 0.883725 0.930701 0.981627
0.883266 0.93538 0.958976 0.984681
0.969069 0.963378 1.02053 0.985674
0.99934 0.980504 1.02004 0.999184
0.954164 0.970183 0.990799 0.992622
0.878614 0.916933 0.97275 0.985052
0.843453 0.904121 0.946702 0.985419
0.954941 0.955995 1.01304 0.986036
0.938085 0.959189 0.984896 0.992995
1.01078 0.995552 1.01572 0.99959
1.01839 0.994993 1.02401 0.999522
1.01346 1 1.01411 0.999365
1.00831 0.999054 1.00987 0.999402
1.01681 0.999171 1.01872 0.998951
1.01069 1.0006 1.01193 0.998172
1.00729 1 1.00886 0.998443
1.01398 1 1.0162 0.997813
1.00849 1.00017 1.011 0.997351
1.00387 1 1.00598 0.997911
1.0042 1.00064 1.00624 0.997338
1.00335 1.00208 1.00414 0.997138
1.00344 1.00614 1 0.997319
1.00338 1.00515 1.00077 0.997484
1.00264 1.00323 1.00218 0.997246
0.99833 1 1.00013 0.998204
0.998816 1.00004 1.00074 0.998031
1.0003 1.00079 1.0019 0.997624
0.999586 1 1.00112 0.998472
0.999517 1 1.00108 0.998435
0.998862 1 1.00043 0.998436
0.999847 1 1.00088 0.998964
1.00069 1 1.00199 0.998708
1.0008 1 1.00224 0.998559
0.999693 1 1 0.999693
0.99933 1 1.00014 0.999187
0.999597 1 1.0007 0.998896
1 1 1 1
0.9998 1 1 0.9998
0.999344 1 1 0.999344
0.999844 1 1 0.999844
1 1 1 1
1 1 1 1
1 1 1 1
1 1 1 1
1 1 1 1
0.999093 1 1 0.999093
0.999338 1 1 0.999338
0.999777 1 1 0.999777
0.999382 1 1 0.999382
1 1 1 1
0.999821 1 1 0.999821
0.999422 1 1 0.999422
1 1 1 1
1 1 1 1
0.999864 1 1 0.999864
1 1 1 1
1 1 1 1
1 1 1 1
0.9427 0.962763 0.982954 0.996142
0.95397 0.974227 0.982107 0.997047
0.943079 0.962454 0.983608 0.996199
0.999108 1 1 0.999108
0.998975 1 1 0.998975
0.99891 1 1 0.99891
0.998977 1 1 0.998977
0.998889 1 1 0.998889
0.999113 1 1 0.999113
0.998982 1 1 0.998982
0.999011 1 1 0.999011
0.998911 1 1 0.998911
0.999052 1 1.00009 0.998958
0.953582 0.969003 0.994555 0.989474
0.949475 0.966037 0.99031 0.992473
0.954158 0.971628 0.987212 0.99474
0.894594 0.953746 0.950209 0.987129
0.917399 0.94552 0.984145 0.98589
0.935882 0.95578 0.987687 0.991388
0.969331 0.967269 1.01657 0.985797
0.945026 0.961573 0.99068 0.992037
0.97684 0.973034 1.01846 0.985713
0.90691 0.945749 0.973057 0.985485
0.876281 0.943317 0.943786 0.984265
0.964867 0.969765 1.0017 0.993263
0.966112 0.965769 1.01441 0.986149
0.866855 0.921718 0.955346 0.984436
0.834655 0.909784 0.933466 0.982811
1.00076 1 1.00151 0.999244
1.00027 1 1.00138 0.998894
0.999474 1 1.00066 0.998818
0.987102 0.976144 1.01284 0.998405
1.00046 0.989186 1.01166 0.999748
0.999639 1 1.00083 0.998814
1.01509 1 1.01619 0.998918
1.00647 0.999879 1.00757 0.999032
1.0136 0.996336 1.01804 0.999299
0.990517 0.972214 1.01991 0.998941
1.01191 0.999595 1.01298 0.999348
0.996007 0.982447 1.01509 0.998732
0.958828 0.97056 0.994913 0.992964
0.954319 0.964393 0.992535 0.996997
0.961261 0.974449 0.988415 0.998028
1.01344 0.982861 1.03131 0.999814
0.955031 0.966628 0.994052 0.993914
0.943493 0.962764 0.983675 0.996247
0.968422 0.968019 1.01681 0.983877
0.877364 0.926894 0.961355 0.984614
0.965654 0.977984 0.997936 0.989434
0.802506 0.884853 0.92527 0.980185
0.997826 0.978805 1.02016 0.999283
0.955475 0.971079 0.991245 0.992622
0.869525 0.909994 0.970614 0.984457
0.940197 0.961712 0.983515 0.994015
0.852859 0.910324 0.951903 0.984212
0.944833 0.954135 1.00535 0.984978
0.976043 0.980648 0.996822 0.998477
0.902024 0.925946 0.986767 0.987228
0.851423 0.901914 0.958685 0.984701
0.958903 0.966743 1.00633 0.985653
0.942133 0.95931 0.987693 0.994331
1.01816 0.99379 1.02502 0.999515
1.0146 0.998879 1.01641 0.99934
0.993772 1.00072 0.994269 0.998784
1.01588 0.998248 1.01867 0.999019
1.01122 1.00073 1.01223 0.998263
1.00238 1.00187 1.00272 0.997803
1.01276 1 1.01503 0.997764
1.00704 1.00032 1.00938 0.997365
0.99947 1.00147 1.00056 0.997453
1.00389 1.00019 1.00643 0.997282
1.00357 1.003 1.00342 0.997157
1.0052 1.00776 1 0.997469
1.01097 1.01339 1 0.997615
1.00689 1.00955 1.00002 0.997355
1.00324 1.00592 1 0.997334
1.00042 1.00266 1 0.997765
1.00204 1.00353 1.00107 0.997438
1.00315 1.00353 1.00244 0.997195
0.998358 1 1 0.998358
0.998288 1 1.00002 0.998263
0.998458 1.00006 1.00032 0.998081
0.999572 1 1.00083 0.998748
0.99975 1 1.00126 0.998492
0.999522 1 1.0011 0.998428
0.999553 1 1.00007 0.999483
0.999823 1 1.00086 0.998965
1.00055 1 1.00181 0.998742
1 1 1 1
0.999687 1 1 0.999687
0.999389 1 1.0002 0.999188
1 1 1 1
1 1 1 1
0.999794 1 1 0.999794
1 1 1 1
1 1 1 1
1 1 1 1
0.999012 1 1 0.999012
0.999283 1 1 0.999283
0.999081 1 1 0.999081
0.999744 1 1 0.999744
0.999338 1 1 0.999338
0.999999 1 1 0.999999
0.999779 1 1 0.999779
0.99938 1 1 0.99938
1 1 1 1
1 1 1 1
0.999824 1 1 0.999824
1 1 1 1
1 1 1 1
1 1 1 1
0.956222 0.97288 0.989605 0.993202
0.942207 0.961874 0.983332 0.996157
0.953671 0.974092 0.981708 0.997277
0.998908 1 1 0.998908
0.999117 1 1 0.999117
0.998961 1 1 0.998961
0.998991 1 1 0.998991
0.998925 1 1 0.998925
0.998888 1 1 0.998888
0.999011 1 1.00021 0.998801
0.999062 1 1.0002 0.998865
0.999011 1 1 0.999011
0.99891 1 1 0.99891
0.999098 1 1.00015 0.99895
0.999373 1 1.00031 0.999058
0.871479 0.913351 0.96964 0.984031
0.956767 0.97178 0.995088 0.989411
0.950745 0.966732 0.990903 0.992491
0.870873 0.9402 0.941108 0.984227
0.914192 0.952465 0.974497 0.984936
0.965799 0.963906 1.01728 0.984947
0.948122 0.961353 0.99332 0.99287
0.964666 0.967723 1.00198 0.994875
0.818902 0.89806 0.9291 0.981441
0.964263 0.963002 1.01672 0.98484
0.873949 0.930364 0.953583 0.985087
0.955481 0.966886 0.992909 0.995262
0.95602 0.957993 1.01135 0.986738
0.848208 0.909358 0.947067 0.984887
1.00002 1 1.00041 0.99961
1.00031 1 1.00107 0.999246
1.00116 1 1.00226 0.998895
0.989253 0.971571 1.01925 0.998971
1.01548 0.998919 1.0173 0.999289
1.00713 1 1.0081 0.999039
1.01136 0.999874 1.01215 0.999347
0.995904 0.983803 1.01354 0.998779
1.0019 0.993472 1.00939 0.999102
0.902514 0.92738 0.986707 0.986298
0.957614 0.969642 0.99374 0.993817
0.95317 0.963708 0.991814 0.997229
0.997492 0.977248 1.02135 0.999376
0.937757 0.963004 0.978926 0.994746
0.955215 0.971883 0.99015 0.992627
0.953069 0.955538 1.01087 0.986689
0.861649 0.922634 0.948507 0.984601
0.863352 0.910032 0.963773 0.984365
0.97611 0.980889 0.99659 0.998533
0.891216 0.923584 0.977676 0.986987
0.865931 0.907866 0.967988 0.985352
0.942916 0.958515 0.991311 0.992349
0.947549 0.963067 0.997327 0.986525
0.965642 0.987847 0.97836 0.999143
0.879119 0.919782 0.969654 0.985703
0.956734 0.975111 0.993951 0.987125
0.955709 0.971738 0.991289 0.992147
1.01636 0.997504 1.0196 0.999315
0.989887 1.00036 0.990637 0.99888
0.982506 1.00249 0.981634 0.998404
1.01228 1.00097 1.01297 0.998354
1.00333 1.0023 1.00324 0.997795
1.00066 1.00328 0.999428 0.997967
1.00592 1.0005 1.00806 0.997379
0.999581 1.00109 1.00103 0.997467
1.00907 1.01117 1 0.997924
1.00387 1.00395 1.00275 0.997175
1.00501 1.00755 1 0.997475
1.01298 1.01504 1 0.997965
1.01672 1.0188 1 0.997957
1.01183 1.0143 1 0.997559
1.01064 1.01303 1 0.997639
1.00538 1.00783 1 0.997572
1.00615 1.00877 1 0.997395
1.00302 1.00568 1 0.997349
0.998686 1.00057 1 0.998112
1.00091 1.00299 1.00014 0.997783
1.00084 1.00197 1.00148 0.997392
0.998585 1 1 0.998585
0.998359 1.00001 1 0.998353
0.998323 1 1 0.998323
0.999266 1 1.00003 0.99924
0.999431 1 1.00068 0.998751
0.999897 1 1.00139 0.998512
0.999988 1 1 0.999988
0.999522 1 1.00004 0.99948
0.999728 1 1.00076 0.998966
1 1 1 1
0.999998 1 1 0.999998
0.999681 1 1 0.999681
1 1 1 1
1 1 1 1
1 1 1 1
0.998982 1 1 0.998982
0.999013 1 1 0.999013
0.999208 1 1 0.999208
0.99971 1 1 0.99971
0.999283 1 1 0.999283
0.999068 1 1 0.999068
0.999997 1 1 0.999997
0.999746 1 1 0.999746
0.999337 1 1 0.999337
1 1 1 1
1 1 1 1
0.999782 1 1 0.999782
1 1 1 1
1 1 1 1
1 1 1 1
0.894872 0.919998 0.986658 0.985842
0.955783 0.971479 0.990565 0.993213
0.942749 0.962051 0.983703 0.996172
0.998894 1 1 0.998894
0.998842 1 1 0.998842
0.998825 1 1.00001 0.998818
0.999005 1 1 0.999005
0.99894 1 1 0.99894
0.998887 1 1 0.998887
0.998988 1 1.00013 0.998862
0.999049 1 1.00025 0.998802
0.99909 1 1.00037 0.998718
0.999134 1 1.00003 0.999099
0.998941 1 1 0.998941
0.999107 1 1.00006 0.999048
0.86335 0.905731 0.967754 0.984968
0.866446 0.907537 0.970821 0.983418
0.960915 0.975438 0.995713 0.989354
0.803334 0.884192 0.927035 0.980061
0.875071 0.927794 0.95811 0.984411
0.967237 0.966298 1.01399 0.987164
0.965112 0.964865 1.00729 0.993019
0.953859 0.964958 0.994857 0.993609
0.848712 0.902558 0.955711 0.983918
0.947854 0.955113 1.00599 0.986492
0.9519 0.966567 0.990622 0.994149
0.947043 0.965455 0.994866 0.985991
1.00726 1 1.00819 0.999076
0.999823 1 1.00027 0.999557
0.999578 1 1.00033 0.999248
0.993322 0.982629 1.01207 0.998823
1.01064 1 1.0113 0.999346
1.00236 0.99424 1.00918 0.998997
0.993901 0.997662 0.997943 0.998283
0.877659 0.93043 0.95677 0.985903
0.906214 0.927534 0.989842 0.987041
0.957476 0.969073 0.993334 0.994663
0.974866 0.981826 0.994285 0.998618
0.942487 0.958156 0.990392 0.99319
0.891632 0.924773 0.976802 0.987061
0.945517 0.960115 0.999067 0.985716
0.868482 0.913413 0.965369 0.984918
0.969139 0.988675 0.981516 0.9987
0.882938 0.924963 0.968777 0.985331
0.958042 0.976594 0.994989 0.985943
0.960617 0.972232 0.994208 0.99381
0.98164 0.995772 0.986837 0.998957
0.95683 0.980253 0.989754 0.98621
0.970251 0.986797 0.988273 0.9949
0.985935 1 0.986946 0.998975
0.983403 1.00317 0.981887 0.998382
0.984146 1.0061 0.979859 0.998284
1.00383 1.00265 1.0034 0.997786
1.00002 1.00342 0.998648 0.997962
1.01172 1.01617 0.997227 0.998383
0.999535 1.00063 1.00143 0.997481
1.00886 1.01097 1 0.997916
1.01794 1.01975 0.999878 0.998344
1.00465 1.00719 1 0.997481
1.01244 1.0145 1 0.997965
1.01752 1.01928 1 0.99827
1.01511 1.01697 1 0.998164
1.01666 1.0187 1 0.997997
1.0161 1.01828 1 0.997863
1.01155 1.01394 1 0.997645
1.01255 1.01503 1 0.997563
1.01032 1.01269 1 0.997662
1.00088 1.00306 1 0.997835
1.00595 1.00836 1 0.997608
1.0054 1.00799 1 0.997435
0.998398 1 1 0.998398
0.999221 1.00112 1 0.998105
1.00128 1.00332 1.00017 0.997801
0.999059 1 1 0.999059
0.998584 1 1 0.998584
0.998424 1.00008 1 0.998348
0.999936 1 1 0.999936
0.999309 1 1.00007 0.99924
0.999349 1 1.0006 0.998753
1 1 1 1
0.999976 1 1 0.999976
0.999544 1 1.00007 0.999476
1 1 1 1
0.999996 1 1 0.999996
1 1 1 1
0.998912 1 1 0.998912
0.998971 1 1 0.998971
0.999127 1 1 0.999127
0.999014 1 1 0.999014
0.999208 1 1 0.999208
0.999653 1 1 0.999653
0.999994 1 1 0.999994
0.999712 1 1 0.999712
0.999284 1 1 0.999284
1 1 1 1
0.999998 1 1 0.999998
0.999749 1 1 0.999749
1 1 1 1
1 1 1 1
1 1 1 1
0.887111 0.923845 0.974459 0.985406
0.89648 0.923435 0.985054 0.985541
0.954591 0.969387 0.991456 0.993223
0.998881 1 1 0.998881
0.998847 1 1.00006 0.99879
0.998874 1 1 0.998874
0.998644 1 1 0.998644
0.998833 1 1.00008 0.998748
0.998992 1 1.00013 0.998859
0.999075 1 1.00027 0.998803
0.999012 1 1.00027 0.998742
0.998612 1 1 0.998612
0.998922 1 1 0.998922
0.998786 1.00034 1.00026 0.998194
0.999479 1 1.00033 0.999146
0.999093 1 1.00006 0.999037
0.953093 0.976431 0.990208 0.985752
0.866771 0.90521 0.972208 0.984908
0.867723 0.910604 0.969075 0.983318
0.847837 0.903149 0.953803 0.984224
0.952282 0.957369 1.01006 0.984775
0.956473 0.964166 0.996611 0.995394
0.953072 0.966592 0.990734 0.995235
0.951663 0.966835 0.997183 0.987089
0.971216 0.988829 0.987882 0.994236
1.0013 1.00132 1.00171 0.998274
1.00571 1 1.00666 0.999056
0.999503 1 1 0.999503
1.0029 0.995988 1.00804 0.998907
0.997854 1.00034 0.999334 0.998177
0.941167 0.974488 0.978501 0.987027
0.88594 0.929971 0.966566 0.985606
0.910749 0.928041 0.993495 0.987793
0.972414 0.98955 0.984416 0.998241
0.95529 0.967171 0.995443 0.992238
0.883877 0.923055 0.972019 0.985121
0.957027 0.973739 0.995796 0.986987
0.980979 0.995793 0.986142 0.998967
0.959205 0.98283 0.988415 0.987401
0.971761 0.987417 0.990879 0.993203
0.999568 1.00522 0.995933 0.998432
0.983586 0.996459 0.990561 0.996487
0.98441 1.004 0.982092 0.998364
0.986035 1.00568 0.982201 0.998237
1.00497 1.02386 0.983144 0.99838
0.999651 1.00358 0.998123 0.997956
1.01093 1.01549 0.997133 0.998372
1.01828 1.02478 0.995112 0.998543
1.00874 1.01086 1 0.997908
1.01781 1.01989 0.999629 0.998329
1.01842 1.02076 0.999268 0.998442
1.01207 1.01413 1 0.997964
1.0178 1.0196 0.999974 0.998255
1.0155 1.01725 1 0.998282
1.0158 1.01763 1 0.998204
1.01495 1.01696 1 0.998023
1.01659 1.01859 1 0.998038
1.0159 1.01808 1 0.997857
1.01377 1.01602 1 0.997783
1.00606 1.00831 1 0.997768
1.01133 1.01372 1 0.997637
1.01324 1.01571 1 0.997568
0.998679 1.00048 1 0.998198
1.00123 1.00338 1 0.997857
1.00648 1.00886 1 0.997643
0.998909 1 1 0.998909
0.998462 1.00007 1 0.998394
0.999633 1.00154 1 0.998099
0.999841 1 1 0.999841
0.99906 1 1 0.99906
0.998583 1 1 0.998583
1 1 1 1
0.999918 1 1 0.999918
0.999298 1 1.00006 0.999241
1 1 1 1
0.999965 1 1 0.999965
1 1 1 1
0.998658 1 1 0.998658
0.998912 1 1 0.998912
0.999003 1 1 0.999003
0.99896 1 1 0.99896
0.999107 1 1 0.999107
0.999544 1 1 0.999544
0.999208 1 1 0.999208
0.999655 1 1 0.999655
0.999991 1 1 0.999991
1 1 1 1
0.999995 1 1 0.999995
0.999715 1 1 0.999715
1 1 1 1
0.999998 1 1 0.999998
1 1 1 1
0.957874 0.981062 0.988624 0.987599
0.879632 0.925846 0.963713 0.985858
0.906451 0.929257 0.98987 0.98544
0.998828 1 1.00007 0.998763
0.998906 1 1 0.998906
0.998786 1 1.00003 0.998759
0.998656 1 1 0.998656
0.99905 1.00068 1.00002 0.99835
0.998666 1 1 0.998666
0.998892 1 1.00013 0.998766
0.998531 1 1 0.998531
0.999225 1 1.00034 0.998886
0.998443 1 1 0.998443
1.00045 1.00213 0.999978 0.998338
0.998413 1.00129 0.999357 0.99777
0.999158 1.00081 1.00006 0.998296
0.999853 1 1.00066 0.999193
0.969268 0.988449 0.98611 0.994408
0.955154 0.976997 0.990931 0.986589
0.861271 0.905936 0.965286 0.984888
0.963645 0.973178 1.00456 0.985707
0.951444 0.965953 0.988878 0.996058
0.975548 0.990089 0.98907 0.996202
0.99375 1.00385 0.99157 0.998351
0.998981 1.00067 0.999974 0.998339
1.00466 1 1.00563 0.999036
0.997589 1.00112 0.998415 0.998055
0.970445 0.983377 0.992442 0.994364
0.95152 0.976834 0.985685 0.988233
0.878363 0.92587 0.962119 0.986042
0.981552 0.997056 0.985462 0.998974
0.977058 0.989559 0.992866 0.994461
0.962158 0.983404 0.989665 0.988613
0.993289 1.00444 0.99044 0.998443
0.981593 0.994881 0.990732 0.995874
1.00177 1.02259 0.981409 0.998194
1.00613 1.01477 0.993522 0.997953
0.98758 1.00507 0.984382 0.998187
1.00533 1.02355 0.9838 0.998371
1.00861 1.02889 0.981861 0.998404
1.01029 1.01507 0.996919 0.99836
1.01797 1.02446 0.995121 0.998529
1.0141 1.02083 0.995023 0.998382
1.01757 1.01995 0.999358 0.998313
1.01804 1.02056 0.999107 0.998427
1.01678 1.01925 0.999342 0.998235
1.01803 1.0199 0.999933 0.99824
1.01518 1.01696 0.999966 0.998281
1.01506 1.01705 1 0.998044
1.01651 1.0183 1 0.998243
1.01474 1.01672 1 0.998054
1.0144 1.01659 1 0.99785
1.01574 1.01793 1 0.997851
1.01368 1.01594 1 0.997775
1.00858 1.01077 1 0.997836
0.999795 1.00176 1 0.998044
1.00577 1.008 1 0.997788
1.01115 1.01355 1 0.997629
0.998743 1 1 0.998743
0.999025 1.00083 1 0.998198
1.00165 1.00378 1 0.997879
0.999724 1 1 0.999724
0.998907 1 1 0.998907
0.998554 1.00017 1 0.998389
1 1 1 1
0.999826 1 1 0.999826
0.99906 1 1 0.99906
1 1 1 1
0.999899 1 1 0.999899
1 1 1 1
0.999705 1.00131 1 0.998395
0.99867 1 1 0.99867
0.998825 1 1 0.998825
0.998911 1 1 0.998911
0.998986 1 1 0.998986
0.999391 1 1 0.999391
0.999087 1 1 0.999087
0.999545 1 1 0.999545
0.99998 1 1 0.99998
0.999657 1 1 0.999657
0.999992 1 1 0.999992
1 1 1 1
1 1 1 1
0.999996 1 1 0.999996
1 1 1 1
0.970255 0.985845 0.989416 0.994714
0.953774 0.980882 0.985393 0.986777
0.874056 0.922166 0.961911 0.985361
1.00338 1.0053 1.00007 0.998034
0.99877 1 1 0.99877
0.998669 1 1 0.998669
0.998644 1 1 0.998644
0.999213 1.00075 1.00012 0.99834
0.999628 1.00106 1 0.998573
0.99845 1 1 0.99845
0.999516 1 1.00067 0.99885
0.998487 1 1 0.998487
0.999817 1.0015 1 0.998315
1.00118 1.0034 1 0.997781
1.00318 1.0058 0.999697 0.997695
0.999498 1.00195 0.999822 0.997726
0.999732 1.00134 1 0.998398
0.99711 1.00622 0.992119 0.998817
0.969234 0.988955 0.986367 0.993606
0.958694 0.978059 0.992429 0.987678
0.970455 0.986379 0.989071 0.994727
0.997985 1.00592 0.993462 0.998645
0.999433 1.0002 1.00083 0.998402
1.00026 1.00668 0.99555 0.998059
0.967722 0.978624 0.993272 0.995559
0.946021 0.976688 0.981248 0.987112
0.986557 1.00279 0.985342 0.99845
0.983846 0.995706 0.992921 0.995133
1.0028 1.02344 0.981589 0.998218
1.00513 1.0131 0.994047 0.998074
1.00888 1.02855 0.982659 0.998181
1.01794 1.02294 0.996998 0.998103
1.00569 1.02308 0.984613 0.998363
1.01096 1.03001 0.983073 0.998406
1.00703 1.02199 0.987089 0.998249
1.01749 1.02393 0.995187 0.998516
1.01494 1.02124 0.995439 0.99838
1.01668 1.02084 0.997793 0.998122
1.01776 1.02039 0.99901 0.998413
1.0168 1.01909 0.999502 0.998249
1.01655 1.01863 1 0.997956
1.01486 1.01666 0.999948 0.99828
1.01468 1.01667 1 0.998045
1.01635 1.01856 1 0.99783
1.01452 1.01646 1 0.998084
1.01443 1.0166 1 0.997867
1.01004 1.01226 1 0.997802
1.01356 1.01583 1 0.997768
1.00849 1.0107 1 0.997816
1.00157 1.00355 1 0.998023
0.998617 1 1 0.998617
1.00009 1.00202 1 0.998069
1.00544 1.00765 1 0.997808
0.999606 1 1 0.999606
0.998743 1 1 0.998743
0.999346 1.00115 1 0.998198
1 1 1 1
0.999711 1 1 0.999711
0.998906 1 1 0.998906
1 1 1 1
0.99981 1 1 0.99981
1 1 1 1
1.00121 1.00312 1 0.998099
0.999255 1.00085 1 0.9984
0.998613 1 1 0.998613
0.998689 1 1.00001 0.998682
0.998833 1 1 0.998833
0.999229 1 1 0.999229
0.998968 1 1 0.998968
0.99939 1 1 0.99939
0.999951 1 1 0.999951
0.999547 1 1 0.999547
0.999983 1 1 0.999983
1 1 1 1
0.999993 1 1 0.999993
1 1 1 1
1 1 1 1
1.00189 1.01048 0.992688 0.998795
0.965945 0.984787 0.987641 0.993141
0.955111 0.976119 0.990508 0.987855
1.0049 1.0067 1.00001 0.9982
1.0078 1.01001 1 0.997815
1.00311 1.00491 1.00013 0.998071
0.998622 1 1 0.998622
0.999402 1.00083 1.00024 0.998328
1.00006 1.00154 1 0.998519
1.00625 1.00838 1 0.997891
0.99853 1 1 0.99853
0.99906 1.00077 1 0.998292
1.00156 1.00373 1 0.997836
1.00874 1.01126 1 0.997505
1.01153 1.01687 0.996725 0.998014
1.00306 1.00587 0.999525 0.997674
1.00026 1.00262 0.999961 0.997682
1.00065 1.00858 0.993211 0.998918
0.970263 0.98881 0.988507 0.992652
0.998834 1.00726 0.992677 0.998946
1.01355 1.0198 0.995243 0.998623
0.999019 1.00539 0.995519 0.998134
0.966816 0.981818 0.99071 0.993954
1.0042 1.02445 0.981959 0.998243
1.00344 1.01168 0.993648 0.998198
1.00774 1.02843 0.981609 0.998237
1.02009 1.02519 0.996909 0.998113
1.01521 1.02639 0.990973 0.998121
1.02834 1.0339 0.996391 0.998226
1.01323 1.0315 0.983862 0.998407
1.0076 1.02156 0.988062 0.998253
1.01895 1.02619 0.994902 0.998032
1.01572 1.02165 0.995812 0.998377
1.01691 1.02051 0.998352 0.99812
1.01991 1.02218 0.999881 0.9979
1.01674 1.01888 0.999636 0.998264
1.01658 1.01866 1 0.997954
1.01911 1.02141 1 0.997754
1.01428 1.01627 1 0.998045
1.01626 1.01846 1 0.997831
1.01191 1.0142 1 0.997745
1.01446 1.01661 1 0.997884
1.00995 1.01217 1 0.997806
1.00214 1.00418 1 0.997967
1.00844 1.01066 1 0.997796
1.00156 1.00356 1 0.998012
0.998543 1 1 0.998543
0.999526 1 1 0.999526
0.998617 1 1 0.998617
1.00039 1.0023 1 0.998093
1 1 1 1
0.999595 1 1 0.999595
0.998742 1 1 0.998742
1 1 1 1
0.999699 1 1 0.999699
1 1 1 1
1.0015 1.00366 1 0.997852
1.00099 1.00292 1 0.998072
0.99886 1.00052 1 0.998344
0.998808 1.0004 1 0.998405
0.998617 1 1 0.998617
0.999053 1 1 0.999053
0.998841 1 1 0.998841
0.999229 1 1 0.999229
0.99989 1 1 0.99989
0.99939 1 1 0.99939
0.999961 1 1 0.999961
1 1 1 1
0.999987 1 1 0.999987
1 1 1 1
1 1 1 1
1.012 1.02071 0.993024 0.998435
0.998999 1.00951 0.991072 0.998498
0.963584 0.984944 0.984264 0.993954
1.01162 1.01379 1 0.997851
1.00356 1.00521 1 0.99836
1.01618 1.01853 1 0.997697
1.00769 1.00991 1 0.9978
1.00285 1.00456 1.00018 0.99811
1.01749 1.02 1 0.997542
1.00051 1.00205 1 0.998466
1.00599 1.00818 1 0.997834
1.02252 1.02521 0.999701 0.997679
1.00179 1.00391 1 0.997891
1.00948 1.01203 1 0.997476
1.01145 1.01612 0.997372 0.998026
1.00261 1.00532 0.999654 0.99765
1.00338 1.01046 0.993974 0.99902
1.02546 1.03101 0.996308 0.998303
1.01319 1.0196 0.995076 0.998626
0.998416 1.00409 0.996137 0.998205
1.00673 1.02797 0.981018 0.998293
1.02097 1.02643 0.996543 0.998123
1.01457 1.02669 0.990046 0.998136
1.0286 1.03493 0.995637 0.99823
1.02799 1.0351 0.994993 0.998125
1.00809 1.02097 0.989107 0.998257
1.01889 1.02577 0.995247 0.99804
1.02317 1.02757 0.99781 0.997901
1.01716 1.02021 0.998892 0.998118
1.01959 1.02183 0.999925 0.997884
1.02138 1.02376 1 0.997683
1.01669 1.01878 1 0.997953
1.01894 1.02123 1 0.997753
1.01474 1.01711 1 0.997664
1.01618 1.01839 1 0.997831
1.01204 1.01432 1 0.997747
1.00297 1.0051 1 0.997879
1.00985 1.01207 1 0.99781
1.00235 1.00439 1 0.997969
0.998468 1 1 0.998468
1.00154 1.00354 1 0.998
0.998541 1 1 0.998541
0.999565 1 1 0.999565
0.999878 1 1 0.999878
0.99955 1 1 0.99955
0.998616 1 1 0.998616
1 1 1 1
0.999584 1 1 0.999584
1 1 1 1
1.0215 1.02382 1 0.997741
1.00833 1.01056 1 0.997791
1.00166 1.00383 1 0.997835
1.00057 1.00242 1 0.998153
1.00069 1.00265 1 0.998044
0.998664 1.00032 1 0.998348
0.998866 1 1 0.998866
0.998622 1 1 0.998622
0.999056 1 1 0.999056
0.999787 1 1 0.999787
0.999229 1 1 0.999229
0.999907 1 1 0.999907
1 1 1 1
0.999971 1 1 0.999971
1 1 1 1
1 1 1 1
1.02666 1.03032 0.998383 0.998059
1.01553 1.02379 0.993405 0.99852
0.997476 1.00962 0.989754 0.998201
1.02 1.02245 1 0.997603
1.01063 1.01273 1 0.997925
1.00216 1.00365 1 0.998518
1.01626 1.01858 1 0.997718
1.00758 1.00982 1 0.997786
1.02563 1.02804 1 0.997661
1.01593 1.01847 1 0.997504
1.00585 1.00809 1 0.997776
1.022 1.02454 0.99985 0.997673
1.01116 1.01375 1 0.997447
1.01346 1.01748 0.998004 0.998042
1.03165 1.03615 0.997446 0.998212
1.02724 1.03222 0.996859 0.998311
1.01406 1.01954 0.995988 0.998628
1.0148 1.02785 0.989139 0.99815
1.02952 1.03629 0.995228 0.998235
1.028 1.0358 0.994319 0.998139
1.02782 1.03177 0.998212 0.997958
1.01871 1.02524 0.99558 0.998047
1.02348 1.02724 0.99844 0.997893
1.02371 1.02609 1 0.997677
1.01924 1.02144 0.999976 0.997867
1.02166 1.02403 1 0.997683
1.01785 1.02031 1 0.997594
1.01873 1.02103 1 0.997751
1.01479 1.01717 1 0.997664
1.00413 1.00636 1 0.997782
1.01215 1.01443 1 0.997748
1.00327 1.0054 1 0.99788
0.998373 1 1 0.998373
1.00256 1.0046 1 0.997972
0.998466 1 1 0.998466
0.999561 1 1 0.999561
0.998539 1 1 0.998539
0.99956 1 1 0.99956
0.999885 1 1 0.999885
0.99994 1 1 0.99994
0.999575 1 1 0.999575
1 1 1 1
1.02255 1.02501 1 0.997607
1.01266 1.01488 1 0.997808
1.02144 1.02365 1 0.997836
1.00214 1.00412 1 0.998024
1.00921 1.01145 1 0.997784
1.00186 1.00405 1 0.997819
0.999916 1.00177 1 0.998152
0.998693 1 1 0.998693
0.998504 1.00015 1 0.998352
0.998868 1 1 0.998868
0.99966 1 1 0.99966
0.999059 1 1 0.999059
0.999804 1 1 0.999804
1 1 1 1
0.999923 1 1 0.999923
1 1 1 1
1 1 1 1
1.02938 1.03205 0.999478 0.99794
1.02659 1.03031 0.998331 0.998056
1.01668 1.02545 0.992841 0.9986
1.02586 1.02832 1 0.997609
1.01932 1.02177 1 0.997606
1.00977 1.0118 1 0.997999
1.01623 1.01853 1 0.997739
1.02557 1.02801 0.999989 0.997643
1.01432 1.01689 1 0.997467
1.01999 1.02244 0.999934 0.997666
1.03086 1.0341 0.998852 0.998018
1.03115 1.03559 0.997539 0.998174
1.02933 1.03401 0.997152 0.998319
1.02616 1.02921 0.999186 0.997851
1.02791 1.03643 0.99362 0.998153
1.02746 1.03168 0.997961 0.997948
1.0254 1.02771 1 0.997751
1.02381 1.02694 0.99907 0.997885
1.02417 1.02656 1 0.99768
1.02012 1.02262 1 0.997558
1.02191 1.02428 1 0.997684
1.01758 1.02003 1 0.997595
1.00572 1.00803 1 0.997701
1.01483 1.01721 1 0.997664
1.0045 1.00673 1 0.997783
0.998317 1.00004 1 0.998275
1.00356 1.00569 1 0.997881
0.998375 1 1 0.998371
0.99954 1 1 0.99954
0.998464 1 1 0.998464
0.999554 1 1 0.999554
0.999888 1 1 0.999888
0.999557 1 1 0.999557
0.999887 1 1 0.999887
1 1 1 1
1.02314 1.02569 1 0.997508
1.01501 1.01741 1 0.997641
1.02309 1.02552 1 0.997628
1.0025 1.00451 1 0.997995
1.01255 1.01477 1 0.99781
1.02145 1.02357 1 0.997931
0.99854 1 1 0.99854
1.00183 1.00381 1 0.99802
1.01019 1.01244 1 0.997778
0.999217 1.00107 1 0.998151
0.998694 1 1 0.998694
0.999552 1 1 0.999552
0.99887 1 1 0.99887
0.999672 1 1 0.999672
1 1 1 1
0.999822 1 1 0.999822
1 1 1 1
1 1 1 1
1.02914 1.03149 0.999918 0.997804
1.02945 1.03225 0.999367 0.997924
1.0271 1.03072 0.998434 0.998053
1.02527 1.02772 1 0.997614
1.01862 1.02106 1 0.997609
1.02541 1.02786 0.999988 0.997626
1.02685 1.0292 0.99986 0.997853
1.03078 1.03408 0.998801 0.99801
1.03015 1.03452 0.997636 0.998136
1.02675 1.02959 0.999371 0.997867
1.02402 1.02637 1 0.997709
1.0271 1.03158 0.99771 0.997938
1.02533 1.02767 1 0.997724
1.02103 1.02349 1 0.99759
1.0246 1.02698 1 0.997682
1.01984 1.02234 1 0.997561
1.00742 1.00981 1 0.997635
1.01738 1.01984 1 0.997596
1.00621 1.00853 1 0.997701
0.998395 1.0002 1 0.998198
1.00487 1.0071 1 0.997783
0.998358 1.00008 1 0.998274
0.999499 1 1 0.999499
0.99838 1.00001 1 0.998369
0.99953 1 1 0.99953
0.999877 1 1 0.999877
0.999549 1 1 0.999549
0.999894 1 1 0.999894
0.999886 1 1 0.999886
1.02482 1.02721 1 0.997673
1.0177 1.02024 1 0.997507
1.02344 1.02598 1 0.997519
1.00435 1.00653 1 0.997836
1.01479 1.01718 1 0.997647
1.02354 1.02595 1 0.99765
0.998424 1 1 0.998424
1.00249 1.00455 1 0.997951
1.01232 1.01454 1 0.997812
0.999489 1 1 0.999489
0.998542 1 1 0.998542
1.0015 1.00349 1 0.998016
0.998695 1 1 0.998695
0.999562 1 1 0.999562
1 1 1 1
0.999686 1 1 0.999686
1 1 1 1
1 1 1 1
1.02529 1.02759 1 0.997767
1.02845 1.0309 0.999828 0.997803
1.0298 1.03275 0.999232 0.997909
1.02469 1.02713 1 0.99762
1.02436 1.02675 1 0.997674
1.02731 1.02985 0.999671 0.997862
1.03062 1.03399 0.998738 0.998003
1.02734 1.02997 0.999567 0.997883
1.02376 1.02615 0.999951 0.997718
1.01984 1.02229 1 0.997602
1.02534 1.02771 1 0.997696
1.02077 1.02325 1 0.997578
1.00854 1.01096 1 0.997601
1.01955 1.02204 1 0.997564
1.00779 1.01017 1 0.997637
0.998441 1.00031 1 0.998128
1.00666 1.00898 1 0.997701
0.998431 1.00023 1 0.998197
0.999385 1 1 0.999385
0.998397 1.00012 1 0.998273
0.999459 1 1 0.999459
1 1 1 1
0.999522 1 1 0.999522
0.999886 1 1 0.999886
0.999897 1 1 0.999897
1.02335 1.02569 1 0.99772
1.01886 1.02135 1 0.997566
1.02446 1.02685 1 0.99767
1.00698 1.00935 1 0.997653
1.01779 1.02031 1 0.997529
1.02384 1.02638 1 0.99753
0.998327 1.00009 1 0.998238
1.00438 1.00656 1 0.997835
1.01463 1.01702 1 0.997653
0.999459 1 1 0.999459
0.998384 1 1 0.998384
1.00252 1.00463 1 0.997906
1 1 1 1
0.999499 1 1 0.999499
0.998544 1 1 0.998544
0.999573 1 1 0.999573
1 1 1 1
1 1 1 1
1.02362 1.026 1 0.997683
1.02561 1.0279 1 0.997775
1.02775 1.03028 0.999744 0.997801
1.0209 1.0234 1 0.997552
1.02355 1.02593 1 0.997679
1.02777 1.03049 0.999485 0.997871
1.0235 1.02594 0.99989 0.997727
1.01991 1.02236 1 0.997603
1.00861 1.01099 1 0.997647
1.02046 1.02295 1 0.997566
1.00859 1.01099 1 0.997632
0.998392 1.00039 1 0.997998
1.00819 1.01057 1 0.997639
0.998466 1.00034 1 0.998129
0.999334 1 1 0.999334
0.998476 1.00028 1 0.998196
0.999382 1 1 0.999382
1 1 1 1
0.999413 1 1 0.999413
0.999933 1 1 0.999933
0.999894 1 1 0.999894
1.02107 1.02344 1 0.997687
1.01914 1.02158 1 0.997608
1.02314 1.02548 1 0.997722
1.00798 1.01035 1 0.997658
1.0193 1.0218 1 0.997559
1.02409 1.02649 1 0.997668
0.998608 1.00048 1 0.998131
1.00692 1.00925 1 0.997697
1.01783 1.02033 1 0.99755
0.999432 1 1 0.999432
0.998295 1.00007 1 0.998224
1.00439 1.00657 1 0.997833
1 1 1 1
0.999468 1 1 0.999468
0.998344 1 1 0.998344
1 1 1 1
0.999509 1 1 0.999509
1 1 1 1
1.02096 1.02342 1 0.99759
1.02324 1.02562 1 0.997676
1.02597 1.02825 1 0.997784
1.00781 1.01021 1 0.997631
1.02089 1.02338 1 0.997566
1.02277 1.02515 1 0.997684
1.02 1.02245 1 0.997603
1.00864 1.01102 1 0.997647
0.998425 1.00047 1 0.997956
1.00866 1.01103 1 0.997662
0.998415 1.00038 1 0.998032
0.999268 1 1 0.999268
0.998472 1.00034 1 0.998129
0.99933 1 1 0.99933
1 1 1 1
0.999379 1 1 0.999379
1 1 1 1
0.999879 1 1 0.999879
1.0192 1.02162 1 0.997628
1.02138 1.02374 1 0.997695
1.00751 1.00987 1 0.997666
1.01905 1.0215 1 0.997607
1.02294 1.02527 1 0.997724
0.998691 1.00054 1 0.998149
1.0079 1.01027 1 0.997655
1.01974 1.02224 1 0.997553
0.99939 1 1 0.99939
0.998629 1.00047 1 0.998159
1.00685 1.00913 1 0.997741
1 1 1 1
0.999438 1 1 0.999438
0.998264 1.00005 1 0.99821
1 1 1 1
0.999477 1 1 0.999477
1 1 1 1
1.00717 1.00952 1 0.997668
1.02086 1.02333 1 0.997586
1.02278 1.02516 1 0.99767
0.998115 1.00016 1 0.997955
1.00785 1.01025 1 0.997631
1.02085 1.02332 1 0.997579
1.00866 1.01104 1 0.997646
0.998423 1.00047 1 0.997959
0.999217 1 1 0.999217
0.998447 1.00038 1 0.998067
0.999264 1 1 0.999264
1 1 1 1
0.999327 1 1 0.999327
1 1 1 1
1 1 1 1
1.00696 1.00933 1 0.99766
1.01881 1.02122 1 0.997636
1.02168 1.02403 1 0.997704
0.998448 1.00032 1 0.998124
1.00768 1.01004 1 0.997663
1.01893 1.02137 1 0.997607
0.999344 1 1 0.999344
0.99871 1.00056 1 0.998147
1.00785 1.01022 1 0.997652
1 1 1 1
0.999394 1 1 0.999394
0.998653 1.00047 1 0.998186
1 1 1 1
0.999443 1 1 0.999443
1 1 1 1
0.998045 1 1 0.998041
1.00717 1.00956 1 0.997632
1.02079 1.02327 1 0.997582
0.999211 1 1 0.999211
0.998126 1.00017 1 0.997953
1.0079 1.01029 1 0.997631
0.998421 1.00046 1 0.997962
0.999216 1 1 0.999216
1 1 1 1
0.999261 1 1 0.999261
1 1 1 1
1 1 1 1
0.998157 1.00007 1 0.998087
1.00698 1.00934 1 0.997655
1.01845 1.02086 1 0.997644
0.9994 1 1 0.9994
0.998542 1.00042 1 0.998122
1.00787 1.01023 1 0.997661
1 1 1 1
0.999345 1 1 0.999345
0.998718 1.00057 1 0.998145
1 1 1 1
0.999397 1 1 0.999397
1 1 1 1
0.999213 1 1 0.999213
0.998019 1.00001 1 0.998012
1.00716 1.00959 1 0.997597
1 1 1 1
0.999211 1 1 0.999211
0.998136 1.00018 1 0.997952
0.999214 1 1 0.999214
1 1 1 1
1 1 1 1
0.999352 1 1 0.999352
0.998241 1.00015 1 0.998087
1.00697 1.00934 1 0.997649
1 1 1 1
0.999304 1 1 0.999304
0.998637 1.00052 1 0.998121
1 1 1 1
0.999347 1 1 0.999347
1 1 1 1
0.999797 1 1 0.999797
0.999281 1 1 0.999281
0.998002 1.00002 1 0.997982
1 1 1 1
0.999211 1 1 0.999211
1 1 1 1
0.999814 1 1 0.999814
0.999311 1 1 0.999311
0.998322 1.00024 1 0.998088
0.999911 1 1 0.999911
0.999302 1 1 0.999302
1 1 1 1
1 1 1 1
0.999232 1 1 0.999232
1 1 1 1
0.999904 1 1 0.999904
0.999265 1 1 0.999265
1 1 1 1
1 1 1 1
1 1 1 1

VECTORS lamdaE float
1.00009 1.00015 0.995222
0.999972 1.00038 0.997722
0.999802 1.00034 0.99539
1.0004 0.999928 0.994994
1.0002 0.999963 0.99526
1.00008 1.0003 0.995053
1.00132 1.00049 0.992447
0.999981 1.00027 0.997739
0.999888 1.00023 0.997983
0.999516 1.00069 0.998023
0.999963 1.00022 0.995376
1.00113 1.00123 0.991486
1.00028 1.00001 0.994985
1 0.999986 0.995247
0.999543 1.00056 0.995532
1.00018 0.999906 0.995212
0.999776 1.00059 0.995198
0.999953 1.00004 0.995446
1.00148 1.00033 0.992379
1.00027 1 0.997617
1.00042 0.999984 0.994879
1.00032 0.999885 0.995165
1.00173 0.999988 0.992259
1.00151 1.00013 0.992477
1.00009 1.00023 0.995018
1.00112 1.00098 0.992298
1.0039 1.00034 0.988235
0.999952 1.0002 0.997783
1.00003 1.00011 0.996553
0.999742 1.00053 0.996573
0.999929 0.99999 0.997885
1.00104 1.00136 0.991488
1.0003 0.999847 0.995064
1.00002 1.00038 0.995137
1.00181 1.00018 0.992676
0.999523 0.999383 0.99848
1.00147 1.00083 0.992672
1.00078 1.00155 0.991784
1.00302 1.00189 0.987521
0.999607 0.998386 0.998809
1.00029 1.00001 0.997583
1.00016 1.00001 0.996418
1.00025 0.999997 0.997608
0.999955 1.00004 0.995292
1.00188 1.00004 0.991372
1.00006 0.999961 0.997903
1.00201 1.00011 0.99243
0.999954 0.999846 0.995431
0.999721 1.00011 0.995618
0.999483 1.00092 0.995328
1.00162 1.00015 0.992324
1.00015 1.00001 0.996438
1.00019 0.999984 0.995104
0.99978 1.00056 0.995165
1.0001 0.999872 0.995367
1.00182 0.999952 0.99217
1.00131 1.00078 0.992225
1.00163 1.00004 0.992405
1.00389 1.00036 0.988219
1.00022 0.999999 0.997626
1.00037 1.00002 0.994922
1.0017 1 0.992903
1.00176 1.00002 0.99217
1.00165 0.99997 0.992394
1.00422 0.999933 0.987994
1.00406 1.00001 0.988001
0.999866 0.999692 0.995689
1.00064 1.00165 0.992327
1.0037 1.00078 0.988142
1.00491 1.0001 0.985953
1.00019 1.00014 0.997696
0.999822 0.999757 0.998077
0.999966 1.00036 0.997713
1.00097 1.00145 0.991484
1.00032 0.999978 0.997655
1.00008 1.00032 0.997714
1.0017 1.00013 0.991499
0.999629 0.999466 0.997309
1.00125 1.00091 0.991515
1.00066 1.00159 0.992553
1.00306 1.00184 0.987506
0.999728 0.998832 0.998527
0.999701 1.00018 0.995095
1.0019 0.999982 0.991361
1.0016 1.00042 0.991502
1.0042 1.00021 0.987104
1.00029 1.00132 0.994068
1.00354 1.00098 0.987502
1.00196 1.00349 0.987864
1.00414 1.00145 0.985847
0.999556 0.997995 0.999019
0.99954 0.99831 0.9989
1.00034 0.999989 0.997596
1.00031 1.00001 0.997584
1.00028 0.999999 0.997604
1.00013 1.00001 0.996442
1.00191 1.00002 0.992003
1.00019 0.99997 0.996449
1.00195 1.00013 0.991851
1.00026 0.999994 0.997617
1.00179 0.999956 0.991561
1.00198 1.00011 0.992489
1.00432 0.999717 0.987403
1.00196 1.00002 0.99254
1.00436 0.999929 0.987144
1.00024 1.00001 0.995057
0.999952 0.999979 0.995335
0.999453 1.00095 0.995324
0.999885 0.999837 0.995566
1.00191 0.999956 0.992081
1.00175 0.999952 0.99234
1.00149 1.00053 0.992159
1.00389 1.00038 0.988203
1.00026 0.999997 0.99762
1.00013 1.00001 0.995148
1.00182 0.999978 0.991849
1.00185 1.00001 0.992071
0.999744 0.999947 0.996834
1.00089 1.00155 0.992451
1.00175 0.999923 0.992315
1.00424 0.999908 0.9879
1.00367 1.00081 0.988163
1.00406 1.00009 0.988071
1.00489 1.00011 0.98598
1.00177 0.99998 0.991601
1.00171 1.00001 0.992236
1.00423 0.999677 0.988017
1.00425 0.999848 0.987816
1.00417 0.999871 0.987917
1.00515 0.999548 0.98639
0.999667 0.99934 0.998381
1.005 0.999817 0.986078
1.00013 1.00192 0.99239
1.00295 1.00191 0.987591
1.00482 1.00051 0.985792
1.0052 0.999843 0.985684
0.999862 1.00113 0.993732
1.00019 1.00399 0.990379
1.0003 1.00001 0.99767
1.00003 1.00031 0.99772
1.00171 1.00011 0.9915
0.999692 0.999176 0.99843
1.00042 1.00183 0.992022
1.00121 1.00096 0.991522
1.0031 1.0018 0.987491
0.999642 0.998755 0.998634
0.999694 1.00009 0.995142
1.00191 1.00001 0.991993
1.00158 1.00044 0.992114
1.0042 1.00022 0.987101
1.00008 1.00139 0.993205
1.00355 1.00096 0.987519
1.00197 1.00344 0.987843
1.00424 1.00139 0.98576
0.999846 1.00083 0.994205
0.999735 0.999474 0.995736
1.00029 1.0029 0.991393
1.00432 1.00008 0.987041
1.0039 1.00053 0.987296
1.00507 1.00009 0.985711
1.0011 1.00395 0.98896
1.0046 1.00077 0.985751
1.00318 1.00338 0.985705
1.00492 1.00101 0.985278
0.999587 0.997705 0.999108
0.999527 0.997936 0.999055
0.999488 0.998214 0.998971
0.999803 1.00068 0.994293
0.99963 0.998989 0.998556
1.00035 0.999975 0.997628
1.00031 1 0.997581
1.00186 1.00014 0.991272
1.00183 1.00003 0.99143
1.00025 1 0.997603
1.00023 0.999998 0.997617
1.00178 0.999965 0.991555
1.00192 1.0001 0.9919
1.00432 0.999715 0.987402
1.00187 1.00005 0.991322
1.00435 0.999928 0.987139
1.00175 0.999952 0.991616
1.00428 0.999644 0.987544
1.00434 0.999811 0.98727
1.00516 0.999059 0.986636
1.00435 1.00002 0.987061
1.00518 0.999448 0.986212
1.00024 0.999994 0.997616
0.999905 1.00002 0.995375
1.00183 0.999969 0.990893
1.00194 1 0.991969
0.999425 1.00015 0.998228
1.0012 1.00134 0.992571
1.00185 0.999899 0.992238
1.00426 0.999866 0.987805
1.00405 1.00015 0.988141
1.00363 1.00087 0.988183
1.00488 1.00013 0.986006
1.00175 0.999965 0.991604
1.00182 1 0.992129
1.00425 0.999656 0.987704
1.00428 0.999884 0.987867
0.999701 0.999423 0.998302
1.00037 1.00172 0.992912
1.00285 1.00212 0.987877
1.00417 0.999904 0.987897
1.00514 0.999429 0.986386
1.00481 1.00054 0.985714
1.005 0.99987 0.986184
1.0052 0.999836 0.985711
0.999889 1.00113 0.993728
1.00028 1.00383 0.990397
1.00424 0.999651 0.98761
1.00425 0.99978 0.987904
1.00515 0.999171 0.986759
1.00516 0.999203 0.986498
1.00509 0.999571 0.98642
1.00524 0.998612 0.986969
0.99996 1.00152 0.993119
1.00522 0.9993 0.98623
1.0016 1.00352 0.988318
1.00439 1.00139 0.985449
1.00516 1.00057 0.985256
1.00519 0.999119 0.986553
1.00059 1.00387 0.989851
1.00011 1.00327 0.99123
1.00079 1.00466 0.988867
1.00183 0.999992 0.991422
0.999561 0.998661 0.998746
0.999689 0.999995 0.995188
1.00145 1.00049 0.991556
1.00419 1.00022 0.987098
0.999978 1.00147 0.993132
1.00196 1.0034 0.987822
1.00355 1.00095 0.987537
1.00432 1.00133 0.985674
0.999814 1.00078 0.994229
0.999749 0.999369 0.995774
1.00014 1.00307 0.991403
1.00431 1.0001 0.987033
1.00392 1.00052 0.987297
1.00508 1.00008 0.985692
1.00102 1.004 0.988984
1.00465 1.00078 0.985726
1.00325 1.00337 0.985678
1.00484 1.00085 0.985218
0.999853 0.998921 0.996064
1.00063 1.00346 0.990195
1.00008 1.00204 0.992593
1.00038 1.00445 0.989684
1.00513 0.999863 0.985846
1.00489 1.00042 0.985659
1.00519 0.999652 0.985932
1.00197 1.00461 0.986824
1.00502 1.00046 0.985415
1.00427 1.00262 0.984882
1.00512 1.00073 0.985106
1.00027 1.00032 0.993963
1.00005 0.99837 0.996247
0.999663 0.997469 0.999142
0.999583 0.997664 0.99912
0.999511 0.997881 0.999083
0.999799 1.00011 0.994889
0.999603 0.99863 0.998717
0.999824 1.00073 0.994268
0.999675 0.999038 0.998497
1.00187 1.00008 0.991316
1.00186 1.00009 0.991322
1.00434 0.999929 0.987134
1.00431 0.999714 0.987401
1.0018 0.999974 0.991551
1.00026 0.999999 0.997609
1.00177 0.999954 0.991615
1.00427 0.999649 0.987544
1.00434 0.999816 0.987266
1.00516 0.999067 0.986631
1.00434 1.00003 0.987051
1.00518 0.999449 0.986203
1.00424 0.999636 0.987628
1.00514 0.998947 0.986789
1.00518 0.999233 0.986426
1.00521 0.997734 0.987924
1.00516 0.999658 0.98602
1.00523 0.998383 0.987232
1.00177 0.999953 0.991608
1.00192 0.999986 0.992023
1.00427 0.999623 0.987393
1.0043 0.999915 0.987917
0.999759 0.999526 0.998212
1.00061 1.00162 0.993324
1.00285 1.00226 0.988161
1.00417 0.999925 0.987877
1.00514 0.999305 0.986381
1.00501 0.999926 0.986289
1.0048 1.00058 0.985635
1.0052 0.999827 0.985739
0.999926 1.00113 0.993723
1.00037 1.00371 0.990414
1.00424 0.999605 0.987555
1.00427 0.999763 0.987889
1.00515 0.99906 0.986877
1.00515 0.999328 0.986476
1.00003 1.00151 0.993106
1.00174 1.00341 0.988306
1.00437 1.00144 0.985478
1.00509 0.999637 0.986374
1.00524 0.998456 0.987153
1.00516 1.00055 0.98523
1.00521 0.999292 0.98625
1.00519 0.999076 0.986557
1.00065 1.00375 0.989856
1.00066 1.00459 0.988902
1.00014 1.00327 0.991223
1.00513 0.999068 0.986879
1.00515 0.999122 0.986821
1.00523 0.997847 0.98777
1.00525 0.998207 0.987338
1.00522 0.998701 0.986824
1.00518 0.997159 0.98844
1.00095 1.00374 0.989303
1.00518 0.99823 0.987272
1.00302 1.00317 0.9863
1.00507 1.00123 0.984452
1.00516 1.00028 0.985463
1.00513 0.998229 0.987483
1.00015 1.00239 0.992074
1.00125 1.00384 0.98874
1.00028 1.00489 0.989227
1.00141 1.00397 0.988604
1.0043 1.00011 0.987024
0.99976 0.999276 0.995811
0.999777 1.00075 0.994252
1.00004 1.0032 0.991413
1.00393 1.00051 0.987298
1.00509 1.00008 0.985674
1.00093 1.00405 0.989009
1.00335 1.00341 0.98565
1.00471 1.00081 0.985701
1.00475 1.0007 0.985158
0.99986 0.998871 0.99608
1.00057 1.00356 0.990203
1.00005 1.00201 0.992627
1.00027 1.00465 0.989657
1.00513 0.999866 0.985831
1.00492 1.00041 0.985639
1.00519 0.999658 0.98592
1.0019 1.00465 0.986855
1.00506 1.00052 0.98542
1.00415 1.00248 0.98489
1.0051 1.00073 0.985014
0.999972 0.998567 0.996192
1.00017 1.0011 0.993386
1.0011 1.00448 0.988478
1.00011 1.00374 0.990889
1.00071 1.00454 0.989201
1.0052 0.999237 0.986357
1.00514 1.00005 0.985582
1.00514 0.998891 0.986719
1.00265 1.00429 0.986063
1.00513 1.00014 0.985581
1.00431 1.00185 0.984822
1.00027 1.00039 0.993888
1.00024 1.00169 0.992694
1.00024 1.00032 0.994021
1.00026 1.00032 0.993962
1.00008 0.998193 0.996854
1.00004 0.998358 0.996535
0.999817 0.997279 0.998034
0.999671 0.997426 0.999146
0.999583 0.997614 0.99913
0.999829 0.999543 0.995425
0.999606 0.99824 0.998885
0.999807 1.00017 0.994861
0.999648 0.998695 0.99866
0.999847 1.00076 0.994244
0.999712 0.999094 0.998435
1.00433 1.00004 0.987041
1.00434 0.99982 0.987262
1.00518 0.999464 0.986193
1.00516 0.999075 0.986626
1.00427 0.999654 0.987543
1.00175 0.999957 0.991614
1.00423 0.999635 0.987629
1.00514 0.99895 0.986792
1.00518 0.999248 0.986418
1.00522 0.997617 0.988057
1.00516 0.999665 0.986009
1.00523 0.998399 0.987217
1.00513 0.998925 0.986841
1.00519 0.997413 0.988332
1.00523 0.997972 0.987629
1.00522 0.996312 0.989275
1.0052 0.998836 0.986806
1.00517 0.996834 0.988703
1.00424 0.999562 0.9875
1.00429 0.999758 0.987874
1.00515 0.998961 0.986994
1.00515 0.999455 0.986454
1.00012 1.00149 0.993091
1.00176 1.00337 0.988296
1.00438 1.00148 0.985507
1.00509 0.999702 0.986327
1.00524 0.998298 0.987338
1.0052 0.999284 0.986271
1.00515 1.00054 0.985203
1.00519 0.999035 0.98656
1.00072 1.00363 0.989861
1.00063 1.00456 0.988937
1.00018 1.00324 0.991218
1.00513 0.999025 0.986833
1.00515 0.999118 0.986813
1.00522 0.997634 0.988014
1.00524 0.998285 0.987279
1.001 1.00373 0.989276
1.00311 1.00306 0.986291
1.00493 1.00136 0.984534
1.00522 0.998861 0.986683
1.00518 0.99696 0.988664
1.00516 1.00028 0.985387
1.00519 0.998235 0.987287
1.00513 0.998123 0.987607
1.00132 1.00383 0.988728
1.00136 1.00399 0.988595
1.00017 1.00238 0.992057
1.00023 1.0048 0.989342
1.00522 0.99762 0.988056
1.00523 0.997965 0.98776
1.00517 0.996454 0.989153
1.00519 0.996249 0.989259
1.00517 0.997471 0.988099
1.00514 0.996159 0.989571
1.00196 1.00357 0.987795
1.00512 0.996848 0.988612
1.00381 1.00294 0.985061
1.00513 1.00144 0.984216
1.00516 0.999785 0.985724
1.0051 0.997861 0.987823
1.00014 1.00173 0.992731
1.00017 1.00423 0.990085
1.00184 1.00327 0.988273
1.00051 1.00502 0.988876
1.0017 1.00331 0.988821
0.999864 0.998833 0.996096
1.00514 0.999868 0.985815
1.00003 1.00196 0.992661
1.00048 1.00372 0.990211
1.00016 1.00485 0.98963
1.00494 1.0004 0.985618
1.0052 0.999664 0.985908
1.00191 1.00456 0.986886
1.00405 1.00235 0.984898
1.00509 1.00057 0.985426
1.00512 1.00073 0.984925
0.999976 0.998553 0.996199
1.00015 1.00109 0.993404
1.00108 1.00445 0.988497
1 1.00388 0.990882
1.00058 1.00452 0.989146
1.0052 0.99924 0.986344
1.00515 1.00005 0.985564
1.00514 0.998864 0.986687
1.00256 1.00428 0.986064
1.00516 1.00017 0.985505
1.00451 1.00177 0.984812
1.00025 1.0006 0.993739
1.00014 1.00265 0.991952
1.00149 1.0042 0.988023
1.00017 1.00475 0.989958
1.0011 1.00386 0.989241
1.00516 0.998282 0.987323
1.00514 0.999459 0.986109
1.0051 0.998251 0.98707
1.00285 1.00335 0.9862
1.00498 1.00087 0.984859
1.00027 1.0004 0.993884
1.00025 1.00165 0.992615
1.00019 1.00173 0.992649
1.0002 1.00243 0.992152
1.00019 1.00173 0.992728
1.00019 1.00037 0.994046
1.00024 1.00032 0.994022
1.00011 0.998117 0.996869
1.00026 1.00034 0.993962
1.00009 0.99821 0.996856
0.999914 0.997056 0.998063
1.00003 0.998357 0.996817
0.999784 0.997239 0.998599
0.999681 0.997378 0.999151
0.999884 0.999024 0.995851
0.999826 0.999594 0.995401
0.999623 0.997887 0.999011
0.999635 0.998323 0.998823
0.999814 1.00024 0.994833
0.999691 0.998747 0.9986
1.00516 0.999671 0.985998
1.00518 0.999249 0.986409
1.00523 0.998408 0.987203
1.00522 0.9975 0.98819
1.00513 0.998952 0.986795
1.00423 0.999634 0.987631
1.00512 0.998925 0.986844
1.00519 0.997412 0.988336
1.00524 0.997983 0.987623
1.00521 0.996123 0.989466
1.00521 0.998832 0.986784
1.00518 0.996719 0.988834
1.00521 0.997432 0.988276
1.00522 0.996108 0.98949
1.0052 0.996187 0.989408
1.00521 0.995294 0.990263
1.00517 0.997544 0.988042
1.00516 0.995758 0.989764
1.00514 0.998978 0.986788
1.00515 0.999123 0.986805
1.00522 0.997409 0.988259
1.00524 0.998359 0.987221
1.00107 1.00372 0.98925
1.00318 1.00295 0.986282
1.00477 1.00143 0.984615
1.00521 0.999022 0.986543
1.00518 0.996759 0.988889
1.00519 0.998239 0.987302
1.00517 1.00028 0.985311
1.00513 0.998015 0.987731
1.00128 1.00389 0.988717
1.00116 1.00405 0.988586
1.00021 1.00239 0.99204
1.00019 1.00473 0.989457
1.00522 0.997625 0.988044
1.00522 0.998046 0.987636
1.00517 0.9963 0.98936
1.0052 0.996359 0.989131
1.00189 1.00378 0.987757
1.00373 1.00285 0.985186
1.00513 1.00147 0.984175
1.00517 0.99765 0.98789
1.00514 0.995881 0.989748
1.00515 0.99983 0.9857
1.00512 0.996871 0.988616
1.00511 0.997625 0.987951
1.00193 1.00324 0.988244
1.00165 1.00322 0.988891
1.00051 1.00503 0.988842
1.00015 1.00173 0.992662
1.00012 1.00416 0.990212
1.0052 0.995992 0.989629
1.0052 0.995995 0.989626
1.00515 0.995253 0.990268
1.00513 0.996042 0.98941
1.0024 1.00369 0.986927
1.00514 0.996439 0.989196
1.00417 1.00277 0.984232
1.00507 1.0015 0.984184
1.00513 0.999374 0.986001
1.00008 1.0011 0.993282
1.00011 1.00347 0.991155
1.0004 1.0046 0.989598
1.00215 1.00296 0.98818
1.00076 1.00479 0.98845
1.00197 1.00247 0.98863
0.999977 0.998545 0.996206
1.00013 1.00107 0.993422
1.0052 0.999244 0.986331
0.999891 1.00402 0.990876
1.00097 1.00453 0.988517
1.00045 1.00453 0.98909
1.00516 1.00004 0.985547
1.00514 0.998837 0.986655
1.00244 1.00427 0.986065
1.00469 1.00173 0.984801
1.00518 1.00019 0.985428
1.00024 1.00059 0.993743
1.00007 1.00268 0.991972
1.00151 1.00422 0.987992
1.00003 1.00482 0.989928
1.001 1.00372 0.989318
1.00515 0.998294 0.987299
1.00514 0.99946 0.986083
1.0051 0.998287 0.987126
1.00297 1.00323 0.986024
1.00497 1.00098 0.984855
1.00022 1.00195 0.99251
0.999825 1.00409 0.990788
1.00215 1.00299 0.988053
1.00016 1.00491 0.98955
1.00158 1.00274 0.989185
1.00512 0.996855 0.988504
1.00511 0.999575 0.985975
1.00509 0.998155 0.987082
1.00392 1.00235 0.985637
1.00498 1.00088 0.984921
1.00027 1.00039 0.993881
1.00025 1.00167 0.992642
1.00006 1.00246 0.992106
1.00015 1.00177 0.992604
1.00017 1.00177 0.992725
1.00011 1.00249 0.992092
1.00005 1.00289 0.991889
1.0001 1.00259 0.991929
1.00013 1.00183 0.99273
1.00013 1.00048 0.994047
1.00019 1.00037 0.994047
1.00013 0.998101 0.996863
1.00023 1.00031 0.994023
1.00012 0.99814 0.996868
0.999981 0.996934 0.998066
1.00009 0.998219 0.99686
0.999903 0.997027 0.99807
0.999746 0.997188 0.999175
0.999936 0.998604 0.996197
0.999874 0.999089 0.995823
0.999662 0.997593 0.999099
0.999821 0.999661 0.995378
0.999644 0.997961 0.998974
0.999672 0.99839 0.998764
1.00521 0.998829 0.986762
1.00524 0.997999 0.987618
1.00518 0.996604 0.988966
1.0052 0.995952 0.989657
1.00519 0.997408 0.988339
1.00512 0.998926 0.986847
1.00522 0.997519 0.988176
1.00522 0.996213 0.989426
1.00519 0.996249 0.989348
1.00522 0.995148 0.990367
1.00517 0.997583 0.98803
1.00516 0.995528 0.989962
1.00524 0.996235 0.989401
1.00523 0.994934 0.990608
1.00518 0.995153 0.99038
1.00514 0.995866 0.989661
1.00523 0.997631 0.98803
1.00521 0.998125 0.987513
1.00516 0.99616 0.989567
1.00521 0.996468 0.989002
1.0019 1.00387 0.98772
1.00372 1.00277 0.985311
1.00513 1.00153 0.984134
1.00517 0.99783 0.987681
1.00513 0.99561 0.989924
1.00513 0.996894 0.988619
1.00514 0.999865 0.985676
1.00512 0.997393 0.988079
1.00202 1.00325 0.988215
1.00168 1.00299 0.988958
1.00049 1.00504 0.988808
1.00016 1.00171 0.992594
1.0001 1.00406 0.990339
1.0052 0.996066 0.989632
1.0052 0.99604 0.989566
1.00515 0.995388 0.99015
1.00239 1.00377 0.986901
1.00428 1.00268 0.984338
1.00507 1.00146 0.984153
1.00513 0.996063 0.989402
1.00511 0.999168 0.986289
1.00513 0.996409 0.989037
1.00009 1.001 0.993384
1.00228 1.0028 0.988127
1.00179 1.0023 0.989168
1.0009 1.00487 0.988391
1.0004 1.00465 0.989616
1.00011 1.00344 0.991093
1.00521 0.995217 0.990198
1.00519 0.995208 0.990345
1.00513 0.99506 0.990273
1.00515 0.995411 0.990024
1.00303 1.0033 0.986222
1.00513 0.997456 0.987909
1.00487 1.00256 0.983258
1.005 1.00164 0.984008
1.00014 1.00027 0.994037
1.00009 1.00264 0.992027
1.00026 1.00407 0.990394
1.00062 1.00502 0.988717
1.00239 1.00252 0.987847
1.00189 1.00358 0.987902
1.00023 1.00059 0.993747
1.00001 1.00271 0.991993
1.00515 0.998305 0.987275
0.999887 1.00489 0.989899
1.00155 1.00421 0.98796
1.00077 1.00362 0.989397
1.00514 0.99946 0.986056
1.00511 0.998329 0.987181
1.00312 1.00316 0.985844
1.00497 1.00108 0.984851
1.00019 1.00194 0.992525
0.999894 1.00414 0.99076
1.00221 1.00304 0.988039
1.00002 1.00501 0.989566
1.0014 1.00246 0.989667
1.00512 0.996841 0.9887
1.0051 0.999567 0.986045
1.0051 0.998216 0.987106
1.00382 1.00251 0.985425
1.005 1.00091 0.984748
0.99992 1.00282 0.991911
0.999768 1.00497 0.989826
1.00289 1.00207 0.987709
1.00059 1.00396 0.988781
1.00513 0.99545 0.98983
1.00496 0.99744 0.988403
1.005 0.999858 0.985682
1.00428 1.00117 0.985097
1.00026 1.00167 0.992669
1.00008 1.00246 0.992125
0.999847 1.0031 0.992059
1.00013 1.00182 0.992721
1.00003 1.00254 0.992032
1.00013 1.00184 0.992723
0.999987 1.00287 0.991906
1.00011 1.00258 0.991969
0.999914 1.00291 0.992043
1.00008 1.00303 0.991614
1.00012 1.0027 0.991769
1.00011 1.00192 0.99266
1.00008 1.00057 0.994022
1.00014 1.00045 0.994046
1.00013 0.998121 0.996847
1.00019 1.00036 0.994047
1.00013 0.998132 0.99686
1.00003 0.996859 0.998057
1.00012 0.998162 0.996869
0.999974 0.996899 0.998073
0.999889 0.997004 0.998072
1.00002 0.998212 0.996447
0.999942 0.998633 0.99617
0.999725 0.997272 0.999168
0.999863 0.999156 0.995794
0.999672 0.997642 0.999075
0.999667 0.998025 0.998922
1.00517 0.997621 0.988018
1.00518 0.996311 0.989288
1.00516 0.995298 0.990158
1.00523 0.994976 0.990472
1.00522 0.996305 0.989361
1.00523 0.997608 0.988075
1.00524 0.996215 0.989444
1.00524 0.995009 0.990525
1.00518 0.995184 0.990326
1.00514 0.995789 0.989755
1.00522 0.995189 0.990414
1.00517 0.994941 0.990644
1.00516 0.995061 0.99036
1.0052 0.996142 0.989635
1.0052 0.996084 0.989506
1.00514 0.995525 0.990032
1.0024 1.00385 0.986873
1.00434 1.00259 0.984442
1.00506 1.00145 0.984122
1.00514 0.996079 0.989394
1.00512 0.996373 0.988879
1.0051 0.998966 0.986578
1.0024 1.00267 0.988073
1.00157 1.00219 0.989706
1.00107 1.00498 0.988334
1.0001 1.00091 0.993487
1.00033 1.00466 0.989634
1.00012 1.0034 0.991031
1.0052 0.995324 0.990245
1.00519 0.995128 0.990389
1.00513 0.995121 0.990318
1.00297 1.0034 0.986192
1.00469 1.00257 0.983485
1.00494 1.00144 0.984325
1.00515 0.99546 0.989964
1.00513 0.997387 0.987859
1.00013 1.00023 0.99419
1.00009 1.00264 0.992024
1.00216 1.00243 0.98811
1.00176 1.00364 0.988385
1.00055 1.00497 0.988935
1.00024 1.0041 0.990326
1.00515 0.994953 0.990681
1.00514 0.994937 0.990492
1.00512 0.995078 0.99035
1.00514 0.995348 0.989792
1.00344 1.00275 0.985345
1.0048 1.00049 0.985352
1.00504 1.00285 0.982956
1.0002 0.999827 0.994574
1.00021 1.00098 0.993471
1.00009 1.00171 0.992776
1.00003 1.00365 0.991069
1.00014 1.00472 0.9897
1.0003 1.0048 0.989003
1.00255 1.00148 0.98818
1.00183 1.00349 0.989134
1.00014 1.00196 0.992539
0.999959 1.0042 0.990733
1.00512 0.996826 0.988897
1.00009 1.00503 0.989579
1.00226 1.00314 0.988028
1.00119 1.00224 0.990147
1.00509 0.999541 0.986116
1.00511 0.998272 0.987132
1.00373 1.00264 0.985219
1.00505 1.00092 0.984577
0.999933 1.00291 0.991816
0.999847 1.00488 0.989894
1.00282 1.00211 0.987805
1.00096 1.00401 0.988891
1.00514 0.99535 0.989982
1.00503 0.997432 0.988208
1.00501 0.999815 0.985702
1.00454 1.00132 0.984955
0.999768 1.00361 0.991427
1.00514 0.994961 0.990317
1.00059 1.00497 0.989227
1.00294 1.00254 0.987031
1.00499 0.995968 0.989921
1.0049 0.99875 0.986235
1.00495 1.00104 0.984863
1.00008 1.0025 0.992143
0.999834 1.00305 0.992033
0.999555 1.00342 0.992295
1.00013 1.00182 0.992717
1.00011 1.00257 0.992009
0.999854 1.00292 0.991922
1.00012 1.00191 0.992649
1.0001 1.0027 0.991789
0.999785 1.00299 0.992068
1.00013 1.00295 0.991646
0.99997 1.0027 0.992304
0.999951 1.00304 0.991823
1.00018 1.00321 0.99129
1.00025 1.00272 0.991591
1.00014 1.00204 0.992506
1.00004 1.0007 0.993955
1.00007 1.00059 0.994018
1.00012 0.998179 0.996803
1.00013 1.00046 0.994045
1.00013 0.998156 0.996843
1.00006 0.996809 0.998047
1.00013 0.998162 0.996858
1.00003 0.996822 0.998063
0.99997 0.996867 0.998076
1.00019 0.999788 0.994651
1.00008 0.997968 0.99659
1.00003 0.998237 0.99643
0.999815 0.996989 0.999214
0.999946 0.998671 0.996143
0.999729 0.99735 0.999149
0.999687 0.99771 0.99905
1.00515 0.995715 0.989848
1.00518 0.995218 0.990273
1.00524 0.9951 0.990441
1.00524 0.99619 0.989487
1.00522 0.995076 0.990541
1.00516 0.994943 0.990661
1.00515 0.995093 0.990338
1.00515 0.994947 0.990718
1.00517 0.994939 0.990554
1.00505 0.994996 0.990923
1.00519 0.995427 0.990292
1.0052 0.995042 0.990434
1.00512 0.995186 0.990362
1.00293 1.00351 0.986162
1.00453 1.0026 0.983714
1.00488 1.00126 0.984643
1.00514 0.995518 0.989906
1.00513 0.99732 0.987809
1.00195 1.0024 0.988375
1.00168 1.00368 0.988866
1.00036 1.00491 0.989153
1.00012 1.00017 0.994342
1.00013 1.00262 0.992022
1.00022 1.00419 0.990257
1.00516 0.99495 0.990639
1.00018 0.999851 0.994569
1.00017 1.00101 0.993403
1.00514 0.994934 0.990505
1.00513 0.995072 0.990347
1.00317 1.00299 0.985747
1.00499 1.00275 0.983124
1.00487 1.00034 0.985277
1.00513 0.995503 0.989717
1.0001 1.00169 0.992958
1.00008 1.00361 0.991045
1.00278 1.00195 0.987887
1.00123 1.00351 0.989531
1.00036 1.00472 0.989189
1.0001 1.00475 0.989797
1.00519 0.994963 0.990444
1.00512 0.994885 0.990539
1.00513 0.995 0.990102
1.00477 0.996235 0.989416
1.0031 1.00267 0.986322
1.00446 1.00308 0.983865
1.00011 1.00114 0.993288
1.00018 1.00108 0.993392
1.00031 1.00164 0.992749
1.00012 1.00292 0.991487
0.99998 1.00436 0.990581
1.00079 1.00439 0.98912
0.99971 1.00499 0.989544
1.00196 1.001 0.989675
0.999949 1.00298 0.991722
0.999983 1.00483 0.989965
1.00515 0.995248 0.990135
1.00509 0.997464 0.988015
1.00129 1.00406 0.989001
1.00274 1.00211 0.987897
1.00504 0.99979 0.98572
1.00478 1.0015 0.98481
0.999821 1.00362 0.991388
1.00516 0.994909 0.990451
1.00036 1.00494 0.989307
1.00291 1.00244 0.986987
1.00502 0.995873 0.989871
1.00483 0.998805 0.986497
1.00488 1.00122 0.984917
0.999882 1.00456 0.990674
1.00452 0.994945 0.991916
1.00179 1.00387 0.988743
1.00353 1.0025 0.986476
1.00489 0.996613 0.989177
1.00415 1.00081 0.98573
0.999124 0.997133 0.991096
0.999783 1.00305 0.992008
0.999425 1.00349 0.992284
0.999684 1.00351 0.992188
1.00011 1.00192 0.992637
1.00009 1.00274 0.99181
1.0002 1.00288 0.991678
0.999705 1.003 0.992094
1.00013 1.00203 0.992505
1.00022 1.00278 0.991576
0.999922 1.00278 0.992185
1.00014 1.00327 0.991293
1.00004 1.00297 0.991775
1.00001 1.00266 0.992186
1.00027 1.00334 0.991022
1.00021 1.00328 0.991198
1.00036 1.00284 0.99131
1.00017 1.00215 0.992218
1.00027 1.00263 0.991822
1.00017 1.00223 0.992093
1.00004 1.00074 0.993905
1.00004 1.0007 0.993951
1.00014 0.998272 0.996186
1.00008 1.00058 0.994013
1.00013 0.998224 0.996512
1.00003 0.996779 0.999161
1.00013 0.998193 0.996839
1.00006 0.99677 0.998053
1.00003 0.996787 0.998065
1.00015 0.999769 0.994724
1.0002 0.999756 0.994658
1.0001 0.997841 0.996699
1.00007 0.997976 0.996843
0.99989 0.996795 0.999246
1.00003 0.998259 0.996414
0.999806 0.997058 0.999202
0.999733 0.997406 0.99913
1.00514 0.995122 0.990317
1.00515 0.994945 0.990678
1.00522 0.994966 0.990668
1.00515 0.994946 0.990718
1.00517 0.994938 0.990553
1.00508 0.995023 0.990616
1.00518 0.994981 0.990494
1.00101 0.994828 0.987675
1.00429 0.994947 0.993243
1.00004 1.00119 0.993494
1.00518 0.994946 0.990596
1.00514 0.994932 0.990518
1.00513 0.995064 0.990343
1.00285 1.00316 0.986147
1.00494 1.00264 0.983291
1.00497 1.00018 0.985205
1.00513 0.995699 0.98964
1.00313 1.00212 0.987595
1.0006 1.00351 0.989933
1.00049 1.00463 0.989376
1.00016 0.999898 0.994564
1.00008 1.00477 0.989894
1.00009 1.00167 0.993138
1.00014 1.00357 0.991022
1.00015 1.00101 0.993334
1.00519 0.994961 0.99044
1.00012 1.0011 0.993388
1.00015 1.00113 0.993387
1.0003 1.00165 0.992679
1.00512 0.994898 0.990522
1.00514 0.99501 0.990104
1.0033 1.00255 0.986361
1.00439 1.00249 0.984401
1.00465 0.996669 0.989322
1.00004 1.00296 0.991622
1.00006 1.00432 0.990404
1.00187 1.00178 0.989446
1.00011 1.0048 0.989588
1.00067 1.00431 0.989195
1.00516 0.995118 0.990512
1.00514 0.994889 0.990462
1.00506 0.995817 0.989544
1.00448 0.998178 0.988848
1.00183 1.0028 0.988848
1.00013 1.00208 0.992326
1.00035 1.00182 0.992215
1.00013 1.00247 0.991927
0.999897 1.00429 0.991011
1.00002 1.00446 0.990102
1.00012 1.00455 0.989551
1.00045 1.00346 0.990136
0.999922 1.0036 0.991345
1.00005 1.00488 0.989385
1.00517 0.994883 0.99058
1.00507 0.995735 0.989819
1.0048 0.998856 0.986759
1.00289 1.00231 0.986945
1.0048 1.00134 0.984973
0.999933 1.00449 0.990778
1.00444 0.994932 0.992037
1.0014 1.00383 0.988872
1.00325 1.00252 0.986543
1.00485 0.996288 0.989525
1.00424 1.00096 0.985701
0.999165 0.99693 0.989045
1.00002 1.00446 0.990572
1.00307 0.996911 0.992048
1.00131 1.00326 0.989295
1.00275 1.00186 0.987398
1.00391 0.997343 0.988754
1.00026 0.995443 0.953793
0.997016 0.994912 0.972735
0.99679 1.00253 0.990312
0.99977 0.996751 0.90201
0.994718 0.997376 0.87843
0.999324 1.00355 0.992274
0.999367 1.00376 0.992254
0.999755 1.003 0.992359
1.00013 1.00203 0.992503
1.00027 1.0027 0.991561
1.00012 1.0033 0.991295
1.00013 1.0029 0.991726
0.999864 1.0029 0.992067
1.00024 1.00322 0.991156
1.00017 1.00212 0.99229
1.00034 1.00284 0.991333
1.00003 1.00265 0.9921
1.00019 1.00338 0.991127
1.00024 1.00341 0.991117
0.999876 1.00306 0.991737
1.00034 1.0033 0.990964
1.00034 1.00286 0.99125
1.0002 1.00223 0.99207
1.00034 1.0029 0.991346
1.00022 1.00282 0.991642
1.00013 1.00258 0.99197
1.00025 1.00266 0.991758
1.00023 1.00193 0.992449
1.00019 1.00224 0.992079
1.00009 1.0007 0.99388
1.00004 1.00075 0.993903
1.00013 0.99834 0.996162
1.00003 1.00072 0.993948
1.00013 0.998286 0.996184
1.00003 0.996782 0.999154
1.00014 0.998269 0.99622
1.00005 0.996779 0.99859
1.00006 0.996733 0.998056
1.00009 0.99979 0.994801
1.00016 0.999755 0.994726
1.00012 0.997746 0.996776
1.0002 0.999725 0.994665
1.0001 0.997802 0.996953
0.999942 0.996631 0.999275
1.00008 0.998017 0.996561
0.999878 0.996876 0.99923
0.999801 0.997115 0.999191
1.00516 0.994938 0.990552
1.00515 0.994944 0.990718
1.00509 0.994958 0.99031
1.00086 0.994884 0.987793
1.00517 0.994978 0.99049
1.00417 0.995332 0.992826
1.00492 0.996326 0.991163
0.997047 0.994909 0.971657
1.00075 0.996683 0.989176
1.00006 1.00124 0.993429
1.0001 1.00113 0.993488
1.00002 1.00217 0.992547
1.00006 1.00214 0.992533
1.00518 0.994959 0.990436
1.00511 0.994905 0.990505
1.00514 0.994975 0.990106
1.00374 1.00228 0.9864
1.00424 1.00178 0.984932
1.00456 0.99714 0.989225
1.00161 1.00274 0.989217
1.00057 1.00462 0.98963
1.00055 1.0042 0.989269
1.00011 1.00122 0.993382
1.0001 1.00432 0.990226
1.00007 1.00297 0.991759
1.00012 1.0011 0.993489
1.00025 1.00166 0.992606
1.00517 0.995049 0.990505
1.00013 1.00212 0.992429
1.00032 1.00184 0.992387
0.999948 1.00239 0.992332
1.00515 0.994892 0.990372
1.00492 0.995711 0.989578
1.00231 1.00208 0.98876
1.00413 0.99809 0.989241
0.99999 1.00412 0.990882
1.00018 1.00466 0.98965
1.0005 1.00383 0.990084
1.00062 1.00438 0.989465
1.00467 0.99505 0.991367
1.00511 0.995815 0.989955
1.00498 0.996342 0.989462
1.00215 0.999458 0.991549
0.999964 1.00325 0.9915
1.00015 1.00303 0.991364
0.999402 1.00462 0.991092
0.999615 1.00501 0.990101
1.00001 0.994901 0.946793
0.999934 1.00444 0.990883
1.00092 1.00386 0.989
1.0044 0.9949 0.992157
1.0048 0.996071 0.989872
1.00427 1.00104 0.985667
1.00294 1.00257 0.986606
0.999348 0.99675 0.986936
0.99989 1.00465 0.990672
1.00329 0.996674 0.992065
1.00122 1.00331 0.98932
1.00309 1.00152 0.987356
1.00417 0.997721 0.988788
1.00134 0.9957 0.94521
0.9968 0.995168 0.968489
0.996677 1.00231 0.99007
0.999786 0.997202 0.905321
0.994707 0.997349 0.868339
0.999732 1.00383 0.991628
0.999866 0.99515 0.911635
0.995233 0.996749 0.879628
1.00173 1.0001 0.991146
1.00066 1.00313 0.990301
1.00213 1.00057 0.989026
0.996618 1.00342 0.989765
1.00045 0.997019 0.950652
0.994927 0.996438 0.966352
0.998098 0.998777 0.90959
0.994798 0.998468 0.875474
0.999109 1.00396 0.99232
0.999601 1.00325 0.992292
0.999559 1.00259 0.993507
1.00018 1.00208 0.992363
1.00033 1.00287 0.991357
1.00013 1.00331 0.991116
1.00011 1.00341 0.991233
1.00006 1.00262 0.992014
1.00021 1.0022 0.992081
1.00016 1.00349 0.991077
1.00032 1.0033 0.990975
1.00038 1.00281 0.991314
0.999869 1.00304 0.991827
1.00008 1.0035 0.991358
0.99944 1.00336 0.991969
1.00042 1.00326 0.990819
1.00044 1.00296 0.991117
1.00038 1.00288 0.991323
1.0002 1.00281 0.991678
1.00043 1.00297 0.991158
1.00007 1.00291 0.991763
0.999945 1.0027 0.991838
0.999727 1.00384 0.991335
0.999976 1.00283 0.99197
1.00015 1.00258 0.991966
1.00017 1.00184 0.992637
1.00024 1.00267 0.991695
1.00025 1.00194 0.992382
1.00017 1.00059 0.993872
1.0002 1.00225 0.992065
1.00009 1.0007 0.993882
1.00012 0.998312 0.99676
1.00004 1.00076 0.9939
1.00012 0.998315 0.99646
1.00008 0.996807 0.997983
1.00013 0.9983 0.996182
1.00003 0.996794 0.999152
1.00008 0.996787 0.998018
1.0001 1.00134 0.99326
1.00004 0.99985 0.994813
1.00009 0.999776 0.994803
1.00012 0.997717 0.996798
1.00017 0.999739 0.994728
1.00013 0.997713 0.996777
0.999984 0.996527 0.999289
1.00009 0.997805 0.997187
0.999958 0.996708 0.998764
0.999922 0.996931 0.998198
1.00055 0.995148 0.987935
1.00516 0.994975 0.990488
1.00404 0.996032 0.992403
0.996758 0.994974 0.972996
1.0006 0.996461 0.989436
1.00495 0.9959 0.990984
1.00321 0.997126 0.988887
0.996773 0.996905 0.975544
1.00009 0.995669 0.95123
0.999294 0.998317 0.912957
0.99466 0.997357 0.877226
0.999945 1.00222 0.992491
1.00008 1.00122 0.993428
1.00015 1.00106 0.993481
1.00003 1.00217 0.992525
0.999868 1.00308 0.991919
1.00019 1.00262 0.991852
1.00004 1.00257 0.992208
1 1.00227 0.992455
1.00518 0.994952 0.990494
1.00516 0.994897 0.990278
1.00484 0.995519 0.989614
1.00257 1.00161 0.988676
1.0038 0.998061 0.989639
1.00058 1.00424 0.990031
1.00104 1.00426 0.98938
1.0004 1.00483 0.989201
1.00021 1.00185 0.99256
0.999993 1.00414 0.990753
1.00014 1.00217 0.992534
0.999856 1.00228 0.992736
1.00468 0.994973 0.991461
0.999946 1.00327 0.991581
1.00011 1.00315 0.991509
1.00504 0.995494 0.9899
1.00474 0.995878 0.989693
1.00214 0.999495 0.991202
0.999679 1.00485 0.990602
1.00004 1.00468 0.990195
1.00345 0.996157 0.991889
1.00466 0.996208 0.990527
1.00431 0.995256 0.991323
1.00146 1.00006 0.99168
0.999995 1.00426 0.990484
0.999613 1.00437 0.99096
0.999626 1.00515 0.990511
0.999896 0.994843 0.913004
1.00052 0.995009 0.955921
0.99984 1.00478 0.990772
1.00115 1.00328 0.989347
1.00342 0.996161 0.992086
1.00437 0.998137 0.988824
1.00347 1.00122 0.987322
1.00048 0.99495 0.952223
0.997171 0.995572 0.967733
0.99652 1.00265 0.989797
0.999268 0.997208 0.914624
0.994704 0.997389 0.857982
0.999725 1.00374 0.991635
0.999869 0.995821 0.910544
0.995202 0.996805 0.874509
1.00167 1.00042 0.991202
1.0007 1.00296 0.990355
1.00231 1.00059 0.989498
0.996953 1.00323 0.990369
1.00156 0.996969 0.94434
0.994925 0.995955 0.970246
0.99855 0.999395 0.909941
0.994868 0.998255 0.873305
0.999306 1.00342 0.993084
0.995306 0.996657 0.878861
0.994983 0.998141 0.893326
0.999517 1.00192 0.993087
0.999604 1.00322 0.992329
0.996084 1.00275 0.99068
0.994833 0.99883 0.969498
0.998437 0.999173 0.942218
0.995058 0.999859 0.915666
0.994821 0.995133 0.882086
0.999584 1.00336 0.992225
0.99966 1.0023 0.993456
0.998553 1.00326 0.993682
1.00021 1.00218 0.992092
1.00039 1.00278 0.991378
1.00031 1.00328 0.990985
1.00011 1.00358 0.991037
0.999815 1.00307 0.991917
1.00042 1.00298 0.991113
1.0001 1.00341 0.991286
1.00043 1.00323 0.990838
0.999215 1.00367 0.992098
0.997604 1.00447 0.993822
1.00014 1.00355 0.991114
1.00065 1.0034 0.990388
1.00041 1.00285 0.9913
1.00024 1.00276 0.991714
1.00042 1.003 0.99113
1.0001 1.00291 0.991737
0.99999 1.00266 0.991975
0.999841 1.00342 0.991592
0.999968 1.00321 0.991452
0.999921 1.0027 0.992051
1.00025 1.00284 0.991492
0.999937 1.00501 0.989364
0.999559 1.00423 0.991034
0.999785 1.00382 0.991324
0.999842 1.00322 0.991796
0.999999 1.00284 0.991962
1.00008 1.00191 0.992686
1.00014 1.00262 0.991963
1.00018 1.00183 0.992644
1.00022 1.00044 0.993892
1.00026 1.00195 0.992315
1.00016 1.00057 0.99388
1.00013 0.99829 0.996758
1.00008 1.0007 0.993885
1.00013 0.998284 0.996469
1.00006 0.996774 0.998004
1.00014 0.998289 0.996168
1.00003 0.996811 0.999147
1.00003 0.9968 0.99915
1.00012 1.00151 0.993277
1.00004 0.99996 0.994719
1.00009 1.00136 0.993265
1.00013 0.997719 0.996785
1.00005 0.999844 0.994816
1.0001 0.999772 0.994806
1.00013 0.997706 0.996795
1.00001 0.996471 0.999289
1.00011 0.99769 0.997255
1 0.996542 0.9988
0.999984 0.996709 0.998282
0.999854 0.995961 0.903935
0.994747 0.996686 0.878628
0.998013 0.994859 0.973154
1.00051 0.995728 0.989719
1.005 0.995247 0.990806
0.996377 0.995936 0.976765
1.00342 0.996374 0.989224
1.00123 0.996016 0.950305
0.999809 0.997587 0.903692
0.994672 0.997267 0.867053
0.998711 0.995104 0.980273
1.00002 0.997978 0.951161
0.998286 0.999124 0.908229
0.994772 0.996963 0.875354
1.00001 1.00324 0.991504
0.999947 1.0022 0.992568
1.00012 1.00117 0.993428
1.00003 1.00215 0.992504
0.999845 1.00295 0.992083
1.00011 1.00335 0.991347
1.00013 1.00274 0.991859
1.00023 1.00286 0.991502
1.00008 1.00252 0.992118
0.999947 1.00239 0.992381
1.00469 0.994938 0.991558
1.00509 0.995227 0.98986
1.00428 0.995603 0.989926
1.00199 0.999669 0.990854
1.00046 1.00439 0.990287
0.999912 1.00502 0.990112
1.00009 1.00313 0.991656
0.999881 1.00332 0.991661
1.00347 0.995532 0.992125
0.999944 1.00444 0.99038
0.999585 1.00444 0.990844
1.00486 0.995899 0.990218
1.00404 0.995329 0.991453
1.00173 0.999995 0.991329
0.999845 1.00513 0.99041
1.00073 0.997378 0.992561
1.00269 0.995594 0.994506
1.00045 1.00203 0.991443
0.999633 1.00476 0.990217
0.999705 1.00493 0.990151
0.999444 1.00513 0.99062
0.994755 0.996525 0.894399
0.999884 0.994868 0.91606
1.00002 0.994908 0.946928
0.999563 1.00387 0.991642
1.00076 1.00277 0.990407
1.0017 1.00019 0.991263
1.00251 1.00074 0.989963
0.999844 0.995385 0.917308
1.00028 0.996826 0.944518
0.994906 0.995403 0.966479
0.997269 1.00214 0.990927
0.99825 0.999057 0.900053
0.995192 0.996826 0.876271
0.994798 0.997998 0.879352
0.999052 1.00333 0.993086
0.995257 0.995726 0.885026
0.995066 0.998288 0.89291
0.999796 1.0017 0.993037
0.999397 1.00336 0.992334
0.995918 0.999984 0.993583
0.994871 0.998144 0.968483
0.997441 0.999262 0.951374
0.997267 0.999893 0.905329
0.994812 0.995057 0.888158
0.997691 1.00401 0.995211
0.994965 0.996554 0.903766
0.994774 0.994743 0.902072
0.995875 1.00216 0.999324
0.994816 0.999882 0.976088
0.995142 0.999974 0.951995
0.994811 0.999819 0.902664
0.994842 0.994782 0.88581
0.999742 1.00202 0.993403
0.998765 1.00326 0.993871
0.99714 1.00454 0.99514
1.0004 1.00303 0.991108
1.00046 1.00321 0.990858
1.00014 1.00326 0.991213
0.999002 1.00395 0.992232
1.00056 1.0035 0.990369
1.00011 1.00361 0.991076
0.997672 1.00442 0.994224
0.995677 1.00522 0.996666
0.998217 1.00452 0.993574
1.00036 1.00367 0.990625
1.00043 1.00302 0.9911
1.0001 1.00292 0.991711
0.999983 1.00267 0.99211
0.999984 1.00314 0.991548
0.99987 1.00341 0.991599
0.999908 1.00279 0.992086
1.00009 1.00298 0.99176
0.999074 1.00285 0.993189
1.00127 1.0004 0.991777
1.0003 1.0027 0.991608
1.00025 1.00393 0.990189
1.00154 1.00491 0.987264
0.999839 1.00485 0.99053
0.999809 1.00498 0.989791
0.999662 1.00419 0.991102
0.99969 1.00362 0.991469
0.999845 1.0038 0.991313
0.999923 1.00314 0.991796
1.00002 1.00218 0.992522
1.00007 1.00279 0.991955
1.00013 1.00189 0.992681
1.00024 1.00042 0.993893
1.0002 1.00181 0.992651
1.00023 1.00046 0.993897
1.00013 0.998265 0.99677
1.00017 1.00057 0.993889
1.00014 0.998268 0.996471
1.00002 0.996855 0.997997
1.00015 0.998258 0.996177
1.00004 0.996797 0.998575
1.00003 0.996804 0.99915
1.00014 1.00188 0.992684
1.00008 1.00007 0.994553
1.00009 1.00155 0.993105
1.00013 0.997767 0.996725
1.00004 0.999948 0.994722
1.00006 1.00141 0.993269
1.00003 0.996451 0.999285
1.00013 0.997715 0.996786
1.00005 0.999827 0.994819
1.00013 0.997695 0.996792
1.00001 0.996485 0.99929
0.999983 0.996532 0.999287
0.994701 0.994882 0.886148
0.99988 0.995635 0.909641
0.994945 0.998332 0.893203
0.994882 0.99673 0.87602
0.996309 0.995443 0.974133
1.00348 0.996293 0.989592
1.00026 0.996467 0.948757
0.999801 0.997379 0.913684
0.994697 0.997366 0.856712
0.998499 0.995619 0.979357
1.0013 0.997732 0.940994
0.998458 0.999422 0.908995
0.994816 0.997573 0.870071
0.995686 0.996175 0.974739
0.997799 0.998947 0.942997
0.995689 0.999885 0.900608
0.994851 0.994809 0.876606
1.00002 1.00408 0.9908
0.99998 1.00319 0.991626
0.999921 1.00225 0.992643
0.999822 1.00282 0.992247
1.00037 1.00355 0.990536
1.0001 1.00319 0.991454
1.00001 1.00285 0.991864
1.00037 1.00292 0.991337
1.00024 1.00287 0.99159
1.00011 1.00247 0.992028
1.0036 0.995152 0.992343
1.00488 0.995397 0.989917
1.00415 0.995212 0.991577
1.00185 0.999778 0.99099
1 1.00508 0.990311
0.99968 1.00456 0.99073
0.999853 1.00464 0.990277
0.999914 1.00483 0.99009
1.00089 0.997109 0.99288
0.999867 1.00493 0.990092
0.999712 1.00512 0.990589
1.00288 0.995503 0.994108
1.00085 1.00189 0.991281
0.998585 0.996816 0.994208
0.998462 0.99804 1.00009
0.998729 1.00419 0.991992
0.999949 1.00491 0.989903
0.999401 1.00505 0.990686
0.994825 0.996381 0.909024
0.994749 0.996542 0.892137
0.999868 0.994852 0.906834
0.998807 1.00327 0.993089
0.999227 1.00337 0.99232
1.00013 1.00151 0.993006
0.995222 0.99488 0.885749
0.997658 0.998913 0.943371
0.994871 0.997405 0.968747
0.996059 0.998653 0.99671
0.995593 0.99989 0.915843
0.995308 0.998491 0.892529
0.994862 0.994845 0.88845
0.997597 1.00392 0.995404
0.995068 0.99573 0.906659
0.994763 0.994906 0.902133
0.996119 1.00234 0.998382
0.994841 0.999616 0.977555
0.996136 0.999929 0.943456
0.994826 0.99482 0.886214
0.994847 0.999957 0.909537
0.995636 1.00505 0.998028
0.994695 0.994746 0.920916
0.994722 0.994811 0.905339
0.994845 0.995074 0.876951
0.995062 1.00048 0.993287
0.995022 0.999821 0.955235
0.994946 0.999988 0.908637
0.999071 1.00321 0.994056
0.997626 1.00466 0.994355
0.995432 1.00516 0.998136
1.00054 1.00353 0.990349
1.00005 1.00364 0.991036
0.997682 1.00441 0.994614
1.00024 1.00364 0.990686
0.998228 1.00438 0.993615
0.995872 1.00499 0.996799
0.995469 1.00511 0.998045
0.998337 1.00382 0.993529
0.999989 1.00308 0.991645
0.999891 1.0034 0.991605
0.999925 1.00286 0.992124
0.999258 1.00306 0.993046
1.00004 1.0029 0.991748
0.999872 1.00224 0.99281
1.00055 1.0009 0.992685
1.00123 1.00226 0.989805
1.00038 1.00253 0.991727
1.00067 1.00382 0.989942
1.00211 1.00361 0.987017
1.00206 1.00415 0.986831
1.0002 1.00498 0.989573
1.00124 1.00488 0.987361
0.999876 1.00425 0.990811
0.999756 1.00493 0.990459
0.99967 1.00496 0.990216
0.999767 1.00415 0.991172
0.999748 1.00352 0.991566
0.999992 1.00249 0.992265
0.999991 1.00306 0.991795
1.00006 1.00215 0.992525
1.00021 1.00059 0.993788
1.00016 1.00188 0.992676
1.00025 1.00042 0.993889
1.0001 0.998266 0.996797
1.00024 1.00045 0.993902
1.00014 0.998243 0.996488
0.999977 0.996932 0.998017
1.00016 0.998219 0.996184
1.00001 0.996863 0.998573
1.00001 0.996836 0.999152
1.00026 1.00208 0.992102
1.00013 1.00034 0.993989
1.00016 1.00187 0.992683
1.00015 0.997865 0.996596
1.00008 1.00008 0.994417
1.00009 1.00155 0.992935
1.00003 0.996499 0.999268
1.00013 0.997761 0.99673
1.00004 0.999933 0.994724
1.00003 0.99646 0.999287
1.00012 0.997711 0.996787
1.00001 0.996487 0.999291
0.994786 0.994843 0.905409
0.994708 0.995643 0.891244
0.999864 0.995953 0.910674
1.00048 1.00306 0.990912
0.994792 0.996192 0.906971
0.994972 0.99754 0.892954
0.994922 0.996646 0.880323
0.998602 0.995994 0.978016
0.999545 0.998363 0.950684
0.998235 0.99884 0.898535
0.994812 0.998135 0.873294
0.996535 0.995842 0.970798
0.997461 0.998883 0.951155
0.997109 0.999902 0.904548
0.994822 0.995682 0.878773
0.994868 0.996972 0.966979
0.995354 0.999948 0.950559
0.994892 0.999972 0.90977
0.994854 0.99481 0.885634
1.00018 1.00436 0.990052
1 1.00412 0.990673
0.999989 1.00314 0.991749
1.0003 1.00374 0.990507
1.0003 1.00364 0.990683
1.00012 1.00313 0.991561
1.00041 1.00288 0.991371
1.00024 1.00288 0.991676
1.00079 0.996875 0.993153
1.00306 0.995552 0.993675
1.00001 1.00484 0.989963
1.0015 1.00177 0.991104
0.999989 1.00513 0.990557
0.999961 1.00494 0.990033
0.999915 1.00494 0.989946
0.997984 0.997346 0.99479
0.999622 1.00502 0.990714
0.999439 1.00392 0.992051
0.998571 0.99759 1.00009
0.999955 1.00492 0.989964
0.996403 0.998349 0.994724
0.995801 1.00004 1.00259
0.998377 1.00529 0.992169
0.999719 1.00491 0.990737
0.994663 0.994811 0.925775
0.99481 0.996542 0.90913
0.994744 0.996625 0.889869
0.997445 1.00399 0.995626
0.996053 1.00216 0.99742
0.995099 0.994821 0.909487
0.995226 0.999989 0.952295
0.994853 0.999029 0.974574
0.994861 0.999948 0.908889
0.994708 0.995216 0.902181
0.994819 0.994852 0.886613
0.995929 1.00496 0.997649
0.994667 0.994748 0.920774
0.994734 0.994757 0.909288
0.994913 1.00126 0.996607
0.994813 0.995933 0.878975
0.994905 0.999213 0.950022
0.994966 0.999984 0.913335
0.99507 1.00432 0.998747
0.994698 0.994729 0.925094
0.994811 0.996342 0.907146
0.994758 0.997388 0.875519
0.995916 0.999968 0.909112
0.994901 0.999261 0.984001
0.995158 1.00064 0.942621
0.998125 1.00478 0.993567
0.995628 1.00511 0.997735
0.994955 1.00509 0.999835
1.00012 1.00361 0.990749
0.998215 1.00429 0.993657
0.996126 1.00441 0.996932
0.998531 1.00392 0.993427
0.995621 1.00432 0.99799
0.997644 1.00342 0.996073
0.999477 1.0032 0.992901
0.999907 1.00289 0.991736
0.999953 1.00234 0.992956
0.999611 1.00377 0.991056
0.99979 1.00136 0.993581
1.00104 1.00214 0.990265
1.00237 1.00292 0.987492
1.00417 1.00212 0.985067
1.00108 1.0037 0.989692
1.00257 1.00376 0.986215
1.00299 1.00325 0.986881
1.00077 1.00457 0.98838
1.00204 1.00407 0.987037
0.999853 1.00477 0.990119
1.00024 1.00499 0.989529
1.00095 1.00484 0.98746
0.999984 1.00299 0.991758
0.99982 1.00424 0.990848
0.999679 1.005 0.990387
0.99981 1.00342 0.991662
1.00004 1.00246 0.992263
1.00017 1.00087 0.993552
1.00011 1.00212 0.992527
1.00022 1.00059 0.993784
1.00006 0.998394 0.996219
1.00026 1.00044 0.993886
1.00013 0.998259 0.996232
0.999853 0.997006 0.999168
1.00015 0.99822 0.996201
0.999956 0.99694 0.998581
0.99997 0.996895 0.999152
1.00029 1.00231 0.991787
1.00021 1.00064 0.99355
1.00024 1.00211 0.992194
1.00016 0.998028 0.996416
1.00014 1.00035 0.993936
1.00016 1.00189 0.992681
1.00003 0.996583 0.999237
1.00014 0.997858 0.996606
1.00008 1.0001 0.994281
1.00004 0.99648 0.999274
1.00013 0.997753 0.996735
1.00003 0.996469 0.999288
0.994694 0.99474 0.921567
0.994789 0.99559 0.905236
0.994711 0.996352 0.891466
1.00041 1.00309 0.990993
1.00041 1.00319 0.990778
1.00045 1.00352 0.990602
0.994729 0.994773 0.904932
0.994745 0.995615 0.907008
0.995134 0.996833 0.892695
0.996311 0.995209 0.973207
0.998416 0.999382 0.94178
0.995232 0.999917 0.915445
0.994839 0.996513 0.875188
0.994908 0.996872 0.970141
0.996152 0.999971 0.947483
0.994822 0.999957 0.909836
0.994838 0.994827 0.885921
0.994871 0.997215 0.966045
0.995004 0.999948 0.952065
0.994944 1.00001 0.909029
0.994841 0.995184 0.881926
1.00034 1.00422 0.989936
1.00019 1.00437 0.989989
1.00009 1.00407 0.990546
1.00039 1.0036 0.990483
1.0002 1.00368 0.99083
1.00043 1.00287 0.991406
0.997447 0.997809 0.995363
0.998274 0.997389 1.00012
0.99997 1.00485 0.989988
1.00008 1.0032 0.992116
0.999728 1.00498 0.990743
0.999991 1.00485 0.989872
0.999374 1.0049 0.990848
0.996085 0.998097 0.995042
0.9984 1.00498 0.992842
0.995765 1.00073 1.00176
0.999688 1.00446 0.990863
0.995159 0.997828 0.994936
0.996262 1.00217 0.998371
0.998447 1.00523 0.993035
0.994696 0.994754 0.930539
0.994684 0.994801 0.927065
0.994803 0.996648 0.909223
0.996236 1.00477 0.997253
0.995017 1.00122 0.993695
0.994697 0.99475 0.920634
0.994849 0.999214 0.952436
0.994935 0.999967 0.903592
0.99475 0.994714 0.91323
0.99482 0.996711 0.875473
0.995182 1.00403 0.999175
0.994712 0.994761 0.926669
0.994746 0.995819 0.907196
0.994944 0.999486 0.980345
0.9948 0.997906 0.870336
0.994816 0.99996 0.909079
0.994947 1.00041 0.952359
0.995045 1.00471 0.995951
0.994684 0.994738 0.921955
0.994981 0.998656 0.893375
0.994647 0.997523 0.877785
0.996018 0.999227 0.900502
0.995938 0.999967 0.950654
0.99509 1.00031 0.974262
0.995955 1.00513 0.997354
0.995186 1.00399 0.999754
0.996476 1.00357 0.998473
0.998667 1.00412 0.993327
0.995753 1.00389 0.997944
0.996701 1.00394 0.996577
0.999719 1.00253 0.99335
1.00005 1.00253 0.993101
1.00073 1.00346 0.990643
1.00159 1.00446 0.987484
1.00084 1.00206 0.990739
1.00267 1.00307 0.987009
1.00397 1.00376 0.983926
1.00499 1.00159 0.984159
1.00378 1.00211 0.98561
1.00417 1.00234 0.98484
1.00301 1.0039 0.985412
1.0025 1.00335 0.987514
1.0027 1.00307 0.987171
1.00028 1.00481 0.988977
1.00091 1.00455 0.988542
1.00202 1.004 0.987246
0.999912 1.00416 0.990663
1 1.00472 0.990132
1.00025 1.00502 0.989484
1.00015 1.00129 0.993177
1.00005 1.00295 0.991746
0.999768 1.00422 0.990884
1.00008 1.00243 0.99226
1.00019 1.00088 0.993547
0.999971 0.998623 0.996134
1.00022 1.0006 0.99378
1.00006 0.998394 0.996213
0.999789 0.997167 0.999159
1.00013 0.998249 0.996228
0.999886 0.997036 0.998593
0.999919 0.996981 0.999156
1.00034 1.00254 0.991652
1.00029 1.00087 0.993378
1.00032 1.0023 0.991845
1.00017 0.998215 0.9962
1.00021 1.00063 0.993632
1.00026 1.00211 0.992287
1.00001 0.99672 0.999196
1.00016 0.998007 0.99643
1.00016 1.00035 0.993883
1.00003 0.996568 0.999246
1.00014 0.997853 0.996616
1.00004 0.996474 0.99928
0.994694 0.994745 0.924766
0.994696 0.994768 0.921422
0.994794 0.996385 0.90517
1.0003 1.00346 0.990687
1.0004 1.00368 0.990488
1.00037 1.00312 0.991076
1.00038 1.00328 0.990762
1.00033 1.00363 0.990565
1.00028 1.00377 0.990494
1.0004 1.00375 0.990297
0.994757 0.994712 0.901597
0.994725 0.994755 0.908934
0.994695 0.995067 0.907059
0.994794 0.994826 0.886225
0.99489 0.996709 0.967435
0.995212 0.999959 0.944954
0.994853 0.999907 0.915964
0.994862 0.997635 0.965298
0.994897 0.999964 0.94406
0.994944 1 0.914018
0.9948 0.995099 0.888035
0.995244 0.996394 0.969302
0.994917 1.00028 0.943804
0.994785 0.999871 0.903324
0.994793 0.998529 0.874785
0.999683 1.00492 0.990478
1.00025 1.00431 0.989963
1.00023 1.00452 0.989926
1.0005 1.00346 0.990459
0.995892 0.997855 0.995437
0.995754 1.00176 1.00093
0.999987 1.00494 0.98978
0.999324 1.00496 0.990959
0.998734 1.00503 0.993512
0.999645 1.00464 0.990813
0.998159 1.00523 0.993035
0.995027 0.999132 0.992145
0.995667 1.00337 0.998708
0.997796 1.00502 0.993608
0.995141 0.998549 0.990652
0.997393 1.00419 0.997234
0.994667 0.994823 0.925868
0.994677 0.994714 0.933439
0.994686 0.994787 0.928351
0.995036 1.00371 0.999557
0.99493 0.998245 0.984684
0.9947 0.994794 0.928274
0.996155 1.00055 0.943239
0.994847 0.999909 0.915087
0.994681 0.995367 0.907257
0.994811 0.998415 0.873613
0.994977 1.00326 0.996618
0.994697 0.994765 0.921829
0.995074 0.997871 0.893115
0.994908 1.00059 0.975307
0.994667 0.997411 0.86784
0.997166 0.999891 0.904176
0.994897 0.99994 0.943391
0.995457 1.00468 0.990671
0.994794 0.994859 0.906064
0.994817 0.996798 0.879167
0.998684 0.998196 0.908906
0.995276 0.999959 0.950548
0.994881 1.00002 0.96815
0.995366 1.00312 0.999891
0.995791 1.00409 0.998417
0.997477 1.00156 0.997042
0.995843 1.0044 0.997081
0.998491 1.00283 0.993909
1.00293 1.00055 0.989936
1.00187 1.00307 0.990228
1.00199 1.00434 0.987375
1.0029 1.00432 0.984667
1.003 1.0032 0.986527
1.00435 1.00377 0.983435
1.00444 1.00396 0.982725
1.005 1.00108 0.984679
1.00509 1.00134 0.984421
1.00491 1.00175 0.984115
1.00344 1.00208 0.9861
1.00382 1.00205 0.985819
1.00415 1.00259 0.984613
1.00187 1.00424 0.987428
1.00235 1.00332 0.987482
1.00239 1.0029 0.987457
1.00018 1.00497 0.989324
1.00032 1.00483 0.989189
1.00107 1.00452 0.988706
1.00006 1.00215 0.992429
1.00007 1.00398 0.990677
1.00014 1.00468 0.990146
0.999883 0.998869 0.996025
1.00017 1.0013 0.99316
1.00012 1.00291 0.991734
1.0002 1.00087 0.993543
0.99997 0.998639 0.996124
0.999699 0.997377 0.999142
1.00007 0.998387 0.996207
0.999781 0.997205 0.999155
0.999852 0.997066 0.999161
1.00033 1.00351 0.990694
1.00042 1.00273 0.991366
1.00033 1.00118 0.992992
1.00035 1.00254 0.99164
1.00016 0.998467 0.995965
1.00028 1.00089 0.993378
1.00029 1.00236 0.991902
0.999985 0.996881 0.999146
1.00016 0.998212 0.996214
1.00021 1.00063 0.993714
1.00001 0.996685 0.999208
1.00016 0.997994 0.996443
1.00003 0.996538 0.999257
0.994704 0.994743 0.920597
0.994714 0.994763 0.926371
0.994698 0.994805 0.92126
1.00038 1.00341 0.990716
1.00029 1.00376 0.990481
1.00016 1.00375 0.990507
1.00017 1.00389 0.990407
1.00034 1.00416 0.990254
1.00036 1.00335 0.990747
1.00027 1.00373 0.990529
1.00033 1.00373 0.990493
1.00037 1.00389 0.990372
1.00012 1.00431 0.990439
0.99507 0.998212 0.892354
0.994783 0.99497 0.901698
0.99477 0.994753 0.912921
0.994844 0.994945 0.888321
0.994941 0.999989 0.903934
0.99487 0.998533 0.96386
0.994905 0.999994 0.951844
0.994898 0.996762 0.966113
0.994943 0.999914 0.952343
0.994844 0.999971 0.910666
0.994925 0.998299 0.872441
0.995018 0.994948 0.970965
0.994934 1.00002 0.952522
0.995598 0.999887 0.914615
0.994736 0.99741 0.87641
0.998794 1.00377 0.992751
0.999795 1.00487 0.990422
1.00024 1.00432 0.989991
0.994903 1.00001 0.989235
0.995402 1.00407 0.999034
0.999634 1.00465 0.990762
0.997545 1.00522 0.993036
0.997961 1.00473 0.993626
0.99658 1.00373 0.997269
0.994941 0.998811 0.990799
0.996186 1.00215 0.998296
0.996022 0.999924 0.991206
0.994979 0.996071 0.908577
0.994685 0.994813 0.927134
0.994682 0.994661 0.936343
0.99502 1.00174 0.996934
0.994876 1.00105 0.971714
0.994705 0.994801 0.92168
0.996199 0.999978 0.94949
0.995152 0.999899 0.915033
0.995238 0.997145 0.892861
0.994692 0.997486 0.857723
0.995308 1.00501 0.991126
0.994786 0.995374 0.905915
0.994959 0.996845 0.876551
0.994892 1.00001 0.969164
0.998499 0.999304 0.90958
0.996082 0.99995 0.946275
0.995067 1.00385 0.988134
0.994712 0.994868 0.886992
0.999547 0.997932 0.91396
0.997731 0.998774 0.942805
0.994879 0.997263 0.9709
0.99529 1.00486 0.99835
0.99756 1.00195 0.996936
1.00227 1.00081 0.991752
0.99734 1.00315 0.994386
1.00188 1.0008 0.990244
1.00395 0.999422 0.988122
1.00234 1.00418 0.987264
1.00301 1.00413 0.984742
1.00443 1.00159 0.984863
1.00471 1.00376 0.982945
1.00446 1.0036 0.982807
1.00485 1.00085 0.985039
1.00515 0.999293 0.986094
1.00512 1.00086 0.984645
1.00495 1.001 0.98476
1.00497 1.00153 0.98454
1.00506 1.00138 0.984391
1.00485 1.00189 0.984071
1.00303 1.00318 0.986263
1.00342 1.00211 0.986308
1.00387 1.00203 0.986028
1.00117 1.0044 0.988211
1.00168 1.00422 0.987568
1.00221 1.00331 0.987449
0.999969 1.00365 0.991035
1.00033 1.00486 0.989342
1.00038 1.00486 0.989401
0.999791 0.999324 0.996328
1.00012 1.00215 0.992392
1.00021 1.00382 0.990692
0.999624 0.997625 0.997922
0.999879 0.998942 0.996282
1.00019 1.0013 0.993144
0.999967 0.998661 0.996113
0.999694 0.997423 0.999134
0.999772 0.997237 0.999151
1.00024 1.00383 0.990496
1.00043 1.003 0.991096
1.00026 1.0036 0.990662
1.00035 1.00148 0.99266
1.00037 1.0028 0.991357
1.00012 0.998754 0.995734
1.00032 1.00118 0.992994
1.00039 1.00251 0.991628
0.999949 0.997089 0.999092
1.00015 0.998451 0.99598
1.00027 1.00089 0.993378
0.999988 0.996859 0.999161
1.00016 0.998203 0.996229
1.00002 0.996662 0.99922
0.99544 0.994843 0.909838
0.994669 0.994738 0.920475
0.994693 0.994784 0.927993
1.00054 1.00316 0.990629
1.00036 1.00346 0.990744
1.00019 1.00384 0.990473
1.00026 1.00392 0.990422
1.00035 1.00367 0.990549
1.00028 1.00398 0.990425
1.00046 1.00423 0.989788
0.999847 1.00458 0.990079
1.0004 1.00363 0.990492
1.00009 1.00404 0.990447
0.999976 1.00435 0.99041
0.999462 1.00465 0.991714
0.995303 0.996916 0.87857
0.995395 0.998297 0.891934
0.994722 0.995305 0.901782
0.995068 0.998 0.878586
0.994848 0.999951 0.91047
0.994945 1.00024 0.943827
0.995289 0.996917 0.964217
0.995011 0.995022 0.972575
0.994708 0.997504 0.866727
0.994902 0.999901 0.947871
0.997122 0.999896 0.904488
0.994875 0.996256 0.973136
0.995432 0.999976 0.952579
0.999266 0.99832 0.905652
0.99906 1.00188 0.994873
0.998967 1.00388 0.992702
0.999698 1.00484 0.990368
0.99483 0.999223 0.991028
0.99587 1.00325 0.997296
0.997995 1.00451 0.993643
0.997418 1.00197 0.998118
0.995523 0.999783 0.99131
0.997004 0.999054 0.993863
0.994755 0.997788 0.888348
0.994911 0.995552 0.912345
0.994681 0.994802 0.928399
0.994982 1.0051 0.991426
0.994861 0.999996 0.969339
0.994778 0.996016 0.905854
0.995173 0.999984 0.944237
0.998541 0.998031 0.899417
0.995063 0.996749 0.881072
0.995523 1.00411 0.988096
0.994712 0.995461 0.892055
0.999823 0.996775 0.904976
0.99492 0.997487 0.96696
0.997469 0.998922 0.950858
0.997248 1.00112 0.991694
0.999843 0.995751 0.904737
1.00003 0.997988 0.951003
0.994875 0.995878 0.966507
0.997686 1.00223 0.996939
1.00163 0.999849 0.992166
1.00355 1.00001 0.989318
1.00076 1.00108 0.990556
1.00339 0.999955 0.988106
1.00458 0.998316 0.987809
1.00309 1.00396 0.984815
1.00428 1.00161 0.984829
1.00501 0.998077 0.987148
1.00449 1.00326 0.982887
1.00481 1.00065 0.985082
1.00507 0.997604 0.987756
1.00515 0.997608 0.987778
1.00519 0.999625 0.985712
1.00513 0.999162 0.98621
1.00512 1.00091 0.98464
1.00508 1.00083 0.984722
1.0049 1.00092 0.984842
1.00444 1.0016 0.985268
1.00477 1.00149 0.984691
1.005 1.00134 0.984359
1.00241 1.00359 0.986979
1.0031 1.00312 0.986255
1.0034 1.00208 0.986516
1.00048 1.00429 0.989585
1.00125 1.00443 0.988194
1.00147 1.00418 0.987709
0.99971 1.00013 0.99499
1.00014 1.00349 0.99103
1.0005 1.00474 0.989359
0.999532 0.99786 0.999087
0.999772 0.99942 0.995685
1.00018 1.00213 0.992356
0.999624 0.997625 0.99911
0.999856 0.998999 0.995974
0.999691 0.997475 0.999126
1.00064 1.00346 0.990291
1.00029 1.00382 0.990463
1.00042 1.00334 0.990768
1.00032 1.0018 0.992386
1.00037 1.00305 0.991092
1.00025 1.00362 0.990631
1.00009 0.999031 0.995523
1.00034 1.00149 0.992662
1.00033 1.00286 0.991349
0.999904 0.997309 0.999035
1.00013 0.998726 0.995747
1.00032 1.00119 0.992996
0.999952 0.997048 0.999108
1.00015 0.998438 0.995995
0.99999 0.996813 0.999176
0.995343 0.99628 0.87931
0.995284 0.994835 0.909715
0.994707 0.994733 0.920354
1.00038 1.00338 0.990587
1.00118 1.00296 0.99036
1.00045 1.00372 0.99026
1.0003 1.00399 0.990438
1.00053 1.00357 0.99059
1.0001 1.00388 0.990596
1.00005 1.00454 0.99006
1.00037 1.00425 0.989843
1.0003 1.00475 0.989508
0.999859 1.00098 0.993616
1.00015 1.00427 0.990382
0.999536 1.0044 0.991426
0.999807 0.997386 0.900541
0.995191 0.997072 0.873399
0.995637 0.998465 0.891566
0.994696 0.997672 0.856823
0.996754 0.998949 0.914578
0.994877 0.999987 0.946121
0.994987 0.994981 0.970313
0.994944 0.996317 0.97177
0.998495 0.999425 0.90835
0.996118 0.999971 0.944612
0.994897 0.997674 0.972862
0.998707 0.998893 0.942869
1.00202 0.99809 0.993684
0.999124 1.00187 0.994677
0.999145 1.00403 0.992667
0.995027 0.999815 0.991373
0.998461 1.00181 0.997929
0.997645 0.999168 0.993303
0.99934 0.998718 0.990445
0.999897 0.994843 0.9127
0.994846 0.996938 0.88883
0.994791 0.994881 0.916023
0.995862 1.00444 0.988216
0.994892 0.997494 0.964908
0.994715 0.995914 0.892243
0.998801 0.998652 0.941745
0.999817 0.997332 0.914822
0.997055 1.00029 0.989611
0.999882 0.995417 0.910516
1.00142 0.997424 0.941255
0.994904 0.995825 0.97004
0.998676 0.996605 0.992
1.00004 0.996016 0.951512
0.996376 0.995957 0.972345
1.00107 0.998653 0.992529
1.00336 0.998981 0.989277
1.00488 0.997523 0.989223
1.00278 1.00042 0.988095
1.00432 0.99848 0.987812
1.00485 0.996679 0.988866
1.0042 1.00163 0.984796
1.00491 0.998345 0.987072
1.00509 0.995897 0.989259
1.00478 1.00049 0.985124
1.00507 0.997598 0.987752
1.00512 0.996018 0.989381
1.00513 0.996674 0.988981
1.00516 0.99743 0.987985
1.00516 0.998341 0.987217
1.00516 1.00004 0.985546
1.00519 0.999681 0.985744
1.00513 0.999032 0.986328
1.0051 1.00071 0.984971
1.00511 1.00091 0.98465
1.00507 1.00079 0.984799
1.00371 1.00239 0.985932
1.0044 1.0017 0.985256
1.0046 1.00153 0.984841
1.00132 1.00379 0.988601
1.00247 1.00356 0.986962
1.00314 1.00306 0.986246
0.999869 1.001 0.993821
1.0006 1.00409 0.989594
1.00138 1.0044 0.988178
0.999569 0.998166 0.998945
0.999729 1.00024 0.994937
1.00028 1.00336 0.991026
0.99957 0.997889 0.998445
0.999757 0.999514 0.995657
0.999635 0.997684 0.999094
1.00086 1.00294 0.990418
1.00042 1.00359 0.990355
1.00036 1.00368 0.990424
1.00037 1.0038 0.99043
1.00034 1.0034 0.990767
1.00029 1.00217 0.992087
1.00003 0.999312 0.995355
1.00032 1.0018 0.992391
1.00029 1.00314 0.991088
0.999851 0.997521 0.998981
1.00008 0.999013 0.995533
1.00033 1.00151 0.992664
0.999907 0.997268 0.999052
1.00013 0.998704 0.99576
0.999955 0.997019 0.999124
0.999834 0.995199 0.911436
0.99538 0.996328 0.881735
0.995212 0.994827 0.909581
1.00025 1.00359 0.990544
1.00039 1.00406 0.989947
1.00087 1.00295 0.990638
1.00218 1.0035 0.987801
1.00048 1.00409 0.990024
1.00019 1.00452 0.990042
1.00036 1.00422 0.989898
1.00013 1.00462 0.989792
1.00066 1.00347 0.989011
1.001 0.999916 0.993115
1.0042 0.997767 0.989456
0.999976 1.00084 0.993752
0.999845 1.00381 0.991134
0.998934 0.997574 0.950783
0.999778 0.99786 0.904813
0.995177 0.996851 0.875136
0.999133 0.999664 0.897567
0.995783 0.999951 0.950028
0.99488 0.996245 0.973103
0.994869 0.997683 0.974767
0.997425 0.998688 0.952634
0.995925 0.997972 0.97398
1.00287 0.996101 0.993448
1.00134 0.998721 0.99379
0.999205 1.00195 0.994472
0.998409 0.999053 0.99282
1.00017 0.998833 0.989418
0.999997 0.994895 0.946882
0.999884 0.994873 0.916205
0.99497 0.996254 0.889416
0.996714 0.999838 0.987457
0.994959 0.995646 0.966784
0.999862 0.995752 0.91147
1.00023 0.998177 0.950242
0.997931 0.997797 0.992359
1.00129 0.996065 0.950163
0.99667 0.995299 0.969218
1.0014 0.996246 0.990935
0.99919 0.995785 0.977954
1.0032 0.998124 0.989292
1.0048 0.996718 0.989167
1.00496 0.995917 0.99019
1.00408 0.99866 0.987812
1.00473 0.996806 0.988796
1.00514 0.995202 0.989976
1.00479 0.998595 0.986997
1.00509 0.995982 0.989224
1.00506 0.99503 0.990312
1.00507 0.997595 0.987748
1.00512 0.99603 0.98934
1.00514 0.995678 0.989932
1.00513 0.996437 0.98913
1.00514 0.997326 0.988337
1.00517 0.99725 0.988194
1.00517 0.998355 0.987192
1.0052 0.999151 0.9864
1.00515 1.00028 0.985365
1.00517 1.00007 0.985522
1.00519 0.999735 0.985777
1.00463 1.00089 0.985671
1.00506 1.00077 0.98496
1.00511 1.00091 0.98466
1.00227 1.0029 0.987822
1.00367 1.0024 0.985932
1.0044 1.00179 0.985245
1.00023 1.00147 0.992713
1.00139 1.00372 0.988585
1.00244 1.00361 0.986946
0.999674 0.998679 0.998668
0.999933 1.00102 0.993793
1.00076 1.00391 0.989603
0.999628 0.998271 0.99886
0.999759 1.00033 0.994883
0.999626 0.997923 0.999005
1.00204 1.00356 0.987694
1.0009 1.00283 0.990396
1.00047 1.00366 0.990109
1.00023 1.00366 0.990419
1.00031 1.00373 0.990391
1.00028 1.0026 0.991644
1.00029 1.00344 0.990767
1.00027 1.00216 0.992094
0.999942 0.999619 0.995198
0.999785 0.997742 0.998937
1.00002 0.999288 0.995363
1.00031 1.00179 0.992395
0.999854 0.997498 0.998998
1.00008 0.999 0.995543
0.999911 0.997224 0.999069
1.00019 0.99528 0.95443
0.999847 0.995269 0.910575
0.995297 0.996711 0.878494
1.00033 1.00448 0.989634
1.00061 1.00289 0.990917
1.00062 1.00402 0.99001
1.00199 1.00351 0.987939
1.00384 1.00258 0.985479
1.00095 1.00357 0.989043
0.99995 1.0046 0.990074
1.00137 1.0035 0.988307
1.00071 1.00023 0.99315
1.00272 1.0002 0.989037
1.00461 0.996591 0.990666
1.00429 0.996702 0.99025
1.00373 0.997579 0.990151
0.999689 1.00108 0.993892
0.995988 0.996207 0.97347
1.00017 0.997205 0.94829
0.99823 0.997705 0.91442
0.997949 0.99938 0.942787
0.994865 0.99805 0.975678
0.996014 0.997981 0.978572
0.999853 0.998063 0.992211
1.00313 0.995798 0.993406
1.00096 0.999207 0.993895
1.00174 0.998982 0.988345
0.996616 0.99749 0.97412
1.00031 0.995114 0.955939
0.999869 0.99485 0.90683
0.997243 0.998811 0.992586
0.996759 0.994865 0.971364
1.00022 0.996634 0.948554
1.00099 0.996366 0.991057
0.998631 0.995731 0.97725
1.00372 0.995703 0.99112
1.00292 0.998128 0.987813
1.00471 0.995969 0.989084
1.00486 0.995732 0.990186
1.00515 0.994876 0.990554
1.00463 0.996939 0.988726
1.00514 0.995169 0.989931
1.00508 0.994951 0.990509
1.00509 0.996055 0.989189
1.00506 0.99515 0.990281
1.00513 0.995196 0.990367
1.00512 0.996046 0.989299
1.00513 0.995647 0.98984
1.00513 0.996401 0.989112
1.00513 0.996209 0.989277
1.00514 0.997182 0.988495
1.00519 0.998494 0.987138
1.00517 0.99837 0.987167
1.0052 0.999211 0.986371
1.0052 0.999758 0.985934
1.00487 1.00024 0.98574
1.00515 1.00032 0.985358
1.00517 1.0001 0.985498
1.0033 1.0015 0.98745
1.0046 1.00095 0.985675
1.005 1.00083 0.984948
1.00057 1.00172 0.991849
1.00227 1.00292 0.987826
1.00363 1.00241 0.985932
0.999847 0.999219 0.998313
1.00031 1.00143 0.992702
1.00147 1.00365 0.988568
0.999766 0.998798 0.998536
0.999986 1.00105 0.993765
0.999704 0.998358 0.998754
1.00344 1.003 0.985765
1.00213 1.00358 0.987726
1.00132 1.00389 0.988475
1.00088 1.0028 0.990374
1.00055 1.00363 0.990008
1.00049 1.00293 0.991004
1.00025 1.00379 0.990358
1.00026 1.00262 0.991648
0.999864 1 0.994953
1.00026 1.00215 0.992102
0.999944 0.999578 0.995211
0.999716 0.997973 0.998893
0.99979 0.997714 0.998951
1.00002 0.999265 0.995372
0.999855 0.997456 0.999014
0.996735 0.994984 0.975107
1.00044 0.995397 0.945712
0.999831 0.99521 0.91724
1.00503 1.00091 0.984823
1.00075 1.00389 0.989995
1.00183 1.00353 0.988081
1.00131 1.00354 0.988769
1.00376 1.00261 0.98549
1.00316 1.00083 0.987769
1.00206 1.00355 0.987608
1.00041 1.00049 0.993193
1.00317 1.00003 0.988969
1.00455 0.996273 0.990461
1.00482 0.996789 0.988779
1.0042 0.99574 0.991574
1.00419 0.996366 0.990124
1.0032 0.997315 0.990847
1.00002 0.99716 0.992862
0.9959 0.996016 0.971791
0.999636 0.996618 0.946433
0.995885 0.997429 0.976879
1.00008 0.997074 0.99428
1.00281 0.995499 0.993349
1.0008 0.997309 0.987466
0.996465 0.996206 0.975738
1.00002 0.994912 0.946952
1.00035 0.996825 0.991235
0.998521 0.996133 0.976068
1.00337 0.995509 0.99143
1.00288 0.997671 0.9882
1.00453 0.994912 0.991235
1.00448 0.997471 0.990715
1.00478 0.995541 0.990183
1.00515 0.994876 0.99043
1.00516 0.994881 0.990407
1.00514 0.995147 0.989886
1.00508 0.994951 0.990497
1.00514 0.99503 0.99044
1.00506 0.995264 0.99025
1.00512 0.995174 0.990324
1.00514 0.995924 0.989592
1.00513 0.99561 0.989749
1.00514 0.996414 0.989106
1.00519 0.997692 0.987864
1.00514 0.997035 0.988653
1.00519 0.998365 0.987305
1.00522 0.999401 0.986195
1.00519 0.999269 0.986343
1.0052 0.99977 0.985888
1.00496 1.00006 0.98592
1.00379 1.00055 0.987509
1.00487 1.00031 0.985772
1.00514 1.00036 0.985351
1.00109 1.00135 0.991361
1.00323 1.00156 0.987459
1.00458 1.00101 0.98568
0.999957 0.999706 0.998011
1.00075 1.00153 0.99183
1.00227 1.00292 0.987831
0.99992 0.999314 0.998198
1.00043 1.00135 0.992689
0.999857 0.998899 0.998406
1.00466 1.00128 0.985109
1.00342 1.00301 0.985769
1.00257 1.00351 0.986794
1.00222 1.0036 0.987758
1.00138 1.00388 0.988482
1.00078 1.00348 0.990002
1.00065 1.00358 0.989906
1.00035 1.0031 0.991005
0.999834 1.0005 0.99451
1.00021 1.00266 0.991652
0.999862 0.999952 0.994973
0.999663 0.998244 0.998816
0.999946 0.999541 0.995223
0.999719 0.997936 0.998909
0.999794 0.997691 0.998964
1.00096 0.995265 0.991367
0.996846 0.994946 0.971518
0.999996 0.995043 0.955113
1.00428 1.00017 0.986232
1.00512 0.999579 0.986079
1.00498 1.00077 0.984915
1.00166 1.00351 0.988492
1.00366 1.00266 0.985497
1.00358 1.00069 0.98762
1.00507 0.997567 0.987868
1.00363 0.999849 0.988896
1.00447 0.995995 0.990246
1.00486 0.996824 0.989011
1.005 0.995984 0.989472
1.00424 0.995422 0.991528
1.00403 0.995891 0.991395
1.00434 0.996143 0.98999
1.0002 0.997198 0.992999
0.995951 0.996048 0.969932
1.00041 0.99673 0.996416
1.00412 0.995709 0.992078
1.00058 0.997635 0.987637
0.996463 0.995681 0.973435
1.00333 0.994881 0.99171
1.00283 0.997737 0.988617
1.00459 0.99506 0.991524
1.00455 0.996723 0.990648
1.00519 0.99494 0.990366
1.00524 0.995025 0.99056
1.00516 0.994879 0.990306
1.00516 0.994898 0.990393
1.00516 0.994957 0.990377
1.00507 0.994949 0.990484
1.00514 0.994996 0.990414
1.00516 0.995486 0.990039
1.00511 0.99515 0.990281
1.00515 0.995939 0.989584
1.00518 0.997165 0.988411
1.00514 0.996428 0.9891
1.00519 0.997708 0.98787
1.00524 0.999042 0.986492
1.00519 0.998235 0.987471
1.00522 0.999348 0.986258
1.00504 0.999902 0.985945
1.00519 0.999784 0.985842
1.00496 1.00005 0.985915
1.00396 1.00023 0.987528
1.00138 1.00078 0.99137
1.00377 1.00058 0.9875
1.00487 1.00038 0.985804
1.00004 1.00011 0.997773
1.00114 1.00128 0.991359
1.00316 1.00165 0.987467
1.00002 0.999818 0.997909
1.00086 1.00142 0.991818
0.999989 0.999423 0.998085
1.00508 1.00032 0.985428
1.00472 1.00121 0.985072
1.00391 1.00198 0.985831
1.0034 1.00301 0.985772
1.00253 1.00356 0.986798
1.00142 1.00363 0.988693
1.00143 1.00387 0.988489
1.00064 1.00361 0.990028
0.999986 1.00109 0.99371
1.00025 1.00324 0.991008
0.999821 1.00046 0.994531
0.999646 0.998619 0.998664
0.999862 0.999903 0.994993
0.999655 0.998194 0.998848
0.999723 0.997906 0.998924
1.00413 0.994895 0.992447
1.001 0.995152 0.989777
0.99659 0.994883 0.971355
1.00509 0.99862 0.987093
1.00472 0.999826 0.986084
1.00519 0.998359 0.987191
1.00513 0.999538 0.986112
1.00494 1.00061 0.985009
1.00512 0.996786 0.988505
1.00403 1.00053 0.987473
1.00506 0.997746 0.987777
1.00515 0.995422 0.989771
1.0049 0.996849 0.989248
1.00496 0.996049 0.989374
1.00423 0.99554 0.991641
1.00365 0.995927 0.991206
1.00034 0.997179 0.993071
1.00518 0.994899 0.990412
1.00413 0.996259 0.992115
1.00041 0.997599 0.987788
1.00462 0.995199 0.99181
1.00458 0.995892 0.990589
1.00519 0.994919 0.99041
1.00523 0.994989 0.990471
1.0052 0.994935 0.990559
1.00516 0.994913 0.99038
1.00516 0.994951 0.9904
1.00519 0.995098 0.990393
1.00513 0.994974 0.990389
1.00516 0.995487 0.989981
1.00517 0.996794 0.988773
1.00516 0.995953 0.989576
1.00518 0.997187 0.988412
1.00525 0.998699 0.986848
1.00519 0.997724 0.987876
1.00524 0.99904 0.986513
1.00511 0.999793 0.98596
1.00521 0.999293 0.986321
1.00504 0.999908 0.98596
1.0041 1.00011 0.987429
1.00495 1.00004 0.98591
1.00396 1.00023 0.98752
1.00144 1.0004 0.992946
1.00025 1.00004 0.995014
1.00143 1.00073 0.992049
1.00374 1.00062 0.987492
1.00009 1.00017 0.997718
1.00126 1.00112 0.991355
1.00008 0.999922 0.997809
1.00523 0.998278 0.987262
1.0052 0.999434 0.986114
1.00511 1.00027 0.985496
1.0047 1.00064 0.985815
1.00478 1.00116 0.985035
1.00396 1.00197 0.985809
1.0025 1.00259 0.987732
1.0025 1.00363 0.986803
1.00134 1.00369 0.988709
1.00037 1.00162 0.992555
1.0005 1.00375 0.990053
0.9999 1.00111 0.993735
0.999681 0.99916 0.998381
0.999809 1.0004 0.99455
0.999618 0.998533 0.998728
0.999653 0.998145 0.998874
1.00517 0.994997 0.990238
1.00447 0.994891 0.992472
1.00129 0.994899 0.988226
1.00512 0.997303 0.988092
1.00511 0.998584 0.986933
1.00513 0.999515 0.985939
1.00518 0.998472 0.987143
1.00514 0.999498 0.986144
1.00517 0.995721 0.989822
1.0051 0.996791 0.988439
1.00504 0.997935 0.987689
1.00513 0.995423 0.989778
1.00497 0.996141 0.989276
1.00427 0.995747 0.991779
1.0052 0.994911 0.990637
1.00519 0.994903 0.990555
1.00417 0.996835 0.992158
1.00519 0.9949 0.990448
1.00523 0.99495 0.990383
1.0052 0.994937 0.990507
1.00518 0.994975 0.990685
1.00516 0.994943 0.990423
1.00518 0.995079 0.990352
1.00518 0.996568 0.989022
1.00516 0.995488 0.989923
1.00518 0.996806 0.98878
1.00524 0.998403 0.987169
1.00518 0.99721 0.988414
1.00525 0.998698 0.986862
1.00516 0.999702 0.985991
1.00524 0.999038 0.986535
1.00511 0.99979 0.985976
1.00418 1.00008 0.987297
1.00505 0.999913 0.985976
1.0041 1.0001 0.987429
1.00157 1.00011 0.99305
1.00396 1.00024 0.987511
1.00159 1.00032 0.992878
1.00022 0.999995 0.995168
1.00007 1.00027 0.996369
1.00159 1.00065 0.992606
1.00009 1.00027 0.997682
1.00517 0.997705 0.987966
1.00525 0.999078 0.986367
1.00523 0.998093 0.987413
1.00495 1 0.986015
1.00521 0.9995 0.986053
1.00514 1.00021 0.985563
1.00472 1.00059 0.985806
1.00344 1.00117 0.987449
1.00401 1.00195 0.985786
1.00254 1.00254 0.987718
1.00083 1.00167 0.9916
1.00125 1.00375 0.988725
1.00019 1.00175 0.992587
0.999779 0.999891 0.997993
0.999805 1.00115 0.993758
0.999623 0.999046 0.998498
0.999604 0.998453 0.998781
1.00519 0.995033 0.990312
1.00517 0.995016 0.990224
1.00468 0.994893 0.992462
1.00516 0.996455 0.989126
1.00511 0.997353 0.988077
1.00512 0.998555 0.986768
1.00516 0.998587 0.987096
1.00516 0.995724 0.989714
1.00508 0.996799 0.988373
1.00513 0.995422 0.989785
1.00518 0.994955 0.990687
1.00519 0.994921 0.990622
1.00518 0.994908 0.990698
1.00516 0.995292 0.990304
1.0052 0.994942 0.990456
1.00517 0.995059 0.990559
1.00519 0.99629 0.989449
1.00516 0.995063 0.990312
1.0052 0.996548 0.989026
1.00522 0.9982 0.987438
1.00519 0.996823 0.988786
1.00524 0.998406 0.987172
1.00517 0.999588 0.986098
1.00524 0.998698 0.986876
1.00515 0.999697 0.986006
1.00426 1.00006 0.987173
1.00511 0.999788 0.985992
1.00419 1.00006 0.987303
1.00167 1.00003 0.992983
1.0041 1.00008 0.987428
1.0017 1.00006 0.992956
1.00027 0.999897 0.995205
1.00174 1.00022 0.992819
0.999951 1.00015 0.995332
0.999672 1.00054 0.997967
1.00517 0.997605 0.987954
1.00522 0.998676 0.986926
1.00517 0.997751 0.987825
1.0051 0.999689 0.98631
1.00525 0.998922 0.986491
1.00524 0.997913 0.987562
1.0039 1.00035 0.987451
1.00496 0.999963 0.985993
1.00523 0.999564 0.98599
1.00474 1.00054 0.985796
1.00347 1.00113 0.987447
1.00121 1.00121 0.991321
1.00257 1.00248 0.987706
1.00072 1.0018 0.991612
0.999851 1.00052 0.997726
1.00004 1.00187 0.992616
0.999686 0.99974 0.998147
0.999582 0.998903 0.998599
1.00517 0.995589 0.989914
1.00519 0.995004 0.990332
1.00518 0.995035 0.990208
1.00516 0.996357 0.989197
1.0051 0.997399 0.988062
1.00515 0.995713 0.989606
1.00517 0.995298 0.990414
1.00518 0.994954 0.990683
1.00519 0.994929 0.990606
1.00517 0.995194 0.990478
1.00519 0.996497 0.989183
1.00517 0.995138 0.990434
1.0052 0.996458 0.989219
1.00519 0.997881 0.987876
1.00522 0.996522 0.989031
1.00522 0.998182 0.987436
1.00517 0.999421 0.986284
1.00524 0.998399 0.987174
1.00517 0.999579 0.986108
1.00431 1.00002 0.987118
1.00515 0.999691 0.98602
1.00426 1.00005 0.987181
1.00174 1.00009 0.992795
1.0042 1.00004 0.987308
1.00178 0.999993 0.992866
1.00035 0.999887 0.995108
1.00181 1.00001 0.992871
1.00003 0.999951 0.995393
0.999697 1.00033 0.995479
1.00517 0.996895 0.988779
1.0052 0.998565 0.987027
1.00517 0.997423 0.988122
1.00515 0.999398 0.986462
1.00522 0.998752 0.986825
1.00518 0.997796 0.987683
1.00415 0.999931 0.987467
1.0051 0.999581 0.986253
1.00526 0.998768 0.986617
1.00141 1.00066 0.991488
1.00392 1.00034 0.987459
1.00497 0.999929 0.98597
1.00351 1.00109 0.987445
1.00115 1.0013 0.991324
0.999871 1.00075 0.997676
1.00059 1.00192 0.991632
0.999798 1.00036 0.997812
0.999609 0.999558 0.998291
1.00516 0.995605 0.989992
1.00517 0.995635 0.989879
1.00518 0.994988 0.990353
1.00516 0.996264 0.989268
1.00516 0.996642 0.989125
1.00518 0.995292 0.990453
1.00519 0.99495 0.990679
1.00518 0.995085 0.990652
1.00518 0.996391 0.989274
1.00521 0.997896 0.987864
1.00521 0.996632 0.988989
1.00519 0.998057 0.987662
1.00515 0.999103 0.986656
1.00522 0.998175 0.987435
1.00516 0.999417 0.986291
1.00433 0.999948 0.987139
1.00516 0.999575 0.986118
1.00431 1.00002 0.987125
1.00182 1.00015 0.991313
1.00427 1.00004 0.987189
1.00184 1.00006 0.992028
1.00029 0.999937 0.997666
1.0019 0.999966 0.992752
1.00013 0.999875 0.995309
0.99981 1 0.995563
1.00516 0.99656 0.989198
1.0052 0.998258 0.987439
1.00517 0.996978 0.988739
1.00516 0.99923 0.986416
1.0052 0.998563 0.987036
1.00517 0.997238 0.98829
1.00426 0.999696 0.987266
1.00515 0.999401 0.986471
1.00521 0.998826 0.986725
1.00158 1.00016 0.991674
1.00414 0.999889 0.987382
1.00509 0.999467 0.986196
0.999936 1.00062 0.997725
1.00139 1.00067 0.991495
1.00393 1.00033 0.987468
1.00108 1.00136 0.991329
0.999872 1.00064 0.997678
0.999704 1.00024 0.997926
1.00514 0.996532 0.989217
1.00515 0.995691 0.989973
1.00517 0.99568 0.989844
1.0052 0.997921 0.987768
1.00515 0.996538 0.989201
1.00519 0.99529 0.990493
1.00517 0.996287 0.989366
1.0052 0.997879 0.987867
1.00516 0.999029 0.986895
1.00519 0.998232 0.987447
1.00515 0.999231 0.986598
1.00434 0.999769 0.987129
1.00516 0.999407 0.986298
1.00433 0.999945 0.987145
1.00184 1.00014 0.99129
1.00431 1.00002 0.987132
1.00183 1.00014 0.991312
1.0003 0.999974 0.997628
1.00187 1.00005 0.991353
1.0002 0.99993 0.996452
0.999917 0.999841 0.995507
1.00515 0.996851 0.988871
1.0052 0.998094 0.987565
1.00515 0.996545 0.989232
1.00517 0.999279 0.986369
1.0052 0.998312 0.987351
1.00517 0.997063 0.988699
1.00433 0.999642 0.987226
1.00516 0.999333 0.986416
1.0052 0.998564 0.987045
1.00173 0.999889 0.991681
1.00426 0.999697 0.987257
1.00515 0.999406 0.98648
1.00008 1.0003 0.997752
1.00159 1.00014 0.99168
1.00414 0.999848 0.987295
0.999942 1.00057 0.9977
1.00137 1.00067 0.991501
0.999834 1.00059 0.997699
1.0052 0.997761 0.987957
1.00514 0.996598 0.989124
1.00515 0.995776 0.989955
1.00515 0.998915 0.987019
1.0052 0.997835 0.987862
1.00515 0.996439 0.989277
1.0052 0.997863 0.987869
1.00516 0.999034 0.986894
1.00432 0.999673 0.987263
1.00514 0.999361 0.98654
1.00434 0.999816 0.987163
1.00187 1.00006 0.991319
1.00433 0.99994 0.987151
1.00184 1.00014 0.991292
1.00029 1.00001 0.997587
1.00182 1.00014 0.99131
1.0003 0.999986 0.997608
1.00028 0.999886 0.995053
1.00521 0.998018 0.987612
1.00515 0.996679 0.98901
1.00517 0.999191 0.986483
1.0052 0.9981 0.987554
1.00515 0.996528 0.989266
1.00434 0.999697 0.987378
1.00516 0.999287 0.986364
1.0052 0.998363 0.987263
1.00183 0.999856 0.99155
1.00432 0.999684 0.987284
1.00516 0.99944 0.986417
1.00024 1.00005 0.997711
1.00174 0.999881 0.991685
1.00426 0.999691 0.987248
1.00006 1.00032 0.997744
1.00159 1.00013 0.991684
0.999937 1.00055 0.99768
1.00514 0.998896 0.987055
1.0052 0.997832 0.987871
1.00515 0.996665 0.989031
1.00427 0.999612 0.987409
1.00515 0.998922 0.98702
1.00521 0.997748 0.987957
1.00516 0.999041 0.986893
1.00434 0.999664 0.987243
1.00185 1.00002 0.991399
1.00434 0.999862 0.987195
1.00185 1.00007 0.991321
1.00032 1.00001 0.997568
1.00184 1.00013 0.991294
1.0003 1.00002 0.997583
1.0003 0.999995 0.997593
1.00516 0.999111 0.986593
1.00521 0.997822 0.987826
1.00515 0.996511 0.98915
1.00432 0.999693 0.987442
1.00516 0.9992 0.986474
1.0052 0.998107 0.987543
1.00185 0.999946 0.991437
1.00433 0.999702 0.987373
1.00516 0.999294 0.98636
1.00033 0.999944 0.997636
1.00183 0.999871 0.991552
1.00432 0.999718 0.987341
1.0002 1.00009 0.99773
1.00174 0.999889 0.99169
1.00006 1.00031 0.997728
1.00423 0.999679 0.987599
1.00513 0.998859 0.987008
1.0052 0.997901 0.987786
1.00181 0.999966 0.991534
1.00429 0.999593 0.987388
1.00515 0.998925 0.98702
1.00435 0.99965 0.987224
1.00185 1 0.991406
1.00032 1.00001 0.997553
1.00184 1.00008 0.991324
1.00032 1.00002 0.997558
1.00029 1.00002 0.997578
1.00426 0.999684 0.987535
1.00514 0.999003 0.986713
1.00521 0.997628 0.988039
1.00192 1.00001 0.992647
1.00431 0.999691 0.987442
1.00515 0.999211 0.986464
1.00033 0.999952 0.997583
1.00186 0.999965 0.991438
1.00432 0.999708 0.987367
1.0003 0.999976 0.997666
1.00183 0.999895 0.991555
1.00018 1.0001 0.997743
1.00183 0.999965 0.991526
1.00424 0.999628 0.987531
1.00512 0.998823 0.986961
1.00028 0.999998 0.997582
1.00179 0.999964 0.991536
1.0043 0.999578 0.987368
1.00184 0.999991 0.991409
1.00031 1.00001 0.997559
1.00032 1.00003 0.997554
1.00194 0.999987 0.99267
1.00427 0.999683 0.987534
1.00513 0.998892 0.986832
0.999976 0.99999 0.997924
1.00183 1.00001 0.991439
1.0043 0.999688 0.987442
1.00033 0.999963 0.997608
1.00185 0.999986 0.991439
1.00028 0.999996 0.997692
1.00025 0.999991 0.995079
1.00185 0.999964 0.992146
1.00425 0.99958 0.987462
1.00029 0.999997 0.997588
1.0018 0.999963 0.991543
1.00032 1 0.997561
0.999902 1 0.995411
1.00187 0.999984 0.992098
1.00426 0.999684 0.987534
1.00013 0.999989 0.996471
1.00183 1.00001 0.991449
1.00032 0.999974 0.997633
1.00026 0.999992 0.9976
1.00176 0.999964 0.991599
1.00026 0.999995 0.997593
1.00009 0.999991 0.996512
1.0018 0.999985 0.991543
1.00031 0.999978 0.997597
1.00026 0.999988 0.997611
1.00026 0.999985 0.997602

TENSORS stress float
0.00169275 -9.07274e-05 0.000173424
-9.07274e-05 0.000655187 -2.33789e-05
0.000173424 -2.33789e-05 0.000634062
0.00534558 -0.000119346 0.000164601
-0.000119346 0.00283905 1.78061e-05
0.000164601 1.78061e-05 0.00281534
0.00149233 -2.05744e-05 8.12214e-05
-2.05744e-05 0.00054511 -9.00847e-06
8.12214e-05 -9.00847e-06 0.00051474
0.00183209 -5.49841e-05 0.000174665
-5.49841e-05 0.000711726 -1.4926e-05
0.000174665 -1.4926e-05 0.000693778
0.00176129 -8.18808e-05 0.000170395
-8.18808e-05 0.000686741 -2.1223e-05
0.000170395 -2.1223e-05 0.000666937
0.00164446 -8.70002e-05 0.000178561
-8.70002e-05 0.000624061 -2.30479e-05
0.000178561 -2.30479e-05 0.00060456
0.0014579 -6.39356e-05 2.62327e-05
-6.39356e-05 0.000445735 -9.23705e-06
2.62327e-05 -9.23705e-06 0.000364843
0.00524154 -0.000115359 -3.14993e-06
-0.000115359 0.00276289 1.44944e-07
-3.14993e-06 1.44944e-07 0.00274777
0.00534263 4.87462e-05 7.44651e-05
4.87462e-05 0.00278403 4.24921e-06
7.44651e-05 4.24921e-06 0.00277065
0.00508721 -0.000224995 1.17288e-05
-0.000224995 0.00268471 3.31643e-06
1.17288e-05 3.31643e-06 0.00264699
0.00170112 7.40115e-05 0.000171506
7.40115e-05 0.000656897 1.58143e-05
0.000171506 1.58143e-05 0.000646671
0.00064504 0.000177366 2.18568e-05
0.000177366 -1.72685e-05 1.35472e-05
2.18568e-05 1.35472e-05 -0.000106531
0.00164614 -3.20742e-05 0.000185403
-3.20742e-05 0.000597402 2.33041e-06
0.000185403 2.33041e-06 0.000587725
0.0012748 -1.36202e-05 3.16746e-05
-1.36202e-05 0.000400733 1.08229e-06
3.16746e-05 1.08229e-06 0.000364183
0.00135819 -9.18735e-06 -2.70831e-05
-9.18735e-06 0.000467193 5.05638e-06
-2.70831e-05 5.05638e-06 0.00043222
0.00154957 -5.88329e-05 6.23856e-05
-5.88329e-05 0.000558359 -3.55504e-06
6.23856e-05 -3.55504e-06 0.000530902
0.00150189 -1.72419e-06 8.79632e-05
-1.72419e-06 0.000557054 -8.45174e-06
8.79632e-05 -8.45174e-06 0.000522261
0.00151499 -3.78253e-05 7.25541e-05
-3.78253e-05 0.000545863 -8.09686e-06
7.25541e-05 -8.09686e-06 0.000519903
0.00152792 -0.000106143 -3.02942e-05
-0.000106143 0.000477087 2.88899e-06
-3.02942e-05 2.88899e-06 0.00040484
0.0054175 -0.000108927 0.000218263
-0.000108927 0.00283505 -6.26279e-06
0.000218263 -6.26279e-06 0.00283771
0.00181221 -3.76814e-05 0.000177419
-3.76814e-05 0.000697253 -1.1179e-05
0.000177419 -1.1179e-05 0.00068
0.00182295 -7.04791e-05 0.000171905
-7.04791e-05 0.000712907 -1.83369e-05
0.000171905 -1.83369e-05 0.00069449
0.00150793 -9.98106e-05 4.72494e-05
-9.98106e-05 0.000442641 -7.16581e-06
4.72494e-05 -7.16581e-06 0.000369431
0.00148455 -8.03102e-05 3.526e-05
-8.03102e-05 0.000441855 -8.39963e-06
3.526e-05 -8.39963e-06 0.000368129
0.00150892 -5.80748e-05 0.000168582
-5.80748e-05 0.000537027 -1.95251e-05
0.000168582 -1.95251e-05 0.000520499
0.0014547 -4.97027e-05 1.91076e-05
-4.97027e-05 0.000463844 -1.00491e-05
1.91076e-05 -1.00491e-05 0.000374298
0.00201114 -0.000211937 1.32786e-05
-0.000211937 0.000627509 -5.89978e-06
1.32786e-05 -5.89978e-06 0.000489806
0.00513652 -0.000140845 -0.00015481
-0.000140845 0.0026985 -9.83539e-06
-0.00015481 -9.83539e-06 0.00268414
0.00343423 5.98078e-05 -0.000100975
5.98078e-05 0.00166998 -7.85599e-06
-0.000100975 -7.85599e-06 0.00165162
0.00332447 -5.38239e-05 -9.42957e-05
-5.38239e-05 0.00163219 -4.12852e-06
-9.42957e-05 -4.12852e-06 0.00160578
0.00490428 -0.000159905 8.3162e-06
-0.000159905 0.00257351 -7.59135e-07
8.3162e-06 -7.59135e-07 0.00255434
0.000602765 0.000167361 -2.41208e-06
0.000167361 -4.29553e-05 -5.37921e-07
-2.41208e-06 -5.37921e-07 -0.000129116
0.00156976 5.22655e-05 0.000177804
5.22655e-05 0.00056378 1.34138e-05
0.000177804 1.34138e-05 0.000546859
0.00174727 0.000121602 0.000180295
0.000121602 0.00068875 1.98042e-05
0.000180295 1.98042e-05 0.000667822
0.00260407 0.00016847 0.000110105
0.00016847 0.00109092 1.37572e-05
0.000110105 1.37572e-05 0.00102747
0.00383488 -0.000238518 3.88185e-06
-0.000238518 0.00196246 3.65735e-06
3.88185e-06 3.65735e-06 0.00192671
0.00265091 0.000205031 0.000108749
0.000205031 0.00114423 1.52949e-05
0.000108749 1.52949e-05 0.00107722
0.000638551 0.000138672 2.50075e-05
0.000138672 -1.49326e-05 1.7136e-05
2.50075e-05 1.7136e-05 -9.48251e-05
0.000898963 0.000172219 9.68895e-06
0.000172219 4.42291e-05 4.73581e-06
9.68895e-06 4.73581e-06 -0.000111244
0.0030687 -0.000103804 9.30426e-05
-0.000103804 0.0014809 3.58849e-06
9.30426e-05 3.58849e-06 0.00148428
0.00545756 6.28275e-05 3.76013e-06
6.28275e-05 0.00284863 -1.26495e-06
3.76013e-06 -1.26495e-06 0.0028565
0.00341688 5.37529e-05 -8.2997e-05
5.37529e-05 0.00165268 -2.93639e-06
-8.2997e-05 -2.93639e-06 0.00163805
0.00535683 5.83214e-05 0.000214121
5.83214e-05 0.00279263 2.21744e-06
0.000214121 2.21744e-06 0.00280022
0.00129536 6.17485e-05 3.48802e-05
6.17485e-05 0.000410562 1.88409e-06
3.48802e-05 1.88409e-06 0.0003777
0.000687672 7.5265e-06 1.62077e-05
7.5265e-06 -6.6396e-05 1.62225e-06
1.62077e-05 1.62225e-06 -0.000137584
0.00525583 0.000181508 0.000107154
0.000181508 0.002754 9.12767e-06
0.000107154 9.12767e-06 0.00273245
0.00267256 5.265e-05 0.000108324
5.265e-05 0.00109771 6.25253e-06
0.000108324 6.25253e-06 0.0010466
0.00120291 -7.38129e-05 -4.56403e-05
-7.38129e-05 0.000370438 5.75426e-06
-4.56403e-05 5.75426e-06 0.000331427
0.0012746 -5.51559e-05 -3.89366e-05
-5.51559e-05 0.000414791 5.83012e-06
-3.89366e-05 5.83012e-06 0.000379883
0.00143459 4.57588e-05 -1.54471e-05
4.57588e-05 0.000520169 5.42648e-06
-1.54471e-05 5.42648e-06 0.000478971
0.00155678 -0.000118198 -9.40016e-05
-0.000118198 0.000487157 1.45607e-05
-9.40016e-05 1.45607e-05 0.000421308
0.00341641 1.29379e-05 -8.83832e-05
1.29379e-05 0.00165893 -1.70634e-06
-8.83832e-05 -1.70634e-06 0.00164163
0.00154513 -4.30961e-05 6.93896e-05
-4.30961e-05 0.000550996 -2.97361e-06
6.93896e-05 -2.97361e-06 0.000524997
0.00142597 2.26601e-05 8.99625e-05
2.26601e-05 0.000515394 -6.38103e-06
8.99625e-05 -6.38103e-06 0.000479396
0.00153984 -4.96793e-05 6.62758e-05
-4.96793e-05 0.000552825 -5.9323e-06
6.62758e-05 -5.9323e-06 0.000527701
0.00155754 -8.3757e-05 -2.45107e-05
-8.3757e-05 0.000465352 1.0178e-06
-2.45107e-05 1.0178e-06 0.000398547
0.00152608 -9.66494e-05 -3.53152e-05
-9.66494e-05 0.000489464 2.96696e-06
-3.53152e-05 2.96696e-06 0.000412093
0.00154477 -0.000106139 -2.56866e-05
-0.000106139 0.000474156 2.14855e-06
-2.56866e-05 2.14855e-06 0.000405403
0.00200814 -0.000210198 -6.61592e-06
-0.000210198 0.000624043 1.74593e-06
-6.61592e-06 1.74593e-06 0.000486564
0.00532766 4.43408e-05 0.000208377
4.43408e-05 0.00277552 -1.08976e-07
0.000208377 -1.08976e-07 0.00278362
0.00178876 -1.96658e-05 0.000177936
-1.96658e-05 0.000685278 -7.63294e-06
0.000177936 -7.63294e-06 0.000669383
0.00240486 2.44436e-05 3.18538e-05
2.44436e-05 0.000957188 -9.65167e-07
3.18538e-05 -9.65167e-07 0.000897795
0.00151066 -7.99872e-05 4.08435e-05
-7.99872e-05 0.000435929 -4.91015e-06
4.08435e-05 -4.91015e-06 0.000365853
0.00149711 -9.1439e-05 4.25401e-05
-9.1439e-05 0.000438786 -7.79307e-06
4.25401e-05 -7.79307e-06 0.000366893
0.00193253 -0.000129574 1.12773e-05
-0.000129574 0.000530127 -2.85744e-06
1.12773e-05 -2.85744e-06 0.00040956
0.00163456 -0.000169269 1.50311e-05
-0.000169269 0.00038376 -5.35892e-06
1.50311e-05 -5.35892e-06 0.000252236
0.00113016 -1.39964e-05 0.000128482
-1.39964e-05 0.000319328 -1.3696e-05
0.000128482 -1.3696e-05 0.000306944
0.00121331 -9.21631e-07 1.00139e-05
-9.21631e-07 0.00034866 -1.04037e-05
1.00139e-05 -1.04037e-05 0.000259639
0.00197904 -0.000228583 1.25371e-05
-0.000228583 0.000632957 -5.97279e-06
1.25371e-05 -5.97279e-06 0.000486483
0.00123595 -0.000199308 7.88923e-06
-0.000199308 7.6368e-05 -2.45713e-06
7.88923e-06 -2.45713e-06 -9.19079e-05
0.00557046 0.000123858 -0.000218731
0.000123858 0.00291759 -1.71913e-05
-0.000218731 -1.71913e-05 0.00291979
0.00456199 -0.000188552 -0.000118857
-0.000188552 0.00238024 -8.03852e-06
-0.000118857 -8.03852e-06 0.00235766
0.00531965 -6.33767e-05 -0.000180724
-6.33767e-05 0.00278884 -1.16441e-05
-0.000180724 -1.16441e-05 0.00278539
0.000541437 0.000164335 -2.27901e-05
0.000164335 -7.64207e-05 -1.38838e-05
-2.27901e-05 -1.38838e-05 -0.000162168
0.00560368 0.000149782 -2.97947e-06
0.000149782 0.00293556 -1.77883e-06
-2.97947e-06 -1.77883e-06 0.00293702
0.00557837 5.29495e-05 -8.53498e-06
5.29495e-05 0.00292816 -9.50202e-07
-8.53498e-06 -9.50202e-07 0.00292821
0.00054506 0.000118775 -2.28066e-07
0.000118775 -0.000115683 -2.54186e-07
-2.28066e-07 -2.54186e-07 -0.000199017
0.00253556 -0.000121469 -5.29198e-05
-0.000121469 0.00118025 -1.24306e-06
-5.29198e-05 -1.24306e-06 0.00115633
0.000542602 0.000171488 -6.86025e-07
0.000171488 -8.48016e-05 -3.08382e-07
-6.86025e-07 -3.08382e-07 -0.000172974
0.00148183 0.000112778 3.52118e-05
0.000112778 0.000491167 6.19246e-07
3.52118e-05 6.19246e-07 0.000421907
0.000900065 0.00016939 1.12701e-07
0.00016939 4.27983e-05 -1.18456e-07
1.12701e-07 -1.18456e-07 -0.000112141
0.00362223 -0.000107784 0.000118485
-0.000107784 0.00180543 5.77248e-06
0.000118485 5.77248e-06 0.00180632
0.000618745 -4.20972e-05 2.58948e-06
-4.20972e-05 3.01631e-05 7.70354e-06
2.58948e-06 7.70354e-06 -9.20989e-06
0.000663114 8.82632e-05 1.71574e-05
8.82632e-05 -6.71416e-05 8.40333e-06
1.71574e-05 8.40333e-06 -0.000146276
0.000699634 0.000141667 2.18703e-05
0.000141667 -1.19634e-05 1.42623e-05
2.18703e-05 1.42623e-05 -9.99442e-05
0.000989897 0.000139725 1.31696e-05
0.000139725 -6.77845e-06 5.24409e-06
1.31696e-05 5.24409e-06 -0.000147203
0.00231944 4.4909e-05 7.46089e-05
4.4909e-05 0.00100109 9.8058e-06
7.46089e-05 9.8058e-06 0.000952254
0.000938517 0.000167128 1.10457e-05
0.000167128 2.52751e-05 5.93239e-06
1.10457e-05 5.93239e-06 -0.000123076
0.000943636 0.000179311 8.78311e-06
0.000179311 0.000144623 4.86256e-06
8.78311e-06 4.86256e-06 -1.74618e-05
0.000896235 0.000203465 4.31011e-06
0.000203465 -2.29953e-05 1.68631e-06
4.31011e-06 1.68631e-06 -0.00020843
0.00267013 -0.000118671 5.02102e-05
-0.000118671 0.00124615 2.25945e-06
5.02102e-05 2.25945e-06 0.00124597
0.00291643 -0.000131727 1.03372e-05
-0.000131727 0.00139673 -4.08628e-07
1.03372e-05 -4.08628e-07 0.00139293
0.00556352 1.63766e-05 -0.000213226
1.63766e-05 0.00290576 -8.68496e-06
-0.000213226 -8.68496e-06 0.0029122
0.00549866 5.34705e-05 -0.000219139
5.34705e-05 0.00287054 -5.03299e-06
-0.000219139 -5.03299e-06 0.0028791
0.00542536 8.12411e-05 -1.7203e-07
8.12411e-05 0.00283859 -2.38145e-06
-1.7203e-07 -2.38145e-06 0.00284214
0.00339418 8.95179e-06 -9.74014e-05
8.95179e-06 0.0016376 -3.56282e-06
-9.74014e-05 -3.56282e-06 0.00162587
0.00165889 3.02396e-05 4.62945e-05
3.02396e-05 0.000504417 8.26734e-07
4.62945e-05 8.26734e-07 0.000444521
0.00347979 9.97314e-05 -8.43457e-05
9.97314e-05 0.00169254 -4.13065e-06
-8.43457e-05 -4.13065e-06 0.00167458
0.00169044 7.14354e-05 4.51839e-05
7.14354e-05 0.000526085 1.6427e-06
4.51839e-05 1.6427e-06 0.000461994
0.00538759 0.000140602 0.000217433
0.000140602 0.00282693 5.18014e-06
0.000217433 5.18014e-06 0.00282425
0.000613493 9.15121e-06 1.81526e-05
9.15121e-06 -0.000106171 3.431e-07
1.81526e-05 3.431e-07 -0.000175637
0.00269562 2.10188e-05 0.000108793
2.10188e-05 0.00110964 4.12368e-06
0.000108793 4.12368e-06 0.00106091
0.00103668 3.29463e-05 1.23769e-05
3.29463e-05 -1.49814e-05 1.1521e-06
1.23769e-05 1.1521e-06 -0.000134403
0.00259097 9.48452e-05 0.000109716
9.48452e-05 0.0010584 7.91389e-06
0.000109716 7.91389e-06 0.001004
0.00105132 7.82406e-05 1.20815e-05
7.82406e-05 -2.07933e-06 2.48937e-06
1.20815e-05 2.48937e-06 -0.000129147
0.00165002 3.98853e-05 -0.000183415
3.98853e-05 0.000601764 1.51437e-06
-0.000183415 1.51437e-06 0.000592441
0.00125634 3.0188e-06 -3.23849e-05
3.0188e-06 0.000392305 1.65015e-06
-3.23849e-05 1.65015e-06 0.00035688
0.00138716 0.000104104 -3.59442e-06
0.000104104 0.00051553 7.07026e-06
-3.59442e-06 7.07026e-06 0.000461925
0.0012181 -7.09872e-05 -4.63149e-05
-7.09872e-05 0.000379793 6.28065e-06
-4.63149e-05 6.28065e-06 0.000343121
0.00167136 -6.34701e-05 -9.39934e-05
-6.34701e-05 0.000524473 7.90943e-06
-9.39934e-05 7.90943e-06 0.000464839
0.00161014 -0.000101584 -9.28242e-05
-0.000101584 0.000506216 1.28027e-05
-9.28242e-05 1.28027e-05 0.000443679
0.00153252 -0.000123164 -9.5536e-05
-0.000123164 0.000483256 1.49385e-05
-9.5536e-05 1.49385e-05 0.000413889
0.00200551 -0.000208731 -2.524e-05
-0.000208731 0.000621432 8.92369e-06
-2.524e-05 8.92369e-06 0.000484164
0.00539808 -8.3743e-05 2.04001e-06
-8.3743e-05 0.00282346 -1.38772e-06
2.04001e-06 -1.38772e-06 0.00282668
0.0015012 4.45269e-05 7.80204e-05
4.45269e-05 0.000524598 -2.62893e-06
7.80204e-05 -2.62893e-06 0.000500894
0.00113164 -2.20235e-07 -4.90032e-05
-2.20235e-07 0.00020041 8.51403e-07
-4.90032e-05 8.51403e-07 0.000139262
0.00157149 -4.84002e-05 -2.86132e-05
-4.84002e-05 0.000466794 1.45981e-06
-2.86132e-05 1.45981e-06 0.000402143
0.00284901 4.90537e-05 0.000134244
4.90537e-05 0.00135109 -2.60619e-06
0.000134244 -2.60619e-06 0.00133984
0.00188195 -6.67809e-05 -3.14457e-05
-6.67809e-05 0.000722948 -1.52954e-08
-3.14457e-05 -1.52954e-08 0.000644561
0.0015572 -9.73846e-05 -2.37165e-05
-9.73846e-05 0.000471446 1.44583e-06
-2.37165e-05 1.44583e-06 0.000404223
0.00181415 -0.000122433 -8.44916e-06
-0.000122433 0.000459373 1.46392e-06
-8.44916e-06 1.46392e-06 0.000338247
0.00197999 -0.000228964 -5.36937e-06
-0.000228964 0.0006338 1.77096e-06
-5.36937e-06 1.77096e-06 0.000487251
0.00183803 -0.000177718 -3.96103e-06
-0.000177718 0.000502482 9.68648e-07
-3.96103e-06 9.68648e-07 0.0003715
0.00124553 -0.000199919 2.8186e-07
-0.000199919 8.03384e-05 -1.40582e-07
2.8186e-07 -1.40582e-07 -8.77443e-05
0.000653751 1.26245e-05 1.86427e-05
1.26245e-05 -8.43819e-05 -1.194e-06
1.86427e-05 -1.194e-06 -0.000150885
0.00146852 1.62173e-05 3.20953e-05
1.62173e-05 0.000407311 -2.52314e-06
3.20953e-05 -2.52314e-06 0.000341488
0.00162898 -3.0084e-05 1.28276e-05
-3.0084e-05 0.000337105 -1.10901e-06
1.28276e-05 -1.10901e-06 0.000226404
0.00163567 -9.56786e-05 1.2473e-05
-9.56786e-05 0.000349556 -2.34174e-06
1.2473e-05 -2.34174e-06 0.000230419
0.00160541 -0.000142778 1.39544e-05
-0.000142778 0.000349233 -4.13436e-06
1.39544e-05 -4.13436e-06 0.000223132
0.00171928 -0.000150807 2.22023e-06
-0.000150807 0.000276373 -8.16866e-07
2.22023e-06 -8.16866e-07 0.000132271
0.00399791 0.000154489 0.000108735
0.000154489 0.00203928 -4.82495e-06
0.000108735 -4.82495e-06 0.00202733
0.00127042 -0.000182322 6.59796e-06
-0.000182322 6.80523e-05 -1.99286e-06
6.59796e-06 -1.99286e-06 -9.17255e-05
0.000362936 -6.48086e-05 1.23051e-05
-6.48086e-05 -0.000150954 -1.24844e-05
1.23051e-05 -1.24844e-05 -0.000216576
0.000852128 -0.000169541 8.84442e-06
-0.000169541 2.21372e-05 -6.7426e-06
8.84442e-06 -6.7426e-06 -0.000132674
0.00132912 -0.000226156 9.20723e-06
-0.000226156 0.000159813 -2.60754e-06
9.20723e-06 -2.60754e-06 -2.03999e-05
0.0014727 -0.00024944 3.92153e-06
-0.00024944 0.000121423 4.83773e-07
3.92153e-06 4.83773e-07 -6.05547e-05
0.000437698 -8.58063e-06 6.60446e-06
-8.58063e-06 -8.74654e-05 -1.01099e-05
6.60446e-06 -1.01099e-05 -0.000138592
0.000622072 -2.62834e-05 1.01598e-06
-2.62834e-05 2.28244e-05 -4.45607e-06
1.01598e-06 -4.45607e-06 -8.41271e-05
0.00561587 0.00016402 -0.000230799
0.00016402 0.00294634 -1.80002e-05
-0.000230799 -1.80002e-05 0.0029461
0.00543297 3.46505e-05 -0.000198897
3.46505e-05 0.00284214 -1.43303e-05
-0.000198897 -1.43303e-05 0.0028451
0.000539398 0.000111177 -1.78217e-05
0.000111177 -0.000120452 -9.9211e-06
-1.78217e-05 -9.9211e-06 -0.000203589
0.00389338 -0.00015931 -0.000103819
-0.00015931 0.00197779 -4.45734e-06
-0.000103819 -4.45734e-06 0.0019662
0.00044696 0.000100576 -1.62181e-05
0.000100576 -0.000116561 -1.32521e-05
-1.62181e-05 -1.32521e-05 -0.000187128
0.000493591 0.000155914 -1.99778e-05
0.000155914 -0.000108583 -1.29893e-05
-1.99778e-05 -1.29893e-05 -0.000198501
0.000909331 0.000168139 -1.0825e-05
0.000168139 4.61084e-05 -5.13723e-06
-1.0825e-05 -5.13723e-06 -0.000108517
0.00344411 -0.000126874 6.86091e-06
-0.000126874 0.00170653 -3.83099e-07
6.86091e-06 -3.83099e-07 0.00170369
0.000530689 -5.36007e-05 1.71872e-07
-5.36007e-05 -1.74307e-05 4.37067e-07
1.71872e-07 4.37067e-07 -5.77692e-05
0.00164815 0.000113906 4.51734e-05
0.000113906 0.000513547 2.78885e-06
4.51734e-05 2.78885e-06 0.000443826
0.00158109 0.000160714 4.32386e-05
0.000160714 0.00050843 2.48709e-06
4.32386e-05 2.48709e-06 0.000430685
0.000996665 0.000142194 1.82881e-07
0.000142194 -1.34648e-06 -2.14628e-07
1.82881e-07 -2.14628e-07 -0.000142544
0.000622067 4.27799e-05 -6.62233e-07
4.27799e-05 7.35012e-06 1.73539e-07
-6.62233e-07 1.73539e-07 -5.09359e-05
0.000940232 0.00016747 5.01706e-07
0.00016747 2.69653e-05 2.69835e-07
5.01706e-07 2.69835e-07 -0.000121331
0.000851394 0.000163859 7.00914e-07
0.000163859 8.73406e-05 -1.19586e-06
7.00914e-07 -1.19586e-06 -7.21843e-05
0.000941172 0.000209516 -6.89021e-07
0.000209516 -1.39189e-06 9.75585e-07
-6.89021e-07 9.75585e-07 -0.00018877
0.000659244 3.68994e-06 8.42019e-06
3.68994e-06 4.34514e-05 9.21729e-06
8.42019e-06 9.21729e-06 -4.69434e-06
0.000598863 -6.54931e-05 -5.30598e-07
-6.54931e-05 1.86975e-05 6.32807e-06
-5.30598e-07 6.32807e-06 -1.45892e-05
0.000750298 4.77422e-05 3.11907e-06
4.77422e-05 0.000107019 4.33687e-06
3.11907e-06 4.33687e-06 4.31387e-06
0.00102734 0.000119652 1.28122e-05
0.000119652 -1.20771e-06 4.262e-06
1.28122e-05 4.262e-06 -0.000137085
0.000959874 0.000157231 1.25857e-05
0.000157231 4.75512e-06 5.91233e-06
1.25857e-05 5.91233e-06 -0.000140135
0.00133754 0.00019637 6.44951e-06
0.00019637 8.94282e-05 1.77885e-06
6.44951e-06 1.77885e-06 -8.01498e-05
0.000918956 0.000158776 6.51341e-06
0.000158776 0.000182819 6.68859e-06
6.51341e-06 6.68859e-06 3.32432e-05
0.00103869 0.000204464 4.93319e-06
0.000204464 8.66539e-06 2.75505e-06
4.93319e-06 2.75505e-06 -0.00017056
0.000942914 0.000209674 5.52376e-06
0.000209674 8.29688e-05 1.48571e-07
5.52376e-06 1.48571e-07 -0.000122866
0.00166656 0.000281559 4.45471e-07
0.000281559 0.000367642 2.0526e-07
4.45471e-07 2.0526e-07 0.000164068
0.00245913 -0.000109302 3.3508e-05
-0.000109302 0.00111607 2.88901e-06
3.3508e-05 2.88901e-06 0.00111805
0.00256354 -0.000122351 4.53826e-06
-0.000122351 0.00118498 -4.26122e-07
4.53826e-06 -4.26122e-07 0.00118335
0.00274727 -0.000138834 -4.2437e-05
-0.000138834 0.00130032 -2.4272e-06
-4.2437e-05 -2.4272e-06 0.001294
0.000443984 6.63705e-06 4.62312e-06
6.63705e-06 -7.94575e-05 -8.58647e-06
4.62312e-06 -8.58647e-06 -0.000124434
0.00364619 0.000137947 9.48008e-05
0.000137947 0.00182734 -4.05964e-06
9.48008e-05 -4.05964e-06 0.00182006
0.00561254 0.000162424 -0.0002335
0.000162424 0.0029453 -1.61871e-05
-0.0002335 -1.61871e-05 0.00294513
0.00548757 5.46889e-05 -0.000215485
5.46889e-05 0.00286238 -7.07674e-06
-0.000215485 -7.07674e-06 0.00287054
0.000638408 8.23995e-05 -1.92039e-05
8.23995e-05 -8.94143e-05 -4.544e-06
-1.92039e-05 -4.544e-06 -0.000163739
0.000618761 3.6826e-05 -1.89209e-05
3.6826e-05 -0.00010161 -2.16921e-06
-1.89209e-05 -2.16921e-06 -0.000173682
0.00537497 -2.07032e-05 -0.000209877
-2.07032e-05 0.00280013 -1.10721e-06
-0.000209877 -1.10721e-06 0.00280935
0.00533754 1.7753e-05 -6.83528e-07
1.7753e-05 0.00277991 -2.31837e-07
-6.83528e-07 -2.31837e-07 0.00278865
0.000600895 3.60211e-07 -9.7804e-08
3.60211e-07 -0.000115346 -1.1527e-07
-9.7804e-08 -1.1527e-07 -0.000183515
0.00164331 2.87417e-05 4.60225e-05
2.87417e-05 0.000494777 1.4756e-06
4.60225e-05 1.4756e-06 0.0004345
0.0010218 3.67907e-05 4.78061e-08
3.67907e-05 -2.35926e-05 -1.52306e-07
4.78061e-08 -1.52306e-07 -0.000143358
0.000610987 7.03875e-05 -3.90916e-07
7.03875e-05 -0.000100822 -2.57696e-07
-3.90916e-07 -2.57696e-07 -0.000177603
0.00102229 7.99906e-05 -7.42798e-08
7.99906e-05 -1.77515e-05 -1.70353e-07
-7.42798e-08 -1.70353e-07 -0.000145324
0.000592658 -2.51444e-05 1.86199e-05
-2.51444e-05 -0.000121201 -7.32522e-07
1.86199e-05 -7.32522e-07 -0.000187189
0.00102455 1.42666e-05 1.21965e-05
1.42666e-05 -2.04129e-05 3.15349e-07
1.21965e-05 3.15349e-07 -0.000137665
0.00102973 5.58789e-05 1.21665e-05
5.58789e-05 -1.78686e-05 1.87992e-06
1.21665e-05 1.87992e-06 -0.00014068
0.00141991 5.41768e-05 2.60504e-06
5.41768e-05 5.387e-05 1.32739e-07
2.60504e-06 1.32739e-07 -7.49544e-05
0.00104992 9.84717e-05 1.23033e-05
9.84717e-05 2.95758e-06 3.30967e-06
1.23033e-05 3.30967e-06 -0.000128445
0.00143309 0.000116364 3.1485e-06
0.000116364 7.67056e-05 4.07004e-07
3.1485e-06 4.07004e-07 -6.5549e-05
0.00533698 -4.48964e-05 -0.000215617
-4.48964e-05 0.00278225 2.77905e-07
-0.000215617 2.77905e-07 0.00278932
0.0012536 -0.000121832 -3.43016e-05
-0.000121832 0.000396428 3.5593e-06
-3.43016e-05 3.5593e-06 0.000359464
-0.000247602 -1.36205e-06 -1.31048e-05
-1.36205e-06 -0.000606644 2.14132e-06
-1.31048e-05 2.14132e-06 -0.000685536
0.00165366 -4.34852e-05 -9.46031e-05
-4.34852e-05 0.000510233 5.73572e-06
-9.46031e-05 5.73572e-06 0.000451207
0.00432773 0.000297417 4.02081e-06
0.000297417 0.00227846 5.25083e-06
4.02081e-06 5.25083e-06 0.00222397
0.00256873 -0.000158026 -9.49401e-05
-0.000158026 0.00110868 1.49382e-05
-9.49401e-05 1.49382e-05 0.0010399
0.00165626 -8.34035e-05 -9.32017e-05
-8.34035e-05 0.000522331 1.03895e-05
-9.32017e-05 1.03895e-05 0.000461924
0.00166667 -0.000114361 -2.61964e-05
-0.000114361 0.000371307 5.14036e-06
-2.61964e-05 5.14036e-06 0.000249827
0.00202726 -0.000185375 -2.39514e-05
-0.000185375 0.000613004 7.4062e-06
-2.39514e-05 7.4062e-06 0.000482778
0.00201298 -0.000231187 -2.28851e-05
-0.000231187 0.000654098 8.80877e-06
-2.28851e-05 8.80877e-06 0.000507162
0.00126368 -0.000201174 -6.69924e-06
-0.000201174 8.90906e-05 2.02015e-06
-6.69924e-06 2.02015e-06 -7.88875e-05
0.000596469 7.98135e-06 -6.72804e-08
7.98135e-06 -0.000115941 -4.45182e-09
-6.72804e-08 -4.45182e-09 -0.000183338
0.00158098 -6.06194e-05 -2.82634e-05
-6.06194e-05 0.000471982 3.18053e-07
-2.82634e-05 3.18053e-07 0.000409181
0.00119683 -2.58064e-05 -6.54773e-06
-2.58064e-05 8.43838e-05 3.14416e-07
-6.54773e-06 3.14416e-07 -3.05485e-05
0.00182225 -9.76706e-05 -4.88284e-06
-9.76706e-05 0.00045638 7.22485e-07
-4.88284e-06 7.22485e-07 0.000338739
0.0040952 0.000144522 -5.12622e-06
0.000144522 0.00209438 -7.2325e-07
-5.12622e-06 -7.2325e-07 0.00208404
0.00145667 -6.16519e-05 -1.66582e-06
-6.16519e-05 0.000495258 1.67355e-07
-1.66582e-06 1.67355e-07 0.000420336
0.0013147 -0.000194487 8.19707e-07
-0.000194487 0.000300758 -1.28908e-06
8.19707e-07 -1.28908e-06 0.000146267
0.00163394 -0.000142436 -5.25122e-06
-0.000142436 0.00036552 1.14696e-06
-5.25122e-06 1.14696e-06 0.000239439
0.00153792 -0.000145539 -2.52114e-06
-0.000145539 0.000168721 5.25283e-07
-2.52114e-06 5.25283e-07 2.47548e-05
0.00124877 -0.000221474 4.07251e-07
-0.000221474 0.000111953 -6.92928e-09
4.07251e-07 -6.92928e-09 -6.90821e-05
0.00150248 -0.00019316 3.50131e-07
-0.00019316 0.000200856 -1.46107e-07
3.50131e-07 -1.46107e-07 4.17061e-05
0.00148758 -0.000249181 6.2498e-07
-0.000249181 0.000134268 -6.31248e-09
6.2498e-07 -6.31248e-09 -4.70773e-05
0.000516789 -1.43565e-05 -7.21961e-07
-1.43565e-05 -4.35234e-05 1.51405e-07
-7.21961e-07 1.51405e-07 -9.50206e-05
0.000655783 -4.46499e-05 -5.68232e-07
-4.46499e-05 4.12223e-05 -6.98914e-08
-5.68232e-07 -6.98914e-08 -6.77105e-05
0.00101732 -1.22558e-05 1.2087e-05
-1.22558e-05 -2.15965e-05 -8.97344e-07
1.2087e-05 -8.97344e-07 -0.000137894
0.00165674 -5.78952e-05 1.2171e-05
-5.78952e-05 0.00035554 -1.64102e-06
1.2171e-05 -1.64102e-06 0.000241817
0.00168002 -4.61997e-05 1.69128e-06
-4.61997e-05 0.000223421 -8.86227e-08
1.69128e-06 -8.86227e-08 9.7921e-05
0.00141517 -0.000114497 3.58683e-06
-0.000114497 8.29865e-05 -4.46052e-07
3.58683e-06 -4.46052e-07 -5.42341e-05
0.00165524 -0.000181396 4.17104e-06
-0.000181396 0.000265805 -1.04639e-06
4.17104e-06 -1.04639e-06 0.000115409
0.00169388 -0.000179813 -7.23017e-07
-0.000179813 0.000146253 4.75631e-07
-7.23017e-07 4.75631e-07 7.45509e-06
0.000385241 -3.85161e-05 9.69261e-06
-3.85161e-05 -0.000126208 -1.1338e-05
9.69261e-06 -1.1338e-05 -0.000183633
0.00154786 -0.000231751 2.14473e-06
-0.000231751 0.000131751 4.52246e-07
2.14473e-06 4.52246e-07 -3.37299e-05
0.000673461 -0.000139393 4.6905e-06
-0.000139393 2.31746e-06 -6.47514e-06
4.6905e-06 -6.47514e-06 -0.000148231
0.000934592 -0.000216391 8.71527e-06
-0.000216391 -1.47266e-05 -4.13703e-06
8.71527e-06 -4.13703e-06 -0.000208397
0.00176342 -0.000293171 3.28559e-06
-0.000293171 0.00033411 8.61708e-08
3.28559e-06 8.61708e-08 0.000131558
0.0018253 -0.000286674 -1.55537e-06
-0.000286674 0.000266924 2.9777e-06
-1.55537e-06 2.9777e-06 9.36965e-05
0.000732925 -8.45557e-05 2.80938e-06
-8.45557e-05 8.38534e-05 -4.25219e-06
2.80938e-06 -4.25219e-06 -4.10952e-05
0.00057577 -1.4406e-05 6.6492e-07
-1.4406e-05 4.81608e-07 -3.61618e-06
6.6492e-07 -3.61618e-06 -9.43296e-05
0.000994434 -0.000140244 2.99333e-07
-0.000140244 0.000253315 -8.65199e-09
2.99333e-07 -8.65199e-09 9.23253e-05
0.00057825 9.04306e-05 -1.73682e-05
9.04306e-05 -0.000112189 -7.60558e-06
-1.73682e-05 -7.60558e-06 -0.000191768
0.00326241 -0.000150222 -7.0707e-05
-0.000150222 0.00160504 -2.34587e-06
-7.0707e-05 -2.34587e-06 0.00159633
0.000435673 -6.65816e-05 2.19657e-06
-6.65816e-05 -6.70677e-05 -7.4671e-06
2.19657e-06 -7.4671e-06 -0.000109699
0.000501845 0.000136118 -1.86684e-05
0.000136118 -0.000120616 -1.21019e-05
-1.86684e-05 -1.21019e-05 -0.000207914
0.0009959 0.000144454 -1.36588e-05
0.000144454 -2.84914e-07 -5.69789e-06
-1.36588e-05 -5.69789e-06 -0.000142238
0.000380615 3.46496e-05 -1.04222e-05
3.46496e-05 -0.000130623 -1.11243e-05
-1.04222e-05 -1.11243e-05 -0.000187231
0.000723641 0.000147111 -6.60123e-06
0.000147111 1.05186e-05 -7.28916e-06
-6.60123e-06 -7.28916e-06 -0.000146281
0.000948081 0.000168114 -1.06017e-05
0.000168114 3.24739e-05 -5.40183e-06
-1.06017e-05 -5.40183e-06 -0.000115825
0.000960373 0.000213176 -7.43057e-06
0.000213176 5.41988e-06 -5.33027e-07
-7.43057e-06 -5.33027e-07 -0.000183466
0.000534417 -7.12163e-06 1.6293e-06
-7.12163e-06 -2.74413e-05 4.0919e-07
1.6293e-06 4.0919e-07 -7.45539e-05
0.000532166 -7.14146e-05 -3.54589e-07
-7.14146e-05 -1.84121e-05 2.95359e-07
-3.54589e-07 2.95359e-07 -5.26657e-05
0.000634297 6.94301e-06 6.56549e-07
6.94301e-06 3.3378e-05 3.63761e-07
6.56549e-07 3.63761e-07 -6.07473e-05
0.0010129 0.000121195 2.29269e-08
0.000121195 -7.89183e-06 -2.44695e-07
2.29269e-08 -2.44695e-07 -0.000144497
0.000976034 0.000159687 4.3419e-07
0.000159687 1.49808e-05 -1.81053e-07
4.3419e-07 -1.81053e-07 -0.000130486
0.00132162 0.000194464 2.11195e-07
0.000194464 8.46281e-05 1.28757e-08
2.11195e-07 1.28757e-08 -8.48543e-05
0.000796606 0.000140434 -5.22991e-07
0.000140434 0.000113102 4.43891e-07
-5.22991e-07 4.43891e-07 -3.37035e-05
0.00116361 0.000213119 -1.72195e-09
0.000213119 8.25393e-05 1.20841e-07
-1.72195e-09 1.20841e-07 -9.7952e-05
0.00109995 0.000222783 1.20522e-06
0.000222783 0.000173375 -2.03297e-06
1.20522e-06 -2.03297e-06 -3.43838e-05
0.00115212 0.000244587 -9.59607e-07
0.000244587 6.53146e-05 2.52669e-07
-9.59607e-07 2.52669e-07 -0.000133604
0.000574031 -6.76315e-05 -1.27891e-06
-6.76315e-05 -5.35423e-06 5.31355e-06
-1.27891e-06 5.31355e-06 -3.32464e-05
0.000742407 9.81403e-05 4.88181e-06
9.81403e-05 9.04307e-05 4.3004e-06
4.88181e-06 4.3004e-06 -3.19367e-05
0.000690824 -1.26288e-05 8.50705e-07
-1.26288e-05 6.17048e-05 3.94335e-06
8.50705e-07 3.94335e-06 -1.12204e-05
0.000788853 9.69506e-05 1.22731e-06
9.69506e-05 0.000151978 4.48314e-07
1.22731e-06 4.48314e-07 4.22457e-06
0.00137316 0.000172129 5.20618e-06
0.000172129 7.82937e-05 9.06187e-07
5.20618e-06 9.06187e-07 -8.18722e-05
0.00125171 0.000210895 6.96517e-06
0.000210895 8.31916e-05 2.34136e-06
6.96517e-06 2.34136e-06 -9.39311e-05
0.00162326 0.000257395 1.34671e-06
0.000257395 0.000164808 1.53217e-08
1.34671e-06 1.53217e-08 -1.37786e-05
0.00113514 0.000197896 3.09313e-06
0.000197896 0.000274967 4.21909e-06
3.09313e-06 4.21909e-06 8.01015e-05
0.00145583 0.000268833 3.02858e-07
0.000268833 0.000189197 2.1179e-07
3.02858e-07 2.1179e-07 -6.44466e-06
0.00169133 0.000295418 3.4121e-06
0.000295418 0.000453741 -1.83953e-06
3.4121e-06 -1.83953e-06 0.000216211
0.00171306 0.000287716 4.56011e-07
0.000287716 0.00032647 1.6505e-07
4.56011e-07 1.6505e-07 0.000121989
0.000646559 -1.78291e-06 2.08853e-06
-1.78291e-06 1.52888e-05 2.18842e-06
2.08853e-06 2.18842e-06 -3.22367e-05
0.000565698 -4.48368e-05 6.75921e-07
-4.48368e-05 -3.38367e-05 4.44259e-06
6.75921e-07 4.44259e-06 -5.21524e-05
0.0023601 -9.51799e-05 2.86352e-05
-9.51799e-05 0.00104924 3.30295e-06
2.86352e-05 3.30295e-06 0.00105475
0.0024048 -0.000107081 2.95879e-06
-0.000107081 0.00108361 -2.98683e-07
2.95879e-06 -2.98683e-07 0.00108603
0.00247981 -0.000119994 -3.56713e-05
-0.000119994 0.00113587 -2.66749e-06
-3.56713e-05 -2.66749e-06 0.00113465
0.000462347 1.36965e-05 3.5315e-06
1.36965e-05 -7.03211e-05 -7.13146e-06
3.5315e-06 -7.13146e-06 -0.000107623
0.00328372 0.00012664 7.75296e-05
0.00012664 0.00161024 -3.50068e-06
7.75296e-05 -3.50068e-06 0.00160602
0.000535152 4.50405e-06 -3.39697e-07
4.50405e-06 -2.81514e-05 1.48473e-07
-3.39697e-07 1.48473e-07 -7.34511e-05
0.00374684 0.000128254 -3.68504e-06
0.000128254 0.00188357 -5.169e-07
-3.68504e-06 -5.169e-07 0.00187856
0.000631774 9.3373e-05 -1.88658e-05
9.3373e-05 -8.71979e-05 -6.01571e-06
-1.88658e-05 -6.01571e-06 -0.000165232
0.000635723 3.19905e-05 -1.82429e-05
3.19905e-05 -9.42431e-05 -3.14133e-06
-1.82429e-05 -3.14133e-06 -0.000166231
0.0010069 8.14208e-05 -1.19197e-05
8.14208e-05 -2.61552e-05 -2.81259e-06
-1.19197e-05 -2.81259e-06 -0.000154121
0.00100623 3.88049e-05 -1.23643e-05
3.88049e-05 -3.27774e-05 -1.44036e-06
-1.23643e-05 -1.44036e-06 -0.000152759
0.000650747 -5.89973e-06 -1.8888e-05
-5.89973e-06 -8.9958e-05 -7.00091e-07
-1.8888e-05 -7.00091e-07 -0.000156177
0.005401 -9.52699e-05 -0.000223301
-9.52699e-05 0.00282508 3.29365e-06
-0.000223301 3.29365e-06 0.00282922
0.000633983 -4.52939e-07 1.37526e-07
-4.52939e-07 -9.81115e-05 -3.65281e-07
1.37526e-07 -3.65281e-07 -0.000163923
0.00101761 1.89214e-05 -5.12938e-08
1.89214e-05 -2.42558e-05 -1.41887e-07
-5.12938e-08 -1.41887e-07 -0.00014167
0.00102714 5.74926e-05 -5.60892e-08
5.74926e-05 -1.94068e-05 -1.07018e-07
-5.60892e-08 -1.07018e-07 -0.000142509
0.00141893 5.34231e-05 -5.6293e-08
5.34231e-05 5.38796e-05 4.13691e-08
-5.6293e-08 4.13691e-08 -7.50595e-05
0.00102159 0.000100336 -1.02423e-07
0.000100336 -1.19171e-05 -2.11131e-07
-1.02423e-07 -2.11131e-07 -0.000144086
0.00142158 0.000117562 -8.1215e-09
0.000117562 7.00051e-05 -5.19366e-08
-8.1215e-09 -5.19366e-08 -7.27704e-05
0.00102303 -2.36124e-07 1.21399e-05
-2.36124e-07 -1.87575e-05 -2.26135e-07
1.21399e-05 -2.26135e-07 -0.000134972
0.00141816 3.01882e-05 2.77355e-06
3.01882e-05 5.58919e-05 3.39664e-08
2.77355e-06 3.39664e-08 -6.95029e-05
0.0014255 8.60597e-05 2.68984e-06
8.60597e-05 6.11004e-05 1.83004e-07
2.68984e-06 1.83004e-07 -7.37374e-05
0.0017334 7.78149e-05 -1.50096e-06
7.78149e-05 9.38962e-05 -4.43798e-07
-1.50096e-06 -4.43798e-07 -1.51484e-05
0.00141918 0.000146342 3.80239e-06
0.000146342 8.22646e-05 6.79264e-07
3.80239e-06 6.79264e-07 -6.86738e-05
0.00172258 0.000156795 -5.39777e-07
0.000156795 0.000117953 -1.04017e-06
-5.39777e-07 -1.04017e-06 -1.22948e-05
0.000615074 2.53151e-06 -1.80079e-05
2.53151e-06 -0.000103619 9.81634e-07
-1.80079e-05 9.81634e-07 -0.000172376
0.00165412 -2.19373e-05 -9.4574e-05
-2.19373e-05 0.000509218 3.73594e-06
-9.4574e-05 3.73594e-06 0.000452119
0.000741014 -2.03151e-05 -1.40684e-05
-2.03151e-05 -0.000181698 1.70171e-06
-1.40684e-05 1.70171e-06 -0.000301034
0.0019976 -9.84154e-05 -2.31413e-05
-9.84154e-05 0.00055637 3.65157e-06
-2.31413e-05 3.65157e-06 0.000440397
0.00426551 0.000123887 -0.000135573
0.000123887 0.00218927 7.32578e-06
-0.000135573 7.32578e-06 0.0021826
0.00253055 -9.75911e-05 -8.40922e-05
-9.75911e-05 0.00111353 1.14721e-05
-8.40922e-05 1.14721e-05 0.00105262
0.00193361 -0.000235997 -1.82894e-05
-0.000235997 0.000667393 7.5209e-06
-1.82894e-05 7.5209e-06 0.000510795
0.00164354 -0.000141008 -2.40562e-05
-0.000141008 0.00037049 6.10422e-06
-2.40562e-05 6.10422e-06 0.000244692
0.00135219 -0.00014001 -6.03294e-06
-0.00014001 5.84684e-05 1.34932e-06
-6.03294e-06 1.34932e-06 -8.53319e-05
0.00173995 -0.000204411 -7.27811e-06
-0.000204411 0.000336885 2.07037e-06
-7.27811e-06 2.07037e-06 0.000178314
0.0011645 -0.000216454 -7.6025e-06
-0.000216454 6.17889e-05 2.26633e-06
-7.6025e-06 2.26633e-06 -0.000120008
0.00150007 -0.000248922 -2.54803e-06
-0.000248922 0.000145158 -5.13424e-07
-2.54803e-06 -5.13424e-07 -3.55696e-05
0.00061196 -2.3597e-05 -8.82471e-06
-2.3597e-05 1.06579e-05 1.00699e-05
-8.82471e-06 1.00699e-05 -4.19266e-05
0.000725924 -6.42162e-05 -2.38627e-06
-6.42162e-05 8.30648e-05 3.40349e-06
-2.38627e-06 3.40349e-06 -2.91838e-05
0.00087518 -7.78336e-06 -3.34472e-07
-7.78336e-06 -0.000104124 -1.23099e-07
-3.34472e-07 -1.23099e-07 -0.000221344
0.00166327 -5.88545e-05 -5.42965e-06
-5.88545e-05 0.000358194 5.55886e-07
-5.42965e-06 5.55886e-07 0.000244542
0.00169969 -4.25868e-05 -2.26591e-06
-4.25868e-05 0.000231232 2.68472e-07
-2.26591e-06 2.68472e-07 0.00010791
0.00154824 -0.000116661 -7.20895e-08
-0.000116661 0.000160819 7.65959e-08
-7.20895e-08 7.65959e-08 2.33081e-05
0.000535234 -4.96316e-05 -6.98629e-08
-4.96316e-05 -4.1208e-05 3.2357e-07
-6.98629e-08 3.2357e-07 -0.000100354
0.000852723 -0.000162744 -6.47207e-07
-0.000162744 0.000103484 -1.97358e-07
-6.47207e-07 -1.97358e-07 -5.04098e-05
0.000971182 -0.000217959 1.83633e-06
-0.000217959 7.35877e-06 -1.23498e-06
1.83633e-06 -1.23498e-06 -0.000185745
0.00168417 -0.00018032 -2.37918e-06
-0.00018032 0.000281274 6.12555e-07
-2.37918e-06 6.12555e-07 0.000130465
0.00175015 -0.000182849 3.1884e-07
-0.000182849 0.00017358 3.21133e-08
3.1884e-07 3.21133e-08 3.76957e-05
0.00170067 -0.00029162 -2.00371e-06
-0.00029162 0.000300267 2.38132e-07
-2.00371e-06 2.38132e-07 9.67977e-05
0.00154936 -0.000231434 4.25944e-07
-0.000231434 0.000133235 -7.09404e-08
4.25944e-07 -7.09404e-08 -3.18471e-05
0.00178193 -0.000286165 6.0871e-07
-0.000286165 0.00023698 5.61934e-07
6.0871e-07 5.61934e-07 6.36515e-05
0.000724692 -9.68047e-05 -1.23118e-07
-9.68047e-05 7.88815e-05 -1.96284e-07
-1.23118e-07 -1.96284e-07 -4.78117e-05
0.000614271 -8.61976e-05 -6.17236e-07
-8.61976e-05 1.98054e-05 -7.11991e-07
-6.17236e-07 -7.11991e-07 -0.000128681
0.00066739 -2.59067e-05 1.28345e-07
-2.59067e-05 5.25676e-05 2.42214e-07
1.28345e-07 2.42214e-07 -4.29767e-05
0.0016664 -1.74632e-05 1.35576e-06
-1.74632e-05 0.00020837 -5.16627e-08
1.35576e-06 -5.16627e-08 8.5279e-05
0.00171769 -7.68854e-05 1.21141e-06
-7.68854e-05 0.000244027 2.19915e-07
1.21141e-06 2.19915e-07 0.000117185
0.00165356 -6.20768e-05 -1.80896e-06
-6.20768e-05 6.90548e-05 9.74925e-07
-1.80896e-06 9.74925e-07 -4.0836e-05
0.00168313 -0.000148113 -2.3153e-06
-0.000148113 0.000105658 1.14228e-06
-2.3153e-06 1.14228e-06 -2.11284e-05
0.00156673 -0.000210828 4.49707e-07
-0.000210828 0.000107807 1.32846e-06
4.49707e-07 1.32846e-06 -4.11296e-05
0.0017728 -0.000205046 -2.11326e-06
-0.000205046 0.000123209 1.29886e-06
-2.11326e-06 1.29886e-06 7.39641e-06
0.000677057 -0.000120447 3.81065e-06
-0.000120447 4.3444e-05 -4.55584e-06
3.81065e-06 -4.55584e-06 -9.56242e-05
0.00165915 -0.000265205 -1.90381e-06
-0.000265205 0.000124479 1.95126e-06
-1.90381e-06 1.95126e-06 -2.89947e-05
0.00104081 -0.000216449 2.47233e-06
-0.000216449 0.000155754 -4.72265e-06
2.47233e-06 -4.72265e-06 -3.89748e-05
0.00126436 -0.000280071 6.29441e-06
-0.000280071 0.000117466 -2.64313e-06
6.29441e-06 -2.64313e-06 -0.000104541
0.00184538 -0.000326712 1.16638e-06
-0.000326712 0.000328514 3.00662e-06
1.16638e-06 3.00662e-06 0.000120132
0.00193758 -0.000312588 -2.97834e-06
-0.000312588 0.000290417 3.78873e-06
-2.97834e-06 3.78873e-06 0.000129306
0.000616263 -1.69687e-05 8.32039e-07
-1.69687e-05 2.122e-05 -3.16868e-06
8.32039e-07 -3.16868e-06 -6.11421e-05
0.000789477 -0.000138201 1.25226e-06
-0.000138201 9.93716e-05 2.64624e-07
1.25226e-06 2.64624e-07 -5.36634e-05
0.000524351 -7.0267e-05 -3.64812e-07
-7.0267e-05 -9.32683e-06 -4.32124e-07
-3.64812e-07 -4.32124e-07 -0.000155879
0.00124 -0.000200441 -1.8573e-06
-0.000200441 0.000373906 1.87916e-06
-1.8573e-06 1.87916e-06 0.000199763
0.00099219 0.000122732 -1.33099e-05
0.000122732 -1.82062e-05 -4.68217e-06
-1.33099e-05 -4.68217e-06 -0.000155543
0.000476653 -7.25314e-05 1.02827e-06
-7.25314e-05 -5.11486e-05 -5.71233e-06
1.02827e-06 -5.71233e-06 -8.506e-05
0.000412503 -2.4616e-05 -2.53872e-06
-2.4616e-05 -9.41886e-05 -9.24258e-06
-2.53872e-06 -9.24258e-06 -0.000141468
0.00057615 -2.60454e-05 7.42249e-07
-2.60454e-05 3.10424e-06 -4.46518e-06
7.42249e-07 -4.46518e-06 -8.97348e-05
0.000997049 0.00016278 -1.25572e-05
0.00016278 2.79255e-05 -6.46767e-06
-1.25572e-05 -6.46767e-06 -0.000118224
0.00131525 0.000193024 -6.13602e-06
0.000193024 8.53213e-05 -1.75555e-06
-6.13602e-06 -1.75555e-06 -8.40845e-05
0.000662823 0.000118847 -4.37336e-06
0.000118847 3.57393e-05 -4.68408e-06
-4.37336e-06 -4.68408e-06 -0.000107655
0.00136386 0.000244801 -5.39904e-06
0.000244801 0.000325999 -4.55068e-06
-5.39904e-06 -4.55068e-06 0.000115317
0.00129965 0.000222437 -5.53355e-06
0.000222437 0.000163343 -2.74532e-06
-5.53355e-06 -2.74532e-06 -1.84952e-05
0.000624426 0.000206476 -4.22177e-06
0.000206476 -0.000243783 1.73581e-06
-4.22177e-06 1.73581e-06 -0.000438005
0.000544633 -6.38031e-05 -1.88961e-07
-6.38031e-05 -2.47521e-05 1.16017e-07
-1.88961e-07 1.16017e-07 -5.14002e-05
0.000746553 8.69194e-05 3.50332e-07
8.69194e-05 9.90329e-05 -2.73512e-07
3.50332e-07 -2.73512e-07 -2.50714e-05
0.0006147 -2.85602e-05 -6.0214e-07
-2.85602e-05 2.0171e-05 7.01397e-07
-6.0214e-07 7.01397e-07 -5.29226e-05
0.000776314 6.64314e-05 1.13605e-06
6.64314e-05 0.00014182 -6.99699e-07
1.13605e-06 -6.99699e-07 -8.4063e-07
0.0013764 0.000171749 3.2256e-07
0.000171749 8.29305e-05 -2.20027e-07
3.2256e-07 -2.20027e-07 -7.73784e-05
0.00126392 0.000211044 2.26244e-07
0.000211044 9.56092e-05 -1.0238e-08
2.26244e-07 -1.0238e-08 -8.16546e-05
0.00162226 0.00025771 2.3045e-07
0.00025771 0.000163011 1.94597e-07
2.3045e-07 1.94597e-07 -1.58849e-05
0.0010246 0.000191247 9.13322e-07
0.000191247 0.000214951 5.54526e-07
9.13322e-07 5.54526e-07 2.10678e-05
0.00161886 0.000277868 -1.04213e-06
0.000277868 0.000289116 -2.83803e-07
-1.04213e-06 -2.83803e-07 9.2707e-05
0.00119644 0.000254321 4.8536e-07
0.000254321 0.00016697 -2.64072e-06
4.8536e-07 -2.64072e-06 -6.7249e-05
0.00153578 0.000275487 -2.34083e-06
0.000275487 0.000227921 2.89129e-07
-2.34083e-06 2.89129e-07 2.44688e-05
0.000558405 -5.45104e-05 3.80148e-07
-5.45104e-05 -2.88193e-05 4.61107e-06
3.80148e-07 4.61107e-06 -5.0573e-05
0.000683993 -1.73174e-05 1.34709e-06
-1.73174e-05 4.9464e-05 2.88687e-06
1.34709e-06 2.88687e-06 -9.6267e-06
0.000973665 0.000151211 1.82409e-06
0.000151211 0.000222254 1.93611e-06
1.82409e-06 1.93611e-06 5.86559e-05
0.000795336 5.69451e-05 -6.0887e-07
5.69451e-05 0.000160425 2.50555e-06
-6.0887e-07 2.50555e-06 3.54774e-05
0.00110124 0.000145741 5.95648e-08
0.000145741 0.000329963 -1.14463e-06
5.95648e-08 -1.14463e-06 0.000159932
0.00168573 0.000226772 1.1229e-06
0.000226772 0.000156657 -1.29381e-06
1.1229e-06 -1.29381e-06 -4.62784e-06
0.00151529 0.000274473 1.34655e-06
0.000274473 0.000161183 5.54621e-07
1.34655e-06 5.54621e-07 -3.07366e-05
0.00177433 0.000296177 3.42407e-07
0.000296177 0.000205209 -2.69943e-07
3.42407e-07 -2.69943e-07 3.18393e-05
0.0014599 0.000263545 2.5706e-06
0.000263545 0.000435605 4.76708e-06
2.5706e-06 4.76708e-06 0.000202282
0.00176419 0.000324931 1.78232e-06
0.000324931 0.000316763 1.01332e-08
1.78232e-06 1.01332e-08 0.000112399
0.000788931 0.000229572 2.54313e-06
0.000229572 -0.000136073 -1.94999e-06
2.54313e-06 -1.94999e-06 -0.000360646
0.000642728 -5.96772e-06 2.42565e-06
-5.96772e-06 1.41993e-05 2.19912e-06
2.42565e-06 2.19912e-06 -3.4839e-05
0.000693783 3.96392e-05 2.07742e-07
3.96392e-05 7.10081e-05 9.66357e-07
2.07742e-07 9.66357e-07 -9.22654e-06
0.000661082 8.03368e-06 1.82825e-06
8.03368e-06 2.51996e-05 2.15606e-06
1.82825e-06 2.15606e-06 -2.18782e-05
0.000636771 -2.08633e-05 -4.92521e-07
-2.08633e-05 1.15453e-05 1.35373e-08
-4.92521e-07 1.35373e-08 -3.70215e-05
0.00125471 -5.16951e-05 1.01204e-06
-5.16951e-05 0.000367809 2.59086e-06
1.01204e-06 2.59086e-06 0.000355229
0.000929813 -5.18353e-05 6.24489e-07
-5.18353e-05 0.000181249 -7.91488e-08
6.24489e-07 -7.91488e-08 0.000164729
0.000904654 -4.87689e-05 2.38347e-05
-4.87689e-05 0.000177575 7.22226e-06
2.38347e-05 7.22226e-06 0.000180195
0.00232358 -9.30218e-05 3.03082e-06
-9.30218e-05 0.00102671 -2.65254e-07
3.03082e-06 -2.65254e-07 0.0010327
0.00234619 -0.00010415 -3.23931e-05
-0.00010415 0.00104838 -3.03901e-06
-3.23931e-05 -3.03901e-06 0.00105142
0.000493184 3.48289e-05 8.00697e-08
3.48289e-05 -5.3588e-05 -5.97413e-06
8.00697e-08 -5.97413e-06 -8.55149e-05
0.00296816 0.000126346 4.98818e-05
0.000126346 0.00142013 -3.07554e-06
4.98818e-05 -3.07554e-06 0.00141646
0.000541479 1.28699e-05 -2.78904e-07
1.28699e-05 -2.46909e-05 2.39192e-07
-2.78904e-07 2.39192e-07 -6.2526e-05
0.00341368 0.000118033 -4.51488e-06
0.000118033 0.00168385 -4.05255e-07
-4.51488e-06 -4.05255e-07 0.00168179
0.000612115 1.86143e-06 -5.41344e-06
1.86143e-06 1.48255e-05 8.7799e-06
-5.41344e-06 8.7799e-06 -3.09252e-05
0.00383518 0.00011659 -0.00011685
0.00011659 0.00193239 5.76843e-06
-0.00011685 5.76843e-06 0.00192979
0.00100136 0.000102338 -1.24692e-05
0.000102338 -2.23779e-05 -3.66424e-06
-1.24692e-05 -3.66424e-06 -0.000155235
0.00101275 6.12236e-05 -1.21039e-05
6.12236e-05 -2.70213e-05 -2.07907e-06
-1.21039e-05 -2.07907e-06 -0.000150632
0.00142284 0.000115586 -3.70524e-06
0.000115586 7.08355e-05 -5.57264e-07
-3.70524e-06 -5.57264e-07 -7.20445e-05
0.00141713 5.28553e-05 -2.93939e-06
5.28553e-05 5.36688e-05 -2.11324e-08
-2.93939e-06 -2.11324e-08 -7.53966e-05
0.00101496 2.24358e-05 -1.22889e-05
2.24358e-05 -2.57826e-05 -6.48664e-07
-1.22889e-05 -6.48664e-07 -0.000143361
0.00060271 2.492e-05 -1.8607e-05
2.492e-05 -0.000115704 6.00097e-09
-1.8607e-05 6.00097e-09 -0.000181546
0.00101635 2.086e-06 5.89472e-09
2.086e-06 -2.25851e-05 -2.23808e-08
5.89472e-09 -2.23808e-08 -0.000138839
0.00141003 3.18869e-05 -6.5495e-08
3.18869e-05 5.1062e-05 1.5958e-08
-6.5495e-08 1.5958e-08 -7.44547e-05
0.00142683 8.3608e-05 2.1965e-08
8.3608e-05 6.31164e-05 -3.2806e-08
2.1965e-08 -3.2806e-08 -7.16992e-05
0.00177477 7.82334e-05 -4.40394e-08
7.82334e-05 0.00011413 3.03079e-07
-4.40394e-08 3.03079e-07 7.38654e-06
0.00141118 0.000145901 -1.88107e-07
0.000145901 7.93633e-05 -6.0902e-08
-1.88107e-07 -6.0902e-08 -7.17843e-05
0.00172141 0.000154648 -2.45378e-07
0.000154648 0.000121485 5.24605e-08
-2.45378e-07 5.24605e-08 -8.7146e-06
0.00140629 7.18843e-06 3.00722e-06
7.18843e-06 5.20989e-05 8.51476e-08
3.00722e-06 8.51476e-08 -7.21814e-05
0.00177339 4.4909e-05 -2.40071e-06
4.4909e-05 0.000116109 1.97316e-07
-2.40071e-06 1.97316e-07 1.57541e-05
0.00173699 0.000123062 -1.21646e-06
0.000123062 0.000101721 -9.44043e-07
-1.21646e-06 -9.44043e-07 -1.6817e-05
0.00180483 8.22429e-05 2.71639e-07
8.22429e-05 6.64913e-05 1.1536e-07
2.71639e-07 1.1536e-07 -1.83241e-05
0.00171117 0.000187565 -1.74703e-07
0.000187565 0.000144294 -1.10223e-06
-1.74703e-07 -1.10223e-06 5.14848e-07
0.00171627 0.000177336 -2.02386e-06
0.000177336 5.71713e-05 -1.14272e-06
-2.02386e-06 -1.14272e-06 -4.80576e-05
0.000732728 -4.78784e-06 -1.19791e-05
-4.78784e-06 -0.000186634 5.61054e-07
-1.19791e-05 5.61054e-07 -0.000304834
0.00168908 -6.11883e-05 -2.28189e-05
-6.11883e-05 0.000372092 2.69052e-06
-2.28189e-05 2.69052e-06 0.000258472
0.00173809 -3.64606e-05 -6.25485e-06
-3.64606e-05 0.000249892 3.28775e-07
-6.25485e-06 3.28775e-07 0.000128962
0.00168328 -0.000119133 -4.59231e-06
-0.000119133 0.000239786 9.51514e-07
-4.59231e-06 9.51514e-07 0.000101966
0.000711992 -6.39282e-05 -1.23924e-05
-6.39282e-05 6.04613e-05 1.1968e-05
-1.23924e-05 1.1968e-05 -1.68815e-06
0.000849669 -0.000170682 -7.37686e-06
-0.000170682 0.000101352 6.65351e-06
-7.37686e-06 6.65351e-06 -5.38207e-05
0.00110044 -0.000227757 -5.30878e-06
-0.000227757 8.29855e-05 1.88307e-06
-5.30878e-06 1.88307e-06 -0.000110829
0.00171344 -0.000179147 -8.05239e-06
-0.000179147 0.000296898 2.2463e-06
-8.05239e-06 2.2463e-06 0.000145703
0.00180577 -0.000185743 3.24941e-07
-0.000185743 0.000200529 -8.40765e-07
3.24941e-07 -8.40765e-07 6.75879e-05
0.00155059 -0.000231133 -1.63184e-06
-0.000231133 0.00013437 -4.98372e-07
-1.63184e-06 -4.98372e-07 -3.03173e-05
0.00162585 -0.00028882 -5.33168e-06
-0.00028882 0.000260267 -2.04957e-07
-5.33168e-06 -2.04957e-07 5.60827e-05
0.0017447 -0.000285387 3.12026e-06
-0.000285387 0.000210724 -2.60231e-06
3.12026e-06 -2.60231e-06 3.74305e-05
0.000724985 -0.00010428 -4.01018e-06
-0.00010428 7.53882e-05 4.14452e-06
-4.01018e-06 4.14452e-06 -5.09577e-05
0.000535401 -7.39729e-05 -1.18176e-06
-7.39729e-05 -2.50183e-05 -8.32247e-07
-1.18176e-06 -8.32247e-07 -0.000172766
0.000706986 -3.40406e-05 -9.84828e-07
-3.40406e-05 7.50757e-05 3.5895e-06
-9.84828e-07 3.5895e-06 -2.15728e-05
0.00155269 -1.5261e-05 -2.33071e-06
-1.5261e-05 0.000140649 9.49072e-08
-2.33071e-06 9.49072e-08 1.67171e-05
0.0017169 -8.40764e-05 -2.59757e-06
-8.40764e-05 0.000243353 4.34037e-07
-2.59757e-06 4.34037e-07 0.000115819
0.00169289 -5.878e-05 9.70837e-07
-5.878e-05 9.15221e-05 5.47746e-07
9.70837e-07 5.47746e-07 -1.38887e-05
0.00169662 -0.000145288 -1.4226e-06
-0.000145288 0.000111865 4.18736e-07
-1.4226e-06 4.18736e-07 -1.55295e-05
0.000753296 -0.000136012 4.45918e-07
-0.000136012 8.84385e-05 3.35433e-07
4.45918e-07 3.35433e-07 -5.3163e-05
0.00110669 -0.000222867 -1.39167e-06
-0.000222867 0.000187139 -2.56164e-07
-1.39167e-06 -2.56164e-07 -7.7105e-06
0.0011687 -0.000267142 1.49491e-06
-0.000267142 6.91986e-05 -5.033e-07
1.49491e-06 -5.033e-07 -0.000149994
0.00158244 -0.000210794 -5.71292e-07
-0.000210794 0.000118462 4.64005e-07
-5.71292e-07 4.64005e-07 -3.29394e-05
0.00181919 -0.00020626 1.50822e-06
-0.00020626 0.0001526 1.67746e-07
1.50822e-06 1.67746e-07 4.0937e-05
0.00174741 -0.000325564 -7.95337e-07
-0.000325564 0.000268717 5.1112e-07
-7.95337e-07 5.1112e-07 5.8118e-05
0.00169076 -0.000265742 1.22291e-07
-0.000265742 0.000142786 3.1459e-07
1.22291e-07 3.1459e-07 -1.03483e-05
0.00197221 -0.000311878 1.72801e-06
-0.000311878 0.000311505 -4.13834e-07
1.72801e-06 -4.13834e-07 0.000153215
0.000959348 -0.000161388 2.74429e-07
-0.000161388 0.000202253 6.24399e-07
2.74429e-07 6.24399e-07 4.38115e-05
0.00111286 -0.000197336 -3.80294e-07
-0.000197336 0.000305896 1.27881e-07
-3.80294e-07 1.27881e-07 0.000129401
0.000648418 -2.33064e-05 8.27017e-08
-2.33064e-05 3.93368e-05 1.80281e-07
8.27017e-08 1.80281e-07 -4.38232e-05
0.00042126 -3.27547e-05 -2.05687e-07
-3.27547e-05 -7.82832e-05 -5.64574e-07
-2.05687e-07 -5.64574e-07 -0.000215762
0.00171769 -3.42496e-05 -1.80157e-06
-3.42496e-05 0.000100847 8.44116e-08
-1.80157e-06 8.44116e-08 -3.58908e-06
0.00184369 -9.92794e-05 -1.01049e-06
-9.92794e-05 0.000179939 1.26701e-06
-1.01049e-06 1.26701e-06 6.63855e-05
0.00164432 -7.08539e-05 8.38506e-07
-7.08539e-05 -1.17608e-07 -1.73281e-08
8.38506e-07 -1.73281e-08 -8.70023e-05
0.00175784 -0.000172579 -3.88156e-06
-0.000172579 7.51818e-05 9.07373e-07
-3.88156e-06 9.07373e-07 -1.97822e-05
0.00171982 -0.000236596 -3.68988e-06
-0.000236596 0.000124604 2.81031e-06
-3.68988e-06 2.81031e-06 -5.67235e-06
0.00195446 -0.000209107 1.59351e-06
-0.000209107 0.000209448 -3.72241e-07
1.59351e-06 -3.72241e-07 0.000114594
0.000910361 -0.000188519 9.66559e-07
-0.000188519 0.00014561 -2.69138e-06
9.66559e-07 -2.69138e-06 -2.91233e-05
0.00162913 -0.000280553 -4.27119e-06
-0.000280553 7.48908e-05 2.81766e-06
-4.27119e-06 2.81766e-06 -5.62271e-05
0.00116459 -0.000257929 2.77789e-06
-0.000257929 0.000175362 -4.87513e-06
2.77789e-06 -4.87513e-06 -4.61877e-05
0.00161621 -0.00034474 2.47296e-06
-0.00034474 0.00027212 5.08884e-07
2.47296e-06 5.08884e-07 2.74232e-05
0.00170161 -0.000337675 7.65194e-07
-0.000337675 0.000195755 5.28137e-06
7.65194e-07 5.28137e-06 -1.17697e-05
0.00193206 -0.000301329 3.07056e-07
-0.000301329 0.000274316 1.24002e-06
3.07056e-07 1.24002e-06 0.000122613
0.000572181 -2.42455e-05 1.13268e-06
-2.42455e-05 -6.26133e-06 -2.97937e-06
1.13268e-06 -2.97937e-06 -7.88118e-05
0.000480899 -2.8579e-05 -1.0899e-06
-2.8579e-05 -3.38987e-05 -1.4831e-06
-1.0899e-06 -1.4831e-06 -0.000162658
0.000864868 -0.000193765 -4.79961e-07
-0.000193765 0.000128547 1.10841e-06
-4.79961e-07 1.10841e-06 -4.47103e-05
0.000826287 -0.000138703 6.7054e-07
-0.000138703 0.000175064 1.60115e-06
6.7054e-07 1.60115e-06 4.761e-06
0.00135541 -0.000238368 -2.79716e-06
-0.000238368 0.000434664 3.47467e-06
-2.79716e-06 3.47467e-06 0.00025552
0.000522658 -5.89388e-05 -7.29476e-07
-5.89388e-05 -3.98377e-05 -4.71286e-06
-7.29476e-07 -4.71286e-06 -6.51756e-05
0.0013748 0.000171033 -4.70407e-06
0.000171033 8.52482e-05 -1.3624e-06
-4.70407e-06 -1.3624e-06 -7.51776e-05
0.000527359 -4.46518e-05 -2.0251e-07
-4.46518e-05 -2.68508e-05 -3.17218e-06
-2.0251e-07 -3.17218e-06 -0.000100869
0.000740471 6.34715e-05 -1.71411e-06
6.34715e-05 9.24857e-05 -4.32071e-06
-1.71411e-06 -4.32071e-06 -2.64512e-05
0.000749459 3.49725e-05 1.65727e-06
3.49725e-05 0.000122389 -1.69543e-06
1.65727e-06 -1.69543e-06 -1.4474e-05
0.0012678 0.000210961 -6.59072e-06
0.000210961 0.000102649 -2.36414e-06
-6.59072e-06 -2.36414e-06 -7.48162e-05
0.00162611 0.000258407 -1.39859e-07
0.000258407 0.000163793 5.5366e-07
-1.39859e-07 5.5366e-07 -1.54621e-05
0.00095241 0.000191068 -1.79924e-06
0.000191068 0.000176893 -3.53254e-06
-1.79924e-06 -3.53254e-06 -1.83284e-05
0.000768875 0.000220058 -1.83602e-06
0.000220058 -8.15518e-05 -2.43389e-06
-1.83602e-06 -2.43389e-06 -0.000313344
0.00178194 0.000287492 -2.7471e-06
0.000287492 0.000387693 -1.56031e-06
-2.7471e-06 -1.56031e-06 0.000190395
0.00143409 0.000269585 -5.37993e-06
0.000269585 0.000171722 1.23306e-06
-5.37993e-06 1.23306e-06 -3.15413e-05
0.000560011 -5.17291e-05 4.27378e-08
-5.17291e-05 -2.93022e-05 8.53338e-10
4.27378e-08 8.53338e-10 -5.03925e-05
0.000635602 -2.58933e-05 -6.35421e-07
-2.58933e-05 2.339e-05 3.08204e-07
-6.35421e-07 3.08204e-07 -3.60304e-05
0.000928461 0.000146307 4.85778e-08
0.000146307 0.000196286 8.26853e-07
4.85778e-08 8.26853e-07 3.37736e-05
0.000710436 7.21637e-06 -5.2129e-07
7.21637e-06 0.000104875 3.9689e-07
-5.2129e-07 3.9689e-07 -1.24364e-05
0.000664052 0.000101103 6.87837e-07
0.000101103 6.74536e-05 -6.01585e-07
6.87837e-07 -6.01585e-07 -9.43565e-05
0.00167511 0.000227571 3.96408e-08
0.000227571 0.000148017 -7.19904e-07
3.96408e-08 -7.19904e-07 -1.376e-05
0.00152149 0.000274717 5.64919e-07
0.000274717 0.000164744 2.65902e-07
5.64919e-07 2.65902e-07 -2.73682e-05
0.00170142 0.000293536 1.70076e-06
0.000293536 0.000163107 2.41581e-07
1.70076e-06 2.41581e-07 -1.0724e-05
0.00120442 0.000240622 8.36515e-07
0.000240622 0.000295202 1.56048e-06
8.36515e-07 1.56048e-06 6.23215e-05
0.00176397 0.000325199 4.28503e-07
0.000325199 0.000305413 1.34174e-07
4.28503e-07 1.34174e-07 0.000100179
0.00119032 0.00026237 -1.90947e-06
0.00026237 9.30359e-05 1.2741e-07
-1.90947e-06 1.2741e-07 -0.000135212
0.000683672 -1.2474e-05 2.21834e-06
-1.2474e-05 4.14103e-05 2.37254e-06
2.21834e-06 2.37254e-06 -1.07825e-05
0.00079545 4.09366e-05 5.96151e-07
4.09366e-05 0.000143012 2.46506e-06
5.96151e-07 2.46506e-06 4.50038e-05
0.00100766 0.00020638 -2.11235e-06
0.00020638 0.000231217 -3.06105e-07
-2.11235e-06 -3.06105e-07 4.29965e-05
0.00110653 6.54587e-05 8.96797e-08
6.54587e-05 0.000338835 9.15764e-07
8.96797e-08 9.15764e-07 0.000193493
0.0012253 0.000123594 -4.9423e-06
0.000123594 0.000357352 -5.59587e-06
-4.9423e-06 -5.59587e-06 0.000198766
0.00173078 0.000239634 -2.83169e-06
0.000239634 0.00014363 -2.58412e-06
-2.83169e-06 -2.58412e-06 -2.79483e-06
0.0017242 0.000332018 1.71229e-06
0.000332018 0.000225758 4.36185e-07
1.71229e-06 4.36185e-07 2.93899e-05
0.00152127 0.000313539 3.80632e-06
0.000313539 2.93413e-05 -8.53391e-07
3.80632e-06 -8.53391e-07 -0.000142125
0.000934642 0.000231764 -2.90089e-07
0.000231764 0.000109745 2.67257e-06
-2.90089e-07 2.67257e-06 -0.000133696
0.00147328 0.000319213 5.80137e-06
0.000319213 0.000165226 -3.74735e-07
5.80137e-06 -3.74735e-07 -5.89359e-05
0.000645266 -1.41559e-05 -1.7927e-07
-1.41559e-05 1.58911e-05 1.21321e-08
-1.7927e-07 1.21321e-08 -3.32206e-05
0.000562932 1.74137e-05 1.49841e-06
1.74137e-05 -1.56868e-05 1.43337e-06
1.49841e-06 1.43337e-06 -9.1564e-05
0.00057081 4.88699e-06 -5.93778e-07
4.88699e-06 -6.24376e-06 -8.57646e-08
-5.93778e-07 -8.57646e-08 -8.2433e-05
0.00092528 7.98019e-05 4.87942e-07
7.98019e-05 0.000214862 -3.52763e-07
4.87942e-07 -3.52763e-07 0.000119868
0.000695858 6.10754e-05 1.82723e-06
6.10754e-05 7.24916e-05 1.23583e-06
1.82723e-06 1.23583e-06 -6.35318e-06
0.000642695 2.03976e-05 1.83976e-06
2.03976e-05 1.82793e-05 2.21049e-06
1.83976e-06 2.21049e-06 -2.95246e-05
0.000640543 -1.39913e-05 -6.44174e-07
-1.39913e-05 1.46836e-05 1.77272e-08
-6.44174e-07 1.77272e-08 -3.31006e-05
0.0012525 -3.98092e-05 7.75947e-07
-3.98092e-05 0.000362009 2.48023e-06
7.75947e-07 2.48023e-06 0.000351295
0.000640054 -2.61793e-05 -9.76684e-07
-2.61793e-05 1.33181e-05 -2.22077e-06
-9.76684e-07 -2.22077e-06 -3.49674e-05
0.00129438 -4.85177e-05 -5.18912e-06
-4.85177e-05 0.000390777 -1.36733e-06
-5.18912e-06 -1.36733e-06 0.000378675
0.000872497 -3.90217e-05 2.26862e-05
-3.90217e-05 0.000150125 7.38758e-06
2.26862e-05 7.38758e-06 0.000155636
0.00130904 -5.66226e-05 -9.51281e-06
-5.66226e-05 0.000405736 -3.77615e-06
-9.51281e-06 -3.77615e-06 0.00039142
0.0015676 -6.39376e-05 2.05755e-05
-6.39376e-05 0.000570521 1.92876e-06
2.05755e-05 1.92876e-06 0.000576383
0.00228547 -9.07086e-05 -2.86508e-05
-9.07086e-05 0.00100311 -3.53357e-06
-2.86508e-05 -3.53357e-06 0.00100962
0.000497301 5.83595e-05 -1.29432e-06
5.83595e-05 -5.3215e-05 -5.00846e-06
-1.29432e-06 -5.00846e-06 -8.1542e-05
0.000527925 2.86123e-05 2.46706e-07
2.86123e-05 -3.41815e-05 2.59494e-07
2.46706e-07 2.59494e-07 -6.59266e-05
0.00267834 0.000110996 3.6411e-05
0.000110996 0.00124345 -3.36624e-06
3.6411e-05 -3.36624e-06 0.00124375
0.00307307 0.000110249 -6.22957e-06
0.000110249 0.00147931 -3.52641e-07
-6.22957e-06 -3.52641e-07 0.00147957
0.000621793 1.15137e-05 -4.16126e-06
1.15137e-05 2.14859e-05 7.43031e-06
-4.16126e-06 7.43031e-06 -1.6885e-05
0.00351429 0.000106625 -0.000102856
0.000106625 0.00173999 4.9811e-06
-0.000102856 4.9811e-06 0.00174053
0.00140507 0.000145756 -4.35331e-06
0.000145756 7.71528e-05 -8.27113e-07
-4.35331e-06 -8.27113e-07 -7.42441e-05
0.0014163 8.40387e-05 -3.16606e-06
8.40387e-05 5.80548e-05 -2.45933e-07
-3.16606e-06 -2.45933e-07 -7.71187e-05
0.00171445 0.000153572 -2.33423e-08
0.000153572 0.000121576 1.09231e-06
-2.33423e-08 1.09231e-06 -8.73008e-06
0.00181854 7.86366e-05 1.08397e-06
7.86366e-05 0.000135607 8.47962e-07
1.08397e-06 8.47962e-07 3.11839e-05
0.00139686 3.49535e-05 -2.76135e-06
3.49535e-05 4.33976e-05 2.45419e-08
-2.76135e-06 2.45419e-08 -8.23082e-05
0.0010149 6.67666e-06 -1.20042e-05
6.67666e-06 -2.35218e-05 7.42542e-08
-1.20042e-05 7.42542e-08 -0.000139757
0.00140197 1.05594e-05 8.69469e-08
1.05594e-05 4.97737e-05 8.25095e-08
8.69469e-08 8.25095e-08 -7.46074e-05
0.00176646 3.50635e-05 -1.34646e-06
3.50635e-05 0.000113067 5.98012e-08
-1.34646e-06 5.98012e-08 1.3037e-05
0.00174934 0.000121873 -1.79032e-07
0.000121873 0.000109701 5.76232e-08
-1.79032e-07 5.76232e-08 -8.68879e-06
0.00179373 8.10523e-05 1.82785e-06
8.10523e-05 5.99537e-05 8.77589e-07
1.82785e-06 8.77589e-07 -2.00348e-05
0.00169416 0.000188254 -2.80367e-07
0.000188254 0.000131182 -6.98931e-08
-2.80367e-07 -6.98931e-08 -1.31727e-05
0.00174787 0.00017516 -4.17036e-07
0.00017516 7.25031e-05 1.02446e-06
-4.17036e-07 1.02446e-06 -2.98874e-05
0.00173425 1.60389e-06 -1.51747e-06
1.60389e-06 0.000103921 2.92833e-07
-1.51747e-06 2.92833e-07 3.74678e-06
0.00173833 4.09582e-05 8.78503e-07
4.09582e-05 4.02293e-05 4.44835e-07
8.78503e-07 4.44835e-07 -3.69609e-05
0.00187467 0.000134537 -2.54529e-06
0.000134537 0.000118011 -8.43164e-07
-2.54529e-06 -8.43164e-07 3.08231e-05
0.00185731 8.88138e-05 3.4046e-06
8.88138e-05 7.92378e-05 3.54678e-07
3.4046e-06 3.54678e-07 1.81984e-05
0.00169279 0.000190664 -1.23912e-06
0.000190664 8.06848e-05 -2.6042e-06
-1.23912e-06 -2.6042e-06 -4.01204e-05
0.0018459 0.000185545 2.74269e-06
0.000185545 9.05965e-05 4.72267e-07
2.74269e-06 4.72267e-07 5.7548e-06
0.00142895 -1.34466e-05 -4.89484e-06
-1.34466e-05 6.68779e-05 6.89214e-08
-4.89484e-06 6.89214e-08 -5.79202e-05
0.00172705 -8.82936e-05 -6.49253e-06
-8.82936e-05 0.000248843 7.2178e-07
-6.49253e-06 7.2178e-07 0.000120864
0.00171566 -5.66234e-05 2.31781e-06
-5.66234e-05 0.000104155 -9.45716e-07
2.31781e-06 -9.45716e-07 3.11792e-06
0.00170359 -0.000142784 -8.98584e-08
-0.000142784 0.00011429 -1.78405e-07
-8.98584e-08 -1.78405e-07 -1.37761e-05
0.000882019 -0.000159998 -5.01349e-06
-0.000159998 0.000164947 6.23007e-06
-5.01349e-06 6.23007e-06 1.96246e-05
0.00111436 -0.000223932 -4.70285e-06
-0.000223932 0.00018566 3.84957e-06
-4.70285e-06 3.84957e-06 -8.59739e-06
0.000955713 -0.000243796 -2.54593e-06
-0.000243796 -4.83183e-05 6.24069e-07
-2.54593e-06 6.24069e-07 -0.000263599
0.00159963 -0.000210833 -1.31672e-06
-0.000210833 0.000129929 1.66294e-07
-1.31672e-06 1.66294e-07 -2.39495e-05
0.00186053 -0.000207049 3.75467e-06
-0.000207049 0.000179343 -1.84977e-06
3.75467e-06 -1.84977e-06 7.18823e-05
0.00172235 -0.000266247 2.46232e-06
-0.000266247 0.000161387 -1.32557e-06
2.46232e-06 -1.32557e-06 8.59377e-06
0.00166301 -0.000326866 -2.15257e-07
-0.000326866 0.000216432 -1.7669e-06
-2.15257e-07 -1.7669e-06 3.06285e-06
0.00200007 -0.000310564 4.93753e-06
-0.000310564 0.000329282 -6.3624e-06
4.93753e-06 -6.3624e-06 0.00017391
0.000918953 -0.000161678 -5.07466e-07
-0.000161678 0.000180537 1.05562e-06
-5.07466e-07 1.05562e-06 2.19201e-05
0.000685044 -0.000143142 -2.05204e-07
-0.000143142 4.7605e-05 -9.12283e-07
-2.05204e-07 -9.12283e-07 -0.000116757
0.000712001 -2.84075e-05 -1.37705e-06
-2.84075e-05 7.46801e-05 3.36935e-06
-1.37705e-06 3.36935e-06 -8.79285e-06
0.00037698 -6.18092e-06 6.42991e-07
-6.18092e-06 -0.000107953 -1.08548e-06
6.42991e-07 -1.08548e-06 -0.000239506
0.00171773 -3.4162e-05 -2.61194e-08
-3.4162e-05 0.000100913 7.20113e-08
-2.61194e-08 7.20113e-08 -3.68671e-06
0.00176656 -9.83644e-05 1.52476e-07
-9.83644e-05 0.00013629 -2.62324e-07
1.52476e-07 -2.62324e-07 2.0702e-05
0.00170724 -7.06318e-05 1.88524e-06
-7.06318e-05 3.68083e-05 -4.09877e-07
1.88524e-06 -4.09877e-07 -4.65009e-05
0.00172331 -0.000169276 -1.57309e-06
-0.000169276 6.25037e-05 6.96153e-07
-1.57309e-06 6.96153e-07 -3.44986e-05
0.000978787 -0.000186405 -6.4602e-07
-0.000186405 0.000186146 9.51177e-07
-6.4602e-07 9.51177e-07 1.191e-05
0.000987198 -0.0002393 1.29185e-06
-0.0002393 7.3231e-05 -2.02085e-06
1.29185e-06 -2.02085e-06 -0.000142631
0.00161306 -0.000345964 1.40859e-07
-0.000345964 0.000269846 7.35993e-07
1.40859e-07 7.35993e-07 2.21718e-05
0.00166609 -0.000233305 -1.515e-06
-0.000233305 9.82304e-05 7.31787e-07
-1.515e-06 7.31787e-07 -3.54599e-05
0.00181118 -0.000206101 2.12645e-06
-0.000206101 0.000121897 -1.13813e-06
2.12645e-06 -1.13813e-06 3.0971e-05
0.00171189 -0.000339659 -8.6739e-07
-0.000339659 0.000204581 7.7303e-07
-8.6739e-07 7.7303e-07 -4.06834e-06
0.00168257 -0.000283179 -4.6751e-07
-0.000283179 0.000105156 1.06416e-06
-4.6751e-07 1.06416e-06 -2.6281e-05
0.00182225 -0.000295358 3.22358e-06
-0.000295358 0.000199359 -4.97929e-06
3.22358e-06 -4.97929e-06 5.17979e-05
0.001014 -0.000207665 5.12417e-07
-0.000207665 0.000213161 1.30304e-06
5.12417e-07 1.30304e-06 3.74411e-05
0.00120293 -0.000217973 2.67454e-06
-0.000217973 0.00033824 1.0395e-06
2.67454e-06 1.0395e-06 0.00016686
0.000791809 -0.000105963 -1.79013e-07
-0.000105963 0.000150215 -1.37341e-07
-1.79013e-07 -1.37341e-07 -1.90803e-05
0.000487576 -2.30763e-06 -1.14637e-06
-2.30763e-06 -5.58897e-05 3.23846e-07
-1.14637e-06 3.23846e-07 -0.000129893
0.000434484 1.85262e-06 -3.81417e-07
1.85262e-06 -6.37291e-05 -6.52221e-07
-3.81417e-07 -6.52221e-07 -0.000187162
0.00172929 -4.66701e-05 5.74954e-07
-4.66701e-05 4.00526e-05 -8.07972e-07
5.74954e-07 -8.07972e-07 -3.71079e-05
0.00183171 -9.97702e-05 1.43588e-06
-9.97702e-05 9.48584e-05 3.89812e-07
1.43588e-06 3.89812e-07 1.47539e-05
0.00180507 -0.000199871 -1.99359e-07
-0.000199871 7.9964e-05 -1.15759e-06
-1.99359e-07 -1.15759e-06 2.58041e-06
0.00160137 -0.000233065 -7.9225e-07
-0.000233065 2.13535e-05 4.26243e-07
-7.9225e-07 4.26243e-07 -8.19654e-05
0.00106434 -0.00022397 -1.63117e-06
-0.00022397 0.000215415 -3.21076e-06
-1.63117e-06 -3.21076e-06 1.88231e-05
0.00219354 -0.000335182 -2.43542e-06
-0.000335182 0.000343527 1.14819e-06
-2.43542e-06 1.14819e-06 0.000215672
0.000818414 -0.000255678 1.50885e-06
-0.000255678 -5.96275e-05 -4.84681e-06
1.50885e-06 -4.84681e-06 -0.000298783
0.00172807 -0.000388413 1.69806e-06
-0.000388413 0.000288797 2.19009e-06
1.69806e-06 2.19009e-06 2.71676e-05
0.00161076 -0.000330643 2.11994e-06
-0.000330643 0.000112931 3.96854e-06
2.11994e-06 3.96854e-06 -8.7194e-05
0.000292994 1.34815e-05 4.39338e-07
1.34815e-05 -0.000169782 -3.40111e-06
4.39338e-07 -3.40111e-06 -0.000234557
0.000754944 -3.21884e-05 4.80809e-07
-3.21884e-05 0.000133227 -9.74576e-07
4.80809e-07 -9.74576e-07 1.76434e-05
0.000960925 -6.39528e-05 -1.22693e-06
-6.39528e-05 0.000241904 3.54308e-07
-1.22693e-06 3.54308e-07 9.64132e-05
0.00111894 -0.000224491 -4.74672e-06
-0.000224491 0.00026016 8.05177e-07
-4.74672e-06 8.05177e-07 8.12256e-05
0.000546628 -0.000120547 2.67606e-06
-0.000120547 -1.47296e-06 3.16232e-06
2.67606e-06 3.16232e-06 -0.00018508
0.000589627 -0.000182636 -4.61745e-07
-0.000182636 -5.07458e-05 3.68e-07
-4.61745e-07 3.68e-07 -0.000216946
0.000562911 -5.01042e-05 -1.05475e-06
-5.01042e-05 -2.84378e-05 -4.45174e-06
-1.05475e-06 -4.45174e-06 -4.91541e-05
0.000584808 -2.90379e-05 -1.85005e-06
-2.90379e-05 -5.11907e-06 -2.37322e-06
-1.85005e-06 -2.37322e-06 -6.44186e-05
0.00166467 0.000228502 -9.77843e-07
0.000228502 0.000139016 -1.02286e-07
-9.77843e-07 -1.02286e-07 -2.32895e-05
0.000610539 -6.41632e-05 1.47391e-06
-6.41632e-05 4.49979e-05 -2.4349e-06
1.47391e-06 -2.4349e-06 -6.74051e-05
0.000782268 0.000131848 -1.11222e-06
0.000131848 0.000112341 6.99083e-08
-1.11222e-06 6.99083e-08 -4.66962e-05
0.000261238 5.97165e-05 1.58399e-06
5.97165e-05 -0.000173961 1.08173e-06
1.58399e-06 1.08173e-06 -0.000328639
0.00151555 0.000273633 -5.84634e-07
0.000273633 0.000162973 -8.14571e-08
-5.84634e-07 -8.14571e-08 -2.90974e-05
0.00162145 0.000290091 3.07666e-07
0.000290091 0.000118115 2.8698e-07
3.07666e-07 2.8698e-07 -5.60419e-05
0.000850009 0.000208544 8.87139e-07
0.000208544 9.81063e-05 -1.70091e-06
8.87139e-07 -1.70091e-06 -0.000133624
0.00157268 0.000293182 -1.29322e-06
0.000293182 0.000310252 -5.67068e-07
-1.29322e-06 -5.67068e-07 8.04247e-05
0.00174601 0.000324011 -3.13253e-06
0.000324011 0.000285424 -8.92944e-07
-3.13253e-06 -8.92944e-07 7.94923e-05
0.00064307 -1.32557e-05 -2.87331e-07
-1.32557e-05 1.84991e-05 1.23579e-07
-2.87331e-07 1.23579e-07 -3.36852e-05
0.000701181 -1.10634e-05 -9.7475e-07
-1.10634e-05 8.624e-05 3.90732e-07
-9.7475e-07 3.90732e-07 -8.05574e-06
0.00104081 0.000209575 -6.65863e-07
0.000209575 0.000252258 1.12538e-07
-6.65863e-07 1.12538e-07 6.3133e-05
0.000805182 2.26849e-05 2.16529e-07
2.26849e-05 0.000159216 -1.5281e-07
2.16529e-07 -1.5281e-07 2.03324e-05
0.000886267 0.000135077 7.72477e-07
0.000135077 0.000176149 8.06798e-07
7.72477e-07 8.06798e-07 1.03746e-05
0.00171009 0.000241396 -1.81909e-06
0.000241396 0.000131735 -1.34821e-06
-1.81909e-06 -1.34821e-06 -1.58815e-05
0.00168908 0.000328984 1.41675e-06
0.000328984 0.000202364 3.95398e-07
1.41675e-06 3.95398e-07 6.13007e-06
0.00166022 0.000318452 4.88177e-07
0.000318452 0.000110248 2.25274e-07
4.88177e-07 2.25274e-07 -6.02675e-05
0.000828636 0.000227596 8.63354e-08
0.000227596 4.01377e-05 2.92676e-06
8.63354e-08 2.92676e-06 -0.000201976
0.00159086 0.000329324 -1.56955e-06
0.000329324 0.000241442 -7.86053e-07
-1.56955e-06 -7.86053e-07 1.39667e-05
0.000775485 3.00946e-05 8.51435e-07
3.00946e-05 0.000118897 1.79952e-06
8.51435e-07 1.79952e-06 3.52498e-05
0.000434922 -1.20508e-05 -1.4829e-06
-1.20508e-05 -6.23121e-05 2.85534e-06
-1.4829e-06 2.85534e-06 -0.000174848
0.00106853 0.000224866 -3.39057e-06
0.000224866 0.000226705 -1.11985e-06
-3.39057e-06 -1.11985e-06 2.80223e-05
0.00073933 9.4082e-05 -4.14693e-06
9.4082e-05 0.000141068 -3.82805e-06
-4.14693e-06 -3.82805e-06 -2.84609e-05
0.000796754 0.000195125 -1.12533e-06
0.000195125 9.6353e-05 -2.53679e-06
-1.12533e-06 -2.53679e-06 -7.58556e-05
0.00158107 0.000255731 2.94877e-07
0.000255731 -1.36027e-05 -2.24568e-06
2.94877e-07 -2.24568e-06 -0.000137155
0.00187876 0.000369652 3.45011e-06
0.000369652 0.000288868 -1.86335e-06
3.45011e-06 -1.86335e-06 8.02202e-05
0.00150195 0.000326684 3.38309e-06
0.000326684 7.20488e-06 3.35124e-07
3.38309e-06 3.35124e-07 -0.000165523
0.00164354 0.000308935 3.28508e-06
0.000308935 0.000440735 7.36208e-06
3.28508e-06 7.36208e-06 0.00017941
0.00172705 0.000363308 -9.90894e-07
0.000363308 0.000312803 -8.17454e-07
-9.90894e-07 -8.17454e-07 7.65158e-05
0.000626907 -2.38027e-05 -1.38935e-06
-2.38027e-05 6.74567e-06 -2.31181e-06
-1.38935e-06 -2.31181e-06 -4.32412e-05
0.000633583 2.16596e-05 8.94449e-07
2.16596e-05 2.76489e-05 3.50798e-07
8.94449e-07 3.50798e-07 -4.89557e-05
0.000547933 -3.50039e-06 -3.00748e-07
-3.50039e-06 -1.7432e-05 9.08408e-07
-3.00748e-07 9.08408e-07 -0.000102735
0.000467304 -3.18165e-05 -6.93563e-07
-3.18165e-05 -6.81497e-05 -1.16601e-06
-6.93563e-07 -1.16601e-06 -0.000143275
0.000677446 2.90366e-05 -2.27231e-07
2.90366e-05 6.05274e-05 3.08555e-08
-2.27231e-07 3.08555e-08 -1.68263e-05
0.00070135 3.77325e-05 -2.31798e-07
3.77325e-05 7.38438e-05 -3.60237e-07
-2.31798e-07 -3.60237e-07 -1.29963e-05
0.000832284 6.71791e-05 -1.0933e-06
6.71791e-05 0.000159253 -1.40824e-06
-1.0933e-06 -1.40824e-06 6.2326e-05
0.000560029 -1.79286e-05 6.23863e-07
-1.79286e-05 3.33223e-06 3.94147e-07
6.23863e-07 3.94147e-07 -9.26735e-05
0.000700884 5.01585e-05 8.69868e-07
5.01585e-05 7.09698e-05 1.30815e-06
8.69868e-07 1.30815e-06 -3.28637e-06
0.000647563 2.69442e-05 1.85077e-06
2.69442e-05 2.52879e-05 2.24476e-06
1.85077e-06 2.24476e-06 -2.35323e-05
0.000641259 -3.78152e-06 -9.7439e-07
-3.78152e-06 1.76731e-05 1.44241e-08
-9.7439e-07 1.44241e-08 -3.02363e-05
0.00125737 -2.81048e-05 8.54824e-07
-2.81048e-05 0.000362489 2.41575e-06
8.54824e-07 2.41575e-06 0.000352747
0.00061729 -4.07232e-05 -2.92811e-07
-4.07232e-05 3.39119e-06 -2.18853e-06
-2.92811e-07 -2.18853e-06 -4.56325e-05
0.00129663 -3.68169e-05 -4.46079e-06
-3.68169e-05 0.000387786 -1.42948e-06
-4.46079e-06 -1.42948e-06 0.000377323
0.000876223 -3.19553e-05 1.89636e-05
-3.19553e-05 0.000146718 7.71691e-06
1.89636e-05 7.71691e-06 0.000153608
0.00133024 -4.62392e-05 -8.31169e-06
-4.62392e-05 0.000411493 -5.35965e-06
-8.31169e-06 -5.35965e-06 0.000399611
0.000817398 -3.99195e-05 7.02722e-06
-3.99195e-05 0.000117273 2.89299e-06
7.02722e-06 2.89299e-06 0.000122278
0.00221685 -8.50556e-05 -4.99668e-06
-8.50556e-05 0.000954721 -1.87779e-06
-4.99668e-06 -1.87779e-06 0.000962589
0.00052937 4.36312e-05 -3.14633e-07
4.36312e-05 -4.6071e-05 -3.93987e-06
-3.14633e-07 -3.93987e-06 -6.63178e-05
0.000529665 4.60283e-05 -4.34957e-07
4.60283e-05 -3.64211e-05 6.055e-08
-4.34957e-07 6.055e-08 -6.35763e-05
0.00247895 9.63143e-05 2.72617e-05
9.63143e-05 0.00111938 -3.63096e-06
2.72617e-05 -3.63096e-06 0.0011235
0.000581378 1.78231e-05 -3.36179e-06
1.78231e-05 -4.91124e-06 6.09359e-06
-3.36179e-06 6.09359e-06 -3.57564e-05
0.00278742 0.000111766 -7.18478e-06
0.000111766 0.00130719 -4.63077e-07
-7.18478e-06 -4.63077e-07 0.00130747
0.00318212 9.93756e-05 -8.54597e-05
9.93756e-05 0.00154104 4.16965e-06
-8.54597e-05 4.16965e-06 0.00154385
0.00167568 0.000188761 -1.40118e-06
0.000188761 0.000117608 7.35211e-07
-1.40118e-06 7.35211e-07 -2.72994e-05
0.00176532 0.000119788 1.22264e-06
0.000119788 0.000119843 1.12082e-06
1.22264e-06 1.12082e-06 1.72851e-06
0.00178175 0.000173122 1.79638e-06
0.000173122 8.90696e-05 2.24488e-06
1.79638e-06 2.24488e-06 -1.04854e-05
0.00180957 8.02878e-05 2.40353e-06
8.02878e-05 6.89448e-05 1.00159e-06
2.40353e-06 1.00159e-06 -5.86845e-06
0.00175548 2.76371e-05 -5.36475e-07
2.76371e-05 0.000107925 8.85989e-08
-5.36475e-07 8.85989e-08 8.15563e-06
0.00140536 1.32578e-05 -2.72031e-06
1.32578e-05 5.18232e-05 1.09021e-07
-2.72031e-06 1.09021e-07 -7.25659e-05
0.00172829 3.51706e-06 -1.14035e-06
3.51706e-06 9.97379e-05 -1.37508e-08
-1.14035e-06 -1.37508e-08 -2.25585e-06
0.00178537 3.81018e-05 1.53931e-06
3.81018e-05 7.02029e-05 -4.84412e-08
1.53931e-06 -4.84412e-08 -8.95111e-06
0.00184879 0.000132835 -1.4445e-06
0.000132835 0.000104484 -5.85163e-07
-1.4445e-06 -5.85163e-07 1.6273e-05
0.00183503 8.81788e-05 2.14954e-06
8.81788e-05 6.37338e-05 5.52485e-07
2.14954e-06 5.52485e-07 5.96471e-06
0.00171559 0.000189639 -7.56624e-07
0.000189639 0.000101054 -2.59268e-07
-7.56624e-07 -2.59268e-07 -1.97777e-05
0.00181366 0.000187215 3.52975e-06
0.000187215 7.07664e-05 1.41367e-06
3.52975e-06 1.41367e-06 -1.05638e-05
0.00177914 -7.48271e-06 -7.10427e-07
-7.48271e-06 8.23616e-05 2.73853e-08
-7.10427e-07 2.73853e-08 2.43428e-06
0.00180238 4.14078e-05 3.65822e-06
4.14078e-05 3.7124e-05 -4.1765e-08
3.65822e-06 -4.1765e-08 -1.04304e-05
0.00185055 0.000136205 2.51086e-06
0.000136205 6.86347e-05 4.86552e-07
2.51086e-06 4.86552e-07 4.61394e-06
0.00186698 0.000228325 6.02506e-07
0.000228325 0.000114985 -1.052e-06
6.02506e-07 -1.052e-06 2.18458e-05
0.00171849 -3.40535e-05 8.53983e-07
-3.40535e-05 0.000101744 9.47399e-08
8.53983e-07 9.47399e-08 -3.01018e-06
0.0016891 -9.92635e-05 2.0557e-06
-9.92635e-05 9.26695e-05 -1.18254e-06
2.0557e-06 -1.18254e-06 -2.50993e-05
0.00178752 -7.08142e-05 3.90672e-06
-7.08142e-05 8.43734e-05 -1.08612e-06
3.90672e-06 -1.08612e-06 4.57485e-06
0.00169098 -0.000165737 -4.11011e-09
-0.000165737 5.04396e-05 -2.15706e-08
-4.11011e-09 -2.15706e-08 -4.85342e-05
0.00110002 -0.000196787 -1.16688e-06
-0.000196787 0.000258499 4.08935e-06
-1.16688e-06 4.08935e-06 8.15215e-05
0.00100528 -0.000238391 -7.45214e-08
-0.000238391 8.32357e-05 1.59436e-06
-7.45214e-08 1.59436e-06 -0.000129165
0.00163006 -0.000348826 -2.45744e-06
-0.000348826 0.000280303 4.27255e-07
-2.45744e-06 4.27255e-07 2.92745e-05
0.0016125 -0.000230143 5.03571e-07
-0.000230143 7.22587e-05 -5.27786e-07
5.03571e-07 -5.27786e-07 -6.48646e-05
0.00167925 -0.000203674 3.81816e-06
-0.000203674 4.10007e-05 -2.36173e-06
3.81816e-06 -2.36173e-06 -4.61089e-05
0.00173482 -0.000285842 3.29345e-06
-0.000285842 0.000134089 -6.14852e-07
3.29345e-06 -6.14852e-07 2.31548e-06
0.00171764 -0.000340865 -1.84756e-06
-0.000340865 0.000209756 -2.77988e-06
-1.84756e-06 -2.77988e-06 2.2927e-07
0.00171531 -0.000289595 1.88665e-06
-0.000289595 0.000127219 -1.09284e-05
1.88665e-06 -1.09284e-05 -1.62915e-05
0.00121427 -0.000226095 2.06207e-06
-0.000226095 0.000328974 1.55162e-06
2.06207e-06 1.55162e-06 0.000149758
0.00105316 -0.00020366 2.77907e-06
-0.00020366 0.000241667 -2.66796e-06
2.77907e-06 -2.66796e-06 7.64255e-05
0.000708685 -8.53744e-05 1.28383e-06
-8.53744e-05 9.7977e-05 -2.22055e-06
1.28383e-06 -2.22055e-06 -7.1191e-05
0.000386337 1.17099e-05 -1.22153e-06
1.17099e-05 -0.000114531 2.811e-06
-1.22153e-06 2.811e-06 -0.000190534
0.000421853 3.00457e-05 1.422e-06
3.00457e-05 -7.28752e-05 2.12406e-07
1.422e-06 2.12406e-07 -0.000192864
0.00184018 -5.1615e-05 1.5286e-07
-5.1615e-05 0.000108238 -9.16142e-08
1.5286e-07 -9.16142e-08 3.07073e-05
0.00181661 -0.000103361 1.21565e-06
-0.000103361 8.37584e-05 -7.25907e-07
1.21565e-06 -7.25907e-07 2.21267e-06
0.0018003 -0.000194778 -2.09428e-06
-0.000194778 8.18934e-05 2.23344e-07
-2.09428e-06 2.23344e-07 2.89581e-06
0.00111863 -0.000226981 -7.89955e-07
-0.000226981 0.000246279 5.89208e-07
-7.89955e-07 5.89208e-07 4.90888e-05
0.00112461 -0.000276636 1.25559e-06
-0.000276636 0.000108958 -2.52604e-06
1.25559e-06 -2.52604e-06 -0.00012919
0.0016432 -0.000386932 -4.73614e-07
-0.000386932 0.000243473 7.07766e-07
-4.73614e-07 7.07766e-07 -2.16614e-05
0.0016301 -0.000234029 3.69797e-07
-0.000234029 3.33983e-05 -2.7848e-07
3.69797e-07 -2.7848e-07 -7.02544e-05
0.00166497 -0.000329917 7.46794e-07
-0.000329917 0.000147018 -2.2647e-06
7.46794e-07 -2.2647e-06 -4.6843e-05
0.00187357 -0.000315431 -3.44636e-07
-0.000315431 0.000171932 -1.14155e-06
-3.44636e-07 -1.14155e-06 4.41505e-05
0.000326363 3.02561e-05 -1.14133e-07
3.02561e-05 -0.000154177 -8.34056e-07
-1.14133e-07 -8.34056e-07 -0.000215714
0.0011443 -0.000225358 -1.49859e-07
-0.000225358 0.000266068 1.29379e-06
-1.49859e-07 1.29379e-06 8.80323e-05
0.000664971 -0.000186394 -2.14949e-07
-0.000186394 8.72022e-07 5.77522e-07
-2.14949e-07 5.77522e-07 -0.000158907
0.000934411 -0.000152206 -6.15049e-07
-0.000152206 0.000226875 2.84577e-07
-6.15049e-07 2.84577e-07 3.62705e-05
0.00105817 -6.8636e-05 9.17827e-08
-6.8636e-05 0.00029954 -4.84582e-07
9.17827e-08 -4.84582e-07 0.000153799
0.00063441 3.33017e-06 -4.07122e-07
3.33017e-06 5.63889e-05 4.54077e-07
-4.07122e-07 4.54077e-07 -5.62776e-05
0.00156135 -5.61848e-05 7.59273e-07
-5.61848e-05 -8.44937e-05 -1.85327e-07
7.59273e-07 -1.85327e-07 -0.000148623
0.00199313 -0.000144688 2.03075e-06
-0.000144688 0.000119228 -3.41699e-07
2.03075e-06 -3.41699e-07 6.59199e-05
0.00157737 -0.000224158 1.33272e-06
-0.000224158 -6.22815e-05 -8.53702e-07
1.33272e-06 -8.53702e-07 -0.000136981
0.00200631 -0.00029375 -5.17785e-07
-0.00029375 0.000166661 -1.39917e-06
-5.17785e-07 -1.39917e-06 6.8167e-05
0.0012161 -0.000253141 -3.62495e-06
-0.000253141 0.000261737 -3.79889e-06
-3.62495e-06 -3.79889e-06 5.21749e-05
0.00184704 -0.000351576 2.24301e-06
-0.000351576 0.00017783 4.40998e-06
2.24301e-06 4.40998e-06 1.61338e-05
0.001269 -0.000338968 -1.78541e-06
-0.000338968 0.000139245 -2.456e-07
-1.78541e-06 -2.456e-07 -0.000144367
0.00171954 -0.000406136 -1.18156e-06
-0.000406136 0.000278777 2.9644e-06
-1.18156e-06 2.9644e-06 3.1146e-06
0.000318485 4.90263e-05 -1.63516e-06
4.90263e-05 -0.000163084 -2.3012e-06
-1.63516e-06 -2.3012e-06 -0.000215449
0.000746422 -2.41221e-06 6.61084e-08
-2.41221e-06 0.000119218 -7.55874e-07
6.61084e-08 -7.55874e-07 2.13879e-05
0.000965415 -9.58845e-05 -1.46128e-06
-9.58845e-05 0.000252007 1.53212e-06
-1.46128e-06 1.53212e-06 0.000119621
0.000899812 -2.34221e-05 -2.17574e-06
-2.34221e-05 0.000209113 2.09145e-06
-2.17574e-06 2.09145e-06 3.1915e-05
0.000682179 -0.000203213 -2.50824e-06
-0.000203213 -2.23797e-05 -2.55768e-06
-2.50824e-06 -2.55768e-06 -0.00020181
0.000962718 -0.000211994 -5.98071e-06
-0.000211994 0.000188427 1.60538e-06
-5.98071e-06 1.60538e-06 -4.08928e-06
0.000610723 -2.1356e-05 -2.12476e-06
-2.1356e-05 3.37325e-07 -2.22868e-06
-2.12476e-06 -2.22868e-06 -5.18394e-05
0.000605903 -4.79619e-05 1.91963e-07
-4.79619e-05 2.68884e-05 -1.71113e-06
1.91963e-07 -1.71113e-06 -6.26413e-05
0.00169307 0.000243598 -1.91855e-06
0.000243598 0.000120957 -3.31109e-07
-1.91855e-06 -3.31109e-07 -2.79159e-05
0.000494241 -1.68275e-05 6.88064e-07
-1.68275e-05 -2.63999e-05 -1.05022e-06
6.88064e-07 -1.05022e-06 -0.000157774
0.00105596 0.000211005 1.41134e-06
0.000211005 0.000261988 -6.97422e-07
1.41134e-06 -6.97422e-07 7.29125e-05
0.000245104 7.07007e-05 2.64635e-06
7.07007e-05 -0.000205492 1.89513e-06
2.64635e-06 1.89513e-06 -0.000356865
0.00166869 0.000327263 -5.41008e-07
0.000327263 0.000185824 9.47516e-08
-5.41008e-07 9.47516e-08 -1.04652e-05
0.00181966 0.000324826 -2.66301e-06
0.000324826 0.000200497 1.05222e-06
-2.66301e-06 1.05222e-06 3.06975e-05
0.000863819 0.000234805 -1.47747e-06
0.000234805 5.32886e-05 6.99002e-07
-1.47747e-06 6.99002e-07 -0.000189062
0.00171245 0.000338907 -2.12706e-06
0.000338907 0.00032083 1.16925e-06
-2.12706e-06 1.16925e-06 8.91896e-05
0.00069944 7.19287e-06 -8.14478e-07
7.19287e-06 7.15838e-05 1.94636e-07
-8.14478e-07 1.94636e-07 -8.8351e-06
0.000644528 1.16424e-05 6.09263e-07
1.16424e-05 5.86738e-05 1.24167e-06
6.09263e-07 1.24167e-06 -5.4759e-05
0.00128052 0.000243858 -8.78662e-07
0.000243858 0.000360439 -2.78667e-06
-8.78662e-07 -2.78667e-06 0.000155963
0.000558302 2.23971e-05 -7.37086e-07
2.23971e-05 1.12327e-05 -3.6709e-07
-7.37086e-07 -3.6709e-07 -0.000138021
0.000619686 0.000161301 -1.85831e-06
0.000161301 -1.48504e-05 -8.33179e-07
-1.85831e-06 -8.33179e-07 -0.00016742
0.00185611 0.000266855 -2.71686e-06
0.000266855 0.000144335 -1.3609e-06
-2.71686e-06 -1.3609e-06 2.28698e-05
0.00195024 0.000370675 1.68119e-06
0.000370675 0.000333103 -2.19128e-07
1.68119e-06 -2.19128e-07 0.000126194
0.00168362 0.000345652 1.75993e-06
0.000345652 0.000101641 2.14177e-06
1.75993e-06 2.14177e-06 -7.34347e-05
0.00132083 0.000284342 3.37593e-06
0.000284342 0.000265851 4.39009e-06
3.37593e-06 4.39009e-06 -3.71234e-07
0.00159665 0.000358306 -3.0579e-06
0.000358306 0.000233728 4.58137e-07
-3.0579e-06 4.58137e-07 -5.93651e-06
0.000433455 -2.32273e-05 -8.96239e-07
-2.32273e-05 -7.25107e-05 2.41971e-06
-8.96239e-07 2.41971e-06 -0.000164673
0.000189681 7.35499e-05 -7.84677e-08
7.35499e-05 -0.000177276 6.84276e-07
-7.84677e-08 6.84276e-07 -0.00032379
0.00122086 0.000247076 1.81917e-06
0.000247076 0.000285559 3.50179e-06
1.81917e-06 3.50179e-06 6.58269e-05
-0.000588136 5.76168e-05 3.03671e-06
5.76168e-05 -0.000677648 -4.86233e-07
3.03671e-06 -4.86233e-07 -0.00084174
0.00189006 0.000278531 -2.6153e-06
0.000278531 1.6635e-05 -8.30309e-07
-2.6153e-06 -8.30309e-07 -5.13881e-05
0.00217867 0.000332043 6.24455e-07
0.000332043 0.000323909 -2.67617e-07
6.24455e-07 -2.67617e-07 0.00018403
0.001807 0.000399925 -1.62203e-06
0.000399925 0.000246749 -3.49127e-06
-1.62203e-06 -3.49127e-06 2.15178e-05
0.000352486 0.000232379 -1.24755e-06
0.000232379 -0.000359361 1.962e-06
-1.24755e-06 1.962e-06 -0.000624869
0.000692539 4.88168e-05 -9.01908e-07
4.88168e-05 6.72248e-05 -5.76553e-07
-9.01908e-07 -5.76553e-07 -1.23292e-05
0.000626917 2.77147e-05 -3.40156e-08
2.77147e-05 3.44017e-05 4.41251e-07
-3.40156e-08 4.41251e-07 -5.47345e-05
0.000895633 1.64998e-05 -1.67689e-06
1.64998e-05 0.000190897 -1.26198e-06
-1.67689e-06 -1.26198e-06 0.000103374
0.000665087 -2.09805e-06 -1.42725e-06
-2.09805e-06 4.53033e-05 -1.14897e-06
-1.42725e-06 -1.14897e-06 -2.60415e-05
0.000479852 -1.08894e-05 -1.13917e-07
-1.08894e-05 -5.32048e-05 -7.43036e-07
-1.13917e-07 -7.43036e-07 -0.00014014
0.000682845 1.96522e-05 2.19172e-08
1.96522e-05 6.2315e-05 -6.80162e-10
2.19172e-08 -6.80162e-10 -1.29746e-05
0.000671242 6.6611e-05 -5.90078e-07
6.6611e-05 7.47478e-05 -3.59838e-07
-5.90078e-07 -3.59838e-07 -2.63054e-05
0.000634076 1.44161e-05 6.76715e-07
1.44161e-05 4.91224e-05 4.14351e-07
6.76715e-07 4.14351e-07 -4.83257e-05
0.000757088 3.80715e-05 6.26686e-07
3.80715e-05 0.000112218 -7.57863e-07
6.26686e-07 -7.57863e-07 1.97438e-05
0.000724144 -2.70605e-05 1.01397e-06
-2.70605e-05 0.000100864 -9.72463e-07
1.01397e-06 -9.72463e-07 -3.04261e-06
0.000557596 3.86779e-05 5.29539e-07
3.86779e-05 1.58936e-06 1.21642e-06
5.29539e-07 1.21642e-06 -9.68095e-05
0.00067215 6.20615e-05 1.1343e-06
6.20615e-05 5.91052e-05 1.69616e-06
1.1343e-06 1.69616e-06 -1.85139e-05
0.000602436 3.67545e-05 1.38092e-06
3.67545e-05 4.47695e-06 2.05937e-06
1.38092e-06 2.05937e-06 -4.64712e-05
0.000618173 -3.74066e-06 -8.59015e-07
-3.74066e-06 8.94606e-06 1.1824e-08
-8.59015e-07 1.1824e-08 -4.04474e-05
0.00126552 -1.70833e-05 6.77263e-07
-1.70833e-05 0.00036652 2.3503e-06
6.77263e-07 2.3503e-06 0.000357102
0.000617809 -3.73743e-05 -6.7509e-08
-3.73743e-05 5.4811e-06 -2.21308e-06
-6.7509e-08 -2.21308e-06 -4.33758e-05
0.0013034 -2.53605e-05 -3.72943e-06
-2.53605e-05 0.000389744 -1.49966e-06
-3.72943e-06 -1.49966e-06 0.000380051
0.000878183 -2.42909e-05 1.5876e-05
-2.42909e-05 0.000143879 8.02293e-06
1.5876e-05 8.02293e-06 0.000151686
0.00133768 -3.46715e-05 -6.91168e-06
-3.46715e-05 0.000411967 -5.37475e-06
-6.91168e-06 -5.37475e-06 0.000401523
0.000821767 -3.2329e-05 5.67498e-06
-3.2329e-05 0.000113928 3.00026e-06
5.67498e-06 3.00026e-06 0.000120612
0.000757148 -3.88508e-05 -1.42022e-06
-3.88508e-05 8.13872e-05 -2.07873e-06
-1.42022e-06 -2.07873e-06 8.64419e-05
0.000552016 3.60223e-05 3.22037e-07
3.60223e-05 -4.34863e-05 -3.41703e-06
3.22037e-07 -3.41703e-06 -5.81056e-05
0.000547017 4.88618e-05 -2.89487e-08
4.88618e-05 -3.43403e-05 1.21831e-07
-2.89487e-08 1.21831e-07 -5.57141e-05
0.0022739 8.01125e-05 2.17474e-05
8.01125e-05 0.000990725 -3.77817e-06
2.17474e-05 -3.77817e-06 0.000999122
0.000557546 3.76372e-05 -2.10674e-06
3.76372e-05 -2.11016e-05 5.25731e-06
-2.10674e-06 5.25731e-06 -4.76205e-05
0.00254077 9.76261e-05 -5.7019e-06
9.76261e-05 0.00115591 -3.97156e-07
-5.7019e-06 -3.97156e-07 0.00115975
0.00286553 9.46944e-05 -6.47124e-05
9.46944e-05 0.00135073 3.51258e-06
-6.47124e-05 3.51258e-06 0.00135505
0.00173277 0.000188476 4.4261e-07
0.000188476 0.000118353 2.1473e-06
4.4261e-07 2.1473e-06 -2.50875e-06
0.00182047 0.000130931 -5.70356e-07
0.000130931 8.97784e-05 5.14323e-07
-5.70356e-07 5.14323e-07 5.64442e-07
0.00178131 0.00018872 3.18324e-06
0.00018872 5.08316e-05 1.61656e-06
3.18324e-06 1.61656e-06 -2.697e-05
0.00177491 8.71423e-05 3.61643e-07
8.71423e-05 2.63105e-05 3.21828e-07
3.61643e-07 3.21828e-07 -2.85992e-05
0.00181179 3.5655e-05 2.46746e-06
3.5655e-05 8.82485e-05 -4.39694e-07
2.46746e-06 -4.39694e-07 6.79833e-06
0.00172704 2.02083e-06 -6.45502e-07
2.02083e-06 9.79159e-05 -3.94456e-08
-6.45502e-07 -3.94456e-08 -5.8235e-06
0.00180958 -4.02506e-06 -8.9716e-08
-4.02506e-06 0.000100547 -7.4976e-08
-8.9716e-08 -7.4976e-08 2.12655e-05
0.00179447 4.11427e-05 1.46321e-06
4.11427e-05 4.40216e-05 9.63764e-08
1.46321e-06 9.63764e-08 -6.3172e-06
0.00184484 0.000140782 5.87677e-07
0.000140782 6.21747e-05 -4.65768e-07
5.87677e-07 -4.65768e-07 -1.92421e-06
0.00190666 0.00022539 1.46842e-07
0.00022539 0.000125329 1.6042e-07
1.46842e-07 1.6042e-07 3.45379e-05
0.00176038 -1.07229e-05 -1.28882e-07
-1.07229e-05 3.5573e-05 -6.59657e-07
-1.28882e-07 -6.59657e-07 -1.90379e-05
0.00190727 8.80701e-05 3.0419e-06
8.80701e-05 4.21933e-05 1.39514e-07
3.0419e-06 1.39514e-07 1.19719e-05
0.00190962 0.000204249 2.30964e-06
0.000204249 4.9702e-05 1.30191e-08
2.30964e-06 1.30191e-08 -1.54583e-05
0.00195436 -5.64596e-05 1.52489e-06
-5.64596e-05 0.000178257 5.80462e-07
1.52489e-06 5.80462e-07 0.00010039
0.00179701 -0.000106757 4.29402e-07
-0.000106757 7.03254e-05 -6.50599e-07
4.29402e-07 -6.50599e-07 -1.26538e-05
0.00179339 -0.000189299 -1.58901e-06
-0.000189299 8.35058e-05 5.0449e-07
-1.58901e-06 5.0449e-07 2.85917e-06
0.00123655 -0.000235632 -5.67003e-07
-0.000235632 0.000313622 4.59788e-06
-5.67003e-07 4.59788e-06 0.000114967
0.00129974 -0.000285789 -5.22503e-07
-0.000285789 0.000200992 1.26055e-06
-5.22503e-07 1.26055e-06 -3.37367e-05
0.00156585 -0.000386736 -1.92583e-06
-0.000386736 0.000203229 -8.52092e-07
-1.92583e-06 -8.52092e-07 -6.46695e-05
0.00165484 -0.000234858 4.98523e-07
-0.000234858 4.30952e-05 -3.99636e-07
4.98523e-07 -3.99636e-07 -6.08261e-05
0.00155925 -0.000298137 -1.78317e-07
-0.000298137 4.26753e-07 -3.05868e-06
-1.78317e-07 -3.05868e-06 -0.000127727
0.00172995 -0.000331133 -2.31241e-06
-0.000331133 0.000184832 -7.84057e-06
-2.31241e-06 -7.84057e-06 -3.21753e-06
0.00120036 -0.000229183 2.99508e-06
-0.000229183 0.000290949 2.95021e-06
2.99508e-06 2.95021e-06 0.000113075
0.000697599 -0.000185725 -6.96828e-06
-0.000185725 2.92411e-05 7.42106e-07
-6.96828e-06 7.42106e-07 -0.000123667
0.00147066 -0.00019079 7.12456e-07
-0.00019079 0.000549337 1.54756e-07
7.12456e-07 1.54756e-07 0.000345618
0.000379419 2.01419e-05 3.13437e-07
2.01419e-05 -0.000123493 8.79981e-07
3.13437e-07 8.79981e-07 -0.000184079
0.000929106 -7.0432e-05 1.65716e-06
-7.0432e-05 0.000220069 -2.40718e-07
1.65716e-06 -2.40718e-07 8.01382e-05
0.000506929 3.4745e-05 2.17059e-06
3.4745e-05 -2.49098e-05 1.6071e-06
2.17059e-06 1.6071e-06 -0.000134415
0.00174838 -5.72694e-05 -7.12778e-07
-5.72694e-05 2.48108e-05 6.72375e-08
-7.12778e-07 6.72375e-08 -3.93372e-05
0.00195447 -0.000149256 1.66953e-07
-0.000149256 9.86905e-05 -1.13586e-07
1.66953e-07 -1.13586e-07 4.12063e-05
0.0017128 -0.000227153 -1.194e-07
-0.000227153 1.85187e-05 4.57603e-07
-1.194e-07 4.57603e-07 -5.72524e-05
0.00117301 -0.000246636 -1.00956e-06
-0.000246636 0.000235246 1.20242e-06
-1.00956e-06 1.20242e-06 2.6726e-05
0.00110471 -0.000319591 -8.2568e-07
-0.000319591 4.75048e-05 -4.06789e-07
-8.2568e-07 -4.06789e-07 -0.000226795
0.00170112 -0.000400417 -3.17898e-06
-0.000400417 0.00027068 -4.63047e-09
-3.17898e-06 -4.63047e-09 2.92751e-06
0.00196287 -0.000297825 1.06715e-06
-0.000297825 0.000144754 -4.62341e-07
1.06715e-06 -4.62341e-07 4.42499e-05
0.00169865 -0.000345434 1.04972e-06
-0.000345434 8.49798e-05 -2.54442e-06
1.04972e-06 -2.54442e-06 -7.65907e-05
0.00047677 3.97419e-05 -1.54698e-07
3.97419e-05 -7.28971e-05 -9.01754e-07
-1.54698e-07 -9.01754e-07 -0.000121614
0.000756369 -9.27359e-06 -5.5056e-07
-9.27359e-06 0.000124158 3.15447e-07
-5.5056e-07 3.15447e-07 2.68233e-05
0.000327548 -0.000170316 -2.88089e-06
-0.000170316 -0.000225445 3.52231e-06
-2.88089e-06 3.52231e-06 -0.000395708
0.00139396 -0.00023446 3.45132e-07
-0.00023446 0.000451644 -2.81083e-07
3.45132e-07 -2.81083e-07 0.00025959
0.000954707 -6.03264e-05 -1.59053e-07
-6.03264e-05 0.000248718 -5.97177e-07
-1.59053e-07 -5.97177e-07 7.15937e-05
0.00085125 -7.00621e-05 -4.46307e-07
-7.00621e-05 0.000185391 1.3379e-06
-4.46307e-07 1.3379e-06 5.26616e-05
0.00188164 -7.78677e-05 2.8869e-06
-7.78677e-05 3.93775e-05 5.58327e-08
2.8869e-06 5.58327e-08 1.35863e-06
0.00193855 -0.000211574 7.86201e-07
-0.000211574 4.36883e-05 -1.26165e-06
7.86201e-07 -1.26165e-06 1.47028e-05
0.00187508 -0.000249448 8.64473e-07
-0.000249448 6.94611e-05 -1.3343e-06
8.64473e-07 -1.3343e-06 2.58452e-06
0.00190504 -0.00039046 6.01693e-06
-0.00039046 8.04349e-05 -1.63735e-06
6.01693e-06 -1.63735e-06 -4.51095e-05
0.000408799 -0.000211437 -4.8005e-06
-0.000211437 -0.000242506 -4.90049e-06
-4.8005e-06 -4.90049e-06 -0.000468505
0.00167293 -0.000402987 -2.55888e-07
-0.000402987 0.000219104 1.11416e-05
-2.55888e-07 1.11416e-05 -3.34722e-05
0.00192282 -0.000429287 -8.67252e-07
-0.000429287 0.000480856 -2.16835e-06
-8.67252e-07 -2.16835e-06 0.000164799
0.000639471 4.02903e-05 2.64863e-07
4.02903e-05 1.46933e-05 -1.42384e-06
2.64863e-07 -1.42384e-06 -2.66222e-05
0.000698149 -9.89832e-05 2.50688e-06
-9.89832e-05 8.56941e-05 -1.83962e-06
2.50688e-06 -1.83962e-06 7.12915e-06
0.000470551 3.94455e-05 -1.65916e-06
3.94455e-05 -4.81585e-05 -1.14351e-06
-1.65916e-06 -1.14351e-06 -0.000133145
0.00070851 -4.25646e-05 -5.62204e-07
-4.25646e-05 0.000113445 2.01425e-06
-5.62204e-07 2.01425e-06 -9.96264e-06
0.000630127 -1.97551e-05 1.06558e-06
-1.97551e-05 4.7153e-05 -8.82783e-07
1.06558e-06 -8.82783e-07 -9.10555e-05
0.000138693 -9.83585e-05 1.71387e-07
-9.83585e-05 -0.000216151 1.08375e-06
1.71387e-07 1.08375e-06 -0.000389547
9.49052e-05 -0.000166511 -2.31609e-06
-0.000166511 -0.000391647 -3.7284e-06
-2.31609e-06 -3.7284e-06 -0.000553465
0.00249718 -0.000332918 -9.9092e-06
-0.000332918 0.0011504 2.47168e-06
-9.9092e-06 2.47168e-06 0.000881161
0.000647217 -1.23245e-05 -1.12929e-06
-1.23245e-05 3.57743e-05 -9.02943e-07
-1.12929e-06 -9.02943e-07 -3.97e-05
0.000853415 1.72841e-05 5.10299e-07
1.72841e-05 0.000183327 -1.30979e-06
5.10299e-07 -1.30979e-06 6.61439e-05
0.00212645 0.000276986 -1.39622e-06
0.000276986 0.0003011 -1.2918e-07
-1.39622e-06 -1.2918e-07 0.000181904
0.000799016 5.90471e-05 -9.47952e-07
5.90471e-05 0.000160856 2.49542e-06
-9.47952e-07 2.49542e-06 1.07439e-06
0.00150052 0.0002646 1.22011e-06
0.0002646 0.000500294 -2.34087e-06
1.22011e-06 -2.34087e-06 0.000287854
0.000432747 0.000126477 -5.77711e-08
0.000126477 -0.000128637 1.43197e-06
-5.77711e-08 1.43197e-06 -0.000262804
0.0019837 0.000367957 -3.02471e-06
0.000367957 0.000357625 1.64203e-07
-3.02471e-06 1.64203e-07 0.00015318
0.00185337 0.000363376 -2.85054e-06
0.000363376 0.000189666 3.99016e-06
-2.85054e-06 3.99016e-06 1.25534e-05
0.000984151 0.000260565 -2.47387e-07
0.000260565 8.08499e-05 -7.17297e-07
-2.47387e-07 -7.17297e-07 -0.000190165
0.00151326 0.000358068 -7.55965e-07
0.000358068 0.000178634 1.82185e-06
-7.55965e-07 1.82185e-06 -6.45264e-05
0.0004535 2.21848e-06 -1.75679e-07
2.21848e-06 -5.23952e-05 1.13328e-06
-1.75679e-07 1.13328e-06 -0.000151392
0.000359969 8.77803e-05 -5.22528e-07
8.77803e-05 -7.59137e-05 -1.97595e-06
-5.22528e-07 -1.97595e-06 -0.00022618
0.00124318 0.000251434 2.88482e-06
0.000251434 0.0003093 -1.91311e-06
2.88482e-06 -1.91311e-06 8.42338e-05
0.000614727 0.000147313 -1.29345e-06
0.000147313 1.43587e-05 -3.15108e-06
-1.29345e-06 -3.15108e-06 -0.000158584
0.00199007 0.00027497 9.50615e-07
0.00027497 7.00861e-05 -1.02537e-06
9.50615e-07 -1.02537e-06 3.73334e-06
0.00206089 0.000332756 3.13861e-06
0.000332756 0.000261262 7.85863e-07
3.13861e-06 7.85863e-07 0.000116941
0.00179563 0.000392915 -1.28986e-06
0.000392915 0.000233993 1.36038e-07
-1.28986e-06 1.36038e-07 1.15093e-05
0.00109506 0.000298592 4.27048e-07
0.000298592 4.74035e-05 4.00392e-07
4.27048e-07 4.00392e-07 -0.000221492
0.000514459 2.81755e-05 -8.91795e-07
2.81755e-05 -2.5232e-05 2.52828e-06
-8.91795e-07 2.52828e-06 -0.000123301
0.00191472 0.000219194 -1.87375e-06
0.000219194 1.91501e-06 1.36505e-06
-1.87375e-06 1.36505e-06 -3.00756e-05
0.00150035 0.000242936 3.80841e-07
0.000242936 0.000589052 2.50591e-06
3.80841e-07 2.50591e-06 0.000391027
0.00118363 0.000256838 2.79812e-06
0.000256838 0.000243615 4.127e-06
2.79812e-06 4.127e-06 1.39135e-05
0.00236537 0.000326252 -1.67242e-05
0.000326252 0.000334779 -4.14793e-06
-1.67242e-05 -4.14793e-06 0.000241348
0.00112023 0.000364556 -2.52965e-06
0.000364556 -0.000217404 -6.79527e-06
-2.52965e-06 -6.79527e-06 -0.000421918
0.00191189 0.00039926 -2.34582e-06
0.00039926 0.000428071 2.74297e-06
-2.34582e-06 2.74297e-06 0.000152583
0.000702337 4.15592e-05 -1.24591e-06
4.15592e-05 7.87048e-05 -3.45119e-07
-1.24591e-06 -3.45119e-07 -9.98887e-06
0.000740259 3.34142e-05 -1.00889e-06
3.34142e-05 0.000104924 -4.27598e-07
-1.00889e-06 -4.27598e-07 1.48632e-05
0.000952594 2.01896e-05 -1.28013e-06
2.01896e-05 0.000238451 -3.39455e-08
-1.28013e-06 -3.39455e-08 0.000149252
0.000646699 -9.63192e-06 -1.16448e-07
-9.63192e-06 4.3331e-05 -1.69531e-06
-1.16448e-07 -1.69531e-06 -3.35069e-05
0.000682151 3.72004e-05 7.35018e-07
3.72004e-05 7.87413e-05 9.05314e-08
7.35018e-07 9.05314e-08 -1.92168e-05
0.000418502 4.96492e-06 -6.32291e-07
4.96492e-06 -6.17361e-05 6.80429e-07
-6.32291e-07 6.80429e-07 -0.000165559
0.000655279 -4.42864e-08 -4.93415e-07
-4.42864e-08 5.51253e-05 -1.89769e-08
-4.93415e-07 -1.89769e-08 -2.66419e-05
0.000534838 -2.44164e-05 -6.58827e-07
-2.44164e-05 -4.47789e-06 3.90353e-07
-6.58827e-07 3.90353e-07 -0.000106638
0.000581684 -1.01442e-05 6.17466e-07
-1.01442e-05 1.46285e-05 -8.98888e-08
6.17466e-07 -8.98888e-08 -7.6513e-05
0.000788539 3.03805e-05 4.16596e-07
3.03805e-05 0.000148518 -4.52034e-08
4.16596e-07 -4.52034e-08 3.72268e-05
0.000993837 2.68192e-05 1.40274e-07
2.68192e-05 0.000236293 -1.3995e-06
1.40274e-07 -1.3995e-06 0.000151994
0.000726823 -3.24027e-05 1.28e-06
-3.24027e-05 9.45729e-05 -1.30597e-06
1.28e-06 -1.30597e-06 -1.04981e-06
0.000774019 2.68269e-05 3.51264e-08
2.68269e-05 0.000137009 7.74347e-08
3.51264e-08 7.74347e-08 2.2291e-05
0.000650462 3.039e-05 1.89126e-06
3.039e-05 6.46623e-05 1.40577e-06
1.89126e-06 1.40577e-06 -4.49319e-05
0.000678224 1.91529e-05 1.36816e-06
1.91529e-05 6.22604e-05 1.73624e-06
1.36816e-06 1.73624e-06 -1.77175e-05
0.000601158 -2.16058e-05 -1.95851e-07
-2.16058e-05 3.62266e-06 1.86535e-06
-1.95851e-07 1.86535e-06 -4.68783e-05
0.000615626 -8.74484e-06 -3.00999e-07
-8.74484e-06 1.01073e-05 3.72596e-08
-3.00999e-07 3.72596e-08 -3.9428e-05
0.00127557 -6.71768e-06 5.8305e-07
-6.71768e-06 0.000372862 2.23767e-06
5.8305e-07 2.23767e-06 0.000363023
0.000626326 -2.68641e-05 6.42243e-07
-2.68641e-05 1.28191e-05 -2.34361e-06
6.42243e-07 -2.34361e-06 -3.5918e-05
0.00130816 -1.45866e-05 -2.80889e-06
-1.45866e-05 0.000392191 -1.55632e-06
-2.80889e-06 -1.55632e-06 0.000382657
0.000871647 -1.65839e-05 1.18677e-05
-1.65839e-05 0.000137385 8.21416e-06
1.18677e-05 8.21416e-06 0.000145738
0.0013492 -2.35471e-05 -4.93902e-06
-2.35471e-05 0.000416997 -5.48294e-06
-4.93902e-06 -5.48294e-06 0.000407152
0.000831265 -2.46467e-05 3.79772e-06
-2.46467e-05 0.000115184 3.11035e-06
3.79772e-06 3.11035e-06 0.000122915
0.000773847 -3.12154e-05 -9.64039e-07
-3.12154e-05 8.4654e-05 -2.05747e-06
-9.64039e-07 -2.05747e-06 9.15452e-05
0.000670112 1.1275e-05 8.84978e-07
1.1275e-05 2.91e-05 -1.64055e-06
8.84978e-07 -1.64055e-06 -8.89444e-06
0.000566977 2.81566e-05 4.20387e-07
2.81566e-05 -4.19902e-05 -3.49614e-06
4.20387e-07 -3.49614e-06 -5.29676e-05
0.00057337 3.69744e-05 5.67989e-08
3.69744e-05 -3.05295e-05 9.95058e-08
5.67989e-08 9.95058e-08 -4.54921e-05
0.00215689 6.50635e-05 1.87749e-05
6.50635e-05 0.000913165 -3.98754e-06
1.87749e-05 -3.98754e-06 0.000925341
0.000573016 5.34731e-05 1.95819e-06
5.34731e-05 -1.76379e-05 4.64429e-06
1.95819e-06 4.64429e-06 -4.02925e-05
0.00236917 8.32618e-05 -3.79431e-06
8.32618e-05 0.00104754 -2.78311e-07
-3.79431e-06 -2.78311e-07 0.00105512
0.00264217 9.91547e-05 -3.44485e-05
9.91547e-05 0.00121549 3.5662e-06
-3.44485e-05 3.5662e-06 0.00121903
0.00194746 0.000222562 -6.57951e-08
0.000222562 0.000136394 1.88701e-06
-6.57951e-08 1.88701e-06 4.79341e-05
0.00184094 0.000145453 -1.5936e-06
0.000145453 5.68097e-05 -3.5406e-07
-1.5936e-06 -3.5406e-07 -7.52749e-06
0.00180741 4.33601e-05 -3.22537e-07
4.33601e-05 6.29597e-05 6.24245e-09
-3.22537e-07 6.24245e-09 1.01036e-05
0.00183284 -4.62323e-07 8.45634e-07
-4.62323e-07 0.00011438 -1.98651e-07
8.45634e-07 -1.98651e-07 3.57425e-05
0.00178365 -5.79218e-06 -1.39403e-06
-5.79218e-06 4.82033e-05 -1.34962e-07
-1.39403e-06 -1.34962e-07 -3.77513e-06
0.00189345 8.30846e-05 2.65612e-07
8.30846e-05 3.61413e-05 1.02048e-08
2.65612e-07 1.02048e-08 4.47115e-06
0.00190056 0.000207625 -6.23152e-07
0.000207625 4.29463e-05 -2.34929e-07
-6.23152e-07 -2.34929e-07 -2.07207e-05
0.00189475 1.54782e-06 2.93403e-06
1.54782e-06 2.62911e-05 -3.08471e-07
2.93403e-06 -3.08471e-07 8.69983e-06
0.00197014 0.000123367 1.8511e-06
0.000123367 2.44298e-05 -4.83904e-08
1.8511e-06 -4.83904e-08 -2.11029e-06
0.00203915 6.86242e-05 -4.39304e-06
6.86242e-05 0.000116098 2.96787e-06
-4.39304e-06 2.96787e-06 0.000142876
0.00193421 -5.84475e-05 -2.42508e-06
-5.84475e-05 0.000133019 -2.45154e-08
-2.42508e-06 -2.45154e-08 6.88592e-05
0.00191831 -0.00015485 -3.12744e-06
-0.00015485 7.77791e-05 9.25367e-07
-3.12744e-06 9.25367e-07 1.64716e-05
0.00185467 -0.00023034 -2.5859e-06
-0.00023034 0.000102504 1.38215e-06
-2.5859e-06 1.38215e-06 2.59534e-05
0.00120331 -0.000246749 -1.81127e-07
-0.000246749 0.000250287 6.23873e-06
-1.81127e-07 6.23873e-06 4.15007e-05
0.00102225 -0.000308345 8.95937e-07
-0.000308345 3.83503e-06 3.09069e-06
8.95937e-07 3.09069e-06 -0.000263601
0.00169727 -0.000394228 -4.39454e-06
-0.000394228 0.000273919 -3.44104e-06
-4.39454e-06 -3.44104e-06 1.42539e-05
0.00192413 -0.000299858 2.28213e-06
-0.000299858 0.000126294 -1.09945e-07
2.28213e-06 -1.09945e-07 2.41677e-05
0.00152549 -0.00033327 -4.11733e-06
-0.00033327 -1.49013e-05 -6.11631e-06
-4.11733e-06 -6.11631e-06 -0.000175162
0.000114461 -0.000149471 -2.27007e-06
-0.000149471 -0.000345 7.54686e-06
-2.27007e-06 7.54686e-06 -0.000508348
0.00195564 -0.000271393 1.21546e-05
-0.000271393 0.000792629 -3.20484e-06
1.21546e-05 -3.20484e-06 0.000597481
0.00069854 -2.19422e-05 1.89283e-07
-2.19422e-05 8.94212e-05 -6.04422e-07
1.89283e-07 -6.04422e-07 -7.266e-05
0.000588389 1.527e-05 -1.41297e-07
1.527e-05 -9.23334e-06 5.95756e-07
-1.41297e-07 5.95756e-07 -5.47543e-05
0.000809519 2.0662e-05 7.26026e-07
2.0662e-05 0.00015235 1.04618e-06
7.26026e-07 1.04618e-06 5.57086e-05
0.00084335 -4.17296e-05 7.64535e-07
-4.17296e-05 0.000181713 1.7141e-06
7.64535e-07 1.7141e-06 4.77766e-05
0.0018769 -7.93884e-05 2.12619e-07
-7.93884e-05 3.18315e-05 -4.40879e-08
2.12619e-07 -4.40879e-08 -2.91519e-06
0.000617612 1.57009e-05 1.02437e-06
1.57009e-05 1.95375e-06 1.11431e-07
1.02437e-06 1.11431e-07 -3.89749e-05
0.000563197 -3.10828e-05 -1.68138e-06
-3.10828e-05 -9.03721e-06 -5.56828e-08
-1.68138e-06 -5.56828e-08 -7.7542e-05
0.00191839 -0.0002032 -3.10692e-07
-0.0002032 4.82882e-05 2.56734e-07
-3.10692e-07 2.56734e-07 1.37066e-05
0.00183934 -0.000249985 -1.56325e-06
-0.000249985 4.63606e-05 3.51233e-07
-1.56325e-06 3.51233e-07 -2.11242e-05
0.000602496 -0.000225709 6.03066e-07
-0.000225709 -0.000118788 2.79539e-06
6.03066e-07 2.79539e-06 -0.000341591
0.001873 -0.000423864 -3.99974e-07
-0.000423864 0.000459086 2.22199e-07
-3.99974e-07 2.22199e-07 0.000140032
0.00153064 -0.000394561 2.61938e-06
-0.000394561 0.000119216 -1.2972e-06
2.61938e-06 -1.2972e-06 -0.000126951
0.00200643 -0.000393424 2.39163e-06
-0.000393424 0.000150512 -9.90236e-07
2.39163e-06 -9.90236e-07 2.22994e-05
0.000734277 -1.61961e-05 9.57231e-07
-1.61961e-05 0.000110236 -1.0746e-06
9.57231e-07 -1.0746e-06 2.4982e-05
0.000748736 -2.73825e-05 2.15537e-07
-2.73825e-05 0.000137207 1.1897e-06
2.15537e-07 1.1897e-06 1.1861e-05
0.000948102 -0.000218864 -2.98808e-06
-0.000218864 0.00010147 -8.71346e-07
-2.98808e-06 -8.71346e-07 -7.11914e-05
0.00151945 -0.000250957 1.26525e-05
-0.000250957 0.000576694 -3.40345e-06
1.26525e-05 -3.40345e-06 0.000352318
0.000482721 -8.20835e-05 -2.41874e-06
-8.20835e-05 -2.75424e-05 -1.14497e-09
-2.41874e-06 -1.14497e-09 -0.000196619
0.00070498 -1.95201e-05 4.26299e-07
-1.95201e-05 9.97828e-05 -6.13972e-07
4.26299e-07 -6.13972e-07 -4.18894e-05
0.00191737 -8.77663e-05 2.96471e-06
-8.77663e-05 -8.63653e-06 -7.59207e-07
2.96471e-06 -7.59207e-07 -3.30167e-05
0.00185485 -0.00022586 3.24577e-07
-0.00022586 -2.82511e-05 -6.18428e-07
3.24577e-07 -6.18428e-07 -1.11664e-05
0.00204157 -0.000358101 -1.31086e-06
-0.000358101 8.25633e-05 -2.44793e-06
-1.31086e-06 -2.44793e-06 -6.31843e-07
0.00163578 -0.000443103 3.34244e-06
-0.000443103 4.93271e-05 6.56981e-07
3.34244e-06 6.56981e-07 -0.000109451
0.00076368 -0.000205936 -8.82283e-06
-0.000205936 -1.34075e-05 -8.09538e-06
-8.82283e-06 -8.09538e-06 -0.000235091
0.00234687 -0.000499209 -7.1355e-06
-0.000499209 0.00069915 5.27114e-06
-7.1355e-06 5.27114e-06 0.000360621
0.000428911 5.64902e-05 -1.19951e-06
5.64902e-05 -7.87145e-05 -2.38343e-06
-1.19951e-06 -2.38343e-06 -0.000152119
0.000679459 -5.89097e-05 2.86703e-06
-5.89097e-05 6.21176e-05 -9.43353e-07
2.86703e-06 -9.43353e-07 -9.32685e-06
0.000926479 -8.00368e-05 1.50878e-06
-8.00368e-05 0.000218468 7.95374e-07
1.50878e-06 7.95374e-07 0.000123942
0.000462989 1.96156e-05 -1.53253e-06
1.96156e-05 -3.43081e-05 2.39825e-06
-1.53253e-06 2.39825e-06 -0.000152452
0.000942185 -5.88196e-05 -1.1828e-06
-5.88196e-05 0.00023672 1.37314e-06
-1.1828e-06 1.37314e-06 0.000112208
0.00101569 -4.66419e-05 2.49743e-06
-4.66419e-05 0.000242861 7.85173e-07
2.49743e-06 7.85173e-07 8.91e-05
-0.000348906 -9.05579e-05 6.25496e-06
-9.05579e-05 -0.000368076 6.62659e-07
6.25496e-06 6.62659e-07 -0.000664454
0.000146508 -0.00021973 -1.77534e-05
-0.00021973 -0.000347671 2.22329e-06
-1.77534e-05 2.22329e-06 -0.000515713
0.000454237 3.86785e-05 6.16636e-08
3.86785e-05 -4.75586e-05 -9.60021e-07
6.16636e-08 -9.60021e-07 -0.000151075
0.000738402 0.000118785 -3.38315e-06
0.000118785 0.000144394 -2.75462e-06
-3.38315e-06 -2.75462e-06 -9.56489e-06
0.00206625 0.000271638 -2.24796e-06
0.000271638 0.0001102 -1.06443e-06
-2.24796e-06 -1.06443e-06 4.51666e-05
0.00198774 0.000335911 -5.89788e-07
0.000335911 0.000223545 1.98546e-06
-5.89788e-07 1.98546e-06 7.44214e-05
0.0017358 0.000209799 -6.4466e-06
0.000209799 0.000648444 -2.08776e-06
-6.4466e-06 -2.08776e-06 0.000474465
0.00116043 0.000245345 -2.57809e-06
0.000245345 0.000271087 -8.84116e-06
-2.57809e-06 -8.84116e-06 4.31684e-05
0.00184435 0.000391091 7.84192e-07
0.000391091 0.000253577 1.50486e-06
7.84192e-07 1.50486e-06 3.2752e-05
0.00178177 0.000358264 1.0993e-07
0.000358264 0.000425879 -9.28683e-07
1.0993e-07 -9.28683e-07 0.000153548
0.000608568 5.2601e-05 8.05175e-07
5.2601e-05 4.10635e-05 -8.80346e-07
8.05175e-07 -8.80346e-07 -6.6419e-05
0.00198294 0.000211153 -3.68431e-07
0.000211153 2.71274e-05 -2.66678e-07
-3.68431e-07 -2.66678e-07 3.85619e-06
0.000972442 0.000175906 8.74616e-07
0.000175906 0.000277905 1.63176e-06
8.74616e-07 1.63176e-06 9.43455e-05
0.000864319 0.000229691 1.35873e-06
0.000229691 6.67049e-05 2.79401e-07
1.35873e-06 2.79401e-07 -0.000161762
0.00222879 0.000321165 2.75725e-06
0.000321165 0.000261029 6.01983e-07
2.75725e-06 6.01983e-07 0.000168011
0.00141522 0.000383525 -7.04845e-07
0.000383525 -5.41775e-05 -3.0112e-06
-7.04845e-07 -3.0112e-06 -0.00025753
0.00206918 0.000411307 4.62208e-08
0.000411307 0.000532508 5.6945e-07
4.62208e-08 5.6945e-07 0.000254669
0.00114685 0.000124956 -3.28655e-06
0.000124956 0.000373812 2.80538e-06
-3.28655e-06 2.80538e-06 0.000229238
0.00240584 0.000232641 -3.93966e-05
0.000232641 0.000316818 -9.24715e-06
-3.93966e-05 -9.24715e-06 0.00032467
0.00245105 0.000370989 -5.53496e-06
0.000370989 0.00107437 1.43503e-07
-5.53496e-06 1.43503e-07 0.000855289
0.00216154 0.000377214 -7.38625e-06
0.000377214 0.00072446 6.88011e-07
-7.38625e-06 6.88011e-07 0.000469138
0.00208394 0.000442083 -1.7687e-05
0.000442083 0.000197896 -1.2828e-05
-1.7687e-05 -1.2828e-05 6.20657e-05
0.0012145 0.000373197 -1.29698e-05
0.000373197 -1.33876e-05 -6.58021e-07
-1.29698e-05 -6.58021e-07 -0.000270202
0.000808341 0.00029961 2.51594e-05
0.00029961 -0.000509935 -1.65574e-05
2.51594e-05 -1.65574e-05 -0.000728374
0.000560517 4.77856e-05 7.35748e-07
4.77856e-05 8.40328e-06 -2.96478e-07
7.35748e-07 -2.96478e-07 -8.52427e-05
0.000690368 2.91635e-05 -8.04553e-08
2.91635e-05 9.65869e-05 7.79622e-07
-8.04553e-08 7.79622e-07 4.9428e-06
0.00127007 5.19384e-05 -1.38716e-07
5.19384e-05 0.000418694 -1.159e-06
-1.38716e-07 -1.159e-06 0.000324804
0.000632166 -5.78861e-05 3.17802e-08
-5.78861e-05 4.74283e-05 -2.16146e-06
3.17802e-08 -2.16146e-06 -3.79289e-05
0.000579195 -4.2822e-05 -1.12393e-06
-4.2822e-05 1.74889e-05 4.30927e-08
-1.12393e-06 4.30927e-08 -8.14137e-05
0.000901233 0.000114207 -1.71312e-07
0.000114207 0.000214937 6.498e-07
-1.71312e-07 6.498e-07 0.000101841
0.000413126 -2.37159e-05 -9.23516e-07
-2.37159e-05 -7.52737e-05 2.43398e-06
-9.23516e-07 2.43398e-06 -0.000168955
0.000650424 -2.30744e-05 -8.38313e-08
-2.30744e-05 5.68813e-05 -3.15723e-08
-8.38313e-08 -3.15723e-08 -2.99045e-05
0.000646202 3.57875e-05 -9.07681e-08
3.57875e-05 4.92422e-05 -3.606e-07
-9.07681e-08 -3.606e-07 -5.13775e-05
0.000805549 2.10403e-05 -7.53657e-07
2.10403e-05 0.000129813 3.4942e-08
-7.53657e-07 3.4942e-08 4.37136e-05
0.000765417 1.34715e-05 3.63198e-07
1.34715e-05 0.000121184 -7.60972e-08
3.63198e-07 -7.60972e-08 1.45929e-05
0.000792741 -1.11614e-05 -1.38977e-08
-1.11614e-05 0.000131393 -2.20836e-07
-1.38977e-08 -2.20836e-07 3.36779e-05
0.000862471 1.94753e-05 -7.92315e-07
1.94753e-05 0.000157922 -2.54328e-06
-7.92315e-07 -2.54328e-06 7.25546e-05
0.000812986 2.83426e-05 -1.2832e-06
2.83426e-05 0.000137329 -1.97818e-06
-1.2832e-06 -1.97818e-06 2.88447e-05
0.000810494 6.46996e-05 4.2906e-07
6.46996e-05 0.000138622 3.42746e-07
4.2906e-07 3.42746e-07 3.49286e-05
0.00069582 3.89967e-05 2.58056e-07
3.89967e-05 9.04889e-05 1.13128e-06
2.58056e-07 1.13128e-06 -2.51289e-05
0.00051106 -1.87427e-05 -1.26787e-07
-1.87427e-05 -3.84909e-05 1.92946e-06
-1.26787e-07 1.92946e-06 -0.00012135
0.000888802 -2.33592e-05 6.74085e-08
-2.33592e-05 0.00022046 -9.90774e-07
6.74085e-08 -9.90774e-07 0.000103178
0.000452679 -7.74928e-06 -6.54581e-07
-7.74928e-06 -6.80486e-05 2.07437e-06
-6.54581e-07 2.07437e-06 -0.000155403
0.000575983 7.68766e-06 -9.94656e-07
7.68766e-06 -8.38627e-06 1.85517e-06
-9.94656e-07 1.85517e-06 -6.09834e-05
0.000592827 1.84544e-05 9.91184e-07
1.84544e-05 4.38673e-07 -6.23194e-09
9.91184e-07 -6.23194e-09 -5.10977e-05
0.000564667 2.93663e-06 2.34439e-07
2.93663e-06 -4.56792e-05 3.69196e-06
2.34439e-07 3.69196e-06 -6.03106e-05
0.000603487 -2.00835e-06 -1.26833e-06
-2.00835e-06 4.41005e-06 -2.14097e-06
-1.26833e-06 -2.14097e-06 -4.61826e-05
0.000948352 -3.81236e-06 -1.87725e-06
-3.81236e-06 0.000180357 -1.63946e-06
-1.87725e-06 -1.63946e-06 0.000168288
0.00233362 -1.28267e-05 7.67275e-06
-1.28267e-05 0.000999274 5.13669e-06
7.67275e-06 5.13669e-06 0.00101556
0.00135521 -1.3014e-05 -2.9083e-06
-1.3014e-05 0.000420484 -5.42639e-06
-2.9083e-06 -5.42639e-06 0.000410686
0.000830636 -1.65576e-05 2.02142e-06
-1.65576e-05 0.000111914 3.1776e-06
2.02142e-06 3.1776e-06 0.000120373
0.000786982 -2.31689e-05 -4.11173e-07
-2.31689e-05 8.7802e-05 -2.07974e-06
-4.11173e-07 -2.07974e-06 9.58351e-05
0.000631127 7.77114e-06 -3.44614e-07
7.77114e-06 8.62421e-06 -1.60462e-06
-3.44614e-07 -1.60462e-06 -2.87284e-05
0.000644965 -1.69826e-06 8.81656e-07
-1.69826e-06 1.54691e-05 -9.57426e-08
8.81656e-07 -9.57426e-08 -2.33131e-05
0.000593238 2.14091e-05 3.49774e-07
2.14091e-05 -3.00827e-05 -3.42827e-06
3.49774e-07 -3.42827e-06 -3.87926e-05
0.000899021 3.38222e-05 -3.91232e-07
3.38222e-05 0.000155086 5.21813e-08
-3.91232e-07 5.21813e-08 0.000145538
0.00211535 5.19423e-05 1.48589e-05
5.19423e-05 0.000881783 -4.18615e-06
1.48589e-05 -4.18615e-06 0.000896623
0.000580862 3.88369e-05 3.38871e-07
3.88369e-05 -2.53297e-05 3.75037e-06
3.38871e-07 3.75037e-06 -4.0779e-05
0.00221988 6.78432e-05 -2.85045e-06
6.78432e-05 0.000951397 -1.76055e-07
-2.85045e-06 -1.76055e-07 0.00096282
0.0024336 8.56171e-05 -2.3355e-05
8.56171e-05 0.00108601 3.92483e-06
-2.3355e-05 3.92483e-06 0.00109296
0.00190231 0.000211188 -3.92037e-06
0.000211188 4.15859e-05 -1.36179e-06
-3.92037e-06 -1.36179e-06 -2.0436e-05
0.00188167 7.8618e-05 -2.16767e-06
7.8618e-05 3.09642e-05 5.81433e-08
-2.16767e-06 5.81433e-08 -1.92824e-06
0.00180934 -3.0685e-06 -3.02558e-06
-3.0685e-06 6.24076e-05 4.63761e-08
-3.02558e-06 4.63761e-08 1.30659e-05
0.00188368 1.84683e-06 5.35213e-08
1.84683e-06 2.29733e-05 -2.12632e-07
5.35213e-08 -2.12632e-07 5.12002e-06
0.0019382 0.000122113 2.84741e-07
0.000122113 2.10804e-05 4.25479e-08
2.84741e-07 4.25479e-08 -6.97043e-06
0.00188742 6.02952e-05 3.76412e-06
6.02952e-05 1.94948e-05 3.53219e-07
3.76412e-06 3.53219e-07 3.81247e-05
0.00192192 1.05002e-05 1.70936e-07
1.05002e-05 -2.00139e-05 -3.06506e-07
1.70936e-07 -3.06506e-07 -1.16759e-05
0.00275105 0.000276703 2.97937e-05
0.000276703 -0.00020225 4.33373e-06
2.97937e-05 4.33373e-06 -0.000133605
0.002142 3.42442e-05 -2.89816e-05
3.42442e-05 0.000311459 8.85911e-06
-2.89816e-05 8.85911e-06 0.000367229
0.000628227 7.5484e-05 -9.09722e-07
7.5484e-05 3.91562e-05 -5.75018e-07
-9.09722e-07 -5.75018e-07 -2.99611e-05
0.00186376 -8.05207e-05 -2.67596e-06
-8.05207e-05 2.04563e-05 -3.13046e-08
-2.67596e-06 -3.13046e-08 -1.13643e-05
0.00189361 -0.000194999 -1.01902e-06
-0.000194999 5.14928e-05 1.16756e-06
-1.01902e-06 1.16756e-06 9.67924e-06
0.0018025 -0.000251918 1.91893e-07
-0.000251918 2.28348e-05 1.71252e-06
1.91893e-07 1.71252e-06 -4.53049e-05
0.000558665 -0.000218152 1.9932e-06
-0.000218152 -0.000133227 8.93955e-06
1.9932e-06 8.93955e-06 -0.000349057
0.00180771 -0.000416551 2.07989e-06
-0.000416551 0.000428596 5.71448e-06
2.07989e-06 5.71448e-06 0.000107431
0.00149931 -0.000397457 -5.18967e-07
-0.000397457 7.7876e-05 -7.93791e-06
-5.18967e-07 -7.93791e-06 -0.000164959
0.0021737 -0.000402322 -5.47204e-06
-0.000402322 0.000255962 -2.47905e-06
-5.47204e-06 -2.47905e-06 0.000124039
0.00169318 -0.000266385 1.24823e-05
-0.000266385 0.00052393 -1.32596e-06
1.24823e-05 -1.32596e-06 0.000341863
0.000443899 -0.000163489 9.97784e-06
-0.000163489 -5.03227e-05 -4.88443e-06
9.97784e-06 -4.88443e-06 -0.000230907
0.000954053 -9.99862e-05 9.14588e-07
-9.99862e-05 0.000240786 -1.74452e-06
9.14588e-07 -1.74452e-06 7.14701e-05
0.000619175 3.97991e-06 -9.13336e-07
3.97991e-06 2.44839e-06 1.62596e-06
-9.13336e-07 1.62596e-06 -3.76117e-05
0.000814996 -1.67325e-05 1.72579e-06
-1.67325e-05 0.000173326 -5.94391e-07
1.72579e-06 -5.94391e-07 2.741e-05
0.000936284 -4.11199e-05 1.55392e-06
-4.11199e-05 0.000233955 -4.37283e-07
1.55392e-06 -4.37283e-07 0.000148135
0.000811729 -2.23484e-05 5.80602e-07
-2.23484e-05 0.000170969 -4.67726e-07
5.80602e-07 -4.67726e-07 4.52611e-05
0.000422117 -2.27841e-05 -1.79547e-06
-2.27841e-05 -9.7598e-05 1.17592e-06
-1.79547e-06 1.17592e-06 -0.000162921
0.00194105 -0.000100064 -1.928e-07
-0.000100064 -1.57355e-05 1.27884e-07
-1.928e-07 1.27884e-07 -2.78528e-05
0.000528184 3.60315e-05 7.40823e-08
3.60315e-05 -1.72121e-05 -1.18424e-06
7.40823e-08 -1.18424e-06 -9.15532e-05
0.000668104 -5.31117e-05 6.2939e-07
-5.31117e-05 6.1954e-05 4.09405e-07
6.2939e-07 4.09405e-07 -1.29226e-05
0.000788479 -4.78083e-05 -1.73873e-07
-4.78083e-05 0.000138823 7.82769e-07
-1.73873e-07 7.82769e-07 4.29628e-05
0.00186935 -0.000229659 1.15135e-06
-0.000229659 -1.3907e-05 -2.30884e-07
1.15135e-06 -2.30884e-07 -6.1614e-06
0.00203036 -0.00035492 -7.15899e-07
-0.00035492 8.93278e-05 -2.51134e-07
-7.15899e-07 -2.51134e-07 4.3384e-06
0.00118401 -0.000258916 4.95426e-06
-0.000258916 0.000209865 -1.18243e-07
4.95426e-06 -1.18243e-07 -1.10638e-05
0.00199231 -0.000468211 5.06619e-06
-0.000468211 0.000514508 6.93536e-08
5.06619e-06 6.93536e-08 0.000184992
0.0018112 -0.000451916 -1.95961e-07
-0.000451916 0.0001633 1.72693e-06
-1.95961e-07 1.72693e-06 -2.81511e-06
0.000519033 -9.54175e-06 -3.73113e-07
-9.54175e-06 1.42423e-06 -2.11892e-07
-3.73113e-07 -2.11892e-07 -0.000114585
0.000833626 -6.93624e-05 -1.60025e-06
-6.93624e-05 0.000179862 4.26021e-07
-1.60025e-06 4.26021e-07 4.6505e-05
0.000675006 -0.000262668 -5.18975e-06
-0.000262668 -3.1441e-05 4.12852e-07
-5.18975e-06 4.12852e-07 -0.000229604
0.000525535 -9.90168e-05 -2.61854e-07
-9.90168e-05 7.51432e-05 -1.30115e-06
-2.61854e-07 -1.30115e-06 -0.000179686
0.000703435 -6.56743e-05 -8.54893e-09
-6.56743e-05 6.50861e-05 -3.09058e-07
-8.54893e-09 -3.09058e-07 -8.4851e-05
0.00230496 -0.000204695 -2.23298e-06
-0.000204695 0.000178119 -1.63624e-06
-2.23298e-06 -1.63624e-06 0.000177597
0.00175291 -0.000243354 -8.51009e-06
-0.000243354 -0.00012036 1.75679e-06
-8.51009e-06 1.75679e-06 -8.63622e-05
0.00254535 -0.000500662 -4.95853e-06
-0.000500662 0.000400361 -2.61835e-06
-4.95853e-06 -2.61835e-06 0.000259896
0.00268787 -0.000553846 -2.00562e-05
-0.000553846 0.000755325 1.26982e-06
-2.00562e-05 1.26982e-06 0.000527546
0.00127496 -0.000291581 -1.32329e-05
-0.000291581 0.000304545 -3.70862e-06
-1.32329e-05 -3.70862e-06 6.33272e-05
0.000453361 9.59397e-06 1.28568e-06
9.59397e-06 -5.73814e-05 -1.19518e-06
1.28568e-06 -1.19518e-06 -0.000151277
0.000503883 4.77054e-05 4.14071e-07
4.77054e-05 -3.49281e-05 3.29139e-07
4.14071e-07 3.29139e-07 -0.000134283
0.000500131 3.11326e-06 3.07602e-07
3.11326e-06 -2.75093e-05 -1.12718e-06
3.07602e-07 -1.12718e-06 -0.000133295
0.00124809 -0.000141566 -1.80589e-06
-0.000141566 0.000437015 3.79927e-06
-1.80589e-06 3.79927e-06 0.000303857
0.000520321 -5.40813e-05 -3.06119e-07
-5.40813e-05 -2.41216e-05 4.30844e-06
-3.06119e-07 4.30844e-06 -0.000150339
5.68483e-05 -6.70369e-05 2.14574e-06
-6.70369e-05 -0.000162587 2.33507e-06
2.14574e-06 2.33507e-06 -0.000430506
0.000388879 -0.000302741 3.47334e-06
-0.000302741 4.05049e-07 -1.72537e-06
3.47334e-06 -1.72537e-06 -0.00031959
0.000774546 8.45492e-05 1.4669e-06
8.45492e-05 0.000151204 -4.2587e-06
1.4669e-06 -4.2587e-06 3.12723e-05
0.000187043 8.16339e-05 6.67223e-07
8.16339e-05 -0.000185411 -1.15625e-06
6.67223e-07 -1.15625e-06 -0.000349423
0.00210045 0.000202839 7.594e-06
0.000202839 8.03166e-05 3.41383e-10
7.594e-06 3.41383e-10 6.74773e-05
0.002059 0.000314214 1.23721e-05
0.000314214 0.000168973 3.30374e-06
1.23721e-05 3.30374e-06 7.75053e-05
0.0018143 0.000409279 8.51259e-06
0.000409279 0.000164674 3.49518e-06
8.51259e-06 3.49518e-06 -3.79867e-05
0.000570027 0.000205741 1.50743e-06
0.000205741 -9.78913e-05 -1.09584e-06
1.50743e-06 -1.09584e-06 -0.000324719
0.00210539 0.000413984 2.63789e-06
0.000413984 0.000568831 8.35891e-07
2.63789e-06 8.35891e-07 0.000290928
0.00132062 0.000105348 -1.53443e-07
0.000105348 0.000461018 5.02558e-07
-1.53443e-07 5.02558e-07 0.000326813
0.0021553 0.000200294 -2.34906e-06
0.000200294 0.000196325 2.93136e-07
-2.34906e-06 2.93136e-07 0.000212658
0.0015257 0.000264876 -1.69843e-06
0.000264876 0.000539172 2.06604e-07
-1.69843e-06 2.06604e-07 0.000342487
0.00149559 0.000317918 -6.48005e-07
0.000317918 0.00037298 1.06326e-06
-6.48005e-07 1.06326e-06 0.000116984
0.00200568 0.000423313 -1.51064e-06
0.000423313 0.00015974 -3.35107e-06
-1.51064e-06 -3.35107e-06 3.27092e-05
0.00162441 0.000411275 -2.69791e-06
0.000411275 0.000218846 4.05384e-06
-2.69791e-06 4.05384e-06 -4.79479e-05
0.00175602 0.000379139 3.1157e-05
0.000379139 -0.00027372 2.26445e-06
3.1157e-05 2.26445e-06 -0.000575107
0.00120028 0.000177713 -4.50702e-06
0.000177713 0.000414241 -1.04185e-06
-4.50702e-06 -1.04185e-06 0.000257005
0.00222625 0.000328704 -4.45931e-05
0.000328704 0.000306946 -2.38014e-05
-4.45931e-05 -2.38014e-05 0.000300965
0.00124956 0.000259526 -5.63722e-06
0.000259526 0.000327164 -9.35534e-07
-5.63722e-06 -9.35534e-07 0.000136212
0.000955676 0.000302811 -4.04552e-06
0.000302811 4.48671e-06 -3.06662e-06
-4.04552e-06 -3.06662e-06 -0.000257187
-3.80351e-05 0.000370415 -1.43444e-05
0.000370415 -0.000804856 -6.54705e-06
-1.43444e-05 -6.54705e-06 -0.00100046
0.0100228 0.000330857 -0.000173833
0.000330857 0.0022886 -3.66672e-05
-0.000173833 -3.66672e-05 0.0013997
0.00531242 0.000719579 0.000131268
0.000719579 0.000663584 -1.92963e-05
0.000131268 -1.92963e-05 0.000253475
0.00147019 0.000528129 2.10824e-05
0.000528129 -1.08168e-05 1.14671e-05
2.10824e-05 1.14671e-05 -0.000219043
-0.00484065 -0.000663264 0.000329073
-0.000663264 -0.00128137 2.12208e-05
0.000329073 2.12208e-05 -0.0024555
0.00752912 -0.00208643 -1.49074e-05
-0.00208643 0.00147741 1.12783e-05
-1.49074e-05 1.12783e-05 0.00295392
0.000501933 3.87135e-05 2.83629e-06
3.87135e-05 -5.10917e-06 8.82923e-07
2.83629e-06 8.82923e-07 -9.82514e-05
0.000908486 3.15473e-05 8.81966e-07
3.15473e-05 0.000224702 -6.30473e-07
8.81966e-07 -6.30473e-07 0.0001315
0.000938193 7.77885e-05 -2.455e-06
7.77885e-05 0.000235229 -2.0956e-06
-2.455e-06 -2.0956e-06 0.000136477
0.000634491 -5.92892e-05 -2.5087e-08
-5.92892e-05 5.48338e-05 -1.69487e-06
-2.5087e-08 -1.69487e-06 -3.65431e-05
0.000628463 5.68208e-05 -1.12869e-06
5.68208e-05 4.21731e-05 -1.31037e-06
-1.12869e-06 -1.31037e-06 -6.21029e-05
0.000770362 -3.22694e-05 3.43496e-07
-3.22694e-05 0.000125982 -2.93551e-07
3.43496e-07 -2.93551e-07 1.87946e-05
0.000853762 1.26788e-05 -1.13474e-06
1.26788e-05 0.000164177 2.2115e-06
-1.13474e-06 2.2115e-06 6.50932e-05
0.000654577 1.17221e-05 -6.69764e-07
1.17221e-05 4.51975e-05 1.45698e-06
-6.69764e-07 1.45698e-06 -4.25474e-05
0.000755252 7.20464e-05 -1.3999e-06
7.20464e-05 0.000118482 -4.74272e-07
-1.3999e-06 -4.74272e-07 5.4261e-06
0.000577032 -8.037e-06 -1.20914e-08
-8.037e-06 5.99084e-06 7.10398e-07
-1.20914e-08 7.10398e-07 -7.95794e-05
0.000684561 2.1915e-05 9.692e-08
2.1915e-05 8.10348e-05 6.9418e-08
9.692e-08 6.9418e-08 -3.19387e-05
0.000769273 2.10934e-05 6.99848e-07
2.10934e-05 0.000102671 2.41868e-07
6.99848e-07 2.41868e-07 1.65151e-05
0.00082256 3.52998e-05 -5.00365e-07
3.52998e-05 0.000142175 -1.24424e-07
-5.00365e-07 -1.24424e-07 3.76724e-05
0.000977986 7.79899e-05 -1.15221e-06
7.79899e-05 0.000233932 -1.10223e-06
-1.15221e-06 -1.10223e-06 0.000127656
0.00043973 3.74065e-05 4.07536e-08
3.74065e-05 -7.41761e-05 -2.61775e-06
4.07536e-08 -2.61775e-06 -0.000168041
0.000850546 7.37631e-05 1.49104e-06
7.37631e-05 0.000158939 5.69005e-07
1.49104e-06 5.69005e-07 5.04592e-05
0.00059842 -1.68803e-05 1.10742e-06
-1.68803e-05 1.80908e-05 6.32677e-08
1.10742e-06 6.32677e-08 -8.79688e-05
0.000489126 -4.8888e-05 -1.17542e-06
-4.8888e-05 -4.53989e-05 1.7022e-06
-1.17542e-06 1.7022e-06 -0.000134702
0.000792351 1.68466e-06 -9.35905e-07
1.68466e-06 0.000142189 -1.10098e-07
-9.35905e-07 -1.10098e-07 3.11166e-05
0.000795044 3.79521e-05 -1.5969e-07
3.79521e-05 0.000143427 -2.39074e-06
-1.5969e-07 -2.39074e-06 3.64433e-05
0.000674336 -1.63558e-05 -9.91459e-07
-1.63558e-05 8.22254e-05 -2.04112e-07
-9.91459e-07 -2.04112e-07 -2.20929e-05
0.000804008 -1.72828e-05 1.08626e-06
-1.72828e-05 0.000154438 -5.59029e-07
1.08626e-06 -5.59029e-07 4.70079e-05
0.000682734 -7.73014e-05 -2.22607e-06
-7.73014e-05 6.64526e-05 1.25374e-06
-2.22607e-06 1.25374e-06 -1.80026e-05
0.000495432 -6.39924e-06 1.15025e-07
-6.39924e-06 -4.07074e-05 7.71607e-07
1.15025e-07 7.71607e-07 -0.000130227
0.000612508 -1.17823e-05 -1.27352e-06
-1.17823e-05 7.22757e-06 2.1354e-06
-1.27352e-06 2.1354e-06 -4.35789e-05
0.000602888 -1.41225e-05 8.44369e-07
-1.41225e-05 6.17996e-06 -2.00307e-08
8.44369e-07 -2.00307e-08 -4.58787e-05
0.000598909 6.50497e-06 -3.45291e-07
6.50497e-06 -2.42698e-05 5.36954e-06
-3.45291e-07 5.36954e-06 -3.95987e-05
0.000601032 1.2352e-05 -6.55411e-07
1.2352e-05 3.91004e-06 -1.95259e-06
-6.55411e-07 -1.95259e-06 -4.66289e-05
0.000575255 2.62171e-06 3.47755e-07
2.62171e-06 -3.92302e-05 -1.37584e-08
3.47755e-07 -1.37584e-08 -5.3957e-05
0.00233988 -1.53248e-06 -5.10917e-07
-1.53248e-06 0.00100255 5.22231e-06
-5.10917e-07 5.22231e-06 0.00101875
0.000613536 -1.94134e-06 -5.38423e-07
-1.94134e-06 -1.72627e-05 -5.49519e-06
-5.38423e-07 -5.49519e-06 -3.16327e-05
0.00158492 -9.62919e-06 -8.54241e-08
-9.62919e-06 0.000556147 7.87356e-08
-8.54241e-08 7.87356e-08 0.000568451
0.000787565 -1.47439e-05 5.79304e-08
-1.47439e-05 8.51677e-05 -2.06677e-06
5.79304e-08 -2.06677e-06 9.39842e-05
0.000626643 -6.20305e-06 6.68491e-07
-6.20305e-06 8.32169e-06 -1.48977e-06
6.68491e-07 -1.48977e-06 -2.8095e-05
0.000640168 -1.344e-05 4.51574e-07
-1.344e-05 1.41319e-05 -2.92617e-08
4.51574e-07 -2.92617e-08 -2.37262e-05
0.000607226 1.42504e-05 3.08102e-07
1.42504e-05 -2.43785e-05 -3.24039e-06
3.08102e-07 -3.24039e-06 -3.14124e-05
0.000623474 -1.38114e-05 -1.5076e-06
-1.38114e-05 2.35453e-06 1.54305e-06
-1.5076e-06 1.54305e-06 -3.61872e-05
0.000881517 2.49227e-05 -7.25092e-08
2.49227e-05 0.000140333 -7.15322e-07
-7.25092e-08 -7.15322e-07 0.000133528
0.00205342 3.84944e-05 1.13762e-05
3.84944e-05 0.000840229 -4.32082e-06
1.13762e-05 -4.32082e-06 0.000857314
0.000580921 2.98587e-05 -4.12476e-07
2.98587e-05 -3.25301e-05 3.47561e-06
-4.12476e-07 3.47561e-06 -4.4172e-05
0.00217833 5.37307e-05 -7.29362e-06
5.37307e-05 0.000921025 1.1325e-06
-7.29362e-06 1.1325e-06 0.000935194
0.00227483 7.0385e-05 -1.80677e-05
7.0385e-05 0.000984777 4.03176e-06
-1.80677e-05 4.03176e-06 0.000995531
0.00190149 0.000120769 -2.55181e-06
0.000120769 1.55836e-05 -4.7238e-07
-2.55181e-06 -4.7238e-07 -1.428e-05
0.00187281 1.59227e-06 -2.47034e-06
1.59227e-06 2.01569e-05 3.76999e-09
-2.47034e-06 3.76999e-09 1.99758e-06
0.00156547 4.90957e-05 1.14968e-05
4.90957e-05 -0.000175558 -1.22545e-06
1.14968e-05 -1.22545e-06 -0.000163755
0.00223849 0.000198972 3.30149e-05
0.000198972 -0.000343899 7.60982e-06
3.30149e-05 7.60982e-06 -0.00030846
0.00189985 -1.50343e-06 -2.7674e-06
-1.50343e-06 -2.52065e-05 -4.27904e-07
-2.7674e-06 -4.27904e-07 -1.63782e-05
0.00184085 4.39166e-05 4.17763e-06
4.39166e-05 0.000146731 -1.68946e-06
4.17763e-06 -1.68946e-06 0.000186865
0.0028417 -9.63709e-06 -2.59254e-05
-9.63709e-06 0.00071813 2.92334e-06
-2.59254e-05 2.92334e-06 0.000697005
0.00215492 -5.2067e-05 8.19884e-05
-5.2067e-05 -0.00100123 -1.62006e-05
8.19884e-05 -1.62006e-05 -0.000966385
0.00262689 5.69951e-05 1.55147e-05
5.69951e-05 0.000110096 1.24821e-05
1.55147e-05 1.24821e-05 0.000188657
0.000652632 6.64422e-05 -5.67642e-08
6.64422e-05 5.67211e-05 -7.08152e-07
-5.67642e-08 -7.08152e-07 -1.56879e-05
0.00067384 -8.05039e-06 6.55969e-07
-8.05039e-06 7.08991e-05 -1.84586e-07
6.55969e-07 -1.84586e-07 -3.10599e-06
0.000642905 -8.72112e-05 -3.43629e-07
-8.72112e-05 5.35748e-05 4.83286e-07
-3.43629e-07 4.83286e-07 -3.42492e-05
0.000669687 -3.59838e-05 -1.0202e-06
-3.59838e-05 8.74996e-05 1.13799e-06
-1.0202e-06 1.13799e-06 -1.246e-05
0.00196562 -0.000110363 -4.82547e-06
-0.000110363 -2.23177e-05 5.40003e-07
-4.82547e-06 5.40003e-07 -2.07978e-05
0.00186553 -0.000229307 -1.12814e-07
-0.000229307 -6.27678e-06 7.39029e-07
-1.12814e-07 7.39029e-07 -6.4225e-06
0.00194498 -0.00034613 -4.53679e-06
-0.00034613 5.48826e-05 1.94986e-06
-4.53679e-06 1.94986e-06 -3.15945e-05
0.00204326 -0.00035863 6.5562e-06
-0.00035863 0.000679393 5.39681e-06
6.5562e-06 5.39681e-06 0.000452422
0.00124045 -0.000405176 8.96607e-06
-0.000405176 0.000110383 -3.49835e-06
8.96607e-06 -3.49835e-06 -0.000207636
0.00210883 -0.000470681 4.19798e-06
-0.000470681 0.000341014 -3.30892e-06
4.19798e-06 -3.30892e-06 0.000167466
0.00103751 -0.00028056 -4.55781e-06
-0.00028056 0.000191808 1.75748e-06
-4.55781e-06 1.75748e-06 -2.94701e-05
0.001574 -0.000116609 1.07406e-07
-0.000116609 0.000617554 -5.62529e-07
1.07406e-07 -5.62529e-07 0.000402389
0.000322805 -7.70725e-05 -9.21149e-07
-7.70725e-05 -0.000154861 -3.18276e-07
-9.21149e-07 -3.18276e-07 -0.000299043
0.000695791 -3.40042e-05 -4.54246e-07
-3.40042e-05 7.60396e-05 1.25089e-06
-4.54246e-07 1.25089e-06 3.30111e-06
0.000667836 -8.10551e-05 1.31873e-07
-8.10551e-05 9.2243e-05 -1.65162e-06
1.31873e-07 -1.65162e-06 -4.99696e-05
0.000815022 -6.04343e-06 4.36326e-07
-6.04343e-06 0.000174601 -7.67165e-07
4.36326e-07 -7.67165e-07 5.89927e-05
0.000667408 8.51344e-06 2.93497e-07
8.51344e-06 7.02698e-05 3.25122e-07
2.93497e-07 3.25122e-07 -6.55633e-06
0.000588527 1.28532e-05 -2.35301e-06
1.28532e-05 2.29669e-05 2.74016e-06
-2.35301e-06 2.74016e-06 -7.33117e-05
0.00221705 -0.000184703 1.09366e-06
-0.000184703 0.00014125 6.25932e-07
1.09366e-06 6.25932e-07 0.000151524
0.000672647 -8.36545e-06 1.08783e-06
-8.36545e-06 7.96186e-05 -4.19478e-07
1.08783e-06 -4.19478e-07 -1.85725e-05
0.000700429 1.02451e-05 2.0475e-06
1.02451e-05 8.78123e-05 -2.29216e-07
2.0475e-06 -2.29216e-07 -1.38504e-05
0.000486709 5.18066e-05 1.86035e-08
5.18066e-05 -2.85508e-05 1.52175e-06
1.86035e-08 1.52175e-06 -0.000128166
0.00175263 -0.000246519 -1.09802e-06
-0.000246519 -0.000141645 -1.60356e-06
-1.09802e-06 -1.60356e-06 -0.000113437
0.00199382 -0.000459096 1.34784e-06
-0.000459096 0.000115308 -2.51829e-07
1.34784e-06 -2.51829e-07 -1.51773e-05
0.00142511 -0.000340195 -9.77616e-07
-0.000340195 0.000375601 -1.04093e-06
-9.77616e-07 -1.04093e-06 0.000126975
0.00217038 -0.000516147 -5.30277e-06
-0.000516147 0.000480689 1.84287e-06
-5.30277e-06 1.84287e-06 0.000257156
0.00105528 -6.45512e-05 -9.37998e-07
-6.45512e-05 0.000308591 6.72165e-07
-9.37998e-07 6.72165e-07 0.000182141
0.000582396 -7.46751e-05 -2.70147e-07
-7.46751e-05 1.13154e-05 9.934e-07
-2.70147e-07 9.934e-07 -0.000124163
0.000997031 -0.000346413 2.61783e-06
-0.000346413 0.000343709 -7.88679e-07
2.61783e-06 -7.88679e-07 1.41116e-05
0.00107937 -0.000159528 3.51944e-07
-0.000159528 0.000378809 6.13798e-08
3.51944e-07 6.13798e-08 0.000121271
0.00235612 -0.000208411 -1.93579e-05
-0.000208411 0.000158051 2.65246e-07
-1.93579e-05 2.65246e-07 0.000231364
0.00241836 -0.000383907 -1.99415e-05
-0.000383907 0.000232181 6.23242e-06
-1.99415e-05 6.23242e-06 0.000239073
0.00286378 -0.000606753 -9.4175e-06
-0.000606753 0.000664844 -5.81908e-06
-9.4175e-06 -5.81908e-06 0.000465463
0.00172422 -0.00045424 -3.81187e-06
-0.00045424 0.000430415 3.24535e-06
-3.81187e-06 3.24535e-06 0.000216946
0.000584795 1.76032e-06 -1.08726e-06
1.76032e-06 4.27297e-05 -2.32115e-06
-1.08726e-06 -2.32115e-06 -7.75632e-05
0.000544948 -7.01898e-05 -3.09909e-07
-7.01898e-05 1.33776e-05 -4.15315e-06
-3.09909e-07 -4.15315e-06 -0.000112683
0.000540358 -0.000101248 -1.68897e-06
-0.000101248 7.29034e-05 5.22909e-06
-1.68897e-06 5.22909e-06 -9.12212e-05
0.000228623 -0.000140403 7.64468e-07
-0.000140403 7.46863e-05 -7.00726e-06
7.64468e-07 -7.00726e-06 -0.000332392
0.000767501 -0.000340467 3.10321e-05
-0.000340467 -0.00280729 -4.55609e-06
3.10321e-05 -4.55609e-06 -0.00320427
0.00140655 9.69985e-05 7.73917e-07
9.69985e-05 0.000502881 -3.36806e-06
7.73917e-07 -3.36806e-06 0.000376428
0.000468083 0.000152995 3.54315e-06
0.000152995 -6.49942e-05 8.43271e-07
3.54315e-06 8.43271e-07 -0.000241453
0.00198526 0.000177548 4.36001e-05
0.000177548 0.000120344 7.80633e-06
4.36001e-05 7.80633e-06 0.000141022
0.00206704 0.000412205 1.51587e-05
0.000412205 0.00019795 7.58216e-06
1.51587e-05 7.58216e-06 7.74281e-05
0.0017396 0.000425519 5.50503e-06
0.000425519 0.00029625 6.32724e-06
5.50503e-06 6.32724e-06 2.01995e-05
0.000803619 0.00025578 5.89242e-06
0.00025578 5.38729e-06 2.37737e-06
5.89242e-06 2.37737e-06 -0.000251547
0.00302941 0.000471497 6.39753e-05
0.000471497 0.000188162 2.15075e-05
6.39753e-05 2.15075e-05 -0.000242859
0.00128747 0.000157641 2.34155e-06
0.000157641 0.000465219 5.09767e-08
2.34155e-06 5.09767e-08 0.000312276
0.00244717 0.000335875 -1.13706e-05
0.000335875 0.000410061 -1.03952e-06
-1.13706e-05 -1.03952e-06 0.000416704
0.00108237 0.000245083 1.09567e-06
0.000245083 0.00024897 2.2598e-07
1.09567e-06 2.2598e-07 5.91872e-05
0.00124896 0.000342134 1.77305e-06
0.000342134 0.000179265 -1.17229e-06
1.77305e-06 -1.17229e-06 -9.06381e-05
0.00130992 0.000471645 -5.97439e-06
0.000471645 -0.000112807 -1.52884e-06
-5.97439e-06 -1.52884e-06 -0.000311035
0.00303955 -0.000235877 -0.000103574
-0.000235877 -0.00168227 -3.15583e-05
-0.000103574 -3.15583e-05 -0.00264787
0.00534418 0.000586994 -1.42608e-05
0.000586994 0.000465342 -3.6142e-05
-1.42608e-05 -3.6142e-05 -7.79406e-05
0.000274341 0.000388761 -7.21191e-06
0.000388761 -0.000523586 7.99571e-06
-7.21191e-06 7.99571e-06 -0.000766331
-0.0013566 -0.000485077 0.000148723
-0.000485077 0.000949366 6.09612e-05
0.000148723 6.09612e-05 -0.000384881
0.000372461 -0.00207516 -9.89286e-05
-0.00207516 -0.00100742 -0.000116019
-9.89286e-05 -0.000116019 0.000664965
0.00108861 0.000176876 -5.17396e-06
0.000176876 0.000339293 -3.51322e-06
-5.17396e-06 -3.51322e-06 0.000201212
0.000501637 0.000379005 0.00015423
0.000379005 0.00155349 -1.91656e-05
0.00015423 -1.91656e-05 0.000495678
0.00119035 -0.00066471 -9.12189e-05
-0.00066471 0.00222702 -0.000154612
-9.12189e-05 -0.000154612 0.000741594
0.00237861 0.000475547 -2.63732e-05
0.000475547 0.000403932 -9.29956e-06
-2.63732e-05 -9.29956e-06 0.00043862
0.000954387 0.000165173 -1.24056e-05
0.000165173 0.000166842 -2.5378e-06
-1.24056e-05 -2.5378e-06 -2.31838e-05
-0.00013198 0.000383393 -1.88936e-05
0.000383393 -0.000570705 -1.39425e-05
-1.88936e-05 -1.39425e-05 -0.000854087
0.000181349 0.00043967 3.17486e-05
0.00043967 -0.00060786 6.43726e-05
3.17486e-05 6.43726e-05 -0.000741539
0.0113523 0.000631984 -2.26123e-05
0.000631984 0.0035352 -3.43128e-05
-2.26123e-05 -3.43128e-05 0.00202293
0.00302431 0.000920634 1.23554e-05
0.000920634 0.000582626 8.08194e-06
1.23554e-05 8.08194e-06 -0.000555182
0.00250664 -0.00183268 0.000238064
-0.00183268 -0.000250256 0.000180316
0.000238064 0.000180316 5.27703e-06
0.00487755 -0.00100753 -8.156e-06
-0.00100753 -0.000847922 0.000221454
-8.156e-06 0.000221454 0.000409955
0.000617018 1.87662e-05 1.54755e-06
1.87662e-05 6.97439e-05 -5.52777e-07
1.54755e-06 -5.52777e-07 -2.38249e-05
0.000800346 7.6249e-05 1.64154e-06
7.6249e-05 0.00016282 8.23702e-07
1.64154e-06 8.23702e-07 6.26558e-05
0.00149611 0.000139089 -3.00135e-06
0.000139089 0.000575743 -3.13388e-06
-3.00135e-06 -3.13388e-06 0.000482325
0.000642057 4.67009e-06 5.99282e-07
4.67009e-06 6.02873e-05 -4.05629e-07
5.99282e-07 -4.05629e-07 -3.48605e-05
0.000743779 3.34813e-05 -5.01813e-08
3.34813e-05 0.000114072 -1.31239e-06
-5.01813e-08 -1.31239e-06 2.75758e-06
0.000555729 -8.47389e-06 -1.05211e-06
-8.47389e-06 -1.03985e-05 -1.48194e-07
-1.05211e-06 -1.48194e-07 -0.000112861
0.000808872 4.25267e-05 -3.98359e-07
4.25267e-05 0.000134421 1.10924e-06
-3.98359e-07 1.10924e-06 3.34104e-05
0.00068192 2.20674e-05 -4.15127e-08
2.20674e-05 4.98465e-05 1.01441e-06
-4.15127e-08 1.01441e-06 -3.69961e-05
0.000477437 -1.29172e-06 2.89951e-07
-1.29172e-06 -4.86226e-05 7.65127e-07
2.89951e-07 7.65127e-07 -0.000140231
0.000829633 3.19951e-05 2.21317e-07
3.19951e-05 0.000149113 4.17046e-07
2.21317e-07 4.17046e-07 4.37287e-05
0.000817419 2.84287e-05 1.86457e-07
2.84287e-05 0.000141215 3.47066e-07
1.86457e-07 3.47066e-07 3.25102e-05
0.000711564 2.01554e-05 5.38055e-07
2.01554e-05 9.85143e-05 -3.39766e-07
5.38055e-07 -3.39766e-07 -1.6688e-05
0.000519722 4.11929e-05 -2.14616e-07
4.11929e-05 -2.65038e-05 -3.90052e-07
-2.14616e-07 -3.90052e-07 -0.000119807
0.0010799 4.70169e-05 -4.58222e-07
4.70169e-05 0.000291967 -1.79682e-06
-4.58222e-07 -1.79682e-06 0.00019339
7.28157e-05 3.80976e-05 -1.39912e-06
3.80976e-05 -0.000257519 -4.06186e-06
-1.39912e-06 -4.06186e-06 -0.000355525
0.000765284 -7.42805e-05 -1.20173e-08
-7.42805e-05 0.000112351 4.34304e-08
-1.20173e-08 4.34304e-08 -1.70037e-06
0.000792635 -5.5934e-05 -9.99354e-07
-5.5934e-05 0.000149498 -8.16261e-07
-9.99354e-07 -8.16261e-07 2.81718e-05
0.000814076 -2.47728e-05 -5.64588e-07
-2.47728e-05 0.000161609 -3.6244e-07
-5.64588e-07 -3.6244e-07 4.49495e-05
0.00081269 1.23776e-05 -6.05422e-07
1.23776e-05 0.000145833 -2.63857e-07
-6.05422e-07 -2.63857e-07 4.45017e-05
0.000863247 6.72224e-06 -2.20426e-06
6.72224e-06 0.00019532 -2.40785e-06
-2.20426e-06 -2.40785e-06 6.90417e-05
0.000743485 1.90176e-05 6.89523e-07
1.90176e-05 0.000111034 -1.19689e-06
6.89523e-07 -1.19689e-06 9.89658e-06
0.000221333 -1.35444e-05 1.67414e-07
-1.35444e-05 -0.000207047 -1.8908e-06
1.67414e-07 -1.8908e-06 -0.000295519
0.000623977 1.17787e-05 9.5776e-07
1.17787e-05 3.92574e-05 -4.39156e-08
9.5776e-07 -4.39156e-08 -5.96394e-05
0.000667287 -3.71143e-05 -5.69925e-08
-3.71143e-05 5.89144e-05 1.56446e-07
-5.69925e-08 1.56446e-07 -2.99219e-05
0.000722616 -3.56894e-05 -2.19888e-07
-3.56894e-05 0.000104671 -1.26714e-08
-2.19888e-07 -1.26714e-08 3.1501e-06
0.000678077 -4.30621e-05 -1.84537e-06
-4.30621e-05 5.35713e-05 9.69743e-07
-1.84537e-06 9.69743e-07 -2.07556e-05
0.000716041 -2.77545e-05 1.56312e-06
-2.77545e-05 8.54722e-05 -2.94143e-07
1.56312e-06 -2.94143e-07 -1.16123e-05
0.000629863 -7.15568e-05 -8.73734e-09
-7.15568e-05 3.34193e-05 1.82102e-07
-8.73734e-09 1.82102e-07 -5.10271e-05
0.000645983 -1.02579e-05 -1.80312e-06
-1.02579e-05 2.22162e-05 2.31283e-06
-1.80312e-06 2.31283e-06 -2.80376e-05
0.000515709 -5.25988e-06 1.15138e-06
-5.25988e-06 -2.07597e-05 -5.43892e-07
1.15138e-06 -5.43892e-07 -0.000115876
0.000610499 4.84354e-06 1.02856e-06
4.84354e-06 8.73867e-06 -1.82035e-08
1.02856e-06 -1.82035e-08 -4.36367e-05
0.00137971 1.48935e-05 -2.78199e-06
1.48935e-05 0.000436923 5.28878e-06
-2.78199e-06 5.28878e-06 0.000425702
0.000604319 2.84981e-05 -3.72565e-07
2.84981e-05 7.05587e-06 -1.92345e-06
-3.72565e-07 -1.92345e-06 -4.49092e-05
0.000973869 7.42585e-06 -1.60863e-06
7.42585e-06 0.00019704 8.15935e-07
-1.60863e-06 8.15935e-07 0.000183951
0.000845802 3.55608e-06 -3.87369e-06
3.55608e-06 0.000120199 5.04176e-06
-3.87369e-06 5.04176e-06 0.000128237
0.000585786 2.00805e-06 1.20112e-07
2.00805e-06 -3.28049e-05 -3.69262e-06
1.20112e-07 -3.69262e-06 -4.76355e-05
0.00235057 1.82782e-07 4.23371e-06
1.82782e-07 0.00100895 -6.42883e-09
4.23371e-06 -6.42883e-09 0.00102508
0.000861643 -3.28411e-06 -4.04764e-06
-3.28411e-06 0.00012942 -5.124e-06
-4.04764e-06 -5.124e-06 0.000137865
0.000645894 6.57884e-05 1.66864e-06
6.57884e-05 5.94784e-05 3.45852e-08
1.66864e-06 3.45852e-08 -2.02741e-05
0.000616768 2.06701e-05 -1.10286e-06
2.06701e-05 6.59187e-06 -1.74785e-06
-1.10286e-06 -1.74785e-06 -3.10757e-05
0.000620419 -6.66689e-06 8.17605e-07
-6.66689e-06 5.9559e-06 3.22495e-09
8.17605e-07 3.22495e-09 -3.14299e-05
0.000610158 8.20919e-06 1.73144e-07
8.20919e-06 -2.36802e-05 -3.18901e-06
1.73144e-07 -3.18901e-06 -3.01002e-05
0.000643199 -2.76831e-05 -1.59504e-06
-2.76831e-05 1.69562e-05 1.59451e-06
-1.59504e-06 1.59451e-06 -2.19281e-05
0.000580724 1.41562e-05 1.14368e-08
1.41562e-05 -4.05411e-05 -7.56981e-07
1.14368e-08 -7.56981e-07 -4.73138e-05
0.00202927 2.57067e-05 7.60362e-06
2.57067e-05 0.000822261 -4.48338e-06
7.60362e-06 -4.48338e-06 0.000840781
0.00118401 3.09735e-05 -7.16975e-07
3.09735e-05 0.000319893 1.9235e-06
-7.16975e-07 1.9235e-06 0.000314369
0.00148421 3.31377e-05 1.61128e-07
3.31377e-05 0.000503955 1.41617e-06
1.61128e-07 1.41617e-06 0.000517072
0.000910597 3.64981e-05 -1.41932e-05
3.64981e-05 0.000170138 7.17497e-06
-1.41932e-05 7.17497e-06 0.00017743
0.00166431 0.000125145 6.47424e-05
0.000125145 -0.000566976 1.29843e-05
6.47424e-05 1.29843e-05 -0.000523371
0.00188693 -1.31671e-05 2.28797e-06
-1.31671e-05 -2.54588e-05 2.1309e-07
2.28797e-06 2.1309e-07 -1.78566e-05
0.0019425 5.61083e-05 3.40165e-05
5.61083e-05 0.000222095 -8.29674e-06
3.40165e-05 -8.29674e-06 0.000249749
0.00131589 9.44087e-05 -1.18932e-05
9.44087e-05 -0.00104597 -7.4352e-06
-1.18932e-05 -7.4352e-06 -0.000939123
0.00181863 4.62911e-05 1.71291e-05
4.62911e-05 -0.000254094 7.48242e-07
1.71291e-05 7.48242e-07 -0.000179598
0.00231451 -1.65032e-05 -4.30233e-07
-1.65032e-05 0.00035557 -1.87237e-06
-4.30233e-07 -1.87237e-06 0.000337233
0.00326763 -6.55059e-05 -5.95169e-05
-6.55059e-05 0.000709934 3.77699e-06
-5.95169e-05 3.77699e-06 0.000689259
0.00311252 -7.14042e-05 0.000104747
-7.14042e-05 0.000411716 -2.96845e-06
0.000104747 -2.96845e-06 0.000261203
0.00944259 -0.000384702 1.1853e-05
-0.000384702 0.00223437 2.79279e-05
1.1853e-05 2.79279e-05 0.000856386
0.00818237 0.00161237 0.000321138
0.00161237 0.00392795 -0.00014006
0.000321138 -0.00014006 0.00388211
0.00462868 0.00171846 -1.04273e-05
0.00171846 0.00325383 2.07655e-05
-1.04273e-05 2.07655e-05 0.00390037
0.000432123 -8.14098e-05 2.23709e-06
-8.14098e-05 -6.09307e-05 8.39336e-08
2.23709e-06 8.39336e-08 -0.000152352
0.000671472 -1.04219e-05 1.33224e-06
-1.04219e-05 6.96101e-05 -1.58986e-07
1.33224e-06 -1.58986e-07 -4.51266e-06
0.000702222 -7.51669e-05 -1.60076e-06
-7.51669e-05 9.22975e-05 1.26129e-06
-1.60076e-06 1.26129e-06 1.36048e-05
0.000634458 -3.59309e-05 -2.96309e-07
-3.59309e-05 5.04635e-05 2.55502e-07
-2.96309e-07 2.55502e-07 -3.90937e-05
0.000680187 6.70114e-05 -5.76122e-07
6.70114e-05 9.64174e-05 1.60842e-06
-5.76122e-07 1.60842e-06 -1.18097e-05
0.000753624 0.000121337 1.33089e-06
0.000121337 0.00012635 3.01784e-06
1.33089e-06 3.01784e-06 1.78041e-05
0.000786979 -7.09055e-06 2.22971e-06
-7.09055e-06 0.000152391 -8.14754e-07
2.22971e-06 -8.14754e-07 5.123e-05
0.00060392 -2.91143e-05 -7.79513e-07
-2.91143e-05 4.09121e-05 7.98111e-07
-7.79513e-07 7.98111e-07 -5.33459e-05
0.00209155 -0.000169079 3.7337e-06
-0.000169079 7.80932e-05 1.779e-06
3.7337e-06 1.779e-06 9.82902e-05
0.00178836 -0.000256539 6.05214e-06
-0.000256539 -0.00015352 -1.68708e-06
6.05214e-06 -1.68708e-06 -0.000130054
0.0015096 -0.00042235 2.11535e-06
-0.00042235 -0.000136798 4.13643e-06
2.11535e-06 4.13643e-06 -0.000258085
0.0013274 -0.000356641 9.63183e-06
-0.000356641 0.000309954 2.71039e-06
9.63183e-06 2.71039e-06 5.5632e-05
0.00177729 -0.000489067 4.02912e-06
-0.000489067 0.000277689 1.03731e-06
4.02912e-06 1.03731e-06 5.72832e-05
0.00171997 -0.000399009 1.93439e-06
-0.000399009 0.000750224 8.90779e-08
1.93439e-06 8.90779e-08 0.000409811
0.00191651 -0.000239888 -2.70799e-07
-0.000239888 0.00082648 -1.73809e-06
-2.70799e-07 -1.73809e-06 0.000573135
0.000748314 -0.00011576 1.69285e-06
-0.00011576 0.000110681 -1.70569e-06
1.69285e-06 -1.70569e-06 -3.86965e-05
0.000699268 -2.28721e-05 2.21137e-07
-2.28721e-05 9.14255e-05 2.38556e-06
2.21137e-07 2.38556e-06 -7.75584e-06
0.000912255 -3.1792e-05 7.94185e-07
-3.1792e-05 0.000212828 -5.65928e-06
7.94185e-07 -5.65928e-06 9.34646e-05
0.000936464 -2.02133e-05 1.40095e-06
-2.02133e-05 0.000236437 5.50418e-07
1.40095e-06 5.50418e-07 0.000137413
0.000676421 0.000109 2.44182e-06
0.000109 8.86622e-05 2.90891e-06
2.44182e-06 2.90891e-06 -7.55755e-06
0.00191657 -0.000200277 -3.28919e-08
-0.000200277 -3.63761e-05 1.27914e-06
-3.28919e-08 1.27914e-06 2.78293e-05
0.000688539 1.82936e-05 -1.62466e-06
1.82936e-05 0.000104234 2.73401e-07
-1.62466e-06 2.73401e-07 -1.49048e-05
0.000833123 -7.84515e-05 -1.77752e-06
-7.84515e-05 0.000175486 1.18972e-06
-1.77752e-06 1.18972e-06 5.66278e-05
0.00171196 -0.000359396 1.57e-06
-0.000359396 -0.000146071 -1.65235e-06
1.57e-06 -1.65235e-06 -0.000141524
0.0016852 -0.000517414 3.37719e-07
-0.000517414 4.25711e-05 1.48197e-06
3.37719e-07 1.48197e-06 -0.000132366
0.00127963 -0.000416426 -7.35883e-07
-0.000416426 0.000192849 -1.8683e-06
-7.35883e-07 -1.8683e-06 -3.62659e-05
0.000919461 -0.000130528 5.18442e-07
-0.000130528 0.00028403 -3.21912e-06
5.18442e-07 -3.21912e-06 0.000102425
0.00105444 -0.000197238 -7.06979e-07
-0.000197238 0.000498627 8.32406e-07
-7.06979e-07 8.32406e-07 0.00012328
0.00337954 -0.000323624 -2.86047e-05
-0.000323624 0.000759129 5.76803e-06
-2.86047e-05 5.76803e-06 0.000758781
0.00269497 -0.000509044 -2.85485e-05
-0.000509044 0.000476409 5.56153e-06
-2.85485e-05 5.56153e-06 0.000469157
0.00158197 -0.00055264 -8.24307e-06
-0.00055264 9.49494e-05 1.51443e-06
-8.24307e-06 1.51443e-06 -8.15213e-05
0.000567861 -0.000303796 -8.51865e-06
-0.000303796 -5.61047e-05 1.68841e-05
-8.51865e-06 1.68841e-05 -0.000288996
0.000678425 -0.00012764 1.48033e-06
-0.00012764 9.97155e-05 1.70455e-07
1.48033e-06 1.70455e-07 -3.71441e-05
0.000532855 -9.86255e-05 2.26896e-06
-9.86255e-05 4.51456e-05 -3.23338e-06
2.26896e-06 -3.23338e-06 -0.000105545
0.00106147 -7.72855e-05 2.20687e-07
-7.72855e-05 0.000498555 -6.56016e-06
2.20687e-07 -6.56016e-06 0.000176346
-0.00466328 -6.31601e-05 0.000255764
-6.31601e-05 -0.00313522 4.2704e-07
0.000255764 4.2704e-07 -0.00227697
0.00988179 -0.000132112 -3.06371e-06
-0.000132112 0.00284152 -9.46418e-07
-3.06371e-06 -9.46418e-07 0.00220292
0.0015198 0.00013851 4.61381e-06
0.00013851 0.000589736 -1.39507e-06
4.61381e-06 -1.39507e-06 0.000445729
0.000827556 0.000222514 3.87038e-06
0.000222514 0.000118488 -1.09446e-06
3.87038e-06 -1.09446e-06 -6.86862e-05
0.00198852 0.000302482 3.7341e-05
0.000302482 0.000140662 2.26846e-05
3.7341e-05 2.26846e-05 0.000170049
0.00255593 0.000566498 1.11472e-05
0.000566498 0.000530488 6.15917e-06
1.11472e-05 6.15917e-06 0.000331559
0.00176671 0.000400438 9.49006e-06
0.000400438 0.00047196 6.80277e-07
9.49006e-06 6.80277e-07 0.000193971
0.0101034 0.000491165 4.19226e-05
0.000491165 0.00257201 1.21679e-05
4.19226e-05 1.21679e-05 0.00145499
0.00741989 0.000881408 -0.000149776
0.000881408 0.00110929 -2.78861e-05
-0.000149776 -2.78861e-05 0.000654189
-0.000291881 0.000263813 2.82731e-06
0.000263813 -0.000661327 -1.81037e-05
2.82731e-06 -1.81037e-05 -0.000964548
0.00795439 -0.00130641 -7.94454e-05
-0.00130641 0.00381346 2.3024e-05
-7.94454e-05 2.3024e-05 0.00322724
-0.00754883 -0.00210233 -0.000547531
-0.00210233 -0.00353225 -0.000415441
-0.000547531 -0.000415441 -0.00188025
0.000930306 0.000168611 -3.81376e-07
0.000168611 0.000256951 -1.73322e-06
-3.81376e-07 -1.73322e-06 0.00011851
-0.00235959 -0.000623801 0.00011563
-0.000623801 -0.00201667 1.38577e-05
0.00011563 1.38577e-05 -0.00221998
-0.0024436 -0.000489411 -0.000134061
-0.000489411 0.00117861 -6.70345e-05
-0.000134061 -6.70345e-05 -0.00063098
0.00281247 0.000448778 -8.34048e-06
0.000448778 0.000650209 -4.45997e-07
-8.34048e-06 -4.45997e-07 0.000680333
0.00084714 0.00020075 -2.18688e-06
0.00020075 0.00013651 9.73722e-07
-2.18688e-06 9.73722e-07 -6.92295e-05
0.000903597 0.000413807 3.1253e-06
0.000413807 -9.02117e-06 1.64394e-06
3.1253e-06 1.64394e-06 -0.000286904
0.00107577 0.000375306 1.41184e-05
0.000375306 -1.45216e-05 1.33017e-05
1.41184e-05 1.33017e-05 -4.52012e-05
0.00818667 0.000483316 -5.10335e-05
0.000483316 0.00131483 -2.69098e-05
-5.10335e-05 -2.69098e-05 -0.000458724
0.00637439 0.00127445 -5.54828e-05
0.00127445 0.00164101 -2.26951e-05
-5.54828e-05 -2.26951e-05 0.000863316
0.00957849 -0.0015313 0.00011626
-0.0015313 0.00443263 -4.65816e-05
0.00011626 -4.65816e-05 0.00430264
0.00411348 -0.00122255 0.000131994
-0.00122255 -0.00148894 0.000277768
0.000131994 0.000277768 -0.000241653
0.00146448 0.000154221 -1.49911e-05
0.000154221 0.000581132 -7.72034e-06
-1.49911e-05 -7.72034e-06 0.00045855
-0.00527035 0.000228615 -8.5765e-05
0.000228615 0.000793695 -4.85744e-05
-8.5765e-05 -4.85744e-05 -0.00164161
0.00303586 0.000262426 -0.000144462
0.000262426 0.00146037 -0.000203016
-0.000144462 -0.000203016 -0.000937245
0.00101762 0.000382239 -1.65916e-05
0.000382239 -4.64492e-05 5.79133e-06
-1.65916e-05 5.79133e-06 -5.32705e-05
0.00103276 0.000395093 -4.37186e-05
0.000395093 0.000314046 -1.56986e-05
-4.37186e-05 -1.56986e-05 6.60114e-05
0.00236739 0.000339152 -6.57482e-05
0.000339152 0.00120176 -5.63273e-06
-6.57482e-05 -5.63273e-06 0.000839407
0.00252116 0.000930234 -4.16197e-05
0.000930234 0.0002534 -1.54244e-05
-4.16197e-05 -1.54244e-05 -5.04338e-05
0.00134518 0.000652973 0.000140644
0.000652973 4.34713e-05 0.00010441
0.000140644 0.00010441 -0.00253519
0.00965463 -0.00172559 5.98474e-05
-0.00172559 0.00318303 0.000239972
5.98474e-05 0.000239972 0.00274394
0.00391003 -0.000785298 -4.29127e-05
-0.000785298 -0.0019732 -3.78402e-05
-4.29127e-05 -3.78402e-05 -0.000762982
0.000824551 9.24199e-05 3.39579e-06
9.24199e-05 0.000183864 3.30847e-06
3.39579e-06 3.30847e-06 7.7595e-05
0.0012585 0.000124196 5.37438e-06
0.000124196 0.000431034 2.67022e-06
5.37438e-06 2.67022e-06 0.000339538
9.15006e-05 4.28617e-05 2.93266e-06
4.28617e-05 -0.000193836 -3.25061e-06
2.93266e-06 -3.25061e-06 -0.000278876
0.000482935 4.46688e-05 1.21301e-06
4.46688e-05 -4.63844e-05 -1.09468e-07
1.21301e-06 -1.09468e-07 -0.000137406
0.000766284 5.05763e-05 -7.11003e-07
5.05763e-05 0.000136479 -1.07771e-06
-7.11003e-07 -1.07771e-06 1.82165e-05
0.000759335 -5.88472e-06 -3.14213e-07
-5.88472e-06 0.000107554 9.73569e-07
-3.14213e-07 9.73569e-07 -6.4276e-07
0.000786673 3.95449e-07 1.98691e-06
3.95449e-07 0.000130377 4.00387e-07
1.98691e-06 4.00387e-07 2.18991e-05
0.00055082 3.42774e-05 5.43453e-07
3.42774e-05 -6.6671e-06 2.76801e-06
5.43453e-07 2.76801e-06 -9.83688e-05
0.000782796 4.23517e-05 -2.04862e-08
4.23517e-05 0.000144495 -7.88227e-07
-2.04862e-08 -7.88227e-07 2.30165e-05
0.000879688 3.80673e-05 -6.60789e-08
3.80673e-05 0.000173867 2.69622e-07
-6.60789e-08 2.69622e-07 7.48641e-05
0.000792373 -3.29518e-05 -3.87172e-07
-3.29518e-05 0.000130293 4.97518e-07
-3.87172e-07 4.97518e-07 1.4559e-05
0.000126654 3.49495e-05 -3.32002e-08
3.49495e-05 -0.000214191 4.81215e-07
-3.32002e-08 4.81215e-07 -0.000311743
-0.000429791 2.07608e-05 -1.62032e-06
2.07608e-05 -0.000415413 -2.7202e-06
-1.62032e-06 -2.7202e-06 -0.000534471
0.000911274 -2.48329e-06 -2.50094e-06
-2.48329e-06 0.000202884 -3.69025e-06
-2.50094e-06 -3.69025e-06 9.39856e-05
0.000937024 1.09286e-05 -6.3667e-07
1.09286e-05 0.000233794 -1.07668e-06
-6.3667e-07 -1.07668e-06 9.46922e-05
0.00082313 -5.46761e-05 5.71501e-08
-5.46761e-05 0.000170475 -6.88218e-07
5.71501e-08 -6.88218e-07 5.04034e-05
0.000876579 -2.56071e-05 -6.99299e-08
-2.56071e-05 0.000176856 1.29101e-06
-6.99299e-08 1.29101e-06 7.86602e-05
0.000851273 -4.87091e-05 1.7325e-07
-4.87091e-05 0.000177986 -6.17376e-07
1.7325e-07 -6.17376e-07 5.8178e-05
0.000771608 1.30926e-05 -2.60508e-07
1.30926e-05 0.000124063 -9.53288e-08
-2.60508e-07 -9.53288e-08 2.39352e-05
0.000477203 -4.04186e-05 1.32883e-07
-4.04186e-05 -5.55525e-05 8.15021e-07
1.32883e-07 8.15021e-07 -0.000145229
0.000655871 2.06786e-05 7.58285e-07
2.06786e-05 5.90575e-05 4.5446e-07
7.58285e-07 4.5446e-07 -3.82406e-05
0.000454591 -1.59532e-05 -1.23701e-06
-1.59532e-05 -4.19e-05 -3.32596e-06
-1.23701e-06 -3.32596e-06 -0.000153635
0.000475546 -3.25301e-05 1.66679e-06
-3.25301e-05 -5.72866e-05 -1.09908e-06
1.66679e-06 -1.09908e-06 -0.000144799
0.000778293 -2.0979e-05 3.86219e-06
-2.0979e-05 9.60782e-05 -4.90187e-06
3.86219e-06 -4.90187e-06 3.57072e-07
8.31046e-05 -4.15397e-05 1.19391e-06
-4.15397e-05 -0.000262545 6.33922e-07
1.19391e-06 6.33922e-07 -0.000412544
0.000317209 1.54777e-05 -3.34707e-07
1.54777e-05 -0.000127683 -1.0272e-06
-3.34707e-07 -1.0272e-06 -0.000234305
0.000726261 4.897e-06 2.40883e-07
4.897e-06 9.73566e-05 3.97876e-07
2.40883e-07 3.97876e-07 -3.17876e-06
0.000656131 -2.15789e-06 -1.67636e-08
-2.15789e-06 5.34932e-05 3.05988e-07
-1.67636e-08 3.05988e-07 -3.55464e-05
0.000725708 -2.00169e-05 -1.45434e-07
-2.00169e-05 0.000104792 -4.88802e-08
-1.45434e-07 -4.88802e-08 7.47567e-06
0.000606471 5.16893e-06 -6.67236e-07
5.16893e-06 1.86859e-05 7.95892e-07
-6.67236e-07 7.95892e-07 -5.71953e-05
0.00076762 -1.7398e-05 3.51744e-07
-1.7398e-05 0.000128939 5.44165e-08
3.51744e-07 5.44165e-08 2.87232e-05
0.000687242 -3.92601e-05 -3.87397e-07
-3.92601e-05 6.62968e-05 8.48119e-08
-3.87397e-07 8.48119e-08 -1.28401e-05
0.000595046 3.97064e-05 -8.14431e-07
3.97064e-05 -8.31239e-06 2.20585e-06
-8.14431e-07 2.20585e-06 -5.95681e-05
0.000575527 -6.27061e-05 1.59042e-06
-6.27061e-05 -3.03171e-06 -9.02885e-07
1.59042e-06 -9.02885e-07 -8.57793e-05
0.00062125 3.83806e-06 -2.53584e-07
3.83806e-06 7.80568e-06 -1.60119e-08
-2.53584e-07 -1.60119e-08 -4.23223e-05
0.00137746 2.43677e-05 -4.70191e-06
2.43677e-05 0.000435347 5.38509e-06
-4.70191e-06 5.38509e-06 0.000423856
0.000610803 -1.67061e-05 8.7695e-07
-1.67061e-05 7.60394e-06 -1.96258e-06
8.7695e-07 -1.96258e-06 -4.38901e-05
0.000965825 1.37038e-05 -2.57756e-06
1.37038e-05 0.00019188 7.55089e-07
-2.57756e-06 7.55089e-07 0.000178879
0.000778165 1.46111e-05 -2.26269e-07
1.46111e-05 7.97962e-05 1.98302e-06
-2.26269e-07 1.98302e-06 8.79272e-05
0.000570854 4.93711e-06 5.58263e-07
4.93711e-06 -4.19337e-05 -3.71906e-06
5.58263e-07 -3.71906e-06 -5.68355e-05
0.00235776 1.33143e-05 3.91909e-06
1.33143e-05 0.00101365 4.91355e-08
3.91909e-06 4.91355e-08 0.00102953
0.00235393 1.9295e-06 -5.25017e-07
1.9295e-06 0.00101101 -5.23261e-06
-5.25017e-07 -5.23261e-06 0.00102705
0.000999429 7.17892e-05 -1.19984e-06
7.17892e-05 0.000261437 -8.22388e-07
-1.19984e-06 -8.22388e-07 0.00018425
0.000628518 3.0817e-05 -1.11942e-06
3.0817e-05 1.58699e-05 -1.92655e-06
-1.11942e-06 -1.92655e-06 -2.42771e-05
0.000657899 -6.47239e-06 6.68649e-07
-6.47239e-06 6.52552e-05 8.71935e-07
6.68649e-07 8.71935e-07 -1.34421e-05
0.000611391 2.79371e-06 6.86742e-08
2.79371e-06 -2.34841e-05 -3.33353e-06
6.86742e-08 -3.33353e-06 -2.98952e-05
0.000619301 -9.37163e-06 2.27797e-07
-9.37163e-06 8.17626e-06 -2.85105e-08
2.27797e-07 -2.85105e-08 -2.96161e-05
0.000631745 -2.71948e-05 -1.34886e-06
-2.71948e-05 1.324e-05 1.41765e-06
-1.34886e-06 1.41765e-06 -2.47803e-05
0.000595568 8.00756e-06 -1.93703e-07
8.00756e-06 -3.23338e-05 -2.37307e-08
-1.93703e-07 -2.37307e-08 -3.86886e-05
0.00202427 1.33559e-05 3.19543e-06
1.33559e-05 0.000816874 -4.64249e-06
3.19543e-06 -4.64249e-06 0.00083616
0.00116878 2.04771e-05 -6.58842e-07
2.04771e-05 0.000307737 1.90736e-06
-6.58842e-07 1.90736e-06 0.000304158
0.00141161 2.20713e-05 1.11547e-06
2.20713e-05 0.000456145 2.6605e-08
1.11547e-06 2.6605e-08 0.00047129
0.000869702 2.62303e-05 -1.31397e-05
2.62303e-05 0.000139877 7.04542e-06
-1.31397e-05 7.04542e-06 0.000150189
-0.00800321 0.000335474 0.000194361
0.000335474 -0.00352941 2.5775e-06
0.000194361 2.5775e-06 -0.00432867
-0.00190284 8.17947e-05 0.000221467
8.17947e-05 0.00162232 1.25221e-05
0.000221467 1.25221e-05 0.000220944
0.00426804 0.000216094 -0.000210881
0.000216094 0.000297485 -1.40326e-05
-0.000210881 -1.40326e-05 0.000515187
0.000453258 3.86616e-05 3.28927e-05
3.86616e-05 -0.000914312 -7.2363e-06
3.28927e-05 -7.2363e-06 -0.000896714
0.00148223 -2.52507e-05 1.88272e-05
-2.52507e-05 -0.000190108 -6.50954e-07
1.88272e-05 -6.50954e-07 -0.000206664
0.000422774 5.0244e-05 -1.65408e-06
5.0244e-05 -0.000710461 -5.75806e-06
-1.65408e-06 -5.75806e-06 -0.00069436
0.00253058 -0.000103947 -5.34403e-08
-0.000103947 0.000245408 3.73495e-06
-5.34403e-08 3.73495e-06 0.000209375
0.00870332 0.000127368 4.44111e-05
0.000127368 0.00145908 -3.01721e-05
4.44111e-05 -3.01721e-05 0.000443279
-0.00335374 0.000951696 -2.95036e-05
0.000951696 -0.000881462 -1.06799e-05
-2.95036e-05 -1.06799e-05 -0.00194114
-0.00137436 0.00184612 -0.000109546
0.00184612 -8.56424e-05 5.31581e-05
-0.000109546 5.31581e-05 0.00115207
0.00173872 -0.000220451 5.7191e-05
-0.000220451 -0.000619424 1.58623e-06
5.7191e-05 1.58623e-06 -0.000752383
0.01187 -0.000264605 8.49037e-05
-0.000264605 0.00343192 -3.11414e-05
8.49037e-05 -3.11414e-05 0.00197291
0.00252291 0.00177527 0.000120963
0.00177527 5.14e-05 -0.000231162
0.000120963 -0.000231162 0.000522553
0.00592935 0.00132024 -0.000172359
0.00132024 0.000596582 0.000112346
-0.000172359 0.000112346 0.00078453
0.000684873 7.38146e-05 -1.61046e-06
7.38146e-05 0.00010757 1.17123e-06
-1.61046e-06 1.17123e-06 -1.56926e-05
0.000534428 1.36244e-05 -1.88896e-07
1.36244e-05 -5.34931e-06 -7.56065e-07
-1.88896e-07 -7.56065e-07 -9.33141e-05
0.000688105 -8.42347e-05 -1.06522e-06
-8.42347e-05 8.3852e-05 8.74177e-07
-1.06522e-06 8.74177e-07 5.82089e-06
0.000566305 -3.81493e-06 4.50993e-07
-3.81493e-06 1.71583e-05 -2.41258e-08
4.50993e-07 -2.41258e-08 -7.6748e-05
0.000662078 6.23696e-05 9.2586e-07
6.23696e-05 9.1092e-05 1.48608e-06
9.2586e-07 1.48608e-06 -1.74867e-05
0.000862858 7.36805e-05 2.13818e-08
7.36805e-05 0.000207559 1.26145e-06
2.13818e-08 1.26145e-06 8.29973e-05
0.000763751 8.7904e-05 1.64615e-06
8.7904e-05 0.00014144 1.83543e-06
1.64615e-06 1.83543e-06 2.92559e-05
0.000673464 9.73766e-06 2.21961e-06
9.73766e-06 7.29686e-05 6.2032e-08
2.21961e-06 6.2032e-08 -3.48985e-05
0.000680875 -1.85671e-05 8.22597e-07
-1.85671e-05 9.20611e-05 -9.51709e-07
8.22597e-07 -9.51709e-07 -1.25555e-05
0.000538288 -9.05074e-06 -6.19198e-07
-9.05074e-06 -5.64232e-06 -1.08515e-07
-6.19198e-07 -1.08515e-07 -9.41781e-05
0.00150681 -0.000186065 1.66675e-05
-0.000186065 -0.00020997 -1.1291e-06
1.66675e-05 -1.1291e-06 -0.000154343
0.00143268 -0.000351686 1.88297e-05
-0.000351686 -0.000284987 -4.50913e-06
1.88297e-05 -4.50913e-06 -0.000291583
0.000168506 -0.000396502 1.21771e-05
-0.000396502 -0.000756742 3.02288e-06
1.21771e-05 3.02288e-06 -0.000901385
0.000630272 -0.000364418 3.00189e-06
-0.000364418 -0.00014549 -4.22376e-07
3.00189e-06 -4.22376e-07 -0.000381919
0.00189899 -0.00024217 9.79227e-07
-0.00024217 0.000932295 8.46755e-06
9.79227e-07 8.46755e-06 0.000590333
0.00108015 -0.000177203 1.50373e-06
-0.000177203 0.000379584 -4.18505e-07
1.50373e-06 -4.18505e-07 0.000174803
0.000977932 -7.98776e-05 -3.55088e-07
-7.98776e-05 0.000248404 -7.66428e-08
-3.55088e-07 -7.66428e-08 0.000139424
0.000708103 2.83205e-05 -1.36281e-06
2.83205e-05 0.000116548 1.81064e-06
-1.36281e-06 1.81064e-06 1.58642e-07
0.00180587 -0.000238497 4.25875e-06
-0.000238497 -5.2155e-05 -2.47223e-06
4.25875e-06 -2.47223e-06 -2.77488e-05
0.00066173 -5.82688e-05 -2.96334e-07
-5.82688e-05 9.26298e-05 -2.43578e-07
-2.96334e-07 -2.43578e-07 -4.56846e-05
0.000395822 -7.94916e-05 8.04108e-07
-7.94916e-05 -2.96966e-05 -1.37566e-06
8.04108e-07 -1.37566e-06 -0.000184293
0.00216744 -0.000481126 6.21e-06
-0.000481126 0.00020764 -5.47015e-07
6.21e-06 -5.47015e-07 0.000186862
0.00123344 -0.000525059 7.57238e-07
-0.000525059 -9.39958e-05 4.2481e-06
7.57238e-07 4.2481e-06 -0.000260673
0.000817619 -0.000370732 1.02742e-05
-0.000370732 8.23266e-05 -5.18479e-06
1.02742e-05 -5.18479e-06 -0.000173917
0.00148728 -0.000130217 -5.522e-07
-0.000130217 0.000712086 -3.55351e-06
-5.522e-07 -3.55351e-06 0.000409322
0.00154685 -0.000353229 -2.27539e-05
-0.000353229 0.00017233 3.4758e-06
-2.27539e-05 3.4758e-06 -8.33595e-05
0.00133771 -0.000400463 -3.44571e-05
-0.000400463 5.59745e-05 9.66551e-06
-3.44571e-05 9.66551e-06 -6.14852e-07
0.000140716 -0.00023545 -2.46541e-05
-0.00023545 -0.000125047 3.92321e-05
-2.46541e-05 3.92321e-05 -0.000416995
8.90942e-05 1.79545e-05 -8.55553e-08
1.79545e-05 -0.000233401 1.69458e-06
-8.55553e-08 1.69458e-06 -0.0003714
0.000418117 -0.000107389 2.09695e-06
-0.000107389 -2.59779e-05 -1.17836e-06
2.09695e-06 -1.17836e-06 -0.000180446
0.000727863 -8.60186e-05 2.60989e-06
-8.60186e-05 0.000224505 -5.38081e-06
2.60989e-06 -5.38081e-06 -1.88263e-06
0.00020527 0.000209374 -0.000143813
0.000209374 0.00339704 2.60762e-06
-0.000143813 2.60762e-06 0.00179057
0.00188777 -0.000362706 1.71273e-05
-0.000362706 0.00142221 2.16387e-05
1.71273e-05 2.16387e-05 0.00133648
0.00072443 0.000652296 -6.31721e-05
0.000652296 -0.00292515 1.25731e-05
-6.31721e-05 1.25731e-05 -0.00347862
0.000695177 0.000152538 5.60904e-06
0.000152538 0.00013429 1.65384e-06
5.60904e-06 1.65384e-06 -1.97348e-06
0.000748731 0.000236661 6.25671e-06
0.000236661 0.000107835 6.7769e-06
6.25671e-06 6.7769e-06 -0.000112104
0.0027 0.000411948 2.33066e-05
0.000411948 0.000570369 1.0699e-05
2.33066e-05 1.0699e-05 0.000611185
0.00220894 0.000448607 1.93601e-05
0.000448607 0.000692979 1.22378e-05
1.93601e-05 1.22378e-05 0.000421455
0.00671046 -0.000727684 6.05563e-05
-0.000727684 0.00251547 3.66358e-05
6.05563e-05 3.66358e-05 0.00269942
0.00259588 -1.12077e-05 -0.000137338
-1.12077e-05 -0.00152923 -9.50418e-06
-0.000137338 -9.50418e-06 -0.00315857
0.00294843 0.00114799 -7.86572e-05
0.00114799 -0.000362205 -1.51012e-05
-7.86572e-05 -1.51012e-05 -0.00107283
0.000478862 0.000228838 2.63261e-05
0.000228838 -0.000148666 -2.24594e-05
2.63261e-05 -2.24594e-05 -0.000138576
-0.00358764 -0.000823271 -8.63295e-05
-0.000823271 -0.00102209 -0.000116669
-8.63295e-05 -0.000116669 -0.00143127
-0.000440421 -0.000765827 -7.98223e-05
-0.000765827 0.00126071 1.33897e-07
-7.98223e-05 1.33897e-07 -0.000562592
0.00873404 -0.00161378 0.00019296
-0.00161378 0.000918895 0.000149956
0.00019296 0.000149956 0.00223162
0.000644729 0.000115267 5.46452e-06
0.000115267 0.000129272 -2.40333e-06
5.46452e-06 -2.40333e-06 4.94336e-07
-0.00182289 3.33417e-05 -7.50547e-05
3.33417e-05 0.00184521 -2.29414e-05
-7.50547e-05 -2.29414e-05 -0.000222551
0.00335516 0.000294683 -1.77882e-05
0.000294683 0.00154576 -6.46084e-05
-1.77882e-05 -6.46084e-05 -0.000931968
0.0012603 0.00037216 -6.59946e-06
0.00037216 0.000123165 4.24511e-06
-6.59946e-06 4.24511e-06 7.19231e-05
0.000628433 0.000264534 -3.98062e-07
0.000264534 0.000122634 2.07716e-06
-3.98062e-07 2.07716e-06 -0.000118225
-0.000380214 0.000244349 2.6079e-05
0.000244349 -0.000311536 -3.53913e-05
2.6079e-05 -3.53913e-05 -0.000573403
0.00546583 0.00137025 -8.25623e-06
0.00137025 0.00183421 4.81906e-06
-8.25623e-06 4.81906e-06 0.00117801
0.0108343 0.000702586 5.49756e-05
0.000702586 0.00380738 2.09964e-05
5.49756e-05 2.09964e-05 0.00187132
0.0035216 -0.00111861 2.02296e-05
-0.00111861 -0.000565503 -3.78944e-05
2.02296e-05 -3.78944e-05 -0.00091402
0.00857328 -0.00106217 9.68231e-06
-0.00106217 0.00109992 -2.94869e-05
9.68231e-06 -2.94869e-05 0.00224536
0.00106993 0.000204956 -1.35581e-05
0.000204956 0.000427487 -1.01738e-05
-1.35581e-05 -1.01738e-05 0.000297538
0.00261906 4.23722e-05 -0.000101826
4.23722e-05 0.000890429 -3.41483e-05
-0.000101826 -3.41483e-05 -0.00068644
-0.000114102 7.4039e-05 -3.58027e-05
7.4039e-05 0.000114943 -8.90803e-05
-3.58027e-05 -8.90803e-05 -0.00147654
-0.000970382 5.86181e-05 -1.61191e-05
5.86181e-05 -0.000465534 -1.74119e-05
-1.61191e-05 -1.74119e-05 -0.000620464
0.00173753 0.000362957 -3.62341e-05
0.000362957 0.000828489 4.29567e-05
-3.62341e-05 4.29567e-05 0.000140833
0.00955448 0.00105251 4.11261e-05
0.00105251 0.00389213 8.47899e-07
4.11261e-05 8.47899e-07 0.00100162
-0.00684491 -0.00165082 -4.12508e-05
-0.00165082 -0.00380827 0.000110433
-4.12508e-05 0.000110433 -0.00574864
0.00704401 0.000366872 1.30268e-05
0.000366872 -0.000841273 -0.000155817
1.30268e-05 -0.000155817 0.000915213
0.000981228 9.90205e-05 2.76301e-06
9.90205e-05 0.000258365 6.64251e-06
2.76301e-06 6.64251e-06 0.000172776
0.00092474 0.000111832 -4.36173e-06
0.000111832 0.00029455 -1.17281e-06
-4.36173e-06 -1.17281e-06 0.000198917
0.000233618 6.5083e-05 -3.38508e-06
6.5083e-05 3.71385e-05 -1.78035e-06
-3.38508e-06 -1.78035e-06 -0.00010865
0.000783835 7.85306e-05 -2.40253e-06
7.85306e-05 0.000135259 -9.22278e-07
-2.40253e-06 -9.22278e-07 2.07042e-05
0.000860062 -2.82318e-05 -7.5866e-07
-2.82318e-05 0.000179806 9.97505e-07
-7.5866e-07 9.97505e-07 5.71982e-05
0.000664287 3.74998e-05 8.17182e-07
3.74998e-05 4.74086e-05 1.8816e-06
8.17182e-07 1.8816e-06 -5.2804e-05
0.000173986 3.17158e-05 1.50133e-06
3.17158e-05 -0.000174299 2.75558e-06
1.50133e-06 2.75558e-06 -0.000271625
0.000836534 -2.20618e-06 1.02324e-06
-2.20618e-06 0.000158703 1.18925e-07
1.02324e-06 1.18925e-07 3.24096e-05
0.000861986 2.13389e-05 1.55969e-07
2.13389e-05 0.000178127 -7.95807e-07
1.55969e-07 -7.95807e-07 6.73454e-05
0.000270834 -2.62078e-06 3.0397e-08
-2.62078e-06 -1.10831e-06 1.73472e-06
3.0397e-08 1.73472e-06 -0.000129782
-0.000380214 1.51894e-05 -4.22392e-06
1.51894e-05 -0.000192949 -1.60636e-06
-4.22392e-06 -1.60636e-06 -0.000366674
0.000901413 -8.52372e-06 -2.06501e-06
-8.52372e-06 0.000319823 -7.74362e-06
-2.06501e-06 -7.74362e-06 0.000200637
0.000947306 4.44369e-05 -1.4473e-06
4.44369e-05 0.000236588 -3.51849e-06
-1.4473e-06 -3.51849e-06 0.000108885
0.000873744 -9.95242e-05 1.69458e-06
-9.95242e-05 0.000179635 9.16962e-07
1.69458e-06 9.16962e-07 6.64576e-05
0.000764662 1.50392e-05 -2.65724e-07
1.50392e-05 0.000116694 9.6845e-08
-2.65724e-07 9.6845e-08 1.8126e-05
0.000669025 -4.84655e-05 -1.93852e-06
-4.84655e-05 5.81574e-05 2.8152e-06
-1.93852e-06 2.8152e-06 -3.08595e-05
0.000529143 -2.83865e-05 1.51924e-06
-2.83865e-05 -9.81045e-06 1.20788e-06
1.51924e-06 1.20788e-06 -0.000113807
0.00072909 1.66172e-05 2.79276e-07
1.66172e-05 0.000102269 9.19306e-08
2.79276e-07 9.19306e-08 3.34216e-06
0.000625651 -1.68069e-05 -7.52484e-07
-1.68069e-05 3.05072e-05 3.14223e-09
-7.52484e-07 3.14223e-09 -5.63333e-05
0.000913445 -1.09089e-05 -2.31531e-07
-1.09089e-05 0.000186977 -2.67664e-06
-2.31531e-07 -2.67664e-06 9.56365e-05
0.000127944 -3.50292e-05 3.07667e-06
-3.50292e-05 -0.00021273 -4.07647e-06
3.07667e-06 -4.07647e-06 -0.000291133
0.000293293 -8.60866e-05 1.92997e-06
-8.60866e-05 -0.000235353 -1.4832e-06
1.92997e-06 -1.4832e-06 -0.000330426
0.000867753 -4.75072e-05 -2.30307e-06
-4.75072e-05 0.000153313 -3.75442e-07
-2.30307e-06 -3.75442e-07 5.29789e-05
0.000513874 -9.13337e-05 4.98794e-06
-9.13337e-05 -2.82098e-05 2.56731e-06
4.98794e-06 2.56731e-06 -0.000168437
0.00117318 -0.000226691 -1.04892e-06
-0.000226691 0.000320247 6.76934e-06
-1.04892e-06 6.76934e-06 0.000104312
0.00124492 -0.000102415 1.91372e-06
-0.000102415 0.000418223 -1.6471e-06
1.91372e-06 -1.6471e-06 0.000287247
0.000301682 -6.55243e-05 -1.93919e-06
-6.55243e-05 -0.000123729 -4.55385e-06
-1.93919e-06 -4.55385e-06 -0.000272338
0.000639787 7.25784e-07 -3.11826e-07
7.25784e-07 5.23641e-05 -1.63473e-07
-3.11826e-07 -1.63473e-07 -5.2373e-05
0.00037214 5.04953e-06 5.80762e-07
5.04953e-06 -0.000100781 -1.18437e-07
5.80762e-07 -1.18437e-07 -0.000197988
0.000849873 -7.16321e-06 -4.37855e-07
-7.16321e-06 0.000168122 9.84027e-07
-4.37855e-07 9.84027e-07 6.56909e-05
0.000745654 -2.91923e-05 -5.61891e-07
-2.91923e-05 0.000114637 5.68075e-07
-5.61891e-07 5.68075e-07 1.71432e-05
0.00063933 -1.12561e-05 -6.65338e-07
-1.12561e-05 3.41638e-05 8.13975e-07
-6.65338e-07 8.13975e-07 -4.02802e-05
0.000829059 -4.79834e-05 1.13025e-07
-4.79834e-05 0.000176575 -4.18793e-07
1.13025e-07 -4.18793e-07 6.94122e-05
0.000690133 -4.44288e-05 -5.5075e-07
-4.44288e-05 6.87339e-05 -1.63626e-08
-5.5075e-07 -1.63626e-08 -9.32324e-06
0.000613773 3.11694e-05 -1.87351e-06
3.11694e-05 1.08233e-06 1.79322e-06
-1.87351e-06 1.79322e-06 -4.96831e-05
0.000724503 -7.50436e-05 1.7507e-06
-7.50436e-05 9.11196e-05 -1.03518e-06
1.7507e-06 -1.03518e-06 9.399e-06
0.000657823 -4.96691e-06 -2.71923e-07
-4.96691e-06 2.46829e-05 3.04811e-08
-2.71923e-07 3.04811e-08 -2.45063e-05
0.00136725 3.38989e-05 -7.15463e-06
3.38989e-05 0.000429955 5.33774e-06
-7.15463e-06 5.33774e-06 0.000418153
0.000633051 -2.43592e-05 1.91552e-06
-2.43592e-05 1.58286e-05 -2.02691e-06
1.91552e-06 -2.02691e-06 -3.5121e-05
0.000968886 2.18251e-05 -3.4661e-06
2.18251e-05 0.000193597 7.17551e-07
-3.4661e-06 7.17551e-07 0.000180351
0.000786098 2.30166e-05 -5.67678e-07
2.30166e-05 8.7791e-05 2.03841e-06
-5.67678e-07 2.03841e-06 9.48257e-05
0.000564518 1.07718e-05 4.85669e-07
1.07718e-05 -4.61617e-05 -3.80106e-06
4.85669e-07 -3.80106e-06 -6.09806e-05
0.00155826 2.25006e-05 5.4898e-06
2.25006e-05 0.000541772 -1.48857e-06
5.4898e-06 -1.48857e-06 0.000553552
0.00234455 1.57317e-05 4.09901e-06
1.57317e-05 0.00100608 -5.12092e-06
4.09901e-06 -5.12092e-06 0.00102196
0.000720489 4.10293e-06 1.13376e-06
4.10293e-06 8.93934e-05 -1.32049e-06
1.13376e-06 -1.32049e-06 9.66058e-06
0.000660468 2.56748e-05 -6.39147e-07
2.56748e-05 3.24127e-05 -1.89592e-06
-6.39147e-07 -1.89592e-06 -9.42651e-06
0.000715562 -2.79391e-06 1.07226e-06
-2.79391e-06 9.2826e-05 2.75985e-07
1.07226e-06 2.75985e-07 1.59497e-05
0.000602533 -3.08749e-06 1.70082e-07
-3.08749e-06 -2.82812e-05 -3.46833e-06
1.70082e-07 -3.46833e-06 -3.54724e-05
0.000619551 1.98961e-05 5.54417e-08
1.98961e-05 9.50722e-06 -1.77778e-08
5.54417e-08 -1.77778e-08 -2.99059e-05
0.000669318 -8.38015e-05 -3.39766e-06
-8.38015e-05 6.66214e-05 1.48137e-06
-3.39766e-06 1.48137e-06 -7.92923e-06
0.0020344 1.06024e-06 -1.46482e-06
1.06024e-06 0.000821558 -4.72982e-06
-1.46482e-06 -4.72982e-06 0.000841115
0.000598166 2.54307e-06 -1.72622e-07
2.54307e-06 -3.10226e-05 -9.8214e-09
-1.72622e-07 -9.8214e-09 -3.74032e-05
0.00060898 -1.92141e-05 -1.26421e-06
-1.92141e-05 1.38427e-06 1.60816e-06
-1.26421e-06 1.60816e-06 -3.60103e-05
0.000580817 7.83762e-06 -3.73439e-07
7.83762e-06 -4.10674e-05 3.25528e-06
-3.73439e-07 3.25528e-06 -4.73719e-05
0.00204034 1.47648e-05 -3.68e-06
1.47648e-05 0.000826531 -4.43472e-08
-3.68e-06 -4.43472e-08 0.000845718
0.00203251 2.64497e-05 -9.89593e-06
2.64497e-05 0.000824239 4.35829e-06
-9.89593e-06 4.35829e-06 0.000842823
-0.00389234 -0.000301103 -4.47432e-05
-0.000301103 0.00125566 1.53803e-05
-4.47432e-05 1.53803e-05 -0.000799305
-0.000896255 0.000454585 -6.69555e-05
0.000454585 -0.00044775 1.68167e-05
-6.69555e-05 1.68167e-05 -0.000948165
0.00366311 -0.000327924 -0.00021699
-0.000327924 0.00113337 0.00015794
-0.00021699 0.00015794 -0.00104342
-0.00285395 0.000126017 0.00030734
0.000126017 0.00167017 -0.000135138
0.00030734 -0.000135138 0.000309969
0.00054783 0.000230219 -3.42984e-05
0.000230219 -0.001085 6.83809e-06
-3.42984e-05 6.83809e-06 -0.00113712
0.00240536 -0.000155384 9.87769e-05
-0.000155384 0.000111122 -9.4555e-06
9.87769e-05 -9.4555e-06 9.45923e-05
0.00126952 -0.000412601 -4.238e-05
-0.000412601 -0.0019326 -5.74438e-05
-4.238e-05 -5.74438e-05 -0.00325837
0.00956375 0.000964824 -9.59522e-05
0.000964824 0.0046954 -2.1186e-05
-9.59522e-05 -2.1186e-05 0.00415277
-0.00764891 0.00205239 -0.000525662
0.00205239 -0.00367752 0.000402461
-0.000525662 0.000402461 -0.00187952
0.00264251 -8.78947e-05 -7.10722e-06
-8.78947e-05 -0.000235442 -5.05414e-06
-7.10722e-06 -5.05414e-06 -0.000372132
0.00453358 -0.000364868 4.44195e-05
-0.000364868 -0.000112768 -5.60896e-05
4.44195e-05 -5.60896e-05 -0.00217618
0.010132 0.00178523 -6.80238e-05
0.00178523 0.00319051 -7.28024e-05
-6.80238e-05 -7.28024e-05 0.0037321
0.00311262 0.00126895 -6.35383e-05
0.00126895 -0.00127532 0.000156683
-6.35383e-05 0.000156683 -0.000960937
0.00295895 -0.000630894 -6.43872e-05
-0.000630894 -0.000466295 1.89318e-05
-6.43872e-05 1.89318e-05 -0.000568111
0.00279219 -0.000817862 0.000182204
-0.000817862 0.00021883 -0.000121061
0.000182204 -0.000121061 -0.00297558
-0.00479332 0.000917061 -6.15944e-05
0.000917061 -0.00431001 -0.000297484
-6.15944e-05 -0.000297484 -0.00440197
0.00298081 0.000767464 -7.33483e-05
0.000767464 -0.00295474 3.39712e-06
-7.33483e-05 3.39712e-06 -0.00182476
0.000937097 -1.56273e-05 6.2896e-07
-1.56273e-05 0.000259932 2.63633e-06
6.2896e-07 2.63633e-06 0.000121813
0.000709378 6.36945e-05 -1.78816e-06
6.36945e-05 0.000117018 -1.07421e-06
-1.78816e-06 -1.07421e-06 -5.41021e-07
0.000653437 5.92949e-05 1.54921e-07
5.92949e-05 6.0787e-05 -1.43573e-06
1.54921e-07 -1.43573e-06 -2.33727e-05
0.000661289 6.56954e-05 3.12682e-06
6.56954e-05 9.36892e-05 1.11184e-06
3.12682e-06 1.11184e-06 -1.37014e-05
0.00066522 4.1127e-05 2.3096e-07
4.1127e-05 8.33195e-05 1.16896e-06
2.3096e-07 1.16896e-06 -5.46636e-05
0.00077482 7.3022e-05 7.5334e-08
7.3022e-05 0.000154195 1.19344e-06
7.5334e-08 1.19344e-06 3.26158e-05
0.000632765 2.29954e-05 -5.38913e-07
2.29954e-05 6.47498e-05 4.85401e-07
-5.38913e-07 4.85401e-07 -4.37185e-05
0.000886659 0.000120235 7.99315e-07
0.000120235 0.000220409 1.33264e-06
7.99315e-07 1.33264e-06 9.14319e-05
0.000841268 7.17043e-05 -1.31069e-07
7.17043e-05 0.000192373 3.98236e-07
-1.31069e-07 3.98236e-07 7.16959e-05
0.000541786 -5.08615e-06 -2.48683e-06
-5.08615e-06 1.11212e-05 -1.03085e-06
-2.48683e-06 -1.03085e-06 -9.57081e-05
0.000881235 -0.000204035 3.60229e-05
-0.000204035 -0.000517911 -1.72962e-05
3.60229e-05 -1.72962e-05 -0.000477373
0.000906067 -0.000419889 2.76926e-05
-0.000419889 -0.000463027 -5.6734e-06
2.76926e-05 -5.6734e-06 -0.000484957
0.00172346 -0.000570648 1.49375e-05
-0.000570648 0.000157883 -8.02787e-07
1.49375e-05 -8.02787e-07 -1.29862e-05
0.000481535 -0.000386927 7.35452e-06
-0.000386927 -0.000109254 -1.3809e-05
7.35452e-06 -1.3809e-05 -0.000397599
0.00170979 -0.000158107 -1.47597e-06
-0.000158107 0.000799326 1.34568e-05
-1.47597e-06 1.34568e-05 0.000524628
0.000659929 -8.95319e-05 -8.91942e-07
-8.95319e-05 0.000127841 3.43575e-06
-8.91942e-07 3.43575e-06 -3.38084e-05
0.000564507 7.34653e-05 -1.84596e-07
7.34653e-05 4.26243e-05 -1.94506e-06
-1.84596e-07 -1.94506e-06 -9.82249e-05
0.000738733 -4.91977e-05 -4.8337e-07
-4.91977e-05 0.00014703 2.3373e-06
-4.8337e-07 2.3373e-06 -2.05815e-06
0.00149712 -0.000311479 -3.2304e-07
-0.000311479 8.79332e-05 -6.24994e-07
-3.2304e-07 -6.24994e-07 -6.88572e-05
0.000762517 -1.40988e-05 1.19777e-07
-1.40988e-05 0.00016855 8.09223e-07
1.19777e-07 8.09223e-07 1.1805e-05
0.00139002 -0.000130405 -1.55966e-07
-0.000130405 0.00060782 -4.63899e-08
-1.55966e-07 -4.63899e-08 0.000371056
0.00129541 -0.000407273 -5.51319e-07
-0.000407273 2.83677e-07 -7.03022e-08
-5.51319e-07 -7.03022e-08 -4.59086e-05
0.000828644 -0.000273194 -1.53551e-05
-0.000273194 0.000231248 4.90993e-06
-1.53551e-05 4.90993e-06 -5.03022e-05
0.000504951 -0.000461152 -1.31156e-05
-0.000461152 -0.000475323 -2.29785e-05
-1.31156e-05 -2.29785e-05 -0.000454125
0.00100718 -0.000218862 -2.09681e-05
-0.000218862 0.000321354 2.11624e-05
-2.09681e-05 2.11624e-05 0.000219551
-0.000598578 -4.22023e-05 -1.64084e-06
-4.22023e-05 -0.000460648 2.54677e-05
-1.64084e-06 2.54677e-05 -0.000721191
0.000682402 8.03308e-06 -4.95711e-07
8.03308e-06 9.39272e-05 -3.36057e-06
-4.95711e-07 -3.36057e-06 -4.63122e-05
0.000591381 3.23212e-05 1.49006e-06
3.23212e-05 0.000145526 -3.76309e-06
1.49006e-06 -3.76309e-06 -6.7304e-05
0.00170961 -4.47092e-05 -1.6456e-05
-4.47092e-05 0.000992308 -5.65834e-06
-1.6456e-05 -5.65834e-06 -0.000496001
-0.00225817 8.2255e-05 -0.000114774
8.2255e-05 0.00250557 -5.17724e-06
-0.000114774 -5.17724e-06 0.000560411
-0.00926691 -0.000503597 -0.000289113
-0.000503597 -0.00489156 5.52918e-06
-0.000289113 5.52918e-06 -0.00473883
-0.000109964 9.08171e-05 6.17449e-06
9.08171e-05 -0.00027873 -1.48419e-06
6.17449e-06 -1.48419e-06 -0.000419745
0.000126353 0.000150867 3.45687e-06
0.000150867 -0.000130623 5.75705e-06
3.45687e-06 5.75705e-06 -0.000365893
0.0017766 0.00036694 1.88765e-05
0.00036694 0.000388515 4.30795e-06
1.88765e-05 4.30795e-06 0.000338595
-0.00364593 0.000364631 -2.35521e-05
0.000364631 0.00111111 1.28623e-05
-2.35521e-05 1.28623e-05 -0.0011098
0.00159048 0.000653867 -8.25527e-05
0.000653867 7.17727e-05 -7.96837e-05
-8.25527e-05 -7.96837e-05 -0.00309941
0.00295607 0.00102325 0.000134168
0.00102325 0.000416285 3.00393e-05
0.000134168 3.00393e-05 -7.10646e-05
0.000348408 0.000301824 7.64968e-06
0.000301824 -5.65438e-05 -2.46204e-05
7.64968e-06 -2.46204e-05 -0.000112279
0.0119787 -0.00127989 1.00555e-05
-0.00127989 0.00350255 -9.89441e-05
1.00555e-05 -9.89441e-05 0.00325124
0.00390133 0.000319083 0.000127301
0.000319083 0.00177878 7.32962e-05
0.000127301 7.32962e-05 -0.000777394
0.00861046 -0.000942135 5.91804e-05
-0.000942135 0.00128477 1.19551e-05
5.91804e-05 1.19551e-05 0.00249775
0.000954964 0.000190415 2.59682e-06
0.000190415 0.000404602 -1.9049e-06
2.59682e-06 -1.9049e-06 0.000269247
0.00310708 5.08297e-05 7.446e-06
5.08297e-05 0.00136018 -4.22085e-06
7.446e-06 -4.22085e-06 9.60781e-06
0.000517959 9.86357e-05 1.27471e-05
9.86357e-05 0.000161149 1.12438e-05
1.27471e-05 1.12438e-05 -0.00142528
-0.000252952 0.000188659 -7.26628e-06
0.000188659 -0.00014699 -1.4815e-06
-7.26628e-06 -1.4815e-06 -0.000340226
0.00235614 0.000569399 -7.05054e-05
0.000569399 0.00095452 -3.77927e-05
-7.05054e-05 -3.77927e-05 0.000183506
0.00265783 0.00146916 6.88996e-05
0.00146916 0.000834667 5.39136e-05
6.88996e-05 5.39136e-05 -0.00227423
0.00543465 0.00014933 -9.64917e-06
0.00014933 -0.00228355 -0.000102078
-9.64917e-06 -0.000102078 -0.000164562
0.00186184 -0.00102919 -2.80902e-05
-0.00102919 0.000271896 -3.81731e-05
-2.80902e-05 -3.81731e-05 -0.00117418
0.000763435 0.000135421 -8.37761e-06
0.000135421 0.00048984 -1.12374e-05
-8.37761e-06 -1.12374e-05 0.000336828
0.000733343 -6.50251e-05 -8.03865e-06
-6.50251e-05 9.81323e-05 -1.30821e-05
-8.03865e-06 -1.30821e-05 5.97739e-05
0.00261102 9.92186e-06 2.52422e-05
9.92186e-06 0.00032816 -7.48572e-05
2.52422e-05 -7.48572e-05 -0.000818831
0.00316828 0.000804186 8.01905e-05
0.000804186 -0.00280035 -3.20266e-06
8.01905e-05 -3.20266e-06 -0.00178598
-0.000713965 9.29555e-05 -5.5996e-06
9.29555e-05 -4.1825e-05 -1.83297e-05
-5.5996e-06 -1.83297e-05 -0.000522967
0.0103108 0.00111649 0.000120475
0.00111649 0.0049774 4.95879e-05
0.000120475 4.95879e-05 0.00147905
-0.00903926 -0.000310316 6.60266e-05
-0.000310316 -0.000752566 0.000175013
6.60266e-05 0.000175013 -0.00259192
0.00192502 0.000201597 1.62181e-05
0.000201597 0.00088098 8.01229e-06
1.62181e-05 8.01229e-06 0.000770614
0.000564082 0.000110485 -4.36768e-06
0.000110485 0.000208174 -3.73299e-07
-4.36768e-06 -3.73299e-07 5.17362e-05
0.000285268 8.10037e-05 -5.17845e-06
8.10037e-05 0.000246737 -1.63076e-06
-5.17845e-06 -1.63076e-06 6.52812e-05
0.000782277 0.000131517 8.6165e-07
0.000131517 0.000136697 1.11806e-06
8.6165e-07 1.11806e-06 4.72368e-06
0.000724539 5.71417e-05 9.23094e-07
5.71417e-05 9.36021e-05 1.94006e-06
9.23094e-07 1.94006e-06 -1.30595e-05
0.000847198 1.10184e-06 6.01545e-06
1.10184e-06 0.000347006 6.87316e-06
6.01545e-06 6.87316e-06 0.000205336
0.000691288 4.4263e-05 -1.63655e-07
4.4263e-05 8.1522e-05 -1.23298e-07
-1.63655e-07 -1.23298e-07 -3.83017e-05
0.000787286 -2.39659e-05 -9.24087e-07
-2.39659e-05 0.000258374 -1.54817e-06
-9.24087e-07 -1.54817e-06 0.000136456
5.59532e-05 2.75957e-05 6.75518e-06
2.75957e-05 4.92618e-05 3.23319e-06
6.75518e-06 3.23319e-06 -0.000129297
0.000998619 1.14437e-05 -9.66237e-06
1.14437e-05 0.00053072 -1.00818e-05
-9.66237e-06 -1.00818e-05 0.000437535
0.000113394 -3.49892e-05 -2.86126e-06
-3.49892e-05 -0.00014814 -8.03239e-06
-2.86126e-06 -8.03239e-06 -0.000258841
0.000606255 -3.95378e-05 2.13503e-06
-3.95378e-05 2.26966e-05 3.51447e-06
2.13503e-06 3.51447e-06 -7.25934e-05
0.000778828 1.72266e-05 -5.02047e-07
1.72266e-05 0.000131737 2.61395e-07
-5.02047e-07 2.61395e-07 3.1475e-05
0.000831371 -8.8284e-06 -4.96079e-06
-8.8284e-06 0.000149952 3.50045e-06
-4.96079e-06 3.50045e-06 6.33214e-05
0.000724779 -4.07406e-05 2.68752e-06
-4.07406e-05 0.000125533 1.82327e-07
2.68752e-06 1.82327e-07 4.52736e-05
0.000636508 -2.0298e-06 -4.5302e-07
-2.0298e-06 3.12316e-05 2.15949e-07
-4.5302e-07 2.15949e-07 -6.16356e-05
0.000766677 -8.56906e-05 3.22038e-06
-8.56906e-05 0.00012782 -8.76199e-07
3.22038e-06 -8.76199e-07 3.22193e-05
0.000448348 -7.64981e-05 -2.20409e-06
-7.64981e-05 -0.000112054 -1.08219e-06
-2.20409e-06 -1.08219e-06 -0.000195886
7.72117e-05 -0.000153965 8.33774e-06
-0.000153965 -0.000302369 -8.49974e-07
8.33774e-06 -8.49974e-07 -0.00047511
0.000995063 -7.25995e-05 -1.31687e-06
-7.25995e-05 0.00023198 1.28301e-06
-1.31687e-06 1.28301e-06 0.000126513
0.00108655 -0.000145573 -3.06578e-07
-0.000145573 0.000290602 2.39138e-06
-3.06578e-07 2.39138e-06 0.000140309
0.000517289 -0.000196173 -2.16052e-06
-0.000196173 -0.000101028 4.35163e-06
-2.16052e-06 4.35163e-06 -0.000309996
0.000839026 -0.000203178 -4.32794e-06
-0.000203178 9.06233e-05 2.0791e-08
-4.32794e-06 2.0791e-08 -0.000121768
0.000997605 -0.000169713 -1.87214e-06
-0.000169713 0.000292689 3.41658e-06
-1.87214e-06 3.41658e-06 0.000119878
0.000492079 -0.000159191 1.56711e-06
-0.000159191 -6.9543e-05 -1.76461e-07
1.56711e-06 -1.76461e-07 -0.000272614
0.000851591 -6.04893e-05 1.09479e-06
-6.04893e-05 0.000178017 1.62225e-08
1.09479e-06 1.62225e-08 6.40618e-05
0.00104549 -9.66032e-05 -1.36016e-06
-9.66032e-05 0.000311049 -6.01284e-07
-1.36016e-06 -6.01284e-07 0.000175673
0.000515108 -8.88307e-05 1.51929e-06
-8.88307e-05 1.17859e-05 -8.82885e-06
1.51929e-06 -8.82885e-06 -0.00013477
0.000965964 -1.41744e-05 -8.18233e-07
-1.41744e-05 0.000234204 -1.45413e-07
-8.18233e-07 -1.45413e-07 0.000131474
0.00051493 -2.33024e-06 2.71488e-07
-2.33024e-06 -1.59323e-05 -5.87978e-08
2.71488e-07 -5.87978e-08 -0.000114946
0.000634666 1.09881e-06 -3.28307e-07
1.09881e-06 3.38116e-05 5.66469e-07
-3.28307e-07 5.66469e-07 -4.52404e-05
0.000798449 -4.49721e-05 -6.87123e-08
-4.49721e-05 0.000154151 4.08774e-07
-6.87123e-08 4.08774e-07 4.87499e-05
0.00068947 -2.67981e-05 -1.82496e-07
-2.67981e-05 7.04058e-05 3.44584e-08
-1.82496e-07 3.44584e-08 -9.72826e-06
0.00061516 3.1174e-05 -7.43252e-07
3.1174e-05 6.47933e-06 1.791e-06
-7.43252e-07 1.791e-06 -4.72319e-05
0.00074114 -6.04639e-05 7.02441e-07
-6.04639e-05 0.000104844 -1.08461e-06
7.02441e-07 -1.08461e-06 2.17739e-05
0.000635895 2.25682e-05 -8.34509e-07
2.25682e-05 1.42265e-05 -4.50879e-08
-8.34509e-07 -4.50879e-08 -3.70229e-05
0.00133011 4.56774e-05 -8.17157e-06
4.56774e-05 0.000411509 3.55212e-06
-8.17157e-06 3.55212e-06 0.000398883
0.000663707 -1.71462e-05 2.19787e-06
-1.71462e-05 2.87901e-05 -2.04656e-06
2.19787e-06 -2.04656e-06 -2.09795e-05
0.000950363 3.076e-05 -4.37799e-06
3.076e-05 0.000183703 6.32106e-07
-4.37799e-06 6.32106e-07 0.000170128
0.000804504 3.14318e-05 -1.14502e-06
3.14318e-05 0.000102543 2.07665e-06
-1.14502e-06 2.07665e-06 0.000108521
0.000548393 1.75152e-05 8.01316e-07
1.75152e-05 -5.60322e-05 -3.9665e-06
8.01316e-07 -3.9665e-06 -7.0896e-05
0.00156234 3.35731e-05 7.44664e-06
3.35731e-05 0.000547385 -1.35556e-06
7.44664e-06 -1.35556e-06 0.000558143
0.00234087 2.98398e-05 7.89464e-06
2.98398e-05 0.00100597 -4.99982e-06
7.89464e-06 -4.99982e-06 0.00102123
0.000465028 3.55267e-06 7.43397e-07
3.55267e-06 -4.98496e-05 -9.18513e-07
7.43397e-07 -9.18513e-07 -0.000147331
0.000350693 1.42672e-06 -1.22363e-07
1.42672e-06 -0.000149424 -3.13404e-06
-1.22363e-07 -3.13404e-06 -0.000198818
0.000759706 1.48952e-05 7.1586e-08
1.48952e-05 0.000117794 1.07573e-07
7.1586e-08 1.07573e-07 3.39888e-05
0.000597223 -8.7513e-06 1.6326e-07
-8.7513e-06 -3.09655e-05 -3.6507e-06
1.6326e-07 -3.6507e-06 -3.99024e-05
0.000475149 4.78263e-06 1.00802e-06
4.78263e-06 -7.67635e-05 -6.03185e-08
1.00802e-06 -6.03185e-08 -0.000119691
0.000451537 -7.55921e-05 -1.10071e-06
-7.55921e-05 -6.07409e-05 9.93464e-07
-1.10071e-06 9.93464e-07 -0.000140381
0.00208734 -1.16582e-05 -5.82347e-06
-1.16582e-05 0.000853011 -4.78343e-06
-5.82347e-06 -4.78343e-06 0.000872037
0.000599594 -3.10342e-06 -1.12066e-07
-3.10342e-06 -3.00493e-05 -3.85497e-08
-1.12066e-07 -3.85497e-08 -3.71732e-05
0.000602186 -8.1584e-06 -1.32649e-06
-8.1584e-06 -1.5262e-06 1.7883e-06
-1.32649e-06 1.7883e-06 -4.02795e-05
0.00204601 2.38643e-06 -3.72422e-06
2.38643e-06 0.000828511 7.67465e-09
-3.72422e-06 7.67465e-09 0.000848022
0.000584391 2.38542e-06 -2.3501e-07
2.38542e-06 -3.88864e-05 3.31551e-06
-2.3501e-07 3.31551e-06 -4.52354e-05
0.00204031 1.61201e-05 -2.92791e-06
1.61201e-05 0.000826649 4.5461e-06
-2.92791e-06 4.5461e-06 0.000845778
0.000533505 -0.000150039 -8.52991e-05
-0.000150039 -0.000163153 2.65335e-05
-8.52991e-05 2.65335e-05 -0.00157743
0.00152244 0.000150812 -2.37876e-05
0.000150812 0.00317863 -8.90398e-06
-2.37876e-05 -8.90398e-06 0.00190805
0.00120852 -0.000331144 -0.000229993
-0.000331144 0.00193548 -7.76789e-07
-0.000229993 -7.76789e-07 0.00105784
0.000758478 7.35568e-05 1.40456e-06
7.35568e-05 0.000126525 5.69348e-07
1.40456e-06 5.69348e-07 1.17341e-06
0.00375151 -0.000223832 -3.45427e-05
-0.000223832 0.00224334 8.83081e-05
-3.45427e-05 8.83081e-05 0.00110159
0.00352407 -0.000370399 -7.79706e-05
-0.000370399 0.0011692 7.97422e-06
-7.79706e-05 7.97422e-06 -0.00127689
0.00193062 0.000612346 0.000155117
0.000612346 0.002908 -0.000150507
0.000155117 -0.000150507 0.00200489
0.00383486 -0.000208094 2.11792e-05
-0.000208094 0.000194077 -3.185e-05
2.11792e-05 -3.185e-05 -7.96263e-05
0.0111563 -0.000298675 0.000103903
-0.000298675 0.00317438 -5.63096e-05
0.000103903 -5.63096e-05 0.00151408
-0.00265681 0.00139444 -0.000112217
0.00139444 -0.00373617 0.00013225
-0.000112217 0.00013225 -0.00297243
0.00530389 0.0013937 3.41592e-05
0.0013937 8.11243e-05 4.39035e-05
3.41592e-05 4.39035e-05 0.000336765
0.00479804 -0.00076041 -8.39261e-05
-0.00076041 0.000287211 -2.10336e-07
-8.39261e-05 -2.10336e-07 -0.000194837
0.0101373 -0.000662044 5.49701e-05
-0.000662044 0.00380056 -1.42782e-05
5.49701e-05 -1.42782e-05 0.00169223
0.00623551 0.000934223 5.89845e-05
0.000934223 0.000450022 -0.000108814
5.89845e-05 -0.000108814 0.000148437
0.00509137 0.000699307 -1.08547e-05
0.000699307 -0.00155328 1.18829e-05
-1.08547e-05 1.18829e-05 -0.000560555
0.00437301 -0.00123073 1.3822e-05
-0.00123073 0.000572163 -1.88892e-06
1.3822e-05 -1.88892e-06 -0.000316988
0.011005 -0.00121537 8.01594e-05
-0.00121537 0.0052976 -4.41623e-05
8.01594e-05 -4.41623e-05 0.00166045
0.00321116 -0.000157259 5.77484e-05
-0.000157259 0.000225797 -0.000163636
5.77484e-05 -0.000163636 -0.000144525
0.00681231 0.000341601 -3.36667e-05
0.000341601 -0.000804909 8.89002e-05
-3.36667e-05 8.89002e-05 0.000900723
0.000671092 -2.61765e-05 8.25655e-08
-2.61765e-05 9.22888e-05 1.36457e-06
8.25655e-08 1.36457e-06 -5.24033e-05
0.000759631 -5.11511e-05 1.43752e-07
-5.11511e-05 0.000160407 -1.18065e-07
1.43752e-07 -1.18065e-07 1.8464e-05
0.000828407 8.77457e-05 -7.31783e-07
8.77457e-05 0.000192279 -1.71799e-06
-7.31783e-07 -1.71799e-06 7.24614e-05
0.00074399 3.66379e-05 5.11348e-07
3.66379e-05 0.000109065 1.87094e-06
5.11348e-07 1.87094e-06 -1.38743e-05
0.000826945 8.86505e-05 -6.59707e-07
8.86505e-05 0.000185201 7.18885e-07
-6.59707e-07 7.18885e-07 4.65214e-05
0.000878702 6.39204e-05 -4.09637e-07
6.39204e-05 0.000214277 6.39133e-07
-4.09637e-07 6.39133e-07 9.41167e-05
0.000973931 0.000111354 -8.59624e-07
0.000111354 0.000268649 -6.13215e-08
-8.59624e-07 -6.13215e-08 0.000140888
0.000966174 0.000116984 7.54039e-07
0.000116984 0.000275354 2.27769e-06
7.54039e-07 2.27769e-06 0.000149556
0.000606407 -0.000218996 4.86816e-05
-0.000218996 -0.000458763 -1.93675e-05
4.86816e-05 -1.93675e-05 -0.000488648
0.00132475 -0.000408854 7.53948e-06
-0.000408854 -1.0764e-05 -1.48566e-05
7.53948e-06 -1.48566e-05 -5.04545e-05
0.000812321 -0.000160437 -9.21801e-07
-0.000160437 0.000197175 -1.52584e-06
-9.21801e-07 -1.52584e-06 4.061e-05
0.0021901 -0.000354881 1.41221e-05
-0.000354881 0.000965111 -2.45102e-05
1.41221e-05 -2.45102e-05 0.000691762
0.00210425 -0.000173757 -3.18656e-06
-0.000173757 0.00101167 6.83654e-06
-3.18656e-06 6.83654e-06 0.000770162
0.000953582 -6.69879e-05 -1.48795e-06
-6.69879e-05 0.000269407 -2.21547e-06
-1.48795e-06 -2.21547e-06 0.000114334
0.000698884 5.64227e-06 5.18332e-07
5.64227e-06 0.000114632 1.60977e-06
5.18332e-07 1.60977e-06 -3.15863e-05
0.000212775 -0.000447435 -8.72829e-06
-0.000447435 -0.000655484 -7.42008e-07
-8.72829e-06 -7.42008e-07 -0.00062311
0.00118696 4.82853e-05 2.42895e-07
4.82853e-05 0.000490319 1.24893e-06
2.42895e-07 1.24893e-06 0.000270084
0.00103825 -0.000150308 -1.22297e-05
-0.000150308 0.000420557 2.39971e-06
-1.22297e-05 2.39971e-06 0.000175178
0.000520759 -0.000173895 5.97199e-06
-0.000173895 1.77124e-05 4.1595e-06
5.97199e-06 4.1595e-06 -3.637e-05
0.000802419 4.48061e-05 1.69354e-06
4.48061e-05 0.000151721 -1.99307e-06
1.69354e-06 -1.99307e-06 1.82966e-05
0.0013486 -0.000373726 1.53488e-05
-0.000373726 1.71821e-05 -3.51618e-05
1.53488e-05 -3.51618e-05 0.000191717
7.30034e-05 -0.000114862 -2.87084e-06
-0.000114862 3.49976e-05 2.64058e-05
-2.87084e-06 2.64058e-05 -6.67323e-05
0.000281858 2.1982e-05 -9.94048e-09
2.1982e-05 0.000113019 9.47957e-06
-9.94048e-09 9.47957e-06 -0.00018241
0.00136711 0.00018757 1.76333e-06
0.00018757 0.00054834 -3.97003e-06
1.76333e-06 -3.97003e-06 0.000373178
0.000712546 -2.97911e-05 -8.0355e-06
-2.97911e-05 0.000653988 -8.63648e-06
-8.0355e-06 -8.63648e-06 5.27291e-05
0.00135527 -5.46468e-05 7.25086e-05
-5.46468e-05 0.000852368 -7.14089e-06
7.25086e-05 -7.14089e-06 -0.000654818
-0.00473716 -5.82722e-05 -0.000130765
-5.82722e-05 0.0016832 6.41482e-06
-0.000130765 6.41482e-06 -0.000662006
0.000946399 0.000174814 1.45671e-05
0.000174814 0.000455261 2.67517e-06
1.45671e-05 2.67517e-06 0.000312878
-0.00100322 0.000242778 1.0928e-05
0.000242778 -0.000577787 1.08673e-05
1.0928e-05 1.08673e-05 -0.000830569
0.00341005 4.01722e-05 8.26093e-05
4.01722e-05 0.00174414 2.52735e-06
8.26093e-05 2.52735e-06 0.000598147
0.00778239 0.000634876 0.000132964
0.000634876 0.00350267 7.32666e-05
0.000132964 7.32666e-05 0.000248876
0.00309831 0.000737878 -9.66951e-05
0.000737878 0.00139006 -8.39326e-05
-9.66951e-05 -8.39326e-05 0.00035088
0.00420441 -0.000643339 -1.87324e-06
-0.000643339 0.0011824 -0.00018176
-1.87324e-06 -0.00018176 -0.00014509
0.00104742 0.000123804 4.8992e-05
0.000123804 0.000251387 0.000114186
4.8992e-05 0.000114186 -0.00129658
0.00400758 -1.96239e-05 -7.21403e-06
-1.96239e-05 -0.00380587 -0.000100326
-7.21403e-06 -0.000100326 -0.00123281
0.000736152 0.00016426 9.72389e-07
0.00016426 0.000473156 -1.7706e-06
9.72389e-07 -1.7706e-06 0.000302789
0.000649615 -6.02636e-05 1.20612e-06
-6.02636e-05 0.000109815 -3.24144e-06
1.20612e-06 -3.24144e-06 5.22029e-05
0.00270916 3.15206e-05 3.44559e-05
3.15206e-05 0.000511274 1.30455e-05
3.44559e-05 1.30455e-05 -0.000309135
-0.000959527 0.000129265 -7.22184e-06
0.000129265 -0.000359599 -5.21804e-06
-7.22184e-06 -5.21804e-06 -0.000748941
0.00535996 0.000796506 8.22448e-06
0.000796506 -0.00151355 -1.16027e-05
8.22448e-06 -1.16027e-05 -0.00054289
0.00510899 0.000912816 0.000108933
0.000912816 0.00291668 5.08148e-05
0.000108933 5.08148e-05 -0.000724002
0.0032168 0.000299236 -6.17255e-05
0.000299236 0.00225725 6.42204e-06
-6.17255e-05 6.42204e-06 0.00111908
0.000405541 0.000177903 -1.6838e-05
0.000177903 0.00032582 -1.67867e-05
-1.6838e-05 -1.67867e-05 8.60165e-05
0.00171896 5.30914e-05 5.20924e-06
5.30914e-05 -0.000123655 -1.61031e-05
5.20924e-06 -1.61031e-05 -1.76335e-05
0.00374216 -0.000178633 3.73957e-05
-0.000178633 0.00218786 -8.83302e-05
3.73957e-05 -8.83302e-05 0.00107858
0.00631167 0.00142606 0.000163205
0.00142606 0.00040441 -0.000112074
0.000163205 -0.000112074 0.000802794
0.0063889 -0.000147383 -7.91109e-05
-0.000147383 0.00130544 0.000158198
-7.91109e-05 0.000158198 0.00114884
0.00076274 0.000180976 -1.71415e-05
0.000180976 -5.11084e-05 -5.39648e-05
-1.71415e-05 -5.39648e-05 -0.000120147
-0.000578416 0.000920573 0.000121667
0.000920573 0.0025464 3.73162e-05
0.000121667 3.73162e-05 -0.00292613
0.000938033 0.000158851 2.36559e-06
0.000158851 0.000395288 8.1739e-06
2.36559e-06 8.1739e-06 0.00023521
0.000264313 9.00347e-05 3.51187e-06
9.00347e-05 0.000231237 1.81321e-06
3.51187e-06 1.81321e-06 4.69301e-05
0.00122408 2.86574e-05 -2.1631e-05
2.86574e-05 0.000827389 -1.648e-05
-2.1631e-05 -1.648e-05 0.00070698
0.000418249 -2.17352e-05 1.12302e-06
-2.17352e-05 -8.93772e-05 3.78185e-06
1.12302e-06 3.78185e-06 -0.000197174
0.000675699 -3.12191e-05 1.72137e-06
-3.12191e-05 0.000195266 5.54451e-06
1.72137e-06 5.54451e-06 7.42671e-05
0.000102937 -3.44656e-06 1.85551e-06
-3.44656e-06 6.04183e-05 4.16926e-06
1.85551e-06 4.16926e-06 -0.000120556
0.000617679 -6.21038e-05 8.20109e-07
-6.21038e-05 0.000125705 -5.41846e-07
8.20109e-07 -5.41846e-07 2.53164e-05
0.00013586 -1.10374e-05 1.91277e-06
-1.10374e-05 3.25088e-05 8.60878e-07
1.91277e-06 8.60878e-07 -6.56295e-05
0.00117403 -0.00018964 9.20671e-06
-0.00018964 0.000598405 -9.04241e-06
9.20671e-06 -9.04241e-06 0.000426296
0.0012843 -5.82565e-05 -2.02272e-06
-5.82565e-05 0.000443167 4.17277e-06
-2.02272e-06 4.17277e-06 0.000359589
0.000260199 1.34048e-05 -1.02602e-06
1.34048e-05 -0.000180621 1.80816e-06
-1.02602e-06 1.80816e-06 -0.000273722
0.00139334 -0.00013673 1.12647e-06
-0.00013673 0.000478469 2.13012e-06
1.12647e-06 2.13012e-06 0.000373472
-0.000219288 -0.000142692 5.68575e-06
-0.000142692 -0.000339448 5.44068e-07
5.68575e-06 5.44068e-07 -0.000562067
0.000428607 -5.79636e-05 -5.28909e-06
-5.79636e-05 -8.96248e-05 1.31517e-06
-5.28909e-06 1.31517e-06 -0.000161215
7.53835e-05 -0.000144068 1.91549e-06
-0.000144068 -0.000305708 -1.23251e-06
1.91549e-06 -1.23251e-06 -0.000464616
0.00103418 -0.000263506 1.13145e-05
-0.000263506 0.00017801 -1.91172e-06
1.13145e-05 -1.91172e-06 -6.00757e-05
0.00125955 -0.000298833 -3.59332e-06
-0.000298833 0.000173938 4.11069e-06
-3.59332e-06 4.11069e-06 -7.484e-05
0.00165383 -0.00019977 -3.2657e-06
-0.00019977 0.000606868 3.45541e-07
-3.2657e-06 3.45541e-07 0.000446324
0.000819474 -0.000224583 -9.06331e-07
-0.000224583 4.6882e-05 3.30698e-07
-9.06331e-07 3.30698e-07 -0.00017715
0.00200781 -0.000319714 2.66779e-06
-0.000319714 0.000737332 -1.23027e-06
2.66779e-06 -1.23027e-06 0.000519079
0.000198921 -0.000116953 -1.62514e-06
-0.000116953 -0.000204055 1.30047e-06
-1.62514e-06 1.30047e-06 -0.000392947
0.000928451 -0.000208154 -1.2954e-07
-0.000208154 0.000147375 5.15561e-08
-1.2954e-07 5.15561e-08 -6.24466e-05
0.000554859 -5.53207e-05 3.38736e-07
-5.53207e-05 1.87372e-05 -3.23045e-07
3.38736e-07 -3.23045e-07 -0.000116617
0.00104175 -0.000183429 -3.72955e-06
-0.000183429 0.000319745 2.39229e-06
-3.72955e-06 2.39229e-06 0.000143984
-0.000209602 -8.99833e-05 -2.53664e-06
-8.99833e-05 -0.000470729 -3.332e-06
-2.53664e-06 -3.332e-06 -0.000661629
0.000620977 2.47709e-05 8.02575e-07
2.47709e-05 3.62373e-05 9.43911e-07
8.02575e-07 9.43911e-07 -5.69629e-05
0.000737001 -4.56692e-05 9.00966e-07
-4.56692e-05 0.000117218 -1.73486e-07
9.00966e-07 -1.73486e-07 1.62273e-06
0.00083902 -9.02066e-05 2.69262e-06
-9.02066e-05 0.000199594 -2.68888e-06
2.69262e-06 -2.68888e-06 5.94787e-05
0.000677043 -1.22866e-05 1.91746e-07
-1.22866e-05 8.02204e-05 -1.35583e-08
1.91746e-07 -1.35583e-08 -2.073e-05
0.000701897 -1.22335e-05 -6.23386e-07
-1.22335e-05 8.05191e-05 -1.29398e-07
-6.23386e-07 -1.29398e-07 -4.93404e-06
0.000608581 3.54138e-05 -8.19596e-07
3.54138e-05 5.83883e-06 2.0652e-06
-8.19596e-07 2.0652e-06 -5.15268e-05
0.000754013 -4.0119e-05 6.19378e-07
-4.0119e-05 0.000114177 -7.07208e-07
6.19378e-07 -7.07208e-07 2.88905e-05
0.000635275 2.72338e-05 -6.77425e-07
2.72338e-05 1.68721e-05 -9.47465e-08
-6.77425e-07 -9.47465e-08 -3.62973e-05
0.000575739 4.29159e-05 -1.09838e-06
4.29159e-05 -2.86452e-05 3.96558e-06
-1.09838e-06 3.96558e-06 -4.70481e-05
0.000689546 -7.73516e-06 2.13046e-06
-7.73516e-06 4.22403e-05 -1.91584e-06
2.13046e-06 -1.91584e-06 -7.24673e-06
0.000577218 3.42419e-05 1.50694e-07
3.42419e-05 -3.4456e-05 9.1306e-09
1.50694e-07 9.1306e-09 -5.07034e-05
0.00221993 7.15251e-05 -4.1267e-06
7.15251e-05 0.000947094 1.84868e-06
-4.1267e-06 1.84868e-06 0.000957876
0.000548219 2.60781e-05 9.31833e-07
2.60781e-05 -5.44773e-05 -4.01686e-06
9.31833e-07 -4.01686e-06 -6.98859e-05
0.00155716 4.43218e-05 8.90686e-06
4.43218e-05 0.000548721 -1.16862e-06
8.90686e-06 -1.16862e-06 0.000558243
0.00233586 4.33105e-05 1.23499e-05
4.33105e-05 0.00100641 -4.77322e-06
1.23499e-05 -4.77322e-06 0.00102064
0.000426459 5.46246e-07 6.0999e-07
5.46246e-07 -8.4592e-05 -1.68675e-06
6.0999e-07 -1.68675e-06 -0.000179127
0.000356553 -1.61105e-06 1.02423e-07
-1.61105e-06 -0.000147465 -2.78633e-06
1.02423e-07 -2.78633e-06 -0.000203193
0.000594245 1.45246e-05 -4.35079e-07
1.45246e-05 2.44482e-05 -9.93807e-07
-4.35079e-07 -9.93807e-07 -7.02923e-05
0.000596393 -1.47673e-05 2.30679e-07
-1.47673e-05 -2.97627e-05 -3.87597e-06
2.30679e-07 -3.87597e-06 -4.13937e-05
0.000331473 6.42235e-07 -3.70899e-07
6.42235e-07 -0.000160927 -1.12377e-06
-3.70899e-07 -1.12377e-06 -0.000211172
0.000765134 2.51885e-05 -2.08665e-07
2.51885e-05 0.000129349 1.60825e-06
-2.08665e-07 1.60825e-06 4.03636e-05
0.00214808 -2.44935e-05 -1.03161e-05
-2.44935e-05 0.000890071 -4.7606e-06
-1.03161e-05 -4.7606e-06 0.00090801
0.000593305 -8.90452e-06 -1.88892e-07
-8.90452e-06 -3.3191e-05 -4.72009e-08
-1.88892e-07 -4.72009e-08 -4.20177e-05
0.000305908 1.44619e-06 6.08723e-07
1.44619e-06 -0.000175071 1.85351e-06
6.08723e-07 1.85351e-06 -0.00022013
0.00207214 -1.0238e-05 -3.52103e-06
-1.0238e-05 0.000843792 4.15003e-08
-3.52103e-06 4.15003e-08 0.000863022
0.000592598 -3.12736e-06 -1.70237e-07
-3.12736e-06 -3.41809e-05 3.42009e-06
-1.70237e-07 3.42009e-06 -4.1211e-05
0.00205966 3.73675e-06 1.58563e-06
3.73675e-06 0.000836666 4.67043e-06
1.58563e-06 4.67043e-06 0.000856077
0.000900144 2.17351e-06 6.55917e-06
2.17351e-06 0.000440488 1.10389e-05
6.55917e-06 1.10389e-05 0.000240939
0.00102385 -0.000110957 4.7499e-06
-0.000110957 0.000144675 -9.08797e-06
4.7499e-06 -9.08797e-06 -0.00129286
0.00178638 7.45554e-05 2.78739e-05
7.45554e-05 0.00328818 -3.26878e-05
2.78739e-05 -3.26878e-05 0.00218796
0.00075318 7.98463e-05 -1.83376e-07
7.98463e-05 0.000116861 3.33602e-07
-1.83376e-07 3.33602e-07 -1.34857e-06
0.00058213 5.3205e-05 1.2189e-06
5.3205e-05 1.31524e-06 -1.25997e-07
1.2189e-06 -1.25997e-07 -0.000109444
0.000944494 0.000112512 1.79515e-06
0.000112512 0.000227982 2.72063e-06
1.79515e-06 2.72063e-06 0.000100918
0.00251661 -5.11013e-05 6.66382e-06
-5.11013e-05 0.000232944 0.000145909
6.66382e-06 0.000145909 -0.00079031
0.00330859 -0.000190005 1.83719e-06
-0.000190005 0.00216423 -6.89527e-07
1.83719e-06 -6.89527e-07 0.000975853
0.00347439 -0.000409469 5.97459e-05
-0.000409469 0.00130463 -0.000114413
5.97459e-05 -0.000114413 -0.00145397
0.00544772 -0.000859143 -7.87847e-05
-0.000859143 0.000770647 -2.08452e-07
-7.87847e-05 -2.08452e-07 0.000269611
0.00226192 -0.000747346 -0.000109891
-0.000747346 0.00015814 7.46871e-05
-0.000109891 7.46871e-05 -0.00241624
0.0102752 0.00132009 9.36093e-05
0.00132009 0.00346507 4.9165e-05
9.36093e-05 4.9165e-05 0.00291277
0.00270051 0.000216137 5.56241e-05
0.000216137 -0.00294176 -8.00695e-05
5.56241e-05 -8.00695e-05 -0.00197049
0.00527192 -0.00129734 -1.61833e-05
-0.00129734 0.00122339 2.93998e-06
-1.61833e-05 2.93998e-06 0.000506878
0.00661554 -0.00102629 -1.16052e-05
-0.00102629 0.00305667 2.00474e-05
-1.16052e-05 2.00474e-05 -0.000178795
-0.00271834 0.000893692 -2.70927e-05
0.000893692 -0.000184512 -0.000106794
-2.70927e-05 -0.000106794 -0.00185449
0.00533595 6.88695e-05 -1.35521e-05
6.88695e-05 -0.00232929 4.20478e-05
-1.35521e-05 4.20478e-05 -0.000151968
0.00204036 -0.00082588 -3.91537e-05
-0.00082588 0.00031755 -2.14711e-05
-3.91537e-05 -2.14711e-05 -0.000314938
0.0110442 -0.00128235 -5.51743e-05
-0.00128235 0.00494818 4.98098e-05
-5.51743e-05 4.98098e-05 0.00119997
-0.00924678 -0.000100731 4.03547e-05
-0.000100731 -0.000603357 -0.000183051
4.03547e-05 -0.000183051 -0.00268209
0.00370679 -0.000796754 3.36912e-05
-0.000796754 -0.00193295 -2.23726e-05
3.36912e-05 -2.23726e-05 -0.000781276
0.000739096 4.27114e-05 -3.05166e-07
4.27114e-05 0.000107029 6.27101e-06
-3.05166e-07 6.27101e-06 -2.75294e-05
0.000639169 6.54576e-06 3.39406e-07
6.54576e-06 7.3503e-05 -5.04083e-07
3.39406e-07 -5.04083e-07 -7.30036e-05
0.000739026 -6.66199e-05 8.18635e-07
-6.66199e-05 0.000145161 -1.61453e-06
8.18635e-07 -1.61453e-06 5.99861e-08
0.000740639 5.79684e-05 -5.84405e-07
5.79684e-05 0.000106423 -7.3151e-07
-5.84405e-07 -7.3151e-07 -1.92871e-05
0.000833856 0.000116681 9.86726e-07
0.000116681 0.000191452 -7.50837e-08
9.86726e-07 -7.50837e-08 5.64942e-05
0.00105865 0.000124446 -1.59728e-06
0.000124446 0.000320696 -5.02249e-07
-1.59728e-06 -5.02249e-07 0.000191071
6.12299e-05 -0.000437689 1.85326e-05
-0.000437689 -0.000748413 8.16383e-06
1.85326e-05 8.16383e-06 -0.000750489
-0.00067821 -0.000112227 1.97479e-05
-0.000112227 -0.00065503 -2.02824e-05
1.97479e-05 -2.02824e-05 -0.000668489
0.000768664 5.98354e-05 -1.13388e-06
5.98354e-05 0.000163216 -9.55692e-07
-1.13388e-06 -9.55692e-07 1.05613e-05
0.00183105 -0.000218178 3.22159e-05
-0.000218178 0.000818619 -3.27383e-05
3.22159e-05 -3.27383e-05 0.000586006
0.00148939 1.83249e-05 -2.63537e-06
1.83249e-05 0.00065561 5.2977e-07
-2.63537e-06 5.2977e-07 0.000435874
0.000643708 2.96364e-05 -2.67804e-07
2.96364e-05 6.37132e-05 1.64335e-06
-2.67804e-07 1.64335e-06 -7.3873e-05
0.000593623 0.000100579 4.67983e-07
0.000100579 0.000100179 -6.60581e-07
4.67983e-07 -6.60581e-07 -6.09112e-05
0.000357923 -0.000395847 -7.95691e-07
-0.000395847 -0.000482372 -3.14843e-06
-7.95691e-07 -3.14843e-06 -0.000467672
0.000743998 -1.89255e-05 1.4748e-06
-1.89255e-05 0.000350025 -7.97618e-07
1.4748e-06 -7.97618e-07 9.11814e-05
0.000563663 -8.27236e-05 1.86178e-05
-8.27236e-05 0.000337026 -8.40649e-07
1.86178e-05 -8.40649e-07 0.000217478
0.000770776 7.05748e-05 3.65893e-06
7.05748e-05 0.000150275 -9.81228e-06
3.65893e-06 -9.81228e-06 2.33959e-05
-0.00253428 0.000147278 -7.89583e-05
0.000147278 -0.00106903 -1.37135e-05
-7.89583e-05 -1.37135e-05 -0.00146508
-0.000134704 1.70329e-05 1.0998e-05
1.70329e-05 -4.05123e-05 3.09021e-05
1.0998e-05 3.09021e-05 -0.000169539
0.00142277 2.59556e-06 4.48629e-06
2.59556e-06 0.000705825 1.92429e-06
4.48629e-06 1.92429e-06 0.000501239
0.000936671 -2.66305e-05 -5.89561e-07
-2.66305e-05 -7.02645e-05 2.98426e-07
-5.89561e-07 2.98426e-07 -0.000577073
0.000547976 -2.39106e-05 -1.60591e-05
-2.39106e-05 0.000496335 -9.90127e-06
-1.60591e-05 -9.90127e-06 -1.48254e-05
0.000930116 -3.68215e-05 0.000162504
-3.68215e-05 0.000692836 -7.28204e-06
0.000162504 -7.28204e-06 -0.000851645
0.000577089 0.000179342 1.32317e-05
0.000179342 0.000363297 1.40566e-05
1.32317e-05 1.40566e-05 0.000180379
0.00145075 0.000412611 9.25662e-06
0.000412611 0.000430363 -1.29862e-05
9.25662e-06 -1.29862e-05 0.000163298
0.000696328 -5.83881e-05 1.03692e-05
-5.83881e-05 0.000126112 5.05622e-06
1.03692e-05 5.05622e-06 4.61726e-05
-0.002541 0.000502193 4.36571e-05
0.000502193 0.000153052 5.25641e-05
4.36571e-05 5.25641e-05 -0.00352159
-0.0103738 0.000422077 -7.24814e-05
0.000422077 -0.00367318 -0.000212464
-7.24814e-05 -0.000212464 -0.00569807
0.0027479 3.3405e-05 3.40662e-05
3.3405e-05 0.000736682 5.87893e-05
3.40662e-05 5.87893e-05 0.000158026
0.00280454 0.000332126 -6.12644e-05
0.000332126 -0.0028607 7.85536e-05
-6.12644e-05 7.85536e-05 -0.00194644
0.000520672 0.000163605 7.12472e-06
0.000163605 0.000382375 -1.86765e-06
7.12472e-06 -1.86765e-06 0.000174792
0.0015727 -3.01969e-06 1.21128e-05
-3.01969e-06 -0.0002311 -2.07435e-05
1.21128e-05 -2.07435e-05 -7.82649e-05
0.00334785 -0.00013807 -2.52487e-06
-0.00013807 0.00212393 4.73683e-07
-2.52487e-06 4.73683e-07 0.00095773
0.00133622 0.000199913 -3.54097e-05
0.000199913 0.000464667 -2.99938e-06
-3.54097e-05 -2.99938e-06 -6.75537e-05
0.00324862 0.0013209 5.89216e-05
0.0013209 -0.00142798 -0.000153969
5.89216e-05 -0.000153969 -0.000903742
-0.00250711 0.000846146 2.4245e-05
0.000846146 -0.000875092 0.000105148
2.4245e-05 0.000105148 -0.00208416
0.00683815 2.88896e-05 6.19456e-05
2.88896e-05 0.00526187 -2.50191e-05
6.19456e-05 -2.50191e-05 0.000196612
0.00183621 -6.81387e-05 5.29108e-05
-6.81387e-05 0.00139332 -2.01578e-05
5.29108e-05 -2.01578e-05 0.000984277
0.00099588 3.36623e-05 -9.90575e-06
3.36623e-05 0.000450591 -1.11986e-05
-9.90575e-06 -1.11986e-05 0.000254394
0.00361814 -0.000278016 0.00022069
-0.000278016 0.00105843 -0.000157362
0.00022069 -0.000157362 -0.00107064
0.00464668 0.00177287 9.87929e-07
0.00177287 0.00323827 -1.54719e-05
9.87929e-07 -1.54719e-05 0.00395413
-0.00435616 0.000916436 3.79788e-05
0.000916436 -0.00436265 0.00029147
3.79788e-05 0.00029147 -0.00442477
0.0128527 -0.00120094 0.000114882
-0.00120094 0.00527348 -0.000100414
0.000114882 -0.000100414 0.00159167
0.00344829 -0.00039855 -7.319e-05
-0.00039855 0.00117979 8.40482e-05
-7.319e-05 8.40482e-05 0.000955317
0.000759166 0.000134058 7.88674e-06
0.000134058 0.00050738 6.45222e-06
7.88674e-06 6.45222e-06 0.000316168
-8.46386e-06 5.44377e-06 -1.68866e-05
5.44377e-06 0.000123643 1.85032e-06
-1.68866e-05 1.85032e-06 -2.43109e-05
0.00126827 -0.000265077 1.64044e-05
-0.000265077 0.000833267 -1.11539e-05
1.64044e-05 -1.11539e-05 0.000558176
0.00112228 -8.09219e-05 8.33821e-07
-8.09219e-05 0.00040314 3.41804e-06
8.33821e-07 3.41804e-06 0.000312148
-0.000224037 -2.81222e-05 4.87929e-06
-2.81222e-05 -0.000172328 1.03227e-05
4.87929e-06 1.03227e-05 -0.000277619
0.000195981 -0.000171454 -1.22678e-06
-0.000171454 8.43846e-05 -5.36955e-07
-1.22678e-06 -5.36955e-07 -8.03995e-05
0.00136657 -0.000290821 2.53029e-05
-0.000290821 0.000630429 -1.64033e-05
2.53029e-05 -1.64033e-05 0.000347246
0.00219382 -0.000191435 -5.83213e-06
-0.000191435 0.000929632 4.78175e-06
-5.83213e-06 4.78175e-06 0.000814229
0.00185424 -0.000332457 2.52562e-06
-0.000332457 0.000756166 -2.05098e-07
2.52562e-06 -2.05098e-07 0.000518993
0.00128904 -0.000309525 1.0023e-05
-0.000309525 0.000470711 1.65006e-06
1.0023e-05 1.65006e-06 8.26916e-05
0.000147605 -0.000130148 -2.74443e-06
-0.000130148 -0.000268688 8.4868e-07
-2.74443e-06 8.4868e-07 -0.000411453
0.00142698 -0.000297689 -4.85389e-07
-0.000297689 0.000364094 1.23274e-06
-4.85389e-07 1.23274e-06 0.000112433
0.00181017 -0.000390472 3.33975e-07
-0.000390472 0.000501852 2.38672e-06
3.33975e-07 2.38672e-06 0.000169007
0.00173616 -0.000398264 -2.96622e-06
-0.000398264 0.000336712 3.16866e-06
-2.96622e-06 3.16866e-06 5.6403e-05
0.000805012 -0.000243186 1.58383e-07
-0.000243186 -4.77288e-05 5.17513e-06
1.58383e-07 5.17513e-06 -0.000271528
0.00128139 -0.000303246 -2.63128e-06
-0.000303246 0.000186178 1.78614e-06
-2.63128e-06 1.78614e-06 -6.79086e-05
0.00108384 -0.000249655 -8.15114e-06
-0.000249655 0.000172127 2.99516e-06
-8.15114e-06 2.99516e-06 -6.64073e-05
0.00172985 -0.000286755 5.22614e-06
-0.000286755 0.000607593 -1.61547e-06
5.22614e-06 -1.61547e-06 0.000398505
0.00139071 -0.000261789 2.64241e-06
-0.000261789 0.000382716 -2.81755e-06
2.64241e-06 -2.81755e-06 0.000179121
8.40205e-05 -5.69729e-05 1.60765e-06
-5.69729e-05 -0.000263063 2.41021e-07
1.60765e-06 2.41021e-07 -0.000427888
0.00077493 -0.000172975 1.77038e-06
-0.000172975 0.000134577 -9.90182e-07
1.77038e-06 -9.90182e-07 -6.07179e-05
0.00106449 -0.000217418 5.74304e-06
-0.000217418 0.000231582 -4.34166e-06
5.74304e-06 -4.34166e-06 2.39841e-05
0.000573321 2.78857e-05 1.60794e-06
2.78857e-05 1.672e-05 1.61555e-06
1.60794e-06 1.61555e-06 -9.56788e-05
0.000883789 -8.76208e-05 -3.53066e-07
-8.76208e-05 0.000215459 5.06054e-07
-3.53066e-07 5.06054e-07 7.20098e-05
0.00106032 -0.000194361 -9.46751e-07
-0.000194361 0.000332559 -3.98979e-07
-9.46751e-07 -3.98979e-07 0.000154361
0.00059907 2.47131e-05 -1.07351e-06
2.47131e-05 2.65822e-06 2.24456e-06
-1.07351e-06 2.24456e-06 -5.99604e-05
0.000721406 -8.33048e-06 -6.60203e-07
-8.33048e-06 9.2589e-05 -2.55188e-07
-6.60203e-07 -2.55188e-07 -1.63489e-06
0.000622359 -2.92401e-05 -2.44631e-07
-2.92401e-05 5.7041e-05 -1.52042e-07
-2.44631e-07 -1.52042e-07 -6.07242e-05
0.000764953 -3.13916e-05 4.1944e-07
-3.13916e-05 0.000119925 -9.98279e-07
4.1944e-07 -9.98279e-07 3.13624e-05
0.00064771 1.17874e-05 -2.8449e-07
1.17874e-05 2.55604e-05 -1.35685e-07
-2.8449e-07 -1.35685e-07 -3.02697e-05
0.000557768 5.18348e-05 -6.55796e-07
5.18348e-05 -2.98163e-05 4.36802e-06
-6.55796e-07 4.36802e-06 -5.18809e-05
0.000664039 1.72962e-06 1.89852e-06
1.72962e-06 3.04278e-05 -1.8171e-06
1.89852e-06 -1.8171e-06 -2.09835e-05
0.000579169 4.44375e-05 -1.02309e-07
4.44375e-05 -2.64056e-05 -3.10445e-08
-1.02309e-07 -3.10445e-08 -4.50374e-05
0.0022709 7.85906e-05 -2.40361e-05
7.85906e-05 0.000984852 3.7958e-06
-2.40361e-05 3.7958e-06 0.000994221
0.000565648 3.50452e-05 1.00416e-06
3.50452e-05 -4.11806e-05 -3.94293e-06
1.00416e-06 -3.94293e-06 -5.7486e-05
0.00153289 5.51912e-05 1.06675e-05
5.51912e-05 0.00054055 -1.01695e-06
1.06675e-05 -1.01695e-06 0.000548453
0.00233198 5.6774e-05 1.62461e-05
5.6774e-05 0.001009 -4.43061e-06
1.62461e-05 -4.43061e-06 0.00102178
0.000705757 6.04437e-05 1.7188e-07
6.04437e-05 8.19779e-05 -9.83092e-07
1.7188e-07 -9.83092e-07 -1.7693e-05
0.000641919 1.97466e-05 -4.092e-07
1.97466e-05 1.78855e-05 -2.30305e-06
-4.092e-07 -2.30305e-06 -4.02656e-05
0.000579257 3.68429e-05 -1.12561e-06
3.68429e-05 1.50321e-05 -1.03729e-06
-1.12561e-06 -1.03729e-06 -8.61687e-05
0.000581319 -2.09846e-05 4.00126e-07
-2.09846e-05 -3.6364e-05 -4.22701e-06
4.00126e-07 -4.22701e-06 -5.12795e-05
0.000464624 1.26484e-05 -1.28672e-06
1.26484e-05 -8.40201e-05 -1.1251e-06
-1.28672e-06 -1.1251e-06 -0.000138493
0.000788377 3.73923e-05 -1.19053e-07
3.73923e-05 0.000138047 -5.11381e-07
-1.19053e-07 -5.11381e-07 4.40047e-05
0.00224665 -3.80031e-05 -1.50561e-05
-3.80031e-05 0.000950653 -4.69873e-06
-1.50561e-05 -4.69873e-06 0.000966841
0.000585954 -1.46278e-05 -2.18044e-07
-1.46278e-05 -3.61795e-05 -6.07857e-08
-2.18044e-07 -6.07857e-08 -4.75867e-05
0.000279714 1.25322e-07 -6.9949e-07
1.25322e-07 -0.000191456 1.00332e-06
-6.9949e-07 1.00332e-06 -0.000242365
0.00214756 -2.32722e-05 -3.77577e-06
-2.32722e-05 0.000889445 9.147e-08
-3.77577e-06 9.147e-08 0.000907583
0.000590031 -9.14479e-06 -2.88601e-07
-9.14479e-06 -3.49855e-05 3.53943e-06
-2.88601e-07 3.53943e-06 -4.37302e-05
0.00207846 -8.8239e-06 6.21075e-06
-8.8239e-06 0.000847349 4.71982e-06
6.21075e-06 4.71982e-06 0.000866636
0.00162283 -4.27939e-05 -8.77476e-06
-4.27939e-05 -0.000162927 1.68817e-05
-8.77476e-06 1.68817e-05 -3.87029e-05
0.000975434 -1.67838e-05 3.02658e-06
-1.67838e-05 0.00039613 -2.4091e-06
3.02658e-06 -2.4091e-06 0.000265958
0.00162204 -0.000100158 9.91741e-05
-0.000100158 0.000423556 -2.28303e-05
9.91741e-05 -2.28303e-05 -0.000919702
0.000574358 1.39541e-05 5.42219e-07
1.39541e-05 -1.37052e-05 -4.64053e-07
5.42219e-07 -4.64053e-07 -0.000116183
0.000893027 4.26706e-05 -2.75442e-07
4.26706e-05 0.000173769 9.64873e-08
-2.75442e-07 9.64873e-08 6.07893e-05
0.000810534 8.62518e-05 1.4036e-07
8.62518e-05 0.000148163 -2.78063e-08
1.4036e-07 -2.78063e-08 3.37346e-05
0.000616642 3.79021e-05 2.10284e-07
3.79021e-05 1.48752e-05 1.50846e-07
2.10284e-07 1.50846e-07 -9.09836e-05
0.000735957 5.51745e-05 4.60109e-08
5.51745e-05 0.000103791 4.7435e-07
4.60109e-08 4.7435e-07 -1.86083e-05
0.000717928 4.83737e-05 8.27795e-07
4.83737e-05 8.45258e-05 -2.48296e-07
8.27795e-07 -2.48296e-07 -3.1409e-05
0.000683675 0.000144592 2.36692e-06
0.000144592 9.24757e-05 3.94458e-06
2.36692e-06 3.94458e-06 -4.91486e-05
-0.000174549 2.3572e-05 5.67476e-05
2.3572e-05 3.09842e-05 0.000145592
5.67476e-05 0.000145592 -0.00148405
0.00254141 -4.52763e-05 -8.2371e-06
-4.52763e-05 0.000522435 4.77749e-05
-8.2371e-06 4.77749e-05 -0.000306227
0.00289135 -0.000145759 2.4751e-05
-0.000145759 0.00204785 -6.41824e-05
2.4751e-05 -6.41824e-05 0.000885315
0.00381882 -0.000128449 -1.58192e-05
-0.000128449 -0.00390857 4.59115e-05
-1.58192e-05 4.59115e-05 -0.00122952
0.00324544 -0.00107787 -7.68973e-05
-0.00107787 0.00110458 5.96506e-05
-7.68973e-05 5.96506e-05 0.000164326
-0.00181447 -0.0012117 -3.03888e-06
-0.0012117 -0.000390633 7.55221e-05
-3.03888e-06 7.55221e-05 -0.00410688
0.00806886 0.00154558 7.25498e-05
0.00154558 0.00441214 -4.36936e-05
7.25498e-05 -4.36936e-05 0.00255144
0.00362676 -0.000983953 -2.33855e-05
-0.000983953 0.000980508 4.08558e-06
-2.33855e-05 4.08558e-06 0.0003546
-0.000175935 -0.000455458 3.11855e-05
-0.000455458 0.00129894 2.03979e-05
3.11855e-05 2.03979e-05 -0.00292806
0.00440618 7.75579e-05 1.37206e-06
7.75579e-05 0.00242176 -8.47798e-06
1.37206e-06 -8.47798e-06 0.00127406
0.008352 -0.00107471 -3.07583e-05
-0.00107471 0.00105621 -3.75175e-05
-3.07583e-05 -3.75175e-05 0.00221656
-0.00056868 1.47273e-05 -0.000138294
1.47273e-05 -0.00112623 6.45087e-05
-0.000138294 6.45087e-05 -0.000966712
0.000823563 0.00111758 -3.47835e-05
0.00111758 0.0016686 -9.11719e-05
-3.47835e-05 -9.11719e-05 -0.00255361
-0.00687969 -0.0016518 4.85718e-05
-0.0016518 -0.00395283 -0.000119366
4.85718e-05 -0.000119366 -0.00584375
0.00451063 -0.00100708 2.60887e-05
-0.00100708 -0.000937868 -0.000222362
2.60887e-05 -0.000222362 0.000396565
0.00084567 1.82205e-05 1.58366e-06
1.82205e-05 0.000178525 1.60249e-07
1.58366e-06 1.60249e-07 6.33625e-05
0.000655314 4.71489e-05 3.96772e-07
4.71489e-05 6.56665e-05 -7.07845e-07
3.96772e-07 -7.07845e-07 -7.03894e-05
0.000842078 2.66804e-06 5.5971e-07
2.66804e-06 0.000206201 -2.35478e-06
5.5971e-07 -2.35478e-06 4.82108e-05
0.000772142 4.75341e-05 -8.33827e-07
4.75341e-05 0.000132176 -3.71139e-06
-8.33827e-07 -3.71139e-06 -1.92124e-06
-0.000107495 -0.000386094 -4.40755e-06
-0.000386094 -0.000755773 2.76022e-05
-4.40755e-06 2.76022e-05 -0.000824581
0.00168263 -6.69572e-05 -1.23555e-05
-6.69572e-05 0.000973103 -2.60491e-05
-1.23555e-05 -2.60491e-05 0.000858231
0.000653837 2.76992e-05 -2.03224e-06
2.76992e-05 5.12034e-05 -2.75748e-06
-2.03224e-06 -2.75748e-06 -7.19001e-05
0.00070206 0.000122614 -1.41943e-06
0.000122614 0.000173601 3.61169e-06
-1.41943e-06 3.61169e-06 9.48108e-06
0.00256481 -6.05644e-05 1.43911e-05
-6.05644e-05 0.00135274 -2.33683e-05
1.43911e-05 -2.33683e-05 0.0011373
0.000849049 5.75007e-05 5.20791e-07
5.75007e-05 0.000191857 2.8179e-06
5.20791e-07 2.8179e-06 6.97793e-05
0.000664972 9.15741e-05 -2.02738e-06
9.15741e-05 0.000297767 -1.97529e-06
-2.02738e-06 -1.97529e-06 7.27548e-05
-7.32984e-05 2.7194e-05 4.33568e-05
2.7194e-05 0.000110647 -1.56318e-05
4.33568e-05 -1.56318e-05 -0.000389705
0.000384087 6.29831e-06 3.01342e-05
6.29831e-06 0.00026422 -2.51553e-07
3.01342e-05 -2.51553e-07 0.000159473
0.000501151 0.000127204 -9.53149e-08
0.000127204 0.000155151 -6.58112e-06
-9.53149e-08 -6.58112e-06 -3.21233e-06
6.60311e-05 -9.69737e-05 -2.9813e-05
-9.69737e-05 0.000619613 -4.25594e-05
-2.9813e-05 -4.25594e-05 -0.000530768
0.00374087 0.000120217 2.04097e-05
0.000120217 0.0020303 2.15236e-05
2.04097e-05 2.15236e-05 0.00183771
0.000756268 -1.00296e-05 3.9119e-06
-1.00296e-05 0.000641834 9.57032e-06
3.9119e-06 9.57032e-06 5.60045e-05
0.0013463 -3.39195e-05 -1.05931e-07
-3.39195e-05 0.000153669 4.16127e-07
-1.05931e-07 4.16127e-07 -0.000133397
0.000365259 -2.43961e-05 -2.36678e-07
-2.43961e-05 0.000335504 -1.39619e-05
-2.36678e-07 -1.39619e-05 -8.74889e-05
-0.000264247 8.61947e-05 -1.8225e-08
8.61947e-05 2.64379e-06 6.91126e-06
-1.8225e-08 6.91126e-06 -0.000174662
-0.00074062 0.000266321 4.64817e-05
0.000266321 -0.000763046 4.14995e-05
4.64817e-05 4.14995e-05 -0.000958912
0.00139442 -2.94393e-05 1.57879e-05
-2.94393e-05 -0.000328773 -3.51286e-06
1.57879e-05 -3.51286e-06 -0.000111193
0.00369318 -0.000935336 0.000114942
-0.000935336 0.0036597 -0.000126022
0.000114942 -0.000126022 -0.00134075
0.00800204 0.00160656 -6.54821e-05
0.00160656 0.00384866 4.14666e-05
-6.54821e-05 4.14666e-05 0.00223504
0.00302122 -9.10312e-05 -2.98882e-05
-9.10312e-05 0.00202573 6.48663e-05
-2.98882e-05 6.48663e-05 0.000888363
0.00531179 0.00140658 -3.21405e-05
0.00140658 7.91739e-05 -4.17972e-05
-3.21405e-05 -4.17972e-05 0.000396017
-0.000123977 0.000133624 -2.06315e-05
0.000133624 0.000385165 7.59998e-06
-2.06315e-05 7.59998e-06 -0.000104477
0.00105714 1.76295e-05 -3.64802e-06
1.76295e-05 0.000405763 2.56007e-06
-3.64802e-06 2.56007e-06 0.000290837
0.00357815 -0.000328725 7.68455e-05
-0.000328725 0.00111554 -9.20716e-06
7.68455e-05 -9.20716e-06 -0.00124909
0.000196068 -0.000165001 3.85842e-06
-0.000165001 -0.000544401 2.42146e-05
3.85842e-06 2.42146e-05 -0.000522944
-0.00129225 0.00190158 0.000116199
0.00190158 -5.20414e-05 -5.16466e-05
0.000116199 -5.16466e-05 0.00118968
0.00650811 0.000936168 -5.37986e-05
0.000936168 0.000332501 0.000108681
-5.37986e-05 0.000108681 0.000211006
-0.00265561 -0.000779132 7.02199e-05
-0.000779132 0.000329961 -6.58707e-05
7.02199e-05 -6.58707e-05 -0.00450521
0.000826172 -0.000106549 4.3656e-05
-0.000106549 0.000504915 -8.95575e-06
4.3656e-05 -8.95575e-06 0.000220415
0.000698135 -0.000129706 7.24378e-05
-0.000129706 -0.000197468 -2.87701e-05
7.24378e-05 -2.87701e-05 -0.00154083
-0.00183714 0.000132837 -0.000224209
0.000132837 0.00158777 -8.14905e-06
-0.000224209 -8.14905e-06 0.00021625
0.00289129 0.00174437 -0.000149409
0.00174437 0.00018171 0.000234007
-0.000149409 0.000234007 0.000542992
0.00796817 -0.000691303 1.1133e-05
-0.000691303 0.00359969 -9.10011e-06
1.1133e-05 -9.10011e-06 0.000408498
0.00328888 -0.000451195 -6.29768e-05
-0.000451195 0.000963557 5.44089e-05
-6.29768e-05 5.44089e-05 0.000654088
-0.000725291 5.2796e-05 3.25063e-05
5.2796e-05 -0.000292724 1.30084e-05
3.25063e-05 1.30084e-05 -0.000456557
5.22042e-05 -0.000169978 -9.91651e-06
-0.000169978 0.000200712 1.31014e-06
-9.91651e-06 1.31014e-06 -7.87505e-05
-0.000272582 -0.000201664 1.69061e-05
-0.000201664 -0.000258857 -5.26566e-06
1.69061e-05 -5.26566e-06 -0.000421392
-0.000651203 -0.00014543 -5.07138e-06
-0.00014543 -0.000360859 7.15499e-06
-5.07138e-06 7.15499e-06 -0.000514309
-0.000712377 -0.000151896 6.40247e-07
-0.000151896 -0.000460747 -4.515e-06
6.40247e-07 -4.515e-06 -0.00074443
0.00316289 -0.000540349 2.82359e-05
-0.000540349 0.00124194 -3.33852e-06
2.82359e-05 -3.33852e-06 0.000951442
0.00385088 -0.00052687 -8.55591e-06
-0.00052687 0.00180247 3.85864e-06
-8.55591e-06 3.85864e-06 0.00155018
0.00211332 -0.00038208 4.5985e-06
-0.00038208 0.000858996 9.08167e-07
4.5985e-06 9.08167e-07 0.000494134
0.00115391 -0.000359124 8.48804e-06
-0.000359124 0.00017004 -4.15628e-06
8.48804e-06 -4.15628e-06 -0.000209761
0.00192357 -0.000342706 -7.6603e-06
-0.000342706 0.000605357 1.9275e-06
-7.6603e-06 1.9275e-06 0.000339913
0.00222084 -0.000434953 1.23023e-06
-0.000434953 0.000691644 4.84236e-07
1.23023e-06 4.84236e-07 0.000352123
0.00188481 -0.00042467 1.18019e-06
-0.00042467 0.000451864 -5.03303e-06
1.18019e-06 -5.03303e-06 0.000113038
0.00187083 -0.000394311 -5.45599e-07
-0.000394311 0.000345264 -2.62851e-06
-5.45599e-07 -2.62851e-06 9.85677e-05
0.00189293 -0.000405532 -2.26501e-06
-0.000405532 0.00041658 3.72927e-06
-2.26501e-06 3.72927e-06 0.0001518
0.00170932 -0.000398899 -7.73602e-07
-0.000398899 0.000324196 -3.42438e-07
-7.73602e-07 -3.42438e-07 3.86043e-05
0.000477457 -0.000199354 5.37396e-06
-0.000199354 -0.000222152 1.5638e-06
5.37396e-06 1.5638e-06 -0.000420663
0.00113599 -0.00026659 1.60742e-06
-0.00026659 0.000138692 9.34818e-08
1.60742e-06 9.34818e-08 -8.10349e-05
0.0012619 -0.00030362 -3.8669e-07
-0.00030362 0.000176264 -3.1148e-06
-3.8669e-07 -3.1148e-06 -8.27216e-05
0.00122674 -0.000228049 3.16028e-06
-0.000228049 0.000344739 1.14187e-06
3.16028e-06 1.14187e-06 0.000140404
0.00126501 -0.000242648 -1.9626e-06
-0.000242648 0.000334147 -1.64385e-06
-1.9626e-06 -1.64385e-06 0.000131768
0.000729526 -0.000199972 4.36993e-06
-0.000199972 3.00887e-06 -4.86053e-06
4.36993e-06 -4.86053e-06 -0.000185334
0.000541627 -5.27265e-05 2.54145e-06
-5.27265e-05 6.49407e-06 1.42773e-06
2.54145e-06 1.42773e-06 -0.000142693
0.000520722 -9.42186e-05 -4.70064e-07
-9.42186e-05 1.67302e-06 1.01624e-06
-4.70064e-07 1.01624e-06 -0.000168614
0.00136448 -0.000230188 2.6947e-06
-0.000230188 0.000480484 -3.44453e-06
2.6947e-06 -3.44453e-06 0.000278766
0.000536464 3.61186e-05 1.41188e-08
3.61186e-05 -2.37896e-05 2.87676e-06
1.41188e-08 2.87676e-06 -0.000100271
0.000731381 -1.98876e-05 -4.29496e-07
-1.98876e-05 0.000113032 -5.8846e-07
-4.29496e-07 -5.8846e-07 -7.10142e-06
0.00119947 -0.000120361 1.94703e-07
-0.000120361 0.000403292 -3.57243e-07
1.94703e-07 -3.57243e-07 0.000252935
0.000517645 6.25082e-05 -9.91481e-07
6.25082e-05 -4.18703e-05 6.27837e-06
-9.91481e-07 6.27837e-06 -6.8646e-05
0.000641575 2.15376e-05 -2.57224e-07
2.15376e-05 2.58229e-05 -2.86758e-07
-2.57224e-07 -2.86758e-07 -3.67522e-05
0.000815452 -3.05156e-05 -3.08299e-07
-3.05156e-05 0.000149558 -1.42627e-06
-3.08299e-07 -1.42627e-06 5.15635e-05
0.000663218 1.01896e-05 1.46762e-06
1.01896e-05 3.36401e-05 -2.09016e-06
1.46762e-06 -2.09016e-06 -2.20773e-05
0.000561445 5.44926e-05 1.47401e-08
5.44926e-05 -2.6453e-05 -1.82348e-08
1.47401e-08 -1.82348e-08 -4.91454e-05
0.00231968 9.27631e-05 -2.63967e-05
9.27631e-05 0.00102228 3.43857e-06
-2.63967e-05 3.43857e-06 0.00102838
0.00057731 4.62478e-05 3.89506e-07
4.62478e-05 -2.7278e-05 -4.14745e-06
3.89506e-07 -4.14745e-06 -4.61829e-05
0.00229891 8.10705e-05 2.52345e-06
8.10705e-05 0.00100232 2.14964e-07
2.52345e-06 2.14964e-07 0.00101117
0.002292 6.92583e-05 1.96429e-05
6.92583e-05 0.000991486 -4.00101e-06
1.96429e-05 -4.00101e-06 0.00100262
0.000722629 4.9602e-05 1.07416e-07
4.9602e-05 9.71734e-05 -5.27111e-07
1.07416e-07 -5.27111e-07 -2.23129e-05
0.000772157 7.92138e-05 1.611e-07
7.92138e-05 0.000130631 -1.29625e-06
1.611e-07 -1.29625e-06 1.84383e-05
0.000652867 1.15188e-05 -4.75144e-07
1.15188e-05 2.37809e-05 -2.57947e-06
-4.75144e-07 -2.57947e-06 -3.96021e-05
0.000719474 7.19636e-05 -1.13001e-07
7.19636e-05 8.95706e-05 2.09545e-08
-1.13001e-07 2.09545e-08 -1.02426e-05
0.000571123 -2.68571e-05 1.34193e-07
-2.68571e-05 -3.79817e-05 -4.74107e-06
1.34193e-07 -4.74107e-06 -5.68371e-05
0.000641002 1.97011e-05 -8.38647e-08
1.97011e-05 1.79283e-05 -8.8853e-08
-8.38647e-08 -8.8853e-08 -4.02001e-05
0.000655643 3.87406e-05 -1.68636e-06
3.87406e-05 4.9222e-05 3.1534e-07
-1.68636e-06 3.1534e-07 -4.34821e-05
0.0023433 -5.18133e-05 -1.9742e-05
-5.18133e-05 0.00101112 -4.62122e-06
-1.9742e-05 -4.62122e-06 0.00102511
0.000582679 -2.09432e-05 -2.39342e-07
-2.09432e-05 -3.53602e-05 -6.11461e-08
-2.39342e-07 -6.11461e-08 -5.01626e-05
0.000586096 2.28006e-05 -9.79628e-07
2.28006e-05 -1.28257e-05 9.16811e-07
-9.79628e-07 9.16811e-07 -6.60846e-05
0.00222142 -3.65864e-05 -3.87044e-06
-3.65864e-05 0.000935281 1.39664e-07
-3.87044e-06 1.39664e-07 0.000951831
0.000586388 -1.44881e-05 -3.40458e-07
-1.44881e-05 -3.61329e-05 3.71113e-06
-3.40458e-07 3.71113e-06 -4.73524e-05
0.00212596 -2.19139e-05 1.03337e-05
-2.19139e-05 0.00087632 4.68114e-06
1.03337e-05 4.68114e-06 0.00089473
0.000855261 -8.34783e-05 7.66429e-06
-8.34783e-05 9.59575e-05 1.34672e-05
7.66429e-06 1.34672e-05 7.97972e-05
0.00154477 -6.82529e-05 -1.37467e-05
-6.82529e-05 -0.000243185 2.08657e-05
-1.37467e-05 2.08657e-05 -7.6856e-05
0.00105052 -3.21961e-05 4.70112e-06
-3.21961e-05 0.000354517 -1.02583e-05
4.70112e-06 -1.02583e-05 0.000286431
0.000731947 5.00449e-05 -2.07771e-07
5.00449e-05 9.4668e-05 4.34561e-08
-2.07771e-07 4.34561e-08 -2.01435e-05
0.000701955 2.9387e-05 7.63653e-07
2.9387e-05 6.37742e-05 -9.11928e-08
7.63653e-07 -9.11928e-08 -4.67976e-05
0.000416005 2.71016e-05 -1.84198e-06
2.71016e-05 -0.000102274 -3.22581e-06
-1.84198e-06 -3.22581e-06 -0.000210874
0.000470206 4.09438e-06 1.11392e-07
4.09438e-06 -6.5283e-05 -3.7832e-07
1.11392e-07 -3.7832e-07 -0.000176228
0.00110981 0.000120701 -2.66103e-07
0.000120701 0.00032391 -1.20457e-06
-2.66103e-07 -1.20457e-06 0.000191123
0.00065541 1.94734e-05 -1.09333e-06
1.94734e-05 3.21387e-05 4.51415e-07
-1.09333e-06 4.51415e-07 -7.00771e-05
0.000675668 4.3861e-05 -1.16769e-06
4.3861e-05 6.02197e-05 -2.44384e-06
-1.16769e-06 -2.44384e-06 -5.56734e-05
0.000778844 5.48172e-05 -8.64967e-08
5.48172e-05 0.000121403 -1.37578e-07
-8.64967e-08 -1.37578e-07 3.09902e-06
0.000934916 8.7482e-05 3.33778e-07
8.7482e-05 0.000220513 2.81907e-07
3.33778e-07 2.81907e-07 9.25043e-05
0.00101508 5.92031e-05 1.21111e-06
5.92031e-05 0.000276668 -3.76535e-07
1.21111e-06 -3.76535e-07 0.000149525
0.00269926 0.000172826 0.000139918
0.000172826 0.00140535 0.000198851
0.000139918 0.000198851 -0.00102758
0.0005315 6.37336e-05 9.1511e-06
6.37336e-05 0.000150314 5.52396e-05
9.1511e-06 5.52396e-05 -0.00139254
0.00261341 -3.6494e-05 -1.28594e-05
-3.6494e-05 0.000833324 -5.55707e-06
-1.28594e-05 -5.55707e-06 0.000180076
0.00850545 -0.000943296 -8.53317e-05
-0.000943296 0.00119471 -9.02054e-05
-8.53317e-05 -9.02054e-05 0.00248526
-0.0106305 0.000698185 -3.29671e-05
0.000698185 -0.00353932 0.000219719
-3.29671e-05 0.000219719 -0.00572529
0.00550243 -0.00104205 -0.000117135
-0.00104205 0.00206297 5.52935e-05
-0.000117135 5.52935e-05 0.00144724
0.0102947 -0.000790204 -5.20397e-05
-0.000790204 0.0043906 -1.19761e-05
-5.20397e-05 -1.19761e-05 0.00100816
0.00220419 -0.000122951 -8.38313e-06
-0.000122951 0.000364647 5.405e-05
-8.38313e-06 5.405e-05 5.50107e-05
0.0113517 -0.000121666 1.02263e-05
-0.000121666 0.0055877 -1.51576e-05
1.02263e-05 -1.51576e-05 0.00151631
0.00200742 -0.00101224 4.79774e-05
-0.00101224 0.000293617 5.83451e-05
4.79774e-05 5.83451e-05 -0.00104224
0.00372812 -0.00119759 -0.000120223
-0.00119759 -0.00156014 -0.000266355
-0.000120223 -0.000266355 -0.000306833
0.003376 0.000101789 -0.000107339
0.000101789 0.000767497 3.21468e-05
-0.000107339 3.21468e-05 0.000250023
0.00944992 0.000815549 -2.17275e-05
0.000815549 0.00435668 1.87501e-05
-2.17275e-05 1.87501e-05 0.00109797
0.0105761 -0.00182858 -4.14164e-05
-0.00182858 0.00342242 -0.00021923
-4.14164e-05 -0.00021923 0.00326026
0.00668583 -0.00191773 5.84422e-05
-0.00191773 0.00126355 3.26006e-06
5.84422e-05 3.26006e-06 0.00267445
0.000117813 5.79424e-05 1.45e-06
5.79424e-05 -0.000172894 -4.14443e-06
1.45e-06 -4.14443e-06 -0.0002891
0.000980601 1.53219e-05 6.5635e-07
1.53219e-05 0.000268592 2.57971e-06
6.5635e-07 2.57971e-06 0.000137598
0.00069156 5.37923e-05 -7.21746e-07
5.37923e-05 8.8161e-05 -4.78422e-06
-7.21746e-07 -4.78422e-06 -5.02733e-05
0.0013501 -3.66692e-05 -4.41734e-05
-3.66692e-05 0.000804767 2.29807e-05
-4.41734e-05 2.29807e-05 0.000166797
0.00100598 -3.98743e-05 -7.07019e-05
-3.98743e-05 0.00063429 -2.77215e-05
-7.07019e-05 -2.77215e-05 0.000546386
0.000761216 3.55055e-06 -2.42504e-06
3.55055e-06 0.000143248 4.94815e-06
-2.42504e-06 4.94815e-06 1.91811e-05
-0.000974197 8.4238e-05 -4.23935e-06
8.4238e-05 -0.000597897 -4.50953e-06
-4.23935e-06 -4.50953e-06 -0.000849415
0.000551303 7.56164e-05 1.83291e-07
7.56164e-05 0.000184506 -2.96888e-06
1.83291e-07 -2.96888e-06 1.56548e-05
0.00065236 0.000101412 -3.50437e-06
0.000101412 0.000377797 3.5243e-06
-3.50437e-06 3.5243e-06 0.00015477
-0.000332887 -4.75137e-05 0.000118907
-4.75137e-05 0.000644981 -3.99162e-05
0.000118907 -3.99162e-05 -0.000514286
-0.00236982 -2.37547e-06 -2.23291e-05
-2.37547e-06 -0.00129802 1.19677e-05
-2.23291e-05 1.19677e-05 -0.00147526
0.00242681 0.000266107 -3.0989e-05
0.000266107 0.00143828 -4.03742e-05
-3.0989e-05 -4.03742e-05 0.000671846
0.00185242 7.61662e-06 7.3717e-05
7.61662e-06 0.000930619 1.13254e-05
7.3717e-05 1.13254e-05 -0.000622906
0.000563225 -1.33288e-05 1.65346e-05
-1.33288e-05 0.000495751 1.0595e-05
1.65346e-05 1.0595e-05 -1.17245e-05
0.00179343 -5.50989e-05 2.16107e-07
-5.50989e-05 0.000387382 2.36744e-07
2.16107e-07 2.36744e-07 0.000311779
-0.00244332 0.000181658 6.29919e-05
0.000181658 -0.000819387 7.46469e-06
6.29919e-05 7.46469e-06 -0.00143786
0.00341401 0.000114264 -2.30357e-05
0.000114264 0.00126036 -2.10257e-06
-2.30357e-05 -2.10257e-06 0.000713144
0.00110554 -9.07865e-06 -1.86802e-06
-9.07865e-06 0.00037638 9.2686e-06
-1.86802e-06 9.2686e-06 0.000313719
0.015834 -0.001314 0.000117746
-0.001314 0.00689792 -2.92542e-05
0.000117746 -2.92542e-05 0.00309308
0.00990767 0.00137761 -7.09769e-05
0.00137761 0.00323483 -4.28998e-05
-7.09769e-05 -4.28998e-05 0.00262103
0.00359043 -0.000367811 -6.60276e-05
-0.000367811 0.00124727 0.000116011
-6.60276e-05 0.000116011 -0.00139899
-0.0074005 0.00211943 0.000541631
0.00211943 -0.00356939 -0.000410555
0.000541631 -0.000410555 -0.00184137
0.000986534 -0.000137644 4.62074e-06
-0.000137644 0.000727408 -2.85013e-06
4.62074e-06 -2.85013e-06 0.000374379
0.00109945 -0.000105871 -5.1196e-06
-0.000105871 5.39966e-05 8.90859e-06
-5.1196e-06 8.90859e-06 -0.00134431
-0.00275598 0.000190695 -0.000309319
0.000190695 0.00161222 0.000135603
-0.000309319 0.000135603 0.000301617
0.00183471 -0.000318389 -2.51061e-05
-0.000318389 0.000284971 3.47909e-05
-2.51061e-05 3.47909e-05 -4.53778e-06
0.0103847 0.00185837 7.20726e-05
0.00185837 0.00327922 6.85761e-05
7.20726e-05 6.85761e-05 0.00371732
0.00744792 -0.00125035 7.46571e-05
-0.00125035 0.00311959 -4.93864e-05
7.46571e-05 -4.93864e-05 0.000169048
0.000703081 -0.00024186 9.12559e-06
-0.00024186 7.84072e-05 2.53842e-05
9.12559e-06 2.53842e-05 0.000113146
-0.00369922 -0.000275969 2.97503e-05
-0.000275969 0.00123198 -1.69577e-05
2.97503e-05 -1.69577e-05 -0.000713583
0.00870679 0.00169448 -0.000327028
0.00169448 0.00414299 0.000152794
-0.000327028 0.000152794 0.00403728
0.0023596 -0.00069205 -0.000169958
-0.00069205 -0.000200816 0.00012022
-0.000169958 0.00012022 -0.00320804
0.00217255 -0.000822779 8.09761e-05
-0.000822779 0.000311443 -3.14096e-05
8.09761e-05 -3.14096e-05 6.41423e-05
-0.000383661 -0.000154189 -3.49105e-05
-0.000154189 -5.65726e-05 1.36296e-05
-3.49105e-05 1.36296e-05 -0.000313237
0.000437307 -0.000237293 -7.79224e-07
-0.000237293 0.000157401 4.18749e-06
-7.79224e-07 4.18749e-06 -6.74178e-05
0.00393036 -0.000570885 3.23133e-05
-0.000570885 0.00156539 3.9887e-06
3.23133e-05 3.9887e-06 0.00144933
-0.00264791 -3.32979e-05 -4.40385e-06
-3.32979e-05 -0.00147166 1.02725e-05
-4.40385e-06 1.02725e-05 -0.00175387
0.000762842 -0.00031657 2.8788e-06
-0.00031657 1.9478e-05 8.77689e-07
2.8788e-06 8.77689e-07 -0.000276518
0.00228385 -0.000526614 4.97848e-06
-0.000526614 0.000522669 6.15996e-07
4.97848e-06 6.15996e-07 0.000276958
0.00275452 -0.000434825 -1.13163e-05
-0.000434825 0.00114738 3.00433e-06
-1.13163e-05 3.00433e-06 0.000809239
0.00129897 -0.000365836 -2.13254e-06
-0.000365836 0.000220913 -3.37652e-06
-2.13254e-06 -3.37652e-06 -0.000135024
0.00204191 -0.00049308 4.77361e-06
-0.00049308 0.000391012 -3.92862e-06
4.77361e-06 -3.92862e-06 0.000116737
0.00253456 -0.0004698 -4.447e-06
-0.0004698 0.000830281 -2.46447e-06
-4.447e-06 -2.46447e-06 0.000485205
0.0015479 -0.000397934 -5.45455e-08
-0.000397934 0.000239724 -2.91292e-06
-5.45455e-08 -2.91292e-06 -8.52483e-05
0.00194829 -0.000414341 -1.84153e-07
-0.000414341 0.000325263 -6.21187e-06
-1.84153e-07 -6.21187e-06 8.55778e-05
0.00169922 -0.000328633 -2.09831e-06
-0.000328633 0.00015465 -3.10851e-06
-2.09831e-06 -3.10851e-06 -3.97792e-05
0.00165407 -0.000383777 2.55341e-06
-0.000383777 0.00021448 -7.27753e-07
2.55341e-06 -7.27753e-07 -3.27682e-05
0.00172752 -0.000382883 1.7716e-06
-0.000382883 0.000266338 -2.03842e-06
1.7716e-06 -2.03842e-06 2.266e-05
0.00172273 -0.000338974 -1.14378e-06
-0.000338974 0.00037284 3.78099e-06
-1.14378e-06 3.78099e-06 0.000135717
0.00179854 -0.000397728 -1.7549e-06
-0.000397728 0.000379616 1.79738e-07
-1.7549e-06 1.79738e-07 0.000111563
0.00169612 -0.00040143 7.10725e-07
-0.00040143 0.000319219 -3.53952e-06
7.10725e-07 -3.53952e-06 2.82741e-05
0.00110341 -0.00023617 3.60617e-06
-0.00023617 0.000188181 6.14379e-07
3.60617e-06 6.14379e-07 -1.59204e-05
0.000762322 -0.000220995 8.55294e-08
-0.000220995 -5.45571e-05 -8.46027e-07
8.55294e-08 -8.46027e-07 -0.000252083
0.001539 -0.000297123 4.85118e-06
-0.000297123 0.00036664 -4.33594e-06
4.85118e-06 -4.33594e-06 0.000150392
0.000682187 -0.000152925 9.81095e-10
-0.000152925 5.13931e-05 -5.74887e-07
9.81095e-10 -5.74887e-07 -0.000123535
0.000895306 -0.000192933 1.01671e-07
-0.000192933 0.000154627 -2.90671e-07
1.01671e-07 -2.90671e-07 -4.28624e-05
0.000831747 -0.000201129 -2.75944e-06
-0.000201129 7.91133e-05 -8.79297e-07
-2.75944e-06 -8.79297e-07 -0.000117093
0.000501975 3.55855e-05 1.18111e-06
3.55855e-05 -3.47588e-05 4.40883e-06
1.18111e-06 4.40883e-06 -0.000134275
0.000780707 -7.70633e-05 1.10599e-06
-7.70633e-05 0.000152017 7.06699e-07
1.10599e-06 7.06699e-07 -6.038e-06
0.00102001 -0.000136731 -2.50568e-06
-0.000136731 0.000303127 9.52999e-07
-2.50568e-06 9.52999e-07 0.000126442
0.00136389 9.95733e-05 -1.38754e-05
9.95733e-05 0.000473622 4.31901e-06
-1.38754e-05 4.31901e-06 0.00044174
0.000652753 1.35168e-05 -4.91634e-07
1.35168e-05 3.97975e-05 -6.41592e-07
-4.91634e-07 -6.41592e-07 -3.67079e-05
0.000892928 -5.8036e-05 -2.01543e-06
-5.8036e-05 0.000211809 -1.70282e-06
-2.01543e-06 -1.70282e-06 8.38519e-05
0.000747901 4.83755e-05 -2.72687e-05
4.83755e-05 0.000100052 3.47781e-06
-2.72687e-05 3.47781e-06 9.91491e-05
0.000979953 7.80005e-05 -8.22405e-06
7.80005e-05 0.00023349 4.57129e-08
-8.22405e-06 4.57129e-08 0.000206953
0.000683085 1.73779e-05 7.99612e-07
1.73779e-05 4.8207e-05 -2.61268e-06
7.99612e-07 -2.61268e-06 -1.42881e-05
0.000570279 5.94862e-05 -5.85685e-07
5.94862e-05 -1.91288e-05 -4.66304e-06
-5.85685e-07 -4.66304e-06 -4.30161e-05
0.00236333 9.50102e-05 3.08923e-06
9.50102e-05 0.00104889 2.76778e-07
3.08923e-06 2.76778e-07 0.0010545
0.00231744 8.30096e-05 2.27221e-05
8.30096e-05 0.00101425 -3.71032e-06
2.27221e-05 -3.71032e-06 0.00102269
0.000699164 4.63985e-05 5.26004e-07
4.63985e-05 7.0825e-05 -2.00954e-07
5.26004e-07 -2.00954e-07 -4.25633e-05
0.000788644 6.48009e-05 1.82553e-07
6.48009e-05 0.000136177 -1.66815e-06
1.82553e-07 -1.66815e-06 2.21415e-05
0.000660406 3.60987e-05 -2.3669e-09
3.60987e-05 4.84007e-05 1.04029e-07
-2.3669e-09 1.04029e-07 -6.17671e-05
0.000655303 5.06341e-07 -7.02649e-07
5.06341e-07 2.58751e-05 -2.74158e-06
-7.02649e-07 -2.74158e-06 -4.21638e-05
0.000732147 5.37933e-05 6.27057e-07
5.37933e-05 9.5155e-05 3.63137e-08
6.27057e-07 3.63137e-08 -7.74953e-06
0.000564438 -2.93151e-05 -5.48624e-07
-2.93151e-05 -3.67289e-05 -5.17926e-06
-5.48624e-07 -5.17926e-06 -5.95533e-05
0.000636715 1.49421e-05 -8.14764e-08
1.49421e-05 1.56364e-05 -8.6058e-08
-8.14764e-08 -8.6058e-08 -4.81936e-05
0.000746742 6.33821e-05 -2.5984e-07
6.33821e-05 0.000120523 1.6171e-06
-2.5984e-07 1.6171e-06 9.98835e-06
0.0024748 -6.60545e-05 -2.58064e-05
-6.60545e-05 0.00109334 -4.46194e-06
-2.58064e-05 -4.46194e-06 0.00110469
0.000565335 -2.70916e-05 -3.73923e-07
-2.70916e-05 -4.15027e-05 -4.08011e-08
-3.73923e-07 -4.08011e-08 -6.02089e-05
0.000625948 2.11285e-05 3.95005e-07
2.11285e-05 9.82832e-06 2.41202e-06
3.95005e-07 2.41202e-06 -4.82922e-05
0.00234075 -5.08445e-05 -3.9041e-06
-5.08445e-05 0.00100917 1.97895e-07
-3.9041e-06 1.97895e-07 0.00102341
0.00057264 -2.08867e-05 -4.35701e-07
-2.08867e-05 -4.10881e-05 4.07235e-06
-4.35701e-07 4.07235e-06 -5.5761e-05
0.00221813 -3.53143e-05 1.48781e-05
-3.53143e-05 0.000932843 4.63442e-06
1.48781e-05 4.63442e-06 0.000949631
0.00392474 2.80716e-05 8.40802e-05
2.80716e-05 0.00152769 2.75315e-05
8.40802e-05 2.75315e-05 0.000526651
0.000752249 -7.69676e-05 -1.14715e-06
-7.69676e-05 0.000101737 3.18039e-06
-1.14715e-06 3.18039e-06 7.1045e-05
0.00140254 -7.64755e-05 -1.54194e-05
-7.64755e-05 -0.000324285 3.12414e-06
-1.54194e-05 3.12414e-06 -0.000111985
0.000714093 0.000104659 -3.95771e-06
0.000104659 7.29284e-05 -6.02579e-07
-3.95771e-06 -6.02579e-07 -4.85374e-05
0.000823147 5.35662e-05 -3.76174e-07
5.35662e-05 0.000143912 4.75223e-07
-3.76174e-07 4.75223e-07 3.23476e-05
0.000568757 2.04933e-05 1.36824e-07
2.04933e-05 -1.28633e-05 2.29507e-07
1.36824e-07 2.29507e-07 -0.000121253
0.000799735 2.60755e-05 -1.7198e-07
2.60755e-05 0.000120862 -8.98827e-08
-1.7198e-07 -8.98827e-08 1.08956e-05
0.000852218 6.78509e-05 -3.89543e-07
6.78509e-05 0.000153309 -4.18507e-08
-3.89543e-07 -4.18507e-08 3.86011e-05
0.000930184 0.000101584 8.7261e-07
0.000101584 0.000215958 7.20829e-07
8.7261e-07 7.20829e-07 8.9472e-05
0.000862843 8.3561e-05 -8.96102e-07
8.3561e-05 0.000165363 -5.26436e-06
-8.96102e-07 -5.26436e-06 3.06297e-05
0.00019051 1.68358e-05 3.28016e-07
1.68358e-05 -0.000210916 -8.03109e-07
3.28016e-07 -8.03109e-07 -0.000330373
0.000813303 0.000107294 -1.25052e-06
0.000107294 0.00015015 1.61413e-07
-1.25052e-06 1.61413e-07 2.39776e-05
0.000559628 1.03104e-05 -7.77888e-07
1.03104e-05 -1.27519e-05 -2.96032e-06
-7.77888e-07 -2.96032e-06 -0.000121874
0.000666946 5.30539e-05 -3.57333e-07
5.30539e-05 7.38412e-05 5.5438e-07
-3.57333e-07 5.5438e-07 -4.91812e-05
0.00169244 0.000140816 7.03124e-06
0.000140816 0.000706007 5.65397e-06
7.03124e-06 5.65397e-06 0.000578171
0.000951521 -0.00071514 8.7017e-05
-0.00071514 0.0021691 0.000164544
8.7017e-05 0.000164544 0.00065932
0.00329078 0.000231044 2.00588e-05
0.000231044 0.00161073 6.34245e-05
2.00588e-05 6.34245e-05 -0.000871407
0.00100014 8.21617e-05 -2.41479e-05
8.21617e-05 0.000316376 -3.76187e-05
-2.41479e-05 -3.76187e-05 -0.00126083
0.00861141 -0.00156561 -0.000211326
-0.00156561 0.00101653 -0.000158719
-0.000211326 -0.000158719 0.00224507
0.00515137 -0.000524909 4.47006e-05
-0.000524909 0.00104861 0.000201194
4.47006e-05 0.000201194 -2.07837e-05
0.000729575 -0.000665895 -9.51736e-05
-0.000665895 0.00159072 9.36025e-05
-9.51736e-05 9.36025e-05 -0.00270069
0.00179392 -0.00025272 -2.43995e-05
-0.00025272 0.000430733 8.13309e-05
-2.43995e-05 8.13309e-05 -0.000120306
0.00295695 -0.000138104 2.02233e-05
-0.000138104 0.000643506 4.99949e-05
2.02233e-05 4.99949e-05 0.000307934
-0.00010309 -0.00196402 8.93011e-05
-0.00196402 -0.00110952 0.000105417
8.93011e-05 0.000105417 0.000486203
0.00506151 0.000768813 1.66473e-06
0.000768813 0.00340567 -1.68383e-05
1.66473e-06 -1.68383e-05 -0.000598437
0.00239482 -0.00103359 -3.19499e-05
-0.00103359 -0.00111394 4.169e-05
-3.19499e-05 4.169e-05 -0.00125957
0.0010612 0.000329387 2.57231e-07
0.000329387 -0.000173967 3.85441e-05
2.57231e-07 3.85441e-05 -0.000256589
0.00817365 0.000665889 -3.3602e-05
0.000665889 0.00395167 -4.16846e-06
-3.3602e-05 -4.16846e-06 0.000963943
0.00234687 -0.00168168 -0.000146293
-0.00168168 -0.000410046 -0.000155853
-0.000146293 -0.000155853 -0.000103673
0.000891051 0.000286275 5.30546e-06
0.000286275 0.000205381 -1.23581e-05
5.30546e-06 -1.23581e-05 7.7882e-05
0.000682473 8.46681e-05 3.47183e-06
8.46681e-05 0.000144149 -6.14155e-07
3.47183e-06 -6.14155e-07 3.08059e-05
0.000602448 3.5138e-05 -1.64469e-06
3.5138e-05 5.79133e-05 -1.96537e-06
-1.64469e-06 -1.96537e-06 -8.02672e-05
0.000116913 -4.11051e-05 -0.000160828
-4.11051e-05 0.000951195 -4.47266e-05
-0.000160828 -4.47266e-05 -0.000168611
-0.00218237 0.000119583 7.33385e-06
0.000119583 -0.00117489 -1.37157e-05
7.33385e-06 -1.37157e-05 -0.00141708
0.000359315 0.000110012 -1.45497e-06
0.000110012 7.96018e-05 3.42848e-06
-1.45497e-06 3.42848e-06 -0.000101058
0.000550167 0.000270681 1.00347e-05
0.000270681 0.000219349 3.48058e-06
1.00347e-05 3.48058e-06 3.09742e-05
0.000679008 0.000230594 -3.8117e-06
0.000230594 0.000445983 -3.15377e-05
-3.8117e-06 -3.15377e-05 -0.000204618
-0.000151371 0.000425458 2.42794e-05
0.000425458 -0.000496247 3.17621e-06
2.42794e-05 3.17621e-06 -0.000787874
-0.000613443 0.000218111 0.000135699
0.000218111 0.00288219 1.05861e-05
0.000135699 1.05861e-05 0.000824478
0.00197857 -2.54034e-05 -5.11303e-06
-2.54034e-05 0.00101489 1.73221e-05
-5.11303e-06 1.73221e-05 -0.0002251
0.000331719 -2.00106e-05 2.28598e-06
-2.00106e-05 0.000336526 1.4034e-05
2.28598e-06 1.4034e-05 -8.58401e-05
7.2191e-05 -8.7867e-05 -3.41605e-05
-8.7867e-05 0.000360027 4.78994e-06
-3.41605e-05 4.78994e-06 -1.42176e-05
0.000505634 -0.000113069 -4.73537e-05
-0.000113069 -0.000908149 6.94175e-06
-4.73537e-05 6.94175e-06 -0.000701227
0.00163651 -9.25792e-05 -8.34028e-05
-9.25792e-05 0.000282962 2.41985e-05
-8.34028e-05 2.41985e-05 -0.0010383
-0.00157755 -0.00119526 5.30031e-05
-0.00119526 -0.000156586 -8.3524e-05
5.30031e-05 -8.3524e-05 -0.00386315
-0.00214352 0.00142037 0.000132736
0.00142037 -0.00364639 -0.000139691
0.000132736 -0.000139691 -0.00303347
0.00210629 0.000688231 -0.000155641
0.000688231 0.0029187 0.000147376
-0.000155641 0.000147376 0.00209604
0.00201746 -0.000147647 -1.00571e-05
-0.000147647 0.000606606 -8.94172e-09
-1.00571e-05 -8.94172e-09 0.000772467
0.00156826 0.000165415 2.35821e-05
0.000165415 0.0031136 8.6951e-06
2.35821e-05 8.6951e-06 0.00191338
-0.00364603 0.00102103 2.85521e-05
0.00102103 -0.000976976 1.15184e-05
2.85521e-05 1.15184e-05 -0.00216879
0.00374059 -0.000986389 2.77119e-05
-0.000986389 0.00131468 -6.9835e-06
2.77119e-05 -6.9835e-06 0.000615251
0.0104586 -0.000566024 1.24008e-05
-0.000566024 0.00355496 -9.61081e-06
1.24008e-05 -9.61081e-06 0.00167048
0.00264822 -0.000549814 -6.23888e-06
-0.000549814 0.000767276 2.49479e-05
-6.23888e-06 2.49479e-05 0.000829032
-0.00783018 0.000391535 -0.000190943
0.000391535 -0.00362381 3.15418e-06
-0.000190943 3.15418e-06 -0.00436752
0.0116723 -0.0002812 -7.69711e-05
-0.0002812 0.00335479 2.46392e-05
-7.69711e-05 2.46392e-05 0.00184654
0.00375534 -0.00110421 1.25189e-05
-0.00110421 5.34683e-05 -1.56436e-05
1.25189e-05 -1.56436e-05 -0.000533168
0.00128925 -0.000275198 -2.13905e-05
-0.000275198 0.000645975 1.63015e-05
-2.13905e-05 1.63015e-05 0.000358595
0.00174537 -0.00042377 -3.20726e-06
-0.00042377 0.000322449 1.40685e-06
-3.20726e-06 1.40685e-06 0.000289685
0.00285932 -0.000479695 1.32857e-05
-0.000479695 0.00072292 -2.69356e-06
1.32857e-05 -2.69356e-06 0.00068226
-0.00178911 -8.1125e-05 -4.33442e-06
-8.1125e-05 -0.00128016 -1.61219e-08
-4.33442e-06 -1.61219e-08 -0.00158576
0.00136763 -0.000439988 -4.30389e-06
-0.000439988 7.59613e-05 -1.99653e-06
-4.30389e-06 -1.99653e-06 -0.000176554
0.00224048 -0.000529824 2.71129e-06
-0.000529824 0.000362289 -1.57367e-07
2.71129e-06 -1.57367e-07 0.000158801
0.00140519 -0.000370884 -1.214e-05
-0.000370884 0.000257116 -3.14521e-06
-1.214e-05 -3.14521e-06 -7.87776e-05
0.00157728 -0.000448525 1.37257e-09
-0.000448525 0.000154216 2.30561e-07
1.37257e-09 2.30561e-07 -0.000121167
0.00177099 -0.000414474 -8.86435e-07
-0.000414474 0.000100904 -4.65125e-06
-8.86435e-07 -4.65125e-06 -8.96081e-05
0.00123011 -0.000373822 -3.47819e-06
-0.000373822 3.96104e-05 -4.82659e-07
-3.47819e-06 -4.82659e-07 -0.000272407
0.00161645 -0.000384878 -4.2078e-07
-0.000384878 0.000139969 4.79542e-07
-4.2078e-07 4.79542e-07 -9.42238e-05
0.00174182 -0.000328418 -1.91168e-06
-0.000328418 0.000102758 -5.13644e-06
-1.91168e-06 -5.13644e-06 -5.49555e-05
0.0016081 -0.000261307 -3.67233e-06
-0.000261307 4.29161e-05 -3.24052e-06
-3.67233e-06 -3.24052e-06 -9.9453e-05
0.00153246 -0.000312599 -1.84766e-06
-0.000312599 8.39032e-05 -2.06375e-06
-1.84766e-06 -2.06375e-06 -0.000116557
0.00160594 -0.000314813 8.8394e-07
-0.000314813 0.000106273 1.328e-06
8.8394e-07 1.328e-06 -8.32352e-05
0.00146664 -0.000329396 -2.16447e-06
-0.000329396 0.000150052 -6.32187e-08
-2.16447e-06 -6.32187e-08 -8.14431e-05
0.00159324 -0.000374527 1.65427e-06
-0.000374527 0.000189799 -2.48402e-07
1.65427e-06 -2.48402e-07 -5.38689e-05
0.001589 -0.000371803 1.27054e-06
-0.000371803 0.000190004 4.74176e-07
1.27054e-06 4.74176e-07 -5.06109e-05
0.00122365 -0.00026027 -1.14436e-07
-0.00026027 0.000150892 2.59014e-06
-1.14436e-07 2.59014e-06 -5.90126e-05
0.00135038 -0.000309769 2.01564e-06
-0.000309769 0.000162477 -9.05804e-07
2.01564e-06 -9.05804e-07 -7.02172e-05
0.00153223 -0.000374895 -2.02816e-06
-0.000374895 0.000243828 -2.35801e-06
-2.02816e-06 -2.35801e-06 -2.56737e-05
0.000995627 -0.000200575 -7.50627e-07
-0.000200575 0.000163537 2.20965e-06
-7.50627e-07 2.20965e-06 -2.26326e-05
0.00118808 -0.000241572 5.74968e-07
-0.000241572 0.000231008 -2.51478e-07
5.74968e-07 -2.51478e-07 2.72069e-05
0.000938745 -0.000232934 -6.35247e-07
-0.000232934 5.0051e-05 -4.69509e-06
-6.35247e-07 -4.69509e-06 -0.000145434
0.000696877 -6.60721e-05 -8.5233e-07
-6.60721e-05 6.48827e-05 4.92527e-06
-8.5233e-07 4.92527e-06 -6.23702e-05
0.000927726 -0.000157443 -1.80083e-08
-0.000157443 0.00019298 -8.06811e-08
-1.80083e-08 -8.06811e-08 1.60114e-05
0.000493782 -0.000152469 -3.53721e-06
-0.000152469 -7.69107e-05 7.73363e-08
-3.53721e-06 7.73363e-08 -0.000266569
0.000409301 5.59249e-05 1.34816e-06
5.59249e-05 -8.70117e-05 7.41167e-06
1.34816e-06 7.41167e-06 -0.000129618
0.000700811 -3.37739e-05 -3.49132e-07
-3.37739e-05 8.05108e-05 -4.29952e-07
-3.49132e-07 -4.29952e-07 -2.42621e-05
0.00107545 -0.00011042 6.77213e-07
-0.00011042 0.00032802 -1.13201e-06
6.77213e-07 -1.13201e-06 0.000161646
0.00251508 0.000132034 -7.47605e-06
0.000132034 0.00115513 1.61383e-06
-7.47605e-06 1.61383e-06 0.00115073
0.000541481 6.41192e-05 -3.99535e-07
6.41192e-05 -1.67332e-05 -2.68116e-07
-3.99535e-07 -2.68116e-07 -5.01537e-05
0.000733821 -7.28716e-06 1.71315e-06
-7.28716e-06 8.4807e-05 -3.93643e-06
1.71315e-06 -3.93643e-06 7.1253e-06
0.0024414 0.000107132 3.31149e-06
0.000107132 0.00110245 2.81271e-07
3.31149e-06 2.81271e-07 0.00110517
0.000567602 6.29446e-05 -6.64002e-07
6.29446e-05 -1.02833e-05 -5.15694e-06
-6.64002e-07 -5.15694e-06 -3.81508e-05
0.0024197 9.72864e-05 2.7922e-05
9.72864e-05 0.00108292 -3.25205e-06
2.7922e-05 -3.25205e-06 0.00108803
0.000910035 0.000111348 1.89445e-07
0.000111348 0.000189158 1.3663e-06
1.89445e-07 1.3663e-06 6.237e-05
0.00077154 5.87341e-05 -6.1625e-08
5.87341e-05 0.000115153 -2.22951e-07
-6.1625e-08 -2.22951e-07 -1.36395e-06
0.000803748 4.7652e-05 1.0673e-07
4.7652e-05 0.000150665 -2.21905e-06
1.0673e-07 -2.21905e-06 2.72333e-05
0.000660815 -3.33233e-06 -9.76489e-07
-3.33233e-06 3.23733e-05 -3.20751e-06
-9.76489e-07 -3.20751e-06 -4.05797e-05
0.000726603 3.58328e-05 3.95531e-07
3.58328e-05 9.4546e-05 1.61473e-07
3.95531e-07 1.61473e-07 -1.44314e-05
0.000616488 4.78114e-05 6.12981e-07
4.78114e-05 2.99739e-05 9.23529e-07
6.12981e-07 9.23529e-07 -8.48909e-05
0.000564338 -3.45688e-05 -8.25461e-07
-3.45688e-05 -3.12789e-05 -5.61557e-06
-8.25461e-07 -5.61557e-06 -5.81458e-05
0.000639766 6.76902e-06 -3.51097e-08
6.76902e-06 1.87921e-05 -6.66284e-08
-3.51097e-08 -6.66284e-08 -5.00057e-05
0.000717891 5.21469e-05 7.36934e-07
5.21469e-05 8.30203e-05 1.38645e-06
7.36934e-07 1.38645e-06 -1.64057e-05
0.00259982 -7.99225e-05 -3.29409e-05
-7.99225e-05 0.00117264 -4.18943e-06
-3.29409e-05 -4.18943e-06 0.0011812
0.000551728 -3.04201e-05 -4.91313e-07
-3.04201e-05 -4.43475e-05 -5.33783e-08
-4.91313e-07 -5.33783e-08 -6.7044e-05
0.000636522 1.77091e-05 6.05516e-07
1.77091e-05 1.63522e-05 2.71157e-06
6.05516e-07 2.71157e-06 -4.76563e-05
0.00244617 -6.49564e-05 -4.38853e-06
-6.49564e-05 0.0010759 2.62376e-07
-4.38853e-06 2.62376e-07 0.00108757
0.000561435 -2.64778e-05 -4.87307e-07
-2.64778e-05 -4.39135e-05 4.58107e-06
-4.87307e-07 4.58107e-06 -6.24048e-05
0.00230236 -4.92222e-05 1.9177e-05
-4.92222e-05 0.000985998 4.53189e-06
1.9177e-05 4.53189e-06 0.00100068
-0.00522607 0.000144915 -7.28139e-06
0.000144915 0.000809886 4.56374e-05
-7.28139e-06 4.56374e-05 -0.00152425
0.00366345 -2.13769e-05 1.53043e-07
-2.13769e-05 0.00158882 9.62846e-06
1.53043e-07 9.62846e-06 0.00053441
0.000806754 -7.78092e-05 -8.43035e-06
-7.78092e-05 0.00011884 -5.66229e-06
-8.43035e-06 -5.66229e-06 7.24022e-05
0.000583643 6.80692e-05 -9.40569e-07
6.80692e-05 -7.39592e-06 6.48686e-07
-9.40569e-07 6.48686e-07 -0.00012174
0.00172488 0.00025518 -6.83544e-07
0.00025518 0.000669616 1.88133e-06
-6.83544e-07 1.88133e-06 0.000510221
0.000790822 7.03823e-05 -2.51796e-06
7.03823e-05 0.000114017 -6.35914e-07
-2.51796e-06 -6.35914e-07 -8.98095e-06
0.00101928 2.76007e-05 -4.44054e-07
2.76007e-05 0.000244214 -4.31713e-07
-4.44054e-07 -4.31713e-07 0.000136305
0.00122654 0.000111606 1.48461e-06
0.000111606 0.000369925 6.45913e-07
1.48461e-06 6.45913e-07 0.000251179
0.000582887 4.09872e-05 -1.41009e-06
4.09872e-05 -8.33028e-07 2.91131e-06
-1.41009e-06 2.91131e-06 -0.000110153
0.000626636 6.022e-05 -1.27993e-06
6.022e-05 4.95917e-05 8.66542e-07
-1.27993e-06 8.66542e-07 -8.09785e-05
0.000750473 6.50645e-05 -8.64897e-07
6.50645e-05 9.71391e-05 -5.75734e-07
-8.64897e-07 -5.75734e-07 -3.23358e-05
0.000841502 0.000120048 8.10183e-07
0.000120048 0.000176401 -3.26664e-06
8.10183e-07 -3.26664e-06 1.60198e-05
0.00043562 0.000177681 1.85963e-06
0.000177681 -0.00011421 -5.72286e-06
1.85963e-06 -5.72286e-06 -0.000217584
0.000943576 8.30953e-05 -1.50866e-06
8.30953e-05 0.000241045 -8.69239e-07
-1.50866e-06 -8.69239e-07 0.000108636
0.00106888 0.000125197 5.56028e-07
0.000125197 0.000347613 2.63182e-06
5.56028e-07 2.63182e-06 0.000217273
-0.00532697 -0.000787955 -0.00033908
-0.000787955 -0.00138402 6.51215e-06
-0.00033908 6.51215e-06 -0.00250033
-0.00274175 -0.000545882 0.000138696
-0.000545882 0.00115039 6.84348e-05
0.000138696 6.84348e-05 -0.00065945
0.00394306 0.000257833 -0.00012432
0.000257833 0.00178168 -7.14406e-05
-0.00012432 -7.14406e-05 -0.000756315
-0.00783524 -0.00201966 0.000443778
-0.00201966 -0.00346572 0.000360145
0.000443778 0.000360145 -0.00188262
0.0121493 -0.00128234 -6.74605e-05
-0.00128234 0.00371135 0.000109309
-6.74605e-05 0.000109309 0.0035854
-0.000984369 0.000939303 2.65459e-06
0.000939303 0.000170498 -5.97847e-05
2.65459e-06 -5.97847e-05 -0.00373165
0.00250545 -2.55652e-05 -0.000145952
-2.55652e-05 0.000788938 4.45865e-05
-0.000145952 4.45865e-05 -7.2422e-05
0.0026689 0.000362764 -7.80118e-06
0.000362764 0.000762161 2.06194e-05
-7.80118e-06 2.06194e-05 0.000495864
0.00869155 -0.00142009 -0.000146689
-0.00142009 0.00419803 5.07679e-05
-0.000146689 5.07679e-05 0.0041555
4.99557e-05 0.000863018 -7.26841e-06
0.000863018 0.00047543 -2.27294e-05
-7.26841e-06 -2.27294e-05 -0.00261738
0.00144602 0.000643419 -5.42976e-05
0.000643419 0.000221554 -6.5849e-05
-5.42976e-05 -6.5849e-05 -6.53714e-05
0.00422968 0.00132966 -0.000158792
0.00132966 0.000398943 -9.37295e-05
-0.000158792 -9.37295e-05 -0.00181142
0.00216513 0.000577527 1.64037e-05
0.000577527 0.000566019 -2.27213e-05
1.64037e-05 -2.27213e-05 0.000348275
0.000809262 0.000262952 -4.44736e-06
0.000262952 0.000153729 8.74136e-07
-4.44736e-06 8.74136e-07 3.32531e-05
0.00133687 9.26105e-05 -3.79817e-06
9.26105e-05 0.000508223 2.9967e-06
-3.79817e-06 2.9967e-06 0.000402975
-0.000899092 0.000180102 -4.07053e-05
0.000180102 -0.000376861 -4.15485e-05
-4.07053e-05 -4.15485e-05 -0.00092607
0.00289868 0.000404069 -1.73725e-05
0.000404069 0.00144685 -1.2156e-05
-1.73725e-05 -1.2156e-05 0.0012504
0.00117721 0.000540286 1.34089e-05
0.000540286 0.000124161 -3.94371e-06
1.34089e-05 -3.94371e-06 -0.000175495
0.00324255 0.000877143 9.25237e-05
0.000877143 0.000543683 2.91089e-05
9.25237e-05 2.91089e-05 0.000451731
-0.00449557 -6.01799e-05 -0.00027245
-6.01799e-05 -0.00335277 6.91635e-07
-0.00027245 6.91635e-07 -0.0023646
-0.0025525 0.000129174 0.000114526
0.000129174 0.00218416 2.10821e-06
0.000114526 2.10821e-06 -1.43711e-05
0.00194072 -5.03765e-05 -6.44556e-05
-5.03765e-05 0.00101267 2.41141e-05
-6.44556e-05 2.41141e-05 3.4023e-05
0.00361133 -0.000301131 -6.66628e-05
-0.000301131 0.00133789 -3.61318e-05
-6.66628e-05 -3.61318e-05 0.00147469
0.00175202 -0.00085884 -3.59878e-05
-0.00085884 8.41624e-05 7.22302e-06
-3.59878e-05 7.22302e-06 -0.00044039
0.00177402 0.000112774 -1.83298e-05
0.000112774 0.00316382 3.37734e-05
-1.83298e-05 3.37734e-05 0.00207894
0.00230408 -0.000714777 0.000139246
-0.000714777 0.000127658 -0.000114804
0.000139246 -0.000114804 -0.00227878
0.010104 0.00100193 8.98171e-05
0.00100193 0.00484414 9.78135e-06
8.98171e-05 9.78135e-06 0.004186
0.00263235 -0.000680991 -2.0127e-05
-0.000680991 0.000598264 7.27715e-06
-2.0127e-05 7.27715e-06 0.000519291
-0.000873629 0.000508699 5.90515e-05
0.000508699 -0.000512363 -1.62557e-05
5.90515e-05 -1.62557e-05 -0.0010208
0.0042348 -0.000271744 -4.50138e-05
-0.000271744 -0.000339699 5.22214e-05
-4.50138e-05 5.22214e-05 -0.00241814
0.00590459 -0.00119085 -3.09869e-05
-0.00119085 0.00131899 1.38158e-05
-3.09869e-05 1.38158e-05 0.000719242
0.000677168 -0.000419326 3.97947e-05
-0.000419326 -0.000333287 -8.00395e-06
3.97947e-05 -8.00395e-06 -0.000541202
0.00966431 -0.000391055 1.77924e-05
-0.000391055 0.00231018 -3.08671e-05
1.77924e-05 -3.08671e-05 0.000942639
0.00410969 -0.000612909 6.12766e-05
-0.000612909 -0.000131578 -3.57981e-05
6.12766e-05 -3.57981e-05 -0.000168026
-0.00053753 -0.000274312 -2.00298e-05
-0.000274312 -0.000976548 5.64404e-06
-2.00298e-05 5.64404e-06 -0.00091972
0.000668778 -0.000348257 -8.10593e-06
-0.000348257 -0.000463241 -1.03865e-06
-8.10593e-06 -1.03865e-06 -0.000455698
0.00316229 -0.000508177 2.49523e-05
-0.000508177 0.000716394 -1.60507e-05
2.49523e-05 -1.60507e-05 0.000688031
0.000235021 -0.000334834 -1.04283e-05
-0.000334834 -0.00048561 -4.99637e-06
-1.04283e-05 -4.99637e-06 -0.000737909
0.00170408 -0.000481137 -5.07187e-08
-0.000481137 9.11997e-05 -2.31949e-07
-5.07187e-08 -2.31949e-07 -0.000100724
0.00213176 -0.000437603 -3.4218e-06
-0.000437603 0.00017226 -1.05477e-06
-3.4218e-06 -1.05477e-06 4.40445e-05
0.00132928 -0.000421184 -2.92658e-06
-0.000421184 3.02251e-05 2.60444e-06
-2.92658e-06 2.60444e-06 -0.000247053
0.00180896 -0.000414089 -2.34012e-06
-0.000414089 0.000124714 4.18232e-07
-2.34012e-06 4.18232e-07 -6.77827e-05
0.00180539 -0.000326523 -1.66425e-06
-0.000326523 3.55733e-05 -1.23778e-06
-1.66425e-06 -1.23778e-06 -8.34043e-05
0.00134071 -0.000359171 3.76275e-06
-0.000359171 -1.34393e-05 4.0435e-06
3.76275e-06 4.0435e-06 -0.00024259
0.00169489 -0.00031994 -1.5488e-09
-0.00031994 8.32097e-05 7.58565e-07
-1.5488e-09 7.58565e-07 -7.26338e-05
0.00179819 -0.000269171 -3.19978e-06
-0.000269171 9.41994e-05 -1.8288e-06
-3.19978e-06 -1.8288e-06 -1.45834e-05
0.00189041 -0.000247057 -2.12304e-06
-0.000247057 0.000208339 -7.62231e-07
-2.12304e-06 -7.62231e-07 9.44079e-05
0.00166709 -0.000262137 -2.45627e-06
-0.000262137 7.52934e-05 2.98234e-06
-2.45627e-06 2.98234e-06 -6.26279e-05
0.00173162 -0.00027214 -1.00324e-06
-0.00027214 0.000149837 -5.34699e-06
-1.00324e-06 -5.34699e-06 -6.62782e-06
0.00164915 -0.000309851 -3.52678e-06
-0.000309851 0.000182777 -1.70195e-06
-3.52678e-06 -1.70195e-06 -1.97916e-05
0.0016464 -0.000318678 1.19964e-06
-0.000318678 0.000147305 4.42604e-07
1.19964e-06 4.42604e-07 -5.33908e-05
0.00153002 -0.000301968 2.255e-06
-0.000301968 6.71509e-05 5.57962e-06
2.255e-06 5.57962e-06 -0.000117486
0.00134719 -0.000277053 -6.10242e-06
-0.000277053 0.000141089 1.83393e-06
-6.10242e-06 1.83393e-06 -6.88218e-05
0.00147078 -0.000330014 -9.87919e-08
-0.000330014 0.000149606 4.42114e-08
-9.87919e-08 4.42114e-08 -8.16122e-05
0.00159567 -0.000370904 1.73819e-06
-0.000370904 0.000199975 4.29933e-07
1.73819e-06 4.29933e-07 -4.09697e-05
0.00122217 -0.000232518 -3.08622e-06
-0.000232518 0.000212693 3.19161e-06
-3.08622e-06 3.19161e-06 1.64431e-05
0.00123512 -0.000261217 5.8723e-07
-0.000261217 0.000154788 6.36923e-07
5.8723e-07 6.36923e-07 -5.5793e-05
0.00118406 -0.000297994 2.33894e-06
-0.000297994 7.10857e-05 -3.56717e-06
2.33894e-06 -3.56717e-06 -0.000159301
0.000736172 -0.000129582 -4.64468e-06
-0.000129582 5.46372e-05 4.35508e-06
-4.64468e-06 4.35508e-06 -9.21509e-05
0.0010796 -0.000208691 8.06686e-07
-0.000208691 0.000210429 -3.81174e-07
8.06686e-07 -3.81174e-07 2.29239e-05
0.00121007 -0.000241959 -1.58842e-08
-0.000241959 0.000238539 -2.27681e-06
-1.58842e-08 -2.27681e-06 3.55514e-05
0.00040763 6.14961e-06 -3.03383e-06
6.14961e-06 -0.000104724 9.81743e-06
-3.03383e-06 9.81743e-06 -0.000155422
0.000734502 -9.26912e-05 2.47302e-07
-9.26912e-05 9.07596e-05 5.22953e-07
2.47302e-07 5.22953e-07 -4.31821e-05
0.0011988 -0.000171843 -3.42466e-08
-0.000171843 0.000350772 -7.06321e-07
-3.42466e-08 -7.06321e-07 0.000169067
0.00284839 0.000140283 -4.42539e-05
0.000140283 0.00135473 2.27713e-06
-4.42539e-05 2.27713e-06 0.0013488
0.000540943 4.19585e-05 -3.64017e-07
4.19585e-05 -1.5757e-05 -6.36336e-07
-3.64017e-07 -6.36336e-07 -5.69675e-05
0.000864436 -7.99959e-05 2.85978e-06
-7.99959e-05 0.000176937 -4.58889e-06
2.85978e-06 -4.58889e-06 6.66057e-05
0.00173869 9.65454e-05 2.03709e-05
9.65454e-05 0.000693265 1.37019e-07
2.03709e-05 1.37019e-07 0.000689032
0.000603717 5.70991e-05 3.90925e-07
5.70991e-05 1.7993e-05 -6.11055e-06
3.90925e-07 -6.11055e-06 -1.44985e-05
0.00253247 0.000109803 3.59128e-05
0.000109803 0.0011563 -2.6354e-06
3.59128e-05 -2.6354e-06 0.00115862
0.000913216 0.000120286 2.61669e-06
0.000120286 0.000175773 1.00874e-06
2.61669e-06 1.00874e-06 5.07053e-05
0.000633794 6.30862e-05 -2.71338e-07
6.30862e-05 2.1536e-05 5.15592e-07
-2.71338e-07 5.15592e-07 -9.36378e-05
0.000688017 3.26615e-05 -2.54771e-07
3.26615e-05 6.3575e-05 -1.36157e-06
-2.54771e-07 -1.36157e-06 -5.21879e-05
0.000896572 8.07019e-05 2.92049e-07
8.07019e-05 0.000190817 6.06045e-07
2.92049e-07 6.06045e-07 6.98634e-05
0.000717679 2.50518e-05 1.90217e-07
2.50518e-05 8.24857e-05 4.80467e-08
1.90217e-07 4.80467e-08 -2.71585e-05
0.000669054 -1.73999e-06 -1.20605e-06
-1.73999e-06 4.0369e-05 -3.75143e-06
-1.20605e-06 -3.75143e-06 -3.84681e-05
0.000566422 -3.65022e-05 -1.3023e-06
-3.65022e-05 -2.38821e-05 -6.20878e-06
-1.3023e-06 -6.20878e-06 -5.42228e-05
0.000636665 -1.25628e-06 2.22829e-07
-1.25628e-06 1.96344e-05 -7.40535e-08
2.22829e-07 -7.40535e-08 -5.37917e-05
0.000651114 7.17217e-06 -1.7868e-07
7.17217e-06 3.37503e-05 1.47429e-06
-1.7868e-07 1.47429e-06 -6.22087e-05
0.0026925 -9.29106e-05 -4.06336e-05
-9.29106e-05 0.00123359 -3.80865e-06
-4.06336e-05 -3.80865e-06 0.0012395
0.000542061 -3.02412e-05 -2.56755e-07
-3.02412e-05 -4.4667e-05 -3.53691e-08
-2.56755e-07 -3.53691e-08 -7.09922e-05
0.000627563 1.28892e-05 1.18378e-06
1.28892e-05 1.39505e-05 2.89804e-06
1.18378e-06 2.89804e-06 -5.58606e-05
0.00256971 -7.91542e-05 -4.60934e-06
-7.91542e-05 0.00115439 3.02666e-07
-4.60934e-06 3.02666e-07 0.00116316
0.000541631 -3.19625e-05 -2.11809e-07
-3.19625e-05 -5.02614e-05 5.11143e-06
-2.11809e-07 5.11143e-06 -7.29156e-05
0.00243732 -6.40548e-05 2.37964e-05
-6.40548e-05 0.00107013 4.42584e-06
2.37964e-05 4.42584e-06 0.00108201
0.000296444 0.000316656 -0.000172164
0.000316656 0.00148968 4.12457e-05
-0.000172164 4.12457e-05 0.000474873
-0.00226892 -4.63338e-05 9.25835e-06
-4.63338e-05 0.00161656 1.3975e-05
9.25835e-06 1.3975e-05 -0.000686917
0.00341261 -5.65832e-05 -6.56677e-05
-5.65832e-05 0.00171574 -4.99965e-06
-6.56677e-05 -4.99965e-06 0.000616994
0.000488108 3.46825e-05 1.67357e-06
3.46825e-05 -6.68505e-05 -1.22559e-06
1.67357e-06 -1.22559e-06 -0.000175111
0.000661279 4.39521e-05 2.04131e-06
4.39521e-05 3.55581e-05 6.36276e-07
2.04131e-06 6.36276e-07 -8.72616e-05
0.00129214 0.000210601 -1.48177e-06
0.000210601 0.000425997 7.15714e-07
-1.48177e-06 7.15714e-07 0.000276889
0.00151479 0.000272651 3.05754e-06
0.000272651 0.000486805 -1.61835e-06
3.05754e-06 -1.61835e-06 0.000289965
0.0010944 0.000167337 -6.65782e-06
0.000167337 0.000324523 -1.89701e-06
-6.65782e-06 -1.89701e-06 0.000166889
0.000947061 0.000108828 8.23103e-07
0.000108828 0.000237023 2.97976e-06
8.23103e-07 2.97976e-06 0.000100738
0.000750963 7.89573e-05 2.93821e-06
7.89573e-05 0.000100128 2.87286e-06
2.93821e-06 2.87286e-06 -2.98917e-05
0.000610732 0.000129586 -3.89322e-06
0.000129586 5.0601e-05 -3.59314e-06
-3.89322e-06 -3.59314e-06 -0.00010338
-0.000779221 7.79405e-05 -3.92879e-07
7.79405e-05 -0.000793295 -1.83079e-07
-3.92879e-07 -1.83079e-07 -0.0009493
0.00121592 0.000263681 2.67368e-06
0.000263681 0.000265079 -2.76283e-06
2.67368e-06 -2.76283e-06 0.000147198
0.0021639 0.000504951 3.01428e-06
0.000504951 0.000497277 -1.18449e-05
3.01428e-06 -1.18449e-05 0.000299648
0.000646049 0.000202874 -5.65881e-06
0.000202874 2.03947e-05 -3.08886e-07
-5.65881e-06 -3.08886e-07 -8.9596e-05
0.000596645 7.43821e-05 1.2187e-07
7.43821e-05 3.85953e-05 -1.2879e-06
1.2187e-07 -1.2879e-06 -8.00191e-05
0.0109599 0.000714929 -7.93607e-05
0.000714929 0.00285958 3.71955e-05
-7.93607e-05 3.71955e-05 0.00147455
-0.000570067 -0.00062923 -0.000164539
-0.00062923 0.00156128 -5.16771e-05
-0.000164539 -5.16771e-05 0.000306252
-0.000980372 -0.000853525 8.45063e-05
-0.000853525 0.00123668 -1.6655e-05
8.45063e-05 -1.6655e-05 -0.000614505
-0.0021766 -0.000743517 5.98029e-06
-0.000743517 -0.000675418 0.000129259
5.98029e-06 0.000129259 -0.000813396
0.0108957 0.000830156 2.60084e-06
0.000830156 0.0050057 -3.38134e-06
2.60084e-06 -3.38134e-06 0.00186975
0.000618698 0.000317629 -4.72695e-05
0.000317629 -0.000309754 -2.19515e-05
-4.72695e-05 -2.19515e-05 -0.000432867
0.00148727 0.000648185 -2.08618e-05
0.000648185 0.000225663 -1.12389e-05
-2.08618e-05 -1.12389e-05 3.4642e-06
0.00970035 0.000763298 2.98568e-05
0.000763298 0.00319964 2.09389e-05
2.98568e-05 2.09389e-05 0.0013282
0.00557289 0.0013125 -3.62595e-05
0.0013125 0.000918805 -4.14491e-05
-3.62595e-05 -4.14491e-05 0.000465784
0.00180436 0.000611637 1.2328e-06
0.000611637 0.000209859 -6.25213e-06
1.2328e-06 -6.25213e-06 4.36285e-05
0.00102794 0.000434213 5.71768e-06
0.000434213 9.25503e-05 -1.40928e-06
5.71768e-06 -1.40928e-06 -0.000113807
0.000856182 0.000241301 -1.65725e-05
0.000241301 0.000190787 1.73471e-05
-1.65725e-05 1.73471e-05 7.76989e-05
0.0026652 0.000696661 -4.12347e-05
0.000696661 0.000758993 -1.5875e-05
-4.12347e-05 -1.5875e-05 0.000472253
0.00226214 0.000799694 -2.17039e-06
0.000799694 -2.65649e-05 1.79739e-05
-2.17039e-06 1.79739e-05 -0.000140954
0.00073413 -0.000318317 -3.20277e-05
-0.000318317 -0.00293167 9.2557e-06
-3.20277e-05 9.2557e-06 -0.00327399
0.00233111 -0.000384886 -1.40237e-06
-0.000384886 0.00131864 -1.99632e-05
-1.40237e-06 -1.99632e-05 0.00138441
-0.00449379 1.70829e-05 0.000139995
1.70829e-05 0.00160551 -8.65885e-06
0.000139995 -8.65885e-06 -0.000753827
0.0021498 -0.000725081 -3.17127e-05
-0.000725081 0.000265051 4.52907e-06
-3.17127e-05 4.52907e-06 0.000105255
0.00328489 -0.00105942 3.15166e-05
-0.00105942 0.000605408 -1.19818e-05
3.15166e-05 -1.19818e-05 -0.000293135
0.00124526 -0.000279085 0.000204832
-0.000279085 0.00178961 -5.30457e-07
0.000204832 -5.30457e-07 0.000995464
0.0118976 -0.000326938 -0.000119605
-0.000326938 0.00371112 6.2866e-05
-0.000119605 6.2866e-05 0.00209731
0.000786195 -0.000447073 -2.54478e-05
-0.000447073 -0.000353383 -3.07884e-06
-2.54478e-05 -3.07884e-06 -0.000481115
0.00833474 6.44349e-05 -4.62556e-05
6.44349e-05 0.00127974 2.72918e-05
-4.62556e-05 2.72918e-05 0.000277193
0.00444331 -0.000674124 7.00928e-05
-0.000674124 -7.58875e-05 2.92994e-06
7.00928e-05 2.92994e-06 -0.000472782
0.00288228 -0.00045147 4.33009e-05
-0.00045147 0.000697397 -1.09509e-05
4.33009e-05 -1.09509e-05 0.000392253
0.00340309 -0.000237143 -8.91855e-05
-0.000237143 0.000128862 5.86577e-07
-8.91855e-05 5.86577e-07 6.64732e-05
-0.00103235 -0.000252297 -1.51115e-05
-0.000252297 -0.00139689 2.94288e-06
-1.51115e-05 2.94288e-06 -0.0013486
0.00156723 -0.000421658 2.60204e-07
-0.000421658 -0.000126096 -7.1547e-07
2.60204e-07 -7.1547e-07 -0.000140023
0.00233279 -0.00035575 1.37143e-05
-0.00035575 0.000163228 -8.83811e-06
1.37143e-05 -8.83811e-06 0.000188319
0.00125194 -0.000442253 -1.55771e-06
-0.000442253 -0.000135127 2.43054e-06
-1.55771e-06 2.43054e-06 -0.00031891
0.00180413 -0.000406921 -2.18779e-06
-0.000406921 1.69844e-05 8.04279e-08
-2.18779e-06 8.04279e-08 -0.000108593
0.00206348 -0.00031701 1.62678e-07
-0.00031701 7.15592e-05 1.22247e-06
1.62678e-07 1.22247e-06 1.7444e-05
0.0017247 -0.000403896 -2.65015e-06
-0.000403896 8.39472e-05 4.83197e-06
-2.65015e-06 4.83197e-06 -0.000109294
0.00185391 -0.000327745 4.27665e-07
-0.000327745 6.37588e-05 1.54176e-06
4.27665e-07 1.54176e-06 -5.43633e-05
0.00176333 -0.00027948 -7.29808e-07
-0.00027948 1.50939e-05 1.38909e-06
-7.29808e-07 1.38909e-06 -6.82806e-05
0.00166618 -0.000313524 4.07372e-06
-0.000313524 7.22256e-05 5.32447e-06
4.07372e-06 5.32447e-06 -8.20699e-05
0.00175222 -0.000269381 -2.71027e-07
-0.000269381 6.66294e-05 1.16542e-06
-2.71027e-07 1.16542e-06 -4.30677e-05
0.00204486 -0.000268685 -4.11962e-07
-0.000268685 0.00025443 2.87061e-08
-4.11962e-07 2.87061e-08 0.000156738
0.00178486 -0.000243628 -3.91575e-06
-0.000243628 0.000138239 3.55149e-06
-3.91575e-06 3.55149e-06 2.78607e-05
0.00182848 -0.000255475 2.03165e-06
-0.000255475 0.00019526 -3.16793e-06
2.03165e-06 -3.16793e-06 6.61776e-05
0.00172768 -0.000263551 2.0826e-06
-0.000263551 0.00010856 7.59343e-06
2.0826e-06 7.59343e-06 -2.50467e-05
0.00173407 -0.000274137 4.01527e-07
-0.000274137 0.000151138 -8.00461e-07
4.01527e-07 -8.00461e-07 -6.10628e-06
0.00166952 -0.000267225 -1.38829e-06
-0.000267225 0.00015524 -2.98303e-06
-1.38829e-06 -2.98303e-06 -1.60046e-05
0.00149561 -0.000271578 -5.30723e-06
-0.000271578 0.000161452 -1.18668e-07
-5.30723e-06 -1.18668e-07 -3.51295e-05
0.00167542 -0.000312666 3.96883e-07
-0.000312666 0.000199481 -3.71732e-07
3.96883e-07 -3.71732e-07 -4.17759e-06
0.00175579 -0.000324689 2.89848e-06
-0.000324689 0.000208651 2.56919e-06
2.89848e-06 2.56919e-06 7.67779e-06
0.00116294 -0.000226774 -6.77433e-06
-0.000226774 9.69384e-05 2.57475e-06
-6.77433e-06 2.57475e-06 -9.08466e-05
0.00129481 -0.000272463 -1.32198e-06
-0.000272463 0.000111454 4.65241e-07
-1.32198e-06 4.65241e-07 -9.82446e-05
0.00145829 -0.000329444 2.67089e-06
-0.000329444 0.000139681 -2.67882e-07
2.67089e-06 -2.67882e-07 -9.11342e-05
0.000796804 -0.000151727 -6.2412e-06
-0.000151727 3.31354e-05 6.13074e-06
-6.2412e-06 6.13074e-06 -0.000120924
0.00112781 -0.000224237 9.64091e-07
-0.000224237 0.00015661 5.19521e-07
9.64091e-07 5.19521e-07 -3.81438e-05
0.00136583 -0.00027212 2.72809e-06
-0.00027212 0.000227538 -1.74982e-06
2.72809e-06 -1.74982e-06 1.48869e-05
0.000420919 -6.05839e-05 -1.18417e-05
-6.05839e-05 -0.000121128 1.14685e-05
-1.18417e-05 1.14685e-05 -0.000181857
0.000788678 -0.000144927 -4.58999e-07
-0.000144927 8.43888e-05 1.13528e-07
-4.58999e-07 1.13528e-07 -6.46182e-05
0.00106093 -0.000204068 1.14841e-06
-0.000204068 0.000197625 -1.96577e-06
1.14841e-06 -1.96577e-06 1.1471e-05
0.00346947 0.000161629 -6.74399e-05
0.000161629 0.00172143 2.33109e-06
-6.74399e-05 2.33109e-06 0.00171027
0.000556524 -1.31186e-05 8.95647e-07
-1.31186e-05 -2.2414e-05 -3.52199e-07
8.95647e-07 -3.52199e-07 -7.37148e-05
0.000871087 -0.000141611 4.55009e-06
-0.000141611 0.000171692 -4.10042e-06
4.55009e-06 -4.10042e-06 3.19129e-05
0.00303303 0.00013645 7.50299e-06
0.00013645 0.00146025 4.22412e-07
7.50299e-06 4.22412e-07 0.0014558
0.000678173 2.46302e-05 4.39347e-06
2.46302e-05 5.901e-05 -8.03323e-06
4.39347e-06 -8.03323e-06 1.87746e-05
0.00272936 0.00011896 5.16891e-05
0.00011896 0.00127642 -2.12536e-06
5.16891e-05 -2.12536e-06 0.00127687
0.00101979 0.000206981 3.568e-06
0.000206981 0.000204711 -3.95452e-06
3.568e-06 -3.95452e-06 2.28057e-05
0.000824091 0.000144529 1.13586e-06
0.000144529 0.000133661 -2.03196e-07
1.13586e-06 -2.03196e-07 1.05423e-06
0.000480633 4.18081e-05 -7.03183e-08
4.18081e-05 -6.41453e-05 -6.03082e-07
-7.03183e-08 -6.03082e-07 -0.000184848
0.000338472 2.49607e-05 3.39279e-08
2.49607e-05 -0.000150951 -1.78676e-07
3.39279e-08 -1.78676e-07 -0.000259248
0.000570247 1.04247e-05 -2.81887e-07
1.04247e-05 -8.19112e-06 5.57915e-07
-2.81887e-07 5.57915e-07 -0.000120803
0.000659724 2.4435e-06 -1.37281e-06
2.4435e-06 3.60487e-05 -3.84676e-06
-1.37281e-06 -3.84676e-06 -5.09541e-05
0.000635803 5.89336e-06 1.00433e-07
5.89336e-06 2.62476e-05 1.74105e-06
1.00433e-07 1.74105e-06 -7.61452e-05
0.00062534 -7.49961e-06 3.27595e-07
-7.49961e-06 1.63566e-05 -1.92931e-07
3.27595e-07 -1.92931e-07 -6.25827e-05
0.000570295 -4.01924e-05 -1.57533e-06
-4.01924e-05 -1.42407e-05 -6.8942e-06
-1.57533e-06 -6.8942e-06 -4.83114e-05
0.00277844 -0.000105958 -4.77961e-05
-0.000105958 0.00129165 -3.31148e-06
-4.77961e-05 -3.31148e-06 0.00129478
0.000537981 -3.4549e-05 9.73451e-08
-3.4549e-05 -4.06747e-05 -7.85435e-09
9.73451e-08 -7.85435e-09 -7.06384e-05
0.000602004 -1.71969e-07 1.45733e-06
-1.71969e-07 8.21892e-07 3.25003e-06
1.45733e-06 3.25003e-06 -7.29962e-05
0.00269097 -9.30029e-05 -4.71933e-06
-9.30029e-05 0.00123235 3.57897e-07
-4.71933e-06 3.57897e-07 0.00123816
0.000525573 -3.07741e-05 7.92852e-07
-3.07741e-05 -5.3975e-05 5.59634e-06
7.92852e-07 5.59634e-06 -8.02602e-05
0.00254253 -7.82233e-05 2.95715e-05
-7.82233e-05 0.00113771 4.24982e-06
2.95715e-05 4.24982e-06 0.00114673
0.0108245 0.00048277 0.000180597
0.00048277 0.00257916 6.33677e-05
0.000180597 6.33677e-05 0.00164558
-0.00285443 -0.000737942 -0.000113822
-0.000737942 -0.00214156 -1.38492e-05
-0.000113822 -1.38492e-05 -0.00233318
-0.00457824 0.00028873 -5.6306e-05
0.00028873 0.000601135 -3.57438e-05
-5.6306e-05 -3.57438e-05 -0.00215224
0.000703346 1.86109e-05 6.40338e-06
1.86109e-05 5.36099e-05 1.89742e-06
6.40338e-06 1.89742e-06 -6.75843e-05
0.000915506 0.000179886 -2.46265e-06
0.000179886 0.000214752 1.68211e-06
-2.46265e-06 1.68211e-06 7.45017e-05
0.00132158 0.000190688 1.46501e-07
0.000190688 0.000450883 -4.3504e-07
1.46501e-07 -4.3504e-07 0.000291263
0.00124043 0.000245908 -4.02914e-06
0.000245908 0.000336204 6.86902e-07
-4.02914e-06 6.86902e-07 0.000145079
0.00139307 0.000297041 1.40932e-05
0.000297041 0.000293399 4.55403e-07
1.40932e-05 4.55403e-07 6.90987e-05
0.000185906 0.00016016 -1.61069e-06
0.00016016 -0.000236745 -2.48048e-06
-1.61069e-06 -2.48048e-06 -0.000405658
0.000486574 0.00013186 -2.82969e-06
0.00013186 -6.82748e-06 -2.69897e-06
-2.82969e-06 -2.69897e-06 -0.000158285
0.000174794 0.000171891 7.38003e-07
0.000171891 -0.000267369 1.44377e-06
7.38003e-07 1.44377e-06 -0.000448107
0.000973472 0.000249493 4.44671e-07
0.000249493 0.000145342 7.11234e-07
4.44671e-07 7.11234e-07 2.36716e-05
0.000462333 0.000257236 5.38569e-06
0.000257236 -0.000254735 9.34598e-07
5.38569e-06 9.34598e-07 -0.000422977
0.00329999 0.000557738 -3.25688e-06
0.000557738 0.00110465 -4.41892e-06
-3.25688e-06 -4.41892e-06 0.000927695
0.0020898 0.000525566 -5.81787e-06
0.000525566 0.000361583 3.03853e-06
-5.81787e-06 3.03853e-06 0.000183387
0.00153957 0.000451404 3.5703e-06
0.000451404 0.000177571 -3.18076e-06
3.5703e-06 -3.18076e-06 -2.87001e-06
0.000379127 0.000201074 -2.07923e-06
0.000201074 -0.000117123 4.73638e-06
-2.07923e-06 4.73638e-06 -0.0002296
0.00538265 0.000570095 -2.14945e-05
0.000570095 0.000341745 9.26101e-06
-2.14945e-05 9.26101e-06 0.00049042
0.0089046 0.000531825 7.77756e-05
0.000531825 0.00181049 4.33977e-05
7.77756e-05 4.33977e-05 0.000321378
0.00540001 -0.00122018 8.35293e-05
-0.00122018 0.0030698 -5.85614e-05
8.35293e-05 -5.85614e-05 0.00242943
0.00402509 0.00119152 0.000315185
0.00119152 0.000148236 0.000135904
0.000315185 0.000135904 -0.00294651
0.00141692 0.000578525 -2.74993e-05
0.000578525 0.000181661 6.25563e-06
-2.74993e-05 6.25563e-06 0.000237515
0.00334273 0.00101499 -7.88151e-05
0.00101499 -3.01085e-05 -2.4792e-05
-7.88151e-05 -2.4792e-05 -0.000239848
0.00363998 0.000829459 4.08336e-05
0.000829459 0.00061445 2.07959e-05
4.08336e-05 2.07959e-05 0.000594386
0.00295958 0.000708256 6.42519e-06
0.000708256 0.000717483 7.62185e-06
6.42519e-06 7.62185e-06 0.000554629
0.000660161 0.0003774 -8.99431e-06
0.0003774 -4.80715e-05 1.92295e-05
-8.99431e-06 1.92295e-05 -0.000241468
0.00376847 0.000927176 -0.000117277
0.000927176 0.000688816 -2.9062e-05
-0.000117277 -2.9062e-05 0.000495447
0.00291019 -0.000214403 -7.59047e-05
-0.000214403 0.000392047 8.45129e-06
-7.59047e-05 8.45129e-06 0.000121349
0.00997809 -0.000261309 -4.86207e-06
-0.000261309 0.0027558 1.53143e-06
-4.86207e-06 1.53143e-06 0.00211447
-0.00888731 -0.000541839 0.000299705
-0.000541839 -0.00501982 -8.12664e-06
0.000299705 -8.12664e-06 -0.00467635
0.000666744 -0.000452443 -4.20967e-05
-0.000452443 -0.000529307 8.01314e-06
-4.20967e-05 8.01314e-06 -0.00058262
0.00656985 -0.000863453 0.000117789
-0.000863453 0.000964582 2.21563e-05
0.000117789 2.21563e-05 0.000640053
0.00130657 -0.000390868 1.04012e-05
-0.000390868 -0.00206774 5.82904e-05
1.04012e-05 5.82904e-05 -0.00337935
0.00145292 -0.000342761 1.85845e-05
-0.000342761 -0.000116628 4.63788e-07
1.85845e-05 4.63788e-07 -0.000267905
0.0026084 -0.000117245 -5.06125e-06
-0.000117245 -0.000376445 6.18155e-06
-5.06125e-06 6.18155e-06 -0.000487146
0.00407817 -0.00035608 2.00953e-05
-0.00035608 0.000977598 -8.51731e-06
2.00953e-05 -8.51731e-06 0.00103373
0.00352829 -9.70623e-05 7.17713e-05
-9.70623e-05 0.000822793 3.90126e-07
7.17713e-05 3.90126e-07 0.000789391
-4.36769e-05 -0.000340501 -7.75869e-06
-0.000340501 -0.000978453 7.14398e-06
-7.75869e-06 7.14398e-06 -0.000972888
0.00176216 -0.000334375 -3.76194e-07
-0.000334375 -0.000145194 4.84923e-07
-3.76194e-07 4.84923e-07 -0.000114686
0.00179817 -0.000224824 1.29367e-05
-0.000224824 -0.000167198 -1.96286e-06
1.29367e-05 -1.96286e-06 -7.75738e-05
0.00157362 -0.0003841 1.05319e-06
-0.0003841 -9.34981e-05 1.20621e-06
1.05319e-06 1.20621e-06 -0.000216664
0.00194774 -0.000312978 2.0157e-06
-0.000312978 1.19396e-05 1.01884e-06
2.0157e-06 1.01884e-06 -4.27657e-05
0.0018624 -0.00024984 1.07806e-06
-0.00024984 3.15828e-05 1.5447e-06
1.07806e-06 1.5447e-06 -7.75455e-07
0.00188322 -0.000327384 5.3206e-06
-0.000327384 8.06243e-05 3.57381e-06
5.3206e-06 3.57381e-06 -3.61936e-05
0.00184843 -0.000281189 8.48914e-07
-0.000281189 6.97373e-05 4.76853e-07
8.48914e-07 4.76853e-07 -1.34225e-05
0.00196468 -0.00025064 -1.60741e-06
-0.00025064 0.000171922 1.30756e-06
-1.60741e-06 1.30756e-06 9.34046e-05
0.00170588 -0.000269086 3.81477e-06
-0.000269086 3.92977e-05 3.84631e-06
3.81477e-06 3.84631e-06 -7.10807e-05
0.00184716 -0.00026108 1.40706e-07
-0.00026108 0.000146135 6.42528e-07
1.40706e-07 6.42528e-07 4.79846e-05
0.00168255 -0.000246316 3.68242e-06
-0.000246316 8.477e-05 -1.61424e-06
3.68242e-06 -1.61424e-06 -2.72678e-05
0.00169149 -0.000240848 -2.58784e-06
-0.000240848 7.54078e-05 7.50712e-06
-2.58784e-06 7.50712e-06 -3.15308e-05
0.00186073 -0.000253872 -2.14292e-06
-0.000253872 0.00021228 5.20572e-08
-2.14292e-06 5.20572e-08 8.67821e-05
0.00176644 -0.000246004 6.85971e-07
-0.000246004 0.000192548 -1.874e-06
6.85971e-07 -1.874e-06 4.23033e-05
0.00173636 -0.00027566 2.00138e-06
-0.00027566 0.000152232 3.46366e-06
2.00138e-06 3.46366e-06 -5.67296e-06
0.00171034 -0.000269726 6.64615e-07
-0.000269726 0.000180445 -6.64774e-07
6.64615e-07 -6.64774e-07 8.23714e-06
0.00170037 -0.000249558 -2.58334e-06
-0.000249558 0.000239525 -1.03254e-06
-2.58334e-06 -1.03254e-06 6.42189e-05
0.00099476 -0.00019917 -8.89802e-06
-0.00019917 -4.77194e-05 2.46136e-06
-8.89802e-06 2.46136e-06 -0.000223451
0.0015271 -0.00027449 -1.04514e-06
-0.00027449 0.00018352 -2.30177e-07
-1.04514e-06 -2.30177e-07 -1.38565e-05
0.00170219 -0.000314973 3.57251e-06
-0.000314973 0.000216346 6.84531e-07
3.57251e-06 6.84531e-07 1.1744e-05
0.000958522 -0.000171955 -9.67614e-06
-0.000171955 5.92983e-05 6.20883e-06
-9.67614e-06 6.20883e-06 -9.45657e-05
0.00118306 -0.000227204 -1.36044e-09
-0.000227204 0.000107075 3.06415e-07
-1.36044e-09 3.06415e-07 -8.06887e-05
0.00121847 -0.000265462 2.18083e-06
-0.000265462 6.77987e-05 -5.98074e-07
2.18083e-06 -5.98074e-07 -0.00014131
0.000439192 -9.64244e-05 -1.63188e-05
-9.64244e-05 -0.000130884 1.26413e-05
-1.63188e-05 1.26413e-05 -0.000201745
0.000860545 -0.00016119 5.24577e-07
-0.00016119 7.13717e-05 3.24362e-07
5.24577e-07 3.24362e-07 -8.43287e-05
0.00103458 -0.000216266 5.14705e-06
-0.000216266 0.000101248 -2.23005e-06
5.14705e-06 -2.23005e-06 -9.21421e-05
0.00419143 0.000169899 -0.000105966
0.000169899 0.00214477 4.03727e-06
-0.000105966 4.03727e-06 0.00213093
0.000578363 -6.85396e-05 7.40576e-07
-6.85396e-05 -3.14203e-05 -2.50976e-07
7.40576e-07 -2.50976e-07 -9.45997e-05
0.000870139 -0.000160684 5.98533e-06
-0.000160684 0.000129602 -5.36523e-06
5.98533e-06 -5.36523e-06 -2.12069e-05
0.00368821 0.0001375 7.56362e-06
0.0001375 0.00184372 3.53895e-07
7.56362e-06 3.53895e-07 0.00183841
0.0007022 -2.27053e-05 9.30693e-06
-2.27053e-05 5.89223e-05 -9.72074e-06
9.30693e-06 -9.72074e-06 6.92547e-06
0.00320181 0.000110496 9.07992e-05
0.000110496 0.00155345 -3.37733e-06
9.07992e-05 -3.37733e-06 0.00155544
0.00121296 0.000248998 -3.23832e-06
0.000248998 0.000220271 -4.11038e-06
-3.23832e-06 -4.11038e-06 1.10172e-05
0.00133164 0.000234336 6.68127e-07
0.000234336 0.000390697 3.14742e-07
6.68127e-07 3.14742e-07 0.000204124
0.00070143 0.000134571 -2.89019e-07
0.000134571 4.10415e-05 -5.33903e-06
-2.89019e-07 -5.33903e-06 -0.000116142
0.000678697 0.000156293 -1.53947e-06
0.000156293 6.01478e-05 2.00527e-07
-1.53947e-06 2.00527e-07 -7.87063e-05
0.000506796 5.65343e-05 -6.83277e-09
5.65343e-05 -4.79853e-05 -4.63417e-07
-6.83277e-09 -4.63417e-07 -0.000173411
0.000763702 7.24134e-05 -2.56377e-06
7.24134e-05 0.000106555 -3.82947e-06
-2.56377e-06 -3.82947e-06 -3.0646e-06
0.000454141 -6.83503e-06 2.6644e-07
-6.83503e-06 -7.93996e-05 1.44041e-06
2.6644e-07 1.44041e-06 -0.000188527
0.000641029 8.5963e-07 2.13003e-07
8.5963e-07 2.7697e-05 -2.59638e-07
2.13003e-07 -2.59638e-07 -6.00253e-05
0.000573959 -3.6933e-05 -2.13557e-06
-3.6933e-05 -6.78809e-06 -7.63825e-06
-2.13557e-06 -7.63825e-06 -4.48838e-05
0.000590064 -9.98602e-06 1.19323e-06
-9.98602e-06 -3.7761e-06 3.67051e-06
1.19323e-06 3.67051e-06 -8.22687e-05
0.000531902 -3.81558e-05 2.50076e-07
-3.81558e-05 -3.70626e-05 -4.67704e-08
2.50076e-07 -4.67704e-08 -7.06542e-05
0.00287129 -0.000117833 -5.62673e-05
-0.000117833 0.00135408 -2.69892e-06
-5.62673e-05 -2.69892e-06 0.00135456
0.00277187 -0.000106067 -3.63943e-06
-0.000106067 0.0012873 3.59117e-07
-3.63943e-06 3.59117e-07 0.00129025
0.00051432 -2.86337e-05 2.20816e-06
-2.86337e-05 -5.53156e-05 6.15031e-06
2.20816e-06 6.15031e-06 -8.45442e-05
0.00265543 -9.22156e-05 3.62491e-05
-9.22156e-05 0.00121097 3.955e-06
3.62491e-05 3.955e-06 0.00121689
0.00302095 4.45562e-06 9.83266e-06
4.45562e-06 -0.000334547 1.24177e-05
9.83266e-06 1.24177e-05 -0.000270003
0.00262764 -0.000553013 5.56412e-05
-0.000553013 -0.00189461 2.5306e-05
5.56412e-05 2.5306e-05 -0.00297126
0.00680481 -0.000810306 -6.40706e-05
-0.000810306 0.00257974 -5.90411e-05
-6.40706e-05 -5.90411e-05 0.00287956
0.00134739 0.000306225 6.25763e-06
0.000306225 0.000131209 4.05117e-06
6.25763e-06 4.05117e-06 -9.21897e-05
0.00146181 0.000215006 2.31901e-06
0.000215006 0.000527973 1.45922e-06
2.31901e-06 1.45922e-06 0.00036525
0.00103534 0.000226016 -5.4203e-06
0.000226016 0.000226471 5.70305e-06
-5.4203e-06 5.70305e-06 3.96683e-05
0.000735999 0.000214551 1.31174e-06
0.000214551 6.98213e-05 2.14979e-06
1.31174e-06 2.14979e-06 -0.000111902
0.00124448 0.000286076 -3.12392e-07
0.000286076 0.000213203 -1.98204e-06
-3.12392e-07 -1.98204e-06 -1.16057e-05
0.000627033 0.000264021 3.99599e-06
0.000264021 -0.00017723 2.27464e-06
3.99599e-06 2.27464e-06 -0.000361976
0.00107758 0.000261936 -3.65424e-06
0.000261936 0.000230934 -2.68986e-06
-3.65424e-06 -2.68986e-06 2.58808e-05
0.000612093 0.000231896 2.88797e-06
0.000231896 -4.0275e-05 3.83168e-06
2.88797e-06 3.83168e-06 -0.000164549
0.00135078 0.000337761 2.81482e-06
0.000337761 0.000232465 -4.76768e-07
2.81482e-06 -4.76768e-07 5.22443e-05
0.00228209 0.000474811 2.97448e-06
0.000474811 0.000552534 6.83708e-06
2.97448e-06 6.83708e-06 0.000388226
0.0016689 0.000457114 4.92551e-07
0.000457114 0.000119599 -5.04364e-07
4.92551e-07 -5.04364e-07 -6.44129e-05
0.00160592 0.000425656 3.58063e-06
0.000425656 9.98246e-05 8.96274e-06
3.58063e-06 8.96274e-06 -2.51322e-05
0.00117284 0.000456828 -2.51598e-06
0.000456828 -0.000126309 -3.09537e-06
-2.51598e-06 -3.09537e-06 -0.000297401
0.00060139 0.000367894 2.41548e-07
0.000367894 -0.000306613 3.00019e-06
2.41548e-07 3.00019e-06 -0.000464545
0.00127935 0.000326301 2.40289e-05
0.000326301 -0.000260353 2.76194e-05
2.40289e-05 2.76194e-05 -0.000222932
0.00510916 0.000685438 -4.49153e-05
0.000685438 3.79473e-05 -1.17296e-05
-4.49153e-05 -1.17296e-05 9.25227e-05
0.00199424 0.000302784 0.000248841
0.000302784 -0.00175464 2.80219e-05
0.000248841 2.80219e-05 -0.00337749
0.000675833 0.000763993 -2.64329e-06
0.000763993 -0.00112584 -1.79563e-05
-2.64329e-06 -1.79563e-05 -0.00134297
0.00243261 0.000662854 -2.52809e-05
0.000662854 0.00026973 -2.3327e-06
-2.52809e-05 -2.3327e-06 0.000225053
0.00218713 0.000626851 -5.49357e-05
0.000626851 0.000343546 -2.10137e-05
-5.49357e-05 -2.10137e-05 0.000179814
0.00235582 -0.000177356 3.11868e-07
-0.000177356 0.00011143 -2.32722e-06
3.11868e-07 -2.32722e-06 7.68414e-05
0.00110209 -3.63565e-05 3.11512e-06
-3.63565e-05 -0.000248704 5.52377e-06
3.11512e-06 5.52377e-06 -0.000426682
0.000977839 0.000648759 8.60332e-05
0.000648759 -0.00281693 -2.49064e-05
8.60332e-05 -2.49064e-05 -0.00340061
-7.33709e-05 -0.000228499 -1.52001e-05
-0.000228499 -0.000940958 2.71096e-05
-1.52001e-05 2.71096e-05 -0.000941864
0.00325647 -0.0001082 -2.90145e-05
-0.0001082 -0.000139384 3.52236e-05
-2.90145e-05 3.52236e-05 -0.000449277
0.00213418 -0.000254874 -1.30323e-05
-0.000254874 -8.59511e-06 4.73316e-06
-1.30323e-05 4.73316e-06 7.15548e-05
0.00293573 -0.000123097 -4.70062e-06
-0.000123097 0.000473081 -2.91936e-06
-4.70062e-06 -2.91936e-06 0.000427333
0.00156309 -0.000146385 2.83688e-05
-0.000146385 -0.000304381 -9.63756e-07
2.83688e-05 -9.63756e-07 -0.000199087
0.00304458 -5.74897e-05 2.35178e-05
-5.74897e-05 0.000861647 1.3663e-06
2.35178e-05 1.3663e-06 0.000820771
0.00121366 -0.000312027 -1.51892e-05
-0.000312027 -0.000435471 7.50371e-06
-1.51892e-05 7.50371e-06 -0.000402777
0.00175547 -0.000234478 8.18118e-07
-0.000234478 -0.000208133 2.15668e-06
8.18118e-07 2.15668e-06 -0.000129899
0.00193123 -0.000236329 1.7358e-06
-0.000236329 -3.21106e-05 3.5845e-07
1.7358e-06 3.5845e-07 9.48625e-06
0.00183096 -0.000307791 1.8595e-06
-0.000307791 -4.50325e-05 1.55381e-06
1.8595e-06 1.55381e-06 -0.000100663
0.00186927 -0.000258793 4.08395e-07
-0.000258793 3.21253e-05 1.13888e-07
4.08395e-07 1.13888e-07 -6.01738e-06
0.00191698 -0.000237442 -8.50921e-07
-0.000237442 9.9319e-05 1.0271e-06
-8.50921e-07 1.0271e-06 4.05793e-05
0.00192241 -0.00028317 1.24724e-06
-0.00028317 0.000118418 6.30152e-07
1.24724e-06 6.30152e-07 3.48177e-05
0.00185258 -0.000253102 -6.38338e-07
-0.000253102 0.000110955 3.83328e-08
-6.38338e-07 3.83328e-08 2.94255e-05
0.00171263 -0.000223654 9.90698e-07
-0.000223654 7.55996e-05 2.7045e-07
9.90698e-07 2.7045e-07 -2.21597e-05
0.00163503 -0.000252724 -6.11805e-07
-0.000252724 2.9797e-05 1.59323e-06
-6.11805e-07 1.59323e-06 -6.88625e-05
0.00170856 -0.000247513 6.51376e-07
-0.000247513 0.000101632 -6.92325e-07
6.51376e-07 -6.92325e-07 -1.06538e-05
0.00170579 -0.000233153 1.99013e-06
-0.000233153 0.00012233 -1.8675e-06
1.99013e-06 -1.8675e-06 -1.14651e-05
0.0018872 -0.000251826 -5.04664e-06
-0.000251826 0.000226034 4.80073e-06
-5.04664e-06 4.80073e-06 0.000104179
0.00182375 -0.000247211 -1.13264e-06
-0.000247211 0.000223177 2.28732e-07
-1.13264e-06 2.28732e-07 7.60541e-05
0.00161369 -0.000220267 -1.79241e-06
-0.000220267 0.000162881 -6.40349e-07
-1.79241e-06 -6.40349e-07 3.55491e-07
0.00174967 -0.000272509 2.61034e-06
-0.000272509 0.000204827 1.427e-06
2.61034e-06 1.427e-06 3.15784e-05
0.0016425 -0.000247688 9.97592e-07
-0.000247688 0.000206221 -6.36103e-07
9.97592e-07 -6.36103e-07 2.99883e-05
0.00126649 -0.000193103 -7.17419e-06
-0.000193103 7.86525e-05 2.23413e-06
-7.17419e-06 2.23413e-06 -8.76742e-05
0.000971588 -0.000165832 -1.14254e-05
-0.000165832 2.51582e-05 5.5622e-06
-1.14254e-05 5.5622e-06 -0.000120228
0.00114396 -0.000209138 -2.09365e-06
-0.000209138 3.92051e-05 4.46586e-07
-2.09365e-06 4.46586e-07 -0.000137473
0.00155089 -0.000277293 3.41449e-06
-0.000277293 0.000201365 -5.45483e-07
3.41449e-06 -5.45483e-07 3.13879e-06
0.000539268 -0.000163794 -2.07191e-05
-0.000163794 -8.60776e-05 1.36207e-05
-2.07191e-05 1.36207e-05 -0.000172188
0.000894821 -0.000168818 6.00007e-07
-0.000168818 2.47749e-05 4.15939e-07
6.00007e-07 4.15939e-07 -0.00012889
0.00120865 -0.000228139 7.0301e-06
-0.000228139 0.000120189 -2.08679e-06
7.0301e-06 -2.08679e-06 -6.75625e-05
0.00474473 0.000191011 -0.000123916
0.000191011 0.00247845 7.33681e-06
-0.000123916 7.33681e-06 0.00245608
0.000591802 -0.000132212 -2.17408e-07
-0.000132212 -3.89084e-05 3.31625e-08
-2.17408e-07 3.31625e-08 -0.000117704
0.000862529 -0.000167713 7.96294e-06
-0.000167713 7.39353e-05 -5.83334e-06
7.96294e-06 -5.83334e-06 -8.31199e-05
0.00435065 0.00014688 7.36698e-06
0.00014688 0.00223355 8.38655e-07
7.36698e-06 8.38655e-07 0.00222348
0.000731731 -8.75353e-05 1.48733e-05
-8.75353e-05 5.65586e-05 -1.19499e-05
1.48733e-05 -1.19499e-05 -1.02083e-05
0.00388256 0.000109776 0.000122811
0.000109776 0.00195121 -6.14737e-06
0.000122811 -6.14737e-06 0.00195081
0.0011191 0.000254842 -4.24921e-06
0.000254842 5.10552e-05 -7.03757e-07
-4.24921e-06 -7.03757e-07 -0.000157222
0.0011688 0.000243914 -1.37129e-06
0.000243914 0.000199215 -4.5328e-07
-1.37129e-06 -4.5328e-07 -9.27355e-06
0.00104602 0.000203532 -2.6548e-06
0.000203532 0.000180866 -2.69768e-06
-2.6548e-06 -2.69768e-06 -5.89806e-06
0.00163028 0.000260319 -2.2273e-06
0.000260319 0.000568723 2.99261e-06
-2.2273e-06 2.99261e-06 0.000377743
0.000861552 0.000148935 -1.15614e-06
0.000148935 0.000134871 -1.96696e-06
-1.15614e-06 -1.96696e-06 -2.40252e-05
0.00088034 0.00011998 -3.64093e-06
0.00011998 0.000169628 -4.8159e-06
-3.64093e-06 -4.8159e-06 3.982e-05
0.000547948 7.44069e-05 -2.40551e-07
7.44069e-05 -2.56753e-05 2.51658e-07
-2.40551e-07 2.51658e-07 -0.000154599
0.000661362 2.69187e-05 -6.13488e-07
2.69187e-05 3.99783e-05 -1.3292e-07
-6.13488e-07 -1.3292e-07 -6.0936e-05
0.000585408 -2.19363e-05 -4.25884e-06
-2.19363e-05 3.8843e-07 -8.41716e-06
-4.25884e-06 -8.41716e-06 -4.32332e-05
0.000573196 -1.50017e-05 1.05119e-06
-1.50017e-05 -1.06482e-05 3.96055e-06
1.05119e-06 3.96055e-06 -9.72519e-05
0.000519857 -4.0537e-05 3.93879e-07
-4.0537e-05 -3.70739e-05 -1.5668e-07
3.93879e-07 -1.5668e-07 -7.53355e-05
0.0030187 -0.000126506 -6.93533e-05
-0.000126506 0.00144763 -2.19013e-06
-6.93533e-05 -2.19013e-06 0.00144603
0.000499202 -3.61818e-05 2.14797e-06
-3.61818e-05 -5.65829e-05 6.73698e-06
2.14797e-06 6.73698e-06 -8.96613e-05
0.00284892 -0.000118965 -2.81289e-06
-0.000118965 0.00134065 3.30765e-07
-2.81289e-06 3.30765e-07 0.00134062
0.00276838 -0.000105781 4.40971e-05
-0.000105781 0.00128485 3.56225e-06
4.40971e-05 3.56225e-06 0.00128772
0.000330027 4.76948e-05 1.50689e-05
4.76948e-05 -0.000873552 8.35092e-06
1.50689e-05 8.35092e-06 -0.000828923
0.00443845 1.95331e-05 5.02634e-05
1.95331e-05 0.000283592 2.30667e-06
5.02634e-05 2.30667e-06 0.000229191
0.0100858 0.000579795 -8.0918e-05
0.000579795 0.00287019 -2.89198e-05
-8.0918e-05 -2.89198e-05 0.00176429
0.000490129 0.000239803 1.84392e-06
0.000239803 -0.000380139 2.16619e-06
1.84392e-06 2.16619e-06 -0.000570442
0.00171146 0.000341061 1.88955e-06
0.000341061 0.000241539 2.90595e-06
1.88955e-06 2.90595e-06 4.07534e-05
0.001167 0.000298664 -9.72289e-07
0.000298664 2.84055e-05 -1.26294e-07
-9.72289e-07 -1.26294e-07 -0.000193773
0.00121504 0.000262171 -1.89657e-06
0.000262171 0.000335029 1.35314e-06
-1.89657e-06 1.35314e-06 0.000141807
0.00105701 0.000270854 -1.52286e-06
0.000270854 0.000110377 -8.14781e-07
-1.52286e-06 -8.14781e-07 -0.000114246
0.00139233 0.000335113 8.30808e-06
0.000335113 0.0002364 1.0637e-06
8.30808e-06 1.0637e-06 3.94809e-05
0.00199049 0.000447558 -4.52541e-06
0.000447558 0.000289688 -2.50713e-06
-4.52541e-06 -2.50713e-06 9.80402e-05
0.00222508 0.000417268 -3.87821e-06
0.000417268 0.000711582 8.94349e-07
-3.87821e-06 8.94349e-07 0.000519503
0.00127865 0.00039372 1.06735e-05
0.00039372 5.5649e-06 1.87731e-05
1.06735e-05 1.87731e-05 -0.000146734
0.00214082 0.000488363 -2.84029e-06
0.000488363 0.000380399 3.18804e-07
-2.84029e-06 3.18804e-07 0.000195518
0.00198497 0.000437068 -1.23526e-05
0.000437068 0.000194689 1.61663e-06
-1.23526e-05 1.61663e-06 3.8485e-05
0.000704855 0.000212716 1.38005e-05
0.000212716 -0.000470881 6.63925e-06
1.38005e-05 6.63925e-06 -0.000514149
0.00112003 0.000389253 9.60077e-06
0.000389253 -0.000147614 5.94562e-08
9.60077e-06 5.94562e-08 -0.000271029
0.00112123 0.000446575 -7.24697e-06
0.000446575 -0.000161658 -7.25329e-06
-7.24697e-06 -7.25329e-06 -0.000332375
0.00168685 0.000332228 3.10222e-06
0.000332228 -5.38067e-05 5.63168e-06
3.10222e-06 5.63168e-06 -4.8675e-05
0.00522052 0.000452675 3.16448e-05
0.000452675 8.1606e-05 -1.60011e-05
3.16448e-05 -1.60011e-05 -7.71278e-05
0.00255426 0.000584906 1.12602e-05
0.000584906 0.000578378 -2.5572e-05
1.12602e-05 -2.5572e-05 0.000536911
0.0015078 -4.04132e-05 2.3763e-05
-4.04132e-05 1.82789e-05 -1.14799e-06
2.3763e-05 -1.14799e-06 7.08467e-06
0.00213263 -0.000113703 -2.34056e-05
-0.000113703 4.11932e-05 -4.60019e-07
-2.34056e-05 -4.60019e-07 6.71751e-06
0.00139695 0.000163041 2.85182e-05
0.000163041 -0.000629745 -5.6101e-06
2.85182e-05 -5.6101e-06 -0.000850533
0.000340678 -0.000182092 -2.84819e-05
-0.000182092 -0.000929375 2.20205e-05
-2.84819e-05 2.20205e-05 -0.000837835
0.00314376 -0.00018335 -9.02426e-05
-0.00018335 0.000534731 -3.9676e-07
-9.02426e-05 -3.9676e-07 0.000512362
0.00189786 -0.000176902 2.71029e-06
-0.000176902 -8.36871e-05 -2.36047e-06
2.71029e-06 -2.36047e-06 1.40158e-05
0.00229227 -6.79564e-05 -8.93149e-06
-6.79564e-05 0.000381166 2.79108e-07
-8.93149e-06 2.79108e-07 0.000342685
0.00199885 -0.000174888 2.28931e-06
-0.000174888 5.81594e-06 1.39187e-06
2.28931e-06 1.39187e-06 1.76016e-05
0.00213893 -2.74992e-05 4.21891e-06
-2.74992e-05 0.000135082 9.79291e-08
4.21891e-06 9.79291e-08 0.00011222
0.00173833 -0.000246854 -6.4636e-06
-0.000246854 -0.00024238 2.51963e-06
-6.4636e-06 2.51963e-06 -0.000172393
0.00194623 -0.000232244 -1.84161e-06
-0.000232244 -1.46831e-05 -2.76221e-08
-1.84161e-06 -2.76221e-08 1.90373e-05
0.00195114 -0.00019073 -2.35627e-06
-0.00019073 2.96088e-05 2.49891e-07
-2.35627e-06 2.49891e-07 3.67967e-06
0.00187534 -0.000266863 -1.62003e-06
-0.000266863 3.199e-05 -9.70666e-07
-1.62003e-06 -9.70666e-07 -1.12926e-05
0.0018159 -0.00023204 2.04978e-07
-0.00023204 4.94217e-05 -2.22833e-07
2.04978e-07 -2.22833e-07 -1.40029e-05
0.0018953 -0.00020614 -4.5143e-07
-0.00020614 0.000122234 3.4337e-07
-4.5143e-07 3.4337e-07 3.96644e-05
0.00174308 -0.000255489 -1.9517e-06
-0.000255489 5.1522e-05 -8.34892e-07
-1.9517e-06 -8.34892e-07 -3.27116e-05
0.00175095 -0.000224712 3.377e-07
-0.000224712 9.5336e-05 -9.67022e-08
3.377e-07 -9.67022e-08 -2.53497e-06
0.00174135 -0.000210666 1.71001e-06
-0.000210666 0.000104924 -9.0141e-07
1.71001e-06 -9.0141e-07 -1.38767e-05
0.00173912 -0.000248922 -1.99175e-06
-0.000248922 0.000121127 1.97622e-07
-1.99175e-06 1.97622e-07 8.59244e-06
0.00173223 -0.000233619 -5.15283e-08
-0.000233619 0.000138585 -3.0645e-07
-5.15283e-08 -3.0645e-07 4.86806e-06
0.00159841 -0.000203691 -6.86758e-07
-0.000203691 0.00012665 -5.80214e-07
-6.86758e-07 -5.80214e-07 -2.64775e-05
0.00188219 -0.000248532 -1.69995e-06
-0.000248532 0.000254447 3.12384e-06
-1.69995e-06 3.12384e-06 0.000110431
0.00162051 -0.000221084 -5.77325e-07
-0.000221084 0.000167095 -1.31222e-07
-5.77325e-07 -1.31222e-07 5.49476e-06
0.00127422 -0.000173111 -6.51104e-06
-0.000173111 6.39516e-05 1.95706e-06
-6.51104e-06 1.95706e-06 -9.55451e-05
0.00158878 -0.000245979 4.54682e-06
-0.000245979 0.000175126 -1.7267e-07
4.54682e-06 -1.7267e-07 -2.04664e-06
0.00123027 -0.000192019 -9.20972e-08
-0.000192019 5.71658e-05 -2.9175e-08
-9.20972e-08 -2.9175e-08 -0.000109385
0.000994258 -0.000150055 -1.23157e-05
-0.000150055 1.76449e-05 5.93204e-06
-1.23157e-05 5.93204e-06 -0.000120652
0.000464132 -0.000158372 -1.98212e-05
-0.000158372 -0.000139844 1.28567e-05
-1.98212e-05 1.28567e-05 -0.000228687
0.000944349 -0.000163451 1.48845e-07
-0.000163451 1.00192e-05 -9.82298e-08
1.48845e-07 -9.82298e-08 -0.000135197
0.00129996 -0.000219587 5.38439e-06
-0.000219587 0.00013006 -1.84785e-06
5.38439e-06 -1.84785e-06 -4.76343e-05
0.00522159 0.000147186 -0.00015103
0.000147186 0.00274084 8.25127e-06
-0.00015103 8.25127e-06 0.00272653
0.000574528 -0.000156132 -2.04222e-06
-0.000156132 -6.95332e-05 5.49445e-07
-2.04222e-06 5.49445e-07 -0.000154498
0.000846869 -0.000168008 9.90164e-06
-0.000168008 4.17231e-07 -5.26756e-06
9.90164e-06 -5.26756e-06 -0.000153434
0.00492632 0.000157706 9.52741e-06
0.000157706 0.00257513 1.06435e-06
9.52741e-06 1.06435e-06 0.00255879
0.00072251 -0.00013616 1.93998e-05
-0.00013616 3.20728e-05 -1.32717e-05
1.93998e-05 -1.32717e-05 -4.76709e-05
0.00452736 0.000122206 0.000144007
0.000122206 0.00233045 -8.21443e-06
0.000144007 -8.21443e-06 0.00232418
0.00143851 0.000280652 -3.49074e-06
0.000280652 0.000180902 8.79047e-07
-3.49074e-06 8.79047e-07 -2.02679e-05
0.00112539 0.000254833 1.71538e-07
0.000254833 5.2207e-05 6.49336e-07
1.71538e-07 6.49336e-07 -0.000156213
0.00103895 0.000212418 -6.16941e-06
0.000212418 7.65487e-05 -1.49056e-06
-6.16941e-06 -1.49056e-06 -0.000113354
0.00112558 0.000239201 -4.95899e-07
0.000239201 0.000178564 2.49426e-06
-4.95899e-07 2.49426e-06 -2.9176e-05
0.00102819 0.000200979 -1.48035e-06
0.000200979 0.00017326 4.08435e-07
-1.48035e-06 4.08435e-07 -1.33601e-05
0.000909154 0.000158707 -5.8078e-06
0.000158707 0.000155643 -5.47437e-06
-5.8078e-06 -5.47437e-06 5.12308e-06
0.000981737 0.000159532 -4.93603e-07
0.000159532 0.000205386 6.60514e-07
-4.93603e-07 6.60514e-07 4.53625e-05
0.000736509 9.40616e-05 -2.1639e-07
9.40616e-05 8.80809e-05 -2.86841e-07
-2.1639e-07 -2.86841e-07 -3.83993e-05
0.00068586 2.45626e-05 -9.14225e-06
2.45626e-05 5.17502e-05 -1.02921e-05
-9.14225e-06 -1.02921e-05 -2.81133e-06
0.000599308 -4.97058e-06 1.00318e-06
-4.97058e-06 3.67505e-06 3.87961e-06
1.00318e-06 3.87961e-06 -9.38394e-05
0.000512244 -3.01428e-05 -9.08407e-08
-3.01428e-05 -3.99009e-05 -2.54522e-07
-9.08407e-08 -2.54522e-07 -8.36893e-05
0.00330103 -0.000128681 -9.06967e-05
-0.000128681 0.00161858 -2.45873e-06
-9.06967e-05 -2.45873e-06 0.00161587
0.000476065 -4.15876e-05 1.88733e-06
-4.15876e-05 -6.21001e-05 7.39614e-06
1.88733e-06 7.39614e-06 -0.000100174
0.00297227 -0.000131685 -2.7051e-06
-0.000131685 0.00142106 3.23958e-07
-2.7051e-06 3.23958e-07 0.00141786
0.00283839 -0.000118861 5.05054e-05
-0.000118861 0.00133405 3.06417e-06
5.05054e-05 3.06417e-06 0.00133388
0.000648754 5.26905e-05 1.58147e-05
5.26905e-05 -0.000507943 -4.81542e-06
1.58147e-05 -4.81542e-06 -0.000485425
0.00192459 1.47791e-05 -6.59266e-06
1.47791e-05 -0.000197723 -7.86856e-07
-6.59266e-06 -7.86856e-07 -0.000145368
0.00421268 2.33224e-05 0.000132907
2.33224e-05 -0.000148425 3.32267e-05
0.000132907 3.32267e-05 0.000139277
0.00205156 0.000396237 -1.56055e-06
0.000396237 0.000348125 1.64446e-06
-1.56055e-06 1.64446e-06 0.000156776
0.00101601 0.000305345 1.49379e-06
0.000305345 -9.25695e-05 -1.5022e-06
1.49379e-06 -1.5022e-06 -0.000293806
0.00193212 0.000335004 -1.35591e-07
0.000335004 0.000250832 3.17386e-06
-1.35591e-07 3.17386e-06 7.63527e-05
0.00172636 0.000341532 8.71358e-07
0.000341532 0.000249772 2.68207e-07
8.71358e-07 2.68207e-07 4.94364e-05
0.00101003 0.000294052 6.84325e-07
0.000294052 -6.31707e-05 -3.01132e-06
6.84325e-07 -3.01132e-06 -0.000284554
0.00185594 0.000362899 -2.92225e-06
0.000362899 0.000107553 1.55607e-06
-2.92225e-06 1.55607e-06 -4.82271e-05
0.00216902 0.000407783 -4.04917e-06
0.000407783 0.000657094 -8.08225e-07
-4.04917e-06 -8.08225e-07 0.00044766
0.00205086 0.00044606 -3.28581e-09
0.00044606 0.000331668 -9.02446e-07
-3.28581e-09 -9.02446e-07 0.000138799
0.00180458 0.000256724 -6.97558e-06
0.000256724 3.20735e-06 -7.01001e-08
-6.97558e-06 -7.01001e-08 -9.60242e-05
0.00261713 0.000521023 4.74713e-06
0.000521023 0.000643857 3.41989e-06
4.74713e-06 3.41989e-06 0.000457918
0.0019346 0.000435566 -1.54931e-06
0.000435566 0.000159907 2.17051e-07
-1.54931e-06 2.17051e-07 1.77966e-06
0.000873583 0.000225692 3.23606e-06
0.000225692 -0.000344954 2.62176e-06
3.23606e-06 2.62176e-06 -0.000398146
-0.000157313 0.000304625 3.30217e-07
0.000304625 -0.000804735 -4.02966e-06
3.30217e-07 -4.02966e-06 -0.00092242
0.00178641 0.000335557 -4.48408e-05
0.000335557 -1.8186e-05 -2.15442e-05
-4.48408e-05 -2.15442e-05 -3.29113e-05
0.00179838 3.54647e-05 1.34178e-06
3.54647e-05 -5.94189e-05 -1.94846e-06
1.34178e-06 -1.94846e-06 -8.31197e-05
0.00211334 -2.97768e-05 5.52515e-07
-2.97768e-05 0.000382725 2.8566e-06
5.52515e-07 2.8566e-06 0.000376274
0.00149273 -2.76284e-05 -5.8963e-05
-2.76284e-05 -0.000221639 -6.62671e-06
-5.8963e-05 -6.62671e-06 -0.000321834
0.00222127 -0.000205269 -2.98759e-05
-0.000205269 0.00012809 1.34718e-06
-2.98759e-05 1.34718e-06 0.000214947
0.00130752 -7.19566e-05 -7.34078e-06
-7.19566e-05 -0.000228331 1.33799e-07
-7.34078e-06 1.33799e-07 -0.000262655
0.0019337 -0.00016785 2.72154e-07
-0.00016785 -3.06769e-05 -5.19237e-07
2.72154e-07 -5.19237e-07 -1.13086e-05
0.00203993 -2.8225e-05 -3.589e-06
-2.8225e-05 5.60968e-05 8.45157e-07
-3.589e-06 8.45157e-07 3.91965e-05
0.00204998 -6.14578e-05 -5.26367e-06
-6.14578e-05 5.42718e-05 -4.8663e-07
-5.26367e-06 -4.8663e-07 4.06126e-05
0.00195503 -0.000227192 -3.56124e-06
-0.000227192 2.13765e-06 -6.0869e-07
-3.56124e-06 -6.0869e-07 2.73965e-05
0.00193161 -0.000182564 4.62902e-07
-0.000182564 2.95211e-05 -1.89379e-07
4.62902e-07 -1.89379e-07 1.52343e-06
0.00200838 -0.000149736 -7.91655e-07
-0.000149736 0.000108319 -2.81069e-07
-7.91655e-07 -2.81069e-07 5.91546e-05
0.0017327 -0.000227666 2.72305e-07
-0.000227666 9.35108e-06 -1.25826e-06
2.72305e-07 -1.25826e-06 -5.8817e-05
0.00180264 -0.000202238 -1.43913e-08
-0.000202238 7.19161e-05 -8.75912e-08
-1.43913e-08 -8.75912e-08 -1.17086e-05
0.00175679 -0.000171417 1.09913e-06
-0.000171417 7.54407e-05 -3.85046e-07
1.09913e-06 -3.85046e-07 -2.92222e-05
0.0017879 -0.000225696 -2.38141e-07
-0.000225696 0.000113641 -3.66531e-07
-2.38141e-07 -3.66531e-07 1.56683e-05
0.00176877 -0.000210587 2.41597e-08
-0.000210587 0.00012231 -1.80843e-07
2.41597e-08 -1.80843e-07 3.59058e-06
0.0016556 -0.000184231 3.36427e-07
-0.000184231 0.000123723 -6.08527e-07
3.36427e-07 -6.08527e-07 -1.86533e-05
0.0017583 -0.000234132 -1.48735e-06
-0.000234132 0.00015446 1.10536e-06
-1.48735e-06 1.10536e-06 2.08079e-05
0.00161318 -0.000204005 -2.36121e-07
-0.000204005 0.000134774 -1.25741e-08
-2.36121e-07 -1.25741e-08 -1.80246e-05
0.00132318 -0.000156799 -5.32396e-06
-0.000156799 7.37493e-05 1.67147e-06
-5.32396e-06 1.67147e-06 -8.09574e-05
0.00162352 -0.000221635 1.39052e-06
-0.000221635 0.000169003 6.13886e-07
1.39052e-06 6.13886e-07 8.36829e-06
0.00131167 -0.000174936 -2.32606e-07
-0.000174936 8.39453e-05 5.3556e-08
-2.32606e-07 5.3556e-08 -7.54271e-05
0.00101873 -0.000133595 -1.30393e-05
-0.000133595 1.67238e-05 5.44184e-06
-1.30393e-05 5.44184e-06 -0.00011749
0.00119487 -0.000191047 6.50008e-06
-0.000191047 3.62329e-05 -1.84391e-06
6.50008e-06 -1.84391e-06 -0.00013056
0.000989172 -0.000148338 2.64729e-07
-0.000148338 1.42316e-05 6.27018e-08
2.64729e-07 6.27018e-08 -0.000123744
0.00237011 -9.96193e-05 -2.59459e-05
-9.96193e-05 0.000972414 8.02087e-06
-2.59459e-05 8.02087e-06 0.000897983
0.0016593 -4.05084e-05 -0.000169914
-4.05084e-05 0.000618086 1.78232e-05
-0.000169914 1.78232e-05 0.000600129
0.00151703 -0.000136578 -4.06416e-06
-0.000136578 0.00047487 -3.08761e-07
-4.06416e-06 -3.08761e-07 0.000391048
0.000923904 -0.000161621 1.11663e-05
-0.000161621 -1.04219e-06 -5.61743e-06
1.11663e-05 -5.61743e-06 -0.000146193
0.00533892 0.000120852 -2.62165e-06
0.000120852 0.00281052 -4.79676e-07
-2.62165e-06 -4.79676e-07 0.00279624
0.000639387 -0.000175111 2.14958e-05
-0.000175111 -3.07311e-05 -1.32832e-05
2.14958e-05 -1.32832e-05 -0.000119684
0.00508592 0.000126428 0.000161554
0.000126428 0.00266589 -1.20561e-05
0.000161554 -1.20561e-05 0.00265144
0.00189685 0.000268901 1.16718e-06
0.000268901 0.000197185 6.15674e-07
1.16718e-06 6.15674e-07 4.38793e-05
0.00158266 0.00028387 8.09544e-07
0.00028387 0.000168298 2.4798e-06
8.09544e-07 2.4798e-06 -1.6706e-05
0.00154433 0.000293188 -2.63847e-07
0.000293188 0.000237566 -1.98593e-07
-2.63847e-07 -1.98593e-07 3.51405e-05
0.00121893 0.000225518 -6.8709e-06
0.000225518 0.000100423 -1.72994e-06
-6.8709e-06 -1.72994e-06 -8.2121e-05
0.00114495 0.00025589 4.58597e-06
0.00025589 6.23151e-05 9.26302e-07
4.58597e-06 9.26302e-07 -0.000146514
0.00111508 0.000218247 -6.89579e-07
0.000218247 0.000121787 6.3478e-07
-6.89579e-07 6.3478e-07 -6.91568e-05
0.000852611 0.000166499 -8.63808e-06
0.000166499 5.05494e-05 -4.76517e-06
-8.63808e-06 -4.76517e-06 -0.000105481
0.00104201 0.000200923 1.52264e-06
0.000200923 0.00018427 4.40053e-06
1.52264e-06 4.40053e-06 -2.62503e-06
0.000802243 0.000143904 -2.83405e-07
0.000143904 9.46751e-05 1.49836e-07
-2.83405e-07 1.49836e-07 -5.34485e-05
0.000779722 0.000101263 -1.53263e-05
0.000101263 9.18988e-05 -1.26066e-05
-1.53263e-05 -1.26066e-05 1.97643e-05
0.00062613 6.79893e-05 1.75372e-06
6.79893e-05 2.1682e-05 3.6068e-06
1.75372e-06 3.6068e-06 -9.89159e-05
0.000530279 1.23139e-05 -8.05777e-07
1.23139e-05 -3.60535e-05 -4.95214e-07
-8.05777e-07 -4.95214e-07 -8.84814e-05
0.00377175 -0.000123529 -0.000119365
-0.000123529 0.0018988 -4.72823e-06
-0.000119365 -4.72823e-06 0.00189427
0.000429533 -3.81796e-05 1.81926e-06
-3.81796e-05 -8.4788e-05 8.33805e-06
1.81926e-06 8.33805e-06 -0.00012925
0.00319613 -0.000143439 -3.68014e-06
-0.000143439 0.00155962 3.5223e-07
-3.68014e-06 3.5223e-07 0.00155318
0.00293171 -0.000132516 5.67249e-05
-0.000132516 0.00139719 2.45779e-06
5.67249e-05 2.45779e-06 0.00139359
0.00181642 0.00014143 -1.06206e-06
0.00014143 -4.26146e-05 -9.19853e-07
-1.06206e-06 -9.19853e-07 -9.6512e-05
0.00194603 4.37824e-05 1.46742e-05
4.37824e-05 0.000175895 2.21221e-06
1.46742e-05 2.21221e-06 0.000188156
0.00408613 -6.81175e-06 -8.91171e-05
-6.81175e-06 0.000757955 -1.36062e-05
-8.91171e-05 -1.36062e-05 0.000828594
0.00174103 0.000313965 -2.55343e-06
0.000313965 6.11026e-05 1.31608e-06
-2.55343e-06 1.31608e-06 -9.01626e-05
0.00175356 0.000372379 -6.2675e-07
0.000372379 0.000193441 -1.14824e-07
-6.2675e-07 -1.14824e-07 3.78933e-06
0.00152119 0.000368244 -1.77954e-05
0.000368244 0.00018472 -6.99263e-06
-1.77954e-05 -6.99263e-06 -2.67423e-05
0.00195312 0.00032541 2.44914e-06
0.00032541 0.00026964 7.7704e-07
2.44914e-06 7.7704e-07 9.71658e-05
0.00173664 0.000341465 -1.50229e-06
0.000341465 0.000256317 -2.2681e-06
-1.50229e-06 -2.2681e-06 5.64781e-05
0.00215887 0.000254035 1.06325e-06
0.000254035 0.000219187 1.1959e-06
1.06325e-06 1.1959e-06 0.000119916
0.00171715 0.000356505 -1.45266e-06
0.000356505 4.11146e-05 7.96839e-07
-1.45266e-06 7.96839e-07 -0.000115636
0.002136 0.000446512 5.30465e-07
0.000446512 0.000386563 -3.19308e-07
5.30465e-07 -3.19308e-07 0.000192145
0.00179591 0.000261004 -9.65854e-07
0.000261004 5.24957e-06 1.41411e-07
-9.65854e-07 1.41411e-07 -9.59558e-05
0.00203434 0.000444359 1.81401e-05
0.000444359 0.000196691 1.41021e-06
1.81401e-05 1.41021e-06 3.56262e-05
0.00138175 0.000244057 -2.17661e-05
0.000244057 -4.83029e-05 -4.21175e-06
-2.17661e-05 -4.21175e-06 -0.000110897
0.00199933 4.67642e-05 -5.12325e-06
4.67642e-05 5.21189e-05 -5.27578e-07
-5.12325e-06 -5.27578e-07 2.00847e-05
0.001901 4.72347e-05 -2.50307e-06
4.72347e-05 4.17779e-06 3.88699e-07
-2.50307e-06 3.88699e-07 -2.29245e-05
0.00284117 -1.68391e-05 -3.95664e-05
-1.68391e-05 0.000824941 -1.97696e-06
-3.95664e-05 -1.97696e-06 0.000812345
0.00185931 -0.000159332 -7.45836e-06
-0.000159332 -7.82497e-05 -1.6477e-06
-7.45836e-06 -1.6477e-06 -5.13953e-05
0.00194472 -2.81914e-05 4.46227e-06
-2.81914e-05 -2.07649e-05 1.07837e-08
4.46227e-06 1.07837e-08 -3.42567e-05
0.00201508 -6.62105e-05 -3.11989e-07
-6.62105e-05 1.89011e-05 7.50425e-08
-3.11989e-07 7.50425e-08 1.0676e-05
0.00193259 -4.5292e-05 -2.23044e-06
-4.5292e-05 7.38074e-05 -1.83826e-07
-2.23044e-06 -1.83826e-07 3.30867e-05
0.00190521 -0.00017333 2.80325e-06
-0.00017333 2.6651e-05 -7.61902e-07
2.80325e-06 -7.61902e-07 -3.24388e-06
0.00186807 -0.000148221 5.95098e-07
-0.000148221 3.7279e-05 -2.58695e-08
5.95098e-07 -2.58695e-08 -1.82566e-05
0.00182149 -0.000119164 3.25147e-06
-0.000119164 8.55615e-05 -1.16183e-06
3.25147e-06 -1.16183e-06 -7.38965e-06
0.00170852 -0.000198306 8.32477e-07
-0.000198306 2.11832e-05 -1.69124e-07
8.32477e-07 -1.69124e-07 -6.3562e-05
0.00180209 -0.000172861 6.34228e-09
-0.000172861 9.95906e-05 -1.04641e-07
6.34228e-09 -1.04641e-07 -5.06241e-06
0.00172408 -0.000154981 6.91135e-07
-0.000154981 0.000122241 -5.53201e-07
6.91135e-07 -5.53201e-07 -8.93227e-06
0.00179542 -0.000210366 -1.15524e-06
-0.000210366 0.000139458 4.69589e-07
-1.15524e-06 4.69589e-07 2.08409e-05
0.00166843 -0.000184186 -2.6412e-07
-0.000184186 0.00013115 1.12294e-08
-2.6412e-07 1.12294e-08 -1.09547e-05
0.0013728 -0.000137724 -4.45016e-06
-0.000137724 8.1887e-05 1.28596e-06
-4.45016e-06 1.28596e-06 -6.81245e-05
0.00162889 -0.000204372 2.78126e-07
-0.000204372 0.000143543 5.30268e-07
2.78126e-07 5.30268e-07 -8.92531e-06
0.00134365 -0.000157648 -1.38118e-07
-0.000157648 8.30742e-05 7.54863e-08
-1.38118e-07 7.54863e-08 -7.13974e-05
0.00101922 -0.000117222 -1.28789e-05
-0.000117222 6.50924e-06 4.78153e-06
-1.28789e-05 4.78153e-06 -0.000125722
0.00135211 -0.000176978 5.88458e-06
-0.000176978 0.000105571 -1.76785e-06
5.88458e-06 -1.76785e-06 -5.37004e-05
0.00100732 -0.000131086 2.21742e-07
-0.000131086 9.30079e-06 7.46464e-08
2.21742e-07 7.46464e-08 -0.000124316
0.00242645 -0.000108597 -3.35301e-05
-0.000108597 0.000991029 7.23223e-06
-3.35301e-05 7.23223e-06 0.00092376
0.000977526 -0.000146427 1.23256e-05
-0.000146427 7.14749e-06 -5.66037e-06
1.23256e-05 -5.66037e-06 -0.000130518
0.00253901 -0.00014617 3.59284e-05
-0.00014617 0.00106499 -4.3319e-06
3.59284e-05 -4.3319e-06 0.000996863
0.0017256 -8.07724e-05 -0.000173934
-8.07724e-05 0.000664072 2.18995e-05
-0.000173934 2.18995e-05 0.00064484
0.00349252 -4.60054e-06 -0.000171617
-4.60054e-06 0.00171653 9.66335e-06
-0.000171617 9.66335e-06 0.0017014
0.00263021 -0.00019747 0.000108127
-0.00019747 0.00112143 -1.43196e-05
0.000108127 -1.43196e-05 0.00105602
0.00544402 0.000116065 0.000167159
0.000116065 0.00288581 -1.66391e-05
0.000167159 -1.66391e-05 0.00286411
0.00202582 0.000269389 -1.37292e-06
0.000269389 0.000241223 -5.18226e-07
-1.37292e-06 -5.18226e-07 0.000100955
0.00155865 0.000237454 2.7669e-06
0.000237454 0.000102183 9.84163e-07
2.7669e-06 9.84163e-07 -6.21117e-05
0.00187715 0.000269215 3.97095e-07
0.000269215 0.000181989 -1.04301e-06
3.97095e-07 -1.04301e-06 3.22052e-05
0.00132477 0.00021907 -6.57988e-06
0.00021907 0.00011402 -1.31663e-06
-6.57988e-06 -1.31663e-06 -5.85697e-05
0.00163025 0.000284437 5.17e-07
0.000284437 0.000189896 3.74078e-07
5.17e-07 3.74078e-07 4.36656e-06
0.00165748 0.000306565 2.78231e-06
0.000306565 0.000298029 -5.24832e-07
2.78231e-06 -5.24832e-07 9.42348e-05
0.00119031 0.00022229 4.84036e-08
0.00022229 8.74642e-05 -1.35182e-08
4.84036e-08 -1.35182e-08 -9.44259e-05
0.000879989 0.000164715 -1.05869e-05
0.000164715 -3.16861e-06 -5.1701e-06
-1.05869e-05 -5.1701e-06 -0.000153527
0.00118927 0.000224088 5.46374e-06
0.000224088 0.000165517 2.99186e-06
5.46374e-06 2.99186e-06 -2.64875e-05
0.000846905 0.000161132 -7.39303e-07
0.000161132 4.47849e-05 6.10137e-07
-7.39303e-07 6.10137e-07 -0.000110244
0.00068842 0.000158969 -2.06678e-05
0.000158969 1.824e-05 -1.31478e-05
-2.06678e-05 -1.31478e-05 -6.73321e-05
0.000672484 0.000126088 3.28216e-06
0.000126088 2.06662e-05 5.11878e-06
3.28216e-06 5.11878e-06 -0.000124681
0.000555841 7.58835e-05 -6.24649e-07
7.58835e-05 -3.45788e-05 -1.47586e-07
-6.24649e-07 -1.47586e-07 -0.000102363
0.00453144 -0.000115708 -0.000151499
-0.000115708 0.00235133 -9.74418e-06
-0.000151499 -9.74418e-06 0.00234032
0.000370605 -1.26446e-05 3.87096e-06
-1.26446e-05 -0.000122472 9.62507e-06
3.87096e-06 9.62507e-06 -0.000174878
0.0036254 -0.00015473 -6.46225e-06
-0.00015473 0.00181891 4.44243e-07
-6.46225e-06 4.44243e-07 0.00180837
0.00312003 -0.000148296 6.4741e-05
-0.000148296 0.00151575 1.92798e-06
6.4741e-05 1.92798e-06 0.00150794
0.00186792 0.000148692 -9.96022e-07
0.000148692 -1.68405e-06 5.20869e-07
-9.96022e-07 5.20869e-07 -6.68314e-05
0.00182996 0.000140179 6.66319e-07
0.000140179 -3.42902e-05 -2.64628e-07
6.66319e-07 -2.64628e-07 -8.77644e-05
0.00283273 3.59108e-05 -5.84089e-05
3.59108e-05 0.000644179 -5.58146e-06
-5.84089e-05 -5.58146e-06 0.000657658
0.00199157 0.000225809 1.80114e-06
0.000225809 0.000152869 1.15423e-06
1.80114e-06 1.15423e-06 4.35061e-05
0.00173166 0.000308488 -5.51357e-07
0.000308488 6.95745e-05 2.55678e-07
-5.51357e-07 2.55678e-07 -8.09853e-05
0.00146571 0.000349616 -1.25404e-06
0.000349616 4.3035e-05 -2.68913e-06
-1.25404e-06 -2.68913e-06 -0.00014515
0.00197516 0.000315485 -7.86134e-07
0.000315485 0.000289535 -2.40257e-06
-7.86134e-07 -2.40257e-06 0.000119163
0.00199637 0.000245013 -1.12116e-06
0.000245013 0.000125343 -2.44337e-07
-1.12116e-06 -2.44337e-07 2.54832e-05
0.0015936 0.000350302 1.79569e-07
0.000350302 -1.67666e-05 -3.10388e-07
1.79569e-07 -3.10388e-07 -0.000174394
0.00180485 0.000262314 9.13182e-06
0.000262314 2.97043e-05 -5.31186e-07
9.13182e-06 -5.31186e-07 -7.24763e-05
0.00190238 4.06401e-05 -1.33233e-06
4.06401e-05 4.43043e-05 3.30867e-07
-1.33233e-06 3.30867e-07 -1.52013e-06
0.00195411 4.63893e-05 5.45416e-07
4.63893e-05 3.21499e-05 7.17207e-09
5.45416e-07 7.17207e-09 -1.35954e-06
0.00197613 5.79607e-05 -5.87769e-06
5.79607e-05 4.69131e-05 1.90268e-07
-5.87769e-06 1.90268e-07 1.87899e-05
0.00162106 -1.2198e-05 -1.8993e-06
-1.2198e-05 -5.96151e-05 -4.99191e-08
-1.8993e-06 -4.99191e-08 -0.000115313
0.00197998 -7.49729e-05 5.30214e-06
-7.49729e-05 -1.68782e-05 -7.72111e-08
5.30214e-06 -7.72111e-08 -1.96313e-05
0.00187822 -4.76038e-05 -1.14932e-06
-4.76038e-05 3.89566e-05 6.58974e-07
-1.14932e-06 6.58974e-07 -1.96917e-06
0.00193878 -6.08826e-05 -9.05375e-08
-6.08826e-05 0.000152223 -1.1064e-06
-9.05375e-08 -1.1064e-06 7.15062e-05
0.00173205 -0.000146796 2.54894e-06
-0.000146796 -3.16863e-05 -3.62351e-07
2.54894e-06 -3.62351e-07 -9.36185e-05
0.00184431 -0.000119858 2.2722e-06
-0.000119858 9.42676e-05 -6.3232e-07
2.2722e-06 -6.3232e-07 1.52634e-06
0.00177524 -0.000110169 1.87807e-06
-0.000110169 0.0001237 -1.11447e-06
1.87807e-06 -1.11447e-06 3.09885e-06
0.00185571 -0.000173976 -1.04125e-06
-0.000173976 0.000128636 2.04095e-07
-1.04125e-06 2.04095e-07 2.40786e-05
0.00173005 -0.000153486 -1.46187e-07
-0.000153486 0.000127968 -5.17757e-08
-1.46187e-07 -5.17757e-08 -2.89524e-06
0.00141429 -0.000112391 -3.64972e-06
-0.000112391 8.27195e-05 7.73532e-07
-3.64972e-06 7.73532e-07 -6.13388e-05
0.00168039 -0.000184025 -3.26508e-07
-0.000184025 0.000138172 5.33482e-07
-3.26508e-07 5.33482e-07 -3.64583e-06
0.00137141 -0.000137484 -1.27686e-07
-0.000137484 7.82528e-05 1.31284e-07
-1.27686e-07 1.31284e-07 -7.14969e-05
0.001013 -9.9051e-05 -1.24947e-05
-9.9051e-05 -6.86241e-06 3.9233e-06
-1.24947e-05 3.9233e-06 -0.000137419
0.00136265 -0.000158373 4.90619e-06
-0.000158373 9.15405e-05 -1.47281e-06
4.90619e-06 -1.47281e-06 -6.26796e-05
0.00101751 -0.000114598 8.35921e-08
-0.000114598 4.4526e-06 1.80516e-07
8.35921e-08 1.80516e-07 -0.000127033
0.00247024 -0.000119793 -4.12368e-05
-0.000119793 0.00100901 6.91996e-06
-4.12368e-05 6.91996e-06 0.000943973
0.00098977 -0.000128324 1.28416e-05
-0.000128324 -1.73921e-06 -5.29638e-06
1.28416e-05 -5.29638e-06 -0.00013471
0.00253622 -0.000141196 3.26455e-05
-0.000141196 0.00105288 -3.69936e-06
3.26455e-05 -3.69936e-06 0.000989658
0.0017738 -7.06249e-05 -0.000170271
-7.06249e-05 0.00068778 1.97168e-05
-0.000170271 1.97168e-05 0.000669279
0.00268258 -0.000165123 0.000107715
-0.000165123 0.00114475 -1.64179e-05
0.000107715 -1.64179e-05 0.00108128
0.00151179 -1.66412e-05 -7.91997e-05
-1.66412e-05 0.000546625 8.40606e-06
-7.91997e-05 8.40606e-06 0.000517868
0.00519922 0.000202329 2.05511e-05
0.000202329 0.00273589 -2.64912e-06
2.05511e-05 -2.64912e-06 0.00270313
0.00183012 0.000216761 1.18323e-06
0.000216761 0.00011224 4.8362e-07
1.18323e-06 4.8362e-07 -1.76004e-05
0.00180803 0.000237094 5.21059e-08
0.000237094 0.00020422 -5.27455e-07
5.21059e-08 -5.27455e-07 5.15662e-05
0.00188923 0.00026381 -3.13913e-06
0.00026381 0.000159272 5.3042e-08
-3.13913e-06 5.3042e-08 1.72354e-05
0.00170966 0.000214572 -3.91842e-06
0.000214572 0.000310162 -9.27729e-07
-3.91842e-06 -9.27729e-07 0.000149476
0.00156923 0.000243178 7.09787e-07
0.000243178 0.00010328 -1.00027e-06
7.09787e-07 -1.00027e-06 -5.99033e-05
0.00186101 0.000269766 -2.58538e-06
0.000269766 0.000168787 -3.12723e-06
-2.58538e-06 -3.12723e-06 2.2533e-05
0.000930095 0.000158561 -1.22159e-05
0.000158561 -1.45207e-05 -5.19577e-06
-1.22159e-05 -5.19577e-06 -0.000157742
0.00125349 0.000214022 1.0531e-07
0.000214022 7.37471e-05 2.30222e-07
1.0531e-07 2.30222e-07 -9.83459e-05
0.0016759 0.000285115 2.65577e-06
0.000285115 0.000209347 -1.16167e-06
2.65577e-06 -1.16167e-06 2.32273e-05
0.00114305 0.000217623 7.02848e-06
0.000217623 6.41845e-05 1.63793e-06
7.02848e-06 1.63793e-06 -0.000116852
0.000900386 0.000165745 -5.04893e-07
0.000165745 7.80762e-06 -6.13634e-08
-5.04893e-07 -6.13634e-08 -0.000142546
0.000603771 0.000193688 -2.35915e-05
0.000193688 -4.67802e-05 -1.30023e-05
-2.35915e-05 -1.30023e-05 -0.000137826
0.000831932 0.000156515 7.29017e-06
0.000156515 3.39748e-05 5.97877e-06
7.29017e-06 5.97877e-06 -0.000120125
0.000584081 0.000150162 6.75118e-07
0.000150162 -3.78588e-05 4.5125e-07
6.75118e-07 4.5125e-07 -0.000122416
0.00524341 -0.0001191 -0.000163218
-0.0001191 0.00278705 -1.65162e-05
-0.000163218 -1.65162e-05 0.00276051
0.000385039 6.09004e-05 1.04584e-05
6.09004e-05 -0.000131618 1.17096e-05
1.04584e-05 1.17096e-05 -0.000195413
0.00428988 -0.000168628 -1.16377e-05
-0.000168628 0.00221923 1.01968e-06
-1.16377e-05 1.01968e-06 0.00220098
0.00345882 -0.000167431 7.74407e-05
-0.000167431 0.00172332 1.83572e-06
7.74407e-05 1.83572e-06 0.00170987
0.00180688 0.000120007 8.22711e-08
0.000120007 9.08652e-06 1.70942e-06
8.22711e-08 1.70942e-06 -6.66465e-05
0.00186358 0.00015104 5.23964e-07
0.00015104 -7.27568e-06 2.94669e-07
5.23964e-07 2.94669e-07 -7.14919e-05
0.00185866 0.000145379 1.98917e-06
0.000145379 -2.22943e-05 1.01648e-06
1.98917e-06 1.01648e-06 -7.714e-05
0.00195771 0.000221899 5.4987e-07
0.000221899 0.000136846 -8.60468e-08
5.4987e-07 -8.60468e-08 2.96793e-05
0.00171099 0.000302424 -9.3493e-07
0.000302424 7.21205e-05 -1.23243e-06
-9.3493e-07 -1.23243e-06 -7.76876e-05
0.00179152 0.000234561 -1.18586e-07
0.000234561 8.60104e-06 -1.21356e-06
-1.18586e-07 -1.21356e-06 -9.1861e-05
0.00186603 4.20527e-05 1.4311e-07
4.20527e-05 8.47834e-05 1.44748e-07
1.4311e-07 1.44748e-07 2.34898e-05
0.00189578 3.9761e-05 5.58172e-07
3.9761e-05 4.16379e-05 -1.25681e-07
5.58172e-07 -1.25681e-07 -3.86088e-06
0.00193233 4.68585e-05 4.29164e-06
4.68585e-05 2.95706e-05 6.1267e-07
4.29164e-06 6.1267e-07 -5.47689e-06
0.00175559 -1.79108e-05 -2.38387e-06
-1.79108e-05 1.84843e-05 1.07931e-07
-2.38387e-06 1.07931e-07 -3.59513e-05
0.00173218 -3.29468e-05 6.5991e-07
-3.29468e-05 5.45375e-05 -7.84307e-07
6.5991e-07 -7.84307e-07 -2.94331e-05
0.0018198 -4.97468e-05 7.96255e-07
-4.97468e-05 1.6678e-06 9.01284e-07
7.96255e-07 9.01284e-07 -3.94552e-05
0.00186478 -6.10465e-05 -1.10802e-06
-6.10465e-05 0.000110191 4.24899e-07
-1.10802e-06 4.24899e-07 2.55094e-05
0.00180984 -6.25244e-05 2.99721e-07
-6.25244e-05 0.00013982 -4.88714e-07
2.99721e-07 -4.88714e-07 3.05737e-05
0.00185856 -0.000120804 1.38173e-06
-0.000120804 9.83801e-05 -5.2462e-08
1.38173e-06 -5.2462e-08 5.78462e-06
0.00175088 -0.000111174 1.33165e-06
-0.000111174 0.000112013 -5.7219e-07
1.33165e-06 -5.7219e-07 -8.74574e-06
0.00143889 -7.75279e-05 -3.0428e-06
-7.75279e-05 7.36065e-05 1.20112e-07
-3.0428e-06 1.20112e-07 -6.35285e-05
0.00172433 -0.000153414 -6.89462e-07
-0.000153414 0.000126497 3.81713e-07
-6.89462e-07 3.81713e-07 -4.28569e-06
0.00140373 -0.00011176 -5.12889e-08
-0.00011176 7.26938e-05 1.14206e-07
-5.12889e-08 1.14206e-07 -7.11642e-05
0.00100912 -7.72409e-05 -1.2243e-05
-7.72409e-05 -1.86324e-05 3.04882e-06
-1.2243e-05 3.04882e-06 -0.000146595
0.00137406 -0.000137325 3.98054e-06
-0.000137325 7.68107e-05 -9.96578e-07
3.98054e-06 -9.96578e-07 -7.26613e-05
0.00102203 -9.66774e-05 -5.40314e-08
-9.66774e-05 -2.68096e-06 2.16229e-07
-5.40314e-08 2.16229e-07 -0.00013259
0.00246615 -0.000135113 -4.51807e-05
-0.000135113 0.00100249 6.3153e-06
-4.51807e-05 6.3153e-06 0.000936216
0.00101634 -0.000112071 1.27733e-05
-0.000112071 2.53461e-06 -4.49561e-06
1.27733e-05 -4.49561e-06 -0.000128189
0.00253908 -0.000129397 3.14837e-05
-0.000129397 0.00104608 -2.81603e-06
3.14837e-05 -2.81603e-06 0.000984755
0.00181514 -6.07655e-05 -0.000170579
-6.07655e-05 0.000705514 1.70177e-05
-0.000170579 1.70177e-05 0.00068733
0.00264568 -0.000143117 0.000106622
-0.000143117 0.00111225 -1.4386e-05
0.000106622 -1.4386e-05 0.00105394
0.00152062 -3.01578e-05 -7.20003e-05
-3.01578e-05 0.00054431 7.54819e-06
-7.20003e-05 7.54819e-06 0.000518861
0.00135408 -5.83677e-06 2.90808e-05
-5.83677e-06 0.000457192 -4.81068e-06
2.90808e-05 -4.81068e-06 0.000422747
0.00191479 0.000126738 8.97034e-08
0.000126738 0.000137488 1.94795e-06
8.97034e-08 1.94795e-06 3.85946e-05
0.00175223 0.000198219 -9.39557e-07
0.000198219 0.000138594 2.82331e-07
-9.39557e-07 2.82331e-07 -4.31322e-06
0.00183387 0.000217061 -7.494e-07
0.000217061 0.000107998 -1.02678e-07
-7.494e-07 -1.02678e-07 -1.88614e-05
0.00170044 0.000193983 -3.38097e-06
0.000193983 0.00026641 -7.14596e-07
-3.38097e-06 -7.14596e-07 0.000113979
0.00174732 0.000232173 6.67419e-07
0.000232173 0.000173271 7.36928e-08
6.67419e-07 7.36928e-08 1.97051e-05
0.00175126 0.000258309 1.97222e-07
0.000258309 7.72112e-05 1.60962e-08
1.97222e-07 1.60962e-08 -6.6652e-05
0.000999439 0.000146925 -1.31222e-05
0.000146925 5.77962e-07 -4.96608e-06
-1.31222e-05 -4.96608e-06 -0.000136162
0.00148106 0.000206623 3.29173e-06
0.000206623 0.000174153 7.79149e-07
3.29173e-06 7.79149e-07 1.28936e-05
0.00158404 0.000249137 7.52711e-07
0.000249137 0.000107238 -1.70344e-06
7.52711e-07 -1.70344e-06 -5.48326e-05
0.000556088 0.000171222 -2.22922e-05
0.000171222 -8.59523e-05 -1.16703e-05
-2.22922e-05 -1.16703e-05 -0.00017453
0.000963294 0.000160961 -6.35975e-07
0.000160961 4.94782e-06 7.51628e-08
-6.35975e-07 7.51628e-08 -0.000138514
0.0011987 0.000210048 7.48798e-06
0.000210048 4.31401e-05 2.11097e-06
7.48798e-06 2.11097e-06 -0.000128581
0.000936751 0.000168067 1.08223e-05
0.000168067 2.80698e-05 5.29964e-06
1.08223e-05 5.29964e-06 -0.000122494
0.000563635 0.000178888 1.64586e-06
0.000178888 -6.76279e-05 5.02236e-07
1.64586e-06 5.02236e-07 -0.000158714
0.00558065 -5.39195e-05 -0.000174758
-5.39195e-05 0.00297231 -1.94909e-05
-0.000174758 -1.94909e-05 0.00294962
0.000460222 0.000141148 1.79715e-05
0.000141148 -0.000111072 1.31003e-05
1.79715e-05 1.31003e-05 -0.00019089
0.00500883 -0.000135609 -4.9931e-06
-0.000135609 0.00263597 4.32416e-08
-4.9931e-06 4.32416e-08 0.00261817
0.00403354 -0.000193127 9.60413e-05
-0.000193127 0.00207305 3.40619e-06
9.60413e-05 3.40619e-06 0.00205083
0.00175292 8.54865e-05 -9.49685e-07
8.54865e-05 2.60802e-05 9.53689e-07
-9.49685e-07 9.53689e-07 -4.62204e-05
0.00182049 0.000119526 1.00935e-06
0.000119526 2.23816e-05 7.09833e-07
1.00935e-06 7.09833e-07 -5.31483e-05
0.00186987 0.00015387 5.96233e-07
0.00015387 -8.89871e-06 -1.31804e-08
5.96233e-07 -1.31804e-08 -7.20347e-05
0.00192962 0.000217739 3.43511e-07
0.000217739 0.000123845 -8.9953e-07
3.43511e-07 -8.9953e-07 1.89644e-05
0.00175707 -3.17492e-06 2.61261e-06
-3.17492e-06 7.14209e-05 -3.21763e-07
2.61261e-06 -3.21763e-07 -1.44246e-05
0.00193885 3.59164e-05 7.74545e-07
3.59164e-05 0.000122255 -1.51728e-07
7.74545e-07 -1.51728e-07 6.34585e-05
0.0018802 3.86045e-05 2.44806e-06
3.86045e-05 3.4187e-05 2.43493e-07
2.44806e-06 2.43493e-07 -1.08256e-05
0.00187811 -2.14492e-05 -3.63091e-06
-2.14492e-05 8.92229e-05 4.56959e-07
-3.63091e-06 4.56959e-07 3.60016e-05
0.00168814 -2.41787e-05 -1.97709e-06
-2.41787e-05 2.88295e-05 -3.83421e-07
-1.97709e-06 -3.83421e-07 -5.2826e-05
0.00179359 -2.71857e-05 2.02362e-06
-2.71857e-05 0.00014565 -5.44119e-07
2.02362e-06 -5.44119e-07 3.8379e-05
0.00179974 -6.11701e-05 -2.18719e-06
-6.11701e-05 7.29091e-05 1.30225e-06
-2.18719e-06 1.30225e-06 -1.57773e-05
0.00174768 -6.33817e-05 -1.05889e-07
-6.33817e-05 0.000107046 3.12897e-07
-1.05889e-07 3.12897e-07 -5.94484e-06
0.00149064 -4.41375e-05 -3.22868e-06
-4.41375e-05 8.80032e-05 1.1558e-07
-3.22868e-06 1.1558e-07 -4.02782e-05
0.00173939 -0.000110864 8.83772e-07
-0.000110864 0.000107705 -6.72991e-08
8.83772e-07 -6.72991e-08 -1.29937e-05
0.0014307 -7.56351e-05 3.03435e-07
-7.56351e-05 6.59342e-05 -1.68916e-07
3.03435e-07 -1.68916e-07 -7.0855e-05
0.0010077 -5.21799e-05 -1.21934e-05
-5.21799e-05 -2.72788e-05 2.2294e-06
-1.21934e-05 2.2294e-06 -0.000152298
0.00139511 -0.000109117 3.35287e-06
-0.000109117 6.39416e-05 -5.62658e-07
3.35287e-06 -5.62658e-07 -7.94727e-05
0.00101606 -7.63802e-05 -4.30073e-08
-7.63802e-05 -1.51237e-05 2.00816e-07
-4.30073e-08 2.00816e-07 -0.000142799
0.000616213 -7.51729e-05 -1.91343e-05
-7.51729e-05 -0.000100824 4.63851e-06
-1.91343e-05 4.63851e-06 -0.000173535
0.00103401 -9.44602e-05 1.24459e-05
-9.44602e-05 3.09555e-06 -3.542e-06
1.24459e-05 -3.542e-06 -0.000126152
0.00158317 -8.54296e-05 4.35009e-05
-8.54296e-05 0.00047432 -2.75578e-06
4.35009e-05 -2.75578e-06 0.000409413
0.00547071 -0.00011482 -0.000215908
-0.00011482 0.0028565 1.31568e-05
-0.000215908 1.31568e-05 0.00286064
0.00262691 -0.000117119 0.000106122
-0.000117119 0.00108988 -1.17207e-05
0.000106122 -1.17207e-05 0.00103458
0.00153665 -4.33395e-05 -6.49604e-05
-4.33395e-05 0.00054904 5.37249e-06
-6.49604e-05 5.37249e-06 0.000523817
0.00127557 -5.05008e-05 4.0058e-05
-5.05008e-05 0.000410022 -5.53225e-06
4.0058e-05 -5.53225e-06 0.000375948
0.00191508 8.93804e-05 5.62014e-07
8.93804e-05 0.000155434 1.60958e-06
5.62014e-07 1.60958e-06 6.83229e-05
0.00183199 0.00013542 5.42522e-07
0.00013542 0.000168696 1.49892e-06
5.42522e-07 1.49892e-06 4.42418e-05
0.00195438 0.000124139 4.55121e-07
0.000124139 0.000167397 3.31766e-08
4.55121e-07 3.31766e-08 6.77495e-05
0.00144366 0.000154304 -4.02199e-06
0.000154304 8.11463e-05 -5.24208e-07
-4.02199e-06 -5.24208e-07 -6.52395e-05
0.00175423 0.000195504 2.85559e-07
0.000195504 0.000139418 -2.28088e-09
2.85559e-07 -2.28088e-09 -2.6228e-06
0.00183441 0.00021756 -5.66949e-07
0.00021756 0.000101034 -4.9913e-07
-5.66949e-07 -4.9913e-07 -2.29163e-05
0.000686374 0.000111362 -1.50445e-05
0.000111362 -0.000200414 -4.68245e-06
-1.50445e-05 -4.68245e-06 -0.000333233
0.00172216 0.000195767 2.24074e-06
0.000195767 0.000279237 6.17124e-07
2.24074e-06 6.17124e-07 0.000126745
0.00168334 0.000227029 5.59165e-07
0.000227029 0.000140272 -1.53097e-07
5.59165e-07 -1.53097e-07 -1.42019e-05
0.000532656 0.000127951 -1.93181e-05
0.000127951 -0.000116204 -9.33014e-06
-1.93181e-05 -9.33014e-06 -0.000198422
0.000809777 0.000137878 4.51743e-07
0.000137878 -0.000110203 2.1937e-07
4.51743e-07 2.1937e-07 -0.000247647
0.00124174 0.000198013 9.00139e-06
0.000198013 3.15985e-05 2.06223e-06
9.00139e-06 2.06223e-06 -0.000130145
0.00564074 3.21433e-05 -0.000188275
3.21433e-05 0.00298023 -1.86445e-05
-0.000188275 -1.86445e-05 0.00297106
0.000531619 0.0001578 1.34276e-06
0.0001578 -9.88226e-05 5.64477e-07
1.34276e-06 5.64477e-07 -0.000188331
0.00098288 0.000162643 1.23679e-05
0.000162643 1.67001e-05 5.55978e-06
1.23679e-05 5.55978e-06 -0.000126959
0.000482703 0.000163809 2.0179e-05
0.000163809 -0.000110229 1.29918e-05
2.0179e-05 1.29918e-05 -0.000202389
0.00543001 -6.27457e-05 7.92241e-06
-6.27457e-05 0.00287366 -1.0255e-06
7.92241e-06 -1.0255e-06 0.00285857
0.00474732 -0.000194624 0.000122174
-0.000194624 0.00249527 6.68888e-06
0.000122174 6.68888e-06 0.00246879
0.00179874 5.90873e-05 -1.18931e-06
5.90873e-05 8.86164e-05 -6.15274e-07
-1.18931e-06 -6.15274e-07 2.8844e-06
0.00183802 8.60669e-05 9.73178e-08
8.60669e-05 7.46539e-05 4.40686e-07
9.73178e-08 4.40686e-07 1.83708e-06
0.00183532 0.000119016 1.03885e-06
0.000119016 3.67048e-05 -9.67211e-08
1.03885e-06 -9.67211e-08 -3.86961e-05
0.00167821 3.44742e-06 2.28821e-06
3.44742e-06 6.93138e-05 -5.16357e-07
2.28821e-06 -5.16357e-07 -3.97644e-05
0.00171522 -1.16294e-06 6.30436e-07
-1.16294e-06 5.12088e-05 5.4812e-08
6.30436e-07 5.4812e-08 -3.30981e-05
0.00201783 2.86285e-05 9.60892e-08
2.86285e-05 0.000163461 -6.48169e-08
9.60892e-08 -6.48169e-08 0.000107077
0.0016473 -1.6739e-05 -3.02866e-06
-1.6739e-05 4.95628e-06 1.07006e-06
-3.02866e-06 1.07006e-06 -7.4299e-05
0.00176314 -2.22247e-05 1.00313e-06
-2.22247e-05 0.00012706 -1.9283e-07
1.00313e-06 -1.9283e-07 1.99475e-05
0.00173056 -1.68184e-05 -1.26239e-06
-1.68184e-05 0.000225448 -3.05315e-07
-1.26239e-06 -3.05315e-07 0.000102668
0.00168325 -6.43368e-05 -1.14635e-06
-6.43368e-05 7.33963e-05 8.71772e-07
-1.14635e-06 8.71772e-07 -4.33343e-05
0.00157926 -4.41536e-05 7.27959e-09
-4.41536e-05 0.000140267 6.6812e-08
7.27959e-09 6.6812e-08 1.11907e-05
0.000765717 -2.4908e-05 -1.3821e-05
-2.4908e-05 -0.000174082 1.52304e-06
-1.3821e-05 1.52304e-06 -0.000298073
0.00141661 -7.5776e-05 3.4328e-06
-7.5776e-05 5.49079e-05 -4.959e-07
3.4328e-06 -4.959e-07 -8.17926e-05
0.0010095 -4.91259e-05 -3.52696e-08
-4.91259e-05 -2.69401e-05 1.20128e-07
-3.52696e-08 1.20128e-07 -0.000151552
0.000617409 -2.03071e-05 -1.81956e-05
-2.03071e-05 -0.000104091 3.03514e-06
-1.81956e-05 3.03514e-06 -0.000176057
0.00103262 -7.4747e-05 1.22314e-05
-7.4747e-05 -6.42309e-06 -2.64696e-06
1.22314e-05 -2.64696e-06 -0.000133669
0.000620285 -5.91822e-05 -1.69157e-07
-5.91822e-05 -9.66593e-05 3.30066e-07
-1.69157e-07 3.30066e-07 -0.000170652
0.0054938 -9.2083e-06 -0.000207195
-9.2083e-06 0.00286653 8.05857e-06
-0.000207195 8.05857e-06 0.00287277
0.000649161 -6.45288e-05 1.6117e-05
-6.45288e-05 -7.75357e-05 -6.54531e-06
1.6117e-05 -6.54531e-06 -0.00015308
0.00345856 -7.58164e-05 9.81198e-05
-7.58164e-05 0.00167773 -3.28542e-06
9.81198e-05 -3.28542e-06 0.00166131
0.00122172 -6.94547e-05 4.60568e-05
-6.94547e-05 0.000380226 -6.11835e-06
4.60568e-05 -6.11835e-06 0.000343233
0.00180435 8.51078e-05 -3.59513e-07
8.51078e-05 0.000112909 1.57451e-07
-3.59513e-07 1.57451e-07 2.0326e-05
0.00168842 7.96115e-05 2.23662e-06
7.96115e-05 8.53633e-05 2.11778e-06
2.23662e-06 2.11778e-06 -2.987e-05
0.00191754 8.66139e-05 -1.40018e-07
8.66139e-05 0.000158478 -3.82333e-07
-1.40018e-07 -3.82333e-07 7.20577e-05
0.00143205 0.00010927 -2.81938e-06
0.00010927 6.04727e-05 -2.03806e-07
-2.81938e-06 -2.03806e-07 -7.88396e-05
0.0017901 0.000133987 5.39211e-07
0.000133987 0.000140663 1.70909e-07
5.39211e-07 1.70909e-07 1.48914e-05
0.00199738 0.000121353 -6.03204e-07
0.000121353 0.000199369 -1.92566e-06
-6.03204e-07 -1.92566e-06 9.8998e-05
0.000736033 9.16271e-05 -1.44699e-05
9.16271e-05 -0.000185569 -3.50242e-06
-1.44699e-05 -3.50242e-06 -0.000314814
0.00158426 0.000157581 -3.87129e-07
0.000157581 0.000165647 1.19325e-07
-3.87129e-07 1.19325e-07 1.93856e-05
0.00175821 0.000192814 7.95059e-07
0.000192814 0.000141733 -4.81783e-07
7.95059e-07 -4.81783e-07 5.68445e-07
0.000539478 9.08473e-05 -1.77723e-05
9.08473e-05 -0.000130358 -6.96432e-06
-1.77723e-05 -6.96432e-06 -0.000206708
0.000664699 0.000111042 -2.85368e-06
0.000111042 -0.000212278 -4.75017e-07
-2.85368e-06 -4.75017e-07 -0.000345486
0.00174652 0.000197912 8.06046e-06
0.000197912 0.000293676 2.03614e-06
8.06046e-06 2.03614e-06 0.00014106
0.00560816 0.000112218 -0.000206634
0.000112218 0.00294301 -1.75619e-05
-0.000206634 -1.75619e-05 0.0029428
0.000531597 0.000121489 4.89058e-07
0.000121489 -0.00011703 3.70931e-07
4.89058e-07 3.70931e-07 -0.000199719
0.000625136 0.000129404 1.29417e-05
0.000129404 -0.000218201 4.88814e-06
1.29417e-05 4.88814e-06 -0.000356422
0.00554676 4.5385e-05 1.23354e-05
4.5385e-05 0.00292525 7.3203e-07
1.23354e-05 7.3203e-07 0.00291757
0.000490538 0.000143949 1.8859e-05
0.000143949 -0.000121238 1.15345e-05
1.8859e-05 1.15345e-05 -0.000211547
0.00528943 -9.60052e-05 0.00016474
-9.60052e-05 0.00278309 9.63311e-06
0.00016474 9.63311e-06 0.00277325
0.00178275 4.15318e-05 5.48834e-07
4.15318e-05 0.000122605 -5.51966e-07
5.48834e-07 -5.51966e-07 1.6091e-05
0.00175556 5.674e-05 -1.43832e-06
5.674e-05 6.82656e-05 3.89201e-07
-1.43832e-06 3.89201e-07 -1.89186e-05
0.0019195 8.61953e-05 5.62958e-07
8.61953e-05 0.000120998 -1.33527e-09
5.62958e-07 -1.33527e-09 4.76939e-05
0.00173181 -2.60345e-06 -3.64659e-07
-2.60345e-06 0.000231552 -3.48223e-07
-3.64659e-07 -3.48223e-07 0.000110864
0.00169783 1.369e-06 2.86086e-07
1.369e-06 7.99266e-05 5.35083e-09
2.86086e-07 5.35083e-09 -2.74769e-05
0.00167867 2.32042e-06 7.48386e-07
2.32042e-06 3.38247e-05 1.548e-07
7.48386e-07 1.548e-07 -4.89386e-05
0.00173436 -1.75e-05 -2.12728e-07
-1.75e-05 0.000109556 4.45666e-07
-2.12728e-07 4.45666e-07 2.57022e-06
0.00173571 -1.67794e-05 2.57164e-06
-1.67794e-05 0.000228177 -2.08116e-07
2.57164e-06 -2.08116e-07 0.000105389
0.000785149 -8.76446e-06 -1.33182e-05
-8.76446e-06 -0.000164982 6.52949e-07
-1.33182e-05 6.52949e-07 -0.000286718
0.0016702 -4.43099e-05 3.7979e-06
-4.43099e-05 0.000193807 -1.06513e-07
3.7979e-06 -1.06513e-07 6.3938e-05
0.000886946 -2.40408e-05 -2.39458e-06
-2.40408e-05 -0.00010363 2.4534e-07
-2.39458e-06 2.4534e-07 -0.000226739
0.00062089 -5.9472e-06 -1.84252e-05
-5.9472e-06 -0.000106567 1.98777e-06
-1.84252e-05 1.98777e-06 -0.000177428
0.00101585 -4.72639e-05 1.18353e-05
-4.72639e-05 -2.37733e-05 -1.96467e-06
1.18353e-05 -1.96467e-06 -0.000148082
0.00060356 -2.8879e-05 6.98084e-07
-2.8879e-05 -0.000113651 -3.22115e-08
6.98084e-07 -3.22115e-08 -0.000184508
0.00546287 -0.000105892 -0.00021657
-0.000105892 0.00285561 8.1404e-06
-0.00021657 8.1404e-06 0.00285898
0.000600159 -4.32324e-05 1.75227e-05
-4.32324e-05 -0.000108726 -3.64025e-06
1.75227e-05 -3.64025e-06 -0.000182406
0.00547579 -4.48066e-05 7.90236e-06
-4.48066e-05 0.00285693 -1.40678e-08
7.90236e-06 -1.40678e-08 0.00286325
0.00154866 -1.68548e-05 0.000176981
-1.68548e-05 0.000548269 -9.34726e-06
0.000176981 -9.34726e-06 0.000534205
0.00165485 6.12168e-05 2.09998e-06
6.12168e-05 6.47019e-05 3.93523e-07
2.09998e-06 3.93523e-07 -4.78896e-05
0.00178824 8.9314e-05 -2.9421e-06
8.9314e-05 9.585e-05 -4.80679e-07
-2.9421e-06 -4.80679e-07 5.541e-06
0.00143898 6.53746e-05 -2.0584e-06
6.53746e-05 6.45861e-05 1.31121e-07
-2.0584e-06 1.31121e-07 -6.72434e-05
0.00169399 7.84646e-05 5.88586e-07
7.84646e-05 8.89403e-05 1.05917e-07
5.88586e-07 1.05917e-07 -2.63453e-05
0.0019185 8.40511e-05 -1.34079e-06
8.40511e-05 0.000160362 -2.79242e-06
-1.34079e-06 -2.79242e-06 7.46295e-05
0.00105252 7.28992e-05 -1.23033e-05
7.28992e-05 -7.5117e-06 -2.30823e-06
-1.23033e-05 -2.30823e-06 -0.000130512
0.00143226 0.000109167 5.74063e-08
0.000109167 6.14256e-05 8.18167e-08
5.74063e-08 8.18167e-08 -7.80415e-05
0.00174438 0.000132462 -4.08657e-08
0.000132462 0.000110468 -9.04349e-07
-4.08657e-08 -9.04349e-07 -1.66312e-05
0.00056612 6.39601e-05 -1.73361e-05
6.39601e-05 -0.000128365 -5.04433e-06
-1.73361e-05 -5.04433e-06 -0.000201554
0.000857307 9.67806e-05 -3.15113e-06
9.67806e-05 -0.00011388 -3.51801e-07
-3.15113e-06 -3.51801e-07 -0.000242647
0.00172815 0.000160792 4.75325e-06
0.000160792 0.000252183 1.16296e-06
4.75325e-06 1.16296e-06 0.000106069
0.00557652 0.000161753 -0.000225281
0.000161753 0.0029227 -1.69277e-05
-0.000225281 -1.69277e-05 0.00292283
0.000557744 8.94801e-05 2.12499e-08
8.94801e-05 -0.00012041 1.53298e-07
2.12499e-08 1.53298e-07 -0.000196888
0.000641985 0.000110761 9.0979e-06
0.000110761 -0.000224979 3.49524e-06
9.0979e-06 3.49524e-06 -0.000358534
0.00554526 0.000131752 1.04991e-05
0.000131752 0.00291447 2.4054e-06
1.04991e-05 2.4054e-06 0.00291068
0.000534351 0.000113536 1.78441e-05
0.000113536 -0.000116263 9.29158e-06
1.78441e-05 9.29158e-06 -0.000198971
0.00547887 4.05528e-05 0.000194644
4.05528e-05 0.00287439 1.4434e-05
0.000194644 1.4434e-05 0.00287459
0.0017254 2.85201e-05 -2.06601e-07
2.85201e-05 0.000232822 -2.01236e-07
-2.06601e-07 -2.01236e-07 0.000112577
0.0017483 3.73273e-05 -1.04598e-06
3.73273e-05 0.000105482 1.22111e-07
-1.04598e-06 1.22111e-07 -2.29591e-06
0.00171573 5.42044e-05 -1.62114e-06
5.42044e-05 5.03285e-05 4.62193e-07
-1.62114e-06 4.62193e-07 -3.82488e-05
0.000774671 -8.34857e-06 -1.37829e-05
-8.34857e-06 -0.000166286 -2.47897e-07
-1.37829e-05 -2.47897e-07 -0.000286196
0.00173982 3.41755e-06 2.9219e-06
3.41755e-06 0.000236154 -1.57669e-07
2.9219e-06 -1.57669e-07 0.000115458
0.00171608 -7.9946e-07 -7.79986e-07
-7.9946e-07 8.98932e-05 4.38406e-07
-7.79986e-07 4.38406e-07 -1.58244e-05
0.0017458 -1.70729e-05 6.21299e-06
-1.70729e-05 0.00023379 -6.89243e-08
6.21299e-06 -6.89243e-08 0.000110992
0.00077334 -8.81594e-06 -1.82034e-06
-8.81594e-06 -0.000172495 1.3968e-07
-1.82034e-06 1.3968e-07 -0.000294419
0.000621987 -2.63711e-05 -1.87026e-05
-2.63711e-05 -0.00010769 7.60144e-07
-1.87026e-05 7.60144e-07 -0.000177078
0.000994487 -2.23835e-05 9.86553e-06
-2.23835e-05 -4.10675e-05 -1.22826e-06
9.86553e-06 -1.22826e-06 -0.000163305
0.000603918 4.44144e-06 2.64681e-07
4.44144e-06 -0.000116726 6.76829e-08
2.64681e-07 6.76829e-08 -0.000187112
0.00550142 -8.36628e-05 -0.000223708
-8.36628e-05 0.00287591 5.64555e-06
-0.000223708 5.64555e-06 0.00288124
0.000610847 -2.98586e-05 1.82413e-05
-2.98586e-05 -0.00010814 -2.44936e-06
1.82413e-05 -2.44936e-06 -0.000179907
0.00549383 7.47056e-07 -3.01074e-06
7.47056e-07 0.00286561 1.35618e-06
-3.01074e-06 1.35618e-06 0.00287374
0.00548485 -6.44318e-05 0.000216694
-6.44318e-05 0.00286056 -7.32021e-06
0.000216694 -7.32021e-06 0.00286818
0.00142573 4.16131e-05 -2.12837e-06
4.16131e-05 6.24147e-05 4.01352e-08
-2.12837e-06 4.01352e-08 -6.58717e-05
0.00170156 6.42236e-05 -1.03835e-06
6.42236e-05 9.08397e-05 -1.10194e-06
-1.03835e-06 -1.10194e-06 -1.81676e-05
0.00177402 9.38138e-05 -4.28898e-06
9.38138e-05 8.02161e-05 -8.23222e-07
-4.28898e-06 -8.23222e-07 -7.86234e-06
0.00105354 4.10048e-05 -1.21273e-05
4.10048e-05 -7.06466e-06 -1.68885e-06
-1.21273e-05 -1.68885e-06 -0.000126178
0.0014264 6.55656e-05 1.70269e-07
6.55656e-05 5.6358e-05 4.11793e-08
1.70269e-07 4.11793e-08 -7.58584e-05
0.0016978 7.72089e-05 -1.12732e-06
7.72089e-05 9.1901e-05 -1.76541e-06
-1.12732e-06 -1.76541e-06 -2.3433e-05
0.000594319 3.92125e-05 -1.69373e-05
3.92125e-05 -0.000118182 -3.67171e-06
-1.69373e-05 -3.67171e-06 -0.000189673
0.00102342 7.40992e-05 2.01602e-07
7.40992e-05 -2.37018e-05 2.21198e-07
2.01602e-07 2.21198e-07 -0.000147163
0.00143394 0.00010912 3.40573e-06
0.00010912 6.29589e-05 4.49969e-07
3.40573e-06 4.49969e-07 -7.66715e-05
0.00552531 0.000160516 -0.000237301
0.000160516 0.00289476 -1.47835e-05
-0.000237301 -1.47835e-05 0.002895
0.000589874 6.61646e-05 2.98807e-07
6.61646e-05 -0.000114507 1.56094e-07
2.98807e-07 1.56094e-07 -0.000188052
0.000975453 0.000101857 9.23989e-06
0.000101857 -4.41458e-05 2.93032e-06
9.23989e-06 2.93032e-06 -0.000172392
0.00554831 0.000175273 5.96508e-06
0.000175273 0.00291305 2.42416e-06
5.96508e-06 2.42416e-06 0.00291041
0.000578884 8.90529e-05 1.72536e-05
8.90529e-05 -0.000108339 7.23502e-06
1.72536e-05 7.23502e-06 -0.000184991
0.00551378 0.000152716 0.000213026
0.000152716 0.00289496 1.88392e-05
0.000213026 1.88392e-05 0.00289252
0.00102999 1.29244e-05 -1.27358e-05
1.29244e-05 -1.43718e-05 -8.79066e-07
-1.27358e-05 -8.79066e-07 -0.000131203
0.00158406 2.39647e-05 3.27484e-06
2.39647e-05 0.000151353 1.19838e-07
3.27484e-06 1.19838e-07 3.0145e-05
0.00171029 3.22828e-05 -2.56818e-06
3.22828e-05 8.58944e-05 2.07587e-07
-2.56818e-06 2.07587e-07 -2.31624e-05
0.000651893 2.87975e-05 -1.91785e-05
2.87975e-05 -9.70792e-05 -4.46128e-07
-1.91785e-05 -4.46128e-07 -0.000159747
0.000755423 -2.91481e-06 -2.08739e-06
-2.91481e-06 -0.000178525 5.93258e-08
-2.08739e-06 5.93258e-08 -0.000298649
0.00174318 9.50719e-06 6.24397e-06
9.50719e-06 0.000238032 2.06324e-07
6.24397e-06 2.06324e-07 0.00011731
0.00075654 -8.50066e-06 9.65784e-06
-8.50066e-06 -0.00018295 -4.06626e-07
9.65784e-06 -4.06626e-07 -0.000305049
0.000616433 -3.79226e-06 2.16713e-07
-3.79226e-06 -0.000110959 3.03353e-07
2.16713e-07 3.03353e-07 -0.000180357
0.00549782 4.43567e-05 -0.000230104
4.43567e-05 0.00286991 -7.03119e-07
-0.000230104 -7.03119e-07 0.00287836
0.000584131 1.48397e-05 1.7827e-05
1.48397e-05 -0.000128905 -1.21192e-06
1.7827e-05 -1.21192e-06 -0.000198585
0.00549235 -8.28802e-05 -7.85522e-06
-8.28802e-05 0.00287107 1.44867e-06
-7.85522e-06 1.44867e-06 0.00287607
0.00546904 2.1255e-05 0.000208507
2.1255e-05 0.00285158 -3.20468e-06
0.000208507 -3.20468e-06 0.00285925
0.00103363 2.18235e-05 -1.25753e-05
2.18235e-05 -1.46415e-05 -1.2331e-06
-1.25753e-05 -1.2331e-06 -0.00013185
0.00141806 4.12139e-05 -1.08425e-07
4.12139e-05 5.66933e-05 -9.32516e-08
-1.08425e-07 -9.32516e-08 -6.97682e-05
0.00175244 6.7037e-05 -3.74633e-06
6.7037e-05 0.00011916 -1.77376e-06
-3.74633e-06 -1.77376e-06 1.37532e-05
0.00260954 4.55985e-05 -0.000111806
4.55985e-05 0.00106175 -3.41918e-06
-0.000111806 -3.41918e-06 0.00101392
0.00102834 4.29185e-05 2.3219e-07
4.29185e-05 -2.18407e-05 1.59119e-07
2.3219e-07 1.59119e-07 -0.000141259
0.00141348 6.56871e-05 3.04101e-06
6.56871e-05 4.78778e-05 8.42995e-08
3.04101e-06 8.42995e-08 -8.47388e-05
0.00547567 0.00013149 -0.000240116
0.00013149 0.00286512 -1.11645e-05
-0.000240116 -1.11645e-05 0.00286765
0.000626939 5.45916e-05 7.75251e-07
5.45916e-05 -9.74555e-05 3.09109e-07
7.75251e-07 3.09109e-07 -0.000170274
0.000999943 7.54973e-05 1.21915e-05
7.54973e-05 -3.66685e-05 2.71135e-06
1.21915e-05 2.71135e-06 -0.000160571
0.00555522 0.000172563 1.56487e-06
0.000172563 0.00291478 1.64527e-06
1.56487e-06 1.64527e-06 0.00291386
0.000623841 7.06002e-05 1.76422e-05
7.06002e-05 -9.37755e-05 5.75333e-06
1.76422e-05 5.75333e-06 -0.000168163
0.00552425 0.000199907 0.000225013
0.000199907 0.0029059 2.03838e-05
0.000225013 2.03838e-05 0.00289975
0.000693728 8.80559e-06 -1.63865e-05
8.80559e-06 -6.15699e-05 -1.83823e-06
-1.63865e-05 -1.83823e-06 -0.00013133
0.000889993 1.081e-05 6.22722e-07
1.081e-05 -9.63587e-05 1.67391e-07
6.22722e-07 1.67391e-07 -0.000214315
0.00145063 1.92236e-05 6.06101e-06
1.92236e-05 7.43484e-05 1.90241e-07
6.06101e-06 1.90241e-07 -4.77667e-05
0.0053885 -9.29796e-05 -0.000214422
-9.29796e-05 0.00282187 4.71621e-07
-0.000214422 4.71621e-07 0.00282083
0.000612142 7.78099e-06 -4.35387e-07
7.78099e-06 -0.000115231 2.21021e-07
-4.35387e-07 2.21021e-07 -0.00018063
0.000746761 2.20441e-06 9.49678e-06
2.20441e-06 -0.00018475 2.48373e-07
9.49678e-06 2.48373e-07 -0.000305053
0.000582748 2.04494e-05 1.8072e-05
2.04494e-05 -0.000130889 1.3252e-07
1.8072e-05 1.3252e-07 -0.000199815
0.00545998 8.73142e-06 2.62785e-06
8.73142e-06 0.00285178 -6.82449e-07
2.62785e-06 -6.82449e-07 0.00285717
0.00550776 4.98816e-06 0.000218794
4.98816e-06 0.00287135 -1.37466e-06
0.000218794 -1.37466e-06 0.00288064
0.00266457 5.36287e-06 -0.000108807
5.36287e-06 0.00109121 -2.1569e-06
-0.000108807 -2.1569e-06 0.00104456
0.00103674 2.45606e-05 3.63238e-08
2.45606e-05 -1.35108e-05 1.13296e-07
3.63238e-08 1.13296e-07 -0.000130896
0.00139755 4.09349e-05 2.87786e-06
4.09349e-05 4.37326e-05 -1.3048e-07
2.87786e-06 -1.3048e-07 -8.09274e-05
0.00510692 -6.17285e-05 -6.80613e-05
-6.17285e-05 0.00266007 3.51487e-07
-6.80613e-05 3.51487e-07 0.0026456
0.000639912 4.65232e-05 1.855e-08
4.65232e-05 -9.18046e-05 2.33387e-07
1.855e-08 2.33387e-07 -0.000162542
0.00101892 4.53489e-05 1.20387e-05
4.53489e-05 -2.7879e-05 2.04497e-06
1.20387e-05 2.04497e-06 -0.000147548
0.00552086 9.99103e-05 -1.10513e-05
9.99103e-05 0.00288703 -9.77491e-07
-1.10513e-05 -9.77491e-07 0.00289148
0.000656823 7.56733e-05 1.91229e-05
7.56733e-05 -7.9356e-05 4.80598e-06
1.91229e-05 4.80598e-06 -0.00015278
0.00555997 0.000196622 0.0002358
0.000196622 0.00292476 1.91313e-05
0.0002358 1.91313e-05 0.00292035
0.00167284 -4.78261e-05 -0.000184877
-4.78261e-05 0.000615485 5.9204e-07
-0.000184877 5.9204e-07 0.000605217
0.00164981 2.40579e-05 -4.50483e-05
2.40579e-05 0.00049333 1.70435e-07
-4.50483e-05 1.70435e-07 0.000439193
0.000746162 1.09846e-05 1.24434e-05
1.09846e-05 -0.000180374 9.03868e-07
1.24434e-05 9.03868e-07 -0.000299522
0.0054326 -3.89731e-05 8.03706e-06
-3.89731e-05 0.00284258 9.86126e-07
8.03706e-06 9.86126e-07 0.00284556
0.000622667 -1.17977e-05 1.85009e-05
-1.17977e-05 -0.000104553 9.65221e-07
1.85009e-05 9.65221e-07 -0.000172655
0.00549378 -6.0331e-05 0.00023407
-6.0331e-05 0.00287202 -1.61985e-06
0.00023407 -1.61985e-06 0.00287816
0.00126887 2.6471e-06 -3.326e-05
2.6471e-06 0.000401686 -6.3341e-07
-3.326e-05 -6.3341e-07 0.000367756
0.00164154 1.15912e-05 -4.54755e-05
1.15912e-05 0.000492442 -5.08822e-07
-4.54755e-05 -5.08822e-07 0.000435376
0.00103433 2.58595e-05 1.2294e-05
2.58595e-05 -1.53935e-05 1.49381e-06
1.2294e-05 1.49381e-06 -0.000132962
0.00338033 4.51194e-05 8.5678e-05
4.51194e-05 0.0016309 1.92932e-06
8.5678e-05 1.92932e-06 0.0016186
0.000649433 5.552e-05 1.92572e-05
5.552e-05 -8.5913e-05 3.75036e-06
1.92572e-05 3.75036e-06 -0.000156887
0.00556168 9.13349e-05 0.0002252
9.13349e-05 0.00290634 1.17548e-05
0.0002252 1.17548e-05 0.00291333
0.00536141 -2.33945e-05 -8.87446e-06
-2.33945e-05 0.0028039 -1.61867e-06
-8.87446e-06 -1.61867e-06 0.0028061
0.000624677 4.0753e-05 1.97877e-05
4.0753e-05 -0.000109105 1.87189e-06
1.97877e-05 1.87189e-06 -0.000171557
0.00535202 5.2744e-05 0.000219449
5.2744e-05 0.00279278 -1.04117e-07
0.000219449 -1.04117e-07 0.00279833
0.00333041 2.61242e-05 9.9462e-05
2.61242e-05 0.00160616 2.80995e-06
9.9462e-05 2.80995e-06 0.00159374
0.000657701 4.46826e-06 1.85938e-05
4.46826e-06 -8.26509e-05 2.55687e-06
1.85938e-05 2.55687e-06 -0.000150723
0.00547496 -3.08806e-05 0.000217186
-3.08806e-05 0.00285851 5.30703e-06
0.000217186 5.30703e-06 0.00286441
0.00538345 -0.000129371 0.000214752
-0.000129371 0.00282292 -2.55076e-06
0.000214752 -2.55076e-06 0.00282013
0.00537804 -1.53669e-05 0.000214166
-1.53669e-05 0.00279948 2.66374e-06
0.000214166 2.66374e-06 0.00280868
