# vtk DataFile Version 2.0
Wound Healing Simulation
ASCII
DATASET UNSTRUCTURED_GRID
POINTS 3012 float
69.9759 18.75 4
67.2507 60.3285 4
69.976 18.75 2
73.0099 25.446 4
71.1327 20.9142 4
68.6801 16.6661 4
67.8267 19.9165 3.99179
67.2507 60.3286 2
71.1327 54.0858 4
68.6801 58.3339 4
65.6939 62.2254 4
65.3132 59.0093 3.99284
74.6784 42.3946 4
73.7221 47.2057 4
69.9759 18.75 0
73.0099 25.446 2
68.6801 16.6661 2
71.1327 20.9142 2
67.8267 19.9162 2
74.6792 32.6053 4
73.7222 27.7943 4
72.1454 23.1494 4
70.6165 26.2146 3.98998
68.8873 21.9491 3.99117
67.2507 14.6715 4
66.6381 17.9625 3.99243
65.8045 21.0102 3.98727
67.2507 60.3285 0
71.1327 54.0858 2
68.6801 58.3339 2
65.694 62.2255 2
65.3132 59.0096 2
72.1454 51.8506 4
69.9759 56.25 4
68.8383 53.122 3.9912
64.0165 64.0165 4
66.6117 57.1428 3.99251
63.8866 60.7727 3.99322
63.5049 57.7893 3.98819
60.3285 67.2507 4
74.6792 42.3947 2
73.7222 47.2057 2
74.9194 39.9526 4
74.2788 44.8158 4
72.1712 42.0881 3.98948
73.0099 49.554 4
71.2522 46.6032 3.99005
73.0099 25.446 0
71.1327 20.9142 0
68.6801 16.6661 0
67.8267 19.9165 0.00820542
74.6792 32.6053 2
73.7222 27.7943 2
67.2508 14.6715 2
72.1455 23.1494 2
70.6165 26.2144 2
66.6381 17.9623 2
68.8873 21.9488 2
65.8044 21.0101 2
74.9197 35.0474 4
74.2794 30.1841 4
72.1876 32.9399 3.98963
71.2807 28.4261 3.98958
69.8176 24.0519 3.99058
68.356 26.9423 3.98602
66.7708 22.9203 3.987
65.694 12.7746 4
65.3246 16.0952 3.99288
64.7198 19.1777 3.98774
63.9007 22.014 3.9856
71.1327 54.0858 0
65.6939 62.2254 0
68.6801 58.3339 0
65.3132 59.0093 0.0071593
72.1455 51.8506 2
69.9759 56.25 2
68.8383 53.1222 2
64.0165 64.0165 2
66.6117 57.143 2
63.8867 60.7729 2
63.5049 57.7895 2
62.2254 65.694 4
58.8937 65.4182 3.99344
69.7713 50.9966 3.99063
67.7851 55.1767 3.99196
66.6585 52.2224 3.98709
62.3367 62.4329 3.99342
64.6669 56.0483 3.98798
62.2056 59.4215 3.98872
61.832 56.705 3.98638
58.3339 68.6801 4
60.3285 67.2508 2
73.7221 47.2057 0
74.6784 42.3946 0
74.9197 39.9526 2
74.2794 44.8159 2
72.1712 42.0881 2
73.0099 49.554 2
71.2522 46.6034 2
75 37.5 4
72.4083 39.8031 3.98917
71.7855 44.3568 3.98984
69.8143 41.7931 3.98563
70.5778 48.8199 3.99027
68.9226 46.0223 3.98613
74.6792 32.6053 0
73.7222 27.7943 0
67.2507 14.6715 0
72.1454 23.1494 0
70.6165 26.2146 0.0100249
68.8873 21.9491 0.00882662
66.6381 17.9625 0.00757236
65.8045 21.0102 0.012728
74.9197 35.0474 2
74.2794 30.1841 2
72.1876 32.9398 2
71.2807 28.4259 2
65.694 12.7745 2
65.3246 16.0949 2
69.8176 24.0516 2
68.356 26.9422 2
64.7198 19.1775 2
66.7708 22.9202 2
63.9006 22.0139 2
72.4161 35.2219 3.98931
71.8065 30.6719 3.98964
69.8496 33.264 3.98538
68.9754 29.0307 3.98549
67.6202 24.901 3.98661
66.2109 27.6212 3.98428
64.0165 10.9835 4
64.7717 23.8112 3.98539
63.8908 14.3205 3.99311
63.5174 17.4287 3.98833
62.9185 20.2969 3.98588
62.1126 22.9165 3.9848
60.6841 11.0928 3.99324
57.6123 11.4363 3.98891
72.1454 51.8506 0
69.9759 56.25 0
68.8383 53.122 0.00879957
64.0165 64.0165 0
63.8866 60.7727 0.00678486
66.6117 57.1428 0.00749293
63.5049 57.7893 0.0118139
62.2255 65.694 2
58.8937 65.4184 2
69.7713 50.9969 2
67.7851 55.177 2
66.6585 52.2225 2
62.3367 62.4332 2
64.667 56.0485 2
62.2056 59.4218 2
61.832 56.7051 2
60.6687 63.9817 3.99342
57.0241 66.7383 3.99349
57.5575 63.7011 3.9892
67.5172 50.188 3.98671
65.7098 54.1885 3.98761
64.554 51.4049 3.98525
60.7744 60.9529 3.98917
62.8317 55.0911 3.98648
60.6645 58.1823 3.98645
60.3404 55.8144 3.98556
56.25 69.9759 4
58.3339 68.6801 2
60.3285 67.2507 0
58.921 9.65163 3.99328
62.2254 9.30607 4
73.0099 49.554 0
74.2788 44.8158 0
71.2522 46.6032 0.00995349
72.1712 42.0881 0.0105225
74.9194 39.9526 0
75 37.5 2
72.4083 39.8031 2
71.7855 44.3569 2
69.8143 41.7932 2
70.5778 48.8201 2
68.9226 46.0223 2
72.4917 37.5113 3.98919
70.051 39.6587 3.9852
69.4408 43.913 3.98594
67.6157 41.5033 3.98392
68.2761 48.1165 3.98641
66.7283 45.4513 3.98456
74.9197 35.0474 0
74.2794 30.1841 0
72.1876 32.9399 0.0103688
71.2807 28.4261 0.0104189
65.694 12.7746 0
65.3246 16.0952 0.00711853
69.8176 24.0519 0.00942462
68.356 26.9423 0.0139761
66.7708 22.9203 0.0129991
64.7198 19.1777 0.0122609
63.9007 22.014 0.014397
72.4161 35.2219 2
71.8065 30.6718 2
69.8496 33.264 2
68.9753 29.0306 2
64.0165 10.9835 2
63.8908 14.3202 2
63.5174 17.4285 2
67.6202 24.9009 2
66.2109 27.6211 2
62.9185 20.2969 2
64.7716 23.8111 2
62.1125 22.9166 2
60.6841 11.0926 2
57.6123 11.436 2
70.0675 35.3894 3.98532
69.4765 31.1435 3.98541
67.6727 33.5848 3.98355
66.7888 29.6119 3.9837
65.5401 25.6831 3.98494
64.17 28.238 3.98363
62.3421 12.6495 3.9932
62.8788 24.6131 3.98475
62.2011 15.7675 3.98874
61.8222 18.6609 3.98639
61.2344 21.3132 3.98473
60.4513 23.6967 3.98462
59.2467 12.7657 3.98893
55.8739 10.2244 3.98899
56.4063 13.0982 3.9862
69.7713 50.9966 0.00937399
62.2254 65.694 0
58.8937 65.4182 0.00655746
67.7851 55.1767 0.00803562
66.6585 52.2224 0.012909
62.3367 62.4329 0.00658367
62.2056 59.4215 0.011281
64.6669 56.0483 0.0120163
61.832 56.705 0.0136206
60.6687 63.982 2
57.0242 66.7385 2
57.5575 63.7014 2
67.5173 50.188 2
65.7098 54.1887 2
64.554 51.405 2
60.7744 60.9532 2
62.8317 55.0912 2
60.6646 58.1825 2
60.3405 55.8144 2
55.0697 67.9346 3.99354
59.2197 62.3785 3.98922
55.8034 64.9168 3.98923
56.3278 62.1026 3.98657
65.3494 49.4254 3.98495
63.7204 53.3142 3.98597
62.4656 50.677 3.98429
59.3368 59.5767 3.98676
61.093 54.3373 3.9857
59.2981 57.04 3.98516
59.257 55.2144 3.98566
48.1019 68.5813 3.98956
50.9477 69.9334 3.99363
54.0858 71.1327 4
56.25 69.976 2
58.3339 68.6801 0
57.058 8.33206 3.99336
60.3285 7.74928 4
58.921 9.65143 2
62.2255 9.30602 2
70.5778 48.8199 0.00972849
71.7855 44.3568 0.01016
68.9226 46.0223 0.0138695
69.8143 41.7931 0.0143694
72.4083 39.8031 0.0108335
75 37.5 0
72.4916 37.5113 2
70.051 39.6587 2
69.4407 43.9131 2
67.6156 41.5034 2
68.2761 48.1166 2
66.7282 45.4514 2
70.139 37.5209 3.98516
67.8523 39.5149 3.98365
67.2421 43.4786 3.98422
65.5824 41.2175 3.98337
66.087 47.4323 3.98481
64.6789 44.8635 3.98399
72.4161 35.2219 0.0106867
71.8065 30.6719 0.0103563
69.8496 33.264 0.0146226
68.9754 29.0307 0.0145073
64.0165 10.9835 0
63.8908 14.3205 0.00689221
63.5174 17.4287 0.0116688
67.6202 24.901 0.0133852
66.2109 27.6212 0.0157164
64.7717 23.8112 0.0146114
62.9185 20.2969 0.0141188
62.1126 22.9165 0.0151975
60.6841 11.0928 0.00676258
57.6123 11.4363 0.0110869
70.0675 35.3894 2
69.4765 31.1435 2
67.6726 33.5847 2
66.7887 29.6118 2
62.3421 12.6492 2
62.2012 15.7673 2
61.8222 18.6608 2
65.54 25.6829 2
64.1698 28.2378 2
61.2343 21.3133 2
62.8786 24.6131 2
60.4511 23.6968 2
59.2467 12.7655 2
56.4063 13.098 2
55.874 10.2241 2
67.8881 35.5441 3.98374
67.2823 31.6138 3.98361
65.7224 33.9199 3.98295
64.687 30.1781 3.98274
63.5613 26.3932 3.98431
62.2881 28.7568 3.98388
60.7762 14.2083 3.98891
61.0735 25.3095 3.98462
60.6177 17.1057 3.98669
60.2348 19.7881 3.98525
59.6828 22.2263 3.98398
59.0087 24.2867 3.98497
54.0369 9.12874 3.98918
57.9119 14.3146 3.98646
54.7871 11.9997 3.98606
55.3143 14.6287 3.98504
67.5172 50.188 0.0132915
57.0241 66.7383 0.00651234
60.6687 63.9817 0.0065759
57.5575 63.7011 0.010798
65.7098 54.1885 0.0123861
64.554 51.4049 0.0147536
60.7744 60.9529 0.010828
60.6645 58.1823 0.0135459
62.8317 55.0911 0.0135228
60.3404 55.8144 0.0144417
55.0697 67.9349 2
59.2197 62.3788 2
55.8035 64.9172 2
56.3278 62.1029 2
65.3494 49.4254 2
63.7204 53.3143 2
62.4655 50.677 2
59.3369 59.577 2
61.0931 54.3374 2
59.2982 57.0401 2
59.2571 55.2144 2
53.0417 69.002 3.99359
53.9655 66.0179 3.98928
57.8827 60.8863 3.9867
54.6836 63.2162 3.98655
55.2132 60.6307 3.98522
63.2201 48.6833 3.98426
61.7621 52.6023 3.98505
60.3049 50.0487 3.98372
58.0235 58.2843 3.98549
59.346 53.9792 3.98508
58.1386 55.844 3.98404
50.1082 67.8598 3.98946
47.4623 66.5844 3.98675
46.056 69.1603 3.98964
48.102 68.5816 2
48.8021 70.7244 3.99366
50.9478 69.9336 2
51.8506 72.1454 4
54.0858 71.1327 2
56.25 69.9759 0
55.1023 7.13708 3.99342
58.3339 6.31992 4
57.0581 8.33184 2
60.3286 7.74926 2
58.921 9.65163 0.00672125
62.2254 9.30607 0
68.2761 48.1165 0.013592
69.4408 43.913 0.0140631
66.7283 45.4513 0.0154441
67.6157 41.5033 0.0160833
70.051 39.6587 0.0147994
72.4917 37.5113 0.010806
70.1389 37.5209 2
67.8522 39.515 2
67.2421 43.4787 2
65.5823 41.2176 2
66.0869 47.4324 2
64.6788 44.8636 2
67.9484 37.5215 3.98349
65.8137 39.374 3.98338
65.2026 43.0368 3.98348
63.7899 40.9387 3.98339
63.9921 46.7354 3.98422
62.8418 44.2342 3.98416
70.0675 35.3894 0.0146775
69.4765 31.1435 0.0145906
67.6727 33.5848 0.0164476
66.7888 29.6119 0.0162993
62.3421 12.6495 0.00679886
62.2011 15.7675 0.0112631
61.8222 18.6609 0.0136107
65.5401 25.6831 0.0150608
64.17 28.238 0.0163717
62.8788 24.6131 0.0152503
61.2344 21.3132 0.0152698
60.4513 23.6967 0.0153777
59.2467 12.7657 0.0110706
56.4063 13.0982 0.0137984
55.8739 10.2244 0.0110062
67.888 35.544 2
67.2822 31.6137 2
65.7223 33.9197 2
64.6868 30.1779 2
60.7762 14.208 2
60.6178 17.1056 2
60.2348 19.7881 2
63.5612 26.3931 2
62.2878 28.7567 2
59.6827 22.2264 2
61.0733 25.3095 2
59.0084 24.2869 2
57.912 14.3144 2
55.3144 14.6286 2
54.0369 9.1284 2
54.7872 11.9995 2
65.9018 35.6628 3.98304
65.2108 32.1436 3.98261
64.3147 34.242 3.98201
62.6268 30.6186 3.98281
61.6816 27.0473 3.98423
60.8867 29.1173 3.98487
59.3132 15.6494 3.98664
59.3654 25.7651 3.98542
59.1308 18.3298 3.98581
58.7561 20.8226 3.98422
58.311 23.0576 3.98345
58.0015 24.6299 3.98592
52.1116 8.14794 3.98936
53.0579 11.0074 3.9862
56.6789 15.7224 3.98554
53.8107 13.6666 3.98454
54.3784 15.9796 3.98467
55.0697 67.9346 0.00646197
65.3494 49.4254 0.0150476
55.8034 64.9168 0.0107734
59.2197 62.3785 0.0107789
56.3278 62.1026 0.0134325
63.7204 53.3142 0.0140266
62.4656 50.677 0.0157108
59.3368 59.5767 0.0132418
59.2981 57.04 0.0148425
61.093 54.3373 0.0142979
59.257 55.2144 0.0143381
53.0417 69.0022 2
53.9655 66.0182 2
57.8827 60.8866 2
54.6836 63.2165 2
55.2133 60.631 2
63.22 48.6833 2
61.7621 52.6023 2
60.3048 50.0486 2
58.0237 58.2845 2
59.3461 53.9791 2
58.1387 55.844 2
52.0691 67.0035 3.98936
52.9525 64.2248 3.98653
56.6515 59.5076 3.98557
53.6817 61.6327 3.98511
54.2626 59.3376 3.98452
61.0283 47.9073 3.98392
59.7357 52.1366 3.98467
58.0636 49.6508 3.98438
56.7843 57.0147 3.9841
57.1394 54.157 3.98365
50.1083 67.8601 2
49.3359 65.9251 3.98659
47.4623 66.5848 2
46.8916 64.7399 3.98505
45.5575 67.1016 3.9869
43.9733 69.5928 3.98968
46.056 69.1607 2
46.609 71.3687 3.99369
48.1019 68.5813 0.0104414
48.8022 70.7246 2
49.554 73.0099 4
50.9477 69.9334 0.00636741
51.8506 72.1455 2
54.0858 71.1327 0
53.0635 6.0689 3.99353
55.1024 7.13683 2
56.25 5.02411 4
58.3339 6.3199 2
57.058 8.33206 0.00664347
60.3285 7.74928 0
66.087 47.4323 0.0151892
67.2421 43.4786 0.0157799
64.6789 44.8635 0.0160095
65.5824 41.2175 0.0166346
67.8523 39.5149 0.0163465
70.139 37.5209 0.0148378
67.9483 37.5215 2
65.8136 39.3741 2
65.2025 43.0369 2
63.7897 40.9388 2
63.992 46.7355 2
62.8416 44.2342 2
65.9164 37.5015 3.98312
63.9344 39.2715 3.98346
63.3635 42.5635 3.98332
62.4721 40.7078 3.98272
62.0028 45.9416 3.98436
61.493 43.7029 3.98508
67.8881 35.5441 0.0162598
67.2823 31.6138 0.0163855
65.7224 33.9199 0.0170505
64.687 30.1781 0.0172618
60.7762 14.2083 0.0110948
60.6177 17.1057 0.0133093
60.2348 19.7881 0.0147516
63.5613 26.3932 0.0156883
62.2881 28.7568 0.0161174
61.0735 25.3095 0.0153785
59.6828 22.2263 0.0160233
59.0087 24.2867 0.015026
57.9119 14.3146 0.0135413
55.3143 14.6287 0.0149551
54.0369 9.12874 0.0108205
54.7871 11.9997 0.0139386
65.9017 35.6627 2
65.2106 32.1434 2
64.3146 34.2419 2
62.6265 30.6185 2
59.3133 15.6492 2
59.1309 18.3298 2
58.7561 20.8227 2
61.6814 27.0472 2
60.8864 29.1172 2
58.3108 23.0579 2
59.3651 25.7652 2
58.0012 24.6301 2
56.6789 15.7224 2
54.3785 15.9796 2
53.8107 13.6665 2
52.1116 8.14756 2
53.058 11.0071 2
64.1235 35.6279 3.98241
62.9646 33.0344 3.98186
60.6544 30.5916 3.98337
59.6115 27.8823 3.98491
57.9431 16.9608 3.98583
57.7779 25.6916 3.98658
57.7246 19.4478 3.98504
57.3909 21.8069 3.98298
57.2169 23.9114 3.98358
50.1118 7.28036 3.98962
51.2322 10.1168 3.98644
52.1726 12.7858 3.98427
55.5403 16.9508 3.98508
52.9791 15.2479 3.98378
53.7607 16.9611 3.98449
53.0417 69.002 0.00640593
53.9655 66.0179 0.0107192
63.2201 48.6833 0.0157381
54.6836 63.2162 0.0134459
57.8827 60.8863 0.0132988
55.2132 60.6307 0.0147787
61.7621 52.6023 0.0149533
60.3049 50.0487 0.0162821
58.0235 58.2843 0.0145139
58.1386 55.844 0.015959
59.346 53.9792 0.0149243
52.0691 67.0038 2
52.9525 64.2251 2
56.6516 59.5079 2
53.6817 61.6329 2
54.2627 59.3379 2
61.0281 47.9072 2
59.7357 52.1365 2
58.0634 49.6505 2
56.7845 57.0148 2
57.1395 54.1569 2
51.1668 65.1326 3.9865
52.0458 62.5456 3.98485
55.4846 58.2705 3.98486
52.8358 60.147 3.98444
53.6431 58.4884 3.98437
58.3532 46.8793 3.98557
57.5902 51.8215 3.98375
56.2895 49.5894 3.98544
55.4822 55.8233 3.983
55.3793 53.4171 3.98196
50.1082 67.8598 0.0105415
49.336 65.9254 2
48.6173 64.1265 3.9849
47.4623 66.5844 0.0132466
45.5576 67.102 2
46.8916 64.7403 2
46.3811 63.057 3.98383
45.1319 65.2014 3.98512
43.6309 67.4725 3.98707
41.8608 69.8805 3.98971
43.9733 69.5932 2
44.3766 71.8635 3.99372
46.056 69.1603 0.0103649
46.609 71.3689 2
47.2057 73.7222 4
48.8021 70.7244 0.00633521
49.554 73.0099 2
51.8506 72.1454 0
50.9533 5.12949 3.99369
53.0635 6.06863 2
54.0858 3.86728 4
55.1023 7.13708 0.00657631
56.25 5.02406 2
58.3339 6.31992 0
63.9921 46.7354 0.0157794
65.2026 43.0368 0.0165172
62.8418 44.2342 0.0158419
63.7899 40.9387 0.0166128
65.8137 39.374 0.0166152
67.9484 37.5215 0.0165143
65.9162 37.5015 2
63.9342 39.2716 2
63.3633 42.5636 2
62.4719 40.7079 2
62.0026 45.9416 2
61.4927 43.7029 2
63.9945 37.4571 3.98362
62.2021 39.3608 3.98323
61.2637 41.9739 3.9834
60.295 44.7943 3.98585
65.9018 35.6628 0.0169553
65.2108 32.1436 0.0173908
64.3147 34.242 0.0179861
62.6268 30.6186 0.0171852
59.3132 15.6494 0.0133558
59.1308 18.3298 0.0141879
58.7561 20.8226 0.0157754
61.6816 27.0473 0.0157687
60.8867 29.1173 0.0151258
59.3654 25.7651 0.0145758
58.311 23.0576 0.0165518
58.0015 24.6299 0.0140777
56.6789 15.7224 0.0144553
54.3784 15.9796 0.0153329
53.8107 13.6666 0.0154622
52.1116 8.14794 0.010641
53.0579 11.0074 0.0137997
64.1234 35.6278 2
62.9643 33.0343 2
60.6541 30.5915 2
57.9432 16.9607 2
57.7247 19.4479 2
57.3908 21.8071 2
59.6111 27.8823 2
57.2165 23.9118 2
57.7775 25.6918 2
50.1119 7.27999 2
55.5403 16.9507 2
53.7607 16.9611 2
52.9792 15.2478 2
52.1727 12.7856 2
51.2323 10.1165 2
62.2319 35.3532 3.98238
60.3365 32.7305 3.9815
58.6704 30.0502 3.98434
57.3386 27.3483 3.98609
56.6409 18.1317 3.98533
56.3306 25.0662 3.98493
56.3699 20.4921 3.98392
56.1341 22.8346 3.98173
48.0558 6.5239 3.98985
49.3241 9.32534 3.98663
50.4333 11.9851 3.98449
51.3788 14.4863 3.98291
54.4184 17.8996 3.98445
52.3631 17.0191 3.98336
52.0691 67.0035 0.0106421
52.9525 64.2248 0.0134704
61.0283 47.9073 0.0160804
53.6817 61.6327 0.0148854
56.6515 59.5076 0.0144321
54.2626 59.3376 0.0154761
59.7357 52.1366 0.0153278
58.0636 49.6508 0.015616
56.7843 57.0147 0.0159002
57.1394 54.157 0.0163545
51.1668 65.133 2
52.0459 62.5459 2
55.4847 58.2708 2
52.8358 60.1472 2
53.6432 58.4887 2
58.3529 46.8791 2
57.5902 51.8213 2
56.2893 49.589 2
55.4824 55.8234 2
55.3794 53.4169 2
50.3455 63.3855 3.98477
51.2444 60.9427 3.98359
54.2242 57.2856 3.9839
52.3148 58.6478 3.98378
56.783 44.2109 3.98702
55.5462 47.9291 3.98526
55.1032 51.4253 3.98183
54.0194 54.5759 3.98122
49.3359 65.9251 0.0134072
48.6173 64.1269 2
47.9614 62.4783 3.98378
45.5575 67.1016 0.0131022
46.8916 64.7399 0.0149515
43.6309 67.4729 2
46.3811 63.0573 2
45.1319 65.2017 2
45.9866 61.5891 3.98295
44.7663 63.458 3.98388
43.3559 65.5111 3.9852
41.6632 67.6918 3.98709
39.7026 70.0279 3.9897
41.8608 69.8809 2
42.1111 72.2084 3.99375
43.9733 69.5928 0.0103245
44.3766 71.8638 2
44.8159 74.2794 4
46.609 71.3687 0.00630656
47.2057 73.7222 2
49.554 73.0099 0
48.7839 4.32073 3.9938
50.9533 5.12923 2
51.8506 2.85458 4
53.0635 6.0689 0.00646775
54.0858 3.86728 2
56.25 5.02411 0
62.0028 45.9416 0.0156409
63.3635 42.5635 0.0166767
61.493 43.7029 0.014918
62.4721 40.7078 0.017278
63.9344 39.2715 0.0165405
65.9164 37.5015 0.0168826
63.9944 37.4571 2
62.2019 39.3609 2
61.2634 41.974 2
60.2947 44.7943 2
62.0418 37.4446 3.98423
60.3046 39.8564 3.98266
59.0518 42.9406 3.9855
64.1235 35.6279 0.0175881
62.9646 33.0344 0.0181371
60.6544 30.5916 0.0166311
57.9431 16.9608 0.0141704
57.7246 19.4478 0.0149639
57.3909 21.8069 0.0170172
59.6115 27.8823 0.0150913
57.7779 25.6916 0.0134165
57.2169 23.9114 0.0164195
55.5403 16.9508 0.0149217
53.7607 16.9611 0.015509
52.9791 15.2479 0.0162189
50.1118 7.28036 0.0103837
52.1726 12.7858 0.0157275
51.2322 10.1168 0.0135646
62.2318 35.3532 2
60.3361 32.7304 2
58.67 30.0501 2
56.641 18.1317 2
56.37 20.4922 2
56.1339 22.8349 2
57.3381 27.3484 2
56.3301 25.0666 2
48.0558 6.52352 2
49.3242 9.32494 2
54.4185 17.8996 2
52.3632 17.0192 2
51.3789 14.4862 2
50.4334 11.9848 2
59.9498 35.1118 3.98269
58.0519 32.2493 3.98216
56.603 29.3089 3.98559
55.4973 26.5638 3.98726
55.3484 19.1657 3.98464
54.9631 24.0209 3.98152
55.0186 21.5325 3.9825
45.9618 5.87923 3.99007
43.3736 7.46888 3.98779
47.3547 8.61942 3.98712
48.5999 11.2875 3.98435
49.7146 13.7346 3.98333
50.6346 16.1208 3.98194
53.1287 18.6405 3.9839
51.3055 18.0339 3.98339
51.1668 65.1326 0.0134975
52.0458 62.5456 0.0151523
58.3532 46.8793 0.0144308
52.8358 60.147 0.015556
55.4846 58.2705 0.0151426
53.6431 58.4884 0.0156318
57.5902 51.8215 0.0162498
56.2895 49.5894 0.014564
55.4822 55.8233 0.0169955
55.3793 53.4171 0.0180421
50.3456 63.3858 2
51.2444 60.9429 2
54.2244 57.2858 2
52.3148 58.6481 2
56.7825 44.2108 2
55.5458 47.9287 2
55.1032 51.4248 2
54.0195 54.5759 2
49.5914 61.7489 3.98356
55.7254 41.7281 3.98358
50.5679 59.3362 3.98241
52.1904 56.5074 3.98256
54.2604 45.5926 3.98659
53.3934 49.3629 3.9824
52.6925 52.8843 3.97956
48.6173 64.1265 0.0150991
47.9614 62.4785 2
47.3288 61.0123 3.98299
43.6309 67.4725 0.012932
45.1319 65.2014 0.0148789
46.3811 63.057 0.0161653
41.6633 67.6922 2
43.3559 65.5115 2
45.9866 61.5893 2
44.7664 63.4583 2
45.7655 60.6329 3.98217
44.4824 61.8384 3.98287
43.1456 63.7307 3.98387
41.5455 65.6492 3.98505
39.6326 67.7719 3.98705
37.5263 70.0533 3.98967
39.7026 70.0283 2
39.818 72.4056 3.99374
41.8608 69.8805 0.0102933
42.1111 72.2087 2
42.3947 74.6792 4
44.3766 71.8635 0.0062845
44.8159 74.2794 2
47.2057 73.7222 0
43.8514 5.35627 3.99032
46.57 3.64543 3.99396
48.7839 4.32046 2
49.554 1.99015 4
50.9533 5.12949 0.00630862
51.8506 2.85453 2
54.0858 3.86728 0
60.295 44.7943 0.0141503
61.2637 41.9739 0.0165971
62.2021 39.3608 0.0167671
63.9945 37.4571 0.0163787
62.0417 37.4446 2
60.3043 39.8565 2
59.0514 42.9407 2
59.8274 37.5669 3.98515
58.0738 40.6742 3.9837
55.214 39.7331 3.98599
62.2319 35.3532 0.0176165
60.3365 32.7305 0.0185019
58.6704 30.0502 0.0156644
56.6409 18.1317 0.0146717
56.3699 20.4921 0.0160829
56.1341 22.8346 0.0182658
57.3386 27.3483 0.0139102
56.3306 25.0662 0.0150701
54.4184 17.8996 0.0155537
52.3631 17.0191 0.01664
51.3788 14.4863 0.0170881
48.0558 6.5239 0.0101501
49.3241 9.32534 0.0133667
50.4333 11.9851 0.0155084
59.9497 35.1118 2
45.9618 5.87882 2
43.3736 7.46848 2
58.0514 32.2491 2
56.6025 29.3088 2
55.3486 19.1657 2
55.0185 21.5327 2
54.9627 24.0214 2
55.4967 26.5642 2
47.3548 8.61901 2
48.6 11.2871 2
53.1288 18.6405 2
51.3056 18.034 2
50.6347 16.1208 2
49.7148 13.7343 2
57.4711 34.7497 3.9817
55.7979 31.4912 3.98391
54.5782 28.3689 3.98924
53.8168 25.461 3.98326
53.9767 20.1134 3.98395
53.6042 22.6773 3.9805
41.3987 7.0742 3.98806
45.3595 7.99094 3.98752
42.8654 9.4105 3.98575
46.6663 10.6482 3.98501
47.7455 13.0963 3.98305
48.932 15.3928 3.98177
50.0076 17.6897 3.98122
51.6575 19.3113 3.9837
50.3455 63.3855 0.0152286
51.2444 60.9427 0.0164134
56.783 44.2109 0.0129766
55.5462 47.9291 0.014742
52.3148 58.6478 0.0162164
54.2242 57.2856 0.0161001
55.1032 51.4253 0.0181725
54.0194 54.5759 0.0187778
49.5914 61.7491 2
55.7248 41.7283 2
50.5678 59.3364 2
52.1906 56.5078 2
54.2597 45.5923 2
53.3931 49.362 2
52.6927 52.8841 2
48.8489 60.2058 3.98274
52.6402 42.664 3.98713
49.7913 57.6359 3.98198
50.6087 54.4413 3.9806
51.8983 47.2987 3.98278
51.2563 50.9775 3.97756
48.3492 43.7315 3.97551
47.9614 62.4783 0.0162198
47.3287 61.0125 2
46.6182 59.7982 3.98235
41.6632 67.6918 0.0129088
43.3559 65.5111 0.014801
44.7663 63.458 0.0161168
45.9866 61.5891 0.017046
39.6326 67.7723 2
41.5455 65.6496 2
45.7654 60.6331 2
43.1456 63.7311 2
44.4824 61.8386 2
44.6226 60.2946 3.98182
42.9496 62.087 3.98252
41.599 63.8241 3.9837
39.6472 65.6177 3.98487
37.5635 67.7547 3.98702
31.6981 65.1369 3.98505
33.3929 67.4924 3.98707
35.3338 69.9635 3.98966
37.5263 70.0536 2
37.5097 72.4602 3.9937
39.7026 70.0279 0.0103013
39.818 72.4058 2
39.9526 74.9197 4
42.1111 72.2084 0.00624824
42.3947 74.6792 2
44.8159 74.2794 0
41.7361 4.96556 3.99043
43.8514 5.35589 2
44.3254 3.10875 3.99415
46.57 3.64515 2
47.2057 1.27793 4
48.7839 4.32073 0.00619813
49.554 1.99013 2
51.8506 2.85458 0
59.0518 42.9406 0.0145042
60.3046 39.8564 0.0173447
62.0418 37.4446 0.015774
59.8272 37.5669 2
58.0734 40.6743 2
55.2137 39.7333 2
56.9196 37.9012 3.98482
49.8095 41.2975 3.98472
53.2644 39.3175 3.99104
39.4421 6.79762 3.98814
59.9498 35.1118 0.0173148
58.0519 32.2493 0.0178443
56.603 29.3089 0.0144123
55.3484 19.1657 0.01536
55.0186 21.5325 0.0175022
54.9631 24.0209 0.018482
55.4973 26.5638 0.0127367
53.1287 18.6405 0.0161004
51.3055 18.0339 0.0166103
50.6346 16.1208 0.0180614
45.9618 5.87923 0.00992945
49.7146 13.7346 0.016666
47.3547 8.61942 0.0128776
48.5999 11.2875 0.015648
43.3736 7.46888 0.0122103
57.4709 34.7496 2
41.3987 7.07381 2
45.3596 7.99049 2
42.8654 9.41008 2
55.7972 31.4909 2
54.5775 28.3691 2
53.9768 20.1135 2
53.604 22.6777 2
53.8162 25.4617 2
46.6664 10.6478 2
47.7456 13.0959 2
51.6576 19.3114 2
50.0077 17.6898 2
48.9321 15.3925 2
54.9811 33.9523 3.98123
53.5802 30.4516 3.98908
52.654 27.1631 3.98634
52.1785 24.0512 3.98122
52.4036 21.0507 3.9826
41.0135 9.04344 3.98629
44.7236 9.99078 3.98554
42.4682 10.8972 3.9846
46.0051 12.7239 3.98282
47.6818 14.5782 3.98264
48.1138 16.9816 3.9795
49.8204 19.5848 3.98165
49.5914 61.7489 0.01644
50.5679 59.3362 0.0175945
55.7254 41.7281 0.0164159
54.2604 45.5926 0.0134075
53.3934 49.3629 0.0176031
52.1904 56.5074 0.017444
52.6925 52.8843 0.0204384
48.8489 60.2061 2
52.6393 42.6645 2
49.7914 57.6361 2
50.609 54.4417 2
51.8975 47.2976 2
51.2564 50.9769 2
48.3471 43.7305 2
47.987 58.7472 3.98206
50.2278 45.2889 3.98209
48.6039 55.9252 3.98146
49.1553 52.6169 3.97967
49.7364 49.0739 3.97749
46.2028 39.9133 3.9265
46.6027 42.7838 4.00064
46.6443 45.7249 3.97413
44.0595 41.256 3.98648
42.0921 41.9933 3.99648
47.3288 61.0123 0.0170115
46.6181 59.7983 2
45.4679 58.7932 3.98115
39.6326 67.7719 0.0129542
41.5455 65.6492 0.0149469
43.1456 63.7307 0.0161335
44.4824 61.8384 0.0171348
45.7655 60.6329 0.0178295
41.599 63.8244 2
37.5635 67.7551 2
39.6472 65.6181 2
44.6225 60.2948 2
42.9496 62.0873 2
41.7526 62.498 3.98266
42.48 59.9853 3.98151
39.8927 63.5589 3.98325
37.6422 65.5172 3.9849
35.4639 67.6642 3.98702
33.5761 65.3506 3.98507
31.9604 63.3084 3.98354
29.8843 64.7276 3.98489
31.6981 65.1373 2
31.3777 67.202 3.98698
33.3928 67.4928 2
33.1567 69.7567 3.98965
35.3337 69.9638 2
35.1952 72.3746 3.99369
37.5263 70.0533 0.0103264
37.5097 72.4605 2
37.5 75 4
39.818 72.4056 0.00626437
39.9526 74.9197 2
42.3947 74.6792 0
39.6237 4.71269 3.99056
41.7361 4.9652 2
42.0619 2.71645 3.99423
43.8514 5.35627 0.00968281
44.3254 3.10848 2
44.8158 0.721173 4
46.57 3.64543 0.00603566
47.2057 1.27779 2
49.554 1.99015 0
58.0738 40.6742 0.0162969
59.8274 37.5669 0.0148483
55.214 39.7331 0.0140135
49.8089 41.2974 2
56.9194 37.9012 2
53.2642 39.3178 2
54.1162 36.6237 3.98458
47.7326 40.4674 4.00528
50.7625 38.4831 3.98964
37.516 6.66875 3.98836
39.4421 6.79723 2
39.211 8.68595 3.98634
35.9414 8.48542 3.98678
57.4711 34.7497 0.0182967
55.7979 31.4912 0.0160928
54.5782 28.3689 0.0107636
53.9767 20.1134 0.0160471
53.6042 22.6773 0.0195013
53.8168 25.461 0.0167362
51.6575 19.3113 0.0163037
50.0076 17.6897 0.0187828
48.932 15.3928 0.0182291
45.3595 7.99094 0.0124781
47.7455 13.0963 0.0169505
46.6663 10.6482 0.0149874
41.3987 7.0742 0.011941
42.8654 9.4105 0.0142519
54.9808 33.9523 2
41.0135 9.04303 2
44.7236 9.99033 2
42.4682 10.8968 2
53.5793 30.4509 2
52.653 27.1638 2
52.4038 21.0508 2
52.1781 24.052 2
46.0052 12.7235 2
47.6819 14.5778 2
49.8205 19.5851 2
48.1139 16.9813 2
52.5311 32.8426 3.98344
51.4326 29.1211 3.9912
50.8453 25.6885 3.97882
49.9534 22.1572 3.98205
40.5691 11.6004 3.98396
43.8579 11.9126 3.98349
45.8024 15.4149 3.98139
47.5058 19.2177 3.97781
46.5262 37.5084 3.93022
48.8489 60.2058 0.0172599
49.7913 57.6359 0.0180151
52.6402 42.664 0.0128739
51.8983 47.2987 0.0172244
51.2563 50.9775 0.0224396
50.6087 54.4413 0.0193971
48.3492 43.7315 0.0244866
47.987 58.7474 2
50.2263 45.2881 2
48.604 55.9254 2
49.1557 52.6175 2
49.7362 49.0728 2
46.1992 39.9165 2
46.6061 42.788 2
46.6426 45.7209 2
44.061 41.254 2
42.0957 41.9964 2
46.8397 57.3483 3.98248
44.8163 39.5115 3.97644
42.4591 40.8697 3.99179
48.1898 47.2669 3.98187
47.1804 54.2563 3.98196
47.6308 50.7785 3.9774
44.9106 47.3408 3.97279
45.2777 42.0324 3.92899
45.0757 44.6701 3.99868
42.8541 42.7457 3.98517
40.9391 42.3438 3.99449
46.6182 59.7982 0.0176534
45.4678 58.7933 2
43.8759 57.7154 3.98082
37.5635 67.7547 0.012976
39.6472 65.6177 0.015126
41.599 63.8241 0.0163036
42.9496 62.087 0.0174796
44.6226 60.2946 0.0181814
35.4639 67.6646 2
41.7526 62.4983 2
39.8927 63.5593 2
37.6422 65.5176 2
42.4799 59.9855 2
40.6222 61.6554 3.98255
40.4438 58.2135 3.98068
37.8364 63.2204 3.983
35.5733 65.4396 3.98493
33.5761 65.3509 2
31.9604 63.3087 2
33.6297 63.3482 3.98352
30.3794 62.8666 3.98345
32.1236 62.0135 3.98265
26.8686 61.5098 3.98282
28.0632 64.1553 3.98469
29.8843 64.7279 2
29.4074 66.7654 3.98681
31.6981 65.1369 0.0149493
31.3777 67.2023 2
31.0142 69.4217 3.98962
33.3929 67.4924 0.0129268
33.1567 69.7571 2
32.8923 72.1489 3.99367
35.3338 69.9635 0.0103409
35.1952 72.3749 2
35.0474 74.9194 4
37.5097 72.4602 0.00629652
37.5 75 2
39.9526 74.9197 0
35.6205 6.71965 3.9883
37.523 4.61231 3.99058
39.6237 4.71233 2
39.7885 2.47293 3.99436
41.7361 4.96556 0.00957083
42.0619 2.71619 2
42.3946 0.32156 4
44.3254 3.10875 0.00585149
44.8159 0.72056 2
47.2057 1.27793 0
49.8095 41.2975 0.0152814
56.9196 37.9012 0.0151795
53.2644 39.3175 0.00896114
47.7317 40.4635 2
50.7624 38.4836 2
54.1158 36.6239 2
51.5418 35.5653 3.97532
48.3996 37.766 4.00756
46.1819 35.1065 3.93255
44.0506 33.7602 3.98138
42.0867 33.0243 3.99341
37.4577 8.52731 3.98669
37.5159 6.66836 2
39.4421 6.79762 0.0118591
39.211 8.68554 2
38.976 10.1184 3.98572
35.8979 9.76476 3.98582
34.1497 8.81466 3.98659
35.9413 8.48504 2
54.9811 33.9523 0.0187749
53.5802 30.4516 0.0109178
52.654 27.1631 0.0136617
52.4036 21.0507 0.0174028
52.1785 24.0512 0.0187771
49.8204 19.5848 0.0183526
48.1138 16.9816 0.020499
47.6818 14.5782 0.0173597
44.7236 9.99078 0.0144614
46.0051 12.7239 0.0171782
41.0135 9.04344 0.0137079
42.4682 10.8972 0.0154024
52.5307 32.8421 2
40.5691 11.6 2
43.8579 11.9122 2
51.4314 29.1217 2
50.8445 25.6895 2
49.9535 22.1576 2
45.8024 15.4145 2
47.5059 19.2175 2
50.1454 31.3713 3.98443
49.369 27.4439 3.97996
49.4423 24.37 3.97969
47.1943 21.9064 3.9771
38.3014 12.7253 3.9829
42.1005 14.2979 3.98175
44.8009 18.4538 3.97898
45.0866 37.5118 3.97608
46.5249 37.5099 2
47.987 58.7472 0.0179409
48.6039 55.9252 0.0185375
50.2278 45.2889 0.0179056
49.7364 49.0739 0.0225138
49.1553 52.6169 0.0203313
46.2028 39.9133 0.0735018
46.6027 42.7838 -0.000637238
46.6443 45.7249 0.0258734
44.0595 41.256 0.0135164
42.0921 41.9933 0.00351921
46.8397 57.3485 2
44.8151 39.5082 2
42.4594 40.8711 2
48.1887 47.2657 2
47.1805 54.2563 2
47.6309 50.7779 2
44.9105 47.3316 2
45.2772 42.0356 2
45.0833 44.6749 2
42.8606 42.7401 2
40.9419 42.3443 2
45.4009 55.9324 3.98019
42.7902 39.2669 3.98415
40.8925 40.8126 3.95718
46.1625 48.9456 3.98053
45.5693 52.5522 3.98418
43.5381 48.4781 3.94894
43.4631 46.2174 4.0146
43.8169 43.8324 3.92921
41.3152 43.893 3.98678
39.3066 42.6579 3.97311
45.4679 58.7932 0.0188493
43.8758 57.7154 2
42.1068 56.3378 3.9808
35.4639 67.6642 0.0129823
37.6422 65.5172 0.0151029
39.8927 63.5589 0.0167515
41.7526 62.498 0.0173383
42.48 59.9853 0.0184869
35.5733 65.44 2
40.6222 61.6556 2
37.8364 63.2207 2
40.4438 58.2135 2
38.9252 56.5039 3.97976
38.2498 60.3372 3.98157
35.6071 63.2143 3.98327
33.5761 65.3506 0.0149308
31.9604 63.3084 0.016456
33.6297 63.3485 2
30.3794 62.8669 2
32.1236 62.0138 2
28.6817 62.2115 3.98321
33.3461 61.5255 3.98189
31.0665 61.2298 3.98211
27.5668 59.6059 3.98264
23.788 59.1021 3.98509
25.0331 60.885 3.98385
26.8686 61.51 2
26.2296 63.4876 3.98444
28.0631 64.1556 2
27.4641 66.1891 3.98663
29.8843 64.7276 0.0151073
29.4074 66.7658 2
28.9067 68.9471 3.98954
31.3777 67.202 0.0130231
31.0141 69.422 2
30.6148 71.7799 3.99366
33.1567 69.7567 0.0103496
32.8923 72.1491 2
32.6054 74.6784 4
35.1952 72.3746 0.00630664
35.0474 74.9197 2
37.5 75 0
33.7231 6.97402 3.98814
35.4344 4.68261 3.99057
35.6205 6.71927 2
37.5141 2.38562 3.99436
37.523 4.61195 2
39.6237 4.71269 0.00943597
39.7885 2.47267 2
39.9526 0.0806499 4
42.0619 2.71645 0.00576707
42.3947 0.320817 2
44.8158 0.721173 0
44.8044 35.5132 3.97701
42.4491 34.1514 3.99334
47.7326 40.4674 -0.0052817
50.7625 38.4831 0.0103632
54.1162 36.6237 0.0154192
48.4 37.7655 2
51.5412 35.565 2
46.1785 35.106 2
44.053 33.7624 2
42.0883 33.0245 2
48.5636 34.2376 4.00324
45.27 32.984 3.92775
42.8546 32.2671 3.98516
40.9347 32.6769 3.99001
37.3099 10.6211 3.98495
37.4577 8.52692 2
37.516 6.66875 0.0116376
39.211 8.68595 0.0136609
38.976 10.118 2
34.753 10.3703 3.98506
35.8978 9.76438 2
32.3764 9.36111 3.98604
34.1497 8.81427 2
35.9414 8.48542 0.0132227
52.5311 32.8426 0.0165604
51.4326 29.1211 0.00880393
50.8453 25.6885 0.0211765
49.9534 22.1572 0.0179453
47.5058 19.2177 0.0221897
45.8024 15.4149 0.0186119
43.8579 11.9126 0.016513
40.5691 11.6004 0.0160447
50.1445 31.3718 2
38.3015 12.7251 2
42.1005 14.2976 2
49.3678 27.4452 2
49.442 24.3706 2
47.1943 21.9068 2
44.8008 18.4534 2
47.9265 29.5726 3.97364
47.1454 25.0916 3.97979
44.2932 21.3104 3.97691
36.581 12.9215 3.98321
38.6799 14.7965 3.98219
41.7494 17.8294 3.98027
42.9143 37.5034 3.98577
45.0876 37.5116 2
46.5262 37.5084 0.06978
46.8397 57.3483 0.0175167
47.1804 54.2563 0.0180387
48.1898 47.2669 0.0181344
47.6308 50.7785 0.0225969
44.8163 39.5115 0.0235624
45.2777 42.0324 0.0710132
45.0757 44.6701 0.00132381
44.9106 47.3408 0.0272114
42.8541 42.7457 0.0148259
42.4591 40.8697 0.00820696
40.9391 42.3438 0.00550654
45.4009 55.9324 2
42.7891 39.2674 2
40.8924 40.8148 2
46.1625 48.9431 2
45.5696 52.5517 2
43.5382 48.4754 2
43.4773 46.2247 2
43.8167 43.8353 2
41.3165 43.8852 2
39.3073 42.6614 2
43.7419 54.4396 3.98258
40.9731 39.1887 3.94989
39.2334 40.8863 3.9524
43.7544 50.5312 3.99191
42.0438 47.7403 4.02596
41.9664 45.2165 3.91899
39.5244 44.6577 3.98897
37.5027 42.7841 3.95635
43.8759 57.7154 0.0191784
42.1067 56.3377 2
40.4208 54.9403 3.97901
35.5733 65.4396 0.0150718
37.8364 63.2204 0.0170044
40.6222 61.6554 0.0174466
40.4438 58.2135 0.0193219
35.6071 63.2147 2
38.2498 60.3374 2
38.925 56.5038 2
37.9999 55.2564 3.97923
36.9338 57.6353 3.97972
35.3635 60.9234 3.98193
33.6297 63.3482 0.0164791
30.3794 62.8666 0.0165544
32.1236 62.0135 0.0173538
33.3461 61.5258 2
28.6817 62.2118 2
31.0665 61.2301 2
29.4023 60.2988 3.98163
32.3557 59.7551 3.98178
28.0186 58.3845 3.98391
27.5667 59.6061 2
25.3753 58.6109 3.98338
22.75 58.264 3.98334
23.3979 60.3677 3.98467
23.7879 59.1023 2
25.0331 60.8853 2
24.4316 62.7813 3.98495
26.8686 61.5098 0.0171833
26.2295 63.4879 2
25.5482 65.4993 3.98644
28.0632 64.1553 0.0153061
27.4641 66.1895 2
26.8366 68.3355 3.98945
29.4074 66.7654 0.0131939
28.9066 68.9475 2
28.3701 71.2651 3.99363
31.0142 69.4217 0.0103833
30.6148 71.7802 2
30.1842 74.2788 4
32.8923 72.1489 0.00632574
32.6053 74.6792 2
35.0474 74.9194 0
31.7875 7.41343 3.98787
33.3465 4.92158 3.99049
33.7231 6.97364 2
35.2444 2.46174 3.99433
35.4344 4.68224 2
35.6205 6.71965 0.0116952
37.5 0 4
37.5141 2.38537 2
37.523 4.61231 0.0094247
39.7885 2.47293 0.0056397
39.9526 0.0802889 2
42.3946 0.32156 0
42.7804 35.7445 3.98753
44.8031 35.5147 2
40.8839 34.2113 3.95628
42.4501 34.1499 2
48.3996 37.766 -0.00755652
51.5418 35.5653 0.0246826
46.1819 35.1065 0.0674523
44.0506 33.7602 0.0186159
42.0867 33.0243 0.00658871
48.5629 34.2376 2
45.2675 32.9812 2
42.8569 32.2712 2
40.9355 32.6736 2
46.5222 31.4741 4.0025
43.8232 31.1821 3.92652
41.3167 31.1217 3.98231
39.2995 32.3841 3.97208
35.6914 11.7657 3.98377
37.3099 10.6208 2
37.4577 8.52731 0.0133141
38.976 10.1184 0.014279
33.0968 11.2068 3.9844
34.7529 10.37 2
35.8979 9.76476 0.0141808
30.4811 10.009 3.98558
32.3763 9.36073 2
34.1497 8.81466 0.0134103
50.1454 31.3713 0.015567
49.369 27.4439 0.0200441
49.4423 24.37 0.0203066
47.1943 21.9064 0.0229013
44.8009 18.4538 0.0210228
42.1005 14.2979 0.0182486
38.3014 12.7253 0.0171002
36.581 12.9211 2
47.9247 29.5744 2
38.68 14.7964 2
41.7494 17.8293 2
47.1449 25.0918 2
44.2931 21.3106 2
45.6653 27.7879 3.97459
43.8263 24.0286 3.97966
41.3441 20.7089 3.97897
35.7703 14.7469 3.98215
38.6805 17.584 3.98106
41.014 37.4973 3.94617
42.915 37.5031 2
45.0866 37.5118 0.0239173
45.4009 55.9324 0.019812
45.5693 52.5522 0.0158163
46.1625 48.9456 0.0194737
42.7902 39.2669 0.0158454
43.8169 43.8324 0.0707887
43.4631 46.2174 -0.014596
43.5381 48.4781 0.0510647
41.3152 43.893 0.0132249
40.8925 40.8126 0.0428152
39.3066 42.6579 0.0268935
43.7421 54.4397 2
40.9721 39.1896 2
39.2332 40.8897 2
43.7542 50.5328 2
42.0436 47.7401 2
41.9712 45.2175 2
37.5032 42.7892 2
39.5256 44.6615 2
41.8901 53.0051 3.98026
39.2301 39.1845 3.94492
37.5057 40.931 3.95276
35.6997 42.6781 3.97668
40.9985 49.7533 4.00424
39.8512 46.0918 3.94466
37.4953 44.957 3.96575
42.1068 56.3378 0.019196
40.4206 54.9404 2
38.7307 53.8697 3.98098
35.6071 63.2143 0.0167279
38.2498 60.3372 0.0184343
38.9252 56.5039 0.0202401
35.3635 60.9236 2
36.9338 57.6353 2
37.9999 55.2558 2
36.319 55.389 3.97946
34.4866 58.531 3.98062
33.3461 61.5255 0.0181097
28.6817 62.2115 0.0167942
31.0665 61.2298 0.0178886
32.3557 59.7553 2
29.4022 60.299 2
30.2945 57.8256 3.98134
28.0186 58.3847 2
26.9363 56.8382 3.98211
27.5668 59.6059 0.017361
25.3752 58.6111 2
23.8281 56.83 3.98222
21.3242 57.4276 3.98455
21.9892 59.6434 3.98524
22.7498 58.2642 2
22.7346 62.0346 3.98524
23.3978 60.3679 2
23.788 59.1021 0.014909
25.0331 60.885 0.0161504
24.4316 62.7816 2
23.6819 64.7183 3.98651
26.2296 63.4876 0.0155641
25.5481 65.4996 2
24.8092 67.597 3.98935
27.4641 66.1891 0.013369
26.8366 68.3359 2
26.1654 70.606 3.9936
28.9067 68.9471 0.0104568
28.37 71.2654 2
27.7943 73.7221 4
30.6148 71.7799 0.00633608
30.1841 74.2794 2
32.6054 74.6784 0
29.8101 7.98638 3.9875
31.2517 5.32841 3.99033
31.7875 7.41303 2
32.9803 2.69977 3.99427
33.3465 4.92121 2
33.7231 6.97402 0.0118576
35.0474 0.080333 4
35.2444 2.46148 2
35.4344 4.68261 0.00943298
37.5 0 2
37.5141 2.38562 0.00564364
39.9526 0.0806499 0
40.9674 35.8165 3.95051
42.7792 35.7438 2
44.8044 35.5132 0.0229861
28.5421 10.6845 3.98493
39.2254 34.1595 3.9566
40.8838 34.2085 2
42.4491 34.1514 0.00665509
48.5636 34.2376 -0.00324127
45.27 32.984 0.0722481
42.8546 32.2671 0.0148372
40.9347 32.6769 0.00999462
46.5246 31.4726 2
43.8199 31.1802 2
41.3219 31.1227 2
39.3004 32.3781 2
44.5377 29.6513 4.0004
41.9708 29.8036 3.92646
39.5222 30.3741 3.98228
37.494 32.2718 3.95008
34.091 12.9234 3.98308
35.6914 11.7653 2
37.3099 10.6211 0.0150517
31.1849 11.9751 3.98392
33.0968 11.2064 2
34.753 10.3703 0.014944
30.481 10.0086 2
32.3764 9.36111 0.0139603
47.9265 29.5726 0.0263563
47.1454 25.0916 0.0202068
36.581 12.9215 0.0167945
44.2932 21.3104 0.0230924
41.7494 17.8294 0.0197298
38.6799 14.7965 0.01781
35.7704 14.7466 2
45.6638 27.7906 2
38.6805 17.5843 2
41.3439 20.7089 2
43.8259 24.0318 2
33.606 15.8646 3.98175
43.134 26.4776 3.98004
40.9289 23.2833 3.98123
38.4225 20.315 3.97886
35.8467 17.4979 3.98095
39.2357 37.5051 3.94259
41.014 37.4969 2
42.9143 37.5034 0.0142303
43.7419 54.4396 0.0174248
43.7544 50.5312 0.00808583
40.9731 39.1887 0.0501104
41.9664 45.2165 0.0810101
42.0438 47.7403 -0.0259591
39.5244 44.6577 0.0110257
39.2334 40.8863 0.0476016
37.5027 42.7841 0.0436546
41.8899 53.0055 2
39.2296 39.1862 2
37.5055 40.9346 2
40.9984 49.7511 2
35.7001 42.682 2
39.8519 46.094 2
37.4955 44.9631 2
39.8278 51.9183 3.98
37.5042 39.2012 3.94563
35.7808 40.9106 3.95042
34.0651 42.3742 3.98938
35.4619 44.6669 3.98375
38.7708 48.8608 4.03565
37.495 46.3994 3.93812
40.4208 54.9403 0.020988
38.7308 53.8686 2
36.7176 53.2121 3.98256
35.3635 60.9234 0.0180729
36.9338 57.6353 0.0202809
37.9999 55.2564 0.0207659
34.4866 58.531 2
36.3191 55.3887 2
33.2225 55.5074 3.97925
32.3557 59.7551 0.0182241
29.4023 60.2988 0.0183651
30.2945 57.8257 2
28.6736 55.3187 3.97927
28.0186 58.3845 0.016091
26.9361 56.8384 2
25.2915 55.1677 3.98111
21.7898 55.3794 3.98266
25.3753 58.6109 0.016624
23.8279 56.8301 2
20.207 57.0602 3.9853
20.6387 58.8048 3.98548
21.324 57.4277 2
21.1637 61.1875 3.98599
21.989 59.6436 2
22.75 58.264 0.0166607
21.8948 63.8476 3.98673
22.7346 62.0349 2
23.3979 60.3677 0.01533
24.4316 62.7813 0.0150494
23.6818 64.7186 2
22.8376 66.7412 3.98931
25.5482 65.4993 0.0135639
24.8091 67.5973 2
24.0099 69.8073 3.99358
26.8366 68.3355 0.0105544
26.1654 70.6063 2
25.446 73.0099 4
28.3701 71.2651 0.00636583
27.7943 73.7222 2
30.1842 74.2788 0
27.8201 8.64585 3.98707
29.1538 5.87386 3.99008
29.81 7.98597 2
30.7256 3.09677 3.99416
31.2517 5.32802 2
31.7875 7.41343 0.0121267
32.6053 0.320823 4
32.9803 2.6995 2
33.3465 4.92158 0.00951163
35.0474 0.0802903 2
35.2444 2.46174 0.00567086
37.5 0 0
39.2271 35.8375 3.94751
40.9662 35.8146 2
42.7804 35.7445 0.0124729
28.5421 10.6841 2
26.6212 11.3797 3.98487
29.2239 12.6325 3.98366
37.4981 34.1307 3.95728
39.2251 34.1549 2
40.8839 34.2113 0.0437233
46.5222 31.4741 -0.00249535
43.8232 31.1821 0.0734809
41.3167 31.1217 0.0176877
39.2995 32.3841 0.0279158
44.5453 29.6467 2
41.9715 29.8018 2
39.5254 30.3681 2
37.4951 32.2645 2
42.4157 28.3481 4.01241
39.8509 28.9303 3.93685
37.4887 30.0873 3.95742
35.6916 32.3828 3.97194
31.9127 14.4697 3.9825
34.091 12.923 2
35.6914 11.7657 0.0162279
31.1849 11.9747 2
33.0968 11.2068 0.0155954
30.4811 10.009 0.0144164
45.6653 27.7879 0.0254143
43.8263 24.0286 0.020339
35.7703 14.7469 0.0178549
41.3441 20.7089 0.0210296
38.6805 17.584 0.0189443
33.6061 15.8643 2
35.8468 17.4977 2
43.1332 26.4809 2
38.4225 20.3161 2
40.9289 23.2844 2
33.5479 17.3751 3.98088
40.4937 25.6134 3.97797
38.0844 22.8513 3.98132
35.5826 20.0678 3.98029
37.5021 37.521 3.94469
39.2359 37.5047 2
41.014 37.4973 0.0538288
41.8901 53.0051 0.0197448
40.9985 49.7533 -0.0042449
39.2301 39.1845 0.0550783
39.8512 46.0918 0.055339
37.4953 44.957 0.0342452
37.5057 40.931 0.0472415
35.6997 42.6781 0.0233153
39.8285 51.9168 2
37.5045 39.2029 2
35.7808 40.9139 2
38.7684 48.8626 2
34.0642 42.3752 2
35.4611 44.6714 2
37.4913 46.4044 2
37.6609 51.0385 3.97434
35.7831 39.2124 3.94273
34.1281 40.8454 3.95382
32.9122 42.0224 3.99552
33.6737 43.9239 3.98822
35.1549 46.1122 3.93202
36.8879 48.4867 4.03738
38.7307 53.8697 0.0190193
36.7178 53.2117 2
34.347 52.4813 3.98112
34.4866 58.531 0.0193769
36.319 55.389 0.0205382
33.2225 55.5073 2
30.4969 53.4171 3.97888
30.2945 57.8256 0.0186629
28.6734 55.3189 2
26.8523 53.4684 3.97886
26.9363 56.8382 0.0178887
25.2912 55.1678 2
23.5408 53.5175 3.98017
20.4347 53.2674 3.98211
19.9158 55.8659 3.9846
21.7896 55.3794 2
23.8281 56.83 0.0177836
19.4293 57.9203 3.98535
20.2069 57.0602 2
19.7021 60.2242 3.98595
20.6386 58.805 2
21.3242 57.4276 0.015453
20.2063 62.871 3.98713
21.1636 61.1877 2
21.9892 59.6434 0.0147638
20.9389 65.7713 3.98941
21.8947 63.8479 2
22.7346 62.0346 0.014761
23.6819 64.7183 0.013486
22.8375 66.7416 2
21.9126 68.8748 3.99355
24.8092 67.597 0.0106453
24.0098 69.8076 2
23.1494 72.1454 4
26.1654 70.606 0.00640312
25.446 73.0099 2
27.7943 73.7221 0
25.8595 9.37388 3.98672
27.0687 6.53764 3.98981
27.82 8.64545 2
28.4879 3.64254 3.994
29.1537 5.87347 2
29.8101 7.98638 0.0124994
30.1841 0.720592 4
30.7256 3.0965 2
31.2517 5.32841 0.00967012
32.6053 0.320817 2
32.9803 2.69977 0.00573312
35.0474 0.080333 0
37.4997 35.8466 3.94737
39.2265 35.835 2
40.9674 35.8165 0.0494908
24.776 12.0623 3.985
23.7497 14.3462 3.98447
28.5421 10.6845 0.0150718
26.6211 11.3794 2
29.2239 12.6321 2
27.2901 13.3652 3.98365
29.7787 14.192 3.98336
35.7754 34.1555 3.95487
37.4983 34.1257 2
39.2254 34.1595 0.043405
37.494 32.2718 0.0499221
44.5377 29.6513 -0.00039945
41.9708 29.8036 0.073538
39.5222 30.3741 0.0177243
42.4187 28.3404 2
39.8501 28.9245 2
37.4905 30.0786 2
35.6927 32.3772 2
40.0739 27.5182 4.02326
37.4886 28.6387 3.93453
35.4566 30.3742 3.98158
34.0634 32.6816 3.99041
30.9241 16.828 3.98241
31.9127 14.4695 2
34.091 12.9234 0.0169214
31.1849 11.9751 0.0160788
43.134 26.4776 0.0199638
40.9289 23.2833 0.0187661
33.606 15.8646 0.0182515
35.8467 17.4979 0.0190546
38.4225 20.315 0.0211406
33.5481 17.3749 2
35.5828 20.0678 2
40.4926 25.6152 2
38.0847 22.8533 2
32.8596 19.7862 3.97818
37.7867 25.1642 3.98124
35.2049 22.6291 3.97931
35.7714 37.5294 3.94013
37.5026 37.5204 2
39.2357 37.5051 0.0574142
39.8278 51.9183 0.0199955
38.7708 48.8608 -0.035652
37.5042 39.2012 0.0543686
37.495 46.3994 0.0618824
35.4619 44.6669 0.0162494
35.7808 40.9106 0.0495801
34.0651 42.3742 0.0106155
37.6611 51.0412 2
35.7842 39.2141 2
34.1278 40.8472 2
36.886 48.4878 2
32.9102 42.0239 2
33.6727 43.9198 2
35.1528 46.1168 2
35.4062 50.2097 3.97883
34.0488 39.2243 3.9479
32.5523 40.8971 3.99178
32.1415 42.7771 3.98571
33.0354 45.2436 3.92366
34.2553 47.5357 4.02666
36.7176 53.2121 0.0174371
34.347 52.4816 2
31.9593 51.2431 3.9798
33.2225 55.5074 0.0207509
30.4967 53.4175 2
28.3837 51.6608 3.97851
28.6736 55.3187 0.0207281
26.8519 53.4685 2
25.032 51.8127 3.97778
25.2915 55.1677 0.0188935
23.5406 53.5173 2
21.9184 51.8567 3.9814
19.1587 51.6806 3.98253
18.897 54.346 3.98336
20.4346 53.267 2
18.4347 56.7546 3.98553
19.9156 55.8659 2
21.7898 55.3794 0.0173443
18.3626 59.1349 3.98574
19.4291 57.9204 2
20.207 57.0602 0.014699
18.6163 61.781 3.98708
19.7021 60.2244 2
20.6387 58.8048 0.0145233
19.1274 64.6834 3.98959
20.2063 62.8713 2
21.1637 61.1875 0.0140076
19.8867 67.8119 3.99358
20.9389 65.7716 2
21.8948 63.8476 0.0132743
22.8376 66.7412 0.0106853
21.9125 68.875 2
20.9142 71.1327 4
24.0099 69.8073 0.00642395
23.1494 72.1455 2
25.446 73.0099 0
23.0953 12.7764 3.98507
23.9722 10.1602 3.98655
25.0228 7.30754 3.98952
25.8595 9.37356 2
26.2797 4.3266 3.9938
27.0687 6.53725 2
27.8201 8.64585 0.0129308
27.7943 1.27781 4
28.4878 3.64227 2
29.1538 5.87386 0.00992172
30.1841 0.720551 2
30.7256 3.09677 0.00584474
32.6053 0.320823 0
35.774 35.8485 3.94366
37.4999 35.8438 2
39.2271 35.8375 0.0524935
24.776 12.0621 2
23.7497 14.346 2
22.4779 15.0216 3.98468
25.3561 13.8964 3.9842
24.0223 15.6077 3.98423
26.6212 11.3797 0.0151341
29.2239 12.6325 0.0163383
27.2901 13.365 2
29.7787 14.1917 2
28.3548 15.9666 3.98318
34.1264 34.2165 3.95386
35.776 34.1511 2
37.4981 34.1307 0.0427238
35.6916 32.3828 0.0280554
37.4887 30.0873 0.0425773
42.4157 28.3481 -0.0124082
39.8509 28.9303 0.063146
40.0741 27.5178 2
37.4905 28.6285 2
35.4567 30.3694 2
34.0642 32.6786 2
37.6004 27.1898 4.02392
35.118 28.9302 3.93656
33.6659 31.1287 3.98263
32.9145 33.0404 3.99118
30.2039 19.3317 3.9837
30.9242 16.8279 2
31.9127 14.4697 0.0174964
40.4937 25.6134 0.0220342
38.0844 22.8513 0.0186777
33.5479 17.3751 0.0191237
35.5826 20.0678 0.0197074
32.8598 19.7861 2
35.2057 22.6295 2
37.7862 25.1696 2
32.3058 22.4061 3.97868
34.9323 25.157 3.9745
33.9996 37.532 3.945
35.7723 37.529 2
37.5021 37.521 0.0553088
37.6609 51.0385 0.0256607
36.8879 48.4867 -0.0373784
35.7831 39.2124 0.0572684
35.1549 46.1122 0.0679824
33.6737 43.9239 0.0117776
34.1281 40.8454 0.0461769
32.9122 42.0224 0.00448235
35.4061 50.2087 2
34.0503 39.2251 2
32.5512 40.899 2
34.2522 47.5418 2
32.1385 42.7713 2
33.0315 45.2463 2
33.1571 49.1844 3.97883
32.2234 39.2992 3.98503
30.9436 41.2818 3.98222
31.1805 43.8613 3.92736
32.1713 46.4819 4.00589
34.347 52.4813 0.0188829
31.9592 51.2436 2
29.7803 49.758 3.97986
30.4969 53.4171 0.0211156
28.3836 51.6606 2
26.4349 50.0513 3.97636
26.8523 53.4684 0.0211404
25.0318 51.8121 2
23.2758 50.254 3.98224
23.5408 53.5175 0.0198266
21.9184 51.856 2
20.41 50.3663 3.98322
17.9428 50.3733 3.98418
17.8019 52.8315 3.98331
19.159 51.68 2
17.4193 55.3735 3.9846
18.8969 54.3459 2
20.4347 53.2674 0.0178901
17.1265 57.8996 3.98608
18.4345 56.7547 2
19.9158 55.8659 0.0154044
17.1327 60.5669 3.98682
18.3625 59.135 2
19.4293 57.9203 0.0146511
17.4072 63.4777 3.98966
18.6163 61.7812 2
19.7021 60.2242 0.014054
17.9428 66.6209 3.99363
19.1274 64.6837 2
20.2063 62.871 0.0128663
18.75 69.9759 4
19.8866 67.8121 2
20.9389 65.7713 0.0105899
21.9126 68.8748 0.00644605
20.9142 71.1327 2
23.1494 72.1454 0
21.5858 13.5955 3.9852
22.1903 11.019 3.98644
23.0953 12.7762 2
23.041 8.17263 3.98935
23.9722 10.1599 2
24.1174 5.14117 3.99361
25.0227 7.30719 2
25.8595 9.37388 0.0132803
25.446 1.99014 4
26.2796 4.32634 2
27.0687 6.53764 0.0101944
27.7943 1.27778 2
28.4879 3.64254 0.00600439
30.1841 0.720592 0
34.038 35.839 3.94533
35.775 35.8461 2
37.4997 35.8466 0.0526335
21.3024 15.8155 3.98473
24.776 12.0623 0.0149993
23.7497 14.3462 0.015529
25.3561 13.8962 2
22.4779 15.0214 2
24.0224 15.6076 2
23.2611 16.2383 3.98409
25.3778 16.0764 3.98388
27.2901 13.3652 0.0163471
29.7787 14.192 0.0166395
28.3548 15.9664 2
27.4354 18.7877 3.98366
32.5585 34.1732 3.99556
34.1268 34.2139 2
35.7754 34.1555 0.0451322
34.0634 32.6816 0.00958549
35.4566 30.3742 0.0184245
37.4886 28.6387 0.0654665
40.0739 27.5182 -0.0232578
37.6001 27.1786 2
32.9142 33.0414 2
35.124 28.9254 2
33.6632 31.1305 2
35.0123 27.3239 4.02006
33.0026 29.8151 3.92702
32.141 32.2837 3.98903
29.5654 21.9277 3.98549
30.2042 19.3316 2
30.9241 16.828 0.0175886
37.7867 25.1642 0.0187607
35.2049 22.6291 0.0206935
32.8596 19.7862 0.0218185
32.3066 22.4065 2
34.9325 25.1596 2
31.6156 25.5936 3.97779
32.0929 37.535 3.98489
34.0007 37.5315 2
35.7714 37.5294 0.0598731
35.4062 50.2097 0.0211746
34.2553 47.5357 -0.0266583
34.0488 39.2243 0.0520967
33.0354 45.2436 0.0763412
32.1415 42.7771 0.014286
32.5523 40.8971 0.00821925
33.1573 49.1765 2
32.2249 39.2999 2
30.9411 41.2797 2
32.1627 46.4897 2
31.1804 43.862 2
31.0218 47.9103 3.97567
30.1893 39.5292 3.97652
29.7258 42.0549 3.92681
30.2653 45.0766 4.0009
31.9593 51.2431 0.0202022
29.7805 49.7584 2
27.7643 48.2392 3.97978
28.3837 51.6608 0.0214886
26.4349 50.0495 2
24.5567 48.5336 3.98468
25.032 51.8127 0.0222198
23.2761 50.2528 2
21.5766 48.8471 3.98551
21.9184 51.8567 0.0185993
20.4105 50.3653 2
18.9757 49.139 3.98591
16.8491 49.3706 3.98581
16.7386 51.4457 3.984
17.9431 50.3729 2
16.3668 53.9048 3.98419
17.802 52.8312 2
19.1587 51.6806 0.0174736
15.9653 56.5033 3.98572
17.4192 55.3734 2
18.897 54.346 0.0166413
15.745 59.2302 3.98688
17.1264 57.8997 2
18.4347 56.7546 0.0144674
15.7872 62.1501 3.98943
17.1327 60.5671 2
18.3626 59.1349 0.0142593
16.0892 65.304 3.9937
17.4072 63.478 2
18.6163 61.781 0.0129193
16.6661 68.6801 4
17.9428 66.6211 2
19.1274 64.6834 0.0104053
18.75 69.9759 2
19.8867 67.8119 0.00641903
20.9142 71.1327 0
20.2172 14.5826 3.98521
21.5858 13.5953 2
20.5295 11.9879 3.98644
21.1442 9.14193 3.98924
22.1903 11.0187 2
23.0953 12.7764 0.0149349
22.0165 6.08002 3.99349
23.041 8.17227 2
23.9722 10.1602 0.0134459
23.1494 2.85457 4
24.1174 5.14092 2
25.0228 7.30754 0.0104801
25.446 1.99012 2
26.2797 4.3266 0.0062004
27.7943 1.27781 0
32.2197 35.7704 3.98684
34.0394 35.8372 2
35.774 35.8485 0.0563364
21.3024 15.8153 2
20.2985 16.9468 3.98522
22.0938 16.6208 3.98448
25.3561 13.8964 0.0157965
22.4779 15.0216 0.0153161
24.0223 15.6077 0.0157657
25.3778 16.0762 2
23.2611 16.2381 2
24.1996 18.4366 3.98354
27.002 21.4467 3.98251
28.3548 15.9666 0.0168244
27.4355 18.7876 2
30.9554 33.7881 3.98239
32.5574 34.1719 2
34.1264 34.2165 0.0461386
32.9145 33.0404 0.00882211
33.6659 31.1287 0.0173745
35.118 28.9302 0.0634401
37.6004 27.1898 -0.0239163
35.0126 27.3178 2
32.1411 32.2887 2
33.0062 29.8152 2
32.4171 28.0546 4.01504
31.1657 31.2093 3.93348
28.7375 24.3955 3.98554
29.5661 21.9276 2
30.2039 19.3317 0.0163035
34.9323 25.157 0.0255047
32.3058 22.4061 0.0213212
31.6154 25.5921 2
29.5251 27.2154 3.99254
29.9134 37.5324 3.9759
32.0934 37.5351 2
33.9996 37.532 0.0549997
33.1571 49.1844 0.0211728
32.1713 46.4819 -0.00588646
32.2234 39.2992 0.0149677
31.1805 43.8613 0.0726359
30.9436 41.2818 0.0177848
31.0233 47.9025 2
30.1908 39.5282 2
29.7275 42.0584 2
30.2555 45.0825 2
29.0227 46.4742 3.97385
28.8076 39.9297 3.93077
28.4531 43.2946 4.00345
29.7803 49.758 0.0201428
27.7651 48.2368 2
25.8121 46.7203 3.98866
26.4349 50.0513 0.0236367
24.5574 48.5321 2
22.7007 47.1439 3.99091
23.2758 50.254 0.0177576
21.5774 48.8457 2
19.9119 47.6681 3.98877
20.41 50.3663 0.0167802
18.9762 49.1386 2
17.6182 48.219 3.98693
16.1003 48.7189 3.98653
16.8495 49.3703 2
15.8143 50.206 3.98512
15.3529 52.449 3.98435
16.7388 51.4454 2
17.9428 50.3733 0.0158195
14.8539 55.0057 3.98513
16.3668 53.9046 2
17.8019 52.8315 0.0166943
14.4529 57.7607 3.98676
15.9652 56.5034 2
17.4193 55.3735 0.0153977
14.2647 60.7064 3.98917
15.7449 59.2304 2
17.1265 57.8996 0.0139208
14.3332 63.8637 3.99361
15.7871 62.1504 2
17.1327 60.5669 0.0131831
14.6715 67.2507 4
16.0892 65.3042 2
17.4072 63.4777 0.010344
16.6661 68.6801 2
17.9428 66.6209 0.00636532
18.75 69.9759 0
18.93 15.767 3.98544
20.2172 14.5824 2
18.9788 13.0972 3.98641
21.5858 13.5955 0.0148016
20.5295 11.9876 2
19.3437 10.229 3.98918
19.9913 7.14446 3.99345
21.1442 9.14158 2
22.1903 11.019 0.0135559
20.9142 3.86727 4
22.0165 6.07977 2
23.041 8.17263 0.0106469
23.1494 2.85451 2
24.1174 5.14117 0.00638839
25.446 1.99014 0
30.1914 35.5361 3.97897
32.2209 35.7698 2
34.038 35.839 0.054673
21.3024 15.8155 0.0152665
22.0938 16.6207 2
20.2985 16.9467 2
19.2358 18.3908 3.98515
21.7772 17.8345 3.98459
25.3778 16.0764 0.0161236
23.2611 16.2383 0.0159106
24.1997 18.4366 2
22.2677 19.8734 3.9844
24.5772 21.3043 3.98362
26.3698 23.7064 3.98642
27.0026 21.4465 2
27.4354 18.7877 0.0163374
29.7352 33.0137 3.93124
30.9532 33.7913 2
32.5585 34.1732 0.00444486
32.141 32.2837 0.0109734
33.0026 29.8151 0.0729849
35.0123 27.3239 -0.0200624
32.4163 28.0517 2
31.1698 31.2116 2
29.9262 29.4916 4.00575
27.7752 26.5255 3.97585
28.7373 24.3952 2
29.5654 21.9277 0.0145084
31.6156 25.5936 0.0222055
29.5246 27.2145 2
28.4719 37.5299 3.93267
29.9136 37.5333 2
32.0929 37.535 0.0151148
31.0218 47.9103 0.0243313
30.2653 45.0766 -0.000899517
30.1893 39.5292 0.0234803
29.7258 42.0549 0.0731916
29.0248 46.4707 2
28.8111 39.93 2
28.4486 43.297 2
27.0856 44.8436 3.97444
26.5577 40.6788 4.00565
27.7643 48.2392 0.0202152
25.8136 46.7185 2
23.8378 45.2739 3.99067
24.5567 48.5336 0.0153167
22.7019 47.1418 2
20.8304 45.9498 3.99096
21.5766 48.8471 0.0144936
19.9126 47.6678 2
18.2562 46.7784 3.98803
18.9757 49.139 0.0140941
17.6187 48.2187 2
16.287 47.7481 3.98635
16.1007 48.7188 2
15.1592 49.0482 3.98573
16.8491 49.3706 0.0141865
15.8146 50.2058 2
14.4644 51.0159 3.98486
13.8133 53.4618 3.98495
15.353 52.4489 2
16.7386 51.4457 0.0159975
13.2461 56.1895 3.98633
14.8538 55.0056 2
16.3668 53.9048 0.0158128
12.8466 59.1411 3.98882
14.4528 57.7609 2
15.9653 56.5033 0.0142818
12.6783 62.3067 3.99343
14.2647 60.7067 2
15.745 59.2302 0.0131171
12.7746 65.6939 4
14.3331 63.8639 2
15.7872 62.1501 0.0105663
14.6714 67.2507 2
16.0892 65.304 0.00630472
16.6661 68.6801 0
17.6632 17.14 3.98546
18.93 15.7668 2
17.5095 14.3593 3.98643
20.2172 14.5826 0.014792
18.9788 13.0969 2
17.6391 11.4468 3.98911
20.5295 11.9879 0.0135631
19.3437 10.2287 2
18.0515 8.33695 3.99343
18.75 5.0241 4
19.9912 7.14421 2
21.1442 9.14193 0.0107554
20.9142 3.86727 2
22.0165 6.08002 0.00650855
23.1494 2.85457 0
28.8007 35.1319 3.93009
30.1924 35.5399 2
32.2197 35.7704 0.013164
22.0938 16.6208 0.0155213
20.2985 16.9468 0.0147835
21.7772 17.8344 2
19.2358 18.3906 2
17.9684 19.9196 3.98525
20.8672 19.3586 3.98483
24.1996 18.4366 0.0164588
22.2679 19.8732 2
24.5776 21.3041 2
22.3387 21.6951 3.98471
24.6571 23.1485 3.98521
25.3723 25.9316 3.97991
26.3698 23.7059 2
27.002 21.4467 0.0174922
28.1103 32.2677 4.00342
29.7376 33.0126 2
30.9554 33.7881 0.0176086
31.1657 31.2093 0.0665169
32.4171 28.0546 -0.0150358
29.9246 29.4894 2
26.8767 29.1322 3.96376
27.7746 26.5246 2
28.7375 24.3955 0.0144625
29.5251 27.2154 0.00746364
26.6731 37.3704 4.00529
28.4741 37.5284 2
29.9134 37.5324 0.0241031
29.0227 46.4742 0.0261525
28.4531 43.2946 -0.00345136
28.8076 39.9297 0.0692257
27.0878 44.8419 2
26.5584 40.6787 2
25.0534 43.2318 3.98637
23.8098 39.4504 3.97386
25.8121 46.7203 0.011336
23.8392 45.2746 2
21.7949 44.0005 3.9903
22.7007 47.1439 0.00908584
20.8315 45.9499 2
18.9078 45.0094 3.98672
19.9119 47.6681 0.0112271
18.2568 46.7783 2
16.5715 46.2451 3.98557
17.6182 48.219 0.0130706
16.2874 47.748 2
14.8859 47.7004 3.98545
16.1003 48.7189 0.0134697
15.1595 49.0481 2
13.7606 49.5745 3.98515
15.8143 50.206 0.0148768
14.4646 51.0157 2
12.8782 51.8994 3.98503
12.132 54.5479 3.986
13.8133 53.4617 2
15.3529 52.449 0.0156476
11.5302 57.4738 3.98824
13.2461 56.1896 2
14.8539 55.0057 0.014867
11.1329 60.6335 3.99324
12.8465 59.1414 2
14.4529 57.7607 0.0132432
10.9835 64.0165 4
12.6783 62.307 2
14.2647 60.7064 0.0108306
12.7745 65.694 2
14.3332 63.8637 0.00638789
14.6715 67.2507 0
16.3937 18.631 3.98565
17.6632 17.1398 2
16.0998 15.7662 3.98642
18.93 15.767 0.0145603
17.5095 14.359 2
16.0204 12.7986 3.98896
18.9788 13.0972 0.0135875
17.6391 11.4465 2
16.2027 9.65955 3.99338
19.3437 10.229 0.0108197
18.0515 8.33671 2
16.6661 6.31991 4
18.75 5.02404 2
19.9913 7.14446 0.00655018
20.9142 3.86727 0
27.1847 34.7391 4.00379
28.8024 35.1305 2
30.1914 35.5361 0.0210323
16.6643 21.3514 3.98447
21.7772 17.8345 0.0154121
19.2358 18.3908 0.0148475
20.8673 19.3585 2
17.9684 19.9194 2
19.7061 21.5477 3.98579
22.2677 19.8734 0.0155953
24.5772 21.3043 0.0163755
22.339 21.6948 2
24.6572 23.1482 2
22.7907 24.5775 3.98247
24.4276 28.5143 3.97552
25.3718 25.9313 2
26.3698 23.7064 0.0135773
25.9555 31.7158 3.97421
28.1097 32.2659 2
29.7352 33.0137 0.068757
29.9262 29.4916 -0.00574581
26.876 29.1332 2
27.7752 26.5255 0.0241509
24.491 36.8822 3.98162
26.6727 37.3712 2
28.4719 37.5299 0.0673295
27.0856 44.8436 0.0255594
26.5577 40.6788 -0.0056501
25.0542 43.2326 2
23.8103 39.4521 2
22.8365 41.8401 3.98342
21.5706 38.5117 3.98332
23.8378 45.2739 0.00933379
21.7959 44.0019 2
19.6502 42.9221 3.98491
20.8304 45.9498 0.00903852
18.9085 45.0095 2
16.8944 44.4087 3.98437
18.2562 46.7784 0.0119671
16.5721 46.2451 2
14.8027 46.1177 3.98443
16.287 47.7481 0.0136458
14.8863 47.7004 2
13.2653 48.0344 3.9848
15.1592 49.0482 0.0142696
13.7608 49.5744 2
12.0957 50.2759 3.98508
14.4644 51.0159 0.0151431
12.8784 51.8994 2
11.1263 52.8558 3.98581
10.3198 55.7255 3.98769
12.1319 54.548 2
13.8133 53.4618 0.0150515
9.69953 58.857 3.9929
11.5302 57.4741 2
13.2461 56.1895 0.0136737
9.30605 62.2254 4
11.1329 60.6338 2
12.8466 59.1411 0.0111846
10.9835 64.0165 2
12.6783 62.3067 0.00656781
12.7746 65.6939 0
15.1358 20.1627 3.98524
16.3937 18.6308 2
14.7444 17.2869 3.98628
17.6632 17.14 0.0145425
16.0998 15.7659 2
14.4825 14.2786 3.98875
17.5095 14.3593 0.0135737
16.0205 12.7983 2
14.4453 11.1102 3.99328
17.6391 11.4468 0.0108937
16.2027 9.6593 2
14.6715 7.74927 4
18.0515 8.33695 0.00657395
16.6661 6.31988 2
18.75 5.0241 0
25.1315 34.2901 3.98398
27.1841 34.7385 2
28.8007 35.1319 0.0699139
17.8324 22.2961 3.98626
15.5047 22.8931 3.98362
16.6643 21.3512 2
20.8672 19.3586 0.0151731
17.9684 19.9196 0.0147503
19.7063 21.5475 2
19.6198 24.3533 3.98452
22.3387 21.6951 0.015294
24.6571 23.1485 0.014789
22.7905 24.5771 2
21.818 27.8016 3.97638
23.586 31.1735 3.98174
24.4272 28.5145 2
25.3723 25.9316 0.0200885
25.9553 31.7176 2
28.1103 32.2677 -0.00342023
26.8767 29.1322 0.0362406
22.2769 36.2706 3.98935
24.491 36.8836 2
26.6731 37.3704 -0.00528726
25.0534 43.2318 0.0136323
23.8098 39.4504 0.0261413
22.8369 41.8415 2
21.571 38.512 2
20.5627 40.6535 3.98139
19.9382 37.7877 3.98547
21.7949 44.0005 0.00970365
19.651 42.9224 2
17.2833 42.1231 3.98291
18.9078 45.0094 0.0132831
16.895 44.4089 2
14.8 44.2236 3.98296
16.5715 46.2451 0.0144275
14.8031 46.1178 2
12.9348 46.3183 3.9839
14.8859 47.7004 0.0145513
13.2656 48.0344 2
11.4655 48.5706 3.98475
13.7606 49.5745 0.0148515
12.0959 50.2759 2
10.2509 51.0977 3.98565
12.8782 51.8994 0.0149667
11.1263 52.8558 2
9.2278 53.9027 3.98738
8.38314 56.9907 3.99242
10.3198 55.7257 2
12.132 54.5479 0.014005
7.74927 60.3285 4
9.69951 58.8573 2
11.5302 57.4738 0.0117625
9.306 62.2255 2
11.1329 60.6335 0.0067637
10.9835 64.0165 0
13.945 21.7278 3.98479
15.1358 20.1625 2
13.4436 18.882 3.98612
16.3937 18.631 0.0143504
14.7444 17.2866 2
13.0275 15.8697 3.98843
16.0998 15.7662 0.0135838
14.4826 14.2783 2
12.7824 12.683 3.99314
16.0204 12.7986 0.011039
14.4453 11.11 2
12.7746 9.30605 4
16.2027 9.65955 0.00661714
14.6715 7.74924 2
16.6661 6.31991 0
22.8736 33.7891 3.98843
25.1316 34.2915 2
27.1847 34.7391 -0.00379413
17.592 24.0145 3.98473
17.8325 22.2958 2
14.2841 24.4255 3.98247
15.5046 22.8928 2
16.6643 21.3514 0.0155298
18.9643 27.1765 3.97845
19.7061 21.5477 0.0142149
19.6196 24.353 2
21.044 30.6448 3.97959
22.7907 24.5775 0.0175256
21.8177 27.8016 2
23.5859 31.1742 2
24.4276 28.5143 0.0244754
25.9555 31.7158 0.0257939
20.0506 35.9178 3.98767
22.2768 36.271 2
24.491 36.8822 0.0183772
22.8365 41.8401 0.016579
21.5706 38.5117 0.016684
20.5631 40.6537 2
19.9384 37.7881 2
17.9441 39.0111 3.98392
19.6502 42.9221 0.0150948
17.2839 42.1235 2
14.7432 41.9351 3.98228
16.8944 44.4087 0.0156287
14.8005 44.2237 2
12.6723 44.4109 3.98282
14.8027 46.1177 0.0155671
12.9351 46.3184 2
10.9656 46.7518 3.98399
13.2653 48.0344 0.0151988
11.4656 48.5707 2
9.51308 49.2557 3.98531
12.0957 50.2759 0.0149184
10.251 51.0978 2
8.26005 52.0142 3.98723
11.1263 52.8558 0.0141933
9.22781 53.9028 2
7.19208 55.0415 3.9919
6.31991 58.3339 4
8.38314 56.991 2
10.3198 55.7255 0.0123075
7.74924 60.3285 2
9.69953 58.857 0.00709931
9.30605 62.2254 0
13.2045 25.3409 3.98502
12.8097 23.2573 3.98414
13.9449 21.7275 2
12.2272 20.5301 3.98596
15.1358 20.1627 0.0147582
13.4436 18.8817 2
11.6565 17.5496 3.98812
14.7444 17.2869 0.0137178
13.0275 15.8693 2
11.2196 14.3672 3.99292
14.4825 14.2786 0.0112455
12.7824 12.6827 2
10.9835 10.9835 4
14.4453 11.1102 0.00671784
12.7745 9.306 2
14.6715 7.74927 0
20.444 33.3806 3.98561
22.8735 33.7898 2
25.1315 34.2901 0.0160225
15.8591 26.3763 3.98085
17.5918 24.0142 2
17.8324 22.2961 0.013738
14.284 24.4252 2
15.5047 22.8931 0.0163792
18.2962 30.1521 3.97894
18.9641 27.1764 2
19.6198 24.3533 0.0154783
21.0439 30.6453 2
21.818 27.8016 0.0236192
23.586 31.1735 0.0182599
17.5636 35.9605 3.98807
20.0505 35.9183 2
22.2769 36.2706 0.0106502
20.5627 40.6535 0.0186085
19.9382 37.7877 0.0145291
17.9443 39.0114 2
14.2436 39.1846 3.98456
17.2833 42.1231 0.0170914
14.7436 41.9353 2
12.3571 42.2912 3.98299
14.8 44.2236 0.0170378
12.6726 44.4111 2
10.541 44.8177 3.98332
12.9348 46.3183 0.016098
10.9658 46.752 2
8.89462 47.3327 3.98467
11.4655 48.5706 0.0152529
9.51317 49.2558 2
7.42641 50.0461 3.98697
10.2509 51.0977 0.0143531
8.26008 52.0143 2
6.13246 53.0162 3.99135
9.2278 53.9027 0.0126172
7.1921 55.0418 2
5.0241 56.25 4
6.31988 58.3339 2
8.38314 56.9907 0.00757642
7.74927 60.3285 0
13.4374 26.7939 3.98193
11.9219 24.768 3.9834
13.2043 25.3406 2
11.1285 22.2153 3.98546
12.8096 23.257 2
13.945 21.7278 0.0152064
12.2271 20.5297 2
10.3857 19.304 3.98787
13.4436 18.882 0.0138815
11.6566 17.5492 2
9.76051 16.1495 3.9927
13.0275 15.8697 0.0115739
11.2197 14.3668 2
9.30607 12.7746 4
12.7824 12.683 0.00686385
10.9835 10.9835 2
12.7746 9.30605 0
17.7523 33.0978 3.98392
20.4439 33.3812 2
22.8736 33.7891 0.0115734
15.44 29.6181 3.98019
15.8589 26.3761 2
17.592 24.0145 0.0152706
14.2841 24.4255 0.0175339
18.2961 30.1524 2
18.9643 27.1765 0.0215503
21.044 30.6448 0.0204135
14.8312 36.0161 3.98653
17.5635 35.9609 2
20.0506 35.9178 0.0123318
12.5458 37.833 3.9841
17.9441 39.0111 0.0160773
14.2437 39.1849 2
11.8678 40.1512 3.98471
14.7432 41.9351 0.017717
12.3573 42.2914 2
10.1389 42.7899 3.9829
12.6723 44.4109 0.0171836
10.5413 44.8179 2
8.37162 45.3326 3.98422
10.9656 46.7518 0.016009
8.89474 47.3329 2
6.7173 48.0099 3.98646
9.51308 49.2557 0.0146946
7.42644 50.0462 2
5.2089 50.9187 3.99081
8.26005 52.0142 0.0127749
6.13249 53.0164 2
3.86727 54.0858 4
7.19208 55.0415 0.00810297
5.02404 56.25 2
6.31991 58.3339 0
12.8898 29.0166 3.98024
11.3502 26.4703 3.98274
13.4372 26.7938 2
10.1868 23.951 3.98438
11.9217 24.7678 2
13.2045 25.3409 0.0149776
9.23688 21.1237 3.98737
11.1284 22.2149 2
12.8097 23.2573 0.0158639
12.2272 20.5301 0.0140371
10.3857 19.3036 2
8.41634 18.0195 3.99243
11.6565 17.5496 0.0118816
9.76055 16.1492 2
7.74928 14.6715 4
11.2196 14.3672 0.00707922
9.30602 12.7745 2
10.9835 10.9835 0
14.4257 32.8502 3.98323
17.7522 33.0982 2
20.444 33.3806 0.0143914
15.4399 29.6182 2
15.8591 26.3763 0.0191473
18.2962 30.1521 0.0210629
12.8321 36.2079 3.98475
14.8311 36.0164 2
17.5636 35.9605 0.0119316
12.5458 37.8333 2
11.2257 38.3154 3.9836
14.2436 39.1846 0.0154419
11.868 40.1515 2
9.72302 40.7631 3.98421
12.3571 42.2912 0.0170129
10.1391 42.7901 2
7.92012 43.2792 3.98378
10.541 44.8177 0.0166767
8.37178 45.3328 2
6.1231 45.9137 3.98606
8.89462 47.3327 0.015335
6.71734 48.0101 2
4.42015 48.7584 3.99034
7.42641 50.0461 0.0130336
5.20892 50.919 2
2.85457 51.8506 4
6.13246 53.0162 0.00864932
3.86727 54.0858 2
5.0241 56.25 0
12.0282 31.2432 3.98348
10.7614 28.401 3.98144
12.8898 29.0166 2
9.40088 25.7839 3.98369
11.35 26.4701 2
13.4374 26.7939 0.0180725
8.22343 23.0107 3.98642
10.1867 23.9507 2
11.9219 24.768 0.0166017
7.19833 19.969 3.99184
9.23685 21.1233 2
11.1285 22.2153 0.0145358
10.3857 19.304 0.0121325
8.41638 18.0191 2
6.31992 16.6661 4
9.76051 16.1495 0.00729583
7.74926 14.6714 2
9.30607 12.7746 0
12.0409 34.288 3.98249
14.4257 32.8504 2
17.7523 33.0978 0.0160758
15.44 29.6181 0.0198084
10.7908 36.6117 3.98375
12.832 36.2081 2
14.8312 36.0161 0.0134707
12.5458 37.833 0.0158995
11.2257 38.3157 2
9.31753 38.829 3.98428
11.8678 40.1512 0.0152914
9.72312 40.7634 2
7.53083 41.2181 3.98431
10.1389 42.7899 0.017096
7.92022 43.2794 2
5.63467 43.7751 3.98578
8.37162 45.3326 0.0157774
6.12317 45.9139 2
3.76556 46.5432 3.99006
6.7173 48.0099 0.0135365
4.42017 48.7587 2
1.99014 49.554 4
5.2089 50.9187 0.00918627
2.85451 51.8506 2
3.86727 54.0858 0
10.8914 32.9096 3.98322
10.073 30.3709 3.98278
12.0281 31.2433 2
8.7084 27.7203 3.98279
10.7613 28.4009 2
12.8898 29.0166 0.0197566
7.34854 24.9717 3.98578
9.40076 25.7836 2
11.3502 26.4703 0.0172633
6.11507 21.9932 3.99084
8.22337 23.0103 2
10.1868 23.951 0.015623
5.02411 18.75 4
7.19836 19.9686 2
9.23688 21.1237 0.0126304
8.41634 18.0195 0.00756914
6.3199 16.6661 2
7.74928 14.6715 0
10.4048 34.9964 3.98317
12.0408 34.2881 2
14.4257 32.8502 0.0167705
8.99155 36.9863 3.98348
10.7907 36.6119 2
12.8321 36.2079 0.0152468
11.2257 38.3154 0.0164007
9.31751 38.8292 2
7.21104 39.1863 3.98468
9.72302 40.7631 0.0157933
7.53089 41.2184 2
5.24985 41.6191 3.9857
7.92012 43.2792 0.0162205
5.6347 43.7753 2
3.24304 44.2872 3.98999
6.1231 45.9137 0.0139417
3.7656 46.5435 2
1.27781 47.2057 4
4.42015 48.7584 0.00966228
1.99012 49.554 2
2.85457 51.8506 0
10.06 33.8752 3.98273
9.36544 32.1457 3.98359
10.8913 32.9096 2
8.05698 29.6863 3.98312
10.0729 30.3709 2
12.0282 31.2432 0.0165173
6.59197 26.9996 3.98504
8.70829 27.7202 2
10.7614 28.401 0.0185604
5.17006 24.0874 3.99004
7.34845 24.9715 2
9.40088 25.7839 0.0163116
3.86728 20.9142 4
6.11508 21.9928 2
8.22343 23.0107 0.0135773
5.02406 18.75 2
7.19833 19.969 0.00816011
6.31992 16.6661 0
8.81917 35.2771 3.9835
10.4047 34.9966 2
12.0409 34.288 0.0175124
6.99623 37.207 3.98399
8.9915 36.9865 2
10.7908 36.6117 0.016254
9.31753 38.829 0.0157207
7.21101 39.1866 2
4.97741 39.4705 3.98592
7.53083 41.2181 0.0156914
5.24987 41.6193 2
2.85346 42.0064 3.98963
5.63467 43.7751 0.0142225
3.24305 44.2875 2
0.720592 44.8159 4
3.76556 46.5432 0.00994198
1.27778 47.2057 2
1.99014 49.554 0
8.86196 33.6921 3.98342
10.0599 33.8752 2
7.49365 31.6021 3.98392
9.36534 32.1457 2
10.8914 32.9096 0.0167809
5.93685 29.0625 3.98483
8.0569 29.6862 2
10.073 30.3709 0.0172189
4.35743 26.2413 3.98951
6.59187 26.9995 2
8.7084 27.7203 0.0172087
2.85458 23.1494 4
5.17003 24.087 2
7.34854 24.9717 0.0142223
3.86728 20.9142 2
6.11507 21.9932 0.00915692
5.02411 18.75 0
6.94724 35.3043 3.98387
8.8191 35.2772 2
10.4048 34.9964 0.0168269
4.82825 37.3407 3.98552
6.9962 37.2073 2
8.99155 36.9863 0.0165196
7.21104 39.1863 0.0153168
4.97736 39.4708 2
2.60139 39.7166 3.98951
5.24985 41.6191 0.014303
2.85346 42.0067 2
0.320823 42.3947 4
3.24304 44.2872 0.0100074
0.720551 44.8159 2
1.27781 47.2057 0
7.10739 33.4564 3.98391
8.86188 33.6921 2
10.06 33.8752 0.0172707
5.40714 31.1282 3.98531
7.49353 31.6021 2
9.36544 32.1457 0.0164096
3.67897 28.4384 3.98937
5.93677 29.0624 2
8.05698 29.6863 0.0168834
1.99015 25.446 4
4.35739 26.2411 2
6.59197 26.9996 0.0149604
2.85453 23.1494 2
5.17006 24.0874 0.00995921
3.86728 20.9142 0
4.84299 35.2503 3.98532
6.94719 35.3044 2
8.81917 35.2771 0.0164984
2.49297 37.4292 3.98925
4.82824 37.3409 2
6.99623 37.207 0.0160126
4.97741 39.4705 0.0140831
2.60136 39.7168 2
0.080333 39.9526 4
2.85346 42.0064 0.0103664
0.320817 42.3947 2
0.720592 44.8159 0
5.03642 33.1868 3.98541
7.1073 33.4564 2
8.86196 33.6921 0.0165782
3.14303 30.6621 3.98962
5.40704 31.1282 2
7.49365 31.6021 0.0160787
1.27793 27.7943 4
3.67893 28.4383 2
5.93685 29.0625 0.0151652
1.99013 25.446 2
4.35743 26.2413 0.0104942
2.85458 23.1494 0
2.54527 35.1578 3.98916
4.84295 35.2505 2
6.94724 35.3043 0.0161344
0 37.5 4
2.49298 37.4294 2
4.82825 37.3407 0.0144782
2.60139 39.7166 0.0104909
0.0802903 39.9526 2
0.320823 42.3947 0
2.76293 32.9029 3.98947
5.03634 33.1869 2
7.10739 33.4564 0.016086
0.721173 30.1842 4
3.14297 30.6621 2
5.40714 31.1282 0.0146917
1.27779 27.7943 2
3.67897 28.4384 0.0106275
1.99015 25.446 0
0.0806499 35.0474 4
2.54525 35.158 2
4.84299 35.2503 0.014682
0 37.5 2
2.49297 37.4292 0.0107547
0.080333 39.9526 0
0.32156 32.6054 4
2.76288 32.903 2
5.03642 33.1868 0.0145947
0.72056 30.1841 2
3.14303 30.6621 0.0103816
1.27793 27.7943 0
0.0802889 35.0474 2
2.54527 35.1578 0.0108433
0 37.5 0
0.320817 32.6053 2
2.76293 32.9029 0.0105278
0.721173 30.1842 0
0.0806499 35.0474 0
0.32156 32.6054 0
CELLS 1910 17190
8 18 6 25 56 2 0 5 16
8 57 23 6 18 17 4 0 2
8 78 36 9 29 31 11 1 7
8 31 11 1 7 79 37 10 30
8 110 57 18 50 48 17 2 14
8 50 18 56 111 14 2 16 49
8 116 62 22 55 52 20 3 15
8 56 25 67 118 16 5 24 53
8 119 63 23 57 54 21 4 17
8 55 22 63 119 15 3 21 54
8 58 26 68 121 18 6 25 56
8 122 65 26 58 57 23 6 18
8 73 31 7 27 142 79 30 71
8 143 78 29 72 73 31 7 27
8 83 147 76 34 32 74 28 8
8 84 148 78 36 33 75 29 9
8 76 34 8 28 148 84 33 75
8 37 79 150 86 10 30 77 35
8 151 87 36 78 80 38 11 31
8 80 38 11 31 152 88 37 79
8 175 100 42 94 96 44 12 40
8 44 96 176 101 12 40 95 43
8 101 176 98 46 43 95 41 13
8 46 98 178 103 13 41 97 45
8 178 103 45 97 147 83 32 74
8 189 116 55 109 106 52 15 47
8 111 56 118 191 49 16 53 107
8 192 119 57 110 108 54 17 48
8 109 55 119 192 47 15 54 108
8 194 122 58 112 110 57 18 50
8 112 58 121 195 50 18 56 111
8 115 61 19 51 197 124 59 113
8 115 61 125 198 51 19 60 114
8 198 125 62 116 114 60 20 52
8 200 127 64 120 116 62 22 55
8 118 67 132 202 53 24 66 117
8 121 68 133 203 56 25 67 118
8 120 64 128 204 55 22 63 119
8 204 128 65 122 119 63 23 57
8 206 134 68 121 123 69 26 58
8 123 69 26 58 207 131 65 122
8 226 147 74 138 140 76 28 70
8 229 148 75 139 143 78 29 72
8 140 76 28 70 229 148 75 139
8 142 79 30 71 231 150 77 141
8 144 80 31 73 232 152 79 142
8 233 151 78 143 144 80 31 73
8 150 86 35 77 235 154 81 145
8 235 154 81 145 146 82 39 91
8 146 82 39 91 236 155 90 165
8 238 157 83 147 149 85 34 76
8 239 158 84 148 151 87 36 78
8 149 85 34 76 239 158 84 148
8 152 88 37 79 241 160 86 150
8 242 161 87 151 153 89 38 80
8 153 89 38 80 243 162 88 152
8 171 98 41 92 265 178 97 169
8 265 178 97 169 226 147 74 138
8 172 96 40 93 266 176 95 170
8 266 176 95 170 171 98 41 92
8 269 175 94 173 172 96 40 93
8 271 180 99 174 175 100 42 94
8 197 124 59 113 271 180 99 174
8 272 181 100 175 177 102 44 96
8 273 182 101 176 179 104 46 98
8 177 102 44 96 273 182 101 176
8 179 104 46 98 275 184 103 178
8 275 184 103 178 238 157 83 147
8 188 115 51 105 283 197 113 186
8 188 115 198 284 105 51 114 187
8 284 198 116 189 187 114 52 106
8 286 200 120 193 189 116 55 109
8 191 118 202 288 107 53 117 190
8 195 121 203 289 111 56 118 191
8 193 120 204 290 109 55 119 192
8 290 204 122 194 192 119 57 110
8 196 123 58 112 292 207 122 194
8 293 206 121 195 196 123 58 112
8 199 126 61 115 297 211 124 197
8 298 212 127 200 198 125 62 116
8 199 126 212 298 115 61 125 198
8 205 129 64 120 300 214 127 200
8 301 217 130 201 202 132 66 117
8 209 136 168 264 301 217 130 201
8 302 219 132 202 203 133 67 118
8 303 220 133 203 206 134 68 121
8 205 129 215 304 120 64 128 204
8 304 215 131 207 204 128 65 122
8 306 221 134 206 208 135 69 123
8 208 135 69 123 307 218 131 207
8 210 137 167 263 309 223 136 209
8 328 238 147 226 230 149 76 140
8 228 146 91 166 329 236 165 260
8 231 150 77 141 330 235 145 227
8 330 235 145 227 228 146 91 166
8 332 239 148 229 233 151 78 143
8 230 149 76 140 332 239 148 229
8 232 152 79 142 334 241 150 231
8 234 153 80 144 335 243 152 232
8 336 242 151 233 234 153 80 144
8 236 155 90 165 338 245 164 259
8 241 160 86 150 339 246 154 235
8 339 246 154 235 237 156 82 146
8 237 156 82 146 340 247 155 236
8 342 249 157 238 240 159 85 149
8 343 250 158 239 242 161 87 151
8 240 159 85 149 343 250 158 239
8 243 162 88 152 345 252 160 241
8 244 163 253 346 153 89 161 242
8 244 163 89 153 347 254 162 243
8 311 224 261 371 210 137 167 263
8 263 167 262 372 209 136 168 264
8 267 179 98 171 375 275 178 265
8 375 275 178 265 328 238 147 226
8 376 273 176 266 267 179 98 171
8 268 177 96 172 376 273 176 266
8 379 272 175 269 268 177 96 172
8 380 271 174 270 269 175 94 173
8 283 197 113 186 380 271 174 270
8 381 277 180 271 272 181 100 175
8 297 211 124 197 381 277 180 271
8 382 278 181 272 274 183 102 177
8 274 183 102 177 383 279 182 273
8 383 279 182 273 276 185 104 179
8 385 281 184 275 342 249 157 238
8 276 185 104 179 385 281 184 275
8 285 199 115 188 393 297 197 283
8 394 298 200 286 284 198 116 189
8 285 199 298 394 188 115 198 284
8 291 205 120 193 396 300 200 286
8 397 301 201 287 288 202 117 190
8 295 209 264 374 397 301 201 287
8 398 302 202 288 289 203 118 191
8 399 303 203 289 293 206 121 195
8 291 205 304 400 193 120 204 290
8 400 304 207 292 290 204 122 194
8 294 208 123 196 402 307 207 292
8 403 306 206 293 294 208 123 196
8 296 210 263 373 405 309 209 295
8 408 312 213 299 297 211 126 199
8 299 213 313 409 199 126 212 298
8 409 313 214 300 298 212 127 200
8 305 216 129 205 411 315 214 300
8 412 318 217 301 302 219 132 202
8 309 223 136 209 412 318 217 301
8 413 320 219 302 303 220 133 203
8 306 221 321 414 206 134 220 303
8 307 218 131 207 415 316 215 304
8 305 216 316 415 205 129 215 304
8 417 322 221 306 308 222 135 208
8 308 222 135 208 418 319 218 307
8 310 225 137 210 420 325 223 309
8 423 326 224 311 310 225 137 210
8 329 236 165 260 441 338 259 368
8 442 342 238 328 333 240 149 230
8 331 237 146 228 443 340 236 329
8 334 241 150 231 444 339 235 330
8 444 339 235 330 331 237 146 228
8 446 343 239 332 336 242 151 233
8 333 240 149 230 446 343 239 332
8 335 243 152 232 448 345 241 334
8 337 244 153 234 449 347 243 335
8 337 244 346 450 234 153 242 336
8 338 245 164 259 452 349 258 367
8 340 247 155 236 453 350 245 338
8 345 252 160 241 454 351 246 339
8 454 351 246 339 341 248 156 237
8 341 248 156 237 455 352 247 340
8 240 159 251 344 342 249 354 457
8 242 161 253 346 343 250 355 458
8 343 250 355 458 240 159 251 344
8 347 254 162 243 460 357 252 345
8 348 255 358 461 244 163 253 346
8 348 255 163 244 462 359 254 347
8 473 360 257 365 363 256 364 482
8 452 349 258 367 365 257 366 485
8 422 324 369 488 311 224 261 371
8 371 261 370 490 263 167 262 372
8 407 311 371 491 296 210 263 373
8 373 263 372 492 295 209 264 374
8 493 385 275 375 442 342 238 328
8 377 276 179 267 493 385 275 375
8 378 274 177 268 494 383 273 376
8 494 383 273 376 377 276 179 267
8 497 382 272 379 378 274 177 268
8 498 381 271 380 379 272 175 269
8 393 297 197 283 498 381 271 380
8 499 387 277 381 382 278 181 272
8 408 312 211 297 499 387 277 381
8 500 388 278 382 384 280 183 274
8 501 389 279 383 386 282 185 276
8 384 280 183 274 501 389 279 383
8 386 282 185 276 503 391 281 385
8 503 391 281 385 457 354 249 342
8 511 408 299 395 393 297 199 285
8 395 299 409 512 285 199 298 394
8 512 409 300 396 394 298 200 286
8 401 305 205 291 514 411 300 396
8 515 412 301 397 398 302 202 288
8 405 309 209 295 515 412 301 397
8 516 413 302 398 399 303 203 289
8 403 306 414 517 293 206 303 399
8 402 307 207 292 518 415 304 400
8 401 305 415 518 291 205 304 400
8 404 308 208 294 520 418 307 402
8 521 417 306 403 404 308 208 294
8 406 310 210 296 523 420 309 405
8 526 423 311 407 406 310 210 296
8 410 314 213 299 527 424 312 408
8 528 425 315 411 409 313 214 300
8 410 314 425 528 299 213 313 409
8 416 317 216 305 530 427 315 411
8 531 430 318 412 413 320 219 302
8 420 325 223 309 531 430 318 412
8 532 432 320 413 414 321 220 303
8 417 322 433 533 306 221 321 414
8 418 319 218 307 534 428 316 415
8 416 317 428 534 305 216 316 415
8 419 323 434 536 308 222 322 417
8 419 323 222 308 537 431 319 418
8 421 327 225 310 539 438 325 420
8 421 327 439 541 310 225 326 423
8 543 437 324 422 423 326 224 311
8 441 338 259 368 559 452 367 486
8 443 340 236 329 560 453 338 441
8 333 240 344 447 442 342 457 561
8 445 341 237 331 562 455 340 443
8 448 345 241 334 563 454 339 444
8 563 454 339 444 445 341 237 331
8 336 242 346 450 446 343 458 565
8 446 343 458 565 333 240 344 447
8 449 347 243 335 567 460 345 448
8 451 348 244 337 568 462 347 449
8 451 348 461 569 337 244 346 450
8 570 463 349 452 473 360 257 365
8 453 350 245 338 570 463 349 452
8 455 352 247 340 571 464 350 453
8 460 357 252 345 572 465 351 454
8 572 465 351 454 456 353 248 341
8 456 353 248 341 573 466 352 455
8 344 251 356 459 457 354 468 575
8 458 355 469 576 344 251 356 459
8 346 253 358 461 458 355 469 576
8 462 359 254 347 578 471 357 460
8 348 255 359 462 461 358 472 579
8 591 474 360 473 475 361 256 363
8 475 361 256 363 594 477 362 479
8 363 256 364 482 479 362 480 603
8 590 473 365 484 481 363 482 605
8 482 364 257 365 606 483 366 485
8 559 452 367 486 484 365 485 607
8 542 436 487 609 422 324 369 488
8 525 422 488 611 407 311 371 491
8 488 369 489 612 371 261 370 490
8 491 371 490 613 373 263 372 492
8 495 386 276 377 614 503 385 493
8 614 503 385 493 561 457 342 442
8 615 501 383 494 495 386 276 377
8 496 384 274 378 615 501 383 494
8 618 500 382 497 496 384 274 378
8 619 499 381 498 497 382 272 379
8 511 408 297 393 619 499 381 498
8 620 505 387 499 500 388 278 382
8 527 424 312 408 620 505 387 499
8 502 390 506 621 384 280 388 500
8 622 507 389 501 504 392 282 386
8 502 390 280 384 622 507 389 501
8 504 392 282 386 624 509 391 503
8 624 509 391 503 575 468 354 457
8 513 410 299 395 630 527 408 511
8 631 528 411 514 512 409 300 396
8 513 410 528 631 395 299 409 512
8 519 416 305 401 633 530 411 514
8 634 531 412 515 516 413 302 398
8 523 420 309 405 634 531 412 515
8 635 532 413 516 517 414 303 399
8 521 417 533 636 403 306 414 517
8 520 418 307 402 637 534 415 518
8 519 416 534 637 401 305 415 518
8 522 419 308 404 639 537 418 520
8 522 419 536 640 404 308 417 521
8 524 421 310 406 642 539 420 523
8 524 421 541 644 406 310 423 526
8 646 543 422 525 526 423 311 407
8 529 426 314 410 647 544 424 527
8 528 425 545 648 411 315 427 530
8 529 426 545 648 410 314 425 528
8 535 429 317 416 649 546 427 530
8 650 548 430 531 532 432 320 413
8 539 438 325 420 650 548 430 531
8 533 433 550 651 414 321 432 532
8 536 434 551 652 417 322 433 533
8 537 431 319 418 653 547 428 534
8 535 429 547 653 416 317 428 534
8 538 435 552 654 419 323 434 536
8 538 435 323 419 655 549 431 537
8 540 440 327 421 657 556 438 539
8 540 440 557 659 421 327 439 541
8 541 439 555 660 423 326 437 543
8 661 554 436 542 543 437 324 422
8 676 570 452 559 590 473 365 484
8 560 453 338 441 676 570 452 559
8 562 455 340 443 677 571 453 560
8 447 344 459 566 561 457 575 678
8 564 456 341 445 679 573 455 562
8 567 460 345 448 680 572 454 563
8 680 572 454 563 564 456 341 445
8 565 458 576 682 447 344 459 566
8 450 346 461 569 565 458 576 682
8 568 462 347 449 684 578 460 567
8 451 348 462 568 569 461 579 685
8 686 580 463 570 591 474 360 473
8 571 464 350 453 686 580 463 570
8 573 466 352 455 687 581 464 571
8 572 465 582 688 460 357 471 578
8 574 467 582 688 456 353 465 572
8 574 467 353 456 689 583 466 573
8 459 356 470 577 575 468 585 691
8 576 469 586 692 459 356 470 577
8 461 358 472 579 576 469 586 692
8 462 359 471 578 579 472 588 694
8 704 591 473 590 593 475 363 481
8 595 476 592 705 475 361 474 591
8 593 475 363 481 707 594 479 602
8 594 477 362 479 709 598 478 600
8 595 476 361 475 711 597 477 594
8 479 362 480 603 600 478 601 720
8 481 363 482 605 602 479 603 722
8 603 480 364 482 723 604 483 606
8 605 482 365 484 724 606 485 607
8 656 553 608 726 542 436 487 609
8 645 542 609 728 525 422 488 611
8 609 487 610 729 488 369 489 612
8 611 488 612 730 491 371 490 613
8 616 504 386 495 731 624 503 614
8 731 624 503 614 678 575 457 561
8 732 622 501 615 616 504 386 495
8 617 502 384 496 732 622 501 615
8 617 502 621 735 496 384 500 618
8 736 620 499 619 618 500 382 497
8 630 527 408 511 736 620 499 619
8 621 506 626 737 500 388 505 620
8 647 544 424 527 737 626 505 620
8 623 508 627 738 502 390 506 621
8 623 508 390 502 739 628 507 622
8 625 510 628 739 504 392 507 622
8 740 629 509 624 691 585 468 575
8 625 510 392 504 740 629 509 624
8 632 529 410 513 744 647 527 630
8 631 528 648 745 514 411 530 633
8 632 529 648 745 513 410 528 631
8 638 535 416 519 746 649 530 633
8 747 650 531 634 635 532 413 516
8 642 539 420 523 747 650 531 634
8 636 533 651 748 517 414 532 635
8 640 536 652 749 521 417 533 636
8 639 537 418 520 750 653 534 637
8 638 535 653 750 519 416 534 637
8 641 538 419 522 751 655 537 639
8 641 538 654 752 522 419 536 640
8 643 540 421 524 753 657 539 642
8 643 540 659 755 524 421 541 644
8 644 541 660 757 526 423 543 646
8 758 661 542 645 646 543 422 525
8 529 426 544 647 648 545 662 759
8 530 427 545 648 649 546 663 760
8 535 429 546 649 653 547 664 761
8 762 666 548 650 651 550 432 532
8 657 556 438 539 762 666 548 650
8 652 551 668 763 533 433 550 651
8 654 552 669 764 536 434 551 652
8 655 549 431 537 765 665 547 653
8 538 435 549 655 654 552 667 766
8 661 554 671 768 542 436 553 656
8 658 558 440 540 769 674 556 657
8 658 558 675 770 540 440 557 659
8 659 557 673 771 541 439 555 660
8 660 555 672 772 543 437 554 661
8 788 686 570 676 704 591 473 590
8 677 571 453 560 788 686 570 676
8 679 573 455 562 789 687 571 677
8 566 459 577 683 678 575 691 790
8 681 574 456 564 791 689 573 679
8 680 572 688 792 567 460 578 684
8 681 574 688 792 564 456 572 680
8 682 576 692 794 566 459 577 683
8 569 461 579 685 682 576 692 794
8 568 462 578 684 685 579 694 796
8 687 581 464 571 798 696 580 686
8 798 696 580 686 705 592 474 591
8 689 583 466 573 799 697 581 687
8 688 582 698 800 578 471 588 694
8 690 584 698 800 574 467 582 688
8 690 584 467 574 801 699 583 689
8 693 587 701 803 577 470 585 691
8 693 587 470 577 804 702 586 692
8 695 589 702 804 579 472 586 692
8 695 589 472 579 805 703 588 694
8 708 595 705 813 593 475 591 704
8 710 596 706 814 595 476 592 705
8 707 594 479 602 816 709 600 719
8 708 595 475 593 817 711 594 707
8 709 598 478 600 819 715 599 717
8 711 597 477 594 820 714 598 709
8 710 596 476 595 822 713 597 711
8 600 478 601 720 717 599 718 832
8 602 479 603 722 719 600 720 834
8 720 601 480 603 835 721 604 723
8 722 603 482 605 836 723 606 724
8 767 670 725 839 656 553 608 726
8 756 656 726 841 645 542 609 728
8 726 608 727 842 609 487 610 729
8 728 609 729 843 611 488 612 730
8 844 740 624 731 790 691 575 678
8 733 625 504 616 844 740 624 731
8 734 623 502 617 845 739 622 732
8 733 625 739 845 616 504 622 732
8 734 623 738 846 617 502 621 735
8 735 621 737 847 618 500 620 736
8 744 647 527 630 847 737 620 736
8 621 506 627 738 737 626 741 848
8 647 544 626 737 759 662 741 848
8 623 508 628 739 738 627 742 849
8 740 629 585 691 850 743 700 802
8 625 510 629 740 739 628 743 850
8 632 529 647 744 745 648 759 854
8 633 530 648 745 746 649 760 855
8 638 535 649 746 750 653 761 856
8 857 762 650 747 748 651 532 635
8 753 657 539 642 857 762 650 747
8 749 652 763 858 636 533 651 748
8 752 654 764 859 640 536 652 749
8 751 655 537 639 860 765 653 750
8 641 538 655 751 752 654 766 861
8 754 658 540 643 862 769 657 753
8 754 658 770 863 643 540 659 755
8 755 659 771 864 644 541 660 757
8 758 661 768 866 645 542 656 756
8 757 660 772 867 646 543 661 758
8 759 662 773 868 648 545 663 760
8 649 546 663 760 761 664 774 871
8 765 665 547 653 872 775 664 761
8 873 777 666 762 763 668 550 651
8 769 674 556 657 873 777 666 762
8 764 669 779 874 652 551 668 763
8 654 552 667 766 764 669 778 875
8 655 549 665 765 766 667 776 876
8 768 671 782 877 656 553 670 767
8 772 672 783 878 661 554 671 768
8 658 558 674 769 770 675 786 879
8 659 557 675 770 771 673 785 881
8 882 784 672 772 771 673 555 660
8 789 687 571 677 897 798 686 788
8 897 798 686 788 813 705 591 704
8 791 689 573 679 898 799 687 789
8 795 693 803 900 683 577 691 790
8 793 690 574 681 901 801 689 791
8 792 688 800 902 684 578 694 796
8 793 690 800 902 681 574 688 792
8 795 693 577 683 903 804 692 794
8 797 695 804 903 685 579 692 794
8 797 695 579 685 904 805 694 796
8 905 806 697 799 798 696 581 687
8 814 706 806 905 705 592 696 798
8 689 583 697 799 801 699 808 907
8 800 698 809 908 694 588 703 805
8 690 584 699 801 800 698 809 908
8 803 701 810 909 691 585 700 802
8 693 587 702 804 803 701 811 910
8 695 589 703 805 804 702 812 911
8 818 710 814 919 708 595 705 813
8 821 712 815 920 710 596 706 814
8 816 709 600 719 922 819 717 831
8 817 711 594 707 923 820 709 816
8 818 710 595 708 924 822 711 817
8 819 715 599 717 926 827 716 829
8 820 714 598 709 927 826 715 819
8 929 825 713 822 820 714 597 711
8 821 712 596 710 930 824 713 822
8 717 599 718 832 829 716 830 942
8 719 600 720 834 831 717 832 944
8 832 718 601 720 945 833 721 835
8 834 720 603 722 946 835 723 836
8 869 780 838 950 767 670 725 839
8 865 767 839 952 756 656 726 841
8 839 725 840 953 726 608 727 842
8 841 726 842 954 728 609 729 843
8 844 740 691 790 955 850 802 899
8 733 625 740 844 845 739 850 955
8 734 623 739 845 846 738 849 956
8 735 621 738 846 847 737 848 957
8 744 647 737 847 854 759 848 957
8 738 627 742 849 848 741 851 958
8 848 741 851 958 759 662 773 868
8 850 743 700 802 959 852 807 906
8 849 742 628 739 959 852 743 850
8 854 759 868 965 745 648 760 855
8 746 649 760 855 856 761 871 966
8 860 765 653 750 967 872 761 856
8 968 873 762 857 858 763 651 748
8 862 769 657 753 968 873 762 857
8 859 764 874 969 749 652 763 858
8 752 654 766 861 859 764 875 970
8 751 655 765 860 861 766 876 971
8 754 658 769 862 863 770 879 972
8 755 659 770 863 864 771 881 974
8 976 882 772 867 864 771 660 757
8 866 768 877 977 756 656 767 865
8 867 772 878 978 758 661 768 866
8 760 663 773 868 871 774 883 980
8 870 781 837 948 982 890 780 869
8 982 890 780 869 877 782 670 767
8 761 664 774 871 872 775 884 984
8 876 776 665 765 985 885 775 872
8 873 777 668 763 986 887 779 874
8 769 674 777 873 879 786 887 986
8 764 669 778 875 874 779 888 987
8 766 667 776 876 875 778 886 988
8 878 783 892 989 768 671 782 877
8 878 783 672 772 990 893 784 882
8 880 787 675 770 991 896 786 879
8 880 787 895 992 770 675 785 881
8 881 785 894 993 771 673 784 882
8 1006 905 799 898 897 798 687 789
8 919 814 905 1006 813 705 798 897
8 791 689 799 898 901 801 907 1007
8 900 803 909 1009 790 691 802 899
8 795 693 804 903 900 803 910 1010
8 902 800 908 1011 796 694 805 904
8 793 690 801 901 902 800 908 1011
8 797 695 805 904 903 804 911 1012
8 799 697 806 905 907 808 912 1013
8 920 815 912 1013 814 706 806 905
8 802 700 810 909 906 807 913 1014
8 801 699 808 907 908 809 914 1015
8 805 703 809 908 911 812 915 1016
8 803 701 811 910 909 810 916 1017
8 911 812 917 1018 804 702 811 910
8 925 821 920 1030 818 710 814 919
8 928 823 921 1031 821 712 815 920
8 922 819 717 831 1033 926 829 941
8 923 820 709 816 1034 927 819 922
8 1035 929 822 924 923 820 711 817
8 925 821 710 818 1036 930 822 924
8 1038 933 825 929 927 826 714 820
8 926 827 716 829 1039 935 828 939
8 927 826 715 819 1040 934 827 926
8 928 823 712 821 1041 931 824 930
8 1042 932 824 930 929 825 713 822
8 829 716 830 942 939 828 940 1058
8 831 717 832 944 941 829 942 1060
8 942 830 718 832 1061 943 833 945
8 944 832 720 834 1062 945 835 946
8 981 889 947 1064 870 781 837 948
8 948 837 949 1067 869 780 838 950
8 975 869 950 1069 865 767 839 952
8 950 838 951 1070 839 725 840 953
8 952 839 953 1071 841 726 842 954
8 955 850 802 899 1072 959 906 1008
8 956 849 739 845 1072 959 850 955
8 846 738 849 956 957 848 958 1073
8 957 848 958 1073 854 759 868 965
8 849 742 852 959 958 851 961 1076
8 960 853 961 1076 906 807 852 959
8 958 851 961 1076 868 773 883 980
8 960 853 807 906 1077 963 913 1014
8 855 760 868 965 966 871 980 1085
8 856 761 871 966 967 872 984 1086
8 971 876 765 860 1087 985 872 967
8 968 873 763 858 1088 986 874 969
8 862 769 873 968 972 879 986 1088
8 859 764 875 970 969 874 987 1089
8 861 766 876 971 970 875 988 1090
8 973 880 770 863 1091 991 879 972
8 973 880 992 1092 863 770 881 974
8 974 881 993 1093 864 771 882 976
8 979 870 948 1066 1094 982 869 975
8 1094 982 869 975 977 877 767 865
8 978 878 772 867 1095 990 882 976
8 978 878 989 1096 866 768 877 977
8 871 774 883 980 984 884 994 1099
8 983 891 999 1100 870 781 889 981
8 1101 1000 890 982 989 892 782 877
8 983 891 781 870 1101 1000 890 982
8 872 775 884 984 985 885 995 1103
8 876 776 885 985 988 886 996 1104
8 986 887 779 874 1105 998 888 987
8 879 786 887 986 991 896 998 1105
8 875 778 886 988 987 888 997 1106
8 990 893 1002 1107 878 783 892 989
8 1108 1003 893 990 993 894 784 882
8 880 787 896 991 992 895 1005 1109
8 993 894 785 881 1110 1004 895 992
8 898 799 905 1006 1007 907 1013 1120
8 1030 920 1013 1120 919 814 905 1006
8 901 801 907 1007 1011 908 1015 1121
8 899 802 909 1009 1008 906 1014 1122
8 900 803 910 1010 1009 909 1017 1123
8 1012 911 1018 1124 903 804 910 1010
8 904 805 908 1011 1012 911 1016 1125
8 1013 912 1020 1127 907 808 914 1015
8 1031 921 1020 1127 920 815 912 1013
8 1019 918 962 1075 1128 1021 913 1014
8 1128 1021 913 1014 1017 916 810 909
8 1015 914 1022 1129 908 809 915 1016
8 1016 915 1023 1130 911 812 917 1018
8 1018 917 1024 1131 910 811 916 1017
8 1037 928 1031 1148 925 821 920 1030
8 928 823 931 1041 1031 921 1032 1149
8 1033 926 829 941 1151 1039 939 1057
8 1034 927 819 922 1152 1040 926 1033
8 1153 1038 929 1035 1034 927 820 923
8 1154 1042 930 1036 1035 929 822 924
8 1037 928 821 925 1155 1041 930 1036
8 1039 935 828 939 1156 1047 938 1055
8 1157 1043 932 1042 1038 933 825 929
8 1038 933 826 927 1158 1045 934 1040
8 1040 934 827 926 1159 1046 935 1039
8 930 824 932 1042 1041 931 1044 1160
8 1051 936 1048 1165 1175 1052 937 1053
8 1156 1047 938 1055 1053 937 1054 1178
8 939 828 940 1058 1055 938 1056 1181
8 941 829 942 1060 1057 939 1058 1183
8 942 830 943 1061 1058 940 1059 1184
8 1060 942 832 944 1185 1061 945 1062
8 1082 964 1063 1188 981 889 947 1064
8 1097 981 1064 1190 979 870 948 1066
8 1064 947 1065 1191 948 837 949 1067
8 1066 948 1067 1193 975 869 950 1069
8 1067 949 1068 1194 950 838 951 1070
8 1069 950 1070 1195 952 839 953 1071
8 956 849 959 1072 1073 958 1076 1197
8 1074 960 1076 1197 1008 906 959 1072
8 1073 958 1076 1197 965 868 980 1085
8 1074 960 906 1008 1198 1077 1014 1122
8 1133 1026 1079 1199 1019 918 962 1075
8 1077 963 913 1014 1200 1080 962 1075
8 960 853 963 1077 1076 961 1078 1201
8 980 883 961 1076 1099 994 1078 1201
8 1210 1083 964 1082 1100 999 889 981
8 966 871 980 1085 1086 984 1099 1215
8 967 872 984 1086 1087 985 1103 1216
8 971 876 985 1087 1090 988 1104 1217
8 1088 986 874 969 1218 1105 987 1089
8 972 879 986 1088 1091 991 1105 1218
8 970 875 988 1090 1089 987 1106 1219
8 973 880 991 1091 1092 992 1109 1220
8 1093 993 881 974 1221 1110 992 1092
8 1222 1108 990 1095 1093 993 882 976
8 1223 1101 982 1094 1096 989 877 977
8 1098 983 870 979 1223 1101 982 1094
8 1095 990 1107 1224 978 878 989 1096
8 1098 983 1100 1225 979 870 981 1097
8 984 884 994 1099 1103 995 1111 1227
8 1102 1001 1115 1228 983 891 999 1100
8 1101 1000 892 989 1229 1116 1002 1107
8 1102 1001 891 983 1229 1116 1000 1101
8 985 885 995 1103 1104 996 1112 1230
8 988 886 996 1104 1106 997 1113 1231
8 1105 998 888 987 1232 1114 997 1106
8 991 896 998 1105 1109 1005 1114 1232
8 1108 1003 1117 1233 990 893 1002 1107
8 1108 1003 894 993 1233 1117 1004 1110
8 992 895 1005 1109 1110 1004 1118 1234
8 1120 1013 1127 1244 1007 907 1015 1121
8 1148 1031 1127 1244 1030 920 1013 1120
8 1121 1015 1129 1245 1011 908 1016 1125
8 1126 1019 1075 1196 1246 1128 1014 1122
8 1246 1128 1014 1122 1123 1017 909 1009
8 1124 1018 1131 1247 1010 910 1017 1123
8 1125 1016 1130 1248 1012 911 1018 1124
8 1127 1020 1137 1254 1015 914 1022 1129
8 1031 921 1032 1149 1127 1020 1137 1254
8 1134 1027 918 1019 1257 1140 1021 1128
8 1257 1140 1021 1128 1131 1024 916 1017
8 1129 1022 1141 1258 1016 915 1023 1130
8 1130 1023 1142 1259 1018 917 1024 1131
8 1261 1144 1025 1132 1133 1026 1079 1199
8 1255 1138 1025 1132 1135 1028 1144 1261
8 1133 1026 918 1019 1262 1145 1027 1134
8 1136 1029 1139 1256 1263 1146 1028 1135
8 1037 928 1041 1155 1148 1031 1149 1275
8 1041 931 1044 1160 1149 1032 1150 1276
8 1151 1039 939 1057 1278 1156 1055 1180
8 1152 1040 926 1033 1279 1159 1039 1151
8 1153 1038 927 1034 1280 1158 1040 1152
8 1281 1157 1042 1154 1153 1038 929 1035
8 1036 930 1042 1154 1155 1041 1160 1282
8 1283 1164 1046 1159 1156 1047 935 1039
8 1165 1048 1164 1283 1053 937 1047 1156
8 1157 1043 933 1038 1284 1161 1045 1158
8 1157 1043 1161 1284 1042 932 1044 1160
8 1040 934 1046 1159 1158 1045 1163 1285
8 1166 1049 1167 1292 1051 936 1048 1165
8 1166 1049 936 1051 1293 1168 1050 1172
8 1051 936 1052 1175 1172 1050 1173 1306
8 1174 1051 1165 1290 1308 1175 1053 1177
8 1053 937 1054 1178 1175 1052 1176 1309
8 1278 1156 1055 1180 1177 1053 1178 1311
8 1055 938 1056 1181 1178 1054 1179 1312
8 1057 939 1058 1183 1180 1055 1181 1314
8 1058 940 1059 1184 1181 1056 1182 1315
8 1060 942 1061 1185 1183 1058 1184 1316
8 1208 1081 1187 1321 1082 964 1063 1188
8 1209 1082 1188 1322 1097 981 1064 1190
8 1188 1063 1189 1323 1064 947 1065 1191
8 1190 1064 1191 1325 1066 948 1067 1193
8 1191 1065 1192 1326 1067 949 1068 1194
8 1067 1193 1069 950 1194 1327 1195 1070
8 1250 1133 1199 1330 1126 1019 1075 1196
8 1198 1077 1014 1122 1331 1200 1075 1196
8 1074 960 1077 1198 1197 1076 1201 1332
8 1085 980 1076 1197 1215 1099 1201 1332
8 1199 1079 1203 1333 1075 962 1080 1200
8 1132 1025 1119 1243 1199 1079 1203 1333
8 1201 1078 963 1077 1334 1202 1080 1200
8 1099 994 1078 1201 1227 1111 1202 1334
8 1343 1207 1081 1208 1210 1083 964 1082
8 1214 1084 1186 1319 1343 1207 1081 1208
8 1345 1210 1082 1209 1225 1100 981 1097
8 1346 1211 1083 1210 1228 1115 999 1100
8 1086 984 1099 1215 1216 1103 1227 1352
8 1087 985 1103 1216 1217 1104 1230 1353
8 1090 988 1104 1217 1219 1106 1231 1354
8 1218 1105 987 1089 1355 1232 1106 1219
8 1091 991 1105 1218 1220 1109 1232 1355
8 1092 992 1109 1220 1221 1110 1234 1356
8 1222 1108 1233 1357 1095 990 1107 1224
8 1222 1108 993 1093 1357 1233 1110 1221
8 1223 1101 989 1096 1358 1229 1107 1224
8 1226 1102 983 1098 1358 1229 1101 1223
8 1226 1102 1228 1359 1098 983 1100 1225
8 1103 995 1111 1227 1230 1112 1235 1360
8 1107 1002 1117 1233 1229 1116 1240 1362
8 1102 1001 1116 1229 1228 1115 1240 1362
8 1104 996 1112 1230 1231 1113 1236 1363
8 1364 1237 1114 1232 1231 1113 997 1106
8 1109 1005 1114 1232 1234 1118 1238 1365
8 1110 1004 1118 1234 1233 1117 1241 1366
8 1242 1374 1255 1138 1119 1243 1132 1025
8 1244 1127 1254 1376 1121 1015 1129 1245
8 1148 1031 1149 1275 1244 1127 1254 1376
8 1245 1129 1258 1377 1125 1016 1130 1248
8 1251 1134 1019 1126 1378 1257 1128 1246
8 1378 1257 1128 1246 1247 1131 1017 1123
8 1248 1130 1259 1379 1124 1018 1131 1247
8 1261 1381 1250 1133 1132 1249 1330 1199
8 1255 1380 1252 1135 1132 1249 1381 1261
8 1250 1133 1019 1126 1382 1262 1134 1251
8 1253 1136 1256 1385 1384 1263 1135 1252
8 1254 1137 1265 1387 1129 1022 1141 1258
8 1149 1032 1150 1276 1254 1137 1265 1387
8 1028 1135 1255 1138 1139 1256 1388 1266
8 1136 1029 1147 1264 1256 1139 1267 1389
8 1390 1268 1140 1257 1259 1142 1024 1131
8 1260 1143 1027 1134 1390 1268 1140 1257
8 1258 1141 1269 1391 1130 1023 1142 1259
8 1262 1145 1027 1134 1393 1271 1143 1260
8 1261 1144 1026 1133 1394 1272 1145 1262
8 1135 1028 1144 1261 1263 1146 1272 1394
8 1136 1029 1146 1263 1264 1147 1273 1395
8 1155 1041 1160 1282 1275 1149 1276 1405
8 1276 1150 1044 1160 1406 1277 1162 1286
8 1408 1283 1159 1279 1278 1156 1039 1151
8 1290 1165 1283 1408 1177 1053 1156 1278
8 1152 1040 1159 1279 1280 1158 1285 1409
8 1281 1157 1038 1153 1410 1284 1158 1280
8 1281 1157 1284 1410 1154 1042 1160 1282
8 1159 1046 1164 1283 1285 1163 1289 1412
8 1292 1167 1289 1412 1165 1048 1164 1283
8 1158 1045 1163 1285 1284 1161 1288 1413
8 1284 1161 1288 1413 1160 1044 1162 1286
8 1291 1166 1292 1418 1174 1051 1165 1290
8 1291 1166 1051 1174 1419 1293 1172 1305
8 1294 1169 1296 1421 1166 1049 1167 1292
8 1293 1168 1050 1172 1422 1295 1171 1303
8 1294 1169 1049 1166 1423 1297 1168 1293
8 1422 1295 1171 1303 1301 1170 1302 1435
8 1172 1050 1173 1306 1303 1171 1304 1438
8 1174 1051 1175 1308 1305 1172 1306 1440
8 1175 1052 1176 1309 1306 1173 1307 1441
8 1177 1053 1178 1311 1308 1175 1309 1443
8 1178 1054 1179 1312 1309 1176 1310 1444
8 1180 1055 1181 1314 1311 1178 1312 1446
8 1056 1181 1312 1179 1182 1315 1447 1313
8 1183 1058 1184 1316 1314 1181 1315 1448
8 1319 1186 1084 1214 1451 1317 1213 1350
8 1319 1186 1318 1453 1208 1081 1187 1321
8 1321 1187 1320 1456 1188 1063 1189 1323
8 1344 1208 1321 1457 1209 1082 1188 1322
8 1322 1188 1323 1458 1190 1064 1191 1325
8 1323 1189 1324 1459 1191 1065 1192 1326
8 1191 1325 1193 1067 1326 1460 1327 1194
8 1242 1374 1243 1119 1328 1462 1335 1204
8 1330 1199 1333 1465 1196 1075 1200 1331
8 1132 1249 1330 1199 1243 1375 1465 1333
8 1332 1201 1077 1198 1466 1334 1200 1331
8 1215 1099 1201 1332 1352 1227 1334 1466
8 1119 1243 1333 1203 1204 1335 1470 1338
8 1333 1203 1338 1470 1200 1080 1202 1334
8 1227 1111 1202 1334 1360 1235 1338 1470
8 1328 1462 1335 1204 1205 1336 1471 1339
8 1337 1206 1340 1472 1464 1329 1205 1336
8 1346 1211 1342 1479 1210 1083 1207 1343
8 1346 1211 1115 1228 1479 1342 1239 1361
8 1348 1212 1084 1214 1479 1342 1207 1343
8 1480 1343 1208 1344 1345 1210 1082 1209
8 1351 1214 1319 1454 1480 1343 1208 1344
8 1481 1346 1210 1345 1359 1228 1100 1225
8 1348 1212 1347 1483 1214 1084 1213 1350
8 1216 1103 1227 1352 1353 1230 1360 1488
8 1217 1104 1230 1353 1354 1231 1363 1489
8 1490 1364 1232 1355 1354 1231 1106 1219
8 1220 1109 1232 1355 1356 1234 1365 1491
8 1221 1110 1234 1356 1357 1233 1366 1492
8 1224 1107 1233 1357 1358 1229 1362 1493
8 1226 1102 1229 1358 1359 1228 1362 1493
8 1230 1112 1235 1360 1363 1236 1367 1496
8 1361 1239 1115 1228 1497 1371 1240 1362
8 1366 1241 1372 1498 1233 1117 1240 1362
8 1364 1237 1113 1231 1499 1368 1236 1363
8 1364 1237 1368 1499 1232 1114 1238 1365
8 1234 1118 1238 1365 1366 1241 1369 1500
8 1507 1373 1242 1374 1388 1266 1138 1255
8 1508 1374 1243 1375 1380 1255 1132 1249
8 1376 1254 1387 1509 1245 1129 1258 1377
8 1275 1149 1276 1405 1376 1254 1387 1509
8 1377 1258 1391 1510 1248 1130 1259 1379
8 1511 1390 1257 1378 1379 1259 1131 1247
8 1383 1260 1134 1251 1511 1390 1257 1378
8 1252 1135 1256 1385 1380 1255 1388 1512
8 1261 1381 1513 1394 1133 1250 1382 1262
8 1135 1252 1384 1263 1261 1381 1513 1394
8 1382 1262 1134 1251 1514 1393 1260 1383
8 1253 1136 1263 1384 1386 1264 1395 1516
8 1253 1136 1264 1386 1385 1256 1389 1517
8 1387 1265 1397 1519 1258 1141 1269 1391
8 1276 1150 1277 1406 1387 1265 1397 1519
8 1256 1139 1267 1389 1388 1266 1398 1520
8 1264 1147 1274 1396 1389 1267 1399 1521
8 1392 1270 1143 1260 1522 1400 1268 1390
8 1390 1268 1142 1259 1522 1400 1269 1391
8 1392 1270 1401 1523 1260 1143 1271 1393
8 1272 1394 1524 1402 1145 1262 1393 1271
8 1395 1273 1146 1263 1524 1402 1272 1394
8 1273 1395 1264 1147 1403 1526 1396 1274
8 1405 1276 1160 1282 1534 1406 1286 1411
8 1414 1287 1407 1535 1286 1162 1277 1406
8 1279 1159 1283 1408 1409 1285 1412 1537
8 1418 1292 1412 1537 1290 1165 1283 1408
8 1280 1158 1285 1409 1410 1284 1413 1538
8 1410 1284 1413 1538 1282 1160 1286 1411
8 1285 1163 1289 1412 1413 1288 1417 1540
8 1421 1296 1417 1540 1292 1167 1289 1412
8 1414 1287 1162 1286 1541 1416 1288 1413
8 1420 1294 1421 1545 1291 1166 1292 1418
8 1419 1293 1172 1305 1546 1422 1303 1437
8 1420 1294 1166 1291 1547 1423 1293 1419
8 1294 1169 1297 1423 1421 1296 1425 1548
8 1423 1297 1168 1293 1549 1424 1295 1422
8 1301 1170 1298 1427 1422 1295 1424 1549
8 1432 1300 1428 1554 1301 1170 1298 1427
8 1431 1299 1428 1554 1560 1430 1300 1432
8 1563 1433 1300 1432 1435 1302 1170 1301
8 1546 1422 1303 1437 1434 1301 1435 1565
8 1303 1171 1304 1438 1435 1302 1436 1566
8 1305 1172 1306 1440 1437 1303 1438 1568
8 1306 1173 1307 1441 1438 1304 1439 1569
8 1308 1175 1309 1443 1440 1306 1441 1571
8 1309 1176 1310 1444 1441 1307 1442 1572
8 1311 1178 1312 1446 1443 1309 1444 1574
8 1179 1312 1444 1310 1313 1447 1575 1445
8 1314 1181 1315 1448 1446 1312 1447 1576
8 1350 1213 1349 1486 1451 1317 1449 1579
8 1451 1317 1450 1581 1319 1186 1318 1453
8 1454 1319 1214 1351 1582 1451 1350 1487
8 1453 1318 1452 1584 1321 1187 1320 1456
8 1454 1319 1453 1585 1344 1208 1321 1457
8 1456 1320 1455 1586 1323 1189 1324 1459
8 1457 1321 1456 1587 1322 1188 1323 1458
8 1458 1323 1459 1588 1325 1191 1326 1460
8 1205 1336 1464 1329 1328 1462 1590 1461
8 1507 1373 1461 1590 1374 1242 1328 1462
8 1508 1374 1462 1591 1375 1243 1335 1467
8 1337 1206 1329 1464 1473 1341 1463 1594
8 1375 1243 1335 1467 1465 1333 1470 1596
8 1465 1333 1470 1596 1331 1200 1334 1466
8 1352 1227 1334 1466 1488 1360 1470 1596
8 1591 1462 1336 1468 1467 1335 1471 1597
8 1469 1337 1472 1598 1595 1464 1336 1468
8 1471 1339 1474 1600 1335 1204 1338 1470
8 1600 1474 1367 1496 1470 1338 1235 1360
8 1336 1205 1340 1472 1471 1339 1475 1601
8 1337 1206 1341 1473 1472 1340 1476 1602
8 1495 1370 1478 1609 1361 1239 1342 1479
8 1348 1212 1342 1479 1483 1347 1478 1609
8 1481 1346 1479 1610 1345 1210 1343 1480
8 1481 1346 1228 1359 1610 1479 1361 1494
8 1484 1348 1214 1351 1610 1479 1343 1480
8 1483 1347 1482 1612 1350 1213 1349 1486
8 1484 1348 1483 1613 1351 1214 1350 1487
8 1353 1230 1360 1488 1489 1363 1496 1616
8 1490 1364 1231 1354 1617 1499 1363 1489
8 1490 1364 1499 1617 1355 1232 1365 1491
8 1356 1234 1365 1491 1492 1366 1500 1619
8 1492 1366 1498 1620 1357 1233 1362 1493
8 1494 1361 1228 1359 1621 1497 1362 1493
8 1495 1370 1239 1361 1622 1504 1371 1497
8 1363 1236 1367 1496 1499 1368 1501 1623
8 1497 1371 1240 1362 1624 1505 1372 1498
8 1625 1503 1372 1498 1500 1369 1241 1366
8 1365 1238 1368 1499 1500 1369 1502 1626
8 1520 1398 1506 1633 1388 1266 1373 1507
8 1634 1507 1374 1508 1512 1388 1255 1380
8 1509 1387 1519 1635 1377 1258 1391 1510
8 1405 1276 1406 1534 1509 1387 1519 1635
8 1515 1392 1260 1383 1636 1522 1390 1511
8 1511 1390 1259 1379 1636 1522 1391 1510
8 1385 1256 1389 1517 1512 1388 1520 1637
8 1513 1394 1262 1382 1638 1524 1393 1514
8 1395 1516 1638 1524 1263 1384 1513 1394
8 1515 1392 1523 1639 1383 1260 1393 1514
8 1516 1395 1526 1640 1386 1264 1396 1518
8 1386 1264 1396 1518 1517 1389 1521 1641
8 1519 1397 1527 1643 1391 1269 1400 1522
8 1535 1407 1527 1643 1406 1277 1397 1519
8 1389 1267 1399 1521 1520 1398 1528 1644
8 1645 1529 1399 1521 1525 1404 1274 1396
8 1392 1270 1400 1522 1523 1401 1531 1646
8 1524 1402 1271 1393 1648 1532 1401 1523
8 1403 1526 1648 1532 1273 1395 1524 1402
8 1525 1404 1274 1396 1649 1533 1403 1526
8 1539 1414 1535 1657 1411 1286 1406 1534
8 1542 1415 1536 1658 1414 1287 1407 1535
8 1409 1285 1412 1537 1538 1413 1540 1660
8 1545 1421 1540 1660 1418 1292 1412 1537
8 1539 1414 1286 1411 1661 1541 1413 1538
8 1540 1417 1544 1663 1413 1288 1416 1541
8 1421 1296 1425 1548 1540 1417 1544 1663
8 1542 1415 1287 1414 1664 1543 1416 1541
8 1420 1294 1423 1547 1545 1421 1548 1666
8 1547 1423 1293 1419 1667 1549 1422 1546
8 1434 1301 1427 1553 1546 1422 1549 1667
8 1423 1297 1424 1549 1548 1425 1550 1668
8 1551 1426 1550 1668 1427 1298 1424 1549
8 1551 1426 1298 1427 1671 1552 1428 1554
8 1562 1432 1554 1674 1434 1301 1427 1553
8 1431 1299 1429 1558 1554 1428 1555 1675
8 1431 1299 1430 1560 1558 1429 1557 1680
8 1560 1430 1300 1432 1683 1559 1433 1563
8 1561 1431 1554 1674 1684 1560 1432 1562
8 1685 1563 1432 1562 1565 1435 1301 1434
8 1435 1302 1436 1566 1563 1433 1564 1686
8 1437 1303 1438 1568 1565 1435 1566 1688
8 1438 1304 1439 1569 1566 1436 1567 1689
8 1440 1306 1441 1571 1568 1438 1569 1691
8 1441 1307 1442 1572 1569 1439 1570 1692
8 1443 1309 1444 1574 1571 1441 1572 1694
8 1310 1444 1572 1442 1445 1575 1695 1573
8 1446 1312 1447 1576 1574 1444 1575 1696
8 1486 1349 1485 1614 1579 1449 1577 1699
8 1451 1317 1449 1579 1581 1450 1578 1701
8 1487 1350 1486 1615 1582 1451 1579 1702
8 1581 1450 1580 1704 1453 1318 1452 1584
8 1582 1451 1581 1705 1454 1319 1453 1585
8 1584 1452 1583 1706 1456 1320 1455 1586
8 1585 1453 1584 1707 1457 1321 1456 1587
8 1587 1456 1586 1708 1458 1323 1459 1588
8 1633 1506 1589 1710 1507 1373 1461 1590
8 1464 1329 1461 1590 1594 1463 1589 1710
8 1468 1336 1462 1591 1595 1464 1590 1711
8 1634 1507 1590 1711 1508 1374 1462 1591
8 1473 1341 1463 1594 1603 1477 1593 1716
8 1469 1337 1464 1595 1599 1473 1594 1717
8 1471 1597 1467 1335 1600 1718 1596 1470
8 1718 1600 1496 1616 1596 1470 1360 1488
8 1336 1468 1597 1471 1472 1598 1719 1601
8 1469 1337 1473 1599 1598 1472 1602 1720
8 1722 1604 1501 1623 1600 1474 1367 1496
8 1475 1601 1471 1339 1604 1722 1600 1474
8 1602 1476 1605 1723 1472 1340 1475 1601
8 1476 1602 1724 1606 1341 1473 1603 1477
8 1483 1347 1478 1609 1612 1482 1608 1731
8 1495 1370 1504 1622 1609 1478 1608 1731
8 1618 1495 1609 1732 1494 1361 1479 1610
8 1484 1348 1479 1610 1613 1483 1609 1732
8 1486 1349 1482 1612 1614 1485 1611 1733
8 1613 1483 1612 1734 1487 1350 1486 1615
8 1489 1363 1496 1616 1617 1499 1623 1736
8 1491 1365 1499 1617 1619 1500 1626 1737
8 1618 1495 1361 1494 1738 1622 1497 1621
8 1739 1625 1498 1620 1619 1500 1366 1492
8 1621 1497 1362 1493 1740 1624 1498 1620
8 1742 1631 1504 1622 1624 1505 1371 1497
8 1743 1628 1502 1626 1623 1501 1368 1499
8 1744 1630 1505 1624 1625 1503 1372 1498
8 1745 1629 1503 1625 1626 1502 1369 1500
8 1520 1398 1528 1644 1633 1506 1632 1751
8 1637 1520 1633 1752 1512 1388 1507 1634
8 1635 1519 1643 1753 1510 1391 1522 1636
8 1657 1535 1643 1753 1534 1406 1519 1635
8 1515 1392 1522 1636 1639 1523 1646 1754
8 1517 1389 1521 1641 1637 1520 1644 1755
8 1524 1638 1756 1648 1393 1514 1639 1523
8 1640 1526 1395 1516 1756 1648 1524 1638
8 1642 1525 1396 1518 1757 1649 1526 1640
8 1758 1645 1521 1641 1642 1525 1396 1518
8 1646 1531 1400 1522 1760 1650 1527 1643
8 1535 1407 1536 1658 1643 1527 1650 1760
8 1521 1399 1529 1645 1644 1528 1651 1761
8 1647 1530 1652 1762 1525 1404 1529 1645
8 1401 1523 1648 1532 1531 1646 1763 1655
8 1525 1404 1533 1649 1647 1530 1654 1765
8 1533 1649 1766 1656 1403 1526 1648 1532
8 1662 1542 1658 1774 1539 1414 1535 1657
8 1542 1415 1543 1664 1658 1536 1659 1775
8 1660 1540 1663 1777 1538 1413 1541 1661
8 1545 1421 1548 1666 1660 1540 1663 1777
8 1662 1542 1414 1539 1778 1664 1541 1661
8 1664 1543 1416 1541 1779 1665 1544 1663
8 1548 1425 1550 1668 1663 1544 1665 1779
8 1547 1423 1549 1667 1666 1548 1668 1781
8 1670 1551 1668 1781 1553 1427 1549 1667
8 1551 1426 1552 1671 1668 1550 1669 1782
8 1670 1551 1427 1553 1784 1671 1554 1674
8 1675 1555 1672 1785 1554 1428 1552 1671
8 1678 1556 1673 1789 1558 1429 1555 1675
8 1561 1431 1558 1681 1674 1554 1675 1790
8 1794 1677 1556 1678 1680 1557 1429 1558
8 1560 1430 1559 1683 1680 1557 1679 1797
8 1561 1431 1560 1684 1681 1558 1680 1798
8 1563 1433 1564 1686 1683 1559 1682 1800
8 1684 1560 1432 1562 1801 1683 1563 1685
8 1565 1435 1566 1688 1685 1563 1686 1802
8 1566 1436 1567 1689 1686 1564 1687 1803
8 1568 1438 1569 1691 1688 1566 1689 1805
8 1569 1439 1570 1692 1689 1567 1690 1806
8 1571 1441 1572 1694 1691 1569 1692 1808
8 1442 1572 1692 1570 1573 1695 1809 1693
8 1574 1444 1575 1696 1694 1572 1695 1810
8 1614 1485 1592 1712 1699 1577 1697 1813
8 1579 1449 1577 1699 1701 1578 1698 1815
8 1615 1486 1614 1735 1702 1579 1699 1816
8 1701 1578 1700 1818 1581 1450 1580 1704
8 1582 1451 1579 1702 1705 1581 1701 1819
8 1704 1580 1703 1820 1584 1452 1583 1706
8 1705 1581 1704 1821 1585 1453 1584 1707
8 1707 1584 1706 1822 1587 1456 1586 1708
8 1710 1589 1506 1633 1824 1709 1632 1751
8 1594 1463 1589 1710 1716 1593 1709 1824
8 1752 1633 1710 1825 1634 1507 1590 1711
8 1595 1464 1590 1711 1717 1594 1710 1825
8 1830 1714 1592 1712 1733 1611 1485 1614
8 1603 1477 1593 1716 1725 1607 1715 1834
8 1599 1473 1594 1717 1721 1603 1716 1835
8 1837 1722 1623 1736 1718 1600 1496 1616
8 1719 1601 1722 1837 1597 1471 1600 1718
8 1602 1720 1598 1472 1723 1838 1719 1601
8 1720 1602 1473 1599 1839 1724 1603 1721
8 1723 1605 1726 1840 1601 1475 1604 1722
8 1840 1726 1628 1743 1722 1604 1501 1623
8 1724 1606 1727 1841 1602 1476 1605 1723
8 1725 1607 1728 1842 1603 1477 1606 1724
8 1612 1482 1608 1731 1733 1611 1730 1849
8 1741 1627 1730 1849 1622 1504 1608 1731
8 1613 1483 1609 1732 1734 1612 1731 1850
8 1618 1495 1622 1738 1732 1609 1731 1850
8 1615 1486 1612 1734 1735 1614 1733 1851
8 1852 1743 1626 1737 1736 1623 1499 1617
8 1853 1745 1625 1739 1737 1626 1500 1619
8 1855 1742 1622 1738 1740 1624 1497 1621
8 1856 1744 1624 1740 1739 1625 1498 1620
8 1741 1627 1504 1622 1857 1746 1631 1742
8 1742 1631 1505 1624 1858 1749 1630 1744
8 1859 1747 1629 1745 1743 1628 1502 1626
8 1860 1748 1630 1744 1745 1629 1503 1625
8 1644 1528 1651 1761 1751 1632 1750 1865
8 1637 1520 1644 1755 1752 1633 1751 1866
8 1754 1646 1522 1636 1867 1760 1643 1753
8 1657 1535 1658 1774 1753 1643 1760 1867
8 1639 1523 1646 1754 1756 1648 1763 1868
8 1641 1521 1645 1758 1755 1644 1761 1869
8 1757 1649 1526 1640 1870 1766 1648 1756
8 1642 1525 1649 1757 1759 1647 1765 1871
8 1759 1647 1762 1872 1642 1525 1645 1758
8 1760 1650 1767 1874 1646 1531 1655 1763
8 1658 1536 1659 1775 1760 1650 1767 1874
8 1762 1652 1768 1875 1645 1529 1651 1761
8 1764 1653 1769 1876 1647 1530 1652 1762
8 1656 1766 1877 1773 1532 1648 1763 1655
8 1771 1879 1765 1654 1653 1764 1647 1530
8 1533 1649 1765 1654 1656 1766 1880 1772
8 1662 1542 1664 1778 1774 1658 1775 1887
8 1664 1543 1665 1779 1775 1659 1776 1888
8 1778 1664 1541 1661 1890 1779 1663 1777
8 1666 1548 1668 1781 1777 1663 1779 1890
8 1782 1669 1780 1891 1668 1550 1665 1779
8 1670 1551 1671 1784 1781 1668 1782 1893
8 1671 1552 1672 1785 1782 1669 1783 1894
8 1790 1675 1785 1896 1674 1554 1671 1784
8 1675 1555 1673 1789 1785 1672 1786 1897
8 1792 1676 1788 1903 1678 1556 1673 1789
8 1795 1678 1789 1904 1681 1558 1675 1790
8 1792 1676 1556 1678 1906 1791 1677 1794
8 1680 1557 1679 1797 1794 1677 1793 1909
8 1910 1794 1678 1795 1798 1680 1558 1681
8 1683 1559 1682 1800 1797 1679 1796 1912
8 1684 1560 1683 1801 1798 1680 1797 1913
8 1686 1564 1687 1803 1800 1682 1799 1915
8 1685 1563 1686 1802 1801 1683 1800 1916
8 1688 1566 1689 1805 1802 1686 1803 1917
8 1689 1567 1690 1806 1803 1687 1804 1918
8 1691 1569 1692 1808 1805 1689 1806 1920
8 1692 1570 1693 1809 1806 1690 1807 1921
8 1694 1572 1695 1810 1808 1692 1809 1922
8 1829 1713 1811 1926 1712 1592 1697 1813
8 1813 1697 1812 1928 1699 1577 1698 1815
8 1735 1614 1712 1828 1816 1699 1813 1929
8 1815 1698 1814 1931 1701 1578 1700 1818
8 1702 1579 1699 1816 1819 1701 1815 1932
8 1818 1700 1817 1933 1704 1580 1703 1820
8 1819 1701 1818 1934 1705 1581 1704 1821
8 1821 1704 1820 1935 1707 1584 1706 1822
8 1824 1709 1632 1751 1937 1823 1750 1865
8 1716 1593 1709 1824 1834 1715 1823 1937
8 1825 1710 1633 1752 1938 1824 1751 1866
8 1717 1594 1710 1825 1835 1716 1824 1938
8 1945 1830 1712 1828 1851 1733 1614 1735
8 1830 1714 1831 1946 1712 1592 1713 1829
8 1947 1832 1714 1830 1849 1730 1611 1733
8 1843 1729 1607 1725 1950 1833 1715 1834
8 1721 1603 1716 1835 1836 1725 1834 1951
8 1836 1725 1842 1953 1721 1603 1724 1839
8 1723 1838 1719 1601 1840 1954 1837 1722
8 1954 1840 1743 1852 1837 1722 1623 1736
8 1724 1839 1720 1602 1841 1955 1838 1723
8 1841 1727 1844 1956 1723 1605 1726 1840
8 1956 1844 1747 1859 1840 1726 1628 1743
8 1728 1842 1724 1606 1845 1957 1841 1727
8 1725 1607 1729 1843 1842 1728 1846 1958
8 1741 1627 1746 1857 1849 1730 1848 1965
8 1734 1612 1731 1850 1851 1733 1849 1966
8 1854 1741 1849 1966 1738 1622 1731 1850
8 1967 1859 1745 1853 1852 1743 1626 1737
8 1968 1860 1744 1856 1853 1745 1625 1739
8 1854 1741 1622 1738 1969 1857 1742 1855
8 1855 1742 1624 1740 1970 1858 1744 1856
8 1857 1746 1631 1742 1971 1861 1749 1858
8 1858 1749 1630 1744 1972 1863 1748 1860
8 1859 1747 1862 1973 1745 1629 1748 1860
8 1875 1768 1864 1977 1761 1651 1750 1865
8 1755 1644 1761 1869 1866 1751 1865 1978
8 1867 1760 1874 1979 1754 1646 1763 1868
8 1774 1658 1775 1887 1867 1760 1874 1979
8 1870 1766 1648 1756 1980 1877 1763 1868
8 1872 1762 1875 1981 1758 1645 1761 1869
8 1757 1649 1766 1870 1871 1765 1880 1982
8 1983 1879 1764 1873 1871 1765 1647 1759
8 1873 1764 1876 1984 1759 1647 1762 1872
8 1877 1773 1655 1763 1986 1881 1767 1874
8 1775 1659 1776 1888 1874 1767 1881 1986
8 1876 1769 1882 1987 1762 1652 1768 1875
8 1878 1770 1883 1988 1764 1653 1769 1876
8 1880 1772 1656 1766 1989 1886 1773 1877
8 1878 1770 1653 1764 1990 1884 1771 1879
8 1765 1654 1772 1880 1879 1771 1885 1991
8 1778 1664 1779 1890 1887 1775 1888 1997
8 1998 1889 1776 1888 1891 1780 1665 1779
8 1893 1782 1891 2000 1781 1668 1779 1890
8 1894 1783 1892 2001 1782 1669 1780 1891
8 1784 1671 1785 1896 1893 1782 1894 2003
8 1897 1786 1895 2004 1785 1672 1783 1894
8 1790 1675 1789 1904 1896 1785 1897 2006
8 1901 1787 1898 2007 1789 1673 1786 1897
8 1903 1788 1900 2013 1789 1673 1787 1901
8 1792 1676 1791 1906 1903 1788 1902 2016
8 1907 1792 1903 2017 1795 1678 1789 1904
8 1906 1791 1677 1794 2019 1905 1793 1909
8 1907 1792 1678 1795 2020 1906 1794 1910
8 1797 1679 1796 1912 1909 1793 1908 2022
8 1798 1680 1797 1913 1910 1794 1909 2023
8 1800 1682 1799 1915 1912 1796 1911 2025
8 1801 1683 1800 1916 1913 1797 1912 2026
8 1803 1687 1804 1918 1915 1799 1914 2028
8 1802 1686 1803 1917 1916 1800 1915 2029
8 1805 1689 1806 1920 1917 1803 1918 2030
8 1806 1690 1807 1921 1918 1804 1919 2031
8 1808 1692 1809 1922 1920 1806 1921 2032
8 1939 1826 1924 2037 1829 1713 1811 1926
8 1926 1811 1925 2039 1813 1697 1812 1928
8 1944 1829 1926 2040 1828 1712 1813 1929
8 1928 1812 1927 2042 1815 1698 1814 1931
8 1929 1813 1928 2043 1816 1699 1815 1932
8 1931 1814 1930 2044 1818 1700 1817 1933
8 1932 1815 1931 2045 1819 1701 1818 1934
8 1934 1818 1933 2046 1821 1704 1820 1935
8 2048 1936 1823 1937 1977 1864 1750 1865
8 1950 1833 1715 1834 2048 1936 1823 1937
8 1938 1824 1751 1866 2049 1937 1865 1978
8 1835 1716 1824 1938 1951 1834 1937 2049
8 1939 1826 1713 1829 2053 1942 1831 1946
8 1940 1827 1923 2035 2053 1942 1826 1939
8 1945 1830 1946 2058 1828 1712 1829 1944
8 2059 1947 1830 1945 1966 1849 1733 1851
8 1947 1832 1730 1849 2060 1948 1848 1965
8 1947 1832 1948 2060 1830 1714 1831 1946
8 1959 1847 1729 1843 2063 1949 1833 1950
8 1952 1843 1725 1836 2064 1950 1834 1951
8 1836 1725 1843 1952 1953 1842 1958 2066
8 1953 1842 1957 2067 1839 1724 1841 1955
8 1841 1955 1838 1723 1956 2068 1954 1840
8 2068 1956 1859 1967 1954 1840 1743 1852
8 1956 1844 1960 2069 1859 1747 1862 1973
8 1845 1957 1841 1727 1960 2069 1956 1844
8 1728 1842 1957 1845 1846 1958 2071 1961
8 1962 2072 1959 1847 1846 1958 1843 1729
8 1971 1861 1964 2077 1857 1746 1848 1965
8 1854 1741 1857 1969 1966 1849 1965 2078
8 1967 1859 1973 2079 1853 1745 1860 1968
8 1970 1858 1744 1856 2080 1972 1860 1968
8 1969 1857 1742 1855 2081 1971 1858 1970
8 1971 1861 1749 1858 2082 1974 1863 1972
8 1973 1862 1975 2083 1860 1748 1863 1972
8 1987 1882 1976 2086 1875 1768 1864 1977
8 1981 1875 1977 2087 1869 1761 1865 1978
8 1980 1877 1763 1868 2088 1986 1874 1979
8 1887 1775 1888 1997 1979 1874 1986 2088
8 1880 1982 2089 1989 1766 1870 1980 1877
8 1984 1876 1987 2090 1872 1762 1875 1981
8 1765 1871 1983 1879 1880 1982 2091 1991
8 1985 1878 1764 1873 2092 1990 1879 1983
8 1985 1878 1988 2093 1873 1764 1876 1984
8 2094 1992 1881 1986 1998 1889 1776 1888
8 1986 1881 1992 2094 1877 1773 1886 1989
8 1988 1883 1993 2095 1876 1769 1882 1987
8 1878 1770 1884 1990 1988 1883 1994 2096
8 1991 1885 1772 1880 2097 1996 1886 1989
8 1879 1771 1885 1991 1990 1884 1995 2098
8 2103 1998 1888 1997 2000 1891 1779 1890
8 2104 1999 1889 1998 2001 1892 1780 1891
8 2003 1894 2001 2106 1893 1782 1891 2000
8 2004 1895 2002 2107 1894 1783 1892 2001
8 2006 1897 2004 2109 1896 1785 1894 2003
8 2007 1898 2005 2110 1897 1786 1895 2004
8 2014 1901 2007 2112 1904 1789 1897 2006
8 2011 1899 2008 2113 1901 1787 1898 2007
8 2119 2010 1899 2011 2013 1900 1787 1901
8 2016 1902 2012 2122 1903 1788 1900 2013
8 2017 1903 2013 2123 1904 1789 1901 2014
8 1906 1791 1905 2019 2016 1902 2015 2125
8 1907 1792 1906 2020 2017 1903 2016 2126
8 1909 1793 1908 2022 2019 1905 2018 2128
8 2020 1906 1794 1910 2129 2019 1909 2023
8 1912 1796 1911 2025 2022 1908 2021 2131
8 1913 1797 1912 2026 2023 1909 2022 2132
8 1915 1799 1914 2028 2025 1911 2024 2134
8 1916 1800 1915 2029 2026 1912 2025 2135
8 1918 1804 1919 2031 2028 1914 2027 2136
8 1917 1803 1918 2030 2029 1915 2028 2137
8 1920 1806 1921 2032 2030 1918 2031 2138
8 1940 1827 1941 2054 2035 1923 2033 2140
8 2035 1923 2034 2143 1939 1826 1924 2037
8 2037 1924 2036 2146 1926 1811 1925 2039
8 2051 1939 2037 2147 1944 1829 1926 2040
8 2039 1925 2038 2149 1928 1812 1927 2042
8 2040 1926 2039 2150 1929 1813 1928 2043
8 2042 1927 2041 2151 1931 1814 1930 2044
8 2043 1928 2042 2152 1932 1815 1931 2045
8 2045 1931 2044 2153 1934 1818 1933 2046
8 2155 2047 1936 2048 2086 1976 1864 1977
8 2063 1949 1833 1950 2155 2047 1936 2048
8 2156 2048 1937 2049 2087 1977 1865 1978
8 2064 1950 1834 1951 2156 2048 1937 2049
8 2051 1939 1829 1944 2160 2053 1946 2058
8 2052 1940 2035 2144 2160 2053 1939 2051
8 2053 1942 1831 1946 2163 2057 1948 2060
8 2055 1943 1827 1940 2163 2057 1942 2053
8 2055 1943 2056 2164 1940 1827 1941 2054
8 2059 1947 1849 1966 2167 2060 1965 2078
8 2059 1947 2060 2167 1945 1830 1946 2058
8 2077 1964 2061 2168 1965 1848 1948 2060
8 2070 1963 1847 1959 2170 2062 1949 2063
8 2065 1959 1843 1952 2171 2063 1950 2064
8 2173 2072 1958 2066 2065 1959 1843 1952
8 1953 1842 1958 2066 2067 1957 2071 2174
8 2068 1956 2069 2175 1967 1859 1973 2079
8 2067 1957 2069 2175 1955 1841 1956 2068
8 1845 1957 2069 1960 1961 2071 2176 2073
8 2069 1960 2073 2176 1973 1862 1975 2083
8 2070 1963 2075 2177 1959 1847 1962 2072
8 1846 1958 2071 1961 1962 2072 2178 2074
8 2077 1964 1861 1971 2182 2076 1974 2082
8 2081 1971 2077 2183 1969 1857 1965 2078
8 2079 1973 2083 2184 1968 1860 1972 2080
8 2081 1971 1858 1970 2185 2082 1972 2080
8 2083 1975 2084 2186 1972 1863 1974 2082
8 2086 1976 1882 1987 2189 2085 1993 2095
8 2090 1987 2086 2190 1981 1875 1977 2087
8 2191 2094 1986 2088 2103 1998 1888 1997
8 2088 1986 2094 2191 1980 1877 1989 2089
8 1991 2091 2192 2097 1880 1982 2089 1989
8 2093 1988 2095 2193 1984 1876 1987 2090
8 1879 1983 2092 1990 1991 2091 2194 2098
8 1985 1878 1990 2092 2093 1988 2096 2195
8 2097 1996 1886 1989 2196 2099 1992 2094
8 2196 2099 1992 2094 2104 1999 1889 1998
8 1994 2096 1988 1883 2100 2197 2095 1993
8 2096 1994 1884 1990 2198 2101 1995 2098
8 1995 2098 2199 2102 1885 1991 2097 1996
8 2203 2104 1998 2103 2106 2001 1891 2000
8 2107 2002 2105 2204 2001 1892 1999 2104
8 2109 2004 2107 2206 2003 1894 2001 2106
8 2110 2005 2108 2207 2004 1895 2002 2107
8 2112 2007 2110 2209 2006 1897 2004 2109
8 2113 2008 2111 2210 2007 1898 2005 2110
8 2120 2011 2113 2212 2014 1901 2007 2112
8 2117 2009 2114 2213 2011 1899 2008 2113
8 2219 2116 2009 2117 2119 2010 1899 2011
8 2222 2118 2010 2119 2122 2012 1900 2013
8 2223 2119 2011 2120 2123 2013 1901 2014
8 2016 1902 2015 2125 2122 2012 2121 2225
8 2126 2016 2122 2226 2017 1903 2013 2123
8 2019 1905 2018 2128 2125 2015 2124 2228
8 2020 1906 2019 2129 2126 2016 2125 2229
8 2022 1908 2021 2131 2128 2018 2127 2231
8 2023 1909 2022 2132 2129 2019 2128 2232
8 2025 1911 2024 2134 2131 2021 2130 2234
8 2026 1912 2025 2135 2132 2022 2131 2235
8 1914 2028 2134 2024 2027 2136 2236 2133
8 2029 1915 2028 2137 2135 2025 2134 2237
8 2030 1918 2031 2138 2137 2028 2136 2238
8 2157 2050 2139 2240 2054 1941 2033 2140
8 2052 1940 2054 2161 2144 2035 2140 2242
8 2140 2033 2141 2243 2035 1923 2034 2143
8 2143 2034 2142 2246 2037 1924 2036 2146
8 2144 2035 2143 2247 2051 1939 2037 2147
8 2146 2036 2145 2249 2039 1925 2038 2149
8 2147 2037 2146 2250 2040 1926 2039 2150
8 2149 2038 2148 2251 2042 1927 2041 2151
8 2150 2039 2149 2252 2043 1928 2042 2152
8 2152 2042 2151 2253 2045 1931 2044 2153
8 2255 2154 2047 2155 2189 2085 1976 2086
8 2170 2062 1949 2063 2255 2154 2047 2155
8 2256 2155 2048 2156 2190 2086 1977 2087
8 2171 2063 1950 2064 2256 2155 2048 2156
8 2258 2159 2050 2157 2164 2056 1941 2054
8 2160 2053 1946 2058 2262 2163 2060 2167
8 2162 2055 1940 2052 2262 2163 2053 2160
8 2162 2055 2164 2263 2052 1940 2054 2161
8 2163 2057 1948 2060 2264 2165 2061 2168
8 2055 1943 2057 2163 2164 2056 2165 2264
8 2182 2076 2166 2268 2077 1964 2061 2168
8 2183 2077 2168 2269 2078 1965 2060 2167
8 2070 1963 2062 2170 2177 2075 2169 2271
8 2172 2070 1959 2065 2272 2170 2063 2171
8 2172 2070 2177 2273 2065 1959 2072 2173
8 2066 1958 2072 2173 2174 2071 2178 2274
8 2067 1957 2071 2174 2175 2069 2176 2275
8 2175 2069 2176 2275 2079 1973 2083 2184
8 2071 1961 2074 2178 2176 2073 2179 2276
8 2176 2073 2179 2276 2083 1975 2084 2186
8 2072 1962 2075 2177 2178 2074 2180 2277
8 2182 2076 1974 2082 2280 2181 2084 2186
8 2183 2077 1971 2081 2281 2182 2082 2185
8 2184 2083 2186 2282 2080 1972 2082 2185
8 2189 2085 1993 2095 2285 2188 2100 2197
8 2190 2086 1987 2090 2286 2189 2095 2193
8 2192 2097 1989 2089 2287 2196 2094 2191
8 2287 2196 2094 2191 2203 2104 1998 2103
8 2194 2098 1991 2091 2288 2199 2097 2192
8 2195 2096 2197 2289 2093 1988 2095 2193
8 2096 2195 2290 2198 1990 2092 2194 2098
8 2097 1996 2099 2196 2199 2102 2200 2291
8 2196 2099 1999 2104 2291 2200 2105 2204
8 2100 2197 2292 2201 1994 2096 2198 2101
8 1995 2098 2198 2101 2102 2199 2293 2202
8 2206 2107 2204 2296 2106 2001 2104 2203
8 2207 2108 2205 2297 2107 2002 2105 2204
8 2209 2110 2207 2299 2109 2004 2107 2206
8 2210 2111 2208 2300 2110 2005 2108 2207
8 2212 2113 2210 2302 2112 2007 2110 2209
8 2213 2114 2211 2303 2113 2008 2111 2210
8 2220 2117 2213 2305 2120 2011 2113 2212
8 2216 2115 2214 2306 2117 2009 2114 2213
8 2216 2115 2009 2117 2311 2217 2116 2219
8 2219 2116 2010 2119 2314 2218 2118 2222
8 2315 2219 2117 2220 2223 2119 2011 2120
8 2122 2012 2121 2225 2222 2118 2221 2317
8 2318 2222 2119 2223 2226 2122 2013 2123
8 2125 2015 2124 2228 2225 2121 2224 2320
8 2126 2016 2125 2229 2226 2122 2225 2321
8 2128 2018 2127 2231 2228 2124 2227 2323
8 2129 2019 2128 2232 2229 2125 2228 2324
8 2131 2021 2130 2234 2231 2127 2230 2326
8 2132 2022 2131 2235 2232 2128 2231 2327
8 2134 2024 2133 2236 2234 2130 2233 2328
8 2135 2025 2134 2237 2235 2131 2234 2329
8 2137 2028 2136 2238 2237 2134 2236 2330
8 2157 2050 2158 2259 2240 2139 2239 2332
8 2257 2157 2240 2334 2161 2054 2140 2242
8 2240 2139 2241 2335 2140 2033 2141 2243
8 2242 2140 2243 2337 2144 2035 2143 2247
8 2243 2141 2244 2338 2143 2034 2142 2246
8 2246 2142 2245 2341 2146 2036 2145 2249
8 2247 2143 2246 2342 2147 2037 2146 2250
8 2249 2145 2248 2343 2149 2038 2148 2251
8 2250 2146 2249 2344 2150 2039 2149 2252
8 2252 2149 2251 2345 2152 2042 2151 2253
8 2169 2271 2347 2254 2062 2170 2255 2154
8 2189 2085 2188 2285 2255 2154 2254 2347
8 2348 2255 2155 2256 2286 2189 2086 2190
8 2272 2170 2063 2171 2348 2255 2155 2256
8 2349 2258 2157 2257 2263 2164 2054 2161
8 2258 2159 2261 2351 2157 2050 2158 2259
8 2258 2159 2056 2164 2351 2261 2165 2264
8 2262 2163 2060 2167 2355 2264 2168 2269
8 2162 2055 2163 2262 2263 2164 2264 2355
8 2357 2266 2165 2264 2268 2166 2061 2168
8 2268 2166 2076 2182 2361 2267 2181 2280
8 2281 2182 2268 2362 2183 2077 2168 2269
8 2271 2169 2270 2364 2177 2075 2180 2277
8 2172 2070 2170 2272 2273 2177 2271 2365
8 2072 2173 2274 2178 2177 2273 2366 2277
8 2071 2174 2275 2176 2178 2274 2367 2276
8 2275 2176 2276 2367 2184 2083 2186 2282
8 2283 2187 2084 2186 2368 2278 2179 2276
8 2178 2074 2180 2277 2276 2179 2278 2368
8 2283 2187 2279 2370 2186 2084 2181 2280
8 2281 2182 2082 2185 2371 2280 2186 2282
8 2188 2285 2374 2284 2100 2197 2292 2201
8 2286 2189 2095 2193 2375 2285 2197 2289
8 2192 2097 2196 2287 2288 2199 2291 2376
8 2287 2196 2104 2203 2376 2291 2204 2296
8 2194 2098 2199 2288 2290 2198 2293 2377
8 2289 2197 2096 2195 2378 2292 2198 2290
8 2291 2200 2105 2204 2379 2294 2205 2297
8 2199 2102 2200 2291 2293 2202 2294 2379
8 2198 2101 2202 2293 2292 2201 2295 2380
8 2299 2207 2297 2383 2206 2107 2204 2296
8 2300 2208 2298 2384 2207 2108 2205 2297
8 2302 2210 2300 2386 2209 2110 2207 2299
8 2303 2211 2301 2387 2210 2111 2208 2300
8 2305 2213 2303 2389 2212 2113 2210 2302
8 2306 2214 2304 2390 2213 2114 2211 2303
8 2310 2216 2306 2392 2220 2117 2213 2305
8 2308 2215 2307 2393 2216 2115 2214 2306
8 2308 2215 2115 2216 2396 2309 2217 2311
8 2310 2216 2117 2220 2398 2311 2219 2315
8 2311 2217 2116 2219 2399 2312 2218 2314
8 2314 2218 2118 2222 2402 2313 2221 2317
8 2315 2219 2119 2223 2403 2314 2222 2318
8 2225 2121 2224 2320 2317 2221 2316 2405
8 2226 2122 2225 2321 2318 2222 2317 2406
8 2228 2124 2227 2323 2320 2224 2319 2408
8 2229 2125 2228 2324 2321 2225 2320 2409
8 2231 2127 2230 2326 2323 2227 2322 2411
8 2232 2128 2231 2327 2324 2228 2323 2412
8 2234 2130 2233 2328 2326 2230 2325 2413
8 2235 2131 2234 2329 2327 2231 2326 2414
8 2237 2134 2236 2330 2329 2234 2328 2415
8 2259 2158 2260 2352 2332 2239 2331 2417
8 2257 2157 2259 2350 2334 2240 2332 2419
8 2240 2139 2239 2332 2335 2241 2333 2420
8 2334 2240 2335 2422 2242 2140 2243 2337
8 2335 2241 2336 2423 2243 2141 2244 2338
8 2337 2243 2338 2425 2247 2143 2246 2342
8 2338 2244 2339 2426 2246 2142 2245 2341
8 2341 2245 2340 2428 2249 2145 2248 2343
8 2342 2246 2341 2429 2250 2146 2249 2344
8 2344 2249 2343 2430 2252 2149 2251 2345
8 2188 2285 2347 2254 2284 2374 2432 2346
8 2347 2254 2346 2432 2271 2169 2270 2364
8 2365 2271 2170 2272 2433 2347 2255 2348
8 2286 2189 2285 2375 2348 2255 2347 2433
8 2349 2258 2351 2435 2257 2157 2259 2350
8 2349 2258 2164 2263 2435 2351 2264 2355
8 2259 2158 2261 2351 2352 2260 2354 2437
8 2356 2265 2354 2437 2264 2165 2261 2351
8 2441 2357 2264 2355 2362 2268 2168 2269
8 2356 2265 2165 2264 2442 2358 2266 2357
8 2443 2359 2266 2357 2361 2267 2166 2268
8 2370 2279 2360 2446 2280 2181 2267 2361
8 2362 2268 2182 2281 2447 2361 2280 2371
8 2180 2277 2368 2278 2270 2364 2449 2363
8 2271 2365 2273 2177 2364 2450 2366 2277
8 2372 2283 2186 2282 2451 2368 2276 2367
8 2178 2274 2367 2276 2277 2366 2451 2368
8 2283 2187 2278 2368 2370 2279 2369 2452
8 2372 2283 2370 2453 2282 2186 2280 2371
8 2284 2374 2455 2373 2201 2292 2380 2295
8 2375 2285 2197 2289 2456 2374 2292 2378
8 2376 2291 2204 2296 2457 2379 2297 2383
8 2288 2199 2291 2376 2377 2293 2379 2457
8 2198 2290 2378 2292 2293 2377 2458 2380
8 2293 2202 2294 2379 2380 2295 2381 2459
8 2384 2298 2381 2459 2297 2205 2294 2379
8 2386 2300 2384 2463 2299 2207 2297 2383
8 2387 2301 2385 2464 2300 2208 2298 2384
8 2389 2303 2387 2466 2302 2210 2300 2386
8 2390 2304 2388 2467 2303 2211 2301 2387
8 2392 2306 2390 2469 2305 2213 2303 2389
8 2393 2307 2391 2470 2306 2214 2304 2390
8 2395 2308 2393 2472 2310 2216 2306 2392
8 2308 2215 2309 2396 2393 2307 2394 2473
8 2395 2308 2216 2310 2475 2396 2311 2398
8 2396 2309 2217 2311 2476 2397 2312 2399
8 2398 2311 2219 2315 2478 2399 2314 2403
8 2399 2312 2218 2314 2479 2400 2313 2402
8 2317 2221 2316 2405 2402 2313 2401 2482
8 2403 2314 2222 2318 2483 2402 2317 2406
8 2320 2224 2319 2408 2405 2316 2404 2485
8 2321 2225 2320 2409 2406 2317 2405 2486
8 2323 2227 2322 2411 2408 2319 2407 2488
8 2324 2228 2323 2412 2409 2320 2408 2489
8 2326 2230 2325 2413 2411 2322 2410 2490
8 2327 2231 2326 2414 2412 2323 2411 2491
8 2329 2234 2328 2415 2414 2326 2413 2492
8 2417 2331 2260 2352 2494 2416 2353 2438
8 2350 2259 2352 2436 2419 2332 2417 2496
8 2332 2239 2331 2417 2420 2333 2418 2497
8 2334 2240 2332 2419 2422 2335 2420 2499
8 2420 2333 2421 2500 2335 2241 2336 2423
8 2422 2335 2423 2502 2337 2243 2338 2425
8 2423 2336 2424 2503 2338 2244 2339 2426
8 2425 2338 2426 2505 2342 2246 2341 2429
8 2426 2339 2427 2506 2341 2245 2340 2428
8 2429 2341 2428 2507 2344 2249 2343 2430
8 2432 2346 2284 2374 2509 2431 2373 2455
8 2432 2346 2431 2509 2364 2270 2363 2449
8 2375 2285 2374 2456 2433 2347 2432 2510
8 2347 2433 2365 2271 2432 2510 2450 2364
8 2350 2259 2351 2435 2436 2352 2437 2514
8 2440 2356 2437 2514 2355 2264 2351 2435
8 2352 2260 2354 2437 2438 2353 2439 2516
8 2356 2265 2358 2442 2437 2354 2439 2516
8 2440 2356 2264 2355 2518 2442 2357 2441
8 2519 2443 2357 2441 2447 2361 2268 2362
8 2443 2359 2444 2520 2357 2266 2358 2442
8 2443 2359 2267 2361 2520 2444 2360 2446
8 2446 2360 2279 2370 2523 2445 2369 2452
8 2453 2370 2446 2524 2371 2280 2361 2447
8 2449 2363 2448 2525 2368 2278 2369 2452
8 2366 2277 2364 2450 2451 2368 2449 2526
8 2372 2283 2368 2451 2453 2370 2452 2527
8 2455 2373 2295 2380 2529 2454 2382 2460
8 2456 2374 2292 2378 2530 2455 2380 2458
8 2377 2293 2379 2457 2458 2380 2459 2531
8 2463 2384 2459 2531 2383 2297 2379 2457
8 2533 2461 2382 2460 2459 2381 2295 2380
8 2464 2385 2461 2533 2384 2298 2381 2459
8 2466 2387 2464 2537 2386 2300 2384 2463
8 2467 2388 2465 2538 2387 2301 2385 2464
8 2469 2390 2467 2540 2389 2303 2387 2466
8 2470 2391 2468 2541 2390 2304 2388 2467
8 2472 2393 2470 2543 2392 2306 2390 2469
8 2393 2307 2394 2473 2470 2391 2471 2544
8 2395 2308 2396 2475 2472 2393 2473 2546
8 2396 2309 2397 2476 2473 2394 2474 2547
8 2475 2396 2311 2398 2549 2476 2399 2478
8 2476 2397 2312 2399 2550 2477 2400 2479
8 2478 2399 2314 2403 2552 2479 2402 2483
8 2479 2400 2313 2402 2553 2480 2401 2482
8 2405 2316 2404 2485 2482 2401 2481 2556
8 2406 2317 2405 2486 2483 2402 2482 2557
8 2408 2319 2407 2488 2485 2404 2484 2559
8 2409 2320 2408 2489 2486 2405 2485 2560
8 2411 2322 2410 2490 2488 2407 2487 2561
8 2412 2323 2411 2491 2489 2408 2488 2562
8 2414 2326 2413 2492 2491 2411 2490 2563
8 2513 2434 2493 2565 2438 2353 2416 2494
8 2496 2417 2352 2436 2567 2494 2438 2515
8 2494 2416 2495 2568 2417 2331 2418 2497
8 2419 2332 2417 2496 2499 2420 2497 2570
8 2497 2418 2498 2571 2420 2333 2421 2500
8 2499 2420 2500 2573 2422 2335 2423 2502
8 2500 2421 2501 2574 2423 2336 2424 2503
8 2502 2423 2503 2576 2425 2338 2426 2505
8 2503 2424 2504 2577 2426 2339 2427 2506
8 2505 2426 2506 2578 2429 2341 2428 2507
8 2509 2431 2373 2455 2580 2508 2454 2529
8 2509 2431 2508 2580 2449 2363 2448 2525
8 2432 2510 2581 2509 2374 2456 2530 2455
8 2432 2510 2450 2364 2509 2581 2526 2449
8 2583 2511 2434 2513 2516 2439 2353 2438
8 2436 2352 2437 2514 2515 2438 2516 2588
8 2440 2356 2442 2518 2514 2437 2516 2588
8 2442 2358 2444 2520 2516 2439 2517 2589
8 2519 2443 2520 2591 2441 2357 2442 2518
8 2519 2443 2361 2447 2591 2520 2446 2524
8 2446 2360 2445 2523 2520 2444 2521 2592
8 2525 2448 2522 2593 2452 2369 2445 2523
8 2524 2446 2370 2453 2594 2523 2452 2527
8 2526 2449 2525 2595 2451 2368 2452 2527
8 2534 2462 2528 2597 2460 2382 2454 2529
8 2530 2455 2380 2458 2598 2529 2460 2532
8 2599 2533 2460 2532 2531 2459 2380 2458
8 2537 2464 2533 2599 2463 2384 2459 2531
8 2534 2462 2382 2460 2601 2535 2461 2533
8 2538 2465 2535 2601 2464 2385 2461 2533
8 2540 2467 2538 2604 2466 2387 2464 2537
8 2541 2468 2539 2605 2467 2388 2465 2538
8 2543 2470 2541 2607 2469 2390 2467 2540
8 2470 2391 2471 2544 2541 2468 2542 2608
8 2472 2393 2473 2546 2543 2470 2544 2610
8 2473 2394 2474 2547 2544 2471 2545 2611
8 2475 2396 2476 2549 2546 2473 2547 2613
8 2476 2397 2477 2550 2547 2474 2548 2614
8 2549 2476 2399 2478 2616 2550 2479 2552
8 2479 2400 2480 2553 2550 2477 2551 2617
8 2552 2479 2402 2483 2619 2553 2482 2557
8 2482 2401 2481 2556 2553 2480 2554 2620
8 2485 2404 2484 2559 2556 2481 2555 2623
8 2486 2405 2485 2560 2557 2482 2556 2624
8 2488 2407 2487 2561 2559 2484 2558 2625
8 2489 2408 2488 2562 2560 2485 2559 2626
8 2491 2411 2490 2563 2562 2488 2561 2627
8 2513 2434 2512 2585 2565 2493 2564 2630
8 2586 2513 2565 2632 2515 2438 2494 2567
8 2565 2493 2566 2633 2494 2416 2495 2568
8 2567 2494 2568 2635 2496 2417 2497 2570
8 2568 2495 2569 2636 2497 2418 2498 2571
8 2570 2497 2571 2638 2499 2420 2500 2573
8 2571 2498 2572 2639 2500 2421 2501 2574
8 2573 2500 2574 2641 2502 2423 2503 2576
8 2574 2501 2575 2642 2503 2424 2504 2577
8 2576 2503 2577 2643 2505 2426 2506 2578
8 2597 2528 2579 2645 2529 2454 2508 2580
8 2580 2508 2579 2645 2525 2448 2522 2593
8 2581 2509 2455 2530 2646 2580 2529 2598
8 2581 2509 2580 2646 2526 2449 2525 2595
8 2583 2511 2582 2648 2513 2434 2512 2585
8 2583 2511 2439 2516 2648 2582 2517 2589
8 2649 2583 2513 2586 2588 2516 2438 2515
8 2589 2517 2444 2520 2653 2587 2521 2592
8 2518 2442 2520 2591 2588 2516 2589 2654
8 2593 2522 2590 2655 2523 2445 2521 2592
8 2524 2446 2523 2594 2591 2520 2592 2656
8 2595 2525 2593 2657 2527 2452 2523 2594
8 2602 2536 2596 2659 2534 2462 2528 2597
8 2600 2534 2597 2660 2532 2460 2529 2598
8 2600 2534 2460 2532 2661 2601 2533 2599
8 2604 2538 2601 2661 2537 2464 2533 2599
8 2602 2536 2462 2534 2663 2603 2535 2601
8 2601 2535 2465 2538 2663 2603 2539 2605
8 2607 2541 2605 2665 2540 2467 2538 2604
8 2608 2542 2606 2666 2541 2468 2539 2605
8 2543 2470 2544 2610 2607 2541 2608 2668
8 2544 2471 2545 2611 2608 2542 2609 2669
8 2546 2473 2547 2613 2610 2544 2611 2671
8 2547 2474 2548 2614 2611 2545 2612 2672
8 2549 2476 2550 2616 2613 2547 2614 2674
8 2550 2477 2551 2617 2614 2548 2615 2675
8 2552 2479 2553 2619 2616 2550 2617 2677
8 2553 2480 2554 2620 2617 2551 2618 2678
8 2557 2482 2556 2624 2619 2553 2620 2680
8 2556 2481 2555 2623 2620 2554 2621 2681
8 2559 2484 2558 2625 2623 2555 2622 2683
8 2560 2485 2559 2626 2624 2556 2623 2684
8 2562 2488 2561 2627 2626 2559 2625 2685
8 2690 2629 2564 2630 2650 2584 2512 2585
8 2586 2513 2585 2651 2632 2565 2630 2691
8 2630 2564 2631 2692 2565 2493 2566 2633
8 2632 2565 2633 2694 2567 2494 2568 2635
8 2633 2566 2634 2695 2568 2495 2569 2636
8 2635 2568 2636 2697 2570 2497 2571 2638
8 2636 2569 2637 2698 2571 2498 2572 2639
8 2638 2571 2639 2700 2573 2500 2574 2641
8 2639 2572 2640 2701 2574 2501 2575 2642
8 2641 2574 2642 2702 2576 2503 2577 2643
8 2597 2528 2596 2659 2645 2579 2644 2704
8 2645 2579 2644 2704 2593 2522 2590 2655
8 2660 2597 2645 2705 2598 2529 2580 2646
8 2646 2580 2645 2705 2595 2525 2593 2657
8 2650 2584 2512 2585 2707 2647 2582 2648
8 2648 2582 2517 2589 2707 2647 2587 2653
8 2649 2583 2648 2708 2586 2513 2585 2651
8 2649 2583 2516 2588 2708 2648 2589 2654
8 2655 2590 2652 2710 2592 2521 2587 2653
8 2654 2589 2520 2591 2711 2653 2592 2656
8 2657 2593 2655 2712 2594 2523 2592 2656
8 2602 2536 2603 2663 2659 2596 2658 2714
8 2662 2602 2659 2715 2600 2534 2597 2660
8 2662 2602 2534 2600 2717 2663 2601 2661
8 2661 2601 2538 2604 2717 2663 2605 2665
8 2666 2606 2664 2718 2605 2539 2603 2663
8 2668 2608 2666 2720 2607 2541 2605 2665
8 2608 2542 2609 2669 2666 2606 2667 2721
8 2610 2544 2611 2671 2668 2608 2669 2723
8 2611 2545 2612 2672 2669 2609 2670 2724
8 2613 2547 2614 2674 2671 2611 2672 2726
8 2614 2548 2615 2675 2672 2612 2673 2727
8 2616 2550 2617 2677 2674 2614 2675 2729
8 2617 2551 2618 2678 2675 2615 2676 2730
8 2619 2553 2620 2680 2677 2617 2678 2732
8 2620 2554 2621 2681 2678 2618 2679 2733
8 2624 2556 2623 2684 2680 2620 2681 2735
8 2681 2621 2555 2623 2736 2682 2622 2683
8 2626 2559 2625 2685 2684 2623 2683 2737
8 2688 2628 2584 2650 2740 2686 2647 2707
8 2688 2628 2687 2742 2650 2584 2629 2690
8 2690 2629 2689 2745 2630 2564 2631 2692
8 2746 2690 2630 2691 2709 2650 2585 2651
8 2691 2630 2692 2747 2632 2565 2633 2694
8 2692 2631 2693 2748 2633 2566 2634 2695
8 2694 2633 2695 2750 2635 2568 2636 2697
8 2695 2634 2696 2751 2636 2569 2637 2698
8 2697 2636 2698 2753 2638 2571 2639 2700
8 2698 2637 2699 2754 2639 2572 2640 2701
8 2700 2639 2701 2755 2641 2574 2642 2702
8 2659 2596 2658 2714 2704 2644 2703 2757
8 2704 2644 2703 2757 2655 2590 2652 2710
8 2660 2597 2659 2715 2705 2645 2704 2758
8 2705 2645 2704 2758 2657 2593 2655 2712
8 2759 2706 2647 2707 2710 2652 2587 2653
8 2709 2650 2585 2651 2760 2707 2648 2708
8 2708 2648 2589 2654 2760 2707 2653 2711
8 2712 2655 2710 2761 2656 2592 2653 2711
8 2763 2713 2658 2714 2718 2664 2603 2663
8 2662 2602 2663 2717 2715 2659 2714 2764
8 2720 2666 2718 2767 2665 2605 2663 2717
8 2768 2719 2664 2718 2721 2667 2606 2666
8 2668 2608 2669 2723 2720 2666 2721 2770
8 2669 2609 2670 2724 2721 2667 2722 2771
8 2671 2611 2672 2726 2723 2669 2724 2773
8 2672 2612 2673 2727 2724 2670 2725 2774
8 2674 2614 2675 2729 2726 2672 2727 2776
8 2675 2615 2676 2730 2727 2673 2728 2777
8 2677 2617 2678 2732 2729 2675 2730 2779
8 2678 2618 2679 2733 2730 2676 2731 2780
8 2680 2620 2681 2735 2732 2678 2733 2782
8 2733 2679 2621 2681 2783 2734 2682 2736
8 2735 2681 2623 2684 2784 2736 2683 2737
8 2740 2686 2647 2707 2787 2738 2706 2759
8 2688 2628 2686 2740 2742 2687 2739 2789
8 2743 2688 2650 2709 2790 2740 2707 2760
8 2742 2687 2741 2792 2690 2629 2689 2745
8 2743 2688 2742 2793 2709 2650 2690 2746
8 2745 2689 2744 2795 2692 2631 2693 2748
8 2746 2690 2745 2796 2691 2630 2692 2747
8 2747 2692 2748 2797 2694 2633 2695 2750
8 2748 2693 2749 2798 2695 2634 2696 2751
8 2750 2695 2751 2800 2697 2636 2698 2753
8 2751 2696 2752 2801 2698 2637 2699 2754
8 2753 2698 2754 2802 2700 2639 2701 2755
8 2763 2713 2756 2804 2714 2658 2703 2757
8 2759 2706 2652 2710 2804 2756 2703 2757
8 2715 2659 2714 2764 2758 2704 2757 2805
8 2758 2704 2757 2805 2712 2655 2710 2761
8 2806 2759 2707 2760 2761 2710 2653 2711
8 2765 2716 2762 2808 2718 2664 2713 2763
8 2809 2763 2714 2764 2767 2718 2663 2717
8 2765 2716 2664 2718 2811 2766 2719 2768
8 2813 2768 2718 2767 2770 2721 2666 2720
8 2814 2769 2719 2768 2771 2722 2667 2721
8 2723 2669 2724 2773 2770 2721 2771 2816
8 2724 2670 2725 2774 2771 2722 2772 2817
8 2726 2672 2727 2776 2773 2724 2774 2819
8 2727 2673 2728 2777 2774 2725 2775 2820
8 2729 2675 2730 2779 2776 2727 2777 2822
8 2730 2676 2731 2780 2777 2728 2778 2823
8 2732 2678 2733 2782 2779 2730 2780 2825
8 2780 2731 2679 2733 2826 2781 2734 2783
8 2782 2733 2681 2735 2827 2783 2736 2784
8 2830 2785 2738 2787 2804 2756 2706 2759
8 2789 2739 2686 2740 2832 2786 2738 2787
8 2790 2740 2707 2760 2833 2787 2759 2806
8 2742 2687 2739 2789 2792 2741 2788 2835
8 2743 2688 2740 2790 2793 2742 2789 2836
8 2792 2741 2791 2838 2745 2689 2744 2795
8 2793 2742 2792 2839 2746 2690 2745 2796
8 2795 2744 2794 2841 2748 2693 2749 2798
8 2796 2745 2795 2842 2747 2692 2748 2797
8 2797 2748 2798 2843 2750 2695 2751 2800
8 2798 2749 2799 2844 2751 2696 2752 2801
8 2800 2751 2801 2845 2753 2698 2754 2802
8 2808 2762 2803 2847 2763 2713 2756 2804
8 2809 2763 2804 2848 2764 2714 2757 2805
8 2806 2759 2710 2761 2848 2804 2757 2805
8 2765 2716 2766 2811 2808 2762 2807 2850
8 2810 2765 2808 2851 2767 2718 2763 2809
8 2810 2765 2718 2767 2852 2811 2768 2813
8 2811 2766 2719 2768 2853 2812 2769 2814
8 2855 2814 2768 2813 2816 2771 2721 2770
8 2856 2815 2769 2814 2817 2772 2722 2771
8 2773 2724 2774 2819 2816 2771 2817 2858
8 2774 2725 2775 2820 2817 2772 2818 2859
8 2776 2727 2777 2822 2819 2774 2820 2861
8 2777 2728 2778 2823 2820 2775 2821 2862
8 2779 2730 2780 2825 2822 2777 2823 2864
8 2823 2778 2731 2780 2865 2824 2781 2826
8 2825 2780 2733 2782 2866 2826 2783 2827
8 2869 2828 2785 2830 2847 2803 2756 2804
8 2871 2829 2786 2832 2830 2785 2738 2787
8 2872 2830 2787 2833 2848 2804 2759 2806
8 2789 2739 2786 2832 2835 2788 2831 2874
8 2836 2789 2740 2790 2875 2832 2787 2833
8 2792 2741 2788 2835 2838 2791 2834 2877
8 2793 2742 2789 2836 2839 2792 2835 2878
8 2838 2791 2837 2880 2795 2744 2794 2841
8 2839 2792 2838 2881 2796 2745 2795 2842
8 2841 2794 2840 2882 2798 2749 2799 2844
8 2842 2795 2841 2883 2797 2748 2798 2843
8 2843 2798 2844 2884 2800 2751 2801 2845
8 2886 2846 2803 2847 2850 2807 2762 2808
8 2851 2808 2847 2887 2809 2763 2804 2848
8 2850 2807 2766 2811 2889 2849 2812 2853
8 2810 2765 2811 2852 2851 2808 2850 2890
8 2852 2811 2768 2813 2891 2853 2814 2855
8 2853 2812 2769 2814 2892 2854 2815 2856
8 2894 2856 2814 2855 2858 2817 2771 2816
8 2817 2772 2818 2859 2856 2815 2857 2895
8 2819 2774 2820 2861 2858 2817 2859 2897
8 2820 2775 2821 2862 2859 2818 2860 2898
8 2822 2777 2823 2864 2861 2820 2862 2900
8 2823 2778 2824 2865 2862 2821 2863 2901
8 2864 2823 2780 2825 2902 2865 2826 2866
8 2904 2867 2828 2869 2886 2846 2803 2847
8 2869 2828 2868 2906 2830 2785 2829 2871
8 2907 2869 2830 2872 2887 2847 2804 2848
8 2871 2829 2870 2909 2832 2786 2831 2874
8 2910 2871 2832 2875 2872 2830 2787 2833
8 2835 2788 2831 2874 2877 2834 2873 2912
8 2836 2789 2832 2875 2878 2835 2874 2913
8 2877 2834 2876 2915 2838 2791 2837 2880
8 2839 2792 2835 2878 2881 2838 2877 2916
8 2880 2837 2879 2917 2841 2794 2840 2882
8 2881 2838 2880 2918 2842 2795 2841 2883
8 2883 2841 2882 2919 2843 2798 2844 2884
8 2921 2885 2846 2886 2889 2849 2807 2850
8 2922 2886 2847 2887 2890 2850 2808 2851
8 2889 2849 2812 2853 2924 2888 2854 2892
8 2890 2850 2811 2852 2925 2889 2853 2891
8 2891 2853 2814 2855 2926 2892 2856 2894
8 2892 2854 2815 2856 2927 2893 2857 2895
8 2858 2817 2859 2897 2894 2856 2895 2929
8 2859 2818 2860 2898 2895 2857 2896 2930
8 2861 2820 2862 2900 2897 2859 2898 2932
8 2862 2821 2863 2901 2898 2860 2899 2933
8 2864 2823 2865 2902 2900 2862 2901 2934
8 2904 2867 2846 2886 2936 2903 2885 2921
8 2904 2867 2903 2936 2869 2828 2868 2906
8 2937 2904 2869 2907 2922 2886 2847 2887
8 2906 2868 2905 2939 2871 2829 2870 2909
8 2907 2869 2906 2940 2872 2830 2871 2910
8 2909 2870 2908 2942 2874 2831 2873 2912
8 2910 2871 2909 2943 2875 2832 2874 2913
8 2912 2873 2911 2945 2877 2834 2876 2915
8 2878 2835 2874 2913 2916 2877 2912 2946
8 2915 2876 2914 2947 2880 2837 2879 2917
8 2916 2877 2915 2948 2881 2838 2880 2918
8 2918 2880 2917 2949 2883 2841 2882 2919
8 2921 2885 2849 2889 2951 2920 2888 2924
8 2952 2921 2886 2922 2925 2889 2850 2890
8 2924 2888 2854 2892 2954 2923 2893 2927
8 2925 2889 2853 2891 2955 2924 2892 2926
8 2926 2892 2856 2894 2956 2927 2895 2929
8 2895 2857 2896 2930 2927 2893 2928 2957
8 2897 2859 2898 2932 2929 2895 2930 2959
8 2898 2860 2899 2933 2930 2896 2931 2960
8 2900 2862 2901 2934 2932 2898 2933 2961
8 2936 2903 2885 2921 2963 2935 2920 2951
8 2936 2903 2935 2963 2906 2868 2905 2939
8 2937 2904 2886 2922 2964 2936 2921 2952
8 2937 2904 2936 2964 2907 2869 2906 2940
8 2939 2905 2938 2966 2909 2870 2908 2942
8 2940 2906 2939 2967 2910 2871 2909 2943
8 2942 2908 2941 2969 2912 2873 2911 2945
8 2943 2909 2942 2970 2913 2874 2912 2946
8 2945 2911 2944 2971 2915 2876 2914 2947
8 2946 2912 2945 2972 2916 2877 2915 2948
8 2948 2915 2947 2973 2918 2880 2917 2949
8 2951 2920 2888 2924 2975 2950 2923 2954
8 2952 2921 2889 2925 2976 2951 2924 2955
8 2927 2893 2928 2957 2954 2923 2953 2978
8 2955 2924 2892 2926 2979 2954 2927 2956
8 2929 2895 2930 2959 2956 2927 2957 2980
8 2930 2896 2931 2960 2957 2928 2958 2981
8 2932 2898 2933 2961 2959 2930 2960 2982
8 2951 2920 2950 2975 2963 2935 2962 2984
8 2963 2935 2962 2984 2939 2905 2938 2966
8 2964 2936 2921 2952 2985 2963 2951 2976
8 2964 2936 2963 2985 2940 2906 2939 2967
8 2966 2938 2965 2987 2942 2908 2941 2969
8 2967 2939 2966 2988 2943 2909 2942 2970
8 2969 2941 2968 2989 2945 2911 2944 2971
8 2970 2942 2969 2990 2946 2912 2945 2972
8 2972 2945 2971 2991 2948 2915 2947 2973
8 2954 2923 2953 2978 2975 2950 2974 2993
8 2976 2951 2924 2955 2994 2975 2954 2979
8 2957 2928 2958 2981 2978 2953 2977 2995
8 2956 2927 2957 2980 2979 2954 2978 2996
8 2959 2930 2960 2982 2980 2957 2981 2997
8 2984 2962 2983 2999 2966 2938 2965 2987
8 2975 2950 2974 2993 2984 2962 2983 2999
8 2976 2951 2975 2994 2985 2963 2984 3000
8 2985 2963 2984 3000 2967 2939 2966 2988
8 2987 2965 2986 3001 2969 2941 2968 2989
8 2988 2966 2987 3002 2970 2942 2969 2990
8 2990 2969 2989 3003 2972 2945 2971 2991
8 2978 2953 2977 2995 2993 2974 2992 3004
8 2979 2954 2978 2996 2994 2975 2993 3005
8 2980 2957 2981 2997 2996 2978 2995 3006
8 2974 2993 2999 2983 2992 3004 3007 2998
8 2983 2999 2987 2965 2998 3007 3001 2986
8 3000 2984 2999 3008 2988 2966 2987 3002
8 2994 2975 2993 3005 3000 2984 2999 3008
8 3002 2987 3001 3009 2990 2969 2989 3003
8 2996 2978 2995 3006 3005 2993 3004 3010
8 3005 2993 3004 3010 3008 2999 3007 3011
8 3008 2999 3007 3011 3002 2987 3001 3009

CELL_TYPES 1910
12
12
12
12
12
12
12
12
12
12
12
12
12
12
12
12
12
12
12
12
12
12
12
12
12
12
12
12
12
12
12
12
12
12
12
12
12
12
12
12
12
12
12
12
12
12
12
12
12
12
12
12
12
12
12
12
12
12
12
12
12
12
12
12
12
12
12
12
12
12
12
12
12
12
12
12
12
12
12
12
12
12
12
12
12
12
12
12
12
12
12
12
12
12
12
12
12
12
12
12
12
12
12
12
12
12
12
12
12
12
12
12
12
12
12
12
12
12
12
12
12
12
12
12
12
12
12
12
12
12
12
12
12
12
12
12
12
12
12
12
12
12
12
12
12
12
12
12
12
12
12
12
12
12
12
12
12
12
12
12
12
12
12
12
12
12
12
12
12
12
12
12
12
12
12
12
12
12
12
12
12
12
12
12
12
12
12
12
12
12
12
12
12
12
12
12
12
12
12
12
12
12
12
12
12
12
12
12
12
12
12
12
12
12
12
12
12
12
12
12
12
12
12
12
12
12
12
12
12
12
12
12
12
12
12
12
12
12
12
12
12
12
12
12
12
12
12
12
12
12
12
12
12
12
12
12
12
12
12
12
12
12
12
12
12
12
12
12
12
12
12
12
12
12
12
12
12
12
12
12
12
12
12
12
12
12
12
12
12
12
12
12
12
12
12
12
12
12
12
12
12
12
12
12
12
12
12
12
12
12
12
12
12
12
12
12
12
12
12
12
12
12
12
12
12
12
12
12
12
12
12
12
12
12
12
12
12
12
12
12
12
12
12
12
12
12
12
12
12
12
12
12
12
12
12
12
12
12
12
12
12
12
12
12
12
12
12
12
12
12
12
12
12
12
12
12
12
12
12
12
12
12
12
12
12
12
12
12
12
12
12
12
12
12
12
12
12
12
12
12
12
12
12
12
12
12
12
12
12
12
12
12
12
12
12
12
12
12
12
12
12
12
12
12
12
12
12
12
12
12
12
12
12
12
12
12
12
12
12
12
12
12
12
12
12
12
12
12
12
12
12
12
12
12
12
12
12
12
12
12
12
12
12
12
12
12
12
12
12
12
12
12
12
12
12
12
12
12
12
12
12
12
12
12
12
12
12
12
12
12
12
12
12
12
12
12
12
12
12
12
12
12
12
12
12
12
12
12
12
12
12
12
12
12
12
12
12
12
12
12
12
12
12
12
12
12
12
12
12
12
12
12
12
12
12
12
12
12
12
12
12
12
12
12
12
12
12
12
12
12
12
12
12
12
12
12
12
12
12
12
12
12
12
12
12
12
12
12
12
12
12
12
12
12
12
12
12
12
12
12
12
12
12
12
12
12
12
12
12
12
12
12
12
12
12
12
12
12
12
12
12
12
12
12
12
12
12
12
12
12
12
12
12
12
12
12
12
12
12
12
12
12
12
12
12
12
12
12
12
12
12
12
12
12
12
12
12
12
12
12
12
12
12
12
12
12
12
12
12
12
12
12
12
12
12
12
12
12
12
12
12
12
12
12
12
12
12
12
12
12
12
12
12
12
12
12
12
12
12
12
12
12
12
12
12
12
12
12
12
12
12
12
12
12
12
12
12
12
12
12
12
12
12
12
12
12
12
12
12
12
12
12
12
12
12
12
12
12
12
12
12
12
12
12
12
12
12
12
12
12
12
12
12
12
12
12
12
12
12
12
12
12
12
12
12
12
12
12
12
12
12
12
12
12
12
12
12
12
12
12
12
12
12
12
12
12
12
12
12
12
12
12
12
12
12
12
12
12
12
12
12
12
12
12
12
12
12
12
12
12
12
12
12
12
12
12
12
12
12
12
12
12
12
12
12
12
12
12
12
12
12
12
12
12
12
12
12
12
12
12
12
12
12
12
12
12
12
12
12
12
12
12
12
12
12
12
12
12
12
12
12
12
12
12
12
12
12
12
12
12
12
12
12
12
12
12
12
12
12
12
12
12
12
12
12
12
12
12
12
12
12
12
12
12
12
12
12
12
12
12
12
12
12
12
12
12
12
12
12
12
12
12
12
12
12
12
12
12
12
12
12
12
12
12
12
12
12
12
12
12
12
12
12
12
12
12
12
12
12
12
12
12
12
12
12
12
12
12
12
12
12
12
12
12
12
12
12
12
12
12
12
12
12
12
12
12
12
12
12
12
12
12
12
12
12
12
12
12
12
12
12
12
12
12
12
12
12
12
12
12
12
12
12
12
12
12
12
12
12
12
12
12
12
12
12
12
12
12
12
12
12
12
12
12
12
12
12
12
12
12
12
12
12
12
12
12
12
12
12
12
12
12
12
12
12
12
12
12
12
12
12
12
12
12
12
12
12
12
12
12
12
12
12
12
12
12
12
12
12
12
12
12
12
12
12
12
12
12
12
12
12
12
12
12
12
12
12
12
12
12
12
12
12
12
12
12
12
12
12
12
12
12
12
12
12
12
12
12
12
12
12
12
12
12
12
12
12
12
12
12
12
12
12
12
12
12
12
12
12
12
12
12
12
12
12
12
12
12
12
12
12
12
12
12
12
12
12
12
12
12
12
12
12
12
12
12
12
12
12
12
12
12
12
12
12
12
12
12
12
12
12
12
12
12
12
12
12
12
12
12
12
12
12
12
12
12
12
12
12
12
12
12
12
12
12
12
12
12
12
12
12
12
12
12
12
12
12
12
12
12
12
12
12
12
12
12
12
12
12
12
12
12
12
12
12
12
12
12
12
12
12
12
12
12
12
12
12
12
12
12
12
12
12
12
12
12
12
12
12
12
12
12
12
12
12
12
12
12
12
12
12
12
12
12
12
12
12
12
12
12
12
12
12
12
12
12
12
12
12
12
12
12
12
12
12
12
12
12
12
12
12
12
12
12
12
12
12
12
12
12
12
12
12
12
12
12
12
12
12
12
12
12
12
12
12
12
12
12
12
12
12
12
12
12
12
12
12
12
12
12
12
12
12
12
12
12
12
12
12
12
12
12
12
12
12
12
12
12
12
12
12
12
12
12
12
12
12
12
12
12
12
12
12
12
12
12
12
12
12
12
12
12
12
12
12
12
12
12
12
12
12
12
12
12
12
12
12
12
12
12
12
12
12
12
12
12
12
12
12
12
12
12
12
12
12
12
12
12
12
12
12
12
12
12
12
12
12
12
12
12
12
12
12
12
12
12
12
12
12
12
12
12
12
12
12
12
12
12
12
12
12
12
12
12
12
12
12
12
12
12
12
12
12
12
12
12
12
12
12
12
12
12
12
12
12
12
12
12
12
12
12
12
12
12
12
12
12
12
12
12
12
12
12
12
12
12
12
12
12
12
12
12
12
12
12
12
12
12
12
12
12
12
12
12
12
12
12
12
12
12
12
12
12
12
12
12
12
12
12
12
12
12
12
12
12
12
12
12
12
12
12
12
12
12
12
12
12
12
12
12
12
12
12
12
12
12
12
12
12
12
12
12
12
12
12
12
12
12
12
12
12
12
12
12
12
12
12
12
12
12
12
12
12
12
12
12
12
12
12
12
12
12
12
12
12
12
12
12
12
12
12
12
12
12
12
12
12
12
12
12
12
12
12
12
12
12
12
12
12
12
12
12
12
12
12
12
12
12
12
12
12
12
12
12
12
12
12
12
12
12
12
12
12
12
12
12
12
12
12
12
12
12
12
12
12
12
12
12
12
12
12
12
12
12
12
12
12
12
12
12
12
12
12
12
12
12
12
12
12
12
12
12
12
12
12
12
12
12
12
12
12
12
12
12
12
12
12
12
12
12
12
12
12
12
12
12
12
12
12
12
12
12
12
12
12
12
12
12
12
12
12
12
12
12
12
12
12
12
12
12
12
12
12
12
12
12
12
12
12
12
12
12
12
12
12
12
12
12
12
12
12
12
12
12
12
12
12
12
12
12
12
12
12
12
12
12
12
12
12
12
12
12
12
12
12
12
12
12
12
12
12
12
12
12
12
12
12
12
12
12
12
12
12
12
12
12
12
12
12
12
12
12
12
12
12
12
12
12
12
12
12
12
12
12
12
12
12
12
12
12
12
12
12
12
12
12
12
12
12
12
12
12
12
12
12
12
12
12
12
12
12
12
12
12
12
12
12
12
12
12
12
12
12
12
12
12
12
12
12
12
12
12
12
12
12
12
12
12
12
12
12
12
12
12
12
12
12
12
12
12
12
12
12
12
12
12
12
12
12
12
12
12
12
12
12
12
12
12
12
12
12
12
12
12
12
12
12
12
12
12
12
12
12
12
12
12
12
12
12
12
12
12
12
12
12
12
12
12
12
12
12
12
12
12
12
12
12
12
12
12
12
12
12
12
12
12
12
12
12
12

POINT_DATA 3012
SCALARS Jp_lamdaP float 4
LOOKUP_TABLE default
1 1 1 1
1 1 1 1
1 1 1 1
1 1 1 1
1 1 1 1
1 1 1 1
0.999996 1 1 0.999996
1 1 1 1
1 1 1 1
1 1 1 1
1 1 1 1
1 1 1 1
1 1 1 1
1 1 1 1
1 1 1 1
1 1 1 1
1 1 1 1
1 1 1 1
0.999997 1 1 0.999997
1 1 1 1
1 1 1 1
1 1 1 1
0.99999 1 1 0.99999
0.999995 1 1 0.999995
1 1 1 1
0.999998 1 1 0.999998
0.99998 1 1 0.99998
1 1 1 1
1 1 1 1
1 1 1 1
1 1 1 1
1 1 1 1
1 1 1 1
1 1 1 1
1 1 1 1
1 1 1 1
1 1 1 1
1 1 1 1
0.999989 1 1 0.999989
1 1 1 1
1 1 1 1
1 1 1 1
1 1 1 1
1 1 1 1
0.999994 1 1 0.999994
1 1 1 1
0.999998 1 1 0.999998
1 1 1 1
1 1 1 1
1 1 1 1
0.999997 1 1 0.999997
1 1 1 1
1 1 1 1
1 1 1 1
1 1 1 1
0.99999 1 1 0.99999
0.999998 1 1 0.999998
0.999995 1 1 0.999995
0.999979 1 1 0.999979
1 1 1 1
1 1 1 1
0.999994 1 1 0.999994
0.999987 1 1 0.999987
0.999993 1 1 0.999993
0.999959 1 1 0.999959
0.99997 1 1 0.99997
1 1 1 1
0.999999 1 1 0.999999
0.999986 1 1 0.999986
0.999938 1 1 0.999938
1 1 1 1
1 1 1 1
1 1 1 1
1 1 1 1
1 1 1 1
1 1 1 1
1 1 1 1
1 1 1 1
1 1 1 1
1 1 1 1
0.99999 1 1 0.99999
1 1 1 1
1 1 1 1
1 1 1 1
1 1 1 1
0.999965 1 1 0.999965
1 1 1 1
0.999984 1 1 0.999984
0.999993 1 1 0.999993
0.999955 1 1 0.999955
1 1 1 1
1 1 1 1
1 1 1 1
1 1 1 1
1 1 1 1
1 1 1 1
0.999994 1 1 0.999994
1 1 1 1
0.999998 1 1 0.999998
1 1 1 1
0.999993 1 1 0.999993
0.999996 1 1 0.999996
0.999943 1 1 0.999943
0.999999 1 1 0.999999
0.999949 1 1 0.999949
1 1 1 1
1 1 1 1
1 1 1 1
1 1 1 1
0.99999 1 1 0.99999
0.999996 1 1 0.999996
0.999999 1 1 0.999999
0.999978 1 1 0.999978
1 1 1 1
1 1 1 1
0.999989 1 1 0.999989
0.999987 1 1 0.999987
1 1 1 1
1 1 1 1
0.999993 1 1 0.999993
0.999957 1 1 0.999957
0.999985 1 1 0.999985
0.999972 1 1 0.999972
0.999938 1 1 0.999938
0.999993 1 1 0.999993
0.999985 1 1 0.999985
0.999944 1 1 0.999944
0.999949 1 1 0.999949
0.999962 1 1 0.999962
0.999919 1 1 0.999919
1 1 1 1
0.999933 1 1 0.999933
1 1 1 1
0.999991 1 1 0.999991
0.999943 1 1 0.999943
0.99992 1 1 0.99992
1 1 1 1
0.999996 1 1 0.999996
1 1 1 1
1 1 1 1
1 1 1 1
1 1 1 1
1 1 1 1
1 1 1 1
0.99999 1 1 0.99999
1 1 1 1
1 1 1 1
1 1 1 1
1 1 1 1
0.999965 1 1 0.999965
1 1 1 1
0.999984 1 1 0.999984
0.999993 1 1 0.999993
0.999953 1 1 0.999953
1 1 1 1
1 1 1 1
0.999997 1 1 0.999997
0.999958 1 1 0.999958
0.999975 1 1 0.999975
0.999926 1 1 0.999926
0.999996 1 1 0.999996
0.999946 1 1 0.999946
0.999959 1 1 0.999959
0.999936 1 1 0.999936
1 1 1 1
1 1 1 1
1 1 1 1
1 1 1 1
1 1 1 1
1 1 1 1
1 1 1 1
0.999998 1 1 0.999998
0.999995 1 1 0.999995
1 1 1 1
1 1 1 1
0.999993 1 1 0.999993
0.999996 1 1 0.999996
0.999943 1 1 0.999943
0.999999 1 1 0.999999
0.999949 1 1 0.999949
0.999992 1 1 0.999992
0.999944 1 1 0.999944
0.999945 1 1 0.999945
0.999915 1 1 0.999915
0.999953 1 1 0.999953
0.999917 1 1 0.999917
1 1 1 1
1 1 1 1
0.999984 1 1 0.999984
0.999987 1 1 0.999987
1 1 1 1
1 1 1 1
0.999994 1 1 0.999994
0.999954 1 1 0.999954
0.999974 1 1 0.999974
0.999984 1 1 0.999984
0.999939 1 1 0.999939
0.999993 1 1 0.999993
0.999985 1 1 0.999985
0.999939 1 1 0.999939
0.999951 1 1 0.999951
1 1 1 1
1 1 1 1
0.99999 1 1 0.99999
0.999963 1 1 0.999963
0.999916 1 1 0.999916
0.999942 1 1 0.999942
0.999935 1 1 0.999935
0.99992 1 1 0.99992
1 1 1 1
0.999995 1 1 0.999995
0.999942 1 1 0.999942
0.999945 1 1 0.999945
0.999911 1 1 0.999911
0.999906 1 1 0.999906
0.999929 1 1 0.999929
0.999902 1 1 0.999902
1 1 1 1
0.999917 1 1 0.999917
0.999994 1 1 0.999994
0.999949 1 1 0.999949
0.999925 1 1 0.999925
0.999914 1 1 0.999914
0.999995 1 1 0.999995
0.999996 1 1 0.999996
0.999962 1 1 0.999962
1 1 1 1
1 1 1 1
1 1 1 1
1 1 1 1
0.999966 1 1 0.999966
1 1 1 1
0.999994 1 1 0.999994
0.999985 1 1 0.999985
0.999951 1 1 0.999951
1 1 1 1
1 1 1 1
0.999997 1 1 0.999997
0.999958 1 1 0.999958
0.999976 1 1 0.999976
0.999926 1 1 0.999926
0.999996 1 1 0.999996
0.999947 1 1 0.999947
0.999958 1 1 0.999958
0.999934 1 1 0.999934
1 1 1 1
0.999997 1 1 0.999997
0.999997 1 1 0.999997
0.999966 1 1 0.999966
0.999921 1 1 0.999921
0.999937 1 1 0.999937
0.999908 1 1 0.999908
0.999963 1 1 0.999963
0.999927 1 1 0.999927
0.999932 1 1 0.999932
0.999922 1 1 0.999922
0.999998 1 1 0.999998
1 1 1 1
1 1 1 1
1 1 1 1
1 1 1 1
1 1 1 1
1 1 1 1
1 1 1 1
1 1 1 1
0.999999 1 1 0.999999
0.999997 1 1 0.999997
0.999949 1 1 0.999949
0.999943 1 1 0.999943
0.999993 1 1 0.999993
1 1 1 1
0.999992 1 1 0.999992
0.999944 1 1 0.999944
0.999945 1 1 0.999945
0.999915 1 1 0.999915
0.999953 1 1 0.999953
0.999917 1 1 0.999917
0.999943 1 1 0.999943
0.999919 1 1 0.999919
0.999914 1 1 0.999914
0.999905 1 1 0.999905
0.99992 1 1 0.99992
0.999906 1 1 0.999906
0.999993 1 1 0.999993
0.999985 1 1 0.999985
0.999934 1 1 0.999934
0.999953 1 1 0.999953
1 1 1 1
1 1 1 1
0.99999 1 1 0.99999
0.999963 1 1 0.999963
0.999913 1 1 0.999913
0.999937 1 1 0.999937
0.999942 1 1 0.999942
0.99992 1 1 0.99992
1 1 1 1
0.999995 1 1 0.999995
0.99994 1 1 0.99994
0.999945 1 1 0.999945
0.999911 1 1 0.999911
0.99991 1 1 0.99991
1 1 1 1
0.999993 1 1 0.999993
0.999951 1 1 0.999951
0.99993 1 1 0.99993
0.999901 1 1 0.999901
0.999923 1 1 0.999923
0.999917 1 1 0.999917
0.999914 1 1 0.999914
0.999995 1 1 0.999995
0.99996 1 1 0.99996
0.999996 1 1 0.999996
0.999917 1 1 0.999917
0.999908 1 1 0.999908
0.999897 1 1 0.999897
0.999893 1 1 0.999893
0.999912 1 1 0.999912
0.9999 1 1 0.9999
0.999995 1 1 0.999995
0.999913 1 1 0.999913
0.999959 1 1 0.999959
0.999926 1 1 0.999926
0.999912 1 1 0.999912
0.999919 1 1 0.999919
0.999996 1 1 0.999996
0.999963 1 1 0.999963
0.999957 1 1 0.999957
0.99994 1 1 0.99994
0.999957 1 1 0.999957
1 1 1 1
1 1 1 1
0.999997 1 1 0.999997
0.999976 1 1 0.999976
0.999926 1 1 0.999926
0.999996 1 1 0.999996
0.999958 1 1 0.999958
0.999948 1 1 0.999948
0.999932 1 1 0.999932
1 1 1 1
0.999997 1 1 0.999997
0.999997 1 1 0.999997
0.999966 1 1 0.999966
0.999921 1 1 0.999921
0.999937 1 1 0.999937
0.999908 1 1 0.999908
0.999963 1 1 0.999963
0.999929 1 1 0.999929
0.999932 1 1 0.999932
0.999924 1 1 0.999924
1 1 1 1
0.999997 1 1 0.999997
0.999966 1 1 0.999966
0.999967 1 1 0.999967
0.999938 1 1 0.999938
0.999908 1 1 0.999908
0.999917 1 1 0.999917
0.999903 1 1 0.999903
0.999934 1 1 0.999934
0.999918 1 1 0.999918
0.999909 1 1 0.999909
0.999997 1 1 0.999997
0.999971 1 1 0.999971
0.999998 1 1 0.999998
0.999998 1 1 0.999998
1 1 1 1
1 1 1 1
1 1 1 1
1 1 1 1
1 1 1 1
1 1 1 1
1 1 1 1
1 1 1 1
1 1 1 1
1 1 1 1
1 1 1 1
0.999953 1 1 0.999953
0.999945 1 1 0.999945
0.999917 1 1 0.999917
0.999915 1 1 0.999915
0.999943 1 1 0.999943
0.999992 1 1 0.999992
0.999943 1 1 0.999943
0.999919 1 1 0.999919
0.999914 1 1 0.999914
0.999905 1 1 0.999905
0.99992 1 1 0.99992
0.999907 1 1 0.999907
0.999919 1 1 0.999919
0.999911 1 1 0.999911
0.999903 1 1 0.999903
0.999901 1 1 0.999901
0.999909 1 1 0.999909
0.999908 1 1 0.999908
0.999938 1 1 0.999938
0.999945 1 1 0.999945
0.999911 1 1 0.999911
0.999913 1 1 0.999913
1 1 1 1
0.999993 1 1 0.999993
0.999953 1 1 0.999953
0.99993 1 1 0.99993
0.9999 1 1 0.9999
0.999917 1 1 0.999917
0.99992 1 1 0.99992
0.999914 1 1 0.999914
0.999995 1 1 0.999995
0.999958 1 1 0.999958
0.999996 1 1 0.999996
0.999916 1 1 0.999916
0.999908 1 1 0.999908
0.999895 1 1 0.999895
0.999894 1 1 0.999894
0.999995 1 1 0.999995
0.999959 1 1 0.999959
0.999928 1 1 0.999928
0.999913 1 1 0.999913
0.999901 1 1 0.999901
0.99991 1 1 0.99991
0.999913 1 1 0.999913
0.99992 1 1 0.99992
0.999963 1 1 0.999963
0.999938 1 1 0.999938
0.999996 1 1 0.999996
0.999957 1 1 0.999957
0.999902 1 1 0.999902
0.999891 1 1 0.999891
0.999887 1 1 0.999887
0.999891 1 1 0.999891
0.99991 1 1 0.99991
0.999904 1 1 0.999904
0.999962 1 1 0.999962
0.99992 1 1 0.99992
0.999933 1 1 0.999933
0.999912 1 1 0.999912
0.999907 1 1 0.999907
0.999923 1 1 0.999923
0.999997 1 1 0.999997
0.999958 1 1 0.999958
0.999939 1 1 0.999939
0.999934 1 1 0.999934
0.999926 1 1 0.999926
1 1 1 1
0.999921 1 1 0.999921
0.999997 1 1 0.999997
0.999997 1 1 0.999997
0.999966 1 1 0.999966
0.999937 1 1 0.999937
0.999908 1 1 0.999908
0.999963 1 1 0.999963
0.999931 1 1 0.999931
0.999931 1 1 0.999931
0.999927 1 1 0.999927
1 1 1 1
0.999997 1 1 0.999997
0.999966 1 1 0.999966
0.999967 1 1 0.999967
0.999937 1 1 0.999937
0.999907 1 1 0.999907
0.999917 1 1 0.999917
0.999903 1 1 0.999903
0.999934 1 1 0.999934
0.999919 1 1 0.999919
0.999911 1 1 0.999911
0.999997 1 1 0.999997
0.999967 1 1 0.999967
0.999936 1 1 0.999936
0.999937 1 1 0.999937
0.999924 1 1 0.999924
0.999907 1 1 0.999907
0.999909 1 1 0.999909
0.999914 1 1 0.999914
0.999912 1 1 0.999912
0.999899 1 1 0.999899
0.999998 1 1 0.999998
0.999964 1 1 0.999964
0.999968 1 1 0.999968
0.999944 1 1 0.999944
0.999972 1 1 0.999972
0.999998 1 1 0.999998
0.999998 1 1 0.999998
1 1 1 1
0.999998 1 1 0.999998
1 1 1 1
1 1 1 1
1 1 1 1
1 1 1 1
1 1 1 1
1 1 1 1
1 1 1 1
1 1 1 1
1 1 1 1
1 1 1 1
1 1 1 1
0.999919 1 1 0.999919
0.999914 1 1 0.999914
0.999907 1 1 0.999907
0.999906 1 1 0.999906
0.999919 1 1 0.999919
0.999944 1 1 0.999944
0.999919 1 1 0.999919
0.999912 1 1 0.999912
0.999903 1 1 0.999903
0.999899 1 1 0.999899
0.999909 1 1 0.999909
0.999907 1 1 0.999907
0.999911 1 1 0.999911
0.99991 1 1 0.99991
0.999898 1 1 0.999898
0.999894 1 1 0.999894
0.999912 1 1 0.999912
0.999909 1 1 0.999909
0.999914 1 1 0.999914
0.999907 1 1 0.999907
0.999893 1 1 0.999893
0.999895 1 1 0.999895
0.999995 1 1 0.999995
0.999959 1 1 0.999959
0.99993 1 1 0.99993
0.999914 1 1 0.999914
0.999901 1 1 0.999901
0.999913 1 1 0.999913
0.999909 1 1 0.999909
0.999921 1 1 0.999921
0.999963 1 1 0.999963
0.999935 1 1 0.999935
0.999996 1 1 0.999996
0.999958 1 1 0.999958
0.999902 1 1 0.999902
0.999891 1 1 0.999891
0.999885 1 1 0.999885
0.999892 1 1 0.999892
0.999962 1 1 0.999962
0.999935 1 1 0.999935
0.999912 1 1 0.999912
0.99991 1 1 0.99991
0.999905 1 1 0.999905
0.999906 1 1 0.999906
0.99992 1 1 0.99992
0.999926 1 1 0.999926
0.999939 1 1 0.999939
0.999924 1 1 0.999924
0.999934 1 1 0.999934
0.999994 1 1 0.999994
0.999958 1 1 0.999958
0.999896 1 1 0.999896
0.999881 1 1 0.999881
0.999896 1 1 0.999896
0.999915 1 1 0.999915
0.999939 1 1 0.999939
0.999932 1 1 0.999932
0.999919 1 1 0.999919
0.999898 1 1 0.999898
0.999904 1 1 0.999904
0.999992 1 1 0.999992
0.999965 1 1 0.999965
0.999932 1 1 0.999932
0.999926 1 1 0.999926
0.999915 1 1 0.999915
0.999915 1 1 0.999915
1 1 1 1
0.999997 1 1 0.999997
0.999907 1 1 0.999907
0.999967 1 1 0.999967
0.999966 1 1 0.999966
0.999936 1 1 0.999936
0.999917 1 1 0.999917
0.999902 1 1 0.999902
0.999935 1 1 0.999935
0.999912 1 1 0.999912
0.99992 1 1 0.99992
0.999997 1 1 0.999997
0.999967 1 1 0.999967
0.999937 1 1 0.999937
0.999937 1 1 0.999937
0.999922 1 1 0.999922
0.999907 1 1 0.999907
0.999908 1 1 0.999908
0.999916 1 1 0.999916
0.999911 1 1 0.999911
0.999897 1 1 0.999897
0.999968 1 1 0.999968
0.999933 1 1 0.999933
0.999918 1 1 0.999918
0.999918 1 1 0.999918
0.999912 1 1 0.999912
0.99993 1 1 0.99993
0.999901 1 1 0.999901
0.999915 1 1 0.999915
0.999898 1 1 0.999898
0.999881 1 1 0.999881
0.999998 1 1 0.999998
0.999966 1 1 0.999966
0.999934 1 1 0.999934
0.999966 1 1 0.999966
0.999972 1 1 0.999972
0.99994 1 1 0.99994
0.999921 1 1 0.999921
0.999938 1 1 0.999938
0.999972 1 1 0.999972
0.999998 1 1 0.999998
0.999998 1 1 0.999998
1 1 1 1
0.999998 1 1 0.999998
1 1 1 1
1 1 1 1
1 1 1 1
1 1 1 1
1 1 1 1
1 1 1 1
1 1 1 1
1 1 1 1
1 1 1 1
1 1 1 1
1 1 1 1
0.999909 1 1 0.999909
0.999903 1 1 0.999903
0.999907 1 1 0.999907
0.999898 1 1 0.999898
0.999913 1 1 0.999913
0.999919 1 1 0.999919
0.999912 1 1 0.999912
0.99991 1 1 0.99991
0.999898 1 1 0.999898
0.99989 1 1 0.99989
0.999912 1 1 0.999912
0.999909 1 1 0.999909
0.999916 1 1 0.999916
0.999905 1 1 0.999905
0.999892 1 1 0.999892
0.999927 1 1 0.999927
0.999903 1 1 0.999903
0.999891 1 1 0.999891
0.999883 1 1 0.999883
0.999892 1 1 0.999892
0.999962 1 1 0.999962
0.999937 1 1 0.999937
0.999912 1 1 0.999912
0.99991 1 1 0.99991
0.999907 1 1 0.999907
0.99992 1 1 0.99992
0.999905 1 1 0.999905
0.999929 1 1 0.999929
0.999939 1 1 0.999939
0.999923 1 1 0.999923
0.999934 1 1 0.999934
0.999991 1 1 0.999991
0.999958 1 1 0.999958
0.999893 1 1 0.999893
0.999883 1 1 0.999883
0.999896 1 1 0.999896
0.999939 1 1 0.999939
0.999921 1 1 0.999921
0.999897 1 1 0.999897
0.999914 1 1 0.999914
0.999908 1 1 0.999908
0.999932 1 1 0.999932
0.999992 1 1 0.999992
0.999926 1 1 0.999926
0.999916 1 1 0.999916
0.999916 1 1 0.999916
0.999933 1 1 0.999933
0.999962 1 1 0.999962
0.99989 1 1 0.99989
0.999882 1 1 0.999882
0.999907 1 1 0.999907
0.99993 1 1 0.99993
0.999925 1 1 0.999925
0.99992 1 1 0.99992
0.999902 1 1 0.999902
0.999888 1 1 0.999888
0.999994 1 1 0.999994
0.999965 1 1 0.999965
0.999936 1 1 0.999936
0.999908 1 1 0.999908
0.999914 1 1 0.999914
0.999905 1 1 0.999905
0.999997 1 1 0.999997
0.999967 1 1 0.999967
0.999907 1 1 0.999907
0.999937 1 1 0.999937
0.999939 1 1 0.999939
0.999921 1 1 0.999921
0.999908 1 1 0.999908
0.999917 1 1 0.999917
0.99991 1 1 0.99991
0.999895 1 1 0.999895
0.999968 1 1 0.999968
0.999934 1 1 0.999934
0.99992 1 1 0.99992
0.999919 1 1 0.999919
0.999913 1 1 0.999913
0.999931 1 1 0.999931
0.999902 1 1 0.999902
0.999921 1 1 0.999921
0.999897 1 1 0.999897
0.999878 1 1 0.999878
0.999932 1 1 0.999932
0.99991 1 1 0.99991
0.999904 1 1 0.999904
0.999904 1 1 0.999904
0.999933 1 1 0.999933
0.999935 1 1 0.999935
0.999884 1 1 0.999884
0.999872 1 1 0.999872
0.999969 1 1 0.999969
0.999936 1 1 0.999936
0.999917 1 1 0.999917
0.999972 1 1 0.999972
0.999937 1 1 0.999937
0.999972 1 1 0.999972
0.999919 1 1 0.999919
0.999939 1 1 0.999939
0.999905 1 1 0.999905
0.999916 1 1 0.999916
0.999938 1 1 0.999938
0.999971 1 1 0.999971
0.999998 1 1 0.999998
0.999998 1 1 0.999998
1 1 1 1
0.999998 1 1 0.999998
1 1 1 1
1 1 1 1
1 1 1 1
1 1 1 1
1 1 1 1
1 1 1 1
1 1 1 1
1 1 1 1
1 1 1 1
1 1 1 1
1 1 1 1
0.999912 1 1 0.999912
0.999898 1 1 0.999898
0.999908 1 1 0.999908
0.999887 1 1 0.999887
0.99991 1 1 0.99991
0.999912 1 1 0.999912
0.999913 1 1 0.999913
0.999904 1 1 0.999904
0.999895 1 1 0.999895
0.999925 1 1 0.999925
0.999911 1 1 0.999911
0.999901 1 1 0.999901
0.999913 1 1 0.999913
0.99989 1 1 0.99989
0.999885 1 1 0.999885
0.999897 1 1 0.999897
0.999939 1 1 0.999939
0.999923 1 1 0.999923
0.999897 1 1 0.999897
0.999913 1 1 0.999913
0.999931 1 1 0.999931
0.999911 1 1 0.999911
0.999926 1 1 0.999926
0.999916 1 1 0.999916
0.999918 1 1 0.999918
0.999992 1 1 0.999992
0.999934 1 1 0.999934
0.99996 1 1 0.99996
0.999894 1 1 0.999894
0.999881 1 1 0.999881
0.999905 1 1 0.999905
0.999925 1 1 0.999925
0.999904 1 1 0.999904
0.99989 1 1 0.99989
0.999932 1 1 0.999932
0.99992 1 1 0.99992
0.999996 1 1 0.999996
0.999965 1 1 0.999965
0.999914 1 1 0.999914
0.999905 1 1 0.999905
0.999909 1 1 0.999909
0.999934 1 1 0.999934
0.9999 1 1 0.9999
0.999883 1 1 0.999883
0.999932 1 1 0.999932
0.99994 1 1 0.99994
0.99991 1 1 0.99991
0.999892 1 1 0.999892
0.999891 1 1 0.999891
0.999999 1 1 0.999999
0.999975 1 1 0.999975
0.999965 1 1 0.999965
0.999931 1 1 0.999931
0.999908 1 1 0.999908
0.999896 1 1 0.999896
0.999906 1 1 0.999906
0.999896 1 1 0.999896
0.999968 1 1 0.999968
0.999936 1 1 0.999936
0.999932 1 1 0.999932
0.999921 1 1 0.999921
0.999922 1 1 0.999922
0.999914 1 1 0.999914
0.999902 1 1 0.999902
0.999927 1 1 0.999927
0.999895 1 1 0.999895
0.999875 1 1 0.999875
0.999932 1 1 0.999932
0.999913 1 1 0.999913
0.999906 1 1 0.999906
0.999906 1 1 0.999906
0.999932 1 1 0.999932
0.999933 1 1 0.999933
0.999887 1 1 0.999887
0.999872 1 1 0.999872
0.999914 1 1 0.999914
0.999923 1 1 0.999923
0.999898 1 1 0.999898
0.999889 1 1 0.999889
0.999951 1 1 0.999951
0.999883 1 1 0.999883
0.999862 1 1 0.999862
0.999938 1 1 0.999938
0.999917 1 1 0.999917
0.999903 1 1 0.999903
0.999972 1 1 0.999972
0.999941 1 1 0.999941
0.999916 1 1 0.999916
0.999971 1 1 0.999971
0.999938 1 1 0.999938
0.999903 1 1 0.999903
0.999919 1 1 0.999919
0.999894 1 1 0.999894
0.9999 1 1 0.9999
0.99992 1 1 0.99992
0.999939 1 1 0.999939
0.99997 1 1 0.99997
0.999998 1 1 0.999998
0.999998 1 1 0.999998
1 1 1 1
0.999998 1 1 0.999998
1 1 1 1
1 1 1 1
1 1 1 1
1 1 1 1
1 1 1 1
1 1 1 1
1 1 1 1
1 1 1 1
1 1 1 1
1 1 1 1
1 1 1 1
1 1 1 1
0.999923 1 1 0.999923
0.999898 1 1 0.999898
0.999904 1 1 0.999904
0.99991 1 1 0.99991
0.999913 1 1 0.999913
0.9999 1 1 0.9999
0.999917 1 1 0.999917
0.99991 1 1 0.99991
0.999906 1 1 0.999906
0.999945 1 1 0.999945
0.999898 1 1 0.999898
0.99988 1 1 0.99988
0.999903 1 1 0.999903
0.999925 1 1 0.999925
0.999906 1 1 0.999906
0.999892 1 1 0.999892
0.999934 1 1 0.999934
0.999919 1 1 0.999919
0.999914 1 1 0.999914
0.999905 1 1 0.999905
0.999911 1 1 0.999911
0.999998 1 1 0.999998
0.999965 1 1 0.999965
0.999933 1 1 0.999933
0.999897 1 1 0.999897
0.999999 1 1 0.999999
0.999973 1 1 0.999973
0.999884 1 1 0.999884
0.999927 1 1 0.999927
0.999911 1 1 0.999911
0.999889 1 1 0.999889
0.999893 1 1 0.999893
0.999939 1 1 0.999939
0.99997 1 1 0.99997
0.999931 1 1 0.999931
0.999907 1 1 0.999907
0.999897 1 1 0.999897
0.999893 1 1 0.999893
0.999909 1 1 0.999909
0.999877 1 1 0.999877
0.999907 1 1 0.999907
0.999963 1 1 0.999963
0.999912 1 1 0.999912
0.999901 1 1 0.999901
0.999879 1 1 0.999879
0.999974 1 1 0.999974
0.999973 1 1 0.999973
0.999947 1 1 0.999947
0.999928 1 1 0.999928
0.99991 1 1 0.99991
0.999884 1 1 0.999884
0.99988 1 1 0.99988
0.999897 1 1 0.999897
0.999932 1 1 0.999932
0.999915 1 1 0.999915
0.999931 1 1 0.999931
0.999931 1 1 0.999931
0.999907 1 1 0.999907
0.999907 1 1 0.999907
0.999889 1 1 0.999889
0.999871 1 1 0.999871
0.999914 1 1 0.999914
0.999934 1 1 0.999934
0.999897 1 1 0.999897
0.999886 1 1 0.999886
0.999949 1 1 0.999949
0.999884 1 1 0.999884
0.99986 1 1 0.99986
0.999898 1 1 0.999898
0.999955 1 1 0.999955
0.999886 1 1 0.999886
0.999865 1 1 0.999865
0.999888 1 1 0.999888
1.00029 1 1.00045 0.999846
0.983938 1.00179 0.982329 0.999848
0.999917 1 1 0.999917
0.999903 1 1 0.999903
0.999894 1 1 0.999894
0.999971 1 1 0.999971
0.999938 1 1 0.999938
0.999922 1 1 0.999922
0.999901 1 1 0.999901
0.99997 1 1 0.99997
0.999938 1 1 0.999938
0.999894 1 1 0.999894
0.99992 1 1 0.99992
0.999902 1 1 0.999902
0.999889 1 1 0.999889
0.999904 1 1 0.999904
0.99992 1 1 0.99992
0.999934 1 1 0.999934
0.999964 1 1 0.999964
0.999941 1 1 0.999941
0.999964 1 1 0.999964
0.999998 1 1 0.999998
0.999998 1 1 0.999998
1 1 1 1
0.999998 1 1 0.999998
1 1 1 1
1 1 1 1
1 1 1 1
1 1 1 1
1 1 1 1
1 1 1 1
1 1 1 1
1 1 1 1
1 1 1 1
1 1 1 1
1 1 1 1
1 1 1 1
1 1 1 1
0.999921 1 1 0.999921
0.999898 1 1 0.999898
0.999916 1 1 0.999916
0.999911 1 1 0.999911
0.999906 1 1 0.999906
0.999959 1 1 0.999959
0.99991 1 1 0.99991
0.996281 1.00002 0.996284 0.999982
0.999935 1 0.999937 0.999998
0.999982 1 1 0.999982
0.999894 1 1 0.999894
0.999885 1 1 0.999885
0.999923 1 1 0.999923
0.999912 1 1 0.999912
0.999888 1 1 0.999888
0.999894 1 1 0.999894
0.999939 1 1 0.999939
0.999907 1 1 0.999907
0.999897 1 1 0.999897
0.999891 1 1 0.999891
0.999999 1 1 0.999999
0.99991 1 1 0.99991
0.999975 1 1 0.999975
0.99993 1 1 0.99993
0.999971 1 1 0.999971
0.999873 1 1 0.999873
0.999977 1 1 0.999977
0.999973 1 1 0.999973
0.999943 1 1 0.999943
0.999908 1 1 0.999908
0.999953 1 0.999997 0.999956
0.999901 1 1 0.999901
0.999879 1 1 0.999879
0.999913 1 1 0.999913
0.99993 1 1 0.99993
0.999909 1 1 0.999909
0.999896 1 1 0.999896
0.999883 1 1 0.999883
0.999886 1 1 0.999886
0.999906 1 1.00004 0.999861
0.998555 1 0.998598 0.999957
0.999936 1 1 0.999936
0.999884 1 1 0.999884
0.999891 1 1 0.999891
0.999943 1 1 0.999943
0.999933 1 1 0.999933
0.99992 1 1 0.99992
0.999903 1 1 0.999903
0.99989 1 1 0.99989
0.999869 1 1 0.999869
1.00005 1 1.00018 0.999876
0.999914 1 1 0.999914
0.999897 1 1 0.999897
0.999945 1 1 0.999945
0.999947 1 1 0.999947
0.999886 1 1 0.999886
0.999884 1 1 0.999884
0.999858 1 1 0.999858
0.999899 1 1 0.999899
0.999961 1 1 0.999961
0.999886 1 1 0.999886
0.999864 1 1 0.999864
0.999895 1 1 0.999895
1.00065 1 1.0008 0.999844
0.987562 1.00361 0.984145 0.99986
0.999888 1 1 0.999888
0.999868 1 1 0.999868
0.999876 1 1 0.999876
1.00161 1 1.00177 0.99984
1.00043 1 1.00061 0.999827
0.970277 0.970706 1.00002 0.999536
0.988521 1.00169 0.986946 0.99991
0.982751 1.00519 0.977874 0.999803
0.975193 0.980812 0.994294 0.999977
0.983192 1.00182 0.981409 1
0.999903 1 1 0.999903
0.999894 1 1 0.999894
0.999887 1 1 0.999887
0.99997 1 1 0.99997
0.999936 1 1 0.999936
0.99992 1 1 0.99992
0.999904 1 1 0.999904
0.999894 1 1 0.999894
0.999917 1 1 0.999917
0.999967 1 1 0.999967
0.999935 1 1 0.999935
0.99989 1 1 0.99989
0.999903 1 1 0.999903
0.999905 1 1 0.999905
0.99989 1 1 0.99989
0.999911 1 1 0.999911
0.999932 1 1 0.999932
0.999964 1 1 0.999964
0.999938 1 1 0.999938
0.999918 1 1 0.999918
0.999936 1 1 0.999936
0.999937 1 1 0.999937
0.999969 1 1 0.999969
0.999964 1 1 0.999964
0.999998 1 1 0.999998
0.999998 1 1 0.999998
1 1 1 1
0.999998 1 1 0.999998
1 1 1 1
1 1 1 1
1 1 1 1
1 1 1 1
1 1 1 1
1 1 1 1
1 1 1 1
1 1 1 1
1 1 1 1
1 1 1 1
1 1 1 1
1 1 1 1
1 1 1 1
1 1 1 1
0.999906 1 1 0.999906
0.999911 1 1 0.999911
0.999972 1 1 0.999972
0.995995 1 0.996013 0.999982
0.99991 1 1 0.99991
0.99996 1 0.999977 0.999983
0.999932 1 1.00004 0.999894
0.987576 0.990452 0.997272 0.999824
0.999953 1 0.999954 0.999998
0.999985 1 1 0.999985
0.999982 1 1 0.999982
0.999951 1 1 0.999951
0.999958 1 1 0.999958
0.999868 1 1 0.999868
0.999908 1 1 0.999908
0.99995 1 1 0.99995
0.999902 1 1 0.999902
0.999879 1 1 0.999879
0.999914 1 1 0.999914
0.999896 1 1 0.999896
0.999886 1 1 0.999886
0.999888 1 1 0.999888
0.999973 1 1 0.999973
0.999908 1 1 0.999908
0.999933 1 1 0.999933
0.99998 1 1 0.99998
0.999939 1 1 0.999939
0.9999 1 1.00003 0.999865
0.999947 1 1 0.999947
0.999936 1 1 0.999936
0.999922 1 1 0.999922
0.999211 1 0.999255 0.999955
0.999936 1 1 0.999936
0.999891 1 1 0.999891
0.999886 1 1 0.999886
0.999903 1 1 0.999903
0.999891 1 1 0.999891
0.999952 1 1.00008 0.999876
0.99987 1 1 0.99987
0.999937 1 1.00003 0.999907
0.998656 1 0.998687 0.999969
0.999882 1 1 0.999882
0.99988 1 1 0.99988
0.999913 1 1 0.999913
0.999906 1 1 0.999906
0.999874 1 1 0.999874
1.00027 1 1.00042 0.99985
0.970489 0.972798 0.998058 0.999567
0.9999 1 1 0.9999
0.999885 1 1 0.999885
0.999966 1 1 0.999966
0.999903 1 1 0.999903
1.00102 1 1.00118 0.999843
0.999864 1 1 0.999864
0.991613 1.00549 0.986326 0.999871
0.999889 1 1 0.999889
0.99987 1 1 0.99987
0.999877 1 1 0.999877
1.0013 1 1.00146 0.99984
1.00017 1 1.00034 0.999835
0.971238 0.970629 1.00105 0.999583
0.986517 1.00003 0.986731 0.999758
0.984742 1.00647 0.97861 0.999801
0.976224 0.982001 0.994215 0.999901
0.984212 1.0018 0.982443 1
0.999886 1 1 0.999886
0.97716 0.979546 0.997719 0.999846
0.993759 1.00072 0.993043 1
0.99981 1 1 0.99981
1.00116 1 1.0013 0.999866
1.00555 1 1.00574 0.999814
0.997464 1.00604 0.991699 0.999771
0.981705 0.977585 1.00478 0.999437
0.986208 1.00561 0.980974 0.99973
0.972544 0.985242 0.987142 0.99997
0.993755 1.00187 0.991899 0.999999
0.999894 1 1 0.999894
0.999887 1 1 0.999887
0.999883 1 1 0.999883
0.999969 1 1 0.999969
0.999937 1 1 0.999937
0.999915 1 1 0.999915
0.999902 1 1 0.999902
0.999891 1 1 0.999891
0.999964 1 1 0.999964
0.999904 1 1 0.999904
0.999914 1 1 0.999914
0.999934 1 1 0.999934
0.999889 1 1 0.999889
0.999895 1 1 0.999895
0.999883 1 1 0.999883
0.99991 1 1 0.99991
0.999937 1 1 0.999937
0.999938 1 1 0.999938
0.999915 1 1 0.999915
0.999913 1 1 0.999913
0.999913 1 1 0.999913
0.999901 1 1 0.999901
0.999909 1 1 0.999909
0.999933 1 1 0.999933
0.999936 1 1 0.999936
0.999968 1 1 0.999968
0.999934 1 1 0.999934
0.999967 1 1 0.999967
0.999998 1 1 0.999998
0.999964 1 1 0.999964
0.999998 1 1 0.999998
1 1 1 1
0.999998 1 1 0.999998
1 1 1 1
1 1 1 1
1 1 1 1
1 1 1 1
1 1 1 1
0.999984 1 1 0.999984
1 1 1 1
1 1 1 1
1 1 1 1
1 1 1 1
1 1 1 1
1 1 1 1
1 1 1 1
1 1 1 1
1 1 1 1
0.995447 1 0.995465 0.999982
0.99991 1 1 0.99991
0.999968 1 1 0.999968
0.98912 0.990856 0.99834 0.999908
1.00005 1 1.00006 0.999995
0.999917 1 1.00003 0.999884
1.00147 1 1.00159 0.999879
0.995866 0.994414 1.00163 0.999834
0.973859 0.97433 1.00011 0.999403
0.974417 0.980749 0.993724 0.999818
0.988208 1.00072 0.987495 1
0.999952 1 1 0.999952
0.999984 1 1 0.999984
0.999982 1 1 0.999982
0.99995 1 1 0.99995
0.999931 1 1 0.999931
0.999938 1 1 0.999938
0.999954 1 1 0.999954
0.999956 1 1 0.999956
0.999895 1 1.00003 0.999869
0.999799 1 0.999845 0.999954
0.99993 1 0.999994 0.999936
0.999891 1 1 0.999891
0.999887 1 1 0.999887
0.999877 1 1 0.999877
0.999871 1 1 0.999871
0.999893 1 1 0.999893
0.999938 1 1 0.999938
0.999904 1 1 0.999904
0.999951 1 1 0.999951
0.999924 1 1 0.999924
0.999583 1 0.999677 0.999905
0.999914 1 1 0.999914
0.999908 1 1 0.999908
0.998382 1 0.998415 0.999968
0.999886 1 1 0.999886
0.999927 1 1.00005 0.999875
0.999874 1 1 0.999874
1.00026 1 1.00041 0.999851
0.988611 1.00059 0.988078 0.999947
1.00141 1 1.00151 0.9999
0.99986 1 1 0.99986
1.00128 1 1.00144 0.999841
0.999893 1 1 0.999893
0.999883 1 1 0.999883
1.00008 1 1.00023 0.999848
0.974819 0.980813 0.993909 0.99998
0.973197 0.973736 0.999869 0.999577
0.99989 1 1 0.99989
0.999877 1 1 0.999877
0.999872 1 1 0.999872
0.999863 1 1.00002 0.999843
1.00094 1 1.0011 0.999841
0.971545 0.972272 0.999863 0.999389
0.989119 0.999283 0.989891 0.999936
0.986899 1.00776 0.979497 0.999799
0.973696 0.981576 0.992156 0.999816
0.985039 1.00169 0.983378 1
0.999886 1 1 0.999886
0.975559 0.980324 0.995161 0.999978
0.994007 1.001 0.993017 1
0.999809 1 1 0.999809
1.0005 1 1.00063 0.999867
1.00495 1 1.00513 0.999821
0.996433 1.00451 0.992196 0.999766
0.979451 0.977151 1.00302 0.999338
0.981338 1.00266 0.978812 0.999925
0.973287 0.98558 0.987734 0.999791
0.990563 1.00198 0.988606 1
0.999882 1 1 0.999882
0.998712 0.999756 0.998956 0.999999
0.999352 0.999878 0.999474 1
1.00801 1 1.00821 0.999803
1.00433 1 1.00447 0.999864
1.00277 1.0021 1.0008 0.999872
0.99135 1.0014 0.990019 0.999945
0.984997 0.981781 1.00391 0.999369
0.981463 0.994907 0.986722 0.999761
0.999355 1.00127 0.998087 0.999998
0.999887 1 1 0.999887
0.999882 1 1 0.999882
0.999879 1 1 0.999879
0.999964 1 1 0.999964
0.999937 1 1 0.999937
0.999917 1 1 0.999917
0.999904 1 1 0.999904
0.999887 1 1 0.999887
0.999936 1 1 0.999936
0.999897 1 1 0.999897
0.99991 1 1 0.99991
0.999882 1 1 0.999882
0.999876 1 1 0.999876
0.999889 1 1 0.999889
0.999911 1 1 0.999911
0.999938 1 1 0.999938
0.999912 1 1 0.999912
0.999913 1 1 0.999913
0.999913 1 1 0.999913
0.999902 1 1 0.999902
0.999909 1 1 0.999909
0.999897 1 1 0.999897
0.999894 1 1 0.999894
0.9999 1 1 0.9999
0.999913 1 1 0.999913
0.999913 1 1 0.999913
0.999909 1 1 0.999909
0.999932 1 1 0.999932
0.999933 1 1 0.999933
0.999967 1 1 0.999967
0.999936 1 1 0.999936
0.999968 1 1 0.999968
0.999998 1 1 0.999998
0.999964 1 1 0.999964
0.999998 1 1 0.999998
1 1 1 1
0.999998 1 1 0.999998
1 1 1 1
1 1 1 1
1 1 1 1
1 1 1 1
1 1 1 1
0.999985 1 1 0.999985
1 1 1 1
0.999984 1 1 0.999984
1 1 1 1
1 1 1 1
1 1 1 1
1 1 1 1
1 1 1 1
1 1 1 1
1 1 1 1
1 1 1 1
0.975835 0.979794 0.995976 0.999983
0.997332 1.00054 0.996794 1
0.990562 0.991061 0.999527 0.999969
1.00011 1 1.00012 0.999992
0.999902 1 1.00003 0.999873
0.995423 0.993466 1.00198 0.999992
1.00068 1 1.0008 0.999883
0.976838 0.976017 1.0013 0.999538
0.975036 0.980279 0.994673 0.999979
0.988685 1.0011 0.987602 1
1.00284 0.997715 1.00521 0.999926
0.981135 0.97905 1.00266 0.999473
0.973937 0.984987 0.988811 0.99997
0.99101 1.00238 0.988662 0.999999
0.999923 1 1 0.999923
0.999954 1 1 0.999954
0.999984 1 1 0.999984
0.999949 1 1 0.999949
0.999933 1 1 0.999933
0.99993 1 1 0.99993
0.999939 1 1 0.999939
0.999945 1 1 0.999945
0.999952 1 1 0.999952
0.999954 1 1 0.999954
0.999249 1 0.999345 0.999904
0.99819 1 0.998224 0.999966
0.999889 1 1 0.999889
0.999955 1 1.00009 0.99987
1.00023 1 1.00038 0.999853
0.999875 1 1 0.999875
0.99991 1 1 0.99991
0.999915 1 1 0.999915
0.991541 1.00024 0.991366 0.99994
0.999891 1 1 0.999891
0.99988 1 1 0.99988
1.00011 1 1.0002 0.999906
0.999857 1 1 0.999857
1.0008 1 1.00096 0.999837
1.00021 1 1.00036 0.999846
0.980977 1.00391 0.977252 0.999902
1.00439 1 1.00455 0.99984
1.00134 1 1.00152 0.999821
0.999891 1 1 0.999891
0.999874 1 1 0.999874
0.999857 1 1 0.999857
0.997391 0.999433 0.997958 0.999999
0.975809 0.980085 0.995781 0.999856
0.971177 0.973444 0.998115 0.999555
0.999886 1 1 0.999886
0.999869 1 1 0.999869
0.999809 1 1 0.999809
1.00444 1 1.00461 0.999829
0.974828 0.980683 0.994188 0.999841
0.976925 0.976407 1.00092 0.999614
0.981732 1.00385 0.978208 0.99975
0.996161 1.00312 0.993303 0.999762
0.973696 0.984879 0.988675 0.99997
0.993553 1.00135 0.992215 1
0.98867 1.00233 0.986372 0.999999
0.999881 1 1 0.999881
0.998196 0.999982 0.998215 0.999999
0.999424 0.999833 0.999591 1
1.00836 1 1.00856 0.999802
1.00443 1 1.00457 0.999864
1.00588 1.00172 1.00438 0.999777
0.98835 1.00131 0.987313 0.999741
0.983546 0.981791 1.00243 0.999363
0.986051 0.993961 0.992085 0.999957
0.997089 1.0012 0.995894 0.999996
0.999884 1 1 0.999884
0.999251 0.999248 1 1
0.999379 0.998947 1.00043 1
1.00611 1 1.0062 0.999913
1.00031 0.997663 1.00269 0.999959
0.992265 0.987894 1.00501 0.999414
0.985623 1.00238 0.983344 0.999937
0.999002 0.99917 0.999841 0.999991
0.999882 1 1 0.999882
0.99988 1 1 0.99988
0.999875 1 1 0.999875
0.999936 1 1 0.999936
0.99991 1 1 0.99991
0.999899 1 1 0.999899
0.999881 1 1 0.999881
0.999911 1 1 0.999911
0.999889 1 1 0.999889
0.999876 1 1 0.999876
0.999881 1 1 0.999881
0.999874 1 1 0.999874
0.999892 1 1 0.999892
0.999913 1 1 0.999913
0.999912 1 1 0.999912
0.999902 1 1 0.999902
0.999898 1 1 0.999898
0.999909 1 1 0.999909
0.999895 1 1 0.999895
0.999892 1 1 0.999892
0.999887 1 1 0.999887
0.999892 1 1 0.999892
0.9999 1 1 0.9999
0.999903 1 1 0.999903
0.999909 1 1 0.999909
0.999928 1 1 0.999928
0.999916 1 1 0.999916
0.999915 1 1 0.999915
0.999932 1 1 0.999932
0.999909 1 1 0.999909
0.999932 1 1 0.999932
0.999966 1 1 0.999966
0.999933 1 1 0.999933
0.999967 1 1 0.999967
0.999998 1 1 0.999998
0.999968 1 1 0.999968
0.999998 1 1 0.999998
1 1 1 1
0.999998 1 1 0.999998
1 1 1 1
1 1 1 1
1 1 1 1
1 1 1 1
1 1 1 1
0.999977 1 1 0.999977
1 1 1 1
0.999982 1 1 0.999982
1 1 1 1
1 1 1 1
0.999985 1 1 0.999985
1 1 1 1
1 1 1 1
1 1 1 1
1 1 1 1
1 1 1 1
1 1 1 1
0.998897 0.999755 0.999142 1
0.974707 0.9787 0.996004 0.999916
0.999781 1.0002 0.999576 1
0.996868 1.00045 0.996424 1
0.99242 0.991965 1.00061 0.999851
0.99993 1 1.00004 0.999887
0.977003 0.975571 1.00178 0.999685
0.9746 0.980473 0.994183 0.999825
0.989296 1.00141 0.987901 1
0.999481 0.998624 1.00098 0.999883
0.98078 0.977304 1.00412 0.99944
0.975164 0.985282 0.989936 0.999793
0.990813 1.0021 0.988739 1
0.996332 1.00211 0.994305 0.999928
0.985128 0.981245 1.00461 0.99935
0.984616 0.994189 0.990412 0.999959
0.999057 1.00036 0.998694 0.999999
0.999908 1 1 0.999908
0.999926 1 1 0.999926
0.999957 1 1 0.999957
0.999935 1 1 0.999935
0.999916 1 1 0.999916
0.999932 1 1 0.999932
0.99994 1 1 0.99994
0.999943 1 1 0.999943
0.999948 1 1 0.999948
0.999949 1 1 0.999949
0.994623 1 0.994689 0.999934
0.998818 1 0.998906 0.999912
0.999855 1 1 0.999855
1.00044 1 1.0006 0.999834
1.00036 1 1.00051 0.999843
0.999878 1 1 0.999878
0.99989 1 1 0.99989
0.999891 1 1 0.999891
0.983496 1.00239 0.981256 0.999898
0.999875 1 1 0.999875
0.99991 1 1.00005 0.999856
1.00413 1 1.00429 0.999842
1.00143 1 1.00161 0.999821
0.989167 1.004 0.985371 0.999858
1.00882 1 1.00899 0.999828
1.00015 1 1.00032 0.999829
0.999877 1 1 0.999877
0.999856 1 1 0.999856
0.998966 0.998965 1 1
0.998245 0.999444 0.9988 0.999999
0.976075 0.980813 0.995188 0.999981
0.999881 1 1 0.999881
1.00441 1 1.00455 0.999864
1.00859 1 1.00879 0.999801
0.999151 1.0002 0.998954 0.999999
0.984672 0.981547 1.00385 0.999332
0.98563 1.00168 0.984036 0.999945
1.00721 1.00095 1.00657 0.999682
0.978273 0.990692 0.987684 0.999778
0.999494 0.999781 0.999714 1
0.998137 1.00048 0.99766 0.999995
0.999886 1 1 0.999886
0.999197 0.999192 1 1
0.999208 0.998731 1.00048 1
1.00634 0.999985 1.00647 0.999884
1.00008 0.998069 1.00211 0.999907
0.99512 0.990699 1.00511 0.999359
1.00007 0.99987 1.0002 0.999994
0.992013 0.99987 0.992259 0.999882
0.999891 1 1 0.999891
0.999971 0.999943 1.00003 1
0.998826 0.998245 1.00058 1
0.998017 1.00033 0.997688 1
1.00301 0.99868 1.00439 0.999949
0.999005 0.990467 1.00909 0.999532
0.984418 1.00183 0.982716 0.999898
0.99988 1 1 0.99988
0.999878 1 1 0.999874
1.00073 1 1.00085 0.999882
0.999911 1 1 0.999911
0.999889 1 1 0.999889
0.999876 1 1 0.999876
0.999893 1 1 0.999893
0.999873 1 1 0.999873
0.99988 1 1 0.99988
0.999891 1 1.00001 0.999877
0.999877 1 1 0.999877
0.999899 1 1 0.999899
0.999909 1 1 0.999909
0.999896 1 1 0.999896
0.999887 1 1 0.999887
0.999892 1 1 0.999892
0.999883 1 1 0.999883
0.999897 1 1 0.999897
0.999879 1 1 0.999879
0.999899 1 1 0.999899
0.999904 1 1 0.999904
0.999891 1 1 0.999891
0.999911 1 1 0.999911
0.999929 1 1 0.999929
0.999908 1 1 0.999908
0.999941 1 1 0.999941
0.999927 1 1 0.999927
0.99992 1 1 0.99992
0.999917 1 1 0.999917
0.999933 1 1 0.999933
0.999966 1 1 0.999966
0.999932 1 1 0.999932
0.999966 1 1 0.999966
0.999997 1 1 0.999997
0.999967 1 1 0.999967
0.999997 1 1 0.999997
1 1 1 1
0.999998 1 1 0.999998
1 1 1 1
1 1 1 1
1 1 1 1
1 1 1 1
1 1 1 1
0.999968 1 1 0.999968
0.999997 1 1 0.999997
0.999977 1 1 0.999977
1 1 1 1
0.999999 1 1 0.999999
0.999978 1 1 0.999978
1 1 1 1
1 1 1 1
1 1 1 1
1 1 1 1
1 1 1 1
1 1 1 1
0.999558 0.999497 1.00006 1
0.99744 0.999686 0.997754 0.999999
0.976459 0.979073 0.997472 0.999858
0.999933 1 1 0.999933
0.999638 0.999348 1.00029 1
0.99981 1.00002 0.999788 1
0.9952 1.00036 0.994842 1
0.996433 0.999119 0.997488 0.999824
0.982649 0.977187 1.00617 0.999424
0.976622 0.985121 0.991402 0.99997
0.99274 1.00238 0.990389 0.999998
0.993629 1.00356 0.990338 0.999766
0.986134 0.98216 1.00467 0.999377
0.983686 0.993535 0.990221 0.999864
0.998184 1.00129 0.996897 0.999997
0.982798 1.00039 0.98266 0.999751
0.992039 0.988286 1.00459 0.999206
0.994231 0.998533 0.995893 0.999797
0.999693 0.999628 1.00008 0.999988
0.999893 1 1 0.999893
0.999906 1 1 0.999906
0.99993 1 1 0.99993
0.999913 1 1 0.999913
0.999919 1 1 0.999919
0.999933 1 1 0.999933
0.999944 1 1 0.999944
0.99995 1 1 0.99995
0.986019 1.00088 0.985256 0.999894
1.00382 1 1.00398 0.999844
0.99989 1 1 0.99989
1.00146 1 1.00164 0.999822
0.999942 1 1.00009 0.999855
0.999876 1 1 0.999876
0.999877 1 1 0.999877
0.987628 1.00329 0.98453 0.999854
0.999855 1 1 0.999855
1.0005 1 1.00067 0.999828
1.00918 1 1.00935 0.999828
0.999874 1 1 0.999874
1.00253 1.00079 1.00188 0.999859
1.00697 1 1.00714 0.999833
0.99984 1 1 0.99984
0.999856 1 1 0.999856
0.999813 0.999813 1 1
0.999062 0.999061 1 1
0.998925 0.999455 0.999469 1
0.999887 1 1 0.999887
1.00686 0.999979 1.00703 0.999854
0.999146 0.999142 1 1
0.993042 0.986473 1.00733 0.999338
1.00056 0.999769 1.00102 0.999773
0.989521 0.998632 0.991036 0.999839
0.99906 0.998477 1.00058 1
1.00119 1.00056 1.00063 0.999997
0.999893 1 1 0.999893
0.999976 0.999944 1.00003 1
0.999177 0.99871 1.00047 1
1.00067 0.997783 1.00293 0.999963
0.997191 1.00117 0.996023 0.999998
0.997057 0.993647 1.00385 0.999582
0.984874 0.998917 0.986128 0.999811
1.00086 1 1.00096 0.999909
1.00015 1.00015 0.999997 1
0.999646 0.999267 1.00038 1
0.989927 1.00226 0.9877 1
0.989722 0.994916 0.994966 0.999812
1.00245 0.996482 1.00597 1.00002
0.995958 0.991154 1.00524 0.999608
0.999874 1 1 0.999874
1.00044 1 1.00056 0.999879
1.00367 1 1.00379 0.999879
0.999894 1 1 0.999894
0.999873 1 1 0.999873
0.999879 1 1 0.999879
0.999877 1 1 0.999877
0.999887 1 1.00001 0.999878
1.00098 1 1.00112 0.999863
0.999887 1 1 0.999887
0.999892 1 1 0.999892
0.999953 1 1.00007 0.999881
1.00025 1 1.00039 0.999867
0.999902 1 1 0.999902
0.999882 1 1 0.999882
0.999869 1 1 0.999869
0.99989 1 1 0.99989
0.999904 1 1 0.999904
0.99989 1 1 0.99989
0.999918 1 1 0.999918
0.999927 1 1 0.999927
0.999913 1 1 0.999913
0.999944 1 1 0.999944
0.999929 1 1 0.999929
0.999908 1 1 0.999908
0.999968 1 1 0.999968
0.999939 1 1 0.999939
0.999925 1 1 0.999925
0.999934 1 1 0.999934
0.999966 1 1 0.999966
0.999997 1 1 0.999997
0.999966 1 1 0.999966
0.999997 1 1 0.999997
1 1 1 1
0.999997 1 1 0.999997
1 1 1 1
1 1 1 1
1 1 1 1
1 1 1 1
1 1 1 1
0.999964 1 1 0.999964
0.999995 1 1 0.999995
0.99997 1 1 0.99997
1 1 1 1
0.999996 1 1 0.999996
0.999977 1 1 0.999977
1 1 1 1
1 1 1 1
0.999997 1 1 0.999997
1 1 1 1
1 1 1 1
1 1 1 1
0.999837 0.999843 0.999993 1
0.99948 0.999441 1.00004 1
0.997488 0.999635 0.997853 0.999999
0.999935 1 1 0.999935
0.999931 1 1 0.999931
0.999915 1 1 0.999915
0.998717 0.998336 1.00038 1
0.999474 0.999201 1.00027 1
0.999905 0.999832 1.00007 1
0.995408 1.00558 0.989963 0.999923
0.985853 0.98165 1.00491 0.999378
0.982277 0.994199 0.988234 0.999772
0.999965 1.0011 0.998867 0.999997
0.983424 0.999538 0.98395 0.999927
0.994762 0.98898 1.00646 0.999393
0.996736 1.00315 0.993685 0.999916
1.00033 1.00009 1.00025 0.999992
0.988972 0.998073 0.990921 0.999959
0.993892 0.992082 1.00237 0.999455
0.987186 1.00271 0.98465 0.999868
1 1.00133 0.998679 0.999998
0.99989 1 1 0.99989
0.999893 1 1 0.999893
0.999904 1 1 0.999904
0.999912 1 1 0.999912
0.999922 1 1 0.999922
0.999945 1 1 0.999945
0.985937 1.00237 0.983752 0.99985
1.00948 1 1.00965 0.999828
0.999877 1 1 0.999877
1.00082 1 1.00099 0.999828
0.999855 1 1 0.999855
0.999872 1 1 0.999872
0.999854 1 1 0.999854
0.999306 1.00109 0.998359 0.999854
0.99984 1 1 0.99984
1.00715 1 1.00732 0.99983
0.999853 1 1 0.999853
1.01076 1 1.01089 0.999872
1.00027 1 1.00044 0.999833
0.999837 1 1 0.999837
1.00015 1.00017 0.999981 1
0.999909 0.99991 0.999998 1
0.99916 0.999158 1 1
0.999895 1 1 0.999895
1.00167 0.997136 1.00458 0.999976
0.999981 0.999945 1.00004 1
0.998706 0.995839 1.00312 0.999759
0.98297 1.00194 0.981151 0.999911
0.999495 0.999199 1.00029 1
0.999514 1.00113 0.998389 0.999998
1.00044 1 1.00053 0.999912
1.00015 1.00016 0.999987 1
0.999468 0.999104 1.00036 1
1.00519 0.996828 1.00846 0.999924
0.990034 1.00211 0.987946 1
0.991808 1.00132 0.990561 0.999938
0.987897 0.99023 0.998053 0.99959
1.00145 1 1.0015 0.999948
0.999815 0.999824 0.99999 1
0.999696 1.00028 0.999414 1
0.986665 1.00077 0.985904 1
0.982357 0.991967 0.990348 0.999964
0.998068 0.990813 1.00783 0.999501
1.00017 0.995117 1.00516 0.999913
1.0001 1 1.00023 0.999877
1.00401 1 1.00413 0.999879
1.0064 1 1.00654 0.999865
0.999877 1 1 0.999877
0.999879 1 1 0.999879
1.0008 1 1.00093 0.999864
1.00356 1 1.00373 0.999836
1.00002 1 1.00014 0.99988
1.00042 1 1.00055 0.999864
1.00055 1 1.00071 0.999846
0.999884 1 1 0.999884
0.999869 1 1 0.999869
0.999866 1 1 0.999866
0.999882 1 1 0.999882
0.999906 1 1 0.999906
0.999888 1 1 0.999888
0.999889 1 1 0.999889
0.99993 1 1 0.99993
0.999919 1 1 0.999919
0.999942 1 1 0.999942
0.99993 1 1 0.99993
0.999915 1 1 0.999915
0.999971 1 1 0.999971
0.999944 1 1 0.999944
0.999929 1 1 0.999929
0.999997 1 1 0.999997
0.999969 1 1 0.999969
0.999938 1 1 0.999938
0.999966 1 1 0.999966
0.999997 1 1 0.999997
1 1 1 1
0.999997 1 1 0.999997
1 1 1 1
1 1 1 1
1 1 1 1
1 1 1 1
1 1 1 1
0.999967 1 1 0.999967
0.999998 1 1 0.999998
0.999966 1 1 0.999966
1 1 1 1
0.999997 1 1 0.999997
0.999972 1 1 0.999972
1 1 1 1
1 1 1 1
0.999996 1 1 0.999996
1 1 1 1
1 1 1 1
1 1 1 1
1.00016 1.00016 0.999999 1
0.999845 0.99985 0.999995 1
0.999374 0.999367 1.00001 1
0.999934 1 1 0.999934
0.999926 1 1 0.999926
0.999936 1 1 0.999936
0.999931 1 1 0.999931
0.999913 1 1 0.999913
0.999914 1 1 0.999914
0.999901 1 1 0.999901
0.999356 0.998981 1.00037 1
0.999091 0.998827 1.00026 1
0.999312 0.999055 1.00026 1
1.001 1.00061 1.00039 0.999996
0.988683 1.00368 0.985318 0.999734
0.996435 0.990022 1.00693 0.999554
0.985105 1.00077 0.984575 0.999765
0.99144 0.997509 0.99406 0.999855
0.995684 0.994621 1.00158 0.999487
0.989474 1.00081 0.988896 0.999771
0.998475 1.0017 0.996788 0.999993
1.00105 0.996937 1.00416 0.999963
0.993486 0.994564 0.999394 0.999522
0.989096 1.00343 0.985797 0.999915
0.995265 1.00163 0.993642 0.999999
0.999883 1 1 0.999883
0.999889 1 1 0.999889
0.999893 1 1 0.999893
0.999912 1 1 0.999912
0.99546 1.00148 0.994139 0.99985
1.0074 1 1.00758 0.999827
0.99987 1 1 0.99987
0.999853 1 1 0.999853
0.999839 1 1 0.999839
0.999857 1 1 0.999857
0.999837 1 1 0.999837
1.00665 0.999333 1.00745 0.999878
1.00027 1 1.00044 0.999836
0.99984 1 1 0.99984
1.01191 0.998167 1.01385 0.999919
1.00268 1 1.00287 0.999806
0.999817 0.999817 1 1
1.0001 1.00011 0.999988 1
1 1.00001 0.999997 1
1.00008 1 1.00016 0.999914
1.00365 0.996482 1.00718 1.00001
1.00016 1.00018 0.999979 1
0.995324 0.989716 1.00608 0.999586
0.98016 0.999066 0.98129 0.999783
0.999296 0.998941 1.00035 1
0.991649 1.00245 0.989222 0.999999
1.00221 1 1.00227 0.999943
0.999827 0.999835 0.999992 1
0.999813 1.00008 0.999737 1
1.00606 0.997303 1.00875 1.00003
0.987208 1.00116 0.986064 1
0.98111 0.99138 0.98977 0.999869
0.996944 0.990926 1.00652 0.999553
0.996522 1 0.99657 0.999952
0.999579 0.999487 1.00009 1
0.996596 1.00065 0.995951 1
0.972027 0.983486 0.988377 0.999971
0.991618 0.98549 1.00684 0.999384
0.995414 0.999115 0.996476 0.999819
1.00446 1 1.00458 0.999879
1.00631 1 1.00644 0.999864
1.01079 1 1.01095 0.999838
1.00062 1 1.00075 0.999865
1.00323 1 1.00339 0.99984
1.00391 1 1.0041 0.999815
1.0006 1 1.00074 0.999861
1.00065 1 1.00081 0.999843
1.00021 1 1.00037 0.999842
0.999869 1 1 0.999869
0.999864 1 1 0.999864
0.99987 1 1 0.99987
0.999887 1 1 0.999887
0.999896 1 1 0.999896
0.99988 1 1 0.99988
0.999921 1 1 0.999921
0.999908 1 1 0.999908
0.999886 1 1 0.999886
0.999941 1 1 0.999941
0.999928 1 1 0.999928
0.99992 1 1 0.99992
0.99997 1 1 0.99997
0.999944 1 1 0.999944
0.999932 1 1 0.999932
0.999998 1 1 0.999998
0.999971 1 1 0.999971
0.999945 1 1 0.999945
1 1 1 1
0.999998 1 1 0.999998
0.999969 1 1 0.999969
0.999997 1 1 0.999997
1 1 1 1
1 1 1 1
1 1 1 1
1 1 1 1
1 1 1 1
0.999939 1 1 0.999939
0.999967 1 1 0.999967
0.999997 1 1 0.999997
0.999967 1 1 0.999967
1 1 1 1
0.999998 1 1 0.999998
0.999968 1 1 0.999968
1 1 1 1
1 1 1 1
0.999999 1 1 0.999999
1 1 1 1
1 1 1 1
1 1 1 1
0.999976 0.999975 1 1
1.00016 1.00016 0.999992 1
0.999853 0.999857 0.999995 1
0.999936 1 1 0.999936
0.999925 1 1 0.999925
0.999926 1 1 0.999926
0.99992 1 1 0.99992
0.999917 1 1 0.999917
0.999931 1 1 0.999931
0.99991 1 1 0.99991
0.999915 1 1 0.999915
0.999902 1 1 0.999902
0.999903 1 1 0.999903
0.999617 0.999739 0.999878 1
0.999161 0.998781 1.00038 1
0.999462 0.999288 1.00017 1
0.999455 1.00088 0.998585 0.999991
0.986647 1.00251 0.984289 0.999885
0.99545 0.997502 0.998168 0.999774
0.994669 0.992167 1.003 0.999525
1.0043 0.996439 1.00805 0.99984
0.986255 0.993049 0.993641 0.999516
0.995309 1.00099 0.994474 0.999854
0.99265 1.00183 0.990837 1
1.01469 0.994509 1.02043 0.999872
0.995597 0.991301 1.00483 0.999502
0.982742 0.994852 0.988053 0.999772
0.988307 1.00135 0.986974 1
0.999896 1 1 0.999896
0.999886 1 1 0.999886
0.999889 1 1 0.999889
1.00322 0.998648 1.00469 0.999884
1.00024 1 1.00041 0.999839
0.999861 1 1 0.999861
0.999836 1 1 0.999836
0.999874 1 1.00003 0.999841
1.0029 1 1.0031 0.999807
1.01169 0.998824 1.01297 0.999919
1.00121 1 1.00138 0.999828
1.00608 0.999603 1.00662 0.999864
0.998977 0.998976 1 1
0.999912 0.999913 0.999999 1
1.00004 1.00005 0.999992 1
1.00293 1 1.00299 0.999939
1.006 0.99735 1.00877 0.999907
0.999839 0.999846 0.999993 1
0.995051 0.987514 1.00824 0.999399
0.98047 0.992048 0.988555 0.999772
0.999964 0.999862 1.0001 1
0.987871 1.00148 0.986409 1
0.996317 1 0.996365 0.999951
0.999481 0.999421 1.00006 1
0.996226 1.00055 0.995678 1
0.994285 0.996736 0.997626 0.999916
0.973677 0.984189 0.989527 0.999791
0.994096 0.986832 1.00811 0.999259
0.991444 1 0.991534 0.999909
0.998756 0.999764 0.998993 1
0.974272 0.981126 0.993198 0.999815
0.983872 0.980135 1.00448 0.999338
0.980029 1.00069 0.97943 0.999927
1.00606 1 1.0062 0.999864
1.01109 1 1.01125 0.999838
1.01005 1 1.01024 0.999814
1.00289 1 1.00305 0.999843
1.00395 1 1.00413 0.999817
1.0015 1 1.00167 0.99983
1.00077 1 1.00093 0.99984
1.00019 1 1.00035 0.999843
0.999876 1 1 0.999876
0.999862 1 1 0.999862
0.999872 1 1 0.999872
0.999897 1 1 0.999897
0.999904 1 1 0.999904
0.999892 1 1 0.999892
0.999888 1 1 0.999888
0.999912 1 1 0.999912
0.999894 1 1 0.999894
0.999879 1 1 0.999879
0.999939 1 1 0.999939
0.999923 1 1 0.999923
0.99991 1 1 0.99991
0.999967 1 1 0.999967
0.99994 1 1 0.99994
0.999926 1 1 0.999926
0.999998 1 1 0.999998
0.99997 1 1 0.99997
0.999945 1 1 0.999945
1 1 1 1
0.999998 1 1 0.999998
0.999971 1 1 0.999971
1 1 1 1
1 1 1 1
0.999998 1 1 0.999998
1 1 1 1
1 1 1 1
1 1 1 1
0.999938 1 1 0.999938
0.999967 1 1 0.999967
0.999938 1 1 0.999938
0.999997 1 1 0.999997
0.999967 1 1 0.999967
1 1 1 1
0.999998 1 1 0.999998
0.999967 1 1 0.999967
1 1 1 1
1 1 1 1
0.999999 1 1 0.999999
1 1 1 1
1 1 1 1
1 1 1 1
0.999324 0.999322 1 1
0.999979 0.999971 1.00001 1
1.00016 1.00017 0.999987 1
0.999929 1 1 0.999929
0.999937 1 1 0.999937
0.999923 1 1 0.999923
0.999921 1 1 0.999921
0.999927 1 1 0.999927
0.999918 1 1 0.999918
0.999916 1 1 0.999916
0.999911 1 1 0.999911
0.999915 1 1 0.999915
0.999903 1 1 0.999903
0.999903 1 1 0.999903
0.999903 1 1 0.999903
0.995541 1.00043 0.995116 1
0.999664 0.999721 0.999942 1
0.99896 0.998588 1.00037 1
0.992115 1.0025 0.989647 0.999998
0.994315 1.00062 0.993907 0.999794
0.992867 0.993962 0.999375 0.999523
1.00577 0.995476 1.01034 0.999998
1.01781 0.994865 1.02306 1
0.989414 1.00123 0.988201 1
0.994476 0.99426 1.00079 0.999423
0.984502 0.993126 0.991359 0.999958
1.00732 0.997345 1.01004 0.999961
0.993981 0.987935 1.00673 0.999393
0.974731 0.984233 0.990367 0.999978
0.999909 1 1 0.999909
0.999896 1 1 0.999896
0.999888 1 1 0.999888
1.01139 0.999436 1.01205 0.999918
1.00313 1 1.00332 0.999807
0.999892 1 1.00005 0.999842
1.00127 1 1.00144 0.99983
1.00574 0.999775 1.0061 0.999864
1.00121 1 1.00133 0.999883
0.996855 0.999206 0.997649 0.999999
0.99916 0.999158 1 1
1.00001 1.00001 0.999998 1
0.996003 1 0.996053 0.999951
0.993636 0.997994 0.995663 0.99997
0.999348 0.999341 1.00001 1
0.997911 0.988083 1.01036 0.999591
0.974804 0.983945 0.990739 0.99997
0.99459 1.00046 0.99413 1
0.991267 1.00026 0.9911 0.999913
0.997116 0.999687 0.99743 0.999999
0.974376 0.980238 0.99404 0.999979
0.980102 1.00096 0.979417 0.999739
0.985423 0.981445 1.00469 0.999367
0.98119 1.00395 0.977491 0.999834
0.976033 0.980427 0.995534 0.999984
0.98059 0.978583 1.00259 0.999463
0.979386 1.00397 0.975758 0.999746
1.01146 1 1.01162 0.999839
1.01008 1 1.01027 0.999811
1.0029 1 1.00305 0.999849
1.00399 1 1.00417 0.999819
1.00123 1 1.0014 0.999832
0.999901 1 1 0.999901
1.00015 1 1.00031 0.999845
0.999878 1 1 0.999878
0.999927 1 1 0.999927
0.999873 1 1 0.999873
0.999898 1 1 0.999898
0.999926 1 1 0.999926
0.999922 1 1 0.999922
0.999903 1 1 0.999903
0.999905 1 1 0.999905
0.999905 1 1 0.999905
0.999894 1 1 0.999894
0.999888 1 1 0.999888
0.999933 1 1 0.999933
0.999911 1 1 0.999911
0.999891 1 1 0.999891
0.999963 1 1 0.999963
0.999939 1 1 0.999939
0.999925 1 1 0.999925
0.999997 1 1 0.999997
0.999967 1 1 0.999967
0.99994 1 1 0.99994
1 1 1 1
0.999998 1 1 0.999998
0.99997 1 1 0.99997
1 1 1 1
1 1 1 1
0.999998 1 1 0.999998
1 1 1 1
1 1 1 1
1 1 1 1
0.999943 1 1 0.999943
0.99994 1 1 0.99994
0.999967 1 1 0.999967
0.999997 1 1 0.999997
0.999967 1 1 0.999967
0.999937 1 1 0.999937
1 1 1 1
0.999997 1 1 0.999997
0.999967 1 1 0.999967
1 1 1 1
1 1 1 1
0.999998 1 1 0.999998
1 1 1 1
1 1 1 1
1 1 1 1
0.998338 0.999535 0.998803 1
0.999256 0.999254 1 1
0.99998 0.99997 1.00001 1
0.999927 1 1 0.999927
0.999928 1 1 0.999928
0.99992 1 1 0.99992
0.999923 1 1 0.999923
0.999929 1 1 0.999929
0.999918 1 1 0.999918
0.999912 1 1 0.999912
0.999917 1 1 0.999917
0.999908 1 1 0.999908
0.999911 1 1 0.999911
0.999903 1 1 0.999903
0.999903 1 1 0.999903
0.977645 0.98164 0.99595 0.99998
0.996163 1.00065 0.995517 1
0.999707 0.999692 1.00001 1
0.990538 1.0011 0.98945 1
0.978677 0.990922 0.98785 0.99979
0.999203 0.996237 1.00338 0.999599
1.01819 0.9949 1.02354 0.999869
1.00837 0.997369 1.01122 0.999816
0.974788 0.98447 0.990353 0.99981
0.995959 0.99011 1.0064 0.999508
1.0047 0.998583 1.00637 0.999764
0.987491 0.983993 1.00413 0.99943
1.00065 1 1.00076 0.999896
0.99991 1 1 0.99991
0.999897 1 1 0.999897
1.00551 1 1.00565 0.999864
1.00134 1 1.0015 0.999832
1.00112 1 1.00124 0.999888
0.999615 1 0.999732 0.999882
0.974604 0.981479 0.993015 0.999981
0.997987 0.999388 0.9986 0.999999
0.999355 0.999354 1 1
0.991088 1.00036 0.990816 0.999916
0.979047 1.00003 0.979071 0.999946
0.997043 0.999624 0.99742 0.999999
0.984775 0.98077 1.00472 0.999365
0.973662 0.980215 0.993493 0.99982
0.980745 1.00355 0.977436 0.999838
0.974716 0.979215 0.995491 0.999914
0.981159 0.97747 1.00435 0.999428
0.978169 1.00337 0.974949 0.999929
0.97682 1.00684 0.970346 0.999831
0.973675 0.974016 1.00026 0.999393
0.993145 1.00216 0.991074 0.999933
1.01032 1 1.01052 0.999808
1.00257 1 1.00272 0.999848
0.999423 1 0.999491 0.999932
1.00096 1 1.00112 0.999834
0.999845 1 0.999942 0.999903
0.999769 1 0.999797 0.999972
0.999881 1 1 0.999881
0.999927 1 1 0.999927
0.999956 1 1 0.999956
0.999899 1 1 0.999899
0.999926 1 1 0.999926
0.999936 1 1 0.999936
0.999926 1 1 0.999926
0.999923 1 1 0.999923
0.999918 1 1 0.999918
0.99991 1 1 0.99991
0.999903 1 1 0.999903
0.999907 1 1 0.999907
0.999922 1 1 0.999922
0.999907 1 1 0.999907
0.999897 1 1 0.999897
0.999958 1 1 0.999958
0.999933 1 1 0.999933
0.999911 1 1 0.999911
0.999996 1 1 0.999996
0.999963 1 1 0.999963
0.999939 1 1 0.999939
1 1 1 1
0.999997 1 1 0.999997
0.999967 1 1 0.999967
1 1 1 1
1 1 1 1
0.999998 1 1 0.999998
1 1 1 1
1 1 1 1
1 1 1 1
0.999941 1 1 0.999941
0.999941 1 1 0.999941
0.999966 1 1 0.999966
0.999941 1 1 0.999941
0.999967 1 1 0.999967
0.999997 1 1 0.999997
1 1 1 1
0.999997 1 1 0.999997
0.999967 1 1 0.999967
1 1 1 1
1 1 1 1
0.999997 1 1 0.999997
1 1 1 1
1 1 1 1
1 1 1 1
0.978028 0.980825 0.997297 0.999851
0.997849 0.999763 0.998087 0.999999
0.999185 0.999184 1 1
0.999926 1 1 0.999926
0.99992 1 1 0.99992
0.999929 1 1 0.999929
0.999928 1 1 0.999928
0.999919 1 1 0.999919
0.999913 1 1 0.999913
0.999918 1 1 0.999918
0.999908 1 1 0.999908
0.999913 1 1 0.999913
0.999905 1 1 0.999905
0.999909 1 1 0.999909
0.999909 1 1 0.999909
0.999902 1 1 0.999902
0.981671 0.981485 1.00086 0.999327
0.978042 0.982201 0.995857 0.999908
0.995765 1.0009 0.994873 1
0.975419 0.98459 0.990708 0.999977
0.993261 0.987404 1.00673 0.999207
1.00895 0.997969 1.01104 0.999959
1.00493 0.998607 1.00649 0.999848
0.986507 0.983322 1.00381 0.999432
1.00062 0.999053 1.00175 0.999816
1.00055 1 1.00072 0.999833
1.00108 1 1.00119 0.999892
0.999911 1 1 0.999911
1.00105 1 1.00115 0.999892
0.999691 1 0.999772 0.999919
0.9712 0.97367 0.997893 0.99957
0.97606 0.980944 0.995161 0.99986
0.998943 0.999555 0.999388 1
0.980096 1.00336 0.976967 0.999843
0.981261 1.00702 0.974679 0.999731
0.976652 0.979727 0.997005 0.999856
0.982822 0.977121 1.00642 0.999415
0.976662 1.00586 0.971141 0.999826
0.976321 0.97533 1.00148 0.999533
0.989605 1.00366 0.986232 0.999765
0.974589 1.00479 0.970043 0.999893
1.00278 0.996599 1.00627 0.999933
1.00206 1 1.00221 0.999848
0.998349 1 0.998416 0.999933
0.997617 1 0.99763 0.999987
0.999681 1 0.999776 0.999905
0.999574 1 0.999602 0.999971
0.999588 1 0.999608 0.99998
0.999928 1 1 0.999928
0.999954 1 1 0.999954
0.999947 1 1 0.999947
0.999925 1 1 0.999925
0.999935 1 1 0.999935
0.999928 1 1 0.999928
0.999928 1 1 0.999928
0.999919 1 1 0.999919
0.999924 1 1 0.999924
0.999918 1 1 0.999918
0.999916 1 1 0.999916
0.999919 1 1 0.999919
0.999909 1 1 0.999909
0.999904 1 1 0.999904
0.99995 1 1 0.99995
0.999924 1 1 0.999924
0.99991 1 1 0.99991
0.999994 1 1 0.999994
0.999958 1 1 0.999958
0.999933 1 1 0.999933
1 1 1 1
0.999996 1 1 0.999996
0.999963 1 1 0.999963
1 1 1 1
1 1 1 1
0.999997 1 1 0.999997
1 1 1 1
1 1 1 1
1 1 1 1
0.999936 1 1 0.999936
0.999941 1 1 0.999941
0.99996 1 1 0.99996
0.999938 1 1 0.999938
0.999964 1 1 0.999964
0.999996 1 1 0.999996
0.999967 1 1 0.999967
0.999997 1 1 0.999997
1 1 1 1
1 1 1 1
1 1 1 1
0.999997 1 1 0.999997
1 1 1 1
1 1 1 1
1 1 1 1
0.9768 0.976942 1.00031 0.999548
0.977134 0.982381 0.994678 0.999981
0.998768 1 0.998768 0.999999
0.99992 1 1 0.99992
0.99993 1 1 0.99993
0.99992 1 1 0.99992
0.999928 1 1 0.999928
0.999925 1 1 0.999925
0.99992 1 1 0.99992
0.999908 1 1 0.999908
0.999913 1 1 0.999913
0.999906 1 1 0.999906
0.999911 1 1 0.999911
0.999908 1 1 0.999908
0.999849 1 1 0.999849
0.999908 1 1 0.999908
0.999906 1 1 0.999906
0.993603 0.996066 0.997549 0.999978
0.978695 0.979101 1.0001 0.999488
0.975248 0.981004 0.994303 0.999829
0.987061 0.984006 1.00371 0.999397
1.00513 0.998696 1.00649 0.999949
1.00075 0.998873 1.00194 0.999936
0.999357 1 0.999546 0.999811
1.00101 1 1.00117 0.999837
1.00148 1 1.00159 0.999889
0.999748 1 0.999791 0.999956
0.996124 0.993863 1.00245 0.999829
0.974405 0.974467 1.00035 0.999585
0.976059 0.981479 0.994495 0.999983
0.976458 1.00466 0.972099 0.999821
0.990772 1.00573 0.985201 0.999928
0.977112 0.974798 1.00269 0.999683
0.977456 1.00316 0.974486 0.999889
0.998349 0.997417 1.00105 0.999886
0.984725 1.00053 0.984258 0.999945
1.00235 1 1.00249 0.999868
0.997362 1 0.997428 0.999934
0.997338 1 0.997352 0.999986
0.998128 1 0.998163 0.999964
0.999531 1 0.99956 0.999971
0.999716 1 0.999737 0.999979
0.999944 1 1 0.999944
0.999953 1 1 0.999953
0.999946 1 1 0.999946
0.999922 1 1 0.999922
0.999934 1 1 0.999934
0.999928 1 1 0.999928
0.999914 1 1 0.999914
0.999929 1 1 0.999929
0.999921 1 1 0.999921
0.999915 1 1 0.999915
0.999918 1 1 0.999918
0.999915 1 1 0.999915
0.999922 1 1 0.999922
0.99994 1 1 0.99994
0.99992 1 1 0.99992
0.999909 1 1 0.999909
0.999989 1 1 0.999989
0.99995 1 1 0.99995
0.999925 1 1 0.999925
1 1 1 1
0.999993 1 1 0.999993
0.999958 1 1 0.999958
1 1 1 1
1 1 1 1
0.999996 1 1 0.999996
1 1 1 1
1 1 1 1
1 1 1 1
0.999935 1 1 0.999935
0.999938 1 1 0.999938
0.999957 1 1 0.999957
0.999941 1 1 0.999941
0.99996 1 1 0.99996
0.999995 1 1 0.999995
0.999962 1 1 0.999962
0.999996 1 1 0.999996
1 1 1 1
0.999997 1 1 0.999997
1 1 1 1
1 1 1 1
1 1 1 1
1 1 1 1
1 1 1 1
0.991166 0.992582 0.998582 0.999992
0.973049 0.97457 0.998896 0.999543
0.976101 0.982428 0.99371 0.999849
0.999921 1 1 0.999921
0.999921 1 1 0.999921
0.999929 1 1 0.999929
0.99992 1 1 0.99992
0.999925 1 1 0.999925
0.999922 1 1 0.999922
0.999913 1 1 0.999913
0.999907 1 1 0.999907
0.999912 1 1 0.999912
0.999914 1 1 0.999914
0.99988 1 1 0.99988
0.999795 1 1 0.999795
0.999855 1 1 0.999855
0.999907 1 1 0.999907
0.997601 1 0.99777 0.999831
0.99472 0.997909 0.996917 0.999887
0.979809 0.979456 1.00072 0.999643
1.00053 0.999555 1.0012 0.999775
0.999661 1.00014 0.999746 0.999771
1.0015 1 1.00166 0.99984
0.999987 1 1.00002 0.999967
0.997349 0.993421 1.00397 0.99998
0.972037 0.974485 0.997922 0.999566
0.980309 1.00148 0.978973 0.999885
0.994771 0.99771 0.99723 0.999823
0.988326 1.00016 0.988227 0.999939
1.00129 1 1.00141 0.999884
0.999894 1 1 0.999894
0.999877 1 1 0.999877
0.996932 1 0.996947 0.999985
0.998836 1 0.998873 0.999963
0.999915 1 1 0.999915
0.999797 1 0.99982 0.999977
0.999944 1 1 0.999944
0.999911 1 1 0.999911
0.999944 1 1 0.999944
0.999923 1 1 0.999923
0.999902 1 1 0.999902
0.999929 1 1 0.999929
0.999914 1 1 0.999914
0.999908 1 1 0.999908
0.999922 1 1 0.999922
0.999915 1 1 0.999915
0.999917 1 1 0.999917
0.999915 1 1 0.999915
0.99992 1 1 0.99992
0.999937 1 1 0.999937
0.999983 1 1 0.999983
0.999942 1 1 0.999942
0.999922 1 1 0.999922
1 1 1 1
0.999989 1 1 0.999989
0.99995 1 1 0.99995
1 1 1 1
1 1 1 1
0.999993 1 1 0.999993
1 1 1 1
1 1 1 1
1 1 1 1
0.99993 1 1 0.99993
0.999935 1 1 0.999935
0.999956 1 1 0.999956
0.99994 1 1 0.99994
0.999958 1 1 0.999958
0.999994 1 1 0.999994
0.999959 1 1 0.999959
0.999995 1 1 0.999995
1 1 1 1
0.999996 1 1 0.999996
1 1 1 1
1 1 1 1
1 1 1 1
1 1 1 1
1 1 1 1
0.998164 1 0.998211 0.999953
0.991633 0.993773 0.998008 0.999838
0.974999 0.975747 0.999659 0.999574
0.999919 1 1 0.999919
0.999908 1 1 0.999908
0.999921 1 1 0.999921
0.99992 1 1 0.99992
0.999925 1 1 0.999925
0.999921 1 1 0.999921
0.999885 1 1 0.999885
0.999913 1 1 0.999913
0.99992 1 1 0.99992
0.999879 1 1 0.999879
0.999822 1 1 0.999822
0.999873 1 1 0.999873
0.999801 1 1 0.999801
0.999862 1 1 0.999862
0.998058 1.00012 0.998105 0.999836
0.99391 0.997655 0.996435 0.999812
0.999965 1.00023 1 0.999731
0.999976 1 1 0.999976
1.00113 1 1.00116 0.999969
0.995574 0.992765 1.00298 0.99985
0.992264 1 0.99233 0.999934
1.00024 1 1.00034 0.999901
0.999477 1 0.999579 0.999898
0.999886 1 1 0.999886
0.999881 1 1 0.999881
0.999939 1 1 0.999939
0.999582 1 0.999621 0.999961
0.999917 1 1 0.999917
0.99989 1 1 0.99989
0.999943 1 1 0.999943
0.999911 1 1 0.999911
0.999892 1 1 0.999892
0.999925 1 1 0.999925
0.999902 1 1 0.999902
0.999897 1 1 0.999897
0.999914 1 1 0.999914
0.999908 1 1 0.999908
0.999911 1 1 0.999911
0.999915 1 1 0.999915
0.999917 1 1 0.999917
0.999932 1 1 0.999932
0.999919 1 1 0.999919
0.999936 1 1 0.999936
0.999976 1 1 0.999976
1 1 1 1
0.999982 1 1 0.999982
0.999944 1 1 0.999944
1 1 1 1
1 1 1 1
0.999988 1 1 0.999988
1 1 1 1
1 1 1 1
1 1 1 1
0.999919 1 1 0.999919
0.999928 1 1 0.999928
0.99995 1 1 0.99995
0.999935 1 1 0.999935
0.999956 1 1 0.999956
0.999991 1 1 0.999991
0.999959 1 1 0.999959
0.999994 1 1 0.999994
1 1 1 1
0.999996 1 1 0.999996
1 1 1 1
1 1 1 1
1 1 1 1
1 1 1 1
1 1 1 1
0.999965 1 1 0.999965
0.998282 1 0.998327 0.999955
0.990908 0.992582 0.998319 0.999994
0.999898 1 1 0.999898
0.999923 1 1 0.999923
0.999885 1 1 0.999885
0.999907 1 1 0.999907
0.999921 1 1 0.999921
0.999846 1 1 0.999846
0.99992 1 1 0.99992
0.999886 1 1 0.999886
0.999854 1 1 0.999854
0.999877 1 1 0.999877
0.999815 1 1 0.999815
0.99987 1 1 0.99987
0.999807 1 1 0.999807
0.998505 1.00029 0.998376 0.999841
0.999978 1 1 0.999978
0.999974 1 1 0.999974
1.00221 1 1.00224 0.999971
0.999074 1 0.999173 0.999901
0.999895 1 1 0.999895
0.999878 1 1 0.999878
0.999941 1 1 0.999941
0.999926 1 1 0.999926
0.999919 1 1 0.999919
0.999892 1 1 0.999892
0.999893 1 1 0.999893
0.99991 1 1 0.99991
0.999891 1 1 0.999891
0.99989 1 1 0.99989
0.999902 1 1 0.999902
0.999897 1 1 0.999897
0.999902 1 1 0.999902
0.999908 1 1 0.999908
0.999911 1 1 0.999911
0.999925 1 1 0.999925
0.999917 1 1 0.999917
0.999932 1 1 0.999932
0.999969 1 1 0.999969
0.999935 1 1 0.999935
0.999975 1 1 0.999975
1 1 1 1
1 1 1 1
1 1 1 1
0.999982 1 1 0.999982
1 1 1 1
1 1 1 1
1 1 1 1
0.999887 1 1 0.999887
0.999907 1 1 0.999907
0.999917 1 1 0.999917
0.999944 1 1 0.999944
0.999927 1 1 0.999927
0.99995 1 1 0.99995
0.999988 1 1 0.999988
0.999956 1 1 0.999956
0.999992 1 1 0.999992
1 1 1 1
0.999994 1 1 0.999994
1 1 1 1
1 1 1 1
1 1 1 1
1 1 1 1
1 1 1 1
0.999935 1 1 0.999935
0.999962 1 1 0.999962
0.99841 1 0.998452 0.999958
0.999864 1 1 0.999864
0.999903 1 1 0.999903
0.999927 1 1 0.999927
0.999887 1 1 0.999887
0.999906 1 1 0.999906
0.999846 1 1 0.999846
0.999844 1 1 0.999844
0.999887 1 1 0.999887
0.999852 1 1 0.999852
0.999808 1 1 0.999808
0.999867 1 1 0.999867
0.999969 1 1 0.999969
0.999977 1 1 0.999977
0.999972 1 1 0.999972
0.999875 1 1 0.999875
0.999942 1 1 0.999942
0.999925 1 1 0.999925
0.999925 1 1 0.999925
0.999894 1 1 0.999894
0.99989 1 1 0.99989
0.9999 1 1 0.9999
0.99989 1 1 0.99989
0.999889 1 1 0.999889
0.999894 1 1 0.999894
0.999897 1 1 0.999897
0.999902 1 1 0.999902
0.999916 1 1 0.999916
0.999911 1 1 0.999911
0.999925 1 1 0.999925
0.999961 1 1 0.999961
0.999933 1 1 0.999933
0.999969 1 1 0.999969
1 1 1 1
0.999975 1 1 0.999975
1 1 1 1
1 1 1 1
1 1 1 1
1 1 1 1
1 1 1 1
0.999868 1 1 0.999868
0.999904 1 1 0.999904
0.999894 1 1 0.999894
0.999934 1 1 0.999934
0.999907 1 1 0.999907
0.999916 1 1 0.999916
0.999944 1 1 0.999944
0.999983 1 1 0.999983
0.99995 1 1 0.99995
0.999988 1 1 0.999988
1 1 1 1
0.999992 1 1 0.999992
1 1 1 1
1 1 1 1
1 1 1 1
1 1 1 1
1 1 1 1
0.999913 1 1 0.999913
0.999936 1 1 0.999936
0.999959 1 1 0.999959
0.999857 1 1 0.999857
0.999864 1 1 0.999864
0.999908 1 1 0.999908
0.99989 1 1 0.99989
0.999847 1 1 0.999847
0.999842 1 1 0.999842
0.99985 1 1 0.99985
0.999953 1 1 0.999953
0.999963 1 1 0.999963
0.999976 1 1 0.999976
0.99993 1 1 0.99993
0.999924 1 1 0.999924
0.999925 1 1 0.999925
0.999918 1 1 0.999918
0.999887 1 1 0.999887
0.9999 1 1 0.9999
0.999899 1 1 0.999899
0.999889 1 1 0.999889
0.999894 1 1 0.999894
0.999909 1 1 0.999909
0.999901 1 1 0.999901
0.999916 1 1 0.999916
0.999952 1 1 0.999952
0.999925 1 1 0.999925
0.999961 1 1 0.999961
1 1 1 1
0.999969 1 1 0.999969
1 1 1 1
1 1 1 1
1 1 1 1
1 1 1 1
1 1 1 1
0.99986 1 1 0.99986
0.999881 1 1 0.999881
0.999871 1 1 0.999871
0.999927 1 1 0.999927
0.999903 1 1 0.999903
0.999901 1 1 0.999901
0.999974 1 1 0.999974
0.999934 1 1 0.999934
0.999908 1 1 0.999908
0.999944 1 1 0.999944
0.999984 1 1 0.999984
1 1 1 1
0.999989 1 1 0.999989
1 1 1 1
1 1 1 1
1 1 1 1
1 1 1 1
1 1 1 1
0.999903 1 1 0.999903
0.999908 1 1 0.999908
0.999936 1 1 0.999936
0.999852 1 1 0.999852
0.999864 1 1 0.999864
0.999847 1 1 0.999847
0.999932 1 1 0.999932
0.999956 1 1 0.999956
0.999956 1 1 0.999956
0.999926 1 1 0.999926
0.999921 1 1 0.999921
0.999925 1 1 0.999925
0.999918 1 1 0.999918
0.999915 1 1 0.999915
0.9999 1 1 0.9999
0.999899 1 1 0.999899
0.999908 1 1 0.999908
0.999894 1 1 0.999894
0.999909 1 1 0.999909
0.999944 1 1 0.999944
0.999916 1 1 0.999916
0.999952 1 1 0.999952
0.999999 1 1 0.999999
0.999961 1 1 0.999961
1 1 1 1
1 1 1 1
1 1 1 1
1 1 1 1
1 1 1 1
0.999899 1 1 0.999899
0.999868 1 1 0.999868
0.999859 1 1 0.999859
0.999907 1 1 0.999907
0.999883 1 1 0.999883
0.999874 1 1 0.999874
0.999963 1 1 0.999963
0.999922 1 1 0.999922
0.999901 1 1 0.999901
1 1 1 1
0.999975 1 1 0.999975
0.999934 1 1 0.999934
0.999984 1 1 0.999984
1 1 1 1
1 1 1 1
1 1 1 1
1 1 1 1
1 1 1 1
0.999896 1 1 0.999896
0.999901 1 1 0.999901
0.999903 1 1 0.999903
0.999847 1 1 0.999847
0.999919 1 1 0.999919
0.999934 1 1 0.999934
0.999958 1 1 0.999958
0.999923 1 1 0.999923
0.999923 1 1 0.999923
0.999925 1 1 0.999925
0.999918 1 1 0.999918
0.999914 1 1 0.999914
0.999917 1 1 0.999917
0.9999 1 1 0.9999
0.999909 1 1 0.999909
0.99994 1 1 0.99994
0.999909 1 1 0.999909
0.999944 1 1 0.999944
0.999998 1 1 0.999998
0.999952 1 1 0.999952
0.999999 1 1 0.999999
1 1 1 1
1 1 1 1
1 1 1 1
1 1 1 1
0.999899 1 1 0.999899
0.999891 1 1 0.999891
0.999898 1 1 0.999898
0.999888 1 1 0.999888
0.999872 1 1 0.999872
0.999858 1 1 0.999858
0.999943 1 1 0.999943
0.999907 1 1 0.999907
0.999885 1 1 0.999885
1 1 1 1
0.999959 1 1 0.999959
0.999918 1 1 0.999918
1 1 1 1
1 1 1 1
0.999975 1 1 0.999975
1 1 1 1
1 1 1 1
1 1 1 1
0.999903 1 1 0.999903
0.999902 1 1 0.999902
0.999899 1 1 0.999899
0.999927 1 1 0.999927
0.999919 1 1 0.999919
0.999937 1 1 0.999937
0.999924 1 1 0.999924
0.999925 1 1 0.999925
0.999934 1 1 0.999934
0.999914 1 1 0.999914
0.999919 1 1 0.999919
0.999941 1 1 0.999941
0.999909 1 1 0.999909
0.99994 1 1 0.99994
0.999996 1 1 0.999996
0.999944 1 1 0.999944
0.999998 1 1 0.999998
1 1 1 1
0.999999 1 1 0.999999
1 1 1 1
1 1 1 1
0.999898 1 1 0.999898
0.999903 1 1 0.999903
0.999898 1 1 0.999898
0.999899 1 1 0.999899
0.999893 1 1 0.999893
0.999897 1 1 0.999897
0.999929 1 1 0.999929
0.999892 1 1 0.999892
0.999876 1 1 0.999876
0.999998 1 1 0.999998
0.999941 1 1 0.999941
0.999906 1 1 0.999906
1 1 1 1
1 1 1 1
0.999956 1 1 0.999956
1 1 1 1
1 1 1 1
1 1 1 1
0.999914 1 1 0.999914
0.999903 1 1 0.999903
0.999908 1 1 0.999908
0.999935 1 1 0.999935
0.999926 1 1 0.999926
0.999919 1 1 0.999919
0.999925 1 1 0.999925
0.999934 1 1 0.999934
0.999951 1 1 0.999951
0.99992 1 1 0.99992
0.999942 1 1 0.999942
0.999995 1 1 0.999995
0.999941 1 1 0.999941
0.999995 1 1 0.999995
1 1 1 1
0.999997 1 1 0.999997
1 1 1 1
1 1 1 1
0.999907 1 1 0.999907
0.999894 1 1 0.999894
0.999911 1 1 0.999911
0.999904 1 1 0.999904
0.999897 1 1 0.999897
0.999933 1 1 0.999933
0.999898 1 1 0.999898
0.999894 1 1 0.999894
0.999995 1 1 0.999995
0.99993 1 1 0.99993
0.999896 1 1 0.999896
1 1 1 1
0.999998 1 1 0.999998
0.999938 1 1 0.999938
1 1 1 1
1 1 1 1
1 1 1 1
0.999926 1 1 0.999926
0.999914 1 1 0.999914
0.999904 1 1 0.999904
0.999951 1 1 0.999951
0.999935 1 1 0.999935
0.999924 1 1 0.999924
0.999934 1 1 0.999934
0.99995 1 1 0.99995
0.999995 1 1 0.999995
0.999943 1 1 0.999943
0.999995 1 1 0.999995
1 1 1 1
0.999995 1 1 0.999995
1 1 1 1
1 1 1 1
0.999918 1 1 0.999918
0.999906 1 1 0.999906
0.999891 1 1 0.999891
0.99994 1 1 0.99994
0.999911 1 1 0.999911
0.999905 1 1 0.999905
0.999994 1 1 0.999994
0.999933 1 1 0.999933
0.999897 1 1 0.999897
1 1 1 1
0.999996 1 1 0.999996
0.999932 1 1 0.999932
1 1 1 1
0.999999 1 1 0.999999
1 1 1 1
0.999951 1 1 0.999951
0.999925 1 1 0.999925
0.999914 1 1 0.999914
0.999995 1 1 0.999995
0.999952 1 1 0.999952
0.999935 1 1 0.999935
0.999949 1 1 0.999949
0.999995 1 1 0.999995
1 1 1 1
0.999995 1 1 0.999995
1 1 1 1
1 1 1 1
0.999947 1 1 0.999947
0.999918 1 1 0.999918
0.999904 1 1 0.999904
0.999995 1 1 0.999995
0.99994 1 1 0.99994
0.999911 1 1 0.999911
1 1 1 1
0.999994 1 1 0.999994
0.999932 1 1 0.999932
1 1 1 1
0.999997 1 1 0.999997
1 1 1 1
0.999994 1 1 0.999994
0.999949 1 1 0.999949
0.999925 1 1 0.999925
1 1 1 1
0.999995 1 1 0.999995
0.999952 1 1 0.999952
0.999995 1 1 0.999995
1 1 1 1
1 1 1 1
0.999995 1 1 0.999995
0.999947 1 1 0.999947
0.999918 1 1 0.999918
1 1 1 1
0.999995 1 1 0.999995
0.999939 1 1 0.999939
1 1 1 1
0.999995 1 1 0.999995
1 1 1 1
1 1 1 1
0.999995 1 1 0.999995
0.999948 1 1 0.999948
1 1 1 1
0.999995 1 1 0.999995
1 1 1 1
1 1 1 1
0.999995 1 1 0.999995
0.999946 1 1 0.999946
1 1 1 1
0.999994 1 1 0.999994
1 1 1 1
1 1 1 1
0.999995 1 1 0.999995
1 1 1 1
1 1 1 1
0.999995 1 1 0.999995
1 1 1 1
1 1 1 1
1 1 1 1

VECTORS lamdaE float
0.999293 0.998196 0.997918
0.999428 0.997536 0.999226
0.99929 0.998167 0.997942
0.999017 0.99929 0.997467
0.99921 0.998553 0.997762
0.999357 0.99788 0.998075
0.999508 0.999262 0.996358
0.999441 0.997529 0.999237
0.999178 0.998428 0.999071
0.999362 0.997759 0.999205
0.999509 0.997304 0.998289
0.999588 0.998703 0.996553
0.998652 1.00022 0.997351
0.998816 0.999639 0.997517
0.999286 0.998137 0.997967
0.999012 0.999275 0.99749
0.999355 0.997854 0.998096
0.999208 0.99852 0.997786
0.999507 0.999282 0.99636
0.99871 0.999887 0.998883
0.998931 0.99958 0.997383
0.999109 0.998933 0.99761
0.999525 0.999889 0.995754
0.999505 0.999481 0.996167
0.999431 0.9976 0.998194
0.999511 0.999027 0.996564
0.999997 1.00055 0.994175
0.999455 0.997522 0.999248
0.999183 0.998494 0.998426
0.999368 0.997791 0.998649
0.999503 0.997299 0.999268
0.999585 0.998674 0.996559
0.999052 0.998968 0.997654
0.999268 0.998151 0.997972
0.999513 0.999473 0.9965
0.999576 0.997064 0.999301
0.999542 0.99894 0.996928
0.999636 0.998465 0.996688
0.999912 1.00033 0.994295
0.999702 0.996799 0.999301
0.998646 1 0.998866
0.9988 0.999599 0.998216
0.99864 1.00012 0.998838
0.9987 0.999944 0.997463
0.99936 1.00057 0.995071
0.998935 0.999163 0.998972
0.999404 1.00014 0.996043
0.999007 0.999259 0.997513
0.999205 0.998485 0.997811
0.999352 0.99783 0.998118
0.999507 0.999302 0.996363
0.998706 0.999962 0.998136
0.998923 0.999578 0.997397
0.999429 0.997575 0.998209
0.999107 0.998905 0.997635
0.999526 0.999897 0.995758
0.999513 0.999039 0.99657
0.999506 0.999494 0.996168
1.00002 1.00055 0.994147
0.998678 1.00002 0.998864
0.998816 0.999825 0.997389
0.999422 1.00031 0.995861
0.999542 1.00002 0.995607
0.999504 0.999699 0.995967
1.00039 1.00049 0.993459
1.0001 1.00049 0.993868
0.999539 0.997352 0.998262
0.999554 0.998726 0.996764
0.999881 1.00054 0.994416
1.00044 1.00068 0.99291
0.999203 0.998412 0.999086
0.999522 0.997294 0.999281
0.999382 0.997775 0.999208
0.999581 0.998646 0.996564
0.999055 0.998843 0.998995
0.999266 0.998104 0.999128
0.999499 0.999526 0.995882
0.999585 0.997084 0.998817
0.999543 0.998929 0.996401
0.999636 0.998432 0.99695
0.999897 1.00036 0.994289
0.999639 0.996925 0.999299
0.99982 0.997932 0.996845
0.999495 0.999797 0.995582
0.999512 0.99926 0.996111
1.00009 1.00052 0.993724
0.999704 0.998209 0.997278
0.999947 1.0004 0.994143
0.999891 1.00019 0.994478
1.00013 1.00087 0.993307
0.999752 0.996694 0.999305
0.999711 0.996811 0.999302
0.998846 0.999452 0.998942
0.998655 0.999956 0.998884
0.998638 1.0001 0.998843
0.998693 0.999892 0.998172
0.999351 1.00052 0.995472
0.998945 0.999244 0.998263
0.999407 1.00018 0.995705
0.99865 1.00012 0.998842
0.999378 1.00062 0.994988
0.999364 1.00032 0.995951
1.00037 1.0007 0.992974
0.999468 0.999919 0.996154
1.0003 1.00057 0.993246
0.998711 1.00004 0.997375
0.998915 0.999578 0.997411
0.999427 0.997549 0.998224
0.999105 0.998873 0.997661
0.999528 0.999906 0.995762
0.999507 0.999511 0.99617
0.999515 0.999051 0.996575
1.00004 1.00055 0.994119
0.998674 1.00003 0.998855
0.998809 0.999819 0.997398
0.999432 1.00034 0.995334
0.999542 1.00003 0.995608
0.999519 0.997327 0.998764
0.999556 0.998724 0.996923
0.999506 0.999707 0.99597
1.00039 1.00049 0.99338
0.999909 1.00054 0.99438
1.00012 1.0005 0.99391
1.00043 1.00068 0.992916
0.999407 1.0005 0.995035
0.999489 1.00015 0.995599
1.0005 1.00053 0.993042
1.0005 1.00044 0.993145
1.00023 1.00049 0.993623
1.00089 1.00043 0.992365
0.999604 0.997135 0.999276
1.00057 1.0005 0.992812
0.999643 0.998439 0.996686
0.999834 1.00043 0.99433
1.00028 1.00091 0.993025
1.00065 1.00067 0.992485
0.999782 0.998084 0.996747
1.00001 0.999859 0.994556
0.999097 0.998777 0.999019
0.999296 0.998069 0.999156
0.999465 0.999553 0.995873
0.999595 0.9971 0.999296
0.999635 0.998399 0.996716
0.999528 0.998914 0.996389
0.999882 1.0004 0.994283
0.999652 0.996936 0.999299
0.999821 0.99792 0.996845
0.99948 0.999772 0.995953
0.9995 0.999235 0.996435
1.00009 1.00052 0.993721
0.999711 0.998191 0.996811
0.99993 1.00044 0.994139
0.999878 1.00021 0.994476
1.00014 1.00087 0.993273
0.999773 0.998039 0.996835
0.999857 0.997841 0.996862
1 0.999746 0.994697
1.00019 1.0005 0.993527
0.999994 1.00049 0.993954
1.00053 1.00059 0.992798
0.999924 0.999963 0.994639
1.00024 1.00071 0.993203
1.00006 1.00099 0.993358
1.00025 1.00113 0.992906
0.999792 0.996602 0.999311
0.999757 0.996706 0.999307
0.99972 0.996825 0.999304
0.999824 0.99798 0.996768
0.99967 0.996991 0.999281
0.998974 0.999129 0.998972
0.998731 0.999735 0.998917
0.99938 1.00025 0.995347
0.999333 1.00059 0.995104
0.998634 1.00009 0.99885
0.998649 1.00011 0.998839
0.999371 1.00062 0.994991
0.999361 1.00037 0.995607
1.00037 1.0007 0.992973
0.999457 1.00001 0.995463
1.0003 1.00057 0.993247
0.999394 1.00058 0.994975
1.00043 1.00073 0.992827
1.00033 1.00064 0.993125
1.00081 1.00069 0.992112
1.00026 1.00052 0.993374
1.00078 1.00049 0.992401
0.998669 1.00005 0.998847
0.998802 0.999813 0.997407
0.999437 1.00036 0.994812
0.999543 1.00004 0.995608
0.999499 0.997299 0.999269
0.999557 0.998721 0.997081
0.999509 0.999718 0.995974
1.00039 1.00048 0.993302
1.00014 1.00051 0.993953
0.999937 1.00054 0.994345
1.00042 1.00068 0.992921
0.99941 1.0005 0.995034
0.999494 1.00015 0.995595
1.0005 1.00053 0.992896
1.00051 1.00045 0.99319
0.999587 0.99713 0.999274
0.999639 0.998459 0.996926
0.999859 1.0004 0.994474
1.00024 1.00049 0.993621
1.00088 1.00041 0.99228
1.00025 1.00091 0.993007
1.00058 1.00051 0.992855
1.00065 1.00067 0.992493
0.999779 0.998099 0.996747
1.00001 0.999858 0.99456
1.00047 1.00062 0.99283
1.00053 1.00045 0.993064
1.001 1.00051 0.992069
1.00101 1.00035 0.991991
1.00069 1.00044 0.992691
1.00112 1.00034 0.991934
0.999716 0.998235 0.996725
1.0008 1.00042 0.992436
0.999863 1.00024 0.994467
1.00009 1.00098 0.993184
1.0005 1.00107 0.992574
1.00077 1.00057 0.99239
0.999977 0.99992 0.994557
1.00002 0.999799 0.994589
1.00014 1.00094 0.993241
0.999456 0.99982 0.995627
0.999665 0.996947 0.9993
0.999822 0.997908 0.996846
0.999481 0.999233 0.996157
1.00009 1.00053 0.993719
0.999706 0.998173 0.996809
0.999865 1.00024 0.994474
0.999913 1.00048 0.994135
1.00014 1.00086 0.99324
0.999773 0.998027 0.996836
0.999858 0.997829 0.996862
0.999999 0.999745 0.994695
1.0002 1.0005 0.993523
0.99998 1.00052 0.993953
1.00053 1.00059 0.992797
0.999916 0.999971 0.994639
1.00025 1.00071 0.993234
1.00006 1.001 0.993351
1.00024 1.00112 0.992864
0.999887 0.997756 0.996884
0.999971 0.999806 0.994696
1.00002 0.999695 0.994704
1.00013 1.00081 0.993404
1.00066 1.00047 0.992631
1.00036 1.00069 0.993057
1.00072 1.00065 0.992351
1.00009 1.00088 0.993433
1.00038 1.00086 0.992818
1.00014 1.00144 0.992767
1.00032 1.0012 0.992583
1.00007 0.999462 0.994846
0.999941 0.997599 0.996928
0.999827 0.996517 0.999317
0.999796 0.996612 0.999313
0.999763 0.996719 0.999309
0.999852 0.997892 0.9968
0.999717 0.996877 0.999287
0.999821 0.997994 0.996767
0.999658 0.996979 0.999279
0.999425 1.00005 0.995461
0.999339 1.00044 0.995238
1.0003 1.00057 0.993248
1.00038 1.0007 0.992973
0.999364 1.00063 0.994994
0.998648 1.00011 0.998837
0.999396 1.00058 0.994973
1.00043 1.00073 0.992828
1.00033 1.00064 0.993126
1.00082 1.00069 0.992108
1.00026 1.00052 0.993373
1.00078 1.00049 0.992403
1.00046 1.0007 0.992787
1.00085 1.00076 0.991987
1.00081 1.00058 0.992253
1.00102 1.0006 0.991825
1.00073 1.00045 0.992527
1.00098 1.0004 0.992087
0.999414 1.00049 0.995033
0.999499 1.00015 0.995591
1.00051 1.00051 0.99275
1.00052 1.00045 0.993236
0.999571 0.997126 0.999271
0.999635 0.998479 0.997163
0.999884 1.00036 0.994618
1.00024 1.00048 0.99362
1.00088 1.0004 0.992194
1.00059 1.00051 0.992897
1.00022 1.00091 0.99299
1.00064 1.00067 0.992502
0.999777 0.998114 0.996746
1.00001 0.999858 0.994563
1.00047 1.00062 0.992776
1.00054 1.00044 0.993065
1.00099 1.00048 0.992049
1.00102 1.00037 0.992085
0.999716 0.998251 0.996723
0.999878 1.00022 0.994468
1.00009 1.00098 0.99324
1.00071 1.00045 0.992698
1.00111 1.0003 0.991915
1.00047 1.00106 0.992513
1.0008 1.00042 0.992438
1.00076 1.00055 0.992381
0.999979 0.999918 0.994561
1.00015 1.00092 0.993198
1.00002 0.999804 0.99459
1.00092 1.00066 0.992069
1.00107 1.00036 0.992008
1.00121 1.00045 0.99161
1.00127 1.00028 0.991632
1.00089 1.00031 0.992291
1.00124 1.00005 0.991952
0.999921 1.00004 0.994545
1.0009 1.00026 0.992387
1.00007 1.00091 0.993404
1.00023 1.00127 0.992638
1.00058 1.00116 0.992206
1.00083 1.00038 0.992555
1.00003 0.999719 0.994663
1.00013 1.00087 0.993332
1.00013 1.00103 0.993063
1.00021 1.00142 0.992742
1.0002 1.0005 0.99352
0.999859 0.997817 0.996863
0.999773 0.998015 0.996836
0.999999 0.999745 0.994693
0.999967 1.00054 0.993952
1.00053 1.00059 0.992797
0.999908 0.99998 0.994639
1.00006 1.00101 0.993343
1.00025 1.00071 0.993264
1.00024 1.00111 0.992822
0.999888 0.997745 0.996885
0.999968 0.999808 0.994695
1.00002 0.999695 0.994703
1.00012 1.00082 0.993401
1.00067 1.00048 0.992627
1.00035 1.00069 0.993061
1.00072 1.00065 0.992349
1.00007 1.00089 0.993432
1.00039 1.00087 0.992861
1.00015 1.00145 0.992753
1.0003 1.00116 0.99267
0.999915 0.997675 0.996908
1.00004 0.99964 0.994726
1.00013 1.00077 0.993446
1.00012 1.00084 0.993376
1.00018 1.0014 0.992713
1.00086 1.00045 0.992253
1.00052 1.00082 0.992613
1.00079 1.0007 0.992171
1.00015 1.00143 0.992778
1.00045 1.00101 0.992561
1.00022 1.00172 0.992196
1.00006 0.999524 0.9948
1.00011 1.00077 0.993472
1.00008 0.999405 0.994884
1.00007 0.999459 0.994847
0.999964 0.997511 0.997404
0.999939 0.997593 0.99716
0.99987 0.996465 0.998404
0.99983 0.996523 0.999319
0.999799 0.996622 0.999315
0.999875 0.997806 0.996841
0.999753 0.996773 0.999295
0.99985 0.997905 0.996798
0.999711 0.996863 0.999285
0.999818 0.998008 0.996767
0.999646 0.996968 0.999278
1.00027 1.00052 0.993371
1.00033 1.00064 0.993126
1.00077 1.0005 0.992405
1.00083 1.0007 0.992103
1.00043 1.00073 0.992829
0.999394 1.00058 0.994973
1.00047 1.00069 0.992788
1.00085 1.00076 0.991985
1.00081 1.00058 0.992254
1.00102 1.0006 0.991821
1.00073 1.00045 0.992525
1.00098 1.0004 0.99209
1.00088 1.00075 0.991936
1.00097 1.0007 0.991795
1.00102 1.00048 0.991918
1.00114 1.00045 0.991759
1.00093 1.00037 0.992215
1.0011 1.00009 0.992193
1.00047 1.00062 0.992722
1.00054 1.00043 0.993067
1.00098 1.00047 0.992029
1.00102 1.00038 0.992178
0.999716 0.998267 0.996722
0.999893 1.0002 0.994469
1.00009 1.00098 0.993297
1.00072 1.00045 0.992705
1.00111 1.00027 0.991895
1.0008 1.00041 0.99244
1.00044 1.00105 0.992452
1.00075 1.00053 0.992372
0.99998 0.999916 0.994565
1.00016 1.0009 0.993156
1.00002 0.999808 0.994591
1.00091 1.00065 0.992019
1.00107 1.00036 0.992005
1.00122 1.00044 0.991556
1.00128 1.00028 0.991652
0.999929 1.00003 0.994548
1.00008 1.0009 0.993404
1.00023 1.00128 0.992695
1.00091 1.00034 0.992314
1.00123 0.99999 0.991987
1.00056 1.0012 0.992147
1.0009 1.00025 0.99239
1.00081 1.0003 0.992593
1.00014 1.00085 0.993338
1.00021 1.0014 0.992685
1.00003 0.999725 0.994661
1.00014 1.00103 0.993059
1.0011 1.00066 0.991613
1.00139 1.00027 0.99149
1.00131 1.00046 0.991306
1.0014 1.00001 0.991601
1.00101 1.00007 0.992331
1.00135 0.999622 0.992169
1.0001 1.00085 0.993413
1.00094 0.999862 0.99269
1.00016 1.00119 0.992859
1.0003 1.00166 0.992211
1.00063 1.00125 0.991975
1.00091 1.00015 0.992636
1.00002 0.999652 0.99474
1.00011 1.00105 0.993061
1.00023 1.00119 0.992831
1.00017 1.00173 0.992454
1.00028 1.00154 0.992456
0.999889 0.997735 0.996887
1.00068 1.00048 0.992622
1.00002 0.999694 0.994702
0.999966 0.99981 0.994693
1.00012 1.00083 0.993398
1.00035 1.00069 0.993065
1.00072 1.00066 0.992347
1.00006 1.0009 0.993431
1.00015 1.00145 0.992739
1.00039 1.00088 0.992904
1.00028 1.00112 0.992757
0.999916 0.997667 0.99691
1.00004 0.999639 0.994725
1.00012 1.00079 0.993444
1.00012 1.00085 0.993372
1.00018 1.00139 0.992699
1.00088 1.00045 0.992245
1.00051 1.00082 0.992614
1.00079 1.00071 0.992152
1.00014 1.00143 0.992782
1.00045 1.00101 0.992591
1.00024 1.00168 0.992244
1.00005 0.999582 0.994758
1.00012 1.00086 0.99336
1.00019 1.0013 0.992757
1.00016 1.00152 0.992641
1.0002 1.00171 0.992416
1.00096 1.00032 0.99218
1.00058 1.00095 0.992365
1.00073 1.00061 0.992284
1.00018 1.0019 0.992233
1.00042 1.00172 0.991931
1.00006 0.999519 0.994801
1.00012 1.00083 0.993278
1.00011 1.00078 0.993408
1.00009 1.00168 0.992732
1.0001 1.00074 0.99353
1.00008 0.99936 0.994911
1.00008 0.999406 0.994886
0.999991 0.997438 0.997418
1.00007 0.999456 0.994849
0.999964 0.997521 0.997406
0.999908 0.996386 0.998414
0.999938 0.997587 0.997391
0.999866 0.996437 0.998865
0.999832 0.99653 0.999321
0.9999 0.997705 0.996896
0.999876 0.997816 0.996838
0.999787 0.996662 0.999305
0.99975 0.996762 0.999293
0.999849 0.997918 0.996796
0.999704 0.996851 0.999283
1.00074 1.00046 0.992523
1.00081 1.00058 0.992255
1.00098 1.00041 0.992093
1.00103 1.00059 0.991818
1.00085 1.00077 0.991984
1.00047 1.00069 0.992788
1.00088 1.00075 0.991939
1.00097 1.00071 0.991787
1.00102 1.00048 0.991919
1.00115 1.00045 0.991746
1.00093 1.00038 0.99221
1.0011 1.00007 0.992196
1.00101 1.00074 0.99172
1.00097 1.00069 0.991797
1.00115 1.00018 0.991887
1.0012 1.00047 0.991708
1.00104 1.00007 0.992258
1.00121 0.999757 0.992369
1.0009 1.00065 0.991969
1.00107 1.00036 0.992003
1.00123 1.00043 0.991502
1.00129 1.00027 0.991671
0.999936 1.00002 0.994551
1.00009 1.00089 0.993404
1.00022 1.00129 0.992752
1.00092 1.00037 0.992336
1.00122 0.999925 0.992022
1.00091 1.00025 0.992393
1.00054 1.00124 0.992088
1.0008 1.00023 0.992631
1.00015 1.00083 0.993344
1.00022 1.00137 0.992628
1.00002 0.999731 0.99466
1.00014 1.00103 0.993055
1.00109 1.00066 0.991625
1.00138 1.00027 0.991504
1.00134 1.00049 0.991254
1.0014 1.00002 0.991611
1.00011 1.00083 0.993417
1.00016 1.00119 0.992903
1.0003 1.00168 0.992206
1.00102 1.00012 0.992305
1.00129 0.999588 0.992269
1.00062 1.00131 0.991946
1.00094 0.999871 0.992695
1.00088 0.99999 0.992746
1.00023 1.00119 0.992832
1.00028 1.00151 0.992428
1.00017 1.00174 0.992441
1.00002 0.999648 0.994644
1.00012 1.00104 0.993071
1.00117 1.00068 0.99146
1.00153 1.00025 0.991137
1.00149 0.9996 0.991851
1.00117 0.999496 0.99258
1.00021 1.00111 0.992955
1.0011 0.999281 0.99305
1.00014 1.00156 0.9925
1.00036 1.00208 0.991687
1.00075 1.00118 0.991821
1.00004 0.99954 0.994643
1.0001 1.00098 0.993357
1.00012 1.00192 0.992331
1.00029 1.00131 0.992593
1.00025 1.00207 0.991959
1.00033 1.00159 0.992199
0.999916 0.997659 0.996911
1.00004 0.999637 0.994724
1.00089 1.00045 0.992237
1.00011 1.00086 0.993369
1.00011 1.0008 0.993442
1.00017 1.00138 0.992685
1.00051 1.00083 0.992615
1.00079 1.00072 0.992133
1.00013 1.00143 0.992786
1.00027 1.00165 0.992291
1.00045 1.00102 0.992621
1.00005 0.99958 0.994758
1.00012 1.00086 0.993356
1.00019 1.00129 0.992798
1.00016 1.00153 0.992634
1.0002 1.00171 0.992377
1.00096 1.00036 0.992168
1.00059 1.00094 0.992349
1.00075 1.00059 0.992311
1.00017 1.0019 0.992202
1.00042 1.00179 0.991867
1.00013 1.00085 0.993358
1.00015 1.00162 0.992459
1.00022 1.0017 0.992333
1.0002 1.00184 0.992172
1.00026 1.00185 0.992137
1.0011 0.999467 0.992739
1.0006 1.00138 0.991916
1.00082 1.00035 0.992137
1.00028 1.00224 0.991825
1.00042 1.00218 0.991201
1.00006 0.999514 0.994803
1.00012 1.00084 0.993332
1.0001 1.00172 0.992464
1.00011 1.00079 0.993343
1.0001 1.00074 0.99353
1.00009 1.00169 0.99263
1.00009 1.00228 0.992102
1.00008 1.00166 0.992562
1.00008 1.00072 0.993584
1.00009 0.999334 0.994925
1.00008 0.999365 0.994912
1.00002 0.997369 0.997429
1.00008 0.999406 0.994888
0.999991 0.997449 0.997419
0.999944 0.996301 0.998422
0.999965 0.997531 0.997408
0.999906 0.996353 0.998415
0.99986 0.996407 0.999327
0.999933 0.997573 0.996962
0.999903 0.997712 0.996893
0.999824 0.996529 0.999319
0.999877 0.997826 0.996835
0.999785 0.996659 0.999302
0.999746 0.996752 0.99929
1.00093 1.00039 0.992206
1.00103 1.00049 0.99192
1.0011 1.00005 0.9922
1.00116 1.00045 0.991732
1.00098 1.00072 0.99178
1.00087 1.00075 0.991943
1.001 1.00076 0.991707
1.00098 1.00068 0.9918
1.00118 1.00019 0.991855
1.00118 1.00048 0.991647
1.00103 1.0001 0.992259
1.00119 0.999662 0.992442
1.00095 1.00072 0.991827
1.00095 1.00071 0.991825
1.00122 1.0001 0.991898
1.00118 0.999299 0.992829
1.00108 1.00066 0.991638
1.00136 1.00027 0.991518
1.00136 1.00051 0.991203
1.00141 1.00003 0.991621
1.00012 1.00082 0.99342
1.00017 1.00119 0.992947
1.00029 1.00171 0.992202
1.00104 1.00016 0.992278
1.00124 0.999552 0.992369
1.00094 0.99988 0.992699
1.00061 1.00136 0.991918
1.00085 0.999841 0.992856
1.00023 1.00119 0.992834
1.00029 1.00148 0.992401
1.00017 1.00175 0.992427
1.00003 0.999644 0.994548
1.00012 1.00103 0.993081
1.00119 1.00066 0.99141
1.00151 1.00026 0.991199
1.00147 0.999643 0.991884
1.00021 1.00111 0.992953
1.00017 1.00155 0.992563
1.00034 1.00213 0.991671
1.00118 0.999537 0.992536
1.00073 1.00107 0.991959
1.00106 0.99931 0.99302
1.00003 0.999525 0.99466
1.00029 1.00132 0.992588
1.00034 1.00155 0.992233
1.00024 1.00205 0.991999
1.00012 1.00194 0.992362
1.0001 1.00097 0.993259
1.0013 1.00059 0.991341
1.00159 1.0001 0.991176
1.0015 0.999092 0.992283
1.0014 0.998609 0.993075
1.00025 1.00132 0.992665
1.00103 1.00006 0.992372
1.00017 1.0021 0.991932
1.00043 1.00244 0.991283
1.00004 0.999362 0.994798
1.00009 1.00089 0.993457
1.0001 1.00193 0.992477
1.00017 1.00251 0.991631
1.00033 1.00149 0.992293
1.00033 1.00201 0.991799
1.00005 0.999578 0.994758
1.00012 1.00087 0.993353
1.00095 1.00039 0.992157
1.00015 1.00155 0.992627
1.00018 1.00128 0.992839
1.00019 1.00171 0.992338
1.0006 1.00093 0.992334
1.00078 1.00056 0.992338
1.00016 1.00189 0.992171
1.00043 1.00186 0.991803
1.00012 1.00086 0.993357
1.00015 1.00164 0.992498
1.00021 1.00169 0.992391
1.00019 1.00185 0.992221
1.00024 1.00183 0.992174
1.00112 0.999489 0.992797
1.00063 1.00133 0.991949
1.00078 1.00042 0.992313
1.00026 1.00226 0.991773
1.00044 1.00229 0.991176
1.00013 1.00172 0.992413
1.00018 1.0022 0.991852
1.00026 1.00206 0.991929
1.00025 1.00204 0.991847
1.0016 0.998431 0.992964
1.00124 0.999106 0.992728
1.0007 1.00189 0.991174
1.00027 1.00299 0.990823
1.00012 1.00085 0.993386
1.00011 1.00173 0.992518
1.0001 1.00231 0.992005
1.0001 1.00074 0.99353
1.00009 1.00169 0.992529
1.00008 1.00072 0.993583
1.00009 1.00228 0.992029
1.00008 1.00167 0.992602
1.00012 1.00266 0.991631
1.00009 1.00228 0.991952
1.00008 1.00165 0.992574
1.00006 1.00073 0.9936
1.00009 0.999332 0.994923
1.00009 0.999341 0.994925
1.00004 0.997305 0.997439
1.00008 0.99937 0.994913
1.00002 0.997379 0.99743
0.999979 0.996221 0.998429
0.99999 0.997459 0.997421
0.999943 0.996268 0.998422
0.999904 0.99632 0.998415
0.999969 0.997434 0.997028
0.999937 0.997581 0.996958
0.999866 0.996389 0.999334
0.999906 0.997719 0.996889
0.999821 0.996539 0.999315
0.999782 0.996657 0.999299
1.00102 1.00014 0.99226
1.0012 1.00021 0.991822
1.00116 0.999573 0.992514
1.00117 1.0005 0.991586
1.00099 1.00067 0.991803
1.00099 1.00077 0.991695
1.00097 1.00072 0.991785
1.00098 1.00069 0.991811
1.0012 1.00007 0.991954
1.00118 0.999274 0.992795
1.00094 1.00071 0.99183
1.00096 1.00062 0.991951
1.00132 0.999307 0.992478
1.00121 1.00064 0.99136
1.00148 1.00027 0.99126
1.00145 0.999683 0.991916
1.00022 1.00111 0.992951
1.0002 1.00154 0.992627
1.00032 1.00218 0.991655
1.0012 0.999578 0.992492
1.00102 0.999336 0.992989
1.00071 1.00095 0.992096
1.00029 1.00134 0.992584
1.00034 1.00151 0.992268
1.00024 1.00202 0.992039
1.00003 0.999509 0.994677
1.00013 1.00197 0.992392
1.00011 1.00096 0.993161
1.00123 1.00058 0.991427
1.00162 1.00005 0.991148
1.00151 0.999177 0.992211
1.00025 1.00133 0.992659
1.00017 1.00207 0.991999
1.00042 1.00239 0.991334
1.00136 0.998647 0.993131
1.00103 1.00001 0.992362
1.00005 0.99935 0.994902
1.00009 1.0009 0.993457
1.00032 1.00151 0.99228
1.00033 1.00201 0.991811
1.00015 1.00249 0.991684
1.0001 1.00193 0.992424
1.00123 1.00039 0.991623
1.00169 0.999719 0.991376
1.00162 0.997962 0.993203
1.00146 0.998503 0.993202
1.00023 1.00169 0.992253
1.00062 1.0021 0.991228
1.00026 1.00265 0.991463
1.00007 0.999201 0.99511
1.00009 1.00036 0.993927
1.00007 1.00069 0.9935
1.00008 1.00197 0.992402
1.00011 1.00258 0.991662
1.00021 1.00281 0.991281
1.00031 1.00176 0.992015
1.00029 1.00255 0.991513
1.00012 1.00086 0.993356
1.00016 1.00165 0.992538
1.00114 0.999511 0.992855
1.00018 1.00186 0.99227
1.00021 1.00168 0.992449
1.00021 1.00181 0.992211
1.00065 1.00127 0.991981
1.00074 1.00049 0.992488
1.00024 1.00227 0.99172
1.00046 1.00238 0.991152
1.00013 1.00172 0.992411
1.00019 1.00217 0.991922
1.00025 1.00203 0.991983
1.00026 1.00206 0.991891
1.00158 0.998357 0.993
1.00117 0.999363 0.992679
1.00072 1.00187 0.991255
1.00031 1.00292 0.990818
1.00012 1.00235 0.991926
1.00147 0.998907 0.992563
1.00022 1.00263 0.991501
1.00025 1.00261 0.991398
1.00191 0.997527 0.993119
1.00108 1.00134 0.990882
1.00041 1.00351 0.990387
1.00011 1.00174 0.992573
1.00009 1.00231 0.992005
1.0001 1.00271 0.991592
1.00008 1.00072 0.993582
1.00008 1.00168 0.992642
1.00009 1.00228 0.991957
1.00007 1.00074 0.993597
1.00008 1.00165 0.992575
1.00013 1.00266 0.991572
1.00009 1.00229 0.992033
1.00019 1.00288 0.991271
1.00015 1.00269 0.991455
1.0001 1.00229 0.99201
1.00008 1.00171 0.992609
1.00006 1.00076 0.993584
1.0001 0.99934 0.994913
1.00009 0.999335 0.994923
1.00006 0.997265 0.997436
1.00009 0.999347 0.994925
1.00004 0.997318 0.997439
1.00001 0.996145 0.998436
1.00002 0.99739 0.997432
0.999978 0.996187 0.998429
0.999941 0.996235 0.998422
1.00009 0.999048 0.995215
1 0.997295 0.997101
0.999973 0.997443 0.997024
0.999909 0.996256 0.999349
0.99994 0.99759 0.996954
0.999862 0.996403 0.99933
0.999818 0.996546 0.99931
1.00118 0.999248 0.992761
1.00118 1.00003 0.992009
1.001 1.00068 0.991796
1.001 1.00073 0.991743
1.00092 1.00072 0.991897
1.00096 1.00067 0.991888
1.00129 0.999257 0.992595
1.00089 1.0007 0.992007
1.00111 1.00006 0.992155
1.00117 0.999068 0.993142
1.00117 1.00058 0.991512
1.00166 0.999997 0.99112
1.00151 0.999261 0.992139
1.00026 1.00133 0.992653
1.00017 1.00204 0.992065
1.00041 1.00233 0.991385
1.00132 0.998683 0.993187
1.00103 0.999969 0.992352
1.00032 1.00152 0.992267
1.00033 1.00201 0.991823
1.00014 1.00247 0.991737
1.00005 0.999338 0.995005
1.00008 1.00091 0.993458
1.00011 1.00193 0.99237
1.00124 1.00039 0.991575
1.00007 0.999201 0.995108
1.00009 1.00036 0.993866
1.00171 0.99967 0.991403
1.00159 0.998139 0.993035
1.00024 1.00166 0.992274
1.00025 1.00266 0.991387
1.00062 1.00194 0.991265
1.00143 0.998492 0.993167
1.00007 1.00068 0.993671
1.00008 1.00198 0.992393
1.00033 1.00177 0.992045
1.00029 1.00237 0.991592
1.00022 1.00285 0.991179
1.00012 1.00256 0.991686
1.0013 1.00045 0.991419
1.00173 0.998671 0.992374
1.00187 0.996725 0.994091
1.00103 1.00057 0.991907
1.00021 1.00211 0.991906
1.00034 1.00319 0.990844
1.00009 1.00021 0.993933
1.00008 1.00051 0.993803
1.00007 1.00139 0.993105
1.00004 1.00186 0.992428
1.0001 1.00259 0.991764
1.00016 1.00318 0.990882
1.00017 1.00351 0.990724
1.00021 1.00235 0.991667
1.00013 1.00173 0.992408
1.00019 1.00213 0.991993
1.00155 0.998285 0.993037
1.0011 0.999619 0.992629
1.00027 1.00207 0.991934
1.00024 1.00201 0.992037
1.00073 1.00186 0.991337
1.00035 1.00287 0.990814
1.00012 1.00234 0.991922
1.00142 0.998747 0.992751
1.00022 1.00258 0.991492
1.00026 1.0026 0.991302
1.00186 0.997619 0.993074
1.00114 1.00134 0.990893
1.00039 1.00353 0.990347
1.00012 1.00284 0.991473
1.00203 0.997159 0.992892
1.00027 1.00288 0.991208
1.0003 1.0036 0.990557
1.00188 0.999468 0.991008
1.00048 1.0035 0.989863
1.00396 0.996459 0.99036
1.00009 1.00232 0.992006
1.00009 1.00272 0.991593
1.00014 1.00299 0.99129
1.00007 1.00074 0.993594
1.00008 1.00166 0.992577
1.00009 1.0023 0.992113
1.00013 1.00267 0.991512
1.00006 1.00076 0.993583
1.00008 1.00172 0.992562
1.0002 1.00284 0.99125
1.0001 1.0023 0.992011
1.00014 1.0027 0.991526
1.00026 1.00295 0.990997
1.00015 1.00278 0.991492
1.0001 1.00237 0.992001
1.00008 1.00177 0.992438
1.00006 1.00077 0.993423
1.00006 1.00176 0.992727
1.00007 1.00074 0.993445
1.0001 0.999346 0.994906
1.0001 0.99934 0.994913
1.00008 0.997272 0.996974
1.00009 0.999338 0.994923
1.00007 0.997282 0.997209
1.00001 0.996065 0.999338
1.00004 0.997331 0.99744
1.00001 0.996112 0.998436
0.999976 0.996153 0.998428
1.00011 0.998936 0.995292
1.00009 0.999049 0.995213
1.00003 0.997166 0.997172
1 0.997304 0.997314
0.999946 0.996127 0.999367
0.999976 0.997451 0.997021
0.999904 0.996269 0.999345
0.999857 0.996416 0.999325
1.00125 0.999207 0.992712
1.00097 1.00072 0.991826
1.0009 1.00072 0.991965
1.00089 1.00069 0.992015
1.00106 1.0001 0.992187
1.00101 0.999336 0.993113
1.00096 1.00029 0.992306
1.00311 0.995715 0.995099
1.00087 0.997832 0.994504
1.0001 1.00012 0.994139
1.00124 1.00038 0.991527
1.00172 0.999624 0.991429
1.00156 0.9983 0.992866
1.00024 1.00163 0.992296
1.00025 1.00267 0.991312
1.00062 1.00179 0.991302
1.0014 0.998486 0.993132
1.00034 1.00178 0.992075
1.00029 1.00219 0.991671
1.00023 1.00289 0.991077
1.00007 0.999202 0.995106
1.00012 1.00255 0.99171
1.00007 1.00068 0.993841
1.00007 1.00199 0.992384
1.00008 1.00036 0.993806
1.00137 1.0004 0.991309
1.0001 1.0002 0.994005
1.00007 1.00052 0.993801
1.00007 1.0014 0.992981
1.00171 0.998681 0.992397
1.00184 0.996856 0.993856
1.00023 1.00207 0.991926
1.00028 1.00312 0.990814
1.001 1.00046 0.991952
1.00004 1.00183 0.992515
1.00011 1.0026 0.991736
1.00022 1.00237 0.991658
1.00018 1.00333 0.990859
1.00015 1.00319 0.990951
1.00154 1.00016 0.991135
1.00212 0.996372 0.993908
1.00178 0.998328 0.992698
1.0005 1.00285 0.990905
1.00007 1.00277 0.991453
1.00006 1.00115 0.993044
1.00005 1.0016 0.992663
1.00004 1.00216 0.992305
1.00007 1.00269 0.991705
1.00014 1.003 0.991176
1.0001 1.00398 0.990368
1.00007 1.00366 0.990704
1.00012 1.00233 0.991918
1.00022 1.00253 0.991482
1.00136 0.998585 0.992938
1.0018 0.997711 0.993029
1.00119 1.00135 0.990905
1.00027 1.00258 0.991206
1.00037 1.00354 0.990307
1.00012 1.00281 0.991504
1.00199 0.997032 0.993014
1.00025 1.00284 0.991183
1.00021 1.00358 0.990557
1.00197 0.999206 0.99118
1.00049 1.00366 0.989833
1.00406 0.996475 0.991204
1.00012 1.00313 0.991174
1.00248 0.998132 0.990637
1.00015 1.00342 0.990871
0.99995 1.00461 0.989993
1.00089 1.00249 0.989723
0.995646 1.00365 0.976442
1.00007 0.999022 0.993446
1.00377 0.997793 0.989706
0.996267 0.99747 0.990356
1.00346 0.988643 0.994605
1.00008 1.00273 0.991595
1.00014 1.00297 0.991289
1.00023 1.00311 0.990916
1.00006 1.00076 0.993582
1.00008 1.00172 0.992516
1.00009 1.0023 0.992012
1.00013 1.00271 0.991598
1.00021 1.00282 0.991228
1.00011 1.00237 0.991916
1.00006 1.00077 0.993498
1.00008 1.00178 0.992493
1.00024 1.00295 0.99105
1.00015 1.00276 0.991469
1.00014 1.00278 0.991531
1.00018 1.00315 0.991008
1.00011 1.00248 0.991732
1.00008 1.00181 0.992398
1.00007 1.00076 0.99343
1.00007 1.00173 0.992646
1.00008 1.00246 0.991974
1.00007 1.00182 0.992529
1.00006 1.00176 0.992607
1.00008 1.00077 0.993542
1.00007 1.00074 0.993446
1.0001 0.999352 0.994899
1.0001 0.999342 0.994906
1.00008 0.997296 0.996967
1.0001 0.99934 0.994913
1.00008 0.997274 0.996974
1.00002 0.99605 0.999336
1.00007 0.997299 0.996983
1.00002 0.996063 0.998886
1.00001 0.99608 0.998436
1.00012 0.998864 0.995344
1.00011 0.998936 0.995291
1.00005 0.997072 0.997227
1.00009 0.999051 0.995211
1.00003 0.997163 0.997385
0.999977 0.996024 0.999383
1.00001 0.997322 0.997083
0.999939 0.996169 0.999358
0.999899 0.996284 0.99934
1.00102 1.00014 0.992219
1.00089 1.00068 0.992024
1.00088 0.9996 0.993083
1.00292 0.995708 0.995086
1.00093 1.00031 0.992278
1.00085 0.998214 0.994103
1.00106 0.999779 0.992018
0.999068 0.999654 0.990234
1.00115 0.998032 0.996485
1.00011 1.00005 0.994197
1.0001 1.00012 0.994137
1.00008 1.00103 0.993276
1.00008 1.00087 0.993435
1.00144 1.00035 0.991198
1.0017 0.998704 0.99242
1.00181 0.997014 0.99362
1.00026 1.00203 0.991946
1.00022 1.00304 0.990785
1.00098 1.00034 0.991997
1.00022 1.00239 0.991649
1.00019 1.00314 0.990994
1.00014 1.0032 0.991019
1.00007 1.00052 0.993799
1.00012 1.00261 0.991708
1.00004 1.00181 0.992602
1.0001 1.00018 0.994078
1.00006 1.00141 0.992856
1.00159 1.00003 0.991257
1.00007 1.00117 0.993168
1.00005 1.00158 0.992747
1.00004 1.00209 0.992322
1.00206 0.996474 0.993891
1.00172 0.998181 0.992722
1.00011 1.00282 0.991446
1.00047 1.00274 0.990939
1.00006 1.00271 0.99172
1.00014 1.00292 0.991245
1.00008 1.00361 0.990716
1.00009 1.00401 0.990379
1.00192 0.998275 0.992099
1.00254 0.996094 0.993487
1.00112 1.00173 0.990602
1.00008 1.00349 0.990886
1.00004 1.00224 0.992126
1.00006 1.00245 0.99188
1.00007 1.00356 0.990775
1.00006 1.0048 0.989668
0.99548 1.00238 0.975349
1.00012 1.00278 0.991534
1.00024 1.0028 0.991158
1.00196 0.996923 0.993135
1.00208 0.998939 0.991352
1.00049 1.00382 0.989803
1.00013 1.00358 0.990557
1.00413 0.996435 0.992046
1.00011 1.00311 0.991201
1.00261 0.998105 0.990647
1.00012 1.00338 0.990878
0.99995 1.00458 0.990029
1.00093 1.00238 0.98986
0.995349 1.00272 0.977385
0.999974 0.999219 0.989415
1.00382 0.997617 0.989738
0.997029 0.997683 0.987835
1.00231 0.989676 0.995704
1.00002 1.00345 0.991025
0.997679 0.998717 0.984148
1.00451 0.992243 0.992803
1.00168 1.00113 0.989664
0.999981 1.00374 0.99067
0.999828 1.00521 0.98995
1.00344 0.999171 0.988714
0.995659 1.00283 0.976615
1.00018 0.998797 0.990782
0.996332 0.998173 0.990271
1.01032 0.985788 0.990608
1.00013 1.00295 0.991288
1.00023 1.00313 0.990925
1.00036 1.00321 0.990593
1.00006 1.00077 0.993573
1.00007 1.00179 0.992549
1.00011 1.00236 0.99183
1.00015 1.00274 0.991445
1.00023 1.00295 0.991103
1.00007 1.00076 0.993428
1.00014 1.00273 0.991503
1.00011 1.00247 0.991821
1.00008 1.00181 0.992472
1.00019 1.00314 0.990945
1.00012 1.003 0.991255
1.00009 1.0037 0.990605
1.0001 1.00262 0.991673
1.00007 1.00178 0.992588
1.00007 1.00174 0.992644
1.00009 1.00246 0.991881
1.00009 1.00248 0.991843
1.00008 1.00253 0.991807
1.0001 1.00292 0.9914
1.00011 1.00254 0.991711
1.00007 1.0019 0.992431
1.00007 1.00182 0.992529
1.00009 1.00081 0.993478
1.00006 1.00177 0.992487
1.00008 1.00077 0.993477
1.00009 0.999375 0.994881
1.00007 1.00074 0.993446
1.0001 0.999348 0.994899
1.00006 0.997322 0.997416
1.0001 0.999339 0.994907
1.00007 0.99729 0.997194
1.00004 0.996054 0.998423
1.00008 0.997275 0.996974
1.00002 0.996048 0.999335
1.00003 0.996061 0.998433
1.00011 1.00006 0.994192
1.00012 0.998827 0.995366
1.00012 0.998864 0.995343
1.00006 0.997015 0.997264
1.00011 0.998935 0.99529
1.00005 0.997069 0.997227
0.999998 0.99595 0.999395
1.00002 0.99717 0.997587
0.999982 0.996057 0.998952
0.999958 0.996196 0.99849
1.00281 0.995615 0.995073
1.00089 1.00033 0.99225
1.00083 0.998573 0.993703
0.999043 0.999455 0.992978
1.00099 0.998217 0.996499
1.00116 0.999828 0.991854
1.00126 1.00086 0.992967
0.997791 1.00139 0.991138
0.995053 1.00408 0.972313
0.996187 0.999271 0.98472
1.00178 0.992175 0.993731
1.00008 1.00092 0.993271
1.00011 1.00006 0.994194
1.0001 1.00013 0.994136
1.00007 1.00104 0.993245
1.00007 1.00174 0.99268
1.0001 1.00144 0.992885
1.00008 1.00099 0.993354
1.00008 1.00089 0.993384
1.00164 0.999906 0.991379
1.00201 0.996591 0.993874
1.00165 0.998024 0.992745
1.00014 1.00287 0.991438
1.00043 1.00263 0.990973
1.00008 1.00357 0.990728
1.00007 1.00405 0.990389
1.00015 1.00284 0.991314
1.00005 1.00155 0.992831
1.00006 1.00273 0.991736
1.00007 1.00118 0.993292
1.00004 1.00201 0.992339
1.00199 0.99839 0.992012
1.00005 1.0022 0.992168
1.00005 1.00248 0.991911
1.00248 0.996021 0.993482
1.00099 1.00148 0.990732
1.00013 1.00363 0.990676
1.00007 1.0036 0.990751
1.00006 1.00467 0.989708
1.0032 0.995647 0.992178
1.00159 1.00087 0.990949
1.00025 1.00334 0.99014
1.00013 1.0048 0.989557
1.00004 1.00267 0.991677
1.00005 1.00326 0.991158
1.00005 1.00467 0.989836
0.998295 0.997462 0.986112
0.995632 1.00339 0.977226
1.00011 1.00309 0.991227
1.00009 1.00334 0.990885
1.00274 0.998135 0.990658
1.00101 1.00233 0.989997
0.999937 1.00453 0.990065
0.995788 1.00331 0.971035
0.999988 0.999249 0.995305
1.00387 0.997404 0.989763
0.996669 0.998177 0.986028
1.00092 0.990683 0.996803
1.00005 1.00339 0.991014
0.998166 0.997761 0.986472
1.00389 0.99282 0.993676
1.00169 1.00115 0.989646
0.999965 1.00391 0.990694
0.999721 1.00516 0.99012
1.00327 0.999736 0.988465
0.994962 1.003 0.973795
1.00003 0.999329 0.995485
0.996112 0.998138 0.986716
1.00977 0.985161 0.991957
1.00027 1.00316 0.990686
1.00591 0.994952 0.99032
1.01583 0.990132 0.983142
1.00007 1.00422 0.989737
0.999755 1.00396 0.991338
1.0021 0.999366 0.994796
1.00003 0.997137 1.00012
0.994935 1.00293 0.975626
0.996864 0.997956 0.986311
1.01586 0.985511 0.985147
1.00023 1.00316 0.990934
1.00033 1.00323 0.990572
1.00015 1.00375 0.990392
1.00007 1.00077 0.993426
1.00008 1.0018 0.992546
1.0001 1.00247 0.99191
1.00014 1.00269 0.991475
1.0002 1.00313 0.990883
1.00007 1.00178 0.992585
1.00012 1.00295 0.991296
1.0001 1.00262 0.991678
1.00009 1.00375 0.990534
1.00005 1.00422 0.990098
1.00008 1.00343 0.99093
1.0001 1.00255 0.99176
1.00007 1.00174 0.992642
1.00009 1.00246 0.991788
1.00009 1.00248 0.991839
1.00008 1.00254 0.991802
1.00011 1.00288 0.991402
1.00006 1.00266 0.991685
1.00013 1.00304 0.991253
1.00008 1.00309 0.991159
1.00015 1.00266 0.991526
1.00009 1.00209 0.992089
1.00014 1.00218 0.991949
1.00012 1.00253 0.991722
1.0001 1.00188 0.992398
1.00007 1.00191 0.992429
1.0001 1.00087 0.993394
1.00006 1.00182 0.992529
1.00009 1.00082 0.993477
1.00009 0.999423 0.994845
1.00008 1.00077 0.993411
1.0001 0.999374 0.99488
1.00004 0.997364 0.99741
1.0001 0.999343 0.994899
1.00006 0.997317 0.997187
1.00003 0.996057 0.998418
1.00008 0.997282 0.996966
1.00002 0.996053 0.999334
1.00002 0.996046 0.999335
1.00011 1.00011 0.994302
1.00012 0.998843 0.995353
1.00011 1.00006 0.994192
1.00007 0.996999 0.997274
1.00012 0.99883 0.995365
1.00012 0.998864 0.995341
1.00006 0.997019 0.997263
1.00001 0.995908 0.999403
1.00004 0.99707 0.99764
1.00001 0.995958 0.998974
0.999996 0.996064 0.998538
0.996898 0.998448 0.987806
1.00437 0.993798 0.990923
0.998982 0.999454 0.995432
1.00081 0.998526 0.996512
1.00127 0.999898 0.991688
0.997724 1.00176 0.996794
1.00134 1.00043 0.992862
0.995172 1.00367 0.976471
0.996293 0.999215 0.988806
1.00145 0.991947 0.994668
0.999281 1.00159 0.995521
0.99517 1.00415 0.976901
0.996309 0.998925 0.989666
1.00838 0.988797 0.99114
1.00005 1.00181 0.992508
1.00008 1.00092 0.993328
1.00011 1.00007 0.994191
1.00006 1.00105 0.993213
1.00006 1.00165 0.992744
1.00009 1.00168 0.992681
1.00009 1.0014 0.992907
1.00008 1.00127 0.993073
1.00008 1.00101 0.993286
1.00008 1.00091 0.993333
1.00205 0.998474 0.991927
1.00244 0.995901 0.993476
1.00085 1.00122 0.990863
1.00017 1.00377 0.990466
1.00006 1.00454 0.989747
1.00007 1.00363 0.990726
1.00005 1.0025 0.991941
1.00005 1.00217 0.99221
1.00309 0.995821 0.991909
1.00003 1.00271 0.991651
1.00005 1.00327 0.991083
1.00153 1.00055 0.990998
1.00028 1.00355 0.990106
1.00014 1.00492 0.989341
1.00007 1.0047 0.989722
1.00364 0.996747 0.990119
0.99997 1.00483 0.989817
1.00004 1.00526 0.989124
1.00006 1.00267 0.991639
1.00005 1.00324 0.991145
1.0001 1.00397 0.990398
1.00574 0.996685 0.986766
0.998289 0.998215 0.983266
0.995447 1.00248 0.974854
1.00009 1.00332 0.991002
0.999964 1.00405 0.990718
1.00169 1.00117 0.989627
0.999601 1.00511 0.99029
0.997801 0.998329 0.983629
0.995082 1.00238 0.980578
1.00008 0.998715 0.990968
1.00311 1.00005 0.988262
0.995939 0.997901 0.991078
1.0043 0.993599 0.993542
1.00821 0.987756 0.991928
1.00024 1.00337 0.990663
1.00549 0.995449 0.989393
1.01604 0.989776 0.983263
1.00005 1.00433 0.989755
0.999652 1.00386 0.991332
1.00295 1.00133 0.9893
1.00035 0.99787 0.993337
0.994955 1.0034 0.976509
0.998097 0.997504 0.99035
1.014 0.986069 0.9864
1.00006 1.00311 0.991238
1.01633 0.995809 0.97956
1.02168 0.986983 0.978384
0.998612 1.00365 0.99335
0.998951 0.997993 1.00279
0.995288 1.00218 0.978258
1.00088 0.99637 0.987897
1.01605 0.987361 0.982462
1.00031 1.00325 0.990551
1.0002 1.00368 0.990433
1.00024 1.00419 0.990203
1.00007 1.00178 0.992581
1.0001 1.00262 0.991683
1.00012 1.00289 0.991337
1.0001 1.0038 0.990463
1.0001 1.00256 0.991759
1.00009 1.00342 0.990941
1.00002 1.00433 0.990053
0.999871 1.00453 0.990113
1.0001 1.00411 0.990159
1.00014 1.0032 0.991121
1.0001 1.00248 0.991834
1.00008 1.00255 0.991797
1.00011 1.00283 0.991404
1.00013 1.003 0.99128
1.00006 1.00267 0.991693
1.00009 1.00307 0.991186
1.00011 1.00315 0.991123
1.00006 1.00348 0.990877
1.00015 1.003 0.991229
1.00016 1.00268 0.991512
1.00013 1.0024 0.991735
1.00022 1.00204 0.992004
1.00016 1.00171 0.992524
1.00008 1.00201 0.992234
1.00015 1.00218 0.991995
1.00013 1.00168 0.992461
1.00012 1.00251 0.991733
1.0001 1.00188 0.992404
1.00011 1.00091 0.993336
1.00007 1.00192 0.992427
1.0001 1.00088 0.993392
1.00008 0.999483 0.994799
1.00009 1.00082 0.993476
1.00009 0.999424 0.994843
1.00002 0.997426 0.997398
1.0001 0.999373 0.994878
1.00005 0.997363 0.997179
1.00001 0.99611 0.998415
1.00007 0.997308 0.996959
1.00002 0.99607 0.998876
1.00001 0.996057 0.999333
1.0001 1.00027 0.994039
1.00012 0.998889 0.995321
1.00011 1.00012 0.994163
1.00007 0.99702 0.99726
1.00012 0.998843 0.995354
1.00011 1.00005 0.994192
1.00001 0.9959 0.999403
1.00007 0.996999 0.997274
1.00012 0.998833 0.995363
1.00006 0.997023 0.997262
1.00001 0.995911 0.999401
0.999996 0.995959 0.999391
1.00484 0.996388 0.988738
0.997308 0.998909 0.985649
1.01466 0.991967 0.983417
1.00364 0.99352 0.991608
0.997702 1.00189 0.991348
1.00144 0.999996 0.992752
0.995088 1.00352 0.980899
0.996249 0.99984 0.985032
1.00104 0.991825 0.995606
0.999358 1.00126 0.99348
0.994837 1.00399 0.975236
0.9969 0.998312 0.985666
1.00844 0.988003 0.992026
1.00015 0.999663 0.996063
0.994658 1.00359 0.97498
0.998446 0.997588 0.989485
1.01564 0.987357 0.984219
1.00008 1.00224 0.992107
1.00006 1.00178 0.992586
1.00009 1.00093 0.993384
1.00005 1.00156 0.992808
1.0001 1.002 0.992274
1.00009 1.00165 0.992728
1.00009 1.00135 0.992928
1.00008 1.00146 0.992955
1.00008 1.00125 0.993143
1.00008 1.00102 0.993219
1.00293 0.996034 0.991639
1.00145 1.00025 0.991049
1.00032 1.00377 0.990073
1.00015 1.00504 0.989125
1.00009 1.00473 0.989608
1.00005 1.0033 0.991007
1.00003 1.00274 0.991625
1.00006 1.00269 0.991655
1.00341 0.996935 0.990063
1.00004 1.00324 0.991198
1.00009 1.00408 0.990335
0.999997 1.00499 0.989722
1.00009 1.0052 0.989132
1.0027 0.999012 0.989769
0.999473 1.0056 0.989986
1.00016 1.00461 0.989599
1.00008 1.0031 0.991211
1.00015 1.00364 0.990583
1.01542 0.998953 0.978182
1.00572 0.996578 0.987144
0.998309 0.997218 0.986818
1.00022 1.00361 0.99064
0.999541 1.00381 0.991327
1.00005 1.0043 0.989772
1.00572 0.995983 0.988398
0.994649 1.00307 0.975006
1.00004 0.997458 0.999011
1.00387 1.00365 0.983764
0.997643 0.998381 0.986097
1.01625 0.989415 0.983384
1.01418 0.986168 0.985682
1.00007 1.00301 0.991286
1.01642 0.996244 0.978405
1.02185 0.986774 0.978125
0.998911 1.00334 0.992662
0.999263 0.99807 0.999505
0.995198 1.00275 0.975851
1.01671 0.988342 0.981655
0.999781 0.997017 0.987658
1.00001 1.00239 0.991953
1.02093 0.993071 0.973419
1.02365 0.985853 0.976964
1.01606 0.984899 0.985846
0.997115 1.00089 0.998321
0.994805 0.999752 0.982599
1.00106 0.99948 0.982948
1.00024 1.00361 0.990475
1.00021 1.00416 0.990113
0.999834 1.00461 0.990241
1.00009 1.00256 0.991758
1.0001 1.0034 0.990952
0.999995 1.00448 0.990009
1.00013 1.00317 0.991147
1.00009 1.0042 0.99015
0.999925 1.00457 0.990007
0.999878 1.00459 0.990207
1.00008 1.00385 0.990467
1.00013 1.00297 0.991308
1.00006 1.00269 0.9917
1.00011 1.00304 0.991213
1.00008 1.00343 0.990889
1.0001 1.00314 0.991101
1.00001 1.00373 0.990773
1.0001 1.00283 0.991456
1.0001 1.00337 0.990853
1.00016 1.0027 0.991499
1.00017 1.00244 0.991739
1.00029 1.0024 0.991414
1.00017 1.00192 0.992223
1.00013 1.0016 0.992634
1.00019 1.00205 0.992006
1.00015 1.00138 0.992795
1.00016 1.00172 0.99249
1.00007 1.00194 0.99238
1.00016 1.00217 0.99204
1.00013 1.00168 0.992492
1.00013 1.00085 0.993362
1.0001 1.00187 0.99241
1.00011 1.0009 0.993338
1.00007 0.999539 0.994758
1.0001 1.00088 0.99339
1.00008 0.999484 0.994796
0.999988 0.997488 0.997381
1.00009 0.999424 0.994841
1.00002 0.997428 0.997165
0.999974 0.996182 0.998407
1.00005 0.997356 0.996949
0.999998 0.996122 0.998873
1 0.996091 0.999331
1.0001 1.00046 0.993676
1.0001 0.998996 0.995071
1.0001 1.00027 0.994035
1.00006 0.997071 0.997229
1.00011 0.998895 0.995232
1.0001 1.00012 0.994024
1.00001 0.995915 0.999398
1.00007 0.997017 0.997261
1.00012 0.998843 0.995355
1.00001 0.995899 0.999403
1.00007 0.996999 0.997274
1.00001 0.995915 0.999399
1.01454 0.997271 0.979604
1.0047 0.9966 0.988194
0.997417 0.998899 0.984425
1.00012 1.00162 0.992603
1.02007 0.98872 0.978937
1.01492 0.991687 0.98356
1.00358 0.993713 0.991054
0.999418 1.00066 0.991239
0.995021 1.00442 0.976574
0.997244 0.997978 0.99002
1.00783 0.990238 0.991613
1.00023 0.999549 0.990677
0.995054 1.00311 0.976441
0.998942 0.99694 0.987273
1.01453 0.988684 0.985275
1.00011 0.997845 0.991141
0.994686 1.00233 0.972317
1.00034 0.998605 0.981972
1.01556 0.990597 0.980106
1.00013 1.00255 0.991625
1.00008 1.00228 0.992053
1.00007 1.00174 0.992664
1.0001 1.00214 0.992109
1.0001 1.00196 0.992354
1.00009 1.00161 0.992776
1.00009 1.00144 0.992989
1.00008 1.00123 0.993212
1.00321 0.997144 0.990003
1.00002 1.00513 0.989627
1.00006 1.00271 0.991671
1.00014 1.00515 0.989139
1.00009 1.00418 0.990272
1.00003 1.00324 0.991251
1.00009 1.00309 0.991221
1.00262 0.999296 0.9897
1.00015 1.00364 0.990535
1.00018 1.00455 0.989603
0.999493 1.00563 0.989974
1.00014 1.00313 0.991064
1.00158 1.00053 0.991264
0.999614 1.0051 0.990325
1.00025 1.00409 0.990011
1.00016 1.00356 0.990642
1.02028 0.996067 0.9724
1.01537 0.998495 0.97816
1.00569 0.996562 0.987521
1.00009 1.00286 0.991334
0.999199 1.003 0.991973
1.01655 0.996653 0.97725
0.994701 1.00238 0.977264
1.00003 0.999643 0.993131
0.999991 0.995774 0.986529
1.02194 0.9865 0.977867
1.0174 0.989211 0.980849
1.00007 1.00262 0.991829
1.02086 0.993029 0.973397
1.02343 0.986227 0.976267
0.997307 1.00094 0.999025
1.01471 0.986814 0.986668
0.994805 0.998157 0.98281
1.00034 0.999367 0.982182
0.999226 1.00183 0.993654
1.0224 0.990956 0.97326
1.02166 0.988033 0.976998
1.00812 0.988344 0.9919
1.00048 0.997705 0.983384
0.998037 0.996765 1.00513
0.995406 0.99834 0.979403
1.00017 1.00413 0.990023
0.999925 1.0045 0.99019
0.999286 1.00529 0.990025
1.00013 1.00314 0.991173
1.00008 1.00429 0.990141
0.999983 1.00454 0.989902
1.00008 1.00383 0.990479
0.999875 1.00456 0.990198
0.999768 1.00488 0.990127
1.0001 1.00338 0.990902
1.0001 1.00314 0.991079
1.00003 1.00375 0.990737
0.999861 1.00442 0.990295
1.00005 1.00266 0.991682
1.00005 1.00335 0.990931
1.00021 1.00347 0.990631
1.00038 1.0022 0.991552
1.0002 1.00248 0.991743
1.0003 1.00247 0.991358
1.00018 1.00171 0.992513
1.00004 1.00168 0.992682
1.00017 1.00185 0.992285
1.00012 1.00127 0.992979
1.00014 1.00161 0.992625
1.00016 1.00205 0.992008
1.00014 1.00071 0.993478
1.00016 1.00138 0.992763
1.00016 1.00173 0.992456
1.00013 1.00168 0.992524
1.00013 1.00083 0.993368
1.00006 0.999563 0.99475
1.00011 1.00089 0.993341
1.00007 0.999539 0.994757
0.999967 0.997563 0.996906
1.00008 0.999486 0.994794
0.999997 0.997494 0.996918
0.999924 0.996264 0.999323
1.00003 0.997422 0.996935
0.99997 0.996193 0.998868
0.999981 0.996146 0.999329
1.00011 1.00063 0.993465
1.00008 0.999168 0.994924
1.00011 1.00047 0.99375
1.00004 0.997159 0.997175
1.0001 0.99901 0.995056
1.00011 1.00028 0.994031
0.999997 0.995955 0.99939
1.00006 0.997065 0.997231
1.00011 0.998902 0.995144
1.00001 0.995914 0.9994
1.00007 0.997014 0.997262
1.00001 0.995897 0.999404
1.01971 0.99424 0.974317
1.01464 0.996858 0.979653
1.00497 0.996174 0.988032
1.00012 1.00161 0.992648
1.00018 1.00158 0.992468
1.00013 1.0022 0.99209
1.02196 0.987217 0.97798
1.02027 0.989113 0.978657
1.01519 0.99148 0.983702
1.00035 0.999428 0.995699
0.995 1.00385 0.97509
0.997821 0.998969 0.984858
1.01498 0.989701 0.984846
1.00007 0.99867 0.995952
0.995165 1.0017 0.977291
1.0001 0.998469 0.986284
1.01613 0.991355 0.979699
0.99912 0.995295 0.999881
0.99462 0.999747 0.980689
1.0018 1.00137 0.979558
1.01479 0.987961 0.98446
1.00015 1.00272 0.991467
1.00013 1.00256 0.99163
1.00008 1.00231 0.991999
1.00011 1.00217 0.992099
1.0001 1.00193 0.992434
1.00009 1.00141 0.993023
1.00254 0.999543 0.98963
0.999514 1.00565 0.989962
1.00009 1.00308 0.99123
1.00019 1.0045 0.989606
1.00015 1.00366 0.990486
1.00013 1.00317 0.991045
1.00017 1.00353 0.990596
1.00167 0.999881 0.991108
1.00027 1.004 0.990012
0.999569 1.00518 0.990268
1.00015 1.00361 0.99044
0.999952 1.00346 0.992105
0.999905 1.00397 0.990374
1.00019 1.00391 0.99021
1.02181 0.993159 0.972093
1.02016 0.995464 0.972313
1.0153 0.997979 0.978138
1.00012 1.00284 0.991707
0.997474 0.99946 1.00011
1.02077 0.992988 0.973375
0.995036 0.999146 0.991508
1.00288 0.998572 0.983491
1.02323 0.986695 0.97557
1.01537 0.987347 0.986313
0.999558 1.00189 0.993346
1.02228 0.991218 0.972938
1.0219 0.98832 0.976763
0.997674 0.996719 0.99892
1.0085 0.987587 0.992602
0.998973 0.999327 0.987546
0.994487 0.998856 0.983315
1.00017 1.00154 0.995995
1.02062 0.994405 0.972636
1.01588 0.991309 0.982041
1.00156 0.992018 0.993843
0.997766 0.997434 0.990678
0.994888 1.00046 0.980898
0.998313 0.994252 0.998485
1.00004 1.0044 0.990139
0.999373 1.00528 0.990034
0.999001 1.00586 0.990153
1.00009 1.00381 0.990491
0.999874 1.00456 0.990189
0.999756 1.0049 0.990105
0.999645 1.00542 0.989734
1.00004 1.00377 0.9907
0.999915 1.00452 0.990219
1.00002 1.0048 0.989769
1.00001 1.00333 0.991009
1.00021 1.00352 0.990599
1.00043 1.00318 0.990629
1.00046 1.0023 0.991387
1.00023 1.00171 0.992187
1.00037 1.00225 0.991472
1.00031 1.00255 0.991303
1.00015 1.00145 0.992815
1.00015 1.00162 0.992574
1.00003 1.00136 0.993006
1.00005 1.00166 0.992732
1.00018 1.00178 0.992348
1.00011 1.00065 0.993604
1.00013 1.00125 0.992982
1.00014 1.00162 0.992616
1.00005 0.999544 0.994794
1.00014 1.0007 0.993484
1.00016 1.00138 0.992731
1.00013 1.00082 0.993373
1.00006 0.999559 0.994752
0.999937 0.997627 0.996899
1.00007 0.999538 0.994757
0.999968 0.997567 0.996904
0.999896 0.996379 0.99932
1 0.997496 0.996917
0.999934 0.996278 0.998861
0.999954 0.996217 0.999325
1.00013 1.00071 0.993469
1.00007 0.999324 0.994968
1.00011 1.00065 0.993523
1.00002 0.997283 0.9971
1.00009 0.999172 0.995007
1.00011 1.00048 0.993824
0.999978 0.996026 0.999376
1.00004 0.99715 0.997178
1.0001 0.999023 0.99504
1 0.995952 0.999393
1.00006 0.997058 0.997233
1.00001 0.995913 0.999401
1.0213 0.991296 0.974597
1.01972 0.994306 0.974336
1.01477 0.996515 0.979702
1.0002 1.00148 0.99254
1.00022 1.00172 0.992348
1.00012 1.00159 0.992693
1.00017 1.00159 0.99247
1.00013 1.00222 0.992023
1.00019 1.00211 0.992029
1.00015 1.00251 0.991694
1.02 0.989499 0.978556
1.0217 0.987722 0.97752
1.02048 0.989489 0.978376
1.01673 0.992063 0.979292
1.00025 0.998784 0.991069
0.99461 1.00172 0.981508
1.00032 0.9982 0.982695
0.99915 0.996712 0.99651
0.995305 0.999081 0.977792
1.00096 1.00026 0.979682
1.01344 0.988124 0.985209
0.997355 0.997098 1.0004
0.996002 0.998532 0.976536
1.00224 0.997551 0.985222
1.00935 0.989184 0.988989
1.00016 1.00291 0.991273
1.00015 1.00276 0.991456
1.00013 1.00257 0.991635
1.00011 1.00219 0.992088
1.00173 0.999527 0.990951
0.999505 1.00527 0.990211
1.00013 1.00322 0.991027
1.00018 1.00352 0.990549
1.00029 1.00388 0.990013
1.00014 1.00362 0.990534
1.00022 1.00387 0.990191
0.999491 1.00311 0.993545
0.999899 1.00396 0.990424
1.00016 1.0043 0.989934
0.997888 1.00564 0.995687
1.00008 1.00466 0.98951
1.02002 0.997335 0.971419
1.0217 0.992823 0.972156
1.02004 0.99489 0.972226
0.999939 1.00198 0.993035
0.997336 0.996463 1.00461
1.02209 0.991481 0.972617
0.995364 0.998736 0.978507
0.999649 0.998659 0.983953
1.02213 0.988609 0.976529
1.00766 0.989502 0.992555
0.999854 1.00153 0.995738
1.02063 0.994541 0.972631
1.01613 0.99112 0.98222
0.998401 0.994141 1.00554
1.00101 0.991942 0.995023
0.998276 0.997225 0.988203
0.99448 1.00068 0.980343
1.00026 1.00036 0.996701
1.01539 0.997387 0.978154
1.00499 0.993442 0.99021
0.995645 0.999114 0.990207
0.994526 1.00338 0.977411
0.999101 0.994205 0.995156
0.999452 1.00527 0.990043
0.999043 1.00589 0.990115
0.999291 1.00574 0.989801
0.999743 1.00494 0.990083
0.999611 1.00542 0.989775
0.99997 1.00529 0.989312
0.999975 1.00462 0.990144
1.00005 1.00483 0.989663
1.00041 1.004 0.989767
1.00023 1.00358 0.990567
1.00044 1.00317 0.990555
1.00052 1.00261 0.990906
1.00063 1.00167 0.991567
1.00044 1.00182 0.991915
1.00044 1.00231 0.991346
1.00018 1.00136 0.99264
1.00024 1.00172 0.992244
1.00036 1.00231 0.991391
1.00011 1.00127 0.993012
1.00014 1.00145 0.992786
1.00013 1.00153 0.992635
1.00004 1.00075 0.99362
1.00004 1.00134 0.993031
1.00006 1.00164 0.992783
1.00002 0.999537 0.994862
1.00011 1.00063 0.993608
1.00014 1.00124 0.992986
0.999914 0.997694 0.996906
1.00005 0.999541 0.994797
1.00015 1.00068 0.993489
1.00006 0.999555 0.994754
0.999937 0.997631 0.9969
0.999862 0.996469 0.999317
0.999969 0.997571 0.996903
0.999892 0.996378 0.999319
0.999922 0.996295 0.999321
1.0002 1.00144 0.992636
1.00016 1.00075 0.993385
1.00006 0.999463 0.994844
1.00014 1.00072 0.993465
0.999991 0.997427 0.997012
1.00007 0.999324 0.994971
1.00011 1.00066 0.99358
0.99995 0.996129 0.999358
1.00002 0.997272 0.997104
1.00009 0.999176 0.995091
0.999981 0.996019 0.99938
1.00004 0.99714 0.997181
1 0.995949 0.999395
1.01981 0.995221 0.973048
1.02131 0.991594 0.974115
1.01974 0.994384 0.974355
1.00019 1.0015 0.99257
1.00022 1.00172 0.992316
1.00021 1.00165 0.992378
1.00022 1.00181 0.992187
1.00024 1.00188 0.992162
1.00017 1.00159 0.992471
1.00013 1.00223 0.991956
1.00019 1.0021 0.992032
1.00015 1.00246 0.991714
1.00018 1.00239 0.991791
1.01428 0.994183 0.981671
1.02012 0.989456 0.978232
1.02149 0.988221 0.977061
1.01347 0.988092 0.984458
1.00349 0.99976 0.980727
0.998851 0.99638 0.994378
0.994659 0.998492 0.981237
0.996834 0.997689 0.995762
0.994617 0.999367 0.980533
1.00096 0.997592 0.984928
1.00887 0.988533 0.990289
0.995392 1.0008 0.995152
0.994716 0.999815 0.980452
0.997567 0.998317 0.985673
1.0027 0.991172 0.994233
1.00005 1.00266 0.991717
1.00015 1.00288 0.99134
1.00015 1.0028 0.991444
0.999103 1.00248 0.99499
0.999888 1.00401 0.990474
1.00013 1.00363 0.990629
1.00025 1.00384 0.990173
1.00012 1.00435 0.989968
0.999986 1.00472 0.989489
0.997779 1.00543 0.995683
0.999745 1.00501 0.989635
0.998639 1.00553 0.993983
1.01527 1.00015 0.977414
1.01989 0.996679 0.971411
1.02162 0.992504 0.972219
0.999484 1.00152 0.995505
0.998469 0.994355 0.998029
1.02063 0.994678 0.972625
0.994661 1.00047 0.974592
0.997126 0.999077 0.986161
1.01638 0.990831 0.982399
1.00054 0.992034 0.996202
1.00037 1.00044 0.996747
1.01549 0.997024 0.97818
1.00411 0.993167 0.99105
0.999054 0.99362 0.998828
0.996471 0.998696 0.986242
0.994824 1.00348 0.973218
1.001 0.999259 0.995119
1.00542 0.996516 0.987704
0.99643 0.999036 0.984728
0.994541 1.00384 0.975032
1.0001 0.997059 0.994998
0.999086 1.0059 0.990077
0.999251 1.00581 0.989819
1.00004 1.00515 0.989685
0.999578 1.00541 0.989815
0.999915 1.00528 0.989376
1.00066 1.0034 0.989788
1.00008 1.00486 0.989557
1.00042 1.00384 0.98981
1.00078 1.002 0.991104
1.00046 1.00315 0.990482
1.00053 1.00247 0.990965
1.00079 1.00107 0.991864
1.00088 1.00058 0.992125
1.00057 1.00153 0.991803
1.00065 1.00157 0.991596
1.00033 1.00149 0.992376
1.0004 1.00186 0.991831
1.00043 1.00231 0.991305
1.00016 1.00111 0.993033
1.00018 1.00135 0.992695
1.00025 1.00172 0.992301
1.00003 1.00085 0.993557
1.00009 1.00127 0.993006
1.00013 1.00146 0.992756
0.999961 0.999626 0.994877
1.00005 1.00074 0.993619
1.00005 1.00133 0.993056
0.999864 0.997727 0.997395
1.00002 0.99954 0.994864
1.00012 1.00062 0.993611
0.999838 0.996545 0.998393
0.999904 0.997688 0.997142
1.00005 0.999537 0.994801
0.999937 0.997635 0.9969
0.999857 0.996462 0.999317
0.999888 0.996378 0.999318
1.00019 1.00141 0.992648
1.00016 1.00079 0.993344
1.00019 1.00145 0.992617
1.00006 0.999557 0.994757
1.00016 1.00076 0.993381
0.99996 0.997566 0.996931
1.00006 0.999462 0.994846
1.00014 1.00073 0.993461
0.999917 0.996254 0.999337
0.999988 0.997417 0.997017
1.00007 0.999325 0.994974
0.999955 0.996118 0.999363
1.00002 0.997261 0.997108
0.999985 0.996012 0.999385
1.01525 0.999659 0.975737
1.01973 0.995188 0.973076
1.02128 0.991892 0.973633
1.00021 1.00158 0.992494
1.00018 1.00151 0.9926
1.00022 1.00173 0.992283
1.00022 1.00183 0.992228
1.00021 1.00166 0.992412
1.00024 1.00185 0.992172
1.00023 1.00184 0.99216
1.00021 1.00203 0.992002
1.00019 1.00208 0.992036
1.00015 1.00242 0.991735
1.00018 1.00236 0.991786
1.00025 1.00236 0.991808
1.00358 0.994001 0.993012
1.01439 0.994082 0.981854
1.02026 0.989427 0.977909
1.00776 0.991163 0.990229
1.00046 0.996408 0.983721
0.995914 0.998531 0.976559
0.996103 0.997589 1.0041
0.995219 1.0008 1.0016
1.00158 0.992212 0.994748
0.995151 0.999529 0.976219
0.998107 0.997784 0.989213
0.996104 1.0009 0.999981
0.994789 1.0019 0.978474
0.995411 0.998568 0.991127
0.999914 1.00254 0.99217
1.00011 1.00257 0.991728
1.00014 1.00285 0.991407
0.99768 1.00517 0.995681
0.999909 1.00478 0.989468
1.00008 1.00441 0.990003
0.999794 1.00508 0.989691
0.998655 1.00543 0.993937
0.999319 1.003 0.993552
1.00564 0.99642 0.989505
1.01502 1.00025 0.97583
1.01976 0.996049 0.971403
1.00046 1.00051 0.996794
0.999186 0.99468 1.0008
1.0156 0.996704 0.978206
0.994648 1.00199 0.981551
0.997059 0.99808 0.990511
1.00401 0.993345 0.990746
1.00122 0.999141 0.995362
1.00525 0.996587 0.987329
0.996405 0.998998 0.988846
1.0003 0.996881 0.991134
0.994832 1.00356 0.976338
1.00295 0.998745 0.990093
0.997332 0.997809 0.98754
0.995263 1.0041 0.976737
1.00023 0.998429 0.990611
0.999231 1.00591 0.989836
0.999824 1.00516 0.98961
1.00075 1.00226 0.990657
0.999864 1.00528 0.989441
1.0007 1.00319 0.989827
1.00147 0.99958 0.992185
1.00041 1.00366 0.989853
1.00077 1.00171 0.991189
1.00112 0.99938 0.992908
1.00053 1.00233 0.991023
1.00081 1.00092 0.991898
1.00108 0.999417 0.992876
1.00094 0.999764 0.992806
1.00079 1.00079 0.992134
1.00087 1.00052 0.992182
1.00045 1.00128 0.992191
1.00056 1.00151 0.991867
1.00066 1.00147 0.991624
1.00021 1.00114 0.992908
1.00029 1.00149 0.992367
1.00037 1.0019 0.991747
1.00005 1.00084 0.993523
1.00017 1.00112 0.993028
1.00018 1.00135 0.992751
0.999915 0.999802 0.9948
1.00004 1.00083 0.993562
1.00008 1.00127 0.993001
0.99982 0.997809 0.996949
0.999964 0.999638 0.994874
1.00006 1.00073 0.993619
0.999771 0.996599 0.999327
0.999867 0.997725 0.99694
1.00002 0.999544 0.994866
0.999823 0.996548 0.999318
0.999904 0.997685 0.996914
0.999853 0.996456 0.999317
1.00017 1.0014 0.992794
1.00018 1.00143 0.992669
1.00015 1.00084 0.99333
1.00005 0.999631 0.994705
1.00016 1.0008 0.993342
1.00019 1.00147 0.992598
0.999931 0.997672 0.996877
1.00006 0.999552 0.994758
1.00016 1.00077 0.993378
0.999882 0.996383 0.999319
0.999958 0.997555 0.996935
1.00007 0.999459 0.994847
0.999922 0.996242 0.999343
0.999985 0.997406 0.997021
0.999959 0.996106 0.999369
1.00526 0.995249 0.991024
1.01527 0.999702 0.975768
1.01965 0.995159 0.973105
1.00021 1.00159 0.992465
1.00018 1.00156 0.992613
1.00025 1.00166 0.992316
1.00021 1.00185 0.992269
1.00021 1.00167 0.992445
1.00024 1.00181 0.992182
1.00022 1.00202 0.992022
1.00024 1.00183 0.992181
1.00016 1.00218 0.991989
1.00023 1.00205 0.992037
1.00018 1.00234 0.991781
1.0002 1.00233 0.991811
0.995666 0.998349 0.990423
1.00294 0.993876 0.993958
1.0145 0.993978 0.982037
1.00057 0.993217 0.995263
0.997851 0.998452 0.985828
0.99478 0.999875 0.983733
0.995059 1.00096 0.995356
0.996132 1.00114 0.993873
0.99584 0.998473 0.986867
0.995083 1.00152 0.980108
0.997567 0.999662 0.992403
0.994897 1.00219 0.977374
0.999768 1.00392 0.991742
0.99996 1.00234 0.992193
1.00018 1.00248 0.99174
0.998623 1.00527 0.993898
0.999841 1.00513 0.989747
0.99989 1.0027 0.99366
1.00072 1.00045 0.993989
0.998458 0.997113 0.986221
1.0056 0.996683 0.988386
1.01476 1.00028 0.974245
1.00138 0.999016 0.995585
1.00007 0.996966 0.997709
1.00557 0.996201 0.987113
0.99495 1.00365 0.975222
0.996426 0.99983 0.985074
1.0028 0.998902 0.991134
0.997812 0.998472 0.985268
0.994933 1.00372 0.975126
1.00023 0.998586 0.995648
1.00333 0.998035 0.989362
0.995255 1.00348 0.972137
1.00013 0.999325 0.996574
0.999577 1.00514 0.989534
1.00061 1.00258 0.9906
1.00196 0.997512 0.992893
1.00074 1.00301 0.989867
1.00144 0.999314 0.992207
1.00175 0.996501 0.994583
1.00077 1.00146 0.991274
1.00115 0.999188 0.992921
1.00141 0.997626 0.993981
1.00083 1.00077 0.991931
1.00108 0.999397 0.99287
1.00111 0.998793 0.993377
1.00098 0.999456 0.993092
1.00095 0.999696 0.992871
1.00085 1.00009 0.992679
1.00069 1.00079 0.992329
1.00077 1.00082 0.992147
1.00086 1.00046 0.99224
1.00034 1.00104 0.992638
1.00046 1.0013 0.992252
1.00055 1.00148 0.991932
1.00008 1.00087 0.993438
1.00022 1.00114 0.992902
1.00026 1.0015 0.992358
0.99989 0.999978 0.994678
1.00006 1.00082 0.993527
1.00018 1.00112 0.993022
0.999763 0.997959 0.996915
0.999919 0.999804 0.994801
1.00005 1.00081 0.993567
0.99973 0.996735 0.999326
0.999821 0.997819 0.996948
0.999966 0.999648 0.994872
0.999778 0.996605 0.998865
0.999869 0.997735 0.99694
0.999813 0.99653 0.99932
1.00014 1.00138 0.992858
1.00017 1.0014 0.992739
1.00012 1.0009 0.993324
1.00018 1.00144 0.99269
1.00014 1.00084 0.993328
1.00003 0.99971 0.994671
0.999903 0.997755 0.996849
1.00005 0.999622 0.994705
1.00016 1.00081 0.993339
0.999847 0.996492 0.999308
0.999931 0.997663 0.996879
1.00006 0.999549 0.994758
0.999887 0.996372 0.999324
0.999956 0.997546 0.996938
0.999926 0.996228 0.999349
0.99761 0.998207 0.984678
1.00498 0.995383 0.991266
1.01527 0.999744 0.975799
1.00022 1.00159 0.992437
1.00024 1.00167 0.992316
1.00017 1.00155 0.992633
1.00013 1.00157 0.992679
1.00019 1.00173 0.992389
1.00022 1.00201 0.992041
1.00024 1.00181 0.992202
1.00015 1.00216 0.991993
1.00009 1.00186 0.992295
1.00012 1.00228 0.991911
1.00011 1.0024 0.992159
1.0002 1.00218 0.991955
1.00016 1.00231 0.991813
0.995496 1.00248 0.972791
0.996215 0.999115 0.988048
1.00296 0.994098 0.993486
0.995891 0.998026 0.991098
0.994771 1.00237 0.972731
0.996221 1.00103 0.999919
0.998091 0.999727 0.995103
0.994927 1.00145 0.97869
1.00027 0.998088 0.993326
1.00057 1.00388 0.989733
0.999668 1.00372 0.991622
1.00001 1.00211 0.992216
1.00046 1.00238 0.993757
1.00066 0.998936 0.994584
0.99575 1.00137 0.975683
0.998397 0.997567 0.983627
1.00556 0.997028 0.987267
1.00267 0.998983 0.992194
1.00041 0.998745 0.990614
0.997932 0.998271 0.983928
0.99512 1.00409 0.97661
1.00333 0.998277 0.989285
0.995508 1.00312 0.976344
1.00016 0.99919 0.991013
1.00378 0.995843 0.990668
0.99929 1.00153 0.995884
1.0005 1.00294 0.990542
1.00193 0.997694 0.992878
1.00242 0.995073 0.9946
1.00138 0.999029 0.992229
1.00165 0.996496 0.994546
1.00173 0.996028 0.99487
1.0012 0.998965 0.992934
1.00139 0.997688 0.993923
1.00133 0.997902 0.993829
1.00108 0.99938 0.992865
1.00112 0.998857 0.993336
1.00108 0.999063 0.993212
1.00095 0.999393 0.993159
1.00092 0.999813 0.992853
1.00095 0.999626 0.992935
1.00086 1.00009 0.992668
1.00081 1.00031 0.992567
1.00054 1.00075 0.992556
1.00068 1.00081 0.992315
1.00075 1.00085 0.99216
1.00018 1.00085 0.993264
1.00034 1.00107 0.992676
1.00045 1.00132 0.992313
0.999871 1.00018 0.99451
1.00009 1.00086 0.993438
1.00023 1.00115 0.992897
0.999705 0.998147 0.996838
0.9999 0.999964 0.994681
1.00007 1.0008 0.993532
0.999665 0.996874 0.999321
0.999765 0.997972 0.996911
0.999923 0.999806 0.994802
0.999718 0.996724 0.999325
0.999823 0.99783 0.996947
0.999765 0.996606 0.999325
1.0001 1.00144 0.992826
1.00013 1.00138 0.992861
1.00007 1.00098 0.993259
1.00017 1.0014 0.992684
1.00011 1.00091 0.993283
0.999993 0.999822 0.994634
1.00014 1.00085 0.993325
1.00003 0.9997 0.994671
0.99987 0.997838 0.996832
0.999809 0.996583 0.999303
0.999903 0.997745 0.99685
1.00006 0.999612 0.994706
0.999851 0.996492 0.999311
0.99993 0.997655 0.996881
0.999891 0.996363 0.999329
0.995605 1.00288 0.977459
0.997684 0.998014 0.987279
1.00524 0.995124 0.991609
1.00024 1.00168 0.992317
1.00016 1.00154 0.992653
1.00019 1.00173 0.992402
1.00013 1.00157 0.992683
1.00008 1.0017 0.99266
1.00011 1.00172 0.992502
1.00014 1.00214 0.991998
1.00011 1.00191 0.99229
1.00007 1.00235 0.99195
1.00008 1.00183 0.992322
1.00041 1.00215 0.992115
1.00073 1.00288 0.99022
1.00011 1.00222 0.992076
1.00016 1.00231 0.991873
0.999736 0.99972 0.99632
0.994763 1.00283 0.977166
0.996067 0.998719 0.985658
0.994706 1.0024 0.977066
0.99834 0.999206 0.998487
1.00022 0.998378 0.996175
1.00339 0.999019 0.989743
1.00043 1.00314 0.989985
0.999553 1.00353 0.9915
1.0006 0.99753 0.995181
0.997846 1.00266 0.990391
0.99587 1.00235 0.977663
0.9983 0.996851 0.987066
1.00332 0.998565 0.98921
1.00029 0.999164 0.99605
0.99537 1.00282 0.980736
1.00357 0.996043 0.990632
0.999333 1.00121 0.993691
1.00309 0.995293 0.992773
1.00131 1.00118 0.992036
1.00188 0.997848 0.992864
1.00238 0.995044 0.99462
1.00191 0.996347 0.994322
1.00156 0.996523 0.994509
1.00169 0.99625 0.994809
1.00156 0.997659 0.993629
1.00137 0.997775 0.993864
1.00131 0.998042 0.993777
1.00129 0.998902 0.992985
1.00113 0.998925 0.993295
1.00105 0.999127 0.993224
1.00099 0.999739 0.992733
1.00093 0.999338 0.993226
1.00091 0.999743 0.992899
1.00088 1.00013 0.992626
1.00087 1.00009 0.992656
1.00081 1.00031 0.992555
1.0007 1.00043 0.992675
1.00033 1.00067 0.993035
1.00053 1.00078 0.992592
1.00068 1.00084 0.992301
0.999886 1.0004 0.994277
1.00017 1.00085 0.993266
1.00033 1.00109 0.992714
0.999643 0.998372 0.99673
0.99989 1.00016 0.994511
1.0001 1.00084 0.993438
0.999596 0.997056 0.999306
0.999708 0.998164 0.996833
0.999908 0.999951 0.994684
0.999653 0.996873 0.999317
0.999768 0.997986 0.996907
0.999706 0.996715 0.999325
1.00008 1.00151 0.992828
1.00011 1.00143 0.992867
1.00002 1.00111 0.993248
1.00013 1.00139 0.992864
1.00006 1.00101 0.993259
0.999947 0.999977 0.994574
1.00011 1.00093 0.993242
0.999993 0.999815 0.994633
0.999828 0.997952 0.996805
1.00003 0.99969 0.994671
0.999871 0.997826 0.996833
0.999764 0.996676 0.999299
0.999814 0.996592 0.999304
0.999904 0.997734 0.996852
0.999855 0.996491 0.999314
0.998918 1.00016 0.995177
0.995284 1.00229 0.975699
0.99745 0.998445 0.984157
1.00016 1.00167 0.992547
1.00019 1.00173 0.992415
1.00013 1.00156 0.992687
1.00012 1.00174 0.992503
1.00007 1.00172 0.992648
1.00003 1.00162 0.992725
1.00014 1.00196 0.992286
1.00002 1.00243 0.991991
1.00012 1.00188 0.99235
1.0002 1.00206 0.992282
1.00064 1.00195 0.99129
1.00214 1.0017 0.988519
1.00062 1.00278 0.990403
1.00012 1.00205 0.991993
1.00358 0.997568 0.989069
0.9996 0.999743 0.993993
0.994848 1.00244 0.98128
1.0002 0.998726 0.990955
1.00336 0.999788 0.988167
1.00032 1.0023 0.990241
1.00104 1.00099 0.994445
0.997879 1.00269 0.995581
0.995706 1.00124 0.975577
1.00344 0.996278 0.990593
0.999352 1.0007 0.991329
1.00293 0.9956 0.992541
1.00133 1.00082 0.992451
1.00194 0.998047 0.991853
1.00106 1.00036 0.991046
1.00236 0.995004 0.99464
1.00187 0.996397 0.994318
1.00151 0.998717 0.992813
1.00166 0.996473 0.994748
1.00155 0.997797 0.993597
1.00146 0.999075 0.992478
1.00129 0.998184 0.993724
1.00123 0.99896 0.993045
1.00117 0.999793 0.992293
1.00101 0.999188 0.993237
1.00098 0.999746 0.992735
1.00093 1.00014 0.992455
1.0009 0.999672 0.992946
1.00087 1.00008 0.992645
1.00077 1.0003 0.992611
1.00081 1.00032 0.992543
1.00069 1.00043 0.992641
1.00049 1.00048 0.992999
0.999954 1.00049 0.994044
1.00032 1.00069 0.99308
1.00052 1.0008 0.992628
0.999585 0.998632 0.996572
0.999906 1.00036 0.994278
1.00017 1.00085 0.993269
0.999523 0.997269 0.999284
0.999647 0.998394 0.996723
0.999907 1.00013 0.994511
0.999582 0.997061 0.9993
0.999711 0.99818 0.996829
0.99964 0.996873 0.999313
1.00012 1.0015 0.99272
1.00008 1.00149 0.992831
1.00002 1.00119 0.993258
1.00012 1.00143 0.992908
1.00002 1.00112 0.993276
0.999898 1.00017 0.994478
1.00005 1.00103 0.993258
0.999944 0.999976 0.994572
0.999773 0.998115 0.996758
0.999994 0.999807 0.994632
0.999829 0.997938 0.996807
0.999708 0.996796 0.999292
0.999873 0.997813 0.996834
0.999773 0.996689 0.9993
0.999819 0.996602 0.999306
1.00238 0.996947 0.992489
0.998846 1.0008 0.990947
0.995679 1.00219 0.977488
1.00013 1.00149 0.992639
1.00046 1.00147 0.992178
1.00008 1.00169 0.992569
1.00014 1.00176 0.992504
1.00006 1.00174 0.992636
1.00007 1.00163 0.992706
1.0007 1.00151 0.991566
1.00017 1.00192 0.992379
1 1.00197 0.992449
1.00062 1.00197 0.991248
1.00175 1.00128 0.989542
1.00247 0.998935 0.990641
1.00214 1.00156 0.98872
1.00049 1.00268 0.990588
1.00356 0.997605 0.989172
0.99943 1.00009 0.991487
1.00339 1.00061 0.986584
1.00067 0.999666 0.993204
1.00097 1.00049 0.994503
0.997922 1.00222 0.990419
1.00271 0.995886 0.992307
1.00137 1.00043 0.992859
1.00201 0.998091 0.991966
1.00117 1.00047 0.991328
1.00142 1.00016 0.991516
1.0009 1.00015 0.992695
1.00184 0.996403 0.994314
1.00148 0.998654 0.992865
1.00149 0.999771 0.991764
1.00153 0.997893 0.993565
1.00143 0.999115 0.992483
1.00136 0.999813 0.991849
1.00117 0.999011 0.993106
1.00117 0.999796 0.992293
1.00109 1.00018 0.992071
1.00098 0.999752 0.992737
1.00094 1.00013 0.992453
1.00084 1.00034 0.992443
1.00086 1.00002 0.992665
1.00077 1.00028 0.992612
1.00058 1.00038 0.992919
1.00069 1.00042 0.992607
1.00047 1.00048 0.992979
1.00005 1.00047 0.99388
0.999557 0.998888 0.996395
0.999969 1.00045 0.994048
1.00031 1.00072 0.993124
0.999452 0.997504 0.999252
0.999592 0.998659 0.996563
0.999926 1.00032 0.994279
0.99951 0.997277 0.999275
0.999652 0.998416 0.996716
0.999569 0.997065 0.999294
1.00022 1.00147 0.992414
1.00011 1.00148 0.992681
1.00008 1.00118 0.993167
1.00008 1.00147 0.992833
1.00001 1.0012 0.993254
0.999864 1.00038 0.994348
1.00001 1.00114 0.993304
0.999891 1.00018 0.994476
0.999703 0.998334 0.996685
0.999942 0.999975 0.99457
0.999773 0.9981 0.996761
0.999636 0.996959 0.999279
0.999831 0.997923 0.996809
0.99972 0.996804 0.999294
0.99978 0.996701 0.999302
1.00172 0.998103 0.993062
1.00243 0.997398 0.993095
0.998742 1.00145 0.996809
1.00077 1.00121 0.991919
1.00007 1.00147 0.992796
1.00075 1.00123 0.991457
1.00045 1.00148 0.992146
1.00001 1.0017 0.992591
1.00162 1.00087 0.990375
1.00012 1.00165 0.992687
1.00072 1.00144 0.991601
1.0023 0.999249 0.990417
1.00059 1.00198 0.991207
1.00191 1.00126 0.98933
1.00252 0.998841 0.99056
1.00212 1.00142 0.988921
1.00348 0.997659 0.989278
1.00082 0.999437 0.993523
1.0006 0.999488 0.99324
1.00088 0.999974 0.994566
1.00207 0.998158 0.99208
1.00128 1.00058 0.991608
1.00152 1.00004 0.991476
1.00091 1.00008 0.992711
1.00099 1.00013 0.992384
1.00145 0.998633 0.992917
1.00149 0.999678 0.991814
1.0014 1.00004 0.991645
1.0014 0.999163 0.992487
1.00137 0.999865 0.991823
1.00128 1.0002 0.991698
1.00118 0.9998 0.992293
1.0011 1.00018 0.992063
1.00097 1.00037 0.99214
1.00094 1.00013 0.992452
1.00084 1.00033 0.992441
1.00065 1.0004 0.992749
1.00077 1.00026 0.992612
1.00057 1.00038 0.99292
1.00013 1.00042 0.993761
1.00046 1.00047 0.992959
1.00005 1.00044 0.993886
0.999536 0.999121 0.996749
0.999403 0.997795 0.998094
0.999561 0.998909 0.99665
0.999985 1.00041 0.994053
0.999442 0.997515 0.999239
0.999598 0.998686 0.996555
0.999497 0.997284 0.999267
1.00099 1.00076 0.991611
1.0004 1.00142 0.992086
1.00026 1.00146 0.992372
1.00015 1.00115 0.993033
1.00011 1.00147 0.992642
1.00006 1.00118 0.993169
0.999856 1.00054 0.994214
0.999998 1.0012 0.993251
0.999851 1.0004 0.994347
0.999625 0.99859 0.99659
0.999883 1.00019 0.994474
0.999701 0.998317 0.996689
0.999551 0.99717 0.999261
0.999773 0.998084 0.996764
0.999652 0.996959 0.999283
0.999732 0.996814 0.999297
1.00169 0.998663 0.992439
1.00167 0.998136 0.992892
1.00247 0.997914 0.9937
1.00147 1.00069 0.990825
1.00064 1.00121 0.992097
1.00001 1.00145 0.992952
1.00086 1.00117 0.991546
1.00045 1.00149 0.992114
1.00211 0.999837 0.990321
1.00164 1.00091 0.990278
1.00073 1.00137 0.991636
1.00238 0.999244 0.990363
1.00208 1.00123 0.989118
1.00258 0.99875 0.990479
1.00056 0.999859 0.993294
1.00077 0.999499 0.993486
1.00053 0.999307 0.993275
1.00163 0.999914 0.991437
1.00091 1.00003 0.992727
1.00102 1.0001 0.992377
1.00092 1.0003 0.99231
1.0015 0.999579 0.991865
1.00144 0.999983 0.991604
1.0013 1.00008 0.991761
1.00137 0.999916 0.991796
1.00128 1.0002 0.99169
1.00112 1.00038 0.991829
1.00111 1.00018 0.992055
1.00098 1.00037 0.992133
1.00075 1.00044 0.992501
1.00084 1.00033 0.992439
1.00065 1.0004 0.992747
1.0002 1.00042 0.99361
1.00057 1.00038 0.99292
1.00012 1.00041 0.993766
0.999515 0.999376 0.996563
1.00006 1.00041 0.993892
0.999541 0.999145 0.99672
0.999331 0.998099 0.997945
0.999391 0.997772 0.998644
0.999565 0.998932 0.996904
0.999432 0.997525 0.999226
1.00148 1.00043 0.991035
1.00072 1.00106 0.992035
1.00093 1.00065 0.99188
1.00027 1.00118 0.992764
1.00045 1.00144 0.992091
1.0003 1.00146 0.99233
1.00014 1.00116 0.993036
0.999861 1.00068 0.994059
1.00005 1.00118 0.993171
0.999837 1.00056 0.994212
0.999548 0.998856 0.996484
0.999838 1.00041 0.994345
0.999621 0.998572 0.996595
0.999455 0.997416 0.999238
0.999699 0.9983 0.996693
0.99957 0.99716 0.999267
0.999668 0.99696 0.999287
1.00151 0.999529 0.991919
1.00166 0.998666 0.99245
1.00162 0.99816 0.992722
1.00189 0.999885 0.990592
1.00147 1.00068 0.990837
1.00052 1.00122 0.992276
1.00097 1.00111 0.991635
1.00215 0.999848 0.990313
1.00166 1.00096 0.990181
1.00245 0.999241 0.990308
1.00067 1.00024 0.992831
1.00067 0.999921 0.99312
1.00073 0.999558 0.993449
1.00081 1.00061 0.992262
1.00104 1.00008 0.992371
1.00093 1.00032 0.992286
1.00104 1.00025 0.992127
1.00149 0.999928 0.991562
1.00129 1.00008 0.991766
1.00115 1.00036 0.991792
1.00128 1.0002 0.991682
1.00112 1.00038 0.991828
1.00086 1.00046 0.992259
1.00098 1.00036 0.992126
1.00076 1.00044 0.992497
1.00028 1.00045 0.993406
1.00065 1.00039 0.992744
1.00019 1.00042 0.99361
0.999487 0.999628 0.996379
1.00012 1.0004 0.99377
0.999523 0.999382 0.996534
0.999241 0.998447 0.997808
0.999547 0.999168 0.996691
0.999326 0.998069 0.997967
0.999378 0.997748 0.999198
1.00181 1.00015 0.990734
1.00124 1.00057 0.991428
1.00142 1.00047 0.991138
1.00052 1.001 0.992561
1.00071 1.00103 0.992013
1.00086 1.00055 0.99215
0.999926 1.00082 0.993789
1.00026 1.00119 0.992763
1.00049 1.00146 0.992097
1.00013 1.00116 0.993039
0.999841 1.00071 0.994057
0.999487 0.999139 0.996332
0.999819 1.00059 0.99421
0.999541 0.998839 0.996488
0.999356 0.997685 0.999212
0.999617 0.998553 0.9966
0.999476 0.997399 0.999245
0.999589 0.997151 0.999273
1.00148 0.999809 0.991688
1.00159 0.999496 0.991799
1.00162 0.998668 0.992461
1.00201 0.999834 0.990491
1.00148 1.00067 0.990849
1.00219 0.999856 0.990306
1.00074 1.00065 0.992304
1.00062 1.00032 0.992865
1.00078 0.999985 0.992945
1.00081 1.00064 0.992221
1.00084 1.00078 0.992025
1.00093 1.00034 0.992263
1.00103 1.00026 0.992126
1.00103 1.0004 0.99207
1.00129 1.00009 0.991771
1.00114 1.00035 0.991806
1.00089 1.00051 0.992151
1.00112 1.00038 0.991828
1.00086 1.00046 0.992256
1.00036 1.00048 0.993218
1.00076 1.00043 0.992493
1.00028 1.00045 0.993404
0.999456 0.999862 0.996192
1.00019 1.00042 0.99361
0.999501 0.999626 0.996348
0.999127 0.998832 0.997675
0.999532 0.99939 0.996505
0.999238 0.998411 0.997831
0.999321 0.998042 0.997989
1.00166 0.999575 0.991606
1.00157 1.0003 0.991003
1.00183 1.00012 0.990698
1.00089 1.00067 0.992068
1.00122 1.0006 0.991483
1.00137 1.00052 0.991241
1.00009 1.00077 0.993459
1.00051 1.00099 0.992454
1.0007 1.001 0.991992
0.999477 0.999438 0.996056
0.999908 1.00084 0.993788
1.00026 1.00119 0.992763
0.99982 1.00075 0.994055
0.999472 0.999126 0.996338
0.999263 0.99798 0.99917
0.999533 0.998822 0.996493
0.999376 0.997664 0.99922
0.999497 0.997382 0.999252
1.00118 1.0005 0.991602
1.00152 0.999788 0.991639
1.00168 0.999461 0.991679
1.00213 0.999787 0.99039
1.00083 1.00088 0.991896
1.00073 1.00065 0.992349
1.00058 1.00039 0.992899
1.00081 1.00067 0.99218
1.00082 1.00078 0.992048
1.0008 1.00073 0.992154
1.00102 1.00026 0.992125
1.00101 1.00039 0.992076
1.00084 1.00055 0.992231
1.00114 1.00034 0.991819
1.00089 1.0005 0.992161
1.00038 1.00056 0.99309
1.00087 1.00046 0.992253
1.00036 1.00049 0.993214
0.999439 1.0001 0.99537
1.00028 1.00046 0.993401
0.999478 0.999886 0.995823
0.998998 0.999058 0.998969
0.999515 0.999625 0.996318
0.999125 0.9988 0.997697
0.999234 0.998374 0.997853
1.00138 1.00012 0.991641
1.00154 0.999852 0.991497
1.0016 0.999634 0.991589
1.00114 1.00042 0.99157
1.00155 1.00027 0.991107
1.00186 1.00008 0.990662
1.00034 1.00059 0.992955
1.00089 1.00067 0.992064
1.0012 1.00062 0.991539
0.999539 0.999674 0.995681
1.00009 1.00078 0.993364
1.0005 1.00098 0.992348
0.999195 0.998314 0.999092
0.999449 0.999437 0.996067
0.99989 1.00087 0.993787
0.999456 0.999114 0.996343
0.999279 0.997953 0.999184
0.999397 0.997642 0.999228
1.00096 1.00075 0.991753
1.00114 1.00046 0.991705
1.00155 0.999769 0.99159
1.00084 1.00087 0.991922
1.00084 1.0009 0.99189
1.00072 1.00066 0.992394
1.00081 1.00077 0.99207
1.0008 1.00071 0.992159
1.00065 1.00074 0.992459
1.00099 1.00039 0.992082
1.00082 1.00056 0.992295
1.00036 1.00065 0.992964
1.00088 1.0005 0.99217
1.00038 1.00056 0.993094
0.999392 1.00029 0.99528
1.00036 1.00049 0.99321
0.999459 1.00008 0.995365
0.998911 0.999334 0.998948
0.9995 0.999909 0.995458
0.998989 0.999132 0.998278
0.999123 0.998765 0.997719
1.00116 1.00056 0.991685
1.00132 1.00004 0.991767
1.00136 1.0001 0.99163
1.00119 1.00021 0.991795
1.0015 0.99987 0.991533
1.00155 0.999692 0.991573
1.00057 1.00044 0.992622
1.00117 1.00043 0.99168
1.00152 1.00024 0.99121
0.999625 0.999818 0.995335
1.00037 1.00059 0.992906
1.00089 1.00067 0.992059
0.999149 0.99866 0.998998
0.999503 0.99969 0.995693
1.00009 1.00079 0.99327
0.999201 0.998278 0.999118
0.99942 0.999435 0.996078
0.999296 0.997926 0.999197
1.00091 1.00077 0.991842
1.00099 1.00074 0.991743
1.0011 1.00042 0.991809
1.00072 1.00085 0.992214
1.00084 1.00089 0.991921
1.00085 1.00092 0.991883
1.00081 1.00069 0.992163
1.00066 1.00072 0.992463
1.00028 1.00077 0.992979
1.0008 1.00057 0.992358
1.00035 1.00065 0.993013
0.99934 1.0005 0.995185
1.00038 1.00056 0.993097
0.999407 1.00027 0.995278
0.998793 0.999615 0.998927
0.999479 1.00006 0.995361
0.998882 0.999368 0.998942
0.998984 0.999211 0.99758
1.00109 1.0005 0.991851
1.00116 1.00056 0.991629
1.00106 1.00029 0.992007
1.00131 1.00004 0.991778
1.00133 1.00008 0.99162
1.00065 1.00037 0.992718
1.00121 1.00021 0.991782
1.00146 0.999888 0.99157
0.99967 0.999918 0.995112
1.0006 1.00045 0.992672
1.00119 1.00045 0.99179
0.999101 0.998979 0.99892
0.999591 0.999845 0.995345
1.0004 1.0006 0.992858
0.99915 0.998621 0.999026
0.999467 0.999708 0.995705
0.999209 0.998241 0.999143
1.00079 1.00077 0.992154
1.00092 1.00077 0.991853
1.00101 1.00072 0.991732
1.00033 1.00084 0.992814
1.00072 1.00086 0.992215
1.00084 1.00091 0.991921
1.00067 1.0007 0.992467
1.00028 1.00076 0.992989
0.999296 1.00067 0.995101
1.00035 1.00066 0.993062
0.999348 1.00048 0.995186
0.998692 0.99986 0.998903
0.999423 1.00025 0.995276
0.998769 0.999644 0.99892
0.998855 0.999403 0.998935
1.0009 1.00059 0.992089
1.0011 1.00049 0.991817
1.00116 1.00055 0.991574
1.00056 1.00046 0.992821
1.00107 1.00029 0.992007
1.0013 1.00003 0.991789
0.999634 1.00002 0.995058
1.00066 1.00037 0.992711
1.00123 1.00021 0.991768
0.999033 0.999253 0.998875
0.999647 0.999941 0.995119
1.00062 1.00046 0.992722
0.999107 0.998944 0.998942
0.999557 0.999872 0.995355
0.999153 0.998579 0.999055
1.00038 1.0008 0.992859
1.00079 1.00078 0.992099
1.00093 1.00076 0.991864
0.999295 1.00075 0.995023
1.00032 1.00084 0.992836
1.00071 1.00087 0.992216
1.00029 1.00076 0.992999
0.999301 1.00066 0.9951
0.998616 1.00005 0.998876
0.999356 1.00046 0.995187
0.998673 0.999885 0.998894
0.998745 0.999672 0.998912
1.00043 1.00067 0.992874
1.0009 1.00058 0.992072
1.0011 1.00048 0.991784
0.999521 1.00013 0.995839
1.00056 1.00046 0.992815
1.00107 1.00029 0.992006
0.99892 0.999489 0.998872
0.999626 1.00003 0.995056
1.00067 1.00037 0.992704
0.999048 0.999224 0.998887
0.999624 0.999965 0.995125
0.999112 0.998907 0.998963
0.999342 1.00068 0.994978
1.00038 1.0008 0.992812
1.00078 1.00079 0.992045
0.998583 1.00015 0.998855
0.999302 1.00074 0.995018
1.00031 1.00084 0.992857
0.999309 1.00065 0.995099
0.99861 1.00007 0.998869
0.998657 0.999909 0.998885
0.999407 1.00038 0.995808
1.00044 1.00067 0.992871
1.00089 1.00058 0.992055
0.998793 0.999694 0.998897
0.999527 1.00022 0.995092
1.00057 1.00047 0.99281
0.99895 0.999465 0.99887
0.999619 1.00005 0.995054
0.999061 0.999195 0.998898
0.998613 1.00033 0.997286
0.999348 1.00063 0.99538
1.00038 1.0008 0.992765
0.998591 1.00015 0.998849
0.999305 1.00074 0.995015
0.998598 1.00008 0.998863
0.998677 1.00009 0.997369
0.999416 1.00044 0.995444
1.00045 1.00067 0.992868
0.998811 0.999777 0.998132
0.999517 1.00024 0.995084
0.998981 0.999442 0.99887
0.998619 1.00011 0.99884
0.999342 1.00069 0.994995
0.9986 1.00015 0.998842
0.998675 1.00005 0.998107
0.999403 1.0005 0.99506
0.998852 0.999675 0.998874
0.99864 1.00008 0.99885
0.998722 0.999901 0.998873

TENSORS stress float
0.00118449 2.55088e-05 1.52385e-05
2.55088e-05 0.000159761 -4.60053e-06
1.52385e-05 -4.60053e-06 0.000157073
0.00255894 -3.26018e-05 1.29236e-05
-3.26018e-05 0.000818954 2.96968e-06
1.29236e-05 2.96968e-06 0.000830035
0.00116596 2.66121e-05 5.59717e-06
2.66121e-05 0.000150836 -1.77966e-06
5.59717e-06 -1.77966e-06 0.000148454
0.00124968 2.53358e-05 1.86523e-05
2.53358e-05 0.000224807 -3.3868e-06
1.86523e-05 -3.3868e-06 0.000211286
0.00121377 2.6019e-05 1.63269e-05
2.6019e-05 0.000184266 -4.27626e-06
1.63269e-05 -4.27626e-06 0.000177933
0.00115405 2.46897e-05 1.41636e-05
2.46897e-05 0.000136772 -4.80813e-06
1.41636e-05 -4.80813e-06 0.000137488
0.00115065 2.27532e-05 4.78042e-06
2.27532e-05 0.000130736 -1.94415e-06
4.78042e-06 -1.94415e-06 0.000109259
0.00260826 -3.28856e-05 1.88407e-07
-3.28856e-05 0.000841931 -9.30783e-08
1.88407e-07 -9.30783e-08 0.000853118
0.00285053 -4.0377e-05 6.3624e-06
-4.0377e-05 0.000991004 9.7593e-07
6.3624e-06 9.7593e-07 0.000994538
0.00264746 -3.65217e-05 5.77245e-06
-3.65217e-05 0.000870033 1.12072e-06
5.77245e-06 1.12072e-06 0.000879181
0.00110515 -2.30216e-05 1.07942e-05
-2.30216e-05 9.47442e-05 3.11364e-06
1.07942e-05 3.11364e-06 0.000101245
0.00087212 -2.02011e-05 4.81496e-06
-2.02011e-05 -1.79301e-05 2.45265e-06
4.81496e-06 2.45265e-06 -3.33268e-05
0.00129073 -1.99867e-05 1.93213e-05
-1.99867e-05 0.000285637 6.27917e-07
1.93213e-05 6.27917e-07 0.000265486
0.00119899 -2.77707e-05 5.07713e-06
-2.77707e-05 0.000221025 5.80315e-07
5.07713e-06 5.80315e-07 0.000205313
0.00114657 2.77867e-05 -4.25829e-06
2.77867e-05 0.000141579 1.06531e-06
-4.25829e-06 1.06531e-06 0.000139492
0.00124707 2.7049e-05 6.9516e-06
2.7049e-05 0.000223955 -1.3486e-06
6.9516e-06 -1.3486e-06 0.00021058
0.00113977 2.57512e-05 5.22574e-06
2.57512e-05 0.000129849 -1.81516e-06
5.22574e-06 -1.81516e-06 0.000130829
0.00119503 2.72519e-05 5.98844e-06
2.72519e-05 0.000175108 -1.67072e-06
5.98844e-06 -1.67072e-06 0.000169091
0.00118053 2.25767e-05 -1.83149e-06
2.25767e-05 0.000145571 2.8471e-07
-1.83149e-06 2.8471e-07 0.000124055
0.00323314 4.38555e-05 1.97447e-05
4.38555e-05 0.00123241 -7.57763e-07
1.97447e-05 -7.57763e-07 0.00122525
0.00128124 2.45489e-05 1.99681e-05
2.45489e-05 0.000250233 -2.6157e-06
1.99681e-05 -2.6157e-06 0.000234201
0.00122886 2.5931e-05 1.73849e-05
2.5931e-05 0.000203614 -3.90049e-06
1.73849e-05 -3.90049e-06 0.000193549
0.00124106 1.46679e-05 5.16189e-06
1.46679e-05 0.000177697 -1.29499e-06
5.16189e-06 -1.29499e-06 0.000147312
0.0011827 1.93821e-05 4.97455e-06
1.93821e-05 0.000148102 -1.65249e-06
4.97455e-06 -1.65249e-06 0.000123737
0.00115191 2.37891e-05 1.34633e-05
2.37891e-05 0.00012699 -4.93421e-06
1.34633e-05 -4.93421e-06 0.00013061
0.00111709 2.20644e-05 4.76367e-06
2.20644e-05 0.000112295 -2.19773e-06
4.76367e-06 -2.19773e-06 9.40515e-05
0.00139669 1.55437e-06 1.69658e-06
1.55437e-06 0.000215391 -6.46844e-07
1.69658e-06 -6.46844e-07 0.000168976
0.00265857 -3.32122e-05 -1.2708e-05
-3.32122e-05 0.000865364 -3.00134e-06
-1.2708e-05 -3.00134e-06 0.000876656
0.00201869 -3.31836e-05 -5.06843e-06
-3.31836e-05 0.000582043 -8.18668e-07
-5.06843e-06 -8.18668e-07 0.000580673
0.00190038 -3.07073e-05 -4.54442e-06
-3.07073e-05 0.000502217 -9.06966e-07
-4.54442e-06 -9.06966e-07 0.000507414
0.00251318 -3.06897e-05 1.33101e-07
-3.06897e-05 0.000788021 -7.10069e-08
1.33101e-07 -7.10069e-08 0.000801112
0.000827564 -1.98718e-05 1.00654e-07
-1.98718e-05 -3.96805e-05 -5.24728e-08
1.00654e-07 -5.24728e-08 -5.48518e-05
0.00116452 -2.5728e-05 1.39656e-05
-2.5728e-05 0.0001775 2.08773e-06
1.39656e-05 2.08773e-06 0.000167568
0.00111668 -2.56786e-05 1.23652e-05
-2.56786e-05 0.000128462 2.62531e-06
1.23652e-05 2.62531e-06 0.000126544
0.00168487 -1.92112e-05 8.44597e-06
-1.92112e-05 0.000393988 1.7718e-06
8.44597e-06 1.7718e-06 0.00037273
0.00245064 -2.99978e-05 5.17083e-06
-2.99978e-05 0.000749067 1.34012e-06
5.17083e-06 1.34012e-06 0.000763984
0.00162361 -2.55945e-05 7.84682e-06
-2.55945e-05 0.000357664 2.14659e-06
7.84682e-06 2.14659e-06 0.000343111
0.000871941 -1.91905e-05 5.82723e-06
-1.91905e-05 -2.42037e-05 3.77673e-06
5.82723e-06 3.77673e-06 -3.69189e-05
0.000973054 -2.0571e-07 2.55022e-06
-2.0571e-07 1.35641e-05 1.2279e-06
2.55022e-06 1.2279e-06 -3.03777e-05
0.00245992 -2.40673e-05 1.15407e-05
-2.40673e-05 0.000740267 3.66027e-06
1.15407e-05 3.66027e-06 0.000757342
0.00317424 -4.23368e-05 6.27134e-07
-4.23368e-05 0.00121026 -1.40479e-07
6.27134e-07 -1.40479e-07 0.00120231
0.00211665 -3.38839e-05 -5.9562e-06
-3.38839e-05 0.000673021 -4.93979e-07
-5.9562e-06 -4.93979e-07 0.000662748
0.00328895 -3.36527e-05 2.18047e-05
-3.36527e-05 0.00126842 1.70969e-07
2.18047e-05 1.70969e-07 0.00125986
0.00119873 -2.69905e-05 5.20818e-06
-2.69905e-05 0.000233803 4.47597e-07
5.20818e-06 4.47597e-07 0.000215699
0.000719336 -1.69033e-05 7.37725e-06
-1.69033e-05 -5.90333e-05 1.18481e-06
7.37725e-06 1.18481e-06 -9.85755e-05
0.00301556 -4.3112e-05 7.00203e-06
-4.3112e-05 0.00109922 7.19575e-07
7.00203e-06 7.19575e-07 0.0010971
0.00165342 -1.80109e-05 1.10337e-05
-1.80109e-05 0.000392919 1.61827e-06
1.10337e-05 1.61827e-06 0.000363693
0.00124251 2.89434e-05 -5.12571e-06
2.89434e-05 0.000222154 7.62138e-07
-5.12571e-06 7.62138e-07 0.00020892
0.00117107 2.85232e-05 -4.54222e-06
2.85232e-05 0.000163475 9.62052e-07
-4.54222e-06 9.62052e-07 0.000157783
0.00112696 2.68931e-05 -3.9648e-06
2.68931e-05 0.000123689 1.11551e-06
-3.9648e-06 1.11551e-06 0.000124918
0.00121172 2.30986e-05 -8.58909e-06
2.30986e-05 0.000161069 2.56041e-06
-8.58909e-06 2.56041e-06 0.00013949
0.0022333 3.58339e-05 -5.51213e-06
3.58339e-05 0.000742017 -2.48964e-07
-5.51213e-06 -2.48964e-07 0.000728796
0.00127468 2.651e-05 7.46843e-06
2.651e-05 0.000247821 -1.09248e-06
7.46843e-06 -1.09248e-06 0.00023175
0.00113067 2.47871e-05 4.94906e-06
2.47871e-05 0.000116582 -1.85352e-06
4.94906e-06 -1.85352e-06 0.000120417
0.00121843 2.73846e-05 6.42201e-06
2.73846e-05 0.000198553 -1.52021e-06
6.42201e-06 -1.52021e-06 0.000188763
0.00126344 1.46101e-05 -2.46365e-06
1.46101e-05 0.000188557 2.71089e-07
-2.46365e-06 2.71089e-07 0.000158238
0.00114949 2.22633e-05 -1.63866e-06
2.22633e-05 0.000128092 2.34546e-07
-1.63866e-06 2.34546e-07 0.000109857
0.00120704 1.98362e-05 -2.02758e-06
1.98362e-05 0.000160067 3.40488e-07
-2.02758e-06 3.40488e-07 0.000135684
0.00142528 5.24259e-07 -8.92921e-07
5.24259e-07 0.000227618 5.4752e-07
-8.92921e-07 5.4752e-07 0.000180951
0.00330167 4.57884e-05 1.97357e-05
4.57884e-05 0.00127028 -3.60088e-07
1.97357e-05 -3.60088e-07 0.00126209
0.00128279 2.34516e-05 2.07644e-05
2.34516e-05 0.000263394 -1.91776e-06
2.07644e-05 -1.91776e-06 0.000245862
0.00168983 2.75146e-05 4.36065e-06
2.75146e-05 0.000410722 -3.91459e-07
4.36065e-06 -3.91459e-07 0.000378588
0.00127922 1.31585e-05 5.41681e-06
1.31585e-05 0.000195824 -9.57589e-07
5.41681e-06 -9.57589e-07 0.000163342
0.00120696 1.70093e-05 4.99704e-06
1.70093e-05 0.000161597 -1.46704e-06
4.99704e-06 -1.46704e-06 0.000134193
0.00150767 -8.92528e-06 1.53815e-06
-8.92528e-06 0.000233502 -4.85664e-07
1.53815e-06 -4.85664e-07 0.000181494
0.00120096 -7.60607e-07 2.05646e-06
-7.60607e-07 0.000109148 -7.51124e-07
2.05646e-06 -7.51124e-07 6.03774e-05
0.00123142 2.28413e-05 1.33693e-05
2.28413e-05 0.000154421 -5.1227e-06
1.33693e-05 -5.1227e-06 0.000160348
0.00110566 2.10895e-05 4.68013e-06
2.10895e-05 0.000100553 -2.26365e-06
4.68013e-06 -2.26365e-06 8.59335e-05
0.00136809 3.28453e-06 1.66394e-06
3.28453e-06 0.000211783 -7.86291e-07
1.66394e-06 -7.86291e-07 0.000167494
0.00113362 -2.13298e-05 1.26968e-06
-2.13298e-05 4.67709e-05 -6.72899e-07
1.26968e-06 -6.72899e-07 -1.16477e-05
0.00292937 -3.91747e-05 -1.43155e-05
-3.91747e-05 0.0010272 -2.45971e-06
-1.43155e-05 -2.45971e-06 0.0010311
0.00258434 -3.10055e-05 -1.22881e-05
-3.10055e-05 0.000821261 -3.15975e-06
-1.22881e-05 -3.15975e-06 0.000834445
0.0027417 -3.53249e-05 -1.3273e-05
-3.53249e-05 0.000914452 -2.81992e-06
-1.3273e-05 -2.81992e-06 0.000923647
0.000783183 -1.95694e-05 -4.66145e-06
-1.95694e-05 -6.13431e-05 -2.6474e-06
-4.66145e-06 -2.6474e-06 -7.62897e-05
0.00295702 -3.9528e-05 1.768e-07
-3.9528e-05 0.00105723 -1.18032e-07
1.768e-07 -1.18032e-07 0.00105764
0.00273639 -3.66215e-05 1.56392e-07
-3.66215e-05 0.000924641 -8.5937e-08
1.56392e-07 -8.5937e-08 0.000930997
0.000811603 -1.55099e-05 1.04514e-07
-1.55099e-05 -3.34441e-05 -7.98463e-08
1.04514e-07 -7.98463e-08 -5.95113e-05
0.00179894 -2.56413e-05 -4.15054e-06
-2.56413e-05 0.000427647 -1.04387e-06
-4.15054e-06 -1.04387e-06 0.000439251
0.000837628 -2.10653e-05 1.37365e-08
-2.10653e-05 -2.89782e-05 -2.85121e-08
1.37365e-08 -2.85121e-08 -4.71249e-05
0.00120867 -2.06847e-05 2.15137e-06
-2.06847e-05 0.000141197 4.89734e-07
2.15137e-06 4.89734e-07 0.000130494
0.000970545 -1.3381e-06 8.62567e-08
-1.3381e-06 1.39423e-05 -1.18875e-07
8.62567e-08 -1.18875e-07 -3.02652e-05
0.00244222 -2.62767e-05 1.17613e-05
-2.62767e-05 0.000738132 3.4562e-06
1.17613e-05 3.4562e-06 0.000754233
0.000906667 -1.53234e-05 3.89449e-06
-1.53234e-05 -2.81168e-05 2.99192e-06
3.89449e-06 2.99192e-06 -3.58409e-05
0.000756624 -9.11125e-06 6.85873e-06
-9.11125e-06 -5.83594e-05 2.51556e-06
6.85873e-06 2.51556e-06 -8.85052e-05
0.000800325 -1.81793e-05 6.27078e-06
-1.81793e-05 -4.20964e-05 3.16759e-06
6.27078e-06 3.16759e-06 -6.46274e-05
0.000986331 7.04517e-06 2.34777e-06
7.04517e-06 5.14119e-06 1.05336e-06
2.34777e-06 1.05336e-06 -4.50596e-05
0.00157709 -2.11154e-05 7.40337e-06
-2.11154e-05 0.000314567 2.65035e-06
7.40337e-06 2.65035e-06 0.000307731
0.00097653 3.44812e-06 2.47061e-06
3.44812e-06 1.28298e-05 1.15663e-06
2.47061e-06 1.15663e-06 -3.30091e-05
0.000979378 -4.65136e-06 2.4074e-06
-4.65136e-06 1.75297e-05 1.57107e-06
2.4074e-06 1.57107e-06 -2.39475e-05
0.00103717 1.64404e-05 1.20876e-06
1.64404e-05 2.84384e-05 3.71944e-07
1.20876e-06 3.71944e-07 -2.76324e-05
0.00246966 -2.18393e-05 1.11502e-05
-2.18393e-05 0.000739827 3.82515e-06
1.11502e-05 3.82515e-06 0.000757736
0.00250901 -2.41429e-05 1.901e-07
-2.41429e-05 0.000763674 -6.50864e-08
1.901e-07 -6.50864e-08 0.000780653
0.00311296 -4.21014e-05 -1.67179e-05
-4.21014e-05 0.00115711 -1.54751e-06
-1.67179e-05 -1.54751e-06 0.00115311
0.00316142 -4.31242e-05 -1.83636e-05
-4.31242e-05 0.00120253 -7.95233e-07
-1.83636e-05 -7.95233e-07 0.00119492
0.0032656 -3.72218e-05 1.36398e-06
-3.72218e-05 0.00125676 -1.74829e-07
1.36398e-06 -1.74829e-07 0.00124829
0.00214164 -3.38229e-05 -6.31532e-06
-3.38229e-05 0.000697384 -3.62549e-07
-6.31532e-06 -3.62549e-07 0.0006849
0.00120587 -1.6641e-05 3.70411e-06
-1.6641e-05 0.000180448 2.21234e-08
3.70411e-06 2.21234e-08 0.000144349
0.00212265 -3.41776e-05 -5.66537e-06
-3.41776e-05 0.000660132 -6.23005e-07
-5.66537e-06 -6.23005e-07 0.000652522
0.0012193 -1.55418e-05 2.97391e-06
-1.55418e-05 0.000179721 1.57743e-07
2.97391e-06 1.57743e-07 0.000147702
0.00332358 2.87092e-06 1.96484e-05
2.87092e-06 0.00128417 7.36534e-08
1.96484e-05 7.36534e-08 0.00127569
0.000722729 -1.26395e-05 5.37231e-06
-1.26395e-05 -5.90725e-05 2.95337e-07
5.37231e-06 2.95337e-07 -9.94193e-05
0.00165482 -3.07625e-05 1.14726e-05
-3.07625e-05 0.000399095 1.31144e-06
1.14726e-05 1.31144e-06 0.000367581
0.00103947 -9.64004e-06 2.37171e-06
-9.64004e-06 6.12832e-06 5.08792e-07
2.37171e-06 5.08792e-07 -5.16083e-05
0.00169233 -1.52586e-05 8.93624e-06
-1.52586e-05 0.000404661 1.22206e-06
8.93624e-06 1.22206e-06 0.000377795
0.00103529 3.88676e-06 2.27095e-06
3.88676e-06 9.6715e-06 6.15454e-07
2.27095e-06 6.15454e-07 -4.48106e-05
0.00125162 2.18673e-05 -1.88702e-05
2.18673e-05 0.000259867 5.64056e-07
-1.88702e-05 5.64056e-07 0.000240933
0.00126951 2.87131e-05 -5.42308e-06
2.87131e-05 0.000246136 6.22505e-07
-5.42308e-06 6.22505e-07 0.000229999
0.00111029 2.58303e-05 -3.74795e-06
2.58303e-05 0.000106589 1.14804e-06
-3.74795e-06 1.14804e-06 0.000110637
0.0012028 2.89194e-05 -4.81221e-06
2.89194e-05 0.000190978 8.55634e-07
-4.81221e-06 8.55634e-07 0.000181471
0.00128683 1.43736e-05 -1.0204e-05
1.43736e-05 0.000199885 1.85069e-06
-1.0204e-05 1.85069e-06 0.000169637
0.00123597 2.021e-05 -9.08927e-06
2.021e-05 0.000174257 2.31859e-06
-9.08927e-06 2.31859e-06 0.000149845
0.00118119 2.24133e-05 -8.07335e-06
2.24133e-05 0.000143515 2.68636e-06
-8.07335e-06 2.68636e-06 0.000125298
0.00145511 -1.29455e-06 -3.49812e-06
-1.29455e-06 0.00024033 1.76508e-06
-3.49812e-06 1.76508e-06 0.000193442
0.0032949 4.46435e-05 -1.18247e-06
4.46435e-05 0.00126767 -1.67612e-07
-1.18247e-06 -1.67612e-07 0.00125943
0.00126733 2.5712e-05 7.82046e-06
2.5712e-05 0.000256458 -7.32222e-07
7.82046e-06 -7.32222e-07 0.000238843
0.000985862 1.96502e-05 -4.67747e-06
1.96502e-05 6.4055e-05 2.33437e-07
-4.67747e-06 2.33437e-07 2.77143e-05
0.00129192 1.27965e-05 -2.68332e-06
1.27965e-05 0.000202011 2.09772e-07
-2.68332e-06 2.09772e-07 0.000169564
0.00186779 2.67631e-05 7.69361e-06
2.67631e-05 0.000469164 -1.86759e-06
7.69361e-06 -1.86759e-06 0.000478643
0.00134141 2.25138e-05 -1.26905e-06
2.25138e-05 0.000216144 2.78428e-07
-1.26905e-06 2.78428e-07 0.000202893
0.00123116 1.72391e-05 -2.24579e-06
1.72391e-05 0.000173283 3.29229e-07
-2.24579e-06 3.29229e-07 0.000145929
0.00139245 -8.59912e-06 -9.68032e-07
-8.59912e-06 0.000176458 3.64447e-07
-9.68032e-07 3.64447e-07 0.000123732
0.00140238 2.15186e-06 -9.64099e-07
2.15186e-06 0.000226122 6.2347e-07
-9.64099e-07 6.2347e-07 0.000181537
0.00133162 -2.49821e-06 -4.77337e-07
-2.49821e-06 0.000171907 2.701e-07
-4.77337e-07 2.701e-07 0.000123547
0.00112058 -2.0813e-05 1.53338e-08
-2.0813e-05 4.10112e-05 -4.36833e-08
1.53338e-08 -4.36833e-08 -1.73591e-05
0.000715079 1.01537e-05 5.446e-06
1.01537e-05 -6.61605e-05 -5.95584e-07
5.446e-06 -5.95584e-07 -0.000105338
0.00128171 1.46453e-05 5.44422e-06
1.46453e-05 0.000202833 -6.53317e-07
5.44422e-06 -6.53317e-07 0.000169423
0.00133126 1.55623e-05 2.1824e-06
1.55623e-05 0.000136024 -1.42196e-07
2.1824e-06 -1.42196e-07 7.97525e-05
0.00133406 -7.39516e-06 2.13171e-06
-7.39516e-06 0.00013714 -4.93144e-07
2.13171e-06 -4.93144e-07 8.26173e-05
0.00124494 -4.70085e-06 1.98043e-06
-4.70085e-06 0.000118679 -7.53645e-07
1.98043e-06 -7.53645e-07 6.79027e-05
0.00143021 -2.15289e-05 6.72189e-07
-2.15289e-05 0.000148242 -3.33463e-07
6.72189e-07 -3.33463e-07 8.6713e-05
0.00260429 2.86713e-05 1.22375e-05
2.86713e-05 0.000822447 -3.38164e-06
1.22375e-05 -3.38164e-06 0.0008368
0.00115104 -2.03829e-05 1.15065e-06
-2.03829e-05 4.19648e-05 -4.99885e-07
1.15065e-06 -4.99885e-07 -1.61898e-05
0.000855757 1.89621e-05 4.44803e-06
1.89621e-05 -3.30741e-05 -2.61539e-06
4.44803e-06 -2.61539e-06 -4.56437e-05
0.0009363 3.93592e-06 2.29684e-06
3.93592e-06 3.25915e-06 -1.51744e-06
2.29684e-06 -1.51744e-06 -4.10255e-05
0.00114151 -2.13312e-05 1.20699e-06
-2.13312e-05 6.65767e-05 -9.78929e-07
1.20699e-06 -9.78929e-07 7.75359e-06
0.00119738 -2.84159e-05 9.14926e-07
-2.84159e-05 5.77311e-05 -3.0207e-07
9.14926e-07 -3.0207e-07 -4.69449e-06
0.000863009 1.59583e-05 4.03245e-06
1.59583e-05 -4.48819e-05 -3.00672e-06
4.03245e-06 -3.00672e-06 -5.44164e-05
0.000981476 3.69608e-06 2.4041e-06
3.69608e-06 5.31014e-06 -1.99602e-06
2.4041e-06 -1.99602e-06 -3.32801e-05
0.00303026 -4.05441e-05 -1.52817e-05
-4.05441e-05 0.00108881 -2.22276e-06
-1.52817e-05 -2.22276e-06 0.00108978
0.00282311 -3.73607e-05 -1.36515e-05
-3.73607e-05 0.000964294 -2.63302e-06
-1.36515e-05 -2.63302e-06 0.000971048
0.000730491 -1.81923e-05 -4.62986e-06
-1.81923e-05 -6.98079e-05 -2.1929e-06
-4.62986e-06 -2.1929e-06 -9.62017e-05
0.00255622 -2.87481e-05 -1.2173e-05
-2.87481e-05 0.000799389 -3.34852e-06
-1.2173e-05 -3.34852e-06 0.000814129
0.000813144 -1.89469e-05 -4.40611e-06
-1.89469e-05 -5.3462e-05 -2.71709e-06
-4.40611e-06 -2.71709e-06 -6.55418e-05
0.000749995 -2.02627e-05 -4.91472e-06
-2.02627e-05 -7.07091e-05 -2.42431e-06
-4.91472e-06 -2.42431e-06 -8.88394e-05
0.000968025 -2.41843e-06 -2.46479e-06
-2.41843e-06 1.43397e-05 -1.56662e-06
-2.46479e-06 -1.56662e-06 -3.01343e-05
0.00250042 -2.63817e-05 1.79855e-07
-2.63817e-05 0.000765667 -7.07652e-08
1.79855e-07 -7.07652e-08 0.000781678
0.000892397 -1.52346e-05 8.99236e-08
-1.52346e-05 -3.53e-05 -3.89759e-08
8.99236e-08 -3.89759e-08 -4.29337e-05
0.00121815 -1.33178e-05 2.70526e-06
-1.33178e-05 0.000169641 2.73684e-07
2.70526e-06 2.73684e-07 0.000142358
0.00119739 -2.29326e-05 2.36618e-06
-2.29326e-05 0.000154189 4.36387e-07
2.36618e-06 4.36387e-07 0.000134047
0.000984335 7.59633e-06 -6.56715e-09
7.59633e-06 4.43189e-06 -9.65101e-08
-6.56715e-09 -9.65101e-08 -4.58098e-05
0.000889832 -1.81219e-05 7.12118e-09
-1.81219e-05 -2.43804e-05 -2.86844e-08
7.12118e-09 -2.86844e-08 -3.42635e-05
0.000971109 2.50606e-06 -8.63205e-08
2.50606e-06 1.19223e-05 -3.27005e-08
-8.63205e-08 -3.27005e-08 -3.41593e-05
0.000967681 -6.34367e-06 7.1332e-08
-6.34367e-06 1.31528e-05 -7.99544e-09
7.1332e-08 -7.99544e-09 -2.84898e-05
0.000993193 1.64504e-05 -3.65219e-08
1.64504e-05 6.29743e-06 -1.30227e-07
-3.65219e-08 -1.30227e-07 -5.00488e-05
0.000899476 -1.67304e-05 4.23624e-06
-1.67304e-05 -2.64819e-05 2.81388e-06
4.23624e-06 2.81388e-06 -3.50799e-05
0.000913434 -1.39434e-05 3.51316e-06
-1.39434e-05 -2.88513e-05 3.14703e-06
3.51316e-06 3.14703e-06 -3.57699e-05
0.00098857 -6.83468e-06 2.4012e-06
-6.83468e-06 8.98135e-06 1.74162e-06
2.4012e-06 1.74162e-06 -2.77321e-05
0.000996405 6.88059e-06 2.29495e-06
6.88059e-06 3.65507e-07 8.57075e-07
2.29495e-06 8.57075e-07 -5.13157e-05
0.000982632 5.76085e-06 2.33467e-06
5.76085e-06 1.22532e-05 1.21064e-06
2.33467e-06 1.21064e-06 -3.58754e-05
0.00113777 2.17583e-05 1.18824e-06
2.17583e-05 3.94104e-05 7.39703e-07
1.18824e-06 7.39703e-07 -1.95167e-05
0.000984199 -7.95387e-06 2.36989e-06
-7.95387e-06 1.53098e-05 1.64391e-06
2.36989e-06 1.64391e-06 -2.33366e-05
0.000985978 1.92972e-05 1.02999e-06
1.92972e-05 -7.61021e-06 4.5646e-07
1.02999e-06 4.5646e-07 -6.37263e-05
0.00106541 1.18083e-05 1.22908e-06
1.18083e-05 4.93903e-05 7.15058e-07
1.22908e-06 7.15058e-07 -6.92532e-06
0.00119066 2.86537e-05 7.91644e-08
2.86537e-05 9.5078e-05 -9.06846e-08
7.91644e-08 -9.06846e-08 3.35833e-05
0.00247164 -1.96259e-05 1.05899e-05
-1.96259e-05 0.000736528 3.95275e-06
1.05899e-05 3.95275e-06 0.000755178
0.00250952 -2.19034e-05 2.01949e-07
-2.19034e-05 0.000758984 -5.85682e-08
2.01949e-07 -5.85682e-08 0.0007768
0.00255922 -2.42385e-05 -1.16051e-05
-2.42385e-05 0.000787635 -3.72207e-06
-1.16051e-05 -3.72207e-06 0.000804512
0.000874929 1.45999e-05 3.64138e-06
1.45999e-05 -4.36808e-05 -3.18158e-06
3.64138e-06 -3.18158e-06 -5.22853e-05
0.00261274 2.63951e-05 1.20724e-05
2.63951e-05 0.000819576 -3.58872e-06
1.20724e-05 -3.58872e-06 0.000835047
0.00308927 -4.1486e-05 -1.60686e-05
-4.1486e-05 0.00113146 -1.90771e-06
-1.60686e-05 -1.90771e-06 0.00112978
0.00312535 -4.25398e-05 -1.74349e-05
-4.25398e-05 0.00117592 -1.17093e-06
-1.74349e-05 -1.17093e-06 0.00116993
0.000713008 -7.30007e-06 -5.08419e-06
-7.30007e-06 -6.61775e-05 -1.28765e-06
-5.08419e-06 -1.28765e-06 -0.000101163
0.000707952 -5.80373e-06 -5.25362e-06
-5.80373e-06 -6.23985e-05 -9.48184e-07
-5.25362e-06 -9.48184e-07 -0.000101484
0.00323843 -4.38168e-05 -1.91846e-05
-4.38168e-05 0.00124377 -3.82677e-07
-1.91846e-05 -3.82677e-07 0.00123513
0.00331038 4.68469e-06 -3.67835e-07
4.68469e-06 0.00127833 -1.06707e-08
-3.67835e-07 -1.06707e-08 0.00126965
0.000712761 -7.98509e-06 3.48486e-08
-7.98509e-06 -6.3341e-05 -1.69624e-07
3.48486e-08 -1.69624e-07 -0.000103619
0.00121215 -1.66094e-05 3.24751e-06
-1.66094e-05 0.000181648 1.20149e-07
3.24751e-06 1.20149e-07 0.000147599
0.00105528 -7.69646e-06 4.70618e-08
-7.69646e-06 1.34141e-05 -1.32531e-08
4.70618e-08 -1.32531e-08 -4.42879e-05
0.000771309 -8.87311e-06 1.75176e-08
-8.87311e-06 -4.61883e-05 -9.63168e-08
1.75176e-08 -9.63168e-08 -7.86868e-05
0.00104251 3.87267e-06 -2.71739e-08
3.87267e-06 1.3166e-05 -4.27855e-08
-2.71739e-08 -4.27855e-08 -4.13288e-05
0.000703714 -5.57117e-06 5.46451e-06
-5.57117e-06 -7.00928e-05 -1.53225e-07
5.46451e-06 -1.53225e-07 -0.000110299
0.00105693 -7.74016e-06 2.37892e-06
-7.74016e-06 8.91863e-06 1.7945e-07
2.37892e-06 1.7945e-07 -5.02054e-05
0.00104141 -1.94035e-06 2.29544e-06
-1.94035e-06 1.04594e-05 5.61726e-07
2.29544e-06 5.61726e-07 -4.55005e-05
0.00118811 -1.05574e-05 1.15618e-06
-1.05574e-05 3.76243e-05 2.17191e-07
1.15618e-06 2.17191e-07 -2.76929e-05
0.0010151 5.43535e-06 2.24528e-06
5.43535e-06 3.43881e-06 7.32123e-07
2.24528e-06 7.32123e-07 -4.96366e-05
0.00119869 5.39215e-06 1.06483e-06
5.39215e-06 4.54143e-05 3.77626e-07
1.06483e-06 3.77626e-07 -1.60419e-05
0.00328653 4.25996e-05 -2.19038e-05
4.25996e-05 0.00126438 7.83203e-08
-2.19038e-05 7.83203e-08 0.0012561
0.00125091 2.82154e-05 -5.50776e-06
2.82154e-05 0.000249136 4.23457e-07
-5.50776e-06 4.23457e-07 0.000231412
0.00027194 1.3093e-05 -7.38229e-06
1.3093e-05 -0.000287235 1.04819e-06
-7.38229e-06 1.04819e-06 -0.000327866
0.0013031 1.22327e-05 -1.08786e-05
1.22327e-05 0.000207423 1.4864e-06
-1.08786e-05 1.4864e-06 0.000175027
0.0025021 3.20409e-05 -5.26052e-06
3.20409e-05 0.000783026 1.2612e-06
-5.26052e-06 1.2612e-06 0.000795985
0.00157501 2.40396e-05 -7.87768e-06
2.40396e-05 0.000330675 2.72034e-06
-7.87768e-06 2.72034e-06 0.000318795
0.00125928 1.72769e-05 -9.56857e-06
1.72769e-05 0.000186858 2.08239e-06
-9.56857e-06 2.08239e-06 0.000159551
0.00127532 -8.18617e-06 -3.42909e-06
-8.18617e-06 0.000118498 1.23753e-06
-3.42909e-06 1.23753e-06 6.50562e-05
0.00146224 -4.18425e-06 -2.98277e-06
-4.18425e-06 0.000234606 1.21341e-06
-2.98277e-06 1.21341e-06 0.000186661
0.00143821 1.06825e-06 -3.52529e-06
1.06825e-06 0.000241203 2.10211e-06
-3.52529e-06 2.10211e-06 0.000196321
0.00110756 -2.03491e-05 -1.12688e-06
-2.03491e-05 3.52607e-05 5.35043e-07
-1.12688e-06 5.35043e-07 -2.30637e-05
0.000715366 1.36867e-05 -7.71317e-08
1.36867e-05 -6.61508e-05 -1.31758e-07
-7.71317e-08 -1.31758e-07 -0.000105431
0.001289 1.43049e-05 -2.85601e-06
1.43049e-05 0.000205869 1.76485e-07
-2.85601e-06 1.76485e-07 0.000172536
0.00110622 1.54611e-05 -4.25137e-07
1.54611e-05 2.53594e-05 5.12886e-08
-4.25137e-07 5.12886e-08 -3.2216e-05
0.0014318 -8.52793e-06 -4.76007e-07
-8.52793e-06 0.000184489 8.42398e-08
-4.76007e-07 8.42398e-08 0.000130421
0.00254232 2.85278e-05 -1.58096e-07
2.85278e-05 0.000793455 -7.26407e-08
-1.58096e-07 -7.26407e-08 0.000807837
0.00122192 2.10871e-05 3.96132e-07
2.10871e-05 0.000147577 -4.72273e-08
3.96132e-07 -4.72273e-08 0.000136489
0.00117416 4.00199e-06 9.42514e-08
4.00199e-06 0.000117566 9.94878e-09
9.42514e-08 9.94878e-09 7.47089e-05
0.00125705 -5.20568e-06 -4.77376e-07
-5.20568e-06 0.000124145 1.81284e-07
-4.77376e-07 1.81284e-07 7.33984e-05
0.00125091 -2.01494e-05 -4.7324e-07
-2.01494e-05 6.08502e-05 2.59047e-07
-4.7324e-07 2.59047e-07 -1.46393e-06
0.0010295 -1.97272e-05 -4.97427e-08
-1.97272e-05 1.41271e-05 -1.09032e-07
-4.97427e-08 -1.09032e-07 -4.49277e-05
0.00125313 -2.07861e-05 1.69435e-08
-2.07861e-05 9.11012e-05 5.38848e-08
1.69435e-08 5.38848e-08 3.33763e-05
0.00118739 -2.82262e-05 8.80193e-08
-2.82262e-05 5.33311e-05 2.21965e-09
8.80193e-08 2.21965e-09 -9.00222e-06
0.000876372 1.60759e-05 -6.24721e-08
1.60759e-05 -3.79747e-05 -4.89129e-08
-6.24721e-08 -4.89129e-08 -4.76207e-05
0.000982658 4.13968e-06 -1.01175e-07
4.13968e-06 5.99771e-06 -5.36804e-08
-1.01175e-07 -5.36804e-08 -3.25554e-05
0.00104898 1.09417e-05 2.49671e-06
1.09417e-05 5.82547e-07 -2.51451e-07
2.49671e-06 -2.51451e-07 -5.80119e-05
0.00133225 2.17685e-06 2.1856e-06
2.17685e-06 0.00013317 -2.88181e-07
2.1856e-06 -2.88181e-07 7.78398e-05
0.0014591 1.44265e-05 8.96254e-07
1.44265e-05 0.000152392 1.05549e-07
8.96254e-07 1.05549e-07 8.78132e-05
0.00114687 -1.36143e-05 1.6443e-06
-1.36143e-05 -2.81783e-06 -5.85258e-07
1.6443e-06 -5.85258e-07 -6.73208e-05
0.00127446 -2.07254e-05 8.01716e-07
-2.07254e-05 9.08834e-05 -5.32407e-07
8.01716e-07 -5.32407e-07 3.20792e-05
0.00139667 -2.18462e-05 1.56382e-07
-2.18462e-05 0.000109704 -2.28517e-07
1.56382e-07 -2.28517e-07 4.47626e-05
0.000844121 1.74374e-05 4.28631e-06
1.74374e-05 -4.70013e-05 -2.79438e-06
4.28631e-06 -2.79438e-06 -5.78083e-05
0.00121441 -2.62123e-05 5.85442e-07
-2.62123e-05 5.09757e-05 -2.33495e-07
5.85442e-07 -2.33495e-07 -1.0212e-05
0.000944492 6.80284e-06 2.40752e-06
6.80284e-06 3.35461e-06 -1.49197e-06
2.40752e-06 -1.49197e-06 -3.85245e-05
0.00086729 -1.57367e-05 1.30497e-06
-1.57367e-05 -5.01748e-05 -1.20937e-06
1.30497e-06 -1.20937e-06 -0.000108123
0.00140922 -3.28522e-05 5.75842e-07
-3.28522e-05 0.000178909 -5.52701e-07
5.75842e-07 -5.52701e-07 0.000114899
0.00126559 -3.11359e-05 4.65156e-07
-3.11359e-05 7.96794e-05 3.61282e-07
4.65156e-07 3.61282e-07 1.70019e-05
0.000968125 5.01412e-06 2.59551e-06
5.01412e-06 2.24025e-06 -1.77149e-06
2.59551e-06 -1.77149e-06 -3.67661e-05
0.000986607 3.29669e-06 2.07481e-06
3.29669e-06 6.14906e-06 -2.11795e-06
2.07481e-06 -2.11795e-06 -3.1764e-05
0.00106305 -1.1993e-05 1.418e-06
-1.1993e-05 4.11752e-05 -1.00102e-06
1.418e-06 -1.00102e-06 -1.57475e-05
0.000732667 -1.11528e-05 -4.98766e-06
-1.11528e-05 -6.62474e-05 -1.87412e-06
-4.98766e-06 -1.87412e-06 -9.62138e-05
0.0025588 -2.64976e-05 -1.19865e-05
-2.64976e-05 0.00079328 -3.55007e-06
-1.19865e-05 -3.55007e-06 0.000809198
0.000878427 -1.51475e-05 -3.6718e-06
-1.51475e-05 -4.23505e-05 -3.10415e-06
-3.6718e-06 -3.10415e-06 -4.98923e-05
0.000727027 -2.14506e-05 -4.74529e-06
-2.14506e-05 -7.51583e-05 -2.31202e-06
-4.74529e-06 -2.31202e-06 -9.72824e-05
0.000981551 8.51974e-06 -2.26421e-06
8.51974e-06 3.27136e-06 -1.18795e-06
-2.26421e-06 -1.18795e-06 -4.69928e-05
0.000844369 -1.78798e-05 -4.28915e-06
-1.78798e-05 -4.63483e-05 -2.75857e-06
-4.28915e-06 -2.75857e-06 -5.61221e-05
0.000956464 -7.87668e-06 -2.3073e-06
-7.87668e-06 9.04008e-06 -1.73065e-06
-2.3073e-06 -1.73065e-06 -3.27659e-05
0.000965412 1.47026e-06 -2.48003e-06
1.47026e-06 1.08973e-05 -1.19097e-06
-2.48003e-06 -1.19097e-06 -3.54266e-05
0.000948229 1.64385e-05 -1.24443e-06
1.64385e-05 -1.63554e-05 -6.23249e-07
-1.24443e-06 -6.23249e-07 -7.29721e-05
0.000882983 -1.66298e-05 6.65533e-08
-1.66298e-05 -3.46858e-05 -4.80829e-08
6.65533e-08 -4.80829e-08 -4.31923e-05
0.000900712 -1.3874e-05 9.44495e-08
-1.3874e-05 -3.52831e-05 -2.74318e-08
9.44495e-08 -2.74318e-08 -4.21099e-05
0.000983705 -6.50998e-06 7.75538e-08
-6.50998e-06 6.65083e-06 -4.19997e-08
7.75538e-08 -4.19997e-08 -3.00764e-05
0.00100619 7.7047e-06 -2.19632e-08
7.7047e-06 4.77065e-06 -6.07116e-08
-2.19632e-08 -6.07116e-08 -4.69301e-05
0.000971305 5.56116e-06 -8.09506e-08
5.56116e-06 8.04329e-06 -3.57213e-08
-8.09506e-08 -3.57213e-08 -4.02029e-05
0.0011386 2.20258e-05 6.96641e-08
2.20258e-05 3.99005e-05 3.16365e-08
6.96641e-08 3.16365e-08 -1.90595e-05
0.000970079 -8.85719e-06 -6.4957e-08
-8.85719e-06 9.19383e-06 4.86098e-08
-6.4957e-08 4.86098e-08 -2.95163e-05
0.00104452 2.04008e-05 -4.31046e-08
2.04008e-05 2.08439e-05 -5.3846e-08
-4.31046e-08 -5.3846e-08 -3.49881e-05
0.00105911 1.25483e-05 5.34226e-08
1.25483e-05 4.64878e-05 -1.34042e-07
5.34226e-08 -1.34042e-07 -9.9049e-06
0.00110468 2.78661e-05 -4.54792e-07
2.78661e-05 5.30575e-05 1.03301e-07
-4.54792e-07 1.03301e-07 -8.80977e-06
0.000919109 -1.25996e-05 3.12736e-06
-1.25996e-05 -2.94948e-05 3.25588e-06
3.12736e-06 3.25588e-06 -3.56161e-05
0.000984585 -8.02414e-06 2.49748e-06
-8.02414e-06 1.01524e-05 1.60001e-06
2.49748e-06 1.60001e-06 -2.69846e-05
0.00099451 -5.79398e-06 2.19129e-06
-5.79398e-06 9.50858e-06 1.89563e-06
2.19129e-06 1.89563e-06 -2.67908e-05
0.00105526 5.18969e-06 1.4009e-06
5.18969e-06 3.74403e-05 8.39219e-07
1.4009e-06 8.39219e-07 -1.70033e-05
0.0011434 1.64983e-05 1.33941e-06
1.64983e-05 2.90997e-05 5.05763e-07
1.33941e-06 5.05763e-07 -3.0417e-05
0.00111926 2.29638e-05 1.09515e-06
2.29638e-05 4.67532e-05 8.06908e-07
1.09515e-06 8.06908e-07 -1.05357e-05
0.00119264 2.58772e-05 6.67832e-07
2.58772e-05 4.85596e-05 7.60164e-07
6.67832e-07 7.60164e-07 -1.49132e-05
0.00107309 8.59869e-06 1.20747e-06
8.59869e-06 5.06338e-05 9.65495e-07
1.20747e-06 9.65495e-07 -4.27778e-06
0.00110409 2.8065e-05 2.54057e-07
2.8065e-05 3.8012e-05 4.24193e-07
2.54057e-07 4.24193e-07 -2.2731e-05
0.00111089 2.71919e-05 7.40645e-07
2.71919e-05 6.71174e-05 5.96579e-08
7.40645e-07 5.96579e-08 2.5353e-06
0.00106738 3.00628e-05 2.76992e-07
3.00628e-05 2.74036e-05 2.28008e-08
2.76992e-07 2.28008e-08 -3.76473e-05
0.00100305 -3.15436e-06 1.23007e-06
-3.15436e-06 7.86399e-06 2.10095e-06
1.23007e-06 2.10095e-06 -2.57091e-05
0.000924239 -9.95401e-06 2.36673e-06
-9.95401e-06 -3.31758e-05 3.37884e-06
2.36673e-06 3.37884e-06 -3.78006e-05
0.00246669 -1.74235e-05 9.86369e-06
-1.74235e-05 0.000730311 4.05397e-06
9.86369e-06 4.05397e-06 0.000749659
0.00250096 -1.96766e-05 2.23418e-07
-1.96766e-05 0.000750674 -5.22394e-08
2.23418e-07 -5.22394e-08 0.000769253
0.00254872 -2.19797e-05 -1.10528e-05
-2.19797e-05 0.000777832 -3.86056e-06
-1.10528e-05 -3.86056e-06 0.000795555
0.000883054 1.34316e-05 3.21384e-06
1.34316e-05 -4.29228e-05 -3.25112e-06
3.21384e-06 -3.25112e-06 -5.06445e-05
0.00260394 2.41143e-05 1.1653e-05
2.41143e-05 0.000810217 -3.74808e-06
1.1653e-05 -3.74808e-06 0.000826603
0.000885839 1.46833e-05 -1.03824e-07
1.46833e-05 -3.79642e-05 -4.12532e-08
-1.03824e-07 -4.12532e-08 -4.66775e-05
0.00255414 2.62872e-05 -1.70006e-07
2.62872e-05 0.000791798 -6.91866e-08
-1.70006e-07 -6.91866e-08 0.000807359
0.00072308 -8.1654e-06 -5.0896e-06
-8.1654e-06 -6.66488e-05 -1.55556e-06
-5.0896e-06 -1.55556e-06 -9.9404e-05
0.000710137 -6.3393e-06 -5.10614e-06
-6.3393e-06 -6.26392e-05 -1.08465e-06
-5.10614e-06 -1.08465e-06 -9.97455e-05
0.00104803 3.98159e-06 -2.25348e-06
3.98159e-06 1.58577e-05 -7.07193e-07
-2.25348e-06 -7.07193e-07 -3.86486e-05
0.00107557 -7.42308e-06 -2.31052e-06
-7.42308e-06 2.28375e-05 -5.55986e-07
-2.31052e-06 -5.55986e-07 -3.48519e-05
0.000703366 -1.84064e-06 -5.42904e-06
-1.84064e-06 -6.74355e-05 -6.30666e-07
-5.42904e-06 -6.30666e-07 -0.000107606
0.00330289 9.58612e-06 -2.06802e-05
9.58612e-06 0.00127482 5.98873e-08
-2.06802e-05 5.98873e-08 0.00126602
0.000707749 2.03694e-06 1.8832e-09
2.03694e-06 -6.84398e-05 -1.29174e-07
1.8832e-09 -1.29174e-07 -0.000108547
0.00106953 -5.01199e-06 -8.11809e-09
-5.01199e-06 1.47355e-05 -1.28754e-07
-8.11809e-09 -1.28754e-07 -4.43298e-05
0.00104999 -2.95349e-06 -1.98941e-08
-2.95349e-06 1.44812e-05 -1.31294e-08
-1.98941e-08 -1.31294e-08 -4.14977e-05
0.00121246 -1.18032e-05 1.93967e-08
-1.18032e-05 4.88978e-05 -3.03067e-08
1.93967e-08 -3.03067e-08 -1.64843e-05
0.00102632 6.2358e-06 -2.04949e-08
6.2358e-06 8.67221e-06 -2.97323e-08
-2.04949e-08 -2.97323e-08 -4.44191e-05
0.00119946 7.2799e-06 -1.20554e-08
7.2799e-06 4.60074e-05 1.67583e-08
-1.20554e-08 1.67583e-08 -1.54686e-05
0.00107471 1.71221e-06 2.47565e-06
1.71221e-06 1.38621e-05 -1.48484e-07
2.47565e-06 -1.48484e-07 -4.53646e-05
0.00120675 -3.4936e-06 1.03411e-06
-3.4936e-06 4.4058e-05 1.28326e-07
1.03411e-06 1.28326e-07 -2.27653e-05
0.00120224 -1.72063e-06 1.16424e-06
-1.72063e-06 4.4758e-05 3.12115e-07
1.16424e-06 3.12115e-07 -1.85655e-05
0.00129388 -1.67671e-05 6.59796e-07
-1.67671e-05 7.02884e-05 -1.2579e-07
6.59796e-07 -1.2579e-07 2.79224e-06
0.00117811 1.21157e-05 1.04726e-06
1.21157e-05 3.94512e-05 3.473e-07
1.04726e-06 3.473e-07 -2.06968e-05
0.00125816 6.80713e-06 4.3754e-07
6.80713e-06 5.47581e-05 3.57439e-07
4.3754e-07 3.57439e-07 -8.92147e-06
0.000720118 1.61192e-05 -5.38792e-06
1.61192e-05 -6.4145e-05 3.22643e-07
-5.38792e-06 3.22643e-07 -0.000103509
0.0012966 1.48123e-05 -1.12988e-05
1.48123e-05 0.000209051 1.02171e-06
-1.12988e-05 1.02171e-06 0.000175795
0.000881362 1.49341e-05 -3.04816e-06
1.49341e-05 -8.53811e-05 3.72379e-07
-3.04816e-06 3.72379e-07 -0.000144231
0.00153178 -9.55307e-06 -3.03508e-06
-9.55307e-06 0.000232925 7.22685e-07
-3.03508e-06 7.22685e-07 0.000179308
0.00248048 2.83663e-05 -1.19345e-05
2.83663e-05 0.00076451 3.27403e-06
-1.19345e-05 3.27403e-06 0.000778924
0.00158792 2.25098e-05 -7.48313e-06
2.25098e-05 0.000328096 2.4644e-06
-7.48313e-06 2.4644e-06 0.000318528
0.00141231 3.93041e-06 -2.72988e-06
3.93041e-06 0.000232088 1.44273e-06
-2.72988e-06 1.44273e-06 0.000190656
0.00126779 -5.59228e-06 -2.87354e-06
-5.59228e-06 0.000128952 1.07812e-06
-2.87354e-06 1.07812e-06 7.82352e-05
0.00107173 -1.8795e-05 -1.71369e-06
-1.8795e-05 -2.64786e-05 9.07905e-07
-1.71369e-06 9.07905e-07 -8.95796e-05
0.001353 -2.12176e-05 -1.08522e-06
-2.12176e-05 0.000139185 5.23317e-07
-1.08522e-06 5.23317e-07 8.18923e-05
0.000911339 -1.79667e-05 -1.17773e-06
-1.79667e-05 -4.11658e-05 7.87074e-07
-1.17773e-06 7.87074e-07 -0.000100453
0.00117625 -2.80214e-05 -6.68068e-07
-2.80214e-05 4.83992e-05 2.73245e-07
-6.68068e-07 2.73245e-07 -1.38421e-05
0.000890369 1.61919e-05 -4.19517e-06
1.61919e-05 -3.07812e-05 2.87457e-06
-4.19517e-06 2.87457e-06 -4.05368e-05
0.000983793 4.60376e-06 -2.43742e-06
4.60376e-06 6.65527e-06 1.80983e-06
-2.43742e-06 1.80983e-06 -3.18595e-05
0.000969505 1.37152e-05 3.90215e-08
1.37152e-05 -3.84223e-05 1.78687e-08
3.90215e-08 1.78687e-08 -9.75984e-05
0.00132563 1.19831e-06 -4.63908e-07
1.19831e-06 0.000129532 7.50499e-08
-4.63908e-07 7.50499e-08 7.43024e-05
0.00135712 1.57801e-05 -5.05406e-07
1.57801e-05 0.00010335 4.88987e-08
-5.05406e-07 4.88987e-08 3.86383e-05
0.00131967 -1.49812e-05 2.60501e-07
-1.49812e-05 8.17998e-05 -2.32349e-07
2.60501e-07 -2.32349e-07 1.81853e-05
0.000865457 1.75874e-05 -2.2459e-08
1.75874e-05 -3.64122e-05 -4.51617e-08
-2.2459e-08 -4.51617e-08 -4.7343e-05
0.000964828 5.69638e-06 1.45384e-08
5.69638e-06 1.17926e-05 1.62163e-08
1.45384e-08 1.62163e-08 -2.99436e-05
0.000952405 -1.62671e-05 3.52e-07
-1.62671e-05 -8.20377e-06 -2.60503e-07
3.52e-07 -2.60503e-07 -6.56275e-05
0.00133688 -2.11593e-05 -2.77292e-07
-2.11593e-05 0.000120145 8.46706e-08
-2.77292e-07 8.46706e-08 6.1446e-05
0.00128614 -2.01824e-05 -1.7723e-07
-2.01824e-05 5.58616e-05 3.16998e-07
-1.7723e-07 3.16998e-07 -9.07932e-06
0.00122373 -3.06613e-05 -3.26745e-07
-3.06613e-05 9.02167e-05 9.62896e-08
-3.26745e-07 9.62896e-08 2.55877e-05
0.00121412 -2.61131e-05 6.07241e-08
-2.61131e-05 5.07893e-05 8.41793e-08
6.07241e-08 8.41793e-08 -1.03583e-05
0.00120178 -3.02784e-05 2.68352e-07
-3.02784e-05 4.88431e-05 2.52547e-07
2.68352e-07 2.52547e-07 -1.38277e-05
0.000975829 5.27385e-06 -2.00742e-08
5.27385e-06 5.85035e-06 -4.20432e-08
-2.00742e-08 -4.20432e-08 -3.31024e-05
0.000997261 -1.12914e-05 -6.05788e-09
-1.12914e-05 7.86725e-06 -8.1493e-08
-6.05788e-09 -8.1493e-08 -4.93271e-05
0.000987047 3.71133e-06 -1.24971e-07
3.71133e-06 6.61127e-06 -2.62698e-08
-1.24971e-07 -2.62698e-08 -3.13175e-05
0.00142778 1.90668e-05 9.09295e-07
1.90668e-05 0.000145304 7.56294e-08
9.09295e-07 7.56294e-08 7.97779e-05
0.00135708 2.51954e-06 1.409e-06
2.51954e-06 9.54066e-05 1.63666e-08
1.409e-06 1.63666e-08 3.11581e-05
0.00136197 1.84208e-05 1.03765e-06
1.84208e-05 8.50112e-05 2.3183e-07
1.03765e-06 2.3183e-07 1.64483e-05
0.00134063 -9.84895e-06 5.8644e-07
-9.84895e-06 6.74963e-05 -5.82538e-07
5.8644e-07 -5.82538e-07 3.18911e-07
0.00114773 -2.3823e-05 4.63616e-07
-2.3823e-05 8.53704e-06 -5.25173e-07
4.63616e-07 -5.25173e-07 -5.32584e-05
0.0013759 -1.9175e-05 -3.79541e-07
-1.9175e-05 8.64004e-05 4.72358e-10
-3.79541e-07 4.72358e-10 2.34859e-05
0.000953141 6.83235e-06 2.5461e-06
6.83235e-06 9.34765e-07 -1.58078e-06
2.5461e-06 -1.58078e-06 -3.90063e-05
0.00122483 -2.75883e-05 3.74697e-08
-2.75883e-05 4.54299e-05 -5.35332e-08
3.74697e-08 -5.35332e-08 -1.52379e-05
0.00104118 -1.39767e-05 1.04517e-06
-1.39767e-05 3.63889e-05 -6.44309e-07
1.04517e-06 -6.44309e-07 -1.90516e-05
0.000943524 -2.76314e-05 1.01541e-06
-2.76314e-05 -2.39094e-05 -1.31937e-06
1.01541e-06 -1.31937e-06 -8.88505e-05
0.0012927 -3.42798e-05 1.05593e-06
-3.42798e-05 0.000113475 -1.28279e-08
1.05593e-06 -1.28279e-08 4.54055e-05
0.00143139 -3.37768e-05 -2.69538e-07
-3.37768e-05 0.000153436 1.09009e-06
-2.69538e-07 1.09009e-06 9.3536e-05
0.000992621 3.15671e-06 1.77025e-06
3.15671e-06 8.10702e-06 -2.08632e-06
1.77025e-06 -2.08632e-06 -2.8676e-05
0.00105755 -1.13614e-05 1.46867e-06
-1.13614e-05 3.87797e-05 -7.7528e-07
1.46867e-06 -7.7528e-07 -1.6903e-05
0.000904644 -9.76814e-06 1.70261e-06
-9.76814e-06 -3.54044e-05 -1.59788e-06
1.70261e-06 -1.59788e-06 -9.44959e-05
0.00126011 -2.81672e-05 4.56381e-07
-2.81672e-05 0.000134716 5.34115e-08
4.56381e-07 5.34115e-08 7.01786e-05
0.00101701 8.69694e-06 -2.37211e-06
8.69694e-06 9.64476e-06 -9.88596e-07
-2.37211e-06 -9.88596e-07 -4.20779e-05
0.000888057 -1.38045e-05 -3.28757e-06
-1.38045e-05 -4.16944e-05 -3.23287e-06
-3.28757e-06 -3.23287e-06 -4.8428e-05
0.000866492 -1.65257e-05 -4.03095e-06
-1.65257e-05 -4.28956e-05 -2.92594e-06
-4.03095e-06 -2.92594e-06 -5.13095e-05
0.000978888 -6.10016e-06 -2.33998e-06
-6.10016e-06 4.34146e-06 -1.8475e-06
-2.33998e-06 -1.8475e-06 -3.2398e-05
0.000960833 5.04274e-06 -2.2239e-06
5.04274e-06 4.23381e-06 -1.18388e-06
-2.2239e-06 -1.18388e-06 -4.41373e-05
0.0011378 2.22126e-05 -1.16342e-06
2.22126e-05 3.96487e-05 -7.2114e-07
-1.16342e-06 -7.2114e-07 -1.93448e-05
0.00095555 -9.96196e-06 -2.50282e-06
-9.96196e-06 2.9316e-06 -1.63045e-06
-2.50282e-06 -1.63045e-06 -3.58569e-05
0.0010544 1.31741e-05 -1.15709e-06
1.31741e-05 4.43536e-05 -9.4906e-07
-1.15709e-06 -9.4906e-07 -1.21284e-05
0.00110954 2.15485e-05 -1.02179e-06
2.15485e-05 5.22977e-05 -5.17583e-07
-1.02179e-06 -5.17583e-07 -3.24632e-06
0.00101856 2.70718e-05 -1.2606e-06
2.70718e-05 1.09967e-05 -2.60321e-07
-1.2606e-06 -2.60321e-07 -5.12467e-05
0.000908344 -1.25374e-05 9.47324e-08
-1.25374e-05 -3.49636e-05 -2.05878e-08
9.47324e-08 -2.05878e-08 -4.09979e-05
0.00097715 -7.83043e-06 3.18339e-08
-7.83043e-06 6.7458e-06 -2.5025e-08
3.18339e-08 -2.5025e-08 -3.04211e-05
0.000989874 -5.48288e-06 7.8228e-08
-5.48288e-06 7.32455e-06 -2.83697e-08
7.8228e-08 -2.83697e-08 -2.89864e-05
0.00105293 4.70933e-06 5.58257e-08
4.70933e-06 3.67393e-05 -5.55853e-08
5.58257e-08 -5.55853e-08 -1.78006e-05
0.00116684 1.6997e-05 2.11348e-07
1.6997e-05 3.99161e-05 8.47813e-08
2.11348e-07 8.47813e-08 -1.96562e-05
0.00110676 2.31644e-05 4.3106e-08
2.31644e-05 4.11263e-05 9.33543e-09
4.3106e-08 9.33543e-09 -1.61412e-05
0.00119477 2.58854e-05 -2.43665e-09
2.58854e-05 4.95795e-05 1.8941e-07
-2.43665e-09 1.8941e-07 -1.39258e-05
0.00105873 8.24372e-06 -7.59498e-08
8.24372e-06 4.4545e-05 2.06388e-08
-7.59498e-08 2.06388e-08 -1.04142e-05
0.00119529 2.90729e-05 -2.70453e-07
2.90729e-05 8.24694e-05 -2.71484e-07
-2.70453e-07 -2.71484e-07 2.20993e-05
0.00111769 2.77178e-05 1.19054e-07
2.77178e-05 7.00534e-05 -2.28492e-07
1.19054e-07 -2.28492e-07 5.2783e-06
0.00106771 2.98433e-05 -8.39106e-07
2.98433e-05 2.9266e-05 -5.25245e-08
-8.39106e-07 -5.25245e-08 -3.47414e-05
0.000925111 -1.12648e-05 2.74946e-06
-1.12648e-05 -2.97832e-05 3.32769e-06
2.74946e-06 3.32769e-06 -3.51223e-05
0.000998614 -4.63093e-06 1.96983e-06
-4.63093e-06 9.61648e-06 1.99164e-06
1.96983e-06 1.99164e-06 -2.61243e-05
0.00106414 7.44046e-06 1.40991e-06
7.44046e-06 4.17741e-05 8.00903e-07
1.40991e-06 8.00903e-07 -1.22198e-05
0.00105314 3.9936e-06 1.28315e-06
3.9936e-06 3.70251e-05 1.0217e-06
1.28315e-06 1.0217e-06 -1.7842e-05
0.00108477 1.85056e-05 8.94192e-07
1.85056e-05 5.09944e-05 2.11276e-07
8.94192e-07 2.11276e-07 -1.35301e-05
0.00119245 1.68144e-05 8.72865e-07
1.68144e-05 3.41781e-05 2.40426e-07
8.72865e-07 2.40426e-07 -2.86005e-05
0.00116483 2.89015e-05 5.74599e-07
2.89015e-05 5.51533e-05 7.92073e-07
5.74599e-07 7.92073e-07 -7.15223e-06
0.00123497 2.7005e-05 -9.18848e-09
2.7005e-05 6.24108e-05 6.84416e-07
-9.18848e-09 6.84416e-07 -2.99463e-06
0.00112357 2.49463e-05 1.20401e-06
2.49463e-05 7.29398e-05 1.12497e-06
1.20401e-06 1.12497e-06 8.62059e-06
0.00116398 3.1556e-05 8.03374e-07
3.1556e-05 6.13563e-05 5.30793e-07
8.03374e-07 5.30793e-07 -2.68086e-06
0.000924288 2.93136e-05 9.47761e-07
2.93136e-05 -3.01454e-05 -1.19279e-07
9.47761e-07 -1.19279e-07 -0.000101913
0.00100316 -3.17257e-06 1.52905e-06
-3.17257e-06 9.06034e-06 2.10731e-06
1.52905e-06 2.10731e-06 -2.52932e-05
0.00105976 7.51985e-06 7.3369e-07
7.51985e-06 4.07663e-05 1.2681e-06
7.3369e-07 1.2681e-06 -1.28349e-05
0.00100344 -2.78663e-06 9.61074e-07
-2.78663e-06 6.84273e-06 2.06319e-06
9.61074e-07 2.06319e-06 -2.60418e-05
0.00100298 -3.28079e-06 7.51681e-08
-3.28079e-06 7.75788e-06 5.55735e-09
7.51681e-08 5.55735e-09 -2.5784e-05
0.00156601 -1.03273e-05 1.93863e-06
-1.03273e-05 0.000280035 2.10834e-06
1.93863e-06 2.10834e-06 0.000279236
0.00124894 -1.0778e-05 3.94537e-07
-1.0778e-05 0.000126824 -3.55737e-09
3.94537e-07 -3.55737e-09 0.00012378
0.00119061 -1.18382e-05 9.01913e-06
-1.18382e-05 9.77257e-05 6.74245e-06
9.01913e-06 6.74245e-06 0.000111421
0.00248814 -1.74648e-05 2.62205e-07
-1.74648e-05 0.000740647 -4.5686e-08
2.62205e-07 -4.5686e-08 0.000759947
0.00253105 -1.97379e-05 -1.03467e-05
-1.97379e-05 0.000765205 -3.97218e-06
-1.03467e-05 -3.97218e-06 0.000783709
0.000891972 1.24097e-05 2.79322e-06
1.24097e-05 -4.13608e-05 -3.27312e-06
2.79322e-06 -3.27312e-06 -4.81505e-05
0.00257743 2.18621e-05 1.10406e-05
2.18621e-05 0.000793218 -3.86395e-06
1.10406e-05 -3.86395e-06 0.000810454
0.000894893 1.34876e-05 -1.03466e-07
1.34876e-05 -3.68942e-05 -2.34226e-08
-1.03466e-07 -2.34226e-08 -4.47248e-05
0.00255932 2.40253e-05 -1.85234e-07
2.40253e-05 0.000788784 -6.4969e-08
-1.85234e-07 -6.4969e-08 0.000805268
0.000897181 1.47719e-05 -3.87241e-06
1.47719e-05 -3.20612e-05 3.06303e-06
-3.87241e-06 3.06303e-06 -4.0881e-05
0.00249726 2.61917e-05 -1.18189e-05
2.61917e-05 0.000764854 3.49283e-06
-1.18189e-05 3.49283e-06 0.000780498
0.00103943 6.95847e-06 -2.32467e-06
6.95847e-06 1.47824e-05 -8.1987e-07
-2.32467e-06 -8.1987e-07 -3.83228e-05
0.00105706 -2.54863e-06 -2.22733e-06
-2.54863e-06 1.77556e-05 -5.89292e-07
-2.22733e-06 -5.89292e-07 -3.82213e-05
0.00119939 5.2254e-06 -1.05688e-06
5.2254e-06 4.62815e-05 -3.52335e-07
-1.05688e-06 -3.52335e-07 -1.52342e-05
0.00123558 -1.27224e-05 -1.21826e-06
-1.27224e-05 5.95842e-05 -2.87414e-07
-1.21826e-06 -2.87414e-07 -5.85685e-06
0.0010798 -3.44257e-06 -2.44712e-06
-3.44257e-06 1.95052e-05 -4.4306e-07
-2.44712e-06 -4.4306e-07 -3.95249e-05
0.000703995 7.4322e-06 -5.41564e-06
7.4322e-06 -7.00996e-05 -9.96403e-08
-5.41564e-06 -9.96403e-08 -0.000110266
0.00107508 1.8061e-06 3.30904e-08
1.8061e-06 1.39593e-05 -1.04985e-07
3.30904e-08 -1.04985e-07 -4.52568e-05
0.00122059 -2.79836e-06 -3.45982e-08
-2.79836e-06 5.06144e-05 -4.0153e-08
-3.45982e-08 -4.0153e-08 -1.62407e-05
0.00120684 -5.35623e-06 4.08783e-08
-5.35623e-06 4.70834e-05 -2.76117e-08
4.08783e-08 -2.76117e-08 -1.62736e-05
0.00129334 -1.74512e-05 -3.55794e-08
-1.74512e-05 6.95932e-05 -4.80719e-08
-3.55794e-08 -4.80719e-08 2.0869e-06
0.00118423 1.22031e-05 -4.95475e-08
1.22031e-05 4.2372e-05 1.44384e-08
-4.95475e-08 1.44384e-08 -1.78174e-05
0.00126213 5.9735e-06 -4.38736e-10
5.9735e-06 5.71076e-05 9.171e-08
-4.38736e-10 9.171e-08 -6.58747e-06
0.00123283 7.40836e-06 1.32895e-06
7.40836e-06 5.35646e-05 -1.3281e-07
1.32895e-06 -1.3281e-07 -1.36384e-05
0.00124624 -7.36112e-06 3.84616e-07
-7.36112e-06 5.14234e-05 1.49372e-08
3.84616e-07 1.49372e-08 -1.68716e-05
0.00126043 -3.86892e-06 6.32366e-07
-3.86892e-06 5.25766e-05 7.35418e-08
6.32366e-07 7.35418e-08 -1.32202e-05
0.0013681 -2.03868e-05 9.83623e-07
-2.03868e-05 9.40137e-05 -1.95988e-07
9.83623e-07 -1.95988e-07 2.68297e-05
0.00123939 9.54759e-06 3.61107e-07
9.54759e-06 5.03986e-05 1.4066e-07
3.61107e-07 1.4066e-07 -1.20061e-05
0.00133716 -1.39828e-06 -5.82928e-07
-1.39828e-06 8.036e-05 5.66956e-07
-5.82928e-07 5.66956e-07 1.96214e-05
0.000889138 1.42743e-05 -2.53196e-06
1.42743e-05 -7.78054e-05 1.77501e-07
-2.53196e-06 1.77501e-07 -0.000137559
0.00131949 -2.13903e-06 -3.10194e-06
-2.13903e-06 0.000126068 4.65306e-07
-3.10194e-06 4.65306e-07 7.09815e-05
0.00126291 2.04787e-05 -1.91591e-06
2.04787e-05 5.81045e-05 -2.74701e-08
-1.91591e-06 -2.74701e-08 -6.82341e-06
0.00149216 -1.63103e-05 -1.17157e-06
-1.63103e-05 0.000166275 1.46811e-07
-1.17157e-06 1.46811e-07 0.000103549
0.00088643 1.77298e-05 -4.40635e-06
1.77298e-05 -2.60022e-05 2.68536e-06
-4.40635e-06 2.68536e-06 -3.70556e-05
0.000984656 4.64153e-06 -2.35559e-06
4.64153e-06 2.00318e-05 1.44944e-06
-2.35559e-06 1.44944e-06 -2.15675e-05
0.00104732 -1.69604e-05 -7.05635e-07
-1.69604e-05 3.82998e-05 6.61807e-07
-7.05635e-07 6.61807e-07 -1.85981e-05
0.00140032 -2.15799e-05 -1.30732e-06
-2.15799e-05 0.000149915 6.46173e-07
-1.30732e-06 6.46173e-07 9.13174e-05
0.00117589 -1.85292e-05 -5.81166e-07
-1.85292e-05 2.13988e-06 8.1527e-07
-5.81166e-07 8.1527e-07 -6.28006e-05
0.00121307 -2.60083e-05 -4.77152e-07
-2.60083e-05 5.02499e-05 4.02052e-07
-4.77152e-07 4.02052e-07 -1.08579e-05
0.00104045 -2.85099e-05 -1.16674e-06
-2.85099e-05 2.55329e-06 7.79391e-07
-1.16674e-06 7.79391e-07 -6.26958e-05
0.00113517 -2.93838e-05 -1.57232e-07
-2.93838e-05 1.6659e-05 -8.36979e-08
-1.57232e-07 -8.36979e-08 -4.6e-05
0.000983389 5.50735e-06 -2.50552e-06
5.50735e-06 9.40161e-06 1.6164e-06
-2.50552e-06 1.6164e-06 -2.94995e-05
0.00093141 -1.05887e-05 -1.51202e-06
-1.05887e-05 -2.54624e-05 8.43972e-07
-1.51202e-06 8.43972e-07 -8.2929e-05
0.000987682 4.096e-06 -2.17276e-06
4.096e-06 7.1587e-06 1.98948e-06
-2.17276e-06 1.98948e-06 -3.07845e-05
0.00130873 1.91872e-05 -4.69399e-07
1.91872e-05 8.78923e-05 1.08964e-07
-4.69399e-07 1.08964e-07 2.18349e-05
0.001357 -3.13526e-06 -1.96763e-07
-3.13526e-06 9.51269e-05 2.51592e-08
-1.96763e-07 2.51592e-08 3.09669e-05
0.00129802 2.05812e-05 -3.14896e-07
2.05812e-05 5.27155e-05 -9.5229e-08
-3.14896e-07 -9.5229e-08 -1.63844e-05
0.00138994 -8.65349e-06 -1.91399e-08
-8.65349e-06 9.10376e-05 -2.62952e-07
-1.91399e-08 -2.62952e-07 2.40901e-05
0.000968631 6.46891e-06 1.43201e-08
6.46891e-06 7.73375e-06 -1.84962e-08
1.43201e-08 -1.84962e-08 -3.21103e-05
0.0010608 -1.38785e-05 7.15194e-08
-1.38785e-05 4.50473e-05 2.29386e-08
7.15194e-08 2.29386e-08 -1.03456e-05
0.0010349 -2.8499e-05 1.79499e-07
-2.8499e-05 2.14848e-05 -2.87564e-07
1.79499e-07 -2.87564e-07 -4.29693e-05
0.00126767 -2.47887e-05 -2.41528e-08
-2.47887e-05 6.63899e-05 -1.12565e-07
-2.41528e-08 -1.12565e-07 4.70101e-06
0.00129763 -1.88234e-05 1.86476e-07
-1.88234e-05 4.84732e-05 4.95411e-07
1.86476e-07 4.95411e-07 -1.37688e-05
0.00118499 -3.32689e-05 6.33654e-08
-3.32689e-05 6.2973e-05 1.05954e-07
6.33654e-08 1.05954e-07 -5.93562e-06
0.00123235 -2.7195e-05 4.73316e-08
-2.7195e-05 4.87185e-05 1.30616e-07
4.73316e-08 1.30616e-07 -1.1857e-05
0.00133044 -3.24535e-05 4.46318e-07
-3.24535e-05 0.000104657 3.66738e-07
4.46318e-07 3.66738e-07 4.55196e-05
0.00106219 -1.17133e-05 6.40027e-08
-1.17133e-05 4.02156e-05 -5.77173e-08
6.40027e-08 -5.77173e-08 -1.52943e-05
0.00114862 -2.68761e-05 -3.44942e-07
-2.68761e-05 7.94576e-05 1.89533e-07
-3.44942e-07 1.89533e-07 1.44911e-05
0.000989274 3.08959e-06 -8.25561e-08
3.08959e-06 6.78524e-06 2.71373e-09
-8.25561e-08 2.71373e-09 -3.00458e-05
0.000910051 -9.64337e-06 3.91512e-07
-9.64337e-06 -3.32094e-05 -3.70531e-07
3.91512e-07 -3.70531e-07 -9.22983e-05
0.00132124 2.12173e-05 1.23349e-06
2.12173e-05 7.66803e-05 2.71409e-07
1.23349e-06 2.71409e-07 6.78459e-06
0.00149272 4.60593e-06 8.34772e-07
4.60593e-06 0.000131206 9.48215e-08
8.34772e-07 9.48215e-08 6.29322e-05
0.00124406 2.18284e-05 5.98053e-07
2.18284e-05 1.81132e-05 3.66979e-07
5.98053e-07 3.66979e-07 -5.35696e-05
0.00129813 -4.81598e-06 -1.26117e-07
-4.81598e-06 3.31293e-05 -1.00568e-06
-1.26117e-07 -1.00568e-06 -3.26616e-05
0.00121829 -2.43039e-05 -3.51846e-07
-2.43039e-05 3.07793e-05 -8.53205e-08
-3.51846e-07 -8.53205e-08 -2.90973e-05
0.0014071 -1.72985e-05 2.35272e-07
-1.72985e-05 8.82566e-05 -1.57592e-07
2.35272e-07 -1.57592e-07 3.01688e-05
0.00104834 -1.12593e-05 1.24676e-06
-1.12593e-05 3.73009e-05 -6.24856e-07
1.24676e-06 -6.24856e-07 -1.76342e-05
0.00121281 -2.70737e-05 -8.78017e-07
-2.70737e-05 3.2594e-05 3.32377e-07
-8.78017e-07 3.32377e-07 -2.27663e-05
0.000940804 -2.65332e-05 6.71693e-07
-2.65332e-05 -1.92818e-05 -8.90465e-07
6.71693e-07 -8.90465e-07 -8.17442e-05
0.00113831 -3.29734e-05 1.05352e-06
-3.29734e-05 6.66395e-05 -1.17452e-06
1.05352e-06 -1.17452e-06 -4.53616e-06
0.00123449 -3.61563e-05 1.34084e-06
-3.61563e-05 8.04885e-05 1.14746e-06
1.34084e-06 1.14746e-06 9.70517e-06
0.00147193 -3.44407e-05 3.5037e-07
-3.44407e-05 0.000163457 4.96457e-07
3.5037e-07 4.96457e-07 0.000105792
0.000993202 4.69142e-06 1.29294e-06
4.69142e-06 8.35757e-06 -2.06421e-06
1.29294e-06 -2.06421e-06 -2.73568e-05
0.000871072 -9.33786e-06 1.50619e-06
-9.33786e-06 -5.03655e-05 -1.90215e-06
1.50619e-06 -1.90215e-06 -0.000109576
0.00110704 -2.66774e-05 7.89205e-07
-2.66774e-05 5.64527e-05 -7.24907e-08
7.89205e-07 -7.24907e-08 -6.03032e-06
0.00115209 -2.6169e-05 9.60477e-07
-2.6169e-05 8.73843e-05 -2.68343e-07
9.60477e-07 -2.68343e-07 1.84132e-05
0.00123627 -3.14719e-05 4.81191e-07
-3.14719e-05 0.00011726 1.69356e-07
4.81191e-07 1.69356e-07 4.92127e-05
0.000898047 -1.24741e-05 -2.91113e-06
-1.24741e-05 -4.02107e-05 -3.32217e-06
-2.91113e-06 -3.32217e-06 -4.6158e-05
0.00118597 1.74633e-05 -9.52323e-07
1.74633e-05 4.87556e-05 -3.58462e-07
-9.52323e-07 -3.58462e-07 -1.08777e-05
0.000984744 -5.20053e-06 -2.12445e-06
-5.20053e-06 4.8914e-06 -1.97693e-06
-2.12445e-06 -1.97693e-06 -3.14292e-05
0.00096892 -7.76006e-06 -2.52327e-06
-7.76006e-06 2.97111e-06 -1.69383e-06
-2.52327e-06 -1.69383e-06 -3.42287e-05
0.00105102 4.2371e-06 -1.30395e-06
4.2371e-06 3.62385e-05 -9.88564e-07
-1.30395e-06 -9.88564e-07 -1.83982e-05
0.00109496 2.34077e-05 -1.05806e-06
2.34077e-05 3.58273e-05 -8.16868e-07
-1.05806e-06 -8.16868e-07 -2.14206e-05
0.00119672 2.58744e-05 -6.08924e-07
2.58744e-05 5.05274e-05 -3.67924e-07
-6.08924e-07 -3.67924e-07 -1.30115e-05
0.00104367 8.04975e-06 -1.232e-06
8.04975e-06 3.81225e-05 -8.25e-07
-1.232e-06 -8.25e-07 -1.68726e-05
0.00112715 2.82375e-05 -9.37012e-07
2.82375e-05 7.4242e-05 -8.03265e-07
-9.37012e-07 -8.03265e-07 9.27345e-06
0.00128506 3.00896e-05 -9.7593e-07
3.00896e-05 0.000126232 -7.17826e-07
-9.7593e-07 -7.17826e-07 6.62368e-05
0.00107041 2.96456e-05 -1.85717e-06
2.96456e-05 3.22055e-05 1.94186e-07
-1.85717e-06 1.94186e-07 -3.07555e-05
0.000916547 -1.12201e-05 9.91513e-08
-1.12201e-05 -3.40626e-05 -1.58995e-08
9.91513e-08 -1.58995e-08 -3.93355e-05
0.000994904 -4.23981e-06 5.77954e-08
-4.23981e-06 7.78169e-06 -1.86305e-08
5.77954e-08 -1.86305e-08 -2.7964e-05
0.00105826 6.45532e-06 -2.73981e-08
6.45532e-06 3.96735e-05 -2.39476e-08
-2.73981e-08 -2.39476e-08 -1.4414e-05
0.00105202 3.6781e-06 1.62833e-08
3.6781e-06 3.68374e-05 -2.38638e-08
1.62833e-08 -2.38638e-08 -1.81218e-05
0.00104789 1.76486e-05 6.01303e-08
1.76486e-05 3.28566e-05 -9.5924e-08
6.01303e-08 -9.5924e-08 -3.17444e-05
0.00122129 1.74189e-05 3.22366e-07
1.74189e-05 4.71674e-05 1.0584e-07
3.22366e-07 1.0584e-07 -1.56695e-05
0.00115887 2.90092e-05 7.98255e-08
2.90092e-05 5.26132e-05 -1.16026e-08
7.98255e-08 -1.16026e-08 -9.71904e-06
0.00121246 2.77045e-05 3.0664e-07
2.77045e-05 5.1669e-05 3.17198e-07
3.0664e-07 3.17198e-07 -1.40225e-05
0.00111061 2.55618e-05 3.5364e-07
2.55618e-05 6.72171e-05 3.27623e-07
3.5364e-07 3.27623e-07 2.89729e-06
0.00121135 3.1782e-05 1.07961e-07
3.1782e-05 8.47027e-05 -2.26118e-07
1.07961e-07 -2.26118e-07 2.09573e-05
0.0010332 3.05802e-05 -5.63957e-07
3.05802e-05 2.05836e-05 -3.50368e-07
-5.63957e-07 -3.50368e-07 -5.04818e-05
0.0010013 -3.45502e-06 1.79835e-06
-3.45502e-06 9.34116e-06 2.06286e-06
1.79835e-06 2.06286e-06 -2.57453e-05
0.00105573 5.02914e-06 1.23384e-06
5.02914e-06 3.81366e-05 1.12253e-06
1.23384e-06 1.12253e-06 -1.69257e-05
0.00105308 2.19468e-05 7.33746e-07
2.19468e-05 3.34081e-05 2.96198e-07
7.33746e-07 2.96198e-07 -3.03066e-05
0.00108768 1.51193e-05 7.49707e-07
1.51193e-05 5.48108e-05 3.80122e-07
7.49707e-07 3.80122e-07 -1.09015e-05
0.00118841 2.72431e-05 1.82564e-07
2.72431e-05 0.000101418 -2.2248e-07
1.82564e-07 -2.2248e-07 3.21286e-05
0.00120578 1.52063e-05 -3.60544e-07
1.52063e-05 3.05387e-05 -4.84138e-07
-3.60544e-07 -4.84138e-07 -3.20323e-05
0.00118644 3.24923e-05 6.59835e-07
3.24923e-05 5.99323e-05 7.24433e-07
6.59835e-07 7.24433e-07 -5.48982e-06
0.00107367 3.10869e-05 -2.41646e-07
3.10869e-05 -1.30309e-05 -3.11914e-08
-2.41646e-07 -3.11914e-08 -7.69754e-05
0.00111675 3.14536e-05 7.29442e-07
3.14536e-05 6.93234e-05 1.27269e-06
7.29442e-07 1.27269e-06 -3.02858e-06
0.00119465 3.45828e-05 1.59513e-06
3.45828e-05 8.32435e-05 2.66778e-07
1.59513e-06 2.66778e-07 9.13305e-06
0.00100058 -3.3825e-06 9.26281e-08
-3.3825e-06 7.6995e-06 3.10716e-10
9.26281e-08 3.10716e-10 -2.6617e-05
0.00088783 5.43293e-06 1.17349e-06
5.43293e-06 -4.41303e-05 1.74793e-06
1.17349e-06 1.74793e-06 -9.9907e-05
0.000968545 6.25607e-06 -1.40795e-08
6.25607e-06 -3.73679e-06 2.23826e-08
-1.40795e-08 2.23826e-08 -5.80181e-05
0.00125638 1.7894e-05 3.0741e-07
1.7894e-05 0.000144974 2.96493e-07
3.0741e-07 2.96493e-07 7.9155e-05
0.00105924 7.05334e-06 5.77558e-07
7.05334e-06 4.15072e-05 1.24085e-06
5.77558e-07 1.24085e-06 -1.13964e-05
0.00100577 -2.11319e-06 7.12931e-07
-2.11319e-06 6.84925e-06 2.0176e-06
7.12931e-07 2.0176e-06 -2.55052e-05
0.00100694 -2.86383e-06 6.76509e-08
-2.86383e-06 8.57503e-06 5.86704e-09
6.76509e-08 5.86704e-09 -2.42989e-05
0.00156656 -8.64392e-06 1.56371e-06
-8.64392e-06 0.00027722 2.10355e-06
1.56371e-06 2.10355e-06 0.000277065
0.00100325 -3.38848e-06 -1.06287e-06
-3.38848e-06 7.82716e-06 -2.08841e-06
-1.06287e-06 -2.08841e-06 -2.56855e-05
0.00158489 -9.89605e-06 -1.48337e-06
-9.89605e-06 0.000289378 -1.30178e-06
-1.48337e-06 -1.30178e-06 0.000288525
0.00121095 -1.019e-05 7.91344e-06
-1.019e-05 0.000103623 6.8065e-06
7.91344e-06 6.8065e-06 0.00011799
0.00157548 -1.10652e-05 -4.57547e-06
-1.10652e-05 0.000287721 -3.32543e-06
-4.57547e-06 -3.32543e-06 0.000286274
0.00181089 -1.35841e-05 5.84344e-06
-1.35841e-05 0.000403334 2.47359e-06
5.84344e-06 2.47359e-06 0.000420283
0.00250868 -1.75094e-05 -9.48217e-06
-1.75094e-05 0.000750556 -4.06555e-06
-9.48217e-06 -4.06555e-06 0.000769808
0.000902181 1.15912e-05 2.30226e-06
1.15912e-05 -3.93677e-05 -3.27061e-06
2.30226e-06 -3.27061e-06 -4.50163e-05
0.000904561 1.24475e-05 -1.09954e-07
1.24475e-05 -3.51838e-05 -1.44372e-08
-1.09954e-07 -1.44372e-08 -4.20603e-05
0.00253591 1.96471e-05 1.02251e-05
1.96471e-05 0.000768953 -3.93847e-06
1.02251e-05 -3.93847e-06 0.000787103
0.00254781 2.17954e-05 -1.94752e-07
2.17954e-05 0.00077887 -5.75344e-08
-1.94752e-07 -5.75344e-08 0.000796178
0.000906971 1.35482e-05 -3.4654e-06
1.35482e-05 -3.07675e-05 3.19851e-06
-3.4654e-06 3.19851e-06 -3.87052e-05
0.00251491 2.39638e-05 -1.16214e-05
2.39638e-05 0.000767494 3.69442e-06
-1.16214e-05 3.69442e-06 0.000784069
0.00119112 1.24174e-05 -1.11788e-06
1.24174e-05 4.56488e-05 -3.28232e-07
-1.11788e-06 -3.28232e-07 -1.45838e-05
0.00121199 -5.48211e-06 -1.10722e-06
-5.48211e-06 4.96068e-05 -3.73501e-07
-1.10722e-06 -3.73501e-07 -1.37682e-05
0.00126453 6.09419e-06 -3.55653e-07
6.09419e-06 5.86869e-05 -1.75043e-07
-3.55653e-07 -1.75043e-07 -5.01142e-06
0.00128761 -1.81585e-05 -6.72749e-07
-1.81585e-05 6.64633e-05 2.78633e-08
-6.72749e-07 2.78633e-08 -1.05525e-06
0.00123835 -3.15602e-07 -1.16488e-06
-3.15602e-07 5.90207e-05 -2.08456e-07
-1.16488e-06 -2.08456e-07 -7.88645e-06
0.00107428 5.1515e-06 -2.42299e-06
5.1515e-06 1.34907e-05 -4.53582e-08
-2.42299e-06 -4.53582e-08 -4.56949e-05
0.00123326 1.11531e-05 5.77233e-08
1.11531e-05 5.40231e-05 -1.24685e-07
5.77233e-08 -1.24685e-07 -1.31959e-05
0.00125617 -1.37987e-05 -1.43277e-08
-1.37987e-05 5.62094e-05 5.8227e-09
-1.43277e-08 5.8227e-09 -1.22388e-05
0.00127137 -5.17399e-06 5.80355e-08
-5.17399e-06 5.79213e-05 -1.1666e-07
5.80355e-08 -1.1666e-07 -7.87948e-06
0.00136582 -2.08676e-05 3.26658e-08
-2.08676e-05 9.2222e-05 -1.82713e-07
3.26658e-08 -1.82713e-07 2.4895e-05
0.00124221 1.01187e-05 -4.44379e-08
1.01187e-05 5.18251e-05 5.59161e-08
-4.44379e-08 5.59161e-08 -1.06683e-05
0.00131885 -1.56322e-06 -1.66683e-08
-1.56322e-06 7.1058e-05 4.36034e-07
-1.66683e-08 4.36034e-07 1.04614e-05
0.00132077 3.20825e-06 7.88262e-07
3.20825e-06 8.48668e-05 1.32296e-07
7.88262e-07 1.32296e-07 1.56129e-05
0.00123079 -6.62859e-06 5.52866e-07
-6.62859e-06 4.38308e-05 -3.86113e-07
5.52866e-07 -3.86113e-07 -2.45259e-05
0.00120199 -1.00559e-05 4.44821e-07
-1.00559e-05 9.50034e-06 7.43477e-07
4.44821e-07 7.43477e-07 -5.48363e-05
0.00150559 -2.48625e-05 6.63562e-07
-2.48625e-05 0.000156004 -1.58892e-07
6.63562e-07 -1.58892e-07 8.817e-05
0.00121861 6.05313e-06 -5.23981e-07
6.05313e-06 2.69526e-05 -1.32373e-07
-5.23981e-07 -1.32373e-07 -3.31066e-05
0.00146654 -7.59631e-06 -2.31243e-07
-7.59631e-06 0.000130771 2.88745e-07
-2.31243e-07 2.88745e-07 7.38127e-05
0.00118135 1.85526e-05 -1.76602e-06
1.85526e-05 2.65747e-05 7.11278e-08
-1.76602e-06 7.11278e-08 -3.9999e-05
0.00135532 -5.4239e-06 -1.8028e-06
-5.4239e-06 9.42106e-05 1.48135e-07
-1.8028e-06 1.48135e-07 3.00677e-05
0.00123809 2.08569e-05 -1.36705e-06
2.08569e-05 2.22766e-05 -3.26102e-07
-1.36705e-06 -3.26102e-07 -4.73332e-05
0.00143668 -7.88173e-06 -7.5602e-07
-7.88173e-06 0.00011334 8.01477e-08
-7.5602e-07 8.01477e-08 4.66383e-05
0.00098282 6.05937e-06 -2.43673e-06
6.05937e-06 1.3939e-05 1.46549e-06
-2.43673e-06 1.46549e-06 -2.5812e-05
0.00107987 -1.39969e-05 -1.08407e-06
-1.39969e-05 5.34472e-05 8.08686e-07
-1.08407e-06 8.08686e-07 -1.90476e-06
0.00111795 -2.92406e-05 -4.74832e-07
-2.92406e-05 6.30487e-05 7.18568e-07
-4.74832e-07 7.18568e-07 -9.24142e-07
0.00138789 -2.56987e-05 -3.92053e-07
-2.56987e-05 0.000124374 3.10518e-07
-3.92053e-07 3.10518e-07 6.27926e-05
0.00122138 -1.84453e-05 2.83464e-07
-1.84453e-05 1.15017e-05 7.10718e-07
2.83464e-07 7.10718e-07 -5.00668e-05
0.00124116 -2.68245e-05 9.49993e-08
-2.68245e-05 5.26151e-05 2.88772e-07
9.49993e-08 2.88772e-07 -7.8688e-06
0.00107961 -3.22909e-05 -1.068e-06
-3.22909e-05 1.3586e-05 4.74332e-07
-1.068e-06 4.74332e-07 -5.61667e-05
0.00122723 -3.11273e-05 4.28836e-07
-3.11273e-05 5.47766e-05 -1.32848e-06
4.28836e-07 -1.32848e-06 -3.59109e-06
0.00106576 -1.20553e-05 -1.36847e-06
-1.20553e-05 4.11374e-05 6.7355e-07
-1.36847e-06 6.7355e-07 -1.41962e-05
0.00103747 -2.55936e-05 -1.35992e-06
-2.55936e-05 2.43616e-05 3.52968e-07
-1.35992e-06 3.52968e-07 -4.10341e-05
0.000986423 3.60647e-06 -1.86711e-06
3.60647e-06 5.69913e-06 2.06013e-06
-1.86711e-06 2.06013e-06 -3.11787e-05
0.000915606 -9.59132e-06 -9.77837e-07
-9.59132e-06 -3.09113e-05 8.54073e-07
-9.77837e-07 8.54073e-07 -9.00082e-05
0.00131302 2.15023e-05 -4.35847e-08
2.15023e-05 7.33326e-05 -2.03079e-08
-4.35847e-08 -2.03079e-08 3.5476e-06
0.00146959 6.4148e-06 -1.59056e-07
6.4148e-06 0.000121176 8.55991e-08
-1.59056e-07 8.55991e-08 5.29997e-05
0.00129823 2.24979e-05 -4.42565e-07
2.24979e-05 4.2088e-05 -1.69891e-07
-4.42565e-07 -1.69891e-07 -3.01879e-05
0.00135118 -5.4583e-06 -1.35567e-07
-5.4583e-06 5.86551e-05 -1.51016e-07
-1.35567e-07 -1.51016e-07 -7.06614e-06
0.00106008 -1.17547e-05 7.30376e-08
-1.17547e-05 4.20303e-05 -3.59645e-08
7.30376e-08 -3.59645e-08 -1.27828e-05
0.00100687 -2.66722e-05 2.26484e-07
-2.66722e-05 1.31061e-05 -1.25252e-07
2.26484e-07 -1.25252e-07 -4.8892e-05
0.00114689 -3.30568e-05 -1.27831e-11
-3.30568e-05 7.17659e-05 -1.01982e-07
-1.27831e-11 -1.01982e-07 3.95531e-07
0.00129574 -2.46623e-05 -2.51734e-07
-2.46623e-05 6.76622e-05 -5.03381e-08
-2.51734e-07 -5.03381e-08 7.32324e-06
0.00132429 -1.76186e-05 3.33158e-07
-1.76186e-05 5.25618e-05 4.24043e-07
3.33158e-07 4.24043e-07 -4.47543e-06
0.00124426 -3.61849e-05 -3.86796e-08
-3.61849e-05 8.63546e-05 3.63933e-07
-3.86796e-08 3.63933e-07 1.49883e-05
0.00123282 -2.69204e-05 1.74857e-08
-2.69204e-05 4.24828e-05 3.12966e-07
1.74857e-08 3.12966e-07 -1.2881e-05
0.00129701 -3.27394e-05 3.63469e-07
-3.27394e-05 7.95458e-05 -1.33109e-06
3.63469e-07 -1.33109e-06 2.37869e-05
0.00111459 -2.65984e-05 7.81077e-08
-2.65984e-05 6.00097e-05 -1.74132e-08
7.81077e-08 -1.74132e-08 -2.44828e-06
0.0011716 -3.0746e-05 -1.45521e-07
-3.0746e-05 8.46863e-05 7.54406e-08
-1.45521e-07 7.54406e-08 1.65261e-05
0.00115032 -2.64536e-05 -4.79927e-08
-2.64536e-05 8.65123e-05 2.17979e-07
-4.79927e-08 2.17979e-07 1.73473e-05
0.00084709 5.9403e-06 -2.48913e-07
5.9403e-06 -6.34891e-05 -1.30132e-08
-2.48913e-07 -1.30132e-08 -0.000100089
0.000888883 -8.80152e-06 3.5186e-07
-8.80152e-06 -4.20824e-05 -4.55383e-07
3.5186e-07 -4.55383e-07 -0.000101129
0.00134493 2.62871e-05 6.57732e-07
2.62871e-05 8.17468e-05 6.43449e-07
6.57732e-07 6.43449e-07 1.01525e-05
0.00138977 1.76375e-05 6.46143e-07
1.76375e-05 6.74269e-05 4.01659e-07
6.46143e-07 4.01659e-07 -4.24459e-06
0.00136568 -6.51571e-06 1.76397e-07
-6.51571e-06 5.42064e-05 -1.44065e-06
1.76397e-07 -1.44065e-06 -6.52042e-06
0.00123764 -2.0473e-05 -2.89452e-07
-2.0473e-05 2.09863e-05 -4.77119e-07
-2.89452e-07 -4.77119e-07 -3.27482e-05
0.00110209 -2.72574e-05 6.10206e-07
-2.72574e-05 5.55273e-05 -1.7453e-07
6.10206e-07 -1.7453e-07 -5.42398e-06
0.00140697 -3.00755e-05 -7.50394e-08
-3.00755e-05 0.000107668 2.57508e-07
-7.50394e-08 2.57508e-07 5.94408e-05
0.000870199 -2.81969e-05 6.35394e-07
-2.81969e-05 -4.97156e-05 -1.40852e-06
6.35394e-07 -1.40852e-06 -0.000117788
0.00119025 -3.64195e-05 1.54745e-06
-3.64195e-05 8.84678e-05 -1.00194e-06
1.54745e-06 -1.00194e-06 9.95085e-06
0.0012929 -3.79935e-05 1.53975e-06
-3.79935e-05 9.65597e-05 1.26898e-06
1.53975e-06 1.26898e-06 2.48892e-05
0.000721452 8.336e-06 1.07718e-06
8.336e-06 -0.000126971 -2.7285e-06
1.07718e-06 -2.7285e-06 -0.000163008
0.00114151 -5.93308e-06 9.39248e-07
-5.93308e-06 8.38753e-05 -1.20605e-06
9.39248e-07 -1.20605e-06 2.78022e-05
0.00110449 -2.50264e-05 7.93261e-07
-2.50264e-05 6.93884e-05 -6.6353e-07
7.93261e-07 -6.6353e-07 -1.81904e-06
0.00113648 -3.00649e-05 5.60208e-07
-3.00649e-05 6.55066e-05 -3.05021e-08
5.60208e-07 -3.05021e-08 1.78551e-08
0.00120521 -3.17304e-05 7.27307e-07
-3.17304e-05 0.000107544 4.34096e-08
7.27307e-07 4.34096e-08 3.18487e-05
0.00111568 -3.12609e-05 2.13882e-07
-3.12609e-05 5.27561e-05 -5.27401e-08
2.13882e-07 -5.27401e-08 -1.8058e-05
0.000908 -1.1176e-05 -2.52862e-06
-1.1176e-05 -3.83363e-05 -3.3694e-06
-2.52862e-06 -3.3694e-06 -4.3543e-05
0.000991797 -4.18984e-06 -1.94605e-06
-4.18984e-06 6.22794e-06 -2.0752e-06
-1.94605e-06 -2.0752e-06 -2.95217e-05
0.00125101 1.81115e-05 -3.36166e-07
1.81115e-05 6.05387e-05 -6.70269e-08
-3.36166e-07 -6.70269e-08 -2.35477e-06
0.00105001 3.31567e-06 -1.27037e-06
3.31567e-06 3.6223e-05 -1.12422e-06
-1.27037e-06 -1.12422e-06 -1.88269e-05
0.00105026 5.4646e-06 -1.38061e-06
5.4646e-06 3.65568e-05 -8.20486e-07
-1.38061e-06 -8.20486e-07 -1.762e-05
0.00101078 1.66735e-05 -6.47288e-07
1.66735e-05 1.45999e-05 -3.0947e-07
-6.47288e-07 -3.0947e-07 -5.00695e-05
0.00115249 2.90589e-05 -5.17831e-07
2.90589e-05 4.98783e-05 -8.48734e-07
-5.17831e-07 -8.48734e-07 -1.24783e-05
0.00118897 2.83106e-05 4.05829e-08
2.83106e-05 4.04496e-05 -1.73732e-07
4.05829e-08 -1.73732e-07 -2.55217e-05
0.00109093 2.60923e-05 -4.17823e-07
2.60923e-05 5.82249e-05 -4.06545e-07
-4.17823e-07 -4.06545e-07 -6.08158e-06
0.00113527 3.17408e-05 -1.12915e-06
3.17408e-05 6.80955e-05 -3.72636e-07
-1.12915e-06 -3.72636e-07 -2.26604e-06
0.00125592 3.19826e-05 -1.20317e-06
3.19826e-05 0.000106784 -6.27246e-07
-1.20317e-06 -6.27246e-07 4.33254e-05
0.000998526 -3.5003e-06 8.93768e-08
-3.5003e-06 7.9458e-06 -1.33188e-08
8.93768e-08 -1.33188e-08 -2.71326e-05
0.00105584 4.95216e-06 -2.15187e-08
4.95216e-06 3.836e-05 -3.39901e-08
-2.15187e-08 -3.39901e-08 -1.67825e-05
0.00107642 2.26258e-05 -9.08283e-08
2.26258e-05 4.54004e-05 -1.07363e-07
-9.08283e-08 -1.07363e-07 -1.7872e-05
0.00109406 1.61867e-05 -7.00955e-08
1.61867e-05 5.81835e-05 -1.89613e-08
-7.00955e-08 -1.89613e-08 -7.71351e-06
0.00112101 2.68004e-05 -2.85529e-07
2.68004e-05 6.86503e-05 -7.03384e-08
-2.85529e-07 -7.03384e-08 -1.05134e-06
0.00123564 1.65068e-05 -2.73158e-07
1.65068e-05 4.55081e-05 -2.42113e-07
-2.73158e-07 -2.42113e-07 -1.73864e-05
0.0011823 3.23071e-05 3.98828e-07
3.23071e-05 5.70358e-05 -2.86665e-08
3.98828e-07 -2.86665e-08 -8.48874e-06
0.00114927 3.09984e-05 1.09812e-07
3.09984e-05 2.19509e-05 3.29051e-07
1.09812e-07 3.29051e-07 -4.15421e-05
0.00103342 3.04865e-05 3.40386e-07
3.04865e-05 2.93639e-05 4.80506e-07
3.40386e-07 4.80506e-07 -4.33236e-05
0.0012137 3.49433e-05 4.40442e-09
3.49433e-05 9.25475e-05 -8.12752e-08
4.40442e-09 -8.12752e-08 1.74503e-05
0.0010618 6.78505e-06 1.21675e-06
6.78505e-06 4.07654e-05 1.23841e-06
1.21675e-06 1.23841e-06 -1.43037e-05
0.000955408 1.67817e-05 1.20309e-06
1.67817e-05 -8.92576e-06 8.13949e-07
1.20309e-06 8.13949e-07 -7.70889e-05
0.0011158 3.11007e-05 1.31217e-07
3.11007e-05 6.39187e-05 2.72512e-07
1.31217e-07 2.72512e-07 -6.34425e-06
0.00101082 2.55483e-05 5.3475e-07
2.55483e-05 1.54013e-05 -2.89043e-08
5.3475e-07 -2.89043e-08 -5.70193e-05
0.0011723 3.04887e-05 -4.45868e-08
3.04887e-05 8.87534e-05 -2.23652e-07
-4.45868e-08 -2.23652e-07 1.59507e-05
0.0012261 1.88485e-05 -3.45912e-07
1.88485e-05 2.00301e-05 -4.47849e-07
-3.45912e-07 -4.47849e-07 -3.18938e-05
0.00126701 3.71582e-05 8.45686e-07
3.71582e-05 9.85197e-05 8.56191e-08
8.45686e-07 8.56191e-08 2.633e-05
0.000740582 3.14395e-05 6.98333e-07
3.14395e-05 -0.000186429 2.36768e-07
6.98333e-07 2.36768e-07 -0.000250365
0.00135553 3.62139e-05 1.51644e-06
3.62139e-05 0.000178539 1.71292e-06
1.51644e-06 1.71292e-06 0.000100543
0.000807368 3.33825e-05 5.59745e-07
3.33825e-05 -0.000104892 5.32158e-07
5.59745e-07 5.32158e-07 -0.000188898
0.000998234 -3.45404e-06 -1.34562e-06
-3.45404e-06 6.44291e-06 -2.12919e-06
-1.34562e-06 -2.12919e-06 -2.78362e-05
0.000972243 5.78297e-06 3.29927e-07
5.78297e-06 -2.42063e-06 4.35573e-07
3.29927e-07 4.35573e-07 -5.77108e-05
0.000965463 1.61887e-05 7.905e-07
1.61887e-05 9.17099e-07 1.07733e-06
7.905e-07 1.07733e-06 -6.7743e-05
0.000877116 3.53911e-06 -6.65175e-07
3.53911e-06 -4.83342e-05 -1.31624e-06
-6.65175e-07 -1.31624e-06 -0.000103289
0.00105472 8.11617e-06 6.27063e-08
8.11617e-06 3.94263e-05 2.35558e-08
6.27063e-08 2.35558e-08 -1.34989e-05
0.00110734 1.57168e-05 -2.1955e-07
1.57168e-05 7.17362e-05 -4.54465e-07
-2.1955e-07 -4.54465e-07 4.94666e-06
0.00121518 2.33881e-05 2.34993e-07
2.33881e-05 0.000128125 2.04782e-07
2.34993e-07 2.04782e-07 5.29054e-05
0.000947607 9.7884e-06 4.67283e-07
9.7884e-06 -6.23716e-06 1.14924e-06
4.67283e-07 1.14924e-06 -7.35006e-05
0.00104697 4.91354e-06 4.24771e-07
4.91354e-06 3.70151e-05 1.21191e-06
4.24771e-07 1.21191e-06 -1.52558e-05
0.00101094 -9.94222e-07 4.82561e-07
-9.94222e-07 8.56252e-06 1.97356e-06
4.82561e-07 1.97356e-06 -2.34976e-05
0.00101209 -2.50866e-06 5.95137e-08
-2.50866e-06 1.00666e-05 5.84582e-09
5.95137e-08 5.84582e-09 -2.23143e-05
0.00156568 -6.85369e-06 1.18552e-06
-6.85369e-06 0.000273785 2.09441e-06
1.18552e-06 2.09441e-06 0.000274233
0.00101009 -2.93885e-06 -8.04931e-07
-2.93885e-06 1.01367e-05 -2.02177e-06
-8.04931e-07 -2.02177e-06 -2.27264e-05
0.00158246 -8.25274e-06 -1.24826e-06
-8.25274e-06 0.000285182 -1.30941e-06
-1.24826e-06 -1.30941e-06 0.000284962
0.00121381 -8.5113e-06 6.58821e-06
-8.5113e-06 0.000101059 6.85928e-06
6.58821e-06 6.85928e-06 0.000116121
0.00160338 -9.56141e-06 -4.42602e-06
-9.56141e-06 0.000298543 -4.66697e-06
-4.42602e-06 -4.66697e-06 0.000297631
0.00115653 -1.05248e-05 2.60101e-06
-1.05248e-05 7.68259e-05 2.58364e-06
2.60101e-06 2.58364e-06 9.14098e-05
0.00242721 -1.64132e-05 -3.42475e-06
-1.64132e-05 0.000707027 -1.69497e-06
-3.42475e-06 -1.69497e-06 0.000727194
0.000911489 1.05815e-05 1.93235e-06
1.05815e-05 -3.887e-05 -3.23988e-06
1.93235e-06 -3.23988e-06 -4.30786e-05
0.000916979 1.15924e-05 -1.4527e-07
1.15924e-05 -3.23323e-05 6.55615e-10
-1.4527e-07 6.55615e-10 -3.80463e-05
0.00247896 1.74875e-05 9.09397e-06
1.74875e-05 0.00073665 -3.97141e-06
9.09397e-06 -3.97141e-06 0.000755898
0.000917186 1.24836e-05 -3.05816e-06
1.24836e-05 -2.89965e-05 3.24708e-06
-3.05816e-06 3.24708e-06 -3.59587e-05
0.00252041 1.95962e-05 -2.23872e-07
1.95962e-05 0.000761515 -5.18777e-08
-2.23872e-07 -5.18777e-08 0.000779676
0.00251759 2.1744e-05 -1.1221e-05
2.1744e-05 0.000764259 3.84895e-06
-1.1221e-05 3.84895e-06 0.000781635
0.00124513 1.06449e-05 -5.57991e-07
1.06449e-05 5.33117e-05 -8.15167e-08
-5.57991e-07 -8.15167e-08 -9.27104e-06
0.00128603 -7.31909e-06 -4.49719e-07
-7.31909e-06 6.50511e-05 -3.01825e-07
-4.49719e-07 -3.01825e-07 -7.63402e-07
0.0012977 -1.70635e-06 7.09453e-07
-1.70635e-06 6.02751e-05 -1.10197e-07
7.09453e-07 -1.10197e-07 -1.59093e-07
0.00136196 -2.14276e-05 -7.60357e-07
-2.14276e-05 8.97541e-05 2.19696e-07
-7.60357e-07 2.19696e-07 2.22755e-05
0.001266 -1.76431e-05 -4.74198e-07
-1.76431e-05 6.09504e-05 6.61909e-08
-4.74198e-07 6.61909e-08 -7.64889e-06
0.00123102 1.38546e-05 -1.09152e-06
1.38546e-05 5.32292e-05 -1.01997e-07
-1.09152e-06 -1.01997e-07 -1.40032e-05
0.00129212 6.40501e-06 2.24058e-08
6.40501e-06 7.15704e-05 5.33565e-08
2.24058e-08 5.33565e-08 2.15506e-06
0.00124702 -9.87494e-06 2.21322e-07
-9.87494e-06 5.09882e-05 1.74069e-08
2.21322e-07 1.74069e-08 -1.7251e-05
0.00123825 -1.10161e-05 -1.56243e-08
-1.10161e-05 2.53535e-05 1.27666e-08
-1.56243e-08 1.27666e-08 -3.93196e-05
0.00138662 -2.4324e-05 -3.50439e-07
-2.4324e-05 9.92264e-05 -1.8943e-08
-3.50439e-07 -1.8943e-08 3.06085e-05
0.00123982 6.06157e-06 -2.21466e-07
6.06157e-06 3.85512e-05 1.26449e-07
-2.21466e-07 1.26449e-07 -2.1697e-05
0.00135243 -6.57582e-06 1.02263e-06
-6.57582e-06 7.64058e-05 -3.99445e-07
1.02263e-06 -3.99445e-07 2.06382e-05
0.00125199 1.23251e-05 9.63609e-08
1.23251e-05 5.64879e-05 3.80528e-07
9.63609e-08 3.80528e-07 -1.18403e-05
0.0012383 -1.6895e-05 6.39854e-07
-1.6895e-05 4.92629e-05 -5.75123e-07
6.39854e-07 -5.75123e-07 -1.90315e-05
0.00130688 -1.81083e-05 -1.59126e-07
-1.81083e-05 5.39226e-05 8.92339e-07
-1.59126e-07 8.92339e-07 -9.89088e-06
0.00135411 3.69791e-06 -6.41397e-07
3.69791e-06 7.50739e-05 7.92517e-08
-6.41397e-07 7.92517e-08 2.52618e-05
0.00130468 2.17568e-05 -7.92272e-07
2.17568e-05 6.99286e-05 -3.1514e-07
-7.92272e-07 -3.1514e-07 2.55537e-07
0.00144689 6.57709e-06 -1.40471e-06
6.57709e-06 0.000111285 7.05927e-08
-1.40471e-06 7.05927e-08 4.32349e-05
0.00133212 2.29623e-05 -1.5916e-06
2.29623e-05 5.66226e-05 -5.28048e-07
-1.5916e-06 -5.28048e-07 -1.62553e-05
0.00140411 -5.73711e-06 -1.73514e-07
-5.73711e-06 8.41428e-05 4.11769e-07
-1.73514e-07 4.11769e-07 1.84817e-05
0.00107002 -1.19649e-05 -1.19642e-06
-1.19649e-05 4.58971e-05 6.26436e-07
-1.19642e-06 6.26436e-07 -8.78106e-06
0.00108355 -2.69338e-05 -2.09379e-07
-2.69338e-05 5.03932e-05 4.89409e-07
-2.09379e-07 4.89409e-07 -1.11341e-05
0.0011542 -3.31285e-05 -7.90512e-07
-3.31285e-05 7.63175e-05 1.3229e-06
-7.90512e-07 1.3229e-06 4.75034e-06
0.00137156 -2.49952e-05 -6.96475e-08
-2.49952e-05 0.000103749 2.24259e-07
-6.96475e-08 2.24259e-07 4.29524e-05
0.0012373 -1.79766e-05 4.25955e-07
-1.79766e-05 1.48779e-05 1.16494e-06
4.25955e-07 1.16494e-06 -4.11052e-05
0.00125061 -2.67294e-05 6.64987e-07
-2.67294e-05 5.13456e-05 3.29436e-07
6.64987e-07 3.29436e-07 -4.02236e-06
0.00125507 -3.62121e-05 -1.21275e-06
-3.62121e-05 9.26674e-05 -9.39003e-08
-1.21275e-06 -9.39003e-08 2.07215e-05
0.00114133 -3.11927e-05 -9.30305e-07
-3.11927e-05 4.90781e-06 -3.50929e-06
-9.30305e-07 -3.50929e-06 -4.89869e-05
0.00112212 -2.66409e-05 -7.32363e-07
-2.66409e-05 6.35462e-05 1.25778e-07
-7.32363e-07 1.25778e-07 1.11003e-06
0.00110765 -3.00314e-05 -1.11948e-06
-3.00314e-05 5.24173e-05 -1.42588e-08
-1.11948e-06 -1.42588e-08 -1.5852e-05
0.00114839 -2.66055e-05 -1.08079e-06
-2.66055e-05 8.55593e-05 6.99414e-07
-1.08079e-06 6.99414e-07 1.62063e-05
0.000702423 5.38913e-06 -1.57387e-06
5.38913e-06 -0.000134646 2.0452e-06
-1.57387e-06 2.0452e-06 -0.000172122
0.000908413 -8.39632e-06 -7.15842e-07
-8.39632e-06 -3.29814e-05 9.52676e-07
-7.15842e-07 9.52676e-07 -9.18543e-05
0.00130974 2.55008e-05 2.11842e-07
2.55008e-05 6.23404e-05 -3.54804e-07
2.11842e-07 -3.54804e-07 -9.611e-06
0.00142832 1.72469e-05 -2.15269e-07
1.72469e-05 8.84215e-05 3.19427e-07
-2.15269e-07 3.19427e-07 1.72949e-05
0.00140319 -6.2916e-06 -2.79024e-07
-6.2916e-06 7.51101e-05 1.82426e-07
-2.79024e-07 1.82426e-07 1.44136e-05
0.00111906 -2.69058e-05 5.87529e-08
-2.69058e-05 6.32514e-05 4.73036e-08
5.87529e-08 4.73036e-08 2.31621e-06
0.00105595 -3.03627e-05 2.96239e-07
-3.03627e-05 3.8502e-05 -2.42035e-07
2.96239e-07 -2.42035e-07 -2.88341e-05
0.00116893 -3.61355e-05 -4.88431e-08
-3.61355e-05 8.03193e-05 -1.00655e-08
-4.88431e-08 -1.00655e-08 1.35752e-06
0.0012843 -2.06178e-05 6.95938e-08
-2.06178e-05 4.27614e-05 -2.14278e-07
6.95938e-08 -2.14278e-07 -1.16053e-05
0.00126282 -3.67075e-05 -8.29547e-08
-3.67075e-05 8.31595e-05 -5.1577e-07
-8.29547e-08 -5.1577e-07 1.34277e-05
0.00127556 -3.04112e-05 -3.47798e-07
-3.04112e-05 4.70601e-05 -4.65387e-07
-3.47798e-07 -4.65387e-07 -1.72761e-06
0.000712717 8.30721e-06 1.45606e-07
8.30721e-06 -0.000131007 -6.64744e-07
1.45606e-07 -6.64744e-07 -0.000166805
0.00114524 -3.0206e-05 1.52521e-08
-3.0206e-05 7.0039e-05 2.12303e-08
1.52521e-08 2.12303e-08 4.42596e-06
0.00111288 -3.11988e-05 -7.41616e-07
-3.11988e-05 5.08368e-05 4.66675e-08
-7.41616e-07 4.66675e-08 -1.94108e-05
0.00120775 -3.15774e-05 -4.08379e-07
-3.15774e-05 0.000109048 1.9245e-07
-4.08379e-07 1.9245e-07 3.38915e-05
0.00119227 -2.61035e-05 -1.1886e-07
-2.61035e-05 0.000112322 1.144e-07
-1.1886e-07 1.144e-07 4.13354e-05
0.00101265 -7.34088e-06 4.05093e-08
-7.34088e-06 1.97526e-05 2.11292e-07
4.05093e-08 2.11292e-07 -3.71559e-05
0.00145919 2.75619e-05 4.12622e-07
2.75619e-05 0.00012491 1.67213e-06
4.12622e-07 1.67213e-06 5.28073e-05
0.00143325 1.77258e-05 6.37067e-07
1.77258e-05 8.13826e-05 -1.4534e-08
6.37067e-07 -1.4534e-08 1.10259e-05
0.00127103 -9.87951e-06 5.25489e-08
-9.87951e-06 3.08822e-06 -1.76322e-06
5.25489e-08 -1.76322e-06 -5.04295e-05
0.00142052 -2.52594e-05 -8.23998e-08
-2.52594e-05 8.10122e-05 -6.35584e-07
-8.23998e-08 -6.35584e-07 3.77119e-05
0.00112767 -3.0346e-05 5.48952e-07
-3.0346e-05 6.51481e-05 -3.09569e-07
5.48952e-07 -3.09569e-07 1.68735e-07
0.00132997 -3.69303e-05 1.66691e-06
-3.69303e-05 8.08484e-05 1.62452e-06
1.66691e-06 1.62452e-06 2.13459e-05
0.000946345 -3.18685e-05 6.82282e-07
-3.18685e-05 -1.26717e-05 -1.7387e-06
6.82282e-07 -1.7387e-06 -8.91763e-05
0.0013576 -4.05976e-05 1.32099e-06
-4.05976e-05 0.000165457 -1.14199e-07
1.32099e-06 -1.14199e-07 8.12343e-05
0.000715091 7.09882e-06 8.21941e-07
7.09882e-06 -0.000132225 -2.5559e-06
8.21941e-07 -2.5559e-06 -0.000165804
0.0011557 -3.08187e-06 8.22931e-07
-3.08187e-06 9.03267e-05 -1.27251e-06
8.22931e-07 -1.27251e-06 3.56672e-05
0.00126764 -2.50035e-05 -3.14743e-08
-2.50035e-05 0.000151691 1.35923e-08
-3.14743e-08 1.35923e-08 8.192e-05
0.0011092 -2.94871e-05 8.56273e-07
-2.94871e-05 7.04013e-05 -9.8637e-07
8.56273e-07 -9.8637e-07 -1.08185e-05
0.00108488 -3.1275e-05 3.1706e-07
-3.1275e-05 3.7597e-05 -2.94472e-07
3.1706e-07 -2.94472e-07 -3.18397e-05
0.00114786 -3.26769e-05 9.65798e-07
-3.26769e-05 7.08833e-05 2.069e-07
9.65798e-07 2.069e-07 -6.06873e-06
0.000995965 -3.34708e-06 -1.66932e-06
-3.34708e-06 6.6449e-06 -2.13464e-06
-1.66932e-06 -2.13464e-06 -2.84242e-05
0.00105674 4.91531e-06 -1.27367e-06
4.91531e-06 3.89759e-05 -1.22024e-06
-1.27367e-06 -1.22024e-06 -1.62487e-05
0.00126669 1.78797e-05 -8.21984e-08
1.78797e-05 6.10823e-05 -1.20287e-08
-8.21984e-08 -1.20287e-08 -2.14383e-06
0.00110064 1.65667e-05 -9.53161e-07
1.65667e-05 6.16498e-05 -4.80138e-07
-9.53161e-07 -4.80138e-07 -4.41002e-06
0.0011037 2.34008e-05 -6.91177e-07
2.34008e-05 5.93445e-05 -3.52144e-07
-6.91177e-07 -3.52144e-07 -3.49874e-06
0.00105757 2.64874e-05 -6.68459e-07
2.64874e-05 3.78437e-05 -2.16172e-07
-6.68459e-07 -2.16172e-07 -3.22862e-05
0.00118037 3.21552e-05 -5.12766e-07
3.21552e-05 5.51699e-05 -8.91966e-07
-5.12766e-07 -8.91966e-07 -1.04567e-05
0.00122677 3.10004e-05 -1.29396e-08
3.10004e-05 5.76806e-05 1.0355e-07
-1.29396e-08 1.0355e-07 -5.34539e-06
0.000953047 2.9571e-05 -3.495e-07
2.9571e-05 -9.16333e-06 -3.92143e-07
-3.495e-07 -3.92143e-07 -8.21921e-05
0.00124589 3.54735e-05 -9.98906e-07
3.54735e-05 0.000108267 -5.39944e-07
-9.98906e-07 -5.39944e-07 3.21526e-05
0.00105861 6.63948e-06 4.65666e-08
6.63948e-06 3.95382e-05 -3.8511e-08
4.65666e-08 -3.8511e-08 -1.5586e-05
0.00103911 1.82121e-05 3.66409e-07
1.82121e-05 3.21749e-05 2.54758e-07
3.66409e-07 2.54758e-07 -3.56836e-05
0.00116512 3.16258e-05 -1.61678e-07
3.16258e-05 8.86943e-05 -3.32647e-07
-1.61678e-07 -3.32647e-07 1.90481e-05
0.00106887 2.5552e-05 -3.03305e-07
2.5552e-05 4.4687e-05 1.44775e-08
-3.03305e-07 1.44775e-08 -2.72567e-05
0.00112737 3.00356e-05 -6.01835e-07
3.00356e-05 6.88611e-05 -3.41638e-07
-6.01835e-07 -3.41638e-07 -3.55822e-06
0.00140637 1.89276e-05 -3.52372e-07
1.89276e-05 0.00010684 -4.04057e-07
-3.52372e-07 -4.04057e-07 5.53828e-05
0.00131506 3.76195e-05 5.1548e-07
3.76195e-05 0.000119509 -4.69135e-08
5.1548e-07 -4.69135e-08 4.79659e-05
0.000980194 3.2914e-05 -5.42773e-07
3.2914e-05 -6.4694e-05 7.46936e-07
-5.42773e-07 7.46936e-07 -0.000127297
0.00124444 3.49839e-05 6.98779e-07
3.49839e-05 0.000125764 5.83928e-07
6.98779e-07 5.83928e-07 4.71129e-05
0.000996982 3.53844e-05 -1.07896e-06
3.53844e-05 -1.30485e-05 -1.8083e-07
-1.07896e-06 -1.8083e-07 -9.77654e-05
0.000968664 1.95986e-05 1.07069e-06
1.95986e-05 6.79395e-08 1.07259e-06
1.07069e-06 1.07259e-06 -6.91399e-05
0.00101709 2.90807e-05 7.46755e-07
2.90807e-05 2.19969e-05 1.43331e-07
7.46755e-07 1.43331e-07 -5.55243e-05
0.0011661 3.31563e-05 2.4931e-07
3.31563e-05 8.70628e-05 5.18284e-07
2.4931e-07 5.18284e-07 1.0988e-05
0.000994487 3.00509e-05 9.69185e-07
3.00509e-05 3.73331e-06 -2.46963e-08
9.69185e-07 -2.46963e-08 -7.30764e-05
0.00163299 1.12417e-05 2.68628e-07
1.12417e-05 0.000164632 4.41258e-08
2.68628e-07 4.41258e-08 0.000121971
0.00114571 3.142e-05 1.85275e-06
3.142e-05 -3.75002e-05 2.20053e-08
1.85275e-06 2.20053e-08 -8.7365e-05
0.00122672 4.09967e-05 1.67088e-06
4.09967e-05 7.26674e-05 -3.8522e-07
1.67088e-06 -3.8522e-07 -9.55042e-06
0.000954904 3.47172e-05 8.94593e-07
3.47172e-05 -1.34017e-05 1.20785e-06
8.94593e-07 1.20785e-06 -0.000105409
0.00105733 6.31439e-06 -5.34316e-07
6.31439e-06 3.96034e-05 -8.74894e-07
-5.34316e-07 -8.74894e-07 -1.52004e-05
0.00105907 1.7197e-05 2.15206e-07
1.7197e-05 4.69534e-05 3.32043e-07
2.15206e-07 3.32043e-07 -2.12056e-05
0.00113877 2.6041e-05 4.06289e-07
2.6041e-05 9.00459e-05 4.38852e-07
4.06289e-07 4.38852e-07 1.35872e-05
0.00105164 8.59943e-06 -4.88468e-07
8.59943e-06 3.80331e-05 -1.28589e-06
-4.88468e-07 -1.28589e-06 -1.49063e-05
0.000958147 1.38347e-05 -6.34127e-07
1.38347e-05 -1.5487e-06 -1.24178e-06
-6.34127e-07 -1.24178e-06 -6.93207e-05
0.00104984 5.36093e-06 7.70646e-08
5.36093e-06 3.84373e-05 2.83354e-08
7.70646e-08 2.83354e-08 -1.38572e-05
0.0011157 2.10337e-05 -1.31728e-07
2.10337e-05 7.90233e-05 -3.52405e-07
-1.31728e-07 -3.52405e-07 3.07955e-06
0.00101933 1.18527e-05 1.7932e-07
1.18527e-05 2.91651e-05 3.42096e-07
1.7932e-07 3.42096e-07 -3.77991e-05
0.00119523 2.52531e-05 4.17091e-07
2.52531e-05 0.000117023 3.74082e-07
4.17091e-07 3.74082e-07 3.52289e-05
0.000989482 6.08375e-06 4.96842e-07
6.08375e-06 1.70948e-05 9.3622e-07
4.96842e-07 9.3622e-07 -5.93607e-05
0.000945003 1.92248e-05 5.72458e-07
1.92248e-05 -7.31884e-06 1.20524e-06
5.72458e-07 1.20524e-06 -7.46398e-05
0.00103872 -2.69167e-07 2.92388e-07
-2.69167e-07 3.43683e-05 1.21087e-06
2.92388e-07 1.21087e-06 -1.78054e-05
0.0010145 4.96594e-07 2.86282e-07
4.96594e-07 9.96991e-06 1.9457e-06
2.86282e-07 1.9457e-06 -2.20851e-05
0.00101691 -1.61412e-06 4.68039e-08
-1.61412e-06 1.16266e-05 1.0167e-08
4.68039e-08 1.0167e-08 -2.04776e-05
0.00156326 -4.89123e-06 8.01252e-07
-4.89123e-06 0.000269909 2.08557e-06
8.01252e-07 2.08557e-06 0.000270903
0.00101853 -2.3735e-06 -5.63587e-07
-2.3735e-06 1.3349e-05 -1.98008e-06
-5.63587e-07 -1.98008e-06 -1.9057e-05
0.00158087 -6.51161e-06 -9.71257e-07
-6.51161e-06 0.000281434 -1.30918e-06
-9.71257e-07 -1.30918e-06 0.000281809
0.00121611 -6.74491e-06 5.1e-06
-6.74491e-06 9.83701e-05 6.87107e-06
5.1e-06 6.87107e-06 0.000114094
0.00159823 -7.97186e-06 -3.48687e-06
-7.97186e-06 0.000293093 -4.68703e-06
-3.48687e-06 -4.68703e-06 0.000292802
0.00115927 -8.76858e-06 2.02517e-06
-8.76858e-06 7.41633e-05 2.60523e-06
2.02517e-06 2.60523e-06 8.94555e-05
0.0011022 -1.06648e-05 -1.7658e-06
-1.06648e-05 5.00532e-05 -1.64739e-06
-1.7658e-06 -1.64739e-06 6.48654e-05
0.000919201 9.20017e-06 1.61036e-06
9.20017e-06 -3.94923e-05 -3.23598e-06
1.61036e-06 -3.23598e-06 -4.22024e-05
0.000929176 1.05842e-05 -9.07497e-08
1.05842e-05 -3.04584e-05 1.16495e-08
-9.07497e-08 1.16495e-08 -3.47412e-05
0.00242981 1.52119e-05 8.00445e-06
1.52119e-05 0.000707614 -4.00007e-06
8.00445e-06 -4.00007e-06 0.000728025
0.000931636 1.15948e-05 -2.61587e-06
1.15948e-05 -2.53484e-05 3.2498e-06
-2.61587e-06 3.2498e-06 -3.11306e-05
0.00247741 1.7427e-05 -3.05078e-07
1.7427e-05 0.000736215 -4.39586e-08
-3.05078e-07 -4.39586e-08 0.000755373
0.0025045 1.9561e-05 -1.0609e-05
1.9561e-05 0.000753897 3.95047e-06
-1.0609e-05 3.95047e-06 0.000772065
0.00125925 6.13682e-06 3.54749e-07
6.13682e-06 4.93274e-05 4.16617e-07
3.54749e-07 4.16617e-07 -1.11113e-05
0.00127941 -1.20704e-05 -2.85491e-07
-1.20704e-05 4.35543e-05 -3.03105e-07
-2.85491e-07 -3.03105e-07 -2.14648e-05
0.0012522 -5.68337e-06 1.8289e-06
-5.68337e-06 2.87762e-05 -1.58627e-06
1.8289e-06 -1.58627e-06 -2.58341e-05
0.00127346 -2.38019e-05 -1.17712e-06
-2.38019e-05 4.51285e-05 4.58202e-08
-1.17712e-06 4.58202e-08 -2.42691e-05
0.00125744 -1.19684e-05 -3.51119e-07
-1.19684e-05 5.55046e-05 3.29206e-07
-3.51119e-07 3.29206e-07 -1.26623e-05
0.00126613 5.67885e-06 -4.15891e-07
5.67885e-06 5.95354e-05 -1.76946e-07
-4.15891e-07 -1.76946e-07 -1.00575e-05
0.00126451 1.44378e-05 2.16952e-07
1.44378e-05 6.05416e-05 -5.3595e-08
2.16952e-07 -5.3595e-08 -8.16673e-06
0.00127021 -2.0512e-05 -2.47772e-07
-2.0512e-05 6.28415e-05 3.94818e-07
-2.47772e-07 3.94818e-07 -5.53964e-06
0.00128333 -1.73279e-05 3.42122e-07
-1.73279e-05 4.36594e-05 -9.73748e-08
3.42122e-07 -9.73748e-08 -1.94397e-05
0.00127868 2.30606e-06 2.5766e-07
2.30606e-06 3.75467e-05 -1.35831e-07
2.5766e-07 -1.35831e-07 -1.24775e-05
0.00122661 7.80585e-06 2.6714e-07
7.80585e-06 4.43634e-05 -1.34561e-07
2.6714e-07 -1.34561e-07 -2.40273e-05
0.00130541 -2.74336e-05 4.83055e-07
-2.74336e-05 8.09999e-05 -1.41289e-07
4.83055e-07 -1.41289e-07 1.41608e-05
0.00130534 -7.3975e-06 -7.00578e-07
-7.3975e-06 3.79361e-05 1.19922e-06
-7.00578e-07 1.19922e-06 -1.52408e-05
0.00128367 2.48664e-05 -9.10097e-07
2.48664e-05 4.71394e-05 -1.33359e-06
-9.10097e-07 -1.33359e-06 -2.51643e-05
0.00146566 1.69599e-05 -7.82109e-07
1.69599e-05 0.0001089 3.30504e-07
-7.82109e-07 3.30504e-07 3.83131e-05
0.00143958 -6.15744e-06 -5.56966e-09
-6.15744e-06 9.53778e-05 1.14489e-06
-5.56966e-09 1.14489e-06 3.47295e-05
0.00113275 -2.64114e-05 -5.71997e-07
-2.64114e-05 6.94236e-05 3.39038e-07
-5.71997e-07 3.39038e-07 8.51113e-06
0.00124518 -3.25698e-05 -2.13404e-07
-3.25698e-05 0.000128338 7.40131e-07
-2.13404e-07 7.40131e-07 6.174e-05
0.00114573 -3.5836e-05 -1.1794e-06
-3.5836e-05 7.13089e-05 1.53278e-06
-1.1794e-06 1.53278e-06 -8.10101e-06
0.00133544 -2.07813e-05 1.84018e-07
-2.07813e-05 6.66211e-05 4.06438e-07
1.84018e-07 4.06438e-07 1.16227e-05
0.00114329 -3.06906e-05 -6.50658e-07
-3.06906e-05 -1.40532e-05 -5.9214e-07
-6.50658e-07 -5.9214e-07 -6.33884e-05
0.00123216 -3.54866e-05 -1.81251e-06
-3.54866e-05 6.94302e-05 -2.04596e-06
-1.81251e-06 -2.04596e-06 1.64969e-06
0.0011542 -3.03487e-05 -6.02105e-07
-3.03487e-05 7.4669e-05 1.43717e-07
-6.02105e-07 1.43717e-07 8.93136e-06
0.00110772 -3.11007e-05 -1.73313e-06
-3.11007e-05 4.7864e-05 2.71826e-07
-1.73313e-06 2.71826e-07 -2.18223e-05
0.0012111 -3.14339e-05 -1.39497e-06
-3.14339e-05 0.000110974 2.22097e-07
-1.39497e-06 2.22097e-07 3.6352e-05
0.000702899 9.73068e-06 -7.92304e-07
9.73068e-06 -0.00013558 1.35637e-06
-7.92304e-07 1.35637e-06 -0.000171151
0.00128486 -2.74702e-05 -8.42094e-07
-2.74702e-05 0.000157625 1.07554e-06
-8.42094e-07 1.07554e-06 8.68412e-05
0.00088472 -8.39772e-06 -7.66625e-07
-8.39772e-06 -4.38741e-05 1.56449e-06
-7.66625e-07 1.56449e-06 -0.000101679
0.00137639 2.69175e-05 -4.90215e-08
2.69175e-05 9.01176e-05 3.6853e-07
-4.90215e-08 3.6853e-07 1.87812e-05
0.001415 1.65963e-05 2.53494e-07
1.65963e-05 6.90295e-05 2.12022e-07
2.53494e-07 2.12022e-07 -1.24655e-06
0.00131391 -9.59333e-06 -1.90603e-07
-9.59333e-06 2.41125e-05 -2.08585e-07
-1.90603e-07 -2.08585e-07 -3.05869e-05
0.00114669 -3.06104e-05 6.41817e-08
-3.06104e-05 7.3961e-05 1.50945e-07
6.41817e-08 1.50945e-07 8.90416e-06
0.00100374 -3.24652e-05 -6.68113e-08
-3.24652e-05 1.53386e-05 7.56593e-08
-6.68113e-08 7.56593e-08 -6.03494e-05
0.00131881 -3.96627e-05 -5.96037e-07
-3.96627e-05 0.000147221 7.3702e-07
-5.96037e-07 7.3702e-07 6.37661e-05
0.00144074 -2.60352e-05 1.89837e-07
-2.60352e-05 9.46462e-05 1.15112e-07
1.89837e-07 1.15112e-07 5.15568e-05
0.00124701 -3.61527e-05 -7.72358e-08
-3.61527e-05 3.98324e-05 -6.0323e-07
-7.72358e-08 -6.0323e-07 -1.95124e-05
0.000855544 7.66304e-06 1.2291e-07
7.66304e-06 -6.34423e-05 -6.16618e-07
1.2291e-07 -6.16618e-07 -9.59951e-05
0.0011451 -5.42482e-07 -8.76996e-09
-5.42482e-07 8.59197e-05 1.134e-07
-8.76996e-09 1.134e-07 3.11891e-05
0.00107992 -3.12202e-05 -3.3502e-07
-3.12202e-05 3.55762e-05 1.34454e-07
-3.3502e-07 1.34454e-07 -3.40743e-05
0.00116689 -3.29422e-05 2.54494e-08
-3.29422e-05 8.02152e-05 5.33182e-08
2.54494e-08 5.33182e-08 3.3709e-06
0.00112156 -2.94251e-05 1.52849e-07
-2.94251e-05 7.74152e-05 -1.90582e-07
1.52849e-07 -1.90582e-07 -3.19664e-06
0.00121317 -2.58856e-05 -5.75547e-07
-2.58856e-05 0.000124191 7.8263e-07
-5.75547e-07 7.8263e-07 5.3855e-05
0.00136301 2.79399e-05 8.69961e-07
2.79399e-05 8.27134e-05 1.714e-06
8.69961e-07 1.714e-06 1.43362e-05
0.00149312 1.22529e-05 4.99117e-07
1.22529e-05 9.83127e-05 -8.17134e-07
4.99117e-07 -8.17134e-07 3.2375e-05
0.00136267 -1.71952e-05 -9.34018e-07
-1.71952e-05 2.69459e-05 -1.45472e-06
-9.34018e-07 -1.45472e-06 -1.0577e-05
0.00164674 -3.60283e-05 4.69235e-07
-3.60283e-05 0.000184146 1.19453e-07
4.69235e-07 1.19453e-07 0.000142516
0.00102802 -3.13923e-05 2.73364e-07
-3.13923e-05 1.91693e-05 -5.33477e-07
2.73364e-07 -5.33477e-07 -5.19037e-05
0.00134673 -4.14601e-05 1.86495e-06
-4.14601e-05 0.000140264 1.94185e-06
1.86495e-06 1.94185e-06 5.76895e-05
0.00137074 -3.98881e-05 1.03682e-06
-3.98881e-05 0.000189541 -2.03679e-06
1.03682e-06 -2.03679e-06 0.000105784
0.00100612 6.31716e-06 6.56807e-07
6.31716e-06 7.63582e-06 -1.85895e-06
6.56807e-07 -1.85895e-06 -2.21295e-05
0.00106057 -7.70503e-06 3.07396e-07
-7.70503e-06 4.05244e-05 -1.21975e-06
3.07396e-07 -1.21975e-06 -6.72475e-06
0.000835281 4.89869e-06 2.02166e-07
4.89869e-06 -6.59423e-05 -1.81796e-06
2.02166e-07 -1.81796e-06 -0.000119101
0.00115869 -2.07466e-05 8.05608e-08
-2.07466e-05 9.93766e-05 -3.53299e-07
8.05608e-08 -3.53299e-07 2.87458e-05
0.00107436 -2.7812e-05 6.35379e-07
-2.7812e-05 5.87446e-05 -8.35577e-07
6.35379e-07 -8.35577e-07 -2.25592e-05
0.00118752 -3.19856e-05 1.53671e-06
-3.19856e-05 0.000105745 -9.35878e-10
1.53671e-06 -9.35878e-10 1.95899e-05
0.00104041 -3.24341e-05 6.62275e-07
-3.24341e-05 1.81894e-05 -3.33153e-07
6.62275e-07 -3.33153e-07 -5.54939e-05
0.00139806 -3.74232e-05 3.38229e-07
-3.74232e-05 0.00020032 3.78381e-08
3.38229e-07 3.78381e-08 0.000117734
0.00105488 6.56133e-06 -1.06123e-06
6.56133e-06 3.80362e-05 -1.29078e-06
-1.06123e-06 -1.29078e-06 -1.71418e-05
0.00112315 2.03733e-05 -5.9041e-07
2.03733e-05 7.34313e-05 -3.92322e-07
-5.9041e-07 -3.92322e-07 5.8539e-06
0.00158897 1.90116e-05 1.59755e-07
1.90116e-05 0.000194731 -6.06331e-08
1.59755e-07 -6.06331e-08 0.000143739
0.00113415 2.66394e-05 -1.00901e-06
2.66394e-05 7.72985e-05 2.13024e-08
-1.00901e-06 2.13024e-08 5.7979e-06
0.00121605 3.2171e-05 -7.95142e-07
3.2171e-05 0.000114136 -9.4097e-07
-7.95142e-07 -9.4097e-07 4.51175e-05
0.00106508 2.91369e-05 -8.88902e-07
2.91369e-05 4.06977e-05 -4.50725e-07
-8.88902e-07 -4.50725e-07 -3.13088e-05
0.00135073 3.79452e-05 -1.87029e-07
3.79452e-05 0.0001345 -2.85828e-07
-1.87029e-07 -2.85828e-07 6.3626e-05
0.0012143 3.43739e-05 -8.21675e-07
3.43739e-05 5.4355e-05 1.52071e-06
-8.21675e-07 1.52071e-06 -6.90349e-06
0.00112596 3.36417e-05 -4.20197e-08
3.36417e-05 6.94066e-05 -3.24584e-07
-4.20197e-08 -3.24584e-07 -9.88561e-06
0.00115182 3.69471e-05 -2.42434e-06
3.69471e-05 6.20418e-05 -8.12262e-07
-2.42434e-06 -8.12262e-07 -2.33347e-05
0.00097307 1.92041e-05 3.11237e-07
1.92041e-05 2.25341e-06 3.23735e-07
3.11237e-07 3.23735e-07 -6.70001e-05
0.0010899 2.98268e-05 -3.20966e-07
2.98268e-05 5.71156e-05 -4.064e-07
-3.20966e-07 -4.064e-07 -1.95204e-05
0.00117947 3.32144e-05 -2.03337e-07
3.32144e-05 9.42264e-05 -4.45817e-07
-2.03337e-07 -4.45817e-07 1.88081e-05
0.00110546 3.07967e-05 -2.63365e-08
3.07967e-05 5.74097e-05 -1.97271e-07
-2.63365e-08 -1.97271e-07 -1.89614e-05
0.0015133 1.05742e-05 7.25413e-08
1.05742e-05 0.000107323 -9.10704e-07
7.25413e-08 -9.10704e-07 6.54087e-05
0.00121806 3.11071e-05 1.85939e-07
3.11071e-05 7.0722e-06 1.77871e-07
1.85939e-07 1.77871e-07 -4.49263e-05
0.00138359 4.2531e-05 -2.72903e-07
4.2531e-05 0.000147555 -1.43329e-07
-2.72903e-07 -1.43329e-07 6.63345e-05
0.00098142 3.54214e-05 1.53314e-07
3.54214e-05 -4.44574e-06 1.47941e-07
1.53314e-07 1.47941e-07 -9.61548e-05
0.00116443 2.93722e-05 2.20788e-07
2.93722e-05 0.000100597 1.8296e-07
2.20788e-07 1.8296e-07 2.30698e-05
0.001355 -7.43105e-06 -9.5293e-08
-7.43105e-06 4.33343e-05 7.68473e-07
-9.5293e-08 7.68473e-07 -6.26585e-06
0.00125562 3.35913e-05 9.70667e-07
3.35913e-05 0.00013784 5.12143e-07
9.70667e-07 5.12143e-07 5.47043e-05
0.00117667 3.51311e-05 7.1412e-07
3.51311e-05 9.56502e-05 6.41356e-07
7.1412e-07 6.41356e-07 1.14573e-05
0.00149006 3.10165e-05 3.10396e-06
3.10165e-05 5.83696e-05 -1.12256e-06
3.10396e-06 -1.12256e-06 2.34189e-05
0.00122354 4.43705e-05 3.68496e-06
4.43705e-05 2.99161e-05 -8.32496e-07
3.68496e-06 -8.32496e-07 -5.18654e-05
0.00155309 4.53671e-05 9.59853e-07
4.53671e-05 0.000268682 1.70758e-06
9.59853e-07 1.70758e-06 0.000170126
0.00115216 1.79035e-05 -3.85046e-07
1.79035e-05 9.27152e-05 -4.28928e-07
-3.85046e-07 -4.28928e-07 2.50697e-05
0.00113254 2.5913e-05 -5.40041e-08
2.5913e-05 8.74038e-05 -6.54032e-08
-5.40041e-08 -6.54032e-08 1.09281e-05
0.00114337 2.90522e-05 5.41814e-07
2.90522e-05 9.37945e-05 3.72368e-07
5.41814e-07 3.72368e-07 1.11391e-05
0.00105139 7.47446e-06 -3.7482e-07
7.47446e-06 3.92486e-05 -1.25179e-06
-3.7482e-07 -1.25179e-06 -1.30984e-05
0.00108985 1.47136e-05 -9.77384e-08
1.47136e-05 6.39111e-05 -4.28849e-07
-9.77384e-08 -4.28849e-07 -2.73108e-06
0.00101656 1.82033e-05 -5.18819e-07
1.82033e-05 3.00593e-05 -9.738e-07
-5.18819e-07 -9.738e-07 -4.65957e-05
0.00104433 -1.3286e-06 1.08716e-07
-1.3286e-06 3.7189e-05 9.00262e-09
1.08716e-07 9.00262e-09 -1.50984e-05
0.000948134 1.26073e-05 5.36523e-08
1.26073e-05 -5.75873e-06 3.64758e-07
5.36523e-08 3.64758e-07 -7.29495e-05
0.00112532 2.173e-05 -1.22837e-08
2.173e-05 8.23801e-05 -3.49543e-07
-1.22837e-08 -3.49543e-07 -3.52595e-08
0.001116 1.34894e-05 1.55014e-07
1.34894e-05 7.95231e-05 3.11481e-07
1.55014e-07 3.11481e-07 3.73894e-06
0.0012045 3.00897e-05 2.7095e-07
3.00897e-05 0.000116604 1.33785e-07
2.7095e-07 1.33785e-07 3.00456e-05
0.00105629 7.98768e-06 4.71995e-07
7.98768e-06 4.64473e-05 7.81464e-07
4.71995e-07 7.81464e-07 -3.689e-05
0.00112719 2.12118e-05 3.57061e-07
2.12118e-05 8.40275e-05 7.61816e-07
3.57061e-07 7.61816e-07 7.88424e-06
0.0010698 1.14348e-05 4.70898e-07
1.14348e-05 5.47724e-05 8.61313e-07
4.70898e-07 8.61313e-07 -1.24006e-05
0.0010458 -3.90636e-06 1.19953e-07
-3.90636e-06 3.84536e-05 1.22918e-06
1.19953e-07 1.22918e-06 -1.40676e-05
0.00101403 1.77791e-06 1.1932e-07
1.77791e-06 9.73699e-06 1.91563e-06
1.1932e-07 1.91563e-06 -2.24477e-05
0.00101691 -4.95984e-07 2.95941e-08
-4.95984e-07 1.12353e-05 1.18215e-08
2.95941e-08 1.18215e-08 -2.08399e-05
0.00155725 -2.69455e-06 4.44154e-07
-2.69455e-06 0.000264973 2.07439e-06
4.44154e-07 2.07439e-06 0.00026625
0.0010225 -2.14238e-06 -3.41722e-07
-2.14238e-06 1.4502e-05 -1.96112e-06
-3.41722e-07 -1.96112e-06 -1.76442e-05
0.00157943 -4.60796e-06 -6.80988e-07
-4.60796e-06 0.000278063 -1.29818e-06
-6.80988e-07 -1.29818e-06 0.00027896
0.00121341 -4.83299e-06 3.50428e-06
-4.83299e-06 9.36183e-05 6.83731e-06
3.50428e-06 6.83731e-06 0.000109971
0.00159526 -6.28894e-06 -2.46662e-06
-6.28894e-06 0.000288703 -4.68934e-06
-2.46662e-06 -4.68934e-06 0.000289003
0.00116148 -6.90799e-06 1.38429e-06
-6.90799e-06 7.13796e-05 2.61005e-06
1.38429e-06 2.61005e-06 8.73445e-05
0.00110497 -8.80307e-06 -1.39715e-06
-8.80307e-06 4.73592e-05 -1.65742e-06
-1.39715e-06 -1.65742e-06 6.28928e-05
0.00101164 4.90492e-06 5.1026e-07
4.90492e-06 6.97137e-06 -1.85e-06
5.1026e-07 -1.85e-06 -2.09203e-05
0.000927439 7.71763e-06 1.23806e-06
7.71763e-06 -3.95571e-05 -3.22572e-06
1.23806e-06 -3.22572e-06 -4.07106e-05
0.000937973 9.21523e-06 -8.40637e-08
9.21523e-06 -3.0533e-05 5.22043e-09
-8.40637e-08 5.22043e-09 -3.33204e-05
0.00239059 1.27794e-05 6.9492e-06
1.27794e-05 0.000683481 -4.01207e-06
6.9492e-06 -4.01207e-06 0.000705011
0.000946825 1.05895e-05 -2.14013e-06
1.05895e-05 -2.20328e-05 3.24938e-06
-2.14013e-06 3.24938e-06 -2.63939e-05
0.00242835 1.52063e-05 -3.08553e-07
1.52063e-05 0.000707419 -3.44684e-08
-3.08553e-07 -3.44684e-08 0.000727709
0.00247299 1.73857e-05 -9.76528e-06
1.73857e-05 0.000734357 4.02088e-06
-9.76528e-06 4.02088e-06 0.000753439
0.00120336 9.53254e-07 8.67286e-07
9.53254e-07 2.18194e-08 -1.58877e-07
8.67286e-07 -1.58877e-07 -5.02079e-05
0.00125253 -1.64966e-05 1.39099e-08
-1.64966e-05 3.00138e-05 -1.04937e-06
1.39099e-08 -1.04937e-06 -3.23722e-05
0.00130055 -2.09363e-05 -7.42651e-07
-2.09363e-05 7.55332e-05 1.03594e-06
-7.42651e-07 1.03594e-06 7.17236e-06
0.00128355 1.67444e-05 -1.97775e-07
1.67444e-05 6.75592e-05 -7.34246e-07
-1.97775e-07 -7.34246e-07 -1.46839e-06
0.00127118 7.65577e-06 1.17965e-07
7.65577e-06 6.80516e-05 -3.25702e-07
1.17965e-07 -3.25702e-07 3.34846e-07
0.00130405 -2.73367e-05 -2.77997e-08
-2.73367e-05 8.02423e-05 3.01215e-07
-2.77997e-08 3.01215e-07 1.24996e-05
0.0012947 -7.14726e-06 -5.83441e-07
-7.14726e-06 3.55058e-05 2.62494e-07
-5.83441e-07 2.62494e-07 -1.62851e-05
0.00129407 6.99546e-07 9.59807e-07
6.99546e-07 8.22512e-05 -1.04064e-06
9.59807e-07 -1.04064e-06 1.53489e-05
0.00128948 -2.155e-05 -3.08527e-07
-2.155e-05 5.37483e-05 8.53976e-07
-3.08527e-07 8.53976e-07 -7.54742e-06
0.00127403 -1.97962e-05 -3.96207e-07
-1.97962e-05 4.39752e-05 -7.07744e-07
-3.96207e-07 -7.07744e-07 -1.80388e-06
0.00129818 2.63088e-05 -2.05101e-07
2.63088e-05 5.74449e-05 -6.32824e-07
-2.05101e-07 -6.32824e-07 -1.31229e-05
0.00141004 1.52802e-05 -5.88245e-07
1.52802e-05 6.30483e-05 3.14451e-07
-5.88245e-07 3.14451e-07 -7.16315e-06
0.00135496 -9.3431e-06 -2.58279e-07
-9.3431e-06 4.42383e-05 9.71682e-07
-2.58279e-07 9.71682e-07 -1.16372e-05
0.00116251 -3.08353e-05 -4.71568e-07
-3.08353e-05 8.12834e-05 6.42195e-07
-4.71568e-07 6.42195e-07 1.61477e-05
0.0010568 -3.29984e-05 -5.37918e-07
-3.29984e-05 4.12019e-05 1.83141e-06
-5.37918e-07 1.83141e-06 -3.36555e-05
0.00127149 -3.85962e-05 -1.45562e-06
-3.85962e-05 0.000124868 1.2715e-06
-1.45562e-06 1.2715e-06 4.21956e-05
0.00144167 -2.68181e-05 1.86318e-06
-2.68181e-05 9.92306e-05 5.07069e-07
1.86318e-06 5.07069e-07 5.63598e-05
0.00117468 -3.5459e-05 -2.47785e-06
-3.5459e-05 3.95071e-06 -2.09615e-06
-2.47785e-06 -2.09615e-06 -5.52615e-05
0.00107424 -3.11554e-05 -9.82704e-07
-3.11554e-05 3.31978e-05 2.6362e-07
-9.82704e-07 2.6362e-07 -3.66646e-05
0.00118512 -3.32013e-05 -1.18494e-06
-3.32013e-05 8.91112e-05 -6.46104e-08
-1.18494e-06 -6.46104e-08 1.2381e-05
0.00112402 -2.92075e-05 -4.24735e-07
-2.92075e-05 7.97178e-05 3.45151e-07
-4.24735e-07 3.45151e-07 -2.76917e-07
0.000995537 8.17329e-06 -7.14536e-07
8.17329e-06 5.12908e-06 1.28358e-06
-7.14536e-07 1.28358e-06 -2.63973e-05
0.00113439 2.06391e-06 -5.48607e-07
2.06391e-06 8.15196e-05 1.5644e-06
-5.48607e-07 1.5644e-06 2.66715e-05
0.00115028 -2.54634e-05 -1.28087e-06
-2.54634e-05 9.25808e-05 1.63922e-06
-1.28087e-06 1.63922e-06 2.17344e-05
0.0012997 2.71607e-05 1.14856e-07
2.71607e-05 5.11343e-05 3.10101e-07
1.14856e-07 3.10101e-07 -1.77052e-05
0.00100933 6.30038e-06 -4.90652e-08
6.30038e-06 9.04081e-06 -5.27224e-10
-4.90652e-08 -5.27224e-10 -2.07333e-05
0.000952218 6.22106e-08 -2.97357e-07
6.22106e-08 -1.23989e-05 5.38736e-10
-2.97357e-07 5.38736e-10 -6.01952e-05
0.00149986 1.19893e-05 1.77147e-07
1.19893e-05 0.000100133 4.67615e-07
1.77147e-07 4.67615e-07 3.47667e-05
0.001279 -1.78008e-05 -2.14482e-07
-1.78008e-05 -9.87146e-06 -3.35933e-07
-2.14482e-07 -3.35933e-07 -5.01983e-05
0.0010131 -3.11242e-05 -1.50268e-07
-3.11242e-05 1.1588e-05 4.54929e-07
-1.50268e-07 4.54929e-07 -5.90983e-05
0.00125446 -3.8664e-05 -1.93663e-07
-3.8664e-05 0.00013322 1.65805e-07
-1.93663e-07 1.65805e-07 4.85897e-05
0.00118008 -3.90588e-05 5.44121e-07
-3.90588e-05 5.75299e-05 6.77819e-07
5.44121e-07 6.77819e-07 -2.39252e-05
0.00147279 -3.57378e-05 1.69914e-08
-3.57378e-05 0.000101728 -9.50192e-07
1.69914e-08 -9.50192e-07 5.98699e-05
0.00108446 7.59297e-07 2.4729e-07
7.59297e-07 5.62516e-05 -5.01824e-07
2.4729e-07 -5.01824e-07 4.78607e-06
0.0011497 -1.73426e-05 -3.53533e-07
-1.73426e-05 9.5603e-05 5.10021e-07
-3.53533e-07 5.10021e-07 2.47456e-05
0.00114199 -3.35876e-05 3.48952e-07
-3.35876e-05 6.68345e-05 2.28126e-07
3.48952e-07 2.28126e-07 -6.55701e-06
0.00123529 -3.54655e-05 -8.21912e-07
-3.54655e-05 0.000119459 -3.41624e-07
-8.21912e-07 -3.41624e-07 3.85263e-05
0.00111906 -3.11249e-05 3.06802e-07
-3.11249e-05 7.18162e-05 2.49188e-07
3.06802e-07 2.49188e-07 -1.55932e-05
0.00110269 -2.81493e-05 3.16766e-07
-2.81493e-05 7.22027e-05 -3.57016e-07
3.16766e-07 -3.57016e-07 -8.76771e-06
0.00139254 2.93544e-05 1.30993e-06
2.93544e-05 8.9386e-05 1.3246e-06
1.30993e-06 1.3246e-06 1.85603e-05
0.00152771 3.5882e-06 -2.32473e-07
3.5882e-06 0.000103988 -1.684e-06
-2.32473e-07 -1.684e-06 5.42183e-05
0.00163518 -3.15096e-05 -2.03528e-06
-3.15096e-05 0.000126212 -4.62033e-07
-2.03528e-06 -4.62033e-07 0.000105217
0.00143547 -4.4083e-05 2.43735e-06
-4.4083e-05 0.000133519 2.29092e-06
2.43735e-06 2.29092e-06 6.66589e-05
0.00104682 -3.38544e-05 3.10675e-07
-3.38544e-05 3.28772e-05 -1.29062e-06
3.10675e-07 -1.29062e-06 -4.38845e-05
0.00151639 -4.57085e-05 8.13213e-07
-4.57085e-05 0.000255708 -1.27142e-06
8.13213e-07 -1.27142e-06 0.000163206
0.000854689 1.67906e-06 1.80235e-07
1.67906e-06 -6.18548e-05 -1.65617e-06
1.80235e-07 -1.65617e-06 -0.000108241
0.00104822 -6.69199e-06 5.3201e-07
-6.69199e-06 3.69265e-05 -1.19754e-06
5.3201e-07 -1.19754e-06 -1.23396e-05
0.00129464 -1.77258e-06 -1.5737e-07
-1.77258e-06 0.000164327 -3.64248e-07
-1.5737e-07 -3.64248e-07 0.000103454
0.00090854 -1.07163e-06 6.92422e-08
-1.07163e-06 -2.02894e-05 -1.0297e-06
6.92422e-08 -1.0297e-06 -9.03273e-05
0.0012108 -2.68014e-05 3.38835e-07
-2.68014e-05 0.000126335 -1.8058e-07
3.38835e-07 -1.8058e-07 4.61549e-05
0.000971943 -2.76418e-05 1.46866e-07
-2.76418e-05 7.16814e-06 -6.32426e-07
1.46866e-07 -6.32426e-07 -8.49554e-05
0.00126485 -3.46231e-05 1.74632e-06
-3.46231e-05 0.000151004 -1.49297e-07
1.74632e-06 -1.49297e-07 5.58103e-05
0.00106341 -3.58734e-05 3.84261e-07
-3.58734e-05 4.1916e-05 -5.94762e-07
3.84261e-07 -5.94762e-07 -3.84527e-05
0.0009802 1.92252e-05 -4.45007e-07
1.92252e-05 5.77523e-06 -4.57927e-07
-4.45007e-07 -4.57927e-07 -6.35489e-05
0.00115832 2.95597e-05 -1.46883e-06
2.95597e-05 9.01591e-05 -6.69538e-07
-1.46883e-06 -6.69538e-07 1.44487e-05
0.00139319 9.88111e-06 -1.31478e-06
9.88111e-06 4.9894e-05 -1.44092e-06
-1.31478e-06 -1.44092e-06 8.71069e-06
0.0012962 3.08282e-05 -1.18116e-06
3.08282e-05 5.42609e-05 7.45362e-07
-1.18116e-06 7.45362e-07 1.508e-07
0.00122382 3.18772e-05 -1.08046e-06
3.18772e-05 0.000114583 -2.37235e-07
-1.08046e-06 -2.37235e-07 3.86323e-05
0.00120181 3.33082e-05 -8.21558e-07
3.33082e-05 0.000105715 -1.19487e-06
-8.21558e-07 -1.19487e-06 3.09411e-05
0.00154773 4.40938e-05 -1.28215e-06
4.40938e-05 0.000226145 -2.41252e-08
-1.28215e-06 -2.41252e-08 0.000145897
0.00102644 3.63564e-05 -9.73686e-07
3.63564e-05 1.36239e-05 -1.14229e-06
-9.73686e-07 -1.14229e-06 -7.78317e-05
0.00113958 2.95044e-05 -3.16306e-07
2.95044e-05 8.84156e-05 -3.26254e-07
-3.16306e-07 -3.26254e-07 1.08772e-05
0.00118486 -6.56527e-06 4.23619e-07
-6.56527e-06 -3.4513e-05 5.80114e-07
4.23619e-07 5.80114e-07 -8.13868e-05
0.00117741 3.27615e-05 2.45512e-07
3.27615e-05 9.90109e-05 3.26798e-07
2.45512e-07 3.26798e-07 1.59849e-05
0.00105197 3.35999e-05 2.9292e-07
3.35999e-05 3.34616e-05 -8.00763e-08
2.9292e-07 -8.00763e-08 -5.16885e-05
0.00140089 2.83371e-05 5.24985e-07
2.83371e-05 2.04211e-05 -3.45919e-07
5.24985e-07 -3.45919e-07 -1.56568e-05
0.00142827 4.75997e-05 7.46822e-07
4.75997e-05 0.000124035 -5.55796e-07
7.46822e-07 -5.55796e-07 4.26762e-05
0.00145889 4.45303e-05 2.18377e-07
4.45303e-05 0.000224474 5.21976e-07
2.18377e-07 5.21976e-07 0.000125309
0.00120833 3.10331e-05 3.36419e-07
3.10331e-05 0.000125297 3.65429e-07
3.36419e-07 3.65429e-07 4.07576e-05
0.00139798 2.0187e-05 2.60505e-06
2.0187e-05 -2.20145e-05 -2.19905e-06
2.60505e-06 -2.19905e-06 -5.61722e-05
0.00136043 3.58373e-05 5.17729e-07
3.58373e-05 0.000185754 1.22717e-07
5.17729e-07 1.22717e-07 9.84939e-05
0.00157022 4.28144e-05 -1.91623e-07
4.28144e-05 0.000288462 1.14116e-06
-1.91623e-07 1.14116e-06 0.000191204
0.00114005 5.25291e-05 4.74168e-06
5.25291e-05 -9.88846e-05 -5.91314e-07
4.74168e-06 -5.91314e-07 -0.000167254
0.00101817 4.56339e-05 2.41306e-07
4.56339e-05 2.4114e-07 1.46048e-06
2.41306e-07 1.46048e-06 -0.000107254
0.00223761 -6.00717e-05 -5.58228e-06
-6.00717e-05 9.58109e-05 -7.82275e-06
-5.58228e-06 -7.82275e-06 0.000142197
0.00112732 2.59954e-05 -4.33886e-07
2.59954e-05 8.52365e-05 -5.94776e-07
-4.33886e-07 -5.94776e-07 8.73547e-06
0.00112839 2.87964e-05 -2.08446e-08
2.87964e-05 8.75208e-05 -1.64651e-08
-2.08446e-08 -1.64651e-08 4.79844e-06
0.00123956 3.06572e-05 5.02804e-07
3.06572e-05 0.000138838 1.62588e-07
5.02804e-07 1.62588e-07 5.18708e-05
0.00105019 -3.13274e-06 -7.11289e-09
-3.13274e-06 4.01038e-05 -1.25188e-06
-7.11289e-09 -1.25188e-06 -1.22707e-05
0.000953071 5.61773e-06 -2.47862e-07
5.61773e-06 -3.30502e-06 -4.37916e-07
-2.47862e-07 -4.37916e-07 -7.03668e-05
0.00124318 2.04565e-05 -2.06682e-07
2.04565e-05 0.000142283 -2.90062e-07
-2.06682e-07 -2.90062e-07 6.71602e-05
0.00105623 1.94614e-05 -6.70344e-07
1.94614e-05 4.81246e-05 -9.94018e-07
-6.70344e-07 -9.94018e-07 -3.49411e-05
0.00104573 -7.9093e-06 1.82057e-08
-7.9093e-06 3.85317e-05 1.02955e-08
1.82057e-08 1.02955e-08 -1.40983e-05
0.00101222 1.19194e-05 1.41027e-07
1.19194e-05 2.63734e-05 -1.2428e-08
1.41027e-07 -1.2428e-08 -4.12835e-05
0.00114942 2.92439e-05 -5.06905e-07
2.92439e-05 8.87421e-05 -6.5718e-07
-5.06905e-07 -6.5718e-07 2.11895e-06
0.00112426 1.54311e-05 3.18708e-08
1.54311e-05 8.27579e-05 1.89032e-08
3.18708e-08 1.89032e-08 6.71322e-06
0.00113925 1.02704e-05 2.45666e-08
1.02704e-05 8.8221e-05 -1.84269e-08
2.45666e-08 -1.84269e-08 5.49148e-06
0.00113693 1.91912e-05 3.30764e-07
1.91912e-05 7.69595e-05 8.59971e-07
3.30764e-07 8.59971e-07 -1.2357e-05
0.00123984 2.29546e-05 1.17292e-07
2.29546e-05 0.00013755 1.8189e-07
1.17292e-07 1.8189e-07 5.39365e-05
0.00123859 2.50711e-05 2.11092e-07
2.50711e-05 0.000138935 3.45948e-07
2.11092e-07 3.45948e-07 6.22946e-05
0.000910355 6.73219e-06 1.16111e-07
6.73219e-06 -2.34936e-05 8.9937e-07
1.16111e-07 8.9937e-07 -9.26261e-05
0.000833351 -5.0759e-08 -1.33929e-08
-5.0759e-08 -6.60352e-05 1.70773e-06
-1.33929e-08 1.70773e-06 -0.000120291
0.0012795 -8.9792e-07 7.61766e-08
-8.9792e-07 0.000159464 4.29502e-07
7.61766e-08 4.29502e-07 9.30616e-05
0.000840426 -3.6953e-06 -3.77775e-07
-3.6953e-06 -6.34235e-05 1.65222e-06
-3.77775e-07 1.65222e-06 -0.000117205
0.00101675 1.60941e-06 -6.62498e-08
1.60941e-06 1.10022e-05 1.89408e-06
-6.62498e-08 1.89408e-06 -2.12828e-05
0.00101447 1.81669e-07 8.66151e-09
1.81669e-07 9.95313e-06 6.93383e-09
8.66151e-09 6.93383e-09 -2.22303e-05
0.000957039 -3.33454e-07 1.04848e-07
-3.33454e-07 -3.24825e-05 3.3505e-06
1.04848e-07 3.3505e-06 -3.43134e-05
0.00101911 -1.86606e-06 -1.07913e-07
-1.86606e-06 1.23905e-05 -1.9291e-06
-1.07913e-07 -1.9291e-06 -1.97035e-05
0.00126749 -2.39212e-06 -3.87348e-07
-2.39212e-06 0.000121894 -1.31487e-06
-3.87348e-07 -1.31487e-06 0.000121545
0.00240709 -3.18283e-06 1.84874e-06
-3.18283e-06 0.000681168 4.23136e-06
1.84874e-06 4.23136e-06 0.000704084
0.00159543 -4.44857e-06 -1.43951e-06
-4.44857e-06 0.000286154 -4.6634e-06
-1.43951e-06 -4.6634e-06 0.00028695
0.00116112 -4.90718e-06 7.20287e-07
-4.90718e-06 6.77744e-05 2.59702e-06
7.20287e-07 2.59702e-06 8.43711e-05
0.0011076 -6.82959e-06 -1.00728e-06
-6.82959e-06 4.47281e-05 -1.65662e-06
-1.00728e-06 -1.65662e-06 6.09431e-05
0.00101604 3.43286e-06 3.42612e-07
3.43286e-06 6.6391e-06 -1.91309e-06
3.42612e-07 -1.91309e-06 -1.98783e-05
0.00101528 4.86339e-06 -3.54227e-08
4.86339e-06 8.64314e-06 7.81882e-10
-3.54227e-08 7.81882e-10 -1.92645e-05
0.00093841 5.97233e-06 9.42368e-07
5.97233e-06 -3.79335e-05 -3.2197e-06
9.42368e-07 -3.2197e-06 -3.76235e-05
0.00124349 8.17994e-06 -2.91725e-07
8.17994e-06 0.000116372 3.6508e-08
-2.91725e-07 3.6508e-08 0.000116562
0.0023481 1.02971e-05 5.67235e-06
1.02971e-05 0.000658222 -3.999e-06
5.67235e-06 -3.999e-06 0.000680853
0.000956451 9.22734e-06 -1.80426e-06
9.22734e-06 -2.17296e-05 3.2276e-06
-1.80426e-06 3.2276e-06 -2.4591e-05
0.00238759 1.28273e-05 -3.39859e-07
1.28273e-05 0.000682577 -3.13729e-08
-3.39859e-07 -3.13729e-08 0.000703982
0.00242795 1.51807e-05 -8.64558e-06
1.51807e-05 0.000707715 4.05121e-06
-8.64558e-06 4.05121e-06 0.000727884
0.00129215 -7.0246e-06 -3.28976e-07
-7.0246e-06 3.68377e-05 -1.00987e-06
-3.28976e-07 -1.00987e-06 -1.35674e-05
0.0013001 -2.66397e-05 2.95627e-08
-2.66397e-05 7.81381e-05 9.26617e-07
2.95627e-08 9.26617e-07 9.53031e-06
0.00131721 4.29048e-06 -2.89528e-07
4.29048e-06 9.25354e-05 -5.19159e-07
-2.89528e-07 -5.19159e-07 2.53934e-05
0.00128825 2.24287e-07 -3.2383e-07
2.24287e-07 7.95379e-05 -9.87804e-07
-3.2383e-07 -9.87804e-07 1.27934e-05
0.0012451 -2.10558e-05 -6.73294e-08
-2.10558e-05 3.65704e-05 3.82317e-07
-6.73294e-08 3.82317e-07 -2.47214e-05
0.00122604 -2.14636e-05 1.24527e-06
-2.14636e-05 3.15769e-05 5.33304e-07
1.24527e-06 5.33304e-07 -1.62409e-05
0.00138154 -1.0842e-06 -7.46239e-07
-1.0842e-06 0.000114423 4.66317e-07
-7.46239e-07 4.66317e-07 5.28869e-05
0.00177301 -4.94281e-05 -8.85126e-06
-4.94281e-05 0.000250782 -7.51595e-06
-8.85126e-06 -7.51595e-06 0.000242073
0.00105015 3.05742e-06 -1.32448e-06
3.05742e-06 -7.78842e-05 -1.05014e-06
-1.32448e-06 -1.05014e-06 -0.00010224
0.00104948 -4.12169e-06 -4.53533e-08
-4.12169e-06 3.21757e-05 -1.17038e-06
-4.53533e-08 -1.17038e-06 -1.16131e-05
0.0012269 2.63081e-05 -9.29001e-07
2.63081e-05 1.5118e-05 -8.64883e-07
-9.29001e-07 -8.64883e-07 -5.41847e-05
0.00150734 1.16163e-05 8.62825e-10
1.16163e-05 0.000102442 8.84432e-07
8.62825e-10 8.84432e-07 3.76301e-05
0.00117927 -1.8364e-05 9.08407e-07
-1.8364e-05 -5.48908e-05 1.27542e-06
9.08407e-07 1.27542e-06 -9.78991e-05
0.00100507 -3.09509e-05 -5.41837e-07
-3.09509e-05 7.38207e-06 1.15875e-06
-5.41837e-07 1.15875e-06 -6.29371e-05
0.00113737 -3.74301e-05 -8.11258e-07
-3.74301e-05 7.64972e-05 2.48989e-06
-8.11258e-07 2.48989e-06 -9.00543e-06
0.00101477 -3.67382e-05 -1.44769e-06
-3.67382e-05 -2.45426e-05 -1.86004e-07
-1.44769e-06 -1.86004e-07 -0.000104873
0.00132007 -3.54256e-05 -1.08942e-06
-3.54256e-05 2.93966e-05 -2.46205e-06
-1.08942e-06 -2.46205e-06 -1.27333e-05
0.00124514 -3.47573e-05 -1.33147e-07
-3.47573e-05 0.000116285 2.69575e-07
-1.33147e-07 2.69575e-07 4.31764e-05
0.00108249 -3.36329e-05 -2.63259e-06
-3.36329e-05 4.35309e-05 -8.01353e-07
-2.63259e-06 -8.01353e-07 -3.57751e-05
0.0010499 -3.0286e-05 -1.0575e-06
-3.0286e-05 3.74381e-05 6.23352e-07
-1.0575e-06 6.23352e-07 -5.12143e-05
0.00101267 6.28992e-06 -7.52235e-07
6.28992e-06 1.05207e-05 1.8731e-06
-7.52235e-07 1.8731e-06 -1.9265e-05
0.00113991 -2.86292e-05 -1.49282e-08
-2.86292e-05 8.98568e-05 3.2348e-07
-1.49282e-08 3.2348e-07 9.21524e-06
0.00133149 -3.12192e-06 -2.25326e-07
-3.12192e-06 0.000177419 7.32908e-07
-2.25326e-07 7.32908e-07 0.000127655
0.00114312 -1.34152e-05 -6.17083e-07
-1.34152e-05 9.28039e-05 1.35012e-06
-6.17083e-07 1.35012e-06 2.18396e-05
0.00084332 5.18862e-06 -3.33792e-07
5.18862e-06 -6.563e-05 1.18475e-06
-3.33792e-07 1.18475e-06 -0.000113969
0.00137618 2.87504e-05 2.83824e-07
2.87504e-05 7.44491e-05 -4.42582e-09
2.83824e-07 -4.42582e-09 2.92768e-06
0.000954545 4.48595e-07 9.94594e-08
4.48595e-07 -1.3289e-05 -4.69296e-07
9.94594e-08 -4.69296e-07 -5.88791e-05
0.0010468 -4.94366e-06 -1.58792e-08
-4.94366e-06 3.62101e-05 2.38024e-08
-1.58792e-08 2.38024e-08 -1.30361e-05
0.0011212 1.32286e-06 -2.41472e-07
1.32286e-06 7.93079e-05 4.97766e-07
-2.41472e-07 4.97766e-07 1.71423e-05
0.00153904 3.59941e-06 5.53496e-07
3.59941e-06 0.000110386 7.66215e-07
5.53496e-07 7.66215e-07 6.07325e-05
0.0014034 -3.19905e-05 -5.68415e-07
-3.19905e-05 1.53669e-05 -1.28857e-06
-5.68415e-07 -1.28857e-06 -8.61151e-06
0.00110536 -3.4534e-05 -3.18114e-08
-3.4534e-05 5.89056e-05 2.27114e-07
-3.18114e-08 2.27114e-07 -1.74029e-05
0.00117265 -4.1827e-05 5.27793e-07
-4.1827e-05 9.25155e-05 -1.33882e-07
5.27793e-07 -1.33882e-07 -2.02705e-07
0.00123759 -4.18775e-05 7.2062e-09
-4.18775e-05 3.85144e-05 7.06508e-07
7.2062e-09 7.06508e-07 -2.72547e-05
0.000998817 -2.16747e-06 -3.45364e-08
-2.16747e-06 2.37916e-05 3.71323e-08
-3.45364e-08 3.71323e-08 -4.51275e-05
0.00121755 -2.60759e-05 2.03674e-07
-2.60759e-05 0.000128832 4.15934e-08
2.03674e-07 4.15934e-08 4.83396e-05
0.00110897 -3.62944e-05 -4.52219e-07
-3.62944e-05 6.377e-05 1.87203e-08
-4.52219e-07 1.87203e-08 -1.67777e-05
0.00122761 -3.39163e-05 -4.19949e-08
-3.39163e-05 0.000131034 -1.31318e-07
-4.19949e-08 -1.31318e-07 3.80305e-05
0.00106518 -2.87729e-05 -6.78424e-07
-2.87729e-05 5.35109e-05 6.37064e-07
-6.78424e-07 6.37064e-07 -3.79289e-05
0.00131927 2.87537e-05 6.36216e-07
2.87537e-05 2.87067e-05 2.27531e-07
6.36216e-07 2.27531e-07 -4.34171e-05
0.00167926 -1.21623e-05 -1.31672e-06
-1.21623e-05 0.00011004 -2.90639e-06
-1.31672e-06 -2.90639e-06 0.000101465
0.0016939 -4.88253e-05 2.04002e-06
-4.88253e-05 0.000171304 2.37882e-06
2.04002e-06 2.37882e-06 0.000126704
0.00164105 -5.10346e-05 1.78206e-06
-5.10346e-05 0.000297978 -1.0263e-06
1.78206e-06 -1.0263e-06 0.000208035
0.000940597 -3.74157e-05 4.05817e-07
-3.74157e-05 -3.81226e-06 -1.86396e-06
4.05817e-07 -1.86396e-06 -8.87758e-05
0.000841851 1.46271e-05 -2.50348e-08
1.46271e-05 -5.91697e-05 -1.14904e-06
-2.50348e-08 -1.14904e-06 -0.000119497
0.000915689 2.54087e-06 2.5472e-07
2.54087e-06 -1.95041e-05 -8.87402e-07
2.5472e-07 -8.87402e-07 -8.58e-05
0.00118688 1.37951e-05 3.7335e-08
1.37951e-05 0.00011806 7.27513e-08
3.7335e-08 7.27513e-08 4.51124e-05
0.00117293 -2.43183e-05 5.05247e-07
-2.43183e-05 0.000111308 -6.55262e-07
5.05247e-07 -6.55262e-07 2.99338e-05
0.00106509 -2.75716e-05 -1.78136e-07
-2.75716e-05 5.3772e-05 6.80805e-09
-1.78136e-07 6.80805e-09 -3.44287e-05
0.00123789 -3.16347e-05 1.71752e-06
-3.16347e-05 0.000146128 -1.3697e-06
1.71752e-06 -1.3697e-06 4.50476e-05
0.00115637 -3.78485e-05 1.94923e-06
-3.78485e-05 0.000108133 -2.82723e-07
1.94923e-06 -2.82723e-07 1.02688e-05
0.00111039 2.91836e-05 -7.66815e-07
2.91836e-05 7.42326e-05 -8.67478e-07
-7.66815e-07 -8.67478e-07 -3.30359e-06
0.00109937 3.19484e-05 -4.64725e-07
3.19484e-05 6.0301e-05 5.44515e-08
-4.64725e-07 5.44515e-08 -2.26203e-05
0.000990237 -5.68568e-06 5.57497e-07
-5.68568e-06 -0.000123641 1.0556e-06
5.57497e-07 1.0556e-06 -0.000167784
0.00125523 2.56072e-05 -2.14196e-07
2.56072e-05 -4.32814e-05 1.3853e-10
-2.14196e-07 1.3853e-10 -8.05225e-05
0.00164452 5.10556e-05 -1.9915e-06
5.10556e-05 0.000223927 -2.25601e-07
-1.9915e-06 -2.25601e-07 0.000142952
0.000919073 3.19887e-05 -2.40795e-07
3.19887e-05 -3.28074e-05 -8.50644e-07
-2.40795e-07 -8.50644e-07 -0.000118888
0.00135005 4.35072e-05 -7.3522e-07
4.35072e-05 0.00017268 -4.06219e-07
-7.3522e-07 -4.06219e-07 7.29603e-05
0.00120595 3.10296e-05 3.17755e-08
3.10296e-05 0.000123941 4.95852e-08
3.17755e-08 4.95852e-08 3.98628e-05
0.0012459 1.99678e-05 -1.41131e-06
1.99678e-05 -9.25528e-05 6.05022e-08
-1.41131e-06 6.05022e-08 -0.000124776
0.00120979 3.40106e-05 -5.48918e-08
3.40106e-05 0.000113017 -5.15338e-08
-5.48918e-08 -5.15338e-08 2.56421e-05
0.00126354 3.85696e-05 -6.58321e-08
3.85696e-05 0.000145871 1.35815e-07
-6.58321e-08 1.35815e-07 4.84299e-05
0.00132581 5.26569e-05 1.84493e-06
5.26569e-05 -1.93801e-05 -1.1998e-06
1.84493e-06 -1.1998e-06 -8.42568e-05
0.00122468 4.91627e-05 -7.68547e-07
4.91627e-05 0.000104214 1.00431e-06
-7.68547e-07 1.00431e-06 -7.06305e-06
0.00207127 -4.67964e-05 -1.7116e-06
-4.67964e-05 0.000125148 5.59882e-07
-1.7116e-06 5.59882e-07 0.000146372
0.00122028 3.14325e-05 -9.49559e-08
3.14325e-05 0.000131956 -2.15279e-07
-9.49559e-08 -2.15279e-07 4.30096e-05
0.00106545 6.33154e-05 8.83233e-06
6.33154e-05 -0.00023121 3.12968e-06
8.83233e-06 3.12968e-06 -0.000295324
0.00128211 3.53802e-05 -7.51381e-07
3.53802e-05 0.000160696 -3.8581e-08
-7.51381e-07 -3.8581e-08 6.72769e-05
0.00114512 4.35063e-05 -1.1013e-06
4.35063e-05 0.000126949 1.35474e-06
-1.1013e-06 1.35474e-06 5.75285e-06
0.000555467 6.40343e-05 1.00239e-06
6.40343e-05 -0.000270577 -5.85677e-07
1.00239e-06 -5.85677e-07 -0.000377481
0.00509931 -6.4355e-06 8.51378e-07
-6.4355e-06 0.00168832 -1.69875e-06
8.51378e-07 -1.69875e-06 0.00131089
0.00104786 -7.15357e-05 3.84588e-05
-7.15357e-05 0.000119814 1.29034e-05
3.84588e-05 1.29034e-05 -6.35935e-05
0.00260591 7.04224e-06 -8.96715e-06
7.04224e-06 0.000282089 -4.58044e-06
-8.96715e-06 -4.58044e-06 0.000340739
-0.00265419 -5.97017e-05 -4.93708e-05
-5.97017e-05 -0.00139556 -1.24479e-05
-4.93708e-05 -1.24479e-05 -0.00139781
0.000970247 -6.78828e-05 -2.03908e-06
-6.78828e-05 -3.49619e-05 8.46884e-07
-2.03908e-06 8.46884e-07 0.000214452
0.00111596 2.8575e-05 -4.2335e-07
2.8575e-05 8.24061e-05 -4.80277e-07
-4.2335e-07 -4.80277e-07 -3.78941e-07
0.00119524 2.9985e-05 -7.6162e-08
2.9985e-05 0.000117571 -8.33866e-08
-7.6162e-08 -8.33866e-08 3.06451e-05
0.00116988 2.7298e-05 5.42884e-07
2.7298e-05 9.6694e-05 5.11081e-07
5.42884e-07 5.11081e-07 5.57436e-06
0.00104514 -1.13345e-05 1.21603e-07
-1.13345e-05 3.83483e-05 -1.21081e-06
1.21603e-07 -1.21081e-06 -1.43828e-05
0.000953674 1.4812e-05 -2.69895e-07
1.4812e-05 -2.49836e-06 -8.98724e-07
-2.69895e-07 -8.98724e-07 -7.06309e-05
0.00112091 9.55902e-06 -2.81586e-07
9.55902e-06 8.1188e-05 -7.06275e-07
-2.81586e-07 -7.06275e-07 5.31218e-06
0.00122402 1.48566e-05 -5.00156e-07
1.48566e-05 0.000130765 -6.8673e-07
-5.00156e-07 -6.8673e-07 4.86764e-05
0.0010956 2.68042e-05 -1.28007e-06
2.68042e-05 6.14821e-05 -1.23141e-06
-1.28007e-06 -1.23141e-06 -2.51399e-05
0.00111976 2.18325e-05 -1.92184e-07
2.18325e-05 8.01583e-05 -3.82992e-07
-1.92184e-07 -3.82992e-07 2.72674e-06
0.000940656 -8.25622e-07 -1.16314e-09
-8.25622e-07 -1.3272e-05 4.98936e-07
-1.16314e-09 4.98936e-07 -6.67852e-05
0.000994027 4.76457e-06 4.74561e-08
4.76457e-06 1.79775e-05 1.95321e-09
4.74561e-08 1.95321e-09 -5.06559e-05
0.00115652 2.10787e-05 8.26062e-08
2.10787e-05 8.81356e-05 1.30143e-07
8.26062e-08 1.30143e-07 -6.22289e-07
0.00118349 2.18758e-05 -2.38573e-07
2.18758e-05 0.000109558 -4.44285e-07
-2.38573e-07 -4.44285e-07 2.58013e-05
0.0012788 3.02473e-05 -8.82786e-08
3.02473e-05 0.000157306 -1.32115e-07
-8.82786e-08 -1.32115e-07 7.38438e-05
0.00120262 2.44468e-05 1.45921e-07
2.44468e-05 0.0001176 5.9299e-07
1.45921e-07 5.9299e-07 2.7273e-05
0.00101756 2.23903e-05 3.82048e-07
2.23903e-05 3.0375e-05 1.11288e-06
3.82048e-07 1.11288e-06 -4.94931e-05
0.000907177 -2.38673e-06 3.06907e-08
-2.38673e-06 -2.46817e-05 4.82119e-07
3.06907e-08 4.82119e-07 -9.44786e-05
0.000833611 -1.01195e-05 -4.59917e-07
-1.01195e-05 -6.62031e-05 1.65268e-06
-4.59917e-07 1.65268e-06 -0.000120342
0.00113293 1.26405e-06 -7.32057e-08
1.26405e-06 8.67208e-05 7.78325e-07
-7.32057e-08 7.78325e-07 1.9693e-05
0.00126723 4.56639e-06 -4.97327e-08
4.56639e-06 0.000155327 3.83427e-07
-4.97327e-08 3.83427e-07 7.80946e-05
0.00107511 -1.15163e-05 -2.33034e-07
-1.15163e-05 5.90714e-05 8.98129e-07
-2.33034e-07 8.98129e-07 -9.57007e-06
0.00110484 -4.1537e-06 1.92617e-07
-4.1537e-06 7.34943e-05 -4.71146e-07
1.92617e-07 -4.71146e-07 5.95095e-06
0.00104533 -8.50029e-06 -3.51033e-07
-8.50029e-06 3.68953e-05 1.22503e-06
-3.51033e-07 1.22503e-06 -1.6125e-05
0.000844955 -4.70727e-07 -3.70975e-08
-4.70727e-07 -6.11682e-05 4.74734e-07
-3.70975e-08 4.74734e-07 -0.000115011
0.00101803 9.57095e-07 -3.57287e-07
9.57095e-07 1.16466e-05 1.89433e-06
-3.57287e-07 1.89433e-06 -2.07401e-05
0.00101464 -2.57956e-08 3.83009e-08
-2.57956e-08 9.88288e-06 3.60883e-09
3.83009e-08 3.60883e-09 -2.23765e-05
0.000980496 1.53388e-06 -4.08275e-07
1.53388e-06 -2.07511e-05 4.66093e-06
-4.08275e-07 4.66093e-06 -2.28155e-05
0.00101489 -1.99959e-06 1.27958e-07
-1.99959e-06 1.0164e-05 -1.90016e-06
1.27958e-07 -1.90016e-06 -2.20211e-05
0.000959269 -3.47674e-07 9.23715e-08
-3.47674e-07 -3.13827e-05 3.52275e-09
9.23715e-08 3.52275e-09 -3.32285e-05
0.00241364 -7.32095e-07 4.08948e-08
-7.32095e-07 0.000683403 4.23501e-06
4.08948e-08 4.23501e-06 0.000706414
0.000977359 -2.21955e-06 -4.11166e-07
-2.21955e-06 -2.13891e-05 -4.6858e-06
-4.11166e-07 -4.6858e-06 -2.33696e-05
0.00178063 -2.88161e-06 -5.75456e-08
-2.88161e-06 0.000371514 4.30916e-08
-5.75456e-08 4.30916e-08 0.000391454
0.00110992 -4.73524e-06 -6.11193e-07
-4.73524e-06 4.24276e-05 -1.64978e-06
-6.11193e-07 -1.64978e-06 5.92755e-05
0.00101938 1.84882e-06 1.46538e-07
1.84882e-06 6.7561e-06 -1.91126e-06
1.46538e-07 -1.91126e-06 -1.88527e-05
0.0010184 3.36466e-06 -4.31131e-08
3.36466e-06 7.68575e-06 -1.15494e-08
-4.31131e-08 -1.15494e-08 -1.88329e-05
0.000946549 4.11057e-06 5.63982e-07
4.11057e-06 -3.65575e-05 -3.25201e-06
5.63982e-07 -3.25201e-06 -3.51573e-05
0.00101964 4.84375e-06 -5.896e-07
4.84375e-06 1.06859e-05 1.87056e-06
-5.896e-07 1.87056e-06 -1.72427e-05
0.00123524 6.29733e-06 -3.24788e-08
6.29733e-06 0.000108512 -6.11681e-07
-3.24788e-08 -6.11681e-07 0.000110256
0.00231629 7.72656e-06 4.3599e-06
7.72656e-06 0.00063903 -4.01107e-06
4.3599e-06 -4.01107e-06 0.000662558
0.000951651 7.73402e-06 -1.45848e-06
7.73402e-06 -2.77518e-05 3.21092e-06
-1.45848e-06 3.21092e-06 -2.92133e-05
0.00237365 1.01078e-05 -2.05836e-06
1.01078e-05 0.000671761 1.17928e-06
-2.05836e-06 1.17928e-06 0.000694036
0.00238646 1.28569e-05 -7.51079e-06
1.28569e-05 0.000682604 4.05885e-06
-7.51079e-06 4.05885e-06 0.000703877
0.00121207 -2.05581e-05 -5.75404e-07
-2.05581e-05 2.45564e-05 2.38916e-07
-5.75404e-07 2.38916e-07 -3.67101e-05
0.00128333 -8.28067e-07 -7.71482e-07
-8.28067e-07 7.72808e-05 -1.09873e-06
-7.71482e-07 -1.09873e-06 1.06686e-05
0.00124855 -2.29842e-05 5.33532e-06
-2.29842e-05 5.13248e-05 2.08832e-06
5.33532e-06 2.08832e-06 1.54327e-06
0.00120279 -4.3886e-05 -3.33809e-06
-4.3886e-05 -2.64959e-05 -2.74007e-06
-3.33809e-06 -2.74007e-06 -2.06996e-05
0.00122139 -1.98816e-06 -5.43346e-07
-1.98816e-06 4.12096e-05 -6.62967e-07
-5.43346e-07 -6.62967e-07 -2.07757e-05
0.00108454 3.29083e-06 -1.6268e-07
3.29083e-06 -6.19236e-05 -6.81798e-07
-1.6268e-07 -6.81798e-07 -9.32541e-05
0.00109725 2.23415e-05 -1.55242e-06
2.23415e-05 -6.81637e-05 2.88099e-06
-1.55242e-06 2.88099e-06 -0.000130664
0.00171167 -6.13457e-05 0.000108141
-6.13457e-05 0.000212998 3.1489e-05
0.000108141 3.1489e-05 6.29816e-05
0.000908202 -2.92233e-06 -7.75927e-06
-2.92233e-06 4.60343e-05 9.49773e-07
-7.75927e-06 9.49773e-07 3.31555e-05
0.00104921 -1.40933e-07 -1.49784e-08
-1.40933e-07 3.13153e-05 -1.0993e-06
-1.49784e-08 -1.0993e-06 -1.15354e-05
0.00105576 -5.87955e-06 -1.47619e-07
-5.87955e-06 3.53393e-05 4.27523e-09
-1.47619e-07 4.27523e-09 -8.52166e-06
0.00106209 1.62993e-05 -2.76009e-07
1.62993e-05 4.6677e-05 -6.38157e-07
-2.76009e-07 -6.38157e-07 -1.06927e-05
0.00106395 -4.51953e-06 -1.61179e-07
-4.51953e-06 4.6517e-05 -3.63152e-07
-1.61179e-07 -3.63152e-07 -8.35478e-06
0.00136929 2.82881e-05 -9.39223e-07
2.82881e-05 6.39292e-05 -4.89722e-07
-9.39223e-07 -4.89722e-07 -8.2919e-06
0.00156636 3.56911e-06 2.12383e-06
3.56911e-06 0.000124755 1.84677e-06
2.12383e-06 1.84677e-06 7.51156e-05
0.00120502 -3.26145e-05 -9.84624e-07
-3.26145e-05 -7.86622e-05 -1.36208e-06
-9.84624e-07 -1.36208e-06 -0.0001059
0.00116188 -3.51935e-05 -4.43712e-07
-3.51935e-05 8.39472e-05 1.71727e-06
-4.43712e-07 1.71727e-06 8.09695e-06
0.000821734 -3.78519e-05 -2.39015e-07
-3.78519e-05 -7.40606e-05 1.20347e-06
-2.39015e-07 1.20347e-06 -0.000166986
0.00105079 -3.98767e-05 -1.81733e-06
-3.98767e-05 -5.12367e-05 -1.46221e-06
-1.81733e-06 -1.46221e-06 -0.000115908
0.00114571 -3.66169e-05 -1.38796e-06
-3.66169e-05 8.12436e-05 5.66685e-07
-1.38796e-06 5.66685e-07 5.42241e-07
0.00118376 -3.31138e-05 -1.72693e-06
-3.31138e-05 0.000107733 4.04553e-08
-1.72693e-06 4.04553e-08 1.69486e-05
0.00116319 -2.99271e-05 -7.70381e-07
-2.99271e-05 0.000102277 1.7607e-06
-7.70381e-07 1.7607e-06 1.15012e-05
0.00104837 -5.98977e-07 -4.13631e-07
-5.98977e-07 3.6966e-05 1.18806e-06
-4.13631e-07 1.18806e-06 -1.22681e-05
0.0012244 -2.74131e-05 -4.14059e-07
-2.74131e-05 0.000131472 5.17308e-07
-4.14059e-07 5.17308e-07 5.06115e-05
0.00108955 -5.03116e-06 -2.00073e-07
-5.03116e-06 6.81722e-05 1.09374e-06
-2.00073e-07 1.09374e-06 3.26212e-07
0.00105281 1.07002e-06 -1.22114e-07
1.07002e-06 3.45652e-05 6.71468e-07
-1.22114e-07 6.71468e-07 -1.02596e-05
0.000946851 4.54087e-06 -2.3094e-07
4.54087e-06 -6.16911e-06 1.53353e-06
-2.3094e-07 1.53353e-06 -6.96212e-05
0.00141977 2.85267e-05 1.84668e-07
2.85267e-05 7.50696e-05 1.07803e-06
1.84668e-07 1.07803e-06 5.15554e-06
0.00105217 1.7237e-05 -7.07051e-08
1.7237e-05 4.40969e-05 -4.82147e-07
-7.07051e-08 -4.82147e-07 -1.50577e-05
0.000996502 -4.05941e-06 2.47473e-07
-4.05941e-06 2.02156e-05 1.95627e-08
2.47473e-07 1.95627e-08 -4.5132e-05
0.00109652 9.63254e-06 1.10251e-07
9.63254e-06 7.30297e-05 9.56639e-07
1.10251e-07 9.56639e-07 8.61255e-07
0.00156394 -1.34354e-05 -1.00196e-06
-1.34354e-05 6.7276e-05 1.12232e-07
-1.00196e-06 1.12232e-07 5.27601e-05
0.00132843 -4.54985e-05 -6.77052e-07
-4.54985e-05 -3.67477e-06 -7.59173e-07
-6.77052e-07 -7.59173e-07 -4.71917e-05
0.00110491 -3.91336e-05 1.73849e-07
-3.91336e-05 7.39251e-05 -2.48686e-07
1.73849e-07 -2.48686e-07 -1.11894e-05
0.00140671 -4.85821e-05 2.78254e-07
-4.85821e-05 0.00018602 4.04114e-07
2.78254e-07 4.04114e-07 9.68276e-05
0.00121005 -2.37899e-05 -5.48191e-08
-2.37899e-05 0.000129967 2.37264e-08
-5.48191e-08 2.37264e-08 4.87111e-05
0.00107058 -2.77684e-05 -3.71834e-07
-2.77684e-05 5.55609e-05 9.35513e-07
-3.71834e-07 9.35513e-07 -3.15736e-05
0.0011205 -3.74048e-05 -2.92688e-07
-3.74048e-05 8.91152e-05 -1.81634e-07
-2.92688e-07 -1.81634e-07 -7.704e-06
0.00124578 -3.15331e-05 5.88087e-07
-3.15331e-05 0.000151908 -3.82199e-07
5.88087e-07 -3.82199e-07 5.07739e-05
0.00116731 2.66353e-05 -3.44273e-07
2.66353e-05 -9.62479e-05 -2.13572e-06
-3.44273e-07 -2.13572e-06 -0.000146434
0.0019234 -4.92692e-05 2.94066e-06
-4.92692e-05 0.00018559 -2.015e-06
2.94066e-06 -2.015e-06 0.000174425
0.00155384 -5.72305e-05 4.4042e-06
-5.72305e-05 0.000185738 1.29472e-06
4.4042e-06 1.29472e-06 9.9214e-05
0.00119496 -4.83778e-05 1.29924e-06
-4.83778e-05 0.000122212 -1.56362e-06
1.29924e-06 -1.56362e-06 2.79472e-05
0.00102487 1.31026e-05 -3.10797e-07
1.31026e-05 3.84737e-05 -6.90141e-07
-3.10797e-07 -6.90141e-07 -3.62954e-05
0.00103379 -1.9079e-05 1.47628e-07
-1.9079e-05 4.2711e-05 -1.3769e-06
1.47628e-07 -1.3769e-06 -3.56991e-05
0.00110056 -2.74754e-05 4.58457e-08
-2.74754e-05 8.00515e-05 -1.13979e-06
4.58457e-08 -1.13979e-06 -1.49841e-05
0.00128075 -3.3403e-05 2.10667e-06
-3.3403e-05 0.000177773 -1.01481e-08
2.10667e-06 -1.01481e-08 6.25245e-05
0.00142238 2.43261e-05 1.05909e-05
2.43261e-05 -0.000253087 -1.7211e-06
1.05909e-05 -1.7211e-06 -0.000565084
0.00119748 3.09425e-05 -2.51469e-07
3.09425e-05 0.000119716 -3.60981e-07
-2.51469e-07 -3.60981e-07 3.61009e-05
0.00106101 3.21993e-05 -3.99808e-08
3.21993e-05 4.11887e-05 1.09232e-07
-3.99808e-08 1.09232e-07 -4.6305e-05
0.00116428 1.98967e-05 -3.10567e-06
1.98967e-05 -0.000130622 1.75048e-06
-3.10567e-06 1.75048e-06 -0.000161063
0.00154261 5.27999e-05 -2.91013e-06
5.27999e-05 7.41419e-05 -1.00067e-06
-2.91013e-06 -1.00067e-06 1.27963e-05
0.00142485 5.26681e-05 -1.83761e-06
5.26681e-05 0.000205493 4.05239e-07
-1.83761e-06 4.05239e-07 9.02475e-05
0.000988774 3.47417e-05 5.44598e-07
3.47417e-05 1.93391e-05 -3.57324e-07
5.44598e-07 -3.57324e-07 -7.83913e-05
0.00192883 -3.33786e-05 3.64027e-06
-3.33786e-05 0.000155264 7.64801e-06
3.64027e-06 7.64801e-06 0.000151933
0.0011974 3.1116e-05 1.79448e-08
3.1116e-05 0.000121541 -1.34914e-07
1.79448e-08 -1.34914e-07 3.29359e-05
0.00144214 6.43631e-05 2.02357e-06
6.43631e-05 -5.92571e-05 2.29289e-07
2.02357e-06 2.29289e-07 -0.000122496
0.00115545 3.35897e-05 1.15139e-07
3.35897e-05 0.000100891 1.24716e-07
1.15139e-07 1.24716e-07 7.60785e-06
0.00114006 4.26761e-05 -2.37921e-07
4.26761e-05 0.000122621 -6.48056e-08
-2.37921e-07 -6.48056e-08 3.8604e-06
0.000752962 6.42719e-05 -8.91183e-07
6.42719e-05 -0.000182073 -2.69717e-07
-8.91183e-07 -2.69717e-07 -0.000283888
0.000894931 -5.09648e-07 -1.36854e-05
-5.09648e-07 -0.000175497 -6.38567e-06
-1.36854e-05 -6.38567e-06 -0.000554689
0.00176714 -5.94471e-05 6.16013e-06
-5.94471e-05 0.000228168 -2.28009e-06
6.16013e-06 -2.28009e-06 -6.43861e-05
0.00248129 1.44236e-05 -2.55347e-06
1.44236e-05 0.000227051 -6.71057e-07
-2.55347e-06 -6.71057e-07 0.00027711
-0.00048466 -6.5393e-05 -1.03862e-05
-6.5393e-05 -0.000495031 -1.99019e-06
-1.03862e-05 -1.99019e-06 -0.000546278
0.000598379 -6.82304e-05 -2.3951e-06
-6.82304e-05 -0.000193125 -1.36813e-06
-2.3951e-06 -1.36813e-06 2.60149e-05
0.00112993 2.9906e-05 1.00454e-06
2.9906e-05 9.87733e-05 3.06939e-08
1.00454e-06 3.06939e-08 6.70881e-06
0.000469841 1.84763e-05 -6.98791e-05
1.84763e-05 -1.80109e-05 -9.68099e-06
-6.98791e-05 -9.68099e-06 -0.000160279
0.00187844 -3.57724e-05 6.36962e-06
-3.57724e-05 0.000740269 5.61117e-06
6.36962e-06 5.61117e-06 0.000819249
0.00154259 8.82819e-05 7.87134e-06
8.82819e-05 8.98469e-05 7.03023e-06
7.87134e-06 7.03023e-06 -4.27975e-06
0.00094171 2.8017e-05 -1.14424e-08
2.8017e-05 1.74465e-05 -5.5259e-07
-1.14424e-08 -5.5259e-07 -8.84925e-05
0.00156782 4.56213e-05 -3.0609e-06
4.56213e-05 0.000372041 1.26112e-06
-3.0609e-06 1.26112e-06 0.000217517
0.00208596 5.86946e-06 -2.3081e-05
5.86946e-06 0.00016288 -2.4258e-05
-2.3081e-05 -2.4258e-05 0.000101172
0.00555991 -5.18963e-05 -5.06849e-05
-5.18963e-05 0.00165952 -1.91186e-05
-5.06849e-05 -1.91186e-05 0.00115827
0.00124641 5.88879e-06 3.2083e-05
5.88879e-06 0.000250057 2.13e-05
3.2083e-05 2.13e-05 -0.000200546
6.39138e-05 -0.000118646 -4.91354e-05
-0.000118646 -0.000130844 -2.83306e-05
-4.91354e-05 -2.83306e-05 -6.43385e-05
-0.00102944 -3.57174e-05 3.88848e-06
-3.57174e-05 -0.00109915 2.27456e-06
3.88848e-06 2.27456e-06 -0.000997597
0.00113877 2.91327e-05 -7.81461e-07
2.91327e-05 9.05896e-05 -6.63369e-07
-7.81461e-07 -6.63369e-07 3.70699e-06
0.00120382 2.81343e-05 -3.74548e-07
2.81343e-05 0.0001137 1.28742e-07
-3.74548e-07 1.28742e-07 2.25722e-05
0.00122825 2.78299e-05 -7.8583e-08
2.78299e-05 0.000114503 1.96168e-07
-7.8583e-08 1.96168e-07 1.98821e-05
0.00104832 -1.707e-06 4.39263e-08
-1.707e-06 3.97217e-05 -6.74521e-07
4.39263e-08 -6.74521e-07 -1.30826e-05
0.0010775 2.24926e-07 8.27863e-08
2.24926e-07 5.93648e-05 -9.11555e-07
8.27863e-08 -9.11555e-07 -8.76191e-06
0.000998827 1.78529e-05 -5.59405e-07
1.78529e-05 2.0372e-05 -9.54742e-07
-5.59405e-07 -9.54742e-07 -5.78256e-05
0.00112469 2.18837e-05 -5.64053e-07
2.18837e-05 8.05047e-05 -1.01937e-06
-5.64053e-07 -1.01937e-06 -3.48283e-06
0.00117095 2.04812e-05 -5.23077e-07
2.04812e-05 9.69697e-05 -7.23297e-07
-5.23077e-07 -7.23297e-07 8.73399e-06
0.000837857 -3.18907e-06 4.84963e-08
-3.18907e-06 -6.41292e-05 4.98623e-07
4.84963e-08 4.98623e-07 -0.000118309
0.00117038 2.56559e-05 -2.34905e-07
2.56559e-05 0.000103693 -5.69504e-07
-2.34905e-07 -5.69504e-07 2.02569e-05
0.00112935 1.30813e-05 8.17657e-09
1.30813e-05 8.54973e-05 3.7282e-07
8.17657e-09 3.7282e-07 6.65439e-06
0.00100956 1.75629e-06 1.32382e-07
1.75629e-06 2.56681e-05 -4.11914e-07
1.32382e-07 -4.11914e-07 -4.33806e-05
0.0011195 2.37318e-05 3.96067e-08
2.37318e-05 7.60602e-05 2.37235e-07
3.96067e-08 2.37235e-07 -1.48592e-05
0.00113016 2.29534e-05 1.3263e-07
2.29534e-05 8.7312e-05 3.44361e-07
1.3263e-07 3.44361e-07 1.02804e-07
0.00111872 2.20067e-05 4.95645e-07
2.20067e-05 8.78644e-05 8.39742e-07
4.95645e-07 8.39742e-07 -9.14486e-06
0.00111194 -9.72838e-06 -2.91165e-07
-9.72838e-06 7.79691e-05 7.75438e-07
-2.91165e-07 7.75438e-07 -2.89501e-06
0.0011277 -1.00666e-05 -1.59107e-07
-1.00666e-05 8.38883e-05 3.39195e-07
-1.59107e-07 3.39195e-07 1.61508e-05
0.00113151 -5.19598e-06 -1.16106e-08
-5.19598e-06 8.593e-05 -7.95569e-08
-1.16106e-08 -7.95569e-08 1.89422e-05
0.00114129 -5.74009e-06 -6.75711e-08
-5.74009e-06 9.30278e-05 -3.78972e-07
-6.75711e-08 -3.78972e-07 1.48424e-05
0.00112619 3.98477e-06 -1.65499e-07
3.98477e-06 8.54624e-05 9.30433e-07
-1.65499e-07 9.30433e-07 6.60869e-06
0.00110646 -1.50944e-05 -2.23205e-07
-1.50944e-05 7.71363e-05 7.6957e-07
-2.23205e-07 7.6957e-07 -2.18246e-06
0.00117757 -1.32981e-05 -7.78166e-08
-1.32981e-05 0.000111615 -1.9688e-08
-7.78166e-08 -1.9688e-08 2.63137e-05
0.00108568 -2.68734e-05 -1.03287e-06
-2.68734e-05 6.40081e-05 4.89609e-07
-1.03287e-06 4.89609e-07 -1.65284e-05
0.00107407 -1.68248e-05 -3.48023e-07
-1.68248e-05 5.85216e-05 8.68455e-07
-3.48023e-07 8.68455e-07 -1.1462e-05
0.00107821 -1.4312e-05 2.13393e-08
-1.4312e-05 6.06314e-05 6.67744e-09
2.13393e-08 6.67744e-09 -8.00812e-06
0.00104991 -1.00581e-05 -5.13956e-07
-1.00581e-05 3.86104e-05 1.24425e-06
-5.13956e-07 1.24425e-06 -1.5303e-05
0.00093103 -9.07423e-06 4.49212e-07
-9.07423e-06 -1.2126e-05 -1.39312e-06
4.49212e-07 -1.39312e-06 -8.07778e-05
0.000952432 -7.28831e-06 7.59371e-08
-7.28831e-06 -8.76766e-06 -2.09667e-08
7.59371e-08 -2.09667e-08 -6.24222e-05
0.00101527 1.52038e-06 -5.4881e-07
1.52038e-06 1.07226e-05 1.91721e-06
-5.4881e-07 1.91721e-06 -2.19676e-05
0.000851697 -1.85361e-06 1.79556e-07
-1.85361e-06 -5.7948e-05 -6.67517e-07
1.79556e-07 -6.67517e-07 -0.000111782
0.001016 5.60887e-07 4.66615e-08
5.60887e-07 1.04843e-05 -9.0501e-12
4.66615e-08 -9.0501e-12 -2.18744e-05
0.00160373 3.64291e-06 -1.69455e-06
3.64291e-06 0.000288519 4.59698e-06
-1.69455e-06 4.59698e-06 0.000289221
0.00101277 -1.02149e-06 2.91217e-07
-1.02149e-06 8.883e-06 -1.87891e-06
2.91217e-07 -1.87891e-06 -2.33517e-05
0.00128233 1.66974e-06 -4.64106e-07
1.66974e-06 0.000128498 6.4412e-07
-4.64106e-07 6.4412e-07 0.000127975
0.00116747 1.2539e-06 -1.17392e-06
1.2539e-06 6.72679e-05 4.13546e-06
-1.17392e-06 4.13546e-06 8.42185e-05
0.000961231 -3.62479e-07 8.41493e-08
-3.62479e-07 -3.04176e-05 -3.33703e-06
8.41493e-08 -3.33703e-06 -3.2277e-05
0.00240964 -6.21797e-07 6.11824e-07
-6.21797e-07 0.00068141 4.5523e-10
6.11824e-07 4.5523e-10 0.000704435
0.00115543 -2.28144e-06 -5.61162e-07
-2.28144e-06 6.25103e-05 -4.14375e-06
-5.61162e-07 -4.14375e-06 7.94796e-05
0.0010623 4.59854e-06 1.06805e-08
4.59854e-06 3.75801e-05 -6.40236e-07
1.06805e-08 -6.40236e-07 -5.38567e-06
0.00101838 1.96746e-07 -1.68703e-08
1.96746e-07 5.37261e-06 -1.91175e-06
-1.68703e-08 -1.91175e-06 -1.98087e-05
0.00102113 1.77888e-06 -4.49581e-08
1.77888e-06 7.54507e-06 -8.68231e-09
-4.49581e-08 -8.68231e-09 -1.80745e-05
0.000951862 2.1135e-06 2.87891e-07
2.1135e-06 -3.53834e-05 -3.2598e-06
2.87891e-07 -3.2598e-06 -3.32855e-05
0.00101984 3.29237e-06 -4.39469e-07
3.29237e-06 8.27492e-06 1.90745e-06
-4.39469e-07 1.90745e-06 -1.82411e-05
0.000947931 4.1041e-06 2.25369e-08
4.1041e-06 -3.60435e-05 -6.32246e-07
2.25369e-08 -6.32246e-07 -3.46094e-05
0.00229309 5.17203e-06 2.80427e-06
5.17203e-06 0.00062515 -4.0126e-06
2.80427e-06 -4.0126e-06 0.000649325
0.00151914 6.91715e-06 -1.11905e-06
6.91715e-06 0.000249044 1.97739e-06
-1.11905e-06 1.97739e-06 0.000252061
0.00174893 7.10262e-06 2.20271e-08
7.10262e-06 0.000359392 1.21849e-06
2.20271e-08 1.21849e-06 0.000379846
0.00120215 8.56325e-06 -6.30596e-06
8.56325e-06 9.3256e-05 6.55813e-06
-6.30596e-06 6.55813e-06 0.000109611
0.000725422 -3.94944e-05 -6.73417e-07
-3.94944e-05 -0.000262526 1.98324e-06
-6.73417e-07 1.98324e-06 -0.000243686
0.00101592 -3.15255e-06 -1.70435e-07
-3.15255e-06 -5.27694e-05 -8.21379e-07
-1.70435e-07 -8.21379e-07 -0.000115246
0.0010493 3.39179e-06 -1.31005e-06
3.39179e-06 -7.92472e-05 -3.19767e-06
-1.31005e-06 -3.19767e-06 -0.000117212
0.000823945 -6.28903e-05 3.74492e-05
-6.28903e-05 -1.82933e-05 4.96432e-06
3.74492e-05 4.96432e-06 -0.000139642
0.000812832 -8.43216e-06 -2.48834e-06
-8.43216e-06 2.57485e-07 -1.06732e-07
-2.48834e-06 -1.06732e-07 -4.7643e-06
0.00110907 2.48733e-05 -9.79242e-07
2.48733e-05 -6.44038e-05 -1.33596e-06
-9.79242e-07 -1.33596e-06 -0.000128675
0.00123817 4.06298e-05 -2.21667e-06
4.06298e-05 0.000157211 4.87449e-06
-2.21667e-06 4.87449e-06 0.000105789
0.000377727 -6.1972e-06 8.72589e-05
-6.1972e-06 -0.00030315 7.44235e-06
8.72589e-05 7.44235e-06 -0.000470896
0.00537993 -1.56967e-05 -1.08947e-05
-1.56967e-05 0.00150952 5.39209e-06
-1.08947e-05 5.39209e-06 0.00104546
0.00214884 8.75858e-05 -2.15994e-05
8.75858e-05 0.000817878 1.23521e-05
-2.15994e-05 1.23521e-05 0.000725489
0.000825559 4.80105e-05 -1.42514e-06
4.80105e-05 2.22802e-06 -8.87742e-07
-1.42514e-06 -8.87742e-07 0.000161886
0.000880584 8.83845e-07 1.95864e-07
8.83845e-07 -4.29006e-05 -1.24112e-06
1.95864e-07 -1.24112e-06 -9.96675e-05
0.00105344 -7.07716e-07 4.173e-08
-7.07716e-07 3.34827e-05 1.60571e-08
4.173e-08 1.60571e-08 -9.43647e-06
0.00106144 -7.20393e-06 -3.66239e-07
-7.20393e-06 3.82148e-05 1.15137e-06
-3.66239e-07 1.15137e-06 -5.72048e-06
0.000999496 1.64583e-05 -5.0707e-08
1.64583e-05 1.66896e-05 -1.5926e-08
-5.0707e-08 -1.5926e-08 -4.09788e-05
0.00117836 2.70619e-05 7.58251e-08
2.70619e-05 0.000109389 5.05778e-08
7.58251e-08 5.05778e-08 4.23258e-05
0.0011468 2.06555e-05 8.41789e-08
2.06555e-05 8.9125e-05 -5.17683e-09
8.41789e-08 -5.17683e-09 2.58487e-05
0.00110422 9.55235e-07 1.38621e-07
9.55235e-07 6.75849e-05 -1.47233e-06
1.38621e-07 -1.47233e-06 1.11745e-05
0.00101079 -7.90525e-06 -1.72583e-08
-7.90525e-06 2.06202e-05 4.4526e-07
-1.72583e-08 4.4526e-07 -3.48003e-05
0.00152432 2.82761e-05 -1.07362e-07
2.82761e-05 0.000123377 1.05275e-06
-1.07362e-07 1.05275e-06 5.56754e-05
0.00147513 -1.4837e-05 1.32167e-06
-1.4837e-05 3.70938e-05 1.06351e-06
1.32167e-06 1.06351e-06 1.69776e-05
0.000951379 -4.21475e-05 -5.01947e-06
-4.21475e-05 -0.000184499 -2.8704e-06
-5.01947e-06 -2.8704e-06 -0.000226811
0.00127302 -4.0889e-05 3.55353e-08
-4.0889e-05 0.000153459 1.36706e-06
3.55353e-08 1.36706e-06 6.81861e-05
0.00116355 -4.60206e-05 -9.13252e-07
-4.60206e-05 7.00161e-05 1.03369e-06
-9.13252e-07 1.03369e-06 -1.84411e-05
0.00108792 -3.70274e-05 -2.5963e-06
-3.70274e-05 7.18729e-05 4.3934e-07
-2.5963e-06 4.3934e-07 -2.41023e-05
0.00124784 -3.13728e-05 1.42441e-08
-3.13728e-05 0.000154871 6.57966e-07
1.42441e-08 6.57966e-07 5.36837e-05
0.00107095 -2.7909e-05 -5.45374e-07
-2.7909e-05 5.49048e-05 1.35045e-06
-5.45374e-07 1.35045e-06 -3.11576e-05
0.00107935 -8.61343e-06 -1.87506e-07
-8.61343e-06 6.09016e-05 1.02971e-06
-1.87506e-07 1.02971e-06 -3.53333e-06
0.00124914 -2.18089e-05 -1.17801e-07
-2.18089e-05 0.000149496 6.70696e-07
-1.17801e-07 6.70696e-07 6.83922e-05
0.00126127 1.81531e-05 -5.09551e-09
1.81531e-05 0.000146675 4.29964e-07
-5.09551e-09 4.29964e-07 8.87516e-05
0.00100809 5.11228e-06 1.32291e-07
5.11228e-06 2.90096e-05 1.73853e-06
1.32291e-07 1.73853e-06 -4.24003e-05
0.00165287 3.08352e-05 1.21598e-06
3.08352e-05 0.000121659 -9.68921e-07
1.21598e-06 -9.68921e-07 7.31522e-05
0.00105295 1.13083e-05 -1.3578e-07
1.13083e-05 5.17705e-05 2.40974e-07
-1.3578e-07 2.40974e-07 -2.25259e-05
0.00110856 -1.97023e-05 9.1023e-08
-1.97023e-05 7.99429e-05 -4.02218e-07
9.1023e-08 -4.02218e-07 1.6866e-06
0.00154114 -4.66039e-05 -3.2877e-06
-4.66039e-05 4.9513e-06 -1.38102e-06
-3.2877e-06 -1.38102e-06 -1.59883e-06
0.00088308 -5.10828e-05 1.71338e-06
-5.10828e-05 -0.000128326 1.02342e-06
1.71338e-06 1.02342e-06 -0.000212497
0.00124686 -4.94841e-05 -4.18109e-07
-4.94841e-05 0.000144122 -1.46852e-07
-4.18109e-07 -1.46852e-07 4.67085e-05
0.00111127 -2.67709e-05 -1.15928e-07
-2.67709e-05 8.54395e-05 -4.02967e-07
-1.15928e-07 -4.02967e-07 -9.9577e-06
0.0011584 -3.18001e-05 9.12343e-07
-3.18001e-05 0.0001169 3.48642e-07
9.12343e-07 3.48642e-07 2.57631e-06
0.00208653 -4.49316e-06 -4.75077e-06
-4.49316e-06 9.8025e-05 7.35448e-06
-4.75077e-06 7.35448e-06 0.000151647
0.00219671 -8.7466e-05 8.14964e-06
-8.7466e-05 0.000453867 1.07585e-06
8.14964e-06 1.07585e-06 0.000367062
0.000327714 -5.13298e-05 1.26367e-06
-5.13298e-05 -0.000316515 -1.50234e-06
1.26367e-06 -1.50234e-06 -0.000418289
0.00130118 -4.31961e-05 1.74046e-06
-4.31961e-05 0.000188837 -1.89889e-07
1.74046e-06 -1.89889e-07 6.42734e-05
0.00102204 -1.81418e-05 -2.44254e-07
-1.81418e-05 3.89552e-05 -1.07526e-06
-2.44254e-07 -1.07526e-06 -4.25637e-05
0.00114894 -1.60589e-05 -7.79319e-08
-1.60589e-05 0.000103347 -9.93652e-07
-7.79319e-08 -9.93652e-07 1.39889e-05
0.00132483 -2.27774e-05 -4.72318e-07
-2.27774e-05 0.000197787 -1.11872e-06
-4.72318e-07 -1.11872e-06 8.65393e-05
-0.00143203 5.0357e-06 -6.16422e-05
5.0357e-06 -0.000687612 -8.06927e-07
-6.16422e-05 -8.06927e-07 -0.000655445
0.00505067 4.54972e-06 -2.37028e-05
4.54972e-06 0.00156752 -2.08035e-07
-2.37028e-05 -2.08035e-07 0.00123153
0.0011849 3.09508e-05 -9.61728e-08
3.09508e-05 0.00011588 -1.98502e-07
-9.61728e-08 -1.98502e-07 2.76289e-05
0.00101091 3.1545e-05 3.65443e-07
3.1545e-05 3.22608e-05 -4.68261e-07
3.65443e-07 -4.68261e-07 -6.08402e-05
0.00194062 6.56631e-05 -7.10615e-06
6.56631e-05 0.000171563 -4.84025e-07
-7.10615e-06 -4.84025e-07 0.000108903
0.00111896 6.59334e-05 -1.86279e-06
6.59334e-05 -1.3314e-05 -5.34464e-07
-1.86279e-06 -5.34464e-07 -0.00010974
0.00108916 4.10913e-05 6.53748e-07
4.10913e-05 9.68199e-05 -1.55224e-06
6.53748e-07 -1.55224e-06 -1.93381e-05
0.00534541 4.22453e-05 -8.17796e-06
4.22453e-05 0.00144968 -3.71952e-06
-8.17796e-06 -3.71952e-06 0.000977376
0.000149931 -6.8746e-05 -2.85775e-05
-6.8746e-05 -0.000104582 -9.91978e-06
-2.85775e-05 -9.91978e-06 -0.000317411
0.0023305 2.19577e-05 1.30431e-05
2.19577e-05 0.000160106 5.08479e-06
1.30431e-05 5.08479e-06 0.000197964
0.00271008 -0.000105563 2.28134e-05
-0.000105563 0.00111245 1.04644e-05
2.28134e-05 1.04644e-05 0.00104503
-3.83256e-05 -6.88973e-05 6.09169e-06
-6.88973e-05 -0.000522136 2.28876e-06
6.09169e-06 2.28876e-06 -0.00032386
0.00113686 3.0076e-05 3.13091e-07
3.0076e-05 9.85774e-05 -1.95863e-07
3.13091e-07 -1.95863e-07 6.7203e-06
-0.00109421 1.0411e-06 -1.41458e-05
1.0411e-06 -0.000438983 -1.05428e-06
-1.41458e-05 -1.05428e-06 -0.0004554
0.00127055 -3.36857e-05 -2.98452e-07
-3.36857e-05 0.000417359 -2.53253e-07
-2.98452e-07 -2.53253e-07 0.000487493
0.00154208 8.94745e-05 2.0612e-06
8.94745e-05 8.95917e-05 2.05745e-06
2.0612e-06 2.05745e-06 -4.46283e-06
0.00117028 2.85511e-05 7.37312e-08
2.85511e-05 0.00012819 -9.77628e-07
7.37312e-08 -9.77628e-07 2.62361e-05
0.00136259 4.4929e-05 3.60144e-07
4.4929e-05 0.000279674 -4.16291e-08
3.60144e-07 -4.16291e-08 0.00012924
0.00204289 9.66234e-06 -2.2825e-05
9.66234e-06 0.000163147 -2.02999e-05
-2.2825e-05 -2.02999e-05 9.79178e-05
0.00373035 2.8086e-06 9.92376e-06
2.8086e-06 0.000737737 6.85046e-06
9.92376e-06 6.85046e-06 0.000153893
-6.1749e-06 -1.7134e-05 -7.05816e-06
-1.7134e-05 -9.09601e-05 -1.17454e-05
-7.05816e-06 -1.17454e-05 -0.000311392
0.00175437 -0.000158125 5.15409e-07
-0.000158125 0.000305504 2.86581e-06
5.15409e-07 2.86581e-06 0.000274991
-0.000636214 -4.27132e-05 -9.47095e-07
-4.27132e-05 -0.000899064 -8.11908e-06
-9.47095e-07 -8.11908e-06 -0.000758181
0.00101428 1.94195e-05 -4.55886e-07
1.94195e-05 1.66246e-05 -3.39879e-07
-4.55886e-07 -3.39879e-07 -7.68092e-05
0.000304197 -7.30164e-06 9.47952e-06
-7.30164e-06 -7.19183e-05 2.5945e-06
9.47952e-06 2.5945e-06 -7.5759e-05
0.000531598 -8.91642e-06 8.64892e-06
-8.91642e-06 -2.88773e-05 1.55592e-05
8.64892e-06 1.55592e-05 -5.48196e-05
0.00116429 3.64174e-05 1.18246e-05
3.64174e-05 0.000140648 8.64942e-06
1.18246e-05 8.64942e-06 -4.78382e-05
0.00151287 1.86696e-05 -4.09095e-06
1.86696e-05 0.0003412 -1.51805e-06
-4.09095e-06 -1.51805e-06 0.000217544
0.00191025 -3.21825e-05 -6.36838e-06
-3.21825e-05 0.000495739 -3.94405e-06
-6.36838e-06 -3.94405e-06 0.000475442
8.1939e-05 6.24346e-05 -2.83869e-05
6.24346e-05 5.43267e-05 -8.2916e-06
-2.83869e-05 -8.2916e-06 -0.000154883
0.00323991 -7.66877e-05 3.94334e-05
-7.66877e-05 0.000345262 2.14262e-05
3.94334e-05 2.14262e-05 -0.000238942
0.00227138 -0.000178852 -2.19971e-05
-0.000178852 0.000410814 -2.43143e-05
-2.19971e-05 -2.43143e-05 0.000369538
-0.000224759 -1.62599e-05 3.73858e-06
-1.62599e-05 -0.000580932 3.23261e-06
3.73858e-06 3.23261e-06 -0.00056723
0.00124345 2.93869e-05 -6.74978e-07
2.93869e-05 0.000133587 3.48316e-07
-6.74978e-07 3.48316e-07 4.24161e-05
0.00116233 2.62168e-05 2.19286e-07
2.62168e-05 8.41727e-05 2.0463e-07
2.19286e-07 2.0463e-07 -1.07803e-05
0.00107979 2.63876e-05 1.23532e-06
2.63876e-05 6.34838e-05 5.72678e-07
1.23532e-06 5.72678e-07 -3.60554e-05
0.000842379 3.15952e-06 1.57913e-07
3.15952e-06 -6.19196e-05 -6.62778e-07
1.57913e-07 -6.62778e-07 -0.000116151
0.00111117 5.39029e-06 3.06841e-08
5.39029e-06 7.56681e-05 -1.32461e-06
3.06841e-08 -1.32461e-06 7.35041e-06
0.00124048 3.54001e-06 -8.72879e-08
3.54001e-06 0.000140351 -5.02343e-08
-8.72879e-08 -5.02343e-08 6.2519e-05
0.0010702 2.17215e-05 -9.10579e-08
2.17215e-05 5.39985e-05 -1.13846e-06
-9.10579e-08 -1.13846e-06 -2.94255e-05
0.00103669 2.36991e-05 -1.62978e-07
2.36991e-05 3.46424e-05 -2.90247e-07
-1.62978e-07 -2.90247e-07 -5.68909e-05
0.00112087 2.98845e-06 1.69532e-07
2.98845e-06 8.07066e-05 -4.95319e-07
1.69532e-07 -4.95319e-07 1.28416e-05
0.00111463 2.15805e-05 3.92535e-08
2.15805e-05 7.92801e-05 3.97494e-08
3.92535e-08 3.97494e-08 -7.21151e-06
0.00112881 -2.15912e-07 -6.30108e-08
-2.15912e-07 8.6295e-05 1.65969e-07
-6.30108e-08 1.65969e-07 5.35076e-06
0.00110341 2.26006e-05 9.8124e-08
2.26006e-05 8.03768e-05 2.16153e-07
9.8124e-08 2.16153e-07 -1.7647e-05
0.00100705 1.7717e-05 1.70337e-07
1.7717e-05 3.95317e-05 4.89936e-07
1.70337e-07 4.89936e-07 -6.5047e-05
0.00118598 1.42673e-05 1.15894e-07
1.42673e-05 0.000119752 9.98813e-07
1.15894e-07 9.98813e-07 2.74309e-05
0.00114758 5.3316e-06 5.15786e-08
5.3316e-06 9.51482e-05 6.40118e-07
5.15786e-08 6.40118e-07 1.53751e-05
0.00112791 -7.05227e-06 1.11404e-07
-7.05227e-06 8.42191e-05 -9.38175e-07
1.11404e-07 -9.38175e-07 1.72158e-05
0.00101673 -1.71682e-05 4.12177e-07
-1.71682e-05 3.1395e-05 -1.27178e-06
4.12177e-07 -1.27178e-06 -4.77622e-05
0.00113052 1.68113e-06 1.48557e-07
1.68113e-06 8.71652e-05 2.80466e-08
1.48557e-07 2.80466e-08 8.42081e-06
0.00111181 -1.63979e-05 -1.77576e-08
-1.63979e-05 7.98167e-05 2.52856e-08
-1.77576e-08 2.52856e-08 3.92908e-07
0.00112015 -1.84141e-05 2.6366e-07
-1.84141e-05 8.29383e-05 -6.23592e-07
2.6366e-07 -6.23592e-07 -2.17083e-06
0.00107437 -2.21714e-05 -5.44515e-07
-2.21714e-05 6.35758e-05 1.12189e-06
-5.44515e-07 1.12189e-06 -1.77194e-05
0.00120422 -4.72569e-06 -3.12685e-07
-4.72569e-06 0.000123054 1.9103e-07
-3.12685e-07 1.9103e-07 3.58033e-05
0.000993295 -2.5622e-05 -7.51466e-08
-2.5622e-05 2.4387e-05 3.87542e-07
-7.51466e-08 3.87542e-07 -6.44557e-05
0.00113353 -2.92744e-05 -3.79887e-07
-2.92744e-05 8.381e-05 -9.50664e-07
-3.79887e-07 -9.50664e-07 8.15069e-07
0.000920116 -2.94281e-05 7.23414e-08
-2.94281e-05 -1.83266e-05 1.84933e-07
7.23414e-08 1.84933e-07 -9.31901e-05
0.00101969 -2.82482e-05 -8.73194e-07
-2.82482e-05 2.66241e-05 -3.07137e-07
-8.73194e-07 -3.07137e-07 -4.98719e-05
0.00110509 -2.66895e-05 -3.69583e-07
-2.66895e-05 7.28252e-05 1.92634e-07
-3.69583e-07 1.92634e-07 -7.50943e-06
0.00108593 -2.21159e-05 -1.04082e-06
-2.21159e-05 6.1558e-05 1.16896e-06
-1.04082e-06 1.16896e-06 -8.6726e-06
0.00108309 -1.85673e-05 -5.40734e-09
-1.85673e-05 6.2964e-05 -6.71273e-09
-5.40734e-09 -6.71273e-09 -7.09944e-06
0.0010492 -1.01743e-05 -6.66921e-07
-1.01743e-05 3.77506e-05 1.25629e-06
-6.66921e-07 1.25629e-06 -1.72822e-05
0.00108183 -1.60866e-05 4.43332e-07
-1.60866e-05 6.25357e-05 -8.51083e-07
4.43332e-07 -8.51083e-07 -6.16602e-06
0.00105253 -8.88395e-06 1.07359e-07
-8.88395e-06 3.98762e-05 -1.58037e-08
1.07359e-07 -1.58037e-08 -1.40357e-05
0.00101082 2.02238e-06 -7.66518e-07
2.02238e-06 9.52235e-06 1.95104e-06
-7.66518e-07 1.95104e-06 -2.37904e-05
0.000856756 -5.3222e-06 3.64841e-07
-5.3222e-06 -5.57679e-05 -1.20893e-06
3.64841e-07 -1.20893e-06 -0.000110058
0.00101449 1.57576e-06 5.2672e-08
1.57576e-06 1.02325e-05 -4.27065e-09
5.2672e-08 -4.27065e-09 -2.24633e-05
0.00160258 5.59705e-06 -2.63122e-06
5.59705e-06 0.000289855 4.57949e-06
-2.63122e-06 4.57949e-06 0.000290191
0.00101336 2.90908e-07 4.72839e-07
2.90908e-07 9.02113e-06 -1.90184e-06
4.72839e-07 -1.90184e-06 -2.33076e-05
0.0012801 3.67314e-06 -7.28738e-07
3.67314e-06 0.000128551 6.42471e-07
-7.28738e-07 6.42471e-07 0.000127775
0.00111824 3.92537e-06 -6.51434e-07
3.92537e-06 4.43372e-05 1.63278e-06
-6.51434e-07 1.63278e-06 6.12357e-05
0.000959671 1.5731e-06 4.12426e-07
1.5731e-06 -3.11327e-05 -3.3232e-06
4.12426e-07 -3.3232e-06 -3.30983e-05
0.0024166 2.00369e-06 5.65341e-07
2.00369e-06 0.000684828 4.64185e-09
5.65341e-07 4.64185e-09 0.000707801
0.00240572 -5.10402e-07 7.53862e-07
-5.10402e-07 0.000679463 -4.22218e-06
7.53862e-07 -4.22218e-06 0.000702502
0.00130462 6.38557e-06 -3.44037e-07
6.38557e-06 0.000156953 -9.4037e-07
-3.44037e-07 -9.4037e-07 0.000114612
0.0010211 -1.03236e-06 -2.51732e-07
-1.03236e-06 6.89451e-06 -1.90897e-06
-2.51732e-07 -1.90897e-06 -1.85002e-05
0.00105519 2.75471e-06 6.83853e-08
2.75471e-06 3.41049e-05 4.28914e-07
6.83853e-08 4.28914e-07 -8.82612e-06
0.000956503 1.00954e-07 -6.86596e-08
1.00954e-07 -3.35868e-05 -3.26466e-06
-6.86596e-08 -3.26466e-06 -3.13009e-05
0.00102166 1.18066e-07 -3.09569e-08
1.18066e-07 7.00462e-06 2.22575e-10
-3.09569e-08 2.22575e-10 -1.82106e-05
0.00102257 1.70898e-06 -2.43069e-07
1.70898e-06 8.17129e-06 1.92693e-06
-2.43069e-07 1.92693e-06 -1.74568e-05
0.000957134 2.1508e-06 -5.59276e-08
2.1508e-06 -3.27848e-05 2.57014e-09
-5.59276e-08 2.57014e-09 -3.07231e-05
0.00227862 2.58631e-06 1.2648e-06
2.58631e-06 0.000616663 -4.03577e-06
1.2648e-06 -4.03577e-06 0.000641218
0.00151595 4.76149e-06 -7.98339e-07
4.76149e-06 0.000244827 1.99408e-06
-7.98339e-07 1.99408e-06 0.000248965
0.00171623 4.86435e-06 7.17232e-07
4.86435e-06 0.000340252 2.45172e-08
7.17232e-07 2.45172e-08 0.000361615
0.00119874 6.41933e-06 -5.09439e-06
6.41933e-06 8.71024e-05 6.46125e-06
-5.09439e-06 6.46125e-06 0.0001048
-0.00372124 1.66983e-05 -3.37719e-05
1.66983e-05 -0.00189579 1.10411e-05
-3.37719e-05 1.10411e-05 -0.00190981
-0.00106055 2.30621e-05 -1.432e-06
2.30621e-05 -0.000945207 -1.40661e-07
-1.432e-06 -1.40661e-07 -0.000924877
0.000204366 -4.91638e-05 -3.78322e-05
-4.91638e-05 -0.000164149 -9.47005e-06
-3.78322e-05 -9.47005e-06 -0.000266781
0.000834196 -1.35595e-05 1.66355e-06
-1.35595e-05 1.52953e-05 1.90731e-07
1.66355e-06 1.90731e-07 1.68888e-05
0.00117158 2.80995e-05 -5.59537e-06
2.80995e-05 -3.61777e-05 -2.36609e-06
-5.59537e-06 -2.36609e-06 -0.000102308
0.000439462 -1.80647e-05 1.49114e-05
-1.80647e-05 5.21736e-05 7.25731e-08
1.49114e-05 7.25731e-08 -1.21655e-05
0.0012783 4.32595e-05 1.53502e-06
4.32595e-05 0.000142803 2.167e-06
1.53502e-06 2.167e-06 8.79351e-05
0.00320339 2.2137e-06 -1.52099e-05
2.2137e-06 0.000687965 4.06472e-07
-1.52099e-05 4.06472e-07 0.000276719
-0.00139 4.50951e-05 1.08531e-05
4.50951e-05 -0.000671839 -4.03155e-06
1.08531e-05 -4.03155e-06 -0.000699578
0.000421429 5.1508e-05 -2.74358e-07
5.1508e-05 -0.000215161 1.96699e-06
-2.74358e-07 1.96699e-06 -6.52334e-05
0.000856846 3.00182e-05 1.69292e-05
3.00182e-05 0.000245374 -1.05954e-05
1.69292e-05 -1.05954e-05 0.000112545
0.0045975 4.96105e-05 -1.87589e-05
4.96105e-05 0.00133388 1.64879e-05
-1.87589e-05 1.64879e-05 0.000883901
0.000397132 0.000100511 -3.74038e-05
0.000100511 2.12605e-05 3.53479e-05
-3.74038e-05 3.53479e-05 7.79862e-05
0.00130006 3.07921e-05 3.66582e-06
3.07921e-05 0.000286211 -3.90454e-06
3.66582e-06 -3.90454e-06 0.000408557
0.000993875 1.15558e-05 -2.22772e-07
1.15558e-05 1.99923e-05 -1.14971e-06
-2.22772e-07 -1.14971e-06 -4.90234e-05
0.000980793 3.60431e-06 3.23725e-08
3.60431e-06 5.91395e-06 -3.92371e-07
3.23725e-08 -3.92371e-07 -5.02612e-05
0.00105946 -2.65293e-06 -1.13558e-08
-2.65293e-06 3.65527e-05 1.14855e-06
-1.13558e-08 1.14855e-06 -6.44589e-06
0.000936487 1.66304e-05 -5.6203e-08
1.66304e-05 -1.33809e-05 8.20304e-07
-5.6203e-08 8.20304e-07 -7.13728e-05
0.00111792 2.61667e-05 4.20578e-07
2.61667e-05 7.98668e-05 9.02424e-07
4.20578e-07 9.02424e-07 1.38845e-05
0.0011609 1.43409e-05 -6.21926e-08
1.43409e-05 9.86957e-05 -5.74947e-07
-6.21926e-08 -5.74947e-07 3.20134e-05
0.00109756 8.51943e-06 3.20912e-07
8.51943e-06 6.50456e-05 9.33558e-07
3.20912e-07 9.33558e-07 2.23687e-06
0.00109702 1.23706e-06 1.64084e-07
1.23706e-06 6.5749e-05 -4.62114e-07
1.64084e-07 -4.62114e-07 5.17189e-06
0.00103137 -1.03644e-06 2.1638e-08
-1.03644e-06 3.17285e-05 -4.89517e-07
2.1638e-08 -4.89517e-07 -2.54107e-05
0.000955121 -1.09774e-05 -1.49755e-07
-1.09774e-05 -6.53573e-06 1.27931e-06
-1.49755e-07 1.27931e-06 -6.2488e-05
0.00206656 3.464e-05 1.7052e-06
3.464e-05 0.000304631 3.27291e-06
1.7052e-06 3.27291e-06 0.00025789
0.00115356 -4.41216e-05 -8.16898e-06
-4.41216e-05 -0.000180274 -1.41332e-06
-8.16898e-06 -1.41332e-06 -0.000182515
0.000170084 -4.4639e-05 -2.21467e-06
-4.4639e-05 -0.000462414 7.49443e-07
-2.21467e-06 7.49443e-07 -0.00054414
0.0012868 -5.03476e-05 -1.65326e-06
-5.03476e-05 0.00016052 1.63829e-06
-1.65326e-06 1.63829e-06 6.00862e-05
0.0010294 -3.00691e-05 -2.24153e-07
-3.00691e-05 5.27249e-05 7.58395e-07
-2.24153e-07 7.58395e-07 -6.05225e-05
0.00112161 -2.64358e-05 -9.21688e-08
-2.64358e-05 9.07316e-05 4.35978e-07
-9.21688e-08 4.35978e-07 -5.04522e-06
0.001178 -2.21755e-05 8.72967e-08
-2.21755e-05 0.000114589 3.05734e-07
8.72967e-08 3.05734e-07 3.6532e-05
0.0010763 1.03615e-05 3.82763e-07
1.03615e-05 6.27462e-05 1.05759e-06
3.82763e-07 1.05759e-06 -1.10534e-05
0.00193426 -1.50326e-05 -2.97421e-06
-1.50326e-05 3.17771e-05 -1.02806e-07
-2.97421e-06 -1.02806e-07 6.403e-05
0.00100524 -8.33822e-06 -8.89189e-09
-8.33822e-06 3.14887e-05 -1.87912e-07
-8.89189e-09 -1.87912e-07 -5.04112e-05
0.00107056 -1.89018e-05 1.44245e-07
-1.89018e-05 6.49993e-05 -4.68841e-07
1.44245e-07 -4.68841e-07 -2.53504e-05
0.0015297 -7.77221e-05 2.14063e-06
-7.77221e-05 0.000125489 1.17803e-06
2.14063e-06 1.17803e-06 5.25182e-05
0.000737439 -5.5323e-05 -1.00689e-06
-5.5323e-05 -0.000120727 4.04526e-07
-1.00689e-06 4.04526e-07 -0.000223496
0.0012127 -4.15143e-05 9.96829e-07
-4.15143e-05 0.000140576 4.74868e-08
9.96829e-07 4.74868e-08 1.66457e-05
0.00125857 -2.11062e-05 -2.00883e-07
-2.11062e-05 0.000164609 -3.21502e-07
-2.00883e-07 -3.21502e-07 5.10769e-05
0.00242198 -5.44546e-05 -2.31423e-06
-5.44546e-05 0.00013051 7.48099e-06
-2.31423e-06 7.48099e-06 0.00022154
0.00111573 -7.09091e-05 1.75214e-06
-7.09091e-05 0.000130859 -2.53292e-06
1.75214e-06 -2.53292e-06 -1.47291e-05
0.00114092 -1.5409e-05 -1.043e-06
-1.5409e-05 0.000118903 -1.95423e-07
-1.043e-06 -1.95423e-07 -1.25959e-05
0.0010258 1.12788e-05 -4.03436e-08
1.12788e-05 3.89543e-05 5.31851e-08
-4.03436e-08 5.31851e-08 -4.29094e-05
0.00112255 -1.94436e-05 -2.48621e-07
-1.94436e-05 8.98142e-05 -7.66317e-07
-2.48621e-07 -7.66317e-07 2.44874e-07
0.00125211 -9.93387e-06 -3.79653e-07
-9.93387e-06 0.0001522 -8.93698e-07
-3.79653e-07 -8.93698e-07 5.21284e-05
0.000839291 1.06545e-06 1.27157e-05
1.06545e-06 0.000188996 2.30755e-07
1.27157e-05 2.30755e-07 0.00017537
0.00151783 7.91021e-06 1.46743e-06
7.91021e-06 0.000472736 -2.65809e-06
1.46743e-06 -2.65809e-06 0.000388359
0.000771903 6.74085e-05 -5.88162e-05
6.74085e-05 -0.000585019 7.96126e-06
-5.88162e-05 7.96126e-06 -0.000915781
0.00115042 3.03349e-05 -2.21731e-07
3.03349e-05 0.000101358 -4.49995e-07
-2.21731e-07 -4.49995e-07 9.72362e-06
0.00141666 2.9093e-05 1.42698e-06
2.9093e-05 0.000246081 -2.8109e-07
1.42698e-06 -2.8109e-07 0.000148236
0.00153025 9.05655e-05 -2.46826e-06
9.05655e-05 8.4308e-05 -2.54417e-06
-2.46826e-06 -2.54417e-06 -9.73529e-06
0.00113005 4.45815e-05 3.0138e-06
4.45815e-05 0.000175855 -1.67606e-06
3.0138e-06 -1.67606e-06 2.8472e-05
0.0028681 -5.04398e-05 1.88032e-05
-5.04398e-05 0.00114906 5.78239e-06
1.88032e-05 5.78239e-06 0.00108137
0.000688304 -7.46223e-05 5.60812e-05
-7.46223e-05 -0.000342788 3.66149e-05
5.60812e-05 3.66149e-05 -0.000662308
0.0013801 3.78112e-06 -7.29897e-05
3.78112e-06 9.22255e-05 -5.79727e-05
-7.29897e-05 -5.79727e-05 -0.000203692
0.00170343 8.90509e-06 6.41768e-06
8.90509e-06 2.95407e-05 -3.0909e-06
6.41768e-06 -3.0909e-06 -4.30429e-05
-0.00179757 -0.000112611 4.3063e-05
-0.000112611 -0.0012365 3.32962e-05
4.3063e-05 3.32962e-05 -0.00117715
0.00317352 -3.08581e-05 -2.43777e-06
-3.08581e-05 0.00156499 -3.48511e-06
-2.43777e-06 -3.48511e-06 0.00162921
0.00133661 -5.25085e-05 -1.05454e-05
-5.25085e-05 0.000268779 -1.48142e-05
-1.05454e-05 -1.48142e-05 0.000420246
0.00122143 2.25216e-05 -8.94078e-08
2.25216e-05 0.000121428 4.13567e-07
-8.94078e-08 4.13567e-07 2.68151e-05
0.000746424 -9.80309e-06 4.2635e-06
-9.80309e-06 0.000162007 1.34655e-06
4.2635e-06 1.34655e-06 0.000161832
0.000541064 -8.27959e-06 2.20737e-06
-8.27959e-06 -2.43045e-05 4.38743e-06
2.20737e-06 4.38743e-06 -4.8784e-05
0.00124112 4.46734e-05 2.62642e-06
4.46734e-05 0.000185493 3.92954e-06
2.62642e-06 3.92954e-06 -5.09477e-06
0.00103354 1.32473e-05 -1.54438e-08
1.32473e-05 0.000118408 -7.95757e-07
-1.54438e-08 -7.95757e-07 -8.39698e-06
0.00202352 -2.3872e-05 5.35497e-06
-2.3872e-05 0.000392259 1.30031e-05
5.35497e-06 1.30031e-05 0.000260099
0.00200066 8.8884e-05 -1.39632e-05
8.8884e-05 0.000543136 -3.77184e-05
-1.39632e-05 -3.77184e-05 0.000163285
0.00503405 -0.000116319 7.41491e-06
-0.000116319 0.00123676 4.13265e-06
7.41491e-06 4.13265e-06 0.000731627
-0.000285348 -0.000137218 7.45963e-06
-0.000137218 -0.000475121 1.4849e-05
7.45963e-06 1.4849e-05 -0.000530284
0.000881639 -2.45666e-05 -1.95706e-06
-2.45666e-05 4.32903e-05 -1.76095e-06
-1.95706e-06 -1.76095e-06 8.3549e-05
0.00108026 2.1863e-05 4.59436e-07
2.1863e-05 6.71799e-05 -1.06726e-06
4.59436e-07 -1.06726e-06 -2.09235e-05
0.00189632 -6.00771e-07 1.08186e-05
-6.00771e-07 0.000859144 3.6033e-06
1.08186e-05 3.6033e-06 0.000800337
0.0010098 1.91292e-06 5.26265e-06
1.91292e-06 0.000173611 4.15421e-06
5.26265e-06 4.15421e-06 0.000137778
0.00040984 -6.61779e-06 2.62898e-06
-6.61779e-06 -8.63552e-05 7.66041e-06
2.62898e-06 7.66041e-06 -0.000206413
0.000498144 5.99514e-05 5.7807e-06
5.99514e-05 0.000300984 2.48101e-05
5.7807e-06 2.48101e-05 0.000209447
0.00577115 -8.99951e-05 -2.02727e-05
-8.99951e-05 0.00143948 -2.17474e-05
-2.02727e-05 -2.17474e-05 0.000854416
-0.000966289 -0.000114811 -1.47252e-05
-0.000114811 -0.00145859 -3.92581e-05
-1.47252e-05 -3.92581e-05 -0.00120301
0.000896888 -1.20072e-05 -7.20713e-07
-1.20072e-05 6.92332e-05 -7.89019e-07
-7.20713e-07 -7.89019e-07 5.60111e-05
0.00108545 2.53843e-05 -2.91428e-07
2.53843e-05 4.84978e-05 -5.96802e-07
-2.91428e-07 -5.96802e-07 -4.6812e-05
0.00117732 2.52307e-05 3.13478e-07
2.52307e-05 0.000106575 2.57733e-07
3.13478e-07 2.57733e-07 8.00147e-06
0.00175489 2.58584e-05 7.55425e-08
2.58584e-05 0.00038763 -2.03822e-07
7.55425e-08 -2.03822e-07 0.000285013
0.0011161 1.64019e-05 -7.27956e-09
1.64019e-05 7.8456e-05 -1.33105e-06
-7.27956e-09 -1.33105e-06 1.048e-05
0.00114738 8.2323e-06 -8.6573e-08
8.2323e-06 9.53209e-05 -4.48795e-07
-8.6573e-08 -4.48795e-07 1.43508e-05
0.00109865 1.96885e-05 1.87122e-08
1.96885e-05 7.10044e-05 -4.97896e-07
1.87122e-08 -4.97896e-07 -1.47522e-05
0.00108185 2.20669e-05 -3.2283e-07
2.20669e-05 6.97347e-05 -5.90606e-07
-3.2283e-07 -5.90606e-07 -2.92326e-05
0.00113484 1.3524e-05 6.95196e-08
1.3524e-05 8.93657e-05 2.59468e-08
6.95196e-08 2.59468e-08 9.48191e-06
0.00121127 1.87864e-05 7.513e-08
1.87864e-05 0.000131269 3.27438e-07
7.513e-08 3.27438e-07 3.90831e-05
0.00102579 1.79227e-05 -5.00899e-08
1.79227e-05 5.14705e-05 -4.0215e-07
-5.00899e-08 -4.0215e-07 -5.40788e-05
0.00094789 1.28468e-05 -1.90985e-07
1.28468e-05 2.67411e-05 5.50499e-07
-1.90985e-07 5.50499e-07 -7.92104e-05
0.00110416 4.88651e-06 1.73316e-07
4.88651e-06 8.15014e-05 1.11098e-06
1.73316e-07 1.11098e-06 -2.17589e-05
0.00129069 1.37667e-05 6.21391e-08
1.37667e-05 0.000165165 5.33525e-07
6.21391e-08 5.33525e-07 7.59779e-05
0.00113551 -1.74681e-06 2.64725e-07
-1.74681e-06 8.91648e-05 -8.39455e-07
2.64725e-07 -8.39455e-07 1.05187e-05
0.00111601 -1.6298e-05 2.81165e-07
-1.6298e-05 8.19004e-05 -8.14159e-07
2.81165e-07 -8.14159e-07 2.39415e-06
0.00106227 -2.34618e-05 7.35088e-07
-2.34618e-05 5.40549e-05 -1.51284e-06
7.35088e-07 -1.51284e-06 -3.08459e-05
0.00120117 -4.98526e-06 -4.65502e-08
-4.98526e-06 0.0001212 -4.01975e-07
-4.65502e-08 -4.01975e-07 3.44096e-05
0.00109984 -1.93729e-05 -6.47824e-08
-1.93729e-05 7.61296e-05 2.14877e-07
-6.47824e-08 2.14877e-07 -5.10722e-06
0.00104489 -2.43958e-05 6.50994e-08
-2.43958e-05 4.81711e-05 -2.03497e-07
6.50994e-08 -2.03497e-07 -4.01657e-05
0.00111347 -2.72834e-05 -1.10468e-06
-2.72834e-05 8.13329e-05 3.20432e-10
-1.10468e-06 3.20432e-10 -8.09058e-06
0.00110896 -2.72081e-05 -1.73576e-08
-2.72081e-05 8.4359e-05 2.88968e-07
-1.73576e-08 2.88968e-07 -9.15694e-06
0.00117317 -3.24041e-05 2.71089e-08
-3.24041e-05 0.000106045 -4.82361e-08
2.71089e-08 -4.82361e-08 1.82831e-05
0.00115165 -2.95958e-05 -4.43091e-07
-2.95958e-05 9.26388e-05 -1.10622e-07
-4.43091e-07 -1.10622e-07 9.39583e-06
0.000968479 -3.08082e-05 -2.75472e-07
-3.08082e-05 3.8405e-06 4.89614e-07
-2.75472e-07 4.89614e-07 -7.6063e-05
0.0011383 -3.36634e-05 -1.08637e-06
-3.36634e-05 7.62855e-05 1.28253e-06
-1.08637e-06 1.28253e-06 1.01425e-06
0.00121348 -2.9992e-05 -3.08466e-07
-2.9992e-05 0.000117731 -5.23314e-07
-3.08466e-07 -5.23314e-07 4.93605e-05
0.000983429 -3.02516e-05 5.18306e-07
-3.02516e-05 1.34534e-05 -8.06592e-07
5.18306e-07 -8.06592e-07 -5.96187e-05
0.00110657 -2.91464e-05 3.9617e-07
-2.91464e-05 6.84656e-05 -1.65651e-07
3.9617e-07 -1.65651e-07 -7.51847e-06
0.000977522 -2.17947e-05 -1.0499e-06
-2.17947e-05 4.62721e-06 4.73506e-07
-1.0499e-06 4.73506e-07 -6.40153e-05
0.00112474 -2.66029e-05 1.91844e-07
-2.66029e-05 8.17896e-05 4.17512e-08
1.91844e-07 4.17512e-08 1.64879e-06
0.00108685 -2.18644e-05 -2.11643e-07
-2.18644e-05 6.2059e-05 3.86494e-07
-2.11643e-07 3.86494e-07 -8.09542e-06
0.00105763 -9.94713e-06 -8.45344e-07
-9.94713e-06 4.07382e-05 1.29168e-06
-8.45344e-07 1.29168e-06 -1.49808e-05
0.00109106 -1.97055e-05 4.40602e-07
-1.97055e-05 6.68267e-05 -8.85677e-07
4.40602e-07 -8.85677e-07 -3.27564e-06
0.00105416 -1.03804e-05 3.32494e-08
-1.03804e-05 4.0102e-05 -1.59074e-08
3.32494e-08 -1.59074e-08 -1.49536e-05
0.00100617 2.47707e-06 -1.01942e-06
2.47707e-06 8.3689e-06 1.98038e-06
-1.01942e-06 1.98038e-06 -2.5717e-05
0.001055 -8.05458e-06 6.01672e-07
-8.05458e-06 4.10644e-05 -1.22884e-06
6.01672e-07 -1.22884e-06 -1.28462e-05
0.00101065 1.94221e-06 6.79127e-08
1.94221e-06 9.38373e-06 -5.19345e-09
6.79127e-08 -5.19345e-09 -2.39466e-05
0.00160298 7.44212e-06 -3.52422e-06
7.44212e-06 0.000292642 4.55706e-06
-3.52422e-06 4.55706e-06 0.000292433
0.00101372 1.24128e-06 6.81496e-07
1.24128e-06 9.7523e-06 -1.95156e-06
6.81496e-07 -1.95156e-06 -2.29481e-05
0.00127747 5.52835e-06 -9.87109e-07
5.52835e-06 0.000129266 6.37954e-07
-9.87109e-07 6.37954e-07 0.000128091
0.00111644 6.13663e-06 -1.02459e-06
6.13663e-06 4.60414e-05 1.6283e-06
-1.02459e-06 1.6283e-06 6.24934e-05
0.000957281 3.44604e-06 7.73617e-07
3.44604e-06 -3.12168e-05 -3.31824e-06
7.73617e-07 -3.31824e-06 -3.34294e-05
0.00177698 4.47461e-06 1.55187e-06
4.47461e-06 0.000369709 -1.27478e-06
1.55187e-06 -1.27478e-06 0.000389533
0.00241301 2.20152e-06 2.29754e-06
2.20152e-06 0.000683323 -4.21001e-06
2.29754e-06 -4.21001e-06 0.000706267
0.00112297 -2.73226e-06 -8.89811e-08
-2.73226e-06 6.95674e-05 -1.04429e-06
-8.89811e-08 -1.04429e-06 2.38307e-05
0.00102039 -2.40031e-06 -4.32015e-07
-2.40031e-06 7.53367e-06 -1.8836e-06
-4.32015e-07 -1.8836e-06 -1.84284e-05
0.00109104 1.03807e-06 9.88706e-08
1.03807e-06 5.23997e-05 1.28637e-07
9.88706e-08 1.28637e-07 8.76991e-06
0.000959514 -1.76119e-06 -4.5635e-07
-1.76119e-06 -3.17338e-05 -3.25068e-06
-4.5635e-07 -3.25068e-06 -2.97014e-05
0.00102027 -1.09495e-06 -6.25806e-08
-1.09495e-06 6.56031e-06 7.7172e-09
-6.25806e-08 7.7172e-09 -1.88306e-05
0.00104768 2.58805e-06 6.01256e-08
2.58805e-06 3.04479e-05 1.55859e-06
6.01256e-08 1.55859e-06 -1.24554e-05
0.00227782 5.48591e-08 -4.9284e-07
5.48591e-08 0.000615897 -4.05612e-06
-4.9284e-07 -4.05612e-06 0.000640515
0.000956553 1.3434e-07 -9.90665e-08
1.3434e-07 -3.35704e-05 -6.70016e-09
-9.90665e-08 -6.70016e-09 -3.12838e-05
0.00102456 3.60344e-08 -5.72671e-08
3.60344e-08 8.43987e-06 1.93817e-06
-5.72671e-08 1.93817e-06 -1.68067e-05
0.000962563 2.18711e-06 -4.03073e-07
2.18711e-06 -3.01111e-05 3.24135e-06
-4.03073e-07 3.24135e-06 -2.80861e-05
0.00227685 2.66465e-06 -5.57002e-07
2.66465e-06 0.000615934 -5.37902e-09
-5.57002e-07 -5.37902e-09 0.000640453
0.0022938 5.12249e-06 -3.77174e-06
5.12249e-06 0.000625732 4.02262e-06
-3.77174e-06 4.02262e-06 0.000649824
-0.00121042 8.30986e-06 8.50994e-06
8.30986e-06 -0.000981607 -1.25496e-06
8.50994e-06 -1.25496e-06 -0.000999224
-0.00052271 1.57449e-05 1.98638e-05
1.57449e-05 -0.000269973 -4.64363e-06
1.98638e-05 -4.64363e-06 -0.000332337
0.000753093 -3.49244e-06 1.49482e-05
-3.49244e-06 0.000137315 -5.32093e-06
1.49482e-05 -5.32093e-06 0.000104314
-0.00127916 2.70266e-05 -7.65872e-06
2.70266e-05 -0.00109375 1.58003e-06
-7.65872e-06 1.58003e-06 -0.00105752
0.00134598 6.54014e-06 -4.6843e-05
6.54014e-06 0.000142481 -3.43066e-06
-4.6843e-05 -3.43066e-06 2.07478e-05
0.00118365 4.41944e-05 3.78191e-06
4.41944e-05 6.93045e-05 -1.40669e-06
3.78191e-06 -1.40669e-06 1.1419e-05
0.000924575 -5.04438e-05 -1.63656e-05
-5.04438e-05 -0.000100692 -1.37243e-06
-1.63656e-05 -1.37243e-06 -0.000428815
0.00259108 4.24245e-05 6.77654e-05
4.24245e-05 0.00117489 -2.49825e-05
6.77654e-05 -2.49825e-05 0.00107256
1.32775e-05 5.45242e-05 2.01796e-06
5.45242e-05 -0.000435256 -2.44978e-06
2.01796e-06 -2.44978e-06 -0.000292462
0.00108265 2.91392e-05 -3.97765e-06
2.91392e-05 0.000158371 2.49915e-06
-3.97765e-06 2.49915e-06 1.64882e-05
0.0023418 -2.49771e-05 6.29173e-06
-2.49771e-05 0.000238245 -5.63967e-06
6.29173e-06 -5.63967e-06 -0.000366647
0.00219408 0.000141417 2.0852e-06
0.000141417 0.000592795 4.62626e-06
2.0852e-06 4.62626e-06 0.000539817
0.000870721 2.2356e-05 -1.86897e-06
2.2356e-05 3.98219e-05 -1.56185e-06
-1.86897e-06 -1.56185e-06 0.000172184
0.000866352 1.07077e-05 6.17096e-06
1.07077e-05 0.00031459 -3.91738e-07
6.17096e-06 -3.91738e-07 8.75598e-05
0.00279724 4.83146e-05 4.67977e-05
4.83146e-05 0.00020454 -2.02029e-05
4.67977e-05 -2.02029e-05 -0.000452519
-0.00111853 0.000133664 -2.8782e-05
0.000133664 -0.00103563 4.4893e-05
-2.8782e-05 4.4893e-05 -0.00104664
0.000105804 -3.53944e-06 9.37571e-06
-3.53944e-06 -0.000359886 5.39107e-07
9.37571e-06 5.39107e-07 -0.000360209
0.00114348 -2.23886e-06 2.31172e-07
-2.23886e-06 9.28726e-05 -7.88922e-07
2.31172e-07 -7.88922e-07 1.7738e-05
0.00109427 1.44649e-05 -3.60652e-07
1.44649e-05 6.82895e-05 -2.28645e-07
-3.60652e-07 -2.28645e-07 2.08836e-07
0.00108457 5.9662e-06 1.88889e-07
5.9662e-06 5.64372e-05 4.39711e-07
1.88889e-07 4.39711e-07 8.42408e-07
0.00106787 2.54408e-05 5.99594e-07
2.54408e-05 5.53067e-05 1.55004e-06
5.99594e-07 1.55004e-06 -9.60767e-06
0.00106461 7.16626e-06 -1.03501e-07
7.16626e-06 5.18672e-05 -3.76358e-07
-1.03501e-07 -3.76358e-07 -2.02981e-05
0.00119133 1.13857e-05 9.66494e-08
1.13857e-05 0.000113043 4.3435e-07
9.66494e-08 4.3435e-07 4.70564e-05
0.00105014 -8.62834e-07 -1.97026e-07
-8.62834e-07 4.17505e-05 1.8796e-06
-1.97026e-07 1.8796e-06 -2.05397e-05
0.00122383 1.56139e-05 -2.40945e-07
1.56139e-05 0.000129 -7.66697e-07
-2.40945e-07 -7.66697e-07 6.61698e-05
0.00117748 8.19415e-06 3.2231e-08
8.19415e-06 0.000105079 4.66347e-07
3.2231e-08 4.66347e-07 4.52033e-05
0.000958041 -3.95991e-06 -1.83573e-07
-3.95991e-06 -4.34062e-06 4.51482e-07
-1.83573e-07 4.51482e-07 -6.2206e-05
0.0017044 -2.53735e-05 -5.51832e-06
-2.53735e-05 -6.72437e-05 2.34981e-07
-5.51832e-06 2.34981e-07 -5.6975e-05
0.000873534 -6.80854e-05 -5.34048e-06
-6.80854e-05 -0.000196638 2.47896e-06
-5.34048e-06 2.47896e-06 -0.000255683
0.00121971 -6.01048e-05 -1.20387e-06
-6.01048e-05 0.000109248 2.83031e-06
-1.20387e-06 2.83031e-06 5.42376e-06
0.00113857 -4.01077e-05 -6.32664e-07
-4.01077e-05 9.9786e-05 3.04971e-07
-6.32664e-07 3.04971e-07 -2.42611e-05
0.00118854 -1.97133e-05 3.68091e-07
-1.97133e-05 0.000129586 4.13243e-07
3.68091e-07 4.13243e-07 1.36788e-05
0.000997594 -2.21204e-05 2.59765e-07
-2.21204e-05 2.92999e-05 7.58362e-08
2.59765e-07 7.58362e-08 -6.20571e-05
0.000995231 -3.43363e-07 6.02759e-08
-3.43363e-07 2.72243e-05 4.96057e-07
6.02759e-08 4.96057e-07 -5.50612e-05
0.00106904 -8.02539e-06 -3.10016e-08
-8.02539e-06 6.05044e-05 7.07435e-07
-3.10016e-08 7.07435e-07 -2.13824e-05
0.00191058 -6.14605e-05 8.90489e-07
-6.14605e-05 -7.83841e-05 3.4583e-07
8.90489e-07 3.4583e-07 -8.61334e-06
0.00115418 -1.06408e-05 1.52779e-07
-1.06408e-05 0.000106494 -2.33184e-07
1.52779e-07 -2.33184e-07 1.75446e-05
0.0013007 -1.28275e-05 8.9282e-08
-1.28275e-05 0.000177526 1.22933e-07
8.9282e-08 1.22933e-07 7.58804e-05
0.00137054 -7.14357e-05 4.73656e-07
-7.14357e-05 0.000249456 -1.21061e-06
4.73656e-07 -1.21061e-06 0.000104174
0.00120788 -1.72078e-05 -3.27154e-07
-1.72078e-05 0.000147813 1.43787e-07
-3.27154e-07 1.43787e-07 1.62657e-05
0.00178887 -7.59323e-05 -1.26349e-05
-7.59323e-05 2.67544e-05 6.55696e-06
-1.26349e-05 6.55696e-06 1.23125e-05
0.000985087 -1.91482e-05 -3.15762e-07
-1.91482e-05 0.000154024 -2.89056e-06
-3.15762e-07 -2.89056e-06 -2.94378e-05
0.00123514 -7.27335e-06 -4.89842e-07
-7.27335e-06 0.000142831 -4.36341e-07
-4.89842e-07 -4.36341e-07 2.90714e-05
0.00110226 1.19827e-05 -1.92652e-07
1.19827e-05 7.63107e-05 -2.74425e-07
-1.92652e-07 -2.74425e-07 -1.17378e-05
0.00117682 6.23371e-06 -2.48398e-07
6.23371e-06 0.000109579 -1.3114e-06
-2.48398e-07 -1.3114e-06 1.2661e-05
0.00186613 -5.85136e-07 4.49371e-06
-5.85136e-07 0.000876226 8.29304e-07
4.49371e-06 8.29304e-07 0.000802742
-0.000244432 1.79648e-06 5.90905e-06
1.79648e-06 -0.000432288 -2.58271e-07
5.90905e-06 -2.58271e-07 -0.000453252
-0.00354145 3.14322e-06 6.12559e-05
3.14322e-06 -0.00190135 5.90597e-07
6.12559e-05 5.90597e-07 -0.00188105
0.00145301 2.58612e-05 3.4642e-08
2.58612e-05 0.000238592 1.05587e-06
3.4642e-08 1.05587e-06 0.000142709
0.000598899 1.00394e-05 1.73951e-06
1.00394e-05 -8.24231e-05 -1.18758e-06
1.73951e-06 -1.18758e-06 -0.000211706
0.0011915 5.21626e-05 1.659e-06
5.21626e-05 0.000162644 -7.9798e-06
1.659e-06 -7.9798e-06 -2.59841e-05
-0.000597434 -6.73598e-06 -2.70831e-06
-6.73598e-06 -0.000619837 -8.7855e-07
-2.70831e-06 -8.7855e-07 -0.000636661
0.00216915 -7.70635e-05 -1.61002e-07
-7.70635e-05 -0.000122994 1.7988e-05
-1.61002e-07 1.7988e-05 -0.000749007
0.000154321 5.17396e-05 -5.1501e-06
5.17396e-05 4.52651e-05 -3.02661e-05
-5.1501e-06 -3.02661e-05 -0.000172655
0.00295146 -2.25169e-05 6.0085e-05
-2.25169e-05 0.000643103 1.30463e-05
6.0085e-05 1.30463e-05 0.000412093
0.00352477 -0.000186264 4.80815e-05
-0.000186264 0.00116634 5.44577e-05
4.80815e-05 5.44577e-05 0.00106454
0.0005489 -8.10249e-06 -1.18014e-05
-8.10249e-06 -2.0085e-05 -6.83999e-06
-1.18014e-05 -6.83999e-06 -4.28842e-05
0.00049252 -2.0849e-05 -8.72775e-06
-2.0849e-05 -0.000177439 -6.54844e-06
-8.72775e-06 -6.54844e-06 -0.000156367
0.00105221 2.49487e-05 5.88349e-07
2.49487e-05 5.15118e-05 8.43459e-07
5.88349e-07 8.43459e-07 -3.56695e-05
0.00138803 6.34387e-08 1.30155e-06
6.34387e-08 0.000547018 1.07744e-06
1.30155e-06 1.07744e-06 0.000482207
0.000855879 1.45784e-06 3.0671e-07
1.45784e-06 7.32518e-05 -5.19718e-07
3.0671e-07 -5.19718e-07 3.70519e-05
-3.64584e-05 -3.19632e-06 9.37308e-06
-3.19632e-06 -0.000326876 1.8916e-06
9.37308e-06 1.8916e-06 -0.000469136
0.000965212 6.01624e-05 -2.06953e-05
6.01624e-05 0.000381356 -4.92429e-06
-2.06953e-05 -4.92429e-06 0.000177543
0.00486875 -1.91304e-05 1.27856e-05
-1.91304e-05 0.00071668 9.46647e-06
1.27856e-05 9.46647e-06 0.000103899
0.000769637 -1.00816e-05 -1.5136e-06
-1.00816e-05 2.42738e-05 1.67902e-06
-1.5136e-06 1.67902e-06 1.45051e-06
0.00141352 -0.000150606 3.55273e-06
-0.000150606 -0.000151211 1.41619e-05
3.55273e-06 1.41619e-05 -9.02109e-05
0.00101153 1.24954e-05 3.20343e-07
1.24954e-05 2.88073e-05 -6.36978e-06
3.20343e-07 -6.36978e-06 -4.88402e-05
0.000885365 3.83432e-06 1.40009e-06
3.83432e-06 0.000137327 2.24185e-06
1.40009e-06 2.24185e-06 5.69318e-05
0.00132006 -9.16943e-06 5.26849e-07
-9.16943e-06 0.000326751 3.94041e-06
5.26849e-07 3.94041e-06 0.000290178
5.20487e-05 -6.69979e-06 -9.37749e-06
-6.69979e-06 -0.000425491 3.68745e-06
-9.37749e-06 3.68745e-06 -0.000398388
-0.00119343 2.84638e-05 -6.87573e-06
2.84638e-05 -0.000750293 -1.58385e-07
-6.87573e-06 -1.58385e-07 -0.000813721
0.00673825 -4.54501e-05 -8.75265e-06
-4.54501e-05 0.00186744 1.17675e-05
-8.75265e-06 1.17675e-05 0.00125482
0.000169076 -8.13004e-06 7.56723e-06
-8.13004e-06 -0.00112744 -5.44368e-05
7.56723e-06 -5.44368e-05 -0.000776766
0.00129073 2.58561e-05 1.34874e-09
2.58561e-05 0.000157296 5.28338e-07
1.34874e-09 5.28338e-07 5.96269e-05
0.00148348 2.23081e-05 -6.62314e-07
2.23081e-05 0.000257029 -3.0512e-07
-6.62314e-07 -3.0512e-07 0.000153417
0.00117262 2.18522e-05 -4.76001e-07
2.18522e-05 0.000144683 6.25284e-07
-4.76001e-07 6.25284e-07 3.30472e-05
0.0011205 2.26322e-05 2.53962e-09
2.26322e-05 8.28567e-05 -6.1145e-07
2.53962e-09 -6.1145e-07 2.85313e-06
0.00122804 2.45413e-05 -1.11588e-09
2.45413e-05 0.00013883 -2.72578e-07
-1.11588e-09 -2.72578e-07 4.67462e-05
0.00110686 1.84502e-05 -5.18498e-07
1.84502e-05 9.41052e-05 -1.06148e-06
-5.18498e-07 -1.06148e-06 -1.25393e-05
0.00126209 1.27733e-05 -6.71205e-08
1.27733e-05 0.00015153 -1.72376e-07
-6.71205e-08 -1.72376e-07 6.2688e-05
0.00119094 3.62497e-06 7.78051e-08
3.62497e-06 0.000125663 2.59056e-07
7.78051e-08 2.59056e-07 2.19068e-05
0.00101832 1.53791e-05 3.10877e-07
1.53791e-05 5.7092e-05 4.36804e-07
3.10877e-07 4.36804e-07 -5.00163e-05
0.00106515 1.24349e-05 -2.62478e-07
1.24349e-05 9.08843e-05 1.75125e-07
-2.62478e-07 1.75125e-07 -1.4288e-05
0.0011249 -1.84894e-05 -6.078e-07
-1.84894e-05 9.17127e-05 7.80341e-07
-6.078e-07 7.80341e-07 -7.32877e-06
0.00120156 -4.9308e-06 -1.60899e-07
-4.9308e-06 0.000121029 -9.81986e-07
-1.60899e-07 -9.81986e-07 3.46923e-05
0.00112458 -1.6857e-05 1.12634e-07
-1.6857e-05 8.8371e-05 -3.50161e-07
1.12634e-07 -3.50161e-07 7.18445e-06
0.00109544 -2.34348e-05 1.4858e-07
-2.34348e-05 7.14775e-05 -5.79335e-07
1.4858e-07 -5.79335e-07 -1.63636e-05
0.00111505 -2.62143e-05 1.51792e-07
-2.62143e-05 8.54802e-05 -1.0764e-07
1.51792e-07 -1.0764e-07 -7.62226e-06
0.00105475 -2.5324e-05 -4.25164e-07
-2.5324e-05 5.28521e-05 2.46712e-07
-4.25164e-07 2.46712e-07 -3.67324e-05
0.00114908 -3.07183e-05 -6.62585e-07
-3.07183e-05 0.00011094 1.05662e-06
-6.62585e-07 1.05662e-06 1.49757e-05
0.00111253 -3.16652e-05 4.59171e-07
-3.16652e-05 7.95235e-05 -5.15647e-07
4.59171e-07 -5.15647e-07 -5.24863e-06
0.0010293 -3.40367e-05 1.92883e-07
-3.40367e-05 4.1008e-05 1.03448e-06
1.92883e-07 1.03448e-06 -5.26333e-05
0.00118053 -2.99965e-05 7.18161e-07
-2.99965e-05 0.000106403 6.84035e-08
7.18161e-07 6.84035e-08 2.29285e-05
0.00116091 -3.31944e-05 6.7281e-08
-3.31944e-05 9.48894e-05 6.55303e-07
6.7281e-08 6.55303e-07 1.49264e-05
0.00101542 -3.4909e-05 -3.11135e-07
-3.4909e-05 1.17068e-05 1.46493e-06
-3.11135e-07 1.46493e-06 -7.13744e-05
0.00112244 -3.25524e-05 -9.26141e-07
-3.25524e-05 7.2572e-05 5.09919e-07
-9.26141e-07 5.09919e-07 -3.66103e-08
0.00112231 -2.89687e-05 -1.13826e-06
-2.89687e-05 7.47307e-05 4.17088e-07
-1.13826e-06 4.17088e-07 7.93434e-06
0.00104788 -3.24462e-05 -4.82239e-07
-3.24462e-05 3.49591e-05 3.93375e-08
-4.82239e-07 3.93375e-08 -4.04076e-05
0.00110666 -2.3172e-05 -8.45018e-07
-2.3172e-05 6.3975e-05 3.12171e-07
-8.45018e-07 3.12171e-07 1.99507e-07
0.00117865 -2.99402e-05 -4.3064e-08
-2.99402e-05 0.00010066 -1.82887e-07
-4.3064e-08 -1.82887e-07 3.18809e-05
0.00105239 -3.10852e-05 5.42483e-07
-3.10852e-05 4.79659e-05 -1.32701e-06
5.42483e-07 -1.32701e-06 -2.33238e-05
0.00119776 -3.00801e-05 1.38573e-06
-3.00801e-05 0.000112277 -3.02804e-07
1.38573e-06 -3.02804e-07 3.6812e-05
0.00102541 -2.25316e-05 5.55221e-08
-2.25316e-05 2.80346e-05 -1.60757e-08
5.55221e-08 -1.60757e-08 -4.02787e-05
0.00106335 -9.89791e-06 -1.17305e-06
-9.89791e-06 4.14869e-05 1.19965e-06
-1.17305e-06 1.19965e-06 -1.36123e-05
0.00108501 -2.08063e-05 5.94187e-07
-2.08063e-05 6.12357e-05 -3.90521e-07
5.94187e-07 -3.90521e-07 -8.83295e-06
0.0010561 -9.65437e-06 9.06147e-08
-9.65437e-06 3.9785e-05 3.10079e-08
9.06147e-08 3.10079e-08 -1.58566e-05
0.00100402 3.10966e-06 -1.28201e-06
3.10966e-06 8.43796e-06 2.02384e-06
-1.28201e-06 2.02384e-06 -2.63572e-05
0.00106012 -1.03109e-05 7.39377e-07
-1.03109e-05 4.29602e-05 -1.2585e-06
7.39377e-07 -1.2585e-06 -1.21349e-05
0.0010065 2.38732e-06 6.5482e-08
2.38732e-06 8.49417e-06 -4.38279e-09
6.5482e-08 -4.38279e-09 -2.56165e-05
0.00157625 9.1794e-06 -3.78014e-06
9.1794e-06 0.000282653 3.23908e-06
-3.78014e-06 3.23908e-06 0.000281876
0.00101045 1.83768e-06 9.23209e-07
1.83768e-06 9.23053e-06 -1.97229e-06
9.23209e-07 -1.97229e-06 -2.41176e-05
0.00127561 7.26164e-06 -1.21189e-06
7.26164e-06 0.000131064 6.32676e-07
-1.21189e-06 6.32676e-07 0.000129307
0.00111114 8.24327e-06 -1.38472e-06
8.24327e-06 4.68504e-05 1.6145e-06
-1.38472e-06 1.6145e-06 6.26867e-05
0.00095539 5.21272e-06 1.1378e-06
5.21272e-06 -3.00771e-05 -3.31432e-06
1.1378e-06 -3.31432e-06 -3.27179e-05
0.00178299 6.91174e-06 2.06624e-06
6.91174e-06 0.000374982 -1.26055e-06
2.06624e-06 -1.26055e-06 0.000394384
0.00242123 4.87046e-06 3.81809e-06
4.87046e-06 0.000688745 -4.19083e-06
3.81809e-06 -4.19083e-06 0.000711418
0.000859793 -1.33633e-06 -2.78028e-07
-1.33633e-06 -5.81786e-05 -1.68297e-06
-2.78028e-07 -1.68297e-06 -0.000108389
0.00075873 -3.89622e-06 -5.83242e-07
-3.89622e-06 -0.000118698 -2.46687e-06
-5.83242e-07 -2.46687e-06 -0.00014754
0.0011298 -2.50762e-06 3.0458e-08
-2.50762e-06 7.27433e-05 1.17001e-07
3.0458e-08 1.17001e-07 2.69282e-05
0.000962981 -3.64623e-06 -7.9118e-07
-3.64623e-06 -2.89031e-05 -3.22029e-06
-7.9118e-07 -3.22029e-06 -2.74747e-05
0.000890129 -2.42949e-06 -7.27389e-09
-2.42949e-06 -5.61621e-05 2.01691e-09
-7.27389e-09 2.01691e-09 -8.29527e-05
0.000877388 -3.90327e-06 1.08378e-07
-3.90327e-06 -5.21715e-05 1.25692e-06
1.08378e-07 1.25692e-06 -9.71077e-05
0.00228103 -2.45716e-06 -2.22522e-06
-2.45716e-06 0.000617952 -4.05373e-06
-2.22522e-06 -4.05373e-06 0.00064243
0.000955329 -1.72898e-06 -1.00731e-07
-1.72898e-06 -3.38075e-05 -7.52235e-10
-1.00731e-07 -7.52235e-10 -3.17465e-05
0.00101954 -1.15752e-06 1.15805e-07
-1.15752e-06 6.28069e-06 1.88698e-06
1.15805e-07 1.88698e-06 -1.91065e-05
0.00227673 1.06111e-07 -6.5398e-07
1.06111e-07 0.000615354 7.81638e-10
-6.5398e-07 7.81638e-10 0.000639985
0.00095667 1.67271e-07 -1.33002e-07
1.67271e-07 -3.35186e-05 3.26544e-06
-1.33002e-07 3.26544e-06 -3.12321e-05
0.00227516 2.73973e-06 -2.04819e-06
2.73973e-06 0.000615246 4.04231e-06
-2.04819e-06 4.04231e-06 0.000639729
0.00101141 -5.97561e-06 8.75295e-06
-5.97561e-06 0.000343669 -1.55287e-06
8.75295e-06 -1.55287e-06 0.000278135
0.000802681 1.08685e-05 4.97101e-07
1.08685e-05 0.000174469 7.00234e-07
4.97101e-07 7.00234e-07 0.000170173
0.000740885 -5.00816e-06 8.67882e-05
-5.00816e-06 0.000112123 -1.39856e-05
8.67882e-05 -1.39856e-05 -1.9161e-05
0.00107663 1.47831e-05 -5.08448e-07
1.47831e-05 5.35834e-05 -7.713e-07
-5.08448e-07 -7.713e-07 -1.3425e-05
0.00064407 -1.94362e-05 1.71045e-06
-1.94362e-05 -1.15076e-05 -6.32742e-06
1.71045e-06 -6.32742e-06 -5.04803e-05
0.000881657 -3.80361e-06 4.7262e-06
-3.80361e-06 0.00021345 -2.99599e-07
4.7262e-06 -2.99599e-07 0.00018356
0.000677449 3.21726e-05 -1.19327e-05
3.21726e-05 1.8463e-05 9.18349e-06
-1.19327e-05 9.18349e-06 7.86864e-05
0.000862346 2.0298e-05 -3.35726e-05
2.0298e-05 -0.000129792 9.00905e-06
-3.35726e-05 9.00905e-06 -0.000315375
0.0049171 5.10071e-05 -2.9963e-06
5.10071e-05 0.00160624 -4.84567e-06
-2.9963e-06 -4.84567e-06 0.00103711
-0.00072197 9.9932e-05 4.52909e-05
9.9932e-05 -0.000546668 -2.96704e-05
4.52909e-05 -2.96704e-05 -0.000541008
0.00231446 1.93759e-05 -5.62782e-06
1.93759e-05 0.000949694 3.02274e-06
-5.62782e-06 3.02274e-06 0.00105215
0.00185684 -1.88834e-05 -2.21083e-05
-1.88834e-05 0.000442187 8.30327e-06
-2.21083e-05 8.30327e-06 7.56941e-05
0.00456944 8.85697e-05 1.75207e-05
8.85697e-05 0.0010606 -2.31457e-05
1.75207e-05 -2.31457e-05 0.000494583
5.6801e-05 0.000143885 -5.35876e-06
0.000143885 -0.000684789 1.17767e-05
-5.35876e-06 1.17767e-05 -0.000701745
0.00160588 1.2939e-06 1.22581e-06
1.2939e-06 0.000538972 -3.93164e-06
1.22581e-06 -3.93164e-06 0.000555784
0.000701068 -7.10121e-05 2.7887e-05
-7.10121e-05 -0.000139868 -3.60492e-05
2.7887e-05 -3.60492e-05 -0.000539453
0.00652135 9.6217e-05 2.30472e-05
9.6217e-05 0.00132954 -3.08009e-05
2.30472e-05 -3.08009e-05 0.000614446
0.0013452 0.000140829 8.77991e-06
0.000140829 -0.000531692 5.61386e-05
8.77991e-06 5.61386e-05 -0.000541219
0.000952663 3.78305e-06 1.48781e-06
3.78305e-06 0.000131319 7.143e-06
1.48781e-06 7.143e-06 8.9108e-05
0.00105165 -6.70074e-07 -1.04379e-07
-6.70074e-07 4.44217e-05 -8.68718e-07
-1.04379e-07 -8.68718e-07 -3.68168e-05
0.00111807 -7.00928e-06 1.01752e-07
-7.00928e-06 8.06161e-05 -2.05404e-08
1.01752e-07 -2.05404e-08 4.71209e-06
0.00118816 1.6737e-05 -2.63688e-08
1.6737e-05 0.000113546 7.9694e-07
-2.63688e-08 7.9694e-07 4.63574e-05
0.00106562 1.46912e-05 -2.51e-07
1.46912e-05 5.21732e-05 -1.19385e-06
-2.51e-07 -1.19385e-06 -2.2148e-05
0.00114334 1.54655e-05 -8.30741e-08
1.54655e-05 9.00453e-05 3.89853e-07
-8.30741e-08 3.89853e-07 1.88624e-05
0.00122307 5.75043e-06 2.746e-07
5.75043e-06 0.000128102 1.48227e-06
2.746e-07 1.48227e-06 6.27846e-05
0.0012548 1.52244e-05 -1.36589e-07
1.52244e-05 0.000143584 4.41049e-08
-1.36589e-07 4.41049e-08 8.12242e-05
0.00125923 1.5495e-05 2.74164e-07
1.5495e-05 0.000144929 1.40087e-06
2.74164e-07 1.40087e-06 8.58058e-05
0.00154834 -6.97965e-05 -5.5017e-07
-6.97965e-05 -0.00021771 -3.78192e-06
-5.5017e-07 -3.78192e-06 -0.000169626
0.00158189 -7.15054e-05 -1.98871e-06
-7.15054e-05 0.000346912 1.65671e-06
-1.98871e-06 1.65671e-06 0.000202362
0.00112113 -2.67397e-05 6.41646e-08
-2.67397e-05 8.64465e-05 1.04529e-06
6.41646e-08 1.04529e-06 4.49077e-06
0.00129593 -1.91708e-05 2.65882e-07
-1.91708e-05 0.000186327 4.68964e-07
2.65882e-07 4.68964e-07 5.51709e-05
0.00134235 -1.50405e-05 3.07481e-07
-1.50405e-05 0.00019912 7.20093e-07
3.07481e-07 7.20093e-07 9.61046e-05
0.00119048 -1.72405e-06 1.82086e-07
-1.72405e-06 0.000125511 3.39736e-07
1.82086e-07 3.39736e-07 3.71643e-05
0.00111569 1.05823e-05 -3.8567e-08
1.05823e-05 8.26682e-05 2.65304e-08
-3.8567e-08 2.65304e-08 -5.3169e-06
0.00178388 -7.0566e-05 2.78313e-07
-7.0566e-05 2.73634e-05 -6.76631e-07
2.78313e-07 -6.76631e-07 2.50285e-05
0.0011255 2.10953e-06 -2.42001e-08
2.10953e-06 8.40587e-05 2.60488e-07
-2.42001e-08 2.60488e-07 -1.34205e-05
0.00120178 -1.01046e-05 3.50981e-07
-1.01046e-05 0.000127516 -1.52882e-08
3.50981e-07 -1.52882e-08 1.1439e-05
0.00108362 -2.18025e-05 -2.3499e-07
-2.18025e-05 0.000200491 4.62503e-07
-2.3499e-07 4.62503e-07 1.6032e-05
0.00109052 1.86403e-05 -1.35866e-07
1.86403e-05 6.62644e-05 1.44652e-07
-1.35866e-07 1.44652e-07 -2.3427e-05
0.0022714 -5.87564e-05 -1.53825e-05
-5.87564e-05 0.000520619 1.38013e-05
-1.53825e-05 1.38013e-05 0.00039488
0.00122994 1.41403e-05 -4.04859e-07
1.41403e-05 0.000243715 -3.149e-06
-4.04859e-07 -3.149e-06 8.22467e-05
0.00132974 -1.58665e-06 -4.08672e-07
-1.58665e-06 0.000177646 -1.48642e-06
-4.08672e-07 -1.48642e-06 7.3069e-05
0.00121181 1.67033e-05 -2.13715e-07
1.67033e-05 0.00012409 -5.25812e-07
-2.13715e-07 -5.25812e-07 2.81993e-05
0.00142436 -2.00374e-06 1.2813e-06
-2.00374e-06 0.00049895 1.74176e-08
1.2813e-06 1.74176e-08 0.000406325
0.0015474 -1.22984e-07 -4.73079e-06
-1.22984e-07 0.00067431 3.36185e-07
-4.73079e-06 3.36185e-07 0.000600707
-0.00128527 2.41654e-06 1.66778e-07
2.41654e-06 -0.0010274 4.86867e-07
1.66778e-07 4.86867e-07 -0.00105436
0.000969095 2.51016e-05 -2.71504e-07
2.51016e-05 8.05101e-06 1.70727e-06
-2.71504e-07 1.70727e-06 -7.78692e-05
-0.00055981 -1.16441e-05 -2.95106e-06
-1.16441e-05 -0.000594889 2.39193e-06
-2.95106e-06 2.39193e-06 -0.000765057
0.000897075 7.87798e-07 -1.07599e-05
7.87798e-07 0.000244908 -1.59018e-06
-1.07599e-05 -1.59018e-06 0.000174117
0.00356978 -0.000128061 1.28477e-05
-0.000128061 0.000580059 9.10303e-06
1.28477e-05 9.10303e-06 -0.000117122
0.00401395 9.7595e-05 -1.45614e-05
9.7595e-05 0.00139224 -5.1586e-05
-1.45614e-05 -5.1586e-05 0.00109203
0.00223791 -0.000167567 -1.67089e-06
-0.000167567 -0.000172887 7.09235e-05
-1.67089e-06 7.09235e-05 2.22325e-06
0.000581739 1.2738e-06 -4.79428e-06
1.2738e-06 -0.000101559 -5.6073e-06
-4.79428e-06 -5.6073e-06 -0.000137788
0.000607339 -8.26276e-06 1.30308e-06
-8.26276e-06 -4.32037e-05 -4.04803e-07
1.30308e-06 -4.04803e-07 -7.56569e-05
0.00128177 1.51842e-05 -6.21715e-07
1.51842e-05 0.000161408 -8.73516e-07
-6.21715e-07 -8.73516e-07 8.14991e-05
0.000757465 3.63365e-06 2.24559e-07
3.63365e-06 5.91647e-05 8.83267e-07
2.24559e-07 8.83267e-07 -2.1641e-05
0.000912088 -9.91266e-06 -1.39765e-06
-9.91266e-06 7.74665e-05 -6.36863e-08
-1.39765e-06 -6.36863e-08 3.55326e-05
0.00032085 1.32669e-05 3.52721e-06
1.32669e-05 -2.86783e-05 -4.03853e-06
3.52721e-06 -4.03853e-06 -6.72383e-05
0.0015138 -2.0717e-06 -1.17301e-06
-2.0717e-06 0.000458386 3.0228e-06
-1.17301e-06 3.0228e-06 0.000498613
0.00322021 2.06255e-06 6.79184e-06
2.06255e-06 -2.92639e-05 1.14444e-05
6.79184e-06 1.14444e-05 -0.000413631
0.00307104 -4.59712e-06 3.15496e-06
-4.59712e-06 4.5467e-05 1.80186e-06
3.15496e-06 1.80186e-06 0.000447931
-0.000107329 1.4204e-05 6.69617e-07
1.4204e-05 -0.000431294 -6.09059e-06
6.69617e-07 -6.09059e-06 -0.000501279
0.00108481 -5.18452e-06 9.53695e-07
-5.18452e-06 0.000221439 1.90106e-06
9.53695e-07 1.90106e-06 0.000146814
0.000703266 -1.743e-05 -2.81275e-06
-1.743e-05 -1.15708e-05 9.09481e-06
-2.81275e-06 9.09481e-06 -5.71651e-05
0.00124799 3.13146e-05 -5.7958e-06
3.13146e-05 0.000239525 7.56096e-06
-5.7958e-06 7.56096e-06 0.000382254
0.00193821 0.000159556 -3.45347e-06
0.000159556 -9.80626e-05 -5.58754e-05
-3.45347e-06 -5.58754e-05 -8.06726e-05
0.00151522 1.07265e-05 1.18152e-05
1.07265e-05 0.000778896 -1.09431e-05
1.18152e-05 -1.09431e-05 0.000700149
0.00403698 -4.87739e-05 3.04506e-05
-4.87739e-05 0.000659202 2.60873e-05
3.04506e-05 2.60873e-05 -0.000130597
0.00117575 1.77195e-05 -9.12726e-07
1.77195e-05 0.000109587 -4.53344e-08
-9.12726e-07 -4.53344e-08 4.99316e-06
0.00114492 2.07272e-05 -2.40358e-07
2.07272e-05 0.00012463 -6.69721e-07
-2.40358e-07 -6.69721e-07 1.52375e-05
0.000694453 1.21745e-05 -7.94525e-07
1.21745e-05 -3.34687e-05 -1.22298e-06
-7.94525e-07 -1.22298e-06 -0.000185189
0.00123079 1.14892e-05 -7.30564e-08
1.14892e-05 0.000136575 -5.74041e-07
-7.30564e-08 -5.74041e-07 4.80788e-05
0.00127056 3.8485e-06 6.84919e-08
3.8485e-06 0.000166062 -6.03379e-07
6.84919e-08 -6.03379e-07 6.18613e-05
0.00100134 1.71251e-05 1.44944e-07
1.71251e-05 4.40665e-05 5.07652e-07
1.44944e-07 5.07652e-07 -6.4009e-05
0.00111196 -1.88093e-05 -1.73035e-07
-1.88093e-05 8.54811e-05 2.64417e-07
-1.73035e-07 2.64417e-07 -1.3394e-05
0.00101122 6.00035e-06 -4.49646e-08
6.00035e-06 6.41338e-05 7.07802e-07
-4.49646e-08 7.07802e-07 -4.09869e-05
0.00104642 -1.97668e-05 2.3153e-07
-1.97668e-05 0.00010026 2.40664e-07
2.3153e-07 2.40664e-07 -1.63785e-05
0.00112061 -2.61958e-05 2.9837e-07
-2.61958e-05 8.64196e-05 -5.14969e-07
2.9837e-07 -5.14969e-07 -6.31441e-06
0.00099603 -2.33325e-05 9.24831e-08
-2.33325e-05 2.44415e-05 6.72939e-08
9.24831e-08 6.72939e-08 -6.53116e-05
0.00118883 -3.16921e-05 1.70194e-07
-3.16921e-05 0.000128748 4.51788e-07
1.70194e-07 4.51788e-07 3.18305e-05
0.00100105 -3.48193e-05 -8.68159e-07
-3.48193e-05 5.70344e-05 1.6276e-06
-8.68159e-07 1.6276e-06 -5.06404e-05
0.0010324 -3.06608e-05 6.21398e-07
-3.06608e-05 4.39028e-05 -5.6405e-08
6.21398e-07 -5.6405e-08 -3.78851e-05
0.00096721 -3.29609e-05 7.34356e-07
-3.29609e-05 1.46909e-05 -5.41681e-07
7.34356e-07 -5.41681e-07 -7.81215e-05
0.00119636 -3.99899e-05 -1.75915e-07
-3.99899e-05 0.000112907 1.38191e-06
-1.75915e-07 1.38191e-06 1.66526e-05
0.00121301 -3.76731e-05 -1.47294e-06
-3.76731e-05 9.8693e-05 1.55239e-06
-1.47294e-06 1.55239e-06 1.81941e-05
0.00134516 -3.55031e-05 4.41976e-07
-3.55031e-05 0.000182089 -8.46788e-08
4.41976e-07 -8.46788e-08 0.000102069
0.00108864 -3.60057e-05 -1.59071e-07
-3.60057e-05 4.66312e-05 -7.48052e-08
-1.59071e-07 -7.48052e-08 -3.73155e-05
0.00125717 -3.31669e-05 3.24098e-08
-3.31669e-05 0.000137284 2.66922e-07
3.24098e-08 2.66922e-07 6.86128e-05
0.00100707 -2.58373e-05 -6.63311e-07
-2.58373e-05 2.72593e-05 2.72598e-07
-6.63311e-07 2.72598e-07 -3.96097e-05
0.00111918 -3.2364e-05 4.48504e-07
-3.2364e-05 7.04719e-05 4.24254e-08
4.48504e-07 4.24254e-08 -1.18023e-06
0.00109937 -1.97415e-05 -1.01022e-06
-1.97415e-05 6.28908e-05 1.43029e-07
-1.01022e-06 1.43029e-07 1.49296e-06
0.00113532 -2.90973e-05 -6.02116e-07
-2.90973e-05 8.07352e-05 3.80002e-07
-6.02116e-07 3.80002e-07 1.38141e-05
0.000954088 -3.11984e-05 1.06881e-07
-3.11984e-05 -8.00963e-06 -6.86261e-07
1.06881e-07 -6.86261e-07 -8.34642e-05
0.00106541 -8.97479e-06 -1.3662e-06
-8.97479e-06 4.0762e-05 1.02438e-06
-1.3662e-06 1.02438e-06 -1.25299e-05
0.0010648 -2.28411e-05 5.14978e-08
-2.28411e-05 4.31129e-05 9.19314e-08
5.14978e-08 9.19314e-08 -2.09676e-05
0.00113939 -2.98542e-05 1.37119e-06
-2.98542e-05 8.15404e-05 -3.60714e-07
1.37119e-06 -3.60714e-07 1.23483e-05
0.00107251 -2.31956e-05 1.02737e-06
-2.31956e-05 5.11485e-05 -5.04352e-07
1.02737e-06 -5.04352e-07 -1.68427e-05
0.00105748 -9.37932e-06 6.08093e-08
-9.37932e-06 3.82814e-05 3.99212e-08
6.08093e-08 3.99212e-08 -1.66701e-05
0.00100388 3.65904e-06 -1.61079e-06
3.65904e-06 9.23627e-06 2.02854e-06
-1.61079e-06 2.02854e-06 -2.58004e-05
0.00105558 -9.90369e-06 1.00235e-06
-9.90369e-06 3.93165e-05 -1.14368e-06
1.00235e-06 -1.14368e-06 -1.62435e-05
0.0010026 3.28582e-06 8.3387e-08
3.28582e-06 7.746e-06 6.94118e-09
8.3387e-08 6.94118e-09 -2.7051e-05
0.000920105 9.74517e-06 -2.04388e-06
9.74517e-06 -3.78724e-05 3.28812e-06
-2.04388e-06 3.28812e-06 -4.23889e-05
0.0010075 2.26356e-06 1.16975e-06
2.26356e-06 8.94546e-06 -1.99579e-06
1.16975e-06 -1.99579e-06 -2.51921e-05
0.000933506 8.34086e-06 1.02294e-07
8.34086e-06 -3.46178e-05 1.6556e-08
1.02294e-07 1.6556e-08 -3.85252e-05
0.00241402 1.3399e-05 -2.87871e-06
1.3399e-05 0.000693589 1.67182e-06
-2.87871e-06 1.67182e-06 0.000714843
0.000951415 6.83674e-06 1.52055e-06
6.83674e-06 -2.92321e-05 -3.30117e-06
1.52055e-06 -3.30117e-06 -3.24734e-05
0.00178893 9.26678e-06 2.53877e-06
9.26678e-06 0.00038105 -1.24705e-06
2.53877e-06 -1.24705e-06 0.000399869
0.00243047 7.4786e-06 5.24376e-06
7.4786e-06 0.000695614 -4.16605e-06
5.24376e-06 -4.16605e-06 0.000717856
0.0008446 -3.66595e-07 -4.96669e-07
-3.66595e-07 -6.57995e-05 -1.78838e-06
-4.96669e-07 -1.78838e-06 -0.000118905
0.000743181 -5.15559e-06 -7.50214e-07
-5.15559e-06 -0.000123501 -2.50339e-06
-7.50214e-07 -2.50339e-06 -0.0001547
0.00100168 -2.29764e-06 -5.99392e-08
-2.29764e-06 1.10801e-05 -5.18047e-07
-5.99392e-08 -5.18047e-07 -3.85052e-05
0.000964752 -5.52924e-06 -1.08755e-06
-5.52924e-06 -2.59553e-05 -3.19945e-06
-1.08755e-06 -3.19945e-06 -2.55619e-05
0.000751765 -3.92905e-06 -9.76349e-08
-3.92905e-06 -0.000121897 -5.96136e-07
-9.76349e-08 -5.96136e-07 -0.000150963
0.00113682 -1.64727e-06 2.22846e-07
-1.64727e-06 7.60179e-05 1.27064e-06
2.22846e-07 1.27064e-06 3.01112e-05
0.00229014 -5.00933e-06 -3.73866e-06
-5.00933e-06 0.000623781 -4.03903e-06
-3.73866e-06 -4.03903e-06 0.000647899
0.000954138 -3.62253e-06 -8.0977e-08
-3.62253e-06 -3.32569e-05 -9.96616e-11
-8.0977e-08 -9.96616e-11 -3.17673e-05
0.000760138 -2.44494e-06 3.18449e-07
-2.44494e-06 -0.000119722 1.87647e-06
3.18449e-07 1.87647e-06 -0.000147342
0.00228548 -2.40247e-06 -6.28087e-07
-2.40247e-06 0.000620025 7.67569e-09
-6.28087e-07 7.67569e-09 0.000644517
0.000951248 -1.69578e-06 2.51021e-07
-1.69578e-06 -3.58279e-05 3.27075e-06
2.51021e-07 3.27075e-06 -3.37389e-05
0.00227554 1.59158e-07 -4.81754e-07
1.59158e-07 0.000614759 4.0329e-06
-4.81754e-07 4.0329e-06 0.000639404
0.000881683 -1.62873e-05 1.52725e-06
-1.62873e-05 0.000163457 -9.55757e-07
1.52725e-06 -9.55757e-07 8.4326e-05
0.000858401 -6.24551e-06 -1.3443e-07
-6.24551e-06 0.000245316 6.31511e-07
-1.3443e-07 6.31511e-07 0.000181312
0.000670342 9.31149e-06 -7.75471e-06
9.31149e-06 8.81641e-05 2.01837e-06
-7.75471e-06 2.01837e-06 8.30434e-05
0.00112046 2.01843e-05 -2.60194e-07
2.01843e-05 7.50545e-05 6.38159e-08
-2.60194e-07 6.38159e-08 8.58267e-06
0.000994922 2.29704e-05 -6.76036e-07
2.29704e-05 8.21367e-06 -7.16487e-07
-6.76036e-07 -7.16487e-07 -5.98039e-05
0.00120068 2.18492e-05 1.84864e-08
2.18492e-05 0.000116761 1.37156e-07
1.84864e-08 1.37156e-07 4.18936e-05
0.00100357 -2.89308e-07 -2.98006e-06
-2.89308e-07 0.000171747 5.96896e-07
-2.98006e-06 5.96896e-07 0.000134316
0.000886878 -1.95998e-05 1.17253e-07
-1.95998e-05 0.000139605 3.64464e-07
1.17253e-07 3.64464e-07 9.92975e-05
0.00105952 -4.18438e-06 -5.06464e-06
-4.18438e-06 0.000322062 5.91567e-06
-5.06464e-06 5.91567e-06 0.0002948
0.000357049 1.4944e-05 -2.1297e-05
1.4944e-05 0.000106088 1.12162e-05
-2.1297e-05 1.12162e-05 -0.000155312
0.00374602 3.02828e-05 -5.85446e-06
3.02828e-05 0.000682944 -1.46273e-05
-5.85446e-06 -1.46273e-05 2.2984e-05
0.00309057 0.000183207 1.81249e-05
0.000183207 0.000864246 -2.36072e-05
1.81249e-05 -2.36072e-05 0.000787456
0.00146166 -4.64351e-06 -5.71583e-06
-4.64351e-06 0.000509305 -1.17355e-06
-5.71583e-06 -1.17355e-06 0.000502264
0.000199138 -3.35362e-05 -1.39141e-05
-3.35362e-05 3.3586e-05 9.77386e-06
-1.39141e-05 9.77386e-06 -0.000225373
0.00569699 6.93762e-05 2.71375e-05
6.93762e-05 0.00123051 -4.45016e-05
2.71375e-05 -4.45016e-05 0.00058286
0.00039643 0.000109357 4.36214e-06
0.000109357 -0.000541538 9.91592e-06
4.36214e-06 9.91592e-06 -0.000518035
0.000830782 5.40136e-06 3.47183e-06
5.40136e-06 8.92106e-05 -6.43672e-07
3.47183e-06 -6.43672e-07 4.33696e-05
-0.000639097 -8.22997e-05 2.2956e-05
-8.22997e-05 -0.000541063 -3.93174e-05
2.2956e-05 -3.93174e-05 -0.000704776
0.00691611 9.58723e-05 2.16156e-05
9.58723e-05 0.00141101 -3.36052e-05
2.16156e-05 -3.36052e-05 0.00109981
0.000867531 6.57433e-06 -6.93798e-06
6.57433e-06 -0.000830319 5.5557e-05
-6.93798e-06 5.5557e-05 -0.000594555
-0.000258709 1.0658e-05 -4.23627e-06
1.0658e-05 -0.000564551 2.76954e-06
-4.23627e-06 2.76954e-06 -0.000567478
0.00112298 1.94088e-05 -5.01654e-07
1.94088e-05 7.921e-05 -3.83002e-07
-5.01654e-07 -3.83002e-07 -4.52229e-06
0.00106495 -8.82155e-07 9.20817e-09
-8.82155e-07 5.14238e-05 -2.86892e-07
9.20817e-09 -2.86892e-07 -2.98781e-05
0.00108531 -1.0855e-05 1.65237e-07
-1.0855e-05 6.46411e-05 8.84568e-07
1.65237e-07 8.84568e-07 -1.19543e-05
0.0010905 1.61368e-05 -2.33331e-07
1.61368e-05 6.43246e-05 -7.1908e-07
-2.33331e-07 -7.1908e-07 -1.02346e-05
0.00122292 2.3828e-05 3.93393e-07
2.3828e-05 0.00012876 1.24778e-06
3.93393e-07 1.24778e-06 5.8491e-05
0.00128442 1.5012e-05 -2.31598e-08
1.5012e-05 0.000157519 9.68693e-07
-2.31598e-08 9.68693e-07 9.56293e-05
0.00172801 -6.27631e-05 8.87371e-06
-6.27631e-05 1.58462e-07 -6.49669e-06
8.87371e-06 -6.49669e-06 1.22541e-05
0.00118485 -1.56267e-05 -6.04968e-07
-1.56267e-05 0.000247363 4.03368e-06
-6.04968e-07 4.03368e-06 6.26436e-05
0.00112342 9.65824e-06 1.60096e-07
9.65824e-06 8.61797e-05 5.64843e-07
1.60096e-07 5.64843e-07 -1.72118e-06
0.00116354 -1.24129e-05 1.08421e-06
-1.24129e-05 0.000110069 6.43905e-07
1.08421e-06 6.43905e-07 -8.21867e-06
0.00109717 -7.15998e-08 5.07709e-07
-7.15998e-08 6.9729e-05 1.34084e-06
5.07709e-07 1.34084e-06 -2.84054e-05
0.00112393 1.73394e-05 1.90338e-07
1.73394e-05 8.31183e-05 4.07903e-07
1.90338e-07 4.07903e-07 -6.94856e-06
0.00114415 1.52141e-05 1.2529e-07
1.52141e-05 8.98276e-05 2.62704e-07
1.2529e-07 2.62704e-07 -6.44609e-06
0.00133763 -5.11832e-05 2.50126e-06
-5.11832e-05 2.99889e-05 1.03604e-06
2.50126e-06 1.03604e-06 -6.72842e-05
0.00122675 -4.87266e-06 4.83083e-08
-4.87266e-06 0.000126106 -6.80154e-07
4.83083e-08 -6.80154e-07 2.19138e-05
0.00129047 1.79193e-05 -1.5822e-07
1.79193e-05 0.000270482 -2.95404e-07
-1.5822e-07 -2.95404e-07 0.000106164
0.000976379 1.47338e-05 -7.83984e-07
1.47338e-05 9.65395e-06 -1.02213e-06
-7.83984e-07 -1.02213e-06 -8.88398e-05
0.00215657 -2.15683e-05 -9.09856e-06
-2.15683e-05 0.000690565 1.45972e-05
-9.09856e-06 1.45972e-05 0.00052867
0.00100395 6.77297e-06 -4.76445e-07
6.77297e-06 3.00782e-05 -3.85779e-06
-4.76445e-07 -3.85779e-06 -7.5867e-05
0.00110063 2.37859e-08 -5.2803e-07
2.37859e-08 7.27582e-05 -9.89758e-07
-5.2803e-07 -9.89758e-07 -2.90446e-05
0.00117552 -7.82884e-07 8.24781e-07
-7.82884e-07 0.00029631 -4.19999e-07
8.24781e-07 -4.19999e-07 0.000208877
0.000902993 -2.69172e-06 6.1849e-07
-2.69172e-06 0.000171294 4.03641e-07
6.1849e-07 4.03641e-07 7.82819e-05
0.00116678 2.21109e-07 -1.44549e-05
2.21109e-07 0.000433791 1.58557e-06
-1.44549e-05 1.58557e-06 0.000360197
0.00149 2.6057e-05 -2.00377e-07
2.6057e-05 0.000264561 3.94574e-06
-2.00377e-07 3.94574e-06 0.00018226
0.00107845 1.79346e-06 3.92392e-06
1.79346e-06 0.00029627 -1.89977e-06
3.92392e-06 -1.89977e-06 0.000261415
0.000624528 3.38162e-06 -1.20407e-06
3.38162e-06 -2.20019e-05 -4.59253e-07
-1.20407e-06 -4.59253e-07 -0.000103246
0.00365608 -3.32057e-05 -3.661e-06
-3.32057e-05 0.00054254 -1.13304e-05
-3.661e-06 -1.13304e-05 0.000482612
0.000136462 -1.97718e-07 -8.68625e-07
-1.97718e-07 -0.00112554 5.47862e-05
-8.68625e-07 5.47862e-05 -0.000753919
0.000581764 -1.08149e-05 -6.44479e-07
-1.08149e-05 -0.000123487 -9.96448e-07
-6.44479e-07 -9.96448e-07 -0.000170986
0.00132943 -7.11729e-06 6.04552e-06
-7.11729e-06 0.000401475 -3.28125e-06
6.04552e-06 -3.28125e-06 0.000415541
0.000885516 5.25665e-06 3.4067e-06
5.25665e-06 6.58208e-06 1.67839e-06
3.4067e-06 1.67839e-06 -6.15516e-05
0.000938311 -6.20306e-06 4.60968e-07
-6.20306e-06 0.000131761 1.72288e-06
4.60968e-07 1.72288e-06 5.4599e-05
0.000942975 -1.85347e-05 -9.47295e-07
-1.85347e-05 0.000136482 -9.49531e-08
-9.47295e-07 -9.49531e-08 9.01635e-05
0.000659465 5.91458e-05 -4.60704e-06
5.91458e-05 0.000132638 -2.00422e-07
-4.60704e-06 -2.00422e-07 -0.000192629
0.00104332 2.4192e-05 1.47563e-06
2.4192e-05 0.000143137 1.03378e-07
1.47563e-06 1.03378e-07 0.000281482
-0.000468373 0.000119696 -1.80462e-06
0.000119696 -0.000835472 -1.14553e-05
-1.80462e-06 -1.14553e-05 -0.000749166
0.0064651 -2.07682e-05 8.27989e-06
-2.07682e-05 0.00111284 -2.52192e-05
8.27989e-06 -2.52192e-05 0.00125973
0.00134437 -5.8206e-06 2.77646e-06
-5.8206e-06 0.00048922 -1.17085e-05
2.77646e-06 -1.17085e-05 0.000357448
0.00091204 -1.26022e-05 -2.59286e-06
-1.26022e-05 0.000163861 1.23093e-06
-2.59286e-06 1.23093e-06 7.54191e-05
0.000777249 3.13496e-07 -1.58001e-05
3.13496e-07 0.000124643 7.41768e-06
-1.58001e-05 7.41768e-06 8.81232e-05
0.00060046 5.01935e-05 1.43771e-06
5.01935e-05 -0.000159989 2.39724e-06
1.43771e-06 2.39724e-06 2.41776e-05
-0.00162897 0.000140366 2.74084e-05
0.000140366 -0.00116021 -4.5097e-05
2.74084e-05 -4.5097e-05 -0.00117726
0.00817479 0.000104516 -9.96751e-06
0.000104516 0.00227571 -5.60765e-06
-9.96751e-06 -5.60765e-06 0.00182628
-0.00040291 -2.81933e-05 -1.88477e-05
-2.81933e-05 -0.000111269 7.1628e-05
-1.88477e-05 7.1628e-05 -0.000727313
0.00119153 1.95759e-05 9.7842e-07
1.95759e-05 0.000138725 -1.55497e-06
9.7842e-07 -1.55497e-06 3.22665e-05
0.000901742 1.1732e-05 9.97139e-07
1.1732e-05 6.31678e-05 -1.84874e-06
9.97139e-07 -1.84874e-06 -8.80547e-05
0.000886835 -1.60895e-06 2.35907e-07
-1.60895e-06 0.000108295 1.00782e-06
2.35907e-07 1.00782e-06 -6.87944e-05
0.00109822 -1.9849e-05 1.71465e-07
-1.9849e-05 7.86216e-05 -6.20762e-07
1.71465e-07 -6.20762e-07 -2.00282e-05
0.000993241 3.94002e-06 2.75653e-07
3.94002e-06 5.49671e-05 1.02727e-06
2.75653e-07 1.02727e-06 -5.01747e-05
0.0010225 -1.63614e-05 -1.81459e-07
-1.63614e-05 8.79543e-05 4.36543e-07
-1.81459e-07 4.36543e-07 -2.75001e-05
0.000892549 -3.27217e-05 7.41621e-07
-3.27217e-05 5.82977e-05 -7.00517e-07
7.41621e-07 -7.00517e-07 -8.74329e-05
0.00123449 -3.27138e-05 4.67216e-07
-3.27138e-05 0.000149321 -2.36775e-07
4.67216e-07 -2.36775e-07 5.15081e-05
0.00121567 -3.86083e-05 -3.78972e-07
-3.86083e-05 0.000158594 4.75176e-07
-3.78972e-07 4.75176e-07 4.87308e-05
0.00130096 -4.64725e-05 -2.89048e-07
-4.64725e-05 0.000192216 1.95349e-06
-2.89048e-07 1.95349e-06 7.50145e-05
0.000911594 -3.19672e-05 5.48161e-07
-3.19672e-05 -8.65922e-06 -1.4296e-06
5.48161e-07 -1.4296e-06 -0.000100635
0.00124703 -4.04093e-05 -1.65908e-07
-4.04093e-05 0.000137151 -4.65331e-08
-1.65908e-07 -4.65331e-08 4.03905e-05
0.00147132 -4.58634e-05 -1.72139e-06
-4.58634e-05 0.000225308 1.16027e-06
-1.72139e-06 1.16027e-06 0.000130655
0.00136544 -4.03231e-05 -1.24204e-06
-4.03231e-05 0.000166621 1.36528e-06
-1.24204e-06 1.36528e-06 8.40664e-05
0.000964622 -3.12888e-05 -4.68012e-07
-3.12888e-05 -1.20145e-05 1.38037e-06
-4.68012e-07 1.38037e-06 -8.3921e-05
0.00113849 -3.696e-05 -1.4321e-07
-3.696e-05 6.35914e-05 2.01919e-07
-1.4321e-07 2.01919e-07 -1.80709e-05
0.00115736 -3.70257e-05 2.11976e-07
-3.70257e-05 7.95685e-05 -8.58039e-07
2.11976e-07 -8.58039e-07 -5.2579e-06
0.00123403 -3.05638e-05 7.85508e-08
-3.05638e-05 0.000126751 3.46399e-08
7.85508e-08 3.46399e-08 6.24698e-05
0.00113783 -3.15567e-05 6.78952e-07
-3.15567e-05 8.031e-05 -5.30452e-07
6.78952e-07 -5.30452e-07 1.2652e-05
0.000973328 -1.50082e-05 -4.82549e-07
-1.50082e-05 9.52545e-06 5.8766e-07
-4.82549e-07 5.8766e-07 -5.2104e-05
0.00108655 -2.65966e-05 1.51115e-07
-2.65966e-05 6.51798e-05 -1.08328e-07
1.51115e-07 -1.08328e-07 -1.06094e-06
0.00111439 -3.21509e-05 2.06002e-06
-3.21509e-05 6.76305e-05 -1.14343e-06
2.06002e-06 -1.14343e-06 -3.06353e-06
0.00104877 -4.1443e-06 -1.50226e-06
-4.1443e-06 3.52446e-05 8.66472e-07
-1.50226e-06 8.66472e-07 -1.65571e-05
0.00110848 -2.01756e-05 -2.58255e-07
-2.01756e-05 6.64247e-05 -4.50093e-08
-2.58255e-07 -4.50093e-08 5.14987e-06
0.00115334 -2.92899e-05 3.47385e-07
-2.92899e-05 8.92e-05 -1.34771e-07
3.47385e-07 -1.34771e-07 2.21402e-05
0.000997426 5.07748e-06 -1.9756e-06
5.07748e-06 7.18841e-06 1.91303e-06
-1.9756e-06 1.91303e-06 -2.73936e-05
0.00106077 -8.90867e-06 8.0852e-08
-8.90867e-06 3.80729e-05 7.469e-08
8.0852e-08 7.469e-08 -1.505e-05
0.00102792 -2.27534e-05 1.19684e-06
-2.27534e-05 2.45913e-05 -1.91845e-07
1.19684e-06 -1.91845e-07 -3.9801e-05
0.00105179 -9.04583e-06 1.25312e-06
-9.04583e-06 3.51541e-05 -1.05612e-06
1.25312e-06 -1.05612e-06 -1.9644e-05
0.000998395 4.01805e-06 1.15966e-07
4.01805e-06 6.56377e-06 3.0988e-08
1.15966e-07 3.0988e-08 -2.84286e-05
0.000912386 1.10887e-05 -2.41749e-06
1.10887e-05 -3.84618e-05 3.26838e-06
-2.41749e-06 3.26838e-06 -4.35128e-05
0.00100103 3.12403e-06 1.42311e-06
3.12403e-06 6.96134e-06 -1.98933e-06
1.42311e-06 -1.98933e-06 -2.78337e-05
0.000928254 9.77587e-06 9.05692e-08
9.77587e-06 -3.39481e-05 1.53075e-08
9.05692e-08 1.53075e-08 -3.84995e-05
0.00248876 1.48242e-05 -8.24479e-06
1.48242e-05 0.000733744 4.02672e-06
-8.24479e-06 4.02672e-06 0.000754131
0.000944915 8.34089e-06 1.89925e-06
8.34089e-06 -2.92646e-05 -3.28568e-06
1.89925e-06 -3.28568e-06 -3.31855e-05
0.00178987 1.15707e-05 2.94889e-06
1.15707e-05 0.000385444 -1.22479e-06
2.94889e-06 -1.22479e-06 0.000403556
0.00244106 1.00083e-05 6.56123e-06
1.00083e-05 0.000703855 -4.13033e-06
6.56123e-06 -4.13033e-06 0.000725534
0.00103875 8.88248e-06 -7.9423e-07
8.88248e-06 2.82229e-05 -1.18697e-06
-7.9423e-07 -1.18697e-06 -2.52307e-05
0.000998687 -7.06946e-06 -8.84758e-07
-7.06946e-06 4.32019e-06 -1.93214e-06
-8.84758e-07 -1.93214e-06 -2.74006e-05
0.000946572 3.96175e-06 -3.57936e-07
3.96175e-06 -1.53828e-05 -5.31542e-07
-3.57936e-07 -5.31542e-07 -6.80579e-05
0.000962713 -7.29298e-06 -1.39497e-06
-7.29298e-06 -2.39011e-05 -3.19662e-06
-1.39497e-06 -3.19662e-06 -2.49544e-05
0.000875858 -5.32552e-06 -1.72136e-07
-5.32552e-06 -5.83999e-05 -6.01965e-07
-1.72136e-07 -6.01965e-07 -8.88708e-05
0.00114338 -3.38408e-06 1.78119e-07
-3.38408e-06 8.0264e-05 6.87957e-07
1.78119e-07 6.87957e-07 3.13058e-05
0.00231172 -7.5736e-06 -5.07347e-06
-7.5736e-06 0.000636716 -4.0292e-06
-5.07347e-06 -4.0292e-06 0.000660198
0.000951539 -5.51847e-06 -7.29807e-08
-5.51847e-06 -3.24154e-05 -5.46082e-09
-7.29807e-08 -5.46082e-09 -3.19336e-05
0.000744082 -3.94785e-06 3.65819e-07
-3.94785e-06 -0.000125425 1.2734e-06
3.65819e-07 1.2734e-06 -0.000154715
0.00229781 -4.94508e-06 -5.38803e-07
-4.94508e-06 0.00062731 1.43574e-08
-5.38803e-07 1.43574e-08 0.000651462
0.000945447 -3.59699e-06 6.2256e-07
-3.59699e-06 -3.75368e-05 3.24883e-06
6.2256e-07 3.24883e-06 -3.59866e-05
0.00228992 -2.34877e-06 1.30456e-06
-2.34877e-06 0.000622093 4.04768e-06
1.30456e-06 4.04768e-06 0.000646597
0.000950088 -3.33055e-06 5.85463e-07
-3.33055e-06 0.000161879 -2.37794e-06
5.85463e-07 -2.37794e-06 9.2809e-05
0.000943567 -1.61983e-05 4.35275e-07
-1.61983e-05 0.000201864 -6.85351e-08
4.35275e-07 -6.85351e-08 0.000123509
0.000766973 -6.47387e-06 -9.4202e-06
-6.47387e-06 0.000185273 2.60792e-06
-9.4202e-06 2.60792e-06 0.000122867
0.00101235 2.23842e-05 -6.61706e-07
2.23842e-05 1.45344e-05 -5.00325e-07
-6.61706e-07 -5.00325e-07 -5.21987e-05
0.00117182 2.79043e-05 -2.47465e-07
2.79043e-05 9.19281e-05 7.75872e-08
-2.47465e-07 7.75872e-08 2.19464e-05
0.00116567 2.44428e-05 4.35844e-07
2.44428e-05 9.72909e-05 9.4376e-07
4.35844e-07 9.4376e-07 3.12945e-05
0.000991773 2.27658e-05 2.69153e-08
2.27658e-05 7.09513e-06 3.58466e-08
2.69153e-08 3.58466e-08 -6.09369e-05
0.00113379 2.19106e-05 1.44388e-07
2.19106e-05 8.38255e-05 3.64595e-07
1.44388e-07 3.64595e-07 8.17824e-06
0.00115571 2.79144e-05 -3.99301e-07
2.79144e-05 8.92923e-05 -1.74741e-07
-3.99301e-07 -1.74741e-07 1.41265e-05
0.00114858 2.77327e-05 -2.30428e-08
2.77327e-05 9.09726e-05 2.20241e-07
-2.30428e-08 2.20241e-07 1.03969e-05
0.000898694 1.58507e-05 -5.02291e-06
1.58507e-05 0.00014886 -4.28216e-06
-5.02291e-06 -4.28216e-06 0.000105217
0.000782938 -1.03951e-06 3.57512e-07
-1.03951e-06 4.08135e-05 6.57293e-07
3.57512e-07 6.57293e-07 -1.06291e-06
0.00111973 -1.98414e-05 -1.23476e-06
-1.98414e-05 0.000283909 -1.26487e-06
-1.23476e-06 -1.26487e-06 0.000242255
0.000712167 6.49647e-06 5.18818e-07
6.49647e-06 4.85417e-05 -3.84566e-06
5.18818e-07 -3.84566e-06 -1.03252e-06
0.00248977 -6.50168e-05 -6.20782e-05
-6.50168e-05 0.000776629 5.93891e-05
-6.20782e-05 5.93891e-05 0.000333932
0.00118527 7.77989e-05 3.8009e-05
7.77989e-05 -0.00048863 -5.36857e-05
3.8009e-05 -5.36857e-05 -0.00104759
0.00517351 0.000139002 4.10555e-06
0.000139002 0.00123649 -2.8086e-05
4.10555e-06 -2.8086e-05 0.00137387
0.00107074 -9.56704e-05 -3.22193e-05
-9.56704e-05 0.000100878 2.93602e-05
-3.22193e-05 2.93602e-05 -0.000160698
0.00369523 1.96933e-05 1.26874e-05
1.96933e-05 -0.000102603 -4.40345e-05
1.26874e-05 -4.40345e-05 -0.000564916
0.00347353 1.93664e-05 -5.95878e-06
1.93664e-05 0.000127711 -5.86583e-07
-5.95878e-06 -5.86583e-07 0.000421684
0.000861739 3.13988e-06 3.10002e-06
3.13988e-06 5.75824e-05 3.31285e-06
3.10002e-06 3.31285e-06 7.60064e-05
0.000951133 -7.92613e-05 1.89859e-05
-7.92613e-05 0.000209817 -1.48333e-05
1.89859e-05 -1.48333e-05 7.54963e-05
0.00376228 -7.06374e-05 -1.51355e-05
-7.06374e-05 -9.37054e-05 -0.000105849
-1.51355e-05 -0.000105849 -0.000625765
3.51502e-05 -7.36024e-05 7.25311e-06
-7.36024e-05 -0.000904548 4.47696e-05
7.25311e-06 4.47696e-05 -0.00075687
-0.000978213 -1.83245e-05 -5.31864e-06
-1.83245e-05 -0.00101408 2.03621e-07
-5.31864e-06 2.03621e-07 -0.000948453
0.00113388 2.8114e-05 -2.30569e-06
2.8114e-05 8.49646e-05 -1.75399e-07
-2.30569e-06 -1.75399e-07 -1.83183e-06
0.0011641 1.73589e-05 2.5419e-09
1.73589e-05 9.9562e-05 -1.14422e-07
2.5419e-09 -1.14422e-07 1.55311e-05
0.001079 -4.30982e-07 3.08985e-08
-4.30982e-07 5.87411e-05 1.84822e-07
3.08985e-08 1.84822e-07 -2.26103e-05
0.00111451 1.55528e-05 -6.34054e-08
1.55528e-05 7.59418e-05 -9.64466e-08
-6.34054e-08 -9.64466e-08 1.22136e-06
0.000766284 -4.78216e-05 1.18051e-05
-4.78216e-05 -0.000286455 -8.20246e-06
1.18051e-05 -8.20246e-06 -0.000351028
0.00127537 1.34644e-05 4.38873e-07
1.34644e-05 0.000264936 3.27871e-06
4.38873e-07 3.27871e-06 9.61699e-05
0.00115066 1.99645e-05 5.8718e-07
1.99645e-05 9.69056e-05 9.2613e-07
5.8718e-07 9.2613e-07 6.40835e-06
0.00107452 1.09308e-05 -2.41123e-07
1.09308e-05 5.48545e-05 7.76293e-07
-2.41123e-07 7.76293e-07 -4.17548e-05
0.00109981 -4.60428e-06 1.95299e-07
-4.60428e-06 6.25186e-05 1.0602e-06
1.95299e-07 1.0602e-06 -4.11321e-05
0.00108336 1.86833e-05 -7.02228e-07
1.86833e-05 6.33429e-05 -1.38075e-07
-7.02228e-07 -1.38075e-07 -3.42043e-05
0.00110714 3.47078e-07 -1.9371e-07
3.47078e-07 7.34869e-05 -1.1138e-07
-1.9371e-07 -1.1138e-07 -2.82703e-05
0.000974868 -1.0441e-05 1.04455e-05
-1.0441e-05 0.000198168 -2.60825e-06
1.04455e-05 -2.60825e-06 6.83731e-05
0.00101346 1.07585e-06 7.75921e-07
1.07585e-06 3.73485e-05 -4.77726e-07
7.75921e-07 -4.77726e-07 -6.77585e-05
0.00117899 1.29261e-05 -6.33762e-07
1.29261e-05 0.000117176 -7.74849e-07
-6.33762e-07 -7.74849e-07 1.03853e-05
0.000870313 1.51758e-05 1.06292e-05
1.51758e-05 0.000352812 1.68362e-05
1.06292e-05 1.68362e-05 0.000276321
0.00133546 -9.9002e-06 1.55026e-06
-9.9002e-06 0.000198342 -4.07512e-06
1.55026e-06 -4.07512e-06 6.0904e-05
0.0013428 8.65125e-07 -1.20068e-06
8.65125e-07 0.000456817 4.13343e-08
-1.20068e-06 4.13343e-08 0.000355255
0.000892443 -2.05375e-06 3.785e-07
-2.05375e-06 0.000119364 -2.85311e-07
3.785e-07 -2.85311e-07 3.27035e-05
0.000406507 -3.27174e-06 4.33869e-08
-3.27174e-06 -0.000140716 6.25306e-07
4.33869e-08 6.25306e-07 -0.000234153
0.00208205 -2.40622e-06 -4.31273e-06
-2.40622e-06 0.000541269 8.87579e-06
-4.31273e-06 8.87579e-06 0.000474133
-0.000347337 1.82466e-05 1.51863e-06
1.82466e-05 -0.000196242 1.62638e-05
1.51863e-06 1.62638e-05 -0.000228578
0.000737482 -7.12565e-06 5.18574e-07
-7.12565e-06 9.06277e-06 4.09159e-08
5.18574e-07 4.09159e-08 -7.07134e-05
0.00336594 7.75985e-05 -2.1074e-06
7.75985e-05 0.000413451 -7.07825e-05
-2.1074e-06 -7.07825e-05 -0.000430303
0.00529217 0.000149055 -5.17253e-06
0.000149055 0.00137153 2.60433e-05
-5.17253e-06 2.60433e-05 0.00158391
0.00118047 -1.95664e-05 8.75045e-07
-1.95664e-05 0.000282995 -2.86491e-06
8.75045e-07 -2.86491e-06 0.000235896
0.00228519 1.96619e-05 5.55157e-06
1.96619e-05 0.000923232 -7.04295e-06
5.55157e-06 -7.04295e-06 0.00104019
0.00078586 -1.43111e-06 -6.20236e-06
-1.43111e-06 0.000179588 -9.22146e-07
-6.20236e-06 -9.22146e-07 7.33353e-05
0.000994262 -1.24884e-05 -1.28916e-06
-1.24884e-05 0.000215198 1.25734e-07
-1.28916e-06 1.25734e-07 0.000127418
0.000964287 -9.14703e-07 -4.48036e-06
-9.14703e-07 0.000238723 5.45515e-07
-4.48036e-06 5.45515e-07 0.000204975
0.000676963 -1.6436e-05 1.758e-06
-1.6436e-05 0.0004177 1.15988e-05
1.758e-06 1.15988e-05 0.000183426
0.000214493 5.33936e-05 5.10089e-07
5.33936e-05 -0.000360912 -3.82647e-06
5.10089e-07 -3.82647e-06 -0.000186616
-0.000157185 0.000150313 3.93902e-06
0.000150313 -0.000661718 -1.02492e-05
3.93902e-06 -1.02492e-05 -0.000688794
0.001879 2.79062e-05 1.15703e-05
2.79062e-05 -0.000302031 -2.16177e-05
1.15703e-05 -2.16177e-05 -0.000916998
0.000309243 -1.13338e-05 3.24159e-06
-1.13338e-05 2.88812e-05 -2.13134e-05
3.24159e-06 -2.13134e-05 -0.000116323
0.00106852 -4.21544e-06 -9.49129e-06
-4.21544e-06 0.000363203 2.16493e-06
-9.49129e-06 2.16493e-06 0.000290653
-0.0010828 2.47456e-05 8.88785e-07
2.47456e-05 -0.000981043 1.72322e-06
8.88785e-07 1.72322e-06 -0.000953545
-1.51599e-06 0.000110931 4.19609e-05
0.000110931 -0.000141558 -3.23958e-05
4.19609e-05 -3.23958e-05 -7.26552e-05
0.00583792 0.000156935 1.88313e-05
0.000156935 0.00155132 -4.22573e-05
1.88313e-05 -4.22573e-05 0.0009588
0.00179034 -9.00867e-05 -3.71363e-05
-9.00867e-05 0.000274648 9.41292e-05
-3.71363e-05 9.41292e-05 -0.000237555
0.00107637 1.08727e-05 -8.39291e-08
1.08727e-05 0.000145763 -3.57706e-06
-8.39291e-08 -3.57706e-06 -6.22171e-06
0.00101223 -2.49498e-07 -1.09771e-07
-2.49498e-07 0.000162941 -5.44282e-07
-1.09771e-07 -5.44282e-07 -1.17409e-05
0.000884696 -3.29125e-05 5.4101e-07
-3.29125e-05 0.000123912 4.06324e-06
5.4101e-07 4.06324e-06 -9.1268e-05
0.00100111 -1.67857e-05 -3.15225e-07
-1.67857e-05 7.72608e-05 1.90911e-07
-3.15225e-07 1.90911e-07 -3.70738e-05
0.000852004 -3.15398e-05 2.13704e-07
-3.15398e-05 3.8457e-05 -1.14154e-07
2.13704e-07 -1.14154e-07 -0.000103702
0.00119424 -5.67089e-05 1.4552e-06
-5.67089e-05 0.000168722 1.11551e-06
1.4552e-06 1.11551e-06 1.84317e-05
0.00144736 -4.27158e-05 -2.36864e-07
-4.27158e-05 0.000268124 -5.32712e-07
-2.36864e-07 -5.32712e-07 0.000156005
0.00130946 -4.68584e-05 -3.67623e-07
-4.68584e-05 0.000193746 7.10924e-07
-3.67623e-07 7.10924e-07 7.4776e-05
0.00139127 -5.30558e-05 -2.13505e-06
-5.30558e-05 0.000191303 -2.85485e-07
-2.13505e-06 -2.85485e-07 8.09557e-05
0.00132205 -4.11716e-05 3.01927e-07
-4.11716e-05 0.000173127 -1.29768e-06
3.01927e-07 -1.29768e-06 7.58347e-05
0.00140112 -4.51649e-05 -3.74439e-07
-4.51649e-05 0.000189273 -3.79185e-08
-3.74439e-07 -3.79185e-08 9.3923e-05
0.00133535 -4.34655e-05 -8.96003e-07
-4.34655e-05 0.000146501 -5.50653e-08
-8.96003e-07 -5.50653e-08 5.762e-05
0.00126712 -3.72265e-05 -1.10823e-06
-3.72265e-05 9.81989e-05 -3.2686e-07
-1.10823e-06 -3.2686e-07 2.10481e-05
0.00137082 -3.74032e-05 -1.20612e-06
-3.74032e-05 0.000168856 1.64104e-06
-1.20612e-06 1.64104e-06 9.40555e-05
0.00128505 -3.94313e-05 -1.25752e-07
-3.94313e-05 0.000128169 9.86609e-10
-1.25752e-07 9.86609e-10 4.51189e-05
0.000944209 -2.90327e-05 -2.23415e-07
-2.90327e-05 -1.88479e-05 4.15188e-07
-2.23415e-07 4.15188e-07 -8.44849e-05
0.00107114 -3.24445e-05 4.63113e-07
-3.24445e-05 3.98004e-05 -1.22495e-07
4.63113e-07 -1.22495e-07 -3.15367e-05
0.00108 -3.64687e-05 7.12196e-07
-3.64687e-05 3.59314e-05 -1.24729e-06
7.12196e-07 -1.24729e-06 -4.68866e-05
0.00112318 -2.19639e-05 -2.56583e-07
-2.19639e-05 7.52698e-05 3.76727e-07
-2.56583e-07 3.76727e-07 1.40579e-05
0.00115627 -2.96218e-05 6.94578e-08
-2.96218e-05 8.97876e-05 -1.54741e-07
6.94578e-08 -1.54741e-07 2.51616e-05
0.00102303 -3.00161e-05 1.20409e-06
-3.00161e-05 2.55488e-05 -9.43938e-07
1.20409e-06 -9.43938e-07 -4.11054e-05
0.00102133 1.5593e-06 -9.7679e-07
1.5593e-06 2.83196e-05 9.57893e-07
-9.7679e-07 9.57893e-07 -2.40119e-05
0.00101519 -1.45068e-05 -1.47505e-07
-1.45068e-05 2.92153e-05 1.19204e-07
-1.47505e-07 1.19204e-07 -3.20666e-05
0.00116329 -2.73026e-05 5.93008e-07
-2.73026e-05 0.000101732 -4.14865e-07
5.93008e-07 -4.14865e-07 3.61323e-05
0.000978125 9.47757e-06 -2.18498e-06
9.47757e-06 9.38319e-07 1.74867e-06
-2.18498e-06 1.74867e-06 -3.31228e-05
0.00105603 -4.35935e-06 -1.86688e-07
-4.35935e-06 3.8058e-05 -3.28093e-08
-1.86688e-07 -3.28093e-08 -1.36177e-05
0.0011154 -2.04976e-05 5.30748e-07
-2.04976e-05 6.88872e-05 -2.85763e-07
5.30748e-07 -2.85763e-07 7.745e-06
0.000944512 1.24601e-05 -3.79143e-06
1.24601e-05 -1.99936e-05 4.37272e-06
-3.79143e-06 4.37272e-06 -2.55002e-05
0.000993859 6.08806e-06 8.86478e-08
6.08806e-06 5.56479e-06 5.10934e-08
8.86478e-08 5.10934e-08 -2.89772e-05
0.00105559 -8.71447e-06 1.49345e-06
-8.71447e-06 3.51194e-05 -8.52869e-07
1.49345e-06 -8.52869e-07 -1.78412e-05
0.000993793 4.56244e-06 1.76876e-06
4.56244e-06 4.3103e-06 -1.93203e-06
1.76876e-06 -1.93203e-06 -3.06391e-05
0.000918784 1.11362e-05 1.17027e-07
1.11362e-05 -3.52873e-05 2.8553e-08
1.17027e-07 2.8553e-08 -4.03666e-05
0.00250664 1.71944e-05 -9.15795e-06
1.71944e-05 0.000746352 3.94791e-06
-9.15795e-06 3.94791e-06 0.000766032
0.000936391 9.80732e-06 2.25048e-06
9.80732e-06 -3.00303e-05 -3.26562e-06
2.25048e-06 -3.26562e-06 -3.46167e-05
0.00247417 1.48402e-05 2.89594e-07
1.48402e-05 0.000726927 3.59276e-08
2.89594e-07 3.59276e-08 0.000747321
0.00245081 1.2464e-05 7.69663e-06
1.2464e-05 0.00071211 -4.07582e-06
7.69663e-06 -4.07582e-06 0.000733162
0.00108992 2.20275e-05 -6.85422e-07
2.20275e-05 5.24507e-05 -3.65988e-07
-6.85422e-07 -3.65988e-07 -1.3068e-05
0.00105385 6.79129e-06 -9.01759e-07
6.79129e-06 3.35844e-05 -1.12968e-06
-9.01759e-07 -1.12968e-06 -2.07876e-05
0.000985536 -6.49965e-06 -1.30309e-06
-6.49965e-06 -1.16791e-07 -1.95492e-06
-1.30309e-06 -1.95492e-06 -3.37641e-05
0.00105284 9.08107e-06 -5.23449e-08
9.08107e-06 3.5083e-05 9.97769e-09
-5.23449e-08 9.97769e-09 -1.84751e-05
0.000955506 -8.81874e-06 -1.75956e-06
-8.81874e-06 -2.37576e-05 -3.22096e-06
-1.75956e-06 -3.22096e-06 -2.64972e-05
0.0010013 -6.75539e-06 -7.26471e-08
-6.75539e-06 5.67181e-06 -3.31285e-09
-7.26471e-08 -3.31285e-09 -2.6032e-05
0.00104973 9.46472e-06 1.83721e-07
9.46472e-06 3.55163e-05 7.97869e-07
1.83721e-07 7.97869e-07 -1.66734e-05
0.00234915 -1.00963e-05 -6.32771e-06
-1.00963e-05 0.000658376 -4.03549e-06
-6.32771e-06 -4.03549e-06 0.000680946
0.000946155 -7.29078e-06 -8.25814e-08
-7.29078e-06 -3.19233e-05 -1.26791e-08
-8.25814e-08 -1.26791e-08 -3.28774e-05
0.00100894 -5.52095e-06 4.98318e-07
-5.52095e-06 6.89474e-06 1.26917e-06
4.98318e-07 1.26917e-06 -2.285e-05
0.00231922 -7.51705e-06 -4.64856e-07
-7.51705e-06 0.000640027 2.0276e-08
-4.64856e-07 2.0276e-08 0.000663583
0.000938275 -5.50578e-06 9.30389e-07
-5.50578e-06 -3.89016e-05 3.22279e-06
9.30389e-07 3.22279e-06 -3.83311e-05
0.00230561 -4.87775e-06 3.00627e-06
-4.87775e-06 0.000630903 4.03414e-06
3.00627e-06 4.03414e-06 0.000655087
0.000821688 7.43313e-06 8.56515e-08
7.43313e-06 0.000127771 -2.98947e-06
8.56515e-08 -2.98947e-06 3.88748e-05
0.000872127 -4.60136e-06 -5.14327e-08
-4.60136e-06 0.000112614 -2.27551e-06
-5.14327e-08 -2.27551e-06 4.01224e-05
0.00101239 -1.6106e-05 -6.12858e-07
-1.6106e-05 0.000244688 1.70494e-06
-6.12858e-07 1.70494e-06 0.000167057
0.00105549 2.23873e-05 8.04965e-08
2.23873e-05 3.64279e-05 4.30708e-08
8.04965e-08 4.30708e-08 -3.00695e-05
0.00112538 2.72437e-05 2.59124e-07
2.72437e-05 6.9097e-05 1.30924e-07
2.59124e-07 1.30924e-07 -1.21442e-06
0.00107183 2.3449e-05 -5.78074e-07
2.3449e-05 4.32504e-05 -2.69003e-07
-5.78074e-07 -2.69003e-07 -2.59782e-05
0.0010616 2.67638e-05 -7.88772e-07
2.67638e-05 3.84376e-05 -3.09835e-07
-7.88772e-07 -3.09835e-07 -3.36344e-05
0.00117985 2.86119e-05 -3.02926e-08
2.86119e-05 9.53489e-05 1.34214e-07
-3.02926e-08 1.34214e-07 2.26866e-05
0.000988555 2.25574e-05 7.40569e-07
2.25574e-05 5.96658e-06 7.10348e-07
7.40569e-07 7.10348e-07 -6.20832e-05
0.00106596 2.27118e-05 3.73575e-07
2.27118e-05 5.04719e-05 7.38873e-07
3.73575e-07 7.38873e-07 -2.59879e-05
0.00114865 2.78689e-05 7.36356e-09
2.78689e-05 8.55964e-05 6.63499e-09
7.36356e-09 6.63499e-09 1.05232e-05
0.00111055 2.67869e-05 3.06178e-07
2.67869e-05 7.20935e-05 3.26033e-07
3.06178e-07 3.26033e-07 -8.03601e-06
0.00119889 2.8987e-05 -3.99544e-07
2.8987e-05 0.000112448 2.17946e-07
-3.99544e-07 2.17946e-07 3.3475e-05
0.000509178 -7.32417e-06 -8.2968e-06
-7.32417e-06 3.2617e-06 -1.36139e-05
-8.2968e-06 -1.36139e-05 -4.28142e-05
0.000757148 1.48924e-05 -2.08807e-06
1.48924e-05 5.82018e-05 -9.49415e-07
-2.08807e-06 -9.49415e-07 1.30326e-05
0.000602989 -1.76024e-06 -5.98307e-07
-1.76024e-06 -6.56066e-05 -2.02328e-06
-5.98307e-07 -2.02328e-06 -0.000111805
0.000218069 6.57175e-06 1.15928e-05
6.57175e-06 -0.000322949 3.84002e-06
1.15928e-05 3.84002e-06 -0.000323705
0.000607136 1.36276e-05 -1.06842e-06
1.36276e-05 -0.000960337 -5.47447e-05
-1.06842e-06 -5.47447e-05 -0.000705347
0.00115178 -0.00011528 -4.3309e-05
-0.00011528 8.64737e-07 0.000102059
-4.3309e-05 0.000102059 -0.000377229
0.00641217 8.40511e-05 7.75357e-07
8.40511e-05 0.00129714 -3.48694e-05
7.75357e-07 -3.48694e-05 0.000941733
0.000634472 -0.000100633 -1.26597e-05
-0.000100633 -0.000112756 2.15859e-05
-1.26597e-05 2.15859e-05 -0.000469
0.00667975 -5.31894e-06 -1.00464e-05
-5.31894e-06 0.000819382 3.93179e-06
-1.00464e-05 3.93179e-06 0.00100277
0.00212667 -0.000118514 2.815e-06
-0.000118514 0.000133601 -1.61566e-05
2.815e-06 -1.61566e-05 0.000112744
-0.000568723 -2.16108e-05 -2.25717e-07
-2.16108e-05 -0.00079666 6.22306e-06
-2.25717e-07 6.22306e-06 -0.000699781
0.000802568 -4.40484e-05 4.28451e-06
-4.40484e-05 0.000183711 -4.99503e-05
4.28451e-06 -4.99503e-05 -0.000254669
0.00662933 -0.00012492 -8.514e-06
-0.00012492 0.001559 3.86583e-05
-8.514e-06 3.86583e-05 0.00109066
0.00313393 -0.000165897 7.9124e-06
-0.000165897 0.000848211 2.3169e-05
7.9124e-06 2.3169e-05 0.000820858
0.00141031 -5.5396e-05 -1.50903e-06
-5.5396e-05 0.000349512 -8.138e-07
-1.50903e-06 -8.138e-07 0.000511474
0.00108571 3.16921e-05 -1.13675e-06
3.16921e-05 6.91378e-05 5.21851e-07
-1.13675e-06 5.21851e-07 -1.22853e-05
0.00116478 2.84015e-05 -4.07352e-07
2.84015e-05 0.00010082 -5.46137e-09
-4.07352e-07 -5.46137e-09 1.48435e-05
0.00120768 1.4443e-05 3.27057e-07
1.4443e-05 0.000121111 9.38643e-08
3.27057e-07 9.38643e-08 3.67871e-05
-0.000144649 8.44587e-07 6.65679e-07
8.44587e-07 -0.000279521 -1.20372e-05
6.65679e-07 -1.20372e-05 -0.000383849
0.00109554 -7.96113e-06 3.0043e-08
-7.96113e-06 8.02965e-05 3.8017e-06
3.0043e-08 3.8017e-06 -2.40336e-05
0.00119335 2.0137e-05 7.22467e-07
2.0137e-05 0.000118484 8.54142e-07
7.22467e-07 8.54142e-07 2.19134e-05
0.00111393 1.89865e-06 3.57952e-07
1.89865e-06 7.44786e-05 6.88357e-07
3.57952e-07 6.88357e-07 -2.72563e-05
0.00117865 1.20312e-05 6.94047e-07
1.20312e-05 0.000120714 2.19612e-08
6.94047e-07 2.19612e-08 1.37526e-05
0.00107254 -5.33987e-06 -1.63779e-07
-5.33987e-06 8.31876e-05 -7.852e-07
-1.63779e-07 -7.852e-07 -5.90649e-05
0.000306666 3.98251e-06 -5.559e-06
3.98251e-06 9.67976e-05 7.51234e-06
-5.559e-06 7.51234e-06 1.04926e-05
0.000955287 2.62415e-05 -3.40612e-06
2.62415e-05 3.54233e-05 -6.10299e-07
-3.40612e-06 -6.10299e-07 -9.28676e-05
0.000659367 1.59197e-05 -4.71285e-06
1.59197e-05 0.000196946 1.94978e-05
-4.71285e-06 1.94978e-05 8.87422e-05
0.00199772 -2.71733e-06 -1.16497e-05
-2.71733e-06 0.000962962 9.02723e-08
-1.16497e-05 9.02723e-08 0.000883274
0.00083263 8.4267e-07 -8.60202e-07
8.4267e-07 0.000136111 -5.02154e-07
-8.60202e-07 -5.02154e-07 3.46608e-05
0.00065579 -3.32739e-06 2.02025e-07
-3.32739e-06 -2.88878e-05 -3.07168e-07
2.02025e-07 -3.07168e-07 -0.000114945
-0.000139179 1.40897e-05 7.6757e-06
1.40897e-05 -0.000294573 1.72333e-05
7.6757e-06 1.72333e-05 -0.000374429
0.00100491 2.06755e-05 6.15569e-06
2.06755e-05 0.000459239 -3.88521e-05
6.15569e-06 -3.88521e-05 -0.000263918
0.00107668 -1.23918e-05 -1.99998e-08
-1.23918e-05 0.000266674 -1.46053e-06
-1.99998e-08 -1.46053e-06 0.00017953
0.00743149 0.000104016 1.71185e-05
0.000104016 0.00197547 -2.49848e-05
1.71185e-05 -2.49848e-05 0.00111379
0.00302368 0.000190755 -1.74384e-05
0.000190755 0.00100143 2.23096e-05
-1.74384e-05 2.23096e-05 0.000883382
0.00109882 -2.12633e-06 6.45256e-06
-2.12633e-06 0.000320037 -9.46364e-06
6.45256e-06 -9.46364e-06 0.000289564
1.48843e-05 5.60799e-05 -1.85587e-06
5.60799e-05 -0.000438717 8.82497e-07
-1.85587e-06 8.82497e-07 -0.000281605
0.000582169 -7.06214e-08 2.06928e-06
-7.06214e-08 0.000165033 2.53293e-07
2.06928e-06 2.53293e-07 2.12409e-05
0.000928675 -4.27832e-06 4.3292e-07
-4.27832e-06 0.000273126 -3.01101e-07
4.3292e-07 -3.01101e-07 0.000201882
-0.00134742 2.88873e-05 8.15719e-06
2.88873e-05 -0.00115684 -1.68988e-06
8.15719e-06 -1.68988e-06 -0.00111203
0.00075796 -5.47088e-05 -1.45356e-06
-5.47088e-05 0.000132859 3.65793e-05
-1.45356e-06 3.65793e-05 -0.000284319
0.00219738 0.000157399 -1.74699e-06
0.000157399 0.000680267 -4.49781e-06
-1.74699e-06 -4.49781e-06 0.000621349
0.00540332 8.10666e-05 1.25329e-05
8.10666e-05 0.00115663 -1.23628e-05
1.25329e-05 -1.23628e-05 0.00028522
0.00045272 -1.63743e-05 8.53897e-06
-1.63743e-05 -9.27697e-05 -9.61008e-06
8.53897e-06 -9.61008e-06 -0.000204926
-0.00118418 7.71565e-06 -9.06513e-06
7.71565e-06 -0.000977278 1.16697e-06
-9.06513e-06 1.16697e-06 -0.000997143
0.00243351 0.000105294 2.34155e-05
0.000105294 0.000921984 -1.21428e-05
2.34155e-05 -1.21428e-05 0.000836891
0.00296957 9.21073e-05 -4.45096e-05
9.21073e-05 0.000320652 2.05776e-05
-4.45096e-05 2.05776e-05 -0.000334941
0.000340893 -2.66448e-05 -7.10367e-06
-2.66448e-05 -0.000245097 4.30494e-05
-7.10367e-06 4.30494e-05 -0.000441554
0.00114943 1.08127e-06 6.31824e-07
1.08127e-06 0.000219544 -4.3618e-07
6.31824e-07 -4.3618e-07 4.9577e-05
0.000900991 -3.16003e-05 -2.83369e-07
-3.16003e-05 0.000137321 2.03858e-07
-2.83369e-07 2.03858e-07 -8.04608e-05
0.00181873 -8.49282e-05 -7.1598e-07
-8.49282e-05 0.000495702 2.67516e-06
-7.1598e-07 2.67516e-06 0.000306565
0.000793281 -2.99652e-05 -3.13021e-07
-2.99652e-05 9.71908e-06 1.8233e-07
-3.13021e-07 1.8233e-07 -0.00012887
0.00107008 -5.27215e-05 5.86144e-07
-5.27215e-05 0.000115437 -3.02457e-07
5.86144e-07 -3.02457e-07 -3.4963e-05
0.00132502 -6.76231e-05 -2.69495e-06
-6.76231e-05 0.000137368 -1.83071e-06
-2.69495e-06 -1.83071e-06 1.96095e-05
0.00128605 -4.68477e-05 -2.40731e-07
-4.68477e-05 0.000179895 -8.63331e-07
-2.40731e-07 -8.63331e-07 5.9054e-05
0.00122262 -5.07848e-05 -6.74356e-07
-5.07848e-05 0.00010767 -1.05411e-06
-6.74356e-07 -1.05411e-06 -1.41763e-06
0.00154015 -5.11148e-05 -1.51078e-06
-5.11148e-05 0.000217249 -1.22241e-06
-1.51078e-06 -1.22241e-06 0.000133937
0.00132056 -4.42992e-05 5.40757e-07
-4.42992e-05 0.000147979 -1.42791e-06
5.40757e-07 -1.42791e-06 5.19611e-05
0.0012322 -4.18182e-05 4.43917e-07
-4.18182e-05 9.48073e-05 -5.18117e-07
4.43917e-07 -5.18117e-07 7.1614e-06
0.00131082 -3.7794e-05 -1.05108e-06
-3.7794e-05 0.000100663 -1.41915e-06
-1.05108e-06 -1.41915e-06 3.00415e-05
0.00127379 -3.31414e-05 -7.38261e-07
-3.31414e-05 7.12279e-05 -7.63115e-07
-7.38261e-07 -7.63115e-07 6.07196e-06
0.00119098 -3.50072e-05 -9.25396e-07
-3.50072e-05 6.66903e-05 5.41815e-07
-9.25396e-07 5.41815e-07 -7.49849e-06
0.00121134 -3.6225e-05 1.0448e-07
-3.6225e-05 6.89576e-05 -5.16374e-07
1.0448e-07 -5.16374e-07 -7.38304e-06
0.0012054 -3.304e-05 -6.43678e-07
-3.304e-05 9.62416e-05 1.27756e-06
-6.43678e-07 1.27756e-06 2.76243e-05
0.00120124 -3.56224e-05 -2.69762e-07
-3.56224e-05 8.88871e-05 2.18508e-07
-2.69762e-07 2.18508e-07 1.29482e-05
0.00119302 -3.8375e-05 6.175e-07
-3.8375e-05 8.42655e-05 -1.04609e-06
6.175e-07 -1.04609e-06 7.18811e-07
0.00108275 -2.63052e-05 -4.79736e-07
-2.63052e-05 4.98282e-05 1.68668e-07
-4.79736e-07 1.68668e-07 -1.04526e-05
0.00101155 -2.97346e-05 -7.28716e-08
-2.97346e-05 1.40936e-05 -3.47539e-07
-7.28716e-08 -3.47539e-07 -5.09305e-05
0.00117888 -3.3613e-05 1.1319e-06
-3.3613e-05 9.21499e-05 -1.56314e-06
1.1319e-06 -1.56314e-06 2.13858e-05
0.00102706 -5.92365e-07 -8.52223e-07
-5.92365e-07 3.31724e-05 9.618e-07
-8.52223e-07 9.618e-07 -2.03954e-05
0.00106029 -2.02561e-05 1.33917e-07
-2.02561e-05 4.58011e-05 1.47512e-07
1.33917e-07 1.47512e-07 -1.54631e-05
0.00107611 -2.86809e-05 5.11511e-07
-2.86809e-05 5.16555e-05 -2.94804e-07
5.11511e-07 -2.94804e-07 -1.33114e-05
0.00095538 1.41545e-05 -2.01163e-06
1.41545e-05 -4.45515e-06 1.69523e-06
-2.01163e-06 1.69523e-06 -3.90858e-05
0.00104141 2.46425e-07 -6.28724e-08
2.46425e-07 3.70823e-05 -2.85948e-08
-6.28724e-08 -2.85948e-08 -1.5189e-05
0.00105721 -1.43901e-05 1.22726e-07
-1.43901e-05 4.89894e-05 -2.49287e-07
1.22726e-07 -2.49287e-07 -1.19482e-05
0.00155279 1.58075e-05 -6.03486e-06
1.58075e-05 0.000284321 2.95305e-06
-6.03486e-06 2.95305e-06 0.000281839
0.000984495 1.01313e-05 -4.16325e-08
1.01313e-05 4.10314e-06 1.97291e-08
-4.16325e-08 1.97291e-08 -2.99632e-05
0.0010608 -4.59198e-06 1.099e-06
-4.59198e-06 3.96674e-05 -8.79027e-07
1.099e-06 -8.79027e-07 -1.18661e-05
0.00119138 1.45379e-05 -8.486e-06
1.45379e-05 0.000101545 3.80113e-06
-8.486e-06 3.80113e-06 0.000114503
0.00125178 1.34235e-05 -1.80353e-06
1.34235e-05 0.000132127 5.98938e-07
-1.80353e-06 5.98938e-07 0.000128248
0.000989226 6.57402e-06 2.00942e-06
6.57402e-06 3.39218e-06 -1.78246e-06
2.00942e-06 -1.78246e-06 -3.10925e-05
0.000925236 1.11864e-05 2.66874e-06
1.11864e-05 -3.20962e-05 -3.20218e-06
2.66874e-06 -3.20218e-06 -3.72028e-05
0.00248365 1.7178e-05 2.63335e-07
1.7178e-05 0.000735391 4.30176e-08
2.63335e-07 4.30176e-08 0.000755126
0.00245892 1.485e-05 8.65628e-06
1.485e-05 0.000719791 -4.00944e-06
8.65628e-06 -4.00944e-06 0.000740193
0.00104583 1.76269e-05 -8.13806e-07
1.76269e-05 3.102e-05 -4.07774e-07
-8.13806e-07 -4.07774e-07 -3.41612e-05
0.00106244 3.6317e-06 -1.08197e-06
3.6317e-06 3.75345e-05 -1.01431e-06
-1.08197e-06 -1.01431e-06 -1.73502e-05
0.00107171 2.04533e-05 -1.77713e-08
2.04533e-05 4.37281e-05 4.98239e-08
-1.77713e-08 4.98239e-08 -2.201e-05
0.00098381 -6.9606e-06 -1.59315e-06
-6.9606e-06 -6.3879e-10 -1.93207e-06
-1.59315e-06 -1.93207e-06 -3.49799e-05
0.00105801 6.89167e-06 -1.56445e-08
6.89167e-06 3.58713e-05 3.89737e-09
-1.56445e-08 3.89737e-09 -1.861e-05
0.000942052 -1.00624e-05 -2.20463e-06
-1.00624e-05 -2.64618e-05 -3.22409e-06
-2.20463e-06 -3.22409e-06 -3.08085e-05
0.000993918 -6.92096e-06 -1.70561e-07
-6.92096e-06 3.77332e-06 6.84149e-09
-1.70561e-07 6.84149e-09 -2.98603e-05
0.00106612 9.28072e-06 7.39489e-07
9.28072e-06 4.15385e-05 1.34339e-06
7.39489e-07 1.34339e-06 -1.2121e-05
0.00239852 -1.25356e-05 -7.54606e-06
-1.25356e-05 0.000686557 -4.04582e-06
-7.54606e-06 -4.04582e-06 0.000708032
0.00093763 -8.81609e-06 -1.0132e-07
-8.81609e-06 -3.23195e-05 -1.34875e-08
-1.0132e-07 -1.34875e-08 -3.4967e-05
0.00100418 -6.64307e-06 7.88957e-07
-6.64307e-06 7.15313e-06 1.9049e-06
7.88957e-07 1.9049e-06 -2.45372e-05
0.00235449 -1.00635e-05 -4.12507e-07
-1.00635e-05 0.000660527 2.62408e-08
-4.12507e-07 2.62408e-08 0.00068321
0.000929252 -7.28718e-06 1.21618e-06
-7.28718e-06 -4.01143e-05 3.21292e-06
1.21618e-06 3.21292e-06 -4.09679e-05
0.00232684 -7.45023e-06 4.45759e-06
-7.45023e-06 0.000643394 4.00694e-06
4.45759e-06 4.00694e-06 0.000667023
0.000522614 -6.77367e-06 -1.27971e-05
-6.77367e-06 4.18371e-05 -3.58668e-06
-1.27971e-05 -3.58668e-06 -4.52429e-05
0.000726916 7.04428e-06 -2.29701e-07
7.04428e-06 7.06071e-05 -1.27835e-06
-2.29701e-07 -1.27835e-06 -1.85091e-05
0.000751326 -5.78551e-06 -1.02544e-06
-5.78551e-06 3.73262e-05 -2.36517e-07
-1.02544e-06 -2.36517e-07 -3.86481e-05
0.00113529 2.39483e-05 -3.43859e-07
2.39483e-05 7.42742e-05 2.68815e-07
-3.43859e-07 2.68815e-07 6.53005e-06
0.00109848 2.20109e-05 6.91339e-07
2.20109e-05 5.82171e-05 5.50638e-07
6.91339e-07 5.50638e-07 -8.03125e-06
0.00107688 2.65572e-05 6.52568e-07
2.65572e-05 4.52909e-05 2.16277e-07
6.52568e-07 2.16277e-07 -2.53495e-05
0.0011327 2.76473e-05 -2.03599e-07
2.76473e-05 7.38907e-05 -1.74043e-07
-2.03599e-07 -1.74043e-07 2.1381e-06
0.00113786 2.46883e-05 -2.13309e-07
2.46883e-05 7.56346e-05 -1.43861e-07
-2.13309e-07 -1.43861e-07 6.68938e-06
0.00113706 2.79519e-05 3.05032e-07
2.79519e-05 7.41753e-05 1.94026e-07
3.05032e-07 1.94026e-07 1.80272e-06
0.00111253 2.82385e-05 -4.8997e-07
2.82385e-05 6.21666e-05 -1.46972e-07
-4.8997e-07 -1.46972e-07 -1.03526e-05
0.00107886 2.77027e-05 -4.01041e-07
2.77027e-05 4.89296e-05 -2.24049e-08
-4.01041e-07 -2.24049e-08 -2.61467e-05
0.00114182 2.78224e-05 4.47317e-07
2.78224e-05 8.20281e-05 1.78748e-07
4.47317e-07 1.78748e-07 7.0457e-06
0.0010741 2.6452e-05 7.09447e-07
2.6452e-05 5.39956e-05 2.17693e-07
7.09447e-07 2.17693e-07 -2.57152e-05
0.00116156 2.84877e-05 -1.52328e-07
2.84877e-05 9.39034e-05 -2.72588e-08
-1.52328e-07 -2.72588e-08 1.49838e-05
0.00140022 3.1966e-05 3.47724e-07
3.1966e-05 0.000204738 2.59866e-07
3.47724e-07 2.59866e-07 0.000126211
0.00207013 -3.65357e-05 -6.70995e-06
-3.65357e-05 0.000907152 -3.21518e-06
-6.70995e-06 -3.21518e-06 0.00095963
0.000598959 -7.11894e-06 -2.13463e-06
-7.11894e-06 6.07449e-05 -3.38897e-06
-2.13463e-06 -3.38897e-06 1.55872e-05
0.000645261 1.3835e-05 1.7397e-06
1.3835e-05 -1.4126e-05 2.81283e-06
1.7397e-06 2.81283e-06 -6.08919e-05
0.00186182 -3.13681e-05 1.28511e-05
-3.13681e-05 0.000675165 1.2489e-05
1.28511e-05 1.2489e-05 0.000759776
0.00115608 -0.000110655 3.88131e-06
-0.000110655 -0.000746599 -7.92209e-05
3.88131e-06 -7.92209e-05 -0.000683634
0.00350773 2.13896e-05 -2.65034e-06
2.13896e-05 -0.000188375 0.000104953
-2.65034e-06 0.000104953 -0.000714377
-7.54268e-05 -6.98483e-05 -3.62497e-05
-6.98483e-05 -5.18382e-05 3.72762e-05
-3.62497e-05 3.72762e-05 -0.00015882
0.000790538 -1.1897e-05 -8.82747e-06
-1.1897e-05 0.000436422 -6.3737e-06
-8.82747e-06 -6.3737e-06 0.000224451
0.000708303 -5.55562e-05 2.88848e-06
-5.55562e-05 -2.5845e-05 4.91116e-07
2.88848e-06 4.91116e-07 0.000113186
0.00580671 -5.43812e-05 1.20165e-05
-5.43812e-05 0.000709302 4.55025e-05
1.20165e-05 4.55025e-05 0.000259149
-0.00101675 -0.000121445 -5.5313e-06
-0.000121445 -0.000894312 -1.26106e-05
-5.5313e-06 -1.26106e-05 -0.000895941
0.000900133 5.40044e-05 -3.22611e-05
5.40044e-05 0.000326092 -3.72973e-05
-3.22611e-05 -3.72973e-05 0.000178331
0.00529517 -0.000147581 9.55646e-06
-0.000147581 0.00123129 3.24867e-05
9.55646e-06 3.24867e-05 0.000620393
4.94371e-06 -0.000102694 3.83669e-05
-0.000102694 -0.000147621 2.22673e-05
3.83669e-05 2.22673e-05 -8.95342e-05
0.00115425 4.1869e-05 -2.67982e-06
4.1869e-05 0.000110031 4.18256e-07
-2.67982e-06 4.18256e-07 3.3635e-05
0.00117642 3.17705e-05 1.83138e-06
3.17705e-05 0.000107176 2.15877e-07
1.83138e-06 2.15877e-07 2.64236e-05
0.00120179 2.87697e-05 3.66196e-07
2.87697e-05 0.000119481 -2.51724e-07
3.66196e-07 -2.51724e-07 3.43268e-05
-0.00029684 -3.3996e-07 2.10037e-06
-3.3996e-07 -0.000184592 -2.47913e-06
2.10037e-06 -2.47913e-06 -0.000277763
0.000881785 -9.49828e-07 7.22445e-07
-9.49828e-07 8.74769e-07 2.2393e-06
7.22445e-07 2.2393e-06 -0.000145737
0.00118039 1.10592e-05 3.24842e-06
1.10592e-05 0.000125591 1.05376e-06
3.24842e-06 1.05376e-06 1.85201e-05
0.00123443 2.8883e-05 1.85488e-07
2.8883e-05 0.000169413 1.40395e-07
1.85488e-07 1.40395e-07 4.25351e-05
0.00057756 1.50857e-05 4.16917e-06
1.50857e-05 0.000162026 8.21747e-06
4.16917e-06 8.21747e-06 4.21453e-05
-0.000722937 5.23948e-05 -6.77019e-06
5.23948e-05 -0.000608831 1.07745e-05
-6.77019e-06 1.07745e-05 -0.000696167
0.0024989 -3.24167e-06 -1.1503e-05
-3.24167e-06 0.0012157 -4.50309e-07
-1.1503e-05 -4.50309e-07 0.00122
0.00072133 -1.26743e-06 -9.47767e-07
-1.26743e-06 0.00017328 -5.47754e-07
-9.47767e-07 -5.47754e-07 8.3816e-05
0.00033661 8.88571e-07 2.13107e-07
8.88571e-07 -0.000175549 -8.62402e-07
2.13107e-07 -8.62402e-07 -0.000276894
0.00108755 -3.9378e-06 -1.06926e-05
-3.9378e-06 0.000405646 1.96662e-05
-1.06926e-05 1.96662e-05 0.000255712
0.00149941 -4.31505e-05 6.83648e-07
-4.31505e-05 0.000507654 -3.36132e-05
6.83648e-07 -3.36132e-05 0.00026242
0.000829266 -4.45391e-06 1.08031e-05
-4.45391e-06 0.000208203 -2.51794e-06
1.08031e-05 -2.51794e-06 0.000138339
0.00132641 8.78164e-05 -2.67054e-05
8.78164e-05 -0.000214055 3.8951e-05
-2.67054e-05 3.8951e-05 -0.000922042
-0.000685938 0.000111368 -4.66782e-05
0.000111368 -0.000455001 2.73326e-05
-4.66782e-05 2.73326e-05 -0.000447964
0.000716678 3.43538e-05 1.22498e-05
3.43538e-05 2.15263e-05 -1.0359e-05
1.22498e-05 -1.0359e-05 9.30661e-05
0.00132236 -1.7137e-05 2.51464e-06
-1.7137e-05 0.000332651 9.92591e-07
2.51464e-06 9.92591e-07 0.0001981
0.000827746 1.04208e-05 -3.17463e-07
1.04208e-05 0.00017619 -7.77947e-07
-3.17463e-07 -7.77947e-07 0.000172333
-0.00156547 5.45629e-05 -1.16246e-05
5.45629e-05 -0.000738836 4.24741e-06
-1.16246e-05 4.24741e-06 -0.000758461
0.00224014 -7.09742e-05 -1.42796e-05
-7.09742e-05 0.000516719 3.45808e-05
-1.42796e-05 3.45808e-05 7.62061e-06
0.00441812 0.000127902 -4.57802e-06
0.000127902 0.00104922 7.04929e-06
-4.57802e-06 7.04929e-06 0.000463958
0.00191333 -4.23116e-05 1.49783e-05
-4.23116e-05 4.30009e-05 -7.62039e-06
1.49783e-05 -7.62039e-06 0.000103892
-0.00371821 2.38535e-05 3.3976e-05
2.38535e-05 -0.00196485 -1.20899e-05
3.3976e-05 -1.20899e-05 -0.00196589
0.00483927 8.3702e-05 1.83951e-05
8.3702e-05 0.00144282 -1.51561e-05
1.83951e-05 -1.51561e-05 0.000981842
0.00096129 -2.36221e-05 -2.66418e-05
-2.36221e-05 3.67459e-05 3.02019e-05
-2.66418e-05 3.02019e-05 -0.000422903
0.00103347 -2.90311e-05 -7.30692e-07
-2.90311e-05 0.000203852 -2.39933e-06
-7.30692e-07 -2.39933e-06 -1.51113e-05
0.0011753 -7.3272e-05 1.684e-07
-7.3272e-05 0.000206161 1.09939e-06
1.684e-07 1.09939e-06 3.56422e-06
0.00115532 -9.72986e-05 -5.23414e-06
-9.72986e-05 3.61522e-05 2.08768e-06
-5.23414e-06 2.08768e-06 -7.6234e-05
0.000973749 -4.92784e-05 -5.52187e-07
-4.92784e-05 7.50263e-05 -6.95217e-07
-5.52187e-07 -6.95217e-07 -7.54168e-05
0.00120992 -6.59295e-05 -1.52502e-06
-6.59295e-05 7.39169e-05 -1.58998e-06
-1.52502e-06 -1.58998e-06 -3.99477e-05
0.00181578 -6.41874e-05 -3.00628e-06
-6.41874e-05 0.000264565 -2.28132e-06
-3.00628e-06 -2.28132e-06 0.000206317
0.00101173 -4.78982e-05 8.1849e-07
-4.78982e-05 3.74387e-06 -1.91112e-06
8.1849e-07 -1.91112e-06 -0.000103914
0.00122984 -4.68537e-05 8.22796e-07
-4.68537e-05 6.39588e-05 -5.62924e-07
8.22796e-07 -5.62924e-07 -1.71791e-05
0.00141666 -3.86491e-05 -9.8092e-07
-3.86491e-05 0.000108665 -2.26594e-06
-9.8092e-07 -2.26594e-06 5.84686e-05
0.00111452 -3.99674e-05 1.41003e-06
-3.99674e-05 3.63422e-05 -6.6499e-07
1.41003e-06 -6.6499e-07 -5.00694e-05
0.00120967 -3.62858e-05 -3.80516e-08
-3.62858e-05 4.81031e-05 -4.63569e-07
-3.80516e-08 -4.63569e-07 -2.13595e-05
0.0012794 -3.05566e-05 -2.97689e-07
-3.05566e-05 4.74866e-05 -1.56937e-06
-2.97689e-07 -1.56937e-06 -3.28384e-06
0.0012628 -2.79144e-05 -4.28555e-07
-2.79144e-05 5.52594e-05 -6.75935e-07
-4.28555e-07 -6.75935e-07 1.57838e-06
0.00129449 -3.33802e-05 -9.81285e-07
-3.33802e-05 9.23872e-05 -2.67988e-07
-9.81285e-07 -2.67988e-07 2.59368e-05
0.00123172 -3.18929e-05 3.04651e-07
-3.18929e-05 5.13652e-05 3.49908e-07
3.04651e-07 3.49908e-07 -1.28974e-05
0.00102331 -3.09118e-05 -9.83079e-07
-3.09118e-05 -5.91844e-06 8.18711e-07
-9.83079e-07 8.18711e-07 -7.51001e-05
0.0012289 -3.51637e-05 4.70433e-07
-3.51637e-05 8.58619e-05 -3.31423e-07
4.70433e-07 -3.31423e-07 1.24357e-05
0.00114143 -3.50389e-05 1.03163e-06
-3.50389e-05 3.28916e-05 -4.48514e-07
1.03163e-06 -4.48514e-07 -4.26073e-05
0.00110058 -2.88332e-05 -4.44509e-07
-2.88332e-05 5.40648e-05 7.82413e-07
-4.44509e-07 7.82413e-07 -7.59465e-06
0.00107991 -3.15755e-05 1.04336e-07
-3.15755e-05 3.81576e-05 -8.89119e-08
1.04336e-07 -8.89119e-08 -3.06603e-05
0.0010305 -3.38312e-05 6.47458e-07
-3.38312e-05 8.36997e-06 -1.19009e-06
6.47458e-07 -1.19009e-06 -6.87081e-05
0.0010372 -7.44688e-06 -1.03479e-06
-7.44688e-06 3.61899e-05 6.71836e-07
-1.03479e-06 6.71836e-07 -1.77117e-05
0.00110442 -2.59881e-05 -9.83991e-08
-2.59881e-05 5.97615e-05 -1.27208e-07
-9.83991e-08 -1.27208e-07 -5.49033e-07
0.00108447 -3.05173e-05 1.93518e-07
-3.05173e-05 4.97703e-05 -1.00449e-06
1.93518e-07 -1.00449e-06 -1.46564e-05
0.000954219 1.52249e-05 -1.95529e-06
1.52249e-05 4.90852e-07 1.73854e-06
-1.95529e-06 1.73854e-06 -3.59326e-05
0.00103932 -1.6464e-06 1.05246e-07
-1.6464e-06 3.82387e-05 1.08673e-07
1.05246e-07 1.08673e-07 -1.51996e-05
0.00099801 -1.83265e-05 5.92524e-07
-1.83265e-05 1.66318e-05 -1.69875e-07
5.92524e-07 -1.69875e-07 -4.46887e-05
0.000879274 1.56016e-05 -3.49325e-06
1.56016e-05 -4.25465e-05 2.86242e-06
-3.49325e-06 2.86242e-06 -4.86409e-05
0.000976181 1.44411e-05 -4.55324e-08
1.44411e-05 5.63197e-06 -1.76996e-08
-4.55324e-08 -1.76996e-08 -2.90822e-05
0.00106334 -9.35212e-07 8.94566e-07
-9.35212e-07 4.67691e-05 -9.80082e-07
8.94566e-07 -9.80082e-07 -5.44991e-06
0.00242276 2.30929e-05 -4.39855e-06
2.30929e-05 0.000714308 1.49326e-06
-4.39855e-06 1.49326e-06 0.000732952
0.000892342 1.40202e-05 7.70785e-08
1.40202e-05 -4.11038e-05 4.54062e-08
7.70785e-08 4.54062e-08 -4.66331e-05
0.000992045 1.1375e-05 1.99403e-06
1.1375e-05 7.85716e-06 -1.71213e-06
1.99403e-06 -1.71213e-06 -2.62277e-05
0.00250142 1.95127e-05 1.95217e-07
1.95127e-05 0.000747844 4.75799e-08
1.95217e-07 4.75799e-08 0.000766921
0.000914883 1.25747e-05 3.05992e-06
1.25747e-05 -3.37721e-05 -3.07286e-06
3.05992e-06 -3.07286e-06 -3.91686e-05
0.00245995 1.71774e-05 9.4783e-06
1.71774e-05 0.000724108 -3.90787e-06
9.4783e-06 -3.90787e-06 0.000743897
0.00118544 1.63622e-05 -4.07269e-07
1.63622e-05 0.000101125 1.45553e-07
-4.07269e-07 1.45553e-07 3.74705e-05
0.00107873 1.64325e-05 -1.26326e-07
1.64325e-05 4.76409e-05 -1.01207e-07
-1.26326e-07 -1.01207e-07 -1.73396e-05
0.00106376 9.34183e-07 -1.15189e-06
9.34183e-07 3.97542e-05 -9.12127e-07
-1.15189e-06 -9.12127e-07 -1.55362e-05
0.000988151 -7.30616e-06 -1.88058e-06
-7.30616e-06 3.42272e-06 -1.86214e-06
-1.88058e-06 -1.86214e-06 -3.24604e-05
0.00105786 4.37548e-06 -4.70594e-08
4.37548e-06 3.57394e-05 2.56844e-08
-4.70594e-08 2.56844e-08 -1.9261e-05
0.00105374 1.92114e-05 6.5418e-07
1.92114e-05 3.5133e-05 4.59842e-07
6.5418e-07 4.59842e-07 -3.08347e-05
0.000926615 -1.11419e-05 -2.66509e-06
-1.11419e-05 -3.05986e-05 -3.18166e-06
-2.66509e-06 -3.18166e-06 -3.61352e-05
0.000988913 -5.34437e-06 -1.10553e-07
-5.34437e-06 2.14422e-06 5.57934e-09
-1.10553e-07 5.57934e-09 -3.27849e-05
0.00106146 7.30531e-06 9.11366e-07
7.30531e-06 3.78153e-05 1.2392e-06
9.11366e-07 1.2392e-06 -1.67812e-05
0.00244939 -1.4882e-05 -8.69548e-06
-1.4882e-05 0.00071571 -4.02343e-06
-8.69548e-06 -4.02343e-06 0.000736086
0.000925621 -1.00362e-05 -1.22261e-07
-1.00362e-05 -3.44139e-05 -2.44486e-09
-1.22261e-07 -2.44486e-09 -3.86699e-05
0.00100054 -5.80164e-06 1.0805e-06
-5.80164e-06 6.75974e-06 1.97311e-06
1.0805e-06 1.97311e-06 -2.6834e-05
0.0024032 -1.25312e-05 -3.68369e-07
-1.25312e-05 0.000688355 3.31494e-08
-3.68369e-07 3.31494e-08 0.000709957
0.00091878 -8.81226e-06 1.53942e-06
-8.81226e-06 -4.13632e-05 3.23364e-06
1.53942e-06 3.23364e-06 -4.3915e-05
0.00235945 -1.00165e-05 5.72461e-06
-1.00165e-05 0.000662481 3.98339e-06
5.72461e-06 3.98339e-06 0.000685283
0.000176651 -1.44727e-05 -6.89743e-06
-1.44727e-05 -0.000139354 -3.66632e-06
-6.89743e-06 -3.66632e-06 -0.000138879
0.000556598 -3.74736e-06 1.09942e-07
-3.74736e-06 6.48497e-05 -1.45885e-06
1.09942e-07 -1.45885e-06 -2.20007e-05
0.000624106 6.6788e-06 8.86315e-07
6.6788e-06 8.63827e-06 3.55951e-07
8.86315e-07 3.55951e-07 -8.0744e-05
0.00111507 2.37817e-05 1.16155e-07
2.37817e-05 6.3864e-05 1.19771e-07
1.16155e-07 1.19771e-07 -4.17388e-06
0.00118078 2.63319e-05 -3.24028e-07
2.63319e-05 9.89569e-05 2.91097e-07
-3.24028e-07 2.91097e-07 3.238e-05
0.00111834 2.89735e-05 -2.05709e-07
2.89735e-05 6.29363e-05 2.31386e-07
-2.05709e-07 2.31386e-07 -7.14881e-06
0.00120387 2.85331e-05 2.52127e-07
2.85331e-05 0.000109384 -1.07749e-07
2.52127e-07 -1.07749e-07 3.79497e-05
0.00120677 2.5942e-05 3.05266e-07
2.5942e-05 0.000109409 -1.54712e-08
3.05266e-07 -1.54712e-08 4.07432e-05
0.00109731 2.73348e-05 5.87707e-07
2.73348e-05 5.44182e-05 3.53948e-07
5.87707e-07 3.53948e-07 -1.76641e-05
0.00111617 2.81032e-05 -1.01586e-07
2.81032e-05 6.65727e-05 1.54372e-08
-1.01586e-07 1.54372e-08 -8.24103e-06
0.0011332 2.85014e-05 3.22718e-08
2.85014e-05 7.19365e-05 2.22766e-08
3.22718e-08 2.22766e-08 -2.92419e-07
0.0011222 2.94886e-05 -6.50322e-07
2.94886e-05 7.54855e-05 4.34112e-08
-6.50322e-07 4.34112e-08 -6.14323e-07
0.00122068 3.15083e-05 -4.77327e-07
3.15083e-05 0.000116549 1.21099e-06
-4.77327e-07 1.21099e-06 4.16582e-05
0.00111742 2.78956e-05 1.4591e-07
2.78956e-05 7.21964e-05 -2.58826e-07
1.4591e-07 -2.58826e-07 -6.67233e-06
0.00122488 2.98545e-05 4.37576e-08
2.98545e-05 0.000122468 -1.9058e-07
4.37576e-08 -1.9058e-07 4.39853e-05
-0.0028379 -6.12528e-05 4.31241e-05
-6.12528e-05 -0.00146279 1.50195e-05
4.31241e-05 1.50195e-05 -0.00148845
0.00105343 -3.55287e-05 2.65107e-07
-3.55287e-05 0.000322627 -2.25927e-07
2.65107e-07 -2.25927e-07 0.000371592
0.000692771 -6.43559e-06 1.30061e-05
-6.43559e-06 0.000121626 6.26935e-06
1.30061e-05 6.26935e-06 7.76773e-05
9.95854e-05 -5.46216e-05 1.93025e-06
-5.46216e-05 -0.000342381 -4.24464e-07
1.93025e-06 -4.24464e-07 -0.000227431
0.00405185 -0.00017187 -2.19154e-05
-0.00017187 0.00131593 -5.24023e-05
-2.19154e-05 -5.24023e-05 0.00127702
0.00233129 -6.93392e-05 2.22069e-05
-6.93392e-05 -0.000399127 3.08798e-05
2.22069e-05 3.08798e-05 -0.000705106
0.000138217 1.2373e-06 -2.99509e-08
1.2373e-06 -6.03559e-05 4.11551e-05
-2.99509e-08 4.11551e-05 -0.000542446
0.00118067 6.68425e-05 -1.47469e-05
6.68425e-05 0.000213368 -3.31286e-05
-1.47469e-05 -3.31286e-05 -0.000171284
0.00175274 -0.000138312 9.4149e-07
-0.000138312 0.000344721 -4.58155e-06
9.4149e-07 -4.58155e-06 0.000318551
0.00403776 -6.34904e-05 2.39791e-05
-6.34904e-05 0.000607347 4.17421e-05
2.39791e-05 4.17421e-05 4.99681e-05
0.000323663 8.58479e-05 -5.02497e-05
8.58479e-05 -0.00039959 -8.21508e-05
-5.02497e-05 -8.21508e-05 -0.000748294
0.0035066 -3.08596e-06 -7.35546e-07
-3.08596e-06 0.000457529 1.50565e-05
-7.35546e-07 1.50565e-05 -0.000103727
0.00204688 6.17761e-05 2.63648e-06
6.17761e-05 0.000571012 -1.18987e-06
2.63648e-06 -1.18987e-06 0.000478827
0.000989322 3.77613e-05 -1.09841e-07
3.77613e-05 2.70927e-05 -1.20175e-07
-1.09841e-07 -1.20175e-07 -4.80119e-05
0.00128286 3.20552e-05 2.57843e-06
3.20552e-05 0.000152624 -5.87196e-07
2.57843e-06 -5.87196e-07 7.25435e-05
0.000237065 1.22706e-05 -4.79004e-07
1.22706e-05 1.018e-05 -2.6246e-06
-4.79004e-07 -2.6246e-06 -0.000121148
0.00151237 3.12853e-05 3.16918e-06
3.12853e-05 0.000301571 4.10663e-07
3.16918e-06 4.10663e-07 0.000175861
0.000965367 6.83694e-05 2.88122e-06
6.83694e-05 0.000150724 2.60678e-06
2.88122e-06 2.60678e-06 6.87948e-05
-0.000731988 6.11157e-05 4.28546e-06
6.11157e-05 -0.000692053 4.4246e-06
4.28546e-06 4.4246e-06 -0.000754541
-0.00129162 3.07356e-06 5.72715e-05
3.07356e-06 -0.000676186 -2.42701e-06
5.72715e-05 -2.42701e-06 -0.000620888
0.000608829 -2.61048e-06 -6.47832e-06
-2.61048e-06 9.64882e-05 3.58271e-07
-6.47832e-06 3.58271e-07 8.3515e-05
-0.000610179 1.90632e-07 1.21977e-05
1.90632e-07 -0.000651131 -1.84762e-06
1.21977e-05 -1.84762e-06 -0.00075039
0.00161325 -6.84197e-06 -1.14751e-05
-6.84197e-06 0.000479481 9.24937e-06
-1.14751e-05 9.24937e-06 0.000342424
0.00027057 -4.64125e-05 -1.82138e-05
-4.64125e-05 0.000150665 3.59856e-06
-1.82138e-05 3.59856e-06 -0.000245762
0.000730947 8.73677e-06 8.79716e-06
8.73677e-06 0.00011061 -2.15724e-06
8.79716e-06 -2.15724e-06 0.00010635
0.00371806 7.41838e-05 3.93672e-05
7.41838e-05 0.00064651 -2.93251e-05
3.93672e-05 -2.93251e-05 7.41721e-07
0.00288435 5.73049e-05 -7.07691e-05
5.73049e-05 0.00132278 2.43864e-05
-7.07691e-05 2.43864e-05 0.00122543
0.0015955 -4.6891e-05 3.24978e-07
-4.6891e-05 8.85028e-05 8.65442e-08
3.24978e-07 8.65442e-08 4.94762e-05
-0.000342512 2.42586e-05 -2.14492e-05
2.42586e-05 -0.000242889 4.72475e-06
-2.14492e-05 4.72475e-06 -0.000295447
0.0023493 4.45846e-06 -8.815e-06
4.45846e-06 0.000220692 6.23862e-06
-8.815e-06 6.23862e-06 -0.000399585
5.91964e-05 1.2411e-05 3.96954e-06
1.2411e-05 1.99567e-05 2.00848e-06
3.96954e-06 2.00848e-06 -0.000306396
0.00164009 -4.50891e-05 1.08719e-05
-4.50891e-05 -0.000215615 -5.07207e-06
1.08719e-05 -5.07207e-06 -0.000120376
0.00509929 1.46717e-05 7.349e-06
1.46717e-05 0.00136159 -4.3583e-06
7.349e-06 -4.3583e-06 0.000890364
0.000999169 3.12512e-05 -4.98526e-06
3.12512e-05 0.000421969 -1.02983e-06
-4.98526e-06 -1.02983e-06 0.000163302
0.000384623 -6.01847e-05 2.02888e-06
-6.01847e-05 -0.000146289 -5.48888e-06
2.02888e-06 -5.48888e-06 -0.000367556
0.00111701 -9.48847e-05 -7.07923e-08
-9.48847e-05 3.09337e-05 -4.15605e-07
-7.07923e-08 -4.15605e-07 -8.24399e-05
0.00125261 -8.41932e-05 -1.28673e-05
-8.41932e-05 -8.03646e-05 4.82746e-06
-1.28673e-05 4.82746e-06 -0.00011361
0.00109981 -6.41521e-05 -1.46499e-07
-6.41521e-05 1.40189e-05 -1.43979e-06
-1.46499e-07 -1.43979e-06 -9.61038e-05
0.00133089 -5.93067e-05 -5.59121e-08
-5.93067e-05 2.91254e-05 5.72363e-07
-5.59121e-08 5.72363e-07 -2.67598e-05
0.00166356 -4.10823e-05 -1.30107e-06
-4.10823e-05 0.000144734 1.94491e-07
-1.30107e-06 1.94491e-07 0.000130931
0.000973706 -4.3231e-05 2.83811e-06
-4.3231e-05 -6.25177e-05 5.98969e-07
2.83811e-06 5.98969e-07 -0.000141632
0.00126138 -3.71388e-05 -5.69202e-08
-3.71388e-05 2.79539e-05 -1.09168e-08
-5.69202e-08 -1.09168e-08 -2.0857e-05
0.00133636 -2.85187e-05 6.37392e-07
-2.85187e-05 2.99858e-05 -6.52224e-07
6.37392e-07 -6.52224e-07 1.29995e-06
0.00109825 -3.47719e-05 1.18512e-06
-3.47719e-05 -9.22627e-06 5.27319e-07
1.18512e-06 5.27319e-07 -7.75159e-05
0.00123994 -3.01154e-05 2.14586e-07
-3.01154e-05 2.80132e-05 3.35081e-07
2.14586e-07 3.35081e-07 -2.26712e-05
0.00121122 -2.4557e-05 4.01684e-07
-2.4557e-05 6.73789e-06 -1.56179e-07
4.01684e-07 -1.56179e-07 -3.53548e-05
0.00132939 -2.43555e-05 -1.86269e-07
-2.43555e-05 8.32255e-05 -5.36851e-08
-1.86269e-07 -5.36851e-08 3.42166e-05
0.00126446 -2.74244e-05 -2.7226e-07
-2.74244e-05 5.53868e-05 8.61955e-07
-2.7226e-07 8.61955e-07 2.73165e-06
0.00126463 -2.85032e-05 -3.45681e-07
-2.85032e-05 6.75898e-05 -1.12624e-06
-3.45681e-07 -1.12624e-06 1.05994e-05
0.0012543 -3.11803e-05 -9.40362e-07
-3.11803e-05 8.26406e-05 2.40331e-08
-9.40362e-07 2.40331e-08 1.79915e-05
0.00129145 -3.31177e-05 3.8741e-07
-3.31177e-05 9.27592e-05 -5.57265e-08
3.8741e-07 -5.57265e-08 2.62749e-05
0.00119287 -3.072e-05 1.3162e-06
-3.072e-05 3.31367e-05 1.342e-06
1.3162e-06 1.342e-06 -3.02505e-05
0.000982602 -2.81192e-05 -1.15079e-06
-2.81192e-05 -1.68602e-05 1.16473e-06
-1.15079e-06 1.16473e-06 -8.04505e-05
0.00115841 -3.23061e-05 8.08715e-08
-3.23061e-05 6.01785e-05 -4.22207e-08
8.08715e-08 -4.22207e-08 -8.48707e-06
0.00125371 -3.51602e-05 1.42935e-06
-3.51602e-05 9.86565e-05 -1.01328e-06
1.42935e-06 -1.01328e-06 2.6023e-05
0.0010426 -1.3926e-05 -8.77216e-07
-1.3926e-05 3.63234e-05 7.23928e-07
-8.77216e-07 7.23928e-07 -1.8558e-05
0.00111697 -2.85921e-05 4.22515e-08
-2.85921e-05 6.14748e-05 -5.18764e-08
4.22515e-08 -5.18764e-08 -2.21718e-07
0.00097027 -3.03089e-05 5.31737e-07
-3.03089e-05 -1.26204e-05 -1.39394e-06
5.31737e-07 -1.39394e-06 -8.1627e-05
0.000955429 1.18312e-05 -2.16637e-06
1.18312e-05 4.51989e-06 1.6181e-06
-2.16637e-06 1.6181e-06 -3.39682e-05
0.00104887 -7.86291e-06 -3.31576e-08
-7.86291e-06 4.09045e-05 3.18895e-08
-3.31576e-08 3.18895e-08 -1.28932e-05
0.00112339 -2.55853e-05 4.97064e-07
-2.55853e-05 6.8418e-05 -5.71623e-07
4.97064e-07 -5.71623e-07 8.08108e-06
0.000865437 1.71356e-05 -3.68191e-06
1.71356e-05 -4.28801e-05 2.77753e-06
-3.68191e-06 2.77753e-06 -5.03392e-05
0.000970262 1.39619e-05 8.41943e-08
1.39619e-05 7.97306e-06 1.79647e-08
8.41943e-08 1.79647e-08 -2.84127e-05
0.00105059 -2.71394e-06 1.06503e-06
-2.71394e-06 4.28341e-05 -7.39866e-07
1.06503e-06 -7.39866e-07 -1.04733e-05
0.00249123 2.42251e-05 -1.08618e-05
2.42251e-05 0.000752614 3.50667e-06
-1.08618e-05 3.50667e-06 0.000770291
0.000896799 1.57067e-05 1.19212e-08
1.57067e-05 -3.39636e-05 2.38916e-08
1.19212e-08 2.38916e-08 -4.01483e-05
0.000995296 1.40443e-05 1.93332e-06
1.40443e-05 1.48787e-05 -1.74102e-06
1.93332e-06 -1.74102e-06 -1.98959e-05
0.00177879 1.99423e-05 3.90567e-06
1.99423e-05 0.000396655 -1.06677e-06
3.90567e-06 -1.06677e-06 0.000412241
0.000911354 1.41173e-05 3.39873e-06
1.41173e-05 -3.18205e-05 -2.92248e-06
3.39873e-06 -2.92248e-06 -3.74268e-05
0.00244577 1.94918e-05 1.00683e-05
1.94918e-05 0.00072124 -3.7634e-06
1.00683e-05 -3.7634e-06 0.000740481
0.00114562 1.45714e-05 -4.43142e-07
1.45714e-05 8.4028e-05 2.7778e-07
-4.43142e-07 2.7778e-07 2.11032e-05
0.0011029 1.36888e-05 2.03168e-07
1.36888e-05 6.03705e-05 3.11271e-07
2.03168e-07 3.11271e-07 -3.742e-06
0.001048 -1.63549e-06 -1.22856e-06
-1.63549e-06 3.52963e-05 -7.59848e-07
-1.22856e-06 -7.59848e-07 -2.04646e-05
0.00111088 1.52072e-05 4.58707e-07
1.52072e-05 6.38912e-05 1.70621e-07
4.58707e-07 1.70621e-07 -8.8615e-07
0.00105332 1.09733e-06 2.15402e-08
1.09733e-06 3.52368e-05 3.02223e-08
2.15402e-08 3.02223e-08 -2.01455e-05
0.000991311 -8.68481e-06 -2.09063e-06
-8.68481e-06 7.34617e-06 -1.76191e-06
-2.09063e-06 -1.76191e-06 -2.93422e-05
0.000915871 -1.23471e-05 -3.08317e-06
-1.23471e-05 -3.25978e-05 -3.10104e-06
-3.08317e-06 -3.10104e-06 -3.89612e-05
0.00098752 -6.02881e-06 -1.10405e-07
-6.02881e-06 2.70433e-06 1.4163e-08
-1.10405e-07 1.4163e-08 -3.31128e-05
0.00105382 4.77512e-06 1.02532e-06
4.77512e-06 3.421e-05 1.12862e-06
1.02532e-06 1.12862e-06 -2.08985e-05
0.00248004 -1.71721e-05 -9.61433e-06
-1.71721e-05 0.000734799 -3.94508e-06
-9.61433e-06 -3.94508e-06 0.000754271
0.000913647 -1.11045e-05 -1.14886e-07
-1.11045e-05 -3.69336e-05 1.49133e-08
-1.14886e-07 1.49133e-08 -4.23939e-05
0.000996691 -4.42229e-06 1.50772e-06
-4.42229e-06 5.60604e-06 1.96119e-06
1.50772e-06 1.96119e-06 -2.92884e-05
0.00245496 -1.48893e-05 -3.27205e-07
-1.48893e-05 0.000717984 3.93167e-08
-3.27205e-07 3.93167e-08 0.000738461
0.000909876 -1.00125e-05 1.9349e-06
-1.00125e-05 -4.20115e-05 3.25169e-06
1.9349e-06 3.25169e-06 -4.61803e-05
0.00240645 -1.25167e-05 6.91585e-06
-1.25167e-05 0.000689458 3.97511e-06
6.91585e-06 3.97511e-06 0.000711192
0.000457983 1.82157e-05 6.99743e-05
1.82157e-05 -9.50165e-05 6.68177e-06
6.99743e-05 6.68177e-06 -0.000220775
0.00142359 -1.69323e-05 -1.97787e-07
-1.69323e-05 0.00058913 -1.16263e-06
-1.97787e-07 -1.16263e-06 0.00059779
0.000564112 -8.50993e-07 1.16856e-05
-8.50993e-07 7.16224e-05 3.99587e-07
1.16856e-05 3.99587e-07 -1.49873e-05
0.00109227 2.3467e-05 7.59471e-07
2.3467e-05 5.21667e-05 3.93297e-08
7.59471e-07 3.93297e-08 -1.61497e-05
0.00110757 2.87336e-05 5.54434e-07
2.87336e-05 5.82558e-05 8.55203e-08
5.54434e-07 8.55203e-08 -1.18586e-05
0.00115525 2.64593e-05 6.80921e-08
2.64593e-05 8.75434e-05 2.32561e-08
6.80921e-08 2.32561e-08 2.11788e-05
0.00115186 2.88492e-05 -9.21512e-08
2.88492e-05 8.92795e-05 2.19348e-07
-9.21512e-08 2.19348e-07 2.30302e-05
0.00113824 2.96473e-05 -6.97797e-07
2.96473e-05 7.82443e-05 2.42022e-07
-6.97797e-07 2.42022e-07 8.4138e-06
0.00115402 2.85095e-05 3.37091e-07
2.85095e-05 8.44329e-05 5.2038e-08
3.37091e-07 5.2038e-08 9.88603e-06
0.00115059 2.87137e-05 6.57144e-07
2.87137e-05 8.0158e-05 5.64987e-08
6.57144e-07 5.64987e-08 8.22084e-06
0.00107521 2.89823e-05 -2.04399e-07
2.89823e-05 5.30124e-05 -6.53486e-08
-2.04399e-07 -6.53486e-08 -2.29744e-05
0.000864247 2.80304e-05 -4.12498e-07
2.80304e-05 -4.64352e-05 4.46058e-07
-4.12498e-07 4.46058e-07 -0.000118167
0.00102932 3.30663e-05 -6.55153e-07
3.30663e-05 3.33179e-05 8.76122e-07
-6.55153e-07 8.76122e-07 -4.4352e-05
0.00155888 4.60131e-05 4.42276e-08
4.60131e-05 0.000291847 -1.30915e-07
4.42276e-08 -1.30915e-07 0.000215858
0.00119175 3.17001e-05 -4.50528e-07
3.17001e-05 0.000106099 1.04856e-07
-4.50528e-07 1.04856e-07 2.96576e-05
0.00105481 2.78346e-05 2.78995e-07
2.78346e-05 4.28512e-05 -2.89359e-07
2.78995e-07 -2.89359e-07 -3.56091e-05
0.00675478 -1.60696e-05 -1.48393e-05
-1.60696e-05 0.00170439 -3.89982e-06
-1.48393e-05 -3.89982e-06 0.00121901
2.17596e-05 -7.17277e-05 1.00462e-05
-7.17277e-05 -0.00026536 2.75003e-06
1.00462e-05 2.75003e-06 -0.000336496
0.0020102 -3.57675e-05 2.65087e-06
-3.57675e-05 0.000873156 4.28816e-06
2.65087e-06 4.28816e-06 0.000924903
-0.00181632 -0.00010017 -2.96587e-05
-0.00010017 -0.00121332 -3.27389e-05
-2.96587e-05 -3.27389e-05 -0.00116126
0.00635336 -0.000128815 4.01222e-05
-0.000128815 0.00140935 5.2969e-05
4.01222e-05 5.2969e-05 0.000603406
0.00109908 4.71496e-05 1.30339e-05
4.71496e-05 0.000458423 -5.5076e-06
1.30339e-05 -5.5076e-06 0.000291906
0.00125439 8.66192e-05 -1.9805e-05
8.66192e-05 0.00016062 -2.31792e-05
-1.9805e-05 -2.31792e-05 -7.2015e-05
0.0043173 -8.83156e-05 1.12494e-05
-8.83156e-05 0.000933142 1.43162e-05
1.12494e-05 1.43162e-05 0.000466907
0.00101888 5.49269e-05 -4.51358e-05
5.49269e-05 -4.74954e-05 -3.71667e-05
-4.51358e-05 -3.71667e-05 -0.000267087
0.00168288 6.75855e-05 1.16403e-05
6.75855e-05 0.000313241 -3.2057e-07
1.16403e-05 -3.2057e-07 0.000200668
0.0011764 5.24448e-05 -1.88195e-06
5.24448e-05 0.000163321 -2.21301e-06
-1.88195e-06 -2.21301e-06 6.53975e-05
0.000796233 3.31853e-05 2.18101e-06
3.31853e-05 -6.94009e-05 -4.58945e-07
2.18101e-06 -4.58945e-07 -0.000143171
0.00226488 8.13067e-05 -7.35699e-06
8.13067e-05 0.000738687 -9.03056e-06
-7.35699e-06 -9.03056e-06 0.000662286
1.18328e-05 7.40713e-05 -3.55235e-06
7.40713e-05 -0.000460492 -1.73259e-06
-3.55235e-06 -1.73259e-06 -0.000499319
0.00145431 6.11831e-05 -1.31398e-05
6.11831e-05 -0.000325877 -1.59568e-06
-1.31398e-05 -1.59568e-06 -0.000618944
0.00153776 1.28444e-05 3.33297e-07
1.28444e-05 0.000407807 3.51779e-06
3.33297e-07 3.51779e-06 0.00034749
-0.00124051 -2.22434e-06 1.16888e-06
-2.22434e-06 -0.000997728 3.95189e-07
1.16888e-06 3.95189e-07 -0.00102659
0.00149645 -5.46902e-05 -1.61887e-05
-5.46902e-05 0.000234582 4.18711e-06
-1.61887e-05 4.18711e-06 8.90811e-05
0.00197114 -1.71672e-05 2.59357e-05
-1.71672e-05 0.000622485 -2.09562e-05
2.59357e-05 -2.09562e-05 9.14098e-05
0.000543212 4.00577e-06 -8.79382e-05
4.00577e-06 -4.13758e-05 1.62594e-05
-8.79382e-05 1.62594e-05 -0.000165637
0.00502173 8.00145e-05 -9.13501e-07
8.00145e-05 0.00161987 4.3542e-06
-9.13501e-07 4.3542e-06 0.00105201
0.00187771 -4.50731e-05 1.3751e-06
-4.50731e-05 -0.000100732 -7.74507e-07
1.3751e-06 -7.74507e-07 -4.2375e-06
0.00350609 4.14217e-05 1.54951e-05
4.14217e-05 0.00080023 4.47677e-07
1.54951e-05 4.47677e-07 0.000385389
0.00159143 1.4951e-05 2.42363e-05
1.4951e-05 0.000361676 -9.27667e-06
2.42363e-05 -9.27667e-06 -4.27833e-05
0.00229803 -2.22382e-05 -1.29345e-06
-2.22382e-05 6.92577e-06 -7.3683e-06
-1.29345e-06 -7.3683e-06 0.000154369
0.00102822 4.12929e-05 -1.83207e-05
4.12929e-05 0.00037563 1.18564e-05
-1.83207e-05 1.18564e-05 0.000227124
0.00122645 -9.34094e-05 7.79627e-06
-9.34094e-05 9.44149e-05 -4.41467e-06
7.79627e-06 -4.41467e-06 -1.89067e-05
0.00144191 -8.29976e-05 -2.39143e-06
-8.29976e-05 5.35985e-06 1.2944e-06
-2.39143e-06 1.2944e-06 -1.83445e-05
0.00170215 -3.78067e-05 -3.54683e-06
-3.78067e-05 7.11569e-05 2.12475e-06
-3.54683e-06 2.12475e-06 8.58504e-05
0.00076611 -5.35823e-05 5.13258e-06
-5.35823e-05 -0.00024482 1.77899e-06
5.13258e-06 1.77899e-06 -0.000297191
0.0012975 -3.90424e-05 7.47177e-07
-3.90424e-05 -2.74143e-05 1.06192e-06
7.47177e-07 1.06192e-06 -3.95655e-05
0.00132343 -2.06814e-05 1.57141e-06
-2.06814e-05 -2.23336e-05 1.8656e-06
1.57141e-06 1.8656e-06 -2.85085e-05
0.00109006 -3.56817e-05 1.56976e-06
-3.56817e-05 -6.17499e-05 1.86324e-06
1.56976e-06 1.86324e-06 -0.000108927
0.00128948 -2.84187e-05 3.69961e-07
-2.84187e-05 9.03848e-06 1.22896e-06
3.69961e-07 1.22896e-06 -2.0532e-05
0.00126763 -1.92999e-05 1.4515e-06
-1.92999e-05 6.88749e-06 1.23766e-06
1.4515e-06 1.23766e-06 -2.4908e-05
0.00121802 -2.98146e-05 1.1782e-06
-2.98146e-05 1.68269e-05 1.94361e-06
1.1782e-06 1.94361e-06 -3.37951e-05
0.00127317 -2.54297e-05 1.40124e-07
-2.54297e-05 3.67901e-05 7.11237e-07
1.40124e-07 7.11237e-07 -6.07103e-06
0.00125464 -2.08105e-05 2.43304e-07
-2.08105e-05 3.39797e-05 4.67806e-07
2.43304e-07 4.67806e-07 -1.13084e-05
0.00125073 -2.42852e-05 -6.76004e-07
-2.42852e-05 4.65747e-05 5.25229e-07
-6.76004e-07 5.25229e-07 -1.49707e-06
0.00133067 -2.5205e-05 3.71945e-07
-2.5205e-05 9.18382e-05 -5.12073e-07
3.71945e-07 -5.12073e-07 3.83238e-05
0.00126656 -2.69638e-05 6.75775e-07
-2.69638e-05 5.56298e-05 1.8454e-06
6.75775e-07 1.8454e-06 4.01315e-06
0.0012728 -2.84253e-05 3.57877e-08
-2.84253e-05 7.06818e-05 -2.72806e-07
3.57877e-08 -2.72806e-07 1.36173e-05
0.00126682 -2.77969e-05 -3.65729e-07
-2.77969e-05 7.49838e-05 -3.90777e-07
-3.65729e-07 -3.90777e-07 1.56247e-05
0.00105284 -2.72724e-05 -1.19569e-06
-2.72724e-05 -2.54372e-06 6.08231e-07
-1.19569e-06 6.08231e-07 -6.49178e-05
0.00124842 -3.1147e-05 3.51641e-08
-3.1147e-05 8.04595e-05 -1.34349e-07
3.51641e-08 -1.34349e-07 1.55249e-05
0.00129868 -3.29789e-05 1.18772e-06
-3.29789e-05 9.81742e-05 2.0967e-07
1.18772e-06 2.0967e-07 3.16262e-05
0.00107314 -1.9455e-05 -9.89003e-07
-1.9455e-05 4.22673e-05 9.22796e-07
-9.89003e-07 9.22796e-07 -1.4135e-05
0.00105063 -2.88578e-05 -2.32406e-07
-2.88578e-05 1.74523e-05 2.57581e-07
-2.32406e-07 2.57581e-07 -4.59071e-05
0.00127373 -3.34425e-05 8.78992e-07
-3.34425e-05 0.000117088 -9.25904e-07
8.78992e-07 -9.25904e-07 4.89324e-05
0.000952008 8.61671e-06 -2.2091e-06
8.61671e-06 5.95752e-06 1.53154e-06
-2.2091e-06 1.53154e-06 -3.52177e-05
0.00105956 -1.40068e-05 -4.70371e-08
-1.40068e-05 4.36734e-05 -5.58767e-09
-4.70371e-08 -5.58767e-09 -1.11659e-05
0.00113485 -2.83494e-05 5.48469e-07
-2.83494e-05 6.95987e-05 -9.00639e-07
5.48469e-07 -9.00639e-07 7.86417e-06
0.000846611 1.82543e-05 -3.95846e-06
1.82543e-05 -4.54017e-05 2.68038e-06
-3.95846e-06 2.68038e-06 -5.47964e-05
0.000968769 1.1026e-05 5.68734e-08
1.1026e-05 1.00899e-05 9.59291e-09
5.68734e-08 9.59291e-09 -2.82697e-05
0.00105864 -8.39466e-06 1.07484e-06
-8.39466e-06 4.47142e-05 -7.02666e-07
1.07484e-06 -7.02666e-07 -8.97051e-06
0.00248375 2.65798e-05 -1.10307e-05
2.65798e-05 0.000755772 3.32797e-06
-1.10307e-05 3.32797e-06 0.000772362
0.000888059 1.72327e-05 4.31872e-08
1.72327e-05 -3.19054e-05 1.76909e-08
4.31872e-08 1.76909e-08 -3.94881e-05
0.000986522 1.3619e-05 2.1049e-06
1.3619e-05 1.56234e-05 -1.61742e-06
2.1049e-06 -1.61742e-06 -2.07578e-05
0.00243766 2.41681e-05 1.49551e-07
2.41681e-05 0.000727269 5.3996e-08
1.49551e-07 5.3996e-08 0.000745032
0.000914164 1.58048e-05 3.618e-06
1.58048e-05 -2.54842e-05 -2.82873e-06
3.618e-06 -2.82873e-06 -3.17549e-05
0.00241289 2.18015e-05 1.04181e-05
2.18015e-05 0.000709965 -3.58251e-06
1.04181e-05 -3.58251e-06 0.000728647
0.00106812 1.84663e-05 -4.36354e-07
1.84663e-05 4.97787e-05 5.67175e-08
-4.36354e-07 5.67175e-08 -1.40093e-05
0.00113293 1.50396e-05 1.32308e-07
1.50396e-05 7.85092e-05 1.34354e-07
1.32308e-07 1.34354e-07 1.55611e-05
0.000935617 -3.94896e-06 -1.41014e-06
-3.94896e-06 -1.5293e-05 -7.44289e-07
-1.41014e-06 -7.44289e-07 -7.22855e-05
0.00102051 1.12516e-05 8.93254e-07
1.12516e-05 1.96957e-05 4.19837e-07
8.93254e-07 4.19837e-07 -4.4881e-05
0.000991051 -2.59363e-06 7.29466e-09
-2.59363e-06 7.94683e-06 7.3679e-08
7.29466e-09 7.3679e-08 -4.83187e-05
0.000988927 -1.03688e-05 -2.18068e-06
-1.03688e-05 1.02454e-05 -1.6188e-06
-2.18068e-06 -1.6188e-06 -2.75138e-05
0.00104257 1.2284e-06 1.19255e-06
1.2284e-06 3.05788e-05 9.9028e-07
1.19255e-06 9.9028e-07 -2.48977e-05
0.000983825 -7.98551e-06 -5.42228e-08
-7.98551e-06 3.40071e-06 2.35666e-08
-5.42228e-08 2.35666e-08 -3.32273e-05
0.000909201 -1.3773e-05 -3.43747e-06
-1.3773e-05 -3.22639e-05 -2.98376e-06
-3.43747e-06 -2.98376e-06 -3.93796e-05
0.0024867 -1.9465e-05 -1.02582e-05
-1.9465e-05 0.000742149 -3.82444e-06
-1.02582e-05 -3.82444e-06 0.000760883
0.000904119 -1.22764e-05 -9.60524e-08
-1.22764e-05 -3.84901e-05 2.8077e-08
-9.60524e-08 2.8077e-08 -4.47663e-05
0.000986201 -5.41757e-06 1.8264e-06
-5.41757e-06 1.65255e-06 1.9222e-06
1.8264e-06 1.9222e-06 -3.40998e-05
0.00249828 -1.71832e-05 -2.65361e-07
-1.71832e-05 0.000743387 4.57797e-08
-2.65361e-07 4.57797e-08 0.000762863
0.000900938 -1.10676e-05 2.39478e-06
-1.10676e-05 -4.31346e-05 3.2258e-06
2.39478e-06 3.2258e-06 -4.85212e-05
0.0024631 -1.49077e-05 8.09296e-06
-1.49077e-05 0.000721529 3.97348e-06
8.09296e-06 3.97348e-06 0.000742095
0.00534736 3.83975e-05 4.74946e-06
3.83975e-05 0.00153147 1.3913e-06
4.74946e-06 1.3913e-06 0.00117904
-0.00092409 -2.06642e-06 1.39135e-05
-2.06642e-06 -0.000408004 8.4242e-07
1.39135e-05 8.4242e-07 -0.000410519
0.000606701 -1.46208e-05 7.29539e-06
-1.46208e-05 0.000125917 1.62913e-06
7.29539e-06 1.62913e-06 0.000127439
0.00110262 2.8573e-05 1.07876e-06
2.8573e-05 5.64014e-05 -1.74651e-07
1.07876e-06 -1.74651e-07 -1.37553e-05
0.00113401 2.66309e-05 4.80613e-07
2.66309e-05 7.8154e-05 -1.19401e-07
4.80613e-07 -1.19401e-07 1.19989e-05
0.00116703 3.0041e-05 -1.94513e-09
3.0041e-05 9.2228e-05 2.18983e-09
-1.94513e-09 2.18983e-09 2.25205e-05
0.00114815 2.91327e-05 -2.56378e-08
2.91327e-05 8.75217e-05 -6.9368e-08
-2.56378e-08 -6.9368e-08 2.13218e-05
0.00115489 2.9767e-05 6.17718e-07
2.9767e-05 9.60042e-05 4.60912e-07
6.17718e-07 4.60912e-07 2.87733e-05
0.00102437 2.91231e-05 -6.31604e-07
2.91231e-05 2.97522e-05 4.59266e-07
-6.31604e-07 4.59266e-07 -3.91126e-05
0.00101788 2.83356e-05 4.75397e-07
2.83356e-05 2.55753e-05 -1.04314e-07
4.75397e-07 -1.04314e-07 -5.02833e-05
0.000997881 2.94135e-05 5.17203e-07
2.94135e-05 1.74325e-05 -1.47262e-07
5.17203e-07 -1.47262e-07 -5.45084e-05
0.00102019 3.30526e-05 5.42119e-07
3.30526e-05 3.39341e-05 1.93044e-08
5.42119e-07 1.93044e-08 -4.37443e-05
0.000828897 3.24812e-05 -6.97227e-08
3.24812e-05 -6.36322e-05 1.42512e-07
-6.97227e-08 1.42512e-07 -0.0001352
0.00209076 5.13921e-05 4.74303e-07
5.13921e-05 0.000523127 6.62524e-07
4.74303e-07 6.62524e-07 0.000448601
0.00148181 5.89834e-05 3.16822e-07
5.89834e-05 0.000191583 -2.86798e-06
3.16822e-07 -2.86798e-06 9.38525e-05
0.0011723 4.11257e-05 -3.43014e-09
4.11257e-05 0.000101257 3.28943e-07
-3.43014e-09 3.28943e-07 2.5291e-05
0.00113222 3.1564e-05 -2.67552e-07
3.1564e-05 8.08933e-05 -1.63995e-06
-2.67552e-07 -1.63995e-06 2.95378e-06
0.000454509 -9.45225e-06 -2.78333e-05
-9.45225e-06 -7.2535e-06 -1.02617e-05
-2.78333e-05 -1.02617e-05 -7.98748e-05
0.00321127 -2.00548e-05 -1.97048e-05
-2.00548e-05 0.000472539 -2.68041e-06
-1.97048e-05 -2.68041e-06 9.96687e-05
0.00195596 -8.49229e-05 -2.12664e-05
-8.49229e-05 0.000774917 -7.89748e-06
-2.12664e-05 -7.89748e-06 0.000690027
0.00345657 -3.00554e-05 4.2144e-05
-3.00554e-05 0.000360844 9.04979e-06
4.2144e-05 9.04979e-06 -0.000194616
0.00212238 8.71041e-05 1.83602e-05
8.71041e-05 0.000727249 2.92708e-05
1.83602e-05 2.92708e-05 0.000598155
0.000706254 4.30351e-05 -8.0887e-06
4.30351e-05 -1.84577e-05 -2.51057e-06
-8.0887e-06 -2.51057e-06 -0.000117311
0.00143453 1.88356e-05 1.8135e-05
1.88356e-05 -1.74903e-06 6.71818e-06
1.8135e-05 6.71818e-06 -7.96546e-05
0.000701245 6.35093e-05 6.76559e-07
6.35093e-05 -0.000163329 2.53091e-06
6.76559e-07 2.53091e-06 -0.000275592
0.000276486 4.26193e-05 5.4042e-07
4.26193e-05 -0.000257907 5.10497e-07
5.4042e-07 5.10497e-07 -0.000361412
0.00110883 9.03194e-05 -1.92648e-05
9.03194e-05 -6.58554e-05 -2.05275e-05
-1.92648e-05 -2.05275e-05 -8.25914e-05
0.0011875 2.01344e-05 -8.67945e-05
2.01344e-05 0.000112245 -5.83847e-06
-8.67945e-05 -5.83847e-06 -7.82339e-05
0.00496721 5.00253e-05 1.78737e-05
5.00253e-05 0.00146057 -1.27211e-06
1.78737e-05 -1.27211e-06 0.00113686
-0.00351822 7.90201e-07 -5.75139e-05
7.90201e-07 -0.00195843 2.89629e-06
-5.75139e-05 2.89629e-06 -0.00191597
0.00213189 -4.38929e-05 -5.83107e-06
-4.38929e-05 2.56806e-05 4.4431e-06
-5.83107e-06 4.4431e-06 0.000121498
0.000397254 4.22129e-05 2.27602e-05
4.22129e-05 0.000166811 -1.06012e-05
2.27602e-05 -1.06012e-05 -0.000133607
0.000679106 -2.91796e-05 1.94806e-05
-2.91796e-05 -0.000210711 4.24024e-07
1.94806e-05 4.24024e-07 -0.000558231
0.00184824 -3.25257e-05 -2.8344e-06
-3.25257e-05 -0.000171371 1.93121e-06
-2.8344e-06 1.93121e-06 -4.59664e-05
0.000978262 5.76037e-05 4.58367e-06
5.76037e-05 0.000159118 -2.86388e-06
4.58367e-06 -2.86388e-06 3.70456e-06
0.00200401 1.67312e-05 5.82657e-06
1.67312e-05 4.47628e-05 -9.94727e-06
5.82657e-06 -9.94727e-06 0.000130024
0.00083531 4.98202e-05 3.08545e-06
4.98202e-05 -7.01753e-05 -3.88857e-06
3.08545e-06 -3.88857e-06 -0.000126733
0.00150098 -8.08026e-05 6.44816e-06
-8.08026e-05 3.07824e-05 -3.37459e-07
6.44816e-06 -3.37459e-07 1.60646e-05
0.00150697 -3.63688e-05 2.6108e-06
-3.63688e-05 -2.10289e-05 -2.56038e-07
2.6108e-06 -2.56038e-07 -1.3387e-06
0.00159761 5.7557e-06 9.25774e-07
5.7557e-06 8.50583e-05 2.15378e-06
9.25774e-07 2.15378e-06 8.41582e-05
0.00101162 -3.78864e-05 3.88519e-06
-3.78864e-05 -0.000160069 1.33278e-06
3.88519e-06 1.33278e-06 -0.000172072
0.00142416 -2.14209e-05 1.15194e-06
-2.14209e-05 3.344e-05 6.63216e-07
1.15194e-06 6.63216e-07 2.42746e-05
0.00134287 -5.50024e-06 1.17425e-06
-5.50024e-06 2.06982e-05 1.50848e-06
1.17425e-06 1.50848e-06 -1.08676e-05
0.00124624 -2.82511e-05 1.15962e-06
-2.82511e-05 -8.89294e-06 2.00249e-06
1.15962e-06 2.00249e-06 -3.95622e-05
0.00131783 -1.97856e-05 1.89236e-07
-1.97856e-05 3.49556e-05 5.23322e-07
1.89236e-07 5.23322e-07 1.7233e-06
0.00134893 -1.31651e-05 2.57524e-07
-1.31651e-05 5.95566e-05 8.81481e-07
2.57524e-07 8.81481e-07 1.35701e-05
0.00133429 -2.62621e-05 4.19042e-08
-2.62621e-05 6.66473e-05 1.18851e-06
4.19042e-08 1.18851e-06 2.29899e-05
0.00125912 -2.1823e-05 -2.7243e-07
-2.1823e-05 3.97866e-05 -4.49338e-09
-2.7243e-07 -4.49338e-09 -5.85228e-06
0.00125917 -2.18086e-05 6.95249e-07
-2.18086e-05 5.00218e-05 4.20446e-07
6.95249e-07 4.20446e-07 -4.0464e-06
0.00118728 -2.4282e-05 -4.94164e-07
-2.4282e-05 1.73126e-05 8.11907e-07
-4.94164e-07 8.11907e-07 -2.98621e-05
0.00125634 -2.43099e-05 -4.01772e-07
-2.43099e-05 5.598e-05 -3.04332e-07
-4.01772e-07 -3.04332e-07 3.30206e-06
0.00131676 -2.53773e-05 3.47154e-08
-2.53773e-05 9.21214e-05 -1.86213e-07
3.47154e-08 -1.86213e-07 3.45139e-05
0.00128185 -2.83434e-05 4.98403e-07
-2.83434e-05 7.41824e-05 6.20629e-07
4.98403e-07 6.20629e-07 1.70439e-05
0.00126299 -2.77008e-05 8.86834e-08
-2.77008e-05 7.29514e-05 -2.19989e-07
8.86834e-08 -2.19989e-07 1.34505e-05
0.00125469 -2.62454e-05 -5.7979e-07
-2.62454e-05 8.06246e-05 5.61575e-08
-5.7979e-07 5.61575e-08 2.1493e-05
0.000953987 -1.98327e-05 -1.57422e-06
-1.98327e-05 -3.13755e-05 9.63112e-07
-1.57422e-06 9.63112e-07 -8.87742e-05
0.00112232 -2.80924e-05 -2.09386e-07
-2.80924e-05 3.26216e-05 1.056e-07
-2.09386e-07 1.056e-07 -2.95858e-05
0.00124175 -3.11089e-05 9.22931e-07
-3.11089e-05 7.78695e-05 -3.96483e-07
9.22931e-07 -3.96483e-07 1.2655e-05
0.000965796 3.68555e-06 -2.15942e-06
3.68555e-06 1.28742e-05 1.57528e-06
-2.15942e-06 1.57528e-06 -3.16237e-05
0.00107449 -1.85849e-05 2.05118e-08
-1.85849e-05 4.30514e-05 6.79205e-08
2.05118e-08 6.79205e-08 -1.33279e-05
0.00112721 -2.9709e-05 5.1233e-07
-2.9709e-05 5.57577e-05 -6.18094e-07
5.1233e-07 -6.18094e-07 -7.37128e-06
0.000818389 1.9087e-05 -4.22462e-06
1.9087e-05 -5.17917e-05 2.56074e-06
-4.22462e-06 2.56074e-06 -6.35859e-05
0.000970815 7.00992e-06 7.64729e-09
7.00992e-06 1.3326e-05 -2.60859e-08
7.64729e-09 -2.60859e-08 -2.76678e-05
0.0010764 -1.40025e-05 9.99102e-07
-1.40025e-05 5.09769e-05 -8.73682e-07
9.99102e-07 -8.73682e-07 -3.82664e-06
0.00250835 2.88489e-05 -1.13378e-05
2.88489e-05 0.000775462 3.17431e-06
-1.13378e-05 3.17431e-06 0.000790569
0.000873624 1.83699e-05 6.42556e-08
1.83699e-05 -3.23095e-05 2.93059e-08
6.42556e-08 2.93059e-08 -4.18488e-05
0.000981582 1.01724e-05 2.20824e-06
1.01724e-05 1.5441e-05 -1.47142e-06
2.20824e-06 -1.47142e-06 -2.27902e-05
0.00243549 2.64606e-05 1.57371e-07
2.64606e-05 0.000733219 6.00683e-08
1.57371e-07 6.00683e-08 0.000749798
0.000911133 1.73334e-05 3.86203e-06
1.73334e-05 -2.07177e-05 -2.72856e-06
3.86203e-06 -2.72856e-06 -2.84241e-05
0.00238499 2.40879e-05 1.06737e-05
2.40879e-05 0.00070238 -3.42634e-06
1.06737e-05 -3.42634e-06 0.000720225
0.00110842 2.29404e-05 -5.35504e-07
2.29404e-05 7.1919e-05 -2.1522e-07
-5.35504e-07 -2.1522e-07 7.612e-06
0.00114428 1.96461e-05 5.59783e-08
1.96461e-05 8.66514e-05 5.3703e-08
5.59783e-08 5.3703e-08 2.32898e-05
0.000950817 -5.22044e-07 -1.21778e-06
-5.22044e-07 -2.58414e-06 -5.90323e-07
-1.21778e-06 -5.90323e-07 -6.0477e-05
0.00111954 1.55058e-05 6.09736e-07
1.55058e-05 7.26454e-05 1.22756e-07
6.09736e-07 1.22756e-07 9.67584e-06
0.000940147 -3.66951e-06 -1.97261e-07
-3.66951e-06 -1.20752e-05 -1.34725e-07
-1.97261e-07 -1.34725e-07 -6.9208e-05
0.000982046 -1.13139e-05 -2.24476e-06
-1.13139e-05 1.21513e-05 -1.44345e-06
-2.24476e-06 -1.44345e-06 -2.71256e-05
0.000934056 -3.53129e-06 1.20103e-06
-3.53129e-06 -1.94108e-05 8.63218e-07
1.20103e-06 8.63218e-07 -7.61836e-05
0.000977322 -1.02486e-05 -9.31771e-09
-1.02486e-05 4.48222e-06 2.52499e-08
-9.31771e-09 2.52499e-08 -3.32464e-05
0.000904352 -1.5416e-05 -3.70519e-06
-1.5416e-05 -2.99455e-05 -2.84248e-06
-3.70519e-06 -2.84248e-06 -3.81006e-05
0.000976715 -7.32678e-06 2.09954e-06
-7.32678e-06 -3.61845e-07 1.84512e-06
2.09954e-06 1.84512e-06 -3.69337e-05
0.000896821 -1.36761e-05 -7.20142e-08
-1.36761e-05 -3.85508e-05 3.45565e-08
-7.20142e-08 3.45565e-08 -4.55651e-05
0.00247586 -2.17878e-05 -1.06653e-05
-2.17878e-05 0.00074151 -3.67364e-06
-1.06653e-05 -3.67364e-06 0.000759499
0.00251907 -1.94787e-05 -2.16973e-07
-1.94787e-05 0.000757646 5.18723e-08
-2.16973e-07 5.18723e-08 0.00077631
0.000892446 -1.22074e-05 2.83855e-06
-1.22074e-05 -4.43567e-05 3.15372e-06
2.83855e-06 3.15372e-06 -5.05439e-05
0.00251454 -1.72091e-05 9.21007e-06
-1.72091e-05 0.000751006 3.9451e-06
9.21007e-06 3.9451e-06 0.000770494
0.000251783 -1.95898e-05 -3.87357e-05
-1.95898e-05 -0.000169471 -6.18035e-06
-3.87357e-05 -6.18035e-06 -0.000241203
0.00162541 3.30008e-05 -1.36769e-05
3.30008e-05 -0.000200331 -4.34484e-06
-1.36769e-05 -4.34484e-06 -0.000535059
0.00285062 -5.94655e-05 -2.04011e-05
-5.94655e-05 0.00106464 -3.66584e-06
-2.04011e-05 -3.66584e-06 0.00101425
0.00119822 3.21814e-05 1.23651e-06
3.21814e-05 0.000109544 4.08133e-07
1.23651e-06 4.08133e-07 4.14078e-05
0.0011879 3.03304e-05 6.05171e-07
3.03304e-05 0.000102576 -2.7179e-07
6.05171e-07 -2.7179e-07 3.29827e-05
0.00113867 2.92572e-05 3.48316e-07
2.92572e-05 8.30034e-05 -1.99888e-07
3.48316e-07 -1.99888e-07 1.68648e-05
0.00110436 3.01386e-05 1.03815e-08
3.01386e-05 6.79907e-05 -3.04763e-09
1.03815e-08 -3.04763e-09 -9.73801e-07
0.00112329 2.98496e-05 -1.73668e-07
2.98496e-05 8.18498e-05 -1.81934e-07
-1.73668e-07 -1.81934e-07 1.43506e-05
0.000941273 3.08386e-05 -7.10113e-07
3.08386e-05 -4.7794e-06 5.64945e-07
-7.10113e-07 5.64945e-07 -7.12354e-05
0.00115854 3.11391e-05 1.18759e-06
3.11391e-05 9.41898e-05 -7.08386e-07
1.18759e-06 -7.08386e-07 2.20088e-05
0.0010385 3.34245e-05 4.60008e-07
3.34245e-05 4.79408e-05 -1.58666e-06
4.60008e-07 -1.58666e-06 -2.98115e-05
0.00109356 3.54684e-05 -5.2793e-08
3.54684e-05 6.20066e-05 -3.6375e-08
-5.2793e-08 -3.6375e-08 -9.38646e-06
0.00154676 4.51868e-05 9.93338e-08
4.51868e-05 0.000275412 2.22508e-08
9.93338e-08 2.22508e-08 0.000202542
0.00131394 4.88679e-05 1.61926e-07
4.88679e-05 0.000118906 -2.12575e-06
1.61926e-07 -2.12575e-06 3.71273e-05
0.00159708 5.52112e-05 -6.46611e-06
5.52112e-05 0.000116674 -1.02538e-06
-6.46611e-06 -1.02538e-06 9.99962e-06
0.00120278 5.46176e-05 2.07285e-06
5.46176e-05 6.67556e-05 1.87936e-06
2.07285e-06 1.87936e-06 -2.87344e-05
0.00083766 3.68141e-05 -5.89515e-07
3.68141e-05 -6.47295e-05 1.29538e-06
-5.89515e-07 1.29538e-06 -0.00014072
0.00176532 -3.76187e-05 6.67313e-06
-3.76187e-05 -2.81643e-05 6.88479e-06
6.67313e-06 6.88479e-06 -9.18678e-05
0.000795364 1.03385e-05 2.74806e-06
1.03385e-05 -6.86766e-05 1.10133e-06
2.74806e-06 1.10133e-06 -0.000186723
0.000572993 -2.49314e-05 -2.86401e-05
-2.49314e-05 -0.0004839 -1.7754e-05
-2.86401e-05 -1.7754e-05 -0.000783436
0.00282494 8.43127e-05 1.44584e-05
8.43127e-05 0.000528001 2.70276e-05
1.44584e-05 2.70276e-05 0.000339625
0.00173167 2.94819e-05 7.6027e-06
2.94819e-05 7.24991e-05 1.3021e-06
7.6027e-06 1.3021e-06 -2.66441e-05
-0.000343712 5.88376e-05 3.75568e-07
5.88376e-05 -0.000673965 7.41939e-06
3.75568e-07 7.41939e-06 -0.000785533
0.00177231 4.31762e-07 7.81448e-06
4.31762e-07 0.000508352 -4.01899e-06
7.81448e-06 -4.01899e-06 0.000459982
0.000267247 7.26279e-06 -1.58193e-05
7.26279e-06 -7.07451e-06 -3.78737e-07
-1.58193e-05 -3.78737e-07 -0.000104892
0.00102945 0.000102813 5.86596e-05
0.000102813 -0.000571227 -5.62799e-06
5.86596e-05 -5.62799e-06 -0.000870731
0.00173183 -4.54391e-05 1.14078e-06
-4.54391e-05 -0.000194051 5.31593e-06
1.14078e-06 5.31593e-06 -9.16921e-05
0.00071708 4.20311e-05 3.59725e-05
4.20311e-05 -0.000133695 -1.15008e-05
3.59725e-05 -1.15008e-05 -0.000348824
0.00197996 4.23945e-06 3.39808e-06
4.23945e-06 4.6989e-05 3.4437e-07
3.39808e-06 3.4437e-07 0.000109159
0.00102989 5.37101e-05 9.50438e-07
5.37101e-05 2.74262e-05 -2.73297e-06
9.50438e-07 -2.73297e-06 -3.1858e-05
0.00109664 4.54724e-05 -2.64286e-06
4.54724e-05 -0.000165529 8.05331e-07
-2.64286e-06 8.05331e-07 -0.000217653
0.000380332 3.33551e-05 -2.03801e-06
3.33551e-05 -0.000409948 -4.16788e-06
-2.03801e-06 -4.16788e-06 -0.000485821
0.00134607 -3.46335e-05 5.27601e-06
-3.46335e-05 -9.81652e-05 3.06767e-08
5.27601e-06 3.06767e-08 -7.27724e-05
0.00149302 4.04107e-06 9.95427e-07
4.04107e-06 4.60975e-05 3.94721e-07
9.95427e-07 3.94721e-07 3.87644e-05
0.0015501 1.97917e-05 4.39466e-10
1.97917e-05 0.000135091 6.2623e-07
4.39466e-10 6.2623e-07 8.86503e-05
0.00157695 -2.19092e-05 -5.30826e-07
-2.19092e-05 0.000113212 5.54212e-07
-5.30826e-07 5.54212e-07 0.000101245
0.00146591 -5.77266e-06 -4.09638e-07
-5.77266e-06 8.32709e-05 -1.05451e-07
-4.09638e-07 -1.05451e-07 5.03872e-05
0.00142288 1.18959e-06 4.91227e-07
1.18959e-06 8.07053e-05 1.08282e-06
4.91227e-07 1.08282e-06 2.91735e-05
0.00139307 -2.03647e-05 -1.23197e-06
-2.03647e-05 7.46658e-05 -1.38067e-09
-1.23197e-06 -1.38067e-09 3.99978e-05
0.00134509 -1.43631e-05 -7.42776e-07
-1.43631e-05 6.33265e-05 -5.03537e-07
-7.42776e-07 -5.03537e-07 1.74421e-05
0.00128195 -1.55044e-05 2.13986e-07
-1.55044e-05 4.42354e-05 1.04857e-06
2.13986e-07 1.04857e-06 -1.39668e-05
0.00126047 -2.27785e-05 -1.08943e-06
-2.27785e-05 4.39911e-05 -7.0244e-07
-1.08943e-06 -7.0244e-07 -1.9761e-06
0.00125373 -2.15222e-05 6.24082e-08
-2.15222e-05 4.79073e-05 -2.68874e-07
6.24082e-08 -2.68874e-07 -6.17533e-06
0.00125551 -2.31924e-05 8.80356e-08
-2.31924e-05 5.66e-05 3.25823e-07
8.80356e-08 3.25823e-07 -2.55705e-06
0.00117877 -2.34562e-05 -7.24374e-07
-2.34562e-05 1.85425e-05 2.66276e-07
-7.24374e-07 2.66276e-07 -3.32915e-05
0.00124138 -2.42144e-05 -1.02204e-07
-2.42144e-05 5.51921e-05 -2.09608e-07
-1.02204e-07 -2.09608e-07 -1.89872e-06
0.00120389 -2.3355e-05 -5.39726e-07
-2.3355e-05 4.77892e-05 8.9239e-08
-5.39726e-07 8.9239e-08 -1.10115e-05
0.00125997 -2.76103e-05 6.17261e-07
-2.76103e-05 7.12999e-05 4.92136e-08
6.17261e-07 4.92136e-08 1.16566e-05
0.00118221 -2.55504e-05 1.22255e-07
-2.55504e-05 4.53642e-05 -1.37145e-07
1.22255e-07 -1.37145e-07 -1.40801e-05
0.00114549 -2.07698e-05 -1.20439e-06
-2.07698e-05 4.64273e-05 5.69566e-07
-1.20439e-06 5.69566e-07 -9.97564e-06
0.000985817 -1.5454e-06 -2.32312e-06
-1.5454e-06 1.72304e-05 1.4626e-06
-2.32312e-06 1.4626e-06 -2.99366e-05
0.0010235 -2.00851e-05 -3.42516e-07
-2.00851e-05 3.7752e-06 2.33461e-07
-3.42516e-07 2.33461e-07 -5.33208e-05
0.00118426 -2.88176e-05 6.92128e-07
-2.88176e-05 6.42593e-05 -4.49489e-07
6.92128e-07 -4.49489e-07 2.22012e-06
0.000785988 1.97531e-05 -4.39138e-06
1.97531e-05 -6.0447e-05 2.53358e-06
-4.39138e-06 2.53358e-06 -7.52492e-05
0.000974893 1.65767e-06 5.36199e-08
1.65767e-06 1.52947e-05 2.45271e-08
5.36199e-08 2.45271e-08 -2.89823e-05
0.00107831 -1.78366e-05 1.09888e-06
-1.78366e-05 4.49764e-05 -8.42832e-07
1.09888e-06 -8.42832e-07 -1.13799e-05
0.00255577 3.10476e-05 -1.17204e-05
3.10476e-05 0.00080691 3.01704e-06
-1.17204e-05 3.01704e-06 0.000820285
0.000855814 1.92785e-05 1.48007e-08
1.92785e-05 -3.3698e-05 7.47588e-09
1.48007e-08 7.47588e-09 -4.56883e-05
0.000987951 5.22784e-06 2.21692e-06
5.22784e-06 1.99408e-05 -1.48523e-06
2.21692e-06 -1.48523e-06 -2.08781e-05
0.00246319 2.86773e-05 1.70713e-07
2.86773e-05 0.000754536 6.95654e-08
1.70713e-07 6.95654e-08 0.000769584
0.000900068 1.84785e-05 4.17142e-06
1.84785e-05 -1.94933e-05 -2.59511e-06
4.17142e-06 -2.59511e-06 -2.91759e-05
0.00238848 2.63268e-05 1.10134e-05
2.63268e-05 0.000711252 -3.29158e-06
1.10134e-05 -3.29158e-06 0.00072782
0.00104153 2.66672e-05 -4.55495e-07
2.66672e-05 3.58758e-05 -3.18598e-07
-4.55495e-07 -3.18598e-07 -2.95467e-05
0.00108841 2.29744e-05 -7.51729e-08
2.29744e-05 6.20254e-05 -1.33786e-07
-7.51729e-08 -1.33786e-07 -2.17792e-06
0.00106611 6.93496e-06 -9.73985e-07
6.93496e-06 5.51429e-05 -3.49752e-07
-9.73985e-07 -3.49752e-07 -3.14706e-06
0.00122292 2.09828e-05 4.47233e-07
2.09828e-05 0.000124701 -9.71071e-08
4.47233e-07 -9.71071e-08 6.17582e-05
0.000996757 6.64205e-08 -2.00354e-07
6.64205e-08 2.04532e-05 -1.21501e-07
-2.00354e-07 -1.21501e-07 -3.72188e-05
0.000977846 -1.07059e-05 -2.23981e-06
-1.07059e-05 1.58722e-05 -1.30203e-06
-2.23981e-06 -1.30203e-06 -2.54754e-05
0.000944518 -3.6021e-06 9.08808e-07
-3.6021e-06 -8.91668e-06 4.33544e-07
9.08808e-07 4.33544e-07 -6.61971e-05
0.00096885 -1.17337e-05 -1.37663e-08
-1.17337e-05 5.94077e-06 2.60374e-08
-1.37663e-08 2.60374e-08 -3.33647e-05
0.00089777 -1.71061e-05 -3.94575e-06
-1.71061e-05 -2.68316e-05 -2.67681e-06
-3.94575e-06 -2.67681e-06 -3.65297e-05
0.000965533 -1.02788e-05 2.21731e-06
-1.02788e-05 -1.35844e-06 1.72345e-06
2.21731e-06 1.72345e-06 -3.90618e-05
0.000889146 -1.52969e-05 -4.1187e-08
-1.52969e-05 -3.76045e-05 3.19543e-08
-4.1187e-08 3.19543e-08 -4.56416e-05
0.00246108 -2.41227e-05 -1.09361e-05
-2.41227e-05 0.000740228 -3.51052e-06
-1.09361e-05 -3.51052e-06 0.000757254
0.000884526 -1.35789e-05 3.23787e-06
-1.35789e-05 -4.48154e-05 3.05926e-06
3.23787e-06 3.05926e-06 -5.17259e-05
0.00252184 -2.18189e-05 -1.86381e-07
-2.18189e-05 0.000763469 5.71616e-08
-1.86381e-07 5.71616e-08 0.000781364
0.00255152 -1.95106e-05 1.01091e-05
-1.95106e-05 0.000773203 3.8652e-06
1.01091e-05 3.8652e-06 0.000791792
0.00125993 -5.41221e-05 8.25162e-06
-5.41221e-05 -0.000125132 6.78734e-07
8.25162e-06 6.78734e-07 -0.000153989
0.00114365 4.79852e-06 -6.71911e-06
4.79852e-06 3.28465e-05 6.02248e-06
-6.71911e-06 6.02248e-06 -0.000121935
0.00440036 4.18615e-05 -4.83162e-05
4.18615e-05 0.00114671 -1.6113e-05
-4.83162e-05 -1.6113e-05 0.000811903
0.000978955 3.08549e-05 5.60379e-07
3.08549e-05 2.97935e-06 4.34731e-07
5.60379e-07 4.34731e-07 -6.34614e-05
0.00130613 3.61503e-05 7.91483e-07
3.61503e-05 0.00013339 -5.86405e-07
7.91483e-07 -5.86405e-07 6.30593e-05
0.00100417 3.04178e-05 2.56776e-07
3.04178e-05 2.14046e-05 -9.60935e-08
2.56776e-07 -9.60935e-08 -4.67598e-05
0.00118284 3.11473e-05 4.58962e-07
3.11473e-05 0.000105287 -5.61377e-07
4.58962e-07 -5.61377e-07 3.62511e-05
0.00109948 3.00467e-05 -1.00634e-07
3.00467e-05 7.13407e-05 -2.52492e-07
-1.00634e-07 -2.52492e-07 3.57083e-06
0.00108694 3.2912e-05 1.42935e-07
3.2912e-05 6.26161e-05 3.46328e-07
1.42935e-07 3.46328e-07 -4.05003e-06
0.00125377 4.32735e-05 -6.77554e-07
4.32735e-05 8.26765e-05 -1.20364e-06
-6.77554e-07 -1.20364e-06 6.04277e-06
0.00134068 3.82489e-05 9.19386e-07
3.82489e-05 0.000179389 -9.32e-08
9.19386e-07 -9.32e-08 0.000108177
0.00100684 3.9022e-05 -2.52042e-06
3.9022e-05 2.95126e-05 -5.98798e-07
-2.52042e-06 -5.98798e-07 -4.16882e-05
0.00120212 4.77075e-05 1.88534e-07
4.77075e-05 6.65507e-05 3.01736e-08
1.88534e-07 3.01736e-08 -1.59813e-05
0.00122457 4.58955e-05 -1.85814e-07
4.58955e-05 -2.92678e-05 -1.27067e-06
-1.85814e-07 -1.27067e-06 -0.000123696
0.00167136 9.92842e-06 -3.93936e-06
9.92842e-06 0.000106802 3.03635e-06
-3.93936e-06 3.03635e-06 3.87576e-05
0.00168645 5.37566e-05 -2.06466e-06
5.37566e-05 0.000159837 8.29661e-07
-2.06466e-06 8.29661e-07 5.60964e-05
0.000911671 5.02467e-05 1.09573e-06
5.02467e-05 -6.32407e-05 5.61054e-06
1.09573e-06 5.61054e-06 -0.000156507
0.00192857 -3.23774e-05 1.01006e-06
-3.23774e-05 5.33059e-05 -6.649e-08
1.01006e-06 -6.649e-08 -1.06695e-05
0.00132292 4.08029e-06 6.24093e-05
4.08029e-06 2.93598e-05 1.81794e-05
6.24093e-05 1.81794e-05 -0.000141858
0.00217684 4.06621e-05 -6.77402e-06
4.06621e-05 0.000220729 -2.81065e-07
-6.77402e-06 -2.81065e-07 9.9493e-05
0.00146357 1.14269e-05 -1.03368e-06
1.14269e-05 0.000142752 -3.30521e-06
-1.03368e-06 -3.30521e-06 9.32625e-05
0.00102188 -6.72097e-06 3.03302e-06
-6.72097e-06 0.000127569 -6.19548e-07
3.03302e-06 -6.19548e-07 9.10737e-05
0.000883117 3.66351e-05 3.8763e-05
3.66351e-05 -9.80511e-05 1.88719e-06
3.8763e-05 1.88719e-06 -0.000232908
0.00171755 -9.13791e-06 6.7851e-06
-9.13791e-06 -6.11356e-05 -4.87951e-07
6.7851e-06 -4.87951e-07 -2.22504e-05
0.00104734 5.58629e-05 -4.35572e-06
5.58629e-05 4.56142e-05 4.44236e-07
-4.35572e-06 4.44236e-07 -1.50994e-05
0.00152047 4.8147e-05 -1.90801e-06
4.8147e-05 3.38054e-05 1.91665e-06
-1.90801e-06 1.91665e-06 -1.337e-05
0.00113564 4.04527e-05 3.60878e-07
4.04527e-05 -4.00755e-05 1.28895e-06
3.60878e-07 1.28895e-06 -0.000113009
0.00134218 3.63292e-05 -1.71973e-06
3.63292e-05 5.75725e-05 -1.3179e-06
-1.71973e-06 -1.3179e-06 -1.06529e-05
0.00134698 3.32277e-05 -9.70478e-07
3.32277e-05 0.00011215 -2.07941e-06
-9.70478e-07 -2.07941e-06 5.49922e-05
0.00130904 2.13189e-06 5.69454e-07
2.13189e-06 -3.16964e-05 -1.23333e-06
5.69454e-07 -1.23333e-06 -4.51947e-05
0.00145047 1.83141e-05 -7.20913e-07
1.83141e-05 8.76577e-05 -1.40517e-06
-7.20913e-07 -1.40517e-06 4.20715e-05
0.00148641 2.42082e-05 -3.85861e-07
2.42082e-05 0.000113661 3.70287e-07
-3.85861e-07 3.70287e-07 5.06815e-05
0.00150142 -5.97121e-06 -2.89069e-06
-5.97121e-06 0.000103269 -1.19789e-06
-2.89069e-06 -1.19789e-06 6.93772e-05
0.00139387 1.23337e-06 -2.26051e-07
1.23337e-06 6.94995e-05 -2.20433e-07
-2.26051e-07 -2.20433e-07 1.76978e-05
0.00125506 9.29608e-07 -1.49743e-07
9.29608e-07 1.3676e-05 9.74262e-07
-1.49743e-07 9.74262e-07 -4.86288e-05
0.00132506 -1.54226e-05 -2.08779e-06
-1.54226e-05 5.92026e-05 -1.41171e-06
-2.08779e-06 -1.41171e-06 1.34733e-05
0.00128982 -1.5026e-05 1.26864e-07
-1.5026e-05 4.80825e-05 -9.44751e-08
1.26864e-07 -9.44751e-08 -1.01279e-05
0.0012774 -1.81109e-05 -1.66825e-07
-1.81109e-05 5.25763e-05 7.28197e-07
-1.66825e-07 7.28197e-07 -1.02156e-05
0.00124946 -2.1216e-05 -5.41627e-07
-2.1216e-05 4.63305e-05 -9.56546e-07
-5.41627e-07 -9.56546e-07 -7.76478e-06
0.00125408 -2.27982e-05 1.27338e-08
-2.27982e-05 5.56611e-05 -1.86398e-07
1.27338e-08 -1.86398e-07 -3.46896e-06
0.00123118 -2.29592e-05 -4.62336e-07
-2.29592e-05 5.52473e-05 3.35781e-07
-4.62336e-07 3.35781e-07 -5.29697e-06
0.00116541 -2.31159e-05 -2.31977e-08
-2.31159e-05 1.79797e-05 -7.8413e-08
-2.31977e-08 -7.8413e-08 -3.85958e-05
0.00116785 -2.29142e-05 -1.03707e-07
-2.29142e-05 3.01918e-05 -1.00096e-07
-1.03707e-07 -1.00096e-07 -2.85015e-05
0.00116271 -1.95147e-05 -1.1911e-06
-1.95147e-05 4.61984e-05 4.42306e-07
-1.1911e-06 4.42306e-07 -1.02609e-05
0.00111226 -2.48951e-05 9.54223e-07
-2.48951e-05 1.1329e-05 -3.35763e-07
9.54223e-07 -3.35763e-07 -4.84339e-05
0.00105892 -1.95005e-05 -1.45573e-08
-1.95005e-05 5.29168e-06 2.01305e-08
-1.45573e-08 2.01305e-08 -5.12987e-05
0.000996902 -3.24785e-06 -2.39214e-06
-3.24785e-06 1.42217e-05 1.18305e-06
-2.39214e-06 1.18305e-06 -3.42499e-05
0.000811763 2.07737e-05 -4.61566e-06
2.07737e-05 -4.32567e-05 2.47911e-06
-4.61566e-06 2.47911e-06 -6.11726e-05
0.000980694 -2.72195e-06 1.60132e-08
-2.72195e-06 1.30936e-05 9.10228e-08
1.60132e-08 9.10228e-08 -3.38183e-05
0.00109903 -2.043e-05 8.28689e-07
-2.043e-05 4.17108e-05 -5.06262e-07
8.28689e-07 -5.06262e-07 -1.50806e-05
0.00263022 3.32575e-05 -1.20882e-05
3.32575e-05 0.000851516 2.86649e-06
-1.20882e-05 2.86649e-06 0.000862948
0.0008345 2.00748e-05 3.54946e-08
2.00748e-05 -3.70338e-05 -1.90859e-09
3.54946e-08 -1.90859e-09 -5.20743e-05
0.000985798 -1.80742e-07 2.30298e-06
-1.80742e-07 1.85974e-05 -1.45443e-06
2.30298e-06 -1.45443e-06 -2.54585e-05
0.00251406 3.08588e-05 1.46984e-07
3.08588e-05 0.000787616 7.17012e-08
1.46984e-07 7.17012e-08 0.000800895
0.000891865 1.94536e-05 4.36328e-06
1.94536e-05 -1.62521e-05 -2.52864e-06
4.36328e-06 -2.52864e-06 -2.84373e-05
0.0024181 2.85105e-05 1.13968e-05
2.85105e-05 0.000733613 -3.13371e-06
1.13968e-05 -3.13371e-06 0.000748605
0.000894849 2.84417e-05 -4.93959e-07
2.84417e-05 -4.63081e-05 -5.63636e-07
-4.93959e-07 -5.63636e-07 -0.000114577
0.000953586 2.60436e-05 -4.55948e-08
2.60436e-05 -6.99745e-06 -8.93636e-08
-4.55948e-08 -8.93636e-08 -7.2771e-05
0.00109416 1.42458e-05 -1.05295e-06
1.42458e-05 6.35175e-05 -3.00575e-07
-1.05295e-06 -3.00575e-07 4.4212e-06
0.00106747 2.29412e-05 2.29649e-07
2.29412e-05 5.17026e-05 -1.48133e-07
2.29649e-07 -1.48133e-07 -1.23966e-05
0.00103917 6.12297e-06 3.36525e-09
6.12297e-06 4.27726e-05 2.07964e-08
3.36525e-09 2.07964e-08 -1.55479e-05
0.000979704 -8.63197e-06 -2.28314e-06
-8.63197e-06 2.12847e-05 -1.14057e-06
-2.28314e-06 -1.14057e-06 -2.24466e-05
0.00104258 8.71749e-07 8.51841e-07
8.71749e-07 4.34238e-05 2.88061e-07
8.51841e-07 2.88061e-07 -1.40185e-05
0.000961606 -1.14977e-05 -1.17215e-09
-1.14977e-05 8.70485e-06 7.92744e-09
-1.17215e-09 7.92744e-09 -3.27333e-05
0.000889452 -1.86816e-05 -4.14458e-06
-1.86816e-05 -2.28529e-05 -2.51557e-06
-4.14458e-06 -2.51557e-06 -3.46661e-05
0.000955305 -1.21038e-05 2.26066e-06
-1.21038e-05 -4.22367e-07 1.57521e-06
2.26066e-06 1.57521e-06 -3.97572e-05
0.000878525 -1.69673e-05 -3.67626e-08
-1.69673e-05 -3.63722e-05 3.15298e-08
-3.67626e-08 3.15298e-08 -4.59407e-05
0.00245449 -2.64112e-05 -1.11916e-05
-2.64112e-05 0.000744674 -3.33659e-06
-1.11916e-05 -3.33659e-06 0.000760385
0.000874049 -1.51769e-05 3.56333e-06
-1.51769e-05 -4.52358e-05 2.92756e-06
3.56333e-06 2.92756e-06 -5.31517e-05
0.00251574 -2.4199e-05 -1.6367e-07
-2.4199e-05 0.000766063 6.10713e-08
-1.6367e-07 6.10713e-08 0.000783028
0.00256745 -2.18593e-05 1.07295e-05
-2.18593e-05 0.000785278 3.73772e-06
1.07295e-05 3.73772e-06 0.000803074
0.00160052 -1.79092e-05 2.62381e-07
-1.79092e-05 0.000136479 -5.57073e-08
2.62381e-07 -5.57073e-08 9.68738e-05
0.00124375 -4.98939e-05 -7.19218e-07
-4.98939e-05 -4.32332e-05 -2.20583e-06
-7.19218e-07 -2.20583e-06 -7.10578e-05
-0.000403984 -3.19343e-06 3.17021e-05
-3.19343e-06 -0.000233181 8.66184e-06
3.17021e-05 8.66184e-06 -0.00030327
0.00154957 3.98976e-05 7.91017e-07
3.98976e-05 0.000221501 -9.11696e-07
7.91017e-07 -9.11696e-07 0.000150428
0.000982348 3.13752e-05 -3.4721e-07
3.13752e-05 1.03179e-05 1.02938e-07
-3.4721e-07 1.02938e-07 -5.4642e-05
0.000823778 3.30411e-05 -1.15167e-06
3.30411e-05 -0.000132821 6.27964e-08
-1.15167e-06 6.27964e-08 -0.000208742
0.00126014 3.57103e-05 7.54838e-08
3.57103e-05 0.000111305 4.5287e-08
7.54838e-08 4.5287e-08 4.05883e-05
0.00081169 2.86448e-05 -4.00772e-07
2.86448e-05 -6.58205e-05 3.8361e-07
-4.00772e-07 3.8361e-07 -0.000134034
0.00151317 4.34955e-05 -1.00926e-06
4.34955e-05 0.000119277 -2.92812e-06
-1.00926e-06 -2.92812e-06 3.56402e-05
0.00123631 3.50039e-05 6.30677e-08
3.50039e-05 0.000131817 -3.21666e-07
6.30677e-08 -3.21666e-07 6.49338e-05
0.00124057 4.28349e-05 4.4212e-08
4.28349e-05 7.47529e-05 8.83316e-07
4.4212e-08 8.83316e-07 -1.12739e-06
0.00139434 7.94171e-06 4.46012e-07
7.94171e-06 -1.56369e-05 3.16068e-06
4.46012e-07 3.16068e-06 -8.82497e-05
0.00108089 4.63808e-05 5.50827e-07
4.63808e-05 9.53757e-06 1.84479e-06
5.50827e-07 1.84479e-06 -7.37189e-05
0.0014612 4.86819e-05 -3.48883e-07
4.86819e-05 6.83627e-05 -5.07539e-07
-3.48883e-07 -5.07539e-07 -2.79158e-05
0.001571 9.17449e-06 2.35046e-08
9.17449e-06 5.23778e-05 2.82643e-07
2.35046e-08 2.82643e-07 -1.59923e-05
0.00173367 5.17902e-05 8.56425e-07
5.17902e-05 0.000182905 1.65054e-06
8.56425e-07 1.65054e-06 8.21172e-05
0.00196044 -2.74154e-05 -1.13172e-05
-2.74154e-05 7.3598e-05 -9.08835e-06
-1.13172e-05 -9.08835e-06 9.72024e-06
0.00147243 -2.69301e-06 -2.01218e-07
-2.69301e-06 0.000164207 -1.83685e-06
-2.01218e-07 -1.83685e-06 0.000119228
0.000989298 9.69305e-06 1.55794e-06
9.69305e-06 -8.18117e-05 5.17212e-07
1.55794e-06 5.17212e-07 -0.000130423
0.000214215 -1.20989e-05 -2.35184e-06
-1.20989e-05 -0.000277437 2.2388e-06
-2.35184e-06 2.2388e-06 -0.000303129
0.00195105 5.07663e-05 -2.7664e-06
5.07663e-05 0.00023688 -2.57952e-06
-2.7664e-06 -2.57952e-06 0.000194282
0.00186375 4.70446e-05 7.59258e-06
4.70446e-05 0.000317879 5.52561e-06
7.59258e-06 5.52561e-06 0.000247848
0.00146595 3.78729e-05 -1.58518e-06
3.78729e-05 0.000105795 -1.19527e-06
-1.58518e-06 -1.19527e-06 3.80521e-05
0.00139924 3.29842e-05 7.88268e-07
3.29842e-05 0.000132056 1.86724e-06
7.88268e-07 1.86724e-06 7.54676e-05
0.00135282 3.17523e-05 -1.90161e-06
3.17523e-05 9.62236e-05 -2.89174e-06
-1.90161e-06 -2.89174e-06 3.6297e-05
0.00140192 1.68394e-05 -2.14505e-06
1.68394e-05 6.59233e-05 -1.92646e-06
-2.14505e-06 -1.92646e-06 2.08782e-05
0.00143677 2.29957e-05 -1.5247e-08
2.29957e-05 8.82706e-05 -3.31543e-07
-1.5247e-08 -3.31543e-07 2.63521e-05
0.00143407 2.39828e-05 -1.42593e-06
2.39828e-05 9.8608e-05 -8.92825e-07
-1.42593e-06 -8.92825e-07 3.27889e-05
0.0013768 1.16644e-06 -1.02828e-06
1.16644e-06 6.42089e-05 -1.35039e-06
-1.02828e-06 -1.35039e-06 1.20853e-05
0.00131613 1.52705e-06 2.09842e-07
1.52705e-06 4.34205e-05 1.57818e-07
2.09842e-07 1.57818e-07 -1.94207e-05
0.00133235 3.19732e-07 -5.89031e-07
3.19732e-07 6.26357e-05 5.05415e-07
-5.89031e-07 5.05415e-07 -3.488e-06
0.00129641 -1.44782e-05 -2.6088e-07
-1.44782e-05 5.1339e-05 -1.20678e-06
-2.6088e-07 -1.20678e-06 -6.88059e-06
0.00128696 -1.75469e-05 9.2426e-08
-1.75469e-05 5.64989e-05 -4.906e-08
9.2426e-08 -4.906e-08 -6.32555e-06
0.00125 -1.96217e-05 -6.27483e-07
-1.96217e-05 5.22962e-05 5.36457e-07
-6.27483e-07 5.36457e-07 -1.107e-05
0.00125305 -2.2447e-05 -2.65546e-08
-2.2447e-05 5.49055e-05 -6.92557e-07
-2.65546e-08 -6.92557e-07 -4.19823e-06
0.00122997 -2.27369e-05 -1.11045e-08
-2.27369e-05 5.43668e-05 -1.15349e-07
-1.11045e-08 -1.15349e-07 -6.15836e-06
0.00116886 -1.92071e-05 -1.13037e-06
-1.92071e-05 4.26513e-05 4.71209e-07
-1.13037e-06 4.71209e-07 -1.54274e-05
0.00113 -2.24171e-05 5.02616e-07
-2.24171e-05 1.17069e-05 -3.0635e-07
5.02616e-07 -3.0635e-07 -4.68729e-05
0.00114907 -1.89607e-05 -9.88949e-09
-1.89607e-05 3.98227e-05 -3.59694e-08
-9.88949e-09 -3.59694e-08 -1.66124e-05
0.00100079 -4.53975e-06 -2.32298e-06
-4.53975e-06 8.47749e-06 9.30511e-07
-2.32298e-06 9.30511e-07 -4.0677e-05
0.000967772 -1.815e-05 1.14502e-06
-1.815e-05 -3.79793e-05 -4.84848e-07
1.14502e-06 -4.84848e-07 -9.47563e-05
0.000984003 -4.01082e-06 -6.28562e-08
-4.01082e-06 7.19076e-06 1.01435e-07
-6.28562e-08 1.01435e-07 -4.10809e-05
0.00160763 2.72349e-05 -4.21375e-06
2.72349e-05 0.000351739 1.342e-06
-4.21375e-06 1.342e-06 0.000334475
0.00120186 2.52352e-05 -1.39262e-05
2.52352e-05 0.00015545 4.60515e-06
-1.39262e-05 4.60515e-06 0.00015688
0.00123184 2.36626e-05 -3.53529e-07
2.36626e-05 0.000163079 4.15136e-08
-3.53529e-07 4.15136e-08 0.000146763
0.000976486 -3.88656e-06 2.42367e-06
-3.88656e-06 9.39171e-06 -1.26921e-06
2.42367e-06 -1.26921e-06 -3.72648e-05
0.00259418 3.30115e-05 1.46202e-07
3.30115e-05 0.000834789 7.81912e-08
1.46202e-07 7.81912e-08 0.00084608
0.000882854 2.04125e-05 4.48453e-06
2.04125e-05 -1.3689e-05 -2.47682e-06
4.48453e-06 -2.47682e-06 -2.89684e-05
0.0024708 3.06325e-05 1.18408e-05
3.06325e-05 0.000767571 -2.99779e-06
1.18408e-05 -2.99779e-06 0.00078076
0.00112745 3.41911e-05 -1.50661e-09
3.41911e-05 -9.03264e-06 5.09711e-08
-1.50661e-09 5.09711e-08 -8.03324e-05
0.000910395 3.05286e-05 2.40476e-07
3.05286e-05 -5.56896e-05 -4.10007e-08
2.40476e-07 -4.10007e-08 -0.000126762
0.000943293 2.92933e-05 -4.4189e-08
2.92933e-05 -2.60281e-05 -2.72944e-08
-4.4189e-08 -2.72944e-08 -9.46259e-05
0.00111254 1.96486e-05 -1.03427e-06
1.96486e-05 6.50928e-05 -4.52609e-07
-1.03427e-06 -4.52609e-07 4.87226e-06
0.000863861 2.53856e-05 2.89195e-07
2.53856e-05 -5.07608e-05 2.41711e-07
2.89195e-07 2.41711e-07 -0.000116877
0.00105909 1.31508e-05 -2.93464e-08
1.31508e-05 4.74053e-05 2.63475e-08
-2.93464e-08 2.63475e-08 -1.16561e-05
0.000986031 -5.42174e-06 -2.33707e-06
-5.42174e-06 2.62778e-05 -9.58896e-07
-2.33707e-06 -9.58896e-07 -1.95936e-05
0.001013 5.29682e-06 9.52655e-07
5.29682e-06 3.07496e-05 3.56201e-07
9.52655e-07 3.56201e-07 -2.76009e-05
0.00095875 -9.65715e-06 -3.63459e-08
-9.65715e-06 1.23682e-05 2.29507e-08
-3.63459e-08 2.29507e-08 -3.15015e-05
0.000879642 -2.00419e-05 -4.359e-06
-2.00419e-05 -1.85873e-05 -2.32615e-06
-4.359e-06 -2.32615e-06 -3.29224e-05
0.000945359 -1.22041e-05 2.28162e-06
-1.22041e-05 1.54594e-06 1.40333e-06
2.28162e-06 1.40333e-06 -3.99829e-05
0.000863538 -1.84966e-05 -2.03599e-08
-1.84966e-05 -3.54911e-05 2.26262e-08
-2.03599e-08 2.26262e-08 -4.71601e-05
0.00246443 -2.85949e-05 -1.15089e-05
-2.85949e-05 0.000758852 -3.16468e-06
-1.15089e-05 -3.16468e-06 0.000772873
0.000859187 -1.6828e-05 3.8118e-06
-1.6828e-05 -4.59756e-05 2.77374e-06
3.8118e-06 2.77374e-06 -5.54115e-05
0.00251197 -2.65469e-05 -1.61315e-07
-2.65469e-05 0.000771454 6.54392e-08
-1.61315e-07 6.54392e-08 0.000787176
0.00257074 -2.42656e-05 1.11085e-05
-2.42656e-05 0.000792089 3.57849e-06
1.11085e-05 3.57849e-06 0.00080899
0.00151855 -2.68919e-05 1.31245e-06
-2.68919e-05 9.82745e-05 1.21767e-06
1.31245e-06 1.21767e-06 4.87147e-05
0.00149093 -1.76802e-05 2.26185e-06
-1.76802e-05 7.46413e-05 -1.2419e-06
2.26185e-06 -1.2419e-06 3.30454e-05
0.00147114 -4.68615e-05 -8.49633e-06
-4.68615e-05 0.000149891 -5.9587e-06
-8.49633e-06 -5.9587e-06 0.000122685
0.00141271 3.81438e-05 -1.05639e-06
3.81438e-05 8.49463e-05 -1.52129e-06
-1.05639e-06 -1.52129e-06 6.86067e-06
0.00140663 3.82735e-05 -6.5223e-08
3.82735e-05 0.000163356 2.5158e-07
-6.5223e-08 2.5158e-07 9.38168e-05
0.000970662 3.17645e-05 -1.64795e-06
3.17645e-05 1.05073e-05 -2.43467e-07
-1.64795e-06 -2.43467e-07 -5.29624e-05
0.00122422 3.68064e-05 4.10088e-07
3.68064e-05 5.30175e-05 5.80346e-07
4.10088e-07 5.80346e-07 -2.14077e-05
0.0012096 3.52301e-05 -6.91102e-07
3.52301e-05 8.69281e-05 6.79013e-07
-6.91102e-07 6.79013e-07 1.58448e-05
0.00145547 9.24097e-06 -4.12608e-07
9.24097e-06 3.98975e-05 1.21677e-06
-4.12608e-07 1.21677e-06 -3.73693e-05
0.00148477 4.36081e-05 -9.26489e-07
4.36081e-05 0.000104319 -1.08873e-06
-9.26489e-07 -1.08873e-06 1.94195e-05
0.00121932 4.23457e-05 7.24501e-07
4.23457e-05 6.3158e-05 2.93465e-06
7.24501e-07 2.93465e-06 -1.19816e-05
0.00154501 8.357e-06 5.53434e-08
8.357e-06 5.10889e-05 6.5877e-07
5.53434e-08 6.5877e-07 -2.18895e-05
0.00168923 5.14052e-05 -4.46186e-07
5.14052e-05 0.00016199 5.48118e-07
-4.46186e-07 5.48118e-07 6.38716e-05
0.00151257 8.83988e-06 4.71588e-06
8.83988e-06 1.72565e-05 -2.23138e-06
4.71588e-06 -2.23138e-06 -5.14194e-05
0.000912868 3.36337e-07 -2.04169e-07
3.36337e-07 -8.14357e-05 -6.9956e-07
-2.04169e-07 -6.9956e-07 -0.000131492
0.00128112 -1.30969e-06 -5.19577e-07
-1.30969e-06 7.89507e-05 -4.97347e-07
-5.19577e-07 -4.97347e-07 3.31661e-05
0.000509195 7.90299e-06 4.21572e-06
7.90299e-06 -0.000309329 4.73791e-06
4.21572e-06 4.73791e-06 -0.000357041
0.00161722 3.96759e-05 2.5485e-06
3.96759e-05 0.000166878 -1.07757e-06
2.5485e-06 -1.07757e-06 9.96636e-05
0.00143089 3.27331e-05 3.35685e-06
3.27331e-05 0.000142587 5.20344e-06
3.35685e-06 5.20344e-06 8.65102e-05
0.00137703 3.18982e-05 -8.37093e-07
3.18982e-05 0.000105736 -2.13715e-07
-8.37093e-07 -2.13715e-07 4.59155e-05
0.00125815 2.76416e-05 -3.64339e-07
2.76416e-05 5.90288e-05 -1.47557e-06
-3.64339e-07 -1.47557e-06 -2.516e-06
0.00138041 2.16529e-05 2.05737e-07
2.16529e-05 5.9495e-05 -1.7813e-07
2.05737e-07 -1.7813e-07 -1.32553e-06
0.00141565 2.26845e-05 -3.66314e-07
2.26845e-05 8.5319e-05 -1.3598e-07
-3.66314e-07 -1.3598e-07 1.9521e-05
0.00131729 1.85389e-05 -1.43071e-06
1.85389e-05 5.21533e-05 -1.59036e-06
-1.43071e-06 -1.59036e-06 -1.27283e-05
0.00137373 1.98504e-06 9.26237e-08
1.98504e-06 7.14602e-05 -4.52868e-07
9.26237e-08 -4.52868e-07 8.0932e-06
0.00132688 -7.47514e-08 2.82907e-08
-7.47514e-08 5.9764e-05 3.12963e-07
2.82907e-08 3.12963e-07 -6.42581e-06
0.00128787 -5.7347e-06 -9.25776e-07
-5.7347e-06 5.66792e-05 3.26726e-07
-9.25776e-07 3.26726e-07 -9.34868e-06
0.00129615 -1.6901e-05 3.96591e-07
-1.6901e-05 6.02572e-05 -8.14617e-07
3.96591e-07 -8.14617e-07 -2.59845e-06
0.0012584 -1.94413e-05 5.02116e-08
-1.94413e-05 5.57509e-05 2.00109e-08
5.02116e-08 2.00109e-08 -7.64754e-06
0.00118709 -1.80007e-05 -1.23728e-06
-1.80007e-05 4.22282e-05 5.34385e-07
-1.23728e-06 5.34385e-07 -1.82748e-05
0.00122909 -2.25538e-05 4.89383e-07
-2.25538e-05 5.3648e-05 -5.66907e-07
4.89383e-07 -5.66907e-07 -6.85965e-06
0.00116688 -1.88701e-05 5.16321e-09
-1.88701e-05 4.14081e-05 -6.95852e-08
5.16321e-09 -6.95852e-08 -1.66588e-05
0.00101044 -6.91342e-06 -2.24986e-06
-6.91342e-06 6.47482e-06 8.2859e-07
-2.24986e-06 8.2859e-07 -4.396e-05
0.00113486 -1.84254e-05 1.08082e-06
-1.84254e-05 3.31915e-05 -4.66997e-07
1.08082e-06 -4.66997e-07 -2.32214e-05
0.000990206 -4.42465e-06 -7.72884e-08
-4.42465e-06 3.32719e-06 5.42166e-08
-7.72884e-08 5.42166e-08 -4.576e-05
0.00164108 2.71798e-05 -4.13858e-06
2.71798e-05 0.000371918 1.1284e-06
-4.13858e-06 1.1284e-06 0.00035152
0.000972369 -4.57163e-06 2.43134e-06
-4.57163e-06 7.5051e-07 -1.03961e-06
2.43134e-06 -1.03961e-06 -4.73305e-05
0.00161714 2.66172e-05 2.73116e-06
2.66172e-05 0.000356066 -8.27838e-07
2.73116e-06 -8.27838e-07 0.000338487
0.00120145 2.60003e-05 -1.50053e-05
2.60003e-05 0.000163911 4.45372e-06
-1.50053e-05 4.45372e-06 0.000162105
0.00193767 3.01405e-05 -8.2364e-06
3.01405e-05 0.000518248 1.66154e-06
-8.2364e-06 1.66154e-06 0.000523597
0.00165086 2.57899e-05 7.72867e-06
2.57899e-05 0.00036885 -2.18723e-06
7.72867e-06 -2.18723e-06 0.000354178
0.00255772 3.27286e-05 1.2479e-05
3.27286e-05 0.000817867 -2.89143e-06
1.2479e-05 -2.89143e-06 0.000829016
0.00134982 3.39879e-05 -8.76426e-07
3.39879e-05 5.27719e-05 -1.54957e-06
-8.76426e-07 -1.54957e-06 -2.16423e-05
0.0013405 3.46192e-05 1.0471e-06
3.46192e-05 0.000123232 -5.02679e-08
1.0471e-06 -5.02679e-08 5.41941e-05
0.00115814 3.45449e-05 7.09107e-07
3.45449e-05 1.16734e-05 4.95281e-07
7.09107e-07 4.95281e-07 -5.64981e-05
0.00111546 2.41661e-05 -9.00584e-07
2.41661e-05 5.62832e-05 -7.94311e-07
-9.00584e-07 -7.94311e-07 -6.64271e-06
0.00110003 3.29483e-05 -1.82377e-07
3.29483e-05 3.31975e-05 9.34517e-08
-1.82377e-07 9.34517e-08 -3.78257e-05
0.000990454 3.0133e-05 4.78088e-07
3.0133e-05 -6.29365e-06 6.09907e-07
4.78088e-07 6.09907e-07 -7.52268e-05
0.0010892 1.92113e-05 4.67748e-09
1.92113e-05 5.4671e-05 -5.45429e-08
4.67748e-09 -5.45429e-08 -5.55576e-06
0.0009907 -8.78928e-07 -2.24631e-06
-8.78928e-07 2.90763e-05 -9.58923e-07
-2.24631e-06 -9.58923e-07 -1.90731e-05
0.00102449 1.20437e-05 8.18522e-07
1.20437e-05 3.14978e-05 2.4554e-07
8.18522e-07 2.4554e-07 -2.75264e-05
0.000964078 -6.52706e-06 -4.0045e-08
-6.52706e-06 1.73706e-05 3.60122e-08
-4.0045e-08 3.60122e-08 -2.86961e-05
0.000869149 -2.1213e-05 -4.50121e-06
-2.1213e-05 -1.46209e-05 -2.12257e-06
-4.50121e-06 -2.12257e-06 -3.16214e-05
0.000938279 -1.05937e-05 2.25532e-06
-1.05937e-05 3.69219e-06 1.26065e-06
2.25532e-06 1.26065e-06 -4.03168e-05
0.000845636 -1.9778e-05 -3.47953e-08
-1.9778e-05 -3.50035e-05 2.99417e-08
-3.47953e-08 2.99417e-08 -4.91854e-05
0.00249105 -3.06286e-05 -1.19143e-05
-3.06286e-05 0.000782357 -2.97925e-06
-1.19143e-05 -2.97925e-06 0.000794412
0.000837368 -1.83089e-05 4.0375e-06
-1.83089e-05 -4.82616e-05 2.59955e-06
4.0375e-06 2.59955e-06 -5.97843e-05
0.00251972 -2.87968e-05 -1.51586e-07
-2.87968e-05 0.00078421 6.83014e-08
-1.51586e-07 6.83014e-08 0.000798322
0.00257015 -2.66709e-05 1.13342e-05
-2.66709e-05 0.000798588 3.40228e-06
1.13342e-05 3.40228e-06 0.000814318
0.00142737 -2.28651e-05 -8.21322e-07
-2.28651e-05 8.00837e-05 2.58877e-06
-8.21322e-07 2.58877e-06 2.00644e-05
0.00143961 -2.59981e-05 2.83821e-07
-2.59981e-05 6.2486e-05 -8.02816e-07
2.83821e-07 -8.02816e-07 1.30096e-05
0.00139513 -1.77327e-05 4.32035e-06
-1.77327e-05 1.83117e-05 -1.11191e-06
4.32035e-06 -1.11191e-06 -2.52315e-05
0.00120544 1.3e-05 -8.123e-07
1.3e-05 -6.05136e-05 6.71148e-07
-8.123e-07 6.71148e-07 -0.000135502
0.00142907 3.79136e-05 8.86325e-08
3.79136e-05 9.27945e-05 -5.50282e-07
8.86325e-08 -5.50282e-07 1.48534e-05
0.0012812 3.68152e-05 -7.83598e-07
3.68152e-05 0.000113515 1.18232e-06
-7.83598e-07 1.18232e-06 4.5499e-05
0.00162622 4.05852e-05 3.61162e-07
4.05852e-05 0.000239656 3.63477e-07
3.61162e-07 3.63477e-07 0.000166721
0.00159039 1.06327e-05 1.17294e-08
1.06327e-05 0.000102331 6.79462e-09
1.17294e-08 6.79462e-09 2.50542e-05
0.00145644 4.36984e-05 -5.28183e-09
4.36984e-05 8.9505e-05 5.93965e-07
-5.28183e-09 5.93965e-07 3.33145e-06
0.00169274 8.79342e-06 -2.82481e-07
8.79342e-06 0.000116539 -1.80292e-06
-2.82481e-07 -1.80292e-06 4.31847e-05
0.00111687 6.98938e-07 1.16242e-06
6.98938e-07 1.29135e-05 -5.45798e-08
1.16242e-06 -5.45798e-08 -4.35604e-05
0.00109754 1.39943e-06 -7.63886e-08
1.39943e-06 -4.54837e-07 -1.09679e-07
-7.63886e-08 -1.09679e-07 -5.23621e-05
0.00110277 5.21258e-07 -5.96304e-07
5.21258e-07 -3.61089e-07 1.41104e-06
-5.96304e-07 1.41104e-06 -4.69338e-05
0.00127852 2.87279e-05 2.92375e-07
2.87279e-05 8.24162e-05 -6.45107e-07
2.92375e-07 -6.45107e-07 1.85033e-05
0.00142195 3.22994e-05 1.55532e-06
3.22994e-05 0.000124959 1.83252e-06
1.55532e-06 1.83252e-06 6.52416e-05
0.00126071 2.78185e-05 3.43244e-07
2.78185e-05 6.00863e-05 6.14262e-08
3.43244e-07 6.14262e-08 -1.803e-06
0.00129758 2.56113e-05 -2.53147e-07
2.56113e-05 6.72056e-05 -5.35451e-07
-2.53147e-07 -5.35451e-07 4.41289e-06
0.00141492 2.15808e-05 6.57146e-07
2.15808e-05 8.04448e-05 6.65279e-07
6.57146e-07 6.65279e-07 1.46479e-05
0.0013241 1.83762e-05 -5.36193e-07
1.83762e-05 5.57149e-05 -3.94941e-07
-5.36193e-07 -3.94941e-07 -9.12591e-06
0.00130384 1.58332e-05 -1.41912e-06
1.58332e-05 6.15596e-05 -9.85078e-07
-1.41912e-06 -9.85078e-07 -4.7802e-06
0.0013224 9.57959e-08 1.10768e-06
9.57959e-08 5.73621e-05 8.4166e-08
1.10768e-06 8.4166e-08 -8.90229e-06
0.00128433 -4.53644e-06 2.3939e-08
-4.53644e-06 5.5053e-05 9.07883e-08
2.3939e-08 9.07883e-08 -1.10122e-05
0.00121339 -1.17379e-05 -1.43897e-06
-1.17379e-05 4.48303e-05 3.02464e-07
-1.43897e-06 3.02464e-07 -1.78268e-05
0.00126707 -1.91993e-05 8.23727e-07
-1.91993e-05 5.93317e-05 -5.03292e-07
8.23727e-07 -5.03292e-07 -4.09677e-06
0.00119047 -1.77159e-05 2.67741e-08
-1.77159e-05 4.3442e-05 5.51016e-08
2.67741e-08 5.51016e-08 -1.70641e-05
0.00103282 -8.40599e-06 -2.3154e-06
-8.40599e-06 9.6441e-06 7.98265e-07
-2.3154e-06 7.98265e-07 -4.27463e-05
0.00116443 -1.84659e-05 1.12773e-06
-1.84659e-05 3.9951e-05 -5.92653e-07
1.12773e-06 -5.92653e-07 -1.81033e-05
0.00100386 -6.30102e-06 -3.62021e-08
-6.30102e-06 3.46406e-06 -1.39698e-09
-3.62021e-08 -1.39698e-09 -4.69924e-05
0.00165411 2.25316e-05 -4.12114e-06
2.25316e-05 0.000382373 9.09757e-07
-4.12114e-06 9.09757e-07 0.000358988
0.000978375 -4.56179e-06 2.36345e-06
-4.56179e-06 -2.4757e-06 -8.93687e-07
2.36345e-06 -8.93687e-07 -5.1476e-05
0.00163432 2.42543e-05 2.89071e-06
2.42543e-05 0.000367748 -7.7303e-07
2.89071e-06 -7.7303e-07 0.000347207
0.00122585 2.67445e-05 -1.59197e-05
2.67445e-05 0.000186545 4.10529e-06
-1.59197e-05 4.10529e-06 0.000181271
0.00162697 2.47917e-05 9.5338e-06
2.47917e-05 0.000360449 -2.93868e-06
9.5338e-06 -2.93868e-06 0.000342596
0.00117608 2.70249e-05 -5.49256e-06
2.70249e-05 0.000151727 1.71909e-06
-5.49256e-06 1.71909e-06 0.000150201
0.00267388 3.66619e-05 5.63929e-06
3.66619e-05 0.000881385 -1.10776e-06
5.63929e-06 -1.10776e-06 0.000890559
0.00155363 1.71162e-05 -9.47905e-07
1.71162e-05 0.000120115 -3.03074e-07
-9.47905e-07 -3.03074e-07 4.52013e-05
0.00136285 3.26271e-05 -8.94194e-09
3.26271e-05 8.33729e-05 -1.39632e-06
-8.94194e-09 -1.39632e-06 1.18102e-05
0.00139888 3.46816e-05 -7.78188e-07
3.46816e-05 8.21137e-05 7.51032e-07
-7.78188e-07 7.51032e-07 8.39342e-06
0.00137765 2.89563e-05 -5.18293e-07
2.89563e-05 0.000160252 -2.51459e-07
-5.18293e-07 -2.51459e-07 9.66542e-05
0.00123248 3.39418e-05 4.09082e-07
3.39418e-05 7.08676e-05 -4.42484e-07
4.09082e-07 -4.42484e-07 1.72777e-06
0.00118367 3.48266e-05 1.12364e-06
3.48266e-05 2.98108e-05 8.04021e-07
1.12364e-06 8.04021e-07 -3.52197e-05
0.000999076 5.73592e-06 -2.17183e-06
5.73592e-06 2.82189e-05 -1.18927e-06
-2.17183e-06 -1.18927e-06 -2.32045e-05
0.0011157 2.44413e-05 -2.35111e-08
2.44413e-05 5.67323e-05 -1.15999e-07
-2.35111e-08 -1.15999e-07 -6.24539e-06
0.00129302 3.54116e-05 7.85586e-07
3.54116e-05 0.000123644 7.17776e-07
7.85586e-07 7.17776e-07 5.26707e-05
0.00106455 1.88697e-05 8.83933e-07
1.88697e-05 4.3599e-05 2.63493e-07
8.83933e-07 2.63493e-07 -1.66327e-05
0.00097044 -2.34888e-06 2.87019e-08
-2.34888e-06 2.11878e-05 -1.2112e-08
2.87019e-08 -1.2112e-08 -2.71791e-05
0.000865172 -2.23725e-05 -4.3988e-06
-2.23725e-05 -8.75884e-06 -2.04682e-06
-4.3988e-06 -2.04682e-06 -2.88761e-05
0.000942269 -7.65095e-06 2.27601e-06
-7.65095e-06 8.54475e-06 1.06945e-06
2.27601e-06 1.06945e-06 -3.77194e-05
0.000826281 -2.0816e-05 -3.14449e-08
-2.0816e-05 -3.50939e-05 2.29881e-08
-3.14449e-08 2.29881e-08 -5.19589e-05
0.00253018 -3.24873e-05 -1.24109e-05
-3.24873e-05 0.000812559 -2.79389e-06
-1.24109e-05 -2.79389e-06 0.000822495
0.000811809 -1.95174e-05 4.22674e-06
-1.95174e-05 -5.13385e-05 2.42797e-06
4.22674e-06 2.42797e-06 -6.53665e-05
0.00254162 -3.08869e-05 -1.53084e-07
-3.08869e-05 0.000805199 7.3875e-08
-1.53084e-07 7.3875e-08 0.000817406
0.0025753 -2.89752e-05 1.15551e-05
-2.89752e-05 0.000809714 3.21921e-06
1.15551e-05 3.21921e-06 0.000823917
0.00141319 -1.74191e-05 2.4729e-08
-1.74191e-05 7.89936e-05 1.34493e-06
2.4729e-08 1.34493e-06 1.53437e-05
0.00148246 -2.26568e-05 -9.59569e-08
-2.26568e-05 9.86781e-05 6.53874e-07
-9.59569e-08 6.53874e-07 3.78396e-05
0.0013595 -2.51054e-05 -7.30615e-07
-2.51054e-05 2.61429e-05 -2.7779e-06
-7.30615e-07 -2.7779e-06 -2.32497e-05
0.0013735 1.27757e-05 -1.15805e-08
1.27757e-05 9.99597e-06 -1.86113e-07
-1.15805e-08 -1.86113e-07 -6.54659e-05
0.00143719 3.76231e-05 3.41903e-07
3.76231e-05 9.66157e-05 4.25958e-07
3.41903e-07 4.25958e-07 1.88358e-05
0.00172279 1.21062e-05 6.74884e-07
1.21062e-05 0.000163446 -1.27303e-06
6.74884e-07 -1.27303e-06 8.61838e-05
0.00117422 -1.54826e-06 4.69692e-07
-1.54826e-06 3.6904e-05 1.5882e-07
4.69692e-07 1.5882e-07 -2.68312e-05
0.00113544 1.09808e-06 5.18689e-07
1.09808e-06 2.66686e-05 -7.63952e-08
5.18689e-07 -7.63952e-08 -2.9962e-05
0.00127137 2.17723e-06 4.07271e-07
2.17723e-06 7.56054e-05 6.43669e-07
4.07271e-07 6.43669e-07 2.18286e-05
0.00127204 2.35208e-05 -4.65351e-07
2.35208e-05 7.90087e-05 1.24914e-07
-4.65351e-07 1.24914e-07 1.4685e-05
0.00127069 2.22704e-05 3.35696e-07
2.22704e-05 7.65476e-05 -2.88781e-07
3.35696e-07 -2.88781e-07 9.61101e-06
0.00125577 2.80013e-05 6.39725e-07
2.80013e-05 5.77643e-05 1.16731e-06
6.39725e-07 1.16731e-06 -4.48731e-06
0.00127255 2.52567e-05 2.63061e-07
2.52567e-05 5.58345e-05 4.22583e-07
2.63061e-07 4.22583e-07 -7.00425e-06
0.00138411 2.53162e-05 -1.42126e-07
2.53162e-05 0.000112195 -4.6152e-07
-1.42126e-07 -4.6152e-07 4.80466e-05
0.00132801 1.76154e-05 8.34189e-07
1.76154e-05 5.79443e-05 7.44299e-07
8.34189e-07 7.44299e-07 -6.85033e-06
0.00129115 1.42726e-05 -3.73727e-07
1.42726e-05 5.56118e-05 -2.06007e-07
-3.73727e-07 -2.06007e-07 -1.05227e-05
0.00122408 8.57966e-06 -1.87956e-06
8.57966e-06 4.74498e-05 -1.52879e-07
-1.87956e-06 -1.52879e-07 -1.65625e-05
0.00127986 -4.79844e-06 8.82268e-07
-4.79844e-06 5.29206e-05 -1.22864e-07
8.82268e-07 -1.22864e-07 -1.31499e-05
0.00121509 -1.09684e-05 1.28509e-08
-1.09684e-05 4.5394e-05 1.85013e-08
1.28509e-08 1.85013e-08 -1.72728e-05
0.00104699 -6.18683e-06 -2.4708e-06
-6.18683e-06 9.61208e-06 5.62633e-07
-2.4708e-06 5.62633e-07 -4.45951e-05
0.00119484 -1.73907e-05 1.35755e-06
-1.73907e-05 4.51146e-05 -4.27963e-07
1.35755e-06 -4.27963e-07 -1.5393e-05
0.00102506 -7.80986e-06 1.63376e-08
-7.80986e-06 6.08687e-06 5.74538e-08
1.63376e-08 5.74538e-08 -4.63567e-05
0.00162424 1.70892e-05 -4.10987e-06
1.70892e-05 0.000372173 7.158e-07
-4.10987e-06 7.158e-07 0.000345834
0.000997327 -5.77986e-06 2.32084e-06
-5.77986e-06 4.47797e-07 -8.64672e-07
2.32084e-06 -8.64672e-07 -5.00274e-05
0.00165096 2.02053e-05 3.04582e-06
2.02053e-05 0.000379471 -6.91829e-07
3.04582e-06 -6.91829e-07 0.000355938
0.00123314 2.68349e-05 -1.67802e-05
2.68349e-05 0.000203295 3.65734e-06
-1.67802e-05 3.65734e-06 0.000194376
0.00163057 2.25344e-05 9.86562e-06
2.25344e-05 0.000365084 -2.61969e-06
9.86562e-06 -2.61969e-06 0.00034435
0.00119636 2.7832e-05 -5.80382e-06
2.7832e-05 0.000172152 1.6107e-06
-5.80382e-06 1.6107e-06 0.000167203
0.00115168 2.81146e-05 4.18708e-06
2.81146e-05 0.000140108 -1.02869e-06
4.18708e-06 -1.02869e-06 0.000138847
0.00150342 -9.45176e-06 -1.0654e-07
-9.45176e-06 0.000105483 9.15203e-07
-1.0654e-07 9.15203e-07 4.2808e-05
0.00140565 1.94116e-05 -1.06942e-06
1.94116e-05 7.13432e-05 -2.25497e-07
-1.06942e-06 -2.25497e-07 -2.0921e-06
0.00153596 1.66482e-05 -4.49859e-07
1.66482e-05 0.00010842 -4.74443e-07
-4.49859e-07 -4.74443e-07 3.33614e-05
0.00133593 2.89157e-05 -8.82534e-07
2.89157e-05 0.000103548 -6.82033e-07
-8.82534e-07 -6.82033e-07 3.74383e-05
0.00142344 3.30618e-05 4.22145e-07
3.30618e-05 0.000115068 4.42404e-07
4.22145e-07 4.42404e-07 4.39173e-05
0.00145067 3.54283e-05 1.20259e-06
3.54283e-05 0.000112835 1.65909e-06
1.20259e-06 1.65909e-06 3.98003e-05
0.000977125 1.10496e-05 -2.34559e-06
1.10496e-05 1.99208e-06 -1.00722e-06
-2.34559e-06 -1.00722e-06 -5.20945e-05
0.001163 2.73342e-05 5.17364e-07
2.73342e-05 5.57744e-05 4.5062e-07
5.17364e-07 4.5062e-07 -8.85901e-06
0.00112489 3.32947e-05 5.93375e-07
3.32947e-05 1.87792e-05 1.00675e-06
5.93375e-07 1.00675e-06 -5.04715e-05
0.000870023 -1.85619e-05 -4.59073e-06
-1.85619e-05 -3.42841e-06 -2.11991e-06
-4.59073e-06 -2.11991e-06 -2.7579e-05
0.000977028 4.20917e-06 3.06184e-09
4.20917e-06 1.91391e-05 -5.31072e-08
3.06184e-09 -5.31072e-08 -3.24118e-05
0.00111548 2.46362e-05 9.11537e-07
2.46362e-05 5.69825e-05 5.865e-07
9.11537e-07 5.865e-07 -6.046e-06
0.000950218 -3.86675e-06 2.22972e-06
-3.86675e-06 1.33362e-05 9.25364e-07
2.22972e-06 9.25364e-07 -3.52506e-05
0.000806911 -2.17577e-05 -8.79138e-10
-2.17577e-05 -3.60682e-05 -3.7203e-08
-8.79138e-10 -3.7203e-08 -5.60714e-05
0.0026055 -3.42165e-05 -1.31919e-05
-3.42165e-05 0.000860085 -2.6871e-06
-1.31919e-05 -2.6871e-06 0.000867639
0.000784014 -2.04291e-05 4.43512e-06
-2.04291e-05 -5.52793e-05 2.23174e-06
4.43512e-06 2.23174e-06 -7.20096e-05
0.00257632 -3.28021e-05 -1.50067e-07
-3.28021e-05 0.000833199 7.68751e-08
-1.50067e-07 7.68751e-08 0.000843318
0.00259343 -3.1134e-05 1.18215e-05
-3.1134e-05 0.000828629 3.03297e-06
1.18215e-05 3.03297e-06 0.000840986
0.00134524 -2.30167e-05 7.02705e-07
-2.30167e-05 7.85507e-05 -4.63772e-07
7.02705e-07 -4.63772e-07 9.4672e-06
0.00142083 -1.71067e-05 -2.0078e-07
-1.71067e-05 7.92661e-05 3.55596e-07
-2.0078e-07 3.55596e-07 1.52618e-05
0.00153579 -2.24605e-05 -8.33695e-08
-2.24605e-05 0.000116342 -1.49629e-06
-8.33695e-08 -1.49629e-06 5.46911e-05
0.00155047 1.25461e-05 1.0067e-06
1.25461e-05 8.48567e-05 -5.19865e-07
1.0067e-06 -5.19865e-07 8.89522e-06
0.00120268 -2.29382e-06 8.04348e-08
-2.29382e-06 4.37675e-05 1.67716e-08
8.04348e-08 1.67716e-08 -2.48036e-05
0.00121615 -2.07445e-06 -2.60505e-07
-2.07445e-06 5.85212e-05 -5.84009e-08
-2.60505e-07 -5.84009e-08 -4.81397e-06
0.00115481 1.45737e-06 -5.72923e-07
1.45737e-06 4.0607e-05 2.23973e-07
-5.72923e-07 2.23973e-07 -1.6156e-05
0.00124643 2.07192e-05 -1.08127e-06
2.07192e-05 6.65985e-05 1.07643e-06
-1.08127e-06 1.07643e-06 1.76837e-06
0.00125102 2.5123e-05 1.92841e-07
2.5123e-05 6.8346e-05 8.13699e-08
1.92841e-07 8.13699e-08 1.53809e-06
0.00124819 2.43474e-05 -5.72296e-07
2.43474e-05 6.89869e-05 -3.047e-07
-5.72296e-07 -3.047e-07 3.52529e-06
0.0012469 2.48737e-05 9.27111e-07
2.48737e-05 4.40349e-05 1.50869e-06
9.27111e-07 1.50869e-06 -1.88322e-05
0.00133004 2.50203e-05 2.69555e-07
2.50203e-05 8.73286e-05 3.20745e-07
2.69555e-07 3.20745e-07 2.32114e-05
0.00122082 2.45887e-05 -1.21863e-06
2.45887e-05 5.13022e-05 -6.36642e-07
-1.21863e-06 -6.36642e-07 -1.24565e-05
0.00127549 1.41459e-05 6.1559e-07
1.41459e-05 4.83449e-05 5.87459e-07
6.1559e-07 5.87459e-07 -1.76178e-05
0.00121457 9.93056e-06 -2.06958e-07
9.93056e-06 4.31933e-05 1.09319e-07
-2.06958e-07 1.09319e-07 -2.07107e-05
0.00106026 7.70853e-06 -2.56931e-06
7.70853e-06 1.43216e-05 2.85133e-07
-2.56931e-06 2.85133e-07 -4.16622e-05
0.00121472 -7.992e-06 1.4285e-06
-7.992e-06 4.50353e-05 -2.61729e-07
1.4285e-06 -2.61729e-07 -1.76461e-05
0.00104719 -6.59753e-06 2.46779e-08
-6.59753e-06 9.70456e-06 5.06573e-08
2.46779e-08 5.06573e-08 -4.45653e-05
0.000713925 6.57531e-06 -5.05271e-06
6.57531e-06 -7.20367e-05 1.07295e-06
-5.05271e-06 1.07295e-06 -0.000105903
0.00101899 -7.24626e-06 2.41049e-06
-7.24626e-06 3.31729e-06 -6.7728e-07
2.41049e-06 -6.7728e-07 -4.91809e-05
0.00119107 1.21921e-05 3.70921e-06
1.21921e-05 0.000157317 -5.80983e-07
3.70921e-06 -5.80983e-07 0.000128222
0.00305732 4.19273e-05 -1.5888e-05
4.19273e-05 0.00111305 1.89846e-06
-1.5888e-05 1.89846e-06 0.00111179
0.00164869 1.80745e-05 1.02555e-05
1.80745e-05 0.000377018 -2.2951e-06
1.02555e-05 -2.2951e-06 0.000353334
0.00121169 2.8103e-05 -6.15075e-06
2.8103e-05 0.000192782 1.45548e-06
-6.15075e-06 1.45548e-06 0.000184147
0.00116382 2.89487e-05 4.42283e-06
2.89487e-05 0.000156347 -9.22766e-07
4.42283e-06 -9.22766e-07 0.000151725
0.001475 -1.81627e-05 5.80146e-07
-1.81627e-05 0.00012157 -6.10668e-07
5.80146e-07 -6.10668e-07 5.54859e-05
0.00136264 -3.09711e-06 -6.1207e-07
-3.09711e-06 5.00384e-05 7.66089e-07
-6.1207e-07 7.66089e-07 -1.55806e-05
0.00139099 -9.10124e-06 1.64441e-07
-9.10124e-06 5.58652e-05 6.96585e-09
1.64441e-07 6.96585e-09 -7.43097e-06
0.00103741 2.0079e-05 -1.57504e-06
2.0079e-05 -6.84896e-05 -5.21626e-07
-1.57504e-06 -5.21626e-07 -0.000137611
0.00144084 1.93625e-05 1.17991e-07
1.93625e-05 9.05561e-05 -1.96272e-09
1.17991e-07 -1.96272e-09 1.83163e-05
0.00151778 1.6208e-05 6.01967e-07
1.6208e-05 9.64328e-05 -6.15804e-07
6.01967e-07 -6.15804e-07 2.12386e-05
0.000770903 1.28483e-05 -3.07588e-06
1.28483e-05 -0.000123985 -1.36983e-06
-3.07588e-06 -1.36983e-06 -0.000181524
0.00133991 2.90855e-05 3.09633e-07
2.90855e-05 0.000105287 1.58741e-08
3.09633e-07 1.58741e-08 3.91186e-05
0.00148674 3.35648e-05 8.46356e-07
3.35648e-05 0.000147941 1.31293e-06
8.46356e-07 1.31293e-06 7.72138e-05
0.00086194 -1.10306e-05 -5.10762e-06
-1.10306e-05 -1.1437e-05 -1.96922e-06
-5.10762e-06 -1.96922e-06 -3.99699e-05
0.000851211 9.90963e-06 -5.01062e-08
9.90963e-06 -5.99661e-05 9.18979e-08
-5.01062e-08 9.18979e-08 -0.000114982
0.00094904 2.56709e-05 1.52128e-06
2.56709e-05 -4.83538e-05 1.27782e-06
1.52128e-06 1.27782e-06 -0.000114025
0.00276677 -3.59581e-05 -1.46047e-05
-3.59581e-05 0.000947746 -2.66387e-06
-1.46047e-05 -2.66387e-06 0.000952463
0.000793427 -1.99972e-05 -9.2847e-08
-1.99972e-05 -3.8377e-05 -8.29814e-08
-9.2847e-08 -8.29814e-08 -6.2495e-05
0.000953958 2.6377e-06 2.02629e-06
2.6377e-06 9.56587e-06 1.03587e-06
2.02629e-06 1.03587e-06 -4.21032e-05
0.000747124 -2.11246e-05 4.54437e-06
-2.11246e-05 -6.40853e-05 2.09022e-06
4.54437e-06 2.09022e-06 -8.39737e-05
0.00263884 -3.46134e-05 -1.33954e-07
-3.46134e-05 0.000874786 7.45096e-08
-1.33954e-07 7.45096e-08 0.000882593
0.00262369 -3.31026e-05 1.2199e-05
-3.31026e-05 0.000854388 2.84206e-06
1.2199e-05 2.84206e-06 0.000864694
0.00122813 -2.21013e-05 -6.029e-08
-2.21013e-05 4.34187e-05 1.0451e-07
-6.029e-08 1.0451e-07 -2.59183e-05
0.0012945 -2.24358e-05 -2.65592e-07
-2.24358e-05 5.74046e-05 -6.22602e-07
-2.65592e-07 -6.22602e-07 -1.04862e-05
0.00142713 -1.67373e-05 -4.98236e-08
-1.67373e-05 7.89632e-05 -8.20306e-07
-4.98236e-08 -8.20306e-07 1.46018e-05
0.00125661 1.12514e-05 -4.7117e-08
1.12514e-05 6.95902e-05 -3.61341e-08
-4.7117e-08 -3.61341e-08 1.51625e-06
0.0012631 2.1433e-07 -1.35612e-07
2.1433e-07 7.23936e-05 5.14339e-08
-1.35612e-07 5.14339e-08 3.66772e-06
0.00126305 -4.62309e-06 -1.22916e-06
-4.62309e-06 8.23992e-05 9.51422e-08
-1.22916e-06 9.51422e-08 1.95468e-05
0.0012399 2.63416e-05 -9.14002e-08
2.63416e-05 6.41028e-05 5.14158e-08
-9.14002e-08 5.14158e-08 -2.49638e-06
0.00124627 2.4608e-05 1.33195e-07
2.4608e-05 6.73805e-05 2.14243e-07
1.33195e-07 2.14243e-07 2.06899e-06
0.00126699 2.03338e-05 -6.81617e-07
2.03338e-05 9.15288e-05 -1.93556e-07
-6.81617e-07 -1.93556e-07 2.88301e-05
0.00128074 2.47626e-05 1.04264e-06
2.47626e-05 6.47189e-05 1.45382e-06
1.04264e-06 1.45382e-06 6.28242e-07
0.00127948 2.57426e-05 3.74797e-08
2.57426e-05 8.18599e-05 4.35808e-08
3.74797e-08 4.35808e-08 1.85962e-05
0.000912694 2.10633e-05 -2.88277e-06
2.10633e-05 -5.49481e-05 -1.39293e-07
-2.88277e-06 -1.39293e-07 -0.000112921
0.00119947 8.9216e-06 1.30697e-06
8.9216e-06 3.63198e-05 3.92196e-07
1.30697e-06 3.92196e-07 -2.74785e-05
0.00104981 8.4898e-06 -2.66757e-08
8.4898e-06 9.55931e-06 8.50478e-08
-2.66757e-08 8.50478e-08 -4.64104e-05
0.000707417 7.90756e-06 -5.0898e-06
7.90756e-06 -6.97556e-05 7.28836e-07
-5.0898e-06 7.28836e-07 -0.000105569
0.00104607 -6.25733e-06 2.54142e-06
-6.25733e-06 9.16797e-06 -4.45922e-07
2.54142e-06 -4.45922e-07 -4.51638e-05
0.000743496 8.84525e-06 -1.62804e-08
8.84525e-06 -5.94754e-05 1.12672e-07
-1.62804e-08 1.12672e-07 -9.32908e-05
0.00315532 4.3534e-05 -1.65521e-05
4.3534e-05 0.00117104 1.48695e-06
-1.65521e-05 1.48695e-06 0.0011678
0.000754027 8.22548e-06 6.93499e-06
8.22548e-06 -5.92777e-05 -1.99554e-06
6.93499e-06 -1.99554e-06 -9.11792e-05
0.00212283 3.53776e-05 3.80175e-06
3.53776e-05 0.000655299 2.57616e-07
3.80175e-06 2.57616e-07 0.000648528
0.00118709 2.94328e-05 4.65159e-06
2.94328e-05 0.000180763 -7.93042e-07
4.65159e-06 -7.93042e-07 0.000172417
0.00149405 -2.53764e-05 7.30104e-08
-2.53764e-05 0.00015403 -1.46719e-07
7.30104e-08 -1.46719e-07 8.54242e-05
0.00134181 -1.42211e-05 -3.1875e-07
-1.42211e-05 6.16746e-05 -2.3054e-07
-3.1875e-07 -2.3054e-07 -2.72687e-06
0.00134808 -1.74142e-05 -3.57165e-07
-1.74142e-05 6.13052e-05 1.38215e-08
-3.57165e-07 1.38215e-08 -4.82076e-06
0.00122633 3.34851e-06 -1.27794e-06
3.34851e-06 1.8444e-05 5.00117e-07
-1.27794e-06 5.00117e-07 -4.68805e-05
0.00131822 -3.54523e-06 3.87243e-07
-3.54523e-06 3.20392e-05 -2.43156e-07
3.87243e-07 -2.43156e-07 -3.33773e-05
0.00127853 -8.79756e-06 4.8473e-07
-8.79756e-06 6.19561e-06 -5.58407e-07
4.8473e-07 -5.58407e-07 -5.77186e-05
0.000798579 1.22431e-05 -3.2764e-06
1.22431e-05 -0.000132601 -1.10116e-06
-3.2764e-06 -1.10116e-06 -0.000192182
0.00130127 2.24733e-05 -4.13718e-07
2.24733e-05 5.9012e-05 2.55459e-08
-4.13718e-07 2.55459e-08 -9.00691e-06
0.00147263 1.92527e-05 1.19389e-06
1.92527e-05 0.000108205 -3.87107e-07
1.19389e-06 -3.87107e-07 3.71552e-05
0.000839357 -4.15626e-06 -5.59929e-06
-4.15626e-06 -2.93405e-05 -1.77834e-06
-5.59929e-06 -1.77834e-06 -6.15526e-05
0.000797451 1.37306e-05 -6.88164e-07
1.37306e-05 -0.00011358 -3.80745e-07
-6.88164e-07 -3.80745e-07 -0.000171577
0.00134411 2.92975e-05 1.46734e-06
2.92975e-05 0.000107135 8.48798e-07
1.46734e-06 8.48798e-07 4.09064e-05
0.00299204 -3.77713e-05 -1.63778e-05
-3.77713e-05 0.00106484 -2.52327e-06
-1.63778e-05 -2.52327e-06 0.00106657
0.000790141 -1.31066e-05 -2.41588e-07
-1.31066e-05 -4.32568e-05 3.46254e-08
-2.41588e-07 3.46254e-08 -7.18529e-05
0.000724759 8.80982e-06 2.05476e-06
8.80982e-06 -0.000122215 1.23278e-06
2.05476e-06 1.23278e-06 -0.000178159
0.00277281 -3.64696e-05 -1.31072e-07
-3.64696e-05 0.000949868 8.2772e-08
-1.31072e-07 8.2772e-08 0.000954963
0.000716116 -2.16383e-05 4.45596e-06
-2.16383e-05 -7.35889e-05 2.13289e-06
4.45596e-06 2.13289e-06 -9.77081e-05
0.00267341 -3.49453e-05 1.26399e-05
-3.49453e-05 0.00089001 2.65753e-06
1.26399e-05 2.65753e-06 0.00089808
0.0012301 -8.0598e-06 -2.99993e-07
-8.0598e-06 4.92959e-05 5.13222e-08
-2.99993e-07 5.13222e-08 -1.91044e-05
0.00127747 -2.14695e-05 4.08086e-07
-2.14695e-05 6.50064e-05 -3.03511e-07
4.08086e-07 -3.03511e-07 -4.26361e-06
0.00124706 -2.17418e-05 -8.60262e-07
-2.17418e-05 3.77991e-05 -9.07453e-07
-8.60262e-07 -9.07453e-07 -2.88929e-05
0.00127669 1.93992e-06 -6.95727e-07
1.93992e-06 9.02906e-05 3.98243e-09
-6.95727e-07 3.98243e-09 2.49862e-05
0.0012908 1.16327e-05 2.38803e-08
1.16327e-05 8.63225e-05 -9.74394e-08
2.38803e-08 -9.74394e-08 1.81293e-05
0.00132015 4.36493e-06 1.81481e-08
4.36493e-06 9.95905e-05 3.07639e-07
1.81481e-08 3.07639e-07 3.06076e-05
0.00124461 2.45743e-05 4.36066e-07
2.45743e-05 6.5904e-05 1.04778e-07
4.36066e-07 1.04778e-07 7.50498e-07
0.001261 2.01042e-05 2.52057e-07
2.01042e-05 8.77844e-05 -5.08764e-09
2.52057e-07 -5.08764e-09 2.52744e-05
0.000869574 1.55526e-05 -2.54512e-06
1.55526e-05 -6.88311e-05 -6.47451e-08
-2.54512e-06 -6.47451e-08 -0.000127232
0.00134333 2.69563e-05 1.31005e-06
2.69563e-05 0.000114787 7.60741e-07
1.31005e-06 7.60741e-07 5.20272e-05
0.000987536 2.24377e-05 -4.46629e-07
2.24377e-05 -1.80343e-05 8.06116e-08
-4.46629e-07 8.06116e-08 -7.55711e-05
0.000711472 1.4672e-05 -5.24339e-06
1.4672e-05 -6.14677e-05 5.72945e-07
-5.24339e-06 5.72945e-07 -9.95801e-05
0.00103901 7.98904e-06 2.41882e-06
7.98904e-06 4.58906e-06 -8.76401e-08
2.41882e-06 -8.76401e-08 -5.1337e-05
0.00072463 1.27154e-05 4.0856e-08
1.27154e-05 -6.26936e-05 2.66202e-08
4.0856e-08 2.66202e-08 -9.85366e-05
0.0031611 4.40127e-05 -1.73785e-05
4.40127e-05 0.00118689 1.07958e-06
-1.73785e-05 1.07958e-06 0.00118168
0.000772656 1.07448e-05 5.0703e-06
1.07448e-05 -4.71189e-05 -8.38378e-07
5.0703e-06 -8.38378e-07 -8.0874e-05
0.00310274 4.2616e-05 1.58549e-07
4.2616e-05 0.00114827 1.26531e-07
1.58549e-07 1.26531e-07 0.0011448
0.00119502 2.63365e-05 1.45099e-05
2.63365e-05 0.000200506 -1.64168e-06
1.45099e-05 -1.64168e-06 0.000188361
0.00142784 -2.04894e-05 -5.20099e-07
-2.04894e-05 0.000128099 -5.66082e-08
-5.20099e-07 -5.66082e-08 6.15013e-05
0.00139623 -2.49405e-05 3.09899e-07
-2.49405e-05 0.000106388 2.91726e-08
3.09899e-07 2.91726e-08 3.71744e-05
0.00123671 -1.37388e-05 -8.97124e-07
-1.37388e-05 3.60036e-05 -6.2161e-09
-8.97124e-07 -6.2161e-09 -2.78082e-05
0.00131917 -1.45346e-05 1.74326e-07
-1.45346e-05 5.14727e-05 -2.54155e-07
1.74326e-07 -2.54155e-07 -1.28216e-05
0.00122234 -1.66728e-05 5.70843e-08
-1.66728e-05 1.65555e-06 6.19798e-07
5.70843e-08 6.19798e-07 -6.45202e-05
0.00106724 3.35767e-06 -2.70336e-06
3.35767e-06 -7.92005e-06 -1.68552e-07
-2.70336e-06 -1.68552e-07 -6.58307e-05
0.00126405 3.46342e-06 2.48462e-08
3.46342e-06 3.52625e-05 1.44887e-07
2.48462e-08 1.44887e-07 -3.01609e-05
0.00127239 -3.9428e-06 4.3734e-07
-3.9428e-06 1.3397e-05 -1.09154e-06
4.3734e-07 -1.09154e-06 -5.18197e-05
0.000803823 -1.19381e-06 -5.86219e-06
-1.19381e-06 -5.01856e-05 -1.48098e-06
-5.86219e-06 -1.48098e-06 -8.48879e-05
0.00095316 1.40031e-05 -8.25485e-07
1.40031e-05 -5.86167e-05 -2.159e-07
-8.25485e-07 -2.159e-07 -0.000117682
0.00156441 2.47699e-05 1.14449e-06
2.47699e-05 0.000186153 4.02519e-07
1.14449e-06 4.02519e-07 0.000119244
0.00319696 -3.942e-05 -1.80532e-05
-3.942e-05 0.00117186 -2.25774e-06
-1.80532e-05 -2.25774e-06 0.00117095
0.000786343 -5.00054e-06 -1.43209e-07
-5.00054e-06 -5.20785e-05 7.36603e-08
-1.43209e-07 7.36603e-08 -8.43876e-05
0.000825504 1.46722e-05 1.78254e-06
1.46722e-05 -0.000102491 7.36902e-07
1.78254e-06 7.36902e-07 -0.000160944
0.0029819 -3.83351e-05 -1.79214e-07
-3.83351e-05 0.00105945 1.22881e-07
-1.79214e-07 1.22881e-07 0.00106159
0.000718944 -1.50126e-05 4.53785e-06
-1.50126e-05 -7.47216e-05 2.21868e-06
4.53785e-06 2.21868e-06 -0.000103376
0.0027798 -3.68352e-05 1.3272e-05
-3.68352e-05 0.000952358 2.53188e-06
1.3272e-05 2.53188e-06 0.000957846
0.00130946 -3.80181e-06 -6.23178e-07
-3.80181e-06 9.9226e-05 -1.39588e-07
-6.23178e-07 -1.39588e-07 3.38438e-05
0.00126392 -1.03535e-05 6.48208e-09
-1.03535e-05 6.5145e-05 -1.20214e-08
6.48208e-09 -1.20214e-08 -3.0515e-06
0.00132772 -2.11702e-05 4.16903e-07
-2.11702e-05 8.71232e-05 -4.37137e-07
4.16903e-07 -4.37137e-07 1.78989e-05
0.00089438 -6.37559e-06 -2.56514e-06
-6.37559e-06 -6.13713e-05 1.15119e-07
-2.56514e-06 1.15119e-07 -0.000121539
0.00128051 7.4826e-06 2.66997e-07
7.4826e-06 9.23979e-05 5.87036e-08
2.66997e-07 5.87036e-08 2.71085e-05
0.00132537 1.23636e-05 3.94818e-07
1.23636e-05 0.000103214 -1.90721e-08
3.94818e-07 -1.90721e-08 3.49082e-05
0.0012557 1.98432e-05 1.10997e-06
1.98432e-05 8.44009e-05 2.89639e-07
1.10997e-06 2.89639e-07 2.20709e-05
0.000886348 1.50577e-05 -4.02519e-07
1.50577e-05 -6.10008e-05 -1.27199e-08
-4.02519e-07 -1.27199e-08 -0.000119254
0.000706305 1.66462e-05 -5.28974e-06
1.66462e-05 -5.90089e-05 2.09865e-07
-5.28974e-06 2.09865e-07 -9.89152e-05
0.00105931 2.43827e-05 2.0242e-06
2.43827e-05 1.75414e-05 2.70306e-07
2.0242e-06 2.70306e-07 -3.95947e-05
0.000716217 1.95912e-05 1.29516e-07
1.95912e-05 -5.98844e-05 1.24978e-07
1.29516e-07 1.24978e-07 -9.80249e-05
0.00316559 4.45744e-05 -1.82238e-05
4.45744e-05 0.00120041 7.01435e-07
-1.82238e-05 7.01435e-07 0.00119347
0.000744786 1.89365e-05 5.01673e-06
1.89365e-05 -5.42348e-05 -6.46541e-07
5.01673e-06 -6.46541e-07 -9.01184e-05
0.00311794 4.31449e-05 2.29572e-07
4.31449e-05 0.00116821 1.08924e-07
2.29572e-07 1.08924e-07 0.00116281
0.00305807 4.167e-05 1.74134e-05
4.167e-05 0.00112918 -1.24807e-06
1.74134e-05 -1.24807e-06 0.00112549
0.00127869 -1.73016e-05 -9.50351e-07
-1.73016e-05 7.35969e-05 -1.81489e-07
-9.50351e-07 -1.81489e-07 8.64988e-06
0.00136781 -2.11327e-05 6.37359e-08
-2.11327e-05 9.82731e-05 2.85852e-07
6.37359e-08 2.85852e-07 3.13598e-05
0.0012948 -2.44028e-05 1.93839e-07
-2.44028e-05 5.69352e-05 2.91277e-07
1.93839e-07 2.91277e-07 -1.28694e-05
0.00106406 -1.16613e-05 -2.40413e-06
-1.16613e-05 -5.65086e-07 -3.30341e-07
-2.40413e-06 -3.30341e-07 -5.81963e-05
0.0012451 -1.40779e-05 1.85598e-07
-1.40779e-05 4.0008e-05 -1.88424e-07
1.85598e-07 -1.88424e-07 -2.38344e-05
0.00129728 -1.48409e-05 9.19049e-08
-1.48409e-05 4.15863e-05 -4.54885e-07
9.19049e-08 -4.54885e-07 -2.25961e-05
0.00075542 -4.61934e-06 -5.75491e-06
-4.61934e-06 -6.99696e-05 -1.06301e-06
-5.75491e-06 -1.06301e-06 -0.000105793
0.00109569 3.0717e-06 -5.3388e-10
3.0717e-06 5.1401e-06 1.91076e-07
-5.3388e-10 1.91076e-07 -5.28747e-05
0.00130161 3.52805e-06 1.36904e-06
3.52805e-06 5.20114e-05 -1.7359e-07
1.36904e-06 -1.7359e-07 -1.35122e-05
0.00331824 -4.07537e-05 -1.92871e-05
-4.07537e-05 0.00123948 -1.87395e-06
-1.92871e-05 -1.87395e-06 0.00123648
0.000773125 -1.37144e-06 -5.64901e-08
-1.37144e-06 -6.29226e-05 1.48728e-07
-5.64901e-08 1.48728e-07 -9.77141e-05
0.0011079 1.58473e-05 2.04547e-06
1.58473e-05 1.54626e-05 7.22634e-07
2.04547e-06 7.22634e-07 -4.30928e-05
0.00319515 -4.0079e-05 -1.5957e-07
-4.0079e-05 0.00117021 1.40062e-07
-1.5957e-07 1.40062e-07 0.00116963
0.000733199 -6.12088e-06 5.17835e-06
-6.12088e-06 -7.4856e-05 2.02005e-06
5.17835e-06 2.02005e-06 -0.000107256
0.00297191 -3.88522e-05 1.44972e-05
-3.88522e-05 0.00105404 2.46009e-06
1.44972e-05 2.46009e-06 0.00105661
0.00106539 -7.75935e-06 -2.20617e-06
-7.75935e-06 1.77421e-05 -2.12087e-07
-2.20617e-06 -2.12087e-07 -4.16231e-05
0.00122873 -7.69089e-06 2.05454e-07
-7.69089e-06 6.01421e-05 -1.6219e-08
2.05454e-07 -1.6219e-08 -5.85465e-06
0.00129318 -1.36535e-05 7.13412e-07
-1.36535e-05 7.8743e-05 1.1668e-07
7.13412e-07 1.1668e-07 1.07503e-05
0.00069908 4.07304e-06 -5.24177e-06
4.07304e-06 -6.25792e-05 1.34068e-08
-5.24177e-06 1.34068e-08 -0.000103294
0.000898124 -6.39063e-07 -3.62282e-07
-6.39063e-07 -5.86528e-05 1.77239e-07
-3.62282e-07 1.77239e-07 -0.000118572
0.00128688 1.26492e-05 1.14134e-06
1.26492e-05 9.57738e-05 -6.66168e-08
1.14134e-06 -6.66168e-08 3.04821e-05
0.000904969 1.49324e-05 1.7426e-06
1.49324e-05 -5.23544e-05 1.98475e-07
1.7426e-06 1.98475e-07 -0.000110459
0.000707578 1.71146e-05 3.50749e-08
1.71146e-05 -5.89708e-05 4.78491e-08
3.50749e-08 4.78491e-08 -9.88499e-05
0.00316433 4.49931e-05 -1.87277e-05
4.49931e-05 0.00120858 2.90351e-07
-1.87277e-05 2.90351e-07 0.00120026
0.000719138 2.33436e-05 5.23415e-06
2.33436e-05 -5.91706e-05 -2.82224e-07
5.23415e-06 -2.82224e-07 -9.73356e-05
0.00312971 4.36233e-05 4.71591e-07
4.36233e-05 0.00118486 1.429e-07
4.71591e-07 1.429e-07 0.00117775
0.00307126 4.19794e-05 1.86274e-05
4.19794e-05 0.00114785 -8.78834e-07
1.86274e-05 -8.78834e-07 0.00114227
0.00106044 -1.54523e-05 -2.36885e-06
-1.54523e-05 1.00463e-05 -4.7429e-07
-2.36885e-06 -4.7429e-07 -4.84421e-05
0.00123378 -1.84006e-05 -2.31902e-08
-1.84006e-05 5.19023e-05 3.18815e-08
-2.31902e-08 3.18815e-08 -1.32406e-05
0.00131133 -2.1888e-05 4.9798e-07
-2.1888e-05 7.02349e-05 2.55071e-07
4.9798e-07 2.55071e-07 2.98679e-06
0.00171539 -2.01289e-05 -1.03933e-05
-2.01289e-05 0.000412731 -8.22124e-07
-1.03933e-05 -8.22124e-07 0.000381888
0.00108688 -1.19431e-05 1.5415e-07
-1.19431e-05 1.01036e-05 -4.89833e-08
1.5415e-07 -4.89833e-08 -4.76208e-05
0.00125535 -1.46297e-05 1.08287e-06
-1.46297e-05 4.49019e-05 -3.79187e-07
1.08287e-06 -3.79187e-07 -1.89789e-05
0.00330117 -4.16394e-05 -1.97021e-05
-4.16394e-05 0.00124315 -1.40286e-06
-1.97021e-05 -1.40286e-06 0.00123857
0.000753998 -3.66664e-06 3.54829e-08
-3.66664e-06 -6.98193e-05 1.85082e-07
3.54829e-08 1.85082e-07 -0.000105757
0.00112505 2.58091e-06 2.89595e-06
2.58091e-06 1.86357e-05 6.20191e-07
2.89595e-06 6.20191e-07 -3.94909e-05
0.00333828 -4.14492e-05 -1.53307e-07
-4.14492e-05 0.00124775 1.54682e-07
-1.53307e-07 1.54682e-07 0.00124497
0.000743938 -1.37437e-06 5.61554e-06
-1.37437e-06 -7.49862e-05 1.78962e-06
5.61554e-06 1.78962e-06 -0.000109863
0.00318936 -4.06573e-05 1.63244e-05
-4.06573e-05 0.00116666 2.31672e-06
1.63244e-05 2.31672e-06 0.00116644
0.00069065 -7.05335e-06 -7.62911e-06
-7.05335e-06 -7.13071e-05 -7.36286e-07
-7.62911e-06 -7.36286e-07 -0.000112103
0.000997814 -9.92251e-06 9.18364e-08
-9.92251e-06 -1.54677e-05 1.26399e-07
9.18364e-08 1.26399e-07 -7.52822e-05
0.00114579 -1.12833e-05 1.18252e-06
-1.12833e-05 1.99138e-05 2.19483e-07
1.18252e-06 2.19483e-07 -4.66497e-05
0.00317576 -4.76976e-06 -1.78925e-05
-4.76976e-06 0.00121843 -9.59251e-08
-1.78925e-05 -9.59251e-08 0.00120938
0.000710503 5.31964e-06 6.66849e-08
5.31964e-06 -5.75874e-05 1.43033e-07
6.66849e-08 1.43033e-07 -9.83511e-05
0.00089836 5.14627e-06 1.74238e-06
5.14627e-06 -5.76769e-05 1.84785e-07
1.74238e-06 1.84785e-07 -0.000117325
0.000713547 1.71378e-05 5.2038e-06
1.71378e-05 -5.68425e-05 -1.08128e-07
5.2038e-06 -1.08128e-07 -9.66702e-05
0.00315812 4.44687e-05 1.04925e-06
4.44687e-05 0.0012065 1.48269e-07
1.04925e-06 1.48269e-07 0.00119807
0.00310053 4.27932e-05 1.97697e-05
4.27932e-05 0.00117242 -4.48214e-07
1.97697e-05 -4.48214e-07 0.00116515
0.00166331 -2.57406e-05 -1.28271e-05
-2.57406e-05 0.000399394 -1.11374e-06
-1.28271e-05 -1.11374e-06 0.000366586
0.00107558 -1.45519e-05 2.92458e-08
-1.45519e-05 1.69306e-05 1.8997e-08
2.92458e-08 1.8997e-08 -4.15524e-05
0.00118795 -1.9404e-05 8.20103e-07
-1.9404e-05 2.97615e-05 2.31339e-07
8.20103e-07 2.31339e-07 -3.55721e-05
0.00323387 -4.67689e-05 -8.09217e-06
-4.67689e-05 0.00122349 -4.52981e-07
-8.09217e-06 -4.52981e-07 0.00121733
0.000759031 -1.19466e-05 3.47962e-08
-1.19466e-05 -5.7078e-05 4.88168e-08
3.47962e-08 4.88168e-08 -9.40392e-05
0.0011096 -1.17286e-05 2.64027e-06
-1.17286e-05 2.06998e-05 2.37829e-07
2.64027e-06 2.37829e-07 -3.71021e-05
0.00336001 -4.23183e-05 -1.7928e-07
-4.23183e-05 0.00126902 1.57716e-07
-1.7928e-07 1.57716e-07 0.00126456
0.000752097 -2.19318e-06 5.90004e-06
-2.19318e-06 -6.99228e-05 1.42086e-06
5.90004e-06 1.42086e-06 -0.000105968
0.00335532 -4.21559e-05 1.79875e-05
-4.21559e-05 0.00125467 2.05295e-06
1.79875e-05 2.05295e-06 0.00125212
0.00123521 -1.52275e-05 -1.86437e-05
-1.52275e-05 0.000262857 -3.37474e-07
-1.86437e-05 -3.37474e-07 0.00024159
0.00121978 -1.09486e-05 -3.89443e-06
-1.09486e-05 0.000187807 1.68566e-07
-3.89443e-06 1.68566e-07 0.000150497
0.000932726 -9.45955e-06 2.30177e-06
-9.45955e-06 -4.74548e-05 4.72485e-07
2.30177e-06 4.72485e-07 -0.000107681
0.00318633 2.41972e-06 7.17472e-07
2.41972e-06 0.00122296 4.42177e-09
7.17472e-07 4.42177e-09 0.00121401
0.000713425 6.06541e-06 5.31095e-06
6.06541e-06 -5.64341e-05 2.60815e-07
5.31095e-06 2.60815e-07 -9.7267e-05
0.00313689 4.30788e-05 1.92977e-05
4.30788e-05 0.00119755 -5.38276e-08
1.92977e-05 -5.38276e-08 0.00118902
0.00119824 -2.70486e-05 -5.36369e-06
-2.70486e-05 0.000236864 -4.47188e-07
-5.36369e-06 -4.47188e-07 0.000217098
0.00125219 -1.78735e-05 -3.70393e-06
-1.78735e-05 0.000196574 -1.59164e-08
-3.70393e-06 -1.59164e-08 0.000160826
0.00109148 -1.53765e-05 2.286e-06
-1.53765e-05 2.42338e-05 4.98554e-07
2.286e-06 4.98554e-07 -3.43081e-05
0.00229116 -3.51014e-05 6.87857e-06
-3.51014e-05 0.000759037 3.47734e-07
6.87857e-06 3.47734e-07 0.000747016
0.000745847 -7.81644e-06 5.791e-06
-7.81644e-06 -6.25162e-05 1.06315e-06
5.791e-06 1.06315e-06 -9.95653e-05
0.00342265 -4.31904e-05 1.93179e-05
-4.31904e-05 0.00129671 1.67322e-06
1.93179e-05 1.67322e-06 0.00129237
0.00320338 -4.32343e-05 -1.0335e-06
-4.32343e-05 0.00122831 1.80642e-07
-1.0335e-06 1.80642e-07 0.00121952
0.000724402 -6.07854e-06 5.55317e-06
-6.07854e-06 -5.47607e-05 8.26464e-07
5.55317e-06 8.26464e-07 -9.53252e-05
0.00320591 6.40929e-06 1.96112e-05
6.40929e-06 0.0012317 -3.10843e-08
1.96112e-05 -3.10843e-08 0.00122265
0.00222021 -3.49049e-05 6.98174e-06
-3.49049e-05 0.000738971 2.04995e-07
6.98174e-06 2.04995e-07 0.000724996
0.000734079 -1.05084e-05 5.53402e-06
-1.05084e-05 -5.64656e-05 1.06304e-06
5.53402e-06 1.06304e-06 -9.53784e-05
0.00336353 -4.37039e-05 1.981e-05
-4.37039e-05 0.00128124 1.23359e-06
1.981e-05 1.23359e-06 0.00127541
0.00324046 -4.47164e-05 1.94254e-05
-4.47164e-05 0.00124409 4.32965e-07
1.94254e-05 4.32965e-07 0.00123548
0.00327909 -4.43528e-05 1.95888e-05
-4.43528e-05 0.00125372 8.43929e-07
1.95888e-05 8.43929e-07 0.00124639
