# vtk DataFile Version 2.0
Wound Healing Simulation
ASCII
DATASET UNSTRUCTURED_GRID
POINTS 3012 float
69.9759 18.75 4
67.2507 60.3285 4
69.976 18.75 2
73.0099 25.446 4
71.1327 20.9142 4
68.6801 16.6661 4
67.8242 19.9263 3.97955
67.2507 60.3286 2
71.1327 54.0858 4
68.6801 58.3339 4
65.6939 62.2254 4
65.3108 59.0006 3.97855
74.6784 42.3946 4
73.7221 47.2057 4
69.9759 18.75 0
73.0099 25.446 2
68.6801 16.6661 2
71.1327 20.9142 2
67.8248 19.9298 2
74.6792 32.6053 4
73.7222 27.7943 4
72.1454 23.1494 4
70.6131 26.2211 3.97917
68.8845 21.958 3.97999
67.2507 14.6715 4
66.6357 17.9725 3.97869
65.7931 21.0275 3.96875
67.2507 60.3285 0
71.1327 54.0858 2
68.6801 58.3339 2
65.694 62.2255 2
65.3122 58.9962 2
72.1454 51.8506 4
69.9759 56.25 4
68.8351 53.113 3.97918
64.0165 64.0165 4
66.6094 57.1333 3.97911
63.8839 60.7648 3.97888
63.4965 57.7671 3.96939
60.3285 67.2507 4
74.6792 42.3947 2
73.7222 47.2057 2
74.9194 39.9526 4
74.2788 44.8158 4
72.1675 42.0856 3.97914
73.0099 49.554 4
71.2483 46.598 3.97854
73.0099 25.446 0
71.1327 20.9142 0
68.6801 16.6661 0
67.8242 19.9263 0.0204472
74.6792 32.6053 2
73.7222 27.7943 2
67.2508 14.6715 2
72.1455 23.1494 2
70.613 26.2216 2
66.6367 17.977 2
68.8848 21.9603 2
65.7924 21.0285 2
74.9197 35.0474 4
74.2794 30.1841 4
72.1841 32.9436 3.97942
71.2773 28.4316 3.97882
69.8144 24.0596 3.97976
68.3434 26.9527 3.96812
66.7588 22.9349 3.9684
65.694 12.7746 4
65.3219 16.1048 3.97794
64.7095 19.1986 3.9691
63.8657 22.0446 3.96567
71.1327 54.0858 0
65.6939 62.2254 0
68.6801 58.3339 0
65.3108 59.0006 0.0214525
72.1455 51.8506 2
69.9759 56.25 2
68.8353 53.1109 2
64.0165 64.0165 2
66.6103 57.1291 2
63.8858 60.7608 2
63.4957 57.7669 2
62.2254 65.694 4
58.8935 65.4137 3.98858
69.7677 50.9889 3.97891
67.7825 55.1671 3.97927
66.6456 52.2077 3.96782
62.3343 62.4263 3.98179
64.6568 56.0288 3.96915
62.1985 59.3966 3.96879
61.8145 56.6723 3.96543
58.3339 68.6801 4
60.3285 67.2508 2
73.7221 47.2057 0
74.6784 42.3946 0
74.9197 39.9526 2
74.2794 44.8159 2
72.1669 42.0855 2
73.0099 49.554 2
71.2481 46.5977 2
75 37.5 4
72.4048 39.8023 3.97984
71.7817 44.3528 3.9791
69.8013 41.7898 3.96863
70.574 48.8135 3.97856
68.9088 46.0142 3.96805
74.6792 32.6053 0
73.7222 27.7943 0
67.2507 14.6715 0
72.1454 23.1494 0
70.6131 26.2211 0.0208343
68.8845 21.958 0.0200089
66.6357 17.9725 0.0213103
65.7931 21.0275 0.0312476
74.9197 35.0474 2
74.2794 30.1841 2
72.1835 32.944 2
71.2771 28.432 2
65.694 12.7745 2
65.3235 16.1097 2
69.8145 24.0608 2
68.3432 26.9533 2
64.7086 19.1994 2
66.7583 22.9358 2
63.8656 22.0451 2
72.4126 35.2244 3.97989
71.8031 30.6765 3.97938
69.8374 33.2692 3.96879
68.9629 29.0393 3.96821
67.6077 24.9134 3.96819
66.163 27.6425 3.96698
64.0165 10.9835 4
64.7296 23.839 3.96615
63.888 14.3292 3.97897
63.5085 17.4534 3.96959
62.8899 20.3308 3.96493
62.0238 22.9681 3.96708
60.6824 11.0997 3.98314
57.6104 11.4546 3.9747
72.1454 51.8506 0
69.9759 56.25 0
68.8351 53.113 0.0208222
64.0165 64.0165 0
63.8839 60.7648 0.0211169
66.6094 57.1333 0.0208914
63.4965 57.7671 0.0306136
62.2255 65.694 2
58.8951 65.4126 2
69.7677 50.9878 2
67.7829 55.1638 2
66.645 52.2069 2
62.3365 62.4229 2
64.6559 56.0281 2
62.1976 59.3972 2
61.8139 56.6721 2
60.667 63.9757 3.98464
57.0246 66.7346 3.99003
57.556 63.6869 3.97739
67.5037 50.1755 3.96758
65.698 54.1714 3.96831
64.5059 51.3757 3.96553
60.7695 60.9287 3.97164
62.8086 55.0602 3.96492
60.6486 58.1458 3.96474
60.3092 55.7688 3.96429
56.25 69.9759 4
58.3339 68.6801 2
60.3285 67.2507 0
58.9201 9.6573 3.98609
62.2254 9.30607 4
73.0099 49.554 0
74.2788 44.8158 0
71.2483 46.598 0.0214607
72.1675 42.0856 0.020863
74.9194 39.9526 0
75 37.5 2
72.4047 39.8024 2
71.7816 44.3525 2
69.8007 41.7894 2
70.5738 48.8131 2
68.9088 46.0137 2
72.4882 37.5122 3.97948
70.0388 39.6577 3.9688
69.4274 43.9073 3.96847
67.5673 41.4946 3.96881
68.2623 48.1062 3.96769
66.67 45.4328 3.96777
74.9197 35.0474 0
74.2794 30.1841 0
72.1841 32.9436 0.0205843
71.2773 28.4316 0.0211764
65.694 12.7746 0
65.3219 16.1048 0.0220613
69.8144 24.0596 0.0202413
68.3434 26.9527 0.0318849
66.7588 22.9349 0.0315958
64.7095 19.1986 0.0309022
63.8657 22.0446 0.0343259
72.4126 35.2245 2
71.8031 30.6771 2
69.8367 33.2697 2
68.9628 29.0398 2
64.0165 10.9835 2
63.8902 14.3337 2
63.5076 17.4542 2
67.6074 24.9142 2
66.1632 27.6429 2
62.8902 20.3311 2
64.7294 23.8395 2
62.0232 22.9686 2
60.6852 11.1032 2
57.6123 11.454 2
70.0555 35.3926 3.9689
69.4643 31.1504 3.96848
67.629 33.5948 3.96844
66.7401 29.6297 3.96735
65.4928 25.7079 3.96652
64.0467 28.2768 3.97075
62.3399 12.6571 3.98123
62.7764 24.6614 3.96848
62.1942 15.7956 3.96987
61.8026 18.6971 3.96481
61.1579 21.3679 3.96526
60.3025 23.7681 3.96973
59.2433 12.7923 3.97291
55.8726 10.2402 3.9774
56.4012 13.1391 3.97204
69.7677 50.9889 0.0210883
62.2254 65.694 0
58.8935 65.4137 0.0114246
67.7825 55.1671 0.0207313
66.6456 52.2077 0.032184
62.3343 62.4263 0.0182055
62.1985 59.3966 0.0312147
64.6568 56.0288 0.0308532
61.8145 56.6723 0.0345729
60.6691 63.9738 2
57.0258 66.7339 2
57.5564 63.6878 2
67.5033 50.1748 2
65.6972 54.1706 2
64.5059 51.3754 2
60.7687 60.93 2
62.8086 55.0601 2
60.6483 58.1461 2
60.3097 55.7687 2
55.0706 67.9315 3.99135
59.216 62.3568 3.9728
55.8033 64.9059 3.98132
56.3225 62.0727 3.97402
65.2924 49.3985 3.96614
63.6843 53.2838 3.96512
62.3499 50.6268 3.96739
59.3252 59.5413 3.96604
61.0373 54.2898 3.96581
59.2682 56.9912 3.96317
59.2054 55.159 3.96596
48.101 68.5769 3.98676
50.9484 69.9312 3.99151
54.0858 71.1327 4
56.25 69.976 2
58.3339 68.6801 0
57.0575 8.33688 3.98717
60.3285 7.74928 4
58.9229 9.6594 2
62.2255 9.30602 2
70.574 48.8135 0.0214428
71.7817 44.3528 0.0209008
68.9088 46.0142 0.0319518
69.8013 41.7898 0.0313669
72.4048 39.8023 0.0201588
75 37.5 0
72.4876 37.5123 2
70.0386 39.6576 2
69.4272 43.9069 2
67.5672 41.4944 2
68.2621 48.1055 2
66.6694 45.4324 2
70.1268 37.522 3.96889
67.8087 39.5113 3.96898
67.1869 43.4648 3.96818
65.4498 41.2004 3.97393
66.0269 47.4092 3.96708
64.5341 44.8294 3.97147
72.4126 35.2244 0.0201107
71.8031 30.6765 0.020621
69.8374 33.2692 0.031213
68.9629 29.0393 0.0317888
64.0165 10.9835 0
63.888 14.3292 0.0210256
63.5085 17.4534 0.0304065
67.6077 24.9134 0.0318055
66.163 27.6425 0.0330159
64.7296 23.839 0.0338488
62.8899 20.3308 0.0350739
62.0238 22.9681 0.0329156
60.6824 11.0997 0.0168582
57.6104 11.4546 0.0252999
70.0554 35.3928 2
69.4642 31.1509 2
67.6289 33.595 2
66.7399 29.6301 2
62.3423 12.6615 2
62.1934 15.7956 2
61.8019 18.6974 2
65.4928 25.7084 2
64.0451 28.2773 2
61.1569 21.3683 2
62.7757 24.6619 2
60.3022 23.7689 2
59.2449 12.7909 2
56.4023 13.1367 2
55.8741 10.2398 2
67.8483 35.5497 3.96891
67.236 31.6279 3.96799
65.6022 33.9365 3.97357
64.5619 30.2101 3.97172
63.4479 26.4372 3.96961
62.0911 28.8111 3.97511
60.7717 14.2353 3.97177
60.9076 25.3769 3.972
60.6011 17.1453 3.9658
60.1743 19.8441 3.96294
59.545 22.3015 3.96639
58.8116 24.3739 3.97257
54.0362 9.14132 3.97971
57.9042 14.3548 3.97125
54.7832 12.0277 3.97381
55.3043 14.6808 3.96978
67.5037 50.1755 0.0324151
57.0246 66.7346 0.0099739
60.667 63.9757 0.0153647
57.556 63.6869 0.0226123
65.698 54.1714 0.0316939
64.5059 51.3757 0.0344668
60.7695 60.9287 0.0283599
60.6486 58.1458 0.0352571
62.8086 55.0602 0.035077
60.3092 55.7688 0.0357129
55.0715 67.9313 2
59.2165 62.3586 2
55.8035 64.9066 2
56.3218 62.0752 2
65.2923 49.3981 2
63.6844 53.2835 2
62.3495 50.6264 2
59.3243 59.5424 2
61.0381 54.2897 2
59.2696 56.9912 2
59.2073 55.1589 2
53.0426 68.9993 3.99139
53.9657 66.0108 3.98382
57.8746 60.853 3.97195
54.6813 63.1997 3.97672
55.2034 60.5912 3.97209
63.0879 48.6362 3.9688
61.6722 52.5519 3.96661
60.1176 49.9786 3.96942
58.0015 58.2414 3.96597
59.2548 53.9168 3.96728
58.0644 55.7807 3.96111
50.1078 67.8553 3.98634
47.462 66.5765 3.98283
46.0548 69.1559 3.98703
48.1011 68.5775 2
48.8023 70.7225 3.99163
50.9489 69.9311 2
51.8506 72.1454 4
54.0858 71.1327 2
56.25 69.9759 0
55.1023 7.1413 3.98942
58.3339 6.31992 4
57.0597 8.3383 2
60.3286 7.74926 2
58.9201 9.6573 0.0139066
62.2254 9.30607 0
68.2623 48.1062 0.0323061
69.4274 43.9073 0.0315291
66.67 45.4328 0.0322317
67.5673 41.4946 0.0311865
70.0388 39.6577 0.0311962
72.4882 37.5122 0.0205193
70.1263 37.5221 2
67.8081 39.5111 2
67.1876 43.4646 2
65.4481 41.2002 2
66.0271 47.4088 2
64.5323 44.8288 2
67.9084 37.5226 3.96898
65.688 39.3657 3.97457
65.0657 43.011 3.97292
63.5779 40.9129 3.97725
63.8474 46.6939 3.96998
62.619 44.1871 3.97562
70.0555 35.3926 0.0310967
69.4643 31.1504 0.0315163
67.629 33.5948 0.0315597
66.7401 29.6297 0.0326531
62.3399 12.6571 0.0187744
62.1942 15.7956 0.0301281
61.8026 18.6971 0.0351917
65.4928 25.7079 0.0334793
64.0467 28.2768 0.0292459
62.7764 24.6614 0.0315201
61.1579 21.3679 0.0347405
60.3025 23.7681 0.0302683
59.2433 12.7923 0.0270887
56.4012 13.1391 0.0279621
55.8726 10.2402 0.0226022
67.8476 35.5499 2
67.2365 31.6281 2
65.6 33.9367 2
64.5601 30.2106 2
60.7715 14.2364 2
60.6004 17.1454 2
60.1755 19.844 2
63.4468 26.4378 2
62.0887 28.8119 2
59.5465 22.3022 2
60.9071 25.3777 2
58.8106 24.3752 2
57.9047 14.3529 2
55.3053 14.6799 2
54.0376 9.13976 2
54.7845 12.0247 2
65.7807 35.6718 3.97425
65.0804 32.1685 3.97233
64.1333 34.2633 3.97739
62.412 30.6652 3.97615
61.4964 27.1094 3.97318
60.6387 29.1837 3.9771
59.3021 15.6891 3.96708
59.1367 25.8503 3.97547
59.099 18.3822 3.96269
58.6464 20.8976 3.96323
58.1225 23.1497 3.96734
57.7787 24.728 3.97413
52.1114 8.15701 3.98274
53.0555 11.0287 3.97497
56.6648 15.7734 3.96975
53.8033 13.7106 3.97282
54.3605 16.0375 3.9702
55.0706 67.9315 0.00865265
65.2924 49.3985 0.0338612
55.8033 64.9059 0.0186802
59.216 62.3568 0.0272041
56.3225 62.0727 0.0259768
63.6843 53.2838 0.0348754
62.3499 50.6268 0.032611
59.3252 59.5413 0.0339569
59.2682 56.9912 0.036828
61.0373 54.2898 0.0341902
59.2054 55.159 0.0340402
53.0433 68.9993 2
53.9659 66.0115 2
57.8737 60.8548 2
54.6808 63.2005 2
55.203 60.5931 2
63.0869 48.6357 2
61.6728 52.5518 2
60.1176 49.9779 2
58.0007 58.2423 2
59.2573 53.9166 2
58.0622 55.7795 2
52.069 66.9981 3.9859
52.9521 64.2125 3.98038
56.6364 59.467 3.96993
53.6754 61.607 3.9759
54.2455 59.293 3.97334
60.8027 47.8395 3.97059
59.5843 52.067 3.96797
57.819 49.5636 3.97136
56.7442 56.96 3.96594
57.0202 54.081 3.96552
50.1078 67.8556 2
49.336 65.9173 3.98287
47.4621 66.5771 2
46.8912 64.7291 3.98128
45.557 67.0933 3.98282
43.9722 69.5878 3.9874
46.0549 69.1564 2
46.6088 71.3669 3.99172
48.101 68.5769 0.013244
48.8029 70.7226 2
49.554 73.0099 4
50.9484 69.9312 0.00849029
51.8506 72.1455 2
54.0858 71.1327 0
53.0642 6.07227 3.99111
55.1042 7.14154 2
56.25 5.02411 4
58.3339 6.3199 2
57.0575 8.33688 0.0128251
60.3285 7.74928 0
66.0269 47.4092 0.032923
67.1869 43.4648 0.0318228
64.5341 44.8294 0.0285346
65.4498 41.2004 0.0260684
67.8087 39.5113 0.031017
70.1268 37.522 0.0311082
67.9083 37.5227 2
65.6863 39.3655 2
65.0634 43.0106 2
63.5752 40.9122 2
63.8459 46.6933 2
62.6166 44.1862 2
65.794 37.5021 3.97443
63.7277 39.2586 3.97703
63.1425 42.5267 3.97681
62.2013 40.6766 3.97692
61.775 45.8835 3.97303
61.2057 43.6448 3.97709
67.8483 35.5497 0.0310923
67.236 31.6279 0.0320114
65.6022 33.9365 0.0264302
64.5619 30.2101 0.0282812
60.7717 14.2353 0.0282322
60.6011 17.1453 0.034196
60.1743 19.8441 0.0370593
63.4479 26.4372 0.0303863
62.0911 28.8111 0.0248934
60.9076 25.3769 0.0279975
59.545 22.3015 0.0336055
58.8116 24.3739 0.0274338
57.9042 14.3548 0.0287473
55.3043 14.6808 0.0302237
54.0362 9.14132 0.0202864
54.7832 12.0277 0.026194
65.779 35.6719 2
65.0783 32.1689 2
64.1311 34.2638 2
62.4104 30.6659 2
59.3008 15.69 2
59.1003 18.3819 2
58.6514 20.8978 2
61.4949 27.1102 2
60.6375 29.1847 2
58.1198 23.1514 2
59.1361 25.8515 2
57.7788 24.7298 2
56.6651 15.7715 2
54.3616 16.0389 2
53.8035 13.7035 2
52.1122 8.1559 2
53.0568 11.027 2
63.9307 35.6403 3.97691
62.7396 33.0692 3.9766
60.3699 30.6566 3.97649
59.35 27.963 3.9763
57.9224 17.012 3.96487
57.5218 25.7939 3.97647
57.6572 19.5164 3.96037
57.2261 21.9007 3.96334
56.9775 24.0189 3.96819
50.112 7.28732 3.98608
51.2312 10.133 3.97794
52.1667 12.8158 3.97609
55.5165 17.0095 3.96725
52.9671 15.3037 3.97048
53.7365 17.025 3.97658
53.0426 68.9993 0.00861438
53.9657 66.0108 0.0161764
63.0879 48.6362 0.0312005
54.6813 63.1997 0.0232841
57.8746 60.853 0.0280454
55.2034 60.5912 0.0279097
61.6722 52.5519 0.0333914
60.1176 49.9786 0.0305794
58.0015 58.2414 0.0340263
58.0644 55.7807 0.0388898
59.2548 53.9168 0.0327229
52.0692 66.9988 2
52.9519 64.2133 2
56.6359 59.4684 2
53.6745 61.6069 2
54.2452 59.2951 2
60.8016 47.8386 2
59.5846 52.0664 2
57.8167 49.5623 2
56.7426 56.9641 2
57.0181 54.0797 2
51.1672 65.1239 3.98249
52.0428 62.5298 3.97756
55.4591 58.2246 3.9724
52.8228 60.1072 3.977
53.6182 58.4432 3.97752
58.0327 46.7906 3.97463
57.4027 51.7376 3.96791
55.9971 49.4908 3.97084
55.4158 55.7559 3.96305
55.2275 53.3347 3.9626
50.1078 67.8553 0.0136649
49.336 65.9175 2
48.617 64.1167 3.98172
47.462 66.5765 0.0171651
45.5572 67.0938 2
46.8913 64.7296 2
46.3805 63.044 3.98231
45.1315 65.1892 3.98067
43.6303 67.4639 3.98328
41.8598 69.8748 3.98702
43.9721 69.5883 2
44.376 71.8617 3.99175
46.0548 69.1559 0.0129699
46.6093 71.3671 2
47.2057 73.7222 4
48.8023 70.7225 0.0083744
49.554 73.0099 2
51.8506 72.1454 0
50.9545 5.13273 3.99183
53.0654 6.07237 2
54.0858 3.86728 4
55.1023 7.1413 0.0105761
56.25 5.02406 2
58.3339 6.31992 0
63.8474 46.6939 0.0300173
65.0657 43.011 0.0270803
62.619 44.1871 0.0243809
63.5779 40.9129 0.0227471
65.688 39.3657 0.0254319
67.9084 37.5226 0.0310198
65.7922 37.5021 2
63.7249 39.2584 2
63.1402 42.5259 2
62.1993 40.676 2
61.773 45.8825 2
61.2038 43.6439 2
63.7896 37.4573 3.97691
61.9176 39.3417 3.97699
60.9528 41.9251 3.9769
59.9936 44.724 3.97671
65.7807 35.6718 0.0257527
65.0804 32.1685 0.0276709
64.1333 34.2633 0.0226148
62.412 30.6652 0.0238481
59.3021 15.6891 0.0329224
59.099 18.3822 0.037314
58.6464 20.8976 0.0367695
61.4964 27.1094 0.0268192
60.6387 29.1837 0.0229012
59.1367 25.8503 0.0245308
58.1225 23.1497 0.0326559
57.7787 24.728 0.0258686
56.6648 15.7734 0.0302537
54.3605 16.0375 0.0298039
53.8033 13.7106 0.0271805
52.1114 8.15701 0.0172569
53.0555 11.0287 0.0250296
63.928 35.6406 2
62.7378 33.0699 2
60.3685 30.6574 2
57.9207 17.0127 2
57.6627 19.5152 2
57.2282 21.9018 2
59.3487 27.9642 2
56.9786 24.021 2
57.5204 25.796 2
50.1126 7.28567 2
55.5175 17.0093 2
53.7368 17.0239 2
52.9676 15.3009 2
52.168 12.8166 2
51.2324 10.1314 2
61.9554 35.3747 3.97694
60.0035 32.7848 3.97682
58.3305 30.137 3.97692
57.0216 27.4579 3.977
56.6059 18.1923 3.96506
56.0547 25.1861 3.97417
56.2662 20.5769 3.96088
55.9209 22.9456 3.96222
48.0566 6.52875 3.98848
49.3242 9.3371 3.98085
50.4297 12.0082 3.97559
51.3683 14.5256 3.97082
54.3832 17.9644 3.96692
52.3416 17.0907 3.96478
52.069 66.9981 0.0141037
52.9521 64.2125 0.0196175
60.8027 47.8395 0.0294113
53.6754 61.607 0.0241031
56.6364 59.467 0.0300709
54.2455 59.293 0.0266581
59.5843 52.067 0.0320334
57.819 49.5636 0.0286435
56.7442 56.96 0.0340554
57.0202 54.081 0.0344769
51.1671 65.1246 2
52.0422 62.5307 2
55.4587 58.2262 2
52.8223 60.1106 2
53.6177 58.4445 2
58.0313 46.7895 2
57.4016 51.7365 2
55.9939 49.4896 2
55.415 55.7563 2
55.2301 53.335 2
50.3448 63.3747 3.98151
51.2366 60.9193 3.97649
54.1853 57.2404 3.97315
52.292 58.6014 3.9751
56.3269 44.107 3.97726
55.1881 47.8233 3.97414
54.87 51.33 3.96554
53.9152 54.5008 3.96443
49.336 65.9173 0.0171287
48.6169 64.1167 2
47.9598 62.4666 3.9815
45.557 67.0933 0.0171769
46.8912 64.7291 0.0187215
43.6304 67.4645 2
46.3805 63.0445 2
45.1316 65.1897 2
45.9851 61.5752 3.98514
44.7661 63.4421 3.97956
43.356 65.4986 3.98056
41.6627 67.682 3.98297
39.702 70.0211 3.98703
41.8597 69.8754 2
42.1104 72.2064 3.99191
43.9722 69.5878 0.0126014
44.3764 71.8618 2
44.8159 74.2794 4
46.6088 71.3669 0.00827542
47.2057 73.7222 2
49.554 73.0099 0
48.7853 4.32327 3.99253
50.9553 5.13223 2
51.8506 2.85458 4
53.0642 6.07227 0.00888876
54.0858 3.86728 2
56.25 5.02411 0
61.775 45.8835 0.0269744
63.1425 42.5267 0.0231891
61.2057 43.6448 0.0229133
62.2013 40.6766 0.0230795
63.7277 39.2586 0.0229682
65.794 37.5021 0.0255693
63.7867 37.4572 2
61.9162 39.3416 2
60.9516 41.9246 2
59.9931 44.7231 2
61.7519 37.4423 3.97707
59.9333 39.8231 3.97698
58.6486 42.8651 3.9767
63.9307 35.6403 0.0230901
62.7396 33.0692 0.0234025
60.3699 30.6566 0.0235135
57.9224 17.012 0.0351314
57.6572 19.5164 0.0396252
57.2261 21.9007 0.0366643
59.35 27.963 0.0236966
57.5218 25.7939 0.0235256
56.9775 24.0189 0.0318146
55.5165 17.0095 0.0327535
53.7365 17.025 0.0234207
52.9671 15.3037 0.0295202
50.112 7.28732 0.0139241
52.1667 12.8158 0.0239144
51.2312 10.133 0.0220611
61.9539 35.3749 2
60.0022 32.785 2
58.3299 30.1374 2
56.605 18.1936 2
56.2698 20.5746 2
55.9241 22.9479 2
57.0212 27.4598 2
56.0536 25.1885 2
48.0569 6.52706 2
49.3251 9.33491 2
54.3844 17.9645 2
52.3414 17.0891 2
51.368 14.5205 2
50.4314 12.0057 2
59.5752 35.1387 3.97689
57.6287 32.3239 3.9762
56.2228 29.4223 3.97738
55.1347 26.7033 3.97701
55.2916 19.2355 3.96032
54.7041 24.154 3.96413
54.8722 21.6339 3.95974
45.9628 5.88311 3.98899
43.3743 7.47492 3.98565
47.3556 8.62705 3.98403
48.5984 11.3036 3.97743
49.7056 13.7611 3.9753
50.6166 16.1698 3.97462
53.085 18.717 3.96354
51.2738 18.1211 3.97696
51.1672 65.1239 0.0175079
52.0428 62.5298 0.0224357
58.0327 46.7906 0.0253677
52.8228 60.1072 0.0229998
55.4591 58.2246 0.0275989
53.6182 58.4432 0.0224751
57.4027 51.7376 0.0320949
55.9971 49.4908 0.0291559
55.4158 55.7559 0.0369466
55.2275 53.3347 0.037405
50.3444 63.375 2
51.2358 60.9194 2
54.1855 57.2421 2
52.2914 58.6023 2
56.3267 44.106 2
55.1872 47.8222 2
54.8721 51.3299 2
53.916 54.5025 2
49.5884 61.7372 3.97962
55.1385 41.6621 3.97531
50.5509 59.3062 3.97252
52.1408 56.4596 3.96984
53.7693 45.4737 3.97456
53.0526 49.2536 3.96934
52.5197 52.7997 3.96132
48.617 64.1167 0.0182814
47.9595 62.4661 2
47.3243 60.9994 3.98594
43.6303 67.4639 0.0167195
45.1315 65.1892 0.0193334
46.3805 63.044 0.0176921
41.6629 67.6821 2
43.356 65.4994 2
45.985 61.5757 2
44.7661 63.4428 2
45.7603 60.6198 3.98436
44.4817 61.8203 3.98054
43.1458 63.7139 3.97846
41.5457 65.6355 3.97951
39.6322 67.7607 3.9827
37.526 70.0458 3.98607
39.7018 70.0217 2
39.8173 72.403 3.9917
41.8598 69.8748 0.0129777
42.1107 72.2067 2
42.3947 74.6792 4
44.376 71.8617 0.00825323
44.8159 74.2794 2
47.2057 73.7222 0
43.8519 5.36027 3.98877
46.5713 3.64757 3.9927
48.7857 4.3226 2
49.554 1.99015 4
50.9545 5.13273 0.00817009
51.8506 2.85453 2
54.0858 3.86728 0
59.9936 44.724 0.0232945
60.9528 41.9251 0.0230991
61.9176 39.3417 0.0230086
63.7896 37.4573 0.0230854
61.7506 37.4422 2
59.9332 39.823 2
58.6485 42.8643 2
59.4332 37.5658 3.97737
57.5973 40.6204 3.97714
54.552 39.6776 3.97529
61.9554 35.3747 0.023062
60.0035 32.7848 0.0231849
58.3305 30.137 0.0230833
56.6059 18.1923 0.0349358
56.2662 20.5769 0.0391193
55.9209 22.9456 0.0377843
57.0216 27.4579 0.0229995
56.0547 25.1861 0.0258317
54.3832 17.9644 0.0330768
52.3416 17.0907 0.0352227
51.3683 14.5256 0.0291781
48.0566 6.52875 0.0115205
49.3242 9.3371 0.0191491
50.4297 12.0082 0.0244092
59.5752 35.1386 2
45.9627 5.88261 2
43.3742 7.47411 2
57.629 32.3247 2
56.2218 29.423 2
55.2903 19.2364 2
54.8805 21.6352 2
54.7028 24.156 2
55.1321 26.7055 2
47.356 8.62381 2
48.5997 11.3008 2
53.086 18.714 2
51.275 18.1223 2
50.6177 16.1703 2
49.7061 13.7598 2
56.9831 34.7861 3.97728
55.3307 31.5853 3.97654
54.1422 28.515 3.9774
53.5039 25.6182 3.97623
53.8948 20.1988 3.9579
53.4169 22.8088 3.95446
41.3995 7.08085 3.98571
45.3607 7.9956 3.98669
42.8664 9.41839 3.98198
46.6666 10.6592 3.98132
47.7392 13.1151 3.97709
48.9179 15.4254 3.97228
49.9786 17.7344 3.97203
51.601 19.3993 3.97215
50.3448 63.3747 0.0184897
51.2366 60.9193 0.0235096
56.3269 44.107 0.022743
55.1881 47.8233 0.025859
52.292 58.6014 0.0249
54.1853 57.2404 0.0268529
54.87 51.33 0.0344629
53.9152 54.5008 0.0355697
49.5875 61.7371 2
55.1341 41.6597 2
50.5503 59.307 2
52.1409 56.4614 2
53.7703 45.473 2
53.0601 49.2536 2
52.5206 52.7995 2
48.8385 60.1924 3.97719
51.9613 42.5414 3.98232
49.7573 57.6007 3.96774
50.4978 54.3938 3.96311
51.4364 47.1811 3.9755
50.9995 50.8837 3.95522
47.6303 43.6743 3.9844
47.9598 62.4666 0.0184976
47.324 60.9989 2
46.6088 59.7871 3.98763
41.6627 67.682 0.0170281
43.356 65.4986 0.0194379
44.7661 63.4421 0.0204415
45.9851 61.5752 0.0148619
39.6326 67.7614 2
41.5455 65.6351 2
45.7601 60.6203 2
43.1458 63.7148 2
44.4816 61.8209 2
44.6169 60.2783 3.98695
42.9487 62.0663 3.97496
41.5996 63.8067 3.97873
39.6472 65.6017 3.97818
37.5633 67.7415 3.98125
31.6978 65.1194 3.9789
33.3926 67.4797 3.98113
35.3339 69.9559 3.9863
37.5259 70.0468 2
37.5094 72.4576 3.99198
39.702 70.0211 0.0129734
39.8175 72.4034 2
39.9526 74.9197 4
42.1104 72.2064 0.00809464
42.3947 74.6792 2
44.8159 74.2794 0
41.7364 4.96938 3.989
43.8521 5.35938 2
44.3265 3.11081 3.993
46.5715 3.64729 2
47.2057 1.27793 4
48.7853 4.32327 0.00746594
49.554 1.99013 2
51.8506 2.85458 0
58.6486 42.8651 0.0233006
59.9333 39.8231 0.023018
61.7519 37.4423 0.0229281
59.4335 37.5664 2
57.5969 40.6207 2
54.5484 39.681 2
56.3636 37.8834 3.97713
48.9906 41.2503 3.98281
52.5541 39.3066 3.98399
39.4431 6.80477 3.98578
59.5752 35.1387 0.0231075
57.6287 32.3239 0.0237986
56.2228 29.4223 0.0226194
55.2916 19.2355 0.0396831
54.8722 21.6339 0.0402564
54.7041 24.154 0.0358748
55.1347 26.7033 0.0229857
53.085 18.717 0.0364616
51.2738 18.1211 0.0230419
50.6166 16.1698 0.0253829
45.9628 5.88311 0.0110052
49.7056 13.7611 0.0247013
47.3556 8.62705 0.015975
48.5984 11.3036 0.0225669
43.3743 7.47492 0.0143547
56.9824 34.7856 2
41.3995 7.07955 2
45.3602 7.99532 2
42.8661 9.41799 2
55.3336 31.5834 2
54.1425 28.5156 2
53.8974 20.2016 2
53.4154 22.8071 2
53.5021 25.6195 2
46.6673 10.6535 2
47.7404 13.1105 2
51.6038 19.401 2
49.9785 17.7321 2
48.9175 15.4266 2
54.3643 33.983 3.97566
53.0678 30.6044 3.97722
52.2348 27.3388 3.97542
51.9407 24.2274 3.97769
52.2925 21.1406 3.97139
41.0136 9.05284 3.98155
44.7261 9.99548 3.98481
42.4676 10.9045 3.98911
46.0008 12.7377 3.97664
47.6691 14.601 3.97189
48.0856 17.0078 3.97087
49.7862 19.7565 3.97088
49.5884 61.7372 0.0203783
50.5509 59.3062 0.0274837
55.1385 41.6621 0.0246917
53.7693 45.4737 0.0254372
53.0526 49.2536 0.0306607
52.1408 56.4596 0.0301641
52.5197 52.7997 0.038683
48.8378 60.1908 2
51.9776 42.5474 2
49.7559 57.6017 2
50.4979 54.3959 2
51.4406 47.1808 2
51.0012 50.8825 2
47.6417 43.6991 2
47.9658 58.7245 3.97849
49.5918 45.1877 3.97795
48.5382 55.8935 3.97115
48.9891 52.5542 3.97665
49.3946 48.9725 3.97336
45.3889 39.8263 3.87561
45.8629 42.5433 3.90535
46.0555 45.6992 3.9819
43.1996 41.0686 3.74482
41.7555 41.9412 3.57107
47.3243 60.9994 0.014058
46.608 59.7865 2
45.453 58.784 3.98654
39.6322 67.7607 0.017305
41.5457 65.6355 0.0204887
43.1458 63.7139 0.0215377
44.4817 61.8203 0.0194562
45.7603 60.6198 0.0156425
41.5996 63.8065 2
37.5635 67.7425 2
39.6471 65.6025 2
44.617 60.2789 2
42.9487 62.067 2
41.7519 62.4781 3.9776
42.4762 59.9588 3.97899
39.8938 63.538 3.97604
37.6421 65.4986 3.97846
35.4636 67.6511 3.98135
33.5757 65.3322 3.97809
31.96 63.2861 3.97819
29.8844 64.7109 3.98048
31.6975 65.1202 2
31.3775 67.1896 3.98158
33.3927 67.4806 2
33.1572 69.7499 3.98633
35.3337 69.9567 2
35.1953 72.3719 3.9918
37.526 70.0458 0.0139333
37.5094 72.4582 2
37.5 75 4
39.8173 72.403 0.00830138
39.9526 74.9197 2
42.3947 74.6792 0
39.6242 4.7171 3.98942
41.7367 4.96846 2
42.0629 2.71822 3.99326
43.8519 5.36027 0.011226
44.3267 3.1102 2
44.8158 0.721173 4
46.5713 3.64757 0.00730492
47.2057 1.27779 2
49.554 1.99015 0
57.5973 40.6204 0.0228596
59.4332 37.5658 0.0226291
54.552 39.6776 0.0247113
49.0157 41.2666 2
56.3641 37.8823 2
52.5533 39.2838 2
53.4028 36.6287 3.97758
46.9149 40.3508 3.91023
49.9326 38.5186 3.98878
37.5171 6.67589 3.98573
39.4431 6.80313 2
39.2112 8.69565 3.9833
35.943 8.49537 3.98413
56.9831 34.7861 0.0227244
55.3307 31.5853 0.023465
54.1422 28.515 0.022597
53.8948 20.1988 0.042098
53.4169 22.8088 0.0455416
53.5039 25.6182 0.0237652
51.601 19.3993 0.0278524
49.9786 17.7344 0.027967
48.9179 15.4254 0.0277236
45.3607 7.9956 0.0133094
47.7392 13.1151 0.0229065
46.6666 10.6592 0.0186803
41.3995 7.08085 0.0142865
42.8664 9.41839 0.018023
54.3604 33.9839 2
41.0138 9.05162 2
44.7248 9.99571 2
42.4673 10.9051 2
53.0642 30.6043 2
52.2435 27.3389 2
52.298 21.1421 2
51.9411 24.2327 2
46.0014 12.7287 2
47.6691 14.5956 2
49.7896 19.7589 2
48.0841 17.0051 2
51.8937 32.8904 3.98147
50.8665 29.298 3.97652
50.5044 25.8544 3.97264
49.8468 22.3506 3.98431
40.5688 11.6135 3.98087
43.8561 11.9142 3.9798
45.7879 15.438 3.98399
47.48 19.3659 3.9781
45.8059 37.4824 3.86985
48.8385 60.1924 0.0228065
49.7573 57.6007 0.0322574
51.9613 42.5414 0.0176774
51.4364 47.1811 0.0245036
50.9995 50.8837 0.0447806
50.4978 54.3938 0.0368883
47.6303 43.6743 0.0156011
47.9646 58.7269 2
49.6049 45.1987 2
48.5355 55.8958 2
48.9888 52.5591 2
49.3991 48.9698 2
45.4455 39.8434 2
45.8894 42.5804 2
46.0629 45.7078 2
43.2281 41.0998 2
41.7803 41.9613 2
46.8048 57.3273 3.97811
43.9475 39.3638 3.74569
42.1066 40.8228 3.6137
47.6992 47.2019 3.98001
47.0797 54.2078 3.96855
47.3999 50.7047 3.97339
44.4878 47.3094 3.97725
44.5108 41.8882 3.85451
44.5375 44.436 3.91977
42.137 42.5457 3.76557
40.7061 42.2505 3.59785
46.6088 59.7871 0.0123689
45.4529 58.7837 2
43.8583 57.6912 3.98008
37.5633 67.7415 0.0187491
39.6472 65.6017 0.0218205
41.5996 63.8067 0.0212732
42.9487 62.0663 0.025036
44.6169 60.2783 0.013048
35.4639 67.652 2
41.7518 62.4782 2
39.8936 63.5385 2
37.642 65.4995 2
42.4765 59.9592 2
40.6224 61.6276 3.97845
40.4379 58.1685 3.97985
37.8373 63.1972 3.97653
35.573 65.4213 3.97872
33.5757 65.3329 2
31.9597 63.287 2
33.6292 63.3248 3.97664
30.3797 62.8457 3.97974
32.1248 61.9889 3.98297
26.873 61.4858 3.97723
28.0636 64.1393 3.97952
29.884 64.7117 2
29.4072 66.7535 3.98231
31.6978 65.1194 0.0211033
31.3776 67.1905 2
31.015 69.4148 3.98612
33.3926 67.4797 0.0188654
33.1571 69.7506 2
32.8928 72.1465 3.99179
35.3339 69.9559 0.0137035
35.195 72.3724 2
35.0474 74.9194 4
37.5094 72.4576 0.00801748
37.5 75 2
39.9526 74.9197 0
35.6217 6.72683 3.98543
37.5238 4.61651 3.98955
39.6243 4.71572 2
39.7894 2.47484 3.99322
41.7364 4.96938 0.0109978
42.0629 2.71768 2
42.3946 0.32156 4
44.3265 3.11081 0.00699953
44.8159 0.72056 2
47.2057 1.27793 0
48.9906 41.2503 0.0171939
56.3636 37.8834 0.0228674
52.5541 39.3066 0.0160075
46.9389 40.3465 2
49.9378 38.5094 2
53.4074 36.6406 2
50.7247 35.5747 3.97549
47.5852 37.761 3.92692
45.397 35.1552 3.87299
43.2091 33.9118 3.74152
41.7622 33.0456 3.5686
37.4585 8.53722 3.98438
37.517 6.67454 2
39.4431 6.80477 0.0142165
39.2116 8.69377 2
38.9766 10.1307 3.98326
35.8993 9.7774 3.98081
34.1523 8.82655 3.98257
35.9427 8.49365 2
54.3643 33.983 0.0243398
53.0678 30.6044 0.022778
52.2348 27.3388 0.024583
52.2925 21.1406 0.028613
51.9407 24.2274 0.0223095
49.7862 19.7565 0.0291202
48.0856 17.0078 0.0291287
47.6691 14.601 0.0281135
44.7261 9.99548 0.0151918
46.0008 12.7377 0.0233576
41.0136 9.05284 0.0184488
42.4676 10.9045 0.0108858
51.8998 32.8893 2
40.5698 11.6135 2
43.8543 11.9164 2
50.8867 29.2971 2
50.5077 25.856 2
49.8494 22.3489 2
45.7855 15.4189 2
47.4825 19.3764 2
49.4488 31.5042 3.98735
48.9158 27.6229 3.97605
49.1993 24.524 3.97656
47.1333 22.115 3.98494
38.3023 12.7427 3.97748
42.0977 14.308 3.97976
44.7846 18.5375 3.97664
44.3236 37.4892 3.75325
45.8837 37.4868 2
47.9658 58.7245 0.0215078
48.5382 55.8935 0.0288508
49.5918 45.1877 0.0220456
49.3946 48.9725 0.0266407
48.9891 52.5542 0.0233504
45.3889 39.8263 0.12439
45.8629 42.5433 0.0946528
46.0555 45.6992 0.0181036
43.1996 41.0686 0.25518
41.7555 41.9412 0.428933
46.8028 57.3291 2
43.9882 39.3847 2
42.1038 40.8355 2
47.7046 47.2059 2
47.077 54.2119 2
47.4035 50.7098 2
44.5035 47.2884 2
44.5397 41.9137 2
44.5689 44.4562 2
42.1858 42.5824 2
40.7261 42.2543 2
45.3491 55.9119 3.9901
42.4386 39.2545 3.62447
40.5878 40.7053 3.72537
45.8383 48.8562 3.99369
45.406 52.489 3.98273
43.2075 48.3073 3.99684
43.1273 45.9602 3.90359
43.2783 43.6626 3.84881
40.8299 43.6346 3.74306
39.2287 42.5251 3.61251
45.453 58.784 0.0134639
43.8573 57.6928 2
42.0857 56.2883 3.98327
35.4636 67.6511 0.0186514
37.6421 65.4986 0.0215367
39.8938 63.538 0.0239562
41.7519 62.4781 0.022402
42.4762 59.9588 0.0210104
35.5731 65.4222 2
40.6224 61.6282 2
37.8369 63.198 2
40.438 58.1698 2
38.9142 56.4661 3.99113
38.2505 60.3104 3.9794
35.6072 63.1915 3.97614
33.5757 65.3322 0.0219085
31.96 63.2861 0.0218074
33.629 63.3257 2
30.3794 62.8464 2
32.1253 61.9901 2
28.6836 62.1905 3.97882
33.3463 61.4985 3.97757
31.0707 61.2062 3.97867
27.5783 59.578 3.98102
23.8056 59.067 3.98014
25.0396 60.8603 3.97787
26.8733 61.4863 2
26.2312 63.4695 3.97862
28.0635 64.1391 2
27.4642 66.1779 3.98226
29.8844 64.7109 0.0195248
29.4072 66.754 2
28.9075 68.9406 3.98575
31.3775 67.1896 0.0184189
31.0148 69.4154 2
30.6153 71.7775 3.99134
33.1572 69.7499 0.0136714
32.8922 72.1468 2
32.6054 74.6784 4
35.1953 72.3719 0.0081989
35.0474 74.9197 2
37.5 75 0
33.7246 6.98246 3.98454
35.4358 4.68668 3.98945
35.6216 6.72575 2
37.5151 2.3873 3.99326
37.5239 4.61555 2
39.6242 4.7171 0.0105834
39.7893 2.4741 2
39.9526 0.0806499 4
42.0629 2.71822 0.00673689
42.3947 0.320817 2
44.8158 0.721173 0
43.9573 35.613 3.74493
42.113 34.1581 3.60792
46.9149 40.3508 0.0897723
49.9326 38.5186 0.011216
53.4028 36.6287 0.0224186
47.583 37.749 2
50.7362 35.5699 2
45.4459 35.1305 2
43.2449 33.8784 2
41.7871 33.0249 2
47.7598 34.3071 3.9551
44.5212 33.075 3.84723
42.1491 32.4412 3.75758
40.7135 32.7427 3.5951
37.3111 10.6347 3.98098
37.4587 8.53537 2
37.5171 6.67589 0.0142693
39.2112 8.69565 0.016698
38.978 10.1291 2
34.7553 10.3858 3.98137
35.8999 9.77414 2
32.3793 9.37411 3.97977
34.1512 8.82385 2
35.943 8.49537 0.0158653
51.8937 32.8904 0.0185287
50.8665 29.298 0.0234831
50.5044 25.8544 0.02736
49.8468 22.3506 0.0156936
47.48 19.3659 0.0219048
45.7879 15.438 0.0160124
43.8561 11.9142 0.0202012
40.5688 11.6135 0.019126
49.4641 31.4977 2
38.3022 12.741 2
42.0987 14.3131 2
48.9248 27.6247 2
49.2023 24.522 2
47.1285 22.1096 2
44.7861 18.5662 2
47.301 29.6162 3.98437
46.8869 25.2651 3.97728
44.2548 21.4816 3.97882
36.5839 12.9439 3.97547
38.683 14.8285 3.97564
41.7439 17.8916 3.97785
42.568 37.4797 3.64966
44.3642 37.4878 2
45.8059 37.4824 0.130151
46.8048 57.3273 0.0218924
47.0797 54.2078 0.0314539
47.6992 47.2019 0.0199866
47.3999 50.7047 0.0266068
43.9475 39.3638 0.254308
44.5108 41.8882 0.145486
44.5375 44.436 0.0802311
44.4878 47.3094 0.0227529
42.137 42.5457 0.234434
42.1066 40.8228 0.3863
40.7061 42.2505 0.402147
45.3468 55.9122 2
42.431 39.2562 2
40.5947 40.6878 2
45.8417 48.8649 2
45.4046 52.4953 2
43.2143 48.3233 2
43.1778 45.9955 2
43.319 43.6905 2
40.8644 43.6826 2
39.2263 42.5293 2
43.6779 54.3976 3.99949
40.6912 39.1195 3.73823
39.1032 40.7737 3.70867
43.5199 50.3757 4.00483
41.8233 47.4979 3.93983
41.7255 45.0611 3.86424
39.3356 44.2993 3.73614
37.5059 42.6221 3.64155
43.8583 57.6912 0.0199186
42.0852 56.2889 2
40.3972 54.8637 3.98202
35.573 65.4213 0.0212781
37.8373 63.1972 0.0234694
40.6224 61.6276 0.0215518
40.4379 58.1685 0.0201504
35.6068 63.1918 2
38.2506 60.311 2
38.9143 56.4639 2
37.99 55.176 3.99242
36.9328 57.6081 3.9869
35.3645 60.8967 3.97712
33.6292 63.3248 0.0233645
30.3797 62.8457 0.0202637
32.1248 61.9889 0.0170271
33.347 61.4993 2
28.6838 62.1901 2
31.0715 61.2074 2
29.4099 60.2742 3.97693
32.3621 59.724 3.98738
28.0416 58.3601 3.99492
27.5799 59.5788 2
25.3945 58.5817 3.9774
22.7776 58.2202 3.96798
23.4078 60.3354 3.97935
23.8069 59.0679 2
25.0402 60.8606 2
24.4348 62.7619 3.9791
26.873 61.4858 0.0227675
26.2312 63.4702 2
25.5487 65.487 3.98083
28.0636 64.1393 0.0204821
27.4641 66.1782 2
26.8371 68.3291 3.98576
29.4072 66.7535 0.0176896
28.9073 68.9407 2
28.3704 71.2628 3.99108
31.015 69.4148 0.0138829
30.6146 71.7777 2
30.1842 74.2788 4
32.8928 72.1465 0.00820663
32.6053 74.6792 2
35.0474 74.9194 0
31.7892 7.42253 3.98316
33.3483 4.92632 3.98877
33.7242 6.98059 2
35.2453 2.46329 3.99318
35.4357 4.68606 2
35.6217 6.72683 0.0145651
37.5 0 4
37.5147 2.38681 2
37.5238 4.61651 0.0104489
39.7894 2.47484 0.00678132
39.9526 0.0802889 2
42.3946 0.32156 0
42.4254 35.7092 3.62085
44.0039 35.5881 2
40.5975 34.2835 3.72461
42.1064 34.1452 2
47.5852 37.761 0.073083
50.7247 35.5747 0.0245053
45.397 35.1552 0.127009
43.2091 33.9118 0.258482
41.7622 33.0456 0.431398
47.7756 34.3145 2
44.551 33.0557 2
42.2024 32.4021 2
40.7335 32.7385 2
45.8055 31.6732 3.92431
43.2878 31.3279 3.84818
40.8387 31.3592 3.74423
39.2338 32.4801 3.61041
35.6944 11.7828 3.97938
37.3131 10.632 2
37.4585 8.53722 0.0156187
38.9766 10.1307 0.0167363
33.1004 11.2249 3.97612
34.7545 10.3811 2
35.8993 9.7774 0.0191872
30.4844 10.0239 3.97955
32.3782 9.37293 2
34.1523 8.82655 0.0174303
49.4488 31.5042 0.0126545
48.9158 27.6229 0.0239524
49.1993 24.524 0.0234403
47.1333 22.115 0.0150565
44.7846 18.5375 0.0233635
42.0977 14.308 0.0202383
38.3023 12.7427 0.0225151
36.5819 12.9343 2
47.3181 29.5874 2
38.6808 14.8151 2
41.74 17.8818 2
46.8928 25.2628 2
44.2502 21.4685 2
45.2075 27.7489 4.0054
43.6725 24.1896 4.01319
41.3171 20.8677 3.9811
35.774 14.7795 3.97756
38.6811 17.6306 3.97864
40.7417 37.4724 3.75109
42.5686 37.4827 2
44.3236 37.4892 0.246752
45.3491 55.9119 0.00990238
45.406 52.489 0.017271
45.8383 48.8562 0.00631273
42.4386 39.2545 0.37553
43.2783 43.6626 0.151187
43.1273 45.9602 0.096406
43.2075 48.3073 0.00316166
40.8299 43.6346 0.256937
40.5878 40.7053 0.274627
39.2287 42.5251 0.387488
43.6745 54.3969 2
40.682 39.1154 2
39.1039 40.7584 2
43.5195 50.3929 2
41.8131 47.5235 2
41.7507 45.0978 2
37.5026 42.6302 2
39.3496 44.347 2
41.832 52.917 3.99509
39.1168 39.1348 3.72877
37.5073 40.8243 3.72744
35.7847 42.5333 3.61335
40.8482 49.5557 3.99585
39.7794 45.8709 3.84091
37.504 44.5352 3.74515
42.0857 56.2883 0.0167284
40.3921 54.8772 2
38.7193 53.7325 3.9962
35.6072 63.1915 0.0238608
38.2505 60.3104 0.0205956
38.9142 56.4661 0.00886564
35.3648 60.8961 2
36.9336 57.608 2
37.9885 55.1689 2
36.3216 55.2491 3.99704
34.4906 58.5024 3.98775
33.3463 61.4985 0.0224252
28.6836 62.1905 0.0211774
31.0707 61.2062 0.0213251
32.363 59.7261 2
29.4112 60.2738 2
30.3178 57.8006 3.98539
28.0433 58.3604 2
26.9821 56.8151 3.9748
27.5783 59.578 0.0189825
25.3964 58.5825 2
23.8784 56.7815 3.96135
21.3634 57.3705 3.96505
22.0048 59.604 3.97607
22.7785 58.2223 2
22.7399 62.0127 3.97715
23.4084 60.3359 2
23.8056 59.067 0.019864
25.0396 60.8603 0.022131
24.435 62.7625 2
23.683 64.7046 3.98028
26.2312 63.4695 0.0213761
25.5485 65.488 2
24.8095 67.5903 3.98522
27.4642 66.1779 0.0177441
26.837 68.3297 2
26.1655 70.6036 3.99112
28.9075 68.9406 0.0142531
28.3696 71.2627 2
27.7943 73.7221 4
30.6153 71.7775 0.00865771
30.1841 74.2794 2
32.6054 74.6784 0
29.8119 7.99727 3.98201
31.2538 5.33329 3.98779
31.7886 7.42116 2
32.9812 2.70158 3.99286
33.3479 4.92506 2
33.7246 6.98246 0.0154612
35.0474 0.080333 4
35.2449 2.46303 2
35.4358 4.68668 0.0105539
37.5 0 2
37.5151 2.3873 0.00673967
39.9526 0.0806499 0
40.7019 35.8414 3.73592
42.4202 35.7123 2
43.9573 35.613 0.255075
28.5448 10.699 3.97852
39.1001 34.2304 3.70804
40.5955 34.2998 2
42.113 34.1581 0.392085
47.7598 34.3071 0.0449039
44.5212 33.075 0.152773
42.1491 32.4412 0.242422
40.7135 32.7427 0.4049
45.8359 31.6505 2
43.3263 31.2954 2
40.8763 31.3078 2
39.2362 32.4769 2
44.102 29.8687 3.91953
41.7245 29.9271 3.86515
39.3438 30.6997 3.73546
37.5144 32.3929 3.64155
34.0958 12.9468 3.97515
35.693 11.7747 2
37.3111 10.6347 0.0190156
31.1888 11.9946 3.97779
33.1 11.2235 2
34.7553 10.3858 0.0186262
30.4827 10.0211 2
32.3793 9.37411 0.0202339
47.301 29.6162 0.0156257
46.8869 25.2651 0.0227227
36.5839 12.9439 0.024534
44.2548 21.4816 0.0211807
41.7439 17.8916 0.0221512
38.683 14.8285 0.0243622
35.775 14.7863 2
45.2127 27.7446 2
38.6777 17.6329 2
41.3125 20.8641 2
43.6732 24.1805 2
33.6117 15.896 3.97735
42.8453 26.6012 3.991
40.8426 23.4445 4.00139
38.4095 20.4063 3.98823
35.8515 17.5326 3.97987
39.1241 37.4882 3.75051
40.7314 37.4739 2
42.568 37.4797 0.350338
43.6779 54.3976 0.000505295
43.5199 50.3757 -0.00483183
40.6912 39.1195 0.261773
41.7255 45.0611 0.13576
41.8233 47.4979 0.0601671
39.3356 44.2993 0.263863
39.1032 40.7737 0.291329
37.5059 42.6221 0.35845
41.8269 52.9161 2
39.1096 39.1208 2
37.5065 40.8052 2
40.8459 49.5734 2
35.7818 42.5369 2
39.7997 45.9173 2
37.4953 44.5756 2
39.7707 51.7636 4.0015
37.5052 39.1433 3.7582
35.9152 40.7867 3.70923
34.3052 42.2661 3.59716
35.6753 44.3113 3.73184
38.6658 48.5154 3.95387
37.5161 46.1585 3.8615
40.3972 54.8637 0.0179761
38.7177 53.7219 2
36.7475 53.058 3.99781
35.3645 60.8967 0.0228781
36.9328 57.6081 0.0131003
37.99 55.176 0.00758463
34.4912 58.5014 2
36.3211 55.2511 2
33.248 55.4391 3.99245
32.3621 59.724 0.0126206
29.4099 60.2742 0.02307
30.3196 57.7997 2
28.7484 55.3002 3.98134
28.0416 58.3601 0.00508167
26.9836 56.8155 2
25.3775 55.1185 3.96465
21.866 55.3187 3.96337
25.3945 58.5817 0.0225975
23.8787 56.7845 2
20.2488 57.0014 3.96586
20.6608 58.7528 3.96864
21.3637 57.3723 2
21.1726 61.1565 3.97578
22.0055 59.605 2
22.7776 58.2202 0.0320183
21.8969 63.8316 3.97897
22.7402 62.0132 2
23.4078 60.3354 0.0206455
24.4348 62.7619 0.0209045
23.6829 64.7052 2
22.8379 66.7335 3.98412
25.5487 65.487 0.0191652
24.8093 67.5912 2
24.0097 69.8049 3.99116
26.8371 68.3291 0.0142429
26.1647 70.6037 2
25.446 73.0099 4
28.3704 71.2628 0.00892467
27.7943 73.7222 2
30.1842 74.2788 0
27.8217 8.65671 3.98184
29.156 5.8796 3.98649
29.8109 7.99494 2
30.7266 3.09856 3.99258
31.2533 5.3321 2
31.7892 7.42253 0.0168431
32.6053 0.320823 4
32.9807 2.70102 2
33.3483 4.92632 0.011233
35.0474 0.0802903 2
35.2453 2.46329 0.0068215
37.5 0 0
39.1136 35.854 3.73109
40.6868 35.8457 2
42.4254 35.7092 0.379149
28.5434 10.6977 2
26.6231 11.3951 3.97855
29.2279 12.6498 3.97926
37.5062 34.1925 3.7259
39.1037 34.2478 2
40.5975 34.2835 0.275386
45.8055 31.6732 0.0756926
43.2878 31.3279 0.151824
40.8387 31.3592 0.255775
39.2338 32.4801 0.389591
44.1155 29.8542 2
41.747 29.8947 2
39.3533 30.6518 2
37.5158 32.3841 2
42.168 28.5461 3.88871
39.7768 29.1194 3.86144
37.5144 30.475 3.74336
35.7934 32.4827 3.61251
31.9194 14.4941 3.97804
34.0958 12.948 2
35.6944 11.7828 0.0206163
31.1877 11.9905 2
33.1004 11.2249 0.023877
30.4844 10.0239 0.020447
45.2075 27.7489 -0.00540097
43.6725 24.1896 -0.0131943
35.774 14.7795 0.0224427
41.3171 20.8677 0.0189046
38.6811 17.6306 0.021358
33.6097 15.8907 2
35.8479 17.537 2
42.8513 26.5991 2
38.4045 20.4095 2
40.8328 23.4293 2
33.5549 17.4083 3.97884
40.2837 25.8219 3.96894
38.0635 23.1332 4.00077
35.5834 20.119 3.98671
37.5044 37.4973 3.77614
39.1168 37.4856 2
40.7417 37.4724 0.248914
41.832 52.917 0.0049056
40.8482 49.5557 0.00414996
39.1168 39.1348 0.271229
39.7794 45.8709 0.159094
37.504 44.5352 0.254849
37.5073 40.8243 0.272558
35.7847 42.5333 0.386649
39.7689 51.769 2
37.5062 39.1329 2
35.9144 40.7725 2
38.677 48.5619 2
34.2855 42.2704 2
35.6554 44.36 2
37.5149 46.2045 2
37.6646 50.8116 3.99965
35.9002 39.1518 3.7306
34.4301 40.7284 3.72663
33.2523 41.9587 3.5716
34.1704 43.6393 3.74249
35.2015 45.874 3.85512
36.9236 48.1308 3.92153
38.7193 53.7325 0.00379932
36.7498 53.0608 2
34.413 52.3772 3.99866
34.4906 58.5024 0.0122474
36.3216 55.2491 0.00295653
33.2493 55.443 2
30.5824 53.319 3.99326
30.3178 57.8006 0.014612
28.7494 55.3007 2
26.9816 53.4113 3.97009
26.9821 56.8151 0.0251985
25.3779 55.1228 2
23.6852 53.4449 3.95892
20.6041 53.1767 3.96072
19.9786 55.8012 3.96359
21.8638 55.3206 2
23.8784 56.7815 0.0386519
19.4579 57.8625 3.9708
20.2482 57.0029 2
19.7146 60.1799 3.97354
20.661 58.7535 2
21.3634 57.3705 0.0349454
20.2102 62.8516 3.97649
21.1732 61.1588 2
22.0048 59.604 0.0239296
20.9392 65.7622 3.9827
21.8969 63.8323 2
22.7399 62.0127 0.022846
23.683 64.7046 0.0197174
22.8377 66.7339 2
21.9123 68.872 3.99074
24.8095 67.5903 0.0147757
24.0087 69.8048 2
23.1494 72.1454 4
26.1655 70.6036 0.00888399
25.446 73.0099 2
27.7943 73.7221 0
25.8607 9.38562 3.98082
27.0707 6.5436 3.98542
27.8205 8.65559 2
28.4889 3.64453 3.99196
29.1553 5.87809 2
29.8119 7.99727 0.0179862
30.1841 0.720592 4
30.7258 3.09812 2
31.2538 5.33329 0.0122054
32.6053 0.320817 2
32.9812 2.70158 0.0071366
35.0474 0.080333 0
37.505 35.8576 3.75688
39.1013 35.8618 2
40.7019 35.8414 0.264077
24.7784 12.0818 3.9779
23.7552 14.3728 3.97532
28.5448 10.699 0.0214753
26.622 11.3947 2
29.2269 12.6485 2
27.2942 13.3829 3.97837
29.7855 14.2112 3.9793
35.9116 34.2317 3.70763
37.5098 34.2112 2
39.1001 34.2304 0.291963
37.5144 32.3929 0.358451
44.102 29.8687 0.0804662
41.7245 29.9271 0.134855
39.3438 30.6997 0.26454
42.1935 28.5076 2
39.7912 29.0745 2
37.5175 30.4315 2
35.793 32.4782 2
39.9485 27.759 3.89749
37.4942 28.8435 3.86021
35.6836 30.7141 3.73915
34.3168 32.7507 3.59663
30.9329 16.854 3.97992
31.9178 14.4876 2
34.0958 12.9468 0.0248544
31.1888 11.9946 0.0222056
42.8453 26.6012 0.00900184
40.8426 23.4445 -0.00138811
33.6117 15.896 0.0226488
35.8515 17.5326 0.0201319
38.4095 20.4063 0.0117714
33.5506 17.4172 2
35.5828 20.1235 2
40.3196 25.8133 2
38.0498 23.1196 2
32.873 19.8121 3.99302
37.7278 25.4402 3.98272
35.1978 22.8318 3.99719
35.8844 37.5011 3.75198
37.5036 37.4977 2
39.1241 37.4882 0.249493
39.7707 51.7636 -0.00150273
38.6658 48.5154 0.0461345
37.5052 39.1433 0.241796
37.5161 46.1585 0.138496
35.6753 44.3113 0.268161
35.9152 40.7867 0.290766
34.3052 42.2661 0.402838
37.6532 50.8353 2
35.9111 39.139 2
34.4229 40.7124 2
36.8998 48.1793 2
33.2263 41.9777 2
34.1417 43.6872 2
35.184 45.9135 2
35.5238 49.9867 3.98867
34.3245 39.1536 3.73748
32.8997 40.8442 3.61145
32.8675 42.5637 3.76031
33.294 45.0678 3.86022
34.3749 47.2483 3.8957
36.7475 53.058 0.00219005
34.4084 52.3838 2
32.1126 51.1336 4.01595
33.248 55.4391 0.00754973
30.5831 53.3221 2
28.554 51.5442 3.98876
28.7484 55.3002 0.018663
26.9816 53.4151 2
25.2327 51.6952 3.95499
25.3775 55.1185 0.0353489
23.6838 53.4486 2
22.1466 51.748 3.9529
19.4055 51.5778 3.96147
19.0121 54.2696 3.96282
20.6029 53.1762 2
18.4769 56.6963 3.9665
19.9768 55.803 2
21.866 55.3187 0.0366279
18.3811 59.0848 3.96813
19.4575 57.8638 2
20.2488 57.0014 0.0341445
18.6236 61.7494 3.97358
19.7152 60.1814 2
20.6608 58.7528 0.0313572
19.1283 64.6708 3.98091
20.2103 62.8524 2
21.1726 61.1565 0.0242237
19.8865 67.8087 3.99062
20.9388 65.7626 2
21.8969 63.8316 0.0210296
22.8379 66.7335 0.0158752
21.9111 68.8715 2
20.9142 71.1327 4
24.0097 69.8049 0.00883859
23.1494 72.1455 2
25.446 73.0099 0
23.0981 12.7982 3.97679
23.9733 10.1746 3.9794
25.0243 7.31437 3.98431
25.8596 9.38498 2
26.2807 4.3286 3.99139
27.0698 6.54278 2
27.8217 8.65671 0.018157
27.7943 1.27781 4
28.4878 3.64417 2
29.156 5.8796 0.0135075
30.1841 0.720551 2
30.7266 3.09856 0.00741819
32.6053 0.320823 0
35.8894 35.8546 3.72644
37.5074 35.8695 2
39.1136 35.854 0.268914
24.7769 12.0796 2
23.7555 14.3742 2
22.4854 15.0515 3.97937
25.3609 13.9208 3.97531
24.035 15.636 3.98106
26.6231 11.3951 0.0214522
29.2279 12.6498 0.0207395
27.2944 13.3828 2
29.7833 14.2096 2
28.3648 15.9851 3.97938
34.4322 34.2952 3.72464
35.9091 34.2467 2
37.5062 34.1925 0.274096
35.7934 32.4827 0.387494
37.5144 30.475 0.256638
42.168 28.5461 0.111287
39.7768 29.1194 0.13856
39.9659 27.7251 2
37.4963 28.7975 2
35.6674 30.6609 2
34.2946 32.75 2
37.5804 27.4803 3.90581
35.2177 29.1371 3.86056
34.1789 31.375 3.74268
33.2665 33.0589 3.5703
30.2203 19.3841 3.98093
30.9301 16.8479 2
31.9194 14.4941 0.0219603
40.2837 25.8219 0.0310646
38.0635 23.1332 -0.000765541
33.5549 17.4083 0.0211613
35.5834 20.119 0.0132895
32.8688 19.8201 2
35.1888 22.8175 2
37.7607 25.4248 2
32.3364 22.5241 3.9962
35.036 25.3842 3.99995
34.2704 37.5125 3.75247
35.8914 37.503 2
37.5044 37.4973 0.223857
37.6646 50.8116 0.000347111
36.9236 48.1308 0.0784707
35.9002 39.1518 0.269405
35.2015 45.874 0.144882
34.1704 43.6393 0.257511
34.4301 40.7284 0.273372
33.2523 41.9587 0.4284
35.5104 49.9941 2
34.3373 39.1484 2
32.9026 40.8547 2
34.3721 47.2884 2
32.8273 42.6001 2
33.2742 45.1037 2
33.348 49.0149 3.97908
32.5775 39.2865 3.62344
31.7993 41.0874 3.74423
31.7203 43.6737 3.85033
32.4771 46.2037 3.89594
34.413 52.3772 0.00133997
32.1138 51.1444 2
30.0488 49.7003 4.00154
30.5824 53.319 0.00674494
28.5526 51.5415 2
26.7099 49.9193 3.96793
26.9816 53.4113 0.0299098
25.2308 51.6947 2
23.5674 50.1147 3.96299
23.6852 53.4449 0.0410792
22.1451 51.7464 2
20.7075 50.2455 3.96469
18.2151 50.2721 3.96811
17.9956 52.7438 3.96392
19.4034 51.5772 2
17.5008 55.308 3.96243
19.0076 54.27 2
20.6041 53.1767 0.0392835
17.152 57.8497 3.96558
18.4761 56.6971 2
19.9786 55.8012 0.0364127
17.1426 60.5257 3.97016
18.381 59.0863 2
19.4579 57.8625 0.0291973
17.4093 63.4621 3.97607
18.6239 61.7499 2
19.7146 60.1799 0.026457
17.9429 66.6171 3.98917
19.1278 64.6712 2
20.2102 62.8516 0.0235149
18.75 69.9759 4
19.8851 67.808 2
20.9392 65.7622 0.0172995
21.9123 68.872 0.00926278
20.9142 71.1327 2
23.1494 72.1454 0
21.5904 13.6216 3.97691
22.1915 11.0354 3.97787
23.0977 12.799 2
23.042 8.18096 3.98313
23.972 10.1729 2
24.1183 5.14342 3.99079
25.0233 7.31362 2
25.8607 9.38562 0.019181
25.446 1.99014 4
26.2793 4.32869 2
27.0707 6.5436 0.0145796
27.7943 1.27778 2
28.4889 3.64453 0.00804348
30.1841 0.720592 0
34.3247 35.8693 3.73773
35.8977 35.8683 2
37.505 35.8576 0.243119
21.3153 15.8506 3.98274
24.7784 12.0818 0.022102
23.7552 14.3728 0.0246831
25.3607 13.9168 2
22.4859 15.0513 2
24.0356 15.6387 2
23.2782 16.2656 3.97504
25.3911 16.1072 3.98022
27.2942 13.3829 0.0216341
29.7855 14.2112 0.0207018
28.3624 15.9895 2
27.4532 18.8347 3.97912
32.9043 34.1761 3.61362
34.4268 34.3127 2
35.9116 34.2317 0.292372
34.3168 32.7507 0.403369
35.6836 30.7141 0.260852
37.4942 28.8435 0.139791
39.9485 27.759 0.102513
37.5709 27.4458 2
33.2411 33.0414 2
35.212 29.085 2
34.1418 31.3223 2
35.1135 27.5875 3.90589
33.2863 29.9441 3.86
32.8825 32.4478 3.74585
29.6316 21.9868 3.99634
30.2177 19.391 2
30.9329 16.854 0.0200824
37.7278 25.4402 0.0172833
35.1978 22.8318 0.00280626
32.873 19.8121 0.00698356
32.335 22.5179 2
35.0654 25.3721 2
31.8527 25.7621 4.00566
32.4293 37.5126 3.65204
34.2866 37.5101 2
35.8844 37.5011 0.248023
35.5238 49.9867 0.0113307
34.3749 47.2483 0.104299
34.3245 39.1536 0.26252
33.294 45.0678 0.139778
32.8675 42.5637 0.239691
32.8997 40.8442 0.388555
33.3345 49.0152 2
32.5911 39.2864 2
31.7624 41.1165 2
32.4443 46.2399 2
31.6837 43.7029 2
31.3777 47.8582 3.98174
31.055 39.3873 3.74553
30.4889 41.927 3.85089
30.7561 44.8184 3.91586
32.1126 51.1336 -0.0159509
30.0488 49.7192 2
28.1512 48.1009 3.95942
28.554 51.5442 0.0112397
26.708 49.9188 2
24.9369 48.3794 3.97103
25.2327 51.6952 0.0450092
23.5662 50.1133 2
21.9646 48.7039 3.97081
22.1466 51.748 0.0471016
20.7047 50.2443 2
19.2982 49.0253 3.97213
17.1037 49.2796 3.97371
16.9491 51.3596 3.96717
18.2176 50.2707 2
16.488 53.8344 3.96466
17.9936 52.7436 2
19.4055 51.5778 0.0385345
16.0013 56.4537 3.96387
17.4971 55.3089 2
19.0121 54.2696 0.0371815
15.759 59.1905 3.96695
17.1523 57.8503 2
18.4769 56.6963 0.0334996
15.7914 62.1238 3.97241
17.1428 60.5281 2
18.3811 59.0848 0.0318678
16.0898 65.2992 3.98816
17.4086 63.463 2
18.6236 61.7494 0.0264206
16.6661 68.6801 4
17.9414 66.616 2
19.1283 64.6708 0.0190919
18.75 69.9759 2
19.8865 67.8087 0.0093812
20.9142 71.1327 0
20.2246 14.6163 3.97526
21.5902 13.6217 2
20.5314 12.008 3.97651
21.1447 9.15161 3.98197
22.1905 11.0357 2
23.0981 12.7982 0.0232148
22.0174 6.08255 3.99023
23.0408 8.17981 2
23.9733 10.1746 0.0205971
23.1494 2.85457 4
24.1166 5.14369 2
25.0243 7.31437 0.0156943
25.446 1.99012 2
26.2807 4.3286 0.00861245
27.7943 1.27781 0
32.5661 35.7399 3.62333
34.336 35.8733 2
35.8894 35.8546 0.273558
21.316 15.8494 2
20.3195 16.9824 3.97919
22.1104 16.6546 3.9707
25.3609 13.9208 0.0246904
22.4854 15.0515 0.0206347
24.035 15.636 0.0189443
25.3909 16.1032 2
23.2789 16.2655 2
24.2202 18.4985 3.97218
27.0727 21.512 3.99425
28.3648 15.9851 0.0206179
27.4517 18.8346 2
31.817 33.9432 3.73969
32.9104 34.1635 2
34.4322 34.2952 0.275356
33.2665 33.0589 0.429703
34.1789 31.375 0.257324
35.2177 29.1371 0.139443
37.5804 27.4803 0.0941888
35.1206 27.5436 2
32.8127 32.4116 2
33.2694 29.9184 2
32.7236 28.2801 3.91629
31.7219 31.3499 3.84897
28.9644 24.4739 3.98492
29.6262 21.9942 2
30.2203 19.3841 0.0190745
35.036 25.3842 4.7389e-05
32.3364 22.5241 0.00380405
31.8488 25.7405 2
29.8877 27.4084 3.97736
30.6729 37.5131 3.75188
32.4407 37.5113 2
34.2704 37.5125 0.247527
33.348 49.0149 0.0209175
32.4771 46.2037 0.104058
32.5775 39.2865 0.376564
31.7203 43.6737 0.149675
31.7993 41.0874 0.255772
31.3723 47.8656 2
31.0035 39.4123 2
30.4588 41.9443 2
30.7268 44.8472 2
29.5373 46.4726 3.99959
29.6034 39.8523 3.87618
29.1884 43.0589 3.91773
30.0488 49.7003 -0.0015393
28.1469 48.0954 2
26.31 46.5569 3.97786
26.7099 49.9193 0.0320694
24.9357 48.3781 2
23.1813 46.9764 3.9753
23.5674 50.1147 0.0370098
21.9622 48.7028 2
20.2782 47.5425 3.97722
20.7075 50.2455 0.0353124
19.2997 49.0237 2
17.9138 48.1202 3.97716
16.3406 48.6361 3.97634
17.1051 49.2786 2
16.0281 50.1253 3.97105
15.5007 52.3786 3.96682
16.9504 51.3588 2
18.2151 50.2721 0.0318944
14.9228 54.9525 3.96383
16.4888 53.8341 2
17.9956 52.7438 0.0360847
14.4712 57.7232 3.96621
16.0013 56.454 2
17.5008 55.308 0.0375717
14.2707 60.6796 3.97089
15.7598 59.1913 2
17.152 57.8497 0.034421
14.3352 63.8571 3.98343
15.791 62.126 2
17.1426 60.5257 0.0298352
14.6715 67.2507 4
16.0878 65.2978 2
17.4093 63.4621 0.0239282
16.6661 68.6801 2
17.9429 66.6171 0.0108283
18.75 69.9759 0
18.9413 15.8024 3.97681
20.2249 14.615 2
18.9827 13.1228 3.97579
21.5904 13.6216 0.02309
20.5308 12.0084 2
19.3442 10.2413 3.98063
19.9919 7.14729 3.98949
21.1437 9.15168 2
22.1915 11.0354 0.0221301
20.9142 3.86727 4
22.0153 6.08306 2
23.042 8.18096 0.0168664
23.1494 2.85451 2
24.1183 5.14342 0.00920681
25.446 1.99014 0
31.0736 35.6381 3.74382
32.5784 35.738 2
34.3247 35.8693 0.262266
21.3153 15.8506 0.0172551
22.1109 16.6542 2
20.3199 16.9801 2
19.2766 18.4333 3.96658
21.7988 17.882 3.98188
25.3911 16.1072 0.0197768
23.2782 16.2656 0.0249598
24.2179 18.5023 2
22.3316 19.9377 3.96664
24.6554 21.4015 3.98816
26.5732 23.7787 3.97585
27.072 21.504 2
27.4532 18.8347 0.0208767
30.5277 33.1082 3.86367
31.784 33.901 2
32.9043 34.1761 0.386377
32.8825 32.4478 0.254154
33.2863 29.9441 0.140003
35.1135 27.5875 0.0941067
32.6835 28.2513 2
31.6765 31.3142 2
30.4433 29.6821 3.93946
28.1388 26.6211 3.99138
28.9555 24.4858 2
29.6316 21.9868 0.00365901
31.8527 25.7621 -0.00566468
29.8791 27.3868 2
29.1857 37.5165 3.87063
30.6361 37.5138 2
32.4293 37.5126 0.347965
31.3777 47.8582 0.0182627
30.7561 44.8184 0.0841432
31.055 39.3873 0.254467
30.4889 41.927 0.149114
29.5374 46.4769 2
29.5588 39.8703 2
29.1577 43.0917 2
27.756 44.7818 3.97042
27.3733 40.5888 3.94523
28.1512 48.1009 0.0405763
26.3057 46.5597 2
24.4567 45.0969 3.97651
24.9369 48.3794 0.0289702
23.1798 46.9762 2
21.2728 45.8107 3.97809
21.9646 48.7039 0.0291949
20.2766 47.5411 2
18.6116 46.6708 3.97736
19.2982 49.0253 0.0278691
17.9143 48.1191 2
16.558 47.6633 3.97698
16.3419 48.6353 2
15.3722 48.9739 3.97479
17.1037 49.2796 0.0262868
16.03 50.1244 2
14.6208 50.9497 3.9693
13.8993 53.4097 3.96551
15.5017 52.3782 2
16.9491 51.3596 0.0328251
13.269 56.1551 3.9647
14.9225 54.9525 2
16.488 53.8344 0.0353382
12.8547 59.1151 3.96932
14.4725 57.7233 2
16.0013 56.4537 0.0361308
12.6811 62.2991 3.98048
14.2713 60.6802 2
15.759 59.1905 0.0330522
12.7746 65.6939 4
14.3332 63.8545 2
15.7914 62.1238 0.0275938
14.6714 67.2507 2
16.0898 65.2992 0.0118397
16.6661 68.6801 0
17.6856 17.1802 3.96856
18.9416 15.8013 2
17.5161 14.3883 3.97479
20.2246 14.6163 0.0247398
18.9824 13.1228 2
17.6403 11.4619 3.97811
20.5314 12.008 0.0234929
19.3433 10.2413 2
18.0521 8.34055 3.98863
18.75 5.0241 4
19.9897 7.14865 2
21.1447 9.15161 0.0180301
20.9142 3.86727 2
22.0174 6.08255 0.0097693
23.1494 2.85457 0
29.6228 35.1845 3.87603
31.0209 35.6161 2
32.5661 35.7399 0.376674
22.1104 16.6546 0.0292963
20.3195 16.9824 0.0208059
21.7987 17.8801 2
19.2759 18.4311 2
18.0512 19.977 3.9585
20.9237 19.4131 3.96852
24.2202 18.4985 0.0278234
22.3291 19.9383 2
24.6545 21.401 2
22.4517 21.7726 3.98021
24.8419 23.2188 3.97464
25.7305 26.0107 3.97836
26.5732 23.7741 2
27.0727 21.512 0.00574745
28.9063 32.451 3.92112
30.4805 33.0831 2
31.817 33.9432 0.260312
31.7219 31.3499 0.151027
32.7236 28.2801 0.0837138
30.4293 29.6825 2
27.4069 29.2078 4.00837
28.1273 26.6301 2
28.9644 24.4739 0.0150834
29.8877 27.4084 0.0226419
27.4845 37.3664 3.92407
29.123 37.5071 2
30.6729 37.5131 0.248116
29.5373 46.4726 0.000409754
29.1884 43.0589 0.0822652
29.6034 39.8523 0.123824
27.7437 44.8117 2
27.3514 40.5899 2
25.7944 43.0867 3.98851
24.6303 39.4514 3.97368
26.31 46.5569 0.0221355
24.4463 45.0979 2
22.3448 43.8567 3.97756
23.1813 46.9764 0.024704
21.2692 45.8104 2
19.3338 44.905 3.97725
20.2782 47.5425 0.0227775
18.6115 46.6698 2
16.8915 46.1583 3.9771
17.9138 48.1202 0.0228393
16.5591 47.6624 2
15.1244 47.629 3.9761
16.3406 48.6361 0.0236589
15.374 48.9732 2
13.9253 49.5132 3.97165
16.0281 50.1253 0.0289466
14.6216 50.9492 2
12.9727 51.8509 3.96704
12.1662 54.5154 3.96513
13.8993 53.4096 2
15.5007 52.3786 0.0331799
11.5405 57.4507 3.96905
13.2696 56.1551 2
14.9228 54.9525 0.0361651
11.1358 60.625 3.97866
12.8558 59.1147 2
14.4712 57.7232 0.0337858
10.9835 64.0165 4
12.6791 62.2957 2
14.2707 60.6796 0.0291139
12.7745 65.694 2
14.3352 63.8571 0.0165655
14.6715 67.2507 0
16.4318 18.6751 3.96258
17.6852 17.179 2
16.1106 15.8004 3.97053
18.9413 15.8024 0.0231866
17.5157 14.3878 2
16.0226 12.8168 3.97567
18.9827 13.1228 0.0242125
17.6397 11.4624 2
16.2031 9.66389 3.98759
19.3442 10.2413 0.0193742
18.0498 8.34237 2
16.6661 6.31991 4
18.75 5.02404 2
19.9919 7.14729 0.0105119
20.9142 3.86727 0
28.0188 34.8208 3.91352
29.573 35.1592 2
31.0736 35.6381 0.256184
16.7658 21.4127 3.96539
21.7988 17.882 0.0181193
19.2766 18.4333 0.0334151
20.9222 19.4112 2
18.0501 19.9762 2
19.829 21.6198 3.96836
22.3316 19.9377 0.0333574
24.6554 21.4015 0.0118357
22.4499 21.7732 2
24.8401 23.2187 2
23.0651 24.6641 3.97381
24.9497 28.5962 3.97893
25.7244 26.0103 2
26.5732 23.7787 0.0241485
26.7565 31.7961 3.97924
28.8784 32.4304 2
30.5277 33.1082 0.136331
30.4433 29.6821 0.0605378
27.4244 29.1894 2
28.1388 26.6211 0.00861655
25.3145 36.857 3.97736
27.4728 37.3583 2
29.1857 37.5165 0.129365
27.756 44.7818 0.0295766
27.3733 40.5888 0.0547682
25.7754 43.1027 2
24.6117 39.4523 2
23.5227 41.8122 3.98085
22.347 38.5207 3.9779
24.4567 45.0969 0.0234889
22.3445 43.8568 2
20.177 42.8423 3.97646
21.2728 45.8107 0.021912
19.3342 44.9048 2
17.2754 44.3285 3.97656
18.6116 46.6708 0.0226371
16.8932 46.1576 2
15.0729 46.0494 3.97636
16.558 47.6633 0.023016
15.1258 47.6284 2
13.4484 47.9771 3.97348
15.3722 48.9739 0.025213
13.9264 49.5126 2
12.1988 50.231 3.96847
14.6208 50.9497 0.0307036
12.9731 51.8506 2
11.1654 52.8265 3.96571
10.331 55.7061 3.96878
12.1665 54.5154 2
13.8993 53.4097 0.0344892
9.70242 58.8475 3.97784
11.5412 57.4504 2
13.269 56.1551 0.0353006
9.30605 62.2254 4
11.1342 60.6212 2
12.8547 59.1151 0.0306792
10.9835 64.0165 2
12.6811 62.2991 0.0195175
12.7746 65.6939 0
15.1956 20.2118 3.96278
16.4325 18.6753 2
14.7625 17.3239 3.96562
17.6856 17.1802 0.0314392
16.1104 15.7988 2
14.4869 14.303 3.97271
17.5161 14.3883 0.0252084
16.022 12.817 2
14.446 11.1157 3.98637
17.6403 11.4619 0.0218863
16.2009 9.6664 2
14.6715 7.74927 4
18.0521 8.34055 0.0113694
16.6661 6.31988 2
18.75 5.0241 0
25.979 34.3169 3.98522
27.9967 34.8288 2
29.6228 35.1845 0.123971
17.9857 22.3672 3.97125
15.6494 22.9571 3.96834
16.7655 21.4129 2
20.9237 19.4131 0.0314805
18.0512 19.977 0.0414974
19.8278 21.6193 2
19.9026 24.4458 3.9706
22.4517 21.7726 0.0197926
24.8419 23.2188 0.0253555
23.0618 24.6642 2
22.3145 27.9052 3.97315
24.3142 31.2753 3.97651
24.9594 28.5968 2
25.7305 26.0107 0.0216402
26.7389 31.7643 2
28.9063 32.451 0.0788794
27.4069 29.2078 -0.00836512
23.068 36.2869 3.98253
25.3001 36.8615 2
27.4845 37.3664 0.0759323
25.7944 43.0867 0.011492
24.6303 39.4514 0.0263227
23.5094 41.8116 2
22.3377 38.5177 2
21.2298 40.6303 3.9753
20.612 37.8026 3.97704
22.3448 43.8567 0.0224439
20.1755 42.8438 2
17.7407 42.0596 3.97621
19.3338 44.905 0.0227506
17.2765 44.3288 2
15.1122 44.1598 3.97629
16.8915 46.1583 0.0228991
15.0741 46.0488 2
13.1429 46.2658 3.9746
15.1244 47.629 0.0239039
13.4497 47.9765 2
11.5815 48.5292 3.96966
13.9253 49.5132 0.0283487
12.1997 50.2306 2
10.2941 51.0715 3.96613
12.9727 51.8509 0.0329569
11.1658 52.8263 2
9.23988 53.8864 3.96865
8.3858 56.981 3.9787
10.3317 55.7055 2
12.1662 54.5154 0.0348731
7.74927 60.3285 4
9.70116 58.8435 2
11.5405 57.4507 0.0309532
9.306 62.2255 2
11.1358 60.625 0.0213382
10.9835 64.0165 0
14.0252 21.7781 3.96519
15.1948 20.2116 2
13.4639 18.9175 3.96489
16.4318 18.6751 0.0374201
14.7636 17.3236 2
13.034 15.8996 3.97019
16.1106 15.8004 0.0294683
14.4861 14.3011 2
12.784 12.6898 3.98327
16.0226 12.8168 0.0243337
14.4437 11.1184 2
12.7746 9.30605 4
16.2031 9.66389 0.0124064
14.6715 7.74924 2
16.6661 6.31991 0
23.656 33.8533 3.98341
25.9549 34.308 2
28.0188 34.8208 0.0864836
17.8382 24.0963 3.97005
17.9888 22.3679 2
14.4875 24.4915 3.97008
15.6505 22.9575 2
16.7658 21.4127 0.0346059
19.3703 27.2753 3.97241
19.829 21.6198 0.0316388
19.898 24.4457 2
21.6645 30.7491 3.97548
23.0651 24.6641 0.0261869
22.3198 27.9074 2
24.2922 31.2759 2
24.9497 28.5962 0.0210692
26.7565 31.7961 0.0207559
20.7345 35.9553 3.97653
23.0687 36.2866 2
25.3145 36.857 0.0226412
23.5227 41.8122 0.0191503
22.347 38.5207 0.0221046
21.2361 40.6311 2
20.6106 37.801 2
18.487 39.0008 3.97709
20.177 42.8423 0.0235426
17.7409 42.0596 2
15.0979 41.8866 3.97667
17.2754 44.3285 0.0234379
15.1133 44.1593 2
12.9038 44.3655 3.97563
15.0729 46.0494 0.0236414
13.1445 46.2652 2
11.0943 46.7147 3.97081
13.4484 47.9771 0.0265185
11.5826 48.5288 2
9.56087 49.2321 3.96643
12.1988 50.231 0.0315325
10.2945 51.0711 2
8.27266 52.0005 3.96844
11.1654 52.8265 0.0342939
9.24053 53.8856 2
7.1948 55.032 3.97945
6.31991 58.3339 4
8.3849 56.9772 2
10.331 55.7061 0.031223
7.74924 60.3285 2
9.70242 58.8475 0.0221556
9.30605 62.2254 0
13.371 25.3957 3.97343
12.9221 23.308 3.96744
14.0241 21.7779 2
12.2548 20.5637 3.96514
15.1956 20.2118 0.0372194
13.4653 18.9172 2
11.6648 17.5762 3.97006
14.7625 17.3239 0.0343844
13.035 15.8988 2
11.2222 14.3761 3.97878
14.4869 14.303 0.0272872
12.7814 12.6934 2
10.9835 10.9835 4
14.446 11.1157 0.0136342
12.7745 9.306 2
14.6715 7.74927 0
21.0991 33.4588 3.97561
23.6565 33.8467 2
25.979 34.3169 0.0147848
16.1614 26.4544 3.97258
17.839 24.0967 2
17.9857 22.3672 0.028751
14.4878 24.492 2
15.6494 22.9571 0.0316569
18.7601 30.2446 3.97504
19.3678 27.2757 2
19.9026 24.4458 0.0293964
21.672 30.7495 2
22.3145 27.9052 0.0268452
24.3142 31.2753 0.0234937
18.0985 35.9869 3.97779
20.7362 35.9558 2
23.068 36.2869 0.0174662
21.2298 40.6303 0.0246953
20.612 37.8026 0.0229632
18.4851 39.0004 2
14.6025 39.1683 3.97729
17.7407 42.0596 0.0237904
15.0985 41.8864 2
12.6001 42.2566 3.97681
15.1122 44.1598 0.0237075
12.9051 44.3649 2
10.682 44.7862 3.97196
13.1429 46.2658 0.0253995
11.0957 46.7143 2
8.94592 47.312 3.96678
11.5815 48.5292 0.0303359
9.56103 49.2318 2
7.4395 50.0343 3.96808
10.2941 51.0715 0.0338744
8.27312 51.9997 2
6.13544 53.0074 3.97986
9.23988 53.8864 0.0313536
7.19428 55.029 2
5.0241 56.25 4
6.31988 58.3339 2
8.3858 56.981 0.0212998
7.74927 60.3285 0
13.6387 26.8497 3.97322
12.0323 24.8119 3.9696
13.3703 25.396 2
11.1734 22.2474 3.96573
12.9227 23.3084 2
14.0252 21.7781 0.0348124
12.2557 20.5637 2
10.396 19.3271 3.96921
13.4639 18.9175 0.0351133
11.6662 17.5765 2
9.763 16.1598 3.97787
13.034 15.8996 0.0298116
11.2201 14.3808 2
9.30607 12.7746 4
12.784 12.6898 0.0167337
10.9835 10.9835 2
12.7746 9.30605 0
18.2696 33.1666 3.97692
21.1001 33.4606 2
23.656 33.8533 0.0165863
15.7851 29.6874 3.97559
16.1618 26.4551 2
17.8382 24.0963 0.0299472
14.4875 24.4915 0.0299177
18.7593 30.2455 2
19.3703 27.2753 0.0275864
21.6645 30.7491 0.0245165
15.2228 36.0358 3.9775
18.0983 35.9869 2
20.7345 35.9553 0.0234689
12.8307 37.83 3.97751
18.487 39.0008 0.0229052
14.6029 39.1681 2
12.106 40.1298 3.97731
15.0979 41.8866 0.0233286
12.6016 42.256 2
10.2883 42.7656 3.97205
12.9038 44.3655 0.0243704
10.6832 44.7859 2
8.42564 45.3148 3.96718
11.0943 46.7147 0.0291869
8.94561 47.3117 2
6.73061 47.9997 3.96785
9.56087 49.2321 0.0335671
7.4398 50.0336 2
5.21223 50.9108 3.97955
8.27266 52.0005 0.0315573
6.1352 53.0053 2
3.86727 54.0858 4
7.1948 55.032 0.0205536
5.02404 56.25 2
6.31991 58.3339 0
13.1191 29.066 3.97274
11.4771 26.5107 3.97009
13.6385 26.8501 2
10.2347 23.9786 3.96662
12.0338 24.8124 2
13.371 25.3957 0.0265656
9.24847 21.1428 3.96869
11.1737 22.2476 2
12.9221 23.308 0.032563
12.2548 20.5637 0.034857
10.3974 19.3276 2
8.4186 18.0304 3.97819
11.6648 17.5762 0.0299382
9.76148 16.1647 2
7.74928 14.6715 4
11.2222 14.3761 0.021224
9.30602 12.7745 2
10.9835 10.9835 0
14.7767 32.9018 3.97727
18.2682 33.1662 2
21.0991 33.4588 0.024386
15.7867 29.6882 2
16.1614 26.4544 0.0274163
18.7601 30.2446 0.0249642
13.1226 36.2208 3.97725
15.2225 36.0356 2
18.0985 35.9869 0.0222133
12.8325 37.8297 2
11.447 38.3085 3.97723
14.6025 39.1683 0.0227094
12.1086 40.1293 2
9.86982 40.747 3.97272
12.6001 42.2566 0.0231922
10.2905 42.7653 2
7.97488 43.2651 3.96776
10.682 44.7862 0.0280404
8.42617 45.3145 2
6.1366 45.9049 3.9678
8.94592 47.312 0.0332195
6.73088 47.9991 2
4.4237 48.7514 3.97895
7.4395 50.0343 0.0319183
5.21218 50.9096 2
2.85457 51.8506 4
6.13544 53.0074 0.0201399
3.86727 54.0858 2
5.0241 56.25 0
12.2597 31.2827 3.97385
10.8984 28.4362 3.97037
13.1205 29.0665 2
9.45291 25.8076 3.96706
11.4782 26.5111 2
13.6387 26.8497 0.0267774
8.23525 23.0258 3.96854
10.2352 23.9789 2
12.0323 24.8119 0.0304012
7.20073 19.9798 3.97895
9.24963 21.1435 2
11.1734 22.2474 0.0342721
10.396 19.3271 0.0307851
8.41779 18.035 2
6.31992 16.6661 4
9.763 16.1598 0.0221258
7.74926 14.6714 2
9.30607 12.7746 0
12.2897 34.3145 3.97696
14.7778 32.9026 2
18.2696 33.1666 0.0230762
15.7851 29.6874 0.0244146
10.9909 36.6159 3.97694
13.1239 36.2207 2
15.2228 36.0358 0.0224988
12.8307 37.83 0.0224855
11.45 38.3085 2
9.45447 38.821 3.97357
12.106 40.1298 0.0226917
9.87141 40.7467 2
7.58396 41.2084 3.96837
10.2883 42.7656 0.0279485
7.97425 43.2648 2
5.64816 43.768 3.96807
8.42564 45.3148 0.0328213
6.13679 45.9044 2
3.76922 46.537 3.97862
6.73061 47.9997 0.0321459
4.42385 48.7508 2
1.99014 49.554 4
5.21223 50.9108 0.0204546
2.85451 51.8506 2
3.86727 54.0858 0
11.0806 32.9365 3.97636
10.2105 30.3995 3.97112
12.2615 31.2833 2
8.76433 27.7405 3.96729
10.8996 28.4366 2
13.1191 29.066 0.0272552
7.36059 24.984 3.96827
9.45293 25.8079 2
11.4771 26.5107 0.0299076
6.11769 22.0027 3.97974
8.23597 23.0264 2
10.2347 23.9786 0.0333829
5.02411 18.75 4
7.20038 19.9833 2
9.24847 21.1428 0.0313061
8.4186 18.0304 0.0218077
6.3199 16.6661 2
7.74928 14.6715 0
10.5884 35.0093 3.97641
12.292 34.315 2
14.7767 32.9018 0.0227301
9.11655 36.9868 3.97373
10.9938 36.6162 2
13.1226 36.2208 0.0227497
11.447 38.3085 0.022774
9.45598 38.8208 2
7.26084 39.1811 3.96874
9.86982 40.747 0.0272841
7.58424 41.2082 2
5.2631 41.6138 3.96816
7.97488 43.2651 0.0322406
5.64831 43.7676 2
3.24682 44.2818 3.97887
6.1366 45.9049 0.0322029
3.76945 46.5366 2
1.27781 47.2057 4
4.4237 48.7514 0.0210462
1.99012 49.554 2
2.85457 51.8506 0
10.226 33.8934 3.97669
9.49225 32.1673 3.97186
11.0829 32.937 2
8.10916 29.7024 3.9678
10.212 30.3999 2
12.2597 31.2827 0.0261509
6.60391 27.0095 3.96823
8.76401 27.7407 2
10.8984 28.4362 0.0296305
5.17307 24.0952 3.97966
7.36097 24.9845 2
9.45291 25.8076 0.032944
3.86728 20.9142 4
6.11758 22.0048 2
8.23525 23.0258 0.0314554
5.02406 18.75 2
7.20073 19.9798 0.0210537
6.31992 16.6661 0
8.937 35.2849 3.97371
10.591 35.0096 2
12.2897 34.3145 0.023041
7.03958 37.2065 3.96858
9.11815 36.9867 2
10.9909 36.6159 0.0230578
9.45447 38.821 0.0264321
7.2615 39.181 2
4.99064 39.4673 3.96837
7.58396 41.2084 0.0316315
5.26363 41.6135 2
2.85718 42.0021 3.979
5.64816 43.768 0.0319309
3.24693 44.2815 2
0.720592 44.8159 4
3.76922 46.537 0.0213811
1.27778 47.2057 2
1.99014 49.554 0
8.97913 33.7065 3.97305
10.2284 33.8937 2
7.54321 31.6143 3.96805
9.49403 32.1676 2
11.0806 32.9365 0.0236392
5.94873 29.0703 3.96838
8.10868 29.7026 2
10.2105 30.3995 0.0288782
4.36065 26.2475 3.97928
6.60412 27.0099 2
8.76433 27.7405 0.0327138
2.85458 23.1494 4
5.1731 24.0961 2
7.36059 24.984 0.0317253
3.86728 20.9142 2
6.11769 22.0027 0.0202611
5.02411 18.75 0
6.98756 35.3081 3.96856
8.93854 35.285 2
10.5884 35.0093 0.0235865
4.84075 37.3399 3.96872
7.0404 37.2065 2
9.11655 36.9868 0.0262737
7.26084 39.1811 0.0312592
4.99116 39.4672 2
2.60519 39.7137 3.97903
5.2631 41.6138 0.0318371
2.85759 42.002 2
0.320823 42.3947 4
3.24682 44.2818 0.021131
0.720551 44.8159 2
1.27781 47.2057 0
7.15236 33.4645 3.96829
8.98062 33.7067 2
10.226 33.8934 0.0233083
5.41934 31.134 3.9686
7.5432 31.6145 2
9.49225 32.1673 0.0281412
3.68221 28.4435 3.97901
5.94893 29.0707 2
8.10916 29.7024 0.0321982
1.99015 25.446 4
4.36077 26.2479 2
6.60391 27.0095 0.0317686
2.85453 23.1494 2
5.17307 24.0952 0.0203442
3.86728 20.9142 0
4.85512 35.2518 3.9687
6.98754 35.3082 2
8.937 35.2849 0.0262872
2.49662 37.4283 3.97976
4.8408 37.34 2
7.03958 37.2065 0.0314235
4.99064 39.4673 0.0316303
2.6057 39.714 2
0.080333 39.9526 4
2.85718 42.0021 0.0209964
0.320817 42.3947 2
0.720592 44.8159 0
5.04856 33.1905 3.9687
7.15248 33.4646 2
8.97913 33.7065 0.0269452
3.14641 30.6662 3.97907
5.41953 31.1345 2
7.54321 31.6143 0.031948
1.27793 27.7943 4
3.68247 28.4437 2
5.94873 29.0703 0.0316227
1.99013 25.446 2
4.36065 26.2475 0.020718
2.85458 23.1494 0
2.54874 35.1589 3.97949
4.85573 35.2521 2
6.98756 35.3081 0.0314449
0 37.5 4
2.49668 37.4287 2
4.84075 37.3399 0.0312796
2.60519 39.7137 0.0209723
0.0802903 39.9526 2
0.320823 42.3947 0
2.76639 32.9057 3.97961
5.04875 33.1909 2
7.15236 33.4645 0.0317084
0.721173 30.1842 4
3.14669 30.6666 2
5.41934 31.134 0.0313979
1.27779 27.7943 2
3.68221 28.4435 0.0209918
1.99015 25.446 0
0.0806499 35.0474 4
2.54933 35.1594 2
4.85512 35.2518 0.0312967
0 37.5 2
2.49662 37.4283 0.0202419
0.080333 39.9526 0
0.32156 32.6054 4
2.76652 32.9063 2
5.04856 33.1905 0.0313005
0.72056 30.1841 2
3.14641 30.6662 0.0209256
1.27793 27.7943 0
0.0802889 35.0474 2
2.54874 35.1589 0.0205132
0 37.5 0
0.320817 32.6053 2
2.76639 32.9057 0.0203863
0.721173 30.1842 0
0.0806499 35.0474 0
0.32156 32.6054 0
CELLS 1910 17190
8 18 6 25 56 2 0 5 16
8 57 23 6 18 17 4 0 2
8 78 36 9 29 31 11 1 7
8 31 11 1 7 79 37 10 30
8 110 57 18 50 48 17 2 14
8 50 18 56 111 14 2 16 49
8 116 62 22 55 52 20 3 15
8 56 25 67 118 16 5 24 53
8 119 63 23 57 54 21 4 17
8 55 22 63 119 15 3 21 54
8 58 26 68 121 18 6 25 56
8 122 65 26 58 57 23 6 18
8 73 31 7 27 142 79 30 71
8 143 78 29 72 73 31 7 27
8 83 147 76 34 32 74 28 8
8 84 148 78 36 33 75 29 9
8 76 34 8 28 148 84 33 75
8 37 79 150 86 10 30 77 35
8 151 87 36 78 80 38 11 31
8 80 38 11 31 152 88 37 79
8 175 100 42 94 96 44 12 40
8 44 96 176 101 12 40 95 43
8 101 176 98 46 43 95 41 13
8 46 98 178 103 13 41 97 45
8 178 103 45 97 147 83 32 74
8 189 116 55 109 106 52 15 47
8 111 56 118 191 49 16 53 107
8 192 119 57 110 108 54 17 48
8 109 55 119 192 47 15 54 108
8 194 122 58 112 110 57 18 50
8 112 58 121 195 50 18 56 111
8 115 61 19 51 197 124 59 113
8 115 61 125 198 51 19 60 114
8 198 125 62 116 114 60 20 52
8 200 127 64 120 116 62 22 55
8 118 67 132 202 53 24 66 117
8 121 68 133 203 56 25 67 118
8 120 64 128 204 55 22 63 119
8 204 128 65 122 119 63 23 57
8 206 134 68 121 123 69 26 58
8 123 69 26 58 207 131 65 122
8 226 147 74 138 140 76 28 70
8 229 148 75 139 143 78 29 72
8 140 76 28 70 229 148 75 139
8 142 79 30 71 231 150 77 141
8 144 80 31 73 232 152 79 142
8 233 151 78 143 144 80 31 73
8 150 86 35 77 235 154 81 145
8 235 154 81 145 146 82 39 91
8 146 82 39 91 236 155 90 165
8 238 157 83 147 149 85 34 76
8 239 158 84 148 151 87 36 78
8 149 85 34 76 239 158 84 148
8 152 88 37 79 241 160 86 150
8 242 161 87 151 153 89 38 80
8 153 89 38 80 243 162 88 152
8 171 98 41 92 265 178 97 169
8 265 178 97 169 226 147 74 138
8 172 96 40 93 266 176 95 170
8 266 176 95 170 171 98 41 92
8 269 175 94 173 172 96 40 93
8 271 180 99 174 175 100 42 94
8 197 124 59 113 271 180 99 174
8 272 181 100 175 177 102 44 96
8 273 182 101 176 179 104 46 98
8 177 102 44 96 273 182 101 176
8 179 104 46 98 275 184 103 178
8 275 184 103 178 238 157 83 147
8 188 115 51 105 283 197 113 186
8 188 115 198 284 105 51 114 187
8 284 198 116 189 187 114 52 106
8 286 200 120 193 189 116 55 109
8 191 118 202 288 107 53 117 190
8 195 121 203 289 111 56 118 191
8 193 120 204 290 109 55 119 192
8 290 204 122 194 192 119 57 110
8 196 123 58 112 292 207 122 194
8 293 206 121 195 196 123 58 112
8 199 126 61 115 297 211 124 197
8 298 212 127 200 198 125 62 116
8 199 126 212 298 115 61 125 198
8 205 129 64 120 300 214 127 200
8 301 217 130 201 202 132 66 117
8 209 136 168 264 301 217 130 201
8 302 219 132 202 203 133 67 118
8 303 220 133 203 206 134 68 121
8 205 129 215 304 120 64 128 204
8 304 215 131 207 204 128 65 122
8 306 221 134 206 208 135 69 123
8 208 135 69 123 307 218 131 207
8 210 137 167 263 309 223 136 209
8 328 238 147 226 230 149 76 140
8 228 146 91 166 329 236 165 260
8 231 150 77 141 330 235 145 227
8 330 235 145 227 228 146 91 166
8 332 239 148 229 233 151 78 143
8 230 149 76 140 332 239 148 229
8 232 152 79 142 334 241 150 231
8 234 153 80 144 335 243 152 232
8 336 242 151 233 234 153 80 144
8 236 155 90 165 338 245 164 259
8 241 160 86 150 339 246 154 235
8 339 246 154 235 237 156 82 146
8 237 156 82 146 340 247 155 236
8 342 249 157 238 240 159 85 149
8 343 250 158 239 242 161 87 151
8 240 159 85 149 343 250 158 239
8 243 162 88 152 345 252 160 241
8 244 163 253 346 153 89 161 242
8 244 163 89 153 347 254 162 243
8 311 224 261 371 210 137 167 263
8 263 167 262 372 209 136 168 264
8 267 179 98 171 375 275 178 265
8 375 275 178 265 328 238 147 226
8 376 273 176 266 267 179 98 171
8 268 177 96 172 376 273 176 266
8 379 272 175 269 268 177 96 172
8 380 271 174 270 269 175 94 173
8 283 197 113 186 380 271 174 270
8 381 277 180 271 272 181 100 175
8 297 211 124 197 381 277 180 271
8 382 278 181 272 274 183 102 177
8 274 183 102 177 383 279 182 273
8 383 279 182 273 276 185 104 179
8 385 281 184 275 342 249 157 238
8 276 185 104 179 385 281 184 275
8 285 199 115 188 393 297 197 283
8 394 298 200 286 284 198 116 189
8 285 199 298 394 188 115 198 284
8 291 205 120 193 396 300 200 286
8 397 301 201 287 288 202 117 190
8 295 209 264 374 397 301 201 287
8 398 302 202 288 289 203 118 191
8 399 303 203 289 293 206 121 195
8 291 205 304 400 193 120 204 290
8 400 304 207 292 290 204 122 194
8 294 208 123 196 402 307 207 292
8 403 306 206 293 294 208 123 196
8 296 210 263 373 405 309 209 295
8 408 312 213 299 297 211 126 199
8 299 213 313 409 199 126 212 298
8 409 313 214 300 298 212 127 200
8 305 216 129 205 411 315 214 300
8 412 318 217 301 302 219 132 202
8 309 223 136 209 412 318 217 301
8 413 320 219 302 303 220 133 203
8 306 221 321 414 206 134 220 303
8 307 218 131 207 415 316 215 304
8 305 216 316 415 205 129 215 304
8 417 322 221 306 308 222 135 208
8 308 222 135 208 418 319 218 307
8 310 225 137 210 420 325 223 309
8 423 326 224 311 310 225 137 210
8 329 236 165 260 441 338 259 368
8 442 342 238 328 333 240 149 230
8 331 237 146 228 443 340 236 329
8 334 241 150 231 444 339 235 330
8 444 339 235 330 331 237 146 228
8 446 343 239 332 336 242 151 233
8 333 240 149 230 446 343 239 332
8 335 243 152 232 448 345 241 334
8 337 244 153 234 449 347 243 335
8 337 244 346 450 234 153 242 336
8 338 245 164 259 452 349 258 367
8 340 247 155 236 453 350 245 338
8 345 252 160 241 454 351 246 339
8 454 351 246 339 341 248 156 237
8 341 248 156 237 455 352 247 340
8 240 159 251 344 342 249 354 457
8 242 161 253 346 343 250 355 458
8 343 250 355 458 240 159 251 344
8 347 254 162 243 460 357 252 345
8 348 255 358 461 244 163 253 346
8 348 255 163 244 462 359 254 347
8 473 360 257 365 363 256 364 482
8 452 349 258 367 365 257 366 485
8 422 324 369 488 311 224 261 371
8 371 261 370 490 263 167 262 372
8 407 311 371 491 296 210 263 373
8 373 263 372 492 295 209 264 374
8 493 385 275 375 442 342 238 328
8 377 276 179 267 493 385 275 375
8 378 274 177 268 494 383 273 376
8 494 383 273 376 377 276 179 267
8 497 382 272 379 378 274 177 268
8 498 381 271 380 379 272 175 269
8 393 297 197 283 498 381 271 380
8 499 387 277 381 382 278 181 272
8 408 312 211 297 499 387 277 381
8 500 388 278 382 384 280 183 274
8 501 389 279 383 386 282 185 276
8 384 280 183 274 501 389 279 383
8 386 282 185 276 503 391 281 385
8 503 391 281 385 457 354 249 342
8 511 408 299 395 393 297 199 285
8 395 299 409 512 285 199 298 394
8 512 409 300 396 394 298 200 286
8 401 305 205 291 514 411 300 396
8 515 412 301 397 398 302 202 288
8 405 309 209 295 515 412 301 397
8 516 413 302 398 399 303 203 289
8 403 306 414 517 293 206 303 399
8 402 307 207 292 518 415 304 400
8 401 305 415 518 291 205 304 400
8 404 308 208 294 520 418 307 402
8 521 417 306 403 404 308 208 294
8 406 310 210 296 523 420 309 405
8 526 423 311 407 406 310 210 296
8 410 314 213 299 527 424 312 408
8 528 425 315 411 409 313 214 300
8 410 314 425 528 299 213 313 409
8 416 317 216 305 530 427 315 411
8 531 430 318 412 413 320 219 302
8 420 325 223 309 531 430 318 412
8 532 432 320 413 414 321 220 303
8 417 322 433 533 306 221 321 414
8 418 319 218 307 534 428 316 415
8 416 317 428 534 305 216 316 415
8 419 323 434 536 308 222 322 417
8 419 323 222 308 537 431 319 418
8 421 327 225 310 539 438 325 420
8 421 327 439 541 310 225 326 423
8 543 437 324 422 423 326 224 311
8 441 338 259 368 559 452 367 486
8 443 340 236 329 560 453 338 441
8 333 240 344 447 442 342 457 561
8 445 341 237 331 562 455 340 443
8 448 345 241 334 563 454 339 444
8 563 454 339 444 445 341 237 331
8 336 242 346 450 446 343 458 565
8 446 343 458 565 333 240 344 447
8 449 347 243 335 567 460 345 448
8 451 348 244 337 568 462 347 449
8 451 348 461 569 337 244 346 450
8 570 463 349 452 473 360 257 365
8 453 350 245 338 570 463 349 452
8 455 352 247 340 571 464 350 453
8 460 357 252 345 572 465 351 454
8 572 465 351 454 456 353 248 341
8 456 353 248 341 573 466 352 455
8 344 251 356 459 457 354 468 575
8 458 355 469 576 344 251 356 459
8 346 253 358 461 458 355 469 576
8 462 359 254 347 578 471 357 460
8 348 255 359 462 461 358 472 579
8 591 474 360 473 475 361 256 363
8 475 361 256 363 594 477 362 479
8 363 256 364 482 479 362 480 603
8 590 473 365 484 481 363 482 605
8 482 364 257 365 606 483 366 485
8 559 452 367 486 484 365 485 607
8 542 436 487 609 422 324 369 488
8 525 422 488 611 407 311 371 491
8 488 369 489 612 371 261 370 490
8 491 371 490 613 373 263 372 492
8 495 386 276 377 614 503 385 493
8 614 503 385 493 561 457 342 442
8 615 501 383 494 495 386 276 377
8 496 384 274 378 615 501 383 494
8 618 500 382 497 496 384 274 378
8 619 499 381 498 497 382 272 379
8 511 408 297 393 619 499 381 498
8 620 505 387 499 500 388 278 382
8 527 424 312 408 620 505 387 499
8 502 390 506 621 384 280 388 500
8 622 507 389 501 504 392 282 386
8 502 390 280 384 622 507 389 501
8 504 392 282 386 624 509 391 503
8 624 509 391 503 575 468 354 457
8 513 410 299 395 630 527 408 511
8 631 528 411 514 512 409 300 396
8 513 410 528 631 395 299 409 512
8 519 416 305 401 633 530 411 514
8 634 531 412 515 516 413 302 398
8 523 420 309 405 634 531 412 515
8 635 532 413 516 517 414 303 399
8 521 417 533 636 403 306 414 517
8 520 418 307 402 637 534 415 518
8 519 416 534 637 401 305 415 518
8 522 419 308 404 639 537 418 520
8 522 419 536 640 404 308 417 521
8 524 421 310 406 642 539 420 523
8 524 421 541 644 406 310 423 526
8 646 543 422 525 526 423 311 407
8 529 426 314 410 647 544 424 527
8 528 425 545 648 411 315 427 530
8 529 426 545 648 410 314 425 528
8 535 429 317 416 649 546 427 530
8 650 548 430 531 532 432 320 413
8 539 438 325 420 650 548 430 531
8 533 433 550 651 414 321 432 532
8 536 434 551 652 417 322 433 533
8 537 431 319 418 653 547 428 534
8 535 429 547 653 416 317 428 534
8 538 435 552 654 419 323 434 536
8 538 435 323 419 655 549 431 537
8 540 440 327 421 657 556 438 539
8 540 440 557 659 421 327 439 541
8 541 439 555 660 423 326 437 543
8 661 554 436 542 543 437 324 422
8 676 570 452 559 590 473 365 484
8 560 453 338 441 676 570 452 559
8 562 455 340 443 677 571 453 560
8 447 344 459 566 561 457 575 678
8 564 456 341 445 679 573 455 562
8 567 460 345 448 680 572 454 563
8 680 572 454 563 564 456 341 445
8 565 458 576 682 447 344 459 566
8 450 346 461 569 565 458 576 682
8 568 462 347 449 684 578 460 567
8 451 348 462 568 569 461 579 685
8 686 580 463 570 591 474 360 473
8 571 464 350 453 686 580 463 570
8 573 466 352 455 687 581 464 571
8 572 465 582 688 460 357 471 578
8 574 467 582 688 456 353 465 572
8 574 467 353 456 689 583 466 573
8 459 356 470 577 575 468 585 691
8 576 469 586 692 459 356 470 577
8 461 358 472 579 576 469 586 692
8 462 359 471 578 579 472 588 694
8 704 591 473 590 593 475 363 481
8 595 476 592 705 475 361 474 591
8 593 475 363 481 707 594 479 602
8 594 477 362 479 709 598 478 600
8 595 476 361 475 711 597 477 594
8 479 362 480 603 600 478 601 720
8 481 363 482 605 602 479 603 722
8 603 480 364 482 723 604 483 606
8 605 482 365 484 724 606 485 607
8 656 553 608 726 542 436 487 609
8 645 542 609 728 525 422 488 611
8 609 487 610 729 488 369 489 612
8 611 488 612 730 491 371 490 613
8 616 504 386 495 731 624 503 614
8 731 624 503 614 678 575 457 561
8 732 622 501 615 616 504 386 495
8 617 502 384 496 732 622 501 615
8 617 502 621 735 496 384 500 618
8 736 620 499 619 618 500 382 497
8 630 527 408 511 736 620 499 619
8 621 506 626 737 500 388 505 620
8 647 544 424 527 737 626 505 620
8 623 508 627 738 502 390 506 621
8 623 508 390 502 739 628 507 622
8 625 510 628 739 504 392 507 622
8 740 629 509 624 691 585 468 575
8 625 510 392 504 740 629 509 624
8 632 529 410 513 744 647 527 630
8 631 528 648 745 514 411 530 633
8 632 529 648 745 513 410 528 631
8 638 535 416 519 746 649 530 633
8 747 650 531 634 635 532 413 516
8 642 539 420 523 747 650 531 634
8 636 533 651 748 517 414 532 635
8 640 536 652 749 521 417 533 636
8 639 537 418 520 750 653 534 637
8 638 535 653 750 519 416 534 637
8 641 538 419 522 751 655 537 639
8 641 538 654 752 522 419 536 640
8 643 540 421 524 753 657 539 642
8 643 540 659 755 524 421 541 644
8 644 541 660 757 526 423 543 646
8 758 661 542 645 646 543 422 525
8 529 426 544 647 648 545 662 759
8 530 427 545 648 649 546 663 760
8 535 429 546 649 653 547 664 761
8 762 666 548 650 651 550 432 532
8 657 556 438 539 762 666 548 650
8 652 551 668 763 533 433 550 651
8 654 552 669 764 536 434 551 652
8 655 549 431 537 765 665 547 653
8 538 435 549 655 654 552 667 766
8 661 554 671 768 542 436 553 656
8 658 558 440 540 769 674 556 657
8 658 558 675 770 540 440 557 659
8 659 557 673 771 541 439 555 660
8 660 555 672 772 543 437 554 661
8 788 686 570 676 704 591 473 590
8 677 571 453 560 788 686 570 676
8 679 573 455 562 789 687 571 677
8 566 459 577 683 678 575 691 790
8 681 574 456 564 791 689 573 679
8 680 572 688 792 567 460 578 684
8 681 574 688 792 564 456 572 680
8 682 576 692 794 566 459 577 683
8 569 461 579 685 682 576 692 794
8 568 462 578 684 685 579 694 796
8 687 581 464 571 798 696 580 686
8 798 696 580 686 705 592 474 591
8 689 583 466 573 799 697 581 687
8 688 582 698 800 578 471 588 694
8 690 584 698 800 574 467 582 688
8 690 584 467 574 801 699 583 689
8 693 587 701 803 577 470 585 691
8 693 587 470 577 804 702 586 692
8 695 589 702 804 579 472 586 692
8 695 589 472 579 805 703 588 694
8 708 595 705 813 593 475 591 704
8 710 596 706 814 595 476 592 705
8 707 594 479 602 816 709 600 719
8 708 595 475 593 817 711 594 707
8 709 598 478 600 819 715 599 717
8 711 597 477 594 820 714 598 709
8 710 596 476 595 822 713 597 711
8 600 478 601 720 717 599 718 832
8 602 479 603 722 719 600 720 834
8 720 601 480 603 835 721 604 723
8 722 603 482 605 836 723 606 724
8 767 670 725 839 656 553 608 726
8 756 656 726 841 645 542 609 728
8 726 608 727 842 609 487 610 729
8 728 609 729 843 611 488 612 730
8 844 740 624 731 790 691 575 678
8 733 625 504 616 844 740 624 731
8 734 623 502 617 845 739 622 732
8 733 625 739 845 616 504 622 732
8 734 623 738 846 617 502 621 735
8 735 621 737 847 618 500 620 736
8 744 647 527 630 847 737 620 736
8 621 506 627 738 737 626 741 848
8 647 544 626 737 759 662 741 848
8 623 508 628 739 738 627 742 849
8 740 629 585 691 850 743 700 802
8 625 510 629 740 739 628 743 850
8 632 529 647 744 745 648 759 854
8 633 530 648 745 746 649 760 855
8 638 535 649 746 750 653 761 856
8 857 762 650 747 748 651 532 635
8 753 657 539 642 857 762 650 747
8 749 652 763 858 636 533 651 748
8 752 654 764 859 640 536 652 749
8 751 655 537 639 860 765 653 750
8 641 538 655 751 752 654 766 861
8 754 658 540 643 862 769 657 753
8 754 658 770 863 643 540 659 755
8 755 659 771 864 644 541 660 757
8 758 661 768 866 645 542 656 756
8 757 660 772 867 646 543 661 758
8 759 662 773 868 648 545 663 760
8 649 546 663 760 761 664 774 871
8 765 665 547 653 872 775 664 761
8 873 777 666 762 763 668 550 651
8 769 674 556 657 873 777 666 762
8 764 669 779 874 652 551 668 763
8 654 552 667 766 764 669 778 875
8 655 549 665 765 766 667 776 876
8 768 671 782 877 656 553 670 767
8 772 672 783 878 661 554 671 768
8 658 558 674 769 770 675 786 879
8 659 557 675 770 771 673 785 881
8 882 784 672 772 771 673 555 660
8 789 687 571 677 897 798 686 788
8 897 798 686 788 813 705 591 704
8 791 689 573 679 898 799 687 789
8 795 693 803 900 683 577 691 790
8 793 690 574 681 901 801 689 791
8 792 688 800 902 684 578 694 796
8 793 690 800 902 681 574 688 792
8 795 693 577 683 903 804 692 794
8 797 695 804 903 685 579 692 794
8 797 695 579 685 904 805 694 796
8 905 806 697 799 798 696 581 687
8 814 706 806 905 705 592 696 798
8 689 583 697 799 801 699 808 907
8 800 698 809 908 694 588 703 805
8 690 584 699 801 800 698 809 908
8 803 701 810 909 691 585 700 802
8 693 587 702 804 803 701 811 910
8 695 589 703 805 804 702 812 911
8 818 710 814 919 708 595 705 813
8 821 712 815 920 710 596 706 814
8 816 709 600 719 922 819 717 831
8 817 711 594 707 923 820 709 816
8 818 710 595 708 924 822 711 817
8 819 715 599 717 926 827 716 829
8 820 714 598 709 927 826 715 819
8 929 825 713 822 820 714 597 711
8 821 712 596 710 930 824 713 822
8 717 599 718 832 829 716 830 942
8 719 600 720 834 831 717 832 944
8 832 718 601 720 945 833 721 835
8 834 720 603 722 946 835 723 836
8 869 780 838 950 767 670 725 839
8 865 767 839 952 756 656 726 841
8 839 725 840 953 726 608 727 842
8 841 726 842 954 728 609 729 843
8 844 740 691 790 955 850 802 899
8 733 625 740 844 845 739 850 955
8 734 623 739 845 846 738 849 956
8 735 621 738 846 847 737 848 957
8 744 647 737 847 854 759 848 957
8 738 627 742 849 848 741 851 958
8 848 741 851 958 759 662 773 868
8 850 743 700 802 959 852 807 906
8 849 742 628 739 959 852 743 850
8 854 759 868 965 745 648 760 855
8 746 649 760 855 856 761 871 966
8 860 765 653 750 967 872 761 856
8 968 873 762 857 858 763 651 748
8 862 769 657 753 968 873 762 857
8 859 764 874 969 749 652 763 858
8 752 654 766 861 859 764 875 970
8 751 655 765 860 861 766 876 971
8 754 658 769 862 863 770 879 972
8 755 659 770 863 864 771 881 974
8 976 882 772 867 864 771 660 757
8 866 768 877 977 756 656 767 865
8 867 772 878 978 758 661 768 866
8 760 663 773 868 871 774 883 980
8 870 781 837 948 982 890 780 869
8 982 890 780 869 877 782 670 767
8 761 664 774 871 872 775 884 984
8 876 776 665 765 985 885 775 872
8 873 777 668 763 986 887 779 874
8 769 674 777 873 879 786 887 986
8 764 669 778 875 874 779 888 987
8 766 667 776 876 875 778 886 988
8 878 783 892 989 768 671 782 877
8 878 783 672 772 990 893 784 882
8 880 787 675 770 991 896 786 879
8 880 787 895 992 770 675 785 881
8 881 785 894 993 771 673 784 882
8 1006 905 799 898 897 798 687 789
8 919 814 905 1006 813 705 798 897
8 791 689 799 898 901 801 907 1007
8 900 803 909 1009 790 691 802 899
8 795 693 804 903 900 803 910 1010
8 902 800 908 1011 796 694 805 904
8 793 690 801 901 902 800 908 1011
8 797 695 805 904 903 804 911 1012
8 799 697 806 905 907 808 912 1013
8 920 815 912 1013 814 706 806 905
8 802 700 810 909 906 807 913 1014
8 801 699 808 907 908 809 914 1015
8 805 703 809 908 911 812 915 1016
8 803 701 811 910 909 810 916 1017
8 911 812 917 1018 804 702 811 910
8 925 821 920 1030 818 710 814 919
8 928 823 921 1031 821 712 815 920
8 922 819 717 831 1033 926 829 941
8 923 820 709 816 1034 927 819 922
8 1035 929 822 924 923 820 711 817
8 925 821 710 818 1036 930 822 924
8 1038 933 825 929 927 826 714 820
8 926 827 716 829 1039 935 828 939
8 927 826 715 819 1040 934 827 926
8 928 823 712 821 1041 931 824 930
8 1042 932 824 930 929 825 713 822
8 829 716 830 942 939 828 940 1058
8 831 717 832 944 941 829 942 1060
8 942 830 718 832 1061 943 833 945
8 944 832 720 834 1062 945 835 946
8 981 889 947 1064 870 781 837 948
8 948 837 949 1067 869 780 838 950
8 975 869 950 1069 865 767 839 952
8 950 838 951 1070 839 725 840 953
8 952 839 953 1071 841 726 842 954
8 955 850 802 899 1072 959 906 1008
8 956 849 739 845 1072 959 850 955
8 846 738 849 956 957 848 958 1073
8 957 848 958 1073 854 759 868 965
8 849 742 852 959 958 851 961 1076
8 960 853 961 1076 906 807 852 959
8 958 851 961 1076 868 773 883 980
8 960 853 807 906 1077 963 913 1014
8 855 760 868 965 966 871 980 1085
8 856 761 871 966 967 872 984 1086
8 971 876 765 860 1087 985 872 967
8 968 873 763 858 1088 986 874 969
8 862 769 873 968 972 879 986 1088
8 859 764 875 970 969 874 987 1089
8 861 766 876 971 970 875 988 1090
8 973 880 770 863 1091 991 879 972
8 973 880 992 1092 863 770 881 974
8 974 881 993 1093 864 771 882 976
8 979 870 948 1066 1094 982 869 975
8 1094 982 869 975 977 877 767 865
8 978 878 772 867 1095 990 882 976
8 978 878 989 1096 866 768 877 977
8 871 774 883 980 984 884 994 1099
8 983 891 999 1100 870 781 889 981
8 1101 1000 890 982 989 892 782 877
8 983 891 781 870 1101 1000 890 982
8 872 775 884 984 985 885 995 1103
8 876 776 885 985 988 886 996 1104
8 986 887 779 874 1105 998 888 987
8 879 786 887 986 991 896 998 1105
8 875 778 886 988 987 888 997 1106
8 990 893 1002 1107 878 783 892 989
8 1108 1003 893 990 993 894 784 882
8 880 787 896 991 992 895 1005 1109
8 993 894 785 881 1110 1004 895 992
8 898 799 905 1006 1007 907 1013 1120
8 1030 920 1013 1120 919 814 905 1006
8 901 801 907 1007 1011 908 1015 1121
8 899 802 909 1009 1008 906 1014 1122
8 900 803 910 1010 1009 909 1017 1123
8 1012 911 1018 1124 903 804 910 1010
8 904 805 908 1011 1012 911 1016 1125
8 1013 912 1020 1127 907 808 914 1015
8 1031 921 1020 1127 920 815 912 1013
8 1019 918 962 1075 1128 1021 913 1014
8 1128 1021 913 1014 1017 916 810 909
8 1015 914 1022 1129 908 809 915 1016
8 1016 915 1023 1130 911 812 917 1018
8 1018 917 1024 1131 910 811 916 1017
8 1037 928 1031 1148 925 821 920 1030
8 928 823 931 1041 1031 921 1032 1149
8 1033 926 829 941 1151 1039 939 1057
8 1034 927 819 922 1152 1040 926 1033
8 1153 1038 929 1035 1034 927 820 923
8 1154 1042 930 1036 1035 929 822 924
8 1037 928 821 925 1155 1041 930 1036
8 1039 935 828 939 1156 1047 938 1055
8 1157 1043 932 1042 1038 933 825 929
8 1038 933 826 927 1158 1045 934 1040
8 1040 934 827 926 1159 1046 935 1039
8 930 824 932 1042 1041 931 1044 1160
8 1051 936 1048 1165 1175 1052 937 1053
8 1156 1047 938 1055 1053 937 1054 1178
8 939 828 940 1058 1055 938 1056 1181
8 941 829 942 1060 1057 939 1058 1183
8 942 830 943 1061 1058 940 1059 1184
8 1060 942 832 944 1185 1061 945 1062
8 1082 964 1063 1188 981 889 947 1064
8 1097 981 1064 1190 979 870 948 1066
8 1064 947 1065 1191 948 837 949 1067
8 1066 948 1067 1193 975 869 950 1069
8 1067 949 1068 1194 950 838 951 1070
8 1069 950 1070 1195 952 839 953 1071
8 956 849 959 1072 1073 958 1076 1197
8 1074 960 1076 1197 1008 906 959 1072
8 1073 958 1076 1197 965 868 980 1085
8 1074 960 906 1008 1198 1077 1014 1122
8 1133 1026 1079 1199 1019 918 962 1075
8 1077 963 913 1014 1200 1080 962 1075
8 960 853 963 1077 1076 961 1078 1201
8 980 883 961 1076 1099 994 1078 1201
8 1210 1083 964 1082 1100 999 889 981
8 966 871 980 1085 1086 984 1099 1215
8 967 872 984 1086 1087 985 1103 1216
8 971 876 985 1087 1090 988 1104 1217
8 1088 986 874 969 1218 1105 987 1089
8 972 879 986 1088 1091 991 1105 1218
8 970 875 988 1090 1089 987 1106 1219
8 973 880 991 1091 1092 992 1109 1220
8 1093 993 881 974 1221 1110 992 1092
8 1222 1108 990 1095 1093 993 882 976
8 1223 1101 982 1094 1096 989 877 977
8 1098 983 870 979 1223 1101 982 1094
8 1095 990 1107 1224 978 878 989 1096
8 1098 983 1100 1225 979 870 981 1097
8 984 884 994 1099 1103 995 1111 1227
8 1102 1001 1115 1228 983 891 999 1100
8 1101 1000 892 989 1229 1116 1002 1107
8 1102 1001 891 983 1229 1116 1000 1101
8 985 885 995 1103 1104 996 1112 1230
8 988 886 996 1104 1106 997 1113 1231
8 1105 998 888 987 1232 1114 997 1106
8 991 896 998 1105 1109 1005 1114 1232
8 1108 1003 1117 1233 990 893 1002 1107
8 1108 1003 894 993 1233 1117 1004 1110
8 992 895 1005 1109 1110 1004 1118 1234
8 1120 1013 1127 1244 1007 907 1015 1121
8 1148 1031 1127 1244 1030 920 1013 1120
8 1121 1015 1129 1245 1011 908 1016 1125
8 1126 1019 1075 1196 1246 1128 1014 1122
8 1246 1128 1014 1122 1123 1017 909 1009
8 1124 1018 1131 1247 1010 910 1017 1123
8 1125 1016 1130 1248 1012 911 1018 1124
8 1127 1020 1137 1254 1015 914 1022 1129
8 1031 921 1032 1149 1127 1020 1137 1254
8 1134 1027 918 1019 1257 1140 1021 1128
8 1257 1140 1021 1128 1131 1024 916 1017
8 1129 1022 1141 1258 1016 915 1023 1130
8 1130 1023 1142 1259 1018 917 1024 1131
8 1261 1144 1025 1132 1133 1026 1079 1199
8 1255 1138 1025 1132 1135 1028 1144 1261
8 1133 1026 918 1019 1262 1145 1027 1134
8 1136 1029 1139 1256 1263 1146 1028 1135
8 1037 928 1041 1155 1148 1031 1149 1275
8 1041 931 1044 1160 1149 1032 1150 1276
8 1151 1039 939 1057 1278 1156 1055 1180
8 1152 1040 926 1033 1279 1159 1039 1151
8 1153 1038 927 1034 1280 1158 1040 1152
8 1281 1157 1042 1154 1153 1038 929 1035
8 1036 930 1042 1154 1155 1041 1160 1282
8 1283 1164 1046 1159 1156 1047 935 1039
8 1165 1048 1164 1283 1053 937 1047 1156
8 1157 1043 933 1038 1284 1161 1045 1158
8 1157 1043 1161 1284 1042 932 1044 1160
8 1040 934 1046 1159 1158 1045 1163 1285
8 1166 1049 1167 1292 1051 936 1048 1165
8 1166 1049 936 1051 1293 1168 1050 1172
8 1051 936 1052 1175 1172 1050 1173 1306
8 1174 1051 1165 1290 1308 1175 1053 1177
8 1053 937 1054 1178 1175 1052 1176 1309
8 1278 1156 1055 1180 1177 1053 1178 1311
8 1055 938 1056 1181 1178 1054 1179 1312
8 1057 939 1058 1183 1180 1055 1181 1314
8 1058 940 1059 1184 1181 1056 1182 1315
8 1060 942 1061 1185 1183 1058 1184 1316
8 1208 1081 1187 1321 1082 964 1063 1188
8 1209 1082 1188 1322 1097 981 1064 1190
8 1188 1063 1189 1323 1064 947 1065 1191
8 1190 1064 1191 1325 1066 948 1067 1193
8 1191 1065 1192 1326 1067 949 1068 1194
8 1067 1193 1069 950 1194 1327 1195 1070
8 1250 1133 1199 1330 1126 1019 1075 1196
8 1198 1077 1014 1122 1331 1200 1075 1196
8 1074 960 1077 1198 1197 1076 1201 1332
8 1085 980 1076 1197 1215 1099 1201 1332
8 1199 1079 1203 1333 1075 962 1080 1200
8 1132 1025 1119 1243 1199 1079 1203 1333
8 1201 1078 963 1077 1334 1202 1080 1200
8 1099 994 1078 1201 1227 1111 1202 1334
8 1343 1207 1081 1208 1210 1083 964 1082
8 1214 1084 1186 1319 1343 1207 1081 1208
8 1345 1210 1082 1209 1225 1100 981 1097
8 1346 1211 1083 1210 1228 1115 999 1100
8 1086 984 1099 1215 1216 1103 1227 1352
8 1087 985 1103 1216 1217 1104 1230 1353
8 1090 988 1104 1217 1219 1106 1231 1354
8 1218 1105 987 1089 1355 1232 1106 1219
8 1091 991 1105 1218 1220 1109 1232 1355
8 1092 992 1109 1220 1221 1110 1234 1356
8 1222 1108 1233 1357 1095 990 1107 1224
8 1222 1108 993 1093 1357 1233 1110 1221
8 1223 1101 989 1096 1358 1229 1107 1224
8 1226 1102 983 1098 1358 1229 1101 1223
8 1226 1102 1228 1359 1098 983 1100 1225
8 1103 995 1111 1227 1230 1112 1235 1360
8 1107 1002 1117 1233 1229 1116 1240 1362
8 1102 1001 1116 1229 1228 1115 1240 1362
8 1104 996 1112 1230 1231 1113 1236 1363
8 1364 1237 1114 1232 1231 1113 997 1106
8 1109 1005 1114 1232 1234 1118 1238 1365
8 1110 1004 1118 1234 1233 1117 1241 1366
8 1242 1374 1255 1138 1119 1243 1132 1025
8 1244 1127 1254 1376 1121 1015 1129 1245
8 1148 1031 1149 1275 1244 1127 1254 1376
8 1245 1129 1258 1377 1125 1016 1130 1248
8 1251 1134 1019 1126 1378 1257 1128 1246
8 1378 1257 1128 1246 1247 1131 1017 1123
8 1248 1130 1259 1379 1124 1018 1131 1247
8 1261 1381 1250 1133 1132 1249 1330 1199
8 1255 1380 1252 1135 1132 1249 1381 1261
8 1250 1133 1019 1126 1382 1262 1134 1251
8 1253 1136 1256 1385 1384 1263 1135 1252
8 1254 1137 1265 1387 1129 1022 1141 1258
8 1149 1032 1150 1276 1254 1137 1265 1387
8 1028 1135 1255 1138 1139 1256 1388 1266
8 1136 1029 1147 1264 1256 1139 1267 1389
8 1390 1268 1140 1257 1259 1142 1024 1131
8 1260 1143 1027 1134 1390 1268 1140 1257
8 1258 1141 1269 1391 1130 1023 1142 1259
8 1262 1145 1027 1134 1393 1271 1143 1260
8 1261 1144 1026 1133 1394 1272 1145 1262
8 1135 1028 1144 1261 1263 1146 1272 1394
8 1136 1029 1146 1263 1264 1147 1273 1395
8 1155 1041 1160 1282 1275 1149 1276 1405
8 1276 1150 1044 1160 1406 1277 1162 1286
8 1408 1283 1159 1279 1278 1156 1039 1151
8 1290 1165 1283 1408 1177 1053 1156 1278
8 1152 1040 1159 1279 1280 1158 1285 1409
8 1281 1157 1038 1153 1410 1284 1158 1280
8 1281 1157 1284 1410 1154 1042 1160 1282
8 1159 1046 1164 1283 1285 1163 1289 1412
8 1292 1167 1289 1412 1165 1048 1164 1283
8 1158 1045 1163 1285 1284 1161 1288 1413
8 1284 1161 1288 1413 1160 1044 1162 1286
8 1291 1166 1292 1418 1174 1051 1165 1290
8 1291 1166 1051 1174 1419 1293 1172 1305
8 1294 1169 1296 1421 1166 1049 1167 1292
8 1293 1168 1050 1172 1422 1295 1171 1303
8 1294 1169 1049 1166 1423 1297 1168 1293
8 1422 1295 1171 1303 1301 1170 1302 1435
8 1172 1050 1173 1306 1303 1171 1304 1438
8 1174 1051 1175 1308 1305 1172 1306 1440
8 1175 1052 1176 1309 1306 1173 1307 1441
8 1177 1053 1178 1311 1308 1175 1309 1443
8 1178 1054 1179 1312 1309 1176 1310 1444
8 1180 1055 1181 1314 1311 1178 1312 1446
8 1056 1181 1312 1179 1182 1315 1447 1313
8 1183 1058 1184 1316 1314 1181 1315 1448
8 1319 1186 1084 1214 1451 1317 1213 1350
8 1319 1186 1318 1453 1208 1081 1187 1321
8 1321 1187 1320 1456 1188 1063 1189 1323
8 1344 1208 1321 1457 1209 1082 1188 1322
8 1322 1188 1323 1458 1190 1064 1191 1325
8 1323 1189 1324 1459 1191 1065 1192 1326
8 1191 1325 1193 1067 1326 1460 1327 1194
8 1242 1374 1243 1119 1328 1462 1335 1204
8 1330 1199 1333 1465 1196 1075 1200 1331
8 1132 1249 1330 1199 1243 1375 1465 1333
8 1332 1201 1077 1198 1466 1334 1200 1331
8 1215 1099 1201 1332 1352 1227 1334 1466
8 1119 1243 1333 1203 1204 1335 1470 1338
8 1333 1203 1338 1470 1200 1080 1202 1334
8 1227 1111 1202 1334 1360 1235 1338 1470
8 1328 1462 1335 1204 1205 1336 1471 1339
8 1337 1206 1340 1472 1464 1329 1205 1336
8 1346 1211 1342 1479 1210 1083 1207 1343
8 1346 1211 1115 1228 1479 1342 1239 1361
8 1348 1212 1084 1214 1479 1342 1207 1343
8 1480 1343 1208 1344 1345 1210 1082 1209
8 1351 1214 1319 1454 1480 1343 1208 1344
8 1481 1346 1210 1345 1359 1228 1100 1225
8 1348 1212 1347 1483 1214 1084 1213 1350
8 1216 1103 1227 1352 1353 1230 1360 1488
8 1217 1104 1230 1353 1354 1231 1363 1489
8 1490 1364 1232 1355 1354 1231 1106 1219
8 1220 1109 1232 1355 1356 1234 1365 1491
8 1221 1110 1234 1356 1357 1233 1366 1492
8 1224 1107 1233 1357 1358 1229 1362 1493
8 1226 1102 1229 1358 1359 1228 1362 1493
8 1230 1112 1235 1360 1363 1236 1367 1496
8 1361 1239 1115 1228 1497 1371 1240 1362
8 1366 1241 1372 1498 1233 1117 1240 1362
8 1364 1237 1113 1231 1499 1368 1236 1363
8 1364 1237 1368 1499 1232 1114 1238 1365
8 1234 1118 1238 1365 1366 1241 1369 1500
8 1507 1373 1242 1374 1388 1266 1138 1255
8 1508 1374 1243 1375 1380 1255 1132 1249
8 1376 1254 1387 1509 1245 1129 1258 1377
8 1275 1149 1276 1405 1376 1254 1387 1509
8 1377 1258 1391 1510 1248 1130 1259 1379
8 1511 1390 1257 1378 1379 1259 1131 1247
8 1383 1260 1134 1251 1511 1390 1257 1378
8 1252 1135 1256 1385 1380 1255 1388 1512
8 1261 1381 1513 1394 1133 1250 1382 1262
8 1135 1252 1384 1263 1261 1381 1513 1394
8 1382 1262 1134 1251 1514 1393 1260 1383
8 1253 1136 1263 1384 1386 1264 1395 1516
8 1253 1136 1264 1386 1385 1256 1389 1517
8 1387 1265 1397 1519 1258 1141 1269 1391
8 1276 1150 1277 1406 1387 1265 1397 1519
8 1256 1139 1267 1389 1388 1266 1398 1520
8 1264 1147 1274 1396 1389 1267 1399 1521
8 1392 1270 1143 1260 1522 1400 1268 1390
8 1390 1268 1142 1259 1522 1400 1269 1391
8 1392 1270 1401 1523 1260 1143 1271 1393
8 1272 1394 1524 1402 1145 1262 1393 1271
8 1395 1273 1146 1263 1524 1402 1272 1394
8 1273 1395 1264 1147 1403 1526 1396 1274
8 1405 1276 1160 1282 1534 1406 1286 1411
8 1414 1287 1407 1535 1286 1162 1277 1406
8 1279 1159 1283 1408 1409 1285 1412 1537
8 1418 1292 1412 1537 1290 1165 1283 1408
8 1280 1158 1285 1409 1410 1284 1413 1538
8 1410 1284 1413 1538 1282 1160 1286 1411
8 1285 1163 1289 1412 1413 1288 1417 1540
8 1421 1296 1417 1540 1292 1167 1289 1412
8 1414 1287 1162 1286 1541 1416 1288 1413
8 1420 1294 1421 1545 1291 1166 1292 1418
8 1419 1293 1172 1305 1546 1422 1303 1437
8 1420 1294 1166 1291 1547 1423 1293 1419
8 1294 1169 1297 1423 1421 1296 1425 1548
8 1423 1297 1168 1293 1549 1424 1295 1422
8 1301 1170 1298 1427 1422 1295 1424 1549
8 1432 1300 1428 1554 1301 1170 1298 1427
8 1431 1299 1428 1554 1560 1430 1300 1432
8 1563 1433 1300 1432 1435 1302 1170 1301
8 1546 1422 1303 1437 1434 1301 1435 1565
8 1303 1171 1304 1438 1435 1302 1436 1566
8 1305 1172 1306 1440 1437 1303 1438 1568
8 1306 1173 1307 1441 1438 1304 1439 1569
8 1308 1175 1309 1443 1440 1306 1441 1571
8 1309 1176 1310 1444 1441 1307 1442 1572
8 1311 1178 1312 1446 1443 1309 1444 1574
8 1179 1312 1444 1310 1313 1447 1575 1445
8 1314 1181 1315 1448 1446 1312 1447 1576
8 1350 1213 1349 1486 1451 1317 1449 1579
8 1451 1317 1450 1581 1319 1186 1318 1453
8 1454 1319 1214 1351 1582 1451 1350 1487
8 1453 1318 1452 1584 1321 1187 1320 1456
8 1454 1319 1453 1585 1344 1208 1321 1457
8 1456 1320 1455 1586 1323 1189 1324 1459
8 1457 1321 1456 1587 1322 1188 1323 1458
8 1458 1323 1459 1588 1325 1191 1326 1460
8 1205 1336 1464 1329 1328 1462 1590 1461
8 1507 1373 1461 1590 1374 1242 1328 1462
8 1508 1374 1462 1591 1375 1243 1335 1467
8 1337 1206 1329 1464 1473 1341 1463 1594
8 1375 1243 1335 1467 1465 1333 1470 1596
8 1465 1333 1470 1596 1331 1200 1334 1466
8 1352 1227 1334 1466 1488 1360 1470 1596
8 1591 1462 1336 1468 1467 1335 1471 1597
8 1469 1337 1472 1598 1595 1464 1336 1468
8 1471 1339 1474 1600 1335 1204 1338 1470
8 1600 1474 1367 1496 1470 1338 1235 1360
8 1336 1205 1340 1472 1471 1339 1475 1601
8 1337 1206 1341 1473 1472 1340 1476 1602
8 1495 1370 1478 1609 1361 1239 1342 1479
8 1348 1212 1342 1479 1483 1347 1478 1609
8 1481 1346 1479 1610 1345 1210 1343 1480
8 1481 1346 1228 1359 1610 1479 1361 1494
8 1484 1348 1214 1351 1610 1479 1343 1480
8 1483 1347 1482 1612 1350 1213 1349 1486
8 1484 1348 1483 1613 1351 1214 1350 1487
8 1353 1230 1360 1488 1489 1363 1496 1616
8 1490 1364 1231 1354 1617 1499 1363 1489
8 1490 1364 1499 1617 1355 1232 1365 1491
8 1356 1234 1365 1491 1492 1366 1500 1619
8 1492 1366 1498 1620 1357 1233 1362 1493
8 1494 1361 1228 1359 1621 1497 1362 1493
8 1495 1370 1239 1361 1622 1504 1371 1497
8 1363 1236 1367 1496 1499 1368 1501 1623
8 1497 1371 1240 1362 1624 1505 1372 1498
8 1625 1503 1372 1498 1500 1369 1241 1366
8 1365 1238 1368 1499 1500 1369 1502 1626
8 1520 1398 1506 1633 1388 1266 1373 1507
8 1634 1507 1374 1508 1512 1388 1255 1380
8 1509 1387 1519 1635 1377 1258 1391 1510
8 1405 1276 1406 1534 1509 1387 1519 1635
8 1515 1392 1260 1383 1636 1522 1390 1511
8 1511 1390 1259 1379 1636 1522 1391 1510
8 1385 1256 1389 1517 1512 1388 1520 1637
8 1513 1394 1262 1382 1638 1524 1393 1514
8 1395 1516 1638 1524 1263 1384 1513 1394
8 1515 1392 1523 1639 1383 1260 1393 1514
8 1516 1395 1526 1640 1386 1264 1396 1518
8 1386 1264 1396 1518 1517 1389 1521 1641
8 1519 1397 1527 1643 1391 1269 1400 1522
8 1535 1407 1527 1643 1406 1277 1397 1519
8 1389 1267 1399 1521 1520 1398 1528 1644
8 1645 1529 1399 1521 1525 1404 1274 1396
8 1392 1270 1400 1522 1523 1401 1531 1646
8 1524 1402 1271 1393 1648 1532 1401 1523
8 1403 1526 1648 1532 1273 1395 1524 1402
8 1525 1404 1274 1396 1649 1533 1403 1526
8 1539 1414 1535 1657 1411 1286 1406 1534
8 1542 1415 1536 1658 1414 1287 1407 1535
8 1409 1285 1412 1537 1538 1413 1540 1660
8 1545 1421 1540 1660 1418 1292 1412 1537
8 1539 1414 1286 1411 1661 1541 1413 1538
8 1540 1417 1544 1663 1413 1288 1416 1541
8 1421 1296 1425 1548 1540 1417 1544 1663
8 1542 1415 1287 1414 1664 1543 1416 1541
8 1420 1294 1423 1547 1545 1421 1548 1666
8 1547 1423 1293 1419 1667 1549 1422 1546
8 1434 1301 1427 1553 1546 1422 1549 1667
8 1423 1297 1424 1549 1548 1425 1550 1668
8 1551 1426 1550 1668 1427 1298 1424 1549
8 1551 1426 1298 1427 1671 1552 1428 1554
8 1562 1432 1554 1674 1434 1301 1427 1553
8 1431 1299 1429 1558 1554 1428 1555 1675
8 1431 1299 1430 1560 1558 1429 1557 1680
8 1560 1430 1300 1432 1683 1559 1433 1563
8 1561 1431 1554 1674 1684 1560 1432 1562
8 1685 1563 1432 1562 1565 1435 1301 1434
8 1435 1302 1436 1566 1563 1433 1564 1686
8 1437 1303 1438 1568 1565 1435 1566 1688
8 1438 1304 1439 1569 1566 1436 1567 1689
8 1440 1306 1441 1571 1568 1438 1569 1691
8 1441 1307 1442 1572 1569 1439 1570 1692
8 1443 1309 1444 1574 1571 1441 1572 1694
8 1310 1444 1572 1442 1445 1575 1695 1573
8 1446 1312 1447 1576 1574 1444 1575 1696
8 1486 1349 1485 1614 1579 1449 1577 1699
8 1451 1317 1449 1579 1581 1450 1578 1701
8 1487 1350 1486 1615 1582 1451 1579 1702
8 1581 1450 1580 1704 1453 1318 1452 1584
8 1582 1451 1581 1705 1454 1319 1453 1585
8 1584 1452 1583 1706 1456 1320 1455 1586
8 1585 1453 1584 1707 1457 1321 1456 1587
8 1587 1456 1586 1708 1458 1323 1459 1588
8 1633 1506 1589 1710 1507 1373 1461 1590
8 1464 1329 1461 1590 1594 1463 1589 1710
8 1468 1336 1462 1591 1595 1464 1590 1711
8 1634 1507 1590 1711 1508 1374 1462 1591
8 1473 1341 1463 1594 1603 1477 1593 1716
8 1469 1337 1464 1595 1599 1473 1594 1717
8 1471 1597 1467 1335 1600 1718 1596 1470
8 1718 1600 1496 1616 1596 1470 1360 1488
8 1336 1468 1597 1471 1472 1598 1719 1601
8 1469 1337 1473 1599 1598 1472 1602 1720
8 1722 1604 1501 1623 1600 1474 1367 1496
8 1475 1601 1471 1339 1604 1722 1600 1474
8 1602 1476 1605 1723 1472 1340 1475 1601
8 1476 1602 1724 1606 1341 1473 1603 1477
8 1483 1347 1478 1609 1612 1482 1608 1731
8 1495 1370 1504 1622 1609 1478 1608 1731
8 1618 1495 1609 1732 1494 1361 1479 1610
8 1484 1348 1479 1610 1613 1483 1609 1732
8 1486 1349 1482 1612 1614 1485 1611 1733
8 1613 1483 1612 1734 1487 1350 1486 1615
8 1489 1363 1496 1616 1617 1499 1623 1736
8 1491 1365 1499 1617 1619 1500 1626 1737
8 1618 1495 1361 1494 1738 1622 1497 1621
8 1739 1625 1498 1620 1619 1500 1366 1492
8 1621 1497 1362 1493 1740 1624 1498 1620
8 1742 1631 1504 1622 1624 1505 1371 1497
8 1743 1628 1502 1626 1623 1501 1368 1499
8 1744 1630 1505 1624 1625 1503 1372 1498
8 1745 1629 1503 1625 1626 1502 1369 1500
8 1520 1398 1528 1644 1633 1506 1632 1751
8 1637 1520 1633 1752 1512 1388 1507 1634
8 1635 1519 1643 1753 1510 1391 1522 1636
8 1657 1535 1643 1753 1534 1406 1519 1635
8 1515 1392 1522 1636 1639 1523 1646 1754
8 1517 1389 1521 1641 1637 1520 1644 1755
8 1524 1638 1756 1648 1393 1514 1639 1523
8 1640 1526 1395 1516 1756 1648 1524 1638
8 1642 1525 1396 1518 1757 1649 1526 1640
8 1758 1645 1521 1641 1642 1525 1396 1518
8 1646 1531 1400 1522 1760 1650 1527 1643
8 1535 1407 1536 1658 1643 1527 1650 1760
8 1521 1399 1529 1645 1644 1528 1651 1761
8 1647 1530 1652 1762 1525 1404 1529 1645
8 1401 1523 1648 1532 1531 1646 1763 1655
8 1525 1404 1533 1649 1647 1530 1654 1765
8 1533 1649 1766 1656 1403 1526 1648 1532
8 1662 1542 1658 1774 1539 1414 1535 1657
8 1542 1415 1543 1664 1658 1536 1659 1775
8 1660 1540 1663 1777 1538 1413 1541 1661
8 1545 1421 1548 1666 1660 1540 1663 1777
8 1662 1542 1414 1539 1778 1664 1541 1661
8 1664 1543 1416 1541 1779 1665 1544 1663
8 1548 1425 1550 1668 1663 1544 1665 1779
8 1547 1423 1549 1667 1666 1548 1668 1781
8 1670 1551 1668 1781 1553 1427 1549 1667
8 1551 1426 1552 1671 1668 1550 1669 1782
8 1670 1551 1427 1553 1784 1671 1554 1674
8 1675 1555 1672 1785 1554 1428 1552 1671
8 1678 1556 1673 1789 1558 1429 1555 1675
8 1561 1431 1558 1681 1674 1554 1675 1790
8 1794 1677 1556 1678 1680 1557 1429 1558
8 1560 1430 1559 1683 1680 1557 1679 1797
8 1561 1431 1560 1684 1681 1558 1680 1798
8 1563 1433 1564 1686 1683 1559 1682 1800
8 1684 1560 1432 1562 1801 1683 1563 1685
8 1565 1435 1566 1688 1685 1563 1686 1802
8 1566 1436 1567 1689 1686 1564 1687 1803
8 1568 1438 1569 1691 1688 1566 1689 1805
8 1569 1439 1570 1692 1689 1567 1690 1806
8 1571 1441 1572 1694 1691 1569 1692 1808
8 1442 1572 1692 1570 1573 1695 1809 1693
8 1574 1444 1575 1696 1694 1572 1695 1810
8 1614 1485 1592 1712 1699 1577 1697 1813
8 1579 1449 1577 1699 1701 1578 1698 1815
8 1615 1486 1614 1735 1702 1579 1699 1816
8 1701 1578 1700 1818 1581 1450 1580 1704
8 1582 1451 1579 1702 1705 1581 1701 1819
8 1704 1580 1703 1820 1584 1452 1583 1706
8 1705 1581 1704 1821 1585 1453 1584 1707
8 1707 1584 1706 1822 1587 1456 1586 1708
8 1710 1589 1506 1633 1824 1709 1632 1751
8 1594 1463 1589 1710 1716 1593 1709 1824
8 1752 1633 1710 1825 1634 1507 1590 1711
8 1595 1464 1590 1711 1717 1594 1710 1825
8 1830 1714 1592 1712 1733 1611 1485 1614
8 1603 1477 1593 1716 1725 1607 1715 1834
8 1599 1473 1594 1717 1721 1603 1716 1835
8 1837 1722 1623 1736 1718 1600 1496 1616
8 1719 1601 1722 1837 1597 1471 1600 1718
8 1602 1720 1598 1472 1723 1838 1719 1601
8 1720 1602 1473 1599 1839 1724 1603 1721
8 1723 1605 1726 1840 1601 1475 1604 1722
8 1840 1726 1628 1743 1722 1604 1501 1623
8 1724 1606 1727 1841 1602 1476 1605 1723
8 1725 1607 1728 1842 1603 1477 1606 1724
8 1612 1482 1608 1731 1733 1611 1730 1849
8 1741 1627 1730 1849 1622 1504 1608 1731
8 1613 1483 1609 1732 1734 1612 1731 1850
8 1618 1495 1622 1738 1732 1609 1731 1850
8 1615 1486 1612 1734 1735 1614 1733 1851
8 1852 1743 1626 1737 1736 1623 1499 1617
8 1853 1745 1625 1739 1737 1626 1500 1619
8 1855 1742 1622 1738 1740 1624 1497 1621
8 1856 1744 1624 1740 1739 1625 1498 1620
8 1741 1627 1504 1622 1857 1746 1631 1742
8 1742 1631 1505 1624 1858 1749 1630 1744
8 1859 1747 1629 1745 1743 1628 1502 1626
8 1860 1748 1630 1744 1745 1629 1503 1625
8 1644 1528 1651 1761 1751 1632 1750 1865
8 1637 1520 1644 1755 1752 1633 1751 1866
8 1754 1646 1522 1636 1867 1760 1643 1753
8 1657 1535 1658 1774 1753 1643 1760 1867
8 1639 1523 1646 1754 1756 1648 1763 1868
8 1641 1521 1645 1758 1755 1644 1761 1869
8 1757 1649 1526 1640 1870 1766 1648 1756
8 1642 1525 1649 1757 1759 1647 1765 1871
8 1759 1647 1762 1872 1642 1525 1645 1758
8 1760 1650 1767 1874 1646 1531 1655 1763
8 1658 1536 1659 1775 1760 1650 1767 1874
8 1762 1652 1768 1875 1645 1529 1651 1761
8 1764 1653 1769 1876 1647 1530 1652 1762
8 1656 1766 1877 1773 1532 1648 1763 1655
8 1771 1879 1765 1654 1653 1764 1647 1530
8 1533 1649 1765 1654 1656 1766 1880 1772
8 1662 1542 1664 1778 1774 1658 1775 1887
8 1664 1543 1665 1779 1775 1659 1776 1888
8 1778 1664 1541 1661 1890 1779 1663 1777
8 1666 1548 1668 1781 1777 1663 1779 1890
8 1782 1669 1780 1891 1668 1550 1665 1779
8 1670 1551 1671 1784 1781 1668 1782 1893
8 1671 1552 1672 1785 1782 1669 1783 1894
8 1790 1675 1785 1896 1674 1554 1671 1784
8 1675 1555 1673 1789 1785 1672 1786 1897
8 1792 1676 1788 1903 1678 1556 1673 1789
8 1795 1678 1789 1904 1681 1558 1675 1790
8 1792 1676 1556 1678 1906 1791 1677 1794
8 1680 1557 1679 1797 1794 1677 1793 1909
8 1910 1794 1678 1795 1798 1680 1558 1681
8 1683 1559 1682 1800 1797 1679 1796 1912
8 1684 1560 1683 1801 1798 1680 1797 1913
8 1686 1564 1687 1803 1800 1682 1799 1915
8 1685 1563 1686 1802 1801 1683 1800 1916
8 1688 1566 1689 1805 1802 1686 1803 1917
8 1689 1567 1690 1806 1803 1687 1804 1918
8 1691 1569 1692 1808 1805 1689 1806 1920
8 1692 1570 1693 1809 1806 1690 1807 1921
8 1694 1572 1695 1810 1808 1692 1809 1922
8 1829 1713 1811 1926 1712 1592 1697 1813
8 1813 1697 1812 1928 1699 1577 1698 1815
8 1735 1614 1712 1828 1816 1699 1813 1929
8 1815 1698 1814 1931 1701 1578 1700 1818
8 1702 1579 1699 1816 1819 1701 1815 1932
8 1818 1700 1817 1933 1704 1580 1703 1820
8 1819 1701 1818 1934 1705 1581 1704 1821
8 1821 1704 1820 1935 1707 1584 1706 1822
8 1824 1709 1632 1751 1937 1823 1750 1865
8 1716 1593 1709 1824 1834 1715 1823 1937
8 1825 1710 1633 1752 1938 1824 1751 1866
8 1717 1594 1710 1825 1835 1716 1824 1938
8 1945 1830 1712 1828 1851 1733 1614 1735
8 1830 1714 1831 1946 1712 1592 1713 1829
8 1947 1832 1714 1830 1849 1730 1611 1733
8 1843 1729 1607 1725 1950 1833 1715 1834
8 1721 1603 1716 1835 1836 1725 1834 1951
8 1836 1725 1842 1953 1721 1603 1724 1839
8 1723 1838 1719 1601 1840 1954 1837 1722
8 1954 1840 1743 1852 1837 1722 1623 1736
8 1724 1839 1720 1602 1841 1955 1838 1723
8 1841 1727 1844 1956 1723 1605 1726 1840
8 1956 1844 1747 1859 1840 1726 1628 1743
8 1728 1842 1724 1606 1845 1957 1841 1727
8 1725 1607 1729 1843 1842 1728 1846 1958
8 1741 1627 1746 1857 1849 1730 1848 1965
8 1734 1612 1731 1850 1851 1733 1849 1966
8 1854 1741 1849 1966 1738 1622 1731 1850
8 1967 1859 1745 1853 1852 1743 1626 1737
8 1968 1860 1744 1856 1853 1745 1625 1739
8 1854 1741 1622 1738 1969 1857 1742 1855
8 1855 1742 1624 1740 1970 1858 1744 1856
8 1857 1746 1631 1742 1971 1861 1749 1858
8 1858 1749 1630 1744 1972 1863 1748 1860
8 1859 1747 1862 1973 1745 1629 1748 1860
8 1875 1768 1864 1977 1761 1651 1750 1865
8 1755 1644 1761 1869 1866 1751 1865 1978
8 1867 1760 1874 1979 1754 1646 1763 1868
8 1774 1658 1775 1887 1867 1760 1874 1979
8 1870 1766 1648 1756 1980 1877 1763 1868
8 1872 1762 1875 1981 1758 1645 1761 1869
8 1757 1649 1766 1870 1871 1765 1880 1982
8 1983 1879 1764 1873 1871 1765 1647 1759
8 1873 1764 1876 1984 1759 1647 1762 1872
8 1877 1773 1655 1763 1986 1881 1767 1874
8 1775 1659 1776 1888 1874 1767 1881 1986
8 1876 1769 1882 1987 1762 1652 1768 1875
8 1878 1770 1883 1988 1764 1653 1769 1876
8 1880 1772 1656 1766 1989 1886 1773 1877
8 1878 1770 1653 1764 1990 1884 1771 1879
8 1765 1654 1772 1880 1879 1771 1885 1991
8 1778 1664 1779 1890 1887 1775 1888 1997
8 1998 1889 1776 1888 1891 1780 1665 1779
8 1893 1782 1891 2000 1781 1668 1779 1890
8 1894 1783 1892 2001 1782 1669 1780 1891
8 1784 1671 1785 1896 1893 1782 1894 2003
8 1897 1786 1895 2004 1785 1672 1783 1894
8 1790 1675 1789 1904 1896 1785 1897 2006
8 1901 1787 1898 2007 1789 1673 1786 1897
8 1903 1788 1900 2013 1789 1673 1787 1901
8 1792 1676 1791 1906 1903 1788 1902 2016
8 1907 1792 1903 2017 1795 1678 1789 1904
8 1906 1791 1677 1794 2019 1905 1793 1909
8 1907 1792 1678 1795 2020 1906 1794 1910
8 1797 1679 1796 1912 1909 1793 1908 2022
8 1798 1680 1797 1913 1910 1794 1909 2023
8 1800 1682 1799 1915 1912 1796 1911 2025
8 1801 1683 1800 1916 1913 1797 1912 2026
8 1803 1687 1804 1918 1915 1799 1914 2028
8 1802 1686 1803 1917 1916 1800 1915 2029
8 1805 1689 1806 1920 1917 1803 1918 2030
8 1806 1690 1807 1921 1918 1804 1919 2031
8 1808 1692 1809 1922 1920 1806 1921 2032
8 1939 1826 1924 2037 1829 1713 1811 1926
8 1926 1811 1925 2039 1813 1697 1812 1928
8 1944 1829 1926 2040 1828 1712 1813 1929
8 1928 1812 1927 2042 1815 1698 1814 1931
8 1929 1813 1928 2043 1816 1699 1815 1932
8 1931 1814 1930 2044 1818 1700 1817 1933
8 1932 1815 1931 2045 1819 1701 1818 1934
8 1934 1818 1933 2046 1821 1704 1820 1935
8 2048 1936 1823 1937 1977 1864 1750 1865
8 1950 1833 1715 1834 2048 1936 1823 1937
8 1938 1824 1751 1866 2049 1937 1865 1978
8 1835 1716 1824 1938 1951 1834 1937 2049
8 1939 1826 1713 1829 2053 1942 1831 1946
8 1940 1827 1923 2035 2053 1942 1826 1939
8 1945 1830 1946 2058 1828 1712 1829 1944
8 2059 1947 1830 1945 1966 1849 1733 1851
8 1947 1832 1730 1849 2060 1948 1848 1965
8 1947 1832 1948 2060 1830 1714 1831 1946
8 1959 1847 1729 1843 2063 1949 1833 1950
8 1952 1843 1725 1836 2064 1950 1834 1951
8 1836 1725 1843 1952 1953 1842 1958 2066
8 1953 1842 1957 2067 1839 1724 1841 1955
8 1841 1955 1838 1723 1956 2068 1954 1840
8 2068 1956 1859 1967 1954 1840 1743 1852
8 1956 1844 1960 2069 1859 1747 1862 1973
8 1845 1957 1841 1727 1960 2069 1956 1844
8 1728 1842 1957 1845 1846 1958 2071 1961
8 1962 2072 1959 1847 1846 1958 1843 1729
8 1971 1861 1964 2077 1857 1746 1848 1965
8 1854 1741 1857 1969 1966 1849 1965 2078
8 1967 1859 1973 2079 1853 1745 1860 1968
8 1970 1858 1744 1856 2080 1972 1860 1968
8 1969 1857 1742 1855 2081 1971 1858 1970
8 1971 1861 1749 1858 2082 1974 1863 1972
8 1973 1862 1975 2083 1860 1748 1863 1972
8 1987 1882 1976 2086 1875 1768 1864 1977
8 1981 1875 1977 2087 1869 1761 1865 1978
8 1980 1877 1763 1868 2088 1986 1874 1979
8 1887 1775 1888 1997 1979 1874 1986 2088
8 1880 1982 2089 1989 1766 1870 1980 1877
8 1984 1876 1987 2090 1872 1762 1875 1981
8 1765 1871 1983 1879 1880 1982 2091 1991
8 1985 1878 1764 1873 2092 1990 1879 1983
8 1985 1878 1988 2093 1873 1764 1876 1984
8 2094 1992 1881 1986 1998 1889 1776 1888
8 1986 1881 1992 2094 1877 1773 1886 1989
8 1988 1883 1993 2095 1876 1769 1882 1987
8 1878 1770 1884 1990 1988 1883 1994 2096
8 1991 1885 1772 1880 2097 1996 1886 1989
8 1879 1771 1885 1991 1990 1884 1995 2098
8 2103 1998 1888 1997 2000 1891 1779 1890
8 2104 1999 1889 1998 2001 1892 1780 1891
8 2003 1894 2001 2106 1893 1782 1891 2000
8 2004 1895 2002 2107 1894 1783 1892 2001
8 2006 1897 2004 2109 1896 1785 1894 2003
8 2007 1898 2005 2110 1897 1786 1895 2004
8 2014 1901 2007 2112 1904 1789 1897 2006
8 2011 1899 2008 2113 1901 1787 1898 2007
8 2119 2010 1899 2011 2013 1900 1787 1901
8 2016 1902 2012 2122 1903 1788 1900 2013
8 2017 1903 2013 2123 1904 1789 1901 2014
8 1906 1791 1905 2019 2016 1902 2015 2125
8 1907 1792 1906 2020 2017 1903 2016 2126
8 1909 1793 1908 2022 2019 1905 2018 2128
8 2020 1906 1794 1910 2129 2019 1909 2023
8 1912 1796 1911 2025 2022 1908 2021 2131
8 1913 1797 1912 2026 2023 1909 2022 2132
8 1915 1799 1914 2028 2025 1911 2024 2134
8 1916 1800 1915 2029 2026 1912 2025 2135
8 1918 1804 1919 2031 2028 1914 2027 2136
8 1917 1803 1918 2030 2029 1915 2028 2137
8 1920 1806 1921 2032 2030 1918 2031 2138
8 1940 1827 1941 2054 2035 1923 2033 2140
8 2035 1923 2034 2143 1939 1826 1924 2037
8 2037 1924 2036 2146 1926 1811 1925 2039
8 2051 1939 2037 2147 1944 1829 1926 2040
8 2039 1925 2038 2149 1928 1812 1927 2042
8 2040 1926 2039 2150 1929 1813 1928 2043
8 2042 1927 2041 2151 1931 1814 1930 2044
8 2043 1928 2042 2152 1932 1815 1931 2045
8 2045 1931 2044 2153 1934 1818 1933 2046
8 2155 2047 1936 2048 2086 1976 1864 1977
8 2063 1949 1833 1950 2155 2047 1936 2048
8 2156 2048 1937 2049 2087 1977 1865 1978
8 2064 1950 1834 1951 2156 2048 1937 2049
8 2051 1939 1829 1944 2160 2053 1946 2058
8 2052 1940 2035 2144 2160 2053 1939 2051
8 2053 1942 1831 1946 2163 2057 1948 2060
8 2055 1943 1827 1940 2163 2057 1942 2053
8 2055 1943 2056 2164 1940 1827 1941 2054
8 2059 1947 1849 1966 2167 2060 1965 2078
8 2059 1947 2060 2167 1945 1830 1946 2058
8 2077 1964 2061 2168 1965 1848 1948 2060
8 2070 1963 1847 1959 2170 2062 1949 2063
8 2065 1959 1843 1952 2171 2063 1950 2064
8 2173 2072 1958 2066 2065 1959 1843 1952
8 1953 1842 1958 2066 2067 1957 2071 2174
8 2068 1956 2069 2175 1967 1859 1973 2079
8 2067 1957 2069 2175 1955 1841 1956 2068
8 1845 1957 2069 1960 1961 2071 2176 2073
8 2069 1960 2073 2176 1973 1862 1975 2083
8 2070 1963 2075 2177 1959 1847 1962 2072
8 1846 1958 2071 1961 1962 2072 2178 2074
8 2077 1964 1861 1971 2182 2076 1974 2082
8 2081 1971 2077 2183 1969 1857 1965 2078
8 2079 1973 2083 2184 1968 1860 1972 2080
8 2081 1971 1858 1970 2185 2082 1972 2080
8 2083 1975 2084 2186 1972 1863 1974 2082
8 2086 1976 1882 1987 2189 2085 1993 2095
8 2090 1987 2086 2190 1981 1875 1977 2087
8 2191 2094 1986 2088 2103 1998 1888 1997
8 2088 1986 2094 2191 1980 1877 1989 2089
8 1991 2091 2192 2097 1880 1982 2089 1989
8 2093 1988 2095 2193 1984 1876 1987 2090
8 1879 1983 2092 1990 1991 2091 2194 2098
8 1985 1878 1990 2092 2093 1988 2096 2195
8 2097 1996 1886 1989 2196 2099 1992 2094
8 2196 2099 1992 2094 2104 1999 1889 1998
8 1994 2096 1988 1883 2100 2197 2095 1993
8 2096 1994 1884 1990 2198 2101 1995 2098
8 1995 2098 2199 2102 1885 1991 2097 1996
8 2203 2104 1998 2103 2106 2001 1891 2000
8 2107 2002 2105 2204 2001 1892 1999 2104
8 2109 2004 2107 2206 2003 1894 2001 2106
8 2110 2005 2108 2207 2004 1895 2002 2107
8 2112 2007 2110 2209 2006 1897 2004 2109
8 2113 2008 2111 2210 2007 1898 2005 2110
8 2120 2011 2113 2212 2014 1901 2007 2112
8 2117 2009 2114 2213 2011 1899 2008 2113
8 2219 2116 2009 2117 2119 2010 1899 2011
8 2222 2118 2010 2119 2122 2012 1900 2013
8 2223 2119 2011 2120 2123 2013 1901 2014
8 2016 1902 2015 2125 2122 2012 2121 2225
8 2126 2016 2122 2226 2017 1903 2013 2123
8 2019 1905 2018 2128 2125 2015 2124 2228
8 2020 1906 2019 2129 2126 2016 2125 2229
8 2022 1908 2021 2131 2128 2018 2127 2231
8 2023 1909 2022 2132 2129 2019 2128 2232
8 2025 1911 2024 2134 2131 2021 2130 2234
8 2026 1912 2025 2135 2132 2022 2131 2235
8 1914 2028 2134 2024 2027 2136 2236 2133
8 2029 1915 2028 2137 2135 2025 2134 2237
8 2030 1918 2031 2138 2137 2028 2136 2238
8 2157 2050 2139 2240 2054 1941 2033 2140
8 2052 1940 2054 2161 2144 2035 2140 2242
8 2140 2033 2141 2243 2035 1923 2034 2143
8 2143 2034 2142 2246 2037 1924 2036 2146
8 2144 2035 2143 2247 2051 1939 2037 2147
8 2146 2036 2145 2249 2039 1925 2038 2149
8 2147 2037 2146 2250 2040 1926 2039 2150
8 2149 2038 2148 2251 2042 1927 2041 2151
8 2150 2039 2149 2252 2043 1928 2042 2152
8 2152 2042 2151 2253 2045 1931 2044 2153
8 2255 2154 2047 2155 2189 2085 1976 2086
8 2170 2062 1949 2063 2255 2154 2047 2155
8 2256 2155 2048 2156 2190 2086 1977 2087
8 2171 2063 1950 2064 2256 2155 2048 2156
8 2258 2159 2050 2157 2164 2056 1941 2054
8 2160 2053 1946 2058 2262 2163 2060 2167
8 2162 2055 1940 2052 2262 2163 2053 2160
8 2162 2055 2164 2263 2052 1940 2054 2161
8 2163 2057 1948 2060 2264 2165 2061 2168
8 2055 1943 2057 2163 2164 2056 2165 2264
8 2182 2076 2166 2268 2077 1964 2061 2168
8 2183 2077 2168 2269 2078 1965 2060 2167
8 2070 1963 2062 2170 2177 2075 2169 2271
8 2172 2070 1959 2065 2272 2170 2063 2171
8 2172 2070 2177 2273 2065 1959 2072 2173
8 2066 1958 2072 2173 2174 2071 2178 2274
8 2067 1957 2071 2174 2175 2069 2176 2275
8 2175 2069 2176 2275 2079 1973 2083 2184
8 2071 1961 2074 2178 2176 2073 2179 2276
8 2176 2073 2179 2276 2083 1975 2084 2186
8 2072 1962 2075 2177 2178 2074 2180 2277
8 2182 2076 1974 2082 2280 2181 2084 2186
8 2183 2077 1971 2081 2281 2182 2082 2185
8 2184 2083 2186 2282 2080 1972 2082 2185
8 2189 2085 1993 2095 2285 2188 2100 2197
8 2190 2086 1987 2090 2286 2189 2095 2193
8 2192 2097 1989 2089 2287 2196 2094 2191
8 2287 2196 2094 2191 2203 2104 1998 2103
8 2194 2098 1991 2091 2288 2199 2097 2192
8 2195 2096 2197 2289 2093 1988 2095 2193
8 2096 2195 2290 2198 1990 2092 2194 2098
8 2097 1996 2099 2196 2199 2102 2200 2291
8 2196 2099 1999 2104 2291 2200 2105 2204
8 2100 2197 2292 2201 1994 2096 2198 2101
8 1995 2098 2198 2101 2102 2199 2293 2202
8 2206 2107 2204 2296 2106 2001 2104 2203
8 2207 2108 2205 2297 2107 2002 2105 2204
8 2209 2110 2207 2299 2109 2004 2107 2206
8 2210 2111 2208 2300 2110 2005 2108 2207
8 2212 2113 2210 2302 2112 2007 2110 2209
8 2213 2114 2211 2303 2113 2008 2111 2210
8 2220 2117 2213 2305 2120 2011 2113 2212
8 2216 2115 2214 2306 2117 2009 2114 2213
8 2216 2115 2009 2117 2311 2217 2116 2219
8 2219 2116 2010 2119 2314 2218 2118 2222
8 2315 2219 2117 2220 2223 2119 2011 2120
8 2122 2012 2121 2225 2222 2118 2221 2317
8 2318 2222 2119 2223 2226 2122 2013 2123
8 2125 2015 2124 2228 2225 2121 2224 2320
8 2126 2016 2125 2229 2226 2122 2225 2321
8 2128 2018 2127 2231 2228 2124 2227 2323
8 2129 2019 2128 2232 2229 2125 2228 2324
8 2131 2021 2130 2234 2231 2127 2230 2326
8 2132 2022 2131 2235 2232 2128 2231 2327
8 2134 2024 2133 2236 2234 2130 2233 2328
8 2135 2025 2134 2237 2235 2131 2234 2329
8 2137 2028 2136 2238 2237 2134 2236 2330
8 2157 2050 2158 2259 2240 2139 2239 2332
8 2257 2157 2240 2334 2161 2054 2140 2242
8 2240 2139 2241 2335 2140 2033 2141 2243
8 2242 2140 2243 2337 2144 2035 2143 2247
8 2243 2141 2244 2338 2143 2034 2142 2246
8 2246 2142 2245 2341 2146 2036 2145 2249
8 2247 2143 2246 2342 2147 2037 2146 2250
8 2249 2145 2248 2343 2149 2038 2148 2251
8 2250 2146 2249 2344 2150 2039 2149 2252
8 2252 2149 2251 2345 2152 2042 2151 2253
8 2169 2271 2347 2254 2062 2170 2255 2154
8 2189 2085 2188 2285 2255 2154 2254 2347
8 2348 2255 2155 2256 2286 2189 2086 2190
8 2272 2170 2063 2171 2348 2255 2155 2256
8 2349 2258 2157 2257 2263 2164 2054 2161
8 2258 2159 2261 2351 2157 2050 2158 2259
8 2258 2159 2056 2164 2351 2261 2165 2264
8 2262 2163 2060 2167 2355 2264 2168 2269
8 2162 2055 2163 2262 2263 2164 2264 2355
8 2357 2266 2165 2264 2268 2166 2061 2168
8 2268 2166 2076 2182 2361 2267 2181 2280
8 2281 2182 2268 2362 2183 2077 2168 2269
8 2271 2169 2270 2364 2177 2075 2180 2277
8 2172 2070 2170 2272 2273 2177 2271 2365
8 2072 2173 2274 2178 2177 2273 2366 2277
8 2071 2174 2275 2176 2178 2274 2367 2276
8 2275 2176 2276 2367 2184 2083 2186 2282
8 2283 2187 2084 2186 2368 2278 2179 2276
8 2178 2074 2180 2277 2276 2179 2278 2368
8 2283 2187 2279 2370 2186 2084 2181 2280
8 2281 2182 2082 2185 2371 2280 2186 2282
8 2188 2285 2374 2284 2100 2197 2292 2201
8 2286 2189 2095 2193 2375 2285 2197 2289
8 2192 2097 2196 2287 2288 2199 2291 2376
8 2287 2196 2104 2203 2376 2291 2204 2296
8 2194 2098 2199 2288 2290 2198 2293 2377
8 2289 2197 2096 2195 2378 2292 2198 2290
8 2291 2200 2105 2204 2379 2294 2205 2297
8 2199 2102 2200 2291 2293 2202 2294 2379
8 2198 2101 2202 2293 2292 2201 2295 2380
8 2299 2207 2297 2383 2206 2107 2204 2296
8 2300 2208 2298 2384 2207 2108 2205 2297
8 2302 2210 2300 2386 2209 2110 2207 2299
8 2303 2211 2301 2387 2210 2111 2208 2300
8 2305 2213 2303 2389 2212 2113 2210 2302
8 2306 2214 2304 2390 2213 2114 2211 2303
8 2310 2216 2306 2392 2220 2117 2213 2305
8 2308 2215 2307 2393 2216 2115 2214 2306
8 2308 2215 2115 2216 2396 2309 2217 2311
8 2310 2216 2117 2220 2398 2311 2219 2315
8 2311 2217 2116 2219 2399 2312 2218 2314
8 2314 2218 2118 2222 2402 2313 2221 2317
8 2315 2219 2119 2223 2403 2314 2222 2318
8 2225 2121 2224 2320 2317 2221 2316 2405
8 2226 2122 2225 2321 2318 2222 2317 2406
8 2228 2124 2227 2323 2320 2224 2319 2408
8 2229 2125 2228 2324 2321 2225 2320 2409
8 2231 2127 2230 2326 2323 2227 2322 2411
8 2232 2128 2231 2327 2324 2228 2323 2412
8 2234 2130 2233 2328 2326 2230 2325 2413
8 2235 2131 2234 2329 2327 2231 2326 2414
8 2237 2134 2236 2330 2329 2234 2328 2415
8 2259 2158 2260 2352 2332 2239 2331 2417
8 2257 2157 2259 2350 2334 2240 2332 2419
8 2240 2139 2239 2332 2335 2241 2333 2420
8 2334 2240 2335 2422 2242 2140 2243 2337
8 2335 2241 2336 2423 2243 2141 2244 2338
8 2337 2243 2338 2425 2247 2143 2246 2342
8 2338 2244 2339 2426 2246 2142 2245 2341
8 2341 2245 2340 2428 2249 2145 2248 2343
8 2342 2246 2341 2429 2250 2146 2249 2344
8 2344 2249 2343 2430 2252 2149 2251 2345
8 2188 2285 2347 2254 2284 2374 2432 2346
8 2347 2254 2346 2432 2271 2169 2270 2364
8 2365 2271 2170 2272 2433 2347 2255 2348
8 2286 2189 2285 2375 2348 2255 2347 2433
8 2349 2258 2351 2435 2257 2157 2259 2350
8 2349 2258 2164 2263 2435 2351 2264 2355
8 2259 2158 2261 2351 2352 2260 2354 2437
8 2356 2265 2354 2437 2264 2165 2261 2351
8 2441 2357 2264 2355 2362 2268 2168 2269
8 2356 2265 2165 2264 2442 2358 2266 2357
8 2443 2359 2266 2357 2361 2267 2166 2268
8 2370 2279 2360 2446 2280 2181 2267 2361
8 2362 2268 2182 2281 2447 2361 2280 2371
8 2180 2277 2368 2278 2270 2364 2449 2363
8 2271 2365 2273 2177 2364 2450 2366 2277
8 2372 2283 2186 2282 2451 2368 2276 2367
8 2178 2274 2367 2276 2277 2366 2451 2368
8 2283 2187 2278 2368 2370 2279 2369 2452
8 2372 2283 2370 2453 2282 2186 2280 2371
8 2284 2374 2455 2373 2201 2292 2380 2295
8 2375 2285 2197 2289 2456 2374 2292 2378
8 2376 2291 2204 2296 2457 2379 2297 2383
8 2288 2199 2291 2376 2377 2293 2379 2457
8 2198 2290 2378 2292 2293 2377 2458 2380
8 2293 2202 2294 2379 2380 2295 2381 2459
8 2384 2298 2381 2459 2297 2205 2294 2379
8 2386 2300 2384 2463 2299 2207 2297 2383
8 2387 2301 2385 2464 2300 2208 2298 2384
8 2389 2303 2387 2466 2302 2210 2300 2386
8 2390 2304 2388 2467 2303 2211 2301 2387
8 2392 2306 2390 2469 2305 2213 2303 2389
8 2393 2307 2391 2470 2306 2214 2304 2390
8 2395 2308 2393 2472 2310 2216 2306 2392
8 2308 2215 2309 2396 2393 2307 2394 2473
8 2395 2308 2216 2310 2475 2396 2311 2398
8 2396 2309 2217 2311 2476 2397 2312 2399
8 2398 2311 2219 2315 2478 2399 2314 2403
8 2399 2312 2218 2314 2479 2400 2313 2402
8 2317 2221 2316 2405 2402 2313 2401 2482
8 2403 2314 2222 2318 2483 2402 2317 2406
8 2320 2224 2319 2408 2405 2316 2404 2485
8 2321 2225 2320 2409 2406 2317 2405 2486
8 2323 2227 2322 2411 2408 2319 2407 2488
8 2324 2228 2323 2412 2409 2320 2408 2489
8 2326 2230 2325 2413 2411 2322 2410 2490
8 2327 2231 2326 2414 2412 2323 2411 2491
8 2329 2234 2328 2415 2414 2326 2413 2492
8 2417 2331 2260 2352 2494 2416 2353 2438
8 2350 2259 2352 2436 2419 2332 2417 2496
8 2332 2239 2331 2417 2420 2333 2418 2497
8 2334 2240 2332 2419 2422 2335 2420 2499
8 2420 2333 2421 2500 2335 2241 2336 2423
8 2422 2335 2423 2502 2337 2243 2338 2425
8 2423 2336 2424 2503 2338 2244 2339 2426
8 2425 2338 2426 2505 2342 2246 2341 2429
8 2426 2339 2427 2506 2341 2245 2340 2428
8 2429 2341 2428 2507 2344 2249 2343 2430
8 2432 2346 2284 2374 2509 2431 2373 2455
8 2432 2346 2431 2509 2364 2270 2363 2449
8 2375 2285 2374 2456 2433 2347 2432 2510
8 2347 2433 2365 2271 2432 2510 2450 2364
8 2350 2259 2351 2435 2436 2352 2437 2514
8 2440 2356 2437 2514 2355 2264 2351 2435
8 2352 2260 2354 2437 2438 2353 2439 2516
8 2356 2265 2358 2442 2437 2354 2439 2516
8 2440 2356 2264 2355 2518 2442 2357 2441
8 2519 2443 2357 2441 2447 2361 2268 2362
8 2443 2359 2444 2520 2357 2266 2358 2442
8 2443 2359 2267 2361 2520 2444 2360 2446
8 2446 2360 2279 2370 2523 2445 2369 2452
8 2453 2370 2446 2524 2371 2280 2361 2447
8 2449 2363 2448 2525 2368 2278 2369 2452
8 2366 2277 2364 2450 2451 2368 2449 2526
8 2372 2283 2368 2451 2453 2370 2452 2527
8 2455 2373 2295 2380 2529 2454 2382 2460
8 2456 2374 2292 2378 2530 2455 2380 2458
8 2377 2293 2379 2457 2458 2380 2459 2531
8 2463 2384 2459 2531 2383 2297 2379 2457
8 2533 2461 2382 2460 2459 2381 2295 2380
8 2464 2385 2461 2533 2384 2298 2381 2459
8 2466 2387 2464 2537 2386 2300 2384 2463
8 2467 2388 2465 2538 2387 2301 2385 2464
8 2469 2390 2467 2540 2389 2303 2387 2466
8 2470 2391 2468 2541 2390 2304 2388 2467
8 2472 2393 2470 2543 2392 2306 2390 2469
8 2393 2307 2394 2473 2470 2391 2471 2544
8 2395 2308 2396 2475 2472 2393 2473 2546
8 2396 2309 2397 2476 2473 2394 2474 2547
8 2475 2396 2311 2398 2549 2476 2399 2478
8 2476 2397 2312 2399 2550 2477 2400 2479
8 2478 2399 2314 2403 2552 2479 2402 2483
8 2479 2400 2313 2402 2553 2480 2401 2482
8 2405 2316 2404 2485 2482 2401 2481 2556
8 2406 2317 2405 2486 2483 2402 2482 2557
8 2408 2319 2407 2488 2485 2404 2484 2559
8 2409 2320 2408 2489 2486 2405 2485 2560
8 2411 2322 2410 2490 2488 2407 2487 2561
8 2412 2323 2411 2491 2489 2408 2488 2562
8 2414 2326 2413 2492 2491 2411 2490 2563
8 2513 2434 2493 2565 2438 2353 2416 2494
8 2496 2417 2352 2436 2567 2494 2438 2515
8 2494 2416 2495 2568 2417 2331 2418 2497
8 2419 2332 2417 2496 2499 2420 2497 2570
8 2497 2418 2498 2571 2420 2333 2421 2500
8 2499 2420 2500 2573 2422 2335 2423 2502
8 2500 2421 2501 2574 2423 2336 2424 2503
8 2502 2423 2503 2576 2425 2338 2426 2505
8 2503 2424 2504 2577 2426 2339 2427 2506
8 2505 2426 2506 2578 2429 2341 2428 2507
8 2509 2431 2373 2455 2580 2508 2454 2529
8 2509 2431 2508 2580 2449 2363 2448 2525
8 2432 2510 2581 2509 2374 2456 2530 2455
8 2432 2510 2450 2364 2509 2581 2526 2449
8 2583 2511 2434 2513 2516 2439 2353 2438
8 2436 2352 2437 2514 2515 2438 2516 2588
8 2440 2356 2442 2518 2514 2437 2516 2588
8 2442 2358 2444 2520 2516 2439 2517 2589
8 2519 2443 2520 2591 2441 2357 2442 2518
8 2519 2443 2361 2447 2591 2520 2446 2524
8 2446 2360 2445 2523 2520 2444 2521 2592
8 2525 2448 2522 2593 2452 2369 2445 2523
8 2524 2446 2370 2453 2594 2523 2452 2527
8 2526 2449 2525 2595 2451 2368 2452 2527
8 2534 2462 2528 2597 2460 2382 2454 2529
8 2530 2455 2380 2458 2598 2529 2460 2532
8 2599 2533 2460 2532 2531 2459 2380 2458
8 2537 2464 2533 2599 2463 2384 2459 2531
8 2534 2462 2382 2460 2601 2535 2461 2533
8 2538 2465 2535 2601 2464 2385 2461 2533
8 2540 2467 2538 2604 2466 2387 2464 2537
8 2541 2468 2539 2605 2467 2388 2465 2538
8 2543 2470 2541 2607 2469 2390 2467 2540
8 2470 2391 2471 2544 2541 2468 2542 2608
8 2472 2393 2473 2546 2543 2470 2544 2610
8 2473 2394 2474 2547 2544 2471 2545 2611
8 2475 2396 2476 2549 2546 2473 2547 2613
8 2476 2397 2477 2550 2547 2474 2548 2614
8 2549 2476 2399 2478 2616 2550 2479 2552
8 2479 2400 2480 2553 2550 2477 2551 2617
8 2552 2479 2402 2483 2619 2553 2482 2557
8 2482 2401 2481 2556 2553 2480 2554 2620
8 2485 2404 2484 2559 2556 2481 2555 2623
8 2486 2405 2485 2560 2557 2482 2556 2624
8 2488 2407 2487 2561 2559 2484 2558 2625
8 2489 2408 2488 2562 2560 2485 2559 2626
8 2491 2411 2490 2563 2562 2488 2561 2627
8 2513 2434 2512 2585 2565 2493 2564 2630
8 2586 2513 2565 2632 2515 2438 2494 2567
8 2565 2493 2566 2633 2494 2416 2495 2568
8 2567 2494 2568 2635 2496 2417 2497 2570
8 2568 2495 2569 2636 2497 2418 2498 2571
8 2570 2497 2571 2638 2499 2420 2500 2573
8 2571 2498 2572 2639 2500 2421 2501 2574
8 2573 2500 2574 2641 2502 2423 2503 2576
8 2574 2501 2575 2642 2503 2424 2504 2577
8 2576 2503 2577 2643 2505 2426 2506 2578
8 2597 2528 2579 2645 2529 2454 2508 2580
8 2580 2508 2579 2645 2525 2448 2522 2593
8 2581 2509 2455 2530 2646 2580 2529 2598
8 2581 2509 2580 2646 2526 2449 2525 2595
8 2583 2511 2582 2648 2513 2434 2512 2585
8 2583 2511 2439 2516 2648 2582 2517 2589
8 2649 2583 2513 2586 2588 2516 2438 2515
8 2589 2517 2444 2520 2653 2587 2521 2592
8 2518 2442 2520 2591 2588 2516 2589 2654
8 2593 2522 2590 2655 2523 2445 2521 2592
8 2524 2446 2523 2594 2591 2520 2592 2656
8 2595 2525 2593 2657 2527 2452 2523 2594
8 2602 2536 2596 2659 2534 2462 2528 2597
8 2600 2534 2597 2660 2532 2460 2529 2598
8 2600 2534 2460 2532 2661 2601 2533 2599
8 2604 2538 2601 2661 2537 2464 2533 2599
8 2602 2536 2462 2534 2663 2603 2535 2601
8 2601 2535 2465 2538 2663 2603 2539 2605
8 2607 2541 2605 2665 2540 2467 2538 2604
8 2608 2542 2606 2666 2541 2468 2539 2605
8 2543 2470 2544 2610 2607 2541 2608 2668
8 2544 2471 2545 2611 2608 2542 2609 2669
8 2546 2473 2547 2613 2610 2544 2611 2671
8 2547 2474 2548 2614 2611 2545 2612 2672
8 2549 2476 2550 2616 2613 2547 2614 2674
8 2550 2477 2551 2617 2614 2548 2615 2675
8 2552 2479 2553 2619 2616 2550 2617 2677
8 2553 2480 2554 2620 2617 2551 2618 2678
8 2557 2482 2556 2624 2619 2553 2620 2680
8 2556 2481 2555 2623 2620 2554 2621 2681
8 2559 2484 2558 2625 2623 2555 2622 2683
8 2560 2485 2559 2626 2624 2556 2623 2684
8 2562 2488 2561 2627 2626 2559 2625 2685
8 2690 2629 2564 2630 2650 2584 2512 2585
8 2586 2513 2585 2651 2632 2565 2630 2691
8 2630 2564 2631 2692 2565 2493 2566 2633
8 2632 2565 2633 2694 2567 2494 2568 2635
8 2633 2566 2634 2695 2568 2495 2569 2636
8 2635 2568 2636 2697 2570 2497 2571 2638
8 2636 2569 2637 2698 2571 2498 2572 2639
8 2638 2571 2639 2700 2573 2500 2574 2641
8 2639 2572 2640 2701 2574 2501 2575 2642
8 2641 2574 2642 2702 2576 2503 2577 2643
8 2597 2528 2596 2659 2645 2579 2644 2704
8 2645 2579 2644 2704 2593 2522 2590 2655
8 2660 2597 2645 2705 2598 2529 2580 2646
8 2646 2580 2645 2705 2595 2525 2593 2657
8 2650 2584 2512 2585 2707 2647 2582 2648
8 2648 2582 2517 2589 2707 2647 2587 2653
8 2649 2583 2648 2708 2586 2513 2585 2651
8 2649 2583 2516 2588 2708 2648 2589 2654
8 2655 2590 2652 2710 2592 2521 2587 2653
8 2654 2589 2520 2591 2711 2653 2592 2656
8 2657 2593 2655 2712 2594 2523 2592 2656
8 2602 2536 2603 2663 2659 2596 2658 2714
8 2662 2602 2659 2715 2600 2534 2597 2660
8 2662 2602 2534 2600 2717 2663 2601 2661
8 2661 2601 2538 2604 2717 2663 2605 2665
8 2666 2606 2664 2718 2605 2539 2603 2663
8 2668 2608 2666 2720 2607 2541 2605 2665
8 2608 2542 2609 2669 2666 2606 2667 2721
8 2610 2544 2611 2671 2668 2608 2669 2723
8 2611 2545 2612 2672 2669 2609 2670 2724
8 2613 2547 2614 2674 2671 2611 2672 2726
8 2614 2548 2615 2675 2672 2612 2673 2727
8 2616 2550 2617 2677 2674 2614 2675 2729
8 2617 2551 2618 2678 2675 2615 2676 2730
8 2619 2553 2620 2680 2677 2617 2678 2732
8 2620 2554 2621 2681 2678 2618 2679 2733
8 2624 2556 2623 2684 2680 2620 2681 2735
8 2681 2621 2555 2623 2736 2682 2622 2683
8 2626 2559 2625 2685 2684 2623 2683 2737
8 2688 2628 2584 2650 2740 2686 2647 2707
8 2688 2628 2687 2742 2650 2584 2629 2690
8 2690 2629 2689 2745 2630 2564 2631 2692
8 2746 2690 2630 2691 2709 2650 2585 2651
8 2691 2630 2692 2747 2632 2565 2633 2694
8 2692 2631 2693 2748 2633 2566 2634 2695
8 2694 2633 2695 2750 2635 2568 2636 2697
8 2695 2634 2696 2751 2636 2569 2637 2698
8 2697 2636 2698 2753 2638 2571 2639 2700
8 2698 2637 2699 2754 2639 2572 2640 2701
8 2700 2639 2701 2755 2641 2574 2642 2702
8 2659 2596 2658 2714 2704 2644 2703 2757
8 2704 2644 2703 2757 2655 2590 2652 2710
8 2660 2597 2659 2715 2705 2645 2704 2758
8 2705 2645 2704 2758 2657 2593 2655 2712
8 2759 2706 2647 2707 2710 2652 2587 2653
8 2709 2650 2585 2651 2760 2707 2648 2708
8 2708 2648 2589 2654 2760 2707 2653 2711
8 2712 2655 2710 2761 2656 2592 2653 2711
8 2763 2713 2658 2714 2718 2664 2603 2663
8 2662 2602 2663 2717 2715 2659 2714 2764
8 2720 2666 2718 2767 2665 2605 2663 2717
8 2768 2719 2664 2718 2721 2667 2606 2666
8 2668 2608 2669 2723 2720 2666 2721 2770
8 2669 2609 2670 2724 2721 2667 2722 2771
8 2671 2611 2672 2726 2723 2669 2724 2773
8 2672 2612 2673 2727 2724 2670 2725 2774
8 2674 2614 2675 2729 2726 2672 2727 2776
8 2675 2615 2676 2730 2727 2673 2728 2777
8 2677 2617 2678 2732 2729 2675 2730 2779
8 2678 2618 2679 2733 2730 2676 2731 2780
8 2680 2620 2681 2735 2732 2678 2733 2782
8 2733 2679 2621 2681 2783 2734 2682 2736
8 2735 2681 2623 2684 2784 2736 2683 2737
8 2740 2686 2647 2707 2787 2738 2706 2759
8 2688 2628 2686 2740 2742 2687 2739 2789
8 2743 2688 2650 2709 2790 2740 2707 2760
8 2742 2687 2741 2792 2690 2629 2689 2745
8 2743 2688 2742 2793 2709 2650 2690 2746
8 2745 2689 2744 2795 2692 2631 2693 2748
8 2746 2690 2745 2796 2691 2630 2692 2747
8 2747 2692 2748 2797 2694 2633 2695 2750
8 2748 2693 2749 2798 2695 2634 2696 2751
8 2750 2695 2751 2800 2697 2636 2698 2753
8 2751 2696 2752 2801 2698 2637 2699 2754
8 2753 2698 2754 2802 2700 2639 2701 2755
8 2763 2713 2756 2804 2714 2658 2703 2757
8 2759 2706 2652 2710 2804 2756 2703 2757
8 2715 2659 2714 2764 2758 2704 2757 2805
8 2758 2704 2757 2805 2712 2655 2710 2761
8 2806 2759 2707 2760 2761 2710 2653 2711
8 2765 2716 2762 2808 2718 2664 2713 2763
8 2809 2763 2714 2764 2767 2718 2663 2717
8 2765 2716 2664 2718 2811 2766 2719 2768
8 2813 2768 2718 2767 2770 2721 2666 2720
8 2814 2769 2719 2768 2771 2722 2667 2721
8 2723 2669 2724 2773 2770 2721 2771 2816
8 2724 2670 2725 2774 2771 2722 2772 2817
8 2726 2672 2727 2776 2773 2724 2774 2819
8 2727 2673 2728 2777 2774 2725 2775 2820
8 2729 2675 2730 2779 2776 2727 2777 2822
8 2730 2676 2731 2780 2777 2728 2778 2823
8 2732 2678 2733 2782 2779 2730 2780 2825
8 2780 2731 2679 2733 2826 2781 2734 2783
8 2782 2733 2681 2735 2827 2783 2736 2784
8 2830 2785 2738 2787 2804 2756 2706 2759
8 2789 2739 2686 2740 2832 2786 2738 2787
8 2790 2740 2707 2760 2833 2787 2759 2806
8 2742 2687 2739 2789 2792 2741 2788 2835
8 2743 2688 2740 2790 2793 2742 2789 2836
8 2792 2741 2791 2838 2745 2689 2744 2795
8 2793 2742 2792 2839 2746 2690 2745 2796
8 2795 2744 2794 2841 2748 2693 2749 2798
8 2796 2745 2795 2842 2747 2692 2748 2797
8 2797 2748 2798 2843 2750 2695 2751 2800
8 2798 2749 2799 2844 2751 2696 2752 2801
8 2800 2751 2801 2845 2753 2698 2754 2802
8 2808 2762 2803 2847 2763 2713 2756 2804
8 2809 2763 2804 2848 2764 2714 2757 2805
8 2806 2759 2710 2761 2848 2804 2757 2805
8 2765 2716 2766 2811 2808 2762 2807 2850
8 2810 2765 2808 2851 2767 2718 2763 2809
8 2810 2765 2718 2767 2852 2811 2768 2813
8 2811 2766 2719 2768 2853 2812 2769 2814
8 2855 2814 2768 2813 2816 2771 2721 2770
8 2856 2815 2769 2814 2817 2772 2722 2771
8 2773 2724 2774 2819 2816 2771 2817 2858
8 2774 2725 2775 2820 2817 2772 2818 2859
8 2776 2727 2777 2822 2819 2774 2820 2861
8 2777 2728 2778 2823 2820 2775 2821 2862
8 2779 2730 2780 2825 2822 2777 2823 2864
8 2823 2778 2731 2780 2865 2824 2781 2826
8 2825 2780 2733 2782 2866 2826 2783 2827
8 2869 2828 2785 2830 2847 2803 2756 2804
8 2871 2829 2786 2832 2830 2785 2738 2787
8 2872 2830 2787 2833 2848 2804 2759 2806
8 2789 2739 2786 2832 2835 2788 2831 2874
8 2836 2789 2740 2790 2875 2832 2787 2833
8 2792 2741 2788 2835 2838 2791 2834 2877
8 2793 2742 2789 2836 2839 2792 2835 2878
8 2838 2791 2837 2880 2795 2744 2794 2841
8 2839 2792 2838 2881 2796 2745 2795 2842
8 2841 2794 2840 2882 2798 2749 2799 2844
8 2842 2795 2841 2883 2797 2748 2798 2843
8 2843 2798 2844 2884 2800 2751 2801 2845
8 2886 2846 2803 2847 2850 2807 2762 2808
8 2851 2808 2847 2887 2809 2763 2804 2848
8 2850 2807 2766 2811 2889 2849 2812 2853
8 2810 2765 2811 2852 2851 2808 2850 2890
8 2852 2811 2768 2813 2891 2853 2814 2855
8 2853 2812 2769 2814 2892 2854 2815 2856
8 2894 2856 2814 2855 2858 2817 2771 2816
8 2817 2772 2818 2859 2856 2815 2857 2895
8 2819 2774 2820 2861 2858 2817 2859 2897
8 2820 2775 2821 2862 2859 2818 2860 2898
8 2822 2777 2823 2864 2861 2820 2862 2900
8 2823 2778 2824 2865 2862 2821 2863 2901
8 2864 2823 2780 2825 2902 2865 2826 2866
8 2904 2867 2828 2869 2886 2846 2803 2847
8 2869 2828 2868 2906 2830 2785 2829 2871
8 2907 2869 2830 2872 2887 2847 2804 2848
8 2871 2829 2870 2909 2832 2786 2831 2874
8 2910 2871 2832 2875 2872 2830 2787 2833
8 2835 2788 2831 2874 2877 2834 2873 2912
8 2836 2789 2832 2875 2878 2835 2874 2913
8 2877 2834 2876 2915 2838 2791 2837 2880
8 2839 2792 2835 2878 2881 2838 2877 2916
8 2880 2837 2879 2917 2841 2794 2840 2882
8 2881 2838 2880 2918 2842 2795 2841 2883
8 2883 2841 2882 2919 2843 2798 2844 2884
8 2921 2885 2846 2886 2889 2849 2807 2850
8 2922 2886 2847 2887 2890 2850 2808 2851
8 2889 2849 2812 2853 2924 2888 2854 2892
8 2890 2850 2811 2852 2925 2889 2853 2891
8 2891 2853 2814 2855 2926 2892 2856 2894
8 2892 2854 2815 2856 2927 2893 2857 2895
8 2858 2817 2859 2897 2894 2856 2895 2929
8 2859 2818 2860 2898 2895 2857 2896 2930
8 2861 2820 2862 2900 2897 2859 2898 2932
8 2862 2821 2863 2901 2898 2860 2899 2933
8 2864 2823 2865 2902 2900 2862 2901 2934
8 2904 2867 2846 2886 2936 2903 2885 2921
8 2904 2867 2903 2936 2869 2828 2868 2906
8 2937 2904 2869 2907 2922 2886 2847 2887
8 2906 2868 2905 2939 2871 2829 2870 2909
8 2907 2869 2906 2940 2872 2830 2871 2910
8 2909 2870 2908 2942 2874 2831 2873 2912
8 2910 2871 2909 2943 2875 2832 2874 2913
8 2912 2873 2911 2945 2877 2834 2876 2915
8 2878 2835 2874 2913 2916 2877 2912 2946
8 2915 2876 2914 2947 2880 2837 2879 2917
8 2916 2877 2915 2948 2881 2838 2880 2918
8 2918 2880 2917 2949 2883 2841 2882 2919
8 2921 2885 2849 2889 2951 2920 2888 2924
8 2952 2921 2886 2922 2925 2889 2850 2890
8 2924 2888 2854 2892 2954 2923 2893 2927
8 2925 2889 2853 2891 2955 2924 2892 2926
8 2926 2892 2856 2894 2956 2927 2895 2929
8 2895 2857 2896 2930 2927 2893 2928 2957
8 2897 2859 2898 2932 2929 2895 2930 2959
8 2898 2860 2899 2933 2930 2896 2931 2960
8 2900 2862 2901 2934 2932 2898 2933 2961
8 2936 2903 2885 2921 2963 2935 2920 2951
8 2936 2903 2935 2963 2906 2868 2905 2939
8 2937 2904 2886 2922 2964 2936 2921 2952
8 2937 2904 2936 2964 2907 2869 2906 2940
8 2939 2905 2938 2966 2909 2870 2908 2942
8 2940 2906 2939 2967 2910 2871 2909 2943
8 2942 2908 2941 2969 2912 2873 2911 2945
8 2943 2909 2942 2970 2913 2874 2912 2946
8 2945 2911 2944 2971 2915 2876 2914 2947
8 2946 2912 2945 2972 2916 2877 2915 2948
8 2948 2915 2947 2973 2918 2880 2917 2949
8 2951 2920 2888 2924 2975 2950 2923 2954
8 2952 2921 2889 2925 2976 2951 2924 2955
8 2927 2893 2928 2957 2954 2923 2953 2978
8 2955 2924 2892 2926 2979 2954 2927 2956
8 2929 2895 2930 2959 2956 2927 2957 2980
8 2930 2896 2931 2960 2957 2928 2958 2981
8 2932 2898 2933 2961 2959 2930 2960 2982
8 2951 2920 2950 2975 2963 2935 2962 2984
8 2963 2935 2962 2984 2939 2905 2938 2966
8 2964 2936 2921 2952 2985 2963 2951 2976
8 2964 2936 2963 2985 2940 2906 2939 2967
8 2966 2938 2965 2987 2942 2908 2941 2969
8 2967 2939 2966 2988 2943 2909 2942 2970
8 2969 2941 2968 2989 2945 2911 2944 2971
8 2970 2942 2969 2990 2946 2912 2945 2972
8 2972 2945 2971 2991 2948 2915 2947 2973
8 2954 2923 2953 2978 2975 2950 2974 2993
8 2976 2951 2924 2955 2994 2975 2954 2979
8 2957 2928 2958 2981 2978 2953 2977 2995
8 2956 2927 2957 2980 2979 2954 2978 2996
8 2959 2930 2960 2982 2980 2957 2981 2997
8 2984 2962 2983 2999 2966 2938 2965 2987
8 2975 2950 2974 2993 2984 2962 2983 2999
8 2976 2951 2975 2994 2985 2963 2984 3000
8 2985 2963 2984 3000 2967 2939 2966 2988
8 2987 2965 2986 3001 2969 2941 2968 2989
8 2988 2966 2987 3002 2970 2942 2969 2990
8 2990 2969 2989 3003 2972 2945 2971 2991
8 2978 2953 2977 2995 2993 2974 2992 3004
8 2979 2954 2978 2996 2994 2975 2993 3005
8 2980 2957 2981 2997 2996 2978 2995 3006
8 2974 2993 2999 2983 2992 3004 3007 2998
8 2983 2999 2987 2965 2998 3007 3001 2986
8 3000 2984 2999 3008 2988 2966 2987 3002
8 2994 2975 2993 3005 3000 2984 2999 3008
8 3002 2987 3001 3009 2990 2969 2989 3003
8 2996 2978 2995 3006 3005 2993 3004 3010
8 3005 2993 3004 3010 3008 2999 3007 3011
8 3008 2999 3007 3011 3002 2987 3001 3009

CELL_TYPES 1910
12
12
12
12
12
12
12
12
12
12
12
12
12
12
12
12
12
12
12
12
12
12
12
12
12
12
12
12
12
12
12
12
12
12
12
12
12
12
12
12
12
12
12
12
12
12
12
12
12
12
12
12
12
12
12
12
12
12
12
12
12
12
12
12
12
12
12
12
12
12
12
12
12
12
12
12
12
12
12
12
12
12
12
12
12
12
12
12
12
12
12
12
12
12
12
12
12
12
12
12
12
12
12
12
12
12
12
12
12
12
12
12
12
12
12
12
12
12
12
12
12
12
12
12
12
12
12
12
12
12
12
12
12
12
12
12
12
12
12
12
12
12
12
12
12
12
12
12
12
12
12
12
12
12
12
12
12
12
12
12
12
12
12
12
12
12
12
12
12
12
12
12
12
12
12
12
12
12
12
12
12
12
12
12
12
12
12
12
12
12
12
12
12
12
12
12
12
12
12
12
12
12
12
12
12
12
12
12
12
12
12
12
12
12
12
12
12
12
12
12
12
12
12
12
12
12
12
12
12
12
12
12
12
12
12
12
12
12
12
12
12
12
12
12
12
12
12
12
12
12
12
12
12
12
12
12
12
12
12
12
12
12
12
12
12
12
12
12
12
12
12
12
12
12
12
12
12
12
12
12
12
12
12
12
12
12
12
12
12
12
12
12
12
12
12
12
12
12
12
12
12
12
12
12
12
12
12
12
12
12
12
12
12
12
12
12
12
12
12
12
12
12
12
12
12
12
12
12
12
12
12
12
12
12
12
12
12
12
12
12
12
12
12
12
12
12
12
12
12
12
12
12
12
12
12
12
12
12
12
12
12
12
12
12
12
12
12
12
12
12
12
12
12
12
12
12
12
12
12
12
12
12
12
12
12
12
12
12
12
12
12
12
12
12
12
12
12
12
12
12
12
12
12
12
12
12
12
12
12
12
12
12
12
12
12
12
12
12
12
12
12
12
12
12
12
12
12
12
12
12
12
12
12
12
12
12
12
12
12
12
12
12
12
12
12
12
12
12
12
12
12
12
12
12
12
12
12
12
12
12
12
12
12
12
12
12
12
12
12
12
12
12
12
12
12
12
12
12
12
12
12
12
12
12
12
12
12
12
12
12
12
12
12
12
12
12
12
12
12
12
12
12
12
12
12
12
12
12
12
12
12
12
12
12
12
12
12
12
12
12
12
12
12
12
12
12
12
12
12
12
12
12
12
12
12
12
12
12
12
12
12
12
12
12
12
12
12
12
12
12
12
12
12
12
12
12
12
12
12
12
12
12
12
12
12
12
12
12
12
12
12
12
12
12
12
12
12
12
12
12
12
12
12
12
12
12
12
12
12
12
12
12
12
12
12
12
12
12
12
12
12
12
12
12
12
12
12
12
12
12
12
12
12
12
12
12
12
12
12
12
12
12
12
12
12
12
12
12
12
12
12
12
12
12
12
12
12
12
12
12
12
12
12
12
12
12
12
12
12
12
12
12
12
12
12
12
12
12
12
12
12
12
12
12
12
12
12
12
12
12
12
12
12
12
12
12
12
12
12
12
12
12
12
12
12
12
12
12
12
12
12
12
12
12
12
12
12
12
12
12
12
12
12
12
12
12
12
12
12
12
12
12
12
12
12
12
12
12
12
12
12
12
12
12
12
12
12
12
12
12
12
12
12
12
12
12
12
12
12
12
12
12
12
12
12
12
12
12
12
12
12
12
12
12
12
12
12
12
12
12
12
12
12
12
12
12
12
12
12
12
12
12
12
12
12
12
12
12
12
12
12
12
12
12
12
12
12
12
12
12
12
12
12
12
12
12
12
12
12
12
12
12
12
12
12
12
12
12
12
12
12
12
12
12
12
12
12
12
12
12
12
12
12
12
12
12
12
12
12
12
12
12
12
12
12
12
12
12
12
12
12
12
12
12
12
12
12
12
12
12
12
12
12
12
12
12
12
12
12
12
12
12
12
12
12
12
12
12
12
12
12
12
12
12
12
12
12
12
12
12
12
12
12
12
12
12
12
12
12
12
12
12
12
12
12
12
12
12
12
12
12
12
12
12
12
12
12
12
12
12
12
12
12
12
12
12
12
12
12
12
12
12
12
12
12
12
12
12
12
12
12
12
12
12
12
12
12
12
12
12
12
12
12
12
12
12
12
12
12
12
12
12
12
12
12
12
12
12
12
12
12
12
12
12
12
12
12
12
12
12
12
12
12
12
12
12
12
12
12
12
12
12
12
12
12
12
12
12
12
12
12
12
12
12
12
12
12
12
12
12
12
12
12
12
12
12
12
12
12
12
12
12
12
12
12
12
12
12
12
12
12
12
12
12
12
12
12
12
12
12
12
12
12
12
12
12
12
12
12
12
12
12
12
12
12
12
12
12
12
12
12
12
12
12
12
12
12
12
12
12
12
12
12
12
12
12
12
12
12
12
12
12
12
12
12
12
12
12
12
12
12
12
12
12
12
12
12
12
12
12
12
12
12
12
12
12
12
12
12
12
12
12
12
12
12
12
12
12
12
12
12
12
12
12
12
12
12
12
12
12
12
12
12
12
12
12
12
12
12
12
12
12
12
12
12
12
12
12
12
12
12
12
12
12
12
12
12
12
12
12
12
12
12
12
12
12
12
12
12
12
12
12
12
12
12
12
12
12
12
12
12
12
12
12
12
12
12
12
12
12
12
12
12
12
12
12
12
12
12
12
12
12
12
12
12
12
12
12
12
12
12
12
12
12
12
12
12
12
12
12
12
12
12
12
12
12
12
12
12
12
12
12
12
12
12
12
12
12
12
12
12
12
12
12
12
12
12
12
12
12
12
12
12
12
12
12
12
12
12
12
12
12
12
12
12
12
12
12
12
12
12
12
12
12
12
12
12
12
12
12
12
12
12
12
12
12
12
12
12
12
12
12
12
12
12
12
12
12
12
12
12
12
12
12
12
12
12
12
12
12
12
12
12
12
12
12
12
12
12
12
12
12
12
12
12
12
12
12
12
12
12
12
12
12
12
12
12
12
12
12
12
12
12
12
12
12
12
12
12
12
12
12
12
12
12
12
12
12
12
12
12
12
12
12
12
12
12
12
12
12
12
12
12
12
12
12
12
12
12
12
12
12
12
12
12
12
12
12
12
12
12
12
12
12
12
12
12
12
12
12
12
12
12
12
12
12
12
12
12
12
12
12
12
12
12
12
12
12
12
12
12
12
12
12
12
12
12
12
12
12
12
12
12
12
12
12
12
12
12
12
12
12
12
12
12
12
12
12
12
12
12
12
12
12
12
12
12
12
12
12
12
12
12
12
12
12
12
12
12
12
12
12
12
12
12
12
12
12
12
12
12
12
12
12
12
12
12
12
12
12
12
12
12
12
12
12
12
12
12
12
12
12
12
12
12
12
12
12
12
12
12
12
12
12
12
12
12
12
12
12
12
12
12
12
12
12
12
12
12
12
12
12
12
12
12
12
12
12
12
12
12
12
12
12
12
12
12
12
12
12
12
12
12
12
12
12
12
12
12
12
12
12
12
12
12
12
12
12
12
12
12
12
12
12
12
12
12
12
12
12
12
12
12
12
12
12
12
12
12
12
12
12
12
12
12
12
12
12
12
12
12
12
12
12
12
12
12
12
12
12
12
12
12
12
12
12
12
12
12
12
12
12
12
12
12
12
12
12
12
12
12
12
12
12
12
12
12
12
12
12
12
12
12
12
12
12
12
12
12
12
12
12
12
12
12
12
12
12
12
12
12
12
12
12
12
12
12
12
12
12
12
12
12
12
12
12
12
12
12
12
12
12
12
12
12
12
12
12
12
12
12
12
12
12
12
12
12
12
12
12
12
12
12
12
12
12
12
12
12
12
12
12
12
12
12
12
12
12
12
12
12
12
12
12
12
12
12
12
12
12
12
12
12
12
12
12
12
12
12
12
12
12
12
12
12
12
12
12
12
12
12
12
12
12
12
12
12
12
12
12
12
12
12
12
12
12
12
12
12
12
12
12
12
12
12
12
12
12
12
12
12
12
12
12
12
12
12
12
12
12
12
12
12
12
12
12
12
12
12
12
12
12
12
12
12
12
12
12
12
12
12
12
12
12
12
12
12
12
12
12
12
12
12
12
12
12
12
12
12
12
12
12
12
12
12
12
12
12
12
12
12
12
12
12
12
12
12
12
12
12
12
12
12
12
12
12
12
12
12
12
12
12
12
12
12
12
12
12
12
12
12
12
12
12
12
12
12
12
12
12
12
12
12
12
12
12
12
12
12
12
12
12
12
12
12
12
12
12
12
12
12
12
12
12
12
12
12
12
12
12
12
12
12
12
12
12
12
12
12
12

POINT_DATA 3012
SCALARS Jp_lamdaP float 4
LOOKUP_TABLE default
0.999816 1 1 0.999816
1 1 1 1
0.999822 1 1 0.999822
0.99977 1 1 0.99977
0.999816 1 1 0.999816
0.999808 1 1 0.999808
0.999213 1 1 0.999213
1 1 1 1
1 1 1 1
1 1 1 1
0.999889 1 1 0.999889
0.999362 1 1 0.999362
0.999738 1 1 0.999738
0.999763 1 1 0.999763
0.999822 1 1 0.999822
0.999788 1 1 0.999788
0.999813 1 1 0.999813
0.999827 1 1 0.999827
0.999216 1 1 0.999216
1 1 1 1
0.999749 1 1 0.999749
0.999797 1 1 0.999797
0.999083 1 1 0.999083
0.999184 1 1 0.999184
0.999824 1 1 0.999824
0.999242 1 1 0.999242
1.00093 1.00267 1 0.998267
1 1 1 1
0.999897 1 1 0.999897
0.999911 1 1 0.999911
1 1 1 1
0.999371 1 1 0.999371
0.999788 1 1 0.999788
0.999812 1 1 0.999812
0.999313 1 1 0.999313
1 1 1 1
0.999401 1 1 0.999401
0.999462 1 1 0.999462
0.99855 1.00026 1 0.998291
1 1 1 1
1 1 1 1
0.99988 1 1 0.99988
1 1 1 1
0.999757 1 1 0.999757
0.99901 1 1 0.99901
1 1 1 1
0.999216 1 1 0.999216
0.999803 1 1 0.999803
0.999833 1 1 0.999833
0.999814 1 1 0.999814
0.999221 1 1 0.999221
0.999864 1 1 0.999864
0.999766 1 1 0.999766
0.999835 1 1 0.999835
0.999813 1 1 0.999813
0.999082 1 1 0.999082
0.999246 1 1 0.999246
0.999186 1 1 0.999186
1.00126 1.00302 1 0.998252
1 1 1 1
0.99974 1 1 0.99974
0.999201 1 1 0.999201
0.999046 1 1 0.999046
0.999135 1 1 0.999135
1.00357 1.00561 1 0.997972
1.00203 1.00394 1 0.998101
0.999884 1 1 0.999884
0.999354 1 1 0.999354
0.999543 1.00118 1 0.998369
1.01085 1.01341 1 0.997473
1 1 1 1
1 1 1 1
1 1 1 1
0.999378 1 1 0.999378
1 1 1 1
1 1 1 1
0.999212 1 1 0.999212
0.999969 1 1 0.999969
0.999318 1 1 0.999318
0.99953 1 1 0.99953
0.998408 1.00012 1 0.998288
1 1 1 1
0.999919 1 1 0.999919
0.999147 1 1 0.999147
0.999247 1 1 0.999247
1.00356 1.00571 1 0.997866
0.999702 1 1 0.999702
0.999668 1.00148 1 0.998189
0.998429 1 1 0.998429
0.999506 1.00182 1 0.99769
1 1 1 1
1 1 1 1
1 1 1 1
1 1 1 1
1 1 1 1
0.999875 1 1 0.999875
0.9991 1 1 0.9991
0.999885 1 1 0.999885
0.99916 1 1 0.99916
1 1 1 1
0.999003 1 1 0.999003
0.999192 1 1 0.999192
1.00305 1.00547 1 0.997591
0.999252 1 1 0.999252
1.00497 1.00732 1 0.997668
0.999757 1 1 0.999757
0.999782 1 1 0.999782
0.999845 1 1 0.999845
0.999825 1 1 0.999825
0.999083 1 1 0.999083
0.999191 1 1 0.999191
0.999252 1 1 0.999252
1.0016 1.00337 1 0.998237
1 1 1 1
0.999756 1 1 0.999756
0.999028 1 1 0.999028
0.999044 1 1 0.999044
0.999942 1 1 0.999942
0.999414 1 1 0.999414
0.999137 1 1 0.999137
1.00355 1.00563 1 0.99793
0.999959 1.00161 1 0.99835
1.00226 1.00414 1 0.998131
1.01083 1.01339 1 0.997477
0.999025 1 1 0.999025
0.999027 1 1 0.999027
1.00269 1.00492 1 0.997774
1.0036 1.00575 1 0.997856
1.00337 1.0054 1 0.997985
1.01833 1.0211 1 0.997295
1 1 1 1
1.01326 1.01589 1 0.99741
0.999584 1 1 0.999584
0.998572 1.00018 1 0.998389
1.00824 1.01073 1 0.997534
1.02128 1.0241 1 0.997247
0.9998 1 1 0.9998
1.00076 1 1.00176 0.999005
1 1 1 1
1 1 1 1
0.999218 1 1 0.999218
1 1 1 1
0.99952 1 1 0.99952
0.999323 1 1 0.999323
0.998296 1.00001 1 0.998285
1 1 1 1
0.999937 1 1 0.999937
0.999217 1 1 0.999217
0.999313 1 1 0.999313
1.00302 1.00516 1 0.997868
0.999704 1 1 0.999704
0.999223 1.00103 1 0.998193
0.998427 1 1 0.998427
0.999324 1.00165 1 0.997673
0.999824 1 1 0.999824
0.999976 1 1 0.999976
0.999918 1 1.0007 0.99922
1.00479 1.00705 1 0.997756
1.00166 1.00364 1 0.998029
1.0145 1.01727 1 0.997271
0.998665 1 1 0.998665
1.00453 1.00696 1 0.997588
0.999456 1.00111 1.00057 0.99778
1.00505 1.00756 1 0.997501
1 1 1 1
1 1 1 1
1 1 1 1
0.999877 1 1 0.999877
1 1 1 1
1 1 1 1
1 1 1 1
0.999101 1 1 0.999101
0.999038 1 1 0.999038
1 1 1 1
1 1 1 1
0.999004 1 1 0.999004
0.999135 1 1 0.999135
1.00339 1.00581 1 0.997592
0.999129 1 1 0.999129
1.00505 1.0074 1 0.997667
0.998997 1 1 0.998997
1.00223 1.0047 1 0.997546
1.00411 1.00649 1 0.99764
1.02153 1.02448 1 0.997118
1.00516 1.00748 1 0.997697
1.02244 1.02534 1 0.997172
1 1 1 1
0.999773 1 1 0.999773
0.99884 1 1 0.99884
0.999043 1 1 0.999043
1 1 1 1
0.999475 1 1 0.999475
0.99914 1 1 0.99914
1.00352 1.00564 1 0.997889
1.00251 1.00435 1 0.998161
1.00033 1.002 1 0.998332
1.01079 1.01334 1 0.997482
0.999023 1 1 0.999023
0.999024 1 1 0.999024
1.00254 1.00488 1 0.997673
1.00362 1.00575 1 0.997884
1 1 1 1
0.99959 1 1 0.99959
0.998885 1.00044 1 0.998447
1.00331 1.00534 1 0.997984
1.0182 1.02099 1 0.99726
1.00785 1.01036 1 0.997523
1.01347 1.01607 1 0.997443
1.02085 1.02366 1 0.997254
0.99996 1 1.00017 0.99979
1.00074 1 1.00174 0.999006
1.00181 1.00425 1 0.997567
1.00321 1.0054 1 0.99782
1.01965 1.0225 1 0.997211
1.01863 1.02149 1 0.997193
1.01577 1.01843 1 0.997386
1.02948 1.03236 1 0.997212
0.999793 1 1.00009 0.999702
1.02309 1.02591 1 0.997255
0.998665 1 1.00011 0.998559
1.00255 1.0049 1 0.997653
1.01897 1.02176 1 0.997269
1.02353 1.0263 1 0.997298
1.00057 1 1.00174 0.998836
0.99956 1 1.00034 0.999219
1.00146 1 1.00304 0.998423
0.999169 1 1 0.999169
1 1 1 1
0.999955 1 1 0.999955
0.999276 1 1 0.999276
1.00249 1.00463 1 0.99787
0.999711 1 1 0.999711
0.998467 1 1.00004 0.998426
0.998746 1.00055 1 0.998196
0.999116 1.00146 1 0.997656
0.999844 1 1 0.999844
0.999983 1 1 0.999983
1.00009 1 1.00087 0.999222
1.00448 1.00674 1 0.997755
1.00102 1.00299 1 0.998034
1.01451 1.01729 1 0.997268
0.998727 1 1.00006 0.998669
1.00446 1.00688 1 0.997597
0.99918 1.00094 1.00047 0.997775
1.00544 1.00798 1 0.997486
0.999996 1 1 0.999996
0.999331 1 1.0004 0.998928
1.00001 1 1.00051 0.9995
1.00037 1 1.00174 0.998632
1.01831 1.02118 1 0.997195
1.00993 1.01253 1 0.997432
1.02343 1.0264 1 0.997103
0.998872 1.00033 1.00049 0.998057
1.01178 1.0144 1 0.997414
1.00648 1.00746 1.00158 0.997452
1.01533 1.01802 1 0.997356
0.999821 1 1 0.999821
1 1 1 1
1 1 1 1
1 1 1 1
1 1 1 1
0.999934 1 1 0.999934
1 1 1 1
0.999896 1 1.00003 0.999864
1 1 1 1
0.999129 1 1 0.999129
0.999073 1 1 0.999073
1.00522 1.00757 1 0.997667
1.00371 1.00613 1 0.997592
0.999006 1 1 0.999006
1 1 1 1
0.998996 1 1 0.998996
1.00243 1.00489 1 0.997546
1.00442 1.00679 1 0.997639
1.02121 1.02417 1 0.997116
1.00515 1.00747 1 0.997695
1.0224 1.0253 1 0.997171
1.00173 1.0042 1 0.997539
1.02035 1.02335 1 0.997076
1.02244 1.02536 1 0.997153
1.03535 1.03826 1 0.997201
1.02151 1.0244 1 0.997178
1.03341 1.03633 1 0.997191
0.99902 1 1 0.99902
0.999022 1 1 0.999022
1.0024 1.00484 1 0.997572
1.00365 1.00575 1 0.997913
1 1 1 1
0.999595 1 1 0.999595
0.999203 1.0007 1 0.998505
1.00325 1.00528 1 0.997982
1.01807 1.02091 1 0.997225
1.01365 1.01621 1 0.997476
1.00751 1.01002 1 0.997512
1.02053 1.02333 1 0.99726
0.999906 1 1.00013 0.999779
1.00065 1 1.00165 0.999008
1.00177 1.00423 1 0.997542
1.00317 1.00536 1 0.997817
1.0198 1.02264 1 0.997214
1.01876 1.0216 1 0.997226
0.999723 1 1.00003 0.999691
0.998611 1.00001 1.00005 0.998556
1.00326 1.00559 1 0.997689
1.01603 1.0187 1 0.997381
1.02966 1.03252 1 0.99723
1.01832 1.02114 1 0.997237
1.023 1.02581 1 0.997259
1.02393 1.0267 1 0.997298
1.00001 1 1.00117 0.998839
1.00142 1 1.003 0.998425
0.999986 1 1.00077 0.999216
1.01938 1.02228 1 0.997161
1.01995 1.02277 1 0.997239
1.03398 1.0369 1 0.997179
1.0309 1.03381 1 0.997185
1.02537 1.02819 1 0.997261
1.02991 1.03258 1 0.997418
0.998934 1 1.00022 0.998717
1.02551 1.02823 1 0.997358
0.998887 1.00092 1 0.997972
1.01008 1.01287 1 0.997241
1.0209 1.02384 1 0.997127
1.0214 1.02398 1 0.997476
0.999408 1 1 0.999408
0.998711 1 1.00033 0.998377
1.0026 1 1.00407 0.998528
0.999931 1 1.0017 0.998238
1.00418 1.00644 1 0.997755
0.99999 1 1 0.99999
0.999865 1 1 0.999865
0.999887 1 1.00066 0.999224
1.00035 1.00232 1 0.998038
1.01451 1.01729 1 0.997265
0.998833 1 1.00016 0.998672
0.998784 1.00069 1.00033 0.997771
1.00445 1.00686 1 0.997607
1.00559 1.00814 1 0.997472
0.999998 1 1 0.999998
0.999467 1 1.00054 0.998929
0.999731 1 1.00022 0.999508
1.0007 1 1.00207 0.998627
1.01818 1.02105 1 0.997191
1.0096 1.0122 1 0.997433
1.02331 1.02629 1 0.997101
0.998648 1.00014 1.00045 0.998063
1.01198 1.01459 1 0.997426
1.00609 1.00693 1.00173 0.997441
1.01553 1.01815 1 0.997424
1 1 1 1
0.999676 1 1 0.999676
0.998995 1 1.00062 0.998376
1.00035 1 1.00145 0.9989
0.99999 1 1.00165 0.998344
1.027 1.02999 1 0.997096
1.01781 1.02063 1 0.997238
1.02173 1.02465 1 0.997146
1.00293 1.00326 1.00199 0.997684
1.01424 1.01693 1 0.997357
1.00995 1.01195 1.00086 0.997168
0.9998 1 1 0.9998
0.99939 1 1 0.99939
0.999836 1 1 0.999836
0.999823 1 1 0.999823
1 1 1 1
1 1 1 1
1 1 1 1
1 1 1 1
1 1 1 1
0.999975 1 1 0.999975
1 1 1 1
0.999922 1 1 0.999922
1 1 1 1
1.00007 1 1.00022 0.999852
1 1 1 1
1.0051 1.00743 1 0.997694
1.00466 1.00704 1 0.997639
1.02216 1.02506 1 0.997169
1.02088 1.02384 1 0.997115
1.00269 1.00516 1 0.997546
0.998995 1 1 0.998995
1.00187 1.00435 1 0.997539
1.02023 1.02322 1 0.997076
1.02202 1.02494 1 0.997152
1.03524 1.03828 0.999855 0.997217
1.02103 1.02392 1 0.997175
1.03306 1.03598 1 0.997189
1.01978 1.02278 1 0.997067
1.03455 1.03777 0.999684 0.997207
1.03502 1.03793 1 0.997204
1.03632 1.03992 0.99913 0.997402
1.02977 1.03271 1 0.997149
1.03385 1.03656 0.999931 0.997459
1.00176 1.00425 1 0.997517
1.00314 1.00534 1 0.997814
1.01997 1.02282 1 0.997216
1.01889 1.02169 1 0.997258
0.999708 1 1.00003 0.99968
0.998593 1.00004 1 0.998554
1.00399 1.00628 1 0.997724
1.01631 1.01899 1 0.997375
1.02987 1.03271 1 0.997248
1.0229 1.02571 1 0.997262
1.01757 1.02042 1 0.997205
1.02431 1.02709 1 0.997297
0.999605 1 1.00077 0.998841
1.00145 1 1.00303 0.998427
1.00029 1 1.00108 0.999213
1.0195 1.02243 1 0.997127
1.02011 1.02293 1 0.997237
1.03358 1.03648 1 0.997202
1.03107 1.03398 1 0.997183
0.998953 1 1.00024 0.998715
0.999994 1.00203 1 0.997966
1.00906 1.01177 1.00003 0.997291
1.02554 1.02837 1 0.997252
1.02978 1.0324 1 0.997459
1.02108 1.02406 1 0.997093
1.02543 1.02815 1 0.997362
1.02131 1.02387 1 0.997504
0.998933 1 1.00055 0.998379
0.999947 1 1.00173 0.998218
0.999444 1 1.00004 0.999403
1.00233 1 1.00378 0.998557
1.03409 1.03703 1 0.997162
1.03329 1.03618 1 0.997206
1.03367 1.03735 0.999126 0.99732
1.0316 1.03485 0.999403 0.99746
1.02714 1.02979 1 0.997433
1.02862 1.0312 0.999876 0.997626
0.99824 1 1 0.998237
1.02203 1.02444 1 0.997645
1.00154 1.00398 1 0.997572
1.01279 1.01565 1.00018 0.997006
1.02218 1.02519 1 0.997072
1.02093 1.02344 1 0.997543
0.999545 1 1 0.999545
1.00014 1 1.00141 0.998735
0.998177 1 1 0.998177
1.00209 1 1.00379 0.998299
0.9991 1 1.00091 0.998192
0.999999 1 1 0.999999
1.01799 1.02086 1 0.997187
0.999516 1 1 0.999516
0.999828 1 1.0009 0.99893
1.00114 1 1.00252 0.998622
1.00929 1.01189 1 0.997433
1.02325 1.02623 1 0.997099
0.998574 1 1.00051 0.998069
1.00617 1.00682 1.00193 0.99743
1.01225 1.01485 1 0.997439
1.01594 1.0185 1 0.997492
1 1 1 1
0.999684 1 1 0.999684
0.998985 1 1.00061 0.998378
1.00054 1 1.00164 0.9989
1.00036 1 1.00204 0.998323
1.02717 1.03017 1 0.99709
1.01811 1.02093 1 0.997236
1.02162 1.02455 1 0.997136
1.00208 1.00227 1.00213 0.997689
1.01688 1.01957 1 0.997363
1.00939 1.01126 1.00096 0.997187
0.99976 1 1 0.99976
0.999333 1 1.00019 0.999145
0.998889 1.00035 1.00048 0.998062
1.00165 1 1.0031 0.998551
0.999719 1 1.0015 0.998224
1.02595 1.02883 1 0.997207
1.01734 1.02017 1 0.997226
1.01977 1.0225 1 0.997324
1.00201 1.00076 1.00379 0.997472
1.00822 1.01118 1 0.997064
0.999803 1 1 0.999803
0.999323 1 1 0.999323
0.999368 1 1 0.999368
0.999145 1 1 0.999145
0.9994 1 1 0.9994
0.999841 1 1 0.999841
0.999837 1 1 0.999837
1 1 1 1
0.999825 1 1 0.999825
1 1 1 1
1 1 1 1
1 1 1 1
1 1 1 1
1 1 1 1
0.999996 1 1 0.999996
0.999964 1 1 0.999964
1 1 1 1
1 1 1 1
0.999909 1 1 0.999909
1 1 1 1
1.02064 1.02354 1 0.997172
1.0218 1.02472 1 0.997151
1.03285 1.03576 1 0.997187
1.03518 1.03839 0.999679 0.997233
1.02001 1.023 1 0.997077
1.00195 1.00442 1 0.997539
1.01957 1.02257 1 0.997067
1.03457 1.03776 0.999721 0.9972
1.03495 1.03785 1 0.997204
1.0358 1.03969 0.998821 0.997433
1.03035 1.0333 1 0.997143
1.03353 1.03647 0.999685 0.99748
1.03389 1.03705 0.999779 0.997174
1.03487 1.03938 0.998294 0.99737
1.03516 1.03855 0.999247 0.99749
1.03364 1.0393 0.99698 0.997561
1.03047 1.0332 1 0.997355
1.03301 1.03645 0.999006 0.997673
1.01952 1.02249 1 0.997092
1.02024 1.02307 1 0.997235
1.0331 1.03597 1 0.997225
1.03118 1.03409 1 0.997182
0.998911 1 1.0002 0.998713
1.00103 1.00308 1 0.997959
1.00811 1.01061 1.00018 0.997342
1.02572 1.02856 1 0.997244
1.02956 1.03214 1 0.997501
1.02538 1.02808 1 0.997365
1.02129 1.0243 1 0.99706
1.02101 1.02354 1 0.997532
0.999113 1 1.00073 0.998381
0.999954 1 1.00176 0.998198
0.999561 1 1.00016 0.999399
1.00184 1 1.00326 0.998586
1.03397 1.03691 1 0.997162
1.03279 1.03571 1 0.997187
1.03352 1.03712 0.999177 0.997349
1.0319 1.03487 0.999683 0.997443
0.998356 1.00013 1 0.99823
1.00159 1.00395 1.00003 0.997618
1.01306 1.01572 1.00039 0.996997
1.02672 1.0294 1 0.997397
1.0281 1.03066 0.999835 0.997682
1.02093 1.02394 1 0.997058
1.02263 1.02504 1 0.997648
1.02192 1.02439 1 0.997592
0.998178 1 1 0.998174
0.99872 1.00001 1.00051 0.998198
1.00277 1 1.00449 0.998292
0.99951 1 1 0.99951
1.00013 1 1.00137 0.998764
1.03379 1.0386 0.998003 0.997358
1.03357 1.03745 0.998856 0.997401
1.02942 1.03402 0.997876 0.997668
1.02485 1.0277 0.999524 0.997698
0.998614 1.00063 1 0.997981
1.02597 1.02822 1 0.997816
1.00142 1.00381 1.00029 0.997326
1.01173 1.01448 1.00051 0.996777
1.01937 1.02239 1 0.997047
0.999607 1 1 0.999607
0.999247 1 1.00025 0.998999
1.00103 1 1.00253 0.998504
0.99813 1 1 0.998128
1.00257 1 1.00448 0.998102
0.998121 1 1 0.998121
1 1 1 1
0.999691 1 1 0.999691
1.02737 1.03037 1 0.997085
1.00078 1 1.00188 0.9989
0.998815 1 1.00044 0.99838
1.00089 1 1.00259 0.998302
1.01827 1.02109 1 0.997235
1.02135 1.02429 1 0.997125
1.00109 1.00112 1.00229 0.997694
1.00824 1.01028 1.00077 0.997206
1.01937 1.02206 1 0.99737
0.999765 1 1 0.999765
0.999269 1 1.00012 0.999148
0.998657 1.00018 1.00041 0.998064
1.00226 1 1.00372 0.998547
0.999766 1 1.00155 0.998221
1.02593 1.02881 1 0.9972
1.01771 1.02055 1 0.997215
1.01951 1.02222 1 0.99735
1.00186 1.00119 1.00324 0.997436
1.00702 1.00995 1.00006 0.997035
0.999293 1 1 0.999293
1.00088 1 1.00214 0.998743
1.00063 1.00072 1.002 0.99792
1.00194 1 1.00365 0.99829
0.999111 1 1.001 0.998118
1.0262 1.02863 1 0.997635
1.01538 1.0183 1 0.997134
1.01621 1.01888 1 0.997373
1.00378 1.00218 1.00433 0.99727
1.00135 1.00452 1 0.996845
0.999806 1 1 0.999806
0.99934 1 1 0.99934
0.99906 1 1 0.99906
0.999346 1 1 0.999346
0.999399 1 1 0.999399
0.999114 1 1 0.999114
0.998972 1 1 0.998972
0.999078 1 1 0.999078
0.999404 1 1 0.999404
0.999837 1 1 0.999837
0.999841 1 1 0.999841
1 1 1 1
0.999838 1 1 0.999838
1 1 1 1
1 1 1 1
1 1 1 1
1 1 1 1
1 1 1 1
1 1 1 1
0.999991 1 1 0.999991
1 1 1 1
0.999953 1 1 0.999953
1 1 1 1
1 1 1 1
1.03088 1.03384 1 0.997137
1.03466 1.03757 1 0.997203
1.0332 1.03638 0.999428 0.997501
1.03524 1.0394 0.998533 0.997464
1.03464 1.03779 0.99977 0.997194
1.01947 1.02247 1 0.997068
1.03429 1.03737 0.99988 0.997155
1.03511 1.03941 0.9985 0.997362
1.03527 1.03844 0.999467 0.997471
1.03296 1.03892 0.996674 0.997575
1.02981 1.03254 1 0.997355
1.03197 1.03565 0.998728 0.997715
1.03458 1.03878 0.99861 0.997342
1.03397 1.0405 0.996163 0.997554
1.03348 1.03952 0.996512 0.997674
1.03016 1.03363 0.998887 0.99776
1.03393 1.03688 1 0.997162
1.03233 1.03526 1 0.997168
1.03341 1.03693 0.999232 0.997378
1.03227 1.03499 0.999943 0.997425
0.998535 1.00031 1 0.998224
1.00144 1.00379 1 0.997665
1.01331 1.01578 1.00058 0.996988
1.02623 1.02895 1 0.99736
1.0276 1.03016 0.999777 0.997737
1.02341 1.02582 1 0.99765
1.0199 1.02293 1 0.997045
1.02317 1.02559 1 0.997639
0.998305 1.00013 1 0.998172
0.998279 1.00001 1.00006 0.998204
1.00419 1 1.00591 0.998285
0.999474 1 1 0.999474
1.00017 1 1.00138 0.998792
1.03431 1.03882 0.998294 0.99736
1.03362 1.03757 0.99879 0.9974
1.02933 1.03351 0.998292 0.997657
0.99927 1.0013 1 0.997974
1.0024 1.00478 1.00026 0.997371
1.01137 1.01388 1.00076 0.996766
1.02548 1.02834 0.999534 0.997686
1.01962 1.02255 1 0.997129
1.02393 1.0263 0.999896 0.997791
0.999624 1 1 0.999624
0.998524 1.00041 1 0.998119
0.998215 1 1 0.998215
1.00275 1 1.00468 0.998086
1.00111 1 1.0026 0.998518
0.999211 1 1.00024 0.99897
1.03279 1.03964 0.995959 0.997444
1.03158 1.03959 0.994699 0.997584
1.02433 1.03155 0.99523 0.997755
1.0283 1.03273 0.99781 0.997898
0.999672 1.00186 1 0.997815
1.0197 1.0223 1 0.997459
1.00282 1.00429 1.00165 0.996897
1.00652 1.00888 1.00104 0.996625
0.999748 1 1 0.999748
0.999182 1 1 0.999182
0.999339 1 1.00065 0.998692
1.00291 1 1.00472 0.998192
0.998359 1.00035 1 0.998007
1.00216 1 1.00422 0.997952
0.99977 1 1 0.99977
0.999152 1 1 0.999152
1.02609 1.02898 1 0.997194
1.00246 1 1.00393 0.998543
0.998335 1 1.00027 0.998066
0.999696 1 1.00148 0.998218
1.01837 1.02122 1 0.997205
1.0195 1.02218 1 0.997376
1.00193 1.00181 1.00273 0.9974
1.0059 1.00865 1.00027 0.997006
0.999296 1 1 0.999296
1.00067 1 1.00192 0.998747
1.00029 1.00038 1.00198 0.997933
1.00205 1 1.00377 0.998296
0.99867 1 1.00048 0.998195
1.02664 1.02914 0.999898 0.997673
1.01472 1.01763 1 0.997142
1.01756 1.02017 1 0.997446
1.00318 1.00137 1.00458 0.997233
1.00193 1.00512 1.00003 0.996793
0.99898 1 1 0.99898
1.00173 1 1.00333 0.998401
1.00229 1.00075 1.00378 0.99777
0.999545 1 1.00155 0.997994
1.02856 1.03873 0.992287 0.997903
1.0206 1.02304 0.999872 0.997742
1.00864 1.01175 1 0.996922
1.00352 1.00241 1.00426 0.996866
0.999358 1 1 0.999358
0.999073 1 1 0.999073
0.998941 1 1 0.998941
0.999399 1 1 0.999399
0.999083 1 1 0.999083
0.999403 1 1 0.999403
0.998958 1 1 0.998958
0.999091 1 1 0.999091
0.998882 1 1 0.998882
0.998907 1 1 0.998907
0.999054 1 1 0.999054
0.999389 1 1 0.999389
0.999827 1 1 0.999827
0.999836 1 1 0.999836
1 1 1 1
0.999841 1 1 0.999841
1 1 1 1
1 1 1 1
1 1 1 1
1 1 1 1
1 1 1 1
1 1 1 1
1 1 1 1
1 1 1 1
0.999986 1 1 0.999986
1 1 1 1
1 1 1 1
1.02905 1.03178 1 0.997354
1.03546 1.03842 0.999696 0.997452
1.03096 1.03487 0.99846 0.997757
1.0323 1.03856 0.996371 0.997589
1.03533 1.03943 0.998698 0.997354
1.03468 1.03766 1 0.997136
1.03427 1.03871 0.998383 0.997343
1.03345 1.03987 0.996272 0.997545
1.03286 1.03896 0.996441 0.997674
1.03188 1.0352 0.999029 0.997766
1.03359 1.04013 0.996205 0.997496
1.03414 1.04401 0.99281 0.997719
1.03467 1.042 0.995154 0.997809
1.03479 1.039 0.998583 0.997363
1.03367 1.03767 0.998738 0.997399
1.02926 1.03294 0.998784 0.997646
0.999952 1.00199 1 0.997967
1.00341 1.00583 1.00018 0.997415
1.01068 1.01311 1.00085 0.996755
1.02608 1.02893 0.99955 0.997675
1.02178 1.02424 0.999823 0.997766
1.01981 1.02266 1 0.997212
0.998923 1.00082 1 0.998109
0.998309 1 1 0.998309
1.00274 1 1.00468 0.99807
0.999641 1 1 0.999641
1.0006 1 1.00207 0.998532
0.999126 1 1.00018 0.998942
1.03352 1.03993 0.996368 0.997451
1.03163 1.03974 0.994593 0.997592
1.0247 1.03127 0.995873 0.997748
0.999886 1.00209 1 0.997804
1.00231 1.00394 1.0014 0.996982
1.00604 1.00849 1.0009 0.996674
1.02832 1.03247 0.998072 0.997906
1.0199 1.02261 0.999912 0.997445
0.999792 1 1 0.999792
0.999182 1 1 0.999182
0.998266 1.00022 1 0.998047
1.00354 1.00003 1.00547 0.998045
1.00293 1 1.00472 0.998218
0.999252 1 1.00058 0.998668
1.03255 1.04217 0.993118 0.997638
1.0241 1.03714 0.989687 0.997719
1.0234 1.0321 0.993613 0.997946
1.02064 1.0256 0.997224 0.997927
1.00071 1.00231 1.00088 0.997521
1.00557 1.00738 1.0014 0.996804
1.00293 1.0036 1.00264 0.996697
0.999894 1 1 0.999894
0.999502 1 1 0.999502
0.999291 1 1 0.999291
0.998809 1 1 0.998809
1.00012 1 1.00172 0.998401
1.00413 1 1.00606 0.998087
0.998081 1 1 0.998081
1.01992 1 1.02175 0.998212
0.999299 1 1 0.999299
1.00067 1 1.00192 0.998752
1.02699 1.02955 0.999799 0.997711
1.0025 1 1.00421 0.998301
1.00011 1.00002 1.00215 0.997947
0.998307 1 1.00004 0.998272
1.01374 1.01664 1 0.99715
1.01873 1.02126 1 0.99752
1.00272 1.00072 1.00482 0.997197
1.00264 1.00592 1 0.996741
0.998979 1 1.00002 0.998957
1.00183 1 1.00342 0.998415
1.00251 1.00057 1.00415 0.997797
0.999391 1 1.00137 0.998026
1.02996 1.03963 0.992765 0.997918
1.02044 1.02284 0.999949 0.997701
1.0097 1.01277 1 0.996962
1.00393 1.00335 1.00377 0.99682
0.999279 1 1.00052 0.998763
1.02739 1.04216 0.987877 0.99792
1.00112 1 1.00299 0.998136
1.00146 1.00127 1.00268 0.997519
1.02798 1.03234 0.997767 0.998006
1.00991 1.01289 1 0.997057
1.00492 1.00504 1.00323 0.996666
0.999086 1 1 0.999086
0.998936 1 1 0.998936
0.998863 1 1 0.998863
0.999402 1 1 0.999402
0.999104 1 1 0.999104
0.998944 1 1 0.998944
0.999387 1 1 0.999387
0.999058 1 1 0.999058
0.998872 1 1 0.998872
0.998929 1 1 0.998929
0.998832 1 1 0.998832
0.998825 1 1 0.998825
0.998873 1 1 0.998873
0.999031 1 1 0.999031
0.999354 1 1 0.999354
0.999813 1 1 0.999813
0.999826 1 1 0.999826
1 1 1 1
0.999835 1 1 0.999835
1 1 1 1
1 1 1 1
1 1 1 1
1 1 1 1
1 1 1 1
0.999921 1 1 0.999921
1 1 1 1
1 1 1 1
1 1 1 1
0.999999 1 1 0.999999
1 1 1 1
1 1 1 1
1.03365 1.0368 0.999179 0.997772
1.03219 1.03834 0.99639 0.997673
1.03292 1.03923 0.996383 0.997536
1.03395 1.03864 0.99814 0.997343
1.03312 1.04005 0.995815 0.997515
1.03429 1.0438 0.993168 0.997708
1.03399 1.04161 0.994852 0.99782
1.03397 1.0442 0.992484 0.997694
1.03879 1.04969 0.991768 0.997828
1.02396 1.04112 0.985432 0.998056
1.03426 1.04025 0.996779 0.997458
1.03164 1.03995 0.994391 0.9976
1.02491 1.03098 0.996368 0.99774
1.00009 1.00225 1.00006 0.997793
1.00171 1.00339 1.00126 0.997067
1.00589 1.00841 1.00078 0.996724
1.02854 1.03238 0.998362 0.997914
1.0199 1.02273 0.999801 0.99743
0.998087 1 1 0.998087
1.00503 1.00016 1.00674 0.998137
1.00368 1 1.00544 0.998244
0.999836 1 1 0.999836
0.999182 1 1 0.999182
0.999437 1 1.00079 0.998645
1.03257 1.04251 0.992796 0.99765
0.999889 1 1 0.999889
0.999479 1 1 0.999479
1.02366 1.0363 0.99006 0.997719
1.02344 1.03247 0.993323 0.997914
0.999889 1.00139 1.00089 0.997611
1.00328 1.00332 1.0033 0.996676
1.00612 1.0085 1.00084 0.996803
1.01953 1.02463 0.997108 0.997908
0.999356 1 1 0.999356
0.998819 1 1.00001 0.998805
0.99826 1.0001 1.00016 0.998001
1.01533 1 1.01702 0.998336
1.00346 1 1.00539 0.998087
1.00063 1 1.00221 0.998418
1.03786 1.04877 0.991797 0.997787
1.01126 1.03463 0.979505 0.997858
1.01892 1.02934 0.991741 0.998117
1.00463 1.01048 0.996577 0.997627
1.00119 1.00088 1.00269 0.997626
1.00386 1.00183 1.00547 0.996576
0.999484 1 1 0.999484
0.99945 1 1 0.99945
0.999205 1 1 0.999205
0.99887 1 1 0.99887
0.998957 1 1.00036 0.998594
1.00025 1 1.0021 0.998148
1.0278 1 1.02979 0.998068
1.00115 1 1.0028 0.998361
0.999014 1 1.00008 0.998935
1.0016 1 1.00317 0.99843
1.03095 1.03999 0.99336 0.997934
1.02037 1.02277 1 0.99766
0.999186 1 1.00113 0.998058
1.00256 1.00034 1.00441 0.997824
1.01105 1.01405 1.00004 0.997002
1.00416 1.00405 1.00335 0.996774
0.99935 1 1.0006 0.998753
1.02874 1.04422 0.987197 0.997956
1.00103 1 1.00288 0.998154
1.00106 1.0009 1.00269 0.997479
1.02664 1.03164 0.997165 0.99798
1.01008 1.013 1 0.997117
1.00498 1.00483 1.00348 0.996681
1.00043 1 1.00197 0.998463
1.01816 1.03296 0.987312 0.998335
1.00085 1.0011 1.00185 0.99791
1.0027 1.00174 1.00379 0.997172
1.01335 1.01926 0.996566 0.997629
1.00234 1.00331 1.00221 0.99683
0.999523 1.00657 0.994726 0.998268
0.998931 1 1 0.998931
0.998983 1 1.00012 0.99886
0.998848 1 1.0001 0.998746
0.999385 1 1 0.999385
0.999061 1 1 0.999061
0.998951 1 1 0.998951
0.998861 1 1 0.998861
0.999353 1 1 0.999353
0.999021 1 1 0.999021
0.99881 1 1 0.99881
0.998872 1 1 0.998872
0.998833 1 1 0.998833
0.998787 1 1 0.998787
0.998869 1 1.00014 0.998732
0.998857 1 1 0.998857
0.998949 1 1 0.998949
0.999272 1 1 0.999272
0.999088 1 1 0.999088
0.999261 1 1 0.999261
0.999804 1 1 0.999804
0.999812 1 1 0.999812
1 1 1 1
0.999824 1 1 0.999824
1 1 1 1
1 1 1 1
1 1 1 1
1 1 1 1
1 1 1 1
0.99994 1 1 0.99994
0.999919 1 1 0.999919
1 1 1 1
1 1 1 1
1 1 1 1
1 1 1 1
1 1 1 1
1 1 1 1
1.03341 1.0414 0.994481 0.997831
1.0344 1.0436 0.993473 0.997697
1.03267 1.03997 0.995426 0.997535
1.03387 1.04404 0.992552 0.997692
1.03705 1.04788 0.991826 0.997825
1.02475 1.04072 0.98661 0.998014
1.03824 1.05155 0.989429 0.997891
0.988907 1.01596 0.976093 0.997214
1.00852 1.03021 0.9803 0.998612
0.999572 1 1 0.999572
1.03255 1.04278 0.992514 0.997662
1.02363 1.03555 0.990742 0.997719
1.02363 1.03287 0.993155 0.997882
0.999391 1.00087 1.00082 0.9977
1.00351 1.00285 1.00402 0.996656
1.00669 1.00947 1.00045 0.996802
1.01824 1.02346 0.997003 0.997889
0.998001 1.00008 1 0.997922
1.01063 1 1.01219 0.998461
1.00254 1 1.00446 0.998087
0.999885 1 1 0.999885
1.00088 1 1.00245 0.998434
0.999421 1 1 0.999421
0.998801 1 1 0.998801
0.999455 1 1 0.999455
1.03611 1.04911 0.989788 0.997795
0.999517 1 1 0.999517
0.999449 1 1 0.999449
0.999165 1 1 0.999165
1.01327 1.0342 0.981857 0.99786
1.01903 1.02962 0.991627 0.998071
1.00031 1.0008 1.00186 0.997647
1.00391 1.00172 1.00556 0.996643
1.00374 1.00884 0.997323 0.997619
0.998908 1 1 0.998908
0.999047 1 1.00049 0.998561
1.00501 1 1.00674 0.998281
1.02255 1 1.02449 0.998106
1.00004 1 1.00187 0.998178
1.02598 1.04166 0.987037 0.99788
1.00851 1.03536 0.976038 0.997981
1.01154 1.01875 0.995099 0.997816
0.99887 1.00398 0.997492 0.997417
1.00317 1 1.00528 0.997893
0.999121 1 1 0.999121
0.999023 1 1 0.999023
0.998905 1 1 0.998905
0.998895 1 1.00024 0.998655
0.999884 1 1.00149 0.998392
1.01953 1 1.02146 0.998112
1.02013 1 1.02211 0.998062
0.999366 1 1.00062 0.998743
1.00091 1 1.00274 0.998172
1.02961 1.04673 0.985619 0.99799
1.02529 1.0311 0.996405 0.997953
1.00986 1.01272 1 0.997176
1.00074 1.00063 1.00268 0.997439
1.00478 1.0045 1.0036 0.996696
1.00034 1 1.00184 0.998503
1.01589 1.03268 0.985368 0.998353
0.999944 1.00067 1.00135 0.997934
1.00234 1.0011 1.00408 0.997179
1.01417 1.01976 0.996792 0.99772
1.00225 1.00275 1.0027 0.996816
0.998638 1.00644 0.994602 0.997633
1.00016 1 1.00183 0.998325
1.00685 1.01939 0.989356 0.998328
1.00027 1.00041 1.00194 0.997922
1.00427 1.00066 1.00638 0.997243
0.997383 1.0058 0.994218 0.997398
0.947227 0.982593 0.98016 0.983521
0.960276 0.982882 0.985055 0.991823
0.984545 0.995448 0.990738 0.998294
0.824576 0.884165 0.956107 0.975419
0.771341 0.874358 0.909565 0.969892
0.998955 1 1.0001 0.998857
0.999099 1 1.00033 0.998769
0.998763 1 1 0.998763
0.999353 1 1 0.999353
0.99901 1 1 0.99901
0.998872 1 1 0.998872
0.998841 1 1 0.998841
0.998788 1 1 0.998788
0.998988 1 1.00015 0.998835
0.999298 1 1 0.999298
0.998964 1 1 0.998964
0.998782 1 1 0.998782
0.999066 1 1.00032 0.998744
0.999375 1 1.00062 0.998751
0.999662 1 1.00091 0.998749
0.99884 1 1.00007 0.99877
0.99892 1 1 0.99892
0.999254 1 1 0.999254
0.998991 1 1 0.998991
0.998918 1 1 0.998918
0.999076 1 1 0.999076
0.999055 1 1 0.999055
0.99934 1 1 0.99934
0.999259 1 1 0.999259
0.9998 1 1 0.9998
0.999804 1 1 0.999804
1 1 1 1
0.999811 1 1 0.999811
1 1 1 1
1 1 1 1
1 1 1 1
1 1 1 1
1 1 1 1
0.99995 1 1 0.99995
0.999937 1 1 0.999937
1 1 1 1
0.999917 1 1 0.999917
1 1 1 1
1 1 1 1
1 1 1 1
1 1 1 1
1 1 1 1
1.03518 1.04595 0.991863 0.997822
1.03381 1.04389 0.992636 0.997691
1.02584 1.04037 0.988039 0.997971
0.992981 1.0158 0.980212 0.997267
1.03585 1.04931 0.989261 0.997889
1.01582 1.03273 0.985087 0.998513
1.03114 1.03924 0.99423 0.99797
0.952089 0.983803 0.976563 0.99099
1.00116 1.01935 0.984341 0.997775
0.999578 1 1 0.999578
0.99957 1 1 0.99957
0.999218 1 1 0.999218
0.999253 1 1 0.999253
1.03438 1.04933 0.987921 0.997803
1.0144 1.03326 0.983848 0.997861
1.01893 1.0297 0.991494 0.998025
0.999159 1.00062 1.00088 0.997669
1.00379 1.00173 1.00536 0.99671
1.00297 1.00765 0.997746 0.997612
1.009 1 1.01082 0.9982
1.01739 1 1.01928 0.998144
0.99974 1 1.00153 0.998209
0.999447 1 1 0.999447
0.998973 1 1.00045 0.998528
0.998947 1 1 0.998947
0.999549 1 1 0.999549
0.999125 1 1 0.999125
1.02374 1.0412 0.985303 0.997894
0.999167 1 1 0.999167
0.999063 1 1 0.999063
0.998961 1 1 0.998961
1.01149 1.03753 0.976876 0.997982
1.01017 1.01797 0.994515 0.997814
1.00276 1.00003 1.00487 0.997878
0.999736 1.00437 0.997927 0.997451
0.999033 1 1.00039 0.998642
0.99945 1 1.0011 0.998349
1.02212 1 1.02412 0.998055
1.02043 1 1.02239 0.998079
1.00584 1.03428 0.974453 0.998002
1.00234 1.02672 0.978272 0.997941
1.00423 1.00797 0.998778 0.997516
0.994325 1.00034 0.995852 0.998132
0.998793 1 1 0.998793
0.999289 1 1.00055 0.998741
1.00654 1 1.00808 0.998473
1.03469 1 1.03681 0.997952
0.924872 0.971983 0.968715 0.982262
1.0006 1 1.00206 0.998543
0.999257 1.00021 1.00109 0.997957
1.01435 1.03221 0.984303 0.99837
1.01523 1.02048 0.997036 0.997811
1.00258 1.00249 1.0033 0.996801
1.00208 1.00044 1.00447 0.997187
0.998528 1.00629 0.995282 0.996986
1.0002 1 1.00184 0.998363
1.0076 1.01991 0.989595 0.998317
0.999758 1.00039 1.00144 0.997934
1.00395 1.00061 1.00611 0.997242
0.999518 1.0068 0.995337 0.99742
0.946074 0.986193 0.976518 0.982387
0.955726 0.98048 0.984842 0.989756
0.984477 0.9935 0.992591 0.998314
0.825472 0.88245 0.958824 0.975603
0.755649 0.863115 0.905045 0.967345
0.999496 1 1.00095 0.99855
0.8509 0.90546 0.962286 0.976574
0.814324 0.878772 0.953992 0.971351
0.986452 1.00713 0.981226 0.998204
1.00523 1.00056 1.00657 0.998118
1.01172 1.00376 1.01036 0.997595
0.976091 0.989313 0.988151 0.998465
0.942053 0.971351 0.987306 0.982307
0.93928 0.959179 0.99033 0.988816
0.801917 0.883527 0.929701 0.976261
0.831071 0.919151 0.93074 0.971455
0.999532 1 1.00074 0.998792
0.999279 1 1.00053 0.99875
1.00003 1 1.00105 0.99898
0.999324 1 1 0.999324
0.99898 1 1 0.99898
0.999135 1 1.00032 0.998813
0.999214 1 1.00046 0.998756
0.998777 1 1 0.998777
0.999255 1 1 0.999255
0.99938 1 1.00064 0.998745
0.999051 1 1.00026 0.998787
0.998947 1 1 0.998947
0.999512 1 1.00076 0.998753
1.00005 1 1.00132 0.998734
1.00069 1 1.0019 0.998792
0.998753 1 1 0.998753
0.998952 1 1 0.998952
0.998988 1 1 0.998988
0.998909 1 1 0.998909
0.998822 1 1 0.998822
0.998909 1 1 0.998909
0.998952 1 1.00009 0.998861
0.99885 1 1.0001 0.998748
0.999053 1 1 0.999053
0.999075 1 1 0.999075
0.999361 1 1 0.999361
0.999023 1 1 0.999023
0.999318 1 1 0.999318
0.999796 1 1 0.999796
0.999257 1 1 0.999257
0.9998 1 1 0.9998
1 1 1 1
0.999804 1 1 0.999804
1 1 1 1
1 1 1 1
1 1 1 1
1 1 1 1
1 1 1 1
0.99955 1 1 0.99955
0.99995 1 1 0.99995
0.999948 1 1 0.999948
1 1 1 1
0.999933 1 1 0.999933
1 1 1 1
1 1 1 1
1 1 1 1
1 1 1 1
1 1 1 1
0.995694 1.01579 0.982844 0.997325
1.03406 1.04706 0.989673 0.997887
1.02099 1.0353 0.987742 0.998413
0.946623 0.978169 0.975599 0.991955
1.00123 1.01907 0.984573 0.997888
1.03269 1.04234 0.992796 0.997928
1.0154 1.02498 0.992933 0.9977
0.959626 0.980057 0.986233 0.992821
0.947887 0.980661 0.984454 0.981843
0.808327 0.878089 0.94362 0.975554
0.750481 0.844878 0.916383 0.969322
0.999207 1 1 0.999207
0.999577 1 1 0.999577
0.999569 1 1 0.999569
0.999205 1 1 0.999205
0.998985 1 1 0.998985
0.999018 1 1 0.999018
0.999187 1 1 0.999187
0.999227 1 1 0.999227
1.02143 1.04118 0.983091 0.997908
1.01542 1.04074 0.977646 0.997982
1.00914 1.01726 0.994187 0.997813
1.0029 1.00012 1.00493 0.997864
1.00066 1.00445 0.998742 0.997485
1.0239 1 1.02591 0.998048
1.02188 1 1.02388 0.998047
0.999242 1 1.00094 0.998307
0.999103 1 1 0.999103
0.998955 1 1.00033 0.998629
0.999213 1 1 0.999213
0.999017 1 1 0.999017
1.00657 1.03469 0.974779 0.997993
0.99882 1 1 0.99882
0.998973 1 1.00021 0.998765
1.0028 1.02615 0.979284 0.997918
1.00201 1.00752 0.9969 0.997629
0.996463 1.0007 0.997713 0.998049
1.00931 1 1.01093 0.998398
1.03119 1 1.03329 0.997966
1.00128 1.02666 0.977238 0.997987
0.985959 1.00802 0.980099 0.997977
0.990252 1.00075 0.991495 0.997997
1.00152 1.00025 1.00307 0.998206
0.999064 1 1.00049 0.998572
1.00323 1 1.00472 0.998519
1.0296 1 1.03146 0.998199
0.840115 0.911665 0.9429 0.977322
0.939963 0.976842 0.977592 0.984302
0.999795 1 1.0014 0.9984
0.999364 1.00035 1.00107 0.997947
1.00873 1.02074 0.989913 0.998307
1.00158 1.00775 0.996424 0.997442
1.00351 1.00057 1.00571 0.997241
0.942045 0.977762 0.981081 0.982051
0.960336 0.986229 0.983188 0.990396
0.985493 0.992264 0.994839 0.998328
0.821634 0.883872 0.951917 0.97654
0.742613 0.851964 0.903498 0.964748
0.999454 1 1.00091 0.998549
0.845258 0.909134 0.951623 0.977005
0.807325 0.872152 0.954148 0.970153
0.988347 1.00796 0.982314 0.998198
1.0049 1.00059 1.00617 0.998142
1.01007 1.00213 1.01021 0.997741
0.967939 0.983441 0.985641 0.998575
0.947555 0.980106 0.985748 0.980766
0.941111 0.963644 0.985673 0.990812
0.805564 0.878343 0.940829 0.974821
0.828203 0.92137 0.926028 0.970687
1.001 1 1.00216 0.998841
0.842924 0.889045 0.974387 0.973045
0.913411 0.95067 0.981781 0.978638
0.989548 0.999671 0.991119 0.998743
1.01304 1.00226 1.01206 0.998718
0.979671 0.973488 1.00772 0.998644
0.924514 0.947034 0.984232 0.991859
0.927622 0.951698 0.994285 0.980304
0.818653 0.888986 0.944164 0.975342
0.859784 0.945284 0.933695 0.974142
0.999743 1 1.00101 0.998737
0.999656 1 1.0007 0.998954
1.00351 1 1.00435 0.999163
0.999256 1 1 0.999256
0.998974 1 1 0.998974
0.999249 1 1.00045 0.998805
0.999426 1 1.00069 0.998739
0.999354 1 1.0006 0.998757
0.998951 1 1 0.998951
0.999495 1 1.00076 0.998734
0.998755 1 1 0.998755
1.00194 1 1.00312 0.998826
1.01508 0.999937 1.01602 0.99914
0.999591 1 1.00088 0.998713
0.998723 1 1 0.998723
0.998984 1 1 0.998984
0.998899 1 1 0.998899
0.998818 1 1 0.998818
0.998903 1 1 0.998903
0.998976 1 1.00009 0.998885
0.998971 1 1.00012 0.99885
0.998934 1 1.00014 0.998796
0.998874 1 1 0.998874
0.998733 1 1.00009 0.998645
0.999131 1 1.00093 0.998204
0.99892 1 1.00029 0.998626
0.998836 1 1.00009 0.998745
0.99899 1 1 0.998987
0.999052 1 1 0.999051
0.999356 1 1 0.999356
0.999075 1 1 0.999075
0.999362 1 1 0.999362
0.999795 1 1 0.999795
0.999295 1 1 0.999295
0.999797 1 1 0.999797
1 1 1 1
0.9998 1 1 0.9998
1 1 1 1
1 1 1 1
1 1 1 1
1 1 1 1
1 1 1 1
0.999568 1 1 0.999568
0.999938 1 1 0.999938
0.99955 1 1 0.99955
1 1 1 1
0.999951 1 1 0.999951
0.999946 1 1 0.999946
1 1 1 1
1 1 1 1
1 1 1 1
1 1 1 1
1 1 1 1
0.841442 0.899438 0.958561 0.975962
0.816228 0.880017 0.954448 0.97178
0.949227 0.982029 0.973951 0.99245
1.00322 1.01871 0.986761 0.998002
1.03544 1.04534 0.992628 0.997887
0.948156 0.969334 0.983907 0.994152
1.0147 1.02443 0.992715 0.997777
0.953548 0.987577 0.982097 0.983144
0.820378 0.883895 0.951562 0.975385
0.743458 0.846606 0.908388 0.966726
0.976936 0.997358 0.983784 0.99567
0.945135 0.973997 0.987349 0.982801
0.795708 0.879366 0.927385 0.975717
0.819006 0.909894 0.92791 0.970043
0.998908 1 1.00003 0.998882
0.999231 1 1 0.999231
0.999576 1 1 0.999576
0.999193 1 1 0.999193
0.999023 1 1 0.999023
0.999217 1 1.00032 0.998893
0.999014 1 1 0.999014
0.999005 1 1 0.999005
0.999157 1 1 0.999157
0.999201 1 1 0.999201
1.00766 1.03457 0.975962 0.997985
1.00172 1.02433 0.979987 0.997898
0.999851 1.00735 0.994799 0.997744
0.998227 1.00097 0.999287 0.997967
1.02667 1 1.02875 0.997981
1.01258 1 1.01428 0.998323
0.99879 1 1 0.99879
0.998848 1 1 0.998848
1.00082 1.02695 0.9765 0.998011
0.999637 1 1.00109 0.998553
1.00328 1 1.0048 0.998486
0.985785 1.00652 0.98146 0.997897
0.98914 1.00043 0.99059 0.998108
1.00246 1.00082 1.00354 0.998109
1.02636 1 1.02824 0.998171
0.995562 1.00435 0.992929 0.998309
0.983437 1 0.984708 0.99871
1.01354 1.00043 1.01484 0.998292
1.00263 1 1.00411 0.998528
1.00194 1 1.00356 0.998388
1.01699 1 1.01874 0.998291
0.855496 0.898892 0.974366 0.976761
0.849671 0.910752 0.954766 0.977134
0.930747 0.975662 0.971148 0.982306
0.999326 1 1.00078 0.998549
1.00462 1.00057 1.0059 0.998167
0.990878 1.00861 0.984192 0.998194
1.00864 1.00056 1.01022 0.997886
0.837489 0.903438 0.948751 0.977076
0.947423 0.977951 0.985934 0.982605
0.932646 0.961052 0.981334 0.988902
0.963511 0.978656 0.98582 0.998686
0.805881 0.878648 0.941368 0.974309
0.809588 0.877057 0.951406 0.97022
0.816262 0.912731 0.920809 0.971219
1.00172 1 1.00288 0.998845
0.843904 0.892474 0.97064 0.974179
0.920346 0.956141 0.983694 0.97852
0.991472 0.999999 0.992635 0.998829
1.01278 1.00085 1.01325 0.998692
0.97688 0.97241 1.0059 0.998708
0.924316 0.949635 0.983265 0.989904
0.930238 0.955885 0.991303 0.981707
0.833832 0.904566 0.945252 0.975193
0.847515 0.934329 0.930664 0.974664
1.00416 0.999757 1.00495 0.999451
0.920838 0.956526 0.979993 0.982344
0.899025 0.944321 0.968986 0.982505
1.00009 0.986279 1.0143 0.999715
0.944232 0.948646 1.0006 0.994748
0.935162 0.949805 1.00379 0.980864
0.871078 0.924018 0.967038 0.97484
0.869413 0.960435 0.929578 0.973806
0.999457 1 1.00053 0.998928
1.00241 1 1.00325 0.999165
1.01617 1 1.01681 0.999373
0.99895 1 1 0.99895
0.998756 1 1 0.998756
0.998897 1 1.00016 0.998735
1.00279 1 1.00393 0.998859
0.998721 1 1 0.998721
0.999889 1 1.00118 0.998707
1.01727 1 1.01809 0.999198
1.02771 0.997324 1.03103 0.999446
1.0156 1 1.01654 0.999076
0.99869 1 1 0.99869
0.998814 1 1 0.998814
0.998898 1 1 0.998898
0.998909 1 1 0.998909
0.998843 1 1.00003 0.998809
0.998924 1 1.00007 0.99885
0.999041 1 1.00016 0.998883
0.998914 1 1.00013 0.998788
1.00095 1 1.00191 0.999049
0.998695 1 1 0.998695
0.998778 1 1.00011 0.998673
0.999051 1 1.00069 0.998358
0.999232 1 1.00153 0.997709
0.999675 1 1.00114 0.998533
0.999101 1 1.00079 0.99831
0.998884 1 1.00023 0.998657
0.999128 1 1.00028 0.998852
0.99884 1 1.0001 0.998743
0.998986 1 1 0.998986
0.999308 1 1 0.999308
0.999049 1 1 0.999049
0.999354 1 1 0.999354
0.999792 1 1 0.999792
0.999362 1 1 0.999362
0.999795 1 1 0.999795
1 1 1 1
0.999798 1 1 0.999798
1 1 1 1
1 1 1 1
1 1 1 1
1 1 1 1
1 1 1 1
0.999414 1 1 0.999414
0.999918 1 1 0.999918
0.999511 1 1 0.999511
1 1 1 1
0.999941 1 1 0.999941
0.99955 1 1 0.99955
1 1 1 1
1 1 1 1
0.999952 1 1 0.999952
1 1 1 1
1 1 1 1
1 1 1 1
0.843492 0.891283 0.970611 0.975035
0.84604 0.906682 0.955914 0.976152
0.91874 0.956997 0.981289 0.978329
0.807936 0.873423 0.95281 0.970836
0.946039 0.97455 0.978464 0.992111
1.0121 1.0239 0.990597 0.997858
0.959448 0.987509 0.987029 0.984352
0.823967 0.887497 0.951425 0.975817
0.740856 0.851527 0.902429 0.9641
0.974058 0.994272 0.984662 0.99493
0.942822 0.974203 0.987069 0.980466
0.808667 0.88736 0.935249 0.974412
0.819947 0.912983 0.926938 0.968885
0.955466 0.982131 0.979085 0.993631
0.93924 0.95663 1.00188 0.979978
0.834223 0.90917 0.941745 0.974326
0.854248 0.945252 0.929542 0.972226
0.999497 1 1.0008 0.998693
0.998917 1 1 0.998917
0.999255 1 1 0.999255
0.99906 1 1 0.99906
0.998699 1 1.00003 0.998673
0.998933 1 1.00001 0.99892
0.999009 1 1 0.999009
0.998971 1 1 0.998971
0.999035 1 1 0.999035
0.999127 1 1 0.999127
1.00185 1.02818 0.976312 0.998035
0.987592 1.00597 0.98388 0.997818
0.988085 1.00025 0.989607 0.998218
1.00439 1.00153 1.00485 0.998014
1.02247 1 1.02437 0.998144
1.00277 1 1.00432 0.998453
1.00001 1 1.00147 0.998534
1.00174 1 1.00323 0.998514
0.991918 1.00517 0.988479 0.998318
1.0014 1 1.00301 0.998392
1.01643 1 1.01818 0.998284
0.982599 1.00032 0.98363 0.998637
1.01322 1.00107 1.01389 0.998263
0.964847 0.989264 0.976493 0.998797
1.00002 0.996959 1.00383 0.99925
1.02602 1 1.02755 0.99851
1.00072 1 1.00232 0.998402
1.00844 1 1.01016 0.998298
0.924498 0.954936 0.98359 0.984278
0.859652 0.898742 0.979333 0.976691
0.84053 0.905638 0.950142 0.976811
1.00234 1 1.0035 0.998849
1.01252 0.999524 1.01435 0.998665
0.991184 0.999899 0.992363 0.998912
0.851989 0.897884 0.973216 0.975
0.939434 0.955184 1.00351 0.980074
0.92503 0.948829 0.983542 0.991231
0.966427 0.967909 0.999724 0.998746
0.834445 0.904054 0.946243 0.97544
0.92591 0.960003 0.985766 0.978413
0.849216 0.935906 0.930869 0.974759
1.00346 0.999321 1.00473 0.999424
0.917461 0.954477 0.977532 0.983312
0.900878 0.945974 0.969279 0.982513
1.00192 0.988965 1.01353 0.999566
0.951306 0.954159 1.00265 0.994377
0.920939 0.945793 0.99431 0.979293
0.872281 0.961949 0.930336 0.974686
0.874298 0.926021 0.968337 0.975017
1.0041 0.991243 1.01326 0.999711
0.899082 0.940221 0.967135 0.988741
0.912435 0.959259 0.967261 0.983382
0.855498 0.945701 0.93037 0.972321
0.984332 0.971352 1.01478 0.998605
0.955731 0.961583 1.01245 0.981692
0.890691 0.932314 0.979345 0.975505
1.00199 1 1.00282 0.999167
1.01572 1 1.01643 0.9993
1.01789 0.994437 1.02403 0.999566
0.99872 1 1 0.99872
1.00016 1 1.00146 0.998701
1.02116 1 1.02192 0.999254
0.998701 1 1 0.998701
1.01468 1 1.01561 0.999086
1.02998 0.997487 1.03317 0.999421
1.01583 0.996616 1.0198 0.999489
1.01032 1 1.01125 0.999076
0.998822 1 1 0.998822
0.998876 1 1.00003 0.998849
0.99919 1 1.0003 0.998891
1.0003 1 1.00127 0.999028
0.998905 1 1.00011 0.998794
1.00018 1 1.00121 0.998967
0.998863 1 1 0.998863
1.00077 1 1.00267 0.998108
0.998836 1 1.00013 0.998703
0.998883 1.00001 1.00057 0.99831
0.998537 1 1.00101 0.997527
0.999509 1.00062 1.00129 0.997608
1.00046 1 1.00216 0.998302
0.999115 1 1.00138 0.997736
1.00017 1 1.00147 0.998711
0.99989 1 1.00139 0.998504
0.99906 1 1.00065 0.998415
0.998835 1 1.00015 0.998688
0.999088 1 1.0002 0.998885
0.999229 1 1 0.999229
0.998984 1 1 0.998984
0.999308 1 1 0.999308
0.999771 1 1 0.999771
0.999353 1 1 0.999353
0.99979 1 1 0.99979
1 1 1 1
0.999795 1 1 0.999795
1 1 1 1
1 1 1 1
1 1 1 1
1 1 1 1
1 1 1 1
0.999239 1 1 0.999239
0.999792 1 1 0.999792
0.999412 1 1 0.999412
1 1 1 1
0.999882 1 1 0.999882
0.999455 1 1 0.999455
1 1 1 1
1 1 1 1
0.999945 1 1 0.999945
1 1 1 1
1 1 1 1
1 1 1 1
0.91346 0.953144 0.974819 0.98312
0.834251 0.889476 0.961633 0.975334
0.845153 0.903028 0.958958 0.975966
0.998864 1 1 0.998864
0.901945 0.941386 0.973934 0.983746
0.918309 0.957009 0.980902 0.978244
0.8051 0.876362 0.945914 0.971214
0.978476 0.995936 0.988384 0.994015
0.943338 0.971809 0.988049 0.982444
0.815061 0.899291 0.930652 0.973873
0.814272 0.904977 0.928447 0.969114
0.955963 0.981521 0.982564 0.991244
0.926656 0.951547 0.992037 0.981658
0.844837 0.912883 0.949764 0.974411
0.852264 0.940565 0.93207 0.972158
0.931646 0.956968 0.984173 0.989196
0.933193 0.944953 1.00812 0.979598
0.882149 0.93397 0.968844 0.974888
0.869659 0.959106 0.931148 0.973786
0.999497 1 1.001 0.998504
0.999929 1 1.00127 0.998664
0.998952 1 1 0.998952
0.998678 1 1 0.998678
0.99888 1 1.00016 0.998718
0.998947 1 1 0.998947
0.998979 1 1 0.998979
0.999066 1 1 0.999066
0.985824 1.00535 0.982219 0.998327
0.980623 1.00015 0.981882 0.998567
1.00098 1 1.00249 0.998499
1.01334 1.00175 1.01336 0.998232
1.0176 1 1.01935 0.998276
1.00131 1 1.00292 0.998396
1.00101 1 1.0026 0.99841
0.970052 0.991191 0.979807 0.998843
1.00981 1 1.0115 0.99833
1.02165 1.00027 1.02289 0.998518
0.994958 0.997174 0.998488 0.999289
1.00019 1 1.00174 0.998454
0.960803 0.980162 0.981215 0.999016
1.00656 0.993617 1.01358 0.999454
1.03901 0.999969 1.0405 0.998602
1.00214 1 1.00368 0.998459
0.911776 0.943387 0.976249 0.990005
0.923962 0.954363 0.983495 0.984392
0.864994 0.898722 0.98551 0.976622
1.00209 0.99879 1.0039 0.999399
1.00547 0.992032 1.01414 0.999422
0.915127 0.953388 0.975208 0.98427
0.943106 0.948772 1.01285 0.981419
0.9451 0.952763 1.00018 0.991778
0.878262 0.929797 0.969718 0.97407
0.901986 0.946965 0.96945 0.982519
0.876158 0.964385 0.931272 0.975563
1.00596 0.994193 1.01217 0.999669
0.900162 0.940839 0.967666 0.988735
0.91032 0.957244 0.96569 0.984767
0.993519 0.978074 1.01607 0.999729
0.852827 0.94101 0.932196 0.972208
0.941127 0.950824 1.0093 0.980679
0.900825 0.944562 0.978253 0.974897
1.00638 0.989481 1.01731 0.999771
0.915182 0.955728 0.967307 0.989939
0.902004 0.941619 0.973671 0.983832
0.818106 0.910237 0.926438 0.97015
0.881667 0.935037 0.967559 0.974537
0.967055 0.964494 1.00531 0.997359
0.958534 0.955521 1.02535 0.978352
1.013 1 1.01378 0.999228
1.0175 0.993919 1.0242 0.999536
1.00438 0.982859 1.02232 0.999582
0.998712 1 1 0.998712
1.0134 1 1.01431 0.999096
1.03059 0.998358 1.03291 0.999396
1.00678 1 1.00773 0.999061
1.01585 0.997333 1.01909 0.999488
1.00918 0.996234 1.01376 0.999244
0.99947 1 1.00046 0.999007
0.998885 1 1.00008 0.998801
1.00128 1 1.00234 0.998942
1.00641 1 1.00802 0.998399
0.999028 1 1 0.999028
1.00029 1 1.00206 0.99823
1.0016 1.00007 1.00413 0.997412
1.0014 1.00251 1.00188 0.997018
0.998724 1.00006 1.0004 0.998261
0.998863 1.00036 1.00109 0.997408
0.99997 1.00175 1.00053 0.997699
1.00066 1.00002 1.00261 0.998026
0.999585 1.00066 1.00125 0.997671
1.00221 1 1.00366 0.998549
1.00058 1 1.0023 0.998292
0.999038 1 1.00128 0.997763
0.999093 1 1 0.999093
1.00025 1 1.00154 0.998709
1.00021 1 1.00174 0.998475
0.999046 1 1.00013 0.998917
0.999227 1 1 0.999227
0.999726 1 1 0.999726
0.999307 1 1 0.999307
0.999768 1 1 0.999768
1 1 1 1
0.999788 1 1 0.999788
1 1 1 1
1 1 1 1
1 1 1 1
1 1 1 1
1 1 1 1
0.999165 1 1 0.999165
0.999701 1 1 0.999701
0.999271 1 1 0.999271
1 1 1 1
0.999783 1 1 0.999783
0.99941 1 1 0.99941
1 1 1 1
1 1 1 1
0.999846 1 1 0.999846
1 1 1 1
1 1 1 1
1 1 1 1
0.902371 0.941515 0.969192 0.98889
0.915938 0.953196 0.977427 0.983105
0.834327 0.890568 0.960421 0.975456
0.998885 1 1 0.998885
0.998827 1 1 0.998827
0.998725 1 1 0.998725
0.909794 0.958915 0.964895 0.983293
0.899534 0.940955 0.971757 0.983764
0.919604 0.957136 0.982239 0.97816
0.961622 0.984317 0.983856 0.992973
0.923687 0.951033 0.99113 0.979938
0.834429 0.899125 0.95146 0.975391
0.863775 0.947919 0.937814 0.971657
0.935678 0.958792 0.984447 0.991311
0.930961 0.944978 1.00489 0.980368
0.867105 0.915995 0.96988 0.976025
0.871243 0.961027 0.930164 0.97464
0.924146 0.948347 0.984527 0.989796
0.947225 0.954087 1.01207 0.980966
0.891816 0.930693 0.982092 0.975701
0.861058 0.945253 0.935203 0.974044
0.998495 1 1 0.998495
0.999862 1 1.00137 0.998492
0.999976 1 1.00134 0.998635
0.998672 1 1 0.998672
0.998763 1 1 0.998763
0.998987 1 1 0.998987
0.977074 0.993675 0.984397 0.998879
0.990434 0.99743 0.993659 0.999322
1.0012 1 1.00279 0.998418
1.01622 1.0005 1.01721 0.998526
1.0107 1 1.01236 0.998363
1.00004 1 1.00162 0.998427
1.00165 1 1.00317 0.998479
0.970749 0.982238 0.98922 0.999074
1.03344 1 1.03477 0.998716
1.00688 0.989256 1.01835 0.999469
0.99998 1 1.00138 0.998605
0.983872 0.970595 1.01454 0.999151
1.00441 0.986552 1.0186 0.999516
1.0275 1 1.02869 0.998838
0.929027 0.959588 0.976516 0.991435
0.911582 0.943536 0.975497 0.990402
0.923792 0.953703 0.983885 0.984502
1.00924 0.997472 1.01217 0.999629
0.986686 0.978497 1.00933 0.999048
0.901422 0.941538 0.968306 0.988729
0.938959 0.942792 1.01174 0.984374
0.898249 0.941711 0.978109 0.975196
0.909351 0.955542 0.965023 0.986152
0.864784 0.948302 0.938438 0.971752
1.00355 0.988102 1.01585 0.999788
0.916094 0.955918 0.967637 0.99039
0.900796 0.941871 0.972088 0.983851
0.966135 0.961632 1.01039 0.994356
0.818576 0.912577 0.92565 0.969043
0.864332 0.917829 0.96522 0.975646
0.966299 0.959242 1.02704 0.980832
1.00024 0.97005 1.03169 0.99945
0.903137 0.942062 0.969362 0.988981
0.921761 0.959375 0.981907 0.978498
0.74901 0.842665 0.916708 0.96962
0.83375 0.909078 0.941292 0.974339
0.945772 0.952463 1.0127 0.980521
0.945634 0.957206 0.995382 0.992495
1.01867 0.993638 1.0257 0.999505
1.00793 0.987836 1.02076 0.999586
1.01597 0.993707 1.02289 0.999529
1.00338 1 1.00434 0.999046
1.01649 0.997628 1.01943 0.999487
1.01109 0.995737 1.01611 0.999323
1.01262 1 1.01382 0.998813
1.00251 1 1.0036 0.998917
1.00657 1 1.0083 0.998282
1.01478 1.00003 1.01743 0.99737
0.999799 1 1.00145 0.998356
1.00309 1.00064 1.00509 0.997374
1.00482 1.00222 1.00596 0.996647
1.00323 1.00474 1.00191 0.996593
1.00007 1.00166 1.00108 0.997341
1.00127 1.00242 1.00189 0.996974
0.999137 1.00061 1.00124 0.997289
0.999447 1.00044 1.0011 0.997908
0.99965 1.00138 1.00048 0.997791
1.00177 1 1.00353 0.998246
1.00087 1.00009 1.00272 0.99807
0.999625 1.00073 1.00117 0.997733
1.00083 1 1.00197 0.998863
1.00161 1 1.00306 0.99855
1.00059 1 1.00231 0.998282
0.999648 1 1 0.999648
0.999176 1 1.00009 0.999091
1.00018 1 1.00147 0.998708
0.999225 1 1 0.999225
0.999722 1 1 0.999722
0.999999 1 1 0.999999
0.999765 1 1 0.999765
1 1 1 1
1 1 1 1
1 1 1 1
1 1 1 1
1 1 1 1
0.999149 1 1 0.999149
0.999701 1 1 0.999701
0.999186 1 1 0.999186
1 1 1 1
0.999736 1 1 0.999736
0.999304 1 1 0.999304
1 1 1 1
1 1 1 1
0.999774 1 1 0.999774
1 1 1 1
1 1 1 1
1 1 1 1
0.914862 0.955238 0.967527 0.989876
0.902826 0.942046 0.969135 0.988889
0.916396 0.95311 0.978003 0.983106
0.998788 1 1 0.998788
0.99866 1 1 0.99866
0.998905 1 1 0.998905
0.998823 1 1 0.998823
0.998707 1 1 0.998707
0.998708 1 1 0.998708
0.998613 1 1 0.998613
0.89672 0.944369 0.96659 0.982365
0.909688 0.956624 0.965723 0.984688
0.896653 0.940218 0.969385 0.983784
0.873367 0.963308 0.929406 0.975497
0.924452 0.949277 0.984246 0.989437
0.932501 0.944473 1.00617 0.981269
0.872853 0.920405 0.97217 0.975484
0.917819 0.947735 0.97918 0.989026
0.93934 0.94617 1.01363 0.979429
0.903066 0.945822 0.978856 0.975419
0.847367 0.934298 0.930614 0.974578
0.926504 0.94987 0.984153 0.991107
0.948769 0.953725 1.01612 0.979022
0.874452 0.926997 0.96743 0.975075
0.82967 0.918566 0.930039 0.971166
1.00192 1 1.0033 0.998621
0.998676 1 1.00018 0.998498
1.00045 1 1.00198 0.99848
0.998666 1 1 0.998666
0.977389 0.982502 0.99565 0.999143
1.00646 0.985834 1.02145 0.999483
0.99885 1 1.00045 0.998401
1.00139 1 1.00289 0.998498
1.02768 1 1.02888 0.998829
0.999568 1 1.00097 0.998596
1.02783 0.999228 1.02984 0.998824
0.98097 0.969359 1.01366 0.998343
1.00688 0.984151 1.02348 0.99963
1.0123 0.997747 1.01565 0.998948
0.980653 0.963055 1.02015 0.998158
1.02307 0.989801 1.03434 0.999296
0.912356 0.943395 0.976817 0.990051
0.925433 0.958156 0.973673 0.991963
0.91096 0.943627 0.974348 0.990798
0.999128 0.985271 1.01426 0.999805
0.970488 0.964577 1.0086 0.997553
0.9159 0.95553 0.967381 0.990845
0.962524 0.960245 1.02412 0.978768
0.86733 0.919274 0.967626 0.975061
0.898294 0.942049 0.969185 0.983871
0.813562 0.904245 0.928236 0.969273
1.00468 0.973669 1.0323 0.999559
0.902826 0.942563 0.968514 0.988981
0.919946 0.958337 0.981121 0.978411
0.947951 0.956752 0.996016 0.994764
0.743451 0.845434 0.909327 0.967059
0.840838 0.910259 0.948114 0.974287
0.943102 0.947121 1.01627 0.979812
1.00048 0.977454 1.02501 0.998582
0.914607 0.954049 0.974924 0.983316
0.81692 0.880012 0.95495 0.972098
0.798324 0.880214 0.929248 0.976021
0.929106 0.940027 1.0076 0.980932
0.923394 0.946672 0.985254 0.990009
1.01053 0.991649 1.01946 0.99959
1.0164 0.991912 1.02518 0.999522
1.00343 0.994782 1.00935 0.999351
1.01303 0.995321 1.0184 0.999402
1.01147 0.997356 1.01527 0.998892
1.00462 1.0008 1.00588 0.997955
1.00701 1 1.00886 0.998164
1.01395 1.00012 1.01656 0.997315
1.009 1.00019 1.01218 0.996664
1.00475 1.00139 1.00604 0.997336
1.00518 1.002 1.00663 0.996567
1.00286 1.00209 1.00445 0.996336
1.00736 1.01074 1 0.996654
1.00606 1.00851 1.00077 0.996806
1.00377 1.00506 1.00218 0.996539
0.99978 1.00207 1.00013 0.997591
0.999606 1.00147 1.00074 0.9974
1.00118 1.00236 1.0019 0.99693
0.999041 1 1.00112 0.997928
0.999653 1.00067 1.00108 0.997898
0.999241 1.00093 1.00043 0.997883
1.00199 1 1.00344 0.998559
1.00166 1 1.00337 0.998295
1.00108 1.00014 1.00283 0.998115
0.999479 1 1 0.999479
1.00055 1 1.00169 0.998865
1.00121 1 1.00266 0.998552
0.999995 1 1 0.999995
0.999641 1 1 0.999641
0.99932 1 1.00023 0.999089
0.999717 1 1 0.999717
0.999998 1 1 0.999998
1 1 1 1
0.999999 1 1 0.999999
1 1 1 1
1 1 1 1
0.998778 1 1 0.998778
0.999077 1 1 0.999077
0.999633 1 1 0.999633
0.999147 1 1 0.999147
0.999998 1 1 0.999998
0.999705 1 1 0.999705
0.999208 1 1 0.999208
1 1 1 1
1 1 1 1
0.999771 1 1 0.999771
1 1 1 1
1 1 1 1
1 1 1 1
0.898172 0.940189 0.966244 0.988684
0.915134 0.955359 0.967244 0.990335
0.903633 0.942801 0.969229 0.988884
0.9988 1 1 0.9988
0.998725 1 1.00008 0.998648
0.998655 1 1.00005 0.99861
0.998652 1 1 0.998652
1.00025 1 1.00168 0.998566
0.998819 1 1 0.998819
0.998688 1 1 0.998688
0.998709 1 1 0.998709
0.998615 1 1 0.998615
1.00119 1 1.00253 0.998661
0.912727 0.949963 0.982022 0.978391
0.899872 0.945907 0.968387 0.982388
0.910559 0.955262 0.966659 0.98608
0.84723 0.935522 0.92914 0.974689
0.899416 0.940314 0.980606 0.975423
0.910154 0.943701 0.976205 0.987961
0.947615 0.954195 1.01264 0.980712
0.926867 0.952732 0.983886 0.988784
0.959972 0.962785 1.01676 0.980645
0.877249 0.927346 0.969677 0.97556
0.828412 0.92149 0.926482 0.970328
0.945039 0.956079 0.99797 0.990464
0.948881 0.953872 1.01387 0.981159
0.81854 0.89001 0.943213 0.97507
0.774918 0.876178 0.912554 0.969181
1.00362 1 1.00454 0.999083
1.00308 1 1.00447 0.998618
0.999412 1 1.00091 0.998501
0.981396 0.970459 1.01379 0.997515
1.00996 0.981675 1.02907 0.999748
0.999793 1 1.00121 0.998588
1.02903 0.998603 1.0317 0.998811
1.01348 0.998927 1.01563 0.998955
1.02514 0.992727 1.03339 0.999285
0.979804 0.963121 1.01918 0.998179
1.01805 0.997392 1.02138 0.999345
0.987134 0.973983 1.01545 0.998081
0.925638 0.956211 0.983641 0.984126
0.912286 0.943592 0.976153 0.990441
0.921974 0.95675 0.970942 0.99249
1.01016 0.978589 1.03262 0.999656
0.948109 0.958983 0.997304 0.991334
0.90403 0.943086 0.969271 0.988977
0.946829 0.955177 1.01308 0.978462
0.831637 0.896452 0.951206 0.975287
0.919788 0.957319 0.982077 0.97833
0.742158 0.851592 0.903604 0.964465
0.999752 0.976232 1.0254 0.998721
0.91691 0.954134 0.977306 0.983302
0.809238 0.874366 0.953 0.971159
0.926387 0.950556 0.983235 0.991191
0.810419 0.88775 0.936596 0.97469
0.91657 0.938396 0.997193 0.979491
0.971691 0.972667 1.0014 0.997599
0.843967 0.892227 0.969815 0.975352
0.809977 0.878382 0.944898 0.975898
0.937908 0.957012 0.999986 0.980052
0.913667 0.943983 0.975962 0.991723
1.01617 0.990453 1.02647 0.999515
1.00591 0.993475 1.0132 0.999324
1.00006 1.00085 1.0006 0.998609
1.01017 0.994417 1.01689 0.99897
1.00428 1.00093 1.0053 0.998049
0.999889 1.00199 1.00052 0.997388
1.01277 1.00016 1.01539 0.997259
1.00739 1.0004 1.01035 0.996678
0.9996 1.00148 1.00134 0.996787
1.00515 1.00172 1.00696 0.996487
1.00305 1.00301 1.00369 0.996361
1.00791 1.01111 1 0.996827
1.02061 1.02362 1 0.997053
1.01307 1.0164 1.00002 0.996703
1.00685 1.01021 1 0.996675
1.00471 1.00765 1 0.997084
1.00425 1.00643 1.00107 0.996759
1.00436 1.00546 1.00244 0.996486
0.998805 1.00106 1 0.997745
0.999179 1.0015 1.00002 0.99766
0.999084 1.00131 1.00032 0.99746
0.999917 1 1.00166 0.998263
0.999386 1.00013 1.0013 0.997959
0.999872 1.00089 1.0011 0.997888
1.00055 1 1.00137 0.999173
1.00174 1 1.00318 0.99856
1.00151 1 1.00317 0.998344
0.999983 1 1 0.999983
0.999665 1 1.00019 0.999472
1.00023 1 1.00136 0.998867
1 1 1 1
0.999993 1 1 0.999993
0.999634 1 1 0.999634
0.999997 1 1 0.999997
1 1 1 1
1 1 1 1
0.998968 1 1.00028 0.998693
0.998997 1 1 0.998997
0.998768 1 1 0.998764
0.999573 1 1 0.999573
0.999077 1 1 0.999077
0.999991 1 1 0.999991
0.999636 1 1 0.999636
0.999145 1 1 0.999145
1 1 1 1
0.999999 1 1 0.999999
0.999708 1 1 0.999708
1 1 1 1
1 1 1 1
1 1 1 1
0.918129 0.956977 0.974574 0.984435
0.899338 0.940809 0.966862 0.988683
0.915052 0.95484 0.967233 0.990795
0.998622 1 1 0.998622
0.998811 1 1 0.998811
0.998636 1 1 0.998636
0.998663 1 1 0.998663
0.998628 1 1 0.998628
0.999645 1 1.00106 0.998585
1.00268 1 1.00425 0.998435
1.00295 1 1.00441 0.99855
0.99871 1 1 0.99871
0.998617 1 1 0.998617
1.00119 1 1.00254 0.998651
1.00378 1 1.00495 0.998836
0.815529 0.8802 0.954256 0.970942
0.919915 0.956106 0.983515 0.978274
0.901685 0.946134 0.970087 0.982407
0.81923 0.914724 0.922478 0.970868
0.883301 0.934374 0.969645 0.974934
0.950386 0.95467 1.01679 0.979078
0.931121 0.951442 0.988997 0.989529
0.943035 0.952512 0.997736 0.992297
0.759038 0.865018 0.907696 0.966714
0.943377 0.94903 1.01503 0.979328
0.831932 0.904044 0.944 0.974825
0.936491 0.953147 0.989629 0.992821
0.935939 0.94685 1.00668 0.98192
0.801983 0.884471 0.929904 0.975088
1.00059 1 1.00102 0.999569
1.00358 1 1.00449 0.999088
1.00392 1 1.00531 0.998615
0.975827 0.959504 1.01883 0.998212
1.0278 0.996648 1.03201 0.999273
1.0142 0.999654 1.0156 0.998963
1.01822 0.998701 1.02021 0.999344
0.986645 0.975259 1.01357 0.998132
0.9979 0.990345 1.00896 0.998677
0.858382 0.899967 0.978511 0.974738
0.923405 0.9551 0.981093 0.985448
0.911318 0.943593 0.974734 0.99083
0.999888 0.974589 1.02716 0.998835
0.919944 0.948529 0.977701 0.991984
0.916787 0.954109 0.977203 0.983299
0.924855 0.937207 1.00587 0.981059
0.818718 0.900886 0.932859 0.9742
0.805889 0.876815 0.946031 0.971543
0.973633 0.972742 1.00326 0.997663
0.834672 0.890135 0.961105 0.975639
0.822785 0.884691 0.953125 0.975764
0.917215 0.945377 0.980729 0.989275
0.92711 0.954644 0.989292 0.98167
0.964372 0.983561 0.981694 0.998775
0.840341 0.898935 0.957575 0.976235
0.946549 0.976197 0.98682 0.98258
0.929751 0.958298 0.980937 0.989065
1.00909 0.992747 1.01718 0.999298
0.99199 0.999609 0.993655 0.998715
0.991303 1.0027 0.990597 0.998019
1.00445 1.00109 1.00522 0.998143
1.00225 1.00241 1.00247 0.997377
1.00028 1.00336 0.999428 0.997504
1.00614 1.00065 1.00883 0.996692
0.999569 1.00113 1.00164 0.996799
1.01418 1.01679 1 0.997432
1.00349 1.00395 1.00317 0.996386
1.00726 1.01046 1 0.996836
1.02014 1.02268 1 0.99751
1.02541 1.02796 1 0.997517
1.02307 1.02617 1 0.99698
1.01996 1.02294 1 0.997085
1.01305 1.01618 1 0.996914
1.01209 1.0154 1 0.996748
1.00612 1.00946 1 0.996695
1.00344 1.00599 1 0.997459
1.00461 1.00738 1.00014 0.99711
1.00252 1.00434 1.00148 0.996711
0.998135 1.00011 1 0.998021
0.999861 1.00213 1 0.997739
0.998533 1.00081 1 0.997729
1.00042 1 1.00159 0.998832
0.999775 1 1.00151 0.998264
0.999788 1.00036 1.00145 0.99799
0.999938 1 1 0.999938
1.00048 1 1.00131 0.999169
1.0013 1 1.00274 0.998562
1 1 1 1
0.999975 1 1 0.999975
0.999835 1 1.00037 0.999464
1 1 1 1
0.99999 1 1 0.99999
1 1 1 1
0.998829 1 1.00018 0.998647
0.999039 1 1.00035 0.99869
0.999103 1 1.00021 0.998895
0.999514 1 1 0.999514
0.998996 1 1 0.998996
0.998749 1 1 0.998749
0.999979 1 1 0.999979
0.999576 1 1 0.999576
0.999076 1 1 0.999076
1 1 1 1
0.999993 1 1 0.999993
0.999639 1 1 0.999639
1 1 1 1
1 1 1 1
1 1 1 1
0.841853 0.888374 0.973705 0.973224
0.916243 0.955013 0.97457 0.984437
0.90095 0.941805 0.967572 0.988681
0.999064 1 1.00046 0.998605
0.999404 1 1.00089 0.998513
1.00145 1 1.00295 0.998505
0.998831 1 1.00016 0.998675
0.998646 1 1 0.998646
0.999786 1 1.00118 0.998604
1.00282 1 1.00428 0.998542
1.00241 1 1.00397 0.998446
1.0036 1 1.00526 0.998352
0.997238 1 0.998221 0.999016
1.00075 1 1.00212 0.998641
1.00265 1 1.00385 0.998808
0.818907 0.881128 0.953409 0.974801
0.807313 0.872209 0.954502 0.969715
0.925966 0.960718 0.985333 0.978175
0.744122 0.852248 0.905541 0.964206
0.832798 0.902353 0.946492 0.975094
0.940347 0.94962 1.00877 0.981622
0.946906 0.953768 1.0027 0.990135
0.933779 0.952057 0.989741 0.990968
0.804834 0.877582 0.941451 0.974139
0.924196 0.941097 1.00115 0.980915
0.927429 0.954848 0.97938 0.991734
0.923782 0.955594 0.98598 0.980456
1.00674 1 1.00773 0.999025
1.0003 1 1.00079 0.999504
1.00326 1 1.00417 0.999092
0.986056 0.976074 1.01207 0.998177
1.01804 0.999705 1.01901 0.999344
0.998258 0.991089 1.00866 0.998585
0.989474 0.994963 0.996696 0.997779
0.841067 0.913285 0.942252 0.977365
0.861309 0.899693 0.981278 0.975602
0.922512 0.954551 0.979406 0.986756
0.974394 0.976452 1.00012 0.997773
0.916551 0.945087 0.97964 0.989962
0.834802 0.891307 0.959881 0.975751
0.922599 0.950806 0.990044 0.980091
0.828514 0.89113 0.952429 0.976171
0.967715 0.983387 0.985915 0.998123
0.846366 0.907042 0.955641 0.976418
0.945423 0.977149 0.986779 0.980495
0.937242 0.961229 0.983784 0.991118
0.97407 0.992087 0.983186 0.99863
0.950395 0.9828 0.984959 0.981795
0.953081 0.982131 0.977677 0.992579
0.983854 0.998049 0.986947 0.998814
0.989729 1.00351 0.988247 0.997995
0.983328 1.00705 0.978513 0.997891
1.0037 1.00278 1.00356 0.997366
0.999611 1.00347 0.998648 0.997499
1.01778 1.02396 0.99595 0.998006
0.999365 1.00071 1.00185 0.996812
1.01402 1.01684 0.999811 0.997419
1.02445 1.02765 0.998898 0.997988
1.00648 1.00967 1 0.996844
1.01961 1.02216 0.999999 0.997509
1.02615 1.02835 0.99994 0.997923
1.02327 1.02552 1 0.997802
1.02614 1.02864 1 0.997571
1.02541 1.02809 1 0.997391
1.02272 1.02574 1 0.997053
1.02356 1.02665 1 0.996987
1.01945 1.0224 1 0.997118
1.01077 1.01362 1 0.997186
1.01407 1.01717 1 0.996949
1.01117 1.01442 1 0.996793
0.999154 1.00137 1 0.997784
1.00371 1.00628 1 0.997452
1.00466 1.00737 1.00017 0.997136
0.998692 1 1.0001 0.998589
0.998344 1.00033 1 0.99802
1.00087 1.00314 1 0.997733
0.999817 1 1 0.999817
1 1 1.00117 0.998832
0.999808 1 1.00155 0.998265
1 1 1 1
0.999936 1 1.00002 0.999918
1.00039 1 1.00122 0.999165
1 1 1 1
0.999967 1 1 0.999967
1 1 1 1
0.998581 1 1 0.998581
0.998925 1 1.00028 0.998644
0.999069 1 1.00028 0.998787
0.998982 1 1.0003 0.998687
0.999115 1 1.00022 0.998894
0.999453 1 1.00002 0.999429
0.999967 1 1 0.999967
0.999517 1 1 0.999517
0.998996 1 1 0.998996
1 1 1 1
0.999982 1 1 0.999982
0.999578 1 1 0.999578
1 1 1 1
0.999996 1 1 0.999996
1 1 1 1
0.847926 0.902997 0.961611 0.976499
0.844674 0.89271 0.972341 0.973106
0.914564 0.953467 0.974364 0.984436
0.999336 1 1.00075 0.998588
1.00193 1 1.0035 0.998436
0.998946 1 1.00038 0.998564
0.998108 1 1 0.998106
1.00151 1 1.0031 0.998419
1.00272 1 1.00419 0.998533
1.00163 1 1.00318 0.998456
1.00367 1 1.00528 0.998393
0.998203 1 1 0.998203
0.994179 1.00065 0.994746 0.998782
0.997801 1.00035 0.999552 0.997898
0.998995 1 0.999926 0.999069
1.00196 1 1.00318 0.998781
0.939803 0.974269 0.983206 0.9811
0.821372 0.879098 0.958108 0.975187
0.808432 0.875453 0.952218 0.969782
0.802605 0.878753 0.938225 0.973483
0.932297 0.946903 1.00504 0.979636
0.936497 0.949067 0.993761 0.99295
0.928975 0.953564 0.981035 0.993047
0.931632 0.957266 0.990638 0.982418
0.954786 0.981292 0.980755 0.992081
0.999387 1.00132 0.999849 0.998222
1.00566 1 1.00666 0.999002
0.999894 1 1.00045 0.99944
0.999496 0.992996 1.00804 0.998516
0.994807 0.998977 0.998067 0.997755
0.927359 0.972195 0.971096 0.982274
0.851032 0.912297 0.95455 0.977262
0.86504 0.899222 0.985155 0.976483
0.972364 0.984853 0.989852 0.997441
0.934042 0.958309 0.985323 0.989196
0.847246 0.904405 0.959636 0.976204
0.943773 0.972529 0.98794 0.982279
0.977865 0.991937 0.987125 0.998672
0.954846 0.988087 0.983116 0.982955
0.952867 0.981063 0.980526 0.990549
0.994878 1.00438 0.992454 0.998072
0.973101 0.995185 0.982858 0.994863
0.98925 1.00465 0.986667 0.997981
0.984586 1.00646 0.980383 0.997841
1.00516 1.02943 0.978307 0.998076
0.999188 1.00358 0.998123 0.997494
1.01767 1.0238 0.996018 0.99799
1.02581 1.03591 0.991999 0.998228
1.0139 1.01696 0.999582 0.997406
1.02407 1.0278 0.998396 0.99797
1.02231 1.02724 0.997059 0.998144
1.01924 1.02181 0.999981 0.997507
1.02644 1.02875 0.999849 0.997905
1.02524 1.02745 0.999885 0.997971
1.02386 1.02607 1 0.99785
1.02289 1.02532 1 0.997627
1.02684 1.02928 1 0.997625
1.02536 1.02805 1 0.997383
1.02565 1.02847 1 0.997255
1.01832 1.02123 1 0.997152
1.02259 1.02563 1 0.997044
1.02399 1.02708 1 0.996995
1.0034 1.00584 1 0.997574
1.00997 1.0128 1 0.997205
1.01505 1.01813 1 0.996983
0.998403 1 1 0.998402
1.00027 1.0025 1 0.99778
1.00377 1.00634 1 0.997445
0.999686 1 1.00004 0.999645
0.998672 1 1.00008 0.998589
0.998584 1.00057 1 0.998018
1 1 1 1
0.999911 1 1.00012 0.999793
0.999658 1 1.00083 0.998833
1 1 1 1
1.00009 1 1.00019 0.999897
1 1 1 1
0.99994 1.00182 1 0.998124
0.998578 1 1 0.998578
0.99898 1 1.00034 0.998642
0.999159 1 1.00052 0.998642
0.999129 1 1.00036 0.998766
0.999318 1 1.00004 0.999281
0.999134 1 1.00024 0.998894
0.99944 1 1.00001 0.999432
0.999952 1 1 0.999952
1 1 1 1
0.99997 1 1 0.99997
0.999519 1 1 0.999519
1 1 1 1
0.999986 1 1 0.999986
1 1 1 1
0.949482 0.983814 0.981316 0.983479
0.842446 0.906776 0.950916 0.977012
0.854604 0.898718 0.977631 0.972672
1.00254 1 1.00418 0.998368
0.998615 1 1 0.998615
1.0011 1 1.00269 0.998419
0.998685 1.0005 1.00005 0.998132
1.00406 1.00637 1.00002 0.997679
0.998232 1 1 0.998232
1.00392 1 1.0055 0.998434
0.99807 1 1 0.99807
0.996266 1.00043 0.997085 0.998752
0.998305 1.00058 0.999668 0.998056
0.996235 1.00303 0.995142 0.998076
0.997457 1.00129 0.998654 0.997516
0.997003 1.00082 0.998151 0.998033
1.00065 1 1.00153 0.999122
0.953587 0.983464 0.97721 0.992234
0.942657 0.975614 0.98418 0.981751
0.81718 0.880108 0.951274 0.976059
0.943542 0.963539 0.999131 0.980098
0.929696 0.952349 0.982167 0.993938
0.959024 0.981584 0.982349 0.994572
0.992408 1.00377 0.990652 0.998013
0.997382 1.00067 0.99846 0.998252
1.0046 1 1.00563 0.998981
0.995526 1.00112 0.996692 0.997712
0.957763 0.978599 0.986289 0.992315
0.940478 0.976875 0.978127 0.984271
0.840826 0.90651 0.949476 0.976899
0.980181 0.991851 0.989512 0.998709
0.956684 0.983696 0.980371 0.992013
0.959653 0.987731 0.98726 0.98411
0.988103 1.00339 0.986645 0.998091
0.970123 0.992368 0.983299 0.994188
0.992788 1.02419 0.971381 0.997896
1.00504 1.01578 0.992042 0.997367
0.985418 1.00587 0.981839 0.997787
1.00421 1.02853 0.97824 0.998069
1.00923 1.03986 0.972371 0.99812
1.01785 1.02407 0.995953 0.997973
1.0256 1.03579 0.991943 0.998212
1.018 1.02929 0.990924 0.998091
1.02371 1.0279 0.997964 0.997951
1.02159 1.02661 0.996981 0.998127
1.02547 1.03025 0.99742 0.99794
1.02667 1.02908 0.999773 0.997887
1.02416 1.02645 0.999802 0.997965
1.02363 1.02603 0.999964 0.997697
1.02445 1.02661 1 0.997898
1.02305 1.02544 1 0.997667
1.02528 1.02798 1 0.997377
1.02539 1.02809 1 0.997376
1.02558 1.02841 1 0.997245
1.02193 1.02474 1 0.997262
1.00854 1.01114 1 0.997429
1.01809 1.02098 1 0.997169
1.02242 1.02546 1 0.997034
0.998614 1.00039 1 0.998223
1.00423 1.00667 1 0.997575
1.00938 1.01219 1 0.997224
0.999478 1 1 0.999478
0.998468 1.00007 1 0.998401
1.00135 1.00358 1 0.997776
1 1 1 1
0.99963 1 1 0.999629
0.998618 1 1.00003 0.99859
1 1 1 1
0.999809 1 1.00004 0.999769
1 1 1 1
1.00285 1.00512 1 0.997746
0.999215 1.00108 1 0.998138
0.998735 1.00025 1.00014 0.998338
0.998575 1 1 0.998575
0.998915 1 1.0003 0.998615
0.999126 1 1.00005 0.999075
0.999207 1 1.00046 0.998745
0.999309 1 1.00003 0.999283
0.999927 1 1 0.999927
0.999434 1 1 0.999434
0.999957 1 1 0.999957
1 1 1 1
1 1 1 1
0.999973 1 1 0.999973
1 1 1 1
0.953815 0.982431 0.978014 0.992697
0.944269 0.983615 0.977686 0.981909
0.835684 0.901313 0.948991 0.977022
1.01168 1.01428 1.00007 0.997365
1.00059 1 1.00217 0.998418
0.999277 1.00112 1.00001 0.998158
0.998195 1 1 0.998195
1.00369 1.00591 1.00013 0.997667
1.00079 1.00273 1 0.998063
0.997938 1 1 0.997938
0.998212 1.00023 0.999256 0.998721
0.998189 1.00078 0.999318 0.998091
0.993994 1.0021 0.993865 0.99803
1.00129 1.00413 0.999759 0.99741
1.00232 1.00612 0.998721 0.997499
0.998335 1.00195 0.998916 0.997469
0.996264 1.00134 0.996761 0.998168
0.992812 1.00616 0.988191 0.998523
0.951706 0.983729 0.975999 0.991238
0.945808 0.977268 0.98479 0.982755
0.951828 0.977245 0.98103 0.992826
0.995917 1.00579 0.991711 0.99846
0.99812 1.0002 0.999642 0.998278
0.993976 1.00668 0.989993 0.997359
0.950791 0.96961 0.986866 0.993642
0.930266 0.97524 0.970993 0.98238
0.981835 1.00176 0.981972 0.998106
0.974997 0.993867 0.987607 0.993323
0.994741 1.02524 0.972243 0.997949
1.00404 1.01471 0.991939 0.997532
1.00272 1.0338 0.971944 0.997932
1.02941 1.03586 0.995942 0.997823
1.00293 1.02706 0.978409 0.998063
1.01192 1.04114 0.973766 0.998115
1.01062 1.03594 0.977565 0.997951
1.02486 1.03514 0.99186 0.998196
1.01786 1.02914 0.990937 0.998088
1.02405 1.03305 0.993449 0.99783
1.02081 1.02596 0.996868 0.99811
1.02501 1.02969 0.997501 0.997953
1.02681 1.0296 0.999656 0.997634
1.02309 1.02547 0.999725 0.997959
1.02401 1.02639 0.999986 0.997696
1.02707 1.02973 1 0.997411
1.02317 1.02552 1 0.997707
1.02537 1.02804 1 0.997405
1.02382 1.02663 1 0.997257
1.02548 1.02833 1 0.997236
1.02172 1.02455 1 0.997241
1.01201 1.01462 1 0.99742
0.999951 1.00186 1 0.998099
1.00835 1.01092 1 0.997453
1.01783 1.02071 1 0.997185
0.99934 1 1 0.99934
0.999001 1.00078 1 0.998222
1.00504 1.00748 1 0.997576
1 1 1 1
0.999465 1 1 0.999465
0.998531 1.00013 1 0.9984
1 1 1 1
0.999613 1 1 0.999613
1 1 1 1
1.00616 1.00876 1 0.997425
1.00256 1.00482 1 0.997751
1.00053 1.00251 1 0.998022
0.998451 1.00029 1.00001 0.998152
0.998592 1.00009 1.00016 0.998343
0.999204 1 1.00037 0.998837
0.99884 1 1.00025 0.998589
0.999279 1 1.0002 0.999075
0.999872 1 1 0.999872
0.999285 1 1 0.999285
0.999935 1 1 0.999935
1 1 1 1
0.999961 1 1 0.999961
1 1 1 1
1 1 1 1
0.993394 1.01057 0.98453 0.998453
0.948121 0.979994 0.976483 0.990776
0.94161 0.975175 0.981477 0.983804
1.00876 1.01115 1.00001 0.99763
1.01793 1.02073 1 0.997254
1.00985 1.01233 1.00013 0.997413
0.998159 1 1 0.998159
1.00326 1.00527 1.00034 0.997654
1.00172 1.00371 1 0.998012
1.01055 1.01315 1 0.99744
0.998038 1.00095 0.998965 0.998125
0.991652 1.00105 0.992617 0.997983
1.00206 1.00527 0.999324 0.997477
1.01315 1.01655 0.999476 0.997177
1.00992 1.01964 0.992654 0.9978
1.00309 1.00688 0.998768 0.997471
0.999122 1.00262 0.999082 0.997422
0.996978 1.00837 0.990023 0.998672
0.955565 0.984815 0.979998 0.990102
0.996313 1.00683 0.990623 0.998919
1.01607 1.02734 0.990593 0.998417
0.993077 1.00539 0.990272 0.997454
0.952021 0.976292 0.983213 0.99179
0.997351 1.02665 0.973408 0.998
1.00229 1.01396 0.990766 0.997706
1.00244 1.03415 0.971271 0.998013
1.03064 1.03774 0.995316 0.997831
1.0261 1.04244 0.986475 0.997825
1.04522 1.05341 0.994269 0.997943
1.01494 1.04322 0.974738 0.998109
1.01311 1.03586 0.980041 0.997954
1.02712 1.04011 0.98975 0.997734
1.01802 1.02916 0.991077 0.998084
1.02418 1.0325 0.994102 0.997827
1.02996 1.03479 0.997728 0.997597
1.02453 1.02909 0.997591 0.997966
1.02716 1.02987 0.999732 0.997632
1.02979 1.0325 1 0.997375
1.02437 1.02674 1 0.997696
1.02687 1.02954 1 0.997412
1.02649 1.02935 1 0.997227
1.02549 1.02813 1 0.997434
1.02355 1.02636 1 0.997265
1.01389 1.01656 1 0.997372
1.02154 1.02439 1 0.99722
1.01183 1.01446 1 0.997411
1.00144 1.00342 1 0.998026
0.999265 1 1 0.999265
1.00041 1.00231 1 0.998098
1.00821 1.01076 1 0.997478
1 1 1 1
0.999329 1 1 0.999329
0.999404 1.00118 1 0.998222
1 1 1 1
0.999452 1 1 0.999452
1 1 1 1
1.01218 1.015 1 0.99723
1.0067 1.00932 1 0.997401
1.00382 1.00611 1 0.99772
1.00216 1.00442 1 0.997755
0.999819 1.0018 1 0.998028
0.998813 1.00003 1.0002 0.998583
0.998501 1 1.00015 0.998348
0.999249 1 1.00041 0.998839
0.999899 1 1.00014 0.999755
0.999155 1 1.00008 0.999075
0.999887 1 1 0.999887
1 1 1 1
0.999943 1 1 0.999943
1 1 1 1
1 1 1 1
1.0084 1.0264 0.984158 0.998273
0.991013 1.00952 0.98365 0.997984
0.946588 0.981161 0.972977 0.991557
1.01864 1.02134 1 0.997357
1.00953 1.01176 1 0.9978
1.03057 1.03345 1 0.997214
1.01853 1.02135 1 0.99724
1.00822 1.01061 1.00018 0.997462
1.02608 1.02902 1 0.997144
1.00273 1.00478 1 0.997961
1.00921 1.01186 1 0.997381
1.03024 1.0371 0.996015 0.997361
1.00267 1.00631 0.998836 0.997544
1.01439 1.01775 0.99956 0.99714
1.00982 1.01966 0.992511 0.99782
1.00315 1.00672 0.999006 0.99744
1.00113 1.01028 0.992115 0.998819
1.03525 1.04778 0.990013 0.998009
1.01605 1.02735 0.990566 0.998425
0.993495 1.00409 0.991884 0.997544
1.00236 1.03389 0.971355 0.998094
1.03079 1.03877 0.994467 0.997841
1.02399 1.04233 0.984534 0.997843
1.04544 1.05454 0.993409 0.997942
1.03941 1.05084 0.991265 0.99784
1.01519 1.03545 0.982441 0.997957
1.02708 1.03962 0.990174 0.997742
1.03186 1.04039 0.99418 0.997613
1.02421 1.03196 0.994651 0.997824
1.02958 1.03418 0.997974 0.997578
1.03206 1.03495 0.999868 0.997334
1.0276 1.03023 0.99982 0.997629
1.02974 1.03245 1 0.997373
1.02983 1.03275 1 0.997177
1.02668 1.02934 1 0.997412
1.02643 1.02928 1 0.99723
1.0162 1.01896 1 0.997293
1.02329 1.02608 1 0.997274
1.01404 1.01671 1 0.997375
1.00225 1.00431 1 0.99795
1.01163 1.01427 1 0.997401
1.00166 1.00364 1 0.998024
0.999362 1 1 0.999362
0.99979 1 1 0.99979
0.999311 1 1 0.999311
1.00084 1.00275 1 0.998097
1 1 1 1
0.999317 1 1 0.999317
1 1 1 1
1.03736 1.0402 1 0.997269
1.02297 1.02581 1 0.99723
1.01328 1.01611 1 0.99722
1.00727 1.00975 1 0.997541
1.00735 1.01 1 0.997377
1.00292 1.00521 1 0.997723
0.998808 1.00045 1 0.998356
0.999102 1.00107 1 0.998033
0.998951 1 1.00036 0.998587
0.999608 1 1.00003 0.999574
0.999586 1 1.00075 0.998841
0.999822 1 1.00005 0.999775
1 1 1 1
0.999901 1 1 0.999901
1 1 1 1
1 1 1 1
1.03313 1.04613 0.98979 0.997762
1.01221 1.03019 0.984166 0.998352
0.988803 1.00962 0.98182 0.997518
1.02978 1.0327 1 0.997178
1.01804 1.02068 1 0.997421
1.01004 1.0121 1 0.997967
1.02975 1.0326 1 0.997232
1.0191 1.02193 1 0.997226
1.03763 1.04266 0.997836 0.997339
1.02315 1.02612 1 0.997104
1.00797 1.01067 1 0.997321
1.02965 1.03645 0.996065 0.997355
1.0169 1.02018 0.999682 0.997103
1.01201 1.02241 0.991967 0.997846
1.04009 1.0512 0.99148 0.997933
1.03711 1.04899 0.990629 0.998028
1.01634 1.02742 0.990768 0.998433
1.0229 1.04314 0.982709 0.997859
1.04648 1.05639 0.992665 0.997941
1.0396 1.05177 0.990562 0.997851
1.03479 1.043 0.99443 0.997687
1.02697 1.039 0.990649 0.997751
1.0316 1.03981 0.99449 0.997602
1.03451 1.03794 0.999348 0.997353
1.02917 1.03351 0.998241 0.997559
1.03288 1.03578 0.999866 0.997335
1.03278 1.03575 1 0.997133
1.02965 1.03236 1 0.997371
1.0299 1.03282 1 0.997178
1.01851 1.02136 1 0.997207
1.02637 1.02922 1 0.997233
1.01648 1.01924 1 0.997295
1.00294 1.00511 1 0.99785
1.01418 1.01685 1 0.997379
1.00245 1.00451 1 0.997948
0.999365 1 1 0.999365
1.00188 1.00386 1 0.998022
0.999358 1 1 0.999358
0.999803 1 1 0.999803
0.999898 1 1 0.999898
0.99936 1 1 0.99936
1 1 1 1
1.03444 1.03736 1 0.997185
1.0287 1.03152 1 0.997266
1.03685 1.03958 1 0.997376
1.01266 1.01528 1 0.997426
1.02461 1.02747 1 0.99722
1.01444 1.01727 1 0.99721
1.00685 1.00933 1 0.997538
1.0005 1.00233 1 0.998175
1.00195 1.00423 1 0.997726
0.99864 1.00028 1 0.998357
0.999398 1 1 0.999398
0.999104 1 1.00051 0.99859
0.999665 1 1.00007 0.999593
1 1 1 1
0.999794 1 1 0.999794
1 1 1 1
1 1 1 1
1.03767 1.0469 0.993522 0.997646
1.03255 1.04544 0.989893 0.997758
1.01443 1.03225 0.984291 0.998424
1.03732 1.04056 0.99963 0.997253
1.02829 1.0312 1 0.99718
1.01757 1.02013 1 0.997485
1.02877 1.03161 1 0.997251
1.03678 1.04185 0.997814 0.997316
1.02015 1.02315 1 0.997064
1.02703 1.03368 0.996206 0.99735
1.03666 1.04542 0.993857 0.997749
1.03935 1.05011 0.991841 0.997895
1.03885 1.05004 0.991281 0.998047
1.03446 1.04091 0.996216 0.997576
1.0395 1.05244 0.989819 0.997861
1.0346 1.04297 0.994286 0.997674
1.03583 1.03989 0.998641 0.997447
1.0314 1.0393 0.994793 0.997592
1.03512 1.0386 0.999293 0.997356
1.03396 1.03696 1 0.997115
1.0337 1.0366 0.999865 0.997335
1.0324 1.03537 1 0.997134
1.02032 1.02325 1 0.997139
1.02992 1.03284 1 0.997179
1.01874 1.02159 1 0.997208
1.0035 1.00577 1 0.99775
1.01675 1.0195 1 0.997297
1.00312 1.00528 1 0.997849
0.999342 1 1 0.999342
1.00265 1.00472 1 0.997946
0.999357 1 1 0.999357
0.999807 1 1 0.999807
0.999355 1 1 0.999355
0.999807 1 1 0.999807
1 1 1 1
1.03488 1.03791 1 0.997087
1.02973 1.03268 1 0.997143
1.03547 1.03838 1 0.997197
1.01681 1.01944 1 0.997419
1.02922 1.03203 1 0.997279
1.03645 1.03907 1 0.997483
1.00269 1.00468 1 0.998021
1.0127 1.01532 1 0.99742
1.02636 1.02923 1 0.99721
1.00635 1.00884 1 0.997536
0.999826 1.00165 1 0.998177
0.999285 1 1 0.999285
0.998465 1.00011 1 0.998359
0.999411 1 1 0.999411
1 1 1 1
0.999672 1 1.00006 0.999611
1 1 1 1
1 1 1 1
1.0375 1.04268 0.997528 0.997501
1.03765 1.04731 0.993133 0.997631
1.03294 1.04583 0.989893 0.997754
1.0367 1.03986 0.999696 0.997265
1.02673 1.02963 1 0.997182
1.0361 1.04121 0.997787 0.997294
1.03533 1.04189 0.996119 0.99758
1.03711 1.04548 0.994236 0.997742
1.0387 1.04916 0.992158 0.997857
1.03499 1.04135 0.996293 0.997597
1.03692 1.04066 0.999019 0.997387
1.0344 1.04293 0.994141 0.997661
1.03586 1.03985 0.998749 0.997408
1.03429 1.03736 0.999861 0.997179
1.03563 1.03917 0.99924 0.997358
1.0338 1.03679 1 0.997118
1.02153 1.02451 1 0.997089
1.03217 1.03514 1 0.997135
1.02071 1.02364 1 0.99714
1.00393 1.00627 1 0.997673
1.01908 1.02193 1 0.997209
1.00365 1.00592 1 0.997749
0.999291 1 1 0.999291
1.0033 1.00546 1 0.997848
0.999329 1 1 0.999329
0.999791 1 1 0.999791
0.999351 1 1 0.999351
0.999817 1 1 0.999817
0.999807 1 1 0.999807
1.0371 1.03991 0.999998 0.997302
1.03213 1.03521 1 0.997021
1.03564 1.03864 1 0.997108
1.01937 1.02215 1 0.997286
1.02921 1.03216 1 0.997142
1.03644 1.03934 1 0.997209
1.00373 1.00584 1 0.997909
1.0169 1.01957 1 0.997375
1.02959 1.03238 1 0.997292
0.999236 1 1 0.999236
1.00208 1.00407 1 0.998024
1.01283 1.01545 1 0.997413
0.999149 1.00097 1 0.998178
0.999296 1 1 0.999296
1 1 1 1
0.999425 1 1 0.999425
1 1 1 1
1 1 1 1
1.03494 1.03961 0.998025 0.997476
1.03663 1.04215 0.997201 0.997496
1.03751 1.04755 0.99278 0.997616
1.03605 1.03914 0.999755 0.997278
1.03593 1.0393 0.999409 0.997348
1.03596 1.0424 0.996219 0.99759
1.03755 1.04549 0.994658 0.997735
1.03552 1.0418 0.99634 0.997617
1.03628 1.04025 0.998781 0.997398
1.03484 1.03776 1 0.997187
1.03594 1.03991 0.998812 0.997368
1.03433 1.03737 0.999919 0.997149
1.02212 1.02511 1 0.997083
1.03364 1.03663 1 0.997121
1.02183 1.02481 1 0.997091
1.004 1.00641 1 0.997609
1.02092 1.02384 1 0.99714
1.00395 1.00629 1 0.997673
0.999126 1 1 0.999126
1.00375 1.00602 1 0.997749
0.999228 1 1 0.999228
1 1 1 1
0.999317 1 1 0.999317
0.999806 1 1 0.999806
0.999823 1 1 0.999823
1.03546 1.03837 0.999815 0.997379
1.03316 1.03615 1 0.997108
1.03665 1.03946 0.999999 0.997297
1.02155 1.02451 1 0.99711
1.03191 1.03497 1 0.997042
1.03648 1.03946 1 0.997129
1.00439 1.00668 1 0.997719
1.01952 1.02229 1 0.997285
1.02876 1.03171 1 0.997141
0.99922 1 1 0.99922
1.00353 1.00568 1 0.997865
1.01699 1.01971 1 0.99733
1 1 1 1
0.999247 1 1 0.999247
1.00144 1.00342 1 0.998027
0.999307 1 1 0.999307
1 1 1 1
1 1 1 1
1.03464 1.03784 0.999549 0.997363
1.03553 1.04019 0.99804 0.997482
1.03572 1.0416 0.996857 0.997491
1.03415 1.03713 1 0.997129
1.03523 1.03873 0.999269 0.99736
1.03653 1.04285 0.996324 0.9976
1.03568 1.03984 0.998585 0.997409
1.03469 1.03774 0.999866 0.997188
1.02112 1.02404 1 0.997145
1.03427 1.03726 1 0.99712
1.02206 1.02503 1 0.997107
1.00381 1.00634 1 0.997485
1.02222 1.0252 1 0.997093
1.004 1.0064 1 0.99761
0.999076 1 1 0.999076
1.00404 1.00638 1 0.997673
0.999123 1 1 0.999123
1 1 1 1
0.999154 1 1 0.999154
0.999888 1 1 0.999888
0.999818 1 1 0.999818
1.03311 1.03615 0.99973 0.997335
1.03301 1.03595 1 0.997162
1.03549 1.03834 0.99987 0.997385
1.02217 1.02513 1 0.997112
1.03376 1.03677 1 0.997097
1.03623 1.03904 1 0.997292
1.00481 1.00721 1 0.997616
1.02147 1.02439 1 0.997151
1.03164 1.03468 1 0.997063
0.999193 1 1 0.999193
1.00435 1.00666 1 0.997705
1.01966 1.02243 1 0.997284
1 1 1 1
0.999229 1 1 0.999229
1.00335 1.00554 1 0.997821
1 1 1 1
0.999257 1 1 0.999257
1 1 1 1
1.03463 1.03755 1 0.997178
1.03395 1.03719 0.999529 0.99735
1.03616 1.04081 0.998044 0.997489
1.02027 1.0232 1 0.997136
1.03422 1.0372 0.999976 0.99715
1.0346 1.03822 0.99914 0.997371
1.03452 1.03772 0.999723 0.997189
1.02117 1.02409 1 0.997144
1.00319 1.00575 1 0.997454
1.02203 1.02498 1 0.99713
1.00376 1.00625 1 0.99752
0.999015 1 1 0.999015
1.00394 1.00635 1 0.997611
0.999072 1 1 0.999072
1 1 1 1
0.99912 1 1 0.99912
1 1 1 1
0.999798 1 1 0.999798
1.03369 1.03661 1 0.997186
1.0328 1.03576 0.99979 0.997355
1.02174 1.02468 1 0.99713
1.03334 1.03628 1 0.997161
1.03554 1.03833 0.999925 0.99739
1.00442 1.00679 1 0.997643
1.02188 1.02484 1 0.997109
1.03433 1.03735 1 0.997086
0.999145 1 1 0.999145
1.00495 1.00732 1 0.997646
1.02137 1.02425 1 0.997191
1 1 1 1
0.999199 1 1 0.999199
1.00432 1.00664 1 0.997691
1 1 1 1
0.999237 1 1 0.999237
1 1 1 1
1.02052 1.02341 1 0.997171
1.03447 1.03741 1 0.997168
1.03323 1.03649 0.999519 0.997336
1.00234 1.00489 1 0.99746
1.02031 1.02324 1 0.997136
1.03425 1.03726 0.999927 0.99717
1.02122 1.02415 1 0.997144
1.0032 1.00576 1 0.997456
0.998972 1 1 0.998972
1.00373 1.00619 1 0.997554
0.999011 1 1 0.999011
1 1 1 1
0.99907 1 1 0.99907
1 1 1 1
1 1 1 1
1.02137 1.02431 1 0.997133
1.03348 1.03637 1 0.99721
1.03244 1.03532 0.999848 0.997374
1.00374 1.00614 1 0.997624
1.02157 1.02451 1 0.997127
1.03364 1.03659 1 0.997159
0.999094 1 1 0.999094
1.00462 1.007 1 0.997641
1.02162 1.02459 1 0.997106
1 1 1 1
0.999148 1 1 0.999148
1.00509 1.00743 1 0.997675
1 1 1 1
0.999205 1 1 0.999205
1 1 1 1
1.00206 1.00452 1 0.99755
1.0204 1.02334 1 0.997135
1.03432 1.03727 1 0.997157
0.998975 1 1 0.998975
1.00239 1.00494 1 0.997458
1.02036 1.02329 1 0.997136
1.0032 1.00576 1 0.997457
0.998971 1 1 0.998971
1 1 1 1
0.999008 1 1 0.999008
1 1 1 1
1 1 1 1
1.00277 1.00519 1 0.997592
1.02102 1.02395 1 0.997137
1.03331 1.03618 1 0.997234
0.999199 1 1 0.999199
1.00397 1.00636 1 0.997622
1.0214 1.02435 1 0.997124
1 1 1 1
0.999095 1 1 0.999095
1.00481 1.00719 1 0.997639
1 1 1 1
0.999152 1 1 0.999152
1 1 1 1
0.998973 1 1 0.998973
1.00222 1.00472 1 0.997519
1.02031 1.02328 1 0.997099
1 1 1 1
0.998974 1 1 0.998974
1.00243 1.00499 1 0.997456
0.99897 1 1 0.99897
1 1 1 1
1 1 1 1
0.999153 1 1 0.999153
1.00308 1.0055 1 0.997592
1.02062 1.02355 1 0.997141
1 1 1 1
0.999057 1 1 0.999057
1.0042 1.00659 1 0.99762
1 1 1 1
0.999097 1 1 0.999097
1 1 1 1
0.999721 1 1 0.999721
0.999065 1 1 0.999065
1.00237 1.00489 1 0.997488
1 1 1 1
0.998975 1 1 0.998975
1 1 1 1
0.999738 1 1 0.999738
0.999092 1 1 0.999092
1.00341 1.00583 1 0.997593
0.999871 1 1 0.999871
0.999056 1 1 0.999056
1 1 1 1
1 1 1 1
0.998997 1 1 0.998997
1 1 1 1
0.999866 1 1 0.999866
0.999025 1 1 0.999025
1 1 1 1
1 1 1 1
1 1 1 1

VECTORS lamdaE float
1.00059 1.00014 0.994586
1.00033 1.00055 0.997385
1.00023 1.00035 0.994812
1.00083 0.999968 0.994417
1.00069 0.999955 0.994641
1.00054 1.00034 0.994446
1.00189 1.00048 0.991695
1.00035 1.00046 0.99739
1.00026 1.0002 0.997742
0.999812 1.00084 0.997769
1.00034 1.00047 0.994586
1.00168 1.00128 0.990589
1.00058 0.999996 0.994629
1.00031 0.999994 0.994841
0.999895 1.00057 0.995011
1.00056 0.999947 0.994686
1.00013 1.00067 0.994644
1.00039 1.00002 0.994879
1.00208 1.0003 0.991596
1.00059 1.00001 0.997361
1.00082 1.00002 0.994355
1.00078 0.999908 0.994562
1.00218 1.00004 0.991655
1.00206 1.00012 0.991773
1.00055 1.00038 0.994328
1.00166 1.00101 0.991524
1.0046 1.00033 0.987252
1.00035 1.00041 0.997413
1.00043 1.00009 0.996165
1.00008 1.00061 0.996166
1.00032 1.00031 0.997478
1.00157 1.00142 0.990593
1.00073 0.999833 0.994512
1.00044 1.00032 0.994606
1.00234 1.00012 0.992032
0.999762 1.00005 0.99808
1.00201 1.00083 0.991963
1.00138 1.0017 0.990658
1.00384 1.00156 0.98655
0.999862 0.998743 0.998495
1.0006 1 0.997344
1.0005 1.00001 0.996082
1.00054 0.999988 0.997377
1.00021 1.00003 0.99496
1.00223 0.99999 0.990935
1.00042 0.999963 0.997656
1.00247 1.00007 0.991894
1.00029 0.999885 0.994955
1.0001 1.00007 0.995104
0.999744 1.00105 0.994826
1.00225 1.00011 0.991512
1.00043 1.00003 0.996135
1.00054 1.00003 0.994628
1.00012 1.00081 0.994507
1.00051 0.99989 0.994816
1.00229 1 0.991537
1.0019 1.00076 0.991431
1.0022 1.00002 0.991672
1.00457 1.00036 0.987255
1.00052 1 0.997386
1.00073 1.00004 0.994468
1.00203 1.00001 0.992514
1.00217 1.00006 0.991644
1.00215 1 0.991741
1.00462 1.00005 0.987393
1.00464 1.00004 0.987245
1.00038 1.00014 0.994656
1.00122 1.00183 0.991406
1.00445 1.00068 0.987148
1.00522 1.00024 0.9855
1.00064 1.00012 0.997383
1.00024 1.00014 0.997629
1.00036 1.00045 0.997387
1.0015 1.00152 0.99059
1.00076 0.999967 0.997329
1.00052 1.00031 0.997403
1.00222 1.00007 0.990764
0.999943 0.999991 0.996638
1.00179 1.00089 0.9907
1.00127 1.00183 0.991444
1.00392 1.00145 0.986553
1.00008 0.999318 0.99808
0.999832 1.00111 0.994061
1.00242 0.999961 0.9906
1.00216 1.00031 0.990742
1.00467 1.0002 0.986507
1.00083 1.00201 0.992779
1.00427 1.00081 0.98658
1.00297 1.00299 0.986668
1.00492 1.00122 0.985035
0.999723 0.998184 0.998824
0.999737 0.998633 0.998635
1.00073 0.999989 0.997292
1.00063 0.999997 0.997338
1.00057 0.999991 0.997375
1.00043 1 0.996154
1.00227 0.999978 0.99159
1.00057 0.99997 0.996064
1.00241 1.00009 0.991269
1.00055 0.999993 0.997388
1.00212 0.999917 0.991156
1.00239 1.00006 0.992043
1.00462 0.999612 0.987242
1.00246 0.999997 0.991926
1.00472 0.999832 0.986861
1.00055 1.00001 0.994672
1.00024 1.00003 0.994906
0.999691 1.00128 0.994688
1.00024 0.999846 0.995067
1.00241 1 0.991419
1.00234 0.999933 0.991578
1.00213 1.00046 0.991346
1.00454 1.00039 0.987258
1.00056 0.999995 0.997386
1.00044 1.00004 0.994741
1.00217 0.999979 0.99141
1.00228 1.00005 0.991516
1.00019 1.00052 0.99606
1.00153 1.00162 0.991542
1.00227 0.999949 0.991634
1.00464 1 0.987368
1.00441 1.00073 0.987155
1.00463 1.00013 0.987274
1.00522 1.00024 0.985526
1.0021 0.999955 0.991172
1.00207 1.00003 0.991802
1.00453 0.999572 0.987891
1.00461 0.999861 0.987452
1.00463 0.999948 0.987329
1.00524 0.999458 0.986528
0.999964 1.0001 0.997874
1.00524 0.999919 0.985816
1.00075 1.00256 0.990744
1.00399 1.00125 0.986599
1.00519 1.00067 0.985188
1.0052 0.999517 0.98623
0.99996 1.00247 0.992255
1.00053 1.00487 0.988863
1.00075 0.999995 0.997348
1.00048 1.00031 0.997397
1.00223 1.00006 0.990757
1.00006 0.999702 0.997976
1.00096 1.00217 0.990817
1.00177 1.00091 0.990714
1.004 1.00133 0.986557
0.999948 0.999242 0.998237
0.999804 1.00097 0.994109
1.00243 0.999996 0.99129
1.00216 1.00035 0.991386
1.00467 1.00021 0.986494
1.00053 1.00215 0.991671
1.0043 1.00077 0.986584
1.00302 1.00292 0.986653
1.00498 1.00111 0.985005
1.00012 1.00187 0.992787
0.999831 1.00009 0.995023
1.00058 1.00423 0.9898
1.00473 1.00007 0.98656
1.00453 1.00042 0.986524
1.00524 1.00002 0.985728
1.00191 1.00427 0.987253
1.00508 1.00072 0.985216
1.00451 1.00203 0.984982
1.00515 1.00114 0.984721
0.999717 0.997788 0.998996
0.999683 0.998088 0.998897
0.999666 0.998474 0.998752
0.999885 1.00168 0.993164
0.999783 0.999665 0.998182
1.00078 0.999971 0.997304
1.00066 0.999997 0.997309
1.0023 1.0001 0.990669
1.00217 0.999979 0.991002
1.00055 0.999993 0.997371
1.00052 0.999992 0.997385
1.00211 0.999926 0.991151
1.00232 1.00005 0.991419
1.00461 0.999611 0.987242
1.00235 1.00003 0.990615
1.0047 0.999832 0.986857
1.00207 0.999925 0.991203
1.00457 0.99955 0.987371
1.00467 0.999702 0.987066
1.00523 0.998427 0.987473
1.00474 0.999959 0.986682
1.00527 0.998948 0.986874
1.00053 0.999993 0.997382
1.00015 1.00007 0.995014
1.00219 0.999975 0.990422
1.0024 1.00004 0.991385
0.999657 1.00093 0.997795
1.00193 1.00126 0.991679
1.00239 0.99992 0.991528
1.00466 0.999946 0.987343
1.00462 1.00021 0.987303
1.00437 1.0008 0.987161
1.00522 1.00023 0.985551
1.00208 0.999944 0.991174
1.0022 1.00003 0.991669
1.00456 0.999557 0.987575
1.00464 0.999928 0.987439
1.00005 1.00017 0.997773
1.001 1.00226 0.991456
1.00387 1.00154 0.986839
1.00464 0.999989 0.987298
1.00524 0.999268 0.986655
1.00517 1.00065 0.985211
1.00523 0.999964 0.985893
1.0052 0.999519 0.986256
1.00005 1.00239 0.99224
1.00067 1.00475 0.988874
1.00453 0.99959 0.987394
1.00457 0.99974 0.987687
1.00524 0.998729 0.987286
1.00525 0.998848 0.987011
1.00524 0.999503 0.986421
1.00522 0.997916 0.987948
1.00035 1.00266 0.991381
1.0052 0.998813 0.986951
1.00292 1.00288 0.986788
1.00513 1.00095 0.984871
1.00519 1.00044 0.985472
1.00518 0.998248 0.987635
1.00101 1.00489 0.988093
1.00039 1.00432 0.989767
1.00156 1.00474 0.98759
1.00234 0.999982 0.990677
0.999792 0.999124 0.998402
0.999781 1.00087 0.994157
1.00202 1.00039 0.990785
1.00467 1.00021 0.98648
1.00044 1.00226 0.99161
1.00303 1.00284 0.986636
1.00433 1.00072 0.986589
1.00505 1.00099 0.984976
1.00005 1.00185 0.992811
0.999836 0.999974 0.995066
1.00036 1.00431 0.989791
1.00472 1.00008 0.986544
1.00454 1.00041 0.986515
1.00525 1.00003 0.985708
1.00193 1.00424 0.987261
1.00514 1.00073 0.985162
1.00455 1.00196 0.984982
1.00517 1.00103 0.984736
0.999923 0.999349 0.995571
1.00117 1.00454 0.988328
1.00029 1.00309 0.991217
1.00101 1.00475 0.988533
1.00526 0.99965 0.986107
1.00521 1.00039 0.985385
1.0052 0.99913 0.986636
1.00337 1.00338 0.985652
1.00521 1.00026 0.98562
1.00495 1.00164 0.984614
1.00521 1.00077 0.984912
1.00026 1.00076 0.993593
1.00018 0.99854 0.995915
0.999774 0.997517 0.999067
0.999702 0.997743 0.999025
0.999655 0.99801 0.998953
0.999935 1.00085 0.993962
0.999721 0.999101 0.998434
0.999934 1.00173 0.993142
0.999895 0.999737 0.998065
1.00235 1.00006 0.990613
1.00225 1.00004 0.990824
1.00469 0.999834 0.986853
1.0046 0.999613 0.987241
1.00212 0.999938 0.99115
1.00057 0.999988 0.997381
1.00209 0.999924 0.991204
1.00456 0.999558 0.987372
1.00466 0.999709 0.987063
1.00523 0.998437 0.987465
1.00473 0.999969 0.986667
1.00527 0.998948 0.986859
1.00453 0.999558 0.98742
1.00521 0.998306 0.987638
1.00526 0.998652 0.987193
1.00525 0.996353 0.989552
1.00527 0.999279 0.986509
1.00522 0.997351 0.98853
1.0021 0.999935 0.991179
1.00232 1.00001 0.991535
1.00458 0.999527 0.987261
1.00466 0.999985 0.987425
1.00014 1.00027 0.997668
1.00129 1.00206 0.992013
1.00387 1.00175 0.987077
1.00464 1.00002 0.987267
1.00524 0.999076 0.986782
1.00523 1.00001 0.98597
1.00514 1.00062 0.985235
1.0052 0.999518 0.986283
1.00012 1.00238 0.992226
1.0008 1.00466 0.988882
1.00454 0.999501 0.987413
1.00459 0.999723 0.987667
1.00523 0.99857 0.987478
1.00525 0.999048 0.986856
1.00043 1.0026 0.991366
1.00298 1.00285 0.986796
1.00508 1.00102 0.984893
1.00524 0.999621 0.986319
1.00521 0.99767 0.988218
1.00519 1.00036 0.985554
1.0052 0.998812 0.986967
1.00518 0.998183 0.987626
1.0011 1.00481 0.988089
1.00138 1.00466 0.987599
1.00046 1.00424 0.989773
1.00521 0.998557 0.987491
1.00525 0.998691 0.987339
1.00524 0.996724 0.989163
1.0052 0.997317 0.988558
1.00522 0.997975 0.98773
1.00518 0.99609 0.989711
1.00194 1.00406 0.987371
1.00517 0.997207 0.988461
1.00468 1.00176 0.985025
1.0052 1.0013 0.984431
1.00516 0.999573 0.986279
1.00513 0.99724 0.988614
1.00019 1.00369 0.990794
1.0022 1.00418 0.986862
1.00075 1.00508 0.988239
1.00263 1.00371 0.987015
1.00471 1.00009 0.986527
0.999844 0.999849 0.995108
0.999945 1.00183 0.992838
1.00019 1.00458 0.989783
1.00455 1.0004 0.986506
1.00525 1.00004 0.985689
1.0019 1.00418 0.987273
1.00462 1.00193 0.984984
1.0052 1.00076 0.985107
1.00517 1.00092 0.984752
0.999941 0.999244 0.995604
1.00103 1.00473 0.988342
1.00019 1.00322 0.991236
1.00085 1.00485 0.98852
1.00526 0.99966 0.98609
1.00522 1.00039 0.985362
1.0052 0.999129 0.986625
1.00341 1.00331 0.98567
1.00521 1.00033 0.985533
1.00501 1.00146 0.984621
1.00521 1.00073 0.985023
1.00009 0.998777 0.995825
1.00031 1.00197 0.992336
1.00204 1.00425 0.98716
1.00045 1.00467 0.989704
1.00171 1.00396 0.988195
1.00522 0.99854 0.987236
1.00521 0.999684 0.986045
1.00516 0.998143 0.987536
1.00418 1.002 0.98544
1.00516 0.999753 0.986109
1.00461 1.00168 0.984632
1.00031 1.00084 0.993448
1.00032 1.00217 0.99215
1.00018 1.0008 0.993716
1.00025 1.00077 0.993589
1.00018 0.99837 0.996589
1.00016 0.99852 0.996231
0.999939 0.997306 0.99786
0.999781 0.997476 0.99907
0.999695 0.997683 0.999045
0.999831 1.0002 0.994778
0.999724 0.998608 0.998669
0.999945 1.00091 0.993937
0.999791 0.999224 0.998352
1 1.00166 0.99312
0.99999 0.999836 0.99795
1.00472 0.999976 0.986653
1.00465 0.999713 0.98706
1.00526 0.998967 0.986844
1.00523 0.998445 0.987456
1.00455 0.999566 0.987373
1.00208 0.999921 0.991203
1.00453 0.999559 0.987421
1.00521 0.99831 0.987636
1.00526 0.99867 0.987179
1.00523 0.99624 0.98967
1.00526 0.999287 0.986495
1.00523 0.99736 0.988511
1.0052 0.998297 0.987659
1.00524 0.995962 0.990004
1.00523 0.996764 0.989135
1.00518 0.995161 0.99071
1.00522 0.997965 0.98787
1.0052 0.995688 0.989952
1.00454 0.999414 0.987433
1.00462 0.999719 0.987647
1.00523 0.998424 0.98767
1.00525 0.999251 0.986701
1.00054 1.00254 0.991354
1.00289 1.00293 0.986804
1.00505 1.00111 0.984913
1.00525 0.999739 0.986216
1.00521 0.997422 0.988488
1.0052 0.998811 0.986984
1.00519 1.00028 0.985634
1.00517 0.998119 0.987616
1.00122 1.00472 0.988083
1.00134 1.00462 0.98761
1.00052 1.00415 0.989779
1.00521 0.998472 0.987542
1.00525 0.998684 0.987331
1.00524 0.996455 0.989454
1.0052 0.997453 0.988428
1.0019 1.00418 0.98736
1.00465 1.00178 0.985033
1.00518 1.00135 0.984404
1.00522 0.998228 0.987492
1.00519 0.995877 0.98989
1.00517 0.999539 0.986216
1.00517 0.997231 0.988467
1.00515 0.997105 0.988725
1.00238 1.00401 0.986844
1.00251 1.00378 0.98694
1.00026 1.00356 0.990798
1.00064 1.00508 0.988356
1.00524 0.996185 0.989751
1.00521 0.997028 0.988897
1.00519 0.995335 0.990543
1.00518 0.995365 0.99036
1.00518 0.996396 0.989265
1.0052 0.995281 0.990382
1.00377 1.00272 0.98575
1.00515 0.995791 0.989696
1.00515 1.002 0.98399
1.00514 1.00111 0.984629
1.00517 0.998968 0.986625
1.00516 0.997073 0.988771
1.00015 1.00266 0.991821
1.00034 1.00502 0.98905
1.00342 1.00278 0.986107
1.00108 1.00506 0.987939
1.00302 1.00333 0.986823
0.999953 0.999159 0.995636
1.00526 0.999669 0.986073
1.00011 1.00332 0.991255
1.0009 1.00483 0.988353
1.00071 1.0049 0.988506
1.00524 1.00039 0.985339
1.00519 0.999128 0.986615
1.0036 1.00302 0.985686
1.00512 1.00129 0.984628
1.0052 1.00039 0.985447
1.00522 1.0007 0.985135
1.0001 0.998752 0.995844
1.00025 1.00203 0.992362
1.00208 1.00419 0.987159
1.00024 1.0047 0.989696
1.00149 1.00393 0.9882
1.00521 0.998534 0.987225
1.0052 0.999675 0.986035
1.00516 0.998113 0.987512
1.00435 1.00189 0.985465
1.00517 0.999799 0.985965
1.00485 1.0017 0.984633
1.00034 1.00119 0.993096
1.00029 1.00362 0.990935
1.0031 1.00248 0.986979
1.00058 1.00503 0.989255
1.0021 1.0026 0.988818
1.00517 0.997408 0.988301
1.00515 0.998866 0.986769
1.00517 0.997317 0.987955
1.0039 1.00146 0.985891
1.00491 1.00059 0.985255
1.00031 1.00083 0.993446
1.00032 1.00211 0.992099
1.00021 1.00227 0.99211
1.00039 1.00269 0.991668
1.00022 1.0023 0.992179
1.00009 1.00085 0.993787
1.00017 1.00079 0.993717
1.00018 0.998328 0.996638
1.00025 1.00079 0.993585
1.00019 0.998397 0.996596
1.00003 0.997094 0.997895
1.00016 0.998521 0.99654
0.999895 0.997279 0.998474
0.999791 0.997419 0.999074
0.99986 0.999395 0.995544
0.999851 1.00025 0.994748
0.999684 0.998099 0.998907
0.999767 0.998683 0.998581
0.999956 1.00097 0.99391
0.999877 0.999286 0.998255
1.00526 0.999293 0.986481
1.00526 0.998671 0.987167
1.00523 0.997363 0.988492
1.00522 0.996142 0.989789
1.0052 0.998314 0.987634
1.00453 0.99956 0.987422
1.0052 0.9983 0.987661
1.00524 0.995939 0.99002
1.00523 0.996761 0.989131
1.00519 0.995068 0.990791
1.00523 0.997956 0.98785
1.0052 0.995657 0.990028
1.00524 0.995945 0.990031
1.00522 0.995085 0.990798
1.00518 0.99516 0.990622
1.00518 0.99493 0.99092
1.00519 0.996575 0.98916
1.00519 0.99507 0.99049
1.00521 0.998382 0.987594
1.00525 0.998689 0.987323
1.00524 0.996185 0.989746
1.00519 0.997586 0.988298
1.00187 1.00427 0.98735
1.00461 1.00179 0.985041
1.00515 1.00134 0.984378
1.00522 0.998484 0.987255
1.0052 0.995664 0.990069
1.00516 0.997255 0.988474
1.00518 0.999516 0.986155
1.00516 0.996966 0.988837
1.00238 1.00396 0.986828
1.0022 1.00382 0.986866
1.00034 1.00346 0.990802
1.00051 1.00507 0.988475
1.00525 0.996193 0.989744
1.00521 0.997137 0.98878
1.00519 0.995152 0.990743
1.00519 0.995379 0.990337
1.00349 1.00313 0.985724
1.00501 1.002 0.983981
1.00514 1.00106 0.984608
1.00517 0.99661 0.98906
1.00519 0.995165 0.990474
1.00515 0.999016 0.986596
1.00516 0.995813 0.98969
1.00515 0.9968 0.988923
1.00359 1.00268 0.986108
1.00294 1.00321 0.986878
1.00108 1.00506 0.987929
1.00015 1.00265 0.991768
1.00024 1.00493 0.98917
1.0052 0.994944 0.990957
1.00515 0.995191 0.990728
1.00522 0.994945 0.990602
1.00517 0.995235 0.990307
1.00453 1.00233 0.984832
1.00517 0.995566 0.990032
1.00511 1.00231 0.983599
1.0051 1.00085 0.984799
1.00512 0.998821 0.986718
0.999994 1.00167 0.992847
1.00011 1.00455 0.990126
1.0007 1.00505 0.988739
1.00416 1.00235 0.985712
1.00136 1.00504 0.987219
1.00326 1.00275 0.986256
1.0001 0.99873 0.995863
1.00019 1.00207 0.992388
1.00521 0.998527 0.987215
1 1.00473 0.989687
1.00193 1.00436 0.98716
1.00129 1.00388 0.988205
1.0052 0.999667 0.986024
1.00516 0.998085 0.987487
1.00444 1.00177 0.98549
1.00507 1.00176 0.984634
1.00517 0.999836 0.98582
1.00031 1.00117 0.993109
1.00011 1.00373 0.990938
1.00323 1.0025 0.986825
1.00036 1.00503 0.989234
1.00198 1.00238 0.988952
1.00518 0.997392 0.988287
1.00515 0.998877 0.986746
1.00517 0.997359 0.987984
1.00425 1.00138 0.985763
1.00496 1.00072 0.985243
1.00031 1.00257 0.991821
0.999742 1.00466 0.990306
1.00374 1.00063 0.987476
1.00058 1.00428 0.989498
1.00281 1.00081 0.989032
1.00517 0.996074 0.989322
1.00515 0.998839 0.986673
1.00516 0.997327 0.987832
1.00428 1.0011 0.985886
1.00492 1.00051 0.985386
1.00032 1.00081 0.993444
1.00032 1.00213 0.992122
1.00012 1.00269 0.991809
1.00014 1.00235 0.99207
1.00017 1.00238 0.99217
1.0002 1.00283 0.991653
1.00015 1.00277 0.991877
1.0001 1.00319 0.991319
1.00011 1.00245 0.992216
1.00004 1.00099 0.993753
1.00009 1.00085 0.993787
1.00014 0.998355 0.99667
1.00016 1.00078 0.993718
1.00018 0.998351 0.996643
1.00007 0.996975 0.997921
1.00019 0.998409 0.996605
1.00001 0.997072 0.997901
0.999845 0.997245 0.999102
0.999913 0.998797 0.996072
0.999845 0.999501 0.995501
0.999687 0.997718 0.999058
0.99987 1.00031 0.994718
0.999726 0.998225 0.998831
0.999815 0.998781 0.998506
1.00523 0.997946 0.98783
1.00522 0.996761 0.989127
1.00519 0.995626 0.990103
1.0052 0.994962 0.990872
1.00524 0.995914 0.990035
1.0052 0.998303 0.987663
1.00524 0.996009 0.989956
1.00522 0.995089 0.990806
1.00519 0.995126 0.99068
1.00518 0.994929 0.990896
1.00519 0.996577 0.989161
1.00519 0.995018 0.990554
1.00522 0.994951 0.990972
1.00519 0.994953 0.990934
1.00521 0.994929 0.990751
1.0052 0.995344 0.990195
1.00525 0.996201 0.989736
1.00521 0.997235 0.988663
1.00518 0.994966 0.990943
1.0052 0.995394 0.990314
1.00335 1.00339 0.985698
1.00497 1.00198 0.983972
1.00515 1.00103 0.984588
1.00517 0.996823 0.988854
1.00518 0.995051 0.990564
1.00517 0.995834 0.989684
1.00514 0.999053 0.986567
1.00515 0.996522 0.989074
1.00364 1.00262 0.98611
1.00296 1.00281 0.98693
1.00103 1.00505 0.987917
1.00018 1.00257 0.991719
1.00023 1.00482 0.989291
1.00521 0.99494 0.990954
1.00515 0.995273 0.990627
1.00521 0.994946 0.99061
1.00434 1.00256 0.984828
1.00489 1.00232 0.983625
1.00508 1.0008 0.984793
1.00517 0.995298 0.990263
1.00514 0.998548 0.98705
1.00515 0.995595 0.989901
1.00004 1.0015 0.993006
1.00418 1.0021 0.985642
1.00289 1.00238 0.987215
1.00156 1.00506 0.987219
1.00069 1.00506 0.988863
1.00011 1.0045 0.990049
1.00517 0.994935 0.990984
1.0052 0.994929 0.990719
1.00518 0.994914 0.990605
1.00514 0.99502 0.990557
1.00501 1.00234 0.984296
1.00511 0.996715 0.988743
1.00486 1.00248 0.983454
1.005 1.00121 0.984542
1.00009 1.00045 0.993973
0.999998 1.00336 0.991486
1.00035 1.00497 0.989466
1.00123 1.00504 0.987758
1.00418 1.00268 0.984726
1.00291 1.0041 0.98578
1.00028 1.00115 0.993121
0.999967 1.00381 0.990943
1.00518 0.997376 0.988272
1.00012 1.00505 0.989214
1.0034 1.00251 0.986669
1.00161 1.00232 0.989091
1.00514 0.998889 0.986723
1.00517 0.997409 0.988011
1.00454 1.00135 0.985633
1.00502 1.00084 0.98523
1.00023 1.00263 0.991831
0.99988 1.0047 0.990185
1.0041 1.00057 0.987378
1.00033 1.00453 0.989536
1.00267 1.00056 0.989393
1.00518 0.996048 0.989475
1.00516 0.998775 0.986798
1.00517 0.99746 0.987809
1.00435 1.00124 0.985804
1.00496 1.00061 0.985176
0.999815 1.0033 0.991453
0.999775 1.00504 0.989617
1.00403 0.999828 0.987632
1.00169 1.00208 0.98896
1.00522 0.995069 0.990084
1.00515 0.996571 0.989152
1.00501 0.999582 0.985961
1.00467 1.0005 0.985501
1.00035 1.00209 0.992145
1.00017 1.00269 0.99181
0.999817 1.00304 0.992281
1.0001 1.00248 0.99216
1.00002 1.00297 0.991638
1.00008 1.00249 0.992208
1.00004 1.00275 0.992003
1.00013 1.00321 0.991332
1 1.00206 0.99281
1.00005 1.00347 0.99127
1.00009 1.00354 0.991019
1.00009 1.00255 0.992142
0.999992 1.00117 0.993612
1.00003 1.00098 0.993751
1.00009 0.998418 0.996693
1.00008 1.00084 0.993787
1.00015 0.998385 0.996672
1.00008 0.996941 0.997936
1.00019 0.998376 0.99665
1.00006 0.996951 0.997926
0.999996 0.997057 0.997903
1.00001 0.998323 0.996391
0.999919 0.998856 0.996029
0.999732 0.997374 0.999149
0.999829 0.999607 0.995456
0.999708 0.997776 0.99902
0.999777 0.9983 0.998727
1.00519 0.996578 0.989163
1.00519 0.995094 0.990737
1.00518 0.994965 0.990618
1.00518 0.994928 0.990871
1.00522 0.995094 0.990815
1.00524 0.99606 0.989881
1.00522 0.995017 0.990887
1.00519 0.99495 0.99094
1.0052 0.994929 0.990746
1.0052 0.995277 0.990277
1.00519 0.994961 0.990984
1.00523 0.994934 0.990793
1.00524 0.99492 0.990562
1.00521 0.994937 0.990952
1.00515 0.995354 0.990526
1.0052 0.99495 0.990618
1.00417 1.00279 0.984824
1.00483 1.00235 0.983645
1.00509 1.00073 0.984786
1.00516 0.995361 0.990219
1.00512 0.995583 0.989769
1.00514 0.998261 0.987384
1.00418 1.00196 0.985566
1.00247 1.00216 0.988167
1.00186 1.00507 0.98722
1.00007 1.00135 0.993166
1.00051 1.00506 0.988986
1.00007 1.00451 0.98997
1.00517 0.994932 0.990987
1.00519 0.994922 0.990715
1.00518 0.994915 0.990616
1.00462 1.00259 0.984316
1.00487 1.00248 0.983361
1.00499 1.00098 0.98487
1.00514 0.99498 0.990509
1.0051 0.996696 0.988672
1.0001 1.00038 0.994151
1 1.00335 0.991484
1.00388 1.00237 0.985114
1.00266 1.00413 0.986504
1.00113 1.00503 0.988025
1.00028 1.00501 0.989426
1.0052 0.994927 0.990847
1.00522 0.994901 0.990506
1.00515 0.994895 0.990625
1.00508 0.99498 0.99033
1.00482 1.00316 0.98285
1.00489 0.999913 0.985937
1.0048 1.0031 0.983192
1.00023 0.999863 0.994566
1.00027 1.001 0.993413
1.00002 1.00188 0.992773
1.00003 1.00441 0.990346
1.00049 1.00503 0.988756
1.00093 1.00469 0.987701
1.00368 1.00255 0.985325
1.00287 1.00396 0.987192
1.00014 1.00273 0.99184
1 1.00478 0.990064
1.00518 0.996015 0.989628
1.0004 1.00456 0.98957
1.00448 1.00054 0.987282
1.00249 1.00037 0.989748
1.00515 0.998692 0.986924
1.00516 0.997569 0.987788
1.00449 1.00134 0.985725
1.00496 1.00068 0.984968
0.999893 1.0034 0.99133
0.999928 1.00503 0.989652
1.00428 0.999861 0.987713
1.00195 1.00225 0.989054
1.00523 0.995059 0.990167
1.00515 0.996548 0.988994
1.00503 0.999517 0.986012
1.00483 1.00058 0.985356
0.999737 1.00392 0.991013
1.00526 0.994886 0.990328
1.00134 1.00441 0.988708
1.00403 1.00027 0.98745
1.00519 0.995456 0.990175
1.00508 0.998318 0.986158
1.00481 1.00143 0.984841
1.00019 1.00272 0.99181
0.999773 1.00299 0.992224
0.999407 1.00274 0.993352
1.00008 1.00246 0.992201
1.00016 1.00322 0.991345
0.99969 1.00296 0.992129
1.00007 1.00256 0.99213
1.00002 1.00358 0.991045
0.999663 1.00225 0.992967
1.00017 1.00333 0.991263
0.999939 1.00127 0.994077
0.999825 1.00283 0.992283
1.00015 1.00428 0.99029
1.00029 1.00355 0.990748
1.00007 1.00283 0.991872
0.999946 1.00144 0.99342
0.999963 1.00124 0.9936
1.00003 0.998569 0.99668
1.00001 1.00102 0.993748
1.00009 0.998469 0.996688
1.00005 0.99695 0.997963
1.00015 0.998418 0.996676
1.00008 0.996916 0.997939
1.00006 0.99693 0.997927
1.00019 0.999948 0.99457
1.00009 0.998048 0.996545
1.00002 0.998365 0.996369
0.999819 0.997059 0.999203
0.99992 0.998925 0.995986
0.999744 0.997449 0.999126
0.999737 0.997865 0.998984
1.0052 0.995211 0.990357
1.00519 0.99493 0.990742
1.0052 0.994947 0.990947
1.00522 0.995095 0.990802
1.00519 0.994961 0.990973
1.00523 0.994936 0.990804
1.00524 0.994919 0.990528
1.00521 0.994946 0.990857
1.00528 0.994931 0.99061
1.00528 0.994921 0.99106
1.00517 0.99493 0.99099
1.00519 0.994914 0.990711
1.00517 0.994912 0.990627
1.0041 1.0028 0.984341
1.00503 1.00252 0.983278
1.00492 1.00081 0.985198
1.00514 0.994943 0.990461
1.0051 0.996748 0.988602
1.00374 1.00235 0.985509
1.00246 1.00419 0.987227
1.00087 1.00502 0.988292
1.00009 1.00026 0.994329
1.0001 1.00328 0.991483
1.00027 1.00504 0.989382
1.0052 0.994929 0.990834
1.00019 0.999898 0.994561
1.00022 1.00106 0.993324
1.00522 0.994904 0.990522
1.00514 0.99489 0.990633
1.00482 1.00322 0.982972
1.00478 1.00289 0.983302
1.00489 0.999769 0.985861
1.00509 0.995132 0.990256
1.00005 1.00185 0.992958
1.00009 1.00437 0.990314
1.00394 1.00309 0.984916
1.00211 1.00382 0.987864
1.00107 1.00473 0.987964
1.00049 1.00503 0.988861
1.00526 0.994927 0.990593
1.00521 0.994816 0.990543
1.00511 0.99489 0.990317
1.00475 0.995514 0.990114
1.00431 1.00376 0.983263
1.00427 1.00335 0.98392
1.00009 1.00142 0.993068
1.00026 1.00096 0.993455
1.00055 1.0013 0.992806
1.00028 1.00281 0.991407
1.00013 1.00489 0.989761
1.00161 1.00431 0.988079
1.00015 1.00514 0.988347
1.003 1.00101 0.987449
0.999982 1.00345 0.99121
1.00016 1.00503 0.98969
1.00523 0.995054 0.99025
1.00514 0.996557 0.988837
1.00222 1.00242 0.989149
1.0045 0.999863 0.987793
1.00504 0.999476 0.98606
1.00505 1.00068 0.98521
0.999915 1.00389 0.990951
1.00526 0.994885 0.990498
1.00113 1.00441 0.988734
1.0042 1.00034 0.98714
1.00519 0.995421 0.990191
1.00508 0.998461 0.986428
1.00477 1.00134 0.984885
1.00007 1.00462 0.990338
1.00459 0.994905 0.991457
1.00274 1.00276 0.987965
1.00436 1.00135 0.98589
1.00488 0.996819 0.989286
1.00362 1.00167 0.98561
0.998516 0.997897 0.988835
0.999671 1.00302 0.992168
0.999159 1.0029 0.993327
0.999662 1.00245 0.993535
1.00002 1.00262 0.992116
0.999988 1.00364 0.99107
1.00036 1.00312 0.991257
0.99946 1.00228 0.993126
1.00006 1.00284 0.991872
1.00023 1.00365 0.990735
0.99986 1.00133 0.993914
1.00012 1.00432 0.990305
0.999995 1.00275 0.992103
0.999632 1.00188 0.993841
1.00036 1.00462 0.989708
1.00018 1.00436 0.990246
1.00042 1.00381 0.990294
1.0001 1.00308 0.991413
1.00024 1.00384 0.990791
1.0001 1.00318 0.991256
0.999949 1.00149 0.99335
0.99996 1.00143 0.993409
0.999976 0.998695 0.996078
0.999975 1.00122 0.993587
1.00003 0.998626 0.996368
1.00002 0.997027 0.999127
1.0001 0.998514 0.996684
1.00007 0.996915 0.997966
1.00009 0.996892 0.997938
1.00012 0.999954 0.994626
1.00021 0.999873 0.994584
1.0001 0.997958 0.996649
1.00007 0.998063 0.996804
0.999893 0.996884 0.999235
1.00001 0.998401 0.996346
0.999812 0.99715 0.999189
0.999757 0.997497 0.999104
1.00523 0.994917 0.990493
1.00522 0.994937 0.990815
1.00519 0.994962 0.990962
1.00522 0.994948 0.990857
1.00527 0.994929 0.990615
1.00528 0.994926 0.990687
1.0053 0.994926 0.990632
1.0012 0.994871 0.984973
1.00445 0.994879 0.993002
1.00001 1.0014 0.993371
1.00521 0.994932 0.990822
1.00522 0.994905 0.990538
1.00513 0.994886 0.990641
1.00441 1.00318 0.983085
1.00492 1.00279 0.983412
1.00494 0.999699 0.98579
1.00509 0.995285 0.99018
1.00452 1.00305 0.984506
1.00128 1.00369 0.988536
1.00121 1.00478 0.988229
1.00014 0.999984 0.994557
1.00052 1.00503 0.988966
1.00002 1.00181 0.993138
1.00021 1.0043 0.990282
1.00022 1.00103 0.993234
1.00525 0.994912 0.990591
1.0001 1.00137 0.993175
1.00018 1.00108 0.993456
1.00048 1.00129 0.992832
1.00522 0.994838 0.990513
1.00512 0.994889 0.990343
1.0042 1.00388 0.983328
1.00439 1.00253 0.98454
1.00469 0.996053 0.990001
1.00004 1.00298 0.991557
1.00028 1.0048 0.989621
1.00291 1.00222 0.987222
1.00076 1.00492 0.988334
1.0014 1.00415 0.988223
1.00523 0.994909 0.990761
1.00513 0.99478 0.990771
1.00506 0.995312 0.989915
1.00449 0.997981 0.989266
1.00224 1.00371 0.987189
0.999987 1.00245 0.992193
1.00058 1.00134 0.992346
0.99998 1.00218 0.992311
1.00001 1.00435 0.991144
1.00021 1.00473 0.989706
1.00031 1.00457 0.988938
1.00129 1.00253 0.989005
1.00017 1.00381 0.990887
1.00078 1.00443 0.988758
1.00528 0.99487 0.99066
1.0052 0.995365 0.990204
1.00507 0.998633 0.986698
1.00432 1.00038 0.986829
1.00474 1.00119 0.984932
1.00026 1.00452 0.990401
1.00456 0.994974 0.991608
1.00268 1.00263 0.987788
1.0043 1.00134 0.98584
1.00498 0.99617 0.989557
1.0038 1.00186 0.985639
0.998536 0.997897 0.98669
1.00046 1.00427 0.99006
1.00255 0.998992 0.991108
1.00289 1.00179 0.987727
1.00259 1.00158 0.987456
1.00336 0.997742 0.99
1.00003 0.994918 0.950458
0.996883 0.994868 0.969302
0.996161 1.00127 0.988649
0.999822 0.995386 0.884277
0.994705 0.994788 0.854541
0.998945 1.00308 0.993305
0.999077 1.00286 0.993762
0.999335 1.00299 0.993507
1.00004 1.00285 0.991872
1.0003 1.00353 0.99072
1.00011 1.00433 0.990319
1.00018 1.00264 0.99192
0.999746 1.00139 0.993752
1.00024 1.00428 0.990186
1.0001 1.00307 0.991492
1.00039 1.00381 0.990339
0.999758 1.0016 0.993609
1.00023 1.00454 0.989949
1.00024 1.00471 0.989982
0.999619 1.00452 0.990715
1.00016 1.00468 0.989941
1.00039 1.00388 0.990199
1.00017 1.00306 0.99131
1.0003 1.00405 0.990318
1.00014 1.00416 0.990584
1.00003 1.00384 0.990919
1.00018 1.00391 0.990698
1.00015 1.003 0.991593
1.00013 1.00318 0.991253
0.999996 1.00143 0.993351
0.999966 1.00148 0.993351
0.999965 0.998775 0.996056
0.999946 1.00147 0.9934
0.999971 0.998719 0.996072
0.999996 0.997018 0.999139
1.00002 0.99869 0.996058
1.00002 0.997019 0.998537
1.00008 0.996881 0.997967
1.00004 0.999979 0.994739
1.00014 0.999946 0.99463
1.0001 0.997868 0.99674
1.00022 0.999809 0.994598
1.0001 0.997905 0.996908
0.999939 0.996716 0.999266
1.00007 0.998117 0.996523
0.999882 0.99695 0.999221
0.999811 0.997205 0.999177
1.00526 0.994927 0.99062
1.00522 0.99495 0.990858
1.00528 0.994935 0.990319
1.00086 0.994889 0.985098
1.00529 0.994923 0.990634
1.00429 0.99523 0.992607
1.00505 0.996277 0.991227
0.996459 0.994898 0.968534
1.00043 0.996802 0.987251
1.00005 1.00136 0.993377
1.00008 1.00134 0.993355
0.999923 1.0025 0.992401
0.999921 1.00225 0.992667
1.00525 0.994908 0.990589
1.00522 0.994864 0.990483
1.00513 0.994889 0.990368
1.0048 1.0037 0.983388
1.0043 1.00123 0.985152
1.00461 0.996573 0.989883
1.00249 1.00355 0.987005
1.00156 1.0047 0.988321
1.00122 1.00387 0.988366
1.00008 1.00127 0.993456
1.00029 1.00481 0.989479
1.00005 1.00308 0.991707
1.00011 1.00137 0.993282
1.00035 1.00131 0.992851
1.00524 0.994892 0.990767
1.00006 1.00246 0.992237
1.0006 1.00135 0.992522
0.999563 1.00208 0.99316
1.00513 0.994796 0.990669
1.00497 0.99536 0.98993
1.00295 1.00277 0.98712
1.00415 0.997556 0.98973
1.00014 1.00398 0.990898
1.00034 1.00485 0.989176
1.00146 1.00347 0.988862
1.00121 1.00428 0.988696
1.00446 0.994819 0.99173
1.00502 0.995373 0.990737
1.00496 0.996063 0.989681
1.00227 0.99911 0.991801
0.999607 1.0035 0.991848
1.00029 1.00245 0.991665
0.998959 1.0045 0.991889
0.999337 1.00503 0.990174
1 0.994897 0.940557
1.00037 1.00438 0.990462
1.00255 1.00262 0.987609
1.00447 0.9949 0.99177
1.00506 0.995641 0.989823
1.0039 1.00197 0.985654
1.0042 1.00142 0.985784
0.998669 0.997474 0.984466
1.00035 1.00424 0.990316
1.0026 0.99812 0.991131
1.00281 1.00201 0.987749
1.00322 1.00121 0.987446
1.00368 0.997798 0.98985
1.00092 0.994912 0.939409
0.996872 0.994866 0.965035
0.996286 1.00198 0.988602
0.999772 0.994815 0.888262
0.994709 0.994793 0.843642
1.00019 1.00398 0.990908
0.999794 0.994875 0.89524
0.994697 0.994811 0.851984
1.00122 1.00007 0.991424
1.00151 1.0017 0.989936
1.00163 1.00037 0.990902
0.995889 1.00208 0.989645
1.00044 0.995721 0.94649
0.994899 0.995141 0.962571
0.997304 0.997446 0.897182
0.994754 0.994807 0.84578
0.998634 1.00315 0.993988
0.999132 1.00294 0.993387
0.999289 1.00366 0.992922
1.00013 1.00302 0.99157
1.00037 1.00385 0.990384
0.999979 1.00451 0.990129
1.00009 1.00449 0.99019
0.999926 1.00129 0.993377
1.00016 1.00308 0.991312
1.00005 1.00483 0.989998
1.00015 1.00469 0.989926
1.00047 1.00377 0.990278
0.999568 1.00454 0.990884
0.999753 1.00508 0.990422
0.998726 1.00494 0.991584
1.00033 1.0043 0.99002
1.00037 1.00387 0.99039
1.00034 1.00402 0.990307
1.00006 1.00416 0.990661
1.00038 1.00429 0.989941
0.999909 1.00426 0.990741
0.999554 1.00428 0.990865
0.999766 1.00485 0.990259
0.999913 1.00415 0.990792
1.0001 1.00378 0.990919
1.00009 1.00291 0.991759
1.00013 1.00394 0.990606
1.00016 1.00299 0.991519
1.00005 1.00144 0.993274
1.00017 1.00316 0.99125
0.999978 1.00146 0.993356
1.00004 0.998709 0.996614
0.999948 1.00151 0.993352
0.999978 0.998733 0.996353
1.00001 0.997034 0.997957
0.999967 0.998736 0.996067
0.999995 0.997034 0.99914
1.00004 0.997026 0.997945
1.00011 1.00139 0.993215
0.999983 1.00001 0.994789
1.00004 0.999965 0.994741
1.00009 0.997848 0.996776
1.00015 0.999913 0.994634
1.00011 0.997825 0.996742
0.999977 0.996622 0.999283
1.00009 0.997895 0.997143
0.999956 0.996811 0.998744
0.999926 0.997016 0.998175
1.00049 0.995103 0.985236
1.00528 0.994925 0.990638
1.00403 0.996048 0.992204
0.996664 0.994902 0.969548
1.00041 0.996478 0.987589
1.00505 0.995791 0.991114
1.003 0.997306 0.98785
0.99655 0.996532 0.972545
1.00003 0.994904 0.947777
0.999565 0.996555 0.900534
0.994657 0.994756 0.852849
0.999859 1.00235 0.992553
1.00007 1.00134 0.993371
1.00016 1.00127 0.993339
0.999953 1.00249 0.992399
0.999666 1.00341 0.991948
1.00031 1.00227 0.99194
1.00003 1.00276 0.992196
0.999976 1.00226 0.992537
1.00525 0.994863 0.990769
1.00513 0.994811 0.990567
1.00488 0.99526 0.989948
1.00308 1.00244 0.98706
1.00387 0.9974 0.990202
1.00168 1.00435 0.98871
1.00199 1.00409 0.988456
1.00064 1.00501 0.98865
1.00041 1.0014 0.992701
1.00011 1.00402 0.990648
1.00015 1.00249 0.992285
0.999336 1.00197 0.994004
1.00446 0.994805 0.991913
0.999635 1.00349 0.99192
1.00023 1.00265 0.991936
1.00488 0.995155 0.990705
1.0048 0.995625 0.989848
1.00215 0.999091 0.991392
0.999587 1.00491 0.991011
1.0002 1.00452 0.990291
1.00322 0.994876 0.992001
1.00431 0.997024 0.990745
1.00471 0.995189 0.99102
1.00117 0.999277 0.992848
0.999872 1.00457 0.990447
0.999442 1.00416 0.991486
0.999404 1.00522 0.991112
0.999823 0.994851 0.896998
1.00037 0.99492 0.951625
1.00032 1.0042 0.990573
1.00281 1.00207 0.987777
1.00253 0.99751 0.99116
1.00407 0.997955 0.989706
1.00393 1.00082 0.987453
1.00001 0.99492 0.949041
0.997058 0.994877 0.964293
0.996375 1.00257 0.988514
0.999583 0.995667 0.900833
0.994719 0.994796 0.832282
1.00022 1.00369 0.99085
0.99983 0.994934 0.894662
0.994683 0.994793 0.845993
1.00127 1.00005 0.991473
1.00169 1.00156 0.990003
1.00176 1.00027 0.991369
0.996017 1.00232 0.990298
1.0016 0.996063 0.93952
0.994907 0.994839 0.966146
0.998131 0.998514 0.896568
0.994764 0.994792 0.84452
0.999592 1.00368 0.992657
0.994696 0.994862 0.847689
0.994768 0.994816 0.861552
0.998755 1.00148 0.994691
0.999656 1.00228 0.99391
0.99535 1.00223 0.989527
0.994881 0.996788 0.966023
0.997381 0.997772 0.936209
0.994725 0.999648 0.901652
0.994827 0.994806 0.847373
0.999076 1.00277 0.993272
0.999497 1.0034 0.992694
0.998314 1.00419 0.993061
1.00016 1.00309 0.991314
1.00051 1.00368 0.990358
1.00016 1.00467 0.989911
0.999939 1.00492 0.990014
0.999387 1.00469 0.991054
1.00036 1.00388 0.99039
0.999764 1.00502 0.990303
1.00036 1.00424 0.990033
0.998456 1.005 0.991884
0.996656 1.00508 0.994524
0.999686 1.00453 0.991003
1.0005 1.00431 0.989816
1.00036 1.00399 0.990297
1.00006 1.00409 0.990737
1.00035 1.0044 0.989901
0.999978 1.0042 0.990695
0.999468 1.00417 0.991299
0.999695 1.00476 0.990466
0.999718 1.00453 0.990531
0.99919 1.00438 0.991507
1.00042 1.00242 0.991722
1.00073 1.00344 0.989406
0.999587 1.00481 0.990398
0.999881 1.00477 0.990268
0.99979 1.0046 0.990526
0.999924 1.00419 0.990787
1 1.00306 0.991676
1.00009 1.00382 0.990919
1.0001 1.0029 0.991767
1.00012 1.00135 0.993201
1.00016 1.00299 0.991446
1.00005 1.00142 0.993287
1.0001 0.99871 0.996505
0.99998 1.00145 0.993361
1.00004 0.998689 0.996294
1.00004 0.996964 0.99793
0.999986 0.998709 0.996059
0.999998 0.997036 0.999138
0.999995 0.997029 0.999142
1.00014 1.00168 0.993164
0.99997 1.00014 0.994697
1.00008 1.00146 0.993224
1.00009 0.997847 0.996775
0.999982 1.00002 0.99479
1.00005 0.999973 0.994743
1.0001 0.997835 0.996772
1 0.996563 0.999286
1.0001 0.997796 0.99722
0.999994 0.996628 0.99879
0.999976 0.996822 0.998254
0.999827 0.994954 0.885574
0.994644 0.994783 0.848169
0.997958 0.994889 0.969365
1.00046 0.99543 0.987951
1.0051 0.995061 0.991002
0.996169 0.9958 0.973276
1.00333 0.996205 0.988258
1.00117 0.995213 0.945933
0.999818 0.995331 0.887695
0.994697 0.994764 0.842149
0.998568 0.994848 0.977301
1.00001 0.996199 0.947078
0.997796 0.997986 0.895113
0.994766 0.994776 0.847188
1.00009 1.00326 0.99152
0.999883 1.00224 0.992657
1.00011 1.0013 0.993367
0.999938 1.00248 0.992397
0.999687 1.00323 0.992102
1.00003 1.00355 0.991239
1.00023 1.00271 0.991793
1.00031 1.00322 0.991019
1.00006 1.00269 0.992088
0.999982 1.00236 0.992407
1.00449 0.9948 0.992089
1.0048 0.994944 0.990683
1.0045 0.995338 0.990011
1.00193 0.999209 0.990982
1.00079 1.00443 0.99041
0.999715 1.00513 0.990135
1.00031 1.00246 0.992216
0.999634 1.00353 0.991989
1.00304 0.995178 0.992317
0.999882 1.00464 0.990307
0.999287 1.00428 0.991412
1.0044 0.996256 0.990717
1.00461 0.995291 0.990691
1.00107 0.999264 0.993002
0.999479 1.00521 0.991013
1.00056 0.995968 0.992565
1.00265 0.996685 0.993728
1.00015 1.00143 0.993222
0.999137 1.00475 0.990233
0.999488 1.00496 0.990281
0.999251 1.00508 0.991119
0.994739 0.995299 0.866661
0.999822 0.994877 0.901148
0.999986 0.994915 0.940876
1.00003 1.00366 0.990785
1.00183 1.00144 0.990062
1.00135 1.00004 0.991521
1.00189 1.00004 0.991831
0.999834 0.994857 0.903551
0.999952 0.995589 0.93856
0.994881 0.994845 0.962791
0.996042 1.00239 0.990931
0.997307 0.997578 0.88458
0.99466 0.994795 0.849351
0.99474 0.994794 0.853149
0.999367 1.00334 0.992526
0.994693 0.994903 0.855602
0.994789 0.99482 0.861134
0.998543 1.00138 0.994888
0.999373 1.00195 0.993894
0.995341 0.999466 0.992225
0.994892 0.996653 0.964844
0.997413 0.999469 0.94671
0.996309 0.999874 0.888238
0.994813 0.994798 0.856081
0.997414 1.00339 0.995889
0.994802 0.994983 0.869809
0.994804 0.994781 0.861226
0.995387 1.00211 0.999816
0.994828 0.998995 0.972475
0.994893 0.999949 0.947413
0.994974 0.998592 0.88277
0.994873 0.994835 0.856383
0.999693 1.00301 0.992457
0.998608 1.0041 0.993383
0.996979 1.00495 0.995246
1.00031 1.00396 0.990389
1.00044 1.00415 0.990046
0.999837 1.00489 0.990185
0.998174 1.00505 0.99219
1.0004 1.00437 0.989829
0.999658 1.00453 0.990952
0.996806 1.00513 0.994963
0.995197 1.00525 0.997261
0.997105 1.00497 0.994844
1.00019 1.00414 0.990501
1.00034 1.00449 0.98986
1.00002 1.00416 0.990649
0.999323 1.00418 0.991726
0.999729 1.00454 0.990584
0.999746 1.00475 0.990499
0.999225 1.0045 0.991554
0.999786 1.00402 0.991428
0.997863 1.0047 0.993392
1.00185 0.998711 0.992552
1.0004 1.00223 0.991889
1.00084 1.00268 0.99032
1.00289 1.00329 0.986518
1.00023 1.00446 0.990463
1.00041 1.00365 0.989998
0.999825 1.00469 0.990362
0.999704 1.00464 0.99038
0.999985 1.00468 0.990277
0.999916 1.00446 0.990535
1.00002 1.00344 0.991305
1.00006 1.00409 0.990781
1.0001 1.003 0.991667
1.00017 1.00135 0.993124
1.00017 1.00282 0.991774
1.00015 1.00135 0.993207
1.00015 0.998727 0.996401
1.00006 1.00139 0.993301
1.0001 0.998709 0.996169
1.00005 0.997048 0.997829
1.00005 0.998676 0.995993
1.00002 0.99699 0.998535
1 0.997014 0.999135
1.00017 1.00219 0.992356
1.00004 1.00027 0.994488
1.0001 1.0017 0.992986
1.00009 0.99791 0.996716
0.999979 1.00012 0.994699
1.00005 1.00152 0.99323
1.00003 0.996538 0.999284
1.00008 0.99785 0.996775
0.999985 1.00002 0.994792
1.0001 0.99782 0.996767
1 0.996585 0.999286
0.999977 0.996614 0.999283
0.994673 0.994807 0.852855
0.999842 0.995113 0.894121
0.994784 0.994827 0.859611
0.994665 0.994783 0.846172
0.995915 0.995581 0.970794
1.00351 0.995649 0.988701
1.00007 0.995351 0.943641
0.999825 0.99589 0.900941
0.994746 0.994906 0.831139
0.998302 0.995444 0.976597
1.00157 0.996291 0.93509
0.998048 0.998697 0.89543
0.994786 0.994836 0.841501
0.995429 0.995358 0.970642
0.997443 0.998271 0.936282
0.995131 0.999558 0.882638
0.994821 0.994815 0.843288
1.00014 1.00413 0.990852
1.00003 1.00309 0.991645
0.999881 1.00223 0.992759
0.999705 1.00307 0.992258
1.00045 1.00398 0.99
0.999968 1.00349 0.99139
1.00002 1.00307 0.991648
1.00062 1.00296 0.99096
1.00036 1.00324 0.991095
1.00009 1.00257 0.99198
1.00294 0.994829 0.992626
1.00447 0.995411 0.990708
1.00459 0.99547 0.990362
1.00108 0.998856 0.99317
0.999975 1.00495 0.990913
0.999396 1.00444 0.991343
0.999835 1.00478 0.990168
0.999932 1.00496 0.989972
1.00029 0.995886 0.992872
0.999842 1.00492 0.990167
0.999548 1.00508 0.991082
1.00278 0.996154 0.993889
1.00077 1.00039 0.993071
0.997953 0.996802 0.993566
0.998038 0.999246 0.999392
0.998371 1.00353 0.993465
0.999985 1.00465 0.990239
0.99924 1.00491 0.991362
0.994856 0.995313 0.87461
0.994736 0.995155 0.863696
0.999808 0.994863 0.888569
0.999238 1.00298 0.992406
0.999139 1.00154 0.993863
0.998539 1.00113 0.995097
0.99467 0.994821 0.855366
0.997417 0.997966 0.937221
0.994862 0.996667 0.965227
0.995641 0.997378 0.99515
0.99479 0.999426 0.902563
0.994803 0.994824 0.86091
0.99483 0.994809 0.85643
0.997489 1.00315 0.996312
0.994817 0.994861 0.872552
0.994798 0.994779 0.861451
0.995501 1.00212 0.998769
0.994869 0.998649 0.974143
0.995693 0.99955 0.936822
0.994864 0.994833 0.854874
0.99489 0.999799 0.890468
0.995484 1.00502 0.99852
0.994773 0.994819 0.876498
0.994841 0.994797 0.865087
0.994814 0.994814 0.843983
0.994993 0.999816 0.991717
0.994942 0.99925 0.950888
0.995095 0.999095 0.893928
0.999053 1.00411 0.993703
0.997527 1.00511 0.994379
0.995115 1.00518 0.998401
1.00036 1.00438 0.989842
0.999553 1.00457 0.990899
0.996802 1.00502 0.995389
1.00001 1.00431 0.990455
0.997239 1.00486 0.994853
0.995377 1.00528 0.997186
0.995149 1.00526 0.998057
0.997337 1.00474 0.994448
0.999691 1.00461 0.990642
0.999808 1.00472 0.990531
0.999287 1.00466 0.99161
0.998158 1.00478 0.993259
0.999662 1.00397 0.991327
0.999391 1.00252 0.993373
1.00066 0.999278 0.994094
1.00166 1.00121 0.989692
1.00039 1.00206 0.992059
1.00143 1.00269 0.989931
1.00364 1.00235 0.986151
1.0043 1.00188 0.98532
1.00089 1.00443 0.989062
1.00249 1.00321 0.986722
1.00008 1.00487 0.98994
1.00004 1.0045 0.990481
1.00004 1.00386 0.990589
1.00005 1.0046 0.990325
0.99975 1.00459 0.99044
1.00011 1.00368 0.990926
1.00001 1.00434 0.990545
1.00011 1.00334 0.991315
1.00018 1.00159 0.992883
1.00015 1.00299 0.991659
1.00019 1.00135 0.993114
1.00015 0.998726 0.996379
1.00017 1.00132 0.993214
1.00015 0.998714 0.996074
1.00005 0.997131 0.997773
1.00012 0.998678 0.995864
1.00004 0.997047 0.998473
1.00002 0.997015 0.999113
1.00037 1.00232 0.991714
1.00009 1.0006 0.993829
1.00021 1.00216 0.992354
1.00011 0.997996 0.996579
1.00003 1.00028 0.994342
1.0001 1.0017 0.992812
1.00003 0.99659 0.999266
1.00009 0.997894 0.996722
0.999982 1.00009 0.994702
1.00002 0.996557 0.999285
1.00008 0.997854 0.996775
1 0.996576 0.999286
0.994844 0.994827 0.867589
0.994688 0.994918 0.86152
0.999835 0.994934 0.894295
1.00075 1.00296 0.990628
0.994808 0.994796 0.868008
0.994779 0.994799 0.85948
0.994686 0.994778 0.854017
0.998566 0.995799 0.975494
0.999703 0.99655 0.945791
0.997657 0.997848 0.882659
0.994761 0.994799 0.846067
0.996633 0.995015 0.967317
0.997427 0.999074 0.94587
0.996125 0.99987 0.886601
0.994811 0.994812 0.84745
0.994887 0.995123 0.962857
0.995045 0.999526 0.945431
0.994873 0.999979 0.892131
0.994876 0.994835 0.856093
1.00008 1.00465 0.990117
1.00009 1.00415 0.990645
1.00011 1.00294 0.991771
1.00055 1.00358 0.990302
1.00034 1.00405 0.990225
1 1.00346 0.991538
1.00065 1.00299 0.990963
1.00037 1.00328 0.991168
0.999635 0.996855 0.99307
1.00298 0.995665 0.993999
1.00011 1.00504 0.989709
1.00124 0.999972 0.992914
0.999818 1.0051 0.991041
0.999997 1.00502 0.990053
0.999833 1.00468 0.990188
0.997086 0.996818 0.994261
0.999415 1.00464 0.991558
0.998944 1.00335 0.993559
0.997887 0.999112 0.999529
0.999949 1.00468 0.990558
0.995948 0.999804 0.991072
0.995165 1.00352 0.999835
0.997139 1.00493 0.994233
0.999392 1.0043 0.991926
0.994763 0.994785 0.882064
0.994859 0.995157 0.87373
0.994731 0.995076 0.860704
0.997491 1.00313 0.996758
0.995325 1.00175 0.997716
0.994829 0.994839 0.875176
0.994889 0.99995 0.947423
0.994865 0.998329 0.971494
0.994834 0.999878 0.889817
0.994796 0.994777 0.8616
0.994852 0.994833 0.853377
0.995729 1.00488 0.998197
0.994774 0.994819 0.876316
0.994835 0.994791 0.868162
0.994862 1.00057 0.995183
0.994802 0.994814 0.847967
0.99492 0.998313 0.944607
0.995032 0.999422 0.897596
0.994929 1.00404 0.998299
0.994789 0.994832 0.880511
0.994785 0.994793 0.868655
0.99476 0.99477 0.847744
0.995323 0.999986 0.891858
0.994907 1.00011 0.979716
0.995055 0.999329 0.937358
0.998213 1.00514 0.99352
0.995503 1.00518 0.997979
0.994927 1.00511 0.999088
0.999845 1.0044 0.990409
0.997323 1.00497 0.994866
0.995768 1.00529 0.997124
0.997513 1.00466 0.994383
0.995268 1.00485 0.998071
0.997672 1.00244 0.997211
0.998433 1.00479 0.993119
0.999455 1.004 0.991228
0.999413 1.00267 0.993626
0.998963 1.00318 0.992254
0.999488 0.999794 0.9956
1.0016 1.00085 0.990448
1.00384 1.00257 0.98525
1.00488 1.00176 0.984394
1.00199 1.00269 0.989532
1.00388 1.00248 0.985423
1.00514 1.0009 0.985431
1.00271 1.00297 0.98693
1.00417 1.00198 0.985494
1.00015 1.00507 0.989274
1.00096 1.00438 0.988985
1.00207 1.00312 0.986927
1.0001 1.00417 0.990373
0.999894 1.0049 0.990054
0.999882 1.00451 0.990499
0.999813 1.00456 0.990499
1.00017 1.00361 0.990937
1.00023 1.00192 0.992453
1.00018 1.00328 0.991325
1.00019 1.0016 0.992874
1.00012 0.998858 0.995692
1.00022 1.00137 0.993104
1.00017 0.998724 0.995738
0.999954 0.997159 0.999061
1.00016 0.998712 0.99576
1.00003 0.997128 0.998419
1.00002 0.997073 0.999075
1.00039 1.00249 0.991475
1.00022 1.00092 0.993305
1.00033 1.00237 0.991832
1.00015 0.998146 0.996374
1.00013 1.0006 0.993764
1.00021 1.00217 0.99235
1.00004 0.996631 0.999235
1.00012 0.997977 0.996592
1.00004 1.00028 0.994197
1.00004 0.996562 0.999272
1.00009 0.997876 0.996728
1.00002 0.996577 0.999286
0.994772 0.99483 0.879123
0.994836 0.995011 0.867571
0.99468 0.995158 0.861632
1.00066 1.003 0.99075
1.00058 1.00321 0.990518
1.00073 1.00312 0.99065
0.994854 0.994794 0.864504
0.99481 0.994793 0.868164
0.994775 0.994792 0.859356
0.996672 0.994871 0.969251
0.997887 0.9982 0.934967
0.994931 0.999944 0.901397
0.994829 0.994827 0.84302
0.994906 0.995573 0.966362
0.995625 0.999945 0.941811
0.994821 0.999572 0.890643
0.994869 0.994831 0.854455
0.994967 0.99588 0.962382
0.994874 0.999097 0.94725
0.995208 0.999495 0.893528
0.994846 0.994811 0.847429
1.0003 1.00388 0.990341
1.00023 1.00449 0.989944
1.00028 1.00399 0.990437
1.00063 1.00348 0.990266
1.00016 1.00414 0.990455
1.00067 1.00305 0.990966
0.996434 0.996988 0.994953
0.997492 0.998967 0.999717
0.999972 1.00443 0.990137
0.999466 1.00258 0.993648
0.999406 1.00459 0.991753
0.99977 1.0047 0.990485
0.999045 1.00442 0.992069
0.995592 0.999839 0.991152
0.997209 1.00505 0.994882
0.995594 1.003 0.999032
0.999175 1.00416 0.992386
0.995437 1.001 0.988567
0.995774 1.00365 0.996865
0.997258 1.00493 0.995196
0.994779 0.994794 0.884451
0.99476 0.99479 0.88254
0.994863 0.994941 0.872846
0.995833 1.00466 0.997842
0.994817 1.00074 0.991751
0.994779 0.99482 0.876141
0.994844 0.999177 0.945379
0.99507 0.999088 0.884924
0.994829 0.99479 0.871222
0.994825 0.994835 0.843761
0.99501 1.00387 0.998822
0.994787 0.994834 0.881768
0.994792 0.994798 0.868814
0.994911 0.999744 0.97673
0.994784 0.994903 0.842246
0.99497 0.99997 0.889825
0.994929 0.999205 0.948862
0.99507 1.00498 0.993362
0.994773 0.994837 0.879358
0.994783 0.994839 0.860498
0.994664 0.994759 0.853849
0.995533 0.998701 0.882469
0.995366 0.999915 0.945725
0.994924 1.00058 0.970685
0.995926 1.00521 0.997556
0.995217 1.00446 0.999038
0.997128 1.00244 0.998096
0.99768 1.00463 0.994321
0.995505 1.00447 0.998066
0.996508 1.00383 0.997279
0.9994 0.997735 0.998898
0.999462 1.00283 0.993875
1.0008 1.00233 0.991792
1.00236 1.00345 0.987456
1.00149 1.00061 0.991245
1.00376 1.00255 0.985566
1.00425 1.00397 0.983251
1.00483 1.00187 0.984089
1.00496 1.00153 0.984571
1.00485 1.00186 0.984235
1.00426 1.00255 0.984697
1.00471 1.00101 0.986432
1.00507 1.00088 0.985279
1.00129 1.00412 0.987806
1.00274 1.00302 0.987139
1.00409 1.0021 0.985666
1.00011 1.00479 0.989448
1.00039 1.00506 0.989231
1.00098 1.00436 0.988906
1.00026 1.00252 0.991869
1.00025 1.00407 0.990374
0.999723 1.00493 0.990168
1.00024 1.00351 0.990947
1.00027 1.00191 0.992447
1.00006 0.999096 0.995555
1.00023 1.00157 0.992865
1.00013 0.998865 0.99568
0.999926 0.997277 0.999045
1.00017 0.998732 0.995733
0.999997 0.99718 0.998412
1.00001 0.997142 0.999053
1.0004 1.0029 0.991283
1.00031 1.00114 0.993118
1.00044 1.00246 0.991546
1.00019 0.998336 0.996105
1.00022 1.00092 0.993389
1.00033 1.00238 0.991951
1.00005 0.996729 0.999189
1.00015 0.998117 0.996391
1.00015 1.00059 0.993699
1.00005 0.996631 0.999245
1.00012 0.997959 0.996604
1.00004 0.996571 0.999279
0.994794 0.994831 0.880128
0.994778 0.994832 0.87894
0.994828 0.995049 0.867663
1.00041 1.00403 0.989934
1.00092 1.00399 0.989566
1.00056 1.00307 0.990875
1.00051 1.00339 0.990461
1.00051 1.00324 0.99068
1.00037 1.00359 0.990545
1.00041 1.00326 0.990837
0.994815 0.994783 0.860713
0.994845 0.994793 0.867648
0.994808 0.99479 0.868333
0.994858 0.994827 0.852876
0.994919 0.995797 0.963257
0.994921 0.99995 0.938064
0.994876 0.998874 0.900585
0.994934 0.996611 0.961372
0.99488 0.999623 0.936906
0.994961 0.9992 0.897757
0.994825 0.994801 0.856206
0.996011 0.996328 0.964906
0.994911 0.999779 0.937571
0.995043 0.999127 0.883274
0.994796 0.994801 0.84557
0.999248 1.00487 0.991367
1.00016 1.00412 0.990406
1.00029 1.00461 0.989769
1.0007 1.00349 0.99023
0.995261 1.00006 0.991452
0.995695 1.00346 0.998161
0.999671 1.005 0.990413
0.999006 1.00431 0.992211
0.997409 1.00507 0.995514
0.999191 1.00399 0.992323
0.997144 1.00493 0.995182
0.99585 1.00185 0.985545
0.99491 1.00472 0.997488
0.996984 1.00442 0.995758
0.994748 1.00103 0.986096
0.996261 1.00379 0.998226
0.994764 0.994793 0.882202
0.994786 0.994796 0.887264
0.994751 0.994795 0.883009
0.994928 1.00371 0.999284
0.994938 0.998574 0.980464
0.994781 0.994828 0.883069
0.995598 0.99872 0.938094
0.994969 0.99926 0.899982
0.994797 0.994786 0.868969
0.994776 0.994964 0.846728
0.994912 1.00415 0.994104
0.99478 0.994826 0.879189
0.994781 0.994811 0.860386
0.994922 1.00064 0.971158
0.9947 0.994854 0.84324
0.996174 0.999918 0.886043
0.994949 0.999825 0.936281
0.995498 1.0046 0.987982
0.994824 0.994827 0.868186
0.994668 0.994801 0.849316
0.998195 0.996778 0.895881
0.994864 0.999927 0.94529
0.994996 1.00001 0.964029
0.99529 1.00398 0.99926
0.996221 1.00324 0.998198
0.99696 0.999497 1.00044
0.995415 1.00505 0.997336
0.997915 0.998941 0.999059
1.00202 0.998426 0.993787
1.00264 1.00133 0.991331
1.00283 1.00316 0.987247
1.00328 1.00419 0.9843
1.00355 1.00257 0.985884
1.00447 1.00387 0.98303
1.00423 1.00458 0.982658
1.00496 1.0011 0.984766
1.00502 1.00118 0.984681
1.0048 1.00207 0.984039
1.00491 1.0011 0.985305
1.00495 1.00138 0.984702
1.00479 1.00205 0.984076
1.00352 1.00268 0.98625
1.00441 1.00096 0.986315
1.00498 1.00086 0.98513
1.00077 1.00503 0.98826
1.00132 1.00431 0.988025
1.00279 1.00303 0.987353
1.0002 1.00346 0.990896
1.00034 1.00476 0.989469
1.00059 1.00505 0.989188
1 0.999389 0.995362
1.0003 1.00244 0.991859
1.00038 1.00402 0.990375
1.00029 1.0019 0.992442
1.00006 0.999122 0.995536
0.999861 0.997465 0.99902
1.00014 0.998867 0.995668
0.999922 0.997306 0.999039
0.999971 0.997188 0.999051
1.00026 1.00463 0.989744
1.00055 1.00325 0.99072
1.00036 1.00154 0.992656
1.00043 1.00284 0.991272
1.0002 0.998601 0.995816
1.00031 1.00116 0.993114
1.0004 1.00251 0.991615
1.00005 0.996871 0.999125
1.00018 0.998332 0.996123
1.00021 1.00093 0.993472
1.00005 0.996712 0.999203
1.00015 0.998099 0.996409
1.00005 0.996601 0.999255
0.994766 0.994818 0.876061
0.994784 0.994828 0.881428
0.994787 0.99483 0.878738
1.00046 1.00412 0.989957
1.00067 1.00392 0.98967
1.0002 1.00306 0.990631
1.00018 1.0044 0.98982
1.00086 1.00399 0.990097
1.00054 1.00348 0.990403
1.00042 1.00335 0.990709
1.00044 1.00354 0.990556
1.00045 1.00335 0.990888
0.999849 1.00437 0.990864
0.994801 0.994811 0.861352
0.994806 0.994781 0.861003
0.994844 0.99479 0.870751
0.994834 0.994807 0.856532
0.995188 0.999491 0.884826
0.994978 0.997337 0.959806
0.99489 0.999562 0.947069
0.995254 0.996516 0.961718
0.994911 0.998206 0.948036
0.994846 0.999845 0.891732
0.994801 0.994775 0.844121
0.994815 0.996139 0.966393
0.994874 0.999975 0.947768
0.9949 0.999778 0.900463
0.994714 0.994783 0.852601
0.998407 1.00392 0.993414
0.999278 1.00475 0.99135
1.00014 1.00411 0.990473
0.995877 1.00205 0.982296
0.994864 1.00477 0.998139
0.999131 1.00387 0.99226
0.996616 1.00502 0.995178
0.99709 1.00406 0.995732
0.99578 1.00341 0.998391
0.995071 1.00035 0.985626
0.995868 1.002 0.999044
0.995876 0.999643 0.9893
0.994815 0.995066 0.873967
0.994758 0.994798 0.882654
0.994794 0.994802 0.890083
0.994919 1.00303 0.994469
0.994938 1.00042 0.968083
0.994786 0.994832 0.878991
0.995386 0.999957 0.94518
0.994746 0.999931 0.900557
0.994782 0.994802 0.860309
0.994725 0.995052 0.832305
0.995534 1.00445 0.988625
0.994813 0.994848 0.868153
0.994664 0.99479 0.847378
0.994914 0.99998 0.964983
0.998074 0.998326 0.896077
0.995643 0.999911 0.940461
0.994923 1.00454 0.986091
0.994668 0.994813 0.853731
0.999785 0.996007 0.901481
0.9974 0.997966 0.936322
0.994837 0.997377 0.967049
0.995578 1.00403 0.998282
0.996626 0.999843 1.00042
0.999075 1.00262 0.995487
0.996437 1.00016 0.999182
1.00087 0.999003 0.994255
1.00335 0.999776 0.989003
1.0033 1.00279 0.987032
1.00324 1.00419 0.98424
1.00416 1.00195 0.98477
1.00472 1.00387 0.982812
1.00424 1.00419 0.982769
1.00473 1.00105 0.985202
1.00517 0.99875 0.986581
1.00512 1.00031 0.985165
1.00493 1.00098 0.98486
1.00504 1.00146 0.984597
1.00503 1.00121 0.984642
1.00478 1.00221 0.983988
1.00473 1.00159 0.985284
1.00464 1.00112 0.98545
1.00496 1.00122 0.984833
1.00226 1.00394 0.986915
1.00328 1.00264 0.986427
1.00414 1.00093 0.986194
1.00022 1.00458 0.989426
1.00091 1.005 0.988266
1.0014 1.00449 0.988242
0.999939 1.00005 0.99553
1.00033 1.00337 0.990881
1.00056 1.00475 0.98949
0.99981 0.997731 0.997573
0.999991 0.999518 0.995599
1.00035 1.00237 0.991849
1.00006 0.99915 0.995517
0.999858 0.997492 0.999009
0.999916 0.997312 0.999032
1.00018 1.00479 0.989872
1.00045 1.00403 0.99013
1.00021 1.00465 0.989716
1.0004 1.00199 0.992153
1.00041 1.00346 0.990717
1.00017 0.998927 0.995535
1.00036 1.00152 0.992663
1.00052 1.00273 0.99126
1.00003 0.997075 0.999057
1.0002 0.998582 0.995831
1.00029 1.00119 0.993111
1.00005 0.996862 0.999145
1.00017 0.998317 0.996141
1.00005 0.996698 0.999218
0.994794 0.99483 0.876107
0.994775 0.994821 0.87588
0.994773 0.994829 0.882761
1.00046 1.0028 0.990882
1.00032 1.00436 0.98998
1.00057 1.00388 0.989775
1.00043 1.00446 0.98972
1.00065 1.00291 0.990661
1.00056 1.00375 0.990597
1.00146 1.0031 0.989315
0.999399 1.00484 0.990473
1.00047 1.0035 0.990567
1.0002 1.00335 0.990938
0.999727 1.00429 0.990835
0.998919 1.0051 0.992038
0.994684 0.994903 0.851528
0.99482 0.994813 0.86095
0.994804 0.994779 0.861227
0.994779 0.994771 0.852738
0.994842 0.999859 0.891393
0.995153 0.999289 0.937593
0.994935 0.996641 0.961119
0.994993 0.996222 0.967309
0.994725 0.99492 0.842169
0.994884 0.998919 0.941705
0.996312 0.999936 0.887141
0.994888 0.996173 0.969417
0.994888 0.999931 0.9482
0.998589 0.998235 0.891927
0.999117 1.00109 0.99561
0.998505 1.00402 0.993386
0.999202 1.00464 0.991333
0.995157 1.00054 0.985635
0.995333 1.00312 0.998547
0.997248 1.0037 0.995717
0.996938 1.00188 0.998972
0.995314 0.999257 0.989417
0.996978 0.998576 0.992604
0.994729 0.99508 0.861331
0.994822 0.994925 0.876619
0.994745 0.994796 0.883092
0.995341 1.00435 0.988957
0.994857 0.999998 0.964994
0.994802 0.994855 0.868244
0.994832 0.999932 0.937196
0.998092 0.996692 0.883541
0.994674 0.994776 0.855075
0.99492 1.00433 0.986154
0.994676 0.994824 0.862288
0.999795 0.995044 0.888675
0.994868 0.996776 0.963046
0.997419 0.998739 0.945982
0.994989 1.00338 0.991044
0.999809 0.99489 0.886069
1 0.995765 0.947755
0.994883 0.994871 0.962398
0.996226 0.999988 1.00047
0.998648 1.00173 0.995325
1.00204 1.00262 0.989814
0.999816 0.999654 0.994724
1.00285 1.00044 0.988879
1.00442 0.999069 0.987758
1.00317 1.0042 0.98418
1.00405 1.00209 0.984768
1.00494 0.997399 0.987732
1.00424 1.00372 0.982879
1.00464 1.00082 0.985245
1.00519 0.996913 0.988293
1.00514 0.996911 0.988638
1.00518 0.998963 0.986417
1.00517 0.998621 0.986732
1.00514 1.0004 0.985125
1.00511 1.00031 0.985272
1.00492 1.00086 0.984953
1.00513 1.00125 0.98472
1.00495 1.00136 0.984697
1.00503 1.00122 0.984601
1.00398 1.00209 0.985825
1.00457 1.00164 0.985257
1.00436 1.00112 0.985595
1.00101 1.00483 0.988056
1.0024 1.00391 0.986892
1.00294 1.0026 0.986607
0.999809 1.00113 0.993842
1.00056 1.00443 0.989428
1.00109 1.00501 0.98827
0.99969 0.998139 0.99886
0.999937 1.00015 0.994707
1.00047 1.00326 0.990867
0.999808 0.997707 0.998966
0.999966 0.99961 0.995236
0.999858 0.997539 0.998997
1.00096 1.00372 0.989588
1.00021 1.00471 0.989778
1.00044 1.00459 0.989629
1.00029 1.0027 0.99162
1.00039 1.00405 0.990119
1.00028 1.00454 0.989689
1.00015 0.999267 0.995242
1.00036 1.00204 0.992163
1.00029 1.00361 0.990715
1 0.997295 0.998988
1.00018 0.998877 0.995549
1.00037 1.00151 0.99267
1.00003 0.997037 0.999078
1.0002 0.998565 0.995846
1.00005 0.996828 0.999164
0.994701 0.994836 0.84922
0.994807 0.994832 0.876139
0.994788 0.994824 0.875705
1.00034 1.00301 0.990831
1.00238 1.0027 0.989459
1.00067 1.00333 0.990411
1.00048 1.00451 0.98962
1.00111 1.0027 0.990687
1.00001 1.00332 0.991093
0.999757 1.00475 0.990312
1.00104 1.00342 0.989518
1.00074 1.00445 0.989284
0.999671 1.0004 0.994596
1.00003 1.00422 0.990806
0.999057 1.00506 0.991695
0.999808 0.996795 0.882386
0.994669 0.995061 0.845606
0.994808 0.994815 0.860765
0.994737 0.995444 0.83134
0.99613 0.999085 0.900937
0.994848 0.999805 0.938433
0.995367 0.995509 0.964768
0.994848 0.996092 0.968022
0.998048 0.998927 0.894209
0.995686 0.999711 0.937703
0.994873 0.997489 0.969693
0.997909 0.998224 0.936148
1.0017 0.997237 0.995598
0.999037 1.00136 0.995554
0.998556 1.00418 0.993363
0.994869 0.99899 0.989536
0.99768 1.00177 0.99887
0.997467 0.998705 0.992298
0.998363 0.997293 0.990642
0.999836 0.994869 0.896524
0.994726 0.994985 0.860422
0.994843 0.994813 0.879169
0.994895 1.00437 0.986421
0.994888 0.996341 0.961148
0.994673 0.994826 0.862323
0.998299 0.997307 0.935595
0.999796 0.995244 0.902068
0.995108 1.00239 0.988295
0.999843 0.994927 0.894694
1.00132 0.9959 0.936073
0.994884 0.99498 0.965616
0.997806 0.99812 0.989871
1.00002 0.994914 0.948636
0.995837 0.995132 0.968664
0.998213 1.00086 0.995093
1.00175 1.00082 0.989837
1.00481 0.998082 0.989047
1.00228 1.00098 0.988766
1.0041 0.999116 0.987773
1.00499 0.996175 0.989429
1.00403 1.0022 0.984769
1.00489 0.997808 0.987651
1.00516 0.995362 0.989762
1.00457 1.0006 0.985286
1.00519 0.996936 0.98825
1.00516 0.99545 0.989971
1.00514 0.99601 0.989822
1.00515 0.996746 0.988852
1.00515 0.997527 0.988201
1.0052 0.999368 0.986241
1.00517 0.999033 0.986487
1.00517 0.998492 0.986884
1.00519 1.00076 0.984997
1.00515 1.00042 0.985086
1.00511 1.00029 0.985379
1.00483 1.00123 0.985289
1.00506 1.00128 0.98473
1.00483 1.0013 0.984799
1.00223 1.00381 0.987169
1.00395 1.00225 0.985816
1.00448 1.0017 0.98523
1.00001 1.00216 0.992438
1.00115 1.00474 0.98806
1.0026 1.00374 0.98687
0.999743 0.998496 0.99868
0.999861 1.00121 0.993798
1.00083 1.00439 0.989429
0.999748 0.998139 0.998078
0.99994 1.00022 0.994705
0.999822 0.9978 0.99891
1.0017 1.00253 0.989515
1.00053 1.00396 0.989791
1.00031 1.00498 0.989274
1.00029 1.00474 0.989684
1.00029 1.00472 0.989611
1.00026 1.00344 0.990974
1.00007 0.999766 0.994902
1.00029 1.00268 0.991628
1.00028 1.00417 0.990108
0.999956 0.99753 0.998908
1.00013 0.999258 0.995257
1.00031 1.00207 0.992173
1 0.997255 0.999009
1.00019 0.998846 0.995563
1.00003 0.997018 0.999098
0.999818 0.994868 0.894759
0.994691 0.994837 0.853178
0.994816 0.994832 0.876133
1.00023 1.00341 0.990778
1.00069 1.00411 0.989518
1.00178 1.00284 0.989813
1.0037 1.00352 0.985179
1.00057 1.00395 0.98992
0.999929 1.00481 0.990157
1.00078 1.0038 0.989724
1.00037 1.00445 0.989578
1.00168 1.00237 0.988494
1.00143 0.999788 0.992988
1.00404 0.995662 0.991713
1.00016 0.999822 0.994562
0.999665 1.00414 0.991353
0.998504 0.996638 0.946751
0.999793 0.996421 0.887545
0.994685 0.994929 0.848664
0.998505 0.999156 0.881226
0.995075 0.99996 0.945558
0.994802 0.995817 0.968864
0.994885 0.997332 0.971305
0.997393 0.998916 0.947585
0.995855 0.996536 0.971078
1.0015 0.99594 0.996026
1.00096 0.997948 0.995637
0.998942 1.00174 0.995498
0.998151 0.998233 0.992095
0.998797 0.997458 0.990841
0.999975 0.995027 0.940683
0.999833 0.994894 0.900945
0.994712 0.994864 0.85962
0.994912 1.00137 0.985453
0.994916 0.994888 0.962676
0.999832 0.994971 0.894974
1.00011 0.99584 0.946264
0.996973 0.998541 0.990349
1.00085 0.995051 0.946303
0.996581 0.994886 0.965862
1.00131 0.996116 0.989226
0.998847 0.994959 0.975251
1.0016 0.999056 0.98996
1.00462 0.99711 0.988993
1.00503 0.995741 0.990565
1.00371 0.999237 0.987786
1.00476 0.996295 0.989334
1.00516 0.994933 0.990308
1.00478 0.998273 0.98757
1.00516 0.99545 0.989699
1.00516 0.994948 0.990447
1.00519 0.996949 0.988207
1.00516 0.995485 0.989925
1.00515 0.995149 0.990443
1.00514 0.995808 0.989922
1.00514 0.996395 0.989442
1.00516 0.996582 0.989068
1.00515 0.997538 0.988182
1.00519 0.998346 0.987326
1.00522 1.00003 0.985717
1.00519 0.999425 0.986221
1.00517 0.999102 0.986557
1.00516 1.00077 0.985116
1.00518 1.0008 0.984922
1.00517 1.00045 0.985044
1.00335 1.0023 0.986684
1.00474 1.00133 0.985294
1.00498 1.00131 0.984739
1.0006 1.00237 0.991254
1.0022 1.00382 0.987172
1.0038 1.0025 0.985807
0.999874 0.999227 0.998319
1.00011 1.00211 0.992419
1.00138 1.00458 0.988063
0.999816 0.998677 0.998567
0.999946 1.00118 0.993753
0.99982 0.998176 0.998758
1.00356 1.00252 0.985707
1.00179 1.00237 0.989437
1.00064 1.0045 0.9889
1.00016 1.004 0.989995
1.00029 1.0049 0.989243
1.00036 1.00409 0.990155
1.00018 1.00477 0.989594
1.00021 1.00344 0.990973
1.00002 1.00029 0.994477
0.999891 0.997883 0.998809
1.00006 0.999713 0.994918
1.00028 1.00265 0.991636
0.999956 0.997515 0.998935
1.00012 0.999235 0.99527
1.00001 0.997213 0.99903
1.00001 0.994915 0.950653
0.999849 0.994876 0.893913
0.994672 0.994834 0.848944
1.0007 1.00474 0.988625
1.0013 1.00271 0.990171
1.00108 1.00379 0.989583
1.00347 1.0036 0.985607
1.00447 1.0027 0.983926
1.00186 1.00332 0.987443
1.00005 1.00441 0.989866
1.00254 1.00214 0.987636
1.00128 0.999586 0.993103
1.00312 0.998972 0.989527
1.00459 0.995464 0.991578
1.00387 0.995852 0.991887
1.00363 0.995714 0.992055
0.999978 1.00004 0.994529
0.996024 0.995485 0.969999
0.999886 0.996469 0.943285
0.998259 0.996577 0.900309
0.997354 0.999115 0.936102
0.994891 0.997593 0.971743
0.995569 0.996842 0.976262
0.999574 0.997171 0.992098
1.00195 0.995612 0.995785
1.00043 0.998688 0.99568
0.999747 0.998349 0.991051
0.996618 0.997016 0.970987
1.00005 0.994976 0.951627
0.999826 0.994883 0.888264
0.996257 0.999123 0.990663
0.996732 0.994862 0.96752
1.00006 0.995553 0.943839
1.00065 0.995939 0.989359
0.998399 0.995517 0.97469
1.00348 0.995328 0.990478
1.00279 0.997958 0.986296
1.0043 0.99606 0.988902
1.00482 0.995509 0.990604
1.00515 0.99486 0.990713
1.00465 0.996408 0.989239
1.00516 0.994937 0.990273
1.00517 0.994935 0.990511
1.00516 0.995494 0.989637
1.00516 0.994957 0.990414
1.00519 0.994958 0.990528
1.00517 0.995515 0.98988
1.00514 0.995176 0.990393
1.00516 0.995464 0.990135
1.00514 0.995613 0.99002
1.00514 0.996251 0.98956
1.00517 0.997569 0.988286
1.00516 0.99755 0.988162
1.00519 0.99841 0.9873
1.00521 0.999389 0.986447
1.00523 1.00039 0.985336
1.00523 1.00011 0.985617
1.00519 0.999481 0.9862
1.00415 1.00104 0.986554
1.0051 1.00082 0.985133
1.00517 1.00083 0.984847
1.00111 1.00212 0.990601
1.00328 1.00242 0.986686
1.00463 1.00143 0.985299
1.00016 0.999814 0.997856
1.00071 1.00225 0.991239
1.00216 1.00385 0.987176
1.00001 0.999358 0.998135
1.00016 1.00219 0.992403
0.999926 0.998784 0.998423
1.00452 1.00226 0.984349
1.00402 1.00242 0.985795
1.00244 1.00355 0.986742
1.00175 1.00236 0.989358
1.00081 1.00433 0.988725
1.00082 1.00444 0.989145
1.00022 1.00487 0.98921
1.00032 1.00409 0.990147
0.999975 1.00088 0.993967
1.00017 1.00348 0.990972
0.999994 1.00025 0.994502
0.999826 0.998264 0.998688
0.999892 0.997815 0.998844
1.00006 0.999677 0.994934
0.999953 0.997462 0.99896
0.996917 0.99485 0.971372
1 0.99535 0.939856
0.999828 0.994879 0.903021
1.00518 1.0007 0.984693
1.00159 1.00373 0.98925
1.00323 1.00376 0.986036
1.00239 1.00308 0.987391
1.00449 1.00299 0.983879
1.00398 1.00052 0.986955
1.00335 1.00217 0.986779
1.00104 0.999426 0.993223
1.00353 0.998972 0.989315
1.00457 0.995549 0.990948
1.0048 0.995809 0.989801
1.00408 0.995525 0.992179
1.00379 0.995523 0.991895
1.0032 0.995876 0.992395
0.999745 0.996816 0.991209
0.995845 0.995229 0.968309
0.999278 0.995868 0.940271
0.995127 0.996794 0.974893
0.999593 0.996523 0.994286
1.00188 0.994976 0.995521
1.00074 0.997422 0.985121
0.996521 0.995919 0.972097
0.999968 0.994899 0.94066
0.999799 0.996173 0.989554
0.998524 0.995725 0.973735
1.00286 0.995448 0.990848
1.0029 0.997373 0.986914
1.00432 0.994816 0.991127
1.00467 0.997429 0.990598
1.00464 0.995269 0.990637
1.00516 0.994852 0.990607
1.00524 0.994842 0.990438
1.00515 0.994938 0.990239
1.00516 0.994928 0.990504
1.00521 0.99491 0.990502
1.00515 0.994979 0.99038
1.00518 0.99495 0.990522
1.0052 0.995139 0.990446
1.00512 0.995202 0.990343
1.00517 0.995455 0.990119
1.00517 0.996576 0.989159
1.00515 0.996109 0.989679
1.00517 0.997413 0.988469
1.00521 0.99882 0.987046
1.00519 0.998473 0.987273
1.00521 0.999377 0.986451
1.00523 1.00015 0.985632
1.00445 1.00047 0.986596
1.00521 1.00046 0.98529
1.00524 1.00019 0.985518
1.00165 1.00142 0.990428
1.0041 1.00113 0.986544
1.00506 1.00086 0.985149
1.00034 1.00018 0.997556
1.00131 1.00186 0.990595
1.00322 1.00248 0.986688
1.00027 0.999891 0.99773
1.00088 1.00207 0.991226
1.00016 0.999512 0.997959
1.00516 1.0014 0.98425
1.00482 1.00218 0.984311
1.00427 1.00223 0.985336
1.00448 1.00236 0.985884
1.00265 1.00361 0.986658
1.00148 1.00447 0.987948
1.00102 1.0042 0.988547
1.0006 1.00457 0.989152
1.00002 1.00159 0.993232
1.00024 1.00414 0.990141
0.999959 1.00082 0.993997
0.999783 0.99872 0.998541
0.999969 1.0002 0.994528
0.999824 0.998197 0.998733
0.999895 0.997771 0.998877
1.00107 0.994864 0.989059
0.99672 0.994871 0.968157
0.999975 0.994921 0.95086
1.00512 0.999331 0.986405
1.00519 0.99889 0.986741
1.00516 1.00054 0.984904
1.0029 1.00272 0.987334
1.00455 1.00321 0.983828
1.00411 1.00033 0.98714
1.00505 0.996895 0.988358
1.00399 0.998884 0.989108
1.00457 0.995786 0.990313
1.00479 0.996185 0.989957
1.0051 0.995201 0.990254
1.00414 0.99555 0.991624
1.00375 0.995691 0.992136
1.00397 0.995186 0.991904
1.00017 0.996578 0.991341
0.995667 0.995061 0.966709
0.999851 0.996305 0.996563
1.00437 0.99539 0.99148
1.00069 0.997361 0.985317
0.996407 0.995559 0.969921
1.00261 0.994856 0.991194
1.00296 0.997152 0.987563
1.00436 0.994938 0.991608
1.00469 0.996692 0.990629
1.00527 0.994919 0.990529
1.00534 0.994957 0.990722
1.00517 0.994852 0.990503
1.00524 0.994868 0.990418
1.00524 0.994895 0.990447
1.00515 0.994923 0.990497
1.00521 0.99491 0.990517
1.0052 0.994972 0.990586
1.00518 0.994944 0.990517
1.00519 0.995117 0.990429
1.00519 0.995915 0.989794
1.00517 0.995455 0.990102
1.00518 0.9966 0.989153
1.00523 0.998221 0.98757
1.00517 0.997252 0.988652
1.00521 0.998755 0.987113
1.00524 0.999908 0.985858
1.00521 0.999368 0.986455
1.00523 1.00011 0.98568
1.00457 1.00023 0.986652
1.00192 1.00075 0.990585
1.00444 1.00051 0.986592
1.00519 1.00054 0.985245
1.00043 1.00038 0.997386
1.00169 1.00134 0.990428
1.00401 1.00127 0.986537
1.00039 1.00025 0.997476
1.00142 1.00172 0.990591
1.00035 0.999989 0.997617
1.00525 0.999999 0.985555
1.00517 1.00134 0.984384
1.00505 1.00107 0.98499
1.00513 1.00207 0.984273
1.00426 1.00211 0.985356
1.00257 1.0034 0.987031
1.00276 1.00364 0.986576
1.00122 1.00478 0.987962
1.00032 1.00225 0.992032
1.00042 1.00482 0.989159
0.999965 1.00151 0.99326
0.999824 0.999225 0.998285
0.999943 1.00075 0.994027
0.999763 0.998602 0.998598
0.99982 0.998119 0.998774
1.00422 0.994857 0.992282
1.00105 0.994881 0.987167
0.996591 0.994877 0.967188
1.00514 0.998102 0.987759
1.00512 0.99892 0.986677
1.00524 0.997529 0.988011
1.00519 0.998874 0.98673
1.00513 1.00037 0.985115
1.00517 0.995952 0.989197
1.00425 1.00017 0.987322
1.00504 0.997185 0.988314
1.00524 0.994899 0.990278
1.00477 0.996439 0.990114
1.00506 0.995257 0.990123
1.00412 0.995619 0.991785
1.0032 0.995815 0.992089
1.0005 0.996215 0.991364
1.00531 0.994926 0.990509
1.0043 0.996189 0.99159
1.00076 0.996976 0.985512
1.00437 0.995098 0.992077
1.00468 0.995999 0.990666
1.00526 0.994906 0.990573
1.00535 0.994954 0.990667
1.00528 0.994941 0.990673
1.00525 0.994892 0.990398
1.00524 0.994906 0.990461
1.00517 0.994911 0.99071
1.00521 0.994907 0.990531
1.0052 0.994948 0.990569
1.0052 0.995408 0.99031
1.00519 0.995083 0.990412
1.00519 0.99594 0.98978
1.00524 0.997628 0.988172
1.00518 0.996622 0.989147
1.00523 0.998232 0.987585
1.00526 0.999647 0.986126
1.00521 0.99869 0.987181
1.00524 0.999903 0.985879
1.00462 1.00014 0.98667
1.00523 1.00006 0.985728
1.00457 1.00024 0.986653
1.00198 1.00038 0.99228
1.00067 1.00013 0.994436
1.00196 1.00072 0.99131
1.00442 1.00056 0.986588
1.00045 1.00043 0.997356
1.00182 1.00116 0.990424
1.00043 1.00034 0.997402
1.00525 0.997343 0.988312
1.00524 0.998937 0.986744
1.00525 1 0.985705
1.00512 1.00059 0.985289
1.0052 1.00129 0.984517
1.00509 1.00104 0.98496
1.00368 1.00167 0.986737
1.00432 1.00197 0.985377
1.00259 1.00327 0.987034
1.00088 1.00244 0.990842
1.00102 1.00491 0.987973
1.00017 1.00242 0.992056
0.999983 0.999968 0.997837
0.999916 1.0015 0.993286
0.999749 0.999132 0.998392
0.999758 0.998518 0.99865
1.00531 0.99486 0.990488
1.00453 0.994854 0.992108
1.00123 0.994891 0.985325
1.00518 0.996491 0.988906
1.00513 0.998025 0.987598
1.00513 0.998528 0.986949
1.00523 0.997673 0.98799
1.0052 0.998848 0.986719
1.00523 0.995223 0.990265
1.00515 0.99597 0.989159
1.00502 0.997505 0.988269
1.00524 0.994896 0.990285
1.00505 0.995322 0.989991
1.00412 0.99572 0.991959
1.00526 0.994931 0.990759
1.00531 0.994926 0.990688
1.00421 0.996949 0.991705
1.00525 0.994896 0.990608
1.00536 0.994952 0.990615
1.00528 0.994936 0.990626
1.00516 0.994956 0.990919
1.00523 0.99492 0.990475
1.00518 0.994916 0.990683
1.00522 0.995069 0.99071
1.00521 0.994929 0.990552
1.00519 0.995421 0.990302
1.00524 0.997149 0.988647
1.0052 0.995966 0.989766
1.00524 0.99764 0.988182
1.00527 0.999383 0.986403
1.00522 0.998242 0.9876
1.00526 0.99964 0.986146
1.00464 1.00012 0.986656
1.00524 0.999898 0.9859
1.00463 1.00013 0.986677
1.0021 1.0001 0.992388
1.00457 1.00024 0.986653
1.00216 1.00028 0.992187
1.00068 0.999995 0.994581
1.00044 1.00038 0.99594
1.00214 1.00066 0.991894
1.00044 1.0005 0.997341
1.00521 0.99656 0.989206
1.00525 0.998528 0.987098
1.00524 0.997148 0.988514
1.00525 0.999994 0.985719
1.00525 0.999016 0.986705
1.00525 1.00002 0.985854
1.00517 1.00058 0.985245
1.00424 1.00074 0.98669
1.00514 1.00103 0.984929
1.00378 1.00147 0.986735
1.00144 1.00185 0.990373
1.00258 1.00318 0.987037
1.00072 1.0026 0.990846
1.00013 1.00067 0.997456
0.999988 1.00248 0.992077
0.999847 0.999827 0.998022
0.999709 0.998985 0.99848
1.00523 0.994873 0.990641
1.00529 0.994862 0.990468
1.00478 0.994858 0.991909
1.0052 0.995637 0.989996
1.00518 0.996586 0.988882
1.00512 0.997953 0.987442
1.00521 0.997823 0.98797
1.00522 0.995218 0.990224
1.00513 0.996006 0.98912
1.00522 0.994894 0.990293
1.00519 0.994932 0.990934
1.00525 0.994927 0.990754
1.00531 0.994928 0.990866
1.00514 0.994953 0.99105
1.00529 0.994927 0.990578
1.00517 0.994951 0.990919
1.00523 0.994941 0.99088
1.00519 0.994921 0.990655
1.00519 0.995075 0.990709
1.00526 0.996867 0.988948
1.00519 0.995438 0.990295
1.00524 0.997164 0.988655
1.00528 0.99911 0.986698
1.00523 0.997654 0.988192
1.00527 0.999372 0.986421
1.00467 1.00008 0.986664
1.00526 0.999632 0.986167
1.00465 1.00011 0.986669
1.00216 1.00005 0.992336
1.00464 1.00011 0.986684
1.00224 1.00004 0.99227
1.00074 0.999889 0.99462
1.00232 1.00018 0.992103
1.00035 1.00016 0.994799
0.999962 1.00069 0.997725
1.00522 0.996466 0.989187
1.00525 0.997854 0.987887
1.00522 0.996634 0.989041
1.00529 0.999645 0.986164
1.00525 0.998285 0.987308
1.00524 0.99696 0.988714
1.00456 1.00017 0.986704
1.00525 0.99999 0.985685
1.00526 0.999088 0.986665
1.00522 1.00057 0.985201
1.00428 1.00065 0.98669
1.00173 1.00123 0.990474
1.00387 1.00125 0.986735
1.00132 1.00202 0.990377
1.00017 1.00099 0.99733
1.0006 1.00277 0.990857
1.00004 1.0005 0.997588
0.999731 0.99965 0.998184
1.00518 0.995088 0.990714
1.00523 0.994877 0.990629
1.00529 0.994862 0.990449
1.00519 0.995504 0.990128
1.00517 0.996669 0.988859
1.00522 0.995195 0.990182
1.00516 0.994933 0.99101
1.00519 0.994937 0.990942
1.00525 0.994921 0.99075
1.00514 0.994955 0.991061
1.00522 0.99514 0.990731
1.00517 0.994945 0.990919
1.00522 0.995077 0.990759
1.00528 0.996396 0.989437
1.00517 0.995074 0.990708
1.00527 0.996846 0.988949
1.00527 0.99884 0.987002
1.00524 0.997167 0.988663
1.00528 0.999096 0.986706
1.00467 0.99999 0.986748
1.00527 0.999362 0.98644
1.00467 1.00007 0.986677
1.00219 1.00012 0.992197
1.00466 1.00009 0.986683
1.0023 1 0.992199
1.0008 0.999895 0.994525
1.00237 0.999987 0.992162
1.00045 0.99994 0.994859
1.00003 1.00035 0.995001
1.00524 0.995822 0.989918
1.00526 0.997587 0.988122
1.00524 0.996254 0.98934
1.00529 0.999118 0.986725
1.00524 0.997959 0.987767
1.00523 0.996705 0.988877
1.00469 0.999883 0.986786
1.00529 0.999478 0.986233
1.00526 0.998042 0.987519
1.00193 1.00058 0.990725
1.00457 1.00014 0.986702
1.00526 0.999988 0.985652
1.00432 1.00057 0.98669
1.00167 1.0013 0.990482
1.00021 1.00099 0.997347
1.00121 1.0022 0.99038
1.00017 1.00087 0.997362
0.999919 1.00037 0.997744
1.00517 0.994952 0.990912
1.00518 0.995096 0.990658
1.00523 0.994881 0.990617
1.00519 0.995385 0.990259
1.00518 0.99523 0.990685
1.00515 0.994943 0.991018
1.00519 0.994942 0.990951
1.00513 0.994957 0.991071
1.00523 0.99518 0.990728
1.00527 0.996467 0.989388
1.00521 0.995224 0.990636
1.00529 0.99667 0.989146
1.00525 0.998381 0.987552
1.00528 0.996836 0.988949
1.00527 0.998835 0.987002
1.00465 0.999874 0.986904
1.00528 0.999092 0.986712
1.00468 0.999984 0.986756
1.00224 1.00018 0.990674
1.00468 1.00006 0.986691
1.00232 1.00009 0.991357
1.0007 0.999952 0.99735
1.00243 0.999974 0.992064
1.00054 0.999883 0.994776
1.00017 0.999979 0.995082
1.0052 0.995501 0.990412
1.00524 0.9972 0.988615
1.00524 0.995872 0.989887
1.00527 0.99879 0.986987
1.00525 0.997594 0.988099
1.00525 0.996039 0.989494
1.00472 0.999661 0.986826
1.00529 0.999113 0.986733
1.00523 0.998062 0.987646
1.00212 1.00006 0.990924
1.00468 0.999824 0.986757
1.00529 0.999302 0.986302
1.00034 1.0007 0.997413
1.00194 1.00057 0.990731
1.00458 1.00011 0.986699
1.00162 1.00135 0.990494
1.00022 1.0009 0.997335
1.00012 1.0008 0.997412
1.0052 0.995111 0.990768
1.00517 0.99496 0.990901
1.00519 0.995104 0.990602
1.00525 0.996686 0.989226
1.00519 0.995152 0.99078
1.00514 0.994954 0.991025
1.00523 0.995213 0.990726
1.00527 0.996491 0.989392
1.00521 0.998381 0.987729
1.0053 0.996937 0.988854
1.00524 0.9986 0.987364
1.00461 0.999599 0.987145
1.00527 0.99882 0.987003
1.00465 0.99987 0.986909
1.00222 1.00013 0.990756
1.00468 0.999981 0.986765
1.00225 1.00016 0.990677
1.00068 0.999997 0.997322
1.00234 1.00007 0.990628
1.00058 0.999949 0.996049
1.00027 0.999849 0.995025
1.00522 0.995593 0.990304
1.00523 0.997095 0.988806
1.00521 0.995398 0.990474
1.00524 0.998879 0.98694
1.00525 0.997277 0.988539
1.00524 0.995925 0.989856
1.00471 0.999594 0.986943
1.00526 0.998964 0.986867
1.00524 0.997602 0.988077
1.00223 0.999839 0.990952
1.00471 0.999653 0.986836
1.00529 0.99911 0.986741
1.00052 1.0003 0.997439
1.00214 1.00003 0.990928
1.00468 0.999763 0.986726
1.00034 1.00066 0.997384
1.00194 1.00056 0.990736
1.0002 1.00087 0.997338
1.00525 0.996569 0.989341
1.00519 0.99524 0.990678
1.00517 0.994968 0.990889
1.00524 0.998288 0.987774
1.00525 0.996569 0.989319
1.0052 0.995062 0.990876
1.00527 0.996521 0.989395
1.00521 0.998381 0.987727
1.00457 0.999494 0.987318
1.00524 0.998819 0.987175
1.00462 0.999681 0.9871
1.00221 1.00004 0.990876
1.00466 0.999864 0.986915
1.00221 1.00014 0.990762
1.00064 1.00002 0.997305
1.00224 1.00015 0.990679
1.00067 1.00001 0.997309
1.00067 0.999908 0.994524
1.00527 0.997007 0.988803
1.00521 0.995354 0.990479
1.00525 0.99874 0.987104
1.00524 0.997108 0.98879
1.00522 0.995292 0.990537
1.00467 0.999708 0.987042
1.00524 0.998889 0.986935
1.00525 0.997351 0.988462
1.00228 0.999847 0.990881
1.00469 0.999664 0.98694
1.00526 0.999142 0.986747
1.00067 1.00004 0.997399
1.00225 0.999834 0.990952
1.00469 0.999638 0.986845
1.00049 1.00033 0.997431
1.00215 1.00003 0.99093
1.00034 1.00065 0.99736
1.00526 0.998301 0.987699
1.00525 0.996663 0.989244
1.00518 0.995368 0.990587
1.00456 0.999445 0.987387
1.00524 0.998287 0.987775
1.00525 0.996463 0.989411
1.00521 0.998384 0.987724
1.00459 0.999481 0.987297
1.00215 1 0.991014
1.00462 0.999763 0.987054
1.00219 1.00005 0.990881
1.00063 1.00002 0.997315
1.00221 1.00014 0.990769
1.00063 1.00003 0.997313
1.00066 1.00002 0.997304
1.00528 0.998589 0.987231
1.00527 0.996735 0.989078
1.0052 0.995118 0.990654
1.00464 0.999679 0.987143
1.00525 0.998747 0.987095
1.00525 0.997121 0.988774
1.00226 0.999946 0.990848
1.00465 0.999718 0.987037
1.00524 0.998898 0.98693
1.00071 0.999948 0.997337
1.00229 0.999863 0.990879
1.00468 0.999728 0.986937
1.00063 1.00008 0.997416
1.00226 0.999846 0.990953
1.0005 1.00032 0.997415
1.00457 0.999605 0.987314
1.00526 0.998209 0.987741
1.00525 0.996756 0.989148
1.00212 0.999935 0.99115
1.00457 0.999427 0.98738
1.00524 0.998287 0.987777
1.00461 0.999464 0.987276
1.00216 0.999979 0.99102
1.00061 1.00002 0.997318
1.00217 1.00006 0.990885
1.00062 1.00002 0.997311
1.0006 1.00005 0.997317
1.0046 0.999634 0.987243
1.00527 0.998428 0.987402
1.00527 0.996468 0.989353
1.00231 0.999997 0.99218
1.00462 0.999682 0.987145
1.00525 0.998756 0.987086
1.00069 0.999959 0.997303
1.00226 0.999966 0.990848
1.00464 0.999729 0.987031
1.00071 0.999977 0.997361
1.00229 0.999887 0.990878
1.00062 1.0001 0.997429
1.00219 0.999932 0.991068
1.00457 0.999518 0.987339
1.00526 0.998117 0.987782
1.00055 0.99999 0.997358
1.00211 0.999934 0.991146
1.00458 0.999412 0.987373
1.00215 0.99996 0.991023
1.00059 1.00001 0.99733
1.00061 1.00004 0.997313
1.00233 0.999966 0.992229
1.0046 0.999634 0.987242
1.00527 0.998263 0.987573
1.00025 0.999998 0.997731
1.00221 1 0.990918
1.0046 0.999682 0.987148
1.00069 0.99997 0.997321
1.00226 0.999988 0.990847
1.0007 0.999997 0.997382
1.00055 0.999967 0.994716
1.00222 0.999933 0.991719
1.00457 0.999431 0.987363
1.00058 0.999992 0.997362
1.00211 0.999935 0.991149
1.00061 1 0.997338
1.00014 0.999994 0.995105
1.00225 0.999957 0.991638
1.00459 0.999639 0.987242
1.00043 0.99999 0.996171
1.00221 1 0.990932
1.0007 0.99998 0.99734
1.00057 0.999981 0.997357
1.00211 0.999926 0.991155
1.00055 0.999992 0.997361
1.00037 0.999977 0.996236
1.00216 0.999953 0.991068
1.00065 0.999984 0.997324
1.00058 0.999979 0.997367
1.00059 0.999981 0.997348

TENSORS stress float
0.00186945 -0.000115547 0.0002069
-0.000115547 0.000796596 -3.11355e-05
0.0002069 -3.11355e-05 0.000773811
0.00587289 -4.56421e-05 0.00021631
-4.56421e-05 0.00324303 2.27399e-05
0.00021631 2.27399e-05 0.00323362
0.00161314 -4.75301e-05 9.20376e-05
-4.75301e-05 0.00064466 -1.24232e-05
9.20376e-05 -1.24232e-05 0.000612401
0.00196636 -6.74431e-05 0.000205056
-6.74431e-05 0.000830198 -1.88253e-05
0.000205056 -1.88253e-05 0.000813268
0.00193427 -0.000103075 0.000203087
-0.000103075 0.000826376 -2.77298e-05
0.000203087 -2.77298e-05 0.000805978
0.0018167 -0.000114046 0.000212523
-0.000114046 0.00076518 -3.15582e-05
0.000212523 -3.15582e-05 0.000743661
0.00159524 -9.65164e-05 3.62515e-05
-9.65164e-05 0.000551268 -1.1001e-05
3.62515e-05 -1.1001e-05 0.000458776
0.00581198 -5.34816e-05 -6.88069e-06
-5.34816e-05 0.00319582 -2.33745e-07
-6.88069e-06 -2.33745e-07 0.00319155
0.0057543 0.000124626 0.000104818
0.000124626 0.00313711 7.89942e-06
0.000104818 7.89942e-06 0.00311961
0.00560322 -0.000140573 4.03113e-05
-0.000140573 0.00306646 2.52758e-06
4.03113e-05 2.52758e-06 0.00304009
0.00174773 0.000134458 0.000213222
0.000134458 0.000714579 2.25107e-05
0.000213222 2.25107e-05 0.000708622
0.000605167 0.000219469 2.52576e-05
0.000219469 -2.94035e-05 1.64499e-05
2.52576e-05 1.64499e-05 -0.000134976
0.00168709 -3.41745e-05 0.000210398
-3.41745e-05 0.000657095 3.08583e-06
0.000210398 3.08583e-06 0.000652586
0.00132989 -5.33034e-06 4.57579e-05
-5.33034e-06 0.000463383 1.28538e-06
4.57579e-05 1.28538e-06 0.000423464
0.00140966 -4.36278e-05 -3.97222e-05
-4.36278e-05 0.000525783 6.99517e-06
-3.97222e-05 6.99517e-06 0.000484523
0.00164929 -7.02656e-05 6.97862e-05
-7.02656e-05 0.000652935 -4.05727e-06
6.97862e-05 -4.05727e-06 0.00062332
0.00161024 -3.17291e-05 9.92212e-05
-3.17291e-05 0.000650664 -1.24367e-05
9.92212e-05 -1.24367e-05 0.000614725
0.00163178 -6.0672e-05 8.19718e-05
-6.0672e-05 0.000645716 -1.01801e-05
8.19718e-05 -1.01801e-05 0.000617218
0.00165431 -0.000135349 -3.43077e-05
-0.000135349 0.000580902 4.09153e-06
-3.43077e-05 4.09153e-06 0.000496995
0.00568965 -0.000120157 0.000261445
-0.000120157 0.00310648 -9.02458e-06
0.000261445 -9.02458e-06 0.00311567
0.00192896 -4.7932e-05 0.000206184
-4.7932e-05 0.000805665 -1.39996e-05
0.000206184 -1.39996e-05 0.000790218
0.00197389 -8.68677e-05 0.000203451
-8.68677e-05 0.000840846 -2.35195e-05
0.000203451 -2.35195e-05 0.000822696
0.00160184 -0.000116102 5.7608e-05
-0.000116102 0.000533169 -8.72579e-06
5.7608e-05 -8.72579e-06 0.000450348
0.00160448 -0.000108373 4.55992e-05
-0.000108373 0.000541438 -1.02299e-05
4.55992e-05 -1.02299e-05 0.000456314
0.00176512 -8.91258e-05 0.000209924
-8.91258e-05 0.000725251 -2.80154e-05
0.000209924 -2.80154e-05 0.000707286
0.00155563 -8.51129e-05 2.86634e-05
-8.51129e-05 0.000547466 -1.18471e-05
2.86634e-05 -1.18471e-05 0.00044567
0.00202806 -0.000246592 1.53455e-05
-0.000246592 0.000656253 -6.66089e-06
1.53455e-05 -6.66089e-06 0.000494106
0.00576334 -6.81755e-05 -0.000213155
-6.81755e-05 0.00315763 -1.40559e-05
-0.000213155 -1.40559e-05 0.00315782
0.00370871 0.00010293 -0.000119389
0.00010293 0.00190261 -1.13688e-05
-0.000119389 -1.13688e-05 0.00188326
0.00359692 3.56417e-07 -0.000114333
3.56417e-07 0.00185319 -7.73026e-06
-0.000114333 -7.73026e-06 0.00183087
0.00564064 -0.000121295 -2.41488e-06
-0.000121295 0.00310644 4.76399e-07
-2.41488e-06 4.76399e-07 0.00309471
0.000553667 0.000203618 -1.75907e-06
0.000203618 -5.80643e-05 -9.49668e-07
-1.75907e-06 -9.49668e-07 -0.000162626
0.00166444 5.83656e-05 0.000209399
5.83656e-05 0.000651649 1.73411e-05
0.000209399 1.73411e-05 0.000636905
0.00179876 0.000138255 0.000212479
0.000138255 0.000760354 2.64067e-05
0.000212479 2.64067e-05 0.000737792
0.002682 0.000186953 0.000129151
0.000186953 0.00118736 1.73314e-05
0.000129151 1.73314e-05 0.00111648
0.00471603 -0.000339052 -1.5249e-05
-0.000339052 0.00261155 7.78322e-06
-1.5249e-05 7.78322e-06 0.00254584
0.00277578 0.000245041 0.000130689
0.000245041 0.00127581 2.06264e-05
0.000130689 2.06264e-05 0.00119596
0.000562855 0.000178636 2.76617e-05
0.000178636 -4.96606e-05 2.10523e-05
2.76617e-05 2.10523e-05 -0.000150959
0.000836205 0.000192368 1.12455e-05
0.000192368 1.22404e-05 5.66532e-06
1.12455e-05 5.66532e-06 -0.000164684
0.00365956 -0.000104364 0.000130274
-0.000104364 0.00191051 7.03852e-06
0.000130274 7.03852e-06 0.00191418
0.00569305 7.36532e-05 3.61515e-06
7.36532e-05 0.00309853 -1.53144e-06
3.61515e-06 -1.53144e-06 0.0031132
0.00362031 7.21135e-05 -9.93284e-05
7.21135e-05 0.00184386 -3.91011e-06
-9.93284e-05 -3.91011e-06 0.0018309
0.00557301 6.02135e-05 0.000255353
6.02135e-05 0.00302887 3.32836e-06
0.000255353 3.32836e-06 0.00304365
0.00131654 7.90052e-05 4.88019e-05
7.90052e-05 0.000454619 2.9093e-06
4.88019e-05 2.9093e-06 0.000419408
0.000621681 9.99286e-06 1.60442e-05
9.99286e-06 -8.76006e-05 1.78067e-06
1.60442e-05 1.78067e-06 -0.000164382
0.00564789 0.000204526 0.000138013
0.000204526 0.00309704 1.25096e-05
0.000138013 1.25096e-05 0.00307364
0.00273061 6.44696e-05 0.000124587
6.44696e-05 0.00118314 7.55164e-06
0.000124587 7.55164e-06 0.00112939
0.00127509 -7.60355e-05 -5.96825e-05
-7.60355e-05 0.000442643 7.348e-06
-5.96825e-05 7.348e-06 0.000399191
0.0013212 -8.12275e-05 -5.20548e-05
-8.12275e-05 0.00047354 8.31516e-06
-5.20548e-05 8.31516e-06 0.000430631
0.00147221 4.64268e-06 -2.79586e-05
4.64268e-06 0.00056823 6.59604e-06
-2.79586e-05 6.59604e-06 0.000524453
0.00168827 -0.00014224 -0.000112109
-0.00014224 0.000594414 1.89551e-05
-0.000112109 1.89551e-05 0.000518715
0.0035649 1.01545e-06 -0.000103753
1.01545e-06 0.00181797 -1.97502e-06
-0.000103753 -1.97502e-06 0.00180327
0.00163533 -5.35831e-05 7.58972e-05
-5.35831e-05 0.000639375 -3.38477e-06
7.58972e-05 -3.38477e-06 0.000612566
0.00157055 -8.47236e-06 0.000102992
-8.47236e-06 0.000629212 -1.05309e-05
0.000102992 -1.05309e-05 0.000591961
0.00164615 -6.68875e-05 7.45015e-05
-6.68875e-05 0.000650192 -6.93645e-06
7.45015e-05 -6.93645e-06 0.000622193
0.0016628 -9.59298e-05 -2.75995e-05
-9.59298e-05 0.000561618 1.46926e-06
-2.75995e-05 1.46926e-06 0.000487418
0.00163207 -0.000130462 -3.96629e-05
-0.000130462 0.000580746 4.32326e-06
-3.96629e-05 4.32326e-06 0.000491168
0.00166119 -0.00012973 -2.93508e-05
-0.00012973 0.000574111 2.91738e-06
-2.93508e-05 2.91738e-06 0.000494888
0.00201772 -0.000245587 -7.95718e-06
-0.000245587 0.000646994 2.15751e-06
-7.95718e-06 2.15751e-06 0.000484976
0.00554987 2.94218e-05 0.000250309
2.94218e-05 0.00301378 -5.75039e-07
0.000250309 -5.75039e-07 0.00302961
0.0018887 -2.71147e-05 0.000204611
-2.71147e-05 0.000784287 -9.60064e-06
0.000204611 -9.60064e-06 0.00077111
0.00242461 8.79787e-06 4.15985e-05
8.79787e-06 0.00101839 -9.07188e-07
4.15985e-05 -9.07188e-07 0.00095557
0.00159715 -9.42387e-05 5.09723e-05
-9.42387e-05 0.000521991 -5.82253e-06
5.09723e-05 -5.82253e-06 0.000444615
0.00160348 -0.000114105 5.30578e-05
-0.000114105 0.000535112 -9.70761e-06
5.30578e-05 -9.70761e-06 0.00045214
0.00189152 -0.000155252 1.16206e-05
-0.000155252 0.000512867 -2.97015e-06
1.16206e-05 -2.97015e-06 0.000375831
0.00172153 -0.000205984 1.6357e-05
-0.000205984 0.000440874 -5.65455e-06
1.6357e-05 -5.65455e-06 0.000288085
0.00144405 -4.70282e-05 0.000180417
-4.70282e-05 0.000531637 -2.0823e-05
0.000180417 -2.0823e-05 0.000517271
0.00148373 -4.76892e-05 2.01597e-05
-4.76892e-05 0.000523475 -1.17505e-05
2.01597e-05 -1.17505e-05 0.000420739
0.00197759 -0.000262501 1.4597e-05
-0.000262501 0.000659528 -7.40396e-06
1.4597e-05 -7.40396e-06 0.000487835
0.00135643 -0.000276456 6.77799e-06
-0.000276456 0.000103068 -1.8001e-06
6.77799e-06 -1.8001e-06 -0.000100032
0.0060362 0.000187464 -0.000269328
0.000187464 0.00330883 -2.52867e-05
-0.000269328 -2.52867e-05 0.0033123
0.00539609 -0.000145329 -0.000176401
-0.000145329 0.00296003 -1.13851e-05
-0.000176401 -1.13851e-05 0.00294874
0.00584128 8.70164e-06 -0.000231218
8.70164e-06 0.00319318 -1.72775e-05
-0.000231218 -1.72775e-05 0.00319979
0.000501506 0.000194609 -2.4439e-05
0.000194609 -8.36701e-05 -1.69245e-05
-2.4439e-05 -1.69245e-05 -0.000190251
0.00604051 0.000190984 -2.77582e-06
0.000190984 0.00330942 -2.04155e-06
-2.77582e-06 -2.04155e-06 0.00331397
0.0060469 0.000124514 -8.95462e-06
0.000124514 0.00331395 -1.84936e-06
-8.95462e-06 -1.84936e-06 0.00331858
0.000476459 0.000124863 -2.40659e-08
0.000124863 -0.000146945 -2.59898e-07
-2.40659e-08 -2.59898e-07 -0.000242064
0.00300583 -0.00012764 -7.50928e-05
-0.00012764 0.00152546 -3.00856e-06
-7.50928e-05 -3.00856e-06 0.0014938
0.000477735 0.000191005 -2.7475e-07
0.000191005 -0.000107718 -4.2008e-07
-2.7475e-07 -4.2008e-07 -0.000213931
0.00161787 0.00017032 4.35341e-05
0.00017032 0.000593209 1.8324e-06
4.35341e-05 1.8324e-06 0.000508844
0.000854802 0.000192254 3.32144e-07
0.000192254 2.07373e-05 2.49964e-08
3.32144e-07 2.49964e-08 -0.000155495
0.00445234 -0.000115376 0.000161156
-0.000115376 0.00239039 1.10489e-05
0.000161156 1.10489e-05 0.00238869
0.000717211 -3.88058e-06 7.3868e-06
-3.88058e-06 0.000107427 1.00255e-05
7.3868e-06 1.00255e-05 5.85989e-05
0.000584966 9.49375e-05 1.65678e-05
9.49375e-05 -0.000102494 9.19596e-06
1.65678e-05 9.19596e-06 -0.000192566
0.000630027 0.00015133 2.15262e-05
0.00015133 -4.11654e-05 1.60651e-05
2.15262e-05 1.60651e-05 -0.000142296
0.00100446 0.000172108 1.4221e-05
0.000172108 -8.11359e-06 5.43689e-06
1.4221e-05 5.43689e-06 -0.000168775
0.00269789 0.000109684 0.000104725
0.000109684 0.00126763 1.38798e-05
0.000104725 1.38798e-05 0.00120515
0.000891659 0.000191138 1.28538e-05
0.000191138 2.74872e-06 6.57082e-06
1.28538e-05 6.57082e-06 -0.000167935
0.000851037 0.000201427 1.05267e-05
0.000201427 8.46302e-05 4.99724e-06
1.05267e-05 4.99724e-06 -0.000101654
0.00109103 0.000256556 4.82507e-06
0.000256556 9.87817e-05 1.92662e-06
4.82507e-06 1.92662e-06 -0.000117405
0.0029758 -0.00012127 7.58064e-05
-0.00012127 0.00149492 2.79709e-06
7.58064e-05 2.79709e-06 0.00149503
0.0033891 -0.000143522 1.36176e-05
-0.000143522 0.00175391 -1.93076e-07
1.36176e-05 -1.93076e-07 0.00174767
0.00594208 3.69445e-05 -0.00026162
3.69445e-05 0.0032395 -1.16152e-05
-0.00026162 -1.16152e-05 0.00325292
0.0057596 6.39374e-05 -0.00026222
6.39374e-05 0.00313567 -7.13942e-06
-0.00026222 -7.13942e-06 0.00315125
0.00565672 8.44974e-05 -9.61955e-08
8.44974e-05 0.00308497 -3.07559e-06
-9.61955e-08 -3.07559e-06 0.00309599
0.0035509 2.03172e-05 -0.000112319
2.03172e-05 0.0018007 -5.01814e-06
-0.000112319 -5.01814e-06 0.00179174
0.00163915 3.50962e-05 5.35026e-05
3.50962e-05 0.000528554 1.18934e-06
5.35026e-05 1.18934e-06 0.000465478
0.00372754 0.000122925 -0.0001014
0.000122925 0.00191312 -5.37039e-06
-0.0001014 -5.37039e-06 0.00189449
0.00168313 8.29311e-05 5.33884e-05
8.29311e-05 0.000554165 2.27077e-06
5.33884e-05 2.27077e-06 0.000484468
0.00561913 0.000134682 0.000258378
0.000134682 0.00307229 6.51741e-06
0.000258378 6.51741e-06 0.00307746
0.000541729 1.07062e-05 1.87357e-05
1.07062e-05 -0.000131455 6.47738e-07
1.87357e-05 6.47738e-07 -0.000206063
0.00273872 3.05479e-05 0.000123961
3.05479e-05 0.00118827 5.08458e-06
0.000123961 5.08458e-06 0.00113833
0.00102761 4.23449e-05 1.24023e-05
4.23449e-05 -2.42011e-05 1.15585e-06
1.24023e-05 1.15585e-06 -0.000150268
0.00265743 0.000107154 0.000127732
0.000107154 0.00114597 9.79101e-06
0.000127732 9.79101e-06 0.00108747
0.0010743 0.000100314 1.2292e-05
0.000100314 -5.00379e-06 2.38826e-06
1.2292e-05 2.38826e-06 -0.000143011
0.00170398 4.29306e-05 -0.00020906
4.29306e-05 0.00066804 2.02371e-06
-0.00020906 2.02371e-06 0.000664177
0.00130527 -4.5948e-06 -4.66461e-05
-4.5948e-06 0.000452212 1.95388e-06
-4.66461e-05 1.95388e-06 0.000412821
0.00146952 4.40613e-05 -1.95141e-05
4.40613e-05 0.000574066 6.75997e-06
-1.95141e-05 6.75997e-06 0.000526478
0.00127735 -8.55125e-05 -6.03521e-05
-8.55125e-05 0.000446472 8.64408e-06
-6.03521e-05 8.64408e-06 0.00040312
0.00178179 -7.58087e-05 -0.000109662
-7.58087e-05 0.000624834 9.66506e-06
-0.000109662 9.66506e-06 0.00055954
0.00173954 -0.000120716 -0.000109957
-0.000120716 0.000613225 1.61433e-05
-0.000109957 1.61433e-05 0.000542744
0.00164922 -0.000151373 -0.000113901
-0.000151373 0.000581937 1.99935e-05
-0.000113901 1.99935e-05 0.000501515
0.00200424 -0.000244338 -2.92953e-05
-0.000244338 0.000636243 1.01309e-05
-2.92953e-05 1.01309e-05 0.00047452
0.00564327 -9.03761e-05 2.08706e-06
-9.03761e-05 0.00307849 -1.61138e-06
2.08706e-06 -1.61138e-06 0.00308856
0.00156158 4.06557e-05 8.38541e-05
4.06557e-05 0.00059254 -3.47426e-06
8.38541e-05 -3.47426e-06 0.000570454
0.00113362 -4.22787e-06 -5.66227e-05
-4.22787e-06 0.000228447 1.24415e-06
-5.66227e-05 1.24415e-06 0.000163864
0.00165763 -5.92769e-05 -3.13115e-05
-5.92769e-05 0.000553251 2.03923e-06
-3.13115e-05 2.03923e-06 0.000482641
0.00356678 2.826e-05 0.000191525
2.826e-05 0.00184396 -6.51396e-06
0.000191525 -6.51396e-06 0.0018307
0.00213691 -0.000121023 -3.56979e-05
-0.000121023 0.000900341 1.60847e-06
-3.56979e-05 1.60847e-06 0.000810444
0.00166677 -0.000115148 -2.69882e-05
-0.000115148 0.00056958 1.97894e-06
-2.69882e-05 1.97894e-06 0.000493386
0.00185426 -0.000151138 -9.28642e-06
-0.000151138 0.000487037 1.66621e-06
-9.28642e-06 1.66621e-06 0.000350396
0.00198533 -0.000264903 -6.76038e-06
-0.000264903 0.000661526 1.96845e-06
-6.76038e-06 1.96845e-06 0.000488982
0.00187313 -0.000212604 -5.49156e-06
-0.000212604 0.000532381 1.40499e-06
-5.49156e-06 1.40499e-06 0.000379767
0.00137906 -0.000277496 4.17303e-07
-0.000277496 0.000117352 -1.29577e-07
4.17303e-07 -1.29577e-07 -8.53351e-05
0.000582661 1.23538e-05 1.93604e-05
1.23538e-05 -0.000109725 -1.02666e-06
1.93604e-05 -1.02666e-06 -0.000181083
0.00152493 1.03313e-05 4.19056e-05
1.03313e-05 0.000473094 -2.55061e-06
4.19056e-05 -2.55061e-06 0.000403228
0.00168517 -4.08034e-05 1.23753e-05
-4.08034e-05 0.000375947 -8.79173e-07
1.23753e-05 -8.79173e-07 0.000260024
0.0016957 -0.000118522 1.23468e-05
-0.000118522 0.000384412 -2.16191e-06
1.23468e-05 -2.16191e-06 0.000253733
0.00170442 -0.000177018 1.46308e-05
-0.000177018 0.000406696 -4.15449e-06
1.46308e-05 -4.15449e-06 0.00026253
0.0017527 -0.000201666 1.04488e-06
-0.000201666 0.000237026 -4.61257e-07
1.04488e-06 -4.61257e-07 7.82921e-05
0.00500034 0.00018678 0.000143578
0.00018678 0.00274802 -1.08737e-05
0.000143578 -1.08737e-05 0.00272485
0.0014047 -0.000256656 5.67868e-06
-0.000256656 9.34973e-05 -1.52647e-06
5.67868e-06 -1.52647e-06 -9.5662e-05
0.000365517 -0.000130957 1.99398e-05
-0.000130957 -0.000161995 -1.61076e-05
1.99398e-05 -1.61076e-05 -0.000245867
0.000847402 -0.000198503 1.12497e-05
-0.000198503 1.26569e-05 -6.94389e-06
1.12497e-05 -6.94389e-06 -0.000163746
0.00138031 -0.000301401 7.6562e-06
-0.000301401 0.000166963 -2.64428e-06
7.6562e-06 -2.64428e-06 -5.30506e-05
0.00166651 -0.000352414 2.95715e-06
-0.000352414 0.00016953 1.16122e-06
2.95715e-06 1.16122e-06 -4.14455e-05
0.000402264 -6.748e-05 1.32145e-05
-6.748e-05 -9.16659e-05 -1.37745e-05
1.32145e-05 -1.37745e-05 -0.000159363
0.000477396 -6.21393e-05 -3.83502e-07
-6.21393e-05 -3.12629e-05 -4.88454e-06
-3.83502e-07 -4.88454e-06 -0.000179175
0.00606511 0.000209647 -0.000281171
0.000209647 0.00332934 -2.53635e-05
-0.000281171 -2.53635e-05 0.00333124
0.00594407 0.000107399 -0.000250899
0.000107399 0.00325018 -2.17406e-05
-0.000250899 -2.17406e-05 0.00325813
0.000475144 0.000119687 -1.85121e-05
0.000119687 -0.000149564 -1.11856e-05
-1.85121e-05 -1.11856e-05 -0.00024463
0.00479752 -0.000194394 -0.000137525
-0.000194394 0.00262294 -9.78791e-06
-0.000137525 -9.78791e-06 0.00260146
0.000440051 0.000152423 -2.23738e-05
0.000152423 -0.000121688 -1.58637e-05
-2.23738e-05 -1.58637e-05 -0.000208602
0.000460699 0.000176552 -2.08778e-05
0.000176552 -0.000115114 -1.58661e-05
-2.08778e-05 -1.58661e-05 -0.000222758
0.00090993 0.000195755 -1.22366e-05
0.000195755 5.0691e-05 -5.7632e-06
-1.22366e-05 -5.7632e-06 -0.0001254
0.00422533 -0.000143676 1.19739e-05
-0.000143676 0.00226259 -8.90852e-07
1.19739e-05 -8.90852e-07 0.00225545
0.000507208 -1.55182e-05 5.99674e-07
-1.55182e-05 -1.50578e-05 7.20305e-07
5.99674e-07 7.20305e-07 -6.34274e-05
0.00166271 0.000127519 5.41586e-05
0.000127519 0.000552686 3.98276e-06
5.41586e-05 3.98276e-06 0.000474253
0.00161966 0.000181399 5.29891e-05
0.000181399 0.000561682 3.96011e-06
5.29891e-05 3.96011e-06 0.000471977
0.000983262 0.000171595 1.09487e-07
0.000171595 -1.57604e-05 -2.392e-07
1.09487e-07 -2.392e-07 -0.000176888
0.000559466 0.000105654 -8.42577e-07
0.000105654 -2.76151e-05 -6.55025e-08
-8.42577e-07 -6.55025e-08 -0.000102992
0.000922657 0.000192655 6.93745e-07
0.000192655 2.36229e-05 1.06818e-07
6.93745e-07 1.06818e-07 -0.000146951
0.00084044 0.000193223 2.85412e-07
0.000193223 7.46213e-05 -9.47612e-07
2.85412e-07 -9.47612e-07 -0.00010982
0.00106529 0.000257911 -2.99345e-07
0.000257911 7.95824e-05 -1.09099e-07
-2.99345e-07 -1.09099e-07 -0.000137266
0.000714529 5.81619e-05 1.555e-05
5.81619e-05 8.98107e-05 1.21551e-05
1.555e-05 1.21551e-05 2.58874e-05
0.000613071 -4.26917e-05 2.54189e-06
-4.26917e-05 4.93374e-05 7.9823e-06
2.54189e-06 7.9823e-06 1.02955e-05
0.00101169 9.79275e-05 2.30955e-06
9.79275e-05 0.000304314 5.7399e-06
2.30955e-06 5.7399e-06 0.000162911
0.00104571 0.000151337 1.34946e-05
0.000151337 -7.00958e-06 4.28203e-06
1.34946e-05 4.28203e-06 -0.000160501
0.000957475 0.000187021 1.40972e-05
0.000187021 -1.48352e-07 6.28822e-06
1.40972e-05 6.28822e-06 -0.000166841
0.00148832 0.00027426 5.22594e-06
0.00027426 0.000133785 1.17369e-06
5.22594e-06 1.17369e-06 -6.2769e-05
0.000797725 0.000201222 8.34263e-06
0.000201222 0.000123397 5.87206e-06
8.34263e-06 5.87206e-06 -6.21572e-05
0.00116751 0.000279746 4.80776e-06
0.000279746 7.45287e-05 1.29931e-06
4.80776e-06 1.29931e-06 -0.000141251
0.00111172 0.000262984 5.73587e-06
0.000262984 0.000159782 1.37484e-06
5.73587e-06 1.37484e-06 -7.0964e-05
0.00137006 0.000325688 -2.73193e-06
0.000325688 0.000198426 -1.44856e-06
-2.73193e-06 -1.44856e-06 -4.2215e-05
0.00263285 -0.000125355 3.94904e-05
-0.000125355 0.00128341 2.97993e-06
3.94904e-05 2.97993e-06 0.00128192
0.00283968 -0.000141593 1.01893e-05
-0.000141593 0.00141654 -7.69223e-07
1.01893e-05 -7.69223e-07 0.00141064
0.00315007 -0.00016404 -5.64692e-05
-0.00016404 0.00161357 -2.67849e-06
-5.64692e-05 -2.67849e-06 0.00160121
0.000368944 -3.72072e-05 9.10656e-06
-3.72072e-05 -0.000103345 -1.13414e-05
9.10656e-06 -1.13414e-05 -0.000161192
0.00435298 0.000163835 0.000119554
0.000163835 0.00235327 -8.71477e-06
0.000119554 -8.71477e-06 0.00233684
0.00604809 0.000187873 -0.000283281
0.000187873 0.0033164 -2.18327e-05
-0.000283281 -2.18327e-05 0.00332144
0.00579155 7.52725e-05 -0.000260983
7.52725e-05 0.00315261 -9.90887e-06
-0.000260983 -9.90887e-06 0.00316727
0.000559836 9.26246e-05 -1.9753e-05
9.26246e-05 -0.000123454 -5.06759e-06
-1.9753e-05 -5.06759e-06 -0.000205692
0.000543548 4.16499e-05 -1.93548e-05
4.16499e-05 -0.000129743 -2.52106e-06
-1.93548e-05 -2.52106e-06 -0.000207317
0.00559882 -1.04873e-05 -0.000251683
-1.04873e-05 0.00304059 -1.80794e-06
-0.000251683 -1.80794e-06 0.00305717
0.00555613 1.51749e-05 -5.00813e-07
1.51749e-05 0.00301639 -6.32048e-07
-5.00813e-07 -6.32048e-07 0.00303272
0.000524954 8.78242e-07 -1.18905e-07
8.78242e-07 -0.000144165 8.31663e-09
-1.18905e-07 8.31663e-09 -0.000216981
0.00162642 3.4443e-05 5.35772e-05
3.4443e-05 0.000517762 2.07168e-06
5.35772e-05 2.07168e-06 0.000453812
0.00100229 4.60335e-05 -3.79299e-08
4.60335e-05 -4.08964e-05 -1.37068e-07
-3.79299e-08 -1.37068e-07 -0.000167505
0.000524523 7.79957e-05 -4.16231e-07
7.79957e-05 -0.000141177 -3.29556e-07
-4.16231e-07 -3.29556e-07 -0.000227899
0.00102271 0.000101346 -1.61653e-07
0.000101346 -3.52183e-05 -1.58481e-07
-1.61653e-07 -1.58481e-07 -0.000173953
0.000518582 -2.91093e-05 1.92844e-05
-2.91093e-05 -0.000149651 -8.04775e-07
1.92844e-05 -8.04775e-07 -0.000219977
0.000998421 1.79527e-05 1.22134e-05
1.79527e-05 -3.55112e-05 5.09929e-07
1.22134e-05 5.09929e-07 -0.000158997
0.00103317 7.10627e-05 1.21242e-05
7.10627e-05 -2.6327e-05 1.84427e-06
1.21242e-05 1.84427e-06 -0.000157438
0.00154022 7.19277e-05 4.15854e-07
7.19277e-05 5.40242e-05 -1.10702e-07
4.15854e-07 -1.10702e-07 -6.93053e-05
0.00107173 0.000126255 1.27392e-05
0.000126255 -2.9451e-06 3.21131e-06
1.27392e-05 3.21131e-06 -0.000148557
0.00161149 0.00016317 1.76585e-06
0.00016317 0.000100913 -4.48668e-09
1.76585e-06 -4.48668e-09 -4.47195e-05
0.0055646 -5.07899e-05 -0.000257093
-5.07899e-05 0.0030255 1.23067e-06
-0.000257093 1.23067e-06 0.00303951
0.00126931 -0.000142311 -4.86004e-05
-0.000142311 0.000438232 5.24573e-06
-4.86004e-05 5.24573e-06 0.000397923
-0.000273549 -2.88121e-06 -1.26803e-05
-2.88121e-06 -0.000618646 2.05782e-06
-1.26803e-05 2.05782e-06 -0.000704484
0.00175366 -5.26721e-05 -0.000109352
-5.26721e-05 0.000605637 6.88455e-06
-0.000109352 6.88455e-06 0.000542245
0.00534034 0.000348235 7.35241e-06
0.000348235 0.00298809 6.88663e-06
7.35241e-06 6.88663e-06 0.00291828
0.00277624 -0.000207104 -0.000116204
-0.000207104 0.00127753 2.03368e-05
-0.000116204 2.03368e-05 0.00119403
0.0017728 -9.84024e-05 -0.000109551
-9.84024e-05 0.000624337 1.2849e-05
-0.000109551 1.2849e-05 0.00055732
0.00178882 -0.000145745 -2.84647e-05
-0.000145745 0.000444 5.47142e-06
-2.84647e-05 5.47142e-06 0.000308003
0.00200499 -0.000217905 -2.78146e-05
-0.000217905 0.000611687 8.47555e-06
-2.78146e-05 8.47555e-06 0.000459603
0.00201954 -0.000268777 -2.69676e-05
-0.000268777 0.000680761 1.08204e-05
-2.69676e-05 1.08204e-05 0.000507131
0.00140315 -0.000278595 -5.44854e-06
-0.000278595 0.000132765 1.47915e-06
-5.44854e-06 1.47915e-06 -6.95229e-05
0.000521152 6.62315e-06 -6.26109e-08
6.62315e-06 -0.000144788 1.5127e-07
-6.26109e-08 1.5127e-07 -0.000217101
0.00165084 -7.23944e-05 -3.04287e-05
-7.23944e-05 0.00055062 3.46542e-07
-3.04287e-05 3.46542e-07 0.000483353
0.00127683 -3.63563e-05 -8.18404e-06
-3.63563e-05 0.00013025 4.66705e-07
-8.18404e-06 4.66705e-07 9.83037e-06
0.0018341 -0.000119738 -6.3953e-06
-0.000119738 0.000467022 9.80738e-07
-6.3953e-06 9.80738e-07 0.000337086
0.00515884 0.000160133 -4.28379e-06
0.000160133 0.00283361 -6.0403e-07
-4.28379e-06 -6.0403e-07 0.00281673
0.00158256 -0.000120405 -6.75353e-07
-0.000120405 0.000587221 1.22478e-07
-6.75353e-07 1.22478e-07 0.000490652
0.00131041 -0.00022771 1.39261e-06
-0.00022771 0.000299759 -9.46617e-07
1.39261e-06 -9.46617e-07 0.000121962
0.00174226 -0.000178302 -6.60245e-06
-0.000178302 0.000429555 1.54389e-06
-6.60245e-06 1.54389e-06 0.000285089
0.0016782 -0.000200715 -1.95938e-06
-0.000200715 0.000189247 3.81087e-07
-1.95938e-06 3.81087e-07 3.23962e-05
0.00134503 -0.000299145 6.02184e-07
-0.000299145 0.000148912 -1.16168e-07
6.02184e-07 -1.16168e-07 -7.07153e-05
0.00157355 -0.00026383 4.51321e-07
-0.00026383 0.000195516 -1.52164e-07
4.51321e-07 -1.52164e-07 7.30821e-06
0.00169684 -0.000352909 6.42731e-07
-0.000352909 0.000192482 1.50369e-08
6.42731e-07 1.50369e-08 -1.7935e-05
0.000490453 -7.35751e-05 -9.09266e-07
-7.35751e-05 -4.15051e-05 3.46422e-07
-9.09266e-07 3.46422e-07 -0.00011178
0.000664909 -8.72113e-05 4.60085e-08
-8.72113e-05 7.94378e-05 -2.55464e-08
4.60085e-08 -2.55464e-08 -7.12501e-05
0.000981348 -1.75406e-05 1.21639e-05
-1.75406e-05 -3.94814e-05 -7.53315e-07
1.21639e-05 -7.53315e-07 -0.000162625
0.00172824 -7.5187e-05 1.15232e-05
-7.5187e-05 0.000400905 -1.40729e-06
1.15232e-05 -1.40729e-06 0.000279512
0.00169991 -6.71861e-05 9.84746e-08
-6.71861e-05 0.000169885 2.37139e-07
9.84746e-08 2.37139e-07 4.50458e-05
0.00158453 -0.000161583 1.93402e-06
-0.000161583 0.000115557 9.98173e-08
1.93402e-06 9.98173e-08 -2.73175e-05
0.00170277 -0.000242516 2.63923e-06
-0.000242516 0.000236599 -4.0096e-07
2.63923e-06 -4.0096e-07 6.56056e-05
0.00184871 -0.000242097 -1.62443e-07
-0.000242097 0.000161695 5.68199e-07
-1.62443e-07 5.68199e-07 1.93542e-05
0.000401914 -0.000109265 1.79816e-05
-0.000109265 -0.000116235 -1.52043e-05
1.79816e-05 -1.52043e-05 -0.000193041
0.00171754 -0.000322868 1.13004e-06
-0.000322868 0.000161335 1.06908e-06
1.13004e-06 1.06908e-06 -2.39262e-05
0.000693065 -0.000185462 7.62792e-06
-0.000185462 -4.47502e-06 -7.50864e-06
7.62792e-06 -7.50864e-06 -0.000186774
0.00109641 -0.000286203 9.87103e-06
-0.000286203 6.70843e-05 -3.93426e-06
9.87103e-06 -3.93426e-06 -0.000160846
0.00184376 -0.000400044 2.59165e-06
-0.000400044 0.000333752 6.60463e-07
2.59165e-06 6.60463e-07 9.02372e-05
0.00201648 -0.000386926 -2.16817e-06
-0.000386926 0.000328001 3.49225e-06
-2.16817e-06 3.49225e-06 0.000136919
0.000613248 -0.000146524 1.09836e-06
-0.000146524 5.95964e-05 -4.75847e-06
1.09836e-06 -4.75847e-06 -0.000120643
0.000595092 -5.1787e-05 -3.91131e-07
-5.1787e-05 3.71713e-05 -5.04704e-06
-3.91131e-07 -5.04704e-06 -8.49956e-05
0.00107035 -0.000202276 -2.01123e-06
-0.000202276 0.000346846 1.30161e-06
-2.01123e-06 1.30161e-06 0.000124092
0.000505126 9.89862e-05 -1.7916e-05
9.89862e-05 -0.000145497 -8.54705e-06
-1.7916e-05 -8.54705e-06 -0.000236331
0.00390428 -0.000174235 -9.6993e-05
-0.000174235 0.0020755 -4.65871e-06
-9.6993e-05 -4.65871e-06 0.0020606
0.000358814 -2.87185e-05 -1.8928e-06
-2.87185e-05 -9.84359e-05 -9.29795e-06
-1.8928e-06 -9.29795e-06 -0.000147768
0.000455815 0.000148506 -1.97018e-05
0.000148506 -0.000139136 -1.39775e-05
-1.97018e-05 -1.39775e-05 -0.000240637
0.000960415 0.000171226 -1.48127e-05
0.000171226 -2.44963e-05 -5.89436e-06
-1.48127e-05 -5.89436e-06 -0.000186101
0.000378887 9.6707e-05 -1.90717e-05
9.6707e-05 -0.000136632 -1.41756e-05
-1.90717e-05 -1.41756e-05 -0.000208252
0.000705169 0.000178656 -9.17966e-06
0.000178656 -8.6112e-06 -6.698e-06
-9.17966e-06 -6.698e-06 -0.000190836
0.000934928 0.000192827 -1.28263e-05
0.000192827 3.37083e-05 -6.64171e-06
-1.28263e-05 -6.64171e-06 -0.000136588
0.00103122 0.000258281 -6.11426e-06
0.000258281 5.54918e-05 -1.91942e-06
-6.11426e-06 -1.91942e-06 -0.000161781
0.000536097 4.57682e-05 2.22069e-06
4.57682e-05 -1.49199e-05 5.9378e-07
2.22069e-06 5.9378e-07 -7.64408e-05
0.00050453 -5.68119e-05 2.44226e-07
-5.68119e-05 -1.07491e-05 2.60861e-07
2.44226e-07 2.60861e-07 -5.19876e-05
0.00056746 5.53748e-05 8.06808e-07
5.53748e-05 2.13611e-05 4.21314e-07
8.06808e-07 4.21314e-07 -0.000103652
0.00101478 0.000151388 -3.31534e-08
0.000151388 -2.20091e-05 -2.73284e-07
-3.31534e-08 -2.73284e-07 -0.000176237
0.00094524 0.000185935 3.48788e-07
0.000185935 -2.27731e-06 -1.95306e-07
3.48788e-07 -1.95306e-07 -0.00016902
0.00148179 0.00027412 7.07147e-08
0.00027412 0.00012917 -4.67019e-08
7.07147e-08 -4.67019e-08 -6.77898e-05
0.000815798 0.000187716 -4.99703e-07
0.000187716 0.000132613 -1.26988e-07
-4.99703e-07 -1.26988e-07 -5.13984e-05
0.00127064 0.000284468 2.61956e-07
0.000284468 0.000135781 5.93283e-08
2.61956e-07 5.93283e-08 -8.0574e-05
0.00110585 0.000263447 1.03503e-07
0.000263447 0.0001567 -8.50703e-07
1.03503e-07 -8.50703e-07 -7.35432e-05
0.00130654 0.000332159 -9.15373e-07
0.000332159 0.000151858 1.01624e-07
-9.15373e-07 1.01624e-07 -9.13703e-05
0.000546722 -6.21873e-05 -1.41778e-06
-6.21873e-05 6.58327e-06 6.81223e-06
-1.41778e-06 6.81223e-06 -2.70302e-05
0.000831144 0.000145259 5.47067e-06
0.000145259 0.000174604 4.97161e-06
5.47067e-06 4.97161e-06 9.47581e-06
0.000653397 2.2987e-05 1.96052e-06
2.2987e-05 6.69694e-05 4.87184e-06
1.96052e-06 4.87184e-06 -2.95193e-05
0.00103303 0.00013136 1.22494e-06
0.00013136 0.000343101 2.04433e-07
1.22494e-06 2.04433e-07 0.000143818
0.00155613 0.000243887 3.69353e-06
0.000243887 0.000122545 4.24545e-08
3.69353e-06 4.24545e-08 -5.64129e-05
0.00137678 0.000289856 5.67473e-06
0.000289856 0.000129691 1.52731e-06
5.67473e-06 1.52731e-06 -8.09482e-05
0.0018183 0.000351001 1.14429e-06
0.000351001 0.000217975 -2.67555e-07
1.14429e-06 -2.67555e-07 1.74916e-05
0.00103797 0.000231632 4.73798e-06
0.000231632 0.000192097 2.39975e-06
4.73798e-06 2.39975e-06 -2.90443e-05
0.00184355 0.000411445 -2.21578e-06
0.000411445 0.000380818 -9.54703e-07
-2.21578e-06 -9.54703e-07 0.000137505
0.00135611 0.000329318 -4.44432e-07
0.000329318 0.000238319 -1.02071e-06
-4.44432e-07 -1.02071e-06 -2.80021e-05
0.00151096 0.000377685 -2.48995e-07
0.000377685 0.000169052 -4.84282e-07
-2.48995e-07 -4.84282e-07 -8.18483e-05
0.00059359 1.79465e-05 2.49733e-06
1.79465e-05 2.0603e-05 2.65328e-06
2.49733e-06 2.65328e-06 -3.45418e-05
0.000511672 -4.12991e-05 7.5026e-07
-4.12991e-05 -4.03096e-05 5.07721e-06
7.5026e-07 5.07721e-06 -6.20705e-05
0.00248429 -0.000110994 2.96489e-05
-0.000110994 0.00118502 3.35223e-06
2.96489e-05 3.35223e-06 0.00118725
0.0025724 -0.000126533 4.02801e-06
-0.000126533 0.00124723 -4.49436e-07
4.02801e-06 -4.49436e-07 0.00124523
0.00273759 -0.000145747 -3.68967e-05
-0.000145747 0.00135617 -2.90778e-06
-3.68967e-05 -2.90778e-06 0.00134874
0.000443555 -2.39232e-05 6.78329e-06
-2.39232e-05 -6.08481e-05 -9.68525e-06
6.78329e-06 -9.68525e-06 -0.000108378
0.00374183 0.000138001 0.000102541
0.000138001 0.00197299 -6.48901e-06
0.000102541 -6.48901e-06 0.0019646
0.000538607 -4.11384e-05 -6.54617e-07
-4.11384e-05 -5.01716e-06 4.97651e-07
-6.54617e-07 4.97651e-07 -6.35074e-05
0.00457184 0.000146953 -8.65968e-06
0.000146953 0.00247884 -1.23296e-06
-8.65968e-06 -1.23296e-06 0.00246643
0.000552264 0.000102826 -1.93336e-05
0.000102826 -0.000122518 -6.77603e-06
-1.93336e-05 -6.77603e-06 -0.000210874
0.000563905 3.36209e-05 -1.85052e-05
3.36209e-05 -0.000122477 -3.35759e-06
-1.85052e-05 -3.35759e-06 -0.000200582
0.000991922 0.000102331 -1.21061e-05
0.000102331 -5.41768e-05 -2.67715e-06
-1.21061e-05 -2.67715e-06 -0.000193506
0.000977173 4.81524e-05 -1.22982e-05
4.81524e-05 -5.74216e-05 -1.39998e-06
-1.22982e-05 -1.39998e-06 -0.000184422
0.00057961 -7.02445e-06 -1.94521e-05
-7.02445e-06 -0.000114875 -7.94132e-07
-1.94521e-05 -7.94132e-07 -0.000185726
0.00564045 -9.50532e-05 -0.000264193
-9.50532e-05 0.00307647 4.16042e-06
-0.000264193 4.16042e-06 0.00308775
0.000564617 -9.41723e-07 1.15017e-07
-9.41723e-07 -0.000122524 -5.40556e-07
1.15017e-07 -5.40556e-07 -0.000192969
0.000985914 2.28776e-05 -6.91786e-08
2.28776e-05 -4.36861e-05 -5.70005e-08
-6.91786e-08 -5.70005e-08 -0.000167438
0.00102043 7.29284e-05 -1.31677e-07
7.29284e-05 -3.55847e-05 -7.45247e-08
-1.31677e-07 -7.45247e-08 -0.000167206
0.00154605 7.09443e-05 -7.79134e-08
7.09443e-05 5.99263e-05 1.43127e-07
-7.79134e-08 1.43127e-07 -6.35123e-05
0.00103048 0.000127547 -1.93556e-07
0.000127547 -2.62192e-05 -2.28198e-07
-1.93556e-07 -2.28198e-07 -0.000172819
0.00158349 0.000162752 -9.32232e-08
0.000162752 8.43433e-05 3.4493e-08
-9.32232e-08 3.4493e-08 -6.18099e-05
0.000978602 -1.50775e-06 1.21532e-05
-1.50775e-06 -4.16009e-05 -2.56434e-07
1.21532e-05 -2.56434e-07 -0.000164413
0.00152587 3.63499e-05 7.38199e-07
3.63499e-05 5.32521e-05 8.60208e-08
7.38199e-07 8.60208e-08 -6.52425e-05
0.00157367 0.000115998 6.77354e-07
0.000115998 7.15809e-05 -2.61314e-07
6.77354e-07 -2.61314e-07 -6.11599e-05
0.00186991 0.000101995 -8.48374e-07
0.000101995 9.97867e-05 -5.64324e-07
-8.48374e-07 -5.64324e-07 1.00031e-05
0.00160292 0.000207051 2.73753e-06
0.000207051 0.00011182 1.11787e-07
2.73753e-06 1.11787e-07 -4.96375e-05
0.00186475 0.000205864 2.46538e-07
0.000205864 0.000127423 -1.44981e-06
2.46538e-07 -1.44981e-06 3.53025e-06
0.000545931 -2.30241e-07 -1.85981e-05
-2.30241e-07 -0.000127357 1.03669e-06
-1.85981e-05 1.03669e-06 -0.000201599
0.00173559 -2.96425e-05 -0.000108353
-2.96425e-05 0.000595217 4.51669e-06
-0.000108353 4.51669e-06 0.000535153
0.000838489 -3.07496e-05 -1.54183e-05
-3.07496e-05 -0.000132962 1.69667e-06
-1.54183e-05 1.69667e-06 -0.000258144
0.0019553 -0.000119812 -2.56231e-05
-0.000119812 0.000538817 3.93548e-06
-2.56231e-05 3.93548e-06 0.0004098
0.00539779 0.000147458 -0.000178348
0.000147458 0.00297729 1.52438e-05
-0.000178348 1.52438e-05 0.00296058
0.0028179 -0.00017404 -0.000116945
-0.00017404 0.00132218 1.61754e-05
-0.000116945 1.61754e-05 0.00124745
0.00197933 -0.000276962 -2.20831e-05
-0.000276962 0.000706735 9.314e-06
-2.20831e-05 9.314e-06 0.000524218
0.00175901 -0.000178149 -2.73209e-05
-0.000178149 0.000439347 6.87153e-06
-2.73209e-05 6.87153e-06 0.00029492
0.00160169 -0.000199727 -4.83101e-06
-0.000199727 0.000139916 6.91889e-07
-4.83101e-06 6.91889e-07 -1.50562e-05
0.00174305 -0.000271098 -5.90612e-06
-0.000271098 0.000298367 1.65983e-06
-5.90612e-06 1.65983e-06 0.000111088
0.0012725 -0.000294669 -6.79048e-06
-0.000294669 0.000107983 1.66226e-06
-6.79048e-06 1.66226e-06 -0.000111065
0.00172479 -0.000353594 -1.21513e-06
-0.000353594 0.000212848 -1.27516e-06
-1.21513e-06 -1.27516e-06 2.91985e-06
0.000650232 -8.56797e-05 -1.55023e-05
-8.56797e-05 5.27713e-05 1.3873e-05
-1.55023e-05 1.3873e-05 -1.96651e-05
0.000879255 -0.000115429 -8.59529e-07
-0.000115429 0.000208792 4.46202e-06
-8.59529e-07 4.46202e-06 5.39906e-05
0.000900564 -1.23599e-05 -9.94902e-08
-1.23599e-05 -8.94752e-05 -1.2706e-08
-9.94902e-08 -1.2706e-08 -0.000212287
0.00173598 -7.6382e-05 -6.80811e-06
-7.6382e-05 0.000404251 7.57853e-07
-6.80811e-06 7.57853e-07 0.000282946
0.00173879 -6.37669e-05 -1.32135e-06
-6.37669e-05 0.000190539 2.13729e-07
-1.32135e-06 2.13729e-07 6.93239e-05
0.00163552 -0.000161705 -1.11053e-06
-0.000161705 0.000148908 3.50801e-07
-1.11053e-06 3.50801e-07 3.72426e-06
0.000504999 -0.000120021 6.99558e-07
-0.000120021 -5.38818e-05 2.61097e-07
6.99558e-07 2.61097e-07 -0.000134478
0.000838353 -0.00019988 -7.01449e-07
-0.00019988 7.97575e-05 -3.68214e-07
-7.01449e-07 -3.68214e-07 -0.00010391
0.00110232 -0.000287663 2.3202e-06
-0.000287663 7.07161e-05 -9.11815e-07
2.3202e-06 -9.11815e-07 -0.000157599
0.00172483 -0.000241837 -3.04136e-06
-0.000241837 0.000249698 7.94249e-07
-3.04136e-06 7.94249e-07 7.72475e-05
0.00189105 -0.000246168 1.27894e-06
-0.000246168 0.000181135 -3.30253e-07
1.27894e-06 -3.30253e-07 4.30719e-05
0.00187484 -0.00040769 -1.35523e-06
-0.00040769 0.000352952 1.04623e-08
-1.35523e-06 1.04623e-08 0.000108315
0.00174238 -0.000323964 5.23849e-07
-0.000323964 0.000177296 2.64898e-08
5.23849e-07 2.64898e-08 -7.77754e-06
0.00192629 -0.000383396 8.34934e-07
-0.000383396 0.000266524 6.4903e-07
8.34934e-07 6.4903e-07 7.55426e-05
0.000702806 -0.000154767 1.73447e-07
-0.000154767 0.000108179 -2.18053e-07
1.73447e-07 -2.18053e-07 -6.91651e-05
0.000507216 -0.00012854 -6.77299e-07
-0.00012854 -8.82426e-06 -3.27478e-07
-6.77299e-07 -3.27478e-07 -0.00021351
0.000681599 -6.56157e-05 1.08694e-07
-6.56157e-05 8.89701e-05 2.03138e-07
1.08694e-07 2.03138e-07 -3.71845e-05
0.00166717 -2.78137e-05 -1.53263e-07
-2.78137e-05 0.000149388 1.71185e-07
-1.53263e-07 1.71185e-07 2.95955e-05
0.00178187 -0.000110534 -5.22706e-07
-0.000110534 0.000218767 7.96126e-07
-5.22706e-07 7.96126e-07 9.06376e-05
0.00177946 -8.81458e-05 -4.9145e-07
-8.81458e-05 6.0625e-05 1.15539e-06
-4.9145e-07 1.15539e-06 -3.44339e-05
0.00181631 -0.000200633 -2.1395e-06
-0.000200633 0.000114459 1.29856e-06
-2.1395e-06 1.29856e-06 -7.79257e-06
0.00168889 -0.000289842 -5.39508e-07
-0.000289842 0.000102287 1.84625e-06
-5.39508e-07 1.84625e-06 -5.73326e-05
0.00193913 -0.000267636 4.89073e-07
-0.000267636 0.000160682 4.03185e-07
4.89073e-07 4.03185e-07 4.7788e-05
0.000716536 -0.000186016 4.30274e-06
-0.000186016 7.57559e-05 -6.45709e-06
4.30274e-06 -6.45709e-06 -0.000107858
0.00180016 -0.00035073 -2.16359e-06
-0.00035073 0.00014469 1.91673e-06
-2.16359e-06 1.91673e-06 -1.82502e-05
0.00118159 -0.000280488 6.34535e-06
-0.000280488 0.000204345 -4.58959e-06
6.34535e-06 -4.58959e-06 -2.45153e-05
0.00153716 -0.00041774 3.54802e-06
-0.00041774 0.000250877 -7.52115e-08
3.54802e-06 -7.52115e-08 -2.93886e-05
0.00196679 -0.000441052 1.46984e-06
-0.000441052 0.000348256 3.51801e-06
1.46984e-06 3.51801e-06 0.00010728
0.00207547 -0.000406268 -2.84702e-06
-0.000406268 0.000343594 3.26336e-06
-2.84702e-06 3.26336e-06 0.000167638
0.000644264 -4.36921e-05 -5.18084e-07
-4.36921e-05 7.83769e-05 -4.56499e-06
-5.18084e-07 -4.56499e-06 -2.89556e-05
0.000840422 -0.000200768 -4.26131e-07
-0.000200768 0.000148465 -1.76358e-07
-4.26131e-07 -1.76358e-07 -5.46821e-05
0.000432455 -0.000111316 -1.74723e-06
-0.000111316 -1.08057e-05 2.52753e-06
-1.74723e-06 2.52753e-06 -0.000217769
0.00149087 -0.000272219 -4.66634e-06
-0.000272219 0.000546419 2.53691e-06
-4.66634e-06 2.53691e-06 0.000317632
0.000981215 0.00015162 -1.41292e-05
0.00015162 -3.87556e-05 -4.77642e-06
-1.41292e-05 -4.77642e-06 -0.000193738
0.000395514 -6.17402e-05 2.33963e-06
-6.17402e-05 -7.36051e-05 -8.01247e-06
2.33963e-06 -8.01247e-06 -0.000115688
0.000275104 2.63941e-05 -8.79169e-06
2.63941e-05 -0.000166593 -1.20076e-05
-8.79169e-06 -1.20076e-05 -0.000226295
0.000505742 1.29848e-05 -5.23481e-07
1.29848e-05 -1.38472e-05 -5.27988e-06
-5.23481e-07 -5.27988e-06 -0.00013384
0.000936459 0.00018535 -1.4313e-05
0.00018535 -2.29209e-06 -6.80746e-06
-1.4313e-05 -6.80746e-06 -0.000169173
0.00147588 0.000273912 -5.10041e-06
0.000273912 0.000125028 -1.16482e-06
-5.10041e-06 -1.16482e-06 -7.23096e-05
0.00066468 0.000172142 -5.64569e-06
0.000172142 4.14197e-05 -4.54032e-06
-5.64569e-06 -4.54032e-06 -0.000140532
0.00123452 0.000275747 -6.92527e-06
0.000275747 0.000235501 -2.98181e-06
-6.92527e-06 -2.98181e-06 3.99978e-06
0.00136073 0.000288273 -4.83432e-06
0.000288273 0.00018909 -1.96212e-06
-4.83432e-06 -1.96212e-06 -2.77719e-05
0.00123152 0.000336491 -1.6779e-06
0.000336491 0.000100692 4.42949e-07
-1.6779e-06 4.42949e-07 -0.000144662
0.000482421 -6.21149e-05 -1.2389e-06
-6.21149e-05 -3.23674e-05 4.54916e-07
-1.2389e-06 4.54916e-07 -6.57015e-05
0.000767532 0.000137271 5.72225e-07
0.000137271 0.000148677 -6.5953e-07
5.72225e-07 -6.5953e-07 -2.0251e-05
0.000614142 1.71568e-06 2.85679e-07
1.71568e-06 4.6782e-05 4.69608e-07
2.85679e-07 4.69608e-07 -4.72532e-05
0.00076141 0.000110785 1.34151e-06
0.000110785 0.000176738 -5.79693e-07
1.34151e-06 -5.79693e-07 -1.72612e-05
0.00154739 0.000243217 -3.03855e-07
0.000243217 0.000117889 -5.67923e-07
-3.03855e-07 -5.67923e-07 -6.13626e-05
0.00138161 0.0002902 7.03904e-08
0.0002902 0.000134722 -9.97719e-08
7.03904e-08 -9.97719e-08 -7.63654e-05
0.00179412 0.000349009 2.92995e-07
0.000349009 0.000204385 2.00823e-07
2.92995e-07 2.00823e-07 4.01541e-06
0.00104146 0.000236915 2.03879e-06
0.000236915 0.000197982 -1.43115e-07
2.03879e-06 -1.43115e-07 -2.40737e-05
0.00178312 0.000399603 -9.11231e-07
0.000399603 0.00034658 -3.13461e-08
-9.11231e-07 -3.13461e-08 0.000105057
0.00128016 0.000323452 3.86348e-07
0.000323452 0.000189691 -1.3086e-06
3.86348e-07 -1.3086e-06 -7.63363e-05
0.00160977 0.000382369 -3.78322e-06
0.000382369 0.000228385 1.11422e-06
-3.78322e-06 1.11422e-06 -2.00203e-05
0.000506597 -5.26361e-05 -7.04502e-08
-5.26361e-05 -3.31895e-05 5.65152e-06
-7.04502e-08 5.65152e-06 -5.92742e-05
0.000651353 5.01633e-07 8.5836e-07
5.01633e-07 6.21042e-05 4.24971e-06
8.5836e-07 4.24971e-06 -1.38179e-05
0.000980142 0.000205356 6.24544e-07
0.000205356 0.000239495 1.25462e-06
6.24544e-07 1.25462e-06 3.72565e-05
0.00118564 8.85038e-05 -1.2027e-06
8.85038e-05 0.000446406 2.36171e-06
-1.2027e-06 2.36171e-06 0.000276511
0.00122189 0.000212433 -1.8592e-06
0.000212433 0.000424079 -1.57916e-06
-1.8592e-06 -1.57916e-06 0.000211996
0.00186893 0.000309761 6.82212e-07
0.000309761 0.000195636 -1.86144e-06
6.82212e-07 -1.86144e-06 2.19398e-05
0.00175633 0.000387603 3.75723e-07
0.000387603 0.000248722 -3.10788e-07
3.75723e-07 -3.10788e-07 2.24485e-05
0.00188373 0.000385766 -3.58776e-07
0.000385766 0.00022404 -3.3457e-07
-3.58776e-07 -3.3457e-07 3.13584e-05
0.00101339 0.000291217 3.06747e-06
0.000291217 0.000116889 3.49328e-06
3.06747e-06 3.49328e-06 -0.000139854
0.00204824 0.000471412 -2.63621e-07
0.000471412 0.000437723 -6.56421e-07
-2.63621e-07 -6.56421e-07 0.000186716
0.000828172 0.00031534 5.04363e-06
0.00031534 -0.000140826 -2.00279e-06
5.04363e-06 -2.00279e-06 -0.000409161
0.000596271 1.23489e-05 2.67544e-06
1.23489e-05 2.15293e-05 2.78145e-06
2.67544e-06 2.78145e-06 -3.58014e-05
0.000668934 5.74397e-05 7.58242e-08
5.74397e-05 9.67604e-05 1.34568e-06
7.58242e-08 1.34568e-06 1.32131e-06
0.000613936 2.83418e-05 2.37693e-06
2.83418e-05 3.81246e-05 2.67541e-06
2.37693e-06 2.67541e-06 -1.68285e-05
0.000578386 -7.84626e-06 -5.55336e-07
-7.84626e-06 1.28987e-05 -5.67008e-09
-5.55336e-07 -5.67008e-09 -4.28157e-05
0.00124525 -4.95194e-05 1.11564e-06
-4.95194e-05 0.000401836 2.90087e-06
1.11564e-06 2.90087e-06 0.000386117
0.00089963 -4.94812e-05 4.64855e-07
-4.94812e-05 0.000195707 -1.09219e-07
4.64855e-07 -1.09219e-07 0.000175886
0.000876006 -5.33968e-05 2.42518e-05
-5.33968e-05 0.000192605 7.85714e-06
2.42518e-05 7.85714e-06 0.000192889
0.00244527 -0.000108285 4.63618e-06
-0.000108285 0.00116019 -4.23149e-07
4.63618e-06 -4.23149e-07 0.001163
0.00249614 -0.000122174 -3.43799e-05
-0.000122174 0.00120023 -3.0865e-06
-3.43799e-05 -3.0865e-06 0.00119926
0.000408641 7.38006e-07 2.37727e-06
7.38006e-07 -7.68107e-05 -7.55073e-06
2.37727e-06 -7.55073e-06 -0.000115163
0.00337459 0.000138215 7.14405e-05
0.000138215 0.00174143 -4.05362e-06
7.14405e-05 -4.05362e-06 0.00173431
0.000517031 -2.39174e-05 -7.25181e-07
-2.39174e-05 -1.73085e-05 1.58075e-07
-7.25181e-07 1.58075e-07 -6.57659e-05
0.00397795 0.000128665 -7.60747e-06
0.000128665 0.00211309 -7.30298e-07
-7.60747e-06 -7.30298e-07 0.00210677
0.000583062 -4.31753e-05 -9.40023e-06
-4.31753e-05 1.89504e-05 1.17405e-05
-9.40023e-06 1.17405e-05 -4.14698e-05
0.00478942 0.000130418 -0.000159341
0.000130418 0.0026041 1.20291e-05
-0.000159341 1.20291e-05 0.00259542
0.000992938 0.000128795 -1.29653e-05
0.000128795 -4.7261e-05 -3.62232e-06
-1.29653e-05 -3.62232e-06 -0.000194753
0.000990732 7.64931e-05 -1.20958e-05
7.64931e-05 -5.3932e-05 -1.9675e-06
-1.20958e-05 -1.9675e-06 -0.000186323
0.00157685 0.000159299 -2.69964e-06
0.000159299 8.15562e-05 -2.997e-08
-2.69964e-06 -2.997e-08 -6.45509e-05
0.00155121 7.01071e-05 -1.00224e-06
7.01071e-05 6.55454e-05 4.1425e-07
-1.00224e-06 4.1425e-07 -5.80109e-05
0.000979095 2.6953e-05 -1.22428e-05
2.6953e-05 -4.90672e-05 -6.65872e-07
-1.22428e-05 -6.65872e-07 -0.000173092
0.000528593 2.84563e-05 -1.92778e-05
2.84563e-05 -0.000144728 -2.85762e-07
-1.92778e-05 -2.85762e-07 -0.000214532
0.000977211 1.3268e-06 -1.09198e-08
1.3268e-06 -4.34575e-05 -1.06222e-07
-1.09198e-08 -1.06222e-07 -0.000166315
0.00152389 3.74338e-05 -6.82488e-08
3.74338e-05 5.33573e-05 1.15693e-07
-6.82488e-08 1.15693e-07 -6.5269e-05
0.001577 0.000113389 -1.65045e-08
0.000113389 7.5974e-05 -2.94312e-08
-1.65045e-08 -2.94312e-08 -5.67433e-05
0.00185925 9.99745e-05 2.16645e-08
9.99745e-05 8.9324e-05 4.12237e-07
2.16645e-08 4.12237e-07 3.09186e-06
0.00158431 0.00020547 -3.04865e-07
0.00020547 0.000103757 -5.2762e-08
-3.04865e-07 -5.2762e-08 -5.78262e-05
0.00186296 0.000203848 -4.41093e-07
0.000203848 0.000129219 2.93698e-08
-4.41093e-07 2.93698e-08 5.4277e-06
0.00151728 2.87658e-06 9.84262e-07
2.87658e-06 5.24602e-05 7.64322e-08
9.84262e-07 7.64322e-08 -6.495e-05
0.00189246 5.1534e-05 -2.02753e-06
5.1534e-05 0.000113797 1.21794e-07
-2.02753e-06 1.21794e-07 3.87974e-05
0.00189244 0.000157053 -2.79297e-07
0.000157053 0.000121944 -1.0979e-06
-2.79297e-07 -1.0979e-06 1.7582e-05
0.00180801 0.000100581 5.27947e-06
0.000100581 1.28961e-05 1.08028e-06
5.27947e-06 1.08028e-06 -4.72083e-05
0.0018938 0.000259066 3.14446e-07
0.000259066 0.000177222 -1.42019e-06
3.14446e-07 -1.42019e-06 3.00521e-05
0.00181356 0.000222836 9.28031e-07
0.000222836 3.38241e-05 -7.09032e-07
9.28031e-07 -7.09032e-07 -6.31386e-05
0.000821741 -8.64931e-06 -1.22046e-05
-8.64931e-06 -0.000138325 6.3051e-07
-1.22046e-05 6.3051e-07 -0.000260875
0.00176547 -7.86869e-05 -2.50229e-05
-7.86869e-05 0.000420719 2.86911e-06
-2.50229e-05 2.86911e-06 0.000299449
0.00180249 -5.83929e-05 -4.22419e-06
-5.83929e-05 0.000225561 -2.46061e-07
-4.22419e-06 -2.46061e-07 0.000108257
0.00169042 -0.00016179 -3.6562e-06
-0.00016179 0.000184775 8.10569e-07
-3.6562e-06 8.10569e-07 3.73003e-05
0.000675363 -0.000139325 -2.09938e-05
-0.000139325 4.78206e-05 1.60221e-05
-2.09938e-05 1.60221e-05 -3.70415e-05
0.000745438 -0.00019633 -9.64442e-06
-0.00019633 2.61655e-05 7.04866e-06
-9.64442e-06 7.04866e-06 -0.000156596
0.00116845 -0.000293538 -5.43104e-06
-0.000293538 0.000110601 2.5187e-06
-5.43104e-06 2.5187e-06 -0.000118727
0.0017454 -0.000240933 -7.29257e-06
-0.000240933 0.000261785 1.96428e-06
-7.29257e-06 1.96428e-06 8.79189e-05
0.00192978 -0.00025001 7.06504e-07
-0.00025001 0.000197991 -1.39208e-06
7.06504e-07 -1.39208e-06 6.42505e-05
0.00176697 -0.000325029 -5.21659e-07
-0.000325029 0.000193129 -9.04073e-07
-5.21659e-07 -9.04073e-07 8.25219e-06
0.00189509 -0.000413751 -3.62273e-06
-0.000413751 0.000366586 -1.65261e-06
-3.62273e-06 -1.65261e-06 0.000121216
0.00183748 -0.000378688 3.47925e-06
-0.000378688 0.000206271 -2.74011e-06
3.47925e-06 -2.74011e-06 1.57844e-05
0.000864138 -0.000153648 -3.14678e-06
-0.000153648 0.000194284 5.47429e-06
-3.14678e-06 5.47429e-06 2.1997e-05
0.000350368 -0.000106153 1.30486e-06
-0.000106153 -0.000102573 -1.78793e-06
1.30486e-06 -1.78793e-06 -0.000305942
0.000714806 -7.90269e-05 -3.5115e-07
-7.90269e-05 0.000108513 4.44697e-06
-3.5115e-07 4.44697e-06 -2.07474e-05
0.00161662 -2.50373e-05 -1.57407e-06
-2.50373e-05 0.000117188 1.60047e-07
-1.57407e-06 1.60047e-07 -1.93185e-06
0.00177451 -0.000118721 -2.93335e-06
-0.000118721 0.000212807 4.334e-07
-2.93335e-06 4.334e-07 8.35409e-05
0.0018265 -8.61685e-05 2.27565e-06
-8.61685e-05 8.87634e-05 2.14201e-07
2.27565e-06 2.14201e-07 -5.8098e-07
0.00180315 -0.00019587 -1.98853e-06
-0.00019587 0.000106871 5.97732e-07
-1.98853e-06 5.97732e-07 -1.69687e-05
0.000765728 -0.000194958 2.1813e-07
-0.000194958 0.000110108 -1.70223e-07
2.1813e-07 -1.70223e-07 -7.60384e-05
0.00113804 -0.000279287 -1.07468e-06
-0.000279287 0.000169218 -2.98793e-08
-1.07468e-06 -2.98793e-08 -5.96136e-05
0.00148341 -0.000407007 2.25889e-06
-0.000407007 0.000230791 -6.57814e-08
2.25889e-06 -6.57814e-08 -4.7315e-05
0.00169735 -0.000288653 -1.25575e-06
-0.000288653 0.000110715 7.38356e-07
-1.25575e-06 7.38356e-07 -5.30492e-05
0.00193786 -0.000268841 1.74072e-06
-0.000268841 0.000155421 -4.36268e-07
1.74072e-06 -4.36268e-07 4.62586e-05
0.00187323 -0.000441212 -6.2456e-07
-0.000441212 0.000285861 3.7733e-07
-6.2456e-07 3.7733e-07 4.23342e-05
0.00182098 -0.000350702 1.01119e-07
-0.000350702 0.00015808 4.66344e-07
1.01119e-07 4.66344e-07 -4.69834e-06
0.002082 -0.000400301 2.03816e-06
-0.000400301 0.000342529 -4.37456e-07
2.03816e-06 -4.37456e-07 0.00017098
0.00101925 -0.000223671 1.81325e-07
-0.000223671 0.000255137 9.01703e-07
1.81325e-07 9.01703e-07 4.49808e-05
0.00117809 -0.000251623 -3.95967e-07
-0.000251623 0.00036419 2.59112e-07
-3.95967e-07 2.59112e-07 0.000134531
0.000628111 -5.2773e-05 -2.9168e-07
-5.2773e-05 6.54866e-05 1.26408e-07
-2.9168e-07 1.26408e-07 -4.22074e-05
0.000314489 -5.78192e-05 9.17049e-09
-5.78192e-05 -9.73037e-05 -1.01597e-06
9.17049e-09 -1.01597e-06 -0.000287473
0.00182972 -4.58783e-05 -1.40082e-06
-4.58783e-05 8.64477e-05 5.99308e-07
-1.40082e-06 5.99308e-07 3.90216e-06
0.00182035 -0.00014184 3.30496e-07
-0.00014184 9.4596e-05 1.14437e-06
3.30496e-07 1.14437e-06 -1.16423e-05
0.00178893 -9.37991e-05 4.47829e-06
-9.37991e-05 2.69944e-05 -4.83151e-07
4.47829e-06 -4.83151e-07 -3.53667e-05
0.00188152 -0.000220383 -1.97873e-06
-0.000220383 7.93096e-05 2.33245e-07
-1.97873e-06 2.33245e-07 -5.52126e-06
0.00177234 -0.000311482 -3.26767e-06
-0.000311482 9.40483e-05 1.84946e-06
-3.26767e-06 1.84946e-06 -4.0269e-05
0.00192545 -0.000279433 3.93013e-06
-0.000279433 0.000130397 -1.56659e-06
3.93013e-06 -1.56659e-06 3.23508e-05
0.00116048 -0.000264765 1.97444e-06
-0.000264765 0.000266553 -4.71177e-06
1.97444e-06 -4.71177e-06 4.44654e-05
0.00170333 -0.000360562 -3.93775e-06
-0.000360562 7.09665e-05 1.69464e-06
-3.93775e-06 1.69464e-06 -6.89647e-05
0.00155376 -0.000394115 2.75851e-06
-0.000394115 0.000376413 -3.02984e-06
2.75851e-06 -3.02984e-06 9.28052e-05
0.00174436 -0.000488484 -1.86686e-06
-0.000488484 0.000314553 2.20993e-06
-1.86686e-06 2.20993e-06 1.31969e-05
0.0018285 -0.000448333 2.48668e-06
-0.000448333 0.000213224 4.58291e-06
2.48668e-06 4.58291e-06 -2.39567e-05
0.00219065 -0.000402511 3.65732e-07
-0.000402511 0.000393485 -1.2929e-07
3.65732e-07 -1.2929e-07 0.000224327
0.000519752 -4.90614e-05 -1.6151e-07
-4.90614e-05 2.33454e-06 -4.02117e-06
-1.6151e-07 -4.02117e-06 -8.94187e-05
0.000460508 -6.58957e-05 -3.88505e-06
-6.58957e-05 1.6996e-06 -4.5046e-07
-3.88505e-06 -4.5046e-07 -0.000166746
0.000863078 -0.000246586 -1.98127e-06
-0.000246586 0.000107288 7.34181e-08
-1.98127e-06 7.34181e-08 -0.000113435
0.000839343 -0.00017378 -2.30987e-06
-0.00017378 0.000232011 4.83269e-06
-2.30987e-06 4.83269e-06 8.53187e-06
0.00170281 -0.000326202 -8.22265e-06
-0.000326202 0.000661745 3.99275e-06
-8.22265e-06 3.99275e-06 0.000422223
0.000431994 -6.22532e-05 -3.20824e-07
-6.22532e-05 -6.31817e-05 -5.84556e-06
-3.20824e-07 -5.84556e-06 -9.59473e-05
0.00153652 0.000242252 -4.25415e-06
0.000242252 0.000112457 -1.08973e-06
-4.25415e-06 -1.08973e-06 -6.7044e-05
0.000573401 -2.02629e-05 2.37364e-07
-2.02629e-05 2.76361e-05 -4.82e-06
2.37364e-07 -4.82e-06 -6.58797e-05
0.000610502 0.000128888 -2.76997e-06
0.000128888 4.50606e-05 -4.418e-06
-2.76997e-06 -4.418e-06 -0.000115071
0.000447142 9.25203e-05 1.62361e-06
9.25203e-05 -1.54154e-05 1.33204e-07
1.62361e-06 1.33204e-07 -0.00020463
0.00138771 0.000290784 -5.49223e-06
0.000290784 0.000140228 -1.59522e-06
-5.49223e-06 -1.59522e-06 -7.1371e-05
0.00176967 0.000347144 6.06511e-08
0.000347144 0.000190167 8.16151e-07
6.06511e-08 8.16151e-07 -1.0137e-05
0.00109591 0.000251629 -2.71203e-06
0.000251629 0.000232582 -3.7154e-06
-2.71203e-06 -3.7154e-06 5.99995e-06
0.00138197 0.00033778 -1.88238e-06
0.00033778 0.000244186 -2.53708e-06
-1.88238e-06 -2.53708e-06 -2.57907e-05
0.00171871 0.000387706 -2.46106e-07
0.000387706 0.000309177 5.65673e-07
-2.46106e-07 5.65673e-07 6.94298e-05
0.00173634 0.000391862 -1.69701e-06
0.000391862 0.000304557 6.2391e-06
-1.69701e-06 6.2391e-06 5.73613e-05
0.000516115 -4.86522e-05 1.16121e-07
-4.86522e-05 -2.94621e-05 -3.98774e-09
1.16121e-07 -3.98774e-09 -5.44054e-05
0.000617611 -8.77969e-06 -6.64262e-07
-8.77969e-06 4.56232e-05 4.66324e-07
-6.64262e-07 4.66324e-07 -3.04349e-05
0.000976346 0.000212032 1.71441e-07
0.000212032 0.000240058 9.10195e-07
1.71441e-07 9.10195e-07 3.56637e-05
0.000678248 4.25862e-05 -7.45717e-07
4.25862e-05 0.000131042 -8.80013e-08
-7.45717e-07 -8.80013e-08 -2.6293e-05
0.000641012 0.000148071 7.04791e-07
0.000148071 6.04897e-05 -2.30232e-07
7.04791e-07 -2.30232e-07 -0.000135185
0.00184222 0.000309575 -6.2823e-07
0.000309575 0.000177579 -1.12224e-06
-6.2823e-07 -1.12224e-06 3.51027e-06
0.00172155 0.000385825 5.37237e-07
0.000385825 0.000225772 1.18097e-07
5.37237e-07 1.18097e-07 -5.42091e-07
0.00181237 0.000382285 1.69786e-06
0.000382285 0.000183824 2.42532e-07
1.69786e-06 2.42532e-07 -9.11081e-06
0.0013101 0.000318504 1.508e-06
0.000318504 0.000304493 9.53522e-07
1.508e-06 9.53522e-07 4.20513e-05
0.0019061 0.000457251 1.52495e-06
0.000457251 0.000335429 3.8415e-08
1.52495e-06 3.8415e-08 8.52439e-05
0.00148247 0.000374758 -2.06488e-06
0.000374758 0.000254003 -1.01235e-08
-2.06488e-06 -1.01235e-08 -2.32174e-05
0.000682166 5.83791e-06 1.67259e-06
5.83791e-06 7.49052e-05 3.20341e-06
1.67259e-06 3.20341e-06 1.16721e-05
0.000986616 8.84771e-05 9.50299e-07
8.84771e-05 0.000304898 2.51044e-06
9.50299e-07 2.51044e-06 0.000178083
0.000980169 0.00025595 -2.82869e-06
0.00025595 0.000179115 -1.61334e-06
-2.82869e-06 -1.61334e-06 -3.68797e-05
0.00143209 0.000117803 -7.99924e-07
0.000117803 0.000595167 5.45034e-07
-7.99924e-07 5.45034e-07 0.000399818
0.00118197 0.000177531 -7.26027e-06
0.000177531 0.000330651 -6.18394e-06
-7.26027e-06 -6.18394e-06 0.000153508
0.0018497 0.000320431 -3.10412e-06
0.000320431 0.000154121 -2.63194e-06
-3.10412e-06 -2.63194e-06 -1.84106e-06
0.00187925 0.000438292 3.94676e-07
0.000438292 0.000268415 2.98791e-07
3.94676e-07 2.98791e-07 4.1211e-05
0.00163275 0.000409971 3.56192e-06
0.000409971 4.66057e-05 -5.32397e-07
3.56192e-06 -5.32397e-07 -0.000144812
0.000329923 0.000253247 -1.06804e-06
0.000253247 -0.000268916 1.58078e-06
-1.06804e-06 1.58078e-06 -0.000539448
0.00136027 0.00040905 7.21272e-06
0.00040905 9.81573e-05 -1.60901e-06
7.21272e-06 -1.60901e-06 -0.000166138
0.000601139 5.30558e-06 -1.93867e-07
5.30558e-06 2.30344e-05 4.84277e-08
-1.93867e-07 4.84277e-08 -3.35733e-05
0.000524586 3.3846e-05 1.30285e-06
3.3846e-05 -2.37902e-06 1.84782e-06
1.30285e-06 1.84782e-06 -9.1611e-05
0.000513858 2.76052e-05 -6.12264e-07
2.76052e-05 -6.77348e-06 -1.60972e-07
-6.12264e-07 -1.60972e-07 -9.39658e-05
0.000937004 0.000110556 1.37009e-07
0.000110556 0.000262094 -8.64486e-07
1.37009e-07 -8.64486e-07 0.000151358
0.00066922 8.49764e-05 2.04037e-06
8.49764e-05 9.93316e-05 1.80629e-06
2.04037e-06 1.80629e-06 4.96324e-06
0.000583114 4.02574e-05 2.54499e-06
4.02574e-05 2.60809e-05 2.75254e-06
2.54499e-06 2.75254e-06 -3.00269e-05
0.000579852 -1.25812e-06 -6.11177e-07
-1.25812e-06 1.83679e-05 -2.3328e-08
-6.11177e-07 -2.3328e-08 -3.67479e-05
0.00124283 -3.58173e-05 9.95379e-07
-3.58173e-05 0.000397901 2.71658e-06
9.95379e-07 2.71658e-06 0.000384207
0.00059097 -3.64312e-06 -1.5589e-06
-3.64312e-06 1.80635e-05 -2.74201e-06
-1.5589e-06 -2.74201e-06 -3.59849e-05
0.00129914 -4.59917e-05 -5.89097e-06
-4.59917e-05 0.000434312 -1.4482e-06
-5.89097e-06 -1.4482e-06 0.000419199
0.00084085 -4.0991e-05 2.50464e-05
-4.0991e-05 0.000162948 7.93643e-06
2.50464e-05 7.93643e-06 0.000166732
0.00131911 -5.54575e-05 -1.01511e-05
-5.54575e-05 0.000451672 -4.13498e-06
-1.01511e-05 -4.13498e-06 0.000434234
0.00160449 -7.19361e-05 2.24791e-05
-7.19361e-05 0.000637835 1.83379e-06
2.24791e-05 1.83379e-06 0.000641333
0.0023933 -0.000104844 -3.03274e-05
-0.000104844 0.00112724 -3.65415e-06
-3.03274e-05 -3.65415e-06 0.00113079
0.000409097 7.20071e-05 -3.87426e-06
7.20071e-05 -6.61765e-05 -6.02127e-06
-3.87426e-06 -6.02127e-06 -0.000103488
0.000484684 6.3244e-06 4.2635e-07
6.3244e-06 -2.89616e-05 4.64212e-07
4.2635e-07 4.64212e-07 -7.00855e-05
0.00287826 0.000137533 2.86717e-05
0.000137533 0.00143642 -3.97468e-06
2.86717e-05 -3.97468e-06 0.00142965
0.00346197 0.000112636 -8.43027e-06
0.000112636 0.0017917 -6.02144e-07
-8.43027e-06 -6.02144e-07 0.00179063
0.000602404 -2.59266e-05 -7.56645e-06
-2.59266e-05 3.28926e-05 9.80935e-06
-7.56645e-06 9.80935e-06 -1.63658e-05
0.0041446 0.000107297 -0.000139071
0.000107297 0.00220762 9.80437e-06
-0.000139071 9.80437e-06 0.00220607
0.00156656 0.000204289 -3.46052e-06
0.000204289 9.54654e-05 -1.9035e-07
-3.46052e-06 -1.9035e-07 -6.63254e-05
0.00156196 0.000113568 -1.49722e-06
0.000113568 6.8308e-05 1.52794e-07
-1.49722e-06 1.52794e-07 -6.48978e-05
0.00185527 0.000202987 -1.01115e-06
0.000202987 0.000126693 1.52786e-06
-1.01115e-06 1.52786e-06 2.78437e-06
0.00186972 9.83804e-05 2.9132e-07
9.83804e-05 9.12808e-05 9.49148e-07
2.9132e-07 9.49148e-07 8.83108e-06
0.00151804 3.98812e-05 -9.2053e-07
3.98812e-05 5.21666e-05 1.68332e-07
-9.2053e-07 1.68332e-07 -6.66353e-05
0.000982404 5.95867e-06 -1.20011e-05
5.95867e-06 -4.10744e-05 -6.27169e-08
-1.20011e-05 -6.27169e-08 -0.000163895
0.0015155 6.46183e-06 6.62352e-08
6.46183e-06 5.39001e-05 6.34131e-08
6.62352e-08 6.34131e-08 -6.35679e-05
0.00186933 4.28072e-05 -1.67925e-06
4.28072e-05 9.98693e-05 -7.29247e-08
-1.67925e-06 -7.29247e-08 2.50809e-05
0.00186706 0.000154708 -3.92073e-07
0.000154708 0.000106628 1.51157e-07
-3.92073e-07 1.51157e-07 2.53273e-06
0.00183873 0.000100037 2.11446e-06
0.000100037 2.72158e-05 5.20079e-07
2.11446e-06 5.20079e-07 -2.79253e-05
0.00186489 0.000259607 -3.11541e-07
0.000259607 0.000154696 -1.46819e-07
-3.11541e-07 -1.46819e-07 6.88279e-06
0.00184798 0.000219254 -3.47034e-07
0.000219254 5.49481e-05 7.23834e-07
-3.47034e-07 7.23834e-07 -3.76603e-05
0.00186165 1.60335e-07 -1.34041e-06
1.60335e-07 0.000104124 1.85291e-07
-1.34041e-06 1.85291e-07 2.97491e-05
0.00184231 4.65442e-05 5.47291e-06
4.65442e-05 3.52219e-05 4.29402e-07
5.47291e-06 4.29402e-07 -1.15629e-05
0.00186024 0.000160137 1.66257e-06
0.000160137 4.29135e-05 3.58631e-07
1.66257e-06 3.58631e-07 -2.61088e-05
0.00192149 0.000102257 6.11786e-06
0.000102257 5.04982e-05 1.09289e-06
6.11786e-06 1.09289e-06 1.53015e-05
0.00184795 0.000257348 2.74638e-07
0.000257348 0.000104161 -1.9329e-06
2.74638e-07 -1.9329e-06 -1.65908e-05
0.00185165 0.000224427 4.01795e-06
0.000224427 1.81462e-05 1.19969e-06
4.01795e-06 1.19969e-06 -5.81379e-05
0.00155363 -2.23585e-05 -2.59997e-06
-2.23585e-05 7.82504e-05 -1.10745e-07
-2.59997e-06 -1.10745e-07 -4.0208e-05
0.00178563 -0.00012469 -5.38787e-06
-0.00012469 0.000217841 4.24061e-07
-5.38787e-06 4.24061e-07 8.77322e-05
0.00186642 -8.54292e-05 2.20486e-06
-8.54292e-05 0.000113491 -1.68364e-06
2.20486e-06 -1.68364e-06 2.96741e-05
0.00178086 -0.000191497 -8.26162e-07
-0.000191497 9.43598e-05 -1.1107e-07
-8.26162e-07 -1.1107e-07 -3.11664e-05
0.000839032 -0.000215283 -6.10132e-06
-0.000215283 0.000160063 7.27348e-06
-6.10132e-06 7.27348e-06 -3.00316e-05
0.00108571 -0.000277061 -7.13845e-06
-0.000277061 0.000129066 4.26905e-06
-7.13845e-06 4.26905e-06 -9.9476e-05
0.00134196 -0.000388244 6.58092e-07
-0.000388244 0.000158381 1.41404e-07
6.58092e-07 1.41404e-07 -0.000116867
0.00171065 -0.000287739 -9.66193e-07
-0.000287739 0.000121989 -1.65942e-08
-9.66193e-07 -1.65942e-08 -4.5961e-05
0.00194042 -0.000269684 1.74904e-06
-0.000269684 0.000153357 -1.29156e-06
1.74904e-06 -1.29156e-06 4.80223e-05
0.00184016 -0.000350639 2.51276e-06
-0.000350639 0.000170405 -9.52843e-07
2.51276e-06 -9.52843e-07 7.77548e-06
0.00180319 -0.000444699 -6.05049e-07
-0.000444699 0.000237055 -2.18306e-06
-6.05049e-07 -2.18306e-06 -9.81845e-06
0.00206865 -0.00039406 5.79714e-06
-0.00039406 0.00033176 -5.96815e-06
5.79714e-06 -5.96815e-06 0.000164452
0.000927384 -0.000217701 1.09592e-06
-0.000217701 0.000197732 1.52276e-06
1.09592e-06 1.52276e-06 -1.22421e-05
0.000360689 -0.000162166 2.228e-06
-0.000162166 -0.000138074 3.0499e-07
2.228e-06 3.0499e-07 -0.000351292
0.000691821 -5.96457e-05 -2.77203e-07
-5.96457e-05 0.000100495 3.99921e-06
-2.77203e-07 3.99921e-06 -8.07787e-06
0.000163035 -2.6824e-05 2.79365e-06
-2.6824e-05 -0.000196981 -3.77025e-06
2.79365e-06 -3.77025e-06 -0.000373621
0.00184131 -4.58226e-05 6.89456e-08
-4.58226e-05 9.45301e-05 2.58076e-07
6.89456e-08 2.58076e-07 1.18924e-05
0.00180865 -0.000141895 1.20641e-06
-0.000141895 9.15391e-05 -4.3416e-07
1.20641e-06 -4.3416e-07 -1.67696e-05
0.00180433 -9.30588e-05 2.30836e-06
-9.30588e-05 3.67868e-05 -6.23775e-07
2.30836e-06 -6.23775e-07 -2.22733e-05
0.00186584 -0.000218273 -2.03886e-06
-0.000218273 7.46727e-05 5.96788e-07
-2.03886e-06 5.96788e-07 -1.29687e-05
0.00101259 -0.000243015 -1.69346e-06
-0.000243015 0.000182243 -1.0609e-07
-1.69346e-06 -1.0609e-07 -3.58344e-05
0.00114527 -0.000347641 1.77103e-06
-0.000347641 0.00013389 -1.35461e-06
1.77103e-06 -1.35461e-06 -0.000139404
0.00166646 -0.000488357 -1.18026e-07
-0.000488357 0.000264663 5.48968e-07
-1.18026e-07 5.48968e-07 -4.01728e-05
0.0017501 -0.000308323 -1.60163e-06
-0.000308323 8.84171e-05 8.04956e-07
-1.60163e-06 8.04956e-07 -4.95211e-05
0.00187286 -0.000278074 1.62699e-06
-0.000278074 0.000100896 -8.59562e-07
1.62699e-06 -8.59562e-07 5.39649e-06
0.00180581 -0.000450345 -2.80552e-07
-0.000450345 0.000209993 5.5353e-07
-2.80552e-07 5.5353e-07 -2.90702e-05
0.00175477 -0.000364755 -7.48369e-07
-0.000364755 9.43081e-05 1.13632e-06
-7.48369e-07 1.13632e-06 -4.64281e-05
0.00199698 -0.00038787 3.69351e-06
-0.00038787 0.000269387 -5.70712e-06
3.69351e-06 -5.70712e-06 0.000106682
0.00117603 -0.000278313 3.27443e-07
-0.000278313 0.000291349 1.14576e-06
3.27443e-07 1.14576e-06 6.51948e-05
0.00139543 -0.000290589 5.52393e-06
-0.000290589 0.000464701 2.02038e-06
5.52393e-06 2.02038e-06 0.00023728
0.000824997 -0.000143778 -2.15512e-07
-0.000143778 0.000221357 -9.53374e-08
-2.15512e-07 -9.53374e-08 -4.61617e-06
0.000429938 -1.96491e-05 -1.72184e-06
-1.96491e-05 -5.23298e-05 5.8454e-07
-1.72184e-06 5.8454e-07 -0.000145048
0.000240836 -2.16281e-05 -3.2467e-07
-2.16281e-05 -0.000136075 -4.98268e-07
-3.2467e-07 -4.98268e-07 -0.000295812
0.00184264 -5.5204e-05 4.24645e-06
-5.5204e-05 3.68477e-05 -6.68986e-07
4.24645e-06 -6.68986e-07 -5.26471e-06
0.00189167 -0.000137363 4.48607e-06
-0.000137363 7.40299e-05 -7.51842e-07
4.48607e-06 -7.51842e-07 1.32463e-05
0.00194082 -0.000264426 2.57047e-06
-0.000264426 7.39828e-05 -1.70493e-06
2.57047e-06 -1.70493e-06 3.46138e-06
0.00176487 -0.000311857 5.13576e-07
-0.000311857 5.80598e-05 -1.23223e-06
5.13576e-07 -1.23223e-06 -4.78392e-05
0.00134753 -0.000317323 -1.0492e-06
-0.000317323 0.000333826 -4.60035e-06
-1.0492e-06 -4.60035e-06 8.4586e-05
0.00218485 -0.00043963 -6.09062e-07
-0.00043963 0.000281187 -1.11378e-06
-6.09062e-07 -1.11378e-06 0.000133656
0.00161606 -0.00046369 6.87251e-07
-0.00046369 0.000396982 -3.43537e-06
6.87251e-07 -3.43537e-06 7.52943e-05
0.00181812 -0.00054326 -1.52369e-07
-0.00054326 0.000316534 1.16343e-06
-1.52369e-07 1.16343e-06 -2.5873e-06
0.00178899 -0.000438879 1.06302e-06
-0.000438879 0.000181099 3.17097e-06
1.06302e-06 3.17097e-06 -5.02436e-05
0.000148952 4.68539e-06 -9.59128e-07
4.68539e-06 -0.000220249 -3.84572e-06
-9.59128e-07 -3.84572e-06 -0.000296256
0.000732461 -6.32788e-05 -1.00194e-06
-6.32788e-05 0.000173401 -1.84933e-07
-1.00194e-06 -1.84933e-07 2.74209e-05
0.000988525 -9.54098e-05 -2.57847e-06
-9.54098e-05 0.000318962 1.2635e-06
-2.57847e-06 1.2635e-06 0.000126609
0.00166451 -0.000342691 -9.9268e-06
-0.000342691 0.000557431 -9.55564e-07
-9.9268e-06 -9.55564e-07 0.000313792
0.000528842 -0.000150034 2.48355e-06
-0.000150034 2.36918e-05 6.31651e-06
2.48355e-06 6.31651e-06 -0.00021263
0.000743189 -0.000252872 -3.86609e-06
-0.000252872 3.82416e-05 -2.09256e-08
-3.86609e-06 -2.09256e-08 -0.000186609
0.000518422 -4.7674e-05 -1.05735e-06
-4.7674e-05 -2.90912e-05 -5.1057e-06
-1.05735e-06 -5.1057e-06 -5.3587e-05
0.000568217 -1.24801e-05 -1.18548e-06
-1.24801e-05 1.91246e-05 -3.82963e-06
-1.18548e-06 -3.82963e-06 -5.68834e-05
0.00181536 0.000309406 -1.88771e-06
0.000309406 0.000159311 -3.75933e-07
-1.88771e-06 -3.75933e-07 -1.51393e-05
0.000104023 -4.38853e-05 1.433e-06
-4.38853e-05 -0.000216542 -2.20313e-06
1.433e-06 -2.20313e-06 -0.00036569
0.000855387 0.000203572 -1.02129e-06
0.000203572 0.000172674 -1.63666e-07
-1.02129e-06 -1.63666e-07 -2.93168e-05
6.46048e-05 8.43749e-05 2.48533e-06
8.43749e-05 -0.000299492 1.04713e-06
2.48533e-06 1.04713e-06 -0.000480263
0.00168641 0.000383633 6.4657e-07
0.000383633 0.00020371 5.6337e-07
6.4657e-07 5.6337e-07 -2.25198e-05
0.00174136 0.000378386 9.22754e-07
0.000378386 0.00014515 2.95876e-07
9.22754e-07 2.95876e-07 -4.7911e-05
0.00137918 0.00032183 1.19455e-06
0.00032183 0.000356667 -3.07003e-07
1.19455e-06 -3.07003e-07 9.26079e-05
0.0021354 0.000431885 -1.55679e-06
0.000431885 0.000646853 -1.17548e-07
-1.55679e-06 -1.17548e-07 0.000363282
0.0017604 0.000442878 -1.07259e-06
0.000442878 0.000231663 9.3832e-07
-1.07259e-06 9.3832e-07 -1.77007e-05
0.000593431 6.59503e-06 -4.32895e-07
6.59503e-06 2.2416e-05 4.30422e-07
-4.32895e-07 4.30422e-07 -4.03735e-05
0.00070884 1.80937e-05 -7.29926e-07
1.80937e-05 0.000134038 2.8384e-07
-7.29926e-07 2.8384e-07 1.54669e-05
0.00110127 0.000269125 -1.22917e-06
0.000269125 0.000252911 -4.83088e-07
-1.22917e-06 -4.83088e-07 3.24991e-05
0.000837217 6.68103e-05 3.91197e-07
6.68103e-05 0.000229186 3.61015e-07
3.91197e-07 3.61015e-07 4.51336e-05
0.000758612 0.000179849 2.7971e-06
0.000179849 9.4849e-05 1.36295e-06
2.7971e-06 1.36295e-06 -8.76785e-05
0.0018207 0.000321576 -2.16428e-06
0.000321576 0.000138654 -1.65032e-06
-2.16428e-06 -1.65032e-06 -1.83435e-05
0.00184548 0.000434913 1.66932e-06
0.000434913 0.000248056 5.1143e-07
1.66932e-06 5.1143e-07 2.11502e-05
0.00173455 0.000411051 5.01614e-07
0.000411051 0.000108237 -1.26768e-07
5.01614e-07 -1.26768e-07 -8.17395e-05
0.00094932 0.000326916 2.03927e-06
0.000326916 8.68439e-05 3.55617e-06
2.03927e-06 3.55617e-06 -0.000194242
0.00165195 0.000436296 -2.4736e-06
0.000436296 0.000283769 -1.61861e-06
-2.4736e-06 -1.61861e-06 1.27247e-05
0.000772113 4.35125e-05 1.83158e-07
4.35125e-05 0.000161084 2.17291e-06
1.83158e-07 2.17291e-06 5.85508e-05
0.000258018 -5.82937e-06 -1.58395e-06
-5.82937e-06 -0.000116275 1.61456e-06
-1.58395e-06 1.61456e-06 -0.000260362
0.00077736 0.000258512 -4.32289e-06
0.000258512 1.00524e-05 -2.43132e-06
-4.32289e-06 -2.43132e-06 -0.000208777
0.000710529 0.000152893 -6.46276e-06
0.000152893 0.00016252 -4.59052e-06
-6.46276e-06 -4.59052e-06 -3.92373e-05
0.000776218 0.000238046 -2.21969e-06
0.000238046 5.80262e-05 -3.20799e-06
-2.21969e-06 -3.20799e-06 -0.000125739
0.001732 0.00034528 -4.59958e-07
0.00034528 2.07175e-05 -1.77413e-06
-4.59958e-07 -1.77413e-06 -0.000115422
0.00198866 0.000478323 3.66522e-06
0.000478323 0.000315935 -1.75722e-06
3.66522e-06 -1.75722e-06 7.47914e-05
0.00164075 0.000427956 2.7262e-06
0.000427956 4.19749e-05 3.46079e-07
2.7262e-06 3.46079e-07 -0.00015454
0.000940596 0.000334253 1.94567e-06
0.000334253 4.79006e-05 6.31502e-06
1.94567e-06 6.31502e-06 -0.000245237
0.00166181 0.000469486 -1.25294e-06
0.000469486 0.000298278 -7.90868e-07
-1.25294e-06 -7.90868e-07 1.69234e-05
0.000582491 -4.08153e-06 -1.77464e-06
-4.08153e-06 1.17127e-05 -2.86321e-06
-1.77464e-06 -2.86321e-06 -4.48362e-05
0.000580702 3.87139e-05 1.13462e-06
3.87139e-05 3.32152e-05 3.92255e-07
1.13462e-06 3.92255e-07 -5.66531e-05
0.00048072 2.27776e-05 -3.11875e-08
2.27776e-05 -3.07523e-05 9.3857e-07
-3.11875e-08 9.3857e-07 -0.000122469
0.000380212 -2.36527e-05 -7.39554e-07
-2.36527e-05 -8.5208e-05 -1.79333e-06
-7.39554e-07 -1.79333e-06 -0.000172496
0.000635825 4.5833e-05 -2.90988e-07
4.5833e-05 7.86647e-05 -4.96711e-09
-2.90988e-07 -4.96711e-09 -1.40484e-05
0.000669472 6.38331e-05 -5.84013e-07
6.38331e-05 8.91121e-05 -2.88298e-07
-5.84013e-07 -2.88298e-07 -9.67961e-06
0.000790255 9.81399e-05 -1.55147e-06
9.81399e-05 0.000171469 -2.75021e-06
-1.55147e-06 -2.75021e-06 6.56129e-05
0.000430254 -3.02524e-06 1.16976e-06
-3.02524e-06 -3.62851e-05 -4.8003e-08
1.16976e-06 -4.8003e-08 -0.000147956
0.000680859 7.36841e-05 9.92658e-07
7.36841e-05 0.000102451 2.07362e-06
9.92658e-07 2.07362e-06 1.35426e-05
0.000604862 4.79972e-05 2.92784e-06
4.79972e-05 4.38734e-05 2.76185e-06
2.92784e-06 2.76185e-06 -1.42875e-05
0.000582081 8.36765e-06 -1.64426e-06
8.36765e-06 2.47535e-05 -5.92583e-09
-1.64426e-06 -5.92583e-09 -3.08684e-05
0.00124593 -2.27733e-05 1.16463e-06
-2.27733e-05 0.000400184 2.62885e-06
1.16463e-06 2.62885e-06 0.000387466
0.000532583 -5.00459e-05 3.9869e-07
-5.00459e-05 -5.64098e-06 -2.75655e-06
3.9869e-07 -2.75655e-06 -6.3145e-05
0.00129676 -3.23e-05 -5.13282e-06
-3.23e-05 0.000430375 -1.50069e-06
-5.13282e-06 -1.50069e-06 0.000417103
0.000824595 -3.23296e-05 2.14012e-05
-3.23296e-05 0.000148497 8.28309e-06
2.14012e-05 8.28309e-06 0.000154014
0.00134212 -4.35623e-05 -9.17068e-06
-4.35623e-05 0.000460146 -5.81023e-06
-9.17068e-06 -5.81023e-06 0.000445306
0.00079201 -4.249e-05 7.76733e-06
-4.249e-05 0.000132581 3.10008e-06
7.76733e-06 3.10008e-06 0.000135556
0.00232214 -9.82144e-05 -4.01094e-06
-9.82144e-05 0.00107557 -2.14059e-06
-4.01094e-06 -2.14059e-06 0.0010805
0.00044954 4.95673e-05 -1.64514e-06
4.95673e-05 -5.92985e-05 -4.06364e-06
-1.64514e-06 -4.06364e-06 -8.32229e-05
0.000471156 3.68512e-05 -2.17639e-06
3.68512e-05 -3.72719e-05 -5.23997e-08
-2.17639e-06 -5.23997e-08 -7.0079e-05
0.00254848 0.000113836 2.22395e-05
0.000113836 0.00122906 -3.85923e-06
2.22395e-05 -3.85923e-06 0.00122884
0.000587888 -1.36419e-05 -5.57758e-06
-1.36419e-05 2.74636e-05 7.98784e-06
-5.57758e-06 7.98784e-06 -1.17769e-05
0.00305847 0.00012923 -2.72801e-05
0.00012923 0.00154391 -1.08914e-06
-2.72801e-05 -1.08914e-06 0.00153947
0.00361829 9.76669e-05 -0.000114528
9.76669e-05 0.00188362 7.36874e-06
-0.000114528 7.36874e-06 0.0018859
0.00183418 0.000259913 -2.11579e-06
0.000259913 0.000131474 8.76897e-07
-2.11579e-06 8.76897e-07 -1.6941e-05
0.00184402 0.000151231 3.62172e-07
0.000151231 9.40735e-05 1.58687e-06
3.62172e-07 1.58687e-06 -9.55695e-06
0.00188233 0.000215696 -1.77943e-07
0.000215696 7.56036e-05 1.89929e-06
-1.77943e-07 1.89929e-06 -1.25412e-05
0.00184956 9.90292e-05 -1.20003e-06
9.90292e-05 2.95217e-05 -3.19898e-07
-1.20003e-06 -3.19898e-07 -2.0787e-05
0.00184457 3.6036e-05 -1.40019e-06
3.6036e-05 8.48499e-05 2.86358e-07
-1.40019e-06 2.86358e-07 1.01049e-05
0.00151773 9.3151e-06 -6.94859e-07
9.3151e-06 5.66628e-05 7.68907e-08
-6.94859e-07 7.68907e-08 -6.07969e-05
0.00183989 9.86293e-07 -1.61153e-06
9.86293e-07 9.02421e-05 5.21794e-08
-1.61153e-06 5.21794e-08 1.34248e-05
0.00184506 4.46433e-05 1.98921e-06
4.46433e-05 4.0379e-05 9.24299e-08
1.98921e-06 9.24299e-08 -8.2086e-06
0.00190506 0.000160428 -7.065e-07
0.000160428 7.21418e-05 -1.64048e-07
-7.065e-07 -1.64048e-07 2.15711e-06
0.00189673 0.000103097 1.1041e-06
0.000103097 3.3096e-05 1.25071e-07
1.1041e-06 1.25071e-07 5.45824e-07
0.00183472 0.00025464 -8.27812e-07
0.00025464 0.000104215 -3.1439e-07
-8.27812e-07 -3.1439e-07 -1.60223e-05
0.00187867 0.000229318 3.25079e-06
0.000229318 3.47288e-05 1.30318e-06
3.25079e-06 1.30318e-06 -3.82476e-05
0.0018481 -6.28683e-06 4.64763e-06
-6.28683e-06 5.11165e-05 1.02359e-07
4.64763e-06 1.02359e-07 5.01234e-06
0.00188574 4.71444e-05 5.20539e-06
4.71444e-05 2.12221e-05 2.51951e-07
5.20539e-06 2.51951e-07 -2.75634e-06
0.0019544 0.000162263 4.07396e-06
0.000162263 4.30931e-05 1.31538e-06
4.07396e-06 1.31538e-06 4.17496e-06
0.00196874 0.000293705 1.71009e-07
0.000293705 9.93772e-05 1.31042e-07
1.71009e-07 1.31042e-07 6.83815e-06
0.00185942 -4.58346e-05 3.67976e-07
-4.58346e-05 0.00010586 -7.01794e-08
3.67976e-07 -7.01794e-08 2.31539e-05
0.0017833 -0.000142931 1.9769e-06
-0.000142931 8.00168e-05 -1.27941e-06
1.9769e-06 -1.27941e-06 -3.04968e-05
0.00181315 -9.19439e-05 6.99175e-07
-9.19439e-05 4.23281e-05 -1.06951e-06
6.99175e-07 -1.06951e-06 -1.34506e-05
0.00185304 -0.000215795 -2.98898e-06
-0.000215795 7.04352e-05 1.05154e-06
-2.98898e-06 1.05154e-06 -1.97556e-05
0.00100131 -0.000240715 -4.04676e-06
-0.000240715 0.000180182 4.18316e-06
-4.04676e-06 4.18316e-06 -3.89721e-05
0.000970379 -0.000324422 -1.54444e-07
-0.000324422 3.13021e-05 1.55835e-06
-1.54444e-07 1.55835e-06 -0.00023548
0.00163 -0.000492183 2.21398e-06
-0.000492183 0.000240114 -1.56786e-06
2.21398e-06 -1.56786e-06 -6.90853e-05
0.00172776 -0.000305402 -5.11644e-07
-0.000305402 8.31388e-05 -9.50616e-08
-5.11644e-07 -9.50616e-08 -5.84569e-05
0.00181524 -0.000276774 8.11137e-07
-0.000276774 6.82365e-05 4.33688e-07
8.11137e-07 4.33688e-07 -2.46528e-05
0.00181569 -0.000369785 2.57969e-06
-0.000369785 0.000121483 5.78789e-07
2.57969e-06 5.78789e-07 -2.01605e-05
0.00178145 -0.000449814 -2.70995e-06
-0.000449814 0.000204003 -2.32961e-06
-2.70995e-06 -2.32961e-06 -3.60595e-05
0.00182926 -0.000374289 2.03213e-06
-0.000374289 0.000158546 -1.03094e-05
2.03213e-06 -1.03094e-05 2.27649e-06
0.00123097 -0.00028431 3.24418e-06
-0.00028431 0.00032052 1.80245e-06
3.24418e-06 1.80245e-06 9.36304e-05
0.000954618 -0.000243831 7.32085e-06
-0.000243831 0.000175442 2.98865e-08
7.32085e-06 2.98865e-08 -3.36669e-05
0.000662464 -0.000119451 3.67406e-06
-0.000119451 0.000124033 -6.16759e-06
3.67406e-06 -6.16759e-06 -0.00010589
0.000311442 1.92666e-06 2.2162e-07
1.92666e-06 -0.000123949 3.62659e-06
2.2162e-07 3.62659e-06 -0.000218488
0.000231433 1.59195e-05 3.17132e-06
1.59195e-05 -0.000146052 -3.50232e-07
3.17132e-06 -3.50232e-07 -0.000301048
0.00184645 -6.19403e-05 -4.99438e-07
-6.19403e-05 3.93798e-05 -1.25145e-07
-4.99438e-07 -1.25145e-07 -5.80387e-06
0.00186914 -0.000137459 1.53005e-06
-0.000137459 5.89435e-05 -5.44106e-07
1.53005e-06 -5.44106e-07 -3.36948e-06
0.00189866 -0.000257271 -1.52028e-06
-0.000257271 6.11105e-05 2.69157e-07
-1.52028e-06 2.69157e-07 -1.23554e-05
0.00120942 -0.000304307 -1.90426e-06
-0.000304307 0.000251434 1.27538e-08
-1.90426e-06 1.27538e-08 3.19792e-06
0.00107813 -0.000398761 8.40095e-07
-0.000398761 7.24547e-05 -1.3453e-06
8.40095e-07 -1.3453e-06 -0.000233205
0.00170124 -0.00053501 -2.13284e-07
-0.00053501 0.000252554 -2.94014e-07
-2.13284e-07 -2.94014e-07 -6.85989e-05
0.00178004 -0.000311986 4.58956e-07
-0.000311986 6.30445e-05 -7.45719e-08
4.58956e-07 -7.45719e-08 -4.39021e-05
0.00190105 -0.00044777 9.02056e-07
-0.00044777 0.000244321 -2.79116e-06
9.02056e-07 -2.79116e-06 1.88655e-05
0.0019474 -0.000418589 -5.74682e-07
-0.000418589 0.000163262 -9.68852e-07
-5.74682e-07 -9.68852e-07 1.75567e-05
0.000240645 4.1143e-05 -8.31847e-07
4.1143e-05 -0.000172092 -8.2849e-07
-8.31847e-07 -8.2849e-07 -0.000242971
0.00124025 -0.000299713 -1.09586e-06
-0.000299713 0.000286165 3.57037e-08
-1.09586e-06 3.57037e-08 5.27456e-05
0.000633264 -0.000237508 1.89403e-06
-0.000237508 -2.08641e-05 2.47456e-06
1.89403e-06 2.47456e-06 -0.000229017
0.00104492 -0.000200407 -4.0475e-07
-0.000200407 0.000339198 4.40012e-07
-4.0475e-07 4.40012e-07 9.1007e-05
0.00116134 -0.000100764 7.53476e-07
-0.000100764 0.000424128 -2.14805e-06
7.53476e-07 -2.14805e-06 0.000232183
0.00055047 -1.19026e-05 -7.09759e-07
-1.19026e-05 5.34896e-05 8.70777e-07
-7.09759e-07 8.70777e-07 -8.70342e-05
0.00189342 -7.32538e-05 4.80249e-06
-7.32538e-05 3.20849e-05 -6.0485e-07
4.80249e-06 -6.0485e-07 7.96474e-06
0.00197009 -0.000177764 2.55014e-06
-0.000177764 2.52626e-05 -6.04145e-07
2.55014e-06 -6.04145e-07 -5.448e-07
0.00194343 -0.000306444 2.494e-06
-0.000306444 6.16847e-05 -1.96322e-06
2.494e-06 -1.96322e-06 6.40339e-06
0.00209495 -0.000385419 1.85543e-06
-0.000385419 0.000159423 -3.12589e-06
1.85543e-06 -3.12589e-06 5.94357e-05
0.00202052 -0.000423353 -3.7718e-06
-0.000423353 0.000702368 -4.32452e-06
-3.7718e-06 -4.32452e-06 0.000417902
0.00189484 -0.000471785 3.49838e-06
-0.000471785 0.00017003 2.72397e-06
3.49838e-06 2.72397e-06 -2.09407e-05
0.00138195 -0.000499669 -4.26913e-06
-0.000499669 0.000219473 1.49741e-06
-4.26913e-06 1.49741e-06 -0.000137813
0.00192029 -0.000574182 -4.92824e-06
-0.000574182 0.000385343 1.4744e-06
-4.92824e-06 1.4744e-06 4.68329e-05
0.000245854 5.71817e-05 -2.85797e-06
5.71817e-05 -0.000172767 -1.83289e-06
-2.85797e-06 -1.83289e-06 -0.000230481
0.000669943 2.39502e-06 -1.52044e-06
2.39502e-06 0.000122493 -2.99086e-08
-1.52044e-06 -2.99086e-08 7.2471e-06
0.00101801 -0.000124141 -3.89746e-06
-0.000124141 0.000343087 3.33896e-06
-3.89746e-06 3.33896e-06 0.00017574
0.000937153 -3.58492e-05 -3.39653e-06
-3.58492e-05 0.000271029 4.85665e-06
-3.39653e-06 4.85665e-06 4.78768e-05
0.000951411 -0.000306276 -6.50289e-06
-0.000306276 9.97967e-05 -6.08678e-06
-6.50289e-06 -6.08678e-06 -0.000156752
0.00113081 -0.000282702 -1.01764e-05
-0.000282702 0.000324627 3.55618e-06
-1.01764e-05 3.55618e-06 5.11382e-05
0.000510443 -6.27852e-07 -2.09063e-06
-6.27852e-07 -2.73303e-05 -2.90549e-06
-2.09063e-06 -2.90549e-06 -8.92116e-05
0.000476972 -2.12287e-05 1.22444e-06
-2.12287e-05 -1.68914e-05 -1.93575e-06
1.22444e-06 -1.93575e-06 -0.000123147
0.00179479 0.000323413 -2.36384e-06
0.000323413 0.000123444 -7.99097e-07
-2.36384e-06 -7.99097e-07 -3.47292e-05
0.000218813 1.66979e-05 7.0654e-07
1.66979e-05 -0.000151858 -1.91417e-07
7.0654e-07 -1.91417e-07 -0.000321921
0.00130873 0.000290787 1.32224e-06
0.000290787 0.00037887 4.94642e-07
1.32224e-06 4.94642e-07 0.000153178
-5.31918e-05 8.41967e-05 4.86012e-06
8.41967e-05 -0.00040691 3.17871e-06
4.86012e-06 3.17871e-06 -0.000563386
0.00181261 0.000432064 5.87793e-07
0.000432064 0.00022604 2.76616e-07
5.87793e-07 2.76616e-07 -7.11373e-07
0.00185421 0.000413678 -2.79441e-06
0.000413678 0.000177779 8.07815e-07
-2.79441e-06 8.07815e-07 -1.10663e-05
0.00146636 0.000389124 -9.74946e-07
0.000389124 0.000385711 1.288e-06
-9.74946e-07 1.288e-06 9.46491e-05
0.00195421 0.000464144 -2.70812e-06
0.000464144 0.000477646 8.44634e-07
-2.70812e-06 8.44634e-07 0.000198757
0.000682506 1.94296e-05 -1.03286e-06
1.94296e-05 0.000102973 2.4124e-07
-1.03286e-06 2.4124e-07 5.46253e-06
0.000492391 3.58598e-05 9.86093e-07
3.58598e-05 2.48676e-05 7.04755e-07
9.86093e-07 7.04755e-07 -0.000124225
0.00143455 0.000324948 -5.99528e-07
0.000324948 0.000410223 -2.03923e-06
-5.99528e-07 -2.03923e-06 0.000176988
0.000510999 6.00467e-05 -1.37586e-06
6.00467e-05 8.12077e-06 -2.65656e-07
-1.37586e-06 -2.65656e-07 -0.000161828
0.000571839 0.000204156 -5.89746e-07
0.000204156 -7.5738e-05 -9.37934e-07
-5.89746e-07 -9.37934e-07 -0.000239798
0.00193864 0.000357803 -3.00497e-06
0.000357803 0.000137275 -1.22117e-06
-3.00497e-06 -1.22117e-06 3.09425e-06
0.00206758 0.000477873 2.16878e-06
0.000477873 0.000366594 -2.42778e-07
2.16878e-06 -2.42778e-07 0.000129122
0.00182109 0.00044774 1.82694e-06
0.00044774 0.000137036 2.66834e-06
1.82694e-06 2.66834e-06 -6.35328e-05
0.00124712 0.000370145 4.81392e-06
0.000370145 0.000239889 3.8884e-06
4.81392e-06 3.8884e-06 -6.17396e-05
0.00164468 0.000478459 -3.77252e-06
0.000478459 0.00028404 3.82704e-07
-3.77252e-06 3.82704e-07 -4.9148e-06
9.63347e-05 -1.15217e-05 -1.19716e-06
-1.15217e-05 -0.000239959 2.89769e-06
-1.19716e-06 2.89769e-06 -0.000343275
-9.07402e-05 8.95512e-05 9.03545e-07
8.95512e-05 -0.000285343 3.13397e-07
9.03545e-07 3.13397e-07 -0.000475176
0.000633734 0.000252714 1.07607e-06
0.000252714 -8.33614e-05 2.19391e-06
1.07607e-06 2.19391e-06 -0.000318237
-0.000348463 0.000110283 3.9003e-06
0.000110283 -0.000577351 -7.70651e-07
3.9003e-06 -7.70651e-07 -0.0007493
0.00195724 0.000362003 -2.04274e-07
0.000362003 -6.03826e-05 8.14316e-07
-2.04274e-07 8.14316e-07 -0.000106368
0.0025211 0.000457814 1.56809e-06
0.000457814 0.000478255 -5.65732e-07
1.56809e-06 -5.65732e-07 0.000316225
0.00187117 0.00051667 -3.24861e-06
0.00051667 0.000273922 -4.05483e-06
-3.24861e-06 -4.05483e-06 2.42047e-06
0.000926261 0.000387886 -8.00918e-07
0.000387886 -2.34138e-05 1.39697e-06
-8.00918e-07 1.39697e-06 -0.000338092
0.000638003 7.29207e-05 -1.00392e-06
7.29207e-05 7.2446e-05 -1.06844e-06
-1.00392e-06 -1.06844e-06 -2.06114e-05
0.00061045 5.18334e-05 -3.14069e-07
5.18334e-05 5.75941e-05 8.94746e-08
-3.14069e-07 8.94746e-08 -4.18173e-05
0.000956002 4.96277e-05 -3.34058e-06
4.96277e-05 0.000263031 -1.85932e-06
-3.34058e-06 -1.85932e-06 0.000173264
0.000625379 2.2052e-05 -1.46876e-06
2.2052e-05 5.81451e-05 -1.93998e-06
-1.46876e-06 -1.93998e-06 -2.42192e-05
0.000395235 1.20449e-05 -7.45419e-07
1.20449e-05 -7.41474e-05 -4.17545e-07
-7.45419e-07 -4.17545e-07 -0.000169696
0.000641516 3.65443e-05 -1.74299e-07
3.65443e-05 8.13906e-05 4.64184e-08
-1.74299e-07 4.64184e-08 -8.47002e-06
0.000650523 9.67752e-05 -9.99972e-07
9.67752e-05 9.96043e-05 6.43167e-08
-9.99972e-07 6.43167e-08 -9.47652e-06
0.000560278 3.21145e-05 9.6812e-07
3.21145e-05 4.57172e-05 2.59225e-07
9.6812e-07 2.59225e-07 -6.91294e-05
0.000759648 7.00888e-05 1.33873e-06
7.00888e-05 0.000138515 -1.74291e-06
1.33873e-06 -1.74291e-06 5.16603e-05
0.000673532 -4.48658e-06 3.5976e-06
-4.48658e-06 0.000108742 -2.77176e-06
3.5976e-06 -2.77176e-06 -5.92358e-06
0.000483226 5.74732e-05 8.05529e-07
5.74732e-05 7.90413e-07 1.9351e-06
8.05529e-07 1.9351e-06 -0.000117711
0.000662085 8.55626e-05 1.69834e-06
8.55626e-05 9.77716e-05 2.51675e-06
1.69834e-06 2.51675e-06 4.20993e-06
0.000533595 5.66127e-05 2.54933e-06
5.66127e-05 7.47495e-06 2.58327e-06
2.54933e-06 2.58327e-06 -5.50329e-05
0.000542281 6.85063e-07 -1.47128e-06
6.85063e-07 7.91536e-06 -7.16918e-08
-1.47128e-06 -7.16918e-08 -5.09931e-05
0.00123726 -9.1804e-06 1.08638e-06
-9.1804e-06 0.000397515 2.47942e-06
1.08638e-06 2.47942e-06 0.000385016
0.000532655 -4.96183e-05 2.45524e-07
-4.96183e-05 -1.23358e-06 -2.67036e-06
2.45524e-07 -2.67036e-06 -5.89343e-05
0.00129984 -1.92626e-05 -4.45122e-06
-1.92626e-05 0.000433033 -1.58251e-06
-4.45122e-06 -1.58251e-06 0.000420505
0.000815024 -2.34592e-05 1.84265e-05
-2.34592e-05 0.000141127 8.54408e-06
1.84265e-05 8.54408e-06 0.000147552
0.00134408 -2.98761e-05 -7.92292e-06
-2.98761e-05 0.000459298 -5.78779e-06
-7.92292e-06 -5.78779e-06 0.000446112
0.000783075 -3.33674e-05 6.43777e-06
-3.33674e-05 0.000122267 3.19744e-06
6.43777e-06 3.19744e-06 0.000127274
0.000735476 -4.1381e-05 -9.46497e-07
-4.1381e-05 9.75732e-05 -2.36836e-06
-9.46497e-07 -2.36836e-06 0.000100514
0.000484665 3.83227e-05 -2.4363e-08
3.83227e-05 -5.18523e-05 -3.23368e-06
-2.4363e-08 -3.23368e-06 -6.82238e-05
0.000483402 6.02301e-05 -3.16091e-09
6.02301e-05 -3.49521e-05 1.68714e-07
-3.16091e-09 1.68714e-07 -6.17235e-05
0.00229244 9.33217e-05 1.78675e-05
9.33217e-05 0.00106541 -3.82031e-06
1.78675e-05 -3.82031e-06 0.00107071
0.000523832 3.15132e-05 -3.11692e-06
3.15132e-05 -4.60326e-06 6.51094e-06
-3.11692e-06 6.51094e-06 -3.83138e-05
0.0026319 0.000117175 -6.42358e-06
0.000117175 0.00127977 -5.69918e-07
-6.42358e-06 -5.69918e-07 0.00127872
0.00314163 8.80019e-05 -9.14351e-05
8.80019e-05 0.00158913 5.74154e-06
-9.14351e-05 5.74154e-06 0.0015944
0.00181899 0.000251562 -6.29266e-07
0.000251562 0.000103902 1.80589e-06
-6.29266e-07 1.80589e-06 -1.5768e-05
0.00195245 0.000160881 -3.43003e-06
0.000160881 0.000102392 -1.57449e-07
-3.43003e-06 -1.57449e-07 3.1334e-05
0.00190822 0.000234111 2.95401e-07
0.000234111 5.28687e-05 -9.29551e-08
2.95401e-07 -9.29551e-08 -1.68743e-05
0.00187363 0.000104296 -4.83819e-06
0.000104296 1.65625e-05 -1.12135e-06
-4.83819e-06 -1.12135e-06 -1.34327e-05
0.00185123 4.35119e-05 -2.24906e-06
4.35119e-05 4.76076e-05 -2.39344e-07
-2.24906e-06 -2.39344e-07 -2.76371e-06
0.0017986 -1.09589e-06 -1.09779e-06
-1.09589e-06 6.42443e-05 5.95229e-08
-1.09779e-06 5.95229e-08 -1.50994e-05
0.00181734 -3.64235e-06 -6.13309e-07
-3.64235e-06 3.15264e-05 -2.98681e-08
-6.13309e-07 -2.98681e-08 -1.40001e-05
0.00189642 4.85725e-05 1.04274e-06
4.85725e-05 3.44609e-05 1.71531e-07
1.04274e-06 1.71531e-07 9.31659e-06
0.00194802 0.000166349 6.34782e-07
0.000166349 4.09469e-05 6.96987e-08
6.34782e-07 6.96987e-08 1.8819e-06
0.00200492 0.000290621 4.41559e-07
0.000290621 0.000107749 2.07432e-07
4.41559e-07 2.07432e-07 1.65801e-05
0.00187935 -9.65051e-06 3.8089e-06
-9.65051e-06 3.10164e-05 -4.42093e-08
3.8089e-06 -4.42093e-08 7.99185e-06
0.00200271 9.58701e-05 2.29703e-06
9.58701e-05 1.10883e-05 9.94588e-08
2.29703e-06 9.94588e-08 1.3541e-05
0.00211568 0.00025112 2.84234e-06
0.00025112 7.08677e-05 1.20697e-06
2.84234e-06 1.20697e-06 2.81966e-05
0.00184902 -6.86642e-05 -3.31846e-06
-6.86642e-05 4.13373e-05 5.91951e-07
-3.31846e-06 5.91951e-07 -6.88593e-06
0.00184628 -0.000137719 -1.5919e-06
-0.000137719 4.40177e-05 -3.55412e-07
-1.5919e-06 -3.55412e-07 -1.99553e-05
0.00186117 -0.000250325 -3.18776e-06
-0.000250325 5.22682e-05 1.51418e-06
-3.18776e-06 1.51418e-06 -2.48133e-05
0.00111267 -0.000295443 -1.07526e-06
-0.000295443 0.000194202 3.68627e-06
-1.07526e-06 3.68627e-06 -5.38395e-05
0.000948422 -0.000376047 4.32272e-06
-0.000376047 -1.02992e-05 5.27195e-08
4.32272e-06 5.27195e-08 -0.000307895
0.00162594 -0.000533291 1.48512e-06
-0.000533291 0.000211247 -4.95594e-07
1.48512e-06 -4.95594e-07 -0.000111974
0.00179757 -0.00031216 -9.95664e-07
-0.00031216 6.95012e-05 8.60112e-07
-9.95664e-07 8.60112e-07 -3.85062e-05
0.00163716 -0.000394471 -1.33387e-06
-0.000394471 2.08993e-06 -1.10771e-06
-1.33387e-06 -1.10771e-06 -0.000141667
0.00195355 -0.000453515 -2.09287e-06
-0.000453515 0.000273443 -7.45612e-06
-2.09287e-06 -7.45612e-06 5.39547e-05
0.000945714 -0.000270983 2.59131e-06
-0.000270983 9.82765e-05 5.11635e-06
2.59131e-06 5.11635e-06 -0.000129145
0.000589204 -0.000227921 -7.4364e-06
-0.000227921 -3.45421e-05 5.55905e-06
-7.4364e-06 5.55905e-06 -0.000228248
0.00182292 -0.000263536 2.14854e-06
-0.000263536 0.000822546 -2.18245e-06
2.14854e-06 -2.18245e-06 0.000552541
0.000347207 3.572e-05 1.61658e-06
3.572e-05 -0.000110075 5.85012e-07
1.61658e-06 5.85012e-07 -0.000178661
0.000876935 -0.000103584 3.48351e-06
-0.000103584 0.000245507 -1.20176e-06
3.48351e-06 -1.20176e-06 6.78411e-05
0.000352012 3.3747e-05 4.65464e-06
3.3747e-05 -7.39766e-05 1.16121e-06
4.65464e-06 1.16121e-06 -0.000209244
0.00189097 -7.33238e-05 -4.23742e-07
-7.33238e-05 3.23237e-05 1.45688e-07
-4.23742e-07 1.45688e-07 4.63555e-06
0.00195575 -0.000184249 1.94552e-07
-0.000184249 1.36809e-05 -1.54332e-07
1.94552e-07 -1.54332e-07 -1.209e-05
0.00193923 -0.00030396 -3.99794e-07
-0.00030396 6.62913e-05 4.28222e-07
-3.99794e-07 4.28222e-07 6.24466e-06
0.00141606 -0.000362942 -1.79498e-06
-0.000362942 0.000344939 6.79036e-07
-1.79498e-06 6.79036e-07 7.08001e-05
0.00123083 -0.000480225 3.56702e-07
-0.000480225 0.000128331 -1.19256e-06
3.56702e-07 -1.19256e-06 -0.000222514
0.00201801 -0.000575133 -4.30767e-06
-0.000575133 0.00044196 8.1491e-07
-4.30767e-06 8.1491e-07 0.000112269
0.00197988 -0.000385831 6.69739e-07
-0.000385831 9.42131e-05 -2.57657e-07
6.69739e-07 -2.57657e-07 -9.55394e-06
0.00173613 -0.000460277 1.36064e-06
-0.000460277 7.27765e-05 -3.18963e-06
1.36064e-06 -3.18963e-06 -0.000116639
0.000420365 5.28218e-05 -6.5306e-07
5.28218e-05 -7.09783e-05 -1.02982e-06
-6.5306e-07 -1.02982e-06 -0.000124302
0.000676027 -1.10599e-05 -6.74641e-07
-1.10599e-05 0.000123476 3.57392e-07
-6.74641e-07 3.57392e-07 9.74156e-06
0.000290459 -0.000239819 -5.19507e-06
-0.000239819 -0.000293783 5.82455e-06
-5.19507e-06 5.82455e-06 -0.00053105
0.00157029 -0.000301677 2.29245e-06
-0.000301677 0.000606895 -1.41237e-06
2.29245e-06 -1.41237e-06 0.000329846
0.00105851 -8.75167e-05 -2.32626e-07
-8.75167e-05 0.000357085 -1.88391e-06
-2.32626e-07 -1.88391e-06 0.000131804
0.000845433 -9.68055e-05 -6.38917e-07
-9.68055e-05 0.000240088 9.87192e-07
-6.38917e-07 9.87192e-07 7.37447e-05
0.00194561 -9.25701e-05 1.14818e-06
-9.25701e-05 -1.30464e-06 1.55048e-07
1.14818e-06 1.55048e-07 -6.89309e-07
0.00204384 -0.000261919 8.46688e-08
-0.000261919 2.01621e-06 1.16259e-07
8.46688e-08 1.16259e-07 6.80174e-06
0.00200965 -0.000336132 2.05077e-06
-0.000336132 6.98868e-05 -2.05377e-06
2.05077e-06 -2.05377e-06 2.4645e-05
0.00199341 -0.000507243 5.36065e-06
-0.000507243 8.08115e-05 -2.69319e-06
5.36065e-06 -2.69319e-06 -5.2148e-05
0.000989647 -0.000380287 -3.40078e-06
-0.000380287 6.48285e-05 -5.73465e-06
-3.40078e-06 -5.73465e-06 -0.000257811
0.00196172 -0.000584792 -1.66641e-06
-0.000584792 0.000356251 1.25438e-05
-1.66641e-06 1.25438e-05 4.49744e-05
0.00201561 -0.000601342 -4.1864e-06
-0.000601342 0.00055263 -1.72124e-06
-4.1864e-06 -1.72124e-06 0.000156607
0.000599729 5.24321e-05 7.98265e-08
5.24321e-05 2.65753e-05 -1.14767e-06
7.98265e-08 -1.14767e-06 -1.77376e-05
0.000666643 -0.000118235 3.35856e-06
-0.000118235 0.000109463 -2.05104e-06
3.35856e-06 -2.05104e-06 2.15732e-05
0.000427127 6.44028e-05 -3.59187e-06
6.44028e-05 -3.6975e-05 3.13873e-07
-3.59187e-06 3.13873e-07 -0.000128186
0.00065399 -4.61513e-05 -2.82347e-06
-4.61513e-05 0.000128513 4.27989e-06
-2.82347e-06 4.27989e-06 -1.78758e-05
0.000487023 -4.6921e-05 1.80856e-07
-4.6921e-05 -6.33849e-06 6.65948e-07
1.80856e-07 6.65948e-07 -0.000176728
-0.00042704 -4.30712e-05 -9.98591e-07
-4.30712e-05 -0.000520669 8.6809e-07
-9.98591e-07 8.6809e-07 -0.000758936
0.000376884 -0.000278075 -1.07372e-05
-0.000278075 -0.000226699 -6.01468e-06
-1.07372e-05 -6.01468e-06 -0.000470677
0.00297212 -0.000446859 -1.53822e-05
-0.000446859 0.00151892 3.17045e-06
-1.53822e-05 3.17045e-06 0.00110981
0.000631163 -5.51893e-08 -9.01326e-07
-5.51893e-08 6.59445e-05 -1.10104e-06
-9.01326e-07 -1.10104e-06 -2.50264e-05
0.000737362 7.01784e-05 4.15002e-07
7.01784e-05 0.000176095 -9.36282e-07
4.15002e-07 -9.36282e-07 1.92046e-05
0.00213241 0.000369196 -1.69348e-06
0.000369196 0.000247365 -9.54983e-07
-1.69348e-06 -9.54983e-07 0.000115364
0.000763538 0.000101647 -1.31856e-06
0.000101647 0.000173774 3.23579e-06
-1.31856e-06 3.23579e-06 -9.18021e-06
0.00218524 0.000402345 1.4275e-06
0.000402345 0.000865569 -4.7328e-07
1.4275e-06 -4.7328e-07 0.000615235
0.00035867 0.000168348 1.83784e-08
0.000168348 -0.00021155 8.60138e-07
1.83784e-08 8.60138e-07 -0.000356869
0.00211315 0.000473136 -2.89244e-06
0.000473136 0.000401114 -2.56152e-07
-2.89244e-06 -2.56152e-07 0.000168319
0.00196419 0.000464777 -2.62571e-06
0.000464777 0.000211858 5.68518e-06
-2.62571e-06 5.68518e-06 7.85979e-06
0.00168695 0.00042275 -9.77203e-07
0.00042275 0.000504945 8.55336e-08
-9.77203e-07 8.55336e-08 0.000192191
0.00145188 0.000471743 -2.21277e-07
0.000471743 0.000166512 1.02066e-06
-2.21277e-07 1.02066e-06 -0.000126917
0.000261436 1.96909e-05 -1.49213e-07
1.96909e-05 -0.000134824 1.14438e-06
-1.49213e-07 1.14438e-06 -0.000245651
0.000337077 0.000126748 -7.66436e-07
0.000126748 -2.60166e-05 -2.38656e-06
-7.66436e-07 -2.38656e-06 -0.000221915
0.00146144 0.000341789 4.16623e-06
0.000341789 0.000411111 -1.36969e-06
4.16623e-06 -1.36969e-06 0.000160189
0.000727847 0.000196027 -2.82128e-06
0.000196027 6.6643e-05 -2.8129e-06
-2.82128e-06 -2.8129e-06 -0.000116099
0.0020635 0.000353851 1.00612e-06
0.000353851 8.06745e-07 -8.38345e-07
1.00612e-06 -8.38345e-07 -4.48297e-05
0.00225006 0.000450256 3.18223e-06
0.000450256 0.000327337 5.61723e-07
3.18223e-06 5.61723e-07 0.000161245
0.00189406 0.000511013 -8.14249e-07
0.000511013 0.000280423 4.0702e-07
-8.14249e-07 4.0702e-07 1.26348e-05
0.0012706 0.000424641 1.78333e-07
0.000424641 0.000157556 5.82105e-07
1.78333e-07 5.82105e-07 -0.000158426
0.000201423 4.23001e-05 -1.45334e-06
4.23001e-05 -0.000176351 3.24232e-06
-1.45334e-06 3.24232e-06 -0.000290311
0.00203738 0.000291254 2.07457e-06
0.000291254 -7.6352e-05 2.99617e-06
2.07457e-06 2.99617e-06 -6.03055e-05
0.00174029 0.000320361 3.34406e-06
0.000320361 0.000780574 5.33134e-06
3.34406e-06 5.33134e-06 0.000536241
0.00120718 0.000330555 6.42262e-06
0.000330555 0.000232815 2.78177e-06
6.42262e-06 2.78177e-06 -1.44948e-05
0.00240038 0.000442292 -1.80956e-05
0.000442292 0.000290917 -5.93485e-06
-1.80956e-05 -5.93485e-06 0.000179002
0.00101879 0.000472988 -6.22637e-06
0.000472988 -0.000318244 -8.43403e-06
-6.22637e-06 -8.43403e-06 -0.000568586
0.00203093 0.000527651 -1.92213e-06
0.000527651 0.00053273 2.91366e-06
-1.92213e-06 2.91366e-06 0.000195239
0.000698173 6.8128e-05 -1.45792e-06
6.8128e-05 0.000109439 -7.32948e-07
-1.45792e-06 -7.32948e-07 1.05738e-05
0.000666585 6.37213e-05 -2.0371e-06
6.37213e-05 9.84327e-05 -5.98982e-07
-2.0371e-06 -5.98982e-07 4.34339e-06
0.00104403 5.61555e-05 -2.56075e-06
5.61555e-05 0.000329434 -4.52659e-08
-2.56075e-06 -4.52659e-08 0.000248539
0.000581596 -3.02387e-07 1.41293e-07
-3.02387e-07 4.83031e-05 -2.61748e-06
1.41293e-07 -2.61748e-06 -4.33037e-05
0.000665057 6.12552e-05 8.80607e-07
6.12552e-05 0.00011099 -8.14205e-08
8.80607e-07 -8.14205e-08 -5.70443e-06
0.000263468 4.08135e-05 -1.63658e-06
4.08135e-05 -0.000120001 2.63661e-06
-1.63658e-06 2.63661e-06 -0.000226109
0.000603693 8.71159e-06 -8.25842e-07
8.71159e-06 7.03892e-05 2.40532e-08
-8.25842e-07 2.40532e-08 -2.76935e-05
0.000400698 -1.63367e-05 -5.93413e-07
-1.63367e-05 -3.90297e-05 4.25925e-07
-5.93413e-07 4.25925e-07 -0.000161436
0.000409977 2.23119e-05 2.34555e-07
2.23119e-05 -6.25424e-05 5.65738e-07
2.34555e-07 5.65738e-07 -0.000143238
0.000751251 6.03698e-05 8.02584e-07
6.03698e-05 0.000168244 -6.35153e-07
8.02584e-07 -6.35153e-07 4.25336e-05
0.00129288 7.2106e-05 4.52936e-07
7.2106e-05 0.000444065 -1.6294e-06
4.52936e-07 -1.6294e-06 0.000377947
0.000675113 -6.74211e-07 4.54685e-06
-6.74211e-07 9.44939e-05 -3.51877e-06
4.54685e-06 -3.51877e-06 2.45645e-06
0.00068917 5.90911e-05 2.48717e-07
5.90911e-05 0.000137771 1.52699e-06
2.48717e-07 1.52699e-06 -3.13818e-06
0.000596792 3.93845e-05 2.4901e-06
3.93845e-05 8.05383e-05 2.24188e-06
2.4901e-06 2.24188e-06 -5.33635e-05
0.000634456 2.59179e-05 1.88447e-06
2.59179e-05 8.29335e-05 2.44552e-06
1.88447e-06 2.44552e-06 -1.4715e-05
0.000539932 -3.88577e-05 -3.0697e-08
-3.88577e-05 1.02155e-05 2.46259e-06
-3.0697e-08 2.46259e-06 -5.26737e-05
0.000555143 -3.94599e-06 -4.11056e-07
-3.94599e-06 1.71489e-05 -8.29185e-08
-4.11056e-07 -8.29185e-08 -4.28245e-05
0.00128502 4.01855e-06 1.46214e-06
4.01855e-06 0.000430559 2.4154e-06
1.46214e-06 2.4154e-06 0.000417023
0.000557966 -2.23622e-05 6.79477e-07
-2.23622e-05 1.42728e-05 -2.77713e-06
6.79477e-07 -2.77713e-06 -4.23623e-05
0.00130581 -5.35514e-06 -3.45744e-06
-5.35514e-06 0.000439602 -1.61616e-06
-3.45744e-06 -1.61616e-06 0.000426925
0.000798717 -1.5268e-05 1.39711e-05
-1.5268e-05 0.000131988 8.52953e-06
1.39711e-05 8.52953e-06 0.000138771
0.00136031 -1.65699e-05 -6.00259e-06
-1.65699e-05 0.000469981 -5.91923e-06
-6.00259e-06 -5.91923e-06 0.000457338
0.000798366 -2.4831e-05 4.38094e-06
-2.4831e-05 0.000129146 3.29875e-06
4.38094e-06 3.29875e-06 0.000135187
0.000756459 -3.26469e-05 -6.27869e-07
-3.26469e-05 0.000104367 -2.33097e-06
-6.27869e-07 -2.33097e-06 0.000109455
0.000644638 9.68146e-06 1.34913e-06
9.68146e-06 5.03218e-05 -1.54626e-06
1.34913e-06 -1.54626e-06 9.01427e-06
0.000510217 2.87641e-05 3.94568e-07
2.87641e-05 -4.51922e-05 -3.3981e-06
3.94568e-07 -3.3981e-06 -5.7262e-05
0.000516289 3.98418e-05 2.64199e-07
3.98418e-05 -3.17167e-05 1.6557e-07
2.64199e-07 1.6557e-07 -4.86695e-05
0.00212699 7.41783e-05 1.69139e-05
7.41783e-05 0.000955635 -3.932e-06
1.69139e-05 -3.932e-06 0.000965875
0.000524346 6.39247e-05 4.56507e-06
6.39247e-05 -8.47819e-06 5.49333e-06
4.56507e-06 5.49333e-06 -3.69714e-05
0.00239886 9.77175e-05 -5.00649e-06
9.77175e-05 0.00113067 -4.3475e-07
-5.00649e-06 -4.3475e-07 0.00113494
0.00278257 0.000123941 -1.92901e-05
0.000123941 0.00137164 4.76028e-06
-1.92901e-05 4.76028e-06 0.00136883
0.00203927 0.0002879 -2.95929e-07
0.0002879 0.000114786 4.46682e-07
-2.95929e-07 4.46682e-07 2.4852e-05
0.00193978 0.000170106 -3.58257e-06
0.000170106 3.83956e-05 -8.72221e-07
-3.58257e-06 -8.72221e-07 -9.47882e-07
0.00190452 5.16171e-05 -4.59926e-06
5.16171e-05 4.63752e-05 -5.69854e-07
-4.59926e-06 -5.69854e-07 2.00652e-05
0.00180425 -1.04128e-06 -3.45945e-06
-1.04128e-06 2.304e-05 -1.18451e-07
-3.45945e-06 -1.18451e-07 -2.17801e-05
0.00186985 -5.22464e-06 -8.78211e-07
-5.22464e-06 2.1751e-05 4.77132e-09
-8.78211e-07 4.77132e-09 2.35488e-06
0.00198217 8.97981e-05 2.59596e-08
8.97981e-05 5.6657e-06 5.69966e-08
2.59596e-08 5.69966e-08 5.60454e-06
0.00206384 0.00025388 -7.83912e-07
0.00025388 3.94712e-05 -8.77445e-08
-7.83912e-07 -8.77445e-08 -1.25392e-06
0.00196543 -5.29815e-06 1.01234e-06
-5.29815e-06 -5.74455e-06 -3.86017e-07
1.01234e-06 -3.86017e-07 4.09893e-06
0.00211943 0.000139812 3.25238e-06
0.000139812 1.57201e-06 -1.5024e-07
3.25238e-06 -1.5024e-07 8.34062e-06
0.00231851 9.37882e-05 -1.40551e-06
9.37882e-05 0.000171914 8.14383e-06
-1.40551e-06 8.14383e-06 0.000225333
0.00188576 -7.3501e-05 -5.00474e-06
-7.3501e-05 3.06899e-05 2.88458e-07
-5.00474e-06 2.88458e-07 -5.7152e-07
0.00194384 -0.000191691 -3.32123e-06
-0.000191691 1.67196e-06 8.75658e-07
-3.32123e-06 8.75658e-07 -2.33801e-05
0.00192994 -0.000300956 -3.24442e-06
-0.000300956 6.70684e-05 1.67006e-06
-3.24442e-06 1.67006e-06 3.51257e-06
0.000410754 -0.000260428 1.42792e-06
-0.000260428 -0.000249819 5.14362e-06
1.42792e-06 5.14362e-06 -0.000505408
0.00159429 -0.000512475 2.53308e-06
-0.000512475 0.000339796 -9.57828e-07
2.53308e-06 -9.57828e-07 -1.48603e-05
0.00200908 -0.000561897 -2.09155e-06
-0.000561897 0.000443445 -6.04179e-07
-2.09155e-06 -6.04179e-07 0.000124702
0.00185729 -0.000384205 1.86578e-07
-0.000384205 2.52284e-05 1.89875e-06
1.86578e-07 1.89875e-06 -8.20452e-05
0.00169228 -0.000454127 -5.90689e-06
-0.000454127 4.65264e-05 -5.31146e-06
-5.90689e-06 -5.31146e-06 -0.000141695
0.000476273 -0.000253689 -2.82798e-06
-0.000253689 -0.000178791 9.31029e-06
-2.82798e-06 9.31029e-06 -0.000412713
0.00217891 -0.000343397 1.62161e-05
-0.000343397 0.000997033 -3.36241e-06
1.62161e-05 -3.36241e-06 0.000711033
0.000765936 -3.81267e-05 1.35778e-06
-3.81267e-05 0.000171642 -9.13893e-07
1.35778e-06 -9.13893e-07 -3.70124e-05
0.00049314 1.59838e-05 6.91942e-07
1.59838e-05 -2.958e-05 -6.49218e-09
6.91942e-07 -6.49218e-09 -7.88989e-05
0.000818102 3.62676e-05 3.41272e-06
3.62676e-05 0.000205593 3.07444e-07
3.41272e-06 3.07444e-07 9.11407e-05
0.000808578 -6.89512e-05 1.75219e-06
-6.89512e-05 0.000217858 1.12458e-06
1.75219e-06 1.12458e-06 4.98155e-05
0.00196383 -9.50613e-05 3.44535e-07
-9.50613e-05 1.48365e-06 3.45226e-08
3.44535e-07 3.45226e-08 4.33356e-06
0.000554159 1.84224e-05 1.10416e-06
1.84224e-05 -1.29072e-06 1.63784e-07
1.10416e-06 1.63784e-07 -4.46751e-05
0.000499461 -5.15432e-05 -1.80815e-06
-5.15432e-05 -1.35712e-05 -7.45903e-08
-1.80815e-06 -7.45903e-08 -8.74026e-05
0.00203338 -0.000251986 -1.87234e-07
-0.000251986 1.15099e-05 1.84081e-07
-1.87234e-07 1.84081e-07 1.40825e-05
0.00195709 -0.000331773 -1.31541e-06
-0.000331773 3.73533e-05 1.42144e-07
-1.31541e-06 1.42144e-07 -4.52863e-06
0.00124139 -0.000405716 -2.84397e-06
-0.000405716 0.000214432 9.83456e-07
-2.84397e-06 9.83456e-07 -0.000109634
0.00182194 -0.000582696 5.88882e-07
-0.000582696 0.000446835 9.20869e-07
5.88882e-07 9.20869e-07 4.9069e-05
0.00163503 -0.000555079 3.80074e-06
-0.000555079 0.000160708 -2.05271e-06
3.80074e-06 -2.05271e-06 -0.00014172
0.00211534 -0.000511647 2.45057e-06
-0.000511647 0.000160472 -7.74531e-07
2.45057e-06 -7.74531e-07 2.56462e-05
0.00071301 -5.31144e-06 6.40307e-07
-5.31144e-06 0.0001416 -1.31626e-06
6.40307e-07 -1.31626e-06 4.84015e-05
0.000702709 -2.95217e-05 1.53058e-07
-2.95217e-05 0.000159087 1.45614e-06
1.53058e-07 1.45614e-06 9.83286e-06
0.00124076 -0.000341074 -1.80364e-06
-0.000341074 0.000278892 -9.64794e-07
-1.80364e-06 -9.64794e-07 1.8969e-05
0.00176125 -0.000324805 1.68681e-05
-0.000324805 0.000795561 -3.61862e-06
1.68681e-05 -3.61862e-06 0.00045089
0.000388218 -6.79724e-05 -3.29852e-06
-6.79724e-05 -4.8009e-05 -7.67514e-07
-3.29852e-06 -7.67514e-07 -0.000275415
0.000625566 -3.65117e-05 8.32103e-07
-3.65117e-05 9.08412e-05 -8.3456e-07
8.32103e-07 -8.3456e-07 -8.87582e-05
0.00199138 -0.000111179 2.16722e-06
-0.000111179 -6.89603e-05 -5.95726e-07
2.16722e-06 -5.95726e-07 -5.9394e-05
0.00197671 -0.000309409 -2.58402e-07
-0.000309409 -0.000113518 8.35303e-07
-2.58402e-07 8.35303e-07 -1.89143e-05
0.00207053 -0.000452549 -4.82987e-06
-0.000452549 3.08604e-05 -1.0748e-06
-4.82987e-06 -1.0748e-06 -3.11455e-05
0.00156328 -0.000584273 1.78284e-06
-0.000584273 -3.8126e-05 -1.53052e-06
1.78284e-06 -1.53052e-06 -0.000211953
0.00115194 -0.000390657 -6.55576e-06
-0.000390657 0.000185631 -7.2959e-06
-6.55576e-06 -7.2959e-06 -0.000146413
0.0023408 -0.000684008 -9.83632e-06
-0.000684008 0.000698143 9.93055e-06
-9.83632e-06 9.93055e-06 0.000271174
0.000332449 5.17961e-05 -1.36693e-06
5.17961e-05 -0.000101899 -2.23769e-06
-1.36693e-06 -2.23769e-06 -0.000182921
0.00064874 -5.87375e-05 3.9773e-06
-5.87375e-05 7.48849e-05 -7.25912e-07
3.9773e-06 -7.25912e-07 1.98956e-06
0.00094886 -0.000107648 1.45164e-06
-0.000107648 0.000267559 3.0267e-06
1.45164e-06 3.0267e-06 0.00016665
0.000487043 2.08946e-05 -3.05115e-06
2.08946e-05 1.518e-05 6.46245e-06
-3.05115e-06 6.46245e-06 -0.000116453
0.000812385 -7.17217e-05 -4.07528e-06
-7.17217e-05 0.000201211 5.95838e-06
-4.07528e-06 5.95838e-06 5.21259e-05
0.00129505 -5.1887e-05 2.21326e-06
-5.1887e-05 0.000435648 1.73283e-07
2.21326e-06 1.73283e-07 0.000246875
-0.000840482 -0.000125123 6.04114e-06
-0.000125123 -0.000537533 -5.07576e-07
6.04114e-06 -5.07576e-07 -0.00100725
-0.000279494 -0.000306028 -2.70408e-05
-0.000306028 -0.000615923 2.83977e-07
-2.70408e-05 2.83977e-07 -0.000864698
0.000380214 5.13795e-05 -3.41609e-07
5.13795e-05 -5.58914e-05 -6.43175e-07
-3.41609e-07 -6.43175e-07 -0.00017571
0.000982555 0.000174726 -6.87005e-06
0.000174726 0.000357897 -3.58222e-06
-6.87005e-06 -3.58222e-06 0.000157742
0.00215581 0.000345832 -4.41598e-06
0.000345832 5.82053e-05 -2.35647e-06
-4.41598e-06 -2.35647e-06 1.18059e-05
0.00201718 0.000444538 -1.42418e-06
0.000444538 0.000198427 1.09682e-06
-1.42418e-06 1.09682e-06 2.79941e-05
0.00181706 0.000260428 -7.61344e-06
0.000260428 0.000703237 -1.54575e-06
-7.61344e-06 -1.54575e-06 0.000518758
0.00215848 0.000415122 -5.31668e-06
0.000415122 0.00082846 -7.37024e-06
-5.31668e-06 -7.37024e-06 0.000565485
0.00192749 0.000506843 1.73984e-06
0.000506843 0.000291627 2.093e-06
1.73984e-06 2.093e-06 2.67329e-05
0.00180184 0.000477321 -1.14492e-07
0.000477321 0.000449086 -1.22425e-06
-1.14492e-07 -1.22425e-06 0.000128831
0.00050521 7.63836e-05 6.96755e-07
7.63836e-05 1.96898e-05 -9.89712e-07
6.96755e-07 -9.89712e-07 -0.000109252
0.00213971 0.000276059 -1.44647e-06
0.000276059 -1.75461e-05 -1.06593e-06
-1.44647e-06 -1.06593e-06 3.33651e-06
0.00123138 0.00023789 1.31594e-06
0.00023789 0.000460604 1.4649e-06
1.31594e-06 1.4649e-06 0.000237623
0.00129021 0.000340248 1.3394e-06
0.000340248 0.000288234 -4.61769e-07
1.3394e-06 -4.61769e-07 3.34124e-05
0.00235528 0.000440797 2.34508e-06
0.000440797 0.000270217 5.76083e-07
2.34508e-06 5.76083e-07 0.00016093
0.00160874 0.0005142 -1.48332e-06
0.0005142 1.37457e-05 -4.18593e-06
-1.48332e-06 -4.18593e-06 -0.000238121
0.00187912 0.00051048 -6.76949e-08
0.00051048 0.000454765 4.41201e-07
-6.76949e-08 4.41201e-07 0.000118877
0.00113191 0.000183956 -4.03733e-06
0.000183956 0.000418814 3.71388e-06
-4.03733e-06 3.71388e-06 0.000242066
0.00250516 0.00032779 -5.48817e-05
0.00032779 0.000254194 -1.49049e-05
-5.48817e-05 -1.49049e-05 0.000291128
0.00200326 0.000410442 -5.54311e-06
0.000410442 0.000833024 1.27808e-06
-5.54311e-06 1.27808e-06 0.000577942
0.0018176 0.000447632 -6.29907e-06
0.000447632 0.000507842 -2.14277e-06
-6.29907e-06 -2.14277e-06 0.000206951
0.00241024 0.000588986 -2.80833e-05
0.000588986 0.000347869 -1.3985e-05
-2.80833e-05 -1.3985e-05 0.00016196
0.000819146 0.000437573 -2.04948e-05
0.000437573 -0.000195572 -2.29029e-06
-2.04948e-05 -2.29029e-06 -0.000505897
0.00127771 0.000471865 3.24401e-05
0.000471865 -0.000436648 -2.53049e-05
3.24401e-05 -2.53049e-05 -0.000646895
0.00036549 7.67045e-05 1.32399e-06
7.67045e-05 -6.86028e-05 -4.79332e-07
1.32399e-06 -4.79332e-07 -0.000167924
0.000598566 6.42295e-05 -1.85253e-07
6.42295e-05 8.22058e-05 1.05126e-06
-1.85253e-07 1.05126e-06 -2.78343e-06
0.00154576 0.000102695 6.41943e-07
0.000102695 0.000619775 -6.44317e-07
6.41943e-07 -6.44317e-07 0.000534216
0.000540142 -6.39649e-05 4.7836e-07
-6.39649e-05 4.02734e-05 -3.19517e-06
4.7836e-07 -3.19517e-06 -6.19352e-05
0.000455608 -4.0698e-05 -1.39791e-06
-4.0698e-05 -1.0411e-05 -3.6215e-07
-1.39791e-06 -3.6215e-07 -0.000128832
0.000930329 0.00014765 -5.8298e-07
0.00014765 0.000278103 1.05966e-06
-5.8298e-07 1.05966e-06 0.000145688
0.000164412 5.54667e-06 -2.48837e-06
5.54667e-06 -0.000197234 6.26569e-06
-2.48837e-06 6.26569e-06 -0.000278166
0.000594919 -2.16523e-05 -3.04855e-07
-2.16523e-05 7.25054e-05 -2.6466e-08
-3.04855e-07 -2.6466e-08 -3.31114e-05
0.000585002 5.12258e-05 -1.21389e-07
5.12258e-05 5.70277e-05 -5.22489e-07
-1.21389e-07 -5.22489e-07 -6.50949e-05
0.000943255 6.1828e-05 -8.36085e-07
6.1828e-05 0.000238408 1.61072e-06
-8.36085e-07 1.61072e-06 0.000170655
0.000703781 3.85891e-05 1.19516e-06
3.85891e-05 0.000131746 2.4306e-07
1.19516e-06 2.4306e-07 1.03771e-06
0.000713463 2.33238e-05 -1.10201e-06
2.33238e-05 0.000113779 -7.81094e-07
-1.10201e-06 -7.81094e-07 1.77998e-05
0.00106629 6.66399e-05 1.55213e-06
6.66399e-05 0.000323066 -5.54527e-06
1.55213e-06 -5.54527e-06 0.000251609
0.000884805 7.03842e-05 -2.13365e-06
7.03842e-05 0.000224608 -2.03363e-06
-2.13365e-06 -2.03363e-06 8.67871e-05
0.00082453 9.28218e-05 7.77234e-07
9.28218e-05 0.000195752 1.07455e-06
7.77234e-07 1.07455e-06 6.82215e-05
0.000650376 4.87734e-05 6.81723e-07
4.87734e-05 0.0001127 1.75629e-06
6.81723e-07 1.75629e-06 -3.01217e-05
0.000415006 -2.39544e-05 -2.15172e-07
-2.39544e-05 -5.26874e-05 2.76921e-06
-2.15172e-07 2.76921e-06 -0.000154792
0.000960002 -3.57582e-05 5.26971e-07
-3.57582e-05 0.000328082 -8.96681e-07
5.26971e-07 -8.96681e-07 0.000178494
0.000327333 -2.41588e-05 -1.07197e-06
-2.41588e-05 -0.000102325 2.65828e-06
-1.07197e-06 2.65828e-06 -0.000208522
0.000516649 3.46497e-06 -1.62898e-06
3.46497e-06 -3.79382e-07 2.58091e-06
-1.62898e-06 2.58091e-06 -6.6349e-05
0.000539775 2.7873e-05 1.85019e-06
2.7873e-05 1.20594e-05 -6.921e-08
1.85019e-06 -6.921e-08 -5.25168e-05
0.000479563 1.59093e-05 1.26261e-06
1.59093e-05 -5.33605e-05 3.96865e-06
1.26261e-06 3.96865e-06 -7.20479e-05
0.00053744 2.94443e-06 -2.52804e-06
2.94443e-06 9.21132e-06 -2.64889e-06
-2.52804e-06 -2.64889e-06 -5.29311e-05
0.000920174 8.66695e-06 -2.49395e-06
8.66695e-06 0.000210511 -1.65635e-06
-2.49395e-06 -1.65635e-06 0.000194506
0.00247437 -1.25053e-05 1.01102e-05
-1.25053e-05 0.00114921 5.29609e-06
1.01102e-05 5.29609e-06 0.00116353
0.00137185 -2.88305e-06 -4.48908e-06
-2.88305e-06 0.000480214 -5.81158e-06
-4.48908e-06 -5.81158e-06 0.00046719
0.000791919 -1.57926e-05 2.79068e-06
-1.57926e-05 0.000125357 3.30851e-06
2.79068e-06 3.30851e-06 0.000132111
0.000778149 -2.36396e-05 -5.29849e-08
-2.36396e-05 0.000114726 -2.33492e-06
-5.29849e-08 -2.33492e-06 0.00012096
0.000562299 1.63403e-05 -1.03096e-06
1.63403e-05 3.41122e-06 -1.3995e-06
-1.03096e-06 -1.3995e-06 -3.7111e-05
0.000593079 -5.08541e-06 1.10516e-06
-5.08541e-06 2.00511e-05 -1.80715e-07
1.10516e-06 -1.80715e-07 -2.19837e-05
0.000546098 2.21776e-05 3.33919e-07
2.21776e-05 -2.61375e-05 -3.34858e-06
3.33919e-07 -3.34858e-06 -3.618e-05
0.000842455 3.57686e-05 -3.02374e-07
3.57686e-05 0.000158461 6.05885e-08
-3.02374e-07 6.05885e-08 0.000147663
0.0021062 5.95979e-05 1.31997e-05
5.95979e-05 0.000935898 -4.17393e-06
1.31997e-05 -4.17393e-06 0.000949101
0.000526228 4.4618e-05 1.71071e-06
4.4618e-05 -2.35318e-05 3.81388e-06
1.71071e-06 3.81388e-06 -4.17247e-05
0.00222525 7.87589e-05 -2.8957e-06
7.87589e-05 0.00101664 -2.11952e-07
-2.8957e-06 -2.11952e-07 0.0010257
0.0024694 0.000101145 -1.69644e-05
0.000101145 0.00117391 4.229e-06
-1.69644e-05 4.229e-06 0.00117732
0.00201977 0.000257149 -3.36067e-06
0.000257149 1.07467e-05 -1.76526e-06
-3.36067e-06 -1.76526e-06 -2.74944e-05
0.00196058 8.4811e-05 -1.10902e-06
8.4811e-05 -9.05027e-07 2.01612e-07
-1.10902e-06 2.01612e-07 -3.04791e-06
0.00186228 -2.17937e-06 -4.50101e-06
-2.17937e-06 1.35704e-05 -1.59483e-07
-4.50101e-06 -1.59483e-07 -2.1599e-06
0.00195761 -3.14959e-06 1.43083e-07
-3.14959e-06 -7.68081e-06 -2.09774e-07
1.43083e-07 -2.09774e-07 1.72883e-06
0.00210001 0.000141412 -1.13539e-07
0.000141412 5.54784e-06 2.55006e-07
-1.13539e-07 2.55006e-07 1.10073e-05
0.00202014 7.79434e-05 6.52551e-06
7.79434e-05 -2.10058e-05 -3.0444e-06
6.52551e-06 -3.0444e-06 2.59898e-05
0.00210829 5.10266e-07 -8.94831e-07
5.10266e-07 -3.31632e-05 -9.42934e-07
-8.94831e-07 -9.42934e-07 3.40986e-06
0.00351453 0.000438731 3.85671e-05
0.000438731 -0.000353452 6.79073e-06
3.85671e-05 6.79073e-06 2.51346e-05
0.00234828 5.22989e-05 -3.08428e-05
5.22989e-05 0.000336287 2.19501e-05
-3.08428e-05 2.19501e-05 0.000456516
0.000547241 9.04337e-05 -1.01756e-06
9.04337e-05 3.26961e-05 1.31767e-07
-1.01756e-06 1.31767e-07 -4.54652e-05
0.00198041 -9.67098e-05 -1.48925e-06
-9.67098e-05 4.46196e-06 -2.38654e-07
-1.48925e-06 -2.38654e-07 9.27988e-06
0.002015 -0.000242157 1.19602e-07
-0.000242157 1.78869e-05 2.34453e-07
1.19602e-07 2.34453e-07 1.58021e-05
0.00191418 -0.000330356 -1.2264e-06
-0.000330356 9.97834e-06 2.06149e-06
-1.2264e-06 2.06149e-06 -3.00287e-05
0.000237324 -0.000303999 -3.94561e-06
-0.000303999 -0.000371639 7.7977e-06
-3.94561e-06 7.7977e-06 -0.000673994
0.00219753 -0.00061919 3.58812e-06
-0.00061919 0.000662006 5.74812e-06
3.58812e-06 5.74812e-06 0.000257344
0.00160485 -0.000556906 -4.90124e-09
-0.000556906 0.000123511 -8.90057e-06
-4.90124e-09 -8.90057e-06 -0.000176193
0.00224124 -0.000516783 -2.98579e-06
-0.000516783 0.000243791 -1.33886e-06
-2.98579e-06 -1.33886e-06 0.000106618
0.0020832 -0.000398445 1.99085e-05
-0.000398445 0.00074906 -3.69763e-06
1.99085e-05 -3.69763e-06 0.000480228
0.000366606 -0.000187769 1.50689e-05
-0.000187769 -3.15237e-05 -3.59453e-06
1.50689e-05 -3.59453e-06 -0.000314695
0.00121281 -0.000103482 2.85698e-06
-0.000103482 0.000429232 -1.64198e-06
2.85698e-06 -1.64198e-06 0.000213366
0.000558627 5.98173e-06 -2.00646e-07
5.98173e-06 1.81905e-06 1.36618e-06
-2.00646e-07 1.36618e-06 -4.07072e-05
0.000862737 -2.11005e-05 3.15104e-06
-2.11005e-05 0.000245 -1.68571e-06
3.15104e-06 -1.68571e-06 5.7219e-05
0.000838758 -2.78391e-05 3.23167e-06
-2.78391e-05 0.000224925 -1.68685e-06
3.23167e-06 -1.68685e-06 0.000130921
0.000870037 -2.94417e-05 2.72273e-06
-2.94417e-05 0.000256595 -2.55809e-06
2.72273e-06 -2.55809e-06 0.000104954
0.000321863 -3.34909e-05 -2.79745e-06
-3.34909e-05 -0.000127563 9.84472e-07
-2.79745e-06 9.84472e-07 -0.000198209
0.00202108 -0.000126076 -2.56232e-07
-0.000126076 -7.59402e-05 2.24646e-07
-2.56232e-07 2.24646e-07 -4.96403e-05
0.000447025 3.58409e-05 -1.11502e-07
3.58409e-05 -2.58314e-05 -1.5781e-06
-1.11502e-07 -1.5781e-06 -0.000110155
0.000616789 -5.3405e-05 1.3105e-06
-5.3405e-05 6.90968e-05 5.95794e-07
1.3105e-06 5.95794e-07 -1.03019e-05
0.000801071 -7.88299e-05 7.97694e-07
-7.88299e-05 0.000175495 6.88208e-07
7.97694e-07 6.88208e-07 7.81079e-05
0.00201042 -0.000313803 1.42966e-06
-0.000313803 -7.55366e-05 -3.34046e-07
1.42966e-06 -3.34046e-07 -4.01877e-06
0.00210342 -0.000455542 3.32129e-07
-0.000455542 5.37773e-05 -6.63721e-07
3.32129e-07 -6.63721e-07 -8.41548e-06
0.00109641 -0.000375316 8.29563e-06
-0.000375316 0.0001532 -6.21321e-07
8.29563e-06 -6.21321e-07 -0.000168444
0.00227939 -0.000679564 7.94183e-06
-0.000679564 0.000665561 -2.54765e-07
7.94183e-06 -2.54765e-07 0.000249908
0.00203367 -0.000617413 -1.61242e-06
-0.000617413 0.000244342 1.64034e-06
-1.61242e-06 1.64034e-06 5.43043e-05
0.000344441 -2.16169e-05 -4.80871e-07
-2.16169e-05 -6.80721e-05 -7.06343e-07
-4.80871e-07 -7.06343e-07 -0.000192696
0.000853022 -8.32924e-05 -1.90712e-06
-8.32924e-05 0.000235669 7.13081e-07
-1.90712e-06 7.13081e-07 7.35314e-05
0.00089791 -0.000417953 -7.07237e-06
-0.000417953 6.9711e-05 1.41606e-07
-7.07237e-06 1.41606e-07 -0.000230982
0.00047156 -0.000125562 1.45701e-07
-0.000125562 0.000119579 -2.58174e-06
1.45701e-07 -2.58174e-06 -0.000260233
0.000737708 -6.47101e-05 1.23802e-07
-6.47101e-05 0.000100573 9.35329e-07
1.23802e-07 9.35329e-07 -7.80512e-05
0.00240934 -0.000246931 -2.58385e-06
-0.000246931 0.000139793 -4.64289e-07
-2.58385e-06 -4.64289e-07 0.000169152
0.00182863 -0.00033486 -1.36464e-05
-0.00033486 -0.000200274 3.41088e-06
-1.36464e-05 3.41088e-06 -8.4278e-05
0.00230487 -0.00061039 -1.13396e-05
-0.00061039 0.000221089 -3.35822e-07
-1.13396e-05 -3.35822e-07 7.20441e-05
0.00306783 -0.000753979 -2.33251e-05
-0.000753979 0.000935463 9.10577e-08
-2.33251e-05 9.10577e-08 0.000676574
0.0012008 -0.000444845 -2.67928e-05
-0.000444845 0.000242608 -2.29903e-06
-2.67928e-05 -2.29903e-06 -9.21545e-05
0.000339862 -8.62228e-06 1.57045e-06
-8.62228e-06 -8.9316e-05 3.62511e-07
1.57045e-06 3.62511e-07 -0.000188777
0.000426846 2.46128e-05 6.24063e-07
2.46128e-05 -6.48199e-05 2.51934e-06
6.24063e-07 2.51934e-06 -0.000162197
0.000109726 -1.40867e-05 -3.11745e-07
-1.40867e-05 -0.00022537 -1.84357e-06
-3.11745e-07 -1.84357e-06 -0.000329958
0.00169981 -0.000205269 -6.62664e-06
-0.000205269 0.000766281 1.11041e-05
-6.62664e-06 1.11041e-05 0.000610591
0.000707625 -7.4924e-05 -3.87266e-06
-7.4924e-05 0.00011949 1.14678e-05
-3.87266e-06 1.14678e-05 -2.9501e-05
-0.000575306 -9.16412e-05 6.37125e-07
-9.16412e-05 -0.000353485 5.2666e-06
6.37125e-07 5.2666e-06 -0.000789246
-0.000355458 -0.000486235 -2.30744e-06
-0.000486235 -0.00035668 -4.40017e-06
-2.30744e-06 -4.40017e-06 -0.000851494
0.000940797 0.0001266 -1.37497e-07
0.0001266 0.000295022 -4.76782e-06
-1.37497e-07 -4.76782e-06 0.000148146
0.0004145 0.000119553 -3.27336e-06
0.000119553 -4.60541e-05 -1.90945e-06
-3.27336e-06 -1.90945e-06 -0.000239458
0.00223285 0.000256208 7.56521e-06
0.000256208 2.88602e-05 1.65492e-07
7.56521e-06 1.65492e-07 6.13361e-05
0.00229517 0.000438509 1.57166e-05
0.000438509 0.000240509 4.31907e-06
1.57166e-05 4.31907e-06 0.000135877
0.00224888 0.00055845 1.42742e-05
0.00055845 0.000376218 4.13286e-06
1.42742e-05 4.13286e-06 0.000122531
0.00118671 0.000331534 -5.97279e-07
0.000331534 0.00023099 -7.94767e-07
-5.97279e-07 -7.94767e-07 -2.76735e-05
0.00163267 0.000484164 1.80439e-06
0.000484164 0.000321875 1.97815e-06
1.80439e-06 1.97815e-06 -9.97185e-06
0.00155389 0.00017382 8.00556e-08
0.00017382 0.000643985 -3.2907e-08
8.00556e-08 -3.2907e-08 0.000481518
0.00245492 0.000288617 -2.05388e-06
0.000288617 0.000259031 9.967e-07
-2.05388e-06 9.967e-07 0.000304086
0.00140565 0.000323762 -1.82148e-06
0.000323762 0.000461521 1.70283e-06
-1.82148e-06 1.70283e-06 0.000227134
0.00152576 0.000420165 1.18094e-06
0.000420165 0.000370559 1.23565e-06
1.18094e-06 1.23565e-06 6.23792e-05
0.00212912 0.000562529 -1.23608e-06
0.000562529 0.000187714 -2.78302e-06
-1.23608e-06 -2.78302e-06 2.05016e-05
0.00163899 0.000519431 -4.1246e-06
0.000519431 0.000268994 5.15605e-06
-4.1246e-06 5.15605e-06 -5.78414e-05
0.00256934 0.000617675 5.68147e-05
0.000617675 -9.91536e-05 4.66383e-06
5.68147e-05 4.66383e-06 -0.000378822
0.0012227 0.000244254 -5.92386e-06
0.000244254 0.000469344 3.31619e-07
-5.92386e-06 3.31619e-07 0.000277398
0.00375962 0.000532633 -7.46709e-05
0.000532633 0.00112547 -2.99791e-05
-7.46709e-05 -2.99791e-05 0.00106142
0.00102831 0.000322227 -3.21553e-06
0.000322227 0.000133654 -1.38053e-06
-3.21553e-06 -1.38053e-06 -0.000100396
0.000124947 0.00030546 -1.69237e-06
0.00030546 -0.000434255 -8.59718e-06
-1.69237e-06 -8.59718e-06 -0.000730969
0.000577989 0.000521695 -2.58061e-05
0.000521695 -0.00048046 -6.59749e-06
-2.58061e-05 -6.59749e-06 -0.000671505
0.0120739 0.000416837 -0.000282442
0.000416837 0.00237287 -5.79799e-05
-0.000282442 -5.79799e-05 0.00152559
0.00592044 0.00107751 9.86098e-05
0.00107751 0.000441563 -5.54027e-05
9.86098e-05 -5.54027e-05 0.000471811
-0.000213898 0.000715781 6.22251e-06
0.000715781 -0.000941271 4.39117e-06
6.22251e-06 4.39117e-06 -0.00127362
-0.00351312 -0.00110113 0.00066539
-0.00110113 -0.000125331 0.000124272
0.00066539 0.000124272 -0.00216177
0.0123745 -0.00418912 -2.71575e-05
-0.00418912 0.00338792 3.46585e-05
-2.71575e-05 3.46585e-05 0.00389677
0.000276198 7.03701e-05 5.15843e-06
7.03701e-05 -9.43626e-05 1.01126e-06
5.15843e-06 1.01126e-06 -0.000182307
0.000969569 7.28693e-05 1.26167e-06
7.28693e-05 0.000304721 -1.45684e-06
1.26167e-06 -1.45684e-06 0.000221261
0.00143338 0.00016453 -1.36424e-06
0.00016453 0.000597689 -3.53183e-07
-1.36424e-06 -3.53183e-07 0.000488328
0.000568728 -6.22e-05 -4.19552e-07
-6.22e-05 6.56127e-05 -2.31844e-06
-4.19552e-07 -2.31844e-06 -4.51453e-05
0.000559847 5.97288e-05 -1.57978e-06
5.97288e-05 4.5372e-05 -2.21594e-06
-1.57978e-06 -2.21594e-06 -8.10261e-05
0.00071552 -1.91571e-05 -3.55916e-07
-1.91571e-05 0.000140401 -9.0037e-07
-3.55916e-07 -9.0037e-07 9.0721e-06
0.00074723 4.58787e-05 -3.71068e-06
4.58787e-05 0.000129364 4.93276e-06
-3.71068e-06 4.93276e-06 2.98016e-05
0.00050738 4.62683e-05 -4.92512e-07
4.62683e-05 -1.78735e-05 4.50858e-06
-4.92512e-07 4.50858e-06 -8.66615e-05
0.000754964 9.62945e-05 -2.2e-06
9.62945e-05 0.000170843 -5.7801e-07
-2.2e-06 -5.7801e-07 2.97239e-05
0.000491686 -9.31115e-06 1.64919e-07
-9.31115e-06 1.14387e-06 8.20412e-07
1.64919e-07 8.20412e-07 -0.000104408
0.000638684 2.15961e-05 1.79375e-07
2.15961e-05 0.000102128 1.35629e-07
1.79375e-07 1.35629e-07 -3.70541e-05
0.000633054 5.89552e-05 4.66323e-07
5.89552e-05 5.82301e-05 -8.24903e-07
4.66323e-07 -8.24903e-07 -1.41829e-05
0.000804953 7.23039e-05 -1.11988e-06
7.23039e-05 0.000178482 -3.42686e-08
-1.11988e-06 -3.42686e-08 4.50445e-05
0.0011168 0.000120131 -1.54514e-06
0.000120131 0.000377921 -9.59739e-07
-1.54514e-06 -9.59739e-07 0.000236216
0.000346962 6.97045e-05 1.21689e-06
6.97045e-05 -7.09425e-05 -3.33202e-06
1.21689e-06 -3.33202e-06 -0.000198823
0.000801966 9.10638e-05 2.46488e-06
9.10638e-05 0.000187876 9.83624e-07
2.46488e-06 9.83624e-07 5.33194e-05
0.000552369 -2.77657e-05 1.48623e-06
-2.77657e-05 3.58623e-05 2.11386e-07
1.48623e-06 2.11386e-07 -9.60936e-05
0.000390291 -5.956e-05 -1.26716e-06
-5.956e-05 -6.27741e-05 2.42374e-06
-1.26716e-06 2.42374e-06 -0.000170957
0.000739253 -8.58569e-06 -2.9595e-07
-8.58569e-06 0.000161695 2.00234e-07
-2.9595e-07 2.00234e-07 2.5627e-05
0.000913807 3.07734e-05 3.44702e-07
3.07734e-05 0.000272196 -4.37149e-06
3.44702e-07 -4.37149e-06 0.000136463
0.000632153 -3.60559e-05 -5.44587e-07
-3.60559e-05 0.000110679 2.6267e-07
-5.44587e-07 2.6267e-07 -2.02897e-05
0.000793364 -3.27547e-05 1.42027e-06
-3.27547e-05 0.000204836 -7.07351e-07
1.42027e-06 -7.07351e-07 6.96883e-05
0.000667212 -9.92873e-05 -2.36481e-06
-9.92873e-05 0.000109546 1.83868e-06
-2.36481e-06 1.83868e-06 2.44195e-06
0.000378599 -1.6021e-05 1.8245e-07
-1.6021e-05 -6.87515e-05 9.9557e-07
1.8245e-07 9.9557e-07 -0.000177257
0.000551469 -3.29442e-05 -1.88716e-06
-3.29442e-05 1.26633e-05 2.85047e-06
-1.88716e-06 2.85047e-06 -4.96141e-05
0.000552444 -2.64044e-05 1.38638e-06
-2.64044e-05 1.90575e-05 4.41005e-08
1.38638e-06 4.41005e-08 -4.60467e-05
0.000532717 5.45663e-06 9.13624e-07
5.45663e-06 -2.03508e-05 5.86646e-06
9.13624e-07 5.86646e-06 -3.95764e-05
0.000558648 3.03007e-05 -1.33622e-06
3.03007e-05 1.96754e-05 -2.62162e-06
-1.33622e-06 -2.62162e-06 -4.24223e-05
0.000496547 1.11598e-05 4.11722e-07
1.11598e-05 -4.28761e-05 2.83086e-08
4.11722e-07 2.83086e-08 -6.16433e-05
0.00242681 -1.06072e-06 -5.47682e-07
-1.06072e-06 0.00112112 5.31527e-06
-5.47682e-07 5.31527e-06 0.00113549
0.000552743 1.28162e-05 -1.69657e-06
1.28162e-05 -1.19359e-05 -6.09818e-06
-1.69657e-06 -6.09818e-06 -3.06313e-05
0.00164222 -9.52557e-06 -1.39844e-07
-9.52557e-06 0.00064301 9.97503e-08
-1.39844e-07 9.97503e-08 0.000653164
0.000778652 -1.42974e-05 3.21732e-07
-1.42974e-05 0.000114695 -2.19457e-06
3.21732e-07 -2.19457e-06 0.000121763
0.000561994 -1.62547e-05 8.05222e-07
-1.62547e-05 5.62435e-06 -1.16455e-06
8.05222e-07 -1.16455e-06 -3.32865e-05
0.000598078 -2.80067e-05 3.6941e-07
-2.80067e-05 2.62473e-05 -5.52914e-08
3.6941e-07 -5.52914e-08 -1.55926e-05
0.000561091 1.3808e-05 6.00809e-07
1.3808e-05 -1.91694e-05 -3.03252e-06
6.00809e-07 -3.03252e-06 -2.73368e-05
0.000563997 -2.21036e-05 -1.44103e-06
-2.21036e-05 9.90822e-07 1.26119e-06
-1.44103e-06 1.26119e-06 -4.041e-05
0.000826511 2.62661e-05 -4.83888e-08
2.62661e-05 0.000144526 -7.28693e-07
-4.83888e-08 -7.28693e-07 0.000136486
0.00202067 4.4309e-05 9.68425e-06
4.4309e-05 0.000878964 -4.29225e-06
9.68425e-06 -4.29225e-06 0.000894813
0.00053141 3.14174e-05 -3.35907e-07
3.14174e-05 -3.01349e-05 3.36034e-06
-3.35907e-07 3.36034e-06 -4.30686e-05
0.00215054 6.20611e-05 -6.8733e-06
6.20611e-05 0.0009652 1.11113e-06
-6.8733e-06 1.11113e-06 0.000977726
0.002285 8.26385e-05 -1.31148e-05
8.26385e-05 0.0010541 4.18452e-06
-1.31148e-05 4.18452e-06 0.00106222
0.00207293 0.00014352 -2.48438e-06
0.00014352 5.58538e-06 -9.36452e-07
-2.48438e-06 -9.36452e-07 9.98693e-06
0.00195289 -2.23127e-06 -8.4283e-07
-2.23127e-06 -7.90553e-06 4.95353e-08
-8.4283e-07 4.95353e-08 9.25428e-07
0.00174953 6.13399e-05 6.48608e-06
6.13399e-05 -0.00020192 1.23761e-06
6.48608e-06 1.23761e-06 -0.000160502
0.0023064 0.000312046 5.13844e-05
0.000312046 -0.000783906 1.13197e-05
5.13844e-05 1.13197e-05 -0.000518795
0.00207038 -1.71377e-05 -1.94907e-06
-1.71377e-05 -4.10909e-05 -1.36202e-06
-1.94907e-06 -1.36202e-06 -3.79877e-06
0.00196531 5.9242e-05 2.90398e-06
5.9242e-05 0.000117247 -5.57631e-06
2.90398e-06 -5.57631e-06 0.00020865
0.0030637 -2.24408e-05 -2.93892e-05
-2.24408e-05 0.000826414 3.83621e-06
-2.93892e-05 3.83621e-06 0.000811841
0.00205494 -8.96974e-06 2.40591e-05
-8.96974e-06 -0.00169747 -3.16242e-05
2.40591e-05 -3.16242e-05 -0.00126472
0.00247475 0.000121631 5.79124e-05
0.000121631 -0.000332998 3.33785e-05
5.79124e-05 3.33785e-05 -6.34529e-05
0.000597879 7.50142e-05 1.67696e-07
7.50142e-05 6.61508e-05 -2.00482e-07
1.67696e-07 -2.00482e-07 -1.47954e-05
0.000616522 -7.84752e-06 5.04927e-07
-7.84752e-06 8.04404e-05 -1.85626e-07
5.04927e-07 -1.85626e-07 -3.37506e-06
0.000557509 -9.86742e-05 -1.70317e-06
-9.86742e-05 4.70158e-05 1.38787e-06
-1.70317e-06 1.38787e-06 -5.139e-05
0.000548332 -4.37928e-05 -1.54924e-06
-4.37928e-05 6.27911e-05 1.25008e-06
-1.54924e-06 1.25008e-06 -4.48337e-05
0.00206655 -0.00014007 -4.28696e-06
-0.00014007 -7.08649e-05 -2.67215e-07
-4.28696e-06 -2.67215e-07 -2.93034e-05
0.00203817 -0.000312742 7.9048e-07
-0.000312742 -3.67832e-05 -7.5554e-07
7.9048e-07 -7.5554e-07 1.53693e-05
0.00212373 -0.000454283 -1.99124e-06
-0.000454283 7.12806e-05 1.63717e-06
-1.99124e-06 1.63717e-06 1.00537e-05
0.00255794 -0.000537714 1.40642e-05
-0.000537714 0.000977454 1.53905e-06
1.40642e-05 1.53905e-06 0.000638284
0.000966382 -0.000555574 1.15715e-05
-0.000555574 -5.69811e-05 -3.36646e-06
1.15715e-05 -3.36646e-06 -0.000449333
0.0023952 -0.000640873 7.22758e-06
-0.000640873 0.000464083 -3.3329e-06
7.22758e-06 -3.3329e-06 0.000261947
0.00143636 -0.000463866 -2.24151e-06
-0.000463866 0.000390235 3.43819e-06
-2.24151e-06 3.43819e-06 5.25887e-05
0.00226814 -0.000161007 2.62515e-06
-0.000161007 0.0010583 4.43973e-07
2.62515e-06 4.43973e-07 0.000767472
0.000100886 -5.69999e-05 8.71109e-07
-5.69999e-05 -0.000288663 -1.39566e-06
8.71109e-07 -1.39566e-06 -0.000452558
0.000668461 -4.68774e-05 2.14174e-08
-4.68774e-05 0.000102446 8.64093e-07
2.14174e-08 8.64093e-07 2.34903e-05
0.000665232 -0.000100087 1.84471e-06
-0.000100087 0.000134963 -5.4709e-06
1.84471e-06 -5.4709e-06 -3.62183e-05
0.000743869 -1.2782e-06 1.73322e-06
-1.2782e-06 0.000179146 -3.36171e-06
1.73322e-06 -3.36171e-06 5.12654e-05
0.000626657 4.7038e-06 1.34232e-07
4.7038e-06 9.0056e-05 -2.86406e-07
1.34232e-07 -2.86406e-07 2.25047e-06
0.00053351 -1.78828e-05 -5.01979e-06
-1.78828e-05 1.02677e-05 2.76827e-06
-5.01979e-06 2.76827e-06 -8.11704e-05
0.00237354 -0.000229927 1.53057e-06
-0.000229927 0.000125844 9.40356e-07
1.53057e-06 9.40356e-07 0.000170594
0.000605477 -1.87341e-05 8.85742e-07
-1.87341e-05 8.51288e-05 9.82474e-08
8.85742e-07 9.82474e-08 -2.46679e-05
0.000749546 -8.3176e-06 3.39803e-06
-8.3176e-06 0.00014395 -5.63144e-07
3.39803e-06 -5.63144e-07 3.81686e-05
0.00015237 1.1223e-05 5.82653e-07
1.1223e-05 -0.000197851 1.0371e-06
5.82653e-07 1.0371e-06 -0.000283095
0.00180814 -0.000339209 -3.97852e-07
-0.000339209 -0.000238421 -1.46735e-06
-3.97852e-07 -1.46735e-06 -0.000128065
0.00210809 -0.000588348 1.84601e-06
-0.000588348 0.000125217 -7.28507e-07
1.84601e-06 -7.28507e-07 -1.42677e-05
0.00170503 -0.000534461 -1.69963e-06
-0.000534461 0.000515675 5.68774e-07
-1.69963e-06 5.68774e-07 0.000169015
0.00216367 -0.000681489 -6.07389e-06
-0.000681489 0.000445043 1.74764e-06
-6.07389e-06 1.74764e-06 0.000192509
0.00114742 -8.97707e-05 -1.09612e-06
-8.97707e-05 0.00040762 9.90382e-07
-1.09612e-06 9.90382e-07 0.000265946
0.000448 -6.66094e-05 1.47682e-06
-6.66094e-05 -4.14441e-05 9.15822e-07
1.47682e-06 9.15822e-07 -0.000194371
0.00128857 -0.000597426 4.38339e-06
-0.000597426 0.000569215 -1.3663e-06
4.38339e-06 -1.3663e-06 5.83848e-05
0.00117217 -0.000239449 -8.39688e-07
-0.000239449 0.000506791 -5.98783e-07
-8.39688e-07 -5.98783e-07 0.00014572
0.00255557 -0.000294184 -2.59003e-05
-0.000294184 0.000128944 3.53353e-08
-2.59003e-05 3.53353e-08 0.000292287
0.00243156 -0.000481572 -3.4851e-05
-0.000481572 0.000203932 8.41229e-06
-3.4851e-05 8.41229e-06 0.000233569
0.00266854 -0.000737424 -1.10349e-05
-0.000737424 0.000546044 -4.0484e-06
-1.10349e-05 -4.0484e-06 0.000308148
0.00185816 -0.000604728 -1.33804e-05
-0.000604728 0.000461382 1.37622e-06
-1.33804e-05 1.37622e-06 0.000221678
0.000444268 -2.87735e-05 -8.21051e-07
-2.87735e-05 7.08063e-06 -2.12431e-06
-8.21051e-07 -2.12431e-06 -0.000115406
0.000360965 -7.97557e-05 -1.926e-06
-7.97557e-05 -6.01261e-05 -6.49198e-06
-1.926e-06 -6.49198e-06 -0.000197434
0.000268054 -0.0001357 -4.89027e-06
-0.0001357 2.66465e-05 1.82013e-05
-4.89027e-06 1.82013e-05 -0.000196679
-0.000541481 -0.000324432 -6.3884e-06
-0.000324432 -0.000141492 -1.38731e-05
-6.3884e-06 -1.38731e-05 -0.000776517
0.00133369 -0.000476315 3.27178e-05
-0.000476315 -0.00378768 -1.60068e-06
3.27178e-05 -1.60068e-06 -0.00393023
0.00171068 0.000162399 2.90538e-07
0.000162399 0.000723192 -4.21801e-06
2.90538e-07 -4.21801e-06 0.000568594
0.000791683 0.000247877 1.2123e-06
0.000247877 9.4355e-05 2.00841e-06
1.2123e-06 2.00841e-06 -0.000127773
0.00210987 0.000254574 6.01731e-05
0.000254574 7.73926e-05 1.34462e-05
6.01731e-05 1.34462e-05 0.00013092
0.00194483 0.000541944 2.06228e-05
0.000541944 7.86869e-05 7.21583e-06
2.06228e-05 7.21583e-06 -7.19536e-05
0.00207227 0.000564262 9.6459e-06
0.000564262 0.000527855 9.8544e-06
9.6459e-06 9.8544e-06 0.000187605
0.0012839 0.000397923 6.50347e-06
0.000397923 0.000255748 5.14651e-06
6.50347e-06 5.14651e-06 -5.96239e-05
0.00346592 0.000738089 8.91631e-05
0.000738089 5.16802e-05 3.74793e-05
8.91631e-05 3.74793e-05 -0.00034422
0.00127797 0.000220105 4.49258e-06
0.000220105 0.000500368 6.73438e-07
4.49258e-06 6.73438e-07 0.000314557
0.00252278 0.000458475 -7.50494e-06
0.000458475 0.00041364 -5.76934e-07
-7.50494e-06 -5.76934e-07 0.000383038
0.00111588 0.000331503 2.84303e-07
0.000331503 0.000210115 1.13436e-06
2.84303e-07 1.13436e-06 -2.79987e-05
0.00121338 0.000433947 1.65831e-06
0.000433947 0.000180815 -3.5574e-06
1.65831e-06 -3.5574e-06 -0.000136509
0.00141706 0.000585988 -6.54574e-06
0.000585988 -4.23589e-05 -7.40647e-07
-6.54574e-06 -7.40647e-07 -0.000246318
0.00305757 -0.000420048 -0.000147514
-0.000420048 -0.00328053 -4.39886e-05
-0.000147514 -4.39886e-05 -0.00431778
0.00661702 0.000953546 -4.13503e-05
0.000953546 0.000627853 -5.75951e-05
-4.13503e-05 -5.75951e-05 0.000410369
0.000941631 0.000693505 -7.94082e-06
0.000693505 -0.000248595 6.91169e-06
-7.94082e-06 6.91169e-06 -0.000623983
-0.00194191 -0.000897842 0.000272108
-0.000897842 0.0014929 0.000116077
0.000272108 0.000116077 -0.00059288
0.00417268 -0.00416908 -0.000222342
-0.00416908 0.00091843 -0.000223724
-0.000222342 -0.000223724 0.00153025
0.00145902 0.000257169 -1.01791e-05
0.000257169 0.000575614 -1.33356e-06
-1.01791e-05 -1.33356e-06 0.000399542
0.000644402 0.000501006 0.000350213
0.000501006 0.00262234 1.85641e-05
0.000350213 1.85641e-05 0.00120409
0.00117254 -0.00122432 -0.000148297
-0.00122432 0.00342437 -0.000202188
-0.000148297 -0.000202188 0.000411405
0.00275056 0.000727189 -3.80068e-05
0.000727189 0.000527499 -1.09937e-05
-3.80068e-05 -1.09937e-05 0.000499798
0.000669112 0.00020197 -1.77785e-05
0.00020197 -3.58429e-05 -5.74345e-06
-1.77785e-05 -5.74345e-06 -0.000246233
0.000597266 0.000469085 -2.9688e-05
0.000469085 -0.000131741 -1.99608e-05
-2.9688e-05 -1.99608e-05 -0.000426882
0.000335959 0.000716385 3.90252e-05
0.000716385 -0.000618872 8.10418e-05
3.90252e-05 8.10418e-05 -0.000831041
0.0133519 0.00128808 -2.19336e-06
0.00128808 0.0032826 -5.40991e-05
-2.19336e-06 -5.40991e-05 0.00177829
0.00236981 0.00129522 4.22984e-06
0.00129522 0.000150615 -9.1277e-06
4.22984e-06 -9.1277e-06 -0.000763325
0.00584048 -0.00366678 0.000549861
-0.00366678 0.000843067 0.000347626
0.000549861 0.000347626 0.000309552
0.00819721 -0.00181262 -4.74827e-05
-0.00181262 0.000590142 0.000352022
-4.74827e-05 0.000352022 0.000643728
0.00059834 5.87812e-05 3.88935e-06
5.87812e-05 0.000106659 -2.52238e-06
3.88935e-06 -2.52238e-06 2.29314e-05
0.000661128 0.000113112 5.92397e-06
0.000113112 0.000140283 6.2467e-07
5.92397e-06 6.2467e-07 3.50095e-05
0.00144442 0.000202614 2.94964e-07
0.000202614 0.000618916 -2.47225e-06
2.94964e-07 -2.47225e-06 0.000483167
0.000601643 7.42826e-06 8.84871e-07
7.42826e-06 8.72472e-05 -5.9472e-07
8.84871e-07 -5.9472e-07 -3.04813e-05
0.000730179 4.33259e-05 -4.23973e-07
4.33259e-05 0.000155393 -2.10688e-06
-4.23973e-07 -2.10688e-06 1.82537e-05
0.000368524 5.82174e-06 -1.94283e-06
5.82174e-06 -7.40202e-05 -4.87906e-07
-1.94283e-06 -4.87906e-07 -0.000201403
0.00072408 7.66107e-05 -4.3894e-06
7.66107e-05 0.00013312 8.58866e-07
-4.3894e-06 8.58866e-07 3.83941e-06
0.000267095 5.21039e-05 -3.12063e-06
5.21039e-05 -0.000168926 1.474e-07
-3.12063e-06 1.474e-07 -0.000242013
0.000404665 -7.50428e-06 1.84221e-07
-7.50428e-06 -4.854e-05 8.31337e-07
1.84221e-07 8.31337e-07 -0.000159946
0.000858123 6.13294e-05 9.13853e-07
6.13294e-05 0.000224755 6.58491e-07
9.13853e-07 6.58491e-07 8.69684e-05
0.000763162 3.90951e-05 7.88267e-07
3.90951e-05 0.000168667 5.7001e-07
7.88267e-07 5.7001e-07 3.12983e-05
0.000688244 1.90913e-05 9.26759e-07
1.90913e-05 0.000133994 -3.041e-07
9.26759e-07 -3.041e-07 -9.07634e-06
0.000489153 7.54315e-05 -3.69752e-07
7.54315e-05 1.66482e-05 -1.43204e-06
-3.69752e-07 -1.43204e-06 -0.000109795
0.00108077 8.37461e-05 -1.11917e-06
8.37461e-05 0.000369598 -2.64098e-06
-1.11917e-06 -2.64098e-06 0.000234619
-6.3237e-05 3.89742e-05 -3.15673e-06
3.89742e-05 -0.000261096 -4.89131e-06
-3.15673e-06 -4.89131e-06 -0.000391952
0.000769529 -8.9391e-05 -1.82202e-07
-8.9391e-05 0.000172256 -3.43684e-07
-1.82202e-07 -3.43684e-07 3.28901e-05
0.000753126 -6.18378e-05 -2.79885e-07
-6.18378e-05 0.0001824 -1.38644e-07
-2.79885e-07 -1.38644e-07 3.72253e-05
0.000764491 -2.91484e-05 -2.0274e-07
-2.91484e-05 0.000189026 -3.40178e-07
-2.0274e-07 -3.40178e-07 4.42626e-05
0.00083456 -6.0019e-06 -1.70872e-06
-6.0019e-06 0.000214137 -2.16822e-07
-1.70872e-06 -2.16822e-07 8.764e-05
0.000747559 3.63211e-05 -3.22492e-06
3.63211e-05 0.000186294 -2.30866e-06
-3.22492e-06 -2.30866e-06 2.82568e-05
0.00071554 -3.91653e-06 1.67082e-06
-3.91653e-06 0.000146528 -2.47243e-06
1.67082e-06 -2.47243e-06 2.16566e-05
3.66101e-05 -2.62964e-05 -3.84515e-07
-2.62964e-05 -0.000266244 -3.09937e-06
-3.84515e-07 -3.09937e-06 -0.000377535
0.000558651 -1.86957e-05 6.93919e-07
-1.86957e-05 2.85991e-05 -3.78621e-07
6.93919e-07 -3.78621e-07 -8.92892e-05
0.000638821 -6.61598e-05 7.87147e-07
-6.61598e-05 8.75199e-05 1.06528e-06
7.87147e-07 1.06528e-06 -2.62414e-05
0.000707086 -6.31899e-05 -4.41492e-07
-6.31899e-05 0.000148431 -6.86094e-08
-4.41492e-07 -6.86094e-08 1.99775e-05
0.000627848 -6.56286e-05 -2.03456e-06
-6.56286e-05 7.12761e-05 1.58692e-06
-2.03456e-06 1.58692e-06 -2.30466e-05
0.000583911 -4.77372e-05 1.45058e-06
-4.77372e-05 5.55125e-05 -5.17173e-07
1.45058e-06 -5.17173e-07 -6.49345e-05
0.00055663 -8.9716e-05 1.55635e-07
-8.9716e-05 3.98052e-05 2.35595e-07
1.55635e-07 2.35595e-07 -6.64755e-05
0.000597162 -3.20618e-05 -2.2104e-06
-3.20618e-05 3.77342e-05 3.12027e-06
-2.2104e-06 3.12027e-06 -2.52641e-05
0.000452906 -4.62668e-06 1.23418e-06
-4.62668e-06 -1.23511e-05 -8.79019e-07
1.23418e-06 -8.79019e-07 -0.000129372
0.000551745 1.22246e-06 1.57308e-06
1.22246e-06 1.8755e-05 1.70085e-08
1.57308e-06 1.70085e-08 -4.67151e-05
0.00140813 5.94263e-07 -4.10325e-06
5.94263e-07 0.000506921 5.87222e-06
-4.10325e-06 5.87222e-06 0.000492059
0.000547846 4.58575e-05 -9.41788e-07
4.58575e-05 1.67952e-05 -2.67973e-06
-9.41788e-07 -2.67973e-06 -4.81462e-05
0.000926507 -1.97074e-06 -2.3042e-06
-1.97074e-06 0.000218114 7.84251e-07
-2.3042e-06 7.84251e-07 0.000201259
0.000808993 2.789e-06 -4.13502e-06
2.789e-06 0.00014014 5.00666e-06
-4.13502e-06 5.00666e-06 0.000146336
0.000501027 -7.67004e-07 9.78637e-07
-7.67004e-07 -3.9825e-05 -4.10285e-06
9.78637e-07 -4.10285e-06 -5.87055e-05
0.00244918 4.71195e-07 5.04794e-06
4.71195e-07 0.00113478 -9.54905e-09
5.04794e-06 -9.54905e-09 0.00114908
0.000860989 -1.96833e-06 -4.67413e-06
-1.96833e-06 0.000169637 -5.17901e-06
-4.67413e-06 -5.17901e-06 0.000175808
0.000551014 6.33221e-05 2.24193e-06
6.33221e-05 4.29852e-05 4.99851e-07
2.24193e-06 4.99851e-07 -4.4712e-05
0.000536235 3.61704e-05 -1.74164e-06
3.61704e-05 -3.30814e-06 -1.67316e-06
-1.74164e-06 -1.67316e-06 -4.45001e-05
0.000551672 -6.14426e-06 1.15528e-06
-6.14426e-06 3.40685e-06 2.00842e-08
1.15528e-06 2.00842e-08 -3.81203e-05
0.000556943 8.33256e-06 5.47705e-07
8.33256e-06 -2.17878e-05 -2.95455e-06
5.47705e-07 -2.95455e-06 -2.92871e-05
0.000589432 -4.22901e-05 -1.62767e-06
-4.22901e-05 2.35707e-05 1.36364e-06
-1.62767e-06 1.36364e-06 -2.02975e-05
0.000528002 1.3951e-05 3.30629e-08
1.3951e-05 -3.98953e-05 -7.57149e-07
3.30629e-08 -7.57149e-07 -4.77362e-05
0.00200393 3.00662e-05 6.56148e-06
3.00662e-05 0.000865135 -4.44351e-06
6.56148e-06 -4.44351e-06 0.000882636
0.00112069 3.32063e-05 -5.67315e-07
3.32063e-05 0.000324359 1.78413e-06
-5.67315e-07 1.78413e-06 0.000317597
0.00146835 3.82979e-05 -6.37803e-09
3.82979e-05 0.000542787 1.387e-06
-6.37803e-09 1.387e-06 0.000554487
0.000882147 4.16676e-05 -1.1974e-05
4.16676e-05 0.000191016 7.198e-06
-1.1974e-05 7.198e-06 0.000196734
0.00140478 0.000212201 8.30704e-05
0.000212201 -0.00112468 1.56973e-05
8.30704e-05 1.56973e-05 -0.000892319
0.00202954 -3.15662e-05 1.13176e-06
-3.15662e-05 -4.45195e-05 2.31242e-06
1.13176e-06 2.31242e-06 -1.21052e-05
0.00194394 7.12812e-05 3.73089e-05
7.12812e-05 0.000121713 -1.36566e-05
3.73089e-05 -1.36566e-05 0.000204415
0.00181977 0.000192147 -2.89625e-05
0.000192147 -0.0013857 -1.96907e-05
-2.89625e-05 -1.96907e-05 -0.000716663
0.00195127 7.83669e-05 2.44521e-05
7.83669e-05 -0.000481454 -8.49e-07
2.44521e-05 -8.49e-07 -0.000256731
0.00240302 -2.6184e-05 1.82126e-06
-2.6184e-05 0.000371606 -5.04406e-06
1.82126e-06 -5.04406e-06 0.000368197
0.00378033 -0.000144868 -5.59655e-05
-0.000144868 0.000910936 -4.66076e-06
-5.59655e-05 -4.66076e-06 0.000882089
0.00295689 -8.72216e-05 5.467e-05
-8.72216e-05 0.000241855 1.29092e-05
5.467e-05 1.29092e-05 0.000280485
0.011434 -0.000610004 1.19588e-05
-0.000610004 0.00241415 4.14551e-05
1.19588e-05 4.14551e-05 0.000822859
0.0121353 0.00283237 0.000670226
0.00283237 0.00513969 -0.000284086
0.000670226 -0.000284086 0.00438896
0.00838126 0.00316494 -3.06633e-05
0.00316494 0.00614388 1.55699e-05
-3.06633e-05 1.55699e-05 0.00563008
0.00039009 -9.45788e-05 1.3337e-06
-9.45788e-05 -4.59941e-05 -5.81882e-08
1.3337e-06 -5.81882e-08 -0.000145598
0.000610551 -1.1604e-05 1.32387e-06
-1.1604e-05 7.57525e-05 -1.58528e-07
1.32387e-06 -1.58528e-07 -6.98253e-06
0.000678067 -8.41789e-05 -1.50467e-06
-8.41789e-05 0.000124541 9.93186e-07
-1.50467e-06 9.93186e-07 3.41917e-05
0.000600732 -4.68904e-05 -4.65061e-08
-4.68904e-05 7.45188e-05 3.57967e-07
-4.65061e-08 3.57967e-07 -2.56181e-05
0.000607642 5.87919e-05 -2.08087e-06
5.87919e-05 0.000102397 2.22566e-06
-2.08087e-06 2.22566e-06 -1.54898e-05
0.000516509 0.000117842 1.67446e-06
0.000117842 1.46252e-05 5.29845e-06
1.67446e-06 5.29845e-06 -9.67696e-05
0.00090063 -1.54723e-05 3.23749e-06
-1.54723e-05 0.000274283 1.44192e-06
3.23749e-06 1.44192e-06 0.000157396
0.000531076 -2.59979e-05 -1.32797e-06
-2.59979e-05 3.76018e-05 1.09573e-06
-1.32797e-06 1.09573e-06 -6.42235e-05
0.0023296 -0.000217527 5.49557e-06
-0.000217527 9.71769e-05 8.69401e-07
5.49557e-06 8.69401e-07 0.00016116
0.00182414 -0.000354041 1.15455e-05
-0.000354041 -0.000267618 -3.67202e-06
1.15455e-05 -3.67202e-06 -0.000164687
0.00171344 -0.000552294 7.36486e-06
-0.000552294 -8.03726e-05 1.87252e-06
7.36486e-06 1.87252e-06 -0.000209952
0.00155109 -0.00052966 2.09307e-05
-0.00052966 0.000418218 -2.92003e-07
2.09307e-05 -2.92003e-07 7.10293e-05
0.00181783 -0.000661603 5.78813e-06
-0.000661603 0.000259304 4.23081e-06
5.78813e-06 4.23081e-06 8.68609e-06
0.00294843 -0.000709608 1.41697e-05
-0.000709608 0.0015017 4.58697e-08
1.41697e-05 4.58697e-08 0.000969291
0.00270892 -0.000376919 3.05673e-06
-0.000376919 0.00128491 -3.40983e-06
3.05673e-06 -3.40983e-06 0.000969739
0.000691466 -0.000138708 7.57354e-06
-0.000138708 0.00011876 -9.86744e-06
7.57354e-06 -9.86744e-06 -5.84285e-05
0.000595849 -3.84948e-05 -1.81833e-07
-3.84948e-05 5.16598e-05 2.97987e-06
-1.81833e-07 2.97987e-06 -4.70267e-05
0.000765435 -6.75668e-05 4.47075e-06
-6.75668e-05 0.000157289 -1.34695e-05
4.47075e-06 -1.34695e-05 2.8621e-05
0.000921653 -2.58033e-05 2.11783e-06
-2.58033e-05 0.000279731 -3.20493e-07
2.11783e-06 -3.20493e-07 0.000165497
0.000663061 6.95111e-05 1.90241e-06
6.95111e-05 0.000113878 1.56342e-06
1.90241e-06 1.56342e-06 4.00876e-05
0.00208481 -0.000277566 -1.27411e-06
-0.000277566 -6.7087e-05 2.56168e-06
-1.27411e-06 2.56168e-06 8.13715e-05
0.000599718 -6.39654e-07 -1.76486e-06
-6.39654e-07 0.000101718 -4.95641e-07
-1.76486e-06 -4.95641e-07 -2.1556e-05
0.000909552 -0.00011655 -3.87283e-06
-0.00011655 0.000260992 3.57718e-06
-3.87283e-06 3.57718e-06 0.000133695
0.00169389 -0.000450946 3.33561e-06
-0.000450946 -0.00020587 -1.85696e-06
3.33561e-06 -1.85696e-06 -0.000164771
0.00163738 -0.000636537 4.98594e-07
-0.000636537 -1.07323e-05 -4.25276e-07
4.98594e-07 -4.25276e-07 -0.000205529
0.000936349 -0.000517641 -8.42361e-07
-0.000517641 -4.64261e-05 -1.81784e-06
-8.42361e-07 -1.81784e-06 -0.000286839
0.00127751 -0.000205814 3.66576e-07
-0.000205814 0.00058149 -8.85861e-06
3.66576e-07 -8.85861e-06 0.000335847
0.00124522 -0.000394035 -2.3097e-06
-0.000394035 0.000789331 2.11826e-06
-2.3097e-06 2.11826e-06 0.000227231
0.00305655 -0.000428508 -3.70783e-05
-0.000428508 0.000386895 6.87745e-06
-3.70783e-05 6.87745e-06 0.000467017
0.00317598 -0.000671552 -4.21472e-05
-0.000671552 0.000775248 9.88994e-06
-4.21472e-05 9.88994e-06 0.000708322
0.00208354 -0.000734282 -1.18521e-05
-0.000734282 0.000313328 3.09586e-07
-1.18521e-05 3.09586e-07 0.000113525
0.000167663 -0.000360438 -1.66355e-05
-0.000360438 -0.000275173 1.46178e-05
-1.66355e-05 1.46178e-05 -0.000477092
0.000659089 -0.000144518 1.95117e-06
-0.000144518 0.000142797 4.02271e-06
1.95117e-06 4.02271e-06 -1.33845e-05
0.000467826 -0.000127343 3.30416e-06
-0.000127343 7.25453e-05 2.03094e-06
3.30416e-06 2.03094e-06 -0.000107322
0.00133532 -0.000146532 -2.37317e-06
-0.000146532 0.000825879 -6.49169e-06
-2.37317e-06 -6.49169e-06 0.000373648
-0.00586327 -0.000171935 0.000332264
-0.000171935 -0.00435747 2.74933e-06
0.000332264 2.74933e-06 -0.00306428
0.0105623 -0.000185203 2.77392e-05
-0.000185203 0.00238778 1.98881e-06
2.77392e-05 1.98881e-06 0.00190005
0.00153191 0.000193403 7.12187e-06
0.000193403 0.000631243 -5.26502e-06
7.12187e-06 -5.26502e-06 0.000462481
0.00116425 0.000336752 2.38105e-07
0.000336752 0.000263756 8.5307e-07
2.38105e-07 8.5307e-07 2.1967e-05
0.00132041 0.000364176 5.41504e-05
0.000364176 -0.000256669 2.73948e-05
5.41504e-05 2.73948e-05 -0.000255098
0.00260114 0.00068299 1.94068e-05
0.00068299 0.0005792 7.2572e-06
1.94068e-05 7.2572e-06 0.000357548
0.0025703 0.000589445 1.41354e-05
0.000589445 0.000935001 2.95047e-06
1.41354e-05 2.95047e-06 0.000596051
0.01245 0.000699678 6.48599e-05
0.000699678 0.00302676 2.60075e-05
6.48599e-05 2.60075e-05 0.00192398
0.00786183 0.00133172 -0.000181523
0.00133172 0.000592664 3.84949e-06
-0.000181523 3.84949e-06 0.000457294
0.00170797 0.000677707 1.31142e-06
0.000677707 0.000239361 -2.34881e-05
1.31142e-06 -2.34881e-05 -0.000203874
0.0114228 -0.00218588 -0.000206447
-0.00218588 0.00504406 -9.15531e-07
-0.000206447 -9.15531e-07 0.00383667
-0.00523735 -0.00425213 -0.00115464
-0.00425213 -0.00174073 -0.000854481
-0.00115464 -0.000854481 -0.00136005
0.000982075 0.000237082 -1.75415e-07
0.000237082 0.000312948 -2.56394e-07
-1.75415e-07 -2.56394e-07 0.000131965
-0.00255651 -0.00122625 0.000222374
-0.00122625 -0.00258655 3.77863e-05
0.000222374 3.77863e-05 -0.00323657
-0.00337545 -0.000867078 -0.000247936
-0.000867078 0.00256039 -0.000123013
-0.000247936 -0.000123013 -0.000786534
0.00300277 0.000670069 -1.46315e-05
0.000670069 0.000665085 -1.02935e-06
-1.46315e-05 -1.02935e-06 0.000645848
0.000996814 0.000292664 -4.97428e-06
0.000292664 0.000181115 2.48121e-06
-4.97428e-06 2.48121e-06 -5.94014e-05
0.0013692 0.000573807 6.16177e-06
0.000573807 0.000286396 2.25951e-06
6.16177e-06 2.25951e-06 -3.15606e-05
0.00127968 0.000642807 2.70151e-05
0.000642807 4.7788e-05 2.01452e-05
2.70151e-05 2.01452e-05 -3.69327e-05
0.0113862 0.00108042 -9.1084e-05
0.00108042 0.00158117 -4.65361e-05
-9.1084e-05 -4.65361e-05 -0.000358902
0.00563655 0.00188507 -6.99162e-05
0.00188507 0.00098639 -3.91942e-05
-6.99162e-05 -3.91942e-05 0.000428162
0.0136012 -0.00271109 0.000230018
-0.00271109 0.00574177 -3.70938e-05
0.000230018 -3.70938e-05 0.00487406
0.00834549 -0.00233195 0.000185968
-0.00233195 -0.00021632 0.000448094
0.000185968 0.000448094 -1.11772e-05
0.00194204 0.000253392 -1.80413e-05
0.000253392 0.000879836 -1.062e-05
-1.80413e-05 -1.062e-05 0.000722804
-0.00830554 0.000615184 -9.90537e-05
0.000615184 0.00169262 -8.3894e-05
-9.90537e-05 -8.3894e-05 -0.0023614
0.00388831 0.000497777 -0.000237377
0.000497777 0.00246329 -0.00030483
-0.000237377 -0.00030483 -0.00121484
0.00196279 0.00056468 -2.21249e-05
0.00056468 0.000353935 8.00835e-06
-2.21249e-05 8.00835e-06 0.000358542
0.00191552 0.000516591 -6.01804e-05
0.000516591 0.000766098 -2.13323e-05
-6.01804e-05 -2.13323e-05 0.000504063
0.00214728 0.000530451 -6.16711e-05
0.000530451 0.00131592 -7.55256e-06
-6.16711e-05 -7.55256e-06 0.000809232
0.000499007 0.00117985 -6.05457e-05
0.00117985 -0.000244442 -2.34027e-05
-6.05457e-05 -2.34027e-05 -0.000443512
-0.000266296 0.00133858 0.000219715
0.00133858 -0.00109971 0.000130054
0.000219715 0.000130054 -0.00409029
0.0125898 -0.00323176 0.000178782
-0.00323176 0.00508377 0.000411011
0.000178782 0.000411011 0.00368896
0.00635556 -0.00114339 -7.83028e-05
-0.00114339 -0.00206721 -8.27435e-05
-7.83028e-05 -8.27435e-05 -0.000869388
9.13611e-05 0.000108956 2.43727e-06
0.000108956 -0.000181422 -2.86678e-06
2.43727e-06 -2.86678e-06 -0.00029866
0.00126754 0.000185951 7.67194e-06
0.000185951 0.000500943 3.58692e-06
7.67194e-06 3.58692e-06 0.000369367
-0.000128485 7.29038e-05 4.00494e-06
7.29038e-05 -0.000253279 -9.31752e-06
4.00494e-06 -9.31752e-06 -0.000394975
0.000409197 4.88753e-05 1.63296e-06
4.88753e-05 -4.58371e-05 -6.72488e-07
1.63296e-06 -6.72488e-07 -0.000157024
0.000764894 5.43954e-05 -3.55623e-07
5.43954e-05 0.000186849 -1.32092e-06
-3.55623e-07 -1.32092e-06 3.97612e-05
0.000735134 -7.68528e-06 -9.34029e-07
-7.68528e-06 0.000153297 1.44693e-06
-9.34029e-07 1.44693e-06 1.41251e-05
0.00072191 2.17874e-05 3.8784e-06
2.17874e-05 0.000152423 -8.38106e-07
3.8784e-06 -8.38106e-07 1.18021e-05
0.000497744 6.55395e-05 -1.4402e-06
6.55395e-05 2.6995e-05 2.00918e-06
-1.4402e-06 2.00918e-06 -9.57232e-05
0.000750008 4.72954e-05 8.80982e-08
4.72954e-05 0.000181176 -8.58361e-07
8.80982e-08 -8.58361e-07 3.57814e-05
0.000842017 6.0272e-05 3.1709e-07
6.0272e-05 0.000220934 1.53646e-07
3.1709e-07 1.53646e-07 9.00833e-05
0.000782152 -4.94807e-05 -8.13371e-07
-4.94807e-05 0.000180792 1.04027e-06
-8.13371e-07 1.04027e-06 4.01962e-05
-0.000229213 2.89845e-05 6.97557e-07
2.89845e-05 -0.000336177 5.80031e-07
6.97557e-07 5.80031e-07 -0.00047529
-0.000978804 1.24657e-05 -4.22531e-07
1.24657e-05 -0.000562806 -8.48625e-08
-4.22531e-07 -8.48625e-08 -0.000810784
0.00092453 -6.08411e-06 -4.19982e-06
-6.08411e-06 0.000287886 -6.04959e-06
-4.19982e-06 -6.04959e-06 0.000156014
0.000897726 1.08189e-06 3.50402e-07
1.08189e-06 0.000274129 -2.22383e-07
3.50402e-07 -2.22383e-07 0.000111864
0.000772022 -5.85762e-05 -7.28436e-07
-5.85762e-05 0.000199286 -1.08722e-06
-7.28436e-07 -1.08722e-06 5.01433e-05
0.000832792 -5.5777e-05 4.99915e-07
-5.5777e-05 0.000206081 2.101e-06
4.99915e-07 2.101e-06 8.45259e-05
0.000772971 -4.6575e-05 7.70229e-07
-4.6575e-05 0.000190008 -7.7047e-07
7.70229e-07 -7.7047e-07 3.95572e-05
0.000746718 -1.75522e-05 -6.4477e-07
-1.75522e-05 0.000157933 -5.55849e-08
-6.4477e-07 -5.55849e-08 3.49899e-05
0.000281632 -5.60829e-05 6.20214e-07
-5.60829e-05 -0.000108045 1.73542e-06
6.20214e-07 1.73542e-06 -0.000219514
0.000528941 -9.32452e-06 8.4673e-07
-9.32452e-06 2.59287e-05 1.16065e-06
8.4673e-07 1.16065e-06 -9.33571e-05
0.000307089 6.61486e-07 -3.60673e-06
6.61486e-07 -7.75215e-05 -3.95739e-06
-3.60673e-06 -3.95739e-06 -0.000214219
0.000191864 -5.03428e-05 2.20644e-06
-5.03428e-05 -0.00015277 -1.82053e-06
2.20644e-06 -1.82053e-06 -0.000260686
0.00080429 -5.83574e-05 3.75584e-06
-5.83574e-05 0.000131366 -8.9244e-06
3.75584e-06 -8.9244e-06 3.45535e-05
-0.000168028 -3.79424e-05 -3.11458e-07
-3.79424e-05 -0.000442175 1.67508e-06
-3.11458e-07 1.67508e-06 -0.000589532
0.000253542 -1.47145e-05 -2.2069e-06
-1.47145e-05 -0.000143701 -1.20946e-06
-2.2069e-06 -1.20946e-06 -0.000264549
0.000751849 -3.02424e-05 2.96363e-07
-3.02424e-05 0.000140875 1.03747e-07
2.96363e-07 1.03747e-07 2.08078e-05
0.000617407 -2.93608e-05 1.16947e-07
-2.93608e-05 6.86485e-05 8.76403e-07
1.16947e-07 8.76403e-07 -4.3073e-05
0.000712622 -5.05896e-05 3.41957e-09
-5.05896e-05 0.000147138 1.90406e-08
3.41957e-09 1.90406e-08 2.3003e-05
0.000522832 -7.34936e-06 -9.20996e-08
-7.34936e-06 1.41747e-05 1.58331e-06
-9.20996e-08 1.58331e-06 -8.33161e-05
0.000769862 -4.42832e-05 -5.89098e-07
-4.42832e-05 0.000182488 -4.28251e-07
-5.89098e-07 -4.28251e-07 5.62968e-05
0.000643863 -5.80607e-05 -6.58053e-07
-5.80607e-05 9.12843e-05 1.03031e-07
-6.58053e-07 1.03031e-07 -9.72483e-06
0.000513025 3.8595e-05 -6.50943e-07
3.8595e-05 -1.40354e-05 2.94151e-06
-6.50943e-07 2.94151e-06 -7.86751e-05
0.000465184 -7.83646e-05 1.84004e-06
-7.83646e-05 -2.12562e-05 -1.32404e-06
1.84004e-06 -1.32404e-06 -0.000124931
0.000566846 -1.54191e-05 -4.40563e-07
-1.54191e-05 1.80455e-05 3.83286e-08
-4.40563e-07 3.83286e-08 -4.37511e-05
0.00140574 1.27274e-05 -5.59255e-06
1.27274e-05 0.00050271 6.17059e-06
-5.59255e-06 6.17059e-06 0.000486904
0.000558867 -3.87479e-05 1.33804e-06
-3.87479e-05 1.99652e-05 -2.64717e-06
1.33804e-06 -2.64717e-06 -4.35631e-05
0.000922534 -4.31203e-07 -3.1718e-06
-4.31203e-07 0.000212278 7.07994e-07
-3.1718e-06 7.07994e-07 0.000195424
0.000759437 1.43117e-05 3.93254e-07
1.43117e-05 0.000105498 2.1072e-06
3.93254e-07 2.1072e-06 0.00011167
0.000499805 -6.9301e-06 1.17363e-06
-6.9301e-06 -4.20955e-05 -4.09117e-06
1.17363e-06 -4.09117e-06 -6.06437e-05
0.00245463 1.39667e-05 5.18454e-06
1.39667e-05 0.00113817 6.26574e-08
5.18454e-06 6.26574e-08 0.00115236
0.00244392 1.9889e-06 -5.72964e-07
1.9889e-06 0.0011316 -5.21974e-06
-5.72964e-07 -5.21974e-06 0.00114591
0.000992283 7.32911e-05 -7.7464e-07
7.32911e-05 0.000305846 -1.39064e-07
-7.7464e-07 -1.39064e-07 0.000218491
0.000561114 4.54381e-05 -1.42314e-06
4.54381e-05 1.56933e-05 -2.0029e-06
-1.42314e-06 -2.0029e-06 -2.89357e-05
0.000605108 -1.16537e-05 4.79946e-07
-1.16537e-05 7.62389e-05 8.57302e-07
4.79946e-07 8.57302e-07 -1.12402e-05
0.000556187 4.06986e-06 5.48723e-07
4.06986e-06 -2.23895e-05 -3.19992e-06
5.48723e-07 -3.19992e-06 -2.97626e-05
0.00054906 -1.58365e-05 2.26042e-07
-1.58365e-05 5.00335e-06 -3.41402e-08
2.26042e-07 -3.41402e-08 -3.65525e-05
0.000583429 -4.26168e-05 -1.39862e-06
-4.26168e-05 2.40853e-05 1.12458e-06
-1.39862e-06 1.12458e-06 -1.86866e-05
0.000541128 7.67458e-06 -3.02163e-07
7.67458e-06 -3.15143e-05 -2.22132e-08
-3.02163e-07 -2.22132e-08 -3.89312e-05
0.00199012 1.67997e-05 1.88392e-06
1.67997e-05 0.00085433 -4.58758e-06
1.88392e-06 -4.58758e-06 0.000872789
0.00111281 2.16215e-05 -6.7643e-07
2.16215e-05 0.000316795 1.7566e-06
-6.7643e-07 1.7566e-06 0.000312106
0.00136416 2.52708e-05 1.90214e-07
2.52708e-05 0.000474474 -1.14936e-08
1.90214e-07 -1.14936e-08 0.000488675
0.000841565 3.00514e-05 -1.16347e-05
3.00514e-05 0.000160721 6.97984e-06
-1.16347e-05 6.97984e-06 0.000169573
-0.00925798 0.000658509 0.000283152
0.000658509 -0.00384865 -1.5445e-06
0.000283152 -1.5445e-06 -0.00533355
-0.00237117 -8.19589e-05 0.000452874
-8.19589e-05 0.00337668 -8.39369e-05
0.000452874 -8.39369e-05 0.000931448
0.00426523 0.000254669 -0.000222417
0.000254669 -0.000330003 -1.94555e-05
-0.000222417 -1.94555e-05 0.000490188
0.000583007 4.45237e-05 2.57558e-05
4.45237e-05 -0.00115615 -2.35455e-05
2.57558e-05 -2.35455e-05 -0.000984307
0.00148128 -3.96165e-05 1.63885e-05
-3.96165e-05 -0.000245978 5.25729e-06
1.63885e-05 5.25729e-06 -0.000247787
-0.000487587 4.85936e-05 -4.00695e-05
4.85936e-05 -0.000973023 -1.25088e-05
-4.00695e-05 -1.25088e-05 -0.000666276
0.00300613 -0.000186044 -2.20694e-06
-0.000186044 0.000343306 4.97614e-06
-2.20694e-06 4.97614e-06 0.000330762
0.0101822 5.93683e-05 9.37729e-05
5.93683e-05 0.000763138 -3.84056e-05
9.37729e-05 -3.84056e-05 -0.0002878
-0.00235414 0.0017756 -1.03429e-05
0.0017756 -0.000327066 -2.9465e-05
-1.03429e-05 -2.9465e-05 -0.0023111
0.00196336 0.00352996 -0.000238242
0.00352996 0.0024425 0.000126762
-0.000238242 0.000126762 0.00249151
0.00199049 -0.000372035 7.0096e-05
-0.000372035 -0.00103688 -1.75545e-05
7.0096e-05 -1.75545e-05 -0.000748336
0.0138081 -0.00090633 0.000143874
-0.00090633 0.00293032 -3.91344e-05
0.000143874 -3.91344e-05 0.0012944
0.00670735 0.00341032 0.000225673
0.00341032 0.00127167 -0.000373832
0.000225673 -0.000373832 0.00096645
0.0104652 0.00234486 -0.000274488
0.00234486 0.00212613 0.000184182
-0.000274488 0.000184182 0.00147584
0.000805722 0.000113797 -2.44044e-06
0.000113797 0.000227388 2.57671e-06
-2.44044e-06 2.57671e-06 8.75825e-05
0.000444134 2.27801e-05 -4.16279e-08
2.27801e-05 -2.06349e-05 -8.57406e-07
-4.16279e-08 -8.57406e-07 -0.000115058
0.000634068 -9.20945e-05 -5.8331e-07
-9.20945e-05 9.60455e-05 5.78892e-07
-5.8331e-07 5.78892e-07 8.55861e-06
0.000550297 -6.85365e-06 2.05553e-06
-6.85365e-06 5.18438e-05 -9.87394e-07
2.05553e-06 -9.87394e-07 -5.265e-05
0.000603983 5.82574e-05 1.22554e-06
5.82574e-05 0.000104483 1.3937e-06
1.22554e-06 1.3937e-06 -1.43772e-05
0.0006848 4.11516e-05 5.93235e-07
4.11516e-05 0.000153302 4.90858e-06
5.93235e-07 4.90858e-06 1.34471e-05
0.000758149 9.33023e-05 1.32845e-06
9.33023e-05 0.00017702 2.1403e-06
1.32845e-06 2.1403e-06 5.47839e-05
0.000561712 3.24233e-05 4.27768e-06
3.24233e-05 4.34283e-05 1.00467e-06
4.27768e-06 1.00467e-06 -7.88181e-05
0.000716918 -3.03206e-05 1.84475e-06
-3.03206e-05 0.000163317 -9.65201e-07
1.84475e-06 -9.65201e-07 4.46969e-05
0.00051111 -8.61173e-06 7.73636e-08
-8.61173e-06 1.30969e-05 -1.15884e-06
7.73636e-08 -1.15884e-06 -8.2868e-05
0.00172777 -0.000257391 2.2083e-05
-0.000257391 -0.000185651 -1.62719e-06
2.2083e-05 -1.62719e-06 -6.27871e-05
0.00109477 -0.000417705 3.12057e-05
-0.000417705 -0.000526336 -6.56502e-06
3.12057e-05 -6.56502e-06 -0.00047493
0.000429847 -0.00051604 1.5618e-05
-0.00051604 -0.000663477 1.50939e-06
1.5618e-05 1.50939e-06 -0.000805603
-7.99093e-05 -0.00042508 8.35355e-06
-0.00042508 -0.000593584 5.85873e-07
8.35355e-06 5.85873e-07 -0.000826685
0.00293169 -0.0004532 6.78332e-06
-0.0004532 0.00167252 1.44095e-05
6.78332e-06 1.44095e-05 0.00118311
0.000705453 -0.000267181 6.94818e-06
-0.000267181 0.000242156 -4.01667e-06
6.94818e-06 -4.01667e-06 -4.35846e-05
0.0012602 -0.000142014 5.05283e-07
-0.000142014 0.000454453 -1.18603e-06
5.05283e-07 -1.18603e-06 0.000340093
0.000763266 -1.28617e-05 -2.27922e-06
-1.28617e-05 0.000198784 1.9123e-06
-2.27922e-06 1.9123e-06 7.66875e-05
0.00225359 -0.000367379 8.69e-06
-0.000367379 3.25055e-05 -5.04661e-06
8.69e-06 -5.04661e-06 0.000131043
0.000582276 -6.54161e-05 -1.46689e-07
-6.54161e-05 9.98795e-05 -9.7979e-08
-1.46689e-07 -9.7979e-08 -6.26833e-05
0.000136043 -0.00011265 1.12584e-06
-0.00011265 -0.00011769 -2.48413e-06
1.12584e-06 -2.48413e-06 -0.000298623
0.00197953 -0.000585556 9.32825e-06
-0.000585556 0.000132337 -1.66805e-06
9.32825e-06 -1.66805e-06 8.9173e-05
0.00166666 -0.000709555 4.86782e-07
-0.000709555 3.66698e-05 3.493e-06
4.86782e-07 3.493e-06 -0.000124027
0.000234744 -0.000410533 1.04826e-05
-0.000410533 -0.000233285 -6.80946e-06
1.04826e-05 -6.80946e-06 -0.00046661
0.00140082 -0.000209809 -9.4687e-07
-0.000209809 0.000844706 -7.75357e-06
-9.4687e-07 -7.75357e-06 0.000408541
0.00232354 -0.000573306 -4.64138e-05
-0.000573306 0.000493751 9.79192e-06
-4.64138e-05 9.79192e-06 0.000188837
0.00167758 -0.000565723 -4.45549e-05
-0.000565723 0.0002163 9.88957e-06
-4.45549e-05 9.88957e-06 0.000135121
0.000881312 -0.000365066 -5.02452e-05
-0.000365066 0.000349657 3.48448e-05
-5.02452e-05 3.48448e-05 4.63714e-05
-0.00126089 -8.15864e-05 1.78985e-08
-8.15864e-05 -0.000982529 4.76453e-06
1.78985e-08 4.76453e-06 -0.00114776
7.41711e-06 -0.000106751 3.90264e-06
-0.000106751 -0.000198021 4.87058e-06
3.90264e-06 4.87058e-06 -0.000390863
0.000831267 -7.75309e-05 4.92622e-06
-7.75309e-05 0.00037942 3.48957e-06
4.92622e-06 3.48957e-06 9.08145e-05
-0.000760219 0.000557542 -0.000222892
0.000557542 0.00511109 1.04853e-05
-0.000222892 1.04853e-05 0.00232739
0.00137414 -0.000718963 1.0176e-05
-0.000718963 0.00155671 2.53458e-05
1.0176e-05 2.53458e-05 0.00150584
0.00141849 0.000905568 -7.32058e-05
0.000905568 -0.00379304 -1.25673e-05
-7.32058e-05 -1.25673e-05 -0.00410937
0.000311415 0.000176578 6.01575e-06
0.000176578 -7.24631e-05 1.23648e-06
6.01575e-06 1.23648e-06 -0.000245083
0.00125544 0.000379217 8.74199e-06
0.000379217 0.000355907 1.40367e-05
8.74199e-06 1.40367e-05 8.62317e-05
0.00332867 0.000601706 4.13462e-05
0.000601706 0.000859617 1.48406e-05
4.13462e-05 1.48406e-05 0.000837609
0.00190109 0.000633957 1.92811e-05
0.000633957 0.000576884 1.66473e-05
1.92811e-05 1.66473e-05 0.000243112
0.0088536 -0.00139233 0.000102283
-0.00139233 0.00301707 4.30643e-05
0.000102283 4.30643e-05 0.00315421
0.00361769 0.000396121 -0.000224781
0.000396121 -0.00254767 -1.14918e-05
-0.000224781 -1.14918e-05 -0.00447123
0.00359571 0.0017323 -3.91118e-05
0.0017323 -0.000219625 -1.69105e-06
-3.91118e-05 -1.69105e-06 -0.000601516
0.00162553 0.000498797 3.30241e-05
0.000498797 0.000466326 -2.78194e-05
3.30241e-05 -2.78194e-05 0.000439464
-0.00232735 -0.00170594 -0.000211714
-0.00170594 -7.72268e-05 -0.000212611
-0.000211714 -0.000212611 -0.00128018
-0.000847147 -0.00144565 -0.000230504
-0.00144565 0.00263502 -7.19767e-05
-0.000230504 -7.19767e-05 -0.000738212
0.0136157 -0.00294567 0.000346614
-0.00294567 0.00257916 0.000229611
0.000346614 0.000229611 0.00291924
0.000641896 0.000171322 1.00113e-05
0.000171322 0.000136922 -2.89462e-06
1.00113e-05 -2.89462e-06 -2.32486e-05
-0.0030266 0.000233865 -0.000122733
0.000233865 0.00324045 -2.92883e-05
-0.000122733 -2.92883e-05 -0.000137685
0.00420414 0.000573086 -3.40508e-05
0.000573086 0.00231201 -0.00011187
-3.40508e-05 -0.00011187 -0.00159179
0.00141233 0.000534628 -3.42069e-06
0.000534628 0.000119053 4.9503e-06
-3.42069e-06 4.9503e-06 8.41068e-05
0.000516383 0.000369534 7.34393e-06
0.000369534 6.86488e-05 3.20784e-06
7.34393e-06 3.20784e-06 -0.000205478
-0.000217442 0.000472176 -2.21715e-06
0.000472176 -7.87136e-05 -4.55259e-05
-2.21715e-06 -4.55259e-05 -0.000449234
0.00431175 0.00187212 -5.13553e-06
0.00187212 0.00146232 8.39258e-06
-5.13553e-06 8.39258e-06 0.00100776
0.0144987 0.00169489 7.7011e-05
0.00169489 0.00460377 2.56842e-05
7.7011e-05 2.56842e-05 0.00249123
0.00547195 -0.00207675 4.8369e-05
-0.00207675 0.000656817 -5.81088e-05
4.8369e-05 -5.81088e-05 -0.0010296
0.0115307 -0.00164591 -2.96909e-06
-0.00164591 0.00152465 -5.00601e-05
-2.96909e-06 -5.00601e-05 0.00283029
0.000262149 0.000227645 -5.58106e-06
0.000227645 -3.63864e-05 -1.29553e-05
-5.58106e-06 -1.29553e-05 -0.000195484
0.00270776 0.000148978 -0.000185124
0.000148978 0.0013359 -3.13666e-05
-0.000185124 -3.13666e-05 -0.00133042
6.10889e-05 0.00022308 -3.79805e-05
0.00022308 -9.30103e-05 -0.000120813
-3.79805e-05 -0.000120813 -0.00160037
-0.000971109 0.000141404 -6.19567e-06
0.000141404 -0.000421948 -1.86841e-05
-6.19567e-06 -1.86841e-05 -0.000609955
0.000524124 0.000353602 -6.95176e-05
0.000353602 0.00101345 2.9437e-05
-6.95176e-05 2.9437e-05 0.000270396
0.0112112 0.00221871 4.79505e-05
0.00221871 0.00419266 -3.20425e-06
4.79505e-05 -3.20425e-06 0.0007504
-0.00612357 -0.0029941 -2.94761e-05
-0.0029941 -0.00270782 0.000176669
-2.94761e-05 0.000176669 -0.00565416
0.00936797 0.000558519 3.54177e-05
0.000558519 -0.00130088 -0.00023518
3.54177e-05 -0.00023518 0.00111807
0.000843318 0.000144056 1.87925e-07
0.000144056 0.000228136 9.77034e-06
1.87925e-07 9.77034e-06 0.000106931
0.000965347 0.000172627 -6.85924e-06
0.000172627 0.000395973 -1.53952e-06
-6.85924e-06 -1.53952e-06 0.00024529
0.00049044 0.00011514 -6.44663e-07
0.00011514 0.00028199 -7.22568e-06
-6.44663e-07 -7.22568e-06 4.86525e-05
0.000725703 8.06929e-05 -2.25624e-06
8.06929e-05 0.000154751 -1.71485e-06
-2.25624e-06 -1.71485e-06 1.8163e-05
0.000843457 -3.47211e-05 -6.30747e-07
-3.47211e-05 0.000225274 2.55537e-06
-6.30747e-07 2.55537e-06 7.79742e-05
0.000659027 5.03706e-05 1.93867e-06
5.03706e-05 0.000105117 2.39161e-06
1.93867e-06 2.39161e-06 -2.26852e-05
-0.000430818 2.05006e-05 1.51993e-06
2.05006e-05 -0.000432295 3.78094e-06
1.51993e-06 3.78094e-06 -0.000577476
0.000770988 -1.28184e-05 1.12382e-06
-1.28184e-05 0.00017721 1.66221e-07
1.12382e-06 1.66221e-07 3.06273e-05
0.000778591 2.39442e-05 1.41412e-08
2.39442e-05 0.000204854 -1.47073e-06
1.41412e-08 -1.47073e-06 6.96216e-05
0.000127806 -8.58988e-06 4.79281e-07
-8.58988e-06 8.11129e-05 2.03318e-06
4.79281e-07 2.03318e-06 -0.000159918
-0.000866341 1.78124e-05 -9.4746e-07
1.78124e-05 -0.00025114 3.12886e-06
-9.4746e-07 3.12886e-06 -0.000623303
0.000529712 5.49183e-06 -2.42142e-06
5.49183e-06 0.000285666 -5.26231e-06
-2.42142e-06 -5.26231e-06 6.21868e-05
0.000886315 2.93052e-05 -9.73357e-07
2.93052e-05 0.000256897 -4.26669e-06
-9.73357e-07 -4.26669e-06 0.000114892
0.000847482 -0.000118461 6.92029e-07
-0.000118461 0.000221758 5.64421e-07
6.92029e-07 5.64421e-07 7.90682e-05
0.000720846 -1.981e-05 -6.37697e-07
-1.981e-05 0.000134412 -1.01499e-07
-6.37697e-07 -1.01499e-07 1.46827e-05
0.000556767 -6.91223e-05 -5.68487e-07
-6.91223e-05 6.49295e-05 4.82238e-06
-5.68487e-07 4.82238e-06 -4.2755e-05
0.000446694 -2.59756e-05 1.76165e-06
-2.59756e-05 -6.51453e-06 2.03391e-06
1.76165e-06 2.03391e-06 -0.000134521
0.000690802 -1.78091e-05 5.07524e-07
-1.78091e-05 0.000122333 -2.25245e-07
5.07524e-07 -2.25245e-07 1.69932e-06
0.000536398 -4.32357e-05 -2.49579e-08
-4.32357e-05 4.91172e-05 -3.67909e-07
-2.49579e-08 -3.67909e-07 -5.75971e-05
0.00107343 -4.79475e-05 -2.97022e-06
-4.79475e-05 0.000335739 -5.0074e-06
-2.97022e-06 -5.0074e-06 0.000230631
1.01046e-05 -3.89947e-05 4.36236e-06
-3.89947e-05 -0.00017506 -6.00109e-06
4.36236e-06 -6.00109e-06 -0.000286547
0.000301333 -0.000120385 -3.23574e-08
-0.000120385 -0.000235863 -1.4527e-07
-3.23574e-08 -1.4527e-07 -0.000326124
0.000746187 -9.66992e-05 -4.26193e-06
-9.66992e-05 0.000106702 -4.34113e-07
-4.26193e-06 -4.34113e-07 2.81839e-06
0.000294764 -0.000110374 5.75141e-06
-0.000110374 -0.00016307 3.27605e-06
5.75141e-06 3.27605e-06 -0.000306976
0.00112776 -0.00027414 4.03776e-07
-0.00027414 0.000267621 8.92308e-06
4.03776e-07 8.92308e-06 2.4758e-05
0.00150258 -0.000155781 8.18288e-07
-0.000155781 0.000609374 -1.63042e-06
8.18288e-07 -1.63042e-06 0.000454909
0.000148173 -8.10318e-05 -3.94367e-06
-8.10318e-05 -0.000225506 -5.07951e-06
-3.94367e-06 -5.07951e-06 -0.000376128
0.000645448 -3.44022e-05 -2.67874e-08
-3.44022e-05 7.70001e-05 3.09851e-07
-2.67874e-08 3.09851e-07 -4.31443e-05
0.000248484 -2.3104e-05 -6.20414e-07
-2.3104e-05 -0.000144438 -2.04442e-07
-6.20414e-07 -2.04442e-07 -0.000263579
0.000903581 -5.05758e-05 -6.57655e-07
-5.05758e-05 0.000229427 1.14884e-06
-6.57655e-07 1.14884e-06 0.000106759
0.000730669 -6.51573e-05 -7.22439e-07
-6.51573e-05 0.000149614 7.11309e-07
-7.22439e-07 7.11309e-07 2.57367e-05
0.00059807 -3.70568e-05 -2.75629e-07
-3.70568e-05 4.81368e-05 1.64219e-06
-2.75629e-07 1.64219e-06 -4.81201e-05
0.000882755 -8.76283e-05 -5.10366e-07
-8.76283e-05 0.000265209 -1.34736e-06
-5.10366e-07 -1.34736e-06 0.000126879
0.000664339 -6.96112e-05 -5.86545e-07
-6.96112e-05 0.000100639 -7.0426e-08
-5.86545e-07 -7.0426e-08 -3.30187e-07
0.000546643 2.33773e-05 -2.05633e-06
2.33773e-05 3.67602e-06 2.46339e-06
-2.05633e-06 2.46339e-06 -6.15454e-05
0.000701356 -0.000100523 1.81753e-06
-0.000100523 0.000128695 -1.78493e-06
1.81753e-06 -1.78493e-06 2.41554e-05
0.000618477 -2.77817e-05 -2.28869e-07
-2.77817e-05 4.51185e-05 8.08992e-08
-2.28869e-07 8.08992e-08 -1.76209e-05
0.00141 2.40714e-05 -8.70658e-06
2.40714e-05 0.000503484 6.30278e-06
-8.70658e-06 6.30278e-06 0.000486422
0.000585409 -4.57331e-05 2.15471e-06
-4.57331e-05 3.34216e-05 -2.71991e-06
2.15471e-06 -2.71991e-06 -3.1193e-05
0.000935639 9.7366e-06 -4.40029e-06
9.7366e-06 0.000217228 6.81678e-07
-4.40029e-06 6.81678e-07 0.000199239
0.000769597 2.32916e-05 2.73099e-07
2.32916e-05 0.000112552 2.37739e-06
2.73099e-07 2.37739e-06 0.000116852
0.000510909 -2.89069e-06 6.61821e-07
-2.89069e-06 -3.89479e-05 -4.27033e-06
6.61821e-07 -4.27033e-06 -5.77539e-05
0.00159812 2.35536e-05 6.72672e-06
2.35536e-05 0.000617087 -1.4847e-06
6.72672e-06 -1.4847e-06 0.000627102
0.00242588 1.60317e-05 5.2884e-06
1.60317e-05 0.00112051 -5.1765e-06
5.2884e-06 -5.1765e-06 0.00113476
0.000650915 2.24608e-05 1.75982e-06
2.24608e-05 8.69241e-05 -9.52249e-07
1.75982e-06 -9.52249e-07 -3.59659e-06
0.000621929 4.23787e-05 -8.26975e-07
4.23787e-05 4.89459e-05 -1.75294e-06
-8.26975e-07 -1.75294e-06 2.256e-06
0.000660023 -3.36607e-06 1.24412e-06
-3.36607e-06 0.000101515 4.62433e-07
1.24412e-06 4.62433e-07 1.53629e-05
0.000541721 -8.46405e-07 7.93418e-07
-8.46405e-07 -2.9996e-05 -3.46486e-06
7.93418e-07 -3.46486e-06 -3.82074e-05
0.000555247 3.46548e-05 1.08777e-07
3.46548e-05 9.32372e-06 -4.7109e-08
1.08777e-07 -4.7109e-08 -3.36566e-05
0.000616704 -9.9861e-05 -3.51538e-06
-9.9861e-05 7.72382e-05 9.7048e-07
-3.51538e-06 9.7048e-07 -5.681e-06
0.00200401 3.65339e-06 -3.00014e-06
3.65339e-06 0.000861225 -4.71053e-06
-3.00014e-06 -4.71053e-06 0.00088012
0.000536649 3.29048e-06 -1.94407e-07
3.29048e-06 -3.36458e-05 7.3195e-09
-1.94407e-07 7.3195e-09 -4.10388e-05
0.000559696 -1.92479e-05 -1.66117e-06
-1.92479e-05 9.38637e-06 1.51853e-06
-1.66117e-06 1.51853e-06 -3.09515e-05
0.000521348 7.10973e-06 -8.37298e-07
7.10973e-06 -4.36815e-05 3.05299e-06
-8.37298e-07 3.05299e-06 -5.10306e-05
0.002019 1.83371e-05 -4.37438e-06
1.83371e-05 0.00087207 -6.38786e-08
-4.37438e-06 -6.38786e-08 0.000890353
0.00199299 3.10007e-05 -8.38052e-06
3.10007e-05 0.000858457 4.32453e-06
-8.38052e-06 4.32453e-06 0.000876086
-0.00562391 -0.000777792 -8.38744e-05
-0.000777792 0.00281099 2.99492e-05
-8.38744e-05 2.99492e-05 -0.000111061
0.000415264 0.000709219 -0.000139964
0.000709219 -8.94062e-05 3.52475e-05
-0.000139964 3.52475e-05 -0.00100745
0.0030568 -0.00060544 -0.000389638
-0.00060544 0.0011415 0.000193705
-0.000389638 0.000193705 -0.00257967
-0.00298601 7.72724e-05 0.000582532
7.72724e-05 0.00341583 -0.00022974
0.000582532 -0.00022974 0.00090289
0.000629804 0.000349797 -1.27041e-05
0.000349797 -0.00128483 -8.75342e-06
-1.27041e-05 -8.75342e-06 -0.00099117
0.00259385 -0.000249471 0.000102193
-0.000249471 8.25064e-06 -3.15498e-06
0.000102193 -3.15498e-06 2.30564e-05
0.000972939 -0.000385213 7.2293e-05
-0.000385213 -0.00289452 -7.3987e-05
7.2293e-05 -7.3987e-05 -0.00474131
0.0134669 0.00171545 -0.000284656
0.00171545 0.00630798 8.15372e-06
-0.000284656 8.15372e-06 0.00498031
-0.00515604 0.00406041 -0.00107364
0.00406041 -0.00173547 0.000819357
-0.00107364 0.000819357 -0.00132624
0.00337724 -0.000259981 9.84035e-07
-0.000259981 -0.000247053 6.57504e-07
9.84035e-07 6.57504e-07 -0.00010929
0.00669013 -0.000933542 8.38461e-05
-0.000933542 -0.000342859 -7.49762e-05
8.38461e-05 -7.49762e-05 -0.00267912
0.0146403 0.00307551 -0.000153168
0.00307551 0.0042719 -9.42294e-05
-0.000153168 -9.42294e-05 0.00401635
0.00703969 0.00237667 -8.07867e-05
0.00237667 -0.00013227 0.000238132
-8.07867e-05 0.000238132 -0.00093093
0.00195475 -0.000938256 -8.14021e-05
-0.000938256 -0.00172334 2.46948e-05
-8.14021e-05 2.46948e-05 -0.00132362
0.00326802 -0.00161073 0.00024741
-0.00161073 -0.00013901 -0.000168892
0.00024741 -0.000168892 -0.00382037
-0.00191023 0.00193888 -4.68031e-05
0.00193888 -0.00283579 -0.000464971
-4.68031e-05 -0.000464971 -0.00398528
0.00586756 0.00108712 -0.000124638
0.00108712 -0.00293037 6.34509e-06
-0.000124638 6.34509e-06 -0.00162234
0.00126197 -5.34948e-05 1.80127e-06
-5.34948e-05 0.000529107 8.10283e-06
1.80127e-06 8.10283e-06 0.000354209
0.000604523 9.27372e-05 -1.71433e-06
9.27372e-05 9.29015e-05 -1.66103e-06
-1.71433e-06 -1.66103e-06 -3.41772e-05
0.000580326 7.84814e-05 3.13858e-07
7.84814e-05 5.60096e-05 -1.94637e-06
3.13858e-07 -1.94637e-06 -3.37901e-05
0.000636417 5.86182e-05 4.65114e-06
5.86182e-05 0.000126333 5.57258e-07
4.65114e-06 5.57258e-07 8.05928e-06
0.000598265 6.21821e-05 2.78274e-06
6.21821e-05 8.76e-05 2.54233e-06
2.78274e-06 2.54233e-06 -7.1319e-05
0.00065467 5.4687e-05 -2.28396e-07
5.4687e-05 0.000131461 1.74678e-06
-2.28396e-07 1.74678e-06 -1.29436e-06
0.000547636 4.10566e-05 8.88752e-07
4.10566e-05 5.25781e-05 -1.21852e-06
8.88752e-07 -1.21852e-06 -6.73401e-05
0.000868079 0.000142431 2.23921e-06
0.000142431 0.000252825 3.06806e-06
2.23921e-06 3.06806e-06 0.000105121
0.000840219 9.44833e-05 -7.10701e-08
9.44833e-05 0.000239562 3.4237e-07
-7.10701e-08 3.4237e-07 9.83891e-05
0.000461187 -1.56224e-05 -4.02331e-06
-1.56224e-05 3.22713e-06 -3.3009e-06
-4.02331e-06 -3.3009e-06 -0.000113727
0.000732913 -0.000283794 5.31865e-05
-0.000283794 -0.000754414 -2.18984e-05
5.31865e-05 -2.18984e-05 -0.000633553
0.000690513 -0.000509131 3.69148e-05
-0.000509131 -0.000570632 -7.08154e-06
3.69148e-05 -7.08154e-06 -0.000597046
0.00157428 -0.000706938 1.33164e-05
-0.000706938 -3.82403e-05 5.62534e-06
1.33164e-05 5.62534e-06 -0.000178702
4.41088e-05 -0.000447668 1.13563e-05
-0.000447668 -0.000333744 -1.14228e-05
1.13563e-05 -1.14228e-05 -0.000612773
0.00223561 -0.000261562 -3.41691e-06
-0.000261562 0.00123817 2.56755e-05
-3.41691e-06 2.56755e-05 0.000869683
0.000556781 -0.000107216 -1.98869e-06
-0.000107216 0.000139393 3.53962e-07
-1.98869e-06 3.53962e-07 -4.97593e-05
0.000472564 8.75173e-05 -1.42784e-06
8.75173e-05 3.9561e-05 -7.35108e-06
-1.42784e-06 -7.35108e-06 -0.000127736
0.00069749 -7.88281e-05 -8.42662e-07
-7.88281e-05 0.000192429 5.06869e-06
-8.42662e-07 5.06869e-06 9.72592e-08
0.00134357 -0.000460209 -1.90151e-07
-0.000460209 -0.000118174 -2.69582e-06
-1.90151e-07 -2.69582e-06 -0.000270741
0.000702346 -3.17906e-05 3.46874e-07
-3.17906e-05 0.000195203 2.72556e-06
3.46874e-07 2.72556e-06 5.80498e-06
0.00154455 -0.000174119 -1.56987e-07
-0.000174119 0.000797742 -1.38762e-06
-1.56987e-07 -1.38762e-06 0.000501563
0.00165802 -0.000573306 3.65928e-07
-0.000573306 0.000169408 3.12014e-06
3.65928e-07 3.12014e-06 0.000102957
0.00083217 -0.000427473 -1.49398e-05
-0.000427473 0.00027484 5.59457e-06
-1.49398e-05 5.59457e-06 -2.64407e-05
0.00178974 -0.000830629 7.60819e-06
-0.000830629 8.22334e-05 -2.18383e-05
7.60819e-06 -2.18383e-05 3.9854e-05
0.00097597 -0.000338895 -1.4018e-05
-0.000338895 0.000298124 1.33311e-05
-1.4018e-05 1.33311e-05 0.000180966
-0.000611658 -4.73761e-05 7.94139e-07
-4.73761e-05 -0.000318551 1.31897e-05
7.94139e-07 1.31897e-05 -0.000694142
0.000771509 1.29693e-05 -7.33234e-07
1.29693e-05 0.00020458 -4.05371e-06
-7.33234e-07 -4.05371e-06 3.61974e-05
0.00090654 4.34158e-05 4.84256e-06
4.34158e-05 0.000400382 1.56005e-06
4.84256e-06 1.56005e-06 0.00015778
0.00172268 -1.32588e-05 -2.37164e-05
-1.32588e-05 0.00158949 -1.12035e-05
-2.37164e-05 -1.12035e-05 -0.000964448
-0.00396797 0.000204255 -0.000188788
0.000204255 0.00431357 -8.15865e-06
-0.000188788 -8.15865e-06 0.0010078
-0.0112107 -0.00109549 -0.000407052
-0.00109549 -0.00572069 -1.14833e-05
-0.000407052 -1.14833e-05 -0.00548969
-0.000411766 0.000122783 7.13949e-06
0.000122783 -0.00045455 -1.02219e-06
7.13949e-06 -1.02219e-06 -0.00062798
-0.000853441 0.000254176 -4.53096e-07
0.000254176 -0.000628622 7.95003e-06
-4.53096e-07 7.95003e-06 -0.000916479
0.00130083 0.00055398 2.89519e-05
0.00055398 4.4302e-05 9.61501e-06
2.89519e-05 9.61501e-06 1.66661e-05
-0.00451259 0.000908962 -3.9979e-06
0.000908962 0.00299017 3.02074e-05
-3.9979e-06 3.02074e-05 -0.000195231
0.00225442 0.0014444 -0.000130859
0.0014444 -5.73548e-05 -0.000126191
-0.000130859 -0.000126191 -0.0038066
0.00276558 0.00139357 0.000255681
0.00139357 0.000664885 6.92106e-05
0.000255681 6.92106e-05 0.000391291
-0.000297577 0.000457634 6.46892e-06
0.000457634 -0.000271321 -3.73792e-05
6.46892e-06 -3.73792e-05 -0.000365371
0.0159079 -0.0021763 -5.56801e-05
-0.0021763 0.00475065 -0.000184938
-5.56801e-05 -0.000184938 0.00370922
0.00453813 0.000656047 0.000242735
0.000656047 0.00232219 9.0366e-05
0.000242735 9.0366e-05 -0.0018343
0.0115352 -0.00144854 7.81183e-05
-0.00144854 0.00174902 2.43396e-05
7.81183e-05 2.43396e-05 0.00309739
0.0007188 0.000266008 2.71886e-06
0.000266008 0.000292233 -2.64495e-06
2.71886e-06 -2.64495e-06 0.000121654
0.00373646 0.000214286 9.17969e-06
0.000214286 0.00200411 1.02535e-05
9.17969e-06 1.02535e-05 -3.25094e-05
0.000740247 0.000244756 3.02607e-05
0.000244756 2.43961e-06 1.05175e-05
3.02607e-05 1.05175e-05 -0.00156237
-0.000565253 0.00027926 -2.58682e-06
0.00027926 -0.000287665 -1.93242e-06
-2.58682e-06 -1.93242e-06 -0.000524357
0.00148853 0.000742579 -9.09499e-05
0.000742579 0.00109767 -4.14776e-05
-9.09499e-05 -4.14776e-05 9.00406e-05
0.00233105 0.00237102 0.000109574
0.00237102 0.000918005 7.11576e-05
0.000109574 7.11576e-05 -0.00269446
0.00722156 0.000192355 -1.3198e-05
0.000192355 -0.00303381 -0.000155621
-1.3198e-05 -0.000155621 -0.000288272
0.00315205 -0.00176374 -4.89072e-05
-0.00176374 0.00136297 -8.01844e-05
-4.89072e-05 -8.01844e-05 -0.00129539
0.00106776 0.000222755 -4.6071e-06
0.000222755 0.000710286 -1.50504e-05
-4.6071e-06 -1.50504e-05 0.000507497
-0.000757886 -3.07852e-06 2.18779e-06
-3.07852e-06 -0.000117757 -3.75143e-07
2.18779e-06 -3.75143e-07 -3.47245e-05
0.00324887 2.89687e-05 4.7803e-05
2.89687e-05 -2.90007e-05 -0.000116794
4.7803e-05 -0.000116794 -0.00105466
0.0059118 0.00113981 0.000131531
0.00113981 -0.00279552 -1.41867e-05
0.000131531 -1.41867e-05 -0.00160064
-0.00131722 0.000106988 8.36433e-06
0.000106988 -8.95074e-05 -2.40655e-05
8.36433e-06 -2.40655e-05 -0.000712159
0.011249 0.00189835 0.000166238
0.00189835 0.00525525 5.33679e-05
0.000166238 5.33679e-05 0.00106783
-0.00709267 -0.000469828 8.33615e-05
-0.000469828 0.000213747 0.00027493
8.33615e-05 0.00027493 -0.00223787
0.00258808 0.000316778 2.0357e-05
0.000316778 0.00136948 1.62641e-05
2.0357e-05 1.62641e-05 0.00119527
0.00088528 0.000177629 -5.51077e-06
0.000177629 0.000502431 -2.69721e-06
-5.51077e-06 -2.69721e-06 0.000246607
-0.000202686 7.2936e-05 -2.67869e-07
7.2936e-05 9.71479e-05 5.50158e-07
-2.67869e-07 5.50158e-07 -0.000187358
0.000696389 0.000145124 1.3051e-07
0.000145124 0.000146907 3.1706e-07
1.3051e-07 3.1706e-07 -7.41863e-06
0.000498723 5.99343e-05 1.42964e-06
5.99343e-05 3.29761e-05 2.44175e-06
1.42964e-06 2.44175e-06 -9.80623e-05
0.000568588 9.4988e-06 8.25192e-06
9.4988e-06 0.000369468 3.57146e-06
8.25192e-06 3.57146e-06 0.000105294
0.000614045 4.0864e-05 -3.60882e-08
4.0864e-05 8.8917e-05 -6.19771e-07
-3.60882e-08 -6.19771e-07 -4.55266e-05
0.000723207 -1.3007e-05 -2.71136e-06
-1.3007e-05 0.00039511 -2.13957e-06
-2.71136e-06 -2.13957e-06 0.000174171
-0.000350127 3.96315e-05 3.38139e-06
3.96315e-05 3.93362e-05 3.65997e-06
3.38139e-06 3.65997e-06 -0.000332394
0.000281956 4.10449e-06 -7.40382e-06
4.10449e-06 0.000273125 -5.28775e-06
-7.40382e-06 -5.28775e-06 5.43798e-05
0.000233023 -3.35899e-05 -1.41343e-06
-3.35899e-05 7.12882e-05 -7.04915e-06
-1.41343e-06 -7.04915e-06 -0.000119429
0.000547711 -5.65562e-05 1.31483e-06
-5.65562e-05 4.15508e-05 5.30005e-06
1.31483e-06 5.30005e-06 -7.68698e-05
0.000855148 -2.10275e-05 -8.78256e-07
-2.10275e-05 0.000218745 -3.08397e-07
-8.78256e-07 -3.08397e-07 9.73573e-05
0.00101346 -4.59118e-05 -8.95079e-06
-4.59118e-05 0.000330346 6.96538e-06
-8.95079e-06 6.96538e-06 0.000224016
0.000696507 -5.57427e-05 3.99422e-06
-5.57427e-05 0.000212105 -5.9501e-07
3.99422e-06 -5.9501e-07 0.000106772
0.000542649 -4.06801e-05 -1.64756e-06
-4.06801e-05 2.49726e-05 -2.30824e-07
-1.64756e-06 -2.30824e-07 -8.10357e-05
0.000677971 -0.000110727 1.55698e-06
-0.000110727 0.000140492 -3.70286e-07
1.55698e-06 -3.70286e-07 3.1221e-05
0.000310177 -0.000108107 -4.26025e-06
-0.000108107 -0.00017892 -7.10664e-07
-4.26025e-06 -7.10664e-07 -0.000251056
-0.000639834 -0.000170936 8.49326e-06
-0.000170936 -0.000706552 4.7901e-06
8.49326e-06 4.7901e-06 -0.000901274
0.000722812 -0.000141503 1.59366e-06
-0.000141503 0.00010183 1.80627e-06
1.59366e-06 1.80627e-06 -8.64817e-06
0.00129637 -0.000217186 -9.30077e-07
-0.000217186 0.000422749 4.35777e-06
-9.30077e-07 4.35777e-06 0.000255137
0.00130966 -0.000335889 -5.32078e-06
-0.000335889 0.000345141 5.16685e-06
-5.32078e-06 5.16685e-06 8.56674e-05
0.000998727 -0.000287548 -2.55066e-06
-0.000287548 0.000112553 -8.43426e-07
-2.55066e-06 -8.43426e-07 -0.000139349
0.00109923 -0.000223135 -2.45951e-06
-0.000223135 0.000385379 6.27176e-06
-2.45951e-06 6.27176e-06 0.000175247
0.000230768 -0.000174906 4.18175e-06
-0.000174906 -0.000262688 -6.41525e-07
4.18175e-06 -6.41525e-07 -0.000482661
0.000927897 -0.000103273 1.32824e-06
-0.000103273 0.000268392 -1.10759e-06
1.32824e-06 -1.10759e-06 0.000119322
0.00108361 -0.000143805 -2.59492e-06
-0.000143805 0.000375672 -4.8375e-07
-2.59492e-06 -4.8375e-07 0.000215265
0.000330591 -0.000111536 6.23448e-06
-0.000111536 -9.13626e-05 -1.30023e-05
6.23448e-06 -1.30023e-05 -0.000241488
0.00104124 -5.46533e-05 3.79277e-07
-5.46533e-05 0.000300222 3.4871e-07
3.79277e-07 3.4871e-07 0.000181108
0.00037892 -3.39713e-05 3.88352e-07
-3.39713e-05 -6.27177e-05 -1.41953e-07
3.88352e-07 -1.41953e-07 -0.00018471
0.000636639 -2.71278e-05 -2.10462e-07
-2.71278e-05 6.5344e-05 1.15608e-06
-2.10462e-07 1.15608e-06 -3.53899e-05
0.000797905 -9.13195e-05 -3.80064e-07
-9.13195e-05 0.000202671 -1.37146e-07
-3.80064e-07 -1.37146e-07 6.77775e-05
0.000671253 -5.36633e-05 4.80169e-09
-5.36633e-05 0.000101945 7.74671e-08
4.80169e-09 7.74671e-08 -2.66848e-06
0.000562411 2.36601e-05 2.20742e-07
2.36601e-05 1.79408e-05 2.7726e-06
2.20742e-07 2.7726e-06 -5.31219e-05
0.000744328 -8.76176e-05 2.5538e-07
-8.76176e-05 0.000158233 -1.96101e-06
2.5538e-07 -1.96101e-06 4.98673e-05
0.000571568 1.52447e-05 -1.30374e-06
1.52447e-05 2.05997e-05 -1.01347e-07
-1.30374e-06 -1.01347e-07 -4.64223e-05
0.00137329 3.94929e-05 -9.76961e-06
3.94929e-05 0.00048329 4.29468e-06
-9.76961e-06 4.29468e-06 0.000465051
0.000621543 -3.94822e-05 2.46702e-06
-3.94822e-05 4.89892e-05 -2.83671e-06
2.46702e-06 -2.83671e-06 -1.52473e-05
0.000928249 2.09368e-05 -5.44673e-06
2.09368e-05 0.000211073 6.37201e-07
-5.44673e-06 6.37201e-07 0.000191894
0.000808211 3.2653e-05 -4.42018e-07
3.2653e-05 0.000137622 2.56759e-06
-4.42018e-07 2.56759e-06 0.000140148
0.000508063 6.18712e-06 7.7037e-07
6.18712e-06 -4.42674e-05 -4.67252e-06
7.7037e-07 -4.67252e-06 -6.41528e-05
0.00162951 3.58562e-05 9.30003e-06
3.58562e-05 0.000636882 -1.34024e-06
9.30003e-06 -1.34024e-06 0.000645453
0.00243128 3.16688e-05 8.7224e-06
3.16688e-05 0.00112406 -5.26407e-06
8.7224e-06 -5.26407e-06 0.00113766
0.000395265 9.56081e-06 1.14754e-06
9.56081e-06 -5.66701e-05 -1.41715e-07
1.14754e-06 -1.41715e-07 -0.00016793
0.000273344 9.67315e-06 5.84221e-08
9.67315e-06 -0.000163141 -3.12213e-06
5.84221e-08 -3.12213e-06 -0.000218222
0.000698068 3.01026e-05 5.93113e-09
3.01026e-05 0.00012253 1.26783e-07
5.93113e-09 1.26783e-07 2.64029e-05
0.000538104 -4.1769e-06 6.68786e-07
-4.1769e-06 -3.24203e-05 -3.58605e-06
6.68786e-07 -3.58605e-06 -4.22869e-05
0.000402741 1.45531e-06 1.35553e-06
1.45531e-06 -8.62754e-05 -4.40837e-08
1.35553e-06 -4.40837e-08 -0.000132647
0.000394554 -8.88407e-05 -1.75174e-06
-8.88407e-05 -5.85885e-05 2.57546e-07
-1.75174e-06 2.57546e-07 -0.000147169
0.0020772 -9.93186e-06 -7.57512e-06
-9.93186e-06 0.000905607 -4.75106e-06
-7.57512e-06 -4.75106e-06 0.000924
0.000536072 -1.09248e-06 -8.5637e-08
-1.09248e-06 -3.37764e-05 -4.77254e-08
-8.5637e-08 -4.77254e-08 -4.18555e-05
0.000525732 -1.96232e-05 -1.94582e-06
-1.96232e-05 -1.09241e-05 1.84022e-06
-1.94582e-06 1.84022e-06 -5.22412e-05
0.00202481 5.07857e-06 -4.15324e-06
5.07857e-06 0.000874128 1.68536e-08
-4.15324e-06 1.68536e-08 0.000892879
0.000520031 2.83966e-06 -7.51577e-07
2.83966e-06 -4.31304e-05 3.17675e-06
-7.51577e-07 3.17675e-06 -5.05595e-05
0.0020046 1.96863e-05 -1.45958e-06
1.96863e-05 0.000863367 4.52555e-06
-1.45958e-06 4.52555e-06 0.000881643
0.000286699 -0.000319715 -0.000144456
-0.000319715 -0.000269888 3.52155e-05
-0.000144456 3.52155e-05 -0.00217697
0.00124739 0.000247561 -4.87178e-05
0.000247561 0.00466678 -1.00819e-06
-4.87178e-05 -1.00819e-06 0.00252607
0.00105034 -0.000327039 -0.000416801
-0.000327039 0.00254216 4.79494e-05
-0.000416801 4.79494e-05 0.00129066
0.000739665 9.65833e-05 2.77469e-06
9.65833e-05 0.000150185 1.55742e-06
2.77469e-06 1.55742e-06 1.04718e-05
0.00367241 -0.000411291 -1.55891e-05
-0.000411291 0.00265472 0.000133024
-1.55891e-05 0.000133024 0.0010942
0.00376658 -0.000715685 -0.000164444
-0.000715685 0.00141139 1.11051e-05
-0.000164444 1.11051e-05 -0.00225348
0.00441695 0.00120589 0.000276017
0.00120589 0.00468687 -0.000203147
0.000276017 -0.000203147 0.0027157
0.00513749 -0.000416452 5.35345e-05
-0.000416452 0.000616915 -3.41929e-05
5.35345e-05 -3.41929e-05 0.000426657
0.0122549 -0.000970232 0.00016527
-0.000970232 0.00229483 -7.81375e-05
0.00016527 -7.81375e-05 0.000687886
0.000904051 0.00265449 -0.000262579
0.00265449 -0.00280117 0.000236192
-0.000262579 0.000236192 -0.00287632
0.00789495 0.00247192 3.1926e-05
0.00247192 0.0013506 8.82261e-05
3.1926e-05 8.82261e-05 9.08696e-05
0.00556734 -0.00116079 -0.000108249
-0.00116079 0.000219983 -4.05078e-06
-0.000108249 -4.05078e-06 0.000109009
0.0134273 -0.00159943 5.3272e-05
-0.00159943 0.0042476 -1.90278e-05
5.3272e-05 -1.90278e-05 0.00203439
0.00802102 0.00163333 0.000105841
0.00163333 0.00118242 -0.000183719
0.000105841 -0.000183719 -0.000146879
0.0077384 0.00101958 9.17798e-06
0.00101958 -0.00136508 1.61922e-05
9.17798e-06 1.61922e-05 -0.000482298
0.00264229 -0.0015437 -4.30118e-07
-0.0015437 -0.000217478 1.91744e-05
-4.30118e-07 1.91744e-05 -0.000746516
0.0115055 -0.00222873 0.000118593
-0.00222873 0.00515035 -6.75629e-05
0.000118593 -6.75629e-05 0.00122172
0.00507775 -4.59555e-05 0.000101789
-4.59555e-05 0.00153231 -0.000271267
0.000101789 -0.000271267 0.000323833
0.00908696 0.000562287 -7.14316e-05
0.000562287 -0.00117803 0.000152603
-7.14316e-05 0.000152603 0.00101146
0.000808201 -1.9642e-05 3.21987e-06
-1.9642e-05 0.000240258 3.20352e-06
3.21987e-06 3.20352e-06 6.74991e-05
0.000856021 -8.0023e-05 -4.84167e-07
-8.0023e-05 0.000287251 -1.96251e-08
-4.84167e-07 -1.96251e-08 0.000109288
0.00075213 0.000117472 -2.51003e-07
0.000117472 0.000186918 -3.87122e-06
-2.51003e-07 -3.87122e-06 5.63001e-05
0.000706457 6.85872e-05 1.4103e-06
6.85872e-05 0.000117965 4.35165e-06
1.4103e-06 4.35165e-06 -1.77634e-05
0.000745343 0.00011333 -3.05047e-07
0.00011333 0.000186295 7.47023e-07
-3.05047e-07 7.47023e-07 2.61907e-05
0.000915908 6.92537e-05 -3.546e-06
6.92537e-05 0.000289235 -2.11753e-06
-3.546e-06 -2.11753e-06 0.000157104
0.00100295 0.000138006 -1.07422e-06
0.000138006 0.000333787 -4.51142e-08
-1.07422e-06 -4.51142e-08 0.000185389
0.00100603 0.000147627 5.23414e-07
0.000147627 0.000353313 1.85445e-06
5.23414e-07 1.85445e-06 0.000204103
0.000528362 -0.00034584 6.85687e-05
-0.00034584 -0.000620703 -2.89536e-05
6.85687e-05 -2.89536e-05 -0.000598553
0.00181 -0.000596085 9.54186e-06
-0.000596085 0.00020011 -1.04686e-05
9.54186e-06 -1.04686e-05 0.000157847
0.000887791 -0.000190904 -1.19997e-06
-0.000190904 0.000312876 -9.41652e-06
-1.19997e-06 -9.41652e-06 0.000110695
0.00127937 -0.000495232 2.18078e-05
-0.000495232 0.000503255 -1.83168e-05
2.18078e-05 -1.83168e-05 0.000200655
0.00225342 -0.000282807 -7.69756e-06
-0.000282807 0.00119418 1.34849e-06
-7.69756e-06 1.34849e-06 0.000898161
0.00107824 -9.2564e-05 -2.2116e-06
-9.2564e-05 0.000407617 -1.20283e-05
-2.2116e-06 -1.20283e-05 0.000218268
0.000356189 -2.68418e-05 1.13771e-06
-2.68418e-05 -4.08461e-05 4.02693e-06
1.13771e-06 4.02693e-06 -0.000207996
0.00018641 -0.00069118 -2.86643e-06
-0.00069118 -0.000777789 -1.23456e-06
-2.86643e-06 -1.23456e-06 -0.000754163
0.00123752 3.72941e-05 -1.00031e-07
3.72941e-05 0.00059991 4.4988e-07
-1.00031e-07 4.4988e-07 0.000346555
0.000887368 -0.000191783 -4.30098e-06
-0.000191783 0.000465213 2.75615e-06
-4.30098e-06 2.75615e-06 0.000134717
0.000438213 -0.000276482 1.87633e-05
-0.000276482 -2.19493e-05 2.51757e-06
1.87633e-05 2.51757e-06 -8.58763e-05
0.00119751 9.72315e-05 1.13621e-06
9.72315e-05 0.000427446 -1.73036e-06
1.13621e-06 -1.73036e-06 0.000287437
0.00134362 -0.000653248 4.71797e-06
-0.000653248 0.000113432 -3.62181e-05
4.71797e-06 -3.62181e-05 0.000152513
4.54153e-05 -0.00022186 -7.19267e-06
-0.00022186 4.42083e-05 1.59567e-05
-7.19267e-06 1.59567e-05 -0.000120014
-0.000695181 5.45464e-05 7.34563e-06
5.45464e-05 -0.000160765 5.15176e-06
7.34563e-06 5.15176e-06 -0.00066736
0.00124903 0.000204417 2.77497e-06
0.000204417 0.000547611 -4.69672e-06
2.77497e-06 -4.69672e-06 0.000364233
-0.00020671 1.95227e-05 1.35263e-05
1.95227e-05 0.000805526 -4.32382e-06
1.35263e-05 -4.32382e-06 0.000186622
0.00106176 -3.88345e-05 0.000101317
-3.88345e-05 0.00119308 -1.92328e-05
0.000101317 -1.92328e-05 -0.00138016
-0.00734383 -0.000123906 -0.000179449
-0.000123906 0.00363915 1.24291e-05
-0.000179449 1.24291e-05 -0.00027071
0.00128133 0.000302928 1.51461e-05
0.000302928 0.000698023 4.35136e-06
1.51461e-05 4.35136e-06 0.000516234
-0.00161787 0.000356137 1.41016e-06
0.000356137 -0.000886494 9.99976e-06
1.41016e-06 9.99976e-06 -0.00120618
0.00473153 0.000228898 0.000142083
0.000228898 0.00258664 1.36036e-05
0.000142083 1.36036e-05 0.00117708
0.00812138 0.00157689 0.000205735
0.00157689 0.00350103 0.000108301
0.000205735 0.000108301 -0.000392287
0.00337098 0.00121361 -9.8159e-05
0.00121361 0.0018204 -8.57086e-05
-9.8159e-05 -8.57086e-05 0.000662755
0.00506699 -0.00127345 -6.8429e-05
-0.00127345 0.00229186 -0.000297441
-6.8429e-05 -0.000297441 9.39902e-05
0.00134988 0.000253433 7.26063e-05
0.000253433 9.25687e-05 0.000148015
7.26063e-05 0.000148015 -0.00145443
0.00523668 -9.719e-05 -2.53427e-05
-9.719e-05 -0.00483227 -0.00016635
-2.53427e-05 -0.00016635 -0.00164988
0.000817036 0.000250553 -8.74649e-07
0.000250553 0.000567525 -2.65304e-06
-8.74649e-07 -2.65304e-06 0.000344517
-0.00068096 -2.5373e-05 -2.95371e-07
-2.5373e-05 -0.000128182 -1.16081e-06
-2.95371e-07 -1.16081e-06 -0.000100633
0.00321836 6.37767e-05 5.85692e-05
6.37767e-05 9.00808e-05 2.06184e-05
5.85692e-05 2.06184e-05 -0.000438813
-0.00110593 0.000228248 -8.72402e-06
0.000228248 -0.000336954 -6.50833e-06
-8.72402e-06 -6.50833e-06 -0.000852849
0.00778279 0.00111889 -7.4414e-06
0.00111889 -0.00134264 -1.37372e-05
-7.4414e-06 -1.37372e-05 -0.000503772
0.00437925 0.00122648 0.000143692
0.00122648 0.00326513 8.35855e-05
0.000143692 8.35855e-05 -0.00121065
0.00444313 0.000577772 -0.000106703
0.000577772 0.00275368 5.3111e-06
-0.000106703 5.3111e-06 0.000829145
0.000256672 0.000247138 -1.20476e-05
0.000247138 0.000277703 -1.93689e-05
-1.20476e-05 -1.93689e-05 -5.16519e-05
0.00146811 8.77258e-05 1.32096e-05
8.77258e-05 -0.000330458 -1.99447e-05
1.32096e-05 -1.99447e-05 -6.74859e-05
0.00352667 -0.000376213 1.49936e-05
-0.000376213 0.00262535 -0.000135289
1.49936e-05 -0.000135289 0.0011328
0.0104887 0.00250779 0.000259517
0.00250779 0.00193317 -0.000182784
0.000259517 -0.000182784 0.00140617
0.00637055 -0.000117199 -9.9742e-05
-0.000117199 0.00206116 0.000275135
-9.9742e-05 0.000275135 0.000886299
0.000789108 0.000224876 -7.93432e-07
0.000224876 0.000313925 -8.91237e-05
-7.93432e-07 -8.91237e-05 4.62769e-05
0.000144154 0.00130049 0.000163026
0.00130049 0.00338454 3.28016e-05
0.000163026 3.28016e-05 -0.00323876
0.00148834 0.000268168 3.10862e-06
0.000268168 0.000807944 2.03732e-05
3.10862e-06 2.03732e-05 0.000554138
0.000356429 0.000130728 2.7943e-06
0.000130728 0.000404876 3.64076e-07
2.7943e-06 3.64076e-07 0.000120273
0.000604446 -9.13164e-06 -1.22931e-05
-9.13164e-06 0.000600492 -1.2025e-05
-1.22931e-05 -1.2025e-05 0.000399861
0.000275615 -3.04512e-05 6.23172e-07
-3.04512e-05 -0.000128596 4.32315e-06
6.23172e-07 4.32315e-06 -0.000249831
0.0011077 -1.51511e-06 2.80256e-06
-1.51511e-06 0.000612118 2.51304e-06
2.80256e-06 2.51304e-06 0.000399136
0.000673783 -1.75703e-06 2.31445e-06
-1.75703e-06 0.000583249 -3.6661e-06
2.31445e-06 -3.6661e-06 0.000243322
0.00047915 -4.83802e-05 5.51445e-07
-4.83802e-05 0.000176612 -2.65636e-07
5.51445e-07 -2.65636e-07 1.84573e-05
-1.34022e-05 -1.64951e-05 2.20306e-06
-1.64951e-05 0.000102834 1.61449e-06
2.20306e-06 1.61449e-06 -0.000125343
0.00139157 -0.000238515 4.41771e-06
-0.000238515 0.000797417 -1.21724e-05
4.41771e-06 -1.21724e-05 0.000574777
0.00121714 -7.5724e-05 -2.80054e-06
-7.5724e-05 0.000502446 6.00498e-06
-2.80054e-06 6.00498e-06 0.000403356
-9.5787e-05 -1.92596e-05 -3.47112e-08
-1.92596e-05 -0.000346568 2.59106e-06
-3.47112e-08 2.59106e-06 -0.000452938
0.00138859 -0.000182217 2.08774e-06
-0.000182217 0.000549153 2.32854e-06
2.08774e-06 2.32854e-06 0.000424164
-0.00118622 -0.000139958 8.62376e-06
-0.000139958 -0.000840844 3.07161e-06
8.62376e-06 3.07161e-06 -0.00107756
0.000206187 -8.97839e-05 -2.83637e-06
-8.97839e-05 -0.000191203 1.52031e-06
-2.83637e-06 1.52031e-06 -0.000244581
-0.000173614 -0.000193733 3.32535e-06
-0.000193733 -0.000445227 -1.64243e-06
3.32535e-06 -1.64243e-06 -0.000625068
0.00115625 -0.000362238 8.76689e-06
-0.000362238 0.000215026 -5.99517e-06
8.76689e-06 -5.99517e-06 -9.22826e-05
0.00151077 -0.000415266 -3.01735e-06
-0.000415266 0.000322114 8.23897e-07
-3.01735e-06 8.23897e-07 1.62451e-05
0.00216428 -0.000310894 -7.43717e-07
-0.000310894 0.000929251 5.67484e-07
-7.43717e-07 5.67484e-07 0.000739847
0.00109363 -0.000313644 8.7695e-07
-0.000313644 0.00019244 2.3817e-07
8.7695e-07 2.3817e-07 -7.28345e-05
0.00187499 -0.000390189 2.47596e-06
-0.000390189 0.000600941 -2.05539e-06
2.47596e-06 -2.05539e-06 0.00034359
0.000640427 -0.000213036 -1.70338e-06
-0.000213036 1.08636e-05 4.02301e-06
-1.70338e-06 4.02301e-06 -0.000222197
0.00104519 -0.000285715 -7.71967e-07
-0.000285715 0.000150384 -1.54256e-06
-7.71967e-07 -1.54256e-06 -9.8687e-05
0.000419147 -8.9622e-05 6.33401e-07
-8.9622e-05 -1.61541e-05 -1.82141e-06
6.33401e-07 -1.82141e-06 -0.000197703
0.00110829 -0.000242928 -4.65217e-06
-0.000242928 0.000395428 2.6587e-06
-4.65217e-06 2.6587e-06 0.000177312
-0.000681205 -7.48494e-05 -3.26618e-06
-7.48494e-05 -0.000799927 -4.12027e-06
-3.26618e-06 -4.12027e-06 -0.000998352
0.000509498 -1.34616e-05 1.05233e-06
-1.34616e-05 -4.94559e-06 1.52309e-06
1.05233e-06 1.52309e-06 -0.000118718
0.00065269 -8.39266e-05 2.60163e-07
-8.39266e-05 0.000115292 -1.86925e-07
2.60163e-07 -1.86925e-07 -3.4389e-05
0.000720417 -0.000137253 5.33229e-06
-0.000137253 0.00017494 -2.79273e-06
5.33229e-06 -2.79273e-06 6.78209e-06
0.00057 -4.57573e-05 3.86134e-07
-4.57573e-05 5.48251e-05 -2.94553e-07
3.86134e-07 -2.94553e-07 -7.01784e-05
0.000687072 -3.94636e-05 -7.16891e-07
-3.94636e-05 0.000108184 -4.3535e-08
-7.16891e-07 -4.3535e-08 -2.29672e-06
0.000532782 2.69118e-05 3.43962e-07
2.69118e-05 -2.447e-06 3.56922e-06
3.43962e-07 3.56922e-06 -7.8305e-05
0.0007778 -6.8371e-05 2.5446e-07
-6.8371e-05 0.000175178 -1.2057e-06
2.5446e-07 -1.2057e-06 6.27052e-05
0.000580147 1.98961e-05 -1.18252e-06
1.98961e-05 2.64376e-05 -1.84519e-07
-1.18252e-06 -1.84519e-07 -4.37049e-05
0.000508155 3.52819e-05 -8.91011e-07
3.52819e-05 -3.82663e-05 5.1313e-06
-8.91011e-07 5.1313e-06 -6.30258e-05
0.000674144 -3.29235e-05 2.22934e-06
-3.29235e-05 7.69737e-05 -2.78886e-06
2.22934e-06 -2.78886e-06 1.24341e-05
0.000517645 2.4622e-05 2.23952e-07
2.4622e-05 -3.8583e-05 4.02957e-09
2.23952e-07 4.02957e-09 -6.08369e-05
0.00241423 8.29667e-05 -3.51862e-06
8.29667e-05 0.00112174 2.19773e-06
-3.51862e-06 2.19773e-06 0.00112934
0.000508885 1.62224e-05 9.62253e-07
1.62224e-05 -4.47077e-05 -4.89529e-06
9.62253e-07 -4.89529e-06 -6.6062e-05
0.00165673 4.8579e-05 1.11241e-05
4.8579e-05 0.000655785 -1.12779e-06
1.11241e-05 -1.12779e-06 0.000662443
0.00247551 4.72903e-05 1.42619e-05
4.72903e-05 0.00115239 -5.23514e-06
1.42619e-05 -5.23514e-06 0.0011646
0.000345966 8.94419e-06 9.64489e-07
8.94419e-06 -0.000102198 -1.46345e-06
9.64489e-07 -1.46345e-06 -0.000207253
0.000292693 4.75784e-06 4.69025e-07
4.75784e-06 -0.00015446 -2.7438e-06
4.69025e-07 -2.7438e-06 -0.000217183
0.000534949 2.02241e-05 -4.71944e-07
2.02241e-05 2.72303e-05 -1.13718e-06
-4.71944e-07 -1.13718e-06 -8.10564e-05
0.000545903 -9.13785e-06 1.0567e-06
-9.13785e-06 -2.72815e-05 -3.89417e-06
1.0567e-06 -3.89417e-06 -3.98112e-05
0.000257432 7.89331e-06 -5.50656e-07
7.89331e-06 -0.00017324 -1.42054e-06
-5.50656e-07 -1.42054e-06 -0.000229448
0.000700948 3.87605e-05 -4.3904e-07
3.87605e-05 0.000133937 1.24916e-06
-4.3904e-07 1.24916e-06 3.17145e-05
0.00211749 -2.32216e-05 -1.26815e-05
-2.32216e-05 0.000930276 -4.66219e-06
-1.26815e-05 -4.66219e-06 0.000947958
0.00053417 -5.11501e-06 -3.14904e-07
-5.11501e-06 -3.50846e-05 -5.66071e-08
-3.14904e-07 -5.66071e-08 -4.47286e-05
0.000213379 7.45158e-06 8.63521e-07
7.45158e-06 -0.000198774 1.597e-06
8.63521e-07 1.597e-06 -0.000248205
0.00204714 -8.41854e-06 -3.81185e-06
-8.41854e-06 0.000887094 4.69003e-08
-3.81185e-06 4.69003e-08 0.000905752
0.000527514 -1.28177e-06 -7.97521e-07
-1.28177e-06 -3.92019e-05 3.40097e-06
-7.97521e-07 3.40097e-06 -4.7102e-05
0.00204689 6.59282e-06 3.36508e-06
6.59282e-06 0.000887823 4.66852e-06
3.36508e-06 4.66852e-06 0.000906369
0.000526422 -9.21621e-06 3.71111e-05
-9.21621e-06 0.000725206 6.85418e-06
3.71111e-05 6.85418e-06 0.000642247
0.000324616 -0.000205738 -1.2584e-05
-0.000205738 6.71489e-05 -1.49036e-05
-1.2584e-05 -1.49036e-05 -0.00217813
0.000854487 0.000164808 2.94218e-05
0.000164808 0.00450561 -2.33672e-05
2.94218e-05 -2.33672e-05 0.00251798
0.000748856 0.000103946 -8.08142e-08
0.000103946 0.000148259 3.36712e-07
-8.08142e-08 3.36712e-07 1.724e-05
0.000525604 7.15796e-05 2.63926e-06
7.15796e-05 -2.48555e-06 3.08962e-07
2.63926e-06 3.08962e-07 -0.00012414
0.000968567 0.000147235 3.80968e-06
0.000147235 0.000280598 3.61071e-06
3.80968e-06 3.61071e-06 0.000141845
0.00349709 -7.05136e-05 -4.1057e-06
-7.05136e-05 -0.000205987 0.00019843
-4.1057e-06 0.00019843 -0.000972497
0.00364144 -0.000369928 3.62364e-05
-0.000369928 0.00254366 -7.03418e-06
3.62364e-05 -7.03418e-06 0.00126418
0.00425007 -0.000802842 7.98563e-05
-0.000802842 0.00172149 -0.000150912
7.98563e-05 -0.000150912 -0.00208816
0.00722234 -0.00145517 -7.93655e-05
-0.00145517 0.000890233 -1.45005e-05
-7.93655e-05 -1.45005e-05 0.000887437
0.00186977 -0.00147721 -0.000192654
-0.00147721 -0.000658551 9.88645e-05
-0.000192654 9.88645e-05 -0.00345626
0.0152901 0.00231464 0.000125082
0.00231464 0.00573277 6.71011e-05
0.000125082 6.71011e-05 0.00406143
0.00434785 0.00022895 0.00012784
0.00022895 -0.00312345 -0.000140682
0.00012784 -0.000140682 -0.00264755
0.00509876 -0.00180399 -2.76327e-05
-0.00180399 0.000903314 9.14826e-06
-2.76327e-05 9.14826e-06 0.000478212
0.00703987 -0.00188818 -5.34562e-05
-0.00188818 0.00304267 2.46323e-05
-5.34562e-05 2.46323e-05 -0.000737422
-0.00334905 0.00198478 -5.48787e-05
0.00198478 0.00106795 -0.000188128
-5.48787e-05 -0.000188128 -0.001789
0.00715104 0.000182812 -3.06373e-05
0.000182812 -0.00305766 8.196e-05
-3.06373e-05 8.196e-05 -0.000314222
0.00102243 -0.00100052 -6.15684e-05
-0.00100052 0.00014226 5.01097e-07
-6.15684e-05 5.01097e-07 -0.00029185
0.0114583 -0.00198027 -0.000130764
-0.00198027 0.00522323 9.44189e-05
-0.000130764 9.44189e-05 0.00108111
-0.00707368 -8.13967e-05 3.65654e-05
-8.13967e-05 0.000521938 -0.000253938
3.65654e-05 -0.000253938 -0.00222712
0.00603472 -0.00116026 5.8359e-05
-0.00116026 -0.00200767 7.41766e-06
5.8359e-05 7.41766e-06 -0.000975078
0.000578937 7.13729e-05 2.25792e-06
7.13729e-05 5.6751e-05 8.98672e-06
2.25792e-06 8.98672e-06 -8.56369e-05
0.000718783 -1.50733e-05 1.75896e-06
-1.50733e-05 0.000180966 -1.46476e-06
1.75896e-06 -1.46476e-06 3.49971e-06
0.000830567 -0.000101538 -4.53082e-07
-0.000101538 0.000250054 -5.19973e-06
-4.53082e-07 -5.19973e-06 7.5803e-05
0.000704027 8.71577e-05 -1.15516e-06
8.71577e-05 0.000117888 -1.14585e-07
-1.15516e-06 -1.14585e-07 -2.12336e-05
0.000748897 0.000122309 1.36438e-07
0.000122309 0.000191052 -2.20875e-06
1.36438e-07 -2.20875e-06 3.80115e-05
0.00111863 0.000150081 -3.08903e-06
0.000150081 0.00040924 -1.72731e-06
-3.08903e-06 -1.72731e-06 0.000256869
-0.000470683 -0.000638009 1.89629e-05
-0.000638009 -0.00115445 5.70193e-06
1.89629e-05 5.70193e-06 -0.0011376
-0.000691029 -0.000209913 2.02914e-05
-0.000209913 -0.000661792 -1.64782e-05
2.02914e-05 -1.64782e-05 -0.000682735
0.000266432 2.80993e-05 -2.9126e-06
2.80993e-05 -8.85651e-05 -4.75447e-06
-2.9126e-06 -4.75447e-06 -0.000263742
0.00136146 -0.000307323 4.33472e-05
-0.000307323 0.000673953 -2.7711e-05
4.33472e-05 -2.7711e-05 0.000368311
0.00143899 -4.00586e-06 -4.9408e-06
-4.00586e-06 0.000714977 -6.84778e-06
-4.9408e-06 -6.84778e-06 0.000463951
0.000657085 8.11483e-05 8.35928e-07
8.11483e-05 0.000124975 2.39757e-06
8.35928e-07 2.39757e-06 -2.27086e-05
0.00075237 0.000136687 2.66778e-07
0.000136687 0.000250366 -2.44699e-06
2.66778e-07 -2.44699e-06 8.57281e-05
0.000338865 -0.000677658 8.05911e-07
-0.000677658 -0.000418895 -5.5773e-06
8.05911e-07 -5.5773e-06 -0.000510333
0.000525579 -5.12682e-06 -2.26716e-06
-5.12682e-06 0.000441414 1.15427e-06
-2.26716e-06 1.15427e-06 5.92584e-05
0.000473038 -0.000162004 3.23705e-06
-0.000162004 0.000311832 -3.61493e-06
3.23705e-06 -3.61493e-06 0.000102575
0.00116721 0.00013632 2.56528e-06
0.00013632 0.000461602 -5.49273e-06
2.56528e-06 -5.49273e-06 0.00032818
-0.00232175 -7.83386e-05 -7.01344e-05
-7.83386e-05 -0.000750927 -2.18358e-05
-7.01344e-05 -2.18358e-05 -0.00133021
-1.32069e-05 -6.78758e-05 -2.51522e-07
-6.78758e-05 0.000153342 1.21152e-05
-2.51522e-07 1.21152e-05 -4.61541e-05
0.00083438 6.05861e-05 8.38188e-06
6.05861e-05 0.000564606 4.3575e-06
8.38188e-06 4.3575e-06 0.000260816
0.000471339 1.27704e-05 -1.7936e-06
1.27704e-05 -0.000411096 8.02141e-07
-1.7936e-06 8.02141e-07 -0.00086123
-0.000490922 2.27706e-05 -3.28405e-06
2.27706e-05 0.00052236 -1.47561e-05
-3.28405e-06 -1.47561e-05 2.50209e-05
0.000252725 -6.61601e-05 0.000221715
-6.61601e-05 0.000769341 -2.03556e-06
0.000221715 -2.03556e-06 -0.00186956
2.33709e-05 0.000221219 1.98351e-06
0.000221219 0.000108819 1.86753e-05
1.98351e-06 1.86753e-05 -0.000137294
0.000889757 0.000527981 2.45012e-06
0.000527981 0.000248381 -8.91068e-06
2.45012e-06 -8.91068e-06 -0.000150199
-0.000633951 -3.54436e-05 8.54431e-06
-3.54436e-05 -0.000145454 -2.32712e-06
8.54431e-06 -2.32712e-06 -0.000182615
-0.00348558 0.000618585 4.68246e-05
0.000618585 0.000905092 0.000105972
4.68246e-05 0.000105972 -0.00347716
-0.00850557 0.000827056 -0.000128977
0.000827056 -0.00345816 -0.000323508
-0.000128977 -0.000323508 -0.00623381
0.00296949 8.53377e-05 5.23349e-05
8.53377e-05 0.000197353 8.36116e-05
5.23349e-05 8.36116e-05 4.73996e-05
0.0043368 0.00029624 -0.000133722
0.00029624 -0.00301992 0.0001416
-0.000133722 0.0001416 -0.00261962
0.000468938 0.000221689 4.05431e-06
0.000221689 0.000415374 -1.24805e-06
4.05431e-06 -1.24805e-06 0.000133164
0.00121942 2.04644e-05 1.92896e-05
2.04644e-05 -0.000449666 -2.88957e-05
1.92896e-05 -2.88957e-05 -0.000156201
0.00349073 -0.000282554 -3.75566e-05
-0.000282554 0.00250275 7.62533e-06
-3.75566e-05 7.62533e-06 0.00122609
0.000882347 0.000340138 -6.84653e-05
0.000340138 0.000823083 -5.64369e-06
-6.84653e-05 -5.64369e-06 -3.58137e-05
0.0068917 0.00247129 7.51351e-05
0.00247129 -0.000244121 -0.00023254
7.51351e-05 -0.00023254 -0.000889643
-0.00231202 0.00165971 5.18705e-05
0.00165971 0.0007575 0.000185837
5.18705e-05 0.000185837 -0.00174882
0.00718539 0.000227205 5.30459e-05
0.000227205 0.00621646 -2.55032e-05
5.30459e-05 -2.55032e-05 0.000235343
0.00135233 -4.25432e-05 4.77583e-05
-4.25432e-05 0.00139597 -2.27858e-05
4.77583e-05 -2.27858e-05 0.000767569
0.000557821 7.71869e-06 -3.47522e-05
7.71869e-06 0.000698882 1.85785e-06
-3.47522e-05 1.85785e-06 0.000617345
0.00288636 -0.000562373 0.000410188
-0.000562373 0.000991419 -0.000190542
0.000410188 -0.000190542 -0.00275639
0.00818873 0.00329992 5.29739e-06
0.00329992 0.0062497 -3.86364e-06
5.29739e-06 -3.86364e-06 0.00569411
-0.00165194 0.00193125 4.89389e-06
0.00193125 -0.00281309 0.000456933
4.89389e-06 0.000456933 -0.00387979
0.0127613 -0.00200473 0.000158728
-0.00200473 0.00542663 -0.000141044
0.000158728 -0.000141044 0.00112904
0.00307741 -0.000545743 -6.07339e-05
-0.000545743 0.001745 5.90669e-05
-6.07339e-05 5.90669e-05 0.00120728
0.00108494 0.000189744 7.98212e-06
0.000189744 0.000813954 5.809e-06
7.98212e-06 5.809e-06 0.000524904
0.000127726 -1.29026e-05 -2.06121e-05
-1.29026e-05 0.000273448 2.43334e-07
-2.06121e-05 2.43334e-07 6.29859e-05
0.00159319 -0.00032917 2.30422e-05
-0.00032917 0.00100593 -9.47667e-06
2.30422e-05 -9.47667e-06 0.000661582
0.000766458 -8.01305e-05 1.07222e-06
-8.01305e-05 0.000315353 3.27577e-06
1.07222e-06 3.27577e-06 0.000184015
5.25981e-05 -4.24859e-05 -2.82476e-06
-4.24859e-05 0.000136762 3.70054e-06
-2.82476e-06 3.70054e-06 -9.8854e-05
0.000498894 -0.000214089 -1.92515e-06
-0.000214089 0.000352486 -6.14465e-07
-1.92515e-06 -6.14465e-07 0.000129019
0.00127304 -0.00039206 2.49368e-05
-0.00039206 0.000545476 -2.05957e-05
2.49368e-05 -2.05957e-05 0.000349883
0.00215802 -0.000257104 -4.5753e-06
-0.000257104 0.000993888 4.39421e-06
-4.5753e-06 4.39421e-06 0.00084894
0.00195133 -0.000447116 7.86604e-06
-0.000447116 0.000845176 -1.41153e-06
7.86604e-06 -1.41153e-06 0.000577505
0.00184571 -0.000465932 1.47435e-05
-0.000465932 0.000772563 2.56845e-07
1.47435e-05 2.56845e-07 0.000329851
0.000361802 -0.000202097 -3.53631e-06
-0.000202097 -0.000148645 -1.81125e-06
-3.53631e-06 -1.81125e-06 -0.000305892
0.00146438 -0.000390992 -3.17961e-06
-0.000390992 0.000363593 8.14296e-07
-3.17961e-06 8.14296e-07 5.29814e-05
0.00196639 -0.000523683 2.51322e-07
-0.000523683 0.000596663 1.28419e-06
2.51322e-07 1.28419e-06 0.000191867
0.00164327 -0.000525783 -3.40858e-06
-0.000525783 0.000304065 2.46965e-06
-3.40858e-06 2.46965e-06 -4.42148e-05
0.00144536 -0.000399378 -1.93741e-06
-0.000399378 0.000306984 1.70339e-06
-1.93741e-06 1.70339e-06 1.80976e-05
0.00139987 -0.000408389 -2.66237e-06
-0.000408389 0.000252664 1.36524e-06
-2.66237e-06 1.36524e-06 -5.5429e-05
0.0011688 -0.000322856 -6.57654e-06
-0.000322856 0.000207981 1.90551e-06
-6.57654e-06 1.90551e-06 -6.83626e-05
0.00227861 -0.00041067 3.37872e-06
-0.00041067 0.000891769 -2.67972e-07
3.37872e-06 -2.67972e-07 0.000640293
0.00146108 -0.000349499 3.97112e-06
-0.000349499 0.00035129 -2.47652e-06
3.97112e-06 -2.47652e-06 0.000101093
-0.000122602 -8.33031e-05 2.0083e-07
-8.33031e-05 -0.000397181 3.36988e-07
2.0083e-07 3.36988e-07 -0.000597998
0.00107526 -0.00026408 2.48332e-06
-0.00026408 0.0002843 -1.48554e-06
2.48332e-06 -1.48554e-06 4.24589e-05
0.00120496 -0.000295938 5.66905e-06
-0.000295938 0.000256855 -4.33141e-06
5.66905e-06 -4.33141e-06 8.50031e-06
0.000122658 -8.1157e-06 6.59905e-07
-8.1157e-06 -0.000219245 1.7273e-06
6.59905e-07 1.7273e-06 -0.000366933
0.000957414 -0.00013776 -5.21262e-07
-0.00013776 0.000311256 -4.03709e-08
-5.21262e-07 -4.03709e-08 0.000119685
0.00102994 -0.000252407 -1.86301e-06
-0.000252407 0.000353175 -1.78012e-06
-1.86301e-06 -1.78012e-06 0.00012973
0.000655308 3.35118e-06 -9.48903e-07
3.35118e-06 6.97408e-05 4.10469e-06
-9.48903e-07 4.10469e-06 -1.36142e-05
0.000773018 -5.52262e-05 -1.99561e-07
-5.52262e-05 0.000153025 -1.68151e-07
-1.99561e-07 -1.68151e-07 3.42041e-05
0.000419388 -6.39843e-05 4.70537e-08
-6.39843e-05 -1.44592e-05 6.25397e-07
4.70537e-08 6.25397e-07 -0.000163683
0.000731062 -5.86259e-05 1.8296e-07
-5.86259e-05 0.000138606 -1.45049e-06
1.8296e-07 -1.45049e-06 2.33952e-05
0.000620437 -1.43107e-05 -1.83445e-07
-1.43107e-05 4.42211e-05 -2.42112e-07
-1.83445e-07 -2.42112e-07 -2.91349e-05
0.000512685 4.13033e-05 -2.64309e-07
4.13033e-05 -2.88665e-05 5.95319e-06
-2.64309e-07 5.95319e-06 -5.70939e-05
0.000623179 -2.24561e-05 1.59675e-06
-2.24561e-05 4.63549e-05 -2.80692e-06
1.59675e-06 -2.80692e-06 -2.11736e-05
0.00052798 3.6459e-05 -4.35526e-07
3.6459e-05 -2.65006e-05 -7.13912e-08
-4.35526e-07 -7.13912e-08 -5.14563e-05
0.00248715 9.09505e-05 -2.78364e-05
9.09505e-05 0.00117282 4.19067e-06
-2.78364e-05 4.19067e-06 0.00117929
0.000528189 2.54972e-05 1.06537e-06
2.54972e-05 -3.22227e-05 -4.9368e-06
1.06537e-06 -4.9368e-06 -5.46118e-05
0.00163259 6.14811e-05 1.32384e-05
6.14811e-05 0.000645555 -9.16321e-07
1.32384e-05 -9.16321e-07 0.000650434
0.00250837 6.37174e-05 1.85833e-05
6.37174e-05 0.00117558 -4.92389e-06
1.85833e-05 -4.92389e-06 0.001186
0.000695056 7.33685e-05 1.43761e-06
7.33685e-05 0.000117548 -6.5413e-07
1.43761e-06 -6.5413e-07 3.46693e-06
0.000578438 3.28386e-05 3.07383e-07
3.28386e-05 1.67804e-05 -2.38329e-06
3.07383e-07 -2.38329e-06 -4.92486e-05
0.000517886 4.30466e-05 -1.18135e-06
4.30466e-05 1.47899e-05 -1.21392e-06
-1.18135e-06 -1.21392e-06 -9.91318e-05
0.000530785 -1.14659e-05 6.978e-07
-1.14659e-05 -3.57452e-05 -4.49221e-06
6.978e-07 -4.49221e-06 -5.17231e-05
0.000402615 2.50206e-05 -1.76497e-06
2.50206e-05 -8.71408e-05 -1.41308e-06
-1.76497e-06 -1.41308e-06 -0.000148897
0.000732977 5.29598e-05 -6.98852e-07
5.29598e-05 0.000147403 -1.19361e-06
-6.98852e-07 -1.19361e-06 4.01833e-05
0.00220907 -3.77115e-05 -1.73095e-05
-3.77115e-05 0.000987084 -4.65322e-06
-1.73095e-05 -4.65322e-06 0.00100323
0.000529595 -9.84683e-06 -1.58897e-07
-9.84683e-06 -3.74693e-05 -8.85594e-08
-1.58897e-07 -8.85594e-08 -4.97237e-05
0.000199449 6.48802e-06 -1.17674e-06
6.48802e-06 -0.000208628 4.98277e-07
-1.17674e-06 4.98277e-07 -0.000265723
0.00213258 -2.21994e-05 -4.51488e-06
-2.21994e-05 0.000939309 1.03775e-07
-4.51488e-06 1.03775e-07 0.000957054
0.000528565 -6.39517e-06 -1.10255e-06
-6.39517e-06 -3.86719e-05 3.42626e-06
-1.10255e-06 3.42626e-06 -4.81446e-05
0.0020745 -6.93788e-06 8.15778e-06
-6.93788e-06 0.000903626 4.71917e-06
8.15778e-06 4.71917e-06 0.000922211
0.00132498 -7.87724e-05 -1.92392e-05
-7.87724e-05 -0.000354152 2.41775e-05
-1.92392e-05 2.41775e-05 -0.000123413
0.000451925 -8.4921e-05 2.24364e-05
-8.4921e-05 0.000644962 -1.4818e-06
2.24364e-05 -1.4818e-06 0.000573353
0.000381254 -0.000193481 0.000127449
-0.000193481 0.000209951 -5.54794e-05
0.000127449 -5.54794e-05 -0.00213858
0.000469327 3.51605e-05 1.9949e-06
3.51605e-05 -4.79668e-05 4.67395e-07
1.9949e-06 4.67395e-07 -0.000165604
0.00118873 7.49006e-05 -2.52955e-07
7.49006e-05 0.000372469 2.6116e-06
-2.52955e-07 2.6116e-06 0.000237928
0.000773095 0.000114129 -9.86096e-07
0.000114129 0.000162498 -7.21189e-07
-9.86096e-07 -7.21189e-07 3.58809e-05
0.000538985 5.72631e-05 3.30688e-07
5.72631e-05 -3.16642e-06 4.86928e-07
3.30688e-07 4.86928e-07 -0.000118113
0.000636609 7.58364e-05 1.464e-07
7.58364e-05 7.53164e-05 1.41653e-07
1.464e-07 1.41653e-07 -5.34995e-05
0.000607508 6.708e-05 2.00182e-06
6.708e-05 4.75586e-05 -7.01656e-07
2.00182e-06 -7.01656e-07 -7.26458e-05
0.000638975 0.000159313 5.27913e-06
0.000159313 0.000109886 3.62604e-06
5.27913e-06 3.62604e-06 -3.76435e-05
0.000202067 0.000188693 7.63561e-05
0.000188693 -0.000276634 0.00019606
7.63561e-05 0.00019606 -0.00156226
0.00312106 -4.74867e-05 -1.8201e-05
-4.74867e-05 8.03343e-05 5.53638e-05
-1.8201e-05 5.53638e-05 -0.000495934
0.00344971 -0.000280388 6.0547e-05
-0.000280388 0.00238512 -7.97185e-05
6.0547e-05 -7.97185e-05 0.0014027
0.00521555 -0.000134731 -8.83725e-06
-0.000134731 -0.00497108 9.29692e-05
-8.83725e-06 9.29692e-05 -0.00160555
0.0031567 -0.00151245 -9.09781e-05
-0.00151245 0.000890554 6.69468e-05
-9.09781e-05 6.69468e-05 0.000281205
-0.00178129 -0.00195276 -5.98798e-05
-0.00195276 0.000138485 9.4443e-05
-5.98798e-05 9.4443e-05 -0.00434461
0.0106886 0.00250925 8.67548e-05
0.00250925 0.00542939 -8.88615e-05
8.67548e-05 -8.88615e-05 0.00281637
0.00311939 -0.00135166 -3.38949e-05
-0.00135166 0.000698917 1.0018e-05
-3.38949e-05 1.0018e-05 0.000478401
-0.00100322 -0.000555932 1.22862e-05
-0.000555932 0.00210481 3.66383e-05
1.22862e-05 3.66383e-05 -0.00308124
0.00522338 0.00028025 6.63949e-05
0.00028025 0.00262162 -1.33945e-05
6.63949e-05 -1.33945e-05 0.000641465
0.011265 -0.00164585 -3.90686e-05
-0.00164585 0.00147129 -3.47418e-05
-3.90686e-05 -3.47418e-05 0.00278688
-0.000291445 -0.000220784 -0.000101844
-0.000220784 -0.000436135 8.46744e-05
-0.000101844 8.46744e-05 -0.000173656
0.00150919 0.00168813 -9.53717e-05
0.00168813 0.00287156 -8.23213e-05
-9.53717e-05 -8.23213e-05 -0.00242363
-0.00541331 -0.00283882 4.97957e-05
-0.00283882 -0.00270753 -0.000178428
4.97957e-05 -0.000178428 -0.00557846
0.00789899 -0.0017938 7.14106e-05
-0.0017938 0.000505451 -0.00035613
7.14106e-05 -0.00035613 0.000652295
0.000882562 2.86291e-05 7.71271e-06
2.86291e-05 0.000275975 2.32356e-06
7.71271e-06 2.32356e-06 0.000137685
0.000656068 9.7914e-05 -6.62012e-07
9.7914e-05 0.000110666 -1.15813e-06
-6.62012e-07 -1.15813e-06 -3.27921e-05
0.000782412 -1.73612e-05 -5.07528e-07
-1.73612e-05 0.000233482 -2.71156e-06
-5.07528e-07 -2.71156e-06 4.05582e-05
0.000827971 8.16728e-05 -2.35501e-06
8.16728e-05 0.000210578 -5.56906e-06
-2.35501e-06 -5.56906e-06 5.74934e-05
-1.99202e-06 -0.000516483 -5.38812e-06
-0.000516483 -0.000538882 3.67044e-05
-5.38812e-06 3.67044e-05 -0.000664133
0.00130432 -0.000164774 -7.9037e-06
-0.000164774 0.000890432 -1.70473e-05
-7.9037e-06 -1.70473e-05 0.000620852
0.00074566 5.89386e-05 -4.13914e-06
5.89386e-05 0.000156857 -5.96924e-06
-4.13914e-06 -5.96924e-06 2.85968e-05
0.000697719 0.000181423 -1.57689e-06
0.000181423 0.000228415 3.61236e-06
-1.57689e-06 3.61236e-06 5.90839e-05
0.00190113 3.29197e-05 3.76561e-06
3.29197e-05 0.00116335 -1.56295e-05
3.76561e-06 -1.56295e-05 0.000873577
0.000875352 7.78602e-05 4.47899e-06
7.78602e-05 0.000260598 3.21444e-06
4.47899e-06 3.21444e-06 0.000145111
0.000520389 0.000130428 -1.98711e-06
0.000130428 0.000411365 -3.32256e-07
-1.98711e-06 -3.32256e-07 8.26582e-05
0.000991398 -0.000206366 -2.38498e-06
-0.000206366 0.000914123 1.79546e-07
-2.38498e-06 1.79546e-07 0.000184164
-4.47321e-05 -3.25417e-05 2.69976e-05
-3.25417e-05 0.000234467 -1.3991e-06
2.69976e-05 -1.3991e-06 -1.38033e-05
0.000507063 0.000134398 2.60264e-06
0.000134398 0.000310215 -2.28223e-06
2.60264e-06 -2.28223e-06 9.49744e-05
0.000145801 -4.59493e-05 -4.02576e-05
-4.59493e-05 0.00118196 -4.53119e-05
-4.02576e-05 -4.53119e-05 -0.000161899
0.00251936 0.000199907 1.31287e-05
0.000199907 0.00155717 2.12917e-05
1.31287e-05 2.12917e-05 0.00122657
-0.000248175 3.06394e-05 -1.85921e-05
3.06394e-05 0.000846406 1.36421e-05
-1.85921e-05 1.36421e-05 0.000184827
0.00108672 -1.52671e-05 6.18066e-07
-1.52671e-05 -0.00014327 4.48386e-07
6.18066e-07 4.48386e-07 -0.000216361
-0.000706171 1.95469e-05 5.55117e-06
1.95469e-05 0.000231181 -2.71634e-05
5.55117e-06 -2.71634e-05 -0.000102703
0.000165576 0.000142765 -3.5327e-06
0.000142765 0.000317176 7.03955e-06
-3.5327e-06 7.03955e-06 9.12688e-05
-0.0013433 0.000438611 7.99189e-05
0.000438611 -0.000775371 6.71563e-05
7.99189e-05 6.71563e-05 -0.00117427
0.00105758 -1.2598e-05 2.73284e-05
-1.2598e-05 -0.000526425 -5.64919e-06
2.73284e-05 -5.64919e-06 -0.000147197
0.00267492 -0.00149647 0.000131896
-0.00149647 0.00377062 -0.000138404
0.000131896 -0.000138404 -0.00263322
0.0116357 0.00238359 -0.000106297
0.00238359 0.00531752 8.19137e-05
-0.000106297 8.19137e-05 0.00302448
0.00350933 -0.00020694 -6.37793e-05
-0.00020694 0.00230561 8.44889e-05
-6.37793e-05 8.44889e-05 0.00137436
0.00763317 0.00249192 -2.01907e-05
0.00249192 0.00137746 -8.31239e-05
-2.01907e-05 -8.31239e-05 0.000141993
0.000210494 0.000128205 -4.48678e-05
0.000128205 0.00071212 1.15348e-05
-4.48678e-05 1.15348e-05 5.00609e-05
0.000607449 -2.95037e-05 -2.60903e-05
-2.95037e-05 0.000610356 1.48597e-06
-2.60903e-05 1.48597e-06 0.000612818
0.00366682 -0.000686793 0.000163277
-0.000686793 0.00135839 -1.35381e-05
0.000163277 -1.35381e-05 -0.00228997
-0.00061895 -0.000194471 1.72286e-05
-0.000194471 -0.00030112 2.68904e-05
1.72286e-05 2.68904e-05 -0.000544985
0.00170918 0.00362579 0.000247214
0.00362579 0.0025547 -0.000120118
0.000247214 -0.000120118 0.00253915
0.00786033 0.00159504 -9.87054e-05
0.00159504 0.00105135 0.0001845
-9.87054e-05 0.0001845 -0.000128836
-0.00305323 -0.000853001 8.32838e-05
-0.000853001 0.00136141 -9.2028e-05
8.32838e-05 -9.2028e-05 -0.00438626
0.000297983 -0.000260043 3.71727e-05
-0.000260043 0.000523284 -1.37662e-05
3.71727e-05 -1.37662e-05 -8.04677e-05
0.000392558 -0.000302257 0.000135939
-0.000302257 -0.000314592 -3.12658e-05
0.000135939 -3.12658e-05 -0.00220123
-0.00228916 -7.9841e-06 -0.000439505
-7.9841e-06 0.00346965 9.13274e-05
-0.000439505 9.13274e-05 0.00101573
0.00693789 0.0034222 -0.000327048
0.0034222 0.00130623 0.000383909
-0.000327048 0.000383909 0.000897173
0.00788333 -0.00150601 -5.06632e-05
-0.00150601 0.00355385 1.59342e-05
-5.06632e-05 1.59342e-05 -1.14429e-05
0.002865 -0.000809563 -5.62223e-05
-0.000809563 0.00145214 3.8511e-05
-5.62223e-05 3.8511e-05 0.000999628
-0.00027175 1.31368e-06 1.94501e-05
1.31368e-06 1.36554e-05 1.04672e-05
1.94501e-05 1.04672e-05 -0.000203031
0.000369078 -0.000242362 9.95987e-07
-0.000242362 0.000370291 3.80926e-07
9.95987e-07 3.80926e-07 3.16131e-05
0.00113431 -0.000454088 1.53205e-05
-0.000454088 0.000483626 -2.34636e-06
1.53205e-05 -2.34636e-06 0.000345851
-0.000468071 -0.000184276 -3.82089e-06
-0.000184276 -0.000135065 7.4961e-06
-3.82089e-06 7.4961e-06 -0.000357027
-0.000697575 -0.000223112 6.51789e-07
-0.000223112 -0.000456863 -2.06617e-06
6.51789e-07 -2.06617e-06 -0.000657941
0.00274183 -0.00059469 3.92055e-05
-0.00059469 0.00108252 -3.69375e-06
3.92055e-05 -3.69375e-06 0.000825682
0.00491952 -0.000759479 -1.19699e-05
-0.000759479 0.00243236 4.77207e-06
-1.19699e-05 4.77207e-06 0.0021297
0.00251253 -0.000539657 7.58379e-06
-0.000539657 0.001062 1.89974e-07
7.58379e-06 1.89974e-07 0.000639187
0.00155747 -0.000524283 9.95887e-06
-0.000524283 0.000384532 -8.44774e-06
9.95887e-06 -8.44774e-06 -7.25901e-05
0.00148814 -0.000390128 -1.01758e-05
-0.000390128 0.000352666 1.88498e-06
-1.01758e-05 1.88498e-06 4.26928e-05
0.00215857 -0.000553598 1.53066e-06
-0.000553598 0.000674967 4.4016e-07
1.53066e-06 4.4016e-07 0.000261969
0.00219344 -0.0005912 3.29489e-06
-0.0005912 0.000650449 -7.34377e-06
3.29489e-06 -7.34377e-06 0.00023205
0.00198796 -0.000532147 -1.3218e-06
-0.000532147 0.000399883 -3.80593e-06
-1.3218e-06 -3.80593e-06 9.44604e-05
0.0018377 -0.000541256 -4.33246e-07
-0.000541256 0.000393193 2.01171e-06
-4.33246e-07 2.01171e-06 6.66251e-05
0.00180974 -0.000546502 -1.4082e-06
-0.000546502 0.000396073 9.71189e-09
-1.4082e-06 9.71189e-09 3.94145e-05
0.0015843 -0.000388909 5.96165e-06
-0.000388909 0.000402145 2.46787e-06
5.96165e-06 2.46787e-06 0.00014066
0.00134102 -0.000381269 5.56419e-07
-0.000381269 0.000244685 5.79909e-07
5.56419e-07 5.79909e-07 -3.32826e-05
0.00130079 -0.00040103 8.90846e-08
-0.00040103 0.000193588 2.16309e-08
8.90846e-08 2.16309e-08 -0.000116853
0.00133382 -0.000292436 3.86873e-06
-0.000292436 0.00038291 3.47186e-07
3.86873e-06 3.47186e-07 0.00014402
0.00128925 -0.000313395 -1.7091e-06
-0.000313395 0.000290976 -1.19009e-06
-1.7091e-06 -1.19009e-06 5.63157e-05
0.000963253 -0.000299814 1.00926e-05
-0.000299814 5.20177e-05 -6.58553e-06
1.00926e-05 -6.58553e-06 -0.000189079
0.000447468 -0.000123912 2.52513e-06
-0.000123912 -6.97781e-06 5.9999e-07
2.52513e-06 5.9999e-07 -0.00021202
0.000515254 -0.00014152 -1.36646e-06
-0.00014152 6.21438e-06 1.72288e-06
-1.36646e-06 1.72288e-06 -0.000206932
0.00149553 -0.000313999 4.53936e-06
-0.000313999 0.000547801 -5.42267e-06
4.53936e-06 -5.42267e-06 0.000297652
0.000477053 2.73338e-06 4.81431e-07
2.73338e-06 -3.6651e-05 4.87823e-06
4.81431e-07 4.87823e-06 -0.000133495
0.000693783 -5.06386e-05 -6.6589e-07
-5.06386e-05 0.00013252 -4.59876e-08
-6.6589e-07 -4.59876e-08 -2.68322e-05
0.00138341 -0.000190868 8.45618e-07
-0.000190868 0.000572921 -7.94058e-07
8.45618e-07 -7.94058e-07 0.000370935
0.000493334 4.03743e-05 -2.05677e-06
4.03743e-05 -3.47617e-05 8.52187e-06
-2.05677e-06 8.52187e-06 -6.6284e-05
0.000633999 -9.62148e-07 -3.74303e-07
-9.62148e-07 5.38301e-05 -2.87775e-07
-3.74303e-07 -2.87775e-07 -2.91375e-05
0.00101644 -8.40055e-05 3.93134e-08
-8.40055e-05 0.000306433 -1.66912e-06
3.93134e-08 -1.66912e-06 0.000178365
0.000655458 -1.44267e-05 1.16966e-06
-1.44267e-05 6.46687e-05 -3.42593e-06
1.16966e-06 -3.42593e-06 -8.94424e-06
0.00052102 4.22377e-05 3.37409e-07
4.22377e-05 -2.33659e-05 1.58607e-08
3.37409e-07 1.58607e-08 -5.19791e-05
0.00255921 0.000109577 -2.91536e-05
0.000109577 0.00122482 3.87751e-06
-2.91536e-05 3.87751e-06 0.00122722
0.000545725 4.02237e-05 -2.50403e-07
4.02237e-05 -1.57575e-05 -5.46486e-06
-2.50403e-07 -5.46486e-06 -4.12806e-05
0.00250869 9.42598e-05 3.226e-06
9.42598e-05 0.00118672 3.28664e-07
3.226e-06 3.28664e-07 0.00119254
0.00247873 7.91182e-05 2.21435e-05
7.91182e-05 0.00116236 -4.4493e-06
2.21435e-05 -4.4493e-06 0.00117094
0.000687441 7.60071e-05 2.40971e-07
7.60071e-05 0.000131295 -7.20144e-07
2.40971e-07 -7.20144e-07 -1.61819e-05
0.000767215 9.51513e-05 2.0372e-06
9.51513e-05 0.0001726 -1.20829e-06
2.0372e-06 -1.20829e-06 3.98458e-05
0.000614107 2.50463e-05 6.12368e-07
2.50463e-05 3.83527e-05 -2.82221e-06
6.12368e-07 -2.82221e-06 -3.44123e-05
0.000673049 8.67898e-05 4.58793e-08
8.67898e-05 0.000101994 -1.21013e-07
4.58793e-08 -1.21013e-07 -1.14144e-05
0.000520675 -1.25183e-05 -4.00814e-07
-1.25183e-05 -3.89294e-05 -5.28134e-06
-4.00814e-07 -5.28134e-06 -5.909e-05
0.000592172 3.48095e-05 1.28525e-07
3.48095e-05 2.5676e-05 -1.04646e-07
1.28525e-07 -1.04646e-07 -4.04262e-05
0.000602872 4.55724e-05 -2.70111e-06
4.55724e-05 5.47007e-05 -4.46475e-08
-2.70111e-06 -4.46475e-08 -5.01762e-05
0.00231979 -5.25723e-05 -2.26548e-05
-5.25723e-05 0.00105664 -4.64235e-06
-2.26548e-05 -4.64235e-06 0.00107062
0.000529021 -1.43672e-05 -4.54306e-07
-1.43672e-05 -3.62302e-05 -7.58513e-08
-4.54306e-07 -7.58513e-08 -5.21725e-05
0.000518192 3.88554e-05 -1.94752e-06
3.88554e-05 -1.64379e-05 6.53389e-07
-1.94752e-06 6.53389e-07 -7.71507e-05
0.0022023 -3.65476e-05 -4.33241e-06
-3.65476e-05 0.000982754 1.80781e-07
-4.33241e-06 1.80781e-07 0.000999117
0.000528809 -9.81833e-06 -1.17993e-06
-9.81833e-06 -3.81887e-05 3.6499e-06
-1.17993e-06 3.6499e-06 -5.01996e-05
0.00210828 -2.09832e-05 1.23646e-05
-2.09832e-05 0.000924215 4.65306e-06
1.23646e-05 4.65306e-06 0.000942186
-0.000518426 -4.10741e-05 -5.68298e-06
-4.10741e-05 -0.000111614 1.676e-06
-5.68298e-06 1.676e-06 3.75325e-05
0.00128701 -0.000109204 -1.76994e-05
-0.000109204 -0.000421568 2.78089e-05
-1.76994e-05 2.78089e-05 -0.000110424
0.000506492 -0.000114509 1.09981e-05
-0.000114509 0.000614481 -1.98672e-05
1.09981e-05 -1.98672e-05 0.000527713
0.000750932 7.59756e-05 -1.95939e-07
7.59756e-05 0.000149854 1.50802e-07
-1.95939e-07 1.50802e-07 1.30948e-05
0.000623875 6.23411e-05 1.93595e-06
6.23411e-05 3.59599e-05 -5.77761e-07
1.93595e-06 -5.77761e-07 -9.24007e-05
-0.000439792 2.58068e-05 -4.41609e-06
2.58068e-05 -0.000591565 -4.87465e-06
-4.41609e-06 -4.87465e-06 -0.000701871
0.000276579 2.2266e-05 1.79647e-06
2.2266e-05 -0.000149581 4.56102e-06
1.79647e-06 4.56102e-06 -0.000275024
0.00183176 0.000224563 -8.24075e-07
0.000224563 0.000808686 5.09833e-07
-8.24075e-07 5.09833e-07 0.000633109
0.00067579 3.60044e-05 -2.65703e-06
3.60044e-05 7.14422e-05 -2.58679e-07
-2.65703e-06 -2.58679e-07 -4.0372e-05
0.000635097 6.62133e-05 -3.17735e-06
6.62133e-05 6.53564e-05 -4.02357e-06
-3.17735e-06 -4.02357e-06 -5.55534e-05
0.000752959 7.07627e-05 -5.6228e-08
7.07627e-05 0.000137367 -2.28046e-07
-5.6228e-08 -2.28046e-07 1.37185e-05
0.000953614 0.00011861 3.58836e-08
0.00011861 0.000274195 -4.35447e-07
3.58836e-08 -4.35447e-07 0.000141009
0.000917045 9.13964e-05 3.69893e-06
9.13964e-05 0.000296788 -2.22589e-06
3.69893e-06 -2.22589e-06 0.000140889
0.00371034 0.000385916 0.000225961
0.000385916 0.00253077 0.000300228
0.000225961 0.000300228 -0.00123701
0.000774942 0.000196043 1.14828e-05
0.000196043 -5.88296e-05 7.50217e-05
1.14828e-05 7.50217e-05 -0.00155592
0.00282882 -4.99611e-05 -1.01014e-05
-4.99611e-05 0.000302232 -1.12552e-05
-1.01014e-05 -1.12552e-05 -5.80853e-05
0.0114377 -0.00142779 -0.00012749
-0.00142779 0.00156708 -0.000123586
-0.00012749 -0.000123586 0.00313307
-0.00836512 0.00122443 4.16737e-06
0.00122443 -0.00302921 0.00031254
4.16737e-06 0.00031254 -0.00606379
0.00449798 -0.00148681 -0.000109874
-0.00148681 0.00155756 2.34986e-05
-0.000109874 2.34986e-05 0.00137537
0.010936 -0.00128928 -8.94458e-05
-0.00128928 0.00504293 -1.28706e-06
-8.94458e-05 -1.28706e-06 0.00117315
0.00171129 -0.00036577 -2.90907e-05
-0.00036577 0.000414165 7.69257e-05
-2.90907e-05 7.69257e-05 0.000292796
0.011024 -0.000194445 -4.25705e-05
-0.000194445 0.00597701 -1.04987e-05
-4.25705e-05 -1.04987e-05 0.00094177
0.00314666 -0.00174132 6.90719e-05
-0.00174132 0.00136567 9.82325e-05
6.90719e-05 9.82325e-05 -0.00122877
0.00790453 -0.00226049 -0.000160891
-0.00226049 -0.000294347 -0.000425759
-0.000160891 -0.000425759 -0.000125678
0.00283033 0.000135254 -0.000113803
0.000135254 0.00127619 6.35197e-05
-0.000113803 6.35197e-05 0.000687002
0.0108666 0.0014969 -8.29418e-05
0.0014969 0.00515697 1.93814e-05
-8.29418e-05 1.93814e-05 0.00119491
0.0125427 -0.00316152 -0.000127904
-0.00316152 0.00485038 -0.000378752
-0.000127904 -0.000378752 0.00371925
0.0112793 -0.0038532 8.96092e-05
-0.0038532 0.00317739 -1.423e-05
8.96092e-05 -1.423e-05 0.00348826
0.000206467 8.69018e-05 8.10452e-06
8.69018e-05 -4.37406e-05 1.99126e-07
8.10452e-06 1.99126e-07 -0.000201735
0.000748283 3.14117e-05 1.3635e-06
3.14117e-05 0.000219105 2.19496e-06
1.3635e-06 2.19496e-06 6.08704e-05
0.000697623 0.00011044 -4.16147e-06
0.00011044 0.000137065 -6.61963e-06
-4.16147e-06 -6.61963e-06 -8.51339e-06
0.00207912 -0.000267373 -3.33896e-05
-0.000267373 0.00121409 3.12894e-05
-3.33896e-05 3.12894e-05 0.000359184
0.000682349 -3.8443e-05 -3.47718e-05
-3.8443e-05 0.000671418 -2.30192e-05
-3.47718e-05 -2.30192e-05 0.000439482
0.000457878 5.64579e-06 -6.81081e-06
5.64579e-06 5.66529e-06 -3.51962e-07
-6.81081e-06 -3.51962e-07 -0.000104152
-0.000720558 7.25506e-05 -7.1181e-06
7.25506e-05 -0.000251793 -3.60342e-06
-7.1181e-06 -3.60342e-06 -0.000622479
0.000234961 0.000101599 7.97381e-07
0.000101599 0.000131058 -1.47247e-06
7.97381e-07 -1.47247e-06 -8.8348e-05
0.000607576 0.000183624 4.25098e-06
0.000183624 0.000515864 2.1499e-06
4.25098e-06 2.1499e-06 0.000147295
-0.000964369 -7.22153e-05 0.000144358
-7.22153e-05 0.000653081 -3.10553e-05
0.000144358 -3.10553e-05 -0.000741388
-0.00196108 7.7755e-05 -1.44608e-05
7.7755e-05 -0.00100889 1.23421e-05
-1.44608e-05 1.23421e-05 -0.00127868
0.00264492 0.000449041 -8.63675e-05
0.000449041 0.00177062 -5.50292e-05
-8.63675e-05 -5.50292e-05 0.00081104
0.00187612 0.000100513 0.000105647
0.000100513 0.00143816 2.86816e-05
0.000105647 2.86816e-05 -0.00119854
-0.000519432 3.09392e-05 4.29238e-06
3.09392e-05 0.000567881 1.65882e-05
4.29238e-06 1.65882e-05 1.57334e-05
0.00170247 -9.2344e-05 -6.23397e-07
-9.2344e-05 0.000142102 5.78514e-07
-6.23397e-07 5.78514e-07 0.000412879
-0.00152941 0.000354388 0.000115537
0.000354388 -0.000272931 8.19122e-06
0.000115537 8.19122e-06 -0.00104209
0.0024184 0.00019135 -4.21631e-05
0.00019135 0.00146587 3.24217e-05
-4.21631e-05 3.24217e-05 0.000518233
0.00052154 -8.47141e-05 -1.25359e-05
-8.47141e-05 0.000598802 1.14032e-05
-1.25359e-05 1.14032e-05 0.000522591
0.0159668 -0.00229156 0.00014521
-0.00229156 0.00719148 -5.14484e-05
0.00014521 -5.14484e-05 0.00259121
0.0136288 0.00242307 -6.75196e-05
0.00242307 0.00532943 -6.37441e-05
-6.75196e-05 -6.37441e-05 0.00359
0.00432621 -0.00074027 -9.87573e-05
-0.00074027 0.00181198 0.000147982
-9.87573e-05 0.000147982 -0.00192205
-0.00515125 0.0041536 0.0011082
0.0041536 -0.00162629 -0.000834194
0.0011082 -0.000834194 -0.00127698
0.000705721 -0.00025655 1.65453e-05
-0.00025655 0.000816174 -5.07589e-06
1.65453e-05 -5.07589e-06 0.000133387
0.000420495 -0.000219213 1.08526e-05
-0.000219213 -1.38188e-05 1.48452e-05
1.08526e-05 1.48452e-05 -0.00221285
-0.00280409 0.000176223 -0.000587641
0.000176223 0.00341522 0.000230605
-0.000587641 0.000230605 0.000936352
0.00097062 -0.00045881 -1.71576e-05
-0.00045881 0.000489662 3.53515e-05
-1.71576e-05 3.53515e-05 9.57804e-05
0.0146211 0.0031987 0.000161789
0.0031987 0.00423314 8.47233e-05
0.000161789 8.47233e-05 0.00390644
0.00788344 -0.00223423 0.00011269
-0.00223423 0.003165 -6.18958e-05
0.00011269 -6.18958e-05 -8.85803e-05
0.00225838 -0.000691666 -3.57284e-06
-0.000691666 0.00110444 2.59698e-05
-3.57284e-06 2.59698e-05 0.000828608
-0.00537708 -0.000756184 5.88888e-05
-0.000756184 0.00274133 -3.57388e-05
5.88888e-05 -3.57388e-05 -2.77714e-05
0.0123145 0.00291323 -0.000688775
0.00291323 0.0052556 0.000311805
-0.000688775 0.000311805 0.00449567
0.0028162 -0.00148881 -0.000259627
-0.00148881 -0.000527347 0.000157454
-0.000259627 0.000157454 -0.00400769
0.00243161 -0.00120665 0.000125312
-0.00120665 0.000543169 -6.56838e-05
0.000125312 -6.56838e-05 0.000834084
-0.000217339 -0.000227723 -5.59646e-05
-0.000227723 3.45026e-05 1.77489e-05
-5.59646e-05 1.77489e-05 -0.00028516
0.000688456 -0.00039608 -6.81329e-06
-0.00039608 0.000313211 1.08816e-05
-6.81329e-06 1.08816e-05 0.000102361
0.00330339 -0.000635365 2.53228e-05
-0.000635365 0.00146786 1.02899e-06
2.53228e-05 1.02899e-06 0.00125016
-0.00268457 -7.26895e-05 -9.09917e-07
-7.26895e-05 -0.00145786 1.07287e-05
-9.09917e-07 1.07287e-05 -0.00166565
0.000850349 -0.000386725 6.03731e-06
-0.000386725 0.000113259 1.12423e-06
6.03731e-06 1.12423e-06 -0.000136831
0.00212077 -0.000618243 7.51543e-06
-0.000618243 0.000486403 -1.68883e-06
7.51543e-06 -1.68883e-06 0.000211712
0.00304385 -0.000596119 -1.98059e-05
-0.000596119 0.00128038 7.21014e-06
-1.98059e-05 7.21014e-06 0.000879801
0.00134329 -0.000486437 -2.03939e-06
-0.000486437 0.000248108 -3.494e-06
-2.03939e-06 -3.494e-06 -0.000186088
0.00173614 -0.00061663 5.85201e-06
-0.00061663 0.000242519 -9.01503e-06
5.85201e-06 -9.01503e-06 -0.000106384
0.00259179 -0.000606835 -4.30276e-06
-0.000606835 0.000888322 1.23336e-06
-4.30276e-06 1.23336e-06 0.000467193
0.00178402 -0.000555431 2.46203e-07
-0.000555431 0.000400908 -4.44881e-06
2.46203e-07 -4.44881e-06 -5.6745e-08
0.00224424 -0.000558043 2.27595e-06
-0.000558043 0.000485197 -7.67832e-06
2.27595e-06 -7.67832e-06 0.00018943
0.00167616 -0.000410347 -4.23875e-06
-0.000410347 8.6554e-05 -3.4935e-06
-4.23875e-06 -3.4935e-06 -0.000135111
0.00166732 -0.000516567 1.62721e-06
-0.000516567 0.00018708 -9.02611e-07
1.62721e-06 -9.02611e-07 -0.000110989
0.00185409 -0.000518905 2.1254e-06
-0.000518905 0.000324285 -2.75531e-06
2.1254e-06 -2.75531e-06 2.32274e-05
0.00180067 -0.00046915 9.16251e-07
-0.00046915 0.0004358 6.99784e-07
9.16251e-07 6.99784e-07 0.000139532
0.00185468 -0.000543252 -2.02069e-06
-0.000543252 0.000419894 1.73288e-07
-2.02069e-06 1.73288e-07 8.82207e-05
0.00192899 -0.000564168 2.77548e-07
-0.000564168 0.000460048 -3.505e-06
2.77548e-07 -3.505e-06 9.56262e-05
0.00157479 -0.000341249 3.99027e-06
-0.000341249 0.000434427 -5.36056e-08
3.99027e-06 -5.36056e-08 0.000189948
0.0010831 -0.000335329 1.55651e-06
-0.000335329 0.000114516 3.4349e-08
1.55651e-06 3.4349e-08 -0.00013331
0.00131539 -0.000372391 2.83207e-06
-0.000372391 0.000226705 -8.47983e-07
2.83207e-06 -8.47983e-07 -4.14322e-05
0.000764092 -0.000232406 -5.66122e-07
-0.000232406 0.000110648 5.50737e-07
-5.66122e-07 5.50737e-07 -0.000110325
0.000914111 -0.000248309 -8.03892e-07
-0.000248309 0.000132311 -2.58655e-07
-8.03892e-07 -2.58655e-07 -9.65907e-05
0.000420932 -0.000228127 -3.34231e-06
-0.000228127 -0.000236306 -8.61696e-07
-3.34231e-06 -8.61696e-07 -0.000456796
7.7922e-05 -1.76897e-05 -7.96006e-07
-1.76897e-05 -0.000270708 5.32741e-06
-7.96006e-07 5.32741e-06 -0.000399427
0.000760457 -0.000140173 1.62244e-06
-0.000140173 0.00018552 2.28578e-07
1.62244e-06 2.28578e-07 -2.62526e-05
0.00129791 -0.000200791 -2.05007e-06
-0.000200791 0.000495518 4.48303e-07
-2.05007e-06 4.48303e-07 0.000268566
0.00152975 7.70274e-05 -2.2158e-05
7.70274e-05 0.000607069 5.76933e-06
-2.2158e-05 5.76933e-06 0.000570221
0.00068062 -3.12724e-05 5.49024e-07
-3.12724e-05 8.05995e-05 -5.64818e-07
5.49024e-07 -5.64818e-07 -1.83789e-05
0.00127307 -9.02164e-05 -2.26072e-06
-9.02164e-05 0.000489332 -2.19862e-06
-2.26072e-06 -2.19862e-06 0.000318362
0.000759479 4.99596e-05 -3.2731e-05
4.99596e-05 0.000133339 4.27839e-06
-3.2731e-05 4.27839e-06 0.00012912
0.000996016 5.616e-05 -1.03135e-05
5.616e-05 0.000273538 -3.30701e-07
-1.03135e-05 -3.30701e-07 0.000242123
0.000623635 -6.99972e-06 6.50571e-07
-6.99972e-06 4.40285e-05 -4.33595e-06
6.50571e-07 -4.33595e-06 -3.83496e-05
0.000527986 4.4189e-05 3.77851e-07
4.4189e-05 -1.84171e-05 -6.27995e-06
3.77851e-07 -6.27995e-06 -4.75719e-05
0.0025749 0.000111034 5.19853e-06
0.000111034 0.00123504 4.80911e-07
5.19853e-06 4.80911e-07 0.00123722
0.00249311 9.59777e-05 2.4175e-05
9.59777e-05 0.0011781 -4.24355e-06
2.4175e-05 -4.24355e-06 0.00118358
0.000921934 9.31865e-05 1.95842e-06
9.31865e-05 0.000256182 3.28801e-06
1.95842e-06 3.28801e-06 0.000117939
0.000822925 9.25558e-05 1.76413e-06
9.25558e-05 0.000209841 -2.29954e-06
1.76413e-06 -2.29954e-06 6.84052e-05
0.00056604 5.77252e-05 -6.97392e-07
5.77252e-05 3.33368e-05 8.81784e-07
-6.97392e-07 8.81784e-07 -9.73705e-05
0.000630939 1.4665e-05 5.29307e-07
1.4665e-05 4.8303e-05 -3.41652e-06
5.29307e-07 -3.41652e-06 -3.14749e-05
0.00072262 7.55184e-05 5.72306e-07
7.55184e-05 0.000133768 2.79575e-09
5.72306e-07 2.79575e-09 1.21223e-05
0.000519973 -1.24589e-05 -1.06517e-06
-1.24589e-05 -3.48092e-05 -5.95219e-06
-1.06517e-06 -5.95219e-06 -5.9442e-05
0.000583239 2.68651e-05 -3.81904e-08
2.68651e-05 2.09229e-05 -1.8776e-07
-3.81904e-08 -1.8776e-07 -5.23356e-05
0.000714256 6.92031e-05 -1.38911e-06
6.92031e-05 0.000144407 1.3571e-06
-1.38911e-06 1.3571e-06 1.75288e-05
0.00247934 -6.85855e-05 -2.95953e-05
-6.85855e-05 0.00115752 -4.51293e-06
-2.95953e-05 -4.51293e-06 0.00116869
0.000510848 -1.50571e-05 -6.59137e-07
-1.50571e-05 -4.47398e-05 -6.8739e-08
-6.59137e-07 -6.8739e-08 -6.47412e-05
0.000584912 3.83805e-05 1.38516e-07
3.83805e-05 2.21511e-05 2.55512e-06
1.38516e-07 2.55512e-06 -4.40017e-05
0.00233134 -5.21087e-05 -4.86109e-06
-5.21087e-05 0.00106349 2.71993e-07
-4.86109e-06 2.71993e-07 0.00107757
0.000510958 -1.62098e-05 -1.68771e-06
-1.62098e-05 -4.67988e-05 4.3185e-06
-1.68771e-06 4.3185e-06 -6.26406e-05
0.00220524 -3.52064e-05 1.75372e-05
-3.52064e-05 0.000984297 4.55417e-06
1.75372e-05 4.55417e-06 0.00100084
0.00562785 0.000209974 0.000158969
0.000209974 0.00248271 2.48325e-05
0.000158969 2.48325e-05 0.0011109
-0.000468104 -5.07886e-05 -4.15562e-07
-5.07886e-05 -0.000128345 -1.61347e-06
-4.15562e-07 -1.61347e-06 -4.2296e-05
0.001161 -6.29745e-05 -2.20047e-05
-6.29745e-05 -0.000447498 2.4851e-06
-2.20047e-05 2.4851e-06 -7.46032e-05
0.000201529 0.000101342 -6.64728e-06
0.000101342 -0.000193561 -1.91948e-06
-6.64728e-06 -1.91948e-06 -0.000319078
0.000782047 7.11758e-05 -2.379e-06
7.11758e-05 0.000163095 -7.36674e-07
-2.379e-06 -7.36674e-07 3.39814e-05
0.000469808 5.27076e-05 2.8261e-07
5.27076e-05 -6.0034e-05 -1.59387e-06
2.8261e-07 -1.59387e-06 -0.000182193
0.000876493 5.09079e-05 4.04856e-07
5.09079e-05 0.000199015 -4.0645e-07
4.04856e-07 -4.0645e-07 7.18381e-05
0.000533129 8.36966e-05 -1.13949e-06
8.36966e-05 -1.72333e-05 2.74356e-07
-1.13949e-06 2.74356e-07 -0.000134946
0.00144414 0.000182862 7.19083e-07
0.000182862 0.000571703 -1.91503e-06
7.19083e-07 -1.91503e-06 0.000417494
0.000921574 0.000141823 -1.46268e-06
0.000141823 0.000229321 -8.43962e-06
-1.46268e-06 -8.43962e-06 4.21032e-05
-0.000111256 3.41504e-05 1.56498e-06
3.41504e-05 -0.000298557 4.12817e-06
1.56498e-06 4.12817e-06 -0.000468601
0.000764496 0.000122963 -2.0666e-06
0.000122963 0.000160167 -2.96326e-08
-2.0666e-06 -2.96326e-08 2.57346e-05
0.000407431 3.468e-05 -3.63249e-06
3.468e-05 -8.38368e-05 -3.09412e-06
-3.63249e-06 -3.09412e-06 -0.000189845
0.000446805 6.00709e-05 3.22129e-08
6.00709e-05 9.16042e-06 8.98601e-07
3.22129e-08 8.98601e-07 -0.000139407
0.00135719 0.000194321 1.15475e-05
0.000194321 0.000624667 7.07928e-06
1.15475e-05 7.07928e-06 0.000436204
0.0010848 -0.00128242 0.00014756
-0.00128242 0.00328429 0.000222407
0.00014756 0.000222407 0.000148733
0.00423483 0.000501745 3.70561e-05
0.000501745 0.00235297 0.000113497
3.70561e-05 0.000113497 -0.00158992
0.00117504 0.000166406 -2.40525e-05
0.000166406 0.000216011 -5.47136e-05
-2.40525e-05 -5.47136e-05 -0.00147587
0.0132438 -0.00281276 -0.000364983
-0.00281276 0.00253763 -0.000242435
-0.000364983 -0.000242435 0.00270076
0.00613951 -0.0010138 0.00011874
-0.0010138 0.00205055 0.000317438
0.00011874 0.000317438 0.000124874
0.00163871 -0.000990972 -0.000120786
-0.000990972 0.00276415 8.82176e-05
-0.000120786 8.82176e-05 -0.00262245
0.00102311 -0.000436396 2.82136e-05
-0.000436396 0.000620533 4.07596e-05
2.82136e-05 4.07596e-05 3.92697e-05
0.0018371 -9.6654e-05 1.83728e-05
-9.6654e-05 0.000871782 4.98119e-05
1.83728e-05 4.98119e-05 0.000532176
0.00353922 -0.00395709 0.000200522
-0.00395709 0.000808099 0.00020172
0.000200522 0.00020172 0.00118033
0.00390653 0.00111669 -3.50671e-05
0.00111669 0.0037515 -4.19815e-05
-3.50671e-05 -4.19815e-05 -0.00128907
0.00436061 -0.00192047 -6.12904e-05
-0.00192047 0.000230188 6.69658e-05
-6.12904e-05 6.69658e-05 -0.00127831
0.000557063 0.000394484 -1.94962e-05
0.000394484 0.000371962 6.04089e-05
-1.94962e-05 6.04089e-05 0.000244002
0.00889123 0.00169262 -6.15211e-05
0.00169262 0.0038555 -2.05066e-05
-6.15211e-05 -2.05066e-05 0.000464048
0.00682319 -0.00328153 -0.000397084
-0.00328153 0.00108717 -0.000300274
-0.000397084 -0.000300274 0.000557644
0.000765107 0.000375733 7.0529e-06
0.000375733 0.000138572 -7.22289e-06
7.0529e-06 -7.22289e-06 -2.63216e-05
0.000608114 0.000102361 3.15385e-06
0.000102361 0.000186249 2.99057e-07
3.15385e-06 2.99057e-07 3.32784e-05
0.000356562 4.89657e-05 -5.46126e-06
4.89657e-05 -9.09189e-06 -3.08816e-06
-5.46126e-06 -3.08816e-06 -0.000173069
-0.000914759 -0.000172744 -0.000122585
-0.000172744 0.000839791 -3.88466e-05
-0.000122585 -3.88466e-05 -0.0005143
-0.00108158 0.000168615 1.46522e-06
0.000168615 -0.000461148 -1.75573e-05
1.46522e-06 -1.75573e-05 -0.00083413
9.52564e-05 8.82286e-05 -9.13225e-06
8.82286e-05 4.3344e-05 6.52514e-07
-9.13225e-06 6.52514e-07 -0.0001887
0.000663023 0.000383647 1.39723e-05
0.000383647 0.000351419 3.1408e-06
1.39723e-05 3.1408e-06 5.33216e-05
0.000332697 0.000300074 1.99158e-05
0.000300074 0.00055287 -3.22373e-05
1.99158e-05 -3.22373e-05 -0.000280317
0.000189881 0.000691064 3.91124e-05
0.000691064 -0.000313245 4.04911e-06
3.91124e-05 4.04911e-06 -0.000779367
-0.00293283 0.000535834 0.000195175
0.000535834 0.00398662 7.46188e-06
0.000195175 7.46188e-06 8.59509e-05
0.00226823 -1.41826e-05 -4.03118e-06
-1.41826e-05 0.00158692 3.60323e-05
-4.03118e-06 3.60323e-05 -0.000406577
-0.000811706 -2.34575e-05 -3.65239e-06
-2.34575e-05 0.000226287 2.30849e-05
-3.65239e-06 2.30849e-05 -0.000135147
-9.96636e-05 -0.000165255 -5.8402e-05
-0.000165255 0.000508714 7.98452e-06
-5.8402e-05 7.98452e-06 -0.000184597
-0.000908736 -0.000152261 -6.93855e-05
-0.000152261 -0.000934728 2.8737e-05
-6.93855e-05 2.8737e-05 -0.000645938
0.000628858 -0.000164697 -0.000112652
-0.000164697 0.000109842 5.22774e-05
-0.000112652 5.22774e-05 -0.00213873
-0.00239711 -0.00190884 0.000109719
-0.00190884 0.00045669 -0.000111832
0.000109719 -0.000111832 -0.0041017
0.0015098 0.00271342 0.000311043
0.00271342 -0.0026409 -0.000254472
0.000311043 -0.000254472 -0.00285658
0.00418728 0.00126465 -0.000286242
0.00126465 0.00461419 0.00018884
-0.000286242 0.00018884 0.00266844
0.00134193 -0.000373393 -3.2227e-06
-0.000373393 0.000753489 -3.52789e-06
-3.2227e-06 -3.52789e-06 0.000516552
0.0013545 0.00025307 5.05435e-05
0.00025307 0.00455113 1.14821e-06
5.05435e-05 1.14821e-06 0.00250665
-0.0024845 0.00185883 1.93433e-05
0.00185883 -0.000319996 2.71451e-05
1.93433e-05 2.71451e-05 -0.00240526
0.00316459 -0.00141807 6.4552e-05
-0.00141807 0.00109803 -2.12538e-05
6.4552e-05 -2.12538e-05 0.000766242
0.0136179 -0.00149077 2.24721e-05
-0.00149077 0.00384966 -1.32571e-05
2.24721e-05 -1.32571e-05 0.00195122
0.00263738 -0.000888952 -2.18134e-05
-0.000888952 0.000807834 2.53937e-05
-2.18134e-05 2.53937e-05 0.000752079
-0.00903335 0.00067547 -0.000289136
0.00067547 -0.00382696 1.78361e-05
-0.000289136 1.78361e-05 -0.00520167
0.0139319 -0.000940964 -0.000145254
-0.000940964 0.00304041 4.33058e-05
-0.000145254 4.33058e-05 0.00144997
0.0031146 -0.00160623 3.75691e-05
-0.00160623 -0.000286324 -3.63381e-05
3.75691e-05 -3.63381e-05 -0.000538377
-8.84422e-05 -0.000280553 -1.51831e-05
-0.000280553 -2.65592e-05 1.56689e-05
-1.51831e-05 1.56689e-05 -0.000307908
0.0013854 -0.000504692 -2.11885e-06
-0.000504692 0.000328862 6.01332e-07
-2.11885e-06 6.01332e-07 0.000229372
0.0036243 -0.000636385 1.50723e-05
-0.000636385 0.00129806 -3.59829e-06
1.50723e-05 -3.59829e-06 0.00110828
-0.000700553 -0.000218226 -9.49381e-06
-0.000218226 -0.000665535 5.47511e-06
-9.49381e-06 5.47511e-06 -0.000921005
0.00139599 -0.000544004 -7.07424e-06
-0.000544004 0.000139602 -3.20642e-06
-7.07424e-06 -3.20642e-06 -0.000153107
0.0026375 -0.000713776 4.9111e-06
-0.000713776 0.000584367 -4.48764e-06
4.9111e-06 -4.48764e-06 0.000310341
0.00109502 -0.000447513 -1.78624e-05
-0.000447513 9.62249e-05 1.28464e-06
-1.78624e-05 1.28464e-06 -0.000317543
0.00160425 -0.000589971 -3.38026e-07
-0.000589971 0.000184371 -7.67835e-08
-3.38026e-07 -7.67835e-08 -0.000167201
0.00149873 -0.000505826 3.29834e-06
-0.000505826 -8.2795e-05 -6.17258e-06
3.29834e-06 -6.17258e-06 -0.000306346
0.00124045 -0.000507604 -7.06616e-06
-0.000507604 7.73237e-05 1.50722e-07
-7.06616e-06 1.50722e-07 -0.000306957
0.0016892 -0.00050117 -3.98535e-07
-0.00050117 0.000182002 8.79841e-07
-3.98535e-07 8.79841e-07 -0.000103005
0.00180943 -0.000406775 -1.00778e-06
-0.000406775 0.000102157 -5.49752e-06
-1.00778e-06 -5.49752e-06 -7.58245e-05
0.00167823 -0.000322905 -4.59322e-06
-0.000322905 5.15726e-05 -2.59496e-06
-4.59322e-06 -2.59496e-06 -9.95609e-05
0.00155538 -0.000402962 -4.27133e-06
-0.000402962 3.52577e-05 -2.27153e-06
-4.27133e-06 -2.27153e-06 -0.000191728
0.00165782 -0.000400279 1.29613e-06
-0.000400279 8.44738e-05 1.956e-06
1.29613e-06 1.956e-06 -0.000131564
0.00148661 -0.000444652 -2.55092e-06
-0.000444652 0.000130986 -1.76314e-06
-2.55092e-06 -1.76314e-06 -0.000144674
0.00179282 -0.000520481 1.8265e-06
-0.000520481 0.00027159 -4.70447e-07
1.8265e-06 -4.70447e-07 -2.37524e-05
0.00178808 -0.000511087 1.39693e-06
-0.000511087 0.00028738 3.94339e-07
1.39693e-06 3.94339e-07 -9.90151e-06
0.0014945 -0.000378048 -1.68784e-06
-0.000378048 0.00030381 1.65849e-06
-1.68784e-06 1.65849e-06 4.07725e-05
0.00157191 -0.000449454 9.10681e-07
-0.000449454 0.000302249 -3.68189e-07
9.10681e-07 -3.68189e-07 9.51936e-06
0.00181553 -0.000538921 -3.65168e-06
-0.000538921 0.000413969 -1.17837e-06
-3.65168e-06 -1.17837e-06 7.78567e-05
0.000956355 -0.000243303 -2.3744e-06
-0.000243303 0.000108674 1.9565e-06
-2.3744e-06 1.9565e-06 -0.000104162
0.00119514 -0.000305789 1.3478e-06
-0.000305789 0.000199385 -7.1908e-08
1.3478e-06 -7.1908e-08 -3.90489e-05
0.000561892 -0.000278992 -4.68061e-07
-0.000278992 -0.000184042 -2.75833e-06
-4.68061e-07 -2.75833e-06 -0.000418107
0.000489909 -0.000129616 -2.29285e-06
-0.000129616 -3.07164e-05 3.87407e-06
-2.29285e-06 3.87407e-06 -0.000201895
0.00105773 -0.000240461 -5.78624e-08
-0.000240461 0.00027749 4.90432e-08
-5.78624e-08 4.90432e-08 5.7158e-05
0.000231001 -0.000181985 -3.52916e-06
-0.000181985 -0.000275751 5.78597e-07
-3.52916e-06 5.78597e-07 -0.000490419
0.000349968 1.78823e-05 -2.71817e-06
1.78823e-05 -0.000107392 9.69122e-06
-2.71817e-06 9.69122e-06 -0.00015917
0.000717287 -8.5747e-05 -2.48987e-07
-8.5747e-05 0.000118046 -1.63128e-08
-2.48987e-07 -1.63128e-08 -2.44478e-05
0.00126108 -0.000159389 8.70199e-07
-0.000159389 0.000489573 -1.89241e-06
8.70199e-07 -1.89241e-06 0.000270981
0.00288674 0.000164122 -4.56818e-06
0.000164122 0.00144547 2.63694e-06
-4.56818e-06 2.63694e-06 0.00143182
0.000495291 3.27335e-05 -1.92111e-07
3.27335e-05 -2.76133e-05 -6.05538e-08
-1.92111e-07 -6.05538e-08 -6.81861e-05
0.000841235 -5.76814e-05 2.76311e-06
-5.76814e-05 0.000176804 -5.44921e-06
2.76311e-06 -5.44921e-06 7.25891e-05
0.00270143 0.000126029 4.91996e-06
0.000126029 0.00131935 3.86809e-07
4.91996e-06 3.86809e-07 0.00131811
0.000556473 3.78421e-05 1.00074e-06
3.78421e-05 5.10342e-06 -7.16235e-06
1.00074e-06 -7.16235e-06 -2.82702e-05
0.00262568 0.000112713 3.22289e-05
0.000112713 0.00126653 -3.60331e-06
3.22289e-05 -3.60331e-06 0.00126843
0.000933705 0.000151603 2.99123e-06
0.000151603 0.00024436 4.10349e-06
2.99123e-06 4.10349e-06 9.15736e-05
0.000746532 9.13937e-05 3.2389e-07
9.13937e-05 0.000154221 3.97061e-07
3.2389e-07 3.97061e-07 1.22124e-05
0.00090036 7.70435e-05 9.24959e-07
7.70435e-05 0.000265491 -2.89652e-06
9.24959e-07 -2.89652e-06 0.000108881
0.000644709 1.64217e-05 -6.0008e-08
1.64217e-05 6.40872e-05 -4.65308e-06
-6.0008e-08 -4.65308e-06 -2.50104e-05
0.000687568 5.63796e-05 1.82101e-07
5.63796e-05 0.000117125 2.73453e-07
1.82101e-07 2.73453e-07 -1.55745e-05
0.000544754 7.6935e-05 9.82904e-08
7.6935e-05 2.82005e-05 1.40145e-06
9.82904e-08 1.40145e-06 -0.000109536
0.000531063 -9.23099e-06 -2.02493e-06
-9.23099e-06 -2.46935e-05 -6.77094e-06
-2.02493e-06 -6.77094e-06 -5.36842e-05
0.000609173 2.17275e-05 -2.63649e-08
2.17275e-05 3.94535e-05 -1.46718e-07
-2.63649e-08 -1.46718e-07 -4.17311e-05
0.000649178 6.99593e-05 -8.88571e-07
6.99593e-05 8.52275e-05 1.23382e-06
-8.88571e-07 1.23382e-06 -3.04163e-05
0.00262011 -8.38709e-05 -3.79466e-05
-8.38709e-05 0.00124838 -4.22073e-06
-3.79466e-05 -4.22073e-06 0.00125665
0.000490287 -1.73722e-05 1.10113e-06
-1.73722e-05 -5.2771e-05 -1.14367e-07
1.10113e-06 -1.14367e-07 -7.72898e-05
0.000590679 3.06601e-05 -3.25719e-07
3.06601e-05 2.62119e-05 2.89307e-06
-3.25719e-07 2.89307e-06 -4.7451e-05
0.00245464 -6.78346e-05 -5.26243e-06
-6.78346e-05 0.00114207 3.4549e-07
-5.26243e-06 3.4549e-07 0.00115343
0.000502099 -1.85242e-05 -1.33305e-06
-1.85242e-05 -4.97527e-05 5.09684e-06
-1.33305e-06 5.09684e-06 -6.97023e-05
0.00230644 -5.08926e-05 2.14475e-05
-5.08926e-05 0.00104811 4.48958e-06
2.14475e-05 4.48958e-06 0.00106248
-0.00757836 0.000511487 -3.40616e-05
0.000511487 0.00200833 6.02683e-05
-3.40616e-05 6.02683e-05 -0.0018599
0.00536112 0.000102986 -7.39671e-06
0.000102986 0.00261496 -1.37738e-06
-7.39671e-06 -1.37738e-06 0.00129327
-0.000380267 -6.28679e-05 -5.31212e-06
-6.28679e-05 -0.000150996 -5.0302e-06
-5.31212e-06 -5.0302e-06 -0.000139461
0.000149327 7.03328e-05 -1.88748e-06
7.03328e-05 -0.000229577 1.85825e-06
-1.88748e-06 1.85825e-06 -0.000351376
0.00295509 0.000441338 3.16546e-06
0.000441338 0.0014524 5.8291e-06
3.16546e-06 5.8291e-06 0.00122372
0.00084648 8.95158e-05 -3.95854e-06
8.95158e-05 0.000197253 2.0853e-08
-3.95854e-06 2.0853e-08 4.40289e-05
0.000924456 5.59627e-05 -2.53308e-06
5.59627e-05 0.000222599 -4.80882e-06
-2.53308e-06 -4.80882e-06 9.62668e-05
0.00144414 0.000157799 2.54057e-06
0.000157799 0.000520478 -1.04955e-06
2.54057e-06 -1.04955e-06 0.000394093
0.00013701 5.8397e-05 -4.4338e-06
5.8397e-05 -0.000224455 1.83683e-06
-4.4338e-06 1.83683e-06 -0.000345178
0.000444729 7.24145e-05 -1.15787e-06
7.24145e-05 2.70946e-05 2.04561e-06
-1.15787e-06 2.04561e-06 -0.000149811
0.000612155 0.000106118 -2.69125e-06
0.000106118 5.7337e-05 -3.45951e-06
-2.69125e-06 -3.45951e-06 -0.00012226
0.00112081 0.000209349 4.9338e-06
0.000209349 0.000409016 -7.0865e-06
4.9338e-06 -7.0865e-06 0.000169344
0.000546887 0.000291963 1.74325e-06
0.000291963 -4.52979e-05 1.37962e-06
1.74325e-06 1.37962e-06 -0.000159159
0.00107957 8.41238e-05 -4.05027e-06
8.41238e-05 0.00039084 1.14811e-06
-4.05027e-06 1.14811e-06 0.000232336
0.00111718 0.000166923 1.55765e-06
0.000166923 0.000486109 3.11092e-06
1.55765e-06 3.11092e-06 0.000299848
-0.0037094 -0.00125455 -0.00063788
-0.00125455 -0.000162115 -8.20962e-05
-0.00063788 -8.20962e-05 -0.00212637
-0.00341813 -0.000949402 0.000253544
-0.000949402 0.0025787 0.000123999
0.000253544 0.000123999 -0.000863497
0.00473324 0.000583263 -0.000235194
0.000583263 0.00231758 -8.58069e-05
-0.000235194 -8.58069e-05 -0.00184358
-0.00546296 -0.00409746 0.000970521
-0.00409746 -0.00155908 0.000747443
0.000970521 0.000747443 -0.0013767
0.0172032 -0.00210787 -2.20572e-05
-0.00210787 0.00537531 0.000199913
-2.20572e-05 0.000199913 0.0044864
-0.00180391 0.00128315 -1.92905e-06
0.00128315 0.000855475 -0.000115164
-1.92905e-06 -0.000115164 -0.00377676
0.00123641 8.00313e-05 -0.000184609
8.00313e-05 0.000913713 4.75525e-06
-0.000184609 4.75525e-06 -9.00059e-05
0.00177305 0.000507849 2.27939e-05
0.000507849 0.00088141 3.1903e-05
2.27939e-05 3.1903e-05 0.00068295
0.0121797 -0.00245357 -0.000273237
-0.00245357 0.00545616 4.81764e-05
-0.000273237 4.81764e-05 0.00452606
-0.000703605 0.00156246 -3.5652e-05
0.00156246 0.000575629 -4.07763e-05
-3.5652e-05 -4.07763e-05 -0.00327592
0.0021699 0.00111562 -2.35395e-05
0.00111562 0.000475944 -6.0327e-05
-2.35395e-05 -6.0327e-05 0.000718478
0.00387417 0.00232778 -0.00022752
0.00232778 -0.00043658 -0.000132429
-0.00022752 -0.000132429 -0.00300212
0.00257298 0.000788377 1.85128e-05
0.000788377 0.0008024 -1.54333e-05
1.85128e-05 -1.54333e-05 0.000527407
0.000895963 0.000367608 -4.59211e-06
0.000367608 0.000224802 4.09616e-07
-4.59211e-06 4.09616e-07 6.68124e-05
0.00097063 0.000122948 -8.39783e-06
0.000122948 0.000395646 -3.53986e-07
-8.39783e-06 -3.53986e-07 0.000247531
-0.00139029 0.000213606 -4.65754e-05
0.000213606 -0.000432209 -5.53018e-05
-4.65754e-05 -5.53018e-05 -0.00116324
0.00227845 0.000597289 -3.03989e-05
0.000597289 0.00116385 -1.71172e-05
-3.03989e-05 -1.71172e-05 0.000852097
0.00142292 0.000815151 1.44423e-05
0.000815151 0.000253282 -5.15545e-06
1.44423e-05 -5.15545e-06 -0.000206877
0.00203303 0.00114991 0.000110369
0.00114991 -0.000139898 3.23912e-05
0.000110369 3.23912e-05 -0.000339694
-0.00535585 -0.000168385 -0.000350291
-0.000168385 -0.00441355 9.85267e-06
-0.000350291 9.85267e-06 -0.0031217
-0.00492886 0.000273346 0.000191184
0.000273346 0.00365329 5.4357e-06
0.000191184 5.4357e-06 -0.000268681
0.002679 -7.69586e-05 -8.58714e-05
-7.69586e-05 0.00176385 3.21676e-05
-8.58714e-05 3.21676e-05 0.000335127
0.00179876 -0.000443812 -4.93426e-05
-0.000443812 0.00070802 -4.39274e-05
-4.93426e-05 -4.39274e-05 0.000488384
0.000978301 -0.00122062 3.29114e-06
-0.00122062 -0.00021867 2.18604e-05
3.29114e-06 2.18604e-05 -0.000352748
0.000996308 0.000238011 -1.30655e-05
0.000238011 0.00432725 2.67576e-05
-1.30655e-05 2.67576e-05 0.00239329
0.00284446 -0.00151412 0.000246518
-0.00151412 -0.000380256 -0.000141664
0.000246518 -0.000141664 -0.00294798
0.0132605 0.00177657 0.000284
0.00177657 0.00603141 -3.07185e-05
0.000284 -3.07185e-05 0.00461925
0.00274863 -0.00108182 -2.79249e-05
-0.00108182 0.000774916 8.67625e-06
-2.79249e-05 8.67625e-06 0.000454114
0.000269069 0.000733668 0.000135764
0.000733668 -0.000271897 -3.47485e-05
0.000135764 -3.47485e-05 -0.00113185
0.00625275 -0.000861128 -8.79511e-05
-0.000861128 -0.00071308 7.52929e-05
-8.79511e-05 7.52929e-05 -0.00295798
0.00525856 -0.00175579 -3.4606e-05
-0.00175579 0.000734603 2.07686e-05
-3.4606e-05 2.07686e-05 0.000414535
0.00227253 -0.000805579 6.80656e-05
-0.000805579 0.00039513 -9.06866e-06
6.80656e-05 -9.06866e-06 0.000146835
0.0120526 -0.000547891 -7.56329e-06
-0.000547891 0.00280385 -1.74962e-05
-7.56329e-06 -1.74962e-05 0.00120337
0.00284683 -0.000957381 9.46018e-05
-0.000957381 -0.00152936 -5.96116e-05
9.46018e-05 -5.96116e-05 -0.00104829
-0.000584121 -0.000357946 -2.61109e-05
-0.000357946 -0.000821603 1.69077e-05
-2.61109e-05 1.69077e-05 -0.000812736
0.000170407 -0.000376691 -1.56834e-05
-0.000376691 -0.000604415 -1.62108e-07
-1.56834e-05 -1.62108e-07 -0.000679755
0.0038923 -0.000711066 3.88305e-05
-0.000711066 0.00107951 -1.96935e-05
3.88305e-05 -1.96935e-05 0.000997229
0.000330143 -0.000432991 -1.92763e-05
-0.000432991 -0.000390796 -6.37604e-06
-1.92763e-05 -6.37604e-06 -0.000686941
0.00178527 -0.000627091 1.53635e-07
-0.000627091 0.000149408 -1.03908e-06
1.53635e-07 -1.03908e-06 -0.000105256
0.00253154 -0.000596063 1.01988e-06
-0.000596063 0.000318679 -2.27992e-06
1.01988e-06 -2.27992e-06 0.000162765
0.00172354 -0.000587954 -4.92128e-06
-0.000587954 0.000254785 5.95615e-06
-4.92128e-06 5.95615e-06 -0.000101117
0.00186982 -0.000536023 -1.32188e-06
-0.000536023 0.000116061 1.32555e-06
-1.32188e-06 1.32555e-06 -0.000113194
0.00193333 -0.000413585 2.05078e-06
-0.000413585 6.09547e-05 -2.28581e-07
2.05078e-06 -2.28581e-07 -6.90913e-05
0.00119549 -0.000448908 2.57671e-06
-0.000448908 -8.75799e-05 5.62215e-06
2.57671e-06 5.62215e-06 -0.000362446
0.00177505 -0.000397891 -6.31385e-07
-0.000397891 8.77876e-05 1.35535e-06
-6.31385e-07 1.35535e-06 -8.83456e-05
0.00184099 -0.000345284 -2.34848e-06
-0.000345284 7.98399e-05 -1.70302e-07
-2.34848e-06 -1.70302e-07 -4.2241e-05
0.00202764 -0.000328561 -3.31107e-06
-0.000328561 0.000261925 -1.63435e-07
-3.31107e-06 -1.63435e-07 0.000137499
0.00176984 -0.000326806 -2.55381e-06
-0.000326806 9.86288e-05 3.34133e-06
-2.55381e-06 3.34133e-06 -4.81314e-05
0.00181969 -0.000345189 -1.81561e-06
-0.000345189 0.000166056 -5.3874e-06
-1.81561e-06 -5.3874e-06 -1.28995e-06
0.00174065 -0.000410183 -4.67884e-06
-0.000410183 0.000179821 -2.181e-06
-4.67884e-06 -2.181e-06 -5.13843e-05
0.0017298 -0.00041648 1.38747e-06
-0.00041648 0.000139697 4.88287e-07
1.38747e-06 4.88287e-07 -8.85167e-05
0.00164661 -0.000390971 4.8527e-06
-0.000390971 8.49849e-05 6.57064e-06
4.8527e-06 6.57064e-06 -0.000125542
0.00159708 -0.000409654 -6.30624e-06
-0.000409654 0.000264393 3.38723e-07
-6.30624e-06 3.38723e-07 5.67127e-07
0.00149647 -0.00044883 -7.2225e-07
-0.00044883 0.000128313 3.09261e-07
-7.2225e-07 3.09261e-07 -0.000148885
0.00189359 -0.000523276 3.05651e-06
-0.000523276 0.00034068 3.8775e-07
3.05651e-06 3.8775e-07 4.80708e-05
0.00120087 -0.000275687 -5.89735e-06
-0.000275687 0.000188711 2.56589e-06
-5.89735e-06 2.56589e-06 -3.13922e-05
0.00138769 -0.000368212 5.9376e-07
-0.000368212 0.000237731 5.30436e-07
5.9376e-07 5.30436e-07 -2.35625e-05
0.00132415 -0.000428319 1.59721e-06
-0.000428319 0.000154841 -4.2496e-07
1.59721e-06 -4.2496e-07 -0.000133504
0.000826262 -0.000186467 -6.16087e-06
-0.000186467 0.000117622 4.92612e-06
-6.16087e-06 4.92612e-06 -6.49878e-05
0.00109129 -0.000256179 8.8297e-07
-0.000256179 0.000192838 2.56081e-07
8.8297e-07 2.56081e-07 -2.3418e-05
0.00103513 -0.000292405 3.87654e-07
-0.000292405 9.5673e-05 -1.04977e-06
3.87654e-07 -1.04977e-06 -0.000141008
0.000331026 -4.82589e-05 -1.0151e-05
-4.82589e-05 -0.000138755 1.28374e-05
-1.0151e-05 1.28374e-05 -0.000202991
0.000711445 -0.000134616 7.57058e-07
-0.000134616 0.000110853 7.73795e-07
7.57058e-07 7.73795e-07 -6.84634e-05
0.0012961 -0.000265786 2.75109e-07
-0.000265786 0.00041326 -7.55197e-07
2.75109e-07 -7.55197e-07 0.000189292
0.00327052 0.000165234 -5.9186e-05
0.000165234 0.0016821 2.86856e-06
-5.9186e-05 2.86856e-06 0.00166965
0.00054432 1.84676e-06 4.27411e-08
1.84676e-06 3.00223e-06 -8.04382e-07
4.27411e-08 -8.04382e-07 -4.84505e-05
0.00134132 -0.000121802 1.63889e-06
-0.000121802 0.000498165 -6.09821e-06
1.63889e-06 -6.09821e-06 0.000343921
0.00191178 0.000109044 2.9998e-05
0.000109044 0.000846152 8.09618e-07
2.9998e-05 8.09618e-07 0.000836057
0.00060716 2.63049e-05 3.64119e-06
2.63049e-05 3.73646e-05 -8.577e-06
3.64119e-06 -8.577e-06 -2.7102e-06
0.00278831 0.000124603 4.6726e-05
0.000124603 0.00137184 -3.12222e-06
4.6726e-05 -3.12222e-06 0.001371
0.000987204 0.000172764 5.98939e-06
0.000172764 0.00023286 1.2772e-07
5.98939e-06 1.2772e-07 8.20638e-05
0.000516701 9.13285e-05 -2.51312e-07
9.13285e-05 -1.00612e-05 -3.3997e-07
-2.51312e-07 -3.3997e-07 -0.000145855
0.000677776 9.00282e-05 4.49106e-07
9.00282e-05 0.000105583 -1.36662e-06
4.49106e-07 -1.36662e-06 -3.90212e-05
0.000859376 0.00010435 -3.68657e-07
0.00010435 0.000223339 -5.75014e-07
-3.68657e-07 -5.75014e-07 7.75232e-05
0.000710858 5.95989e-05 3.89857e-08
5.95989e-05 0.000128637 3.4707e-07
3.89857e-08 3.4707e-07 -9.53559e-06
0.0007097 2.86287e-05 -4.30419e-07
2.86287e-05 0.000105943 -5.50086e-06
-4.30419e-07 -5.50086e-06 6.21151e-06
0.000557086 -9.15748e-06 -2.8909e-06
-9.15748e-06 -1.9633e-06 -7.96281e-06
-2.8909e-06 -7.96281e-06 -3.67906e-05
0.000607094 1.50579e-05 3.16373e-07
1.50579e-05 4.35936e-05 -8.84654e-08
3.16373e-07 -8.84654e-08 -4.64176e-05
0.000602271 3.22893e-05 -1.53029e-06
3.22893e-05 4.20502e-05 2.26459e-06
-1.53029e-06 2.26459e-06 -7.28694e-05
0.00273031 -9.75044e-05 -4.84028e-05
-9.75044e-05 0.00132191 -3.96975e-06
-4.84028e-05 -3.96975e-06 0.00132745
0.000496831 -1.13676e-05 2.45853e-07
-1.13676e-05 -4.33516e-05 -1.33659e-07
2.45853e-07 -1.33659e-07 -7.26128e-05
0.00056212 2.32715e-05 -2.74006e-07
2.32715e-05 1.60147e-05 3.42678e-06
-2.74006e-07 3.42678e-06 -6.694e-05
0.0025947 -8.38695e-05 -5.66604e-06
-8.38695e-05 0.00123256 4.04974e-07
-5.66604e-06 4.04974e-07 0.00124079
0.000483318 -2.32812e-05 1.05739e-08
-2.32812e-05 -5.61288e-05 5.81628e-06
1.05739e-08 5.81628e-06 -8.09415e-05
0.00245958 -6.72805e-05 2.68494e-05
-6.72805e-05 0.00114467 4.46698e-06
2.68494e-05 4.46698e-06 0.00115612
5.86583e-05 0.000306433 -0.000365472
0.000306433 0.00235723 2.22063e-06
-0.000365472 2.22063e-06 0.00091924
-0.00390878 8.39261e-05 2.87879e-05
8.39261e-05 0.00272464 9.94061e-06
2.87879e-05 9.94061e-06 -0.00118873
0.00505828 7.8378e-06 -0.000106872
7.8378e-06 0.00267586 -2.05738e-05
-0.000106872 -2.05738e-05 0.00142235
0.000367389 4.90252e-05 1.54402e-06
4.90252e-05 -0.000102032 -3.92155e-06
1.54402e-06 -3.92155e-06 -0.000220642
0.000752351 6.58331e-05 3.75929e-06
6.58331e-05 0.000138657 1.89672e-06
3.75929e-06 1.89672e-06 -2.64659e-05
0.00212171 0.000349276 -2.26642e-06
0.000349276 0.000965793 2.06422e-06
-2.26642e-06 2.06422e-06 0.00076147
0.00157509 0.000368259 5.99022e-06
0.000368259 0.000514958 -2.89769e-06
5.99022e-06 -2.89769e-06 0.000244053
0.000876107 0.000228034 -3.60642e-06
0.000228034 0.00027654 -1.69777e-07
-3.60642e-06 -1.69777e-07 6.23146e-05
0.000734315 0.000118084 -1.16302e-06
0.000118084 0.000202541 2.43626e-06
-1.16302e-06 2.43626e-06 1.73919e-05
0.000805823 0.000129522 6.55256e-06
0.000129522 0.000189649 4.13483e-06
6.55256e-06 4.13483e-06 1.2019e-05
0.000584912 0.000206431 -5.74511e-06
0.000206431 0.00011381 -3.60446e-06
-5.74511e-06 -3.60446e-06 -0.000123861
-0.000506877 0.000200592 4.02707e-06
0.000200592 -0.000656923 -1.05015e-06
4.02707e-06 -1.05015e-06 -0.000865416
0.00199535 0.000460061 5.66118e-06
0.000460061 0.000697334 -5.69641e-07
5.66118e-06 -5.69641e-07 0.000554071
0.0017446 0.000621298 1.24918e-05
0.000621298 0.000268726 -5.02779e-06
1.24918e-05 -5.02779e-06 5.70774e-05
0.000857452 0.000335826 -6.20715e-06
0.000335826 0.000148021 -8.94731e-07
-6.20715e-06 -8.94731e-07 7.82953e-06
0.000847991 0.000127281 -5.04159e-06
0.000127281 0.000264456 -1.25071e-06
-5.04159e-06 -1.25071e-06 9.5899e-05
0.0124861 0.00128851 -8.54142e-05
0.00128851 0.00254928 4.62e-05
-8.54142e-05 4.62e-05 0.00107206
-0.00013776 -0.0010124 -0.000288059
-0.0010124 0.00261365 -0.000102362
-0.000288059 -0.000102362 0.000593441
-0.00125354 -0.00154315 0.000228699
-0.00154315 0.00270751 4.70997e-05
0.000228699 4.70997e-05 -0.000792455
0.000796932 -0.00141518 8.62023e-05
-0.00141518 0.000739815 0.000226426
8.62023e-05 0.000226426 -0.000221856
0.0114357 0.00202344 -1.93034e-05
0.00202344 0.00476121 -8.96528e-06
-1.93034e-05 -8.96528e-06 0.00117195
-0.00140638 0.000233886 -2.422e-05
0.000233886 -0.000519343 -3.59023e-05
-2.422e-05 -3.59023e-05 -0.00072464
0.00167758 0.000988624 -2.80447e-05
0.000988624 0.000376626 -1.11523e-05
-2.80447e-05 -1.11523e-05 0.00057229
0.0128532 0.00182388 2.34e-05
0.00182388 0.00380941 2.53382e-05
2.34e-05 2.53382e-05 0.00168754
0.00631156 0.00204387 -3.72801e-05
0.00204387 0.00088874 -7.16407e-05
-3.72801e-05 -7.16407e-05 0.00058226
0.00152834 0.000767086 7.94077e-06
0.000767086 0.000105892 -3.88116e-06
7.94077e-06 -3.88116e-06 -8.15349e-05
0.00121774 0.000601941 5.85316e-06
0.000601941 0.000209816 -4.05157e-07
5.85316e-06 -4.05157e-07 -4.23236e-05
0.00110515 0.000349354 -1.94485e-05
0.000349354 0.000371216 1.01672e-05
-1.94485e-05 1.01672e-05 0.000223457
0.00260909 0.000978801 -5.40116e-05
0.000978801 0.000761654 -1.63085e-05
-5.40116e-05 -1.63085e-05 0.000313465
0.00200184 0.00113854 1.2591e-05
0.00113854 -0.000293488 1.82261e-05
1.2591e-05 1.82261e-05 -0.000495204
0.00141497 -0.000399463 -6.37203e-05
-0.000399463 -0.00348359 3.41495e-05
-6.37203e-05 3.41495e-05 -0.00377821
0.00174281 -0.000783801 1.40857e-06
-0.000783801 0.0013803 -2.40371e-05
1.40857e-06 -2.40371e-05 0.00134215
-0.0073084 -3.93378e-05 0.000201889
-3.93378e-05 0.00341531 -1.16351e-05
0.000201889 -1.16351e-05 -0.000568582
0.00135316 -0.00108426 -2.11237e-05
-0.00108426 -4.29597e-05 7.04849e-07
-2.11237e-05 7.04849e-07 -0.000512703
0.00328104 -0.00161185 4.8124e-05
-0.00161185 0.000311134 3.76862e-06
4.8124e-05 3.76862e-06 -0.000328418
0.00135015 -0.000302635 0.000417603
-0.000302635 0.00264625 -6.49056e-05
0.000417603 -6.49056e-05 0.00139478
0.012734 -0.00104682 -0.000179776
-0.00104682 0.00263125 8.08898e-05
-0.000179776 8.08898e-05 0.00107816
0.00113624 -0.000760838 -3.03612e-05
-0.000760838 -0.000233964 -1.9122e-06
-3.03612e-05 -1.9122e-06 -0.000449291
0.00918716 2.82891e-05 -0.000107437
2.82891e-05 0.000381757 3.63832e-05
-0.000107437 3.63832e-05 -0.000726277
0.00543507 -0.00108179 8.96966e-05
-0.00108179 -9.04429e-05 9.88955e-06
8.96966e-05 9.88955e-06 -5.12318e-05
0.00425027 -0.00076494 6.88999e-05
-0.00076494 0.00124638 -1.44186e-05
6.88999e-05 -1.44186e-05 0.000884892
0.00273249 -0.000400008 -7.05817e-05
-0.000400008 -0.000717042 7.83172e-06
-7.05817e-05 7.83172e-06 -0.000456986
-0.00269029 -0.000161867 -1.54087e-05
-0.000161867 -0.0021872 5.82793e-06
-1.54087e-05 5.82793e-06 -0.00217407
0.00167875 -0.000555949 -3.08167e-06
-0.000555949 -0.000100801 -2.01607e-07
-3.08167e-06 -2.01607e-07 -0.000140449
0.00282481 -0.000511909 2.28829e-05
-0.000511909 0.000353157 -1.08906e-05
2.28829e-05 -1.08906e-05 0.000384547
0.000790033 -0.000533561 -4.08885e-06
-0.000533561 -0.000354176 6.55881e-06
-4.08885e-06 6.55881e-06 -0.000590615
0.00184304 -0.000534383 -1.98865e-06
-0.000534383 -2.4698e-05 1.27817e-06
-1.98865e-06 1.27817e-06 -0.000174336
0.00213271 -0.000430416 3.90048e-06
-0.000430416 2.19722e-05 6.73084e-07
3.90048e-06 6.73084e-07 -2.76036e-05
0.00211893 -0.0005524 -6.39479e-06
-0.0005524 0.0002548 8.15688e-06
-6.39479e-06 8.15688e-06 2.19319e-05
0.00193722 -0.000412686 3.11439e-07
-0.000412686 6.34965e-05 1.61571e-06
3.11439e-07 1.61571e-06 -6.35008e-05
0.00201734 -0.000384481 -8.04657e-08
-0.000384481 0.000116447 1.92105e-06
-8.04657e-08 1.92105e-06 2.67643e-05
0.00171747 -0.000388389 2.76697e-06
-0.000388389 5.93307e-05 6.0128e-06
2.76697e-06 6.0128e-06 -0.000114827
0.00182032 -0.000347636 -1.117e-07
-0.000347636 6.57681e-05 1.66399e-06
-1.117e-07 1.66399e-06 -5.7345e-05
0.00197174 -0.000359971 -1.22774e-06
-0.000359971 0.000162687 9.84264e-07
-1.22774e-06 9.84264e-07 4.81653e-05
0.0019005 -0.000324929 -4.15773e-06
-0.000324929 0.000178623 3.48276e-06
-4.15773e-06 3.48276e-06 5.69305e-05
0.00195562 -0.000331966 6.22396e-07
-0.000331966 0.000241843 -2.88869e-06
6.22396e-07 -2.88869e-06 0.000106392
0.00186086 -0.000331444 3.35585e-06
-0.000331444 0.000145665 8.17179e-06
3.35585e-06 8.17179e-06 3.05115e-06
0.00182649 -0.000345696 3.53666e-07
-0.000345696 0.000168462 -8.86905e-07
3.53666e-07 -8.86905e-07 7.95794e-07
0.00173745 -0.000351087 -1.83215e-06
-0.000351087 0.000137717 -3.60863e-06
-1.83215e-06 -3.60863e-06 -4.93425e-05
0.00170382 -0.000379013 -4.7136e-06
-0.000379013 0.000231966 -1.86377e-06
-4.7136e-06 -1.86377e-06 -1.78312e-07
0.00179286 -0.000415498 9.23153e-08
-0.000415498 0.000212307 -1.60801e-07
9.23153e-08 -1.60801e-07 -2.06681e-05
0.00190167 -0.000429517 5.72893e-06
-0.000429517 0.000243706 3.0909e-06
5.72893e-06 3.0909e-06 1.43597e-05
0.00127048 -0.00029394 -7.74066e-06
-0.00029394 0.00015803 3.39595e-06
-7.74066e-06 3.39595e-06 -6.50389e-05
0.00149258 -0.000396351 -1.27442e-06
-0.000396351 0.000209538 2.45147e-07
-1.27442e-06 2.45147e-07 -5.25102e-05
0.00151353 -0.000452669 2.92913e-06
-0.000452669 0.000130577 1.38473e-06
2.92913e-06 1.38473e-06 -0.000148021
0.000821322 -0.000187746 -8.74212e-06
-0.000187746 4.02101e-05 6.3418e-06
-8.74212e-06 6.3418e-06 -0.000138457
0.001143 -0.00027428 5.02725e-07
-0.00027428 0.000149159 -1.54367e-07
5.02725e-07 -1.54367e-07 -7.19718e-05
0.00124172 -0.000353254 3.38828e-06
-0.000353254 0.000150777 -8.32567e-07
3.38828e-06 -8.32567e-07 -0.000107685
0.000429189 -0.000125237 -1.98477e-05
-0.000125237 -0.00011209 1.4403e-05
-1.98477e-05 1.4403e-05 -0.000190784
0.000768491 -0.00019075 -2.92638e-07
-0.00019075 8.43212e-05 4.13906e-07
-2.92638e-07 4.13906e-07 -9.8529e-05
0.00108526 -0.000250445 3.72893e-06
-0.000250445 0.000190616 -1.11407e-06
3.72893e-06 -1.11407e-06 -2.43575e-05
0.00414036 0.00018999 -9.17378e-05
0.00018999 0.00221622 4.4879e-06
-9.17378e-05 4.4879e-06 0.00219724
0.000514112 -6.88029e-05 1.21257e-06
-6.88029e-05 -3.0767e-05 -4.58931e-07
1.21257e-06 -4.58931e-07 -9.8987e-05
0.00105612 -0.000176739 4.48297e-06
-0.000176739 0.000320716 -4.38875e-06
4.48297e-06 -4.38875e-06 0.000133659
0.00355702 0.000153402 1.16018e-05
0.000153402 0.00185216 2.51372e-07
1.16018e-05 2.51372e-07 0.00184356
0.000664961 -1.65482e-05 8.93238e-06
-1.65482e-05 7.0257e-05 -1.08022e-05
8.93238e-06 -1.08022e-05 1.7303e-05
0.00311053 0.000128524 7.48059e-05
0.000128524 0.00157205 -2.65296e-06
7.48059e-05 -2.65296e-06 0.00157079
0.000363793 0.000210983 5.20314e-06
0.000210983 -0.000234525 -5.65713e-06
5.20314e-06 -5.65713e-06 -0.000452288
0.000865435 0.000186219 1.88621e-06
0.000186219 0.000168111 -6.70118e-07
1.88621e-06 -6.70118e-07 9.90676e-06
0.000256681 8.37054e-05 2.70153e-06
8.37054e-05 -0.000163201 -8.29739e-07
2.70153e-06 -8.29739e-07 -0.000314068
-8.73136e-05 3.47052e-05 -1.67546e-06
3.47052e-05 -0.000368289 -2.80168e-06
-1.67546e-06 -2.80168e-06 -0.0004938
0.000456754 4.23058e-05 -1.24236e-07
4.23058e-05 -3.377e-05 9.84328e-07
-1.24236e-07 9.84328e-07 -0.000173752
0.000742673 4.7858e-05 -1.33777e-06
4.7858e-05 0.000119136 -5.64675e-06
-1.33777e-06 -5.64675e-06 7.61314e-06
0.000496715 3.16184e-05 -8.3811e-07
3.16184e-05 -1.26436e-05 2.72641e-06
-8.3811e-07 2.72641e-06 -0.00013986
0.000586978 1.88585e-05 2.50501e-07
1.88585e-05 3.50077e-05 -3.12684e-07
2.50501e-07 -3.12684e-07 -6.47924e-05
0.000597167 -1.02417e-05 -3.87592e-06
-1.02417e-05 2.66929e-05 -9.35901e-06
-3.87592e-06 -9.35901e-06 -1.46258e-05
0.00293843 -0.000112656 -6.13095e-05
-0.000112656 0.0014571 -3.69175e-06
-6.13095e-05 -3.69175e-06 0.00145914
0.000485118 -1.34355e-05 5.4642e-07
-1.34355e-05 -4.42989e-05 -1.25998e-07
5.4642e-07 -1.25998e-07 -7.9084e-05
0.000549551 1.65244e-05 1.54843e-07
1.65244e-05 1.04248e-05 4.62946e-06
1.54843e-07 4.62946e-06 -7.99193e-05
0.00275007 -0.000100048 -6.27266e-06
-0.000100048 0.0013339 4.98169e-07
-6.27266e-06 4.98169e-07 0.00133868
0.000436855 -3.15058e-05 -1.01751e-06
-3.15058e-05 -7.66704e-05 6.62117e-06
-1.01751e-06 6.62117e-06 -0.000106913
0.0025772 -8.3493e-05 3.31423e-05
-8.3493e-05 0.0012212 4.32345e-06
3.31423e-05 4.32345e-06 0.00122953
0.0124895 0.000543672 0.000284038
0.000543672 0.00246234 8.19674e-05
0.000284038 8.19674e-05 0.00163598
-0.00294188 -0.00138821 -0.000220189
-0.00138821 -0.00274473 -3.74392e-05
-0.000220189 -3.74392e-05 -0.00341515
-0.00687688 0.000717269 -9.61795e-05
0.000717269 0.00174411 -6.81394e-05
-9.61795e-05 -6.81394e-05 -0.00271955
0.000403599 2.99292e-05 1.35395e-05
2.99292e-05 -7.45589e-05 1.10712e-06
1.35395e-05 1.10712e-06 -0.000250878
0.00119006 0.000249304 -9.22876e-06
0.000249304 0.000410116 2.42947e-06
-9.22876e-06 2.42947e-06 0.000234095
0.00145658 0.000284399 -2.8038e-06
0.000284399 0.00059822 -1.83135e-06
-2.8038e-06 -1.83135e-06 0.000373278
0.00169232 0.000375617 -3.22339e-06
0.000375617 0.000604096 9.66108e-07
-3.22339e-06 9.66108e-07 0.000335377
0.000862746 0.000341153 1.2608e-05
0.000341153 -4.43829e-05 5.62386e-06
1.2608e-05 5.62386e-06 -0.000326442
-0.000153913 0.000213024 8.09144e-06
0.000213024 -0.000456274 -1.57425e-06
8.09144e-06 -1.57425e-06 -0.000678304
5.98144e-05 0.000171668 -5.89024e-06
0.000171668 -0.0001736 -2.84599e-06
-5.89024e-06 -2.84599e-06 -0.000408546
0.000216331 0.000283822 2.80959e-06
0.000283822 -0.000268138 1.19602e-06
2.80959e-06 1.19602e-06 -0.000502696
0.00149207 0.000426225 -7.31087e-07
0.000426225 0.000424065 1.36454e-06
-7.31087e-07 1.36454e-06 0.000267836
0.000411687 0.0003798 7.58202e-06
0.0003798 -0.000303068 2.72936e-06
7.58202e-06 2.72936e-06 -0.000510039
0.00282953 0.000678091 1.7214e-06
0.000678091 0.000830788 -1.08015e-06
1.7214e-06 -1.08015e-06 0.000643825
0.00186748 0.000661924 4.85338e-06
0.000661924 0.000260517 4.93599e-06
4.85338e-06 4.93599e-06 5.12152e-05
0.0011386 0.000561686 3.80409e-06
0.000561686 -5.8861e-05 -4.25966e-06
3.80409e-06 -4.25966e-06 -0.000241288
0.000574678 0.000319612 -4.42724e-06
0.000319612 9.25338e-06 -3.00991e-06
-4.42724e-06 -3.00991e-06 -0.000143583
0.00592187 0.000950546 -7.43056e-07
0.000950546 7.28305e-05 8.84136e-06
-7.43056e-07 8.84136e-06 0.000619136
0.0108442 0.00123575 0.000150822
0.00123575 0.00171849 7.32207e-05
0.000150822 7.32207e-05 -2.93922e-05
0.00777956 -0.00212395 0.000165958
-0.00212395 0.00398952 -4.93366e-05
0.000165958 -4.93366e-05 0.00268417
0.00410007 0.00220854 0.000391231
0.00220854 -0.000259373 0.000212459
0.000391231 0.000212459 -0.00410678
0.000444836 0.000711435 -6.1465e-05
0.000711435 -2.12765e-06 -8.03217e-06
-6.1465e-05 -8.03217e-06 0.000301651
0.00334606 0.00150942 -0.00010019
0.00150942 -0.000229527 -3.23809e-05
-0.00010019 -3.23809e-05 -0.000259306
0.00486582 0.00130063 5.43494e-05
0.00130063 0.000990912 1.68978e-05
5.43494e-05 1.68978e-05 0.00086192
0.00341439 0.000970031 1.29549e-05
0.000970031 0.000954661 3.14193e-06
1.29549e-05 3.14193e-06 0.000745481
0.000639462 0.000514181 -1.53736e-05
0.000514181 -4.23601e-05 1.30945e-05
-1.53736e-05 1.30945e-05 -0.000273609
0.00488966 0.00140686 -0.000144994
0.00140686 0.00105243 -1.40402e-05
-0.000144994 -1.40402e-05 0.000795256
0.00306094 -0.00028197 -3.09998e-05
-0.00028197 0.000368423 8.08939e-06
-3.09998e-05 8.08939e-06 0.000366153
0.0103261 -0.00035162 -1.57255e-05
-0.00035162 0.0022138 5.48645e-06
-1.57255e-05 5.48645e-06 0.00168769
-0.010628 -0.00114565 0.000420829
-0.00114565 -0.00566795 -1.43937e-07
0.000420829 -1.43937e-07 -0.00543804
0.00035546 -0.000698135 -5.14937e-05
-0.000698135 -0.000690831 6.79389e-06
-5.14937e-05 6.79389e-06 -0.000860486
0.00773699 -0.00142118 7.93782e-05
-0.00142118 0.000807971 5.21516e-05
7.93782e-05 5.21516e-05 0.00102397
0.00168849 -0.00030844 -8.20049e-05
-0.00030844 -0.00249353 5.78642e-05
-8.20049e-05 5.78642e-05 -0.0043473
0.00174309 -0.000545602 1.23668e-05
-0.000545602 -0.00018772 2.33994e-06
1.23668e-05 2.33994e-06 -0.000305552
0.00368616 -0.000279264 -1.46079e-05
-0.000279264 -0.000222605 3.28192e-06
-1.46079e-05 3.28192e-06 -6.23784e-05
0.00458841 -0.000526726 3.2295e-05
-0.000526726 0.0010243 -1.57928e-05
3.2295e-05 -1.57928e-05 0.00116451
0.00384089 -0.000160907 7.42412e-05
-0.000160907 0.00085482 3.09453e-06
7.42412e-05 3.09453e-06 0.000804052
-0.00106607 -0.000379544 -7.21207e-06
-0.000379544 -0.00159065 9.8095e-06
-7.21207e-06 9.8095e-06 -0.00155462
0.00185396 -0.000454071 -1.20564e-06
-0.000454071 -0.000172323 2.20663e-07
-1.20564e-06 2.20663e-07 -0.000111839
0.00193332 -0.000328514 1.69471e-05
-0.000328514 -0.000223867 -3.84647e-06
1.69471e-05 -3.84647e-06 -7.13524e-05
0.00151575 -0.000503684 -1.57631e-06
-0.000503684 -0.000189817 4.26533e-06
-1.57631e-06 4.26533e-06 -0.000337341
0.00208783 -0.000430737 1.63657e-06
-0.000430737 5.07098e-07 6.82917e-07
1.63657e-06 6.82917e-07 -5.04197e-05
0.00202886 -0.000362072 1.35682e-06
-0.000362072 3.67937e-05 9.35022e-07
1.35682e-06 9.35022e-07 1.6772e-05
0.0018955 -0.000408953 7.85891e-07
-0.000408953 3.89902e-05 3.71167e-06
7.85891e-07 3.71167e-06 -8.48729e-05
0.00193991 -0.000374801 4.26734e-07
-0.000374801 8.17315e-05 2.9863e-07
4.26734e-07 2.9863e-07 -6.22306e-06
0.00194876 -0.00033766 -2.90793e-06
-0.00033766 8.67807e-05 1.42628e-06
-2.90793e-06 1.42628e-06 5.2615e-06
0.00179633 -0.00034924 4.20029e-06
-0.00034924 4.9654e-05 3.1132e-06
4.20029e-06 3.1132e-06 -7.43912e-05
0.00187357 -0.000353885 2.33406e-08
-0.000353885 0.000117456 1.3488e-07
2.33406e-08 1.3488e-07 3.01185e-06
0.00179754 -0.000326074 1.96626e-06
-0.000326074 0.000106583 -1.06196e-06
1.96626e-06 -1.06196e-06 -1.16777e-05
0.00177643 -0.000321358 -1.32463e-06
-0.000321358 9.76156e-05 5.58112e-06
-1.32463e-06 5.58112e-06 -2.13729e-05
0.00193795 -0.000327224 -2.22708e-06
-0.000327224 0.000226128 3.60791e-07
-2.22708e-06 3.60791e-07 9.45001e-05
0.00190813 -0.000329487 4.27943e-07
-0.000329487 0.000227844 -2.07434e-06
4.27943e-07 -2.07434e-06 6.88965e-05
0.00183246 -0.00034539 3.29133e-06
-0.00034539 0.000170353 3.8131e-06
3.29133e-06 3.8131e-06 2.60158e-06
0.00179141 -0.000355777 3.33151e-07
-0.000355777 0.000171339 -5.14141e-07
3.33151e-07 -5.14141e-07 -1.7207e-05
0.00179822 -0.000337988 -1.57674e-06
-0.000337988 0.000239522 -2.04168e-06
-1.57674e-06 -2.04168e-06 3.9838e-05
0.00130367 -0.000290401 -8.94981e-06
-0.000290401 0.000105097 1.5391e-06
-8.94981e-06 1.5391e-06 -0.000108808
0.00170149 -0.000380738 -9.631e-07
-0.000380738 0.000232875 -5.07075e-07
-9.631e-07 -5.07075e-07 -1.66036e-06
0.00184134 -0.000420622 4.0839e-06
-0.000420622 0.000243201 1.49337e-06
4.0839e-06 1.49337e-06 8.46505e-06
0.000880058 -0.000195026 -1.15241e-05
-0.000195026 1.70128e-05 6.33884e-06
-1.15241e-05 6.33884e-06 -0.000157602
0.00120768 -0.000290539 4.77763e-07
-0.000290539 0.00011584 4.29782e-07
4.77763e-07 4.29782e-07 -0.000107026
0.0013693 -0.000382002 2.54535e-06
-0.000382002 0.00014187 2.70863e-07
2.54535e-06 2.70863e-07 -0.000118296
0.000425536 -0.000143351 -2.00048e-05
-0.000143351 -0.000135935 1.56371e-05
-2.00048e-05 1.56371e-05 -0.000226175
0.000824443 -0.000189739 6.01262e-07
-0.000189739 4.52432e-05 2.93046e-07
6.01262e-07 2.93046e-07 -0.000134383
0.00102538 -0.000267462 6.33084e-06
-0.000267462 7.42435e-05 -2.66695e-06
6.33084e-06 -2.66695e-06 -0.000146992
0.00504834 0.000184785 -0.000143007
0.000184785 0.00275986 8.03298e-06
-0.000143007 8.03298e-06 0.00274105
0.000526349 -0.000129546 -1.60407e-06
-0.000129546 -5.331e-05 -3.0096e-07
-1.60407e-06 -3.0096e-07 -0.000136324
0.000710329 -0.000196806 7.21956e-06
-0.000196806 5.07027e-05 -5.02698e-06
7.21956e-06 -5.02698e-06 -0.000131933
0.0044172 0.000154423 1.31227e-05
0.000154423 0.00237573 8.76778e-07
1.31227e-05 8.76778e-07 0.00236476
0.000721127 -8.31581e-05 1.65413e-05
-8.31581e-05 9.08648e-05 -1.27725e-05
1.65413e-05 -1.27725e-05 2.14841e-05
0.00377651 0.000110673 0.000125781
0.000110673 0.00197666 -6.66834e-06
0.000125781 -6.66834e-06 0.00197799
0.000672319 0.000274966 -3.7242e-06
0.000274966 -0.000134358 -3.50413e-06
-3.7242e-06 -3.50413e-06 -0.000384501
0.00150509 0.000319315 4.08156e-07
0.000319315 0.000461235 1.88974e-07
4.08156e-07 1.88974e-07 0.000224459
0.00038858 0.000162373 5.65111e-07
0.000162373 -0.000159638 -5.67121e-06
5.65111e-07 -5.67121e-06 -0.000351342
0.000637964 0.000187449 -4.55616e-06
0.000187449 4.50499e-05 -4.29508e-07
-4.55616e-06 -4.29508e-07 -0.000119956
0.000190233 8.70385e-05 1.01537e-06
8.70385e-05 -0.000208555 -8.56685e-07
1.01537e-06 -8.56685e-07 -0.00036279
0.000966207 0.000142937 -2.44962e-06
0.000142937 0.00026629 -5.87037e-06
-2.44962e-06 -5.87037e-06 0.000118151
0.000178338 1.88942e-05 -4.95693e-07
1.88942e-05 -0.000208245 8.30931e-07
-4.95693e-07 8.30931e-07 -0.000342299
0.000653089 4.3557e-05 -1.62379e-07
4.3557e-05 6.88246e-05 -2.02232e-07
-1.62379e-07 -2.02232e-07 -4.35636e-05
0.000595011 -1.13803e-06 -5.58273e-06
-1.13803e-06 2.79422e-05 -1.05338e-05
-5.58273e-06 -1.05338e-05 -2.0141e-05
0.000537746 1.2709e-05 1.63032e-07
1.2709e-05 7.11723e-06 5.769e-06
1.63032e-07 5.769e-06 -9.2327e-05
0.000495009 -6.8332e-06 3.13437e-07
-6.8332e-06 -3.3244e-05 -1.74021e-07
3.13437e-07 -1.74021e-07 -7.3961e-05
0.00315308 -0.000124973 -7.61407e-05
-0.000124973 0.00159643 -3.57424e-06
-7.61407e-05 -3.57424e-06 0.0015953
0.00289271 -0.000115568 -5.52633e-06
-0.000115568 0.00142919 5.25419e-07
-5.52633e-06 5.25419e-07 0.00143024
0.000444045 -2.64972e-07 3.65317e-06
-2.64972e-07 -6.95481e-05 7.86823e-06
3.65317e-06 7.86823e-06 -0.000103307
0.00269968 -9.95481e-05 4.06548e-05
-9.95481e-05 0.00130301 4.05969e-06
4.06548e-05 4.05969e-06 0.00130772
0.00389559 8.65466e-05 5.99155e-05
8.65466e-05 -0.0004817 1.88364e-05
5.99155e-05 1.88364e-05 0.000112888
0.00368231 -0.00068052 9.2814e-05
-0.00068052 -0.00277204 4.36219e-05
9.2814e-05 4.36219e-05 -0.00390406
0.00886024 -0.00146833 -0.000125622
-0.00146833 0.00325741 -6.782e-05
-0.000125622 -6.782e-05 0.00333012
0.00113452 0.000403164 8.09184e-06
0.000403164 -2.35944e-05 5.38369e-06
8.09184e-06 5.38369e-06 -0.000297874
0.00221781 0.000361876 -3.09384e-06
0.000361876 0.00103352 3.362e-06
-3.09384e-06 3.362e-06 0.000793371
0.00187643 0.000390651 -6.20959e-06
0.000390651 0.000733647 6.01637e-06
-6.20959e-06 6.01637e-06 0.000465612
0.000832737 0.000320699 2.45378e-06
0.000320699 0.000117129 2.33291e-06
2.45378e-06 2.33291e-06 -0.000127466
0.00125502 0.000379137 -1.79427e-06
0.000379137 0.000206908 1.58155e-07
-1.79427e-06 1.58155e-07 -8.65159e-05
0.00119881 0.0004535 1.3601e-05
0.0004535 0.000127342 9.28016e-06
1.3601e-05 9.28016e-06 -0.000134342
0.00118381 0.000389683 -1.53519e-05
0.000389683 0.00027239 -6.33187e-06
-1.53519e-05 -6.33187e-06 6.10389e-06
0.000809803 0.000382999 5.0677e-06
0.000382999 5.46949e-05 1.07683e-06
5.0677e-06 1.07683e-06 -0.0001107
0.00120087 0.000464554 1.69794e-06
0.000464554 0.000133256 -1.41585e-06
1.69794e-06 -1.41585e-06 -8.8749e-05
0.00194415 0.000596642 3.15504e-06
0.000596642 0.000328434 5.3949e-06
3.15504e-06 5.3949e-06 0.000171825
0.00165835 0.000606654 8.32047e-06
0.000606654 0.000102005 -3.28541e-07
8.32047e-06 -3.28541e-07 -0.000121283
0.00172503 0.000572286 1.27778e-05
0.000572286 0.000154757 5.69359e-06
1.27778e-05 5.69359e-06 -2.38031e-06
0.00115572 0.000598241 -3.73231e-06
0.000598241 -0.000119951 -3.24387e-06
-3.73231e-06 -3.24387e-06 -0.000315477
0.000585359 0.000500841 -6.66075e-06
0.000500841 -0.000347047 -1.77092e-06
-6.66075e-06 -1.77092e-06 -0.000500393
0.00161321 0.00051426 3.75734e-05
0.00051426 -0.000404549 3.49033e-05
3.75734e-05 3.49033e-05 -0.000303335
0.00556552 0.00101666 -6.84128e-05
0.00101666 -0.000444723 -1.82392e-05
-6.84128e-05 -1.82392e-05 0.000139364
0.0030589 0.000801505 0.000349607
0.000801505 -0.00259568 5.70616e-05
0.000349607 5.70616e-05 -0.00448146
0.00020848 0.00110353 -5.88099e-05
0.00110353 -0.00146249 -2.61383e-05
-5.88099e-05 -2.61383e-05 -0.00135628
0.00336366 0.00104389 -2.91654e-05
0.00104389 0.000535255 -5.27453e-06
-2.91654e-05 -5.27453e-06 0.000424995
0.00308454 0.000939143 -8.80861e-05
0.000939143 0.000757795 -2.62068e-05
-8.80861e-05 -2.62068e-05 0.000543553
0.00253909 -0.000226267 -3.04119e-05
-0.000226267 -7.00262e-05 -1.03031e-05
-3.04119e-05 -1.03031e-05 3.05673e-05
0.000562757 -0.000126464 3.0887e-05
-0.000126464 -0.000277255 8.04878e-06
3.0887e-05 8.04878e-06 -0.000232232
0.00143954 0.000814716 0.000122731
0.000814716 -0.00385523 -1.79269e-05
0.000122731 -1.79269e-05 -0.00412278
-0.000657002 -0.000354485 -2.68818e-05
-0.000354485 -0.00149749 3.52863e-05
-2.68818e-05 3.52863e-05 -0.00140713
0.00478043 -0.000265217 -7.46847e-05
-0.000265217 0.000389863 4.16721e-05
-7.46847e-05 4.16721e-05 0.000201866
0.00237322 -0.000389368 -2.18311e-05
-0.000389368 -0.000131556 7.85074e-06
-2.18311e-05 7.85074e-06 5.46401e-05
0.00350727 -0.000207594 2.04626e-06
-0.000207594 0.000608056 -4.21958e-06
2.04626e-06 -4.21958e-06 0.000568903
0.00175664 -0.000221696 3.88405e-05
-0.000221696 -0.000403727 -3.3415e-06
3.88405e-05 -3.3415e-06 -0.000182266
0.00333359 -6.28916e-05 2.99954e-05
-6.28916e-05 0.000985615 6.047e-07
2.99954e-05 6.047e-07 0.00094721
0.000943364 -0.000395223 -2.11013e-05
-0.000395223 -0.000654831 1.0198e-05
-2.11013e-05 1.0198e-05 -0.000569673
0.00188167 -0.000339032 -1.58036e-07
-0.000339032 -0.000273495 2.13057e-06
-1.58036e-07 2.13057e-06 -0.000131081
0.00210696 -0.000317469 2.71873e-06
-0.000317469 -9.3045e-05 -1.13617e-06
2.71873e-06 -1.13617e-06 1.47512e-05
0.00201196 -0.00042567 -2.14698e-06
-0.00042567 -3.28957e-05 1.86068e-06
-2.14698e-06 1.86068e-06 -8.41151e-05
0.00202468 -0.000363604 3.38352e-07
-0.000363604 3.70137e-05 -6.3992e-08
3.38352e-07 -6.3992e-08 1.48657e-05
0.0020111 -0.000309098 -1.76939e-06
-0.000309098 4.88814e-05 4.20254e-07
-1.76939e-06 4.20254e-07 1.11021e-05
0.00187368 -0.000365721 -3.54286e-07
-0.000365721 5.38756e-05 2.54959e-08
-3.54286e-07 2.54959e-08 -3.23058e-05
0.0019264 -0.000342727 -5.8435e-07
-0.000342727 7.97478e-05 1.00256e-07
-5.8435e-07 1.00256e-07 -4.29846e-06
0.00189662 -0.000302543 -8.3642e-07
-0.000302543 0.000117127 7.50144e-07
-8.3642e-07 7.50144e-07 1.61648e-05
0.00177543 -0.00034763 -2.21532e-07
-0.00034763 7.23819e-05 3.00991e-07
-2.21532e-07 3.00991e-07 -4.20041e-05
0.0017801 -0.000326013 9.31648e-07
-0.000326013 9.20196e-05 -6.99817e-07
9.31648e-07 -6.99817e-07 -2.66903e-05
0.0018114 -0.000310729 1.62243e-06
-0.000310729 0.000130243 -2.00947e-06
1.62243e-06 -2.00947e-06 -6.30747e-06
0.00192405 -0.000322558 -3.97762e-06
-0.000322558 0.000213193 4.59837e-06
-3.97762e-06 4.59837e-06 8.5387e-05
0.00195624 -0.000329747 -1.64586e-06
-0.000329747 0.000252692 4.51766e-07
-1.64586e-06 4.51766e-07 9.76623e-05
0.00182569 -0.000311099 -1.11724e-06
-0.000311099 0.00022436 -1.61195e-06
-1.11724e-06 -1.61195e-06 4.59102e-05
0.00184616 -0.000360887 2.47578e-06
-0.000360887 0.000205237 2.30183e-06
2.47578e-06 2.30183e-06 1.50954e-05
0.00179282 -0.000339924 7.96715e-07
-0.000339924 0.00023692 -5.83939e-07
7.96715e-07 -5.83939e-07 3.64225e-05
0.00142472 -0.000267162 -6.95425e-06
-0.000267162 0.000129385 1.36986e-06
-6.95425e-06 1.36986e-06 -6.7307e-05
0.000888031 -0.000187051 -1.29214e-05
-0.000187051 -1.7554e-05 6.43892e-06
-1.29214e-05 6.43892e-06 -0.00018511
0.00129067 -0.00028807 -1.3425e-06
-0.00028807 0.00010162 1.02406e-07
-1.3425e-06 1.02406e-07 -0.000112557
0.00170102 -0.000382912 2.87019e-06
-0.000382912 0.000234663 3.21153e-07
2.87019e-06 3.21153e-07 -2.37474e-06
0.000504236 -0.000193198 -2.24041e-05
-0.000193198 -9.17193e-05 1.62704e-05
-2.24041e-05 1.62704e-05 -0.000199032
0.000863179 -0.000195429 5.23545e-07
-0.000195429 6.76058e-06 1.2006e-07
5.23545e-07 1.2006e-07 -0.00016851
0.00119786 -0.000291612 7.22042e-06
-0.000291612 0.000105429 -1.85922e-06
7.22042e-06 -1.85922e-06 -0.00011791
0.00561331 0.000149699 -0.000180239
0.000149699 0.00308453 1.04429e-05
-0.000180239 1.04429e-05 0.00307221
0.000535603 -0.000186615 -1.24525e-06
-0.000186615 -6.60704e-05 2.83124e-07
-1.24525e-06 2.83124e-07 -0.000164409
0.000770363 -0.000190241 1.01454e-05
-0.000190241 1.59171e-05 -6.07463e-06
1.01454e-05 -6.07463e-06 -0.000164715
0.00526106 0.000147722 4.589e-06
0.000147722 0.00287847 5.32867e-07
4.589e-06 5.32867e-07 0.00286638
0.00067608 -0.000147707 2.06758e-05
-0.000147707 3.66808e-05 -1.54179e-05
2.06758e-05 -1.54179e-05 -5.21345e-05
0.00475306 0.000117686 0.000164119
0.000117686 0.00256879 -1.15893e-05
0.000164119 -1.15893e-05 0.00256428
0.00113969 0.000341275 -2.56194e-06
0.000341275 5.8349e-05 1.75156e-06
-2.56194e-06 1.75156e-06 -0.000202375
0.00127351 0.000333893 -2.77226e-06
0.000333893 0.000226247 -8.3671e-07
-2.77226e-06 -8.3671e-07 -3.51056e-05
0.00121777 0.000272401 -5.56629e-06
0.000272401 0.000236419 -2.43966e-06
-5.56629e-06 -2.43966e-06 1.28679e-05
0.00268341 0.00043023 -2.10216e-06
0.00043023 0.00118128 3.99543e-06
-2.10216e-06 3.99543e-06 0.000924972
0.00088669 0.000208391 -1.87111e-06
0.000208391 0.000144708 -1.95048e-06
-1.87111e-06 -1.95048e-06 -5.69188e-05
0.000956104 0.000192382 -4.42098e-06
0.000192382 0.000245364 -5.34657e-06
-4.42098e-06 -5.34657e-06 6.79423e-05
0.000285598 9.48964e-05 -1.94667e-06
9.48964e-05 -0.000157659 -1.91045e-07
-1.94667e-06 -1.91045e-07 -0.000315986
0.000612366 8.07677e-05 -4.04542e-07
8.07677e-05 4.08703e-05 -3.62101e-07
-4.04542e-07 -3.62101e-07 -9.29858e-05
0.000701645 2.41938e-05 -9.15198e-06
2.41938e-05 8.69054e-05 -1.18655e-05
-9.15198e-06 -1.18655e-05 2.99196e-05
0.000485412 1.88991e-05 4.66496e-07
1.88991e-05 -3.05628e-05 6.44866e-06
4.66496e-07 6.44866e-06 -0.000140921
0.000506069 -5.41163e-06 3.19823e-07
-5.41163e-06 -2.36809e-05 -1.56479e-07
3.19823e-07 -1.56479e-07 -7.14478e-05
0.00349937 -0.000135065 -9.70007e-05
-0.000135065 0.00181508 -3.69822e-06
-9.70007e-05 -3.69822e-06 0.00181124
0.000396325 -4.25559e-06 4.03681e-06
-4.25559e-06 -9.13685e-05 9.08711e-06
4.03681e-06 9.08711e-06 -0.000131526
0.00311961 -0.000132084 -4.91684e-06
-0.000132084 0.00157676 5.04371e-07
-4.91684e-06 5.04371e-07 0.00157359
0.00288402 -0.000116898 5.01987e-05
-0.000116898 0.00142356 3.79115e-06
5.01987e-05 3.79115e-06 0.00142413
0.000474354 7.57239e-05 1.27266e-05
7.57239e-05 -0.00117858 1.30495e-05
1.27266e-05 1.30495e-05 -0.000939988
0.00512981 3.73279e-05 5.77276e-05
3.73279e-05 0.000173485 2.21591e-06
5.77276e-05 2.21591e-06 0.000658096
0.0118332 0.000736982 -6.82517e-05
0.000736982 0.0029497 -1.90794e-05
-6.82517e-05 -1.90794e-05 0.00207716
0.00176772 0.000521121 4.41605e-06
0.000521121 0.000307161 2.86936e-06
4.41605e-06 2.86936e-06 3.72846e-05
0.00186972 0.000509937 2.6311e-06
0.000509937 0.000270868 2.11668e-06
2.6311e-06 2.11668e-06 1.88544e-05
0.00119449 0.000414239 8.52635e-07
0.000414239 2.34911e-05 -2.83731e-06
8.52635e-07 -2.83731e-06 -0.00025061
0.00159125 0.000405821 -4.74721e-06
0.000405821 0.000553159 3.92664e-06
-4.74721e-06 3.92664e-06 0.000291185
0.00165516 0.00041659 -3.26828e-06
0.00041659 0.000463967 -2.46972e-06
-3.26828e-06 -2.46972e-06 0.000158958
0.00156215 0.000490602 7.51075e-06
0.000490602 0.000316695 1.7244e-06
7.51075e-06 1.7244e-06 5.25217e-05
0.00170368 0.00056795 2.99794e-07
0.00056795 9.78071e-05 -2.25943e-06
2.99794e-07 -2.25943e-06 -0.000138477
0.00201662 0.000550892 -1.21729e-05
0.000550892 0.000575928 -1.6952e-09
-1.21729e-05 -1.6952e-09 0.000338982
0.00134173 0.000540347 4.30058e-06
0.000540347 -2.04765e-05 1.51283e-05
4.30058e-06 1.51283e-05 -0.000151951
0.00233174 0.000664665 -2.32471e-06
0.000664665 0.000475956 1.37e-06
-2.32471e-06 1.37e-06 0.000246022
0.00215856 0.000582391 -7.81194e-06
0.000582391 0.00024708 -8.00462e-07
-7.81194e-06 -8.00462e-07 5.94853e-05
0.000782754 0.00029856 1.86191e-05
0.00029856 -0.000483396 1.03202e-05
1.86191e-05 1.03202e-05 -0.000505925
0.000943958 0.000507189 1.09653e-05
0.000507189 -0.000241249 -3.07317e-07
1.09653e-05 -3.07317e-07 -0.000392276
0.00120228 0.000595854 -1.9384e-05
0.000595854 -0.000101784 -7.13872e-06
-1.9384e-05 -7.13872e-06 -0.000295327
0.00235288 0.000549627 4.37059e-06
0.000549627 -2.09093e-05 8.38094e-06
4.37059e-06 8.38094e-06 1.85823e-05
0.00518054 0.000674121 7.98572e-06
0.000674121 -0.000567112 -2.24334e-05
7.98572e-06 -2.24334e-05 -0.000398834
0.00327931 0.000895101 -4.65049e-06
0.000895101 0.000791884 -3.37357e-05
-4.65049e-06 -3.37357e-05 0.000710977
0.00151287 -5.14808e-05 2.66331e-05
-5.14808e-05 -9.15052e-05 -7.85776e-07
2.66331e-05 -7.85776e-07 -6.19253e-05
0.00225097 -0.000158447 -3.40303e-05
-0.000158447 -0.000160029 7.54057e-07
-3.40303e-05 7.54057e-07 -8.64746e-05
0.00172978 0.000240856 1.82696e-05
0.000240856 -0.000586248 -1.24524e-05
1.82696e-05 -1.24524e-05 -0.000613304
9.47373e-05 -0.000265984 -3.70551e-05
-0.000265984 -0.00132993 2.96933e-05
-3.70551e-05 2.96933e-05 -0.00112241
0.00360879 -0.000284426 -0.000101856
-0.000284426 0.000569087 -2.18295e-06
-0.000101856 -2.18295e-06 0.000587941
0.00205437 -0.000250657 5.52038e-06
-0.000250657 -0.00016133 -3.1993e-06
5.52038e-06 -3.1993e-06 3.48497e-05
0.00242672 -6.87602e-05 -8.82396e-06
-6.87602e-05 0.000407133 4.53855e-07
-8.82396e-06 4.53855e-07 0.000376786
0.00215675 -0.000204621 6.22199e-06
-0.000204621 -3.54634e-06 5.79851e-07
6.22199e-06 5.79851e-07 3.82778e-05
0.00207775 -1.97646e-05 7.40583e-06
-1.97646e-05 -3.30743e-06 1.41784e-06
7.40583e-06 1.41784e-06 -7.66901e-06
0.00187643 -0.000356482 -1.03025e-05
-0.000356482 -0.000307482 3.51962e-06
-1.03025e-05 3.51962e-06 -0.000173251
0.00213061 -0.000319621 -2.03898e-06
-0.000319621 -6.60787e-05 2.34301e-07
-2.03898e-06 2.34301e-07 2.04924e-05
0.00208207 -0.000235942 -9.62276e-07
-0.000235942 -9.52914e-06 -5.38877e-07
-9.62276e-07 -5.38877e-07 -3.05352e-07
0.00202658 -0.000366332 -2.69832e-06
-0.000366332 3.92989e-05 -5.41127e-07
-2.69832e-06 -5.41127e-07 1.40627e-05
0.00200628 -0.00030569 -4.90326e-08
-0.00030569 5.74838e-05 7.30518e-08
-4.90326e-08 7.30518e-08 1.44989e-05
0.00197609 -0.000268011 -1.83779e-06
-0.000268011 8.00591e-05 7.03853e-07
-1.83779e-06 7.03853e-07 9.34243e-06
0.00190584 -0.000348 -1.90384e-07
-0.000348 7.37731e-05 -1.74349e-06
-1.90384e-07 -1.74349e-06 -1.28616e-05
0.00183541 -0.000298657 5.88987e-07
-0.000298657 7.80444e-05 -2.37193e-07
5.88987e-07 -2.37193e-07 -2.32156e-05
0.00182404 -0.00027586 5.88081e-07
-0.00027586 9.56878e-05 -6.48253e-07
5.88081e-07 -6.48253e-07 -1.91219e-05
0.00177136 -0.000326406 -6.7527e-08
-0.000326406 8.27081e-05 -3.06413e-07
-6.7527e-08 -3.06413e-07 -3.64575e-05
0.00183739 -0.000311565 6.54932e-08
-0.000311565 0.000146547 -4.24217e-07
6.54932e-08 -4.24217e-07 9.827e-06
0.00175896 -0.000284659 -2.55791e-07
-0.000284659 0.000147689 -1.38293e-06
-2.55791e-07 -1.38293e-06 -1.35434e-05
0.00199749 -0.000329729 -2.08617e-06
-0.000329729 0.000272967 3.81793e-06
-2.08617e-06 3.81793e-06 0.000121892
0.00182941 -0.000311727 -6.0881e-07
-0.000311727 0.000227439 -1.40375e-07
-6.0881e-07 -1.40375e-07 5.0048e-05
0.00142584 -0.000242774 -5.98462e-06
-0.000242774 9.99933e-05 1.1832e-06
-5.98462e-06 1.1832e-06 -8.41776e-05
0.00179153 -0.000342022 3.60004e-06
-0.000342022 0.000236775 9.73215e-07
3.60004e-06 9.73215e-07 3.54512e-05
0.00143974 -0.000269233 -3.21224e-07
-0.000269233 0.000139105 -1.46118e-08
-3.21224e-07 -1.46118e-08 -5.7321e-05
0.000942186 -0.00017493 -1.39096e-05
-0.00017493 -1.38971e-05 6.18203e-06
-1.39096e-05 6.18203e-06 -0.000174208
0.000422598 -0.000176183 -2.02215e-05
-0.000176183 -0.000151295 1.51082e-05
-2.02215e-05 1.51082e-05 -0.00025737
0.000921987 -0.000190112 1.78982e-07
-0.000190112 2.61568e-07 7.65786e-08
1.78982e-07 7.65786e-08 -0.000167996
0.00128424 -0.000286197 5.7265e-06
-0.000286197 0.000101917 -1.37448e-06
5.7265e-06 -1.37448e-06 -0.000112606
0.00589848 7.61976e-05 -0.000209541
7.61976e-05 0.00323348 1.20672e-05
-0.000209541 1.20672e-05 0.00323273
0.000510026 -0.00018917 -1.57908e-06
-0.00018917 -9.557e-05 9.25011e-07
-1.57908e-06 9.25011e-07 -0.00019901
0.000845827 -0.000195795 1.1864e-05
-0.000195795 -2.75598e-06 -6.08225e-06
1.1864e-05 -6.08225e-06 -0.000178693
0.00571806 0.00012525 -1.0195e-06
0.00012525 0.00314567 -1.59401e-07
-1.0195e-06 -1.59401e-07 0.0031347
0.000614658 -0.000189663 2.35909e-05
-0.000189663 -2.18051e-05 -1.61881e-05
2.35909e-05 -1.61881e-05 -0.000121685
0.00541896 0.000142127 0.000179354
0.000142127 0.00297765 -1.51995e-05
0.000179354 -1.51995e-05 0.00296266
0.00151469 0.000416408 -1.56955e-06
0.000416408 0.000177983 2.69205e-06
-1.56955e-06 2.69205e-06 -7.52054e-05
0.00128623 0.000360482 4.33346e-08
0.000360482 0.000143971 6.83082e-07
4.33346e-08 6.83082e-07 -0.000119598
0.00114287 0.000278738 -7.40464e-06
0.000278738 9.8321e-05 -1.68011e-06
-7.40464e-06 -1.68011e-06 -0.000124538
0.00184423 0.000389819 3.5183e-07
0.000389819 0.000568663 2.69076e-06
3.5183e-07 2.69076e-06 0.000296794
0.00103706 0.000252162 -1.92994e-06
0.000252162 0.000129619 4.7651e-07
-1.92994e-06 4.7651e-07 -8.88382e-05
0.000902846 0.000207562 -8.30617e-06
0.000207562 0.000147426 -4.51683e-06
-8.30617e-06 -4.51683e-06 -3.78305e-05
0.00107632 0.000227175 -1.87915e-06
0.000227175 0.000261495 7.22322e-07
-1.87915e-06 7.22322e-07 5.51001e-05
0.00079701 0.000159815 2.51671e-08
0.000159815 0.000156557 1.3115e-07
2.51671e-08 1.3115e-07 -1.75925e-05
0.000692582 8.79794e-05 -1.60649e-05
8.79794e-05 6.94211e-05 -1.44411e-05
-1.60649e-05 -1.44411e-05 -6.39669e-06
0.000550939 3.49641e-05 8.14492e-07
3.49641e-05 7.11714e-07 5.31367e-06
8.14492e-07 5.31367e-06 -0.000125226
0.000465681 1.45569e-05 -5.71401e-07
1.45569e-05 -5.1039e-05 -5.1031e-07
-5.71401e-07 -5.1031e-07 -0.000107106
0.0039657 -0.000136542 -0.000125989
-0.000136542 0.00210291 -5.76218e-06
-0.000125989 -5.76218e-06 0.00209711
0.000397788 -4.97626e-06 4.68506e-06
-4.97626e-06 -8.76425e-05 1.02043e-05
4.68506e-06 1.02043e-05 -0.000134642
0.00335824 -0.000146023 -4.93421e-06
-0.000146023 0.00173129 4.89435e-07
-4.93421e-06 4.89435e-07 0.00172418
0.0030527 -0.000134169 5.99765e-05
-0.000134169 0.00153622 3.5218e-06
5.99765e-05 3.5218e-06 0.00153217
0.000640605 8.64642e-05 2.15016e-05
8.64642e-05 -0.000610553 1.0507e-05
2.15016e-05 1.0507e-05 -0.000510201
0.00220402 6.95843e-05 -9.62963e-06
6.95843e-05 -0.000473563 -2.27592e-06
-9.62963e-06 -2.27592e-06 -0.000212118
0.00402946 0.000100342 0.000158615
0.000100342 -0.000882135 4.1421e-05
0.000158615 4.1421e-05 4.41463e-05
0.00241586 0.000576665 -3.01388e-06
0.000576665 0.000511453 -3.52972e-07
-3.01388e-06 -3.52972e-07 0.000269197
0.00165901 0.000530906 -3.54055e-06
0.000530906 0.000227907 -3.945e-06
-3.54055e-06 -3.945e-06 -3.93748e-05
0.00200042 0.000435756 -7.22712e-07
0.000435756 0.000205771 3.30049e-06
-7.22712e-07 3.30049e-06 7.32994e-06
0.00185511 0.000501514 9.08385e-07
0.000501514 0.000260031 2.79492e-07
9.08385e-07 2.79492e-07 1.02941e-05
0.0012496 0.000425017 6.56558e-07
0.000425017 6.48763e-05 -8.27153e-06
6.56558e-07 -8.27153e-06 -0.00020895
0.00181927 0.000452891 -4.10162e-07
0.000452891 3.33859e-05 8.91242e-07
-4.10162e-07 8.91242e-07 -0.000144318
0.00199941 0.000536456 -6.17991e-06
0.000536456 0.000551827 -2.34187e-06
-6.17991e-06 -2.34187e-06 0.000282987
0.00198484 0.000582257 1.33535e-07
0.000582257 0.000275693 -1.66724e-07
1.33535e-07 -1.66724e-07 3.62079e-05
0.00186673 0.000338917 -6.88482e-06
0.000338917 -5.47006e-05 -5.72373e-07
-6.88482e-06 -5.72373e-07 -0.000136125
0.0028203 0.000708449 -1.25427e-06
0.000708449 0.000743825 3.49444e-06
-1.25427e-06 3.49444e-06 0.000510952
0.00205443 0.000578993 -1.59078e-06
0.000578993 0.000180114 -5.00758e-08
-1.59078e-06 -5.00758e-08 -1.01705e-05
0.00087135 0.000307688 5.49529e-06
0.000307688 -0.000397167 3.37803e-06
5.49529e-06 3.37803e-06 -0.000427782
-0.000518557 0.000393702 -1.10645e-05
0.000393702 -0.000993669 -1.98227e-06
-1.10645e-05 -1.98227e-06 -0.00113062
0.00251973 0.000574707 -7.06091e-05
0.000574707 4.87558e-05 -2.82686e-05
-7.06091e-05 -2.82686e-05 3.52609e-05
0.00194065 5.00557e-05 -2.44808e-07
5.00557e-05 -0.000107807 -3.94476e-07
-2.44808e-07 -3.94476e-07 -7.84985e-05
0.00226465 -4.75584e-05 2.2221e-06
-4.75584e-05 0.000388548 8.72e-07
2.2221e-06 8.72e-07 0.000414658
0.00177033 -0.000113385 -6.05383e-05
-0.000113385 -0.000299189 5.2721e-07
-6.05383e-05 5.2721e-07 -0.000347993
0.00232707 -0.000278738 -4.40103e-05
-0.000278738 6.2564e-05 3.8552e-06
-4.40103e-05 3.8552e-06 0.000228065
0.00151354 -8.57846e-05 -1.10405e-05
-8.57846e-05 -0.000172322 6.66469e-07
-1.10405e-05 6.66469e-07 -0.00019348
0.00208541 -0.000199876 -1.05414e-08
-0.000199876 -4.99296e-05 -9.89521e-07
-1.05414e-08 -9.89521e-07 6.11065e-06
0.00212728 -2.09654e-05 -1.38382e-06
-2.09654e-05 1.93592e-06 1.38295e-06
-1.38382e-06 1.38295e-06 4.2256e-06
0.00215375 -7.18633e-05 -1.05872e-06
-7.18633e-05 1.31487e-05 -2.71884e-07
-1.05872e-06 -2.71884e-07 3.04461e-05
0.00214099 -0.000318716 -4.57766e-06
-0.000318716 -4.23857e-05 7.53651e-07
-4.57766e-06 7.53651e-07 2.38371e-05
0.00206036 -0.000227112 4.11597e-07
-0.000227112 -9.28641e-06 -1.71092e-07
4.11597e-07 -1.71092e-07 -2.65005e-06
0.0020029 -0.000182846 -1.82359e-06
-0.000182846 1.74057e-05 1.10425e-07
-1.82359e-06 1.10425e-07 -4.02171e-06
0.00200033 -0.000302409 1.03654e-06
-0.000302409 6.4644e-05 -8.66116e-07
1.03654e-06 -8.66116e-07 1.72518e-05
0.00191861 -0.000262925 2.72079e-07
-0.000262925 5.28915e-05 9.66556e-08
2.72079e-07 9.66556e-08 -1.95454e-05
0.00188118 -0.000220022 -4.71563e-07
-0.000220022 8.86868e-05 -2.44587e-07
-4.71563e-07 -2.44587e-07 -2.27171e-06
0.0017598 -0.000294258 1.50172e-06
-0.000294258 2.93922e-05 -1.0376e-06
1.50172e-06 -1.0376e-06 -7.2151e-05
0.00186061 -0.000277024 1.56068e-07
-0.000277024 0.000116458 -1.47436e-07
1.56068e-07 -1.47436e-07 1.42641e-06
0.00180744 -0.000251096 3.60255e-07
-0.000251096 0.000133097 -1.22209e-06
3.60255e-07 -1.22209e-06 -7.86486e-06
0.00186166 -0.000312331 -8.15257e-07
-0.000312331 0.000161873 9.9584e-07
-8.15257e-07 9.9584e-07 2.4988e-05
0.00179131 -0.000285871 -3.18588e-07
-0.000285871 0.000168017 -5.7676e-08
-3.18588e-07 -5.7676e-08 6.94461e-06
0.00147403 -0.000221084 -4.23003e-06
-0.000221084 9.80576e-05 8.17355e-07
-4.23003e-06 8.17355e-07 -7.47299e-05
0.0018342 -0.000312317 5.37597e-07
-0.000312317 0.000231022 1.47428e-06
5.37597e-07 1.47428e-06 5.47179e-05
0.00145223 -0.000244205 -2.97616e-07
-0.000244205 0.000115038 7.42079e-08
-2.97616e-07 7.42079e-08 -6.88252e-05
0.000955809 -0.000156967 -1.41733e-05
-0.000156967 -2.36183e-05 5.631e-06
-1.41733e-05 5.631e-06 -0.000177703
0.00145209 -0.000271175 6.03494e-06
-0.000271175 0.000147196 -1.02449e-06
6.03494e-06 -1.02449e-06 -4.89532e-05
0.000961461 -0.000175167 1.9133e-07
-0.000175167 -4.5994e-06 8.78451e-08
1.9133e-07 8.78451e-08 -0.000164677
0.00252104 -0.000136124 -3.61935e-05
-0.000136124 0.00110397 9.60755e-06
-3.61935e-05 9.60755e-06 0.00101889
0.00183356 -6.3961e-05 -0.000203562
-6.3961e-05 0.000759432 2.4203e-05
-0.000203562 2.4203e-05 0.000741645
0.0015504 -0.000167836 -7.99417e-06
-0.000167836 0.000525274 -4.00319e-07
-7.99417e-06 -4.00319e-07 0.000426861
0.000951426 -0.000192739 1.28716e-05
-0.000192739 1.56581e-05 -6.01314e-06
1.28716e-05 -6.01314e-06 -0.000153261
0.00597383 5.91726e-05 -6.71711e-06
5.91726e-05 0.00328564 -5.5092e-08
-6.71711e-06 -5.5092e-08 0.00328162
0.000551724 -0.000215208 2.45869e-05
-0.000215208 -7.23664e-05 -1.57414e-05
2.45869e-05 -1.57414e-05 -0.000177699
0.00583195 0.000104633 0.000203528
0.000104633 0.00321916 -1.80875e-05
0.000203528 -1.80875e-05 0.00320595
0.00198551 0.000338012 6.35739e-08
0.000338012 0.000168316 2.80553e-07
6.35739e-08 2.80553e-07 7.92899e-06
0.00180394 0.000414914 1.71097e-06
0.000414914 0.000223982 3.55637e-06
1.71097e-06 3.55637e-06 1.80059e-06
0.0017648 0.000440412 5.17893e-08
0.000440412 0.000317159 2.12144e-07
5.17893e-08 2.12144e-07 6.18339e-05
0.00121319 0.000299259 -7.09172e-06
0.000299259 8.21127e-05 -1.00968e-06
-7.09172e-06 -1.00968e-06 -0.000138987
0.00147584 0.000384822 4.63209e-06
0.000384822 0.000254641 6.11229e-07
4.63209e-06 6.11229e-07 -1.29567e-05
0.00115559 0.00027547 -4.19762e-07
0.00027547 0.000109579 2.35101e-07
-4.19762e-07 2.35101e-07 -0.000111951
0.000844759 0.000193249 -1.09471e-05
0.000193249 2.625e-05 -5.57439e-06
-1.09471e-05 -5.57439e-06 -0.000148735
0.00100106 0.000246258 3.81577e-06
0.000246258 0.000109647 4.29904e-06
3.81577e-06 4.29904e-06 -0.000106372
0.000775297 0.000192003 1.82165e-07
0.000192003 6.92624e-05 9.09007e-07
1.82165e-07 9.09007e-07 -0.000114917
0.000671293 0.000177457 -2.32503e-05
0.000177457 3.69399e-05 -1.60089e-05
-2.32503e-05 -1.60089e-05 -5.91628e-05
0.000481646 0.000129443 1.39099e-06
0.000129443 -3.39337e-05 4.2523e-06
1.39099e-06 4.2523e-06 -0.000202207
0.000593173 7.81188e-05 -2.00515e-06
7.81188e-05 1.17935e-05 -5.87366e-07
-2.00515e-06 -5.87366e-07 -5.91927e-05
0.00479872 -0.000133984 -0.000166584
-0.000133984 0.00261138 -1.09938e-05
-0.000166584 -1.09938e-05 0.00260038
0.000363737 4.72346e-06 5.93835e-06
4.72346e-06 -0.000107379 1.14749e-05
5.93835e-06 1.14749e-05 -0.000163555
0.00379631 -0.000162103 -6.50094e-06
-0.000162103 0.00200657 5.04668e-07
-6.50094e-06 5.04668e-07 0.00199451
0.00329903 -0.000152467 7.21622e-05
-0.000152467 0.0016961 3.18798e-06
7.21622e-05 3.18798e-06 0.0016871
0.00204324 0.000175029 -1.52008e-06
0.000175029 -5.44401e-05 -1.81298e-07
-1.52008e-06 -1.81298e-07 -3.63351e-05
0.0019539 6.21481e-05 2.06874e-05
6.21481e-05 7.43629e-05 -2.11223e-06
2.06874e-05 -2.11223e-06 0.000162605
0.00454536 9.77326e-05 -0.000105306
9.77326e-05 0.00052066 -1.58318e-05
-0.000105306 -1.58318e-05 0.000834081
0.00185866 0.000390044 -3.89216e-06
0.000390044 7.08113e-05 1.08629e-06
-3.89216e-06 1.08629e-06 -9.40336e-05
0.00200626 0.000537003 -2.85125e-06
0.000537003 0.000290898 -1.29238e-07
-2.85125e-06 -1.29238e-07 5.33951e-05
0.0015604 0.000540978 -9.49548e-06
0.000540978 0.000156251 -7.744e-06
-9.49548e-06 -7.744e-06 -0.000107989
0.00209834 0.000429519 2.92721e-06
0.000429519 0.000279655 1.15412e-06
2.92721e-06 1.15412e-06 8.36714e-05
0.00181611 0.000491914 -1.47467e-06
0.000491914 0.000235574 -3.09801e-06
-1.47467e-06 -3.09801e-06 -1.18718e-05
0.0022273 0.000329266 -6.21551e-07
0.000329266 0.000158932 3.58138e-08
-6.21551e-07 3.58138e-08 6.53916e-05
0.00173764 0.00044836 -2.3134e-08
0.00044836 1.00625e-05 8.48908e-07
-2.3134e-08 8.48908e-07 -0.000168411
0.00231862 0.000601529 -5.56518e-06
0.000601529 0.000482438 -6.33508e-07
-5.56518e-06 -6.33508e-07 0.000238652
0.00190171 0.0003405 -9.24859e-07
0.0003405 -2.94473e-05 -5.40461e-07
-9.24859e-07 -5.40461e-07 -0.000111264
0.00207773 0.000583692 1.53532e-05
0.000583692 0.000174268 3.57992e-06
1.53532e-05 3.57992e-06 -1.95357e-05
0.00109039 0.000308257 -3.22932e-05
0.000308257 -0.000251226 -8.25891e-06
-3.22932e-05 -8.25891e-06 -0.000288638
0.00211207 5.84577e-05 -7.69897e-07
5.84577e-05 -2.78772e-07 3.77305e-07
-7.69897e-07 3.77305e-07 1.8187e-05
0.00205531 6.05415e-05 -1.79735e-06
6.05415e-05 -2.67265e-05 2.34231e-07
-1.79735e-06 2.34231e-07 -1.43973e-06
0.00296 -3.98388e-05 -3.98626e-05
-3.98388e-05 0.000840793 3.07521e-06
-3.98626e-05 3.07521e-06 0.000859918
0.00201072 -0.000193277 -1.12401e-05
-0.000193277 -0.000101985 5.9826e-08
-1.12401e-05 5.9826e-08 -3.26865e-05
0.00218426 -1.91707e-05 -4.63368e-06
-1.91707e-05 7.81719e-06 -2.7432e-06
-4.63368e-06 -2.7432e-06 1.61854e-05
0.00211835 -7.63528e-05 -3.67186e-07
-7.63528e-05 -2.52195e-05 3.06011e-08
-3.67186e-07 3.06011e-08 -2.21e-06
0.00191945 -5.83373e-05 -2.16971e-06
-5.83373e-05 -3.7539e-06 3.102e-07
-2.16971e-06 3.102e-07 -1.21054e-05
0.00203835 -0.000217202 1.11169e-06
-0.000217202 -7.27926e-06 1.26246e-07
1.11169e-06 1.26246e-07 -3.58884e-06
0.00196869 -0.000185103 3.91067e-09
-0.000185103 6.13607e-06 1.90518e-08
3.91067e-09 1.90518e-08 -1.89564e-05
0.00193271 -0.000152434 1.05852e-06
-0.000152434 8.78696e-05 -8.32891e-07
1.05852e-06 -8.32891e-07 2.04932e-05
0.00186677 -0.000257882 2.13027e-06
-0.000257882 2.99912e-05 -6.15989e-07
2.13027e-06 -6.15989e-07 -4.43747e-05
0.00188313 -0.000220801 -1.06834e-07
-0.000220801 8.2793e-05 -1.41776e-08
-1.06834e-07 -1.41776e-08 -8.48668e-06
0.00183739 -0.000206459 3.1711e-07
-0.000206459 0.000107389 -9.36822e-07
3.1711e-07 -9.36822e-07 -1.44686e-05
0.00189852 -0.000278133 4.70369e-07
-0.000278133 0.000138334 2.76825e-07
4.70369e-07 2.76825e-07 2.31058e-05
0.0018345 -0.000252188 -2.78282e-07
-0.000252188 0.000149204 -1.69147e-08
-2.78282e-07 -1.69147e-08 8.27218e-06
0.00152454 -0.000194267 -3.05785e-06
-0.000194267 9.70243e-05 4.31895e-07
-3.05785e-06 4.31895e-07 -6.39694e-05
0.00182435 -0.000287148 -1.01066e-07
-0.000287148 0.000188802 1.16813e-06
-1.01066e-07 1.16813e-06 2.78781e-05
0.00149796 -0.000222366 -2.44431e-07
-0.000222366 0.000110554 8.6106e-08
-2.44431e-07 8.6106e-08 -6.19039e-05
0.000972284 -0.000140017 -1.37241e-05
-0.000140017 -2.7466e-05 4.82496e-06
-1.37241e-05 4.82496e-06 -0.000177473
0.00147764 -0.000245596 5.06451e-06
-0.000245596 0.000129537 -9.66735e-07
5.06451e-06 -9.66735e-07 -5.4016e-05
0.000984366 -0.000157035 6.99036e-08
-0.000157035 -9.32899e-06 1.2416e-07
6.99036e-08 1.2416e-07 -0.00016288
0.00255448 -0.000139319 -4.41352e-05
-0.000139319 0.0011121 8.89991e-06
-4.41352e-05 8.89991e-06 0.00103446
0.000976876 -0.000175528 1.3924e-05
-0.000175528 2.47278e-06 -5.93509e-06
1.3924e-05 -5.93509e-06 -0.000157426
0.00266978 -0.000178696 4.07229e-05
-0.000178696 0.00119118 -5.62114e-06
4.07229e-05 -5.62114e-06 0.00111249
0.00187819 -0.000102908 -0.000206087
-0.000102908 0.00079285 2.86462e-05
-0.000206087 2.86462e-05 0.000773021
0.00382151 -5.0142e-05 -0.00020184
-5.0142e-05 0.0019806 1.57592e-05
-0.00020184 1.57592e-05 0.00197039
0.00274297 -0.00023316 0.000129282
-0.00023316 0.00124468 -1.90345e-05
0.000129282 -1.90345e-05 0.00116704
0.00602892 4.52202e-05 0.000218733
4.52202e-05 0.00332836 -2.12522e-05
0.000218733 -2.12522e-05 0.00331992
0.00214759 0.000333921 -2.62285e-06
0.000333921 0.000254437 -9.44153e-07
-2.62285e-06 -9.44153e-07 0.000113629
0.00166953 0.00032423 2.66364e-06
0.00032423 8.74179e-05 1.17924e-06
2.66364e-06 1.17924e-06 -9.59814e-05
0.0019868 0.000333365 4.67333e-07
0.000333365 0.000170234 -1.50521e-06
4.67333e-07 -1.50521e-06 1.57494e-05
0.00142778 0.000306985 -5.83474e-06
0.000306985 0.000134359 -3.31863e-07
-5.83474e-06 -3.31863e-07 -7.53596e-05
0.00188395 0.000419192 5.15537e-07
0.000419192 0.000260962 4.40587e-07
5.15537e-07 4.40587e-07 3.80375e-05
0.00202533 0.00046555 1.75669e-06
0.00046555 0.000462457 -2.21236e-06
1.75669e-06 -2.21236e-06 0.000204771
0.00127339 0.000303365 -1.26834e-07
0.000303365 0.000119646 2.33008e-07
-1.26834e-07 2.33008e-07 -0.000102467
0.00091381 0.000198646 -1.26693e-05
0.000198646 1.06804e-05 -6.02267e-06
-1.26693e-05 -6.02267e-06 -0.000160836
0.00121814 0.00027605 8.49562e-06
0.00027605 0.000151599 2.98716e-06
8.49562e-06 2.98716e-06 -6.92493e-05
0.000802788 0.00018698 -2.16657e-07
0.00018698 -4.00411e-06 -3.14266e-08
-2.16657e-07 -3.14266e-08 -0.000176787
0.000540222 0.000214426 -2.49865e-05
0.000214426 -6.34081e-05 -1.65431e-05
-2.49865e-05 -1.65431e-05 -0.000168348
0.000585564 0.000175821 5.10584e-06
0.000175821 -4.40883e-05 4.9188e-06
5.10584e-06 4.9188e-06 -0.000227346
0.000506667 0.000146121 7.88327e-07
0.000146121 -6.30477e-05 3.36619e-07
7.88327e-07 3.36619e-07 -0.000152951
0.00563611 -0.000142608 -0.000189278
-0.000142608 0.00313369 -1.86013e-05
-0.000189278 -1.86013e-05 0.00310783
0.000242525 4.7081e-05 1.0145e-05
4.7081e-05 -0.000191749 1.35955e-05
1.0145e-05 1.35955e-05 -0.00025958
0.00451709 -0.000182812 -1.23947e-05
-0.000182812 0.00245346 9.67798e-07
-1.23947e-05 9.67798e-07 0.00243312
0.00361075 -0.000171759 8.54167e-05
-0.000171759 0.00189621 3.27052e-06
8.54167e-05 3.27052e-06 0.00188144
0.00210088 0.00019345 -1.51621e-06
0.00019345 1.14063e-05 1.43163e-07
-1.51621e-06 1.43163e-07 -6.36441e-06
0.00198023 0.000177074 1.02832e-06
0.000177074 -8.63147e-05 -1.09723e-07
1.02832e-06 -1.09723e-07 -6.91931e-05
0.00304804 4.46475e-05 -7.64982e-05
4.46475e-05 0.000647788 -9.87332e-06
-7.64982e-05 -9.87332e-06 0.000730599
0.00206547 0.000289425 2.696e-08
0.000289425 0.000130873 2.41153e-07
2.696e-08 2.41153e-07 2.10328e-05
0.00190501 0.000389641 -1.04101e-07
0.000389641 0.000119595 4.02658e-07
-1.04101e-07 4.02658e-07 -4.56001e-05
0.00160381 0.00049706 6.18798e-07
0.00049706 7.37643e-05 -1.65013e-06
6.18798e-07 -1.65013e-06 -0.000158828
0.00220347 0.000423405 -7.87198e-08
0.000423405 0.000358299 -2.36266e-06
-7.87198e-08 -2.36266e-06 0.000164837
0.0021079 0.000317418 -6.70021e-07
0.000317418 9.56421e-05 -1.06962e-08
-6.70021e-07 -1.06962e-08 3.28975e-06
0.00166602 0.000444601 -4.0858e-06
0.000444601 -7.34131e-06 4.13783e-07
-4.0858e-06 4.13783e-07 -0.000186764
0.00185362 0.000337895 9.28154e-06
0.000337895 -3.37788e-05 8.58847e-07
9.28154e-06 8.58847e-07 -0.000116228
0.00197369 5.33209e-05 -3.99953e-07
5.33209e-05 5.89752e-06 4.0554e-07
-3.99953e-07 4.0554e-07 3.92681e-06
0.00207562 5.72639e-05 -2.25329e-08
5.72639e-05 -9.87697e-06 -1.10808e-07
-2.25329e-08 -1.10808e-07 5.06868e-06
0.00215193 7.29645e-05 -8.45231e-06
7.29645e-05 4.61385e-05 -7.25559e-07
-8.45231e-06 -7.25559e-07 6.74913e-05
0.00185941 -9.11698e-06 -4.95589e-06
-9.11698e-06 1.15851e-05 3.87592e-07
-4.95589e-06 3.87592e-07 -1.02763e-05
0.00208507 -8.56415e-05 1.30119e-06
-8.56415e-05 -6.1601e-05 -5.07544e-07
1.30119e-06 -5.07544e-07 -3.28882e-05
0.00194952 -6.14965e-05 -6.38135e-07
-6.14965e-05 1.10122e-05 2.16516e-07
-6.38135e-07 2.16516e-07 3.20375e-06
0.00186323 -8.83325e-05 -3.45859e-06
-8.83325e-05 3.50002e-05 4.00801e-07
-3.45859e-06 4.00801e-07 -1.51469e-05
0.00193497 -0.000187308 2.41418e-06
-0.000187308 -5.53235e-06 -3.76328e-07
2.41418e-06 -3.76328e-07 -3.42263e-05
0.00188097 -0.000150496 2.02382e-06
-0.000150496 5.17255e-05 -7.00575e-07
2.02382e-06 -7.00575e-07 -1.53095e-05
0.00186045 -0.000146221 2.76776e-06
-0.000146221 0.000100775 -1.23973e-06
2.76776e-06 -1.23973e-06 -5.1022e-06
0.00189208 -0.000221301 1.15214e-06
-0.000221301 8.08893e-05 1.42904e-07
1.15214e-06 1.42904e-07 -1.06242e-05
0.0018637 -0.000205577 -1.36082e-07
-0.000205577 0.000126658 -2.56869e-07
-1.36082e-07 -2.56869e-07 5.15469e-06
0.00156049 -0.000157597 -2.194e-06
-0.000157597 9.11652e-05 1.39735e-07
-2.194e-06 1.39735e-07 -5.70115e-05
0.00185933 -0.000253031 -3.45433e-07
-0.000253031 0.000164382 1.03595e-06
-3.45433e-07 1.03595e-06 2.35165e-05
0.00153441 -0.000194066 -2.29017e-07
-0.000194066 0.000101554 6.96713e-08
-2.29017e-07 6.96713e-08 -5.894e-05
0.000983833 -0.000120459 -1.30833e-05
-0.000120459 -3.33737e-05 3.84005e-06
-1.30833e-05 3.84005e-06 -0.000179103
0.0015209 -0.000223495 3.59471e-06
-0.000223495 0.000122587 -6.43736e-07
3.59471e-06 -6.43736e-07 -4.95097e-05
0.00100021 -0.000139148 -2.11668e-08
-0.000139148 -1.35081e-05 2.13857e-07
-2.11668e-08 2.13857e-07 -0.000162706
0.00256585 -0.000142734 -5.18779e-05
-0.000142734 0.00111428 8.69534e-06
-5.18779e-05 8.69534e-06 0.00103918
0.00101404 -0.000157211 1.40733e-05
-0.000157211 5.37833e-06 -5.42558e-06
1.40733e-05 -5.42558e-06 -0.000147605
0.00264843 -0.000166645 3.7207e-05
-0.000166645 0.00116803 -4.58179e-06
3.7207e-05 -4.58179e-06 0.00109543
0.00192771 -8.90278e-05 -0.000201906
-8.90278e-05 0.0008166 2.54057e-05
-0.000201906 2.54057e-05 0.000798397
0.00280034 -0.000191764 0.000127212
-0.000191764 0.00126594 -2.06187e-05
0.000127212 -2.06187e-05 0.00119382
0.00162242 -4.17576e-05 -8.87157e-05
-4.17576e-05 0.000642582 1.12382e-05
-8.87157e-05 1.12382e-05 0.000612525
0.00569563 0.000116922 5.02817e-05
0.000116922 0.00311339 -2.28977e-06
5.02817e-05 -2.28977e-06 0.00309039
0.00196189 0.000278866 3.17765e-07
0.000278866 0.000127234 4.41727e-08
3.17765e-07 4.41727e-08 -4.01272e-07
0.00195462 0.000308608 -1.86808e-07
0.000308608 0.000213568 -7.23808e-07
-1.86808e-07 -7.23808e-07 5.29724e-05
0.00204261 0.00033056 -3.74477e-06
0.00033056 0.000185505 4.32432e-08
-3.74477e-06 4.32432e-08 4.21739e-05
0.00169515 0.00028501 -2.91472e-06
0.00028501 0.00023933 -3.56215e-07
-2.91472e-06 -3.56215e-07 5.04566e-05
0.0016907 0.000330431 -3.51209e-08
0.000330431 8.82084e-05 -1.72297e-06
-3.51209e-08 -1.72297e-06 -9.26262e-05
0.00199796 0.000329375 -3.05525e-06
0.000329375 0.000178136 -4.09937e-06
-3.05525e-06 -4.09937e-06 2.94701e-05
0.000968519 0.000195877 -1.39839e-05
0.000195877 -4.60148e-06 -5.66771e-06
-1.39839e-05 -5.66771e-06 -0.000170651
0.00138716 0.000304852 3.40204e-07
0.000304852 0.000108416 2.93908e-07
3.40204e-07 2.93908e-07 -0.000101681
0.00195598 0.000422713 2.88674e-06
0.000422713 0.000292454 -2.29224e-06
2.88674e-06 -2.29224e-06 6.89113e-05
0.0013108 0.000305463 8.18147e-06
0.000305463 0.000144143 1.94957e-06
8.18147e-06 1.94957e-06 -7.8653e-05
0.000871314 0.000193854 -6.77803e-07
0.000193854 -1.18862e-05 6.57498e-09
-6.77803e-07 6.57498e-09 -0.000182044
0.000496159 0.000222712 -2.51998e-05
0.000222712 -9.39979e-05 -1.61061e-05
-2.51998e-05 -1.61061e-05 -0.000203282
0.000692559 0.000177776 1.02979e-05
0.000177776 -7.46836e-05 5.46913e-06
1.02979e-05 5.46913e-06 -0.00024494
0.000485331 0.000203055 2.10578e-06
0.000203055 -9.14849e-05 6.17445e-07
2.10578e-06 6.17445e-07 -0.000196166
0.00603475 -7.17888e-05 -0.000209522
-7.17888e-05 0.00336053 -2.3131e-05
-0.000209522 -2.3131e-05 0.0033391
0.000459719 0.000135849 2.08212e-05
0.000135849 -9.6879e-05 1.55141e-05
2.08212e-05 1.55141e-05 -0.000179194
0.00536719 -0.000158957 -4.65083e-06
-0.000158957 0.00295816 -8.14871e-08
-4.65083e-06 -8.14871e-08 0.00293934
0.00420239 -0.000201907 0.000103065
-0.000201907 0.00226831 4.77267e-06
0.000103065 4.77267e-06 0.00224379
0.00201288 0.000156052 -1.78708e-06
0.000156052 7.00957e-05 7.48242e-07
-1.78708e-06 7.48242e-07 1.95625e-05
0.00210417 0.000196779 3.40582e-07
0.000196779 5.64021e-06 4.31477e-07
3.40582e-07 4.31477e-07 -9.1986e-06
0.00197531 0.000180547 1.98918e-06
0.000180547 -9.53242e-05 2.65128e-07
1.98918e-06 2.65128e-07 -7.87501e-05
0.00204043 0.000283439 3.65251e-07
0.000283439 0.00012186 4.45339e-08
3.65251e-07 4.45339e-08 1.54126e-05
0.00193408 0.000387874 -5.695e-07
0.000387874 0.000159283 -5.50413e-07
-5.695e-07 -5.50413e-07 -6.06369e-06
0.00199639 0.000305519 7.528e-07
0.000305519 3.51396e-05 -3.01727e-07
7.528e-07 -3.01727e-07 -5.57881e-05
0.0019163 5.91196e-05 -2.9863e-06
5.91196e-05 2.93122e-05 1.48984e-07
-2.9863e-06 1.48984e-07 6.47145e-06
0.00197467 4.98238e-05 3.52538e-07
4.98238e-05 1.17116e-05 -7.3464e-08
3.52538e-07 -7.3464e-08 6.52729e-06
0.00204032 5.6358e-05 1.04028e-06
5.6358e-05 -2.03158e-05 -1.71483e-07
1.04028e-06 -1.71483e-07 -8.46696e-06
0.00187607 -1.18363e-05 -1.55492e-06
-1.18363e-05 1.87586e-05 8.57796e-08
-1.55492e-06 8.57796e-08 -3.42324e-06
0.00180711 -3.39541e-05 -4.62098e-06
-3.39541e-05 1.21078e-05 5.94067e-09
-4.62098e-06 5.94067e-09 -4.1653e-05
0.00198056 -6.4531e-05 1.95179e-06
-6.4531e-05 2.62985e-05 -2.39149e-07
1.95179e-06 -2.39149e-07 1.90343e-05
0.00184717 -8.60381e-05 -2.00029e-06
-8.60381e-05 3.01099e-05 5.14623e-07
-2.00029e-06 5.14623e-07 -2.35465e-05
0.00185932 -8.85443e-05 -9.83389e-07
-8.85443e-05 9.43475e-05 -3.84636e-07
-9.83389e-07 -3.84636e-07 5.75784e-06
0.00181975 -0.000148617 3.75981e-06
-0.000148617 1.08314e-05 -6.23764e-07
3.75981e-06 -6.23764e-07 -5.5944e-05
0.00186466 -0.000147658 2.81883e-06
-0.000147658 0.000104609 -7.60446e-07
2.81883e-06 -7.60446e-07 -1.38318e-06
0.00158733 -0.000112555 -6.14366e-07
-0.000112555 8.55683e-05 -5.05211e-07
-6.14366e-07 -5.05211e-07 -5.04407e-05
0.00187586 -0.000205968 -7.38526e-07
-0.000205968 0.000136518 4.24676e-07
-7.38526e-07 4.24676e-07 1.50702e-05
0.00156495 -0.000157917 -1.32151e-07
-0.000157917 9.05595e-05 5.37831e-08
-1.32151e-07 5.37831e-08 -5.73933e-05
0.000992281 -9.60168e-05 -1.25715e-05
-9.60168e-05 -4.02254e-05 2.88784e-06
-1.25715e-05 2.88784e-06 -0.000180277
0.00154815 -0.000194148 2.38848e-06
-0.000194148 0.000107496 -2.92072e-07
2.38848e-06 -2.92072e-07 -5.25277e-05
0.00101068 -0.000119036 -1.72647e-07
-0.000119036 -1.95922e-05 2.27261e-07
-1.72647e-07 2.27261e-07 -0.000164521
0.00253592 -0.000151649 -5.52029e-05
-0.000151649 0.00109328 7.7555e-06
-5.52029e-05 7.7555e-06 0.00101861
0.00102831 -0.000138362 1.36097e-05
-0.000138362 3.27414e-07 -4.47322e-06
1.36097e-05 -4.47322e-06 -0.000148043
0.00263199 -0.000147403 3.57736e-05
-0.000147403 0.00115018 -3.47326e-06
3.57736e-05 -3.47326e-06 0.00108091
0.00195736 -7.54173e-05 -0.000201569
-7.54173e-05 0.000827692 2.16585e-05
-0.000201569 2.16585e-05 0.000810312
0.00274196 -0.000163512 0.000125161
-0.000163512 0.00121862 -1.77081e-05
0.000125161 -1.77081e-05 0.00115336
0.00162735 -5.1089e-05 -8.05032e-05
-5.1089e-05 0.000639369 9.3809e-06
-8.05032e-05 9.3809e-06 0.000612106
0.00140833 -3.74247e-05 4.26462e-05
-3.74247e-05 0.000519426 -6.49303e-06
4.26462e-05 -6.49303e-06 0.00047942
0.00195185 0.000171348 -1.71561e-06
0.000171348 9.7272e-05 1.43019e-06
-1.71561e-06 1.43019e-06 6.8832e-06
0.00192164 0.00025819 -1.29138e-06
0.00025819 0.000159745 2.61977e-07
-1.29138e-06 2.61977e-07 1.66484e-05
0.00193316 0.000279148 -6.30626e-07
0.000279148 9.84885e-05 -1.08753e-07
-6.30626e-07 -1.08753e-07 -2.61874e-05
0.00181793 0.00026386 -2.00352e-06
0.00026386 0.000263876 -1.72826e-07
-2.00352e-06 -1.72826e-07 9.31778e-05
0.00188788 0.000303493 -6.23965e-08
0.000303493 0.000180913 -1.4291e-07
-6.23965e-08 -1.4291e-07 1.89618e-05
0.0019309 0.000327133 9.16495e-07
0.000327133 0.000112757 3.91253e-07
9.16495e-07 3.91253e-07 -3.31607e-05
0.00102643 0.00018071 -1.45353e-05
0.00018071 1.64875e-06 -5.23015e-06
-1.45353e-05 -5.23015e-06 -0.00015614
0.00158681 0.000283782 3.04087e-06
0.000283782 0.000167351 4.58876e-07
3.04087e-06 4.58876e-07 -2.10824e-05
0.00171793 0.000337083 -9.40078e-08
0.000337083 9.30579e-05 -2.73611e-06
-9.40078e-08 -2.73611e-06 -8.52411e-05
0.0004436 0.000181702 -2.25995e-05
0.000181702 -0.000139194 -1.3794e-05
-2.25995e-05 -1.3794e-05 -0.000243141
0.000941856 0.000192536 -5.9712e-07
0.000192536 -1.6554e-05 1.18286e-07
-5.9712e-07 1.18286e-07 -0.0001819
0.00135263 0.000303452 7.32716e-06
0.000303452 8.55092e-05 1.18746e-06
7.32716e-06 1.18746e-06 -0.000125128
0.00085568 0.000190931 1.28077e-05
0.000190931 -1.83407e-05 6.53081e-06
1.28077e-05 6.53081e-06 -0.000187446
0.000485588 0.000204704 1.29138e-06
0.000204704 -9.70547e-05 7.02154e-07
1.29138e-06 7.02154e-07 -0.00020769
0.00618699 2.62282e-05 -0.000224601
2.62282e-05 0.00343153 -2.62899e-05
-0.000224601 -2.62899e-05 0.00341822
0.000478618 0.000187378 2.24132e-05
0.000187378 -9.32957e-05 1.60882e-05
2.24132e-05 1.60882e-05 -0.000196787
0.00591178 -9.52041e-05 5.76592e-06
-9.52041e-05 0.0032738 -8.38269e-07
5.76592e-06 -8.38269e-07 0.00325974
0.00509675 -0.000207761 0.000138054
-0.000207761 0.00280673 7.49304e-06
0.000138054 7.49304e-06 0.002779
0.0018999 0.000108429 -5.03883e-06
0.000108429 4.60728e-05 -3.43473e-07
-5.03883e-06 -3.43473e-07 8.47339e-08
0.00196384 0.000156933 1.30289e-06
0.000156933 4.03289e-05 6.23361e-07
1.30289e-06 6.23361e-07 -8.11589e-06
0.00209687 0.00020023 3.84813e-07
0.00020023 -4.89494e-06 -3.03839e-07
3.84813e-07 -3.03839e-07 -1.71577e-05
0.00203532 0.00027791 3.36166e-06
0.00027791 0.000124975 2.20971e-07
3.36166e-06 2.20971e-07 2.19459e-05
0.00173336 7.93459e-06 -2.46272e-06
7.93459e-06 -1.35414e-05 -5.92927e-08
-2.46272e-06 -5.92927e-08 -7.2155e-05
0.00189818 5.03175e-05 2.04088e-07
5.03175e-05 1.69985e-05 1.48902e-07
2.04088e-07 1.48902e-07 -6.30667e-06
0.00197724 4.63504e-05 1.20187e-06
4.63504e-05 1.93276e-05 -2.07447e-07
1.20187e-06 -2.07447e-07 1.05078e-05
0.00189156 -1.27466e-05 2.36684e-06
-1.27466e-05 2.50191e-05 -6.23829e-07
2.36684e-06 -6.23829e-07 2.70412e-06
0.0018647 -2.82164e-05 -1.86357e-06
-2.82164e-05 4.94614e-05 2.38642e-07
-1.86357e-06 2.38642e-07 -2.07975e-06
0.00177604 -3.46344e-05 1.22646e-06
-3.46344e-05 4.91129e-05 -8.7793e-07
1.22646e-06 -8.7793e-07 -3.83464e-05
0.00184284 -8.41094e-05 3.01765e-07
-8.41094e-05 3.14187e-05 6.33738e-07
3.01765e-07 6.33738e-07 -2.53942e-05
0.00184992 -8.90026e-05 -6.44629e-07
-8.90026e-05 9.21655e-05 4.05267e-07
-6.44629e-07 4.05267e-07 -2.23371e-06
0.00165674 -6.7243e-05 -1.96235e-06
-6.7243e-05 0.000115099 -4.35623e-07
-1.96235e-06 -4.35623e-07 -6.44017e-06
0.00188542 -0.000148139 2.65476e-06
-0.000148139 0.000118079 -2.33782e-07
2.65476e-06 -2.33782e-07 1.22272e-05
0.0015896 -0.000110729 9.58213e-07
-0.000110729 8.40588e-05 -3.31761e-07
9.58213e-07 -3.31761e-07 -5.14922e-05
0.000994383 -6.80913e-05 -1.23476e-05
-6.80913e-05 -4.62925e-05 1.98633e-06
-1.23476e-05 1.98633e-06 -0.000180422
0.00157892 -0.000156225 1.99208e-06
-0.000156225 9.68443e-05 -8.37752e-08
1.99208e-06 -8.37752e-08 -5.05134e-05
0.0010049 -9.54123e-05 -8.53354e-08
-9.54123e-05 -3.32806e-05 2.23033e-07
-8.53354e-08 2.23033e-07 -0.000172922
0.000538569 -8.45684e-05 -1.99175e-05
-8.45684e-05 -0.000133227 5.20417e-06
-1.99175e-05 5.20417e-06 -0.000214512
0.00103621 -0.000117509 1.29601e-05
-0.000117509 -6.33135e-06 -3.44639e-06
1.29601e-05 -3.44639e-06 -0.000150423
0.00158238 -9.81083e-05 5.15492e-05
-9.81083e-05 0.000504946 -3.57007e-06
5.15492e-05 -3.57007e-06 0.000432511
0.00587667 -0.000132621 -0.000263688
-0.000132621 0.00320687 1.75113e-05
-0.000263688 1.75113e-05 0.00321679
0.00271608 -0.000133095 0.000123893
-0.000133095 0.00119208 -1.42324e-05
0.000123893 -1.42324e-05 0.00113102
0.00164032 -5.76523e-05 -7.27157e-05
-5.76523e-05 0.000644406 6.29681e-06
-7.27157e-05 6.29681e-06 0.000616999
0.00132642 -7.32652e-05 5.4055e-05
-7.32652e-05 0.00047208 -7.74773e-06
5.4055e-05 -7.74773e-06 0.000431087
0.00195897 0.000125281 -2.18782e-06
0.000125281 0.00012187 1.12971e-06
-2.18782e-06 1.12971e-06 4.86079e-05
0.00190281 0.000185067 1.48209e-07
0.000185067 0.000133912 1.43291e-06
1.48209e-07 1.43291e-06 1.56937e-05
0.00196192 0.000168401 6.13187e-07
0.000168401 0.000109445 2.55538e-07
6.13187e-07 2.55538e-07 1.85994e-05
0.00165848 0.000211486 -2.29087e-06
0.000211486 0.000131689 8.43042e-08
-2.29087e-06 8.43042e-08 -2.28687e-05
0.00186535 0.000253571 5.22706e-07
0.000253571 0.000127703 1.8124e-08
5.22706e-07 1.8124e-08 -1.48831e-05
0.00190141 0.000279798 9.26446e-07
0.000279798 6.72411e-05 3.30064e-07
9.26446e-07 3.30064e-07 -5.45808e-05
0.000861593 0.000150882 -1.58847e-05
0.000150882 -0.000121853 -4.41497e-06
-1.58847e-05 -4.41497e-06 -0.00027229
0.00182425 0.000264028 2.62073e-06
0.000264028 0.000267155 6.55361e-07
2.62073e-06 6.55361e-07 9.66793e-05
0.00181479 0.000297824 -2.26571e-07
0.000297824 0.000144645 -5.45794e-07
-2.26571e-07 -5.45794e-07 -1.8615e-05
0.000432973 0.000131744 -1.9551e-05
0.000131744 -0.00016738 -1.05188e-05
-1.9551e-05 -1.05188e-05 -0.000261411
0.000873484 0.000173024 3.84637e-07
0.000173024 -9.06883e-05 3.12286e-07
3.84637e-07 3.12286e-07 -0.000248594
0.00146729 0.000281776 8.61387e-06
0.000281776 8.83861e-05 9.6403e-07
8.61387e-06 9.6403e-07 -9.94681e-05
0.00617469 0.000110281 -0.000236778
0.000110281 0.003402 -2.59763e-05
-0.000236778 -2.59763e-05 0.00339809
0.00045099 0.000170937 8.246e-07
0.000170937 -0.000134905 7.21248e-07
8.246e-07 7.21248e-07 -0.000239697
0.000908571 0.000188941 1.41476e-05
0.000188941 -3.21488e-05 6.16367e-06
1.41476e-05 6.16367e-06 -0.000196785
0.000418187 0.000187979 2.10418e-05
0.000187979 -0.000133873 1.58261e-05
2.10418e-05 1.58261e-05 -0.000245504
0.0060696 1.54908e-05 9.66219e-06
1.54908e-05 0.00335172 -1.05343e-07
9.66219e-06 -1.05343e-07 0.00334545
0.00575658 -0.000129571 0.000189106
-0.000129571 0.0031741 1.01016e-05
0.000189106 1.01016e-05 0.0031624
0.00183332 6.49263e-05 -5.5588e-06
6.49263e-05 4.60591e-05 -8.01831e-07
-5.5588e-06 -8.01831e-07 -1.41675e-05
0.00189482 0.000107106 2.62739e-07
0.000107106 3.85791e-05 4.27189e-07
2.62739e-07 4.27189e-07 -7.63435e-06
0.00191074 0.000157811 2.56904e-06
0.000157811 8.17948e-06 5.2595e-07
2.56904e-06 5.2595e-07 -3.80146e-05
0.00176399 4.27878e-06 1.69608e-06
4.27878e-06 5.29414e-05 -4.59561e-07
1.69608e-06 -4.59561e-07 -3.7615e-05
0.00179901 1.24117e-05 1.4186e-07
1.24117e-05 2.77787e-05 7.7955e-08
1.4186e-07 7.7955e-08 -2.76997e-05
0.00188402 4.02497e-05 2.63541e-06
4.02497e-05 7.33683e-06 -2.89145e-07
2.63541e-06 -2.89145e-07 -1.64218e-05
0.00191418 -2.32944e-05 3.93296e-07
-2.32944e-05 8.18271e-05 5.35617e-07
3.93296e-07 5.35617e-07 3.21877e-05
0.0018133 -3.27175e-05 5.65715e-07
-3.27175e-05 7.1681e-05 1.34366e-08
5.65715e-07 1.34366e-08 -1.44719e-05
0.00178289 -2.72819e-05 5.53075e-07
-2.72819e-05 0.000203483 -5.56616e-07
5.53075e-07 -5.56616e-07 8.76224e-05
0.0018305 -8.90705e-05 -1.96604e-06
-8.90705e-05 8.47758e-05 1.22026e-06
-1.96604e-06 1.22026e-06 -1.55872e-05
0.00168582 -6.79878e-05 1.73999e-07
-6.79878e-05 0.000135616 6.36344e-08
1.73999e-07 6.36344e-08 1.10586e-05
0.000860408 -3.57907e-05 -1.35575e-05
-3.57907e-05 -0.000133036 1.20321e-06
-1.35575e-05 1.20321e-06 -0.000261462
0.00157902 -0.000110825 2.59438e-06
-0.000110825 7.45746e-05 -2.4182e-07
2.59438e-06 -2.4182e-07 -6.08743e-05
0.0010019 -6.4906e-05 -7.97622e-08
-6.4906e-05 -4.24645e-05 1.01539e-07
-7.97622e-08 1.01539e-07 -0.000176021
0.000544233 -2.15427e-05 -1.86235e-05
-2.15427e-05 -0.000133125 3.20215e-06
-1.86235e-05 3.20215e-06 -0.000211572
0.00103506 -9.43178e-05 1.2517e-05
-9.43178e-05 -1.69007e-05 -2.4559e-06
1.2517e-05 -2.4559e-06 -0.000155961
0.00054183 -6.83556e-05 -1.79052e-07
-6.83556e-05 -0.000129349 4.09597e-07
-1.79052e-07 4.09597e-07 -0.000211867
0.00586424 -2.69433e-05 -0.000254699
-2.69433e-05 0.00319514 1.0623e-05
-0.000254699 1.0623e-05 0.0032081
0.000575624 -7.06214e-05 1.56198e-05
-7.06214e-05 -0.000108077 -7.10545e-06
1.56198e-05 -7.10545e-06 -0.000193673
0.00369963 -8.69592e-05 0.000115921
-8.69592e-05 0.00189218 -4.94412e-06
0.000115921 -4.94412e-06 0.00187633
0.00129001 -7.80065e-05 6.03089e-05
-7.80065e-05 0.00045097 -8.0783e-06
6.03089e-05 -8.0783e-06 0.000408602
0.00192801 0.000103855 -3.58893e-06
0.000103855 0.000122319 -1.20596e-07
-3.58893e-06 -1.20596e-07 4.97251e-05
0.00184075 0.000123245 2.14159e-06
0.000123245 0.000105502 2.3359e-06
2.14159e-06 2.3359e-06 6.2324e-07
0.00191882 0.000119583 2.47138e-07
0.000119583 9.62596e-05 1.27742e-08
2.47138e-07 1.27742e-08 2.43845e-05
0.00159482 0.000154027 -1.16584e-06
0.000154027 8.26619e-05 9.81517e-08
-1.16584e-06 9.81517e-08 -6.075e-05
0.00191051 0.000184953 5.47396e-07
0.000184953 0.000134266 1.73406e-07
5.47396e-07 1.73406e-07 1.47951e-05
0.00197658 0.000165289 1.47699e-06
0.000165289 0.000124299 -1.04057e-06
1.47699e-06 -1.04057e-06 3.30388e-05
0.000886156 0.000124041 -1.47056e-05
0.000124041 -0.000120493 -3.30624e-06
-1.47056e-05 -3.30624e-06 -0.000263102
0.00171574 0.000211466 4.45907e-07
0.000211466 0.000171076 3.97378e-07
4.45907e-07 3.97378e-07 1.49817e-05
0.00181148 0.000248973 7.00865e-07
0.000248973 9.73606e-05 -4.4418e-07
7.00865e-07 -4.4418e-07 -4.46912e-05
0.000449541 9.34172e-05 -1.80563e-05
9.34172e-05 -0.000176057 -7.57446e-06
-1.80563e-05 -7.57446e-06 -0.000262344
0.000818339 0.000148553 -2.41508e-06
0.000148553 -0.000146755 -2.10714e-07
-2.41508e-06 -2.10714e-07 -0.000297076
0.00183445 0.00026459 7.34554e-06
0.00026459 0.00027272 1.62992e-06
7.34554e-06 1.62992e-06 0.000102395
0.00608793 0.000181686 -0.000254773
0.000181686 0.00333979 -2.50641e-05
-0.000254773 -2.50641e-05 0.00334096
0.000453195 0.000127825 1.98721e-07
0.000127825 -0.000156421 4.03555e-07
1.98721e-07 4.03555e-07 -0.000250891
0.000728458 0.000166165 1.4186e-05
0.000166165 -0.00017856 5.18464e-06
1.4186e-05 5.18464e-06 -0.000336681
0.00609372 0.000124871 1.31022e-05
0.000124871 0.00335681 2.01678e-06
1.31022e-05 2.01678e-06 0.00335273
0.000445299 0.000159213 1.97162e-05
0.000159213 -0.000138415 1.36791e-05
1.97162e-05 1.36791e-05 -0.000243889
0.00598261 -1.70547e-05 0.000221133
-1.70547e-05 0.00328796 1.53562e-05
0.000221133 1.53562e-05 0.00328884
0.0018492 4.52505e-05 -2.30696e-08
4.52505e-05 9.27366e-05 -5.38087e-07
-2.30696e-08 -5.38087e-07 3.52554e-06
0.00185289 6.43141e-05 -1.68473e-06
6.43141e-05 6.74411e-05 2.02204e-07
-1.68473e-06 2.02204e-07 5.57581e-06
0.00188323 0.000105545 4.41789e-06
0.000105545 2.68131e-05 5.39318e-07
4.41789e-06 5.39318e-07 -1.95098e-05
0.00178242 -2.42293e-06 1.40645e-06
-2.42293e-06 0.000207419 -3.69432e-07
1.40645e-06 -3.69432e-07 9.31905e-05
0.00174073 4.56431e-06 -3.78e-07
4.56431e-06 3.54613e-05 -6.34959e-08
-3.78e-07 -6.34959e-08 -5.30185e-05
0.00184362 1.83513e-05 4.60288e-06
1.83513e-05 5.5599e-05 6.21406e-07
4.60288e-06 6.21406e-07 3.12017e-06
0.00185571 -3.14389e-05 -3.93332e-07
-3.14389e-05 9.77838e-05 7.66518e-07
-3.93332e-07 7.66518e-07 1.29746e-05
0.00177919 -2.69088e-05 2.88265e-06
-2.69088e-05 0.000200552 -3.27494e-07
2.88265e-06 -3.27494e-07 8.46821e-05
0.000865221 -1.25976e-05 -1.3066e-05
-1.25976e-05 -0.000126193 4.94002e-07
-1.3066e-05 4.94002e-07 -0.000251149
0.00171552 -6.89681e-05 1.95204e-06
-6.89681e-05 0.00015628 2.39625e-07
1.95204e-06 2.39625e-07 2.86883e-05
0.000931042 -3.56356e-05 -1.75549e-06
-3.56356e-05 -8.91826e-05 1.37496e-07
-1.75549e-06 1.37496e-07 -0.000217865
0.000544331 -7.02058e-06 -1.88388e-05
-7.02058e-06 -0.000135055 2.07003e-06
-1.88388e-05 2.07003e-06 -0.000211533
0.00101217 -6.28885e-05 1.19025e-05
-6.28885e-05 -3.64403e-05 -1.76853e-06
1.19025e-05 -1.76853e-06 -0.000169545
0.000522283 -3.30053e-05 8.78328e-07
-3.30053e-05 -0.000147337 -1.31895e-07
8.78328e-07 -1.31895e-07 -0.000224658
0.00577089 -0.000124266 -0.000261622
-0.000124266 0.00314954 1.14563e-05
-0.000261622 1.14563e-05 0.00315852
0.000512148 -5.15351e-05 1.79581e-05
-5.15351e-05 -0.000147139 -3.97218e-06
1.79581e-05 -3.97218e-06 -0.000229382
0.00583213 -6.33339e-05 7.64594e-06
-6.33339e-05 0.0031772 -5.96383e-08
7.64594e-06 -5.96383e-08 0.00319023
0.00163533 -2.52111e-05 0.000207052
-2.52111e-05 0.000632392 -1.2137e-05
0.000207052 -1.2137e-05 0.000620515
0.00176512 8.46038e-05 1.7955e-06
8.46038e-05 5.21469e-05 5.2237e-07
1.7955e-06 5.2237e-07 -4.83094e-05
0.0018525 0.000105785 -3.61466e-06
0.000105785 7.35245e-05 -9.73382e-07
-3.61466e-06 -9.73382e-07 3.61936e-06
0.00159094 0.000101395 -2.67877e-07
0.000101395 7.89057e-05 3.47064e-07
-2.67877e-07 3.47064e-07 -5.30628e-05
0.00185685 0.000123006 7.58829e-07
0.000123006 0.000112286 1.58413e-07
7.58829e-07 1.58413e-07 7.2501e-06
0.00188376 0.000114147 2.34753e-06
0.000114147 7.33516e-05 -2.30171e-06
2.34753e-06 -2.30171e-06 2.85992e-06
0.00105952 9.43294e-05 -1.25817e-05
9.43294e-05 -1.42754e-05 -2.37289e-06
-1.25817e-05 -2.37289e-06 -0.000149041
0.00159643 0.000153496 1.54914e-07
0.000153496 8.61807e-05 2.49435e-09
1.54914e-07 2.49435e-09 -5.73456e-05
0.00191506 0.000184698 7.98474e-07
0.000184698 0.000132929 -9.40371e-07
7.98474e-07 -9.40371e-07 1.22125e-05
0.000483077 6.69717e-05 -1.76791e-05
6.69717e-05 -0.000167196 -5.4516e-06
-1.76791e-05 -5.4516e-06 -0.000249173
0.00093416 0.000126038 -2.50045e-06
0.000126038 -8.90834e-05 -1.43236e-07
-2.50045e-06 -1.43236e-07 -0.000231937
0.00177651 0.000211369 3.55125e-06
0.000211369 0.000212919 8.91336e-07
3.55125e-06 8.91336e-07 5.53211e-05
0.00600054 0.000216846 -0.000272463
0.000216846 0.00329191 -2.38957e-05
-0.000272463 -2.38957e-05 0.00329192
0.000483722 9.41488e-05 -4.91494e-08
9.41488e-05 -0.000156791 1.88365e-07
-4.91494e-08 1.88365e-07 -0.000243356
0.000776579 0.000146336 1.01774e-05
0.000146336 -0.000171048 3.76397e-06
1.01774e-05 3.76397e-06 -0.000321193
0.00605122 0.000202784 1.09665e-05
0.000202784 0.00332836 3.56078e-06
1.09665e-05 3.56078e-06 0.0033246
0.000477591 0.00012232 1.8583e-05
0.00012232 -0.000143498 1.05834e-05
1.8583e-05 1.05834e-05 -0.000237974
0.00604424 0.000121029 0.000245043
0.000121029 0.00331653 2.24072e-05
0.000245043 2.24072e-05 0.00331967
0.0017541 3.35908e-05 2.48212e-06
3.35908e-05 0.000186324 6.31824e-08
2.48212e-06 6.31824e-08 7.072e-05
0.00182481 4.16627e-05 -1.81509e-06
4.16627e-05 8.21861e-05 1.04266e-07
-1.81509e-06 1.04266e-07 -8.59927e-06
0.00187655 6.32813e-05 1.34045e-06
6.32813e-05 9.16544e-05 2.60644e-07
1.34045e-06 2.60644e-07 2.81287e-05
0.000855915 -7.32722e-06 -1.36088e-05
-7.32722e-06 -0.000124699 -1.81491e-07
-1.36088e-05 -1.81491e-07 -0.000248404
0.00177907 3.33636e-06 3.36075e-06
3.33636e-06 0.000205208 -1.53552e-07
3.36075e-06 -1.53552e-07 9.09473e-05
0.00173371 4.57657e-06 -1.11847e-06
4.57657e-06 2.80132e-05 5.87119e-07
-1.11847e-06 5.87119e-07 -5.81722e-05
0.00178169 -2.68577e-05 5.02954e-06
-2.68577e-05 0.000201431 1.61373e-07
5.02954e-06 1.61373e-07 8.5555e-05
0.000857961 -1.29646e-05 -1.26816e-06
-1.29646e-05 -0.000131659 7.49532e-08
-1.26816e-06 7.49532e-08 -0.000256789
0.000546386 -3.0642e-05 -1.92677e-05
-3.0642e-05 -0.000134369 8.77902e-07
-1.92677e-05 8.77902e-07 -0.000208455
0.000982762 -3.46154e-05 1.06621e-05
-3.46154e-05 -5.65582e-05 -1.18997e-06
1.06621e-05 -1.18997e-06 -0.000185523
0.000524197 4.06595e-06 3.32174e-07
4.06595e-06 -0.000147719 5.06059e-08
3.32174e-07 5.06059e-08 -0.000223384
0.00575641 -9.94128e-05 -0.000265881
-9.94128e-05 0.00313918 8.27719e-06
-0.000265881 8.27719e-06 0.00315059
0.000531724 -3.8365e-05 1.88146e-05
-3.8365e-05 -0.000139679 -2.72697e-06
1.88146e-05 -2.72697e-06 -0.000218099
0.00578673 -1.85479e-05 -3.04803e-06
-1.85479e-05 0.00314917 1.99333e-06
-3.04803e-06 1.99333e-06 0.00316413
0.0058243 -7.98442e-05 0.000261062
-7.98442e-05 0.00317191 -1.01146e-05
0.000261062 -1.01146e-05 0.00318577
0.00155703 5.99221e-05 -1.14017e-07
5.99221e-05 6.10297e-05 2.0096e-07
-1.14017e-07 2.0096e-07 -6.44722e-05
0.00179771 8.65264e-05 -2.20404e-06
8.65264e-05 6.81598e-05 -1.37224e-06
-2.20404e-06 -1.37224e-06 -2.72823e-05
0.00177297 0.000107888 -2.61726e-06
0.000107888 2.28732e-05 -1.06793e-06
-2.61726e-06 -1.06793e-06 -4.43802e-05
0.00106199 5.75023e-05 -1.23151e-05
5.75023e-05 -1.0641e-05 -1.78609e-06
-1.23151e-05 -1.78609e-06 -0.000139216
0.00157906 0.000100618 1.9126e-07
0.000100618 7.32842e-05 1.62597e-08
1.9126e-07 1.62597e-08 -5.90041e-05
0.00186898 0.000122616 -4.14503e-07
0.000122616 0.000117016 -1.76942e-06
-4.14503e-07 -1.76942e-06 1.18174e-05
0.00051441 4.32278e-05 -1.73288e-05
4.32278e-05 -0.000152142 -3.95907e-06
-1.73288e-05 -3.95907e-06 -0.000231426
0.00102699 9.56522e-05 2.91965e-07
9.56522e-05 -3.39315e-05 2.11762e-07
2.91965e-07 2.11762e-07 -0.000169412
0.00159788 0.000152988 1.86892e-06
0.000152988 8.921e-05 -3.5353e-08
1.86892e-06 -3.5353e-08 -5.445e-05
0.00589245 0.000196157 -0.00028321
0.000196157 0.00322869 -2.03187e-05
-0.00028321 -2.03187e-05 0.00323145
0.000514331 7.12407e-05 3.43952e-07
7.12407e-05 -0.000148422 1.4878e-07
3.43952e-07 1.4878e-07 -0.000231154
0.000980125 0.000127966 1.02244e-05
0.000127966 -5.91447e-05 3.10904e-06
1.02244e-05 3.10904e-06 -0.000202198
0.00600437 0.000230843 6.38414e-06
0.000230843 0.00330049 3.02238e-06
6.38414e-06 3.02238e-06 0.00329796
0.000521221 9.65164e-05 1.79378e-05
9.65164e-05 -0.000134653 8.10256e-06
1.79378e-05 8.10256e-06 -0.000221829
0.00604135 0.000228294 0.000263451
0.000228294 0.00332485 2.81508e-05
0.000263451 2.81508e-05 0.00332012
0.0010029 1.69462e-05 -1.28383e-05
1.69462e-05 -3.15056e-05 -7.159e-07
-1.28383e-05 -7.159e-07 -0.000155822
0.00167857 2.94618e-05 3.80196e-06
2.94618e-05 0.000140481 9.81798e-08
3.80196e-06 9.81798e-08 2.53991e-05
0.00179876 3.76876e-05 -4.42279e-06
3.76876e-05 7.04052e-05 5.59225e-08
-4.42279e-06 5.59225e-08 -2.19818e-05
0.000579073 3.08024e-05 -1.98317e-05
3.08024e-05 -0.000122573 -5.97796e-07
-1.98317e-05 -5.97796e-07 -0.000189477
0.000835855 -1.6572e-06 -1.50111e-06
-1.6572e-06 -0.000137731 6.97633e-08
-1.50111e-06 6.97633e-08 -0.000261556
0.00177597 9.91763e-06 5.32215e-06
9.91763e-06 0.000203127 1.1034e-07
5.32215e-06 1.1034e-07 8.88135e-05
0.000847403 -1.2907e-05 1.06112e-05
-1.2907e-05 -0.000139249 -3.99869e-07
1.06112e-05 -3.99869e-07 -0.000264536
0.000542252 -4.99508e-06 3.21898e-07
-4.99508e-06 -0.000136661 3.62072e-07
3.21898e-07 3.62072e-07 -0.000210988
0.00571197 3.17183e-05 -0.000270495
3.17183e-05 0.00310713 1.18322e-09
-0.000270495 1.18322e-09 0.00312333
0.000502838 1.55608e-05 1.83378e-05
1.55608e-05 -0.000161808 -1.22284e-06
1.83378e-05 -1.22284e-06 -0.000236328
0.00573126 -9.7859e-05 -7.78772e-06
-9.7859e-05 0.00312502 1.678e-06
-7.78772e-06 1.678e-06 0.00313604
0.00573638 4.57648e-07 0.000250849
4.57648e-07 0.0031192 -4.75597e-06
0.000250849 -4.75597e-06 0.00313401
0.00103176 3.14614e-05 -1.26544e-05
3.14614e-05 -2.09439e-05 -1.38653e-06
-1.26544e-05 -1.38653e-06 -0.000146202
0.00157052 5.84051e-05 -2.03881e-07
5.84051e-05 6.97683e-05 -7.09519e-08
-2.03881e-07 -7.09519e-08 -5.27493e-05
0.00183894 8.83775e-05 -4.59379e-06
8.83775e-05 8.9224e-05 -2.21009e-06
-4.59379e-06 -2.21009e-06 -1.18867e-06
0.00264415 5.5153e-05 -0.000128246
5.5153e-05 0.00113436 -4.3024e-06
-0.000128246 -4.3024e-06 0.00108494
0.00101936 5.92271e-05 2.93815e-07
5.92271e-05 -3.65092e-05 1.39662e-07
2.93815e-07 1.39662e-07 -0.000165619
0.00156841 9.97896e-05 1.6013e-06
9.97896e-05 6.84107e-05 -1.62374e-07
1.6013e-06 -1.62374e-07 -6.42064e-05
0.005801 0.000149056 -0.000284458
0.000149056 0.00316961 -1.48733e-05
-0.000284458 -1.48733e-05 0.00317812
0.000547945 6.13138e-05 8.70464e-07
6.13138e-05 -0.000129807 3.63028e-07
8.70464e-07 3.63028e-07 -0.000210854
0.000997169 9.70373e-05 1.24986e-05
9.70373e-05 -5.18656e-05 2.73847e-06
1.24986e-05 2.73847e-06 -0.000188037
0.00595104 0.000208927 1.79533e-06
0.000208927 0.00326553 1.64561e-06
1.79533e-06 1.64561e-06 0.00326725
0.000556435 7.83849e-05 1.82233e-05
7.83849e-05 -0.000121978 6.32643e-06
1.82233e-05 6.32643e-06 -0.000206113
0.00600388 0.000260741 0.000275301
0.000260741 0.00331049 2.93715e-05
0.000275301 2.93715e-05 0.00330239
0.000631333 1.0215e-05 -1.62503e-05
1.0215e-05 -8.07262e-05 -1.85639e-06
-1.62503e-05 -1.85639e-06 -0.000156243
0.000913727 1.56892e-05 5.88402e-07
1.56892e-05 -8.76749e-05 2.42561e-07
5.88402e-07 2.42561e-07 -0.000211868
0.00160288 2.44961e-05 4.29909e-06
2.44961e-05 9.43431e-05 5.33875e-08
4.29909e-06 5.33875e-08 -2.01707e-05
0.00558165 -9.58512e-05 -0.00025455
-9.58512e-05 0.00304524 1.97651e-06
-0.00025455 1.97651e-06 0.00305134
0.000538348 8.31782e-06 -5.52893e-07
8.31782e-06 -0.000142579 5.68688e-08
-5.52893e-07 5.68688e-08 -0.000212073
0.000831513 3.12248e-06 1.0521e-05
3.12248e-06 -0.00014154 1.12873e-07
1.0521e-05 1.12873e-07 -0.000265432
0.000501073 2.07645e-05 1.85794e-05
2.07645e-05 -0.000162297 2.14837e-07
1.85794e-05 2.14837e-07 -0.000235845
0.0056644 -4.1121e-06 2.338e-06
-4.1121e-06 0.00308333 -1.16962e-06
2.338e-06 -1.16962e-06 0.00309583
0.00573714 -1.59005e-05 0.00025949
-1.59005e-05 0.00311822 -2.8406e-06
0.00025949 -2.8406e-06 0.00313444
0.00271991 1.08199e-05 -0.000124216
1.08199e-05 0.00117723 -2.59714e-06
-0.000124216 -2.59714e-06 0.00112968
0.00101892 3.45591e-05 6.67237e-08
3.45591e-05 -3.0431e-05 7.17183e-08
6.67237e-08 7.17183e-08 -0.000156091
0.00157623 5.70135e-05 1.47233e-06
5.70135e-05 7.40333e-05 -3.71525e-07
1.47233e-06 -3.71525e-07 -4.54895e-05
0.00537291 -4.81679e-05 -9.86338e-05
-4.81679e-05 0.00292201 5.1589e-07
-9.86338e-05 5.1589e-07 0.00290898
0.000563488 5.37895e-05 9.54507e-08
5.37895e-05 -0.000121654 2.30134e-07
9.54507e-08 2.30134e-07 -0.000199152
0.000994105 6.1542e-05 1.21515e-05
6.1542e-05 -5.25601e-05 2.08565e-06
1.21515e-05 2.08565e-06 -0.000182145
0.00585763 0.00012168 -1.06582e-05
0.00012168 0.00319906 -1.44787e-06
-1.06582e-05 -1.44787e-06 0.00320905
0.00057797 8.40647e-05 1.95865e-05
8.40647e-05 -0.000111052 5.34321e-06
1.95865e-05 5.34321e-06 -0.000192889
0.0059817 0.00023312 0.000285476
0.00023312 0.00329115 2.62343e-05
0.000285476 2.62343e-05 0.00328954
0.00169858 -5.17929e-05 -0.000209611
-5.17929e-05 0.000666954 9.07997e-07
-0.000209611 9.07997e-07 0.000661299
0.00163876 2.7828e-05 -5.23704e-05
2.7828e-05 0.000521463 1.98098e-07
-5.23704e-05 1.98098e-07 0.000464687
0.000820751 1.69864e-05 1.24618e-05
1.69864e-05 -0.000145723 9.52297e-07
1.24618e-05 9.52297e-07 -0.000269863
0.00565246 -4.27198e-05 7.43865e-06
-4.27198e-05 0.00308203 1.82229e-06
7.43865e-06 1.82229e-06 0.00309277
0.000555619 -1.2508e-05 1.91619e-05
-1.2508e-05 -0.000126374 8.1596e-07
1.91619e-05 8.1596e-07 -0.000199437
0.00570566 -7.01713e-05 0.000273464
-7.01713e-05 0.00311005 -2.99113e-06
0.000273464 -2.99113e-06 0.00312282
0.00128376 1.62983e-05 -4.75085e-05
1.62983e-05 0.000440932 -8.01859e-07
-4.75085e-05 -8.01859e-07 0.000405796
0.00162856 1.4773e-05 -5.28594e-05
1.4773e-05 0.000518566 -8.88855e-07
-5.28594e-05 -8.88855e-07 0.000458339
0.000995942 3.62745e-05 1.24109e-05
3.62745e-05 -4.5822e-05 1.57466e-06
1.24109e-05 1.57466e-06 -0.000171911
0.00354682 5.73307e-05 0.000100918
5.73307e-05 0.00180027 2.6027e-06
0.000100918 2.6027e-06 0.00179036
0.000571297 6.42916e-05 1.98515e-05
6.42916e-05 -0.000116883 4.1421e-06
1.98515e-05 4.1421e-06 -0.000194379
0.00591837 0.000110208 0.000272637
0.000110208 0.00322934 1.57686e-05
0.000272637 1.57686e-05 0.0032426
0.00560788 -2.06397e-05 -8.91092e-06
-2.06397e-05 0.0030578 -2.43875e-06
-8.91092e-06 -2.43875e-06 0.00306755
0.000555327 4.63971e-05 2.0636e-05
4.63971e-05 -0.000136338 2.18711e-06
2.0636e-05 2.18711e-06 -0.000202911
0.00556769 4.5573e-05 0.000261066
4.5573e-05 0.00302739 1.91678e-07
0.000261066 1.91678e-07 0.00304128
0.00347401 2.84938e-05 0.000114074
2.84938e-05 0.00176026 3.91129e-06
0.000114074 3.91129e-06 0.00175126
0.000585496 6.31968e-06 1.90804e-05
6.31968e-06 -0.00010972 2.70979e-06
1.90804e-05 2.70979e-06 -0.000183481
0.00577706 -1.53863e-05 0.000262713
-1.53863e-05 0.00314596 6.89548e-06
0.000262713 6.89548e-06 0.00315954
0.00565048 -0.000123613 0.000257929
-0.000123613 0.00308845 -3.4991e-06
0.000257929 -3.4991e-06 0.00309355
0.00564341 -2.52969e-06 0.000258167
-2.52969e-06 0.00306392 3.78507e-06
0.000258167 3.78507e-06 0.0030807
