# vtk DataFile Version 2.0
Wound Healing Simulation
ASCII
DATASET UNSTRUCTURED_GRID
POINTS 3012 float
69.9759 18.75 4
67.2507 60.3285 4
69.976 18.75 2
73.0099 25.446 4
71.1327 20.9142 4
68.6801 16.6661 4
67.8277 19.9245 3.9878
67.2507 60.3286 2
71.1327 54.0858 4
68.6801 58.3339 4
65.6939 62.2254 4
65.3141 59.0042 3.98897
74.6784 42.3946 4
73.7221 47.2057 4
69.9759 18.75 0
73.0099 25.446 2
68.6801 16.6661 2
71.1327 20.9142 2
67.8282 19.9256 2
74.6792 32.6053 4
73.7222 27.7943 4
72.1454 23.1494 4
70.6159 26.2226 3.98639
68.888 21.958 3.98748
67.2507 14.6715 4
66.6391 17.969 3.9884
65.8035 21.0211 3.98286
67.2507 60.3285 0
71.1327 54.0858 2
68.6801 58.3339 2
65.694 62.2255 2
65.3145 59.004 2
72.1454 51.8506 4
69.9759 56.25 4
68.8388 53.113 3.98725
64.0165 64.0165 4
66.6129 57.1361 3.98862
63.8874 60.7691 3.99024
63.5056 57.7792 3.98442
60.3285 67.2507 4
74.6792 42.3947 2
73.7222 47.2057 2
74.9194 39.9526 4
74.2788 44.8158 4
72.1692 42.0853 3.98496
73.0099 49.554 4
71.251 46.5969 3.98636
73.0099 25.446 0
71.1327 20.9142 0
68.6801 16.6661 0
67.8277 19.9245 0.0121979
74.6792 32.6053 2
73.7222 27.7943 2
67.2508 14.6715 2
72.1455 23.1494 2
70.616 26.2234 2
66.6397 17.9696 2
68.8883 21.9594 2
65.8037 21.0204 2
74.9197 35.0474 4
74.2794 30.1841 4
72.1858 32.9434 3.98527
71.2796 28.4325 3.98614
69.8177 24.0608 3.98702
68.3512 26.9518 3.97873
66.7686 22.9311 3.98169
65.694 12.7746 4
65.3255 16.0999 3.98941
64.7198 19.1882 3.984
63.8969 22.0279 3.97998
71.1327 54.0858 0
65.6939 62.2254 0
68.6801 58.3339 0
65.3141 59.0042 0.0110305
72.1455 51.8506 2
69.9759 56.25 2
68.8391 53.1117 2
64.0165 64.0165 2
66.6133 57.1355 2
63.8876 60.7689 2
63.5057 57.7798 2
62.2254 65.694 4
58.8946 65.4162 3.99265
69.7712 50.9877 3.98681
67.7861 55.1686 3.98807
66.656 52.2113 3.98142
62.3374 62.4301 3.99147
64.6672 56.0376 3.98445
62.2067 59.4126 3.98478
61.8315 56.6925 3.98205
58.3339 68.6801 4
60.3285 67.2508 2
73.7221 47.2057 0
74.6784 42.3946 0
74.9197 39.9526 2
74.2794 44.8159 2
72.1692 42.0857 2
73.0099 49.554 2
71.2509 46.5969 2
75 37.5 4
72.406 39.802 3.98397
71.7839 44.3522 3.98587
69.8073 41.7892 3.97759
70.5771 48.812 3.98663
68.9169 46.0144 3.97851
74.6792 32.6053 0
73.7222 27.7943 0
67.2507 14.6715 0
72.1454 23.1494 0
70.6159 26.2226 0.0136127
68.888 21.958 0.0125191
66.6391 17.969 0.0116038
65.8035 21.0211 0.0171383
74.9197 35.0474 2
74.2794 30.1841 2
72.1858 32.9434 2
71.2797 28.4329 2
65.694 12.7745 2
65.3259 16.0999 2
69.8178 24.062 2
68.3511 26.9518 2
64.7202 19.1873 2
66.7687 22.9308 2
63.8972 22.0271 2
72.4139 35.2241 3.98414
71.8052 30.6768 3.98599
69.8432 33.2687 3.97786
68.9701 29.0387 3.97836
67.6166 24.9115 3.98013
66.2008 27.6333 3.97576
64.0165 10.9835 4
64.7658 23.8251 3.97877
63.8915 14.3237 3.99049
63.5183 17.4383 3.98517
62.9166 20.3102 3.98098
62.1054 22.9329 3.97846
60.6847 11.0951 3.99193
57.6132 11.4398 3.98704
72.1454 51.8506 0
69.9759 56.25 0
68.8388 53.113 0.0127466
64.0165 64.0165 0
63.8874 60.7691 0.00975619
66.6129 57.1361 0.0113764
63.5056 57.7792 0.0155808
62.2255 65.694 2
58.8948 65.4162 2
69.7713 50.9867 2
67.7866 55.1675 2
66.6559 52.2117 2
62.3376 62.4299 2
64.6673 56.0384 2
62.2066 59.4131 2
61.8315 56.6932 2
60.6695 63.9792 3.99212
57.0252 66.7369 3.99317
57.5587 63.6974 3.98747
67.5133 50.1774 3.97994
65.7089 54.1774 3.98324
64.5476 51.3903 3.97806
60.7755 60.9456 3.98563
62.8304 55.0778 3.98226
60.6646 58.1713 3.98208
60.3387 55.7998 3.98107
56.25 69.9759 4
58.3339 68.6801 2
60.3285 67.2507 0
58.9217 9.65344 3.99245
62.2254 9.30607 4
73.0099 49.554 0
74.2788 44.8158 0
71.251 46.5969 0.0136447
72.1692 42.0853 0.0150395
74.9194 39.9526 0
75 37.5 2
72.4061 39.8024 2
71.7839 44.3526 2
69.8074 41.7893 2
70.5772 48.8115 2
68.9168 46.0144 2
72.4892 37.5119 3.98347
70.0432 39.657 3.97617
69.4345 43.907 3.97834
67.6024 41.498 3.9745
68.2711 48.1071 3.97906
66.7168 45.4411 3.97571
74.9197 35.0474 0
74.2794 30.1841 0
72.1858 32.9434 0.0147313
71.2796 28.4325 0.0138622
65.694 12.7746 0
65.3255 16.0999 0.0105862
69.8177 24.0608 0.0129784
68.3512 26.9518 0.0212662
66.7686 22.9311 0.0183143
64.7198 19.1882 0.0160009
63.8969 22.0279 0.0200206
72.414 35.2241 2
71.8052 30.6768 2
69.8433 33.2688 2
68.9702 29.0388 2
64.0165 10.9835 2
63.8917 14.3237 2
63.5185 17.4375 2
67.6165 24.9113 2
66.2009 27.633 2
62.917 20.3093 2
64.7659 23.8245 2
62.1058 22.9322 2
60.6849 11.0951 2
57.6131 11.4391 2
70.0601 35.3921 3.97669
69.4709 31.1499 3.97841
67.6605 33.5903 3.97476
66.7781 29.6218 3.97531
65.5318 25.6965 3.97705
64.154 28.2521 3.97482
62.3426 12.6521 3.9913
62.8685 24.6296 3.97742
62.2024 15.7759 3.98552
61.8218 18.6725 3.98235
61.2298 21.3287 3.97904
60.4402 23.7147 3.97799
59.2475 12.771 3.98582
55.8749 10.2264 3.98845
56.4066 13.1021 3.98393
69.7712 50.9877 0.0131867
62.2254 65.694 0
58.8946 65.4162 0.00735113
67.7861 55.1686 0.0119334
66.656 52.2113 0.0185764
62.3374 62.4301 0.00852617
62.2067 59.4126 0.0152167
64.6672 56.0376 0.0155455
61.8315 56.6925 0.0179486
60.6697 63.9792 2
57.0254 66.7369 2
57.5586 63.6979 2
67.5131 50.1776 2
65.709 54.1781 2
64.5475 51.3911 2
60.7755 60.9463 2
62.8304 55.0787 2
60.6645 58.1719 2
60.3387 55.8005 2
55.0706 67.9337 3.99345
59.2208 62.3729 3.98624
55.8049 64.9147 3.9888
56.3285 62.0985 3.98441
65.3405 49.4114 3.97665
63.7168 53.3 3.98034
62.4543 50.6598 3.97638
59.3374 59.5681 3.98349
61.0899 54.3219 3.98134
59.2972 57.0269 3.98019
59.2542 55.1985 3.98152
48.103 68.5818 3.99024
50.9483 69.9331 3.99386
54.0858 71.1327 4
56.25 69.976 2
58.3339 68.6801 0
57.0588 8.33332 3.99296
60.3285 7.74928 4
58.922 9.65335 2
62.2255 9.30602 2
70.5771 48.812 0.0133748
71.7839 44.3522 0.0141328
68.9169 46.0144 0.0214899
69.8073 41.7892 0.0224077
72.406 39.802 0.0160294
75 37.5 0
72.4892 37.5122 2
70.0434 39.6571 2
69.4345 43.9071 2
67.6026 41.4982 2
68.271 48.1072 2
66.7168 45.4414 2
70.1308 37.5214 3.97562
67.8377 39.5123 3.97309
67.23 43.4708 3.97541
65.5626 41.2115 3.97358
66.0765 47.4199 3.97621
64.6611 44.8515 3.97482
72.4139 35.2241 0.0158601
71.8052 30.6768 0.0140119
69.8432 33.2687 0.0221364
68.9701 29.0387 0.0216404
64.0165 10.9835 0
63.8915 14.3237 0.00950572
63.5183 17.4383 0.0148292
67.6166 24.9115 0.019868
66.2008 27.6333 0.0242407
64.7658 23.8251 0.0212344
62.9166 20.3102 0.019017
62.1054 22.9329 0.0215391
60.6847 11.0951 0.00806837
57.6132 11.4398 0.0129616
70.0603 35.3922 2
69.471 31.15 2
67.6607 33.5901 2
66.7782 29.6216 2
62.3428 12.6522 2
62.2024 15.7754 2
61.8222 18.6717 2
65.5318 25.6961 2
64.1541 28.2518 2
61.2303 21.3279 2
62.8687 24.6291 2
60.4406 23.7141 2
59.2475 12.7703 2
56.4065 13.1013 2
55.8749 10.2257 2
67.8741 35.5473 3.97377
67.2713 31.6214 3.97549
65.7043 33.9256 3.97355
64.6702 30.1892 3.97415
63.5476 26.4091 3.97566
62.2662 28.7724 3.97538
60.7772 14.2154 3.98541
61.0583 25.3278 3.97689
60.6181 17.1156 3.98348
60.2327 19.8017 3.98056
59.6751 22.2433 3.9777
58.9941 24.3056 3.97824
54.0379 9.13001 3.98908
57.9122 14.3207 3.98371
54.7876 12.0013 3.98508
55.3142 14.6325 3.98264
67.5133 50.1774 0.020063
57.0252 66.7369 0.00683456
60.6695 63.9792 0.0078817
57.5587 63.6974 0.0125338
65.7089 54.1774 0.0167558
64.5476 51.3903 0.02194
60.7755 60.9456 0.01437
60.6646 58.1713 0.017922
62.8304 55.0778 0.0177359
60.3387 55.7998 0.0189304
55.0708 67.9338 2
59.2207 62.3737 2
55.8048 64.9151 2
56.3283 62.099 2
65.3403 49.412 2
63.7169 53.3009 2
62.4542 50.6605 2
59.3373 59.5689 2
61.09 54.3227 2
59.2972 57.0275 2
59.2543 55.1991 2
53.0424 69.0015 3.99368
53.967 66.0166 3.98943
57.8833 60.8798 3.98392
54.6845 63.2145 3.98552
55.2136 60.6266 3.98287
63.2051 48.6666 3.97519
61.7552 52.5857 3.97889
60.2881 50.0297 3.97544
58.0236 58.2743 3.98152
59.3415 53.9621 3.98052
58.1365 55.8286 3.97836
50.1095 67.8598 3.99003
47.4635 66.5861 3.98797
46.0567 69.1613 3.99047
48.103 68.5822 2
48.8025 70.7243 3.99403
50.9486 69.9332 2
51.8506 72.1454 4
54.0858 71.1327 2
56.25 69.9759 0
55.103 7.13792 3.9932
58.3339 6.31992 4
57.059 8.33317 2
60.3286 7.74926 2
58.9217 9.65344 0.0075452
62.2254 9.30607 0
68.2711 48.1071 0.0209386
69.4345 43.907 0.0216551
66.7168 45.4411 0.0242907
67.6024 41.498 0.0254985
70.0432 39.657 0.0238328
72.4892 37.5119 0.0165334
70.1309 37.5215 2
67.8379 39.5125 2
67.2301 43.4711 2
65.5629 41.2118 2
66.0764 47.4204 2
64.6612 44.8519 2
67.9332 37.5219 3.97226
65.7919 39.371 3.97218
65.1842 43.0278 3.9745
63.7638 40.9324 3.97318
63.9754 46.7208 3.97515
62.8177 44.2215 3.9755
70.0601 35.3921 0.0233149
69.4709 31.1499 0.0215936
67.6605 33.5903 0.0252389
66.7781 29.6218 0.0246946
62.3426 12.6521 0.00869571
62.2024 15.7759 0.014485
61.8218 18.6725 0.0176492
65.5318 25.6965 0.022947
64.154 28.2521 0.0251778
62.8685 24.6296 0.0225757
61.2298 21.3287 0.0209616
60.4402 23.7147 0.0220073
59.2475 12.771 0.0141791
56.4066 13.1021 0.0160706
55.8749 10.2264 0.0115512
67.8745 35.5472 2
67.2714 31.6212 2
65.7046 33.9253 2
64.6704 30.1889 2
60.7772 14.2147 2
60.6183 17.1147 2
60.2332 19.8008 2
63.5477 26.4087 2
62.2664 28.7721 2
59.6756 22.2426 2
61.0586 25.3273 2
58.9945 24.3051 2
57.9122 14.3201 2
55.3142 14.6317 2
54.0379 9.12941 2
54.7876 12.0004 2
65.8812 35.6661 3.97275
65.1938 32.1515 3.97429
64.2918 34.248 3.97355
62.6037 30.6311 3.97393
61.6619 27.0652 3.97495
60.8604 29.133 3.97687
59.3137 15.6575 3.9838
59.3457 25.7842 3.97855
59.1304 18.341 3.98242
58.7516 20.8375 3.97867
58.2997 23.0756 3.97642
57.9844 24.6492 3.97875
52.1125 8.14875 3.98945
53.0583 11.0079 3.9861
56.679 15.7289 3.98291
53.8106 13.6674 3.98338
54.3784 15.9834 3.9824
55.0706 67.9337 0.00655257
65.3405 49.4114 0.0233491
55.8049 64.9147 0.0111962
59.2208 62.3729 0.0137635
56.3285 62.0985 0.0155858
63.7168 53.3 0.0196612
62.4543 50.6598 0.0236194
59.3374 59.5681 0.0165069
59.2972 57.0269 0.0198143
61.0899 54.3219 0.0186593
59.2542 55.1985 0.0184827
53.0427 69.0015 2
53.9669 66.017 2
57.8832 60.8804 2
54.6844 63.215 2
55.2134 60.6272 2
63.2051 48.6673 2
61.7553 52.5865 2
60.2881 50.0305 2
58.0236 58.2751 2
59.3415 53.9628 2
58.1364 55.8292 2
52.0705 67.0029 3.9898
52.9535 64.2245 3.98655
56.6518 59.5006 3.98272
53.6823 61.6315 3.98379
54.2631 59.3331 3.98165
61.0064 47.8886 3.97436
59.7256 52.1183 3.9786
58.0416 49.6309 3.97714
56.7836 57.003 3.97876
57.1342 54.1388 3.9782
50.1095 67.8601 2
49.3372 65.9263 3.98772
47.4634 66.5867 2
46.8924 64.7435 3.98635
45.5587 67.1038 3.98789
43.9738 69.5938 3.99054
46.0568 69.1617 2
46.6092 71.3688 3.99423
48.103 68.5818 0.00976123
48.8028 70.7245 2
49.554 73.0099 4
50.9483 69.9331 0.00614365
51.8506 72.1455 2
54.0858 71.1327 0
53.064 6.06952 3.99342
55.1032 7.13778 2
56.25 5.02411 4
58.3339 6.3199 2
57.0588 8.33332 0.00703695
60.3285 7.74928 0
66.0765 47.4199 0.0237947
67.23 43.4708 0.0245906
64.6611 44.8515 0.0251842
65.5626 41.2115 0.0264212
67.8377 39.5123 0.026909
70.1308 37.5214 0.0243828
67.9333 37.5219 2
65.7923 39.3712 2
65.1844 43.0283 2
63.7641 40.9328 2
63.9754 46.7213 2
62.8178 44.222 2
65.8936 37.5018 3.97079
63.9055 39.268 3.97206
63.3389 42.5545 3.97425
62.4411 40.7006 3.97373
61.9794 45.9256 3.97544
61.4641 43.6898 3.97544
67.8741 35.5473 0.0262307
67.2713 31.6214 0.0245134
65.7043 33.9256 0.0264499
64.6702 30.1892 0.0258523
60.7772 14.2154 0.0145891
60.6181 17.1156 0.0165195
60.2327 19.8017 0.0194405
63.5476 26.4091 0.0243366
62.2662 28.7724 0.0246178
61.0583 25.3278 0.0231056
59.6751 22.2433 0.0223008
58.9941 24.3056 0.0217555
57.9122 14.3207 0.0162871
55.3142 14.6325 0.0173618
54.0379 9.13001 0.0109157
54.7876 12.0013 0.0149197
65.8817 35.6659 2
65.194 32.1513 2
64.2922 34.2477 2
62.6039 30.6307 2
59.3137 15.6567 2
59.1307 18.34 2
58.7523 20.8366 2
61.6621 27.0648 2
60.8606 29.1326 2
58.3003 23.075 2
59.3461 25.7837 2
57.9848 24.6488 2
56.6789 15.7281 2
54.3783 15.9825 2
53.8106 13.6665 2
52.1124 8.14818 2
53.0583 11.0072 2
64.097 35.6313 3.9725
62.9404 33.0429 3.97342
60.6253 30.6051 3.97361
59.584 27.9007 3.97584
57.9432 16.9696 3.98302
57.7563 25.7115 3.97992
57.7228 19.4597 3.98105
57.3831 21.8226 3.97637
57.2016 23.9302 3.97594
50.1125 7.28094 3.98968
51.2326 10.1166 3.9868
52.1726 12.7849 3.98464
55.5403 16.9571 3.9829
52.9791 15.2483 3.98173
53.7607 16.9646 3.98267
53.0424 69.0015 0.0063246
53.967 66.0166 0.0105735
63.2051 48.6666 0.0248121
54.6845 63.2145 0.0144757
57.8833 60.8798 0.0160764
55.2136 60.6266 0.0171334
61.7552 52.5857 0.021113
60.2881 50.0297 0.0245637
58.0236 58.2743 0.018484
58.1365 55.8286 0.0216402
59.3415 53.9621 0.0194836
52.0705 67.0033 2
52.9533 64.2249 2
56.6517 59.5012 2
53.6821 61.632 2
54.2628 59.3339 2
61.0064 47.8892 2
59.7256 52.1191 2
58.0416 49.6316 2
56.7836 57.0038 2
57.1342 54.1393 2
51.168 65.1333 3.98725
52.0465 62.5464 3.98472
55.485 58.2632 3.98219
52.8364 60.1458 3.9824
53.6437 58.4835 3.98093
58.3216 46.8607 3.97722
57.577 51.8022 3.97783
56.2648 49.5681 3.98091
55.4801 55.8097 3.97726
55.3708 53.3988 3.97375
50.1095 67.8598 0.00997387
49.337 65.9267 2
48.6181 64.1296 3.98594
47.4635 66.5861 0.0120346
45.5586 67.1042 2
46.8922 64.7439 2
46.3818 63.0622 3.98511
45.1326 65.2051 3.98648
43.6318 67.4748 3.98806
41.861 69.8813 3.99052
43.9738 69.5942 2
44.3766 71.8637 3.99423
46.0567 69.1613 0.00953078
46.6094 71.369 2
47.2057 73.7222 4
48.8025 70.7243 0.00596847
49.554 73.0099 2
51.8506 72.1454 0
50.9537 5.12999 3.99361
53.0642 6.06935 2
54.0858 3.86728 4
55.103 7.13792 0.00679984
56.25 5.02406 2
58.3339 6.31992 0
63.9754 46.7208 0.0248495
65.1842 43.0278 0.0255025
62.8177 44.2215 0.0244961
63.7638 40.9324 0.0268239
65.7919 39.371 0.0278237
67.9332 37.5219 0.027742
65.8938 37.5018 2
63.906 39.2683 2
63.3391 42.5549 2
62.4415 40.7009 2
61.9794 45.9261 2
61.4643 43.6903 2
63.9639 37.457 3.97048
62.167 39.3566 3.97288
61.2317 41.9631 3.97398
60.2643 44.779 3.97611
65.8812 35.6661 0.0272512
65.1938 32.1515 0.0257138
64.2918 34.248 0.026447
62.6037 30.6311 0.0260748
59.3137 15.6575 0.0162029
59.1304 18.341 0.017577
58.7516 20.8375 0.0213315
61.6619 27.0652 0.0250523
60.8604 29.133 0.0231326
59.3457 25.7842 0.0214501
58.2997 23.0756 0.0235785
57.9844 24.6492 0.0212482
56.679 15.7289 0.0170879
54.3784 15.9834 0.0175998
53.8106 13.6674 0.0166182
52.1125 8.14875 0.0105455
53.0583 11.0079 0.0139011
64.0977 35.6311 2
62.9406 33.0424 2
60.6256 30.6048 2
57.9434 16.9687 2
57.7234 19.4586 2
57.3839 21.8218 2
59.5842 27.9003 2
57.2021 23.9299 2
57.7567 25.7112 2
50.1125 7.28045 2
55.5403 16.9562 2
53.7606 16.9637 2
52.979 15.2474 2
52.1726 12.7841 2
51.2326 10.116 2
62.1996 35.3575 3.97215
60.3051 32.7415 3.9729
58.6355 30.0669 3.97332
57.3077 27.3675 3.97725
56.6405 18.1407 3.98287
56.3096 25.0866 3.97561
56.3658 20.5043 3.97848
56.1222 22.8513 3.97326
48.0562 6.52416 3.98995
49.3244 9.32488 3.98722
50.4332 11.9834 3.98498
51.3787 14.4837 3.98316
54.4183 17.9052 3.98289
52.3633 17.0201 3.98161
52.0705 67.0029 0.0102048
52.9535 64.2245 0.0134547
61.0064 47.8886 0.0256372
53.6823 61.6315 0.0162125
56.6518 59.5006 0.0172766
54.2631 59.3331 0.018352
59.7256 52.1183 0.0214012
58.0416 49.6309 0.0228568
56.7836 57.003 0.0212439
57.1342 54.1388 0.0218043
51.1678 65.1337 2
52.0463 62.5469 2
55.4848 58.2639 2
52.8361 60.1464 2
53.6435 58.4842 2
58.3218 46.8615 2
57.577 51.8028 2
56.2648 49.5687 2
55.4802 55.8105 2
55.3707 53.3994 2
50.3463 63.3878 3.98548
51.245 60.9444 3.98301
54.2249 57.278 3.9809
52.3155 58.6458 3.98089
56.74 44.1959 3.97358
55.5124 47.9105 3.97923
55.0864 51.4026 3.97446
54.0146 54.5614 3.97543
49.3372 65.9263 0.0122833
48.6179 64.13 2
47.962 62.483 3.98476
45.5587 67.1038 0.0121134
46.8924 64.7435 0.0136481
43.6317 67.4752 2
46.3815 63.0625 2
45.1325 65.2055 2
45.9871 61.5957 3.98408
44.767 63.4635 3.98563
43.3565 65.5152 3.98667
41.6638 67.6939 3.98803
39.7026 70.0285 3.99038
41.861 69.8818 2
42.1111 72.2084 3.99416
43.9738 69.5938 0.00946047
44.3768 71.8639 2
44.8159 74.2794 4
46.6092 71.3688 0.00576501
47.2057 73.7222 2
49.554 73.0099 0
48.7842 4.32107 3.99383
50.9539 5.1298 2
51.8506 2.85458 4
53.064 6.06952 0.00658074
54.0858 3.86728 2
56.25 5.02411 0
61.9794 45.9256 0.0245591
63.3389 42.5545 0.0257497
61.4641 43.6898 0.024561
62.4411 40.7006 0.0262735
63.9055 39.268 0.0279355
65.8936 37.5018 0.0292148
63.9642 37.457 2
62.1675 39.3569 2
61.232 41.9635 2
60.2644 44.7796 2
62.0028 37.4444 3.97082
60.2639 39.8504 3.97369
59.014 42.9258 3.97393
64.097 35.6313 0.0274975
62.9404 33.0429 0.0265817
60.6253 30.6051 0.026387
57.9432 16.9696 0.0169824
57.7228 19.4597 0.0189517
57.3831 21.8226 0.0236261
59.584 27.9007 0.0241591
57.7563 25.7115 0.0200794
57.2016 23.9302 0.0240594
55.5403 16.9571 0.0171033
53.7607 16.9646 0.0173339
52.9791 15.2483 0.0182746
50.1125 7.28094 0.0103192
52.1726 12.7849 0.015359
51.2326 10.1166 0.0132008
62.2004 35.3574 2
60.3053 32.741 2
58.6358 30.0665 2
56.6408 18.1397 2
56.3667 20.5032 2
56.123 22.851 2
57.3079 27.367 2
56.3101 25.0866 2
48.0562 6.52371 2
49.3243 9.32438 2
54.4184 17.9041 2
52.3631 17.019 2
51.3787 14.4829 2
50.4332 11.9827 2
59.9099 35.1181 3.97255
58.0144 32.2648 3.97276
56.5625 29.3278 3.97174
55.4668 26.5861 3.97791
55.3472 19.1738 3.98251
54.9453 24.0395 3.97219
55.0111 21.5453 3.97606
45.9621 5.87929 3.99026
43.3733 7.46846 3.98832
47.3547 8.61889 3.98745
48.5998 11.2852 3.98566
49.7143 13.7314 3.98389
50.635 16.1171 3.98128
53.1283 18.644 3.98118
51.3052 18.0327 3.98468
51.168 65.1333 0.0127498
52.0465 62.5464 0.0152776
58.3216 46.8607 0.0227822
52.8364 60.1458 0.0176018
55.485 58.2632 0.0178069
53.6437 58.4835 0.0190658
57.577 51.8022 0.0221744
56.2648 49.5681 0.0190862
55.4801 55.8097 0.0227443
55.3708 53.3988 0.0262517
50.3461 63.3881 2
51.2448 60.9449 2
54.2248 57.2788 2
52.3152 58.6464 2
56.7404 44.1964 2
55.5124 47.9113 2
55.0863 51.4031 2
54.0146 54.5624 2
49.5921 61.7528 3.98418
55.6746 41.7147 3.9759
50.5686 59.3385 3.98097
52.1911 56.5022 3.97798
54.2112 45.5819 3.97701
53.3625 49.34 3.97552
52.6821 52.8643 3.97296
48.6181 64.1296 0.0140579
47.9617 62.4833 2
47.3293 61.0185 3.98356
43.6318 67.4748 0.0119446
45.1326 65.2051 0.0135225
46.3818 63.0622 0.0148938
41.6637 67.6944 2
43.3564 65.5155 2
45.9868 61.596 2
44.7668 63.4639 2
45.7662 60.6403 3.98328
44.4829 61.8456 3.98435
43.1463 63.7364 3.98547
41.5461 65.6532 3.9867
39.6328 67.7738 3.98792
37.526 70.0537 3.99031
39.7026 70.029 2
39.8179 72.4055 3.99407
41.861 69.8813 0.0094835
42.1112 72.2087 2
42.3947 74.6792 4
44.3766 71.8637 0.00576799
44.8159 74.2794 2
47.2057 73.7222 0
43.8514 5.35642 3.99049
46.5702 3.64568 3.99406
48.7844 4.32087 2
49.554 1.99015 4
50.9537 5.12999 0.00639434
51.8506 2.85453 2
54.0858 3.86728 0
60.2643 44.779 0.0238909
61.2317 41.9631 0.0260185
62.167 39.3566 0.0271234
63.9639 37.457 0.0295225
62.0032 37.4446 2
60.2644 39.8505 2
59.0144 42.9262 2
59.7781 37.5678 3.97211
58.0272 40.6623 3.97383
55.1516 39.7277 3.97674
62.1996 35.3575 0.0278461
60.3051 32.7415 0.0270958
58.6355 30.0669 0.026683
56.6405 18.1407 0.0171326
56.3658 20.5043 0.0215245
56.1222 22.8513 0.0267435
57.3077 27.3675 0.0227455
56.3096 25.0866 0.0243949
54.4183 17.9052 0.0171148
52.3633 17.0201 0.0183892
51.3787 14.4837 0.016839
48.0562 6.52416 0.0100514
49.3244 9.32488 0.0127805
50.4332 11.9834 0.0150232
59.911 35.118 2
45.9621 5.87882 2
43.3733 7.46797 2
58.0144 32.2644 2
56.5629 29.3273 2
55.3477 19.1726 2
55.0122 21.5441 2
54.946 24.0402 2
55.4671 26.5861 2
47.3547 8.61845 2
48.5997 11.2847 2
53.1285 18.6429 2
51.3053 18.0317 2
50.6348 16.1161 2
49.7142 13.7306 2
57.4237 34.759 3.9749
55.7528 31.5115 3.97136
54.5319 28.39 3.97741
53.7909 25.4825 3.97431
53.9748 20.1208 3.98253
53.5924 22.6917 3.97282
41.3983 7.07367 3.98851
45.3593 7.99039 3.98773
42.8649 9.40901 3.98682
46.666 10.6464 3.98574
47.7452 13.0919 3.98418
48.9321 15.3881 3.98312
50.008 17.686 3.97928
51.6555 19.3095 3.98637
50.3463 63.3878 0.0145237
51.245 60.9444 0.0169874
56.74 44.1959 0.0264182
55.5124 47.9105 0.0207714
52.3155 58.6458 0.0191134
54.2249 57.278 0.0191013
55.0864 51.4026 0.0255428
54.0146 54.5614 0.0245662
49.5918 61.7532 2
55.6754 41.7147 2
50.5683 59.3391 2
52.191 56.5028 2
54.2118 45.5827 2
53.3624 49.3403 2
52.6822 52.8645 2
48.8496 60.2112 3.98273
52.5845 42.659 3.97555
49.7926 57.6383 3.9801
50.6034 54.4382 3.97599
51.8472 47.284 3.97938
51.2342 50.9569 3.97156
48.2361 43.8054 3.98816
47.962 62.483 0.0152414
47.3289 61.0187 2
46.6192 59.8053 3.98269
41.6638 67.6939 0.0119651
43.3565 65.5152 0.0133263
44.767 63.4635 0.0143652
45.9871 61.5957 0.0159246
39.6328 67.7742 2
41.546 65.6536 2
45.7659 60.6405 2
43.1461 63.7366 2
44.4826 61.846 2
44.6236 60.303 3.98356
42.9501 62.0946 3.98492
41.5997 63.8301 3.98541
39.6476 65.6217 3.9866
37.5633 67.7563 3.98787
31.6972 65.1404 3.98661
33.392 67.4939 3.98779
35.3333 69.9638 3.99027
37.526 70.0542 2
37.5096 72.4601 3.994
39.7026 70.0285 0.00962375
39.8179 72.4058 2
39.9526 74.9197 4
42.1111 72.2084 0.00584026
42.3947 74.6792 2
44.8159 74.2794 0
41.736 4.96554 3.99072
43.8514 5.35597 2
44.3255 3.10902 3.99416
46.5704 3.64544 2
47.2057 1.27793 4
48.7842 4.32107 0.00616863
49.554 1.99013 2
51.8506 2.85458 0
59.014 42.9258 0.0260657
60.2639 39.8504 0.0263101
62.0028 37.4444 0.0291838
59.7787 37.5679 2
58.0278 40.6623 2
55.1522 39.7277 2
56.8562 37.8985 3.97502
49.6817 41.3384 3.9807
53.1926 39.3131 3.97591
39.4416 6.79714 3.9887
59.9099 35.1181 0.0274512
58.0144 32.2648 0.0272367
56.5625 29.3278 0.0282557
55.3472 19.1738 0.0174885
55.0111 21.5453 0.0239396
54.9453 24.0395 0.0278075
55.4668 26.5861 0.0220855
53.1283 18.644 0.018823
51.3052 18.0327 0.015316
50.635 16.1171 0.0187216
45.9621 5.87929 0.00974266
49.7143 13.7314 0.0161059
47.3547 8.61889 0.0125492
48.5998 11.2852 0.0143352
43.3733 7.46846 0.0116846
57.425 34.7592 2
41.3983 7.07315 2
45.3594 7.98994 2
42.8649 9.40849 2
55.7531 31.5113 2
54.5319 28.3902 2
53.9755 20.1194 2
53.5933 22.6878 2
53.7913 25.4832 2
46.6659 10.6461 2
47.745 13.0913 2
51.6559 19.3086 2
50.008 17.6851 2
48.9319 15.3872 2
54.9288 33.9692 3.97585
53.5234 30.4732 3.97324
52.6122 27.1846 3.97538
52.1592 24.0757 3.97359
52.3984 21.0478 3.98064
41.0129 9.04224 3.98686
44.723 9.98941 3.98615
42.4675 10.8947 3.98514
46.0046 12.7202 3.98449
47.6818 14.5731 3.9837
48.115 16.9749 3.98169
49.8201 19.5854 3.97739
49.5921 61.7528 0.0158174
50.5686 59.3385 0.0190346
55.6746 41.7147 0.0241038
54.2112 45.5819 0.0229888
53.3625 49.34 0.0244824
52.1911 56.5022 0.0220206
52.6821 52.8643 0.0270434
48.8493 60.2116 2
52.5858 42.6588 2
49.7923 57.6388 2
50.6033 54.4389 2
51.8471 47.284 2
51.2341 50.9565 2
48.2321 43.8078 2
47.9884 58.7536 3.98183
50.1553 45.299 3.97554
48.6037 55.9301 3.98155
49.1428 52.6104 3.97613
49.6971 49.0592 3.97311
46.0994 39.8909 3.91079
46.4892 42.7078 3.95769
46.5478 45.8488 3.98899
43.9405 41.1951 3.92511
42.096 42.0115 3.90288
47.3293 61.0185 0.0164353
46.6188 59.8054 2
45.469 58.8021 3.98264
39.6328 67.7738 0.0120841
41.5461 65.6532 0.0132984
43.1463 63.7364 0.0145297
44.4829 61.8456 0.0156537
45.7662 60.6403 0.0167219
41.5995 63.8304 2
37.5633 67.7568 2
39.6476 65.622 2
44.6233 60.3032 2
42.9499 62.0948 2
41.7532 62.5055 3.98535
42.4815 59.9957 3.98434
39.8932 63.5657 3.98538
37.6423 65.5208 3.9861
35.4634 67.6657 3.98785
33.5754 65.3539 3.98644
31.9597 63.3141 3.98568
29.8833 64.7312 3.98662
31.6973 65.1407 2
31.3766 67.2035 3.98788
33.3921 67.4943 2
33.156 69.7571 3.99027
35.3333 69.9643 2
35.195 72.3745 3.99397
37.526 70.0537 0.00969422
37.5095 72.4604 2
37.5 75 4
39.8179 72.4055 0.00592985
39.9526 74.9197 2
42.3947 74.6792 0
39.6234 4.71268 3.99086
41.736 4.96508 2
42.0619 2.71666 3.99432
43.8514 5.35642 0.00951182
44.3257 3.10876 2
44.8158 0.721173 4
46.5702 3.64568 0.00594338
47.2057 1.27779 2
49.554 1.99015 0
58.0272 40.6623 0.0261735
59.7781 37.5678 0.0278875
55.1516 39.7277 0.023258
49.6841 41.3402 2
56.8567 37.8986 2
53.1932 39.3127 2
54.0392 36.6273 3.97645
47.6151 40.4401 3.96952
50.6517 38.51 3.97954
37.5153 6.66818 3.9887
39.4416 6.7966 2
39.2104 8.68472 3.98706
35.9408 8.48453 3.98733
57.4237 34.759 0.0251027
55.7528 31.5115 0.0286417
54.5319 28.39 0.0225914
53.9748 20.1208 0.0174689
53.5924 22.6917 0.027177
53.7909 25.4825 0.0256876
51.6555 19.3095 0.0136331
50.008 17.686 0.0207247
48.9321 15.3881 0.0168776
45.3593 7.99039 0.0122725
47.7452 13.0919 0.0158227
46.666 10.6464 0.0142563
41.3983 7.07367 0.0114948
42.8649 9.40901 0.0131765
54.9303 33.9696 2
41.0129 9.04165 2
44.723 9.98902 2
42.4674 10.8941 2
53.5237 30.4721 2
52.6126 27.1867 2
52.3993 21.0466 2
52.1605 24.0759 2
46.0043 12.7199 2
47.6815 14.5724 2
49.8205 19.5841 2
48.1149 16.9739 2
52.4756 32.8663 3.97594
51.3661 29.1423 3.97269
50.812 25.7091 3.9725
49.9471 22.1644 3.97905
40.5682 11.5978 3.98484
43.8572 11.9097 3.98513
45.803 15.4082 3.98371
47.5061 19.2063 3.9802
46.4415 37.5057 3.91474
48.8496 60.2112 0.0172717
49.7926 57.6383 0.0199043
52.5845 42.659 0.024451
51.8472 47.284 0.0206231
51.2342 50.9569 0.0284361
50.6034 54.4382 0.0240055
48.2361 43.8054 0.0118361
47.9881 58.7538 2
50.1566 45.3014 2
48.6033 55.9305 2
49.1425 52.614 2
49.6966 49.0589 2
46.1095 39.8958 2
46.4979 42.7178 2
46.5445 45.8425 2
43.9516 41.2006 2
42.1012 42.0131 2
46.8409 57.357 3.98267
44.7066 39.4756 3.91713
42.4775 40.8822 3.91683
48.1277 47.2565 3.9777
47.1764 54.2664 3.98161
47.6072 50.766 3.97635
44.842 47.4074 3.99573
45.1666 41.9862 3.91438
44.9662 44.6158 3.95813
42.7485 42.7134 3.92736
40.952 42.3455 3.92782
46.6192 59.8053 0.0173101
45.4686 58.8022 2
43.8773 57.7271 3.98332
37.5633 67.7563 0.0121305
39.6476 65.6217 0.0134041
41.5997 63.8301 0.0145938
42.9501 62.0946 0.0150814
44.6236 60.303 0.0164418
35.4634 67.6661 2
41.753 62.5057 2
39.893 63.5659 2
37.6423 65.5212 2
42.4812 59.9959 2
40.623 61.6645 3.98458
40.4457 58.2295 3.98381
37.8367 63.2272 3.9856
35.573 65.4431 3.9862
33.5755 65.3542 2
31.9598 63.3143 2
33.6292 63.3541 3.98551
30.3787 62.8725 3.98567
32.1234 62.0213 3.98491
26.8682 61.5157 3.98456
28.0621 64.159 3.98642
29.8834 64.7315 2
29.406 66.767 3.98789
31.6972 65.1404 0.0133864
31.3766 67.2039 2
31.0132 69.4221 3.99025
33.392 67.4939 0.012205
33.156 69.7575 2
32.892 72.1488 3.99398
35.3333 69.9638 0.00973422
35.1949 72.3748 2
35.0474 74.9194 4
37.5096 72.4601 0.0060041
37.5 75 2
39.9526 74.9197 0
35.6197 6.71924 3.98872
37.5225 4.61215 3.99098
39.6235 4.71223 2
39.7884 2.47311 3.99443
41.736 4.96554 0.0092758
42.0621 2.71638 2
42.3946 0.32156 4
44.3255 3.10902 0.00583672
44.8159 0.72056 2
47.2057 1.27793 0
49.6817 41.3384 0.0192974
56.8562 37.8985 0.0249843
53.1926 39.3131 0.0240946
47.618 40.4415 2
50.6513 38.5109 2
54.0397 36.6275 2
51.4374 35.5811 3.96623
48.2882 37.7723 3.97744
46.1016 35.1273 3.91459
43.9414 33.8099 3.92247
42.0903 32.9984 3.90196
37.457 8.52638 3.98722
37.5153 6.66767 2
39.4416 6.79714 0.0113042
39.2104 8.68408 2
38.9753 10.1166 3.98673
35.8972 9.76363 3.98622
34.1492 8.81399 3.98714
35.9407 8.48387 2
54.9288 33.9692 0.0241528
53.5234 30.4732 0.0267638
52.6122 27.1846 0.0246233
52.3984 21.0478 0.0193597
52.1592 24.0757 0.0264131
49.8201 19.5854 0.0226054
48.115 16.9749 0.0183137
47.6818 14.5731 0.0163021
44.723 9.98941 0.0138538
46.0046 12.7202 0.0155143
41.0129 9.04224 0.0131417
42.4675 10.8947 0.0148554
52.4774 32.8658 2
40.568 11.5972 2
43.8571 11.9093 2
51.3678 29.1444 2
50.8136 25.7106 2
49.9481 22.1629 2
45.8026 15.4077 2
47.5064 19.2052 2
50.0598 31.4008 3.96578
49.3159 27.457 3.97292
49.4211 24.3758 3.98168
47.1906 21.9061 3.97992
38.3006 12.7221 3.98443
42.1005 14.2924 3.98332
44.8019 18.4407 3.98329
44.993 37.5096 3.91821
46.4572 37.5091 2
47.9884 58.7536 0.0181675
48.6037 55.9301 0.0184527
50.1553 45.299 0.0244573
49.6971 49.0592 0.0268914
49.1428 52.6104 0.0238709
46.0994 39.8909 0.0892059
46.4892 42.7078 0.0423074
46.5478 45.8488 0.0110091
43.9405 41.1951 0.0748922
42.096 42.0115 0.0971187
46.8406 57.3572 2
44.7196 39.4791 2
42.4785 40.8816 2
48.1268 47.2558 2
47.1761 54.2662 2
47.6072 50.7676 2
44.8423 47.4032 2
45.174 41.9934 2
44.9762 44.6276 2
42.7653 42.7206 2
40.9574 42.3451 2
45.4008 55.9443 3.9826
42.8203 39.2686 3.93039
40.9243 40.801 3.96442
46.1231 48.9323 3.98166
45.5579 52.5634 3.98333
43.4855 48.4808 3.99162
43.3764 46.1871 3.96497
43.728 43.8025 3.90991
41.23 43.8769 3.92905
39.3189 42.6752 3.93611
45.469 58.8021 0.0173577
43.8769 57.7271 2
42.1081 56.3537 3.98407
35.4634 67.6657 0.0121506
37.6423 65.5208 0.0139009
39.8932 63.5657 0.0146172
41.7532 62.5055 0.0146546
42.4815 59.9957 0.0156551
35.573 65.4434 2
40.6227 61.6647 2
37.8366 63.2273 2
40.4453 58.2296 2
38.9268 56.5244 3.98619
38.2506 60.3497 3.98497
35.6071 63.2208 3.98527
33.5754 65.3539 0.0135613
31.9597 63.3141 0.0143201
33.6293 63.3543 2
30.3789 62.8728 2
32.1234 62.0214 2
28.6811 62.2177 3.9854
33.3461 61.5344 3.98507
31.0663 61.2386 3.98476
27.5663 59.6142 3.98297
23.788 59.1016 3.9831
25.0331 60.8885 3.98372
26.8684 61.5159 2
26.2286 63.4911 3.98604
28.0623 64.1593 2
27.4626 66.1907 3.98786
29.8833 64.7312 0.0133802
29.4061 66.7674 2
28.9055 68.9475 3.99023
31.3766 67.2035 0.0121201
31.0132 69.4224 2
30.6144 71.7798 3.994
33.156 69.7571 0.00973168
32.8919 72.149 2
32.6054 74.6784 4
35.195 72.3745 0.00603375
35.0474 74.9197 2
37.5 75 0
33.7222 6.9739 3.98847
35.4339 4.68257 3.99093
35.6197 6.71865 2
37.5139 2.38575 3.9945
37.5226 4.61171 2
39.6234 4.71268 0.00913762
39.7885 2.47282 2
39.9526 0.0806499 4
42.0619 2.71666 0.00568239
42.3947 0.320817 2
44.8158 0.721173 0
44.7162 35.5296 3.91681
42.4778 34.1207 3.91583
47.6151 40.4401 0.0304808
50.6517 38.51 0.0204599
54.0392 36.6273 0.0235497
48.2891 37.7705 2
51.4383 35.5803 2
46.1094 35.1236 2
43.957 33.7999 2
42.0935 32.9989 2
48.4504 34.2736 3.99855
45.1625 33.0231 3.90618
42.7461 32.2969 3.92732
40.9438 32.662 3.92856
37.3093 10.6195 3.98578
37.457 8.52574 2
37.5153 6.66818 0.0113017
39.2104 8.68472 0.01294
38.9753 10.1159 2
34.7524 10.3691 3.98571
35.8972 9.76291 2
32.3758 9.3606 3.98641
34.1491 8.81323 2
35.9408 8.48453 0.0126714
52.4756 32.8663 0.02406
51.3661 29.1423 0.0273116
50.812 25.7091 0.0274986
49.9471 22.1644 0.0209499
47.5061 19.2063 0.0198014
45.803 15.4082 0.0162928
43.8572 11.9097 0.0148673
40.5682 11.5978 0.0151631
50.0599 31.4005 2
38.3003 12.7213 2
42.1001 14.2918 2
49.3175 27.4581 2
49.4226 24.3743 2
47.1915 21.9066 2
44.802 18.44 2
47.8446 29.5775 3.97256
47.1231 25.092 3.98596
44.2913 21.2894 3.98222
36.5803 12.9187 3.984
38.68 14.7912 3.98291
41.7501 17.8201 3.98096
42.9613 37.4917 3.92575
45.0114 37.5092 2
46.4415 37.5057 0.0852593
46.8409 57.357 0.0173322
47.1764 54.2664 0.0183902
48.1277 47.2565 0.0223014
47.6072 50.766 0.0236512
44.7066 39.4756 0.0828735
45.1666 41.9862 0.0856217
44.9662 44.6158 0.0418696
44.842 47.4074 0.00427115
42.7485 42.7134 0.0726351
42.4775 40.8822 0.0831711
40.952 42.3455 0.0721837
45.4006 55.9442 2
42.8232 39.2672 2
40.9237 40.7986 2
46.1231 48.9312 2
45.5578 52.5626 2
43.4845 48.49 2
43.4032 46.198 2
43.7405 43.8098 2
41.2416 43.8778 2
39.3219 42.6755 2
43.7405 54.4556 3.9878
41.0099 39.1713 3.97143
39.2498 40.8832 3.9724
43.7299 50.5383 3.98987
41.9878 47.72 3.99025
41.902 45.1998 3.90426
39.4607 44.6277 3.93415
37.4972 42.8112 3.93423
43.8773 57.7271 0.0166757
42.1076 56.3537 2
40.4214 54.9612 3.98416
35.573 65.4431 0.0137955
37.8367 63.2272 0.0143988
40.623 61.6645 0.0154231
40.4457 58.2295 0.0161948
35.6071 63.2209 2
38.2502 60.3495 2
38.9262 56.5253 2
38.0004 55.2827 3.98593
36.9356 57.6551 3.98457
35.3637 60.9338 3.98503
33.6292 63.3541 0.0144906
30.3787 62.8725 0.0143317
32.1234 62.0213 0.0150855
33.3461 61.5345 2
28.6813 62.2179 2
31.0663 61.2386 2
29.402 60.3082 3.98418
32.3556 59.7672 3.98403
28.0177 58.3936 3.98333
27.5665 59.6142 2
25.3749 58.6139 3.98185
22.75 58.2604 3.98002
23.3981 60.368 3.98261
23.7881 59.1019 2
25.0333 60.8888 2
24.4309 62.7836 3.98546
26.8682 61.5157 0.0154369
26.2288 63.4914 2
25.5466 65.5006 3.98773
28.0621 64.159 0.0135794
27.4627 66.1911 2
26.8352 68.3357 3.99017
29.406 66.767 0.0121054
28.9055 68.9478 2
28.3695 71.265 3.994
31.0132 69.4221 0.00975179
30.6142 71.78 2
30.1842 74.2788 4
32.892 72.1488 0.00602248
32.6053 74.6792 2
35.0474 74.9194 0
31.7866 7.4137 3.98821
33.3458 4.92175 3.99077
33.7222 6.97322 2
35.2442 2.4619 3.99446
35.4339 4.68205 2
35.6197 6.71924 0.0112762
37.5 0 4
37.514 2.38545 2
37.5225 4.61215 0.00901745
39.7884 2.47311 0.00557076
39.9526 0.0802889 2
42.3946 0.32156 0
42.8294 35.7231 3.92792
44.7263 35.5279 2
40.9252 34.2024 3.96384
42.4791 34.1214 2
48.2882 37.7723 0.0225646
51.4374 35.5811 0.033768
46.1016 35.1273 0.0854063
43.9414 33.8099 0.077528
42.0903 32.9984 0.0980372
48.4547 34.2705 2
45.1724 33.0173 2
42.7605 32.2918 2
40.9457 32.6608 2
46.3887 31.5415 3.97599
43.7193 31.2134 3.91362
41.2304 31.1243 3.92318
39.3084 32.3309 3.93579
35.6906 11.7638 3.98425
37.3093 10.6188 2
37.457 8.52638 0.0127778
38.9753 10.1166 0.0132698
33.0962 11.2057 3.98449
34.7523 10.3683 2
35.8972 9.76363 0.013785
30.4805 10.0088 3.98579
32.3757 9.35979 2
34.1492 8.81399 0.0128581
50.0598 31.4008 0.0342181
49.3159 27.457 0.0270765
49.4211 24.3758 0.0183171
47.1906 21.9061 0.0200804
44.8019 18.4407 0.0167126
42.1005 14.2924 0.0166792
38.3006 12.7221 0.0155742
36.58 12.918 2
47.8431 29.5736 2
38.6795 14.7904 2
41.7498 17.8193 2
47.125 25.0919 2
44.2919 21.288 2
45.5996 27.7436 3.98102
43.8157 24.0175 3.98794
41.3425 20.6971 3.98071
35.7701 14.7433 3.98322
38.6805 17.5772 3.98121
41.0594 37.4839 3.96927
42.9652 37.4925 2
44.993 37.5096 0.0817887
45.4008 55.9443 0.0174004
45.5579 52.5634 0.0166704
46.1231 48.9323 0.0183425
42.8203 39.2686 0.0696138
43.728 43.8025 0.0900913
43.3764 46.1871 0.0350274
43.4855 48.4808 0.00838403
41.23 43.8769 0.0709491
40.9243 40.801 0.0355811
39.3189 42.6752 0.0638894
43.7404 54.4561 2
41.0106 39.17 2
39.2486 40.8834 2
43.7288 50.5425 2
41.9903 47.7285 2
41.9197 45.2059 2
37.4989 42.8118 2
39.4746 44.6228 2
41.8879 53.0293 3.99259
39.2406 39.1709 3.96059
37.4976 40.9275 3.96042
35.6814 42.6786 3.93628
40.9668 49.7691 4.00051
39.8093 46.0852 3.90239
37.5011 44.882 3.93615
42.1081 56.3537 0.015934
40.4205 54.9612 2
38.7297 53.8951 3.98673
35.6071 63.2208 0.0147303
38.2506 60.3497 0.0150254
38.9268 56.5244 0.0138064
35.3635 60.9336 2
36.935 57.6542 2
37.9995 55.2819 2
36.3192 55.4185 3.98776
34.4874 58.5464 3.98463
33.3461 61.5344 0.0149268
28.6811 62.2177 0.0145976
31.0663 61.2386 0.0152424
32.3557 59.767 2
29.4021 60.3082 2
30.2934 57.8398 3.98426
28.018 58.3935 2
26.9354 56.8435 3.98107
27.5663 59.6142 0.0170278
25.3751 58.614 2
23.8287 56.8261 3.97732
21.3247 57.4196 3.9799
21.9894 59.6403 3.98248
22.7502 58.2607 2
22.7343 62.0347 3.9845
23.3982 60.3684 2
23.788 59.1016 0.0168962
25.0331 60.8885 0.0162815
24.4311 62.7839 2
23.6804 64.719 3.98733
26.2286 63.4911 0.0139592
25.5468 65.501 2
24.8075 67.5969 3.99009
27.4626 66.1907 0.012136
26.8351 68.3361 2
26.1648 70.6058 3.99398
28.9055 68.9475 0.00977413
28.3693 71.2652 2
27.7943 73.7221 4
30.6144 71.7798 0.00599524
30.1841 74.2794 2
32.6054 74.6784 0
29.8091 7.98697 3.9877
31.2508 5.32892 3.99047
31.7865 7.4129 2
32.9799 2.70002 3.99435
33.3458 4.92117 2
33.7222 6.9739 0.0115313
35.0474 0.080333 4
35.2442 2.46159 2
35.4339 4.68257 0.00906979
37.5 0 2
37.5139 2.38575 0.00550132
39.9526 0.0806499 0
41.0186 35.8079 3.96994
42.831 35.7248 2
44.7162 35.5296 0.0831912
28.5413 10.6842 3.98561
39.2476 34.1221 3.97171
40.924 34.2047 2
42.4778 34.1207 0.0841713
48.4504 34.2736 0.00144889
45.1625 33.0231 0.0938236
42.7461 32.2969 0.072682
40.9438 32.662 0.0714358
46.4013 31.5386 2
43.725 31.207 2
41.2431 31.1195 2
39.3107 32.3311 2
44.4211 29.7195 3.97018
41.9009 29.8076 3.90509
39.4577 30.3789 3.93441
37.4848 32.1914 3.93568
34.0904 12.9217 3.98362
35.6905 11.7629 2
37.3093 10.6195 0.014221
31.1842 11.974 3.9847
33.0961 11.2048 2
34.7524 10.3691 0.0142852
30.4804 10.008 2
32.3758 9.3606 0.0135904
47.8446 29.5775 0.0274415
47.1231 25.092 0.0140402
36.5803 12.9187 0.0159974
44.2913 21.2894 0.0177789
41.7501 17.8201 0.0190388
38.68 14.7912 0.0170902
35.7696 14.7427 2
45.5985 27.7348 2
38.6801 17.5761 2
41.3424 20.6951 2
43.8175 24.02 2
33.6053 15.8601 3.98308
43.0855 26.5018 3.99461
40.9239 23.2708 3.98235
38.4218 20.3048 3.98315
35.8464 17.4906 3.98269
39.2482 37.4838 3.95082
41.0594 37.4837 2
42.9613 37.4917 0.0742458
43.7405 54.4556 0.0122
43.7299 50.5383 0.010126
41.0099 39.1713 0.0285661
41.902 45.1998 0.0957383
41.9878 47.72 0.00974827
39.4607 44.6277 0.0658548
39.2498 40.8832 0.0276013
37.4972 42.8112 0.065766
41.8871 53.0309 2
39.241 39.171 2
37.4972 40.9277 2
40.9656 49.7696 2
35.6788 42.6793 2
39.83 46.1016 2
37.4988 44.8788 2
39.8299 51.9538 3.9989
37.4958 39.1783 3.93124
35.7475 40.8913 3.97245
34.0459 42.3446 3.92825
35.526 44.6288 3.9319
38.7568 48.7634 4.01304
37.5047 46.4028 3.90169
40.4214 54.9612 0.0158431
38.7288 53.8934 2
36.7165 53.2542 3.99667
35.3637 60.9338 0.0149715
36.9356 57.6551 0.0154338
38.0004 55.2827 0.0140717
34.4872 58.5458 2
36.3187 55.4163 2
33.2217 55.5333 3.98599
32.3556 59.7672 0.0159749
29.402 60.3082 0.0158209
30.2936 57.8395 2
28.6743 55.333 3.98154
28.0177 58.3936 0.0166721
26.9357 56.8435 2
25.2936 55.1641 3.97814
21.7919 55.3676 3.97677
25.3749 58.6139 0.0181469
23.8289 56.8264 2
20.2079 57.0497 3.98194
20.639 58.7984 3.98168
21.3249 57.42 2
21.1637 61.1848 3.98402
21.9895 59.6407 2
22.75 58.2604 0.0199796
21.8936 63.8469 3.98661
22.7344 62.0352 2
23.3981 60.368 0.0173855
24.4309 62.7836 0.0145354
23.6806 64.7194 2
22.8358 66.7406 3.98998
25.5466 65.5006 0.0122702
24.8075 67.5972 2
24.0091 69.807 3.9939
26.8352 68.3357 0.00982842
26.1645 70.6059 2
25.446 73.0099 4
28.3695 71.265 0.00599648
27.7943 73.7222 2
30.1842 74.2788 0
27.8191 8.64667 3.98737
29.1528 5.87469 3.99008
29.809 7.98625 2
30.7252 3.09717 3.99415
31.2508 5.32827 2
31.7866 7.4137 0.0117875
32.6053 0.320823 4
32.9799 2.69969 2
33.3458 4.92175 0.00923225
35.0474 0.0802903 2
35.2442 2.4619 0.00554089
37.5 0 0
39.247 35.8094 3.96023
41.0189 35.809 2
42.8294 35.7231 0.0720831
28.5413 10.6835 2
26.6202 11.3795 3.9853
29.2231 12.6306 3.98472
37.4928 34.0757 3.95867
39.2463 34.1222 2
40.9252 34.2024 0.036155
46.3887 31.5415 0.0240142
43.7193 31.2134 0.0863769
41.2304 31.1243 0.0768231
39.3084 32.3309 0.0642094
44.4338 29.713 2
41.9188 29.7979 2
39.4696 30.3824 2
37.485 32.1892 2
42.3448 28.35 3.95479
39.8192 28.9201 3.90928
37.4884 30.1164 3.93672
35.6675 32.32 3.93605
31.9118 14.4667 3.98369
34.0902 12.9209 2
35.6906 11.7638 0.0157462
31.1841 11.9732 2
33.0962 11.2057 0.015513
30.4805 10.0088 0.0142147
45.5996 27.7436 0.0189846
43.8157 24.0175 0.0120567
35.7701 14.7433 0.0167761
41.3425 20.6971 0.0192871
38.6805 17.5772 0.0187897
33.605 15.8598 2
35.8459 17.4901 2
43.0856 26.5022 2
38.4214 20.304 2
40.9247 23.2666 2
33.5473 17.3678 3.98429
40.4629 25.6171 4.01138
38.0809 22.8314 3.99088
35.5822 20.057 3.98372
37.4973 37.4923 3.92262
39.2482 37.4841 2
41.0594 37.4839 0.0307316
41.8879 53.0293 0.00741233
40.9668 49.7691 -0.000510368
39.2406 39.1709 0.0394141
39.8093 46.0852 0.0976114
37.5011 44.882 0.0638473
37.4976 40.9275 0.0395849
35.6814 42.6786 0.0637173
39.8294 51.9535 2
37.496 39.1784 2
35.7475 40.8926 2
38.7519 48.7898 2
34.0422 42.3456 2
35.5175 44.6299 2
37.5007 46.422 2
37.6704 51.0558 4.00743
35.7557 39.1843 3.96078
34.0776 40.8081 3.96248
32.8987 42.0076 3.90319
33.7551 43.8726 3.9275
35.1844 46.0872 3.90796
36.8862 48.4118 3.99696
38.7297 53.8951 0.0132728
36.7161 53.2507 2
34.3509 52.5132 3.98971
34.4874 58.5464 0.0153669
36.3192 55.4185 0.0122404
33.2218 55.5319 2
30.5001 53.4353 3.98466
30.2934 57.8398 0.0157386
28.6746 55.3325 2
26.8582 53.4666 3.97764
26.9354 56.8435 0.0189276
25.2939 55.1641 2
23.548 53.5064 3.97491
20.4429 53.2487 3.97388
19.9174 55.8534 3.98097
21.792 55.368 2
23.8287 56.8261 0.0226798
19.4299 57.9104 3.98138
20.208 57.0501 2
19.7023 60.2188 3.983
20.6391 58.7989 2
21.3247 57.4196 0.020098
20.2056 62.8683 3.98575
21.1639 61.1852 2
21.9894 59.6403 0.0175166
20.9372 65.7698 3.98961
21.8938 63.8474 2
22.7343 62.0347 0.0154998
23.6804 64.719 0.0126693
22.8358 66.741 2
21.9116 68.8741 3.99381
24.8075 67.5969 0.00990825
24.0088 69.807 2
23.1494 72.1454 4
26.1648 70.6058 0.0060208
25.446 73.0099 2
27.7943 73.7221 0
25.8583 9.37472 3.98693
27.0676 6.53881 3.98969
27.819 8.646 2
28.4873 3.64307 3.99392
29.1527 5.8741 2
29.8091 7.98697 0.0123023
30.1841 0.720592 4
30.725 3.09684 2
31.2508 5.32892 0.00953358
32.6053 0.320817 2
32.9799 2.70002 0.00564808
35.0474 0.080333 0
37.4979 35.8121 3.92966
39.2469 35.8098 2
41.0186 35.8079 0.0300599
24.775 12.0624 3.98529
23.7489 14.3464 3.98429
28.5413 10.6842 0.014386
26.6203 11.379 2
29.2231 12.63 2
27.2892 13.3637 3.98459
29.7777 14.1892 3.98377
35.7433 34.1071 3.97178
37.492 34.0746 2
39.2476 34.1221 0.0282946
37.4848 32.1914 0.0643189
44.4211 29.7195 0.0298206
41.9009 29.8076 0.0949127
39.4577 30.3789 0.0655853
42.3556 28.3379 2
39.8372 28.9072 2
37.488 30.1219 2
35.6652 32.3196 2
40.0276 27.5237 3.97367
37.4954 28.5897 3.90479
35.5106 30.368 3.93318
34.0385 32.6464 3.92731
30.9229 16.8226 3.9834
31.9117 14.466 2
34.0904 12.9217 0.0163759
31.1842 11.974 0.0153015
43.0855 26.5018 0.00539195
40.9239 23.2708 0.0176483
33.6053 15.8601 0.0169194
35.8464 17.4906 0.0173062
38.4218 20.3048 0.0168459
33.5469 17.3679 2
35.5819 20.056 2
40.4614 25.6163 2
38.0807 22.8316 2
32.8601 19.7725 3.98441
37.7946 25.1289 4.02828
35.2028 22.6145 3.982
35.7493 37.496 3.95045
37.4974 37.4922 2
39.2482 37.4838 0.0491829
39.8299 51.9538 0.00109947
38.7568 48.7634 -0.013044
37.4958 39.1783 0.0687584
37.5047 46.4028 0.0983097
35.526 44.6288 0.0681031
35.7475 40.8913 0.0275521
34.0459 42.3446 0.0717487
37.6697 51.0619 2
35.7559 39.1851 2
34.0775 40.8051 2
36.8825 48.4225 2
32.8941 42.0071 2
33.7454 43.8791 2
35.1611 46.0983 2
35.4284 50.194 4.00767
33.9916 39.1846 3.96764
32.5146 40.8811 3.91597
32.2408 42.7048 3.92638
33.1086 45.1845 3.91273
34.2813 47.4745 3.97236
36.7165 53.2542 0.00333457
34.351 52.5115 2
31.9708 51.2415 3.98924
33.2217 55.5333 0.0140127
30.5006 53.4358 2
28.3959 51.6519 3.97993
28.6743 55.333 0.0184615
26.8588 53.4672 2
25.0448 51.7898 3.97306
25.2936 55.1641 0.0218559
23.5483 53.5067 2
21.9319 51.8331 3.97275
19.1723 51.6576 3.97324
18.902 54.3299 3.977
20.4431 53.2492 2
18.4356 56.7427 3.98212
19.9175 55.8538 2
21.7919 55.3676 0.0232278
18.363 59.1262 3.98157
19.43 57.9108 2
20.2079 57.0497 0.0180551
18.6159 61.7761 3.98469
19.7024 60.2193 2
20.639 58.7984 0.0183162
19.126 64.6806 3.98889
20.2058 62.8688 2
21.1637 61.1848 0.015979
19.8856 67.8108 3.99358
20.9372 65.7701 2
21.8936 63.8469 0.0133908
22.8358 66.7406 0.0100156
21.9113 68.8742 2
20.9142 71.1327 4
24.0091 69.807 0.00609791
23.1494 72.1455 2
25.446 73.0099 0
23.0943 12.7771 3.98493
23.9709 10.1612 3.9867
25.0214 7.30886 3.98948
25.8583 9.37411 2
26.2791 4.32728 3.99366
27.0674 6.53824 2
27.8191 8.64667 0.0126322
27.7943 1.27781 4
28.4871 3.64281 2
29.1528 5.87469 0.00992237
30.1841 0.720551 2
30.7252 3.09717 0.00584764
32.6053 0.320823 0
35.7516 35.8096 3.96015
37.4978 35.8118 2
39.247 35.8094 0.0397655
24.7751 12.062 2
23.7491 14.3463 2
22.4772 15.0227 3.98384
25.3552 13.8957 3.98419
24.0216 15.608 3.98352
26.6202 11.3795 0.0147026
29.2231 12.6306 0.0152817
27.2893 13.3634 2
29.7777 14.1885 2
28.3534 15.9631 3.98403
34.0802 34.191 3.96337
35.7437 34.1076 2
37.4928 34.0757 0.0413276
35.6675 32.32 0.0639474
37.4884 30.1164 0.0632758
42.3448 28.35 0.0452053
39.8192 28.9201 0.0907163
40.0331 27.5137 2
37.4953 28.5737 2
35.4989 30.3707 2
34.0388 32.6428 2
37.6207 27.2089 3.97728
35.1501 28.9039 3.90822
33.7366 31.1163 3.92589
32.8965 32.9848 3.90359
30.2037 19.3252 3.98472
30.9228 16.8221 2
31.9118 14.4667 0.0163066
40.4629 25.6171 -0.011375
38.0809 22.8314 0.00911528
33.5473 17.3678 0.0157075
35.5822 20.057 0.0162817
32.8593 19.7729 2
35.2023 22.6119 2
37.7955 25.1322 2
32.3058 22.3849 3.98382
34.9509 25.1426 4.00414
33.9437 37.4969 3.96746
35.7496 37.4968 2
37.4973 37.4923 0.0773838
37.6704 51.0558 -0.00743293
36.8862 48.4118 0.00303884
35.7557 39.1843 0.0392202
35.1844 46.0872 0.0920437
33.7551 43.8726 0.0725007
34.0776 40.8081 0.0375248
32.8987 42.0076 0.0968124
35.4275 50.1966 2
33.9919 39.1827 2
32.5123 40.8791 2
34.2751 47.503 2
32.2269 42.7066 2
33.091 45.2008 2
33.1918 49.1826 4.00697
32.1691 39.2732 3.9295
31.0479 41.1848 3.92454
31.2709 43.7868 3.91056
32.2331 46.4007 3.9692
34.3509 52.5132 0.0102886
31.9712 51.2427 2
29.8051 49.7585 3.98279
30.5001 53.4353 0.0153387
28.3966 51.6494 2
26.4589 50.0308 3.97329
26.8582 53.4666 0.0223551
25.0454 51.7895 2
23.2981 50.2267 3.9723
23.548 53.5064 0.0250904
21.9322 51.8334 2
20.4299 50.3391 3.97298
17.9603 50.3485 3.97512
17.8109 52.8117 3.97531
19.1728 51.6578 2
17.4219 55.3587 3.97945
18.902 54.3304 2
20.4429 53.2487 0.0261174
17.1269 57.8887 3.98251
18.4357 56.7432 2
19.9174 55.8534 0.0190339
17.1326 60.5597 3.98335
18.3631 59.1267 2
19.4299 57.9104 0.0186229
17.4061 63.4735 3.98775
18.6161 61.7767 2
19.7023 60.2188 0.0170025
17.9417 66.6193 3.99324
19.126 64.6811 2
20.2056 62.8683 0.0142522
18.75 69.9759 4
19.8854 67.8108 2
20.9372 65.7698 0.0103925
21.9116 68.8741 0.00618669
20.9142 71.1327 2
23.1494 72.1454 0
21.5849 13.597 3.98458
22.189 11.0204 3.9862
23.0945 12.777 2
23.0395 8.1742 3.98932
23.971 10.1608 2
24.1167 5.14194 3.99349
25.0213 7.30839 2
25.8583 9.37472 0.0130727
25.446 1.99014 4
26.2788 4.32707 2
27.0676 6.53881 0.0103089
27.7943 1.27778 2
28.4873 3.64307 0.00608387
30.1841 0.720592 0
33.9846 35.8106 3.9687
35.7514 35.8104 2
37.4979 35.8121 0.0703437
21.302 15.8184 3.9832
24.775 12.0624 0.0147118
23.7489 14.3464 0.0157069
25.3554 13.8954 2
22.4775 15.0227 2
24.0219 15.6079 2
23.2604 16.2394 3.98322
25.3768 16.0757 3.9841
27.2892 13.3637 0.0154134
29.7777 14.1892 0.0162339
28.3536 15.9628 2
27.4352 18.7842 3.9845
32.5269 34.1112 3.91726
34.0816 34.191 2
35.7433 34.1071 0.0282197
34.0385 32.6464 0.0726924
35.5106 30.368 0.0668185
37.4954 28.5897 0.0952085
40.0276 27.5237 0.0263349
37.6163 27.1768 2
32.8965 32.9855 2
35.1294 28.8889 2
33.7228 31.1048 2
35.0612 27.3275 3.98006
33.0734 29.8025 3.90979
32.2267 32.2761 3.92398
29.5667 21.9195 3.99087
30.2034 19.3252 2
30.9229 16.8226 0.0165977
37.7946 25.1289 -0.0282788
35.2028 22.6145 0.0180027
32.8601 19.7725 0.0155924
32.3052 22.3858 2
34.9542 25.1475 2
31.6511 25.6007 3.99334
32.0371 37.4975 3.92704
33.9447 37.496 2
35.7493 37.496 0.049548
35.4284 50.194 -0.00767244
34.2813 47.4745 0.0276356
33.9916 39.1846 0.0323564
33.1086 45.1845 0.0872709
32.2408 42.7048 0.0736206
32.5146 40.8811 0.0840326
33.192 49.1661 2
32.167 39.2708 2
31.0322 41.1903 2
32.217 46.4168 2
31.2618 43.7942 2
31.0768 47.9982 4.00152
30.2763 39.4613 3.91715
29.8277 41.9774 3.90832
30.365 44.9823 3.96926
31.9708 51.2415 0.0107594
29.8058 49.7535 2
27.8039 48.2285 3.97819
28.3959 51.6519 0.0200702
26.4596 50.0291 2
24.5932 48.5039 3.97437
25.0448 51.7898 0.0269379
23.2988 50.2268 2
21.6066 48.8161 3.97474
21.9319 51.8331 0.0272492
20.4307 50.339 2
18.9997 49.1115 3.97665
16.869 49.3458 3.97789
16.7512 51.4236 3.97576
17.9609 50.3487 2
16.3722 53.887 3.97762
17.8111 52.812 2
19.1723 51.6576 0.0267592
15.9663 56.4902 3.98132
17.4219 55.3592 2
18.902 54.3299 0.0229957
15.7449 59.2207 3.98322
17.127 57.8892 2
18.4356 56.7427 0.0178831
15.7862 62.1441 3.98626
17.1328 60.5603 2
18.363 59.1262 0.0184258
16.0882 65.3019 3.99287
17.4061 63.474 2
18.6159 61.7761 0.0153094
16.6661 68.6801 4
17.9415 66.6193 2
19.126 64.6806 0.0111101
18.75 69.9759 2
19.8856 67.8108 0.00641583
20.9142 71.1327 0
20.2166 14.5857 3.98391
21.5851 13.597 2
20.5281 11.9899 3.9857
21.1426 9.1438 3.98917
22.1892 11.0201 2
23.0943 12.7771 0.0150655
22.0158 6.08091 3.99334
23.0394 8.17384 2
23.9709 10.1612 0.013298
23.1494 2.85457 4
24.1164 5.14182 2
25.0214 7.30886 0.0105154
25.446 1.99012 2
26.2791 4.32728 0.00634364
27.7943 1.27781 0
32.1729 35.719 3.92941
33.9854 35.8106 2
35.7516 35.8096 0.039848
21.3022 15.818 2
20.2987 16.9522 3.98357
22.0934 16.6237 3.98241
25.3552 13.8957 0.0158086
22.4772 15.0227 0.0161606
24.0216 15.608 0.0164842
25.3772 16.0755 2
23.2608 16.2394 2
24.1994 18.4378 3.982
27.0034 21.4422 3.98416
28.3534 15.9631 0.0159682
27.4352 18.7842 2
31.0531 33.8004 3.92143
32.5253 34.1141 2
34.0802 34.191 0.0366342
32.8965 32.9848 0.0964079
33.7366 31.1163 0.0741137
35.1501 28.9039 0.0917847
37.6207 27.2089 0.0227223
35.0512 27.311 2
32.2233 32.281 2
33.0576 29.7871 2
32.4885 28.0518 3.98781
31.2418 31.2019 3.91114
28.7664 24.3846 3.98687
29.5659 21.9204 2
30.2037 19.3252 0.0152836
34.9509 25.1426 -0.00414289
32.3058 22.3849 0.0161833
31.6527 25.589 2
29.5854 27.2897 3.97771
29.9947 37.4861 3.91763
32.0358 37.4971 2
33.9437 37.4969 0.0325368
33.1918 49.1826 -0.00697123
32.2331 46.4007 0.0307994
32.1691 39.2732 0.0704984
31.2709 43.7868 0.0894381
31.0479 41.1848 0.075456
31.0787 47.9972 2
30.264 39.4686 2
29.8177 41.9847 2
30.3513 44.9936 2
29.0963 46.5452 3.99146
28.8884 39.8695 3.90932
28.5685 43.1946 3.9675
29.8051 49.7585 0.0172106
27.8048 48.2244 2
25.8696 46.6935 3.98118
26.4589 50.0308 0.0267086
24.5942 48.5038 2
22.7462 47.1111 3.97915
23.2981 50.2267 0.0277006
21.6077 48.8158 2
19.9462 47.6392 3.97886
20.4299 50.3391 0.0270214
19.0005 49.1117 2
17.6442 48.1931 3.97945
16.1214 48.6952 3.97985
16.8696 49.3462 2
15.8299 50.183 3.97714
15.3613 52.4291 3.97701
16.7516 51.4239 2
17.9603 50.3485 0.0248773
14.8566 54.9901 3.97949
16.3722 53.8874 2
17.8109 52.8117 0.0246866
14.4528 57.7496 3.98274
15.9663 56.4907 2
17.4219 55.3587 0.0205476
14.2638 60.6985 3.98529
15.7451 59.2213 2
17.1269 57.8887 0.0174878
14.3324 63.8611 3.9922
15.7862 62.1446 2
17.1326 60.5597 0.0166517
14.6715 67.2507 4
16.088 65.3018 2
17.4061 63.4735 0.0122546
16.6661 68.6801 2
17.9417 66.6193 0.00676441
18.75 69.9759 0
18.93 15.7726 3.98334
20.2168 14.5854 2
18.9776 13.1007 3.98499
21.5849 13.597 0.0154151
20.5284 11.9898 2
19.3419 10.2313 3.98886
19.9903 7.14553 3.99328
21.1426 9.14348 2
22.189 11.0204 0.013795
20.9142 3.86727 4
22.0154 6.0809 2
23.0395 8.1742 0.0106802
23.1494 2.85451 2
24.1167 5.14194 0.00650661
25.446 1.99014 0
30.2836 35.5292 3.92032
32.1706 35.7204 2
33.9846 35.8106 0.0312997
21.302 15.8184 0.0167954
22.0937 16.6233 2
20.2987 16.9515 2
19.2368 18.3986 3.98284
21.7772 17.8394 3.98268
25.3768 16.0757 0.0159012
23.2604 16.2394 0.0167843
24.1995 18.4378 2
22.2695 19.88 3.98116
24.5798 21.308 3.98284
26.3906 23.7075 3.98079
27.0036 21.4428 2
27.4352 18.7842 0.0155045
29.8244 33.0029 3.90887
31.0388 33.7855 2
32.5269 34.1112 0.0827361
32.2267 32.2761 0.0760195
33.0734 29.8025 0.0902086
35.0612 27.3275 0.0199389
32.475 28.0464 2
31.2462 31.2017 2
30.0371 29.5054 3.97899
27.8269 26.5269 3.97248
28.7669 24.3894 2
29.5667 21.9195 0.00913357
31.6511 25.6007 0.00666466
29.5777 27.2535 2
28.5447 37.4906 3.91628
29.9836 37.4888 2
32.0371 37.4975 0.0729582
31.0768 47.9982 -0.00151503
30.365 44.9823 0.0307433
30.2763 39.4613 0.0828465
29.8277 41.9774 0.0916816
29.0998 46.5653 2
28.8776 39.8732 2
28.5555 43.205 2
27.1759 44.8377 3.97859
26.6682 40.6299 3.99727
27.8039 48.2285 0.0218128
25.8707 46.6918 2
23.9119 45.2413 3.97272
24.5932 48.5039 0.0256276
22.7475 47.1105 2
20.8799 45.9207 3.97825
21.6066 48.8161 0.0252609
19.9472 47.6396 2
18.2912 46.7532 3.97888
18.9997 49.1115 0.0233458
17.6449 48.1937 2
16.3123 47.7248 3.97949
16.122 48.6957 2
15.1776 49.0256 3.97833
16.869 49.3458 0.0221073
15.8304 50.1834 2
14.4759 50.9949 3.97719
13.8182 53.4442 3.97844
15.3615 52.4295 2
16.7512 51.4236 0.0242364
13.2469 56.1765 3.9815
14.8565 54.9906 2
16.3722 53.887 0.022377
12.8455 59.1321 3.98517
14.4529 57.7501 2
15.9663 56.4902 0.0186814
12.6777 62.3037 3.99121
14.2638 60.6988 2
15.7449 59.2207 0.016782
12.7746 65.6939 4
14.3322 63.861 2
15.7862 62.1441 0.0137415
14.6714 67.2507 2
16.0882 65.3019 0.00712728
16.6661 68.6801 0
17.6635 17.148 3.98279
18.93 15.7722 2
17.5089 14.3651 3.98423
20.2166 14.5857 0.0160934
18.9779 13.1003 2
17.6375 11.4502 3.98805
20.5281 11.9899 0.0142999
19.3421 10.2311 2
18.0505 8.33834 3.99319
18.75 5.0241 4
19.99 7.14559 2
21.1426 9.1438 0.0108304
20.9142 3.86727 2
22.0158 6.08091 0.0066596
23.1494 2.85457 0
28.8868 35.1024 3.91015
30.2704 35.5258 2
32.1729 35.719 0.0705935
22.0934 16.6237 0.0175893
20.2987 16.9522 0.0164331
21.7772 17.8388 2
19.2368 18.3979 2
17.9711 19.9304 3.98194
20.8685 19.3668 3.98269
24.1994 18.4378 0.0180014
22.2698 19.8792 2
24.5802 21.3085 2
22.3437 21.7044 3.98256
24.6731 23.1529 3.98084
25.4144 25.9354 3.97234
26.3916 23.707 2
27.0034 21.4422 0.0158388
28.2089 32.2766 3.95973
29.8165 33.002 2
31.0531 33.8004 0.0785707
31.2418 31.2019 0.0888557
32.4885 28.0518 0.0121852
30.0125 29.4953 2
26.9387 29.1185 3.98356
27.8226 26.5241 2
28.7664 24.3846 0.0131255
29.5854 27.2897 0.0222866
26.7716 37.3502 3.97214
28.5355 37.489 2
29.9947 37.4861 0.0823692
29.0963 46.5452 0.00853941
28.5685 43.1946 0.0324978
28.8884 39.8695 0.090684
27.1801 44.8396 2
26.6632 40.6357 2
25.1532 43.1927 3.96793
23.9096 39.4264 3.96746
25.8696 46.6935 0.0188197
23.9118 45.2421 2
21.8499 43.9702 3.97594
22.7462 47.1111 0.0208536
20.8813 45.9214 2
18.9514 44.9847 3.9742
19.9462 47.6392 0.0211356
18.2919 46.7541 2
16.6041 46.2236 3.97652
17.6442 48.1931 0.0205465
16.3129 47.7255 2
14.9085 47.6786 3.9776
16.1214 48.6952 0.02015
15.1781 49.0261 2
13.7749 49.5536 3.97746
15.8299 50.183 0.022862
14.4763 50.9953 2
12.8856 51.8809 3.97792
12.1341 54.5334 3.98041
13.8183 53.4447 2
15.3613 52.4291 0.022993
11.5295 57.4635 3.98446
13.2468 56.1771 2
14.8566 54.9901 0.0205115
11.1321 60.6298 3.99029
12.8455 59.1323 2
14.4528 57.7496 0.0172625
10.9835 64.0165 4
12.6775 62.3035 2
14.2638 60.6985 0.0147134
12.7745 65.694 2
14.3324 63.8611 0.00779726
14.6715 67.2507 0
16.3948 18.6416 3.98256
17.6634 17.1474 2
16.0995 15.7739 3.98398
18.93 15.7726 0.0166609
17.509 14.3644 2
16.0191 12.8037 3.98659
18.9776 13.1007 0.0150086
17.6378 11.4497 2
16.2016 9.66145 3.9929
19.3419 10.2313 0.0111378
18.0502 8.33845 2
16.6661 6.31991 4
18.75 5.02404 2
19.9903 7.14553 0.00672244
20.9142 3.86727 0
27.2816 34.7365 3.95957
28.8748 35.0994 2
30.2836 35.5292 0.0796803
16.6698 21.366 3.97936
21.7772 17.8394 0.0173238
19.2368 18.3986 0.0171568
20.8686 19.366 2
17.9712 19.9297 2
19.7112 21.5592 3.98448
22.2695 19.88 0.0188418
24.5798 21.308 0.0171585
22.3441 21.7031 2
24.6731 23.1528 2
22.8174 24.5874 3.97636
24.4828 28.5118 3.96888
25.4118 25.9333 2
26.3906 23.7075 0.0192103
26.0509 31.6896 3.98964
28.1994 32.2687 2
29.8244 33.0029 0.0911265
30.0371 29.5054 0.0210143
26.9435 29.1187 2
27.8269 26.5269 0.027524
24.588 36.8503 3.98106
26.7682 37.3551 2
28.5447 37.4906 0.0837164
27.1759 44.8377 0.0214113
26.6682 40.6299 0.00273394
25.1514 43.1951 2
23.9076 39.4284 2
22.8957 41.8093 3.97823
21.6516 38.4961 3.97312
23.9119 45.2413 0.0272819
21.8505 43.9722 2
19.6966 42.8961 3.97308
20.8799 45.9207 0.0217507
18.9516 44.9857 2
16.9314 44.3886 3.97215
18.2912 46.7532 0.0211225
16.6045 46.2244 2
14.8306 46.0974 3.97469
16.3123 47.7248 0.0205125
14.909 47.6792 2
13.2833 48.0142 3.97648
15.1776 49.0256 0.0216658
13.7754 49.5541 2
12.1056 50.2573 3.97756
14.4759 50.9949 0.0228079
12.8859 51.8815 2
11.1301 52.8404 3.97952
10.3198 55.7142 3.98341
12.1341 54.534 2
13.8182 53.4442 0.021556
9.69857 58.8519 3.98917
11.5294 57.4641 2
13.2469 56.1765 0.0184969
9.30605 62.2254 4
11.1319 60.6297 2
12.8455 59.1321 0.0148323
10.9835 64.0165 2
12.6777 62.3037 0.00879273
12.7746 65.6939 0
15.1387 20.1759 3.98072
16.3949 18.641 2
14.7445 17.2965 3.98313
17.6635 17.148 0.0172132
16.0996 15.7731 2
14.4814 14.2856 3.98564
17.5089 14.3651 0.0157687
16.0193 12.803 2
14.4443 11.1126 3.9924
17.6375 11.4502 0.0119511
16.2014 9.6615 2
14.6715 7.74927 4
18.0505 8.33834 0.0068081
16.6661 6.31988 2
18.75 5.0241 0
25.2314 34.2524 3.98748
27.2754 34.7361 2
28.8868 35.1024 0.0898482
17.8413 22.3104 3.98526
15.5141 22.9099 3.97709
16.6698 21.3652 2
20.8685 19.3668 0.0173119
17.9711 19.9304 0.018058
19.7114 21.5583 2
19.641 24.3643 3.97877
22.3437 21.7044 0.0174397
24.6731 23.1529 0.0191586
22.8155 24.5854 2
21.8637 27.8057 3.97019
23.646 31.1705 3.97141
24.485 28.5113 2
25.4144 25.9354 0.0276607
26.055 31.6854 2
28.2089 32.2766 0.0402698
26.9387 29.1185 0.016439
22.3654 36.2654 3.97799
24.5863 36.8505 2
26.7716 37.3502 0.0278622
25.1532 43.1927 0.0320681
23.9096 39.4264 0.0325372
22.8944 41.8107 2
21.6513 38.4968 2
20.6216 40.6311 3.97469
20.0097 37.7768 3.97502
21.8499 43.9702 0.0240621
19.6966 42.8972 2
17.3237 42.1045 3.97413
18.9514 44.9847 0.0257957
16.9315 44.3894 2
14.8304 44.2056 3.97298
16.6041 46.2236 0.0234843
14.8309 46.0981 2
12.9569 46.2996 3.97429
14.9085 47.6786 0.0223951
13.2837 48.0148 2
11.4784 48.5526 3.97641
13.7749 49.5536 0.0225369
12.106 50.2579 2
10.2565 51.0823 3.97873
12.8856 51.8809 0.0220815
11.1302 52.8411 2
9.22881 53.8909 3.98255
8.38206 56.9839 3.98815
10.3197 55.7149 2
12.1341 54.5334 0.0195941
7.74927 60.3285 4
9.69825 58.8518 2
11.5295 57.4635 0.015545
9.306 62.2255 2
11.1321 60.6298 0.00970743
10.9835 64.0165 0
13.9503 21.7428 3.97901
15.1386 20.1751 2
13.4445 18.8935 3.98199
16.3948 18.6416 0.0174399
14.7446 17.2958 2
13.0265 15.8782 3.98503
16.0995 15.7739 0.016015
14.4815 14.2848 2
12.7816 12.6858 3.99159
16.0191 12.8037 0.0134102
14.4441 11.1126 2
12.7746 9.30605 4
16.2016 9.66145 0.00710031
14.6715 7.74924 2
16.6661 6.31991 0
22.9578 33.7871 3.97427
25.2263 34.2514 2
27.2816 34.7365 0.040434
17.6087 24.0291 3.97897
17.8411 22.3094 2
14.2969 24.4427 3.97544
15.5135 22.9087 2
16.6698 21.366 0.0206373
18.999 27.1858 3.96881
19.7112 21.5592 0.0155228
19.6396 24.3637 2
21.0945 30.6458 3.97186
22.8174 24.5874 0.023643
21.8646 27.8052 2
23.6424 31.1704 2
24.4828 28.5118 0.0311222
26.0509 31.6896 0.0103599
20.1308 35.913 3.97628
22.3634 36.2664 2
24.588 36.8503 0.018937
22.8957 41.8093 0.0217651
21.6516 38.4961 0.0268832
20.6206 40.6315 2
20.0083 37.7771 2
18.0012 38.9999 3.97418
19.6966 42.8961 0.0269204
17.3235 42.1052 2
14.7765 41.9208 3.97352
16.9314 44.3886 0.027851
14.8304 44.2064 2
12.696 44.3951 3.97369
14.8306 46.0974 0.0253136
12.9572 46.3003 2
10.9815 46.7351 3.97461
13.2833 48.0142 0.0235179
11.4787 48.5532 2
9.5209 49.2407 3.9775
12.1056 50.2573 0.0224385
10.2569 51.0829 2
8.26215 52.0025 3.98168
11.1301 52.8404 0.0204763
9.22883 53.8914 2
7.19105 55.0331 3.98759
6.31991 58.3339 4
8.38163 56.9833 2
10.3198 55.7142 0.0165918
7.74924 60.3285 2
9.69857 58.8519 0.0108349
9.30605 62.2254 0
13.2184 25.3562 3.98073
12.8177 23.2729 3.97755
13.9499 21.7416 2
12.2294 20.5429 3.98104
15.1387 20.1759 0.019285
13.4445 18.8926 2
11.6558 17.5592 3.98475
14.7445 17.2965 0.0168691
13.0266 15.8776 2
11.219 14.3705 3.99049
14.4814 14.2856 0.0143593
12.7815 12.6858 2
10.9835 10.9835 4
14.4443 11.1126 0.00760488
12.7745 9.306 2
14.6715 7.74927 0
20.516 33.3805 3.97342
22.9558 33.788 2
25.2314 34.2524 0.0125173
15.8825 26.3914 3.97261
17.6076 24.0281 2
17.8413 22.3104 0.0147427
14.2965 24.4422 2
15.5141 22.9099 0.0229066
18.3352 30.158 3.97089
18.9994 27.1854 2
19.641 24.3643 0.021232
21.0918 30.6451 2
21.8637 27.8057 0.029813
23.646 31.1705 0.0285859
17.6325 35.9576 3.97344
20.129 35.9132 2
22.3654 36.2654 0.0220096
20.6216 40.6311 0.0253075
20.0097 37.7768 0.0249808
18.0002 39.0001 2
14.2857 39.1751 3.97283
17.3237 42.1045 0.0258697
14.7764 41.9214 2
12.3825 42.2788 3.97335
14.8304 44.2056 0.0270243
12.696 44.3958 2
10.5582 44.8036 3.9744
12.9569 46.2996 0.0257133
10.9817 46.7358 2
8.90455 47.3188 3.97593
11.4784 48.5526 0.023594
9.52124 49.2412 2
7.42978 50.0347 3.98042
10.2565 51.0823 0.0212696
8.26237 52.0029 2
6.13171 53.0067 3.98735
9.22881 53.8909 0.0174546
7.19064 55.032 2
5.0241 56.25 4
6.31988 58.3339 2
8.38206 56.9839 0.0118471
7.74927 60.3285 0
13.4557 26.8072 3.97404
11.9323 24.7831 3.97666
13.2182 25.3557 2
11.1327 22.2289 3.97956
12.8174 23.2721 2
13.9503 21.7428 0.0209862
12.2292 20.5418 2
10.3857 19.3145 3.98414
13.4445 18.8935 0.0180137
11.6558 17.5584 2
9.7597 16.154 3.98938
13.0265 15.8782 0.014973
11.2188 14.3706 2
9.30607 12.7746 4
12.7816 12.6858 0.00841289
10.9835 10.9835 2
12.7746 9.30605 0
17.8069 33.1004 3.97236
20.5142 33.3807 2
22.9578 33.7871 0.0257338
15.4699 29.6275 3.97249
15.8823 26.3911 2
17.6087 24.0291 0.0210334
14.2969 24.4427 0.0245634
18.3343 30.1578 2
18.999 27.1858 0.0311926
21.0945 30.6458 0.028142
14.8855 36.0138 3.97204
17.6309 35.9574 2
20.1308 35.913 0.0237174
12.5848 37.8271 3.97317
18.0012 38.9999 0.025819
14.285 39.1755 2
11.8978 40.1411 3.97261
14.7765 41.9208 0.0264752
12.3824 42.2794 2
10.1571 42.7788 3.97395
12.696 44.3951 0.0263083
10.5582 44.8042 2
8.38256 45.3206 3.97567
10.9815 46.7351 0.0253886
8.90481 47.3193 2
6.72192 47.9992 3.97901
9.5209 49.2407 0.0225042
7.43008 50.035 2
5.20869 50.909 3.98708
8.26215 52.0025 0.0183247
6.13149 53.0054 2
3.86727 54.0858 4
7.19105 55.0331 0.0124056
5.02404 56.25 2
6.31991 58.3339 0
12.9113 29.0272 3.97099
11.363 26.4839 3.97537
13.4556 26.8067 2
10.1929 23.9645 3.97773
11.9321 24.7826 2
13.2184 25.3562 0.0192723
9.23804 21.1346 3.98276
11.1325 22.2279 2
12.8177 23.2729 0.0224512
12.2294 20.5429 0.0189636
10.3855 19.3134 2
8.41544 18.0255 3.98854
11.6558 17.5592 0.0152533
9.75943 16.154 2
7.74928 14.6715 4
11.219 14.3705 0.00951264
9.30602 12.7745 2
10.9835 10.9835 0
14.4628 32.8556 3.97236
17.8077 33.1002 2
20.516 33.3805 0.0265771
15.4694 29.6273 2
15.8825 26.3914 0.0273891
18.3352 30.158 0.0291132
12.8758 36.2064 3.97185
14.8846 36.0137 2
17.6325 35.9576 0.0265633
12.5842 37.8272 2
11.2585 38.3085 3.97207
14.2857 39.1751 0.0271719
11.8974 40.1415 2
9.74411 40.7546 3.97319
12.3825 42.2788 0.0266519
10.157 42.7794 2
7.93168 43.2696 3.97529
10.5582 44.8036 0.0255981
8.38266 45.3211 2
6.1284 45.9042 3.9786
8.90455 47.3188 0.0240654
6.72216 47.9994 2
4.42062 48.7494 3.98665
7.42978 50.0347 0.0195807
5.20863 50.908 2
2.85457 51.8506 4
6.13171 53.0067 0.012652
3.86727 54.0858 2
5.0241 56.25 0
12.0527 31.2518 3.97264
10.7762 28.412 3.97346
12.911 29.027 2
9.40864 25.7962 3.97658
11.3629 26.4835 2
13.4557 26.8072 0.0259602
8.22585 23.0214 3.98082
10.1929 23.9638 2
11.9323 24.7831 0.0233399
7.19754 19.9765 3.98777
9.23795 21.1338 2
11.1327 22.2289 0.0204397
10.3857 19.3145 0.0158626
8.415 18.0259 2
6.31992 16.6661 4
9.7597 16.154 0.0106185
7.74926 14.6714 2
9.30607 12.7746 0
12.0741 34.292 3.97187
14.463 32.8555 2
17.8069 33.1004 0.0276442
15.4699 29.6275 0.0275112
10.8232 36.6096 3.97129
12.8753 36.2063 2
14.8855 36.0138 0.0279601
12.5848 37.8271 0.026827
11.258 38.3086 2
9.34199 38.8227 3.9719
11.8978 40.1411 0.0273949
9.74388 40.755 2
7.54423 41.2107 3.97442
10.1571 42.7788 0.0260507
7.93168 43.27 2
5.64045 43.7673 3.97865
8.38256 45.3206 0.0243286
6.12853 45.9043 2
3.76653 46.5356 3.98646
6.72192 47.9992 0.0209883
4.42064 48.7489 2
1.99014 49.554 4
5.20869 50.909 0.0129155
2.85451 51.8506 2
3.86727 54.0858 0
10.9168 32.9164 3.9726
10.0898 30.3795 3.97353
12.0526 31.2518 2
8.7174 27.7307 3.97544
10.7759 28.4117 2
12.9113 29.0272 0.0290094
7.35192 24.9817 3.97965
9.40865 25.7957 2
11.363 26.4839 0.0246276
6.11464 22.0015 3.9869
8.22593 23.0209 2
10.1929 23.9645 0.0222707
5.02411 18.75 4
7.1971 19.9774 2
9.23804 21.1346 0.017237
8.41544 18.0255 0.0114648
6.3199 16.6661 2
7.74928 14.6715 0
10.433 34.9982 3.97165
12.074 34.2917 2
14.4628 32.8556 0.0276355
9.0159 36.9839 3.97077
10.8234 36.6095 2
12.8758 36.2064 0.0281547
11.2585 38.3085 0.0279311
9.34162 38.8229 2
7.2272 39.181 3.97302
9.74411 40.7546 0.0268094
7.54412 41.211 2
5.25661 41.6131 3.97768
7.93168 43.2696 0.0247086
5.64048 43.7675 2
3.24441 44.2812 3.98626
6.1284 45.9042 0.0213973
3.76659 46.5355 2
1.27781 47.2057 4
4.42062 48.7494 0.0133548
1.99012 49.554 2
2.85457 51.8506 0
10.0846 33.8795 3.97319
9.38433 32.1524 3.97349
10.9167 32.9163 2
8.06732 29.6945 3.97494
10.0897 30.3793 2
12.0527 31.2518 0.0273643
6.5961 27.0084 3.97873
8.71727 27.7304 2
10.7762 28.412 0.0265391
5.17006 24.0955 3.98659
7.35203 24.9815 2
9.40864 25.7962 0.0234176
3.86728 20.9142 4
6.11439 22.0027 2
8.22585 23.0214 0.0191841
5.02406 18.75 2
7.19754 19.9765 0.0122295
6.31992 16.6661 0
8.84169 35.2781 3.9719
10.4331 34.9981 2
12.0741 34.292 0.0281307
7.01266 37.2049 3.97193
9.01597 36.9838 2
10.8232 36.6096 0.0287142
9.34199 38.8227 0.0280995
7.22696 39.1812 2
4.98594 39.4665 3.97606
7.54423 41.2107 0.0255817
5.25658 41.6132 2
2.85524 42.002 3.98538
5.64045 43.7673 0.0213549
3.24444 44.2815 2
0.720592 44.8159 4
3.76653 46.5356 0.0135413
1.27778 47.2057 2
1.99014 49.554 0
8.88211 33.6961 3.97309
10.0845 33.8794 2
7.50598 31.6085 3.97457
9.38422 32.1522 2
10.9168 32.9164 0.0274032
5.94178 29.0697 3.97813
8.06725 29.6944 2
10.0898 30.3795 0.0264705
4.35791 26.2485 3.98641
6.59608 27.0083 2
8.7174 27.7307 0.0245626
2.85458 23.1494 4
5.16994 24.0965 2
7.35192 24.9817 0.0203548
3.86728 20.9142 2
6.11464 22.0015 0.0131009
5.02411 18.75 0
6.96279 35.3053 3.97261
8.84171 35.278 2
10.433 34.9982 0.0283503
4.83709 37.3393 3.97524
7.01272 37.2049 2
9.0159 36.9839 0.0292318
7.2272 39.181 0.0269849
4.98581 39.4666 2
2.60389 39.7138 3.98382
5.25661 41.6131 0.0223188
2.8553 42.0025 2
0.320823 42.3947 4
3.24441 44.2812 0.0137432
0.720551 44.8159 2
1.27781 47.2057 0
7.12135 33.4603 3.97383
8.88204 33.696 2
10.0846 33.8795 0.026814
5.41344 31.1338 3.97758
7.50585 31.6084 2
9.38433 32.1524 0.0265087
3.67993 28.4442 3.98605
5.94175 29.0698 2
8.06732 29.6945 0.0250568
1.99015 25.446 4
4.35782 26.2491 2
6.5961 27.0084 0.0212675
2.85453 23.1494 2
5.17006 24.0955 0.0134061
3.86728 20.9142 0
4.85143 35.2514 3.97551
6.9628 35.3053 2
8.84169 35.2781 0.028101
2.4956 37.4284 3.98319
4.83714 37.3393 2
7.01266 37.2049 0.0280742
4.98594 39.4665 0.0239365
2.60388 39.7144 2
0.080333 39.9526 4
2.85524 42.002 0.0146203
0.320817 42.3947 2
0.720592 44.8159 0
5.04393 33.1904 3.97667
7.12127 33.4603 2
8.88211 33.6961 0.0269126
3.14462 30.6665 3.98521
5.41333 31.1339 2
7.50598 31.6085 0.0254334
1.27793 27.7943 4
3.6799 28.4445 2
5.94178 29.0697 0.0218701
1.99013 25.446 2
4.35791 26.2485 0.013592
2.85458 23.1494 0
2.54778 35.159 3.98324
4.85143 35.2516 2
6.96279 35.3053 0.0273922
0 37.5 4
2.4957 37.429 2
4.83709 37.3393 0.0247583
2.60389 39.7138 0.0161802
0.0802903 39.9526 2
0.320823 42.3947 0
2.76508 32.9059 3.98411
5.04383 33.1906 2
7.12135 33.4603 0.0261686
0.721173 30.1842 4
3.14458 30.6666 2
5.41344 31.1338 0.0224225
1.27779 27.7943 2
3.67993 28.4442 0.0139511
1.99015 25.446 0
0.0806499 35.0474 4
2.54783 35.1595 2
4.85143 35.2514 0.0244899
0 37.5 2
2.4956 37.4284 0.0168054
0.080333 39.9526 0
0.32156 32.6054 4
2.76505 32.9061 2
5.04393 33.1904 0.0233286
0.72056 30.1841 2
3.14462 30.6665 0.0147856
1.27793 27.7943 0
0.0802889 35.0474 2
2.54778 35.159 0.016756
0 37.5 0
0.320817 32.6053 2
2.76508 32.9059 0.015893
0.721173 30.1842 0
0.0806499 35.0474 0
0.32156 32.6054 0
CELLS 1910 17190
8 18 6 25 56 2 0 5 16
8 57 23 6 18 17 4 0 2
8 78 36 9 29 31 11 1 7
8 31 11 1 7 79 37 10 30
8 110 57 18 50 48 17 2 14
8 50 18 56 111 14 2 16 49
8 116 62 22 55 52 20 3 15
8 56 25 67 118 16 5 24 53
8 119 63 23 57 54 21 4 17
8 55 22 63 119 15 3 21 54
8 58 26 68 121 18 6 25 56
8 122 65 26 58 57 23 6 18
8 73 31 7 27 142 79 30 71
8 143 78 29 72 73 31 7 27
8 83 147 76 34 32 74 28 8
8 84 148 78 36 33 75 29 9
8 76 34 8 28 148 84 33 75
8 37 79 150 86 10 30 77 35
8 151 87 36 78 80 38 11 31
8 80 38 11 31 152 88 37 79
8 175 100 42 94 96 44 12 40
8 44 96 176 101 12 40 95 43
8 101 176 98 46 43 95 41 13
8 46 98 178 103 13 41 97 45
8 178 103 45 97 147 83 32 74
8 189 116 55 109 106 52 15 47
8 111 56 118 191 49 16 53 107
8 192 119 57 110 108 54 17 48
8 109 55 119 192 47 15 54 108
8 194 122 58 112 110 57 18 50
8 112 58 121 195 50 18 56 111
8 115 61 19 51 197 124 59 113
8 115 61 125 198 51 19 60 114
8 198 125 62 116 114 60 20 52
8 200 127 64 120 116 62 22 55
8 118 67 132 202 53 24 66 117
8 121 68 133 203 56 25 67 118
8 120 64 128 204 55 22 63 119
8 204 128 65 122 119 63 23 57
8 206 134 68 121 123 69 26 58
8 123 69 26 58 207 131 65 122
8 226 147 74 138 140 76 28 70
8 229 148 75 139 143 78 29 72
8 140 76 28 70 229 148 75 139
8 142 79 30 71 231 150 77 141
8 144 80 31 73 232 152 79 142
8 233 151 78 143 144 80 31 73
8 150 86 35 77 235 154 81 145
8 235 154 81 145 146 82 39 91
8 146 82 39 91 236 155 90 165
8 238 157 83 147 149 85 34 76
8 239 158 84 148 151 87 36 78
8 149 85 34 76 239 158 84 148
8 152 88 37 79 241 160 86 150
8 242 161 87 151 153 89 38 80
8 153 89 38 80 243 162 88 152
8 171 98 41 92 265 178 97 169
8 265 178 97 169 226 147 74 138
8 172 96 40 93 266 176 95 170
8 266 176 95 170 171 98 41 92
8 269 175 94 173 172 96 40 93
8 271 180 99 174 175 100 42 94
8 197 124 59 113 271 180 99 174
8 272 181 100 175 177 102 44 96
8 273 182 101 176 179 104 46 98
8 177 102 44 96 273 182 101 176
8 179 104 46 98 275 184 103 178
8 275 184 103 178 238 157 83 147
8 188 115 51 105 283 197 113 186
8 188 115 198 284 105 51 114 187
8 284 198 116 189 187 114 52 106
8 286 200 120 193 189 116 55 109
8 191 118 202 288 107 53 117 190
8 195 121 203 289 111 56 118 191
8 193 120 204 290 109 55 119 192
8 290 204 122 194 192 119 57 110
8 196 123 58 112 292 207 122 194
8 293 206 121 195 196 123 58 112
8 199 126 61 115 297 211 124 197
8 298 212 127 200 198 125 62 116
8 199 126 212 298 115 61 125 198
8 205 129 64 120 300 214 127 200
8 301 217 130 201 202 132 66 117
8 209 136 168 264 301 217 130 201
8 302 219 132 202 203 133 67 118
8 303 220 133 203 206 134 68 121
8 205 129 215 304 120 64 128 204
8 304 215 131 207 204 128 65 122
8 306 221 134 206 208 135 69 123
8 208 135 69 123 307 218 131 207
8 210 137 167 263 309 223 136 209
8 328 238 147 226 230 149 76 140
8 228 146 91 166 329 236 165 260
8 231 150 77 141 330 235 145 227
8 330 235 145 227 228 146 91 166
8 332 239 148 229 233 151 78 143
8 230 149 76 140 332 239 148 229
8 232 152 79 142 334 241 150 231
8 234 153 80 144 335 243 152 232
8 336 242 151 233 234 153 80 144
8 236 155 90 165 338 245 164 259
8 241 160 86 150 339 246 154 235
8 339 246 154 235 237 156 82 146
8 237 156 82 146 340 247 155 236
8 342 249 157 238 240 159 85 149
8 343 250 158 239 242 161 87 151
8 240 159 85 149 343 250 158 239
8 243 162 88 152 345 252 160 241
8 244 163 253 346 153 89 161 242
8 244 163 89 153 347 254 162 243
8 311 224 261 371 210 137 167 263
8 263 167 262 372 209 136 168 264
8 267 179 98 171 375 275 178 265
8 375 275 178 265 328 238 147 226
8 376 273 176 266 267 179 98 171
8 268 177 96 172 376 273 176 266
8 379 272 175 269 268 177 96 172
8 380 271 174 270 269 175 94 173
8 283 197 113 186 380 271 174 270
8 381 277 180 271 272 181 100 175
8 297 211 124 197 381 277 180 271
8 382 278 181 272 274 183 102 177
8 274 183 102 177 383 279 182 273
8 383 279 182 273 276 185 104 179
8 385 281 184 275 342 249 157 238
8 276 185 104 179 385 281 184 275
8 285 199 115 188 393 297 197 283
8 394 298 200 286 284 198 116 189
8 285 199 298 394 188 115 198 284
8 291 205 120 193 396 300 200 286
8 397 301 201 287 288 202 117 190
8 295 209 264 374 397 301 201 287
8 398 302 202 288 289 203 118 191
8 399 303 203 289 293 206 121 195
8 291 205 304 400 193 120 204 290
8 400 304 207 292 290 204 122 194
8 294 208 123 196 402 307 207 292
8 403 306 206 293 294 208 123 196
8 296 210 263 373 405 309 209 295
8 408 312 213 299 297 211 126 199
8 299 213 313 409 199 126 212 298
8 409 313 214 300 298 212 127 200
8 305 216 129 205 411 315 214 300
8 412 318 217 301 302 219 132 202
8 309 223 136 209 412 318 217 301
8 413 320 219 302 303 220 133 203
8 306 221 321 414 206 134 220 303
8 307 218 131 207 415 316 215 304
8 305 216 316 415 205 129 215 304
8 417 322 221 306 308 222 135 208
8 308 222 135 208 418 319 218 307
8 310 225 137 210 420 325 223 309
8 423 326 224 311 310 225 137 210
8 329 236 165 260 441 338 259 368
8 442 342 238 328 333 240 149 230
8 331 237 146 228 443 340 236 329
8 334 241 150 231 444 339 235 330
8 444 339 235 330 331 237 146 228
8 446 343 239 332 336 242 151 233
8 333 240 149 230 446 343 239 332
8 335 243 152 232 448 345 241 334
8 337 244 153 234 449 347 243 335
8 337 244 346 450 234 153 242 336
8 338 245 164 259 452 349 258 367
8 340 247 155 236 453 350 245 338
8 345 252 160 241 454 351 246 339
8 454 351 246 339 341 248 156 237
8 341 248 156 237 455 352 247 340
8 240 159 251 344 342 249 354 457
8 242 161 253 346 343 250 355 458
8 343 250 355 458 240 159 251 344
8 347 254 162 243 460 357 252 345
8 348 255 358 461 244 163 253 346
8 348 255 163 244 462 359 254 347
8 473 360 257 365 363 256 364 482
8 452 349 258 367 365 257 366 485
8 422 324 369 488 311 224 261 371
8 371 261 370 490 263 167 262 372
8 407 311 371 491 296 210 263 373
8 373 263 372 492 295 209 264 374
8 493 385 275 375 442 342 238 328
8 377 276 179 267 493 385 275 375
8 378 274 177 268 494 383 273 376
8 494 383 273 376 377 276 179 267
8 497 382 272 379 378 274 177 268
8 498 381 271 380 379 272 175 269
8 393 297 197 283 498 381 271 380
8 499 387 277 381 382 278 181 272
8 408 312 211 297 499 387 277 381
8 500 388 278 382 384 280 183 274
8 501 389 279 383 386 282 185 276
8 384 280 183 274 501 389 279 383
8 386 282 185 276 503 391 281 385
8 503 391 281 385 457 354 249 342
8 511 408 299 395 393 297 199 285
8 395 299 409 512 285 199 298 394
8 512 409 300 396 394 298 200 286
8 401 305 205 291 514 411 300 396
8 515 412 301 397 398 302 202 288
8 405 309 209 295 515 412 301 397
8 516 413 302 398 399 303 203 289
8 403 306 414 517 293 206 303 399
8 402 307 207 292 518 415 304 400
8 401 305 415 518 291 205 304 400
8 404 308 208 294 520 418 307 402
8 521 417 306 403 404 308 208 294
8 406 310 210 296 523 420 309 405
8 526 423 311 407 406 310 210 296
8 410 314 213 299 527 424 312 408
8 528 425 315 411 409 313 214 300
8 410 314 425 528 299 213 313 409
8 416 317 216 305 530 427 315 411
8 531 430 318 412 413 320 219 302
8 420 325 223 309 531 430 318 412
8 532 432 320 413 414 321 220 303
8 417 322 433 533 306 221 321 414
8 418 319 218 307 534 428 316 415
8 416 317 428 534 305 216 316 415
8 419 323 434 536 308 222 322 417
8 419 323 222 308 537 431 319 418
8 421 327 225 310 539 438 325 420
8 421 327 439 541 310 225 326 423
8 543 437 324 422 423 326 224 311
8 441 338 259 368 559 452 367 486
8 443 340 236 329 560 453 338 441
8 333 240 344 447 442 342 457 561
8 445 341 237 331 562 455 340 443
8 448 345 241 334 563 454 339 444
8 563 454 339 444 445 341 237 331
8 336 242 346 450 446 343 458 565
8 446 343 458 565 333 240 344 447
8 449 347 243 335 567 460 345 448
8 451 348 244 337 568 462 347 449
8 451 348 461 569 337 244 346 450
8 570 463 349 452 473 360 257 365
8 453 350 245 338 570 463 349 452
8 455 352 247 340 571 464 350 453
8 460 357 252 345 572 465 351 454
8 572 465 351 454 456 353 248 341
8 456 353 248 341 573 466 352 455
8 344 251 356 459 457 354 468 575
8 458 355 469 576 344 251 356 459
8 346 253 358 461 458 355 469 576
8 462 359 254 347 578 471 357 460
8 348 255 359 462 461 358 472 579
8 591 474 360 473 475 361 256 363
8 475 361 256 363 594 477 362 479
8 363 256 364 482 479 362 480 603
8 590 473 365 484 481 363 482 605
8 482 364 257 365 606 483 366 485
8 559 452 367 486 484 365 485 607
8 542 436 487 609 422 324 369 488
8 525 422 488 611 407 311 371 491
8 488 369 489 612 371 261 370 490
8 491 371 490 613 373 263 372 492
8 495 386 276 377 614 503 385 493
8 614 503 385 493 561 457 342 442
8 615 501 383 494 495 386 276 377
8 496 384 274 378 615 501 383 494
8 618 500 382 497 496 384 274 378
8 619 499 381 498 497 382 272 379
8 511 408 297 393 619 499 381 498
8 620 505 387 499 500 388 278 382
8 527 424 312 408 620 505 387 499
8 502 390 506 621 384 280 388 500
8 622 507 389 501 504 392 282 386
8 502 390 280 384 622 507 389 501
8 504 392 282 386 624 509 391 503
8 624 509 391 503 575 468 354 457
8 513 410 299 395 630 527 408 511
8 631 528 411 514 512 409 300 396
8 513 410 528 631 395 299 409 512
8 519 416 305 401 633 530 411 514
8 634 531 412 515 516 413 302 398
8 523 420 309 405 634 531 412 515
8 635 532 413 516 517 414 303 399
8 521 417 533 636 403 306 414 517
8 520 418 307 402 637 534 415 518
8 519 416 534 637 401 305 415 518
8 522 419 308 404 639 537 418 520
8 522 419 536 640 404 308 417 521
8 524 421 310 406 642 539 420 523
8 524 421 541 644 406 310 423 526
8 646 543 422 525 526 423 311 407
8 529 426 314 410 647 544 424 527
8 528 425 545 648 411 315 427 530
8 529 426 545 648 410 314 425 528
8 535 429 317 416 649 546 427 530
8 650 548 430 531 532 432 320 413
8 539 438 325 420 650 548 430 531
8 533 433 550 651 414 321 432 532
8 536 434 551 652 417 322 433 533
8 537 431 319 418 653 547 428 534
8 535 429 547 653 416 317 428 534
8 538 435 552 654 419 323 434 536
8 538 435 323 419 655 549 431 537
8 540 440 327 421 657 556 438 539
8 540 440 557 659 421 327 439 541
8 541 439 555 660 423 326 437 543
8 661 554 436 542 543 437 324 422
8 676 570 452 559 590 473 365 484
8 560 453 338 441 676 570 452 559
8 562 455 340 443 677 571 453 560
8 447 344 459 566 561 457 575 678
8 564 456 341 445 679 573 455 562
8 567 460 345 448 680 572 454 563
8 680 572 454 563 564 456 341 445
8 565 458 576 682 447 344 459 566
8 450 346 461 569 565 458 576 682
8 568 462 347 449 684 578 460 567
8 451 348 462 568 569 461 579 685
8 686 580 463 570 591 474 360 473
8 571 464 350 453 686 580 463 570
8 573 466 352 455 687 581 464 571
8 572 465 582 688 460 357 471 578
8 574 467 582 688 456 353 465 572
8 574 467 353 456 689 583 466 573
8 459 356 470 577 575 468 585 691
8 576 469 586 692 459 356 470 577
8 461 358 472 579 576 469 586 692
8 462 359 471 578 579 472 588 694
8 704 591 473 590 593 475 363 481
8 595 476 592 705 475 361 474 591
8 593 475 363 481 707 594 479 602
8 594 477 362 479 709 598 478 600
8 595 476 361 475 711 597 477 594
8 479 362 480 603 600 478 601 720
8 481 363 482 605 602 479 603 722
8 603 480 364 482 723 604 483 606
8 605 482 365 484 724 606 485 607
8 656 553 608 726 542 436 487 609
8 645 542 609 728 525 422 488 611
8 609 487 610 729 488 369 489 612
8 611 488 612 730 491 371 490 613
8 616 504 386 495 731 624 503 614
8 731 624 503 614 678 575 457 561
8 732 622 501 615 616 504 386 495
8 617 502 384 496 732 622 501 615
8 617 502 621 735 496 384 500 618
8 736 620 499 619 618 500 382 497
8 630 527 408 511 736 620 499 619
8 621 506 626 737 500 388 505 620
8 647 544 424 527 737 626 505 620
8 623 508 627 738 502 390 506 621
8 623 508 390 502 739 628 507 622
8 625 510 628 739 504 392 507 622
8 740 629 509 624 691 585 468 575
8 625 510 392 504 740 629 509 624
8 632 529 410 513 744 647 527 630
8 631 528 648 745 514 411 530 633
8 632 529 648 745 513 410 528 631
8 638 535 416 519 746 649 530 633
8 747 650 531 634 635 532 413 516
8 642 539 420 523 747 650 531 634
8 636 533 651 748 517 414 532 635
8 640 536 652 749 521 417 533 636
8 639 537 418 520 750 653 534 637
8 638 535 653 750 519 416 534 637
8 641 538 419 522 751 655 537 639
8 641 538 654 752 522 419 536 640
8 643 540 421 524 753 657 539 642
8 643 540 659 755 524 421 541 644
8 644 541 660 757 526 423 543 646
8 758 661 542 645 646 543 422 525
8 529 426 544 647 648 545 662 759
8 530 427 545 648 649 546 663 760
8 535 429 546 649 653 547 664 761
8 762 666 548 650 651 550 432 532
8 657 556 438 539 762 666 548 650
8 652 551 668 763 533 433 550 651
8 654 552 669 764 536 434 551 652
8 655 549 431 537 765 665 547 653
8 538 435 549 655 654 552 667 766
8 661 554 671 768 542 436 553 656
8 658 558 440 540 769 674 556 657
8 658 558 675 770 540 440 557 659
8 659 557 673 771 541 439 555 660
8 660 555 672 772 543 437 554 661
8 788 686 570 676 704 591 473 590
8 677 571 453 560 788 686 570 676
8 679 573 455 562 789 687 571 677
8 566 459 577 683 678 575 691 790
8 681 574 456 564 791 689 573 679
8 680 572 688 792 567 460 578 684
8 681 574 688 792 564 456 572 680
8 682 576 692 794 566 459 577 683
8 569 461 579 685 682 576 692 794
8 568 462 578 684 685 579 694 796
8 687 581 464 571 798 696 580 686
8 798 696 580 686 705 592 474 591
8 689 583 466 573 799 697 581 687
8 688 582 698 800 578 471 588 694
8 690 584 698 800 574 467 582 688
8 690 584 467 574 801 699 583 689
8 693 587 701 803 577 470 585 691
8 693 587 470 577 804 702 586 692
8 695 589 702 804 579 472 586 692
8 695 589 472 579 805 703 588 694
8 708 595 705 813 593 475 591 704
8 710 596 706 814 595 476 592 705
8 707 594 479 602 816 709 600 719
8 708 595 475 593 817 711 594 707
8 709 598 478 600 819 715 599 717
8 711 597 477 594 820 714 598 709
8 710 596 476 595 822 713 597 711
8 600 478 601 720 717 599 718 832
8 602 479 603 722 719 600 720 834
8 720 601 480 603 835 721 604 723
8 722 603 482 605 836 723 606 724
8 767 670 725 839 656 553 608 726
8 756 656 726 841 645 542 609 728
8 726 608 727 842 609 487 610 729
8 728 609 729 843 611 488 612 730
8 844 740 624 731 790 691 575 678
8 733 625 504 616 844 740 624 731
8 734 623 502 617 845 739 622 732
8 733 625 739 845 616 504 622 732
8 734 623 738 846 617 502 621 735
8 735 621 737 847 618 500 620 736
8 744 647 527 630 847 737 620 736
8 621 506 627 738 737 626 741 848
8 647 544 626 737 759 662 741 848
8 623 508 628 739 738 627 742 849
8 740 629 585 691 850 743 700 802
8 625 510 629 740 739 628 743 850
8 632 529 647 744 745 648 759 854
8 633 530 648 745 746 649 760 855
8 638 535 649 746 750 653 761 856
8 857 762 650 747 748 651 532 635
8 753 657 539 642 857 762 650 747
8 749 652 763 858 636 533 651 748
8 752 654 764 859 640 536 652 749
8 751 655 537 639 860 765 653 750
8 641 538 655 751 752 654 766 861
8 754 658 540 643 862 769 657 753
8 754 658 770 863 643 540 659 755
8 755 659 771 864 644 541 660 757
8 758 661 768 866 645 542 656 756
8 757 660 772 867 646 543 661 758
8 759 662 773 868 648 545 663 760
8 649 546 663 760 761 664 774 871
8 765 665 547 653 872 775 664 761
8 873 777 666 762 763 668 550 651
8 769 674 556 657 873 777 666 762
8 764 669 779 874 652 551 668 763
8 654 552 667 766 764 669 778 875
8 655 549 665 765 766 667 776 876
8 768 671 782 877 656 553 670 767
8 772 672 783 878 661 554 671 768
8 658 558 674 769 770 675 786 879
8 659 557 675 770 771 673 785 881
8 882 784 672 772 771 673 555 660
8 789 687 571 677 897 798 686 788
8 897 798 686 788 813 705 591 704
8 791 689 573 679 898 799 687 789
8 795 693 803 900 683 577 691 790
8 793 690 574 681 901 801 689 791
8 792 688 800 902 684 578 694 796
8 793 690 800 902 681 574 688 792
8 795 693 577 683 903 804 692 794
8 797 695 804 903 685 579 692 794
8 797 695 579 685 904 805 694 796
8 905 806 697 799 798 696 581 687
8 814 706 806 905 705 592 696 798
8 689 583 697 799 801 699 808 907
8 800 698 809 908 694 588 703 805
8 690 584 699 801 800 698 809 908
8 803 701 810 909 691 585 700 802
8 693 587 702 804 803 701 811 910
8 695 589 703 805 804 702 812 911
8 818 710 814 919 708 595 705 813
8 821 712 815 920 710 596 706 814
8 816 709 600 719 922 819 717 831
8 817 711 594 707 923 820 709 816
8 818 710 595 708 924 822 711 817
8 819 715 599 717 926 827 716 829
8 820 714 598 709 927 826 715 819
8 929 825 713 822 820 714 597 711
8 821 712 596 710 930 824 713 822
8 717 599 718 832 829 716 830 942
8 719 600 720 834 831 717 832 944
8 832 718 601 720 945 833 721 835
8 834 720 603 722 946 835 723 836
8 869 780 838 950 767 670 725 839
8 865 767 839 952 756 656 726 841
8 839 725 840 953 726 608 727 842
8 841 726 842 954 728 609 729 843
8 844 740 691 790 955 850 802 899
8 733 625 740 844 845 739 850 955
8 734 623 739 845 846 738 849 956
8 735 621 738 846 847 737 848 957
8 744 647 737 847 854 759 848 957
8 738 627 742 849 848 741 851 958
8 848 741 851 958 759 662 773 868
8 850 743 700 802 959 852 807 906
8 849 742 628 739 959 852 743 850
8 854 759 868 965 745 648 760 855
8 746 649 760 855 856 761 871 966
8 860 765 653 750 967 872 761 856
8 968 873 762 857 858 763 651 748
8 862 769 657 753 968 873 762 857
8 859 764 874 969 749 652 763 858
8 752 654 766 861 859 764 875 970
8 751 655 765 860 861 766 876 971
8 754 658 769 862 863 770 879 972
8 755 659 770 863 864 771 881 974
8 976 882 772 867 864 771 660 757
8 866 768 877 977 756 656 767 865
8 867 772 878 978 758 661 768 866
8 760 663 773 868 871 774 883 980
8 870 781 837 948 982 890 780 869
8 982 890 780 869 877 782 670 767
8 761 664 774 871 872 775 884 984
8 876 776 665 765 985 885 775 872
8 873 777 668 763 986 887 779 874
8 769 674 777 873 879 786 887 986
8 764 669 778 875 874 779 888 987
8 766 667 776 876 875 778 886 988
8 878 783 892 989 768 671 782 877
8 878 783 672 772 990 893 784 882
8 880 787 675 770 991 896 786 879
8 880 787 895 992 770 675 785 881
8 881 785 894 993 771 673 784 882
8 1006 905 799 898 897 798 687 789
8 919 814 905 1006 813 705 798 897
8 791 689 799 898 901 801 907 1007
8 900 803 909 1009 790 691 802 899
8 795 693 804 903 900 803 910 1010
8 902 800 908 1011 796 694 805 904
8 793 690 801 901 902 800 908 1011
8 797 695 805 904 903 804 911 1012
8 799 697 806 905 907 808 912 1013
8 920 815 912 1013 814 706 806 905
8 802 700 810 909 906 807 913 1014
8 801 699 808 907 908 809 914 1015
8 805 703 809 908 911 812 915 1016
8 803 701 811 910 909 810 916 1017
8 911 812 917 1018 804 702 811 910
8 925 821 920 1030 818 710 814 919
8 928 823 921 1031 821 712 815 920
8 922 819 717 831 1033 926 829 941
8 923 820 709 816 1034 927 819 922
8 1035 929 822 924 923 820 711 817
8 925 821 710 818 1036 930 822 924
8 1038 933 825 929 927 826 714 820
8 926 827 716 829 1039 935 828 939
8 927 826 715 819 1040 934 827 926
8 928 823 712 821 1041 931 824 930
8 1042 932 824 930 929 825 713 822
8 829 716 830 942 939 828 940 1058
8 831 717 832 944 941 829 942 1060
8 942 830 718 832 1061 943 833 945
8 944 832 720 834 1062 945 835 946
8 981 889 947 1064 870 781 837 948
8 948 837 949 1067 869 780 838 950
8 975 869 950 1069 865 767 839 952
8 950 838 951 1070 839 725 840 953
8 952 839 953 1071 841 726 842 954
8 955 850 802 899 1072 959 906 1008
8 956 849 739 845 1072 959 850 955
8 846 738 849 956 957 848 958 1073
8 957 848 958 1073 854 759 868 965
8 849 742 852 959 958 851 961 1076
8 960 853 961 1076 906 807 852 959
8 958 851 961 1076 868 773 883 980
8 960 853 807 906 1077 963 913 1014
8 855 760 868 965 966 871 980 1085
8 856 761 871 966 967 872 984 1086
8 971 876 765 860 1087 985 872 967
8 968 873 763 858 1088 986 874 969
8 862 769 873 968 972 879 986 1088
8 859 764 875 970 969 874 987 1089
8 861 766 876 971 970 875 988 1090
8 973 880 770 863 1091 991 879 972
8 973 880 992 1092 863 770 881 974
8 974 881 993 1093 864 771 882 976
8 979 870 948 1066 1094 982 869 975
8 1094 982 869 975 977 877 767 865
8 978 878 772 867 1095 990 882 976
8 978 878 989 1096 866 768 877 977
8 871 774 883 980 984 884 994 1099
8 983 891 999 1100 870 781 889 981
8 1101 1000 890 982 989 892 782 877
8 983 891 781 870 1101 1000 890 982
8 872 775 884 984 985 885 995 1103
8 876 776 885 985 988 886 996 1104
8 986 887 779 874 1105 998 888 987
8 879 786 887 986 991 896 998 1105
8 875 778 886 988 987 888 997 1106
8 990 893 1002 1107 878 783 892 989
8 1108 1003 893 990 993 894 784 882
8 880 787 896 991 992 895 1005 1109
8 993 894 785 881 1110 1004 895 992
8 898 799 905 1006 1007 907 1013 1120
8 1030 920 1013 1120 919 814 905 1006
8 901 801 907 1007 1011 908 1015 1121
8 899 802 909 1009 1008 906 1014 1122
8 900 803 910 1010 1009 909 1017 1123
8 1012 911 1018 1124 903 804 910 1010
8 904 805 908 1011 1012 911 1016 1125
8 1013 912 1020 1127 907 808 914 1015
8 1031 921 1020 1127 920 815 912 1013
8 1019 918 962 1075 1128 1021 913 1014
8 1128 1021 913 1014 1017 916 810 909
8 1015 914 1022 1129 908 809 915 1016
8 1016 915 1023 1130 911 812 917 1018
8 1018 917 1024 1131 910 811 916 1017
8 1037 928 1031 1148 925 821 920 1030
8 928 823 931 1041 1031 921 1032 1149
8 1033 926 829 941 1151 1039 939 1057
8 1034 927 819 922 1152 1040 926 1033
8 1153 1038 929 1035 1034 927 820 923
8 1154 1042 930 1036 1035 929 822 924
8 1037 928 821 925 1155 1041 930 1036
8 1039 935 828 939 1156 1047 938 1055
8 1157 1043 932 1042 1038 933 825 929
8 1038 933 826 927 1158 1045 934 1040
8 1040 934 827 926 1159 1046 935 1039
8 930 824 932 1042 1041 931 1044 1160
8 1051 936 1048 1165 1175 1052 937 1053
8 1156 1047 938 1055 1053 937 1054 1178
8 939 828 940 1058 1055 938 1056 1181
8 941 829 942 1060 1057 939 1058 1183
8 942 830 943 1061 1058 940 1059 1184
8 1060 942 832 944 1185 1061 945 1062
8 1082 964 1063 1188 981 889 947 1064
8 1097 981 1064 1190 979 870 948 1066
8 1064 947 1065 1191 948 837 949 1067
8 1066 948 1067 1193 975 869 950 1069
8 1067 949 1068 1194 950 838 951 1070
8 1069 950 1070 1195 952 839 953 1071
8 956 849 959 1072 1073 958 1076 1197
8 1074 960 1076 1197 1008 906 959 1072
8 1073 958 1076 1197 965 868 980 1085
8 1074 960 906 1008 1198 1077 1014 1122
8 1133 1026 1079 1199 1019 918 962 1075
8 1077 963 913 1014 1200 1080 962 1075
8 960 853 963 1077 1076 961 1078 1201
8 980 883 961 1076 1099 994 1078 1201
8 1210 1083 964 1082 1100 999 889 981
8 966 871 980 1085 1086 984 1099 1215
8 967 872 984 1086 1087 985 1103 1216
8 971 876 985 1087 1090 988 1104 1217
8 1088 986 874 969 1218 1105 987 1089
8 972 879 986 1088 1091 991 1105 1218
8 970 875 988 1090 1089 987 1106 1219
8 973 880 991 1091 1092 992 1109 1220
8 1093 993 881 974 1221 1110 992 1092
8 1222 1108 990 1095 1093 993 882 976
8 1223 1101 982 1094 1096 989 877 977
8 1098 983 870 979 1223 1101 982 1094
8 1095 990 1107 1224 978 878 989 1096
8 1098 983 1100 1225 979 870 981 1097
8 984 884 994 1099 1103 995 1111 1227
8 1102 1001 1115 1228 983 891 999 1100
8 1101 1000 892 989 1229 1116 1002 1107
8 1102 1001 891 983 1229 1116 1000 1101
8 985 885 995 1103 1104 996 1112 1230
8 988 886 996 1104 1106 997 1113 1231
8 1105 998 888 987 1232 1114 997 1106
8 991 896 998 1105 1109 1005 1114 1232
8 1108 1003 1117 1233 990 893 1002 1107
8 1108 1003 894 993 1233 1117 1004 1110
8 992 895 1005 1109 1110 1004 1118 1234
8 1120 1013 1127 1244 1007 907 1015 1121
8 1148 1031 1127 1244 1030 920 1013 1120
8 1121 1015 1129 1245 1011 908 1016 1125
8 1126 1019 1075 1196 1246 1128 1014 1122
8 1246 1128 1014 1122 1123 1017 909 1009
8 1124 1018 1131 1247 1010 910 1017 1123
8 1125 1016 1130 1248 1012 911 1018 1124
8 1127 1020 1137 1254 1015 914 1022 1129
8 1031 921 1032 1149 1127 1020 1137 1254
8 1134 1027 918 1019 1257 1140 1021 1128
8 1257 1140 1021 1128 1131 1024 916 1017
8 1129 1022 1141 1258 1016 915 1023 1130
8 1130 1023 1142 1259 1018 917 1024 1131
8 1261 1144 1025 1132 1133 1026 1079 1199
8 1255 1138 1025 1132 1135 1028 1144 1261
8 1133 1026 918 1019 1262 1145 1027 1134
8 1136 1029 1139 1256 1263 1146 1028 1135
8 1037 928 1041 1155 1148 1031 1149 1275
8 1041 931 1044 1160 1149 1032 1150 1276
8 1151 1039 939 1057 1278 1156 1055 1180
8 1152 1040 926 1033 1279 1159 1039 1151
8 1153 1038 927 1034 1280 1158 1040 1152
8 1281 1157 1042 1154 1153 1038 929 1035
8 1036 930 1042 1154 1155 1041 1160 1282
8 1283 1164 1046 1159 1156 1047 935 1039
8 1165 1048 1164 1283 1053 937 1047 1156
8 1157 1043 933 1038 1284 1161 1045 1158
8 1157 1043 1161 1284 1042 932 1044 1160
8 1040 934 1046 1159 1158 1045 1163 1285
8 1166 1049 1167 1292 1051 936 1048 1165
8 1166 1049 936 1051 1293 1168 1050 1172
8 1051 936 1052 1175 1172 1050 1173 1306
8 1174 1051 1165 1290 1308 1175 1053 1177
8 1053 937 1054 1178 1175 1052 1176 1309
8 1278 1156 1055 1180 1177 1053 1178 1311
8 1055 938 1056 1181 1178 1054 1179 1312
8 1057 939 1058 1183 1180 1055 1181 1314
8 1058 940 1059 1184 1181 1056 1182 1315
8 1060 942 1061 1185 1183 1058 1184 1316
8 1208 1081 1187 1321 1082 964 1063 1188
8 1209 1082 1188 1322 1097 981 1064 1190
8 1188 1063 1189 1323 1064 947 1065 1191
8 1190 1064 1191 1325 1066 948 1067 1193
8 1191 1065 1192 1326 1067 949 1068 1194
8 1067 1193 1069 950 1194 1327 1195 1070
8 1250 1133 1199 1330 1126 1019 1075 1196
8 1198 1077 1014 1122 1331 1200 1075 1196
8 1074 960 1077 1198 1197 1076 1201 1332
8 1085 980 1076 1197 1215 1099 1201 1332
8 1199 1079 1203 1333 1075 962 1080 1200
8 1132 1025 1119 1243 1199 1079 1203 1333
8 1201 1078 963 1077 1334 1202 1080 1200
8 1099 994 1078 1201 1227 1111 1202 1334
8 1343 1207 1081 1208 1210 1083 964 1082
8 1214 1084 1186 1319 1343 1207 1081 1208
8 1345 1210 1082 1209 1225 1100 981 1097
8 1346 1211 1083 1210 1228 1115 999 1100
8 1086 984 1099 1215 1216 1103 1227 1352
8 1087 985 1103 1216 1217 1104 1230 1353
8 1090 988 1104 1217 1219 1106 1231 1354
8 1218 1105 987 1089 1355 1232 1106 1219
8 1091 991 1105 1218 1220 1109 1232 1355
8 1092 992 1109 1220 1221 1110 1234 1356
8 1222 1108 1233 1357 1095 990 1107 1224
8 1222 1108 993 1093 1357 1233 1110 1221
8 1223 1101 989 1096 1358 1229 1107 1224
8 1226 1102 983 1098 1358 1229 1101 1223
8 1226 1102 1228 1359 1098 983 1100 1225
8 1103 995 1111 1227 1230 1112 1235 1360
8 1107 1002 1117 1233 1229 1116 1240 1362
8 1102 1001 1116 1229 1228 1115 1240 1362
8 1104 996 1112 1230 1231 1113 1236 1363
8 1364 1237 1114 1232 1231 1113 997 1106
8 1109 1005 1114 1232 1234 1118 1238 1365
8 1110 1004 1118 1234 1233 1117 1241 1366
8 1242 1374 1255 1138 1119 1243 1132 1025
8 1244 1127 1254 1376 1121 1015 1129 1245
8 1148 1031 1149 1275 1244 1127 1254 1376
8 1245 1129 1258 1377 1125 1016 1130 1248
8 1251 1134 1019 1126 1378 1257 1128 1246
8 1378 1257 1128 1246 1247 1131 1017 1123
8 1248 1130 1259 1379 1124 1018 1131 1247
8 1261 1381 1250 1133 1132 1249 1330 1199
8 1255 1380 1252 1135 1132 1249 1381 1261
8 1250 1133 1019 1126 1382 1262 1134 1251
8 1253 1136 1256 1385 1384 1263 1135 1252
8 1254 1137 1265 1387 1129 1022 1141 1258
8 1149 1032 1150 1276 1254 1137 1265 1387
8 1028 1135 1255 1138 1139 1256 1388 1266
8 1136 1029 1147 1264 1256 1139 1267 1389
8 1390 1268 1140 1257 1259 1142 1024 1131
8 1260 1143 1027 1134 1390 1268 1140 1257
8 1258 1141 1269 1391 1130 1023 1142 1259
8 1262 1145 1027 1134 1393 1271 1143 1260
8 1261 1144 1026 1133 1394 1272 1145 1262
8 1135 1028 1144 1261 1263 1146 1272 1394
8 1136 1029 1146 1263 1264 1147 1273 1395
8 1155 1041 1160 1282 1275 1149 1276 1405
8 1276 1150 1044 1160 1406 1277 1162 1286
8 1408 1283 1159 1279 1278 1156 1039 1151
8 1290 1165 1283 1408 1177 1053 1156 1278
8 1152 1040 1159 1279 1280 1158 1285 1409
8 1281 1157 1038 1153 1410 1284 1158 1280
8 1281 1157 1284 1410 1154 1042 1160 1282
8 1159 1046 1164 1283 1285 1163 1289 1412
8 1292 1167 1289 1412 1165 1048 1164 1283
8 1158 1045 1163 1285 1284 1161 1288 1413
8 1284 1161 1288 1413 1160 1044 1162 1286
8 1291 1166 1292 1418 1174 1051 1165 1290
8 1291 1166 1051 1174 1419 1293 1172 1305
8 1294 1169 1296 1421 1166 1049 1167 1292
8 1293 1168 1050 1172 1422 1295 1171 1303
8 1294 1169 1049 1166 1423 1297 1168 1293
8 1422 1295 1171 1303 1301 1170 1302 1435
8 1172 1050 1173 1306 1303 1171 1304 1438
8 1174 1051 1175 1308 1305 1172 1306 1440
8 1175 1052 1176 1309 1306 1173 1307 1441
8 1177 1053 1178 1311 1308 1175 1309 1443
8 1178 1054 1179 1312 1309 1176 1310 1444
8 1180 1055 1181 1314 1311 1178 1312 1446
8 1056 1181 1312 1179 1182 1315 1447 1313
8 1183 1058 1184 1316 1314 1181 1315 1448
8 1319 1186 1084 1214 1451 1317 1213 1350
8 1319 1186 1318 1453 1208 1081 1187 1321
8 1321 1187 1320 1456 1188 1063 1189 1323
8 1344 1208 1321 1457 1209 1082 1188 1322
8 1322 1188 1323 1458 1190 1064 1191 1325
8 1323 1189 1324 1459 1191 1065 1192 1326
8 1191 1325 1193 1067 1326 1460 1327 1194
8 1242 1374 1243 1119 1328 1462 1335 1204
8 1330 1199 1333 1465 1196 1075 1200 1331
8 1132 1249 1330 1199 1243 1375 1465 1333
8 1332 1201 1077 1198 1466 1334 1200 1331
8 1215 1099 1201 1332 1352 1227 1334 1466
8 1119 1243 1333 1203 1204 1335 1470 1338
8 1333 1203 1338 1470 1200 1080 1202 1334
8 1227 1111 1202 1334 1360 1235 1338 1470
8 1328 1462 1335 1204 1205 1336 1471 1339
8 1337 1206 1340 1472 1464 1329 1205 1336
8 1346 1211 1342 1479 1210 1083 1207 1343
8 1346 1211 1115 1228 1479 1342 1239 1361
8 1348 1212 1084 1214 1479 1342 1207 1343
8 1480 1343 1208 1344 1345 1210 1082 1209
8 1351 1214 1319 1454 1480 1343 1208 1344
8 1481 1346 1210 1345 1359 1228 1100 1225
8 1348 1212 1347 1483 1214 1084 1213 1350
8 1216 1103 1227 1352 1353 1230 1360 1488
8 1217 1104 1230 1353 1354 1231 1363 1489
8 1490 1364 1232 1355 1354 1231 1106 1219
8 1220 1109 1232 1355 1356 1234 1365 1491
8 1221 1110 1234 1356 1357 1233 1366 1492
8 1224 1107 1233 1357 1358 1229 1362 1493
8 1226 1102 1229 1358 1359 1228 1362 1493
8 1230 1112 1235 1360 1363 1236 1367 1496
8 1361 1239 1115 1228 1497 1371 1240 1362
8 1366 1241 1372 1498 1233 1117 1240 1362
8 1364 1237 1113 1231 1499 1368 1236 1363
8 1364 1237 1368 1499 1232 1114 1238 1365
8 1234 1118 1238 1365 1366 1241 1369 1500
8 1507 1373 1242 1374 1388 1266 1138 1255
8 1508 1374 1243 1375 1380 1255 1132 1249
8 1376 1254 1387 1509 1245 1129 1258 1377
8 1275 1149 1276 1405 1376 1254 1387 1509
8 1377 1258 1391 1510 1248 1130 1259 1379
8 1511 1390 1257 1378 1379 1259 1131 1247
8 1383 1260 1134 1251 1511 1390 1257 1378
8 1252 1135 1256 1385 1380 1255 1388 1512
8 1261 1381 1513 1394 1133 1250 1382 1262
8 1135 1252 1384 1263 1261 1381 1513 1394
8 1382 1262 1134 1251 1514 1393 1260 1383
8 1253 1136 1263 1384 1386 1264 1395 1516
8 1253 1136 1264 1386 1385 1256 1389 1517
8 1387 1265 1397 1519 1258 1141 1269 1391
8 1276 1150 1277 1406 1387 1265 1397 1519
8 1256 1139 1267 1389 1388 1266 1398 1520
8 1264 1147 1274 1396 1389 1267 1399 1521
8 1392 1270 1143 1260 1522 1400 1268 1390
8 1390 1268 1142 1259 1522 1400 1269 1391
8 1392 1270 1401 1523 1260 1143 1271 1393
8 1272 1394 1524 1402 1145 1262 1393 1271
8 1395 1273 1146 1263 1524 1402 1272 1394
8 1273 1395 1264 1147 1403 1526 1396 1274
8 1405 1276 1160 1282 1534 1406 1286 1411
8 1414 1287 1407 1535 1286 1162 1277 1406
8 1279 1159 1283 1408 1409 1285 1412 1537
8 1418 1292 1412 1537 1290 1165 1283 1408
8 1280 1158 1285 1409 1410 1284 1413 1538
8 1410 1284 1413 1538 1282 1160 1286 1411
8 1285 1163 1289 1412 1413 1288 1417 1540
8 1421 1296 1417 1540 1292 1167 1289 1412
8 1414 1287 1162 1286 1541 1416 1288 1413
8 1420 1294 1421 1545 1291 1166 1292 1418
8 1419 1293 1172 1305 1546 1422 1303 1437
8 1420 1294 1166 1291 1547 1423 1293 1419
8 1294 1169 1297 1423 1421 1296 1425 1548
8 1423 1297 1168 1293 1549 1424 1295 1422
8 1301 1170 1298 1427 1422 1295 1424 1549
8 1432 1300 1428 1554 1301 1170 1298 1427
8 1431 1299 1428 1554 1560 1430 1300 1432
8 1563 1433 1300 1432 1435 1302 1170 1301
8 1546 1422 1303 1437 1434 1301 1435 1565
8 1303 1171 1304 1438 1435 1302 1436 1566
8 1305 1172 1306 1440 1437 1303 1438 1568
8 1306 1173 1307 1441 1438 1304 1439 1569
8 1308 1175 1309 1443 1440 1306 1441 1571
8 1309 1176 1310 1444 1441 1307 1442 1572
8 1311 1178 1312 1446 1443 1309 1444 1574
8 1179 1312 1444 1310 1313 1447 1575 1445
8 1314 1181 1315 1448 1446 1312 1447 1576
8 1350 1213 1349 1486 1451 1317 1449 1579
8 1451 1317 1450 1581 1319 1186 1318 1453
8 1454 1319 1214 1351 1582 1451 1350 1487
8 1453 1318 1452 1584 1321 1187 1320 1456
8 1454 1319 1453 1585 1344 1208 1321 1457
8 1456 1320 1455 1586 1323 1189 1324 1459
8 1457 1321 1456 1587 1322 1188 1323 1458
8 1458 1323 1459 1588 1325 1191 1326 1460
8 1205 1336 1464 1329 1328 1462 1590 1461
8 1507 1373 1461 1590 1374 1242 1328 1462
8 1508 1374 1462 1591 1375 1243 1335 1467
8 1337 1206 1329 1464 1473 1341 1463 1594
8 1375 1243 1335 1467 1465 1333 1470 1596
8 1465 1333 1470 1596 1331 1200 1334 1466
8 1352 1227 1334 1466 1488 1360 1470 1596
8 1591 1462 1336 1468 1467 1335 1471 1597
8 1469 1337 1472 1598 1595 1464 1336 1468
8 1471 1339 1474 1600 1335 1204 1338 1470
8 1600 1474 1367 1496 1470 1338 1235 1360
8 1336 1205 1340 1472 1471 1339 1475 1601
8 1337 1206 1341 1473 1472 1340 1476 1602
8 1495 1370 1478 1609 1361 1239 1342 1479
8 1348 1212 1342 1479 1483 1347 1478 1609
8 1481 1346 1479 1610 1345 1210 1343 1480
8 1481 1346 1228 1359 1610 1479 1361 1494
8 1484 1348 1214 1351 1610 1479 1343 1480
8 1483 1347 1482 1612 1350 1213 1349 1486
8 1484 1348 1483 1613 1351 1214 1350 1487
8 1353 1230 1360 1488 1489 1363 1496 1616
8 1490 1364 1231 1354 1617 1499 1363 1489
8 1490 1364 1499 1617 1355 1232 1365 1491
8 1356 1234 1365 1491 1492 1366 1500 1619
8 1492 1366 1498 1620 1357 1233 1362 1493
8 1494 1361 1228 1359 1621 1497 1362 1493
8 1495 1370 1239 1361 1622 1504 1371 1497
8 1363 1236 1367 1496 1499 1368 1501 1623
8 1497 1371 1240 1362 1624 1505 1372 1498
8 1625 1503 1372 1498 1500 1369 1241 1366
8 1365 1238 1368 1499 1500 1369 1502 1626
8 1520 1398 1506 1633 1388 1266 1373 1507
8 1634 1507 1374 1508 1512 1388 1255 1380
8 1509 1387 1519 1635 1377 1258 1391 1510
8 1405 1276 1406 1534 1509 1387 1519 1635
8 1515 1392 1260 1383 1636 1522 1390 1511
8 1511 1390 1259 1379 1636 1522 1391 1510
8 1385 1256 1389 1517 1512 1388 1520 1637
8 1513 1394 1262 1382 1638 1524 1393 1514
8 1395 1516 1638 1524 1263 1384 1513 1394
8 1515 1392 1523 1639 1383 1260 1393 1514
8 1516 1395 1526 1640 1386 1264 1396 1518
8 1386 1264 1396 1518 1517 1389 1521 1641
8 1519 1397 1527 1643 1391 1269 1400 1522
8 1535 1407 1527 1643 1406 1277 1397 1519
8 1389 1267 1399 1521 1520 1398 1528 1644
8 1645 1529 1399 1521 1525 1404 1274 1396
8 1392 1270 1400 1522 1523 1401 1531 1646
8 1524 1402 1271 1393 1648 1532 1401 1523
8 1403 1526 1648 1532 1273 1395 1524 1402
8 1525 1404 1274 1396 1649 1533 1403 1526
8 1539 1414 1535 1657 1411 1286 1406 1534
8 1542 1415 1536 1658 1414 1287 1407 1535
8 1409 1285 1412 1537 1538 1413 1540 1660
8 1545 1421 1540 1660 1418 1292 1412 1537
8 1539 1414 1286 1411 1661 1541 1413 1538
8 1540 1417 1544 1663 1413 1288 1416 1541
8 1421 1296 1425 1548 1540 1417 1544 1663
8 1542 1415 1287 1414 1664 1543 1416 1541
8 1420 1294 1423 1547 1545 1421 1548 1666
8 1547 1423 1293 1419 1667 1549 1422 1546
8 1434 1301 1427 1553 1546 1422 1549 1667
8 1423 1297 1424 1549 1548 1425 1550 1668
8 1551 1426 1550 1668 1427 1298 1424 1549
8 1551 1426 1298 1427 1671 1552 1428 1554
8 1562 1432 1554 1674 1434 1301 1427 1553
8 1431 1299 1429 1558 1554 1428 1555 1675
8 1431 1299 1430 1560 1558 1429 1557 1680
8 1560 1430 1300 1432 1683 1559 1433 1563
8 1561 1431 1554 1674 1684 1560 1432 1562
8 1685 1563 1432 1562 1565 1435 1301 1434
8 1435 1302 1436 1566 1563 1433 1564 1686
8 1437 1303 1438 1568 1565 1435 1566 1688
8 1438 1304 1439 1569 1566 1436 1567 1689
8 1440 1306 1441 1571 1568 1438 1569 1691
8 1441 1307 1442 1572 1569 1439 1570 1692
8 1443 1309 1444 1574 1571 1441 1572 1694
8 1310 1444 1572 1442 1445 1575 1695 1573
8 1446 1312 1447 1576 1574 1444 1575 1696
8 1486 1349 1485 1614 1579 1449 1577 1699
8 1451 1317 1449 1579 1581 1450 1578 1701
8 1487 1350 1486 1615 1582 1451 1579 1702
8 1581 1450 1580 1704 1453 1318 1452 1584
8 1582 1451 1581 1705 1454 1319 1453 1585
8 1584 1452 1583 1706 1456 1320 1455 1586
8 1585 1453 1584 1707 1457 1321 1456 1587
8 1587 1456 1586 1708 1458 1323 1459 1588
8 1633 1506 1589 1710 1507 1373 1461 1590
8 1464 1329 1461 1590 1594 1463 1589 1710
8 1468 1336 1462 1591 1595 1464 1590 1711
8 1634 1507 1590 1711 1508 1374 1462 1591
8 1473 1341 1463 1594 1603 1477 1593 1716
8 1469 1337 1464 1595 1599 1473 1594 1717
8 1471 1597 1467 1335 1600 1718 1596 1470
8 1718 1600 1496 1616 1596 1470 1360 1488
8 1336 1468 1597 1471 1472 1598 1719 1601
8 1469 1337 1473 1599 1598 1472 1602 1720
8 1722 1604 1501 1623 1600 1474 1367 1496
8 1475 1601 1471 1339 1604 1722 1600 1474
8 1602 1476 1605 1723 1472 1340 1475 1601
8 1476 1602 1724 1606 1341 1473 1603 1477
8 1483 1347 1478 1609 1612 1482 1608 1731
8 1495 1370 1504 1622 1609 1478 1608 1731
8 1618 1495 1609 1732 1494 1361 1479 1610
8 1484 1348 1479 1610 1613 1483 1609 1732
8 1486 1349 1482 1612 1614 1485 1611 1733
8 1613 1483 1612 1734 1487 1350 1486 1615
8 1489 1363 1496 1616 1617 1499 1623 1736
8 1491 1365 1499 1617 1619 1500 1626 1737
8 1618 1495 1361 1494 1738 1622 1497 1621
8 1739 1625 1498 1620 1619 1500 1366 1492
8 1621 1497 1362 1493 1740 1624 1498 1620
8 1742 1631 1504 1622 1624 1505 1371 1497
8 1743 1628 1502 1626 1623 1501 1368 1499
8 1744 1630 1505 1624 1625 1503 1372 1498
8 1745 1629 1503 1625 1626 1502 1369 1500
8 1520 1398 1528 1644 1633 1506 1632 1751
8 1637 1520 1633 1752 1512 1388 1507 1634
8 1635 1519 1643 1753 1510 1391 1522 1636
8 1657 1535 1643 1753 1534 1406 1519 1635
8 1515 1392 1522 1636 1639 1523 1646 1754
8 1517 1389 1521 1641 1637 1520 1644 1755
8 1524 1638 1756 1648 1393 1514 1639 1523
8 1640 1526 1395 1516 1756 1648 1524 1638
8 1642 1525 1396 1518 1757 1649 1526 1640
8 1758 1645 1521 1641 1642 1525 1396 1518
8 1646 1531 1400 1522 1760 1650 1527 1643
8 1535 1407 1536 1658 1643 1527 1650 1760
8 1521 1399 1529 1645 1644 1528 1651 1761
8 1647 1530 1652 1762 1525 1404 1529 1645
8 1401 1523 1648 1532 1531 1646 1763 1655
8 1525 1404 1533 1649 1647 1530 1654 1765
8 1533 1649 1766 1656 1403 1526 1648 1532
8 1662 1542 1658 1774 1539 1414 1535 1657
8 1542 1415 1543 1664 1658 1536 1659 1775
8 1660 1540 1663 1777 1538 1413 1541 1661
8 1545 1421 1548 1666 1660 1540 1663 1777
8 1662 1542 1414 1539 1778 1664 1541 1661
8 1664 1543 1416 1541 1779 1665 1544 1663
8 1548 1425 1550 1668 1663 1544 1665 1779
8 1547 1423 1549 1667 1666 1548 1668 1781
8 1670 1551 1668 1781 1553 1427 1549 1667
8 1551 1426 1552 1671 1668 1550 1669 1782
8 1670 1551 1427 1553 1784 1671 1554 1674
8 1675 1555 1672 1785 1554 1428 1552 1671
8 1678 1556 1673 1789 1558 1429 1555 1675
8 1561 1431 1558 1681 1674 1554 1675 1790
8 1794 1677 1556 1678 1680 1557 1429 1558
8 1560 1430 1559 1683 1680 1557 1679 1797
8 1561 1431 1560 1684 1681 1558 1680 1798
8 1563 1433 1564 1686 1683 1559 1682 1800
8 1684 1560 1432 1562 1801 1683 1563 1685
8 1565 1435 1566 1688 1685 1563 1686 1802
8 1566 1436 1567 1689 1686 1564 1687 1803
8 1568 1438 1569 1691 1688 1566 1689 1805
8 1569 1439 1570 1692 1689 1567 1690 1806
8 1571 1441 1572 1694 1691 1569 1692 1808
8 1442 1572 1692 1570 1573 1695 1809 1693
8 1574 1444 1575 1696 1694 1572 1695 1810
8 1614 1485 1592 1712 1699 1577 1697 1813
8 1579 1449 1577 1699 1701 1578 1698 1815
8 1615 1486 1614 1735 1702 1579 1699 1816
8 1701 1578 1700 1818 1581 1450 1580 1704
8 1582 1451 1579 1702 1705 1581 1701 1819
8 1704 1580 1703 1820 1584 1452 1583 1706
8 1705 1581 1704 1821 1585 1453 1584 1707
8 1707 1584 1706 1822 1587 1456 1586 1708
8 1710 1589 1506 1633 1824 1709 1632 1751
8 1594 1463 1589 1710 1716 1593 1709 1824
8 1752 1633 1710 1825 1634 1507 1590 1711
8 1595 1464 1590 1711 1717 1594 1710 1825
8 1830 1714 1592 1712 1733 1611 1485 1614
8 1603 1477 1593 1716 1725 1607 1715 1834
8 1599 1473 1594 1717 1721 1603 1716 1835
8 1837 1722 1623 1736 1718 1600 1496 1616
8 1719 1601 1722 1837 1597 1471 1600 1718
8 1602 1720 1598 1472 1723 1838 1719 1601
8 1720 1602 1473 1599 1839 1724 1603 1721
8 1723 1605 1726 1840 1601 1475 1604 1722
8 1840 1726 1628 1743 1722 1604 1501 1623
8 1724 1606 1727 1841 1602 1476 1605 1723
8 1725 1607 1728 1842 1603 1477 1606 1724
8 1612 1482 1608 1731 1733 1611 1730 1849
8 1741 1627 1730 1849 1622 1504 1608 1731
8 1613 1483 1609 1732 1734 1612 1731 1850
8 1618 1495 1622 1738 1732 1609 1731 1850
8 1615 1486 1612 1734 1735 1614 1733 1851
8 1852 1743 1626 1737 1736 1623 1499 1617
8 1853 1745 1625 1739 1737 1626 1500 1619
8 1855 1742 1622 1738 1740 1624 1497 1621
8 1856 1744 1624 1740 1739 1625 1498 1620
8 1741 1627 1504 1622 1857 1746 1631 1742
8 1742 1631 1505 1624 1858 1749 1630 1744
8 1859 1747 1629 1745 1743 1628 1502 1626
8 1860 1748 1630 1744 1745 1629 1503 1625
8 1644 1528 1651 1761 1751 1632 1750 1865
8 1637 1520 1644 1755 1752 1633 1751 1866
8 1754 1646 1522 1636 1867 1760 1643 1753
8 1657 1535 1658 1774 1753 1643 1760 1867
8 1639 1523 1646 1754 1756 1648 1763 1868
8 1641 1521 1645 1758 1755 1644 1761 1869
8 1757 1649 1526 1640 1870 1766 1648 1756
8 1642 1525 1649 1757 1759 1647 1765 1871
8 1759 1647 1762 1872 1642 1525 1645 1758
8 1760 1650 1767 1874 1646 1531 1655 1763
8 1658 1536 1659 1775 1760 1650 1767 1874
8 1762 1652 1768 1875 1645 1529 1651 1761
8 1764 1653 1769 1876 1647 1530 1652 1762
8 1656 1766 1877 1773 1532 1648 1763 1655
8 1771 1879 1765 1654 1653 1764 1647 1530
8 1533 1649 1765 1654 1656 1766 1880 1772
8 1662 1542 1664 1778 1774 1658 1775 1887
8 1664 1543 1665 1779 1775 1659 1776 1888
8 1778 1664 1541 1661 1890 1779 1663 1777
8 1666 1548 1668 1781 1777 1663 1779 1890
8 1782 1669 1780 1891 1668 1550 1665 1779
8 1670 1551 1671 1784 1781 1668 1782 1893
8 1671 1552 1672 1785 1782 1669 1783 1894
8 1790 1675 1785 1896 1674 1554 1671 1784
8 1675 1555 1673 1789 1785 1672 1786 1897
8 1792 1676 1788 1903 1678 1556 1673 1789
8 1795 1678 1789 1904 1681 1558 1675 1790
8 1792 1676 1556 1678 1906 1791 1677 1794
8 1680 1557 1679 1797 1794 1677 1793 1909
8 1910 1794 1678 1795 1798 1680 1558 1681
8 1683 1559 1682 1800 1797 1679 1796 1912
8 1684 1560 1683 1801 1798 1680 1797 1913
8 1686 1564 1687 1803 1800 1682 1799 1915
8 1685 1563 1686 1802 1801 1683 1800 1916
8 1688 1566 1689 1805 1802 1686 1803 1917
8 1689 1567 1690 1806 1803 1687 1804 1918
8 1691 1569 1692 1808 1805 1689 1806 1920
8 1692 1570 1693 1809 1806 1690 1807 1921
8 1694 1572 1695 1810 1808 1692 1809 1922
8 1829 1713 1811 1926 1712 1592 1697 1813
8 1813 1697 1812 1928 1699 1577 1698 1815
8 1735 1614 1712 1828 1816 1699 1813 1929
8 1815 1698 1814 1931 1701 1578 1700 1818
8 1702 1579 1699 1816 1819 1701 1815 1932
8 1818 1700 1817 1933 1704 1580 1703 1820
8 1819 1701 1818 1934 1705 1581 1704 1821
8 1821 1704 1820 1935 1707 1584 1706 1822
8 1824 1709 1632 1751 1937 1823 1750 1865
8 1716 1593 1709 1824 1834 1715 1823 1937
8 1825 1710 1633 1752 1938 1824 1751 1866
8 1717 1594 1710 1825 1835 1716 1824 1938
8 1945 1830 1712 1828 1851 1733 1614 1735
8 1830 1714 1831 1946 1712 1592 1713 1829
8 1947 1832 1714 1830 1849 1730 1611 1733
8 1843 1729 1607 1725 1950 1833 1715 1834
8 1721 1603 1716 1835 1836 1725 1834 1951
8 1836 1725 1842 1953 1721 1603 1724 1839
8 1723 1838 1719 1601 1840 1954 1837 1722
8 1954 1840 1743 1852 1837 1722 1623 1736
8 1724 1839 1720 1602 1841 1955 1838 1723
8 1841 1727 1844 1956 1723 1605 1726 1840
8 1956 1844 1747 1859 1840 1726 1628 1743
8 1728 1842 1724 1606 1845 1957 1841 1727
8 1725 1607 1729 1843 1842 1728 1846 1958
8 1741 1627 1746 1857 1849 1730 1848 1965
8 1734 1612 1731 1850 1851 1733 1849 1966
8 1854 1741 1849 1966 1738 1622 1731 1850
8 1967 1859 1745 1853 1852 1743 1626 1737
8 1968 1860 1744 1856 1853 1745 1625 1739
8 1854 1741 1622 1738 1969 1857 1742 1855
8 1855 1742 1624 1740 1970 1858 1744 1856
8 1857 1746 1631 1742 1971 1861 1749 1858
8 1858 1749 1630 1744 1972 1863 1748 1860
8 1859 1747 1862 1973 1745 1629 1748 1860
8 1875 1768 1864 1977 1761 1651 1750 1865
8 1755 1644 1761 1869 1866 1751 1865 1978
8 1867 1760 1874 1979 1754 1646 1763 1868
8 1774 1658 1775 1887 1867 1760 1874 1979
8 1870 1766 1648 1756 1980 1877 1763 1868
8 1872 1762 1875 1981 1758 1645 1761 1869
8 1757 1649 1766 1870 1871 1765 1880 1982
8 1983 1879 1764 1873 1871 1765 1647 1759
8 1873 1764 1876 1984 1759 1647 1762 1872
8 1877 1773 1655 1763 1986 1881 1767 1874
8 1775 1659 1776 1888 1874 1767 1881 1986
8 1876 1769 1882 1987 1762 1652 1768 1875
8 1878 1770 1883 1988 1764 1653 1769 1876
8 1880 1772 1656 1766 1989 1886 1773 1877
8 1878 1770 1653 1764 1990 1884 1771 1879
8 1765 1654 1772 1880 1879 1771 1885 1991
8 1778 1664 1779 1890 1887 1775 1888 1997
8 1998 1889 1776 1888 1891 1780 1665 1779
8 1893 1782 1891 2000 1781 1668 1779 1890
8 1894 1783 1892 2001 1782 1669 1780 1891
8 1784 1671 1785 1896 1893 1782 1894 2003
8 1897 1786 1895 2004 1785 1672 1783 1894
8 1790 1675 1789 1904 1896 1785 1897 2006
8 1901 1787 1898 2007 1789 1673 1786 1897
8 1903 1788 1900 2013 1789 1673 1787 1901
8 1792 1676 1791 1906 1903 1788 1902 2016
8 1907 1792 1903 2017 1795 1678 1789 1904
8 1906 1791 1677 1794 2019 1905 1793 1909
8 1907 1792 1678 1795 2020 1906 1794 1910
8 1797 1679 1796 1912 1909 1793 1908 2022
8 1798 1680 1797 1913 1910 1794 1909 2023
8 1800 1682 1799 1915 1912 1796 1911 2025
8 1801 1683 1800 1916 1913 1797 1912 2026
8 1803 1687 1804 1918 1915 1799 1914 2028
8 1802 1686 1803 1917 1916 1800 1915 2029
8 1805 1689 1806 1920 1917 1803 1918 2030
8 1806 1690 1807 1921 1918 1804 1919 2031
8 1808 1692 1809 1922 1920 1806 1921 2032
8 1939 1826 1924 2037 1829 1713 1811 1926
8 1926 1811 1925 2039 1813 1697 1812 1928
8 1944 1829 1926 2040 1828 1712 1813 1929
8 1928 1812 1927 2042 1815 1698 1814 1931
8 1929 1813 1928 2043 1816 1699 1815 1932
8 1931 1814 1930 2044 1818 1700 1817 1933
8 1932 1815 1931 2045 1819 1701 1818 1934
8 1934 1818 1933 2046 1821 1704 1820 1935
8 2048 1936 1823 1937 1977 1864 1750 1865
8 1950 1833 1715 1834 2048 1936 1823 1937
8 1938 1824 1751 1866 2049 1937 1865 1978
8 1835 1716 1824 1938 1951 1834 1937 2049
8 1939 1826 1713 1829 2053 1942 1831 1946
8 1940 1827 1923 2035 2053 1942 1826 1939
8 1945 1830 1946 2058 1828 1712 1829 1944
8 2059 1947 1830 1945 1966 1849 1733 1851
8 1947 1832 1730 1849 2060 1948 1848 1965
8 1947 1832 1948 2060 1830 1714 1831 1946
8 1959 1847 1729 1843 2063 1949 1833 1950
8 1952 1843 1725 1836 2064 1950 1834 1951
8 1836 1725 1843 1952 1953 1842 1958 2066
8 1953 1842 1957 2067 1839 1724 1841 1955
8 1841 1955 1838 1723 1956 2068 1954 1840
8 2068 1956 1859 1967 1954 1840 1743 1852
8 1956 1844 1960 2069 1859 1747 1862 1973
8 1845 1957 1841 1727 1960 2069 1956 1844
8 1728 1842 1957 1845 1846 1958 2071 1961
8 1962 2072 1959 1847 1846 1958 1843 1729
8 1971 1861 1964 2077 1857 1746 1848 1965
8 1854 1741 1857 1969 1966 1849 1965 2078
8 1967 1859 1973 2079 1853 1745 1860 1968
8 1970 1858 1744 1856 2080 1972 1860 1968
8 1969 1857 1742 1855 2081 1971 1858 1970
8 1971 1861 1749 1858 2082 1974 1863 1972
8 1973 1862 1975 2083 1860 1748 1863 1972
8 1987 1882 1976 2086 1875 1768 1864 1977
8 1981 1875 1977 2087 1869 1761 1865 1978
8 1980 1877 1763 1868 2088 1986 1874 1979
8 1887 1775 1888 1997 1979 1874 1986 2088
8 1880 1982 2089 1989 1766 1870 1980 1877
8 1984 1876 1987 2090 1872 1762 1875 1981
8 1765 1871 1983 1879 1880 1982 2091 1991
8 1985 1878 1764 1873 2092 1990 1879 1983
8 1985 1878 1988 2093 1873 1764 1876 1984
8 2094 1992 1881 1986 1998 1889 1776 1888
8 1986 1881 1992 2094 1877 1773 1886 1989
8 1988 1883 1993 2095 1876 1769 1882 1987
8 1878 1770 1884 1990 1988 1883 1994 2096
8 1991 1885 1772 1880 2097 1996 1886 1989
8 1879 1771 1885 1991 1990 1884 1995 2098
8 2103 1998 1888 1997 2000 1891 1779 1890
8 2104 1999 1889 1998 2001 1892 1780 1891
8 2003 1894 2001 2106 1893 1782 1891 2000
8 2004 1895 2002 2107 1894 1783 1892 2001
8 2006 1897 2004 2109 1896 1785 1894 2003
8 2007 1898 2005 2110 1897 1786 1895 2004
8 2014 1901 2007 2112 1904 1789 1897 2006
8 2011 1899 2008 2113 1901 1787 1898 2007
8 2119 2010 1899 2011 2013 1900 1787 1901
8 2016 1902 2012 2122 1903 1788 1900 2013
8 2017 1903 2013 2123 1904 1789 1901 2014
8 1906 1791 1905 2019 2016 1902 2015 2125
8 1907 1792 1906 2020 2017 1903 2016 2126
8 1909 1793 1908 2022 2019 1905 2018 2128
8 2020 1906 1794 1910 2129 2019 1909 2023
8 1912 1796 1911 2025 2022 1908 2021 2131
8 1913 1797 1912 2026 2023 1909 2022 2132
8 1915 1799 1914 2028 2025 1911 2024 2134
8 1916 1800 1915 2029 2026 1912 2025 2135
8 1918 1804 1919 2031 2028 1914 2027 2136
8 1917 1803 1918 2030 2029 1915 2028 2137
8 1920 1806 1921 2032 2030 1918 2031 2138
8 1940 1827 1941 2054 2035 1923 2033 2140
8 2035 1923 2034 2143 1939 1826 1924 2037
8 2037 1924 2036 2146 1926 1811 1925 2039
8 2051 1939 2037 2147 1944 1829 1926 2040
8 2039 1925 2038 2149 1928 1812 1927 2042
8 2040 1926 2039 2150 1929 1813 1928 2043
8 2042 1927 2041 2151 1931 1814 1930 2044
8 2043 1928 2042 2152 1932 1815 1931 2045
8 2045 1931 2044 2153 1934 1818 1933 2046
8 2155 2047 1936 2048 2086 1976 1864 1977
8 2063 1949 1833 1950 2155 2047 1936 2048
8 2156 2048 1937 2049 2087 1977 1865 1978
8 2064 1950 1834 1951 2156 2048 1937 2049
8 2051 1939 1829 1944 2160 2053 1946 2058
8 2052 1940 2035 2144 2160 2053 1939 2051
8 2053 1942 1831 1946 2163 2057 1948 2060
8 2055 1943 1827 1940 2163 2057 1942 2053
8 2055 1943 2056 2164 1940 1827 1941 2054
8 2059 1947 1849 1966 2167 2060 1965 2078
8 2059 1947 2060 2167 1945 1830 1946 2058
8 2077 1964 2061 2168 1965 1848 1948 2060
8 2070 1963 1847 1959 2170 2062 1949 2063
8 2065 1959 1843 1952 2171 2063 1950 2064
8 2173 2072 1958 2066 2065 1959 1843 1952
8 1953 1842 1958 2066 2067 1957 2071 2174
8 2068 1956 2069 2175 1967 1859 1973 2079
8 2067 1957 2069 2175 1955 1841 1956 2068
8 1845 1957 2069 1960 1961 2071 2176 2073
8 2069 1960 2073 2176 1973 1862 1975 2083
8 2070 1963 2075 2177 1959 1847 1962 2072
8 1846 1958 2071 1961 1962 2072 2178 2074
8 2077 1964 1861 1971 2182 2076 1974 2082
8 2081 1971 2077 2183 1969 1857 1965 2078
8 2079 1973 2083 2184 1968 1860 1972 2080
8 2081 1971 1858 1970 2185 2082 1972 2080
8 2083 1975 2084 2186 1972 1863 1974 2082
8 2086 1976 1882 1987 2189 2085 1993 2095
8 2090 1987 2086 2190 1981 1875 1977 2087
8 2191 2094 1986 2088 2103 1998 1888 1997
8 2088 1986 2094 2191 1980 1877 1989 2089
8 1991 2091 2192 2097 1880 1982 2089 1989
8 2093 1988 2095 2193 1984 1876 1987 2090
8 1879 1983 2092 1990 1991 2091 2194 2098
8 1985 1878 1990 2092 2093 1988 2096 2195
8 2097 1996 1886 1989 2196 2099 1992 2094
8 2196 2099 1992 2094 2104 1999 1889 1998
8 1994 2096 1988 1883 2100 2197 2095 1993
8 2096 1994 1884 1990 2198 2101 1995 2098
8 1995 2098 2199 2102 1885 1991 2097 1996
8 2203 2104 1998 2103 2106 2001 1891 2000
8 2107 2002 2105 2204 2001 1892 1999 2104
8 2109 2004 2107 2206 2003 1894 2001 2106
8 2110 2005 2108 2207 2004 1895 2002 2107
8 2112 2007 2110 2209 2006 1897 2004 2109
8 2113 2008 2111 2210 2007 1898 2005 2110
8 2120 2011 2113 2212 2014 1901 2007 2112
8 2117 2009 2114 2213 2011 1899 2008 2113
8 2219 2116 2009 2117 2119 2010 1899 2011
8 2222 2118 2010 2119 2122 2012 1900 2013
8 2223 2119 2011 2120 2123 2013 1901 2014
8 2016 1902 2015 2125 2122 2012 2121 2225
8 2126 2016 2122 2226 2017 1903 2013 2123
8 2019 1905 2018 2128 2125 2015 2124 2228
8 2020 1906 2019 2129 2126 2016 2125 2229
8 2022 1908 2021 2131 2128 2018 2127 2231
8 2023 1909 2022 2132 2129 2019 2128 2232
8 2025 1911 2024 2134 2131 2021 2130 2234
8 2026 1912 2025 2135 2132 2022 2131 2235
8 1914 2028 2134 2024 2027 2136 2236 2133
8 2029 1915 2028 2137 2135 2025 2134 2237
8 2030 1918 2031 2138 2137 2028 2136 2238
8 2157 2050 2139 2240 2054 1941 2033 2140
8 2052 1940 2054 2161 2144 2035 2140 2242
8 2140 2033 2141 2243 2035 1923 2034 2143
8 2143 2034 2142 2246 2037 1924 2036 2146
8 2144 2035 2143 2247 2051 1939 2037 2147
8 2146 2036 2145 2249 2039 1925 2038 2149
8 2147 2037 2146 2250 2040 1926 2039 2150
8 2149 2038 2148 2251 2042 1927 2041 2151
8 2150 2039 2149 2252 2043 1928 2042 2152
8 2152 2042 2151 2253 2045 1931 2044 2153
8 2255 2154 2047 2155 2189 2085 1976 2086
8 2170 2062 1949 2063 2255 2154 2047 2155
8 2256 2155 2048 2156 2190 2086 1977 2087
8 2171 2063 1950 2064 2256 2155 2048 2156
8 2258 2159 2050 2157 2164 2056 1941 2054
8 2160 2053 1946 2058 2262 2163 2060 2167
8 2162 2055 1940 2052 2262 2163 2053 2160
8 2162 2055 2164 2263 2052 1940 2054 2161
8 2163 2057 1948 2060 2264 2165 2061 2168
8 2055 1943 2057 2163 2164 2056 2165 2264
8 2182 2076 2166 2268 2077 1964 2061 2168
8 2183 2077 2168 2269 2078 1965 2060 2167
8 2070 1963 2062 2170 2177 2075 2169 2271
8 2172 2070 1959 2065 2272 2170 2063 2171
8 2172 2070 2177 2273 2065 1959 2072 2173
8 2066 1958 2072 2173 2174 2071 2178 2274
8 2067 1957 2071 2174 2175 2069 2176 2275
8 2175 2069 2176 2275 2079 1973 2083 2184
8 2071 1961 2074 2178 2176 2073 2179 2276
8 2176 2073 2179 2276 2083 1975 2084 2186
8 2072 1962 2075 2177 2178 2074 2180 2277
8 2182 2076 1974 2082 2280 2181 2084 2186
8 2183 2077 1971 2081 2281 2182 2082 2185
8 2184 2083 2186 2282 2080 1972 2082 2185
8 2189 2085 1993 2095 2285 2188 2100 2197
8 2190 2086 1987 2090 2286 2189 2095 2193
8 2192 2097 1989 2089 2287 2196 2094 2191
8 2287 2196 2094 2191 2203 2104 1998 2103
8 2194 2098 1991 2091 2288 2199 2097 2192
8 2195 2096 2197 2289 2093 1988 2095 2193
8 2096 2195 2290 2198 1990 2092 2194 2098
8 2097 1996 2099 2196 2199 2102 2200 2291
8 2196 2099 1999 2104 2291 2200 2105 2204
8 2100 2197 2292 2201 1994 2096 2198 2101
8 1995 2098 2198 2101 2102 2199 2293 2202
8 2206 2107 2204 2296 2106 2001 2104 2203
8 2207 2108 2205 2297 2107 2002 2105 2204
8 2209 2110 2207 2299 2109 2004 2107 2206
8 2210 2111 2208 2300 2110 2005 2108 2207
8 2212 2113 2210 2302 2112 2007 2110 2209
8 2213 2114 2211 2303 2113 2008 2111 2210
8 2220 2117 2213 2305 2120 2011 2113 2212
8 2216 2115 2214 2306 2117 2009 2114 2213
8 2216 2115 2009 2117 2311 2217 2116 2219
8 2219 2116 2010 2119 2314 2218 2118 2222
8 2315 2219 2117 2220 2223 2119 2011 2120
8 2122 2012 2121 2225 2222 2118 2221 2317
8 2318 2222 2119 2223 2226 2122 2013 2123
8 2125 2015 2124 2228 2225 2121 2224 2320
8 2126 2016 2125 2229 2226 2122 2225 2321
8 2128 2018 2127 2231 2228 2124 2227 2323
8 2129 2019 2128 2232 2229 2125 2228 2324
8 2131 2021 2130 2234 2231 2127 2230 2326
8 2132 2022 2131 2235 2232 2128 2231 2327
8 2134 2024 2133 2236 2234 2130 2233 2328
8 2135 2025 2134 2237 2235 2131 2234 2329
8 2137 2028 2136 2238 2237 2134 2236 2330
8 2157 2050 2158 2259 2240 2139 2239 2332
8 2257 2157 2240 2334 2161 2054 2140 2242
8 2240 2139 2241 2335 2140 2033 2141 2243
8 2242 2140 2243 2337 2144 2035 2143 2247
8 2243 2141 2244 2338 2143 2034 2142 2246
8 2246 2142 2245 2341 2146 2036 2145 2249
8 2247 2143 2246 2342 2147 2037 2146 2250
8 2249 2145 2248 2343 2149 2038 2148 2251
8 2250 2146 2249 2344 2150 2039 2149 2252
8 2252 2149 2251 2345 2152 2042 2151 2253
8 2169 2271 2347 2254 2062 2170 2255 2154
8 2189 2085 2188 2285 2255 2154 2254 2347
8 2348 2255 2155 2256 2286 2189 2086 2190
8 2272 2170 2063 2171 2348 2255 2155 2256
8 2349 2258 2157 2257 2263 2164 2054 2161
8 2258 2159 2261 2351 2157 2050 2158 2259
8 2258 2159 2056 2164 2351 2261 2165 2264
8 2262 2163 2060 2167 2355 2264 2168 2269
8 2162 2055 2163 2262 2263 2164 2264 2355
8 2357 2266 2165 2264 2268 2166 2061 2168
8 2268 2166 2076 2182 2361 2267 2181 2280
8 2281 2182 2268 2362 2183 2077 2168 2269
8 2271 2169 2270 2364 2177 2075 2180 2277
8 2172 2070 2170 2272 2273 2177 2271 2365
8 2072 2173 2274 2178 2177 2273 2366 2277
8 2071 2174 2275 2176 2178 2274 2367 2276
8 2275 2176 2276 2367 2184 2083 2186 2282
8 2283 2187 2084 2186 2368 2278 2179 2276
8 2178 2074 2180 2277 2276 2179 2278 2368
8 2283 2187 2279 2370 2186 2084 2181 2280
8 2281 2182 2082 2185 2371 2280 2186 2282
8 2188 2285 2374 2284 2100 2197 2292 2201
8 2286 2189 2095 2193 2375 2285 2197 2289
8 2192 2097 2196 2287 2288 2199 2291 2376
8 2287 2196 2104 2203 2376 2291 2204 2296
8 2194 2098 2199 2288 2290 2198 2293 2377
8 2289 2197 2096 2195 2378 2292 2198 2290
8 2291 2200 2105 2204 2379 2294 2205 2297
8 2199 2102 2200 2291 2293 2202 2294 2379
8 2198 2101 2202 2293 2292 2201 2295 2380
8 2299 2207 2297 2383 2206 2107 2204 2296
8 2300 2208 2298 2384 2207 2108 2205 2297
8 2302 2210 2300 2386 2209 2110 2207 2299
8 2303 2211 2301 2387 2210 2111 2208 2300
8 2305 2213 2303 2389 2212 2113 2210 2302
8 2306 2214 2304 2390 2213 2114 2211 2303
8 2310 2216 2306 2392 2220 2117 2213 2305
8 2308 2215 2307 2393 2216 2115 2214 2306
8 2308 2215 2115 2216 2396 2309 2217 2311
8 2310 2216 2117 2220 2398 2311 2219 2315
8 2311 2217 2116 2219 2399 2312 2218 2314
8 2314 2218 2118 2222 2402 2313 2221 2317
8 2315 2219 2119 2223 2403 2314 2222 2318
8 2225 2121 2224 2320 2317 2221 2316 2405
8 2226 2122 2225 2321 2318 2222 2317 2406
8 2228 2124 2227 2323 2320 2224 2319 2408
8 2229 2125 2228 2324 2321 2225 2320 2409
8 2231 2127 2230 2326 2323 2227 2322 2411
8 2232 2128 2231 2327 2324 2228 2323 2412
8 2234 2130 2233 2328 2326 2230 2325 2413
8 2235 2131 2234 2329 2327 2231 2326 2414
8 2237 2134 2236 2330 2329 2234 2328 2415
8 2259 2158 2260 2352 2332 2239 2331 2417
8 2257 2157 2259 2350 2334 2240 2332 2419
8 2240 2139 2239 2332 2335 2241 2333 2420
8 2334 2240 2335 2422 2242 2140 2243 2337
8 2335 2241 2336 2423 2243 2141 2244 2338
8 2337 2243 2338 2425 2247 2143 2246 2342
8 2338 2244 2339 2426 2246 2142 2245 2341
8 2341 2245 2340 2428 2249 2145 2248 2343
8 2342 2246 2341 2429 2250 2146 2249 2344
8 2344 2249 2343 2430 2252 2149 2251 2345
8 2188 2285 2347 2254 2284 2374 2432 2346
8 2347 2254 2346 2432 2271 2169 2270 2364
8 2365 2271 2170 2272 2433 2347 2255 2348
8 2286 2189 2285 2375 2348 2255 2347 2433
8 2349 2258 2351 2435 2257 2157 2259 2350
8 2349 2258 2164 2263 2435 2351 2264 2355
8 2259 2158 2261 2351 2352 2260 2354 2437
8 2356 2265 2354 2437 2264 2165 2261 2351
8 2441 2357 2264 2355 2362 2268 2168 2269
8 2356 2265 2165 2264 2442 2358 2266 2357
8 2443 2359 2266 2357 2361 2267 2166 2268
8 2370 2279 2360 2446 2280 2181 2267 2361
8 2362 2268 2182 2281 2447 2361 2280 2371
8 2180 2277 2368 2278 2270 2364 2449 2363
8 2271 2365 2273 2177 2364 2450 2366 2277
8 2372 2283 2186 2282 2451 2368 2276 2367
8 2178 2274 2367 2276 2277 2366 2451 2368
8 2283 2187 2278 2368 2370 2279 2369 2452
8 2372 2283 2370 2453 2282 2186 2280 2371
8 2284 2374 2455 2373 2201 2292 2380 2295
8 2375 2285 2197 2289 2456 2374 2292 2378
8 2376 2291 2204 2296 2457 2379 2297 2383
8 2288 2199 2291 2376 2377 2293 2379 2457
8 2198 2290 2378 2292 2293 2377 2458 2380
8 2293 2202 2294 2379 2380 2295 2381 2459
8 2384 2298 2381 2459 2297 2205 2294 2379
8 2386 2300 2384 2463 2299 2207 2297 2383
8 2387 2301 2385 2464 2300 2208 2298 2384
8 2389 2303 2387 2466 2302 2210 2300 2386
8 2390 2304 2388 2467 2303 2211 2301 2387
8 2392 2306 2390 2469 2305 2213 2303 2389
8 2393 2307 2391 2470 2306 2214 2304 2390
8 2395 2308 2393 2472 2310 2216 2306 2392
8 2308 2215 2309 2396 2393 2307 2394 2473
8 2395 2308 2216 2310 2475 2396 2311 2398
8 2396 2309 2217 2311 2476 2397 2312 2399
8 2398 2311 2219 2315 2478 2399 2314 2403
8 2399 2312 2218 2314 2479 2400 2313 2402
8 2317 2221 2316 2405 2402 2313 2401 2482
8 2403 2314 2222 2318 2483 2402 2317 2406
8 2320 2224 2319 2408 2405 2316 2404 2485
8 2321 2225 2320 2409 2406 2317 2405 2486
8 2323 2227 2322 2411 2408 2319 2407 2488
8 2324 2228 2323 2412 2409 2320 2408 2489
8 2326 2230 2325 2413 2411 2322 2410 2490
8 2327 2231 2326 2414 2412 2323 2411 2491
8 2329 2234 2328 2415 2414 2326 2413 2492
8 2417 2331 2260 2352 2494 2416 2353 2438
8 2350 2259 2352 2436 2419 2332 2417 2496
8 2332 2239 2331 2417 2420 2333 2418 2497
8 2334 2240 2332 2419 2422 2335 2420 2499
8 2420 2333 2421 2500 2335 2241 2336 2423
8 2422 2335 2423 2502 2337 2243 2338 2425
8 2423 2336 2424 2503 2338 2244 2339 2426
8 2425 2338 2426 2505 2342 2246 2341 2429
8 2426 2339 2427 2506 2341 2245 2340 2428
8 2429 2341 2428 2507 2344 2249 2343 2430
8 2432 2346 2284 2374 2509 2431 2373 2455
8 2432 2346 2431 2509 2364 2270 2363 2449
8 2375 2285 2374 2456 2433 2347 2432 2510
8 2347 2433 2365 2271 2432 2510 2450 2364
8 2350 2259 2351 2435 2436 2352 2437 2514
8 2440 2356 2437 2514 2355 2264 2351 2435
8 2352 2260 2354 2437 2438 2353 2439 2516
8 2356 2265 2358 2442 2437 2354 2439 2516
8 2440 2356 2264 2355 2518 2442 2357 2441
8 2519 2443 2357 2441 2447 2361 2268 2362
8 2443 2359 2444 2520 2357 2266 2358 2442
8 2443 2359 2267 2361 2520 2444 2360 2446
8 2446 2360 2279 2370 2523 2445 2369 2452
8 2453 2370 2446 2524 2371 2280 2361 2447
8 2449 2363 2448 2525 2368 2278 2369 2452
8 2366 2277 2364 2450 2451 2368 2449 2526
8 2372 2283 2368 2451 2453 2370 2452 2527
8 2455 2373 2295 2380 2529 2454 2382 2460
8 2456 2374 2292 2378 2530 2455 2380 2458
8 2377 2293 2379 2457 2458 2380 2459 2531
8 2463 2384 2459 2531 2383 2297 2379 2457
8 2533 2461 2382 2460 2459 2381 2295 2380
8 2464 2385 2461 2533 2384 2298 2381 2459
8 2466 2387 2464 2537 2386 2300 2384 2463
8 2467 2388 2465 2538 2387 2301 2385 2464
8 2469 2390 2467 2540 2389 2303 2387 2466
8 2470 2391 2468 2541 2390 2304 2388 2467
8 2472 2393 2470 2543 2392 2306 2390 2469
8 2393 2307 2394 2473 2470 2391 2471 2544
8 2395 2308 2396 2475 2472 2393 2473 2546
8 2396 2309 2397 2476 2473 2394 2474 2547
8 2475 2396 2311 2398 2549 2476 2399 2478
8 2476 2397 2312 2399 2550 2477 2400 2479
8 2478 2399 2314 2403 2552 2479 2402 2483
8 2479 2400 2313 2402 2553 2480 2401 2482
8 2405 2316 2404 2485 2482 2401 2481 2556
8 2406 2317 2405 2486 2483 2402 2482 2557
8 2408 2319 2407 2488 2485 2404 2484 2559
8 2409 2320 2408 2489 2486 2405 2485 2560
8 2411 2322 2410 2490 2488 2407 2487 2561
8 2412 2323 2411 2491 2489 2408 2488 2562
8 2414 2326 2413 2492 2491 2411 2490 2563
8 2513 2434 2493 2565 2438 2353 2416 2494
8 2496 2417 2352 2436 2567 2494 2438 2515
8 2494 2416 2495 2568 2417 2331 2418 2497
8 2419 2332 2417 2496 2499 2420 2497 2570
8 2497 2418 2498 2571 2420 2333 2421 2500
8 2499 2420 2500 2573 2422 2335 2423 2502
8 2500 2421 2501 2574 2423 2336 2424 2503
8 2502 2423 2503 2576 2425 2338 2426 2505
8 2503 2424 2504 2577 2426 2339 2427 2506
8 2505 2426 2506 2578 2429 2341 2428 2507
8 2509 2431 2373 2455 2580 2508 2454 2529
8 2509 2431 2508 2580 2449 2363 2448 2525
8 2432 2510 2581 2509 2374 2456 2530 2455
8 2432 2510 2450 2364 2509 2581 2526 2449
8 2583 2511 2434 2513 2516 2439 2353 2438
8 2436 2352 2437 2514 2515 2438 2516 2588
8 2440 2356 2442 2518 2514 2437 2516 2588
8 2442 2358 2444 2520 2516 2439 2517 2589
8 2519 2443 2520 2591 2441 2357 2442 2518
8 2519 2443 2361 2447 2591 2520 2446 2524
8 2446 2360 2445 2523 2520 2444 2521 2592
8 2525 2448 2522 2593 2452 2369 2445 2523
8 2524 2446 2370 2453 2594 2523 2452 2527
8 2526 2449 2525 2595 2451 2368 2452 2527
8 2534 2462 2528 2597 2460 2382 2454 2529
8 2530 2455 2380 2458 2598 2529 2460 2532
8 2599 2533 2460 2532 2531 2459 2380 2458
8 2537 2464 2533 2599 2463 2384 2459 2531
8 2534 2462 2382 2460 2601 2535 2461 2533
8 2538 2465 2535 2601 2464 2385 2461 2533
8 2540 2467 2538 2604 2466 2387 2464 2537
8 2541 2468 2539 2605 2467 2388 2465 2538
8 2543 2470 2541 2607 2469 2390 2467 2540
8 2470 2391 2471 2544 2541 2468 2542 2608
8 2472 2393 2473 2546 2543 2470 2544 2610
8 2473 2394 2474 2547 2544 2471 2545 2611
8 2475 2396 2476 2549 2546 2473 2547 2613
8 2476 2397 2477 2550 2547 2474 2548 2614
8 2549 2476 2399 2478 2616 2550 2479 2552
8 2479 2400 2480 2553 2550 2477 2551 2617
8 2552 2479 2402 2483 2619 2553 2482 2557
8 2482 2401 2481 2556 2553 2480 2554 2620
8 2485 2404 2484 2559 2556 2481 2555 2623
8 2486 2405 2485 2560 2557 2482 2556 2624
8 2488 2407 2487 2561 2559 2484 2558 2625
8 2489 2408 2488 2562 2560 2485 2559 2626
8 2491 2411 2490 2563 2562 2488 2561 2627
8 2513 2434 2512 2585 2565 2493 2564 2630
8 2586 2513 2565 2632 2515 2438 2494 2567
8 2565 2493 2566 2633 2494 2416 2495 2568
8 2567 2494 2568 2635 2496 2417 2497 2570
8 2568 2495 2569 2636 2497 2418 2498 2571
8 2570 2497 2571 2638 2499 2420 2500 2573
8 2571 2498 2572 2639 2500 2421 2501 2574
8 2573 2500 2574 2641 2502 2423 2503 2576
8 2574 2501 2575 2642 2503 2424 2504 2577
8 2576 2503 2577 2643 2505 2426 2506 2578
8 2597 2528 2579 2645 2529 2454 2508 2580
8 2580 2508 2579 2645 2525 2448 2522 2593
8 2581 2509 2455 2530 2646 2580 2529 2598
8 2581 2509 2580 2646 2526 2449 2525 2595
8 2583 2511 2582 2648 2513 2434 2512 2585
8 2583 2511 2439 2516 2648 2582 2517 2589
8 2649 2583 2513 2586 2588 2516 2438 2515
8 2589 2517 2444 2520 2653 2587 2521 2592
8 2518 2442 2520 2591 2588 2516 2589 2654
8 2593 2522 2590 2655 2523 2445 2521 2592
8 2524 2446 2523 2594 2591 2520 2592 2656
8 2595 2525 2593 2657 2527 2452 2523 2594
8 2602 2536 2596 2659 2534 2462 2528 2597
8 2600 2534 2597 2660 2532 2460 2529 2598
8 2600 2534 2460 2532 2661 2601 2533 2599
8 2604 2538 2601 2661 2537 2464 2533 2599
8 2602 2536 2462 2534 2663 2603 2535 2601
8 2601 2535 2465 2538 2663 2603 2539 2605
8 2607 2541 2605 2665 2540 2467 2538 2604
8 2608 2542 2606 2666 2541 2468 2539 2605
8 2543 2470 2544 2610 2607 2541 2608 2668
8 2544 2471 2545 2611 2608 2542 2609 2669
8 2546 2473 2547 2613 2610 2544 2611 2671
8 2547 2474 2548 2614 2611 2545 2612 2672
8 2549 2476 2550 2616 2613 2547 2614 2674
8 2550 2477 2551 2617 2614 2548 2615 2675
8 2552 2479 2553 2619 2616 2550 2617 2677
8 2553 2480 2554 2620 2617 2551 2618 2678
8 2557 2482 2556 2624 2619 2553 2620 2680
8 2556 2481 2555 2623 2620 2554 2621 2681
8 2559 2484 2558 2625 2623 2555 2622 2683
8 2560 2485 2559 2626 2624 2556 2623 2684
8 2562 2488 2561 2627 2626 2559 2625 2685
8 2690 2629 2564 2630 2650 2584 2512 2585
8 2586 2513 2585 2651 2632 2565 2630 2691
8 2630 2564 2631 2692 2565 2493 2566 2633
8 2632 2565 2633 2694 2567 2494 2568 2635
8 2633 2566 2634 2695 2568 2495 2569 2636
8 2635 2568 2636 2697 2570 2497 2571 2638
8 2636 2569 2637 2698 2571 2498 2572 2639
8 2638 2571 2639 2700 2573 2500 2574 2641
8 2639 2572 2640 2701 2574 2501 2575 2642
8 2641 2574 2642 2702 2576 2503 2577 2643
8 2597 2528 2596 2659 2645 2579 2644 2704
8 2645 2579 2644 2704 2593 2522 2590 2655
8 2660 2597 2645 2705 2598 2529 2580 2646
8 2646 2580 2645 2705 2595 2525 2593 2657
8 2650 2584 2512 2585 2707 2647 2582 2648
8 2648 2582 2517 2589 2707 2647 2587 2653
8 2649 2583 2648 2708 2586 2513 2585 2651
8 2649 2583 2516 2588 2708 2648 2589 2654
8 2655 2590 2652 2710 2592 2521 2587 2653
8 2654 2589 2520 2591 2711 2653 2592 2656
8 2657 2593 2655 2712 2594 2523 2592 2656
8 2602 2536 2603 2663 2659 2596 2658 2714
8 2662 2602 2659 2715 2600 2534 2597 2660
8 2662 2602 2534 2600 2717 2663 2601 2661
8 2661 2601 2538 2604 2717 2663 2605 2665
8 2666 2606 2664 2718 2605 2539 2603 2663
8 2668 2608 2666 2720 2607 2541 2605 2665
8 2608 2542 2609 2669 2666 2606 2667 2721
8 2610 2544 2611 2671 2668 2608 2669 2723
8 2611 2545 2612 2672 2669 2609 2670 2724
8 2613 2547 2614 2674 2671 2611 2672 2726
8 2614 2548 2615 2675 2672 2612 2673 2727
8 2616 2550 2617 2677 2674 2614 2675 2729
8 2617 2551 2618 2678 2675 2615 2676 2730
8 2619 2553 2620 2680 2677 2617 2678 2732
8 2620 2554 2621 2681 2678 2618 2679 2733
8 2624 2556 2623 2684 2680 2620 2681 2735
8 2681 2621 2555 2623 2736 2682 2622 2683
8 2626 2559 2625 2685 2684 2623 2683 2737
8 2688 2628 2584 2650 2740 2686 2647 2707
8 2688 2628 2687 2742 2650 2584 2629 2690
8 2690 2629 2689 2745 2630 2564 2631 2692
8 2746 2690 2630 2691 2709 2650 2585 2651
8 2691 2630 2692 2747 2632 2565 2633 2694
8 2692 2631 2693 2748 2633 2566 2634 2695
8 2694 2633 2695 2750 2635 2568 2636 2697
8 2695 2634 2696 2751 2636 2569 2637 2698
8 2697 2636 2698 2753 2638 2571 2639 2700
8 2698 2637 2699 2754 2639 2572 2640 2701
8 2700 2639 2701 2755 2641 2574 2642 2702
8 2659 2596 2658 2714 2704 2644 2703 2757
8 2704 2644 2703 2757 2655 2590 2652 2710
8 2660 2597 2659 2715 2705 2645 2704 2758
8 2705 2645 2704 2758 2657 2593 2655 2712
8 2759 2706 2647 2707 2710 2652 2587 2653
8 2709 2650 2585 2651 2760 2707 2648 2708
8 2708 2648 2589 2654 2760 2707 2653 2711
8 2712 2655 2710 2761 2656 2592 2653 2711
8 2763 2713 2658 2714 2718 2664 2603 2663
8 2662 2602 2663 2717 2715 2659 2714 2764
8 2720 2666 2718 2767 2665 2605 2663 2717
8 2768 2719 2664 2718 2721 2667 2606 2666
8 2668 2608 2669 2723 2720 2666 2721 2770
8 2669 2609 2670 2724 2721 2667 2722 2771
8 2671 2611 2672 2726 2723 2669 2724 2773
8 2672 2612 2673 2727 2724 2670 2725 2774
8 2674 2614 2675 2729 2726 2672 2727 2776
8 2675 2615 2676 2730 2727 2673 2728 2777
8 2677 2617 2678 2732 2729 2675 2730 2779
8 2678 2618 2679 2733 2730 2676 2731 2780
8 2680 2620 2681 2735 2732 2678 2733 2782
8 2733 2679 2621 2681 2783 2734 2682 2736
8 2735 2681 2623 2684 2784 2736 2683 2737
8 2740 2686 2647 2707 2787 2738 2706 2759
8 2688 2628 2686 2740 2742 2687 2739 2789
8 2743 2688 2650 2709 2790 2740 2707 2760
8 2742 2687 2741 2792 2690 2629 2689 2745
8 2743 2688 2742 2793 2709 2650 2690 2746
8 2745 2689 2744 2795 2692 2631 2693 2748
8 2746 2690 2745 2796 2691 2630 2692 2747
8 2747 2692 2748 2797 2694 2633 2695 2750
8 2748 2693 2749 2798 2695 2634 2696 2751
8 2750 2695 2751 2800 2697 2636 2698 2753
8 2751 2696 2752 2801 2698 2637 2699 2754
8 2753 2698 2754 2802 2700 2639 2701 2755
8 2763 2713 2756 2804 2714 2658 2703 2757
8 2759 2706 2652 2710 2804 2756 2703 2757
8 2715 2659 2714 2764 2758 2704 2757 2805
8 2758 2704 2757 2805 2712 2655 2710 2761
8 2806 2759 2707 2760 2761 2710 2653 2711
8 2765 2716 2762 2808 2718 2664 2713 2763
8 2809 2763 2714 2764 2767 2718 2663 2717
8 2765 2716 2664 2718 2811 2766 2719 2768
8 2813 2768 2718 2767 2770 2721 2666 2720
8 2814 2769 2719 2768 2771 2722 2667 2721
8 2723 2669 2724 2773 2770 2721 2771 2816
8 2724 2670 2725 2774 2771 2722 2772 2817
8 2726 2672 2727 2776 2773 2724 2774 2819
8 2727 2673 2728 2777 2774 2725 2775 2820
8 2729 2675 2730 2779 2776 2727 2777 2822
8 2730 2676 2731 2780 2777 2728 2778 2823
8 2732 2678 2733 2782 2779 2730 2780 2825
8 2780 2731 2679 2733 2826 2781 2734 2783
8 2782 2733 2681 2735 2827 2783 2736 2784
8 2830 2785 2738 2787 2804 2756 2706 2759
8 2789 2739 2686 2740 2832 2786 2738 2787
8 2790 2740 2707 2760 2833 2787 2759 2806
8 2742 2687 2739 2789 2792 2741 2788 2835
8 2743 2688 2740 2790 2793 2742 2789 2836
8 2792 2741 2791 2838 2745 2689 2744 2795
8 2793 2742 2792 2839 2746 2690 2745 2796
8 2795 2744 2794 2841 2748 2693 2749 2798
8 2796 2745 2795 2842 2747 2692 2748 2797
8 2797 2748 2798 2843 2750 2695 2751 2800
8 2798 2749 2799 2844 2751 2696 2752 2801
8 2800 2751 2801 2845 2753 2698 2754 2802
8 2808 2762 2803 2847 2763 2713 2756 2804
8 2809 2763 2804 2848 2764 2714 2757 2805
8 2806 2759 2710 2761 2848 2804 2757 2805
8 2765 2716 2766 2811 2808 2762 2807 2850
8 2810 2765 2808 2851 2767 2718 2763 2809
8 2810 2765 2718 2767 2852 2811 2768 2813
8 2811 2766 2719 2768 2853 2812 2769 2814
8 2855 2814 2768 2813 2816 2771 2721 2770
8 2856 2815 2769 2814 2817 2772 2722 2771
8 2773 2724 2774 2819 2816 2771 2817 2858
8 2774 2725 2775 2820 2817 2772 2818 2859
8 2776 2727 2777 2822 2819 2774 2820 2861
8 2777 2728 2778 2823 2820 2775 2821 2862
8 2779 2730 2780 2825 2822 2777 2823 2864
8 2823 2778 2731 2780 2865 2824 2781 2826
8 2825 2780 2733 2782 2866 2826 2783 2827
8 2869 2828 2785 2830 2847 2803 2756 2804
8 2871 2829 2786 2832 2830 2785 2738 2787
8 2872 2830 2787 2833 2848 2804 2759 2806
8 2789 2739 2786 2832 2835 2788 2831 2874
8 2836 2789 2740 2790 2875 2832 2787 2833
8 2792 2741 2788 2835 2838 2791 2834 2877
8 2793 2742 2789 2836 2839 2792 2835 2878
8 2838 2791 2837 2880 2795 2744 2794 2841
8 2839 2792 2838 2881 2796 2745 2795 2842
8 2841 2794 2840 2882 2798 2749 2799 2844
8 2842 2795 2841 2883 2797 2748 2798 2843
8 2843 2798 2844 2884 2800 2751 2801 2845
8 2886 2846 2803 2847 2850 2807 2762 2808
8 2851 2808 2847 2887 2809 2763 2804 2848
8 2850 2807 2766 2811 2889 2849 2812 2853
8 2810 2765 2811 2852 2851 2808 2850 2890
8 2852 2811 2768 2813 2891 2853 2814 2855
8 2853 2812 2769 2814 2892 2854 2815 2856
8 2894 2856 2814 2855 2858 2817 2771 2816
8 2817 2772 2818 2859 2856 2815 2857 2895
8 2819 2774 2820 2861 2858 2817 2859 2897
8 2820 2775 2821 2862 2859 2818 2860 2898
8 2822 2777 2823 2864 2861 2820 2862 2900
8 2823 2778 2824 2865 2862 2821 2863 2901
8 2864 2823 2780 2825 2902 2865 2826 2866
8 2904 2867 2828 2869 2886 2846 2803 2847
8 2869 2828 2868 2906 2830 2785 2829 2871
8 2907 2869 2830 2872 2887 2847 2804 2848
8 2871 2829 2870 2909 2832 2786 2831 2874
8 2910 2871 2832 2875 2872 2830 2787 2833
8 2835 2788 2831 2874 2877 2834 2873 2912
8 2836 2789 2832 2875 2878 2835 2874 2913
8 2877 2834 2876 2915 2838 2791 2837 2880
8 2839 2792 2835 2878 2881 2838 2877 2916
8 2880 2837 2879 2917 2841 2794 2840 2882
8 2881 2838 2880 2918 2842 2795 2841 2883
8 2883 2841 2882 2919 2843 2798 2844 2884
8 2921 2885 2846 2886 2889 2849 2807 2850
8 2922 2886 2847 2887 2890 2850 2808 2851
8 2889 2849 2812 2853 2924 2888 2854 2892
8 2890 2850 2811 2852 2925 2889 2853 2891
8 2891 2853 2814 2855 2926 2892 2856 2894
8 2892 2854 2815 2856 2927 2893 2857 2895
8 2858 2817 2859 2897 2894 2856 2895 2929
8 2859 2818 2860 2898 2895 2857 2896 2930
8 2861 2820 2862 2900 2897 2859 2898 2932
8 2862 2821 2863 2901 2898 2860 2899 2933
8 2864 2823 2865 2902 2900 2862 2901 2934
8 2904 2867 2846 2886 2936 2903 2885 2921
8 2904 2867 2903 2936 2869 2828 2868 2906
8 2937 2904 2869 2907 2922 2886 2847 2887
8 2906 2868 2905 2939 2871 2829 2870 2909
8 2907 2869 2906 2940 2872 2830 2871 2910
8 2909 2870 2908 2942 2874 2831 2873 2912
8 2910 2871 2909 2943 2875 2832 2874 2913
8 2912 2873 2911 2945 2877 2834 2876 2915
8 2878 2835 2874 2913 2916 2877 2912 2946
8 2915 2876 2914 2947 2880 2837 2879 2917
8 2916 2877 2915 2948 2881 2838 2880 2918
8 2918 2880 2917 2949 2883 2841 2882 2919
8 2921 2885 2849 2889 2951 2920 2888 2924
8 2952 2921 2886 2922 2925 2889 2850 2890
8 2924 2888 2854 2892 2954 2923 2893 2927
8 2925 2889 2853 2891 2955 2924 2892 2926
8 2926 2892 2856 2894 2956 2927 2895 2929
8 2895 2857 2896 2930 2927 2893 2928 2957
8 2897 2859 2898 2932 2929 2895 2930 2959
8 2898 2860 2899 2933 2930 2896 2931 2960
8 2900 2862 2901 2934 2932 2898 2933 2961
8 2936 2903 2885 2921 2963 2935 2920 2951
8 2936 2903 2935 2963 2906 2868 2905 2939
8 2937 2904 2886 2922 2964 2936 2921 2952
8 2937 2904 2936 2964 2907 2869 2906 2940
8 2939 2905 2938 2966 2909 2870 2908 2942
8 2940 2906 2939 2967 2910 2871 2909 2943
8 2942 2908 2941 2969 2912 2873 2911 2945
8 2943 2909 2942 2970 2913 2874 2912 2946
8 2945 2911 2944 2971 2915 2876 2914 2947
8 2946 2912 2945 2972 2916 2877 2915 2948
8 2948 2915 2947 2973 2918 2880 2917 2949
8 2951 2920 2888 2924 2975 2950 2923 2954
8 2952 2921 2889 2925 2976 2951 2924 2955
8 2927 2893 2928 2957 2954 2923 2953 2978
8 2955 2924 2892 2926 2979 2954 2927 2956
8 2929 2895 2930 2959 2956 2927 2957 2980
8 2930 2896 2931 2960 2957 2928 2958 2981
8 2932 2898 2933 2961 2959 2930 2960 2982
8 2951 2920 2950 2975 2963 2935 2962 2984
8 2963 2935 2962 2984 2939 2905 2938 2966
8 2964 2936 2921 2952 2985 2963 2951 2976
8 2964 2936 2963 2985 2940 2906 2939 2967
8 2966 2938 2965 2987 2942 2908 2941 2969
8 2967 2939 2966 2988 2943 2909 2942 2970
8 2969 2941 2968 2989 2945 2911 2944 2971
8 2970 2942 2969 2990 2946 2912 2945 2972
8 2972 2945 2971 2991 2948 2915 2947 2973
8 2954 2923 2953 2978 2975 2950 2974 2993
8 2976 2951 2924 2955 2994 2975 2954 2979
8 2957 2928 2958 2981 2978 2953 2977 2995
8 2956 2927 2957 2980 2979 2954 2978 2996
8 2959 2930 2960 2982 2980 2957 2981 2997
8 2984 2962 2983 2999 2966 2938 2965 2987
8 2975 2950 2974 2993 2984 2962 2983 2999
8 2976 2951 2975 2994 2985 2963 2984 3000
8 2985 2963 2984 3000 2967 2939 2966 2988
8 2987 2965 2986 3001 2969 2941 2968 2989
8 2988 2966 2987 3002 2970 2942 2969 2990
8 2990 2969 2989 3003 2972 2945 2971 2991
8 2978 2953 2977 2995 2993 2974 2992 3004
8 2979 2954 2978 2996 2994 2975 2993 3005
8 2980 2957 2981 2997 2996 2978 2995 3006
8 2974 2993 2999 2983 2992 3004 3007 2998
8 2983 2999 2987 2965 2998 3007 3001 2986
8 3000 2984 2999 3008 2988 2966 2987 3002
8 2994 2975 2993 3005 3000 2984 2999 3008
8 3002 2987 3001 3009 2990 2969 2989 3003
8 2996 2978 2995 3006 3005 2993 3004 3010
8 3005 2993 3004 3010 3008 2999 3007 3011
8 3008 2999 3007 3011 3002 2987 3001 3009

CELL_TYPES 1910
12
12
12
12
12
12
12
12
12
12
12
12
12
12
12
12
12
12
12
12
12
12
12
12
12
12
12
12
12
12
12
12
12
12
12
12
12
12
12
12
12
12
12
12
12
12
12
12
12
12
12
12
12
12
12
12
12
12
12
12
12
12
12
12
12
12
12
12
12
12
12
12
12
12
12
12
12
12
12
12
12
12
12
12
12
12
12
12
12
12
12
12
12
12
12
12
12
12
12
12
12
12
12
12
12
12
12
12
12
12
12
12
12
12
12
12
12
12
12
12
12
12
12
12
12
12
12
12
12
12
12
12
12
12
12
12
12
12
12
12
12
12
12
12
12
12
12
12
12
12
12
12
12
12
12
12
12
12
12
12
12
12
12
12
12
12
12
12
12
12
12
12
12
12
12
12
12
12
12
12
12
12
12
12
12
12
12
12
12
12
12
12
12
12
12
12
12
12
12
12
12
12
12
12
12
12
12
12
12
12
12
12
12
12
12
12
12
12
12
12
12
12
12
12
12
12
12
12
12
12
12
12
12
12
12
12
12
12
12
12
12
12
12
12
12
12
12
12
12
12
12
12
12
12
12
12
12
12
12
12
12
12
12
12
12
12
12
12
12
12
12
12
12
12
12
12
12
12
12
12
12
12
12
12
12
12
12
12
12
12
12
12
12
12
12
12
12
12
12
12
12
12
12
12
12
12
12
12
12
12
12
12
12
12
12
12
12
12
12
12
12
12
12
12
12
12
12
12
12
12
12
12
12
12
12
12
12
12
12
12
12
12
12
12
12
12
12
12
12
12
12
12
12
12
12
12
12
12
12
12
12
12
12
12
12
12
12
12
12
12
12
12
12
12
12
12
12
12
12
12
12
12
12
12
12
12
12
12
12
12
12
12
12
12
12
12
12
12
12
12
12
12
12
12
12
12
12
12
12
12
12
12
12
12
12
12
12
12
12
12
12
12
12
12
12
12
12
12
12
12
12
12
12
12
12
12
12
12
12
12
12
12
12
12
12
12
12
12
12
12
12
12
12
12
12
12
12
12
12
12
12
12
12
12
12
12
12
12
12
12
12
12
12
12
12
12
12
12
12
12
12
12
12
12
12
12
12
12
12
12
12
12
12
12
12
12
12
12
12
12
12
12
12
12
12
12
12
12
12
12
12
12
12
12
12
12
12
12
12
12
12
12
12
12
12
12
12
12
12
12
12
12
12
12
12
12
12
12
12
12
12
12
12
12
12
12
12
12
12
12
12
12
12
12
12
12
12
12
12
12
12
12
12
12
12
12
12
12
12
12
12
12
12
12
12
12
12
12
12
12
12
12
12
12
12
12
12
12
12
12
12
12
12
12
12
12
12
12
12
12
12
12
12
12
12
12
12
12
12
12
12
12
12
12
12
12
12
12
12
12
12
12
12
12
12
12
12
12
12
12
12
12
12
12
12
12
12
12
12
12
12
12
12
12
12
12
12
12
12
12
12
12
12
12
12
12
12
12
12
12
12
12
12
12
12
12
12
12
12
12
12
12
12
12
12
12
12
12
12
12
12
12
12
12
12
12
12
12
12
12
12
12
12
12
12
12
12
12
12
12
12
12
12
12
12
12
12
12
12
12
12
12
12
12
12
12
12
12
12
12
12
12
12
12
12
12
12
12
12
12
12
12
12
12
12
12
12
12
12
12
12
12
12
12
12
12
12
12
12
12
12
12
12
12
12
12
12
12
12
12
12
12
12
12
12
12
12
12
12
12
12
12
12
12
12
12
12
12
12
12
12
12
12
12
12
12
12
12
12
12
12
12
12
12
12
12
12
12
12
12
12
12
12
12
12
12
12
12
12
12
12
12
12
12
12
12
12
12
12
12
12
12
12
12
12
12
12
12
12
12
12
12
12
12
12
12
12
12
12
12
12
12
12
12
12
12
12
12
12
12
12
12
12
12
12
12
12
12
12
12
12
12
12
12
12
12
12
12
12
12
12
12
12
12
12
12
12
12
12
12
12
12
12
12
12
12
12
12
12
12
12
12
12
12
12
12
12
12
12
12
12
12
12
12
12
12
12
12
12
12
12
12
12
12
12
12
12
12
12
12
12
12
12
12
12
12
12
12
12
12
12
12
12
12
12
12
12
12
12
12
12
12
12
12
12
12
12
12
12
12
12
12
12
12
12
12
12
12
12
12
12
12
12
12
12
12
12
12
12
12
12
12
12
12
12
12
12
12
12
12
12
12
12
12
12
12
12
12
12
12
12
12
12
12
12
12
12
12
12
12
12
12
12
12
12
12
12
12
12
12
12
12
12
12
12
12
12
12
12
12
12
12
12
12
12
12
12
12
12
12
12
12
12
12
12
12
12
12
12
12
12
12
12
12
12
12
12
12
12
12
12
12
12
12
12
12
12
12
12
12
12
12
12
12
12
12
12
12
12
12
12
12
12
12
12
12
12
12
12
12
12
12
12
12
12
12
12
12
12
12
12
12
12
12
12
12
12
12
12
12
12
12
12
12
12
12
12
12
12
12
12
12
12
12
12
12
12
12
12
12
12
12
12
12
12
12
12
12
12
12
12
12
12
12
12
12
12
12
12
12
12
12
12
12
12
12
12
12
12
12
12
12
12
12
12
12
12
12
12
12
12
12
12
12
12
12
12
12
12
12
12
12
12
12
12
12
12
12
12
12
12
12
12
12
12
12
12
12
12
12
12
12
12
12
12
12
12
12
12
12
12
12
12
12
12
12
12
12
12
12
12
12
12
12
12
12
12
12
12
12
12
12
12
12
12
12
12
12
12
12
12
12
12
12
12
12
12
12
12
12
12
12
12
12
12
12
12
12
12
12
12
12
12
12
12
12
12
12
12
12
12
12
12
12
12
12
12
12
12
12
12
12
12
12
12
12
12
12
12
12
12
12
12
12
12
12
12
12
12
12
12
12
12
12
12
12
12
12
12
12
12
12
12
12
12
12
12
12
12
12
12
12
12
12
12
12
12
12
12
12
12
12
12
12
12
12
12
12
12
12
12
12
12
12
12
12
12
12
12
12
12
12
12
12
12
12
12
12
12
12
12
12
12
12
12
12
12
12
12
12
12
12
12
12
12
12
12
12
12
12
12
12
12
12
12
12
12
12
12
12
12
12
12
12
12
12
12
12
12
12
12
12
12
12
12
12
12
12
12
12
12
12
12
12
12
12
12
12
12
12
12
12
12
12
12
12
12
12
12
12
12
12
12
12
12
12
12
12
12
12
12
12
12
12
12
12
12
12
12
12
12
12
12
12
12
12
12
12
12
12
12
12
12
12
12
12
12
12
12
12
12
12
12
12
12
12
12
12
12
12
12
12
12
12
12
12
12
12
12
12
12
12
12
12
12
12
12
12
12
12
12
12
12
12
12
12
12
12
12
12
12
12
12
12
12
12
12
12
12
12
12
12
12
12
12
12
12
12
12
12
12
12
12
12
12
12
12
12
12
12
12
12
12
12
12
12
12
12
12
12
12
12
12
12
12
12
12
12
12
12
12
12
12
12
12
12
12
12
12
12
12
12
12
12
12
12
12
12
12
12
12
12
12
12
12
12
12
12
12
12
12
12
12
12
12
12
12
12
12
12
12
12
12
12
12
12
12
12
12
12
12
12
12
12
12
12
12
12
12
12
12
12
12
12
12
12
12
12
12
12
12
12
12
12
12
12
12
12
12
12
12
12
12
12
12
12
12
12
12
12
12
12
12
12
12
12
12
12
12
12
12
12
12
12
12
12
12
12
12
12
12
12
12
12
12
12
12
12
12
12
12
12
12
12
12
12
12
12
12
12
12
12
12
12
12
12
12
12
12
12
12
12
12
12
12
12
12
12
12
12
12
12
12
12
12
12
12
12
12
12
12
12
12
12
12
12
12
12
12
12
12
12
12
12
12
12
12
12
12
12
12
12
12
12
12
12
12
12
12
12
12
12
12
12
12
12
12
12
12
12
12
12
12
12
12
12
12
12
12
12
12
12
12
12
12
12
12
12
12
12
12
12
12
12
12
12
12
12
12
12
12
12
12
12
12
12
12
12
12
12
12
12
12
12
12
12
12
12
12
12
12
12
12
12
12
12
12
12
12
12
12
12
12
12
12
12
12
12
12
12
12
12
12
12
12
12
12
12
12
12
12
12
12
12
12
12
12
12
12
12
12
12
12
12
12
12
12
12
12
12
12
12
12
12
12
12
12
12
12
12
12
12
12
12
12
12
12
12
12
12
12
12
12
12
12
12
12
12
12
12
12
12
12
12
12
12
12
12
12
12
12
12
12
12
12
12
12
12
12
12
12
12
12
12
12
12
12
12
12
12

POINT_DATA 3012
SCALARS Jp_lamdaP float 4
LOOKUP_TABLE default
1 1 1 1
1 1 1 1
1 1 1 1
0.999997 1 1 0.999997
1 1 1 1
1 1 1 1
0.999921 1 1 0.999921
1 1 1 1
1 1 1 1
1 1 1 1
1 1 1 1
0.999982 1 1 0.999982
0.999988 1 1 0.999988
0.999998 1 1 0.999998
1 1 1 1
0.999998 1 1 0.999998
1 1 1 1
1 1 1 1
0.999921 1 1 0.999921
1 1 1 1
0.999995 1 1 0.999995
0.999999 1 1 0.999999
0.99986 1 1 0.99986
0.999904 1 1 0.999904
1 1 1 1
0.999939 1 1 0.999939
0.999766 1 1 0.999766
1 1 1 1
1 1 1 1
1 1 1 1
1 1 1 1
0.999985 1 1 0.999985
0.999999 1 1 0.999999
1 1 1 1
0.999941 1 1 0.999941
1 1 1 1
0.999972 1 1 0.999972
0.999991 1 1 0.999991
0.999802 1 1 0.999802
1 1 1 1
1 1 1 1
0.999998 1 1 0.999998
1 1 1 1
0.999995 1 1 0.999995
0.999865 1 1 0.999865
1 1 1 1
0.999909 1 1 0.999909
0.999998 1 1 0.999998
1 1 1 1
1 1 1 1
0.999922 1 1 0.999922
0.999994 1 1 0.999994
0.999995 1 1 0.999995
1 1 1 1
1 1 1 1
0.999862 1 1 0.999862
0.99994 1 1 0.99994
0.999905 1 1 0.999905
0.99976 1 1 0.99976
1 1 1 1
0.999992 1 1 0.999992
0.99988 1 1 0.99988
0.999846 1 1 0.999846
0.999884 1 1 0.999884
0.999618 1 1 0.999618
0.999706 1 1 0.999706
1 1 1 1
0.999961 1 1 0.999961
0.999808 1 1 0.999808
0.999562 1 1 0.999562
1 1 1 1
1 1 1 1
1 1 1 1
0.999987 1 1 0.999987
1 1 1 1
1 1 1 1
0.999946 1 1 0.999946
1 1 1 1
0.999975 1 1 0.999975
0.999994 1 1 0.999994
0.999801 1 1 0.999801
1 1 1 1
1 1 1 1
0.999927 1 1 0.999927
0.999958 1 1 0.999958
0.999682 1 1 0.999682
0.999999 1 1 0.999999
0.999783 1 1 0.999783
0.999822 1 1 0.999822
0.999652 1 1 0.999652
1 1 1 1
1 1 1 1
1 1 1 1
1 1 1 1
1 1 1 1
0.999996 1 1 0.999996
0.999874 1 1 0.999874
0.999999 1 1 0.999999
0.999911 1 1 0.999911
1 1 1 1
0.999845 1 1 0.999845
0.999895 1 1 0.999895
0.999495 1 1 0.999495
0.999919 1 1 0.999919
0.999552 1 1 0.999552
0.99999 1 1 0.99999
0.999996 1 1 0.999996
1 1 1 1
1 1 1 1
0.999863 1 1 0.999863
0.999907 1 1 0.999907
0.999941 1 1 0.999941
0.999755 1 1 0.999755
1 1 1 1
0.999993 1 1 0.999993
0.999848 1 1 0.999848
0.999847 1 1 0.999847
1 1 1 1
0.999975 1 1 0.999975
0.999885 1 1 0.999885
0.999605 1 1 0.999605
0.999801 1 1 0.999801
0.999715 1 1 0.999715
0.999563 1 1 0.999563
0.999853 1 1 0.999853
0.999841 1 1 0.999841
0.999528 1 1 0.999528
0.999568 1 1 0.999568
0.999651 1 1 0.999651
0.999418 1 1 0.999418
1 1 1 1
0.999531 1 1 0.999531
0.999998 1 1 0.999998
0.999817 1 1 0.999817
0.999594 1 1 0.999594
0.999481 1 1 0.999481
1 1 1 1
0.999881 1 1 0.999881
1 1 1 1
1 1 1 1
0.99995 1 1 0.99995
1 1 1 1
0.999997 1 1 0.999997
0.999978 1 1 0.999978
0.9998 1 1 0.9998
1 1 1 1
1 1 1 1
0.999931 1 1 0.999931
0.999962 1 1 0.999962
0.999683 1 1 0.999683
0.999999 1 1 0.999999
0.999783 1 1 0.999783
0.999822 1 1 0.999822
0.999647 1 1 0.999647
1 1 1 1
1 1 1 1
0.999893 1 1 0.999893
0.999627 1 1 0.999627
0.999741 1 1 0.999741
0.99951 1 1 0.99951
0.999848 1 1 0.999848
0.99963 1 1 0.99963
0.999663 1 1 0.999663
0.999587 1 1 0.999587
1 1 1 1
1 1 1 1
1 1 1 1
1 1 1 1
1 1 1 1
1 1 1 1
1 1 1 1
0.999912 1 1 0.999912
0.999874 1 1 0.999874
1 1 1 1
1 1 1 1
0.999846 1 1 0.999846
0.999897 1 1 0.999897
0.999495 1 1 0.999495
0.99992 1 1 0.99992
0.999553 1 1 0.999553
0.999838 1 1 0.999838
0.999461 1 1 0.999461
0.999527 1 1 0.999527
0.999327 1 1 0.999327
0.999584 1 1 0.999584
0.99939 1 1 0.99939
1 1 1 1
0.999995 1 1 0.999995
0.999815 1 1 0.999815
0.999848 1 1 0.999848
1 1 1 1
0.999989 1 1 0.999989
0.999887 1 1 0.999887
0.999592 1 1 0.999592
0.999723 1 1 0.999723
0.999795 1 1 0.999795
0.999564 1 1 0.999564
0.999851 1 1 0.999851
0.999842 1 1 0.999842
0.999502 1 1 0.999502
0.999576 1 1 0.999576
1 1 1 1
0.999997 1 1 0.999997
0.999828 1 1 0.999828
0.999652 1 1 0.999652
0.999403 1 1 0.999403
0.999592 1 1 0.999592
0.999537 1 1 0.999537
0.999483 1 1 0.999483
1 1 1 1
0.999881 1 1 0.999881
0.999467 1 1 0.999467
0.999552 1 1 0.999552
0.999349 1 1 0.999349
0.999353 1 1 0.999353
0.999489 1 1 0.999489
0.999343 1 1 0.999343
1 1 1 1
0.999454 1 1 0.999454
0.999835 1 1 0.999835
0.999637 1 1 0.999637
0.999511 1 1 0.999511
0.999459 1 1 0.999459
0.999856 1 1 0.999856
0.999917 1 1 0.999917
0.999691 1 1 0.999691
0.999934 1 1 0.999934
1 1 1 1
1 1 1 1
0.999967 1 1 0.999967
0.999684 1 1 0.999684
1 1 1 1
0.999821 1 1 0.999821
0.999783 1 1 0.999783
0.999642 1 1 0.999642
1 1 1 1
1 1 1 1
0.999893 1 1 0.999893
0.999627 1 1 0.999627
0.999743 1 1 0.999743
0.99951 1 1 0.99951
0.999849 1 1 0.999849
0.999636 1 1 0.999636
0.999662 1 1 0.999662
0.99958 1 1 0.99958
1 1 1 1
0.99987 1 1 0.99987
0.999921 1 1 0.999921
0.999716 1 1 0.999716
0.999456 1 1 0.999456
0.999584 1 1 0.999584
0.999425 1 1 0.999425
0.999687 1 1 0.999687
0.999566 1 1 0.999566
0.999565 1 1 0.999565
0.999532 1 1 0.999532
0.999979 1 1 0.999979
1 1 1 1
1 1 1 1
1 1 1 1
1 1 1 1
1 1 1 1
1 1 1 1
1 1 1 1
1 1 1 1
0.999922 1 1 0.999922
0.999897 1 1 0.999897
0.999553 1 1 0.999553
0.999495 1 1 0.999495
0.999848 1 1 0.999848
1 1 1 1
0.999837 1 1 0.999837
0.999462 1 1 0.999462
0.999527 1 1 0.999527
0.999327 1 1 0.999327
0.999584 1 1 0.999584
0.99939 1 1 0.99939
0.999451 1 1 0.999451
0.999293 1 1 0.999293
0.99936 1 1 0.99936
0.999277 1 1 0.999277
0.999421 1 1 0.999421
0.999334 1 1 0.999334
0.999849 1 1 0.999849
0.999842 1 1 0.999842
0.999477 1 1 0.999477
0.999585 1 1 0.999585
1 1 1 1
0.999995 1 1 0.999995
0.99984 1 1 0.99984
0.999653 1 1 0.999653
0.999387 1 1 0.999387
0.999544 1 1 0.999544
0.999589 1 1 0.999589
0.999484 1 1 0.999484
1 1 1 1
0.999881 1 1 0.999881
0.999458 1 1 0.999458
0.999552 1 1 0.999552
0.999343 1 1 0.999343
0.999369 1 1 0.999369
1 1 1 1
0.999835 1 1 0.999835
0.999647 1 1 0.999647
0.999489 1 1 0.999489
0.999339 1 1 0.999339
0.999499 1 1 0.999499
0.999455 1 1 0.999455
0.999458 1 1 0.999458
0.999857 1 1 0.999857
0.999687 1 1 0.999687
0.999916 1 1 0.999916
0.999323 1 1 0.999323
0.999356 1 1 0.999356
0.999263 1 1 0.999263
0.999293 1 1 0.999293
0.999411 1 1 0.999411
0.999346 1 1 0.999346
0.999845 1 1 0.999845
0.999441 1 1 0.999441
0.999687 1 1 0.999687
0.999539 1 1 0.999539
0.99944 1 1 0.99944
0.999481 1 1 0.999481
0.99995 1 1 0.99995
0.999693 1 1 0.999693
0.999693 1 1 0.999693
0.999616 1 1 0.999616
0.999628 1 1 0.999628
1 1 1 1
1 1 1 1
0.999893 1 1 0.999893
0.999744 1 1 0.999744
0.99951 1 1 0.99951
0.999849 1 1 0.999849
0.999661 1 1 0.999661
0.999642 1 1 0.999642
0.999573 1 1 0.999573
1 1 1 1
0.99987 1 1 0.99987
0.999921 1 1 0.999921
0.999715 1 1 0.999715
0.999455 1 1 0.999455
0.999585 1 1 0.999585
0.999425 1 1 0.999425
0.999687 1 1 0.999687
0.999573 1 1 0.999573
0.999563 1 1 0.999563
0.999548 1 1 0.999548
1 1 1 1
0.999944 1 1 0.999944
0.999704 1 1 0.999704
0.999736 1 1 0.999736
0.999613 1 1 0.999613
0.999381 1 1 0.999381
0.999504 1 1 0.999504
0.999394 1 1 0.999394
0.999581 1 1 0.999581
0.999524 1 1 0.999524
0.999463 1 1 0.999463
0.999971 1 1 0.999971
0.999837 1 1 0.999837
0.999986 1 1 0.999986
0.999981 1 1 0.999981
1 1 1 1
1 1 1 1
1 1 1 1
1 1 1 1
1 1 1 1
1 1 1 1
1 1 1 1
1 1 1 1
1 1 1 1
1 1 1 1
1 1 1 1
0.999585 1 1 0.999585
0.999527 1 1 0.999527
0.99939 1 1 0.99939
0.999327 1 1 0.999327
0.999462 1 1 0.999462
0.999837 1 1 0.999837
0.999451 1 1 0.999451
0.999293 1 1 0.999293
0.99936 1 1 0.99936
0.999274 1 1 0.999274
0.99942 1 1 0.99942
0.999334 1 1 0.999334
0.999281 1 1 0.999281
0.999246 1 1 0.999246
0.999302 1 1 0.999302
0.999266 1 1 0.999266
0.999359 1 1 0.999359
0.999356 1 1 0.999356
0.999449 1 1 0.999449
0.999552 1 1 0.999552
0.999337 1 1 0.999337
0.999385 1 1 0.999385
0.999999 1 1 0.999999
0.999835 1 1 0.999835
0.999657 1 1 0.999657
0.999489 1 1 0.999489
0.999336 1 1 0.999336
0.999455 1 1 0.999455
0.999488 1 1 0.999488
0.999457 1 1 0.999457
0.999858 1 1 0.999858
0.999683 1 1 0.999683
0.999916 1 1 0.999916
0.99931 1 1 0.99931
0.999356 1 1 0.999356
0.999256 1 1 0.999256
0.999296 1 1 0.999296
0.999846 1 1 0.999846
0.999686 1 1 0.999686
0.99955 1 1 0.99955
0.999416 1 1 0.999416
0.999352 1 1 0.999352
0.999431 1 1 0.999431
0.999441 1 1 0.999441
0.999486 1 1 0.999486
0.999694 1 1 0.999694
0.999607 1 1 0.999607
0.999948 1 1 0.999948
0.999697 1 1 0.999697
0.999235 1 1 0.999235
0.99927 1 1 0.99927
0.99922 1 1 0.99922
0.999285 1 1 0.999285
0.999412 1 1 0.999412
0.999374 1 1 0.999374
0.999698 1 1 0.999698
0.99949 1 1 0.99949
0.999597 1 1 0.999597
0.99946 1 1 0.99946
0.999392 1 1 0.999392
0.999485 1 1 0.999485
0.999967 1 1 0.999967
0.999728 1 1 0.999728
0.999621 1 1 0.999621
0.999598 1 1 0.999598
0.999578 1 1 0.999578
1 1 1 1
0.999455 1 1 0.999455
0.999922 1 1 0.999922
0.99987 1 1 0.99987
0.999714 1 1 0.999714
0.999586 1 1 0.999586
0.999425 1 1 0.999425
0.999687 1 1 0.999687
0.99956 1 1 0.99956
0.99958 1 1 0.99958
0.999564 1 1 0.999564
1 1 1 1
0.999946 1 1 0.999946
0.999704 1 1 0.999704
0.999736 1 1 0.999736
0.99961 1 1 0.99961
0.999379 1 1 0.999379
0.999505 1 1 0.999505
0.999391 1 1 0.999391
0.999582 1 1 0.999582
0.999529 1 1 0.999529
0.999471 1 1 0.999471
0.99996 1 1 0.99996
0.999763 1 1 0.999763
0.999601 1 1 0.999601
0.999624 1 1 0.999624
0.999563 1 1 0.999563
0.999363 1 1 0.999363
0.999465 1 1 0.999465
0.999429 1 1 0.999429
0.999487 1 1 0.999487
0.999412 1 1 0.999412
0.999973 1 1 0.999973
0.999795 1 1 0.999795
0.999826 1 1 0.999826
0.999727 1 1 0.999727
0.999847 1 1 0.999847
0.99999 1 1 0.99999
0.999987 1 1 0.999987
1 1 1 1
0.999983 1 1 0.999983
1 1 1 1
1 1 1 1
1 1 1 1
1 1 1 1
1 1 1 1
1 1 1 1
1 1 1 1
1 1 1 1
1 1 1 1
1 1 1 1
1 1 1 1
0.999419 1 1 0.999419
0.99936 1 1 0.99936
0.999334 1 1 0.999334
0.999272 1 1 0.999272
0.999293 1 1 0.999293
0.999451 1 1 0.999451
0.999281 1 1 0.999281
0.999241 1 1 0.999241
0.999302 1 1 0.999302
0.999265 1 1 0.999265
0.999358 1 1 0.999358
0.999355 1 1 0.999355
0.999223 1 1 0.999223
0.999236 1 1 0.999232
0.9993 1 1 0.9993
0.999257 1 1 0.999257
0.999364 1 1 0.999364
0.999377 1 1 0.999377
0.999298 1 1 0.999298
0.999356 1 1 0.999356
0.999248 1 1 0.999248
0.9993 1 1 0.9993
0.999846 1 1 0.999846
0.999685 1 1 0.999685
0.999562 1 1 0.999562
0.99942 1 1 0.99942
0.999358 1 1 0.999358
0.999442 1 1 0.999442
0.999421 1 1 0.999421
0.999491 1 1 0.999491
0.999696 1 1 0.999696
0.999599 1 1 0.999599
0.999945 1 1 0.999945
0.999702 1 1 0.999702
0.999236 1 1 0.999236
0.999272 1 1 0.999272
0.99922 1 1 0.99922
0.999286 1 1 0.999286
0.999698 1 1 0.999698
0.999606 1 1 0.999606
0.999459 1 1 0.999459
0.999408 1 1 0.999408
0.999397 1 1 0.999397
0.999387 1 1 0.999387
0.999491 1 1 0.999491
0.999501 1 1 0.999501
0.999622 1 1 0.999622
0.999575 1 1 0.999575
0.999596 1 1 0.999596
0.999951 1 1 0.999951
0.999733 1 1 0.999733
0.999203 1 1 0.999203
0.999211 1 1 0.999211
0.999308 1 1 0.999308
0.999448 1 1 0.999448
0.999631 1 1 0.999631
0.99954 1 1 0.99954
0.999535 1 1 0.999535
0.999356 1 1 0.999356
0.999351 1 1 0.999351
0.999952 1 1 0.999952
0.99979 1 1 0.99979
0.999626 1 1 0.999626
0.999595 1 1 0.999595
0.999526 1 1 0.999526
0.999547 1 1 0.999547
1 1 1 1
0.999947 1 1 0.999947
0.999378 1 1 0.999378
0.999735 1 1 0.999735
0.999704 1 1 0.999704
0.999606 1 1 0.999606
0.999505 1 1 0.999505
0.999388 1 1 0.999388
0.999583 1 1 0.999583
0.999479 1 1 0.999479
0.999533 1 1 0.999533
0.999962 1 1 0.999962
0.999763 1 1 0.999763
0.999606 1 1 0.999606
0.999623 1 1 0.999623
0.999557 1 1 0.999557
0.999362 1 1 0.999362
0.999462 1 1 0.999462
0.999434 1 1 0.999434
0.999481 1 1 0.999481
0.999399 1 1 0.999399
0.999789 1 1 0.999789
0.999627 1 1 0.999627
0.999532 1 1 0.999532
0.999544 1 1 0.999544
0.999516 1 1 0.999516
0.999468 1 1 0.999468
0.999391 1 1 0.999391
0.999419 1 1 0.999419
0.999416 1 1 0.999416
0.999286 1 1 0.999286
0.999976 1 1 0.999976
0.999803 1 1 0.999803
0.999673 1 1 0.999673
0.999815 1 1 0.999815
0.999847 1 1 0.999847
0.999712 1 1 0.999712
0.99963 1 1 0.99963
0.999708 1 1 0.999708
0.999857 1 1 0.999857
0.999992 1 1 0.999992
0.999991 1 1 0.999991
1 1 1 1
0.999988 1 1 0.999988
1 1 1 1
1 1 1 1
1 1 1 1
1 1 1 1
1 1 1 1
1 1 1 1
1 1 1 1
1 1 1 1
1 1 1 1
1 1 1 1
1 1 1 1
0.999357 1 1 0.999357
0.999303 1 1 0.999303
0.999355 1 1 0.999355
0.999263 1 1 0.999263
0.999237 1 1 0.999237
0.999282 1 1 0.999282
0.999221 1 1 0.999221
0.99924 1.00001 1 0.999234
0.999294 1 1 0.999294
0.999251 1 1 0.999251
0.999365 1 1 0.999365
0.999391 1 1 0.999391
0.999223 1.00001 1 0.999212
0.99928 1.00004 1 0.999241
0.999298 1 1 0.999298
0.999439 1 1 0.999439
0.999236 1 1 0.999236
0.999274 1 1 0.999274
0.999219 1 1 0.999219
0.999288 1 1 0.999288
0.999698 1 1 0.999698
0.999615 1 1 0.999615
0.999458 1 1 0.999458
0.999404 1 1 0.999404
0.99942 1 1 0.99942
0.999493 1 1 0.999493
0.999382 1 1 0.999382
0.999516 1 1 0.999516
0.999622 1 1 0.999622
0.999572 1 1 0.999572
0.999594 1 1 0.999594
0.999936 1 1 0.999936
0.999738 1 1 0.999738
0.999203 1 1 0.999203
0.999216 1 1 0.999216
0.999316 1 1 0.999316
0.99963 1 1 0.99963
0.999547 1 1 0.999547
0.999353 1 1 0.999353
0.999439 1 1 0.999439
0.999374 1 1 0.999374
0.999536 1 1 0.999536
0.999952 1 1 0.999952
0.999594 1 1 0.999594
0.999554 1 1 0.999554
0.999526 1 1 0.999526
0.999631 1 1 0.999631
0.999778 1 1 0.999778
0.999197 1 1 0.999197
0.999202 1 1 0.999202
0.999358 1 1 0.999358
0.999546 1.00003 1 0.999515
0.99959 1 1 0.99959
0.999418 1 1 0.999418
0.999425 1 1 0.999425
0.999275 1 1 0.999275
0.999964 1 1 0.999964
0.999822 1 1 0.999822
0.999667 1 1 0.999667
0.999514 1 1 0.999514
0.999557 1 1 0.999557
0.999498 1 1 0.999498
0.999964 1 1 0.999964
0.999763 1 1 0.999763
0.99936 1 1 0.99936
0.999622 1 1 0.999622
0.999612 1 1 0.999612
0.99955 1 1 0.99955
0.999459 1 1 0.999459
0.999438 1 1 0.999438
0.999475 1 1 0.999475
0.999386 1 1 0.999386
0.999789 1 1 0.999789
0.999631 1 1 0.999631
0.999541 1 1 0.999541
0.999549 1 1 0.999549
0.999521 1 1 0.999521
0.999468 1 1 0.999468
0.999395 1 1 0.999395
0.999453 1 1 0.999453
0.999408 1 1 0.999408
0.999271 1 1 0.999271
0.999651 1 1 0.999651
0.999531 1 1 0.999531
0.999466 1 1 0.999466
0.999477 1 1 0.999477
0.999597 1.00015 1 0.999446
0.999569 1.00021 0.999872 0.999492
0.999275 1 1 0.999275
1.00033 1 1.00107 0.999253
0.99981 1 1 0.99981
0.99968 1 1 0.99968
0.999599 1 1 0.999599
0.999847 1 1 0.999847
0.999696 1 1 0.999696
0.999857 1 1 0.999857
0.999618 1 1 0.999618
0.999714 1 1 0.999714
0.999554 1 1 0.999554
0.999617 1 1 0.999617
0.999717 1 1 0.999717
0.999862 1 1 0.999862
0.999993 1 1 0.999993
0.999992 1 1 0.999992
1 1 1 1
0.999991 1 1 0.999991
1 1 1 1
1 1 1 1
1 1 1 1
1 1 1 1
1 1 1 1
1 1 1 1
1 1 1 1
1 1 1 1
1 1 1 1
1 1 1 1
1 1 1 1
0.999365 1 1 0.999365
0.999289 1 1 0.999289
0.999405 1 1 0.999405
0.999246 1 1 0.999246
0.999236 1 1 0.999236
0.999219 1 1 0.999219
0.99922 1 1 0.999215
0.999263 1.00002 1 0.99924
0.999304 1 1 0.999304
0.999434 1 1 0.999434
0.999274 1.00005 1 0.999224
0.999368 1.0001 1 0.999273
0.999364 1 1 0.999364
0.999204 1 1 0.999204
0.999221 1 1 0.999221
0.999325 1 1 0.999325
0.999629 1 1 0.999629
0.999559 1 1 0.999559
0.999351 1 1 0.999351
0.99943 1 1 0.99943
0.999533 1 1 0.999533
0.999397 1 1 0.999397
0.999593 1 1 0.999593
0.999562 1 1 0.999562
0.999526 1 1 0.999526
0.999952 1 1 0.999952
0.999636 1 1 0.999636
0.999766 1 1 0.999766
0.999201 1 1 0.9992
0.999199 1 1 0.999199
0.999346 1 1 0.999346
0.999588 1 1 0.999588
0.999442 1 1 0.999442
0.999333 1 1.00005 0.99928
0.999663 1.00014 1 0.999523
0.999416 1 1 0.999416
0.999975 1 1 0.999975
0.999822 1 1 0.999822
0.999556 1 1 0.999556
0.999503 1 1 0.999503
0.99952 1 1 0.99952
0.999658 1 1 0.999658
0.999219 1 1 0.999219
0.999282 1.00006 1 0.999217
0.999755 1.00038 0.999905 0.999474
0.999963 1.00043 1 0.999529
0.999528 1 1 0.999528
1.0005 1 1.00127 0.999231
0.999342 1 1 0.999342
0.999996 1 1 0.999996
0.999885 1 1 0.999885
0.999826 1 1 0.999826
0.999679 1 1 0.999679
0.99955 1 1 0.99955
0.999444 1 1 0.999444
0.999536 1 1 0.999536
0.999474 1 1 0.999474
0.999789 1 1 0.999789
0.999636 1 1 0.999636
0.999469 1 1 0.999469
0.999554 1 1 0.999554
0.99955 1 1 0.99955
0.999525 1 1 0.999525
0.999399 1 1 0.999399
0.999486 1 1 0.999486
0.9994 1 1 0.9994
0.999255 1 1 0.999255
0.999648 1 1 0.999648
0.999539 1 1 0.999539
0.999474 1 1 0.999474
0.999484 1 1 0.999484
0.999509 1.00007 1 0.999441
0.999536 1.0001 0.999949 0.999489
0.999292 1 1 0.999292
1.00001 1 1.00077 0.999246
0.999573 1 1 0.999573
0.999361 1 1 0.999361
0.999473 1 1 0.999473
0.999473 1 1.00008 0.999389
1.00033 1.00113 0.999722 0.999479
0.999421 1.00016 1 0.999257
1.00099 1 1.00181 0.999181
0.999688 1 1 0.999688
0.999599 1 1 0.999599
0.99953 1 1 0.99953
0.999857 1 1 0.999857
0.99972 1 1 0.99972
0.999607 1 1 0.999607
0.999862 1 1 0.999862
0.999716 1 1 0.999716
0.999545 1 1 0.999545
0.999629 1 1 0.999629
0.999499 1 1 0.999499
0.999541 1 1 0.999541
0.999639 1 1 0.999639
0.999734 1 1 0.999734
0.999862 1 1 0.999862
0.999992 1 1 0.999992
0.999992 1 1 0.999992
1 1 1 1
0.999992 1 1 0.999992
1 1 1 1
1 1 1 1
1 1 1 1
1 1 1 1
1 1 1 1
0.999999 1 1 0.999999
1 1 1 1
1 1 1 1
1 1 1 1
1 1 1 1
1 1 1 1
1 1 1 1
0.999429 1 1 0.999429
0.99931 1 1 0.99931
0.999245 1 1 0.99924
0.999223 1.00001 1 0.999217
0.999254 1.00003 1 0.999229
0.999331 1.00006 1 0.999266
0.999378 1 1 0.999378
0.999354 1.00009 1 0.99926
0.999313 1.00002 1 0.999296
0.999379 1 1 0.999379
0.999204 1 1 0.999204
0.999197 1 1 0.999197
0.999334 1 1 0.999334
0.999586 1 1 0.999586
0.99946 1 1 0.99946
0.999285 1 1 0.999285
0.999756 1.00023 1 0.999531
0.999415 1 1 0.999415
0.999555 1 1 0.999555
0.999508 1 1 0.999508
0.999525 1 1 0.999525
0.999986 1 1 0.999986
0.999822 1 1 0.999822
0.99965 1 1 0.99965
0.999221 1 1 0.999221
0.999994 1 1 0.999994
0.999877 1 1 0.999877
0.999349 1.00013 1 0.999218
0.999834 1.00038 1 0.999453
0.999537 1 1 0.999537
0.999613 1 1.00029 0.999323
0.999823 1 1.00059 0.999237
0.999758 1.00023 1 0.999527
0.999848 1 1 0.999848
0.999678 1 1 0.999678
0.999533 1 1 0.999533
0.999496 1 1 0.999496
0.999431 1 1 0.999431
0.999552 1 1 0.999552
0.999471 1.00022 1 0.999247
0.999913 1.00061 1 0.999301
1.00039 1.00119 0.999601 0.999597
0.999341 1 1 0.999341
0.999658 1 1.00017 0.999486
1.00179 1 1.0026 0.999202
0.999885 1 1 0.999885
0.999867 1 1 0.999867
0.999775 1 1 0.999775
0.999685 1 1 0.999685
0.999584 1 1 0.999584
0.999457 1 1 0.999457
0.999375 1 1 0.999375
0.999498 1 1 0.999498
0.999644 1 1 0.999644
0.999547 1 1 0.999547
0.999436 1 1 0.999436
0.999486 1 1 0.999486
0.999491 1 1 0.999491
0.999483 1 1 0.999483
0.999308 1 1 0.999308
0.999722 1 1.00048 0.999239
0.999572 1 1 0.999572
0.999375 1 1 0.999375
0.999474 1 1 0.999474
0.9996 1 1.00022 0.999376
0.999876 1.00063 0.999776 0.999472
0.999568 1.00031 1 0.999262
1.00083 1 1.00165 0.99918
0.999494 1 1 0.999494
1.00564 1.00678 0.999451 0.999409
0.99942 1 1 0.99942
1.0005 1 1.00124 0.999268
0.997623 1.00112 0.997225 0.999278
1.00087 1 1.00174 0.999135
1.00586 1.00828 0.998322 0.99928
0.999599 1 1 0.999599
0.99953 1 1 0.99953
0.999483 1 1 0.999483
0.999862 1 1 0.999862
0.999715 1 1 0.999715
0.999641 1 1 0.999641
0.999536 1 1 0.999536
0.999862 1 1 0.999862
0.999727 1 1 0.999727
0.999496 1 1 0.999496
0.999639 1 1 0.999639
0.999551 1 1 0.999551
0.999477 1 1 0.999477
0.999574 1 1 0.999574
0.999647 1 1 0.999647
0.999716 1 1 0.999716
0.99984 1 1 0.99984
0.999752 1 1 0.999752
0.99984 1 1 0.99984
0.999991 1 1 0.999991
0.999992 1 1 0.999992
1 1 1 1
0.999992 1 1 0.999992
1 1 1 1
1 1 1 1
1 1 1 1
1 1 1 1
1 1 1 1
1 1 1 1
0.999998 1 1 0.999998
1 1 1 1
1 1 1 1
1 1 1 1
1 1 1 1
1 1 1 1
1 1 1 1
0.999391 1 1 0.999391
0.999301 1.00004 1 0.999259
0.999236 1 1 0.999234
0.999328 1.00007 1 0.999259
0.999366 1.00006 1 0.999303
0.999385 1 1 0.999385
0.999714 1.00039 1 0.99932
1.00294 1.00818 0.995308 0.999493
1.00441 1.00523 0.999705 0.999478
0.999913 1 1 0.999913
0.999224 1 1 0.999224
0.999417 1.0002 1 0.999219
0.999835 1.0004 1 0.999431
0.999546 1 1 0.999546
1.00013 1 1.00083 0.999304
0.999361 1 1.00012 0.999244
0.999565 1.00004 1 0.999526
0.99953 1 1 0.99953
0.999517 1 1 0.999517
0.999418 1 1 0.999418
0.999992 1 1 0.999992
0.999554 1 1 0.999554
0.99987 1 1 0.99987
0.999677 1 1 0.999677
0.999869 1 1 0.999869
0.999403 1.00016 1 0.999242
0.999894 1 1 0.999894
0.999866 1 1 0.999866
0.999758 1 1 0.999758
1.00011 1.00081 1 0.999305
0.999777 1.00074 0.999469 0.999569
0.999652 1 1.00016 0.999492
1.002 1 1.00281 0.999193
0.999508 1 1.00016 0.999346
0.999697 1 1 0.999697
0.999579 1 1 0.999579
0.999489 1 1 0.999489
0.999426 1 1.00004 0.999388
0.999466 1 1 0.999466
1.00071 1.00143 1.00004 0.999235
0.999274 1.00246 0.997374 0.999449
0.999735 1.0006 0.999716 0.999418
1.00098 1 1.00176 0.999221
1.0015 1 1.0021 0.999401
0.999759 1 1 0.999759
0.999716 1 1 0.999716
0.999665 1 1 0.999665
0.999592 1 1 0.999592
0.999508 1 1 0.999508
0.999403 1 1 0.999403
1.00096 1 1.00161 0.999351
0.999572 1 1 0.999572
0.999474 1 1 0.999474
0.99939 1 1 0.99939
0.999378 1.00012 0.99979 0.999465
0.999706 1.00044 1 0.999266
0.999725 1 1.00036 0.999362
1.00053 1 1.00135 0.999179
0.999501 1 1 0.999501
1.00551 1.00687 0.999226 0.999416
0.999423 1 1 0.999423
1.00043 1 1.00116 0.999268
0.998678 1.00151 0.997862 0.999305
1.00142 1 1.00229 0.999131
1.00763 1.01056 0.997806 0.999283
0.999449 1 1 0.999449
0.998392 1.00585 0.993282 0.999301
0.99952 1 1.00014 0.999385
1.00389 1 1.00469 0.999204
1.0005 1.00027 1.00109 0.999145
0.959552 0.963823 0.998797 0.996767
1.0031 1.00112 1.00318 0.998802
0.988764 1.00974 0.979873 0.999338
0.932343 0.946445 0.986215 0.998869
0.941736 0.972906 0.968679 0.99926
0.99953 1 1 0.99953
0.999485 1 1 0.999485
0.999454 1 1 0.999454
0.999862 1 1 0.999862
0.999719 1 1 0.999719
0.999638 1 1 0.999638
0.999561 1 1 0.999561
0.999494 1 1 0.999494
0.999636 1 1 0.999636
0.999849 1 1 0.999849
0.999725 1 1 0.999725
0.999483 1 1 0.999483
0.999571 1 1 0.999571
0.999582 1 1 0.999582
0.999504 1 1 0.999504
0.999617 1 1 0.999617
0.999715 1 1 0.999715
0.999839 1 1 0.999839
0.99974 1 1 0.99974
0.999653 1 1 0.999653
0.999724 1 1 0.999724
0.999736 1 1 0.999736
0.999856 1 1 0.999856
0.99984 1 1 0.99984
0.999991 1 1 0.999991
0.999991 1 1 0.999991
1 1 1 1
0.999992 1 1 0.999992
1 1 1 1
1 1 1 1
1 1 1 1
1 1 1 1
1 1 1 1
1 1 1 1
1 1 1 1
1 1 1 1
0.999998 1 1 0.999998
1 1 1 1
1 1 1 1
1 1 1 1
1 1 1 1
1 1 1 1
0.999416 1.00011 1 0.99931
0.999294 1.00004 1 0.999259
0.999392 1 1 0.999392
1.00428 1.00811 0.996705 0.9995
0.99979 1.00047 1 0.999315
1.00435 1.00504 0.999863 0.999445
1.00329 1.00403 1.00004 0.999224
0.97897 0.984914 0.995454 0.998504
1.00411 1.00519 0.999342 0.999581
0.999919 1 1 0.999919
0.999913 1 1 0.999913
0.999794 1 1 0.999794
0.999807 1 1 0.999807
0.999339 1.0001 1 0.999236
1.00032 1.00101 1 0.999308
0.999249 1.00023 0.999481 0.99954
0.999497 1 1 0.999497
1.00169 1 1.00251 0.999184
0.999482 1 1.00013 0.999352
0.999479 1 1 0.999479
0.9995 1 1.0001 0.999401
0.999476 1 1 0.999476
0.999866 1 1 0.999866
0.999574 1 1 0.999574
0.999709 1 1 0.999709
0.999904 1 1 0.999904
0.999741 1 1 0.999741
1.00044 1.00116 1.00003 0.99925
0.999777 1 1 0.999777
0.999727 1 1 0.999727
0.999664 1 1 0.999664
1.00027 1.00252 0.998305 0.999453
0.99926 1.0003 0.999541 0.999419
1.00125 1 1.00185 0.9994
1.00102 1 1.0018 0.999216
0.999596 1 1 0.999596
0.999511 1 1 0.999511
1.00036 1 1.00101 0.999351
0.999443 1 1.00005 0.999394
1.00426 1.00501 0.999954 0.9993
0.999825 1.00272 0.997704 0.999405
1.00003 1.00014 1.00073 0.999165
1.00105 1 1.00173 0.999317
0.999631 1 1 0.999631
0.999615 1 1 0.999615
0.999472 1 1 0.999472
1.00141 1 1.00212 0.999293
0.955801 0.963719 0.995113 0.996655
0.999509 1 1 0.999509
0.999425 1 1 0.999425
1.00542 1.0069 0.999103 0.999422
0.999818 1.00187 0.998622 0.999332
1.00212 1 1.003 0.999127
1.0006 1 1.00133 0.999268
1.0096 1.0127 0.997652 0.999287
0.999454 1 1 0.999454
0.998546 1.00621 0.993086 0.999294
0.999523 1 1.00014 0.999386
1.00366 1 1.00445 0.999208
0.999873 1.00039 1.00033 0.999157
0.958671 0.964303 0.997163 0.996988
0.997373 0.997534 1.00164 0.998204
0.992234 1.01152 0.98156 0.999362
0.938186 0.949089 0.989938 0.99856
0.935452 0.968546 0.96658 0.999225
0.999451 1 1 0.999451
0.94173 0.949735 0.993338 0.998221
0.955592 0.972581 0.983165 0.999356
0.980537 1.00178 0.979499 0.999278
1.00199 1 1.00262 0.99937
1.00882 1 1.00959 0.999241
0.996323 1.01017 0.986923 0.999363
0.970738 0.971028 1.00318 0.996534
1.00493 1.0042 1.00266 0.998067
0.933754 0.954331 0.979632 0.998781
0.981353 1.00415 0.977758 0.999526
0.999487 1 1 0.999487
0.999455 1 1 0.999455
0.999437 1 1 0.999437
0.999859 1 1 0.999859
0.999734 1 1 0.999734
0.999624 1 1 0.999624
0.999567 1 1 0.999567
0.999489 1 1 0.999489
0.999839 1 1 0.999839
0.999582 1 1 0.999582
0.999629 1 1 0.999629
0.999725 1 1 0.999725
0.999493 1 1 0.999493
0.999543 1 1 0.999543
0.999651 1 1.0002 0.999454
0.999631 1 1 0.999631
0.999734 1 1 0.999734
0.99974 1 1 0.99974
0.99964 1 1 0.99964
0.999642 1 1 0.999642
0.999626 1 1 0.999626
0.999578 1 1 0.999578
0.999572 1 1 0.999572
0.999704 1 1 0.999704
0.999724 1 1 0.999724
0.999849 1 1 0.999849
0.999721 1 1 0.999721
0.999847 1 1 0.999847
0.999989 1 1 0.999989
0.99984 1 1 0.99984
0.99999 1 1 0.99999
1 1 1 1
0.999991 1 1 0.999991
1 1 1 1
1 1 1 1
1 1 1 1
1 1 1 1
1 1 1 1
0.999915 1 1 0.999915
1 1 1 1
1 1 1 1
1 1 1 1
1 1 1 1
1 1 1 1
1 1 1 1
1 1 1 1
1 1 1 1
1 1 1 1
1.00572 1.00839 0.997837 0.999507
0.999865 1.00055 1 0.999311
1.00422 1.00481 1 0.999412
0.980635 0.98446 0.997234 0.998878
1.00436 1.00502 0.999752 0.999589
1.00348 1.00424 1.00003 0.999209
1.00584 1.00494 1.00159 0.999309
0.986615 0.986526 1.00136 0.998728
0.962831 0.967083 0.999564 0.996038
0.926472 0.946689 0.980547 0.99806
0.936981 0.964548 0.972142 0.999258
0.999789 1 1 0.999789
0.999919 1 1 0.999919
0.999913 1 1 0.999913
0.999789 1 1 0.999789
0.999708 1 1 0.999708
0.999728 1 1 0.999728
0.999792 1 1 0.999792
0.9998 1 1 0.9998
1.00017 1.00088 1.00003 0.999266
1.00122 1.00264 0.999126 0.999457
0.998817 1.00008 0.999317 0.999419
1.00131 1 1.00191 0.999399
1.00151 1 1.0023 0.999211
0.999797 1 1.00045 0.999351
0.999461 1 1.00008 0.999384
0.999515 1 1 0.999515
0.999738 1 1 0.999738
0.9996 1 1 0.9996
0.999794 1 1 0.999794
0.999664 1 1 0.999664
1.00423 1.00549 0.999465 0.999282
0.999638 1 1 0.999638
0.999617 1 1 0.999617
0.998997 1.00232 0.997283 0.999402
0.999683 1.00009 1.0004 0.999193
1.00157 1 1.00228 0.999297
0.999468 1 1 0.999468
1.00139 1 1.00209 0.999297
0.997088 1.00907 0.988864 0.999257
1.00229 1.00068 1.0024 0.999209
1.00025 1 1.00103 0.999216
1.00436 1 1.0051 0.999266
0.999562 1 1 0.999562
0.999504 1 1 0.999504
0.999899 1 1.00054 0.999356
0.938311 0.952542 0.986415 0.998626
0.961352 0.965575 0.998815 0.996808
0.999459 1 1 0.999459
0.999388 1 1 0.999388
0.9989 1.00679 0.992876 0.999286
0.999158 1.00055 0.999438 0.999168
1.00314 1 1.00393 0.999213
0.959608 0.964993 0.998395 0.996019
0.997821 0.998094 1.00089 0.99884
0.995924 1.01373 0.983042 0.999385
0.932832 0.948797 0.984965 0.998181
0.92845 0.963727 0.964177 0.99919
0.99945 1 1 0.99945
0.936321 0.951726 0.985091 0.998703
0.957371 0.970793 0.986793 0.999373
0.982993 1.00198 0.981766 0.999269
1.00139 1 1.00202 0.999374
1.00809 1 1.00884 0.999254
0.992397 1.0076 0.985553 0.999346
0.972024 0.972829 1.00293 0.996254
0.999792 0.999606 1.00148 0.998706
0.935555 0.954631 0.981854 0.998129
0.975021 1.00154 0.974016 0.999489
0.999427 1 1 0.999427
0.973709 0.976431 0.997662 0.999549
1.01531 1.01769 0.997914 0.999747
0.995263 1 0.995887 0.999373
1.00694 1 1.00746 0.999482
1.00845 1.00361 1.0052 0.999633
0.995046 0.996718 0.999098 0.999223
0.976202 0.973767 1.00613 0.996396
0.953119 0.975026 0.979397 0.998096
0.998497 1.01867 0.980559 0.999629
0.999456 1 1 0.999456
0.999431 1 1 0.999431
0.999849 1 1.00042 0.999428
0.999839 1 1 0.999839
0.999734 1 1 0.999734
0.999642 1 1 0.999642
0.999582 1 1 0.999582
0.999483 1 1 0.999483
0.999734 1 1 0.999734
0.999552 1 1 0.999552
0.99963 1 1 0.99963
0.999694 1 1.00024 0.999449
0.99998 1 1.00055 0.999425
0.99961 1 1.00009 0.999524
0.999636 1 1 0.999636
0.999739 1 1 0.999739
0.999628 1 1 0.999628
0.999642 1 1 0.999642
0.999626 1 1 0.999626
0.999575 1 1 0.999575
0.9996 1 1 0.9996
0.99957 1 1 0.99957
0.999535 1 1 0.999535
0.999509 1 1 0.999509
0.99952 1 1 0.99952
0.999559 1 1 0.999559
0.999573 1 1 0.999573
0.999679 1 1 0.999679
0.999703 1 1 0.999703
0.999836 1 1 0.999836
0.999724 1 1 0.999724
0.999849 1 1 0.999849
0.999987 1 1 0.999987
0.999839 1 1 0.999839
0.999989 1 1 0.999989
1 1 1 1
0.99999 1 1 0.99999
1 1 1 1
1 1 1 1
1 1 1 1
1 1 1 1
1 1 1 1
0.999922 1 1 0.999922
1 1 1 1
0.999915 1 1 0.999915
1 1 1 1
1 1 1 1
1 1 1 1
1 1 1 1
1 1 1 1
1 1 1 1
1 1 1 1
1 1 1 1
0.936005 0.949106 0.987367 0.998815
0.959892 0.972362 0.987684 0.999485
0.983614 0.98512 0.999295 0.999175
1.00447 1.00489 0.999984 0.999596
1.0037 1.00448 1.00003 0.999193
0.986138 0.985026 1.00172 0.999413
1.005 1.00488 1.0008 0.999317
0.965909 0.969268 0.999765 0.996768
0.933554 0.947803 0.986142 0.998808
0.93326 0.964913 0.967942 0.999229
1.00006 0.996704 1.00383 0.999542
0.972048 0.972805 1.00256 0.996673
0.93234 0.953504 0.979005 0.998773
0.975184 0.998344 0.977385 0.999403
0.999677 1 1 0.999677
0.999796 1 1 0.999796
0.999918 1 1 0.999918
0.999783 1 1 0.999783
0.999718 1 1 0.999718
0.999693 1 1 0.999693
0.99973 1 1 0.99973
0.999746 1 1 0.999746
0.999782 1 1 0.999782
0.999792 1 1 0.999792
1.00414 1.00585 0.999025 0.999265
0.998354 1.0019 0.997063 0.999399
0.99936 1.00001 1.00013 0.999221
1.00185 1 1.00258 0.999277
1.00127 1 1.00198 0.9993
0.999463 1 1 0.999463
0.999619 1 1 0.999619
0.999644 1 1 0.999644
0.99882 1.00851 0.991153 0.999228
0.999557 1 1 0.999557
0.999491 1 1 0.999491
1.00046 1.00047 1.0008 0.999185
1.00058 1 1.00133 0.999246
1.00341 1 1.00416 0.999253
1.00047 1 1.00112 0.999348
0.998201 1.01271 0.986571 0.999093
1.00815 1 1.00887 0.999287
1.00402 1 1.00476 0.999262
0.999551 1 1 0.999551
0.999475 1 1 0.999475
0.999384 1 1 0.999384
0.973504 0.97787 0.996065 0.999468
0.940255 0.951648 0.989897 0.998112
0.958708 0.965399 0.996415 0.996642
0.999449 1 1 0.999449
1.00093 1 1.00155 0.999378
0.985287 1.00208 0.983967 0.99926
1.00754 1 1.00828 0.999266
0.933725 0.950668 0.984051 0.998097
0.970178 0.972034 1.00085 0.997245
1.00093 1.00047 1.00235 0.998115
0.989079 1.00518 0.984634 0.999337
0.939066 0.954591 0.984861 0.998858
0.958597 0.972163 0.986709 0.999327
0.967023 0.995544 0.971918 0.999417
0.999425 1 1 0.999425
0.970296 0.975958 0.994701 0.999495
1.01475 1.01723 0.997815 0.999749
0.995889 1 0.996505 0.999382
1.00716 1 1.00768 0.999484
1.00875 1.00315 1.00634 0.999247
0.995387 0.996615 1.00043 0.998335
0.974914 0.975156 1.00346 0.9963
0.959611 0.978078 0.982162 0.998939
0.992179 1.01303 0.979849 0.999564
0.999776 1 1.00021 0.999567
1.02027 1.02066 0.999791 0.99982
1.02312 1.02594 0.997399 0.999852
1.00797 1 1.00825 0.99972
0.997622 0.992105 1.0059 0.99966
0.982163 0.980064 1.00581 0.996354
0.978537 0.993398 0.986033 0.998994
0.993195 1.01472 0.979235 0.999541
0.999424 1 1 0.999424
0.999796 1 1.00036 0.999441
1.00078 1 1.0013 0.999482
0.999734 1 1 0.999734
0.99963 1 1 0.99963
0.99956 1 1 0.99956
0.999725 1 1.00028 0.999443
0.999636 1 1 0.999636
0.999556 1 1.00003 0.999525
1.00036 1 1.00093 0.999425
1.00033 1 1.00086 0.999474
0.999655 1 1.00021 0.999443
0.999559 1 1 0.999559
0.999642 1 1 0.999642
0.999625 1 1 0.999625
0.999573 1 1 0.999573
0.999572 1 1 0.999572
0.9996 1 1 0.9996
0.999539 1 1 0.999539
0.999513 1 1 0.999513
0.99951 1 1 0.99951
0.999479 1 1 0.999479
0.999511 1 1 0.999511
0.999498 1 1 0.999498
0.999472 1 1 0.999472
0.999591 1 1 0.999591
0.999547 1 1 0.999547
0.999568 1 1 0.999568
0.999645 1 1 0.999645
0.999574 1 1 0.999574
0.999679 1 1 0.999679
0.999816 1 1 0.999816
0.999703 1 1 0.999703
0.999836 1 1 0.999836
0.999983 1 1 0.999983
0.999849 1 1 0.999849
0.999986 1 1 0.999986
1 1 1 1
0.999988 1 1 0.999988
1 1 1 1
1 1 1 1
1 1 1 1
1 1 1 1
1 1 1 1
0.999883 1 1 0.999883
1 1 1 1
0.999905 1 1 0.999905
1 1 1 1
1 1 1 1
0.999916 1 1 0.999916
1 1 1 1
1 1 1 1
1 1 1 1
1 1 1 1
1 1 1 1
1 1 1 1
0.973927 0.976679 0.997594 0.999587
0.937539 0.949651 0.988795 0.998433
1.01305 1.01784 0.995556 0.999741
0.956974 0.97002 0.987091 0.999452
0.982637 0.983685 1.00029 0.998647
1.00426 1.0049 1.00004 0.999327
0.96661 0.969125 0.999881 0.997524
0.931001 0.94847 0.983452 0.998099
0.929897 0.965447 0.96395 0.999199
0.997287 0.998005 1.00003 0.999254
0.971363 0.970836 1.00403 0.996522
0.934555 0.956854 0.97856 0.998095
0.975162 0.999011 0.976705 0.999408
0.999173 1.00424 0.995566 0.99939
0.972349 0.97118 1.00485 0.996371
0.962786 0.980842 0.982673 0.998899
0.996222 1.017 0.979977 0.999587
0.999612 1 1 0.999612
0.999688 1 1 0.999688
0.999804 1 1 0.999804
0.999727 1 1 0.999727
0.999632 1 1 0.999632
0.999701 1 1 0.999701
0.999733 1 1 0.999733
0.999733 1 1 0.999733
0.999756 1 1 0.999756
0.999772 1 1 0.999772
1.00064 1.00831 0.993186 0.999199
0.998526 1.00022 0.999148 0.999162
1.00087 1 1.00159 0.999276
1.00273 1 1.00349 0.99924
1.0011 1 1.00176 0.99934
0.999478 1 1 0.999478
0.999552 1 1 0.999552
0.999552 1 1 0.999552
0.997503 1.01035 0.988167 0.999106
0.999482 1 1 0.999482
0.999472 1 1.00009 0.999382
1.00712 1 1.00787 0.999259
1.00388 1 1.00462 0.999262
0.997583 1.01062 0.987884 0.999208
1.01725 1 1.01787 0.999382
1.00011 1 1.00078 0.999328
0.999493 1 1 0.999493
0.999387 1 1 0.999387
1.02122 1.02162 0.999768 0.999842
0.974357 0.977459 0.997287 0.999538
0.93969 0.952331 0.987934 0.998778
0.999423 1 1 0.999423
1.0072 1 1.00772 0.999486
0.99613 1 0.996738 0.99939
0.97473 0.977391 0.997702 0.999574
0.974653 0.972888 1.00557 0.996261
0.996696 0.996381 1.00123 0.999083
1.00827 1.002 1.00742 0.998837
0.954925 0.974528 0.981751 0.998099
1.01443 1.01702 0.997703 0.999751
0.991441 1.01173 0.980365 0.999568
0.999715 1 1.00014 0.999579
1.02044 1.02068 0.999921 0.999844
1.02438 1.02752 0.997088 0.999854
1.00849 0.999985 1.00889 0.999616
0.998731 0.994153 1.00522 0.999385
0.985364 0.982093 1.00709 0.996264
0.996227 1.01825 0.978767 0.999598
0.971728 0.988051 0.984851 0.998608
0.999975 1 1.00026 0.999711
1.02302 1.02477 0.998346 0.999946
1.02688 1.02964 0.997446 0.99987
0.997358 1.01598 0.982073 0.99959
1.00586 0.994224 1.01185 0.999855
0.983162 0.980535 1.00607 0.996625
0.966672 0.983895 0.983601 0.998876
0.999722 1 1.00027 0.999454
1.00054 1 1.00109 0.999448
1.00312 1 1.00355 0.999574
0.999636 1 1 0.999636
0.999526 1 1 0.999526
1.0008 1 1.00138 0.999426
0.999561 1 1 0.999561
0.999767 1 1.00033 0.999442
1.00072 1 1.00126 0.999452
0.999871 1 1.00035 0.999517
0.999474 1 1 0.999474
0.999574 1 1 0.999574
0.9996 1 1 0.9996
0.999544 1 1 0.999544
0.99951 1 1 0.99951
0.999515 1 1 0.999515
0.999484 1 1 0.999484
0.9995 1 1 0.9995
0.999792 1 1.00041 0.999383
0.999513 1 1 0.999513
0.999496 1 1 0.999496
0.999388 1 1 0.999388
0.999486 1 1 0.999486
0.999581 1 1 0.999581
0.999474 1 1 0.999474
0.999648 1 1 0.999648
0.999584 1 1 0.999584
0.999575 1 1 0.999575
0.999577 1 1 0.999577
0.999653 1 1 0.999653
0.999792 1 1 0.999792
0.999679 1 1 0.999679
0.999816 1 1 0.999816
0.999978 1 1 0.999978
0.999835 1 1 0.999835
0.999982 1 1 0.999982
1 1 1 1
0.999985 1 1 0.999985
1 1 1 1
1 1 1 1
1 1 1 1
1 1 1 1
1 1 1 1
0.999832 1 1 0.999832
0.999977 1 1 0.999977
0.999881 1 1 0.999881
1 1 1 1
0.999991 1 1 0.999991
0.999888 1 1 0.999888
1 1 1 1
1 1 1 1
1 1 1 1
1 1 1 1
1 1 1 1
1 1 1 1
1.02004 1.02056 0.999662 0.99983
0.968777 0.975667 0.993482 0.999453
0.940369 0.949731 0.991955 0.998173
0.999692 1 1 0.999692
1.02612 1.02889 0.997425 0.999882
1.01435 1.01822 0.996449 0.999743
0.953278 0.970548 0.982844 0.999351
0.994874 0.998841 0.997093 0.998933
0.972605 0.971501 1.00453 0.99662
0.938167 0.959599 0.978819 0.998821
0.973282 0.996781 0.977055 0.999355
0.999512 1.00773 0.993249 0.998585
0.973254 0.971943 1.00492 0.996448
0.962509 0.980787 0.982789 0.998549
0.993068 1.01531 0.97855 0.999537
0.98917 0.998827 0.991989 0.99833
0.977809 0.975319 1.00693 0.995654
0.972356 0.990608 0.983327 0.998219
0.993974 1.01689 0.97793 0.999525
0.999546 1 1 0.999546
0.999605 1 1 0.999605
0.999699 1 1 0.999699
0.999616 1 1 0.999616
0.999644 1 1 0.999644
0.999709 1 1 0.999709
0.999737 1 1 0.999737
0.999766 1 1 0.999766
0.996615 1.00783 0.989747 0.999118
1.0056 1 1.00637 0.999231
0.999554 1 1 0.999554
1.00364 1 1.00438 0.999263
0.999546 1 1.00017 0.999379
0.999489 1 1 0.999489
0.999494 1 1 0.999494
0.9995 1.00979 0.990591 0.999216
0.999395 1 1 0.999395
1.00092 1 1.0016 0.999322
1.01643 1 1.01708 0.999366
0.999493 1 1 0.999493
1.0025 1.00289 1.00006 0.999553
1.0131 1 1.01363 0.999471
0.999392 1 1 0.999392
0.999433 1 1 0.999433
1.02255 1.0233 0.999312 0.999951
1.02046 1.0209 0.999723 0.999845
0.975135 0.976927 0.998555 0.99961
0.999592 1 1 0.999592
1.00916 0.999979 1.00967 0.999514
1.02056 1.0207 0.999995 0.999868
0.981294 0.976977 1.00812 0.996328
1.00133 0.996474 1.00629 0.998592
0.970575 0.988825 0.983259 0.998255
1.02537 1.0288 0.996807 0.999856
0.9996 1.02222 0.978206 0.999656
1.00015 1 1.00047 0.99968
1.02394 1.02576 0.998278 0.999946
1.02651 1.02906 0.997638 0.999892
1.0069 0.995261 1.01177 0.999931
0.993753 1.01409 0.9804 0.999538
0.981302 0.98176 1.00274 0.9968
0.966982 0.985768 0.982756 0.998154
1.00647 0.998125 1.0086 0.999771
1.01812 1.02005 0.998144 0.999964
1.027 1.02915 0.998035 0.999879
0.975085 0.997852 0.977758 0.999413
0.971352 0.988961 0.983938 0.998228
1.00401 0.992532 1.01141 1.00015
0.977732 0.976356 1.00489 0.996537
1.0003 1 1.00089 0.999414
1.00224 1 1.00268 0.99956
1.0122 1 1.01262 0.999581
0.999564 1 1 0.999564
0.999806 1 1.00037 0.99944
1.00097 1 1.00154 0.99943
0.999475 1 1 0.999475
0.999947 1 1.00043 0.999514
1.00284 1 1.00337 0.999466
0.99951 1 1 0.99951
0.999517 1 1 0.999517
0.999655 1 1.00018 0.999476
1.00132 1 1.00194 0.999374
0.999522 1 1 0.999522
0.999616 1 1.00022 0.999401
1.00002 1 1.00073 0.999291
0.99936 1 1 0.99936
0.999494 1 1 0.999494
0.999373 1 1 0.999373
0.999535 1 1 0.999535
0.999568 1 1 0.999568
0.999499 1 1 0.999499
0.99965 1 1 0.99965
0.99958 1 1 0.99958
0.999476 1 1 0.999476
0.999773 1 1 0.999773
0.999645 1 1 0.999645
0.999578 1 1 0.999578
0.999662 1 1 0.999662
0.999792 1 1 0.999792
0.999969 1 1 0.999969
0.999815 1 1 0.999815
0.999976 1 1 0.999976
1 1 1 1
0.999981 1 1 0.999981
1 1 1 1
1 1 1 1
1 1 1 1
1 1 1 1
1 1 1 1
0.999807 1 1 0.999807
0.999962 1 1 0.999962
0.999842 1 1 0.999842
1 1 1 1
0.999976 1 1 0.999976
0.99988 1 1 0.99988
1 1 1 1
1 1 1 1
0.999982 1 1 0.999982
1 1 1 1
1 1 1 1
1 1 1 1
1.02364 1.0246 0.999119 0.999943
1.01997 1.02068 0.999473 0.999832
0.970335 0.975988 0.99475 0.999455
0.999696 1 1 0.999696
0.999667 1 1 0.999667
0.999618 1 1 0.999618
1.02595 1.02884 0.997318 0.99987
1.02694 1.02935 0.997777 0.999883
1.0163 1.01862 0.997973 0.999745
1.00526 1.01157 0.994471 0.999288
0.973586 0.97118 1.00608 0.996416
0.959031 0.977345 0.983126 0.998104
0.994663 1.01746 0.978011 0.99957
0.986536 0.997246 0.990185 0.999066
0.978852 0.975704 1.00683 0.99642
0.974184 0.990838 0.984273 0.998902
0.996244 1.01973 0.977368 0.999589
0.980157 0.990523 0.990349 0.999179
0.981153 0.977611 1.0071 0.996551
0.971834 0.987978 0.98483 0.998811
0.997077 1.01735 0.980436 0.999626
0.999529 1 1 0.999529
0.999546 1 1 0.999546
0.999598 1 1 0.999598
0.999615 1 1 0.999615
0.999656 1 1 0.999656
0.99974 1 1 0.99974
1.00222 1.00883 0.994221 0.999223
1.01583 1 1.01649 0.999351
0.999495 1 1 0.999495
1.00163 1 1.00231 0.999316
0.999402 1 1 0.999402
0.99949 1 1 0.99949
0.99943 1 1 0.99943
1.00324 1.0039 0.999801 0.999545
0.999405 1 1 0.999405
1.01307 0.999467 1.01412 0.999495
0.999459 1 1 0.999459
1.01816 0.9972 1.02127 0.999754
0.998809 0.998746 1.00044 0.999627
0.999404 1 1 0.999404
1.01396 1.01496 0.99904 0.999976
1.02132 1.02217 0.99921 0.999956
1.01968 1.02019 0.99965 0.999848
1.00036 1 1.00071 0.999649
1.00329 0.995013 1.00833 0.999986
1.02484 1.02672 0.998226 0.999945
0.987942 0.985238 1.00472 0.998032
0.974795 0.990523 0.985152 0.998954
1.02642 1.02856 0.998015 0.999913
0.995646 1.01631 0.980085 0.999572
1.00552 0.998872 1.00687 0.999788
1.0171 1.01866 0.998493 0.999967
1.02799 1.02961 0.998548 0.99988
1.00529 0.991479 1.01462 0.999313
0.97543 0.998732 0.977241 0.999414
0.972615 0.9892 0.984308 0.998908
0.980336 0.978331 1.00537 0.996697
1.02559 0.999969 1.02574 0.999889
1.02361 1.02436 0.999325 0.999942
1.01469 1.01821 0.996799 0.999737
0.935844 0.963303 0.972212 0.999262
0.960627 0.978942 0.982348 0.998924
0.987636 0.981739 1.00944 0.996602
0.98523 0.990012 0.996108 0.999058
1.00122 1 1.00167 0.999547
1.01327 1 1.01369 0.999586
1.01951 1 1.01998 0.999535
0.999475 1 1 0.999475
1.00006 1 1.00055 0.999511
1.00228 1 1.00281 0.999473
1.01006 1 1.01071 0.999358
0.999787 1 1.00032 0.999468
1.00154 1 1.00218 0.999355
1.0046 1 1.00538 0.999218
0.999418 1 1 0.999418
1.00045 1 1.00116 0.999288
1.00105 1 1.00184 0.999213
0.99928 1 1 0.99928
0.999478 1 1 0.999478
0.999406 1 1.00006 0.999346
0.999357 1 1 0.999357
0.999585 1 1 0.999585
0.999549 1 1 0.999549
0.999627 1 1 0.999627
0.999577 1 1 0.999577
0.999512 1 1 0.999512
0.999758 1 1 0.999758
0.999651 1 1 0.999651
0.999578 1 1 0.999578
0.999957 1 1 0.999957
0.999773 1 1 0.999773
0.999641 1 1 0.999641
0.999792 1 1 0.999792
0.999967 1 1 0.999967
1 1 1 1
0.999974 1 1 0.999974
1 1 1 1
1 1 1 1
1 1 1 1
1 1 1 1
1 1 1 1
0.999804 1 1 0.999804
0.999975 1 1 0.999975
0.999815 1 1 0.999815
1 1 1 1
0.999975 1 1 0.999975
0.999851 1 1 0.999851
1 1 1 1
1 1 1 1
0.999975 1 1 0.999975
1 1 1 1
1 1 1 1
1 1 1 1
1.01845 1.02005 0.998468 0.999963
1.02398 1.02503 0.999037 0.999943
1.01977 1.02078 0.999175 0.999834
0.999657 1 1 0.999657
0.999606 1 1 0.999606
0.999701 1 1 0.999701
0.999665 1 1 0.999665
0.999608 1 1 0.999608
0.999599 1 1 0.999599
0.999554 1 1 0.999554
1.02191 1.02434 0.997775 0.999852
1.02582 1.02859 0.997419 0.999892
1.0274 1.02981 0.997777 0.999884
0.999368 1.02316 0.977088 0.999653
0.989443 1.00164 0.989461 0.998344
0.980895 0.976564 1.00732 0.997136
0.973209 0.98745 0.987432 0.998123
0.982971 0.990811 0.993328 0.998752
0.98304 0.980146 1.0065 0.996477
0.971951 0.989871 0.98373 0.998136
0.99238 1.01349 0.979623 0.999542
0.979998 0.98434 0.996137 0.99945
0.975313 0.981305 0.997472 0.996412
0.98417 0.997698 0.987507 0.998921
0.982274 1.00317 0.979645 0.999518
0.99951 1 1 0.99951
0.999527 1 1 0.999527
0.999546 1 1 0.999546
0.999614 1 1 0.999614
1.00282 1.00489 0.998401 0.999536
1.0133 0.998836 1.01497 0.999519
0.999488 1 1 0.999488
0.999426 1 1 0.999426
0.999418 1 1 0.999418
0.999462 1 1 0.999462
0.999396 1 1 0.999396
1.00906 0.995122 1.01424 0.999764
0.999437 0.999332 1.00044 0.999666
0.999412 1 1 0.999412
1.02062 0.990812 1.03014 0.999939
1.00338 1 1.00395 0.999432
1.023 1.02342 0.999645 0.99995
1.01142 1.01227 0.999185 0.999981
1.02016 1.02102 0.999198 0.999961
1.00447 0.999556 1.00511 0.999805
1.00658 0.991361 1.01524 1.00011
1.01605 1.01731 0.998792 0.999971
0.977819 0.976239 1.0051 0.996535
0.970601 0.985386 0.986832 0.998139
1.02852 1.03006 0.998619 0.999881
0.973937 0.99638 0.978096 0.999366
1.02759 0.999097 1.02865 0.999873
1.02388 1.02477 0.999189 0.999942
1.01585 1.01859 0.997571 0.999739
0.989887 0.992653 0.997225 0.999989
0.932164 0.963607 0.968113 0.999233
0.959349 0.977882 0.982451 0.998571
0.989484 0.981714 1.0111 0.996851
1.01484 0.999095 1.01592 0.999835
1.02049 1.02063 1.00004 0.999826
0.960433 0.971763 0.988846 0.999489
0.930606 0.951695 0.979037 0.998778
0.980945 0.976644 1.00797 0.996459
0.985286 0.993063 0.993469 0.998692
1.01451 1 1.01492 0.99959
1.02018 1 1.02066 0.999533
1.01605 1 1.01662 0.999442
1.00178 1 1.0023 0.99948
1.01052 1 1.01115 0.999375
1.00778 1 1.00858 0.999209
1.00194 1 1.0026 0.999336
1.00459 1 1.00539 0.999202
1.00285 1 1.00373 0.999121
1.00093 1 1.00165 0.999285
1.00101 1 1.00181 0.999196
1.00068 1 1.0015 0.999176
0.999266 1 1 0.999266
0.999388 1 1 0.999388
0.999341 1 1.00008 0.999265
0.999554 1 1 0.999554
0.999487 1 1 0.999487
0.999454 1 1.00012 0.999333
0.999612 1 1 0.999612
0.999581 1 1 0.999581
0.999564 1 1 0.999564
0.999733 1 1 0.999733
0.999633 1 1 0.999633
0.999586 1 1 0.999586
0.999938 1 1 0.999938
0.999758 1 1 0.999758
0.999651 1 1 0.999651
1 1 1 1
0.999955 1 1 0.999955
0.999774 1 1 0.999774
0.999965 1 1 0.999965
1 1 1 1
1 1 1 1
1 1 1 1
1 1 1 1
1 1 1 1
0.999658 1 1 0.999658
0.999782 1 1 0.999782
0.999967 1 1 0.999967
0.999804 1 1 0.999804
1 1 1 1
0.999978 1 1 0.999978
0.999824 1 1 0.999824
1 1 1 1
1 1 1 1
0.999988 1 1 0.999988
1 1 1 1
1 1 1 1
1 1 1 1
1.02351 1.02425 0.999336 0.999945
1.01752 1.01872 0.998852 0.999967
1.02437 1.02547 0.998978 0.999943
0.999661 1 1 0.999661
0.9996 1 1 0.9996
0.999587 1 1 0.999587
0.999594 1 1 0.999594
0.999569 1 1 0.999569
0.999664 1 1 0.999664
0.999597 1 1 0.999597
0.9996 1 1 0.9996
0.999553 1 1 0.999553
0.999553 1 1 0.999553
1.01473 1.01583 0.999178 0.99974
1.02311 1.02583 0.997493 0.999854
1.02539 1.02809 0.997465 0.999913
0.991384 1.01199 0.980077 0.999548
0.977893 0.992691 0.986166 0.998912
0.983544 0.989706 0.995386 0.99838
0.978588 0.980735 1.00125 0.996569
0.983831 0.984411 1.00077 0.998639
0.979019 0.979666 1.00283 0.996522
0.976279 0.992286 0.985298 0.998549
0.976821 1.00073 0.976618 0.999482
1.00149 0.982912 1.0201 0.998822
0.979181 0.982082 1.00041 0.996634
0.954144 0.975996 0.979451 0.998122
0.943222 0.973528 0.969584 0.999263
0.999579 1 1 0.999579
0.999511 1 1 0.999511
0.999525 1 1 0.999525
1.00109 0.993534 1.00784 0.999774
1.00011 1 1.00041 0.999707
0.999465 1 1 0.999465
0.999389 1 1 0.999389
0.999453 1 1.00003 0.99942
1.00387 1 1.00444 0.999431
1.02058 0.992544 1.02831 0.99994
1.0038 1 1.00435 0.999451
1.01179 0.998077 1.01406 0.999691
1.02061 1.02078 1 0.999834
1.0217 1.02216 0.999593 0.999955
1.00886 1.00961 0.999277 0.999985
1.02946 0.998341 1.03132 0.999855
0.988532 0.991718 0.997865 0.99892
1.0242 1.02518 0.999098 0.999942
0.981772 0.980127 1.00595 0.995752
0.957149 0.975527 0.982986 0.998144
1.01764 1.01898 0.998948 0.999741
0.929224 0.964278 0.964416 0.999203
1.01515 0.999406 1.01592 0.999838
1.02052 1.0208 0.999899 0.999828
0.956919 0.969141 0.987927 0.999455
0.98175 0.991628 0.990878 0.999153
0.933274 0.955565 0.978517 0.998114
0.981576 0.977874 1.0078 0.996021
0.997506 0.999112 0.998725 0.999667
0.973874 0.976546 0.997674 0.999588
0.926937 0.946099 0.981643 0.998069
0.975265 0.973286 1.00566 0.996391
0.9985 0.998213 1.00114 0.999145
1.02043 1 1.02091 0.99953
1.0185 1 1.01907 0.99944
1.00004 1 1.00074 0.999307
1.01076 1 1.01138 0.999392
1.00731 1 1.00809 0.999221
1.00163 1 1.00249 0.999147
1.00438 1 1.0052 0.999185
1.00242 1 1.0033 0.999123
0.999233 1 1.00003 0.999199
1.00092 1 1.00175 0.99918
1.0003 1 1.00112 0.999182
0.999281 1 1 0.999281
0.999345 1 1 0.999345
0.999338 1 1 0.999338
0.999271 1 1 0.999271
0.999484 1 1 0.999484
0.99937 1 1 0.99937
0.9994 1 1.00015 0.999251
0.999616 1 1 0.999616
0.999566 1 1 0.999566
0.999497 1 1 0.999497
0.999705 1 1 0.999705
0.999614 1 1 0.999614
0.999577 1 1 0.999577
0.999912 1 1 0.999912
0.999733 1 1 0.999733
0.999639 1 1 0.999639
1 1 1 1
0.999938 1 1 0.999938
0.999759 1 1 0.999759
1 1 1 1
1 1 1 1
0.999953 1 1 0.999953
1 1 1 1
1 1 1 1
1 1 1 1
0.999637 1 1 0.999637
0.999762 1 1 0.999762
0.999653 1 1 0.999653
0.999959 1 1 0.999959
0.999782 1 1 0.999782
1 1 1 1
0.999969 1 1 0.999969
0.999803 1 1 0.999803
1 1 1 1
1 1 1 1
0.999981 1 1 0.999981
1 1 1 1
1 1 1 1
1 1 1 1
1.01936 1.01951 1 0.999856
1.02467 1.02543 0.999312 0.999944
1.01658 1.01744 0.999182 0.99997
0.999595 1 1 0.999595
0.999665 1 1 0.999665
0.999594 1 1 0.999594
0.999601 1 1 0.999601
0.999593 1 1 0.999593
0.999569 1 1 0.999569
0.999552 1 1 0.999552
0.999553 1 1 0.999553
0.999601 1 1 0.999601
0.999552 1 1 0.999552
0.999552 1 1 0.999552
0.999541 1 1 0.999541
0.958194 0.973263 0.985159 0.999348
1.01377 1.01497 0.99907 0.999742
1.02463 1.02756 0.997295 0.999855
0.970384 0.996075 0.974797 0.999396
0.977182 0.994266 0.98458 0.99821
0.974216 0.980504 0.997154 0.996423
0.986665 0.981283 1.00595 0.999533
1.00055 0.981565 1.01966 0.999682
0.937734 0.969133 0.968341 0.999237
0.982143 0.981382 1.00467 0.996126
0.956304 0.97622 0.980688 0.99889
0.995525 0.990295 1.00564 0.999646
0.9787 0.976579 1.00546 0.996731
0.931551 0.951965 0.979727 0.998804
1.0001 1 1.00041 0.999688
0.99958 1 1 0.99958
0.999513 1 1 0.999513
1.02023 0.994132 1.02632 0.999939
1.00449 1 1.00506 0.99943
0.999478 1 1.00005 0.999427
1.0041 1 1.00465 0.999453
1.01112 0.998929 1.01251 0.9997
1.00908 1 1.00939 0.999694
0.973107 0.977343 0.996238 0.999425
1.02013 1.02028 0.999986 0.99986
1.02046 1.02089 0.999616 0.999961
1.01545 0.999714 1.0159 0.999843
0.982874 0.993393 0.989924 0.999482
1.02045 1.02096 0.999666 0.99983
0.984357 0.979024 1.00828 0.997192
0.93686 0.958233 0.978842 0.998828
0.952411 0.969587 0.98292 0.999354
0.996963 0.999749 0.997532 0.99968
0.968241 0.975403 0.993199 0.999454
0.934422 0.946848 0.988045 0.998817
0.999329 0.997115 1.00383 0.998397
0.97683 0.975621 1.00481 0.996448
0.995156 1.00717 0.9886 0.999466
0.935778 0.94922 0.987 0.998824
0.973596 0.973214 1.0038 0.996608
1.00018 1.00406 0.997823 0.998303
1.02173 1 1.02231 0.999439
0.9981 1 0.998782 0.999317
0.993772 1.00014 0.994324 0.999301
1.00706 1 1.00783 0.999233
1.00159 1 1.00244 0.99915
0.999455 1.00014 1 0.999319
1.00207 1 1.00294 0.999126
0.999487 1 1.00028 0.999209
0.99941 1 1 0.99941
0.999931 1 1.00074 0.999189
0.999286 1 1 0.999286
0.999449 1 1 0.999449
0.99947 1 1 0.99947
0.999371 1 1 0.999371
0.999358 1 1 0.999358
0.999425 1 1 0.999425
0.99935 1 1 0.99935
0.999276 1 1 0.999276
0.999584 1 1 0.999584
0.999483 1 1 0.999483
0.999352 1 1 0.999352
0.999692 1 1 0.999692
0.999615 1 1 0.999615
0.999577 1 1 0.999577
0.999879 1 1 0.999879
0.999706 1 1 0.999706
0.999615 1 1 0.999615
1 1 1 1
0.999911 1 1 0.999911
0.999733 1 1 0.999733
1 1 1 1
1 1 1 1
0.999937 1 1 0.999937
1 1 1 1
1 1 1 1
1 1 1 1
0.999644 1 1 0.999644
0.999639 1 1 0.999639
0.999741 1 1 0.999741
0.999947 1 1 0.999947
0.999761 1 1 0.999761
0.999648 1 1 0.999648
1 1 1 1
0.99996 1 1 0.99996
0.999782 1 1 0.999782
1 1 1 1
1 1 1 1
0.999972 1 1 0.999972
1 1 1 1
1 1 1 1
1 1 1 1
0.973119 0.976019 0.997477 0.999551
1.01937 1.01952 1 0.999858
1.02579 1.02656 0.999304 0.999944
0.99959 1 1 0.99959
0.999604 1 1 0.999604
0.999566 1 1 0.999566
0.999608 1 1 0.999608
0.999599 1 1 0.999599
0.999569 1 1 0.999569
0.999555 1 1 0.999555
0.999554 1 1 0.999554
0.999522 1 1 0.999522
0.999547 1 1 0.999547
0.999552 1 1 0.999552
0.999542 1 1 0.999542
0.934381 0.948339 0.98642 0.998846
0.958116 0.971566 0.986775 0.999373
1.01306 1.01426 0.99907 0.999743
0.932327 0.965163 0.966742 0.99921
0.953358 0.973119 0.981529 0.99813
0.989353 0.986204 1.00583 0.997378
1.00695 0.981902 1.02676 0.998784
0.99611 0.990544 1.00684 0.998791
0.934388 0.953936 0.981313 0.99816
0.982945 0.980148 1.00585 0.997023
0.995967 0.991603 1.00559 0.998813
0.977304 0.975925 1.00477 0.996658
1.00772 1 1.00819 0.999535
0.999951 1 1.00027 0.999685
0.999581 1 1 0.999581
1.0102 0.999601 1.0109 0.999709
1.00439 1 1.00494 0.999455
1.00885 1 1.00918 0.999673
1.00163 1.00066 1.00146 0.999503
0.937163 0.953415 0.984278 0.998655
0.974016 0.977004 0.997426 0.999514
1.01953 1.01973 0.999918 0.999886
0.995485 1.00006 0.995732 0.999694
1.00051 0.99623 1.00515 0.999152
0.969842 0.975918 0.994316 0.999456
0.977261 0.974095 1.00684 0.996431
0.930829 0.947358 0.98442 0.998103
0.996118 1.00672 0.989998 0.999466
0.93737 0.949899 0.988368 0.998424
0.97388 0.972148 1.00531 0.996495
1.00119 1.00176 1.00039 0.999044
1.01 1.01204 0.998714 0.999267
0.963343 0.967187 1.00001 0.99601
0.9977 1.00177 0.996665 0.999267
0.996226 1 0.996897 0.999327
0.995249 1.00012 0.995836 0.999289
0.995768 1.00068 0.995723 0.999366
1.00148 1 1.00233 0.999153
0.999406 1.00018 0.999906 0.999317
0.999976 1.00099 0.999403 0.999579
0.999748 1 1.00053 0.999219
0.999412 1 1 0.999412
0.99972 1.00013 1 0.999591
0.999291 1 1 0.999291
0.999449 1 1 0.999449
0.99956 1 1 0.99956
0.999535 1 1 0.999535
0.999484 1 1 0.999484
0.999459 1 1 0.999459
0.999423 1 1 0.999423
0.999373 1 1 0.999373
0.999371 1 1 0.999371
0.999514 1 1 0.999514
0.999438 1 1 0.999438
0.999361 1 1 0.999361
0.999672 1 1 0.999672
0.999583 1 1 0.999583
0.999482 1 1 0.999482
0.999851 1 1 0.999851
0.999692 1 1 0.999692
0.999614 1 1 0.999614
1 1 1 1
0.999878 1 1 0.999878
0.999708 1 1 0.999708
1 1 1 1
1 1 1 1
0.99991 1 1 0.99991
1 1 1 1
1 1 1 1
1 1 1 1
0.999639 1 1 0.999639
0.999636 1 1 0.999636
0.999723 1 1 0.999723
0.999642 1 1 0.999642
0.999741 1 1 0.999741
0.999928 1 1 0.999928
1 1 1 1
0.999948 1 1 0.999948
0.999761 1 1 0.999761
1 1 1 1
1 1 1 1
0.999962 1 1 0.999962
1 1 1 1
1 1 1 1
1 1 1 1
0.943095 0.951541 0.992863 0.998248
0.971036 0.975994 0.99544 0.999477
1.01941 1.01956 1 0.99986
0.999585 1 1 0.999585
0.999563 1 1 0.999563
0.999609 1 1 0.999609
0.999606 1 1 0.999606
0.99957 1 1 0.99957
0.999556 1 1 0.999556
0.999556 1 1 0.999556
0.999525 1 1 0.999525
0.999551 1 1 0.999551
0.999516 1 1 0.999516
0.999682 1 1.00026 0.999425
0.999543 1 1 0.999543
0.999543 1 1 0.999543
0.973185 0.97684 1.00025 0.996011
0.939232 0.950705 0.989381 0.998536
0.958147 0.971744 0.986677 0.999322
0.936407 0.954776 0.981874 0.998866
0.979233 0.976352 1.00713 0.995845
0.999179 0.991502 1.00808 0.999663
0.997623 0.993697 1.0047 0.999255
0.977846 0.977312 1.00379 0.996763
0.992083 0.999022 0.994196 0.998852
1.00615 1.00132 1.0057 0.999135
1.00618 1 1.00666 0.999524
0.999681 1 1 0.999681
1.00769 1 1.00804 0.999655
1.00065 1.00093 1.00017 0.999552
0.957174 0.965271 0.994909 0.996685
0.940178 0.952647 0.988726 0.998165
0.975296 0.976747 0.998909 0.999605
0.996847 1.00663 0.990814 0.999465
1.00625 1.00602 1.00191 0.998314
0.940758 0.949926 0.992176 0.998157
0.974587 0.971796 1.0063 0.996592
1.00381 1.01088 0.993741 0.999261
0.965972 0.968854 1.00029 0.996732
0.998205 1.00413 0.995567 0.998522
0.999779 1.01026 0.990499 0.999123
0.998061 0.994352 1.00422 0.999508
0.995541 1.00007 0.996192 0.999276
0.995837 1.00057 0.995908 0.999354
0.999676 1.00449 0.995749 0.999453
0.999243 1.00019 0.999738 0.999315
0.999286 1.00057 0.999144 0.999575
0.99992 1.0012 0.99908 0.999638
0.999414 1 1 0.999414
0.999661 1.00008 0.999994 0.999582
0.999762 1.00017 0.999987 0.999605
0.999449 1 1 0.999449
0.999554 1 1 0.999554
0.99955 1 1 0.99955
0.99955 1 1 0.99955
0.999498 1 1 0.999498
0.999498 1 1 0.999498
0.999456 1 1 0.999456
0.999451 1 1 0.999451
0.999476 1 1 0.999476
0.99942 1 1 0.99942
0.999376 1 1 0.999376
0.99963 1 1 0.99963
0.999522 1 1 0.999522
0.999452 1 1 0.999452
0.999827 1 1 0.999827
0.999671 1 1 0.999671
0.999581 1 1 0.999581
1 1 1 1
0.999851 1 1 0.999851
0.999693 1 1 0.999693
1 1 1 1
1 1 1 1
0.999878 1 1 0.999878
1 1 1 1
1 1 1 1
1 1 1 1
0.999623 1 1 0.999623
0.99964 1 1 0.99964
0.999697 1 1 0.999697
0.999628 1 1 0.999628
0.999716 1 1 0.999716
0.9999 1 1 0.9999
0.99974 1 1 0.99974
0.999928 1 1 0.999928
1 1 1 1
1 1 1 1
1 1 1 1
0.999949 1 1 0.999949
1 1 1 1
1 1 1 1
1 1 1 1
0.967311 0.970669 0.999799 0.99674
0.939383 0.953932 0.985979 0.998752
0.973876 0.976922 0.99735 0.999531
0.99956 1 1 0.99956
0.999614 1 1 0.999614
0.999572 1 1 0.999572
0.999606 1 1 0.999606
0.999584 1 1 0.999584
0.999586 1 1 0.999586
0.999528 1 1 0.999528
0.999541 1 1 0.999541
0.999514 1 1 0.999514
0.999528 1 1 0.999528
0.999451 1 1 0.999451
0.999262 1 1.00011 0.999148
0.999489 1 1.00006 0.999432
0.999539 1 1 0.999539
0.990263 0.994079 0.99702 0.999139
0.97139 0.973864 1.00083 0.996629
0.933634 0.950197 0.984417 0.998122
0.975849 0.975169 1.00413 0.996582
0.994146 0.992419 1.00205 0.99969
0.992883 0.997044 0.996317 0.999509
0.997198 1.00467 0.993324 0.999237
1.00321 1.00064 1.00337 0.999195
1.00514 1 1.00563 0.999513
0.99858 1.00105 0.997932 0.999598
0.98749 0.986386 1.00245 0.998676
0.963329 0.966874 0.999492 0.99684
0.938601 0.952915 0.98615 0.998813
1.00019 1.00962 0.991401 0.999255
1.0044 1.00771 0.997564 0.999157
0.96704 0.96849 1.00103 0.997481
0.997488 1.00811 0.990312 0.99914
0.994647 0.994995 1.00044 0.999212
0.995143 1.00878 0.987228 0.999248
1.00554 1.00383 1.00249 0.999219
0.996602 1.00038 0.996877 0.999342
0.999501 1.00413 0.995935 0.999453
1.00049 1.00374 0.997308 0.999455
0.998845 1.00024 0.999038 0.99957
0.999789 1.00094 0.999214 0.999631
0.999805 1.00051 0.999799 0.999495
0.999573 1 1 0.999573
0.999661 1.00006 1 0.999597
0.999479 1 1 0.999479
0.999547 1 1 0.999547
0.999555 1 1 0.999555
0.999469 1 1 0.999469
0.999565 1 1 0.999565
0.999506 1 1 0.999506
0.999459 1 1 0.999459
0.999453 1 1 0.999453
0.999448 1 1 0.999448
0.999481 1 1 0.999481
0.999573 1 1 0.999573
0.999485 1 1 0.999485
0.999417 1 1 0.999417
0.999794 1 1 0.999794
0.999629 1 1 0.999629
0.999531 1 1 0.999531
0.999997 1 1 0.999997
0.999827 1 1 0.999827
0.99967 1 1 0.99967
1 1 1 1
0.999999 1 1 0.999999
0.999851 1 1 0.999851
1 1 1 1
1 1 1 1
1 1 1 1
0.999606 1 1 0.999606
0.999629 1 1 0.999629
0.999683 1 1 0.999683
0.999641 1 1 0.999641
0.999696 1 1 0.999696
0.99987 1 1 0.99987
0.999708 1 1 0.999708
0.9999 1 1 0.9999
1 1 1 1
0.999929 1 1 0.999929
1 1 1 1
1 1 1 1
1 1 1 1
1 1 1 1
1 1 1 1
0.983908 0.986272 0.998533 0.99907
0.961541 0.967849 0.996773 0.996699
0.936918 0.95325 0.984703 0.998135
0.99954 1 1 0.99954
0.999575 1 1 0.999575
0.999607 1 1 0.999607
0.999585 1 1 0.999585
0.999582 1 1 0.999582
0.999617 1 1 0.999617
0.999532 1 1 0.999532
0.999512 1 1 0.999512
0.999539 1 1 0.999539
0.999477 1 1 0.999477
0.999281 1 1 0.999281
1.00136 1.00243 1 0.998936
0.999281 1 1.00013 0.999152
0.999439 1 1 0.999439
0.998726 1.00338 0.996052 0.999307
0.991063 0.995444 0.996791 0.998805
0.973017 0.974818 1.00085 0.997302
0.995751 0.998524 0.998425 0.998797
1.00145 1.00561 0.996689 0.999166
1.00164 1.00008 1.00231 0.999257
0.999607 1.00008 1.00002 0.999509
0.988563 0.985341 1.00397 0.999298
0.960384 0.966694 0.99674 0.996722
0.993768 1.0059 0.988777 0.999155
0.991891 0.995188 0.997804 0.998881
0.997111 1.00864 0.98933 0.999228
1.00396 1.0033 1.00136 0.999299
1.00584 1.00715 0.999492 0.999213
1.00143 1.00227 1 0.999162
0.99926 1.00387 0.995951 0.999454
1.00163 1.00404 0.998138 0.99946
0.999523 1.00019 1 0.999337
0.999663 1.00066 0.999384 0.999625
1.00004 1.00059 0.999957 0.999493
0.999376 1.00003 1 0.999348
0.999589 1 1 0.999589
0.999495 1 1 0.999495
0.999374 1 1 0.999374
0.999559 1 1 0.999559
0.999469 1 1 0.999469
0.999418 1 1 0.999418
0.999514 1 1 0.999514
0.999462 1 1 0.999462
0.999459 1 1 0.999459
0.999446 1 1 0.999446
0.999474 1 1 0.999474
0.999549 1 1 0.999549
0.999754 1 1 0.999754
0.999582 1 1 0.999582
0.999494 1 1 0.999494
0.999988 1 1 0.999988
0.999794 1 1 0.999794
0.999629 1 1 0.999629
1 1 1 1
0.999995 1 1 0.999995
0.999827 1 1 0.999827
1 1 1 1
0.999999 1 1 0.999999
1 1 1 1
0.999566 1 1 0.999566
0.999607 1 1 0.999607
0.99967 1 1 0.99967
0.999634 1 1 0.999634
0.999687 1 1 0.999687
0.999843 1 1 0.999843
0.999694 1 1 0.999694
0.99987 1 1 0.99987
1 1 1 1
0.9999 1 1 0.9999
1 1 1 1
1 1 1 1
1 1 1 1
1 1 1 1
1 1 1 1
0.999844 1.00322 0.997094 0.999537
0.9836 0.987573 0.997533 0.99844
0.964603 0.968098 0.99961 0.996779
0.999564 1 1 0.999564
0.999444 1 1 0.999444
0.999548 1 1 0.999548
0.999583 1 1 0.999583
0.999579 1 1 0.999579
0.999606 1 1 0.999606
0.999349 1 1 0.999349
0.999551 1 1 0.999551
0.999503 1 1 0.999503
0.999289 1 1 0.999289
0.999451 1.00042 1 0.999031
1.00238 1.00372 0.999519 0.99915
1.00087 1.00192 1 0.998949
0.999156 1 1 0.999156
1.00068 1.00511 0.99625 0.999333
0.989184 0.994916 0.995821 0.998411
1.00406 1.00629 0.998694 0.999096
0.999666 1.00015 1 0.999516
1.0007 1.00001 1.00116 0.999534
0.986629 0.98512 1.00298 0.998556
0.999514 1.00881 0.991574 0.999208
1.00239 1.00274 1.00027 0.999382
1.006 1.00759 0.999187 0.999229
1.00191 1.00272 1 0.999197
1.00057 1.00133 1 0.999239
1.00022 1.00083 1 0.999386
1.00274 1.00434 0.998947 0.999466
0.999657 1.00031 1 0.999343
0.999246 1 1 0.999246
1.00014 1.00065 1 0.999491
0.999425 1.00007 1 0.999357
0.999283 1 1 0.999283
0.999512 1 1 0.999512
0.999373 1 1 0.999373
0.999337 1 1 0.999337
0.99947 1 1 0.99947
0.999418 1 1 0.999418
0.999417 1 1 0.999417
0.999464 1 1 0.999464
0.999459 1 1 0.999459
0.999522 1 1 0.999522
0.999468 1 1 0.999468
0.999546 1 1 0.999546
0.999717 1 1 0.999717
0.999973 1 1 0.999973
0.999753 1 1 0.999753
0.999591 1 1 0.999591
1 1 1 1
0.999984 1 1 0.999984
0.999793 1 1 0.999793
1 1 1 1
0.999993 1 1 0.999993
1 1 1 1
0.999487 1 1 0.999487
0.999557 1 1 0.999557
0.999637 1 1 0.999637
0.999608 1 1 0.999608
0.999671 1 1 0.999671
0.99982 1 1 0.99982
0.999691 1 1 0.999691
0.999843 1 1 0.999843
0.999999 1 1 0.999999
0.99987 1 1 0.99987
1 1 1 1
1 1 1 1
1 1 1 1
1 1 1 1
1 1 1 1
0.999928 1.00111 0.999381 0.999437
0.99875 1.00214 0.997079 0.999532
0.983274 0.986214 0.997996 0.99902
0.999399 1 1 0.999399
0.999606 1 1 0.999606
0.999315 1 1 0.999315
0.999437 1 1 0.999437
0.999555 1 1 0.999555
0.999388 1.00026 1 0.999126
0.999596 1 1 0.999596
0.999344 1 1 0.999344
0.999745 1.00063 1 0.999112
0.999297 1 1 0.999297
0.999501 1.00049 1 0.999011
1.00208 1.00327 0.999671 0.999144
1.00014 1.00118 1 0.998961
1.00228 1.00636 0.996586 0.999358
0.999844 1.00033 1 0.999513
0.999622 1.00011 1 0.999514
1.0018 1 1.00224 0.999558
1.00619 1.00805 0.998911 0.999244
1.00252 1.00329 1 0.999231
1.00085 1.00162 1 0.999233
1.00054 1.00116 1 0.999384
0.999513 1.00018 1 0.999337
0.999814 1.00047 1 0.999349
0.999251 1 1 0.999251
0.999246 1 1 0.999246
0.999474 1.00011 1 0.999367
0.999279 1 1 0.999279
0.999266 1 1 0.999266
0.999372 1 1 0.999372
0.999335 1 1 0.999335
0.999349 1 1 0.999349
0.999417 1 1 0.999417
0.999416 1 1 0.999416
0.999475 1 1 0.999475
0.99946 1 1 0.99946
0.999522 1 1 0.999522
0.999681 1 1 0.999681
0.999543 1 1 0.999543
0.999717 1 1 0.999717
0.999958 1 1 0.999958
1 1 1 1
0.999969 1 1 0.999969
0.999753 1 1 0.999753
1 1 1 1
0.99998 1 1 0.99998
1 1 1 1
0.999341 1 1 0.999341
0.999421 1 1 0.999421
0.999478 1 1 0.999478
0.999597 1 1 0.999597
0.999549 1 1 0.999549
0.999639 1 1 0.999639
0.999799 1 1 0.999799
0.999671 1 1 0.999671
0.99982 1 1 0.99982
0.999994 1 1 0.999994
0.999843 1 1 0.999843
1 1 1 1
1 1 1 1
1 1 1 1
1 1 1 1
1 1 1 1
0.99986 1.0005 1 0.999357
1.00105 1.00203 0.999567 0.999451
0.998349 1.00176 0.997069 0.999525
0.99926 1.00006 1 0.999201
0.999437 1 1 0.999437
0.999648 1 1 0.999648
0.999331 1 1 0.999331
0.999431 1 1 0.999431
0.999675 1.00059 1 0.999082
0.999384 1.00028 1 0.999108
0.999338 1 1 0.999338
0.999821 1.00072 1 0.999106
0.99956 1.00057 1 0.99899
1.00233 1.0034 0.99979 0.999138
0.999649 1.00022 1 0.999433
0.999788 1.00029 1 0.999501
0.999511 1 1 0.999511
1.00104 1.00182 1 0.999228
1.0008 1.00142 1 0.999381
0.99962 1.00028 1 0.999338
0.999313 1.00001 1 0.999308
0.999257 1 1 0.999257
0.999242 1 1 0.999242
0.999259 1 1 0.999259
0.999275 1 1 0.999275
0.999265 1 1 0.999265
0.999294 1 1 0.999294
0.999333 1 1 0.999333
0.999348 1 1 0.999348
0.999416 1 1 0.999416
0.999416 1 1 0.999416
0.999475 1 1 0.999475
0.999635 1 1 0.999635
0.999523 1 1 0.999523
0.99968 1 1 0.99968
0.999946 1 1 0.999946
0.999716 1 1 0.999716
0.999955 1 1 0.999955
1 1 1 1
1 1 1 1
0.999964 1 1 0.999964
1 1 1 1
0.999228 1 1 0.999228
0.99941 1 1 0.99941
0.999395 1 1 0.999395
0.999537 1 1 0.999537
0.99942 1 1 0.99942
0.999468 1 1 0.999468
0.999598 1 1 0.999598
0.999769 1 1 0.999769
0.99964 1 1 0.99964
0.999799 1 1 0.999799
0.999984 1 1 0.999984
0.99982 1 1 0.99982
0.999996 1 1 0.999996
1 1 1 1
1 1 1 1
1 1 1 1
1 1 1 1
0.999939 1.00068 1 0.999263
0.999807 1.00045 1 0.999356
1.0019 1.00265 0.999796 0.999464
0.999412 1.00029 1 0.999125
0.999262 1.00006 1 0.999202
0.999474 1 1 0.999474
0.999347 1 1 0.999347
0.999714 1.00063 1 0.999082
0.999449 1.00036 1 0.999089
0.999857 1.00076 1 0.9991
0.999765 1.00041 1 0.999353
0.999762 1.00035 1 0.99941
0.999671 1.00018 1 0.99949
0.999393 1.0001 1 0.999289
0.999769 1.00043 1 0.999338
0.999321 1.00001 1 0.999307
0.999289 1 1 0.999289
0.999238 1 1 0.999238
0.99926 1 1 0.99926
0.999279 1 1 0.999279
0.999264 1 1 0.999264
0.999294 1 1 0.999294
0.99937 1 1 0.99937
0.999347 1 1 0.999347
0.999416 1 1 0.999416
0.999583 1 1 0.999583
0.999475 1 1 0.999475
0.999634 1 1 0.999634
0.999935 1 1 0.999935
0.99968 1 1 0.99968
0.999943 1 1 0.999943
1 1 1 1
0.999951 1 1 0.999951
1 1 1 1
1 1 1 1
0.999157 1 1 0.999157
0.999297 1 1 0.999297
0.999247 1 1 0.999247
0.999495 1 1 0.999495
0.999408 1 1 0.999408
0.999449 1 1 0.999449
0.999712 1 1 0.999712
0.999536 1 1 0.999536
0.999419 1 1 0.999419
0.999599 1 1 0.999599
0.999769 1 1 0.999769
0.99997 1 1 0.99997
0.999799 1 1 0.999799
0.999987 1 1 0.999987
1 1 1 1
0.999998 1 1 0.999998
1 1 1 1
1 1 1 1
0.999764 1.00053 1 0.999233
1.00014 1.0009 1 0.999245
0.99984 1.00049 1 0.999354
0.999301 1.00018 1 0.999119
0.999259 1.00006 1 0.999204
0.999688 1.00061 1 0.999082
0.999777 1.00049 1 0.999284
0.999747 1.00039 1 0.999353
0.999923 1.00054 1 0.999387
0.999378 1.00009 1 0.99929
0.999287 1.00002 1 0.99927
0.999318 1.00001 1 0.999305
0.999289 1 1 0.999289
0.999294 1 1 0.999294
0.999261 1 1 0.999261
0.999281 1 1 0.999281
0.999348 1 1 0.999348
0.999293 1 1 0.999293
0.999369 1 1 0.999369
0.999545 1 1 0.999545
0.999415 1 1 0.999415
0.999582 1 1 0.999582
0.999922 1 1 0.999922
0.999633 1 1 0.999633
0.999931 1 1 0.999931
0.999999 1 1 0.999999
0.99994 1 1 0.99994
1 1 1 1
1 1 1 1
0.999234 1 1 0.999234
0.999212 1 1 0.999212
0.999152 1 1 0.999151
0.999405 1 1 0.999405
0.999306 1 1 0.999306
0.999267 1 1 0.999267
0.999647 1 1 0.999647
0.999476 1 1 0.999476
0.999406 1 1 0.999406
0.999949 1 1 0.999949
0.999714 1 1 0.999714
0.999536 1 1 0.999536
0.99977 1 1 0.99977
0.999974 1 1 0.999974
1 1 1 1
0.999991 1 1 0.999991
1 1 1 1
1 1 1 1
0.99945 1.00022 1 0.999231
0.999697 1.00047 1 0.999229
1.00028 1.00106 1 0.999227
0.999215 1.0001 1 0.999114
0.999578 1.00034 1 0.999243
0.999796 1.00051 1 0.999289
0.99975 1.0004 1 0.999353
0.999299 1.00001 1 0.99929
0.999342 1.00007 1 0.99927
0.999288 1 1 0.999288
0.99929 1 1 0.99929
0.999298 1 1 0.999298
0.999341 1 1 0.999341
0.999282 1 1 0.999282
0.999349 1 1 0.999349
0.999525 1 1 0.999525
0.999369 1 1 0.999369
0.999544 1 1 0.999544
0.99991 1 1 0.99991
0.999581 1 1 0.999581
0.999919 1 1 0.999919
1 1 1 1
0.999928 1 1 0.999928
1 1 1 1
1 1 1 1
0.999251 1 1 0.999251
0.999249 1 1 0.999249
0.999236 1 1 0.999236
0.999311 1 1 0.999311
0.999225 1 1 0.999225
0.99915 1.00001 1 0.999145
0.999556 1 1 0.999556
0.999404 1 1 0.999404
0.999316 1 1 0.999316
0.999926 1 1 0.999926
0.999632 1 1 0.999632
0.999458 1 1 0.999458
1 1 1 1
0.999955 1 1 0.999955
0.999715 1 1 0.999715
0.999979 1 1 0.999979
1 1 1 1
1 1 1 1
0.999487 1.00025 1 0.99924
0.99957 1.00033 1 0.999239
0.999601 1.00038 1 0.999224
0.999355 1.00011 1 0.999245
0.999553 1.00031 1 0.99924
0.999834 1.00054 1 0.999294
0.999419 1.00015 1 0.99927
0.999289 1 1 0.999289
0.999351 1 1 0.999351
0.999301 1 1 0.999301
0.999355 1 1 0.999355
0.999488 1 1 0.999488
0.99935 1 1 0.99935
0.999526 1 1 0.999526
0.999901 1 1 0.999901
0.999544 1 1 0.999544
0.999909 1 1 0.999909
1 1 1 1
0.999915 1 1 0.999915
0.999999 1 1 0.999999
1 1 1 1
0.99926 1 1 0.99926
0.99928 1 1 0.99928
0.999257 1.00001 1 0.999252
0.999325 1 1 0.999325
0.999253 1 1 0.999253
0.999237 1 1 0.999237
0.999498 1 1 0.999498
0.99933 1 1 0.99933
0.999238 1 1 0.999238
0.999908 1 1 0.999908
0.999549 1 1 0.999549
0.999404 1 1 0.999404
1 1 1 1
0.999932 1 1 0.999932
0.999616 1 1 0.999616
1 1 1 1
0.999962 1 1 0.999962
1 1 1 1
0.999352 1.0001 1 0.999254
0.999476 1.00023 1 0.999241
0.999713 1.00047 1 0.999247
0.99931 1 1 0.99931
0.999302 1.00006 1 0.999247
0.999527 1.00029 1 0.999236
0.999289 1 1 0.999289
0.999352 1 1 0.999352
0.999466 1 1 0.999466
0.999369 1 1 0.999369
0.999501 1 1 0.999501
0.999883 1 1 0.999883
0.999526 1 1 0.999526
0.999899 1 1 0.999899
1 1 1 1
0.999907 1 1 0.999907
1 1 1 1
0.999999 1 1 0.999999
0.999287 1 1 0.999287
0.999258 1 1 0.999258
0.999333 1 1 0.999333
0.999281 1 1 0.999281
0.999264 1.00001 1 0.999252
0.999501 1 1 0.999501
0.999323 1 1 0.999323
0.999258 1 1 0.999258
0.999896 1 1 0.999896
0.999507 1 1 0.999507
0.99935 1 1 0.99935
1 1 1 1
0.999912 1 1 0.999912
0.999541 1 1 0.999541
1 1 1 1
0.999938 1 1 0.999938
1 1 1 1
0.999322 1 1 0.999322
0.999305 1.00005 1 0.999257
0.99944 1.0002 1 0.999243
0.99944 1 1 0.99944
0.99931 1 1 0.99931
0.999249 1 1 0.999249
0.999352 1 1 0.999352
0.99947 1 1 0.99947
0.999859 1 1 0.999859
0.999514 1 1 0.999514
0.999881 1 1 0.999881
1 1 1 1
0.999898 1 1 0.999898
1 1 1 1
1 1 1 1
0.999329 1 1 0.999329
0.999282 1 1 0.999282
0.999256 1 1 0.999256
0.999496 1 1 0.999496
0.999333 1 1 0.999333
0.999281 1 1 0.999281
0.999888 1 1 0.999888
0.999501 1 1 0.999501
0.999321 1 1 0.999321
1 1 1 1
0.999899 1 1 0.999899
0.999517 1 1 0.999517
1 1 1 1
0.999916 1 1 0.999916
1 1 1 1
0.999466 1 1 0.999466
0.999309 1 1 0.999309
0.99926 1 1 0.99926
0.999843 1 1 0.999843
0.999442 1 1 0.999442
0.99931 1 1 0.99931
0.999474 1 1 0.999474
0.999858 1 1 0.999858
1 1 1 1
0.999879 1 1 0.999879
1 1 1 1
1 1 1 1
0.999483 1 1 0.999483
0.999324 1 1 0.999324
0.999278 1 1 0.999278
0.999883 1 1 0.999883
0.999495 1 1 0.999495
0.999332 1 1 0.999332
1 1 1 1
0.999888 1 1 0.999888
0.9995 1 1 0.9995
1 1 1 1
0.999901 1 1 0.999901
1 1 1 1
0.999839 1 1 0.999839
0.999455 1 1 0.999455
0.999295 1 1 0.999295
1 1 1 1
0.999842 1 1 0.999842
0.999445 1 1 0.999445
0.999856 1 1 0.999856
1 1 1 1
1 1 1 1
0.999865 1 1 0.999865
0.999483 1 1 0.999483
0.99932 1 1 0.99932
1 1 1 1
0.999877 1 1 0.999877
0.999494 1 1 0.999494
1 1 1 1
0.999889 1 1 0.999889
1 1 1 1
0.999974 1 1 0.999974
0.999849 1 1 0.999849
0.999444 1 1 0.999444
1 1 1 1
0.999841 1 1 0.999841
1 1 1 1
0.999982 1 1 0.999982
0.999864 1 1 0.999864
0.999483 1 1 0.999483
0.999993 1 1 0.999993
0.999876 1 1 0.999876
1 1 1 1
1 1 1 1
0.999843 1 1 0.999843
1 1 1 1
0.999989 1 1 0.999989
0.999859 1 1 0.999859
1 1 1 1
1 1 1 1
1 1 1 1

VECTORS lamdaE float
0.998947 1.00007 0.996863
0.99915 0.999104 0.998766
0.998878 1.00016 0.996914
0.999266 1.00007 0.996468
0.998939 1.00025 0.996762
0.999063 0.999655 0.997017
0.999606 1.00067 0.994872
0.999182 0.998983 0.998801
0.998837 1.00028 0.998658
0.998913 0.999543 0.998791
0.999331 0.99861 0.997506
0.99962 1.00033 0.994932
0.999557 0.99998 0.996107
0.999198 0.999931 0.99659
0.998804 1.00028 0.996971
0.999177 1.00011 0.996543
0.999007 0.999706 0.997071
0.998865 1.00033 0.996822
0.999659 1.00063 0.994871
0.999481 0.999987 0.99831
0.999389 0.999964 0.996394
0.999069 1.00021 0.996623
1.0004 1.00009 0.994076
0.999813 1.00055 0.994641
0.999246 0.999046 0.997269
0.999463 1.00063 0.99515
1.00081 1.00116 0.992199
0.999214 0.998853 0.998836
0.998885 1.00025 0.997693
0.998976 0.999632 0.997928
0.999315 0.998477 0.998904
0.999565 1.00041 0.994933
0.999095 1.00031 0.996617
0.998946 1.00026 0.996921
0.999995 1.00051 0.994944
0.999391 0.997998 0.999089
0.999665 1.00046 0.995466
0.99958 1.00004 0.99527
1.00021 1.00159 0.992589
0.999517 0.997539 0.99918
0.999532 1 0.998262
0.999269 0.999984 0.9975
0.999679 0.999997 0.998146
0.999272 0.999914 0.996476
1.00082 1 0.992891
0.999109 1.00014 0.998578
1.00056 0.999982 0.994455
0.999088 1.00015 0.996617
0.998781 1.00047 0.996879
0.998952 0.999748 0.997133
0.999713 1.00057 0.994866
0.999458 0.999968 0.997289
0.999304 0.99996 0.996467
0.99921 0.999026 0.997324
0.998982 1.00028 0.996696
1.00043 1.00008 0.994061
0.999509 1.00059 0.995151
0.999866 1.00051 0.99464
1.00088 1.00118 0.99213
0.999571 1 0.998231
0.99943 0.999953 0.996325
1.00072 0.999977 0.994102
1.00055 0.999922 0.993975
1.0001 1.00034 0.994354
1.00231 1.00005 0.990581
1.00127 1.00072 0.991543
0.999463 0.998366 0.997568
0.999382 1.00033 0.995582
1.00034 1.00152 0.992671
1.00151 1.00124 0.990462
0.998909 1.00014 0.998602
0.999349 0.99834 0.998968
0.999033 0.999396 0.998745
0.999507 1.00049 0.994933
0.999103 1.00023 0.99851
0.998908 1.00002 0.998645
0.999887 1.00057 0.994094
0.999412 0.99805 0.998431
0.999587 1.00059 0.994689
0.999554 0.999994 0.995684
1.00021 1.00159 0.992576
0.999472 0.997773 0.999113
0.999683 0.998721 0.996417
1.00023 1.00029 0.99378
0.999764 1.00065 0.994356
1.00137 1.00075 0.991184
0.999569 0.999506 0.996424
1.00046 1.00133 0.992386
1.00004 1.00172 0.992787
1.00065 1.00183 0.991459
0.999572 0.997267 0.999238
0.999515 0.997493 0.999199
0.999284 1.00005 0.998457
0.999468 1.00001 0.998315
0.999643 1 0.998174
0.999348 0.999981 0.997396
1.0008 1 0.993473
0.999148 1.00009 0.997563
1.00052 0.999963 0.994013
0.999688 0.999996 0.998144
1.00098 0.999964 0.992591
1.00067 0.999985 0.994256
1.00279 0.999766 0.989439
1.00042 1.00008 0.994598
1.00242 0.999932 0.989997
0.999531 0.999945 0.996173
0.999219 0.999946 0.99654
0.999168 0.998977 0.997384
0.998895 1.00038 0.996766
1.00047 1.00007 0.994047
0.999923 1.00044 0.994641
0.999556 1.00056 0.995148
1.00095 1.00121 0.992062
0.999622 0.999997 0.998194
0.999349 0.999928 0.996409
1.00077 0.999948 0.993289
1.00058 0.999914 0.993947
0.999406 0.99832 0.998262
0.999452 1.00029 0.995693
1.00014 1.00031 0.994351
1.0023 1.00005 0.990474
1.00041 1.00156 0.992598
1.0013 1.00076 0.991611
1.00151 1.00124 0.990467
1.00091 0.99999 0.992697
1.00059 0.999902 0.993916
1.00274 0.999736 0.989825
1.0025 0.999765 0.990246
1.00185 1.00035 0.990879
1.00326 0.999833 0.988789
0.999492 0.997898 0.999066
1.00199 1.00076 0.989988
0.999556 0.999845 0.995515
0.999986 1.00166 0.992843
1.00104 1.00182 0.990896
1.00195 1.00115 0.989722
0.999695 0.99898 0.996079
1.00008 1.00062 0.993794
0.999034 1.0002 0.99853
0.998896 0.999854 0.998681
0.999847 1.0006 0.994106
0.99943 0.997976 0.99908
0.999516 1.00003 0.99536
0.999512 1.00071 0.99468
1.00021 1.00158 0.992563
0.999472 0.997747 0.999134
0.99969 0.998672 0.996436
1.0002 1.00026 0.994279
0.999688 1.00065 0.994816
1.00136 1.00074 0.991202
0.999581 0.999469 0.995851
1.00045 1.00132 0.992392
1.00003 1.00172 0.992779
1.00065 1.00183 0.991426
0.999622 0.999096 0.996145
0.999758 0.998342 0.996664
1.00002 1.00052 0.993966
1.00188 1.00036 0.99059
1.00083 1.00111 0.991888
1.00212 1.00083 0.989707
1.00005 1.00137 0.993118
1.00097 1.00145 0.991226
1.00039 1.00232 0.991594
1.00079 1.0021 0.990992
0.999645 0.997 0.999282
0.999578 0.997219 0.999253
0.999516 0.997445 0.999218
0.999743 0.998631 0.996359
0.999532 0.997659 0.999136
0.999173 1.00013 0.998491
0.999366 1.00001 0.998403
1.0005 0.999931 0.99354
1.00075 0.999999 0.992986
0.999599 1.00001 0.998207
0.999694 0.999998 0.998135
1.00096 0.999973 0.992606
1.00062 0.999985 0.993817
1.00278 0.99977 0.989442
1.00036 1.00004 0.993685
1.00241 0.999944 0.989997
1.00104 0.999956 0.992468
1.00308 0.999694 0.988955
1.00257 0.999827 0.989808
1.00374 0.999468 0.987963
1.00222 1.00009 0.990212
1.00334 0.999622 0.988583
0.999661 0.999994 0.998158
0.999265 0.99989 0.996495
1.00078 0.999924 0.992521
1.00062 0.999918 0.99392
0.999325 0.998253 0.998988
0.999519 1.00027 0.995801
1.00019 1.00027 0.994349
1.0023 1.00005 0.990367
1.00134 1.0008 0.991679
1.00049 1.0016 0.992524
1.00151 1.00124 0.990471
1.00092 0.999977 0.992682
1.00063 0.99989 0.993888
1.00272 0.999722 0.989621
1.00251 0.999812 0.990328
0.999474 0.997935 0.999041
0.999555 0.999824 0.995834
1.00006 1.00167 0.992942
1.00183 1.00038 0.99089
1.00325 0.999776 0.988656
1.00098 1.00181 0.990882
1.00205 1.00077 0.990027
1.00195 1.00114 0.989732
0.999676 0.999042 0.996067
1.00008 1.0006 0.993791
1.00303 0.999686 0.989038
1.00254 0.999725 0.990195
1.00367 0.999493 0.98833
1.00351 0.999364 0.988377
1.00262 1.00027 0.989395
1.00378 0.99935 0.98817
0.999625 0.999372 0.995788
1.00254 1.00052 0.989207
0.999981 1.00151 0.993016
1.00045 1.00208 0.991443
1.00147 1.00195 0.990174
1.00228 1.00092 0.989422
1.00009 1.00107 0.993339
1.00009 1.00009 0.994297
1.00025 1.0017 0.992383
1.00014 1.00029 0.993846
0.99947 0.997713 0.999156
0.999694 0.998631 0.996456
0.999599 1.00077 0.994427
1.00135 1.00073 0.99122
0.999579 0.999425 0.995826
1.00001 1.00172 0.992773
1.00043 1.00131 0.992398
1.00066 1.00182 0.991392
0.999632 0.999041 0.996159
0.999753 0.998322 0.996679
1.00002 1.00053 0.993971
1.00187 1.00036 0.990599
1.00081 1.0011 0.991908
1.00211 1.00083 0.98971
1.00002 1.00141 0.993117
1.00098 1.00145 0.99127
1.00038 1.00231 0.991589
1.00077 1.00211 0.990946
0.999827 0.998038 0.996839
1.00006 1.00092 0.993498
1.00002 1.00004 0.994453
1.0002 1.00156 0.992653
1.00272 1.00028 0.989085
1.00144 1.00126 0.9906
1.00255 1.00074 0.988962
1.00029 1.00217 0.991955
1.00123 1.00152 0.990766
1.00041 1.00301 0.990842
1.00092 1.00206 0.990576
1.00014 0.999082 0.99522
0.999935 0.997629 0.997035
0.999724 0.996772 0.999311
0.999656 0.996962 0.999291
0.999585 0.997171 0.999267
0.999797 0.998308 0.996592
0.99957 0.997408 0.999198
0.999738 0.998674 0.996338
0.999531 0.997689 0.999115
1.00037 1.00003 0.993687
1.00061 0.999962 0.99332
1.0024 0.999955 0.989996
1.00277 0.999776 0.989446
1.00095 0.999981 0.992619
0.999695 1 0.998134
1.00104 0.999961 0.992464
1.00307 0.999693 0.988961
1.00256 0.99984 0.989806
1.00374 0.999475 0.987965
1.00221 1.00011 0.990216
1.00334 0.999619 0.988582
1.00318 0.999651 0.988793
1.00406 0.999382 0.987419
1.00352 0.999496 0.988365
1.00414 0.999106 0.987574
1.0031 0.999879 0.988773
1.00384 0.999116 0.988134
1.00094 0.999966 0.992666
1.00066 0.999893 0.993858
1.0027 0.9997 0.989418
1.00252 0.999852 0.990411
0.999458 0.99798 0.999015
0.999568 0.999822 0.996138
1.00014 1.00168 0.99304
1.00181 1.00042 0.9909
1.00324 0.999718 0.988523
1.00211 1.00078 0.990066
1.00091 1.00181 0.990868
1.00194 1.00114 0.989741
0.99966 0.999104 0.996055
1.00008 1.00058 0.993788
1.00301 0.999672 0.988976
1.00256 0.999724 0.990189
1.00368 0.999464 0.988257
1.00351 0.999436 0.98851
0.999616 0.99943 0.995786
1.00001 1.00152 0.993018
1.00046 1.00205 0.991535
1.00266 1.00031 0.98938
1.00377 0.999268 0.988139
1.00141 1.00196 0.990074
1.00254 1.00052 0.989205
1.00223 1.00091 0.989427
1.0001 1.00102 0.993346
1.00026 1.00167 0.992391
1.00008 1.0001 0.994287
1.00395 0.99945 0.987806
1.00353 0.9994 0.98855
1.00414 0.999231 0.987583
1.00406 0.998915 0.987925
1.00313 0.999846 0.988602
1.00407 0.998687 0.98817
1.00004 1.00136 0.993119
1.0028 1.00022 0.98898
1.00034 1.00193 0.992016
1.00068 1.00249 0.990624
1.0017 1.00199 0.989519
1.00245 1.00063 0.989575
1.00013 0.999684 0.994631
1.00032 1.00172 0.992253
1.00024 1.00132 0.992724
1.00024 1.00227 0.991914
1.00187 1.00037 0.990608
0.999748 0.9983 0.996694
0.999645 0.998985 0.996173
1.00003 1.00053 0.993975
1.00079 1.00109 0.991929
1.0021 1.00084 0.989713
0.999984 1.00146 0.993117
1.00038 1.00231 0.991584
1.00099 1.00146 0.991315
1.00075 1.00212 0.9909
0.99982 0.99803 0.996847
1.00005 1.00096 0.993497
1.00003 1.00003 0.994462
1.00019 1.00159 0.992643
1.00272 1.00029 0.989078
1.00142 1.00127 0.990613
1.00255 1.00074 0.988966
1.00026 1.00218 0.991963
1.00124 1.00154 0.990813
1.00043 1.00302 0.990813
1.00089 1.00205 0.990737
0.999885 0.997812 0.996955
1.00006 0.999647 0.99479
1.00027 1.00181 0.992318
1.00019 1.00114 0.993088
1.00017 1.00235 0.991947
1.00321 1.00002 0.988409
1.00175 1.00127 0.989963
1.00276 1.0006 0.988714
1.00025 1.00308 0.991131
1.00137 1.00151 0.99048
1.00054 1.00326 0.989978
1.00012 0.99923 0.995115
1.00017 1.00009 0.994164
1.00016 0.998966 0.995297
1.00013 0.9991 0.995216
0.999967 0.997432 0.997552
0.999925 0.997609 0.997264
0.999839 0.996593 0.998454
0.999735 0.996739 0.999319
0.999667 0.996923 0.999301
0.999858 0.998045 0.996743
0.999632 0.997152 0.999244
0.999802 0.998329 0.996576
0.999571 0.997449 0.999179
0.999732 0.99872 0.996319
0.999529 0.997718 0.999094
1.0022 1.00012 0.990219
1.00255 0.999849 0.989805
1.00334 0.999622 0.988582
1.00374 0.999482 0.987966
1.00307 0.999693 0.988966
1.00104 0.999966 0.992461
1.00318 0.99965 0.988789
1.00406 0.999384 0.987426
1.00351 0.999508 0.988368
1.00417 0.999093 0.987515
1.00311 0.999879 0.988766
1.00384 0.999124 0.988136
1.00418 0.999333 0.987235
1.00445 0.999074 0.986964
1.00401 0.999008 0.9879
1.00436 0.998875 0.987455
1.00358 0.999473 0.988252
1.00409 0.998477 0.988291
1.00299 0.999659 0.988914
1.00257 0.999714 0.990183
1.0037 0.999439 0.988184
1.0035 0.999508 0.988643
0.999608 0.999476 0.995783
1.00003 1.00152 0.993022
1.00047 1.00202 0.991626
1.00271 1.00035 0.989364
1.00377 0.999185 0.988108
1.00254 1.00052 0.989204
1.00136 1.00197 0.989973
1.00217 1.00089 0.989432
1.00011 1.00097 0.993353
1.00027 1.00163 0.9924
1.00008 1.00011 0.994276
1.00398 0.999423 0.987669
1.00355 0.999364 0.988551
1.00413 0.999186 0.987539
1.00405 0.998952 0.987956
1.00006 1.0013 0.993128
1.00038 1.00192 0.992
1.00065 1.00249 0.99074
1.00314 0.999935 0.988658
1.00408 0.998569 0.988204
1.00163 1.00204 0.989452
1.00281 1.00021 0.988982
1.0024 1.00055 0.989595
1.00032 1.00173 0.992267
1.00025 1.00228 0.991859
1.00012 0.999702 0.994623
1.00025 1.00125 0.992795
1.00439 0.999157 0.987041
1.00405 0.999047 0.98788
1.00435 0.998941 0.987374
1.00433 0.998474 0.987803
1.00351 0.999314 0.98849
1.00433 0.998166 0.988178
1.00032 1.00178 0.992202
1.0029 0.999566 0.989393
1.00034 1.00242 0.991366
1.00094 1.0029 0.989899
1.00185 1.00205 0.989024
1.00256 1.00055 0.989488
1.00014 0.999495 0.994797
1.00026 1.0008 0.993204
1.00033 1.00213 0.991849
1.00021 1.00209 0.992146
1.00025 1.00244 0.991711
0.999813 0.998022 0.996855
1.00273 1.00031 0.98907
1.00004 1.00002 0.994472
1.00004 1.00102 0.993495
1.00019 1.00161 0.992632
1.0014 1.00127 0.990627
1.00255 1.00073 0.98897
1.00023 1.00219 0.991971
1.00045 1.00303 0.990783
1.00126 1.00156 0.990859
1.00086 1.00203 0.990898
0.999879 0.997804 0.996959
1.00006 0.999639 0.994797
1.00026 1.00181 0.992314
1.00018 1.00115 0.993088
1.00016 1.00238 0.991901
1.00321 1.00003 0.988396
1.00175 1.00127 0.989969
1.00275 1.00061 0.988693
1.00022 1.00308 0.991146
1.00138 1.00154 0.99051
1.00062 1.00325 0.99005
1.00009 0.999407 0.994985
1.00019 1.00069 0.993522
1.00026 1.00259 0.991573
1.00013 1.00207 0.992289
1.00011 1.00297 0.991476
1.00351 0.999621 0.988218
1.00194 1.00114 0.989705
1.00261 1.00008 0.98933
1.00016 1.00397 0.990318
1.00123 1.0027 0.989579
1.00011 0.999237 0.995115
1.00017 1.00022 0.993939
1.00017 1.00011 0.994105
1.00014 1.00088 0.993579
1.00018 1.00006 0.99418
1.00019 0.998886 0.995329
1.00016 0.998971 0.995295
1.00002 0.997261 0.997618
1.00013 0.999117 0.995212
0.999972 0.997421 0.997562
0.999912 0.996396 0.998508
0.999917 0.997596 0.99749
0.999819 0.996564 0.998899
0.999746 0.996707 0.999327
0.999907 0.997846 0.996846
0.999862 0.998056 0.996735
0.999706 0.996929 0.999275
0.999627 0.997195 0.999231
0.999806 0.998347 0.99656
0.999571 0.997489 0.999159
1.00312 0.999879 0.988758
1.00351 0.999513 0.98837
1.00384 0.99913 0.988139
1.00419 0.999081 0.987456
1.00406 0.999385 0.987432
1.00319 0.99965 0.988786
1.00419 0.999333 0.987234
1.00448 0.999092 0.986873
1.00401 0.999015 0.987908
1.00437 0.998818 0.987461
1.00359 0.999478 0.988237
1.00412 0.998451 0.988252
1.00464 0.999062 0.986609
1.00471 0.998875 0.986756
1.00427 0.998575 0.987822
1.00446 0.998641 0.987437
1.0039 0.998791 0.98826
1.00433 0.998242 0.98818
1.00401 0.999394 0.987533
1.00356 0.999334 0.988551
1.00414 0.999144 0.987496
1.00405 0.998987 0.987988
1.00009 1.00125 0.993137
1.00041 1.00191 0.991984
1.00062 1.0025 0.990856
1.00314 1.00003 0.988714
1.00409 0.998454 0.988239
1.00282 1.00019 0.988985
1.00155 1.0021 0.989386
1.00235 1.00046 0.989616
1.00033 1.00173 0.992281
1.00027 1.00229 0.991804
1.00011 0.99972 0.994616
1.00026 1.00118 0.992867
1.0044 0.999155 0.987035
1.00406 0.999032 0.987903
1.00433 0.998916 0.987422
1.00434 0.998468 0.987808
1.00035 1.00177 0.9922
1.00034 1.00237 0.99146
1.00092 1.00296 0.98989
1.00351 0.999411 0.988467
1.00424 0.998042 0.9884
1.00184 1.00211 0.988982
1.0029 0.999583 0.989404
1.00251 1.00032 0.98959
1.00035 1.00212 0.991853
1.00026 1.00243 0.9917
1.0002 1.0021 0.992137
1.00014 0.99949 0.994723
1.00027 1.00075 0.993255
1.00465 0.998852 0.986826
1.00443 0.998633 0.987476
1.00457 0.998176 0.987595
1.00379 0.99851 0.988672
1.00034 1.00213 0.991823
1.00321 0.999159 0.989524
1.00025 1.00286 0.990886
1.0012 1.00342 0.988893
1.00219 1.00205 0.98851
1.00016 0.999346 0.99477
1.00025 1.0005 0.993659
1.00021 1.00157 0.992678
1.00032 1.00221 0.991793
1.00019 1.00263 0.991701
1.00031 1.00239 0.991599
0.999874 0.997796 0.996964
1.00007 0.999632 0.994805
1.00322 1.00004 0.988383
1.00018 1.00117 0.993088
1.00025 1.0018 0.992311
1.00016 1.0024 0.991855
1.00175 1.00127 0.989975
1.00274 1.00061 0.988673
1.0002 1.00307 0.99116
1.0007 1.00323 0.99012
1.00139 1.00156 0.990539
1.00009 0.999409 0.994988
1.00019 1.00068 0.993527
1.00024 1.00258 0.991606
1.00013 1.00206 0.992284
1.0001 1.003 0.991406
1.00349 0.999664 0.988218
1.00197 1.00113 0.989678
1.00268 0.999961 0.989369
1.00013 1.00396 0.990277
1.00122 1.00285 0.989442
1.00017 1.00041 0.993842
1.00016 1.00162 0.992605
1.00015 1.00343 0.990992
1.0001 1.00283 0.99153
1.00019 1.00327 0.99101
1.00379 0.998236 0.989078
1.00206 1.00158 0.98924
1.00277 0.999129 0.98937
1.00041 1.00438 0.989777
1.00102 1.00337 0.988529
1.00011 0.999245 0.995115
1.00017 1.00022 0.993987
1.00015 1.001 0.993236
1.00017 1.00013 0.994047
1.00018 1.00007 0.99418
1.00014 1.00087 0.993495
1.00009 1.00145 0.993057
1.00012 1.00082 0.993492
1.0002 1.00001 0.994205
1.0002 0.998873 0.995314
1.00019 0.998883 0.99533
1.00006 0.997152 0.997637
1.00016 0.998977 0.995292
1.00002 0.997256 0.997623
0.999966 0.996236 0.998552
0.999979 0.997405 0.997572
0.999904 0.996375 0.998506
0.999796 0.996528 0.99935
0.999956 0.997661 0.996941
0.999912 0.997853 0.996842
0.999774 0.996731 0.9993
0.999867 0.998067 0.996727
0.999696 0.99696 0.999266
0.999622 0.997233 0.999217
1.0036 0.999484 0.988222
1.00401 0.999025 0.987916
1.00414 0.998429 0.988213
1.00437 0.998758 0.987467
1.00452 0.999108 0.986782
1.00419 0.999336 0.987233
1.00466 0.999087 0.98657
1.00467 0.998899 0.986789
1.00428 0.998577 0.987792
1.00447 0.998548 0.987487
1.00391 0.998795 0.98827
1.00428 0.998199 0.988213
1.00496 0.998871 0.986238
1.00474 0.998539 0.986986
1.00448 0.998268 0.987729
1.00426 0.998208 0.988337
1.0044 0.999153 0.98703
1.00407 0.999012 0.987926
1.00429 0.998888 0.987471
1.00436 0.99846 0.987813
1.00037 1.00176 0.992199
1.00035 1.00232 0.991555
1.00089 1.00301 0.989881
1.00352 0.999506 0.988443
1.00415 0.997921 0.988622
1.0029 0.999601 0.989414
1.00182 1.00216 0.988939
1.00245 1.00012 0.989692
1.00037 1.00212 0.991858
1.00028 1.00243 0.99169
1.00019 1.00212 0.992128
1.00014 0.999487 0.994648
1.00028 1.0007 0.993305
1.0046 0.998832 0.98693
1.00443 0.998682 0.987462
1.00456 0.998182 0.987696
1.00037 1.00213 0.991811
1.00035 1.00281 0.990992
1.00115 1.00351 0.988871
1.00386 0.998542 0.988581
1.00216 1.00187 0.988675
1.00308 0.999117 0.989562
1.00016 0.999324 0.994788
1.00034 1.00222 0.99179
1.0003 1.00237 0.991644
1.00018 1.00268 0.991654
1.00021 1.00155 0.992711
1.00026 1.00049 0.993599
1.00472 0.998619 0.987
1.0047 0.998257 0.987308
1.00452 0.998176 0.987499
1.00427 0.997747 0.988582
1.00032 1.00236 0.991626
1.00285 1.00059 0.988571
1.00046 1.00377 0.98973
1.00142 1.00393 0.9881
1.00016 0.999196 0.994908
1.00024 1.00032 0.993886
1.00022 1.00128 0.992996
1.00016 1.0023 0.992019
1.00034 1.00235 0.991656
1.00028 1.00262 0.991446
1.00008 0.999408 0.994992
1.00019 1.00068 0.993533
1.00347 0.999709 0.988218
1.00014 1.00206 0.992279
1.00021 1.00258 0.99164
1.0001 1.00304 0.991336
1.002 1.00112 0.989651
1.00276 0.999837 0.989407
1.0001 1.00395 0.990236
1.00121 1.00301 0.989306
1.00018 1.00039 0.993847
1.00016 1.00162 0.99263
1.00011 1.00342 0.991069
1.00009 1.00285 0.991552
1.00014 1.00333 0.990991
1.00389 0.998245 0.988956
1.00212 1.00143 0.989268
1.00274 0.999129 0.989791
1.00034 1.00437 0.98972
1.00116 1.00371 0.988284
1.00016 1.00119 0.993035
1.00013 1.00244 0.991846
1.0001 1.00401 0.990476
1.0001 1.00346 0.990741
1.00462 0.997598 0.988378
1.00399 0.997107 0.989552
1.00218 1.00208 0.988276
1.00045 1.00476 0.988536
1.00018 1.00022 0.994036
1.00015 1.00102 0.993274
1.00012 1.00162 0.992769
1.00018 1.00006 0.99418
1.00014 1.00085 0.993411
1.0002 1 0.994206
1.0001 1.00145 0.992987
1.00012 1.00081 0.993517
1.00008 1.00192 0.992582
1.00009 1.00133 0.993032
1.00012 1.00077 0.993533
1.00022 0.999988 0.994202
1.0002 0.998914 0.995269
1.0002 0.998873 0.995314
1.00009 0.997116 0.997619
1.00019 0.998879 0.995331
1.00006 0.997163 0.997636
1.00001 0.996149 0.998552
1.00002 0.997252 0.997629
0.99996 0.996215 0.998552
0.999894 0.996358 0.998503
1 0.997477 0.997041
0.999959 0.997669 0.996937
0.999837 0.996546 0.999325
0.999917 0.997861 0.996837
0.999766 0.996761 0.999293
0.999687 0.996994 0.999257
1.00392 0.998798 0.98828
1.00429 0.998577 0.987762
1.00424 0.998148 0.988247
1.00448 0.998457 0.987536
1.00465 0.998923 0.986821
1.00468 0.999113 0.986532
1.00489 0.998868 0.986386
1.00473 0.99856 0.986986
1.00447 0.998257 0.987751
1.00424 0.998129 0.988316
1.00491 0.998624 0.986608
1.00478 0.997981 0.987439
1.00455 0.998019 0.987881
1.00456 0.998815 0.987034
1.00443 0.998735 0.987448
1.00455 0.99819 0.987797
1.00041 1.00211 0.9918
1.00045 1.00277 0.991099
1.0011 1.00362 0.988849
1.00394 0.998573 0.988491
1.00296 0.999076 0.9896
1.00215 1.00171 0.98884
1.00035 1.00222 0.991787
1.00028 1.00235 0.99169
1.00017 1.00273 0.991607
1.00015 0.999299 0.994806
1.00021 1.00153 0.992745
1.00025 1.00048 0.993538
1.00474 0.998643 0.986913
1.0047 0.998284 0.987293
1.00462 0.998156 0.987446
1.00036 1.00237 0.991598
1.0004 1.00373 0.989956
1.00147 1.0039 0.988098
1.00417 0.997884 0.988671
1.00286 1.0005 0.988553
1.00016 0.999177 0.994996
1.00024 1.00031 0.993887
1.0003 1.00233 0.99165
1.00029 1.00254 0.991536
1.00017 1.00229 0.991994
1.00021 1.0013 0.992947
1.00486 0.998208 0.987089
1.0049 0.998025 0.987176
1.00486 0.99749 0.98765
1.00408 0.998046 0.988738
1.0001 1.00302 0.991244
1.00195 1.00337 0.9875
1.00071 1.00457 0.98898
1.00018 0.999028 0.995199
1.00018 0.999996 0.994251
1.00021 1.00025 0.993845
1.0002 1.00111 0.993142
1.00015 1.00196 0.992376
1.00008 1.00303 0.991364
1.00043 1.00183 0.991821
1.00023 1.00293 0.991713
1.00018 1.00038 0.993851
1.00016 1.00162 0.992654
1.00399 0.99825 0.988834
1.00009 1.00286 0.991573
1.00007 1.0034 0.991145
1.00009 1.0034 0.990971
1.00218 1.00126 0.989295
1.00271 0.99913 0.990209
1.00027 1.00436 0.989664
1.0013 1.00403 0.988039
1.00017 1.00123 0.992991
1.00012 1.00245 0.991872
1.00008 1.00401 0.990526
1.00014 1.00349 0.990795
1.00468 0.997619 0.98816
1.0039 0.997251 0.989626
1.00228 1.00195 0.98846
1.0006 1.00478 0.988422
1.00013 1.00191 0.992474
1.00465 0.997296 0.988279
1.00008 1.00328 0.991278
1.0003 1.00422 0.989857
1.00494 0.996321 0.988845
1.00358 0.999301 0.988327
1.00137 1.0044 0.987863
1.00016 1.00103 0.993313
1.00012 1.00163 0.992765
1.00009 1.00218 0.992277
1.0002 1 0.994207
1.00013 1.00081 0.993542
1.00011 1.00145 0.992917
1.00022 0.999982 0.994202
1.00012 1.00078 0.99353
1.00009 1.00193 0.992522
1.00009 1.00134 0.993095
1.00009 1.00225 0.992211
1.00009 1.00179 0.992593
1.00009 1.00128 0.99318
1.00015 1.00072 0.993603
1.00022 1.00002 0.994161
1.00019 0.998963 0.995231
1.0002 0.998916 0.995269
1.0001 0.997124 0.997584
1.0002 0.998874 0.995314
1.00009 0.997138 0.997614
1.00004 0.996114 0.998536
1.00006 0.997174 0.997634
1.00001 0.996123 0.998555
0.999954 0.996196 0.99855
1.00019 0.998878 0.995324
1.00004 0.997305 0.997133
1 0.997486 0.997037
0.999893 0.996373 0.999351
0.999962 0.997678 0.996933
0.999829 0.996576 0.999317
0.999757 0.996788 0.999285
1.00422 0.998052 0.988296
1.00447 0.998247 0.987774
1.00473 0.998576 0.986985
1.00481 0.998865 0.986534
1.00493 0.998617 0.986568
1.00482 0.99797 0.987403
1.00453 0.998014 0.987869
1.00493 0.998025 0.987112
1.0048 0.997612 0.98783
1.00475 0.996784 0.988485
1.00476 0.998665 0.986825
1.00469 0.998317 0.987277
1.00472 0.998154 0.987393
1.00039 1.00238 0.99157
1.00033 1.00367 0.990182
1.00151 1.00384 0.988096
1.00407 0.998017 0.988761
1.00287 1.00039 0.988535
1.00026 1.0023 0.991643
1.00031 1.00246 0.991625
1.00017 1.00229 0.991969
1.00017 0.999158 0.995084
1.00023 1.00031 0.993889
1.0002 1.00133 0.992897
1.00485 0.998168 0.987183
1.00018 0.999021 0.995197
1.00017 1 0.994208
1.0049 0.998065 0.987135
1.00482 0.997627 0.987566
1.00007 1.00297 0.991381
1.0007 1.00461 0.988832
1.00193 1.00327 0.987527
1.00404 0.998032 0.988771
1.00021 1.00025 0.993973
1.00019 1.00111 0.993142
1.0005 1.00191 0.991683
1.00016 1.00248 0.992023
1.00007 1.0031 0.991284
1.00016 1.00193 0.992379
1.0049 0.997188 0.987958
1.00505 0.998031 0.987011
1.005 0.996294 0.988426
1.00312 1.00036 0.988062
1.00019 1.00316 0.991186
1.00115 1.00484 0.987902
1.00016 0.999895 0.994281
1.00018 1.00014 0.994084
1.00011 1.00085 0.993657
1.00017 1.00108 0.99313
1.00013 1.0018 0.992653
1 1.00257 0.991895
0.999938 1.00387 0.990983
1.00017 1.00209 0.992116
1.00017 1.00126 0.992947
1.00012 1.00246 0.991898
1.00473 0.997646 0.987942
1.00382 0.997426 0.989701
1.00018 1.00351 0.990849
1.00005 1.004 0.990577
1.00238 1.00184 0.988645
1.00074 1.0048 0.988309
1.00012 1.00193 0.992464
1.00464 0.997338 0.988292
1.00006 1.00322 0.991293
1.00028 1.00419 0.989817
1.00485 0.996238 0.98882
1.00366 0.999263 0.988397
1.00127 1.0045 0.987932
1.00006 1.00277 0.991771
1.00501 0.99653 0.989146
1.00035 1.00353 0.990728
1.00063 1.00468 0.989197
1.00475 0.99636 0.988895
1.00196 1.00267 0.987853
1.00148 0.999965 0.991518
1.00012 1.00164 0.992762
1.00008 1.00219 0.992273
1.00014 1.00246 0.991909
1.00022 0.999975 0.994203
1.00012 1.00078 0.993527
1.00009 1.00135 0.993158
1.00011 1.00194 0.992461
1.00022 1.00002 0.994159
1.00015 1.00071 0.993565
1.00009 1.00224 0.992192
1.0001 1.00128 0.993174
1.00008 1.00181 0.992649
1.00011 1.00214 0.99225
1.00005 1.00161 0.992924
1.00014 1.00119 0.993202
1.0002 1.0007 0.993472
1.00023 1.00005 0.994016
1.00018 1.0007 0.993656
1.00021 1.00006 0.994029
1.00019 0.998988 0.995214
1.00019 0.998963 0.995231
1.00012 0.997167 0.997126
1.0002 0.998918 0.995269
1.00011 0.997147 0.997366
1.00002 0.996067 0.999373
1.00009 0.997158 0.99761
1.00004 0.996081 0.998539
1 0.996098 0.998557
1.00019 0.998774 0.995426
1.00019 0.998878 0.995321
1.00008 0.997169 0.997204
1.00004 0.997312 0.997342
0.999941 0.996227 0.999371
1.00001 0.997496 0.997032
0.999886 0.9964 0.999343
0.999821 0.996605 0.99931
1.00451 0.998008 0.987857
1.00485 0.99796 0.987367
1.00494 0.998615 0.986529
1.00495 0.998012 0.987099
1.00481 0.997616 0.987786
1.00472 0.996852 0.988617
1.00496 0.996967 0.988105
1.00259 1.00005 0.988785
1.00502 0.996028 0.988917
1.00017 0.999834 0.994444
1.00483 0.998122 0.987277
1.00491 0.998078 0.987095
1.00477 0.997784 0.987483
1.00005 1.00294 0.991518
1.00069 1.00463 0.988684
1.00192 1.0032 0.987554
1.00399 0.998061 0.988804
1.00058 1.002 0.991545
1.00006 1.00202 0.992335
1.00004 1.00317 0.991205
1.00019 0.999018 0.995194
1.00017 1.0019 0.992382
1.00021 1.00024 0.994101
1.00019 1.00111 0.993143
1.00017 1 0.994164
1.00488 0.997218 0.988007
1.00017 0.999886 0.994336
1.00019 1.00015 0.99408
1.00012 1.00083 0.99356
1.00506 0.997849 0.987031
1.00498 0.996647 0.988312
1.00026 1.0028 0.99125
1.00094 1.00488 0.98784
1.00313 1.00036 0.988072
1.00017 1.00108 0.993196
1.00012 1.00179 0.992625
1.00014 1.0023 0.991918
0.999928 1.00375 0.991068
1.00002 1.00257 0.991956
1.0049 0.997023 0.988209
1.00517 0.997846 0.986945
1.00451 0.997552 0.988061
1.00179 1.00303 0.988295
1.00018 1.00358 0.99071
1.00011 1.00071 0.993567
1.00012 1.00099 0.993329
1.00013 1.00139 0.993081
1.00009 1.00168 0.992753
1.00008 1.00223 0.992299
0.999897 1.00309 0.991654
0.999795 1.00407 0.990838
1.0001 1.00195 0.992454
1.00004 1.00316 0.991309
1.00464 0.997377 0.988304
1.00478 0.99615 0.988794
1.00375 0.999198 0.988467
1.00026 1.00415 0.989778
1.00117 1.00459 0.988002
1.00004 1.00272 0.991853
1.00498 0.996197 0.989108
1.00024 1.00351 0.990777
1.00043 1.00468 0.989269
1.00475 0.996043 0.989124
1.00197 1.00291 0.987821
1.00152 0.999969 0.990547
1.00013 1.00303 0.99139
1.00512 0.994941 0.990473
1.0001 1.00381 0.990788
1.00034 1.0049 0.989017
1.00275 0.999588 0.98861
1.00042 0.995084 0.966564
0.996915 1.00138 0.981481
1.00114 1.00018 0.992321
0.997658 0.997475 0.96151
0.994959 0.997788 0.962256
1.00008 1.0022 0.992269
1.00011 1.00247 0.991954
1.00021 1.00228 0.991992
1.00022 1.00001 0.994156
1.00015 1.0007 0.993527
1.0001 1.00127 0.993168
1.00007 1.00182 0.992705
1.00009 1.00223 0.992174
1.00014 1.00119 0.993157
1.00022 1.00006 0.994067
1.0002 1.00068 0.993517
1.0001 1.00215 0.992265
1.00006 1.00159 0.992909
1.00007 1.0015 0.992939
1.00009 1.00181 0.992664
1.00019 1.00111 0.993066
1.00023 1.00072 0.993379
1.00021 1.00007 0.994007
1.00022 1.00068 0.993533
1.00017 1.00109 0.993252
1.00013 1.00076 0.993579
1.00018 1.0007 0.993591
1.00021 1.00005 0.994138
1.00021 1.00007 0.994025
1.00019 0.998996 0.995209
1.00019 0.998986 0.995214
1.00011 0.997208 0.997111
1.00019 0.998963 0.995232
1.00012 0.997169 0.997125
1.00002 0.99607 0.999368
1.00012 0.99717 0.997149
1.00004 0.996069 0.998946
1.00004 0.99605 0.998542
1.00019 0.998696 0.9955
1.00019 0.998768 0.995425
1.0001 0.997066 0.997267
1.0002 0.998876 0.995318
1.00007 0.997164 0.997413
0.99998 0.996114 0.999387
1.00005 0.997329 0.997118
0.999934 0.996271 0.999363
0.999878 0.996429 0.999335
1.00481 0.997619 0.987743
1.00497 0.998 0.987086
1.0047 0.996917 0.98875
1.00242 0.998873 0.988927
1.00495 0.996948 0.988169
1.00504 0.996321 0.988862
1.00514 0.997017 0.987838
0.998667 0.999327 0.97978
1.00378 0.996881 0.989106
1.00017 0.999808 0.994473
1.00017 0.99983 0.994443
1.0001 1.00063 0.993771
1.00008 1.00061 0.993845
1.00485 0.997255 0.988056
1.00506 0.99774 0.98705
1.005 0.996918 0.988197
1.00033 1.00247 0.991314
1.00073 1.00495 0.987779
1.00315 1.00039 0.988083
1.00011 1.00253 0.991719
0.99993 1.00364 0.991154
1.00005 1.00258 0.992017
1.00019 1.00015 0.994076
1.00011 1.00178 0.992596
1.00017 1.00108 0.993261
1.00017 0.999878 0.994392
1.00011 1.00082 0.993464
1.0048 0.997026 0.988264
1.00012 1.00071 0.993666
1.00012 1.00096 0.993375
1.00013 1.00136 0.993035
1.00517 0.99751 0.987045
1.00452 0.997648 0.988029
1.00024 1.00342 0.990701
1.00177 1.00332 0.988111
1.00009 1.0017 0.992763
1.00005 1.00224 0.992309
0.999815 1.00408 0.990821
0.999932 1.00328 0.991508
1.00518 0.997035 0.987682
1.00514 0.997356 0.98701
1.00279 1.00142 0.987942
1.00012 1.00408 0.990328
1.00011 1.00149 0.992877
1.00007 1.00157 0.992892
1.00005 1.00224 0.992287
0.999967 1.00375 0.990896
0.999495 0.995103 0.964103
1.00003 1.00267 0.991935
1.00012 1.00349 0.990825
1.00495 0.995812 0.989072
1.00474 0.995724 0.989354
1.00196 1.00315 0.98779
1.00023 1.00464 0.98934
1.00147 0.999971 0.989574
1.00007 1.00306 0.991436
1.00511 0.994915 0.990386
1.00004 1.00377 0.990807
1.0003 1.00497 0.989025
1.00297 0.99951 0.98861
1.00025 0.995588 0.96474
0.996748 1.00119 0.978235
1.00106 1.00011 0.992567
0.997148 0.997887 0.961339
0.994852 0.997866 0.959408
1.00008 1.00285 0.991709
0.998549 0.994979 0.961599
0.99553 0.998853 0.962927
1.00413 0.996165 0.99074
0.999869 1.00399 0.990946
1.00043 1.004 0.989858
1.00081 0.999838 0.994359
0.998169 0.998792 0.965837
0.995578 1.00188 0.977114
0.996225 0.999516 0.962841
0.996157 0.996692 0.968652
1.00008 1.00247 0.991999
1.00018 1.00231 0.991994
1.00017 1.00204 0.992383
1.00021 1.00007 0.994119
1.0002 1.00067 0.993562
1.00014 1.0012 0.993111
1.00008 1.00158 0.992895
1.00009 1.00216 0.992279
1.00022 1.00007 0.994007
1.00007 1.00148 0.992979
1.0002 1.00114 0.993114
1.00024 1.0007 0.993445
1.00009 1.00182 0.992624
1.00018 1.00143 0.992791
1.00013 1.0017 0.992723
1.00023 1.00104 0.993147
1.00025 1.0007 0.993465
1.00023 1.00068 0.993531
1.00018 1.00108 0.993204
1.00024 1.00101 0.993162
1.00012 1.00119 0.993178
1.00022 1.00129 0.992974
1.00003 1.0018 0.992709
1.00011 1.00086 0.993507
1.00013 1.00076 0.993577
1.00019 1.00008 0.994147
1.00018 1.0007 0.993526
1.00021 1.00006 0.994098
1.00018 0.999008 0.995206
1.00021 1.00008 0.994021
1.00019 0.998993 0.995209
1.00008 0.997236 0.997545
1.00019 0.998985 0.995214
1.00011 0.997202 0.997329
1.00006 0.996091 0.998493
1.00012 0.997172 0.997124
1.00002 0.996073 0.999367
1.00006 0.99607 0.998518
1.00016 0.999821 0.994457
1.00019 0.998666 0.995538
1.0002 0.998694 0.9955
1.00012 0.996992 0.997318
1.0002 0.998763 0.995424
1.0001 0.997059 0.997268
1.00001 0.996025 0.999402
1.00006 0.997175 0.997611
0.999989 0.996155 0.998958
0.999965 0.9963 0.998505
1.00212 0.997757 0.989066
1.00494 0.99694 0.988233
1.00507 0.996592 0.988809
0.998211 0.998671 0.981828
1.00368 0.997498 0.989316
1.00517 0.996575 0.987875
1.00484 0.997468 0.989028
0.999231 0.997181 0.983116
0.999117 0.995569 0.964293
0.997586 0.997499 0.960674
0.995351 0.996132 0.961892
1.00007 1.00061 0.993745
1.00017 0.99981 0.994472
1.00017 0.999827 0.994443
1.0001 1.00063 0.993747
1.00004 1.0012 0.993329
1.00008 1.00108 0.993397
1.00009 1.0007 0.993765
1.00008 1.00062 0.9938
1.00471 0.997023 0.988319
1.00517 0.997107 0.987146
1.0045 0.997784 0.987998
1.0003 1.00323 0.990692
1.00176 1.00349 0.987927
0.999834 1.00408 0.990806
0.999967 1.00347 0.991362
1.00001 1.00223 0.992318
1.00012 1.00094 0.993421
1.0001 1.00171 0.992773
1.00013 1.00071 0.993764
1.00012 1.00133 0.992989
1.00511 0.997175 0.987539
1.00008 1.00149 0.99293
1.00008 1.00158 0.992865
1.00507 0.997487 0.987003
1.00245 1.00126 0.988253
1.00019 1.0041 0.990242
1.00007 1.00225 0.992227
0.999991 1.00376 0.990902
1.00454 1.00022 0.98674
1.00399 0.998244 0.988627
1.00014 1.00356 0.990264
0.999956 1.0033 0.991522
1.00004 1.00187 0.992568
1.0001 1.00216 0.992264
1.00012 1.00276 0.991686
0.998447 0.994813 0.960454
1.00003 0.995238 0.968075
1.00002 1.00308 0.991483
0.999983 1.00376 0.990826
1.0051 0.994907 0.990298
1.00321 0.999491 0.988611
1.00027 1.00505 0.989034
1.00025 0.995213 0.963201
0.99683 1.00129 0.979679
1.00089 1.00008 0.992816
0.997067 0.997486 0.962138
0.994747 0.998044 0.956554
1.00007 1.00282 0.991703
0.998663 0.995027 0.960448
0.995299 0.999221 0.961943
1.0043 0.996446 0.990665
0.999771 1.0041 0.990979
1.00027 1.00384 0.989928
1.00081 0.998609 0.994771
0.998152 0.998793 0.963649
0.995723 1.0032 0.979839
0.996078 0.999734 0.961663
0.996403 0.99675 0.967247
1.00013 1.00248 0.991999
0.995682 0.998858 0.966328
0.999123 0.998223 0.976779
1.0016 0.998782 0.993089
0.999551 1.00398 0.992015
0.999497 1.00212 0.995507
0.996787 1.00197 0.983794
0.995792 1.0014 0.963463
0.995671 0.999655 0.963184
0.99939 0.996313 0.972141
1.00015 1.00233 0.991995
1.00017 1.00205 0.992307
0.999913 1.00177 0.992813
1.00022 1.00008 0.994006
1.00024 1.00068 0.993511
1.0002 1.00116 0.993162
1.00006 1.00144 0.993018
1.0001 1.00183 0.992585
1.00024 1.0007 0.993466
1.00016 1.00147 0.992838
1.00023 1.00103 0.99314
1.00009 1.0017 0.992773
1.00018 1.00127 0.993185
1.00025 1.0012 0.992926
1.00025 1.00104 0.993098
1.00023 1.00068 0.993528
1.00018 1.00107 0.993157
1.00023 1.00101 0.993166
1.00012 1.00119 0.993175
1.00023 1.00125 0.992951
1.00007 1.0014 0.993029
1.00023 1.00123 0.992965
1.0002 1.00146 0.992761
1.00006 1.00247 0.991995
0.999894 1.00339 0.991331
0.999998 1.00224 0.992257
1.00002 1.00185 0.992697
1.00011 1.00105 0.993336
1.00011 1.00088 0.993501
1.00017 1.00013 0.994131
1.00013 1.00077 0.993575
1.00019 1.00008 0.994146
1.00017 0.99905 0.995198
1.00021 1.00006 0.994058
1.00019 0.999005 0.995207
1.00006 0.997276 0.997551
1.00019 0.998989 0.995209
1.00009 0.997231 0.997329
1.00004 0.996103 0.998495
1.00012 0.997193 0.997111
1.00002 0.996092 0.999363
1.00002 0.996077 0.999365
1.00017 0.999897 0.994541
1.00018 0.998702 0.995519
1.00016 0.999834 0.994456
1.00012 0.996968 0.997342
1.00019 0.998665 0.995538
1.0002 0.99869 0.9955
1.00012 0.996995 0.997316
1.00002 0.995967 0.999413
1.00009 0.997059 0.997673
1.00002 0.996039 0.998986
1.00001 0.996164 0.998543
0.99848 0.99552 0.961103
0.995664 0.997881 0.965029
0.998424 0.9977 0.983207
1.0036 0.99824 0.989523
1.0052 0.996183 0.987909
0.999165 0.997068 0.985946
1.00483 0.997748 0.988953
0.999812 0.995199 0.966885
0.997223 0.997426 0.961043
0.995154 0.996968 0.959033
1.00048 0.996931 0.989543
0.998107 0.997958 0.967181
0.996085 0.999697 0.962564
0.996787 0.997047 0.965695
1.00006 1.00133 0.993134
1.00008 1.00061 0.993782
1.00017 0.999808 0.994471
1.00009 1.00063 0.993724
1.00002 1.00116 0.993407
1.00007 1.00134 0.993163
1.00008 1.00106 0.99339
1.00011 1.00095 0.99343
1.00009 1.0007 0.99371
1.00008 1.00063 0.993754
1.00504 0.997299 0.987398
1.00495 0.997488 0.986995
1.00209 1.00105 0.988566
1.00024 1.00415 0.990156
1.00002 1.00374 0.990908
1.00011 1.00226 0.992167
1.00008 1.00158 0.992837
1.00006 1.00149 0.992984
1.00466 0.999604 0.986695
1.00005 1.0019 0.992536
1.00013 1.00216 0.992177
1.00361 0.999072 0.988186
0.999988 1.00358 0.990635
1.00007 1.00314 0.991398
1.00018 1.0026 0.99174
1.00246 1.00364 0.987617
1.00105 1.00001 0.992941
0.99999 1.00298 0.99162
1.00004 1.00206 0.992444
1.00017 1.00223 0.992009
1.00029 1.00256 0.991543
0.996978 0.997771 0.968323
0.998463 0.995238 0.960897
0.999764 0.995151 0.963705
1.00006 1.00281 0.991698
0.999678 1.00418 0.991012
1.00452 0.996598 0.99059
1.00011 1.0037 0.989994
0.998871 0.994929 0.960909
0.997846 0.998828 0.966238
0.995984 1.00294 0.977061
1.00086 0.997999 0.995155
0.99616 0.999865 0.961726
0.995049 0.99949 0.961939
0.996848 0.996743 0.966468
1.00007 1.00253 0.991999
0.995791 0.998684 0.966679
0.999092 0.998502 0.976799
1.0017 0.998855 0.993043
0.999321 1.00384 0.992049
1.00018 1.00071 0.996147
0.996944 1.00226 0.979729
0.995912 1.00267 0.965456
0.996267 0.999169 0.964217
0.998645 0.996504 0.971924
0.999558 1.00214 0.99368
1.00092 0.998945 0.978791
1.00414 0.998684 0.979071
0.998239 1.00265 0.995399
0.997551 1.0024 0.989322
0.995589 1.00202 0.964913
0.995777 0.999935 0.966095
0.999604 0.998285 0.969441
1.00016 1.00205 0.992232
1.00001 1.0017 0.992902
0.999891 1.00062 0.993972
1.00024 1.00069 0.993466
1.00024 1.00101 0.993134
1.00014 1.00149 0.992885
1.00005 1.00168 0.992824
1.00025 1.00105 0.9931
1.00024 1.00123 0.992912
1.00014 1.00111 0.993271
1.00003 1.00072 0.99402
1.00035 1.00081 0.99314
1.00024 1.00116 0.992963
1.00022 1.00102 0.99317
1.00011 1.0012 0.993171
1.00025 1.0012 0.992927
1.00023 1.00123 0.992965
1.00006 1.00145 0.99302
1.00021 1.00141 0.99278
1.0001 1.00184 0.992534
1.00028 1.00133 0.992731
0.999991 1.00269 0.991928
1.00007 1.00246 0.992034
0.999856 1.00332 0.991464
1.00016 1.00369 0.990644
1.00005 1.00262 0.991977
0.999875 1.00327 0.991497
1 1.00224 0.992357
1.0001 1.00138 0.992924
1.00002 1.00189 0.992686
1.00011 1.00107 0.993327
1.00016 1.00021 0.99406
1.00011 1.0009 0.993494
1.00017 1.00013 0.994128
1.00014 0.999128 0.995177
1.0002 1.00008 0.994145
1.00017 0.999045 0.995199
1.00002 0.997343 0.997549
1.00019 0.999001 0.995208
1.00006 0.997276 0.997334
1 0.996165 0.998501
1.0001 0.99722 0.997112
1.00002 0.996113 0.998928
1.00002 0.996097 0.999363
1.00016 1.00005 0.994278
1.00017 0.998788 0.995457
1.00016 0.999902 0.994424
1.00011 0.997003 0.997326
1.00018 0.9987 0.99552
1.00016 0.999847 0.994455
1.00002 0.995952 0.999416
1.00012 0.996966 0.997341
1.00019 0.998664 0.995538
1.00012 0.996999 0.997314
1.00002 0.995975 0.99941
1 0.996036 0.999398
0.996336 0.998068 0.96845
0.998308 0.995144 0.960766
0.999018 0.999514 0.975718
0.995691 0.997837 0.963984
0.999528 0.997035 0.981826
1.00482 0.998001 0.988827
0.999304 0.995243 0.969444
0.997577 0.997972 0.961293
0.99493 0.997775 0.956173
0.999911 0.997932 0.987683
0.998848 0.997412 0.963218
0.996207 0.999502 0.961078
0.996627 0.997807 0.964671
0.997954 0.998353 0.986692
0.996803 1.00011 0.963711
0.995491 0.999572 0.962902
0.999064 0.997548 0.969445
1.00008 1.00179 0.992702
1.00006 1.00132 0.993192
1.00009 1.0006 0.99382
1.00001 1.00112 0.993484
1.0001 1.00162 0.992743
1.00007 1.00131 0.993215
1.00008 1.00105 0.993383
1.00014 1.00104 0.993347
1.00012 1.00094 0.993498
1.0001 1.0007 0.993655
1.00477 0.99919 0.986655
1.00326 0.99988 0.987746
0.999866 1.0036 0.991005
1.00019 1.00296 0.991273
1.00022 1.00246 0.991793
1.00014 1.00216 0.992091
1.00006 1.00194 0.992504
1.00005 1.00207 0.992442
1.00273 1.00267 0.987917
1.00014 1.00229 0.992054
1.0003 1.00253 0.991589
1.00104 1.00015 0.992297
1.00018 1.00269 0.991653
1.00079 1.0018 0.990949
1.00011 1.00062 0.994108
1.00018 1.00223 0.991771
1.00018 1.00212 0.99213
1.00031 1.00254 0.99145
1.00266 0.998693 0.978659
0.996958 0.99828 0.96843
0.998376 0.995609 0.960918
0.999997 1.00262 0.991998
0.999101 1.00376 0.992084
1.00172 0.99896 0.993006
0.995732 0.998524 0.968186
0.996314 1.0015 0.962905
0.996905 1.00204 0.981983
1.00093 0.998119 0.996842
0.99568 0.999502 0.963196
0.998895 0.998793 0.976821
0.997941 0.996621 0.972278
0.999514 1.00208 0.993642
1.00061 0.998514 0.980603
1.00358 0.999027 0.979423
0.998321 1.00232 0.995598
0.997404 1.00151 0.989045
0.995855 1.00222 0.962473
1.00027 0.997666 0.970491
0.995325 0.999609 0.965544
0.998597 1.00154 0.995962
1.00845 0.999128 0.979395
1.00515 1.00056 0.977432
0.999401 0.997308 0.969377
0.995426 1.0032 0.996461
0.995424 0.999391 0.968598
0.994551 0.999997 0.967046
1.00013 1.00161 0.99299
1.00004 1.00079 0.993621
0.999853 0.999312 0.995578
1.00025 1.00105 0.993102
1.00023 1.00127 0.992898
1.00011 1.00092 0.993356
1.00025 1.00118 0.992957
1.00034 1.00076 0.993133
1.00013 1.00053 0.993885
0.999724 1.00012 0.994891
1.00041 1.0009 0.992892
1.00023 1.00122 0.992965
1.00005 1.00149 0.993011
1.00022 1.00137 0.992799
1.00028 1.00134 0.992718
1.00012 1.00179 0.992583
0.999928 1.00213 0.992559
0.999945 1.0027 0.991978
0.999813 1.00397 0.990943
1.00009 1.00245 0.992073
0.999963 1.00332 0.991421
1.00007 1.0041 0.990094
1.00013 1.00381 0.990522
1.00006 1.00292 0.991586
1.00011 1.00371 0.990646
1.00012 1.00179 0.992596
1.00006 1.00264 0.991896
0.999856 1.00315 0.991663
1.00001 1.00224 0.992457
1.0001 1.00136 0.993009
1.00016 1.00041 0.993881
1.00011 1.00109 0.993319
1.00016 1.00022 0.994055
1.0001 0.999225 0.995141
1.00017 1.00014 0.994126
1.00014 0.999118 0.995178
0.999968 0.997451 0.997534
1.00017 0.999038 0.9952
1.00003 0.997351 0.997332
0.999956 0.996254 0.9985
1.00007 0.997268 0.997117
0.999989 0.996172 0.998931
0.999996 0.996136 0.999364
1.00017 1.00024 0.993915
1.00015 0.998954 0.995184
1.00016 1.00006 0.994274
1.00009 0.997097 0.99727
1.00017 0.998798 0.995374
1.00015 0.999911 0.994307
1.00001 0.995983 0.99941
1.00011 0.996996 0.997328
1.00018 0.998698 0.99552
1.00002 0.995951 0.999416
1.00012 0.996966 0.997341
1.00002 0.995983 0.999407
1.00192 0.999021 0.978094
0.996434 0.997656 0.967675
0.998347 0.995047 0.961081
1.00021 1.00106 0.993151
1.00322 0.998981 0.980673
0.998839 0.99915 0.97573
0.995673 0.997802 0.963815
0.999828 0.998978 0.985633
0.998599 0.997918 0.967243
0.996074 0.999646 0.961076
0.996647 0.997732 0.963958
0.997281 0.999465 0.98227
0.996097 1.00097 0.966718
0.996496 1.00002 0.963096
0.999089 0.997452 0.968974
0.996437 1.00237 0.978597
0.995592 1.00081 0.962338
0.995044 0.999738 0.964937
0.999363 0.998124 0.969691
1.00015 1.00195 0.992357
1.00008 1.00181 0.992671
1.00005 1.00131 0.99325
1.00015 1.00158 0.992729
1.0001 1.00161 0.992831
1.00007 1.00127 0.993267
1.00015 1.00104 0.993364
1.00012 1.00093 0.993565
1.003 1.00177 0.988212
1.00105 1.00065 0.991652
1.00005 1.00207 0.99244
1.00036 1.0025 0.991687
1.00033 1.00246 0.991633
1.00013 1.00234 0.992099
1.00017 1.00217 0.992142
1.00143 1.00164 0.991212
1.00028 1.0025 0.991591
1.00026 1.00242 0.991739
1.00018 1.00031 0.993896
1.00024 1.00196 0.992275
0.999271 0.998937 0.996008
0.998997 1.00286 0.994108
1.00026 1.00175 0.992049
1.00026 1.00215 0.992005
1.01068 0.998733 0.977629
1.00296 0.999025 0.978199
0.996937 0.998782 0.968545
0.999451 1.00201 0.993607
0.998388 1.0021 0.995777
1.00033 0.99808 0.982407
0.995735 1.00073 0.965531
0.997406 1.00216 0.984415
0.99493 0.999824 0.964861
1.00314 0.99934 0.979776
1.00101 0.997242 0.971542
0.998679 1.00176 0.995477
1.00833 0.999218 0.97972
1.00607 1.00053 0.977723
0.995695 1.00398 0.998888
0.999432 0.997049 0.968853
0.995017 0.999593 0.966662
0.995179 0.999849 0.965122
0.997649 1.00087 0.998617
1.01443 0.998279 0.973346
1.0033 0.998594 0.980892
0.99692 0.99669 0.966064
0.99491 0.999424 0.965024
0.995246 0.999619 0.999113
0.995107 1.00021 0.963623
1.00018 1.00102 0.993272
0.999885 0.999519 0.995411
0.998694 0.998564 0.998451
1.00026 1.00121 0.992952
1.00034 1.00074 0.993125
1.00021 1.00045 0.993749
1.00037 1.00104 0.992865
0.999875 0.999823 0.994883
0.999647 1.00145 0.993633
1.00027 1.00136 0.992705
1.00015 1.00173 0.992632
1.00003 1.0021 0.992509
0.999477 1.00389 0.991593
0.999903 1.0027 0.992027
0.999729 1.00386 0.991127
1.00005 1.00481 0.989709
1.00062 1.00408 0.989364
1.00007 1.00331 0.991378
1.00018 1.00422 0.989879
1.00028 1.00342 0.990888
0.999939 1.00336 0.99123
1.00013 1.00369 0.990648
1.00012 1.0021 0.992295
1.0001 1.00291 0.991576
1.00006 1.00373 0.990649
1.00015 1.00074 0.993568
1.00012 1.00177 0.992571
1.00007 1.00266 0.991815
1.0001 1.00133 0.993094
1.00015 1.00042 0.993873
1.00007 0.999382 0.995058
1.00016 1.00024 0.994049
1.00011 0.999219 0.99514
0.999926 0.997593 0.997071
1.00015 0.99911 0.995179
0.999985 0.997457 0.9971
0.999862 0.996365 0.999363
1.00004 0.997345 0.997115
0.999945 0.996256 0.998931
0.999963 0.996198 0.999364
1.00021 1.00033 0.993767
1.00013 0.999164 0.994983
1.00018 1.00024 0.993978
1.00006 0.997243 0.99718
1.00014 0.998969 0.995161
1.00017 1.00006 0.99427
0.99999 0.996063 0.999395
1.00009 0.997086 0.997274
1.00016 0.998808 0.995291
1.00002 0.995975 0.999412
1.00011 0.996989 0.997329
1.00002 0.995952 0.999415
1.0102 0.997991 0.977502
1.00177 0.999119 0.978323
0.996406 0.997348 0.96789
1.0002 1.00107 0.993172
1.00023 1.00111 0.993011
1.00015 1.00158 0.992792
1.00511 1.00095 0.977037
1.0029 0.998867 0.981032
0.998646 0.998696 0.975743
0.996717 1.00029 0.985229
0.996603 0.999967 0.96374
0.995636 0.999878 0.96213
0.998964 0.997059 0.969163
0.99588 1.0013 0.982716
0.995885 1.00173 0.96352
0.995039 0.999997 0.966647
1.00005 0.997937 0.970665
0.996189 1.00234 0.98095
0.99508 1.00083 0.966457
0.994529 1 0.967577
0.999211 0.996519 0.971989
1.00022 1.00188 0.992323
1.00015 1.00196 0.992346
1.00007 1.00184 0.99264
1.00015 1.00159 0.992723
1.00009 1.0016 0.992918
1.00016 1.00104 0.993382
1.00209 1.00124 0.991475
1.00011 0.999856 0.993687
1.00016 1.00223 0.992155
1.00034 1.00245 0.991706
1.00025 1.00253 0.991733
1.00025 1.00192 0.992218
1.00024 1.00215 0.992033
0.999572 1.00002 0.995974
1.00024 1.00183 0.992242
0.998664 1.00239 0.995317
1.00021 1.00169 0.992546
0.997229 0.999139 0.999313
0.99839 1.00049 0.998052
1.00011 1.00196 0.992331
1.01792 0.997392 0.970458
1.01215 0.998503 0.97604
1.00326 0.999397 0.97774
0.998797 1.00193 0.99499
0.996055 1.00157 0.998468
1.00821 0.999292 0.980045
0.995198 1.00067 0.97403
0.995584 0.999925 0.966681
1.00698 1.0004 0.978013
0.99938 0.996817 0.969031
0.997793 1.00091 0.998512
1.01536 0.998458 0.972223
1.00297 0.998581 0.981213
0.995 1.00091 0.992753
0.996773 0.997192 0.964957
0.995243 0.99994 0.96603
0.995028 1.00016 0.968015
0.996521 1.00108 1.00224
1.01026 0.997951 0.977522
0.999326 0.999289 0.975521
0.99537 0.995944 0.962005
0.995314 0.999195 0.963667
0.995089 1.00008 0.967205
0.995093 0.999773 0.989528
0.999919 0.99976 0.995246
0.998827 0.998309 0.998377
0.998598 1.00029 0.997277
1.00033 1.00113 0.992837
1.00002 0.999485 0.994874
0.999537 1.00158 0.993783
0.999448 1.00279 0.992837
1.00014 1.00208 0.992458
0.999739 1.00387 0.991389
0.999963 1.00497 0.989707
0.999634 1.00376 0.991312
1.00009 1.00479 0.989683
1.00083 1.00485 0.988467
1.0011 1.00444 0.988254
1.00036 1.00332 0.990411
1.00062 1.00412 0.989282
1.00029 1.00435 0.989664
1.00025 1.00299 0.991268
1.0002 1.00327 0.991026
1.00002 1.00271 0.991765
0.999982 1.00331 0.991313
1.00013 1.00356 0.990774
1.00016 1.00114 0.993155
1.00012 1.00209 0.992302
1.00013 1.00289 0.991565
1.00003 0.999641 0.994869
1.00015 1.00073 0.993565
1.00012 1.00175 0.992546
1.00015 1.00043 0.993865
1.00007 0.999382 0.995055
0.99986 0.997771 0.997017
1.00011 0.999213 0.995139
0.99993 0.997596 0.99707
0.999815 0.996509 0.999352
0.999991 0.997456 0.997099
0.999885 0.99638 0.998925
0.999918 0.996285 0.999361
1.00023 1.00042 0.993734
1.00014 0.999316 0.994972
1.0002 1.00034 0.993812
1.00002 0.997432 0.997068
1.00014 0.999177 0.995043
1.00019 1.00025 0.994041
0.999956 0.996184 0.999372
1.00006 0.997233 0.997185
1.00014 0.998988 0.995138
0.999994 0.996046 0.9994
1.00009 0.997076 0.997278
1.00002 0.995965 0.999415
1.0145 0.998545 0.972795
1.00982 0.998519 0.977818
1.00162 0.999178 0.97856
1.00023 1.00122 0.992901
1.00016 1.00178 0.992556
1.00019 1.00109 0.993194
1.00023 1.00113 0.992997
1.00016 1.00157 0.992739
1.00017 1.00161 0.9927
1.00015 1.00184 0.992491
1.00411 0.998934 0.978775
1.00604 1.00094 0.977261
1.00259 0.998778 0.981392
1.00073 0.997561 0.971639
0.99527 1.00044 0.979319
0.995752 1.00263 0.964883
0.994818 1.00006 0.964931
0.995781 1.00049 0.979219
0.99521 1.00013 0.963829
0.995119 0.999855 0.965859
0.998507 0.996869 0.971702
0.995673 0.998156 0.986902
0.994923 1.00023 0.96402
0.996013 1.00001 0.966038
0.99627 0.996684 0.968353
1.00023 1.00178 0.99246
1.00022 1.00184 0.992315
1.00014 1.00197 0.992335
1.00015 1.0016 0.992717
0.999902 1.0016 0.995924
0.998437 1.00192 0.996519
1.00027 1.00185 0.992162
1.00022 1.00213 0.992061
1.00021 1.00198 0.992436
1.00022 1.00169 0.992494
1.00009 1.00201 0.992261
0.99674 1.00072 0.998768
0.998389 1.0003 0.998408
0.999983 1.00187 0.992663
0.995813 0.997413 1.00174
0.998999 1.00247 0.995288
1.01086 0.998922 0.977276
1.02027 0.996533 0.967806
1.01364 0.998223 0.97445
0.997962 1.00091 0.998421
0.995265 0.999644 0.999364
1.0163 0.998651 0.971101
0.995127 1.0002 0.963975
0.99469 1.00004 0.964848
1.00265 0.998594 0.981534
0.996864 0.997471 0.964313
0.996642 1.00081 1.00235
1.00987 0.998454 0.977848
0.999146 0.998929 0.975534
0.994973 0.999804 0.994391
0.995138 0.99679 0.959266
0.996135 0.999682 0.963989
0.995175 1.00011 0.965869
0.996472 1.00207 1.00007
1.0021 0.999168 0.977779
0.995899 0.997775 0.96511
0.996289 0.999468 0.962503
0.995595 1.00029 0.96726
0.994862 0.999983 0.984323
0.999042 0.998034 0.998297
0.998518 1.00049 0.997259
1.00012 0.998978 0.996555
0.999417 1.00173 0.993932
0.999154 1.00283 0.993051
1.0002 1.00397 0.99026
1.00001 1.00382 0.991183
1.0001 1.00499 0.98954
1.00092 1.00479 0.988003
1.00015 1.00478 0.989658
1.00088 1.00483 0.988326
1.00136 1.00446 0.987493
1.00176 1.00356 0.987725
1.00108 1.00364 0.989216
1.00113 1.00449 0.988063
1.00034 1.00274 0.99099
1.00038 1.00331 0.990482
1.00061 1.00416 0.989199
1.00023 1.00279 0.991417
1.00022 1.00304 0.991244
1.00012 1.00313 0.991165
1.00016 1.00162 0.992643
1.00005 1.00264 0.99185
1.00003 1.00326 0.991396
1.00002 0.99999 0.994534
1.00016 1.00112 0.993157
1.00013 1.00208 0.992309
0.999804 0.997981 0.996931
1.00003 0.999646 0.994863
1.00015 1.00073 0.993562
1.00007 0.999381 0.995051
0.999866 0.997778 0.997013
0.999741 0.99668 0.999339
0.999935 0.997599 0.997068
0.999805 0.996531 0.999348
0.999862 0.996403 0.999355
1.00022 1.00132 0.992865
1.00024 1.00052 0.993599
1.00013 0.999452 0.994857
1.00023 1.00041 0.993734
0.999975 0.997624 0.996961
1.00014 0.999329 0.994972
1.00019 1.00034 0.993857
0.999911 0.996343 0.999345
1.00002 0.99742 0.997074
1.00014 0.999186 0.995103
0.99996 0.996164 0.999379
1.00006 0.997222 0.997191
0.999998 0.996029 0.999405
1.00858 0.999264 0.979058
1.01542 0.998815 0.97172
1.00943 0.999055 0.978134
1.00022 1.00123 0.992927
1.00017 1.00178 0.992513
1.00013 1.00209 0.992228
1.00015 1.00171 0.99255
1.00013 1.00213 0.992289
1.00022 1.00114 0.992983
1.00017 1.00156 0.992685
1.00015 1.00162 0.992704
1.00019 1.00182 0.992446
1.00011 1.00193 0.992526
0.999454 0.998147 0.976258
1.00357 0.999288 0.979135
1.00699 1.00104 0.977485
0.997773 0.996864 0.972118
0.995537 0.99994 0.967336
0.995308 1.00036 0.977352
0.995065 1.00013 0.966524
0.995539 0.997044 0.981761
0.99495 1.00014 0.96691
0.995133 0.999845 0.965722
0.996448 0.996841 0.966921
0.994998 0.994842 0.986819
0.995032 1.00007 0.96754
0.995849 0.999929 0.962956
0.995095 0.997497 0.961701
0.999902 1.00155 0.993201
1.00019 1.00185 0.992434
1.00022 1.00182 0.992307
0.996198 1.00182 0.998233
0.99837 0.999968 0.998792
1.00023 1.0017 0.992442
1.00007 1.00211 0.992192
0.999971 1.00182 0.992717
0.998841 1.00243 0.995006
0.995848 0.997059 1.0018
0.998769 1.00282 0.994044
0.997235 1.00134 0.997004
1.00233 0.999364 0.978277
1.01229 0.998573 0.975761
1.02257 0.995753 0.965155
0.996636 1.00064 1.00243
0.994963 0.999925 0.987385
1.00948 0.998989 0.978174
0.995278 1.00009 0.96289
0.995467 0.999331 0.963743
0.998961 0.998455 0.975548
0.994886 0.997596 0.956529
0.996534 1.00199 1.00029
1.00194 0.999243 0.978027
0.995917 0.997638 0.964036
0.994899 0.99996 0.986632
0.99612 0.999474 0.961374
0.995705 0.999596 0.964236
0.997851 1.00058 0.99723
0.996366 0.998055 0.968645
0.997184 0.997617 0.960953
0.997014 1.00011 0.963963
0.994881 1.00011 0.986407
0.998496 1.00065 0.997239
0.999952 0.998746 0.996557
1.00195 0.998781 0.992364
0.99887 1.00286 0.993264
0.999927 1.004 0.990527
1.00146 1.00297 0.988619
1.00023 1.00502 0.989372
1.00097 1.00469 0.988
1.00211 1.00329 0.987411
1.00094 1.00482 0.988185
1.00136 1.00445 0.987526
1.00232 1.00249 0.987662
1.00246 1.00169 0.988198
1.00145 1.00321 0.988539
1.00176 1.00344 0.987759
1.00084 1.00304 0.990118
1.00101 1.00373 0.989044
1.00117 1.00454 0.987873
1.0004 1.00243 0.991403
1.00034 1.00272 0.9911
1.0004 1.00329 0.990553
1.00022 1.002 0.992169
1.00022 1.00277 0.991458
1.0002 1.00308 0.99122
1.00002 1.00049 0.994039
1.00017 1.00163 0.992644
1.00007 1.00257 0.991935
0.999727 0.998261 0.997228
1.00001 1 0.994526
1.00016 1.00111 0.993159
0.999679 0.996915 0.998381
0.999799 0.998011 0.997134
1.00002 0.999651 0.994857
0.999871 0.997784 0.997009
0.99973 0.996711 0.999333
0.999795 0.996554 0.999345
1.00018 1.00163 0.992584
1.00025 1.00068 0.993424
1.00022 1.00136 0.992828
1.0001 0.999594 0.99477
1.00024 1.00053 0.9936
0.999925 0.9978 0.996877
1.00012 0.999468 0.994857
1.00023 1.00042 0.993734
0.999857 0.996513 0.999319
0.999972 0.997616 0.996965
1.00013 0.999345 0.994972
0.999916 0.996315 0.999353
1.00002 0.997409 0.99708
0.999965 0.996139 0.999386
1.00145 0.998515 0.980904
1.00846 0.999326 0.979364
1.01634 0.999132 0.970643
1.00008 1.00234 0.99213
1.00022 1.00125 0.992953
1.00018 1.00179 0.99247
1.00016 1.00173 0.992589
1.00015 1.00206 0.992273
1.00014 1.0021 0.992265
1.00012 1.00238 0.992014
1.00007 1.00214 0.992271
1.00013 1.00164 0.992709
1.00021 1.00179 0.992401
1.0001 1.00194 0.992507
1.00008 1.00228 0.992511
0.995799 0.998508 0.962571
0.999342 0.998513 0.976265
1.00306 0.999564 0.979494
0.996756 0.996671 0.966025
0.995221 0.999906 0.96531
0.994917 1.00023 0.964075
0.995355 0.995717 0.985158
0.994918 0.994878 0.990926
0.994974 0.997586 0.959107
0.994888 1.00014 0.963871
0.995939 0.999775 0.963516
0.995594 0.997489 0.98949
0.995709 0.999484 0.96853
0.996306 0.999856 0.961542
0.999431 1.00135 0.994206
1 1.00151 0.993204
1.00014 1.00193 0.992409
0.9959 0.996728 1.00182
0.998824 1.00229 0.994734
0.999934 1.00178 0.992771
0.999119 1.00273 0.993906
0.996833 1.00153 0.997136
0.998476 1.00116 0.99487
0.996708 0.998628 0.965391
1.00294 0.999234 0.979215
1.01374 0.998191 0.974247
0.996541 1.00192 1.00056
0.994895 0.999942 0.988301
1.00177 0.99935 0.978281
0.995822 0.998833 0.96764
0.996147 0.99967 0.961224
0.995876 0.997528 0.963983
0.997689 1.00047 0.997341
0.996468 0.997689 0.967785
0.996894 0.997703 0.96155
0.994888 1.00024 0.981959
0.996333 1.00009 0.966726
0.999059 0.99981 0.996461
0.998403 0.99551 0.961352
0.997493 1.00006 0.966355
0.995458 1.00072 0.979651
0.999709 0.998593 0.996562
1.00161 0.998665 0.993116
1.00299 0.997327 0.991174
0.999649 1.00401 0.990796
1.00152 1.00282 0.988645
1.00328 0.999684 0.988419
1.00102 1.00457 0.987996
1.00208 1.00307 0.98746
1.00338 0.999919 0.98823
1.00136 1.00443 0.987559
1.00233 1.00236 0.987697
1.00318 0.99973 0.988783
1.00288 0.999922 0.989229
1.00211 1.00194 0.98861
1.00245 1.00158 0.988322
1.00112 1.00275 0.989402
1.00148 1.00318 0.988639
1.00177 1.00331 0.987793
1.00056 1.00252 0.991007
1.00073 1.00304 0.990127
1.00093 1.00382 0.988871
1.00035 1.00202 0.991929
1.00043 1.00243 0.991394
1.00033 1.00269 0.991211
1.00001 1.0011 0.993472
1.00023 1.00199 0.992183
1.0002 1.00275 0.991498
0.999681 0.998592 0.996525
1.00001 1.00049 0.994029
1.00017 1.00162 0.992646
0.999558 0.997169 0.999283
0.999738 0.998303 0.996727
1.00001 1.00001 0.994517
0.999657 0.99691 0.999312
0.999806 0.998026 0.996895
0.99972 0.996744 0.999327
1.00013 1.00194 0.992461
1.00019 1.00161 0.992593
1.00022 1.00097 0.993185
1.00007 0.999744 0.994675
1.00024 1.00068 0.993426
1.00021 1.00138 0.99279
0.999874 0.99796 0.996815
1.0001 0.999593 0.994772
1.00024 1.00053 0.9936
0.999797 0.996682 0.999299
0.999921 0.997796 0.99688
1.00012 0.999478 0.994857
0.999863 0.996487 0.999327
0.999968 0.997608 0.99697
0.999921 0.996289 0.999361
0.996319 0.998664 0.965928
1.00121 0.998528 0.981144
1.00835 0.99937 0.97967
1.00007 1.00239 0.992089
1.00008 1.00261 0.991953
1.00008 1.00258 0.991904
1.00016 1.00174 0.992627
1.00016 1.00203 0.992317
1.00013 1.00207 0.992241
1.00008 1.00215 0.992254
1.00011 1.00239 0.992
0.999971 1.00291 0.991807
1.00013 1.00198 0.992288
1.00009 1.00195 0.992487
1.00002 1.00216 0.992528
0.997628 0.997931 0.960585
0.995579 0.998927 0.961665
0.999141 0.998762 0.976277
0.994906 0.997691 0.956505
0.995209 0.999919 0.962785
0.995404 1.00015 0.96884
0.994957 0.994878 0.986508
0.995316 0.997572 0.985644
0.996178 0.999115 0.960805
0.995484 0.999916 0.966608
0.997023 0.996462 0.98505
0.996919 1.00076 0.963481
1.00068 1.00141 0.992537
0.999616 1.00117 0.994113
1.00009 1.00147 0.993208
0.996233 1.00181 0.997262
0.999421 1.00266 0.993765
0.999138 1.00143 0.994424
1.0017 0.99942 0.991279
0.998468 0.994825 0.960513
0.996613 0.998796 0.967088
1.00355 0.999066 0.98015
0.997589 1.00028 0.997468
0.994912 1.00009 0.984302
0.996441 0.997355 0.968014
0.996364 1.00042 0.963589
0.997474 0.998849 0.961626
0.99903 0.999847 0.995985
0.998299 0.995424 0.960798
0.998464 0.998608 0.962943
0.995258 1.00091 0.983411
1.00015 1.00064 0.994403
0.999064 0.99702 0.96348
0.997435 0.999052 0.984822
1.00128 0.998566 0.993867
1.00285 0.997647 0.991057
1.00447 0.995696 0.989899
1.00156 1.00271 0.98867
1.00331 0.99963 0.988364
1.00452 0.996488 0.989122
1.00205 1.00286 0.98751
1.00337 0.999747 0.988227
1.00433 0.996846 0.989316
1.00234 1.00222 0.987732
1.00317 0.999639 0.988779
1.00356 0.997932 0.989788
1.00318 0.998924 0.98981
1.00287 0.999788 0.989355
1.00256 1.00049 0.989224
1.00187 1.00189 0.989164
1.00212 1.00198 0.98863
1.00244 1.00146 0.988446
1.00092 1.00245 0.990201
1.00117 1.00276 0.98953
1.00151 1.00314 0.988739
1.00046 1.00204 0.991674
1.00059 1.00252 0.990988
1.00063 1.00306 0.990135
1.00005 1.00139 0.993066
1.00037 1.002 0.991934
1.00046 1.00243 0.991385
0.999632 0.998987 0.99619
1.00003 1.00103 0.993473
1.00024 1.00198 0.992197
0.99952 0.997394 0.999236
0.999678 0.99863 0.996505
1.00001 1.00048 0.994019
0.999579 0.997186 0.998792
0.999745 0.998312 0.996722
0.999644 0.996974 0.999295
1.00013 1.00223 0.992155
1.00012 1.00197 0.992413
1.00015 1.00138 0.992923
1.00021 1.00161 0.992602
1.00022 1.00098 0.993185
1.00001 1.00001 0.994503
0.999822 0.998108 0.996767
1.00007 0.999736 0.994681
1.00024 1.0007 0.993429
0.999729 0.996846 0.999283
0.999869 0.997956 0.996818
1.0001 0.999593 0.994774
0.999804 0.996661 0.999305
0.999916 0.997792 0.996883
0.999869 0.99646 0.999334
0.99829 0.995973 0.961305
0.996069 0.999027 0.965039
1.001 0.998547 0.98138
1.00007 1.00244 0.992047
1.00006 1.00266 0.991833
1.00003 1.00259 0.992006
1.00015 1.00263 0.991781
0.999992 1.00292 0.99175
1.0001 1.00216 0.992238
1.00011 1.00239 0.991986
0.999945 1.00282 0.99184
0.999842 1.00288 0.991625
1.00009 1.00249 0.991822
1.00139 1.00206 0.990305
0.999968 1.0023 0.992361
0.999996 1.00205 0.992544
0.999058 0.998883 0.96224
0.997179 0.998222 0.960565
0.995288 0.99936 0.961612
0.996516 0.999327 0.960742
0.995497 1.00057 0.963726
0.995064 0.997576 0.990314
0.997204 0.996721 0.987418
0.996966 0.998824 0.967233
1.00012 0.997637 0.982314
1.00298 0.999617 0.989489
1.00028 1.00125 0.992506
0.999758 1.001 0.994019
0.999656 1.00166 0.993986
1.00239 0.999583 0.990646
0.999399 0.995685 0.963535
0.998511 0.995208 0.961174
0.996512 0.999041 0.968789
0.998986 0.99989 0.995491
0.994955 1.00137 0.979952
0.998403 0.995138 0.960861
0.997888 0.999416 0.966586
1.00048 1.00024 0.99441
0.999951 0.995958 0.965835
0.997032 1 0.981286
1.00229 1.00233 0.989962
1.00046 0.996789 0.988546
1.00273 0.997941 0.990935
1.00421 0.996254 0.989684
1.00515 0.996159 0.98837
1.00335 0.999556 0.988313
1.00448 0.996753 0.989037
1.005 0.995761 0.988976
1.00337 0.999566 0.988225
1.00426 0.996986 0.989237
1.00446 0.996523 0.989436
1.00316 0.999557 0.988775
1.00352 0.998013 0.989741
1.00368 0.99782 0.989775
1.00309 0.998774 0.989956
1.00302 0.999508 0.989493
1.00285 0.999665 0.989482
1.00256 1.00051 0.989194
1.00238 1.00084 0.989252
1.00149 1.00187 0.989702
1.00186 1.00193 0.989141
1.00213 1.00202 0.98865
1.00069 1.00208 0.991196
1.00091 1.00245 0.990291
1.0012 1.00276 0.989657
1.00008 1.00153 0.992824
1.0005 1.00203 0.991658
1.00062 1.00253 0.990968
0.999613 0.999406 0.995781
1.00007 1.00135 0.993076
1.00039 1.00198 0.99194
0.999479 0.997663 0.99917
0.999622 0.999047 0.996172
1.00004 1.00098 0.993475
0.999521 0.997438 0.999218
0.999675 0.998673 0.996485
0.999574 0.997221 0.999255
1.00022 1.00241 0.991823
1.00012 1.00222 0.99216
1.00014 1.00176 0.992516
1.00012 1.00199 0.992365
1.00015 1.00143 0.992859
0.999972 1.00044 0.994146
1.00022 1.00097 0.993185
1.00002 0.999993 0.994509
0.999753 0.998321 0.996689
0.999653 0.997015 0.999272
0.999816 0.998107 0.996771
1.00007 0.999726 0.994686
0.999738 0.996828 0.999288
0.999865 0.997951 0.99682
0.99981 0.996639 0.999311
1.00033 0.996664 0.965197
0.998078 0.995962 0.961054
0.99568 0.999373 0.965156
1.00004 1.00276 0.991762
0.99998 1.00256 0.992059
0.999997 1.00292 0.991781
1.00013 1.00263 0.991783
1.00024 1.00288 0.991382
0.999936 1.0028 0.991778
0.999921 1.00271 0.991873
0.99996 1.00303 0.991463
1 1.00275 0.991734
1.00035 1.00223 0.991252
1.00164 1.0019 0.990586
1.00299 1.00057 0.988343
1.00116 1.00194 0.990492
0.999802 1.00264 0.992434
0.99999 0.99765 0.981142
0.99865 0.998926 0.963566
0.997296 0.998161 0.960804
0.997584 1.00037 0.963504
0.997352 0.996731 0.989763
1.00025 0.997542 0.986454
1.00374 0.997135 0.990493
1.00302 0.999257 0.989888
1.00013 1.0011 0.992472
1.00351 0.999917 0.990001
0.999079 0.998848 0.982204
0.999979 0.995894 0.967375
0.998397 0.995539 0.961274
1.00069 0.999999 0.994411
0.996778 1.00084 0.983429
0.999507 0.995729 0.968292
1.00234 1.00131 0.99019
0.99993 0.997936 0.986682
1.00431 1.00012 0.987901
1.00469 0.997701 0.988635
1.00399 0.996751 0.989469
1.00503 0.996162 0.98834
1.00512 0.997061 0.987836
1.00441 0.996978 0.988949
1.00495 0.996003 0.988953
1.00496 0.997062 0.988001
1.00422 0.997138 0.989159
1.00439 0.996746 0.989376
1.0044 0.997599 0.988618
1.00349 0.998102 0.989694
1.00355 0.997889 0.98986
1.00344 0.998862 0.989102
1.003 0.998625 0.990101
1.00298 0.999399 0.989562
1.00288 1.0001 0.989194
1.00257 1.00052 0.989164
1.00238 1.00086 0.989228
1.00213 1.00107 0.989574
1.00108 1.00174 0.990572
1.00147 1.00189 0.989791
1.00185 1.00196 0.989118
1.00018 1.00168 0.992496
1.00071 1.00207 0.991187
1.0009 1.00245 0.99038
0.999563 0.999942 0.995365
1.0001 1.00155 0.992826
1.00053 1.00203 0.991642
0.999461 0.997938 0.999074
0.999607 0.999467 0.995772
1.00009 1.00131 0.993085
0.999486 0.997705 0.999142
0.999616 0.999102 0.996154
0.999523 0.997479 0.999199
1.00031 1.00262 0.991472
1.00023 1.00239 0.991855
1.00019 1.00204 0.992204
1.00011 1.00221 0.992164
1.00014 1.00181 0.99247
0.999976 1.00091 0.993662
1.00015 1.00148 0.992795
0.999977 1.00044 0.994151
0.999676 0.998635 0.99652
1.00004 0.999973 0.994515
0.99975 0.998305 0.996698
0.999575 0.997224 0.999251
0.999665 0.996996 0.999275
0.999811 0.998104 0.996775
0.999746 0.996811 0.999293
0.999632 0.997843 0.981617
1.00008 0.99644 0.962445
0.998321 0.99589 0.960813
1.00072 1.00256 0.990771
1 1.00292 0.991812
1.00011 1.00262 0.991784
0.999978 1.00287 0.991766
1.00018 1.00295 0.991352
1.00021 1.00204 0.991964
1.00008 1.00322 0.991302
0.999977 1.00302 0.991647
1.00049 1.00223 0.991379
1.00137 1.00189 0.990667
1.0026 1.00061 0.989005
1.00473 0.99837 0.986836
1.00293 1.00041 0.988306
1.001 1.00175 0.990679
1.00339 0.996534 0.992215
0.999857 0.998134 0.979562
0.998737 0.998833 0.965289
1.00011 0.997297 0.983537
1.0038 0.996676 0.991131
1.00272 0.998775 0.9903
1.00342 0.998723 0.989095
0.99893 0.997975 0.984733
0.999743 0.995601 0.963407
1.0025 1.00006 0.990408
0.999937 0.999051 0.984695
1.00432 0.999169 0.987957
1.00466 0.997868 0.989019
1.00509 0.996849 0.987774
1.00516 0.997534 0.987575
1.00486 0.996252 0.988311
1.00509 0.996771 0.98792
1.00486 0.99765 0.987776
1.00494 0.996212 0.988931
1.00497 0.997022 0.988007
1.00477 0.998195 0.987269
1.00428 0.996961 0.989316
1.00425 0.997627 0.98883
1.00402 0.998595 0.988193
1.00342 0.997951 0.989946
1.00344 0.998867 0.989101
1.00329 0.999563 0.98872
1.00294 0.999291 0.989632
1.00285 1.00002 0.989211
1.00258 1.00048 0.989245
1.00238 1.00089 0.989204
1.00209 1.00108 0.989525
1.00168 1.00122 0.990228
1.00051 1.00151 0.992069
1.00108 1.00174 0.990663
1.00145 1.0019 0.98988
0.999514 1.00047 0.994933
1.0002 1.00169 0.992494
1.00074 1.00206 0.991179
0.999383 0.998283 0.998964
0.999594 0.999912 0.995359
1.00012 1.00155 0.992829
0.999448 0.997984 0.99904
0.999603 0.999511 0.995763
0.99949 0.997743 0.999112
1.00056 1.00254 0.990915
1.0003 1.00258 0.991482
1.00032 1.00216 0.991908
1.00023 1.00238 0.991887
1.00018 1.00203 0.992224
0.999994 1.00133 0.99323
1.00014 1.00186 0.992424
0.999963 1.00095 0.99366
0.9996 0.99904 0.996249
0.999979 1.00044 0.994156
0.999678 0.998598 0.996537
0.999508 0.997466 0.999209
0.99975 0.99829 0.996707
0.999586 0.99719 0.999258
0.999676 0.99698 0.999279
1.00337 0.997058 0.991215
0.999616 0.998183 0.978258
0.999774 0.996837 0.965664
1.0008 1.00178 0.99112
1.00177 1.00164 0.989661
1.00053 1.00259 0.990873
1.00003 1.00292 0.991754
1.00014 1.00302 0.99132
1.0004 1.002 0.991837
1.00261 1.00042 0.989327
1.00059 1.00224 0.991506
1.00096 1.00187 0.990747
1.00258 1.00058 0.98907
1.00437 0.998994 0.986836
1.00509 0.996903 0.987464
1.00474 0.998438 0.986874
1.00294 1.00034 0.988268
1.00364 0.996483 0.992385
0.999734 0.998798 0.977321
1.00412 0.996368 0.991755
1.00496 0.996757 0.989179
1.00314 0.998498 0.989365
0.999292 0.997337 0.980776
1.00435 0.998302 0.988025
1.00463 0.998066 0.989355
1.005 0.996806 0.987948
1.00517 0.99715 0.987632
1.00484 0.997248 0.987967
1.00501 0.996575 0.987983
1.00508 0.996403 0.988003
1.00485 0.997474 0.987785
1.00466 0.998025 0.987576
1.00497 0.997066 0.988013
1.00471 0.998135 0.987441
1.00442 0.998561 0.987473
1.00409 0.997657 0.989042
1.00408 0.998593 0.98816
1.00389 0.999067 0.988052
1.00344 0.998873 0.9891
1.0033 0.999558 0.988715
1.00302 1.00006 0.988761
1.00282 0.999949 0.989227
1.00254 1.00046 0.989255
1.00208 1.00076 0.989868
1.00204 1.0011 0.989476
1.00163 1.00121 0.990206
1.00092 1.00112 0.99167
0.999565 1.0007 0.994567
1.00051 1.00152 0.992066
1.00107 1.00175 0.990753
0.999227 0.998785 0.998848
0.999581 1.00039 0.994924
1.00023 1.00169 0.992493
0.999352 0.998379 0.998928
0.99962 0.999907 0.995355
0.999439 0.998048 0.999006
1.00106 1.00224 0.990012
1.00056 1.00252 0.990826
1.00061 1.00208 0.991428
1.00029 1.00255 0.991492
1.0003 1.00215 0.991916
1.00002 1.00163 0.992912
1.00017 1.00203 0.992243
0.999967 1.00139 0.993224
0.999551 0.999485 0.995885
0.99995 1.00099 0.993657
0.999609 0.998985 0.996267
0.999458 0.997728 0.99914
0.999681 0.99856 0.996554
0.999514 0.997425 0.999224
0.999598 0.997163 0.999266
1.005 0.996312 0.988176
1.00337 0.996972 0.990771
0.999752 0.997623 0.979918
1.00263 1.00056 0.989367
1.00062 1.00166 0.99162
1.00264 1.0005 0.988562
1.0018 1.00166 0.989595
1.00033 1.00264 0.990978
1.00436 0.999177 0.987169
1.00059 1.00195 0.991712
1.00266 1.00035 0.989204
1.00501 0.998125 0.98673
1.00259 1.00051 0.989134
1.00456 0.998996 0.986669
1.00503 0.997063 0.987459
1.00459 0.998547 0.986909
1.00374 0.996324 0.992555
1.00485 0.996975 0.988163
1.00475 0.996817 0.989202
1.00281 0.998219 0.989628
1.0049 0.996725 0.988124
1.00519 0.996839 0.987686
1.00479 0.997174 0.988012
1.00506 0.996701 0.988016
1.00495 0.99758 0.987594
1.00481 0.997342 0.987794
1.00464 0.998105 0.987566
1.00451 0.998413 0.987469
1.00466 0.99808 0.987614
1.00446 0.998558 0.987454
1.00426 0.998796 0.987625
1.00413 0.998591 0.988126
1.00391 0.999067 0.988033
1.00358 0.999547 0.988203
1.00331 0.999553 0.98871
1.00302 1.00006 0.988758
1.00255 1.0004 0.989323
1.0025 1.00043 0.989264
1.00207 1.00076 0.989872
1.00133 1.00075 0.991262
1.00158 1.0012 0.990184
1.00092 1.00113 0.991663
0.999643 1.00068 0.995169
0.999129 0.999491 0.996998
0.999632 1.0006 0.994971
1.00052 1.00154 0.992063
0.999201 0.99892 0.998808
0.999645 1.00031 0.994914
0.999328 0.998465 0.99889
1.00319 0.999533 0.98877
1.00175 1.00157 0.989388
1.00118 1.00223 0.989907
1.00097 1.00189 0.990906
1.00056 1.0025 0.990736
1.00057 1.00208 0.991447
1.00013 1.00172 0.992644
1.00027 1.00214 0.991925
0.999999 1.00165 0.99291
0.999552 0.999929 0.995455
0.999938 1.00147 0.993219
0.999556 0.999436 0.995898
0.999406 0.99803 0.999039
0.999617 0.998932 0.996285
0.999458 0.997687 0.999164
0.999521 0.997384 0.999238
1.00485 0.997579 0.987499
1.005 0.996518 0.988721
1.00342 0.997091 0.990332
1.00406 0.999149 0.987595
1.00232 1.00061 0.989742
1.00043 1.00152 0.992114
1.00284 1.00043 0.988698
1.00183 1.0017 0.98953
1.00506 0.998372 0.986567
1.00431 0.99926 0.986993
1.00271 1.00032 0.989081
1.00501 0.998154 0.986722
1.00478 0.998992 0.986502
1.005 0.997194 0.987462
1.00505 0.997678 0.987348
1.00491 0.996919 0.988157
1.00455 0.996834 0.989226
1.00476 0.997095 0.988059
1.0051 0.996801 0.988048
1.0049 0.997569 0.987655
1.00472 0.998415 0.987146
1.00464 0.998168 0.987556
1.00449 0.998477 0.987469
1.00434 0.99889 0.987379
1.0045 0.998551 0.987435
1.00427 0.998793 0.987623
1.00392 0.999185 0.987908
1.00393 0.999068 0.988015
1.00358 0.999546 0.988197
1.00305 0.999969 0.9888
1.00303 1.00005 0.988756
1.00255 1.00039 0.989321
1.00173 1.00048 0.990759
1.00207 1.00076 0.989876
1.00133 1.00075 0.991251
0.999813 1.00056 0.995027
1.00092 1.00115 0.991656
0.999741 1.00066 0.995123
0.998987 1.00005 0.996813
0.999068 0.99953 0.997838
0.999717 1.00052 0.995346
0.999176 0.999041 0.998762
1.00412 0.998871 0.987764
1.00256 1.00054 0.989263
1.00305 0.999279 0.98933
1.00142 1.00162 0.990274
1.00186 1.0016 0.989357
1.0013 1.0022 0.989802
1.00093 1.00193 0.990915
1.00036 1.00166 0.992278
1.00053 1.00207 0.991466
1.00011 1.0017 0.992646
0.999577 1.00032 0.995031
0.999973 1.00165 0.992909
0.999532 0.999918 0.995462
0.999309 0.99844 0.998917
0.999561 0.99938 0.995909
0.999411 0.997978 0.999073
0.99946 0.997642 0.999186
1.00508 0.997889 0.986955
1.00493 0.997546 0.987469
1.00495 0.996659 0.989259
1.00489 0.998351 0.986806
1.00406 0.999194 0.98763
1.00204 1.00066 0.990119
1.00303 1.00035 0.988837
1.00507 0.998347 0.986556
1.00427 0.999343 0.986818
1.005 0.998195 0.986714
1.00504 0.997978 0.986904
1.005 0.997697 0.987294
1.00497 0.996879 0.988152
1.00489 0.998456 0.98688
1.00485 0.997575 0.987717
1.00472 0.998395 0.987175
1.00436 0.99908 0.987141
1.00447 0.998552 0.987469
1.00434 0.998904 0.987386
1.00402 0.999223 0.987682
1.00428 0.998791 0.98762
1.00392 0.999185 0.987906
1.00336 0.999629 0.988539
1.00359 0.999546 0.98819
1.00305 0.999968 0.988799
1.00212 1.00022 0.990282
1.00256 1.00039 0.989319
1.00175 1.00047 0.990744
1.00003 1.00034 0.994887
1.00134 1.00076 0.99124
0.999903 1.00055 0.99498
0.99895 1.00024 0.996737
0.999844 1.00061 0.995073
0.998926 1.00013 0.996863
0.998965 0.999526 0.998749
1.00457 0.99886 0.9871
1.0036 0.999417 0.988299
1.00402 0.998967 0.987947
1.00208 1.00097 0.989858
1.00255 1.00043 0.989276
1.00292 0.999037 0.989883
1.00076 1.00145 0.991685
1.00141 1.00164 0.990267
1.00198 1.00164 0.989326
1.00088 1.00197 0.990923
1.00033 1.00165 0.992284
0.999623 1.00063 0.994649
1.00009 1.00168 0.992647
0.999525 1.00038 0.995036
0.999155 0.998983 0.998798
0.999515 0.999907 0.995468
0.999329 0.998354 0.998957
0.999417 0.997927 0.999106
1.00503 0.998038 0.986911
1.00509 0.997867 0.986917
1.00505 0.997507 0.987441
1.0049 0.998245 0.986892
1.00405 0.999245 0.987664
1.00505 0.998308 0.986546
1.0051 0.998088 0.986705
1.00507 0.998032 0.98683
1.00497 0.997718 0.98724
1.00485 0.998332 0.986993
1.00472 0.998833 0.986785
1.00471 0.998368 0.987204
1.00437 0.999109 0.987142
1.00408 0.999402 0.987326
1.00433 0.998917 0.987393
1.00401 0.999237 0.987682
1.00348 0.99961 0.988331
1.00393 0.999183 0.987904
1.00336 0.999627 0.988537
1.00236 0.999974 0.990051
1.00305 0.999966 0.988798
1.00213 1.0002 0.990274
1.0003 1.0001 0.994704
1.00176 1.00047 0.990729
1.00012 1.00035 0.994828
0.999032 1.00024 0.996649
1 1.00052 0.994934
0.998892 1.00032 0.996792
0.998862 1.00023 0.996918
1.00472 0.998432 0.987041
1.00412 0.999105 0.987594
1.00456 0.998832 0.987056
1.00289 1.00006 0.989114
1.00358 0.99948 0.988367
1.0039 0.999058 0.988136
1.00131 1.00094 0.991076
1.00207 1.0009 0.989717
1.00255 1.00031 0.98929
0.999736 1.00079 0.994271
1.00075 1.00144 0.991696
1.00141 1.00165 0.99026
1.00031 1.00165 0.99229
0.999539 1.00074 0.99466
0.998998 0.999592 0.99869
0.999466 1.00046 0.99504
0.999184 0.998869 0.998838
0.999354 0.998271 0.998996
1.005 0.998212 0.986808
1.00502 0.998039 0.986917
1.00511 0.997848 0.98688
1.00493 0.998136 0.986977
1.00507 0.998483 0.98653
1.0051 0.998114 0.986733
1.0051 0.998088 0.986755
1.00485 0.998214 0.987106
1.00474 0.998809 0.986777
1.0045 0.999207 0.986827
1.00439 0.999141 0.987143
1.00409 0.999426 0.987382
1.00359 0.999677 0.987913
1.00401 0.999253 0.987682
1.00348 0.999615 0.988328
1.00248 0.999901 0.989899
1.00336 0.999629 0.988535
1.00238 0.999957 0.99005
1.00045 0.999947 0.993606
1.00215 1.00018 0.990266
1.00035 1.0001 0.994173
0.999178 1.00017 0.998493
1.0002 1.00035 0.994771
0.998965 1.0003 0.996714
0.998822 1.00043 0.996844
1.00473 0.998464 0.987029
1.00424 0.998919 0.987433
1.0047 0.998501 0.987066
1.00341 0.999481 0.988351
1.0041 0.999119 0.987646
1.00455 0.998817 0.987012
1.0019 1.00027 0.990323
1.0029 1.00006 0.989106
1.00356 0.999547 0.988435
0.999963 1.00065 0.993927
1.00132 1.00091 0.990952
1.00206 1.00084 0.989575
0.998954 1.00008 0.99859
0.99965 1.00087 0.994291
1.00073 1.00143 0.991708
0.999456 1.00084 0.994671
0.999018 0.999456 0.998729
0.999217 0.998742 0.998875
1.005 0.998402 0.986631
1.00502 0.998192 0.986803
1.00502 0.998049 0.986923
1.00489 0.99894 0.986411
1.00506 0.998436 0.986509
1.00508 0.998129 0.986762
1.00474 0.998776 0.98677
1.0045 0.999242 0.986818
1.00407 0.999519 0.987411
1.0041 0.999446 0.987438
1.0036 0.999704 0.98806
1.00267 0.999897 0.989262
1.00348 0.999616 0.988326
1.00248 0.999895 0.989897
1.00053 0.999954 0.993457
1.00239 0.999942 0.990049
1.00045 0.999955 0.993604
0.999248 1.00007 0.998471
1.00036 1.00012 0.993678
0.999146 1.00017 0.997569
0.998897 1.00037 0.996775
1.00475 0.998533 0.987013
1.00434 0.998833 0.987446
1.00474 0.998456 0.987031
1.00363 0.999346 0.988252
1.00426 0.998892 0.987468
1.00468 0.998556 0.98709
1.00236 0.999843 0.989883
1.00344 0.999551 0.988509
1.00408 0.999129 0.987698
1.00023 1.0003 0.99371
1.00195 1.00027 0.990267
1.0029 1.00005 0.989098
0.999029 1.0003 0.998516
0.999911 1.00069 0.993947
1.00133 1.00087 0.990828
0.998928 0.999963 0.998626
0.999575 1.00094 0.994309
0.99903 0.999313 0.998767
1.00478 0.998781 0.986697
1.00497 0.99842 0.986677
1.00504 0.998178 0.986797
1.00442 0.999251 0.987009
1.00488 0.998898 0.986457
1.00507 0.9984 0.986488
1.00449 0.999289 0.986808
1.00406 0.999544 0.98741
1.00312 0.999753 0.988562
1.00361 0.999734 0.988207
1.00265 0.999915 0.989424
1.00068 1.00002 0.993094
1.0025 0.999884 0.989896
1.00054 0.999954 0.993451
0.999317 1.00002 0.998438
1.00044 0.999967 0.993602
0.99927 1.00006 0.998462
0.999181 1.00015 0.996571
1.00447 0.998841 0.987333
1.00471 0.998464 0.9871
1.00382 0.999254 0.988007
1.00435 0.998826 0.987433
1.00474 0.998448 0.987033
1.00261 0.999736 0.989805
1.00365 0.999335 0.988244
1.00427 0.99887 0.987504
1.00045 0.999995 0.993571
1.00238 0.99989 0.989965
1.00345 0.999623 0.988667
0.999161 1.00026 0.998474
1.00021 1.00031 0.993726
1.00199 1.00026 0.990211
0.99898 1.00023 0.998538
0.999855 1.00071 0.993971
0.998902 0.999845 0.998664
1.00428 0.999159 0.987368
1.00477 0.998806 0.986732
1.00494 0.998435 0.986723
1.00337 0.999557 0.988255
1.00442 0.999267 0.987004
1.00486 0.998847 0.986503
1.00405 0.99957 0.987409
1.00306 0.999771 0.988646
1.00094 1.00002 0.992592
1.00262 0.999928 0.989586
1.0007 1.00002 0.993075
0.999412 1.00001 0.998359
1.00054 0.999957 0.993446
0.999347 1.00001 0.998417
0.999299 1.00005 0.998451
1.00401 0.999199 0.987718
1.00447 0.99878 0.987301
1.00468 0.998398 0.987187
1.00281 0.999678 0.98949
1.00383 0.999256 0.987999
1.00437 0.998817 0.98742
1.00063 0.99986 0.993372
1.00261 0.999748 0.989803
1.00367 0.999323 0.988237
0.999303 1.00011 0.998435
1.00044 0.999989 0.993582
1.00239 0.999934 0.990047
0.999113 1.00024 0.998485
1.00018 1.00031 0.99374
0.998922 1.00017 0.998566
1.00329 0.99958 0.988657
1.0043 0.999138 0.987226
1.00475 0.99883 0.986768
1.00113 0.999961 0.992283
1.00336 0.999569 0.988273
1.00441 0.999282 0.986999
1.00301 0.999786 0.988729
1.00096 1.00001 0.992575
0.999582 1.00001 0.99822
1.00072 1.00001 0.993057
0.999468 1.00001 0.998311
0.999378 0.999999 0.998391
1.00306 0.99963 0.989056
1.00403 0.99917 0.987648
1.00447 0.998721 0.987269
1.00084 0.999888 0.994071
1.0028 0.999689 0.989484
1.00384 0.999259 0.987992
0.999433 0.999993 0.998367
1.00062 0.999855 0.993381
1.0026 0.99976 0.989801
0.999259 1.00012 0.998448
1.00043 0.999987 0.993594
0.999065 1.00023 0.998495
1.00117 0.99995 0.992241
1.00329 0.999545 0.988554
1.00433 0.999113 0.987084
0.99974 1 0.99811
1.00114 0.999962 0.992277
1.00334 0.999585 0.98829
1.00098 1.00001 0.992556
0.999647 1.00001 0.998174
0.999534 0.999999 0.998262
1.00107 0.99994 0.993637
1.00306 0.999625 0.989056
1.00406 0.999139 0.987579
0.999381 0.999972 0.998423
1.00077 0.99989 0.993079
1.00281 0.999696 0.989478
0.999388 1.00001 0.998393
1.00061 0.999854 0.993391
0.999216 1.00013 0.99846
0.99976 1.00001 0.995719
1.00116 0.999951 0.992875
1.0033 0.999513 0.988452
0.999754 0.999998 0.998092
1.00114 0.999962 0.992275
0.999696 1 0.998132
0.999495 0.999971 0.996077
1.001 0.999954 0.993184
1.00306 0.999623 0.989056
0.999442 0.99997 0.997285
1.00077 0.999903 0.993059
0.999352 1.00003 0.998417
0.999765 0.999993 0.998086
1.00112 0.999949 0.992329
0.999773 0.999996 0.998081
0.999589 0.999994 0.997088
1.00095 0.999962 0.992647
0.999468 0.999987 0.998338
0.999723 0.999989 0.998124
0.9996 0.999987 0.998227

TENSORS stress float
0.00118467 7.55743e-06 6.10733e-05
7.55743e-06 0.000279117 -7.22537e-06
6.10733e-05 -7.22537e-06 0.000259339
0.00314041 -7.97628e-05 5.54452e-05
-7.97628e-05 0.00129215 3.283e-06
5.54452e-05 3.283e-06 0.00128862
0.00119116 3.54203e-05 2.83436e-05
3.54203e-05 0.000290479 -2.30425e-06
2.83436e-05 -2.30425e-06 0.000266722
0.00154338 -7.98762e-06 7.79898e-05
-7.98762e-06 0.000443857 -5.77044e-06
7.79898e-05 -5.77044e-06 0.000422177
0.00126852 -4.73503e-06 6.72517e-05
-4.73503e-06 0.000324567 -7.25771e-06
6.72517e-05 -7.25771e-06 0.000303602
0.00113712 3.11811e-05 5.07895e-05
3.11811e-05 0.000244355 -6.80562e-06
5.07895e-05 -6.80562e-06 0.000226305
0.00110322 -1.90883e-07 8.62613e-06
-1.90883e-07 0.000193086 -3.65819e-06
8.62613e-06 -3.65819e-06 0.000146671
0.00310681 -8.81638e-05 1.75181e-06
-8.81638e-05 0.00127183 -2.5433e-07
1.75181e-06 -2.5433e-07 0.00126815
0.00378795 -0.00016425 1.91366e-06
-0.00016425 0.00167348 2.02849e-06
1.91366e-06 2.02849e-06 0.00165055
0.00312818 -0.000119425 1.23801e-05
-0.000119425 0.00130953 1.44852e-06
1.23801e-05 1.44852e-06 0.00129696
0.00111112 -3.74001e-05 4.21961e-05
-3.74001e-05 0.000203678 4.11048e-06
4.21961e-05 4.11048e-06 0.00019574
0.000750157 1.28248e-05 7.13345e-06
1.28248e-05 -1.09782e-06 4.20816e-06
7.13345e-06 4.20816e-06 -4.06802e-05
0.00173361 -8.13395e-06 9.38662e-05
-8.13395e-06 0.000523891 5.75907e-07
9.38662e-05 5.75907e-07 0.000501456
0.00132274 9.15458e-08 1.43157e-05
9.15458e-08 0.000330599 1.11584e-06
1.43157e-05 1.11584e-06 0.000306589
0.00122678 7.01543e-05 -4.6136e-06
7.01543e-05 0.000318511 2.59725e-06
-4.6136e-06 2.59725e-06 0.000289834
0.00145112 1.24435e-05 3.45726e-05
1.24435e-05 0.000401762 -2.02659e-06
3.45726e-05 -2.02659e-06 0.000377958
0.00112975 4.32069e-05 2.34152e-05
4.32069e-05 0.000245642 -2.31825e-06
2.34152e-05 -2.31825e-06 0.000225531
0.00127143 3.10962e-05 3.25654e-05
3.10962e-05 0.000334783 -2.15127e-06
3.25654e-05 -2.15127e-06 0.000309388
0.00120362 -8.12866e-06 -1.19515e-05
-8.12866e-06 0.000240885 3.7761e-07
-1.19515e-05 3.7761e-07 0.000196348
0.00475375 -5.25761e-07 9.45474e-05
-5.25761e-07 0.00211874 -9.47309e-07
9.45474e-05 -9.47309e-07 0.00211309
0.00163709 -3.83579e-06 8.23012e-05
-3.83579e-06 0.00048347 -4.36232e-06
8.23012e-05 -4.36232e-06 0.000462282
0.00139575 -7.51616e-06 7.22612e-05
-7.51616e-06 0.000381834 -6.83523e-06
7.22612e-05 -6.83523e-06 0.000360143
0.0014235 -1.58028e-05 1.5451e-05
-1.58028e-05 0.000295247 -3.33459e-06
1.5451e-05 -3.33459e-06 0.000247207
0.00119852 -1.22606e-06 8.9009e-06
-1.22606e-06 0.00022814 -4.18326e-06
8.9009e-06 -4.18326e-06 0.00017986
0.00114985 4.22226e-05 4.16749e-05
4.22226e-05 0.000233565 -6.7125e-06
4.16749e-05 -6.7125e-06 0.000220033
0.00102648 6.64433e-06 8.1225e-06
6.64433e-06 0.000161304 -3.09563e-06
8.1225e-06 -3.09563e-06 0.000118578
0.00147352 -7.68826e-05 3.42578e-06
-7.68826e-05 0.000300416 -1.21045e-06
3.42578e-06 -1.21045e-06 0.000227294
0.00306112 -9.16096e-05 -4.52472e-05
-9.16096e-05 0.00124462 -3.19158e-06
-4.52472e-05 -3.19158e-06 0.00124133
0.00247756 -6.3384e-05 -2.96827e-05
-6.3384e-05 0.000969781 -6.97786e-07
-2.96827e-05 -6.97786e-07 0.000949779
0.00218104 -7.51397e-05 -2.18263e-05
-7.51397e-05 0.000803721 -5.77213e-07
-2.18263e-05 -5.77213e-07 0.000788469
0.00290603 -8.19739e-05 9.9531e-07
-8.19739e-05 0.00115213 -1.38815e-07
9.9531e-07 -1.38815e-07 0.0011526
0.000698212 4.87546e-06 -9.42804e-08
4.87546e-06 -2.34048e-05 -1.34629e-07
-9.42804e-08 -1.34629e-07 -6.3625e-05
0.0016155 1.75951e-05 7.34779e-05
1.75951e-05 0.000495435 4.36495e-06
7.34779e-05 4.36495e-06 0.000473984
0.00154514 -1.94997e-06 6.26999e-05
-1.94997e-06 0.000470245 4.91469e-06
6.26999e-05 4.91469e-06 0.00044997
0.00211814 5.62361e-05 3.93533e-05
5.62361e-05 0.000697199 4.56387e-06
3.93533e-05 4.56387e-06 0.000656143
0.0026959 -8.4266e-05 1.38624e-05
-8.4266e-05 0.00103224 1.40507e-06
1.38624e-05 1.40507e-06 0.00103547
0.00184017 1.79743e-05 3.01488e-05
1.79743e-05 0.000572856 3.51314e-06
3.01488e-05 3.51314e-06 0.000536695
0.000690356 -2.24033e-05 7.2089e-06
-2.24033e-05 -2.93563e-05 6.29999e-06
7.2089e-06 6.29999e-06 -6.56262e-05
0.000909289 4.96592e-05 3.58429e-06
4.96592e-05 5.21765e-05 7.76077e-07
3.58429e-06 7.76077e-07 -1.99466e-05
0.0025206 -5.95809e-05 3.5607e-05
-5.95809e-05 0.00092632 3.45815e-06
3.5607e-05 3.45815e-06 0.000936368
0.00485602 -1.46354e-05 2.00987e-06
-1.46354e-05 0.00216931 -4.06533e-07
2.00987e-06 -4.06533e-07 0.00216349
0.00294052 -3.39709e-06 -3.68508e-05
-3.39709e-06 0.0011777 -7.93938e-07
-3.68508e-05 -7.93938e-07 0.00116263
0.00511228 6.16338e-08 0.000103112
6.16338e-08 0.00229411 2.69357e-07
0.000103112 2.69357e-07 0.0022884
0.00134686 6.28248e-06 1.32699e-05
6.28248e-06 0.000338167 6.88026e-07
1.32699e-05 6.88026e-07 0.000313247
0.000798718 -5.25935e-06 1.39357e-05
-5.25935e-06 -7.0036e-05 1.75075e-06
1.39357e-05 1.75075e-06 -0.000124172
0.00428774 -4.75891e-05 2.1454e-05
-4.75891e-05 0.00189807 9.57715e-07
2.1454e-05 9.57715e-07 0.00188734
0.00230186 4.88941e-06 4.84604e-05
4.88941e-06 0.000742633 2.76502e-06
4.84604e-05 2.76502e-06 0.000703879
0.00135718 1.18308e-05 -1.37481e-05
1.18308e-05 0.000357892 1.92406e-06
-1.37481e-05 1.92406e-06 0.000332652
0.00130408 7.55343e-05 -2.10767e-06
7.55343e-05 0.000363248 2.88145e-06
-2.10767e-06 2.88145e-06 0.000331966
0.00112289 6.38322e-05 -6.80624e-06
6.38322e-05 0.000247961 2.14698e-06
-6.80624e-06 2.14698e-06 0.000224777
0.0012669 -1.93462e-05 -3.2602e-05
-1.93462e-05 0.000268582 4.38337e-06
-3.2602e-05 4.38337e-06 0.000226437
0.00315982 4.16966e-05 -3.81859e-05
4.16966e-05 0.00128289 -1.00876e-06
-3.81859e-05 -1.00876e-06 0.00126505
0.00149338 7.26238e-06 3.46319e-05
7.26238e-06 0.000413399 -1.47618e-06
3.46319e-05 -1.47618e-06 0.00039048
0.00109841 4.93007e-05 1.76664e-05
4.93007e-05 0.000209319 -2.3433e-06
1.76664e-05 -2.3433e-06 0.000194957
0.00135981 2.58953e-05 3.48992e-05
2.58953e-05 0.000371403 -2.13298e-06
3.48992e-05 -2.13298e-06 0.000346079
0.00148176 -2.521e-05 -1.24989e-05
-2.521e-05 0.000323038 1.75526e-07
-1.24989e-05 1.75526e-07 0.000276684
0.00111376 4.2197e-06 -9.16332e-06
4.2197e-06 0.000203277 3.63437e-07
-9.16332e-06 3.63437e-07 0.00016184
0.00129451 -1.26694e-05 -1.37175e-05
-1.26694e-05 0.000273281 2.89062e-07
-1.37175e-05 2.89062e-07 0.000227246
0.00159401 -8.18178e-05 -2.02855e-06
-8.18178e-05 0.000359316 7.08e-07
-2.02855e-06 7.08e-07 0.000285248
0.0049221 3.92512e-05 9.34513e-05
3.92512e-05 0.00220211 1.47184e-07
9.34513e-05 1.47184e-07 0.00219561
0.00164131 4.27372e-06 8.50276e-05
4.27372e-06 0.000482927 -3.12532e-06
8.50276e-05 -3.12532e-06 0.000461514
0.00224363 3.76479e-05 1.18975e-05
3.76479e-05 0.000701332 -1.01207e-06
1.18975e-05 -1.01207e-06 0.000655431
0.00148176 -1.71751e-05 1.77168e-05
-1.71751e-05 0.000311818 -2.35222e-06
1.77168e-05 -2.35222e-06 0.000264834
0.00130736 -4.08783e-06 1.10046e-05
-4.08783e-06 0.000261578 -4.15696e-06
1.10046e-05 -4.15696e-06 0.000212681
0.00191393 -7.0565e-05 5.7424e-06
-7.0565e-05 0.000407119 -1.86972e-06
5.7424e-06 -1.86972e-06 0.000327275
0.00121173 -6.98991e-05 5.06637e-06
-6.98991e-05 0.000125048 -2.40279e-06
5.06637e-06 -2.40279e-06 4.84376e-05
0.00123089 4.37663e-05 3.88077e-05
4.37663e-05 0.00025471 -6.52407e-06
3.88077e-05 -6.52407e-06 0.000247889
0.000994715 3.18695e-05 6.33921e-06
3.18695e-05 0.000147309 -2.79371e-06
6.33921e-06 -2.79371e-06 0.000110989
0.00130753 -6.43998e-05 2.5703e-06
-6.43998e-05 0.000249679 -8.0546e-07
2.5703e-06 -8.0546e-07 0.000179452
0.00111997 -8.61728e-05 2.31918e-06
-8.61728e-05 6.1377e-05 -5.67031e-07
2.31918e-06 -5.67031e-07 -3.15865e-05
0.00371312 -9.61416e-05 -5.6608e-05
-9.61416e-05 0.00162172 -3.6355e-06
-5.6608e-05 -3.6355e-06 0.00160821
0.0028968 -8.31124e-05 -4.14702e-05
-8.31124e-05 0.0011438 -3.22682e-06
-4.14702e-05 -3.22682e-06 0.00114533
0.00319445 -9.70122e-05 -4.97584e-05
-9.70122e-05 0.00133289 -3.02678e-06
-4.97584e-05 -3.02678e-06 0.00132524
0.000651617 5.14877e-06 -6.04955e-06
5.14877e-06 -4.40697e-05 -4.82735e-06
-6.04955e-06 -4.82735e-06 -8.41324e-05
0.00429921 -4.76601e-05 -2.80766e-06
-4.76601e-05 0.00190963 -1.38407e-07
-2.80766e-06 -1.38407e-07 0.00189994
0.0036011 -8.80333e-05 2.06495e-06
-8.80333e-05 0.00156078 -1.86828e-07
2.06495e-06 -1.86828e-07 0.00154933
0.000642585 5.78086e-05 -3.57848e-07
5.78086e-05 -7.27507e-05 -1.40634e-07
-3.57848e-07 -1.40634e-07 -0.000121906
0.00187725 -6.08766e-05 -1.60014e-05
-6.08766e-05 0.000598234 -7.77807e-07
-1.60014e-05 -7.77807e-07 0.00059828
0.000673614 2.75649e-05 -2.29777e-07
2.75649e-05 -3.60756e-05 -8.01887e-08
-2.29777e-07 -8.01887e-08 -7.97004e-05
0.00115373 -2.87275e-05 8.77693e-06
-2.87275e-05 0.000215584 4.88097e-07
8.77693e-06 4.88097e-07 0.000183746
0.000866604 4.92998e-05 1.47291e-07
4.92998e-05 2.88667e-05 -2.25777e-07
1.47291e-07 -2.25777e-07 -4.26061e-05
0.00263692 -6.60592e-05 3.87433e-05
-6.60592e-05 0.000992842 3.42216e-06
3.87433e-05 3.42216e-06 0.00100052
0.000738624 -4.65929e-05 2.29486e-06
-4.65929e-05 -1.97502e-05 4.18282e-06
2.29486e-06 4.18282e-06 -3.86003e-05
0.000784851 5.41825e-05 1.35178e-05
5.41825e-05 -2.48011e-05 5.72309e-06
1.35178e-05 5.72309e-06 -7.51725e-05
0.000791724 4.88563e-05 1.14634e-05
4.88563e-05 1.5077e-05 6.70924e-06
1.14634e-05 6.70924e-06 -3.25906e-05
0.00104036 7.00813e-05 5.67579e-06
7.00813e-05 2.65294e-05 2.2033e-06
5.67579e-06 2.2033e-06 -5.37355e-05
0.00156148 -5.27738e-05 1.90045e-05
-5.27738e-05 0.000427993 3.65031e-06
1.90045e-05 3.65031e-06 0.000404233
0.00095604 6.497e-05 3.78153e-06
6.497e-05 5.67066e-05 1.18128e-06
3.78153e-06 1.18128e-06 -1.5865e-05
0.000888247 3.45484e-05 3.46491e-06
3.45484e-05 5.38115e-05 1.65762e-06
3.46491e-06 1.65762e-06 -1.68808e-05
0.000894734 7.87757e-05 2.05135e-06
7.87757e-05 1.47964e-05 -5.17455e-07
2.05135e-06 -5.17455e-07 -7.21983e-05
0.00236722 -5.32325e-05 3.14188e-05
-5.32325e-05 0.000839285 3.52801e-06
3.14188e-05 3.52801e-06 0.000851837
0.00247768 -5.97298e-05 6.64391e-07
-5.97298e-05 0.000903523 -9.49588e-08
6.64391e-07 -9.49588e-08 0.000913842
0.00447946 -1.93197e-06 -8.54628e-05
-1.93197e-06 0.00198691 -2.44813e-06
-8.54628e-05 -2.44813e-06 0.00198104
0.00475283 -1.72796e-05 -9.0527e-05
-1.72796e-05 0.00211919 -8.87609e-07
-9.0527e-05 -8.87609e-07 0.00211327
0.00505109 5.78487e-06 3.61034e-06
5.78487e-06 0.00226559 -4.94653e-07
3.61034e-06 -4.94653e-07 0.00225913
0.00301627 -9.38795e-06 -3.74897e-05
-9.38795e-06 0.00121252 -5.3465e-07
-3.74897e-05 -5.3465e-07 0.00119678
0.00160326 6.61683e-06 2.11943e-05
6.61683e-06 0.000355747 1.69342e-07
2.11943e-05 1.69342e-07 0.000307551
0.00282544 -2.16992e-05 -3.7444e-05
-2.16992e-05 0.00112731 -8.38782e-07
-3.7444e-05 -8.38782e-07 0.00111109
0.00150136 2.21332e-05 1.86235e-05
2.21332e-05 0.000325351 3.09524e-07
1.86235e-05 3.09524e-07 0.000281312
0.00513141 6.92688e-05 9.59644e-05
6.92688e-05 0.00230626 1.24919e-06
9.59644e-05 1.24919e-06 0.00229843
0.000783451 -6.28603e-07 1.24862e-05
-6.28603e-07 -9.13096e-05 2.50088e-07
1.24862e-05 2.50088e-07 -0.000147831
0.00234195 -1.73467e-05 5.0675e-05
-1.73467e-05 0.000755177 1.84412e-06
5.0675e-05 1.84412e-06 0.000714767
0.00124777 1.40586e-05 7.41138e-06
1.40586e-05 1.07342e-05 1.407e-06
7.41138e-06 1.407e-06 -7.65412e-05
0.00221493 4.55544e-05 4.54322e-05
4.55544e-05 0.000711374 3.20151e-06
4.54322e-05 3.20151e-06 0.000671797
0.00119237 4.22313e-05 7.37794e-06
4.22313e-05 1.5598e-05 1.30137e-06
7.37794e-06 1.30137e-06 -6.8208e-05
0.0017012 1.73953e-05 -9.14245e-05
1.73953e-05 0.000508543 3.69695e-07
-9.14245e-05 3.69695e-07 0.000486473
0.00133428 -7.6265e-07 -1.5471e-05
-7.6265e-07 0.000335164 1.42356e-06
-1.5471e-05 1.42356e-06 0.000310694
0.000995078 5.71313e-05 -7.85559e-06
5.71313e-05 0.000158266 1.79473e-06
-7.85559e-06 1.79473e-06 0.000142936
0.00134726 3.42574e-05 -9.14681e-06
3.42574e-05 0.000369552 2.33697e-06
-9.14681e-06 2.33697e-06 0.000342977
0.0015439 -2.39595e-05 -4.26827e-05
-2.39595e-05 0.000353337 3.80344e-06
-4.26827e-05 3.80344e-06 0.000308291
0.00135125 -2.74411e-05 -3.62438e-05
-2.74411e-05 0.000296353 4.59887e-06
-3.62438e-05 4.59887e-06 0.000253423
0.00119566 -3.02409e-06 -2.80581e-05
-3.02409e-06 0.00024193 3.86691e-06
-2.80581e-05 3.86691e-06 0.0002023
0.0017433 -8.71586e-05 -8.02513e-06
-8.71586e-05 0.000433119 2.87478e-06
-8.02513e-06 2.87478e-06 0.000358053
0.00501407 1.64761e-05 -3.29765e-06
1.64761e-05 0.00224658 -4.39064e-07
-3.29765e-06 -4.39064e-07 0.00224046
0.00149022 6.32195e-06 3.58096e-05
6.32195e-06 0.000408657 -8.79782e-07
3.58096e-05 -8.79782e-07 0.000385627
0.00115918 8.91416e-06 -2.30568e-05
8.91416e-06 0.000124645 2.99185e-07
-2.30568e-05 2.99185e-07 7.44744e-05
0.00151815 -2.02945e-05 -1.28803e-05
-2.02945e-05 0.00032877 1.83126e-07
-1.28803e-05 1.83126e-07 0.00028301
0.00200882 6.16627e-05 3.02187e-05
6.16627e-05 0.000669828 -1.61426e-06
3.02187e-05 -1.61426e-06 0.000667521
0.00129256 2.99214e-05 -5.99627e-06
2.99214e-05 0.000299989 3.45941e-07
-5.99627e-06 3.45941e-07 0.000264699
0.00139068 -2.29299e-05 -1.27053e-05
-2.29299e-05 0.000299644 2.46858e-07
-1.27053e-05 2.46858e-07 0.000253748
0.00173961 -6.5671e-05 -4.01481e-06
-6.5671e-05 0.000315337 6.74411e-07
-4.01481e-06 6.74411e-07 0.000234375
0.00147348 -7.27884e-05 -1.63705e-06
-7.27884e-05 0.000332344 7.15283e-07
-1.63705e-06 7.15283e-07 0.000260787
0.00147029 -7.66008e-05 -9.33193e-07
-7.66008e-05 0.00025869 1.07494e-07
-9.33193e-07 1.07494e-07 0.000182611
0.00112774 -8.58821e-05 -3.42905e-08
-8.58821e-05 6.50943e-05 3.16915e-08
-3.42905e-08 3.16915e-08 -2.77073e-05
0.000754171 2.85845e-06 1.22814e-05
2.85845e-06 -0.000100031 -1.64748e-06
1.22814e-05 -1.64748e-06 -0.000155802
0.00147522 -1.09294e-05 1.74139e-05
-1.09294e-05 0.00030454 -1.82979e-06
1.74139e-05 -1.82979e-06 0.000257742
0.00161847 -1.91481e-06 6.80761e-06
-1.91481e-06 0.000210187 -1.28818e-06
6.80761e-06 -1.28818e-06 0.000127108
0.00156331 -4.83005e-05 7.00281e-06
-4.83005e-05 0.000203445 -1.20449e-06
7.00281e-06 -1.20449e-06 0.000122831
0.00142548 -7.10195e-05 6.26396e-06
-7.10195e-05 0.000189189 -2.71452e-06
6.26396e-06 -2.71452e-06 0.000109025
0.00181856 -7.99959e-05 1.99651e-06
-7.99959e-05 0.000277338 -5.61312e-07
1.99651e-06 -5.61312e-07 0.000179571
0.00281324 7.45845e-05 3.98935e-05
7.45845e-05 0.00108525 -3.15831e-06
3.98935e-05 -3.15831e-06 0.00109108
0.00114341 -8.25102e-05 2.32974e-06
-8.25102e-05 3.17145e-05 -8.64778e-07
2.32974e-06 -8.64778e-07 -6.20829e-05
0.000693989 6.28135e-05 1.99318e-06
6.28135e-05 -2.30204e-05 -4.3178e-06
1.99318e-06 -4.3178e-06 -5.85648e-05
0.000712977 -4.25535e-05 2.49348e-06
-4.25535e-05 -3.63915e-05 -9.33794e-07
2.49348e-06 -9.33794e-07 -0.000105166
0.00121073 -9.31542e-05 2.23075e-06
-9.31542e-05 0.000150601 -7.59434e-07
2.23075e-06 -7.59434e-07 5.74542e-05
0.00123914 -9.63963e-05 9.83466e-07
-9.63963e-05 8.62385e-05 5.8439e-09
9.83466e-07 5.8439e-09 -1.46025e-05
0.000655367 4.90858e-05 3.06603e-06
4.90858e-05 -6.13402e-05 -4.2458e-06
3.06603e-06 -4.2458e-06 -8.49453e-05
0.000833891 2.69494e-05 1.1555e-06
2.69494e-05 1.28463e-05 -2.38333e-06
1.1555e-06 -2.38333e-06 -3.89277e-05
0.00407831 -4.65315e-05 -7.04789e-05
-4.65315e-05 0.00179699 -3.2805e-06
-7.04789e-05 -3.2805e-06 0.00178821
0.00337385 -9.78855e-05 -5.30763e-05
-9.78855e-05 0.00144145 -3.14387e-06
-5.30763e-05 -3.14387e-06 0.00143046
0.000589429 5.10054e-05 -9.32946e-06
5.10054e-05 -9.83646e-05 -5.26771e-06
-9.32946e-06 -5.26771e-06 -0.000147336
0.00276291 -7.44567e-05 -3.92214e-05
-7.44567e-05 0.00106423 -3.20933e-06
-3.92214e-05 -3.20933e-06 0.00106957
0.000627272 -4.59833e-05 -1.99204e-06
-4.59833e-05 -5.65845e-05 -5.04474e-06
-1.99204e-06 -5.04474e-06 -9.26873e-05
0.000611084 2.42726e-05 -7.22386e-06
2.42726e-05 -6.3083e-05 -4.5618e-06
-7.22386e-06 -4.5618e-06 -0.000107312
0.000836285 4.86646e-05 -3.49007e-06
4.86646e-05 1.21465e-05 -1.18764e-06
-3.49007e-06 -1.18764e-06 -5.89705e-05
0.00262998 -6.64715e-05 5.86584e-07
-6.64715e-05 0.00098904 -1.18699e-07
5.86584e-07 -1.18699e-07 0.000996889
0.000714179 -4.39382e-05 1.40608e-07
-4.39382e-05 -3.3804e-05 6.21082e-08
1.40608e-07 6.21082e-08 -5.19383e-05
0.00138421 5.44259e-05 1.61374e-05
5.44259e-05 0.00029292 1.66835e-07
1.61374e-05 1.66835e-07 0.000247711
0.00123166 3.97665e-05 1.33388e-05
3.97665e-05 0.000252148 2.39745e-07
1.33388e-05 2.39745e-07 0.000209207
0.00102046 7.00696e-05 3.43066e-07
7.00696e-05 1.70994e-05 -4.50654e-08
3.43066e-07 -4.50654e-08 -6.30338e-05
0.000707107 -5.74077e-05 2.3992e-08
-5.74077e-05 -2.15753e-05 7.68279e-08
2.3992e-08 7.68279e-08 -5.11885e-05
0.000903725 6.21221e-05 5.88316e-08
6.21221e-05 2.97478e-05 2.64797e-07
5.88316e-08 2.64797e-07 -4.24631e-05
0.00084646 2.89618e-05 2.23997e-07
2.89618e-05 3.26264e-05 -2.78297e-07
2.23997e-07 -2.78297e-07 -3.79874e-05
0.000852638 7.6998e-05 -6.74601e-08
7.6998e-05 -7.82651e-06 -1.71934e-07
-6.74601e-08 -1.71934e-07 -9.50487e-05
0.000709379 -5.31153e-05 2.07221e-06
-5.31153e-05 -2.66419e-05 4.36269e-06
2.07221e-06 4.36269e-06 -5.09133e-05
0.000766555 -3.90927e-05 2.7304e-06
-3.90927e-05 -1.49621e-05 3.88148e-06
2.7304e-06 3.88148e-06 -2.85427e-05
0.000781048 -5.56368e-06 2.53625e-06
-5.56368e-06 -9.94535e-06 2.35064e-06
2.53625e-06 2.35064e-06 -6.07728e-05
0.0010877 6.3263e-05 6.51291e-06
6.3263e-05 8.55583e-06 2.01636e-06
6.51291e-06 2.01636e-06 -7.40168e-05
0.00100258 7.09976e-05 4.60113e-06
7.09976e-05 5.12692e-05 1.94407e-06
4.60113e-06 1.94407e-06 -2.49572e-05
0.00122365 8.91243e-05 3.16225e-06
8.91243e-05 6.47394e-05 1.06496e-06
3.16225e-06 1.06496e-06 -3.30139e-05
0.000862988 2.03267e-05 2.90369e-06
2.03267e-05 3.85985e-05 2.07435e-06
2.90369e-06 2.07435e-06 -2.68345e-05
0.000932434 8.18399e-05 1.64526e-06
8.18399e-05 7.32091e-06 -1.17982e-07
1.64526e-06 -1.17982e-07 -7.97445e-05
0.00105325 8.10228e-05 2.21496e-06
8.10228e-05 0.000120356 1.60819e-07
2.21496e-06 1.60819e-07 3.18743e-05
0.00105849 9.37408e-05 -1.00688e-07
9.37408e-05 9.13096e-05 -1.36565e-06
-1.00688e-07 -1.36565e-06 -3.80041e-06
0.00225476 -4.73824e-05 2.76608e-05
-4.73824e-05 0.000772411 3.57881e-06
2.76608e-05 3.57881e-06 0.000787349
0.00233601 -5.34364e-05 5.98649e-07
-5.34364e-05 0.000822031 -7.74561e-08
5.98649e-07 -7.74561e-08 0.000834878
0.00243762 -5.98309e-05 -3.16926e-05
-5.98309e-05 0.000882024 -3.33733e-06
-3.16926e-05 -3.33733e-06 0.000892647
0.000696689 4.05089e-05 3.13855e-06
4.05089e-05 -4.76543e-05 -3.87395e-06
3.13855e-06 -3.87395e-06 -6.57523e-05
0.00267882 6.72521e-05 3.65657e-05
6.72521e-05 0.00100958 -3.26543e-06
3.65657e-05 -3.26543e-06 0.0010179
0.00432702 -1.48821e-05 -8.0112e-05
-1.48821e-05 0.00191508 -2.96688e-06
-8.0112e-05 -2.96688e-06 0.00190834
0.00458866 3.09575e-06 -8.83309e-05
3.09575e-06 0.00203904 -1.75765e-06
-8.83309e-05 -1.75765e-06 0.00203337
0.000700848 2.93862e-05 -1.14839e-05
2.93862e-05 -9.48215e-05 -2.65517e-06
-1.14839e-05 -2.65517e-06 -0.000143511
0.000734438 1.77438e-05 -1.20539e-05
1.77438e-05 -9.78933e-05 -1.40902e-06
-1.20539e-05 -1.40902e-06 -0.000151458
0.0049786 -2.02399e-05 -9.37325e-05
-2.02399e-05 0.00222952 -1.23217e-07
-9.37325e-05 -1.23217e-07 0.00222342
0.00513827 1.64864e-05 -1.07979e-06
1.64864e-05 0.00230747 4.48496e-07
-1.07979e-06 4.48496e-07 0.00230127
0.000766461 1.16502e-06 -4.50306e-08
1.16502e-06 -9.87013e-05 -2.91467e-07
-4.50306e-08 -2.91467e-07 -0.000155194
0.00155619 5.77709e-06 1.98898e-05
5.77709e-06 0.000345064 3.34515e-07
1.98898e-05 3.34515e-07 0.000299807
0.00123888 1.76753e-05 1.4413e-07
1.76753e-05 6.82411e-06 7.49881e-08
1.4413e-07 7.49881e-08 -8.05009e-05
0.000663513 3.9803e-05 3.53492e-08
3.9803e-05 -0.000101701 -7.08842e-08
3.53492e-08 -7.08842e-08 -0.000150332
0.00119036 4.38452e-05 3.62819e-08
4.38452e-05 1.53515e-05 -1.81829e-07
3.62819e-08 -1.81829e-07 -6.86727e-05
0.000756843 -5.54134e-06 1.26313e-05
-5.54134e-06 -0.000109565 -9.54442e-07
1.26313e-05 -9.54442e-07 -0.000167198
0.00129421 6.8836e-06 7.6933e-06
6.8836e-06 1.11301e-05 6.53681e-07
7.6933e-06 6.53681e-07 -8.05079e-05
0.00122103 2.79447e-05 7.35125e-06
2.79447e-05 1.60265e-05 1.23667e-06
7.35125e-06 1.23667e-06 -6.83228e-05
0.00149338 1.64373e-05 3.12404e-06
1.64373e-05 6.00011e-05 1.09038e-06
3.12404e-06 1.09038e-06 -4.10062e-05
0.00114502 5.32908e-05 7.05214e-06
5.32908e-05 9.07075e-06 1.77427e-06
7.05214e-06 1.77427e-06 -7.44456e-05
0.00142715 4.84298e-05 3.14638e-06
4.84298e-05 6.1447e-05 9.207e-08
3.14638e-06 9.207e-08 -3.54629e-05
0.00507194 2.35144e-05 -0.000104256
2.35144e-05 0.00227451 -7.50702e-07
-0.000104256 -7.50702e-07 0.00226851
0.00131776 -6.84663e-06 -1.40034e-05
-6.84663e-06 0.000323154 9.92502e-07
-1.40034e-05 9.92502e-07 0.000298573
2.68725e-05 6.8447e-07 -1.26262e-05
6.8447e-07 -0.000473247 2.39897e-06
-1.26262e-05 2.39897e-06 -0.000531359
0.0015747 -1.45249e-05 -4.45578e-05
-1.45249e-05 0.000356403 2.67416e-06
-4.45578e-05 2.67416e-06 0.000311684
0.00272997 9.12257e-05 -1.44555e-05
9.12257e-05 0.0010572 1.29395e-06
-1.44555e-05 1.29395e-06 0.00105733
0.00162589 1.85169e-05 -2.25995e-05
1.85169e-05 0.000467806 3.71972e-06
-2.25995e-05 3.71972e-06 0.000436006
0.00145436 -2.87845e-05 -3.9594e-05
-2.87845e-05 0.000329154 4.47111e-06
-3.9594e-05 4.47111e-06 0.000285107
0.00156233 -6.10609e-05 -1.27413e-05
-6.10609e-05 0.000221986 3.07765e-06
-1.27413e-05 3.07765e-06 0.000139927
0.00174999 -8.41275e-05 -7.97911e-06
-8.41275e-05 0.000403663 2.75869e-06
-7.97911e-06 2.75869e-06 0.000327993
0.00164797 -8.07353e-05 -6.64467e-06
-8.07353e-05 0.00041964 2.43216e-06
-6.64467e-06 2.43216e-06 0.000346725
0.00113741 -8.57096e-05 -1.88322e-06
-8.57096e-05 6.98037e-05 5.0419e-07
-1.88322e-06 5.0419e-07 -2.2851e-05
0.000764711 4.61468e-06 -6.82934e-08
4.61468e-06 -9.60937e-05 -2.2697e-07
-6.82934e-08 -2.2697e-07 -0.000151887
0.00152296 -9.1307e-06 -1.39645e-05
-9.1307e-06 0.0003272 8.93148e-08
-1.39645e-05 8.93148e-08 0.000281545
0.00124583 -2.27799e-06 -2.57212e-06
-2.27799e-06 1.53228e-05 7.40615e-08
-2.57212e-06 7.40615e-08 -6.99749e-05
0.00178103 -5.02761e-05 -2.06721e-06
-5.02761e-05 0.000317347 2.48734e-07
-2.06721e-06 2.48734e-07 0.000237638
0.00277447 7.36849e-05 -5.66155e-07
7.36849e-05 0.00106647 -1.339e-07
-5.66155e-07 -1.339e-07 0.00107201
0.00112741 4.19184e-05 1.56844e-06
4.19184e-05 0.000201048 1.66256e-07
1.56844e-06 1.66256e-07 0.000170611
0.00109628 -4.29246e-05 9.57464e-08
-4.29246e-05 0.000161326 -8.24938e-08
9.57464e-08 -8.24938e-08 9.24766e-05
0.00143263 -7.03844e-05 -1.76367e-06
-7.03844e-05 0.000194355 1.94768e-07
-1.76367e-06 1.94768e-07 0.000114214
0.00150892 -7.34258e-05 -1.63796e-06
-7.34258e-05 0.000114557 4.89562e-07
-1.63796e-06 4.89562e-07 1.55331e-05
0.00100734 -8.49683e-05 -2.99992e-07
-8.49683e-05 4.73009e-05 -1.37798e-07
-2.99992e-07 -1.37798e-07 -4.5597e-05
0.00139072 -8.83674e-05 8.89645e-08
-8.83674e-05 0.00015738 5.84246e-08
8.89645e-08 5.84246e-08 6.4032e-05
0.0012299 -9.55769e-05 1.05805e-07
-9.55769e-05 8.16108e-05 9.53391e-08
1.05805e-07 9.53391e-08 -1.90217e-05
0.000673583 5.16067e-05 -1.87808e-07
5.16067e-05 -4.97509e-05 3.62253e-08
-1.87808e-07 3.62253e-08 -7.41354e-05
0.00080906 2.48535e-05 -3.05998e-07
2.48535e-05 -5.85887e-07 9.73101e-08
-3.05998e-07 9.73101e-08 -5.22503e-05
0.00126819 -1.42876e-06 7.24289e-06
-1.42876e-06 1.29875e-06 -1.64889e-06
7.24289e-06 -1.64889e-06 -8.93378e-05
0.00156092 -1.94262e-05 6.7305e-06
-1.94262e-05 0.00019599 -1.07268e-06
6.7305e-06 -1.07268e-06 0.000116429
0.00185862 -6.20797e-06 2.10338e-06
-6.20797e-06 0.000257826 -5.23934e-07
2.10338e-06 -5.23934e-07 0.00016114
0.00126948 -4.96504e-05 3.91516e-06
-4.96504e-05 -3.7268e-05 -4.35885e-07
3.91516e-06 -4.35885e-07 -0.000135346
0.00142641 -8.55241e-05 2.28012e-06
-8.55241e-05 0.000127469 -1.06429e-06
2.28012e-06 -1.06429e-06 3.1408e-05
0.00176892 -7.87906e-05 7.84337e-08
-7.87906e-05 0.000202203 1.48455e-07
7.84337e-08 1.48455e-07 0.000100924
0.000600209 5.60073e-05 2.22066e-06
5.60073e-05 -8.10628e-05 -4.45738e-06
2.22066e-06 -4.45738e-06 -0.00011056
0.00131254 -9.28138e-05 5.66852e-07
-9.28138e-05 7.27968e-05 -5.05564e-07
5.66852e-07 -5.05564e-07 -2.82226e-05
0.000731238 -1.39964e-05 2.03229e-06
-1.39964e-05 -2.49169e-05 -9.42334e-07
2.03229e-06 -9.42334e-07 -9.23306e-05
0.00066529 -6.9101e-05 1.76559e-06
-6.9101e-05 -9.06872e-05 -1.12543e-06
1.76559e-06 -1.12543e-06 -0.000179118
0.00164264 -0.000118248 5.68507e-07
-0.000118248 0.000344309 8.27429e-08
5.68507e-07 8.27429e-08 0.000241154
0.001475 -0.000107171 -5.59624e-07
-0.000107171 0.000178478 1.02216e-06
-5.59624e-07 1.02216e-06 7.56324e-05
0.000867289 2.1508e-06 1.99045e-06
2.1508e-06 3.46629e-05 -2.19415e-06
1.99045e-06 -2.19415e-06 -2.5516e-05
0.000823343 3.32775e-05 9.29909e-07
3.32775e-05 3.80592e-06 -1.91492e-06
9.29909e-07 -1.91492e-06 -4.03294e-05
0.000892225 -2.76599e-05 6.60479e-07
-2.76599e-05 4.13802e-05 -7.68313e-07
6.60479e-07 -7.68313e-07 -3.42237e-05
0.00062353 5.13582e-05 -1.03587e-05
5.13582e-05 -0.000103531 -4.71472e-06
-1.03587e-05 -4.71472e-06 -0.000153167
0.0026047 -6.67487e-05 -3.57804e-05
-6.67487e-05 0.000975664 -3.26153e-06
-3.57804e-05 -3.26153e-06 0.000983719
0.000695272 -4.11124e-05 -3.22461e-06
-4.11124e-05 -4.47677e-05 -3.93463e-06
-3.22461e-06 -3.93463e-06 -6.22287e-05
0.000583877 3.72238e-05 -7.70472e-06
3.72238e-05 -8.25637e-05 -5.00206e-06
-7.70472e-06 -5.00206e-06 -0.000129618
0.000996972 7.00288e-05 -5.46633e-06
7.00288e-05 6.054e-06 -2.4251e-06
-5.46633e-06 -2.4251e-06 -7.39806e-05
0.000595831 -5.53055e-05 -2.19625e-06
-5.53055e-05 -7.9713e-05 -4.68887e-06
-2.19625e-06 -4.68887e-06 -0.000109246
0.000766985 2.41896e-05 -2.37542e-06
2.41896e-05 -8.56824e-06 -1.92896e-06
-2.37542e-06 -1.92896e-06 -7.86873e-05
0.000863009 5.92582e-05 -3.57289e-06
5.92582e-05 8.82483e-06 -7.16224e-07
-3.57289e-06 -7.16224e-07 -6.30385e-05
0.00080593 7.50624e-05 -2.49113e-06
7.50624e-05 -3.29431e-05 1.88979e-07
-2.49113e-06 1.88979e-07 -0.000120364
0.000677389 -5.13078e-05 1.68336e-07
-5.13078e-05 -4.46315e-05 5.83137e-08
1.68336e-07 5.83137e-08 -6.83025e-05
0.000744216 -3.71628e-05 2.41483e-08
-3.71628e-05 -2.67973e-05 7.7076e-08
2.41483e-08 7.7076e-08 -3.99936e-05
0.000808875 -2.53637e-05 1.23733e-07
-2.53637e-05 2.99814e-06 1.16105e-07
1.23733e-07 1.16105e-07 -4.6665e-05
0.00109511 6.43635e-05 3.49306e-07
6.43635e-05 1.31368e-05 -1.48947e-07
3.49306e-07 -1.48947e-07 -6.95088e-05
0.000949411 6.88155e-05 2.39476e-07
6.88155e-05 2.48643e-05 1.82383e-07
2.39476e-07 1.82383e-07 -5.10221e-05
0.0012107 8.92824e-05 2.0877e-07
8.92824e-05 5.8771e-05 6.27467e-08
2.0877e-07 6.27467e-08 -3.90668e-05
0.000834225 1.73518e-05 -2.85257e-07
1.73518e-05 2.60609e-05 -1.60575e-09
-2.85257e-07 -1.60575e-09 -3.95625e-05
0.0010477 8.66144e-05 -9.09548e-08
8.66144e-05 6.76793e-05 -1.0007e-07
-9.09548e-08 -1.0007e-07 -1.92645e-05
0.00101591 7.95028e-05 2.23446e-07
7.95028e-05 0.000101105 -3.04961e-07
2.23446e-07 -3.04961e-07 1.27121e-05
0.00094506 8.96372e-05 -6.32288e-07
8.96372e-05 3.284e-05 3.19029e-07
-6.32288e-07 3.19029e-07 -6.26483e-05
0.000780935 -3.32402e-05 2.80806e-06
-3.32402e-05 -1.59246e-05 3.58772e-06
2.80806e-06 3.58772e-06 -2.55596e-05
0.000803456 -1.4873e-06 2.84712e-06
-1.4873e-06 1.39673e-06 1.91102e-06
2.84712e-06 1.91102e-06 -5.61717e-05
0.000790822 -2.72734e-05 1.30424e-06
-2.72734e-05 -9.58134e-06 2.42947e-06
1.30424e-06 2.42947e-06 -5.18323e-05
0.000908922 1.954e-05 1.14454e-06
1.954e-05 5.28939e-05 9.6534e-07
1.14454e-06 9.6534e-07 -1.87483e-05
0.00129769 7.79088e-05 3.97339e-06
7.79088e-05 5.07278e-05 6.78658e-07
3.97339e-06 6.78658e-07 -4.80829e-05
0.00114913 9.17563e-05 2.40907e-06
9.17563e-05 8.29613e-05 1.06527e-06
2.40907e-06 1.06527e-06 -9.49286e-06
0.00130976 9.74904e-05 1.48478e-06
9.74904e-05 7.19464e-05 9.62299e-07
1.48478e-06 9.62299e-07 -3.38266e-05
0.00105738 5.56162e-05 2.02584e-06
5.56162e-05 0.00012911 9.95678e-07
2.02584e-06 9.95678e-07 4.59316e-05
0.00115339 9.73614e-05 4.186e-07
9.73614e-05 0.000102405 -4.45057e-07
4.186e-07 -4.45057e-07 8.74241e-06
0.00104656 9.30224e-05 1.17474e-06
9.30224e-05 0.000118774 -1.01434e-06
1.17474e-06 -1.01434e-06 1.67428e-05
0.000794839 8.50583e-05 7.42658e-07
8.50583e-05 -6.08798e-05 -1.27771e-06
7.42658e-07 -1.27771e-06 -0.000159795
0.000848164 -1.53471e-05 9.41895e-07
-1.53471e-05 4.16708e-06 1.79291e-06
9.41895e-07 1.79291e-06 -2.43261e-05
0.00078878 -2.53179e-05 1.95563e-06
-2.53179e-05 -2.43277e-05 3.45823e-06
1.95563e-06 3.45823e-06 -2.90811e-05
0.002195 -4.19626e-05 2.44453e-05
-4.19626e-05 0.00073319 3.67721e-06
2.44453e-05 3.67721e-06 0.000750141
0.00224459 -4.75903e-05 7.52243e-07
-4.75903e-05 0.000765972 -7.55498e-08
7.52243e-07 -7.55498e-08 0.000781138
0.00230896 -5.33853e-05 -2.84607e-05
-5.33853e-05 0.000806901 -3.43068e-06
-2.84607e-05 -3.43068e-06 0.000820077
0.000724038 3.51662e-05 3.02993e-06
3.51662e-05 -4.09869e-05 -3.50414e-06
3.02993e-06 -3.50414e-06 -5.45914e-05
0.00251233 6.06798e-05 3.21444e-05
6.06798e-05 0.000917057 -3.34214e-06
3.21444e-05 -3.34214e-06 0.00092778
0.000715805 4.38987e-05 -2.41188e-07
4.38987e-05 -3.64056e-05 3.80099e-08
-2.41188e-07 3.80099e-08 -5.52533e-05
0.00268987 6.67956e-05 -5.13868e-07
6.67956e-05 0.00101562 -1.13588e-07
-5.13868e-07 -1.13588e-07 0.00102377
0.000659742 4.32253e-05 -1.10303e-05
4.32253e-05 -0.000103775 -3.6884e-06
-1.10303e-05 -3.6884e-06 -0.000152652
0.000736345 2.67882e-05 -1.18022e-05
2.67882e-05 -8.48934e-05 -1.86342e-06
-1.18022e-05 -1.86342e-06 -0.000135533
0.0011737 4.42228e-05 -7.25213e-06
4.42228e-05 7.6169e-06 -1.53898e-06
-7.25213e-06 -1.53898e-06 -7.65735e-05
0.00123035 1.92506e-05 -7.2097e-06
1.92506e-05 3.13281e-06 -1.228e-06
-7.2097e-06 -1.228e-06 -8.42179e-05
0.000748216 5.237e-06 -1.25686e-05
5.237e-06 -0.000106848 -8.80345e-07
-1.25686e-05 -8.80345e-07 -0.00016325
0.00514834 -1.31757e-05 -0.00010057
-1.31757e-05 0.00231238 7.29028e-07
-0.00010057 7.29028e-07 0.00230641
0.000771834 -3.83562e-07 7.23587e-08
-3.83562e-07 -0.00010214 -4.53427e-07
7.23587e-08 -4.53427e-07 -0.000159747
0.00128829 1.07547e-05 8.15375e-08
1.07547e-05 8.48321e-06 -2.96834e-07
8.15375e-08 -2.96834e-07 -8.3091e-05
0.00120472 2.79655e-05 -4.03664e-08
2.79655e-05 8.51919e-06 3.35308e-08
-4.03664e-08 3.35308e-08 -7.59717e-05
0.00150837 1.59951e-05 1.00034e-07
1.59951e-05 6.78469e-05 1.17194e-07
1.00034e-07 1.17194e-07 -3.31535e-05
0.00114969 5.51027e-05 2.0011e-07
5.51027e-05 1.25856e-05 -1.1718e-07
2.0011e-07 -1.1718e-07 -7.11823e-05
0.00143627 5.07985e-05 2.84184e-08
5.07985e-05 6.60633e-05 -8.28078e-08
2.84184e-08 -8.28078e-08 -3.098e-05
0.00130331 7.04193e-07 7.62058e-06
7.04193e-07 7.33977e-06 -1.02457e-06
7.62058e-06 -1.02457e-06 -8.55606e-05
0.00155295 1.40252e-05 3.37172e-06
1.40252e-05 6.39255e-05 8.20379e-07
3.37172e-06 8.20379e-07 -4.2244e-05
0.00146994 3.18116e-05 3.14966e-06
3.18116e-05 6.67437e-05 5.43463e-07
3.14966e-06 5.43463e-07 -3.0744e-05
0.00162389 1.20865e-05 9.03253e-07
1.20865e-05 9.02809e-05 7.86854e-07
9.03253e-07 7.86854e-07 -1.24313e-05
0.00136506 6.49949e-05 3.11942e-06
6.49949e-05 5.17961e-05 1.54489e-07
3.11942e-06 1.54489e-07 -4.61088e-05
0.00154617 5.24894e-05 7.98573e-07
5.24894e-05 7.65304e-05 -4.16029e-07
7.98573e-07 -4.16029e-07 -2.19863e-05
0.00078375 8.50329e-06 -1.22076e-05
8.50329e-06 -8.76629e-05 1.14371e-06
-1.22076e-05 1.14371e-06 -0.000143653
0.00159107 1.11277e-06 -4.57178e-05
1.11277e-06 0.00036075 1.72687e-06
-4.57178e-05 1.72687e-06 0.000316119
0.000860101 -1.15211e-06 -7.85181e-06
-1.15211e-06 -0.000186292 1.58934e-06
-7.85181e-06 1.58934e-06 -0.000273858
0.00198579 -5.12961e-05 -1.18104e-05
-5.12961e-05 0.000424356 1.91955e-06
-1.18104e-05 1.91955e-06 0.000345665
0.00275609 7.31228e-05 -4.08766e-05
7.31228e-05 0.00105829 3.31326e-06
-4.08766e-05 3.31326e-06 0.00106348
0.00160525 4.23346e-05 -2.04401e-05
4.23346e-05 0.0004534 3.03543e-06
-2.04401e-05 3.03543e-06 0.00042498
0.00147688 -5.45949e-05 -4.72302e-06
-5.45949e-05 0.000356418 1.53113e-06
-4.72302e-06 1.53113e-06 0.000288051
0.00144551 -7.01606e-05 -9.61205e-06
-7.01606e-05 0.000202584 3.12117e-06
-9.61205e-06 3.12117e-06 0.000122435
0.00119533 -6.67393e-05 -4.4063e-06
-6.67393e-05 -5.02479e-05 1.22986e-06
-4.4063e-06 1.22986e-06 -0.000150521
0.00163724 -9.42534e-05 -2.92935e-06
-9.42534e-05 0.000282629 1.1444e-06
-2.92935e-06 1.1444e-06 0.000189726
0.000797304 -7.63862e-05 -1.80658e-06
-7.63862e-05 -5.9276e-05 4.71438e-07
-1.80658e-06 4.71438e-07 -0.0001519
0.0012192 -9.46971e-05 -3.55602e-07
-9.46971e-05 7.62413e-05 1.10978e-07
-3.55602e-07 1.10978e-07 -2.4179e-05
0.000700875 5.36217e-05 -1.96703e-06
5.36217e-05 -3.37119e-05 4.29264e-06
-1.96703e-06 4.29264e-06 -5.87642e-05
0.000781178 1.81239e-05 -2.00946e-06
1.81239e-05 -1.54511e-05 2.02408e-06
-2.00946e-06 2.02408e-06 -6.71583e-05
0.00109666 2.14041e-06 -3.472e-07
2.14041e-06 -8.73454e-05 -5.38002e-08
-3.472e-07 -5.38002e-08 -0.000178855
0.00159576 -2.18751e-05 -2.24585e-06
-2.18751e-05 0.000213204 2.76285e-07
-2.24585e-06 2.76285e-07 0.000133569
0.00176375 -3.6884e-06 -1.66799e-06
-3.6884e-06 0.000206245 3.37093e-07
-1.66799e-06 3.37093e-07 0.000108843
0.00155709 -5.32918e-05 8.41974e-07
-5.32918e-05 0.000114719 -2.95055e-07
8.41974e-07 -2.95055e-07 1.79844e-05
0.000657528 5.75631e-05 -7.51242e-08
5.75631e-05 -5.01316e-05 5.5217e-08
-7.51242e-08 5.5217e-08 -8.00995e-05
0.000836278 -2.49623e-05 -2.32584e-08
-2.49623e-05 2.81656e-05 -1.07744e-07
-2.32584e-08 -1.07744e-07 -3.91575e-05
0.000775486 -7.3594e-05 7.00821e-07
-7.3594e-05 -3.28707e-05 -5.33916e-07
7.00821e-07 -5.33916e-07 -0.000120421
0.00159935 -8.89274e-05 -6.91681e-07
-8.89274e-05 0.000214947 9.89197e-08
-6.91681e-07 9.89197e-08 0.000118686
0.00159088 -7.39745e-05 -5.04371e-07
-7.39745e-05 0.000108031 5.59531e-07
-5.04371e-07 5.59531e-07 6.89757e-06
0.00135898 -0.000107044 -9.13852e-07
-0.000107044 0.000198427 4.02272e-07
-9.13852e-07 4.02272e-07 9.4609e-05
0.00131722 -9.24824e-05 1.83645e-08
-9.24824e-05 7.48723e-05 1.91566e-07
1.83645e-08 1.91566e-07 -2.60828e-05
0.0013018 -0.000100808 3.43335e-07
-0.000100808 9.11114e-05 5.52215e-07
3.43335e-07 5.52215e-07 -1.14152e-05
0.000827171 -4.02908e-07 -2.52871e-07
-4.02908e-07 1.23169e-05 -6.20578e-08
-2.52871e-07 -6.20578e-08 -4.74867e-05
0.000865127 -1.14655e-05 -3.8021e-07
-1.14655e-05 2.37786e-05 -2.35463e-07
-3.8021e-07 -2.35463e-07 -4.97328e-05
0.000808473 3.15124e-05 -2.9372e-08
3.15124e-05 -4.08412e-06 2.02837e-07
-2.9372e-08 2.02837e-07 -4.82421e-05
0.00188467 5.79688e-06 2.10607e-06
5.79688e-06 0.000247703 -8.65352e-07
2.10607e-06 -8.65352e-07 0.000145932
0.00164155 -2.43853e-05 2.98352e-06
-2.43853e-05 0.000154743 -3.81696e-07
2.98352e-06 -3.81696e-07 6.01219e-05
0.00180359 -1.75996e-06 6.07405e-07
-1.75996e-06 0.000186532 -1.03979e-07
6.07405e-07 -1.03979e-07 8.33284e-05
0.00161374 -4.71048e-05 9.93195e-07
-4.71048e-05 9.21823e-05 -8.62311e-08
9.93195e-07 -8.62311e-08 -7.18301e-06
0.00119682 -8.43359e-05 1.07619e-06
-8.43359e-05 -4.12703e-05 -9.20202e-07
1.07619e-06 -9.20202e-07 -0.000143332
0.00170082 -7.14011e-05 -1.7416e-06
-7.14011e-05 0.000133022 9.35247e-07
-1.7416e-06 9.35247e-07 3.67156e-05
0.000831228 -1.2825e-05 2.53805e-06
-1.2825e-05 2.30964e-05 -1.51348e-06
2.53805e-06 -1.51348e-06 -4.2504e-05
0.00135538 -9.66832e-05 -1.13901e-06
-9.66832e-05 6.74082e-05 -2.45254e-07
-1.13901e-06 -2.45254e-07 -3.41946e-05
0.000936433 -7.49361e-05 1.0614e-06
-7.49361e-05 6.13292e-05 2.99419e-07
1.0614e-06 2.99419e-07 -2.04884e-05
0.000765792 -8.42447e-05 1.40047e-06
-8.42447e-05 -5.27738e-05 -1.57308e-06
1.40047e-06 -1.57308e-06 -0.000153926
0.00148362 -0.000117049 1.1787e-06
-0.000117049 0.000237434 7.2373e-07
1.1787e-06 7.2373e-07 0.000126994
0.00180159 -0.000119446 -2.17604e-06
-0.000119446 0.000329237 2.41367e-06
-2.17604e-06 2.41367e-06 0.000229671
0.000825543 2.95583e-05 1.32693e-06
2.95583e-05 -6.01581e-07 -1.62004e-06
1.32693e-06 -1.62004e-06 -3.88483e-05
0.000926182 -3.76285e-05 1.29574e-06
-3.76285e-05 5.37826e-05 7.24227e-08
1.29574e-06 7.24227e-08 -2.24781e-05
0.00079557 -6.0292e-06 8.14102e-07
-6.0292e-06 -1.31403e-05 -1.43955e-06
8.14102e-07 -1.43955e-06 -8.20551e-05
0.00101078 -7.17412e-05 -1.16131e-08
-7.17412e-05 0.000108281 9.71282e-07
-1.16131e-08 9.71282e-07 2.32657e-05
0.00109574 6.55531e-05 -6.71449e-06
6.55531e-05 1.43275e-05 -2.40797e-06
-6.71449e-06 -2.40797e-06 -6.84158e-05
0.000719716 -3.55682e-05 -3.09222e-06
-3.55682e-05 -3.96926e-05 -3.65407e-06
-3.09222e-06 -3.65407e-06 -5.25392e-05
0.000652864 -4.88606e-05 -3.06482e-06
-4.88606e-05 -5.90916e-05 -4.27781e-06
-3.06482e-06 -4.27781e-06 -8.20393e-05
0.000822065 -3.15916e-05 -1.22256e-06
-3.15916e-05 1.02635e-05 -2.56855e-06
-1.22256e-06 -2.56855e-06 -3.95751e-05
0.000902538 6.68458e-05 -3.98515e-06
6.68458e-05 1.90094e-06 -1.66974e-06
-3.98515e-06 -1.66974e-06 -7.36912e-05
0.00120111 8.95372e-05 -3.1079e-06
8.95372e-05 5.45284e-05 -1.03738e-06
-3.1079e-06 -1.03738e-06 -4.34006e-05
0.000814468 1.31635e-05 -2.60396e-06
1.31635e-05 1.81541e-05 -1.95644e-06
-2.60396e-06 -1.95644e-06 -4.76832e-05
0.000982763 7.79741e-05 -2.20438e-06
7.79741e-05 8.41244e-05 -9.9546e-07
-2.20438e-06 -9.9546e-07 -4.1973e-06
0.0011569 9.11426e-05 -1.82666e-06
9.11426e-05 0.000124933 -8.27839e-10
-1.82666e-06 -8.27839e-10 3.81311e-05
0.000826475 8.53009e-05 -2.30304e-06
8.53009e-05 -2.82222e-05 9.53917e-07
-2.30304e-06 9.53917e-07 -0.000124077
0.000759458 -3.23314e-05 1.00628e-07
-3.23314e-05 -2.68777e-05 3.03594e-08
1.00628e-07 3.03594e-08 -3.63681e-05
0.000822137 4.71038e-06 2.01437e-08
4.71038e-06 1.36047e-05 -3.0967e-08
2.01437e-08 -3.0967e-08 -4.49594e-05
0.000808411 -3.10719e-05 -6.86251e-08
-3.10719e-05 -4.4576e-07 1.86928e-07
-6.86251e-08 1.86928e-07 -4.26995e-05
0.000921939 1.26237e-05 2.20665e-07
1.26237e-05 5.9086e-05 -2.11477e-07
2.20665e-07 -2.11477e-07 -1.20899e-05
0.00130791 7.87646e-05 7.76544e-07
7.87646e-05 5.61307e-05 2.46026e-07
7.76544e-07 2.46026e-07 -4.29014e-05
0.0011119 9.09443e-05 8.98689e-08
9.09443e-05 6.53061e-05 4.91945e-08
8.98689e-08 4.91945e-08 -2.71106e-05
0.00130989 9.76261e-05 1.03024e-08
9.76261e-05 7.20775e-05 3.60042e-07
1.03024e-08 3.60042e-07 -3.36539e-05
0.000994932 5.61524e-05 2.25754e-07
5.61524e-05 9.74703e-05 2.05814e-07
2.25754e-07 2.05814e-07 1.48842e-05
0.00129924 0.000103103 -4.70599e-07
0.000103103 0.000178685 -8.02784e-07
-4.70599e-07 -8.02784e-07 8.51075e-05
0.00106461 9.41802e-05 2.33127e-07
9.41802e-05 0.000127421 -6.33295e-07
2.33127e-07 -6.33295e-07 2.49121e-05
0.000902342 8.94773e-05 -1.64139e-06
8.94773e-05 -1.19514e-06 2.82278e-08
-1.64139e-06 2.82278e-08 -9.8604e-05
0.000789939 -2.91124e-05 2.40772e-06
-2.91124e-05 -1.7974e-05 3.49733e-06
2.40772e-06 3.49733e-06 -2.48572e-05
0.000811848 -2.89994e-05 1.13926e-06
-2.89994e-05 -3.69e-06 2.19277e-06
1.13926e-06 2.19277e-06 -4.03845e-05
0.000996224 2.99396e-05 1.59436e-06
2.99396e-05 9.53847e-05 6.51282e-07
1.59436e-06 6.51282e-07 1.88886e-05
0.000886024 1.86502e-06 8.47671e-07
1.86502e-06 3.72222e-05 1.49464e-06
8.47671e-07 1.49464e-06 -2.64142e-05
0.000976693 6.04892e-05 1.21083e-06
6.04892e-05 9.50532e-05 1.04896e-07
1.21083e-06 1.04896e-07 1.05399e-05
0.00140549 8.22443e-05 2.17403e-06
8.22443e-05 6.27462e-05 3.75725e-08
2.17403e-06 3.75725e-08 -4.17382e-05
0.00118678 9.97218e-05 9.22543e-07
9.97218e-05 7.5125e-05 1.03745e-06
9.22543e-07 1.03745e-06 -2.49616e-05
0.00141275 0.000104243 -4.3983e-07
0.000104243 0.000102306 5.99588e-07
-4.3983e-07 5.99588e-07 -5.67861e-06
0.00109442 9.10247e-05 2.59895e-06
9.10247e-05 0.000157269 2.12957e-06
2.59895e-06 2.12957e-06 5.80632e-05
0.00117151 0.000102595 1.89692e-06
0.000102595 9.68046e-05 -3.63214e-07
1.89692e-06 -3.63214e-07 -3.94034e-07
0.000558058 7.60652e-05 2.04675e-06
7.60652e-05 -0.000149998 -1.6014e-06
2.04675e-06 -1.6014e-06 -0.000261964
0.00084196 -1.91856e-05 1.10436e-06
-1.91856e-05 4.18696e-06 1.90167e-06
1.10436e-06 1.90167e-06 -2.63608e-05
0.000871411 6.21046e-06 3.68356e-07
6.21046e-06 2.46655e-05 9.07584e-07
3.68356e-07 9.07584e-07 -2.19687e-05
0.000859501 -1.05417e-05 7.38345e-07
-1.05417e-05 7.20637e-06 1.80309e-06
7.38345e-07 1.80309e-06 -1.97034e-05
0.000849137 -1.37094e-05 1.26744e-07
-1.37094e-05 5.29879e-06 4.94707e-09
1.26744e-07 4.94707e-09 -2.33073e-05
0.00134091 -2.71996e-05 2.05115e-06
-2.71996e-05 0.000263546 2.08171e-06
2.05115e-06 2.08171e-06 0.000263761
0.00106149 -2.77553e-05 7.92466e-07
-2.77553e-05 0.000120605 -3.08413e-08
7.92466e-07 -3.08413e-08 0.000117459
0.00103119 -2.50438e-05 2.01572e-05
-2.50438e-05 0.000107303 6.39645e-06
2.01572e-05 6.39645e-06 0.000120267
0.00219047 -4.21062e-05 9.04899e-07
-4.21062e-05 0.000729744 -7.00281e-08
9.04899e-07 -7.00281e-08 0.000746894
0.00223363 -4.76553e-05 -2.55287e-05
-4.76553e-05 0.000759117 -3.54011e-06
-2.55287e-05 -3.54011e-06 0.000774535
0.000740851 3.14868e-05 2.6352e-06
3.14868e-05 -3.95483e-05 -3.37664e-06
2.6352e-06 -3.37664e-06 -4.98658e-05
0.00238392 5.44776e-05 2.8732e-05
5.44776e-05 0.000842822 -3.43811e-06
2.8732e-05 -3.43811e-06 0.000855929
0.000745449 3.66657e-05 -3.3523e-08
3.66657e-05 -2.96836e-05 7.1865e-08
-3.3523e-08 7.1865e-08 -4.36272e-05
0.00254609 6.02974e-05 -7.12254e-07
6.02974e-05 0.000935041 -9.93425e-08
-7.12254e-07 -9.93425e-08 0.000945539
0.000735787 4.67859e-05 -2.09714e-06
4.67859e-05 -2.47131e-05 4.14825e-06
-2.09714e-06 4.14825e-06 -4.42935e-05
0.00269717 6.65158e-05 -3.90729e-05
6.65158e-05 0.00101975 3.39434e-06
-3.90729e-05 3.39434e-06 0.00102769
0.00115955 5.70277e-05 -7.2683e-06
5.70277e-05 1.8606e-05 -1.99133e-06
-7.2683e-06 -1.99133e-06 -6.53933e-05
0.00119864 3.09979e-05 -7.14276e-06
3.09979e-05 6.02315e-06 -1.05553e-06
-7.14276e-06 -1.05553e-06 -7.86371e-05
0.00143833 4.91304e-05 -3.15359e-06
4.91304e-05 6.71839e-05 -2.59421e-07
-3.15359e-06 -2.59421e-07 -2.98483e-05
0.00152429 1.58121e-05 -3.13007e-06
1.58121e-05 7.61236e-05 -8.25438e-07
-3.13007e-06 -8.25438e-07 -2.48662e-05
0.00127865 1.33067e-05 -7.60375e-06
1.33067e-05 4.01327e-06 -1.27584e-06
-7.60375e-06 -1.27584e-06 -8.75363e-05
0.000780632 4.13024e-06 -1.26612e-05
4.13024e-06 -9.76183e-05 5.91308e-08
-1.26612e-05 5.91308e-08 -0.000155312
0.00130154 2.53939e-06 -7.06869e-09
2.53939e-06 6.28364e-06 -5.3751e-07
-7.06869e-09 -5.3751e-07 -8.66951e-05
0.00155911 1.57228e-05 3.48889e-08
1.57228e-05 6.73926e-05 -1.95822e-07
3.48889e-08 -1.95822e-07 -3.87361e-05
0.00146943 2.8709e-05 8.14575e-08
2.8709e-05 6.69361e-05 1.40933e-07
8.14575e-08 1.40933e-07 -3.04819e-05
0.0015988 1.1306e-05 -2.52877e-08
1.1306e-05 7.47478e-05 1.25866e-07
-2.52877e-08 1.25866e-07 -2.85487e-05
0.00138267 6.5685e-05 -7.88088e-08
6.5685e-05 6.03591e-05 -2.78359e-08
-7.88088e-08 -2.78359e-08 -3.76435e-05
0.00155883 5.2187e-05 -2.12589e-08
5.2187e-05 8.32448e-05 3.42829e-08
-2.12589e-08 3.42829e-08 -1.52613e-05
0.00157176 7.46301e-06 3.62304e-06
7.46301e-06 6.3665e-05 -1.20041e-06
3.62304e-06 -1.20041e-06 -4.40413e-05
0.00161274 1.25464e-05 7.00927e-07
1.25464e-05 5.96084e-05 1.49605e-06
7.00927e-07 1.49605e-06 -4.95287e-05
0.00157515 3.1355e-05 9.64108e-07
3.1355e-05 7.52253e-05 1.91508e-07
9.64108e-07 1.91508e-07 -2.41139e-05
0.00179695 6.51259e-06 -1.96893e-07
6.51259e-06 0.000158394 1.71599e-07
-1.96893e-07 1.71599e-07 5.62716e-05
0.00148795 6.53974e-05 5.80307e-07
6.53974e-05 7.01262e-05 -7.62162e-07
5.80307e-07 -7.62162e-07 -3.04939e-05
0.00163269 4.24931e-05 -1.56885e-06
4.24931e-05 9.09084e-05 -4.12885e-09
-1.56885e-06 -4.12885e-09 -8.51422e-07
0.000928577 3.68967e-06 -7.32819e-06
3.68967e-06 -0.000174147 1.34093e-06
-7.32819e-06 1.34093e-06 -0.000266559
0.00162219 -2.62299e-05 -1.13735e-05
-2.62299e-05 0.000225744 1.41934e-06
-1.13735e-05 1.41934e-06 0.000146124
0.00167229 2.65107e-06 -5.06234e-06
2.65107e-06 0.000156449 1.31254e-06
-5.06234e-06 1.31254e-06 5.83706e-05
0.00184709 -5.70803e-05 -3.35936e-06
-5.70803e-05 0.00026793 1.01512e-07
-3.35936e-06 1.01512e-07 0.000172532
0.000697607 4.44746e-05 -3.67991e-06
4.44746e-05 -3.08351e-05 4.04245e-06
-3.67991e-06 4.04245e-06 -5.95345e-05
0.000894499 -2.71975e-05 -2.76573e-06
-2.71975e-05 5.80989e-05 1.24339e-06
-2.76573e-06 1.24339e-06 -9.64443e-06
0.000895818 -7.87081e-05 -6.66855e-07
-7.87081e-05 2.98079e-05 1.56434e-08
-6.66855e-07 1.56434e-08 -5.68814e-05
0.00177698 -9.2468e-05 -4.00285e-06
-9.2468e-05 0.0003049 1.55729e-06
-4.00285e-06 1.55729e-06 0.000208422
0.00141094 -6.90849e-05 -1.26138e-06
-6.90849e-05 1.28651e-05 4.85394e-07
-1.26138e-06 4.85394e-07 -8.81152e-05
0.00132078 -9.21328e-05 -5.57608e-07
-9.21328e-05 7.64049e-05 9.03375e-07
-5.57608e-07 9.03375e-07 -2.44881e-05
0.00107291 -9.57751e-05 -1.30135e-06
-9.57751e-05 5.12924e-05 6.47325e-07
-1.30135e-06 6.47325e-07 -5.31823e-05
0.00111928 -9.40796e-05 1.62655e-06
-9.40796e-05 -9.77134e-07 -5.65591e-07
1.62655e-06 -5.65591e-07 -0.00010316
0.000796857 1.59107e-06 -2.67876e-06
1.59107e-06 -5.01012e-06 1.649e-06
-2.67876e-06 1.649e-06 -6.43311e-05
0.000846386 -8.40645e-06 -1.22722e-06
-8.40645e-06 1.32449e-05 2.62958e-07
-1.22722e-06 2.62958e-07 -5.99274e-05
0.000793323 3.06541e-05 -1.04486e-06
3.06541e-05 -1.19147e-05 2.07212e-06
-1.04486e-06 2.07212e-06 -5.61924e-05
0.00174116 6.41144e-06 -1.72903e-06
6.41144e-06 0.00016955 5.16471e-07
-1.72903e-06 5.16471e-07 6.62595e-05
0.00163832 -2.94323e-05 -7.8811e-07
-2.94323e-05 0.000151529 1.05202e-07
-7.8811e-07 1.05202e-07 5.70717e-05
0.00166809 7.9478e-07 -6.82869e-07
7.9478e-07 0.000115203 4.6631e-07
-6.82869e-07 4.6631e-07 1.15937e-05
0.00170083 -4.57107e-05 2.02848e-07
-4.57107e-05 0.000138346 -2.72382e-07
2.02848e-07 -2.72382e-07 3.93047e-05
0.000832873 -1.57741e-05 1.66197e-07
-1.57741e-05 2.17159e-05 -1.94326e-07
1.66197e-07 -1.94326e-07 -4.34223e-05
0.00101388 -7.86981e-05 -1.12236e-07
-7.86981e-05 9.94579e-05 2.50529e-07
-1.12236e-07 2.50529e-07 1.7305e-05
0.000850009 -8.68148e-05 5.24886e-07
-8.68148e-05 -6.26496e-06 -7.66023e-07
5.24886e-07 -7.66023e-07 -0.000106275
0.00143241 -8.95836e-05 1.5264e-07
-8.95836e-05 8.26602e-05 -5.72666e-07
1.5264e-07 -5.72666e-07 -1.92346e-05
0.00161301 -6.94987e-05 3.15187e-07
-6.94987e-05 8.47672e-05 9.89822e-07
3.15187e-07 9.89822e-07 -1.04089e-05
0.00123151 -0.000107558 9.26212e-09
-0.000107558 0.00011085 1.62039e-07
9.26212e-09 1.62039e-07 -3.59282e-07
0.00136068 -9.56845e-05 -9.50855e-08
-9.56845e-05 6.93385e-05 3.42902e-07
-9.50855e-08 3.42902e-07 -3.20003e-05
0.00157027 -0.000111623 7.62036e-07
-0.000111623 0.000210964 5.2839e-07
7.62036e-07 5.2839e-07 0.000112313
0.000961993 -4.27716e-05 -1.39245e-07
-4.27716e-05 7.35701e-05 -1.9935e-07
-1.39245e-07 -1.9935e-07 -3.23049e-06
0.000984632 -7.55901e-05 -3.01536e-07
-7.55901e-05 9.47751e-05 3.50812e-07
-3.01536e-07 3.50812e-07 8.4755e-06
0.00081914 3.05514e-05 6.2553e-08
3.05514e-05 -3.36628e-06 8.51765e-08
6.2553e-08 8.51765e-08 -4.18489e-05
0.000810236 8.64507e-06 -5.849e-08
8.64507e-06 -8.38371e-06 -5.23019e-07
-5.849e-08 -5.23019e-07 -7.47085e-05
0.00167482 4.26876e-06 1.12207e-06
4.26876e-06 9.75494e-05 -1.0186e-06
1.12207e-06 -1.0186e-06 -1.11973e-05
0.00171945 -2.20793e-05 1.09971e-06
-2.20793e-05 0.000147696 2.58741e-07
1.09971e-06 2.58741e-07 4.82847e-05
0.00172051 2.9346e-06 3.68225e-08
2.9346e-06 0.000121835 1.8578e-07
3.68225e-08 1.8578e-07 1.79395e-05
0.00162866 -3.82962e-05 -8.12034e-07
-3.82962e-05 7.08469e-05 -7.23762e-07
-8.12034e-07 -7.23762e-07 -2.63879e-05
0.00142398 -8.89326e-05 -1.71242e-06
-8.89326e-05 3.83473e-05 3.43316e-08
-1.71242e-06 3.43316e-08 -6.09788e-05
0.00176266 -6.80924e-05 4.53451e-07
-6.80924e-05 0.000134234 1.93353e-07
4.53451e-07 1.93353e-07 4.22438e-05
0.00093852 -7.15855e-05 1.24324e-06
-7.15855e-05 6.27647e-05 5.80432e-07
1.24324e-06 5.80432e-07 -1.5923e-05
0.00133065 -9.63251e-05 -3.05563e-06
-9.63251e-05 3.62121e-05 9.31361e-07
-3.05563e-06 9.31361e-07 -5.65488e-05
0.000719755 -7.76762e-05 -1.77326e-08
-7.76762e-05 -5.0114e-05 -4.59332e-07
-1.77326e-08 -4.59332e-07 -0.000142904
0.00110301 -0.000103255 1.5767e-06
-0.000103255 0.000104774 -1.13929e-06
1.5767e-06 -1.13929e-06 -7.58128e-06
0.00130579 -0.000115983 1.16706e-06
-0.000115983 0.000128127 2.25624e-06
1.16706e-06 2.25624e-06 1.18036e-05
0.00193334 -0.000124485 -7.35678e-07
-0.000124485 0.000383094 1.82408e-06
-7.35678e-07 1.82408e-06 0.000283099
0.000833808 2.05016e-05 1.5336e-06
2.05016e-05 5.4697e-07 -1.56683e-06
1.5336e-06 -1.56683e-06 -3.44655e-05
0.000760923 2.18154e-06 5.68862e-07
2.18154e-06 -3.4419e-05 -1.35208e-06
5.68862e-07 -1.35208e-06 -9.59152e-05
0.000978808 -8.42267e-05 3.56484e-07
-8.42267e-05 8.70621e-05 1.27703e-06
3.56484e-07 1.27703e-06 6.46005e-07
0.000982324 -5.9746e-05 8.78048e-07
-5.9746e-05 9.25234e-05 2.70725e-08
8.78048e-07 2.70725e-08 1.17334e-05
0.000993745 -8.51242e-05 -3.02766e-07
-8.51242e-05 0.000101421 1.98496e-06
-3.02766e-07 1.98496e-06 1.15213e-05
0.000738466 -3.15193e-05 -2.68648e-06
-3.15193e-05 -3.75886e-05 -3.54998e-06
-2.68648e-06 -3.54998e-06 -4.69405e-05
0.00132761 7.98959e-05 -2.6425e-06
7.98959e-05 6.63414e-05 -2.27076e-07
-2.6425e-06 -2.27076e-07 -3.29256e-05
0.000822825 -3.41998e-05 -1.11397e-06
-3.41998e-05 7.097e-06 -2.26609e-06
-1.11397e-06 -2.26609e-06 -3.5206e-05
0.000865086 -3.8555e-06 -1.87955e-06
-3.8555e-06 3.67432e-05 -2.28754e-06
-1.87955e-06 -2.28754e-06 -2.15478e-05
0.000931299 6.89423e-06 -5.78541e-07
6.89423e-06 6.3378e-05 -1.26032e-06
-5.78541e-07 -1.26032e-06 -7.35043e-06
0.00107157 9.00983e-05 -2.47147e-06
9.00983e-05 4.61358e-05 -1.0676e-06
-2.47147e-06 -1.0676e-06 -4.62528e-05
0.00130857 9.77055e-05 -1.40875e-06
9.77055e-05 7.15094e-05 -2.44496e-07
-1.40875e-06 -2.44496e-07 -3.41831e-05
0.000942844 7.01844e-05 -1.72148e-06
7.01844e-05 7.28317e-05 -5.3406e-07
-1.72148e-06 -5.3406e-07 -1.01444e-05
0.00109415 9.58576e-05 -2.15651e-06
9.58576e-05 0.000141994 -9.39679e-07
-2.15651e-06 -9.39679e-07 3.89593e-05
0.00144578 0.000108877 -1.78983e-06
0.000108877 0.000255301 -8.01237e-07
-1.78983e-06 -8.01237e-07 0.00016181
0.00101597 9.4083e-05 -3.62859e-06
9.4083e-05 6.15016e-05 1.99701e-06
-3.62859e-06 1.99701e-06 -3.43937e-05
0.000768863 -2.84819e-05 1.06667e-07
-2.84819e-05 -2.87956e-05 2.29737e-08
1.06667e-07 2.29737e-08 -3.55773e-05
0.000820063 -2.94415e-05 -5.40834e-08
-2.94415e-05 5.49385e-07 7.18262e-08
-5.40834e-08 7.18262e-08 -3.60627e-05
0.000960632 3.62576e-05 2.61275e-07
3.62576e-05 7.76965e-05 -8.82395e-08
2.61275e-07 -8.82395e-08 1.0308e-06
0.000894451 -5.73677e-06 8.85362e-08
-5.73677e-06 4.09867e-05 4.21771e-08
8.85362e-08 4.21771e-08 -2.20439e-05
0.000930399 5.19103e-05 3.53927e-07
5.19103e-05 6.96927e-05 -2.81685e-07
3.53927e-07 -2.81685e-07 -1.44009e-05
0.00141581 8.29177e-05 9.54202e-07
8.29177e-05 6.80083e-05 5.27679e-07
9.54202e-07 5.27679e-07 -3.67337e-05
0.00119295 0.000100595 1.32724e-07
0.000100595 7.86264e-05 2.01149e-08
1.32724e-07 2.01149e-08 -2.15082e-05
0.00137088 0.000104193 9.08822e-07
0.000104193 8.12872e-05 6.39933e-07
9.08822e-07 6.39933e-07 -2.715e-05
0.00103158 8.86019e-05 7.20109e-07
8.86019e-05 0.000126272 8.09337e-07
7.20109e-07 8.09337e-07 2.72749e-05
0.00128492 0.000106449 3.7926e-07
0.000106449 0.000156198 -7.00052e-07
3.7926e-07 -7.00052e-07 5.9058e-05
0.000888627 9.05873e-05 -1.29688e-06
9.05873e-05 1.82853e-05 -7.21016e-07
-1.29688e-06 -7.21016e-07 -9.35621e-05
0.000830138 -2.41153e-05 1.13018e-06
-2.41153e-05 1.7416e-06 2.03202e-06
1.13018e-06 2.03202e-06 -3.13581e-05
0.000878529 -1.16671e-05 5.08705e-07
-1.16671e-05 2.79354e-05 1.40504e-06
5.08705e-07 1.40504e-06 -2.73039e-05
0.0010487 8.46846e-05 8.71413e-07
8.46846e-05 0.000129963 -1.5998e-08
8.71413e-07 -1.5998e-08 3.85385e-05
0.000948414 2.18456e-05 7.18631e-07
2.18456e-05 7.63791e-05 7.6011e-07
7.18631e-07 7.6011e-07 8.89955e-08
0.00103533 5.3241e-05 7.56867e-07
5.3241e-05 0.000130692 -5.83326e-07
7.56867e-07 -5.83326e-07 3.90425e-05
0.00146121 8.20701e-05 -1.57542e-06
8.20701e-05 6.04493e-05 -1.46764e-06
-1.57542e-06 -1.46764e-06 -4.32236e-05
0.0012317 0.000108231 1.22245e-06
0.000108231 7.65008e-05 6.8255e-07
1.22245e-06 6.8255e-07 -2.64226e-05
0.00114088 0.00010712 -2.25492e-06
0.00010712 -3.81519e-05 -1.09348e-06
-2.25492e-06 -1.09348e-06 -0.000137778
0.00097291 9.04487e-05 1.18074e-06
9.04487e-05 0.000102688 2.36581e-06
1.18074e-06 2.36581e-06 -1.03377e-05
0.00121517 0.000111534 3.94828e-06
0.000111534 0.000137251 -9.2555e-07
3.94828e-06 -9.2555e-07 2.23593e-05
0.000840122 -1.7903e-05 7.61309e-08
-1.7903e-05 3.56259e-06 3.40184e-09
7.61309e-08 3.40184e-09 -2.69903e-05
0.000723993 -1.85063e-05 4.13053e-07
-1.85063e-05 -5.42496e-05 1.59874e-06
4.13053e-07 1.59874e-06 -0.000102599
0.000812943 -8.14307e-06 -6.20733e-07
-8.14307e-06 -6.87617e-06 -7.57624e-10
-6.20733e-07 -7.57624e-10 -5.36789e-05
0.00108809 1.28833e-05 8.72093e-07
1.28833e-05 0.000145287 2.31298e-07
8.72093e-07 2.31298e-07 8.74948e-05
0.000876806 9.41918e-06 1.43604e-06
9.41918e-06 2.65754e-05 1.02055e-06
1.43604e-06 1.02055e-06 -1.96926e-05
0.000868243 -3.97229e-06 6.92958e-07
-3.97229e-06 8.97694e-06 1.79868e-06
6.92958e-07 1.79868e-06 -1.70111e-05
0.000858816 -1.1108e-05 5.82631e-08
-1.1108e-05 7.05745e-06 2.08947e-08
5.82631e-08 2.08947e-08 -1.99159e-05
0.00133173 -2.22156e-05 1.50247e-06
-2.22156e-05 0.000253264 2.02497e-06
1.50247e-06 2.02497e-06 0.000255397
0.000850694 -1.25956e-05 -9.91987e-07
-1.25956e-05 6.69106e-06 -1.87687e-06
-9.91987e-07 -1.87687e-06 -2.2036e-05
0.00135491 -2.56152e-05 -3.56675e-06
-2.56152e-05 0.00027051 -1.18887e-06
-3.56675e-06 -1.18887e-06 0.000271017
0.00103451 -2.15399e-05 1.71401e-05
-2.15399e-05 0.000101925 6.28727e-06
1.71401e-05 6.28727e-06 0.000116778
0.00134426 -2.83816e-05 -8.80047e-06
-2.83816e-05 0.000270879 -3.24073e-06
-8.80047e-06 -3.24073e-06 0.000269524
0.00157432 -3.10712e-05 1.54006e-05
-3.10712e-05 0.000395984 2.11069e-06
1.54006e-05 2.11069e-06 0.000411889
0.00218751 -4.21749e-05 -2.25922e-05
-4.21749e-05 0.00072714 -3.64347e-06
-2.25922e-05 -3.64347e-06 0.000744494
0.000747527 2.85089e-05 2.22374e-06
2.85089e-05 -4.18606e-05 -3.32977e-06
2.22374e-06 -3.32977e-06 -4.97865e-05
0.000758077 3.20715e-05 -1.37503e-07
3.20715e-05 -3.06108e-05 2.3887e-08
-1.37503e-07 2.3887e-08 -4.10753e-05
0.00231832 4.89726e-05 2.56095e-05
4.89726e-05 0.00080093 -3.54885e-06
2.56095e-05 -3.54885e-06 0.000816057
0.002412 5.43961e-05 -6.86094e-07
5.43961e-05 0.000858263 -8.05969e-08
-6.86094e-07 -8.05969e-08 0.000871094
0.000763768 3.86449e-05 -2.59831e-06
3.86449e-05 -1.9942e-05 3.76663e-06
-2.59831e-06 3.76663e-06 -3.42723e-05
0.00257823 5.99472e-05 -3.60111e-05
5.99472e-05 0.00095217 3.46715e-06
-3.60111e-05 3.46715e-06 0.000962442
0.00140095 6.65238e-05 -3.36239e-06
6.65238e-05 6.92604e-05 -2.21861e-07
-3.36239e-06 -2.21861e-07 -2.88523e-05
0.00147285 2.92964e-05 -3.11705e-06
2.92964e-05 6.90649e-05 -2.37989e-07
-3.11705e-06 -2.37989e-07 -2.8422e-05
0.00157165 5.30472e-05 -5.66241e-07
5.30472e-05 9.00206e-05 5.25576e-07
-5.66241e-07 5.25576e-07 -8.51328e-06
0.00156967 1.04661e-05 -7.8129e-07
1.04661e-05 5.72804e-05 -5.41948e-07
-7.8129e-07 -5.41948e-07 -4.66155e-05
0.0015697 1.91305e-05 -3.20893e-06
1.91305e-05 7.30999e-05 -1.18241e-06
-3.20893e-06 -1.18241e-06 -3.3023e-05
0.00131111 7.3453e-06 -7.63674e-06
7.3453e-06 1.08136e-05 -1.13067e-07
-7.63674e-06 -1.13067e-07 -8.21735e-05
0.00158498 1.1818e-05 5.62994e-08
1.1818e-05 7.03832e-05 -7.82155e-07
5.62994e-08 -7.82155e-07 -3.74149e-05
0.00159707 4.50238e-06 2.36547e-07
4.50238e-06 4.89348e-05 5.20373e-07
2.36547e-07 5.20373e-07 -6.12571e-05
0.0015946 3.06545e-05 1.50754e-08
3.06545e-05 8.54554e-05 1.5679e-07
1.50754e-08 1.5679e-07 -1.37513e-05
0.00173104 5.9337e-06 -8.52876e-08
5.9337e-06 0.000123003 -3.24919e-07
-8.52876e-08 -3.24919e-07 2.1203e-05
0.00150035 6.67502e-05 -1.33581e-07
6.67502e-05 7.60794e-05 6.79049e-08
-1.33581e-07 6.79049e-08 -2.48094e-05
0.0016152 4.21193e-05 -2.35053e-08
4.21193e-05 7.91429e-05 4.48255e-07
-2.35053e-08 4.48255e-07 -1.28232e-05
0.00163032 1.49855e-06 1.66245e-06
1.49855e-06 5.38077e-05 -9.39304e-07
1.66245e-06 -9.39304e-07 -5.90574e-05
0.00178871 1.31549e-05 -5.45681e-07
1.31549e-05 0.00012861 6.96042e-07
-5.45681e-07 6.96042e-07 1.86839e-05
0.00161416 2.25089e-05 -5.48692e-07
2.25089e-05 6.71214e-05 8.07646e-07
-5.48692e-07 8.07646e-07 -2.9718e-05
0.00173963 1.79318e-06 -4.09612e-07
1.79318e-06 0.00011681 -2.6837e-07
-4.09612e-07 -2.6837e-07 1.5944e-05
0.00147053 5.95264e-05 -1.20402e-06
5.95264e-05 2.52473e-05 -1.35524e-06
-1.20402e-06 -1.35524e-06 -7.03087e-05
0.00186796 3.49713e-05 -5.6602e-07
3.49713e-05 0.00018752 -5.11826e-07
-5.6602e-07 -5.11826e-07 9.72434e-05
0.00158052 6.33371e-06 -4.78171e-06
6.33371e-06 8.27592e-05 1.85419e-06
-4.78171e-06 1.85419e-06 -2.20634e-05
0.00163039 -3.12124e-05 -4.59468e-06
-3.12124e-05 0.000146219 4.52939e-07
-4.59468e-06 4.52939e-07 5.19215e-05
0.00155179 1.28487e-06 -1.75668e-06
1.28487e-06 5.35637e-05 7.51728e-07
-1.75668e-06 7.51728e-07 -5.04635e-05
0.00178896 -4.4943e-05 -1.4002e-06
-4.4943e-05 0.000184966 -3.51448e-07
-1.4002e-06 -3.51448e-07 8.62514e-05
0.000850034 -1.85752e-05 -2.71478e-06
-1.85752e-05 2.8359e-05 1.25795e-06
-2.71478e-06 1.25795e-06 -3.6377e-05
0.00108646 -8.21811e-05 -1.42155e-06
-8.21811e-05 0.000135338 2.31238e-07
-1.42155e-06 2.31238e-07 5.28373e-05
0.000926353 -8.88731e-05 -2.76462e-07
-8.88731e-05 3.64353e-05 2.74589e-08
-2.76462e-07 2.74589e-08 -6.24123e-05
0.00167173 -9.48562e-05 -9.21943e-07
-9.48562e-05 0.000208495 2.47253e-07
-9.21943e-07 2.47253e-07 0.000106766
0.00152853 -6.76606e-05 8.61001e-07
-6.76606e-05 3.82393e-05 2.02571e-07
8.61001e-07 2.02571e-07 -5.5809e-05
0.00136733 -9.47795e-05 1.58738e-06
-9.47795e-05 7.19998e-05 7.8142e-07
1.58738e-06 7.8142e-07 -2.9085e-05
0.000986562 -9.83465e-05 -7.70458e-07
-9.83465e-05 -1.21313e-05 -1.41978e-07
-7.70458e-07 -1.41978e-07 -0.000124127
0.00133283 -0.000103614 2.85027e-06
-0.000103614 8.93398e-05 -2.64522e-06
2.85027e-06 -2.64522e-06 -8.3545e-06
0.000982187 -3.57376e-05 -1.34588e-06
-3.57376e-05 8.35076e-05 -3.56249e-07
-1.34588e-06 -3.56249e-07 7.22258e-06
0.000969568 -6.52067e-05 -8.53878e-07
-6.52067e-05 8.36481e-05 -6.06399e-07
-8.53878e-07 -6.06399e-07 -1.92788e-06
0.000809293 3.07962e-05 -9.75161e-07
3.07962e-05 -7.9711e-06 1.81412e-06
-9.75161e-07 1.81412e-06 -4.66352e-05
0.000832013 1.74725e-05 -2.4137e-07
1.74725e-05 1.54647e-06 3.82391e-07
-2.4137e-07 3.82391e-07 -6.32727e-05
0.00168187 5.01388e-06 -1.64462e-07
5.01388e-06 0.000100745 3.15628e-07
-1.64462e-07 3.15628e-07 -8.02508e-06
0.00175303 -1.94886e-05 -5.29027e-07
-1.94886e-05 0.000164548 1.97007e-08
-5.29027e-07 1.97007e-08 6.56131e-05
0.00169113 2.35636e-06 -7.73773e-07
2.35636e-06 0.000107978 6.56534e-07
-7.73773e-07 6.56534e-07 4.70036e-06
0.00166318 -3.92145e-05 -1.22563e-07
-3.92145e-05 8.79472e-05 -4.63941e-07
-1.22563e-07 -4.63941e-07 -9.15261e-06
0.000993133 -5.97719e-05 -1.59398e-07
-5.97719e-05 8.86938e-05 6.1258e-08
-1.59398e-07 6.1258e-08 1.06985e-05
0.000796114 -8.00517e-05 4.68622e-07
-8.00517e-05 -1.03652e-05 -3.83301e-07
4.68622e-07 -3.83301e-07 -0.000101944
0.00110053 -0.000102634 1.05682e-07
-0.000102634 0.000105155 -1.5958e-07
1.05682e-07 -1.5958e-07 -7.49246e-06
0.00154622 -9.12096e-05 -7.51136e-07
-9.12096e-05 0.000103133 -4.97702e-07
-7.51136e-07 -4.97702e-07 3.01204e-06
0.00162839 -6.67313e-05 -2.98919e-07
-6.67313e-05 7.09835e-05 7.96863e-07
-2.98919e-07 7.96863e-07 -1.79146e-05
0.00129859 -0.000114596 -2.19804e-07
-0.000114596 0.000125266 5.63013e-07
-2.19804e-07 5.63013e-07 8.24176e-06
0.0013787 -9.65837e-05 -6.07027e-08
-9.65837e-05 6.10818e-05 8.9009e-07
-6.07027e-08 8.9009e-07 -3.15845e-05
0.00158363 -0.000112953 9.18459e-07
-0.000112953 0.00020311 -1.36795e-06
9.18459e-07 -1.36795e-06 0.000105986
0.00102629 -8.62987e-05 6.47432e-08
-8.62987e-05 0.000110723 -3.23533e-08
6.47432e-08 -3.23533e-08 2.42975e-05
0.00100996 -8.39007e-05 5.35222e-08
-8.39007e-05 0.000108562 1.80531e-07
5.35222e-08 1.80531e-07 1.88678e-05
0.000975088 -4.38955e-05 -3.31187e-07
-4.38955e-05 8.71433e-05 -1.30295e-08
-3.31187e-07 -1.30295e-08 7.51352e-06
0.000713706 2.57895e-05 -2.31652e-07
2.57895e-05 -6.23191e-05 6.11188e-09
-2.31652e-07 6.11188e-09 -9.84195e-05
0.000791664 1.7251e-05 6.87754e-08
1.7251e-05 -2.12559e-05 -3.53816e-07
6.87754e-08 -3.53816e-07 -8.0582e-05
0.001702 8.40723e-06 -4.76818e-08
8.40723e-06 8.66164e-05 -8.40457e-07
-4.76818e-08 -8.40457e-07 -2.26089e-05
0.00167192 -4.1432e-06 1.12155e-06
-4.1432e-06 8.5897e-05 1.20393e-07
1.12155e-06 1.20393e-07 -1.50798e-05
0.00165327 -4.35347e-05 9.99845e-07
-4.35347e-05 5.66257e-05 -1.43463e-06
9.99845e-07 -1.43463e-06 -4.05462e-05
0.00139027 -7.92202e-05 -5.07902e-08
-7.92202e-05 -1.51443e-05 -1.34779e-06
-5.07902e-08 -1.34779e-06 -0.000105916
0.000953759 -8.46223e-05 -5.2467e-08
-8.46223e-05 7.33292e-05 1.28152e-06
-5.2467e-08 1.28152e-06 -1.34248e-05
0.00192166 -0.000114961 -1.15588e-06
-0.000114961 0.000306639 1.58619e-06
-1.15588e-06 1.58619e-06 0.000218103
0.000414142 -6.67988e-05 -1.4875e-07
-6.67988e-05 -0.000204288 -1.65766e-06
-1.4875e-07 -1.65766e-06 -0.000304321
0.00119094 -0.000113559 2.85532e-06
-0.000113559 0.00012979 -1.0155e-06
2.85532e-06 -1.0155e-06 2.93604e-06
0.00161633 -0.000129697 1.65411e-06
-0.000129697 0.000257355 2.32184e-06
1.65411e-06 2.32184e-06 0.000135371
0.000625025 1.90182e-05 1.20026e-06
1.90182e-05 -0.000111937 -2.2226e-06
1.20026e-06 -2.2226e-06 -0.000146523
0.000984647 5.2175e-07 1.26204e-06
5.2175e-07 8.21317e-05 -6.77554e-07
1.26204e-06 -6.77554e-07 2.71621e-05
0.0010033 -2.75623e-05 1.34621e-07
-2.75623e-05 9.67642e-05 -2.13137e-07
1.34621e-07 -2.13137e-07 2.66235e-05
0.000986084 -8.51065e-05 -3.58254e-07
-8.51065e-05 9.11296e-05 2.10225e-06
-3.58254e-07 2.10225e-06 3.42306e-06
0.00108164 -6.40625e-05 4.40254e-07
-6.40625e-05 0.000146892 1.40546e-06
4.40254e-07 1.40546e-06 5.86391e-05
0.000947552 -8.29894e-05 -1.32762e-07
-8.29894e-05 7.14042e-05 1.88866e-06
-1.32762e-07 1.88866e-06 -1.93235e-05
0.000748907 -2.79115e-05 -2.21969e-06
-2.79115e-05 -3.90318e-05 -3.51581e-06
-2.21969e-06 -3.51581e-06 -4.57166e-05
0.000829321 -2.92814e-05 -1.38957e-06
-2.92814e-05 5.34985e-06 -1.99359e-06
-1.38957e-06 -1.99359e-06 -3.11865e-05
0.00142959 8.37435e-05 -6.49502e-07
8.37435e-05 7.49576e-05 9.32189e-07
-6.49502e-07 9.32189e-07 -3.00417e-05
0.00091318 -1.552e-05 -3.62692e-07
-1.552e-05 4.99906e-05 -1.48758e-06
-3.62692e-07 -1.48758e-06 -1.23858e-05
0.000907687 2.96399e-05 -1.26585e-06
2.96399e-05 4.93338e-05 -5.74593e-07
-1.26585e-06 -5.74593e-07 -2.64899e-05
0.000887146 4.54512e-05 -3.93388e-07
4.54512e-05 4.6003e-05 -3.8449e-07
-3.93388e-07 -3.8449e-07 -3.77543e-05
0.00119737 0.000101364 -1.20753e-06
0.000101364 8.12611e-05 -1.14334e-06
-1.20753e-06 -1.14334e-06 -1.89134e-05
0.001323 0.000103899 5.18217e-07
0.000103899 5.72677e-05 3.56855e-07
5.18217e-07 3.56855e-07 -5.16093e-05
0.000963894 8.59134e-05 -7.65792e-07
8.59134e-05 9.2436e-05 -3.45443e-07
-7.65792e-07 -3.45443e-07 -6.27771e-06
0.00120905 0.000104567 -2.24672e-06
0.000104567 0.000181332 6.97974e-07
-2.24672e-06 6.97974e-07 6.96546e-05
0.00139626 0.000110266 -2.75734e-06
0.000110266 0.000214656 -5.50379e-07
-2.75734e-06 -5.50379e-07 0.000117563
0.000832239 -2.33419e-05 4.27507e-08
-2.33419e-05 3.03742e-06 2.41617e-08
4.27507e-08 2.41617e-08 -3.00293e-05
0.000882535 -1.66456e-05 -7.4704e-08
-1.66456e-05 2.99578e-05 1.30528e-07
-7.4704e-08 1.30528e-07 -2.52145e-05
0.00101535 8.33416e-05 -3.74642e-07
8.33416e-05 0.00011434 -2.54685e-07
-3.74642e-07 -2.54685e-07 2.33368e-05
0.00093789 1.82401e-05 1.23473e-07
1.82401e-05 6.93239e-05 -1.01332e-08
1.23473e-07 -1.01332e-08 -6.20517e-06
0.000953765 5.82744e-05 9.05291e-08
5.82744e-05 8.97041e-05 -5.34753e-07
9.05291e-08 -5.34753e-07 -3.59089e-06
0.00147082 8.43097e-05 -7.41955e-07
8.43097e-05 6.72895e-05 -1.5671e-07
-7.41955e-07 -1.5671e-07 -3.69141e-05
0.00125531 0.000108965 9.47952e-07
0.000108965 8.72684e-05 -6.72239e-08
9.47952e-07 -6.72239e-08 -1.58913e-05
0.00125275 0.000109441 4.3654e-07
0.000109441 1.31961e-05 8.62693e-07
4.3654e-07 8.62693e-07 -8.50775e-05
0.000811936 8.35613e-05 5.33214e-07
8.35613e-05 1.99948e-05 1.33218e-06
5.33214e-07 1.33218e-06 -9.31584e-05
0.00121759 0.000111515 -3.14563e-07
0.000111515 0.000139861 -6.86343e-07
-3.14563e-07 -6.86343e-07 2.25962e-05
0.000873881 -1.2752e-05 5.95866e-07
-1.2752e-05 2.50469e-05 1.25922e-06
5.95866e-07 1.25922e-06 -2.51465e-05
0.000824387 1.12705e-06 3.27562e-07
1.12705e-06 4.4226e-06 1.50964e-06
3.27562e-07 1.50964e-06 -6.4797e-05
0.0011242 9.42062e-05 5.5598e-07
9.42062e-05 0.000182199 -4.15985e-07
5.5598e-07 -4.15985e-07 7.88895e-05
0.000859407 3.63838e-05 5.22771e-07
3.63838e-05 3.59647e-05 5.83158e-07
5.22771e-07 5.83158e-07 -5.2878e-05
0.00102611 6.81724e-05 4.49476e-07
6.81724e-05 0.000123551 -7.97816e-07
4.49476e-07 -7.97816e-07 2.39382e-05
0.00161158 8.45027e-05 -2.54944e-06
8.45027e-05 9.48092e-05 -1.41617e-07
-2.54944e-06 -1.41617e-07 9.98232e-06
0.00159079 0.000132037 1.29845e-06
0.000132037 0.000252866 -1.47901e-06
1.29845e-06 -1.47901e-06 0.000140399
0.000345479 8.7656e-05 6.41722e-07
8.7656e-05 -0.000478713 -2.0045e-06
6.41722e-07 -2.0045e-06 -0.0005718
0.00156109 0.000119026 4.06958e-06
0.000119026 0.000393119 3.18058e-06
4.06958e-06 3.18058e-06 0.000270696
8.1633e-05 7.08284e-05 1.04119e-06
7.08284e-05 -0.000442049 -7.70107e-07
1.04119e-06 -7.70107e-07 -0.000571546
0.000838772 -1.5795e-05 -1.27021e-06
-1.5795e-05 3.16413e-06 -1.85816e-06
-1.27021e-06 -1.85816e-06 -2.73722e-05
0.000806823 -1.18482e-05 1.33704e-07
-1.18482e-05 -1.06348e-05 5.39525e-07
1.33704e-07 5.39525e-07 -5.86487e-05
0.000805377 -1.48358e-05 2.89639e-07
-1.48358e-05 -7.45791e-06 1.1999e-06
2.89639e-07 1.1999e-06 -6.74319e-05
0.000766298 -2.29891e-05 -6.38295e-07
-2.29891e-05 -3.23455e-05 -8.75527e-07
-6.38295e-07 -8.75527e-07 -7.92461e-05
0.000890747 -3.47581e-07 2.23315e-07
-3.47581e-07 3.26315e-05 -3.76126e-08
2.23315e-07 -3.76126e-08 -1.27708e-05
0.000937843 -1.44607e-05 1.59459e-07
-1.44607e-05 6.36526e-05 -3.94456e-07
1.59459e-07 -3.94456e-07 6.68664e-06
0.00104496 5.44323e-06 3.27981e-07
5.44323e-06 0.000124171 2.43048e-07
3.27981e-07 2.43048e-07 5.94835e-05
0.000821981 -2.99448e-05 7.01205e-08
-2.99448e-05 4.33647e-06 8.09977e-07
7.01205e-08 8.09977e-07 -5.3031e-05
0.00090285 -1.86876e-05 4.05341e-08
-1.86876e-05 3.59447e-05 9.2515e-07
4.05341e-08 9.2515e-07 -7.96224e-06
0.000860886 2.20819e-06 7.45416e-07
2.20819e-06 4.09522e-06 1.65972e-06
7.45416e-07 1.65972e-06 -2.19004e-05
0.000862014 -8.31388e-06 -1.41262e-07
-8.31388e-06 5.89678e-06 2.1223e-08
-1.41262e-07 2.1223e-08 -2.01311e-05
0.0013278 -1.66485e-05 1.22972e-06
-1.66485e-05 0.000246808 1.96156e-06
1.22972e-06 1.96156e-06 0.000250047
0.000858208 -1.143e-05 -6.03068e-07
-1.143e-05 6.94913e-06 -1.85662e-06
-6.03068e-07 -1.85662e-06 -2.00763e-05
0.00134493 -2.08295e-05 -2.94115e-06
-2.08295e-05 0.000259989 -1.16313e-06
-2.94115e-06 -1.16313e-06 0.000262284
0.00102446 -1.78923e-05 1.37653e-05
-1.78923e-05 9.11901e-05 6.19355e-06
1.37653e-05 6.19355e-06 0.00010758
0.00136495 -2.44305e-05 -7.57584e-06
-2.44305e-05 0.000275359 -4.43311e-06
-7.57584e-06 -4.43311e-06 0.000276104
0.000981211 -2.27974e-05 5.63021e-06
-2.27974e-05 7.39751e-05 2.3845e-06
5.63021e-06 2.3845e-06 8.86494e-05
0.0021054 -4.0697e-05 -6.15273e-06
-4.0697e-05 0.000678265 -1.58207e-06
-6.15273e-06 -1.58207e-06 0.00069672
0.0007601 2.55725e-05 1.72508e-06
2.55725e-05 -4.08715e-05 -3.31354e-06
1.72508e-06 -3.31354e-06 -4.65883e-05
0.000765146 2.88273e-05 -1.14119e-07
2.88273e-05 -3.28141e-05 2.49336e-08
-1.14119e-07 2.49336e-08 -4.08199e-05
0.00226689 4.33407e-05 2.25659e-05
4.33407e-05 0.000767059 -3.65111e-06
2.25659e-05 -3.65111e-06 0.000783988
0.000776832 3.27795e-05 -2.86181e-06
3.27795e-05 -2.08698e-05 3.42197e-06
-2.86181e-06 3.42197e-06 -3.14899e-05
0.00232309 4.87146e-05 -9.07754e-07
4.87146e-05 0.000804366 -7.87202e-08
-9.07754e-07 -7.87202e-08 0.000819318
0.00243287 5.38769e-05 -3.1823e-05
5.38769e-05 0.00086987 3.52997e-06
-3.1823e-05 3.52997e-06 0.000882509
0.00151241 6.80238e-05 -1.39791e-06
6.80238e-05 8.18556e-05 7.76016e-07
-1.39791e-06 7.76016e-07 -1.92998e-05
0.0016171 2.90207e-05 -4.27986e-07
2.90207e-05 9.72286e-05 2.23551e-07
-4.27986e-07 2.23551e-07 -1.81061e-06
0.00160135 4.17689e-05 1.83515e-06
4.17689e-05 6.93325e-05 8.70606e-07
1.83515e-06 8.70606e-07 -2.28603e-05
0.00166158 5.28035e-06 -5.1801e-08
5.28035e-06 8.57189e-05 -9.5471e-07
-5.1801e-08 -9.5471e-07 -1.57462e-05
0.00159226 -1.6395e-07 -6.7053e-07
-1.6395e-07 4.36392e-05 -7.75381e-07
-6.7053e-07 -7.75381e-07 -6.76186e-05
0.00159722 1.53145e-05 -3.34852e-06
1.53145e-05 7.66055e-05 -3.21417e-07
-3.34852e-06 -3.21417e-07 -3.12496e-05
0.00167563 5.21242e-06 3.06118e-07
5.21242e-06 7.60451e-05 -5.97316e-07
3.06118e-07 -5.97316e-07 -3.73413e-05
0.00177776 9.05016e-06 1.53388e-10
9.05016e-06 0.000125565 -5.43451e-07
1.53388e-10 -5.43451e-07 1.5903e-05
0.00160377 2.07314e-05 1.2593e-07
2.07314e-05 6.0864e-05 4.54389e-07
1.2593e-07 4.54389e-07 -3.62826e-05
0.00170441 1.62376e-06 8.48701e-08
1.62376e-06 9.67866e-05 -6.43804e-07
8.48701e-08 -6.43804e-07 -3.05153e-06
0.00153074 6.12381e-05 -5.28231e-07
6.12381e-05 5.57872e-05 9.88415e-08
-5.28231e-07 9.88415e-08 -3.9672e-05
0.00172012 3.427e-05 1.15075e-06
3.427e-05 0.000113299 -6.06328e-07
1.15075e-06 -6.06328e-07 2.35947e-05
0.00178182 1.29799e-05 -1.27874e-07
1.29799e-05 0.000104546 -2.52528e-07
-1.27874e-07 -2.52528e-07 -1.09877e-05
0.00174903 3.28464e-06 -7.92804e-07
3.28464e-06 0.000100713 5.59962e-07
-7.92804e-07 5.59962e-07 -4.41759e-06
0.00169141 1.43115e-05 -1.34049e-07
1.43115e-05 8.37102e-05 1.32645e-07
-1.34049e-07 1.32645e-07 -1.15605e-05
0.00187257 5.51134e-05 -1.44578e-06
5.51134e-05 0.000192553 -8.15702e-07
-1.44578e-06 -8.15702e-07 0.000103439
0.00168327 5.70657e-06 -1.18056e-06
5.70657e-06 0.000101159 1.68172e-06
-1.18056e-06 1.68172e-06 -7.64543e-06
0.0017803 -1.86603e-05 -2.57443e-06
-1.86603e-05 0.00017805 6.52945e-08
-2.57443e-06 6.52945e-08 7.95748e-05
0.00160636 1.53943e-06 -1.44178e-06
1.53943e-06 6.64301e-05 7.91194e-07
-1.44178e-06 7.91194e-07 -3.63011e-05
0.0016936 -3.9563e-05 -2.2211e-07
-3.9563e-05 0.000102928 -1.85123e-07
-2.2211e-07 -1.85123e-07 5.97127e-06
0.00104763 -5.97428e-05 -1.35194e-06
-5.97428e-05 0.000116177 -4.5227e-07
-1.35194e-06 -4.5227e-07 3.7913e-05
0.000892891 -8.35179e-05 4.95123e-07
-8.35179e-05 3.9656e-05 -4.15136e-07
4.95123e-07 -4.15136e-07 -5.07891e-05
0.00109445 -0.000101853 -8.57747e-07
-0.000101853 0.000103772 1.2586e-06
-8.57747e-07 1.2586e-06 -9.16389e-06
0.00166388 -9.33583e-05 2.9021e-07
-9.33583e-05 0.000165516 -2.48396e-07
2.9021e-07 -2.48396e-07 6.46164e-05
0.00149929 -6.55394e-05 5.17287e-09
-6.55394e-05 1.03198e-05 1.68296e-06
5.17287e-09 1.68296e-06 -7.55029e-05
0.00142001 -9.67195e-05 2.65208e-06
-9.67195e-05 8.26714e-05 8.62578e-07
2.65208e-06 8.62578e-07 -9.90457e-06
0.00126601 -0.000112264 -1.05739e-06
-0.000112264 0.000109491 -8.95274e-07
-1.05739e-06 -8.95274e-07 -8.17923e-06
0.001263 -0.000102263 -1.77821e-07
-0.000102263 3.83658e-05 -5.86474e-06
-1.77821e-07 -5.86474e-06 -5.60239e-05
0.00107127 -8.83261e-05 -3.01346e-07
-8.83261e-05 0.000133278 -1.26357e-06
-3.01346e-07 -1.26357e-06 4.68181e-05
0.00103646 -8.50516e-05 -4.17027e-07
-8.50516e-05 0.000121212 -1.95363e-06
-4.17027e-07 -1.95363e-06 3.14006e-05
0.000959552 -2.94741e-05 -8.38626e-08
-2.94741e-05 7.82714e-05 1.86943e-07
-8.38626e-08 1.86943e-07 -5.3778e-07
0.00059928 2.74001e-05 -1.00575e-06
2.74001e-05 -0.000122512 1.67288e-06
-1.00575e-06 1.67288e-06 -0.000159538
0.000826276 2.91286e-05 -1.17185e-07
2.91286e-05 -5.1404e-06 3.9803e-07
-1.17185e-07 3.9803e-07 -6.29587e-05
0.00166522 7.5357e-06 -4.24114e-07
7.5357e-06 7.15355e-05 5.85622e-07
-4.24114e-07 5.85622e-07 -3.65157e-05
0.00172138 -5.14538e-06 -2.95915e-07
-5.14538e-06 0.000112405 -1.84799e-07
-2.95915e-07 -1.84799e-07 1.10499e-05
0.00176891 -4.5257e-05 -1.36481e-06
-4.5257e-05 0.00011833 1.96806e-08
-1.36481e-06 1.96806e-08 2.2294e-05
0.00103679 -8.79067e-05 6.83162e-10
-8.79067e-05 0.000114334 1.91465e-07
6.83162e-10 1.91465e-07 2.73873e-05
0.000794049 -8.28179e-05 1.01494e-06
-8.28179e-05 -1.12777e-05 -9.17005e-07
1.01494e-06 -9.17005e-07 -0.000110698
0.00114292 -0.000110854 -6.88794e-08
-0.000110854 0.00010838 -1.90795e-07
-6.88794e-08 -1.90795e-07 -1.90135e-05
0.00152872 -8.15901e-05 5.71945e-07
-8.15901e-05 5.15543e-05 -8.40948e-07
5.71945e-07 -8.40948e-07 -4.02864e-05
0.00150665 -0.000123061 -1.69744e-07
-0.000123061 0.000201993 -2.30122e-07
-1.69744e-07 -2.30122e-07 8.3287e-05
0.00152485 -0.000107066 -1.04299e-06
-0.000107066 0.000110282 -4.00435e-07
-1.04299e-06 -4.00435e-07 2.21192e-05
0.000617885 2.22927e-05 5.74261e-08
2.22927e-05 -0.00011584 -5.85192e-07
5.74261e-08 -5.85192e-07 -0.000150164
0.00103061 -8.7093e-05 4.00495e-08
-8.7093e-05 0.000113619 1.12265e-07
4.00495e-08 1.12265e-07 2.57345e-05
0.000953927 -8.30112e-05 -5.86062e-07
-8.30112e-05 7.52219e-05 7.80001e-08
-5.86062e-07 7.80001e-08 -1.48644e-05
0.00106755 -6.54346e-05 -3.24187e-07
-6.54346e-05 0.000141663 7.98815e-07
-3.24187e-07 7.98815e-07 5.19113e-05
0.00102942 -2.61657e-05 7.11134e-09
-2.61657e-05 0.000111054 3.24727e-09
7.11134e-09 3.24727e-09 4.07989e-05
0.000880434 1.12113e-05 -1.90831e-07
1.12113e-05 2.52288e-05 1.84105e-07
-1.90831e-07 1.84105e-07 -2.9106e-05
0.00183072 8.78568e-06 1.42037e-07
8.78568e-06 0.000145259 -1.3077e-06
1.42037e-07 -1.3077e-06 3.9615e-05
0.00172353 -6.98989e-06 3.62999e-07
-6.98989e-06 8.44034e-05 3.86872e-07
3.62999e-07 3.86872e-07 -1.58224e-05
0.00140062 -5.25827e-05 2.32325e-06
-5.25827e-05 -7.5763e-05 -2.00462e-06
2.32325e-06 -2.00462e-06 -0.000174485
0.00169381 -9.87747e-05 3.09596e-07
-9.87747e-05 8.41418e-05 -1.51499e-06
3.09596e-07 -1.51499e-06 -2.41921e-06
0.000971003 -8.64827e-05 -6.41446e-07
-8.64827e-05 8.33173e-05 1.31545e-06
-6.41446e-07 1.31545e-06 -7.13436e-06
0.00156643 -0.000123259 2.84008e-06
-0.000123259 0.000158842 3.01299e-06
2.84008e-06 3.01299e-06 4.8309e-05
0.000719502 -8.58795e-05 -4.90438e-07
-8.58795e-05 -5.68719e-05 -2.38079e-06
-4.90438e-07 -2.38079e-06 -0.000175383
0.00146601 -0.00012903 1.04573e-06
-0.00012903 0.000254707 1.04631e-06
1.04573e-06 1.04631e-06 0.000115806
0.000631991 1.84351e-05 8.33029e-07
1.84351e-05 -0.0001106 -2.30244e-06
8.33029e-07 -2.30244e-06 -0.00014279
0.00099892 -5.31542e-07 1.03845e-06
-5.31542e-07 8.86467e-05 -7.0958e-07
1.03845e-06 -7.0958e-07 3.77522e-05
0.00106639 -2.55278e-05 2.21837e-07
-2.55278e-05 0.000129787 6.42952e-07
2.21837e-07 6.42952e-07 6.34326e-05
0.000995602 -3.27713e-05 4.35877e-07
-3.27713e-05 9.84585e-05 -7.54521e-07
4.35877e-07 -7.54521e-07 1.66495e-05
0.00105182 -8.81411e-05 -2.33632e-07
-8.81411e-05 0.000124025 2.08243e-06
-2.33632e-07 2.08243e-06 3.3776e-05
0.000974629 -8.5182e-05 -5.29703e-07
-8.5182e-05 8.81085e-05 2.77382e-06
-5.29703e-07 2.77382e-06 -5.96789e-06
0.000831655 -2.22596e-05 -1.40197e-06
-2.22596e-05 2.83835e-06 -1.90263e-06
-1.40197e-06 -1.90263e-06 -3.01402e-05
0.00088268 -1.96866e-05 -4.43565e-07
-1.96866e-05 3.00534e-05 -1.3348e-06
-4.43565e-07 -1.3348e-06 -2.50858e-05
0.00148827 8.67898e-05 4.25323e-07
8.67898e-05 7.80652e-05 1.44912e-06
4.25323e-07 1.44912e-06 -2.66795e-05
0.000934458 1.18914e-05 -4.75098e-07
1.18914e-05 6.58811e-05 -8.29709e-07
-4.75098e-07 -8.29709e-07 -8.80431e-06
0.000974001 8.17188e-05 -6.50038e-07
8.17188e-05 9.48473e-05 -2.94105e-07
-6.50038e-07 -2.94105e-07 4.25261e-06
0.000882381 5.01951e-05 -9.28488e-07
5.01951e-05 5.11777e-05 -4.02207e-07
-9.28488e-07 -4.02207e-07 -4.19383e-05
0.00127855 0.000109687 -1.14508e-06
0.000109687 9.78278e-05 -1.14812e-06
-1.14508e-06 -1.14812e-06 -5.56457e-06
0.00135555 0.000111442 1.16854e-06
0.000111442 5.97393e-05 1.26836e-06
1.16854e-06 1.26836e-06 -3.71307e-05
0.000656069 7.69863e-05 -7.25142e-07
7.69863e-05 -5.99504e-05 9.71282e-08
-7.25142e-07 9.71282e-08 -0.000173281
0.00123852 0.000112372 -2.2524e-06
0.000112372 0.000152196 5.15932e-07
-2.2524e-06 5.15932e-07 3.24526e-05
0.000873974 -1.65625e-05 -9.17263e-08
-1.65625e-05 2.48813e-05 9.47765e-08
-9.17263e-08 9.47765e-08 -2.53128e-05
0.000871864 5.47555e-06 9.95766e-08
5.47555e-06 2.92361e-05 5.4398e-07
9.95766e-08 5.4398e-07 -3.98412e-05
0.00108809 9.24037e-05 -7.89247e-08
9.24037e-05 0.000166435 -8.36818e-07
-7.89247e-08 -8.36818e-07 6.40386e-05
0.000910294 2.24479e-05 -1.39607e-07
2.24479e-05 6.00101e-05 -1.68869e-08
-1.39607e-07 -1.68869e-08 -2.67046e-05
0.000945849 6.32812e-05 -1.10102e-06
6.32812e-05 8.45269e-05 -7.85491e-07
-1.10102e-06 -7.85491e-07 -1.51162e-05
0.001756 8.63498e-05 -1.57444e-06
8.63498e-05 0.000161292 -3.2312e-08
-1.57444e-06 -3.2312e-08 7.54088e-05
0.00158363 0.000131104 1.32209e-06
0.000131104 0.000243312 7.96297e-08
1.32209e-06 7.96297e-08 0.0001322
0.000847374 0.000103001 -7.3508e-07
0.000103001 -0.000213191 8.55936e-07
-7.3508e-07 8.55936e-07 -0.000302191
0.00123251 0.000105209 1.2592e-06
0.000105209 0.000225818 1.41352e-06
1.2592e-06 1.41352e-06 0.000103362
0.000634496 9.44696e-05 -1.38032e-06
9.44696e-05 -0.000159886 -5.88065e-07
-1.38032e-06 -5.88065e-07 -0.000294776
0.000823582 -3.80682e-06 4.37468e-07
-3.80682e-06 1.58671e-06 1.34734e-06
4.37468e-07 1.34734e-06 -6.11665e-05
0.0008307 3.56013e-05 5.32413e-07
3.56013e-05 1.61857e-05 4.44732e-07
5.32413e-07 4.44732e-07 -6.77274e-05
0.0010777 9.29042e-05 1.27766e-06
9.29042e-05 0.00016316 -2.21221e-08
1.27766e-06 -2.21221e-08 5.13425e-05
0.000665184 4.86883e-05 7.16122e-07
4.86883e-05 -6.21218e-05 7.44852e-07
7.16122e-07 7.44852e-07 -0.000163964
0.00217361 6.11075e-05 -7.58651e-07
6.11075e-05 0.000304118 6.29447e-07
-7.58651e-07 6.29447e-07 0.000219807
0.00131614 0.000102822 2.18015e-06
0.000102822 -9.66431e-05 -1.17435e-06
2.18015e-06 -1.17435e-06 -0.000169804
0.00133134 0.000131318 2.14456e-06
0.000131318 0.000104982 -3.05584e-06
2.14456e-06 -3.05584e-06 -2.17958e-05
0.000440311 7.74767e-05 1.35454e-06
7.74767e-05 -0.00019302 1.71353e-06
1.35454e-06 1.71353e-06 -0.000339903
0.000883 4.46414e-06 -5.04423e-07
4.46414e-06 3.15739e-05 -6.31921e-07
-5.04423e-07 -6.31921e-07 -1.74344e-05
0.000894909 -9.75162e-07 -5.36175e-08
-9.75162e-07 4.062e-05 3.80155e-07
-5.36175e-08 3.80155e-07 -1.97187e-05
0.000969622 -2.93512e-06 3.33872e-07
-2.93512e-06 8.19531e-05 8.78236e-07
3.33872e-07 8.78236e-07 1.41161e-05
0.00088753 -1.00993e-05 -6.09704e-07
-1.00993e-05 2.96206e-05 -9.24459e-07
-6.09704e-07 -9.24459e-07 -1.48643e-05
0.000783273 -2.42892e-05 6.25076e-08
-2.42892e-05 -1.79768e-05 -1.02041e-06
6.25076e-08 -1.02041e-06 -7.56481e-05
0.000893842 -1.11609e-05 1.27399e-07
-1.11609e-05 3.09446e-05 3.13609e-08
1.27399e-07 3.13609e-08 -1.27769e-05
0.000966314 1.53136e-05 -1.09994e-07
1.53136e-05 8.48832e-05 -3.28755e-07
-1.09994e-07 -3.28755e-07 1.76662e-05
0.000846466 -1.22226e-05 1.59047e-07
-1.22226e-05 1.89559e-05 3.01625e-07
1.59047e-07 3.01625e-07 -3.92938e-05
0.00100424 4.66375e-06 4.20197e-07
4.66375e-06 0.000104318 4.70006e-07
4.20197e-07 4.70006e-07 3.25489e-05
0.000820919 -3.07113e-05 -2.02863e-07
-3.07113e-05 7.92757e-06 9.13451e-07
-2.02863e-07 9.13451e-07 -5.76243e-05
0.000794096 2.11297e-05 4.09177e-07
2.11297e-05 -7.96863e-06 9.98727e-07
4.09177e-07 9.98727e-07 -6.61129e-05
0.000908274 -3.38434e-06 1.05603e-07
-3.38434e-06 3.70944e-05 8.14149e-07
1.05603e-07 8.14149e-07 -6.31348e-06
0.000851101 5.81453e-06 6.50685e-07
5.81453e-06 -6.18319e-07 1.60503e-06
6.50685e-07 1.60503e-06 -2.72657e-05
0.000858383 -4.80101e-06 -2.67083e-07
-4.80101e-06 2.90575e-06 1.04029e-08
-2.67083e-07 1.04029e-08 -2.31416e-05
0.00132993 -1.09348e-05 1.01257e-06
-1.09348e-05 0.000245277 1.8812e-06
1.01257e-06 1.8812e-06 0.000248791
0.000853288 -1.33994e-05 -2.43282e-07
-1.33994e-05 1.45593e-06 -1.76827e-06
-2.43282e-07 -1.76827e-06 -2.45988e-05
0.00134511 -1.54512e-05 -2.32512e-06
-1.54512e-05 0.000256 -1.18622e-06
-2.32512e-06 -1.18622e-06 0.000259209
0.00102279 -1.3847e-05 1.07911e-05
-1.3847e-05 8.63331e-05 6.22669e-06
1.07911e-05 6.22669e-06 0.000103412
0.00136017 -1.98644e-05 -5.74873e-06
-1.98644e-05 0.000267805 -4.33906e-06
-5.74873e-06 -4.33906e-06 0.000270193
0.000978298 -1.88155e-05 4.19271e-06
-1.88155e-05 6.68337e-05 2.36415e-06
4.19271e-06 2.36415e-06 8.31601e-05
0.000925345 -2.31799e-05 -2.33255e-06
-2.31799e-05 4.47452e-05 -1.63054e-06
-2.33255e-06 -1.63054e-06 5.93861e-05
0.000770971 2.21978e-05 1.28043e-06
2.21978e-05 -4.04854e-05 -3.26511e-06
1.28043e-06 -3.26511e-06 -4.396e-05
0.000774321 2.57502e-05 -1.56065e-07
2.57502e-05 -3.35104e-05 2.14e-08
-1.56065e-07 2.14e-08 -3.92968e-05
0.00221487 3.74991e-05 1.92717e-05
3.74991e-05 0.000733384 -3.72802e-06
1.92717e-05 -3.72802e-06 0.000752013
0.000783985 2.91764e-05 -2.46557e-06
2.91764e-05 -2.31565e-05 3.31738e-06
-2.46557e-06 3.31738e-06 -3.12436e-05
0.00227295 4.32773e-05 -1.01303e-06
4.32773e-05 0.000771113 -7.23654e-08
-1.01303e-06 -7.23654e-08 0.000787858
0.00233431 4.84093e-05 -2.80042e-05
4.84093e-05 0.00081116 3.5759e-06
-2.80042e-05 3.5759e-06 0.000825933
0.00158864 6.29944e-05 1.49839e-06
6.29944e-05 8.51416e-05 2.09531e-06
1.49839e-06 2.09531e-06 -1.02233e-05
0.00158919 1.89003e-05 2.4921e-07
1.89003e-05 5.24376e-05 -3.35339e-08
2.4921e-07 -3.35339e-08 -4.50051e-05
0.00156606 3.35562e-05 1.91845e-06
3.35562e-05 3.56799e-05 -1.10925e-06
1.91845e-06 -1.10925e-06 -5.34128e-05
0.00167045 1.50311e-06 6.36452e-07
1.50311e-06 7.74626e-05 -6.67018e-07
6.36452e-07 -6.67018e-07 -2.13549e-05
0.00178136 6.17013e-06 6.46611e-07
6.17013e-06 0.000129905 -1.7813e-06
6.46611e-07 -1.7813e-06 2.04599e-05
0.00171063 3.87378e-06 -1.01675e-06
3.87378e-06 9.3138e-05 -2.55192e-07
-1.01675e-06 -2.55192e-07 -2.07406e-05
0.00178585 1.44511e-05 -1.58735e-07
1.44511e-05 0.00011238 -5.62865e-09
-1.58735e-07 -5.62865e-09 -1.53617e-06
0.00174856 -8.58815e-07 4.23123e-07
-8.58815e-07 0.000101529 -7.37262e-07
4.23123e-07 -7.37262e-07 -3.70347e-06
0.00169398 1.45748e-05 3.72564e-07
1.45748e-05 8.54344e-05 -4.85776e-08
3.72564e-07 -4.85776e-08 -9.51693e-06
0.00166116 5.00027e-05 -9.58959e-09
5.00027e-05 8.33706e-05 -2.56684e-07
-9.58959e-09 -2.56684e-07 -5.4925e-06
0.00181945 8.09062e-06 -1.31752e-06
8.09062e-06 0.000125222 5.81155e-07
-1.31752e-06 5.81155e-07 1.54682e-05
0.00176968 -4.6122e-06 -6.22388e-07
-4.6122e-06 9.72834e-05 9.93335e-08
-6.22388e-07 9.93335e-08 1.00448e-06
0.00181579 3.15801e-05 2.96079e-07
3.15801e-05 0.000135547 8.12228e-07
2.96079e-07 8.12228e-07 4.37168e-05
0.0016709 6.94705e-06 -7.83811e-07
6.94705e-06 7.76698e-05 1.88722e-06
-7.83811e-07 1.88722e-06 -2.91498e-05
0.00176881 -6.23665e-06 -9.0834e-07
-6.23665e-06 0.000138069 7.9498e-08
-9.0834e-07 7.9498e-08 3.63128e-05
0.00188885 -4.7114e-05 -1.2121e-06
-4.7114e-05 0.000182241 8.12345e-07
-1.2121e-06 8.12345e-07 8.73412e-05
0.00110796 -9.05356e-05 -3.0501e-07
-9.05356e-05 0.00014916 -6.54793e-07
-3.0501e-07 -6.54793e-07 6.2097e-05
0.00118698 -9.94699e-05 2.79451e-07
-9.94699e-05 0.000188309 5.34484e-08
2.79451e-07 5.34484e-08 8.94558e-05
0.00113189 -0.000109512 -1.57919e-06
-0.000109512 0.000106393 1.63731e-06
-1.57919e-06 1.63731e-06 -2.16835e-05
0.00168104 -8.41677e-05 -3.07623e-07
-8.41677e-05 0.000125075 2.58218e-07
-3.07623e-07 2.58218e-07 3.21924e-05
0.00115142 -9.95867e-05 -2.74408e-06
-9.95867e-05 -7.47601e-05 -4.79218e-07
-2.74408e-06 -4.79218e-07 -0.00016255
0.00146222 -0.000119208 -2.14072e-06
-0.000119208 0.00017966 -3.1183e-06
-2.14072e-06 -3.1183e-06 6.40871e-05
0.00106902 -8.8794e-05 1.45769e-07
-8.8794e-05 0.000132949 -1.69262e-06
1.45769e-07 -1.69262e-06 4.4913e-05
0.000918781 -8.10314e-05 -1.5685e-06
-8.10314e-05 5.83493e-05 -2.16658e-06
-1.5685e-06 -2.16658e-06 -3.10086e-05
0.00104318 -7.06602e-05 2.15917e-07
-7.06602e-05 0.000131563 -7.20015e-08
2.15917e-07 -7.20015e-08 4.00619e-05
0.000602313 2.36349e-05 -9.46791e-07
2.36349e-05 -0.000124013 1.04612e-06
-9.46791e-07 1.04612e-06 -0.000158088
0.00105385 -1.86918e-05 -7.39039e-08
-1.86918e-05 0.000122873 2.10169e-07
-7.39039e-08 2.10169e-07 5.35266e-05
0.000766403 2.36705e-05 -7.63059e-08
2.36705e-05 -3.62661e-05 1.01005e-06
-7.63059e-08 1.01005e-06 -9.02394e-05
0.00177583 8.93516e-06 -3.19544e-08
8.93516e-06 0.000115769 -6.09945e-07
-3.19544e-08 -6.09945e-07 8.97507e-06
0.00171778 -8.9227e-06 6.88011e-07
-8.9227e-06 8.19891e-05 -2.27118e-07
6.88011e-07 -2.27118e-07 -1.86311e-05
0.00159425 -5.46482e-05 4.23301e-07
-5.46482e-05 1.7137e-05 -7.10243e-07
4.23301e-07 -7.10243e-07 -8.1801e-05
0.00104391 -8.96142e-05 -3.31306e-09
-8.96142e-05 0.000119051 5.90794e-07
-3.31306e-09 5.90794e-07 2.81623e-05
0.000810151 -8.88662e-05 -1.49431e-07
-8.88662e-05 -4.91937e-06 2.34267e-07
-1.49431e-07 2.34267e-07 -0.000120945
0.00158858 -0.000133717 -1.72508e-06
-0.000133717 0.000314645 1.25503e-06
-1.72508e-06 1.25503e-06 0.000175473
0.0017328 -0.00010152 -1.36721e-06
-0.00010152 0.000111681 1.06335e-06
-1.36721e-06 1.06335e-06 2.48197e-05
0.00145829 -0.000119816 1.39969e-06
-0.000119816 0.000100885 -7.34097e-07
1.39969e-06 -7.34097e-07 -9.13163e-06
0.000735882 1.84675e-05 1.47721e-07
1.84675e-05 -5.60712e-05 -5.69406e-07
1.47721e-07 -5.69406e-07 -8.72398e-05
0.000983426 1.12917e-05 -3.1703e-07
1.12917e-05 8.02777e-05 1.58196e-07
-3.1703e-07 1.58196e-07 2.97544e-05
0.0008901 -8.10929e-05 -8.11213e-07
-8.10929e-05 4.12084e-05 2.06507e-07
-8.11213e-07 2.06507e-07 -4.85911e-05
0.0010137 -8.60016e-05 8.79105e-07
-8.60016e-05 0.000107552 5.26537e-07
8.79105e-07 5.26537e-07 1.48419e-05
0.000955222 -3.25123e-05 -7.25628e-08
-3.25123e-05 7.77738e-05 -2.79676e-07
-7.25628e-08 -2.79676e-07 -4.63948e-06
0.00100473 -2.2545e-05 -5.23206e-07
-2.2545e-05 9.75546e-05 8.61069e-07
-5.23206e-07 8.61069e-07 3.09247e-05
0.00178187 1.17338e-05 -2.49449e-06
1.17338e-05 0.000103496 -3.81362e-07
-2.49449e-06 -3.81362e-07 1.60407e-06
0.00180081 -2.00961e-05 4.5031e-07
-2.00961e-05 0.000102786 1.28367e-06
4.5031e-07 1.28367e-06 2.81908e-06
0.00176348 -7.64442e-05 2.4289e-06
-7.64442e-05 6.19354e-05 -3.32734e-06
2.4289e-06 -3.32734e-06 -2.95312e-05
0.00189506 -0.000128286 1.09419e-06
-0.000128286 0.000188431 -7.33264e-07
1.09419e-06 -7.33264e-07 9.88872e-05
0.000748987 -7.82338e-05 -1.48978e-06
-7.82338e-05 -1.56952e-05 9.96333e-07
-1.48978e-06 9.96333e-07 -0.000113703
0.00140267 -0.000131525 -1.16617e-07
-0.000131525 0.000175216 3.28245e-06
-1.16617e-07 3.28245e-06 2.29716e-05
0.00158238 -0.000127285 5.20402e-07
-0.000127285 0.000378027 -2.41951e-06
5.20402e-07 -2.41951e-06 0.00024518
0.000856455 1.48325e-05 6.22119e-07
1.48325e-05 4.69135e-06 -1.63511e-06
6.22119e-07 -1.63511e-06 -2.34519e-05
0.000869838 -3.94315e-05 8.78948e-07
-3.94315e-05 2.58624e-05 -8.37282e-07
8.78948e-07 -8.37282e-07 -2.07687e-05
0.000754938 1.12857e-05 4.09086e-07
1.12857e-05 -3.7437e-05 -1.43505e-06
4.09086e-07 -1.43505e-06 -8.87586e-05
0.000967187 -2.65314e-05 7.88432e-07
-2.65314e-05 7.91334e-05 -3.94986e-08
7.88432e-07 -3.94986e-08 1.48735e-05
0.000967657 5.16091e-06 -1.77543e-07
5.16091e-06 8.01801e-05 -1.72574e-07
-1.77543e-07 -1.72574e-07 6.36821e-06
0.000880364 -8.29753e-05 2.0143e-06
-8.29753e-05 5.43769e-05 1.66799e-06
2.0143e-06 1.66799e-06 -4.35062e-05
0.000799057 -7.70712e-05 -1.56816e-06
-7.70712e-05 -2.14039e-05 2.21482e-06
-1.56816e-06 2.21482e-06 -0.00010641
0.00169042 -0.00011892 -1.09896e-06
-0.00011892 0.000469148 2.70084e-06
-1.09896e-06 2.70084e-06 0.00037346
0.000881556 -2.03281e-05 -4.40847e-07
-2.03281e-05 2.86603e-05 -1.20642e-06
-4.40847e-07 -1.20642e-06 -2.1555e-05
0.000918066 1.10766e-05 -4.42995e-07
1.10766e-05 5.34613e-05 -4.02875e-07
-4.42995e-07 -4.02875e-07 -1.55256e-05
0.00187648 8.76844e-05 5.88119e-07
8.76844e-05 0.00021578 6.32196e-07
5.88119e-07 6.32196e-07 0.00012886
0.000950549 2.42229e-05 -6.81946e-07
2.42229e-05 8.13799e-05 -6.61431e-07
-6.81946e-07 -6.61431e-07 -5.18188e-06
0.00105958 9.09459e-05 -9.81548e-07
9.09459e-05 0.00015462 -1.99699e-06
-9.81548e-07 -1.99699e-06 5.31014e-05
0.000866737 5.91282e-05 -1.93479e-06
5.91282e-05 4.64205e-05 -4.40945e-07
-1.93479e-06 -4.40945e-07 -5.33408e-05
0.00157411 0.000130008 -2.99643e-07
0.000130008 0.000232284 7.92499e-07
-2.99643e-07 7.92499e-07 0.000122577
0.00138907 0.000119666 1.4302e-06
0.000119666 7.19866e-05 4.45149e-06
1.4302e-06 4.45149e-06 -1.2954e-05
0.000911595 9.16273e-05 -4.21392e-07
9.16273e-05 6.26401e-05 3.80838e-07
-4.21392e-07 3.80838e-07 -5.98834e-05
0.0011435 0.000116232 -4.5028e-06
0.000116232 9.90454e-05 -8.53328e-07
-4.5028e-06 -8.53328e-07 -4.10039e-05
0.000823707 6.31118e-06 2.1791e-07
6.31118e-06 3.30325e-06 4.80061e-07
2.1791e-07 4.80061e-07 -6.1185e-05
0.000873129 4.15527e-05 -1.50764e-07
4.15527e-05 3.93546e-05 -7.27722e-07
-1.50764e-07 -7.27722e-07 -4.4655e-05
0.00108403 9.32583e-05 -4.94189e-07
9.32583e-05 0.000168347 -1.00636e-06
-4.94189e-07 -1.00636e-06 5.70066e-05
0.000890274 5.58209e-05 -2.62301e-07
5.58209e-05 5.39051e-05 -2.25973e-07
-2.62301e-07 -2.25973e-07 -4.77208e-05
0.00206335 5.70998e-05 -1.76173e-07
5.70998e-05 0.000243043 1.18242e-06
-1.76173e-07 1.18242e-06 0.000156462
0.00138823 0.000104074 1.60382e-06
0.000104074 -4.81446e-05 -1.37402e-06
1.60382e-06 -1.37402e-06 -0.000122243
0.00171216 0.000144377 -2.0013e-06
0.000144377 0.00029412 -1.68115e-07
-2.0013e-06 -1.68115e-07 0.000169957
0.000736981 9.28843e-05 8.79473e-07
9.28843e-05 -5.09446e-05 4.12871e-07
8.79473e-07 4.12871e-07 -0.000196733
0.000964466 9.80779e-06 4.09332e-07
9.80779e-06 8.0108e-05 5.06891e-07
4.09332e-07 5.06891e-07 7.78046e-06
0.00159195 2.33485e-05 -1.83263e-06
2.33485e-05 4.39366e-06 -1.2714e-06
-1.83263e-06 -1.2714e-06 -7.84655e-05
0.00112037 8.00461e-05 4.87016e-07
8.00461e-05 0.000181028 1.56619e-06
4.87016e-07 1.56619e-06 8.24202e-05
0.00108728 9.58003e-05 1.01653e-06
9.58003e-05 0.000152617 1.4264e-06
1.01653e-06 1.4264e-06 3.21947e-05
0.00225047 8.82748e-05 1.29612e-06
8.82748e-05 0.000271384 2.94144e-08
1.29612e-06 2.94144e-08 0.000201408
0.00158113 0.000142626 4.38506e-06
0.000142626 8.86454e-05 -4.05209e-06
4.38506e-06 -4.05209e-06 -1.96018e-05
0.00170756 0.000141902 1.13128e-06
0.000141902 0.000397721 1.75722e-06
1.13128e-06 1.75722e-06 0.000237759
0.000983283 1.31345e-06 -9.79535e-07
1.31345e-06 8.59943e-05 -4.2433e-07
-9.79535e-07 -4.2433e-07 2.66423e-05
0.000972132 -3.35832e-06 -2.49059e-08
-3.35832e-06 8.32453e-05 5.53664e-08
-2.49059e-08 5.53664e-08 1.53878e-05
0.00097205 2.89992e-06 4.53713e-07
2.89992e-06 8.74308e-05 9.84448e-07
4.53713e-07 9.84448e-07 1.15773e-05
0.000890395 -1.09154e-05 -1.16354e-07
-1.09154e-05 2.97734e-05 -8.95282e-07
-1.16354e-07 -8.95282e-07 -1.43248e-05
0.000887468 -4.0537e-06 8.01044e-08
-4.0537e-06 4.12176e-05 -1.48944e-07
8.01044e-08 -1.48944e-07 -1.72904e-05
0.000883318 8.12827e-06 -3.86948e-07
8.12827e-06 4.13641e-05 -1.16892e-06
-3.86948e-07 -1.16892e-06 -2.70195e-05
0.00089792 -1.80142e-05 -9.33102e-08
-1.80142e-05 3.30495e-05 2.31658e-08
-9.33102e-08 2.31658e-08 -1.12244e-05
0.000807824 -1.33041e-05 -4.28815e-07
-1.33041e-05 -2.31658e-06 3.81339e-07
-4.28815e-07 3.81339e-07 -5.95301e-05
0.000971957 -7.32149e-06 2.11777e-07
-7.32149e-06 8.64491e-05 -3.88793e-07
2.11777e-07 -3.88793e-07 1.39961e-05
0.000926705 3.38394e-06 7.0796e-08
3.38394e-06 6.56036e-05 4.63083e-07
7.0796e-08 4.63083e-07 -7.29294e-07
0.000972077 8.2049e-06 4.68984e-07
8.2049e-06 8.76156e-05 7.83905e-08
4.68984e-07 7.83905e-08 1.04915e-05
0.000856792 -2.45805e-05 9.26254e-08
-2.45805e-05 2.68182e-05 7.90862e-07
9.26254e-08 7.90862e-07 -4.49875e-05
0.000970854 1.09127e-05 3.00099e-07
1.09127e-05 8.63564e-05 2.55812e-07
3.00099e-07 2.55812e-07 2.26888e-05
0.000904991 8.06721e-06 9.17991e-07
8.06721e-06 4.89221e-05 5.99111e-07
9.17991e-07 5.99111e-07 -8.66374e-06
0.000904877 2.00085e-06 1.73818e-07
2.00085e-06 3.54514e-05 7.61351e-07
1.73818e-07 7.61351e-07 -8.47049e-06
0.000847858 9.3807e-06 3.85954e-07
9.3807e-06 -1.36131e-06 1.58427e-06
3.85954e-07 1.58427e-06 -2.86929e-05
0.000853902 -1.25028e-06 -1.63071e-07
-1.25028e-06 8.7155e-07 2.84688e-09
-1.63071e-07 2.84688e-09 -2.57878e-05
0.0013365 -5.35846e-06 7.58012e-07
-5.35846e-06 0.000247499 1.84189e-06
7.58012e-07 1.84189e-06 0.000250778
0.000858482 -1.16184e-05 -2.04431e-07
-1.16184e-05 3.07181e-06 -1.63454e-06
-2.04431e-07 -1.63454e-06 -2.30259e-05
0.00135329 -9.93185e-06 -1.70971e-06
-9.93185e-06 0.000257944 -1.20621e-06
-1.70971e-06 -1.20621e-06 0.00026129
0.00102947 -9.59644e-06 7.93734e-06
-9.59644e-06 8.73286e-05 6.29626e-06
7.93734e-06 6.29626e-06 0.000104584
0.00136654 -1.46491e-05 -4.24163e-06
-1.46491e-05 0.000267344 -4.27544e-06
-4.24163e-06 -4.27544e-06 0.000270462
0.000986739 -1.44525e-05 2.93382e-06
-1.44525e-05 6.68821e-05 2.37994e-06
2.93382e-06 2.37994e-06 8.40446e-05
0.000932151 -1.89455e-05 -1.72077e-06
-1.89455e-05 4.24354e-05 -1.5795e-06
-1.72077e-06 -1.5795e-06 5.88224e-05
0.000852663 1.10932e-05 3.45579e-07
1.10932e-05 2.43522e-07 -1.58912e-06
3.45579e-07 -1.58912e-06 -2.57531e-05
0.000782348 1.81397e-05 1.02221e-06
1.81397e-05 -3.95667e-05 -3.16987e-06
1.02221e-06 -3.16987e-06 -4.09482e-05
0.000786363 2.24526e-05 -1.26683e-07
2.24526e-05 -3.24806e-05 2.65924e-08
-1.26683e-07 2.65924e-08 -3.60458e-05
0.00216079 3.13432e-05 1.60381e-05
3.13432e-05 0.000699237 -3.77249e-06
1.60381e-05 -3.77249e-06 0.000719493
0.000790537 2.59743e-05 -2.04539e-06
2.59743e-05 -2.50616e-05 3.27146e-06
-2.04539e-06 3.27146e-06 -3.09306e-05
0.00222276 3.75459e-05 -1.22816e-06
3.75459e-05 0.000738375 -6.53943e-08
-1.22816e-06 -6.53943e-08 0.000756806
0.00227562 4.30592e-05 -2.45909e-05
4.30592e-05 0.000773392 3.68553e-06
-2.45909e-05 3.68553e-06 0.000789984
0.001455 4.49096e-05 6.51515e-07
4.49096e-05 -2.30563e-05 -3.28845e-07
6.51515e-07 -3.28845e-07 -0.000111681
0.00169863 1.47625e-05 6.28114e-07
1.47625e-05 8.82225e-05 -1.39807e-07
6.28114e-07 -1.39807e-07 -6.41006e-06
0.00176389 -1.12994e-06 8.89148e-07
-1.12994e-06 0.00010991 -1.84422e-06
8.89148e-07 -1.84422e-06 4.67269e-06
0.00176257 1.61979e-05 2.43493e-07
1.61979e-05 0.000106518 1.23488e-07
2.43493e-07 1.23488e-07 -5.76792e-06
0.00180625 8.6888e-06 7.34389e-08
8.6888e-06 0.000116835 5.43603e-07
7.34389e-08 5.43603e-07 6.82503e-06
0.00179227 -4.10599e-06 6.93115e-08
-4.10599e-06 0.000106967 -3.3852e-07
6.93115e-08 -3.3852e-07 1.03976e-05
0.00173093 3.18005e-05 3.73092e-07
3.18005e-05 9.29421e-05 4.503e-07
3.73092e-07 4.503e-07 9.92454e-07
0.00177955 4.78281e-07 -1.45268e-06
4.78281e-07 9.38653e-05 8.45776e-07
-1.45268e-06 8.45776e-07 -6.2315e-06
0.00184207 5.59626e-06 -2.17779e-06
5.59626e-06 0.000129934 -1.03297e-07
-2.17779e-06 -1.03297e-07 4.05759e-05
0.00173897 2.51745e-06 -8.08755e-07
2.51745e-06 5.59533e-05 1.38337e-07
-8.08755e-07 1.38337e-07 -2.07487e-05
0.00175107 9.35054e-06 7.77766e-07
9.35054e-06 0.000101144 6.67872e-07
7.77766e-07 6.67872e-07 -6.73205e-06
0.00174027 -1.08986e-05 -5.41215e-07
-1.08986e-05 9.38628e-05 -5.9541e-07
-5.41215e-07 -5.9541e-07 -7.14763e-06
0.0017947 -5.6812e-05 -1.88645e-06
-5.6812e-05 0.000114153 -2.10324e-07
-1.88645e-06 -2.10324e-07 1.48862e-05
0.00111131 -9.25061e-05 -7.08648e-08
-9.25061e-05 0.000152039 1.44615e-07
-7.08648e-08 1.44615e-07 6.07213e-05
0.000866197 -9.05174e-05 5.85453e-07
-9.05174e-05 2.87172e-05 2.71775e-06
5.85453e-07 2.71775e-06 -8.46614e-05
0.00161614 -0.000134305 -2.43385e-06
-0.000134305 0.000325199 2.53991e-06
-2.43385e-06 2.53991e-06 0.000186868
0.00176725 -0.000104041 2.46841e-06
-0.000104041 0.000137392 3.23971e-06
2.46841e-06 3.23971e-06 5.02798e-05
0.00127828 -0.000113779 -2.30177e-06
-0.000113779 6.54225e-06 -2.56657e-06
-2.30177e-06 -2.56657e-06 -0.000102784
0.000725447 -7.40106e-05 -1.10812e-06
-7.40106e-05 -4.339e-05 -1.06378e-06
-1.10812e-06 -1.06378e-06 -0.000132703
0.00108663 -8.81498e-05 1.84512e-06
-8.81498e-05 0.00014405 -2.77659e-06
1.84512e-06 -2.77659e-06 5.26444e-05
0.00091788 -1.55738e-06 -1.9518e-08
-1.55738e-06 5.39215e-05 -4.05615e-07
-1.9518e-08 -4.05615e-07 -2.5825e-05
0.000843078 1.81255e-05 -7.91083e-07
1.81255e-05 3.17613e-08 1.11283e-06
-7.91083e-07 1.11283e-06 -3.00962e-05
0.000971579 2.58627e-05 -5.86446e-07
2.58627e-05 7.41463e-05 9.6027e-07
-5.86446e-07 9.6027e-07 2.37475e-05
0.00094672 -1.222e-05 -6.11853e-07
-1.222e-05 6.75486e-05 1.13206e-06
-6.11853e-07 1.13206e-06 4.13027e-07
0.00183069 1.2292e-05 2.40316e-07
1.2292e-05 0.00012958 4.54418e-08
2.40316e-07 4.54418e-08 2.9015e-05
0.000855557 1.40773e-05 1.04283e-08
1.40773e-05 3.8469e-06 1.30602e-08
1.04283e-08 1.30602e-08 -2.42562e-05
0.000800621 -3.01765e-06 -3.49895e-07
-3.01765e-06 -1.35335e-05 6.40289e-08
-3.49895e-07 6.40289e-08 -5.8592e-05
0.0018242 -2.07532e-05 -7.42414e-08
-2.07532e-05 0.000113601 -6.27698e-07
-7.42414e-08 -6.27698e-07 1.29396e-05
0.00170319 -7.64207e-05 1.85818e-08
-7.64207e-05 3.73213e-05 -8.04558e-07
1.85818e-08 -8.04558e-07 -5.7101e-05
0.000787115 -7.93756e-05 1.48816e-07
-7.93756e-05 6.09299e-06 1.59522e-06
1.48816e-07 1.59522e-06 -9.03051e-05
0.00138786 -0.000118975 -8.01504e-07
-0.000118975 0.000278375 4.1478e-07
-8.01504e-07 4.1478e-07 0.000141575
0.00124537 -0.000123168 8.66373e-07
-0.000123168 8.93673e-05 1.0778e-06
8.66373e-07 1.0778e-06 -5.60698e-05
0.00178057 -0.000125991 4.51748e-07
-0.000125991 0.000135611 -6.82348e-08
4.51748e-07 -6.82348e-08 4.64982e-05
0.000935664 -9.72654e-06 9.35807e-07
-9.72654e-06 5.76641e-05 -4.79618e-07
9.35807e-07 -4.79618e-07 7.84345e-06
0.000946977 -1.41533e-05 -4.47847e-07
-1.41533e-05 6.97882e-05 4.33567e-07
-4.47847e-07 4.33567e-07 4.89893e-06
0.000929352 -8.27545e-05 3.36619e-07
-8.27545e-05 4.27304e-05 5.41174e-07
3.36619e-07 5.41174e-07 -4.43684e-05
0.00125587 -9.98844e-05 4.69457e-07
-9.98844e-05 0.000243381 -9.12061e-07
4.69457e-07 -9.12061e-07 0.000154192
0.000828368 -6.03284e-05 1.42891e-08
-6.03284e-05 2.5767e-05 2.85807e-07
1.42891e-08 2.85807e-07 -7.14662e-05
0.000959646 1.92083e-06 5.0703e-08
1.92083e-06 7.67435e-05 -2.32015e-07
5.0703e-08 -2.32015e-07 1.98966e-06
0.00170965 9.32243e-06 -2.84639e-06
9.32243e-06 4.81676e-05 -1.62597e-07
-2.84639e-06 -1.62597e-07 -3.74495e-05
0.00209367 -2.8848e-05 3.5412e-07
-2.8848e-05 0.000232242 2.18573e-06
3.5412e-07 2.18573e-06 0.000131251
0.00172624 -0.000111524 -2.89242e-06
-0.000111524 -9.47735e-06 -4.49817e-06
-2.89242e-06 -4.49817e-06 -8.3688e-05
0.00138649 -0.000135276 9.80923e-07
-0.000135276 2.82233e-05 1.76847e-06
9.80923e-07 1.76847e-06 -8.87757e-05
0.00113185 -8.58565e-05 -2.31906e-06
-8.58565e-05 0.000177632 -4.14727e-07
-2.31906e-06 -4.14727e-07 7.75786e-05
0.00178447 -0.000150658 -1.3416e-06
-0.000150658 0.000455901 -6.95321e-07
-1.3416e-06 -6.95321e-07 0.000288222
0.000718534 3.23989e-05 -9.0649e-07
3.23989e-05 -5.57674e-05 -1.23581e-06
-9.0649e-07 -1.23581e-06 -0.000100027
0.000868849 -1.65032e-05 5.87935e-07
-1.65032e-05 2.15549e-05 -9.60887e-07
5.87935e-07 -9.60887e-07 -2.48864e-05
0.00108223 -3.03909e-05 4.30947e-07
-3.03909e-05 0.000147174 -3.05291e-07
4.30947e-07 -3.05291e-07 8.8807e-05
0.000801003 1.88904e-05 -6.43608e-07
1.88904e-05 -2.42046e-06 -7.33767e-07
-6.43608e-07 -7.33767e-07 -6.89271e-05
0.00108364 -5.9852e-06 8.58481e-08
-5.9852e-06 0.000143693 1.07376e-08
8.58481e-08 1.07376e-08 7.23319e-05
0.000734685 -1.19376e-05 1.17643e-07
-1.19376e-05 -2.59145e-05 7.43633e-07
1.17643e-07 7.43633e-07 -0.000110826
0.00115133 -6.73649e-05 4.08815e-06
-6.73649e-05 0.000206587 3.71685e-07
4.08815e-06 3.71685e-07 0.000101165
0.000866266 -8.72503e-05 -4.81041e-06
-8.72503e-05 3.17402e-05 2.4153e-06
-4.81041e-06 2.4153e-06 -5.40008e-05
0.000821159 1.74126e-05 -3.75962e-07
1.74126e-05 3.56799e-06 -4.33241e-07
-3.75962e-07 -4.33241e-07 -6.26679e-05
0.000913144 4.34547e-05 -1.32982e-06
4.34547e-05 6.08668e-05 -1.68505e-06
-1.32982e-06 -1.68505e-06 -2.29358e-05
0.00192858 5.27495e-05 1.07395e-06
5.27495e-05 0.00017017 8.1462e-07
1.07395e-06 8.1462e-07 8.12477e-05
0.00149191 0.000105871 -4.26319e-07
0.000105871 1.69985e-05 7.74645e-07
-4.26319e-07 7.74645e-07 -5.80443e-05
0.00111286 6.10415e-05 -1.92343e-06
6.10415e-05 0.000168428 -9.95402e-07
-1.92343e-06 -9.95402e-07 6.71712e-05
0.00107051 9.25943e-05 -2.10046e-06
9.25943e-05 0.000162843 -2.23736e-06
-2.10046e-06 -2.23736e-06 5.2127e-05
0.00211926 0.000158558 -2.34898e-06
0.000158558 0.00049747 2.02817e-06
-2.34898e-06 2.02817e-06 0.000375739
0.00104584 0.00010878 -1.95313e-06
0.00010878 9.78693e-05 -9.70126e-07
-1.95313e-06 -9.70126e-07 -4.70509e-05
0.000949562 2.12094e-05 2.85243e-08
2.12094e-05 7.481e-05 -4.8833e-07
2.85243e-08 -4.8833e-07 1.13533e-06
0.00173829 2.24487e-05 -6.03896e-07
2.24487e-05 7.72034e-05 3.00604e-08
-6.03896e-07 3.00604e-08 -5.61852e-06
0.000996938 6.81544e-05 1.71956e-07
6.81544e-05 0.000115544 7.32363e-07
1.71956e-07 7.32363e-07 1.86208e-05
0.000912705 8.72815e-05 1.14736e-08
8.72815e-05 6.38686e-05 -1.7441e-07
1.14736e-08 -1.7441e-07 -5.79095e-05
0.00182257 8.07373e-05 1.2041e-06
8.07373e-05 6.22558e-05 -3.06836e-07
1.2041e-06 -3.06836e-07 -7.92468e-06
0.00188842 0.00015408 8.21891e-07
0.00015408 0.000236872 -4.98382e-07
8.21891e-07 -4.98382e-07 0.000129399
0.00167196 0.000141692 3.58592e-07
0.000141692 0.000385713 8.24712e-07
3.58592e-07 8.24712e-07 0.000227371
0.00101707 3.41945e-05 9.68592e-08
3.41945e-05 0.000118978 9.65587e-07
9.68592e-08 9.65587e-07 3.25136e-05
0.00233596 4.77119e-05 -2.02927e-06
4.77119e-05 0.000331096 -5.33936e-07
-2.02927e-06 -5.33936e-07 0.000264326
0.00150173 9.68432e-05 -8.33559e-07
9.68432e-05 0.000361808 3.93279e-07
-8.33559e-07 3.93279e-07 0.000255386
0.0018374 0.00013653 -1.50162e-06
0.00013653 0.000524694 1.55619e-06
-1.50162e-06 1.55619e-06 0.000384662
0.00204244 0.000154517 4.86731e-06
0.000154517 0.000138558 -1.93401e-06
4.86731e-06 -1.93401e-06 8.16568e-05
0.000964809 0.000121578 -1.52341e-07
0.000121578 -6.11613e-05 -3.87913e-07
-1.52341e-07 -3.87913e-07 -0.000211597
0.000723559 5.74724e-05 1.28641e-05
5.74724e-05 -0.000256767 1.51591e-06
1.28641e-05 1.51591e-06 -0.000334628
0.000979871 -2.91657e-06 -3.34616e-07
-2.91657e-06 8.71848e-05 -7.83457e-07
-3.34616e-07 -7.83457e-07 1.93028e-05
0.000970645 3.79051e-06 3.60878e-08
3.79051e-06 8.69574e-05 -3.65024e-08
3.60878e-08 -3.65024e-08 1.10009e-05
0.00100712 2.08363e-05 2.73447e-07
2.08363e-05 0.000104134 2.65325e-07
2.73447e-07 2.65325e-07 2.21486e-05
0.000886511 -2.51946e-05 5.12618e-08
-2.51946e-05 2.79108e-05 -8.21211e-07
5.12618e-08 -8.21211e-07 -1.68882e-05
0.000811621 -3.84209e-05 -3.76118e-07
-3.84209e-05 2.6824e-08 -2.44058e-07
-3.76118e-07 -2.44058e-07 -5.74298e-05
0.00102665 3.94182e-05 -7.76576e-07
3.94182e-05 0.0001207 -1.41382e-07
-7.76576e-07 -1.41382e-07 5.33663e-05
0.000943661 -9.79703e-06 -5.34819e-08
-9.79703e-06 7.10498e-05 -1.1215e-06
-5.34819e-08 -1.1215e-06 -2.3734e-06
0.000888196 -1.58724e-05 -2.20242e-07
-1.58724e-05 2.93786e-05 3.55626e-08
-2.20242e-07 3.55626e-08 -1.63185e-05
0.000838225 -2.52504e-06 1.8684e-07
-2.52504e-06 1.06046e-05 1.90747e-08
1.8684e-07 1.90747e-08 -4.53252e-05
0.000946652 4.55112e-06 2.01528e-07
4.55112e-06 7.39943e-05 -5.88696e-07
2.01528e-07 -5.88696e-07 -3.26218e-06
0.0009701 -1.03778e-05 -2.25967e-07
-1.03778e-05 8.56573e-05 -1.68422e-07
-2.25967e-07 -1.68422e-07 2.18331e-05
0.000946009 -1.81957e-05 1.8405e-07
-1.81957e-05 7.38875e-05 -1.45129e-08
1.8405e-07 -1.45129e-08 2.71828e-06
0.000942581 -6.97769e-07 -8.61282e-08
-6.97769e-07 7.05248e-05 4.76696e-07
-8.61282e-08 4.76696e-07 -6.11207e-06
0.000956328 3.057e-06 4.28326e-07
3.057e-06 8.02233e-05 1.2384e-08
4.28326e-07 1.2384e-08 1.32044e-05
0.00101274 9.07033e-06 5.3561e-07
9.07033e-06 0.000103088 -1.38481e-07
5.3561e-07 -1.38481e-07 4.11179e-05
0.000825335 6.49858e-06 -2.23624e-07
6.49858e-06 3.18241e-06 6.26023e-07
-2.23624e-07 6.26023e-07 -5.55074e-05
0.000760054 7.16737e-06 3.49331e-07
7.16737e-06 -4.09062e-05 1.24e-06
3.49331e-07 1.24e-06 -8.66944e-05
0.00104296 -4.85792e-06 2.70826e-07
-4.85792e-06 0.000123943 5.43328e-08
2.70826e-07 5.43328e-08 6.41283e-05
0.000752286 4.93267e-06 -4.17636e-07
4.93267e-06 -4.28857e-05 1.20375e-06
-4.17636e-07 1.20375e-06 -8.93195e-05
0.000849995 1.19219e-05 2.36794e-07
1.19219e-05 3.28034e-07 1.58813e-06
2.36794e-07 1.58813e-06 -2.73589e-05
0.000848212 1.59475e-06 -2.36178e-07
1.59475e-06 -1.19167e-06 3.6928e-09
-2.36178e-07 3.6928e-09 -2.84937e-05
0.000797626 4.88706e-07 2.32637e-07
4.88706e-07 -3.89845e-05 3.05883e-06
2.32637e-07 3.05883e-06 -3.90146e-05
0.000857065 -8.53763e-06 9.04494e-08
-8.53763e-06 2.56599e-06 -1.57832e-06
9.04494e-08 -1.57832e-06 -2.41089e-05
0.00108093 -4.25202e-06 -1.06017e-06
-4.25202e-06 0.000111836 -1.24617e-06
-1.06017e-06 -1.24617e-06 0.00011353
0.0021187 -6.63861e-06 4.83772e-06
-6.63861e-06 0.000664665 3.95945e-06
4.83772e-06 3.95945e-06 0.000687775
0.00137562 -9.29007e-06 -2.66798e-06
-9.29007e-06 0.000270027 -4.25791e-06
-2.66798e-06 -4.25791e-06 0.000273184
0.000995927 -9.87853e-06 1.59613e-06
-9.87853e-06 6.88461e-05 2.41418e-06
1.59613e-06 2.41418e-06 8.62993e-05
0.000947301 -1.42987e-05 -1.23389e-06
-1.42987e-05 4.57061e-05 -1.55088e-06
-1.23389e-06 -1.55088e-06 6.30467e-05
0.000860741 7.44145e-06 2.57044e-07
7.44145e-06 3.0551e-06 -1.5768e-06
2.57044e-07 -1.5768e-06 -2.13533e-05
0.000858052 1.05246e-05 -3.61307e-08
1.05246e-05 2.79698e-06 1.03476e-08
-3.61307e-08 1.03476e-08 -2.32102e-05
0.000790923 1.38017e-05 5.94738e-07
1.38017e-05 -3.91223e-05 -3.12393e-06
5.94738e-07 -3.12393e-06 -3.88435e-05
0.00107534 2.01797e-05 -4.75329e-07
2.01797e-05 0.000116077 3.24743e-08
-4.75329e-07 3.24743e-08 0.000116004
0.00211898 2.49644e-05 1.31309e-05
2.49644e-05 0.000672345 -3.83323e-06
1.31309e-05 -3.83323e-06 0.000693981
0.000801671 2.27161e-05 -1.52322e-06
2.27161e-05 -2.45073e-05 3.24624e-06
-1.52322e-06 3.24624e-06 -2.81635e-05
0.00216806 3.15441e-05 -1.29958e-06
3.15441e-05 0.000703823 -5.78764e-08
-1.29958e-06 -5.78764e-08 0.000723872
0.00223124 3.75241e-05 -2.13204e-05
3.75241e-05 0.000743664 3.76658e-06
-2.13204e-05 3.76658e-06 0.000761906
0.00163149 3.20507e-05 -2.52778e-07
3.20507e-05 4.30174e-05 5.61907e-07
-2.52778e-07 5.61907e-07 -4.90621e-05
0.00180919 -2.75932e-06 1.02756e-06
-2.75932e-06 0.000113807 -8.79875e-07
1.02756e-06 -8.79875e-07 1.69395e-05
0.00177265 5.31307e-06 8.94581e-07
5.31307e-06 9.86041e-05 4.99169e-07
8.94581e-07 4.99169e-07 -1.17738e-05
0.00180101 3.81335e-06 2.97895e-07
3.81335e-06 0.000103724 5.66625e-07
2.97895e-07 5.66625e-07 3.58784e-06
0.00178224 5.69042e-06 -2.01649e-07
5.69042e-06 9.88481e-05 -6.71491e-08
-2.01649e-07 -6.71491e-08 8.92344e-06
0.00178008 -1.49165e-07 1.51574e-06
-1.49165e-07 9.01893e-05 -6.64849e-09
1.51574e-06 -6.64849e-09 1.46674e-05
0.00171218 8.41805e-06 -1.8206e-06
8.41805e-06 4.5851e-05 -1.05237e-07
-1.8206e-06 -1.05237e-07 -3.62007e-05
0.0037793 -7.56701e-05 3.51264e-06
-7.56701e-05 0.00101962 -2.18012e-06
3.51264e-06 -2.18012e-06 0.000970619
0.00141078 6.7383e-07 -6.09898e-07
6.7383e-07 -0.000147835 -5.26549e-08
-6.09898e-07 -5.26549e-08 -0.000212429
0.000891898 1.57493e-05 1.27207e-07
1.57493e-05 3.2468e-05 -7.19975e-07
1.27207e-07 -7.19975e-07 -8.25501e-06
0.00185106 1.26968e-05 1.61942e-06
1.26968e-05 0.00014124 -2.82305e-07
1.61942e-06 -2.82305e-07 4.19952e-05
0.00182079 -2.14298e-05 -1.13984e-06
-2.14298e-05 0.000109933 -1.60505e-06
-1.13984e-06 -1.60505e-06 8.7194e-06
0.00165047 -7.61365e-05 1.60397e-06
-7.61365e-05 1.61346e-05 1.35999e-06
1.60397e-06 1.35999e-06 -8.06121e-05
0.000865287 -8.21784e-05 1.55868e-06
-8.21784e-05 4.8686e-05 7.04754e-07
1.55868e-06 7.04754e-07 -4.62679e-05
0.00119181 -0.000110476 3.07036e-07
-0.000110476 0.000179423 2.86321e-06
3.07036e-07 2.86321e-06 3.65364e-05
0.00114652 -0.000117776 1.01179e-06
-0.000117776 3.56104e-05 -9.80055e-07
1.01179e-06 -9.80055e-07 -0.000105069
0.00174449 -0.000125878 -8.30902e-07
-0.000125878 0.000122582 -1.13979e-06
-8.30902e-07 -1.13979e-06 3.35906e-05
0.0010707 -8.89338e-05 3.16625e-06
-8.89338e-05 0.000113074 -2.92285e-06
3.16625e-06 -2.92285e-06 2.3777e-05
0.000757607 -7.83244e-05 -2.58312e-06
-7.83244e-05 -1.50224e-05 -6.58103e-06
-2.58312e-06 -6.58103e-06 -9.75325e-05
0.000737787 -5.63576e-05 3.6691e-07
-5.63576e-05 -2.01495e-05 3.62459e-07
3.6691e-07 3.62459e-07 -0.000118235
0.00085712 1.35143e-05 -7.44347e-07
1.35143e-05 4.38474e-06 1.68736e-06
-7.44347e-07 1.68736e-06 -2.37033e-05
0.000953651 -7.64457e-06 -3.7838e-08
-7.64457e-06 7.40296e-05 -5.67282e-07
-3.7838e-08 -5.67282e-07 -1.59504e-06
0.00111841 -3.32901e-05 -4.50804e-07
-3.32901e-05 0.00015567 4.92318e-07
-4.50804e-07 4.92318e-07 0.000106101
0.000932038 -2.16569e-06 -4.26503e-07
-2.16569e-06 6.28067e-05 9.92075e-07
-4.26503e-07 9.92075e-07 -2.50856e-06
0.000726224 6.54992e-06 1.7513e-07
6.54992e-06 -5.50757e-05 7.92061e-07
1.7513e-07 7.92061e-07 -9.89419e-05
0.001757 8.51661e-06 -5.13981e-07
8.51661e-06 7.5479e-05 -1.50956e-07
-5.13981e-07 -1.50956e-07 -9.8333e-06
0.000804943 1.14641e-05 2.26601e-07
1.14641e-05 -1.06402e-05 -4.8637e-07
2.26601e-07 -4.8637e-07 -5.4341e-05
0.000876809 -2.23411e-05 -4.09381e-07
-2.23411e-05 2.75372e-05 2.40529e-08
-4.09381e-07 2.40529e-08 -2.03512e-05
0.000918809 -1.08047e-05 -7.38777e-07
-1.08047e-05 6.15109e-05 4.68383e-07
-7.38777e-07 4.68383e-07 1.79323e-06
0.00187242 -2.87746e-05 1.52718e-06
-2.87746e-05 0.000112868 1.94784e-07
1.52718e-06 1.94784e-07 1.30668e-05
0.00199144 -0.000117706 -1.69792e-06
-0.000117706 0.000136021 -2.51272e-07
-1.69792e-06 -2.51272e-07 5.87176e-05
0.000917868 -8.08375e-05 -7.19366e-07
-8.08375e-05 5.74765e-05 4.30057e-07
-7.19366e-07 4.30057e-07 -3.98676e-05
0.00110898 -0.000119032 2.59852e-07
-0.000119032 0.000125925 -7.25629e-07
2.59852e-07 -7.25629e-07 -4.58197e-05
0.00146289 -0.000140822 5.32458e-07
-0.000140822 6.68143e-05 6.75459e-07
5.32458e-07 6.75459e-07 -5.12222e-05
0.00090295 9.95391e-06 -1.75504e-07
9.95391e-06 5.11049e-05 4.29777e-08
-1.75504e-07 4.29777e-08 -1.46317e-05
0.000999585 -1.94837e-05 -1.66805e-07
-1.94837e-05 0.000103135 1.6069e-08
-1.66805e-07 1.6069e-08 2.95847e-05
0.000791248 -8.43009e-05 -3.44042e-06
-8.43009e-05 -4.20691e-06 7.37299e-07
-3.44042e-06 7.37299e-07 -9.29365e-05
0.0010721 -5.16945e-05 4.63859e-07
-5.16945e-05 0.000164042 -4.6891e-07
4.63859e-07 -4.6891e-07 6.1128e-05
0.000897799 -2.59571e-05 2.31554e-07
-2.59571e-05 5.9072e-05 6.84435e-07
2.31554e-07 6.84435e-07 -2.59558e-05
0.00193854 -3.76647e-06 -2.38688e-06
-3.76647e-06 0.000145837 6.18102e-07
-2.38688e-06 6.18102e-07 6.40873e-05
0.00238362 -6.60657e-05 -1.08291e-06
-6.60657e-05 0.000309732 -4.84082e-07
-1.08291e-06 -4.84082e-07 0.000229508
0.00161674 -0.000148647 3.25802e-06
-0.000148647 -1.80904e-05 -2.985e-06
3.25802e-06 -2.985e-06 -0.000111957
0.00162663 -0.000150429 -4.5791e-06
-0.000150429 0.000297421 7.71354e-08
-4.5791e-06 7.71354e-08 0.000150498
0.00104753 -9.49105e-05 -3.38643e-07
-9.49105e-05 0.000150536 -1.38264e-06
-3.38643e-07 -1.38264e-06 2.15854e-05
0.000736125 1.02322e-05 7.65672e-08
1.02322e-05 -3.52857e-05 -6.6855e-07
7.65672e-08 -6.6855e-07 -9.39983e-05
0.00084168 3.27493e-05 2.00421e-08
3.27493e-05 2.20074e-05 -8.44995e-07
2.00421e-08 -8.44995e-07 -4.19459e-05
0.00108583 1.24379e-05 4.64606e-07
1.24379e-05 0.000148499 4.43928e-07
4.64606e-07 4.43928e-07 8.11647e-05
0.000934475 -3.79275e-05 9.17175e-07
-3.79275e-05 7.33843e-05 -2.30544e-07
9.17175e-07 -2.30544e-07 -6.0449e-08
0.00106978 4.57856e-06 5.16594e-07
4.57856e-06 0.000138973 7.89653e-07
5.16594e-07 7.89653e-07 6.2652e-05
0.000865064 -1.73277e-05 -8.85105e-07
-1.73277e-05 5.0537e-05 -7.39207e-07
-8.85105e-07 -7.39207e-07 -3.98426e-05
0.000822763 -6.05879e-05 5.68493e-06
-6.05879e-05 5.4439e-05 1.39785e-06
5.68493e-06 1.39785e-06 -6.73114e-05
0.000933648 3.38899e-05 -5.99816e-07
3.38899e-05 6.91589e-05 -1.57469e-06
-5.99816e-07 -1.57469e-06 -5.92086e-06
0.000879998 5.75894e-05 -2.37209e-07
5.75894e-05 5.36703e-05 -3.6493e-07
-2.37209e-07 -3.6493e-07 -4.17224e-05
0.00188466 2.09958e-05 1.80607e-06
2.09958e-05 0.000149847 4.57306e-07
1.80607e-06 4.57306e-07 6.70943e-05
0.00142774 7.39623e-05 7.99066e-07
7.39623e-05 -0.000130915 -5.81263e-07
7.99066e-07 -5.81263e-07 -0.000200931
0.00219355 0.000165216 -1.5563e-06
0.000165216 0.00038258 1.46468e-06
-1.5563e-06 1.46468e-06 0.000276043
0.000737883 7.89495e-05 -4.28236e-07
7.89495e-05 -2.51526e-05 -9.7576e-07
-4.28236e-07 -9.7576e-07 -0.000148276
0.00160379 0.000140007 -1.03424e-06
0.000140007 0.00035627 6.43112e-07
-1.03424e-06 6.43112e-07 0.000200545
0.00102139 2.70926e-05 -4.18989e-08
2.70926e-05 0.000120544 6.23674e-08
-4.18989e-08 6.23674e-08 3.62455e-05
0.00176651 4.19032e-05 -1.71146e-06
4.19032e-05 2.4739e-05 -3.94306e-07
-1.71146e-06 -3.94306e-07 -3.6996e-05
0.00120082 8.65357e-05 -6.17713e-07
8.65357e-05 0.000212116 9.77301e-08
-6.17713e-07 9.77301e-08 0.000106734
0.00133862 0.00011228 -6.75275e-07
0.00011228 0.000279628 8.43287e-07
-6.75275e-07 8.43287e-07 0.00014065
0.00191254 0.000142434 1.27901e-06
0.000142434 7.193e-05 -8.09681e-07
1.27901e-06 -8.09681e-07 1.51177e-05
0.00128526 0.000135842 -1.00231e-06
0.000135842 0.00010768 1.37661e-06
-1.00231e-06 1.37661e-06 -4.85639e-05
0.00177927 4.58017e-05 2.37935e-06
4.58017e-05 0.000102184 -6.02186e-07
2.37935e-06 -6.02186e-07 2.44654e-05
0.00106223 4.66454e-05 -3.2519e-07
4.66454e-05 0.000139498 -2.72804e-07
-3.2519e-07 -2.72804e-07 4.69629e-05
0.00216752 0.00010555 -1.25619e-06
0.00010555 0.000167577 -6.39482e-06
-1.25619e-06 -6.39482e-06 0.000163018
0.00127183 0.000103938 -1.43809e-06
0.000103938 0.000260712 -3.95723e-07
-1.43809e-06 -3.95723e-07 0.000150567
0.00104757 0.000105713 -1.89028e-06
0.000105713 0.000143941 -3.37641e-07
-1.89028e-06 -3.37641e-07 -2.46374e-05
0.000305164 0.000141567 -1.15032e-06
0.000141567 -0.000527834 -2.26945e-06
-1.15032e-06 -2.26945e-06 -0.000652069
0.00635135 -9.17029e-05 -3.29506e-05
-9.17029e-05 0.00204674 -9.35732e-06
-3.29506e-05 -9.35732e-06 0.00145191
0.00247209 -1.92714e-05 7.06443e-05
-1.92714e-05 -5.51378e-05 2.82597e-06
7.06443e-05 2.82597e-06 -0.000453556
0.0010849 0.000148381 1.26802e-05
0.000148381 -0.000201562 1.12693e-05
1.26802e-05 1.12693e-05 -0.000183348
-0.00228358 -0.000267246 -1.94649e-05
-0.000267246 -0.00111104 -1.56327e-05
-1.94649e-05 -1.56327e-05 -0.00103996
0.00246794 -0.00038974 -2.18924e-05
-0.00038974 0.000200856 -4.19202e-06
-2.18924e-05 -4.19202e-06 0.00110568
0.000973357 4.15388e-06 -3.82736e-07
4.15388e-06 8.85597e-05 -1.06088e-06
-3.82736e-07 -1.06088e-06 1.25045e-05
0.001001 1.43695e-05 1.61973e-07
1.43695e-05 0.00010199 -2.60261e-07
1.61973e-07 -2.60261e-07 2.09343e-05
0.00106079 3.96532e-05 -1.98453e-08
3.96532e-05 0.000129515 2.33791e-07
-1.98453e-08 2.33791e-07 4.71696e-05
0.000873701 -3.60362e-05 2.64745e-07
-3.60362e-05 2.42797e-05 -9.03883e-07
2.64745e-07 -9.03883e-07 -2.30851e-05
0.000774307 1.70226e-05 -3.97036e-07
1.70226e-05 -2.24845e-05 -5.80544e-07
-3.97036e-07 -5.80544e-07 -7.92803e-05
0.000967471 -3.30665e-05 -7.36272e-08
-3.30665e-05 8.30925e-05 -5.8007e-07
-7.36272e-08 -5.8007e-07 1.9724e-05
0.00102786 -1.05628e-05 -3.13862e-07
-1.05628e-05 0.000117071 -4.7728e-07
-3.13862e-07 -4.7728e-07 4.67313e-05
0.000916455 -3.02184e-07 1.91252e-07
-3.02184e-07 5.78186e-05 -1.48342e-06
1.91252e-07 -1.48342e-06 -1.95846e-05
0.00094344 1.68655e-05 -4.69252e-07
1.68655e-05 6.82111e-05 -3.40339e-07
-4.69252e-07 -3.40339e-07 4.6988e-06
0.00082006 3.5513e-06 9.54629e-08
3.5513e-06 -6.22395e-06 4.57436e-07
9.54629e-08 4.57436e-07 -5.30843e-05
0.000877043 6.6003e-06 -2.41246e-07
6.6003e-06 3.05977e-05 -3.66598e-08
-2.41246e-07 -3.66598e-08 -2.77627e-05
0.000938605 2.98038e-07 -3.37342e-08
2.98038e-07 6.91504e-05 1.70091e-07
-3.37342e-08 1.70091e-07 -7.22993e-06
0.000951293 -1.09437e-06 9.08119e-08
-1.09437e-06 7.66167e-05 -8.94871e-08
9.08119e-08 -8.94871e-08 9.56065e-06
0.000887828 1.598e-05 5.27907e-07
1.598e-05 4.20474e-05 -1.71205e-07
5.27907e-07 -1.71205e-07 -2.40352e-05
0.000994051 1.69914e-05 5.28463e-07
1.69914e-05 9.72522e-05 2.97467e-07
5.28463e-07 2.97467e-07 2.61122e-05
0.000851089 6.02429e-06 6.28512e-07
6.02429e-06 1.35778e-05 5.92182e-07
6.28512e-07 5.92182e-07 -4.94057e-05
0.000834745 1.293e-06 7.54461e-07
1.293e-06 4.85853e-06 3.1081e-07
7.54461e-07 3.1081e-07 -5.4347e-05
0.000732191 -3.20408e-05 -1.25863e-06
-3.20408e-05 -5.20365e-05 1.31481e-06
-1.25863e-06 1.31481e-06 -9.97138e-05
0.000956309 7.27548e-06 -2.60751e-07
7.27548e-06 7.22846e-05 3.71676e-07
-2.60751e-07 3.71676e-07 1.33528e-05
0.00102637 6.46312e-05 9.45694e-08
6.46312e-05 0.000113642 1.9947e-07
9.45694e-08 1.9947e-07 4.84893e-05
0.000890961 3.36643e-06 -5.04156e-07
3.36643e-06 4.33658e-05 4.56009e-07
-5.04156e-07 4.56009e-07 -1.53199e-05
0.000952285 9.70271e-06 4.28648e-07
9.70271e-06 7.23436e-05 -3.40317e-07
4.28648e-07 -3.40317e-07 1.4288e-05
0.000886157 -2.10258e-05 -1.15906e-06
-2.10258e-05 2.85398e-05 8.05855e-07
-1.15906e-06 8.05855e-07 -1.71964e-05
0.000760604 4.55998e-06 1.16318e-07
4.55998e-06 -3.6253e-05 3.72316e-07
1.16318e-07 3.72316e-07 -8.42177e-05
0.00085336 1.2483e-05 -8.49033e-08
1.2483e-05 2.1625e-06 1.649e-06
-8.49033e-08 1.649e-06 -2.56208e-05
0.000846807 3.94689e-06 -1.74374e-07
3.94689e-06 -1.48992e-06 4.12217e-10
-1.74374e-07 4.12217e-10 -2.90897e-05
0.000811412 4.65852e-06 -2.89462e-07
4.65852e-06 -3.0678e-05 4.32379e-06
-2.89462e-07 4.32379e-06 -3.1144e-05
0.000848172 -6.42994e-06 2.9549e-07
-6.42994e-06 -1.22943e-06 -1.56135e-06
2.9549e-07 -1.56135e-06 -2.84905e-05
0.000800274 5.14123e-07 1.3958e-07
5.14123e-07 -3.75926e-05 -3.17963e-09
1.3958e-07 -3.17963e-09 -3.76426e-05
0.00213018 -9.63941e-07 1.3617e-07
-9.63941e-07 0.000670333 3.99855e-06
1.3617e-07 3.99855e-06 0.000693377
0.000816988 -3.57482e-06 -5.39788e-07
-3.57482e-06 -2.81735e-05 -4.29758e-06
-5.39788e-07 -4.29758e-06 -2.80836e-05
0.00155772 -5.64545e-06 -2.45276e-07
-5.64545e-06 0.000366191 2.2567e-08
-2.45276e-07 2.2567e-08 0.000386456
0.000959382 -9.41889e-06 -7.53187e-07
-9.41889e-06 4.88613e-05 -1.52526e-06
-7.53187e-07 -1.52526e-06 6.65759e-05
0.000863717 3.42483e-06 2.21676e-08
3.42483e-06 3.58976e-06 -1.62837e-06
2.21676e-08 -1.62837e-06 -1.9637e-05
0.000859257 6.82714e-06 2.92181e-08
6.82714e-06 2.01622e-06 1.28618e-09
2.92181e-08 1.28618e-09 -2.23488e-05
0.000797452 9.2762e-06 3.60764e-07
9.2762e-06 -3.8447e-05 -3.08903e-06
3.60764e-07 -3.08903e-06 -3.68514e-05
0.000860959 9.97421e-06 -5.56322e-07
9.97421e-06 4.02599e-06 1.6395e-06
-5.56322e-07 1.6395e-06 -2.19797e-05
0.00106673 1.52175e-05 -2.30237e-07
1.52175e-05 0.00010729 -6.10727e-07
-2.30237e-07 -6.10727e-07 0.000108975
0.00208989 1.86793e-05 9.74103e-06
1.86793e-05 0.000653178 -3.88182e-06
9.74103e-06 -3.88182e-06 0.000675874
0.000800617 1.8641e-05 -1.11882e-06
1.8641e-05 -2.97937e-05 3.19005e-06
-1.11882e-06 3.19005e-06 -3.14429e-05
0.00214769 2.4581e-05 -5.35816e-06
2.4581e-05 0.000688619 1.09725e-06
-5.35816e-06 1.09725e-06 0.000709984
0.00217823 3.16789e-05 -1.78039e-05
3.16789e-05 0.000709946 3.83566e-06
-1.78039e-05 3.83566e-06 0.000729781
0.00172199 6.06193e-06 1.29935e-06
6.06193e-06 6.75677e-05 2.9822e-07
1.29935e-06 2.9822e-07 -2.29195e-05
0.0018219 6.19836e-06 1.49584e-06
6.19836e-06 0.000113371 3.06385e-07
1.49584e-06 3.06385e-07 1.31854e-05
0.00181132 -1.8307e-06 4.18336e-06
-1.8307e-06 0.000119265 -3.01817e-07
4.18336e-06 -3.01817e-07 4.49252e-05
0.00164896 -3.6477e-05 2.02899e-06
-3.6477e-05 -5.17092e-05 9.92599e-07
2.02899e-06 9.92599e-07 -0.000106386
0.00180419 7.27782e-06 -3.73215e-07
7.27782e-06 9.06724e-05 2.85297e-07
-3.73215e-07 2.85297e-07 9.42046e-06
0.0017565 6.70022e-06 9.48846e-07
6.70022e-06 4.00002e-05 -1.56685e-07
9.48846e-07 -1.56685e-07 -2.76722e-05
0.00210623 2.25019e-05 3.62973e-07
2.25019e-05 0.000197765 1.30184e-06
3.62973e-07 1.30184e-06 0.000112066
0.00319868 -0.000149081 0.000138124
-0.000149081 0.000607821 2.23711e-05
0.000138124 2.23711e-05 0.000379062
0.00115624 -4.78258e-05 -4.27854e-06
-4.78258e-05 -0.000282794 5.14966e-07
-4.27854e-06 5.14966e-07 -0.000348539
0.000893736 1.81104e-05 -6.20318e-07
1.81104e-05 3.42625e-05 -7.73724e-07
-6.20318e-07 -7.73724e-07 -6.6149e-06
0.000889637 -1.39187e-05 5.67631e-07
-1.39187e-05 3.32013e-05 -3.43755e-08
5.67631e-07 -3.43755e-08 -8.89419e-06
0.000893956 -3.1446e-05 -2.07987e-07
-3.1446e-05 4.39087e-05 3.69316e-08
-2.07987e-07 3.69316e-08 -9.32285e-06
0.000894246 -2.69107e-05 -8.26971e-07
-2.69107e-05 5.3227e-05 8.81339e-08
-8.26971e-07 8.81339e-08 -3.80445e-06
0.00179792 7.50204e-06 3.15673e-06
7.50204e-06 9.9835e-05 -9.36662e-07
3.15673e-06 -9.36662e-07 1.47799e-05
0.00175982 -2.95421e-05 2.81017e-06
-2.95421e-05 5.05561e-05 -5.89902e-07
2.81017e-06 -5.89902e-07 -4.84526e-05
0.00226393 -0.000124478 -3.41974e-06
-0.000124478 0.000282647 1.58046e-06
-3.41974e-06 1.58046e-06 0.000201541
0.000719014 -7.6032e-05 1.89304e-06
-7.6032e-05 -5.53271e-05 2.37098e-06
1.89304e-06 2.37098e-06 -0.000148965
0.000474425 -8.91623e-05 2.86326e-06
-8.91623e-05 -0.000187622 -8.77101e-07
2.86326e-06 -8.77101e-07 -0.000358841
0.0015857 -0.00014818 3.23228e-07
-0.00014818 0.00012898 -7.68076e-07
3.23228e-07 -7.68076e-07 1.12229e-05
0.000751681 -8.26566e-05 -5.26011e-06
-8.26566e-05 -2.20785e-05 9.16761e-08
-5.26011e-06 9.16761e-08 -0.000113922
0.00103254 -3.83727e-05 -5.59046e-07
-3.83727e-05 0.00014192 -6.33618e-07
-5.59046e-07 -6.33618e-07 4.11768e-05
0.00106627 -4.12828e-05 -7.17709e-07
-4.12828e-05 0.000147022 7.2465e-07
-7.17709e-07 7.2465e-07 6.18168e-05
0.000887935 -2.27639e-06 -9.70469e-07
-2.27639e-06 3.32297e-05 9.95931e-07
-9.70469e-07 9.95931e-07 -1.4838e-05
0.000917614 -3.34843e-05 -2.15042e-07
-3.34843e-05 6.3624e-05 2.50835e-08
-2.15042e-07 2.50835e-08 -1.20757e-05
0.000995258 7.98038e-06 -6.90561e-07
7.98038e-06 9.80688e-05 6.63449e-07
-6.90561e-07 6.63449e-07 3.42186e-05
0.000892375 -4.01799e-06 -1.49719e-08
-4.01799e-06 3.58136e-05 2.94841e-07
-1.49719e-08 2.94841e-07 -7.82443e-06
0.0007524 1.69805e-05 1.73432e-07
1.69805e-05 -2.52872e-05 9.78254e-07
1.73432e-07 9.78254e-07 -8.65366e-05
0.00173332 -1.30301e-06 -8.49127e-07
-1.30301e-06 4.97288e-05 8.72529e-07
-8.49127e-07 8.72529e-07 -3.17351e-05
0.00090133 8.79555e-06 4.53369e-07
8.79555e-06 5.01595e-05 -4.76934e-07
4.53369e-07 -4.76934e-07 -6.77592e-06
0.000862044 1.72306e-05 5.25401e-07
1.72306e-05 3.22403e-05 1.24282e-08
5.25401e-07 1.24282e-08 -3.06567e-05
0.000970983 3.92239e-05 -2.82941e-07
3.92239e-05 8.89598e-05 7.66797e-07
-2.82941e-07 7.66797e-07 2.0909e-05
0.00205394 -6.30294e-05 -3.82214e-06
-6.30294e-05 0.000140565 6.55478e-07
-3.82214e-06 6.55478e-07 5.6405e-05
0.00170068 -0.000145012 7.34846e-07
-0.000145012 2.94115e-05 -5.07426e-07
7.34846e-07 -5.07426e-07 -6.38243e-05
0.000983125 -9.54436e-05 -3.22928e-07
-9.54436e-05 0.000104884 -3.96427e-07
-3.22928e-07 -3.96427e-07 -1.95405e-05
0.00173463 -0.000155153 -4.69927e-07
-0.000155153 0.000357213 -1.12421e-06
-4.69927e-07 -1.12421e-06 0.000204482
0.000981131 -1.30334e-05 -3.86701e-07
-1.30334e-05 9.49324e-05 9.28727e-08
-3.86701e-07 9.28727e-08 2.33558e-05
0.000980808 -7.84245e-06 1.14665e-07
-7.84245e-06 9.72847e-05 5.9267e-07
1.14665e-07 5.9267e-07 1.96293e-05
0.000879897 -6.32024e-05 3.24887e-06
-6.32024e-05 7.79997e-05 -8.7402e-07
3.24887e-06 -8.7402e-07 -3.90586e-05
0.00103301 -4.02417e-05 8.53293e-08
-4.02417e-05 0.000139895 -7.49593e-07
8.53293e-08 -7.49593e-07 4.4785e-05
0.00167595 7.91745e-07 -8.73457e-07
7.91745e-07 -2.88548e-05 2.13098e-06
-8.73457e-07 2.13098e-06 -0.00011514
0.00219647 -0.000139108 6.59187e-06
-0.000139108 0.0001588 -4.38542e-06
6.59187e-06 -4.38542e-06 7.28281e-05
0.00181441 -0.000159464 -1.763e-06
-0.000159464 0.000273522 -3.81811e-06
-1.763e-06 -3.81811e-06 0.000140881
0.00110734 -0.000115824 -2.49006e-06
-0.000115824 0.000174068 2.06624e-07
-2.49006e-06 2.06624e-07 3.86938e-05
0.000871539 2.05918e-05 -7.91675e-07
2.05918e-05 4.13342e-05 -1.97595e-08
-7.91675e-07 -1.97595e-08 -3.12842e-05
0.000908476 -3.77821e-05 8.37117e-07
-3.77821e-05 6.25628e-05 -6.29482e-07
8.37117e-07 -6.29482e-07 -9.79344e-06
0.000964838 -2.94424e-05 5.53201e-07
-2.94424e-05 8.81324e-05 5.7828e-08
5.53201e-07 5.7828e-08 9.49375e-06
0.000939574 -1.00726e-05 -2.23822e-06
-1.00726e-05 0.000101171 8.08635e-07
-2.23822e-06 8.08635e-07 -1.83613e-05
0.000410552 -3.47082e-05 -2.43813e-06
-3.47082e-05 -0.000803679 -6.64013e-06
-2.43813e-06 -6.64013e-06 -0.00126972
0.00101513 1.95361e-05 -8.85687e-08
1.95361e-05 0.000116821 -1.00948e-06
-8.85687e-08 -1.00948e-06 3.46416e-05
0.000889797 7.26243e-05 7.57142e-07
7.26243e-05 5.66323e-05 2.16198e-07
7.57142e-07 2.16198e-07 -4.72445e-05
0.00117075 3.62582e-05 2.37792e-06
3.62582e-05 -0.000298857 7.72079e-07
2.37792e-06 7.72079e-07 -0.000355982
0.00171537 0.000127836 -2.12726e-06
0.000127836 -2.62868e-05 1.4748e-06
-2.12726e-06 1.4748e-06 -8.36329e-05
0.00157429 0.000149274 -1.93874e-06
0.000149274 0.000263447 2.82962e-06
-1.93874e-06 2.82962e-06 9.96913e-05
0.000777343 8.56375e-05 1.11581e-06
8.56375e-05 2.74819e-06 -1.51311e-07
1.11581e-06 -1.51311e-07 -0.000136524
0.00266041 3.66606e-05 -5.30915e-06
3.66606e-05 0.000388089 6.22508e-07
-5.30915e-06 6.22508e-07 0.000300941
0.00100537 4.52763e-05 3.92233e-07
4.52763e-05 0.000113827 -2.84701e-07
3.92233e-07 -2.84701e-07 2.16938e-05
0.00197231 0.000102521 -3.33665e-06
0.000102521 6.5696e-05 -2.09139e-06
-3.33665e-06 -2.09139e-06 6.47669e-05
0.00105781 9.42416e-05 7.49758e-07
9.42416e-05 0.000153076 -3.6262e-07
7.49758e-07 -3.6262e-07 4.36635e-05
0.00103002 0.000107494 -2.206e-07
0.000107494 0.000140241 2.08626e-07
-2.206e-07 2.08626e-07 -2.88527e-05
0.000864407 0.000160829 -3.01896e-06
0.000160829 -0.000272636 3.689e-07
-3.01896e-06 3.689e-07 -0.000388996
0.00190522 -0.00016505 -2.67891e-05
-0.00016505 -5.07275e-05 -9.05696e-06
-2.67891e-05 -9.05696e-06 -0.000588958
0.00320319 -9.13627e-05 7.53102e-06
-9.13627e-05 0.000202285 -1.13557e-05
7.53102e-06 -1.13557e-05 -0.00027514
0.000939049 0.000140975 4.21145e-06
0.000140975 -0.000280735 1.13546e-06
4.21145e-06 1.13546e-06 -0.000258505
-0.00146035 -0.000252481 1.30879e-05
-0.000252481 -0.00059869 2.55608e-06
1.30879e-05 2.55608e-06 -0.000736014
0.000509876 -0.000421451 1.02525e-05
-0.000421451 -0.000907279 9.71168e-07
1.02525e-05 9.71168e-07 0.000119592
0.00111398 6.80543e-05 1.59906e-07
6.80543e-05 0.000171599 -2.74482e-07
1.59906e-07 -2.74482e-07 8.08451e-05
0.000440199 5.35292e-05 -8.7669e-05
5.35292e-05 0.000270371 -1.98757e-05
-8.7669e-05 -1.98757e-05 4.17774e-05
0.00164004 -0.00024445 -3.03359e-05
-0.00024445 0.000492044 -1.92436e-05
-3.03359e-05 -1.92436e-05 0.000847689
0.00127337 0.000126714 -2.58353e-06
0.000126714 -0.000214603 -1.87402e-06
-2.58353e-06 -1.87402e-06 -0.000185934
0.00107696 5.08461e-05 -1.10216e-06
5.08461e-05 0.000180783 -7.3759e-07
-1.10216e-06 -7.3759e-07 5.94798e-05
0.00134226 0.000121003 -5.29563e-06
0.000121003 0.000299461 -1.24246e-06
-5.29563e-06 -1.24246e-06 0.000103734
0.00166637 0.000181792 5.34958e-06
0.000181792 0.000158906 1.77111e-05
5.34958e-06 1.77111e-05 0.000196448
0.00642063 -0.000272286 -5.60098e-05
-0.000272286 0.00205478 -1.68131e-05
-5.60098e-05 -1.68131e-05 0.0011253
0.00153476 4.43056e-05 1.42164e-05
4.43056e-05 -0.000671426 2.13246e-05
1.42164e-05 2.13246e-05 -0.00133503
-7.47066e-05 -0.000389038 -4.49179e-05
-0.000389038 -0.000310444 -1.66052e-05
-4.49179e-05 -1.66052e-05 -2.91888e-05
2.20604e-05 -0.000192735 -2.75727e-05
-0.000192735 -0.00168221 -3.40115e-07
-2.75727e-05 -3.40115e-07 -0.00106978
0.000991958 9.30118e-06 -3.00316e-07
9.30118e-06 9.89638e-05 -9.99321e-07
-3.00316e-07 -9.99321e-07 1.85668e-05
0.00101125 3.19729e-05 -3.07896e-07
3.19729e-05 0.00010423 1.34273e-07
-3.07896e-07 1.34273e-07 2.26991e-05
0.00117919 6.03604e-05 -3.13308e-07
6.03604e-05 0.000194488 -2.95579e-07
-3.13308e-07 -2.95579e-07 0.000115765
0.000877805 1.89967e-06 -4.74176e-08
1.89967e-06 2.81087e-05 -4.64713e-07
-4.74176e-08 -4.64713e-07 -2.03967e-05
0.000928282 -3.11625e-06 -3.99468e-07
-3.11625e-06 5.68449e-05 -5.35217e-07
-3.99468e-07 -5.35217e-07 -6.34304e-07
0.000885932 -1.38151e-05 -2.3941e-07
-1.38151e-05 3.55552e-05 -8.16128e-07
-2.3941e-07 -8.16128e-07 -2.70155e-05
0.000959572 -4.39711e-06 -5.34949e-08
-4.39711e-06 7.97333e-05 -4.82077e-07
-5.34949e-08 -4.82077e-07 1.25892e-05
0.000940915 -2.12782e-06 -5.74174e-08
-2.12782e-06 7.12293e-05 -3.71054e-07
-5.74174e-08 -3.71054e-07 -5.06583e-06
0.000751917 -6.07791e-06 3.55667e-07
-6.07791e-06 -4.11777e-05 4.0852e-07
3.55667e-07 4.0852e-07 -8.9355e-05
0.000895957 3.77619e-06 -1.47007e-07
3.77619e-06 4.65838e-05 -3.1381e-07
-1.47007e-07 -3.1381e-07 -1.90209e-05
0.000961962 -1.50445e-05 -1.8535e-07
-1.50445e-05 7.33132e-05 3.56284e-07
-1.8535e-07 3.56284e-07 9.75308e-06
0.000914029 1.91092e-05 3.44343e-07
1.91092e-05 4.85133e-05 -2.09333e-07
3.44343e-07 -2.09333e-07 -1.14306e-05
0.000960796 1.85865e-05 1.283e-08
1.85865e-05 7.9798e-05 6.14621e-08
1.283e-08 6.14621e-08 8.02998e-06
0.000879716 2.36305e-07 5.13037e-07
2.36305e-07 2.91433e-05 3.34554e-07
5.13037e-07 3.34554e-07 -3.81939e-05
0.00104488 3.58713e-05 -2.25787e-07
3.58713e-05 0.000122387 -3.07211e-07
-2.25787e-07 -3.07211e-07 4.8752e-05
0.000972245 -5.03849e-05 9.48341e-08
-5.03849e-05 7.74486e-05 3.23925e-07
9.48341e-08 3.23925e-07 1.35233e-05
0.000977932 -3.59783e-05 -4.51686e-07
-3.59783e-05 8.25073e-05 1.04974e-07
-4.51686e-07 1.04974e-07 2.22791e-05
0.000969506 -3.05532e-06 -3.59116e-07
-3.05532e-06 7.82958e-05 -7.62332e-08
-3.59116e-07 -7.62332e-08 1.96718e-05
0.000951914 4.47396e-05 -2.55347e-07
4.47396e-05 7.0905e-05 -2.72753e-07
-2.55347e-07 -2.72753e-07 7.4454e-06
0.000953277 2.2908e-05 -1.85937e-08
2.2908e-05 7.12079e-05 1.79257e-07
-1.85937e-08 1.79257e-07 5.12953e-06
0.000919602 3.70783e-05 1.27378e-07
3.70783e-05 5.6574e-05 5.83212e-07
1.27378e-07 5.83212e-07 -6.91232e-06
0.00106339 4.91679e-05 -7.04716e-08
4.91679e-05 0.000126171 1.23642e-07
-7.04716e-08 1.23642e-07 5.91223e-05
0.000876805 9.25935e-06 5.09139e-07
9.25935e-06 4.0162e-05 1.59956e-06
5.09139e-07 1.59956e-06 -2.9692e-05
0.000886116 1.31405e-05 -1.65282e-07
1.31405e-05 3.73359e-05 5.61869e-07
-1.65282e-07 5.61869e-07 -1.94325e-05
0.000894785 8.54138e-07 -3.37738e-08
8.54138e-07 4.36687e-05 -1.84477e-08
-3.37738e-08 -1.84477e-08 -1.39442e-05
0.00088039 2.06178e-06 -8.89266e-07
2.06178e-06 2.5929e-05 7.53439e-07
-8.89266e-07 7.53439e-07 -1.92498e-05
0.000859926 1.30937e-05 3.12152e-07
1.30937e-05 1.95495e-05 -7.12426e-07
3.12152e-07 -7.12426e-07 -3.65228e-05
0.00083267 -1.22051e-05 8.50059e-08
-1.22051e-05 2.06052e-07 1.59182e-08
8.50059e-08 1.59182e-08 -4.58377e-05
0.000855931 1.26068e-05 -3.98838e-07
1.26068e-05 3.87683e-06 1.71669e-06
-3.98838e-07 1.71669e-06 -2.40244e-05
0.000773556 5.47545e-06 3.65719e-07
5.47545e-06 -2.84613e-05 -4.80004e-07
3.65719e-07 -4.80004e-07 -7.71779e-05
0.000850746 5.72113e-06 -1.50219e-07
5.72113e-06 5.74676e-07 -3.66266e-09
-1.50219e-07 -3.66266e-09 -2.71146e-05
0.00138516 1.00612e-05 -2.7327e-06
1.00612e-05 0.000275933 4.29261e-06
-2.7327e-06 4.29261e-06 0.000278062
0.000844551 -3.98868e-06 5.20874e-07
-3.98868e-06 -2.7659e-06 -1.59285e-06
5.20874e-07 -1.59285e-06 -3.03129e-05
0.00109369 5.24858e-06 -1.17552e-06
5.24858e-06 0.000119357 6.16413e-07
-1.17552e-06 6.16413e-07 0.000120376
0.00100667 2.81206e-06 -2.48639e-06
2.81206e-06 7.3001e-05 3.91213e-06
-2.48639e-06 3.91213e-06 9.01299e-05
0.00080408 5.33991e-07 -1.81523e-08
5.33991e-07 -3.55671e-05 -3.04948e-06
-1.81523e-08 -3.04948e-06 -3.56458e-05
0.00213274 -5.70144e-07 1.86611e-06
-5.70144e-07 0.000671713 1.63312e-10
1.86611e-06 1.63312e-10 0.000694726
0.0010132 -3.61222e-06 -1.60787e-06
-3.61222e-06 7.62842e-05 -3.89448e-06
-1.60787e-06 -3.89448e-06 9.37428e-05
0.000881002 3.6351e-05 3.10433e-07
3.6351e-05 3.0195e-05 -1.87784e-07
3.10433e-07 -1.87784e-07 -1.25087e-05
0.000864957 -6.01523e-07 -2.30028e-08
-6.01523e-07 4.2301e-06 -1.60952e-06
-2.30028e-08 -1.60952e-06 -1.84833e-05
0.000864029 2.79331e-06 -5.35846e-08
2.79331e-06 3.65297e-06 -4.41146e-10
-5.35846e-08 -4.41146e-10 -1.95563e-05
0.000805255 4.5086e-06 7.5615e-08
4.5086e-06 -3.60935e-05 -3.06058e-06
7.5615e-08 -3.06058e-06 -3.35143e-05
0.000858545 6.25327e-06 -2.85501e-07
6.25327e-06 1.38509e-06 1.56116e-06
-2.85501e-07 1.56116e-06 -2.29401e-05
0.000798161 9.42115e-06 5.52706e-08
9.42115e-06 -3.83639e-05 -6.23559e-07
5.52706e-08 -6.23559e-07 -3.66968e-05
0.00205825 1.22811e-05 6.44728e-06
1.22811e-05 0.000633784 -3.91015e-06
6.44728e-06 -3.91015e-06 0.000657336
0.00133367 1.7659e-05 -1.2831e-06
1.7659e-05 0.000249664 1.91079e-06
-1.2831e-06 1.91079e-06 0.000252525
0.00155899 1.62131e-05 3.29716e-07
1.62131e-05 0.000371678 1.215e-06
3.29716e-07 1.215e-06 0.00039126
0.00104748 1.83636e-05 -1.36323e-05
1.83636e-05 0.000103851 6.32996e-06
-1.36323e-05 6.32996e-06 0.000119403
-0.000772493 1.67728e-05 3.94985e-06
1.67728e-05 -0.0012683 2.95109e-06
3.94985e-06 2.95109e-06 -0.00132287
0.00192176 5.81265e-06 2.33403e-06
5.81265e-06 0.000148702 1.48049e-07
2.33403e-06 1.48049e-07 6.82097e-05
0.00206125 1.28053e-05 -2.14402e-06
1.28053e-05 0.000207067 -1.96028e-06
-2.14402e-06 -1.96028e-06 0.000136451
0.00105935 -7.09651e-05 2.81108e-05
-7.09651e-05 -0.000257875 1.09014e-06
2.81108e-05 1.09014e-06 -0.000476006
0.00171562 -4.27021e-05 -1.91277e-06
-4.27021e-05 5.32288e-05 -2.69781e-07
-1.91277e-06 -2.69781e-07 -2.53927e-05
0.00173616 2.00037e-05 -3.68113e-06
2.00037e-05 -1.30264e-05 -1.93923e-06
-3.68113e-06 -1.93923e-06 -9.64972e-05
0.00189086 3.63914e-05 -9.7335e-06
3.63914e-05 0.000193152 1.21419e-06
-9.7335e-06 1.21419e-06 0.00011086
0.00164588 -7.52336e-05 0.000126438
-7.52336e-05 5.71828e-05 -6.48813e-07
0.000126438 -6.48813e-07 -0.000247064
0.00561837 0.000102758 -1.51424e-05
0.000102758 0.00162841 -7.47417e-07
-1.51424e-05 -7.47417e-07 0.000864905
0.00419177 0.000503796 -2.16641e-05
0.000503796 0.00178446 5.52089e-06
-2.16641e-05 5.52089e-06 0.00198878
0.00153355 0.000421164 -1.58721e-05
0.000421164 5.6619e-05 6.27073e-06
-1.58721e-05 6.27073e-06 0.000868942
0.000742581 -3.52567e-05 1.13558e-06
-3.52567e-05 -3.11936e-05 -6.28067e-07
1.13558e-06 -6.28067e-07 -8.61949e-05
0.000894951 -9.47048e-06 1.81243e-07
-9.47048e-06 3.55766e-05 -2.66476e-08
1.81243e-07 -2.66476e-08 -5.77048e-06
0.00088985 -4.21423e-05 -8.23039e-07
-4.21423e-05 3.53175e-05 8.15542e-07
-8.23039e-07 8.15542e-07 -8.2232e-06
0.000854722 -9.6309e-06 -2.86792e-07
-9.6309e-06 2.50012e-05 2.34163e-08
-2.86792e-07 2.34163e-08 -2.95482e-05
0.000898663 3.91519e-05 5.54434e-08
3.91519e-05 5.8256e-05 7.46277e-07
5.54434e-08 7.46277e-07 -6.73866e-06
0.000938197 4.46916e-05 1.21965e-07
4.46916e-05 7.33401e-05 7.062e-07
1.21965e-07 7.062e-07 1.17732e-05
0.000933252 -2.49933e-05 6.95509e-07
-2.49933e-05 6.95818e-05 -8.15795e-07
6.95509e-07 -8.15795e-07 1.37198e-05
0.000844912 -4.29484e-05 -5.20727e-07
-4.29484e-05 2.40066e-05 4.80651e-07
-5.20727e-07 4.80651e-07 -3.14605e-05
0.00151956 1.7255e-06 1.7109e-06
1.7255e-06 -5.06447e-05 -8.91795e-07
1.7109e-06 -8.91795e-07 -0.000131793
0.00162261 -5.93736e-05 -7.59096e-07
-5.93736e-05 -8.36072e-05 4.86516e-07
-7.59096e-07 4.86516e-07 -0.000170567
0.00176114 -0.000141844 -4.98064e-06
-0.000141844 6.62486e-05 2.7885e-06
-4.98064e-06 2.7885e-06 -2.61852e-05
0.000873174 -9.42104e-05 1.25182e-06
-9.42104e-05 3.73513e-05 9.62771e-07
1.25182e-06 9.62771e-07 -8.47452e-05
0.00168192 -0.00015383 1.42666e-06
-0.00015383 0.00033599 3.07645e-07
1.42666e-06 3.07645e-07 0.000174496
0.000921417 -6.40911e-05 8.17525e-07
-6.40911e-05 9.37596e-05 -1.07709e-06
8.17525e-07 -1.07709e-06 -1.88159e-05
0.00120626 -6.26763e-05 2.69697e-07
-6.26763e-05 0.000231917 -6.13545e-07
2.69697e-07 -6.13545e-07 0.000132244
0.000885138 -1.99778e-05 -6.16504e-07
-1.99778e-05 5.18999e-05 1.06494e-07
-6.16504e-07 1.06494e-07 -2.70006e-05
0.000883141 7.05617e-06 4.26983e-07
7.05617e-06 4.31044e-05 5.27401e-07
4.26983e-07 5.27401e-07 -1.89021e-05
0.0010393 1.96398e-06 -7.56284e-07
1.96398e-06 0.000122841 2.628e-07
-7.56284e-07 2.628e-07 5.27762e-05
0.00107573 1.66017e-06 3.0817e-07
1.66017e-06 0.000139374 -2.31204e-08
3.0817e-07 -2.31204e-08 8.47473e-05
0.000851049 6.43783e-05 1.11965e-06
6.43783e-05 2.67866e-05 1.29176e-06
1.11965e-06 1.29176e-06 -4.19834e-05
0.00161905 6.14896e-06 8.5063e-07
6.14896e-06 -6.61555e-05 -3.32477e-06
8.5063e-07 -3.32477e-06 -0.000150617
0.000883732 2.1096e-05 -3.92072e-07
2.1096e-05 4.84902e-05 3.84836e-07
-3.92072e-07 3.84836e-07 -2.29571e-05
0.00089466 -2.52097e-05 -2.90478e-07
-2.52097e-05 5.27971e-05 -3.19685e-07
-2.90478e-07 -3.19685e-07 -1.84472e-05
0.00220541 -0.000139529 -1.39511e-06
-0.000139529 0.000168971 4.82383e-07
-1.39511e-06 4.82383e-07 8.57507e-05
0.0011184 -0.000132579 2.95538e-07
-0.000132579 -6.42718e-05 1.08897e-06
2.95538e-07 1.08897e-06 -0.000190163
0.00120756 -0.00012101 1.00657e-06
-0.00012101 0.000223336 -8.96858e-07
1.00657e-06 -8.96858e-07 8.3313e-05
0.000971632 -3.12581e-05 1.56305e-07
-3.12581e-05 9.16767e-05 -9.24709e-08
1.56305e-07 -9.24709e-08 1.1097e-05
0.00103973 -2.33538e-05 -1.96812e-07
-2.33538e-05 0.000153315 2.94299e-07
-1.96812e-07 2.94299e-07 3.29996e-05
0.00257691 -7.96395e-05 -7.06133e-06
-7.96395e-05 0.000454172 1.06767e-05
-7.06133e-06 1.06767e-05 0.000385722
0.0023573 -0.000208723 1.0066e-06
-0.000208723 0.000377437 -5.42018e-06
1.0066e-06 -5.42018e-06 0.000256363
0.000571462 -0.000111126 -4.13932e-06
-0.000111126 -0.000140375 -7.82211e-07
-4.13932e-06 -7.82211e-07 -0.00026872
0.0013201 -8.19352e-05 -3.90594e-06
-8.19352e-05 0.000305743 2.7507e-06
-3.90594e-06 2.7507e-06 0.000162392
0.000781987 -5.9367e-05 7.82822e-07
-5.9367e-05 -2.46376e-06 -1.3168e-07
7.82822e-07 -1.3168e-07 -7.89869e-05
0.000974637 -4.42839e-05 1.69201e-06
-4.42839e-05 9.27769e-05 -1.07309e-07
1.69201e-06 -1.07309e-07 1.23552e-05
0.00107495 -1.91061e-05 -9.26533e-07
-1.91061e-05 0.000145485 6.53997e-07
-9.26533e-07 6.53997e-07 5.25286e-05
-0.00246932 -1.66022e-05 -2.43518e-05
-1.66022e-05 -0.00121859 -1.06987e-06
-2.43518e-05 -1.06987e-06 -0.00107239
0.00665467 -2.25453e-05 -2.29687e-05
-2.25453e-05 0.0022529 -1.42639e-06
-2.29687e-05 -1.42639e-06 0.00169384
0.000956799 4.49109e-05 7.11619e-07
4.49109e-05 9.23234e-05 -6.18211e-07
7.11619e-07 -6.18211e-07 4.8289e-07
0.000891977 8.6247e-05 1.49197e-06
8.6247e-05 7.02589e-05 -1.42767e-06
1.49197e-06 -1.42767e-06 -3.77094e-05
0.00182732 9.97494e-05 -5.31501e-06
9.97494e-05 -1.35953e-05 3.1638e-06
-5.31501e-06 3.1638e-06 -9.6042e-06
0.00159013 0.000186205 -1.79744e-06
0.000186205 6.35947e-05 2.07877e-06
-1.79744e-06 2.07877e-06 -4.41176e-05
0.00105771 0.000110384 1.59142e-06
0.000110384 0.000157328 4.30954e-07
1.59142e-06 4.30954e-07 -9.67709e-06
0.00551185 -2.47294e-06 3.00845e-05
-2.47294e-06 0.00155971 -6.90769e-06
3.00845e-05 -6.90769e-06 0.000867676
0.00343766 -8.92789e-05 -6.69291e-05
-8.92789e-05 0.000310631 -1.56338e-05
-6.69291e-05 -1.56338e-05 -6.65582e-05
0.000585371 0.000116579 -5.43425e-06
0.000116579 -0.000473998 -1.09807e-05
-5.43425e-06 -1.09807e-05 -0.000435456
0.00312168 -0.000392196 2.86512e-05
-0.000392196 0.00150491 1.56599e-05
2.86512e-05 1.56599e-05 0.00152209
-0.00141759 -0.000460916 1.60669e-05
-0.000460916 -0.00198461 -1.00735e-05
1.60669e-05 -1.00735e-05 -0.000820477
0.00103289 7.74355e-05 -9.8905e-08
7.74355e-05 0.000132651 -2.27294e-07
-9.8905e-08 -2.27294e-07 4.0408e-05
-0.00209515 -9.81824e-05 -7.61111e-07
-9.81824e-05 -0.00108308 -1.40333e-06
-7.61111e-07 -1.40333e-06 -0.000925757
0.000367066 -0.000229966 -1.00868e-05
-0.000229966 -7.26858e-05 -1.72861e-06
-1.00868e-05 -1.72861e-06 0.0001314
0.00210373 0.000148475 -1.26903e-06
0.000148475 0.000190433 -1.21227e-06
-1.26903e-06 -1.21227e-06 0.000217281
0.000980647 6.22677e-05 -1.0182e-07
6.22677e-05 0.000140688 -9.60539e-07
-1.0182e-07 -9.60539e-07 2.04278e-05
0.000791427 0.000101333 2.62471e-08
0.000101333 2.21867e-05 4.22986e-07
2.62471e-08 4.22986e-07 -0.000172762
-0.000149276 0.000111865 1.52926e-05
0.000111865 -0.000721636 6.61624e-06
1.52926e-05 6.61624e-06 -0.000667092
0.00476029 -0.000192237 1.51381e-06
-0.000192237 0.00113911 1.1766e-06
1.51381e-06 1.1766e-06 0.000154267
0.00373046 0.000105039 -2.51025e-05
0.000105039 0.000522286 -1.54757e-05
-2.51025e-05 -1.54757e-05 0.000108627
0.00362284 -0.000539825 1.12379e-05
-0.000539825 0.00124678 -1.89929e-06
1.12379e-05 -1.89929e-06 0.00135489
0.000551372 -0.000245683 7.21015e-06
-0.000245683 -0.00151984 2.06723e-05
7.21015e-06 2.06723e-05 -0.000730737
0.00112598 3.97584e-05 -2.13483e-06
3.97584e-05 0.000172521 -9.14969e-07
-2.13483e-06 -9.14969e-07 8.81041e-05
-0.000680773 -6.85388e-05 -3.75708e-05
-6.85388e-05 -0.000370692 -6.10574e-06
-3.75708e-05 -6.10574e-06 -0.000521635
0.00146484 -2.19113e-05 -2.85548e-05
-2.19113e-05 -3.83956e-05 -2.64594e-05
-2.85548e-05 -2.64594e-05 -0.00011364
0.000742871 0.000122835 -5.99421e-06
0.000122835 -0.000166652 -7.21954e-06
-5.99421e-06 -7.21954e-06 -0.000220625
0.00169653 9.8957e-05 -8.55324e-06
9.8957e-05 0.000562823 -1.20201e-06
-8.55324e-06 -1.20201e-06 0.00041383
0.00134885 1.12788e-05 -4.44433e-06
1.12788e-05 0.000399327 -3.60884e-06
-4.44433e-06 -3.60884e-06 0.000345518
0.0025295 0.000318484 -9.09455e-05
0.000318484 0.00024253 1.3592e-05
-9.09455e-05 1.3592e-05 -0.000124452
0.000363838 -0.000269812 1.8709e-05
-0.000269812 -0.00059954 2.04008e-05
1.8709e-05 2.04008e-05 -0.00185157
0.00594877 -0.00053468 -5.08315e-05
-0.00053468 0.00158843 -5.30064e-06
-5.08315e-05 -5.30064e-06 0.00176351
0.000738702 -0.000109391 -5.38179e-06
-0.000109391 -0.00128009 -1.11253e-05
-5.38179e-06 -1.11253e-05 -0.000810381
0.000959997 3.6459e-05 2.32593e-07
3.6459e-05 8.05392e-05 3.92861e-07
2.32593e-07 3.92861e-07 -1.82642e-06
0.00107818 5.79188e-05 9.98368e-07
5.79188e-05 0.000141555 6.07272e-07
9.98368e-07 6.07272e-07 6.20342e-05
0.000631228 5.48135e-05 1.02058e-06
5.48135e-05 -7.21403e-05 -1.63886e-06
1.02058e-06 -1.63886e-06 -0.000150578
0.000769087 2.12978e-05 2.12346e-07
2.12978e-05 -3.22557e-05 -4.73368e-07
2.12346e-07 -4.73368e-07 -8.04929e-05
0.000986128 2.75803e-05 -4.32249e-07
2.75803e-05 8.83855e-05 -5.76128e-07
-4.32249e-07 -5.76128e-07 2.78754e-05
0.00107092 -3.34204e-05 -5.99712e-08
-3.34204e-05 0.000131313 -6.9924e-08
-5.99712e-08 -6.9924e-08 6.77744e-05
0.000880788 -1.20579e-06 -7.15014e-07
-1.20579e-06 3.9495e-05 -5.21232e-07
-7.15014e-07 -5.21232e-07 -2.57767e-05
0.000942153 1.50645e-05 -4.7543e-07
1.50645e-05 6.90807e-05 4.21501e-08
-4.7543e-07 4.21501e-08 -2.77652e-06
0.000956954 1.38495e-05 3.67834e-07
1.38495e-05 7.21009e-05 -3.98759e-07
3.67834e-07 -3.98759e-07 1.16566e-05
0.000941708 -2.92037e-06 -4.56232e-08
-2.92037e-06 6.37849e-05 -1.00526e-07
-4.56232e-08 -1.00526e-07 -3.5116e-06
0.000952354 -3.48939e-05 1.63468e-07
-3.48939e-05 6.72807e-05 2.79017e-08
1.63468e-07 2.79017e-08 3.00074e-06
0.000993371 2.13308e-05 -3.56355e-08
2.13308e-05 9.74166e-05 2.59808e-07
-3.56355e-08 2.59808e-07 2.47055e-05
0.00125774 -2.28355e-05 5.53719e-07
-2.28355e-05 0.000229227 -1.58034e-07
5.53719e-07 -1.58034e-07 0.000158413
0.000960311 -1.25539e-05 -1.19793e-07
-1.25539e-05 6.7592e-05 2.74774e-07
-1.19793e-07 2.74774e-07 -1.11956e-07
0.000964904 3.7556e-06 1.50663e-07
3.7556e-06 7.68573e-05 2.86033e-07
1.50663e-07 2.86033e-07 9.4615e-06
0.000972011 -2.44438e-05 1.55137e-07
-2.44438e-05 8.13697e-05 -5.86197e-07
1.55137e-07 -5.86197e-07 2.13872e-05
0.000873385 2.16601e-05 -2.3106e-07
2.16601e-05 2.62361e-05 -7.73323e-07
-2.3106e-07 -7.73323e-07 -3.55741e-05
0.000942405 8.43806e-08 2.69656e-07
8.43806e-08 6.57649e-05 -1.13399e-07
2.69656e-07 -1.13399e-07 -8.66473e-08
0.000907098 3.63273e-05 -4.30911e-08
3.63273e-05 5.01632e-05 -1.55237e-08
-4.30911e-08 -1.55237e-08 -1.32551e-05
0.000991943 3.51673e-05 -5.34008e-07
3.51673e-05 8.61906e-05 -5.42178e-07
-5.34008e-07 -5.42178e-07 2.01305e-05
0.000877684 2.54948e-05 4.84779e-07
2.54948e-05 3.68224e-05 1.1409e-06
4.84779e-07 1.1409e-06 -2.82462e-05
0.000998698 3.28603e-05 3.81186e-07
3.28603e-05 9.37908e-05 3.32201e-07
3.81186e-07 3.32201e-07 2.5003e-05
0.000935986 2.2425e-05 -3.59655e-08
2.2425e-05 5.78312e-05 6.11325e-07
-3.59655e-08 6.11325e-07 -1.031e-05
0.000891309 -2.74101e-06 7.10104e-07
-2.74101e-06 4.901e-05 6.97452e-07
7.10104e-07 6.97452e-07 -3.17244e-05
0.000811642 -5.08179e-05 -2.74456e-07
-5.08179e-05 2.94745e-05 6.15547e-07
-2.74456e-07 6.15547e-07 -6.65485e-05
0.000773557 -3.15453e-06 -4.49157e-07
-3.15453e-06 -9.56096e-06 5.28393e-07
-4.49157e-07 5.28393e-07 -8.60012e-05
0.000906345 9.09484e-06 1.34323e-07
9.09484e-06 5.64386e-05 3.88149e-07
1.34323e-07 3.88149e-07 -1.37568e-05
0.00089236 1.32595e-05 5.91899e-08
1.32595e-05 4.0982e-05 1.18273e-06
5.91899e-08 1.18273e-06 -1.81661e-05
0.000900836 1.01582e-05 -1.4083e-07
1.01582e-05 4.59662e-05 -6.17781e-08
-1.4083e-07 -6.17781e-08 -1.14284e-05
0.000878576 1.90135e-05 -4.35704e-07
1.90135e-05 2.64155e-05 8.01481e-07
-4.35704e-07 8.01481e-07 -1.92977e-05
0.000904452 1.30293e-05 3.56478e-07
1.30293e-05 4.7112e-05 -4.0437e-07
3.56478e-07 -4.0437e-07 -9.43151e-06
0.000888513 4.62525e-06 -4.26128e-08
4.62525e-06 2.99634e-05 9.24172e-09
-4.26128e-08 9.24172e-09 -1.52319e-05
0.000851744 1.5735e-05 -7.18304e-07
1.5735e-05 3.56567e-06 1.70184e-06
-7.18304e-07 1.70184e-06 -2.4821e-05
0.000774784 5.21311e-06 3.97253e-07
5.21311e-06 -3.16052e-05 -7.74065e-07
3.97253e-07 -7.74065e-07 -7.71563e-05
0.000854478 8.16904e-06 -7.92947e-08
8.16904e-06 2.96645e-06 -4.65567e-09
-7.92947e-08 -4.65567e-09 -2.48692e-05
0.0013808 1.51704e-05 -4.38383e-06
1.51704e-05 0.000275919 4.29267e-06
-4.38383e-06 4.29267e-06 0.000277705
0.000848459 -5.48885e-08 6.47473e-07
-5.48885e-08 -8.41377e-07 -1.63969e-06
6.47473e-07 -1.63969e-06 -2.84503e-05
0.00109069 1.00282e-05 -1.84106e-06
1.00282e-05 0.0001193 6.07579e-07
-1.84106e-06 6.07579e-07 0.000120055
0.000964528 8.96237e-06 -6.83039e-07
8.96237e-06 5.20433e-05 1.55481e-06
-6.83039e-07 1.55481e-06 6.90306e-05
0.000800248 4.82735e-06 2.8351e-07
4.82735e-06 -3.70165e-05 -3.06543e-06
2.8351e-07 -3.06543e-06 -3.73669e-05
0.00214041 5.72276e-06 1.729e-06
5.72276e-06 0.000676254 1.22506e-08
1.729e-06 1.22506e-08 0.000699101
0.00213555 -1.73872e-07 1.0526e-06
-1.73872e-07 0.000673199 -4.00861e-06
1.0526e-06 -4.00861e-06 0.000696177
0.00112347 2.28326e-05 -8.4167e-07
2.28326e-05 0.000156649 -3.61561e-07
-8.4167e-07 -3.61561e-07 0.000115295
0.000865079 -3.99559e-06 -1.86738e-07
-3.99559e-06 5.2705e-06 -1.52921e-06
-1.86738e-07 -1.52921e-06 -1.78474e-05
0.000888572 2.91439e-06 6.4062e-07
2.91439e-06 3.39362e-05 4.51393e-07
6.4062e-07 4.51393e-07 -8.45416e-06
0.000811557 -3.8536e-07 -7.61707e-08
-3.8536e-07 -3.318e-05 -3.03339e-06
-7.61707e-08 -3.03339e-06 -3.02284e-05
0.00086525 -1.05088e-06 3.4035e-08
-1.05088e-06 4.33764e-06 6.25936e-10
3.4035e-08 6.25936e-10 -1.83733e-05
0.000861252 2.19417e-06 -2.11198e-07
2.19417e-06 2.06031e-06 1.58851e-06
-2.11198e-07 1.58851e-06 -2.1117e-05
0.000808188 4.68685e-06 -1.27707e-07
4.68685e-06 -3.45438e-05 8.32825e-09
-1.27707e-07 8.32825e-09 -3.19992e-05
0.00203134 5.94655e-06 2.81629e-06
5.94655e-06 0.000618016 -3.92282e-06
2.81629e-06 -3.92282e-06 0.000642136
0.0013273 1.19834e-05 -7.90222e-07
1.19834e-05 0.000243233 1.87604e-06
-7.90222e-07 1.87604e-06 0.00024753
0.00151936 1.10363e-05 1.87191e-06
1.10363e-05 0.000347339 2.84862e-08
1.87191e-06 2.84862e-08 0.000368049
0.00104118 1.35979e-05 -1.13382e-05
1.35979e-05 9.58837e-05 6.30902e-06
-1.13382e-05 6.30902e-06 0.000112811
-0.0039761 0.000114273 -2.23049e-05
0.000114273 -0.00204757 7.20944e-06
-2.23049e-05 7.20944e-06 -0.00196765
-0.0011702 0.000205461 -8.31343e-06
0.000205461 -0.000915683 1.22578e-05
-8.31343e-06 1.22578e-05 -0.000701522
0.000453867 -2.55166e-05 -8.79192e-05
-2.55166e-05 -0.000584445 -8.89434e-06
-8.79192e-05 -8.89434e-06 -0.000793695
0.00250181 -4.34753e-05 7.423e-07
-4.34753e-05 0.000503818 -1.91334e-07
7.423e-07 -1.91334e-07 0.000414431
0.00143416 1.78172e-05 -9.76151e-06
1.78172e-05 -0.000187615 -3.98306e-07
-9.76151e-06 -3.98306e-07 -0.000268963
0.00112125 -2.67256e-05 2.34468e-05
-2.67256e-05 -3.24194e-05 -2.35122e-06
2.34468e-05 -2.35122e-06 -0.000257685
0.00204794 4.12395e-05 5.48763e-07
4.12395e-05 0.000280702 1.51085e-06
5.48763e-07 1.51085e-06 0.000197603
0.00522872 0.000258342 -2.27053e-05
0.000258342 0.00136942 -4.54392e-06
-2.27053e-05 -4.54392e-06 0.000715107
-0.00311521 0.000244535 -8.4772e-06
0.000244535 -0.00135569 -2.59836e-06
-8.4772e-06 -2.59836e-06 -0.00130822
0.000149755 0.000447375 4.52042e-06
0.000447375 -0.000958183 -6.40598e-06
4.52042e-06 -6.40598e-06 3.56393e-05
0.00129852 2.66253e-06 4.56367e-05
2.66253e-06 6.68214e-05 -9.42011e-06
4.56367e-05 -9.42011e-06 -0.000169232
0.00630081 0.000413956 -5.79494e-06
0.000413956 0.0018477 -9.30354e-06
-5.79494e-06 -9.30354e-06 0.000999733
-0.000107819 0.000410561 -4.17987e-05
0.000410561 -0.000296158 1.46628e-05
-4.17987e-05 1.46628e-05 2.12683e-05
0.00280769 0.000241695 -3.60718e-05
0.000241695 -1.23443e-05 2.00766e-05
-3.60718e-05 2.00766e-05 0.000587407
0.000866238 3.08388e-05 -6.03179e-07
3.08388e-05 4.12253e-05 -2.23342e-07
-6.03179e-07 -2.23342e-07 -2.73101e-05
0.000809022 -1.16072e-05 1.17473e-07
-1.16072e-05 2.84278e-06 -3.61231e-07
1.17473e-07 -3.61231e-07 -5.14414e-05
0.000887567 -3.9505e-05 -7.87539e-07
-3.9505e-05 3.34057e-05 8.16892e-07
-7.87539e-07 8.16892e-07 -9.06328e-06
0.000801807 7.16708e-06 1.31553e-07
7.16708e-06 -1.57897e-06 2.47023e-07
1.31553e-07 2.47023e-07 -5.69155e-05
0.000906697 4.42162e-05 7.1008e-07
4.42162e-05 6.39268e-05 7.84783e-07
7.1008e-07 7.84783e-07 -3.22541e-07
0.000948859 2.98869e-05 -5.80295e-07
2.98869e-05 8.41237e-05 2.34385e-07
-5.80295e-07 2.34385e-07 1.62867e-05
0.000907351 3.29816e-05 1.08576e-06
3.29816e-05 6.14554e-05 1.00672e-06
1.08576e-06 1.00672e-06 -3.08444e-06
0.00087521 -1.24597e-05 6.91583e-07
-1.24597e-05 3.87029e-05 1.83081e-07
6.91583e-07 1.83081e-07 -2.22806e-05
0.000868868 -2.44845e-05 3.44775e-07
-2.44845e-05 3.68807e-05 -5.43982e-07
3.44775e-07 -5.43982e-07 -2.064e-05
0.000789993 -3.60613e-05 -2.80526e-07
-3.60613e-05 -4.21964e-06 5.80898e-07
-2.80526e-07 5.80898e-07 -6.06626e-05
0.00158797 1.25933e-05 -8.84864e-07
1.25933e-05 -9.08899e-05 -4.0774e-07
-8.84864e-07 -4.0774e-07 -0.000174039
0.0018762 -0.000131135 -6.37112e-06
-0.000131135 1.00765e-05 4.16813e-06
-6.37112e-06 4.16813e-06 -6.92216e-05
0.000288452 -0.000100319 4.06681e-06
-0.000100319 -0.000468685 4.10463e-06
4.06681e-06 4.10463e-06 -0.00058753
0.0013259 -0.000127174 2.4502e-06
-0.000127174 0.000281957 -3.65279e-07
2.4502e-06 -3.65279e-07 0.000139125
0.00110747 -3.81958e-05 2.30161e-06
-3.81958e-05 0.000187522 -1.11957e-06
2.30161e-06 -1.11957e-06 6.72103e-05
0.000993946 -4.07126e-05 -2.64087e-07
-4.07126e-05 0.000101836 -5.10798e-07
-2.64087e-07 -5.10798e-07 2.00281e-05
0.000873841 -2.05046e-05 -8.97177e-07
-2.05046e-05 3.94777e-05 -2.82624e-08
-8.97177e-07 -2.82624e-08 -3.06328e-05
0.000901245 2.21721e-05 -5.18496e-07
2.21721e-05 5.84604e-05 2.32558e-07
-5.18496e-07 2.32558e-07 -1.18669e-05
0.00183393 -6.21008e-05 -5.45288e-06
-6.21008e-05 7.19275e-05 2.05275e-06
-5.45288e-06 2.05275e-06 1.66052e-06
0.00082168 -2.81139e-05 -1.65798e-07
-2.81139e-05 1.76601e-05 7.69736e-08
-1.65798e-07 7.69736e-08 -5.94556e-05
0.000913079 -4.6922e-05 6.19239e-07
-4.6922e-05 5.91277e-05 -3.60059e-07
6.19239e-07 -3.60059e-07 -2.24559e-05
0.00193005 -0.000188836 1.54476e-06
-0.000188836 0.000179066 -9.49406e-07
1.54476e-06 -9.49406e-07 6.2077e-05
0.000564111 -0.00010679 1.75466e-06
-0.00010679 -0.000124259 2.27209e-06
1.75466e-06 2.27209e-06 -0.000249755
0.00116218 -7.66233e-05 9.1127e-07
-7.66233e-05 0.000213544 -2.27722e-07
9.1127e-07 -2.27722e-07 7.77787e-05
0.00108324 -3.15831e-05 -5.30482e-07
-3.15831e-05 0.000149836 -2.43621e-07
-5.30482e-07 -2.43621e-07 5.29544e-05
0.00248612 -0.00017867 1.71131e-06
-0.00017867 0.000496569 1.88311e-06
1.71131e-06 1.88311e-06 0.000443298
0.00233725 -0.000210752 -5.78986e-06
-0.000210752 0.000652476 -2.53073e-06
-5.78986e-06 -2.53073e-06 0.00052801
0.000906447 -9.75165e-06 -2.46382e-06
-9.75165e-06 9.88781e-05 3.57426e-06
-2.46382e-06 3.57426e-06 -3.19796e-05
0.000889585 2.89919e-05 4.43581e-07
2.89919e-05 5.37932e-05 9.85921e-07
4.43581e-07 9.85921e-07 -2.41811e-05
0.000890997 -7.49934e-05 1.15707e-06
-7.49934e-05 4.80651e-05 5.43309e-08
1.15707e-06 5.43309e-08 -3.77823e-05
0.00105837 -3.52144e-05 3.19781e-07
-3.52144e-05 0.000119669 1.44899e-06
3.19781e-07 1.44899e-06 3.21668e-05
0.00111999 -1.08263e-06 -3.77096e-05
-1.08263e-06 0.000690309 9.37648e-07
-3.77096e-05 9.37648e-07 0.000622363
0.00133308 -9.9615e-06 1.22982e-05
-9.9615e-06 0.000612523 1.82982e-06
1.22982e-05 1.82982e-06 0.000552918
0.000300369 0.000143297 -4.49072e-05
0.000143297 -0.000914938 1.43282e-05
-4.49072e-05 1.43282e-05 -0.00145961
0.000985228 7.65348e-05 2.68153e-07
7.65348e-05 0.000108454 2.94085e-07
2.68153e-07 2.94085e-07 1.62262e-05
0.000878734 7.3082e-05 2.38925e-06
7.3082e-05 9.73857e-05 -3.44587e-07
2.38925e-06 -3.44587e-07 -2.26878e-05
0.00292062 0.000169157 2.36288e-07
0.000169157 0.000592246 -1.91215e-07
2.36288e-07 -1.91215e-07 0.000610963
0.000243211 8.37282e-05 3.82379e-06
8.37282e-05 -0.000251156 3.06209e-07
3.82379e-06 3.06209e-07 -0.000448195
0.00322559 -0.000260046 4.61739e-05
-0.000260046 0.00134826 9.1502e-06
4.61739e-05 9.1502e-06 0.00149686
0.00099943 -0.000267726 1.11117e-05
-0.000267726 -0.000592407 2.06791e-05
1.11117e-05 2.06791e-05 -0.00131994
0.00474093 0.000137675 -7.72079e-05
0.000137675 0.000798525 -5.52069e-05
-7.72079e-05 -5.52069e-05 0.000238357
-0.000949995 9.51743e-05 3.6534e-06
9.51743e-05 -0.00106234 2.43952e-06
3.6534e-06 2.43952e-06 -0.00101843
-0.00218281 -0.000322254 5.45684e-05
-0.000322254 -0.00128513 2.64328e-05
5.45684e-05 2.64328e-05 -0.00120487
0.00167894 -0.000227861 3.04757e-05
-0.000227861 0.000564583 1.56076e-05
3.04757e-05 1.56076e-05 0.000762332
0.00318911 -0.000299074 3.59058e-05
-0.000299074 6.44473e-05 2.04401e-05
3.59058e-05 2.04401e-05 0.000949911
0.00102191 5.2335e-05 1.33064e-07
5.2335e-05 0.000123173 -1.18872e-07
1.33064e-07 -1.18872e-07 3.74791e-05
0.00016413 -8.80688e-05 -1.41137e-05
-8.80688e-05 4.28767e-05 -2.86076e-06
-1.41137e-05 -2.86076e-06 7.82573e-06
0.00175492 -2.09713e-05 -2.82089e-06
-2.09713e-05 0.000127763 -7.91429e-06
-2.82089e-06 -7.91429e-06 5.40887e-05
0.00111001 0.000113579 -2.1537e-06
0.000113579 4.43141e-05 -3.56836e-07
-2.1537e-06 -3.56836e-07 -4.50123e-05
0.000829694 5.53761e-05 -1.2152e-06
5.53761e-05 0.000138362 -4.18012e-07
-1.2152e-06 -4.18012e-07 -1.82453e-05
0.00109445 4.67055e-05 9.90506e-06
4.67055e-05 0.000274244 -7.79257e-06
9.90506e-06 -7.79257e-06 0.000227744
0.00535953 0.000442 -3.44633e-05
0.000442 0.00146156 -1.48616e-05
-3.44633e-05 -1.48616e-05 0.000879617
0.00758509 -0.000348332 4.57508e-06
-0.000348332 0.00244558 4.26682e-06
4.57508e-06 4.26682e-06 0.00138933
0.000251093 -0.000311161 5.85342e-06
-0.000311161 -0.00100323 9.50127e-06
5.85342e-06 9.50127e-06 -0.000839234
0.00304784 -0.000147595 1.62783e-06
-0.000147595 0.000159748 9.76667e-07
1.62783e-06 9.76667e-07 0.000675586
0.00144089 9.94564e-05 -3.14625e-06
9.94564e-05 0.000377181 -4.44641e-06
-3.14625e-06 -4.44641e-06 0.000303957
0.00189156 4.68421e-07 -1.67193e-05
4.68421e-07 0.000383376 -2.70365e-06
-1.67193e-05 -2.70365e-06 0.000280436
0.00147216 -4.31744e-06 -3.23121e-06
-4.31744e-06 0.000141473 -1.22521e-05
-3.23121e-06 -1.22521e-05 8.45268e-05
0.000261429 -3.68337e-05 -1.21825e-05
-3.68337e-05 -4.49402e-05 -6.37987e-06
-1.21825e-05 -6.37987e-06 -0.000166387
0.00280512 0.000241838 -9.97037e-06
0.000241838 0.00101175 4.79476e-05
-9.97037e-06 4.79476e-05 0.000646737
0.00817959 -0.000205646 1.15988e-05
-0.000205646 0.00240156 -1.14863e-05
1.15988e-05 -1.14863e-05 0.00112946
-0.00159083 -0.000168653 -4.28682e-05
-0.000168653 -0.00206902 -3.53104e-05
-4.28682e-05 -3.53104e-05 -0.00211867
0.00357385 3.04065e-05 -1.12068e-07
3.04065e-05 0.000487025 -1.51988e-05
-1.12068e-07 -1.51988e-05 0.000976331
0.000929756 5.6723e-05 1.50382e-07
5.6723e-05 6.43921e-05 2.39674e-07
1.50382e-07 2.39674e-07 -1.59517e-05
0.000958551 6.81445e-05 -1.13705e-07
6.81445e-05 9.22459e-05 -5.61412e-07
-1.13705e-07 -5.61412e-07 1.51371e-05
0.000608909 4.07535e-05 5.36817e-07
4.07535e-05 -8.60684e-05 -1.69687e-06
5.36817e-07 -1.69687e-06 -0.000153507
0.000953919 4.82754e-05 -8.16369e-07
4.82754e-05 6.87483e-05 -9.32723e-07
-8.16369e-07 -9.32723e-07 9.39664e-06
0.000937648 -2.11981e-05 1.3215e-07
-2.11981e-05 6.09595e-05 -2.02799e-07
1.3215e-07 -2.02799e-07 -4.56878e-06
0.00100101 -5.69441e-06 -7.14812e-07
-5.69441e-06 9.67339e-05 -3.97501e-08
-7.14812e-07 -3.97501e-08 2.95956e-05
0.000922616 7.41816e-06 -2.1352e-07
7.41816e-06 6.24282e-05 1.57858e-07
-2.1352e-07 1.57858e-07 -9.56659e-06
0.00097398 9.09116e-06 3.24439e-07
9.09116e-06 7.8395e-05 1.47105e-09
3.24439e-07 1.47105e-09 1.32069e-05
0.000956289 -7.27181e-06 -1.91691e-07
-7.27181e-06 6.57905e-05 1.55289e-07
-1.91691e-07 1.55289e-07 -1.68021e-06
0.00101102 -1.3199e-05 2.80744e-07
-1.3199e-05 0.00010468 3.01133e-07
2.80744e-07 3.01133e-07 3.26687e-05
0.00125563 -3.37159e-05 -2.82808e-07
-3.37159e-05 0.000233205 9.77506e-07
-2.82808e-07 9.77506e-07 0.00017169
0.00101185 -4.30327e-05 9.77407e-07
-4.30327e-05 8.27734e-05 2.1668e-07
9.77407e-07 2.1668e-07 1.77152e-05
0.000905648 3.22189e-05 9.58007e-07
3.22189e-05 4.41907e-05 5.43427e-07
9.58007e-07 5.43427e-07 -2.46531e-05
0.00094159 -1.47724e-05 8.05687e-07
-1.47724e-05 6.41265e-05 -4.08046e-07
8.05687e-07 -4.08046e-07 -6.50527e-07
0.000891792 3.63795e-05 -1.41209e-07
3.63795e-05 4.25111e-05 -6.21951e-07
-1.41209e-07 -6.21951e-07 -2.09786e-05
0.000938674 2.81078e-05 -7.69163e-07
2.81078e-05 5.56592e-05 -1.01467e-06
-7.69163e-07 -1.01467e-06 -9.49605e-06
0.000986799 3.18752e-05 -2.1949e-07
3.18752e-05 8.60029e-05 -1.96612e-07
-2.1949e-07 -1.96612e-07 1.83617e-05
0.000895718 2.86512e-05 2.52608e-07
2.86512e-05 4.79989e-05 3.30051e-07
2.52608e-07 3.30051e-07 -1.7817e-05
0.000930796 3.15648e-05 5.90151e-08
3.15648e-05 5.48584e-05 -1.73672e-07
5.90151e-08 -1.73672e-07 -1.32393e-05
0.000901704 1.28014e-05 9.0601e-07
1.28014e-05 4.7348e-05 1.30856e-06
9.0601e-07 1.30856e-06 -2.49343e-05
0.000958135 1.902e-05 1.63854e-07
1.902e-05 6.1487e-05 8.20617e-07
1.63854e-07 8.20617e-07 -6.04927e-06
0.000948452 -4.4896e-05 -1.749e-10
-4.4896e-05 8.86064e-05 5.92664e-07
-1.749e-10 5.92664e-07 2.50481e-06
0.000985209 -8.92677e-06 -1.66498e-07
-8.92677e-06 9.74542e-05 -1.17888e-08
-1.66498e-07 -1.17888e-08 1.67384e-05
0.000788602 -4.15896e-05 -2.24144e-07
-4.15896e-05 1.75832e-05 2.32057e-06
-2.24144e-07 2.32057e-06 -7.57509e-05
0.00103063 -8.9135e-05 -1.95253e-06
-8.9135e-05 0.000130058 3.07577e-06
-1.95253e-06 3.07577e-06 2.20795e-05
0.00107229 -3.55399e-05 2.93045e-07
-3.55399e-05 0.000149227 -2.03938e-07
2.93045e-07 -2.03938e-07 6.63153e-05
0.000820042 -5.37889e-05 4.23717e-07
-5.37889e-05 3.51067e-05 -1.757e-06
4.23717e-07 -1.757e-06 -5.8686e-05
0.000931166 -4.24563e-06 -1.87271e-07
-4.24563e-06 7.26916e-05 -5.92887e-07
-1.87271e-07 -5.92887e-07 -2.55441e-06
0.000781635 6.38137e-06 8.79978e-08
6.38137e-06 -1.58015e-05 1.16502e-06
8.79978e-08 1.16502e-06 -8.07168e-05
0.00093399 8.70044e-06 -1.64961e-07
8.70044e-06 7.17917e-05 -6.82488e-07
-1.64961e-07 -6.82488e-07 1.26356e-06
0.000907535 7.44441e-06 4.65224e-08
7.44441e-06 4.92229e-05 3.68481e-07
4.65224e-08 3.68481e-07 -1.01517e-05
0.000875203 1.93075e-05 -5.21334e-07
1.93075e-05 2.54092e-05 9.51733e-07
-5.21334e-07 9.51733e-07 -2.15763e-05
0.00090718 -5.28616e-06 2.11953e-07
-5.28616e-06 5.09175e-05 -6.82832e-07
2.11953e-07 -6.82832e-07 -7.56932e-06
0.00088029 4.79127e-06 -2.61346e-07
4.79127e-06 2.74479e-05 3.28003e-09
-2.61346e-07 3.28003e-09 -1.84451e-05
0.000846791 1.86483e-05 -9.16571e-07
1.86483e-05 4.07536e-06 1.716e-06
-9.16571e-07 1.716e-06 -2.51604e-05
0.000898932 -2.85894e-06 8.96959e-07
-2.85894e-06 3.54684e-05 -7.93796e-07
8.96959e-07 -7.93796e-07 -9.92078e-06
0.000854096 1.12361e-05 -1.47521e-07
1.12361e-05 4.41676e-06 4.26999e-10
-1.47521e-07 4.26999e-10 -2.38521e-05
0.00137517 2.02771e-05 -6.01834e-06
2.02771e-05 0.000276399 4.2805e-06
-6.01834e-06 4.2805e-06 0.000277556
0.000851881 2.91954e-06 9.55179e-07
2.91954e-06 1.42452e-06 -1.67424e-06
9.55179e-07 -1.67424e-06 -2.63208e-05
0.00108626 1.4808e-05 -2.46674e-06
1.4808e-05 0.000119508 5.82139e-07
-2.46674e-06 5.82139e-07 0.000119868
0.000960215 1.3852e-05 -1.21444e-06
1.3852e-05 5.30068e-05 1.56622e-06
-1.21444e-06 1.56622e-06 6.945e-05
0.000797007 9.2414e-06 5.42692e-07
9.2414e-06 -3.72499e-05 -3.1052e-06
5.42692e-07 -3.1052e-06 -3.78571e-05
0.00155331 1.11748e-05 3.7906e-06
1.11748e-05 0.000365267 -1.18843e-06
3.7906e-06 -1.18843e-06 0.000385051
0.00213968 6.39596e-06 4.51792e-06
6.39596e-06 0.00067614 -3.98077e-06
4.51792e-06 -3.98077e-06 0.000698947
0.000942892 -2.25275e-05 6.7324e-07
-2.25275e-05 6.22476e-05 -4.03492e-07
6.7324e-07 -4.03492e-07 1.77237e-05
0.000861368 -7.33394e-06 -2.59664e-07
-7.33394e-06 5.19512e-06 -1.42697e-06
-2.59664e-07 -1.42697e-06 -1.90527e-05
0.000927624 -6.83327e-06 4.45894e-07
-6.83327e-06 5.41324e-05 1.4354e-07
4.45894e-07 1.4354e-07 1.16999e-05
0.000815432 -5.12688e-06 -3.39103e-07
-5.12688e-06 -3.01744e-05 -3.0071e-06
-3.39103e-07 -3.0071e-06 -2.76104e-05
0.000864854 -4.52165e-06 -3.93575e-08
-4.52165e-06 5.0982e-06 -6.78576e-09
-3.93575e-08 -6.78576e-09 -1.80129e-05
0.00089964 -2.42269e-05 -8.63542e-07
-2.42269e-05 3.77945e-05 1.06161e-06
-8.63542e-07 1.06161e-06 -3.18562e-06
0.00202102 -3.7029e-07 -7.44856e-07
-3.7029e-07 0.000612271 -3.93148e-06
-7.44856e-07 -3.93148e-06 0.000636551
0.000809786 -1.65201e-07 -7.25824e-08
-1.65201e-07 -3.41671e-05 -6.92601e-10
-7.25824e-08 -6.92601e-10 -3.12062e-05
0.000865003 -1.53562e-06 9.37932e-09
-1.53562e-06 4.14389e-06 1.5886e-06
9.37932e-09 1.5886e-06 -1.85568e-05
0.00081157 4.86514e-06 -2.53453e-07
4.86514e-06 -3.27469e-05 3.05358e-06
-2.53453e-07 3.05358e-06 -3.02417e-05
0.00203454 6.27997e-06 -1.84255e-06
6.27997e-06 0.00061989 -1.33873e-08
-1.84255e-06 -1.33873e-08 0.000643939
0.00206247 1.2302e-05 -8.46037e-06
1.2302e-05 0.000636196 3.89794e-06
-8.46037e-06 3.89794e-06 0.000659703
-0.00108447 6.82682e-05 -1.99827e-05
6.82682e-05 -0.000560344 1.67949e-06
-1.99827e-05 1.67949e-06 -0.00068457
-0.00101656 0.000216239 1.17447e-05
0.000216239 -0.000438366 1.8007e-06
1.17447e-05 1.8007e-06 -0.000454036
0.00159566 4.389e-05 -3.6525e-05
4.389e-05 -3.06032e-05 1.99977e-05
-3.6525e-05 1.99977e-05 -5.83577e-05
-0.00127124 0.00023304 2.37764e-05
0.00023304 -0.000908833 -7.98288e-06
2.37764e-05 -7.98288e-06 -0.000669816
0.00187037 2.33759e-05 -7.76482e-05
2.33759e-05 0.000221893 -5.32836e-07
-7.76482e-05 -5.32836e-07 -8.34806e-05
0.00184522 3.77904e-05 2.42139e-05
3.77904e-05 0.000192292 -3.70389e-06
2.42139e-05 -3.70389e-06 0.000109837
0.00128163 -6.02817e-05 -4.65792e-05
-6.02817e-05 -0.000379914 -2.02235e-06
-4.65792e-05 -2.02235e-06 -0.000915906
0.00500406 0.000384263 8.20825e-05
0.000384263 0.0023923 -2.61365e-05
8.20825e-05 -2.61365e-05 0.00249633
-0.001281 0.000475802 1.39322e-05
0.000475802 -0.00200224 1.24268e-05
1.39322e-05 1.24268e-05 -0.000826462
0.00136375 7.25321e-05 -1.46566e-06
7.25321e-05 -3.42137e-05 3.27199e-06
-1.46566e-06 3.27199e-06 -0.000240065
0.00274466 0.000283447 6.93186e-06
0.000283447 0.000250993 -1.41378e-05
6.93186e-06 -1.41378e-05 -0.000808553
0.00386074 0.000582584 -4.34025e-06
0.000582584 0.00108184 -3.8775e-06
-4.34025e-06 -3.8775e-06 0.0013617
0.00214381 0.000244927 -2.4194e-06
0.000244927 -0.000439108 4.15716e-06
-2.4194e-06 4.15716e-06 0.00016104
0.00170194 1.91266e-05 -1.52435e-05
1.91266e-05 -0.000213571 -1.49768e-06
-1.52435e-05 -1.49768e-06 -0.000417177
0.00313681 0.000388175 4.9839e-05
0.000388175 0.000614075 -3.34786e-05
4.9839e-05 -3.34786e-05 -0.000558549
-0.00345393 0.000250017 -7.57048e-05
0.000250017 -0.00284361 2.85737e-05
-7.57048e-05 2.85737e-05 -0.00269849
0.00104187 0.000126511 -9.18395e-06
0.000126511 -0.00116318 1.36936e-05
-9.18395e-06 1.36936e-05 -0.000704273
0.000992946 -1.22755e-05 1.07543e-06
-1.22755e-05 0.00010858 1.92735e-07
1.07543e-06 1.92735e-07 3.23392e-05
0.000931948 3.03302e-05 -1.19741e-06
3.03302e-05 7.5368e-05 -3.58475e-07
-1.19741e-06 -3.58475e-07 8.03333e-06
0.00088884 4.22501e-06 7.04434e-07
4.22501e-06 4.4518e-05 -1.47671e-07
7.04434e-07 -1.47671e-07 -9.58745e-06
0.000926283 4.89467e-05 1.62522e-06
4.89467e-05 7.54539e-05 7.70867e-07
1.62522e-06 7.70867e-07 1.1935e-05
0.00085826 1.0652e-05 -1.62572e-07
1.0652e-05 3.63861e-05 5.61117e-07
-1.62572e-07 5.61117e-07 -3.86409e-05
0.000978804 3.0004e-05 1.59373e-07
3.0004e-05 0.000100534 5.14556e-07
1.59373e-07 5.14556e-07 3.29074e-05
0.000882266 -3.72576e-06 -3.40229e-07
-3.72576e-06 4.58183e-05 1.17649e-06
-3.40229e-07 1.17649e-06 -1.71019e-05
0.000997074 5.17443e-05 -7.72136e-07
5.17443e-05 0.000106274 1.39095e-07
-7.72136e-07 1.39095e-07 4.00584e-05
0.000977166 2.04687e-05 -3.27986e-07
2.04687e-05 9.58785e-05 3.71809e-07
-3.27986e-07 3.71809e-07 3.3001e-05
0.000807604 -2.23625e-05 -8.3645e-07
-2.23625e-05 5.86878e-06 -2.90068e-07
-8.3645e-07 -2.90068e-07 -5.34408e-05
0.00131713 -5.41684e-05 3.28405e-06
-5.41684e-05 -0.00018798 -2.03919e-06
3.28405e-06 -2.03919e-06 -0.000264258
0.00155757 -0.000166273 5.02388e-07
-0.000166273 1.39552e-05 5.07077e-06
5.02388e-07 5.07077e-06 -0.000101696
0.000654875 -0.000107065 1.06121e-05
-0.000107065 -6.05076e-05 1.14325e-06
1.06121e-05 1.14325e-06 -0.000183214
0.00100159 -6.96101e-05 3.58073e-06
-6.96101e-05 0.000121295 -1.85797e-06
3.58073e-06 -1.85797e-06 -9.44169e-06
0.00106521 -2.18454e-05 1.32177e-07
-2.18454e-05 0.000142722 -1.22357e-06
1.32177e-07 -1.22357e-06 4.12434e-05
0.000833005 -4.94233e-05 -5.92495e-07
-4.94233e-05 1.84848e-05 -4.8114e-07
-5.92495e-07 -4.8114e-07 -6.57244e-05
0.000865237 3.53556e-05 -1.07684e-07
3.53556e-05 3.99622e-05 -1.33408e-07
-1.07684e-07 -1.33408e-07 -3.77991e-05
0.000928956 -1.93367e-05 5.31307e-08
-1.93367e-05 7.53814e-05 5.95567e-07
5.31307e-08 5.95567e-07 -3.66155e-06
0.00180421 -0.000162851 1.47593e-06
-0.000162851 0.000170885 -1.67853e-07
1.47593e-06 -1.67853e-07 0.000124143
0.000987727 -3.27746e-06 -1.86389e-07
-3.27746e-06 9.94655e-05 -3.80768e-07
-1.86389e-07 -3.80768e-07 1.45247e-05
0.00110908 -3.52994e-05 -5.3476e-07
-3.52994e-05 0.00014836 -1.07328e-07
-5.3476e-07 -1.07328e-07 5.89104e-05
0.00141553 -0.000169813 -4.99338e-07
-0.000169813 0.000209771 -2.45749e-06
-4.99338e-07 -2.45749e-06 6.98939e-05
0.00109521 -2.59316e-05 -5.9281e-07
-2.59316e-05 0.000180118 8.05396e-07
-5.9281e-07 8.05396e-07 5.25188e-05
-0.000382962 -0.000167382 -2.55107e-06
-0.000167382 -0.000924755 -6.06061e-06
-2.55107e-06 -6.06061e-06 -0.000876576
0.00174329 -7.6396e-05 -1.74698e-06
-7.6396e-05 0.000524359 9.22791e-06
-1.74698e-06 9.22791e-06 0.000348523
0.000595893 2.12187e-05 -1.77658e-06
2.12187e-05 -0.000112708 4.62496e-06
-1.77658e-06 4.62496e-06 -0.0002032
0.000938284 1.13017e-05 3.55308e-07
1.13017e-05 6.55074e-05 6.57856e-07
3.55308e-07 6.57856e-07 -1.42068e-05
0.000934183 2.10822e-05 -5.54661e-07
2.10822e-05 5.74693e-05 1.07477e-06
-5.54661e-07 1.07477e-06 -3.30099e-05
0.00159589 -5.09256e-06 -3.13105e-06
-5.09256e-06 0.000249623 7.39956e-07
-3.13105e-06 7.39956e-07 0.000151428
3.01509e-05 -5.27311e-06 -2.26761e-06
-5.27311e-06 0.00010246 -7.37446e-07
-2.26761e-06 -7.37446e-07 -1.07743e-05
-0.00457557 -4.38676e-05 1.73695e-05
-4.38676e-05 -0.00244625 3.6969e-06
1.73695e-05 3.6969e-06 -0.00235525
0.000953383 6.6012e-05 1.58239e-06
6.6012e-05 9.29589e-05 5.36397e-07
1.58239e-06 5.36397e-07 5.76585e-06
8.06972e-05 1.76843e-05 2.65132e-06
1.76843e-05 -0.000226752 -7.43911e-08
2.65132e-06 -7.43911e-08 -0.000389282
0.00130958 9.07756e-05 5.7661e-06
9.07756e-05 0.000157875 -4.0139e-08
5.7661e-06 -4.0139e-08 5.30417e-05
-0.00128805 -4.63298e-05 1.43393e-05
-4.63298e-05 -0.000726031 2.47999e-06
1.43393e-05 2.47999e-06 -0.000862349
0.00276494 -0.0003739 1.53786e-05
-0.0003739 0.000382648 8.29986e-06
1.53786e-05 8.29986e-06 -0.00086013
0.00485151 0.000396704 8.12407e-05
0.000396704 0.00127335 -3.26918e-05
8.12407e-05 -3.26918e-05 0.000851159
-0.000370293 3.48665e-05 -1.11549e-05
3.48665e-05 -0.000502492 6.98671e-06
-1.11549e-05 6.98671e-06 -0.000530972
0.00505546 -0.000500668 4.38909e-05
-0.000500668 0.00140262 4.37683e-05
4.38909e-05 4.37683e-05 0.00145916
0.00189893 -1.94332e-05 2.0322e-05
-1.94332e-05 0.000199053 9.53517e-06
2.0322e-05 9.53517e-06 0.000126387
0.00240658 -0.000128135 1.31647e-05
-0.000128135 -0.000147389 1.11189e-05
1.31647e-05 1.11189e-05 0.000354427
0.0011371 8.7972e-05 8.46679e-07
8.7972e-05 0.000223534 -7.59305e-07
8.46679e-07 -7.59305e-07 0.00015145
0.0015166 1.62051e-06 -5.14678e-07
1.62051e-06 0.000185127 -2.05333e-06
-5.14678e-07 -2.05333e-06 9.54662e-05
0.00137087 -5.41635e-06 -3.48602e-06
-5.41635e-06 5.83738e-05 -2.46292e-06
-3.48602e-06 -2.46292e-06 4.59038e-06
-8.1976e-05 6.27762e-06 2.32904e-06
6.27762e-06 -0.000217072 7.82439e-08
2.32904e-06 7.82439e-08 -0.000342594
0.00287882 0.000297353 -2.48037e-05
0.000297353 0.000764992 -2.22191e-05
-2.48037e-05 -2.22191e-05 0.000460589
0.00467023 7.24713e-05 3.23701e-05
7.24713e-05 0.000845485 7.86134e-06
3.23701e-05 7.86134e-06 -0.000550703
0.00219376 1.61627e-05 1.44092e-06
1.61627e-05 -0.000378248 -6.08612e-06
1.44092e-06 -6.08612e-06 0.00011627
0.00117218 -0.000215279 -7.2712e-06
-0.000215279 -0.000599609 2.13294e-05
-7.2712e-06 2.13294e-05 -0.000628089
0.00106238 4.07824e-05 -2.22094e-06
4.07824e-05 0.000245952 -7.94458e-06
-2.22094e-06 -7.94458e-06 0.000200184
0.000812803 6.76203e-06 7.00392e-06
6.76203e-06 5.53166e-06 6.24341e-06
7.00392e-06 6.24341e-06 -6.087e-05
0.00137674 2.78964e-06 -4.72894e-06
2.78964e-06 0.000115397 -4.19756e-06
-4.72894e-06 -4.19756e-06 3.55982e-05
0.00111569 0.0001169 8.80949e-06
0.0001169 -0.00102966 -1.60693e-05
8.80949e-06 -1.60693e-05 -0.000637937
-0.00129318 6.58188e-05 8.06435e-06
6.58188e-05 -0.000666743 -5.10414e-06
8.06435e-06 -5.10414e-06 -0.000883277
0.00725479 -2.24567e-05 4.03756e-05
-2.24567e-05 0.0020297 8.14476e-06
4.03756e-05 8.14476e-06 0.000883645
-0.000623863 -1.80325e-05 1.05392e-05
-1.80325e-05 -0.00103081 -6.0683e-05
1.05392e-05 -6.0683e-05 -0.00094402
0.00128298 8.88611e-05 1.92078e-06
8.88611e-05 0.000255443 2.53676e-06
1.92078e-06 2.53676e-06 0.000179082
0.000784123 5.70564e-05 -8.78831e-07
5.70564e-05 -3.76592e-06 1.49916e-06
-8.78831e-07 1.49916e-06 -7.47395e-05
0.000886301 3.11254e-05 -1.40677e-06
3.11254e-05 6.41988e-05 -2.89283e-06
-1.40677e-06 -2.89283e-06 1.51179e-06
0.000973903 5.7619e-05 -2.31405e-07
5.7619e-05 7.94461e-05 -3.17883e-07
-2.31405e-07 -3.17883e-07 1.36629e-05
0.000948269 5.14362e-06 -4.26571e-07
5.14362e-06 6.11551e-05 -4.61733e-07
-4.26571e-07 -4.61733e-07 -5.41051e-06
0.000781192 -2.37278e-05 -7.93189e-07
-2.37278e-05 -1.1863e-05 1.41834e-06
-7.93189e-07 1.41834e-06 -8.5763e-05
0.000966308 3.60139e-05 1.32483e-07
3.60139e-05 7.30366e-05 2.48306e-08
1.32483e-07 2.48306e-08 5.55355e-06
0.00090052 -4.87287e-05 -7.35864e-08
-4.87287e-05 2.7242e-05 -2.75874e-07
-7.35864e-08 -2.75874e-07 -3.94419e-05
0.00107374 -5.30591e-05 2.39315e-06
-5.30591e-05 0.000134484 1.3322e-06
2.39315e-06 1.3322e-06 6.82199e-05
0.000840439 -1.05426e-05 3.25437e-07
-1.05426e-05 2.95895e-05 1.51391e-06
3.25437e-07 1.51391e-06 -1.84253e-05
0.000942764 -1.24439e-05 3.87935e-07
-1.24439e-05 4.24085e-05 1.95608e-07
3.87935e-07 1.95608e-07 -2.25469e-05
0.000967666 3.15009e-05 -6.38632e-07
3.15009e-05 7.42488e-05 -5.48453e-07
-6.38632e-07 -5.48453e-07 7.89411e-06
0.000914438 3.1912e-05 -7.32353e-08
3.1912e-05 5.93625e-05 -4.96694e-07
-7.32353e-08 -4.96694e-07 -7.16215e-06
0.000916312 3.47881e-05 -4.58051e-07
3.47881e-05 4.68454e-05 -1.10805e-06
-4.58051e-07 -1.10805e-06 -2.10435e-05
0.000943638 1.39354e-05 3.33802e-08
1.39354e-05 5.41509e-05 2.55783e-07
3.33802e-08 2.55783e-07 -1.34859e-05
0.000953665 1.40282e-05 4.85501e-07
1.40282e-05 7.32068e-05 3.6281e-07
4.85501e-07 3.6281e-07 1.54939e-06
0.000861027 -4.03721e-05 1.04785e-07
-4.03721e-05 4.33875e-05 1.24801e-06
1.04785e-07 1.24801e-06 -3.35845e-05
0.000891057 -3.10982e-05 -1.1898e-07
-3.10982e-05 5.97606e-05 -6.30669e-07
-1.1898e-07 -6.30669e-07 -2.41308e-05
0.000868733 -4.96227e-05 7.96432e-07
-4.96227e-05 6.74966e-05 1.58603e-06
7.96432e-07 1.58603e-06 -3.86332e-05
0.00108513 -1.44817e-05 -4.91811e-07
-1.44817e-05 0.000148926 -1.11181e-06
-4.91811e-07 -1.11181e-06 6.83314e-05
0.00103882 -5.23411e-05 -2.71536e-07
-5.23411e-05 0.000141459 7.38637e-07
-2.71536e-07 7.38637e-07 4.71586e-05
0.000592726 -7.2847e-05 -1.62945e-06
-7.2847e-05 -9.35022e-05 2.9018e-06
-1.62945e-06 2.9018e-06 -0.000209366
0.00095473 -8.62212e-05 -3.0127e-06
-8.62212e-05 9.35851e-05 6.49355e-07
-3.0127e-06 6.49355e-07 -1.60275e-05
0.000984022 -6.54401e-05 -1.12211e-06
-6.54401e-05 0.0001076 1.34171e-06
-1.12211e-06 1.34171e-06 1.64785e-05
0.000922465 -8.394e-05 -1.83942e-09
-8.394e-05 7.66599e-05 1.48112e-07
-1.83942e-09 1.48112e-07 -3.1108e-05
0.00092534 -9.3163e-06 -3.09937e-08
-9.3163e-06 6.14578e-05 1.19588e-06
-3.09937e-08 1.19588e-06 -8.7309e-06
0.00101065 -3.71755e-05 -4.94017e-07
-3.71755e-05 0.000116411 -5.00502e-07
-4.94017e-07 -5.00502e-07 3.23872e-05
0.000825677 -5.61215e-05 9.82216e-07
-5.61215e-05 3.92334e-05 -2.9657e-06
9.82216e-07 -2.9657e-06 -5.22868e-05
0.00109191 -5.56755e-06 -3.83152e-07
-5.56755e-06 0.000156618 -1.5582e-06
-3.83152e-07 -1.5582e-06 8.25535e-05
0.000862345 6.02692e-06 4.18138e-08
6.02692e-06 2.66037e-05 -2.67545e-08
4.18138e-08 -2.67545e-08 -3.724e-05
0.000879378 2.34279e-05 -3.22447e-07
2.34279e-05 2.93549e-05 1.15188e-06
-3.22447e-07 1.15188e-06 -2.07493e-05
0.000925729 2.40411e-06 2.41143e-07
2.40411e-06 5.96094e-05 -5.06485e-07
2.41143e-07 -5.06485e-07 -4.16963e-07
0.00088163 1.47943e-05 -2.57329e-07
1.47943e-05 2.89525e-05 -6.30752e-08
-2.57329e-07 -6.30752e-08 -1.81503e-05
0.000840535 2.27215e-05 -1.11689e-06
2.27215e-05 4.35706e-06 1.74387e-06
-1.11689e-06 1.74387e-06 -2.60812e-05
0.000887992 -9.48176e-07 7.46896e-07
-9.48176e-07 3.1336e-05 -8.96551e-07
7.46896e-07 -8.96551e-07 -1.45877e-05
0.000847854 1.75839e-05 -8.08082e-08
1.75839e-05 4.16025e-06 2.26806e-09
-8.08082e-08 2.26806e-09 -2.49888e-05
0.00134626 2.52798e-05 -6.77917e-06
2.52798e-05 0.000266517 3.08066e-06
-6.77917e-06 3.08066e-06 0.000266608
0.000854274 7.45281e-06 1.03539e-06
7.45281e-06 4.10996e-06 -1.66879e-06
1.03539e-06 -1.66879e-06 -2.40427e-05
0.00108296 1.95799e-05 -3.05219e-06
1.95799e-05 0.000121455 5.54221e-07
-3.05219e-06 5.54221e-07 0.000121108
0.000950671 1.85326e-05 -1.76071e-06
1.85326e-05 5.23589e-05 1.57103e-06
-1.76071e-06 1.57103e-06 6.79693e-05
0.000795698 1.37307e-05 8.33136e-07
1.37307e-05 -3.52972e-05 -3.13878e-06
8.33136e-07 -3.13878e-06 -3.63349e-05
0.0015487 1.68221e-05 5.04777e-06
1.68221e-05 0.000365821 -1.13893e-06
5.04777e-06 -1.13893e-06 0.000385101
0.0021363 1.28963e-05 7.80793e-06
1.28963e-05 0.000676273 -3.91952e-06
7.80793e-06 -3.91952e-06 0.000698764
0.000734915 -1.18129e-06 -2.99733e-07
-1.18129e-06 -4.3532e-05 -1.07446e-06
-2.99733e-07 -1.07446e-06 -9.51649e-05
0.000630803 -1.13567e-05 -1.99732e-07
-1.13567e-05 -0.000112651 -1.83911e-06
-1.99732e-07 -1.83911e-06 -0.000140586
0.000961773 -9.7996e-06 -2.91015e-08
-9.7996e-06 7.33684e-05 2.267e-08
-2.91015e-08 2.267e-08 2.78379e-05
0.000816029 -9.7654e-06 -4.79302e-07
-9.7654e-06 -2.75294e-05 -2.99899e-06
-4.79302e-07 -2.99899e-06 -2.61167e-05
0.000742153 -7.82287e-06 3.70938e-08
-7.82287e-06 -5.71556e-05 1.18306e-08
3.70938e-08 1.18306e-08 -8.22797e-05
0.000738802 -3.27788e-05 2.62868e-08
-3.27788e-05 -4.40168e-05 6.35973e-07
2.62868e-08 6.35973e-07 -8.8021e-05
0.0020284 -6.58575e-06 -4.49427e-06
-6.58575e-06 0.000617158 -3.92787e-06
-4.49427e-06 -3.92787e-06 0.000641159
0.000809129 -4.94532e-06 -1.48906e-07
-4.94532e-06 -3.36093e-05 -1.10033e-08
-1.48906e-07 -1.10033e-08 -3.09839e-05
0.000863901 -5.11813e-06 1.33919e-08
-5.11813e-06 4.54302e-06 1.53938e-06
1.33919e-08 1.53938e-06 -1.85583e-05
0.00201973 -2.87078e-08 -1.80405e-06
-2.87078e-08 0.000611569 -7.12908e-10
-1.80405e-06 -7.12908e-10 0.000635855
0.000809851 4.98597e-08 1.67901e-08
4.98597e-08 -3.41748e-05 3.03959e-06
1.67901e-08 3.03959e-06 -3.12151e-05
0.0020372 6.60631e-06 -4.28208e-06
6.60631e-06 0.000621471 3.94121e-06
-4.28208e-06 3.94121e-06 0.000645449
0.00109715 1.81879e-06 -1.70004e-05
1.81879e-06 -6.4886e-05 5.15033e-06
-1.70004e-05 5.15033e-06 -0.000171019
0.00114533 0.000107187 1.45366e-06
0.000107187 0.000639619 -2.25023e-06
1.45366e-06 -2.25023e-06 0.000664852
0.000533005 1.40371e-05 6.79744e-05
1.40371e-05 0.000269018 -1.36246e-05
6.79744e-05 -1.36246e-05 0.000108047
0.000917505 1.8167e-05 -1.06722e-07
1.8167e-05 5.75424e-05 -2.78543e-08
-1.06722e-07 -2.78543e-08 -9.40351e-06
0.00139286 2.40889e-05 -1.25549e-06
2.40889e-05 8.61656e-05 9.83276e-06
-1.25549e-06 9.83276e-06 3.65361e-05
0.00134741 3.5465e-05 -1.19575e-05
3.5465e-05 -0.000174537 4.39571e-06
-1.19575e-05 4.39571e-06 -0.000230412
0.00123533 0.00026915 4.05724e-05
0.00026915 0.000337461 -2.23671e-05
4.05724e-05 -2.23671e-05 0.00074047
0.0032697 8.30128e-05 -3.85479e-05
8.30128e-05 0.000696549 8.79798e-06
-3.85479e-05 8.79798e-06 0.000473945
0.0080719 0.000492983 1.87117e-05
0.000492983 0.00276936 -9.39082e-06
1.87117e-05 -9.39082e-06 0.00182073
-0.00235766 0.000377997 4.72833e-05
0.000377997 -0.0018544 -1.38251e-05
4.72833e-05 -1.38251e-05 -0.00147885
0.00296211 0.000256228 2.5367e-05
0.000256228 0.000102918 -1.96889e-05
2.5367e-05 -1.96889e-05 0.000674044
0.00214503 3.74201e-05 -3.87002e-05
3.74201e-05 -0.000330125 4.38552e-06
-3.87002e-05 4.38552e-06 -0.000635613
0.00676911 0.000371848 3.57247e-05
0.000371848 0.00231522 -1.32022e-05
3.57247e-05 -1.32022e-05 0.00122313
0.00323341 0.00040102 -4.64959e-06
0.00040102 6.32024e-05 4.58695e-06
-4.64959e-06 4.58695e-06 0.0001777
0.0028745 0.000141618 -3.31013e-06
0.000141618 -0.000114388 2.03183e-06
-3.31013e-06 2.03183e-06 0.000385507
0.00488279 -0.000178873 4.37389e-05
-0.000178873 0.000976561 -2.87911e-05
4.37389e-05 -2.87911e-05 0.000596901
0.00699382 0.000394674 2.57495e-05
0.000394674 0.00222414 -6.5047e-06
2.57495e-05 -6.5047e-06 0.000746791
0.00206038 0.000292585 8.98126e-06
0.000292585 -0.000539053 4.97461e-05
8.98126e-06 4.97461e-05 -0.00054508
0.00351005 4.53175e-05 3.97714e-07
4.53175e-05 0.000333128 8.22628e-06
3.97714e-07 8.22628e-06 0.000866251
0.000922931 -1.62102e-05 4.30594e-07
-1.62102e-05 6.5374e-05 2.95482e-07
4.30594e-07 2.95482e-07 -1.42564e-05
0.000959672 -2.68298e-05 4.36124e-07
-2.68298e-05 9.24241e-05 6.56827e-09
4.36124e-07 6.56827e-09 1.50699e-05
0.000992183 3.61925e-05 -8.70895e-07
3.61925e-05 0.000108326 8.79879e-08
-8.70895e-07 8.79879e-08 4.09829e-05
0.000924358 -7.08015e-06 -2.16305e-07
-7.08015e-06 6.20216e-05 -1.57738e-07
-2.16305e-07 -1.57738e-07 -9.49475e-06
0.00095229 3.68947e-05 -4.87766e-07
3.68947e-05 8.59506e-05 3.36736e-07
-4.87766e-07 3.36736e-07 1.21494e-05
0.00100394 1.56335e-05 4.84031e-07
1.56335e-05 0.000114438 9.55913e-07
4.84031e-07 9.55913e-07 4.69828e-05
0.0010489 4.92534e-05 -4.71521e-07
4.92534e-05 0.000132621 1.20935e-07
-4.71521e-07 1.20935e-07 6.68822e-05
0.00108311 5.30771e-05 7.06e-07
5.30771e-05 0.000153351 8.49976e-07
7.06e-07 8.49976e-07 8.98091e-05
0.00123806 -0.0001537 1.05899e-05
-0.0001537 -0.00011242 -9.13168e-06
1.05899e-05 -9.13168e-06 -0.000145558
0.00108629 -0.000151003 3.51652e-06
-0.000151003 5.35354e-05 -1.116e-06
3.51652e-06 -1.116e-06 -9.2142e-05
0.000943169 -8.68218e-05 -1.93219e-06
-8.68218e-05 8.7262e-05 2.94189e-08
-1.93219e-06 2.94189e-08 4.97901e-06
0.00140273 -4.45848e-05 1.492e-06
-4.45848e-05 0.000322647 -2.21621e-06
1.492e-06 -2.21621e-06 0.000199532
0.00114845 -4.54329e-05 -1.35825e-06
-4.54329e-05 0.000167952 -9.7777e-07
-1.35825e-06 -9.7777e-07 7.79215e-05
0.00107376 -1.03684e-05 -8.76619e-07
-1.03684e-05 0.000141608 -5.48172e-07
-8.76619e-07 -5.48172e-07 5.97392e-05
0.000997484 1.33549e-05 2.55894e-08
1.33549e-05 9.99066e-05 -4.23272e-08
2.55894e-08 -4.23272e-08 1.84841e-05
0.0014782 -0.000241339 -3.73667e-06
-0.000241339 -2.36195e-05 -1.03333e-06
-3.73667e-06 -1.03333e-06 8.47328e-06
0.00101695 9.71061e-06 1.33056e-07
9.71061e-06 0.000106159 -6.67161e-07
1.33056e-07 -6.67161e-07 1.49654e-05
0.00106367 -1.89802e-05 -1.15784e-06
-1.89802e-05 0.00013174 1.03155e-07
-1.15784e-06 1.03155e-07 3.46047e-05
0.00114895 -6.9398e-05 -6.60557e-07
-6.9398e-05 0.000221684 1.23491e-06
-6.60557e-07 1.23491e-06 4.47573e-05
0.00110341 2.12944e-06 1.1465e-07
2.12944e-06 0.000144938 8.65512e-07
1.1465e-07 8.65512e-07 6.89488e-05
-0.00158453 -0.00020797 -2.68197e-06
-0.00020797 -0.00123489 -9.3396e-06
-2.68197e-06 -9.3396e-06 -0.00124123
0.0014498 3.29984e-05 -5.4206e-06
3.29984e-05 0.000507002 1.35424e-05
-5.4206e-06 1.35424e-05 0.000342272
0.000567231 6.6698e-06 -7.90349e-07
6.6698e-06 -0.000140286 3.31472e-06
-7.90349e-07 3.31472e-06 -0.000219548
0.00101781 7.14179e-05 2.27547e-07
7.14179e-05 0.000107103 1.23842e-06
2.27547e-07 1.23842e-06 2.25599e-05
0.00116744 -1.22111e-06 1.37779e-05
-1.22111e-06 0.000245232 2.71931e-06
1.37779e-05 2.71931e-06 0.000164683
0.00143374 -7.11763e-06 8.30881e-06
-7.11763e-06 0.000171933 3.19437e-07
8.30881e-06 3.19437e-07 7.00396e-05
-0.00107757 -5.34731e-06 1.56867e-05
-5.34731e-06 -0.000496948 -2.96141e-07
1.56867e-05 -2.96141e-07 -0.000658015
0.000777855 7.1003e-05 4.31087e-06
7.1003e-05 4.14497e-05 1.44798e-06
4.31087e-06 1.44798e-06 -2.84812e-05
-0.000394478 2.41241e-05 -3.71588e-06
2.41241e-05 -0.000359304 3.98317e-06
-3.71588e-06 3.98317e-06 -0.000489608
0.00115784 1.71853e-06 1.17444e-05
1.71853e-06 -6.77785e-06 -1.58464e-06
1.17444e-05 -1.58464e-06 -8.15853e-05
0.00545993 -0.000441771 5.90371e-05
-0.000441771 0.0014736 1.88018e-05
5.90371e-05 1.88018e-05 0.000127761
0.005762 0.000422247 -2.50251e-05
0.000422247 0.00188307 -6.76937e-05
-2.50251e-05 -6.76937e-05 0.00130613
0.00294869 -0.000323544 1.01794e-05
-0.000323544 -0.000115698 7.76502e-05
1.01794e-05 7.76502e-05 -0.000102264
0.00135569 -7.34996e-06 -4.31631e-06
-7.34996e-06 3.80561e-05 7.45105e-06
-4.31631e-06 7.45105e-06 -1.38774e-05
0.00101001 1.35829e-05 -1.73512e-07
1.35829e-05 -0.00113766 4.03339e-06
-1.73512e-07 4.03339e-06 -0.000638954
0.000928272 5.74908e-05 -1.77115e-07
5.74908e-05 0.000172478 -9.07358e-09
-1.77115e-07 -9.07358e-09 0.000118013
0.000913551 6.55955e-06 -1.25809e-06
6.55955e-06 7.33096e-05 3.04116e-07
-1.25809e-06 3.04116e-07 8.17917e-06
0.00127297 1.12794e-06 -2.92625e-06
1.12794e-06 0.000117565 -1.03955e-07
-2.92625e-06 -1.03955e-07 3.95501e-05
-0.000404877 7.27529e-05 3.556e-06
7.27529e-05 -0.000143805 -1.45319e-06
3.556e-06 -1.45319e-06 -0.000288371
0.00283223 0.000136813 2.61504e-06
0.000136813 -6.55198e-05 -2.12107e-06
2.61504e-06 -2.12107e-06 0.00038439
0.00521471 0.000202489 3.52773e-05
0.000202489 0.00081619 -5.93817e-07
3.52773e-05 -5.93817e-07 -0.000137739
0.00328921 0.000112122 -4.3759e-05
0.000112122 0.000535469 -3.25075e-06
-4.3759e-05 -3.25075e-06 0.000518531
-4.39614e-05 5.22679e-05 2.07388e-07
5.22679e-05 -0.000151302 -1.13272e-05
2.07388e-07 -1.13272e-05 -0.000230882
0.00100199 -1.02943e-06 -7.00148e-06
-1.02943e-06 0.000144423 1.13025e-05
-7.00148e-06 1.13025e-05 4.99203e-05
0.00135914 1.63513e-05 3.65128e-06
1.63513e-05 6.90847e-05 -9.96e-06
3.65128e-06 -9.96e-06 1.21037e-05
0.00286934 0.000249486 3.44622e-05
0.000249486 4.75823e-05 -1.98411e-05
3.44622e-05 -1.98411e-05 0.000642646
0.00166174 0.000333035 -6.70963e-06
0.000333035 -0.000650869 -5.49941e-05
-6.70963e-06 -5.49941e-05 -0.000667611
0.00128524 0.000191591 1.92121e-05
0.000191591 0.000315094 -1.2721e-05
1.92121e-05 -1.2721e-05 0.000338037
0.00290333 -0.000187238 8.62049e-05
-0.000187238 0.000319539 6.7481e-06
8.62049e-05 6.7481e-06 -0.000842211
0.000975174 7.52884e-05 -7.62643e-07
7.52884e-05 8.87122e-05 5.31757e-06
-7.62643e-07 5.31757e-06 1.39086e-05
0.00106761 1.96624e-05 1.1962e-06
1.96624e-05 0.00015255 2.41969e-06
1.1962e-06 2.41969e-06 9.43995e-05
0.000266833 -2.58679e-05 3.88061e-06
-2.58679e-05 -9.35365e-05 -5.07867e-06
3.88061e-06 -5.07867e-06 -0.000198979
0.00103342 1.51598e-05 -5.24494e-07
1.51598e-05 0.000104485 -4.53611e-07
-5.24494e-07 -4.53611e-07 3.89962e-05
0.000836906 -5.08944e-05 -7.6569e-07
-5.08944e-05 -4.65091e-06 -3.81469e-08
-7.6569e-07 -3.81469e-08 -7.19591e-05
0.00096879 -5.03813e-05 -2.22925e-07
-5.03813e-05 7.60618e-05 8.09222e-07
-2.22925e-07 8.09222e-07 6.62129e-06
0.000978195 -2.48959e-05 4.48735e-08
-2.48959e-05 6.50631e-05 -2.59851e-07
4.48735e-08 -2.59851e-07 -1.16622e-06
0.000824996 -2.04274e-05 -7.4708e-07
-2.04274e-05 7.71445e-06 1.90334e-06
-7.4708e-07 1.90334e-06 -3.8578e-05
0.000684283 -3.96228e-05 1.37525e-06
-3.96228e-05 -5.98233e-06 -7.69005e-08
1.37525e-06 -7.69005e-08 -0.000103972
0.000935061 6.07241e-06 -2.68e-07
6.07241e-06 5.07017e-05 -3.71912e-07
-2.68e-07 -3.71912e-07 -1.73973e-05
0.00101743 2.60412e-05 -2.70819e-08
2.60412e-05 0.000104983 -4.27767e-07
-2.70819e-08 -4.27767e-07 3.38926e-05
0.00104233 -3.79571e-05 1.74098e-07
-3.79571e-05 0.000131225 2.54177e-07
1.74098e-07 2.54177e-07 5.28577e-05
0.000695845 -4.91754e-05 1.91655e-06
-4.91754e-05 1.51993e-05 1.92679e-06
1.91655e-06 1.92679e-06 -9.92479e-05
0.000845633 -1.94924e-05 -1.61078e-06
-1.94924e-05 3.73961e-05 -1.40599e-06
-1.61078e-06 -1.40599e-06 -4.45949e-05
0.0007375 -5.33276e-05 1.66152e-07
-5.33276e-05 4.49416e-06 -4.72399e-08
1.66152e-07 -4.72399e-08 -9.86931e-05
0.00103739 -9.77126e-05 6.74907e-07
-9.77126e-05 0.000147043 1.51151e-06
6.74907e-07 1.51151e-06 1.56935e-05
0.00112996 -0.000101469 -3.86641e-06
-0.000101469 0.000145852 2.63918e-06
-3.86641e-06 2.63918e-06 2.14132e-05
0.00128557 -6.40036e-05 -1.52671e-07
-6.40036e-05 0.000263569 -1.25525e-06
-1.52671e-07 -1.25525e-06 0.00016821
0.000794926 -8.21518e-05 -6.85052e-07
-8.21518e-05 4.79155e-06 3.78687e-07
-6.85052e-07 3.78687e-07 -0.000114271
0.0013346 -0.000104463 -6.00118e-07
-0.000104463 0.000283071 -3.76479e-07
-6.00118e-07 -3.76479e-07 0.000178259
0.000736266 -6.55718e-05 -1.5305e-06
-6.55718e-05 -1.01098e-05 4.71734e-07
-1.5305e-06 4.71734e-07 -0.000107847
0.000954101 -8.58136e-05 2.83996e-07
-8.58136e-05 9.28999e-05 -3.14684e-07
2.83996e-07 -3.14684e-07 -1.47049e-05
0.000960675 -1.63068e-05 -6.96151e-07
-1.63068e-05 8.18451e-05 9.28999e-07
-6.96151e-07 9.28999e-07 7.07491e-06
0.00104361 -6.59916e-05 -1.05352e-06
-6.59916e-05 0.000136514 8.18359e-07
-1.05352e-06 8.18359e-07 4.52962e-05
0.000810406 -7.85924e-05 5.29208e-07
-7.85924e-05 2.12942e-05 -1.76853e-06
5.29208e-07 -1.76853e-06 -8.6259e-05
0.000901921 2.02616e-05 -3.45794e-07
2.02616e-05 4.36306e-05 1.33749e-06
-3.45794e-07 1.33749e-06 -1.16082e-05
0.000860318 -7.58743e-06 3.45778e-07
-7.58743e-06 2.72631e-05 8.80952e-08
3.45778e-07 8.80952e-08 -4.31127e-05
0.000951409 -3.87078e-05 1.22892e-06
-3.87078e-05 8.48106e-05 -1.83729e-06
1.22892e-06 -1.83729e-06 -3.29421e-07
0.000942745 5.29398e-06 7.72276e-08
5.29398e-06 6.88413e-05 -1.10886e-06
7.72276e-08 -1.10886e-06 6.06802e-06
0.000880955 2.06957e-05 -9.29858e-08
2.06957e-05 3.01777e-05 -1.12951e-07
-9.29858e-08 -1.12951e-07 -1.99327e-05
0.000835696 2.78874e-05 -1.15332e-06
2.78874e-05 6.38878e-06 1.79074e-06
-1.15332e-06 1.79074e-06 -2.61397e-05
0.000882139 9.25342e-06 4.62233e-07
9.25342e-06 2.93767e-05 -1.08084e-06
4.62233e-07 -1.08084e-06 -1.78047e-05
0.000840898 2.37093e-05 2.71451e-09
2.37093e-05 4.31783e-06 -1.68106e-09
2.71451e-09 -1.68106e-09 -2.61534e-05
0.000764525 2.59261e-05 -1.61057e-06
2.59261e-05 -3.68844e-05 3.28163e-06
-1.61057e-06 3.28163e-06 -4.11878e-05
0.000851143 1.59728e-05 9.66958e-07
1.59728e-05 5.40271e-06 -1.70482e-06
9.66958e-07 -1.70482e-06 -2.36483e-05
0.000781971 2.22607e-05 1.37061e-07
2.22607e-05 -3.35992e-05 1.51161e-08
1.37061e-07 1.51161e-08 -3.64941e-05
0.00207832 3.40295e-05 -4.81478e-06
3.40295e-05 0.000657546 1.53916e-06
-4.81478e-06 1.53916e-06 0.000677614
0.000794961 1.81801e-05 1.11467e-06
1.81801e-05 -3.19686e-05 -3.16559e-06
1.11467e-06 -3.16559e-06 -3.37356e-05
0.00154248 2.22941e-05 6.19281e-06
2.22941e-05 0.000366644 -1.08625e-06
6.19281e-06 -1.08625e-06 0.000385163
0.00213036 1.9216e-05 1.09975e-05
1.9216e-05 0.000676208 -3.83881e-06
1.09975e-05 -3.83881e-06 0.000698174
0.000754626 -2.14079e-05 1.00775e-07
-2.14079e-05 -3.85027e-05 -9.98744e-07
1.00775e-07 -9.98744e-07 -9.01581e-05
0.000602753 -1.43546e-05 -2.98654e-07
-1.43546e-05 -0.000124196 -1.93123e-06
-2.98654e-07 -1.93123e-06 -0.000155387
0.000859593 -2.91867e-06 -2.15437e-07
-2.91867e-06 2.13223e-05 -5.48463e-07
-2.15437e-07 -5.48463e-07 -2.95909e-05
0.000813006 -1.44589e-05 -5.67109e-07
-1.44589e-05 -2.54739e-05 -3.05542e-06
-5.67109e-07 -3.05542e-06 -2.58908e-05
0.000616434 -1.14473e-05 1.32763e-08
-1.14473e-05 -0.00012 -5.78749e-07
1.32763e-08 -5.78749e-07 -0.000148258
0.000977199 -6.23227e-07 -1.30438e-07
-6.23227e-07 8.30638e-05 4.97643e-07
-1.30438e-07 4.97643e-07 3.62468e-05
0.00205653 -1.28929e-05 -7.869e-06
-1.28929e-05 0.000634305 -3.92603e-06
-7.869e-06 -3.92603e-06 0.000657569
0.000805608 -9.5908e-06 -1.1433e-07
-9.5908e-06 -3.3102e-05 -1.92604e-08
-1.1433e-07 -1.92604e-08 -3.15958e-05
0.000616952 -8.13922e-06 1.10108e-07
-8.13922e-06 -0.000122537 1.38267e-06
1.10108e-07 1.38267e-06 -0.000148532
0.00202529 -6.29002e-06 -1.92565e-06
-6.29002e-06 0.000615312 1.26614e-08
-1.92565e-06 1.26614e-08 0.000639385
0.000803713 -4.76989e-06 1.49315e-07
-4.76989e-06 -3.65578e-05 3.0154e-06
1.49315e-07 3.0154e-06 -3.38786e-05
0.00202091 3.17954e-07 -6.17701e-07
3.17954e-07 0.000612175 3.93644e-06
-6.17701e-07 3.93644e-06 0.00063645
0.00101662 -3.3905e-06 7.58912e-06
-3.3905e-06 8.58823e-05 -3.00807e-06
7.58912e-06 -3.00807e-06 5.25844e-06
0.00115493 -5.3979e-07 -1.90742e-06
-5.3979e-07 -2.78635e-05 9.94745e-07
-1.90742e-06 9.94745e-07 -0.000130403
0.000983129 8.06446e-05 2.96274e-05
8.06446e-05 0.000609165 -4.78522e-06
2.96274e-05 -4.78522e-06 0.000588012
0.000945955 1.97367e-05 1.18712e-07
1.97367e-05 7.10623e-05 6.44447e-08
1.18712e-07 6.44447e-08 5.78453e-06
0.00086968 -1.49669e-06 2.77284e-08
-1.49669e-06 2.58015e-05 -7.71909e-08
2.77284e-08 -7.71909e-08 -3.95747e-05
0.00101111 3.04219e-05 -3.21367e-07
3.04219e-05 0.000109588 6.22417e-07
-3.21367e-07 6.22417e-07 3.75141e-05
0.0013484 1.35113e-05 5.09953e-06
1.35113e-05 9.99141e-05 9.19471e-06
5.09953e-06 9.19471e-06 2.3422e-05
0.0012417 1.95182e-05 -3.60779e-06
1.95182e-05 -6.9534e-06 3.09016e-06
-3.60779e-06 3.09016e-06 -6.11018e-05
0.00102952 2.85964e-05 1.33242e-05
2.85964e-05 -0.000352862 -1.45238e-05
1.33242e-05 -1.45238e-05 -0.0004484
0.00246069 1.8934e-05 -4.50738e-05
1.8934e-05 -0.000135108 1.30847e-05
-4.50738e-05 1.30847e-05 -0.000339023
0.00120018 0.000308829 1.63891e-06
0.000308829 -9.99478e-05 7.6494e-06
1.63891e-06 7.6494e-06 -0.00133026
0.00458273 0.000488799 5.37428e-05
0.000488799 0.00105066 -2.64338e-05
5.37428e-05 -2.64338e-05 0.0010759
0.00145864 0.000110257 5.25974e-06
0.000110257 -0.00101622 -1.33681e-05
5.25974e-06 -1.33681e-05 -0.000501495
0.00240245 -0.000111695 -2.31033e-06
-0.000111695 -7.28102e-05 6.52499e-06
-2.31033e-06 6.52499e-06 -0.000148325
0.00548636 0.000189409 3.4453e-05
0.000189409 0.00150827 -3.43771e-05
3.4453e-05 -3.43771e-05 0.000176376
0.000866715 9.58985e-05 -8.59983e-06
9.58985e-05 -0.000743297 9.25417e-06
-8.59983e-06 9.25417e-06 -0.000660082
0.00233188 3.19593e-05 -6.00379e-07
3.19593e-05 -0.000370897 1.62735e-06
-6.00379e-07 1.62735e-06 0.000159116
0.00590519 -0.000435068 5.20003e-06
-0.000435068 0.00160279 -6.08968e-05
5.20003e-06 -6.08968e-05 0.00138309
0.00808101 0.000209022 4.22179e-05
0.000209022 0.00276148 -2.27873e-05
4.22179e-05 -2.27873e-05 0.00144028
-0.000226622 4.52612e-05 1.28054e-05
4.52612e-05 -0.000930332 5.01772e-05
1.28054e-05 5.01772e-05 -0.000912751
0.000687207 -8.46141e-05 5.59484e-06
-8.46141e-05 -0.00128673 6.19035e-06
5.59484e-06 6.19035e-06 -0.000815873
0.000985786 -5.86105e-07 4.20238e-09
-5.86105e-07 8.99229e-05 7.61194e-07
4.20238e-09 7.61194e-07 1.18464e-05
0.000920577 -1.04757e-05 -2.67497e-08
-1.04757e-05 6.59155e-05 -1.60978e-07
-2.67497e-08 -1.60978e-07 -1.49124e-05
0.000943548 -3.51939e-05 -3.49608e-07
-3.51939e-05 8.41109e-05 -1.15938e-07
-3.49608e-07 -1.15938e-07 6.32686e-06
0.000928591 1.11056e-05 -3.42731e-07
1.11056e-05 6.46304e-05 -4.52038e-07
-3.42731e-07 -4.52038e-07 -7.24323e-06
0.00104851 6.88433e-05 1.16386e-06
6.88433e-05 0.000136579 1.66673e-07
1.16386e-06 1.66673e-07 6.40548e-05
0.00109636 5.14407e-05 1.70272e-08
5.14407e-05 0.000157925 2.6319e-07
1.70272e-08 2.6319e-07 9.18328e-05
0.00303141 -0.000301243 2.6125e-06
-0.000301243 0.000745686 -5.8284e-06
2.6125e-06 -5.8284e-06 0.000741991
-6.32948e-05 -3.7322e-05 3.77313e-06
-3.7322e-05 -0.000369973 -9.29669e-07
3.77313e-06 -9.29669e-07 -0.000563342
0.0010784 3.58719e-05 2.6597e-07
3.58719e-05 0.000146332 -4.8083e-07
2.6597e-07 -4.8083e-07 6.2901e-05
0.00133229 -5.92198e-05 9.99429e-07
-5.92198e-05 0.000271804 -4.24614e-06
9.99429e-07 -4.24614e-06 0.000167986
0.00116588 6.36146e-07 -1.33796e-07
6.36146e-07 0.000185652 -1.85925e-06
-1.33796e-07 -1.85925e-06 9.66165e-05
0.000994847 -3.34882e-06 4.3042e-07
-3.34882e-06 8.7129e-05 -1.19227e-07
4.3042e-07 -1.19227e-07 1.04442e-05
0.000992563 3.65477e-05 2.01185e-07
3.65477e-05 9.29214e-05 -1.13507e-07
2.01185e-07 -1.13507e-07 1.03589e-05
0.000716568 -0.000235096 -5.8667e-06
-0.000235096 -9.93217e-05 3.00321e-06
-5.8667e-06 3.00321e-06 -0.000117348
0.000982697 -1.68561e-05 9.0511e-07
-1.68561e-05 7.69681e-05 -1.10999e-06
9.0511e-07 -1.10999e-06 -1.37466e-06
0.000973945 2.56484e-05 -2.09263e-06
2.56484e-05 0.000309375 -1.85659e-06
-2.09263e-06 -1.85659e-06 0.000157974
0.000959812 -3.21269e-07 8.43391e-07
-3.21269e-07 7.34688e-05 6.22711e-07
8.43391e-07 6.22711e-07 1.97188e-07
-0.00162192 -9.96084e-05 -4.52957e-07
-9.96084e-05 -0.000810198 -1.14244e-05
-4.52957e-07 -1.14244e-05 -0.00103596
0.000597077 -1.21997e-06 -1.57814e-06
-1.21997e-06 6.9513e-05 2.00913e-05
-1.57814e-06 2.00913e-05 3.66434e-05
0.00100727 -1.85848e-05 4.86277e-07
-1.85848e-05 9.55986e-05 2.34907e-06
4.86277e-07 2.34907e-06 1.72736e-05
0.00108802 1.4936e-06 -2.4623e-07
1.4936e-06 0.000229942 3.47437e-07
-2.4623e-07 3.47437e-07 0.000120166
0.000952967 -3.39037e-07 2.65985e-06
-3.39037e-07 0.000120764 1.39073e-06
2.65985e-06 1.39073e-06 3.356e-05
0.00129527 -8.67175e-06 2.11085e-05
-8.67175e-06 0.000110331 9.85796e-07
2.11085e-05 9.85796e-07 4.12723e-06
0.000826421 7.23628e-05 4.59506e-06
7.23628e-05 0.000112623 5.70896e-06
4.59506e-06 5.70896e-06 4.94982e-05
0.000534613 0.000131791 1.15167e-05
0.000131791 0.000159693 -1.47842e-05
1.15167e-05 -1.47842e-05 2.80691e-05
0.00100636 6.46906e-06 -1.07307e-05
6.46906e-06 0.000135733 -5.26195e-06
-1.07307e-05 -5.26195e-06 7.18026e-05
0.00325162 7.3068e-05 -2.66199e-05
7.3068e-05 0.000420227 -2.77413e-06
-2.66199e-05 -2.77413e-06 -0.000496463
-0.00264861 2.96511e-05 -1.54583e-05
2.96511e-05 -0.00235784 6.41592e-05
-1.54583e-05 6.41592e-05 -0.0023733
0.00109115 3.72219e-07 -6.34693e-06
3.72219e-07 6.72382e-05 2.10213e-06
-6.34693e-06 2.10213e-06 -1.10403e-05
0.00156978 0.000103314 -4.83612e-06
0.000103314 -0.000863916 1.45013e-05
-4.83612e-06 1.45013e-05 -0.000412954
0.000484677 4.12848e-05 -4.54677e-06
4.12848e-05 9.52772e-05 -2.84162e-06
-4.54677e-06 -2.84162e-06 2.56265e-05
0.000994755 -1.24247e-06 -4.28966e-06
-1.24247e-06 0.000156184 4.5933e-06
-4.28966e-06 4.5933e-06 5.39037e-05
0.00123219 1.16787e-05 3.83744e-06
1.16787e-05 -6.6697e-06 -2.92861e-06
3.83744e-06 -2.92861e-06 -7.0028e-05
0.00162033 0.000247545 4.41383e-05
0.000247545 0.000187005 1.4701e-06
4.41383e-05 1.4701e-06 7.61279e-05
0.00202584 0.000247453 2.17956e-06
0.000247453 -0.000504198 -4.66456e-06
2.17956e-06 -4.66456e-06 9.58561e-05
0.000933304 0.000131031 8.29876e-06
0.000131031 -0.000701334 -1.02383e-05
8.29876e-06 -1.02383e-05 -0.000602259
0.00732844 0.000131982 1.20886e-05
0.000131982 0.00249699 -1.94635e-05
1.20886e-05 -1.94635e-05 0.00133631
-0.000648373 -1.61383e-06 -2.54666e-05
-1.61383e-06 -0.000156127 -1.44436e-05
-2.54666e-05 -1.44436e-05 -0.000292924
0.00102195 -6.20885e-06 -6.38388e-06
-6.20885e-06 9.38801e-05 3.09679e-06
-6.38388e-06 3.09679e-06 1.22203e-05
0.00158931 3.81274e-05 3.66562e-05
3.81274e-05 -1.74321e-05 -1.81932e-05
3.66562e-05 -1.81932e-05 -7.5334e-05
0.00133982 0.000435407 1.73156e-05
0.000435407 -2.18321e-05 -2.90301e-06
1.73156e-05 -2.90301e-06 0.000794388
-0.00393014 0.000286309 6.54727e-05
0.000286309 -0.00292774 -2.77074e-05
6.54727e-05 -2.77074e-05 -0.00277108
0.0080757 0.000262741 1.93256e-05
0.000262741 0.00260237 -3.96485e-05
1.93256e-05 -3.96485e-05 0.00118009
0.00218561 -5.93397e-05 -2.36195e-06
-5.93397e-05 0.000320694 9.78509e-05
-2.36195e-06 9.78509e-05 0.000173605
0.00130569 1.0136e-05 -7.08105e-07
1.0136e-05 0.000270596 8.12857e-06
-7.08105e-07 8.12857e-06 0.000217798
0.000244864 -2.45754e-05 -4.40303e-07
-2.45754e-05 -0.000103576 7.05741e-07
-4.40303e-07 7.05741e-07 -0.000223611
0.000331843 -5.12067e-05 3.38825e-06
-5.12067e-05 3.08847e-05 -3.90612e-06
3.38825e-06 -3.90612e-06 -0.000146031
0.000960123 -3.27017e-05 -2.82175e-08
-3.27017e-05 5.98225e-05 -9.76181e-07
-2.82175e-08 -9.76181e-07 -7.81392e-06
0.000750312 -2.55675e-05 1.44213e-07
-2.55675e-05 -4.45364e-05 2.73526e-06
1.44213e-07 2.73526e-06 -8.92456e-05
0.00076912 -1.12758e-05 1.58999e-07
-1.12758e-05 3.84502e-05 1.10927e-07
1.58999e-07 1.10927e-07 -5.02949e-05
0.000979794 -9.49152e-05 4.82855e-06
-9.49152e-05 0.000219156 -1.98767e-07
4.82855e-06 -1.98767e-07 4.34791e-05
0.001241 -3.97509e-05 -5.51e-07
-3.97509e-05 0.000227207 -5.87097e-07
-5.51e-07 -5.87097e-07 0.00014804
0.00115319 -8.18215e-05 5.46024e-07
-8.18215e-05 0.00023421 3.20093e-07
5.46024e-07 3.20093e-07 0.000115713
0.000997784 -9.88045e-05 1.59947e-06
-9.88045e-05 0.000166882 2.66955e-06
1.59947e-06 2.66955e-06 -6.69716e-06
0.000573018 -4.98924e-05 -2.60402e-07
-4.98924e-05 -7.68932e-05 -1.61932e-06
-2.60402e-07 -1.61932e-06 -0.000175858
0.0011075 -9.9786e-05 -4.38932e-07
-9.9786e-05 0.000181708 -6.14542e-08
-4.38932e-07 -6.14542e-08 4.71849e-05
0.00162233 -0.000133254 -1.46205e-06
-0.000133254 0.000398132 1.99423e-06
-1.46205e-06 1.99423e-06 0.000242288
0.00148729 -0.000127381 -3.81407e-06
-0.000127381 0.00029469 2.86721e-06
-3.81407e-06 2.86721e-06 0.000154698
0.000746762 -8.27877e-05 -1.62759e-06
-8.27877e-05 -3.60372e-05 2.06307e-06
-1.62759e-06 2.06307e-06 -0.000144512
0.00105683 -9.93988e-05 -1.03541e-06
-9.93988e-05 0.000107829 8.08582e-07
-1.03541e-06 8.08582e-07 -1.82539e-05
0.000987982 -9.10661e-05 -2.37973e-07
-9.10661e-05 9.8384e-05 -1.25087e-06
-2.37973e-07 -1.25087e-06 -2.38545e-05
0.00116153 -9.48088e-05 2.76971e-07
-9.48088e-05 0.000192757 -9.29018e-07
2.76971e-07 -9.29018e-07 9.49701e-05
0.00108089 -9.24378e-05 1.66832e-06
-9.24378e-05 0.00015419 -7.16533e-07
1.66832e-06 -7.16533e-07 5.23246e-05
0.000800491 -3.91467e-05 -4.66763e-07
-3.91467e-05 1.08006e-05 1.33228e-06
-4.66763e-07 1.33228e-06 -7.48581e-05
0.000915294 -7.05253e-05 4.08586e-07
-7.05253e-05 8.09838e-05 -1.26771e-07
4.08586e-07 -1.26771e-07 -1.58776e-05
0.000955446 -8.54558e-05 3.65956e-06
-8.54558e-05 9.31447e-05 -2.08691e-06
3.65956e-06 -2.08691e-06 -1.24409e-05
0.000909209 2.30432e-05 -5.68039e-07
2.30432e-05 5.02787e-05 1.39484e-06
-5.68039e-07 1.39484e-06 -1.18502e-05
0.000969289 -2.39533e-05 -1.37663e-07
-2.39533e-05 8.74934e-05 -3.79254e-08
-1.37663e-07 -3.79254e-08 1.18506e-05
0.00109929 -6.64883e-05 4.5109e-07
-6.64883e-05 0.000163329 -6.33213e-07
4.5109e-07 -6.33213e-07 7.21037e-05
0.000827576 3.13127e-05 -1.07927e-06
3.13127e-05 7.20455e-06 1.95698e-06
-1.07927e-06 1.95698e-06 -2.89024e-05
0.000886067 1.92111e-05 7.72166e-08
1.92111e-05 3.50951e-05 -7.44393e-08
7.72166e-08 -7.44393e-08 -1.99227e-05
0.000797359 -6.69069e-06 6.89433e-07
-6.69069e-06 -5.82955e-06 -1.06882e-06
6.89433e-07 -1.06882e-06 -7.6412e-05
0.000882788 1.8845e-05 3.94422e-07
1.8845e-05 3.11618e-05 -1.32175e-06
3.94422e-07 -1.32175e-06 -1.89595e-05
0.000833125 3.02336e-05 2.45927e-08
3.02336e-05 5.18046e-06 -3.70343e-08
2.45927e-08 -3.70343e-08 -2.75573e-05
0.000751084 2.98145e-05 -1.94182e-06
2.98145e-05 -3.70513e-05 3.31401e-06
-1.94182e-06 3.31401e-06 -4.32999e-05
0.000841765 2.48446e-05 9.08492e-07
2.48446e-05 4.508e-06 -1.81089e-06
9.08492e-07 -1.81089e-06 -2.5989e-05
0.000778149 2.63092e-05 9.51508e-08
2.63092e-05 -2.99424e-05 1.48737e-09
9.51508e-08 1.48737e-09 -3.42788e-05
0.00213262 3.67301e-05 -1.828e-05
3.67301e-05 0.000691373 3.57453e-06
-1.828e-05 3.57453e-06 0.000710469
0.000795245 2.25213e-05 1.43654e-06
2.25213e-05 -2.70061e-05 -3.20501e-06
1.43654e-06 -3.20501e-06 -2.98888e-05
0.00153641 2.77647e-05 7.30927e-06
2.77647e-05 0.000369157 -1.01771e-06
7.30927e-06 -1.01771e-06 0.000386529
0.00212293 2.53375e-05 1.39484e-05
2.53375e-05 0.000676449 -3.74528e-06
1.39484e-05 -3.74528e-06 0.000697654
0.00088172 1.43599e-05 -5.6955e-07
1.43599e-05 2.90068e-05 -6.27504e-07
-5.6955e-07 -6.27504e-07 -2.41206e-05
0.000827049 -1.64284e-05 -6.86537e-07
-1.64284e-05 -4.92537e-06 -1.49826e-06
-6.86537e-07 -1.49826e-06 -3.70397e-05
0.000806171 8.86637e-06 -6.31449e-07
8.86637e-06 -8.12637e-06 -5.10467e-07
-6.31449e-07 -5.10467e-07 -6.09378e-05
0.000806401 -1.90299e-05 -6.67889e-07
-1.90299e-05 -2.39674e-05 -3.172e-06
-6.67889e-07 -3.172e-06 -2.67201e-05
0.000724734 -1.46112e-05 -1.31463e-07
-1.46112e-05 -6.02364e-05 -6.04514e-07
-1.31463e-07 -6.04514e-07 -9.08627e-05
0.000986973 -4.26186e-06 1.92003e-08
-4.26186e-06 8.76557e-05 3.53609e-08
1.92003e-08 3.53609e-08 3.74632e-05
0.00210068 -1.92617e-05 -1.10315e-05
-1.92617e-05 0.000661133 -3.92704e-06
-1.10315e-05 -3.92704e-06 0.000683259
0.000799005 -1.42355e-05 -1.1608e-07
-1.42355e-05 -3.27971e-05 -2.19915e-08
-1.1608e-07 -2.19915e-08 -3.31094e-05
0.000607488 -1.14924e-05 5.12536e-08
-1.14924e-05 -0.000124495 7.34878e-07
5.12536e-08 7.34878e-07 -0.000153094
0.00204945 -1.2579e-05 -1.75079e-06
-1.2579e-05 0.000630196 2.67818e-08
-1.75079e-06 2.67818e-08 0.000653603
0.000795133 -9.42154e-06 3.80749e-07
-9.42154e-06 -3.86923e-05 3.0065e-06
3.80749e-07 3.0065e-06 -3.70952e-05
0.00202134 -5.98216e-06 2.93182e-06
-5.98216e-06 0.000612998 3.91487e-06
2.93182e-06 3.91487e-06 0.000637144
0.00091758 3.37274e-07 7.33759e-06
3.37274e-07 8.99298e-05 -1.10554e-05
7.33759e-06 -1.10554e-05 -1.02119e-05
0.00110899 -3.90823e-06 -3.20493e-06
-3.90823e-06 0.000156192 5.52328e-07
-3.20493e-06 5.52328e-07 7.691e-05
0.00120032 -3.83715e-06 1.34515e-05
-3.83715e-06 4.54026e-09 2.65983e-06
1.34515e-05 2.65983e-06 -9.67444e-05
0.000859997 -2.58983e-05 4.94016e-08
-2.58983e-05 1.76739e-05 -3.68393e-07
4.94016e-08 -3.68393e-07 -4.69191e-05
0.00100357 -6.37228e-06 -1.18931e-07
-6.37228e-06 9.86603e-05 -3.11007e-07
-1.18931e-07 -3.11007e-07 2.80859e-05
0.000977555 1.82066e-05 1.04552e-06
1.82066e-05 8.63024e-05 7.28527e-08
1.04552e-06 7.28527e-08 2.26582e-05
0.000866378 -1.20528e-05 2.60779e-08
-1.20528e-05 2.2304e-05 2.41627e-08
2.60779e-08 2.41627e-08 -4.19186e-05
0.000952041 1.15223e-05 6.20307e-08
1.15223e-05 7.57642e-05 3.29263e-07
6.20307e-08 3.29263e-07 4.39783e-06
0.000972904 7.8728e-06 -5.85011e-07
7.8728e-06 8.44317e-05 2.01747e-07
-5.85011e-07 2.01747e-07 1.38557e-05
0.000944405 7.93848e-05 1.26394e-07
7.93848e-05 7.85092e-05 8.34136e-07
1.26394e-07 8.34136e-07 -5.70938e-07
0.00144879 2.11785e-06 1.50939e-06
2.11785e-06 0.000145263 1.79296e-05
1.50939e-06 1.79296e-05 8.57154e-05
0.00122408 1.11654e-05 1.97195e-06
1.11654e-05 8.56687e-05 4.78987e-06
1.97195e-06 4.78987e-06 8.79742e-06
0.00111273 1.48981e-05 -5.54223e-06
1.48981e-05 -8.9763e-05 -5.19225e-06
-5.54223e-06 -5.19225e-06 -0.000143485
0.00104274 2.16638e-05 2.56335e-06
2.16638e-05 -0.00116395 -8.84166e-06
2.56335e-06 -8.84166e-06 -0.000639828
-0.000205315 -8.19975e-05 -5.21203e-05
-8.19975e-05 -0.0016374 6.03194e-05
-5.21203e-05 6.03194e-05 -0.00184307
0.00235877 0.000101196 4.22318e-05
0.000101196 0.000245776 -4.11054e-05
4.22318e-05 -4.11054e-05 -0.00100952
0.00531647 0.000366421 2.74654e-05
0.000366421 0.0014496 -2.30472e-05
2.74654e-05 -2.30472e-05 0.00125828
0.00203424 -0.000288587 -2.16935e-05
-0.000288587 -0.000287126 8.93612e-06
-2.16935e-05 8.93612e-06 -0.000664098
0.00244703 -8.73291e-05 3.32476e-05
-8.73291e-05 -2.96167e-05 -4.18001e-05
3.32476e-05 -4.18001e-05 -0.00132174
0.00359817 1.1538e-05 -1.61865e-05
1.1538e-05 0.000547771 2.10688e-06
-1.61865e-05 2.10688e-06 0.00047239
0.0031597 -0.00011787 -1.23463e-06
-0.00011787 0.000203744 -7.14295e-06
-1.23463e-06 -7.14295e-06 0.000718315
0.00374859 -0.000264517 6.207e-06
-0.000264517 0.000940947 -1.35869e-05
6.207e-06 -1.35869e-05 0.000841081
0.00308004 -0.000372228 1.11879e-07
-0.000372228 -0.00051962 -9.19591e-05
1.11879e-07 -9.19591e-05 -0.00108937
-0.00064648 -0.000148344 3.76744e-05
-0.000148344 -0.00175566 3.3273e-05
3.76744e-05 3.3273e-05 -0.00186243
5.2026e-05 -0.000169846 2.23154e-05
-0.000169846 -0.0015944 6.5054e-06
2.23154e-05 6.5054e-06 -0.00103777
0.00108258 -3.22936e-05 -1.15425e-07
-3.22936e-05 0.000134155 1.38494e-06
-1.15425e-07 1.38494e-06 6.1e-05
0.00089995 1.76905e-06 7.4397e-08
1.76905e-06 4.58805e-05 -7.13476e-08
7.4397e-08 -7.13476e-08 -3.25827e-05
0.000884102 -2.09989e-06 -3.93411e-07
-2.09989e-06 4.88236e-05 -1.04921e-06
-3.93411e-07 -1.04921e-06 -3.30183e-05
0.00093324 2.17855e-05 -7.0709e-08
2.17855e-05 6.78027e-05 -1.10479e-06
-7.0709e-08 -1.10479e-06 -4.63131e-06
0.0038309 -0.000279893 1.17277e-05
-0.000279893 0.00145239 2.62123e-06
1.17277e-05 2.62123e-06 0.00142676
0.000823995 9.32489e-06 4.71778e-06
9.32489e-06 0.000270121 -7.16655e-06
4.71778e-06 -7.16655e-06 0.000137797
0.000876002 -1.77112e-05 6.84114e-08
-1.77112e-05 2.17325e-05 -1.27404e-06
6.84114e-08 -1.27404e-06 -5.44618e-05
0.000944987 3.46941e-05 6.13744e-07
3.46941e-05 7.1327e-05 -1.37656e-06
6.13744e-07 -1.37656e-06 -1.22795e-05
0.00147029 -5.81233e-06 1.09304e-06
-5.81233e-06 0.000335623 -5.02609e-06
1.09304e-06 -5.02609e-06 0.000256294
0.000932318 3.92297e-06 -1.22712e-07
3.92297e-06 5.70386e-05 4.7346e-08
-1.22712e-07 4.7346e-08 -1.6143e-05
0.000918018 -7.86841e-06 -1.47598e-06
-7.86841e-06 5.2687e-05 2.45441e-07
-1.47598e-06 2.45441e-07 -2.80201e-05
0.000385358 -0.000119055 -1.91358e-06
-0.000119055 0.000207889 -4.12855e-06
-1.91358e-06 -4.12855e-06 1.19274e-06
0.000949623 -7.32239e-06 3.98688e-06
-7.32239e-06 0.000250702 6.33165e-06
3.98688e-06 6.33165e-06 0.000224009
0.000952208 -1.15049e-05 9.27341e-07
-1.15049e-05 7.72753e-05 -3.68605e-07
9.27341e-07 -3.68605e-07 1.92172e-06
-0.000191143 2.84924e-05 -5.15536e-06
2.84924e-05 0.0003842 -1.88075e-05
-5.15536e-06 -1.88075e-05 -0.000223882
0.00152063 -3.8645e-05 4.62881e-06
-3.8645e-05 0.000529143 1.13131e-05
4.62881e-06 1.13131e-05 0.000443956
0.00120952 -3.76894e-07 -1.33558e-05
-3.76894e-07 0.000272969 -2.91821e-06
-1.33558e-05 -2.91821e-06 0.0001885
0.00101546 4.8963e-07 6.29431e-08
4.8963e-07 0.000158206 3.59421e-07
6.29431e-08 3.59421e-07 3.62408e-05
0.000730419 6.14596e-07 -1.01062e-05
6.14596e-07 -9.07502e-06 1.43988e-06
-1.01062e-05 1.43988e-06 -0.000103199
0.00109461 3.43867e-05 1.51004e-06
3.43867e-05 0.000375222 4.69315e-06
1.51004e-06 4.69315e-06 0.000316946
0.00146878 0.000153336 -5.77194e-05
0.000153336 0.000418582 1.2664e-05
-5.77194e-05 1.2664e-05 0.000448506
0.00101192 -1.52939e-06 -5.00139e-06
-1.52939e-06 0.000183873 -5.68522e-06
-5.00139e-06 -5.68522e-06 7.42901e-05
0.00320043 0.000218019 4.15138e-05
0.000218019 0.00041644 -7.81832e-05
4.15138e-05 -7.81832e-05 -0.000743041
0.00508461 0.000382401 -3.29863e-05
0.000382401 0.00135636 2.92833e-05
-3.29863e-05 2.92833e-05 0.00120464
0.00112795 6.93979e-06 3.94561e-06
6.93979e-06 -7.32668e-05 6.04547e-06
3.94561e-06 6.04547e-06 -0.000136413
0.00314239 0.00025303 -2.64816e-05
0.00025303 0.000260357 1.81777e-05
-2.64816e-05 1.81777e-05 0.000798022
-0.000245302 -1.77999e-05 1.90563e-05
-1.77999e-05 1.86535e-05 -2.47084e-06
1.90563e-05 -2.47084e-06 -0.000115409
0.00109216 -5.81797e-06 3.44589e-06
-5.81797e-06 0.000149902 -7.05513e-07
3.44589e-06 -7.05513e-07 6.97201e-05
0.00134174 2.92365e-05 1.10111e-05
2.92365e-05 -0.000163105 -4.49665e-06
1.10111e-05 -4.49665e-06 -0.000246085
0.00168219 -3.39635e-05 -1.30462e-05
-3.39635e-05 0.000195365 2.12238e-05
-1.30462e-05 2.12238e-05 0.000194832
-4.30525e-08 0.000458249 -4.23537e-06
0.000458249 -0.000998562 4.57867e-06
-4.23537e-06 4.57867e-06 -3.48259e-06
0.00279546 0.000439859 3.05388e-06
0.000439859 -1.54095e-05 -1.76326e-06
3.05388e-06 -1.76326e-06 0.000129407
0.00270974 -1.3709e-05 3.39097e-05
-1.3709e-05 0.000265304 -1.60919e-05
3.39097e-05 -1.60919e-05 -0.00125283
0.000554235 -6.53565e-05 2.46361e-05
-6.53565e-05 0.000262394 -7.23437e-06
2.46361e-05 -7.23437e-06 0.000168001
0.00107906 -2.74269e-06 1.56042e-05
-2.74269e-06 -7.0539e-05 -4.65812e-06
1.56042e-05 -4.65812e-06 -0.000185012
-0.00111454 0.000208699 9.1655e-06
0.000208699 -0.00081824 -1.02683e-05
9.1655e-06 -1.02683e-05 -0.000642433
-0.00010679 0.000431119 4.66065e-05
0.000431119 -0.0002548 -7.01509e-06
4.66065e-05 -7.01509e-06 6.26041e-05
0.00853335 0.000536959 2.51516e-05
0.000536959 0.00283123 -5.05397e-05
2.51516e-05 -5.05397e-05 0.00155837
0.00282593 -0.00026467 -6.20246e-05
-0.00026467 0.000295469 9.1366e-05
-6.20246e-05 9.1366e-05 -0.000173659
0.000434995 -2.99255e-05 -2.12869e-06
-2.99255e-05 -1.59795e-05 6.61743e-06
-2.12869e-06 6.61743e-06 -0.000146229
0.000418542 -2.57197e-05 8.18081e-07
-2.57197e-05 8.08175e-05 -7.65812e-07
8.18081e-07 -7.65812e-07 -9.8144e-05
0.00158437 -0.000155916 1.09095e-05
-0.000155916 0.00051388 -3.12602e-06
1.09095e-05 -3.12602e-06 0.000376658
0.000841969 9.16888e-06 -2.02131e-06
9.16888e-06 7.90973e-05 -1.44319e-06
-2.02131e-06 -1.44319e-06 -1.56832e-06
0.000461677 -5.78394e-05 8.90779e-07
-5.78394e-05 -1.94533e-05 -3.52087e-07
8.90779e-07 -3.52087e-07 -0.000201313
0.00116806 -0.000119259 3.9715e-06
-0.000119259 0.000234248 5.07048e-06
3.9715e-06 5.07048e-06 4.66942e-05
0.0016031 -0.000118521 -1.20309e-06
-0.000118521 0.000450253 -6.66724e-07
-1.20309e-06 -6.66724e-07 0.000325763
0.0012061 -0.000107245 1.48747e-07
-0.000107245 0.000260175 8.27695e-07
1.48747e-07 8.27695e-07 8.73195e-05
0.0011907 -0.000126561 -5.14452e-07
-0.000126561 0.000165615 1.10679e-06
-5.14452e-07 1.10679e-06 -1.26074e-05
0.00121065 -0.000103259 -6.32698e-07
-0.000103259 0.000233417 -1.52694e-06
-6.32698e-07 -1.52694e-06 9.52579e-05
0.0015708 -0.000131605 6.39295e-08
-0.000131605 0.000363696 5.65565e-07
6.39295e-08 5.65565e-07 0.000207638
0.00122904 -0.000125385 -1.21136e-06
-0.000125385 0.000141502 3.77464e-08
-1.21136e-06 3.77464e-08 -1.99388e-05
0.00140003 -0.000125795 -2.9917e-06
-0.000125795 0.000189553 -1.01588e-06
-2.9917e-06 -1.01588e-06 4.93971e-05
0.00163482 -0.00012763 -4.17254e-06
-0.00012763 0.000374449 3.77721e-06
-4.17254e-06 3.77721e-06 0.000249689
0.00139553 -0.000124729 -7.08354e-07
-0.000124729 0.000243931 6.60122e-07
-7.08354e-07 6.60122e-07 0.000101092
0.000666913 -7.65622e-05 -2.58371e-07
-7.65622e-05 -7.81743e-05 -4.72815e-07
-2.58371e-07 -4.72815e-07 -0.00017666
0.00088126 -8.80948e-05 1.37645e-06
-8.80948e-05 3.32505e-05 -4.25075e-07
1.37645e-06 -4.25075e-07 -7.45665e-05
0.00099526 -9.78098e-05 1.71909e-06
-9.78098e-05 7.5635e-05 -1.73107e-06
1.71909e-06 -1.73107e-06 -5.21181e-05
0.00103324 -8.39221e-05 -3.81095e-07
-8.39221e-05 0.000124461 4.00726e-07
-3.81095e-07 4.00726e-07 3.06489e-05
0.00112123 -9.25726e-05 -1.18122e-07
-9.25726e-05 0.00017321 -3.22285e-07
-1.18122e-07 -3.22285e-07 7.50908e-05
0.000829877 -8.05682e-05 3.31265e-06
-8.05682e-05 2.68471e-05 -1.58749e-08
3.31265e-06 -1.58749e-08 -7.21053e-05
0.000869646 1.03508e-05 -6.00493e-08
1.03508e-05 3.55071e-05 1.38185e-06
-6.00493e-08 1.38185e-06 -3.65473e-05
0.000888644 -4.13658e-05 4.67713e-08
-4.13658e-05 5.60073e-05 4.4431e-07
4.67713e-08 4.4431e-07 -2.8948e-05
0.00109633 -7.5539e-05 1.27038e-06
-7.5539e-05 0.000173252 -1.11116e-06
1.27038e-06 -1.11116e-06 7.71752e-05
0.000811897 3.96394e-05 -1.15794e-06
3.96394e-05 3.49908e-06 2.20872e-06
-1.15794e-06 2.20872e-06 -3.86111e-05
0.000886659 1.36215e-05 -1.58597e-07
1.36215e-05 3.95225e-05 -6.50828e-08
-1.58597e-07 -6.50828e-08 -2.32597e-05
0.000975509 -2.89882e-05 5.41724e-07
-2.89882e-05 9.1594e-05 -9.68187e-07
5.41724e-07 -9.68187e-07 1.52671e-05
0.000764249 3.36523e-05 -3.2559e-06
3.36523e-05 -2.35868e-05 4.60191e-06
-3.2559e-06 4.60191e-06 -3.22121e-05
0.0008201 3.59505e-05 1.89009e-07
3.59505e-05 4.02505e-06 -7.07774e-08
1.89009e-07 -7.07774e-08 -3.2609e-05
0.00086982 1.86209e-05 6.31579e-07
1.86209e-05 2.64381e-05 -1.34042e-06
6.31579e-07 -1.34042e-06 -2.84178e-05
0.000829198 3.25524e-05 7.37185e-07
3.25524e-05 3.22203e-06 -1.97321e-06
7.37185e-07 -1.97321e-06 -2.96966e-05
0.000770118 3.04086e-05 4.90638e-08
3.04086e-05 -2.73054e-05 -2.47084e-08
4.90638e-08 -2.47084e-08 -3.36356e-05
0.00214853 4.24617e-05 -2.07224e-05
4.24617e-05 0.000706767 3.46056e-06
-2.07224e-05 3.46056e-06 0.000724307
0.000793277 2.67279e-05 1.76064e-06
2.67279e-05 -2.22201e-05 -3.24567e-06
1.76064e-06 -3.24567e-06 -2.65938e-05
0.00213151 3.69007e-05 9.87351e-07
3.69007e-05 0.000691669 6.14857e-08
9.87351e-07 6.14857e-08 0.000710622
0.00212169 3.12598e-05 1.67796e-05
3.12598e-05 0.000681066 -3.65402e-06
1.67796e-05 -3.65402e-06 0.000701224
0.000931989 1.11859e-05 -2.14441e-07
1.11859e-05 5.94143e-05 -5.53181e-07
-2.14441e-07 -5.53181e-07 -7.85836e-06
0.000883692 2.1814e-05 -8.57461e-07
2.1814e-05 3.1825e-05 -9.98108e-07
-8.57461e-07 -9.98108e-07 -2.49271e-05
0.000821245 -2.32821e-05 -7.1144e-07
-2.32821e-05 -5.38144e-06 -1.65976e-06
-7.1144e-07 -1.65976e-06 -3.97033e-05
0.00088596 1.04152e-05 -1.36033e-07
1.04152e-05 3.0382e-05 -4.61018e-08
-1.36033e-07 -4.61018e-08 -2.23198e-05
0.000792222 -2.27986e-05 -1.11148e-06
-2.27986e-05 -2.5969e-05 -3.27474e-06
-1.11148e-06 -3.27474e-06 -3.10494e-05
0.000835292 -1.79313e-05 -1.00757e-07
-1.79313e-05 -1.69833e-07 5.43714e-09
-1.00757e-07 5.43714e-09 -3.24043e-05
0.000855154 7.88881e-06 1.46622e-07
7.88881e-06 1.48281e-05 1.15361e-07
1.46622e-07 1.15361e-07 -3.51263e-05
0.00216048 -2.55921e-05 -1.41819e-05
-2.55921e-05 0.000697313 -3.92842e-06
-1.41819e-05 -3.92842e-06 0.000717972
0.000788445 -1.87058e-05 -1.19338e-07
-1.87058e-05 -3.33513e-05 -2.32422e-08
-1.19338e-07 -2.32422e-08 -3.59822e-05
0.000844859 -1.5078e-05 8.2816e-08
-1.5078e-05 2.64926e-06 8.78275e-07
8.2816e-08 8.78275e-07 -2.73992e-05
0.00209323 -1.89831e-05 -1.61222e-06
-1.89831e-05 0.000656722 4.22884e-08
-1.61222e-06 4.22884e-08 0.000679028
0.000783367 -1.40067e-05 4.67229e-07
-1.40067e-05 -4.09655e-05 3.05034e-06
4.67229e-07 3.05034e-06 -4.11714e-05
0.00204252 -1.2239e-05 6.61555e-06
-1.2239e-05 0.000626145 3.89326e-06
6.61555e-06 3.89326e-06 0.000649695
0.000823164 5.91411e-06 -6.96728e-06
5.91411e-06 2.16171e-05 -6.74382e-06
-6.96728e-06 -6.74382e-06 -5.37914e-05
0.000981405 2.73345e-07 4.38876e-06
2.73345e-07 0.000148232 -4.64348e-06
4.38876e-06 -4.64348e-06 4.04629e-05
0.00119405 -4.47896e-06 -1.32465e-05
-4.47896e-06 0.000221977 8.67555e-06
-1.32465e-05 8.67555e-06 0.000143593
0.000895156 1.41177e-06 -2.23054e-07
1.41177e-06 3.98064e-05 -9.52984e-10
-2.23054e-07 -9.52984e-10 -2.67488e-05
0.000956171 -8.16429e-06 -4.20139e-08
-8.16429e-06 7.3525e-05 2.33181e-07
-4.20139e-08 2.33181e-07 2.45007e-06
0.000889493 -4.96388e-06 5.55151e-10
-4.96388e-06 4.22744e-05 -1.32006e-06
5.55151e-10 -1.32006e-06 -3.31223e-05
0.000858882 -1.39514e-05 -6.44036e-08
-1.39514e-05 2.35263e-05 -5.57153e-07
-6.44036e-08 -5.57153e-07 -4.71318e-05
0.00103651 3.0602e-05 -4.23353e-07
3.0602e-05 0.000123558 -1.11759e-07
-4.23353e-07 -1.11759e-07 4.55112e-05
0.000850472 -1.69873e-05 -1.05859e-07
-1.69873e-05 1.28648e-05 2.08752e-07
-1.05859e-07 2.08752e-07 -5.07083e-05
0.000884897 -6.47593e-06 1.6051e-07
-6.47593e-06 3.76538e-05 -2.11675e-07
1.6051e-07 -2.11675e-07 -3.29183e-05
0.000941187 1.98295e-05 -1.79901e-07
1.98295e-05 7.00716e-05 -4.23493e-08
-1.79901e-07 -4.23493e-08 -1.15542e-06
0.000961538 2.52094e-05 3.04625e-07
2.52094e-05 7.94409e-05 3.94947e-07
3.04625e-07 3.94947e-07 3.52462e-06
0.0010198 2.00516e-05 -1.88444e-07
2.00516e-05 0.00011573 4.22197e-07
-1.88444e-07 4.22197e-07 4.01869e-05
0.00140162 -2.50553e-05 2.49223e-05
-2.50553e-05 -1.1246e-05 2.82899e-05
2.49223e-05 2.82899e-05 -0.000121413
0.00136468 1.44289e-06 2.67482e-06
1.44289e-06 7.81192e-05 8.87099e-06
2.67482e-06 8.87099e-06 2.18874e-05
0.00118005 9.52236e-06 4.35891e-06
9.52236e-06 0.00012544 2.83407e-06
4.35891e-06 2.83407e-06 4.96023e-05
0.00244001 -0.000104199 -1.05603e-05
-0.000104199 -0.000161589 -1.9475e-05
-1.05603e-05 -1.9475e-05 0.000348076
-0.00225339 8.25838e-05 -7.69856e-06
8.25838e-05 -0.002197 -5.27064e-05
-7.69856e-06 -5.27064e-05 -0.00227721
0.00127244 -0.000291884 -0.000102604
-0.000291884 -0.000763454 8.4977e-05
-0.000102604 8.4977e-05 -0.00122826
0.00788162 0.000208169 -3.06734e-05
0.000208169 0.00212318 -4.25592e-05
-3.06734e-05 -4.25592e-05 0.00126449
0.00226279 -0.000272418 -3.64333e-05
-0.000272418 3.89845e-05 3.96993e-05
-3.64333e-05 3.96993e-05 -0.000387062
0.00807735 -0.000137372 4.16951e-05
-0.000137372 0.00250892 -8.69378e-07
4.16951e-05 -8.69378e-07 0.00146121
0.00100454 -0.000191826 1.44468e-05
-0.000191826 -0.000788272 -1.60053e-05
1.44468e-05 -1.60053e-05 -0.000831582
0.000565429 -0.000206699 -6.64361e-06
-0.000206699 -0.0014066 -2.00861e-05
-6.64361e-06 -2.00861e-05 -0.000709621
0.00205927 -6.39541e-05 -7.04844e-05
-6.39541e-05 0.000249356 -4.93262e-05
-7.04844e-05 -4.93262e-05 -0.000224545
0.00809745 -0.000425001 -2.79021e-05
-0.000425001 0.00211326 4.88708e-05
-2.79021e-05 4.88708e-05 0.00132861
0.00746998 -0.000574712 2.98178e-05
-0.000574712 0.00220233 1.49594e-05
2.98178e-05 1.49594e-05 0.00241994
0.0023382 -0.000352031 1.18722e-05
-0.000352031 0.000147331 1.87892e-06
1.18722e-05 1.87892e-06 0.00102902
0.000851348 1.79433e-05 4.78241e-07
1.79433e-05 3.9235e-05 1.51376e-06
4.78241e-07 1.51376e-06 -2.86721e-05
0.00102308 -2.31947e-05 -1.33363e-07
-2.31947e-05 0.000107377 2.29246e-07
-1.33363e-07 2.29246e-07 3.2827e-05
0.0008593 2.27544e-06 2.09274e-07
2.27544e-06 2.42144e-05 -8.86483e-07
2.09274e-07 -8.86483e-07 -5.42269e-05
0.00167821 -0.000116832 1.99972e-05
-0.000116832 0.000835569 -1.05797e-06
1.99972e-05 -1.05797e-06 0.000670328
0.00106926 -2.61066e-05 -6.36333e-06
-2.61066e-05 0.000315216 -6.00497e-06
-6.36333e-06 -6.00497e-06 0.000293029
0.000896326 -5.06654e-06 -4.24871e-07
-5.06654e-06 3.70961e-05 -3.64813e-07
-4.24871e-07 -3.64813e-07 -3.65072e-05
0.000894845 -3.95257e-05 -1.39183e-06
-3.95257e-05 4.01023e-05 -1.64406e-06
-1.39183e-06 -1.64406e-06 -4.0112e-05
0.000898617 -1.43991e-05 -4.24622e-07
-1.43991e-05 5.15301e-05 -1.44115e-07
-4.24622e-07 -1.44115e-07 -2.33057e-05
0.00060771 -3.81071e-05 1.12522e-06
-3.81071e-05 6.97995e-05 4.31479e-06
1.12522e-06 4.31479e-06 -1.92179e-05
-0.000437616 3.23924e-06 1.71465e-05
3.23924e-06 0.000160836 -2.01173e-05
1.71465e-05 -2.01173e-05 -0.000418965
-1.40825e-05 -9.15301e-06 -1.15279e-06
-9.15301e-06 -0.000258079 5.47756e-06
-1.15279e-06 5.47756e-06 -0.000364381
0.00163782 0.00011986 2.09388e-05
0.00011986 0.000710923 -5.79436e-06
2.09388e-05 -5.79436e-06 0.000433238
0.00154265 -1.99253e-06 9.01295e-06
-1.99253e-06 0.000240635 -1.13757e-07
9.01295e-06 -1.13757e-07 0.000132267
0.000941327 7.96255e-07 -2.52369e-06
7.96255e-07 0.000114386 -1.38668e-06
-2.52369e-06 -1.38668e-06 2.36249e-05
0.000944415 -4.3662e-07 8.91395e-08
-4.3662e-07 8.87445e-05 -1.52198e-07
8.91395e-08 -1.52198e-07 -4.54503e-05
-0.000640712 -1.53736e-05 -1.59466e-05
-1.53736e-05 -0.000153497 1.20638e-05
-1.59466e-05 1.20638e-05 -0.00029404
0.00129673 2.5876e-05 2.97927e-05
2.5876e-05 -0.000170286 -4.4555e-05
2.97927e-05 -4.4555e-05 -0.000460522
0.00117496 -5.45603e-06 1.26228e-05
-5.45603e-06 0.000214713 -8.60827e-06
1.26228e-05 -8.60827e-06 0.000135394
0.00914776 0.000227967 5.36439e-05
0.000227967 0.00284649 4.30656e-06
5.36439e-05 4.30656e-06 0.00144343
0.00511426 0.000589551 -4.73719e-05
0.000589551 0.00135818 3.15697e-05
-4.73719e-05 3.15697e-05 0.00140191
0.00102134 1.98214e-05 -1.55767e-05
1.98214e-05 -0.000347847 1.36649e-05
-1.55767e-05 1.36649e-05 -0.000465104
-0.00138106 0.000483513 -1.63984e-05
0.000483513 -0.00200239 -1.37644e-05
-1.63984e-05 -1.37644e-05 -0.000837205
0.000112177 -3.77761e-05 -5.75195e-06
-3.77761e-05 8.61021e-05 -7.77641e-07
-5.75195e-06 -7.77641e-07 -2.5468e-05
0.00112616 -4.5779e-06 1.42123e-06
-4.5779e-06 -3.99389e-05 -9.88449e-07
1.42123e-06 -9.88449e-07 -0.000151393
-0.00129872 0.000237347 -2.26582e-05
0.000237347 -0.00086293 6.94548e-06
-2.26582e-05 6.94548e-06 -0.000649715
0.00212082 -0.000235886 -5.35484e-06
-0.000235886 0.000135313 2.96381e-05
-5.35484e-06 2.96381e-05 -0.000181878
0.00368637 0.000606629 6.06328e-06
0.000606629 0.00103129 4.49715e-06
6.06328e-06 4.49715e-06 0.00130988
0.00552651 0.000169311 3.32573e-05
0.000169311 0.0013402 -1.81803e-05
3.32573e-05 -1.81803e-05 -0.000111972
0.00232883 -0.000184883 2.4415e-05
-0.000184883 0.000668328 9.3175e-06
2.4415e-05 9.3175e-06 0.000745102
-0.00108607 6.5169e-05 1.92627e-05
6.5169e-05 -0.000552918 -1.63993e-06
1.92627e-05 -1.63993e-06 -0.000675281
0.00303349 0.000449868 2.55104e-05
0.000449868 0.00135982 -7.23323e-06
2.55104e-05 -7.23323e-06 0.0015055
0.00462364 0.000457269 -3.95763e-05
0.000457269 0.00107005 3.69153e-05
-3.95763e-05 3.69153e-05 -0.000138144
0.00196258 -0.000309234 -1.6618e-05
-0.000309234 5.88696e-05 2.81097e-05
-1.6618e-05 2.81097e-05 -0.000421671
0.000653611 -2.45525e-06 -3.43554e-06
-2.45525e-06 0.00019494 4.51878e-06
-3.43554e-06 4.51878e-06 2.05381e-05
0.000767969 -0.000121204 1.3434e-06
-0.000121204 0.000126774 -2.78968e-06
1.3434e-06 -2.78968e-06 -3.85779e-05
0.00196236 -0.000166106 7.80806e-06
-0.000166106 0.000383989 4.73913e-07
7.80806e-06 4.73913e-07 0.000309834
-4.4196e-05 -2.02507e-05 -1.21899e-06
-2.02507e-05 -0.000254366 4.39602e-08
-1.21899e-06 4.39602e-08 -0.000440176
0.000837428 -0.000103166 2.47467e-06
-0.000103166 8.11937e-05 6.03012e-08
2.47467e-06 6.03012e-08 -0.000103985
0.00120529 -0.000146522 4.55404e-07
-0.000146522 8.31713e-05 1.09507e-06
4.55404e-07 1.09507e-06 -7.02949e-05
0.00140028 -0.000114683 -1.28732e-06
-0.000114683 0.000345935 -7.89123e-07
-1.28732e-06 -7.89123e-07 0.000175383
0.00117033 -0.000124214 -5.45073e-07
-0.000124214 0.00014738 -6.2562e-07
-5.45073e-07 -6.2562e-07 -2.62236e-05
0.00171679 -0.000153824 -1.99326e-06
-0.000153824 0.000301732 -1.74027e-06
-1.99326e-06 -1.74027e-06 0.000156951
0.00151247 -0.000129687 9.11347e-07
-0.000129687 0.000326204 -1.31607e-06
9.11347e-07 -1.31607e-06 0.00017008
0.00126639 -0.000124404 4.404e-07
-0.000124404 0.000158261 -7.76411e-07
4.404e-07 -7.76411e-07 8.427e-07
0.00146178 -0.000129529 -2.72914e-06
-0.000129529 0.000162149 -3.05607e-06
-2.72914e-06 -3.05607e-06 2.7932e-05
0.00140888 -0.000117316 -2.4683e-06
-0.000117316 0.000124899 -2.43045e-06
-2.4683e-06 -2.43045e-06 2.97375e-06
0.00112719 -0.000109019 -2.70477e-06
-0.000109019 7.3398e-05 4.19773e-07
-2.70477e-06 4.19773e-07 -5.50975e-05
0.00128143 -0.000119987 3.46083e-07
-0.000119987 0.000126531 -8.62842e-07
3.46083e-07 -8.62842e-07 -1.22583e-05
0.00130596 -0.000108213 -2.02946e-06
-0.000108213 0.000220714 2.30829e-06
-2.02946e-06 2.30829e-06 0.000110084
0.00129421 -0.000114023 -2.0329e-07
-0.000114023 0.000200802 7.20977e-07
-2.0329e-07 7.20977e-07 7.42238e-05
0.00129497 -0.00012165 1.77372e-06
-0.00012165 0.000188898 -1.03373e-06
1.77372e-06 -1.03373e-06 4.32307e-05
0.000965141 -8.58038e-05 -7.44576e-07
-8.58038e-05 7.54043e-05 -7.47607e-07
-7.44576e-07 -7.47607e-07 -1.7083e-05
0.000777768 -8.07757e-05 -2.58629e-07
-8.07757e-05 -1.9389e-05 -1.09842e-06
-2.58629e-07 -1.09842e-06 -0.000116783
0.00101499 -9.3415e-05 4.40006e-06
-9.3415e-05 0.000102028 -2.83192e-06
4.40006e-06 -2.83192e-06 -5.12308e-06
0.000918998 -3.81176e-05 -4.77035e-07
-3.81176e-05 6.03014e-05 1.23101e-06
-4.77035e-07 1.23101e-06 -1.96486e-05
0.00101694 -7.82875e-05 2.38291e-07
-7.82875e-05 0.00011606 4.81855e-07
2.38291e-07 4.81855e-07 2.33602e-05
0.00107666 -9.01688e-05 1.02431e-06
-9.01688e-05 0.000151416 7.67072e-07
1.02431e-06 7.67072e-07 5.29851e-05
0.000821926 5.66329e-05 -7.33109e-07
5.66329e-05 1.47444e-05 2.53961e-06
-7.33109e-07 2.53961e-06 -3.68467e-05
0.000899264 2.0116e-06 -9.71084e-09
2.0116e-06 5.19054e-05 -2.2862e-08
-9.71084e-09 -2.2862e-08 -2.11425e-05
0.000979535 -4.72744e-05 1.99864e-07
-4.72744e-05 0.000103085 -4.6904e-07
1.99864e-07 -4.6904e-07 1.85749e-05
0.00137594 4.36548e-05 -1.24035e-05
4.36548e-05 0.00030867 3.15314e-06
-1.24035e-05 3.15314e-06 0.000299845
0.000801897 3.85796e-05 2.92343e-08
3.85796e-05 -1.86726e-06 -1.48913e-07
2.92343e-08 -1.48913e-07 -4.38855e-05
0.000868277 5.27269e-06 6.88525e-07
5.27269e-06 3.08877e-05 -1.44453e-06
6.88525e-07 -1.44453e-06 -3.25046e-05
0.000929001 2.94274e-05 -1.93599e-05
2.94274e-05 6.80465e-05 3.54547e-06
-1.93599e-05 3.54547e-06 7.77355e-05
0.00108767 3.77213e-05 -5.09073e-06
3.77213e-05 0.000148213 3.80436e-07
-5.09073e-06 3.80436e-07 0.000140776
0.000811542 4.04791e-05 6.43729e-07
4.04791e-05 1.23846e-07 -2.13365e-06
6.43729e-07 -2.13365e-06 -3.69311e-05
0.000790055 3.10765e-05 1.97096e-06
3.10765e-05 -1.7097e-05 -3.32256e-06
1.97096e-06 -3.32256e-06 -2.35135e-05
0.00215515 4.26129e-05 7.79336e-07
4.26129e-05 0.000711262 6.26617e-08
7.79336e-07 6.26617e-08 0.000728585
0.00213166 3.70046e-05 1.94748e-05
3.70046e-05 0.000692671 -3.54986e-06
1.94748e-05 -3.54986e-06 0.000711481
0.000873429 -5.16656e-06 -9.12725e-08
-5.16656e-06 2.93068e-05 -1.17421e-06
-9.12725e-08 -1.17421e-06 -4.03942e-05
0.000892064 1.05629e-06 -4.37431e-07
1.05629e-06 3.51657e-05 -1.29202e-06
-4.37431e-07 -1.29202e-06 -2.35027e-05
0.000924984 -5.38675e-06 -3.39855e-08
-5.38675e-06 5.43134e-05 -1.28709e-08
-3.39855e-08 -1.28709e-08 -1.24453e-05
0.000815569 -3.37197e-05 -5.79348e-07
-3.37197e-05 -3.95645e-06 -1.92484e-06
-5.79348e-07 -1.92484e-06 -4.06933e-05
0.000898319 -1.98129e-07 4.47444e-07
-1.98129e-07 3.79887e-05 -8.73292e-08
4.47444e-07 -8.73292e-08 -1.76453e-05
0.000778978 -2.61858e-05 -1.48679e-06
-2.61858e-05 -2.72747e-05 -3.38491e-06
-1.48679e-06 -3.38491e-06 -3.44307e-05
0.000831004 -1.95447e-05 -2.01848e-07
-1.95447e-05 7.6495e-08 1.08753e-08
-2.01848e-07 1.08753e-08 -3.42291e-05
0.000903204 2.82055e-05 9.52548e-07
2.82055e-05 4.31049e-05 8.11861e-07
9.52548e-07 8.11861e-07 -1.21173e-05
0.00221696 -3.15853e-05 -1.77248e-05
-3.15853e-05 0.000732445 -3.87586e-06
-1.77248e-05 -3.87586e-06 0.000751569
0.000777231 -2.24914e-05 -2.3374e-07
-2.24914e-05 -3.37055e-05 -5.15085e-09
-2.3374e-07 -5.15085e-09 -3.87065e-05
0.00084849 -1.76817e-05 3.82904e-07
-1.76817e-05 7.15692e-06 1.50852e-06
3.82904e-07 1.50852e-06 -2.51593e-05
0.00214768 -2.53794e-05 -1.45057e-06
-2.53794e-05 0.00068997 5.51408e-08
-1.45057e-06 5.51408e-08 0.00071085
0.00077169 -1.8408e-05 5.6665e-07
-1.8408e-05 -4.20825e-05 3.16065e-06
5.6665e-07 3.16065e-06 -4.46002e-05
0.00208065 -1.86358e-05 9.80224e-06
-1.86358e-05 0.000649566 3.87041e-06
9.80224e-06 3.87041e-06 0.000672082
0.00132313 4.24198e-07 1.43126e-05
4.24198e-07 0.000142355 3.39238e-06
1.43126e-05 3.39238e-06 5.76007e-05
0.000893512 6.31043e-06 1.14639e-06
6.31043e-06 6.75883e-05 -3.98444e-07
1.14639e-06 -3.98444e-07 -6.61393e-06
0.0010803 1.41001e-07 4.92199e-06
1.41001e-07 0.00022938 5.44504e-06
4.92199e-06 5.44504e-06 0.000114633
0.000965811 3.52876e-05 -6.92753e-07
3.52876e-05 9.16574e-05 7.66488e-09
-6.92753e-07 7.66488e-09 1.13483e-05
0.000959533 -1.98001e-06 1.24257e-07
-1.98001e-06 7.37683e-05 3.61518e-07
1.24257e-07 3.61518e-07 7.58026e-06
0.000938176 -1.04087e-05 9.79604e-08
-1.04087e-05 6.32986e-05 4.72727e-07
9.79604e-08 4.72727e-07 -8.30565e-06
0.000952519 -1.55351e-05 1.03953e-07
-1.55351e-05 7.23203e-05 -1.78296e-07
1.03953e-07 -1.78296e-07 2.03466e-06
0.000958265 1.11641e-05 6.91262e-08
1.11641e-05 7.87919e-05 -3.36124e-07
6.91262e-08 -3.36124e-07 2.96483e-06
0.000972416 2.12966e-05 -3.65777e-08
2.12966e-05 8.8173e-05 4.474e-07
-3.65777e-08 4.474e-07 1.09722e-05
0.000978226 3.08353e-05 -4.15476e-07
3.08353e-05 9.3952e-05 -1.11499e-06
-4.15476e-07 -1.11499e-06 1.24339e-05
0.000836235 5.66194e-06 9.46065e-08
5.66194e-06 1.9147e-05 -5.85444e-08
9.46065e-08 -5.85444e-08 -5.68267e-05
0.000913175 3.84023e-05 3.72429e-07
3.84023e-05 5.85384e-05 -1.71128e-07
3.72429e-07 -1.71128e-07 -1.38975e-05
0.000949658 -2.84259e-05 3.27153e-07
-2.84259e-05 6.66076e-05 -3.25612e-07
3.27153e-07 -3.25612e-07 -6.6887e-06
0.000974709 1.31866e-05 -9.30853e-08
1.31866e-05 9.16848e-05 7.7114e-08
-9.30853e-08 7.7114e-08 1.66616e-05
0.00143391 1.68469e-05 2.44045e-06
1.68469e-05 0.000335574 4.8444e-07
2.44045e-06 4.8444e-07 0.000258738
0.0015586 -0.000229044 3.04815e-05
-0.000229044 0.000487697 2.15808e-05
3.04815e-05 2.15808e-05 0.000765925
0.00165445 -2.27453e-05 2.93091e-06
-2.27453e-05 0.000138232 8.06409e-06
2.93091e-06 8.06409e-06 2.97378e-05
0.00127597 1.06648e-07 3.45251e-06
1.06648e-07 4.32851e-06 4.79398e-09
3.45251e-06 4.79398e-09 -5.01786e-05
0.00297622 -0.000258671 -2.90717e-05
-0.000258671 6.36455e-06 -2.53906e-05
-2.90717e-05 -2.53906e-05 0.000796709
0.00397148 -0.000320855 3.40013e-06
-0.000320855 0.000187116 -6.6966e-05
3.40013e-06 -6.6966e-05 0.000145812
0.00298409 2.17151e-05 -8.17499e-05
2.17151e-05 -0.000532013 9.38305e-05
-8.17499e-05 9.38305e-05 -0.001076
0.00196602 -0.000276724 -5.66746e-05
-0.000276724 0.000144637 8.71901e-05
-5.66746e-05 8.71901e-05 -0.000251783
0.00276594 -0.000132971 -1.28531e-05
-0.000132971 0.000748437 1.48614e-05
-1.28531e-05 1.48614e-05 0.00045378
0.000505479 -0.000377708 -1.20598e-05
-0.000377708 -0.000849857 -3.38754e-06
-1.20598e-05 -3.38754e-06 0.000110968
0.00493732 -0.000127525 1.36552e-05
-0.000127525 0.000934732 4.7493e-05
1.36552e-05 4.7493e-05 -0.000232663
-0.000195186 -0.000301066 -3.63525e-06
-0.000301066 -0.00117384 -3.653e-06
-3.63525e-06 -3.653e-06 -0.000933857
0.00321002 0.000165603 -6.90575e-05
0.000165603 0.000731988 -4.3803e-05
-6.90575e-05 -4.3803e-05 0.00051379
0.00834462 -0.000393169 2.66049e-06
-0.000393169 0.00273474 3.63773e-05
2.66049e-06 3.63773e-05 0.00164952
-7.46925e-05 -0.000357997 1.5386e-05
-0.000357997 -0.000196911 -4.26842e-06
1.5386e-05 -4.26842e-06 9.10173e-05
0.000687784 9.7023e-05 -1.62389e-06
9.7023e-05 -2.93675e-05 -5.65691e-07
-1.62389e-06 -5.65691e-07 -9.53157e-05
0.00108361 1.83682e-05 2.15701e-06
1.83682e-05 0.000154037 1.1797e-07
2.15701e-06 1.1797e-07 8.74878e-05
0.000959548 -5.01243e-06 -5.02716e-07
-5.01243e-06 7.89711e-05 -7.74072e-07
-5.02716e-07 -7.74072e-07 2.82766e-06
-0.00064337 -1.36893e-05 -1.72617e-05
-1.36893e-05 -4.63999e-05 -2.20805e-05
-1.72617e-05 -2.20805e-05 -0.000591923
-1.55692e-05 -2.12702e-05 -1.12935e-06
-2.12702e-05 -0.000250357 -4.35679e-06
-1.12935e-06 -4.35679e-06 -0.000344194
0.000785273 4.96848e-06 1.08674e-06
4.96848e-06 -3.37305e-06 8.86228e-07
1.08674e-06 8.86228e-07 -7.80624e-05
0.00081281 4.1015e-05 1.23073e-06
4.1015e-05 0.000131533 5.2272e-07
1.23073e-06 5.2272e-07 2.42509e-05
0.000780028 7.53452e-05 1.35084e-06
7.53452e-05 0.000237169 -1.09529e-05
1.35084e-06 -1.09529e-05 1.51099e-05
-0.000714562 7.88378e-05 1.04426e-05
7.88378e-05 -0.000647574 1.23558e-05
1.04426e-05 1.23558e-05 -0.00078714
0.00154203 -8.88337e-06 3.36896e-05
-8.88337e-06 0.000899586 -1.45317e-06
3.36896e-05 -1.45317e-06 0.000800956
0.00112778 -1.73149e-06 -9.33132e-07
-1.73149e-06 4.56487e-05 -4.06734e-07
-9.33132e-07 -4.06734e-07 -5.09577e-05
0.000670102 2.06157e-06 1.02077e-05
2.06157e-06 -4.64357e-05 -1.38867e-06
1.02077e-05 -1.38867e-06 -0.00014374
0.000133016 -3.60659e-05 2.2641e-06
-3.60659e-05 0.000113841 4.90898e-06
2.2641e-06 4.90898e-06 -4.54326e-06
0.00163415 -0.000215201 2.5631e-05
-0.000215201 -7.70609e-05 -3.62483e-05
2.5631e-05 -3.62483e-05 -0.000303783
0.0011916 -7.29333e-06 -1.25359e-05
-7.29333e-06 2.57647e-06 -3.23217e-06
-1.25359e-05 -3.23217e-06 -0.000104402
0.00198791 0.000168834 -2.62356e-06
0.000168834 -0.000165375 1.87273e-05
-2.62356e-06 1.87273e-05 -0.00142062
-0.00231475 0.000396296 -4.75765e-05
0.000396296 -0.00177435 1.08177e-05
-4.75765e-05 1.08177e-05 -0.00140534
0.00120697 0.000279187 -4.09693e-05
0.000279187 0.0003501 1.96235e-05
-4.09693e-05 1.96235e-05 0.000755604
0.0015996 -0.000149586 -5.40649e-06
-0.000149586 0.000272422 4.30569e-06
-5.40649e-06 4.30569e-06 0.000393253
0.00111516 0.00010489 -2.33623e-06
0.00010489 0.00062283 2.46907e-06
-2.33623e-06 2.46907e-06 0.00066422
-0.0034519 0.000224235 7.14903e-06
0.000224235 -0.00135261 1.24547e-06
7.14903e-06 1.24547e-06 -0.00139552
0.00304029 -0.000333068 -6.87824e-06
-0.000333068 0.000481331 1.67089e-05
-6.87824e-06 1.67089e-05 -0.000268821
0.00693218 0.000394569 -1.67339e-05
0.000394569 0.00209519 2.592e-06
-1.67339e-05 2.592e-06 0.00100418
0.000184284 -0.000157019 -3.16815e-06
-0.000157019 -0.00046369 4.88599e-06
-3.16815e-06 4.88599e-06 -0.000418868
-0.00421331 0.000112679 2.25028e-05
0.000112679 -0.00217486 -1.16145e-05
2.25028e-05 -1.16145e-05 -0.0020861
0.00655502 0.000365821 3.16894e-06
0.000365821 0.00210668 2.71262e-06
3.16894e-06 2.71262e-06 0.0011435
0.00314396 -0.000129091 -2.15705e-05
-0.000129091 -6.34964e-05 2.88307e-05
-2.15705e-05 2.88307e-05 -0.000535767
-0.000147777 -8.08295e-05 -6.49668e-06
-8.08295e-05 -0.000291715 -1.85638e-06
-6.49668e-06 -1.85638e-06 -0.000497229
0.00133927 -0.000143846 -1.27803e-06
-0.000143846 0.000113478 -1.39711e-07
-1.27803e-06 -1.39711e-07 5.09616e-05
0.00157553 -0.000157623 3.46923e-06
-0.000157623 1.65517e-05 -3.34274e-06
3.46923e-06 -3.34274e-06 -1.42173e-05
0.00047323 -8.57313e-05 -1.32574e-06
-8.57313e-05 -8.67711e-05 -3.94481e-06
-1.32574e-06 -3.94481e-06 -0.000271973
0.00120781 -0.000144283 -7.27638e-07
-0.000144283 7.77199e-05 -1.55553e-06
-7.27638e-07 -1.55553e-06 -7.44748e-05
0.00161545 -0.000162859 -3.72638e-06
-0.000162859 9.46342e-05 -2.69631e-06
-3.72638e-06 -2.69631e-06 -1.64482e-05
0.00112842 -0.000121175 -1.10337e-07
-0.000121175 0.000118329 -2.10728e-06
-1.10337e-07 -2.10728e-06 -5.11028e-05
0.00135445 -0.000138452 4.55385e-07
-0.000138452 0.000118619 -1.04597e-06
4.55385e-07 -1.04597e-06 -2.6172e-05
0.00176188 -0.000140022 -3.13722e-06
-0.000140022 0.000197721 -3.94295e-06
-3.13722e-06 -3.94295e-06 8.75616e-05
0.00129387 -0.000122989 1.12411e-06
-0.000122989 0.00016987 -1.03719e-06
1.12411e-06 -1.03719e-06 1.64894e-05
0.00134454 -0.000123534 -3.46009e-07
-0.000123534 9.94888e-05 -9.58577e-07
-3.46009e-07 -9.58577e-07 -3.31743e-05
0.0016234 -0.000118458 -2.6872e-06
-0.000118458 0.000153814 -3.96599e-06
-2.6872e-06 -3.96599e-06 5.23318e-05
0.00157945 -0.000109468 -2.19687e-06
-0.000109468 0.000166474 -2.98959e-06
-2.19687e-06 -2.98959e-06 6.89705e-05
0.00132874 -0.000113194 -2.91277e-06
-0.000113194 0.000117966 -1.28739e-06
-2.91277e-06 -1.28739e-06 -1.23598e-06
0.00140155 -0.00011446 8.40098e-07
-0.00011446 0.000121674 9.18434e-08
8.40098e-07 9.18434e-08 2.06657e-06
0.000708658 -8.70452e-05 -2.39855e-06
-8.70452e-05 -0.000119608 1.32669e-06
-2.39855e-06 1.32669e-06 -0.000235196
0.0013052 -0.000114958 1.06274e-06
-0.000114958 0.000164577 -1.06456e-06
1.06274e-06 -1.06456e-06 3.73052e-05
0.00115091 -0.000113699 2.74267e-06
-0.000113699 5.75497e-05 -5.51396e-07
2.74267e-06 -5.51396e-07 -7.98435e-05
0.00101745 -9.17924e-05 -8.41466e-07
-9.17924e-05 8.99176e-05 9.27342e-07
-8.41466e-07 9.27342e-07 -7.59395e-06
0.00101237 -9.55771e-05 4.14549e-07
-9.55771e-05 7.36868e-05 -1.98611e-07
4.14549e-07 -1.98611e-07 -3.63317e-05
0.000950559 -0.00010023 2.20904e-06
-0.00010023 2.5636e-05 -1.95373e-06
2.20904e-06 -1.95373e-06 -0.000102752
0.000980342 -7.12092e-05 -1.78516e-06
-7.12092e-05 8.29698e-05 3.55544e-07
-1.78516e-06 3.55544e-07 6.29859e-07
0.00104449 -8.87565e-05 -2.29169e-07
-8.87565e-05 0.000114843 -4.21987e-07
-2.29169e-07 -4.21987e-07 2.21845e-05
0.000890851 -8.50885e-05 5.54347e-07
-8.50885e-05 4.05166e-05 -1.5144e-06
5.54347e-07 -1.5144e-06 -5.5789e-05
0.000880382 1.58128e-05 -9.38501e-07
1.58128e-05 4.72096e-05 2.72313e-06
-9.38501e-07 2.72313e-06 -1.20798e-05
0.000958425 -3.42257e-05 6.70191e-07
-3.42257e-05 8.0112e-05 3.50566e-07
6.70191e-07 3.50566e-07 3.95949e-07
0.000997507 -7.13322e-05 1.12474e-06
-7.13322e-05 0.000105924 5.51656e-07
1.12474e-06 5.51656e-07 1.44177e-05
0.00069994 4.16986e-05 -3.1313e-06
4.16986e-05 -4.17831e-05 3.79703e-06
-3.1313e-06 3.79703e-06 -5.85029e-05
0.000802312 2.69312e-05 -2.32628e-07
2.69312e-05 1.69702e-06 -1.91643e-07
-2.32628e-07 -1.91643e-07 -4.82077e-05
0.000923509 -7.27629e-06 4.22129e-07
-7.27629e-06 6.54514e-05 -1.53818e-06
4.22129e-07 -1.53818e-06 -8.5442e-06
0.00225048 5.96015e-05 -9.34701e-06
5.96015e-05 0.000778019 1.40172e-06
-9.34701e-06 1.40172e-06 0.000790179
0.000741449 3.8036e-05 1.60429e-07
3.8036e-05 -2.72976e-05 -4.11854e-09
1.60429e-07 -4.11854e-09 -4.00787e-05
0.000791075 3.7532e-05 1.13455e-06
3.7532e-05 -7.23503e-06 -2.29132e-06
1.13455e-06 -2.29132e-06 -4.94481e-05
0.00219935 4.7954e-05 8.14419e-07
4.7954e-05 0.000741717 5.64264e-08
8.14419e-07 5.64264e-08 0.000757256
0.000784596 3.53399e-05 2.35363e-06
3.53399e-05 -1.24902e-05 -3.4678e-06
2.35363e-06 -3.4678e-06 -2.17857e-05
0.00216329 4.26315e-05 2.22233e-05
4.26315e-05 0.000716569 -3.47117e-06
2.22233e-05 -3.47117e-06 0.000733685
0.00100033 3.15748e-05 -4.24165e-07
3.15748e-05 0.000104684 -1.71482e-07
-4.24165e-07 -1.71482e-07 3.02056e-05
0.00089459 3.04534e-06 5.67166e-08
3.04534e-06 4.09179e-05 -3.05484e-07
5.67166e-08 -3.05484e-07 -2.93944e-05
0.000888901 -9.07396e-06 -4.08773e-07
-9.07396e-06 3.75874e-05 -1.51373e-06
-4.08773e-07 -1.51373e-06 -2.56295e-05
0.00080721 -3.79564e-05 -8.36614e-07
-3.79564e-05 -4.66733e-06 -2.17404e-06
-8.36614e-07 -2.17404e-06 -4.36198e-05
0.000877668 -9.77222e-06 4.42357e-07
-9.77222e-06 2.83696e-05 -4.06833e-08
4.42357e-07 -4.06833e-08 -3.0452e-05
0.000884136 6.9653e-06 5.00554e-07
6.9653e-06 3.52417e-05 7.19934e-07
5.00554e-07 7.19934e-07 -3.33228e-05
0.000772791 -2.92756e-05 -2.13015e-06
-2.92756e-05 -2.50127e-05 -3.48158e-06
-2.13015e-06 -3.48158e-06 -3.39606e-05
0.000821221 -2.65764e-05 -2.20879e-07
-2.65764e-05 -1.70401e-06 6.42625e-09
-2.20879e-07 6.42625e-09 -3.798e-05
0.000886496 -7.52547e-06 9.04895e-07
-7.52547e-06 3.17874e-05 9.94596e-07
9.04895e-07 9.94596e-07 -2.37365e-05
0.00225764 -3.73393e-05 -2.0863e-05
-3.73393e-05 0.000759792 -3.79977e-06
-2.0863e-05 -3.79977e-06 0.000777403
0.000764074 -2.57539e-05 -1.49156e-07
-2.57539e-05 -3.48943e-05 -4.93023e-10
-1.49156e-07 -4.93023e-10 -4.1995e-05
0.000839505 -1.83084e-05 8.42115e-07
-1.83084e-05 4.63652e-06 1.61303e-06
8.42115e-07 1.61303e-06 -2.9606e-05
0.00220708 -3.15015e-05 -1.50525e-06
-3.15015e-05 0.000726629 6.76549e-08
-1.50525e-06 6.76549e-08 0.000745931
0.000760327 -2.21668e-05 7.77327e-07
-2.21668e-05 -4.24311e-05 3.30323e-06
7.77327e-07 3.30323e-06 -4.73485e-05
0.00213606 -2.50859e-05 1.27862e-05
-2.50859e-05 0.000683252 3.85932e-06
1.27862e-05 3.85932e-06 0.000704356
-0.000655777 -8.40161e-05 2.40806e-05
-8.40161e-05 -0.000350996 6.64785e-06
2.40806e-05 6.64785e-06 -0.000495763
0.00127344 -2.17623e-06 2.00722e-06
-2.17623e-06 0.000100763 1.66626e-06
2.00722e-06 1.66626e-06 1.76917e-05
0.000960577 6.6809e-06 1.0648e-05
6.6809e-06 0.000110843 5.65872e-06
1.0648e-05 5.65872e-06 3.77842e-05
0.000953891 2.18625e-05 -4.50824e-07
2.18625e-05 8.41478e-05 5.24969e-07
-4.50824e-07 5.24969e-07 4.50704e-06
0.00108859 7.73968e-05 -2.20017e-07
7.73968e-05 0.000163911 9.76405e-07
-2.20017e-07 9.76405e-07 7.65663e-05
0.000971092 4.01363e-05 -4.23572e-07
4.01363e-05 9.61693e-05 2.89355e-07
-4.23572e-07 2.89355e-07 1.19949e-05
0.00103707 -1.99377e-05 6.37915e-08
-1.99377e-05 0.00011631 -3.18585e-07
6.37915e-08 -3.18585e-07 4.64578e-05
0.000997 1.59941e-05 3.68909e-07
1.59941e-05 9.7301e-05 4.75799e-07
3.68909e-07 4.75799e-07 2.29404e-05
0.000866568 -5.07926e-06 -5.18752e-07
-5.07926e-06 3.03772e-05 1.14085e-06
-5.18752e-07 1.14085e-06 -4.49899e-05
0.000867715 1.45495e-05 -3.97721e-07
1.45495e-05 3.72282e-05 1.48279e-08
-3.97721e-07 1.48279e-08 -4.06857e-05
0.000933221 1.85171e-05 1.84935e-07
1.85171e-05 6.97434e-05 -8.27479e-09
1.84935e-07 -8.27479e-09 -1.08836e-05
0.00102395 4.67205e-05 3.88084e-07
4.67205e-05 0.000133586 -8.8196e-07
3.88084e-07 -8.8196e-07 4.46397e-05
0.000831921 4.48322e-05 1.53996e-06
4.48322e-05 1.38331e-05 -1.7286e-06
1.53996e-06 -1.7286e-06 -6.67201e-05
0.000943295 3.54389e-05 -7.07654e-08
3.54389e-05 7.7882e-05 -5.35236e-07
-7.07654e-08 -5.35236e-07 1.09803e-06
0.00111005 2.96793e-05 4.48019e-07
2.96793e-05 0.000170523 2.00575e-07
4.48019e-07 2.00575e-07 9.34816e-05
-0.0023729 -0.000248998 1.83726e-05
-0.000248998 -0.00121582 2.47347e-05
1.83726e-05 2.47347e-05 -0.00117313
0.000406084 -0.000225014 8.22075e-06
-0.000225014 -8.08263e-05 2.14472e-06
8.22075e-06 2.14472e-06 0.000124547
0.00175585 -1.97485e-05 -1.73383e-05
-1.97485e-05 0.000191444 -1.12333e-05
-1.73383e-05 -1.12333e-05 8.32096e-05
-0.00125745 -0.000398707 -1.00856e-05
-0.000398707 -0.00182867 8.70233e-06
-1.00856e-05 8.70233e-06 -0.000774113
0.00437887 -0.00046483 -2.2889e-05
-0.00046483 0.00119224 -4.40204e-05
-2.2889e-05 -4.40204e-05 0.00129166
0.00430708 -4.31139e-05 5.54192e-05
-4.31139e-05 0.000715681 2.51997e-05
5.54192e-05 2.51997e-05 -0.00035777
0.00166615 -0.000121571 -7.07143e-05
-0.000121571 0.000177092 7.85534e-05
-7.07143e-05 7.85534e-05 -0.000469643
0.00262455 0.000121462 -4.49783e-05
0.000121462 0.000301616 -1.78119e-05
-4.49783e-05 -1.78119e-05 -5.40374e-05
0.00302904 -0.000484921 -7.04958e-06
-0.000484921 0.000974152 7.34122e-06
-7.04958e-06 7.34122e-06 0.00112249
0.00254068 -8.55494e-05 2.47909e-05
-8.55494e-05 2.28398e-05 3.67624e-05
2.47909e-05 3.67624e-05 -0.0011257
0.00159414 0.000213604 -8.28126e-05
0.000213604 -4.64371e-05 -8.82578e-05
-8.28126e-05 -8.82578e-05 -0.000632284
0.00327751 7.39284e-05 -8.40371e-05
7.39284e-05 0.000613979 -2.74871e-05
-8.40371e-05 -2.74871e-05 -0.000542605
0.00239282 0.000225504 1.08776e-05
0.000225504 0.000714221 -6.16004e-06
1.08776e-05 -6.16004e-06 0.000586427
0.000883941 9.56264e-05 -9.54921e-07
9.56264e-05 6.05828e-05 -1.88157e-07
-9.54921e-07 -1.88157e-07 -3.23292e-06
0.00126345 2.21988e-05 1.18589e-07
2.21988e-05 0.000243682 -1.95511e-06
1.18589e-07 -1.95511e-06 0.000177145
-0.000500149 2.0468e-05 -1.88679e-05
2.0468e-05 -0.000434799 -1.38685e-05
-1.88679e-05 -1.38685e-05 -0.000605469
0.00156545 8.0503e-05 -1.39846e-06
8.0503e-05 0.000481179 -4.89668e-06
-1.39846e-06 -4.89668e-06 0.00037379
0.00103372 0.000153652 9.72311e-06
0.000153652 0.000150155 2.72166e-07
9.72311e-06 2.72166e-07 3.3083e-05
0.000580349 0.000175133 3.33776e-05
0.000175133 -0.000352411 2.37274e-05
3.33776e-05 2.37274e-05 -0.000420246
-0.00239264 -1.31293e-05 9.87412e-06
-1.31293e-05 -0.00132899 -8.35571e-06
9.87412e-06 -8.35571e-06 -0.00108081
0.000190019 -1.80858e-07 2.4759e-06
-1.80858e-07 0.00017499 9.00279e-07
2.4759e-06 9.00279e-07 4.63206e-05
0.000693833 -1.76666e-06 -8.14509e-06
-1.76666e-06 -0.000162022 -1.88695e-06
-8.14509e-06 -1.88695e-06 -0.000246325
0.000741967 -0.000132517 -3.01003e-05
-0.000132517 -0.000140538 -6.05309e-06
-3.01003e-05 -6.05309e-06 -3.73024e-05
0.00323823 -0.000368858 -4.74306e-05
-0.000368858 0.000588177 -2.88473e-06
-4.74306e-05 -2.88473e-06 3.16174e-05
0.000969423 8.33901e-05 -2.87801e-05
8.33901e-05 0.000580794 5.88365e-06
-2.87801e-05 5.88365e-06 0.000581657
0.00117185 0.000283416 2.16454e-05
0.000283416 -0.000278534 -4.34456e-05
2.16454e-05 -4.34456e-05 -0.0015641
0.00591911 0.000409084 -9.34658e-05
0.000409084 0.00291542 1.67362e-05
-9.34658e-05 1.67362e-05 0.00297283
0.00120437 -0.000211034 8.88018e-06
-0.000211034 -1.69662e-05 -3.08897e-08
8.88018e-06 -3.08897e-08 5.25859e-07
-0.000899059 0.000190976 -1.99221e-05
0.000190976 -0.000419191 -1.22812e-06
-1.99221e-05 -1.22812e-06 -0.000427918
0.00262598 0.000244353 -5.89678e-06
0.000244353 0.000256697 1.20939e-05
-5.89678e-06 1.20939e-05 -0.000896765
0.00359448 -0.000106188 1.51444e-06
-0.000106188 0.000521124 5.19149e-06
1.51444e-06 5.19149e-06 0.000162023
0.000577961 -0.000128061 -3.36588e-06
-0.000128061 -0.000246064 -6.95477e-06
-3.36588e-06 -6.95477e-06 -0.000302154
0.00608803 9.23275e-05 2.69468e-05
9.23275e-05 0.00190333 2.52253e-06
2.69468e-05 2.52253e-06 0.00107897
0.00136526 6.33306e-05 2.38231e-06
6.33306e-05 -0.000484659 -7.59563e-06
2.38231e-06 -7.59563e-06 -0.000738811
0.000775307 -0.00012903 -4.32525e-06
-0.00012903 -0.000127184 -1.25541e-06
-4.32525e-06 -1.25541e-06 -0.000180272
0.00144756 -0.00016073 -2.32927e-07
-0.00016073 -2.62009e-05 -2.83776e-07
-2.32927e-07 -2.83776e-07 -7.05964e-05
0.00203056 -0.000184757 -7.31523e-06
-0.000184757 9.88919e-05 2.73912e-06
-7.31523e-06 2.73912e-06 6.078e-05
0.00123169 -0.000142618 -2.59009e-06
-0.000142618 8.36826e-05 -2.91913e-06
-2.59009e-06 -2.91913e-06 -6.66065e-05
0.00154548 -0.000157283 -2.95788e-06
-0.000157283 5.62961e-05 8.08245e-07
-2.95788e-06 8.08245e-07 -5.35624e-05
0.00167167 -0.000140158 -7.54972e-06
-0.000140158 -1.01453e-05 1.1087e-06
-7.54972e-06 1.1087e-06 -8.02078e-05
0.0010059 -0.000123642 1.90134e-06
-0.000123642 -5.69466e-05 6.08383e-08
1.90134e-06 6.08383e-08 -0.000201988
0.00147913 -0.000128963 -9.0056e-07
-0.000128963 5.03721e-05 3.80496e-08
-9.0056e-07 3.80496e-08 -5.82593e-05
0.00172316 -0.00011674 -2.90507e-06
-0.00011674 6.96105e-05 -1.02085e-06
-2.90507e-06 -1.02085e-06 -4.02452e-06
0.00121695 -0.000117425 2.17861e-06
-0.000117425 3.15016e-05 1.18736e-06
2.17861e-06 1.18736e-06 -9.95701e-05
0.00144867 -0.000112552 -2.46713e-07
-0.000112552 6.32192e-05 4.21366e-07
-2.46713e-07 4.21366e-07 -3.75468e-05
0.00156704 -0.000103117 -1.82269e-06
-0.000103117 7.90534e-05 -1.28643e-06
-1.82269e-06 -1.28643e-06 2.39737e-06
0.00184371 -0.000103488 -7.80129e-07
-0.000103488 0.000273089 -1.81783e-06
-7.80129e-07 -1.81783e-06 0.000189925
0.00152564 -0.000105788 -1.0057e-06
-0.000105788 0.000138646 1.38821e-06
-1.0057e-06 1.38821e-06 4.36053e-05
0.00141172 -0.000104543 -1.27139e-06
-0.000104543 0.000115164 -3.37242e-06
-1.27139e-06 -3.37242e-06 1.36289e-05
0.00131407 -0.000107724 -2.76021e-06
-0.000107724 0.000134156 -1.51598e-07
-2.76021e-06 -1.51598e-07 2.15683e-05
0.00144063 -0.000115963 1.0025e-06
-0.000115963 0.000176395 -4.04966e-07
1.0025e-06 -4.04966e-07 5.72166e-05
0.00138587 -0.000111496 3.28719e-06
-0.000111496 0.000113954 2.50643e-06
3.28719e-06 2.50643e-06 -3.2926e-06
0.00079135 -8.57184e-05 -2.53106e-06
-8.57184e-05 -5.82612e-05 2.03764e-06
-2.53106e-06 2.03764e-06 -0.000163305
0.00103131 -9.86877e-05 1.3915e-07
-9.86877e-05 4.68234e-05 -5.04864e-08
1.3915e-07 -5.04864e-08 -6.77095e-05
0.00148092 -0.000120789 4.08759e-06
-0.000120789 0.000254607 -2.32635e-06
4.08759e-06 -2.32635e-06 0.000128574
0.000952918 -7.67762e-05 -1.58308e-06
-7.67762e-05 6.10541e-05 5.63905e-07
-1.58308e-06 5.63905e-07 -2.4713e-05
0.00107391 -9.35351e-05 1.20058e-07
-9.35351e-05 0.00011732 -2.10948e-07
1.20058e-07 -2.10948e-07 1.96324e-05
0.000757953 -8.46643e-05 1.28385e-06
-8.46643e-05 -5.35642e-05 -2.6196e-06
1.28385e-06 -2.6196e-06 -0.000163077
0.000839181 -1.2828e-05 -2.53257e-06
-1.2828e-05 2.54175e-05 2.40099e-06
-2.53257e-06 2.40099e-06 -4.02709e-05
0.00101761 -7.32699e-05 -2.46894e-08
-7.32699e-05 0.000100993 -3.15465e-08
-2.46894e-08 -3.15465e-08 1.86772e-05
0.0011164 -9.1341e-05 1.12002e-06
-9.1341e-05 0.000150427 -4.99287e-07
1.12002e-06 -4.99287e-07 5.76368e-05
0.00064567 4.93755e-05 -2.54335e-06
4.93755e-05 -6.2038e-05 4.34177e-06
-2.54335e-06 4.34177e-06 -8.49445e-05
0.00082891 6.71525e-06 -2.6626e-08
6.71525e-06 1.99952e-05 3.09067e-08
-2.6626e-08 3.09067e-08 -3.98865e-05
0.000996446 -3.84758e-05 1.61328e-06
-3.84758e-05 9.98177e-05 -4.92097e-07
1.61328e-06 -4.92097e-07 1.983e-05
0.00239866 6.03848e-05 -2.96382e-05
6.03848e-05 0.000860959 3.17778e-06
-2.96382e-05 3.17778e-06 0.000871903
0.000720328 4.41507e-05 -8.86319e-08
4.41507e-05 -3.0234e-05 -9.41827e-08
-8.86319e-08 -9.41827e-08 -4.75756e-05
0.000778799 9.63657e-06 2.31256e-06
9.63657e-06 -1.11018e-05 -2.57712e-06
2.31256e-06 -2.57712e-06 -6.09185e-05
0.00162792 4.69019e-05 1.13894e-05
4.69019e-05 0.000447232 -7.90373e-07
1.13894e-05 -7.90373e-07 0.000456835
0.000770993 3.97165e-05 2.77416e-06
3.97165e-05 -1.20455e-05 -3.70726e-06
2.77416e-06 -3.70726e-06 -2.50153e-05
0.00223129 4.82454e-05 2.55105e-05
4.82454e-05 0.000759983 -3.41466e-06
2.55105e-05 -3.41466e-06 0.000775038
0.000978423 4.78805e-05 6.33164e-08
4.78805e-05 9.58648e-05 7.39393e-07
6.33164e-08 7.39393e-07 1.60472e-05
0.000963001 1.15582e-05 -1.06141e-07
1.15582e-05 8.25311e-05 5.02621e-07
-1.06141e-07 5.02621e-07 9.32565e-06
0.000906049 -2.13972e-05 -5.07712e-07
-2.13972e-05 5.24331e-05 -1.26757e-06
-5.07712e-07 -1.26757e-06 -1.47968e-05
0.000940988 1.48933e-05 3.14429e-07
1.48933e-05 6.59404e-05 5.75675e-07
3.14429e-07 5.75675e-07 -5.26578e-06
0.000887692 -2.56111e-05 1.26312e-07
-2.56111e-05 3.50406e-05 -3.59496e-08
1.26312e-07 -3.59496e-08 -2.67711e-05
0.000790268 -3.57107e-05 -1.23355e-06
-3.57107e-05 -8.51561e-06 -2.33638e-06
-1.23355e-06 -2.33638e-06 -5.06192e-05
0.00076606 -3.29002e-05 -2.60272e-06
-3.29002e-05 -2.29599e-05 -3.57159e-06
-2.60272e-06 -3.57159e-06 -3.35885e-05
0.000810711 -3.3978e-05 -1.66809e-07
-3.3978e-05 -3.41922e-06 -1.75118e-08
-1.66809e-07 -1.75118e-08 -4.19654e-05
0.000885445 -3.65264e-05 -1.89026e-08
-3.65264e-05 3.10003e-05 1.33645e-06
-1.89026e-08 1.33645e-06 -2.64684e-05
0.00227885 -4.27897e-05 -2.37383e-05
-4.27897e-05 0.000777388 -3.66425e-06
-2.37383e-05 -3.66425e-06 0.000793539
0.000754744 -2.87848e-05 -2.10138e-07
-2.87848e-05 -3.41977e-05 1.86278e-08
-2.10138e-07 1.86278e-08 -4.30912e-05
0.000828647 -1.86624e-05 1.48488e-06
-1.86624e-05 1.56153e-06 1.81606e-06
1.48488e-06 1.81606e-06 -3.42872e-05
0.00225568 -3.73505e-05 -1.17329e-06
-3.73505e-05 0.000758106 7.51116e-08
-1.17329e-06 7.51116e-08 0.000775841
0.000749594 -2.53707e-05 1.28863e-06
-2.53707e-05 -4.224e-05 3.41716e-06
1.28863e-06 3.41716e-06 -4.92979e-05
0.00219487 -3.13819e-05 1.57762e-05
-3.13819e-05 0.000719563 3.84071e-06
1.57762e-05 3.84071e-06 0.000739058
0.000862399 7.75763e-05 9.73151e-05
7.75763e-05 0.000372274 2.35209e-05
9.73151e-05 2.35209e-05 0.000140541
0.000532152 -9.71223e-05 5.84942e-06
-9.71223e-05 0.000250296 2.82314e-06
5.84942e-06 2.82314e-06 0.0001696
0.00123939 -4.32688e-06 -1.00284e-05
-4.32688e-06 6.84547e-05 -1.63535e-07
-1.00284e-05 -1.63535e-07 -1.30328e-05
0.000949174 1.32244e-05 4.64764e-07
1.32244e-05 8.10643e-05 5.28255e-07
4.64764e-07 5.28255e-07 1.66168e-06
0.00094164 2.40938e-05 1.68886e-07
2.40938e-05 8.02762e-05 3.75668e-07
1.68886e-07 3.75668e-07 -3.64703e-06
0.000988332 7.74707e-05 -9.7964e-08
7.74707e-05 0.000115234 3.47857e-08
-9.7964e-08 3.47857e-08 2.81159e-05
0.00109711 9.34645e-05 5.74062e-07
9.34645e-05 0.0001648 9.6098e-07
5.74062e-07 9.6098e-07 7.36292e-05
0.00100706 6.78323e-05 -9.56926e-07
6.78323e-05 0.000127518 5.4857e-07
-9.56926e-07 5.4857e-07 3.66771e-05
0.000903661 2.0653e-05 1.28918e-07
2.0653e-05 5.54357e-05 7.30562e-07
1.28918e-07 7.30562e-07 -2.28949e-05
0.00091109 1.71827e-05 3.08451e-07
1.71827e-05 5.77729e-05 7.3968e-07
3.08451e-07 7.3968e-07 -2.25261e-05
0.00085361 4.94503e-05 -4.72677e-07
4.94503e-05 4.56296e-05 -5.51172e-07
-4.72677e-07 -5.51172e-07 -4.22877e-05
0.000330639 5.93557e-05 -4.64049e-07
5.93557e-05 -0.000217742 1.26843e-06
-4.64049e-07 1.26843e-06 -0.00031033
0.000831814 7.77482e-05 -1.0856e-07
7.77482e-05 1.46877e-05 -1.38633e-06
-1.0856e-07 -1.38633e-06 -7.54744e-05
0.00191328 0.000161004 2.78725e-06
0.000161004 0.000464951 -4.04068e-06
2.78725e-06 -4.04068e-06 0.000355061
0.000938962 5.18556e-05 -1.6949e-06
5.18556e-05 8.38242e-05 -2.34535e-07
-1.6949e-06 -2.34535e-07 1.50896e-06
0.000893284 1.54144e-05 -8.44663e-08
1.54144e-05 5.57896e-05 -2.34403e-07
-8.44663e-08 -2.34403e-07 -1.92065e-05
0.0088684 -0.000144582 -2.63523e-05
-0.000144582 0.00265568 -1.31164e-05
-2.63523e-05 -1.31164e-05 0.00175657
-0.00138457 -0.000259905 -1.29447e-05
-0.000259905 -0.000684271 2.42945e-06
-1.29447e-05 2.42945e-06 -0.000806453
0.00170207 -0.00022918 -2.88279e-05
-0.00022918 0.00061025 -1.73478e-05
-2.88279e-05 -1.73478e-05 0.000808731
-0.00223996 -0.000298273 -2.80676e-05
-0.000298273 -0.00147201 -1.1189e-05
-2.80676e-05 -1.1189e-05 -0.00125333
0.00890785 -0.000359278 5.61918e-05
-0.000359278 0.00292593 3.05327e-05
5.61918e-05 3.05327e-05 0.00149043
0.00206005 8.41495e-05 1.87735e-05
8.41495e-05 0.000219167 1.48767e-05
1.87735e-05 1.48767e-05 2.5394e-05
0.0019779 0.000227075 -3.52973e-05
0.000227075 8.07656e-05 -2.36667e-05
-3.52973e-05 -2.36667e-05 -0.00037463
0.00619026 -0.000267771 4.0424e-05
-0.000267771 0.00164504 1.77073e-05
4.0424e-05 1.77073e-05 0.000675573
0.00218023 0.000147195 -1.45298e-05
0.000147195 -4.65882e-05 -4.38186e-05
-1.45298e-05 -4.38186e-05 -0.000441187
0.00223062 0.000255939 1.66237e-05
0.000255939 0.000417528 1.08042e-05
1.66237e-05 1.08042e-05 0.000272596
0.000887352 0.000147297 3.95694e-07
0.000147297 2.58812e-05 -4.59512e-06
3.95694e-07 -4.59512e-06 -0.000115899
0.000940417 7.64735e-05 -1.96866e-06
7.64735e-05 8.1712e-05 1.69178e-06
-1.96866e-06 1.69178e-06 2.22405e-05
0.00197126 0.000198944 -3.46107e-05
0.000198944 0.00058725 -1.90131e-05
-3.46107e-05 -1.90131e-05 0.000478958
0.000408284 0.00018065 -1.05117e-05
0.00018065 -0.000429411 1.3278e-05
-1.05117e-05 1.3278e-05 -0.000506941
0.000163023 -1.47439e-05 5.89262e-08
-1.47439e-05 -0.00102443 -7.7819e-06
5.89262e-08 -7.7819e-06 -0.00149712
0.00161887 1.6097e-05 -4.50202e-06
1.6097e-05 0.000639487 7.42629e-07
-4.50202e-06 7.42629e-07 0.000637428
-0.0011383 6.18903e-06 -1.32805e-05
6.18903e-06 -0.000527338 4.4521e-07
-1.32805e-05 4.4521e-07 -0.000698138
0.00225326 -0.000252064 -3.63094e-05
-0.000252064 0.000437644 1.02161e-05
-3.63094e-05 1.02161e-05 0.00045456
0.0031087 -0.000136593 3.20869e-06
-0.000136593 9.02594e-05 -2.20171e-05
3.20869e-06 -2.20171e-05 -0.000519123
0.000159455 2.6797e-06 -8.13932e-05
2.6797e-06 7.89747e-05 2.40934e-05
-8.13932e-05 2.40934e-05 -0.000105611
0.007308 0.000418382 -2.76826e-05
0.000418382 0.00257789 1.66529e-05
-2.76826e-05 1.66529e-05 0.00148961
0.000833612 -0.000136372 1.96746e-06
-0.000136372 -0.000155068 -1.80997e-06
1.96746e-06 -1.80997e-06 -0.000173123
0.00514228 0.000200864 2.37133e-05
0.000200864 0.00138228 7.18928e-06
2.37133e-05 7.18928e-06 0.000669819
0.00308634 7.4936e-05 3.78009e-05
7.4936e-05 0.000124995 -3.05471e-06
3.78009e-05 -3.05471e-06 -0.000267853
0.0032321 -0.000143434 -5.75804e-06
-0.000143434 0.000966196 4.08651e-07
-5.75804e-06 4.08651e-07 0.000901303
0.00131208 3.96622e-05 -5.03111e-05
3.96622e-05 6.98248e-05 -2.93753e-07
-5.03111e-05 -2.93753e-07 -0.000202255
0.00133634 -0.000158932 5.57654e-06
-0.000158932 -7.04063e-05 -2.79285e-06
5.57654e-06 -2.79285e-06 -0.000119421
0.00177461 -0.000176841 -1.28647e-06
-0.000176841 -4.59588e-06 2.7393e-06
-1.28647e-06 2.7393e-06 -4.85109e-05
0.0023549 -0.000127475 -1.11727e-05
-0.000127475 0.000204926 1.10708e-06
-1.11727e-05 1.10708e-06 0.000160295
0.00146518 -0.000151206 3.95939e-06
-0.000151206 1.29823e-05 1.26986e-06
3.95939e-06 1.26986e-06 -9.49107e-05
0.00178672 -0.000138373 1.2205e-07
-0.000138373 6.03154e-05 1.3302e-06
1.2205e-07 1.3302e-06 -1.02222e-05
0.00175823 -9.64153e-05 -2.51844e-06
-9.64153e-05 -1.78816e-06 2.66827e-06
-2.51844e-06 2.66827e-06 -6.06539e-05
0.00121095 -0.0001186 3.28879e-06
-0.0001186 -9.02593e-05 2.82433e-06
3.28879e-06 2.82433e-06 -0.000197289
0.00161806 -0.000114682 -2.59759e-07
-0.000114682 2.33608e-05 1.75037e-06
-2.59759e-07 1.75037e-06 -5.20612e-05
0.00177254 -9.64065e-05 -6.39033e-07
-9.64065e-05 8.85636e-05 2.28435e-06
-6.39033e-07 2.28435e-06 2.08242e-05
0.0012855 -0.000107126 3.75323e-06
-0.000107126 -2.12685e-05 3.7024e-06
3.75323e-06 3.7024e-06 -0.000121381
0.00151806 -0.000102776 5.73113e-09
-0.000102776 5.74406e-05 1.28192e-06
5.73113e-09 1.28192e-06 -2.03784e-05
0.0017031 -9.41404e-05 1.86634e-07
-9.41404e-05 0.000144679 -3.67028e-07
1.86634e-07 -3.67028e-07 6.98263e-05
0.00156974 -9.76499e-05 -1.99712e-06
-9.76499e-05 0.000135796 1.09196e-06
-1.99712e-06 1.09196e-06 5.50524e-05
0.00174292 -0.000100743 1.38421e-06
-0.000100743 0.00024316 -2.44986e-06
1.38421e-06 -2.44986e-06 0.000152659
0.00148689 -0.000102637 2.18634e-06
-0.000102637 0.000118791 4.70709e-06
2.18634e-06 4.70709e-06 2.6134e-05
0.00141096 -0.000103513 2.1626e-07
-0.000103513 0.000114207 -5.65202e-07
2.1626e-07 -5.65202e-07 1.23301e-05
0.00139165 -0.00010105 -1.40013e-06
-0.00010105 0.000126227 -1.45003e-06
-1.40013e-06 -1.45003e-06 2.29145e-05
0.000921532 -8.95546e-05 -2.97705e-06
-8.95546e-05 -3.96128e-05 9.98779e-07
-2.97705e-06 9.98779e-07 -0.000145709
0.00130032 -0.000106329 6.74186e-08
-0.000106329 0.000127666 -1.89516e-07
6.74186e-08 -1.89516e-07 1.47349e-05
0.00155603 -0.000118926 3.63824e-06
-0.000118926 0.0002367 2.86066e-07
3.63824e-06 2.86066e-07 0.000117516
0.000993943 -8.40324e-05 -2.15878e-06
-8.40324e-05 6.56509e-05 1.13639e-06
-2.15878e-06 1.13639e-06 -2.58342e-05
0.000887331 -8.89285e-05 -5.98787e-07
-8.89285e-05 -7.09516e-06 7.05028e-07
-5.98787e-07 7.05028e-07 -0.000111247
0.00131575 -0.000108676 2.84894e-06
-0.000108676 0.000194013 -1.6581e-06
2.84894e-06 -1.6581e-06 8.06205e-05
0.000756503 -2.42805e-05 -2.45647e-06
-2.42805e-05 -2.00357e-05 1.7394e-06
-2.45647e-06 1.7394e-06 -8.83786e-05
0.00103418 -8.06477e-05 5.33211e-08
-8.06477e-05 0.000101362 -1.93816e-07
5.33211e-08 -1.93816e-07 1.52223e-05
0.0011382 -9.56617e-05 1.44981e-06
-9.56617e-05 0.000148815 -1.41272e-06
1.44981e-06 -1.41272e-06 5.09069e-05
0.000603447 5.58621e-05 -1.73917e-06
5.58621e-05 -7.8384e-05 4.78129e-06
-1.73917e-06 4.78129e-06 -0.000108162
0.00084554 -1.57454e-05 -3.47528e-08
-1.57454e-05 2.72048e-05 2.25748e-07
-3.47528e-08 2.25748e-07 -3.81809e-05
0.00106166 -6.77392e-05 1.78659e-06
-6.77392e-05 0.000122019 -3.88766e-07
1.78659e-06 -3.88766e-07 4.01818e-05
0.00258008 6.83221e-05 -3.25839e-05
6.83221e-05 0.000961765 3.12242e-06
-3.25839e-05 3.12242e-06 0.000969964
0.000679135 5.18198e-05 2.60693e-08
5.18198e-05 -4.31185e-05 -1.2182e-07
2.60693e-08 -1.2182e-07 -6.67846e-05
0.000794755 -1.45839e-05 2.39937e-06
-1.45839e-05 -4.62262e-07 -2.33507e-06
2.39937e-06 -2.33507e-06 -5.92679e-05
0.00243938 6.07944e-05 4.34361e-07
6.07944e-05 0.000882648 8.38294e-08
4.34361e-07 8.38294e-08 0.000893245
0.000745644 4.65576e-05 2.05151e-06
4.65576e-05 -1.60447e-05 -4.12718e-06
2.05151e-06 -4.12718e-06 -3.40377e-05
0.00233343 5.41936e-05 2.8994e-05
5.41936e-05 0.000820988 -3.32236e-06
2.8994e-05 -3.32236e-06 0.000833776
0.00101933 8.24088e-05 3.61268e-08
8.24088e-05 0.000116642 4.7813e-07
3.61268e-08 4.7813e-07 2.88558e-05
0.000933968 5.704e-05 3.5072e-07
5.704e-05 7.43594e-05 1.37646e-07
3.5072e-07 1.37646e-07 -6.23366e-06
0.00083342 -1.22779e-05 -9.22162e-07
-1.22779e-05 1.79084e-05 -6.11384e-07
-9.22162e-07 -6.11384e-07 -5.61339e-05
0.000911171 1.23356e-06 2.6434e-07
1.23356e-06 5.48295e-05 9.35551e-07
2.6434e-07 9.35551e-07 -1.86173e-05
0.000874187 -2.85072e-05 -4.17733e-08
-2.85072e-05 3.54582e-05 1.30042e-07
-4.17733e-08 1.30042e-07 -3.21994e-05
0.000783387 -3.16523e-05 -1.45107e-06
-3.16523e-05 -7.23299e-06 -2.2593e-06
-1.45107e-06 -2.2593e-06 -5.50091e-05
0.000870446 -3.3582e-05 2.58955e-07
-3.3582e-05 2.6001e-05 1.48878e-06
2.58955e-07 1.48878e-06 -3.56589e-05
0.00080362 -3.55124e-05 -2.78723e-08
-3.55124e-05 -2.32984e-06 -1.00339e-07
-2.78723e-08 -1.00339e-07 -4.4214e-05
0.000758 -3.84564e-05 -2.73338e-06
-3.84564e-05 -1.94235e-05 -3.70105e-06
-2.73338e-06 -3.70105e-06 -3.26157e-05
0.00228593 -4.81309e-05 -2.6001e-05
-4.81309e-05 0.000788226 -3.4835e-06
-2.6001e-05 -3.4835e-06 0.000802867
0.00075103 -3.21475e-05 -6.33369e-08
-3.21475e-05 -3.04811e-05 1.88316e-08
-6.33369e-08 1.88316e-08 -4.10409e-05
0.000811882 -2.99143e-05 1.47335e-06
-2.99143e-05 -3.40073e-06 2.01737e-06
1.47335e-06 2.01737e-06 -4.15531e-05
0.00228491 -4.28487e-05 -1.05164e-06
-4.28487e-05 0.000779796 8.34146e-08
-1.05164e-06 8.34146e-08 0.000796037
0.000738989 -2.83015e-05 1.74087e-06
-2.83015e-05 -4.22266e-05 3.53091e-06
1.74087e-06 3.53091e-06 -5.10647e-05
0.0022499 -3.72654e-05 1.92508e-05
-3.72654e-05 0.000754442 3.78874e-06
1.92508e-05 3.78874e-06 0.00077232
0.00698235 7.90022e-06 4.35559e-05
7.90022e-06 0.0020647 5.41497e-06
4.35559e-05 5.41497e-06 0.00136354
-0.001888 -7.18121e-05 2.59623e-06
-7.18121e-05 -0.000993879 1.28511e-06
2.59623e-06 1.28511e-06 -0.000881935
-0.000688486 -6.35577e-05 -2.24136e-05
-6.35577e-05 -0.000437512 -1.93405e-06
-2.24136e-05 -1.93405e-06 -0.000592683
0.000919686 8.26135e-06 5.24537e-07
8.26135e-06 6.86927e-05 5.06841e-07
5.24537e-07 5.06841e-07 -1.511e-05
0.000883158 7.29002e-05 -3.57489e-08
7.29002e-05 6.25579e-05 -3.71026e-07
-3.57489e-08 -3.71026e-07 -2.33647e-05
0.00106029 7.15446e-05 3.51526e-07
7.15446e-05 0.000155496 -3.04168e-08
3.51526e-07 -3.04168e-08 6.47065e-05
0.00102921 9.05801e-05 -6.86494e-07
9.05801e-05 0.000130579 -1.85784e-07
-6.86494e-07 -1.85784e-07 3.95861e-05
0.00113734 9.77498e-05 4.97773e-06
9.77498e-05 0.000179271 1.75409e-06
4.97773e-06 1.75409e-06 8.24922e-05
0.000701399 7.62515e-05 -9.57918e-07
7.62515e-05 -2.8292e-05 1.41782e-06
-9.57918e-07 1.41782e-06 -0.000119733
0.00066716 5.07783e-05 -1.04588e-08
5.07783e-05 -4.95848e-05 -2.55768e-08
-1.04588e-08 -2.55768e-08 -0.000137315
0.000665808 7.48564e-05 5.12182e-07
7.48564e-05 -4.8467e-05 -9.78032e-09
5.12182e-07 -9.78032e-09 -0.000144384
0.000807349 6.89935e-05 3.70782e-07
6.89935e-05 9.89753e-06 6.64623e-08
3.70782e-07 6.64623e-08 -8.20112e-05
0.000359941 7.66107e-05 1.20271e-06
7.66107e-05 -0.0002496 7.14236e-07
1.20271e-06 7.14236e-07 -0.000344123
0.0028145 0.000188659 1.06726e-06
0.000188659 0.000914491 -3.2113e-07
1.06726e-06 -3.2113e-07 0.000809609
0.001832 0.000173841 2.56221e-06
0.000173841 0.000257696 -9.95219e-07
2.56221e-06 -9.95219e-07 0.000135718
0.00132011 0.000137448 1.23106e-06
0.000137448 0.00017654 -6.02154e-07
1.23106e-06 -6.02154e-07 7.06666e-05
0.00105381 5.18384e-05 -2.95121e-06
5.18384e-05 0.000155268 1.0364e-06
-2.95121e-06 1.0364e-06 7.21774e-05
0.00211196 -7.72158e-05 -1.95184e-05
-7.72158e-05 -0.000194275 -1.37218e-05
-1.95184e-05 -1.37218e-05 -0.000398661
0.00436384 -0.000155213 2.8852e-06
-0.000155213 0.000845145 -9.14075e-08
2.8852e-06 -9.14075e-08 6.61266e-06
0.00395369 -0.000392249 -3.69297e-05
-0.000392249 0.00180328 -2.48331e-05
-3.69297e-05 -2.48331e-05 0.00184837
0.00634269 -0.000136755 0.000160238
-0.000136755 0.00177046 5.03325e-05
0.000160238 5.03325e-05 0.000652353
0.00324293 0.000250392 4.58493e-05
0.000250392 0.000736491 4.88696e-05
4.58493e-05 4.88696e-05 0.000516891
0.00177833 9.77784e-05 -3.79496e-05
9.77784e-05 -9.49594e-06 -1.25658e-05
-3.79496e-05 -1.25658e-05 -0.000233537
0.00159784 0.000163493 2.56787e-05
0.000163493 -2.6527e-05 1.55529e-05
2.56787e-05 1.55529e-05 -5.00851e-05
0.00192669 0.000245211 -1.62395e-06
0.000245211 0.000270927 5.21283e-06
-1.62395e-06 5.21283e-06 0.000144747
0.000223544 0.000109245 -2.52653e-06
0.000109245 -0.000293336 3.13141e-06
-2.52653e-06 3.13141e-06 -0.000431584
0.00183987 0.000254016 -6.54964e-05
0.000254016 0.000225909 -4.89808e-05
-6.54964e-05 -4.89808e-05 0.000167414
0.0031507 -5.66422e-05 -0.000133941
-5.66422e-05 0.00084836 -2.72981e-06
-0.000133941 -2.72981e-06 0.000484625
0.00665187 4.28983e-05 1.02243e-05
4.28983e-05 0.00222784 -3.58678e-06
1.02243e-05 -3.58678e-06 0.00162099
-0.00437346 -4.53551e-05 -6.02117e-06
-4.53551e-05 -0.00246531 5.41447e-06
-6.02117e-06 5.41447e-06 -0.00228537
0.000943346 -0.000143473 6.26635e-08
-0.000143473 -0.0001212 1.04627e-05
6.26635e-08 1.04627e-05 -0.000125768
0.00395819 6.33556e-05 5.91082e-05
6.33556e-05 0.000587151 2.30608e-06
5.91082e-05 2.30608e-06 0.000259518
0.000977571 -7.69964e-05 4.50376e-05
-7.69964e-05 -0.000443877 8.25395e-06
4.50376e-05 8.25395e-06 -0.00106501
0.00157811 -0.000109377 3.62309e-06
-0.000109377 0.000144873 1.16263e-06
3.62309e-06 1.16263e-06 0.000104595
0.00147939 9.82453e-05 -1.94178e-06
9.82453e-05 3.68229e-05 -3.64081e-06
-1.94178e-06 -3.64081e-06 -0.000206275
0.00325215 -4.08551e-05 1.69692e-06
-4.08551e-05 0.000822993 -1.02835e-05
1.69692e-06 -1.02835e-05 0.000768227
0.00130516 6.52217e-05 1.62243e-05
6.52217e-05 -9.08726e-05 -2.76501e-06
1.62243e-05 -2.76501e-06 -0.000191253
0.00157343 -0.000172954 5.42076e-06
-0.000172954 -7.53746e-05 -9.82579e-07
5.42076e-06 -9.82579e-07 -0.000133179
0.00203597 -0.000119643 -9.28541e-08
-0.000119643 5.45015e-05 -2.04541e-06
-9.28541e-08 -2.04541e-06 7.47025e-06
0.00234323 -3.17775e-05 5.44486e-07
-3.17775e-05 0.000279435 -2.12308e-06
5.44486e-07 -2.12308e-06 0.000217009
0.00171295 -0.000134339 9.80907e-06
-0.000134339 3.52825e-05 6.51563e-07
9.80907e-06 6.51563e-07 -3.64294e-05
0.00188571 -9.71123e-05 2.74997e-06
-9.71123e-05 7.58674e-05 -2.06728e-07
2.74997e-06 -2.06728e-07 1.40498e-05
0.00194224 -5.75822e-05 -4.3797e-07
-5.75822e-05 0.000139177 1.34115e-06
-4.3797e-07 1.34115e-06 5.68922e-05
0.00160325 -0.000113962 5.19554e-06
-0.000113962 2.21105e-05 2.91142e-06
5.19554e-06 2.91142e-06 -5.52795e-05
0.00177997 -9.68928e-05 9.59318e-07
-9.68928e-05 0.000102802 8.06383e-07
9.59318e-07 8.06383e-07 3.25382e-05
0.00188326 -7.82375e-05 -4.45915e-07
-7.82375e-05 0.000174398 1.41624e-06
-4.45915e-07 1.41624e-06 9.11308e-05
0.00148862 -0.000102663 2.86752e-06
-0.000102663 4.56629e-05 2.95961e-06
2.86752e-06 2.95961e-06 -3.33633e-05
0.00154407 -9.34317e-05 1.57213e-07
-9.34317e-05 7.31103e-05 -5.85725e-07
1.57213e-07 -5.85725e-07 -1.74191e-06
0.00148549 -8.7641e-05 2.13083e-06
-8.7641e-05 6.78095e-05 -4.96259e-08
2.13083e-06 -4.96259e-08 -2.15874e-05
0.00130662 -9.19796e-05 -3.55375e-07
-9.19796e-05 3.845e-06 3.76045e-06
-3.55375e-07 3.76045e-06 -7.44908e-05
0.00156716 -9.57826e-05 -1.12449e-06
-9.57826e-05 0.000152983 -9.32805e-07
-1.12449e-06 -9.32805e-07 6.39819e-05
0.00170374 -9.87246e-05 -2.18981e-08
-9.87246e-05 0.000244653 -1.28721e-06
-2.18981e-08 -1.28721e-06 0.000147081
0.00140976 -0.000102472 1.62594e-06
-0.000102472 0.000112903 2.04687e-06
1.62594e-06 2.04687e-06 1.07036e-05
0.00139032 -0.000100119 2.72538e-07
-0.000100119 0.000125726 -3.77395e-07
2.72538e-07 -3.77395e-07 2.20689e-05
0.00144799 -9.9836e-05 -1.83645e-06
-9.9836e-05 0.000181648 -4.13153e-07
-1.83645e-06 -4.13153e-07 8.03252e-05
0.000756597 -7.6395e-05 -3.52759e-06
-7.6395e-05 -9.29541e-05 1.44393e-06
-3.52759e-06 1.44393e-06 -0.000188204
0.00101457 -9.19851e-05 -4.73266e-07
-9.19851e-05 1.10944e-05 4.63737e-07
-4.73266e-07 4.63737e-07 -9.42002e-05
0.00128742 -0.000104974 2.57745e-06
-0.000104974 0.000121617 -4.14316e-07
2.57745e-06 -4.14316e-07 8.33954e-06
0.000823437 -4.85106e-05 -3.09226e-06
-4.85106e-05 7.51309e-06 1.68794e-06
-3.09226e-06 1.68794e-06 -6.48156e-05
0.00104623 -8.57148e-05 1.09923e-07
-8.57148e-05 9.1166e-05 1.96001e-08
1.09923e-07 1.96001e-08 -3.53147e-07
0.000999615 -9.27832e-05 1.11342e-06
-9.27832e-05 5.21935e-05 -5.87765e-07
1.11342e-06 -5.87765e-07 -5.10883e-05
0.000637055 5.26924e-05 -2.924e-06
5.26924e-05 -5.431e-05 4.54989e-06
-2.924e-06 4.54989e-06 -9.05047e-05
0.000860555 -2.74658e-05 1.04085e-07
-2.74658e-05 3.40678e-05 5.44713e-08
1.04085e-07 5.44713e-08 -3.50309e-05
0.00110688 -8.39623e-05 2.10417e-06
-8.39623e-05 0.000137396 -1.1025e-06
2.10417e-06 -1.1025e-06 5.09156e-05
0.0027904 7.6702e-05 -3.66269e-05
7.6702e-05 0.00107617 3.12433e-06
-3.66269e-05 3.12433e-06 0.00108141
0.000667299 5.01729e-05 6.55482e-07
5.01729e-05 -4.57895e-05 -5.44625e-09
6.55482e-07 -5.44625e-09 -7.51102e-05
0.000856431 -1.82883e-05 2.8719e-06
-1.82883e-05 3.12046e-05 -1.99373e-06
2.8719e-06 -1.99373e-06 -3.38847e-05
0.00261974 6.82717e-05 4.72969e-07
6.82717e-05 0.000982429 1.03365e-07
4.72969e-07 1.03365e-07 0.000990299
0.00071422 5.34958e-05 1.45256e-06
5.34958e-05 -2.37723e-05 -4.51943e-06
1.45256e-06 -4.51943e-06 -4.805e-05
0.00247879 6.08062e-05 3.26266e-05
6.08062e-05 0.000903537 -3.29282e-06
3.26266e-05 -3.29282e-06 0.000913858
0.00108573 9.08569e-05 -4.37629e-07
9.08569e-05 0.000145515 -5.81711e-07
-4.37629e-07 -5.81711e-07 5.22199e-05
0.00106826 8.48161e-05 2.22411e-07
8.48161e-05 0.000142034 1.32168e-07
2.22411e-07 1.32168e-07 5.44986e-05
0.000950406 3.87318e-05 -1.26177e-06
3.87318e-05 7.77513e-05 -2.35167e-07
-1.26177e-06 -2.35167e-07 -1.74744e-06
0.000903903 7.2842e-05 3.55619e-07
7.2842e-05 6.1844e-05 -9.12473e-08
3.55619e-07 -9.12473e-08 -2.05509e-05
0.000837338 -1.09979e-06 -3.93533e-07
-1.09979e-06 2.07697e-05 -6.38528e-08
-3.93533e-07 -6.38528e-08 -5.4328e-05
0.000780955 -7.55169e-06 -2.31916e-06
-7.55169e-06 -4.56748e-06 -1.73349e-06
-2.31916e-06 -1.73349e-06 -6.06987e-05
0.000846772 -3.4031e-05 3.21111e-07
-3.4031e-05 2.16076e-05 1.24751e-06
3.21111e-07 1.24751e-06 -4.71544e-05
0.000796849 -3.33133e-05 8.22447e-08
-3.33133e-05 -1.08733e-07 -1.98561e-07
8.22447e-08 -1.98561e-07 -4.79503e-05
0.000743503 -4.61467e-05 -2.34384e-06
-4.61467e-05 -1.7491e-05 -3.90667e-06
-2.34384e-06 -3.90667e-06 -3.49464e-05
0.000816808 -3.58881e-05 1.23842e-06
-3.58881e-05 3.86301e-06 2.2464e-06
1.23842e-06 2.2464e-06 -3.7851e-05
0.000739439 -3.68554e-05 3.77828e-08
-3.68554e-05 -2.93597e-05 -2.3191e-08
3.77828e-08 -2.3191e-08 -4.22639e-05
0.00233197 -5.38133e-05 -2.85101e-05
-5.38133e-05 0.000820081 -3.30863e-06
-2.85101e-05 -3.30863e-06 0.000832829
0.0023002 -4.82517e-05 -6.08525e-07
-4.82517e-05 0.000794715 8.18719e-08
-6.08525e-07 8.18719e-08 0.000809443
0.000735453 -3.14116e-05 2.45195e-06
-3.14116e-05 -3.83706e-05 3.57192e-06
2.45195e-06 3.57192e-06 -4.88517e-05
0.00229009 -4.2967e-05 2.22353e-05
-4.2967e-05 0.000781839 3.69149e-06
2.22353e-05 3.69149e-06 0.000798153
0.000852879 -6.45597e-05 -5.69029e-05
-6.45597e-05 -0.000470895 -2.7763e-06
-5.69029e-05 -2.7763e-06 -0.000695325
0.00174751 -0.000121402 2.13166e-07
-0.000121402 -0.000380321 -1.67675e-06
2.13166e-07 -1.67675e-06 -0.000982124
0.00288082 -0.000282748 -4.22857e-05
-0.000282748 0.00115133 -8.55483e-06
-4.22857e-05 -8.55483e-06 0.00127092
0.00119329 0.000103756 5.43103e-06
0.000103756 0.000168461 1.68938e-06
5.43103e-06 1.68938e-06 6.72314e-05
0.00112251 7.36725e-05 4.62114e-07
7.36725e-05 0.000188104 -7.09616e-07
4.62114e-07 -7.09616e-07 9.74544e-05
0.000955261 8.73432e-05 -4.77021e-07
8.73432e-05 9.33848e-05 -6.10226e-07
-4.77021e-07 -6.10226e-07 2.59288e-06
0.000921163 8.63205e-05 1.68373e-07
8.63205e-05 8.52601e-05 2.6208e-07
1.68373e-07 2.6208e-07 -7.37228e-06
0.00103434 9.36644e-05 -1.33452e-07
9.36644e-05 0.000129569 -6.10968e-07
-1.33452e-07 -6.10968e-07 3.2211e-05
0.000679178 8.34321e-05 -3.48087e-07
8.34321e-05 -7.02856e-05 1.69424e-06
-3.48087e-07 1.69424e-06 -0.000156112
0.00106275 9.36837e-05 6.25653e-07
9.36837e-05 0.000153605 -1.58277e-06
6.25653e-07 -1.58277e-06 5.38889e-05
0.00100589 6.81315e-05 -9.82058e-07
6.81315e-05 0.000116266 1.19183e-06
-9.82058e-07 1.19183e-06 2.21179e-05
0.000976247 0.000102878 8.38765e-08
0.000102878 6.16569e-05 -1.30542e-07
8.38765e-08 -1.30542e-07 -3.28743e-05
0.00209413 0.000160699 6.09771e-07
0.000160699 0.000562214 1.90044e-06
6.09771e-07 1.90044e-06 0.000459383
0.00158676 0.000150156 1.36434e-06
0.000150156 0.000179904 -1.17125e-06
1.36434e-06 -1.17125e-06 6.7871e-05
0.00189246 0.000138866 5.34062e-06
0.000138866 0.000103788 5.66915e-06
5.34062e-06 5.66915e-06 -1.56863e-05
0.00136043 0.000155749 1.08985e-06
0.000155749 2.18458e-05 3.91929e-07
1.08985e-06 3.91929e-07 -9.94754e-05
0.000815761 0.00011502 -1.25124e-06
0.00011502 -7.41258e-05 3.24748e-06
-1.25124e-06 3.24748e-06 -0.000175716
0.000584533 2.30449e-05 -8.89994e-06
2.30449e-05 -0.000378171 2.13633e-06
-8.89994e-06 2.13633e-06 -0.000386891
0.00353683 -7.04981e-05 -9.24115e-06
-7.04981e-05 0.000315024 1.01946e-06
-9.24115e-06 1.01946e-06 4.92784e-05
0.00147989 -0.000182019 5.04322e-06
-0.000182019 -0.000481661 2.33389e-06
5.04322e-06 2.33389e-06 -0.00122392
0.00277522 0.00017986 4.00149e-05
0.00017986 0.000211958 2.31121e-05
4.00149e-05 2.31121e-05 -0.000145596
0.00125713 0.000142175 -5.22561e-06
0.000142175 -0.000139077 7.1705e-07
-5.22561e-06 7.1705e-07 -0.00017308
0.000368367 0.000175393 -1.6284e-05
0.000175393 -0.00043347 -1.11069e-05
-1.6284e-05 -1.11069e-05 -0.000568295
0.00281313 -6.69992e-05 1.06585e-05
-6.69992e-05 0.000667086 -6.15136e-06
1.06585e-05 -6.15136e-06 0.000578747
0.00113036 -1.08282e-05 -2.22915e-05
-1.08282e-05 1.24945e-05 2.93947e-06
-2.22915e-05 2.93947e-06 -0.000306386
0.000684021 0.000184133 4.90885e-05
0.000184133 -0.000822364 -5.96989e-06
4.90885e-05 -5.96989e-06 -0.00139337
-6.49248e-05 -6.89189e-05 -6.41521e-06
-6.89189e-05 -0.000688145 1.29134e-05
-6.41521e-06 1.29134e-05 -0.000689451
0.00359648 0.000161051 4.02587e-05
0.000161051 0.000918639 -5.92146e-06
4.02587e-05 -5.92146e-06 0.00063553
0.00174717 -2.20555e-05 5.41325e-06
-2.20555e-05 4.5067e-05 -1.94168e-06
5.41325e-06 -1.94168e-06 2.12468e-06
0.00209133 8.11442e-05 1.78672e-06
8.11442e-05 0.000317802 -3.6848e-06
1.78672e-06 -3.6848e-06 0.000225977
0.00103826 3.75103e-05 1.41254e-06
3.75103e-05 -0.000362596 -3.46625e-06
1.41254e-06 -3.46625e-06 -0.000446733
0.00239848 5.52311e-05 -2.29726e-06
5.52311e-05 0.000369846 -4.21374e-06
-2.29726e-06 -4.21374e-06 0.00027742
0.00168174 -0.000110002 4.31102e-06
-0.000110002 -0.000111842 -1.98213e-06
4.31102e-06 -1.98213e-06 -0.000158112
0.00197547 -3.12252e-05 3.98894e-06
-3.12252e-05 8.9825e-05 1.84717e-07
3.98894e-06 1.84717e-07 2.32033e-05
0.00206448 -4.74068e-06 -1.48434e-08
-4.74068e-06 0.000232289 -2.90225e-06
-1.48434e-08 -2.90225e-06 0.000142488
0.00210993 -0.000100542 2.94814e-06
-0.000100542 0.000199708 6.76871e-07
2.94814e-06 6.76871e-07 0.000134583
0.00191601 -5.96812e-05 -1.77591e-07
-5.96812e-05 0.000125344 -7.12816e-07
-1.77591e-07 -7.12816e-07 4.20423e-05
0.00182514 -4.09986e-05 -9.98719e-07
-4.09986e-05 0.000123915 -9.24347e-08
-9.98719e-07 -9.24347e-08 2.40475e-05
0.0016894 -9.57807e-05 1.15947e-06
-9.57807e-05 6.84292e-05 -2.29986e-08
1.15947e-06 -2.29986e-08 -4.21545e-06
0.00176548 -7.90897e-05 -1.11707e-07
-7.90897e-05 0.0001268 -1.40776e-06
-1.11707e-07 -1.40776e-06 4.52217e-05
0.00149697 -6.86899e-05 4.30021e-07
-6.86899e-05 2.4215e-05 1.80724e-06
4.30021e-07 1.80724e-06 -7.13706e-05
0.00136635 -9.23086e-05 -4.38892e-07
-9.23086e-05 -8.02135e-06 -1.05233e-06
-4.38892e-07 -1.05233e-06 -8.28184e-05
0.00148249 -8.71822e-05 4.31677e-07
-8.71822e-05 6.65558e-05 -8.67869e-07
4.31677e-07 -8.67869e-07 -2.2854e-05
0.00146368 -8.73013e-05 2.59176e-07
-8.73013e-05 8.03245e-05 1.4702e-08
2.59176e-07 1.4702e-08 -1.807e-05
0.00138815 -9.0807e-05 -2.20694e-06
-9.0807e-05 6.11887e-05 1.84481e-06
-2.20694e-06 1.84481e-06 -2.6322e-05
0.00153055 -9.32259e-05 -2.55459e-07
-9.32259e-05 0.000155033 -6.41029e-07
-2.55459e-07 -6.41029e-07 5.82316e-05
0.0014261 -8.9455e-05 -1.64344e-06
-8.9455e-05 0.000129209 -3.4503e-07
-1.64344e-06 -3.4503e-07 2.97621e-05
0.00138974 -9.92052e-05 1.90313e-06
-9.92052e-05 0.000125568 6.79384e-07
1.90313e-06 6.79384e-07 2.15711e-05
0.00125835 -9.35218e-05 3.78365e-07
-9.35218e-05 8.50283e-05 -2.21826e-07
3.78365e-07 -2.21826e-07 -1.67521e-05
0.00126685 -8.85755e-05 -3.33354e-06
-8.85755e-05 0.000125274 6.59076e-07
-3.33354e-06 6.59076e-07 3.04657e-05
0.000897422 -6.08361e-05 -3.79206e-06
-6.08361e-05 2.22575e-05 1.72833e-06
-3.79206e-06 1.72833e-06 -5.39708e-05
0.000877307 -8.0382e-05 -7.69237e-07
-8.0382e-05 -2.89631e-05 5.5434e-07
-7.69237e-07 5.5434e-07 -0.000123365
0.0010905 -9.36908e-05 1.79849e-06
-9.36908e-05 5.31685e-05 -1.84882e-07
1.79849e-06 -1.84882e-07 -5.12819e-05
0.000646826 -3.22609e-06 -5.61644e-06
-3.22609e-06 -4.73138e-05 4.52932e-06
-5.61644e-06 4.52932e-06 -8.71696e-05
0.000878733 -5.03607e-05 1.43396e-07
-5.03607e-05 3.60154e-05 -4.19108e-09
1.43396e-07 -4.19108e-09 -3.6845e-05
0.00109742 -8.75074e-05 2.49369e-06
-8.75074e-05 0.00011591 -1.15749e-06
2.49369e-06 -1.15749e-06 2.43698e-05
0.00290639 8.38537e-05 -4.03397e-05
8.38537e-05 0.00114581 3.08669e-06
-4.03397e-05 3.08669e-06 0.00114757
0.000679448 2.10336e-05 -1.50602e-07
2.10336e-05 -3.82943e-05 -1.30024e-07
-1.50602e-07 -1.30024e-07 -7.2045e-05
0.000916745 -3.34195e-05 3.3293e-06
-3.34195e-05 6.24262e-05 -2.01223e-06
3.3293e-06 -2.01223e-06 -6.72253e-06
0.00276989 7.5219e-05 7.80417e-07
7.5219e-05 0.00106659 1.33257e-07
7.80417e-07 1.33257e-07 0.00107154
0.000707059 3.73677e-05 4.35833e-06
3.73677e-05 -2.5869e-05 -4.34402e-06
4.35833e-06 -4.34402e-06 -5.46277e-05
0.00264279 6.7593e-05 3.64826e-05
6.7593e-05 0.000994509 -3.39064e-06
3.64826e-05 -3.39064e-06 0.00100213
0.000888035 8.83288e-05 -3.8566e-07
8.83288e-05 2.06301e-05 -5.50772e-07
-3.8566e-07 -5.50772e-07 -7.79636e-05
0.00101417 8.7384e-05 -3.10574e-08
8.7384e-05 0.000108558 -4.64818e-07
-3.10574e-08 -4.64818e-07 1.57652e-05
0.00107891 7.64709e-05 -9.71757e-07
7.64709e-05 0.000136822 -1.31567e-07
-9.71757e-07 -1.31567e-07 5.29624e-05
0.0011105 8.70479e-05 8.42074e-09
8.70479e-05 0.000163884 -6.07843e-07
8.42074e-09 -6.07843e-07 7.66189e-05
0.000940711 4.13566e-05 -6.41564e-07
4.13566e-05 7.29282e-05 -2.6595e-07
-6.41564e-07 -2.6595e-07 -6.00914e-06
0.00081573 6.65815e-06 -2.32136e-06
6.65815e-06 1.55755e-05 -1.38321e-06
-2.32136e-06 -1.38321e-06 -4.76601e-05
0.000838463 1.1442e-05 3.05291e-07
1.1442e-05 2.14215e-05 9.58738e-08
3.05291e-07 9.58738e-08 -5.41611e-05
0.00080185 -2.67159e-05 -1.29451e-07
-2.67159e-05 6.79212e-06 1.9557e-09
-1.29451e-07 1.9557e-09 -4.89471e-05
0.000714596 -5.37701e-05 -1.83896e-06
-5.37701e-05 -2.26102e-05 -4.02913e-06
-1.83896e-06 -4.02913e-06 -4.5826e-05
0.000808914 -3.56355e-05 1.38371e-06
-3.56355e-05 6.48644e-06 2.33555e-06
1.38371e-06 2.33555e-06 -4.14608e-05
0.000720231 -4.3633e-05 2.91914e-08
-4.3633e-05 -3.05654e-05 -6.33099e-08
2.91914e-08 -6.33099e-08 -4.74023e-05
0.00243065 -6.00794e-05 -3.15533e-05
-6.00794e-05 0.00087905 -3.15333e-06
-3.15533e-05 -3.15333e-06 0.000889513
0.000727862 -3.56035e-05 2.95044e-06
-3.56035e-05 -3.56751e-05 3.59693e-06
2.95044e-06 3.59693e-06 -4.83258e-05
0.00232696 -5.38569e-05 -3.88143e-07
-5.38569e-05 0.000816346 7.4261e-08
-3.88143e-07 7.4261e-08 0.000829301
0.00231095 -4.82614e-05 2.5175e-05
-4.82614e-05 0.00079951 3.54995e-06
2.5175e-05 3.54995e-06 0.000814325
0.00056385 -4.21385e-05 -1.92677e-06
-4.21385e-05 -0.00040924 2.30408e-07
-1.92677e-06 2.30408e-07 -0.000440432
0.00302747 -5.14584e-05 9.49175e-07
-5.14584e-05 0.00033853 1.03622e-05
9.49175e-07 1.03622e-05 3.76931e-05
0.0055273 8.841e-05 -7.37578e-05
8.841e-05 0.00162601 -8.73623e-06
-7.37578e-05 -8.73623e-06 0.000944223
0.000829814 8.65378e-05 2.86293e-06
8.65378e-05 -3.81739e-05 1.36163e-06
2.86293e-06 1.36163e-06 -0.000130132
0.00138363 0.000115363 3.75713e-06
0.000115363 0.000175995 -1.20177e-06
3.75713e-06 -1.20177e-06 6.87209e-05
0.00083558 9.00414e-05 1.76832e-07
9.00414e-05 -5.91282e-06 -6.65235e-07
1.76832e-07 -6.65235e-07 -0.00010586
0.00111362 9.51499e-05 -6.29868e-07
9.51499e-05 0.000183775 -1.88598e-06
-6.29868e-07 -1.88598e-06 9.02012e-05
0.000962783 9.09385e-05 -7.67312e-07
9.09385e-05 9.56086e-05 -1.06531e-06
-7.67312e-07 -1.06531e-06 -2.41896e-06
0.00100211 9.85326e-05 1.98575e-06
9.85326e-05 8.49285e-05 1.18686e-06
1.98575e-06 1.18686e-06 -2.85957e-06
0.00173636 0.000143623 -2.16074e-06
0.000143623 0.000265446 -2.98752e-06
-2.16074e-06 -2.98752e-06 0.000159281
0.00146903 0.000123754 1.06856e-06
0.000123754 0.000312291 -4.11771e-07
1.06856e-06 -4.11771e-07 0.000217899
0.000936456 0.000115338 -1.42332e-06
0.000115338 -5.87064e-06 4.81066e-06
-1.42332e-06 4.81066e-06 -0.000106067
0.00155508 0.000148731 -1.20408e-06
0.000148731 0.000166337 -3.89307e-08
-1.20408e-06 -3.89307e-08 5.49527e-05
0.0014625 0.000121193 -1.29973e-06
0.000121193 -4.9556e-05 -4.99311e-07
-1.29973e-06 -4.99311e-07 -0.000171457
0.00163174 3.44546e-05 6.97702e-06
3.44546e-05 -7.8999e-05 4.29819e-06
6.97702e-06 4.29819e-06 -0.000167711
0.00205909 0.000141328 3.50577e-06
0.000141328 0.000193004 1.77089e-06
3.50577e-06 1.77089e-06 7.40139e-05
0.00124092 0.000148812 -3.517e-06
0.000148812 -3.89307e-05 1.63244e-06
-3.517e-06 1.63244e-06 -0.000159228
0.0012046 1.79221e-05 8.35382e-07
1.79221e-05 -7.30871e-05 -5.07861e-07
8.35382e-07 -5.07861e-07 -8.5597e-05
0.00454027 -0.00014505 4.73121e-05
-0.00014505 0.000688486 2.26075e-05
4.73121e-05 2.26075e-05 0.000387595
0.00183088 0.000140618 -3.97379e-07
0.000140618 0.000192775 -6.99416e-06
-3.97379e-07 -6.99416e-06 0.000150044
0.00209737 -6.52475e-06 3.95181e-06
-6.52475e-06 0.000283409 -2.45149e-06
3.95181e-06 -2.45149e-06 0.000215688
0.00176313 -4.61833e-05 -6.90754e-07
-4.61833e-05 0.00017711 5.75601e-07
-6.90754e-07 5.75601e-07 7.30267e-05
0.00071259 6.37291e-05 5.73149e-05
6.37291e-05 -0.000392929 1.83359e-06
5.73149e-05 1.83359e-06 -0.000777211
0.000336671 -1.39886e-05 -4.95724e-06
-1.39886e-05 -0.000672013 2.56606e-06
-4.95724e-06 2.56606e-06 -0.000708301
0.00258507 8.5549e-05 -2.49146e-05
8.5549e-05 0.000587014 3.96324e-06
-2.49146e-05 3.96324e-06 0.000506384
0.00115758 3.58193e-05 -4.30245e-07
3.58193e-05 -0.000310911 4.66166e-06
-4.30245e-07 4.66166e-06 -0.000388585
0.00215585 4.83017e-05 1.86477e-06
4.83017e-05 0.000225864 9.50256e-07
1.86477e-06 9.50256e-07 0.000136007
0.00188318 1.77797e-05 -1.22928e-06
1.77797e-05 0.00011796 -6.93442e-08
-1.22928e-06 -6.93442e-08 3.17586e-05
0.00143575 2.40655e-05 1.43511e-06
2.40655e-05 -0.00012861 -1.59795e-06
1.43511e-06 -1.59795e-06 -0.000209604
0.0015649 -3.00374e-05 6.73459e-06
-3.00374e-05 -0.000125132 2.04069e-06
6.73459e-06 2.04069e-06 -0.000195268
0.0017953 -5.14803e-06 -2.00817e-06
-5.14803e-06 9.01308e-05 1.90054e-07
-2.00817e-06 1.90054e-07 1.45853e-06
0.0016678 -1.77496e-06 4.26163e-07
-1.77496e-06 5.26655e-05 -2.46969e-06
4.26163e-07 -2.46969e-06 -4.28226e-05
0.00200022 -6.22804e-05 -2.2674e-06
-6.22804e-05 0.000169157 -7.46703e-07
-2.2674e-06 -7.46703e-07 8.51836e-05
0.00182548 -4.14719e-05 -1.97672e-07
-4.14719e-05 0.000127852 -3.68838e-07
-1.97672e-07 -3.68838e-07 3.01931e-05
0.00154699 -3.14324e-05 -4.91712e-07
-3.14324e-05 1.8655e-05 -9.30397e-08
-4.91712e-07 -9.30397e-08 -8.24404e-05
0.00164139 -7.97269e-05 -2.25997e-06
-7.97269e-05 7.60271e-05 -3.47289e-06
-2.25997e-06 -3.47289e-06 -3.88054e-06
0.00160092 -6.95289e-05 4.96114e-07
-6.95289e-05 7.42314e-05 4.21156e-07
4.96114e-07 4.21156e-07 -2.15048e-05
0.00153292 -7.11616e-05 -3.31908e-07
-7.11616e-05 6.386e-05 7.58976e-07
-3.31908e-07 7.58976e-07 -3.67882e-05
0.00148605 -8.68503e-05 -1.16381e-06
-8.68503e-05 6.85533e-05 -1.66609e-06
-1.16381e-06 -1.66609e-06 -2.08635e-05
0.00146994 -8.65386e-05 1.57807e-07
-8.65386e-05 8.2925e-05 -4.51397e-07
1.57807e-07 -4.51397e-07 -1.53827e-05
0.00140993 -8.48615e-05 -1.38361e-06
-8.48615e-05 8.21826e-05 2.94694e-07
-1.38361e-06 2.94694e-07 -1.90688e-05
0.00135607 -8.77545e-05 -4.62395e-08
-8.77545e-05 6.47591e-05 5.67716e-07
-4.62395e-08 5.67716e-07 -3.12793e-05
0.00127796 -8.51882e-05 -1.80349e-07
-8.51882e-05 5.41913e-05 -2.56645e-07
-1.80349e-07 -2.56645e-07 -4.49911e-05
0.00122713 -8.07755e-05 -3.43381e-06
-8.07755e-05 6.91831e-05 5.64165e-07
-3.43381e-06 5.64165e-07 -2.52937e-05
0.00106439 -8.71091e-05 2.45524e-06
-8.71091e-05 -1.36965e-05 -7.19567e-08
2.45524e-06 -7.19567e-08 -0.000115949
0.00106408 -8.14666e-05 1.94219e-07
-8.14666e-05 2.19975e-05 2.57632e-08
1.94219e-07 2.57632e-08 -7.27805e-05
0.000960183 -6.43749e-05 -4.70493e-06
-6.43749e-05 2.13563e-05 1.77074e-06
-4.70493e-06 1.77074e-06 -5.62825e-05
0.000588473 -2.45357e-05 -6.8197e-06
-2.45357e-05 -7.91582e-05 4.77067e-06
-6.8197e-06 4.77067e-06 -0.000124083
0.000925754 -6.32125e-05 1.59e-07
-6.32125e-05 3.70595e-05 3.07614e-08
1.59e-07 3.07614e-08 -3.94682e-05
0.00100713 -8.47857e-05 1.76025e-06
-8.47857e-05 3.96353e-05 -2.90426e-07
1.76025e-06 -2.90426e-07 -5.3947e-05
0.00301825 9.25332e-05 -4.19823e-05
9.25332e-05 0.0012205 2.99521e-06
-4.19823e-05 2.99521e-06 0.00121744
0.000705746 4.27557e-06 -3.2167e-07
4.27557e-06 -1.96426e-05 -7.0426e-08
-3.2167e-07 -7.0426e-08 -6.05684e-05
0.000954117 -4.94386e-05 3.60269e-06
-4.94386e-05 7.55774e-05 -1.80474e-06
3.60269e-06 -1.80474e-06 1.62485e-06
0.00290627 8.32926e-05 7.79873e-07
8.32926e-05 0.00114871 1.48961e-07
7.79873e-07 1.48961e-07 0.00114974
0.000744033 2.07655e-05 5.69686e-06
2.07655e-05 -6.18313e-06 -4.24381e-06
5.69686e-06 -4.24381e-06 -4.02233e-05
0.00278718 7.46981e-05 3.99761e-05
7.46981e-05 0.00107676 -3.35679e-06
3.99761e-05 -3.35679e-06 0.00108125
0.000649967 8.45531e-05 -9.13482e-08
8.45531e-05 -0.000148077 -4.69849e-07
-9.13482e-08 -4.69849e-07 -0.000254241
0.000740346 8.23809e-05 3.40727e-09
8.23809e-05 -5.73695e-05 -1.06813e-07
3.40727e-09 -1.06813e-07 -0.00015654
0.00112241 8.63472e-05 -1.46205e-06
8.63472e-05 0.000137896 -2.1198e-07
-1.46205e-06 -2.1198e-07 4.87838e-05
0.000944706 8.39839e-05 -1.46057e-07
8.39839e-05 7.25867e-05 -5.93168e-07
-1.46057e-07 -5.93168e-07 -1.96913e-05
0.000995239 7.21888e-05 -1.64297e-07
7.21888e-05 9.43311e-05 -1.67189e-07
-1.64297e-07 -1.67189e-07 1.09436e-05
0.000890308 2.2808e-05 -2.61862e-06
2.2808e-05 5.58693e-05 -1.16541e-06
-2.61862e-06 -1.16541e-06 -1.33394e-05
0.000933507 4.34564e-05 3.81107e-07
4.34564e-05 6.94943e-05 -4.9046e-07
3.81107e-07 -4.9046e-07 -8.94321e-06
0.000819756 6.30397e-07 5.31721e-08
6.30397e-07 2.07404e-05 8.83708e-08
5.31721e-08 8.83708e-08 -4.32903e-05
0.000696088 -5.27511e-05 -2.50229e-06
-5.27511e-05 -2.62271e-05 -4.00896e-06
-2.50229e-06 -4.00896e-06 -5.50766e-05
0.00081941 -3.62107e-05 1.52031e-06
-3.62107e-05 1.75083e-05 2.19438e-06
1.52031e-06 2.19438e-06 -3.85891e-05
0.000686523 -5.18767e-05 -2.10225e-08
-5.18767e-05 -3.85511e-05 -8.73965e-08
-2.10225e-08 -8.73965e-08 -6.11076e-05
0.00257042 -6.71153e-05 -3.49606e-05
-6.71153e-05 0.000958544 -3.07631e-06
-3.49606e-05 -3.07631e-06 0.000966375
0.000698072 -4.12017e-05 3.17812e-06
-4.12017e-05 -4.30609e-05 3.65876e-06
3.17812e-06 3.65876e-06 -5.92985e-05
0.00240842 -6.00667e-05 -3.87184e-07
-6.00667e-05 0.000866616 7.57798e-08
-3.87184e-07 7.57798e-08 0.000877357
0.00233236 -5.38413e-05 2.72527e-05
-5.38413e-05 0.000818134 3.35325e-06
2.72527e-05 3.35325e-06 0.000831271
0.00152674 -2.95545e-05 9.54869e-06
-2.95545e-05 -0.00011209 1.56566e-06
9.54869e-06 1.56566e-06 -0.000183928
0.00101598 -5.97265e-05 1.08206e-06
-5.97265e-05 -0.000230932 1.55936e-06
1.08206e-06 1.55936e-06 -0.00027152
0.00211147 -9.97907e-05 6.33677e-05
-9.97907e-05 -2.52759e-05 1.70587e-05
6.33677e-05 1.70587e-05 -0.000262115
0.00195467 0.000132408 1.8842e-06
0.000132408 0.000394979 -2.56244e-06
1.8842e-06 -2.56244e-06 0.000291494
0.000839629 8.93743e-05 -1.29119e-06
8.93743e-05 -1.96809e-05 5.52123e-07
-1.29119e-06 5.52123e-07 -0.000106524
0.000745734 9.52939e-05 -2.61982e-06
9.52939e-05 -0.000242037 1.23915e-06
-2.61982e-06 1.23915e-06 -0.000353219
0.00139794 0.000116082 4.0531e-07
0.000116082 0.000182354 1.53515e-07
4.0531e-07 1.53515e-07 7.4209e-05
0.000483733 7.63616e-05 -2.6491e-06
7.63616e-05 -0.000176464 5.20756e-07
-2.6491e-06 5.20756e-07 -0.000275223
0.00197441 0.000123828 -2.33197e-06
0.000123828 0.000237224 -3.78711e-06
-2.33197e-06 -3.78711e-06 0.000120384
0.00130863 0.000112781 -1.08395e-06
0.000112781 0.000232065 -7.99065e-07
-1.08395e-06 -7.99065e-07 0.000142432
0.00160419 0.000137238 -8.9299e-08
0.000137238 0.000194643 4.52465e-07
-8.9299e-08 4.52465e-07 8.80655e-05
0.00175064 5.6219e-05 3.44906e-06
5.6219e-05 5.12658e-05 2.07943e-06
3.44906e-06 2.07943e-06 -5.71799e-05
0.00156308 0.000149218 1.1279e-06
0.000149218 0.000171356 2.64476e-06
1.1279e-06 2.64476e-06 6.06675e-05
0.00172719 0.000129706 -1.10482e-06
0.000129706 7.38092e-05 -1.07057e-06
-1.10482e-06 -1.07057e-06 -4.98588e-05
0.00171447 4.16294e-05 -2.33515e-07
4.16294e-05 -2.62572e-05 -2.21704e-07
-2.33515e-07 -2.21704e-07 -0.000117324
0.00180312 0.000128637 -5.95194e-07
0.000128637 8.20063e-05 -1.11128e-06
-5.95194e-07 -1.11128e-06 -3.67776e-05
0.00124861 1.94532e-05 -4.35401e-06
1.94532e-05 -5.29606e-05 -6.93645e-06
-4.35401e-06 -6.93645e-06 -6.6486e-05
0.0015864 -4.14611e-07 4.01558e-06
-4.14611e-07 -1.83308e-05 -6.05773e-07
4.01558e-06 -6.05773e-07 -9.87413e-05
0.00180377 -3.06068e-06 -4.61045e-07
-3.06068e-06 0.000137295 -1.12209e-07
-4.61045e-07 -1.12209e-07 6.90559e-05
0.000486353 -1.4604e-05 -5.81152e-06
-1.4604e-05 -0.000429507 3.35755e-06
-5.81152e-06 3.35755e-06 -0.000547986
0.00128091 3.53456e-05 -9.70222e-08
3.53456e-05 -0.000262188 2.8471e-06
-9.70222e-08 2.8471e-06 -0.000333506
0.00199684 4.20351e-05 9.28568e-06
4.20351e-05 0.000126145 3.71313e-06
9.28568e-06 3.71313e-06 3.86948e-05
0.00170604 1.74388e-05 -3.21333e-06
1.74388e-05 2.57188e-05 4.51177e-08
-3.21333e-06 4.51177e-08 -5.99154e-05
0.00167617 2.29132e-05 4.39897e-07
2.29132e-05 -1.13118e-06 1.12902e-06
4.39897e-07 1.12902e-06 -8.21447e-05
0.0018959 1.62361e-05 1.12341e-06
1.62361e-05 0.000144156 -4.41579e-07
1.12341e-06 -4.41579e-07 5.30405e-05
0.00150141 -5.6373e-06 -3.21677e-06
-5.6373e-06 -6.23874e-05 1.44655e-06
-3.21677e-06 1.44655e-06 -0.000150329
0.00173298 -8.86097e-07 -7.23224e-08
-8.86097e-07 8.80033e-05 4.84245e-08
-7.23224e-08 4.84245e-08 -8.04179e-06
0.00160013 3.62713e-06 -3.04859e-07
3.62713e-06 3.65559e-05 -1.30337e-06
-3.04859e-07 -1.30337e-06 -6.28423e-05
0.00184526 -4.23158e-05 -7.47169e-07
-4.23158e-05 0.00014161 -4.9949e-07
-7.47169e-07 -4.9949e-07 4.61382e-05
0.00164435 -3.25108e-05 -5.90746e-08
-3.25108e-05 6.5976e-05 9.0601e-07
-5.90746e-08 9.0601e-07 -3.51495e-05
0.0016151 -3.39179e-05 -1.19286e-06
-3.39179e-05 7.30057e-05 -6.84727e-07
-1.19286e-06 -6.84727e-07 -2.8224e-05
0.00170181 -7.02171e-05 7.30316e-07
-7.02171e-05 0.000122773 -8.74749e-07
7.30316e-07 -8.74749e-07 2.68859e-05
0.0015702 -7.07426e-05 2.69463e-07
-7.07426e-05 8.15394e-05 5.08692e-07
2.69463e-07 5.08692e-07 -1.91798e-05
0.00149772 -7.2543e-05 -1.68058e-06
-7.2543e-05 7.83878e-05 4.54191e-07
-1.68058e-06 4.54191e-07 -2.40256e-05
0.00147806 -8.58832e-05 1.87526e-07
-8.58832e-05 8.64605e-05 -9.20928e-07
1.87526e-07 -9.20928e-07 -1.17646e-05
0.00141348 -8.42968e-05 8.19742e-08
-8.42968e-05 8.34423e-05 -2.03037e-07
8.19742e-08 -2.03037e-07 -1.77178e-05
0.00129405 -7.7598e-05 -3.32063e-06
-7.7598e-05 6.39675e-05 8.33941e-07
-3.32063e-06 8.33941e-07 -3.3068e-05
0.00113483 -8.10307e-05 1.40671e-06
-8.10307e-05 -1.83645e-05 -4.72051e-08
1.40671e-06 -4.72051e-08 -0.00011727
0.00122007 -7.99701e-05 2.50372e-08
-7.99701e-05 6.55043e-05 -9.82747e-08
2.50372e-08 -9.82747e-08 -2.88207e-05
0.00101843 -6.28715e-05 -5.64686e-06
-6.28715e-05 1.80379e-05 1.99899e-06
-5.64686e-06 1.99899e-06 -6.07118e-05
0.0008601 -7.42525e-05 2.92891e-06
-7.42525e-05 -8.18821e-05 -4.56067e-07
2.92891e-06 -4.56067e-07 -0.00017662
0.000973474 -6.52644e-05 2.05373e-07
-6.52644e-05 2.8322e-05 -1.63798e-08
2.05373e-07 -1.63798e-08 -4.94964e-05
0.00167273 -5.224e-06 -7.74032e-06
-5.224e-06 0.000489834 3.14112e-06
-7.74032e-06 3.14112e-06 0.000446738
0.00106252 3.74673e-05 -4.47635e-05
3.74673e-05 0.000199252 6.66087e-06
-4.47635e-05 6.66087e-06 0.000181074
0.00123072 -1.17706e-05 -1.37312e-06
-1.17706e-05 0.00025491 -6.04983e-08
-1.37312e-06 -6.04983e-08 0.000212387
0.000969186 -6.58034e-05 4.10224e-06
-6.58034e-05 5.97286e-05 -1.53242e-06
4.10224e-06 -1.53242e-06 -1.71378e-05
0.00307914 9.11814e-05 1.68194e-06
9.11814e-05 0.0012555 2.16446e-07
1.68194e-06 2.16446e-07 0.00125172
0.000769977 -1.11182e-05 6.88302e-06
-1.11182e-05 7.21522e-06 -4.34972e-06
6.88302e-06 -4.34972e-06 -3.23338e-05
0.00290563 8.08278e-05 4.42044e-05
8.08278e-05 0.00115073 -3.22841e-06
4.42044e-05 -3.22841e-06 0.00115138
0.00123639 9.99237e-05 -2.83028e-07
9.99237e-05 -3.55881e-05 4.17481e-07
-2.83028e-07 4.17481e-07 -0.000136603
0.000805046 9.29445e-05 2.0731e-06
9.29445e-05 -0.000126094 1.31465e-06
2.0731e-06 1.31465e-06 -0.000234973
0.000821318 9.19428e-05 -1.88252e-07
9.19428e-05 -6.64764e-05 -1.00712e-07
-1.88252e-07 -1.00712e-07 -0.000173976
0.00114007 9.19606e-05 -1.68124e-06
9.19606e-05 0.000118278 -4.38141e-07
-1.68124e-06 -4.38141e-07 2.46413e-05
0.000587712 7.62412e-05 -1.00517e-07
7.62412e-05 -0.000137905 3.83767e-07
-1.00517e-07 3.83767e-07 -0.00023764
0.00103012 8.13486e-05 -2.8343e-07
8.13486e-05 9.20031e-05 -6.96489e-08
-2.8343e-07 -6.96489e-08 3.44015e-06
0.000945978 4.21995e-05 -3.06603e-06
4.21995e-05 7.6823e-05 -8.88616e-07
-3.06603e-06 -8.88616e-07 4.78648e-06
0.000920023 6.81855e-05 9.63027e-07
6.81855e-05 5.62636e-05 -1.15574e-08
9.63027e-07 -1.15574e-08 -2.6685e-05
0.000834804 1.9169e-05 -1.85827e-08
1.9169e-05 2.80934e-05 1.83444e-07
-1.85827e-08 1.83444e-07 -4.08753e-05
0.000722563 -3.33783e-05 -4.72423e-06
-3.33783e-05 -1.1049e-05 -3.84386e-06
-4.72423e-06 -3.84386e-06 -4.53922e-05
0.000837732 -1.42409e-05 1.61249e-06
-1.42409e-05 3.21269e-05 1.568e-06
1.61249e-06 1.568e-06 -3.19717e-05
0.000654167 -5.81265e-05 -6.72357e-08
-5.81265e-05 -4.73303e-05 -1.1508e-07
-6.72357e-08 -1.1508e-07 -7.66591e-05
0.00271183 -7.46122e-05 -3.82469e-05
-7.46122e-05 0.00103951 -3.08762e-06
-3.82469e-05 -3.08762e-06 0.00104419
0.000657898 -4.91716e-05 2.943e-06
-4.91716e-05 -5.4887e-05 3.84446e-06
2.943e-06 3.84446e-06 -7.6672e-05
0.00254484 -6.72635e-05 -4.12007e-07
-6.72635e-05 0.000944772 8.99928e-08
-4.12007e-07 8.99928e-08 0.000952893
0.00239183 -5.99609e-05 2.93472e-05
-5.99609e-05 0.000856999 3.14475e-06
2.93472e-05 3.14475e-06 0.000868042
0.00155574 -1.89506e-06 5.80138e-06
-1.89506e-06 -3.95069e-05 2.07087e-06
5.80138e-06 2.07087e-06 -0.000132249
0.00205394 -3.05662e-05 -1.82006e-06
-3.05662e-05 0.000187337 -9.94844e-07
-1.82006e-06 -9.94844e-07 0.000118473
0.00206582 -9.30394e-05 1.93689e-07
-9.30394e-05 0.000244372 3.429e-08
1.93689e-07 3.429e-08 0.000191003
0.00161021 0.000108922 -5.10257e-06
0.000108922 8.11168e-05 -2.42986e-06
-5.10257e-06 -2.42986e-06 -2.98337e-05
0.00164809 0.00012213 -4.12589e-07
0.00012213 0.000261094 5.18246e-07
-4.12589e-07 5.18246e-07 0.000161199
0.000783381 9.01558e-05 -7.26448e-06
9.01558e-05 -3.55554e-05 4.29425e-07
-7.26448e-06 4.29425e-07 -0.000117115
0.00142993 0.000116534 1.89067e-06
0.000116534 0.000100653 1.41886e-06
1.89067e-06 1.41886e-06 -8.65124e-06
0.00143589 0.000117619 -2.79364e-06
0.000117619 0.000200825 4.81251e-07
-2.79364e-06 4.81251e-07 9.17541e-05
0.00197282 5.76498e-05 2.02765e-07
5.76498e-05 0.00017333 1.40282e-06
2.02765e-07 1.40282e-06 6.13643e-05
0.00170594 0.000117671 -2.21368e-06
0.000117671 0.000101135 -1.65631e-06
-2.21368e-06 -1.65631e-06 -1.86592e-05
0.00148991 0.000131971 1.23464e-06
0.000131971 0.000133115 4.97845e-06
1.23464e-06 4.97845e-06 2.58715e-05
0.00177784 5.65829e-05 -4.77279e-07
5.65829e-05 6.50225e-05 1.70253e-08
-4.77279e-07 1.70253e-08 -4.37905e-05
0.00207593 0.000140925 1.14269e-06
0.000140925 0.000237609 -7.25078e-07
1.14269e-06 -7.25078e-07 0.000112243
0.00185965 4.61959e-05 -8.15497e-06
4.61959e-05 5.06913e-05 -4.51551e-06
-8.15497e-06 -4.51551e-06 -4.20089e-05
0.00197008 -1.60334e-06 2.72019e-06
-1.60334e-06 0.000176853 5.11942e-07
2.72019e-06 5.11942e-07 8.32516e-05
0.00179086 -6.77616e-07 -7.14941e-07
-6.77616e-07 7.76029e-05 -7.70665e-07
-7.14941e-07 -7.70665e-07 -2.58177e-06
0.00151719 -3.09589e-06 -4.45368e-06
-3.09589e-06 -7.78868e-06 2.97504e-06
-4.45368e-06 2.97504e-06 -7.62926e-05
0.00156306 1.71408e-05 -1.50231e-06
1.71408e-05 -4.89048e-05 2.06251e-06
-1.50231e-06 2.06251e-06 -0.000133869
0.00187474 2.17309e-05 2.67276e-06
2.17309e-05 0.0001046 3.34224e-06
2.67276e-06 3.34224e-06 2.36999e-05
0.00182995 1.63327e-05 -5.94919e-07
1.63327e-05 0.000112832 -3.69572e-07
-5.94919e-07 -3.69572e-07 2.22751e-05
0.00175399 1.47821e-05 1.27003e-06
1.47821e-05 0.000102492 -3.47664e-07
1.27003e-06 -3.47664e-07 4.96977e-07
0.00178882 -1.31569e-07 5.17369e-07
-1.31569e-07 0.000117885 1.67434e-06
5.17369e-07 1.67434e-06 2.13962e-05
0.00163235 2.05264e-06 -6.42424e-07
2.05264e-06 5.53361e-05 3.49931e-08
-6.42424e-07 3.49931e-08 -4.44814e-05
0.00164698 -2.9654e-06 -1.63352e-06
-2.9654e-06 8.15163e-05 -3.47529e-07
-1.63352e-06 -3.47529e-07 -2.18089e-05
0.00173402 -3.37529e-05 1.04152e-06
-3.37529e-05 0.000109316 1.57452e-06
1.04152e-06 1.57452e-06 8.16461e-06
0.00163419 -3.43409e-05 7.71262e-09
-3.43409e-05 8.21673e-05 1.34578e-07
7.71262e-09 1.34578e-07 -1.90353e-05
0.00156324 -4.24482e-05 -2.13113e-06
-4.24482e-05 7.96411e-05 -7.42165e-07
-2.13113e-06 -7.42165e-07 -2.14627e-05
0.0016081 -7.02067e-05 1.40214e-06
-7.02067e-05 9.95175e-05 2.28339e-07
1.40214e-06 2.28339e-07 -1.26165e-06
0.00150614 -7.21042e-05 1.45394e-07
-7.21042e-05 8.215e-05 4.73768e-07
1.45394e-07 4.73768e-07 -2.02591e-05
0.00138225 -6.86575e-05 -3.55954e-06
-6.86575e-05 6.64921e-05 7.9153e-07
-3.55954e-06 7.9153e-07 -3.2137e-05
0.00141757 -8.37965e-05 1.58457e-06
-8.37965e-05 8.49914e-05 -6.87995e-07
1.58457e-06 -6.87995e-07 -1.60839e-05
0.00129775 -7.70826e-05 7.57717e-08
-7.70826e-05 6.53687e-05 -7.63793e-08
7.57717e-08 -7.63793e-08 -3.15797e-05
0.00107538 -6.07121e-05 -6.39058e-06
-6.07121e-05 1.46885e-05 2.2869e-06
-6.39058e-06 2.2869e-06 -6.6836e-05
0.00121249 -7.91574e-05 3.06093e-06
-7.91574e-05 6.15957e-05 -6.51017e-07
3.06093e-06 -6.51017e-07 -3.25824e-05
0.0010263 -6.30204e-05 2.65168e-07
-6.30204e-05 2.16121e-05 -9.84364e-08
2.65168e-07 -9.84364e-08 -5.72382e-05
0.00177281 -7.70328e-06 -7.62375e-06
-7.70328e-06 0.000530491 3.3447e-06
-7.62375e-06 3.3447e-06 0.000486337
0.000991513 -6.64417e-05 4.7867e-06
-6.64417e-05 3.79289e-05 -1.62045e-06
4.7867e-06 -1.62045e-06 -4.012e-05
0.00185344 -1.90358e-05 1.34956e-05
-1.90358e-05 0.000577191 -9.93835e-07
1.34956e-05 -9.93835e-07 0.00053516
0.001192 9.41363e-06 -6.0446e-05
9.41363e-06 0.000279787 7.16967e-06
-6.0446e-05 7.16967e-06 0.000259626
0.00217138 5.55942e-05 -4.38179e-05
5.55942e-05 0.00078928 1.29728e-06
-4.38179e-05 1.29728e-06 0.000777077
0.00190341 -1.75312e-05 3.02515e-05
-1.75312e-05 0.000602609 -3.60882e-06
3.02515e-05 -3.60882e-06 0.000565025
0.00311841 8.06771e-05 5.34474e-05
8.06771e-05 0.00127813 -3.21538e-06
5.34474e-05 -3.21538e-06 0.00127475
0.00159265 9.82788e-05 -3.54015e-06
9.82788e-05 6.94247e-05 -3.19882e-06
-3.54015e-06 -3.19882e-06 -3.6288e-05
0.00151705 0.000109851 3.6794e-06
0.000109851 0.000176345 5.24464e-07
3.6794e-06 5.24464e-07 7.36265e-05
0.00125787 0.000101714 1.45837e-06
0.000101714 -1.43808e-05 8.99012e-07
1.45837e-06 8.99012e-07 -0.000107951
0.00115626 9.66116e-05 -1.84064e-06
9.66116e-05 8.87652e-05 -8.05008e-07
-1.84064e-06 -8.05008e-07 -1.00102e-05
0.001154 0.000107005 -5.37692e-07
0.000107005 4.8595e-05 2.82083e-07
-5.37692e-07 2.82083e-07 -6.12813e-05
0.000994889 9.97263e-05 1.08315e-07
9.97263e-05 1.60928e-05 4.03077e-07
1.08315e-07 4.03077e-07 -9.27583e-05
0.00108805 8.98219e-05 -1.56863e-07
8.98219e-05 9.43618e-05 -1.41868e-07
-1.56863e-07 -1.41868e-07 6.114e-07
0.000980861 6.16439e-05 -3.18229e-06
6.16439e-05 7.72084e-05 -1.08487e-06
-3.18229e-06 -1.08487e-06 2.09635e-06
0.000935178 7.62941e-05 8.60654e-07
7.62941e-05 4.46452e-05 3.4243e-08
8.60654e-07 3.4243e-08 -4.33541e-05
0.000860362 3.74554e-05 -2.54391e-07
3.74554e-05 3.26983e-05 5.03135e-08
-2.54391e-07 5.03135e-08 -3.88214e-05
0.000752892 -7.71298e-06 -5.84887e-06
-7.71298e-06 3.39024e-06 -3.75671e-06
-5.84887e-06 -3.75671e-06 -3.55847e-05
0.0007623 1.29874e-05 1.86824e-06
1.29874e-05 -8.12382e-06 1.14982e-06
1.86824e-06 1.14982e-06 -7.71054e-05
0.000656728 -4.42574e-05 -1.95144e-07
-4.42574e-05 -4.39666e-05 -7.93517e-08
-1.95144e-07 -7.93517e-08 -7.81876e-05
0.00285181 -8.23372e-05 -4.21265e-05
-8.23372e-05 0.00112394 -2.99797e-06
-4.21265e-05 -2.99797e-06 0.00112464
0.000600602 -5.62566e-05 2.13717e-06
-5.62566e-05 -7.60365e-05 4.17807e-06
2.13717e-06 4.17807e-06 -0.0001048
0.00270147 -7.52091e-05 -5.4994e-07
-7.52091e-05 0.00103327 1.16291e-07
-5.4994e-07 1.16291e-07 0.00103833
0.00251646 -6.70895e-05 3.20287e-05
-6.70895e-05 0.000929344 2.96871e-06
3.20287e-05 2.96871e-06 0.000937832
0.00184205 7.29616e-07 8.6321e-07
7.29616e-07 0.000100485 1.11483e-06
8.6321e-07 1.11483e-06 -2.51057e-07
0.00169777 -3.13748e-06 6.87109e-07
-3.13748e-06 2.85882e-05 3.34093e-07
6.87109e-07 3.34093e-07 -6.40898e-05
0.0023485 -3.04564e-05 -1.62913e-05
-3.04564e-05 0.000372133 -2.89482e-06
-1.62913e-05 -2.89482e-06 0.000306068
0.00174291 5.76973e-05 -5.29523e-07
5.76973e-05 7.34543e-05 7.88057e-07
-5.29523e-07 7.88057e-07 -3.59698e-05
0.00171658 0.000111639 1.67946e-07
0.000111639 0.00013793 -1.07951e-06
1.67946e-07 -1.07951e-06 2.69956e-05
0.00142543 0.000114524 -2.98096e-06
0.000114524 0.000168581 1.96308e-06
-2.98096e-06 1.96308e-06 7.23063e-05
0.00205705 0.000135876 1.63214e-06
0.000135876 0.000414141 2.36708e-07
1.63214e-06 2.36708e-07 0.000306849
0.00193743 5.80815e-05 -5.83105e-07
5.80815e-05 0.000153626 -1.2121e-07
-5.83105e-07 -1.2121e-07 4.15872e-05
0.00145182 0.000111505 9.11607e-07
0.000111505 -2.78043e-05 1.86394e-07
9.11607e-07 1.86394e-07 -0.000150493
0.00177388 5.78124e-05 -2.6457e-06
5.78124e-05 6.46359e-05 -2.04905e-06
-2.6457e-06 -2.04905e-06 -4.47395e-05
0.00172119 -7.57563e-08 2.49691e-06
-7.57563e-08 5.1212e-05 5.76555e-07
2.49691e-06 5.76555e-07 -5.00442e-05
0.00178568 -7.22989e-07 -2.93008e-07
-7.22989e-07 8.32453e-05 -3.32856e-07
-2.93008e-07 -3.32856e-07 -1.14562e-05
0.0019909 5.06352e-07 -4.65012e-06
5.06352e-07 0.00017293 4.80996e-07
-4.65012e-06 4.80996e-07 9.2864e-05
0.00189882 1.9215e-05 1.38306e-06
1.9215e-05 0.000168146 9.01755e-08
1.38306e-06 9.01755e-08 6.31084e-05
0.00175911 1.65863e-05 -1.81748e-06
1.65863e-05 7.96286e-05 7.6492e-07
-1.81748e-06 7.6492e-07 -1.05164e-05
0.00174915 1.51981e-05 -5.75695e-08
1.51981e-05 0.000100156 3.07169e-07
-5.75695e-08 3.07169e-07 -1.43541e-06
0.00161095 9.80202e-06 7.17772e-07
9.80202e-06 6.39196e-05 -7.93203e-07
7.17772e-07 -7.93203e-07 -4.29129e-05
0.00169509 6.94524e-07 -3.761e-08
6.94524e-07 8.97513e-05 1.83906e-06
-3.761e-08 1.83906e-06 -1.0516e-05
0.00165984 -2.50083e-06 -5.78723e-07
-2.50083e-06 8.89618e-05 2.88179e-07
-5.78723e-07 2.88179e-07 -1.43665e-05
0.00158846 -8.81953e-06 -2.8019e-06
-8.81953e-06 8.28793e-05 1.26451e-07
-2.8019e-06 1.26451e-07 -1.95328e-05
0.00165438 -3.41752e-05 1.58721e-06
-3.41752e-05 9.18986e-05 9.52304e-07
1.58721e-06 9.52304e-07 -9.26953e-06
0.00156713 -4.08407e-05 -3.72106e-08
-4.08407e-05 8.14318e-05 -3.10924e-08
-3.72106e-08 -3.10924e-08 -1.96665e-05
0.00144077 -4.83798e-05 -3.87504e-06
-4.83798e-05 6.73002e-05 -1.73398e-07
-3.87504e-06 -1.73398e-07 -3.02564e-05
0.00151743 -7.16357e-05 2.32167e-06
-7.16357e-05 8.73197e-05 4.60682e-07
2.32167e-06 4.60682e-07 -1.50744e-05
0.00138052 -6.80486e-05 1.03966e-07
-6.80486e-05 6.53668e-05 3.85984e-07
1.03966e-07 3.85984e-07 -3.32006e-05
0.00114575 -5.51575e-05 -7.09748e-06
-5.51575e-05 1.84972e-05 2.1256e-06
-7.09748e-06 2.1256e-06 -6.54175e-05
0.00130152 -7.65235e-05 3.4251e-06
-7.65235e-05 6.68232e-05 -9.6325e-07
3.4251e-06 -9.6325e-07 -3.00369e-05
0.00108725 -6.02106e-05 3.46846e-07
-6.02106e-05 1.93968e-05 -4.0998e-08
3.46846e-07 -4.0998e-08 -6.21111e-05
0.00189737 -1.04641e-05 -8.88977e-06
-1.04641e-05 0.000577721 3.10628e-06
-8.88977e-06 3.10628e-06 0.000534248
0.00103138 -6.30587e-05 5.56183e-06
-6.30587e-05 2.3941e-05 -2.03328e-06
5.56183e-06 -2.03328e-06 -5.50281e-05
0.00195966 -2.44462e-05 1.53395e-05
-2.44462e-05 0.000621393 -1.00233e-06
1.53395e-05 -1.00233e-06 0.000578545
0.00126113 -1.49693e-06 -6.56077e-05
-1.49693e-06 0.000319627 6.91346e-06
-6.56077e-05 6.91346e-06 0.000298294
0.00201877 -3.58742e-05 3.66161e-05
-3.58742e-05 0.000655571 -5.65915e-06
3.66161e-05 -5.65915e-06 0.000615105
0.00120854 3.67731e-05 -2.75905e-05
3.67731e-05 0.000295676 2.29837e-06
-2.75905e-05 2.29837e-06 0.000271674
0.00319295 0.000120056 1.26358e-05
0.000120056 0.00133928 -1.4512e-06
1.26358e-05 -1.4512e-06 0.00132661
0.00193269 7.05399e-05 -1.77555e-06
7.05399e-05 0.000209617 -1.32648e-06
-1.77555e-06 -1.32648e-06 9.9929e-05
0.00157638 9.55511e-05 -6.33072e-07
9.55511e-05 0.000113125 -2.86289e-06
-6.33072e-07 -2.86289e-06 9.80516e-06
0.0016841 0.000102217 -2.6739e-06
0.000102217 0.000127241 1.4651e-06
-2.6739e-06 1.4651e-06 2.26421e-05
0.00156679 0.000106266 -1.26368e-06
0.000106266 0.000247312 -9.44121e-08
-1.26368e-06 -9.44121e-08 0.000148827
0.00135669 0.000106954 5.53769e-07
0.000106954 9.13054e-05 -1.45896e-06
5.53769e-07 -1.45896e-06 -1.07622e-05
0.00133228 0.00010488 2.76436e-06
0.00010488 3.32703e-05 1.49026e-06
2.76436e-06 1.49026e-06 -5.29409e-05
0.00101096 7.31753e-05 -3.99582e-06
7.31753e-05 6.12287e-05 -1.86647e-06
-3.99582e-06 -1.86647e-06 -1.93583e-05
0.00115558 9.69566e-05 -1.35064e-07
9.69566e-05 8.91118e-05 -7.19957e-08
-1.35064e-07 -7.19957e-08 -9.9286e-06
0.00149914 0.000120697 1.63279e-06
0.000120697 0.000221637 6.77365e-07
1.63279e-06 6.77365e-07 0.000110746
0.00102414 8.71791e-05 1.23766e-06
8.71791e-05 6.43504e-05 8.5251e-08
1.23766e-06 8.5251e-08 -2.94705e-05
0.000912781 5.8534e-05 -1.91223e-07
5.8534e-05 4.26815e-05 -1.6769e-07
-1.91223e-07 -1.6769e-07 -3.20894e-05
0.000786645 2.60322e-05 -7.16831e-06
2.60322e-05 2.02164e-05 -4.22495e-06
-7.16831e-06 -4.22495e-06 -2.4045e-05
0.00077137 3.5463e-05 2.19116e-06
3.5463e-05 -1.39671e-05 7.13233e-07
2.19116e-06 7.13233e-07 -8.4594e-05
0.000691876 -1.14973e-05 8.86835e-08
-1.14973e-05 -2.34128e-05 -5.21736e-08
8.86835e-08 -5.21736e-08 -6.32093e-05
0.00302435 -8.63155e-05 -4.95366e-05
-8.63155e-05 0.00123067 -2.79047e-06
-4.95366e-05 -2.79047e-06 0.00122713
0.000593875 -6.0832e-05 1.72757e-06
-6.0832e-05 -7.18361e-05 4.32942e-06
1.72757e-06 4.32942e-06 -0.000108254
0.00284159 -8.36372e-05 -8.09997e-07
-8.36372e-05 0.00111645 1.53188e-07
-8.09997e-07 1.53188e-07 0.00111765
0.00269143 -7.55777e-05 3.50394e-05
-7.55777e-05 0.00102716 2.8637e-06
3.50394e-05 2.8637e-06 0.00103263
0.00182641 1.02468e-05 -4.46772e-07
1.02468e-05 0.000102156 2.02536e-07
-4.46772e-07 2.02536e-07 -2.85104e-07
0.00179364 2.49677e-06 -5.24312e-07
2.49677e-06 7.18651e-05 2.63502e-07
-5.24312e-07 2.63502e-07 -2.93567e-05
0.00195145 -4.85812e-06 -4.89149e-06
-4.85812e-06 0.000150484 -1.49332e-06
-4.89149e-06 -1.49332e-06 5.80899e-05
0.00177265 5.83368e-05 9.9366e-07
5.83368e-05 8.66498e-05 -2.21144e-07
9.9366e-07 -2.21144e-07 -2.11199e-05
0.00181102 0.000114328 1.00692e-06
0.000114328 0.000189247 -1.22991e-07
1.00692e-06 -1.22991e-07 7.82382e-05
0.00183167 5.74282e-05 1.75851e-07
5.74282e-05 9.90216e-05 -1.58007e-06
1.75851e-07 -1.58007e-06 -1.3085e-05
0.00176885 4.52237e-06 1.20396e-06
4.52237e-06 7.34754e-05 9.47943e-07
1.20396e-06 9.47943e-07 -3.11072e-05
0.00179432 3.25742e-06 1.95813e-07
3.25742e-06 8.76875e-05 -1.15543e-07
1.95813e-07 -1.15543e-07 -1.45809e-05
0.00162108 7.07022e-07 -2.44767e-06
7.07022e-07 -8.08992e-07 -6.58462e-07
-2.44767e-06 -6.58462e-07 -9.65911e-05
0.00177293 9.22769e-06 -6.74254e-07
9.22769e-06 0.000104245 -3.91761e-07
-6.74254e-07 -3.91761e-07 1.10636e-06
0.00180471 7.13364e-06 1.86135e-06
7.13364e-06 0.000137054 5.0262e-08
1.86135e-06 5.0262e-08 2.82576e-05
0.00174164 1.56523e-05 -1.2604e-06
1.56523e-05 9.63098e-05 1.44559e-07
-1.2604e-06 1.44559e-07 -4.84032e-06
0.00170359 1.06204e-05 4.2217e-07
1.06204e-05 0.000111585 -2.39238e-07
4.2217e-07 -2.39238e-07 4.71232e-06
0.0015016 5.13738e-06 -1.27098e-07
5.13738e-06 3.39275e-05 -1.25867e-07
-1.27098e-07 -1.25867e-07 -7.32104e-05
0.00167229 -2.66292e-06 4.73593e-07
-2.66292e-06 9.62011e-05 9.41915e-07
4.73593e-07 9.41915e-07 -7.13781e-06
0.00159373 -9.51486e-06 -9.11875e-07
-9.51486e-06 8.62345e-05 4.37837e-07
-9.11875e-07 4.37837e-07 -1.63187e-05
0.00146861 -1.74383e-05 -4.52585e-06
-1.74383e-05 6.99914e-05 3.27635e-07
-4.52585e-06 3.27635e-07 -2.83149e-05
0.00157139 -4.07554e-05 2.09429e-06
-4.07554e-05 8.33444e-05 6.57901e-07
2.09429e-06 6.57901e-07 -1.77666e-05
0.00143972 -4.73481e-05 4.30024e-08
-4.73481e-05 6.64729e-05 5.3687e-09
4.30024e-08 5.3687e-09 -3.10301e-05
0.00117309 -4.05782e-05 -7.51252e-06
-4.05782e-05 1.00821e-05 1.16876e-06
-7.51252e-06 1.16876e-06 -7.35217e-05
0.00137815 -6.73609e-05 3.87651e-06
-6.73609e-05 6.38989e-05 -2.75378e-08
3.87651e-06 -2.75378e-08 -3.46031e-05
0.00114545 -5.37504e-05 2.93277e-07
-5.37504e-05 1.69787e-05 2.95531e-07
2.93277e-07 2.95531e-07 -6.67587e-05
0.00206192 -1.95287e-05 -1.25979e-05
-1.95287e-05 0.000639621 2.35165e-06
-1.25979e-05 2.35165e-06 0.000597954
0.00109288 -5.96837e-05 6.48644e-06
-5.96837e-05 2.09626e-05 -2.29942e-06
6.48644e-06 -2.29942e-06 -6.05361e-05
0.00207038 -3.42729e-05 1.48339e-05
-3.42729e-05 0.000660621 -1.06578e-06
1.48339e-05 -1.06578e-06 0.000619114
0.00136335 -3.55058e-06 -6.94227e-05
-3.55058e-06 0.000367462 6.22372e-06
-6.94227e-05 6.22372e-06 0.000345576
0.00213628 -4.52279e-05 4.02048e-05
-4.52279e-05 0.000705458 -5.58353e-06
4.02048e-05 -5.58353e-06 0.000664571
0.00127928 3.34199e-05 -3.11527e-05
3.34199e-05 0.00033667 2.09399e-06
-3.11527e-05 2.09399e-06 0.000311035
0.00125496 7.03425e-05 5.35773e-06
7.03425e-05 0.000328559 -2.59441e-06
5.35773e-06 -2.59441e-06 0.000299832
0.00164743 2.28327e-05 -1.27864e-06
2.28327e-05 4.26602e-05 1.92e-07
-1.27864e-06 1.92e-07 -6.16353e-05
0.00163279 7.1361e-05 -2.7694e-06
7.1361e-05 9.54463e-05 -9.8247e-07
-2.7694e-06 -9.8247e-07 -1.09665e-05
0.00180735 6.88642e-05 -1.77352e-06
6.88642e-05 0.000143872 -9.94132e-07
-1.77352e-06 -9.94132e-07 3.35852e-05
0.00154634 9.43879e-05 -2.63636e-06
9.43879e-05 0.000164418 -1.03932e-06
-2.63636e-06 -1.03932e-06 6.55854e-05
0.00170046 9.92103e-05 1.14589e-06
9.92103e-05 0.00018102 7.48024e-07
1.14589e-06 7.48024e-07 7.80278e-05
0.00174079 0.000105185 4.23698e-06
0.000105185 0.000167995 3.01938e-06
4.23698e-06 3.01938e-06 6.45418e-05
0.000976663 7.41863e-05 -5.12607e-06
7.41863e-05 -2.22571e-06 -1.98768e-06
-5.12607e-06 -1.98768e-06 -8.56968e-05
0.00122663 9.69502e-05 1.55083e-06
9.69502e-05 6.88065e-05 8.41462e-07
1.55083e-06 8.41462e-07 -3.08011e-05
0.00119248 0.000103991 8.25321e-07
0.000103991 4.01507e-06 1.03839e-06
8.25321e-07 1.03839e-06 -9.73515e-05
0.000790843 5.14958e-05 -9.40206e-06
5.14958e-05 1.67349e-05 -5.07584e-06
-9.40206e-06 -5.07584e-06 -3.24833e-05
0.000968483 7.04236e-05 -3.44681e-07
7.04236e-05 3.96577e-05 -1.99537e-07
-3.44681e-07 -1.99537e-07 -4.05353e-05
0.00115899 9.74659e-05 1.99723e-06
9.74659e-05 9.16056e-05 7.93396e-07
1.99723e-06 7.93396e-07 -7.71955e-06
0.000857501 5.52774e-05 2.79718e-06
5.52774e-05 1.48197e-05 8.30089e-07
2.79718e-06 8.30089e-07 -5.96244e-05
0.000706188 2.14089e-05 -7.55243e-09
2.14089e-05 -1.55001e-05 -8.14178e-09
-7.55243e-09 -8.14178e-09 -6.00379e-05
0.00330138 -7.11251e-05 -6.07862e-05
-7.11251e-05 0.0013918 -3.52339e-06
-6.07862e-05 -3.52339e-06 0.00138502
0.000647969 -1.87357e-05 3.7869e-06
-1.87357e-05 -4.25924e-05 4.10882e-06
3.7869e-06 4.10882e-06 -8.21379e-05
0.00299923 -9.289e-05 -1.4447e-06
-9.289e-05 0.00121487 2.17552e-07
-1.4447e-06 2.17552e-07 0.00121124
0.00285373 -8.45188e-05 3.8267e-05
-8.45188e-05 0.00112026 2.81535e-06
3.8267e-05 2.81535e-06 0.00112208
0.00182388 1.5103e-06 -5.63845e-07
1.5103e-06 0.000110038 -1.22494e-07
-5.63845e-07 -1.22494e-07 5.41291e-06
0.00181996 9.60271e-06 -3.19893e-07
9.60271e-06 9.95349e-05 4.61594e-08
-3.19893e-07 4.61594e-08 -2.91983e-06
0.00177427 4.06373e-06 -6.91798e-07
4.06373e-06 5.81774e-05 -1.07643e-06
-6.91798e-07 -1.07643e-06 -4.34994e-05
0.00182863 5.91777e-05 1.08353e-06
5.91777e-05 0.000112493 -3.4547e-07
1.08353e-06 -3.4547e-07 6.45583e-06
0.0019653 -2.55016e-06 4.72856e-07
-2.55016e-06 0.000185925 1.71107e-07
4.72856e-07 1.71107e-07 7.68183e-05
0.00184356 3.16448e-06 3.36604e-07
3.16448e-06 0.000112863 -3.02812e-08
3.36604e-07 -3.02812e-08 8.53457e-06
0.0018457 6.27248e-06 -2.4203e-06
6.27248e-06 0.000113297 -3.82341e-07
-2.4203e-06 -3.82341e-07 9.95852e-06
0.00174319 3.2488e-06 -2.92964e-06
3.2488e-06 8.89743e-05 -8.25671e-07
-2.92964e-06 -8.25671e-07 -1.22186e-05
0.00180031 1.30449e-05 -3.10873e-07
1.30449e-05 0.000132973 -6.06142e-07
-3.10873e-07 -6.06142e-07 2.41795e-05
0.00174502 9.10778e-06 -1.81833e-08
9.10778e-06 0.000127419 8.42776e-07
-1.81833e-08 8.42776e-07 1.66923e-05
0.00179949 1.1465e-05 2.69895e-07
1.1465e-05 0.000160983 -2.10331e-07
2.69895e-07 -2.10331e-07 5.40587e-05
0.00164967 6.64434e-06 6.1033e-07
6.64434e-06 0.000110969 -2.80095e-07
6.1033e-07 -2.80095e-07 4.52834e-06
0.00129099 3.36075e-06 -3.11683e-06
3.36075e-06 -3.27201e-05 7.63193e-07
-3.11683e-06 7.63193e-07 -0.000135586
0.00158918 -8.68044e-06 8.00659e-07
-8.68044e-06 8.47857e-05 7.42764e-07
8.00659e-07 7.42764e-07 -1.79055e-05
0.00146549 -1.50163e-05 -5.69317e-07
-1.50163e-05 6.83957e-05 1.70603e-07
-5.69317e-07 1.70603e-07 -2.98764e-05
0.00117864 -1.85592e-05 -7.37915e-06
-1.85592e-05 1.86097e-06 8.11023e-07
-7.37915e-06 8.11023e-07 -8.19258e-05
0.00143505 -4.41232e-05 3.77869e-06
-4.41232e-05 6.38695e-05 2.02174e-07
3.77869e-06 2.02174e-07 -3.35065e-05
0.00118307 -4.08656e-05 5.07445e-08
-4.08656e-05 1.42413e-05 1.87159e-07
5.07445e-08 1.87159e-07 -6.9245e-05
0.000685042 -2.39678e-05 -1.13063e-05
-2.39678e-05 -9.97557e-05 2.53336e-06
-1.13063e-05 2.53336e-06 -0.000147706
0.00114643 -5.2562e-05 7.2638e-06
-5.2562e-05 1.60307e-05 -1.5633e-06
7.2638e-06 -1.5633e-06 -6.75333e-05
0.00142901 -3.92441e-05 1.78372e-05
-3.92441e-05 0.000302796 -6.47821e-07
1.78372e-05 -6.47821e-07 0.000258716
0.00439615 2.64641e-05 -8.09801e-05
2.64641e-05 0.00195167 2.75604e-06
-8.09801e-05 2.75604e-06 0.00194439
0.00223632 -4.52181e-05 4.34108e-05
-4.52181e-05 0.000741636 -5.07053e-06
4.34108e-05 -5.07053e-06 0.00070087
0.00135154 2.9209e-05 -3.29737e-05
2.9209e-05 0.000368408 1.96447e-06
-3.29737e-05 1.96447e-06 0.000342905
0.0013245 7.55252e-05 3.19471e-06
7.55252e-05 0.00037044 -2.73547e-06
3.19471e-06 -2.73547e-06 0.000339195
0.00170784 1.0508e-05 -3.72958e-07
1.0508e-05 7.50241e-05 1.13658e-07
-3.72958e-07 1.13658e-07 -2.91148e-05
0.00146241 3.3944e-05 -1.69847e-06
3.3944e-05 -6.70753e-06 -8.86098e-08
-1.69847e-06 -8.86098e-08 -0.000110958
0.00173345 2.31732e-05 -2.52522e-07
2.31732e-05 8.99421e-05 -4.00907e-08
-2.52522e-07 -4.00907e-08 -1.44149e-05
0.0011455 6.64904e-05 -3.97404e-06
6.64904e-05 -9.55589e-05 -1.53835e-06
-3.97404e-06 -1.53835e-06 -0.000196872
0.00165636 7.18841e-05 1.09428e-07
7.18841e-05 0.000110297 -3.31851e-08
1.09428e-07 -3.31851e-08 4.39295e-06
0.00169166 6.73895e-05 1.33458e-07
6.73895e-05 8.34607e-05 -2.29062e-07
1.33458e-07 -2.29062e-07 -2.75095e-05
0.000661592 5.9281e-05 -7.61429e-06
5.9281e-05 -0.000220148 -2.73034e-06
-7.61429e-06 -2.73034e-06 -0.000306158
0.0015513 9.59168e-05 8.6762e-07
9.59168e-05 0.000166579 4.18881e-08
8.6762e-07 4.18881e-08 6.75359e-05
0.00182856 0.000103101 2.8501e-06
0.000103101 0.000251197 1.94937e-06
2.8501e-06 1.94937e-06 0.000148484
0.000748071 6.53929e-05 -1.11279e-05
6.53929e-05 -2.2124e-05 -5.18848e-06
-1.11279e-05 -5.18848e-06 -7.38596e-05
0.000782583 6.80071e-05 -1.29906e-07
6.80071e-05 -0.000105633 1.30214e-07
-1.29906e-07 1.30214e-07 -0.000190095
0.000886339 8.76809e-05 3.76832e-06
8.76809e-05 -0.000109793 1.86397e-06
3.76832e-06 1.86397e-06 -0.000210523
0.00374249 -6.58106e-05 -6.81186e-05
-6.58106e-05 0.00163141 -4.32912e-06
-6.81186e-05 -4.32912e-06 0.00162054
0.000685632 4.46364e-05 -8.54771e-08
4.46364e-05 -3.23198e-05 2.0499e-08
-8.54771e-08 2.0499e-08 -8.152e-05
0.000931881 6.78788e-05 3.63069e-06
6.78788e-05 2.14275e-05 1.68637e-06
3.63069e-06 1.68637e-06 -5.84313e-05
0.000623726 1.72008e-05 5.94737e-06
1.72008e-05 -5.25993e-05 4.24878e-06
5.94737e-06 4.24878e-06 -9.73433e-05
0.00321447 -9.57486e-05 -3.68092e-06
-9.57486e-05 0.00134541 1.90291e-07
-3.68092e-06 1.90291e-07 0.00133746
0.00296284 -9.33404e-05 4.08432e-05
-9.33404e-05 0.00119215 2.74844e-06
4.08432e-05 2.74844e-06 0.00118932
0.00180531 -3.37205e-06 -1.19757e-06
-3.37205e-06 0.000104582 -8.91754e-07
-1.19757e-06 -8.91754e-07 -3.16966e-06
0.00185562 1.38917e-06 -3.0245e-07
1.38917e-06 0.000123599 -2.39613e-07
-3.0245e-07 -2.39613e-07 1.91533e-05
0.00182607 9.12874e-06 1.86816e-07
9.12874e-06 0.000103751 -4.73618e-07
1.86816e-07 -4.73618e-07 1.25452e-06
0.0019277 1.011e-05 -6.94287e-07
1.011e-05 0.00018753 1.15551e-07
-6.94287e-07 1.15551e-07 7.40812e-05
0.00186001 1.52316e-06 -3.85563e-07
1.52316e-06 0.000130699 -1.56503e-07
-3.85563e-07 -1.56503e-07 2.14727e-05
0.00184422 -1.36549e-06 -2.04672e-06
-1.36549e-06 0.000114688 -5.13156e-07
-2.04672e-06 -5.13156e-07 1.0634e-05
0.00176117 1.70325e-05 -1.43238e-06
1.70325e-05 0.000110929 -8.59046e-07
-1.43238e-06 -8.59046e-07 2.20088e-06
0.00176551 1.14572e-05 6.77299e-07
1.14572e-05 0.000138882 -1.83854e-07
6.77299e-07 -1.83854e-07 2.78341e-05
0.00174396 6.85825e-06 -2.37138e-06
6.85825e-06 0.000166033 1.21528e-06
-2.37138e-06 1.21528e-06 5.97018e-05
0.00180156 8.16814e-06 1.9011e-06
8.16814e-06 0.000189742 -6.4878e-07
1.9011e-06 -6.4878e-07 8.40252e-05
0.00156318 6.31818e-06 -4.2699e-08
6.31818e-06 0.000109994 4.4339e-08
-4.2699e-08 4.4339e-08 8.9626e-06
0.000836721 -3.69444e-07 -8.39985e-06
-3.69444e-07 -0.000194782 1.80821e-06
-8.39985e-06 1.80821e-06 -0.00028507
0.0014546 -1.5052e-05 2.96495e-06
-1.5052e-05 6.29385e-05 2.22011e-08
2.96495e-06 2.22011e-08 -3.54062e-05
0.00119216 -1.62288e-05 -6.94064e-08
-1.62288e-05 8.06741e-06 -1.24411e-07
-6.94064e-08 -1.24411e-07 -7.55869e-05
0.00070958 -1.31776e-05 -1.13557e-05
-1.31776e-05 -9.41351e-05 1.56299e-06
-1.13557e-05 1.56299e-06 -0.000142857
0.00118595 -3.95247e-05 7.67477e-06
-3.95247e-05 1.4768e-05 -9.20073e-07
7.67477e-06 -9.20073e-07 -6.85262e-05
0.000688946 -2.09163e-05 -2.85518e-08
-2.09163e-05 -9.76868e-05 1.63986e-07
-2.85518e-08 1.63986e-07 -0.000145604
0.00443061 2.00935e-05 -8.31421e-05
2.00935e-05 0.00196382 1.97752e-06
-8.31421e-05 1.97752e-06 0.00195749
0.000775847 -4.03355e-05 1.33475e-05
-4.03355e-05 -4.2541e-05 -4.4015e-06
1.33475e-05 -4.4015e-06 -9.16196e-05
0.00295004 3.13166e-05 3.11305e-05
3.13166e-05 0.00119289 7.38285e-07
3.11305e-05 7.38285e-07 0.00117627
0.00135829 3.6612e-05 9.48693e-06
3.6612e-05 0.000375271 -2.11564e-06
9.48693e-06 -2.11564e-06 0.000348659
0.00180352 9.26567e-07 -3.96551e-07
9.26567e-07 0.000126899 -2.17739e-07
-3.96551e-07 -2.17739e-07 2.24687e-05
0.00164727 1.6577e-05 -9.15447e-07
1.6577e-05 8.15343e-05 -2.88547e-07
-9.15447e-07 -2.88547e-07 -2.07168e-05
0.00170688 9.67411e-06 3.31866e-07
9.67411e-06 7.42202e-05 3.51206e-07
3.31866e-07 3.51206e-07 -2.98347e-05
0.00144716 4.29757e-05 -3.23229e-06
4.29757e-05 4.22974e-05 -7.07832e-07
-3.23229e-06 -7.07832e-07 -5.64249e-05
0.00153743 3.40275e-05 4.44577e-07
3.40275e-05 3.07296e-05 -1.79981e-07
4.44577e-07 -1.79981e-07 -7.27616e-05
0.00179135 2.34151e-05 8.79529e-07
2.34151e-05 0.000122677 -3.32061e-07
8.79529e-07 -3.32061e-07 1.83012e-05
0.000753913 5.03349e-05 -8.40328e-06
5.03349e-05 -0.000212218 -2.64515e-06
-8.40328e-06 -2.64515e-06 -0.000298796
0.0015399 7.5827e-05 -1.23033e-06
7.5827e-05 0.000110769 -3.39344e-07
-1.23033e-06 -3.39344e-07 1.09301e-05
0.0016894 7.24806e-05 3.05036e-06
7.24806e-05 0.000129626 3.31812e-07
3.05036e-06 3.31812e-07 2.428e-05
0.000713449 6.36954e-05 -1.2121e-05
6.36954e-05 -6.36746e-05 -4.6481e-06
-1.2121e-05 -4.6481e-06 -0.000114381
0.000705283 6.10337e-05 -2.02135e-06
6.10337e-05 -0.000200394 -6.83444e-07
-2.02135e-06 -6.83444e-07 -0.000287049
0.00155655 9.74603e-05 4.25945e-06
9.74603e-05 0.000168865 1.31979e-06
4.25945e-06 1.31979e-06 6.9615e-05
0.00418361 -7.33781e-05 -7.14866e-05
-7.33781e-05 0.0018611 -4.53512e-06
-7.14866e-05 -4.53512e-06 0.00184721
0.000679333 5.96881e-05 3.91756e-07
5.96881e-05 -5.5177e-05 1.96777e-07
3.91756e-07 1.96777e-07 -0.000106522
0.000582593 6.15651e-05 4.97495e-06
6.15651e-05 -0.000211902 2.44226e-06
4.97495e-06 2.44226e-06 -0.000297363
0.00354628 -8.41813e-05 -3.81262e-06
-8.41813e-05 0.00153033 2.41469e-07
-3.81262e-06 2.41469e-07 0.00151927
0.000589144 3.80029e-05 7.21511e-06
3.80029e-05 -7.76475e-05 4.85339e-06
7.21511e-06 4.85339e-06 -0.000126797
0.00309583 -0.000102935 4.30818e-05
-0.000102935 0.00128147 2.6473e-06
4.30818e-05 2.6473e-06 0.00127338
0.00178266 6.87583e-06 -1.10888e-06
6.87583e-06 0.000118185 -1.10731e-06
-1.10888e-06 -1.10731e-06 8.56884e-06
0.00181451 -2.41202e-06 2.58562e-08
-2.41202e-06 0.000112085 3.6662e-07
2.58562e-08 3.6662e-07 4.71716e-06
0.00188139 1.35897e-06 -4.1346e-07
1.35897e-06 0.000134298 4.1616e-08
-4.1346e-07 4.1616e-08 2.99805e-05
0.00184119 -2.46708e-06 -3.42252e-06
-2.46708e-06 0.000185212 1.49235e-07
-3.42252e-06 1.49235e-07 7.62548e-05
0.00188888 9.68084e-06 5.98751e-07
9.68084e-06 0.000168671 -4.11218e-08
5.98751e-07 -4.11218e-08 5.59182e-05
0.00179449 8.43589e-06 1.81848e-07
8.43589e-06 9.58465e-05 -5.59949e-07
1.81848e-07 -5.59949e-07 -1.35918e-05
0.00180793 1.25961e-05 9.57605e-07
1.25961e-05 0.00016174 -1.01412e-06
9.57605e-07 -1.01412e-06 5.03575e-05
0.00175213 6.89869e-06 9.77227e-07
6.89869e-06 0.000171078 -7.37217e-08
9.77227e-07 -7.37217e-08 6.46544e-05
0.000934065 1.18299e-06 -8.49935e-06
1.18299e-06 -0.00018024 1.93007e-06
-8.49935e-06 1.93007e-06 -0.000276654
0.00185265 9.24863e-06 3.8991e-06
9.24863e-06 0.000261449 -7.93132e-07
3.8991e-06 -7.93132e-07 0.000162272
0.00102682 2.07678e-06 -1.65658e-06
2.07678e-06 -9.28855e-05 4.30422e-07
-1.65658e-06 4.30422e-07 -0.000181314
0.000711623 -4.51212e-06 -1.16415e-05
-4.51212e-06 -0.000104123 1.33376e-06
-1.16415e-05 1.33376e-06 -0.00015669
0.00121396 -1.56883e-05 7.29095e-06
-1.56883e-05 1.83043e-05 -1.17813e-06
7.29095e-06 -1.17813e-06 -6.52545e-05
0.000711638 -4.24458e-06 2.30351e-07
-4.24458e-06 -9.31756e-05 -8.84253e-08
2.30351e-07 -8.84253e-08 -0.0001421
0.00450497 2.08532e-05 -8.53472e-05
2.08532e-05 0.00199831 1.17943e-06
-8.53472e-05 1.17943e-06 0.00199241
0.000682335 -1.57966e-05 1.09097e-05
-1.57966e-05 -0.000100992 -2.14413e-06
1.09097e-05 -2.14413e-06 -0.000148663
0.00446892 2.7504e-05 4.34704e-07
2.7504e-05 0.0019829 3.14367e-07
4.34704e-07 3.14367e-07 0.00197658
0.00155881 -5.0223e-06 7.45979e-05
-5.0223e-06 0.000458908 -2.99958e-06
7.45979e-05 -2.99958e-06 0.000437795
0.00188136 5.54534e-06 -5.70805e-07
5.54534e-06 0.000195124 -6.98806e-07
-5.70805e-07 -6.98806e-07 9.22971e-05
0.00173594 3.36142e-07 6.7913e-07
3.36142e-07 9.34128e-05 7.45856e-07
6.7913e-07 7.45856e-07 -9.77474e-06
0.00149151 1.60096e-05 -2.90655e-06
1.60096e-05 4.94499e-05 -9.43605e-07
-2.90655e-06 -9.43605e-07 -4.96676e-05
0.00166233 1.60267e-05 2.63888e-07
1.60267e-05 8.81227e-05 -6.65651e-08
2.63888e-07 -6.65651e-08 -1.4168e-05
0.00171543 8.82437e-06 1.32796e-06
8.82437e-06 7.81105e-05 4.95576e-07
1.32796e-06 4.95576e-07 -2.58404e-05
0.00121639 3.81664e-05 -7.43158e-06
3.81664e-05 9.15445e-06 -1.93337e-06
-7.43158e-06 -1.93337e-06 -7.54468e-05
0.00148135 4.35802e-05 -3.70752e-08
4.35802e-05 5.83963e-05 5.21892e-08
-3.70752e-08 5.21892e-08 -4.02903e-05
0.00160416 3.40084e-05 1.73898e-06
3.40084e-05 6.42124e-05 4.1982e-08
1.73898e-06 4.1982e-08 -3.85592e-05
0.000706708 4.70311e-05 -1.22458e-05
4.70311e-05 -8.68237e-05 -3.87534e-06
-1.22458e-05 -3.87534e-06 -0.000136381
0.000981376 5.60999e-05 -2.36011e-06
5.60999e-05 -9.29892e-05 -5.1436e-07
-2.36011e-06 -5.1436e-07 -0.000178944
0.00193495 8.51099e-05 3.36916e-06
8.51099e-05 0.000317531 8.12975e-07
3.36916e-06 8.12975e-07 0.000219158
0.00445911 -4.60563e-05 -8.03122e-05
-4.60563e-05 0.00199007 -3.80163e-06
-8.03122e-05 -3.80163e-06 0.00198025
0.000672295 5.78216e-05 2.07355e-07
5.78216e-05 -8.30898e-05 1.76839e-07
2.07355e-07 1.76839e-07 -0.000134109
0.000745785 6.2878e-05 4.57058e-06
6.2878e-05 -0.000182217 1.72205e-06
4.57058e-06 1.72205e-06 -0.000269542
0.0039656 -6.21572e-05 6.05235e-08
-6.21572e-05 0.00174617 1.66136e-07
6.05235e-08 1.66136e-07 0.00173492
0.000588254 5.33701e-05 9.36644e-06
5.33701e-05 -9.92796e-05 5.24638e-06
9.36644e-06 5.24638e-06 -0.000150435
0.00335248 -0.000104158 4.98926e-05
-0.000104158 0.00143076 2.89811e-06
4.98926e-05 2.89811e-06 0.00141894
0.00180057 1.07019e-05 -2.62066e-06
1.07019e-05 0.000174617 -1.09644e-06
-2.62066e-06 -1.09644e-06 7.00493e-05
0.00182964 4.6423e-06 2.9637e-07
4.6423e-06 0.000144623 3.05466e-07
2.9637e-07 3.05466e-07 3.53826e-05
0.00182328 -1.81472e-06 1.55206e-06
-1.81472e-06 0.00011941 1.02007e-06
1.55206e-06 1.02007e-06 1.2454e-05
0.00095523 -1.33142e-05 -9.4498e-06
-1.33142e-05 -0.000190787 4.36563e-07
-9.4498e-06 4.36563e-07 -0.000289426
0.00183932 4.55044e-06 1.01625e-06
4.55044e-06 0.000184951 4.64053e-08
1.01625e-06 4.64053e-08 7.58069e-05
0.00182753 9.47874e-06 2.14092e-06
9.47874e-06 0.000138217 -3.76347e-07
2.14092e-06 -3.76347e-07 2.61809e-05
0.00176145 6.6404e-06 4.11142e-06
6.6404e-06 0.0001767 -1.11919e-06
4.11142e-06 -1.11919e-06 7.01842e-05
0.000903151 5.38319e-07 -1.22498e-06
5.38319e-07 -0.000191704 5.28054e-07
-1.22498e-06 5.28054e-07 -0.000287395
0.000742434 3.97325e-06 -1.22908e-05
3.97325e-06 -0.000108666 9.66943e-07
-1.22908e-05 9.66943e-07 -0.000165507
0.00120193 5.29619e-06 5.56999e-06
5.29619e-06 1.35248e-06 -1.0482e-06
5.56999e-06 -1.0482e-06 -8.5215e-05
0.000745464 4.94334e-06 2.97475e-07
4.94334e-06 -8.83224e-05 -7.2031e-08
2.97475e-07 -7.2031e-08 -0.000140931
0.00465545 2.14568e-05 -8.80054e-05
2.14568e-05 0.00207156 4.10731e-07
-8.80054e-05 4.10731e-07 0.00206549
0.000722364 4.97465e-06 1.10417e-05
4.97465e-06 -8.80963e-05 -1.4998e-06
1.10417e-05 -1.4998e-06 -0.000136964
0.00454923 4.30852e-05 2.96327e-06
4.30852e-05 0.00202114 2.16024e-07
2.96327e-06 2.16024e-07 0.00201452
0.00451833 3.18727e-05 8.79884e-05
3.18727e-05 0.0020071 -1.32204e-06
8.79884e-05 -1.32204e-06 0.002001
0.00156328 6.65298e-06 -3.06513e-06
6.65298e-06 7.17906e-05 -1.3034e-06
-3.06513e-06 -1.3034e-06 -2.96332e-05
0.00175514 4.3693e-06 4.32601e-07
4.3693e-06 0.000127981 -3.67781e-08
4.32601e-07 -3.67781e-08 2.49864e-05
0.00166228 -1.22743e-07 1.61835e-06
-1.22743e-07 5.70308e-05 1.55279e-06
1.61835e-06 1.55279e-06 -4.49425e-05
0.00124218 1.3263e-05 -7.25603e-06
1.3263e-05 5.76377e-06 -1.92733e-06
-7.25603e-06 -1.92733e-06 -8.03741e-05
0.00152118 1.61182e-05 1.28674e-07
1.61182e-05 6.39774e-05 -6.83023e-08
1.28674e-07 -6.83023e-08 -3.51877e-05
0.0016784 1.54441e-05 1.21707e-06
1.54441e-05 9.514e-05 2.41121e-07
1.21707e-06 2.41121e-07 -7.17691e-06
0.000724375 2.81547e-05 -1.20567e-05
2.81547e-05 -9.32397e-05 -3.19508e-06
-1.20567e-05 -3.19508e-06 -0.000142796
0.00121796 3.89236e-05 -4.81265e-08
3.89236e-05 1.04849e-05 1.09324e-07
-4.81265e-08 1.09324e-07 -7.42985e-05
0.00151774 4.41727e-05 3.58313e-06
4.41727e-05 7.55599e-05 8.83211e-07
3.58313e-06 8.83211e-07 -2.30876e-05
0.00459528 -1.39251e-05 -9.07705e-05
-1.39251e-05 0.00204674 -2.98865e-06
-9.07705e-05 -2.98865e-06 0.00204058
0.00068731 4.55361e-05 1.28305e-08
4.55361e-05 -9.61517e-05 1.20046e-07
1.28305e-08 1.20046e-07 -0.000145804
0.00120466 6.19852e-05 5.35605e-06
6.19852e-05 2.40881e-05 1.77681e-06
5.35605e-06 1.77681e-06 -6.1251e-05
0.00430021 -3.893e-05 4.49492e-06
-3.893e-05 0.00191018 1.41573e-07
4.49492e-06 1.41573e-07 0.00190025
0.000628068 5.25641e-05 1.05562e-05
5.25641e-05 -0.000104546 4.74156e-06
1.05562e-05 4.74156e-06 -0.000155595
0.00375492 -8.5153e-05 5.87804e-05
-8.5153e-05 0.00164149 3.71695e-06
5.87804e-05 3.71695e-06 0.0016289
0.00133171 3.04125e-06 -7.92728e-06
3.04125e-06 1.32987e-05 -8.87132e-07
-7.92728e-06 -8.87132e-07 -8.05238e-05
0.00163247 5.39977e-06 1.04141e-06
5.39977e-06 8.43257e-05 -9.50722e-08
1.04141e-06 -9.50722e-08 -2.19156e-05
0.00187554 1.25229e-06 2.17911e-06
1.25229e-06 0.000170427 1.44278e-06
2.17911e-06 1.44278e-06 6.15566e-05
0.000765764 1.34366e-05 -1.31503e-05
1.34366e-05 -0.000113917 -1.23861e-07
-1.31503e-05 -1.23861e-07 -0.00017189
0.000952005 -6.1758e-06 -1.54126e-06
-6.1758e-06 -0.000191268 3.55959e-07
-1.54126e-06 3.55959e-07 -0.00028974
0.00183517 1.11718e-05 5.31124e-06
1.11718e-05 0.000183538 -4.61095e-07
5.31124e-06 -4.61095e-07 7.42017e-05
0.000883189 3.79055e-07 5.45168e-06
3.79055e-07 -0.000197858 -6.69909e-07
5.45168e-06 -6.69909e-07 -0.000292785
0.000762622 7.16118e-06 1.68758e-07
7.16118e-06 -9.95954e-05 2.95833e-07
1.68758e-07 2.95833e-07 -0.00015657
0.00495586 2.22908e-05 -9.20335e-05
2.22908e-05 0.00221856 -3.76921e-07
-9.20335e-05 -3.76921e-07 0.00221195
0.000770258 1.37053e-05 1.15999e-05
1.37053e-05 -7.67054e-05 -1.23489e-06
1.15999e-05 -1.23489e-06 -0.000129556
0.00474733 2.54393e-05 1.66515e-06
2.54393e-05 0.00211629 3.27404e-07
1.66515e-06 3.27404e-07 0.00211024
0.00458773 3.11136e-05 9.23152e-05
3.11136e-05 0.0020384 -5.63934e-07
9.23152e-05 -5.63934e-07 0.00203273
0.00129031 3.79032e-06 -7.65089e-06
3.79032e-06 1.03361e-05 -1.88576e-06
-7.65089e-06 -1.88576e-06 -7.9577e-05
0.00149242 5.1196e-06 -5.58308e-08
5.1196e-06 3.22697e-05 -1.15234e-07
-5.58308e-08 -1.15234e-07 -6.98325e-05
0.00162752 3.14278e-06 1.4366e-06
3.14278e-06 6.0235e-05 1.14769e-06
1.4366e-06 1.14769e-06 -4.29424e-05
0.00243092 5.74598e-06 -5.19603e-05
5.74598e-06 0.000788255 -1.96435e-06
-5.19603e-05 -1.96435e-06 0.000746985
0.00124643 1.41356e-05 1.13212e-07
1.41356e-05 8.22482e-06 1.83448e-08
1.13212e-07 1.83448e-08 -7.81069e-05
0.00155345 1.60598e-05 3.27607e-06
1.60598e-05 7.98165e-05 8.42871e-07
3.27607e-06 8.42871e-07 -1.93964e-05
0.00470934 -6.51691e-06 -9.79935e-05
-6.51691e-06 0.00209671 -2.16493e-06
-9.79935e-05 -2.16493e-06 0.00209154
0.00071834 2.94138e-05 -2.68786e-08
2.94138e-05 -9.59645e-05 3.83763e-08
-2.68786e-08 3.83763e-08 -0.000145553
0.00121841 3.9524e-05 7.60029e-06
3.9524e-05 1.12369e-05 2.08938e-06
7.60029e-06 2.08938e-06 -7.37386e-05
0.004509 -8.59004e-06 1.98325e-06
-8.59004e-06 0.00200491 3.60636e-07
1.98325e-06 3.60636e-07 0.00199833
0.000670323 4.44968e-05 1.13957e-05
4.44968e-05 -0.000104163 4.00873e-06
1.13957e-05 4.00873e-06 -0.000153868
0.00415892 -2.83604e-05 7.55304e-05
-2.83604e-05 0.00183637 3.62723e-06
7.55304e-05 3.62723e-06 0.00182833
0.000807848 6.691e-06 -1.50705e-05
6.691e-06 -9.33168e-05 -1.89386e-06
-1.50705e-05 -1.89386e-06 -0.00015268
0.00113614 4.35229e-10 2.4231e-07
4.35229e-10 -8.97991e-05 3.49271e-07
2.4231e-07 3.49271e-07 -0.000184771
0.00145901 1.14273e-07 4.47826e-06
1.14273e-07 -8.87882e-06 1.01261e-06
4.47826e-06 1.01261e-06 -0.000116737
0.00523911 -4.9863e-05 -9.37608e-05
-4.9863e-05 0.002364 -1.5526e-06
-9.37608e-05 -1.5526e-06 0.00235264
0.000781782 9.38415e-06 -7.07218e-09
9.38415e-06 -0.000104812 3.82767e-07
-7.07218e-09 3.82767e-07 -0.000163684
0.000946019 6.67439e-07 6.09971e-06
6.67439e-07 -0.000192938 1.00705e-07
6.09971e-06 1.00705e-07 -0.000291284
0.00079018 1.46221e-05 1.23783e-05
1.46221e-05 -8.65124e-05 -2.65009e-07
1.23783e-05 -2.65009e-07 -0.00014383
0.00507318 5.85503e-05 4.07711e-06
5.85503e-05 0.00227795 4.35049e-07
4.07711e-06 4.35049e-07 0.00227009
0.00485792 6.60066e-05 9.72571e-05
6.60066e-05 0.00217234 2.76532e-07
9.72571e-05 2.76532e-07 0.00216483
0.00255769 -1.45283e-05 -5.68202e-05
-1.45283e-05 0.00083712 -2.08764e-06
-5.68202e-05 -2.08764e-06 0.000792033
0.00129041 5.47077e-06 -1.03188e-07
5.47077e-06 1.02532e-05 1.91345e-08
-1.03188e-07 1.91345e-08 -7.96488e-05
0.00142155 3.73913e-06 3.07223e-06
3.73913e-06 -7.28872e-06 1.09764e-06
3.07223e-06 1.09764e-06 -0.000110064
0.00461073 1.06474e-05 -2.80362e-05
1.06474e-05 0.00204791 -9.9252e-07
-2.80362e-05 -9.9252e-07 0.00203836
0.000768766 1.04094e-05 -1.3854e-07
1.04094e-05 -8.18389e-05 7.36889e-08
-1.3854e-07 7.36889e-08 -0.000133728
0.0012573 1.59175e-05 7.42618e-06
1.59175e-05 1.37474e-05 1.9419e-06
7.42618e-06 1.9419e-06 -7.27207e-05
0.00464361 -2.77706e-07 -5.4208e-07
-2.77706e-07 0.00206553 3.77862e-07
-5.4208e-07 3.77862e-07 0.00206009
0.000708954 3.12787e-05 1.21628e-05
3.12787e-05 -0.00010009 3.36484e-06
1.21628e-05 3.36484e-06 -0.00014974
0.00441493 -4.63185e-08 8.56248e-05
-4.63185e-08 0.00195808 3.42061e-06
8.56248e-05 3.42061e-06 0.00195162
0.00180528 -1.28443e-05 -9.81847e-05
-1.28443e-05 0.000547204 -1.70059e-07
-9.81847e-05 -1.70059e-07 0.000521301
0.0017067 5.81896e-06 -2.30318e-05
5.81896e-06 0.000380758 5.40105e-07
-2.30318e-05 5.40105e-07 0.000328666
0.00094901 4.4615e-07 7.78126e-06
4.4615e-07 -0.000188543 1.58388e-06
7.78126e-06 1.58388e-06 -0.000284659
0.00525129 -4.54777e-05 4.2872e-06
-4.54777e-05 0.00236793 -8.9669e-07
4.2872e-06 -8.9669e-07 0.00235777
0.000785314 7.46538e-06 1.32467e-05
7.46538e-06 -0.000102634 9.02768e-07
1.32467e-05 9.02768e-07 -0.000161898
0.00515066 2.7831e-05 0.00010404
2.7831e-05 0.00231336 9.99227e-07
0.00010404 9.99227e-07 0.00230689
0.00149838 -5.01309e-05 -9.361e-06
-5.01309e-05 0.000405111 -8.28246e-07
-9.361e-06 -8.28246e-07 0.00037461
0.00168545 3.65871e-06 -2.18218e-05
3.65871e-06 0.000383356 1.89266e-07
-2.18218e-05 1.89266e-07 0.000333232
0.00129062 4.86487e-06 7.34209e-06
4.86487e-06 1.03499e-05 1.9709e-06
7.34209e-06 1.9709e-06 -7.95781e-05
0.00311499 2.62802e-06 3.93645e-05
2.62802e-06 0.001257 4.26682e-07
3.93645e-05 4.26682e-07 0.00124076
0.000758068 1.73409e-05 1.25398e-05
1.73409e-05 -8.72957e-05 2.97447e-06
1.25398e-05 2.97447e-06 -0.000139463
0.00459638 8.38681e-06 9.18337e-05
8.38681e-06 0.00204326 2.89824e-06
9.18337e-05 2.89824e-06 0.00203762
0.00526946 -5.88703e-05 -4.71864e-06
-5.88703e-05 0.002374 4.73925e-07
-4.71864e-06 4.73925e-07 0.00236536
0.000776566 1.25087e-05 1.32811e-05
1.25087e-05 -0.000106402 2.02243e-06
1.32811e-05 2.02243e-06 -0.000164327
0.00528745 3.59011e-05 0.00010086
3.59011e-05 0.00238411 -1.03279e-06
0.00010086 -1.03279e-06 0.00237481
0.00329185 -8.8383e-07 4.21526e-05
-8.8383e-07 0.00134042 4.07828e-08
4.21526e-05 4.07828e-08 0.0013226
0.000780186 9.13684e-06 1.26888e-05
9.13684e-06 -9.00137e-05 2.661e-06
1.26888e-05 2.661e-06 -0.000145991
0.0047592 5.05932e-06 9.41356e-05
5.05932e-06 0.00212086 2.082e-06
9.41356e-05 2.082e-06 0.00211527
0.00518915 -0.000121452 9.34596e-05
-0.000121452 0.00234198 -6.1804e-08
9.34596e-05 -6.1804e-08 0.00232809
0.00498067 -6.14516e-05 9.27662e-05
-6.14516e-05 0.00223151 8.24764e-07
9.27662e-05 8.24764e-07 0.0022236
