# vtk DataFile Version 2.0
Wound Healing Simulation
ASCII
DATASET UNSTRUCTURED_GRID
POINTS 3012 float
69.9759 18.75 4
67.2507 60.3285 4
69.976 18.75 2
73.0099 25.446 4
71.1327 20.9142 4
68.6801 16.6661 4
67.823 19.9266 3.97645
67.2507 60.3286 2
71.1327 54.0858 4
68.6801 58.3339 4
65.6939 62.2254 4
65.3098 58.9999 3.97576
74.6784 42.3946 4
73.7221 47.2057 4
69.9759 18.75 0
73.0099 25.446 2
68.6801 16.6661 2
71.1327 20.9142 2
67.8235 19.9301 2
74.6792 32.6053 4
73.7222 27.7943 4
72.1454 23.1494 4
70.6122 26.2215 3.97641
68.8833 21.9583 3.97692
67.2507 14.6715 4
66.6344 17.9731 3.97533
65.79 21.0288 3.96525
67.2507 60.3285 0
71.1327 54.0858 2
68.6801 58.3339 2
65.694 62.2255 2
65.311 58.9951 2
72.1454 51.8506 4
69.9759 56.25 4
68.8338 53.1131 3.97612
64.0165 64.0165 4
66.6082 57.1328 3.97613
63.8829 60.7638 3.97568
63.4941 57.7648 3.96674
60.3285 67.2507 4
74.6792 42.3947 2
73.7222 47.2057 2
74.9194 39.9526 4
74.2788 44.8158 4
72.1668 42.0858 3.97735
73.0099 49.554 4
71.2473 46.598 3.97603
73.0099 25.446 0
71.1327 20.9142 0
68.6801 16.6661 0
67.823 19.9266 0.0235534
74.6792 32.6053 2
73.7222 27.7943 2
67.2508 14.6715 2
72.1455 23.1494 2
70.6119 26.2221 2
66.6353 17.9777 2
68.8835 21.9605 2
65.7891 21.0299 2
74.9197 35.0474 4
74.2794 30.1841 4
72.1835 32.9441 3.97753
71.2765 28.4322 3.97638
69.8134 24.0599 3.97682
68.3412 26.9541 3.96543
66.7558 22.936 3.96506
65.694 12.7746 4
65.3207 16.1054 3.97445
64.7062 19.2003 3.96564
63.82 22.0616 3.96452
71.1327 54.0858 0
65.6939 62.2254 0
68.6801 58.3339 0
65.3098 58.9999 0.024243
72.1455 51.8506 2
69.9759 56.25 2
68.8339 53.1109 2
64.0165 64.0165 2
66.609 57.1285 2
63.8846 60.7589 2
63.4927 57.7644 2
62.2254 65.694 4
58.8924 65.413 3.98507
69.7665 50.989 3.9759
67.7811 55.167 3.97634
66.6424 52.2072 3.96497
62.333 62.4244 3.97805
64.6537 56.0273 3.96619
62.1969 59.3926 3.96697
61.7895 56.6599 3.96254
58.3339 68.6801 4
60.3285 67.2508 2
73.7221 47.2057 0
74.6784 42.3946 0
74.9197 39.9526 2
74.2794 44.8159 2
72.1661 42.0854 2
73.0099 49.554 2
71.247 46.5975 2
75 37.5 4
72.4041 39.8026 3.97821
71.7809 44.3529 3.97696
69.7996 41.79 3.96733
70.5729 48.8135 3.97575
68.9064 46.0141 3.96598
74.6792 32.6053 0
73.7222 27.7943 0
67.2507 14.6715 0
72.1454 23.1494 0
70.6122 26.2215 0.0235901
68.8833 21.9583 0.0230812
66.6344 17.9731 0.0246734
65.79 21.0288 0.0347495
74.9197 35.0474 2
74.2794 30.1841 2
72.1828 32.9445 2
71.2761 28.4326 2
65.694 12.7745 2
65.3221 16.1107 2
69.8133 24.0611 2
68.3408 26.955 2
64.7051 19.2013 2
66.7553 22.9372 2
63.82 22.0621 2
72.412 35.2248 3.97824
71.8024 30.6771 3.97723
69.8357 33.2708 3.96719
68.9609 29.0409 3.96591
67.6052 24.9146 3.96517
66.1136 27.6555 3.96786
64.0165 10.9835 4
64.6817 23.855 3.96575
63.8866 14.3302 3.97513
63.5056 17.4561 3.96616
62.8457 20.3487 3.96298
61.9474 22.9976 3.96784
60.6816 11.1012 3.97963
57.6069 11.4687 3.97055
72.1454 51.8506 0
69.9759 56.25 0
68.8338 53.1131 0.0238791
64.0165 64.0165 0
63.8829 60.7638 0.0243152
66.6082 57.1328 0.0238723
63.4941 57.7648 0.0332567
62.2255 65.694 2
58.8947 65.4101 2
69.7663 50.9878 2
67.7816 55.1637 2
66.6417 52.2063 2
62.3354 62.4203 2
64.6525 56.0266 2
62.195 59.3925 2
61.7905 56.6603 2
60.6664 63.974 3.98108
57.0234 66.7341 3.98761
57.5542 63.6813 3.97203
67.5007 50.1752 3.96494
65.6948 54.1706 3.96548
64.451 51.3603 3.96564
60.7677 60.9194 3.96849
62.7676 55.0455 3.96381
60.6386 58.1364 3.96139
60.2498 55.7449 3.96447
56.25 69.9759 4
58.3339 68.6801 2
60.3285 67.2507 0
58.9188 9.65865 3.98122
62.2254 9.30607 4
73.0099 49.554 0
74.2788 44.8158 0
71.2473 46.598 0.0239668
72.1668 42.0858 0.022654
74.9194 39.9526 0
75 37.5 2
72.4039 39.8024 2
71.7807 44.3523 2
69.7988 41.7896 2
70.5726 48.8129 2
68.9062 46.0134 2
72.4876 37.5126 3.97781
70.0371 39.6583 3.96771
69.4253 43.9073 3.9667
67.5162 41.4907 3.9707
68.2596 48.106 3.96536
66.6151 45.4234 3.96939
74.9197 35.0474 0
74.2794 30.1841 0
72.1835 32.9441 0.0224739
71.2765 28.4322 0.0236225
65.694 12.7746 0
65.3207 16.1054 0.0255545
69.8134 24.0599 0.023185
68.3412 26.9541 0.0345676
66.7558 22.936 0.0349442
64.7062 19.2003 0.0343601
63.82 22.0616 0.035478
72.4118 35.2249 2
71.8023 30.6777 2
69.8349 33.2713 2
68.9607 29.0417 2
64.0165 10.9835 2
63.8887 14.3353 2
63.5042 17.4571 2
67.6047 24.9157 2
66.1132 27.6561 2
62.846 20.3489 2
64.6813 23.8556 2
61.9465 22.9984 2
60.684 11.1053 2
57.6081 11.4615 2
70.0539 35.3939 3.96763
69.4624 31.1521 3.96651
67.5832 33.6008 3.9701
66.6909 29.6406 3.96854
65.4436 25.7226 3.96665
63.9606 28.2987 3.9738
62.3385 12.6589 3.97754
62.6957 24.6891 3.97005
62.1919 15.7999 3.96747
61.7675 18.7143 3.96187
61.0834 21.3993 3.96525
60.2035 23.8084 3.97167
59.2406 12.808 3.96843
55.87 10.2473 3.97336
56.3954 13.1651 3.96851
69.7665 50.989 0.0240958
62.2254 65.694 0
58.8924 65.413 0.0149299
67.7811 55.167 0.0236585
66.6424 52.2072 0.035026
62.333 62.4244 0.0219468
62.1969 59.3926 0.0330333
64.6537 56.0273 0.0338109
61.7895 56.6599 0.0374628
60.6686 63.9711 2
57.0255 66.7326 2
57.555 63.6827 2
67.5002 50.1743 2
65.6939 54.1697 2
64.451 51.3599 2
60.7668 60.9209 2
62.7679 55.0456 2
60.6413 58.1375 2
60.2494 55.7447 2
55.0693 67.9312 3.98918
59.2137 62.341 3.97001
55.8018 64.902 3.97739
56.318 62.0514 3.97046
65.2353 49.3844 3.96685
63.6327 53.2678 3.96458
62.2547 50.6003 3.96894
59.3206 59.5307 3.96468
60.9579 54.2632 3.96652
59.2234 56.9684 3.9624
59.1238 55.1282 3.9672
48.1003 68.5755 3.98524
50.9471 69.9313 3.99048
54.0858 71.1327 4
56.25 69.976 2
58.3339 68.6801 0
57.0559 8.33823 3.98307
60.3285 7.74928 4
58.9216 9.66288 2
62.2255 9.30602 2
70.5729 48.8135 0.0242464
71.7809 44.3529 0.0230444
68.9064 46.0141 0.0340249
69.7996 41.79 0.0326709
72.4041 39.8026 0.0217853
75 37.5 0
72.4868 37.5125 2
70.0369 39.6581 2
69.425 43.9068 2
67.5151 41.4905 2
68.2592 48.1051 2
66.6133 45.4228 2
70.1252 37.523 3.96771
67.7604 39.51 3.9712
67.1343 43.4583 3.97
65.3615 41.1923 3.97711
65.9695 47.3972 3.96824
64.4371 44.8129 3.97477
72.412 35.2248 0.021758
71.8024 30.6771 0.0227725
69.8357 33.2708 0.0328079
68.9609 29.0409 0.0340887
64.0165 10.9835 0
63.8866 14.3302 0.0248663
63.5056 17.4561 0.0338355
67.6052 24.9146 0.0348267
66.1136 27.6555 0.0321435
64.6817 23.855 0.0342508
62.8457 20.3487 0.0370245
61.9474 22.9976 0.0321602
60.6816 11.1012 0.0203662
57.6069 11.4687 0.0294501
70.0537 35.3942 2
69.4622 31.1527 2
67.5822 33.6011 2
66.69 29.6412 2
62.341 12.6634 2
62.1904 15.8004 2
61.768 18.7141 2
65.4433 25.7233 2
63.9585 28.2997 2
61.082 21.4001 2
62.6942 24.6901 2
60.2025 23.8095 2
59.2411 12.808 2
56.3965 13.1626 2
55.8718 10.2472 2
67.8003 35.5534 3.97081
67.1908 31.6362 3.96937
65.5181 33.9459 3.97708
64.4763 30.2285 3.97541
63.3641 26.4625 3.97208
61.9765 28.8452 3.97614
60.7691 14.2454 3.96835
60.801 25.4155 3.9743
60.5868 17.1585 3.9617
60.1007 19.8774 3.96224
59.4489 22.3445 3.96757
58.6928 24.4251 3.97426
54.0346 9.14588 3.97497
57.8985 14.3738 3.96725
54.7779 12.0548 3.97024
55.2957 14.7094 3.96732
67.5007 50.1752 0.0350594
57.0234 66.7341 0.0123948
60.6664 63.974 0.0189159
57.5542 63.6813 0.0279689
65.6948 54.1706 0.0345205
64.451 51.3603 0.0343561
60.7677 60.9194 0.0315118
60.6386 58.1364 0.0386104
62.7676 55.0455 0.0361884
60.2498 55.7449 0.0355332
55.071 67.9302 2
59.214 62.3421 2
55.802 64.9025 2
56.3165 62.0522 2
65.2348 49.3838 2
63.6328 53.2676 2
62.2543 50.5997 2
59.3201 59.5319 2
60.9583 54.263 2
59.2276 56.9692 2
59.1264 55.1282 2
53.0414 68.9993 3.99021
53.9645 66.0066 3.98004
57.8693 60.8365 3.96882
54.6772 63.1883 3.97229
55.1952 60.5685 3.96824
62.9917 48.6123 3.97093
61.585 52.5249 3.96765
59.9916 49.942 3.97128
57.9875 58.225 3.96249
59.157 53.8829 3.96848
57.987 55.7476 3.96287
50.107 67.8534 3.98438
47.4615 66.5732 3.98051
46.0542 69.1547 3.98596
48.1006 68.5759 2
48.801 70.7226 3.99084
50.9483 69.9308 2
51.8506 72.1454 4
54.0858 71.1327 2
56.25 69.9759 0
55.101 7.14216 3.98707
58.3339 6.31992 4
57.0591 8.34112 2
60.3286 7.74926 2
58.9188 9.65865 0.0187803
62.2254 9.30607 0
68.2596 48.106 0.0346409
69.4253 43.9073 0.0333044
66.6151 45.4234 0.030607
67.5162 41.4907 0.0293029
70.0371 39.6583 0.0322927
72.4876 37.5126 0.0221932
70.1245 37.5231 2
67.7589 39.5099 2
67.1339 43.4579 2
65.3584 41.1914 2
65.9691 47.3967 2
64.435 44.8119 2
67.8614 37.5239 3.9712
65.5995 39.3625 3.97697
64.9781 42.999 3.97645
63.4652 40.9044 3.97693
63.7476 46.6729 3.97275
62.4918 44.1606 3.97654
70.0539 35.3939 0.0323722
69.4624 31.1521 0.0334936
67.5832 33.6008 0.0298992
66.6909 29.6406 0.0314624
62.3385 12.6589 0.0224614
62.1919 15.7999 0.0325279
61.7675 18.7143 0.0381304
65.4436 25.7226 0.0333484
63.9606 28.2987 0.0261973
62.6957 24.6891 0.0299464
61.0834 21.3993 0.0347512
60.2035 23.8084 0.0283316
59.2406 12.808 0.0315691
56.3954 13.1651 0.0314935
55.87 10.2473 0.0266351
67.7986 35.5536 2
67.1906 31.6366 2
65.5146 33.9467 2
64.474 30.2294 2
60.7689 14.2458 2
60.5862 17.1581 2
60.0991 19.8781 2
63.3623 26.4634 2
61.9741 28.8463 2
59.4503 22.3451 2
60.7992 25.4166 2
58.6919 24.4262 2
57.8973 14.3737 2
55.2959 14.7078 2
54.0364 9.14547 2
54.7784 12.0526 2
65.6979 35.6775 3.97708
64.9983 32.1822 3.97633
64.0278 34.2747 3.97697
62.2946 30.6931 3.97617
61.3844 27.146 3.97556
60.5052 29.2245 3.97638
59.2959 15.703 3.96338
59.0105 25.9019 3.97606
59.0466 18.413 3.96115
58.5529 20.9427 3.96343
58.0105 23.2029 3.96912
57.6531 24.7854 3.97501
52.1098 8.16138 3.97833
53.051 11.0456 3.97146
56.6552 15.7974 3.96377
53.7937 13.7441 3.96638
54.3419 16.0722 3.96073
55.0693 67.9312 0.0108193
65.2353 49.3844 0.0331463
55.8018 64.902 0.0226079
59.2137 62.341 0.0299943
56.318 62.0514 0.0295354
63.6327 53.2678 0.0354235
62.2547 50.6003 0.0310603
59.3206 59.5307 0.0353175
59.2234 56.9684 0.037597
60.9579 54.2632 0.0334779
59.1238 55.1282 0.0327991
53.0428 68.9988 2
53.9648 66.0071 2
57.8676 60.8373 2
54.6766 63.1896 2
55.1931 60.5689 2
62.9905 48.6115 2
61.585 52.5245 2
59.9924 49.9414 2
57.985 58.2258 2
59.1603 53.8828 2
57.9837 55.746 2
52.0682 66.9957 3.98311
52.9496 64.206 3.97713
56.6284 59.4496 3.96897
53.6674 61.5821 3.97229
54.2338 59.2726 3.97557
60.6702 47.8046 3.97272
59.473 52.031 3.9693
57.6668 49.5155 3.97307
56.7075 56.9333 3.964
56.9091 54.0383 3.96635
50.1071 67.8536 2
49.3352 65.9134 3.9805
47.4615 66.5734 2
46.8899 64.7238 3.97917
45.5568 67.0905 3.98099
43.9716 69.5867 3.98668
46.0545 69.155 2
46.6074 71.367 3.99113
48.1003 68.5755 0.014764
48.8022 70.7224 2
49.554 73.0099 4
50.9471 69.9313 0.00951949
51.8506 72.1455 2
54.0858 71.1327 0
53.0633 6.07308 3.98948
55.1039 7.14337 2
56.25 5.02411 4
58.3339 6.3199 2
57.0559 8.33823 0.0169289
60.3285 7.74928 0
65.9695 47.3972 0.0317571
67.1343 43.4583 0.0299952
64.4371 44.8129 0.0252284
65.3615 41.1923 0.0228934
67.7604 39.51 0.0287991
70.1252 37.523 0.0322905
67.8604 37.5239 2
65.5962 39.3621 2
64.9749 42.998 2
63.4634 40.904 2
63.7459 46.672 2
62.4898 44.1596 2
65.7079 37.5038 3.97693
63.6149 39.2558 3.97684
63.022 42.5107 3.97661
62.07 40.6657 3.97662
61.6374 45.8525 3.9749
61.0546 43.6173 3.97638
67.8003 35.5534 0.0291911
67.1908 31.6362 0.0306307
65.5181 33.9459 0.0229225
64.4763 30.2285 0.0245901
60.7691 14.2454 0.0316516
60.5868 17.1585 0.0383042
60.1007 19.8774 0.0377575
63.3641 26.4625 0.0279201
61.9765 28.8452 0.0238624
60.801 25.4155 0.0256992
59.4489 22.3445 0.032427
58.6928 24.4251 0.0257352
57.8985 14.3738 0.0327486
55.2957 14.7094 0.0326776
54.0346 9.14588 0.0250285
54.7779 12.0548 0.0297628
65.6946 35.6782 2
64.9951 32.183 2
64.0256 34.2754 2
62.2925 30.6935 2
59.2943 15.7028 2
59.0498 18.412 2
58.5542 20.9434 2
61.3829 27.1471 2
60.5042 29.225 2
58.0045 23.205 2
59.0093 25.9032 2
57.6566 24.7874 2
56.653 15.7967 2
54.3449 16.071 2
53.7926 13.7362 2
52.1114 8.16094 2
53.0519 11.0435 2
63.8228 35.6469 3.97675
62.6165 33.0872 3.9765
60.2238 30.6918 3.97611
59.2085 28.0139 3.9762
57.9034 17.0365 3.96045
57.375 25.8571 3.97599
57.5763 19.5611 3.96051
57.1158 21.9568 3.96359
56.8458 24.0811 3.97007
50.1109 7.29039 3.98339
51.2278 10.1412 3.97442
52.158 12.8436 3.97242
55.4979 17.043 3.96077
52.9508 15.3399 3.96596
53.7132 17.0674 3.96149
53.0414 68.9993 0.00978518
53.9645 66.0066 0.0199566
62.9917 48.6123 0.0290706
54.6772 63.1883 0.027711
57.8693 60.8365 0.0311812
55.1952 60.5685 0.0317647
61.585 52.5249 0.0323475
59.9916 49.942 0.0287223
57.9875 58.225 0.0375149
57.987 55.7476 0.0371299
59.157 53.8829 0.0315215
52.0685 66.9962 2
52.9491 64.2064 2
56.6268 59.4506 2
53.6657 61.5844 2
54.2313 59.2736 2
60.6697 47.8037 2
59.4737 52.0304 2
57.6641 49.5142 2
56.704 56.9366 2
56.906 54.0367 2
51.1657 65.1186 3.97912
52.0367 62.5201 3.97392
55.4416 58.2038 3.9645
52.8093 60.0743 3.97209
53.6017 58.4208 3.96809
57.8588 46.7396 3.97573
57.2681 51.6915 3.96958
55.8219 49.4348 3.97207
55.3587 55.7223 3.96479
55.103 53.2883 3.9631
50.107 67.8534 0.0156221
49.3351 65.9133 2
48.6147 64.1108 3.9792
47.4615 66.5732 0.0194869
45.5568 67.091 2
46.8904 64.7235 2
46.377 63.0374 3.98222
45.1309 65.1847 3.97882
43.6302 67.4619 3.98228
41.8594 69.8736 3.98631
43.9718 69.5871 2
44.3746 71.8616 3.99133
46.0542 69.1547 0.0140369
46.6084 71.3669 2
47.2057 73.7222 4
48.801 70.7226 0.00915693
49.554 73.0099 2
51.8506 72.1454 0
50.954 5.13349 3.99092
53.0654 6.07386 2
54.0858 3.86728 4
55.101 7.14216 0.0129317
56.25 5.02406 2
58.3339 6.31992 0
63.7476 46.6729 0.0272522
64.9781 42.999 0.0235468
62.4918 44.1606 0.0234623
63.4652 40.9044 0.0230724
65.5995 39.3625 0.0230269
67.8614 37.5239 0.0287993
65.7045 37.5041 2
63.6134 39.2557 2
63.0204 42.5101 2
62.07 40.6654 2
61.6357 45.8515 2
61.0534 43.617 2
63.6785 37.458 3.97679
61.7812 39.3366 3.97682
60.7994 41.9054 3.97667
59.8229 44.6815 3.97669
65.6979 35.6775 0.0229216
64.9983 32.1822 0.0236716
64.0278 34.2747 0.0230329
62.2946 30.6931 0.0238253
59.2959 15.703 0.0366154
59.0466 18.413 0.0388502
58.5529 20.9427 0.0365662
61.3844 27.146 0.0244389
60.5052 29.2245 0.0236202
59.0105 25.9019 0.0239383
58.0105 23.2029 0.0308783
57.6531 24.7854 0.0249866
56.6552 15.7974 0.0362318
54.3419 16.0722 0.0392749
53.7937 13.7441 0.0336213
52.1098 8.16138 0.0216717
53.051 11.0456 0.0285402
63.8213 35.647 2
62.6158 33.0878 2
60.2238 30.692 2
57.9 17.0367 2
57.586 19.5583 2
57.111 21.9589 2
59.2072 28.0147 2
56.8579 24.0826 2
57.375 25.86 2
50.1124 7.28882 2
55.4969 17.0426 2
53.715 17.0609 2
52.9505 15.3346 2
52.1588 12.8481 2
51.2291 10.1394 2
61.8228 35.3806 3.97646
59.8471 32.8074 3.97625
58.1568 30.1798 3.97604
56.8618 27.5225 3.97668
56.563 18.2311 3.96117
55.9053 25.2556 3.97522
56.1735 20.6315 3.96079
55.7945 23.0105 3.9636
48.0561 6.53024 3.98749
49.3222 9.3429 3.97787
50.4232 12.0272 3.97425
51.3538 14.559 3.96641
54.3475 18.01 3.95985
52.3208 17.1386 3.95893
52.0682 66.9957 0.0168873
52.9496 64.206 0.0228735
60.6702 47.8046 0.0272777
53.6674 61.5821 0.0277074
56.6284 59.4496 0.0310266
54.2338 59.2726 0.0244346
59.473 52.031 0.0307018
57.6668 49.5155 0.0269323
56.7075 56.9333 0.0360038
56.9091 54.0383 0.0336497
51.1655 65.1193 2
52.0354 62.5217 2
55.4401 58.2046 2
52.8078 60.0777 2
53.6002 58.4227 2
57.8579 46.7387 2
57.2652 51.6901 2
55.8155 49.4329 2
55.3566 55.722 2
55.1043 53.2882 2
50.341 63.3677 3.97986
51.2258 60.8949 3.9746
54.1586 57.2133 3.96796
52.2652 58.5722 3.97069
56.1024 44.0524 3.97677
54.9843 47.7611 3.97444
54.7003 51.2741 3.96559
53.8342 54.4625 3.96558
49.3352 65.9134 0.0194995
48.615 64.1101 2
47.9541 62.4591 3.98002
45.5568 67.0905 0.019011
46.8899 64.7238 0.020833
43.6301 67.4625 2
46.377 63.0374 2
45.1314 65.185 2
45.9798 61.5675 3.9886
44.7639 63.4361 3.97803
43.356 65.4956 3.97916
41.6625 67.6801 3.98185
39.7017 70.0193 3.98584
41.8594 69.8742 2
42.1091 72.2061 3.99172
43.9716 69.5867 0.0133176
44.3755 71.8616 2
44.8159 74.2794 4
46.6074 71.367 0.0088707
47.2057 73.7222 2
49.554 73.0099 0
48.7852 4.32374 3.99197
50.9556 5.13333 2
51.8506 2.85458 4
53.0633 6.07308 0.0105219
54.0858 3.86728 2
56.25 5.02411 0
61.6374 45.8525 0.0250996
63.022 42.5107 0.0233851
61.0546 43.6173 0.0236249
62.07 40.6657 0.0233842
63.6149 39.2558 0.0231586
65.7079 37.5038 0.0230719
63.677 37.458 2
61.7816 39.3368 2
60.8001 41.9052 2
59.8227 44.6807 2
61.6113 37.444 3.97691
59.7641 39.8122 3.97686
58.4564 42.8351 3.9763
63.8228 35.6469 0.0232472
62.6165 33.0872 0.0234981
60.2238 30.6918 0.0238924
57.9034 17.0365 0.0395484
57.5763 19.5611 0.0394943
57.1158 21.9568 0.0364069
59.2085 28.0139 0.0237951
57.375 25.8571 0.024012
56.8458 24.0811 0.0299349
55.4979 17.043 0.0392319
53.7132 17.0674 0.0385101
52.9508 15.3399 0.0340411
50.1109 7.29039 0.0166064
52.158 12.8436 0.0275786
51.2278 10.1412 0.0255767
61.8234 35.3807 2
59.8473 32.8074 2
58.1576 30.1792 2
56.5654 18.2302 2
56.1845 20.6262 2
55.7993 23.0154 2
56.8615 27.5239 2
55.905 25.2597 2
48.057 6.5291 2
49.3235 9.34135 2
54.3529 18.0084 2
52.3173 17.1298 2
51.3512 14.5573 2
50.4247 12.0264 2
59.4019 35.1505 3.97657
57.4366 32.3546 3.9757
56.0301 29.4781 3.9764
54.9664 26.7825 3.97574
55.2356 19.2842 3.96177
54.5726 24.2263 3.96914
54.7681 21.6962 3.96001
45.9626 5.88447 3.98883
43.3743 7.47763 3.9846
47.3547 8.63002 3.98214
48.5937 11.3133 3.97413
49.6927 13.784 3.97071
50.5952 16.2069 3.96621
53.0397 18.7734 3.9609
51.2445 18.1864 3.96653
51.1657 65.1186 0.0208785
52.0367 62.5201 0.0260824
57.8588 46.7396 0.0242692
52.8093 60.0743 0.0279066
55.4416 58.2038 0.035495
53.6017 58.4208 0.0319148
57.2681 51.6915 0.0304184
55.8219 49.4348 0.0279276
55.3587 55.7223 0.035213
55.103 53.2883 0.0369013
50.3407 63.3668 2
51.2238 60.8932 2
54.1576 57.2145 2
52.2632 58.5737 2
56.1032 44.0516 2
54.9814 47.7598 2
54.6999 51.2732 2
53.8336 54.4639 2
49.5802 61.73 3.97672
54.8658 41.642 3.97415
50.5298 59.2823 3.96962
52.091 56.4276 3.96816
53.5237 45.4016 3.97421
52.8516 49.191 3.96959
52.3924 52.7517 3.96091
48.6147 64.1108 0.0208019
47.9535 62.4576 2
47.3152 60.9899 3.98764
43.6302 67.4619 0.0177184
45.1309 65.1847 0.0211825
46.377 63.0374 0.0177827
41.6628 67.6799 2
43.3565 65.4962 2
45.9787 61.568 2
44.7642 63.4364 2
45.7509 60.6129 3.9859
44.4785 61.8121 3.9796
43.1448 63.7101 3.97865
41.5457 65.6331 3.97781
39.6321 67.7574 3.98121
37.5259 70.0436 3.9846
39.7017 70.0196 2
39.8164 72.4026 3.99152
41.8594 69.8736 0.0136874
42.1098 72.2064 2
42.3947 74.6792 4
44.3746 71.8616 0.00866728
44.8159 74.2794 2
47.2057 73.7222 0
43.8519 5.36162 3.98799
46.5714 3.64816 3.9923
48.7861 4.32346 2
49.554 1.99015 4
50.954 5.13349 0.00908084
51.8506 2.85453 2
54.0858 3.86728 0
59.8229 44.6815 0.0233071
60.7994 41.9054 0.0233307
61.7812 39.3366 0.0231819
63.6785 37.458 0.0232126
61.6118 37.444 2
59.7649 39.8121 2
58.4568 42.8347 2
59.2558 37.5656 3.97721
57.3892 40.5996 3.97714
54.2682 39.6552 3.97511
61.8228 35.3806 0.0235429
59.8471 32.8074 0.0237484
58.1568 30.1798 0.0239611
56.563 18.2311 0.0388274
56.1735 20.6315 0.0392108
55.7945 23.0105 0.0363953
56.8618 27.5225 0.0233235
55.9053 25.2556 0.0247828
54.3475 18.01 0.0401533
52.3208 17.1386 0.0410657
51.3538 14.559 0.0335867
48.0561 6.53024 0.0125143
49.3222 9.3429 0.0221265
50.4232 12.0272 0.0257517
59.4028 35.1502 2
45.9631 5.88329 2
43.3745 7.47598 2
57.4376 32.3549 2
56.0299 29.4774 2
55.2255 19.2874 2
54.7889 21.6985 2
54.5664 24.2302 2
54.9641 26.7851 2
47.3558 8.62745 2
48.595 11.312 2
53.0462 18.7562 2
51.2499 18.1831 2
50.5941 16.2078 2
49.6917 13.7861 2
56.7689 34.803 3.97709
55.1024 31.6315 3.9757
53.9506 28.5845 3.97715
53.3449 25.7001 3.97515
53.8289 20.2517 3.96129
53.3095 22.8848 3.95588
41.3997 7.08267 3.98398
45.3603 7.9971 3.98734
42.8663 9.42257 3.97969
46.6647 10.6638 3.98035
47.7286 13.1276 3.97528
48.899 15.4555 3.96919
49.9475 17.7716 3.96079
51.5526 19.4684 3.96953
50.341 63.3677 0.0201351
51.2258 60.8949 0.0254038
56.1024 44.0524 0.023231
54.9843 47.7611 0.0255587
52.2652 58.5722 0.0293096
54.1586 57.2133 0.0320424
54.7003 51.2741 0.0344074
53.8342 54.4625 0.0344178
49.5785 61.7287 2
54.8566 41.638 2
50.5276 59.283 2
52.0936 56.4304 2
53.52 45.3996 2
52.8543 49.1898 2
52.3931 52.7515 2
48.8236 60.1827 3.97609
51.6409 42.51 3.98326
49.7232 57.5793 3.96682
50.4163 54.357 3.96213
51.1972 47.1093 3.97482
50.8416 50.829 3.95481
47.3209 43.5903 3.97578
47.9541 62.4591 0.0199805
47.3134 60.9887 2
46.5948 59.7787 3.99359
41.6625 67.6801 0.0181471
43.356 65.4956 0.020835
44.7639 63.4361 0.02197
45.9798 61.5675 0.0114033
39.6325 67.758 2
41.5461 65.6317 2
45.7499 60.6129 2
43.1451 63.7103 2
44.4771 61.813 2
44.6073 60.2703 3.9945
42.9465 62.0624 3.97476
41.5998 63.803 3.97776
39.6471 65.5973 3.97681
37.5632 67.7377 3.97919
31.6979 65.114 3.97687
33.3927 67.4755 3.97908
35.3339 69.954 3.98471
37.5257 70.0448 2
37.509 72.4569 3.99198
39.7017 70.0193 0.014164
39.8168 72.4027 2
39.9526 74.9197 4
42.1091 72.2061 0.00828377
42.3947 74.6792 2
44.8159 74.2794 0
41.7365 4.96999 3.98839
43.8522 5.36022 2
44.3268 3.1113 3.99267
46.5719 3.64777 2
47.2057 1.27793 4
48.7852 4.32374 0.00803045
49.554 1.99013 2
51.8506 2.85458 0
58.4564 42.8351 0.0236967
59.7641 39.8122 0.0231432
61.6113 37.444 0.0230905
59.2571 37.5665 2
57.3888 40.601 2
54.2596 39.6611 2
56.1291 37.8786 3.97679
48.6687 41.2282 3.9745
52.2347 39.2957 3.98352
39.4434 6.80589 3.9851
59.4019 35.1505 0.0234335
57.4366 32.3546 0.0242982
56.0301 29.4781 0.0235997
55.2356 19.2842 0.0382299
54.7681 21.6962 0.0399916
54.5726 24.2263 0.0308577
54.9664 26.7825 0.0242589
53.0397 18.7734 0.0391042
51.2445 18.1864 0.0334711
50.5952 16.2069 0.0337912
45.9626 5.88447 0.011172
49.6927 13.784 0.0292917
47.3547 8.63002 0.0178617
48.5937 11.3133 0.0258674
43.3743 7.47763 0.0153956
56.7685 34.804 2
41.4 7.0826 2
45.3607 7.9955 2
42.867 9.42121 2
55.1049 31.6296 2
53.9493 28.5844 2
53.8317 20.2664 2
53.3005 22.8826 2
53.3417 25.7006 2
46.6658 10.6595 2
47.7287 13.1238 2
51.5667 19.4683 2
49.9475 17.7716 2
48.8944 15.4647 2
54.091 34.0002 3.97502
52.8174 30.6787 3.97587
52.0554 27.4298 3.97491
51.8212 24.3202 3.97863
52.2244 21.2103 3.973
41.0132 9.05642 3.97813
44.7263 9.99695 3.98609
42.4631 10.9067 3.9982
45.9912 12.7404 3.97197
47.6536 14.628 3.9689
48.0544 17.033 3.96496
49.7509 19.8505 3.9739
49.5802 61.73 0.0232776
50.5298 59.2823 0.0303814
54.8658 41.642 0.0258481
53.5237 45.4016 0.0257931
52.8516 49.191 0.0304067
52.091 56.4276 0.0318424
52.3924 52.7517 0.0390893
48.8205 60.1802 2
51.6575 42.5224 2
49.7212 57.5796 2
50.4159 54.3587 2
51.1994 47.108 2
50.8436 50.8284 2
47.3361 43.6233 2
47.9426 58.7065 3.97978
49.3039 45.1265 3.98088
48.4852 55.8685 3.96059
48.8796 52.5117 3.97604
49.2074 48.91 3.97121
45.0682 39.7975 3.85769
45.5542 42.4984 3.89529
45.8092 45.5927 3.9827
42.8945 41.0175 3.68656
41.5928 41.825 3.49035
47.3152 60.9899 0.0123632
46.5925 59.7762 2
45.4349 58.7817 3.99517
39.6321 67.7574 0.0187874
41.5457 65.6331 0.0221939
43.1448 63.7101 0.0213478
44.4785 61.8121 0.0203973
45.7509 60.6129 0.0141003
41.6 63.8019 2
37.5634 67.7388 2
39.6476 65.5983 2
44.6073 60.2706 2
42.9451 62.0625 2
41.7497 62.4699 3.97713
42.4692 59.9549 3.98049
39.8946 63.5339 3.97618
37.6421 65.4929 3.97604
35.4636 67.6472 3.97895
33.5758 65.3259 3.97543
31.9605 63.278 3.97603
29.8853 64.7054 3.98042
31.6978 65.1145 2
31.3777 67.186 3.97948
33.3926 67.4766 2
33.1574 69.7474 3.9848
35.3335 69.9549 2
35.1956 72.3714 3.99198
37.5259 70.0436 0.0154032
37.5091 72.4574 2
37.5 75 4
39.8164 72.4026 0.00847931
39.9526 74.9197 2
42.3947 74.6792 0
39.6245 4.71777 3.9894
41.7368 4.96968 2
42.0632 2.71837 3.99306
43.8519 5.36162 0.0120132
44.327 3.11055 2
44.8158 0.721173 4
46.5714 3.64816 0.00769791
47.2057 1.27779 2
49.554 1.99015 0
57.3892 40.5996 0.0228589
59.2558 37.5656 0.0227872
54.2682 39.6552 0.0248945
48.6953 41.2407 2
56.1291 37.8756 2
52.231 39.2605 2
53.0944 36.617 3.97802
46.5979 40.3119 3.89837
49.6151 38.5076 3.98451
37.5174 6.67616 3.98551
39.4441 6.80444 2
39.2109 8.69732 3.98218
35.9432 8.49646 3.98412
56.7689 34.803 0.0229137
55.1024 31.6315 0.0243036
53.9506 28.5845 0.0228467
53.8289 20.2517 0.0387142
53.3095 22.8848 0.044115
53.3449 25.7001 0.0248543
51.5526 19.4684 0.0304734
49.9475 17.7716 0.0392124
48.899 15.4555 0.0308126
45.3603 7.9971 0.0126581
47.7286 13.1276 0.0247173
46.6647 10.6638 0.0196457
41.3997 7.08267 0.0160179
42.8663 9.42257 0.0203063
54.0897 33.9998 2
41.0146 9.05809 2
44.7265 9.99576 2
42.4644 10.9074 2
52.8132 30.6764 2
52.0618 27.4298 2
52.2255 21.2158 2
51.8135 24.3253 2
45.9912 12.7339 2
47.6485 14.6079 2
49.7649 19.8432 2
48.0507 17.0373 2
51.6016 32.9114 3.9824
50.6432 29.3894 3.97752
50.3511 25.9337 3.97074
49.7846 22.4462 3.98487
40.5648 11.6184 3.98229
43.8476 11.911 3.97996
45.7704 15.4653 3.9875
47.4518 19.4605 3.97884
45.5271 37.4797 3.85391
48.8236 60.1827 0.0239059
49.7232 57.5793 0.0331848
51.6409 42.51 0.0167371
51.1972 47.1093 0.0251797
50.8416 50.829 0.0451895
50.4163 54.357 0.0378682
47.3209 43.5903 0.0242195
47.9398 58.7091 2
49.321 45.1409 2
48.4807 55.8708 2
48.8786 52.5149 2
49.21 48.9111 2
45.1514 39.8129 2
45.5855 42.5303 2
45.8173 45.608 2
42.9352 41.0607 2
41.627 41.8503 2
46.7722 57.3124 3.97816
43.6222 39.3489 3.687
41.9622 40.7465 3.51108
47.4768 47.155 3.98312
47.0075 54.1783 3.96099
47.2639 50.6572 3.97858
44.3241 47.2213 3.97903
44.2053 41.8372 3.85372
44.3016 44.3318 3.89579
41.9034 42.4483 3.72603
40.6018 42.1223 3.48319
46.5948 59.7787 0.00641378
45.4343 58.7788 2
43.8427 57.6722 3.98211
37.5632 67.7377 0.020811
39.6471 65.5973 0.0231854
41.5998 63.803 0.0222436
42.9465 62.0624 0.0252374
44.6073 60.2703 0.00549949
35.4637 67.6482 2
41.7487 62.4726 2
39.8941 63.5347 2
37.6423 65.494 2
42.4709 59.9525 2
40.6204 61.6129 3.98042
40.4334 58.1353 3.98203
37.8377 63.1897 3.97343
35.5731 65.4154 3.97622
33.576 65.3271 2
31.9611 63.2798 2
33.6297 63.3172 3.97456
30.3797 62.8399 3.98038
32.1279 61.9808 3.98625
26.8795 61.4649 3.97814
28.0659 64.1344 3.97851
29.8848 64.7064 2
29.4077 66.7497 3.98039
31.6979 65.114 0.0231288
31.3775 67.1866 2
31.0153 69.4129 3.98466
33.3927 67.4755 0.0209227
33.157 69.7484 2
32.8936 72.1458 3.99147
35.3339 69.954 0.0152907
35.1953 72.3721 2
35.0474 74.9194 4
37.509 72.4569 0.00801934
37.5 75 2
39.9526 74.9197 0
35.622 6.72757 3.98507
37.5242 4.61689 3.98967
39.6247 4.71639 2
39.7897 2.47511 3.9931
41.7365 4.96999 0.011613
42.0632 2.71808 2
42.3946 0.32156 4
44.3268 3.1113 0.00733434
44.8159 0.72056 2
47.2057 1.27793 0
48.6687 41.2282 0.0254986
56.1291 37.8786 0.0232091
52.2347 39.2957 0.0164767
46.622 40.3126 2
49.6151 38.5042 2
53.0927 36.6409 2
50.4191 35.5661 3.97416
47.2656 37.7642 3.90974
45.0893 35.1759 3.8566
42.9303 33.9386 3.68358
41.6241 33.1364 3.48865
37.4585 8.53698 3.98461
37.518 6.67543 2
39.4434 6.80589 0.0149002
39.2129 8.69555 2
38.9758 10.1335 3.98374
35.8995 9.77918 3.9797
34.1533 8.82886 3.9821
35.9441 8.49365 2
54.091 34.0002 0.0249775
52.8174 30.6787 0.0241345
52.0554 27.4298 0.025087
52.2244 21.2103 0.0270028
51.8212 24.3202 0.0213665
49.7509 19.8505 0.0261013
48.0544 17.033 0.0350382
47.6536 14.628 0.0311021
44.7263 9.99695 0.0139107
45.9912 12.7404 0.0280346
41.0132 9.05642 0.0218654
42.4631 10.9067 0.00180478
51.6109 32.9097 2
40.5671 11.6225 2
43.8461 11.9105 2
50.6628 29.387 2
50.3476 25.9362 2
49.7785 22.4434 2
45.7612 15.4205 2
47.4547 19.4868 2
49.1818 31.5403 3.98686
48.7325 27.7019 3.97754
49.0849 24.5859 3.97736
47.0906 22.2217 3.98989
38.2999 12.7482 3.97692
42.0864 14.3117 3.97946
44.7629 18.5929 3.97613
44.0426 37.4849 3.69837
45.6212 37.484 2
47.9426 58.7065 0.0202241
48.4852 55.8685 0.0394055
49.3039 45.1265 0.0191199
49.2074 48.91 0.0287851
48.8796 52.5117 0.0239626
45.0682 39.7975 0.142312
45.5542 42.4984 0.104708
45.8092 45.5927 0.0172982
42.8945 41.0175 0.313436
41.5928 41.825 0.509651
46.7689 57.3147 2
43.6852 39.3752 2
41.9668 40.7609 2
47.4836 47.1535 2
47.0022 54.1819 2
47.2638 50.6644 2
44.3569 47.2106 2
44.2499 41.8711 2
44.3483 44.3596 2
41.957 42.4998 2
40.6315 42.1347 2
45.3077 55.8957 3.99852
42.3058 39.2136 3.52122
40.4894 40.625 3.62698
45.6802 48.8003 4.00294
45.3046 52.4449 3.98277
43.0644 48.2139 3.99472
42.9702 45.8584 3.88788
43.0634 43.6019 3.83484
40.706 43.4688 3.7052
39.1785 42.3815 3.52311
45.4349 58.7817 0.00482618
43.8398 57.6774 2
42.0675 56.2596 3.98628
35.4636 67.6472 0.0210491
37.6421 65.4929 0.0239566
39.8946 63.5339 0.0238208
41.7497 62.4699 0.0228691
42.4692 59.9549 0.0195102
35.5735 65.4162 2
40.6208 61.6119 2
37.8379 63.1899 2
40.4334 58.1377 2
38.9102 56.4105 3.99359
38.2484 60.2976 3.98001
35.6075 63.1838 3.97369
33.5758 65.3259 0.0245686
31.9605 63.278 0.0239722
33.6304 63.3185 2
30.3802 62.841 2
32.1291 61.9824 2
28.6874 62.1765 3.97998
33.3479 61.4873 3.97783
31.0762 61.2048 3.9808
27.5898 59.5562 3.97986
23.8232 59.0414 3.99109
25.0483 60.8364 3.97718
26.8802 61.465 2
26.2348 63.4633 3.9768
28.0656 64.1327 2
27.4647 66.1741 3.97994
29.8853 64.7054 0.0195763
29.4072 66.7497 2
28.9079 68.9385 3.98413
31.3777 67.186 0.0205212
31.0146 69.4132 2
30.6165 71.7773 3.99095
33.1574 69.7474 0.0152007
32.8929 72.1462 2
32.6054 74.6784 4
35.1956 72.3714 0.00801562
35.0474 74.9197 2
37.5 75 0
33.7252 6.98397 3.98379
35.4364 4.68711 3.98941
35.6224 6.72614 2
37.5155 2.38747 3.99323
37.5244 4.61622 2
39.6245 4.71777 0.0106005
39.7896 2.47436 2
39.9526 0.0806499 4
42.0632 2.71837 0.00694069
42.3947 0.320817 2
44.8158 0.721173 0
43.6363 35.6218 3.69037
41.9814 34.2105 3.50074
46.5979 40.3119 0.101633
49.6151 38.5076 0.015487
53.0944 36.617 0.0219826
47.2607 37.7357 2
50.4271 35.5595 2
45.1625 35.1537 2
42.9712 33.8958 2
41.652 33.1109 2
47.459 34.3344 3.9451
44.2511 33.122 3.83683
41.9489 32.5162 3.72453
40.6286 32.8497 3.48238
37.3113 10.6343 3.98105
37.4601 8.53625 2
37.5174 6.67616 0.0144909
39.2109 8.69732 0.0178193
38.9792 10.1319 2
34.7562 10.3891 3.98071
35.9011 9.7736 2
32.3802 9.37519 3.978
34.1523 8.82409 2
35.9432 8.49646 0.0158831
51.6016 32.9114 0.0175962
50.6432 29.3894 0.0224828
50.3511 25.9337 0.0292555
49.7846 22.4462 0.0151269
47.4518 19.4605 0.0211645
45.7704 15.4653 0.0124985
43.8476 11.911 0.0200387
40.5648 11.6184 0.0177133
49.2012 31.5302 2
38.3004 12.744 2
42.0909 14.3231 2
48.7379 27.7053 2
49.0799 24.5858 2
47.0763 22.2132 2
44.7652 18.6538 2
47.0843 29.6909 3.98487
46.7662 25.314 3.96916
44.2197 21.5965 3.97944
36.5857 12.9603 3.97388
38.6809 14.8584 3.97454
41.7314 17.9323 3.97904
42.4629 37.4681 3.55726
44.0979 37.4849 2
45.5271 37.4797 0.146088
46.7722 57.3124 0.0218412
47.0075 54.1783 0.0390104
47.4768 47.155 0.0168789
47.2639 50.6572 0.0214195
43.6222 39.3489 0.313004
44.2053 41.8372 0.146276
44.3016 44.3318 0.104208
44.3241 47.2213 0.020974
41.9034 42.4483 0.273971
41.9622 40.7465 0.488922
40.6018 42.1223 0.516812
45.3036 55.8974 2
42.3066 39.2192 2
40.5177 40.6099 2
45.6789 48.8184 2
45.2995 52.4466 2
43.0958 48.2321 2
43.0247 45.9052 2
43.113 43.6343 2
40.7462 43.5312 2
39.1765 42.3955 2
43.6328 54.3608 3.994
40.5941 39.0631 3.64459
39.072 40.6984 3.5971
43.3937 50.299 4.00363
41.6987 47.3716 3.9282
41.6115 44.9543 3.84688
39.3395 44.1225 3.67139
37.4991 42.4904 3.56162
43.8427 57.6722 0.0178872
42.0687 56.2535 2
40.3796 54.8234 3.99465
35.5731 65.4154 0.0237778
37.8377 63.1897 0.0265718
40.6204 61.6129 0.019581
40.4334 58.1353 0.0179706
35.608 63.1833 2
38.2481 60.2993 2
38.9114 56.3994 2
37.9856 55.0956 3.99519
36.9327 57.5936 3.99163
35.3653 60.8885 3.97908
33.6297 63.3172 0.0254373
30.3797 62.8399 0.0196179
32.1279 61.9808 0.0137523
33.3489 61.4874 2
28.6879 62.1794 2
31.0775 61.2073 2
29.4191 60.2571 3.97589
32.3677 59.7065 3.99054
28.0591 58.3406 4.00783
27.5919 59.5559 2
25.4113 58.5588 3.98029
22.8062 58.196 3.96833
23.4179 60.3068 3.97888
23.8253 59.0413 2
25.0495 60.8355 2
24.4403 62.748 3.97714
26.8795 61.4649 0.0218614
26.2354 63.464 2
25.5498 65.4819 3.97852
28.0659 64.1344 0.0214899
27.4644 66.174 2
26.8376 68.327 3.98421
29.4077 66.7497 0.0196148
28.9072 68.9383 2
28.3717 71.2626 3.99028
31.0153 69.4129 0.0153441
30.6155 71.7773 2
30.1842 74.2788 4
32.8936 72.1458 0.00853307
32.6053 74.6792 2
35.0474 74.9194 0
31.7897 7.42317 3.98221
33.349 4.92707 3.98839
33.7249 6.98104 2
35.2458 2.46343 3.99323
35.4364 4.68641 2
35.622 6.72757 0.0149332
37.5 0 4
37.515 2.38709 2
37.5242 4.61689 0.0103316
39.7897 2.47511 0.00689854
39.9526 0.0802889 2
42.3946 0.32156 0
42.2997 35.7213 3.51088
43.7107 35.5908 2
40.5236 34.3387 3.62684
41.9796 34.1935 2
47.2656 37.7642 0.0902556
50.4191 35.5661 0.02584
45.0893 35.1759 0.143396
42.9303 33.9386 0.316424
41.6241 33.1364 0.511345
47.4829 34.3556 2
44.2901 33.0952 2
42.0014 32.4624 2
40.6562 32.8369 2
45.5591 31.744 3.90705
43.1058 31.3608 3.8293
40.745 31.5004 3.70362
39.1985 32.6069 3.51883
35.6953 11.7864 3.9768
37.3149 10.632 2
37.4585 8.53698 0.0153882
38.9758 10.1335 0.0162648
33.1012 11.2277 3.97255
34.7549 10.3809 2
35.8995 9.77918 0.0202997
30.4858 10.0272 3.97743
32.3796 9.3744 2
34.1533 8.82886 0.0179048
49.1818 31.5403 0.0131351
48.7325 27.7019 0.022455
49.0849 24.5859 0.0226394
47.0906 22.2217 0.0101091
44.7629 18.5929 0.0238653
42.0864 14.3117 0.020537
38.2999 12.7482 0.0230827
36.582 12.9391 2
47.0956 29.6377 2
38.6777 14.8359 2
41.7231 17.9327 2
46.7704 25.3143 2
44.2045 21.5702 2
45.0424 27.8327 4.00464
43.5969 24.2384 4.02809
41.2929 20.9469 3.98564
35.7723 14.8013 3.97651
38.6707 17.6645 3.9822
40.6504 37.4548 3.65953
42.4729 37.4724 2
44.0426 37.4849 0.301627
45.3077 55.8957 0.00148442
45.3046 52.4449 0.0172344
45.6802 48.8003 -0.00294042
42.3058 39.2136 0.478778
43.0634 43.6019 0.165161
42.9702 45.8584 0.112119
43.0644 48.2139 0.0052763
40.706 43.4688 0.294805
40.4894 40.625 0.373024
39.1785 42.3815 0.476889
43.6302 54.3578 2
40.5989 39.0624 2
39.0732 40.6914 2
43.3853 50.313 2
41.7015 47.4056 2
41.6367 44.9981 2
37.4956 42.5098 2
39.3548 44.1845 2
41.7862 52.8386 3.99806
39.0824 39.0954 3.6091
37.5033 40.7541 3.62574
35.8261 42.3919 3.52257
40.8211 49.4471 3.99481
39.7331 45.7074 3.8198
37.4989 44.3827 3.70287
42.0675 56.2596 0.0137224
40.3776 54.8321 2
38.7236 53.647 3.99602
35.6075 63.1838 0.0263134
38.2484 60.2976 0.0199851
38.9102 56.4105 0.00641357
35.3656 60.8861 2
36.9331 57.5929 2
37.9864 55.0953 2
36.3225 55.1628 3.99733
34.4964 58.4946 3.99488
33.3479 61.4873 0.0221659
28.6874 62.1765 0.0200207
31.0762 61.2048 0.0192043
32.3688 59.7098 2
29.4204 60.256 2
30.332 57.7803 3.98445
28.062 58.3395 2
27.0199 56.792 3.96692
27.5898 59.5562 0.0201372
25.4141 58.5585 2
23.926 56.7544 3.95946
21.4128 57.3416 3.95948
22.0185 59.5772 3.97546
22.8086 58.1969 2
22.7465 61.9982 3.9734
23.4191 60.3062 2
23.8232 59.0414 0.00891125
25.0483 60.8364 0.0228166
24.4411 62.7511 2
23.6852 64.6981 3.97604
26.2348 63.4633 0.0232017
25.5494 65.4834 2
24.8101 67.5878 3.983
27.4647 66.1741 0.0200638
26.8369 68.3277 2
26.1669 70.6035 3.99024
28.9079 68.9385 0.0158744
28.3707 71.2623 2
27.7943 73.7221 4
30.6165 71.7773 0.00905488
30.1841 74.2794 2
32.6054 74.6784 0
29.8126 7.99928 3.98026
31.2545 5.33359 3.98744
31.7892 7.42191 2
32.9819 2.70175 3.99281
33.3486 4.92536 2
33.7252 6.98397 0.0162098
35.0474 0.080333 4
35.2454 2.46319 2
35.4364 4.68711 0.0105935
37.5 0 2
37.5155 2.38747 0.00677271
39.9526 0.0806499 0
40.6326 35.8685 3.64623
42.3026 35.7227 2
43.6363 35.6218 0.309635
28.5463 10.7025 3.97716
39.082 34.2892 3.59539
40.532 34.3494 2
41.9814 34.2105 0.499258
47.459 34.3344 0.0549036
44.2511 33.122 0.163172
41.9489 32.5162 0.275467
40.6286 32.8497 0.517616
45.5925 31.7245 2
43.1495 31.3273 2
40.7866 31.4371 2
39.2025 32.5944 2
43.9148 29.952 3.90117
41.6287 30.0062 3.84842
39.3673 30.8559 3.6701
37.5292 32.5085 3.56044
34.0979 12.9526 3.97341
35.6946 11.7725 2
37.3113 10.6343 0.0189525
31.1909 11.9995 3.97731
33.1015 11.2278 2
34.7562 10.3891 0.0192889
30.4843 10.0234 2
32.3802 9.37519 0.0219998
47.0843 29.6909 0.0151343
46.7662 25.314 0.0308448
36.5857 12.9603 0.026119
44.2197 21.5965 0.0205602
41.7314 17.9323 0.0209648
38.6809 14.8584 0.02546
35.7761 14.8128 2
45.041 27.8297 2
38.6689 17.6687 2
41.2764 20.9385 2
43.5887 24.2225 2
33.6141 15.9082 3.98264
42.7542 26.6706 3.98458
40.7875 23.5427 3.99676
38.3981 20.4304 3.99354
35.8478 17.5582 3.98114
39.0999 37.4862 3.62414
40.6484 37.4577 2
42.4629 37.4681 0.442735
43.6328 54.3608 0.0060015
43.3937 50.299 -0.00363451
40.5941 39.0631 0.355406
41.6115 44.9543 0.153124
41.6987 47.3716 0.0717981
39.3395 44.1225 0.328607
39.072 40.6984 0.402902
37.4991 42.4904 0.438378
41.7771 52.8399 2
39.0759 39.0821 2
37.5008 40.7422 2
40.8086 49.4672 2
35.8233 42.404 2
39.7497 45.7654 2
37.491 44.441 2
39.7313 51.641 4.00292
37.507 39.1006 3.64471
35.9414 40.7137 3.59776
34.3989 42.1403 3.48441
35.6603 44.1408 3.6609
38.6652 48.3547 3.94121
37.5254 45.9975 3.84901
40.3796 54.8234 0.005352
38.7245 53.6348 2
36.7533 52.9473 3.99653
35.3653 60.8885 0.0209201
36.9327 57.5936 0.00836654
37.9856 55.0956 0.00480675
34.4961 58.491 2
36.3252 55.1514 2
33.2607 55.3553 3.99235
32.3677 59.7065 0.00945918
29.4191 60.2571 0.0241098
30.3344 57.7771 2
28.8068 55.2817 3.98622
28.0591 58.3406 -0.00782634
27.0232 56.7909 2
25.4465 55.0838 3.95876
21.9527 55.2764 3.95974
25.4113 58.5588 0.0197123
23.9287 56.7559 2
20.2841 56.9734 3.96297
20.6773 58.7317 3.96903
21.4152 57.343 2
21.181 61.1302 3.97436
22.0197 59.5776 2
22.8062 58.196 0.0316677
21.9006 63.8211 3.97575
22.7477 61.9997 2
23.4179 60.3068 0.0211208
24.4403 62.748 0.0228562
23.685 64.6979 2
22.8386 66.7302 3.98057
25.5498 65.4819 0.0214759
24.8093 67.5885 2
24.0111 69.8049 3.9901
26.8376 68.327 0.0157938
26.1655 70.6035 2
25.446 73.0099 4
28.3717 71.2626 0.00971612
27.7943 73.7222 2
30.1842 74.2788 0
27.8225 8.65942 3.98025
29.1567 5.88052 3.98556
29.8115 7.99634 2
30.7274 3.09849 3.99256
31.2538 5.33236 2
31.7897 7.42317 0.0177917
32.6053 0.320823 4
32.9811 2.7011 2
33.349 4.92707 0.0116095
35.0474 0.0802903 2
35.2458 2.46343 0.00677062
37.5 0 0
39.0729 35.8872 3.61694
40.6154 35.8688 2
42.2997 35.7213 0.48912
28.5449 10.6999 2
26.6249 11.3986 3.97767
29.2317 12.6526 3.98088
37.5199 34.2496 3.62445
39.095 34.3058 2
40.5236 34.3387 0.373163
45.5591 31.744 0.0929539
43.1058 31.3608 0.170697
40.745 31.5004 0.296381
39.1985 32.6069 0.481165
43.9474 29.9191 2
41.659 29.9658 2
39.3742 30.7949 2
37.5294 32.4895 2
42.0553 28.644 3.87191
39.7274 29.2614 3.84143
37.5229 30.6186 3.7015
35.8459 32.612 3.52465
31.9254 14.4994 3.97963
34.0993 12.9593 2
35.6953 11.7864 0.0231978
31.19 11.9938 2
33.1012 11.2277 0.0274482
30.4858 10.0272 0.0225698
45.0424 27.8327 -0.00463979
43.5969 24.2384 -0.0280877
35.7723 14.8013 0.0234936
41.2929 20.9469 0.014358
38.6707 17.6645 0.0178049
33.6105 15.8989 2
35.841 17.5667 2
42.7821 26.6543 2
38.3819 20.4964 2
40.7755 23.5188 2
33.5521 17.4417 3.98149
40.2089 25.9396 3.95613
38.0354 23.2714 3.99911
35.5735 20.1733 3.99406
37.5119 37.4907 3.66049
39.0903 37.4797 2
40.6504 37.4548 0.340465
41.7862 52.8386 0.00193773
40.8211 49.4471 0.0051931
39.0824 39.0954 0.390898
39.7331 45.7074 0.180198
37.4989 44.3827 0.297133
37.5033 40.7541 0.374259
35.8261 42.3919 0.477429
39.7185 51.649 2
37.5085 39.0954 2
35.939 40.7028 2
38.6798 48.4116 2
34.3724 42.1529 2
35.6387 44.2016 2
37.5219 46.0531 2
37.6774 50.6555 3.99627
35.9453 39.1093 3.61596
34.5207 40.6512 3.62944
33.4023 41.8459 3.4927
34.2937 43.4817 3.70067
35.2334 45.7252 3.83744
36.9242 47.9642 3.90603
38.7236 53.647 0.00398223
36.7587 52.9354 2
34.4432 52.2786 3.99778
34.4964 58.4946 0.0051209
36.3225 55.1628 0.00266775
33.2662 55.3654 2
30.6447 53.2629 3.99387
30.332 57.7803 0.0155461
28.8092 55.278 2
27.0757 53.3709 3.9581
27.0199 56.792 0.0330844
25.4499 55.0857 2
23.7965 53.3936 3.95622
20.7399 53.1211 3.9585
20.0468 55.7649 3.96213
21.951 55.2788 2
23.926 56.7544 0.0405437
19.4799 57.8404 3.96484
20.2818 56.9754 2
19.7236 60.1549 3.97216
20.6761 58.7332 2
21.4128 57.3416 0.0405205
20.2148 62.8378 3.97225
21.182 61.1311 2
22.0185 59.5772 0.0245408
20.9408 65.7563 3.97791
21.9007 63.8237 2
22.7465 61.9982 0.0265963
23.6852 64.6981 0.0239632
22.8379 66.7302 2
21.9137 68.872 3.98945
24.8101 67.5878 0.0170037
24.0093 69.8044 2
23.1494 72.1454 4
26.1669 70.6035 0.00975722
25.446 73.0099 2
27.7943 73.7221 0
25.8617 9.38843 3.97948
27.0715 6.54498 3.98413
27.8209 8.65752 2
28.4899 3.64452 3.99165
29.1557 5.87867 2
29.8126 7.99928 0.0197445
30.1841 0.720592 4
30.7262 3.09815 2
31.2545 5.33359 0.0125649
32.6053 0.320817 2
32.9819 2.70175 0.00718604
35.0474 0.080333 0
37.5097 35.8867 3.64118
39.0582 35.8857 2
40.6326 35.8685 0.353771
24.7816 12.0873 3.97616
23.7629 14.3836 3.97505
28.5463 10.7025 0.0228417
26.6234 11.3963 2
29.23 12.6505 2
27.2995 13.3852 3.97894
29.7923 14.2133 3.98134
35.9478 34.2932 3.59749
37.5273 34.2615 2
39.082 34.2892 0.404605
37.5292 32.5085 0.439561
43.9148 29.952 0.0988284
41.6287 30.0062 0.151583
39.3673 30.8559 0.329896
42.0858 28.5899 2
39.7472 29.2063 2
37.5253 30.5611 2
35.8463 32.5988 2
39.8888 27.8971 3.88187
37.4871 28.9954 3.84238
35.6852 30.8754 3.67385
34.4193 32.8639 3.48606
30.94 16.8577 3.98587
31.9228 14.4894 2
34.0979 12.9526 0.0265904
31.1909 11.9995 0.0226888
42.7542 26.6706 0.0154168
40.7875 23.5427 0.00323539
33.6141 15.9082 0.0173573
35.8478 17.5582 0.0188564
38.3981 20.4304 0.00645506
33.5478 17.4536 2
35.5887 20.159 2
40.2813 25.9251 2
38.0157 23.2311 2
32.879 19.8404 3.99443
37.6526 25.5801 3.96933
35.2256 22.9269 4
35.9256 37.4904 3.6263
37.5061 37.4906 2
39.0999 37.4862 0.375864
39.7313 51.641 -0.00292194
38.6652 48.3547 0.0587933
37.507 39.1006 0.355287
37.5254 45.9975 0.150993
35.6603 44.1408 0.339105
35.9414 40.7137 0.402242
34.3989 42.1403 0.515593
37.6649 50.6887 2
35.9603 39.0968 2
34.4925 40.6416 2
36.9076 48.0221 2
33.3687 41.872 2
34.2559 43.5413 2
35.2124 45.7764 2
35.5576 49.8422 3.98689
34.4145 39.1047 3.64543
33.0423 40.7726 3.5058
33.0877 42.4645 3.72933
33.4139 44.9625 3.83916
34.4498 47.1056 3.87829
36.7533 52.9473 0.00347393
34.4397 52.2894 2
32.2064 51.0667 4.01404
33.2607 55.3553 0.00764811
30.6486 53.266 2
28.6673 51.486 3.98959
28.8068 55.2817 0.0137813
27.078 53.3703 2
25.3661 51.6344 3.95406
25.4465 55.0838 0.0412351
23.7966 53.3986 2
22.301 51.6865 3.95129
19.5809 51.5145 3.96103
19.1317 54.2218 3.9613
20.7405 53.1203 2
18.5263 56.6654 3.9633
20.0444 55.7667 2
21.9527 55.2764 0.0402629
18.3906 59.0673 3.96723
19.478 57.8418 2
20.2841 56.9734 0.0370327
18.6295 61.7261 3.9721
19.7239 60.157 2
20.6773 58.7317 0.0309729
19.1301 64.6664 3.97694
20.2153 62.8396 2
21.181 61.1302 0.025638
19.8881 67.8082 3.98771
20.9397 65.7561 2
21.9006 63.8211 0.0242506
22.8386 66.7302 0.0194308
21.9117 68.8709 2
20.9142 71.1327 4
24.0111 69.8049 0.00989722
23.1494 72.1455 2
25.446 73.0099 0
23.1036 12.8044 3.97723
23.9749 10.178 3.9774
25.0251 7.31585 3.9829
25.8598 9.38688 2
26.2818 4.32865 3.99078
27.0701 6.54383 2
27.8225 8.65942 0.0197525
27.7943 1.27781 4
28.4881 3.64427 2
29.1567 5.88052 0.0144406
30.1841 0.720551 2
30.7274 3.09849 0.00743693
32.6053 0.320823 0
35.9332 35.8793 3.60764
37.524 35.8959 2
39.0729 35.8872 0.383057
24.7785 12.0819 2
23.7631 14.3883 2
22.4951 15.0696 3.97952
25.3673 13.9278 3.97232
24.0482 15.6446 3.9844
26.6249 11.3986 0.0223263
29.2317 12.6526 0.0191246
27.2994 13.383 2
29.7882 14.2104 2
28.3756 15.9832 3.98322
34.5356 34.3588 3.62594
35.9448 34.2993 2
37.5199 34.2496 0.375549
35.8459 32.612 0.475346
37.5229 30.6186 0.298497
42.0553 28.644 0.128091
39.7274 29.2614 0.158569
39.9248 27.8545 2
37.4845 28.939 2
35.6685 30.8074 2
34.3887 32.8543 2
37.6129 27.6288 3.87955
35.2756 29.2804 3.83989
34.3032 31.5212 3.69982
33.421 33.155 3.49043
30.2258 19.4235 3.98291
30.9355 16.8469 2
31.9254 14.4994 0.0203705
40.2089 25.9396 0.0438702
38.0354 23.2714 0.000892851
33.5521 17.4417 0.0185064
35.5735 20.1733 0.00593979
32.8785 19.8623 2
35.2273 22.9091 2
37.7121 25.5567 2
32.3967 22.575 3.99738
35.0972 25.4993 3.99126
34.3678 37.508 3.66204
35.9278 37.497 2
37.5119 37.4907 0.339508
37.6774 50.6555 0.00373189
36.9242 47.9642 0.0939668
35.9453 39.1093 0.384044
35.2334 45.7252 0.162561
34.2937 43.4817 0.299332
34.5207 40.6512 0.370559
33.4023 41.8459 0.507299
35.5438 49.8526 2
34.4149 39.1015 2
33.0387 40.7861 2
34.4382 47.1537 2
33.0461 42.5173 2
33.3879 45.0054 2
33.3954 48.9172 3.97524
32.7135 39.2538 3.51429
32.092 41.0417 3.68579
31.925 43.6191 3.83438
32.6057 46.0862 3.88124
34.4432 52.2786 0.00221659
32.2125 51.0793 2
30.1936 49.6452 4.00184
30.6447 53.2629 0.00613427
28.6684 51.4794 2
26.8697 49.8559 3.97182
27.0757 53.3709 0.0419017
25.3651 51.6361 2
23.7438 50.0454 3.96164
23.7965 53.3936 0.0437811
22.3009 51.6848 2
20.9014 50.1763 3.96469
18.3741 50.214 3.96932
18.1432 52.6895 3.96356
19.5798 51.5137 2
17.5991 55.2668 3.96229
19.1294 54.2217 2
20.7399 53.1211 0.0414971
17.1757 57.8283 3.96125
18.5223 56.6667 2
20.0468 55.7649 0.0378667
17.1477 60.5087 3.96641
18.3903 59.068 2
19.4799 57.8404 0.0351574
17.4121 63.4529 3.97021
18.6303 61.7274 2
19.7236 60.1549 0.0278418
17.9444 66.6159 3.9861
19.1295 64.6648 2
20.2148 62.8378 0.0277464
18.75 69.9759 4
19.8859 67.8064 2
20.9408 65.7563 0.0220874
21.9137 68.872 0.0105457
20.9142 71.1327 2
23.1494 72.1454 0
21.5981 13.6312 3.97534
22.1942 11.0409 3.97412
23.1015 12.8092 2
23.0429 8.18259 3.98087
23.972 10.1758 2
24.1194 5.14344 3.99009
25.0233 7.31507 2
25.8617 9.38843 0.0205153
25.446 1.99014 4
26.2794 4.32899 2
27.0715 6.54498 0.015871
27.7943 1.27778 2
28.4899 3.64452 0.00835029
30.1841 0.720592 0
34.4312 35.9067 3.64329
35.943 35.8945 2
37.5097 35.8867 0.358823
21.329 15.8772 3.98241
24.7816 12.0873 0.0238353
23.7629 14.3836 0.0249478
25.3664 13.918 2
22.4965 15.0665 2
24.0514 15.6509 2
23.2954 16.2773 3.97052
25.4047 16.115 3.98306
27.2995 13.3852 0.0210615
29.7923 14.2133 0.0186644
28.3711 15.9897 2
27.4674 18.8458 3.98186
33.0536 34.2359 3.51248
34.5075 34.3733 2
35.9478 34.2932 0.402508
34.4193 32.8639 0.513943
35.6852 30.8754 0.326155
37.4871 28.9954 0.157622
39.8888 27.8971 0.118133
37.5872 27.5905 2
33.3909 33.1317 2
35.2765 29.2175 2
34.2613 31.4564 2
35.1758 27.7276 3.89282
33.4126 30.0329 3.8406
33.1128 32.5339 3.72345
29.7082 22.0236 4.00394
30.2284 19.4271 2
30.94 16.8577 0.0141343
37.6526 25.5801 0.0306734
35.2256 22.9269 -3.00885e-06
32.879 19.8404 0.00557458
32.4039 22.5665 2
35.1281 25.4886 2
31.963 25.8328 4.0066
32.5466 37.5068 3.55724
34.3806 37.5032 2
35.9256 37.4904 0.373696
35.5576 49.8422 0.0131089
34.4498 47.1056 0.121709
34.4145 39.1047 0.35457
33.4139 44.9625 0.160841
33.0877 42.4645 0.27067
33.0423 40.7726 0.494198
33.3828 48.9176 2
32.723 39.2593 2
32.0531 41.0811 2
32.5698 46.1342 2
31.8805 43.6505 2
31.5378 47.765 3.97925
31.3842 39.3668 3.6905
30.7769 41.8664 3.84237
30.9815 44.722 3.89467
32.2064 51.0667 -0.0140353
30.1993 49.673 2
28.3363 48.0309 3.96251
28.6673 51.486 0.0104064
26.8686 49.857 2
25.141 48.3026 3.9665
25.3661 51.6344 0.0459396
23.7442 50.0441 2
22.1799 48.6266 3.97104
22.301 51.6865 0.048714
20.8995 50.1752 2
19.4833 48.96 3.97336
17.2539 49.2266 3.97448
17.0928 51.3082 3.96826
18.3765 50.2125 2
16.6047 53.7903 3.96489
18.1419 52.689 2
19.5809 51.5145 0.0389675
16.0657 56.4231 3.96254
17.5972 55.2673 2
19.1317 54.2218 0.0386985
15.7629 59.1782 3.96538
17.1731 57.8297 2
18.5263 56.6654 0.0366998
15.7934 62.1072 3.9686
17.1486 60.5107 2
18.3906 59.0673 0.0327696
16.0913 65.2985 3.98426
17.411 63.4568 2
18.6295 61.7261 0.0279016
16.6661 68.6801 4
17.942 66.6142 2
19.1301 64.6664 0.0230624
18.75 69.9759 2
19.8881 67.8082 0.0122909
20.9142 71.1327 0
20.2326 14.6416 3.96987
21.5967 13.641 2
20.5353 12.0188 3.975
21.1461 9.15471 3.97886
22.1913 11.0399 2
23.1036 12.8044 0.0227713
22.0186 6.08228 3.98972
23.0403 8.1815 2
23.9749 10.178 0.022598
23.1494 2.85457 4
24.1166 5.14427 2
25.0251 7.31585 0.0171021
25.446 1.99012 2
26.2818 4.32865 0.00922464
27.7943 1.27781 0
32.7048 35.7636 3.52076
34.4254 35.9074 2
35.9332 35.8793 0.392357
21.3315 15.8709 2
20.3394 17.0055 3.97029
22.1276 16.6751 3.96785
25.3673 13.9278 0.0276817
22.4951 15.0696 0.0204772
24.0482 15.6446 0.0155971
25.4073 16.1064 2
23.2992 16.276 2
24.2426 18.5443 3.96781
27.1419 21.6283 3.99464
28.3756 15.9832 0.0167782
27.4637 18.8923 2
32.1284 33.9681 3.68115
33.0537 34.2184 2
34.5356 34.3588 0.374058
33.421 33.155 0.509565
34.3032 31.5212 0.300182
35.2756 29.2804 0.160108
37.6129 27.6288 0.120452
35.1802 27.679 2
33.0389 32.484 2
33.3845 29.9937 2
32.8552 28.3826 3.90227
31.934 31.3859 3.82568
29.0893 24.5181 3.99961
29.7053 22.0372 2
30.2258 19.4235 0.0170948
35.0972 25.4993 0.00874026
32.3967 22.575 0.00262122
31.9554 25.8054 2
30.0662 27.4822 3.97814
30.9697 37.5003 3.69545
32.5529 37.5057 2
34.3678 37.508 0.33796
33.3954 48.9172 0.0247616
32.6057 46.0862 0.118762
32.7135 39.2538 0.485711
31.925 43.6191 0.165625
32.092 41.0417 0.314207
31.4914 47.7872 2
31.3123 39.3911 2
30.7391 41.8927 2
30.9371 44.7611 2
29.7521 46.374 3.99298
29.9261 39.8186 3.85947
29.4618 42.9789 3.90116
30.1936 49.6452 -0.00184288
28.3304 48.0265 2
26.5443 46.4734 3.98298
26.8697 49.8559 0.02818
25.1418 48.3008 2
23.4209 46.8918 3.9739
23.7438 50.0454 0.0383639
22.1783 48.6263 2
20.4818 47.4708 3.97656
20.9014 50.1763 0.0353079
19.4841 48.9584 2
18.081 48.0612 3.97701
16.4874 48.5863 3.97656
17.2554 49.2254 2
16.163 50.0785 3.9726
15.6187 52.3364 3.96813
17.0944 51.3071 2
18.3741 50.214 0.0306836
15.012 54.9178 3.96367
16.6064 53.7897 2
18.1432 52.6895 0.0364382
14.4863 57.7098 3.96224
16.0659 56.4234 2
17.5991 55.2668 0.0377113
14.2715 60.6707 3.96813
15.765 59.1792 2
17.1757 57.8283 0.0387487
14.336 63.8558 3.98004
15.7937 62.1093 2
17.1477 60.5087 0.0335851
14.6715 67.2507 4
16.0884 65.2954 2
17.4121 63.4529 0.02979
16.6661 68.6801 2
17.9444 66.6159 0.0138955
18.75 69.9759 0
18.9521 15.8251 3.97571
20.2336 14.6388 2
18.9884 13.1399 3.97417
21.5981 13.6312 0.0246615
20.5338 12.0209 2
19.3463 10.2452 3.9766
19.9936 7.14729 3.98827
21.1428 9.15456 2
22.1942 11.0409 0.0258765
20.9142 3.86727 4
22.0151 6.08356 2
23.0429 8.18259 0.0191257
23.1494 2.85451 2
24.1194 5.14344 0.00990503
25.446 1.99014 0
31.4074 35.6405 3.68649
32.7105 35.7563 2
34.4312 35.9067 0.356708
21.329 15.8772 0.01759
22.1303 16.6697 2
20.3415 16.9998 2
19.3218 18.4672 3.95657
21.819 17.9257 3.97939
25.4047 16.115 0.0169369
23.2954 16.2773 0.0294806
24.2354 18.5671 2
22.3995 19.9895 3.96662
24.7239 21.503 3.98617
26.7062 23.806 3.97961
27.1511 21.5595 2
27.4674 18.8458 0.0181429
30.8315 33.1491 3.85064
32.0908 33.9177 2
33.0536 34.2359 0.487518
33.1128 32.5339 0.276548
33.4126 30.0329 0.159397
35.1758 27.7276 0.107185
32.818 28.3543 2
31.8776 31.3461 2
30.6719 29.7717 3.92951
28.3283 26.6718 3.99644
29.0754 24.5246 2
29.7082 22.0236 -0.00394412
31.963 25.8328 -0.00659604
30.0584 27.459 2
29.477 37.4999 3.8548
30.9118 37.4989 2
32.5466 37.5068 0.442758
31.5378 47.765 0.0207488
30.9815 44.722 0.105325
31.3842 39.3668 0.309496
30.7769 41.8664 0.15763
29.7566 46.3716 2
29.8558 39.832 2
29.4314 43.016 2
28.0116 44.6991 3.97124
27.6868 40.5464 3.93453
28.3363 48.0309 0.0374943
26.5415 46.4705 2
24.722 45.0081 3.97888
25.141 48.3026 0.0334968
23.4194 46.8917 2
21.4994 45.7446 3.97789
22.1799 48.6266 0.0289629
20.482 47.4695 2
18.806 46.6108 3.97686
19.4833 48.96 0.0266427
18.0817 48.06 2
16.7211 47.6096 3.97658
16.489 48.5852 2
15.5076 48.9296 3.97572
17.2539 49.2266 0.0255196
16.1651 50.0775 2
14.7341 50.9114 3.97144
13.9861 53.3777 3.9662
15.62 52.3358 2
17.0928 51.3082 0.0317428
13.312 56.1362 3.96248
15.0123 54.9177 2
16.6047 53.7903 0.0351065
12.8569 59.1097 3.96709
14.4899 57.7096 2
16.0657 56.4231 0.0374569
12.682 62.2972 3.9768
14.2728 60.6707 2
15.7629 59.1782 0.034616
12.7746 65.6939 4
14.3336 63.852 2
15.7934 62.1072 0.0314005
14.6714 67.2507 2
16.0913 65.2985 0.015739
16.6661 68.6801 0
17.7057 17.2009 3.96444
18.9523 15.8228 2
17.524 14.4095 3.97009
20.2326 14.6416 0.0301347
18.9875 13.1435 2
17.6424 11.4649 3.97391
20.5353 12.0188 0.0249965
19.3429 10.2466 2
18.0538 8.34034 3.98624
18.75 5.0241 4
19.9893 7.14951 2
21.1461 9.15471 0.0211356
20.9142 3.86727 2
22.0186 6.08228 0.0102838
23.1494 2.85457 0
29.9536 35.1981 3.85829
31.3391 35.6173 2
32.7048 35.7636 0.479244
22.1276 16.6751 0.0321525
20.3394 17.0055 0.0297094
21.8182 17.9253 2
19.3187 18.4618 2
18.148 20.0205 3.96162
20.983 19.4609 3.96594
24.2426 18.5443 0.0321866
22.3941 19.9968 2
24.732 21.4871 2
22.5597 21.8337 3.98201
24.9792 23.2457 3.97328
25.9291 26.0505 3.97895
26.7046 23.7986 2
27.1419 21.6283 0.00536186
29.2207 32.4959 3.90214
30.7691 33.1136 2
32.1284 33.9681 0.318848
31.934 31.3859 0.174318
32.8552 28.3826 0.097727
30.649 29.7622 2
27.6712 29.2531 4.01436
28.3148 26.6819 2
29.0893 24.5181 0.000393759
30.0662 27.4822 0.0218595
27.8184 37.3585 3.90582
29.4064 37.4918 2
30.9697 37.5003 0.304551
29.7521 46.374 0.00701678
29.4618 42.9789 0.0988448
29.9261 39.8186 0.140527
28.0057 44.7557 2
27.6574 40.539 2
26.0883 43.0443 3.98882
24.9512 39.4461 3.97272
26.5443 46.4734 0.0170224
24.7117 45.01 2
22.6308 43.7844 3.97688
23.4209 46.8918 0.0261012
21.4963 45.7457 2
19.565 44.8486 3.97651
20.4818 47.4708 0.0234416
18.806 46.6112 2
17.0733 46.1065 3.97647
18.081 48.0612 0.0229916
16.7225 47.6087 2
15.2697 47.5836 3.97624
16.4874 48.5863 0.0234413
15.5097 48.9286 2
14.0428 49.4772 3.97389
16.163 50.0785 0.0273981
14.7354 50.9107 2
13.0572 51.822 3.96843
12.2168 54.4964 3.96374
13.9866 53.3773 2
15.6187 52.3364 0.0318724
11.5435 57.4472 3.96603
13.3124 56.1362 2
15.012 54.9178 0.0363349
11.1369 60.6232 3.97503
12.8583 59.1091 2
14.4863 57.7098 0.0377607
10.9835 64.0165 4
12.6801 62.2928 2
14.2715 60.6707 0.0318725
12.7745 65.694 2
14.336 63.8558 0.0199607
14.6715 67.2507 0
16.4964 18.7068 3.9614
17.7052 17.1988 2
16.1187 15.8173 3.9667
18.9521 15.8251 0.0242926
17.5232 14.4062 2
16.0263 12.8313 3.97188
18.9884 13.1399 0.025834
17.6406 11.4699 2
16.2047 9.6645 3.98427
19.3463 10.2452 0.0234023
18.0493 8.34436 2
16.6661 6.31991 4
18.75 5.02404 2
19.9936 7.14729 0.0117335
20.9142 3.86727 0
28.3472 34.8415 3.90128
29.8758 35.167 2
31.4074 35.6405 0.313513
16.8796 21.4564 3.96699
21.819 17.9257 0.0206102
19.3218 18.4672 0.0434347
20.9787 19.4579 2
18.1449 20.0178 2
19.9547 21.6727 3.97128
22.3995 19.9895 0.0333771
24.7239 21.503 0.0138306
22.5553 21.84 2
24.9742 23.2464 2
23.2475 24.7142 3.97239
25.2195 28.6482 3.98307
25.9214 26.054 2
26.7062 23.806 0.0203855
27.073 31.8513 3.98171
29.187 32.4756 2
30.8315 33.1491 0.14936
30.6719 29.7717 0.0704855
27.6826 29.2327 2
28.3283 26.6718 0.00355686
25.6445 36.8525 3.9702
27.8017 37.3654 2
29.477 37.4999 0.145204
28.0116 44.6991 0.0287569
27.6868 40.5464 0.0654689
26.0662 43.0648 2
24.9291 39.4509 2
23.8378 41.7939 3.9824
22.6715 38.5232 3.97888
24.722 45.0081 0.0211229
22.6293 43.7844 2
20.4366 42.7972 3.97563
21.4994 45.7446 0.0221058
19.5654 44.8493 2
17.4767 44.2849 3.97592
18.806 46.6108 0.0231395
17.0742 46.1066 2
15.2292 46.0053 3.97604
16.7211 47.6096 0.0234184
15.2714 47.5827 2
13.5714 47.9428 3.97549
15.5076 48.9296 0.0242796
14.0444 49.4764 2
12.2873 50.2043 3.97033
14.7341 50.9114 0.0285607
13.0581 51.8214 2
11.2148 52.8093 3.96505
10.3346 55.7038 3.96559
12.2171 54.4961 2
13.9861 53.3777 0.0337986
9.70359 58.8462 3.97452
11.5443 57.4466 2
13.312 56.1362 0.037521
9.30605 62.2254 4
11.1353 60.619 2
12.8569 59.1097 0.0329057
10.9835 64.0165 2
12.682 62.2972 0.0231967
12.7746 65.6939 0
15.2822 20.2457 3.96346
16.4962 18.7062 2
14.7736 17.3373 3.96368
17.7057 17.2009 0.0355595
16.1199 15.8156 2
14.4898 14.3195 3.96788
17.524 14.4095 0.0299083
16.0253 12.8269 2
14.4473 11.1163 3.98178
17.6424 11.4649 0.0260944
16.2006 9.66965 2
14.6715 7.74927 4
18.0538 8.34034 0.013761
16.6661 6.31988 2
18.75 5.0241 0
26.3079 34.3471 3.9773
28.3289 34.8488 2
29.9536 35.1981 0.141711
18.1246 22.4186 3.97373
15.7795 23.0006 3.97031
16.8807 21.4558 2
20.983 19.4609 0.0340636
18.148 20.0205 0.0383837
19.9527 21.6703 2
20.0632 24.5085 3.97214
22.5597 21.8337 0.0179878
24.9792 23.2457 0.0267214
23.2437 24.7146 2
22.5822 27.9751 3.97166
24.6372 31.3373 3.98111
25.2242 28.6413 2
25.9291 26.0505 0.0210494
27.0493 31.815 2
29.2207 32.4959 0.0978645
27.6712 29.2531 -0.0143608
23.3979 36.29 3.98324
25.6277 36.8516 2
27.8184 37.3585 0.0941826
26.0883 43.0443 0.0111814
24.9512 39.4461 0.0272786
23.8191 41.793 2
22.6604 38.5207 2
21.5269 40.6113 3.97503
20.8858 37.8033 3.97719
22.6308 43.7844 0.0231221
20.4354 42.7984 2
17.9532 42.0312 3.97583
19.565 44.8486 0.0234914
17.4769 44.2855 2
15.277 44.1237 3.97576
17.0733 46.1065 0.0235283
15.2301 46.0051 2
13.2695 46.2324 3.97585
15.2697 47.5836 0.0237624
13.573 47.942 2
11.6763 48.5044 3.97213
14.0428 49.4772 0.026109
12.2888 50.2036 2
10.3455 51.0557 3.96616
13.0572 51.822 0.0315716
11.2154 52.8087 2
9.24335 53.885 3.96536
8.38715 56.9801 3.97532
10.3354 55.7028 2
12.2168 54.4964 0.0362575
7.74927 60.3285 4
9.70239 58.8419 2
11.5435 57.4472 0.0339712
9.306 62.2255 2
11.1369 60.6232 0.0249681
10.9835 64.0165 0
14.1138 21.8095 3.96657
15.2803 20.2449 2
13.4972 18.934 3.96339
16.4964 18.7068 0.0386038
14.7744 17.3359 2
13.0346 15.9062 3.96993
16.1187 15.8173 0.0333028
14.4907 14.3175 2
12.7849 12.6918 3.97893
16.0263 12.8313 0.0281166
14.4444 11.1229 2
12.7746 9.30605 4
16.2047 9.6645 0.0157265
14.6715 7.74924 2
16.6661 6.31991 0
23.9829 33.8789 3.98189
26.287 34.3423 2
28.3472 34.8415 0.0987152
17.9944 24.1507 3.97206
18.1321 22.4189 2
14.6174 24.5317 3.97234
15.7817 23.0005 2
16.8796 21.4564 0.0330096
19.5793 27.3448 3.97427
19.9547 21.6727 0.0287159
20.0599 24.5081 2
21.9484 30.8073 3.97481
23.2475 24.7142 0.027608
22.5822 27.9768 2
24.6072 31.3327 2
25.2195 28.6482 0.016927
27.073 31.8513 0.0182853
21.0096 35.9651 3.97647
23.3985 36.2904 2
25.6445 36.8525 0.0298022
23.8378 41.7939 0.0175969
22.6715 38.5232 0.0211168
21.5307 40.6127 2
20.8863 37.8014 2
18.7096 38.9914 3.97701
20.4366 42.7972 0.0243728
17.9523 42.0316 2
15.2629 41.8694 3.97619
17.4767 44.2849 0.0240837
15.2769 44.1238 2
13.0343 44.3355 3.97604
15.2292 46.0053 0.0239636
13.2711 46.2317 2
11.1924 46.6926 3.9739
13.5714 47.9428 0.0245147
11.6782 48.5036 2
9.61603 49.2177 3.96707
12.2873 50.2043 0.0296707
10.3461 51.0551 2
8.27596 51.9995 3.96522
11.2148 52.8093 0.0349498
9.244 53.8839 2
7.19618 55.0316 3.97636
6.31991 58.3339 4
8.38627 56.9761 2
10.3346 55.7038 0.0344073
7.74924 60.3285 2
9.70359 58.8462 0.0254814
9.30605 62.2254 0
13.4847 25.429 3.97545
13.0159 23.3373 3.96954
14.1127 21.809 2
12.3062 20.5819 3.964
15.2822 20.2457 0.0365407
13.4978 18.9329 2
11.667 17.5802 3.96808
14.7736 17.3373 0.0363202
13.0374 15.9055 2
11.2232 14.378 3.97514
14.4898 14.3195 0.0321239
12.7827 12.6972 2
10.9835 10.9835 4
14.4473 11.1163 0.0182158
12.7745 9.306 2
14.6715 7.74927 0
21.3634 33.4864 3.97613
23.9859 33.8658 2
26.3079 34.3471 0.0227007
16.327 26.5054 3.9738
17.999 24.1511 2
18.1246 22.4186 0.0262682
14.6167 24.5318 2
15.7795 23.0006 0.0296941
18.98 30.3055 3.97481
19.5797 27.345 2
20.0632 24.5085 0.0278625
21.9636 30.8078 2
22.5822 27.9751 0.0283365
24.6372 31.3373 0.0188933
18.3186 35.9959 3.97757
21.0116 35.9654 2
23.3979 36.29 0.0167569
21.5269 40.6113 0.0249731
20.8858 37.8033 0.0228149
18.7076 38.9904 2
14.7607 39.1625 3.97705
17.9532 42.0312 0.0241711
15.2622 41.8691 2
12.731 42.2387 3.97646
15.277 44.1237 0.0242421
13.0354 44.335 2
10.7774 44.7678 3.97555
13.2695 46.2324 0.024148
11.1946 46.6919 2
9.00213 47.2993 3.9681
11.6763 48.5044 0.0278651
9.61653 49.217 2
7.44243 50.0334 3.9652
10.3455 51.0557 0.0338356
8.27645 51.9984 2
6.13679 53.0072 3.97677
9.24335 53.885 0.0346351
7.19565 55.0284 2
5.0241 56.25 4
6.31988 58.3339 2
8.38715 56.9801 0.024678
7.74927 60.3285 0
13.7615 26.8848 3.97563
12.1267 24.8378 3.97202
13.4835 25.429 2
11.2328 22.2653 3.96549
13.0164 23.3375 2
14.1138 21.8095 0.0334324
12.3071 20.5813 2
10.3996 19.3291 3.96688
13.4972 18.934 0.0366135
11.6695 17.58 2
9.7638 16.1611 3.97478
13.0346 15.9062 0.0300717
11.2216 14.3835 2
9.30607 12.7746 4
12.7849 12.6918 0.0210715
10.9835 10.9835 2
12.7746 9.30605 0
18.4783 33.1833 3.97629
21.3628 33.4895 2
23.9829 33.8789 0.0181068
15.9493 29.7379 3.97563
16.3266 26.5057 2
17.9944 24.1507 0.0279351
14.6174 24.5317 0.0276615
18.9785 30.3057 2
19.5793 27.3448 0.0257315
21.9484 30.8073 0.0251916
15.3917 36.0362 3.97722
18.3178 35.9963 2
21.0096 35.9651 0.0235332
12.9615 37.8294 3.97714
18.7096 38.9914 0.0229854
14.7601 39.1624 2
12.2333 40.1213 3.97687
15.2629 41.8694 0.0238062
12.7319 42.2383 2
10.3777 42.7519 3.97625
13.0343 44.3355 0.0239592
10.7795 44.767 2
8.48041 45.3046 3.9688
11.1924 46.6926 0.0260959
9.00239 47.2988 2
6.73321 47.9988 3.96532
9.61603 49.2177 0.0329289
7.4428 50.0325 2
5.21347 50.9108 3.97658
8.27596 51.9995 0.0347832
6.13657 53.005 2
3.86727 54.0858 4
7.19618 55.0316 0.0236427
5.02404 56.25 2
6.31991 58.3339 0
13.2458 29.0979 3.97532
11.5737 26.5341 3.97267
13.7605 26.8849 2
10.2897 23.9936 3.96715
12.1284 24.8383 2
13.4847 25.429 0.0245496
9.2521 21.1432 3.96593
11.2334 22.2653 2
13.0159 23.3373 0.0304591
12.3062 20.5819 0.0360023
10.4016 19.3292 2
8.41978 18.0317 3.97491
11.667 17.5802 0.0319239
9.76271 16.1662 2
7.74928 14.6715 4
11.2232 14.378 0.0248641
9.30602 12.7745 2
10.9835 10.9835 0
14.9381 32.9193 3.97654
18.4769 33.1825 2
21.3634 33.4864 0.0238657
15.9502 29.7382 2
16.327 26.5054 0.0261961
18.98 30.3055 0.0251883
13.2601 36.2214 3.97679
15.3908 36.036 2
18.3186 35.9959 0.0224266
12.9618 37.8293 2
11.564 38.3058 3.9772
14.7607 39.1625 0.0229547
12.2348 40.121 2
9.95732 40.7385 3.97688
12.731 42.2387 0.0235358
10.3811 42.7512 2
8.0278 43.2575 3.9693
10.7774 44.7678 0.0244488
8.48213 45.304 2
6.13889 45.904 3.96562
9.00213 47.2993 0.0318979
6.7336 47.998 2
4.42478 48.7514 3.97616
7.44243 50.0334 0.0348016
5.21346 50.9094 2
2.85457 51.8506 4
6.13679 53.0072 0.0232254
3.86727 54.0858 2
5.0241 56.25 0
12.3765 31.3034 3.97605
10.9875 28.4549 3.97359
13.2461 29.0982 2
9.5072 25.8205 3.96789
11.5752 26.5345 2
13.7615 26.8848 0.0243712
8.23885 23.0254 3.96556
10.2902 23.9938 2
12.1267 24.8378 0.0279817
7.20208 19.9803 3.97605
9.2551 21.1439 2
11.2328 22.2653 0.0345112
10.3996 19.3291 0.0331193
8.41931 18.0361 2
6.31992 16.6661 4
9.7638 16.1611 0.0252223
7.74926 14.6714 2
9.30607 12.7746 0
12.415 34.3223 3.97651
14.9377 32.92 2
18.4783 33.1833 0.0237138
15.9493 29.7379 0.0243726
11.102 36.6188 3.97694
13.2601 36.2214 2
15.3917 36.0362 0.0227798
12.9615 37.8294 0.0228609
11.5659 38.3054 2
9.53966 38.8175 3.97698
12.2333 40.1213 0.0231281
9.96048 40.7379 2
7.6348 41.2033 3.96982
10.3777 42.7519 0.0237452
8.02793 43.2571 2
5.65023 43.7671 3.96619
8.48041 45.3046 0.0311989
6.13919 45.9033 2
3.77016 46.5369 3.97611
6.73321 47.9988 0.0346828
4.42504 48.7506 2
1.99014 49.554 4
5.21347 50.9108 0.0234185
2.85451 51.8506 2
3.86727 54.0858 0
11.1912 32.9507 3.97665
10.2927 30.4136 3.97488
12.3775 31.304 2
8.81604 27.7511 3.96846
10.9894 28.4554 2
13.2458 29.0979 0.024682
7.36356 24.9834 3.9654
9.50757 25.8208 2
11.5737 26.5341 0.0273334
6.11902 22.0026 3.97684
8.23995 23.0262 2
10.2897 23.9936 0.0328492
5.02411 18.75 4
7.20187 19.9834 2
9.2521 21.1432 0.03407
8.41978 18.0317 0.0250901
6.3199 16.6661 2
7.74928 14.6715 0
10.6909 35.0151 3.97672
12.4152 34.3226 2
14.9381 32.9193 0.0234569
9.19886 36.9871 3.9769
11.1041 36.6188 2
13.2601 36.2214 0.0232108
11.564 38.3058 0.0227955
9.54277 38.8172 2
7.30986 39.1785 3.9703
9.95732 40.7385 0.0231156
7.63579 41.203 2
5.26502 41.6132 3.96659
8.0278 43.2575 0.0307039
5.65051 43.7666 2
3.24764 44.2816 3.97663
6.13889 45.904 0.0343842
3.7705 46.5363 2
1.27781 47.2057 4
4.42478 48.7514 0.023838
1.99012 49.554 2
2.85457 51.8506 0
10.3266 33.902 3.9765
9.57152 32.1768 3.97579
11.1934 32.9512 2
8.1576 29.7105 3.96903
10.295 30.4141 2
12.3765 31.3034 0.0239459
6.60646 27.0092 3.96559
8.81654 27.7514 2
10.9875 28.4549 0.0264092
5.17425 24.0949 3.97685
7.36407 24.9841 2
9.5072 25.8205 0.0321067
3.86728 20.9142 4
6.11907 22.0045 2
8.23885 23.0254 0.034437
5.02406 18.75 2
7.20208 19.9803 0.0239483
6.31992 16.6661 0
9.0142 35.2883 3.97694
10.6933 35.0153 2
12.415 34.3223 0.0234898
7.08583 37.2063 3.97035
9.20195 36.9871 2
11.102 36.6188 0.0230648
9.53966 38.8175 0.0230195
7.31139 39.1783 2
4.99232 39.467 3.96707
7.6348 41.2033 0.0301763
5.26567 41.6128 2
2.85792 42.0019 3.97698
5.65023 43.7671 0.0338074
3.24785 44.2811 2
0.720592 44.8159 4
3.77016 46.5369 0.0238866
1.27778 47.2057 2
1.99014 49.554 0
9.05505 33.7126 3.97663
10.3296 33.9022 2
7.5879 31.62 3.96958
9.57427 32.1772 2
11.1912 32.9507 0.0233456
5.95091 29.0704 3.96602
8.158 29.7107 2
10.2927 30.4136 0.0251221
4.36167 26.2473 3.97656
6.60683 27.0098 2
8.81604 27.7511 0.0315404
2.85458 23.1494 4
5.17449 24.0957 2
7.36356 24.9834 0.0346006
3.86728 20.9142 2
6.11902 22.0026 0.0231553
5.02411 18.75 0
7.03321 35.3099 3.97022
9.01747 35.2884 2
10.6909 35.0151 0.0232779
4.84243 37.3399 3.96741
7.08766 37.2061 2
9.19886 36.9871 0.023101
7.30986 39.1785 0.0297012
4.993 39.4668 2
2.60583 39.7135 3.97726
5.26502 41.6132 0.0334075
2.85843 42.0016 2
0.320823 42.3947 4
3.24764 44.2816 0.0233721
0.720551 44.8159 2
1.27781 47.2057 0
7.19682 33.4681 3.96995
9.05811 33.7129 2
10.3266 33.902 0.023498
5.42114 31.1343 3.96673
7.58879 31.6202 2
9.57152 32.1768 0.02421
3.68308 28.4434 3.97654
5.95128 29.0709 2
8.1576 29.7105 0.0309676
1.99015 25.446 4
4.36197 26.2477 2
6.60646 27.0092 0.0344093
2.85453 23.1494 2
5.17425 24.0949 0.0231547
3.86728 20.9142 0
4.85674 35.252 3.96728
7.03429 35.3099 2
9.0142 35.2883 0.0230637
2.49727 37.4282 3.97807
4.84259 37.34 2
7.08583 37.2063 0.0296517
4.99232 39.467 0.0329277
2.60648 39.7138 2
0.080333 39.9526 4
2.85792 42.0019 0.0230166
0.320817 42.3947 2
0.720592 44.8159 0
5.05019 33.1909 3.96711
7.19798 33.4683 2
9.05505 33.7126 0.0233707
3.14712 30.6662 3.977
5.42149 31.1348 2
7.5879 31.62 0.0304178
1.27793 27.7943 4
3.6835 28.4437 2
5.95091 29.0704 0.0339796
1.99013 25.446 2
4.36167 26.2473 0.0234372
2.85458 23.1494 0
2.54937 35.1589 3.97777
4.85752 35.2523 2
7.03321 35.3099 0.0297755
0 37.5 4
2.49742 37.4286 2
4.84243 37.3399 0.0325924
2.60583 39.7135 0.0227414
0.0802903 39.9526 2
0.320823 42.3947 0
2.76704 32.9058 3.97784
5.0505 33.1913 2
7.19682 33.4681 0.0300527
0.721173 30.1842 4
3.14756 30.6667 2
5.42114 31.1343 0.0332731
1.27779 27.7943 2
3.68308 28.4434 0.0234606
1.99015 25.446 0
0.0806499 35.0474 4
2.5501 35.1594 2
4.85674 35.252 0.0327204
0 37.5 2
2.49727 37.4282 0.0219319
0.080333 39.9526 0
0.32156 32.6054 4
2.76727 32.9063 2
5.05019 33.1909 0.0328943
0.72056 30.1841 2
3.14712 30.6662 0.0230033
1.27793 27.7943 0
0.0802889 35.0474 2
2.54937 35.1589 0.022225
0 37.5 0
0.320817 32.6053 2
2.76704 32.9058 0.0221569
0.721173 30.1842 0
0.0806499 35.0474 0
0.32156 32.6054 0
CELLS 1910 17190
8 18 6 25 56 2 0 5 16
8 57 23 6 18 17 4 0 2
8 78 36 9 29 31 11 1 7
8 31 11 1 7 79 37 10 30
8 110 57 18 50 48 17 2 14
8 50 18 56 111 14 2 16 49
8 116 62 22 55 52 20 3 15
8 56 25 67 118 16 5 24 53
8 119 63 23 57 54 21 4 17
8 55 22 63 119 15 3 21 54
8 58 26 68 121 18 6 25 56
8 122 65 26 58 57 23 6 18
8 73 31 7 27 142 79 30 71
8 143 78 29 72 73 31 7 27
8 83 147 76 34 32 74 28 8
8 84 148 78 36 33 75 29 9
8 76 34 8 28 148 84 33 75
8 37 79 150 86 10 30 77 35
8 151 87 36 78 80 38 11 31
8 80 38 11 31 152 88 37 79
8 175 100 42 94 96 44 12 40
8 44 96 176 101 12 40 95 43
8 101 176 98 46 43 95 41 13
8 46 98 178 103 13 41 97 45
8 178 103 45 97 147 83 32 74
8 189 116 55 109 106 52 15 47
8 111 56 118 191 49 16 53 107
8 192 119 57 110 108 54 17 48
8 109 55 119 192 47 15 54 108
8 194 122 58 112 110 57 18 50
8 112 58 121 195 50 18 56 111
8 115 61 19 51 197 124 59 113
8 115 61 125 198 51 19 60 114
8 198 125 62 116 114 60 20 52
8 200 127 64 120 116 62 22 55
8 118 67 132 202 53 24 66 117
8 121 68 133 203 56 25 67 118
8 120 64 128 204 55 22 63 119
8 204 128 65 122 119 63 23 57
8 206 134 68 121 123 69 26 58
8 123 69 26 58 207 131 65 122
8 226 147 74 138 140 76 28 70
8 229 148 75 139 143 78 29 72
8 140 76 28 70 229 148 75 139
8 142 79 30 71 231 150 77 141
8 144 80 31 73 232 152 79 142
8 233 151 78 143 144 80 31 73
8 150 86 35 77 235 154 81 145
8 235 154 81 145 146 82 39 91
8 146 82 39 91 236 155 90 165
8 238 157 83 147 149 85 34 76
8 239 158 84 148 151 87 36 78
8 149 85 34 76 239 158 84 148
8 152 88 37 79 241 160 86 150
8 242 161 87 151 153 89 38 80
8 153 89 38 80 243 162 88 152
8 171 98 41 92 265 178 97 169
8 265 178 97 169 226 147 74 138
8 172 96 40 93 266 176 95 170
8 266 176 95 170 171 98 41 92
8 269 175 94 173 172 96 40 93
8 271 180 99 174 175 100 42 94
8 197 124 59 113 271 180 99 174
8 272 181 100 175 177 102 44 96
8 273 182 101 176 179 104 46 98
8 177 102 44 96 273 182 101 176
8 179 104 46 98 275 184 103 178
8 275 184 103 178 238 157 83 147
8 188 115 51 105 283 197 113 186
8 188 115 198 284 105 51 114 187
8 284 198 116 189 187 114 52 106
8 286 200 120 193 189 116 55 109
8 191 118 202 288 107 53 117 190
8 195 121 203 289 111 56 118 191
8 193 120 204 290 109 55 119 192
8 290 204 122 194 192 119 57 110
8 196 123 58 112 292 207 122 194
8 293 206 121 195 196 123 58 112
8 199 126 61 115 297 211 124 197
8 298 212 127 200 198 125 62 116
8 199 126 212 298 115 61 125 198
8 205 129 64 120 300 214 127 200
8 301 217 130 201 202 132 66 117
8 209 136 168 264 301 217 130 201
8 302 219 132 202 203 133 67 118
8 303 220 133 203 206 134 68 121
8 205 129 215 304 120 64 128 204
8 304 215 131 207 204 128 65 122
8 306 221 134 206 208 135 69 123
8 208 135 69 123 307 218 131 207
8 210 137 167 263 309 223 136 209
8 328 238 147 226 230 149 76 140
8 228 146 91 166 329 236 165 260
8 231 150 77 141 330 235 145 227
8 330 235 145 227 228 146 91 166
8 332 239 148 229 233 151 78 143
8 230 149 76 140 332 239 148 229
8 232 152 79 142 334 241 150 231
8 234 153 80 144 335 243 152 232
8 336 242 151 233 234 153 80 144
8 236 155 90 165 338 245 164 259
8 241 160 86 150 339 246 154 235
8 339 246 154 235 237 156 82 146
8 237 156 82 146 340 247 155 236
8 342 249 157 238 240 159 85 149
8 343 250 158 239 242 161 87 151
8 240 159 85 149 343 250 158 239
8 243 162 88 152 345 252 160 241
8 244 163 253 346 153 89 161 242
8 244 163 89 153 347 254 162 243
8 311 224 261 371 210 137 167 263
8 263 167 262 372 209 136 168 264
8 267 179 98 171 375 275 178 265
8 375 275 178 265 328 238 147 226
8 376 273 176 266 267 179 98 171
8 268 177 96 172 376 273 176 266
8 379 272 175 269 268 177 96 172
8 380 271 174 270 269 175 94 173
8 283 197 113 186 380 271 174 270
8 381 277 180 271 272 181 100 175
8 297 211 124 197 381 277 180 271
8 382 278 181 272 274 183 102 177
8 274 183 102 177 383 279 182 273
8 383 279 182 273 276 185 104 179
8 385 281 184 275 342 249 157 238
8 276 185 104 179 385 281 184 275
8 285 199 115 188 393 297 197 283
8 394 298 200 286 284 198 116 189
8 285 199 298 394 188 115 198 284
8 291 205 120 193 396 300 200 286
8 397 301 201 287 288 202 117 190
8 295 209 264 374 397 301 201 287
8 398 302 202 288 289 203 118 191
8 399 303 203 289 293 206 121 195
8 291 205 304 400 193 120 204 290
8 400 304 207 292 290 204 122 194
8 294 208 123 196 402 307 207 292
8 403 306 206 293 294 208 123 196
8 296 210 263 373 405 309 209 295
8 408 312 213 299 297 211 126 199
8 299 213 313 409 199 126 212 298
8 409 313 214 300 298 212 127 200
8 305 216 129 205 411 315 214 300
8 412 318 217 301 302 219 132 202
8 309 223 136 209 412 318 217 301
8 413 320 219 302 303 220 133 203
8 306 221 321 414 206 134 220 303
8 307 218 131 207 415 316 215 304
8 305 216 316 415 205 129 215 304
8 417 322 221 306 308 222 135 208
8 308 222 135 208 418 319 218 307
8 310 225 137 210 420 325 223 309
8 423 326 224 311 310 225 137 210
8 329 236 165 260 441 338 259 368
8 442 342 238 328 333 240 149 230
8 331 237 146 228 443 340 236 329
8 334 241 150 231 444 339 235 330
8 444 339 235 330 331 237 146 228
8 446 343 239 332 336 242 151 233
8 333 240 149 230 446 343 239 332
8 335 243 152 232 448 345 241 334
8 337 244 153 234 449 347 243 335
8 337 244 346 450 234 153 242 336
8 338 245 164 259 452 349 258 367
8 340 247 155 236 453 350 245 338
8 345 252 160 241 454 351 246 339
8 454 351 246 339 341 248 156 237
8 341 248 156 237 455 352 247 340
8 240 159 251 344 342 249 354 457
8 242 161 253 346 343 250 355 458
8 343 250 355 458 240 159 251 344
8 347 254 162 243 460 357 252 345
8 348 255 358 461 244 163 253 346
8 348 255 163 244 462 359 254 347
8 473 360 257 365 363 256 364 482
8 452 349 258 367 365 257 366 485
8 422 324 369 488 311 224 261 371
8 371 261 370 490 263 167 262 372
8 407 311 371 491 296 210 263 373
8 373 263 372 492 295 209 264 374
8 493 385 275 375 442 342 238 328
8 377 276 179 267 493 385 275 375
8 378 274 177 268 494 383 273 376
8 494 383 273 376 377 276 179 267
8 497 382 272 379 378 274 177 268
8 498 381 271 380 379 272 175 269
8 393 297 197 283 498 381 271 380
8 499 387 277 381 382 278 181 272
8 408 312 211 297 499 387 277 381
8 500 388 278 382 384 280 183 274
8 501 389 279 383 386 282 185 276
8 384 280 183 274 501 389 279 383
8 386 282 185 276 503 391 281 385
8 503 391 281 385 457 354 249 342
8 511 408 299 395 393 297 199 285
8 395 299 409 512 285 199 298 394
8 512 409 300 396 394 298 200 286
8 401 305 205 291 514 411 300 396
8 515 412 301 397 398 302 202 288
8 405 309 209 295 515 412 301 397
8 516 413 302 398 399 303 203 289
8 403 306 414 517 293 206 303 399
8 402 307 207 292 518 415 304 400
8 401 305 415 518 291 205 304 400
8 404 308 208 294 520 418 307 402
8 521 417 306 403 404 308 208 294
8 406 310 210 296 523 420 309 405
8 526 423 311 407 406 310 210 296
8 410 314 213 299 527 424 312 408
8 528 425 315 411 409 313 214 300
8 410 314 425 528 299 213 313 409
8 416 317 216 305 530 427 315 411
8 531 430 318 412 413 320 219 302
8 420 325 223 309 531 430 318 412
8 532 432 320 413 414 321 220 303
8 417 322 433 533 306 221 321 414
8 418 319 218 307 534 428 316 415
8 416 317 428 534 305 216 316 415
8 419 323 434 536 308 222 322 417
8 419 323 222 308 537 431 319 418
8 421 327 225 310 539 438 325 420
8 421 327 439 541 310 225 326 423
8 543 437 324 422 423 326 224 311
8 441 338 259 368 559 452 367 486
8 443 340 236 329 560 453 338 441
8 333 240 344 447 442 342 457 561
8 445 341 237 331 562 455 340 443
8 448 345 241 334 563 454 339 444
8 563 454 339 444 445 341 237 331
8 336 242 346 450 446 343 458 565
8 446 343 458 565 333 240 344 447
8 449 347 243 335 567 460 345 448
8 451 348 244 337 568 462 347 449
8 451 348 461 569 337 244 346 450
8 570 463 349 452 473 360 257 365
8 453 350 245 338 570 463 349 452
8 455 352 247 340 571 464 350 453
8 460 357 252 345 572 465 351 454
8 572 465 351 454 456 353 248 341
8 456 353 248 341 573 466 352 455
8 344 251 356 459 457 354 468 575
8 458 355 469 576 344 251 356 459
8 346 253 358 461 458 355 469 576
8 462 359 254 347 578 471 357 460
8 348 255 359 462 461 358 472 579
8 591 474 360 473 475 361 256 363
8 475 361 256 363 594 477 362 479
8 363 256 364 482 479 362 480 603
8 590 473 365 484 481 363 482 605
8 482 364 257 365 606 483 366 485
8 559 452 367 486 484 365 485 607
8 542 436 487 609 422 324 369 488
8 525 422 488 611 407 311 371 491
8 488 369 489 612 371 261 370 490
8 491 371 490 613 373 263 372 492
8 495 386 276 377 614 503 385 493
8 614 503 385 493 561 457 342 442
8 615 501 383 494 495 386 276 377
8 496 384 274 378 615 501 383 494
8 618 500 382 497 496 384 274 378
8 619 499 381 498 497 382 272 379
8 511 408 297 393 619 499 381 498
8 620 505 387 499 500 388 278 382
8 527 424 312 408 620 505 387 499
8 502 390 506 621 384 280 388 500
8 622 507 389 501 504 392 282 386
8 502 390 280 384 622 507 389 501
8 504 392 282 386 624 509 391 503
8 624 509 391 503 575 468 354 457
8 513 410 299 395 630 527 408 511
8 631 528 411 514 512 409 300 396
8 513 410 528 631 395 299 409 512
8 519 416 305 401 633 530 411 514
8 634 531 412 515 516 413 302 398
8 523 420 309 405 634 531 412 515
8 635 532 413 516 517 414 303 399
8 521 417 533 636 403 306 414 517
8 520 418 307 402 637 534 415 518
8 519 416 534 637 401 305 415 518
8 522 419 308 404 639 537 418 520
8 522 419 536 640 404 308 417 521
8 524 421 310 406 642 539 420 523
8 524 421 541 644 406 310 423 526
8 646 543 422 525 526 423 311 407
8 529 426 314 410 647 544 424 527
8 528 425 545 648 411 315 427 530
8 529 426 545 648 410 314 425 528
8 535 429 317 416 649 546 427 530
8 650 548 430 531 532 432 320 413
8 539 438 325 420 650 548 430 531
8 533 433 550 651 414 321 432 532
8 536 434 551 652 417 322 433 533
8 537 431 319 418 653 547 428 534
8 535 429 547 653 416 317 428 534
8 538 435 552 654 419 323 434 536
8 538 435 323 419 655 549 431 537
8 540 440 327 421 657 556 438 539
8 540 440 557 659 421 327 439 541
8 541 439 555 660 423 326 437 543
8 661 554 436 542 543 437 324 422
8 676 570 452 559 590 473 365 484
8 560 453 338 441 676 570 452 559
8 562 455 340 443 677 571 453 560
8 447 344 459 566 561 457 575 678
8 564 456 341 445 679 573 455 562
8 567 460 345 448 680 572 454 563
8 680 572 454 563 564 456 341 445
8 565 458 576 682 447 344 459 566
8 450 346 461 569 565 458 576 682
8 568 462 347 449 684 578 460 567
8 451 348 462 568 569 461 579 685
8 686 580 463 570 591 474 360 473
8 571 464 350 453 686 580 463 570
8 573 466 352 455 687 581 464 571
8 572 465 582 688 460 357 471 578
8 574 467 582 688 456 353 465 572
8 574 467 353 456 689 583 466 573
8 459 356 470 577 575 468 585 691
8 576 469 586 692 459 356 470 577
8 461 358 472 579 576 469 586 692
8 462 359 471 578 579 472 588 694
8 704 591 473 590 593 475 363 481
8 595 476 592 705 475 361 474 591
8 593 475 363 481 707 594 479 602
8 594 477 362 479 709 598 478 600
8 595 476 361 475 711 597 477 594
8 479 362 480 603 600 478 601 720
8 481 363 482 605 602 479 603 722
8 603 480 364 482 723 604 483 606
8 605 482 365 484 724 606 485 607
8 656 553 608 726 542 436 487 609
8 645 542 609 728 525 422 488 611
8 609 487 610 729 488 369 489 612
8 611 488 612 730 491 371 490 613
8 616 504 386 495 731 624 503 614
8 731 624 503 614 678 575 457 561
8 732 622 501 615 616 504 386 495
8 617 502 384 496 732 622 501 615
8 617 502 621 735 496 384 500 618
8 736 620 499 619 618 500 382 497
8 630 527 408 511 736 620 499 619
8 621 506 626 737 500 388 505 620
8 647 544 424 527 737 626 505 620
8 623 508 627 738 502 390 506 621
8 623 508 390 502 739 628 507 622
8 625 510 628 739 504 392 507 622
8 740 629 509 624 691 585 468 575
8 625 510 392 504 740 629 509 624
8 632 529 410 513 744 647 527 630
8 631 528 648 745 514 411 530 633
8 632 529 648 745 513 410 528 631
8 638 535 416 519 746 649 530 633
8 747 650 531 634 635 532 413 516
8 642 539 420 523 747 650 531 634
8 636 533 651 748 517 414 532 635
8 640 536 652 749 521 417 533 636
8 639 537 418 520 750 653 534 637
8 638 535 653 750 519 416 534 637
8 641 538 419 522 751 655 537 639
8 641 538 654 752 522 419 536 640
8 643 540 421 524 753 657 539 642
8 643 540 659 755 524 421 541 644
8 644 541 660 757 526 423 543 646
8 758 661 542 645 646 543 422 525
8 529 426 544 647 648 545 662 759
8 530 427 545 648 649 546 663 760
8 535 429 546 649 653 547 664 761
8 762 666 548 650 651 550 432 532
8 657 556 438 539 762 666 548 650
8 652 551 668 763 533 433 550 651
8 654 552 669 764 536 434 551 652
8 655 549 431 537 765 665 547 653
8 538 435 549 655 654 552 667 766
8 661 554 671 768 542 436 553 656
8 658 558 440 540 769 674 556 657
8 658 558 675 770 540 440 557 659
8 659 557 673 771 541 439 555 660
8 660 555 672 772 543 437 554 661
8 788 686 570 676 704 591 473 590
8 677 571 453 560 788 686 570 676
8 679 573 455 562 789 687 571 677
8 566 459 577 683 678 575 691 790
8 681 574 456 564 791 689 573 679
8 680 572 688 792 567 460 578 684
8 681 574 688 792 564 456 572 680
8 682 576 692 794 566 459 577 683
8 569 461 579 685 682 576 692 794
8 568 462 578 684 685 579 694 796
8 687 581 464 571 798 696 580 686
8 798 696 580 686 705 592 474 591
8 689 583 466 573 799 697 581 687
8 688 582 698 800 578 471 588 694
8 690 584 698 800 574 467 582 688
8 690 584 467 574 801 699 583 689
8 693 587 701 803 577 470 585 691
8 693 587 470 577 804 702 586 692
8 695 589 702 804 579 472 586 692
8 695 589 472 579 805 703 588 694
8 708 595 705 813 593 475 591 704
8 710 596 706 814 595 476 592 705
8 707 594 479 602 816 709 600 719
8 708 595 475 593 817 711 594 707
8 709 598 478 600 819 715 599 717
8 711 597 477 594 820 714 598 709
8 710 596 476 595 822 713 597 711
8 600 478 601 720 717 599 718 832
8 602 479 603 722 719 600 720 834
8 720 601 480 603 835 721 604 723
8 722 603 482 605 836 723 606 724
8 767 670 725 839 656 553 608 726
8 756 656 726 841 645 542 609 728
8 726 608 727 842 609 487 610 729
8 728 609 729 843 611 488 612 730
8 844 740 624 731 790 691 575 678
8 733 625 504 616 844 740 624 731
8 734 623 502 617 845 739 622 732
8 733 625 739 845 616 504 622 732
8 734 623 738 846 617 502 621 735
8 735 621 737 847 618 500 620 736
8 744 647 527 630 847 737 620 736
8 621 506 627 738 737 626 741 848
8 647 544 626 737 759 662 741 848
8 623 508 628 739 738 627 742 849
8 740 629 585 691 850 743 700 802
8 625 510 629 740 739 628 743 850
8 632 529 647 744 745 648 759 854
8 633 530 648 745 746 649 760 855
8 638 535 649 746 750 653 761 856
8 857 762 650 747 748 651 532 635
8 753 657 539 642 857 762 650 747
8 749 652 763 858 636 533 651 748
8 752 654 764 859 640 536 652 749
8 751 655 537 639 860 765 653 750
8 641 538 655 751 752 654 766 861
8 754 658 540 643 862 769 657 753
8 754 658 770 863 643 540 659 755
8 755 659 771 864 644 541 660 757
8 758 661 768 866 645 542 656 756
8 757 660 772 867 646 543 661 758
8 759 662 773 868 648 545 663 760
8 649 546 663 760 761 664 774 871
8 765 665 547 653 872 775 664 761
8 873 777 666 762 763 668 550 651
8 769 674 556 657 873 777 666 762
8 764 669 779 874 652 551 668 763
8 654 552 667 766 764 669 778 875
8 655 549 665 765 766 667 776 876
8 768 671 782 877 656 553 670 767
8 772 672 783 878 661 554 671 768
8 658 558 674 769 770 675 786 879
8 659 557 675 770 771 673 785 881
8 882 784 672 772 771 673 555 660
8 789 687 571 677 897 798 686 788
8 897 798 686 788 813 705 591 704
8 791 689 573 679 898 799 687 789
8 795 693 803 900 683 577 691 790
8 793 690 574 681 901 801 689 791
8 792 688 800 902 684 578 694 796
8 793 690 800 902 681 574 688 792
8 795 693 577 683 903 804 692 794
8 797 695 804 903 685 579 692 794
8 797 695 579 685 904 805 694 796
8 905 806 697 799 798 696 581 687
8 814 706 806 905 705 592 696 798
8 689 583 697 799 801 699 808 907
8 800 698 809 908 694 588 703 805
8 690 584 699 801 800 698 809 908
8 803 701 810 909 691 585 700 802
8 693 587 702 804 803 701 811 910
8 695 589 703 805 804 702 812 911
8 818 710 814 919 708 595 705 813
8 821 712 815 920 710 596 706 814
8 816 709 600 719 922 819 717 831
8 817 711 594 707 923 820 709 816
8 818 710 595 708 924 822 711 817
8 819 715 599 717 926 827 716 829
8 820 714 598 709 927 826 715 819
8 929 825 713 822 820 714 597 711
8 821 712 596 710 930 824 713 822
8 717 599 718 832 829 716 830 942
8 719 600 720 834 831 717 832 944
8 832 718 601 720 945 833 721 835
8 834 720 603 722 946 835 723 836
8 869 780 838 950 767 670 725 839
8 865 767 839 952 756 656 726 841
8 839 725 840 953 726 608 727 842
8 841 726 842 954 728 609 729 843
8 844 740 691 790 955 850 802 899
8 733 625 740 844 845 739 850 955
8 734 623 739 845 846 738 849 956
8 735 621 738 846 847 737 848 957
8 744 647 737 847 854 759 848 957
8 738 627 742 849 848 741 851 958
8 848 741 851 958 759 662 773 868
8 850 743 700 802 959 852 807 906
8 849 742 628 739 959 852 743 850
8 854 759 868 965 745 648 760 855
8 746 649 760 855 856 761 871 966
8 860 765 653 750 967 872 761 856
8 968 873 762 857 858 763 651 748
8 862 769 657 753 968 873 762 857
8 859 764 874 969 749 652 763 858
8 752 654 766 861 859 764 875 970
8 751 655 765 860 861 766 876 971
8 754 658 769 862 863 770 879 972
8 755 659 770 863 864 771 881 974
8 976 882 772 867 864 771 660 757
8 866 768 877 977 756 656 767 865
8 867 772 878 978 758 661 768 866
8 760 663 773 868 871 774 883 980
8 870 781 837 948 982 890 780 869
8 982 890 780 869 877 782 670 767
8 761 664 774 871 872 775 884 984
8 876 776 665 765 985 885 775 872
8 873 777 668 763 986 887 779 874
8 769 674 777 873 879 786 887 986
8 764 669 778 875 874 779 888 987
8 766 667 776 876 875 778 886 988
8 878 783 892 989 768 671 782 877
8 878 783 672 772 990 893 784 882
8 880 787 675 770 991 896 786 879
8 880 787 895 992 770 675 785 881
8 881 785 894 993 771 673 784 882
8 1006 905 799 898 897 798 687 789
8 919 814 905 1006 813 705 798 897
8 791 689 799 898 901 801 907 1007
8 900 803 909 1009 790 691 802 899
8 795 693 804 903 900 803 910 1010
8 902 800 908 1011 796 694 805 904
8 793 690 801 901 902 800 908 1011
8 797 695 805 904 903 804 911 1012
8 799 697 806 905 907 808 912 1013
8 920 815 912 1013 814 706 806 905
8 802 700 810 909 906 807 913 1014
8 801 699 808 907 908 809 914 1015
8 805 703 809 908 911 812 915 1016
8 803 701 811 910 909 810 916 1017
8 911 812 917 1018 804 702 811 910
8 925 821 920 1030 818 710 814 919
8 928 823 921 1031 821 712 815 920
8 922 819 717 831 1033 926 829 941
8 923 820 709 816 1034 927 819 922
8 1035 929 822 924 923 820 711 817
8 925 821 710 818 1036 930 822 924
8 1038 933 825 929 927 826 714 820
8 926 827 716 829 1039 935 828 939
8 927 826 715 819 1040 934 827 926
8 928 823 712 821 1041 931 824 930
8 1042 932 824 930 929 825 713 822
8 829 716 830 942 939 828 940 1058
8 831 717 832 944 941 829 942 1060
8 942 830 718 832 1061 943 833 945
8 944 832 720 834 1062 945 835 946
8 981 889 947 1064 870 781 837 948
8 948 837 949 1067 869 780 838 950
8 975 869 950 1069 865 767 839 952
8 950 838 951 1070 839 725 840 953
8 952 839 953 1071 841 726 842 954
8 955 850 802 899 1072 959 906 1008
8 956 849 739 845 1072 959 850 955
8 846 738 849 956 957 848 958 1073
8 957 848 958 1073 854 759 868 965
8 849 742 852 959 958 851 961 1076
8 960 853 961 1076 906 807 852 959
8 958 851 961 1076 868 773 883 980
8 960 853 807 906 1077 963 913 1014
8 855 760 868 965 966 871 980 1085
8 856 761 871 966 967 872 984 1086
8 971 876 765 860 1087 985 872 967
8 968 873 763 858 1088 986 874 969
8 862 769 873 968 972 879 986 1088
8 859 764 875 970 969 874 987 1089
8 861 766 876 971 970 875 988 1090
8 973 880 770 863 1091 991 879 972
8 973 880 992 1092 863 770 881 974
8 974 881 993 1093 864 771 882 976
8 979 870 948 1066 1094 982 869 975
8 1094 982 869 975 977 877 767 865
8 978 878 772 867 1095 990 882 976
8 978 878 989 1096 866 768 877 977
8 871 774 883 980 984 884 994 1099
8 983 891 999 1100 870 781 889 981
8 1101 1000 890 982 989 892 782 877
8 983 891 781 870 1101 1000 890 982
8 872 775 884 984 985 885 995 1103
8 876 776 885 985 988 886 996 1104
8 986 887 779 874 1105 998 888 987
8 879 786 887 986 991 896 998 1105
8 875 778 886 988 987 888 997 1106
8 990 893 1002 1107 878 783 892 989
8 1108 1003 893 990 993 894 784 882
8 880 787 896 991 992 895 1005 1109
8 993 894 785 881 1110 1004 895 992
8 898 799 905 1006 1007 907 1013 1120
8 1030 920 1013 1120 919 814 905 1006
8 901 801 907 1007 1011 908 1015 1121
8 899 802 909 1009 1008 906 1014 1122
8 900 803 910 1010 1009 909 1017 1123
8 1012 911 1018 1124 903 804 910 1010
8 904 805 908 1011 1012 911 1016 1125
8 1013 912 1020 1127 907 808 914 1015
8 1031 921 1020 1127 920 815 912 1013
8 1019 918 962 1075 1128 1021 913 1014
8 1128 1021 913 1014 1017 916 810 909
8 1015 914 1022 1129 908 809 915 1016
8 1016 915 1023 1130 911 812 917 1018
8 1018 917 1024 1131 910 811 916 1017
8 1037 928 1031 1148 925 821 920 1030
8 928 823 931 1041 1031 921 1032 1149
8 1033 926 829 941 1151 1039 939 1057
8 1034 927 819 922 1152 1040 926 1033
8 1153 1038 929 1035 1034 927 820 923
8 1154 1042 930 1036 1035 929 822 924
8 1037 928 821 925 1155 1041 930 1036
8 1039 935 828 939 1156 1047 938 1055
8 1157 1043 932 1042 1038 933 825 929
8 1038 933 826 927 1158 1045 934 1040
8 1040 934 827 926 1159 1046 935 1039
8 930 824 932 1042 1041 931 1044 1160
8 1051 936 1048 1165 1175 1052 937 1053
8 1156 1047 938 1055 1053 937 1054 1178
8 939 828 940 1058 1055 938 1056 1181
8 941 829 942 1060 1057 939 1058 1183
8 942 830 943 1061 1058 940 1059 1184
8 1060 942 832 944 1185 1061 945 1062
8 1082 964 1063 1188 981 889 947 1064
8 1097 981 1064 1190 979 870 948 1066
8 1064 947 1065 1191 948 837 949 1067
8 1066 948 1067 1193 975 869 950 1069
8 1067 949 1068 1194 950 838 951 1070
8 1069 950 1070 1195 952 839 953 1071
8 956 849 959 1072 1073 958 1076 1197
8 1074 960 1076 1197 1008 906 959 1072
8 1073 958 1076 1197 965 868 980 1085
8 1074 960 906 1008 1198 1077 1014 1122
8 1133 1026 1079 1199 1019 918 962 1075
8 1077 963 913 1014 1200 1080 962 1075
8 960 853 963 1077 1076 961 1078 1201
8 980 883 961 1076 1099 994 1078 1201
8 1210 1083 964 1082 1100 999 889 981
8 966 871 980 1085 1086 984 1099 1215
8 967 872 984 1086 1087 985 1103 1216
8 971 876 985 1087 1090 988 1104 1217
8 1088 986 874 969 1218 1105 987 1089
8 972 879 986 1088 1091 991 1105 1218
8 970 875 988 1090 1089 987 1106 1219
8 973 880 991 1091 1092 992 1109 1220
8 1093 993 881 974 1221 1110 992 1092
8 1222 1108 990 1095 1093 993 882 976
8 1223 1101 982 1094 1096 989 877 977
8 1098 983 870 979 1223 1101 982 1094
8 1095 990 1107 1224 978 878 989 1096
8 1098 983 1100 1225 979 870 981 1097
8 984 884 994 1099 1103 995 1111 1227
8 1102 1001 1115 1228 983 891 999 1100
8 1101 1000 892 989 1229 1116 1002 1107
8 1102 1001 891 983 1229 1116 1000 1101
8 985 885 995 1103 1104 996 1112 1230
8 988 886 996 1104 1106 997 1113 1231
8 1105 998 888 987 1232 1114 997 1106
8 991 896 998 1105 1109 1005 1114 1232
8 1108 1003 1117 1233 990 893 1002 1107
8 1108 1003 894 993 1233 1117 1004 1110
8 992 895 1005 1109 1110 1004 1118 1234
8 1120 1013 1127 1244 1007 907 1015 1121
8 1148 1031 1127 1244 1030 920 1013 1120
8 1121 1015 1129 1245 1011 908 1016 1125
8 1126 1019 1075 1196 1246 1128 1014 1122
8 1246 1128 1014 1122 1123 1017 909 1009
8 1124 1018 1131 1247 1010 910 1017 1123
8 1125 1016 1130 1248 1012 911 1018 1124
8 1127 1020 1137 1254 1015 914 1022 1129
8 1031 921 1032 1149 1127 1020 1137 1254
8 1134 1027 918 1019 1257 1140 1021 1128
8 1257 1140 1021 1128 1131 1024 916 1017
8 1129 1022 1141 1258 1016 915 1023 1130
8 1130 1023 1142 1259 1018 917 1024 1131
8 1261 1144 1025 1132 1133 1026 1079 1199
8 1255 1138 1025 1132 1135 1028 1144 1261
8 1133 1026 918 1019 1262 1145 1027 1134
8 1136 1029 1139 1256 1263 1146 1028 1135
8 1037 928 1041 1155 1148 1031 1149 1275
8 1041 931 1044 1160 1149 1032 1150 1276
8 1151 1039 939 1057 1278 1156 1055 1180
8 1152 1040 926 1033 1279 1159 1039 1151
8 1153 1038 927 1034 1280 1158 1040 1152
8 1281 1157 1042 1154 1153 1038 929 1035
8 1036 930 1042 1154 1155 1041 1160 1282
8 1283 1164 1046 1159 1156 1047 935 1039
8 1165 1048 1164 1283 1053 937 1047 1156
8 1157 1043 933 1038 1284 1161 1045 1158
8 1157 1043 1161 1284 1042 932 1044 1160
8 1040 934 1046 1159 1158 1045 1163 1285
8 1166 1049 1167 1292 1051 936 1048 1165
8 1166 1049 936 1051 1293 1168 1050 1172
8 1051 936 1052 1175 1172 1050 1173 1306
8 1174 1051 1165 1290 1308 1175 1053 1177
8 1053 937 1054 1178 1175 1052 1176 1309
8 1278 1156 1055 1180 1177 1053 1178 1311
8 1055 938 1056 1181 1178 1054 1179 1312
8 1057 939 1058 1183 1180 1055 1181 1314
8 1058 940 1059 1184 1181 1056 1182 1315
8 1060 942 1061 1185 1183 1058 1184 1316
8 1208 1081 1187 1321 1082 964 1063 1188
8 1209 1082 1188 1322 1097 981 1064 1190
8 1188 1063 1189 1323 1064 947 1065 1191
8 1190 1064 1191 1325 1066 948 1067 1193
8 1191 1065 1192 1326 1067 949 1068 1194
8 1067 1193 1069 950 1194 1327 1195 1070
8 1250 1133 1199 1330 1126 1019 1075 1196
8 1198 1077 1014 1122 1331 1200 1075 1196
8 1074 960 1077 1198 1197 1076 1201 1332
8 1085 980 1076 1197 1215 1099 1201 1332
8 1199 1079 1203 1333 1075 962 1080 1200
8 1132 1025 1119 1243 1199 1079 1203 1333
8 1201 1078 963 1077 1334 1202 1080 1200
8 1099 994 1078 1201 1227 1111 1202 1334
8 1343 1207 1081 1208 1210 1083 964 1082
8 1214 1084 1186 1319 1343 1207 1081 1208
8 1345 1210 1082 1209 1225 1100 981 1097
8 1346 1211 1083 1210 1228 1115 999 1100
8 1086 984 1099 1215 1216 1103 1227 1352
8 1087 985 1103 1216 1217 1104 1230 1353
8 1090 988 1104 1217 1219 1106 1231 1354
8 1218 1105 987 1089 1355 1232 1106 1219
8 1091 991 1105 1218 1220 1109 1232 1355
8 1092 992 1109 1220 1221 1110 1234 1356
8 1222 1108 1233 1357 1095 990 1107 1224
8 1222 1108 993 1093 1357 1233 1110 1221
8 1223 1101 989 1096 1358 1229 1107 1224
8 1226 1102 983 1098 1358 1229 1101 1223
8 1226 1102 1228 1359 1098 983 1100 1225
8 1103 995 1111 1227 1230 1112 1235 1360
8 1107 1002 1117 1233 1229 1116 1240 1362
8 1102 1001 1116 1229 1228 1115 1240 1362
8 1104 996 1112 1230 1231 1113 1236 1363
8 1364 1237 1114 1232 1231 1113 997 1106
8 1109 1005 1114 1232 1234 1118 1238 1365
8 1110 1004 1118 1234 1233 1117 1241 1366
8 1242 1374 1255 1138 1119 1243 1132 1025
8 1244 1127 1254 1376 1121 1015 1129 1245
8 1148 1031 1149 1275 1244 1127 1254 1376
8 1245 1129 1258 1377 1125 1016 1130 1248
8 1251 1134 1019 1126 1378 1257 1128 1246
8 1378 1257 1128 1246 1247 1131 1017 1123
8 1248 1130 1259 1379 1124 1018 1131 1247
8 1261 1381 1250 1133 1132 1249 1330 1199
8 1255 1380 1252 1135 1132 1249 1381 1261
8 1250 1133 1019 1126 1382 1262 1134 1251
8 1253 1136 1256 1385 1384 1263 1135 1252
8 1254 1137 1265 1387 1129 1022 1141 1258
8 1149 1032 1150 1276 1254 1137 1265 1387
8 1028 1135 1255 1138 1139 1256 1388 1266
8 1136 1029 1147 1264 1256 1139 1267 1389
8 1390 1268 1140 1257 1259 1142 1024 1131
8 1260 1143 1027 1134 1390 1268 1140 1257
8 1258 1141 1269 1391 1130 1023 1142 1259
8 1262 1145 1027 1134 1393 1271 1143 1260
8 1261 1144 1026 1133 1394 1272 1145 1262
8 1135 1028 1144 1261 1263 1146 1272 1394
8 1136 1029 1146 1263 1264 1147 1273 1395
8 1155 1041 1160 1282 1275 1149 1276 1405
8 1276 1150 1044 1160 1406 1277 1162 1286
8 1408 1283 1159 1279 1278 1156 1039 1151
8 1290 1165 1283 1408 1177 1053 1156 1278
8 1152 1040 1159 1279 1280 1158 1285 1409
8 1281 1157 1038 1153 1410 1284 1158 1280
8 1281 1157 1284 1410 1154 1042 1160 1282
8 1159 1046 1164 1283 1285 1163 1289 1412
8 1292 1167 1289 1412 1165 1048 1164 1283
8 1158 1045 1163 1285 1284 1161 1288 1413
8 1284 1161 1288 1413 1160 1044 1162 1286
8 1291 1166 1292 1418 1174 1051 1165 1290
8 1291 1166 1051 1174 1419 1293 1172 1305
8 1294 1169 1296 1421 1166 1049 1167 1292
8 1293 1168 1050 1172 1422 1295 1171 1303
8 1294 1169 1049 1166 1423 1297 1168 1293
8 1422 1295 1171 1303 1301 1170 1302 1435
8 1172 1050 1173 1306 1303 1171 1304 1438
8 1174 1051 1175 1308 1305 1172 1306 1440
8 1175 1052 1176 1309 1306 1173 1307 1441
8 1177 1053 1178 1311 1308 1175 1309 1443
8 1178 1054 1179 1312 1309 1176 1310 1444
8 1180 1055 1181 1314 1311 1178 1312 1446
8 1056 1181 1312 1179 1182 1315 1447 1313
8 1183 1058 1184 1316 1314 1181 1315 1448
8 1319 1186 1084 1214 1451 1317 1213 1350
8 1319 1186 1318 1453 1208 1081 1187 1321
8 1321 1187 1320 1456 1188 1063 1189 1323
8 1344 1208 1321 1457 1209 1082 1188 1322
8 1322 1188 1323 1458 1190 1064 1191 1325
8 1323 1189 1324 1459 1191 1065 1192 1326
8 1191 1325 1193 1067 1326 1460 1327 1194
8 1242 1374 1243 1119 1328 1462 1335 1204
8 1330 1199 1333 1465 1196 1075 1200 1331
8 1132 1249 1330 1199 1243 1375 1465 1333
8 1332 1201 1077 1198 1466 1334 1200 1331
8 1215 1099 1201 1332 1352 1227 1334 1466
8 1119 1243 1333 1203 1204 1335 1470 1338
8 1333 1203 1338 1470 1200 1080 1202 1334
8 1227 1111 1202 1334 1360 1235 1338 1470
8 1328 1462 1335 1204 1205 1336 1471 1339
8 1337 1206 1340 1472 1464 1329 1205 1336
8 1346 1211 1342 1479 1210 1083 1207 1343
8 1346 1211 1115 1228 1479 1342 1239 1361
8 1348 1212 1084 1214 1479 1342 1207 1343
8 1480 1343 1208 1344 1345 1210 1082 1209
8 1351 1214 1319 1454 1480 1343 1208 1344
8 1481 1346 1210 1345 1359 1228 1100 1225
8 1348 1212 1347 1483 1214 1084 1213 1350
8 1216 1103 1227 1352 1353 1230 1360 1488
8 1217 1104 1230 1353 1354 1231 1363 1489
8 1490 1364 1232 1355 1354 1231 1106 1219
8 1220 1109 1232 1355 1356 1234 1365 1491
8 1221 1110 1234 1356 1357 1233 1366 1492
8 1224 1107 1233 1357 1358 1229 1362 1493
8 1226 1102 1229 1358 1359 1228 1362 1493
8 1230 1112 1235 1360 1363 1236 1367 1496
8 1361 1239 1115 1228 1497 1371 1240 1362
8 1366 1241 1372 1498 1233 1117 1240 1362
8 1364 1237 1113 1231 1499 1368 1236 1363
8 1364 1237 1368 1499 1232 1114 1238 1365
8 1234 1118 1238 1365 1366 1241 1369 1500
8 1507 1373 1242 1374 1388 1266 1138 1255
8 1508 1374 1243 1375 1380 1255 1132 1249
8 1376 1254 1387 1509 1245 1129 1258 1377
8 1275 1149 1276 1405 1376 1254 1387 1509
8 1377 1258 1391 1510 1248 1130 1259 1379
8 1511 1390 1257 1378 1379 1259 1131 1247
8 1383 1260 1134 1251 1511 1390 1257 1378
8 1252 1135 1256 1385 1380 1255 1388 1512
8 1261 1381 1513 1394 1133 1250 1382 1262
8 1135 1252 1384 1263 1261 1381 1513 1394
8 1382 1262 1134 1251 1514 1393 1260 1383
8 1253 1136 1263 1384 1386 1264 1395 1516
8 1253 1136 1264 1386 1385 1256 1389 1517
8 1387 1265 1397 1519 1258 1141 1269 1391
8 1276 1150 1277 1406 1387 1265 1397 1519
8 1256 1139 1267 1389 1388 1266 1398 1520
8 1264 1147 1274 1396 1389 1267 1399 1521
8 1392 1270 1143 1260 1522 1400 1268 1390
8 1390 1268 1142 1259 1522 1400 1269 1391
8 1392 1270 1401 1523 1260 1143 1271 1393
8 1272 1394 1524 1402 1145 1262 1393 1271
8 1395 1273 1146 1263 1524 1402 1272 1394
8 1273 1395 1264 1147 1403 1526 1396 1274
8 1405 1276 1160 1282 1534 1406 1286 1411
8 1414 1287 1407 1535 1286 1162 1277 1406
8 1279 1159 1283 1408 1409 1285 1412 1537
8 1418 1292 1412 1537 1290 1165 1283 1408
8 1280 1158 1285 1409 1410 1284 1413 1538
8 1410 1284 1413 1538 1282 1160 1286 1411
8 1285 1163 1289 1412 1413 1288 1417 1540
8 1421 1296 1417 1540 1292 1167 1289 1412
8 1414 1287 1162 1286 1541 1416 1288 1413
8 1420 1294 1421 1545 1291 1166 1292 1418
8 1419 1293 1172 1305 1546 1422 1303 1437
8 1420 1294 1166 1291 1547 1423 1293 1419
8 1294 1169 1297 1423 1421 1296 1425 1548
8 1423 1297 1168 1293 1549 1424 1295 1422
8 1301 1170 1298 1427 1422 1295 1424 1549
8 1432 1300 1428 1554 1301 1170 1298 1427
8 1431 1299 1428 1554 1560 1430 1300 1432
8 1563 1433 1300 1432 1435 1302 1170 1301
8 1546 1422 1303 1437 1434 1301 1435 1565
8 1303 1171 1304 1438 1435 1302 1436 1566
8 1305 1172 1306 1440 1437 1303 1438 1568
8 1306 1173 1307 1441 1438 1304 1439 1569
8 1308 1175 1309 1443 1440 1306 1441 1571
8 1309 1176 1310 1444 1441 1307 1442 1572
8 1311 1178 1312 1446 1443 1309 1444 1574
8 1179 1312 1444 1310 1313 1447 1575 1445
8 1314 1181 1315 1448 1446 1312 1447 1576
8 1350 1213 1349 1486 1451 1317 1449 1579
8 1451 1317 1450 1581 1319 1186 1318 1453
8 1454 1319 1214 1351 1582 1451 1350 1487
8 1453 1318 1452 1584 1321 1187 1320 1456
8 1454 1319 1453 1585 1344 1208 1321 1457
8 1456 1320 1455 1586 1323 1189 1324 1459
8 1457 1321 1456 1587 1322 1188 1323 1458
8 1458 1323 1459 1588 1325 1191 1326 1460
8 1205 1336 1464 1329 1328 1462 1590 1461
8 1507 1373 1461 1590 1374 1242 1328 1462
8 1508 1374 1462 1591 1375 1243 1335 1467
8 1337 1206 1329 1464 1473 1341 1463 1594
8 1375 1243 1335 1467 1465 1333 1470 1596
8 1465 1333 1470 1596 1331 1200 1334 1466
8 1352 1227 1334 1466 1488 1360 1470 1596
8 1591 1462 1336 1468 1467 1335 1471 1597
8 1469 1337 1472 1598 1595 1464 1336 1468
8 1471 1339 1474 1600 1335 1204 1338 1470
8 1600 1474 1367 1496 1470 1338 1235 1360
8 1336 1205 1340 1472 1471 1339 1475 1601
8 1337 1206 1341 1473 1472 1340 1476 1602
8 1495 1370 1478 1609 1361 1239 1342 1479
8 1348 1212 1342 1479 1483 1347 1478 1609
8 1481 1346 1479 1610 1345 1210 1343 1480
8 1481 1346 1228 1359 1610 1479 1361 1494
8 1484 1348 1214 1351 1610 1479 1343 1480
8 1483 1347 1482 1612 1350 1213 1349 1486
8 1484 1348 1483 1613 1351 1214 1350 1487
8 1353 1230 1360 1488 1489 1363 1496 1616
8 1490 1364 1231 1354 1617 1499 1363 1489
8 1490 1364 1499 1617 1355 1232 1365 1491
8 1356 1234 1365 1491 1492 1366 1500 1619
8 1492 1366 1498 1620 1357 1233 1362 1493
8 1494 1361 1228 1359 1621 1497 1362 1493
8 1495 1370 1239 1361 1622 1504 1371 1497
8 1363 1236 1367 1496 1499 1368 1501 1623
8 1497 1371 1240 1362 1624 1505 1372 1498
8 1625 1503 1372 1498 1500 1369 1241 1366
8 1365 1238 1368 1499 1500 1369 1502 1626
8 1520 1398 1506 1633 1388 1266 1373 1507
8 1634 1507 1374 1508 1512 1388 1255 1380
8 1509 1387 1519 1635 1377 1258 1391 1510
8 1405 1276 1406 1534 1509 1387 1519 1635
8 1515 1392 1260 1383 1636 1522 1390 1511
8 1511 1390 1259 1379 1636 1522 1391 1510
8 1385 1256 1389 1517 1512 1388 1520 1637
8 1513 1394 1262 1382 1638 1524 1393 1514
8 1395 1516 1638 1524 1263 1384 1513 1394
8 1515 1392 1523 1639 1383 1260 1393 1514
8 1516 1395 1526 1640 1386 1264 1396 1518
8 1386 1264 1396 1518 1517 1389 1521 1641
8 1519 1397 1527 1643 1391 1269 1400 1522
8 1535 1407 1527 1643 1406 1277 1397 1519
8 1389 1267 1399 1521 1520 1398 1528 1644
8 1645 1529 1399 1521 1525 1404 1274 1396
8 1392 1270 1400 1522 1523 1401 1531 1646
8 1524 1402 1271 1393 1648 1532 1401 1523
8 1403 1526 1648 1532 1273 1395 1524 1402
8 1525 1404 1274 1396 1649 1533 1403 1526
8 1539 1414 1535 1657 1411 1286 1406 1534
8 1542 1415 1536 1658 1414 1287 1407 1535
8 1409 1285 1412 1537 1538 1413 1540 1660
8 1545 1421 1540 1660 1418 1292 1412 1537
8 1539 1414 1286 1411 1661 1541 1413 1538
8 1540 1417 1544 1663 1413 1288 1416 1541
8 1421 1296 1425 1548 1540 1417 1544 1663
8 1542 1415 1287 1414 1664 1543 1416 1541
8 1420 1294 1423 1547 1545 1421 1548 1666
8 1547 1423 1293 1419 1667 1549 1422 1546
8 1434 1301 1427 1553 1546 1422 1549 1667
8 1423 1297 1424 1549 1548 1425 1550 1668
8 1551 1426 1550 1668 1427 1298 1424 1549
8 1551 1426 1298 1427 1671 1552 1428 1554
8 1562 1432 1554 1674 1434 1301 1427 1553
8 1431 1299 1429 1558 1554 1428 1555 1675
8 1431 1299 1430 1560 1558 1429 1557 1680
8 1560 1430 1300 1432 1683 1559 1433 1563
8 1561 1431 1554 1674 1684 1560 1432 1562
8 1685 1563 1432 1562 1565 1435 1301 1434
8 1435 1302 1436 1566 1563 1433 1564 1686
8 1437 1303 1438 1568 1565 1435 1566 1688
8 1438 1304 1439 1569 1566 1436 1567 1689
8 1440 1306 1441 1571 1568 1438 1569 1691
8 1441 1307 1442 1572 1569 1439 1570 1692
8 1443 1309 1444 1574 1571 1441 1572 1694
8 1310 1444 1572 1442 1445 1575 1695 1573
8 1446 1312 1447 1576 1574 1444 1575 1696
8 1486 1349 1485 1614 1579 1449 1577 1699
8 1451 1317 1449 1579 1581 1450 1578 1701
8 1487 1350 1486 1615 1582 1451 1579 1702
8 1581 1450 1580 1704 1453 1318 1452 1584
8 1582 1451 1581 1705 1454 1319 1453 1585
8 1584 1452 1583 1706 1456 1320 1455 1586
8 1585 1453 1584 1707 1457 1321 1456 1587
8 1587 1456 1586 1708 1458 1323 1459 1588
8 1633 1506 1589 1710 1507 1373 1461 1590
8 1464 1329 1461 1590 1594 1463 1589 1710
8 1468 1336 1462 1591 1595 1464 1590 1711
8 1634 1507 1590 1711 1508 1374 1462 1591
8 1473 1341 1463 1594 1603 1477 1593 1716
8 1469 1337 1464 1595 1599 1473 1594 1717
8 1471 1597 1467 1335 1600 1718 1596 1470
8 1718 1600 1496 1616 1596 1470 1360 1488
8 1336 1468 1597 1471 1472 1598 1719 1601
8 1469 1337 1473 1599 1598 1472 1602 1720
8 1722 1604 1501 1623 1600 1474 1367 1496
8 1475 1601 1471 1339 1604 1722 1600 1474
8 1602 1476 1605 1723 1472 1340 1475 1601
8 1476 1602 1724 1606 1341 1473 1603 1477
8 1483 1347 1478 1609 1612 1482 1608 1731
8 1495 1370 1504 1622 1609 1478 1608 1731
8 1618 1495 1609 1732 1494 1361 1479 1610
8 1484 1348 1479 1610 1613 1483 1609 1732
8 1486 1349 1482 1612 1614 1485 1611 1733
8 1613 1483 1612 1734 1487 1350 1486 1615
8 1489 1363 1496 1616 1617 1499 1623 1736
8 1491 1365 1499 1617 1619 1500 1626 1737
8 1618 1495 1361 1494 1738 1622 1497 1621
8 1739 1625 1498 1620 1619 1500 1366 1492
8 1621 1497 1362 1493 1740 1624 1498 1620
8 1742 1631 1504 1622 1624 1505 1371 1497
8 1743 1628 1502 1626 1623 1501 1368 1499
8 1744 1630 1505 1624 1625 1503 1372 1498
8 1745 1629 1503 1625 1626 1502 1369 1500
8 1520 1398 1528 1644 1633 1506 1632 1751
8 1637 1520 1633 1752 1512 1388 1507 1634
8 1635 1519 1643 1753 1510 1391 1522 1636
8 1657 1535 1643 1753 1534 1406 1519 1635
8 1515 1392 1522 1636 1639 1523 1646 1754
8 1517 1389 1521 1641 1637 1520 1644 1755
8 1524 1638 1756 1648 1393 1514 1639 1523
8 1640 1526 1395 1516 1756 1648 1524 1638
8 1642 1525 1396 1518 1757 1649 1526 1640
8 1758 1645 1521 1641 1642 1525 1396 1518
8 1646 1531 1400 1522 1760 1650 1527 1643
8 1535 1407 1536 1658 1643 1527 1650 1760
8 1521 1399 1529 1645 1644 1528 1651 1761
8 1647 1530 1652 1762 1525 1404 1529 1645
8 1401 1523 1648 1532 1531 1646 1763 1655
8 1525 1404 1533 1649 1647 1530 1654 1765
8 1533 1649 1766 1656 1403 1526 1648 1532
8 1662 1542 1658 1774 1539 1414 1535 1657
8 1542 1415 1543 1664 1658 1536 1659 1775
8 1660 1540 1663 1777 1538 1413 1541 1661
8 1545 1421 1548 1666 1660 1540 1663 1777
8 1662 1542 1414 1539 1778 1664 1541 1661
8 1664 1543 1416 1541 1779 1665 1544 1663
8 1548 1425 1550 1668 1663 1544 1665 1779
8 1547 1423 1549 1667 1666 1548 1668 1781
8 1670 1551 1668 1781 1553 1427 1549 1667
8 1551 1426 1552 1671 1668 1550 1669 1782
8 1670 1551 1427 1553 1784 1671 1554 1674
8 1675 1555 1672 1785 1554 1428 1552 1671
8 1678 1556 1673 1789 1558 1429 1555 1675
8 1561 1431 1558 1681 1674 1554 1675 1790
8 1794 1677 1556 1678 1680 1557 1429 1558
8 1560 1430 1559 1683 1680 1557 1679 1797
8 1561 1431 1560 1684 1681 1558 1680 1798
8 1563 1433 1564 1686 1683 1559 1682 1800
8 1684 1560 1432 1562 1801 1683 1563 1685
8 1565 1435 1566 1688 1685 1563 1686 1802
8 1566 1436 1567 1689 1686 1564 1687 1803
8 1568 1438 1569 1691 1688 1566 1689 1805
8 1569 1439 1570 1692 1689 1567 1690 1806
8 1571 1441 1572 1694 1691 1569 1692 1808
8 1442 1572 1692 1570 1573 1695 1809 1693
8 1574 1444 1575 1696 1694 1572 1695 1810
8 1614 1485 1592 1712 1699 1577 1697 1813
8 1579 1449 1577 1699 1701 1578 1698 1815
8 1615 1486 1614 1735 1702 1579 1699 1816
8 1701 1578 1700 1818 1581 1450 1580 1704
8 1582 1451 1579 1702 1705 1581 1701 1819
8 1704 1580 1703 1820 1584 1452 1583 1706
8 1705 1581 1704 1821 1585 1453 1584 1707
8 1707 1584 1706 1822 1587 1456 1586 1708
8 1710 1589 1506 1633 1824 1709 1632 1751
8 1594 1463 1589 1710 1716 1593 1709 1824
8 1752 1633 1710 1825 1634 1507 1590 1711
8 1595 1464 1590 1711 1717 1594 1710 1825
8 1830 1714 1592 1712 1733 1611 1485 1614
8 1603 1477 1593 1716 1725 1607 1715 1834
8 1599 1473 1594 1717 1721 1603 1716 1835
8 1837 1722 1623 1736 1718 1600 1496 1616
8 1719 1601 1722 1837 1597 1471 1600 1718
8 1602 1720 1598 1472 1723 1838 1719 1601
8 1720 1602 1473 1599 1839 1724 1603 1721
8 1723 1605 1726 1840 1601 1475 1604 1722
8 1840 1726 1628 1743 1722 1604 1501 1623
8 1724 1606 1727 1841 1602 1476 1605 1723
8 1725 1607 1728 1842 1603 1477 1606 1724
8 1612 1482 1608 1731 1733 1611 1730 1849
8 1741 1627 1730 1849 1622 1504 1608 1731
8 1613 1483 1609 1732 1734 1612 1731 1850
8 1618 1495 1622 1738 1732 1609 1731 1850
8 1615 1486 1612 1734 1735 1614 1733 1851
8 1852 1743 1626 1737 1736 1623 1499 1617
8 1853 1745 1625 1739 1737 1626 1500 1619
8 1855 1742 1622 1738 1740 1624 1497 1621
8 1856 1744 1624 1740 1739 1625 1498 1620
8 1741 1627 1504 1622 1857 1746 1631 1742
8 1742 1631 1505 1624 1858 1749 1630 1744
8 1859 1747 1629 1745 1743 1628 1502 1626
8 1860 1748 1630 1744 1745 1629 1503 1625
8 1644 1528 1651 1761 1751 1632 1750 1865
8 1637 1520 1644 1755 1752 1633 1751 1866
8 1754 1646 1522 1636 1867 1760 1643 1753
8 1657 1535 1658 1774 1753 1643 1760 1867
8 1639 1523 1646 1754 1756 1648 1763 1868
8 1641 1521 1645 1758 1755 1644 1761 1869
8 1757 1649 1526 1640 1870 1766 1648 1756
8 1642 1525 1649 1757 1759 1647 1765 1871
8 1759 1647 1762 1872 1642 1525 1645 1758
8 1760 1650 1767 1874 1646 1531 1655 1763
8 1658 1536 1659 1775 1760 1650 1767 1874
8 1762 1652 1768 1875 1645 1529 1651 1761
8 1764 1653 1769 1876 1647 1530 1652 1762
8 1656 1766 1877 1773 1532 1648 1763 1655
8 1771 1879 1765 1654 1653 1764 1647 1530
8 1533 1649 1765 1654 1656 1766 1880 1772
8 1662 1542 1664 1778 1774 1658 1775 1887
8 1664 1543 1665 1779 1775 1659 1776 1888
8 1778 1664 1541 1661 1890 1779 1663 1777
8 1666 1548 1668 1781 1777 1663 1779 1890
8 1782 1669 1780 1891 1668 1550 1665 1779
8 1670 1551 1671 1784 1781 1668 1782 1893
8 1671 1552 1672 1785 1782 1669 1783 1894
8 1790 1675 1785 1896 1674 1554 1671 1784
8 1675 1555 1673 1789 1785 1672 1786 1897
8 1792 1676 1788 1903 1678 1556 1673 1789
8 1795 1678 1789 1904 1681 1558 1675 1790
8 1792 1676 1556 1678 1906 1791 1677 1794
8 1680 1557 1679 1797 1794 1677 1793 1909
8 1910 1794 1678 1795 1798 1680 1558 1681
8 1683 1559 1682 1800 1797 1679 1796 1912
8 1684 1560 1683 1801 1798 1680 1797 1913
8 1686 1564 1687 1803 1800 1682 1799 1915
8 1685 1563 1686 1802 1801 1683 1800 1916
8 1688 1566 1689 1805 1802 1686 1803 1917
8 1689 1567 1690 1806 1803 1687 1804 1918
8 1691 1569 1692 1808 1805 1689 1806 1920
8 1692 1570 1693 1809 1806 1690 1807 1921
8 1694 1572 1695 1810 1808 1692 1809 1922
8 1829 1713 1811 1926 1712 1592 1697 1813
8 1813 1697 1812 1928 1699 1577 1698 1815
8 1735 1614 1712 1828 1816 1699 1813 1929
8 1815 1698 1814 1931 1701 1578 1700 1818
8 1702 1579 1699 1816 1819 1701 1815 1932
8 1818 1700 1817 1933 1704 1580 1703 1820
8 1819 1701 1818 1934 1705 1581 1704 1821
8 1821 1704 1820 1935 1707 1584 1706 1822
8 1824 1709 1632 1751 1937 1823 1750 1865
8 1716 1593 1709 1824 1834 1715 1823 1937
8 1825 1710 1633 1752 1938 1824 1751 1866
8 1717 1594 1710 1825 1835 1716 1824 1938
8 1945 1830 1712 1828 1851 1733 1614 1735
8 1830 1714 1831 1946 1712 1592 1713 1829
8 1947 1832 1714 1830 1849 1730 1611 1733
8 1843 1729 1607 1725 1950 1833 1715 1834
8 1721 1603 1716 1835 1836 1725 1834 1951
8 1836 1725 1842 1953 1721 1603 1724 1839
8 1723 1838 1719 1601 1840 1954 1837 1722
8 1954 1840 1743 1852 1837 1722 1623 1736
8 1724 1839 1720 1602 1841 1955 1838 1723
8 1841 1727 1844 1956 1723 1605 1726 1840
8 1956 1844 1747 1859 1840 1726 1628 1743
8 1728 1842 1724 1606 1845 1957 1841 1727
8 1725 1607 1729 1843 1842 1728 1846 1958
8 1741 1627 1746 1857 1849 1730 1848 1965
8 1734 1612 1731 1850 1851 1733 1849 1966
8 1854 1741 1849 1966 1738 1622 1731 1850
8 1967 1859 1745 1853 1852 1743 1626 1737
8 1968 1860 1744 1856 1853 1745 1625 1739
8 1854 1741 1622 1738 1969 1857 1742 1855
8 1855 1742 1624 1740 1970 1858 1744 1856
8 1857 1746 1631 1742 1971 1861 1749 1858
8 1858 1749 1630 1744 1972 1863 1748 1860
8 1859 1747 1862 1973 1745 1629 1748 1860
8 1875 1768 1864 1977 1761 1651 1750 1865
8 1755 1644 1761 1869 1866 1751 1865 1978
8 1867 1760 1874 1979 1754 1646 1763 1868
8 1774 1658 1775 1887 1867 1760 1874 1979
8 1870 1766 1648 1756 1980 1877 1763 1868
8 1872 1762 1875 1981 1758 1645 1761 1869
8 1757 1649 1766 1870 1871 1765 1880 1982
8 1983 1879 1764 1873 1871 1765 1647 1759
8 1873 1764 1876 1984 1759 1647 1762 1872
8 1877 1773 1655 1763 1986 1881 1767 1874
8 1775 1659 1776 1888 1874 1767 1881 1986
8 1876 1769 1882 1987 1762 1652 1768 1875
8 1878 1770 1883 1988 1764 1653 1769 1876
8 1880 1772 1656 1766 1989 1886 1773 1877
8 1878 1770 1653 1764 1990 1884 1771 1879
8 1765 1654 1772 1880 1879 1771 1885 1991
8 1778 1664 1779 1890 1887 1775 1888 1997
8 1998 1889 1776 1888 1891 1780 1665 1779
8 1893 1782 1891 2000 1781 1668 1779 1890
8 1894 1783 1892 2001 1782 1669 1780 1891
8 1784 1671 1785 1896 1893 1782 1894 2003
8 1897 1786 1895 2004 1785 1672 1783 1894
8 1790 1675 1789 1904 1896 1785 1897 2006
8 1901 1787 1898 2007 1789 1673 1786 1897
8 1903 1788 1900 2013 1789 1673 1787 1901
8 1792 1676 1791 1906 1903 1788 1902 2016
8 1907 1792 1903 2017 1795 1678 1789 1904
8 1906 1791 1677 1794 2019 1905 1793 1909
8 1907 1792 1678 1795 2020 1906 1794 1910
8 1797 1679 1796 1912 1909 1793 1908 2022
8 1798 1680 1797 1913 1910 1794 1909 2023
8 1800 1682 1799 1915 1912 1796 1911 2025
8 1801 1683 1800 1916 1913 1797 1912 2026
8 1803 1687 1804 1918 1915 1799 1914 2028
8 1802 1686 1803 1917 1916 1800 1915 2029
8 1805 1689 1806 1920 1917 1803 1918 2030
8 1806 1690 1807 1921 1918 1804 1919 2031
8 1808 1692 1809 1922 1920 1806 1921 2032
8 1939 1826 1924 2037 1829 1713 1811 1926
8 1926 1811 1925 2039 1813 1697 1812 1928
8 1944 1829 1926 2040 1828 1712 1813 1929
8 1928 1812 1927 2042 1815 1698 1814 1931
8 1929 1813 1928 2043 1816 1699 1815 1932
8 1931 1814 1930 2044 1818 1700 1817 1933
8 1932 1815 1931 2045 1819 1701 1818 1934
8 1934 1818 1933 2046 1821 1704 1820 1935
8 2048 1936 1823 1937 1977 1864 1750 1865
8 1950 1833 1715 1834 2048 1936 1823 1937
8 1938 1824 1751 1866 2049 1937 1865 1978
8 1835 1716 1824 1938 1951 1834 1937 2049
8 1939 1826 1713 1829 2053 1942 1831 1946
8 1940 1827 1923 2035 2053 1942 1826 1939
8 1945 1830 1946 2058 1828 1712 1829 1944
8 2059 1947 1830 1945 1966 1849 1733 1851
8 1947 1832 1730 1849 2060 1948 1848 1965
8 1947 1832 1948 2060 1830 1714 1831 1946
8 1959 1847 1729 1843 2063 1949 1833 1950
8 1952 1843 1725 1836 2064 1950 1834 1951
8 1836 1725 1843 1952 1953 1842 1958 2066
8 1953 1842 1957 2067 1839 1724 1841 1955
8 1841 1955 1838 1723 1956 2068 1954 1840
8 2068 1956 1859 1967 1954 1840 1743 1852
8 1956 1844 1960 2069 1859 1747 1862 1973
8 1845 1957 1841 1727 1960 2069 1956 1844
8 1728 1842 1957 1845 1846 1958 2071 1961
8 1962 2072 1959 1847 1846 1958 1843 1729
8 1971 1861 1964 2077 1857 1746 1848 1965
8 1854 1741 1857 1969 1966 1849 1965 2078
8 1967 1859 1973 2079 1853 1745 1860 1968
8 1970 1858 1744 1856 2080 1972 1860 1968
8 1969 1857 1742 1855 2081 1971 1858 1970
8 1971 1861 1749 1858 2082 1974 1863 1972
8 1973 1862 1975 2083 1860 1748 1863 1972
8 1987 1882 1976 2086 1875 1768 1864 1977
8 1981 1875 1977 2087 1869 1761 1865 1978
8 1980 1877 1763 1868 2088 1986 1874 1979
8 1887 1775 1888 1997 1979 1874 1986 2088
8 1880 1982 2089 1989 1766 1870 1980 1877
8 1984 1876 1987 2090 1872 1762 1875 1981
8 1765 1871 1983 1879 1880 1982 2091 1991
8 1985 1878 1764 1873 2092 1990 1879 1983
8 1985 1878 1988 2093 1873 1764 1876 1984
8 2094 1992 1881 1986 1998 1889 1776 1888
8 1986 1881 1992 2094 1877 1773 1886 1989
8 1988 1883 1993 2095 1876 1769 1882 1987
8 1878 1770 1884 1990 1988 1883 1994 2096
8 1991 1885 1772 1880 2097 1996 1886 1989
8 1879 1771 1885 1991 1990 1884 1995 2098
8 2103 1998 1888 1997 2000 1891 1779 1890
8 2104 1999 1889 1998 2001 1892 1780 1891
8 2003 1894 2001 2106 1893 1782 1891 2000
8 2004 1895 2002 2107 1894 1783 1892 2001
8 2006 1897 2004 2109 1896 1785 1894 2003
8 2007 1898 2005 2110 1897 1786 1895 2004
8 2014 1901 2007 2112 1904 1789 1897 2006
8 2011 1899 2008 2113 1901 1787 1898 2007
8 2119 2010 1899 2011 2013 1900 1787 1901
8 2016 1902 2012 2122 1903 1788 1900 2013
8 2017 1903 2013 2123 1904 1789 1901 2014
8 1906 1791 1905 2019 2016 1902 2015 2125
8 1907 1792 1906 2020 2017 1903 2016 2126
8 1909 1793 1908 2022 2019 1905 2018 2128
8 2020 1906 1794 1910 2129 2019 1909 2023
8 1912 1796 1911 2025 2022 1908 2021 2131
8 1913 1797 1912 2026 2023 1909 2022 2132
8 1915 1799 1914 2028 2025 1911 2024 2134
8 1916 1800 1915 2029 2026 1912 2025 2135
8 1918 1804 1919 2031 2028 1914 2027 2136
8 1917 1803 1918 2030 2029 1915 2028 2137
8 1920 1806 1921 2032 2030 1918 2031 2138
8 1940 1827 1941 2054 2035 1923 2033 2140
8 2035 1923 2034 2143 1939 1826 1924 2037
8 2037 1924 2036 2146 1926 1811 1925 2039
8 2051 1939 2037 2147 1944 1829 1926 2040
8 2039 1925 2038 2149 1928 1812 1927 2042
8 2040 1926 2039 2150 1929 1813 1928 2043
8 2042 1927 2041 2151 1931 1814 1930 2044
8 2043 1928 2042 2152 1932 1815 1931 2045
8 2045 1931 2044 2153 1934 1818 1933 2046
8 2155 2047 1936 2048 2086 1976 1864 1977
8 2063 1949 1833 1950 2155 2047 1936 2048
8 2156 2048 1937 2049 2087 1977 1865 1978
8 2064 1950 1834 1951 2156 2048 1937 2049
8 2051 1939 1829 1944 2160 2053 1946 2058
8 2052 1940 2035 2144 2160 2053 1939 2051
8 2053 1942 1831 1946 2163 2057 1948 2060
8 2055 1943 1827 1940 2163 2057 1942 2053
8 2055 1943 2056 2164 1940 1827 1941 2054
8 2059 1947 1849 1966 2167 2060 1965 2078
8 2059 1947 2060 2167 1945 1830 1946 2058
8 2077 1964 2061 2168 1965 1848 1948 2060
8 2070 1963 1847 1959 2170 2062 1949 2063
8 2065 1959 1843 1952 2171 2063 1950 2064
8 2173 2072 1958 2066 2065 1959 1843 1952
8 1953 1842 1958 2066 2067 1957 2071 2174
8 2068 1956 2069 2175 1967 1859 1973 2079
8 2067 1957 2069 2175 1955 1841 1956 2068
8 1845 1957 2069 1960 1961 2071 2176 2073
8 2069 1960 2073 2176 1973 1862 1975 2083
8 2070 1963 2075 2177 1959 1847 1962 2072
8 1846 1958 2071 1961 1962 2072 2178 2074
8 2077 1964 1861 1971 2182 2076 1974 2082
8 2081 1971 2077 2183 1969 1857 1965 2078
8 2079 1973 2083 2184 1968 1860 1972 2080
8 2081 1971 1858 1970 2185 2082 1972 2080
8 2083 1975 2084 2186 1972 1863 1974 2082
8 2086 1976 1882 1987 2189 2085 1993 2095
8 2090 1987 2086 2190 1981 1875 1977 2087
8 2191 2094 1986 2088 2103 1998 1888 1997
8 2088 1986 2094 2191 1980 1877 1989 2089
8 1991 2091 2192 2097 1880 1982 2089 1989
8 2093 1988 2095 2193 1984 1876 1987 2090
8 1879 1983 2092 1990 1991 2091 2194 2098
8 1985 1878 1990 2092 2093 1988 2096 2195
8 2097 1996 1886 1989 2196 2099 1992 2094
8 2196 2099 1992 2094 2104 1999 1889 1998
8 1994 2096 1988 1883 2100 2197 2095 1993
8 2096 1994 1884 1990 2198 2101 1995 2098
8 1995 2098 2199 2102 1885 1991 2097 1996
8 2203 2104 1998 2103 2106 2001 1891 2000
8 2107 2002 2105 2204 2001 1892 1999 2104
8 2109 2004 2107 2206 2003 1894 2001 2106
8 2110 2005 2108 2207 2004 1895 2002 2107
8 2112 2007 2110 2209 2006 1897 2004 2109
8 2113 2008 2111 2210 2007 1898 2005 2110
8 2120 2011 2113 2212 2014 1901 2007 2112
8 2117 2009 2114 2213 2011 1899 2008 2113
8 2219 2116 2009 2117 2119 2010 1899 2011
8 2222 2118 2010 2119 2122 2012 1900 2013
8 2223 2119 2011 2120 2123 2013 1901 2014
8 2016 1902 2015 2125 2122 2012 2121 2225
8 2126 2016 2122 2226 2017 1903 2013 2123
8 2019 1905 2018 2128 2125 2015 2124 2228
8 2020 1906 2019 2129 2126 2016 2125 2229
8 2022 1908 2021 2131 2128 2018 2127 2231
8 2023 1909 2022 2132 2129 2019 2128 2232
8 2025 1911 2024 2134 2131 2021 2130 2234
8 2026 1912 2025 2135 2132 2022 2131 2235
8 1914 2028 2134 2024 2027 2136 2236 2133
8 2029 1915 2028 2137 2135 2025 2134 2237
8 2030 1918 2031 2138 2137 2028 2136 2238
8 2157 2050 2139 2240 2054 1941 2033 2140
8 2052 1940 2054 2161 2144 2035 2140 2242
8 2140 2033 2141 2243 2035 1923 2034 2143
8 2143 2034 2142 2246 2037 1924 2036 2146
8 2144 2035 2143 2247 2051 1939 2037 2147
8 2146 2036 2145 2249 2039 1925 2038 2149
8 2147 2037 2146 2250 2040 1926 2039 2150
8 2149 2038 2148 2251 2042 1927 2041 2151
8 2150 2039 2149 2252 2043 1928 2042 2152
8 2152 2042 2151 2253 2045 1931 2044 2153
8 2255 2154 2047 2155 2189 2085 1976 2086
8 2170 2062 1949 2063 2255 2154 2047 2155
8 2256 2155 2048 2156 2190 2086 1977 2087
8 2171 2063 1950 2064 2256 2155 2048 2156
8 2258 2159 2050 2157 2164 2056 1941 2054
8 2160 2053 1946 2058 2262 2163 2060 2167
8 2162 2055 1940 2052 2262 2163 2053 2160
8 2162 2055 2164 2263 2052 1940 2054 2161
8 2163 2057 1948 2060 2264 2165 2061 2168
8 2055 1943 2057 2163 2164 2056 2165 2264
8 2182 2076 2166 2268 2077 1964 2061 2168
8 2183 2077 2168 2269 2078 1965 2060 2167
8 2070 1963 2062 2170 2177 2075 2169 2271
8 2172 2070 1959 2065 2272 2170 2063 2171
8 2172 2070 2177 2273 2065 1959 2072 2173
8 2066 1958 2072 2173 2174 2071 2178 2274
8 2067 1957 2071 2174 2175 2069 2176 2275
8 2175 2069 2176 2275 2079 1973 2083 2184
8 2071 1961 2074 2178 2176 2073 2179 2276
8 2176 2073 2179 2276 2083 1975 2084 2186
8 2072 1962 2075 2177 2178 2074 2180 2277
8 2182 2076 1974 2082 2280 2181 2084 2186
8 2183 2077 1971 2081 2281 2182 2082 2185
8 2184 2083 2186 2282 2080 1972 2082 2185
8 2189 2085 1993 2095 2285 2188 2100 2197
8 2190 2086 1987 2090 2286 2189 2095 2193
8 2192 2097 1989 2089 2287 2196 2094 2191
8 2287 2196 2094 2191 2203 2104 1998 2103
8 2194 2098 1991 2091 2288 2199 2097 2192
8 2195 2096 2197 2289 2093 1988 2095 2193
8 2096 2195 2290 2198 1990 2092 2194 2098
8 2097 1996 2099 2196 2199 2102 2200 2291
8 2196 2099 1999 2104 2291 2200 2105 2204
8 2100 2197 2292 2201 1994 2096 2198 2101
8 1995 2098 2198 2101 2102 2199 2293 2202
8 2206 2107 2204 2296 2106 2001 2104 2203
8 2207 2108 2205 2297 2107 2002 2105 2204
8 2209 2110 2207 2299 2109 2004 2107 2206
8 2210 2111 2208 2300 2110 2005 2108 2207
8 2212 2113 2210 2302 2112 2007 2110 2209
8 2213 2114 2211 2303 2113 2008 2111 2210
8 2220 2117 2213 2305 2120 2011 2113 2212
8 2216 2115 2214 2306 2117 2009 2114 2213
8 2216 2115 2009 2117 2311 2217 2116 2219
8 2219 2116 2010 2119 2314 2218 2118 2222
8 2315 2219 2117 2220 2223 2119 2011 2120
8 2122 2012 2121 2225 2222 2118 2221 2317
8 2318 2222 2119 2223 2226 2122 2013 2123
8 2125 2015 2124 2228 2225 2121 2224 2320
8 2126 2016 2125 2229 2226 2122 2225 2321
8 2128 2018 2127 2231 2228 2124 2227 2323
8 2129 2019 2128 2232 2229 2125 2228 2324
8 2131 2021 2130 2234 2231 2127 2230 2326
8 2132 2022 2131 2235 2232 2128 2231 2327
8 2134 2024 2133 2236 2234 2130 2233 2328
8 2135 2025 2134 2237 2235 2131 2234 2329
8 2137 2028 2136 2238 2237 2134 2236 2330
8 2157 2050 2158 2259 2240 2139 2239 2332
8 2257 2157 2240 2334 2161 2054 2140 2242
8 2240 2139 2241 2335 2140 2033 2141 2243
8 2242 2140 2243 2337 2144 2035 2143 2247
8 2243 2141 2244 2338 2143 2034 2142 2246
8 2246 2142 2245 2341 2146 2036 2145 2249
8 2247 2143 2246 2342 2147 2037 2146 2250
8 2249 2145 2248 2343 2149 2038 2148 2251
8 2250 2146 2249 2344 2150 2039 2149 2252
8 2252 2149 2251 2345 2152 2042 2151 2253
8 2169 2271 2347 2254 2062 2170 2255 2154
8 2189 2085 2188 2285 2255 2154 2254 2347
8 2348 2255 2155 2256 2286 2189 2086 2190
8 2272 2170 2063 2171 2348 2255 2155 2256
8 2349 2258 2157 2257 2263 2164 2054 2161
8 2258 2159 2261 2351 2157 2050 2158 2259
8 2258 2159 2056 2164 2351 2261 2165 2264
8 2262 2163 2060 2167 2355 2264 2168 2269
8 2162 2055 2163 2262 2263 2164 2264 2355
8 2357 2266 2165 2264 2268 2166 2061 2168
8 2268 2166 2076 2182 2361 2267 2181 2280
8 2281 2182 2268 2362 2183 2077 2168 2269
8 2271 2169 2270 2364 2177 2075 2180 2277
8 2172 2070 2170 2272 2273 2177 2271 2365
8 2072 2173 2274 2178 2177 2273 2366 2277
8 2071 2174 2275 2176 2178 2274 2367 2276
8 2275 2176 2276 2367 2184 2083 2186 2282
8 2283 2187 2084 2186 2368 2278 2179 2276
8 2178 2074 2180 2277 2276 2179 2278 2368
8 2283 2187 2279 2370 2186 2084 2181 2280
8 2281 2182 2082 2185 2371 2280 2186 2282
8 2188 2285 2374 2284 2100 2197 2292 2201
8 2286 2189 2095 2193 2375 2285 2197 2289
8 2192 2097 2196 2287 2288 2199 2291 2376
8 2287 2196 2104 2203 2376 2291 2204 2296
8 2194 2098 2199 2288 2290 2198 2293 2377
8 2289 2197 2096 2195 2378 2292 2198 2290
8 2291 2200 2105 2204 2379 2294 2205 2297
8 2199 2102 2200 2291 2293 2202 2294 2379
8 2198 2101 2202 2293 2292 2201 2295 2380
8 2299 2207 2297 2383 2206 2107 2204 2296
8 2300 2208 2298 2384 2207 2108 2205 2297
8 2302 2210 2300 2386 2209 2110 2207 2299
8 2303 2211 2301 2387 2210 2111 2208 2300
8 2305 2213 2303 2389 2212 2113 2210 2302
8 2306 2214 2304 2390 2213 2114 2211 2303
8 2310 2216 2306 2392 2220 2117 2213 2305
8 2308 2215 2307 2393 2216 2115 2214 2306
8 2308 2215 2115 2216 2396 2309 2217 2311
8 2310 2216 2117 2220 2398 2311 2219 2315
8 2311 2217 2116 2219 2399 2312 2218 2314
8 2314 2218 2118 2222 2402 2313 2221 2317
8 2315 2219 2119 2223 2403 2314 2222 2318
8 2225 2121 2224 2320 2317 2221 2316 2405
8 2226 2122 2225 2321 2318 2222 2317 2406
8 2228 2124 2227 2323 2320 2224 2319 2408
8 2229 2125 2228 2324 2321 2225 2320 2409
8 2231 2127 2230 2326 2323 2227 2322 2411
8 2232 2128 2231 2327 2324 2228 2323 2412
8 2234 2130 2233 2328 2326 2230 2325 2413
8 2235 2131 2234 2329 2327 2231 2326 2414
8 2237 2134 2236 2330 2329 2234 2328 2415
8 2259 2158 2260 2352 2332 2239 2331 2417
8 2257 2157 2259 2350 2334 2240 2332 2419
8 2240 2139 2239 2332 2335 2241 2333 2420
8 2334 2240 2335 2422 2242 2140 2243 2337
8 2335 2241 2336 2423 2243 2141 2244 2338
8 2337 2243 2338 2425 2247 2143 2246 2342
8 2338 2244 2339 2426 2246 2142 2245 2341
8 2341 2245 2340 2428 2249 2145 2248 2343
8 2342 2246 2341 2429 2250 2146 2249 2344
8 2344 2249 2343 2430 2252 2149 2251 2345
8 2188 2285 2347 2254 2284 2374 2432 2346
8 2347 2254 2346 2432 2271 2169 2270 2364
8 2365 2271 2170 2272 2433 2347 2255 2348
8 2286 2189 2285 2375 2348 2255 2347 2433
8 2349 2258 2351 2435 2257 2157 2259 2350
8 2349 2258 2164 2263 2435 2351 2264 2355
8 2259 2158 2261 2351 2352 2260 2354 2437
8 2356 2265 2354 2437 2264 2165 2261 2351
8 2441 2357 2264 2355 2362 2268 2168 2269
8 2356 2265 2165 2264 2442 2358 2266 2357
8 2443 2359 2266 2357 2361 2267 2166 2268
8 2370 2279 2360 2446 2280 2181 2267 2361
8 2362 2268 2182 2281 2447 2361 2280 2371
8 2180 2277 2368 2278 2270 2364 2449 2363
8 2271 2365 2273 2177 2364 2450 2366 2277
8 2372 2283 2186 2282 2451 2368 2276 2367
8 2178 2274 2367 2276 2277 2366 2451 2368
8 2283 2187 2278 2368 2370 2279 2369 2452
8 2372 2283 2370 2453 2282 2186 2280 2371
8 2284 2374 2455 2373 2201 2292 2380 2295
8 2375 2285 2197 2289 2456 2374 2292 2378
8 2376 2291 2204 2296 2457 2379 2297 2383
8 2288 2199 2291 2376 2377 2293 2379 2457
8 2198 2290 2378 2292 2293 2377 2458 2380
8 2293 2202 2294 2379 2380 2295 2381 2459
8 2384 2298 2381 2459 2297 2205 2294 2379
8 2386 2300 2384 2463 2299 2207 2297 2383
8 2387 2301 2385 2464 2300 2208 2298 2384
8 2389 2303 2387 2466 2302 2210 2300 2386
8 2390 2304 2388 2467 2303 2211 2301 2387
8 2392 2306 2390 2469 2305 2213 2303 2389
8 2393 2307 2391 2470 2306 2214 2304 2390
8 2395 2308 2393 2472 2310 2216 2306 2392
8 2308 2215 2309 2396 2393 2307 2394 2473
8 2395 2308 2216 2310 2475 2396 2311 2398
8 2396 2309 2217 2311 2476 2397 2312 2399
8 2398 2311 2219 2315 2478 2399 2314 2403
8 2399 2312 2218 2314 2479 2400 2313 2402
8 2317 2221 2316 2405 2402 2313 2401 2482
8 2403 2314 2222 2318 2483 2402 2317 2406
8 2320 2224 2319 2408 2405 2316 2404 2485
8 2321 2225 2320 2409 2406 2317 2405 2486
8 2323 2227 2322 2411 2408 2319 2407 2488
8 2324 2228 2323 2412 2409 2320 2408 2489
8 2326 2230 2325 2413 2411 2322 2410 2490
8 2327 2231 2326 2414 2412 2323 2411 2491
8 2329 2234 2328 2415 2414 2326 2413 2492
8 2417 2331 2260 2352 2494 2416 2353 2438
8 2350 2259 2352 2436 2419 2332 2417 2496
8 2332 2239 2331 2417 2420 2333 2418 2497
8 2334 2240 2332 2419 2422 2335 2420 2499
8 2420 2333 2421 2500 2335 2241 2336 2423
8 2422 2335 2423 2502 2337 2243 2338 2425
8 2423 2336 2424 2503 2338 2244 2339 2426
8 2425 2338 2426 2505 2342 2246 2341 2429
8 2426 2339 2427 2506 2341 2245 2340 2428
8 2429 2341 2428 2507 2344 2249 2343 2430
8 2432 2346 2284 2374 2509 2431 2373 2455
8 2432 2346 2431 2509 2364 2270 2363 2449
8 2375 2285 2374 2456 2433 2347 2432 2510
8 2347 2433 2365 2271 2432 2510 2450 2364
8 2350 2259 2351 2435 2436 2352 2437 2514
8 2440 2356 2437 2514 2355 2264 2351 2435
8 2352 2260 2354 2437 2438 2353 2439 2516
8 2356 2265 2358 2442 2437 2354 2439 2516
8 2440 2356 2264 2355 2518 2442 2357 2441
8 2519 2443 2357 2441 2447 2361 2268 2362
8 2443 2359 2444 2520 2357 2266 2358 2442
8 2443 2359 2267 2361 2520 2444 2360 2446
8 2446 2360 2279 2370 2523 2445 2369 2452
8 2453 2370 2446 2524 2371 2280 2361 2447
8 2449 2363 2448 2525 2368 2278 2369 2452
8 2366 2277 2364 2450 2451 2368 2449 2526
8 2372 2283 2368 2451 2453 2370 2452 2527
8 2455 2373 2295 2380 2529 2454 2382 2460
8 2456 2374 2292 2378 2530 2455 2380 2458
8 2377 2293 2379 2457 2458 2380 2459 2531
8 2463 2384 2459 2531 2383 2297 2379 2457
8 2533 2461 2382 2460 2459 2381 2295 2380
8 2464 2385 2461 2533 2384 2298 2381 2459
8 2466 2387 2464 2537 2386 2300 2384 2463
8 2467 2388 2465 2538 2387 2301 2385 2464
8 2469 2390 2467 2540 2389 2303 2387 2466
8 2470 2391 2468 2541 2390 2304 2388 2467
8 2472 2393 2470 2543 2392 2306 2390 2469
8 2393 2307 2394 2473 2470 2391 2471 2544
8 2395 2308 2396 2475 2472 2393 2473 2546
8 2396 2309 2397 2476 2473 2394 2474 2547
8 2475 2396 2311 2398 2549 2476 2399 2478
8 2476 2397 2312 2399 2550 2477 2400 2479
8 2478 2399 2314 2403 2552 2479 2402 2483
8 2479 2400 2313 2402 2553 2480 2401 2482
8 2405 2316 2404 2485 2482 2401 2481 2556
8 2406 2317 2405 2486 2483 2402 2482 2557
8 2408 2319 2407 2488 2485 2404 2484 2559
8 2409 2320 2408 2489 2486 2405 2485 2560
8 2411 2322 2410 2490 2488 2407 2487 2561
8 2412 2323 2411 2491 2489 2408 2488 2562
8 2414 2326 2413 2492 2491 2411 2490 2563
8 2513 2434 2493 2565 2438 2353 2416 2494
8 2496 2417 2352 2436 2567 2494 2438 2515
8 2494 2416 2495 2568 2417 2331 2418 2497
8 2419 2332 2417 2496 2499 2420 2497 2570
8 2497 2418 2498 2571 2420 2333 2421 2500
8 2499 2420 2500 2573 2422 2335 2423 2502
8 2500 2421 2501 2574 2423 2336 2424 2503
8 2502 2423 2503 2576 2425 2338 2426 2505
8 2503 2424 2504 2577 2426 2339 2427 2506
8 2505 2426 2506 2578 2429 2341 2428 2507
8 2509 2431 2373 2455 2580 2508 2454 2529
8 2509 2431 2508 2580 2449 2363 2448 2525
8 2432 2510 2581 2509 2374 2456 2530 2455
8 2432 2510 2450 2364 2509 2581 2526 2449
8 2583 2511 2434 2513 2516 2439 2353 2438
8 2436 2352 2437 2514 2515 2438 2516 2588
8 2440 2356 2442 2518 2514 2437 2516 2588
8 2442 2358 2444 2520 2516 2439 2517 2589
8 2519 2443 2520 2591 2441 2357 2442 2518
8 2519 2443 2361 2447 2591 2520 2446 2524
8 2446 2360 2445 2523 2520 2444 2521 2592
8 2525 2448 2522 2593 2452 2369 2445 2523
8 2524 2446 2370 2453 2594 2523 2452 2527
8 2526 2449 2525 2595 2451 2368 2452 2527
8 2534 2462 2528 2597 2460 2382 2454 2529
8 2530 2455 2380 2458 2598 2529 2460 2532
8 2599 2533 2460 2532 2531 2459 2380 2458
8 2537 2464 2533 2599 2463 2384 2459 2531
8 2534 2462 2382 2460 2601 2535 2461 2533
8 2538 2465 2535 2601 2464 2385 2461 2533
8 2540 2467 2538 2604 2466 2387 2464 2537
8 2541 2468 2539 2605 2467 2388 2465 2538
8 2543 2470 2541 2607 2469 2390 2467 2540
8 2470 2391 2471 2544 2541 2468 2542 2608
8 2472 2393 2473 2546 2543 2470 2544 2610
8 2473 2394 2474 2547 2544 2471 2545 2611
8 2475 2396 2476 2549 2546 2473 2547 2613
8 2476 2397 2477 2550 2547 2474 2548 2614
8 2549 2476 2399 2478 2616 2550 2479 2552
8 2479 2400 2480 2553 2550 2477 2551 2617
8 2552 2479 2402 2483 2619 2553 2482 2557
8 2482 2401 2481 2556 2553 2480 2554 2620
8 2485 2404 2484 2559 2556 2481 2555 2623
8 2486 2405 2485 2560 2557 2482 2556 2624
8 2488 2407 2487 2561 2559 2484 2558 2625
8 2489 2408 2488 2562 2560 2485 2559 2626
8 2491 2411 2490 2563 2562 2488 2561 2627
8 2513 2434 2512 2585 2565 2493 2564 2630
8 2586 2513 2565 2632 2515 2438 2494 2567
8 2565 2493 2566 2633 2494 2416 2495 2568
8 2567 2494 2568 2635 2496 2417 2497 2570
8 2568 2495 2569 2636 2497 2418 2498 2571
8 2570 2497 2571 2638 2499 2420 2500 2573
8 2571 2498 2572 2639 2500 2421 2501 2574
8 2573 2500 2574 2641 2502 2423 2503 2576
8 2574 2501 2575 2642 2503 2424 2504 2577
8 2576 2503 2577 2643 2505 2426 2506 2578
8 2597 2528 2579 2645 2529 2454 2508 2580
8 2580 2508 2579 2645 2525 2448 2522 2593
8 2581 2509 2455 2530 2646 2580 2529 2598
8 2581 2509 2580 2646 2526 2449 2525 2595
8 2583 2511 2582 2648 2513 2434 2512 2585
8 2583 2511 2439 2516 2648 2582 2517 2589
8 2649 2583 2513 2586 2588 2516 2438 2515
8 2589 2517 2444 2520 2653 2587 2521 2592
8 2518 2442 2520 2591 2588 2516 2589 2654
8 2593 2522 2590 2655 2523 2445 2521 2592
8 2524 2446 2523 2594 2591 2520 2592 2656
8 2595 2525 2593 2657 2527 2452 2523 2594
8 2602 2536 2596 2659 2534 2462 2528 2597
8 2600 2534 2597 2660 2532 2460 2529 2598
8 2600 2534 2460 2532 2661 2601 2533 2599
8 2604 2538 2601 2661 2537 2464 2533 2599
8 2602 2536 2462 2534 2663 2603 2535 2601
8 2601 2535 2465 2538 2663 2603 2539 2605
8 2607 2541 2605 2665 2540 2467 2538 2604
8 2608 2542 2606 2666 2541 2468 2539 2605
8 2543 2470 2544 2610 2607 2541 2608 2668
8 2544 2471 2545 2611 2608 2542 2609 2669
8 2546 2473 2547 2613 2610 2544 2611 2671
8 2547 2474 2548 2614 2611 2545 2612 2672
8 2549 2476 2550 2616 2613 2547 2614 2674
8 2550 2477 2551 2617 2614 2548 2615 2675
8 2552 2479 2553 2619 2616 2550 2617 2677
8 2553 2480 2554 2620 2617 2551 2618 2678
8 2557 2482 2556 2624 2619 2553 2620 2680
8 2556 2481 2555 2623 2620 2554 2621 2681
8 2559 2484 2558 2625 2623 2555 2622 2683
8 2560 2485 2559 2626 2624 2556 2623 2684
8 2562 2488 2561 2627 2626 2559 2625 2685
8 2690 2629 2564 2630 2650 2584 2512 2585
8 2586 2513 2585 2651 2632 2565 2630 2691
8 2630 2564 2631 2692 2565 2493 2566 2633
8 2632 2565 2633 2694 2567 2494 2568 2635
8 2633 2566 2634 2695 2568 2495 2569 2636
8 2635 2568 2636 2697 2570 2497 2571 2638
8 2636 2569 2637 2698 2571 2498 2572 2639
8 2638 2571 2639 2700 2573 2500 2574 2641
8 2639 2572 2640 2701 2574 2501 2575 2642
8 2641 2574 2642 2702 2576 2503 2577 2643
8 2597 2528 2596 2659 2645 2579 2644 2704
8 2645 2579 2644 2704 2593 2522 2590 2655
8 2660 2597 2645 2705 2598 2529 2580 2646
8 2646 2580 2645 2705 2595 2525 2593 2657
8 2650 2584 2512 2585 2707 2647 2582 2648
8 2648 2582 2517 2589 2707 2647 2587 2653
8 2649 2583 2648 2708 2586 2513 2585 2651
8 2649 2583 2516 2588 2708 2648 2589 2654
8 2655 2590 2652 2710 2592 2521 2587 2653
8 2654 2589 2520 2591 2711 2653 2592 2656
8 2657 2593 2655 2712 2594 2523 2592 2656
8 2602 2536 2603 2663 2659 2596 2658 2714
8 2662 2602 2659 2715 2600 2534 2597 2660
8 2662 2602 2534 2600 2717 2663 2601 2661
8 2661 2601 2538 2604 2717 2663 2605 2665
8 2666 2606 2664 2718 2605 2539 2603 2663
8 2668 2608 2666 2720 2607 2541 2605 2665
8 2608 2542 2609 2669 2666 2606 2667 2721
8 2610 2544 2611 2671 2668 2608 2669 2723
8 2611 2545 2612 2672 2669 2609 2670 2724
8 2613 2547 2614 2674 2671 2611 2672 2726
8 2614 2548 2615 2675 2672 2612 2673 2727
8 2616 2550 2617 2677 2674 2614 2675 2729
8 2617 2551 2618 2678 2675 2615 2676 2730
8 2619 2553 2620 2680 2677 2617 2678 2732
8 2620 2554 2621 2681 2678 2618 2679 2733
8 2624 2556 2623 2684 2680 2620 2681 2735
8 2681 2621 2555 2623 2736 2682 2622 2683
8 2626 2559 2625 2685 2684 2623 2683 2737
8 2688 2628 2584 2650 2740 2686 2647 2707
8 2688 2628 2687 2742 2650 2584 2629 2690
8 2690 2629 2689 2745 2630 2564 2631 2692
8 2746 2690 2630 2691 2709 2650 2585 2651
8 2691 2630 2692 2747 2632 2565 2633 2694
8 2692 2631 2693 2748 2633 2566 2634 2695
8 2694 2633 2695 2750 2635 2568 2636 2697
8 2695 2634 2696 2751 2636 2569 2637 2698
8 2697 2636 2698 2753 2638 2571 2639 2700
8 2698 2637 2699 2754 2639 2572 2640 2701
8 2700 2639 2701 2755 2641 2574 2642 2702
8 2659 2596 2658 2714 2704 2644 2703 2757
8 2704 2644 2703 2757 2655 2590 2652 2710
8 2660 2597 2659 2715 2705 2645 2704 2758
8 2705 2645 2704 2758 2657 2593 2655 2712
8 2759 2706 2647 2707 2710 2652 2587 2653
8 2709 2650 2585 2651 2760 2707 2648 2708
8 2708 2648 2589 2654 2760 2707 2653 2711
8 2712 2655 2710 2761 2656 2592 2653 2711
8 2763 2713 2658 2714 2718 2664 2603 2663
8 2662 2602 2663 2717 2715 2659 2714 2764
8 2720 2666 2718 2767 2665 2605 2663 2717
8 2768 2719 2664 2718 2721 2667 2606 2666
8 2668 2608 2669 2723 2720 2666 2721 2770
8 2669 2609 2670 2724 2721 2667 2722 2771
8 2671 2611 2672 2726 2723 2669 2724 2773
8 2672 2612 2673 2727 2724 2670 2725 2774
8 2674 2614 2675 2729 2726 2672 2727 2776
8 2675 2615 2676 2730 2727 2673 2728 2777
8 2677 2617 2678 2732 2729 2675 2730 2779
8 2678 2618 2679 2733 2730 2676 2731 2780
8 2680 2620 2681 2735 2732 2678 2733 2782
8 2733 2679 2621 2681 2783 2734 2682 2736
8 2735 2681 2623 2684 2784 2736 2683 2737
8 2740 2686 2647 2707 2787 2738 2706 2759
8 2688 2628 2686 2740 2742 2687 2739 2789
8 2743 2688 2650 2709 2790 2740 2707 2760
8 2742 2687 2741 2792 2690 2629 2689 2745
8 2743 2688 2742 2793 2709 2650 2690 2746
8 2745 2689 2744 2795 2692 2631 2693 2748
8 2746 2690 2745 2796 2691 2630 2692 2747
8 2747 2692 2748 2797 2694 2633 2695 2750
8 2748 2693 2749 2798 2695 2634 2696 2751
8 2750 2695 2751 2800 2697 2636 2698 2753
8 2751 2696 2752 2801 2698 2637 2699 2754
8 2753 2698 2754 2802 2700 2639 2701 2755
8 2763 2713 2756 2804 2714 2658 2703 2757
8 2759 2706 2652 2710 2804 2756 2703 2757
8 2715 2659 2714 2764 2758 2704 2757 2805
8 2758 2704 2757 2805 2712 2655 2710 2761
8 2806 2759 2707 2760 2761 2710 2653 2711
8 2765 2716 2762 2808 2718 2664 2713 2763
8 2809 2763 2714 2764 2767 2718 2663 2717
8 2765 2716 2664 2718 2811 2766 2719 2768
8 2813 2768 2718 2767 2770 2721 2666 2720
8 2814 2769 2719 2768 2771 2722 2667 2721
8 2723 2669 2724 2773 2770 2721 2771 2816
8 2724 2670 2725 2774 2771 2722 2772 2817
8 2726 2672 2727 2776 2773 2724 2774 2819
8 2727 2673 2728 2777 2774 2725 2775 2820
8 2729 2675 2730 2779 2776 2727 2777 2822
8 2730 2676 2731 2780 2777 2728 2778 2823
8 2732 2678 2733 2782 2779 2730 2780 2825
8 2780 2731 2679 2733 2826 2781 2734 2783
8 2782 2733 2681 2735 2827 2783 2736 2784
8 2830 2785 2738 2787 2804 2756 2706 2759
8 2789 2739 2686 2740 2832 2786 2738 2787
8 2790 2740 2707 2760 2833 2787 2759 2806
8 2742 2687 2739 2789 2792 2741 2788 2835
8 2743 2688 2740 2790 2793 2742 2789 2836
8 2792 2741 2791 2838 2745 2689 2744 2795
8 2793 2742 2792 2839 2746 2690 2745 2796
8 2795 2744 2794 2841 2748 2693 2749 2798
8 2796 2745 2795 2842 2747 2692 2748 2797
8 2797 2748 2798 2843 2750 2695 2751 2800
8 2798 2749 2799 2844 2751 2696 2752 2801
8 2800 2751 2801 2845 2753 2698 2754 2802
8 2808 2762 2803 2847 2763 2713 2756 2804
8 2809 2763 2804 2848 2764 2714 2757 2805
8 2806 2759 2710 2761 2848 2804 2757 2805
8 2765 2716 2766 2811 2808 2762 2807 2850
8 2810 2765 2808 2851 2767 2718 2763 2809
8 2810 2765 2718 2767 2852 2811 2768 2813
8 2811 2766 2719 2768 2853 2812 2769 2814
8 2855 2814 2768 2813 2816 2771 2721 2770
8 2856 2815 2769 2814 2817 2772 2722 2771
8 2773 2724 2774 2819 2816 2771 2817 2858
8 2774 2725 2775 2820 2817 2772 2818 2859
8 2776 2727 2777 2822 2819 2774 2820 2861
8 2777 2728 2778 2823 2820 2775 2821 2862
8 2779 2730 2780 2825 2822 2777 2823 2864
8 2823 2778 2731 2780 2865 2824 2781 2826
8 2825 2780 2733 2782 2866 2826 2783 2827
8 2869 2828 2785 2830 2847 2803 2756 2804
8 2871 2829 2786 2832 2830 2785 2738 2787
8 2872 2830 2787 2833 2848 2804 2759 2806
8 2789 2739 2786 2832 2835 2788 2831 2874
8 2836 2789 2740 2790 2875 2832 2787 2833
8 2792 2741 2788 2835 2838 2791 2834 2877
8 2793 2742 2789 2836 2839 2792 2835 2878
8 2838 2791 2837 2880 2795 2744 2794 2841
8 2839 2792 2838 2881 2796 2745 2795 2842
8 2841 2794 2840 2882 2798 2749 2799 2844
8 2842 2795 2841 2883 2797 2748 2798 2843
8 2843 2798 2844 2884 2800 2751 2801 2845
8 2886 2846 2803 2847 2850 2807 2762 2808
8 2851 2808 2847 2887 2809 2763 2804 2848
8 2850 2807 2766 2811 2889 2849 2812 2853
8 2810 2765 2811 2852 2851 2808 2850 2890
8 2852 2811 2768 2813 2891 2853 2814 2855
8 2853 2812 2769 2814 2892 2854 2815 2856
8 2894 2856 2814 2855 2858 2817 2771 2816
8 2817 2772 2818 2859 2856 2815 2857 2895
8 2819 2774 2820 2861 2858 2817 2859 2897
8 2820 2775 2821 2862 2859 2818 2860 2898
8 2822 2777 2823 2864 2861 2820 2862 2900
8 2823 2778 2824 2865 2862 2821 2863 2901
8 2864 2823 2780 2825 2902 2865 2826 2866
8 2904 2867 2828 2869 2886 2846 2803 2847
8 2869 2828 2868 2906 2830 2785 2829 2871
8 2907 2869 2830 2872 2887 2847 2804 2848
8 2871 2829 2870 2909 2832 2786 2831 2874
8 2910 2871 2832 2875 2872 2830 2787 2833
8 2835 2788 2831 2874 2877 2834 2873 2912
8 2836 2789 2832 2875 2878 2835 2874 2913
8 2877 2834 2876 2915 2838 2791 2837 2880
8 2839 2792 2835 2878 2881 2838 2877 2916
8 2880 2837 2879 2917 2841 2794 2840 2882
8 2881 2838 2880 2918 2842 2795 2841 2883
8 2883 2841 2882 2919 2843 2798 2844 2884
8 2921 2885 2846 2886 2889 2849 2807 2850
8 2922 2886 2847 2887 2890 2850 2808 2851
8 2889 2849 2812 2853 2924 2888 2854 2892
8 2890 2850 2811 2852 2925 2889 2853 2891
8 2891 2853 2814 2855 2926 2892 2856 2894
8 2892 2854 2815 2856 2927 2893 2857 2895
8 2858 2817 2859 2897 2894 2856 2895 2929
8 2859 2818 2860 2898 2895 2857 2896 2930
8 2861 2820 2862 2900 2897 2859 2898 2932
8 2862 2821 2863 2901 2898 2860 2899 2933
8 2864 2823 2865 2902 2900 2862 2901 2934
8 2904 2867 2846 2886 2936 2903 2885 2921
8 2904 2867 2903 2936 2869 2828 2868 2906
8 2937 2904 2869 2907 2922 2886 2847 2887
8 2906 2868 2905 2939 2871 2829 2870 2909
8 2907 2869 2906 2940 2872 2830 2871 2910
8 2909 2870 2908 2942 2874 2831 2873 2912
8 2910 2871 2909 2943 2875 2832 2874 2913
8 2912 2873 2911 2945 2877 2834 2876 2915
8 2878 2835 2874 2913 2916 2877 2912 2946
8 2915 2876 2914 2947 2880 2837 2879 2917
8 2916 2877 2915 2948 2881 2838 2880 2918
8 2918 2880 2917 2949 2883 2841 2882 2919
8 2921 2885 2849 2889 2951 2920 2888 2924
8 2952 2921 2886 2922 2925 2889 2850 2890
8 2924 2888 2854 2892 2954 2923 2893 2927
8 2925 2889 2853 2891 2955 2924 2892 2926
8 2926 2892 2856 2894 2956 2927 2895 2929
8 2895 2857 2896 2930 2927 2893 2928 2957
8 2897 2859 2898 2932 2929 2895 2930 2959
8 2898 2860 2899 2933 2930 2896 2931 2960
8 2900 2862 2901 2934 2932 2898 2933 2961
8 2936 2903 2885 2921 2963 2935 2920 2951
8 2936 2903 2935 2963 2906 2868 2905 2939
8 2937 2904 2886 2922 2964 2936 2921 2952
8 2937 2904 2936 2964 2907 2869 2906 2940
8 2939 2905 2938 2966 2909 2870 2908 2942
8 2940 2906 2939 2967 2910 2871 2909 2943
8 2942 2908 2941 2969 2912 2873 2911 2945
8 2943 2909 2942 2970 2913 2874 2912 2946
8 2945 2911 2944 2971 2915 2876 2914 2947
8 2946 2912 2945 2972 2916 2877 2915 2948
8 2948 2915 2947 2973 2918 2880 2917 2949
8 2951 2920 2888 2924 2975 2950 2923 2954
8 2952 2921 2889 2925 2976 2951 2924 2955
8 2927 2893 2928 2957 2954 2923 2953 2978
8 2955 2924 2892 2926 2979 2954 2927 2956
8 2929 2895 2930 2959 2956 2927 2957 2980
8 2930 2896 2931 2960 2957 2928 2958 2981
8 2932 2898 2933 2961 2959 2930 2960 2982
8 2951 2920 2950 2975 2963 2935 2962 2984
8 2963 2935 2962 2984 2939 2905 2938 2966
8 2964 2936 2921 2952 2985 2963 2951 2976
8 2964 2936 2963 2985 2940 2906 2939 2967
8 2966 2938 2965 2987 2942 2908 2941 2969
8 2967 2939 2966 2988 2943 2909 2942 2970
8 2969 2941 2968 2989 2945 2911 2944 2971
8 2970 2942 2969 2990 2946 2912 2945 2972
8 2972 2945 2971 2991 2948 2915 2947 2973
8 2954 2923 2953 2978 2975 2950 2974 2993
8 2976 2951 2924 2955 2994 2975 2954 2979
8 2957 2928 2958 2981 2978 2953 2977 2995
8 2956 2927 2957 2980 2979 2954 2978 2996
8 2959 2930 2960 2982 2980 2957 2981 2997
8 2984 2962 2983 2999 2966 2938 2965 2987
8 2975 2950 2974 2993 2984 2962 2983 2999
8 2976 2951 2975 2994 2985 2963 2984 3000
8 2985 2963 2984 3000 2967 2939 2966 2988
8 2987 2965 2986 3001 2969 2941 2968 2989
8 2988 2966 2987 3002 2970 2942 2969 2990
8 2990 2969 2989 3003 2972 2945 2971 2991
8 2978 2953 2977 2995 2993 2974 2992 3004
8 2979 2954 2978 2996 2994 2975 2993 3005
8 2980 2957 2981 2997 2996 2978 2995 3006
8 2974 2993 2999 2983 2992 3004 3007 2998
8 2983 2999 2987 2965 2998 3007 3001 2986
8 3000 2984 2999 3008 2988 2966 2987 3002
8 2994 2975 2993 3005 3000 2984 2999 3008
8 3002 2987 3001 3009 2990 2969 2989 3003
8 2996 2978 2995 3006 3005 2993 3004 3010
8 3005 2993 3004 3010 3008 2999 3007 3011
8 3008 2999 3007 3011 3002 2987 3001 3009

CELL_TYPES 1910
12
12
12
12
12
12
12
12
12
12
12
12
12
12
12
12
12
12
12
12
12
12
12
12
12
12
12
12
12
12
12
12
12
12
12
12
12
12
12
12
12
12
12
12
12
12
12
12
12
12
12
12
12
12
12
12
12
12
12
12
12
12
12
12
12
12
12
12
12
12
12
12
12
12
12
12
12
12
12
12
12
12
12
12
12
12
12
12
12
12
12
12
12
12
12
12
12
12
12
12
12
12
12
12
12
12
12
12
12
12
12
12
12
12
12
12
12
12
12
12
12
12
12
12
12
12
12
12
12
12
12
12
12
12
12
12
12
12
12
12
12
12
12
12
12
12
12
12
12
12
12
12
12
12
12
12
12
12
12
12
12
12
12
12
12
12
12
12
12
12
12
12
12
12
12
12
12
12
12
12
12
12
12
12
12
12
12
12
12
12
12
12
12
12
12
12
12
12
12
12
12
12
12
12
12
12
12
12
12
12
12
12
12
12
12
12
12
12
12
12
12
12
12
12
12
12
12
12
12
12
12
12
12
12
12
12
12
12
12
12
12
12
12
12
12
12
12
12
12
12
12
12
12
12
12
12
12
12
12
12
12
12
12
12
12
12
12
12
12
12
12
12
12
12
12
12
12
12
12
12
12
12
12
12
12
12
12
12
12
12
12
12
12
12
12
12
12
12
12
12
12
12
12
12
12
12
12
12
12
12
12
12
12
12
12
12
12
12
12
12
12
12
12
12
12
12
12
12
12
12
12
12
12
12
12
12
12
12
12
12
12
12
12
12
12
12
12
12
12
12
12
12
12
12
12
12
12
12
12
12
12
12
12
12
12
12
12
12
12
12
12
12
12
12
12
12
12
12
12
12
12
12
12
12
12
12
12
12
12
12
12
12
12
12
12
12
12
12
12
12
12
12
12
12
12
12
12
12
12
12
12
12
12
12
12
12
12
12
12
12
12
12
12
12
12
12
12
12
12
12
12
12
12
12
12
12
12
12
12
12
12
12
12
12
12
12
12
12
12
12
12
12
12
12
12
12
12
12
12
12
12
12
12
12
12
12
12
12
12
12
12
12
12
12
12
12
12
12
12
12
12
12
12
12
12
12
12
12
12
12
12
12
12
12
12
12
12
12
12
12
12
12
12
12
12
12
12
12
12
12
12
12
12
12
12
12
12
12
12
12
12
12
12
12
12
12
12
12
12
12
12
12
12
12
12
12
12
12
12
12
12
12
12
12
12
12
12
12
12
12
12
12
12
12
12
12
12
12
12
12
12
12
12
12
12
12
12
12
12
12
12
12
12
12
12
12
12
12
12
12
12
12
12
12
12
12
12
12
12
12
12
12
12
12
12
12
12
12
12
12
12
12
12
12
12
12
12
12
12
12
12
12
12
12
12
12
12
12
12
12
12
12
12
12
12
12
12
12
12
12
12
12
12
12
12
12
12
12
12
12
12
12
12
12
12
12
12
12
12
12
12
12
12
12
12
12
12
12
12
12
12
12
12
12
12
12
12
12
12
12
12
12
12
12
12
12
12
12
12
12
12
12
12
12
12
12
12
12
12
12
12
12
12
12
12
12
12
12
12
12
12
12
12
12
12
12
12
12
12
12
12
12
12
12
12
12
12
12
12
12
12
12
12
12
12
12
12
12
12
12
12
12
12
12
12
12
12
12
12
12
12
12
12
12
12
12
12
12
12
12
12
12
12
12
12
12
12
12
12
12
12
12
12
12
12
12
12
12
12
12
12
12
12
12
12
12
12
12
12
12
12
12
12
12
12
12
12
12
12
12
12
12
12
12
12
12
12
12
12
12
12
12
12
12
12
12
12
12
12
12
12
12
12
12
12
12
12
12
12
12
12
12
12
12
12
12
12
12
12
12
12
12
12
12
12
12
12
12
12
12
12
12
12
12
12
12
12
12
12
12
12
12
12
12
12
12
12
12
12
12
12
12
12
12
12
12
12
12
12
12
12
12
12
12
12
12
12
12
12
12
12
12
12
12
12
12
12
12
12
12
12
12
12
12
12
12
12
12
12
12
12
12
12
12
12
12
12
12
12
12
12
12
12
12
12
12
12
12
12
12
12
12
12
12
12
12
12
12
12
12
12
12
12
12
12
12
12
12
12
12
12
12
12
12
12
12
12
12
12
12
12
12
12
12
12
12
12
12
12
12
12
12
12
12
12
12
12
12
12
12
12
12
12
12
12
12
12
12
12
12
12
12
12
12
12
12
12
12
12
12
12
12
12
12
12
12
12
12
12
12
12
12
12
12
12
12
12
12
12
12
12
12
12
12
12
12
12
12
12
12
12
12
12
12
12
12
12
12
12
12
12
12
12
12
12
12
12
12
12
12
12
12
12
12
12
12
12
12
12
12
12
12
12
12
12
12
12
12
12
12
12
12
12
12
12
12
12
12
12
12
12
12
12
12
12
12
12
12
12
12
12
12
12
12
12
12
12
12
12
12
12
12
12
12
12
12
12
12
12
12
12
12
12
12
12
12
12
12
12
12
12
12
12
12
12
12
12
12
12
12
12
12
12
12
12
12
12
12
12
12
12
12
12
12
12
12
12
12
12
12
12
12
12
12
12
12
12
12
12
12
12
12
12
12
12
12
12
12
12
12
12
12
12
12
12
12
12
12
12
12
12
12
12
12
12
12
12
12
12
12
12
12
12
12
12
12
12
12
12
12
12
12
12
12
12
12
12
12
12
12
12
12
12
12
12
12
12
12
12
12
12
12
12
12
12
12
12
12
12
12
12
12
12
12
12
12
12
12
12
12
12
12
12
12
12
12
12
12
12
12
12
12
12
12
12
12
12
12
12
12
12
12
12
12
12
12
12
12
12
12
12
12
12
12
12
12
12
12
12
12
12
12
12
12
12
12
12
12
12
12
12
12
12
12
12
12
12
12
12
12
12
12
12
12
12
12
12
12
12
12
12
12
12
12
12
12
12
12
12
12
12
12
12
12
12
12
12
12
12
12
12
12
12
12
12
12
12
12
12
12
12
12
12
12
12
12
12
12
12
12
12
12
12
12
12
12
12
12
12
12
12
12
12
12
12
12
12
12
12
12
12
12
12
12
12
12
12
12
12
12
12
12
12
12
12
12
12
12
12
12
12
12
12
12
12
12
12
12
12
12
12
12
12
12
12
12
12
12
12
12
12
12
12
12
12
12
12
12
12
12
12
12
12
12
12
12
12
12
12
12
12
12
12
12
12
12
12
12
12
12
12
12
12
12
12
12
12
12
12
12
12
12
12
12
12
12
12
12
12
12
12
12
12
12
12
12
12
12
12
12
12
12
12
12
12
12
12
12
12
12
12
12
12
12
12
12
12
12
12
12
12
12
12
12
12
12
12
12
12
12
12
12
12
12
12
12
12
12
12
12
12
12
12
12
12
12
12
12
12
12
12
12
12
12
12
12
12
12
12
12
12
12
12
12
12
12
12
12
12
12
12
12
12
12
12
12
12
12
12
12
12
12
12
12
12
12
12
12
12
12
12
12
12
12
12
12
12
12
12
12
12
12
12
12
12
12
12
12
12
12
12
12
12
12
12
12
12
12
12
12
12
12
12
12
12
12
12
12
12
12
12
12
12
12
12
12
12
12
12
12
12
12
12
12
12
12
12
12
12
12
12
12
12
12
12
12
12
12
12
12
12
12
12
12
12
12
12
12
12
12
12
12
12
12
12
12
12
12
12
12
12
12
12
12
12
12
12
12
12
12
12
12
12
12
12
12
12
12
12
12
12
12
12
12
12
12
12
12
12
12
12
12
12
12
12
12
12
12
12
12
12
12
12
12
12
12
12
12
12
12
12
12
12
12
12
12
12
12
12
12
12
12
12
12
12
12
12
12
12
12
12
12
12
12
12
12
12
12
12
12
12
12
12
12
12
12
12
12
12
12
12
12
12
12
12
12
12
12
12
12
12
12
12
12
12
12
12
12
12
12
12
12
12
12
12
12
12
12
12
12
12
12
12
12
12
12
12
12
12
12
12
12
12
12
12
12
12
12
12
12
12
12
12
12
12
12
12
12
12
12
12
12
12
12
12
12
12
12
12
12
12
12
12
12
12
12
12
12
12
12
12
12
12
12
12
12
12
12
12
12
12
12
12
12
12
12
12
12
12
12
12
12
12
12
12
12
12
12
12
12
12
12
12
12
12
12
12
12
12
12
12
12
12
12
12
12
12
12
12
12
12
12
12
12
12
12
12
12
12
12
12
12
12
12
12
12
12
12
12
12
12
12
12
12
12
12
12
12
12
12
12
12
12
12
12
12
12
12
12
12
12
12
12
12
12
12
12
12
12
12

POINT_DATA 3012
SCALARS Jp_lamdaP float 4
LOOKUP_TABLE default
0.999702 1 1 0.999702
1 1 1 1
0.999711 1 1 0.999711
0.999648 1 1 0.999648
0.999704 1 1 0.999704
0.999685 1 1 0.999685
0.998918 1 1 0.998918
1 1 1 1
1 1 1 1
1 1 1 1
0.999777 1 1 0.999777
0.999037 1 1 0.999037
0.999637 1 1 0.999637
0.99965 1 1 0.99965
0.999712 1 1 0.999712
0.999673 1 1 0.999673
0.999692 1 1 0.999692
0.999719 1 1 0.999719
0.998919 1 1 0.998919
1 1 1 1
0.999629 1 1 0.999629
0.999681 1 1 0.999681
0.998791 1 1 0.998791
0.998894 1 1 0.998894
0.999694 1 1 0.999694
0.998936 1 1 0.998936
1.01019 1.0125 1 0.997715
1 1 1 1
0.999842 1 1 0.999842
0.999855 1 1 0.999855
1 1 1 1
0.999046 1 1 0.999046
0.999676 1 1 0.999676
0.999703 1 1 0.999703
0.999056 1 1 0.999056
1 1 1 1
0.99914 1 1 0.99914
0.999138 1 1 0.999138
1.00387 1.00618 1 0.997702
1 1 1 1
1 1 1 1
0.999825 1 1 0.999825
1 1 1 1
0.999653 1 1 0.999653
0.998719 1 1 0.998719
1 1 1 1
0.998957 1 1 0.998957
0.999695 1 1 0.999695
0.99973 1 1 0.99973
0.999693 1 1 0.999693
0.998925 1 1 0.998925
0.999808 1 1 0.999808
0.999652 1 1 0.999652
0.999707 1 1 0.999707
0.999703 1 1 0.999703
0.998789 1 1 0.998789
0.998939 1 1 0.998939
0.998895 1 1 0.998895
1.01061 1.01294 1 0.9977
1 1 1 1
0.999627 1 1 0.999627
0.998975 1 1 0.998975
0.998759 1 1 0.998759
0.998845 1 1 0.998845
1.01356 1.01616 1 0.997441
1.01168 1.01416 1 0.997558
0.999757 1 1 0.999757
0.999041 1 1 0.999041
1.00765 1.00986 1 0.997809
1.02811 1.03137 1 0.996836
1 1 1 1
1 1 1 1
1 1 1 1
0.999054 1 1 0.999054
1 1 1 1
1 1 1 1
0.998896 1 1 0.998895
0.99992 1 1 0.99992
0.998999 1 1 0.998999
0.999255 1 1.00001 0.999243
1.00273 1.00505 1 0.997699
1 1 1 1
1.00099 1 1.00119 0.999803
0.99882 1 1 0.99882
0.998929 1 1 0.998929
1.01448 1.01725 1 0.997276
0.999797 1 1.00032 0.99948
1.00826 1.01069 1 0.997601
1.00033 1.00249 1 0.99785
1.01027 1.01331 1 0.997001
1 1 1 1
1 1 1 1
1 1 1 1
1 1 1 1
1 1 1 1
0.999824 1 1 0.999824
0.998839 1 1 0.998839
0.999827 1 1 0.999827
0.998871 1 1 0.998871
1 1 1 1
0.998728 1 1 0.998728
0.998945 1 1 0.998945
1.01341 1.01639 1 0.997068
0.998992 1 1 0.998992
1.01589 1.01883 1 0.997113
0.999659 1 1 0.999659
0.999673 1 1 0.999673
0.999717 1 1 0.999717
0.999721 1 1 0.999721
0.998788 1 1 0.998788
0.998899 1 1 0.998899
0.998945 1 1 0.998945
1.01101 1.01336 1 0.997686
1 1 1 1
0.999649 1 1 0.999649
0.998756 1 1 0.998756
0.998754 1 1 0.998754
0.999879 1 1 0.999879
0.999115 1 1 0.999115
0.998845 1 1 0.998845
1.01353 1.01617 1 0.997402
1.00834 1.01058 1 0.997791
1.01196 1.0144 1 0.997586
1.02804 1.03129 1 0.996843
0.998751 1 1 0.998751
0.998752 1 1 0.998752
1.01212 1.01486 1 0.997298
1.01349 1.01619 1 0.997342
1.01335 1.01594 1 0.997452
1.03698 1.04036 1 0.996746
1 1 1 1
1.03106 1.03437 1 0.996803
0.999488 1 1.00023 0.999254
1.00341 1.00563 1 0.997796
1.02458 1.0278 1 0.996869
1.03519 1.03863 1 0.996687
1.00128 1 1.00172 0.999563
1.00646 1 1.00793 0.998535
1 1 1 1
1 1 1 1
0.998901 1 1 0.998901
1 1 1 1
0.999315 1 1.00011 0.999205
0.999006 1 1 0.999006
1.00164 1.00395 1 0.997695
1 1 1 1
1.00055 1 1.00073 0.999826
0.998924 1 1 0.998923
0.999025 1 1 0.999025
1.01387 1.01664 1 0.997277
1.00003 1 1.0006 0.999437
1.00701 1.00943 1 0.997604
0.999673 1.00183 1 0.997848
1.01113 1.01419 1 0.996988
1.00107 1 1.00144 0.999628
0.999913 1 1 0.999913
1.00294 1 1.00413 0.998815
1.01598 1.01886 1 0.997172
1.01201 1.01461 1 0.997439
1.03424 1.0377 1 0.996667
0.99924 1.00059 1.00052 0.998124
1.01986 1.023 1 0.996934
1.00693 1.00928 1.00057 0.997093
1.01961 1.02286 1 0.996824
1 1 1 1
1 1 1 1
1 1 1 1
1.00037 1 1.00068 0.999695
1 1 1 1
1 1 1 1
1 1 1 1
0.998786 1 1 0.998786
0.998751 1 1 0.998751
1 1 1 1
1 1 1 1
0.99873 1 1 0.99873
0.99886 1 1 0.99886
1.01386 1.01684 1 0.997068
0.998805 1 1 0.998805
1.01609 1.01903 1 0.997112
0.998725 1 1 0.998725
1.01222 1.01523 1 0.997032
1.01478 1.01773 1 0.997102
1.04139 1.04489 1 0.996654
1.01634 1.01927 1 0.997125
1.04293 1.04641 1 0.996666
1 1 1 1
0.999671 1 1 0.999671
0.998515 1 1 0.998515
0.99875 1 1 0.99875
1 1 1 1
0.999191 1 1 0.999191
0.998847 1 1 0.998847
1.01346 1.01614 1 0.997363
1.01226 1.01468 1 0.997615
1.00905 1.0113 1 0.997773
1.02795 1.0312 1 0.99685
0.998749 1 1 0.998749
0.998747 1 1 0.998747
1.012 1.01486 1 0.997177
1.0135 1.01618 1 0.997366
1 1 1 1
0.999391 1 1.0001 0.99929
1.00472 1.00686 1 0.99787
1.0133 1.01589 1 0.997448
1.0368 1.04021 1 0.996726
1.02397 1.0272 1 0.996861
1.03128 1.03455 1 0.996838
1.03482 1.03825 1 0.996696
1.0012 1 1.00165 0.999551
1.00474 1 1.00621 0.998537
1.01176 1.01475 1 0.997054
1.01239 1.01511 1 0.997327
1.03853 1.04194 1 0.996726
1.03721 1.04065 1 0.996694
1.03412 1.03741 1 0.996825
1.04522 1.04859 1 0.996789
1.00054 1 1.00113 0.99941
1.03763 1.04101 1 0.996753
1 1.00192 1.00011 0.997979
1.01706 1.02017 1 0.996957
1.03273 1.03621 1 0.996647
1.03604 1.03931 1 0.996849
1.0031 1.00009 1.00471 0.998316
1.00283 1 1.00403 0.99881
1.00331 1 1.00546 0.997867
0.998849 1 1 0.998847
1 1 1 1
1.00007 1 1.00023 0.999848
0.998962 1 1 0.998962
1.01325 1.01602 1 0.997278
1.00016 1 1.00071 0.999441
0.998821 1.00094 1.00004 0.997847
1.00578 1.00819 1 0.997607
1.01211 1.01518 1 0.996974
1.00086 1 1.00121 0.99965
0.999928 1 1 0.999928
1.00346 1 1.00465 0.998816
1.01562 1.0185 1 0.997171
1.01103 1.01362 1 0.997442
1.03436 1.03782 1 0.996662
0.998819 1.00023 1.00047 0.998128
1.02101 1.02414 1 0.99694
1.00606 1.00852 1.00047 0.997088
1.02035 1.02361 1 0.996816
0.999964 1 1 0.999964
1.00116 1.00001 1.00272 0.998444
1.00148 1 1.00229 0.99919
1.00348 1 1.00534 0.998147
1.03853 1.04204 1 0.996624
1.02843 1.03173 1 0.996797
1.03928 1.04285 1 0.99658
1.00255 1.00466 1.00049 0.997414
1.02712 1.0304 1 0.996816
1.0159 1.01759 1.00158 0.996764
1.02812 1.0315 1 0.99672
0.999709 1 1 0.999709
0.999995 1 1 0.999995
1 1 1 1
1 1 1 1
1 1 1 1
0.999813 1 1 0.999813
1 1 1 1
1.00099 1 1.00131 0.999682
1 1 1 1
0.998806 1 1 0.998806
0.998772 1 1 0.998772
1.0164 1.01935 1 0.997111
1.01428 1.01727 1 0.997069
0.998732 1 1 0.998732
1 1 1 1
0.998725 1 1 0.998725
1.01254 1.01555 1 0.997033
1.01517 1.01813 1 0.997101
1.04078 1.04427 1 0.996652
1.01639 1.01933 1 0.997123
1.043 1.04649 1 0.996663
1.01164 1.01466 1 0.997029
1.04024 1.04377 1 0.996622
1.04214 1.04562 1 0.996672
1.04936 1.05376 0.998927 0.9969
1.04244 1.04595 1 0.99664
1.05104 1.05463 0.99978 0.996815
0.998746 1 1 0.998746
0.998741 1 1 0.998741
1.01189 1.01487 1 0.997056
1.01354 1.01619 1 0.99739
1 1 1 1
0.999327 1 1 0.999327
1.00597 1.00804 1 0.997944
1.01324 1.01584 1 0.997444
1.03667 1.0401 1 0.996706
1.03145 1.03469 1 0.996874
1.02339 1.02662 1 0.996853
1.03459 1.03802 1 0.996704
1.00133 1 1.00179 0.99954
1.00389 1 1.00536 0.998538
1.01167 1.01468 1 0.997033
1.01242 1.01513 1 0.997323
1.03848 1.04187 1 0.996744
1.03728 1.04071 1 0.99671
1.00025 1 1.00085 0.999399
1.00101 1.00296 1.00007 0.997976
1.0168 1.01987 1 0.996991
1.03441 1.03772 1 0.996811
1.04548 1.0488 1 0.996826
1.03227 1.03577 1 0.996624
1.03758 1.04095 1 0.996757
1.03625 1.03952 1 0.996847
1.00272 1.00012 1.0043 0.998318
1.0039 1.0001 1.00594 0.99787
1.00355 1 1.00474 0.998808
1.03848 1.04193 1 0.99669
1.03788 1.04125 1 0.996761
1.04934 1.05343 0.999268 0.996845
1.0467 1.05025 0.999805 0.996811
1.04063 1.04395 1 0.996818
1.04209 1.04702 0.998176 0.997101
0.999111 1.00035 1.0006 0.998161
1.03841 1.04157 1 0.996966
1.00657 1.00932 1 0.997272
1.02388 1.02743 1 0.996547
1.03243 1.03597 1 0.99658
1.03126 1.03427 1 0.997088
1.00085 1 1.00178 0.99907
0.99897 1.00052 1.00067 0.997777
1.00793 1 1.00993 0.998025
1.00165 1.00137 1.00266 0.997629
1.01528 1.01816 1 0.997169
0.999944 1 1 0.999944
1.00077 1 1.00109 0.999672
1.00413 1 1.00532 0.998817
1.01005 1.01264 1 0.997446
1.03448 1.03795 1 0.996658
0.998547 1.00001 1.00041 0.998132
1.00513 1.00774 1.00033 0.997082
1.02212 1.02525 1 0.996946
1.02044 1.02371 1 0.996807
0.999972 1 1 0.999972
1.00202 1 1.00359 0.998445
1.00095 1 1.00175 0.999199
1.0041 1 1.00597 0.998141
1.03841 1.04193 1 0.996619
1.02863 1.03193 1 0.996796
1.03892 1.04249 1 0.996577
1.00112 1.00326 1.00045 0.99742
1.02686 1.03014 1 0.996819
1.01571 1.01726 1.00173 0.996753
1.02793 1.03123 1 0.996798
0.999987 1 1 0.999987
0.999739 1 1.00029 0.999453
1.00054 1.0009 1.00183 0.997814
1.00377 1 1.00528 0.998493
1.00103 1.00009 1.00311 0.997837
1.04374 1.04728 1 0.99662
1.03322 1.03667 1 0.996669
1.035 1.03844 1 0.996687
1.00647 1.00746 1.00199 0.99703
1.02578 1.02907 1 0.996799
1.01605 1.01873 1.00086 0.996513
0.999671 1 1 0.999671
0.999176 1 1 0.999176
0.999738 1 1 0.999738
0.999711 1 1 0.999711
0.999998 1 1 0.999998
0.999996 1 1 0.999996
1 1 1 1
1 1 1 1
1 1 1 1
0.999913 1 1 0.999913
1 1 1 1
0.999962 1 1.00016 0.999797
1 1 1 1
1.0011 1 1.00143 0.999668
1 1 1 1
1.01639 1.01932 1 0.99712
1.01551 1.01846 1 0.997101
1.04281 1.0463 1 0.996661
1.04016 1.04366 1 0.99665
1.01292 1.01594 1 0.997033
0.998724 1 1 0.998724
1.0118 1.01481 1 0.997028
1.03993 1.04346 1 0.996622
1.04177 1.04525 1 0.99667
1.0496 1.05429 0.998629 0.996918
1.04175 1.04527 1 0.996636
1.05058 1.05412 0.999837 0.996813
1.03899 1.04252 1 0.996614
1.04835 1.05362 0.998071 0.996922
1.05094 1.05489 0.999375 0.996874
1.04656 1.05408 0.995717 0.997135
1.04701 1.05045 1 0.996723
1.04789 1.05402 0.99703 0.997152
1.01162 1.01465 1 0.997012
1.01245 1.01517 1 0.997318
1.03845 1.04183 1 0.996761
1.03733 1.04073 1 0.996726
0.99994 1 1.00055 0.999389
1.00195 1.00396 1.00002 0.997974
1.01683 1.01986 1 0.997024
1.03472 1.03805 1 0.996797
1.04573 1.04902 1 0.996863
1.03759 1.04096 1 0.996762
1.03164 1.03516 1 0.9966
1.03645 1.03973 1 0.996845
1.00201 1.00016 1.00353 0.99832
1.00435 1.00022 1.00628 0.997873
1.0039 1 1.0051 0.998806
1.03858 1.04206 1 0.996662
1.0381 1.04148 1 0.996758
1.04876 1.05302 0.999069 0.996884
1.04696 1.05056 0.999774 0.996798
0.999644 1.00075 1.00074 0.998159
1.00787 1.01063 1 0.997267
1.02261 1.02608 1.00003 0.996592
1.04081 1.04416 1 0.996792
1.04185 1.04697 0.997947 0.99715
1.03295 1.03654 1 0.996543
1.03827 1.04143 1 0.996969
1.03197 1.03495 1 0.997123
0.999978 1.00103 1.00117 0.997778
1.00172 1.00136 1.00277 0.997601
1.00143 1 1.00237 0.999067
1.00738 1 1.00934 0.998063
1.04881 1.05314 0.999016 0.99687
1.04893 1.05301 0.999275 0.996846
1.04333 1.0507 0.995931 0.997048
1.04224 1.04996 0.995456 0.997173
1.04011 1.04368 0.999495 0.997089
1.03858 1.04593 0.995628 0.997333
1.00043 1.00286 1 0.997578
1.03303 1.03678 0.999064 0.997319
1.01205 1.01526 1 0.996831
1.02231 1.02588 1.00018 0.99634
1.03389 1.03746 1 0.996554
1.03268 1.03562 1 0.997158
0.999529 1 1.00025 0.999279
1.00646 1 1.00818 0.998297
1.00013 1.00262 1 0.997516
1.0042 1 1.00645 0.997764
1.00168 1.00199 1.00217 0.997534
0.99998 1 1 0.99998
1.03822 1.04175 1 0.996614
1.00025 1 1.00104 0.999208
1.00283 1 1.00439 0.998446
1.00475 1 1.00662 0.998135
1.02883 1.03214 1 0.996795
1.0386 1.04217 1 0.996575
0.999825 1.0019 1.00051 0.997427
1.01664 1.018 1.00193 0.996741
1.02672 1.03 1 0.996822
1.02823 1.03145 1 0.996875
0.99999 1 1 0.99999
0.999591 1 1.00013 0.999462
0.999738 1.00059 1.00134 0.997816
1.00473 1 1.00625 0.998492
1.00147 1.00007 1.00359 0.997821
1.04366 1.04721 1 0.996614
1.03314 1.0366 1 0.996667
1.03501 1.03846 1 0.996676
1.00629 1.00714 1.00213 0.997035
1.02819 1.03149 1 0.996796
1.0162 1.01876 1.00096 0.996534
0.999598 1 1 0.999598
1.00063 1 1.0018 0.998829
1.0007 1.00275 1.00048 0.997477
1.00587 1 1.00776 0.998123
1.00072 1.00092 1.00203 0.997769
1.04047 1.04381 1 0.996801
1.02947 1.03286 1 0.996713
1.03421 1.03743 1 0.996892
1.00294 1.00231 1.00379 0.996847
1.01448 1.01809 1 0.996455
0.999674 1 1 0.999674
0.9991 1 1 0.9991
0.999151 1 1 0.999151
0.998903 1 1 0.998903
0.999193 1 1 0.999193
0.999753 1 1 0.999753
0.999739 1 1 0.999739
1 1 1 1
0.999713 1 1 0.999713
0.999999 1 1 0.999999
1 1 1 1
0.999997 1 1 0.999997
1 1 1 1
1 1 1 1
0.999976 1 1 0.999976
0.999895 1 1 0.999895
1 1 1 1
1 1 1 1
1.00036 1 1.00058 0.999781
1 1 1 1
1.0412 1.04472 1 0.996632
1.0416 1.04508 1 0.996667
1.05033 1.05381 0.999896 0.99681
1.04988 1.05486 0.998339 0.996936
1.03952 1.04304 1 0.996622
1.01186 1.01488 1 0.997028
1.03893 1.04246 1 0.996615
1.04829 1.05349 0.998145 0.996917
1.05105 1.05491 0.999468 0.996874
1.04577 1.05382 0.995181 0.997166
1.04773 1.05118 1 0.996716
1.04776 1.05395 0.996941 0.997175
1.04843 1.05327 0.998507 0.996891
1.04441 1.05237 0.995316 0.997109
1.04653 1.05461 0.995117 0.997211
1.04436 1.05482 0.992772 0.997292
1.04605 1.04981 0.999417 0.997002
1.04478 1.0542 0.993663 0.997383
1.03857 1.04207 1 0.996634
1.03829 1.04167 1 0.996756
1.04816 1.05258 0.998876 0.996924
1.04714 1.05079 0.999742 0.996786
1.00023 1.00122 1.00086 0.998157
1.00874 1.01151 1 0.997261
1.02116 1.02442 1.00018 0.996637
1.04095 1.04432 1 0.996766
1.04159 1.04693 0.997692 0.9972
1.03805 1.04121 1 0.996972
1.03346 1.03708 1 0.996506
1.0321 1.03505 1 0.997157
1.00099 1.00143 1.00179 0.99778
1.00167 1.0012 1.0029 0.997573
1.00189 1 1.00283 0.999063
1.00637 1 1.00828 0.998102
1.04857 1.05287 0.999037 0.99687
1.04858 1.05255 0.999406 0.996824
1.04352 1.05099 0.995807 0.997081
1.04268 1.04996 0.995902 0.997155
1.00142 1.00386 1 0.99757
1.01056 1.0137 1.00003 0.996875
1.02272 1.02609 1.00039 0.996329
1.03992 1.04333 0.999683 0.997041
1.03758 1.04523 0.995281 0.997391
1.03098 1.03456 1 0.99654
1.03402 1.0377 0.999135 0.997321
1.03324 1.03612 1 0.997216
1.00022 1.00271 1 0.997514
1.00151 1.00253 1.00146 0.997535
1.00481 1.00011 1.00696 0.997757
0.999872 1 1.00063 0.999243
1.00594 1 1.00762 0.998334
1.04319 1.05158 0.994912 0.997096
1.0433 1.05189 0.994691 0.997128
1.03829 1.04964 0.991787 0.997378
1.03448 1.04191 0.995455 0.997399
1.00329 1.00605 1 0.99726
1.03798 1.0418 0.998841 0.997498
1.0068 1.00997 1.00029 0.996576
1.01977 1.02321 1.00051 0.996129
1.02844 1.03202 1 0.996536
0.999426 1 1 0.999426
1.00263 1 1.004 0.998636
1.00556 1 1.00753 0.99805
1.00181 1.0044 1 0.997419
1.00388 1 1.0064 0.997496
1.00103 1.00264 1.001 0.997395
0.999993 1 1 0.999993
0.999471 1 1 0.999471
1.04359 1.04714 1 0.996608
1.00579 1 1.00731 0.998492
0.99876 1.0002 1.00074 0.997818
1.0017 1 1.0039 0.997804
1.03294 1.03639 1 0.996666
1.03487 1.03833 1 0.996664
1.00557 1.00626 1.00229 0.997039
1.0154 1.01813 1.00077 0.996555
1.0305 1.03381 1 0.996794
0.999604 1 1 0.999604
1.00044 1 1.00161 0.998833
1.00033 1.00245 1.00041 0.997474
1.00701 1 1.0089 0.998118
1.00052 1.00102 1.00174 0.997771
1.04045 1.0438 1 0.996794
1.02984 1.03325 1 0.996701
1.03405 1.03725 1 0.996918
1.00386 1.00382 1.00324 0.996808
1.01335 1.01693 1.00006 0.996426
0.999046 1 1 0.999046
1.00609 1 1.0077 0.998398
1.00217 1.00283 1.002 0.997349
1.00549 1.00116 1.00645 0.997886
1.00289 1.00426 1.001 0.997651
1.03999 1.04419 0.998689 0.997282
1.02876 1.03226 1 0.996613
1.03065 1.03383 1 0.996919
1.00552 1.00453 1.00433 0.996671
1.00504 1.00883 1 0.996237
0.999677 1 1 0.999677
0.999118 1 1 0.999118
0.998825 1 1 0.998825
0.999126 1 1 0.999126
0.999192 1 1 0.999192
0.998873 1 1 0.998873
0.998764 1 1 0.998764
0.998819 1 1 0.998819
0.999206 1 1 0.999206
0.999747 1 1 0.999747
0.999753 1 1 0.999753
1 1 1 1
0.999741 1 1 0.999741
1 1 1 1
1 1 1 1
0.999999 1 1 0.999999
1 1 1 1
1 1 1 1
0.999997 1 1 0.999997
0.999962 1 1 0.999962
1 1 1 1
0.99991 1 1.00003 0.999876
1 1 1 1
1 1 1 1
1.04841 1.05187 1 0.996709
1.05095 1.05472 0.999559 0.996873
1.04761 1.05385 0.996867 0.997197
1.04493 1.05354 0.994623 0.997198
1.04828 1.05339 0.998239 0.996911
1.039 1.04253 1 0.996615
1.04839 1.05313 0.998624 0.996871
1.04494 1.05249 0.99572 0.997102
1.04625 1.05425 0.995203 0.997195
1.04343 1.05439 0.992284 0.997304
1.04556 1.04914 0.999583 0.997003
1.04308 1.05322 0.992923 0.997424
1.04506 1.05228 0.996041 0.997084
1.04468 1.05588 0.992078 0.997288
1.04459 1.05643 0.991381 0.997394
1.04054 1.05026 0.993272 0.997452
1.04839 1.05267 0.99906 0.99687
1.04833 1.05219 0.999535 0.996803
1.04374 1.05127 0.995704 0.997114
1.0432 1.05003 0.996344 0.997138
1.00268 1.00513 1 0.997562
1.00951 1.01263 1 0.996918
1.02308 1.02626 1.00058 0.996319
1.03976 1.04302 0.999889 0.996993
1.03652 1.04448 0.994926 0.997448
1.03531 1.03893 0.999196 0.997322
1.02875 1.03234 1 0.996525
1.03513 1.03796 1 0.997273
1.00071 1.0032 1 0.997512
1.00153 1.00331 1.00069 0.997535
1.00625 1.00019 1.00832 0.99775
1.00016 1 1.00095 0.999206
1.00576 1 1.00741 0.998371
1.04376 1.05207 0.99499 0.997098
1.04367 1.05225 0.994708 0.997123
1.03808 1.04889 0.992303 0.997368
1.00363 1.0064 1 0.997254
1.00731 1.01047 1.00026 0.996619
1.01848 1.02167 1.00076 0.996118
1.03504 1.04223 0.99571 0.997385
1.03064 1.03412 1 0.996639
1.03456 1.03864 0.998598 0.997466
0.999457 1 1 0.999457
1.00238 1.00498 1 0.997409
0.999934 1.0019 1.00051 0.997525
1.00489 1.00015 1.00726 0.997485
1.00577 1 1.00771 0.998072
1.00261 1 1.00402 0.998601
1.04301 1.05409 0.992291 0.997178
1.04141 1.05583 0.989016 0.997301
1.03203 1.04718 0.988038 0.997462
1.03382 1.04506 0.991626 0.997603
1.00444 1.0074 1 0.997062
1.0295 1.03274 0.999788 0.997076
1.00375 1.00597 1.00165 0.996157
1.01037 1.01341 1.00104 0.995964
0.999666 1 1 0.999666
0.999706 1 1.0008 0.998909
1.00375 1 1.00546 0.998301
1.00566 1 1.00802 0.997654
1.00242 1.00422 1.00097 0.997235
1.00669 1.00111 1.00838 0.997213
0.99961 1 1 0.99961
1.00019 1 1.00135 0.998837
1.04067 1.04402 1 0.996788
1.00808 1 1.00999 0.998112
0.999967 1.00223 1.00027 0.997471
0.999958 1.00067 1.00152 0.997772
1.03046 1.03388 1 0.996689
1.03422 1.03739 1 0.996944
1.00508 1.00559 1.00273 0.996769
1.01227 1.01566 1.00027 0.996397
0.999049 1 1 0.999049
1.00607 1 1.00769 0.998393
1.00254 1.00321 1.00198 0.997358
1.00472 1.00061 1.00623 0.997896
1.00283 1.00463 1.00048 0.997732
1.0409 1.04527 0.998485 0.997327
1.02831 1.03179 1 0.996631
1.03226 1.03537 1 0.996992
1.00537 1.00417 1.00458 0.996635
1.00541 1.00924 1.00003 0.996171
0.999277 1 1.00056 0.998718
1.00672 1 1.00873 0.998016
1.00608 1.00507 1.00378 0.997227
1.00254 1.00341 1.00161 0.997533
1.03799 1.05788 0.983578 0.997581
1.03399 1.0375 0.999256 0.997367
1.01724 1.02098 1 0.99634
1.00744 1.00694 1.00426 0.996253
0.999137 1 1 0.999137
0.998837 1 1 0.998837
0.998754 1 1 0.998754
0.999191 1 1 0.999191
0.998843 1 1 0.998843
0.999205 1 1 0.999205
0.998763 1 1 0.998763
0.998831 1 1 0.998831
0.998765 1 1 0.998765
0.998701 1 1.00004 0.998656
0.998781 1 1 0.998781
0.999187 1 1 0.999187
0.999723 1 1 0.999723
0.999745 1 1 0.999745
1 1 1 1
0.999753 1 1 0.999753
1 1 1 1
1 1 1 1
1 1 1 1
1 1 1 1
1 1 1 1
1 1 1 1
0.999993 1 1 0.999993
1 1 1 1
0.999948 1 1 0.999948
1 1 1 1
1 1 1 1
1.04498 1.04837 0.999762 0.997004
1.04603 1.05398 0.995264 0.997179
1.04145 1.05232 0.992182 0.997465
1.04258 1.05404 0.991794 0.997316
1.04548 1.05262 0.996116 0.997094
1.04826 1.05293 0.998713 0.996852
1.04482 1.0522 0.995896 0.997083
1.04452 1.05554 0.992257 0.997278
1.04355 1.05562 0.991152 0.997393
1.04199 1.05137 0.993597 0.997462
1.04559 1.05593 0.992957 0.997232
1.04629 1.06208 0.987663 0.997443
1.04549 1.06102 0.987817 0.997517
1.04431 1.05256 0.995046 0.9971
1.04396 1.05254 0.994717 0.997118
1.03798 1.04816 0.992902 0.997359
1.00353 1.0063 1 0.997248
1.00724 1.01043 1.00018 0.996662
1.01695 1.02006 1.00085 0.996106
1.03558 1.04252 0.995962 0.997371
1.03057 1.03492 0.998357 0.997435
1.03167 1.03504 1 0.996743
1.00148 1.00409 1 0.997398
0.998282 1.00063 1 0.997655
1.00573 1.00043 1.00785 0.997475
0.999487 1 1 0.999487
1.00503 1 1.00694 0.998094
1.00263 1 1.00407 0.998566
1.04377 1.05459 0.99253 0.997185
1.04089 1.0556 0.988721 0.997308
1.03219 1.04676 0.988601 0.997454
1.0024 1.00536 1 0.997054
1.0038 1.00618 1.0014 0.996236
1.01071 1.01382 1.0009 0.996036
1.03397 1.04477 0.992039 0.997608
1.02772 1.0314 0.999373 0.997057
0.999723 1 1 0.999723
0.999666 1 1.00076 0.998908
1.00007 1.00279 1 0.997284
1.00884 1.00099 1.01051 0.997357
1.00545 1 1.00777 0.997696
1.00367 1 1.00541 0.99827
1.0439 1.05942 0.98795 0.997364
1.03331 1.05568 0.981335 0.997418
1.02928 1.04671 0.985666 0.997651
1.02392 1.03385 0.992759 0.997618
1.00212 1.0042 1.0012 0.996736
1.00967 1.01205 1.0014 0.996252
1.00361 1.00504 1.00264 0.995945
0.999861 1 1 0.999861
0.99939 1 1 0.99939
0.999132 1 1 0.999132
1.0004 1 1.00194 0.998462
1.00464 1 1.0067 0.99795
1.00855 1 1.01108 0.997501
0.999254 1.00192 1 0.997342
1.03144 1.00086 1.03305 0.997579
0.999052 1 1 0.999052
1.00642 1 1.00804 0.998387
1.04178 1.0463 0.998305 0.997373
1.00474 1.00061 1.00624 0.997905
1.00317 1.00365 1.00215 0.997368
1.0026 1.00476 1.00004 0.997813
1.02747 1.03093 1 0.99665
1.03368 1.03672 1 0.997064
1.0052 1.0038 1.00482 0.9966
1.00575 1.00968 1 0.996104
0.999602 1 1.00092 0.998687
1.00643 1 1.00842 0.99803
1.00717 1.00576 1.00415 0.997256
1.00226 1.00328 1.00142 0.99757
1.04029 1.05987 0.983884 0.997601
1.03432 1.03763 0.99949 0.997317
1.01788 1.02157 1 0.996386
1.0085 1.00854 1.00377 0.996202
1.00068 1 1.00221 0.998474
1.03964 1.06357 0.979845 0.997607
1.00191 1 1.00424 0.997685
1.006 1.00635 1.00268 0.996984
1.03444 1.0477 0.989623 0.997698
1.01551 1.0191 1 0.996481
1.00677 1.00755 1.00323 0.996013
0.99885 1 1 0.99885
0.998743 1 1 0.998743
0.99877 1 1 0.99877
0.999203 1 1 0.999203
0.998843 1 1 0.998843
0.998762 1 1 0.998762
0.999184 1 1 0.999184
0.998786 1 1 0.998786
0.998769 1 1 0.998769
0.998691 1 1.00002 0.998675
0.998815 1 1 0.998815
0.998707 1 1.00003 0.998675
0.998795 1 1.00024 0.99856
0.998734 1 1 0.998734
0.999129 1 1 0.999129
0.999691 1 1 0.999691
0.99972 1 1 0.99972
1 1 1 1
0.999744 1 1 0.999744
1 1 1 1
1 1 1 1
1 1 1 1
1 1 1 1
1 1 1 1
0.999887 1 1 0.999887
1 1 1 1
1 1 1 1
1 1 1 1
0.999989 1 1 0.999989
1 1 1 1
1 1 1 1
1.04339 1.05247 0.993881 0.997471
1.04249 1.05472 0.990993 0.997392
1.0443 1.05514 0.992437 0.997269
1.04461 1.05211 0.995781 0.997083
1.04523 1.05585 0.992672 0.99725
1.0462 1.06156 0.988065 0.997433
1.04367 1.05935 0.987647 0.997526
1.04595 1.06194 0.987489 0.997422
1.05423 1.07161 0.986211 0.997539
1.04336 1.06482 0.982007 0.997796
1.04451 1.05507 0.992783 0.997193
1.04035 1.0554 0.988396 0.997315
1.03224 1.04634 0.98905 0.997446
1.0022 1.00511 1.00006 0.997046
1.00441 1.00685 1.00126 0.996317
1.01239 1.01555 1.00078 0.996108
1.03418 1.04452 0.992464 0.997613
1.02622 1.03032 0.998983 0.997038
1.0001 1.00277 1 0.997335
1.01136 1.00122 1.01265 0.9975
1.00622 1 1.0085 0.997738
0.999781 1 1 0.999781
0.999547 1 1.00064 0.998907
1.00385 1 1.00562 0.998238
1.04381 1.0597 0.987599 0.997375
0.999856 1 1 0.999856
0.999359 1 1 0.999359
1.03364 1.05488 0.982393 0.997419
1.02809 1.04608 0.98514 0.99762
1.00234 1.00401 1.00152 0.996824
1.00411 1.00487 1.00332 0.995933
1.01035 1.0133 1.00084 0.996246
1.02282 1.03316 0.992385 0.997594
0.99921 1 1 0.99921
1.0003 1 1.00185 0.998455
1.00059 1.0017 1.00165 0.997242
1.02647 1.0008 1.02797 0.997746
1.0067 1.00002 1.00919 0.997518
1.00474 1 1.00678 0.997968
1.05213 1.07018 0.985599 0.997496
1.01559 1.05297 0.966861 0.997557
1.01952 1.03954 0.982903 0.997806
1.00487 1.01544 0.992253 0.99731
1.00303 1.00152 1.00464 0.996882
1.00391 1.00255 1.0055 0.995884
0.999338 1 1 0.999338
0.999347 1 1 0.999347
0.999063 1 1 0.999063
0.998615 1 1 0.998615
1.00228 1 1.00407 0.998215
1.0038 1.00016 1.00602 0.997635
1.04324 1 1.04583 0.99752
1.00205 1.00049 1.00376 0.997798
0.999802 1 1.00115 0.998656
1.00573 1 1.0077 0.998044
1.04182 1.06084 0.984421 0.99762
1.03439 1.03757 0.999674 0.997268
1.002 1.00325 1.00115 0.997607
1.00839 1.00669 1.00441 0.997285
1.01884 1.02245 1.00004 0.996432
1.00968 1.0102 1.00335 0.99615
1.00094 1 1.00249 0.99846
1.04188 1.06645 0.979255 0.997656
1.00229 1 1.00459 0.997709
1.00519 1.00558 1.00269 0.99693
1.03309 1.04683 0.989172 0.997672
1.01518 1.01869 1 0.996557
1.00746 1.00797 1.00348 0.996029
1.00274 1 1.00461 0.998139
1.01592 1.04232 0.976546 0.998079
1.00308 1.00285 1.00282 0.997419
1.00392 1.0036 1.00379 0.996535
1.0166 1.02545 0.994092 0.997265
1.00186 1.00345 1.00221 0.996213
0.984675 1.00414 0.982904 0.997668
0.998733 1 1 0.998733
0.999229 0.999982 1.00048 0.998769
0.998829 1 1.00016 0.998675
0.999181 1 1 0.999181
0.998791 1 1 0.998791
0.998695 1 1 0.998695
0.998773 1 1 0.998773
0.999128 1 1 0.999128
0.998725 1 1 0.998725
0.998781 1 1 0.998781
0.998651 1 1.00009 0.998561
0.998689 1 1.00002 0.998666
0.99877 1 1 0.99877
0.998831 1 1.00045 0.998384
0.999353 1 1.00081 0.998541
0.998624 1 1 0.998624
0.999007 1 1 0.999007
0.998942 1 1.00015 0.998792
0.998984 1 1 0.998984
0.999674 1 1 0.999674
0.999688 1 1 0.999688
1 1 1 1
0.999717 1 1 0.999717
1 1 1 1
1 1 1 1
1 1 1 1
1 1 1 1
1 1 1 1
0.999909 1 1 0.999909
0.999886 1 1 0.999886
1 1 1 1
1 1 1 1
1 1 1 1
1 1 1 1
1 1 1 1
1 1 1 1
1.04209 1.05802 0.987378 0.997535
1.04603 1.06109 0.98835 0.997423
1.04491 1.05581 0.99239 0.997269
1.04599 1.06191 0.987549 0.99742
1.05192 1.06944 0.986049 0.997536
1.04301 1.06351 0.982954 0.99773
1.05502 1.07545 0.983359 0.997604
0.979164 1.01605 0.96738 0.996188
1.01149 1.03935 0.974694 0.998461
0.999456 1 1 0.999456
1.04374 1.05999 0.987246 0.997386
1.03414 1.05413 0.983571 0.99742
1.02695 1.04551 0.984617 0.997589
1.00025 1.00253 1.00082 0.996911
1.00396 1.00404 1.00402 0.99592
1.0107 1.01405 1.00045 0.99624
1.02173 1.03244 0.992044 0.99757
0.99882 1.00162 1.00006 0.997143
1.01987 1 1.022 0.997915
1.00473 1 1.00721 0.997536
0.999852 1 1 0.999852
1.00548 1 1.00751 0.997986
0.999287 1 1 0.999287
1.00024 1 1.00179 0.998448
0.999329 1 1 0.999329
1.04919 1.07045 0.982592 0.997504
0.999378 1 1 0.999378
0.999346 1 1 0.999346
0.999027 1 1 0.999027
1.01938 1.05309 0.970367 0.997557
1.0202 1.0401 0.983075 0.99776
1.00078 1.00145 1.00243 0.996908
1.00542 1.00389 1.00556 0.99599
1.00434 1.01347 0.993681 0.997296
0.998683 1 1.00002 0.998665
1.00247 1 1.00431 0.998172
1.00729 1.00031 1.00929 0.997703
1.03454 1 1.03708 0.997553
1.00288 1 1.00521 0.997678
1.03342 1.06004 0.977227 0.997604
1.00306 1.0463 0.960883 0.997701
1.01235 1.0249 0.990258 0.997476
0.993298 1.00529 0.990994 0.997056
1.00349 1 1.00611 0.997395
0.998924 1 1 0.998924
0.998853 1 1 0.998853
0.999431 1 1.00068 0.998749
1.00142 1 1.00303 0.998396
1.00438 1 1.00637 0.998029
1.032 1 1.03441 0.99767
1.0276 1.00065 1.02936 0.997649
1.00095 1 1.00251 0.998444
1.00265 1 1.00493 0.997732
1.04336 1.07017 0.977189 0.997704
1.03213 1.0466 0.988504 0.997645
1.0148 1.01823 1 0.996632
1.00416 1.00462 1.00268 0.996876
1.00785 1.00822 1.0036 0.996046
1.00263 1 1.00445 0.998181
1.01452 1.04239 0.975112 0.99811
1.00111 1.00186 1.00182 0.997435
1.00325 1.00264 1.00408 0.99654
1.01611 1.0257 0.993263 0.997373
1.002 1.00308 1.00273 0.996204
0.984464 1.00412 0.983562 0.996806
1.00262 1.00063 1.00399 0.998001
1.00594 1.02241 0.985816 0.998056
1.00067 1.00137 1.00194 0.99736
1.00444 1.0013 1.00644 0.99672
0.99378 1.00603 0.990695 0.997104
0.929825 0.980276 0.969524 0.978351
0.931485 0.974871 0.966184 0.988937
0.975362 0.987526 0.989922 0.997738
0.767289 0.856144 0.932555 0.961032
0.694874 0.828976 0.882284 0.950071
0.999495 0.999973 1.00076 0.998767
0.999507 0.999987 1.0008 0.998724
0.999044 1 1.00033 0.998713
0.999128 1 1 0.999128
0.998716 1 1 0.998716
0.998562 1 1 0.998562
0.998657 1 1 0.998657
0.998747 1 1 0.998747
1.00006 1 1.00154 0.998516
0.999039 1 1 0.999039
0.998643 1 1 0.998643
0.998738 1 1 0.998738
0.999125 1 1.00071 0.998415
1.00118 1 1.00275 0.998427
1.00157 1 1.00309 0.998483
1.00032 1 1.00188 0.998445
0.998673 1 1.00011 0.998567
0.998977 1 1 0.998977
0.998649 1 1 0.998649
0.998702 1 1.00009 0.998616
0.998811 1 1.00001 0.998797
0.998887 1 1.00013 0.998753
0.999088 1 1 0.999088
0.998981 1 1 0.998981
0.999668 1 1 0.999668
0.999673 1 1 0.999673
1 1 1 1
0.999686 1 1 0.999686
1 1 1 1
1 1 1 1
1 1 1 1
1 1 1 1
1 1 1 1
0.99993 1 1 0.99993
0.999906 1 1 0.999906
1 1 1 1
0.999885 1 1 0.999885
1 1 1 1
1 1 1 1
1 1 1 1
1 1 1 1
1 1 1 1
1.04932 1.067 0.985866 0.997533
1.04603 1.06186 0.987642 0.997418
1.04328 1.06259 0.98412 0.997664
0.981703 1.01587 0.970001 0.996256
1.05195 1.07277 0.982953 0.997603
1.02238 1.04251 0.982328 0.998339
1.03955 1.05242 0.99002 0.997721
0.937719 0.981589 0.966847 0.988065
0.995847 1.01935 0.979912 0.996968
0.999469 1 1 0.999469
0.999453 1 1 0.999453
0.999034 1 1 0.999034
0.999101 1 1 0.999101
1.04702 1.07074 0.980287 0.997511
1.02269 1.05277 0.973808 0.997556
1.02063 1.04041 0.983243 0.997714
0.999928 1.00073 1.00227 0.996934
1.00691 1.00547 1.00536 0.996095
1.00338 1.01156 0.99462 0.997281
1.0151 1 1.01753 0.997608
1.02716 1.00003 1.02961 0.997585
1.00164 1 1.00393 0.997721
0.999345 1 1 0.999345
1.00159 1 1.00347 0.998129
0.998714 1 1 0.998714
0.999419 1 1 0.999419
0.998991 1 1 0.998991
1.03102 1.05983 0.975139 0.997619
0.998968 1 1 0.998968
0.998906 1 1 0.998906
0.998893 1 1.00002 0.998875
1.0073 1.04871 0.962725 0.997695
1.01151 1.02472 0.989613 0.997474
1.00331 1.00013 1.00582 0.997377
0.995297 1.0055 0.992717 0.997118
1.00032 1 1.00196 0.998357
1.00351 1 1.00557 0.997946
1.03263 1.00083 1.03422 0.997632
1.03231 1.00008 1.03469 0.997611
0.998109 1.0404 0.961479 0.997785
0.995892 1.03068 0.968492 0.997678
1.00417 1.00977 0.997297 0.997152
0.987596 1.00085 0.988796 0.997938
0.998628 1 1.00002 0.998607
1.00024 1 1.00171 0.998532
1.01134 1 1.01306 0.998301
1.05061 1 1.0531 0.997635
0.905063 0.969419 0.956567 0.976005
1.00303 1 1.00482 0.998222
0.99935 1.00081 1.00109 0.99745
1.01435 1.04212 0.975168 0.998142
1.01594 1.0258 0.992891 0.997481
1.00233 1.00286 1.0033 0.996192
1.00301 1.00201 1.00447 0.996544
0.985257 1.00494 0.984432 0.995923
1.00155 1.00028 1.00322 0.998057
1.00599 1.02357 0.984747 0.998044
1.00023 1.00136 1.0015 0.997374
1.00449 1.00167 1.00611 0.99672
0.996882 1.00689 0.992933 0.997108
0.92853 0.986319 0.96451 0.976049
0.925785 0.972051 0.965545 0.98639
0.978029 0.987497 0.992638 0.997758
0.766286 0.852818 0.934276 0.961744
0.680208 0.818132 0.878723 0.946164
1.00033 1.00013 1.00194 0.998257
0.796408 0.87507 0.944427 0.963661
0.734803 0.834415 0.925562 0.951444
0.989507 1.00667 0.984938 0.997988
1.00708 1.00134 1.008 0.997749
1.01248 1.00464 1.01043 0.997402
0.969979 0.981496 0.990262 0.997984
0.918389 0.965541 0.973886 0.97667
0.901333 0.945929 0.967346 0.98502
0.753188 0.854355 0.914869 0.963621
0.755315 0.879781 0.903608 0.950109
1.00035 0.999964 1.00162 0.998773
1.00025 0.999993 1.00156 0.99869
1.00145 1 1.00259 0.99886
0.999071 1 1 0.999071
0.998662 1 1 0.998662
1.00037 1 1.00188 0.998492
0.999633 1 1.00119 0.998446
0.998707 1 1 0.998707
0.998978 1 1 0.998978
1.00112 1 1.00271 0.998417
1.00072 1 1.00226 0.998459
0.998627 1 1.00003 0.998602
1.00137 1 1.00287 0.998501
1.00331 1 1.00487 0.998453
1.00687 1 1.0083 0.998585
0.998864 1 1.00046 0.998401
0.998662 1 1.00005 0.998613
0.998647 1 1 0.998645
0.998774 1 1.00016 0.998616
0.998702 1 1.00024 0.998465
0.999178 1 1.00054 0.998635
0.999658 1 1.00105 0.998605
1.00257 1 1.00414 0.998434
0.999495 1 1.00074 0.998758
0.998925 1 1.00013 0.998798
0.999121 1 1 0.999121
0.998791 1 1.00008 0.998715
0.999062 1 1 0.999062
0.999659 1 1 0.999659
0.998978 1 1 0.998978
0.999669 1 1 0.999669
1 1 1 1
0.999673 1 1 0.999673
1 1 1 1
1 1 1 1
1 1 1 1
1 1 1 1
1 1 1 1
0.999429 1 1 0.999429
0.999932 1 1 0.999932
0.999927 1 1 0.999927
1 1 1 1
0.999902 1 1 0.999902
1 1 1 1
1 1 1 1
1 1 1 1
1 1 1 1
1 1 1 1
0.984208 1.01576 0.972511 0.996329
1.04954 1.0698 0.983424 0.997602
1.02855 1.04549 0.985553 0.998215
0.931295 0.975044 0.965611 0.989147
0.995845 1.01907 0.980031 0.997122
1.03992 1.05596 0.987107 0.997676
1.00876 1.02672 0.985364 0.997096
0.945612 0.975966 0.97833 0.990359
0.927291 0.978529 0.970616 0.976326
0.761573 0.852916 0.926917 0.963307
0.665996 0.792583 0.885155 0.949309
0.999048 1 1 0.999048
0.999468 1 1 0.999468
0.99945 1 1 0.99945
0.999024 1 1 0.999024
0.998788 1 1 0.998788
0.998815 1 1 0.998815
0.998996 1 1 0.998996
0.999065 1 1 0.999065
1.02735 1.05988 0.971607 0.997633
1.01218 1.05216 0.964234 0.997688
1.01107 1.02465 0.989246 0.997473
1.00261 1.00065 1.00461 0.997361
0.997639 1.00554 0.99495 0.997182
1.03548 1.00037 1.03757 0.997614
1.03222 1.00002 1.03473 0.997552
1.00393 1 1.00608 0.997863
0.99896 1 1 0.99896
1.00022 1 1.00191 0.998318
0.999013 1 1 0.999013
0.999002 1 1 0.999002
0.997654 1.04112 0.960371 0.997792
0.998895 1 1.00026 0.998633
1.00004 1 1.00146 0.998576
0.99524 1.02952 0.968974 0.997653
1.00138 1.00982 0.994343 0.997282
0.989973 1.00118 0.990961 0.997827
1.0182 1.00001 1.02008 0.998145
1.04631 1.00051 1.04823 0.99766
0.98612 1.02694 0.962403 0.997764
0.985128 1.00942 0.978199 0.99769
0.981956 1.00165 0.982582 0.997713
0.991471 1.00118 0.992217 0.998075
1.00314 1 1.00488 0.998271
1.00792 1 1.00963 0.998305
1.04671 1 1.04886 0.997953
0.793388 0.884166 0.929791 0.965088
0.922734 0.976132 0.965305 0.979272
1.00014 1 1.00203 0.998114
0.999617 1.00111 1.00112 0.99739
1.00611 1.02501 0.983494 0.998033
0.999438 1.00798 0.994398 0.997112
1.00466 1.00224 1.00571 0.996723
0.923041 0.975566 0.968739 0.976692
0.931263 0.978742 0.964013 0.98701
0.97869 0.986111 0.99469 0.997772
0.767713 0.854521 0.931669 0.964306
0.667529 0.807546 0.877372 0.942147
1.00021 0.999996 1.00196 0.998256
0.793457 0.880594 0.934382 0.964325
0.723623 0.823718 0.92532 0.949383
0.989457 1.00748 0.984095 0.997985
1.00719 1.00174 1.00768 0.997774
1.01079 1.00297 1.01027 0.997554
0.962534 0.975728 0.988323 0.998134
0.926445 0.976212 0.97393 0.974424
0.900343 0.947634 0.962232 0.987388
0.757542 0.851226 0.925254 0.961835
0.753633 0.88464 0.897501 0.949202
1.00259 1 1.00392 0.99868
0.767267 0.846261 0.951551 0.952818
0.840204 0.916379 0.955105 0.959972
0.989171 0.997804 0.99266 0.998679
1.01434 1.00245 1.01326 0.998626
0.972268 0.966892 1.00764 0.997936
0.901253 0.933346 0.976816 0.988533
0.890996 0.936896 0.977046 0.973351
0.762034 0.848757 0.932701 0.962606
0.796986 0.920366 0.908515 0.953143
1.00124 0.99984 1.00274 0.998669
1.00115 1 1.00233 0.998825
1.00511 0.999999 1.00603 0.999084
0.998979 1 1 0.998979
0.998637 1 1 0.998637
1.00137 1 1.00291 0.998472
1.00147 1 1.00306 0.998408
1.00102 1 1.0025 0.998519
0.998627 1 1.00002 0.998611
1.00196 1 1.00353 0.998441
0.998908 1 1.00051 0.998403
1.00742 0.999988 1.00881 0.998639
1.02445 0.999134 1.02626 0.9991
1.00309 1 1.00463 0.99846
0.99837 1 1.00001 0.998364
0.998641 1 1 0.998641
0.998951 1 1.00033 0.998616
0.998982 1 1.00052 0.998459
0.999423 1 1.0008 0.998626
0.999289 1 1.00062 0.998671
1.00182 1 1.00326 0.998562
0.999873 1 1.00136 0.998513
1.00148 1 1.00281 0.998676
0.999035 1 1.0006 0.998438
0.998805 1 1.00093 0.997879
1.00202 1 1.0037 0.998327
1.00227 1 1.00384 0.998433
1.00192 1 1.00327 0.998662
1.00013 1 1.00138 0.998756
0.999104 1 1 0.999104
0.99924 1 1.00044 0.998798
0.999122 1 1 0.999122
0.999653 1 1 0.999653
0.999035 1 1 0.999035
0.999661 1 1 0.999661
0.999998 1 1 0.999998
0.99967 1 1 0.99967
1 1 1 1
1 1 1 1
1 1 1 1
1 1 1 1
1 1 1 1
0.999441 1 1 0.999441
0.999914 1 1 0.999914
0.999431 1 1 0.999431
1 1 1 1
0.999932 1 1 0.999932
0.999923 1 1 0.999923
1 1 1 1
1 1 1 1
1 1 1 1
1 1 1 1
1 1 1 1
0.789095 0.871613 0.941148 0.961939
0.730375 0.831591 0.923323 0.951223
0.932838 0.979199 0.962614 0.989653
0.99717 1.01871 0.981523 0.997279
1.04324 1.05978 0.986731 0.997631
0.927413 0.960455 0.973627 0.991753
1.00885 1.02617 0.985864 0.997222
0.938152 0.989712 0.969723 0.977499
0.763833 0.855927 0.928093 0.961546
0.664395 0.799355 0.879205 0.945358
0.960071 0.99625 0.969668 0.99383
0.926367 0.97166 0.975661 0.97717
0.750067 0.852308 0.913911 0.962941
0.73966 0.869663 0.896333 0.948881
0.999733 1 1.00108 0.998651
0.99908 1 1 0.99908
0.999466 1 1 0.999466
0.999013 1 1 0.999013
0.998837 1 1 0.998837
0.99971 1 1.00108 0.998631
0.998797 1 1 0.998797
0.998722 1 1 0.998722
0.998958 1 1 0.998958
0.999029 1 1 0.999029
0.998435 1.04133 0.960918 0.9978
0.992708 1.02712 0.968791 0.997631
0.998713 1.01016 0.991233 0.997412
0.991921 1.00128 0.992924 0.997716
1.04105 1.00166 1.04174 0.997686
1.02548 1 1.02755 0.99799
0.998748 1 1.00013 0.998621
0.999089 1 1.00043 0.998659
0.986832 1.02723 0.96277 0.997818
1.00405 1 1.00582 0.99824
1.0077 1 1.00946 0.998264
0.983338 1.00767 0.978184 0.997622
0.979896 1.00125 0.980828 0.997806
0.994036 1.00199 0.994052 0.997998
1.04073 1 1.0429 0.997914
0.984112 1.004 0.982056 0.998105
0.975328 1.00015 0.976657 0.998488
1.01373 1.00091 1.01463 0.998206
1.00832 1 1.01013 0.9982
1.00729 1 1.00923 0.998078
1.02532 1 1.02732 0.998051
0.789548 0.860892 0.955885 0.959454
0.802338 0.883053 0.941404 0.96515
0.911528 0.972787 0.959973 0.976098
1.00021 0.999985 1.00198 0.998254
1.00695 1.00171 1.00745 0.997798
0.991871 1.00853 0.985469 0.997984
1.00922 1.00157 1.00995 0.997703
0.787956 0.875582 0.932275 0.965297
0.921761 0.972209 0.9713 0.976125
0.894969 0.944043 0.962334 0.985124
0.959766 0.971977 0.989138 0.99828
0.753727 0.850697 0.923045 0.959877
0.724504 0.825941 0.923416 0.949937
0.743003 0.874576 0.893298 0.951036
1.00295 0.999899 1.00438 0.998678
0.768854 0.849234 0.947957 0.955054
0.85059 0.925624 0.957461 0.959765
0.989925 0.996271 0.994857 0.998767
1.01415 1.00138 1.01418 0.998586
0.969575 0.96602 1.00542 0.998272
0.896453 0.937033 0.969973 0.986309
0.901482 0.943354 0.97927 0.975842
0.783413 0.871457 0.935558 0.960892
0.784138 0.908345 0.904164 0.954761
1.00698 0.99907 1.00849 0.999432
0.862354 0.929796 0.960723 0.965384
0.834329 0.919413 0.941244 0.964106
0.990079 0.975946 1.01477 0.999715
0.922229 0.933228 0.995922 0.992261
0.908525 0.935027 0.996867 0.97471
0.822456 0.896201 0.956485 0.959464
0.817208 0.942844 0.908535 0.954006
1.00112 1 1.00233 0.998789
1.00488 0.999759 1.00605 0.999081
1.02253 0.998806 1.02442 0.999354
0.998662 1 1.00005 0.99861
0.998876 1 1.00047 0.998405
1.00028 1 1.00186 0.998429
1.00772 0.999918 1.00912 0.998693
0.99847 1 1.00011 0.998363
1.00329 1 1.00485 0.998452
1.0293 0.99973 1.03042 0.999176
1.04168 0.996645 1.04576 0.999446
1.03139 0.999617 1.03275 0.999068
0.99848 1 1.00007 0.998413
0.999231 1 1.00078 0.998452
0.999273 1 1.00066 0.998617
0.998736 1 1 0.998736
0.99948 1 1.00095 0.998529
1.00123 1 1.00267 0.998563
1.00193 1 1.00324 0.998691
1.00088 1 1.00233 0.998554
1.00655 0.999827 1.00776 0.998974
0.998061 1.00011 0.999426 0.998529
0.999565 1.00038 1.00072 0.998462
0.998772 1 1.00069 0.998079
1.00019 1.00151 1.00153 0.997159
1.00179 1 1.00357 0.998228
0.998854 1 1.00079 0.998063
1.0017 1 1.00336 0.998348
1.00305 1 1.00455 0.99851
1.00173 1 1.0033 0.998432
1.00159 1 1.00294 0.998661
0.999143 1 1.00012 0.99902
1.00029 1 1.00154 0.998753
0.999102 1 1 0.999102
0.999642 1 1 0.999642
0.999123 1 1 0.999123
0.999654 1 1 0.999654
0.999994 1 1 0.999994
0.999663 1 1 0.999663
0.999997 1 1 0.999997
1 1 1 1
0.999999 1 1 0.999999
1 1 1 1
1 1 1 1
0.999227 1 1 0.999227
0.99988 1 1 0.99988
0.999372 1 1 0.999372
1 1 1 1
0.999918 1 1 0.999918
0.999431 1 1 0.999431
1 1 1 1
1 1 1 1
0.999933 1 1 0.999933
1 1 1 1
1 1 1 1
1 1 1 1
0.764209 0.846509 0.944791 0.955531
0.794686 0.878875 0.93873 0.963225
0.846084 0.925148 0.95325 0.959391
0.72542 0.827743 0.922558 0.94995
0.928209 0.969394 0.967768 0.989405
1.0066 1.02571 0.983972 0.997356
0.944209 0.987693 0.976981 0.978499
0.772178 0.859557 0.932353 0.963525
0.667028 0.809581 0.875262 0.941339
0.958436 0.99156 0.973407 0.993002
0.921481 0.971889 0.973987 0.973457
0.76256 0.860768 0.921562 0.96131
0.741894 0.874807 0.895563 0.946963
0.937705 0.978585 0.96703 0.990895
0.905505 0.941134 0.988998 0.972845
0.784663 0.878688 0.930896 0.959285
0.790894 0.918702 0.905666 0.950551
1.00137 1 1.00297 0.998404
0.999122 1 1.00043 0.998694
0.999111 1 1 0.999111
0.998886 1 1 0.998886
0.998714 1 1.00039 0.998321
0.999019 1 1.00035 0.99867
0.998779 1 1 0.998779
0.998689 1 1 0.998689
0.998764 1 1.00001 0.998758
0.998921 1 1 0.998921
0.988141 1.02848 0.96283 0.997873
0.984143 1.00677 0.979924 0.997557
0.978222 1.00129 0.979022 0.997897
0.998597 1.00323 0.997451 0.997923
1.03359 1 1.03579 0.997875
1.00686 1 1.00866 0.998223
1.00456 1 1.00637 0.99821
1.00722 1 1.00907 0.998167
0.981607 1.00434 0.979213 0.99811
1.00598 1 1.00792 0.998073
1.02624 1 1.02826 0.998038
0.973602 1.0004 0.974715 0.998454
1.01122 1.00195 1.01111 0.998166
0.95554 0.984836 0.971669 0.998542
0.989581 0.994432 0.995888 0.999231
1.03782 0.999668 1.03981 0.998417
1.00372 1 1.00565 0.998083
1.0153 1 1.01723 0.998096
0.871048 0.93408 0.962979 0.96837
0.791978 0.860587 0.959608 0.959013
0.791084 0.877198 0.936105 0.963385
1.00343 0.999997 1.00476 0.998676
1.01445 1.00034 1.01558 0.998546
0.987251 0.994241 0.994107 0.998855
0.77363 0.852387 0.949484 0.955892
0.904176 0.941053 0.987397 0.973077
0.89879 0.934997 0.973175 0.987772
0.960896 0.962603 0.999633 0.998593
0.782032 0.8718 0.931601 0.962892
0.857394 0.930816 0.959889 0.959612
0.788789 0.911884 0.905865 0.9549
1.00558 0.99898 1.00722 0.999391
0.859136 0.92838 0.95725 0.966743
0.834739 0.919768 0.941305 0.964144
0.992952 0.980024 1.01364 0.999554
0.93316 0.942318 0.998278 0.991989
0.88608 0.927817 0.982581 0.971946
0.818597 0.943021 0.909185 0.954766
0.836141 0.903731 0.963362 0.960398
1.00478 0.984041 1.02137 0.999711
0.842114 0.914445 0.946353 0.973106
0.854568 0.939258 0.942331 0.965513
0.790916 0.917889 0.90631 0.950744
0.969735 0.958009 1.0143 0.997966
0.932493 0.947609 1.00841 0.975841
0.87358 0.931821 0.974862 0.961673
1.00495 0.999459 1.00642 0.999076
1.02224 0.998535 1.02449 0.999271
1.02282 0.987295 1.03643 0.999566
0.99853 1 1.00017 0.998363
1.00333 1 1.00489 0.998443
1.03485 0.999975 1.03565 0.999251
0.998583 1 1.00016 0.99842
1.03075 0.99973 1.03198 0.999079
1.04256 0.9966 1.04672 0.999421
1.03132 0.993916 1.03817 0.999489
1.02159 0.999585 1.02297 0.999058
0.999326 1 1.00078 0.998546
1.00108 1 1.00252 0.998564
1.00255 1 1.00385 0.998706
1.00575 0.999958 1.00685 0.998948
1.00035 1 1.0018 0.998554
1.00264 1 1.00378 0.998872
0.998472 1.00002 0.999668 0.998779
1.00155 1.00004 1.00381 0.997705
0.99999 1.00074 1.00076 0.998489
0.999078 1.00051 1.00057 0.998003
0.998412 1.00047 1.00101 0.99693
1.01017 1.01198 1.00129 0.996922
1.00159 1.00093 1.00276 0.997905
0.999625 1.00105 1.00138 0.997202
1.00574 1 1.00742 0.998329
1.00262 1.00015 1.00426 0.998213
0.998892 1 1.00065 0.998247
1.0015 1 1.00314 0.998369
1.00259 1 1.00405 0.998544
0.999337 1 1.00043 0.998905
1.00145 1 1.0028 0.99866
0.999189 1 1.00017 0.99902
0.999595 1 1 0.999595
0.999099 1 1 0.999099
0.999639 1 1 0.999639
0.999991 1 1 0.999991
0.999654 1 1 0.999654
0.999993 1 1 0.999993
1 1 1 1
0.999996 1 1 0.999996
1 1 1 1
1 1 1 1
0.999005 1 1 0.999005
0.999708 1 1 0.999708
0.999225 1 1 0.999225
1 1 1 1
0.999834 1 1 0.999834
0.999304 1 1 0.999304
1 1 1 1
1 1 1 1
0.999922 1 1 0.999922
1 1 1 1
1 1 1 1
1 1 1 1
0.857711 0.931096 0.953565 0.966042
0.760041 0.845858 0.938894 0.957024
0.791946 0.875076 0.939893 0.962878
0.998569 1 1 0.998569
0.839896 0.917067 0.947901 0.966189
0.844791 0.924704 0.952377 0.959262
0.727415 0.833449 0.917304 0.951458
0.965738 0.994125 0.979329 0.99195
0.920657 0.966586 0.975311 0.976595
0.767663 0.872512 0.917183 0.959275
0.737142 0.864448 0.899591 0.947911
0.935976 0.975998 0.970537 0.988107
0.900176 0.939832 0.981736 0.975623
0.79535 0.882463 0.939205 0.959624
0.787099 0.912822 0.906707 0.950991
0.900497 0.941866 0.97026 0.985383
0.899395 0.92736 0.99658 0.973173
0.849487 0.915956 0.965449 0.960622
0.817691 0.942024 0.909916 0.953951
1.00103 1 1.00286 0.998177
1.00257 1 1.00421 0.998361
0.99874 1 1 0.998737
0.998383 1 1.00001 0.99837
0.998941 1 1.00056 0.998383
0.998709 1 1 0.998709
0.998696 1 1 0.998696
0.998817 1 1.00002 0.998793
0.977696 1.00501 0.974661 0.998111
0.971018 1.00071 0.97186 0.998425
1.00649 1 1.00837 0.998134
1.00937 1.00297 1.00827 0.998123
1.02814 1 1.03018 0.998025
1.00533 1 1.00728 0.998068
1.00401 1 1.00593 0.998093
0.960974 0.986177 0.975783 0.998628
1.01366 1 1.01556 0.99813
1.02735 1.00032 1.02862 0.998445
0.986189 0.994874 0.991981 0.999283
1.00464 1 1.00646 0.998195
0.955597 0.974068 0.982555 0.998455
1.00277 0.990675 1.01275 0.999467
1.04624 0.997361 1.05054 0.998541
1.00373 1 1.00545 0.998287
0.853196 0.917704 0.953169 0.975386
0.870258 0.933816 0.962378 0.968369
0.795942 0.860281 0.965204 0.958566
1.00362 0.998648 1.00563 0.999353
0.99665 0.983501 1.01398 0.999398
0.857785 0.928665 0.954137 0.968075
0.911629 0.931496 1.00336 0.975395
0.923159 0.939568 0.993536 0.988928
0.836998 0.905662 0.963508 0.959187
0.835465 0.920739 0.941106 0.964169
0.821014 0.944129 0.910074 0.955527
1.00804 0.98948 1.01909 0.999669
0.843671 0.915611 0.946923 0.973078
0.85334 0.937209 0.941153 0.967443
0.978754 0.963818 1.01599 0.999516
0.786475 0.911686 0.907008 0.951105
0.912357 0.932389 1.00462 0.974014
0.881227 0.940339 0.974967 0.961199
1.00571 0.98082 1.02562 0.99976
0.864128 0.933854 0.949057 0.975006
0.837931 0.914948 0.947694 0.96637
0.737396 0.868241 0.89488 0.949065
0.848892 0.916266 0.964882 0.960189
0.95641 0.955222 1.0056 0.995665
0.938383 0.944522 1.0234 0.970788
1.01954 0.998817 1.02157 0.999189
1.02517 0.988763 1.0373 0.999534
1.01006 0.977254 1.034 0.999582
0.998571 1 1.00014 0.998426
1.03204 0.999816 1.03317 0.999091
1.04319 0.997941 1.04597 0.999396
1.01621 0.99963 1.01756 0.999045
1.03136 0.995594 1.03645 0.999488
1.01255 0.991798 1.02171 0.999236
1.00441 1 1.00549 0.998921
0.999799 1 1.00125 0.998556
1.00457 1 1.00573 0.998852
1.00874 1 1.01056 0.998202
0.999028 1 1 0.999028
1.00027 1.00007 1.00233 0.997879
1.00156 1.00071 1.00417 0.996696
1.00531 1.00717 1.00188 0.996276
0.999405 1.00108 1.0004 0.997924
0.998761 1.00091 1.00109 0.996762
1.01144 1.01394 1.00053 0.997014
1.00607 1.00599 1.00261 0.997474
1.00944 1.01121 1.00125 0.997004
1.0065 1 1.00839 0.998131
1.00321 1.00203 1.0033 0.997886
0.998773 1.00025 1.00128 0.997246
1.00097 1 1.00224 0.998732
1.00531 1 1.00698 0.998339
1.00342 1.00023 1.00501 0.998198
1.0024 1 1.00382 0.998578
0.999584 1 1.00068 0.998904
0.999507 1 1 0.999507
0.999334 1 1.00031 0.99902
0.999591 1 1 0.999591
0.999987 1 1 0.999987
0.999636 1 1 0.999636
0.99999 1 1 0.99999
1 1 1 1
0.999992 1 1 0.999992
1 1 1 1
1 1 1 1
0.99892 1 1 0.99892
0.999579 1 1 0.999579
0.999046 1 1 0.999046
1 1 1 1
0.999695 1 1 0.999695
0.999223 1 1 0.999223
1 1 1 1
1 1 1 1
0.999789 1 1 0.999789
1 1 1 1
1 1 1 1
1 1 1 1
0.847655 0.916959 0.949341 0.973749
0.86056 0.930818 0.957037 0.966024
0.760243 0.84617 0.938642 0.957183
0.9986 1 1 0.9986
0.99853 1 1 0.99853
0.998456 1 1 0.998456
0.853535 0.940504 0.940123 0.96533
0.836659 0.91659 0.944697 0.96623
0.844471 0.924183 0.952675 0.95914
0.940006 0.979376 0.969448 0.990049
0.891499 0.93651 0.978612 0.972742
0.784322 0.865339 0.941531 0.962661
0.799792 0.92211 0.913093 0.949902
0.903692 0.945455 0.967488 0.987948
0.902799 0.930186 0.996805 0.973669
0.827992 0.892481 0.964812 0.961578
0.817776 0.943043 0.908352 0.954661
0.896682 0.934275 0.97347 0.985919
0.917894 0.935984 1.0062 0.97463
0.873139 0.929958 0.976117 0.961874
0.800608 0.922769 0.910332 0.953075
0.998727 1 1.00051 0.99822
1.00177 1 1.00363 0.998152
1.00256 1 1.00425 0.998319
0.99837 1 1.00001 0.998361
0.998779 1 1.00033 0.998445
0.998703 1 1 0.998703
0.965378 0.985104 0.981256 0.998696
0.981835 0.994323 0.988111 0.999322
1.00433 1 1.00624 0.998102
1.01923 1.00052 1.02025 0.998472
1.01456 1 1.01642 0.998164
1.00609 1 1.00793 0.998174
1.00456 1 1.00626 0.998312
0.962185 0.974317 0.988986 0.998546
1.04512 0.997307 1.04933 0.998681
1.00669 0.986551 1.02103 0.999404
1.0057 1 1.00725 0.99846
0.978617 0.964853 1.01591 0.998377
1.00676 0.980105 1.02778 0.999429
1.03399 0.994165 1.04131 0.998799
0.876781 0.938419 0.956048 0.97727
0.854198 0.918063 0.953428 0.975883
0.869689 0.933503 0.962074 0.968366
1.01268 0.995124 1.01802 0.999627
0.967867 0.960909 1.00879 0.998466
0.84531 0.916687 0.947675 0.97305
0.907327 0.920858 1.00748 0.97799
0.875862 0.937241 0.973394 0.960053
0.85323 0.9356 0.940774 0.969372
0.800946 0.921585 0.914736 0.950106
1.00128 0.977954 1.02407 0.999784
0.865309 0.933832 0.949692 0.975708
0.837838 0.916653 0.945784 0.966414
0.953057 0.951001 1.01011 0.99213
0.740111 0.87328 0.894712 0.94724
0.823413 0.891592 0.961046 0.960964
0.947715 0.949483 1.02399 0.974754
1.00162 0.963618 1.04041 0.99906
0.848362 0.916516 0.950465 0.973879
0.851847 0.929278 0.955169 0.959701
0.664542 0.790119 0.885521 0.949797
0.779743 0.874333 0.929692 0.959258
0.915405 0.933128 1.00721 0.973987
0.931905 0.946496 0.994889 0.989642
1.02915 0.99019 1.03987 0.999501
1.01361 0.983547 1.03099 0.999586
1.01288 0.988584 1.02507 0.999521
1.01068 0.999791 1.01187 0.999032
1.03019 0.996797 1.03403 0.999487
1.01574 0.990102 1.02659 0.999319
1.00863 1 1.00982 0.99882
1.00672 1 1.0079 0.998831
1.00762 1.00002 1.00957 0.998043
1.01712 1.0008 1.01956 0.996814
0.998937 1.00004 1.00085 0.998055
1.00308 1.00114 1.00527 0.996678
1.00427 1.00249 1.00596 0.995835
1.00491 1.00717 1.00191 0.995856
1.00685 1.00917 1.00108 0.996622
1.0051 1.00701 1.00189 0.996227
0.99899 1.00116 1.00124 0.996595
1.00458 1.0062 1.0011 0.997298
1.01149 1.01395 1.00048 0.997099
1.00238 1 1.00464 0.997753
1.00701 1.00674 1.00274 0.997534
1.00931 1.01108 1.00117 0.997086
1.00554 1 1.00711 0.998444
1.00554 1 1.00743 0.99813
1.00497 1.00331 1.00379 0.997866
0.999386 1 1 0.999383
1.00079 1 1.00206 0.99873
1.00457 1 1.00624 0.998349
0.999408 1 1.00051 0.998903
0.999502 1 1 0.999502
0.999976 1 1 0.999976
0.999587 1 1 0.999587
0.999984 1 1 0.999984
1 1 1 1
0.99999 1 1 0.99999
1 1 1 1
1 1 1 1
0.99889 1 1 0.99889
0.999565 1 1 0.999565
0.998945 1 1 0.998945
0.999999 1 1 0.999999
0.999619 1 1 0.999619
0.999088 1 1 0.999088
1 1 1 1
1 1 1 1
0.999682 1 1 0.999682
1 1 1 1
1 1 1 1
1 1 1 1
0.863756 0.933817 0.94882 0.974867
0.849304 0.917611 0.950533 0.973727
0.86184 0.930041 0.959251 0.966034
0.998998 1 1.00056 0.998441
0.999075 1 1.00078 0.998301
0.998631 1 1 0.998631
0.99852 1 1 0.99852
0.998444 1 1 0.998444
0.998436 1 1 0.998436
0.998385 1 1 0.998385
0.83412 0.921495 0.939091 0.963891
0.854669 0.938278 0.941702 0.967281
0.834412 0.915387 0.943354 0.966276
0.818425 0.944201 0.907272 0.955383
0.895888 0.939144 0.967797 0.985683
0.902668 0.927166 0.999369 0.974192
0.837234 0.903072 0.963433 0.962283
0.888913 0.93456 0.965621 0.98502
0.914694 0.929456 1.01263 0.971842
0.880635 0.940063 0.973979 0.96181
0.785714 0.909968 0.904418 0.954704
0.909752 0.938271 0.981902 0.987475
0.925936 0.937967 1.01614 0.971492
0.827718 0.900268 0.957924 0.959797
0.755961 0.881843 0.902539 0.949823
1.00997 1 1.01154 0.998444
0.999778 1 1.00155 0.998231
1.00293 1 1.00481 0.998126
0.998352 1 1 0.998352
0.968224 0.974251 0.995145 0.998662
1.00838 0.984008 1.02545 0.999336
1.00518 1 1.00704 0.998154
1.00467 1 1.00634 0.998337
1.03821 0.996181 1.04342 0.998821
1.00451 1 1.00607 0.998454
1.03422 0.993776 1.04196 0.998786
0.976588 0.964191 1.01567 0.997229
1.0048 0.971915 1.03428 0.999567
1.01337 0.993664 1.02094 0.998913
0.957856 0.937379 1.02499 0.996936
1.01865 0.974326 1.04623 0.999296
0.854001 0.917377 0.954337 0.97546
0.874614 0.937698 0.95348 0.978232
0.854739 0.91813 0.953479 0.976379
0.995549 0.973329 1.02303 0.999805
0.959544 0.955917 1.00786 0.995963
0.86473 0.932881 0.949333 0.976418
0.945617 0.952774 1.02174 0.971372
0.828044 0.897825 0.959013 0.961696
0.836868 0.917922 0.943342 0.966456
0.736416 0.86304 0.899922 0.948173
1.00351 0.966147 1.03948 0.999219
0.848736 0.918219 0.949138 0.97386
0.847127 0.925909 0.953458 0.959574
0.934357 0.946335 0.995211 0.992094
0.664061 0.798119 0.879621 0.9459
0.788276 0.876584 0.937338 0.959374
0.914382 0.929468 1.01192 0.972182
0.996914 0.971299 1.02869 0.997746
0.858533 0.932086 0.953202 0.966309
0.730461 0.830823 0.923785 0.951739
0.751887 0.853794 0.914091 0.963407
0.890854 0.91838 0.995387 0.974524
0.901782 0.930604 0.982493 0.986297
1.01653 0.98746 1.02986 0.99959
1.01319 0.985829 1.02825 0.999518
0.988368 0.983805 1.00531 0.999335
1.01945 0.988635 1.03179 0.999402
1.00651 0.993913 1.01379 0.998901
1.00195 1.0008 1.00332 0.997837
1.00681 1.00002 1.00892 0.997884
1.0153 1.00073 1.01789 0.996724
1.00865 1.00044 1.01234 0.995918
1.00466 1.00184 1.00617 0.99666
1.00473 1.00227 1.00674 0.995746
1.00215 1.00218 1.00447 0.995516
1.01613 1.02023 1 0.995984
1.01078 1.01394 1.00077 0.99612
1.0053 1.00734 1.00218 0.9958
1.0033 1.00628 1.00013 0.996914
1.00576 1.00836 1.00074 0.996685
1.00487 1.00681 1.0019 0.996178
1.00111 1.00266 1.00112 0.997341
1.00473 1.00638 1.00108 0.997277
1.01127 1.0137 1.00043 0.997184
1.00535 1 1.0073 0.998067
1.0026 1.0002 1.0046 0.997811
1.00776 1.00729 1.00288 0.997595
1.00019 1 1.00104 0.999148
1.00461 1 1.00618 0.998448
1.00464 1 1.00652 0.998129
0.999957 1 1 0.999957
0.999579 1 1.0002 0.999376
1.0009 1 1.00217 0.998728
0.999568 1 1.00007 0.999498
0.999971 1 1 0.999971
1 1 1 1
0.999982 1 1 0.999982
1 1 1 1
1 1 1 1
1.00035 1 1.00193 0.998427
0.99877 1 1 0.99877
0.999462 1 1 0.999462
0.998887 1 1 0.998887
0.999992 1 1 0.999992
0.999569 1 1 0.999569
0.998971 1 1 0.998971
1 1 1 1
1 1 1 1
0.99966 1 1 0.99966
1 1 1 1
1 1 1 1
1 1 1 1
0.841221 0.914468 0.945442 0.972986
0.862707 0.932455 0.948355 0.975584
0.850228 0.919339 0.949805 0.973701
0.998924 1 1.00047 0.998453
0.9997 1 1.0014 0.998298
0.999776 1 1.00145 0.99833
0.998664 1 1.00036 0.998308
1.00424 1 1.006 0.998253
0.998511 1 1 0.998511
0.998432 1 1 0.998432
0.998438 1 1 0.998438
0.99839 1 1 0.99839
1.00609 1 1.00766 0.99844
0.84048 0.917722 0.954306 0.959685
0.835438 0.921501 0.940506 0.963955
0.856015 0.937312 0.942264 0.969225
0.788052 0.912742 0.904208 0.954858
0.876608 0.936145 0.975074 0.960339
0.88168 0.929285 0.964466 0.983728
0.922686 0.937253 1.01042 0.974306
0.90664 0.940514 0.979003 0.984658
0.935919 0.947675 1.0136 0.97434
0.839383 0.904696 0.965279 0.96118
0.755083 0.887069 0.89712 0.948827
0.920087 0.934221 0.998036 0.986809
0.920147 0.932691 1.01192 0.974926
0.763775 0.850746 0.932993 0.962248
0.694551 0.828858 0.882788 0.949221
1.00998 1 1.011 0.998989
1.01119 1 1.01276 0.998448
1.0018 1 1.00357 0.998243
0.977838 0.966725 1.01552 0.99604
1.00749 0.966354 1.04286 0.999714
1.00446 1 1.00603 0.998448
1.0361 0.993539 1.04412 0.998773
1.0146 0.996297 1.01947 0.99892
1.02352 0.980231 1.04491 0.999285
0.963713 0.946956 1.02086 0.996905
1.01868 0.994479 1.025 0.999345
0.975518 0.961819 1.0171 0.997187
0.86948 0.933626 0.962017 0.968064
0.855655 0.91829 0.954755 0.975949
0.872475 0.936849 0.951074 0.979195
1.00595 0.97152 1.0361 0.999358
0.931796 0.945444 0.997413 0.98812
0.851366 0.919976 0.950286 0.973835
0.918547 0.938316 1.00737 0.971769
0.776052 0.857884 0.939963 0.962391
0.843016 0.9225 0.952448 0.959463
0.66667 0.808528 0.875382 0.94193
0.996065 0.970055 1.02893 0.99794
0.860145 0.930507 0.956635 0.966287
0.725598 0.827776 0.922225 0.950486
0.908092 0.937464 0.980767 0.987664
0.763693 0.861419 0.921846 0.961715
0.88328 0.921897 0.985162 0.972541
0.960395 0.960383 1.00358 0.996441
0.76437 0.847328 0.943644 0.955968
0.761273 0.852702 0.926305 0.963805
0.902065 0.940865 0.985433 0.972935
0.880549 0.927003 0.961008 0.988428
1.01182 0.983242 1.02957 0.999515
0.992637 0.982898 1.01061 0.999308
0.996853 0.99515 1.00323 0.99849
1.00431 0.98727 1.0183 0.998979
1.00127 1.00087 1.00249 0.997921
0.998109 1.00199 0.999134 0.996995
1.01346 1.00067 1.0162 0.996634
1.00734 1.00061 1.01084 0.995926
0.999158 1.00169 1.00137 0.996108
1.00493 1.00195 1.00735 0.995657
1.0023 1.00307 1.0037 0.995547
1.01489 1.01877 1 0.996192
1.03523 1.03885 1 0.996519
1.02516 1.0292 1.00002 0.996058
1.01607 1.02014 1 0.996011
1.01147 1.01512 1 0.9964
1.00929 1.01219 1.00107 0.996069
1.00581 1.00765 1.00244 0.995745
1.00377 1.00671 1 0.997075
1.00191 1.00491 1.00002 0.996987
1.00448 1.00743 1.00032 0.996749
1.00026 1.00049 1.00208 0.997697
1.00149 1.00282 1.0013 0.997374
1.005 1.00666 1.0011 0.997256
1.00481 1 1.00607 0.998744
1.00513 1.00002 1.00706 0.99807
1.00282 1.00032 1.00464 0.997869
0.999918 1 1 0.999918
1.00091 1 1.00177 0.99914
1.00401 1 1.00557 0.998452
1 1 1 1
0.999949 1 1 0.999949
0.999715 1 1.00035 0.999369
0.999967 1 1 0.999967
1 1 1 1
1 1 1 1
1.00311 1 1.00477 0.998343
0.99945 1 1.00081 0.998641
1.00063 1 1.00222 0.99841
0.999359 1 1 0.999359
0.99888 1 1.00011 0.998768
0.999974 1 1 0.999974
0.999466 1 1 0.999466
0.998884 1 1 0.998884
1 1 1 1
0.999995 1 1 0.999995
0.999572 1 1 0.999572
1 1 1 1
1 1 1 1
1 1 1 1
0.858217 0.93014 0.952802 0.968381
0.844044 0.916397 0.946641 0.972963
0.862742 0.930697 0.949484 0.976304
0.998718 1 1.00038 0.998341
0.999377 1 1.00091 0.998464
0.999973 1 1.00168 0.998297
0.998761 1 1.00045 0.998308
0.99965 1 1.0013 0.998351
1.00246 1 1.00414 0.998321
1.01017 1 1.01216 0.998033
1.0119 1 1.01365 0.998278
0.99844 1 1 0.99844
0.998395 1 1 0.998395
1.00568 1 1.00727 0.998427
1.01826 0.999869 1.01978 0.998638
0.735567 0.834107 0.92734 0.950958
0.850374 0.926916 0.956165 0.959482
0.836416 0.921326 0.941739 0.964003
0.745772 0.878323 0.89317 0.950643
0.842433 0.910046 0.963899 0.960374
0.928947 0.940315 1.01684 0.971553
0.908647 0.934655 0.986616 0.985362
0.918713 0.933437 0.995403 0.988771
0.681114 0.819658 0.878939 0.945427
0.913972 0.929805 1.01102 0.972261
0.782674 0.871348 0.935262 0.960409
0.917564 0.940617 0.985635 0.989709
0.905986 0.930654 0.997492 0.975941
0.753137 0.855542 0.915026 0.962053
0.999004 1 0.999461 0.999543
1.00956 1 1.01057 0.998996
1.01129 1 1.01286 0.998451
0.961812 0.946857 1.01892 0.996934
1.02826 0.985932 1.04369 0.999273
1.01501 0.998065 1.01806 0.998928
1.01858 0.995865 1.02348 0.999344
0.972691 0.960984 1.01499 0.997233
0.994119 0.987596 1.00851 0.998107
0.791016 0.861036 0.960354 0.956605
0.866941 0.932877 0.958245 0.969814
0.855247 0.918593 0.953512 0.976432
0.997 0.968739 1.03116 0.998079
0.89827 0.932714 0.974259 0.988516
0.859302 0.928947 0.957296 0.966292
0.888083 0.914515 0.997233 0.973791
0.770696 0.875193 0.917517 0.959766
0.727839 0.833618 0.91716 0.95197
0.961269 0.958367 1.00654 0.996512
0.7602 0.846362 0.938129 0.957434
0.764643 0.856081 0.928402 0.962073
0.882299 0.927866 0.964965 0.985414
0.89876 0.942277 0.977606 0.975667
0.951559 0.967878 0.984853 0.99826
0.785731 0.868961 0.939665 0.962278
0.927966 0.974076 0.975051 0.977039
0.893918 0.941651 0.963587 0.985183
0.996597 0.981622 1.01598 0.999286
0.988908 0.994901 0.995382 0.998587
0.994073 1.00166 0.994727 0.997687
1.00122 1.00098 1.00224 0.998004
1.0014 1.00242 1.00201 0.996978
1.0002 1.00377 0.999428 0.997009
1.00603 1.0008 1.00933 0.995934
0.999048 1.00127 1.00167 0.996119
1.02014 1.02382 0.999451 0.996953
1.00272 1.00398 1.00319 0.995578
1.0139 1.01777 1 0.996203
1.03576 1.03895 0.999843 0.997086
1.03881 1.04181 1 0.99712
1.03784 1.04155 1 0.996436
1.03522 1.03879 1 0.99656
1.02601 1.02985 1 0.996276
1.02377 1.02776 1 0.996113
1.01582 1.01986 1 0.996038
1.01476 1.01806 1 0.996757
1.01162 1.01511 1.00014 0.996427
1.00794 1.01048 1.00148 0.996017
1.0005 1.00311 1 0.997391
1.00419 1.00714 1 0.997069
1.00065 1.0036 1 0.997061
1.00313 1.00005 1.00477 0.998322
1.00114 1.00112 1.00234 0.997695
1.00167 1.00282 1.00145 0.997408
1.00022 1 1.00041 0.999812
1.00355 1 1.00482 0.99874
1.00438 1.00009 1.00623 0.998073
1 1 1 1
0.999902 1 1 0.999902
1.00113 1 1.002 0.999132
1 1 1 1
0.999941 1 1 0.999941
1 1 1 1
0.999643 1 1.00139 0.998253
1.00206 1 1.00373 0.998332
1.00212 1 1.00362 0.998509
0.999696 1 1.00045 0.999251
0.999768 1 1.00113 0.99864
1.00014 1 1.00175 0.998392
0.999948 1 1 0.999948
0.999363 1 1 0.999363
0.998775 1 1.00001 0.998767
1 1 1 1
0.99998 1 1 0.99998
0.99947 1 1 0.99947
1 1 1 1
0.999998 1 1 0.999998
1 1 1 1
0.766956 0.846281 0.95073 0.953233
0.858378 0.930182 0.95293 0.968389
0.847218 0.918653 0.947887 0.972942
1.00115 1 1.00284 0.998321
1.00417 1.00126 1.00485 0.998071
1.00862 1 1.01046 0.998183
0.999547 1 1.00124 0.998308
0.999426 1 1.00106 0.998371
1.00246 1 1.00408 0.998388
1.01039 1 1.01216 0.998251
1.00964 1 1.01159 0.998067
1.01113 1.00004 1.01317 0.997945
0.989879 1.00057 0.990322 0.998977
1.00434 1 1.00593 0.998413
1.01454 0.999858 1.0161 0.998608
0.764174 0.852252 0.933802 0.960217
0.722892 0.822664 0.926057 0.948884
0.857273 0.932503 0.958288 0.959341
0.668896 0.809272 0.877859 0.941541
0.783793 0.871233 0.934787 0.962397
0.904054 0.925716 1.00235 0.974312
0.925589 0.939596 0.998804 0.986272
0.90917 0.934864 0.984728 0.987598
0.754234 0.849081 0.924454 0.960885
0.889375 0.920807 0.991924 0.973729
0.900275 0.940573 0.968095 0.9887
0.889832 0.94225 0.970169 0.973407
1.00398 1 1.00496 0.999021
0.998602 1 0.999117 0.999485
1.00933 1 1.01033 0.999002
0.971023 0.96132 1.01285 0.997278
1.01846 0.99722 1.02197 0.999344
0.994918 0.988581 1.00839 0.998038
0.983167 0.992668 0.993257 0.997153
0.794079 0.886064 0.928623 0.965072
0.791976 0.860014 0.961888 0.957375
0.867578 0.93385 0.956251 0.971538
0.963576 0.964617 1.00227 0.996656
0.884464 0.928023 0.966618 0.985976
0.760791 0.847142 0.937864 0.957569
0.887725 0.935617 0.975125 0.973016
0.774363 0.862082 0.931742 0.964051
0.955602 0.97038 0.987398 0.997338
0.79431 0.878449 0.938411 0.963564
0.924553 0.974808 0.974138 0.973626
0.899026 0.943853 0.964449 0.987617
0.960956 0.986022 0.976386 0.99815
0.931101 0.980656 0.97244 0.976376
0.935465 0.978777 0.96577 0.989624
0.9798 0.993463 0.987558 0.998672
0.990795 1.00197 0.991166 0.99766
0.981651 1.00748 0.976749 0.997553
1.0033 1.00278 1.00356 0.996961
0.999529 1.00389 0.998648 0.997005
1.02161 1.03158 0.992691 0.997626
0.998702 1.00072 1.00186 0.996131
1.01941 1.02368 0.998888 0.996935
1.03416 1.04151 0.995293 0.997643
1.01289 1.01674 1 0.996214
1.035 1.03855 0.999495 0.99708
1.03897 1.04295 0.99858 0.997598
1.03624 1.03887 0.999991 0.997475
1.03973 1.04267 0.999993 0.997187
1.03851 1.04166 1 0.996973
1.03902 1.04266 1 0.996501
1.03796 1.04166 1 0.99645
1.03534 1.03887 1 0.996602
1.02654 1.03012 1 0.996528
1.02762 1.03143 1 0.996307
1.02235 1.02628 1 0.996168
1.00829 1.01122 1 0.997108
1.01374 1.01704 1 0.996753
1.01171 1.01514 1.00017 0.996455
0.998637 1.00034 1.00026 0.998034
1.0021 1.00472 1 0.997388
1.00488 1.00784 1 0.997062
1.00103 1 1.00143 0.9996
1.00249 1.00013 1.00405 0.998323
1.00238 1.00181 1.00288 0.997694
1 1 1 1
1.00075 1 1.00096 0.999788
1.00307 1 1.00434 0.998737
0.999999 1 1 0.999999
0.999962 1 1.00007 0.999888
1 1 1 1
0.998454 1.0003 1 0.998156
1.00074 1 1.00248 0.998266
1.00285 1 1.00448 0.998378
1.0006 1 1.00228 0.998321
1.00221 1 1.00371 0.998508
1.00078 1 1.00167 0.999112
0.999916 1 1 0.999916
0.999563 1 1.00031 0.999254
1.00043 1 1.00179 0.998638
1 1 1 1
0.999956 1 1 0.999956
0.999367 1 1 0.999367
1 1 1 1
0.999986 1 1 0.999986
1 1 1 1
0.794687 0.874439 0.943223 0.9635
0.769794 0.849212 0.950583 0.953604
0.85784 0.929945 0.952574 0.96839
1.00379 1 1.0055 0.998302
1.01087 1 1.01285 0.998049
1.00239 1.00079 1.00346 0.998143
1.00016 1.0021 1.00071 0.99736
1.01068 1.0008 1.01186 0.998038
1.00939 1 1.01119 0.998226
1.00787 1 1.00978 0.998102
1.01432 1.00028 1.01606 0.99801
0.998651 1.00092 1 0.997732
0.979813 1.00097 0.98022 0.998619
0.980507 1.00035 0.982381 0.997743
0.990164 1.00049 0.990648 0.99902
1.009 1 1.01043 0.998579
0.914531 0.966804 0.969878 0.97531
0.762138 0.8487 0.934253 0.961202
0.722808 0.824389 0.923497 0.949414
0.752265 0.851241 0.92173 0.958771
0.901007 0.931598 0.99374 0.973255
0.912211 0.930847 0.990073 0.989805
0.901454 0.939732 0.968697 0.990265
0.903665 0.944874 0.979304 0.976598
0.928337 0.972432 0.964908 0.989374
0.995511 1.00132 0.995975 0.998218
1.00375 1 1.00476 0.998999
0.998436 1 0.999007 0.999428
0.996337 0.990751 1.00765 0.998003
0.988734 0.996176 0.995223 0.997294
0.907072 0.967802 0.960271 0.976027
0.802792 0.884484 0.940324 0.965241
0.792511 0.857775 0.964246 0.958173
0.962051 0.975718 0.989588 0.996367
0.901308 0.946204 0.966719 0.985344
0.793443 0.875487 0.940911 0.963202
0.920335 0.966784 0.97485 0.976515
0.969074 0.985854 0.984731 0.998222
0.939682 0.989624 0.97154 0.97735
0.932016 0.975316 0.967945 0.98725
0.983574 1.00419 0.981813 0.997612
0.956727 0.993821 0.969647 0.99281
0.991976 1.00457 0.989791 0.997653
0.98132 1.00712 0.976818 0.997504
0.998359 1.03308 0.968493 0.997825
0.999019 1.00391 0.998123 0.997001
1.02222 1.03184 0.993062 0.997602
1.03226 1.04937 0.985751 0.997916
1.01866 1.02357 0.99828 0.996918
1.03362 1.04168 0.994637 0.997621
1.03038 1.04186 0.99113 0.997838
1.03415 1.03812 0.999097 0.997075
1.03899 1.04344 0.998147 0.997577
1.03666 1.0416 0.997578 0.99767
1.03674 1.03937 0.999937 0.997528
1.03514 1.03803 0.999939 0.997286
1.04058 1.04347 0.999975 0.997254
1.03843 1.04159 1 0.996965
1.04052 1.04388 1 0.996783
1.03594 1.03952 1 0.996557
1.03883 1.04249 1 0.99649
1.03807 1.04175 1 0.996465
1.02005 1.02323 1 0.996891
1.02602 1.02959 1 0.996541
1.02927 1.03305 1 0.996339
1.00001 1.00219 1 0.997819
1.00917 1.0121 1 0.997105
1.0126 1.01591 1 0.996749
1.00021 1 1.00086 0.999351
0.999277 1.00078 1.00047 0.998035
1.00358 1.00621 1 0.997385
1 1 1 1
1.00107 1 1.0015 0.999576
1.00163 1.0002 1.00311 0.998325
1 1 1 1
1.00115 1 1.00138 0.999763
1 1 1 1
1.00177 1.00431 1 0.997466
0.998523 1.00038 1 0.998145
1.00012 1 1.00194 0.998183
1.00225 1 1.00398 0.998279
1.00238 1 1.00403 0.99835
1.00195 1 1.00305 0.998903
1.00255 1 1.00404 0.998507
1.00034 1 1.00123 0.999113
0.999874 1 1 0.999874
1 1 1 1
0.999925 1 1 0.999925
0.999388 1 1.00013 0.999256
1 1 1 1
0.999963 1 1 0.999963
1 1 1 1
0.931411 0.981841 0.969693 0.978287
0.792893 0.880042 0.934396 0.964229
0.776225 0.853325 0.954944 0.952566
1.01245 1 1.01457 0.997915
1.00032 1.00034 1.00177 0.998217
1.00871 1.00067 1.01005 0.998007
1.00159 1.00318 1.00099 0.99743
1.00938 1.01231 1.00016 0.996943
0.999069 1.00142 1 0.997651
1.0185 1.00058 1.01988 0.998074
0.9989 1.00137 1 0.997536
0.985522 1.0012 0.985722 0.9986
0.995437 1.00103 0.996683 0.99772
0.976918 1.00312 0.975965 0.997867
0.99562 1.00129 0.996984 0.997346
0.981715 1.00082 0.983 0.997876
0.993979 1.0003 0.994608 0.999064
0.932491 0.977611 0.964034 0.989433
0.91903 0.970937 0.970199 0.975614
0.764463 0.850107 0.933151 0.963676
0.909141 0.948982 0.984651 0.972951
0.905449 0.938691 0.973128 0.991223
0.931752 0.970353 0.967458 0.992518
0.988267 1.00377 0.986934 0.997592
0.993406 1.00067 0.994528 0.998204
1.00355 1 1.00458 0.998978
0.990262 0.998715 0.994105 0.997416
0.943084 0.974398 0.97795 0.989686
0.922501 0.974456 0.96676 0.979233
0.790813 0.878385 0.934482 0.963426
0.969173 0.981992 0.988641 0.998286
0.93437 0.978971 0.965175 0.988879
0.944964 0.98825 0.977435 0.978274
0.975556 1.0025 0.975414 0.99765
0.955417 0.990013 0.972773 0.992066
0.977178 1.02431 0.95631 0.997575
0.997725 1.01651 0.984849 0.996625
0.980319 1.00676 0.976231 0.997448
0.99684 1.0317 0.96832 0.99782
1.00492 1.05137 0.957883 0.997846
1.02334 1.03263 0.993412 0.997577
1.03204 1.04917 0.985745 0.997897
1.02665 1.04534 0.984298 0.997789
1.03344 1.04203 0.994141 0.997598
1.03002 1.04118 0.991436 0.99782
1.03599 1.04664 0.992166 0.99764
1.03913 1.04397 0.997801 0.997557
1.03476 1.03975 0.997537 0.997662
1.03653 1.04067 0.998625 0.99739
1.03726 1.03988 0.999903 0.997581
1.03549 1.0383 0.99996 0.997332
1.039 1.04215 1 0.996973
1.0384 1.04157 1 0.996956
1.0405 1.04387 1 0.996772
1.03854 1.04196 1 0.996722
1.02795 1.03127 1 0.996781
1.03596 1.03953 1 0.996563
1.03858 1.04225 1 0.996479
1.00443 1.00681 1 0.997627
1.01931 1.02249 1 0.996894
1.02553 1.02908 1 0.996553
0.999197 1 1.00005 0.999144
1.0012 1.00339 1 0.997817
1.00984 1.01277 1 0.997102
1 1 1 1
0.999964 1 1.00063 0.999334
0.999813 1.00117 1.00061 0.998035
1 1 1 1
1.00119 1 1.00164 0.999552
1 1 1 1
1.01087 1.01386 1 0.997042
1.00302 1.00554 1 0.997489
1.00314 1.00474 1.00066 0.997747
0.998613 1.00048 1 0.998135
0.999994 1 1.00185 0.998144
1.00131 1 1.00269 0.998623
1.00196 1 1.00365 0.998322
1.00179 1 1.00289 0.998904
1.00043 1 1.00062 0.999809
1.00001 1 1.0009 0.999114
0.999883 1 1 0.999883
1 1 1 1
1 1 1 1
0.999935 1 1 0.999935
1 1 1 1
0.934359 0.97779 0.965177 0.990059
0.923677 0.981283 0.964906 0.975531
0.785385 0.873087 0.932025 0.965154
1.02353 1.02684 1.00007 0.996721
1.00685 1.00041 1.00848 0.997977
1.0031 1.00431 1.00131 0.9975
0.998789 1.00116 1 0.997629
1.00903 1.01171 1.00042 0.996926
1.00225 1.00479 0.99993 0.997548
0.999035 1.0017 1 0.997341
0.987765 1.00104 0.98814 0.998581
0.993402 1.00127 0.994397 0.997734
0.97113 1.00211 0.971243 0.997777
1.00144 1.00825 0.996158 0.997078
1.00092 1.00686 0.996733 0.997355
0.99644 1.00195 0.997183 0.997306
0.982103 1.00134 0.982748 0.99801
0.986733 1.00613 0.982603 0.998088
0.928382 0.976311 0.962244 0.98822
0.921263 0.972592 0.970182 0.976337
0.925208 0.964667 0.968367 0.990425
0.991171 1.00545 0.987548 0.998231
0.993422 1.0002 0.995029 0.998185
0.987266 1.00668 0.984291 0.996365
0.92937 0.960853 0.97591 0.99111
0.909826 0.97124 0.959661 0.976144
0.971432 1.00053 0.97317 0.997688
0.962566 0.991952 0.979106 0.991084
0.980639 1.02535 0.958626 0.997668
0.998927 1.0161 0.986198 0.99686
0.994048 1.03821 0.959686 0.997678
1.04119 1.05197 0.992193 0.997535
0.994283 1.02973 0.967694 0.997814
1.00856 1.05272 0.960127 0.997833
1.01557 1.05533 0.964601 0.997647
1.03106 1.04844 0.98552 0.997879
1.02526 1.0444 0.983845 0.997785
1.03474 1.05197 0.986066 0.997526
1.02936 1.04038 0.991591 0.997801
1.03486 1.0456 0.992065 0.997653
1.03877 1.0459 0.995833 0.997338
1.03285 1.03791 0.99746 0.997654
1.03709 1.04115 0.998703 0.997388
1.0411 1.0443 0.999868 0.997064
1.0358 1.03854 0.999981 0.997377
1.03934 1.04245 1 0.997013
1.04047 1.04385 1 0.996767
1.04047 1.04385 1 0.996761
1.03832 1.04175 1 0.996703
1.031 1.03431 1 0.9968
1.0093 1.01183 1 0.997506
1.02722 1.03052 1 0.9968
1.03598 1.03954 1 0.99657
0.998997 1 1 0.998997
1.00595 1.00835 1 0.997627
1.01878 1.02195 1 0.996896
1 1 1 1
0.99913 1 1 0.99913
1.00254 1.00473 1 0.997815
1 1 1 1
0.999662 1 1.00034 0.999318
1 1 1 1
1.02207 1.02543 1 0.99673
1.01202 1.01502 1 0.997042
1.00981 1.01249 1 0.997357
1.00419 1.00668 1.00001 0.997513
1.00191 1.00362 1.00056 0.997742
1.00096 1.00084 1.00181 0.998317
0.999735 1 1.00163 0.998104
1.0022 1 1.00359 0.998624
1.00092 1 1.00122 0.999695
1.00121 1 1.00231 0.998906
0.999952 1 1.00013 0.999819
1 1 1 1
0.999893 1 1 0.999893
1 1 1 1
1 1 1 1
0.982486 1.01057 0.974259 0.997901
0.928764 0.974795 0.9646 0.987745
0.920367 0.97137 0.968176 0.978638
1.01625 1.01918 1.00001 0.997106
1.03298 1.03635 1 0.996747
1.02141 1.02457 1.00013 0.996784
0.998624 1.00102 1 0.997605
1.00866 1.01104 1.00073 0.996907
1.00301 1.0064 0.999106 0.997517
1.01763 1.02202 0.998671 0.997034
0.99223 1.0018 0.992684 0.997749
0.967603 1.00146 0.96843 0.997685
1.00279 1.01 0.99569 0.99716
1.02091 1.02796 0.996248 0.996876
1.00783 1.02429 0.98629 0.997603
1.0032 1.0086 0.997316 0.99732
0.997675 1.00262 0.997792 0.997265
0.990992 1.00801 0.984782 0.998306
0.931841 0.978229 0.96523 0.986895
0.991214 1.00596 0.986433 0.998889
1.02161 1.03994 0.984195 0.998151
0.985734 1.00539 0.983909 0.996483
0.933388 0.971238 0.971729 0.98899
0.983727 1.02677 0.960238 0.997756
1.00004 1.0161 0.987047 0.997108
0.992752 1.03884 0.95774 0.997801
1.04101 1.05333 0.990734 0.997549
1.03554 1.06188 0.977599 0.997539
1.06546 1.07884 0.9899 0.99767
1.01249 1.05489 0.961904 0.99782
1.02051 1.0561 0.968584 0.997648
1.03799 1.06075 0.981063 0.997429
1.0242 1.04364 0.983561 0.997781
1.03457 1.05118 0.986647 0.997525
1.03927 1.05142 0.991114 0.997304
1.03379 1.04457 0.991998 0.997666
1.03927 1.04638 0.995867 0.997335
1.04394 1.04817 0.998902 0.997064
1.03761 1.0416 0.99878 0.997386
1.04138 1.04456 0.999893 0.997063
1.04346 1.04683 1 0.99678
1.03968 1.04275 1 0.997053
1.04003 1.04339 1 0.99678
1.03342 1.03676 1 0.996775
1.03813 1.04158 1 0.996684
1.03091 1.03423 1 0.996795
1.01153 1.01412 1 0.997438
0.998932 1 1 0.998932
1.00993 1.01246 1 0.997505
1.02653 1.02981 1 0.996818
1 1 1 1
0.998986 1 1 0.998986
1.00739 1.00979 1 0.997627
1 1 1 1
0.999117 1 1 0.999117
1 1 1 1
1.03058 1.03406 1 0.996635
1.02204 1.02541 1 0.996716
1.01559 1.01859 1 0.997053
1.01295 1.01595 1 0.997042
1.00836 1.01103 1 0.997365
1.00164 1.00326 1.00035 0.998031
1.00052 1.00232 1.00046 0.997736
1.00119 1.00048 1.0024 0.998319
1.00049 1 1.00099 0.999501
1.00369 1 1.00507 0.998625
1.00079 1 1.00108 0.999711
1 1 1 1
0.99983 1 1 0.99983
1 1 1 1
1 1 1 1
1.00699 1.03608 0.973794 0.998085
0.9798 1.00952 0.973276 0.997209
0.928629 0.976567 0.962009 0.988464
1.02898 1.03216 1 0.996916
1.01742 1.02018 1 0.997295
1.04827 1.05164 1 0.99679
1.03364 1.03703 1 0.996731
1.01948 1.02252 1.00018 0.99685
1.04053 1.04505 0.998885 0.996783
1.00362 1.0081 0.998057 0.997487
1.01704 1.02098 0.999164 0.996971
1.03967 1.05589 0.987552 0.997051
1.00315 1.01155 0.994439 0.997242
1.02135 1.02852 0.996194 0.996824
1.00895 1.02576 0.985945 0.997636
1.00363 1.00892 0.997464 0.997282
0.995669 1.00985 0.987422 0.998512
1.0514 1.07079 0.984135 0.99772
1.02226 1.03958 0.985142 0.99817
0.984184 1.00409 0.983523 0.996596
0.992238 1.03881 0.957154 0.997923
1.03985 1.0537 0.98927 0.997564
1.03141 1.06113 0.974374 0.997561
1.06615 1.08069 0.988858 0.997665
1.05513 1.07347 0.985324 0.997557
1.02501 1.05649 0.97249 0.997649
1.03864 1.06014 0.98223 0.997439
1.04068 1.0567 0.98748 0.997326
1.03434 1.05036 0.987192 0.997523
1.0391 1.0511 0.991271 0.997285
1.0444 1.05151 0.996184 0.997046
1.03981 1.04688 0.995903 0.997332
1.04403 1.04821 0.998946 0.99706
1.04667 1.05006 1 0.996778
1.04168 1.04483 0.999918 0.997063
1.04321 1.04658 1 0.996783
1.03672 1.04013 1 0.996723
1.03959 1.04294 1 0.996793
1.03354 1.03688 1 0.99678
1.01254 1.01522 1 0.997365
1.03078 1.0341 1 0.99679
1.01173 1.01433 1 0.997436
0.999106 1 1 0.999106
0.999667 1 1 0.999667
0.999009 1 1 0.999009
1.01054 1.01306 1 0.997504
1 1 1 1
0.998974 1 1 0.998974
1 1 1 1
1.05461 1.05791 1 0.996872
1.04004 1.04347 1 0.996721
1.03151 1.035 1 0.996636
1.02277 1.02596 1 0.996899
1.02231 1.02569 1 0.996703
1.01635 1.01935 1 0.997053
1.00524 1.00746 1 0.997794
1.0071 1.00976 1 0.997372
1.00088 1.00239 1.00047 0.998034
0.999375 1 1.00012 0.999254
1.00134 1.0002 1.00282 0.998321
1.00058 1 1.00106 0.999521
1 1 1 1
1.00019 1 1.00046 0.999727
1 1 1 1
1 1 1 1
1.04589 1.06933 0.980556 0.997469
1.01127 1.04128 0.972983 0.998145
0.977343 1.00962 0.971406 0.996527
1.04539 1.04884 0.999907 0.996806
1.02686 1.02998 1 0.99697
1.01829 1.02086 1 0.997481
1.04695 1.05031 1 0.996808
1.03429 1.0377 1 0.996716
1.04893 1.06331 0.989411 0.997032
1.03703 1.04182 0.998651 0.996743
1.01652 1.01976 0.999913 0.996908
1.03854 1.05461 0.987676 0.997046
1.0242 1.0311 0.996533 0.996772
1.01354 1.03107 0.985285 0.997675
1.05507 1.07172 0.986779 0.997655
1.05422 1.07267 0.985015 0.997751
1.02278 1.03944 0.985753 0.998191
1.02858 1.06148 0.971357 0.997581
1.06774 1.08332 0.987933 0.99766
1.05507 1.07441 0.98439 0.997565
1.04641 1.05861 0.991036 0.997417
1.03922 1.05945 0.983409 0.997448
1.04087 1.05636 0.987987 0.997314
1.04551 1.05435 0.994514 0.997079
1.03894 1.0508 0.991424 0.997266
1.04484 1.05195 0.996191 0.997045
1.04913 1.05284 0.9997 0.996773
1.04411 1.04825 0.998991 0.997057
1.04695 1.05033 1 0.996779
1.03941 1.04289 1 0.996664
1.04297 1.04634 1 0.996786
1.03699 1.04039 1 0.996726
1.01381 1.01658 1 0.997268
1.03367 1.037 1 0.996785
1.01287 1.01555 1 0.997364
0.999116 1 1 0.999116
1.01195 1.01455 1 0.997434
0.999101 1 1 0.999101
0.999688 1 1 0.999688
0.99984 1 1 0.99984
0.999091 1 1 0.999091
1 1 1 1
1.04978 1.05315 0.99994 0.996856
1.04535 1.04873 1 0.996781
1.05361 1.05679 1 0.996993
1.03271 1.03601 1 0.996819
1.04207 1.04551 1 0.996709
1.03243 1.03592 1 0.996637
1.02376 1.02695 1 0.996892
1.01035 1.01278 1 0.997602
1.01706 1.02007 1 0.997052
1.00391 1.00613 1 0.997795
0.999055 1 1 0.999055
0.999984 1.00143 1.00052 0.998037
0.999642 1 1.00037 0.999272
1 1 1 1
1.00083 1 1.00129 0.999541
1 1 1 1
1 1 1 1
1.04688 1.06627 0.984418 0.997358
1.04398 1.06727 0.98067 0.997464
1.01391 1.044 0.972927 0.998197
1.04963 1.05775 0.995369 0.996945
1.04309 1.04668 0.99977 0.996807
1.02498 1.02804 1 0.997025
1.04546 1.04879 1 0.996826
1.04749 1.0617 0.98958 0.997007
1.03338 1.03843 0.998438 0.996702
1.03355 1.04929 0.987928 0.997041
1.04952 1.06211 0.99065 0.997479
1.05376 1.07024 0.986953 0.997615
1.05682 1.07425 0.98596 0.997782
1.04512 1.05426 0.993998 0.997314
1.05464 1.07504 0.983409 0.997573
1.04631 1.0587 0.990865 0.997403
1.04706 1.05533 0.994968 0.99718
1.04113 1.05604 0.988544 0.997302
1.0456 1.05447 0.994497 0.997081
1.05008 1.05416 0.999344 0.996784
1.04523 1.05232 0.996203 0.997044
1.04924 1.05297 0.999686 0.996775
1.04046 1.04398 1 0.996622
1.04714 1.05052 1 0.99678
1.0396 1.04308 1 0.996666
1.01467 1.01755 1 0.997174
1.03724 1.04064 1 0.99673
1.01406 1.01683 1 0.997268
0.999091 1 1 0.999091
1.0132 1.01588 1 0.997362
0.999105 1 1 0.999105
0.999693 1 1 0.999693
0.999098 1 1 0.999098
0.999695 1 1 0.999695
1 1 1 1
1.04948 1.05399 0.998959 0.996758
1.04714 1.05059 1 0.996718
1.05147 1.05488 0.999916 0.996856
1.03874 1.04203 1 0.99684
1.04653 1.04988 1 0.996811
1.05277 1.05582 1 0.997113
1.01393 1.01653 1 0.997445
1.03272 1.03602 1 0.99681
1.04427 1.04773 1 0.996698
1.02462 1.02782 1 0.996886
1.00882 1.01124 1 0.997604
0.99895 1 1 0.99895
1.00256 1.00477 1 0.997796
0.999069 1 1 0.999069
1 1 1 1
0.999872 1 1.00058 0.999291
1 1 1 1
1 1 1 1
1.04563 1.05805 0.991015 0.997226
1.04683 1.0665 0.984171 0.997341
1.04406 1.06741 0.980624 0.997459
1.04879 1.05705 0.995203 0.996961
1.04052 1.04425 0.999622 0.996808
1.04693 1.061 0.989725 0.996983
1.04642 1.05626 0.99335 0.997314
1.04989 1.06224 0.990873 0.997472
1.05248 1.06887 0.98706 0.997576
1.04557 1.0546 0.994086 0.997334
1.04716 1.05417 0.996222 0.997125
1.04619 1.05882 0.990657 0.99739
1.04735 1.05534 0.995279 0.997139
1.04994 1.05455 0.998754 0.99687
1.04571 1.05459 0.994476 0.997083
1.05004 1.05419 0.999278 0.996787
1.04037 1.04393 1 0.996594
1.04957 1.05331 0.99967 0.996776
1.04078 1.0443 1 0.996624
1.01486 1.01781 1 0.997109
1.03994 1.04342 1 0.996669
1.01474 1.01762 1 0.997175
0.999036 1 1 0.999036
1.01432 1.0171 1 0.997268
0.999075 1 1 0.999075
0.999672 1 1 0.999672
0.999098 1 1 0.999098
0.999708 1 1 0.999708
0.999697 1 1 0.999697
1.04901 1.05592 0.996428 0.997011
1.04939 1.05295 1 0.996618
1.05005 1.05529 0.998245 0.996786
1.04081 1.0442 1 0.996754
1.04632 1.04978 1 0.996707
1.05311 1.05654 0.999893 0.996857
1.01517 1.01788 1 0.997337
1.03858 1.0419 1 0.996806
1.04753 1.05085 1 0.99684
0.999007 1.00009 1 0.998917
1.01331 1.01591 1 0.997448
1.03284 1.03615 1 0.996801
1.00739 1.00981 1 0.997605
0.998999 1.00004 1 0.998961
1 1 1 1
0.999083 1 1 0.999083
1 1 1 1
1 1 1 1
1.0438 1.05343 0.99363 0.997209
1.04564 1.05801 0.991067 0.997218
1.04637 1.06625 0.983986 0.997325
1.04798 1.05639 0.995051 0.996977
1.04729 1.05317 0.997323 0.997083
1.04675 1.05637 0.993555 0.997325
1.0503 1.06235 0.991167 0.997465
1.04604 1.05494 0.994194 0.997355
1.04709 1.05423 0.99609 0.997135
1.04989 1.05448 0.998782 0.996863
1.0477 1.05538 0.995613 0.997098
1.04997 1.0544 0.998968 0.996824
1.04035 1.04387 1 0.996632
1.04991 1.05412 0.999214 0.99679
1.04067 1.04422 1 0.996597
1.01444 1.01743 1 0.997058
1.04081 1.04434 1 0.996625
1.01471 1.01765 1 0.997109
0.99881 1 1 0.99881
1.01475 1.01762 1 0.997175
0.998941 1 1 0.998941
1 1 1 1
0.999061 1 1 0.999061
0.999694 1 1 0.999694
0.999718 1 1 0.999718
1.04677 1.05326 0.996727 0.997101
1.0493 1.05328 0.999482 0.996742
1.04934 1.05575 0.996919 0.997001
1.04104 1.04459 1 0.996607
1.04847 1.05222 0.999799 0.996636
1.05067 1.05664 0.997529 0.996814
1.01549 1.01839 1 0.997159
1.041 1.04439 1 0.996754
1.04556 1.04902 1 0.996697
0.998966 1.00005 1 0.998915
1.015 1.01776 1 0.997295
1.03841 1.04177 1 0.996772
1 1 1 1
0.998968 1.00004 1 0.998928
1.0125 1.01509 1 0.99745
0.998977 1 1 0.998973
1 1 1 1
1 1 1 1
1.04604 1.05195 0.997281 0.997097
1.04416 1.05368 0.993736 0.997216
1.04556 1.05794 0.991068 0.99721
1.04999 1.05403 0.999369 0.9968
1.04662 1.05282 0.997007 0.997096
1.04707 1.05647 0.993752 0.997335
1.04698 1.05428 0.995918 0.997145
1.04957 1.05426 0.998686 0.996864
1.0395 1.04294 1 0.996695
1.04991 1.05418 0.999165 0.996778
1.04036 1.04387 1 0.996635
1.01384 1.01694 1 0.99696
1.04111 1.04467 1 0.996599
1.01432 1.01731 1 0.997059
0.998768 1 1 0.998768
1.01466 1.01761 1 0.99711
0.998807 1 1 0.998807
1 1 1 1
0.998831 1 1 0.998831
0.999828 1 1 0.999828
0.999712 1 1 0.999712
1.04691 1.05239 0.99773 0.997053
1.05014 1.05372 0.999797 0.996807
1.04697 1.05339 0.996786 0.997108
1.04088 1.04443 1 0.996604
1.05002 1.05377 0.999723 0.996726
1.0497 1.0556 0.997416 0.996991
1.01515 1.01814 1 0.997066
1.04089 1.04441 1 0.996633
1.04752 1.05147 0.999593 0.996655
0.998892 1 1 0.998892
1.01545 1.01836 1 0.997146
1.04119 1.04458 1 0.996754
1 1 1 1
0.998998 1.00007 1 0.998924
1.01494 1.01773 1 0.997253
1 1 1 1
0.999058 1.00012 1 0.998939
1 1 1 1
1.04998 1.05409 0.999249 0.996848
1.04551 1.05137 0.997338 0.997081
1.04448 1.05387 0.993852 0.997222
1.03896 1.04241 1 0.99669
1.0496 1.05388 0.999115 0.996822
1.04596 1.05247 0.996699 0.997109
1.0493 1.05403 0.998638 0.996865
1.03954 1.043 0.99999 0.996695
1.01304 1.01615 1 0.996943
1.04038 1.04389 1 0.996638
1.01377 1.01684 1 0.996987
0.998717 1 1 0.998717
1.01412 1.01711 1 0.99706
0.998765 1 1 0.998765
1 1 1 1
0.998805 1 1 0.998805
1 1 1 1
0.999687 1 1 0.999687
1.0514 1.05518 0.999589 0.996827
1.04628 1.05225 0.997242 0.997075
1.04026 1.04377 1 0.996638
1.0504 1.05392 0.999863 0.996806
1.04721 1.05358 0.996828 0.997115
1.0142 1.01716 1 0.997094
1.04041 1.04396 1 0.996601
1.05072 1.05421 0.999975 0.99671
0.99884 1 1 0.99884
1.01539 1.01835 1 0.997091
1.04072 1.0442 1 0.99666
1 1 1 1
0.998908 1.00001 1 0.998897
1.01543 1.01835 1 0.997133
1 1 1 1
0.99898 1.00005 1 0.998933
1 1 1 1
1.03894 1.04236 1 0.996719
1.05 1.05396 0.999404 0.996834
1.045 1.05081 0.997401 0.997065
1.01203 1.01512 1 0.996956
1.03896 1.04241 0.999998 0.99669
1.0492 1.05372 0.998866 0.996844
1.03957 1.04305 0.999963 0.996694
1.01309 1.0162 1 0.996943
0.998687 1 1 0.998687
1.01372 1.01676 1 0.997015
0.998715 1 1 0.998715
1 1 1 1
0.998763 1 1 0.998763
1 1 1 1
1 1 1 1
1.03986 1.04335 1 0.996654
1.05095 1.05483 0.99945 0.996867
1.0456 1.05205 0.996762 0.997098
1.01333 1.01629 1 0.997089
1.03994 1.04345 1 0.996634
1.05067 1.05411 0.999928 0.996804
0.99879 1 1 0.99879
1.01458 1.01754 1 0.997092
1.03998 1.04353 1 0.996597
1 1 1 1
0.998843 1 1 0.998843
1.01563 1.01856 1 0.997117
1 1 1 1
0.998918 1.00001 1 0.998903
1 1 1 1
1.01192 1.01493 1 0.997033
1.03885 1.0423 1 0.99669
1.05002 1.05384 0.999554 0.996821
0.9987 1 1 0.9987
1.01214 1.01523 1 0.996953
1.03895 1.04242 0.99998 0.996691
1.01313 1.01624 1 0.996943
0.998687 1 1 0.998687
1 1 1 1
0.998712 1 1 0.998712
1 1 1 1
1 1 1 1
1.01252 1.01549 1 0.997069
1.03958 1.04305 1 0.996671
1.05052 1.0545 0.999313 0.996907
0.998962 1 1 0.998962
1.01361 1.01657 1 0.997087
1.03961 1.04313 1 0.996631
1 1 1 1
0.998791 1 1 0.998791
1.01493 1.01789 1 0.99709
1 1 1 1
0.998847 1 1 0.998847
1 1 1 1
0.998692 1 1 0.998692
1.01207 1.0151 1 0.997007
1.03878 1.04226 1 0.99666
1 1 1 1
0.9987 1 1 0.9987
1.01224 1.01534 1 0.99695
0.998686 1 1 0.998686
1 1 1 1
1 1 1 1
0.998921 1 1 0.998921
1.01278 1.01575 1 0.997069
1.03928 1.04273 1 0.996688
1 1 1 1
0.998762 1 1 0.998762
1.0139 1.01686 1 0.997085
1 1 1 1
0.998792 1 1 0.998792
1 1 1 1
0.999628 1 1 0.999628
0.998815 1 1 0.998815
1.01219 1.01526 1 0.996981
1 1 1 1
0.998701 1 1 0.998701
1 1 1 1
0.999644 1 1 0.999644
0.998834 1 1 0.998834
1.01307 1.01604 1 0.997069
0.999821 1 1 0.999821
0.998762 1 1 0.998762
1 1 1 1
1 1 1 1
0.998723 1 1 0.998723
1 1 1 1
0.99982 1 1 0.99982
0.998744 1 1 0.998744
1 1 1 1
1 1 1 1
1 1 1 1

VECTORS lamdaE float
1.00126 1.00014 0.993758
1.00084 1.00073 0.996966
1.00082 1.00034 0.994052
1.00138 1.00003 0.993693
1.00134 0.999972 0.993824
1.00121 1.00038 0.993571
1.00264 1.00044 0.990754
1.00085 1.00066 0.996969
1.00082 1.00017 0.997397
1.0003 1.00092 0.997438
1.00072 1.00081 0.993792
1.0023 1.00131 0.989582
1.00096 0.999973 0.994181
1.00073 1.00002 0.994301
1.00043 1.00054 0.994317
1.00105 1.00002 0.994021
1.00072 1.00073 0.99384
1.00097 1.00003 0.99413
1.00286 1.00026 0.990622
1.00099 1.00002 0.997055
1.00132 1.00008 0.99371
1.00138 0.999961 0.993781
1.00273 1.00013 0.990913
1.00275 1.00015 0.990864
1.00118 1.00052 0.993431
1.00244 1.00097 0.990543
1.00512 1.00067 0.986211
1.00085 1.00062 0.996987
1.00103 1.00006 0.995614
1.00061 1.00065 0.995635
1.00078 1.00066 0.997037
1.00219 1.00146 0.989596
1.00132 0.999822 0.993767
1.00106 1.00024 0.993865
1.00307 1.00006 0.991113
0.999921 1.00091 0.997687
1.00274 1.00077 0.991073
1.00198 1.00183 0.989578
1.00441 1.00147 0.985859
1.00009 0.999419 0.998063
1.001 0.999987 0.997053
1.00096 1.00002 0.995637
1.00092 0.999975 0.997101
1.00058 1.00004 0.994501
1.00266 0.999933 0.990396
1.00091 0.99997 0.997335
1.00305 1.00006 0.991174
1.00073 0.999952 0.99435
1.00063 1.00006 0.994421
1.00024 1.00112 0.994089
1.00305 1.00008 0.990504
1.00081 1.00004 0.995768
1.00097 1.0001 0.994041
1.00065 1.00098 0.993675
1.00105 0.999935 0.994098
1.00287 1.0001 0.990757
1.0027 1.0007 0.990415
1.00292 1.00005 0.990727
1.0051 1.00067 0.986227
1.0009 1 0.997098
1.00119 1.00007 0.993897
1.00242 1 0.99205
1.00265 1.00015 0.991019
1.00276 1.00008 0.990904
1.00499 1.00023 0.986757
1.0051 1.00026 0.986504
1.00096 1.00046 0.993714
1.00192 1.0019 0.990401
1.00506 1.00097 0.986044
1.00529 1.0003 0.985519
1.00129 1.00008 0.996948
1.00071 1.00059 0.997168
1.00094 1.00052 0.996968
1.00211 1.00156 0.989604
1.00137 0.999952 0.996896
1.00116 1.00027 0.996974
1.00294 1.00002 0.989707
1.00017 1.00069 0.996004
1.00249 1.00082 0.989682
1.00186 1.00208 0.990407
1.00449 1.00132 0.985846
1.00037 1.00007 0.997612
1.00021 1.0018 0.992678
1.0031 0.999949 0.989561
1.00291 1.00019 0.989681
1.00516 1.00027 0.985843
1.00136 1.00251 0.991673
1.00482 1.0008 0.985824
1.00363 1.00267 0.985971
1.00524 1.00133 0.984485
0.999934 0.99859 0.998481
0.999949 0.999205 0.99824
1.00126 0.999994 0.996901
1.00106 0.999986 0.997029
1.00096 0.99998 0.997099
1.00084 0.999995 0.995771
1.00271 0.999924 0.991066
1.00109 0.999979 0.995561
1.00298 1.00008 0.990488
1.00093 0.999988 0.997114
1.0025 0.999854 0.990675
1.00291 1.00003 0.991448
1.00492 0.999384 0.987223
1.00309 1 0.991107
1.00511 0.999748 0.986545
1.00095 1 0.994203
1.00062 1.00011 0.994375
1.00012 1.00148 0.993919
1.00073 0.999885 0.994412
1.00301 1.00011 0.990601
1.00308 0.999975 0.990596
1.00296 1.0004 0.990298
1.00507 1.00067 0.986243
1.00095 0.999988 0.997105
1.00085 1.00007 0.994224
1.0026 0.999963 0.990903
1.00279 1.00013 0.990854
1.00072 1.00088 0.995346
1.00229 1.00169 0.990485
1.00291 1.00003 0.990759
1.00502 1.00011 0.986864
1.00501 1.00098 0.986064
1.00509 1.0004 0.986429
1.00529 1.0003 0.985553
1.0025 0.9999 0.990663
1.00251 1.00005 0.99128
1.00484 0.999279 0.987956
1.00495 0.999814 0.987199
1.00504 1.00008 0.986762
1.00529 0.998897 0.987191
1.00034 1.00066 0.997401
1.00529 0.999724 0.986103
1.00141 1.00279 0.989418
1.00464 1.00135 0.985566
1.00529 1.00095 0.98493
1.00523 0.99866 0.987127
1.00067 1.0029 0.990732
1.00152 1.00484 0.987254
1.00138 0.999977 0.99691
1.00112 1.0003 0.996967
1.00295 1.00001 0.989701
1.00034 1.0004 0.997507
1.00153 1.0024 0.98971
1.00247 1.00082 0.989698
1.00459 1.00119 0.985833
1.00018 0.99998 0.997779
1.00008 1.00197 0.992712
1.00313 0.999987 0.99032
1.00292 1.00024 0.990396
1.00515 1.00029 0.985821
1.00098 1.00271 0.990365
1.00486 1.00076 0.985809
1.00383 1.00235 0.985973
1.00527 1.00124 0.984589
1.00049 1.00251 0.99139
1.00005 1.00102 0.993813
1.00142 1.00473 0.988136
1.00518 1.00012 0.985988
1.00506 1.00046 0.985801
1.00532 0.999538 0.986309
1.00304 1.00328 0.986392
1.0053 1.00053 0.985348
1.00501 1.00179 0.984415
1.0053 1.00059 0.9851
0.999899 0.998105 0.998741
0.999873 0.998525 0.998589
0.999847 0.99904 0.998394
1.0004 1.00266 0.991421
1.00015 1.00032 0.997664
1.00137 0.999967 0.996882
1.00114 0.999992 0.996958
1.00284 1.0001 0.989853
1.0026 0.999922 0.990452
1.00094 0.999979 0.997091
1.0009 0.999982 0.997111
1.00249 0.999865 0.990668
1.00283 1.00001 0.990768
1.00491 0.999384 0.987224
1.00297 1.00004 0.989672
1.00508 0.999758 0.986542
1.00246 0.999865 0.990724
1.00484 0.999285 0.987443
1.00503 0.999539 0.986891
1.00537 0.997248 0.988783
1.00516 0.999951 0.986237
1.00533 0.997956 0.988057
1.00091 0.999988 0.997104
1.00049 1.00012 0.994552
1.00262 0.999961 0.989894
1.00293 1.00013 0.990686
1.00005 1.00139 0.997383
1.00276 1.00129 0.990572
1.00306 1.00001 0.990616
1.00504 0.999973 0.986972
1.00509 1.00052 0.986353
1.00495 1.00102 0.986083
1.00529 1.00029 0.985588
1.00248 0.999894 0.990667
1.00266 1.00007 0.991113
1.00487 0.999267 0.987657
1.00498 0.999945 0.987074
1.00048 1.00071 0.997292
1.00166 1.00252 0.990244
1.00448 1.0017 0.985804
1.00506 1.00012 0.986721
1.00528 0.998567 0.987513
1.00529 1.00087 0.985001
1.00529 0.999827 0.986097
1.00523 0.998675 0.987148
1.00073 1.0028 0.990718
1.00167 1.00479 0.987255
1.00482 0.999359 0.987406
1.0049 0.999573 0.987587
1.00536 0.997761 0.988284
1.00529 0.997853 0.988199
1.00531 0.999027 0.986903
1.00524 0.996488 0.989558
1.00097 1.00302 0.990009
1.00522 0.997672 0.988179
1.00385 1.00232 0.98581
1.0053 1.00141 0.984311
1.00523 0.99998 0.985954
1.00519 0.996964 0.988988
1.00258 1.00385 0.986577
1.00095 1.00509 0.988087
1.00316 1.00333 0.986298
1.00301 0.999975 0.989648
0.999998 0.999813 0.997967
0.999969 1.00202 0.992745
1.00277 1.00027 0.98974
1.00514 1.0003 0.985799
1.00092 1.00293 0.990315
1.00397 1.00197 0.985976
1.0049 1.00072 0.985795
1.00529 1.00115 0.984693
1.00046 1.00263 0.991401
0.999999 1.00091 0.993859
1.00109 1.00488 0.988108
1.00516 1.00014 0.985967
1.00506 1.00045 0.985783
1.00532 0.999545 0.986284
1.00314 1.00308 0.986406
1.0053 1.0006 0.985268
1.0051 1.00176 0.984394
1.00529 1.00037 0.985254
1.00003 1.0002 0.994623
1.00229 1.00413 0.987096
1.00076 1.00424 0.989509
1.00224 1.00412 0.987183
1.00533 0.998965 0.986922
1.00531 1.0001 0.985719
1.00526 0.997904 0.987871
1.00456 1.00188 0.985118
1.00526 0.999347 0.986549
1.00524 1.0013 0.984743
1.00526 0.9997 0.986016
1.00022 1.00155 0.992947
1.00025 0.999007 0.995392
0.999932 0.997688 0.998893
0.999876 0.998009 0.998801
0.999835 0.998393 0.998678
1.00009 1.00221 0.992335
1.00006 0.999901 0.997909
1.00048 1.00258 0.991392
1.00024 1.00042 0.997569
1.00296 1.00007 0.989674
1.00274 0.999997 0.990146
1.00505 0.99977 0.986538
1.00489 0.999389 0.987224
1.00251 0.999881 0.990668
1.00095 0.999971 0.997108
1.00248 0.999861 0.990728
1.00483 0.999295 0.987442
1.00501 0.999551 0.986891
1.00535 0.997256 0.988788
1.00513 0.999971 0.986221
1.00534 0.99795 0.988042
1.00481 0.999291 0.98748
1.00534 0.997056 0.989005
1.00536 0.99756 0.988459
1.00521 0.994996 0.991194
1.00533 0.998424 0.98753
1.00526 0.995752 0.990288
1.00248 0.999893 0.990677
1.00282 1.00005 0.990945
1.0049 0.999235 0.98736
1.00501 1.00006 0.986948
1.0006 1.00076 0.997174
1.00199 1.00233 0.990877
1.00445 1.00199 0.986039
1.00507 1.00016 0.986681
1.00528 0.998231 0.987834
1.00529 0.999932 0.98609
1.0053 1.00077 0.985073
1.00522 0.998688 0.98717
1.00077 1.00273 0.990705
1.00175 1.00468 0.987256
1.00483 0.999196 0.987527
1.00492 0.999551 0.987566
1.00536 0.997539 0.988539
1.00529 0.998211 0.987845
1.00106 1.00292 0.990011
1.0038 1.00253 0.985821
1.00528 1.00152 0.984241
1.00531 0.999225 0.986745
1.00524 0.996177 0.989821
1.00523 0.999791 0.98614
1.00521 0.99769 0.988188
1.0052 0.996908 0.988936
1.00254 1.00394 0.986562
1.00298 1.00326 0.986291
1.00103 1.00503 0.988111
1.00535 0.997516 0.988581
1.00534 0.997717 0.988397
1.00521 0.995441 0.990764
1.00523 0.995574 0.990424
1.00522 0.996637 0.989169
1.00526 0.995204 0.990646
1.00327 1.00307 0.98616
1.00519 0.99582 0.989881
1.0052 1.00212 0.983956
1.00523 1.00094 0.98476
1.00519 0.998521 0.987367
1.00518 0.996181 0.98972
1.00056 1.00482 0.989017
1.0043 1.0022 0.985503
1.00202 1.00455 0.986663
1.00469 1.00198 0.985462
1.00514 1.00016 0.985945
0.999979 1.00087 0.993904
1.0003 1.0028 0.991418
1.00074 1.0051 0.988081
1.00507 1.00044 0.985763
1.00532 0.999552 0.986259
1.00318 1.00294 0.986422
1.0052 1.0018 0.984371
1.00531 1.00068 0.985188
1.00529 1.00016 0.985407
1.00003 1.00009 0.994659
1.00213 1.00413 0.987093
1.00056 1.00439 0.98952
1.00213 1.00415 0.987158
1.00533 0.998971 0.986901
1.00532 1.0001 0.985692
1.00526 0.997893 0.987865
1.00468 1.00181 0.985136
1.00525 0.99948 0.986377
1.00522 1.00118 0.984713
1.00526 0.999605 0.986164
1.00015 0.999463 0.995128
1.00043 1.00336 0.990858
1.0035 1.00254 0.986287
1.00139 1.00504 0.988151
1.0035 1.00218 0.987135
1.00528 0.997121 0.988689
1.00525 0.998644 0.987082
1.00523 0.996766 0.988853
1.00476 1.00145 0.985044
1.00523 0.9985 0.987254
1.00497 1.00066 0.98555
1.00031 1.00179 0.99257
1.00031 1.00308 0.991307
1.00012 1.00143 0.993251
1.0002 1.00156 0.992944
1.00024 0.998754 0.996239
1.00023 0.998964 0.995759
1.00011 0.997346 0.997602
0.999933 0.997628 0.998918
0.999865 0.997922 0.998848
0.999883 1.00133 0.993568
0.999905 0.99935 0.998273
1.00017 1.0022 0.992319
1.00013 0.999965 0.997815
1.00056 1.0025 0.991368
1.00036 1.00049 0.997475
1.00511 0.999988 0.986205
1.00498 0.999558 0.986892
1.00534 0.997969 0.988026
1.00534 0.997265 0.988794
1.00482 0.999306 0.987441
1.00247 0.999851 0.990727
1.0048 0.999292 0.987484
1.00534 0.997062 0.989009
1.00535 0.997574 0.988454
1.00522 0.994983 0.991173
1.00533 0.998427 0.987512
1.00526 0.995715 0.99029
1.00533 0.997047 0.989033
1.00525 0.994947 0.991217
1.00521 0.995252 0.990888
1.00517 0.994947 0.99126
1.00528 0.996407 0.989513
1.00525 0.994958 0.990802
1.00484 0.999035 0.98765
1.00495 0.999543 0.987545
1.00536 0.997342 0.988793
1.00528 0.998574 0.987492
1.00113 1.00285 0.990016
1.0036 1.00286 0.985836
1.00527 1.00164 0.984171
1.00531 0.999422 0.986588
1.00524 0.995869 0.990084
1.00521 0.997706 0.988197
1.00524 0.999607 0.986325
1.0052 0.996852 0.988884
1.00253 1.00408 0.986545
1.00294 1.00312 0.986285
1.00114 1.00489 0.988136
1.00535 0.997361 0.988742
1.00534 0.997693 0.988399
1.00522 0.995232 0.990967
1.00523 0.995796 0.99021
1.0032 1.00324 0.986151
1.00515 1.00211 0.983993
1.00523 1.00108 0.984632
1.00521 0.996951 0.98888
1.00526 0.995094 0.990688
1.0052 0.998444 0.987323
1.0052 0.995851 0.989861
1.00518 0.996067 0.989786
1.00419 1.00242 0.985465
1.00462 1.00199 0.985245
1.00071 1.00463 0.989037
1.00182 1.00458 0.986758
1.00522 0.99496 0.991287
1.00525 0.995646 0.990373
1.00511 0.99495 0.991317
1.00524 0.994918 0.990884
1.0052 0.995232 0.990452
1.00527 0.994926 0.990717
1.00511 1.00196 0.984452
1.00523 0.995072 0.990422
1.00517 1.0021 0.983756
1.00519 1.00033 0.98532
1.0052 0.997727 0.987883
1.00521 0.996163 0.989668
1.00035 1.00413 0.990102
1.00108 1.00509 0.987607
1.00506 1.00217 0.984308
1.00331 1.00382 0.985921
1.00506 1.00314 0.983674
1.00002 0.999987 0.994693
1.00533 0.998976 0.98688
1.00038 1.0045 0.989531
1.00206 1.00411 0.987089
1.00204 1.00412 0.987134
1.00532 1.00011 0.985666
1.00525 0.997882 0.987859
1.00503 1.00145 0.985156
1.00522 1.00107 0.984686
1.00525 0.99961 0.986206
1.00526 0.99952 0.986312
1.00015 0.999395 0.995159
1.00032 1.00346 0.990881
1.00375 1.00234 0.986301
1.00099 1.00507 0.988133
1.00319 1.00214 0.987295
1.00527 0.997104 0.988687
1.00525 0.998629 0.987076
1.00523 0.996722 0.988843
1.00495 1.00145 0.984996
1.00523 0.998582 0.987101
1.00504 1.00066 0.985638
1.00038 1.00237 0.991908
1.00076 1.00463 0.989474
1.00457 1.00108 0.98594
1.00177 1.00442 0.987927
1.00407 1.00037 0.988161
1.00525 0.996047 0.989638
1.00522 0.997552 0.987979
1.00524 0.996063 0.989174
1.00485 1.00108 0.98523
1.00504 0.999321 0.986396
1.00031 1.00177 0.992573
1.00033 1.0031 0.991074
1.00013 1.00325 0.991267
1.00048 1.00339 0.99094
1.00019 1.00306 0.991543
1.00004 1.00131 0.993471
1.0001 1.00141 0.99326
1.00021 0.998641 0.996374
1.0002 1.00158 0.992941
1.00025 0.998742 0.99626
1.00018 0.997092 0.997701
1.00022 0.998939 0.996117
1.00004 0.997352 0.998289
0.99994 0.997538 0.99894
0.999798 1.00032 0.994715
0.99991 1.00137 0.99355
0.999767 0.998638 0.998677
1.00002 0.999438 0.998124
1.00028 1.00213 0.992299
1.0002 1.00011 0.997721
1.00533 0.998428 0.987495
1.00534 0.997565 0.988449
1.00527 0.995674 0.990293
1.00524 0.994969 0.991152
1.00534 0.997068 0.989013
1.0048 0.999294 0.987487
1.00534 0.997052 0.98903
1.00525 0.994945 0.99122
1.00523 0.995215 0.990896
1.00516 0.994947 0.99122
1.00528 0.996364 0.989509
1.00525 0.994966 0.990808
1.00524 0.994952 0.991243
1.00517 0.994946 0.991294
1.00521 0.994934 0.991055
1.00525 0.994941 0.991068
1.00526 0.995397 0.990309
1.00527 0.994889 0.99083
1.00534 0.997202 0.988902
1.00533 0.997679 0.9884
1.00522 0.995011 0.991172
1.00521 0.99601 0.989995
1.00315 1.00338 0.986143
1.00513 1.00208 0.984028
1.00522 1.00115 0.984505
1.00521 0.997266 0.988591
1.00526 0.994987 0.99073
1.00522 0.995887 0.98984
1.0052 0.998365 0.98728
1.00518 0.995921 0.989856
1.00387 1.00281 0.985428
1.00438 1.00204 0.985028
1.00087 1.00453 0.989059
1.00175 1.00465 0.986854
1.00522 0.99496 0.991277
1.00524 0.995641 0.990418
1.00511 0.994951 0.991312
1.00525 0.99492 0.990873
1.00483 1.00227 0.984446
1.00517 1.00215 0.983694
1.00518 1.0003 0.985298
1.00521 0.995354 0.990347
1.00527 0.99492 0.990694
1.00516 0.997782 0.987875
1.00522 0.995079 0.990404
1.0052 0.995964 0.989789
1.00494 1.00224 0.984351
1.00495 1.0033 0.983468
1.00313 1.00379 0.985948
1.00035 1.00394 0.990131
1.00095 1.0051 0.987756
1.00516 0.994953 0.991253
1.0052 0.994939 0.991083
1.00527 0.994918 0.990658
1.00526 0.994913 0.990645
1.00512 1.00283 0.983483
1.00523 0.995099 0.990372
1.00502 1.00177 0.98393
1.00515 0.99978 0.985743
1.00514 0.997431 0.988069
0.999888 1.003 0.991647
1.00062 1.00506 0.98887
1.00154 1.00505 0.987393
1.00502 1.00353 0.98306
1.00379 1.00361 0.984859
1.0051 1.00328 0.982842
1.00015 0.999345 0.995189
1.00023 1.00357 0.990903
1.00527 0.997088 0.988685
1.00057 1.00511 0.988113
1.00375 1.0024 0.986315
1.00295 1.00224 0.987456
1.00525 0.998615 0.98707
1.00524 0.996679 0.988832
1.00512 1.00143 0.984946
1.00507 1.00069 0.985728
1.00523 0.99865 0.986948
1.00032 1.00242 0.991918
1.0004 1.00479 0.989483
1.00473 1.00094 0.985994
1.00148 1.00467 0.987875
1.00387 0.999957 0.988141
1.00525 0.996002 0.989646
1.00523 0.997566 0.987957
1.00525 0.99611 0.989162
1.00482 1.00112 0.985262
1.00505 0.999422 0.986389
1.00047 1.0038 0.990577
1.00001 1.0051 0.989141
1.00496 1.00081 0.985673
1.00187 1.00223 0.988468
1.00523 0.999318 0.987485
1.00525 0.995227 0.990138
1.00526 0.997543 0.987775
1.00528 0.996331 0.988699
1.00481 1.00021 0.986013
1.00512 0.999338 0.986341
1.0003 1.00176 0.992576
1.00033 1.0032 0.991081
1.00004 1.0036 0.990982
1.00001 1.00334 0.991229
1.0001 1.00318 0.991533
1.00014 1.00364 0.990979
0.999982 1.00324 0.991753
1.00001 1.00387 0.990783
1.00008 1.003 0.9918
1.00002 1.00139 0.993445
1.00004 1.0013 0.993472
1.00014 0.998632 0.996486
1.00009 1.00136 0.993267
1.00022 0.998636 0.996392
1.00019 0.996973 0.997775
1.00026 0.998722 0.996284
1.00015 0.9971 0.997703
0.999962 0.997346 0.998995
0.999845 0.999426 0.99556
0.999821 1.00041 0.994669
0.999709 0.998137 0.998913
0.99997 1.00143 0.993533
0.999852 0.998819 0.998533
1.00011 0.999542 0.997988
1.00528 0.996323 0.989506
1.00525 0.995183 0.990903
1.00524 0.994974 0.990815
1.00516 0.994947 0.99118
1.00524 0.994943 0.991224
1.00534 0.997058 0.989028
1.00524 0.994951 0.991263
1.00518 0.994946 0.991306
1.0052 0.994925 0.991091
1.00525 0.994935 0.991035
1.00527 0.995388 0.990333
1.00526 0.994885 0.990782
1.00517 0.994949 0.991297
1.00525 0.994933 0.991108
1.00526 0.994927 0.990902
1.00526 0.994914 0.990609
1.00523 0.994958 0.991268
1.00523 0.99563 0.990463
1.00511 0.994953 0.991306
1.00525 0.994921 0.990863
1.00468 1.00241 0.984441
1.00519 1.00221 0.983635
1.00517 1.00035 0.985276
1.00523 0.99547 0.990242
1.00527 0.994913 0.990671
1.00522 0.995089 0.990385
1.00513 0.9978 0.987865
1.00521 0.995774 0.989907
1.00474 1.00234 0.984395
1.00511 1.00306 0.983261
1.00282 1.00387 0.985974
1.00037 1.00375 0.99017
1.00088 1.0051 0.987906
1.00515 0.994951 0.991253
1.00521 0.994939 0.991079
1.00527 0.99492 0.990681
1.00504 1.00281 0.983531
1.00507 1.00191 0.983871
1.00511 0.999879 0.985733
1.00525 0.994919 0.990638
1.00519 0.997234 0.988341
1.00523 0.995134 0.99031
0.999931 1.00277 0.991883
1.00498 1.00327 0.983127
1.0049 1.00385 0.982818
1.00395 1.00349 0.985001
1.00161 1.00505 0.987489
1.00049 1.00508 0.988825
1.00524 0.994945 0.991093
1.00528 0.994912 0.990808
1.00526 0.99491 0.99059
1.00523 0.994883 0.990583
1.00507 1.00285 0.983351
1.0052 0.995573 0.989797
1.00502 1.00156 0.984301
1.00505 1.00007 0.985775
1.00001 1.00106 0.993429
0.999992 1.00458 0.990359
1.00107 1.00506 0.988616
1.00232 1.00506 0.98594
1.00484 1.00383 0.983059
1.00495 1.00351 0.983185
1.00026 1.00246 0.991928
1.00007 1.00483 0.989495
1.00525 0.995957 0.989654
1.00115 1.0048 0.987822
1.0049 1.00079 0.986048
1.00353 0.999822 0.988108
1.00524 0.997581 0.987935
1.00525 0.996152 0.989148
1.00485 1.0012 0.985291
1.0051 0.999538 0.986382
1.00031 1.00383 0.990581
1.00039 1.0051 0.988947
1.00503 1.00068 0.985666
1.00216 1.0023 0.988434
1.00502 0.999445 0.987125
1.00526 0.995233 0.990209
1.00526 0.997457 0.987958
1.00528 0.996448 0.988729
1.00479 1.00024 0.986088
1.00508 0.99954 0.986114
0.99965 1.00416 0.99054
1.00043 1.00487 0.988719
1.00493 1.00014 0.986256
1.0039 0.999876 0.987406
1.00532 0.99486 0.990299
1.00525 0.995933 0.989706
1.00519 0.998552 0.986682
1.00514 0.999485 0.986101
1.00039 1.00319 0.991087
1.00018 1.00355 0.990978
0.999561 1.00388 0.99203
1 1.00332 0.991524
0.999767 1.00388 0.991019
1.00005 1.00301 0.99179
0.999705 1.00327 0.992025
1.00005 1.00396 0.990742
0.999563 1.00194 0.99363
0.999775 1.00421 0.991108
0.99994 1.00401 0.990724
1.00016 1.00292 0.991748
0.999979 1.00165 0.993186
0.999985 1.00139 0.993438
1.00003 0.998699 0.996573
1.00003 1.00128 0.993474
1.00015 0.998648 0.996499
1.00014 0.996985 0.997839
1.00023 0.998638 0.996413
1.00018 0.996976 0.997776
1.00012 0.997118 0.997698
0.99998 0.998697 0.996106
0.999845 0.999548 0.995494
0.999716 0.997684 0.999062
0.999811 1.00053 0.99462
0.999751 0.998209 0.998855
0.99997 0.998893 0.998373
1.00527 0.995378 0.990356
1.00519 0.994915 0.991127
1.00525 0.994882 0.990734
1.00525 0.994929 0.991003
1.00518 0.994947 0.991318
1.00523 0.994949 0.991282
1.00517 0.994949 0.991304
1.00526 0.994935 0.99111
1.00526 0.994918 0.990897
1.00525 0.994906 0.990642
1.00526 0.994944 0.991138
1.00528 0.99492 0.990987
1.00529 0.994867 0.990728
1.00514 0.994949 0.991252
1.00522 0.994939 0.991076
1.00526 0.994922 0.990704
1.00496 1.0028 0.983578
1.0051 1.00198 0.983808
1.00506 0.999869 0.985721
1.00525 0.994925 0.990631
1.00521 0.995184 0.990248
1.00521 0.997008 0.988609
1.00495 1.00322 0.983192
1.00455 1.00404 0.982799
1.0041 1.00338 0.98514
0.999982 1.00258 0.992123
1.00159 1.00502 0.987584
1.0003 1.00509 0.988773
1.00525 0.994944 0.9911
1.00527 0.994913 0.990781
1.00526 0.994911 0.990584
1.00498 1.00292 0.983391
1.0049 1.00148 0.984235
1.00507 0.999691 0.986128
1.00523 0.994886 0.990537
1.00516 0.995662 0.989742
1.00001 1.00101 0.993656
0.999961 1.00461 0.990333
1.00483 1.00318 0.982987
1.0045 1.00375 0.983618
1.00254 1.00489 0.986124
1.00089 1.00507 0.988436
1.00529 0.994915 0.990968
1.00531 0.994879 0.990511
1.00527 0.994888 0.990553
1.00518 0.995037 0.990316
1.00438 1.00268 0.9838
1.00514 0.997851 0.987792
1.00487 1.00194 0.984288
1.00019 1.0002 0.994352
1.00036 1.00126 0.993116
0.999749 1.0027 0.99236
1.00034 1.00505 0.989323
1.00108 1.00512 0.987548
1.00299 1.00428 0.984613
1.00423 1.00372 0.983898
1.00407 1.00423 0.984522
1.00013 1.00405 0.990585
1.00063 1.00511 0.988753
1.00527 0.995242 0.99028
1.00245 1.00207 0.988406
1.00506 1.00053 0.985664
1.00493 0.99964 0.986777
1.00527 0.997344 0.988143
1.00527 0.996551 0.988764
1.00484 1.00023 0.986161
1.00505 0.999685 0.98589
0.99993 1.00408 0.990393
1.0006 1.00485 0.988619
1.00509 1.00003 0.986226
1.00428 1.00019 0.987424
1.00533 0.994849 0.990324
1.00527 0.995851 0.989612
1.00515 0.998503 0.986796
1.00514 0.999573 0.986057
0.999901 1.00413 0.990297
1.00535 0.994905 0.990312
1.00234 1.00406 0.987907
1.00485 0.999482 0.986844
1.00526 0.995141 0.990515
1.00514 0.997628 0.986728
1.00499 1.00073 0.985477
1.00026 1.00358 0.990974
0.999546 1.00369 0.991941
0.998814 1.00326 0.994262
1.00004 1.00297 0.991781
1.0001 1.00406 0.9907
0.999004 1.00376 0.992294
1.00013 1.0029 0.991739
0.99988 1.00413 0.990735
0.998908 1.0024 0.99393
0.999926 1.00407 0.991031
0.999163 1.00054 0.99637
0.99913 1.003 0.993214
0.999713 1.00474 0.99035
1.00036 1.00394 0.990311
1.00017 1.00323 0.991337
0.999908 1.00207 0.992882
0.999918 1.00178 0.993167
0.999914 0.998941 0.996585
0.99995 1.00147 0.99343
1.00004 0.998753 0.99657
1.00005 0.997064 0.997913
1.00016 0.998657 0.996514
1.00015 0.996978 0.997836
1.00017 0.996981 0.997772
1.00019 1.00032 0.994294
1.00007 0.998317 0.996352
0.999979 0.998769 0.996064
0.999799 0.997309 0.999147
0.999842 0.999665 0.995429
0.999744 0.997795 0.999024
0.999808 0.998332 0.99877
1.00524 0.994898 0.990674
1.00526 0.994909 0.990893
1.00526 0.994937 0.991111
1.00517 0.994949 0.991312
1.00525 0.994945 0.991135
1.00528 0.994919 0.991002
1.00527 0.994875 0.990701
1.00528 0.994925 0.991028
1.00533 0.994921 0.990801
1.00542 0.99499 0.991129
1.00525 0.994943 0.991107
1.00527 0.994913 0.990753
1.00527 0.994912 0.990577
1.00488 1.00302 0.983433
1.00487 1.00189 0.984187
1.0049 0.999401 0.986479
1.00522 0.994892 0.990492
1.00507 0.995836 0.989686
1.00471 1.00332 0.982918
1.00417 1.0043 0.984034
1.00249 1.00468 0.986308
0.999992 1.00093 0.993881
1.00002 1.00462 0.990307
1.00083 1.00507 0.988252
1.00529 0.994913 0.990954
1.00017 1.00021 0.994341
1.00027 1.00134 0.992989
1.00531 0.994889 0.990524
1.00525 0.994889 0.990564
1.00483 1.00283 0.983708
1.00465 1.00191 0.984475
1.00512 0.997583 0.987693
1.00519 0.994948 0.990241
0.99977 1.00277 0.99253
1.00037 1.00504 0.989281
1.00433 1.00376 0.983702
1.00369 1.00398 0.984596
1.00333 1.0045 0.984695
1.00122 1.00509 0.98749
1.00536 0.99489 0.990713
1.00532 0.994851 0.990448
1.00521 0.994871 0.990389
1.00516 0.995008 0.990288
1.00407 1.00267 0.984779
1.00441 1.00158 0.985619
1.00007 1.00205 0.992425
1.00012 1.00133 0.993346
1.00125 1.00037 0.992809
1.00032 1.00347 0.990786
1.00055 1.00508 0.988886
1.00239 1.0045 0.986428
1.00214 1.00499 0.984897
1.00345 1.0007 0.987039
1.00033 1.00397 0.990248
1.00094 1.00486 0.988519
1.00534 0.994841 0.990349
1.00528 0.995817 0.989519
1.00468 1.00045 0.987436
1.00518 0.999955 0.986193
1.00511 0.998474 0.986908
1.00515 0.99968 0.986016
1.00031 1.00397 0.990213
1.00537 0.994911 0.990543
1.00188 1.00401 0.988061
1.005 0.999639 0.98663
1.00526 0.995117 0.990529
1.00512 0.997813 0.986941
1.00491 1.00056 0.985473
1.00008 1.00486 0.990184
1.0049 0.994816 0.990981
1.0029 1.00257 0.987651
1.00471 1.00125 0.985105
1.00499 0.995814 0.98973
1.00375 1.00118 0.986024
0.99882 0.995707 0.986742
0.999389 1.00368 0.991855
0.998301 1.00343 0.994251
0.998912 1.0023 0.995389
1.00004 1.00299 0.991731
0.999831 1.00431 0.990747
1.00026 1.00372 0.990957
0.998515 1.00255 0.994241
1.00011 1.00331 0.991338
1.00025 1.00402 0.99035
0.999201 1.00061 0.995823
0.999824 1.00474 0.990361
0.999481 1.00291 0.992845
0.998556 1.00122 0.996788
1.00027 1.00448 0.990054
1.00014 1.00465 0.990177
1.00065 1.00407 0.989893
1.00014 1.00376 0.990679
1.00033 1.00434 0.990253
1.00012 1.00396 0.990451
0.999915 1.00218 0.992752
0.999934 1.00205 0.992862
0.999793 0.999094 0.996005
0.999921 1.00177 0.993145
0.999905 0.998998 0.996261
1 0.997237 0.999109
1.00005 0.998804 0.996567
1.00007 0.997037 0.997913
1.00016 0.996971 0.997829
1.00008 1.00032 0.994376
1.0002 1.00021 0.994326
1.0001 0.99817 0.996489
1.00006 0.998323 0.996623
0.999872 0.997076 0.999195
0.999971 0.998858 0.996022
0.999799 0.997395 0.999127
0.999773 0.997853 0.998989
1.00525 0.994884 0.990674
1.00527 0.994917 0.991016
1.00525 0.994946 0.991133
1.00528 0.994924 0.991028
1.00533 0.994916 0.99079
1.0054 0.994948 0.990799
1.00539 0.9949 0.990811
1.00133 0.994887 0.982526
1.00462 0.994896 0.992499
1.00006 1.00163 0.9931
1.00529 0.994911 0.990939
1.00531 0.994897 0.990536
1.00524 0.994887 0.990574
1.0048 1.00239 0.983599
1.00486 1.00158 0.984649
1.00512 0.997431 0.9876
1.00522 0.994929 0.990166
1.00464 1.00347 0.983527
1.00368 1.00366 0.9847
1.00337 1.00458 0.984781
1.00015 1.00025 0.994333
1.00156 1.00512 0.987432
0.999777 1.0028 0.992686
1.00037 1.00504 0.989235
1.00026 1.0013 0.992862
1.00536 0.994875 0.99071
1.00004 1.0021 0.992553
1.00009 1.00138 0.993358
1.001 1.00033 0.993069
1.00533 0.994858 0.990416
1.0052 0.994868 0.990357
1.00337 1.0034 0.98486
1.00466 1.00047 0.986153
1.00516 0.995018 0.990202
1.00007 1.00356 0.990964
1.00075 1.00508 0.988702
1.00347 1.00213 0.986632
1.00283 1.00474 0.984751
1.00249 1.00432 0.986646
1.00531 0.994837 0.990922
1.0052 0.994796 0.990768
1.00515 0.995 0.989937
1.00495 0.997122 0.989929
1.002 1.00246 0.988342
0.999582 1.00344 0.991784
1.00102 1.00076 0.992461
1.00009 1.0003 0.993079
1.00021 1.00452 0.990859
1.0003 1.00519 0.989285
1.00087 1.00456 0.987654
1.00249 1.00019 0.989432
1.00095 1.00373 0.990127
1.00119 1.00392 0.988217
1.00539 0.994895 0.990761
1.00526 0.995052 0.990536
1.00511 0.997946 0.987153
1.00507 0.999748 0.986414
1.00485 1.0004 0.985473
1.0005 1.00464 0.990184
1.00465 0.994829 0.99118
1.00298 1.00229 0.987576
1.00482 1.0013 0.984986
1.00504 0.995689 0.989971
1.004 1.00107 0.986107
0.998612 0.996777 0.984858
0.999947 1.00428 0.990644
1.00303 0.996444 0.991086
1.0035 1.00231 0.985935
1.00309 1.00111 0.986912
1.00325 0.99757 0.990752
0.999957 0.994877 0.945734
0.995463 0.994813 0.966446
0.995588 1.00018 0.988206
0.999413 0.994789 0.865888
0.994716 0.994817 0.829545
0.997919 1.00355 0.994244
0.998046 1.00282 0.995685
0.998078 1.00273 0.996432
1.00008 1.00334 0.991339
1.0003 1.00379 0.990388
0.999962 1.00465 0.990372
0.999732 1.00289 0.992463
0.999212 1.0007 0.995268
1.00014 1.00448 0.990181
1.00014 1.00374 0.990768
1.00056 1.00404 0.989942
0.998774 1.00059 0.996214
0.999965 1.00453 0.990388
1.00036 1.00453 0.990404
0.998933 1.00466 0.991784
1.00013 1.00462 0.990199
1.00051 1.00454 0.989346
1.00024 1.00384 0.990456
1.00041 1.00477 0.989484
1.00049 1.00402 0.990393
0.999718 1.00461 0.990753
1.00021 1.00444 0.990184
1.00025 1.00364 0.990852
1.00017 1.00395 0.990438
0.999938 1.00217 0.992748
0.999926 1.00219 0.992755
0.999766 0.999185 0.996008
0.999908 1.00214 0.992844
0.999785 0.999134 0.995997
0.999955 0.997248 0.999134
0.99989 0.999066 0.995938
0.999988 0.997235 0.998509
1.00009 0.997012 0.997911
0.999951 1.00021 0.994667
1.00007 1.00036 0.99438
1.0001 0.998046 0.996634
1.00021 1.00011 0.994358
1.0001 0.998116 0.996765
0.999927 0.996838 0.999236
1.00008 0.998359 0.996324
0.999869 0.997169 0.999177
0.999807 0.997481 0.999108
1.00533 0.994911 0.99078
1.00528 0.994924 0.991027
1.00539 0.994961 0.990478
1.00078 0.994839 0.982656
1.00539 0.994899 0.990826
1.00452 0.995031 0.99221
1.00509 0.99626 0.991258
0.996312 0.994894 0.965598
1.00114 0.995842 0.984788
1.0001 1.0014 0.99334
1.00006 1.00174 0.993065
0.99953 1.00357 0.991943
0.999856 1.00228 0.992746
1.00536 0.99487 0.990707
1.00533 0.994873 0.990384
1.00519 0.994875 0.990325
1.0043 1.00368 0.984942
1.00458 0.99871 0.986697
1.00514 0.995047 0.990113
1.00309 1.00307 0.986215
1.00414 1.00481 0.984597
1.00252 1.00319 0.986857
1.00002 1.00153 0.993371
1.00075 1.00501 0.988525
1.00005 1.00358 0.991146
0.999959 1.00231 0.992679
1.00056 1.00059 0.993311
1.00531 0.994843 0.990928
0.999878 1.00335 0.99167
1.00113 1.00045 0.992689
0.998903 1.00115 0.994936
1.00521 0.994818 0.990674
1.00515 0.995062 0.989947
1.00315 1.00123 0.988317
1.00463 0.996272 0.990316
1.0004 1.00441 0.990289
1.00054 1.00501 0.988626
1.00215 1.00201 0.9893
1.0023 1.00389 0.987108
1.00436 0.995006 0.991717
1.00505 0.994914 0.991157
1.00496 0.996049 0.989566
1.00317 0.997432 0.992486
0.998529 1.00442 0.992629
1.00087 1.00115 0.992158
0.998232 1.00488 0.992727
0.999234 1.00459 0.990696
0.999975 0.994897 0.933267
1.00067 1.00451 0.99018
1.00299 1.00233 0.987498
1.00434 0.994862 0.991408
1.0051 0.995618 0.990206
1.00414 1.00096 0.986173
1.00465 1.00142 0.984863
0.998504 0.997347 0.982842
1.0001 1.00423 0.991049
1.00295 0.99656 0.991019
1.0034 1.00252 0.985999
1.00361 1.00106 0.986992
1.0037 0.997635 0.990459
1.00015 0.994872 0.933488
0.995871 0.994795 0.962795
0.995598 1.00075 0.988331
0.99853 0.99477 0.870591
0.994721 0.994825 0.81949
0.999724 1.00412 0.991245
0.99979 0.994828 0.876982
0.994715 0.994801 0.822757
1.00034 0.999852 0.992435
1.00168 1.00208 0.989366
1.00141 0.999407 0.992545
0.995115 0.999764 0.990426
0.998092 0.994833 0.944154
0.994912 0.994769 0.959019
0.996722 0.994858 0.886755
0.994726 0.994806 0.813818
0.997369 1.00321 0.99599
0.99776 1.00216 0.996274
0.998047 1.00431 0.994849
1.00021 1.00366 0.990856
1.00051 1.00403 0.989992
0.99969 1.00482 0.990186
0.999737 1.00458 0.990721
0.999163 0.999747 0.995644
1.00024 1.00385 0.99046
1.0001 1.00474 0.990329
1.00002 1.00473 0.990087
1.00066 1.00437 0.989474
0.998873 1.00455 0.99206
0.999518 1.0048 0.991374
0.997902 1.00508 0.992764
1.00019 1.00497 0.989526
1.00053 1.00459 0.989504
1.00047 1.0047 0.989474
1.00032 1.00377 0.990612
1.00041 1.00494 0.989542
0.999901 1.00399 0.991125
0.999492 1.00303 0.991467
0.999432 1.00505 0.990665
0.999589 1.00472 0.990629
0.99987 1.00435 0.99078
1.00012 1.00356 0.991049
1.0001 1.00444 0.990117
1.00025 1.00362 0.990796
1.00001 1.00216 0.992673
1.00025 1.00389 0.990425
0.999941 1.00215 0.992759
0.999926 0.999154 0.996467
0.999905 1.00221 0.992758
0.999803 0.999154 0.996273
0.999908 0.997249 0.997974
0.999778 0.999151 0.995988
0.999951 0.997266 0.999141
0.999987 0.997258 0.997907
1.00019 1.00137 0.993157
0.999925 1.00013 0.994804
0.99996 1.00023 0.99466
1.00006 0.997991 0.996728
1.00006 1.00039 0.994383
1.0001 0.998009 0.996634
0.999969 0.996738 0.999263
1.00008 0.998108 0.997008
0.999937 0.996979 0.998685
0.999905 0.997221 0.998073
1.00027 0.994821 0.982775
1.00538 0.994898 0.990838
1.00422 0.995834 0.991911
0.9965 0.994886 0.966274
1.00116 0.995524 0.985147
1.00512 0.995673 0.991225
1.00345 0.996454 0.986785
0.997097 0.995211 0.969014
0.999975 0.994872 0.943488
0.998662 0.994829 0.888114
0.994659 0.994787 0.828386
0.999762 1.0024 0.992618
1.00013 1.00133 0.993326
1.00016 1.00165 0.993029
0.999805 1.00312 0.99204
0.999377 1.00396 0.99212
1.00052 1.00197 0.991905
1.0001 1.0029 0.992074
1.00006 1.00212 0.992589
1.00531 0.994832 0.990928
1.00523 0.994824 0.990584
1.00515 0.995041 0.989954
1.00313 1.00134 0.988294
1.00444 0.995769 0.990705
1.00218 1.00284 0.98915
1.00376 1.00408 0.986569
1.00106 1.00517 0.987975
1.00108 1.00014 0.992916
1.00045 1.00448 0.989694
1.0004 1.00297 0.99157
0.998229 1.00114 0.996765
1.00429 0.994823 0.991979
0.998925 1.00399 0.992609
1.00067 1.00155 0.992497
1.00483 0.994906 0.991121
1.0048 0.995724 0.989833
1.0027 0.997278 0.992146
0.999464 1.00517 0.991249
1.00064 1.00346 0.990908
1.00323 0.994784 0.991647
1.00403 0.998329 0.990496
1.00481 0.995559 0.990526
1.00097 0.998472 0.993544
0.999492 1.00491 0.990566
0.99905 1.00418 0.992175
0.999274 1.00517 0.991809
0.999795 0.994905 0.879712
1.00028 0.994873 0.946419
1.00038 1.00393 0.991449
1.00358 1.00259 0.98607
1.00282 0.997158 0.990947
1.0041 0.997726 0.990175
1.00404 1.00117 0.987092
0.999991 0.994892 0.944164
0.996017 0.994767 0.962341
0.995742 1.00144 0.988493
0.998016 0.994818 0.887298
0.994721 0.994821 0.808879
0.999861 1.00399 0.991211
0.99981 0.994854 0.876444
0.994679 0.994786 0.816069
1.0005 0.999867 0.992442
1.00165 1.00219 0.989355
1.00138 0.999562 0.992931
0.995186 1.00058 0.991116
0.998845 0.995486 0.938078
0.994839 0.994794 0.960973
0.996267 0.996536 0.886039
0.994748 0.994796 0.812446
0.998847 1.00401 0.993962
0.99471 0.994811 0.81462
0.994745 0.994784 0.825197
0.997446 1.00204 0.996596
0.999803 1.00216 0.994157
0.995193 0.999856 0.988623
0.995029 0.994909 0.962067
0.995888 0.994786 0.932955
0.99476 0.997893 0.89071
0.994833 0.994833 0.817347
0.997662 1.00178 0.996118
0.998438 1.00352 0.994637
0.997268 1.00366 0.995155
1.0002 1.00389 0.990464
1.00079 1.00419 0.989601
1.00002 1.00482 0.989972
0.999856 1.00477 0.990255
0.998495 1.00446 0.992338
1.00049 1.00465 0.989497
0.999569 1.00456 0.991098
1.00035 1.00489 0.989529
0.997451 1.00502 0.993171
0.99591 1.00522 0.996229
0.998976 1.005 0.991593
1.00047 1.00493 0.989441
1.00055 1.00461 0.989465
1.00029 1.00339 0.990825
1.00036 1.0049 0.989499
0.999984 1.0039 0.991043
0.999372 1.00305 0.992212
0.999097 1.00499 0.991079
0.999164 1.00481 0.991145
0.999024 1.00363 0.992493
1.0005 1.00183 0.992383
1.00175 1.00037 0.99086
0.999138 1.00488 0.990971
0.999581 1.00486 0.99071
0.999642 1.00502 0.990078
0.999645 1.00487 0.990628
1.00003 1.00381 0.990915
0.999874 1.00442 0.990805
1.00015 1.00357 0.991064
1.00004 1.00212 0.992577
1.00024 1.00365 0.990742
0.999994 1.00215 0.99269
1.00004 0.999126 0.996289
0.999936 1.00215 0.99277
0.999905 0.999134 0.996126
1 0.99719 0.997851
0.999795 0.999147 0.995982
0.999956 0.997242 0.999147
0.999949 0.997264 0.999148
1.00022 1.00181 0.993012
0.999932 1.00029 0.994662
1.0001 1.00154 0.993166
1.00006 0.99796 0.996764
0.999925 1.00013 0.994805
0.999965 1.00027 0.994653
1.00007 0.997984 0.996718
0.999995 0.99666 0.999276
1.00008 0.998018 0.997119
0.999983 0.996736 0.998751
0.999956 0.996995 0.998176
0.999808 0.994828 0.864977
0.994684 0.994764 0.815032
0.996702 0.994878 0.966634
1.0011 0.995076 0.985587
1.00519 0.994862 0.991195
0.99675 0.995354 0.968949
1.00355 0.995558 0.987289
1.00098 0.994885 0.94051
0.99897 0.994789 0.870581
0.994695 0.994806 0.818516
0.99822 0.994861 0.97433
0.999141 0.994867 0.943243
0.996727 0.994863 0.886659
0.994738 0.994787 0.81941
1.00017 1.00328 0.991508
0.999882 1.00216 0.992757
1.00013 1.00136 0.993313
0.999937 1.00287 0.992137
0.999261 1.0039 0.992342
1.00009 1.00376 0.990837
1.00031 1.00276 0.991688
1.00039 1.00371 0.990403
1.00008 1.00288 0.991952
0.999997 1.00237 0.992425
1.00412 0.994802 0.992227
1.00469 0.994847 0.991088
1.00459 0.995491 0.990099
1.00234 0.997702 0.991803
1.00109 1.00343 0.991121
0.999503 1.00527 0.989786
1.00035 1.0019 0.992885
0.999075 1.00392 0.992578
1.00255 0.994876 0.992063
0.999592 1.00503 0.99035
0.998743 1.00444 0.991987
1.00388 0.997027 0.990746
1.00464 0.995624 0.990497
1.00104 0.998485 0.993957
0.999155 1.00515 0.991652
1.00036 0.994995 0.991806
1.00161 0.998543 0.993091
0.99941 1.00131 0.994731
0.998494 1.00509 0.989884
0.998857 1.0051 0.990611
0.998607 1.0051 0.99208
0.994729 0.994844 0.837385
0.999795 0.994884 0.884584
0.999987 0.994879 0.933567
0.99962 1.00397 0.991164
1.00184 1.00227 0.989326
1.00056 0.999745 0.992447
1.0013 0.999735 0.993327
0.999811 0.994871 0.88802
0.998453 0.994839 0.933584
0.994849 0.994865 0.959104
0.994889 1.00146 0.991734
0.996917 0.994827 0.871921
0.994655 0.994789 0.82117
0.99477 0.994808 0.825727
0.998631 1.00342 0.993678
0.994703 0.994817 0.82431
0.994771 0.994787 0.824674
0.997135 1.0009 0.997282
0.999409 1.00215 0.994028
0.995054 0.99872 0.991149
0.99545 0.99486 0.960675
0.99658 0.99798 0.943725
0.99475 0.997757 0.875028
0.99493 0.994824 0.827429
0.997184 1.00418 0.996083
0.994789 0.994833 0.833509
0.994812 0.994787 0.821956
0.995005 1.00248 0.999912
0.995346 0.997121 0.969152
0.994859 0.999512 0.9431
0.995321 0.996465 0.866903
0.995113 0.994873 0.833318
0.998807 1.00269 0.994389
0.997539 1.00408 0.995328
0.995763 1.00418 0.997622
1.00043 1.00469 0.989489
1.00047 1.00485 0.989533
0.99971 1.0043 0.990822
0.997202 1.00497 0.993578
1.0003 1.00498 0.989453
0.998973 1.00498 0.991586
0.995784 1.00517 0.996628
0.995082 1.00502 0.998228
0.995819 1.00495 0.996871
0.999484 1.00466 0.991211
1.0003 1.00491 0.989454
1.00002 1.00374 0.99096
0.999114 1.00325 0.99294
0.999162 1.00479 0.991182
0.99925 1.00498 0.991099
0.998994 1.00386 0.992601
0.998992 1.00464 0.991709
0.996924 1.00496 0.995049
1.00242 0.997507 0.99287
1.00021 1.00162 0.992829
1.00106 1.00116 0.991538
1.00445 1.00072 0.986981
1.00125 1.00272 0.990685
1.00076 1.00039 0.992577
0.999646 1.00462 0.990724
0.99968 1.00513 0.989711
0.999786 1.00461 0.990755
0.999885 1.00502 0.990087
1.00004 1.00447 0.990266
1 1.00471 0.990628
1.00022 1.00364 0.9909
1.00012 1.0022 0.992424
1.00032 1.00334 0.99108
1.00012 1.00209 0.992585
1.00015 0.999142 0.996099
1.00003 1.00209 0.992708
1.00003 0.999127 0.995918
1.00008 0.997218 0.997714
0.999907 0.999112 0.99583
0.99999 0.997207 0.998497
0.999966 0.997228 0.999131
1.00017 1.00249 0.992034
1.00007 1.00042 0.994372
1.00014 1.00182 0.992833
1.00005 0.998027 0.996709
0.999951 1.00024 0.994667
1.00011 1.00152 0.993175
1.00002 0.996623 0.999283
1.00005 0.99796 0.996764
0.999931 1.00014 0.994805
1.00008 0.997969 0.996708
0.999996 0.996693 0.999273
0.999967 0.996727 0.999261
0.994685 0.994783 0.818788
0.999804 0.994842 0.876296
0.994757 0.994771 0.822558
0.994704 0.994769 0.813836
0.996708 0.994899 0.966853
1.00348 0.994885 0.987803
0.99995 0.994874 0.936884
0.999224 0.994819 0.888055
0.994729 0.994821 0.808308
0.998526 0.994879 0.973562
1.00028 0.996052 0.929726
0.996496 0.99744 0.884598
0.994722 0.994785 0.812465
0.995325 0.994852 0.966475
0.99654 0.997016 0.931472
0.994818 0.997389 0.867724
0.994815 0.994849 0.815322
1.00073 1.00461 0.990282
0.999906 1.00327 0.991623
1.00001 1.00193 0.992893
0.999033 1.00369 0.992567
1.00072 1.00425 0.98925
1.00006 1.0036 0.991056
0.999937 1.00329 0.991478
1.00084 1.00327 0.99042
1.00046 1.0038 0.990511
1.00012 1.00272 0.991833
1.00214 0.99481 0.992478
1.00385 0.995935 0.991021
1.0044 0.995726 0.990472
1.00091 0.997427 0.994392
1.00015 1.005 0.991483
0.99911 1.00487 0.991809
0.999715 1.00496 0.990129
1.0001 1.00509 0.989612
0.999907 0.995045 0.992194
0.999689 1.0051 0.99039
0.999287 1.0051 0.991965
1.00167 0.997931 0.993918
1.00007 1.00026 0.994522
0.996637 0.99838 0.992067
0.996829 0.99876 1.00081
0.997594 1.00319 0.99513
0.999743 1.00507 0.990321
0.998117 1.00513 0.993009
0.994818 0.994817 0.839268
0.994721 0.994827 0.833614
0.999799 0.994889 0.868611
0.99855 1.00285 0.993445
0.999143 1.00194 0.993884
0.997239 1.00016 0.997967
0.994681 0.994802 0.823181
0.996749 0.997014 0.932756
0.995611 0.9949 0.960779
0.994902 0.997396 0.993911
0.994807 0.997345 0.892614
0.994781 0.994789 0.824663
0.995032 0.994835 0.828313
0.997463 1.00416 0.995949
0.994795 0.994828 0.836407
0.994806 0.994787 0.822661
0.995222 1.00186 0.999033
0.995307 0.996422 0.971099
0.994865 0.997161 0.931757
0.994995 0.994862 0.829938
0.994972 0.998957 0.874725
0.995015 1.00494 0.999515
0.994795 0.994825 0.830903
0.994864 0.994829 0.828802
0.994806 0.994845 0.816045
0.994809 0.999076 0.990577
0.994866 0.998863 0.946664
0.996687 0.997079 0.882144
0.997929 1.00475 0.995528
0.996017 1.00467 0.997435
0.995046 1.00502 0.999095
1.0002 1.00501 0.989465
0.99892 1.00497 0.991576
0.995624 1.00515 0.997022
0.999205 1.00489 0.991156
0.995985 1.005 0.996856
0.99518 1.005 0.998241
0.994983 1.00519 0.998374
0.995986 1.00483 0.996709
0.999115 1.0048 0.99123
0.999348 1.00503 0.991118
0.999023 1.00416 0.992731
0.997197 1.00484 0.994909
0.999034 1.00482 0.991592
0.999126 1.00234 0.993806
1.0002 0.998124 0.995996
1.00253 1.00058 0.988842
0.999898 1.00144 0.993247
1.0016 1.00127 0.991043
1.00429 1.0019 0.985956
1.00508 1.00192 0.984323
1.00291 1.00067 0.989439
1.00369 1.00069 0.987309
1.00069 1.00511 0.988918
1.00077 1.00288 0.991047
0.999803 1.00045 0.994274
1.00016 1.00441 0.990478
0.999825 1.00512 0.989754
1.00019 1.00488 0.989547
1.00008 1.00507 0.990098
1.00019 1.00428 0.990283
1.00013 1.00264 0.991921
1.0003 1.0036 0.990882
1.00014 1.00216 0.992413
1.00017 0.999172 0.996006
1.00014 1.00205 0.992593
1.00014 0.99914 0.995735
1.00016 0.997264 0.997576
1.00004 0.999126 0.9956
1.00006 0.997214 0.9984
1.00002 0.997199 0.99908
1.0005 1.00276 0.991106
1.00008 1.0008 0.993648
1.0003 1.00238 0.992025
1.0001 0.998086 0.996555
1.00003 1.00044 0.994224
1.00013 1.00181 0.992658
1.00004 0.996659 0.999266
1.00006 0.997993 0.996719
0.999972 1.00017 0.994673
1.00002 0.996642 0.999281
1.00004 0.99797 0.996764
0.999997 0.996668 0.999271
0.994823 0.994822 0.830143
0.994695 0.994812 0.830675
0.9998 0.994826 0.875631
1.00106 1.00281 0.990353
0.994818 0.994798 0.828895
0.994758 0.994771 0.822521
0.994734 0.994779 0.825364
0.999108 0.99489 0.972667
0.99876 0.994857 0.941998
0.996513 0.994863 0.869442
0.994699 0.994802 0.820228
0.996517 0.994856 0.963801
0.99665 0.999201 0.941993
0.994761 0.997831 0.870784
0.994819 0.994836 0.819647
0.994852 0.994916 0.958723
0.994849 0.997614 0.940673
0.995361 0.999971 0.877764
0.995126 0.99488 0.83296
0.999832 1.00503 0.990018
1.00026 1.00443 0.990136
1.00006 1.00329 0.991738
1.00057 1.0035 0.990297
1.00049 1.00459 0.98956
1.00006 1.00385 0.991271
1.00084 1.00338 0.990381
1.00044 1.00385 0.990612
0.998831 0.996295 0.992409
1.00152 0.997265 0.994658
1.00042 1.00509 0.989338
1.0007 0.999876 0.994321
0.999512 1.0051 0.991849
1.0001 1.0051 0.990181
0.99938 1.00494 0.990456
0.996046 0.997736 0.99278
0.998413 1.00507 0.993049
0.997967 1.00315 0.995388
0.996581 0.999512 1.00098
0.999113 1.00485 0.991766
0.994814 1.00058 0.988494
0.995337 1.00234 0.999612
0.996209 1.00499 0.996364
0.998289 1.00521 0.993486
0.994783 0.994806 0.836556
0.994823 0.994819 0.837257
0.99471 0.994818 0.829769
0.99772 1.0042 0.995798
0.995433 1.0008 0.998156
0.994807 0.994826 0.839139
0.99483 0.999238 0.943429
0.995525 0.996191 0.968467
0.995017 0.999007 0.873262
0.994806 0.994787 0.823196
0.994874 0.994851 0.826603
0.99541 1.00474 0.999196
0.994797 0.994823 0.830885
0.994859 0.994834 0.830369
0.994771 0.999569 0.9943
0.994812 0.994832 0.820066
0.994852 0.996474 0.939184
0.995814 0.997691 0.884195
0.994783 1.00346 0.998562
0.994831 0.994849 0.83634
0.994802 0.994805 0.829767
0.994733 0.994793 0.819846
0.995208 0.999973 0.877274
0.994913 1.00042 0.976248
0.995441 0.998055 0.932205
0.996372 1.0049 0.997257
0.995113 1.00508 0.999074
0.99487 1.00524 0.998452
0.998965 1.00503 0.991103
0.995954 1.00517 0.996845
0.995043 1.00513 0.998246
0.996126 1.00468 0.996638
0.994948 1.0052 0.998433
0.997856 1.00185 0.997402
0.997425 1.00459 0.994759
0.999037 1.00501 0.991487
0.999012 1.00264 0.994407
0.998908 1.00272 0.992307
0.998068 0.9987 0.999003
1.00233 1.00014 0.989962
1.00424 1.00401 0.983122
1.00481 1.00273 0.983606
1.00211 1.00132 0.990513
1.00426 1.00219 0.985222
1.00512 1.00201 0.984238
1.00446 1.00022 0.986742
1.00482 1.00176 0.984698
1.00118 1.0039 0.988716
1.00277 1.0011 0.989234
1.00301 1.00062 0.987649
1.0003 1.00514 0.988881
1.00025 1.0051 0.989174
1.00034 1.00294 0.991413
0.999902 1.00511 0.989797
1.00026 1.00491 0.989561
1.00018 1.00354 0.990997
1.00034 1.00423 0.990299
1.00016 1.00269 0.991902
1.00013 0.999381 0.995172
1.00021 1.00219 0.992404
1.0002 0.999173 0.995299
1.00007 0.997246 0.998968
1.00014 0.999165 0.995403
1.00012 0.99726 0.998292
1.00007 0.997214 0.999015
1.0005 1.00284 0.990981
1.00024 1.00131 0.992926
1.00043 1.00283 0.991253
1.00016 0.998261 0.996304
1.00016 1.0008 0.993566
1.00033 1.00238 0.992012
1.00007 0.996656 0.999232
1.00011 0.998068 0.99657
1.00003 1.00044 0.994076
1.00004 0.99663 0.999273
1.00007 0.997956 0.996729
1.00001 0.996676 0.99928
0.994799 0.994832 0.836694
0.994821 0.994823 0.830361
0.994687 0.994825 0.830673
1.00094 1.00287 0.990536
1.00079 1.00297 0.990447
1.00104 1.00228 0.99114
0.99487 0.994832 0.828027
0.994817 0.994791 0.829466
0.994757 0.994762 0.822545
0.996817 0.994856 0.964887
0.996534 0.994811 0.930536
0.994789 0.999418 0.890896
0.994816 0.994831 0.814306
0.99498 0.994854 0.9617
0.994884 0.998775 0.937148
0.995274 0.998571 0.874107
0.995023 0.994869 0.829396
0.995601 0.994959 0.958396
0.994882 0.997425 0.941731
0.99657 0.997406 0.881781
0.994843 0.994836 0.818068
0.999911 1.00347 0.991303
1.00035 1.00454 0.989808
1.00045 1.00401 0.989988
1.00076 1.00337 0.990234
1.00017 1.00474 0.989873
1.00082 1.00357 0.990345
0.995874 0.996379 0.9936
0.996338 1.0002 1.00126
0.999695 1.00431 0.990586
0.998718 1.00252 0.995582
0.998501 1.00508 0.993082
0.998701 1.00456 0.992142
0.997725 1.00523 0.993584
0.99501 1.00079 0.988413
0.995981 1.00514 0.99684
0.995903 1.00244 0.998801
0.997875 1.00487 0.994013
0.994899 1.00266 0.985219
0.995487 1.00431 0.995798
0.99569 1.00518 0.997336
0.994835 0.994833 0.836377
0.994786 0.994816 0.836097
0.994828 0.994814 0.835272
0.995677 1.00421 0.998841
0.994763 0.999976 0.990418
0.994797 0.994821 0.830877
0.994846 0.998439 0.938946
0.996307 0.997085 0.869516
0.994857 0.994832 0.831917
0.994811 0.994832 0.815139
0.99479 1.00327 0.999018
0.994825 0.99485 0.836898
0.994817 0.994803 0.830367
0.994884 0.999508 0.973612
0.994717 0.994792 0.813215
0.99575 0.999673 0.871902
0.99519 0.995749 0.945293
0.994872 1.00509 0.991364
0.994792 0.994844 0.836859
0.994778 0.994789 0.823645
0.994661 0.994797 0.829743
0.994788 0.997393 0.867277
0.994868 0.999128 0.940538
0.994884 1.00083 0.967777
0.99519 1.00497 0.999043
0.994892 1.00525 0.998467
0.996861 1.00301 0.997575
0.996357 1.00458 0.996568
0.994923 1.00517 0.998453
0.996468 1.00372 0.997457
0.999367 0.997785 0.998793
0.998878 1.00305 0.994996
1.00119 1.00208 0.991519
1.00226 1.00471 0.985969
1.00197 0.999756 0.991247
1.00424 1.00377 0.983602
1.00435 1.00475 0.982348
1.005 1.00179 0.98389
1.00506 1.0019 0.984147
1.00474 1.00282 0.983554
1.00451 1.00236 0.984503
1.0051 1.00125 0.985193
1.00511 1.00201 0.984189
1.0031 1.00163 0.98764
1.00436 1.00031 0.987027
1.00443 1.00162 0.985077
1.00059 1.00514 0.988185
1.0014 1.00405 0.98867
1.0025 1.00164 0.989019
1.00028 1.00434 0.990098
1.00057 1.0051 0.988889
0.999976 1.00506 0.989431
1.00039 1.00486 0.989575
1.00027 1.00341 0.991
1.00005 0.999906 0.994765
1.00026 1.00259 0.991883
1.00015 0.99942 0.995148
1.00006 0.997383 0.998934
1.0002 0.999198 0.995293
1.00012 0.997279 0.998253
1.0001 0.997254 0.998967
1.00057 1.00322 0.990781
1.00036 1.00157 0.992661
1.0006 1.00274 0.991038
1.00022 0.998526 0.99593
1.00023 1.00131 0.993011
1.00042 1.00284 0.991401
1.00009 0.996743 0.999174
1.00016 0.998214 0.996325
1.00019 1.00078 0.993485
1.00007 0.996678 0.999243
1.00011 0.998044 0.996584
1.00004 0.99664 0.99928
0.994832 0.994844 0.83567
0.994802 0.994845 0.83668
0.994817 0.994835 0.830642
1.00034 1.00429 0.989661
1.00122 1.00403 0.989678
1.00074 1.00299 0.990722
1.00071 1.00321 0.99035
1.0006 1.00247 0.9913
1.0004 1.00291 0.9912
1.00036 1.00201 0.992181
0.99483 0.994801 0.822043
0.994871 0.994838 0.829708
0.994813 0.99481 0.830052
0.99488 0.994863 0.825934
0.995106 0.994838 0.958984
0.994868 0.999622 0.932426
0.995446 0.99613 0.887766
0.99533 0.99497 0.957388
0.994867 0.999071 0.929658
0.995476 0.997865 0.884258
0.994902 0.99483 0.828004
0.995849 0.996396 0.960881
0.99508 0.99969 0.930948
0.995461 0.996703 0.866844
0.994737 0.994813 0.814572
0.99823 1.00486 0.993223
0.999725 1.00391 0.991533
1.00041 1.00482 0.989599
1.00087 1.00354 0.990176
0.995235 1.00099 0.98855
0.996252 1.003 0.997853
0.998468 1.00508 0.992521
0.997474 1.00517 0.993689
0.995865 1.00516 0.997345
0.997736 1.00454 0.994
0.995767 1.0051 0.997325
0.996061 1.0025 0.981799
0.995005 1.00509 0.996125
0.996141 1.00413 0.996913
0.994835 1.00476 0.98121
0.995425 1.00354 0.99846
0.99478 0.994817 0.836872
0.994834 0.994835 0.839321
0.994789 0.994829 0.835623
0.994798 1.00316 0.999445
0.994849 0.999101 0.977047
0.994817 0.994849 0.837505
0.99538 0.997513 0.93313
0.995795 0.997132 0.886595
0.994827 0.994818 0.830921
0.994696 0.994808 0.820851
0.994876 1.00442 0.992172
0.994806 0.994843 0.836868
0.994762 0.994786 0.823656
0.994898 0.99995 0.967777
0.9947 0.994811 0.820003
0.994742 0.997897 0.869536
0.995349 0.998761 0.92899
0.995025 1.00475 0.986139
0.994832 0.994823 0.830358
0.994677 0.994772 0.816481
0.996506 0.994866 0.888076
0.994802 0.998844 0.940298
0.99484 0.999988 0.960749
0.994937 1.00532 0.998777
0.995895 1.00378 0.997675
0.996976 0.99962 0.99971
0.995357 1.00508 0.9975
0.99776 0.9996 0.998999
1.00189 0.998525 0.994236
1.00352 1.00131 0.990739
1.00315 1.00471 0.985241
1.00357 1.00446 0.983486
1.00399 1.00379 0.984078
1.00447 1.00463 0.982292
1.00434 1.00431 0.982741
1.00517 1.00021 0.985222
1.00511 1.00113 0.98479
1.005 1.00199 0.98386
1.00509 1.0017 0.984561
1.00504 1.00178 0.984154
1.00458 1.003 0.983499
1.00501 1.00105 0.98571
1.00494 1.00147 0.985036
1.00509 1.00202 0.984143
1.002 1.00419 0.987339
1.00305 1.00175 0.987827
1.00424 1.00033 0.987312
1.00046 1.00475 0.989025
1.00096 1.00504 0.988231
1.0015 1.00421 0.988623
1.00007 1.00044 0.994185
1.00037 1.00415 0.990104
1.00077 1.0051 0.988897
1.0003 1.00339 0.991002
1.00006 0.999972 0.994732
1.00001 0.997637 0.99887
1.00017 0.99945 0.995123
1.00006 0.997407 0.998921
1.0001 0.997265 0.998948
1.00008 1.00506 0.989796
1.00073 1.00383 0.98998
1.00047 1.00201 0.992077
1.0006 1.00312 0.990766
1.00026 0.998854 0.995534
1.00036 1.0016 0.992651
1.00062 1.00274 0.991097
1.00011 0.996911 0.999083
1.00021 0.998504 0.995953
1.00024 1.00133 0.993093
1.00009 0.996728 0.999193
1.00017 0.998189 0.996346
1.00007 0.99665 0.999254
0.994796 0.994834 0.830825
0.994815 0.994841 0.836265
0.994811 0.994836 0.836659
1.00047 1.00455 0.989646
1.00077 1.00353 0.989841
1.00009 1.00271 0.990419
0.999967 1.00447 0.989874
1.00156 1.00341 0.990274
1.00078 1.00335 0.990252
1.0004 1.00262 0.991458
1.00048 1.00289 0.991219
1.00038 1.00224 0.992206
0.999143 1.00397 0.992452
0.994751 0.994781 0.825425
0.994816 0.994798 0.822797
0.99487 0.994829 0.831316
0.995033 0.994841 0.828831
0.996122 0.997411 0.869698
0.995096 0.995692 0.95597
0.994892 0.998288 0.94143
0.99535 0.996925 0.957291
0.99489 0.996298 0.942573
0.994965 0.999292 0.875419
0.994756 0.994802 0.813192
0.994873 0.998951 0.960902
0.99483 1.00069 0.942525
0.99477 0.998658 0.890113
0.994705 0.994822 0.830238
0.998284 1.00264 0.995471
0.997913 1.00473 0.993408
0.999674 1.0038 0.99177
0.996862 1.00221 0.978061
0.994916 1.00506 0.996527
0.997516 1.00456 0.993983
0.995545 1.00505 0.997314
0.996424 1.00408 0.996919
0.995273 1.00332 0.998758
0.994946 1.00242 0.980488
0.995809 1.00139 0.999806
0.995781 1.00062 0.986373
0.994818 0.994821 0.838238
0.994789 0.994826 0.836428
0.99483 0.994835 0.842293
0.994883 1.00386 0.992563
0.994867 0.99956 0.965188
0.99482 0.994845 0.83686
0.994867 0.999458 0.940466
0.994763 0.999402 0.889345
0.994745 0.994767 0.823785
0.994729 0.994822 0.809896
0.995399 1.00451 0.986833
0.994816 0.994829 0.830491
0.994702 0.994774 0.815385
0.995045 0.999447 0.961725
0.996328 0.996846 0.885624
0.994854 0.998612 0.935229
0.995144 1.00336 0.984039
0.994685 0.994787 0.819514
0.99863 0.994836 0.889275
0.996401 0.99705 0.931757
0.994865 0.99667 0.963299
0.995515 1.00486 0.997765
0.996496 1.00029 0.999703
0.99891 1.00213 0.99593
0.996124 1.00138 0.999172
1.0008 0.999024 0.99474
1.00341 0.999431 0.989792
1.00403 1.00438 0.984496
1.00357 1.0044 0.983357
1.00419 1.0016 0.985001
1.00474 1.00444 0.982239
1.00442 1.0039 0.982827
1.00492 1.00024 0.985768
1.00525 0.997649 0.98749
1.00522 0.999677 0.985573
1.00515 1.00012 0.98531
1.00517 1.001 0.984986
1.00511 1.00116 0.984705
1.005 1.00215 0.983827
1.00515 1.00194 0.984515
1.00494 1.00161 0.984592
1.00503 1.00169 0.98416
1.00407 1.00202 0.986166
1.00451 1.00146 0.985762
1.0048 1.00173 0.984879
1.00085 1.00513 0.987586
1.00202 1.00414 0.987346
1.00313 1.00189 0.988012
1.0001 1.00127 0.994286
1.00067 1.00471 0.98903
1.00129 1.00493 0.988278
1.00002 0.99809 0.996897
1.00007 1.00063 0.994515
1.00049 1.004 0.990108
1.00008 1.00005 0.994698
1.00002 0.997704 0.998829
1.00006 0.997416 0.998907
1.00036 1.00513 0.989372
1.00072 1.00486 0.989215
0.999846 1.00507 0.989688
1.00052 1.00273 0.9913
1.00052 1.00417 0.989958
1.00022 0.999223 0.995212
1.00046 1.002 0.992087
1.00071 1.00303 0.990749
1.00011 0.997155 0.998991
1.00025 0.998835 0.995551
1.00035 1.00165 0.992642
1.00011 0.996898 0.999112
1.00021 0.99847 0.995976
1.00009 0.996729 0.999211
0.994787 0.994825 0.839812
0.994805 0.994837 0.830817
0.994802 0.994854 0.836887
1.00115 1.00203 0.990206
1.00011 1.00493 0.989629
1.00063 1.00333 0.990013
1.00055 1.00461 0.98963
1.00092 1.00243 0.990478
1.0008 1.00316 0.991239
1.00279 1.0022 0.988149
0.998697 1.0049 0.991198
1.00059 1.0028 0.991237
1.00007 1.00219 0.992228
0.999006 1.00382 0.992369
0.998137 1.00517 0.993009
0.994708 0.994798 0.822847
0.994775 0.994786 0.824939
0.994813 0.994795 0.823406
0.994774 0.994809 0.826003
0.994928 0.999246 0.874429
0.995504 0.998468 0.931049
0.995027 0.99611 0.957101
0.994891 0.999006 0.96023
0.994716 0.994824 0.820134
0.994853 0.997037 0.935067
0.994769 0.999054 0.87422
0.994923 0.996551 0.965533
0.994878 0.999687 0.943437
0.996331 0.995263 0.886676
0.999394 0.996757 0.998932
0.998225 1.00244 0.995418
0.997882 1.00455 0.993583
0.994951 1.00159 0.98027
0.994899 1.00299 0.999024
0.996858 1.00395 0.996907
0.996903 1.00105 0.999924
0.99527 0.99943 0.986557
0.996557 0.998019 0.992409
0.994717 0.99485 0.832
0.994816 0.994813 0.839866
0.994797 0.994827 0.835923
0.995033 1.0043 0.987172
0.994875 0.999983 0.961506
0.994801 0.994836 0.830793
0.994839 0.999643 0.931128
0.996391 0.994863 0.870793
0.994738 0.99479 0.826629
0.994803 1.00434 0.98404
0.994696 0.994819 0.831225
0.99864 0.994799 0.87166
0.994873 0.995912 0.959038
0.99644 0.998713 0.942456
0.99487 1.00302 0.989701
0.999797 0.994841 0.865159
0.998979 0.994886 0.944205
0.994852 0.994853 0.958222
0.996012 1.00066 0.999756
0.998227 1.0012 0.995593
1.00149 1.00338 0.991079
0.999729 0.999516 0.995251
1.0027 1.00014 0.989626
1.00416 0.999704 0.987777
1.00357 1.00456 0.983228
1.00417 1.00172 0.984938
1.00503 0.997056 0.987936
1.00441 1.00338 0.982915
1.00477 1.00007 0.985788
1.00526 0.996107 0.988972
1.00524 0.996031 0.989494
1.00526 0.99786 0.987373
1.00526 0.997569 0.98761
1.00525 0.999501 0.985773
1.00521 0.999649 0.985752
1.00514 1.00004 0.985398
1.00524 1.00128 0.984476
1.00517 1.00092 0.984949
1.00512 1.00116 0.984618
1.00512 1.00123 0.985091
1.00498 1.00187 0.984533
1.00479 1.0015 0.984622
1.00236 1.00406 0.986637
1.00389 1.00227 0.986097
1.00396 1.00184 0.985815
1.0001 1.00218 0.992305
1.00139 1.00503 0.987598
1.00206 1.00417 0.987349
0.99984 0.998772 0.998529
1.00011 1.0013 0.993255
1.00088 1.00469 0.989037
1.00001 0.998073 0.998682
1.00006 1.00069 0.994053
1.00003 0.997769 0.998783
1.00224 1.00355 0.988398
1.0004 1.00509 0.989211
1.00079 1.00508 0.988834
1.00047 1.00365 0.990449
1.00052 1.00486 0.989191
1.00004 1.00503 0.989583
1.00016 0.999712 0.994852
1.00048 1.00275 0.991324
1.00031 1.00429 0.989934
1.00009 0.997374 0.998921
1.00023 0.999165 0.995228
1.00046 1.00197 0.992097
1.00011 0.997119 0.999018
1.00024 0.998821 0.995566
1.0001 0.996852 0.999141
0.994713 0.994813 0.81683
0.994806 0.994827 0.840062
0.994812 0.99484 0.830827
1.00101 1.00261 0.990164
1.00441 1.00176 0.987252
1.0016 1.00351 0.98931
1.00055 1.00452 0.989384
1.00195 1.00219 0.990531
0.99967 1.00249 0.992185
0.999417 1.00472 0.990836
1.00193 1.0027 0.988767
1.00196 1.00354 0.988601
0.99939 0.999889 0.99552
0.999656 1.00371 0.992281
0.998509 1.00506 0.99287
0.99913 0.994817 0.865184
0.994679 0.99479 0.816426
0.994786 0.994789 0.82496
0.994729 0.994816 0.809498
0.994812 0.997797 0.891645
0.994829 0.99896 0.930623
0.995013 0.996705 0.958602
0.994902 0.996733 0.963538
0.996564 0.997999 0.884939
0.994861 0.998279 0.931799
0.994897 0.997043 0.966675
0.996265 0.995705 0.931684
1.00058 0.995749 0.999918
0.999253 0.997938 0.99888
0.998091 1.00232 0.995386
0.994973 0.998956 0.986851
0.997692 1.00049 1.00006
0.997042 0.998044 0.99209
0.99706 0.995676 0.991029
0.999794 0.994911 0.878718
0.994708 0.994837 0.82979
0.994823 0.994812 0.841355
0.994827 1.00456 0.984353
0.994864 0.994892 0.95753
0.994691 0.994831 0.831083
0.99638 0.994805 0.93184
0.998995 0.994834 0.889423
0.994876 1.00099 0.986529
0.9998 0.994857 0.876583
0.999597 0.9956 0.931117
0.994855 0.994818 0.960454
0.99705 0.997993 0.98823
0.999955 0.994888 0.944276
0.995358 0.994834 0.964751
0.997957 1.00022 0.995219
1.00051 1.00133 0.991181
1.00373 0.999535 0.990702
1.00205 1.00105 0.989473
1.00402 0.999573 0.987776
1.00514 0.996243 0.989212
1.00427 1.00186 0.984878
1.00498 0.997517 0.987872
1.00524 0.995133 0.989936
1.00466 0.999901 0.985805
1.00526 0.9962 0.988918
1.00523 0.995085 0.990346
1.00523 0.995354 0.990352
1.00524 0.995938 0.989661
1.00522 0.99645 0.989314
1.00528 0.998196 0.987319
1.00525 0.997919 0.987492
1.00528 0.997482 0.987731
1.00528 1.00017 0.985483
1.00525 0.999545 0.985738
1.0052 0.9996 0.98593
1.00523 1.00155 0.98453
1.00524 1.0013 0.984515
1.00518 1.00086 0.984913
1.00343 1.00273 0.986239
1.00499 1.00135 0.985069
1.0048 1.00182 0.984551
1.00051 1.00285 0.991004
1.00244 1.00404 0.986632
1.00387 1.00231 0.986031
0.999986 0.999098 0.998272
1.00026 1.00212 0.992266
1.0018 1.00484 0.987608
0.999955 0.998734 0.997499
1.00016 1.00145 0.993255
1.00004 0.998277 0.998585
1.00363 1.00119 0.987972
1.00154 1.00351 0.988589
1.0007 1.00508 0.988466
1.00039 1.00505 0.989045
1.00053 1.00508 0.988858
1.00066 1.00435 0.989568
1.00013 1.00042 0.994252
1.0004 1.00377 0.990438
1.00021 1.00499 0.989168
1.00006 0.997634 0.998819
1.00015 0.999656 0.994875
1.00042 1.00278 0.991346
1.00008 0.997344 0.998941
1.00025 0.999118 0.995248
1.0001 0.99709 0.999044
0.999795 0.994833 0.87628
0.994701 0.994823 0.82225
0.994816 0.994825 0.84031
1.00085 1.00292 0.990126
1.00151 1.00387 0.988488
1.00364 1.00241 0.987375
1.00505 1.00363 0.983099
1.00158 1.00305 0.988726
0.99969 1.00483 0.990502
1.00137 1.00313 0.989382
1.00109 1.00364 0.989137
1.00405 0.998324 0.988354
1.00183 0.999751 0.992566
1.00317 0.995614 0.993374
1.00018 0.999427 0.995373
0.999353 1.00412 0.992742
0.998249 0.994872 0.942021
0.99929 0.994781 0.869925
0.994655 0.99479 0.821331
0.996634 0.995739 0.871467
0.994873 0.999568 0.940586
0.994913 0.995557 0.964776
0.994912 0.996819 0.968343
0.996895 0.999083 0.943542
0.995725 0.994817 0.967934
0.999974 0.99589 0.999121
0.999944 0.996144 0.999949
0.999034 0.999138 0.998808
0.997672 0.997681 0.991885
0.997796 0.996368 0.991229
0.999974 0.994896 0.933137
0.999795 0.994888 0.884045
0.994693 0.994821 0.827689
0.994891 0.999623 0.983089
0.995028 0.994814 0.958368
0.999801 0.994831 0.876048
0.998706 0.994855 0.943009
0.996737 0.997972 0.988467
1.00064 0.994891 0.940745
0.996357 0.99486 0.962415
1.00059 0.994823 0.988468
0.998519 0.994867 0.972405
0.999251 0.999393 0.991357
1.00319 0.997742 0.990725
1.00488 0.995107 0.991672
1.00388 0.999234 0.987768
1.00506 0.996129 0.989076
1.00523 0.994876 0.990367
1.00482 0.997973 0.987808
1.00524 0.995184 0.989885
1.00522 0.994878 0.990489
1.00526 0.996286 0.988865
1.00522 0.995121 0.990311
1.00524 0.994932 0.9906
1.00523 0.995254 0.990421
1.0052 0.99557 0.990305
1.00524 0.995845 0.98983
1.00522 0.996439 0.98931
1.00523 0.997054 0.988652
1.0053 0.999108 0.986613
1.00528 0.998259 0.987297
1.00525 0.997978 0.987612
1.0053 1.00112 0.984634
1.00529 1.00024 0.985358
1.00526 0.999589 0.985702
1.00405 1.00198 0.985911
1.00509 1.00159 0.984569
1.00524 1.00133 0.984553
1.0011 1.00295 0.989952
1.00328 1.00295 0.986243
1.0047 1.00161 0.985048
1.00011 0.999861 0.997876
1.00065 1.00269 0.990999
1.00264 1.00404 0.986628
1.00008 0.99925 0.998139
1.00046 1.00192 0.992226
1.00007 0.998696 0.998356
1.00493 1.00256 0.984242
1.00353 1.00113 0.987845
1.00178 1.00379 0.987671
1.00086 1.00354 0.988793
1.00077 1.00503 0.988303
1.00089 1.00488 0.988613
1.0004 1.00508 0.988878
1.00045 1.00452 0.989536
1.00018 1.00113 0.993428
1.00003 0.998056 0.998624
1.00009 1.00036 0.994273
1.0003 1.00389 0.990428
1.00005 0.997611 0.998856
1.00015 0.999593 0.994889
1.00009 0.99732 0.998961
0.999975 0.994881 0.945595
0.999813 0.994856 0.875961
0.99468 0.994814 0.816736
1.0013 1.00459 0.98766
1.003 1.00281 0.987503
1.00262 1.00288 0.988197
1.00459 1.00338 0.983722
1.00514 1.00129 0.984439
1.00351 1.00057 0.98679
1.00035 1.00389 0.989652
1.00437 0.998557 0.987711
1.00184 0.999472 0.992734
1.00366 0.996548 0.990296
1.0042 0.996386 0.991799
1.00287 0.9965 0.993021
1.00274 0.995869 0.993498
0.999715 0.999897 0.995221
0.995971 0.994864 0.96602
0.999211 0.996125 0.937863
0.998132 0.994838 0.885912
0.996388 0.997124 0.931353
0.994943 0.996692 0.968821
0.995462 0.995677 0.973796
0.999241 0.99515 0.992904
1.00059 0.99535 0.998704
0.999312 0.996331 1
0.998841 0.998183 0.991463
0.997197 0.99593 0.967131
1.00009 0.99488 0.946214
0.999798 0.994888 0.867957
0.996152 0.998001 0.988766
0.996815 0.994861 0.963207
0.999928 0.994878 0.936909
1.00006 0.995119 0.988735
0.998572 0.994878 0.971726
1.00292 0.994983 0.990537
1.00311 0.99719 0.98525
1.00237 0.996048 0.990727
1.00443 0.99513 0.991685
1.00513 0.994786 0.991011
1.00499 0.996172 0.988941
1.00523 0.994876 0.990317
1.00526 0.994895 0.990513
1.00524 0.99525 0.989831
1.00522 0.994887 0.990468
1.00526 0.994901 0.990546
1.00523 0.995158 0.990275
1.00523 0.994932 0.990589
1.00524 0.994982 0.990611
1.00523 0.995155 0.990489
1.00521 0.995459 0.990348
1.00522 0.996231 0.98967
1.00522 0.996432 0.989306
1.00523 0.997097 0.988637
1.00527 0.998314 0.987534
1.00532 1.00034 0.985423
1.0053 0.999256 0.986415
1.00528 0.998323 0.987276
1.00475 1.00102 0.98568
1.00529 1.00114 0.984672
1.00529 1.00031 0.985232
1.00159 1.00261 0.989374
1.00392 1.00222 0.985905
1.00495 1.00162 0.984605
1.00044 1.00048 0.997398
1.00116 1.00281 0.989948
1.00313 1.00317 0.986245
1.00027 1.00003 0.997682
1.00069 1.00255 0.991003
1.0002 0.999395 0.997974
1.00493 1.00188 0.984392
1.00498 1.00234 0.984444
1.00414 1.00212 0.985602
1.00324 1.0016 0.987716
1.00187 1.00372 0.987467
1.00177 1.00469 0.987525
1.00074 1.00491 0.988143
1.00078 1.00496 0.988616
1.00025 1.00195 0.992533
1.00033 1.00477 0.989506
1.0001 1.0012 0.993458
0.999993 0.998718 0.998376
1.00001 0.998022 0.998699
1.00004 1.00035 0.994297
1.00003 0.997557 0.998887
0.996938 0.994878 0.967475
0.999966 0.99487 0.932571
0.999809 0.99486 0.887342
1.00522 0.999167 0.986202
1.00377 1.00282 0.987679
1.00415 1.00313 0.984346
1.00429 1.00038 0.987002
1.00512 1.0015 0.984392
1.00471 0.998248 0.988112
1.00474 0.999976 0.98707
1.0016 0.998747 0.992906
1.00425 0.997153 0.990077
1.00402 0.996505 0.991016
1.00479 0.995985 0.98977
1.00332 0.995118 0.993987
1.00289 0.996114 0.993074
1.00256 0.996131 0.993613
0.998899 0.995132 0.99121
0.995858 0.994871 0.96438
0.998859 0.994851 0.933237
0.995078 0.996235 0.9725
0.99889 0.995072 0.995518
1.00064 0.994921 0.998233
1.00172 0.996003 0.982397
0.997232 0.995311 0.967462
0.999977 0.994895 0.933172
0.999408 0.994947 0.989027
0.998916 0.994893 0.970955
1.00207 0.994846 0.991037
1.00301 0.996446 0.986053
1.00397 0.994955 0.991269
1.00461 0.997248 0.990862
1.00409 0.994994 0.991685
1.0051 0.994802 0.990903
1.00531 0.994846 0.990461
1.00523 0.994867 0.990267
1.00524 0.994888 0.990508
1.0053 0.994893 0.990483
1.00522 0.994896 0.990446
1.00525 0.9949 0.990555
1.00527 0.994904 0.990662
1.00522 0.994933 0.990578
1.00524 0.994962 0.990597
1.00523 0.995344 0.990408
1.00521 0.995347 0.99039
1.00522 0.996094 0.989806
1.00527 0.997503 0.988436
1.00524 0.997138 0.988621
1.00527 0.998257 0.987593
1.00531 0.999958 0.985927
1.00503 1.00056 0.98567
1.00532 1.00046 0.985295
1.0053 0.9994 0.986217
1.00231 1.00155 0.989254
1.00465 1.00116 0.985691
1.00528 1.00114 0.98471
1.00074 1.00072 0.997071
1.00182 1.00229 0.989367
1.0038 1.0024 0.985903
1.00057 1.00055 0.997257
1.00129 1.00265 0.989945
1.00043 1.0002 0.9975
1.00529 1.00053 0.985059
1.00511 1.00193 0.984287
1.00508 1.0013 0.984923
1.00514 1.00206 0.984645
1.00433 1.00203 0.985538
1.00273 1.00386 0.986703
1.0021 1.00338 0.987261
1.0015 1.00484 0.98754
1.00046 1.00255 0.99153
1.00063 1.00498 0.988617
1.00013 1.00199 0.992561
0.999974 0.999403 0.998087
1.00001 1.00117 0.993487
0.999973 0.998588 0.998468
0.999985 0.997938 0.998764
1.0006 0.99488 0.987233
0.996731 0.994888 0.964056
0.999977 0.994879 0.945413
1.00509 0.99773 0.988044
1.00528 0.997295 0.988177
1.00523 0.998941 0.986471
1.00504 0.999774 0.987208
1.00508 1.00176 0.984345
1.00477 0.998075 0.988403
1.00514 0.995629 0.989402
1.0048 0.997087 0.989867
1.00393 0.996999 0.990236
1.00463 0.996511 0.990158
1.00507 0.995169 0.990696
1.00371 0.995131 0.992855
1.00299 0.995338 0.993711
1.00318 0.995687 0.993139
0.999576 0.995133 0.991311
0.995759 0.99486 0.962882
0.998868 0.995061 0.998247
1.0045 0.994944 0.990874
1.00158 0.996296 0.982537
0.997311 0.994866 0.965725
1.0017 0.994791 0.9915
1.00287 0.995695 0.98688
1.00398 0.994916 0.991923
1.00464 0.996446 0.990959
1.0053 0.994823 0.990873
1.00539 0.994901 0.991102
1.00505 0.99482 0.990797
1.00532 0.994852 0.990433
1.00533 0.994871 0.990503
1.00523 0.99488 0.990504
1.00529 0.994894 0.990505
1.00526 0.994895 0.990666
1.00525 0.994898 0.990564
1.00527 0.994903 0.990656
1.00525 0.995016 0.990752
1.00524 0.994944 0.990582
1.00524 0.99535 0.990383
1.00527 0.996723 0.989144
1.00522 0.995954 0.989942
1.00526 0.997433 0.98849
1.00532 0.999478 0.986385
1.00527 0.998203 0.987652
1.00531 0.999876 0.986027
1.0051 1.00041 0.98574
1.00268 1.00073 0.989406
1.00501 1.00061 0.985677
1.00532 1.00059 0.985168
1.00094 1.00073 0.996909
1.00234 1.00149 0.989245
1.00453 1.00138 0.985701
1.00082 1.00077 0.996992
1.00196 1.00208 0.989359
1.00068 1.00069 0.997131
1.00529 0.998774 0.986739
1.00527 1.00039 0.985251
1.00526 1.00091 0.985019
1.00518 1.00192 0.984181
1.00515 1.00124 0.984927
1.00346 1.00253 0.986542
1.00452 1.00196 0.985478
1.00264 1.00361 0.986706
1.00081 1.00291 0.990469
1.00119 1.00494 0.987555
1.00036 1.00263 0.991563
1.00007 1.00021 0.997739
1.00006 1.00206 0.992588
0.999935 0.999288 0.998199
0.999937 0.998492 0.998554
1.00433 0.994812 0.992206
1.00078 0.994872 0.985059
0.996587 0.994906 0.963407
1.00518 0.996652 0.989144
1.00507 0.997299 0.988332
1.00527 0.996124 0.989428
1.00528 0.99732 0.988147
1.00523 0.998694 0.986736
1.00527 0.994948 0.990031
1.00488 0.998065 0.988685
1.00515 0.995982 0.989405
1.00526 0.99485 0.990496
1.00451 0.996856 0.990544
1.00506 0.995245 0.990385
1.00345 0.995182 0.99311
1.00241 0.995726 0.993439
1.00004 0.995073 0.99124
1.00534 0.994889 0.990845
1.00448 0.995956 0.991107
1.00142 0.996728 0.98273
1.00388 0.99479 0.992561
1.00463 0.995648 0.991062
1.00529 0.994817 0.990935
1.0054 0.994901 0.991043
1.00537 0.994879 0.990879
1.00534 0.99486 0.990406
1.00533 0.994876 0.990515
1.00525 0.994905 0.990799
1.00529 0.994896 0.990527
1.00526 0.994898 0.990662
1.00523 0.994907 0.990944
1.00527 0.994903 0.99065
1.00525 0.995002 0.990725
1.00526 0.995998 0.989928
1.00524 0.995355 0.990359
1.00527 0.996754 0.989141
1.00533 0.998978 0.986928
1.00526 0.997363 0.988544
1.00532 0.999481 0.98641
1.0051 1.00035 0.985832
1.00531 0.999791 0.986128
1.00512 1.0004 0.98575
1.00275 1.00032 0.991333
1.0013 1.00024 0.99357
1.00271 1.00072 0.990225
1.00499 1.00067 0.985684
1.00097 1.00075 0.996884
1.00248 1.0013 0.989233
1.00087 1.00081 0.996922
1.00523 0.996017 0.989827
1.00526 0.997616 0.988143
1.0053 0.998767 0.986922
1.00531 1.0003 0.985492
1.00526 1.00028 0.985444
1.00528 1.00093 0.984956
1.00414 1.00136 0.986392
1.00519 1.00121 0.984928
1.00361 1.0021 0.986532
1.00145 1.00273 0.989618
1.00263 1.00338 0.986705
1.00078 1.00301 0.990459
1.00032 1.00082 0.997311
1.00024 1.00269 0.991593
0.999975 0.999946 0.997879
0.999894 0.999144 0.9983
1.00534 0.994842 0.990784
1.00443 0.994789 0.991949
1.00122 0.994856 0.982945
1.00527 0.995397 0.990021
1.00512 0.996614 0.989022
1.00509 0.996866 0.988626
1.00526 0.996289 0.989397
1.00528 0.997343 0.988116
1.00535 0.994835 0.990517
1.00528 0.994968 0.990057
1.00517 0.996314 0.989408
1.00524 0.994853 0.990528
1.00506 0.995301 0.990072
1.00333 0.99508 0.993366
1.00533 0.994921 0.990934
1.00536 0.994893 0.991033
1.00447 0.996644 0.99134
1.00528 0.994812 0.990981
1.00542 0.994903 0.990987
1.00537 0.99488 0.990843
1.00526 0.994935 0.991051
1.00533 0.994882 0.990527
1.00526 0.994907 0.990769
1.00518 0.994931 0.991106
1.00527 0.994901 0.990658
1.00523 0.994907 0.990928
1.00526 0.995445 0.990553
1.00526 0.99499 0.990698
1.00526 0.996022 0.989919
1.00533 0.998515 0.987452
1.00527 0.996784 0.989138
1.00533 0.99898 0.98695
1.00508 1.00028 0.985963
1.00532 0.999484 0.986435
1.00513 1.00032 0.985848
1.00283 1.00007 0.991463
1.00514 1.0004 0.985759
1.00295 1.00022 0.99121
1.00136 0.999988 0.993763
1.00104 1.00053 0.995292
1.00291 1.00067 0.990873
1.00098 1.00079 0.996871
1.00524 0.995203 0.99067
1.00525 0.997277 0.9885
1.00523 0.995862 0.989989
1.00533 0.999602 0.986188
1.00527 0.997667 0.988132
1.0053 0.998754 0.987105
1.00531 1.00033 0.985435
1.00484 1.00046 0.986112
1.0053 1.00095 0.984892
1.00429 1.0011 0.986386
1.00207 1.00191 0.989294
1.0037 1.00173 0.986528
1.00126 1.0029 0.989611
1.00054 1.00122 0.996981
1.00062 1.00316 0.990465
1.00016 1.00067 0.997482
0.999919 0.999811 0.998008
1.00531 0.994891 0.990742
1.00531 0.994842 0.990796
1.00441 0.994775 0.991685
1.00528 0.994868 0.990665
1.00526 0.995456 0.990003
1.00504 0.996586 0.988906
1.00526 0.996453 0.989367
1.00534 0.994846 0.990518
1.0053 0.994986 0.990083
1.00519 0.994858 0.990561
1.00528 0.99496 0.991034
1.00532 0.99492 0.990918
1.00538 0.994896 0.99122
1.00522 0.994962 0.991179
1.00536 0.994879 0.990807
1.00526 0.994937 0.991043
1.00515 0.994959 0.991203
1.00526 0.994909 0.99074
1.00518 0.994931 0.991103
1.00526 0.995122 0.990953
1.00524 0.994908 0.990912
1.00524 0.995463 0.990548
1.00533 0.998121 0.987887
1.00527 0.996048 0.989909
1.00533 0.998517 0.987472
1.00506 1.00017 0.986146
1.00533 0.998982 0.986973
1.00511 1.00025 0.985983
1.00283 1.00007 0.991456
1.00516 1.00029 0.985862
1.00299 1.00001 0.991318
1.00142 0.999866 0.993807
1.00313 1.0001 0.991097
1.00095 1.00016 0.994045
1.00046 1.00088 0.997352
1.00525 0.995013 0.990724
1.00529 0.996463 0.989412
1.00524 0.995282 0.990536
1.00535 0.999253 0.986601
1.00526 0.996958 0.988756
1.00523 0.995703 0.990151
1.00515 1.00002 0.986034
1.00532 0.999603 0.986145
1.00527 0.997718 0.98812
1.00531 1.00037 0.985378
1.00489 1.00035 0.986102
1.00247 1.00108 0.989407
1.00442 1.00083 0.986381
1.00192 1.00212 0.989315
1.00068 1.00128 0.996878
1.00122 1.00302 0.989594
1.00046 1.00108 0.997097
1.00003 1.00045 0.997644
1.00526 0.994896 0.990953
1.0053 0.994892 0.990711
1.0053 0.99484 0.990809
1.00529 0.994875 0.990694
1.00524 0.995518 0.989985
1.00533 0.994856 0.990519
1.00523 0.994977 0.991091
1.00528 0.994957 0.991041
1.00531 0.99492 0.990903
1.00521 0.994963 0.991173
1.00512 0.994961 0.991395
1.00526 0.994939 0.991035
1.00516 0.994958 0.99124
1.00525 0.994991 0.991108
1.00519 0.994931 0.9911
1.00524 0.995135 0.990948
1.00535 0.997782 0.988215
1.00523 0.995471 0.990542
1.00534 0.998114 0.987897
1.00503 0.999995 0.98639
1.00532 0.998518 0.987492
1.00508 1.00015 0.986163
1.00277 1.00017 0.991413
1.00514 1.00022 0.986003
1.00298 1.00002 0.991299
1.00145 0.999893 0.993746
1.00314 0.99995 0.991182
1.00105 0.999919 0.994111
1.00056 1.00034 0.994311
1.00528 0.994892 0.990973
1.00526 0.995929 0.989985
1.00525 0.994962 0.99076
1.00536 0.998453 0.98743
1.00529 0.996548 0.98929
1.00524 0.995362 0.990401
1.00522 0.999938 0.986069
1.00535 0.998939 0.986854
1.00527 0.996647 0.989013
1.00275 1.00029 0.989679
1.00517 1.00001 0.986023
1.00533 0.999601 0.986102
1.00496 1.00026 0.986095
1.00242 1.00115 0.989423
1.00082 1.00109 0.996908
1.00176 1.00233 0.989337
1.00065 1.00121 0.996908
1.00033 1.00099 0.997234
1.00523 0.99496 0.991057
1.00527 0.994899 0.990927
1.00529 0.994894 0.99068
1.0053 0.994881 0.990722
1.00514 0.994977 0.991356
1.00523 0.994974 0.991101
1.00528 0.994954 0.991048
1.00521 0.994963 0.991168
1.00513 0.994962 0.991375
1.00523 0.99543 0.990771
1.00516 0.994958 0.991277
1.00524 0.995251 0.990899
1.00538 0.99711 0.988905
1.00521 0.995155 0.990943
1.00537 0.997779 0.988216
1.00499 0.999787 0.986675
1.00534 0.998122 0.987906
1.00504 0.999976 0.986395
1.00277 1.00023 0.989842
1.0051 1.00012 0.986179
1.00292 1.00013 0.990479
1.00125 0.999965 0.99694
1.00312 0.999981 0.991142
1.00111 0.999879 0.994058
1.00071 0.999955 0.994398
1.00524 0.994944 0.991068
1.00525 0.995577 0.990476
1.00528 0.994903 0.990956
1.0053 0.997864 0.988124
1.00525 0.996033 0.989859
1.00525 0.994912 0.990796
1.00519 0.999632 0.986404
1.00536 0.998432 0.987443
1.00529 0.996626 0.989168
1.00288 0.999871 0.989903
1.00521 0.9998 0.986164
1.00534 0.998614 0.987107
1.00099 1.00063 0.996992
1.00277 1.00028 0.98969
1.00517 0.999993 0.986009
1.00238 1.00119 0.989441
1.00082 1.00103 0.996888
1.00061 1.00116 0.996952
1.00514 0.994976 0.991254
1.00523 0.994959 0.991062
1.00528 0.994903 0.990902
1.00522 0.995451 0.990807
1.00514 0.994977 0.991333
1.00522 0.994972 0.991111
1.00514 0.994963 0.991354
1.00523 0.995442 0.990772
1.00538 0.997268 0.988827
1.00523 0.995502 0.99069
1.00538 0.997477 0.988534
1.00493 0.9993 0.987235
1.00538 0.997762 0.988217
1.005 0.999776 0.986675
1.00271 1.00015 0.990037
1.00507 0.99996 0.9864
1.00278 1.00021 0.989851
1.00119 1.00002 0.996932
1.00295 1.00012 0.98968
1.0011 0.999967 0.995524
1.00078 0.999846 0.994369
1.00518 0.994961 0.99122
1.00521 0.99544 0.990755
1.00523 0.994942 0.991085
1.00527 0.998036 0.988027
1.00525 0.995539 0.990485
1.00528 0.994914 0.99094
1.00511 0.999557 0.98664
1.0053 0.998186 0.987808
1.00524 0.996137 0.989733
1.00291 0.999774 0.989959
1.00516 0.999622 0.986424
1.00536 0.99842 0.987457
1.00116 1.0002 0.997023
1.00291 0.999834 0.989907
1.0052 0.999658 0.986257
1.00101 1.00064 0.996956
1.00276 1.00028 0.989702
1.00077 1.00102 0.996892
1.00521 0.995495 0.990715
1.00515 0.994975 0.99127
1.00522 0.994959 0.991067
1.00537 0.997226 0.988887
1.00522 0.995456 0.990785
1.00514 0.994977 0.991309
1.00522 0.995437 0.990773
1.00537 0.997244 0.988835
1.00488 0.999138 0.987498
1.00539 0.997854 0.988163
1.00495 0.999444 0.987075
1.00265 1.00003 0.990257
1.00501 0.999762 0.986675
1.00268 1.00016 0.990047
1.00112 1.00003 0.996947
1.00277 1.0002 0.989857
1.00117 1.00003 0.996931
1.0012 0.99993 0.993834
1.0052 0.995658 0.990543
1.00517 0.994959 0.991187
1.00529 0.997817 0.988272
1.00523 0.995385 0.990759
1.00522 0.99494 0.991102
1.00503 0.999781 0.986609
1.00527 0.998045 0.988022
1.00526 0.995497 0.990495
1.00288 0.999885 0.989955
1.00508 0.99972 0.986511
1.0053 0.998512 0.987492
1.00126 0.999975 0.996987
1.00294 0.999772 0.989957
1.00514 0.999602 0.986444
1.00115 1.00024 0.997014
1.00294 0.999812 0.98991
1.00102 1.00064 0.99692
1.00535 0.997313 0.988798
1.00521 0.995502 0.990733
1.00515 0.994973 0.991286
1.00486 0.999085 0.987583
1.00537 0.997213 0.98889
1.00522 0.995452 0.990763
1.00537 0.99724 0.988843
1.0049 0.999126 0.987467
1.00255 0.999971 0.990476
1.00496 0.999587 0.986914
1.00263 1.00004 0.990266
1.00107 1.00002 0.996988
1.00268 1.00017 0.990058
1.00108 1.00005 0.996967
1.00114 1.00004 0.996939
1.00531 0.997619 0.98845
1.00522 0.995424 0.990743
1.00517 0.994958 0.991155
1.00495 0.999672 0.986876
1.00528 0.997828 0.988272
1.00525 0.995334 0.990764
1.00278 0.999999 0.990037
1.005 0.999807 0.986606
1.00527 0.998053 0.988018
1.00125 0.999934 0.996942
1.00288 0.999899 0.98995
1.00505 0.999878 0.986382
1.00124 1.00002 0.997003
1.00295 0.999785 0.989955
1.00118 1.00025 0.996997
1.00487 0.999429 0.987247
1.00535 0.997143 0.988944
1.00521 0.995507 0.990751
1.00251 0.999897 0.990645
1.00486 0.999063 0.987576
1.00536 0.997205 0.988894
1.00492 0.999108 0.987437
1.00256 0.999946 0.990484
1.00101 1.00002 0.997017
1.00261 1.00005 0.990274
1.00104 1.00003 0.996993
1.00104 1.00007 0.996981
1.0049 0.999538 0.987107
1.00532 0.997408 0.988681
1.00523 0.995194 0.990944
1.00278 1.00002 0.991581
1.00492 0.999684 0.986881
1.00527 0.997841 0.98827
1.00116 0.999964 0.996943
1.00278 1.00002 0.990032
1.00497 0.999835 0.986603
1.00126 0.999957 0.99696
1.00289 0.99992 0.989945
1.00125 1.00004 0.997014
1.0026 0.999897 0.99054
1.00486 0.999272 0.987382
1.00535 0.996973 0.98909
1.00094 0.999983 0.997074
1.0025 0.999894 0.99064
1.00488 0.999047 0.98757
1.00255 0.999922 0.990488
1.00098 1.00001 0.997036
1.00102 1.00004 0.997005
1.00277 0.999963 0.991722
1.00488 0.999543 0.987108
1.00532 0.997191 0.988912
1.00061 1.00001 0.997485
1.00267 1.00003 0.990237
1.00489 0.999692 0.986886
1.00119 0.999972 0.996947
1.00279 1.00003 0.990025
1.00127 0.999973 0.996976
1.00093 0.999949 0.994284
1.00263 0.999901 0.991222
1.00486 0.999114 0.987517
1.00096 0.999986 0.99708
1.0025 0.999895 0.990642
1.001 0.999996 0.997051
1.00046 0.999995 0.994727
1.00267 0.999947 0.991093
1.00486 0.999554 0.987109
1.00082 0.999995 0.995789
1.00266 1.00003 0.990253
1.00121 0.999977 0.996954
1.00096 0.999972 0.997073
1.0025 0.999892 0.990637
1.00092 0.999987 0.997078
1.00073 0.999969 0.995904
1.00257 0.99994 0.990502
1.0011 0.999988 0.996976
1.00097 0.999973 0.99708
1.00099 0.999979 0.997039

TENSORS stress float
0.0021226 -0.000144168 0.00024635
-0.000144168 0.00098925 -4.05396e-05
0.00024635 -4.05396e-05 0.000963523
0.00662122 3.33736e-05 0.000276394
3.33736e-05 0.00380349 3.07189e-05
0.000276394 3.07189e-05 0.00380579
0.00180772 -7.55703e-05 0.000104422
-7.55703e-05 0.000791645 -1.61791e-05
0.000104422 -1.61791e-05 0.00075507
0.00215683 -8.23481e-05 0.00023923
-8.23481e-05 0.000986132 -2.36079e-05
0.00023923 -2.36079e-05 0.00096957
0.0021735 -0.000127279 0.000241132
-0.000127279 0.00101075 -3.56582e-05
0.000241132 -3.56582e-05 0.000988533
0.00207353 -0.000146009 0.000254319
-0.000146009 0.000960183 -4.19652e-05
0.000254319 -4.19652e-05 0.000934811
0.00180344 -0.000131269 4.72151e-05
-0.000131269 0.000701433 -1.28154e-05
4.72151e-05 -1.28154e-05 0.000593419
0.00656358 2.31636e-05 -7.27826e-06
2.31636e-05 0.00375845 -1.166e-06
-7.27826e-06 -1.166e-06 0.00376529
0.00639869 0.000195277 0.000138982
0.000195277 0.0036479 1.28559e-05
0.000138982 1.28559e-05 0.00362364
0.00632457 -5.39378e-05 7.28335e-05
-5.39378e-05 0.00359522 3.52732e-06
7.28335e-05 3.52732e-06 0.00357455
0.00184736 0.000186685 0.000257819
0.000186685 0.00081821 3.18064e-05
0.000257819 3.18064e-05 0.000811607
0.000490512 0.000247517 2.61614e-05
0.000247517 -8.30032e-05 1.94227e-05
2.61614e-05 1.94227e-05 -0.000212032
0.00177086 -3.39685e-05 0.000237033
-3.39685e-05 0.000743564 3.9205e-06
0.000237033 3.9205e-06 0.000743492
0.00145334 8.46617e-07 5.96779e-05
8.46617e-07 0.000568085 1.79464e-06
5.96779e-05 1.79464e-06 0.000523094
0.00154505 -7.4947e-05 -5.3769e-05
-7.4947e-05 0.000635909 9.3272e-06
-5.3769e-05 9.3272e-06 0.000584664
0.00180354 -8.26322e-05 7.89756e-05
-8.26322e-05 0.000783134 -4.7859e-06
7.89756e-05 -4.7859e-06 0.000750003
0.00181994 -6.25765e-05 0.000113337
-6.25765e-05 0.000805929 -1.72257e-05
0.000113337 -1.72257e-05 0.000765604
0.00181685 -8.44332e-05 9.30783e-05
-8.44332e-05 0.000790329 -1.25698e-05
9.30783e-05 -1.25698e-05 0.00075706
0.00185642 -0.000167241 -3.95255e-05
-0.000167241 0.000732044 5.53667e-06
-3.95255e-05 5.53667e-06 0.00063319
0.0060614 -0.000139286 0.000305974
-0.000139286 0.00344844 -1.2594e-05
0.000305974 -1.2594e-05 0.00346438
0.00209824 -6.02457e-05 0.000238034
-6.02457e-05 0.000948877 -1.75866e-05
0.000238034 -1.75866e-05 0.000934885
0.00218987 -0.0001059 0.000239657
-0.0001059 0.00101202 -2.98298e-05
0.000239657 -2.98298e-05 0.000993173
0.00175353 -0.000133621 6.78376e-05
-0.000133621 0.000660814 -1.03214e-05
6.78376e-05 -1.03214e-05 0.00056592
0.00179612 -0.000138377 5.67959e-05
-0.000138377 0.000686659 -1.22957e-05
5.67959e-05 -1.22957e-05 0.000586235
0.00200236 -0.000122491 0.00025267
-0.000122491 0.000908473 -3.85518e-05
0.00025267 -3.85518e-05 0.000886738
0.00179822 -0.000126356 3.93395e-05
-0.000126356 0.000715723 -1.35096e-05
3.93395e-05 -1.35096e-05 0.000596755
0.00208292 -0.000308067 1.651e-05
-0.000308067 0.000667425 -7.01027e-06
1.651e-05 -7.01027e-06 0.000466318
0.0065239 8.92771e-06 -0.00027416
8.92771e-06 0.00372417 -2.12183e-05
-0.00027416 -2.12183e-05 0.00373588
0.00414659 0.000146371 -0.000140911
0.000146371 0.00224276 -1.54879e-05
-0.000140911 -1.54879e-05 0.0022208
0.00405114 5.5058e-05 -0.000138009
5.5058e-05 0.00219515 -1.26016e-05
-0.000138009 -1.26016e-05 0.00217381
0.0064672 -4.72602e-05 -3.90826e-06
-4.72602e-05 0.00371017 -2.70537e-07
-3.90826e-06 -2.70537e-07 0.00371244
0.000468755 0.000230679 -1.43755e-06
0.000230679 -9.37912e-05 -1.0728e-06
-1.43755e-06 -1.0728e-06 -0.000222572
0.00182372 6.69648e-05 0.000245377
6.69648e-05 0.000778136 2.21061e-05
0.000245377 2.21061e-05 0.000764983
0.00196031 0.000155961 0.000251722
0.000155961 0.00089567 3.43664e-05
0.000251722 3.43664e-05 0.000871357
0.00280547 0.000205343 0.000151254
0.000205343 0.00130666 2.13453e-05
0.000151254 2.13453e-05 0.00122652
0.00568835 -0.000317215 3.38976e-06
-0.000317215 0.00329613 5.7511e-06
3.38976e-06 5.7511e-06 0.00323504
0.00292821 0.000279793 0.000155105
0.000279793 0.00142339 2.64164e-05
0.000155105 2.64164e-05 0.00132872
0.000462199 0.000213586 2.69453e-05
0.000213586 -9.61611e-05 2.53509e-05
2.69453e-05 2.53509e-05 -0.000222894
0.000889137 0.000241273 1.26805e-05
0.000241273 3.04846e-05 6.33846e-06
1.26805e-05 6.33846e-06 -0.000178477
0.0044469 -0.0001059 0.000168704
-0.0001059 0.00249361 1.38983e-05
0.000168704 1.38983e-05 0.00249355
0.00603685 8.05865e-05 3.37575e-06
8.05865e-05 0.00342073 -1.78e-06
3.37575e-06 -1.78e-06 0.00344363
0.00393154 8.76249e-05 -0.000117569
8.76249e-05 0.00210643 -5.1231e-06
-0.000117569 -5.1231e-06 0.00209465
0.00589506 5.81897e-05 0.000297199
5.81897e-05 0.00333543 4.14778e-06
0.000297199 4.14778e-06 0.00335887
0.00140831 8.70434e-05 6.2204e-05
8.70434e-05 0.000542192 4.19287e-06
6.2204e-05 4.19287e-06 0.000502141
0.00053663 1.11729e-05 1.54138e-05
1.11729e-05 -0.00012528 2.02394e-06
1.54138e-05 2.02394e-06 -0.000209086
0.00619244 0.00022803 0.000169504
0.00022803 0.00354485 1.6174e-05
0.000169504 1.6174e-05 0.00351964
0.00281333 7.4649e-05 0.000142275
7.4649e-05 0.00128196 9.1911e-06
0.000142275 9.1911e-06 0.00122407
0.00140401 -8.44975e-05 -7.38143e-05
-8.44975e-05 0.000552191 9.25333e-06
-7.38143e-05 9.25333e-06 0.000501763
0.00144734 -0.000104867 -6.64529e-05
-0.000104867 0.000581419 1.11724e-05
-6.64529e-05 1.11724e-05 0.00052792
0.00162317 -3.15463e-05 -4.19185e-05
-3.15463e-05 0.00068396 8.24142e-06
-4.19185e-05 8.24142e-06 0.000632011
0.00188967 -0.000170034 -0.000132749
-0.000170034 0.000745483 2.37962e-05
-0.000132749 2.37962e-05 0.000657344
0.00379391 -1.58424e-05 -0.000119807
-1.58424e-05 0.0020306 -1.80432e-06
-0.000119807 -1.80432e-06 0.00201824
0.0017728 -6.44177e-05 8.42233e-05
-6.44177e-05 0.000760011 -3.884e-06
8.42233e-05 -3.884e-06 0.00073067
0.00177286 -3.9827e-05 0.000117381
-3.9827e-05 0.000779815 -1.56448e-05
0.000117381 -1.56448e-05 0.000738492
0.0018146 -8.44562e-05 8.44345e-05
-8.44562e-05 0.00078766 -8.22297e-06
8.44345e-05 -8.22297e-06 0.000755196
0.00182669 -0.000111943 -3.16813e-05
-0.000111943 0.000696006 2.09816e-06
-3.16813e-05 2.09816e-06 0.000612078
0.00184593 -0.000168611 -4.57221e-05
-0.000168611 0.000737247 6.25438e-06
-4.57221e-05 6.25438e-06 0.000631206
0.00185131 -0.000155823 -3.40716e-05
-0.000155823 0.000720475 3.92299e-06
-3.40716e-05 3.92299e-06 0.000627566
0.00206044 -0.000307222 -9.34934e-06
-0.000307222 0.000648863 2.50979e-06
-9.34934e-06 2.50979e-06 0.00044816
0.00588353 1.04197e-05 0.000293173
1.04197e-05 0.00332632 -1.86045e-06
0.000293173 -1.86045e-06 0.00335101
0.0020371 -3.6531e-05 0.000234274
-3.6531e-05 0.000914346 -1.21192e-05
0.000234274 -1.21192e-05 0.000903776
0.00245203 -5.35918e-06 5.01107e-05
-5.35918e-06 0.00108282 -9.51543e-07
5.01107e-05 -9.51543e-07 0.00101552
0.00172651 -0.000108838 6.05929e-05
-0.000108838 0.000637436 -6.87833e-06
6.05929e-05 -6.87833e-06 0.000550214
0.0017706 -0.000137574 6.39023e-05
-0.000137574 0.000669839 -1.17003e-05
6.39023e-05 -1.17003e-05 0.000572731
0.00189251 -0.000197699 1.11081e-05
-0.000197699 0.000478263 -2.77904e-06
1.11081e-05 -2.77904e-06 0.00031803
0.0018792 -0.00026809 1.63711e-05
-0.00026809 0.000501719 -5.30695e-06
1.63711e-05 -5.30695e-06 0.000317073
0.00179504 -7.98178e-05 0.000229514
-7.98178e-05 0.000780555 -3.03062e-05
0.000229514 -3.03062e-05 0.000763438
0.00170949 -9.20511e-05 3.00934e-05
-9.20511e-05 0.000679099 -1.30609e-05
3.00934e-05 -1.30609e-05 0.000558458
0.00209666 -0.000332782 1.6724e-05
-0.000332782 0.000719233 -8.09697e-06
1.6724e-05 -8.09697e-06 0.000504263
0.00161563 -0.000391074 6.01709e-06
-0.000391074 0.000165911 -5.23798e-07
6.01709e-06 -5.23798e-07 -8.19827e-05
0.006743 0.000252028 -0.000329646
0.000252028 0.00386265 -3.56915e-05
-0.000329646 -3.56915e-05 0.00386749
0.00638284 -7.32874e-05 -0.000246115
-7.32874e-05 0.00365919 -1.69405e-05
-0.000246115 -1.69405e-05 0.00366298
0.00656999 8.62546e-05 -0.000290176
8.62546e-05 0.00374486 -2.57354e-05
-0.000290176 -2.57354e-05 0.00375922
0.000426223 0.000221565 -2.48086e-05
0.000221565 -0.000114389 -1.97518e-05
-2.48086e-05 -1.97518e-05 -0.000245385
0.00666533 0.000232041 -2.45613e-06
0.000232041 0.00381039 -2.337e-06
-2.45613e-06 -2.337e-06 0.00381921
0.00674788 0.000198566 -9.01864e-06
0.000198566 0.00385921 -2.74545e-06
-9.01864e-06 -2.74545e-06 0.003867
0.000377765 0.000130187 2.37318e-07
0.000130187 -0.000207092 -3.14658e-07
2.37318e-07 -3.14658e-07 -0.000317655
0.00354648 -0.00010521 -0.000113467
-0.00010521 0.001929 -3.92798e-06
-0.000113467 -3.92798e-06 0.00189451
0.000381056 0.000206642 2.78274e-07
0.000206642 -0.000158268 -4.65507e-07
2.78274e-07 -4.65507e-07 -0.000285533
0.00173937 0.000219168 5.48264e-05
0.000219168 0.000701785 3.0761e-06
5.48264e-05 3.0761e-06 0.000596098
0.00083805 0.000235213 3.71519e-07
0.000235213 3.00651e-06 -7.3587e-09
3.71519e-07 -7.3587e-09 -0.000203931
0.00541859 -0.000128769 0.000202005
-0.000128769 0.00310742 2.03665e-05
0.000202005 2.03665e-05 0.00309684
0.000557438 4.31791e-05 1.33129e-05
4.31791e-05 2.2943e-05 1.30334e-05
1.33129e-05 1.30334e-05 -4.68837e-05
0.000471158 9.96297e-05 1.53586e-05
9.96297e-05 -0.00016843 9.96807e-06
1.53586e-05 9.96807e-06 -0.000272872
0.00050663 0.000158722 2.00655e-05
0.000158722 -0.000113286 1.75911e-05
2.00655e-05 1.75911e-05 -0.000231003
0.00112852 0.000230294 1.50044e-05
0.000230294 8.95901e-06 5.41822e-06
1.50044e-05 5.41822e-06 -0.000182184
0.00295957 0.000189221 0.000137611
0.000189221 0.00147615 1.8748e-05
0.000137611 1.8748e-05 0.00139922
0.000956808 0.000250798 1.4238e-05
0.000250798 5.09316e-06 6.66739e-06
1.4238e-05 6.66739e-06 -0.000201134
0.000816927 0.000238158 1.19255e-05
0.000238158 6.61955e-05 6.02545e-06
1.19255e-05 6.02545e-06 -0.000147677
0.00116759 0.000373398 1.98527e-06
0.000373398 0.00010666 -8.52125e-07
1.98527e-06 -8.52125e-07 -0.000172157
0.00346427 -0.000121991 0.000104512
-0.000121991 0.00187115 5.96723e-06
0.000104512 5.96723e-06 0.00187032
0.00404141 -0.000159738 2.10128e-05
-0.000159738 0.00224934 -4.32145e-07
2.10128e-05 -4.32145e-07 0.00223685
0.00646929 5.7414e-05 -0.000313848
5.7414e-05 0.00367494 -1.538e-05
-0.000313848 -1.538e-05 0.00369652
0.00613885 7.16863e-05 -0.000307833
7.16863e-05 0.00347993 -9.42604e-06
-0.000307833 -9.42604e-06 0.00350405
0.00598378 8.38023e-05 -2.9187e-08
8.38023e-05 0.00339569 -3.68225e-06
-2.9187e-08 -3.68225e-06 0.0034158
0.00381196 3.05579e-05 -0.000128988
3.05579e-05 0.0020316 -6.55916e-06
-0.000128988 -6.55916e-06 0.00202495
0.00160685 3.80849e-05 6.12051e-05
3.80849e-05 0.000541243 1.63391e-06
6.12051e-05 1.63391e-06 0.000473945
0.00409492 0.000145143 -0.000120242
0.000145143 0.00221279 -6.97799e-06
-0.000120242 -6.97799e-06 0.00219342
0.00166853 9.15654e-05 6.25517e-05
9.15654e-05 0.00057394 3.01509e-06
6.25517e-05 3.01509e-06 0.000496349
0.00594223 0.000124179 0.000300102
0.000124179 0.00337898 7.20109e-06
0.000300102 7.20109e-06 0.00339393
0.000443034 1.05927e-05 1.86071e-05
1.05927e-05 -0.000178098 1.0164e-06
1.86071e-05 1.0164e-06 -0.000258917
0.00279833 3.82747e-05 0.000140223
3.82747e-05 0.00127515 6.21813e-06
0.000140223 6.21813e-06 0.00122291
0.00110929 6.05723e-05 1.20766e-05
6.05723e-05 -2.90974e-05 9.57888e-07
1.20766e-05 9.57888e-07 -0.000161314
0.00274579 0.000118655 0.000147241
0.000118655 0.00124479 1.20098e-05
0.000147241 1.20098e-05 0.00118051
0.00118749 0.000137287 1.22203e-05
0.000137287 3.4852e-06 2.16994e-06
1.22203e-05 2.16994e-06 -0.000149843
0.0017976 4.2697e-05 -0.000236427
4.2697e-05 0.000758812 2.82973e-06
-0.000236427 2.82973e-06 0.000760316
0.00140959 -1.50285e-05 -6.04492e-05
-1.50285e-05 0.0005471 2.6691e-06
-6.04492e-05 2.6691e-06 0.000502177
0.00162109 5.17986e-06 -3.37104e-05
5.17986e-06 0.000687429 7.90822e-06
-3.37104e-05 7.90822e-06 0.000633914
0.00140259 -9.93613e-05 -7.47712e-05
-9.93613e-05 0.000553697 1.11684e-05
-7.47712e-05 1.11684e-05 0.000501817
0.00194973 -9.1099e-05 -0.000127103
-9.1099e-05 0.000762399 1.17559e-05
-0.000127103 1.17559e-05 0.000689489
0.00193516 -0.000143304 -0.000129622
-0.000143304 0.000762543 2.00056e-05
-0.000129622 2.00056e-05 0.000681291
0.00185018 -0.000184171 -0.000136065
-0.000184171 0.000732296 2.56097e-05
-0.000136065 2.56097e-05 0.000637517
0.00202949 -0.000305352 -3.21786e-05
-0.000305352 0.000625358 1.09238e-05
-3.21786e-05 1.09238e-05 0.000425461
0.00598042 -0.000103152 2.30025e-06
-0.000103152 0.00339788 -1.83192e-06
2.30025e-06 -1.83192e-06 0.00341526
0.00168416 3.17029e-05 9.14476e-05
3.17029e-05 0.000699144 -4.37909e-06
9.14476e-05 -4.37909e-06 0.000677694
0.00115358 -9.51598e-06 -6.44469e-05
-9.51598e-06 0.000265154 1.8337e-06
-6.44469e-05 1.8337e-06 0.000196459
0.00179979 -7.29992e-05 -3.49443e-05
-7.29992e-05 0.000675772 2.72154e-06
-3.49443e-05 2.72154e-06 0.000597645
0.0042005 -2.41614e-05 0.000236107
-2.41614e-05 0.00229724 -1.42796e-05
0.000236107 -1.42796e-05 0.00228891
0.00238054 -0.000171884 -4.09978e-05
-0.000171884 0.00108292 3.24198e-06
-4.09978e-05 3.24198e-06 0.000974682
0.00184251 -0.000135428 -3.13401e-05
-0.000135428 0.000709457 2.75332e-06
-3.13401e-05 2.75332e-06 0.000621548
0.0019401 -0.000197177 -9.91138e-06
-0.000197177 0.000503641 1.84734e-06
-9.91138e-06 1.84734e-06 0.000346024
0.00204815 -0.000332867 -8.11509e-06
-0.000332867 0.000683625 2.3901e-06
-8.11509e-06 2.3901e-06 0.00046806
0.00196386 -0.000271736 -7.784e-06
-0.000271736 0.00055536 2.05777e-06
-7.784e-06 2.05777e-06 0.000369717
0.00165243 -0.000393115 6.69741e-07
-0.000393115 0.000189968 -1.95601e-07
6.69741e-07 -1.95601e-07 -5.74631e-05
0.000482899 1.02107e-05 1.94007e-05
1.02107e-05 -0.000157367 -7.08772e-07
1.94007e-05 -7.08772e-07 -0.000234929
0.00164431 -1.01325e-06 5.12197e-05
-1.01325e-06 0.000577374 -2.69392e-06
5.12197e-05 -2.69392e-06 0.000501963
0.00179038 -6.34857e-05 1.10156e-05
-6.34857e-05 0.00040106 -4.78127e-07
1.10156e-05 -4.78127e-07 0.000281316
0.00180203 -0.000155322 1.09817e-05
-0.000155322 0.000410203 -1.70813e-06
1.09817e-05 -1.70813e-06 0.00026554
0.00185132 -0.000231803 1.39527e-05
-0.000231803 0.000457468 -3.5924e-06
1.39527e-05 -3.5924e-06 0.000287868
0.00185926 -0.000274231 2.55553e-07
-0.000274231 0.000197626 1.56937e-08
2.55553e-07 1.56937e-08 2.58309e-05
0.00593177 0.000123294 0.000202372
0.000123294 0.00340495 -1.52782e-05
0.000202372 -1.52782e-05 0.00339627
0.00162519 -0.00036018 4.62361e-06
-0.00036018 0.000124625 -4.07333e-07
4.62361e-06 -4.07333e-07 -9.83523e-05
0.000283721 -0.000170631 2.06223e-05
-0.000170631 -0.000212767 -1.95729e-05
2.06223e-05 -1.95729e-05 -0.000323947
0.000898484 -0.000252576 1.33495e-05
-0.000252576 3.10886e-05 -8.49396e-06
1.33495e-05 -8.49396e-06 -0.000184311
0.00168055 -0.00043393 7.53369e-06
-0.00043393 0.000267743 -1.25432e-06
7.53369e-06 -1.25432e-06 -1.14503e-05
0.00186439 -0.000464762 2.69506e-06
-0.000464762 0.000209637 2.00452e-06
2.69506e-06 2.00452e-06 -3.12486e-05
0.000478046 -0.000133143 2.1925e-05
-0.000133143 -5.52287e-05 -1.58242e-05
2.1925e-05 -1.58242e-05 -0.000149387
0.000422728 -0.000108692 -2.82584e-07
-0.000108692 -2.52627e-05 -8.66862e-07
-2.82584e-07 -8.66862e-07 -0.000259413
0.00673092 0.000255019 -0.000339768
0.000255019 0.00385683 -3.42755e-05
-0.000339768 -3.42755e-05 0.00386243
0.00668668 0.000183899 -0.000312424
0.000183899 0.00381938 -3.19257e-05
-0.000312424 -3.19257e-05 0.00383073
0.00038295 0.000127894 -1.84614e-05
0.000127894 -0.00020573 -1.23469e-05
-1.84614e-05 -1.23469e-05 -0.000316593
0.00568233 -0.000145583 -0.000191881
-0.000145583 0.00325898 -1.36606e-05
-0.000191881 -1.36606e-05 0.00324897
0.000388947 0.000193264 -2.37859e-05
0.000193264 -0.000142598 -1.91959e-05
-2.37859e-05 -1.91959e-05 -0.000254879
0.000382501 0.000193931 -2.09322e-05
0.000193931 -0.000155741 -1.80772e-05
-2.09322e-05 -1.80772e-05 -0.000284278
0.000846633 0.000232697 -1.37495e-05
0.000232697 1.17432e-05 -7.09938e-06
-1.37495e-05 -7.09938e-06 -0.000193627
0.00507126 -0.000131899 4.27029e-06
-0.000131899 0.00288593 2.46491e-07
4.27029e-06 2.46491e-07 0.00287851
0.000514453 3.10883e-05 1.40627e-06
3.10883e-05 9.80048e-07 4.86924e-07
1.40627e-06 4.86924e-07 -6.49122e-05
0.00167957 0.00014045 6.46121e-05
0.00014045 0.000587487 5.46089e-06
6.46121e-05 5.46089e-06 0.00049757
0.00165372 0.000201105 6.46236e-05
0.000201105 0.00060692 6.01095e-06
6.46236e-05 6.01095e-06 0.000502542
0.00108562 0.00022822 2.44826e-08
0.00022822 -1.10977e-05 -3.1084e-07
2.44826e-08 -3.1084e-07 -0.000202869
0.000458014 0.000165381 5.05401e-08
0.000165381 -8.23861e-05 -4.2558e-07
5.05401e-08 -4.2558e-07 -0.000181562
0.000947156 0.000246659 7.45387e-07
0.000246659 7.34392e-06 6.06208e-08
7.45387e-07 6.06208e-08 -0.000197676
0.000829922 0.000229448 4.48719e-08
0.000229448 6.67852e-05 -6.21148e-07
4.48719e-08 -6.21148e-07 -0.000142855
0.0013032 0.000393851 -1.13513e-07
0.000393851 0.000179987 -3.31723e-07
-1.13513e-07 -3.31723e-07 -0.000102413
0.000423483 0.000114118 1.81429e-05
0.000114118 -7.21604e-05 1.57847e-05
1.81429e-05 1.57847e-05 -0.000163732
0.000651481 -4.62013e-06 7.00351e-06
-4.62013e-06 8.82532e-05 1.09464e-05
7.00351e-06 1.09464e-05 3.85616e-05
0.00127016 0.000165324 4.8568e-06
0.000165324 0.000501667 6.0249e-06
4.8568e-06 6.0249e-06 0.000298761
0.00117291 0.000204444 1.4017e-05
0.000204444 8.14531e-06 4.1433e-06
1.4017e-05 4.1433e-06 -0.000171324
0.00106313 0.000248562 1.51078e-05
0.000248562 1.18125e-05 6.37449e-06
1.51078e-05 6.37449e-06 -0.000188929
0.00180664 0.000387144 4.01089e-06
0.000387144 0.000211078 1.7793e-07
4.01089e-06 1.7793e-07 -1.65321e-05
0.00075346 0.000218888 9.53612e-06
0.000218888 8.19527e-05 6.01914e-06
9.53612e-06 6.01914e-06 -0.000128537
0.00165137 0.000436835 3.67867e-06
0.000436835 0.000285241 -3.44342e-07
3.67867e-06 -3.44342e-07 1.20358e-05
0.00101573 0.000342831 1.61354e-06
0.000342831 8.5072e-05 -4.08377e-07
1.61354e-06 -4.08377e-07 -0.000198364
0.00151154 0.000486287 -5.85485e-06
0.000486287 0.000213682 -3.52545e-06
-5.85485e-06 -3.52545e-06 -9.29836e-05
0.0030524 -0.00013023 6.35242e-05
-0.00013023 0.00160848 3.63012e-06
6.35242e-05 3.63012e-06 0.00160556
0.00337817 -0.000155764 1.31743e-05
-0.000155764 0.00182355 -8.47534e-07
1.31743e-05 -8.47534e-07 0.00181346
0.00377905 -0.000190557 -7.78965e-05
-0.000190557 0.0020901 -5.20926e-06
-7.78965e-05 -5.20926e-06 0.00206938
0.00044346 -0.000109408 1.9641e-05
-0.000109408 -6.02328e-05 -1.43986e-05
1.9641e-05 -1.43986e-05 -0.000139487
0.00530922 0.000167482 0.00016194
0.000167482 0.00304851 -1.61585e-05
0.00016194 -1.61585e-05 0.0030274
0.00665112 0.000215955 -0.000338723
0.000215955 0.00380226 -2.85365e-05
-0.000338723 -2.85365e-05 0.00381376
0.00624784 9.25159e-05 -0.000310125
9.25159e-05 0.00354393 -1.32543e-05
-0.000310125 -1.32543e-05 0.00356655
0.000451937 9.77182e-05 -1.95219e-05
9.77182e-05 -0.000181047 -5.77344e-06
-1.95219e-05 -5.77344e-06 -0.000274602
0.000444161 4.34434e-05 -1.92088e-05
4.34434e-05 -0.000178505 -2.88198e-06
-1.92088e-05 -2.88198e-06 -0.000263136
0.00592933 -6.92875e-06 -0.000294401
-6.92875e-06 0.00335283 -2.49614e-06
-0.000294401 -2.49614e-06 0.00337777
0.00587747 7.35939e-06 -1.63512e-07
7.35939e-06 0.00332199 -9.49746e-07
-1.63512e-07 -9.49746e-07 0.00334698
0.000424537 8.81252e-07 -1.06595e-07
8.81252e-07 -0.000192354 1.25567e-07
-1.06595e-07 1.25567e-07 -0.000271353
0.00160344 3.94379e-05 6.20933e-05
3.94379e-05 0.000533039 2.69002e-06
6.20933e-05 2.69002e-06 0.000463421
0.00107465 6.40151e-05 -9.35716e-08
6.40151e-05 -5.32442e-05 -7.73195e-08
-9.35716e-08 -7.73195e-08 -0.000186284
0.000414245 8.34932e-05 -4.57288e-07
8.34932e-05 -0.000203526 -3.88685e-07
-4.57288e-07 -3.88685e-07 -0.000303298
0.00111348 0.00013763 -2.47028e-07
0.00013763 -4.24412e-05 -1.54868e-07
-2.47028e-07 -1.54868e-07 -0.000196929
0.000418144 -3.12788e-05 1.92001e-05
-3.12788e-05 -0.000197859 -7.15801e-07
1.92001e-05 -7.15801e-07 -0.000274337
0.00106235 2.60349e-05 1.17725e-05
2.60349e-05 -4.8198e-05 5.34724e-07
1.17725e-05 5.34724e-07 -0.000175462
0.00113223 9.87286e-05 1.19498e-05
9.87286e-05 -2.46805e-05 1.55257e-06
1.19498e-05 1.55257e-06 -0.000166155
0.0018096 0.000104251 -2.13584e-07
0.000104251 9.07675e-05 -4.00575e-07
-2.13584e-07 -4.00575e-07 -1.9458e-05
0.00119075 0.00017191 1.28975e-05
0.00017191 7.18306e-06 3.01843e-06
1.28975e-05 3.01843e-06 -0.000159042
0.00185672 0.000229206 7.69127e-07
0.000229206 0.000125079 -5.40963e-07
7.69127e-07 -5.40963e-07 -1.97453e-05
0.00589631 -6.43345e-05 -0.000299078
-6.43345e-05 0.00333993 2.73974e-06
-0.000299078 2.73974e-06 0.00336132
0.00134855 -0.000154484 -6.15672e-05
-0.000154484 0.000523971 7.31575e-06
-6.15672e-05 7.31575e-06 0.000475167
-0.000263802 -5.68297e-06 -1.20805e-05
-5.68297e-06 -0.000612108 1.80033e-06
-1.20805e-05 1.80033e-06 -0.000705705
0.00191213 -6.49612e-05 -0.000125634
-6.49612e-05 0.000738899 8.33224e-06
-0.000125634 8.33224e-06 0.000669839
0.00629196 0.000280965 -2.221e-05
0.000280965 0.00363656 4.13146e-06
-2.221e-05 4.13146e-06 0.0035831
0.00302329 -0.000258405 -0.00013979
-0.000258405 0.00147858 2.66107e-05
-0.00013979 2.66107e-05 0.00137556
0.00195505 -0.000116815 -0.000128042
-0.000116815 0.000768162 1.57305e-05
-0.000128042 1.57305e-05 0.000691953
0.0019634 -0.000195259 -3.00133e-05
-0.000195259 0.000513771 5.4722e-06
-3.00133e-05 5.4722e-06 0.00035904
0.00202275 -0.000273502 -3.12435e-05
-0.000273502 0.000592334 9.37966e-06
-3.12435e-05 9.37966e-06 0.000406171
0.00201886 -0.000333888 -2.99966e-05
-0.000333888 0.000660951 1.17278e-05
-2.99966e-05 1.17278e-05 0.00044467
0.00169102 -0.000395293 -4.4034e-06
-0.000395293 0.000215316 2.25373e-07
-4.4034e-06 2.25373e-07 -3.16827e-05
0.000422225 4.96887e-06 -4.63184e-08
4.96887e-06 -0.000192873 2.88509e-07
-4.63184e-08 2.88509e-07 -0.000271433
0.00177784 -8.41641e-05 -3.37757e-05
-8.41641e-05 0.000665817 4.45909e-07
-3.37757e-05 4.45909e-07 0.000592092
0.00142731 -5.89988e-05 -1.0147e-05
-5.89988e-05 0.000175859 6.27011e-07
-1.0147e-05 6.27011e-07 5.16624e-05
0.00188834 -0.000155896 -8.54302e-06
-0.000155896 0.00046341 1.34535e-06
-8.54302e-06 1.34535e-06 0.000317836
0.0061793 0.000122106 5.49046e-06
0.000122106 0.00356196 7.50479e-07
5.49046e-06 7.50479e-07 0.00355113
0.00168004 -0.000170903 3.61342e-06
-0.000170903 0.000668532 5.58169e-07
3.61342e-06 5.58169e-07 0.000547508
0.00136473 -0.000286896 1.33617e-06
-0.000286896 0.000322871 -1.08055e-06
1.33617e-06 -1.08055e-06 0.000104207
0.00189523 -0.000234509 -8.55224e-06
-0.000234509 0.000484298 2.1215e-06
-8.55224e-06 2.1215e-06 0.000314108
0.0018618 -0.000277185 -8.07747e-07
-0.000277185 0.000194927 4.82579e-08
-8.07747e-07 4.82579e-08 2.794e-05
0.00167871 -0.000432615 1.15691e-06
-0.000432615 0.000270375 -3.28366e-07
1.15691e-06 -3.28366e-07 -7.25172e-06
0.00175714 -0.000365684 5.71138e-07
-0.000365684 0.000209262 -1.47946e-07
5.71138e-07 -1.47946e-07 -1.38386e-05
0.0018996 -0.000465799 7.42342e-07
-0.000465799 0.000235781 4.48074e-08
7.42342e-07 4.48074e-08 -4.79802e-06
0.000477844 -0.000139734 1.80399e-06
-0.000139734 -5.73841e-05 5.75369e-07
1.80399e-06 5.75369e-07 -0.000153581
0.00071901 -0.000144926 4.68762e-07
-0.000144926 0.000138504 1.13834e-07
4.68762e-07 1.13834e-07 -8.17891e-05
0.00106203 -2.90758e-05 1.19349e-05
-2.90758e-05 -4.2365e-05 -5.32603e-07
1.19349e-05 -5.32603e-07 -0.00017015
0.00185068 -0.000105787 9.98479e-06
-0.000105787 0.000440215 -9.67968e-07
9.98479e-06 -9.67968e-07 0.000310568
0.00180715 -0.00010628 -4.40706e-07
-0.00010628 0.000116722 3.39601e-07
-4.40706e-07 3.39601e-07 -1.02129e-06
0.00179256 -0.000223488 -3.91782e-07
-0.000223488 0.000129904 8.88935e-07
-3.91782e-07 8.88935e-07 -1.15531e-05
0.00178379 -0.0003276 1.04848e-06
-0.0003276 0.00018055 4.46736e-07
1.04848e-06 4.46736e-07 -1.28664e-05
0.00205788 -0.000322575 1.57084e-06
-0.000322575 0.00019926 -3.2482e-08
1.57084e-06 -3.2482e-08 5.96393e-05
0.0003894 -0.000155385 2.0161e-05
-0.000155385 -0.000124177 -1.87135e-05
2.0161e-05 -1.87135e-05 -0.000231369
0.00192134 -0.000427891 1.10334e-06
-0.000427891 0.000198902 1.70203e-06
1.10334e-06 1.70203e-06 -4.21614e-06
0.000593729 -0.000223483 9.4271e-06
-0.000223483 -7.56723e-05 -7.8248e-06
9.4271e-06 -7.8248e-06 -0.000288249
0.00136381 -0.000434814 1.0342e-05
-0.000434814 0.000167904 -1.98081e-06
1.0342e-05 -1.98081e-06 -0.00013583
0.00205656 -0.000524955 2.94087e-06
-0.000524955 0.000393446 1.24251e-06
2.94087e-06 1.24251e-06 0.000103209
0.00218921 -0.000503362 -1.55978e-06
-0.000503362 0.000366731 4.25699e-06
-1.55978e-06 4.25699e-06 0.000153626
0.000649878 -0.000203137 2.176e-06
-0.000203137 7.51875e-05 -3.54259e-06
2.176e-06 -3.54259e-06 -0.000166413
0.000552909 -0.000109508 6.98868e-07
-0.000109508 4.52558e-05 -3.02887e-06
6.98868e-07 -3.02887e-06 -0.000134262
0.000959651 -0.000261031 -1.47857e-06
-0.000261031 0.000287706 1.8419e-06
-1.47857e-06 1.8419e-06 1.26897e-06
0.000407734 0.00010635 -1.78934e-05
0.00010635 -0.000202858 -9.44697e-06
-1.78934e-05 -9.44697e-06 -0.000308495
0.00464593 -0.000198716 -0.000124204
-0.000198716 0.0026443 -1.07582e-05
-0.000124204 -1.07582e-05 0.0026194
0.000357717 1.93356e-05 -8.24969e-06
1.93356e-05 -9.14779e-05 -1.2433e-05
-8.24969e-06 -1.2433e-05 -0.000153644
0.000368996 0.000159712 -1.97721e-05
0.000159712 -0.000191183 -1.54614e-05
-1.97721e-05 -1.54614e-05 -0.000310277
0.0010446 0.000226454 -1.55648e-05
0.000226454 -3.01079e-05 -6.02812e-06
-1.55648e-05 -6.02812e-06 -0.000222516
0.000537677 0.00015473 -2.31097e-05
0.00015473 -3.44248e-05 -1.76916e-05
-2.31097e-05 -1.76916e-05 -0.000131769
0.000606615 0.000210767 -1.04603e-05
0.000210767 -7.3118e-05 -6.83289e-06
-1.04603e-05 -6.83289e-06 -0.000278001
0.000932958 0.000242324 -1.43195e-05
0.000242324 6.67676e-06 -7.07984e-06
-1.43195e-05 -7.07984e-06 -0.000197137
0.00139567 0.000410302 -3.7059e-06
0.000410302 0.000225486 3.46289e-08
-3.7059e-06 3.46289e-08 -5.97248e-05
0.00053608 0.000105285 5.6291e-07
0.000105285 -7.62258e-06 1.19032e-06
5.6291e-07 1.19032e-06 -9.30478e-05
0.000413134 -2.48336e-05 2.19387e-07
-2.48336e-05 -5.04051e-05 5.11797e-07
2.19387e-07 5.11797e-07 -0.000102446
0.000649712 0.000101695 2.27966e-06
0.000101695 0.000103642 -5.41017e-07
2.27966e-06 -5.41017e-07 -8.26158e-05
0.00112519 0.000203549 -1.8315e-07
0.000203549 -1.67449e-05 -3.23186e-07
-1.8315e-07 -3.23186e-07 -0.000197241
0.00102597 0.00024441 2.64652e-07
0.00024441 -2.90308e-06 -1.8879e-07
2.64652e-07 -1.8879e-07 -0.00020329
0.00178161 0.000385568 -1.22941e-07
0.000385568 0.000194048 -1.15999e-07
-1.22941e-07 -1.15999e-07 -3.38176e-05
0.000715516 0.000221242 -3.93008e-07
0.000221242 6.00308e-05 -3.22404e-07
-3.93008e-07 -3.22404e-07 -0.000150087
0.00164635 0.000434668 -2.19461e-07
0.000434668 0.000276484 -2.96185e-07
-2.19461e-07 -2.96185e-07 2.66136e-06
0.00115723 0.000355986 9.62796e-07
0.000355986 0.000177465 -9.45144e-07
9.62796e-07 -9.45144e-07 -0.000107688
0.00148318 0.000495492 -3.94547e-07
0.000495492 0.000180243 1.38388e-06
-3.94547e-07 1.38388e-06 -0.000127282
0.000550659 -3.18495e-05 1.55585e-06
-3.18495e-05 3.01884e-05 8.76087e-06
1.55585e-06 8.76087e-06 -1.10794e-05
0.00106173 0.00017723 5.16307e-06
0.00017723 0.000333292 5.15174e-06
5.16307e-06 5.15174e-06 0.000118102
0.000876937 6.84591e-05 1.65679e-06
6.84591e-05 0.000231251 6.05113e-06
1.65679e-06 6.05113e-06 9.50194e-05
0.00104334 0.000160311 2.01443e-06
0.000160311 0.000382717 2.28155e-07
2.01443e-06 2.28155e-07 0.000115457
0.00186511 0.000345341 1.85025e-06
0.000345341 0.000188593 -1.13317e-06
1.85025e-06 -1.13317e-06 -1.02066e-05
0.00171624 0.000418288 4.50425e-06
0.000418288 0.000230408 3.72003e-07
4.50425e-06 3.72003e-07 -2.40672e-05
0.00202805 0.000457418 5.58305e-07
0.000457418 0.000248205 -7.05902e-07
5.58305e-07 -7.05902e-07 2.83558e-05
0.000864082 0.000274 2.52125e-06
0.000274 4.57941e-05 2.37167e-06
2.52125e-06 2.37167e-06 -0.000203441
0.00214513 0.00056695 -3.25509e-06
0.00056695 0.000469729 -1.42264e-06
-3.25509e-06 -1.42264e-06 0.000177504
0.00171213 0.000510755 -3.26561e-06
0.000510755 0.000442714 -4.33038e-06
-3.26561e-06 -4.33038e-06 9.6203e-05
0.00175943 0.000540867 -7.31999e-07
0.000540867 0.000254992 -8.42447e-07
-7.31999e-07 -8.42447e-07 -4.80908e-05
0.000564473 3.89352e-05 2.61879e-06
3.89352e-05 4.40122e-05 3.79625e-06
2.61879e-06 3.79625e-06 -2.51119e-05
0.000483086 -2.54808e-05 1.62432e-06
-2.54808e-05 -3.04425e-05 6.52382e-06
1.62432e-06 6.52382e-06 -5.73938e-05
0.00274664 -0.000121241 4.03233e-05
-0.000121241 0.00140984 3.81363e-06
4.03233e-05 3.81363e-06 0.00140919
0.00294379 -0.000142511 7.7632e-06
-0.000142511 0.00154325 -7.78255e-07
7.7632e-06 -7.78255e-07 0.00153668
0.0032231 -0.000169518 -5.12331e-05
-0.000169518 0.00172954 -3.68984e-06
-5.12331e-05 -3.68984e-06 0.00171502
0.000338623 -8.46103e-05 1.36005e-05
-8.46103e-05 -0.000106001 -1.40113e-05
1.36005e-05 -1.40113e-05 -0.000173332
0.00483781 0.000173776 0.00013559
0.000173776 0.00275786 -1.43141e-05
0.00013559 -1.43141e-05 0.0027366
0.000494245 -0.000107293 2.7988e-08
-0.000107293 -2.81754e-05 3.25418e-07
2.7988e-08 3.25418e-07 -0.000113683
0.00556489 0.00014098 1.45858e-06
0.00014098 0.00319689 3.87236e-07
1.45858e-06 3.87236e-07 0.0031818
0.000447086 0.000109364 -1.92165e-05
0.000109364 -0.000180815 -7.58169e-06
-1.92165e-05 -7.58169e-06 -0.000282598
0.000461946 3.49145e-05 -1.82025e-05
3.49145e-05 -0.000175047 -3.69311e-06
-1.82025e-05 -3.69311e-06 -0.000261886
0.00106664 0.00013808 -1.20874e-05
0.00013808 -7.32374e-05 -2.43433e-06
-1.20874e-05 -2.43433e-06 -0.000228716
0.00104552 6.6251e-05 -1.2011e-05
6.6251e-05 -7.38099e-05 -1.02428e-06
-1.2011e-05 -1.02428e-06 -0.000207479
0.000478757 -7.62697e-06 -1.92949e-05
-7.62697e-06 -0.000162025 -9.99503e-07
-1.92949e-05 -9.99503e-07 -0.000239205
0.00597003 -9.94046e-05 -0.000305886
-9.94046e-05 0.00339062 5.21971e-06
-0.000305886 5.21971e-06 0.00340974
0.000465539 -2.11234e-06 7.89433e-08
-2.11234e-06 -0.000169268 -6.5724e-07
7.89433e-08 -6.5724e-07 -0.000245692
0.00104837 3.13566e-05 -7.92891e-08
3.13566e-05 -5.84036e-05 4.40232e-08
-7.92891e-08 4.40232e-08 -0.00018612
0.0011056 0.000100457 -2.047e-07
0.000100457 -4.36669e-05 -9.5546e-08
-2.047e-07 -9.5546e-08 -0.000185975
0.00179034 0.00010224 -8.08307e-08
0.00010224 8.35026e-05 1.52967e-07
-8.08307e-08 1.52967e-07 -2.66732e-05
0.0011357 0.000172802 -3.52757e-07
0.000172802 -2.57024e-05 -2.34799e-07
-3.52757e-07 -2.34799e-07 -0.00019336
0.00183658 0.000228173 -1.93415e-07
0.000228173 0.00011159 1.23827e-07
-1.93415e-07 1.23827e-07 -3.35316e-05
0.00104226 -3.28517e-06 1.17931e-05
-3.28517e-06 -5.47378e-05 -1.8035e-07
1.17931e-05 -1.8035e-07 -0.000181181
0.00175797 4.83767e-05 3.13252e-07
4.83767e-05 6.26842e-05 -5.82091e-08
3.13252e-07 -5.82091e-08 -3.94597e-05
0.00182028 0.000164143 -3.49998e-07
0.000164143 0.00010037 -5.50779e-07
-3.49998e-07 -5.50779e-07 -2.40981e-05
0.00194756 0.000130718 2.9717e-06
0.000130718 5.4638e-05 1.10708e-06
2.9717e-06 1.10708e-06 -6.28674e-06
0.00189262 0.000293481 1.57347e-06
0.000293481 0.000160559 -6.65966e-07
1.57347e-06 -6.65966e-07 -1.00713e-05
0.00204431 0.000263627 2.33334e-06
0.000263627 0.000125413 -5.75332e-07
2.33334e-06 -5.75332e-07 1.66386e-05
0.000449907 -2.28604e-06 -1.84435e-05
-2.28604e-06 -0.000172437 8.76403e-07
-1.84435e-05 8.76403e-07 -0.000253189
0.00187348 -4.00397e-05 -0.000123602
-4.00397e-05 0.000716209 5.55407e-06
-0.000123602 5.55407e-06 0.000652334
0.00102795 -5.35809e-05 -1.74533e-05
-5.35809e-05 -7.14903e-05 1.60493e-06
-1.74533e-05 1.60493e-06 -0.000200511
0.00195406 -0.000155505 -2.7813e-05
-0.000155505 0.000503239 4.16392e-06
-2.7813e-05 4.16392e-06 0.000356896
0.00638105 0.000102493 -0.000234699
0.000102493 0.00368162 2.2524e-05
-0.000234699 2.2524e-05 0.00367269
0.0031226 -0.000242257 -0.000146786
-0.000242257 0.00155665 2.18089e-05
-0.000146786 2.18089e-05 0.00146368
0.00204822 -0.000342023 -2.5396e-05
-0.000342023 0.000745864 1.06574e-05
-2.5396e-05 1.06574e-05 0.000520017
0.00191818 -0.000235594 -3.04488e-05
-0.000235594 0.000497693 7.47441e-06
-3.04488e-05 7.47441e-06 0.000327295
0.00185933 -0.000279976 -2.69151e-06
-0.000279976 0.000188297 -3.64048e-07
-2.69151e-06 -3.64048e-07 2.61337e-05
0.0018906 -0.000371276 -3.955e-06
-0.000371276 0.000295459 6.65534e-07
-3.955e-06 6.65534e-07 7.22139e-05
0.00166394 -0.000430311 -6.42812e-06
-0.000430311 0.00026377 4.46908e-07
-6.42812e-06 4.46908e-07 -1.20555e-05
0.00193756 -0.000467529 -8.87582e-07
-0.000467529 0.000262198 -2.02155e-06
-8.87582e-07 -2.02155e-06 2.17545e-05
0.000450678 -0.000147159 -1.97068e-05
-0.000147159 -6.89117e-05 1.73189e-05
-1.97068e-05 1.73189e-05 -0.000171305
0.000769016 -0.000173971 -8.96296e-07
-0.000173971 0.000166329 6.19575e-07
-8.96296e-07 6.19575e-07 -5.19934e-05
0.00102457 -2.39835e-05 1.92398e-07
-2.39835e-05 -6.80715e-05 5.76139e-08
1.92398e-07 5.76139e-08 -0.000193658
0.00185248 -0.000106342 -8.72355e-06
-0.000106342 0.000439498 1.01541e-06
-8.72355e-06 1.01541e-06 0.000310073
0.00184741 -0.000103306 -8.01464e-08
-0.000103306 0.000139881 -8.89388e-08
-8.01464e-08 -8.89388e-08 2.72114e-05
0.00176732 -0.000222231 -2.34326e-06
-0.000222231 0.000119361 7.31937e-07
-2.34326e-06 7.31937e-07 -2.805e-05
0.000450002 -0.000176783 5.95962e-08
-0.000176783 -8.96072e-05 8.97895e-08
5.95962e-08 8.97895e-08 -0.000197246
0.000805536 -0.000236559 -3.652e-07
-0.000236559 4.82401e-05 -4.71551e-08
-3.652e-07 -4.71551e-08 -0.000166744
0.00135152 -0.000432231 1.76466e-06
-0.000432231 0.000165554 -4.23343e-07
1.76466e-06 -4.23343e-07 -0.000138563
0.00182655 -0.000328242 -3.16556e-06
-0.000328242 0.000208818 8.861e-07
-3.16556e-06 8.861e-07 1.26279e-05
0.00202896 -0.000324138 2.06319e-06
-0.000324138 0.000170811 -1.0278e-06
2.06319e-06 -1.0278e-06 3.6052e-05
0.00210335 -0.000533456 -6.95703e-07
-0.000533456 0.000419075 -5.0805e-07
-6.95703e-07 -5.0805e-07 0.000129511
0.00193348 -0.000428822 5.95748e-07
-0.000428822 0.000207444 3.04949e-08
5.95748e-07 3.04949e-08 4.14564e-06
0.00206334 -0.000497584 8.22629e-07
-0.000497584 0.0002819 8.10103e-07
8.22629e-07 8.10103e-07 6.8535e-05
0.000657314 -0.000195455 2.77096e-07
-0.000195455 8.0874e-05 -3.85978e-07
2.77096e-07 -3.85978e-07 -0.000157329
0.000398175 -0.000173353 3.90911e-07
-0.000173353 -8.42868e-05 8.36384e-08
3.90911e-07 8.36384e-08 -0.000348808
0.000706093 -0.00012645 7.62711e-07
-0.00012645 0.00014471 -3.0724e-08
7.62711e-07 -3.0724e-08 -4.41614e-05
0.00179857 -4.75224e-05 -4.21642e-07
-4.75224e-05 0.000108299 1.8628e-07
-4.21642e-07 1.8628e-07 -2.13828e-07
0.001906 -0.000160997 -2.58427e-06
-0.000160997 0.000188034 9.82258e-07
-2.58427e-06 9.82258e-07 6.49495e-05
0.00192267 -0.000123789 4.68539e-06
-0.000123789 4.90314e-05 -7.54406e-07
4.68539e-06 -7.54406e-07 -2.18973e-05
0.0019349 -0.000262778 1.39312e-07
-0.000262778 8.57583e-05 7.87816e-07
1.39312e-07 7.87816e-07 -2.05715e-05
0.00182316 -0.000381106 -8.79353e-07
-0.000381106 8.87326e-05 1.85174e-06
-8.79353e-07 1.85174e-06 -7.81018e-05
0.00217823 -0.000355122 3.49546e-06
-0.000355122 0.000210585 -1.18013e-06
3.49546e-06 -1.18013e-06 0.000105557
0.000667577 -0.000233327 6.09449e-06
-0.000233327 3.18381e-05 -6.53682e-06
6.09449e-06 -6.53682e-06 -0.000187281
0.00190415 -0.000456075 -6.83654e-07
-0.000456075 0.00013028 1.75298e-06
-6.83654e-07 1.75298e-06 -4.68709e-05
0.001318 -0.000399579 7.82484e-06
-0.000399579 0.000276066 -3.94555e-06
7.82484e-06 -3.94555e-06 -2.6793e-05
0.00176244 -0.000582942 6.98298e-06
-0.000582942 0.000307889 1.20083e-06
6.98298e-06 1.20083e-06 -4.47267e-05
0.00218454 -0.000565213 3.83216e-06
-0.000565213 0.000419744 4.25846e-06
3.83216e-06 4.25846e-06 0.000143617
0.00225155 -0.000525791 -2.21796e-06
-0.000525791 0.000404632 2.65832e-06
-2.21796e-06 2.65832e-06 0.00020186
0.00052229 -9.32557e-05 -3.68718e-07
-9.32557e-05 3.814e-05 -6.38875e-06
-3.68718e-07 -6.38875e-06 -0.000113537
0.00108375 -0.000280182 1.38598e-06
-0.000280182 0.000248154 -1.28022e-06
1.38598e-06 -1.28022e-06 4.72617e-06
0.000355167 -0.00016881 8.4396e-07
-0.00016881 -1.29106e-05 2.44795e-06
8.4396e-07 2.44795e-06 -0.000317211
0.00169282 -0.000364356 -1.55318e-06
-0.000364356 0.000648869 8.617e-07
-1.55318e-06 8.617e-07 0.000361508
0.00107363 0.000202708 -1.46247e-05
0.000202708 -4.4268e-05 -4.71417e-06
-1.46247e-05 -4.71417e-06 -0.0002258
0.000369495 -4.81573e-05 3.09057e-06
-4.81573e-05 -6.36009e-05 -1.14762e-05
3.09057e-06 -1.14762e-05 -0.000122045
0.000415281 8.59365e-05 -1.82085e-05
8.59365e-05 -8.16853e-05 -1.42402e-05
-1.82085e-05 -1.42402e-05 -0.000160869
4.08281e-05 6.99683e-05 -1.35228e-06
6.99683e-05 -0.000260853 -6.17283e-06
-1.35228e-06 -6.17283e-06 -0.000447348
0.000988723 0.000240586 -1.53873e-05
0.000240586 -1.76391e-05 -6.8717e-06
-1.53873e-05 -6.8717e-06 -0.000217752
0.00176082 0.000384225 -4.0039e-06
0.000384225 0.000179551 -1.82809e-07
-4.0039e-06 -1.82809e-07 -4.85776e-05
0.000620093 0.000212649 -5.89539e-06
0.000212649 4.64416e-07 -4.91474e-06
-5.89539e-06 -4.91474e-06 -0.000206975
0.0014203 0.000380754 -4.25849e-06
0.000380754 0.000347282 -3.38502e-06
-4.25849e-06 -3.38502e-06 5.8126e-05
0.00165313 0.000433646 -3.80865e-06
0.000433646 0.000275492 -7.38819e-08
-3.80865e-06 -7.38819e-08 8.33782e-07
0.0014392 0.000500926 2.43541e-06
0.000500926 0.000142527 4.27028e-06
2.43541e-06 4.27028e-06 -0.000164752
0.000452025 -4.47458e-05 -3.51109e-06
-4.47458e-05 -2.38222e-05 9.45399e-07
-3.51109e-06 9.45399e-07 -6.84005e-05
0.000652078 0.000190703 -9.94473e-07
0.000190703 9.47509e-05 -5.89664e-07
-9.94473e-07 -5.89664e-07 -0.000128531
0.000632135 4.68177e-05 -6.43883e-08
4.68177e-05 8.28986e-05 5.73212e-07
-6.43883e-08 5.73212e-07 -4.7063e-05
0.000789472 0.000149483 1.37064e-06
0.000149483 0.000218242 -8.58715e-07
1.37064e-06 -8.58715e-07 -4.4327e-05
0.00183737 0.00034324 -9.98815e-07
0.00034324 0.000171753 -9.04824e-07
-9.98815e-07 -9.04824e-07 -2.71799e-05
0.00169369 0.000417717 -1.85155e-07
0.000417717 0.000215104 -1.8514e-07
-1.85155e-07 -1.8514e-07 -4.00724e-05
0.00199452 0.000453559 3.07827e-07
0.000453559 0.00023058 2.13328e-07
3.07827e-07 2.13328e-07 1.1435e-05
0.00103493 0.000292995 2.43598e-06
0.000292995 0.00016645 5.92204e-07
2.43598e-06 5.92204e-07 -8.54845e-05
0.00203492 0.000548277 -3.51072e-07
0.000548277 0.000410503 2.31286e-07
-3.51072e-07 2.31286e-07 0.00012041
0.00148939 0.000492343 -1.04035e-06
0.000492343 0.000302928 -1.74456e-06
-1.04035e-06 -1.74456e-06 -4.27981e-05
0.00179792 0.000536499 -3.82397e-06
0.000536499 0.000283443 1.68754e-06
-3.82397e-06 1.68754e-06 -1.35167e-05
0.000519062 -3.2504e-05 1.34089e-06
-3.2504e-05 1.09082e-06 7.45597e-06
1.34089e-06 7.45597e-06 -3.16077e-05
0.00071629 4.1924e-05 2.29937e-06
4.1924e-05 0.000137835 5.5049e-06
2.29937e-06 5.5049e-06 3.56564e-05
0.000666186 0.000223011 2.23922e-06
0.000223011 2.14813e-05 2.07801e-06
2.23922e-06 2.07801e-06 -0.000210578
0.00167031 0.000156372 -3.01121e-07
0.000156372 0.000802191 2.85173e-06
-3.01121e-07 2.85173e-06 0.000556951
0.00139024 0.000338952 -6.52688e-07
0.000338952 0.000528968 -3.52409e-06
-6.52688e-07 -3.52409e-06 0.000262395
0.00208324 0.000409378 -5.94409e-08
0.000409378 0.000219253 -2.54098e-06
-5.94409e-08 -2.54098e-06 3.68746e-05
0.00198863 0.000510276 -2.22501e-07
0.000510276 0.000293531 -7.96757e-07
-2.22501e-07 -7.96757e-07 3.46554e-05
0.00202858 0.000496423 -1.49258e-06
0.000496423 0.000228549 -8.31736e-07
-1.49258e-06 -8.31736e-07 1.5838e-05
0.000977193 0.00039696 4.68043e-06
0.00039696 0.000100003 2.19943e-06
4.68043e-06 2.19943e-06 -0.000220491
0.00222375 0.000615298 -1.71002e-06
0.000615298 0.000469949 -7.29917e-07
-1.71002e-06 -7.29917e-07 0.000175979
0.00158162 0.000554309 6.16528e-06
0.000554309 0.000292565 -2.66525e-06
6.16528e-06 -2.66525e-06 -5.60307e-05
0.000601151 3.54287e-05 2.6568e-06
3.54287e-05 6.54185e-05 4.09152e-06
2.6568e-06 4.09152e-06 -9.19959e-06
0.000631443 8.22165e-05 1.2798e-08
8.22165e-05 0.000122813 2.2289e-06
1.2798e-08 2.2289e-06 4.11446e-06
0.000588847 4.89052e-05 2.60697e-06
4.89052e-05 6.45514e-05 3.7312e-06
2.60697e-06 3.7312e-06 -2.28885e-06
0.000538999 5.32653e-06 -6.19221e-07
5.32653e-06 2.90113e-05 -1.31281e-08
-6.19221e-07 -1.31281e-08 -4.02301e-05
0.00128865 -4.03547e-05 1.27728e-06
-4.03547e-05 0.00047147 3.727e-06
1.27728e-06 3.727e-06 0.000451255
0.000894584 -3.69716e-05 3.47708e-07
-3.69716e-05 0.000227961 -1.54755e-07
3.47708e-07 -1.54755e-07 0.00020295
0.000858018 -5.18147e-05 3.07483e-05
-5.18147e-05 0.000211193 8.85028e-06
3.07483e-05 8.85028e-06 0.000209792
0.00269854 -0.000121123 6.49433e-06
-0.000121123 0.00137922 -6.22425e-07
6.49433e-06 -6.22425e-07 0.00137854
0.0028591 -0.000142266 -4.17003e-05
-0.000142266 0.00149026 -3.68209e-06
-4.17003e-05 -3.68209e-06 0.0014837
0.000336464 -4.62482e-05 6.9597e-06
-4.62482e-05 -9.64707e-05 -1.09488e-05
6.9597e-06 -1.09488e-05 -0.000149419
0.00420151 0.000161676 9.79428e-05
0.000161676 0.00234774 -8.38119e-06
9.79428e-05 -8.38119e-06 0.00233194
0.000506198 -8.56816e-05 -1.86542e-06
-8.56816e-05 -5.15753e-06 4.57776e-07
-1.86542e-06 4.57776e-07 -7.45092e-05
0.00496473 0.000149789 -1.17239e-05
0.000149789 0.00283092 -1.52646e-06
-1.17239e-05 -1.52646e-06 0.0028143
0.000535052 -0.000114785 -1.9225e-05
-0.000114785 -7.75966e-06 1.49711e-05
-1.9225e-05 1.49711e-05 -9.45837e-05
0.00581051 0.000150905 -0.000197317
0.000150905 0.00335986 2.24108e-05
-0.000197317 2.24108e-05 0.00333933
0.00108056 0.000173425 -1.32152e-05
0.000173425 -5.8327e-05 -3.42858e-06
-1.32152e-05 -3.42858e-06 -0.000227293
0.00105611 0.00010352 -1.19174e-05
0.00010352 -7.56788e-05 -1.65918e-06
-1.19174e-05 -1.65918e-06 -0.000219146
0.00185002 0.000224474 -2.02511e-06
0.000224474 0.000120492 6.93076e-07
-2.02511e-06 6.93076e-07 -2.41863e-05
0.00176864 0.000100462 -5.25735e-08
0.000100462 7.48621e-05 7.56095e-07
-5.25735e-08 7.56095e-07 -3.53173e-05
0.00103668 3.61163e-05 -1.18874e-05
3.61163e-05 -6.77597e-05 -4.65309e-07
-1.18874e-05 -4.65309e-07 -0.000195946
0.000429286 2.89769e-05 -1.91899e-05
2.89769e-05 -0.000193388 -6.68188e-07
-1.91899e-05 -6.68188e-07 -0.000268563
0.00103427 3.19277e-07 -5.94409e-08
3.19277e-07 -6.03292e-05 -7.60057e-08
-5.94409e-08 -7.60057e-08 -0.00018683
0.0017643 4.91635e-05 -1.07104e-07
4.91635e-05 6.98287e-05 2.3041e-07
-1.07104e-07 2.3041e-07 -3.23533e-05
0.00181574 0.000161324 -4.14946e-08
0.000161324 9.87882e-05 6.78839e-08
-4.14946e-08 6.78839e-08 -2.54622e-05
0.00194645 0.000129266 -1.53946e-07
0.000129266 4.39972e-05 1.84986e-07
-1.53946e-07 1.84986e-07 -1.39146e-05
0.00186843 0.000290735 -4.25892e-07
0.000290735 0.000149825 -6.15613e-08
-4.25892e-07 -6.15613e-08 -2.06727e-05
0.00200519 0.000260533 -5.4082e-07
0.000260533 0.000104669 1.0822e-07
-5.4082e-07 1.0822e-07 -3.97696e-06
0.00174068 -8.83646e-07 3.66928e-07
-8.83646e-07 6.10379e-05 1.95892e-07
3.66928e-07 1.95892e-07 -3.93695e-05
0.00193552 6.11026e-05 2.41084e-06
6.11026e-05 3.8329e-05 5.8555e-07
2.41084e-06 5.8555e-07 -6.87058e-06
0.00196198 0.000193534 2.93671e-06
0.000193534 6.42301e-05 3.13535e-07
2.93671e-06 3.13535e-07 -1.59212e-05
0.00201927 0.00012238 6.93139e-06
0.00012238 5.15637e-05 1.15253e-06
6.93139e-06 1.15253e-06 2.45874e-05
0.00211798 0.000348096 9.95778e-07
0.000348096 0.000203054 -1.13777e-06
9.95778e-07 -1.13777e-06 5.72628e-05
0.00201426 0.000280055 2.93748e-06
0.000280055 3.05274e-05 1.05863e-06
2.93748e-06 1.05863e-06 -4.19512e-05
0.000985708 -2.0144e-05 -1.21403e-05
-2.0144e-05 -9.46523e-05 5.66256e-07
-1.21403e-05 5.66256e-07 -0.000218139
0.00187652 -0.000107646 -2.72284e-05
-0.000107646 0.000452726 2.97213e-06
-2.72284e-05 2.97213e-06 0.000323443
0.00192888 -9.89344e-05 -2.169e-06
-9.89344e-05 0.000188542 -4.35103e-07
-2.169e-06 -4.35103e-07 8.13207e-05
0.00174937 -0.000220731 -2.54296e-06
-0.000220731 0.000113959 5.81167e-07
-2.54296e-06 5.81167e-07 -3.93473e-05
0.0005447 -0.000199889 -2.49555e-05
-0.000199889 -3.07033e-05 1.87516e-05
-2.49555e-05 1.87516e-05 -0.000140877
0.000839155 -0.000239149 -1.13147e-05
-0.000239149 6.97062e-05 7.76807e-06
-1.13147e-05 7.76807e-06 -0.000146918
0.001377 -0.000434298 -5.6305e-06
-0.000434298 0.000185653 1.44084e-06
-5.6305e-06 1.44084e-06 -0.000120052
0.00187012 -0.000328822 -5.50023e-06
-0.000328822 0.00023758 1.10844e-06
-5.50023e-06 1.10844e-06 3.86464e-05
0.00200676 -0.000326004 1.54405e-07
-0.000326004 0.000146831 -1.34848e-06
1.54405e-07 -1.34848e-06 1.69073e-05
0.0019448 -0.000429776 -6.46231e-07
-0.000429776 0.000215018 -1.36939e-06
-6.46231e-07 -1.36939e-06 1.15325e-05
0.00215161 -0.000541267 -3.22641e-06
-0.000541267 0.000447764 -3.25197e-06
-3.22641e-06 -3.25197e-06 0.000159113
0.00192961 -0.000488603 2.38118e-06
-0.000488603 0.000192964 -2.99823e-06
2.38118e-06 -2.99823e-06 -1.96696e-05
0.000813679 -0.000193766 -5.13408e-06
-0.000193766 0.000168549 4.15116e-06
-5.13408e-06 4.15116e-06 -6.01266e-05
8.1586e-05 -0.000139741 -2.20107e-07
-0.000139741 -0.00028515 -1.4252e-06
-2.20107e-07 -1.4252e-06 -0.000546589
0.00082464 -0.000151863 -6.35008e-07
-0.000151863 0.00021233 2.82178e-06
-6.35008e-07 2.82178e-06 2.17188e-05
0.00180856 -4.47977e-05 -2.12669e-07
-4.47977e-05 0.000112245 4.23425e-08
-2.12669e-07 4.23425e-08 6.41506e-06
0.00187466 -0.000167666 -3.05448e-06
-0.000167666 0.000166884 4.66064e-07
-3.05448e-06 4.66064e-07 4.24644e-05
0.00195929 -0.00012161 2.91727e-06
-0.00012161 6.82601e-05 -4.10477e-07
2.91727e-06 -4.10477e-07 3.88409e-06
0.00191191 -0.000256131 -1.13584e-06
-0.000256131 7.11063e-05 5.83273e-07
-1.13584e-06 5.83273e-07 -3.77017e-05
0.000729438 -0.000233221 7.54884e-07
-0.000233221 6.96157e-05 -3.35271e-07
7.54884e-07 -3.35271e-07 -0.00015102
0.00125291 -0.000397215 -1.26702e-06
-0.000397215 0.000224585 -2.62499e-07
-1.26702e-06 -2.62499e-07 -7.76313e-05
0.00173188 -0.000575012 1.09867e-06
-0.000575012 0.000304571 5.95694e-07
1.09867e-06 5.95694e-07 -4.85482e-05
0.00181819 -0.000378613 -1.3707e-06
-0.000378613 9.06213e-05 1.0315e-06
-1.3707e-06 1.0315e-06 -8.14355e-05
0.00209792 -0.00035341 1.11382e-06
-0.00035341 0.000153525 -4.276e-07
1.11382e-06 -4.276e-07 5.23828e-05
0.0020693 -0.000563173 -2.76651e-07
-0.000563173 0.000338399 5.34338e-07
-2.76651e-07 5.34338e-07 6.02766e-05
0.00194991 -0.000458366 -1.57204e-07
-0.000458366 0.00015863 6.22951e-07
-1.57204e-07 6.22951e-07 -1.8971e-05
0.00218887 -0.000511841 1.18146e-06
-0.000511841 0.00035704 -5.71337e-07
1.18146e-06 -5.71337e-07 0.000160338
0.00107684 -0.000283261 -1.86663e-07
-0.000283261 0.000252256 9.37794e-07
-1.86663e-07 9.37794e-07 -1.25037e-07
0.00121144 -0.000325268 -1.16523e-06
-0.000325268 0.000349947 1.09308e-06
-1.16523e-06 1.09308e-06 6.24856e-05
0.000658868 -0.000115462 -4.60474e-07
-0.000115462 0.000120224 -3.8645e-07
-4.60474e-07 -3.8645e-07 -3.62656e-05
5.23191e-05 -9.84782e-05 5.91381e-07
-9.84782e-05 -0.000220896 -2.16828e-06
5.91381e-07 -2.16828e-06 -0.000500715
0.00196306 -6.34456e-05 3.57431e-06
-6.34456e-05 7.12379e-05 -8.00134e-07
3.57431e-06 -8.00134e-07 1.71985e-05
0.00189697 -0.000195271 2.8319e-06
-0.000195271 3.11306e-05 -5.80428e-07
2.8319e-06 -5.80428e-07 -5.61118e-05
0.00192134 -0.000116163 6.87478e-06
-0.000116163 2.14505e-05 -1.17189e-06
6.87478e-06 -1.17189e-06 -6.72246e-06
0.00206629 -0.000290094 1.22008e-06
-0.000290094 7.56755e-05 -6.49074e-07
1.22008e-06 -6.49074e-07 1.73314e-05
0.00186235 -0.000406776 -1.23283e-06
-0.000406776 6.07203e-05 3.83088e-07
-1.23283e-06 3.83088e-07 -8.02866e-05
0.00206177 -0.000364133 4.4429e-06
-0.000364133 9.40675e-05 -1.4931e-06
4.4429e-06 -1.4931e-06 1.55733e-05
0.00131392 -0.00035068 5.70628e-06
-0.00035068 0.00034771 -5.16964e-06
5.70628e-06 -5.16964e-06 7.24079e-05
0.00192991 -0.000481007 -2.53954e-06
-0.000481007 0.000128606 2.85365e-07
-2.53954e-06 2.85365e-07 -3.12832e-05
0.00148921 -0.000558626 1.72729e-06
-0.000558626 0.000306662 1.40987e-06
1.72729e-06 1.40987e-06 -7.12185e-05
0.0019519 -0.000645527 5.05758e-06
-0.000645527 0.000378144 2.53616e-06
5.05758e-06 2.53616e-06 1.33039e-05
0.00202538 -0.000572446 1.38994e-06
-0.000572446 0.000265247 4.79661e-06
1.38994e-06 4.79661e-06 -3.8783e-06
0.00227815 -0.000539357 -6.26091e-06
-0.000539357 0.000384191 -1.4776e-06
-6.26091e-06 -1.4776e-06 0.000180356
0.000537086 -9.34121e-05 -9.58931e-07
-9.34121e-05 4.92392e-05 -6.48677e-06
-9.58931e-07 -6.48677e-06 -7.67646e-05
0.000163423 -0.000122242 -3.70009e-06
-0.000122242 -0.000102568 -1.88185e-06
-3.70009e-06 -1.88185e-06 -0.000374156
0.00135827 -0.000379912 1.92635e-06
-0.000379912 0.000392625 -4.01515e-06
1.92635e-06 -4.01515e-06 9.77666e-05
0.00151425 -0.000297045 -3.64559e-06
-0.000297045 0.000637611 5.66724e-06
-3.64559e-06 5.66724e-06 0.000336472
0.00186886 -0.000429826 -9.62039e-06
-0.000429826 0.000750297 3.76077e-06
-9.62039e-06 3.76077e-06 0.000414093
0.000327841 -5.02069e-05 -3.9502e-07
-5.02069e-05 -9.97123e-05 -8.29866e-06
-3.9502e-07 -8.29866e-06 -0.00014358
0.00180641 0.000340706 -3.64947e-06
0.000340706 0.000153372 -5.32786e-07
-3.64947e-06 -5.32786e-07 -4.56182e-05
0.000353536 1.98157e-05 -6.0231e-07
1.98157e-05 -8.31951e-05 -5.828e-06
-6.0231e-07 -5.828e-06 -0.000208672
0.000467375 0.000187135 -5.39334e-06
0.000187135 -3.6403e-05 -3.30991e-06
-5.39334e-06 -3.30991e-06 -0.000250718
0.000497827 0.000146131 1.93515e-07
0.000146131 2.95253e-05 -9.83434e-08
1.93515e-07 -9.83434e-08 -0.000228724
0.00166866 0.000417053 -4.5001e-06
0.000417053 0.00019815 -4.42689e-07
-4.5001e-06 -4.42689e-07 -5.77463e-05
0.00196398 0.000450029 6.71805e-07
0.000450029 0.000214512 1.27145e-06
6.71805e-07 1.27145e-06 -3.99274e-06
0.00138252 0.000335414 -3.06895e-06
0.000335414 0.00039592 -3.19839e-06
-3.06895e-06 -3.19839e-06 0.00013415
0.00133895 0.000487273 -2.19146e-08
0.000487273 0.000199456 1.31039e-06
-2.19146e-08 1.31039e-06 -0.000149569
0.00192601 0.000529568 1.37157e-06
0.000529568 0.000350855 2.33771e-06
1.37157e-06 2.33771e-06 6.29637e-05
0.00187923 0.000540548 2.09882e-06
0.000540548 0.000336327 7.53079e-06
2.09882e-06 7.53079e-06 4.2818e-05
0.000469552 -2.90141e-05 -7.74993e-07
-2.90141e-05 -3.00957e-05 2.2681e-07
-7.74993e-07 2.2681e-07 -6.19337e-05
0.000616525 2.64061e-05 -1.18075e-07
2.64061e-05 8.00498e-05 3.29226e-07
-1.18075e-07 3.29226e-07 -2.07201e-05
0.00100137 0.000263303 5.80852e-07
0.000263303 0.000229609 1.04322e-06
5.80852e-07 1.04322e-06 -7.20463e-06
0.000699373 9.32215e-05 -5.0298e-07
9.32215e-05 0.000192439 -6.27065e-07
-5.0298e-07 -6.27065e-07 -3.83433e-05
0.000813213 0.000254531 -5.84522e-07
0.000254531 0.000141708 1.12349e-06
-5.84522e-07 1.12349e-06 -9.32285e-05
0.00205328 0.000408108 -1.43119e-06
0.000408108 0.000200665 -1.66326e-06
-1.43119e-06 -1.66326e-06 1.83038e-05
0.00195236 0.00050708 5.60528e-07
0.00050708 0.000272807 1.86342e-07
5.60528e-07 1.86342e-07 1.4451e-05
0.00196984 0.000493202 1.68569e-06
0.000493202 0.000194234 1.83394e-07
1.68569e-06 1.83394e-07 -1.84679e-05
0.00133873 0.000433391 2.21652e-06
0.000433391 0.000333082 8.42593e-07
2.21652e-06 8.42593e-07 2.78529e-06
0.00209833 0.000600717 2.1081e-06
0.000600717 0.000380327 2.67916e-07
2.1081e-06 2.67916e-07 8.73957e-05
0.00191215 0.00058623 -3.20449e-06
0.00058623 0.000497593 -1.24316e-07
-3.20449e-06 -1.24316e-07 0.000144531
0.0006406 3.07605e-05 1.30519e-06
3.07605e-05 9.03676e-05 4.52548e-06
1.30519e-06 4.52548e-06 5.6144e-06
0.00140256 0.000160916 1.00791e-06
0.000160916 0.000615107 2.88372e-06
1.00791e-06 2.88372e-06 0.000436876
0.000950828 0.000322886 -2.40896e-06
0.000322886 0.00013612 3.5332e-06
-2.40896e-06 3.5332e-06 -0.000123486
0.00142062 0.0001902 1.76769e-07
0.0001902 0.000638097 -3.21117e-06
1.76769e-07 -3.21117e-06 0.000365174
0.00177406 0.000296755 -4.6657e-06
0.000296755 0.000648928 5.12162e-07
-4.6657e-06 5.12162e-07 0.000437233
0.00204145 0.000427094 -3.87984e-06
0.000427094 0.00017268 -2.36498e-06
-3.87984e-06 -2.36498e-06 5.4165e-06
0.00202727 0.000560902 -8.18676e-07
0.000560902 0.000281247 -5.86027e-08
-8.18676e-07 -5.86027e-08 2.30281e-05
0.00184594 0.000534138 6.31932e-06
0.000534138 7.81375e-05 1.38899e-08
6.31932e-06 1.38899e-08 -0.000139631
0.00124195 0.000502117 8.43701e-06
0.000502117 0.000286035 -1.44947e-06
8.43701e-06 -1.44947e-06 -9.15035e-05
0.0015537 0.000580533 1.04199e-05
0.000580533 0.000174287 -5.07521e-07
1.04199e-05 -5.07521e-07 -0.000147962
0.000573053 2.85376e-05 -3.22965e-07
2.85376e-05 4.55706e-05 1.92189e-07
-3.22965e-07 1.92189e-07 -2.73932e-05
0.000375859 5.30154e-05 5.89907e-07
5.30154e-05 -5.25901e-05 2.64564e-06
5.89907e-07 2.64564e-06 -0.000164714
0.000391893 5.0979e-05 -5.99777e-07
5.0979e-05 -4.17214e-05 -2.36781e-07
-5.99777e-07 -2.36781e-07 -0.000147167
0.0009938 0.000145162 -1.39887e-06
0.000145162 0.000350888 -8.56782e-07
-1.39887e-06 -8.56782e-07 0.000214886
0.000675126 0.000108381 1.89706e-06
0.000108381 0.000151796 2.56511e-06
1.89706e-06 2.56511e-06 3.68838e-05
0.000543895 5.86192e-05 2.85062e-06
5.86192e-05 4.25221e-05 3.49801e-06
2.85062e-06 3.49801e-06 -2.37807e-05
0.000535129 1.15844e-05 -6.75666e-07
1.15844e-05 3.12499e-05 -3.12181e-08
-6.75666e-07 -3.12181e-08 -3.51526e-05
0.00125846 -2.56284e-05 1.11759e-06
-2.56284e-05 0.000451009 3.36311e-06
1.11759e-06 3.36311e-06 0.000433743
0.00055073 1.91677e-05 -1.89341e-06
1.91677e-05 3.14761e-05 -3.88858e-06
-1.89341e-06 -3.88858e-06 -3.46258e-05
0.00132062 -3.57793e-05 -7.57678e-06
-3.57793e-05 0.000490963 -1.53084e-06
-7.57678e-06 -1.53084e-06 0.000471976
0.000805406 -3.78208e-05 3.09288e-05
-3.78208e-05 0.000170129 8.74523e-06
3.09288e-05 8.74523e-06 0.000173225
0.00134322 -4.36233e-05 -1.32866e-05
-4.36233e-05 0.000510145 -5.07067e-06
-1.32866e-05 -5.07067e-06 0.000488138
0.00168422 -7.52939e-05 2.97309e-05
-7.52939e-05 0.000731833 1.56217e-06
2.97309e-05 1.56217e-06 0.000733287
0.00261623 -0.000116795 -3.63488e-05
-0.000116795 0.00132618 -4.06544e-06
-3.63488e-05 -4.06544e-06 0.00132652
0.000298531 8.16844e-05 -6.47525e-06
8.16844e-05 -9.12489e-05 -9.00644e-06
-6.47525e-06 -9.00644e-06 -0.000145836
0.000434403 -2.79359e-05 4.26092e-07
-2.79359e-05 -2.99655e-05 7.64876e-07
4.26092e-07 7.64876e-07 -8.8603e-05
0.00342106 0.000180655 1.00847e-05
0.000180655 0.00185608 -6.85655e-06
1.00847e-05 -6.85655e-06 0.00183579
0.00439651 0.000128614 -1.44603e-05
0.000128614 0.00246503 -1.25691e-06
-1.44603e-05 -1.25691e-06 0.00245679
0.000647635 -8.55642e-05 -1.4093e-05
-8.55642e-05 7.89769e-05 1.32438e-05
-1.4093e-05 1.32438e-05 6.04838e-06
0.00522516 0.000128671 -0.000174413
0.000128671 0.00298721 1.89292e-05
-0.000174413 1.89292e-05 0.00297493
0.00184279 0.000288369 -2.55477e-06
0.000288369 0.000137154 5.9115e-07
-2.55477e-06 5.9115e-07 -3.33238e-05
0.00177969 0.000160808 -6.36455e-07
0.000160808 7.65607e-05 6.53688e-07
-6.36455e-07 6.53688e-07 -4.81237e-05
0.00196191 0.000258714 -2.18271e-06
0.000258714 8.01776e-05 1.11081e-06
-2.18271e-06 1.11081e-06 -2.86323e-05
0.00194749 0.000127622 -2.78478e-06
0.000127622 3.44039e-05 -1.63401e-07
-2.78478e-06 -1.63401e-07 -2.05024e-05
0.00177209 5.12561e-05 -2.23382e-07
5.12561e-05 7.87912e-05 5.06707e-07
-2.23382e-07 5.06707e-07 -2.34353e-05
0.00103428 5.15276e-06 -1.15019e-05
5.15276e-06 -6.05934e-05 -6.25627e-08
-1.15019e-05 -6.25627e-08 -0.000187054
0.00175476 2.65397e-06 6.65568e-08
2.65397e-06 7.15237e-05 1.98457e-07
6.65568e-08 1.98457e-07 -2.8937e-05
0.00192739 5.26298e-05 -6.68692e-07
5.26298e-05 3.49195e-05 -2.47544e-08
-6.68692e-07 -2.47544e-08 -1.05524e-05
0.00196957 0.000192964 -5.16174e-07
0.000192964 6.81238e-05 2.72589e-07
-5.16174e-07 2.72589e-07 -1.22074e-05
0.00196831 0.000119716 4.83083e-07
0.000119716 1.31794e-05 -1.81961e-08
4.83083e-07 -1.81961e-08 -8.43519e-06
0.00206819 0.000347697 -4.42308e-07
0.000347697 0.000165158 -1.36079e-07
-4.42308e-07 -1.36079e-07 1.91341e-05
0.00200968 0.000274405 5.85507e-08
0.000274405 2.79806e-05 3.56297e-07
5.85507e-08 3.56297e-07 -4.18666e-05
0.00192398 -5.06753e-06 3.1588e-06
-5.06753e-06 3.96784e-05 -3.17827e-07
3.1588e-06 -3.17827e-07 -7.76966e-06
0.00196588 5.11962e-05 6.13494e-06
5.11962e-05 3.31106e-05 2.19304e-07
6.13494e-06 2.19304e-07 1.64686e-05
0.00203519 0.000194681 3.34551e-06
0.000194681 3.56482e-05 7.46528e-07
3.34551e-06 7.46528e-07 1.59623e-06
0.00206471 0.00011999 3.67243e-06
0.00011999 2.90723e-05 5.036e-07
3.67243e-06 5.036e-07 2.90772e-05
0.00197288 0.000341081 1.32697e-06
0.000341081 6.60604e-05 -3.14567e-07
1.32697e-06 -3.14567e-07 -5.37717e-05
0.00218964 0.000282686 3.53792e-06
0.000282686 8.36662e-05 1.38774e-06
3.53792e-06 1.38774e-06 4.54138e-05
0.00181083 -4.20986e-05 -1.25337e-06
-4.20986e-05 0.00011225 -4.00505e-07
-1.25337e-06 -4.00505e-07 9.11333e-06
0.00186219 -0.000172747 -3.44237e-06
-0.000172747 0.000156818 6.35993e-08
-3.44237e-06 6.35993e-08 3.14271e-05
0.00197613 -0.000120286 -4.43329e-08
-0.000120286 7.52355e-05 -2.26012e-08
-4.43329e-08 -2.26012e-08 1.71616e-05
0.00186873 -0.000249411 -2.0359e-06
-0.000249411 4.45319e-05 2.63083e-07
-2.0359e-06 2.63083e-07 -6.6832e-05
0.000798937 -0.000233052 -9.05751e-06
-0.000233052 0.000109919 7.63025e-06
-9.05751e-06 7.63025e-06 -0.000111689
0.00124553 -0.000398977 -7.96395e-06
-0.000398977 0.000211537 2.56466e-06
-7.96395e-06 2.56466e-06 -9.05383e-05
0.00157355 -0.000554006 8.13374e-08
-0.000554006 0.000224646 -1.17253e-06
8.13374e-08 -1.17253e-06 -0.000126965
0.00181349 -0.000376016 -1.2897e-06
-0.000376016 9.28711e-05 -7.83335e-08
-1.2897e-06 -7.83335e-08 -8.43974e-05
0.00201731 -0.000350948 -7.15103e-07
-0.000350948 9.62833e-05 4.43802e-07
-7.15103e-07 4.43802e-07 -5.93503e-07
0.0020056 -0.000461309 3.71327e-07
-0.000461309 0.000193751 -4.8965e-07
3.71327e-07 -4.8965e-07 1.55816e-05
0.00194968 -0.000563848 -2.77547e-06
-0.000563848 0.000253765 -3.50072e-06
-2.77547e-06 -3.50072e-06 -2.73886e-05
0.00205864 -0.000498043 7.09486e-06
-0.000498043 0.00027305 -4.73126e-06
7.09486e-06 -4.73126e-06 8.1493e-05
0.000808287 -0.0002563 -1.64014e-06
-0.0002563 9.66265e-05 2.26911e-06
-1.64014e-06 2.26911e-06 -0.000158076
0.000410413 -0.000227238 8.82918e-07
-0.000227238 -0.000167725 1.078e-06
8.82918e-07 1.078e-06 -0.000435649
0.000932085 -0.000124502 -7.74412e-07
-0.000124502 0.000287015 5.78981e-06
-7.74412e-07 5.78981e-06 0.000125751
0.000106235 -6.71922e-05 2.20277e-06
-6.71922e-05 -0.000206831 -3.50338e-06
2.20277e-06 -3.50338e-06 -0.000464374
0.00196089 -6.30412e-05 -1.89301e-07
-6.30412e-05 7.19597e-05 1.7251e-07
-1.89301e-07 1.7251e-07 1.76535e-05
0.00191558 -0.000194998 2.79631e-06
-0.000194998 4.85999e-05 -8.54441e-07
2.79631e-06 -8.54441e-07 -3.94256e-05
0.00192583 -0.000115891 1.00608e-06
-0.000115891 1.90997e-05 -2.95979e-07
1.00608e-06 -2.95979e-07 -7.54504e-06
0.00203919 -0.000287178 -1.12616e-06
-0.000287178 6.58296e-05 2.54671e-07
-1.12616e-06 2.54671e-07 3.61262e-06
0.00110181 -0.00032 -2.33528e-06
-0.00032 0.000205524 2.8492e-07
-2.33528e-06 2.8492e-07 -6.16065e-05
0.00142255 -0.000539973 2.45217e-06
-0.000539973 0.000279684 -7.11658e-07
2.45217e-06 -7.11658e-07 -9.25075e-05
0.00185665 -0.000646107 -2.0385e-07
-0.000646107 0.000315598 4.15499e-07
-2.0385e-07 4.15499e-07 -5.38523e-05
0.00189432 -0.000405279 -1.26209e-06
-0.000405279 8.82193e-05 6.52357e-07
-1.26209e-06 6.52357e-07 -5.64417e-05
0.00202306 -0.000364699 1.2834e-06
-0.000364699 7.10407e-05 -2.08054e-07
1.2834e-06 -2.08054e-07 -4.23041e-06
0.00198598 -0.00057288 -2.02965e-07
-0.00057288 0.000263134 4.16118e-07
-2.02965e-07 4.16118e-07 -7.90764e-06
0.001895 -0.000480736 -9.82245e-07
-0.000480736 0.000100081 9.63117e-07
-9.82245e-07 9.63117e-07 -6.09269e-05
0.00212905 -0.000523098 3.59266e-06
-0.000523098 0.000289664 -5.00948e-06
3.59266e-06 -5.00948e-06 9.30681e-05
0.00121853 -0.000363755 -7.62806e-07
-0.000363755 0.000306673 3.73522e-07
-7.62806e-07 3.73522e-07 1.57195e-05
0.00156716 -0.000390588 2.52293e-07
-0.000390588 0.000542122 1.34384e-06
2.52293e-07 1.34384e-06 0.000219215
0.00108213 -0.000252233 7.71827e-08
-0.000252233 0.000365218 3.37291e-07
7.71827e-08 3.37291e-07 6.89036e-05
0.000319853 -6.22259e-05 -2.22856e-06
-6.22259e-05 -8.79834e-05 8.03705e-07
-2.22856e-06 8.03705e-07 -0.000213997
6.33586e-05 -7.06111e-05 -6.66854e-07
-7.06111e-05 -0.000181247 -7.687e-07
-6.66854e-07 -7.687e-07 -0.000433821
0.00189923 -6.24347e-05 5.32852e-06
-6.24347e-05 -9.47973e-06 -5.04695e-07
5.32852e-06 -5.04695e-07 -2.35678e-05
0.00198445 -0.000176921 4.46608e-06
-0.000176921 2.03002e-05 -1.01076e-06
4.46608e-06 -1.01076e-06 -6.226e-06
0.00208289 -0.000335938 1.34569e-06
-0.000335938 2.53852e-05 -4.22673e-07
1.34569e-06 -4.22673e-07 -9.48103e-06
0.00202742 -0.000422115 2.11449e-06
-0.000422115 0.000100699 -1.64455e-06
2.11449e-06 -1.64455e-06 4.49071e-06
0.00151151 -0.000460043 2.93227e-06
-0.000460043 0.000452577 -3.00025e-06
2.93227e-06 -3.00025e-06 0.000110066
0.00221055 -0.000579312 -1.74931e-06
-0.000579312 0.000206689 -4.22411e-06
-1.74931e-06 -4.22411e-06 2.58159e-05
0.00120914 -0.000602073 -7.70816e-06
-0.000602073 0.0001308 4.37351e-06
-7.70816e-06 4.37351e-06 -0.000274518
0.0019794 -0.000709168 4.33291e-06
-0.000709168 0.000348078 8.23642e-07
4.33291e-06 8.23642e-07 -3.50928e-05
0.00182547 -0.000542667 -8.63636e-06
-0.000542667 0.000156037 1.3616e-06
-8.63636e-06 1.3616e-06 -0.000100084
4.67456e-07 -1.14576e-05 -2.56078e-06
-1.14576e-05 -0.000275397 -5.97304e-06
-2.56078e-06 -5.97304e-06 -0.00037448
0.000785604 -0.000135343 -2.13309e-06
-0.000135343 0.000273786 -5.98662e-07
-2.13309e-06 -5.98662e-07 5.68432e-05
0.000964891 -0.000195859 -1.53742e-06
-0.000195859 0.000375451 -3.4976e-06
-1.53742e-06 -3.4976e-06 9.79345e-05
0.00164386 -0.000451914 -5.78815e-06
-0.000451914 0.000556448 1.72508e-06
-5.78815e-06 1.72508e-06 0.000213369
0.00101302 -0.00024099 -1.53574e-06
-0.00024099 0.000270956 7.3789e-06
-1.53574e-06 7.3789e-06 -3.07537e-05
0.00123527 -0.00039857 -7.21549e-06
-0.00039857 0.000311807 1.10668e-05
-7.21549e-06 1.10668e-05 -2.73446e-05
0.000428635 -2.77476e-05 -1.96857e-06
-2.77476e-05 -5.56944e-05 -6.78462e-06
-1.96857e-06 -6.78462e-06 -8.69289e-05
0.000578687 1.7623e-05 -1.09304e-06
1.7623e-05 6.10545e-05 -5.39852e-06
-1.09304e-06 -5.39852e-06 -3.93464e-05
0.00202273 0.000406766 -2.3017e-06
0.000406766 0.000181899 -6.21798e-07
-2.3017e-06 -6.21798e-07 -4.39383e-07
-0.000319132 7.34225e-07 5.55658e-08
7.34225e-07 -0.000436439 -2.36532e-06
5.55658e-08 -2.36532e-06 -0.000659296
0.00110161 0.000270061 -2.67492e-06
0.000270061 0.000291388 -8.2208e-07
-2.67492e-06 -8.2208e-07 5.95562e-05
0.000618426 0.000204377 1.17322e-06
0.000204377 -4.82985e-06 1.09088e-06
1.17322e-06 1.09088e-06 -0.000214205
0.00191193 0.000503159 1.18586e-06
0.000503159 0.000250648 1.09547e-06
1.18586e-06 1.09547e-06 -7.00932e-06
0.001917 0.000490067 1.84974e-06
0.000490067 0.000164437 5.9037e-07
1.84974e-06 5.9037e-07 -4.81968e-05
0.00165284 0.00046232 -7.04717e-07
0.00046232 0.000541093 -1.26019e-06
-7.04717e-07 -1.26019e-06 0.000202284
0.00214636 0.000602491 -4.37587e-06
0.000602491 0.000648554 1.76603e-06
-4.37587e-06 1.76603e-06 0.00029722
0.00195908 0.000585293 1.94959e-07
0.000585293 0.000282231 1.44833e-06
1.94959e-07 1.44833e-06 -9.57374e-06
0.000585523 2.95342e-05 -4.24098e-07
2.95342e-05 5.90927e-05 5.28253e-07
-4.24098e-07 5.28253e-07 -2.57726e-05
0.000759493 8.21434e-05 -8.64495e-07
8.21434e-05 0.000208241 2.78814e-07
-8.64495e-07 2.78814e-07 4.6841e-05
0.00119321 0.000346404 1.94781e-07
0.000346404 0.000287042 3.87982e-07
1.94781e-07 3.87982e-07 2.5086e-05
0.000980654 0.000138864 1.37065e-06
0.000138864 0.00035594 2.68911e-07
1.37065e-06 2.68911e-07 9.41195e-05
0.000654466 0.000219931 2.21133e-06
0.000219931 -4.09446e-05 4.16853e-07
2.21133e-06 4.16853e-07 -0.000238875
0.00199021 0.00042697 -2.34706e-06
0.00042697 0.000143625 -1.64158e-06
-2.34706e-06 -1.64158e-06 -2.43845e-05
0.00203098 0.000560619 1.86357e-06
0.000560619 0.000282622 6.60088e-07
1.86357e-06 6.60088e-07 2.43606e-05
0.00192349 0.000535131 7.41127e-07
0.000535131 0.000124353 1.99705e-08
7.41127e-07 1.99705e-08 -9.23777e-05
0.00129207 0.000517256 2.33839e-06
0.000517256 0.0003006 1.85294e-06
2.33839e-06 1.85294e-06 -7.67242e-05
0.00173476 0.00060249 -2.2148e-06
0.00060249 0.00029646 -1.9448e-06
-2.2148e-06 -1.9448e-06 -3.32706e-05
0.0010267 0.000105766 1.29251e-06
0.000105766 0.00036864 2.90132e-06
1.29251e-06 2.90132e-06 0.000233368
-0.000218597 -4.04801e-06 -1.95705e-06
-4.04801e-06 -0.000341327 1.48147e-06
-1.95705e-06 1.48147e-06 -0.000563194
0.00138674 0.000413881 -1.43733e-06
0.000413881 0.0003891 -1.61144e-06
-1.43733e-06 -1.61144e-06 8.36158e-05
-0.000658071 9.81125e-05 4.39904e-06
9.81125e-05 -0.00072659 -3.99613e-07
4.39904e-06 -3.99613e-07 -0.000949664
0.00238652 0.000427455 -2.47317e-06
0.000427455 0.000945384 -1.80649e-06
-2.47317e-06 -1.80649e-06 0.000703365
0.00194344 0.000461298 9.95184e-07
0.000461298 3.33692e-05 -6.77417e-07
9.95184e-07 -6.77417e-07 -0.000113595
0.00210511 0.00062127 7.83638e-06
0.00062127 0.000298911 -1.4624e-06
7.83638e-06 -1.4624e-06 1.572e-05
0.00191269 0.000564386 8.06958e-06
0.000564386 9.50689e-05 1.44017e-06
8.06958e-06 1.44017e-06 -0.000137142
0.00122051 0.000532064 9.60202e-06
0.000532064 0.000213836 1.90636e-06
9.60202e-06 1.90636e-06 -0.000164502
0.00195697 0.000680736 1.7117e-06
0.000680736 0.000434802 7.67995e-08
1.7117e-06 7.67995e-08 7.78699e-05
0.000535162 2.06455e-05 -2.16846e-06
2.06455e-05 2.06163e-05 -4.06314e-06
-2.16846e-06 -4.06314e-06 -5.11292e-05
0.00054259 6.59315e-05 1.33723e-06
6.59315e-05 5.51713e-05 4.53779e-07
1.33723e-06 4.53779e-07 -5.94729e-05
0.000295178 5.13888e-05 -4.79258e-07
5.13888e-05 -0.000107378 1.63699e-06
-4.79258e-07 1.63699e-06 -0.00021744
0.00018731 -2.11111e-05 -2.27862e-07
-2.11111e-05 -0.000163229 -2.88721e-06
-2.27862e-07 -2.88721e-06 -0.000269972
0.000601125 6.01338e-05 -3.9059e-07
6.01338e-05 0.000105149 5.44047e-08
-3.9059e-07 5.44047e-08 -7.25033e-06
0.000586674 8.87079e-05 -6.95532e-07
8.87079e-05 8.51506e-05 -1.07411e-07
-6.95532e-07 -1.07411e-07 -3.38684e-05
0.000764612 0.000129716 -3.38784e-06
0.000129716 0.000213126 -3.93943e-06
-3.38784e-06 -3.93943e-06 8.9727e-05
0.000319987 9.66206e-06 -6.23713e-07
9.66206e-06 -6.26877e-05 -9.28428e-08
-6.23713e-07 -9.28428e-08 -0.000192187
0.000674381 9.38165e-05 1.02975e-06
9.38165e-05 0.000142559 2.71157e-06
1.02975e-06 2.71157e-06 3.83996e-05
0.000568991 6.69622e-05 3.48716e-06
6.69622e-05 6.14004e-05 3.46197e-06
3.48716e-06 3.46197e-06 -7.11797e-06
0.000530676 2.00956e-05 -2.31283e-06
2.00956e-05 3.23915e-05 5.22655e-09
-2.31283e-06 5.22655e-09 -3.27472e-05
0.00123613 -1.04357e-05 1.51401e-06
-1.04357e-05 0.000439436 3.06773e-06
1.51401e-06 3.06773e-06 0.000423671
0.000445419 -6.21883e-05 1.6535e-06
-6.21883e-05 -1.77479e-05 -3.6743e-06
1.6535e-06 -3.6743e-06 -8.78311e-05
0.00129905 -2.09712e-05 -6.63922e-06
-2.09712e-05 0.000475949 -1.59397e-06
-6.63922e-06 -1.59397e-06 0.000459572
0.000768231 -2.79106e-05 2.69385e-05
-2.79106e-05 0.000143877 8.95152e-06
2.69385e-05 8.95152e-06 0.000149065
0.00134937 -3.2717e-05 -1.18006e-05
-3.2717e-05 0.000508464 -6.76339e-06
-1.18006e-05 -6.76339e-06 0.000490136
0.000764259 -4.14092e-05 1.05732e-05
-4.14092e-05 0.000144123 3.32055e-06
1.05732e-05 3.32055e-06 0.000145471
0.00247815 -0.000109957 -2.24048e-06
-0.000109957 0.00123134 -2.66104e-06
-2.24048e-06 -2.66104e-06 0.00123284
0.000338383 5.97518e-05 -3.89086e-06
5.97518e-05 -8.7038e-05 -5.73931e-06
-3.89086e-06 -5.73931e-06 -0.000122262
0.000426076 1.74669e-05 -3.37545e-06
1.74669e-05 -3.15682e-05 4.51893e-08
-3.37545e-06 4.51893e-08 -7.67008e-05
0.00289383 0.000143886 9.64145e-06
0.000143886 0.001518 -5.58184e-06
9.64145e-06 -5.58184e-06 0.00150837
0.000642804 -6.00976e-05 -9.49424e-06
-6.00976e-05 9.00776e-05 1.13735e-05
-9.49424e-06 1.13735e-05 3.38753e-05
0.00368032 0.000136633 -3.28498e-05
0.000136633 0.00200962 -3.58111e-07
-3.28498e-05 -3.58111e-07 0.00200072
0.00455526 0.000102823 -0.000153985
0.000102823 0.00255774 1.5106e-05
-0.000153985 1.5106e-05 0.00255469
0.00202091 0.000347243 -2.39658e-06
0.000347243 0.000129234 9.0015e-07
-2.39658e-06 9.0015e-07 -1.69846e-05
0.00197776 0.000191214 -2.23841e-06
0.000191214 7.35917e-05 5.23892e-07
-2.23841e-06 5.23892e-07 -6.68057e-06
0.00200356 0.000268093 -1.58805e-06
0.000268093 2.48761e-05 4.27407e-07
-1.58805e-06 4.27407e-07 -4.23489e-05
0.00191641 0.000117245 -3.70567e-06
0.000117245 -2.58075e-05 -6.016e-07
-3.70567e-06 -6.016e-07 -4.19142e-05
0.00191708 4.57509e-05 -4.0821e-06
4.57509e-05 3.02245e-05 -1.6797e-07
-4.0821e-06 -1.6797e-07 -1.57784e-05
0.00177093 5.46312e-06 -2.79812e-07
5.46312e-06 8.19742e-05 1.65148e-07
-2.79812e-07 1.65148e-07 -1.84777e-05
0.00193572 -5.38718e-06 -3.72938e-07
-5.38718e-06 5.07912e-05 -6.63364e-08
-3.72938e-07 -6.63364e-08 2.31584e-06
0.00197662 5.17497e-05 1.29401e-06
5.17497e-05 4.42054e-05 6.30914e-08
1.29401e-06 6.30914e-08 2.37651e-05
0.00203569 0.000192437 1.41385e-08
0.000192437 3.9317e-05 1.69645e-08
1.41385e-08 1.69645e-08 5.19173e-06
0.00202492 0.000120853 6.77373e-07
0.000120853 -4.10233e-07 1.71417e-07
6.77373e-07 1.71417e-07 4.11809e-06
0.00197952 0.00034011 -5.84379e-07
0.00034011 7.96696e-05 2.40196e-08
-5.84379e-07 2.40196e-08 -4.09528e-05
0.00212104 0.000283583 3.10017e-06
0.000283583 3.77964e-05 4.75185e-07
3.10017e-06 4.75185e-07 5.97444e-06
0.00192903 -1.0569e-05 5.46949e-06
-1.0569e-05 2.05865e-05 1.45796e-08
5.46949e-06 1.45796e-08 -1.93378e-06
0.00201745 5.74927e-05 1.89536e-06
5.74927e-05 -8.25178e-06 -2.74082e-07
1.89536e-06 -2.74082e-07 3.9256e-06
0.00209074 0.000189083 1.19075e-06
0.000189083 -5.37662e-07 5.63681e-07
1.19075e-06 5.63681e-07 1.73892e-06
0.0021158 0.000375504 -2.16134e-07
0.000375504 4.70474e-05 9.69952e-07
-2.16134e-07 9.69952e-07 -1.2594e-05
0.00195884 -6.24381e-05 -3.97714e-06
-6.24381e-05 7.2173e-05 1.09218e-06
-3.97714e-06 1.09218e-06 1.76003e-05
0.0019284 -0.000195605 8.1956e-07
-0.000195605 6.20289e-05 -8.12355e-07
8.1956e-07 -8.12355e-07 -2.69224e-05
0.00193132 -0.000115602 -5.03172e-06
-0.000115602 1.79402e-05 1.16876e-06
-5.03172e-06 1.16876e-06 -7.41476e-06
0.00202273 -0.000284802 -5.24461e-06
-0.000284802 6.13234e-05 1.27398e-06
-5.24461e-06 1.27398e-06 -4.76269e-06
0.000940859 -0.000305362 -6.11611e-06
-0.000305362 9.7426e-05 3.68247e-06
-6.11611e-06 3.68247e-06 -0.000168063
0.00142461 -0.000529509 1.62926e-06
-0.000529509 0.000290323 -1.44549e-06
1.62926e-06 -1.44549e-06 -7.73458e-05
0.00189004 -0.000660625 -3.38204e-06
-0.000660625 0.000330805 -2.01836e-06
-3.38204e-06 -2.01836e-06 -4.64701e-05
0.00192151 -0.000403982 -2.35923e-06
-0.000403982 0.000112418 7.14338e-07
-2.35923e-06 7.14338e-07 -3.60922e-05
0.00198484 -0.000365868 -1.08598e-06
-0.000365868 4.87913e-05 9.75457e-07
-1.08598e-06 9.75457e-07 -2.33523e-05
0.00187565 -0.000482302 6.53026e-07
-0.000482302 7.76845e-05 1.47379e-06
6.53026e-07 1.47379e-06 -8.46668e-05
0.00193663 -0.000564044 -1.67594e-06
-0.000564044 0.00025099 -3.23212e-06
-1.67594e-06 -3.23212e-06 -1.85853e-05
0.00206336 -0.000511314 1.03977e-05
-0.000511314 0.000234894 -6.49005e-06
1.03977e-05 -6.49005e-06 4.5227e-05
0.000956757 -0.000336267 -1.32917e-06
-0.000336267 0.000142383 2.27767e-06
-1.32917e-06 2.27767e-06 -0.000142783
0.00136691 -0.00037579 5.60509e-06
-0.00037579 0.000385279 -2.82285e-07
5.60509e-06 -2.82285e-07 7.1503e-05
0.000422012 -0.000185353 2.46125e-06
-0.000185353 -3.39374e-05 -6.18372e-06
2.46125e-06 -6.18372e-06 -0.000330812
0.000143903 -4.28127e-05 2.06652e-07
-4.28127e-05 -0.000197003 5.40622e-06
2.06652e-07 5.40622e-06 -0.000324922
0.000123924 -2.55908e-05 3.49344e-06
-2.55908e-05 -0.000154678 6.19034e-07
3.49344e-06 6.19034e-07 -0.000395146
0.00189372 -7.04013e-05 -7.53658e-08
-7.04013e-05 -1.6526e-05 -1.69621e-07
-7.53658e-08 -1.69621e-07 -3.19242e-05
0.00201082 -0.000178001 1.18354e-06
-0.000178001 3.46338e-05 -1.89704e-07
1.18354e-06 -1.89704e-07 7.30333e-06
0.00207146 -0.000330216 -7.24748e-07
-0.000330216 3.3305e-05 9.93788e-08
-7.24748e-07 9.93788e-08 -5.25045e-06
0.00137235 -0.000448305 -1.64976e-06
-0.000448305 0.000360436 -8.36164e-07
-1.64976e-06 -8.36164e-07 2.07754e-05
0.0014364 -0.000613155 2.95935e-06
-0.000613155 0.000264267 -1.04795e-06
2.95935e-06 -1.04795e-06 -0.000140218
0.00201638 -0.000716772 -3.94228e-08
-0.000716772 0.000379135 -9.07201e-08
-3.94228e-08 -9.07201e-08 -9.96916e-06
0.00200116 -0.000418632 2.13195e-07
-0.000418632 8.51399e-05 2.08992e-07
2.13195e-07 2.08992e-07 -1.28374e-05
0.0020609 -0.000579013 1.10796e-06
-0.000579013 0.00027442 -3.51156e-06
1.10796e-06 -3.51156e-06 1.65956e-05
0.00210776 -0.000560662 -1.21512e-06
-0.000560662 0.000175394 -3.71628e-07
-1.21512e-06 -3.71628e-07 -1.04033e-06
0.000108163 4.43549e-05 -1.83818e-06
4.43549e-05 -0.000217776 -8.0572e-07
-1.83818e-06 -8.0572e-07 -0.000309363
0.00127338 -0.000413422 2.54562e-07
-0.000413422 0.000313196 -1.29949e-06
2.54562e-07 -1.29949e-06 -1.87033e-05
0.00151073 -0.000433257 3.28852e-07
-0.000433257 0.000491111 1.71057e-06
3.28852e-07 1.71057e-06 0.000144929
0.0014347 -0.000320316 -6.59848e-07
-0.000320316 0.000551736 1.01706e-06
-6.59848e-07 1.01706e-06 0.000224234
0.00127664 -0.000194762 1.40058e-06
-0.000194762 0.000562118 -2.95015e-06
1.40058e-06 -2.95015e-06 0.000287035
0.000457454 -5.32138e-05 -8.10189e-07
-5.32138e-05 6.01654e-05 1.3644e-06
-8.10189e-07 1.3644e-06 -0.000147547
0.00201051 -9.03451e-05 2.64389e-06
-9.03451e-05 3.01886e-06 -1.6563e-07
2.64389e-06 -1.6563e-07 9.58364e-06
0.00214252 -0.000230147 7.7569e-07
-0.000230147 -5.69092e-07 -1.3535e-07
7.7569e-07 -1.3535e-07 1.49346e-05
0.0021383 -0.000402607 1.28438e-06
-0.000402607 3.16427e-05 -3.38951e-07
1.28438e-06 -3.38951e-07 1.38181e-05
0.00219358 -0.000501028 2.22033e-06
-0.000501028 0.000106245 -2.35744e-06
2.22033e-06 -2.35744e-06 2.44257e-05
0.00156666 -0.000548603 -5.45763e-06
-0.000548603 0.000441179 2.01381e-06
-5.45763e-06 2.01381e-06 5.79276e-05
0.00209446 -0.000636922 2.62838e-06
-0.000636922 0.000210331 -3.47291e-06
2.62838e-06 -3.47291e-06 -2.14743e-05
0.00186341 -0.000731785 -1.93973e-05
-0.000731785 0.000483287 4.52652e-06
-1.93973e-05 4.52652e-06 3.32819e-05
0.00236533 -0.000785115 -1.21367e-05
-0.000785115 0.000597471 8.19838e-08
-1.21367e-05 8.19838e-08 0.000186307
2.77326e-05 5.46129e-05 -5.11313e-06
5.46129e-05 -0.000273904 -2.83642e-06
-5.11313e-06 -2.83642e-06 -0.000343064
0.000714322 2.58876e-06 -2.0295e-06
2.58876e-06 0.000206963 -1.47107e-06
-2.0295e-06 -1.47107e-06 5.42178e-05
0.00156836 -0.000218137 -4.71372e-06
-0.000218137 0.000771452 4.57802e-07
-4.71372e-06 4.57802e-07 0.000518448
0.000854233 -0.000103347 -2.54978e-07
-0.000103347 0.000251201 -2.71761e-06
-2.54978e-07 -2.71761e-06 -3.81174e-05
0.00195398 -0.000540064 -6.28678e-06
-0.000540064 0.000710448 7.26205e-06
-6.28678e-06 7.26205e-06 0.000327775
0.001665 -0.00043925 -9.14259e-06
-0.00043925 0.00063455 1.91346e-05
-9.14259e-06 1.91346e-05 0.000230314
0.000497164 1.99144e-05 -1.90095e-06
1.99144e-05 5.10611e-06 -4.38141e-06
-1.90095e-06 -4.38141e-06 -7.85105e-05
2.26891e-05 2.15649e-05 1.10303e-06
2.15649e-05 -0.000265959 -1.82363e-06
1.10303e-06 -1.82363e-06 -0.000404818
0.00194153 0.000427675 -2.05773e-06
0.000427675 0.000114112 -1.05269e-06
-2.05773e-06 -1.05269e-06 -5.48358e-05
0.000278685 7.1455e-05 -8.066e-08
7.1455e-05 -9.07702e-05 1.49417e-06
-8.066e-08 1.49417e-06 -0.000337418
0.001463 0.000372929 -3.45134e-06
0.000372929 0.00045398 -1.91981e-06
-3.45134e-06 -1.91981e-06 0.000190108
-0.000423076 0.000108612 1.73559e-08
0.000108612 -0.000723131 3.82354e-06
1.73559e-08 3.82354e-06 -0.000888562
0.00203336 0.000560658 1.8111e-06
0.000560658 0.000281434 7.94821e-07
1.8111e-06 7.94821e-07 2.30072e-05
0.00198408 0.000534775 -6.65927e-06
0.000534775 0.000157688 8.52606e-08
-6.65927e-06 8.52606e-08 -5.78206e-05
0.00152658 0.000552988 -3.94434e-06
0.000552988 0.000427854 2.57178e-06
-3.94434e-06 2.57178e-06 4.55302e-05
0.00201583 0.000634514 -5.84819e-06
0.000634514 0.000479765 -9.27892e-08
-5.84819e-06 -9.27892e-08 0.000139403
0.000689833 5.86487e-05 -7.63832e-07
5.86487e-05 0.000151092 9.65691e-08
-7.63832e-07 9.65691e-08 2.60289e-05
0.000458544 6.106e-05 1.23888e-06
6.106e-05 7.61336e-05 3.58756e-07
1.23888e-06 3.58756e-07 -0.000158394
0.00132691 0.000404636 -2.34356e-06
0.000404636 0.000350046 -1.45745e-06
-2.34356e-06 -1.45745e-06 4.79061e-05
0.000148054 0.000114154 7.40663e-08
0.000114154 -0.000261783 -2.2825e-06
7.40663e-08 -2.2825e-06 -0.000472432
0.00154006 0.000345099 2.65469e-06
0.000345099 0.000412073 -3.19043e-06
2.65469e-06 -3.19043e-06 0.000187971
0.00210068 0.000473936 -2.87148e-06
0.000473936 0.000117806 -1.09939e-06
-2.87148e-06 -1.09939e-06 -2.78336e-05
0.00224032 0.000622394 2.72131e-06
0.000622394 0.00038338 -4.22658e-07
2.72131e-06 -4.22658e-07 0.00010571
0.00211992 0.000589512 2.91917e-06
0.000589512 0.000207909 2.89838e-06
2.91917e-06 2.89838e-06 -2.94103e-05
0.00136243 0.000550968 3.84721e-06
0.000550968 0.000304525 1.56528e-06
3.84721e-06 1.56528e-06 -7.98338e-05
0.0018488 0.000688874 -4.56802e-06
0.000688874 0.000370661 7.11537e-08
-4.56802e-06 7.11537e-08 2.97991e-06
-0.000452786 7.02944e-06 -2.09308e-06
7.02944e-06 -0.00054757 5.16359e-06
-2.09308e-06 5.16359e-06 -0.00067089
-0.000114168 0.000177985 2.09197e-06
0.000177985 -0.000216752 2.29441e-06
2.09197e-06 2.29441e-06 -0.000509853
0.00132288 0.000429737 2.88485e-06
0.000429737 0.000333499 -9.52499e-07
2.88485e-06 -9.52499e-07 1.08169e-05
-0.00026726 0.000151025 1.81739e-06
0.000151025 -0.000662092 -6.22006e-07
1.81739e-06 -6.22006e-07 -0.000857691
0.00225674 0.00047795 3.84038e-06
0.00047795 -6.32074e-05 2.11075e-06
3.84038e-06 2.11075e-06 -6.20781e-05
0.00274293 0.000598837 7.11238e-06
0.000598837 0.000512611 8.53095e-07
7.11238e-06 8.53095e-07 0.000317514
0.00209951 0.000700925 1.66449e-06
0.000700925 0.000326704 -3.27753e-06
1.66449e-06 -3.27753e-06 -1.00462e-05
0.00163397 0.000657058 2.07757e-06
0.000657058 0.000351096 8.18443e-07
2.07757e-06 8.18443e-07 -5.84115e-05
0.00066493 0.000104091 -9.43993e-07
0.000104091 0.000139525 -1.84782e-06
-9.43993e-07 -1.84782e-06 1.87895e-05
0.000553604 9.04596e-05 -5.85164e-07
9.04596e-05 6.61972e-05 -3.53197e-07
-5.85164e-07 -3.53197e-07 -5.53558e-05
0.0011 9.00753e-05 -6.29443e-06
9.00753e-05 0.000405836 -2.4176e-06
-6.29443e-06 -2.4176e-06 0.000300486
0.000566577 4.06831e-05 -1.33708e-06
4.06831e-05 6.22082e-05 -2.83602e-06
-1.33708e-06 -2.83602e-06 -3.48354e-05
0.000109689 3.64188e-05 5.67122e-08
3.64188e-05 -0.000209802 -9.50413e-07
5.67122e-08 -9.50413e-07 -0.000319885
0.000610736 4.89836e-05 -5.08215e-07
4.89836e-05 0.000105128 1.41195e-07
-5.08215e-07 1.41195e-07 3.25279e-07
0.000524625 0.000120766 -7.05093e-07
0.000120766 8.21788e-05 6.81627e-07
-7.05093e-07 6.81627e-07 -4.20336e-05
0.000504057 4.88225e-05 9.76341e-07
4.88225e-05 5.77916e-05 9.88656e-08
9.76341e-07 9.88656e-08 -7.75789e-05
0.000596122 9.37672e-05 3.35554e-06
9.37672e-05 9.12661e-05 -1.55002e-06
3.35554e-06 -1.55002e-06 3.78096e-06
0.000757032 7.30891e-06 3.18033e-06
7.30891e-06 0.000213914 -4.3409e-06
3.18033e-06 -4.3409e-06 8.38154e-05
0.000282649 6.49467e-05 1.66988e-07
6.49467e-05 -8.1739e-05 1.99229e-06
1.66988e-07 1.99229e-06 -0.000213431
0.00067056 0.000106915 2.4945e-06
0.000106915 0.000143352 3.39775e-06
2.4945e-06 3.39775e-06 3.44371e-05
0.000474124 7.35756e-05 3.37177e-06
7.35756e-05 9.74047e-06 3.45751e-06
3.37177e-06 3.45751e-06 -6.53997e-05
0.000475278 1.289e-05 -1.53348e-06
1.289e-05 2.4925e-06 -2.73664e-07
-1.53348e-06 -2.73664e-07 -6.48368e-05
0.00120455 4.86404e-06 1.52697e-06
4.86404e-06 0.000425387 2.79206e-06
1.52697e-06 2.79206e-06 0.000409712
0.000472113 -4.39009e-05 -1.12264e-07
-4.39009e-05 -4.75597e-06 -3.07276e-06
-1.12264e-07 -3.07276e-06 -6.91189e-05
0.00129205 -7.45128e-06 -6.07831e-06
-7.45128e-06 0.000474351 -1.6603e-06
-6.07831e-06 -1.6603e-06 0.000459087
0.000754294 -1.79801e-05 2.43953e-05
-1.79801e-05 0.000136517 9.00426e-06
2.43953e-05 9.00426e-06 0.000142602
0.00133971 -2.02757e-05 -1.02973e-05
-2.02757e-05 0.000501473 -6.50478e-06
-1.02973e-05 -6.50478e-06 0.000485473
0.000752834 -3.09697e-05 9.19317e-06
-3.09697e-05 0.000132997 3.38491e-06
9.19317e-06 3.38491e-06 0.000136933
0.000717617 -4.17555e-05 9.34924e-10
-4.17555e-05 0.000114568 -2.92561e-06
9.34924e-10 -2.92561e-06 0.000115322
0.000409139 4.13797e-05 -1.41423e-06
4.13797e-05 -6.42435e-05 -3.93005e-06
-1.41423e-06 -3.93005e-06 -8.61646e-05
0.000419112 7.2574e-05 -2.89119e-07
7.2574e-05 -3.13676e-05 3.06703e-07
-2.89119e-07 3.06703e-07 -7.09734e-05
0.00246694 0.000112157 1.06917e-05
0.000112157 0.00124134 -4.73473e-06
1.06917e-05 -4.73473e-06 0.00124053
0.000503947 2.08046e-05 -4.89348e-06
2.08046e-05 2.15663e-05 9.49183e-06
-4.89348e-06 9.49183e-06 -2.7634e-05
0.00301431 0.000149633 -7.81824e-06
0.000149633 0.00159343 -8.82822e-07
-7.81824e-06 -8.82822e-07 0.00158226
0.00383605 8.34142e-05 -0.000127479
8.34142e-05 0.00210144 1.11429e-05
-0.000127479 1.11429e-05 0.00210523
0.00198111 0.000338741 -1.00516e-06
0.000338741 9.11646e-05 7.89593e-07
-1.00516e-06 7.89593e-07 -3.03072e-05
0.0020407 0.000190735 -5.1255e-06
0.000190735 4.49521e-05 -9.67997e-07
-5.1255e-06 -9.67997e-07 1.09021e-05
0.00205643 0.000284791 -4.59876e-07
0.000284791 -6.12136e-06 -4.72452e-07
-4.59876e-07 -4.72452e-07 -3.15588e-05
0.00198611 0.000121919 -2.03737e-06
0.000121919 -2.98049e-05 -4.65738e-07
-2.03737e-06 -4.65738e-07 -2.07772e-05
0.00198802 5.26658e-05 -5.09778e-06
5.26658e-05 5.55497e-05 -4.6876e-07
-5.09778e-06 -4.6876e-07 3.13778e-05
0.00194623 -7.88376e-06 -4.90328e-06
-7.88376e-06 6.1148e-05 6.34458e-07
-4.90328e-06 6.34458e-07 1.19341e-05
0.00193192 -8.44123e-06 -1.63801e-07
-8.44123e-06 2.25625e-05 -7.40967e-08
-1.63801e-07 -7.40967e-08 1.36339e-06
0.0020226 6.01872e-05 1.12306e-06
6.01872e-05 1.6595e-07 1.97262e-07
1.12306e-06 1.97262e-07 1.03479e-05
0.00209289 0.000195035 1.04871e-06
0.000195035 2.58467e-06 2.14679e-07
1.04871e-06 2.14679e-07 5.70078e-06
0.00212244 0.000367783 6.55291e-07
0.000367783 4.36037e-05 2.31008e-07
6.55291e-07 2.31008e-07 -1.58171e-05
0.00200039 -1.46288e-05 1.03389e-06
-1.46288e-05 -3.81105e-06 -1.71575e-07
1.03389e-06 -1.71575e-07 1.76345e-06
0.00215191 0.000110665 -9.19125e-08
0.000110665 -3.26174e-05 -5.14469e-07
-9.19125e-08 -5.14469e-07 1.52172e-05
0.00230212 0.000296889 2.34893e-06
0.000296889 2.60716e-05 8.95745e-07
2.34893e-06 8.95745e-07 3.7608e-05
0.00188682 -7.84499e-05 -5.01481e-06
-7.84499e-05 -2.47507e-05 5.89064e-07
-5.01481e-06 5.89064e-07 -4.12627e-05
0.00203246 -0.000178594 -3.44143e-06
-0.000178594 4.64699e-05 4.84495e-07
-3.44143e-06 4.84495e-07 1.8466e-05
0.00205641 -0.000323959 -2.8491e-06
-0.000323959 3.96414e-05 6.26611e-07
-2.8491e-06 6.26611e-07 -3.20677e-06
0.00123883 -0.00043476 -5.12581e-06
-0.00043476 0.000274613 1.09741e-06
-5.12581e-06 1.09741e-06 -6.11895e-05
0.00147866 -0.000599507 1.16459e-05
-0.000599507 0.000292935 -4.65634e-06
1.16459e-05 -4.65634e-06 -0.000103907
0.00183679 -0.000701614 -3.65679e-06
-0.000701614 0.000288969 4.11117e-07
-3.65679e-06 4.11117e-07 -0.000100542
0.00197478 -0.000415012 -1.83725e-06
-0.000415012 6.94725e-05 1.31791e-06
-1.83725e-06 1.31791e-06 -3.01539e-05
0.00200578 -0.000540429 2.69278e-06
-0.000540429 0.000148699 1.93022e-06
2.69278e-06 1.93022e-06 -2.30967e-05
0.00216353 -0.000604636 8.97382e-06
-0.000604636 0.000323709 -7.20818e-06
8.97382e-06 -7.20818e-06 6.55044e-05
0.00120394 -0.000400991 -8.2551e-08
-0.000400991 0.000274134 -3.16431e-07
-8.2551e-08 -3.16431e-07 -5.25233e-05
0.000877586 -0.000366148 -1.81837e-06
-0.000366148 0.000113269 -8.16e-06
-1.81837e-06 -8.16e-06 -0.000215338
0.00182415 -0.000400945 -3.63705e-07
-0.000400945 0.000823185 -6.08488e-06
-3.63705e-07 -6.08488e-06 0.000467246
0.000310653 4.5309e-05 3.14987e-06
4.5309e-05 -9.49265e-05 2.22852e-06
3.14987e-06 2.22852e-06 -0.000183284
0.0013363 -0.000205605 3.13144e-06
-0.000205605 0.000575084 3.63605e-06
3.13144e-06 3.63605e-06 0.000319125
-6.71975e-05 2.02092e-05 5.35811e-06
2.02092e-05 -0.00027727 1.32422e-06
5.35811e-06 1.32422e-06 -0.000472658
0.00202184 -8.89639e-05 -5.05074e-07
-8.89639e-05 9.19545e-06 1.30613e-07
-5.05074e-07 1.30613e-07 1.38042e-05
0.00210929 -0.000236748 1.13067e-07
-0.000236748 -2.36646e-05 -8.62605e-08
1.13067e-07 -8.62605e-08 -6.88166e-06
0.00212293 -0.000395968 -6.79414e-07
-0.000395968 2.93611e-05 2.78297e-07
-6.79414e-07 2.78297e-07 8.05771e-06
0.00149585 -0.000534505 -1.02002e-06
-0.000534505 0.000412206 4.49391e-07
-1.02002e-06 4.49391e-07 3.31751e-05
0.00129479 -0.000660999 3.09993e-06
-0.000660999 0.000156273 -1.79201e-06
3.09993e-06 -1.79201e-06 -0.00027704
0.00235155 -0.000773086 -4.85648e-06
-0.000773086 0.00058163 1.4394e-07
-4.85648e-06 1.4394e-07 0.00018463
0.0021393 -0.000507279 5.73875e-07
-0.000507279 7.59115e-05 -5.42034e-07
5.73875e-07 -5.42034e-07 -1.2283e-05
0.00202471 -0.000622764 1.84561e-06
-0.000622764 0.000179289 -2.2335e-06
1.84561e-06 -2.2335e-06 -4.68185e-05
0.000297052 5.90667e-05 -1.3655e-06
5.90667e-05 -0.000108652 -1.20418e-06
-1.3655e-06 -1.20418e-06 -0.000173732
0.000642496 -1.87774e-05 -8.5387e-07
-1.87774e-05 0.000156967 4.5218e-07
-8.5387e-07 4.5218e-07 8.55134e-06
0.000899717 -0.00042481 -4.00767e-06
-0.00042481 6.73196e-05 2.31535e-06
-4.00767e-06 2.31535e-06 -0.000281321
0.00144897 -0.000387011 2.54214e-07
-0.000387011 0.000528042 -7.47493e-07
2.54214e-07 -7.47493e-07 0.00012903
0.00145502 -0.000180682 -4.40975e-07
-0.000180682 0.000624845 -2.3843e-06
-4.40975e-07 -2.3843e-06 0.00032845
0.000870255 -0.000157215 -5.82945e-07
-0.000157215 0.000330512 1.28529e-06
-5.82945e-07 1.28529e-06 8.6004e-05
0.00210087 -0.000122614 -1.39201e-06
-0.000122614 -3.93501e-05 2.84647e-07
-1.39201e-06 2.84647e-07 4.64235e-06
0.00223668 -0.000338843 -1.74289e-06
-0.000338843 -5.54454e-05 1.00649e-06
-1.74289e-06 1.00649e-06 6.19126e-06
0.00221542 -0.000472196 2.56825e-06
-0.000472196 3.94656e-05 -2.37177e-07
2.56825e-06 -2.37177e-07 2.80805e-05
0.00240544 -0.000670792 7.89438e-06
-0.000670792 0.000234127 -3.10764e-06
7.89438e-06 -3.10764e-06 8.19808e-05
0.000574008 -0.000480036 -1.55144e-07
-0.000480036 -0.000145278 -6.14337e-06
-1.55144e-07 -6.14337e-06 -0.000533062
0.00253268 -0.000835272 2.65391e-06
-0.000835272 0.000602248 7.90156e-06
2.65391e-06 7.90156e-06 0.000226958
0.00227964 -0.000838608 -2.1918e-05
-0.000838608 0.000672032 -3.7257e-06
-2.1918e-05 -3.7257e-06 0.000179499
0.000558983 4.65815e-05 8.78858e-09
4.65815e-05 3.67548e-05 -3.4791e-07
8.78858e-09 -3.4791e-07 -1.2032e-05
0.000677766 -0.000138968 4.04009e-06
-0.000138968 0.000162811 -1.4995e-06
4.04009e-06 -1.4995e-06 5.95167e-05
0.000249707 7.28472e-05 -7.23388e-06
7.28472e-05 -0.000100838 -7.53021e-07
-7.23388e-06 -7.53021e-07 -0.000205833
0.000771256 -5.10867e-05 -3.324e-06
-5.10867e-05 0.000260542 2.31428e-06
-3.324e-06 2.31428e-06 6.20062e-05
0.000187269 -0.000105717 2.52751e-06
-0.000105717 -0.000137019 -6.01672e-06
2.52751e-06 -6.01672e-06 -0.000378606
-0.000499378 -7.05875e-05 3.7971e-06
-7.05875e-05 -0.000546316 -1.76746e-06
3.7971e-06 -1.76746e-06 -0.000911145
0.0015315 -0.00052207 -2.48235e-05
-0.00052207 0.000453835 1.80256e-05
-2.48235e-05 1.80256e-05 9.46758e-05
0.00260789 -0.000496223 -2.47213e-05
-0.000496223 0.00138986 1.39616e-05
-2.47213e-05 1.39616e-05 0.000784005
0.000586253 2.50704e-05 -6.04841e-07
2.50704e-05 7.9154e-05 -1.80706e-06
-6.04841e-07 -1.80706e-06 -3.62955e-05
0.000780111 0.000172771 -8.85478e-07
0.000172771 0.000269217 2.21988e-07
-8.85478e-07 2.21988e-07 2.64367e-05
0.00225771 0.000486685 -3.03884e-06
0.000486685 0.00020311 -1.69173e-06
-3.03884e-06 -1.69173e-06 5.86022e-05
0.000472443 0.000186677 -4.59614e-06
0.000186677 -4.12185e-05 2.66077e-06
-4.59614e-06 2.66077e-06 -0.000274998
0.00114717 0.000383556 -3.19966e-06
0.000383556 0.000235782 3.10217e-07
-3.19966e-06 3.10217e-07 -6.23061e-05
0.00111382 0.000297337 -5.77246e-06
0.000297337 0.000136999 -7.90002e-06
-5.77246e-06 -7.90002e-06 -7.66939e-05
0.0023477 0.000618971 -6.43901e-06
0.000618971 0.000454591 -6.79452e-07
-6.43901e-06 -6.79452e-07 0.000183798
0.002315 0.000612982 -1.11396e-05
0.000612982 0.000315696 4.56489e-06
-1.11396e-05 4.56489e-06 7.38556e-05
0.00163186 0.000588754 -3.40915e-06
0.000588754 0.000467311 7.13006e-07
-3.40915e-06 7.13006e-07 7.44717e-05
0.0016612 0.000689948 -3.55915e-06
0.000689948 0.000257399 -8.31302e-07
-3.55915e-06 -8.31302e-07 -0.000118837
-9.93387e-05 5.79162e-05 4.18534e-07
5.79162e-05 -0.000324546 1.39396e-06
4.18534e-07 1.39396e-06 -0.000461674
0.000118588 0.000203357 -5.49817e-07
0.000203357 -7.92591e-05 -3.15612e-06
-5.49817e-07 -3.15612e-06 -0.00037014
0.00156461 0.000466858 1.4768e-06
0.000466858 0.000466419 -2.18574e-07
1.4768e-06 -2.18574e-07 0.000134049
0.00116604 0.00029073 -1.98405e-06
0.00029073 0.000235012 1.64526e-06
-1.98405e-06 1.64526e-06 1.35424e-05
0.00228876 0.000461858 7.12703e-07
0.000461858 -5.80184e-05 -7.16319e-07
7.12703e-07 -7.16319e-07 -5.19815e-05
0.00255936 0.000595687 3.37902e-06
0.000595687 0.000406318 3.08191e-07
3.37902e-06 3.08191e-07 0.000206003
0.00203214 0.000681974 -9.71853e-07
0.000681974 0.000296192 3.09997e-07
-9.71853e-07 3.09997e-07 -3.3044e-05
0.00173718 0.000665429 8.02069e-07
0.000665429 0.000394438 3.52854e-07
8.02069e-07 3.52854e-07 -1.09891e-05
-0.000211437 4.56714e-05 -1.2243e-06
4.56714e-05 -0.000397136 4.95198e-06
-1.2243e-06 4.95198e-06 -0.000541993
0.00220273 0.00035933 9.65562e-06
0.00035933 -0.000162348 3.5854e-06
9.65562e-06 3.5854e-06 -9.56933e-05
0.00239152 0.000460402 7.23042e-06
0.000460402 0.00125876 8.18026e-06
7.23042e-06 8.18026e-06 0.000938032
0.00130258 0.000455801 2.04939e-06
0.000455801 0.000250349 -5.24447e-07
2.04939e-06 -5.24447e-07 -5.94714e-05
0.0025995 0.000577766 -1.56868e-05
0.000577766 0.000271801 -7.99857e-06
-1.56868e-05 -7.99857e-06 0.000184069
0.0011629 0.00063406 -1.11873e-06
0.00063406 -0.000300961 -8.22867e-06
-1.11873e-06 -8.22867e-06 -0.000610822
0.00253341 0.000777763 9.19738e-07
0.000777763 0.000794895 4.05187e-06
9.19738e-07 4.05187e-06 0.000361246
0.000803829 0.000108865 -1.29686e-06
0.000108865 0.000221165 -1.98763e-06
-1.29686e-06 -1.98763e-06 9.81532e-05
0.000642008 0.000103089 -3.10468e-06
0.000103089 0.000136463 -1.11511e-06
-3.10468e-06 -1.11511e-06 2.46481e-05
0.0016028 0.000111396 -3.66979e-06
0.000111396 0.000737121 -1.72779e-06
-3.66979e-06 -1.72779e-06 0.00065163
0.000514955 6.4953e-06 2.54691e-07
6.4953e-06 4.80651e-05 -3.44427e-06
2.54691e-07 -3.44427e-06 -5.78678e-05
0.000707922 8.20137e-05 2.03237e-06
8.20137e-05 0.000188338 -6.86143e-07
2.03237e-06 -6.86143e-07 4.84044e-05
-9.47727e-05 6.63036e-05 -1.64743e-06
6.63036e-05 -0.000281469 4.2201e-06
-1.64743e-06 4.2201e-06 -0.000396089
0.000560431 2.04909e-05 -1.31533e-06
2.04909e-05 8.19676e-05 5.69744e-09
-1.31533e-06 5.69744e-09 -3.05352e-05
0.000325719 -1.55199e-05 -9.97977e-07
-1.55199e-05 -4.15422e-05 -1.3374e-08
-9.97977e-07 -1.3374e-08 -0.000180019
9.34498e-05 4.28495e-05 4.43875e-07
4.28495e-05 -0.000200009 8.53557e-07
4.43875e-07 8.53557e-07 -0.00027753
0.000797043 8.52926e-05 9.15689e-07
8.52926e-05 0.00025224 -1.0812e-06
9.15689e-07 -1.0812e-06 0.000109517
0.00155828 0.000117322 -3.81627e-07
0.000117322 0.000677155 -2.25136e-06
-3.81627e-07 -2.25136e-06 0.000625269
0.00046915 1.6925e-05 9.29581e-06
1.6925e-05 2.46609e-05 -5.12198e-06
9.29581e-06 -5.12198e-06 -6.41085e-05
0.000274951 9.31524e-05 3.6496e-07
9.31524e-05 -6.53241e-05 2.17472e-06
3.6496e-07 2.17472e-06 -0.000214513
0.000589482 4.70246e-05 1.95694e-06
4.70246e-05 0.000120425 3.1397e-06
1.95694e-06 3.1397e-06 -3.38033e-05
0.000584777 3.50054e-05 2.79437e-06
3.50054e-05 8.94054e-05 3.08921e-06
2.79437e-06 3.08921e-06 -2.46709e-05
0.000481078 -5.37086e-05 -2.19034e-07
-5.37086e-05 1.24982e-05 3.22335e-06
-2.19034e-07 3.22335e-06 -6.40654e-05
0.000500162 8.36616e-06 1.13151e-07
8.36616e-06 1.86851e-05 -3.17095e-07
1.13151e-07 -3.17095e-07 -5.11435e-05
0.00128419 2.39788e-05 2.94559e-06
2.39788e-05 0.000483236 2.94592e-06
2.94559e-06 2.94592e-06 0.000465025
0.000502374 -2.12781e-06 -2.68787e-08
-2.12781e-06 1.14008e-05 -3.20485e-06
-2.68787e-08 -3.20485e-06 -5.05458e-05
0.00129934 8.52693e-06 -5.51099e-06
8.52693e-06 0.000484731 -1.67986e-06
-5.51099e-06 -1.67986e-06 0.000468835
0.000747687 -1.011e-05 1.95257e-05
-1.011e-05 0.000136565 8.75064e-06
1.95257e-05 8.75064e-06 0.00014261
0.00134526 -1.01169e-05 -7.8992e-06
-1.01169e-05 0.000507425 -6.43751e-06
-7.8992e-06 -6.43751e-06 0.000492382
0.000775818 -2.15414e-05 6.97518e-06
-2.15414e-05 0.000147168 3.44539e-06
6.97518e-06 3.44539e-06 0.000152235
0.000749596 -3.19679e-05 1.82013e-08
-3.19679e-05 0.000128949 -2.75356e-06
1.82013e-08 -2.75356e-06 0.000132494
0.000648171 -7.04072e-06 1.55493e-06
-7.04072e-06 8.76663e-05 -1.61622e-06
1.55493e-06 -1.61622e-06 4.10214e-05
0.000439244 2.8259e-05 -1.10042e-07
2.8259e-05 -5.68374e-05 -3.55206e-06
-1.10042e-07 -3.55206e-06 -7.23614e-05
0.000449758 4.55265e-05 4.29485e-07
4.55265e-05 -3.65984e-05 2.52453e-07
4.29485e-07 2.52453e-07 -6.00126e-05
0.00224665 8.7353e-05 1.33741e-05
8.7353e-05 0.00109281 -4.33105e-06
1.33741e-05 -4.33105e-06 0.00109885
0.00049422 6.66681e-05 5.79815e-06
6.66681e-05 1.11678e-05 7.49697e-06
5.79815e-06 7.49697e-06 -2.7149e-05
0.00264274 0.000120675 -5.36837e-06
0.000120675 0.00135246 -5.68873e-07
-5.36837e-06 -5.68873e-07 0.00134961
0.00321377 0.000120277 -4.3381e-05
0.000120277 0.0017093 5.35444e-06
-4.3381e-05 5.35444e-06 0.00170449
0.0021259 0.000360472 -1.29222e-07
0.000360472 3.77235e-05 -5.06473e-07
-1.29222e-07 -5.06473e-07 -2.11719e-05
0.00209304 0.000200731 -1.94812e-06
0.000200731 5.80334e-06 -4.81565e-07
-1.94812e-06 -4.81565e-07 9.1351e-06
0.0020248 6.40109e-05 -1.93825e-06
6.40109e-05 7.39431e-06 -5.22683e-08
-1.93825e-06 -5.22683e-08 1.55851e-05
0.00193456 -6.23987e-06 -5.04e-06
-6.23987e-06 2.47124e-05 -2.99323e-08
-5.04e-06 -2.99323e-08 4.60796e-06
0.00199695 -9.64922e-06 -9.20482e-07
-9.64922e-06 -8.08761e-06 -2.73916e-08
-9.20482e-07 -2.73916e-08 2.56903e-07
0.00212833 0.000103588 -8.05352e-08
0.000103588 -3.77525e-05 1.61441e-07
-8.05352e-08 1.61441e-07 7.32502e-06
0.00223709 0.000303061 -1.1766e-06
0.000303061 -4.16387e-06 4.63621e-08
-1.1766e-06 4.63621e-08 7.77238e-06
0.00210624 -1.05879e-05 -1.31992e-06
-1.05879e-05 -5.41549e-05 -4.60531e-07
-1.31992e-06 -4.60531e-07 8.85977e-07
0.00231422 0.000156905 5.24916e-06
0.000156905 -4.5486e-05 -8.68417e-07
5.24916e-06 -8.68417e-07 1.07922e-05
0.00249038 0.000108445 9.18229e-06
0.000108445 0.000142415 1.23728e-05
9.18229e-06 1.23728e-05 0.000215596
0.00203211 -8.79847e-05 -2.36304e-06
-8.79847e-05 1.50387e-05 2.89152e-07
-2.36304e-06 2.89152e-07 1.75744e-05
0.00208212 -0.000244823 -1.13205e-06
-0.000244823 -4.38075e-05 6.95304e-08
-1.13205e-06 6.95304e-08 -2.58404e-05
0.00211123 -0.000388953 -9.7184e-07
-0.000388953 2.9018e-05 -9.04203e-08
-9.7184e-07 -9.04203e-08 5.22756e-06
0.00145449 -0.000532206 2.22162e-06
-0.000532206 0.000386215 -1.03548e-06
2.22162e-06 -1.03548e-06 6.59015e-06
0.00169748 -0.000700572 1.25448e-05
-0.000700572 0.000391021 -3.80887e-07
1.25448e-05 -3.80887e-07 -5.00219e-05
0.00192821 -0.000710113 2.89889e-06
-0.000710113 0.000346148 -6.5309e-07
2.89889e-06 -6.5309e-07 -2.83417e-05
0.0020638 -0.000511077 -3.89672e-07
-0.000511077 3.40369e-05 2.77271e-06
-3.89672e-07 2.77271e-06 -5.9945e-05
0.00191347 -0.000604423 -3.00344e-06
-0.000604423 0.000128694 1.75265e-07
-3.00344e-06 1.75265e-07 -9.16903e-05
0.000678208 -0.000397477 -1.89359e-07
-0.000397477 -6.65322e-05 -1.14486e-05
-1.89359e-07 -1.14486e-05 -0.000409852
0.00194638 -0.000416829 1.73384e-05
-0.000416829 0.000879848 -1.30186e-05
1.73384e-05 -1.30186e-05 0.000460929
0.00127692 -0.00011434 -1.19643e-06
-0.00011434 0.000485887 3.1843e-06
-1.19643e-06 3.1843e-06 0.000212744
0.000458185 1.79074e-05 2.54678e-06
1.79074e-05 -9.64971e-06 8.73402e-07
2.54678e-06 8.73402e-07 -7.05069e-05
0.000765261 3.71401e-05 5.91314e-06
3.71401e-05 0.000230165 2.08408e-06
5.91314e-06 2.08408e-06 8.1869e-05
0.000456607 -0.000106476 7.17809e-07
-0.000106476 6.43808e-05 5.55199e-06
7.17809e-07 5.55199e-06 -0.000175533
0.00211038 -0.000125508 5.92976e-07
-0.000125508 -4.1835e-05 -5.7956e-08
5.92976e-07 -5.7956e-08 4.4258e-06
0.000500032 1.14165e-05 1.64038e-06
1.14165e-05 3.67588e-07 2.8111e-07
1.64038e-06 2.8111e-07 -4.82091e-05
0.000413786 -7.07294e-05 -2.14298e-06
-7.07294e-05 -3.10937e-05 -5.37764e-07
-2.14298e-06 -5.37764e-07 -0.000115454
0.00221788 -0.000328602 -2.14899e-07
-0.000328602 -4.55643e-05 1.67124e-07
-2.14899e-07 1.67124e-07 8.05037e-06
0.00215991 -0.00046181 -1.70202e-06
-0.00046181 1.17942e-05 2.17954e-07
-1.70202e-06 2.17954e-07 7.59974e-06
0.00183292 -0.000631391 -1.47303e-06
-0.000631391 0.000582426 1.58923e-06
-1.47303e-06 1.58923e-06 0.000160156
0.00185932 -0.000784935 5.07282e-06
-0.000784935 0.000457253 1.16709e-06
5.07282e-06 1.16709e-06 -3.07992e-05
0.00192919 -0.000769576 3.82117e-06
-0.000769576 0.000254716 -4.47762e-06
3.82117e-06 -4.47762e-06 -0.000103907
0.00221236 -0.000652926 2.92389e-06
-0.000652926 0.000128341 -1.23178e-06
2.92389e-06 -1.23178e-06 -1.76462e-05
0.000643296 6.74078e-06 -6.49108e-07
6.74078e-06 0.000155639 -1.11e-06
-6.49108e-07 -1.11e-06 4.53692e-05
0.000761604 -4.47738e-05 7.68636e-07
-4.47738e-05 0.000255775 1.89883e-06
7.68636e-07 1.89883e-06 5.61767e-05
0.0015291 -0.000507254 3.78193e-06
-0.000507254 0.000465769 2.89286e-06
3.78193e-06 2.89286e-06 9.46405e-05
0.0012879 -0.000373294 1.15216e-05
-0.000373294 0.000563603 -6.55223e-06
1.15216e-05 -6.55223e-06 4.69049e-05
0.000813977 -0.000110381 -1.87085e-06
-0.000110381 0.000197036 -1.20893e-06
-1.87085e-06 -1.20893e-06 -0.000125863
0.000409929 -7.67566e-05 8.34701e-07
-7.67566e-05 1.01203e-05 -1.82978e-06
8.34701e-07 -1.82978e-06 -0.000242521
0.00213122 -0.000145435 1.58807e-06
-0.000145435 -0.000155654 -1.05973e-06
1.58807e-06 -1.05973e-06 -9.23327e-05
0.00220878 -0.000420835 -1.24523e-06
-0.000420835 -0.000192759 3.01673e-06
-1.24523e-06 3.01673e-06 -1.04602e-05
0.00237912 -0.000632751 -3.3614e-06
-0.000632751 8.11155e-05 6.88852e-07
-3.3614e-06 6.88852e-07 4.13892e-05
0.0024091 -0.000849805 1.0308e-05
-0.000849805 0.000326164 -3.71944e-06
1.0308e-05 -3.71944e-06 0.000100684
0.00118938 -0.000593309 -3.43113e-07
-0.000593309 0.000249028 -1.58333e-05
-3.43113e-07 -1.58333e-05 -0.000183156
0.00276621 -0.000971464 -7.47435e-06
-0.000971464 0.00087368 1.08319e-05
-7.47435e-06 1.08319e-05 0.000347147
0.000160877 4.81087e-05 -2.35694e-06
4.81087e-05 -0.00017874 -4.70842e-06
-2.35694e-06 -4.70842e-06 -0.000271225
0.000574938 -4.89345e-05 4.45436e-06
-4.89345e-05 7.41375e-05 4.15425e-07
4.45436e-06 4.15425e-07 -6.41345e-06
0.00116164 -0.000147746 -1.20413e-06
-0.000147746 0.000416665 1.0077e-05
-1.20413e-06 1.0077e-05 0.000308276
0.000523117 2.28918e-05 -3.80099e-06
2.28918e-05 8.49349e-05 3.80604e-06
-3.80099e-06 3.80604e-06 -7.13201e-05
0.000745475 -8.94435e-05 -3.54312e-06
-8.94435e-05 0.000223507 6.98093e-06
-3.54312e-06 6.98093e-06 1.45263e-05
0.000907968 -5.15253e-05 8.24891e-06
-5.15253e-05 0.000230501 -9.22378e-06
8.24891e-06 -9.22378e-06 -1.05209e-05
-0.00105803 -0.000234292 2.15793e-06
-0.000234292 -0.000547483 -1.39576e-06
2.15793e-06 -1.39576e-06 -0.0012872
-1.71645e-05 -0.000487769 -4.50545e-05
-0.000487769 -0.000508708 1.59696e-05
-4.50545e-05 1.59696e-05 -0.000846963
0.000493895 6.53621e-05 -8.83006e-07
6.53621e-05 5.68199e-05 -1.74884e-06
-8.83006e-07 -1.74884e-06 -0.000103061
0.000852522 0.000233966 -1.02241e-05
0.000233966 0.000351584 -5.9373e-06
-1.02241e-05 -5.9373e-06 6.86924e-05
0.00231203 0.000445488 -7.84939e-06
0.000445488 -5.00814e-05 -3.49221e-06
-7.84939e-06 -3.49221e-06 -4.14523e-05
0.00242936 0.000595469 -7.61877e-06
0.000595469 0.000333831 -3.95183e-07
-7.61877e-06 -3.95183e-07 0.000127868
0.00254999 0.000398594 -7.04466e-06
0.000398594 0.00107515 -1.23267e-06
-7.04466e-06 -1.23267e-06 0.000843079
0.00165645 0.000484297 -4.65239e-06
0.000484297 0.000512706 -4.35151e-06
-4.65239e-06 -4.35151e-06 0.000174289
0.0020161 0.000669185 -3.23737e-06
0.000669185 0.000292826 1.44191e-06
-3.23737e-06 1.44191e-06 -3.05797e-05
0.0018702 0.000674457 -3.44506e-06
0.000674457 0.000457202 -1.67264e-06
-3.44506e-06 -1.67264e-06 5.51935e-05
0.000435117 9.7143e-05 9.90364e-07
9.7143e-05 2.34595e-05 -1.24402e-06
9.90364e-07 -1.24402e-06 -0.000150714
0.0023648 0.000343444 -2.39229e-06
0.000343444 -6.14484e-05 -1.7897e-06
-2.39229e-06 -1.7897e-06 9.66179e-06
0.00140915 0.000311503 1.13883e-06
0.000311503 0.000627725 1.90627e-06
1.13883e-06 1.90627e-06 0.000348188
0.00154814 0.000478636 2.4451e-06
0.000478636 0.00042406 1.06002e-06
2.4451e-06 1.06002e-06 0.000103585
0.00256475 0.000573446 1.81732e-06
0.000573446 0.000263612 4.27992e-07
1.81732e-06 4.27992e-07 0.000176438
0.00164787 0.000674134 -1.64159e-06
0.000674134 -1.66177e-05 -4.67281e-06
-1.64159e-06 -4.67281e-06 -0.00033013
0.00207716 0.000720359 4.1658e-07
0.000720359 0.00054549 5.31935e-07
4.1658e-07 5.31935e-07 0.000121509
0.00118148 0.000249846 -3.68869e-06
0.000249846 0.00054054 4.35784e-06
-3.68869e-06 4.35784e-06 0.000305918
0.00335936 0.000479923 -7.71193e-05
0.000479923 0.000546494 -2.11288e-05
-7.71193e-05 -2.11288e-05 0.000658971
0.0015433 0.000468548 -4.38923e-06
0.000468548 0.000621944 3.78962e-06
-4.38923e-06 3.78962e-06 0.000304988
0.00153679 0.000558066 -1.48712e-06
0.000558066 0.000340915 -4.5448e-06
-1.48712e-06 -4.5448e-06 -4.205e-05
0.00200919 0.00072942 -3.09619e-05
0.00072942 4.40527e-05 -1.86397e-05
-3.09619e-05 -1.86397e-05 -0.000167129
0.00111665 0.000636953 -2.14856e-05
0.000636953 -5.20893e-05 -2.12932e-06
-2.14856e-05 -2.12932e-06 -0.000444602
0.000395699 0.000716031 2.53214e-05
0.000716031 -0.00157802 -3.89177e-05
2.53214e-05 -3.89177e-05 -0.00135556
8.45131e-05 0.000116499 2.55137e-06
0.000116499 -0.000183248 -1.01562e-06
2.55137e-06 -1.01562e-06 -0.000303195
0.000540891 0.000115651 -4.59982e-07
0.000115651 0.000127451 1.10319e-06
-4.59982e-07 1.10319e-06 3.25565e-05
0.00209192 0.000166927 1.81619e-06
0.000166927 0.00103298 -1.88811e-06
1.81619e-06 -1.88811e-06 0.000949693
0.000447862 -6.39179e-05 3.52979e-07
-6.39179e-05 2.11413e-05 -3.9153e-06
3.52979e-07 -3.9153e-06 -9.50384e-05
0.000479272 -4.37173e-05 -8.24124e-07
-4.37173e-05 5.14937e-05 -9.93054e-07
-8.24124e-07 -9.93054e-07 -8.44127e-05
0.000985627 0.000175724 1.89176e-08
0.000175724 0.000373621 1.03727e-06
1.89176e-08 1.03727e-06 0.000219025
-0.000207924 1.69591e-05 -5.03092e-06
1.69591e-05 -0.00036519 1.17983e-05
-5.03092e-06 1.17983e-05 -0.000441009
0.000539328 -1.45739e-05 -3.79811e-07
-1.45739e-05 7.74788e-05 -8.88316e-08
-3.79811e-07 -8.88316e-08 -4.52968e-05
0.000493906 6.43916e-05 1.37001e-07
6.43916e-05 4.22096e-05 -6.4936e-07
1.37001e-07 -6.4936e-07 -9.67337e-05
0.000960618 9.65874e-05 2.79057e-06
9.65874e-05 0.000307218 4.43145e-06
2.79057e-06 4.43145e-06 0.000251799
0.000565012 6.05489e-05 1.5472e-06
6.05489e-05 9.82607e-05 8.09682e-07
1.5472e-06 8.09682e-07 -4.39182e-05
0.000675657 4.27415e-05 -1.49544e-06
4.27415e-05 0.000144434 -2.06888e-06
-1.49544e-06 -2.06888e-06 4.75765e-05
0.00164844 0.00012319 -1.78378e-06
0.00012319 0.000748523 -1.08104e-05
-1.78378e-06 -1.08104e-05 0.000696531
0.000851412 0.000127578 -2.39083e-06
0.000127578 0.00024329 -2.21847e-06
-2.39083e-06 -2.21847e-06 9.88861e-05
0.000950348 0.000127127 1.53971e-06
0.000127127 0.0003269 1.26583e-06
1.53971e-06 1.26583e-06 0.000176791
0.000875101 8.47412e-05 4.26475e-07
8.47412e-05 0.000299671 1.73849e-06
4.26475e-07 1.73849e-06 0.000131335
0.000305367 -2.4469e-05 1.10533e-07
-2.4469e-05 -8.59654e-05 3.11356e-06
1.10533e-07 3.11356e-06 -0.000206359
0.0010052 -6.50017e-05 6.49585e-09
-6.50017e-05 0.000413692 -1.31801e-06
6.49585e-09 -1.31801e-06 0.00023663
0.000229872 -3.84811e-05 -1.62899e-06
-3.84811e-05 -0.000129355 3.05014e-06
-1.62899e-06 3.05014e-06 -0.000254581
0.000468499 3.67819e-06 -1.88544e-06
3.67819e-06 9.93568e-06 3.33718e-06
-1.88544e-06 3.33718e-06 -7.17368e-05
0.000486278 3.67343e-05 2.4314e-06
3.67343e-05 1.83501e-05 -1.47501e-07
2.4314e-06 -1.47501e-07 -6.06601e-05
0.000393454 2.15545e-05 4.0548e-07
2.15545e-05 -6.60673e-05 4.43035e-06
4.0548e-07 4.43035e-06 -8.88054e-05
0.000450172 7.02283e-06 -3.06613e-06
7.02283e-06 -5.07131e-06 -3.53798e-06
-3.06613e-06 -3.53798e-06 -7.9736e-05
0.00088578 1.60869e-05 -3.29082e-06
1.60869e-05 0.000234663 -1.55893e-06
-3.29082e-06 -1.55893e-06 0.000215061
0.00259038 -6.42062e-06 1.72851e-05
-6.42062e-06 0.00128771 5.46037e-06
1.72851e-05 5.46037e-06 0.00130081
0.0013865 1.75398e-05 -8.86084e-06
1.75398e-05 0.000539895 -6.45287e-06
-8.86084e-06 -6.45287e-06 0.000523453
0.000770152 -1.17937e-05 5.87191e-06
-1.17937e-05 0.000147137 3.37693e-06
5.87191e-06 3.37693e-06 0.000152807
0.00078789 -2.21096e-05 4.9807e-07
-2.21096e-05 0.000151616 -2.61421e-06
4.9807e-07 -2.61421e-06 0.000156541
0.000508802 1.42343e-05 -2.06346e-06
1.42343e-05 8.43264e-06 -2.38377e-06
-2.06346e-06 -2.38377e-06 -3.90695e-05
0.000558787 -2.07753e-05 8.63068e-07
-2.07753e-05 3.47913e-05 -3.34528e-07
8.63068e-07 -3.34528e-07 -1.30892e-05
0.000510959 2.29378e-05 8.77287e-08
2.29378e-05 -1.66712e-05 -3.5529e-06
8.77287e-08 -3.5529e-06 -2.95136e-05
0.000801371 3.74465e-05 -1.53984e-07
3.74465e-05 0.000171066 9.78242e-08
-1.53984e-07 9.78242e-08 0.000156782
0.00215272 6.87466e-05 1.04463e-05
6.87466e-05 0.00102597 -4.39514e-06
1.04463e-05 -4.39514e-06 0.00103628
0.000496876 5.33446e-05 4.48158e-06
5.33446e-05 -3.13136e-06 5.27049e-06
4.48158e-06 5.27049e-06 -2.9247e-05
0.00234336 9.33226e-05 -2.8963e-06
9.33226e-05 0.00115466 -2.73528e-07
-2.8963e-06 -2.73528e-07 0.0011592
0.00274527 0.00012758 -7.40216e-07
0.00012758 0.00141765 6.43711e-06
-7.40216e-07 6.43711e-06 0.00141312
0.00218555 0.000309656 -2.35101e-06
0.000309656 -2.89885e-05 -1.09722e-06
-2.35101e-06 -1.09722e-06 -1.58462e-05
0.00210215 9.81474e-05 1.36821e-06
9.81474e-05 -4.58776e-05 6.15388e-07
1.36821e-06 6.15388e-07 -2.50263e-06
0.00199726 -5.49488e-06 -1.21474e-06
-5.49488e-06 -1.03761e-05 -3.50858e-08
-1.21474e-06 -3.50858e-08 7.27758e-07
0.00209692 -7.28181e-06 1.3839e-07
-7.28181e-06 -5.88541e-05 -2.09103e-07
1.3839e-07 -2.09103e-07 -4.03091e-06
0.00229664 0.000161932 -3.76675e-07
0.000161932 -4.06149e-05 4.28022e-07
-3.76675e-07 4.28022e-07 1.47851e-05
0.00218425 8.53678e-05 8.00451e-06
8.53678e-05 -6.36935e-05 -5.12121e-06
8.00451e-06 -5.12121e-06 5.63594e-06
0.00232703 -4.72785e-06 1.71455e-06
-4.72785e-06 -8.31909e-05 -1.26545e-06
1.71455e-06 -1.26545e-06 8.26315e-06
0.00438622 0.000733152 4.96177e-05
0.000733152 -0.000385103 1.01104e-05
4.96177e-05 1.01104e-05 0.000195105
0.0025987 6.45533e-05 -2.59091e-05
6.45533e-05 0.000354737 2.9895e-05
-2.59091e-05 2.9895e-05 0.000542692
0.000488595 0.000105853 -2.58704e-06
0.000105853 3.67301e-05 -1.19694e-06
-2.58704e-06 -1.19694e-06 -5.4276e-05
0.00211678 -0.000126534 5.81395e-07
-0.000126534 -4.6089e-05 -2.40699e-07
5.81395e-07 -2.40699e-07 2.64019e-06
0.00219054 -0.000317847 1.82338e-06
-0.000317847 -4.11272e-05 -7.91317e-07
1.82338e-06 -7.91317e-07 3.84088e-06
0.00211262 -0.000453968 -4.9063e-07
-0.000453968 -1.26856e-05 1.67554e-07
-4.9063e-07 1.67554e-07 -1.0306e-05
0.000937722 -0.000534987 -7.47725e-06
-0.000534987 5.63883e-05 7.8552e-06
-7.47725e-06 7.8552e-06 -0.000341852
0.00220971 -0.000820896 1.28045e-05
-0.000820896 0.000648417 8.16726e-06
1.28045e-05 8.16726e-06 0.000157041
0.00161858 -0.000737712 -1.0199e-05
-0.000737712 6.88586e-05 -7.32516e-06
-1.0199e-05 -7.32516e-06 -0.000280045
0.00216009 -0.000647668 -5.87165e-06
-0.000647668 0.000102592 8.97731e-07
-5.87165e-06 8.97731e-07 -4.10697e-05
0.00168058 -0.000501144 2.963e-05
-0.000501144 0.000510196 -2.5601e-05
2.963e-05 -2.5601e-05 0.000160926
0.000916015 -0.000333039 2.40031e-05
-0.000333039 0.000306221 -2.23484e-05
2.40031e-05 -2.23484e-05 -0.000145335
0.00112613 -8.38476e-05 1.55623e-06
-8.38476e-05 0.000352633 4.52768e-06
1.55623e-06 4.52768e-06 6.18106e-05
0.000501639 9.61687e-06 1.60537e-06
9.61687e-06 1.84643e-06 1.07303e-06
1.60537e-06 1.07303e-06 -4.70001e-05
0.00121162 -7.67059e-05 7.14231e-07
-7.67059e-05 0.000513581 5.72096e-06
7.14231e-07 5.72096e-06 0.000242278
0.000925331 -2.57142e-05 6.62311e-06
-2.57142e-05 0.00034593 -1.0619e-06
6.62311e-06 -1.0619e-06 0.000229505
0.000699875 -4.15876e-05 2.411e-06
-4.15876e-05 0.00020876 -9.53335e-07
2.411e-06 -9.53335e-07 1.41025e-05
0.000159196 -4.2537e-05 -3.57408e-06
-4.2537e-05 -0.000197832 1.48539e-07
-3.57408e-06 1.48539e-07 -0.000278163
0.00219512 -0.000162641 -5.00594e-07
-0.000162641 -0.000148221 -4.32143e-08
-5.00594e-07 -4.32143e-08 -6.00337e-05
0.000352956 2.56453e-05 2.9695e-07
2.56453e-05 -4.59477e-05 -2.27079e-06
2.9695e-07 -2.27079e-06 -0.000144474
0.000584382 -5.61563e-05 2.48951e-06
-5.61563e-05 9.51582e-05 9.73105e-07
2.48951e-06 9.73105e-07 5.65114e-06
0.0008787 -0.000120868 2.91065e-06
-0.000120868 0.000238057 2.16552e-07
2.91065e-06 2.16552e-07 0.000138922
0.00222759 -0.00043148 1.9599e-06
-0.00043148 -0.000161269 -6.60116e-07
1.9599e-06 -6.60116e-07 -1.45755e-05
0.00228485 -0.000627887 4.95195e-07
-0.000627887 2.88177e-05 -1.0149e-06
4.95195e-07 -1.0149e-06 -1.11312e-05
0.000447616 -0.000444893 7.1759e-06
-0.000444893 -0.00017672 4.25353e-11
7.1759e-06 4.25353e-11 -0.000551169
0.00255817 -0.000955771 1.50886e-05
-0.000955771 0.000745436 1.70443e-07
1.50886e-05 1.70443e-07 0.000236004
0.00230151 -0.000841084 -1.12458e-06
-0.000841084 0.000284375 2.21936e-06
-1.12458e-06 2.21936e-06 4.7712e-05
0.00028027 -3.08625e-05 -1.06482e-06
-3.08625e-05 -6.73855e-05 -1.12731e-07
-1.06482e-06 -1.12731e-07 -0.00021318
0.000959182 -0.000107296 -9.79331e-07
-0.000107296 0.000371187 2.87226e-06
-9.79331e-07 2.87226e-06 0.000142604
0.00151766 -0.000662853 -3.22159e-06
-0.000662853 0.000398161 1.79199e-06
-3.22159e-06 1.79199e-06 -1.85457e-05
0.000220856 -0.000189343 -4.62894e-07
-0.000189343 1.27672e-05 9.52762e-08
-4.62894e-07 9.52762e-08 -0.00056217
0.00117905 -0.000110063 1.0517e-06
-0.000110063 0.000412167 5.0935e-06
1.0517e-06 5.0935e-06 0.00016684
0.00263483 -0.000307244 -5.59624e-06
-0.000307244 0.000110552 -2.74491e-07
-5.59624e-06 -2.74491e-07 0.000207247
0.0020063 -0.000475079 -1.67264e-05
-0.000475079 -0.000273079 7.61747e-06
-1.67264e-05 7.61747e-06 -6.10452e-05
0.00215893 -0.000766341 -6.7719e-06
-0.000766341 6.51912e-05 1.1591e-06
-6.7719e-06 1.1591e-06 -0.000105632
0.00412482 -0.00110046 -1.22915e-05
-0.00110046 0.00143081 -1.73838e-06
-1.22915e-05 -1.73838e-06 0.00109937
0.000416085 -0.000581777 -2.19973e-05
-0.000581777 -0.000223888 -6.29766e-06
-2.19973e-05 -6.29766e-06 -0.000639362
0.000103608 -2.76731e-05 4.75314e-07
-2.76731e-05 -0.000196388 -5.26081e-07
4.75314e-07 -5.26081e-07 -0.000303644
0.000689604 1.72962e-05 -1.99521e-06
1.72962e-05 0.000108763 8.39961e-06
-1.99521e-06 8.39961e-06 9.57141e-06
-0.00133095 -9.90861e-05 -4.45564e-06
-9.90861e-05 -0.00112925 -1.52416e-06
-4.45564e-06 -1.52416e-06 -0.00120566
0.00193671 -0.000259512 -1.65527e-05
-0.000259512 0.000981036 1.93583e-05
-1.65527e-05 1.93583e-05 0.000784469
0.000868662 -9.02671e-05 -5.10711e-06
-9.02671e-05 0.000291004 2.15773e-05
-5.10711e-06 2.15773e-05 8.06663e-05
-0.0014745 -0.000112857 4.22179e-06
-0.000112857 -0.000599376 6.32583e-07
4.22179e-06 6.32583e-07 -0.00131766
0.000139647 -0.000756957 -1.50448e-05
-0.000756957 -7.54155e-05 3.60952e-06
-1.50448e-05 3.60952e-06 -0.000723879
0.00153265 0.000188974 -2.3883e-06
0.000188974 0.000711338 -7.14262e-06
-2.3883e-06 -7.14262e-06 0.000507548
-0.000210937 9.42541e-05 -4.62291e-06
9.42541e-05 -0.000398228 -2.45047e-06
-4.62291e-06 -2.45047e-06 -0.000621094
0.00248866 0.000318697 3.63279e-06
0.000318697 6.07449e-06 1.08234e-06
3.63279e-06 1.08234e-06 9.24667e-05
0.00249503 0.000567255 1.39223e-05
0.000567255 0.000229368 6.22494e-06
1.39223e-05 6.22494e-06 0.000146781
0.00210069 0.000710642 9.65593e-06
0.000710642 0.000249081 3.42813e-06
9.65593e-06 3.42813e-06 -6.69221e-05
0.00153201 0.000473002 -1.94392e-06
0.000473002 0.000434734 4.18759e-07
-1.94392e-06 4.18759e-07 0.000110629
0.00167207 0.000670322 6.17017e-07
0.000670322 0.000326221 1.97364e-06
6.17017e-07 1.97364e-06 -8.83004e-05
0.00192085 0.000263508 2.90285e-07
0.000263508 0.000944949 -8.72169e-08
2.90285e-07 -8.72169e-08 0.000729032
0.0026771 0.000390364 4.01896e-06
0.000390364 0.000189337 2.34727e-06
4.01896e-06 2.34727e-06 0.000329389
0.00120954 0.000379926 -3.15404e-06
0.000379926 0.000388781 2.02409e-06
-3.15404e-06 2.02409e-06 0.000107832
0.00169691 0.000581385 3.25357e-06
0.000581385 0.000471521 -2.18098e-07
3.25357e-06 -2.18098e-07 7.07125e-05
0.00222531 0.000731445 -3.30184e-06
0.000731445 0.000173854 -3.39203e-06
-3.30184e-06 -3.39203e-06 -2.29994e-05
0.00178696 0.000719237 -4.48785e-06
0.000719237 0.000329235 5.03366e-06
-4.48785e-06 5.03366e-06 -8.19479e-05
0.00308959 0.0010047 4.6153e-05
0.0010047 -0.000420454 7.07324e-06
4.6153e-05 7.07324e-06 -0.000364831
0.000699205 0.000269681 -4.03457e-06
0.000269681 0.000251264 3.06636e-06
-4.03457e-06 3.06636e-06 1.2989e-05
0.00290422 0.000717482 -8.44692e-05
0.000717482 0.000427337 -3.70358e-05
-8.44692e-05 -3.70358e-05 0.000382479
0.000803289 0.000392805 -5.74169e-06
0.000392805 -1.05244e-05 2.69417e-06
-5.74169e-06 2.69417e-06 -0.000316536
2.5368e-05 0.000434812 1.10392e-06
0.000434812 -0.000519163 -1.37901e-05
1.10392e-06 -1.37901e-05 -0.000894228
0.0010295 0.000746088 -3.37414e-05
0.000746088 -0.000277908 -1.14351e-05
-3.37414e-05 -1.14351e-05 -0.000522874
0.0142248 0.000361467 -0.000447687
0.000361467 0.00235954 -5.05436e-05
-0.000447687 -5.05436e-05 0.00172312
0.00409222 0.0015672 -3.63004e-05
0.0015672 -0.00149688 -8.18195e-05
-3.63004e-05 -8.18195e-05 -0.000511553
3.83912e-05 0.00111654 3.55083e-06
0.00111654 -0.000966271 -8.46333e-07
3.55083e-06 -8.46333e-07 -0.00122637
0.000816875 -0.00194811 0.00132708
-0.00194811 0.00143993 0.000285977
0.00132708 0.000285977 -0.00157211
0.019806 -0.00755462 -1.90717e-05
-0.00755462 0.00719001 7.6408e-05
-1.90717e-05 7.6408e-05 0.00552784
-0.000268193 0.000108707 7.43581e-06
0.000108707 -0.000333382 1.82012e-06
7.43581e-06 1.82012e-06 -0.000436115
0.00109327 0.000119718 -1.31915e-07
0.000119718 0.000467386 -2.52651e-06
-1.31915e-07 -2.52651e-06 0.000385438
0.00208962 0.00024903 1.12465e-06
0.00024903 0.00109395 -2.37071e-07
1.12465e-06 -2.37071e-07 0.000983311
0.000504808 -5.58283e-05 -9.56936e-07
-5.58283e-05 6.53966e-05 -2.84178e-06
-9.56936e-07 -2.84178e-06 -6.23883e-05
0.000352117 6.245e-05 -1.22561e-06
6.245e-05 -4.62742e-05 -2.82878e-06
-1.22561e-06 -2.82878e-06 -0.000185512
0.000791299 -1.61778e-05 5.34916e-08
-1.61778e-05 0.000238518 -9.11681e-07
5.34916e-08 -9.11681e-07 9.26718e-05
0.000704472 6.75867e-05 -4.18578e-06
6.75867e-05 0.000155514 9.13429e-06
-4.18578e-06 9.13429e-06 5.34109e-05
0.0002976 7.06759e-05 3.5241e-06
7.06759e-05 -0.000102694 8.8919e-06
3.5241e-06 8.8919e-06 -0.000160738
0.000693815 0.000132431 -1.6657e-06
0.000132431 0.000193048 -4.27787e-07
-1.6657e-06 -4.27787e-07 2.53192e-05
0.000416464 -7.8227e-06 4.44386e-07
-7.8227e-06 -8.08991e-06 9.4094e-07
4.44386e-07 9.4094e-07 -0.00013298
0.000695753 4.72597e-05 -5.74838e-07
4.72597e-05 0.000180715 -3.4074e-08
-5.74838e-07 -3.4074e-08 2.03725e-05
0.000413524 8.21027e-05 -1.36909e-06
8.21027e-05 -1.4749e-05 -6.08622e-07
-1.36909e-06 -6.08622e-07 -6.61649e-05
0.000671182 0.000110233 -1.37777e-06
0.000110233 0.000145238 -2.11307e-07
-1.37777e-06 -2.11307e-07 3.81704e-06
0.00165072 0.00019848 -1.68103e-06
0.00019848 0.000777339 -8.40374e-07
-1.68103e-06 -8.40374e-07 0.000598245
0.000289947 9.9287e-05 6.65035e-07
9.9287e-05 -2.23671e-05 -2.57738e-06
6.65035e-07 -2.57738e-06 -0.000176851
0.000907149 0.000106309 2.96826e-06
0.000106309 0.000311538 1.52345e-07
2.96826e-06 1.52345e-07 0.000151481
0.000454749 -2.27536e-05 1.49629e-06
-2.27536e-05 1.46587e-05 5.87923e-07
1.49629e-06 5.87923e-07 -0.000141584
0.00033871 -6.96791e-05 -1.08766e-06
-6.96791e-05 -5.88864e-05 2.7857e-06
-1.08766e-06 2.7857e-06 -0.00018851
0.000747596 -3.03843e-05 -9.42192e-07
-3.03843e-05 0.000211966 -5.86541e-07
-9.42192e-07 -5.86541e-07 5.01316e-05
0.00118644 7.45202e-06 2.64433e-08
7.45202e-06 0.000476084 -8.90103e-06
2.64433e-08 -8.90103e-06 0.000321394
0.000656217 -4.27391e-05 -1.53618e-06
-4.27391e-05 0.000189873 -3.75557e-07
-1.53618e-06 -3.75557e-07 3.73689e-05
0.000773728 -5.97507e-05 1.91229e-06
-5.97507e-05 0.000242876 -6.18036e-07
1.91229e-06 -6.18036e-07 8.4775e-05
0.000661487 -0.000120285 -2.17346e-06
-0.000120285 0.000148245 2.55658e-06
-2.17346e-06 2.55658e-06 1.92458e-05
0.00030934 -2.39926e-05 9.97316e-08
-2.39926e-05 -7.64027e-05 1.15747e-06
9.97316e-08 1.15747e-06 -0.000205246
0.000506733 -5.22134e-05 -2.07936e-06
-5.22134e-05 2.4202e-05 3.67435e-06
-2.07936e-06 3.67435e-06 -5.22698e-05
0.000506689 -3.59749e-05 1.89022e-06
-3.59749e-05 3.1108e-05 8.06247e-08
1.89022e-06 8.06247e-08 -4.92868e-05
0.000458093 3.3433e-06 2.42228e-06
3.3433e-06 -2.30417e-05 6.40199e-06
2.42228e-06 6.40199e-06 -4.71121e-05
0.000523326 4.80755e-05 -1.89091e-06
4.80755e-05 3.56472e-05 -3.53313e-06
-1.89091e-06 -3.53313e-06 -3.9655e-05
0.000418344 2.99242e-05 4.01416e-07
2.99242e-05 -4.90162e-05 7.2487e-08
4.01416e-07 7.2487e-08 -7.26594e-05
0.00252287 3.56894e-06 3.89154e-06
3.56894e-06 0.00124773 5.37049e-06
3.89154e-06 5.37049e-06 0.00126046
0.000484473 3.51055e-05 -3.29829e-06
3.51055e-05 -1.29604e-05 -7.0467e-06
-3.29829e-06 -7.0467e-06 -3.68046e-05
0.00170199 -6.13771e-06 -2.65717e-06
-6.13771e-06 0.000732594 1.58322e-07
-2.65717e-06 1.58322e-07 0.00074104
0.000801602 -1.1977e-05 5.36316e-07
-1.1977e-05 0.00016257 -2.30702e-06
5.36316e-07 -2.30702e-06 0.000168356
0.000463522 1.58384e-06 -2.12252e-07
1.58384e-06 -2.19693e-05 -1.74375e-06
-2.12252e-07 -1.74375e-06 -6.24193e-05
0.000547646 -3.64172e-05 9.63977e-08
-3.64172e-05 3.56168e-05 -8.5571e-09
9.63977e-08 -8.5571e-09 -1.39039e-05
0.000531507 1.26833e-05 7.9076e-07
1.26833e-05 -5.9458e-06 -3.32285e-06
7.9076e-07 -3.32285e-06 -1.61155e-05
0.000484447 -3.43729e-05 -1.60181e-06
-3.43729e-05 -1.10426e-05 6.15274e-07
-1.60181e-06 6.15274e-07 -5.90906e-05
0.000799645 2.73701e-05 -1.62023e-07
2.73701e-05 0.000164422 -7.24813e-07
-1.62023e-07 -7.24813e-07 0.0001537
0.0019984 5.0848e-05 6.89832e-06
5.0848e-05 0.000923209 -4.4998e-06
6.89832e-06 -4.4998e-06 0.000937227
0.000472123 3.29302e-05 6.95211e-07
3.29302e-05 -3.4951e-05 3.62113e-06
6.95211e-07 3.62113e-06 -5.14189e-05
0.00225224 7.35481e-05 -5.99695e-06
7.35481e-05 0.00109093 1.13043e-06
-5.99695e-06 1.13043e-06 0.00110005
0.00246112 0.000100493 -4.25737e-06
0.000100493 0.00123017 5.28883e-06
-4.25737e-06 5.28883e-06 0.001233
0.00226602 0.000168431 -3.06583e-06
0.000168431 -4.23728e-05 -1.04833e-06
-3.06583e-06 -1.04833e-06 1.24983e-05
0.00209044 -6.61615e-06 1.5039e-06
-6.61615e-06 -6.13141e-05 2.21866e-08
1.5039e-06 2.21866e-08 -7.03626e-06
0.00198401 6.19554e-05 -3.67317e-06
6.19554e-05 -0.000211832 1.98082e-06
-3.67317e-06 1.98082e-06 -0.000145916
0.00252151 0.000541995 8.544e-05
0.000541995 -0.00128557 1.85182e-05
8.544e-05 1.85182e-05 -0.000681403
0.00231075 -3.05818e-05 -7.37498e-07
-3.05818e-05 -7.20897e-05 -2.65177e-06
-7.37498e-07 -2.65177e-06 1.94924e-05
0.00219851 6.28721e-05 7.02646e-07
6.28721e-05 0.000126204 -9.16264e-06
7.02646e-07 -9.16264e-06 0.000255156
0.00328079 -3.83708e-05 -2.48807e-05
-3.83708e-05 0.000883341 1.42909e-06
-2.48807e-05 1.42909e-06 0.000899173
0.00311888 4.64753e-05 -1.23048e-05
4.64753e-05 -0.0017742 -2.78425e-05
-1.23048e-05 -2.78425e-05 -0.000836037
0.00261064 0.000191051 0.000114442
0.000191051 -0.000706978 5.33523e-05
0.000114442 5.33523e-05 -0.00022406
0.000586176 8.54795e-05 -3.78801e-07
8.54795e-05 9.94658e-05 -6.51973e-07
-3.78801e-07 -6.51973e-07 9.04765e-06
0.000581326 -4.08828e-06 5.11529e-07
-4.08828e-06 0.00010587 -1.12129e-07
5.11529e-07 -1.12129e-07 7.2564e-06
0.000394644 -9.42038e-05 -5.87401e-06
-9.42038e-05 -2.48035e-07 3.27121e-07
-5.87401e-06 3.27121e-07 -0.000113753
0.000447247 -5.50494e-05 -3.68741e-06
-5.50494e-05 4.10392e-05 2.2087e-06
-3.68741e-06 2.2087e-06 -7.42444e-05
0.00227716 -0.000181937 -3.57188e-06
-0.000181937 -0.000122413 4.2922e-07
-3.57188e-06 4.2922e-07 -1.68601e-05
0.00223309 -0.000437195 1.27278e-06
-0.000437195 -0.000131541 -2.41885e-06
1.27278e-06 -2.41885e-06 -1.88931e-05
0.00219735 -0.000620224 -3.66502e-06
-0.000620224 -1.73985e-05 1.60134e-07
-3.66502e-06 1.60134e-07 -5.6944e-05
0.00352065 -0.000791914 1.32977e-05
-0.000791914 0.00158418 1.10738e-05
1.32977e-05 1.10738e-05 0.00114932
0.000462206 -0.000730419 -7.09639e-07
-0.000730419 -0.000419314 -2.46223e-06
-7.09639e-07 -2.46223e-06 -0.000884884
0.00217745 -0.0008304 1.64025e-06
-0.0008304 0.000231447 -2.93728e-06
1.64025e-06 -2.93728e-06 -1.24385e-05
0.00133472 -0.000686021 1.30975e-05
-0.000686021 0.000270226 -1.41611e-05
1.30975e-05 -1.41611e-05 -0.000183222
0.00359746 -0.000284993 8.56155e-06
-0.000284993 0.00177573 -3.29765e-06
8.56155e-06 -3.29765e-06 0.00139089
-3.2458e-05 -2.05335e-05 -4.68629e-06
-2.05335e-05 -0.000390244 5.23256e-06
-4.68629e-06 5.23256e-06 -0.000589625
0.000645354 -5.26093e-05 3.0981e-06
-5.26093e-05 0.000133215 -2.45674e-07
3.0981e-06 -2.45674e-07 4.44932e-05
0.000598341 -0.000120291 -2.25546e-06
-0.000120291 0.000161317 -9.94635e-06
-2.25546e-06 -9.94635e-06 -7.36143e-05
0.000531905 -2.73864e-05 4.73131e-06
-2.73864e-05 9.04178e-05 -6.70318e-07
4.73131e-06 -6.70318e-07 -5.42945e-05
0.000622339 1.24061e-06 5.6087e-07
1.24061e-06 0.000146396 1.83868e-06
5.6087e-07 1.83868e-06 3.57411e-05
0.0005507 -6.22313e-05 -7.64319e-06
-6.22313e-05 3.25213e-05 4.97478e-07
-7.64319e-06 4.97478e-07 -5.33688e-05
0.00258783 -0.000290163 1.84605e-06
-0.000290163 9.318e-05 1.30582e-06
1.84605e-06 1.30582e-06 0.000206037
0.000520973 -2.6129e-05 -4.63917e-07
-2.6129e-05 8.11489e-05 1.47122e-06
-4.63917e-07 1.47122e-06 -4.53556e-05
0.000837984 -3.40104e-05 6.11342e-06
-3.40104e-05 0.000214247 -1.46096e-07
6.11342e-06 -1.46096e-07 0.000105115
-0.000312463 -2.69265e-05 2.6859e-06
-2.69265e-05 -0.000454047 3.25218e-07
2.6859e-06 3.25218e-07 -0.000515379
0.00198844 -0.000485692 5.60038e-07
-0.000485692 -0.000309448 -1.21753e-06
5.60038e-07 -1.21753e-06 -0.000108264
0.00223081 -0.000770582 2.16468e-06
-0.000770582 0.000101822 -1.24872e-06
2.16468e-06 -1.24872e-06 -6.1945e-05
0.00181951 -0.000781381 -3.40042e-06
-0.000781381 0.000553018 -4.20119e-08
-3.40042e-06 -4.20119e-08 0.000106014
0.00256836 -0.000955129 -6.21998e-06
-0.000955129 0.000580321 1.67888e-06
-6.21998e-06 1.67888e-06 0.000264431
0.00141491 -0.000141688 1.47686e-06
-0.000141688 0.00063544 -1.51405e-06
1.47686e-06 -1.51405e-06 0.000450788
0.000254534 -3.3921e-05 6.53796e-06
-3.3921e-05 -0.00011104 6.16442e-06
6.53796e-06 6.16442e-06 -0.000314732
0.00168406 -0.000940016 3.22325e-06
-0.000940016 0.000846585 -2.50283e-06
3.22325e-06 -2.50283e-06 0.000145516
0.000983454 -0.000357024 -5.66843e-06
-0.000357024 0.000407296 -9.62958e-07
-5.66843e-06 -9.62958e-07 -8.05733e-05
0.00327262 -0.000419964 -3.90301e-05
-0.000419964 0.000392363 1.84256e-06
-3.90301e-05 1.84256e-06 0.000639221
0.0024706 -0.000627844 -4.19445e-05
-0.000627844 0.000157488 1.34863e-05
-4.19445e-05 1.34863e-05 0.00021948
0.00244644 -0.000895169 1.05264e-06
-0.000895169 0.00039991 -5.60213e-06
1.05264e-06 -5.60213e-06 9.64561e-05
0.00284435 -0.000928273 -2.548e-06
-0.000928273 0.000940213 2.6085e-06
-2.548e-06 2.6085e-06 0.000620099
0.000197912 -4.37183e-05 -1.64687e-06
-4.37183e-05 -7.21674e-05 -7.14028e-06
-1.64687e-06 -7.14028e-06 -0.000193866
0.000484449 -0.000122575 -9.12505e-06
-0.000122575 5.55396e-05 -7.18672e-06
-9.12505e-06 -7.18672e-06 -0.000111708
7.67809e-05 -0.000169198 -5.74738e-06
-0.000169198 7.32008e-05 4.21222e-05
-5.74738e-06 4.21222e-05 -0.000241189
-0.000936428 -0.000714609 -5.02645e-06
-0.000714609 -3.84417e-05 -2.62164e-05
-5.02645e-06 -2.62164e-05 -0.00103471
0.00227793 -0.000472303 5.05777e-05
-0.000472303 -0.004989 -9.94024e-06
5.05777e-05 -9.94024e-06 -0.0050263
0.00213832 0.000252993 -1.35375e-06
0.000252993 0.00106011 -4.92922e-06
-1.35375e-06 -4.92922e-06 0.00084823
0.00116343 0.000330262 -1.17739e-06
0.000330262 0.000351676 -5.96066e-07
-1.17739e-06 -5.96066e-07 9.04441e-05
0.0019128 0.000322554 6.19633e-05
0.000322554 -0.000232604 1.85704e-05
6.19633e-05 1.85704e-05 -7.17311e-05
0.00252515 0.000741624 2.43029e-05
0.000741624 0.000347901 9.85711e-06
2.43029e-05 9.85711e-06 0.000161127
0.00210414 0.000759083 8.65615e-06
0.000759083 0.000520136 1.07804e-05
8.65615e-06 1.07804e-05 9.64446e-05
0.00122516 0.000530706 5.00411e-06
0.000530706 0.000225393 6.48507e-06
5.00411e-06 6.48507e-06 -0.000177973
0.0051974 0.00127683 0.000121064
0.00127683 0.00038603 4.11018e-05
0.000121064 4.11018e-05 0.000237967
0.00160533 0.000303808 4.99904e-06
0.000303808 0.000784076 -1.47588e-07
4.99904e-06 -1.47588e-07 0.000556392
0.00257258 0.000670635 -2.16949e-05
0.000670635 0.000239135 6.73853e-07
-2.16949e-05 6.73853e-07 0.000223616
0.00091001 0.000406959 -4.15938e-06
0.000406959 9.0194e-05 3.10818e-06
-4.15938e-06 3.10818e-06 -0.000223903
0.00142831 0.000615901 1.15184e-06
0.000615901 0.000293809 -5.94888e-06
1.15184e-06 -5.94888e-06 -0.000117141
0.00206902 0.00083551 -1.12904e-05
0.00083551 0.000275606 -4.32418e-07
-1.12904e-05 -4.32418e-07 1.06208e-06
0.00448033 -0.0006428 -0.000160677
-0.0006428 -0.0043921 -7.5931e-05
-0.000160677 -7.5931e-05 -0.00533191
0.00715054 0.00158084 -0.00012425
0.00158084 -2.27937e-05 -6.17654e-05
-0.00012425 -6.17654e-05 0.000703223
0.000935744 0.00111159 -5.19754e-06
0.00111159 -0.000454297 7.03754e-06
-5.19754e-06 7.03754e-06 -0.000804762
3.69864e-05 -0.00173001 0.000478554
-0.00173001 0.00260438 0.000196047
0.000478554 0.000196047 -0.000182433
0.0114948 -0.00759496 -0.000439889
-0.00759496 0.00521282 -0.000406705
-0.000439889 -0.000406705 0.00342606
0.00103674 0.00026625 -1.44033e-05
0.00026625 0.000364638 1.27527e-06
-1.44033e-05 1.27527e-06 0.000160545
0.000932658 0.000541998 0.000671848
0.000541998 0.00384099 7.45091e-05
0.000671848 7.45091e-05 0.00192467
0.00298721 -0.00262515 -0.000170659
-0.00262515 0.00514146 -0.000225852
-0.000170659 -0.000225852 0.000528102
0.00276145 0.0010415 -4.91528e-05
0.0010415 0.000463463 -1.37362e-05
-4.91528e-05 -1.37362e-05 0.000307075
0.000855689 0.000324799 -2.46201e-05
0.000324799 7.07977e-05 -4.27077e-06
-2.46201e-05 -4.27077e-06 -0.000205508
0.000606067 0.00062492 -2.775e-05
0.00062492 -9.56355e-05 -2.67359e-05
-2.775e-05 -2.67359e-05 -0.000441805
8.03463e-05 0.00105756 4.66874e-05
0.00105756 -0.000706545 9.42487e-05
4.66874e-05 9.42487e-05 -0.00107844
0.0122606 0.00220407 5.17637e-05
0.00220407 0.00153192 -3.3502e-05
5.17637e-05 -3.3502e-05 0.000398724
0.00425384 0.00230688 -2.87687e-05
0.00230688 -4.46243e-05 -5.2625e-05
-2.87687e-05 -5.2625e-05 0.000194587
0.0132997 -0.00605285 0.000948663
-0.00605285 0.00397823 0.000505244
0.000948663 0.000505244 0.00104324
0.0120507 -0.00281361 -6.7148e-05
-0.00281361 0.00293171 0.00057381
-6.7148e-05 0.00057381 0.0016929
0.000428719 0.000110047 6.38676e-06
0.000110047 9.64579e-05 -2.20746e-06
6.38676e-06 -2.20746e-06 1.18883e-05
0.000212197 0.000124081 8.34397e-06
0.000124081 -3.65246e-05 5.84533e-07
8.34397e-06 5.84533e-07 -0.000136642
0.00193858 0.000288264 3.64113e-06
0.000288264 0.00102163 -8.23575e-07
3.64113e-06 -8.23575e-07 0.000854925
0.00057928 9.69916e-06 7.28766e-07
9.69916e-06 0.000116935 -7.49603e-07
7.28766e-07 -7.49603e-07 -2.3183e-05
0.000625642 6.64052e-05 -1.0119e-06
6.64052e-05 0.000130634 -2.0105e-06
-1.0119e-06 -2.0105e-06 -2.3502e-05
0.000103892 3.12933e-05 -1.6983e-06
3.12933e-05 -0.000187894 8.15956e-07
-1.6983e-06 8.15956e-07 -0.000334653
0.000654625 0.000104172 -7.31245e-06
0.000104172 0.000151289 1.49458e-06
-7.31245e-06 1.49458e-06 7.65962e-06
-0.000682492 4.63651e-05 -4.04688e-06
4.63651e-05 -0.000700501 3.03177e-07
-4.04688e-06 3.03177e-07 -0.000750492
0.000364865 -1.41885e-05 2.3022e-07
-1.41885e-05 -3.57703e-05 9.90951e-07
2.3022e-07 9.90951e-07 -0.000169625
0.00123316 0.0001297 1.54286e-06
0.0001297 0.00050612 -3.5284e-08
1.54286e-06 -3.5284e-08 0.000341217
0.00061518 5.42349e-05 3.33602e-07
5.42349e-05 0.000140121 1.98919e-07
3.33602e-07 1.98919e-07 -2.51094e-05
0.000743258 3.37884e-05 1.23839e-06
3.37884e-05 0.000217302 -4.80929e-07
1.23839e-06 -4.80929e-07 4.44017e-05
0.000384632 0.000102858 -3.28493e-07
0.000102858 3.48202e-05 -2.34688e-06
-3.28493e-07 -2.34688e-06 -0.000116132
0.00138922 0.000125255 -2.06635e-06
0.000125255 0.000628071 -2.34936e-06
-2.06635e-06 -2.34936e-06 0.00046344
-0.000263944 5.29103e-05 -5.73532e-06
5.29103e-05 -0.00025458 -5.11736e-06
-5.73532e-06 -5.11736e-06 -0.000455363
0.000578038 -9.18677e-05 -4.97267e-08
-9.18677e-05 0.000110586 -2.92087e-07
-4.97267e-08 -2.92087e-07 -5.35867e-05
0.000774203 -7.76732e-05 -9.24016e-07
-7.76732e-05 0.000244605 7.43648e-08
-9.24016e-07 7.43648e-08 7.02075e-05
0.000756887 -4.95724e-05 -1.75471e-07
-4.95724e-05 0.000231115 -5.17137e-07
-1.75471e-07 -5.17137e-07 5.95546e-05
0.000732865 -2.30169e-05 -3.29468e-06
-2.30169e-05 0.000178797 2.34135e-07
-3.29468e-06 2.34135e-07 4.14395e-05
0.00105941 9.79078e-07 -5.691e-06
9.79078e-07 0.000445869 -4.89729e-06
-5.691e-06 -4.89729e-06 0.000253329
0.000767667 -4.86313e-05 1.81849e-06
-4.86313e-05 0.00021999 -7.86626e-06
1.81849e-06 -7.86626e-06 8.4112e-05
-0.00116061 -6.26302e-06 -2.97592e-06
-6.26302e-06 -0.000974625 -5.25444e-06
-2.97592e-06 -5.25444e-06 -0.00109068
0.000533675 -4.46547e-05 1.40163e-06
-4.46547e-05 9.30401e-05 -1.55817e-06
1.40163e-06 -1.55817e-06 -6.95231e-05
0.000351261 -7.57598e-05 1.56248e-06
-7.57598e-05 -3.40912e-05 7.94736e-07
1.56248e-06 7.94736e-07 -0.000167415
0.000690918 -9.27e-05 -1.21648e-06
-9.27e-05 0.00019671 -1.66659e-07
-1.21648e-06 -1.66659e-07 4.87045e-05
0.000520087 -8.14281e-05 -1.75238e-06
-8.14281e-05 4.28944e-05 2.06065e-06
-1.75238e-06 2.06065e-06 -6.95291e-05
0.000422589 -7.34114e-05 3.50855e-06
-7.34114e-05 -7.21709e-06 4.22072e-07
3.50855e-06 4.22072e-07 -0.000143017
0.000541312 -0.000109973 5.55787e-08
-0.000109973 7.03161e-05 2.11391e-07
5.55787e-08 2.11391e-07 -5.72979e-05
0.000544036 -5.1623e-05 -2.21834e-06
-5.1623e-05 4.48072e-05 4.24085e-06
-2.21834e-06 4.24085e-06 -3.23824e-05
0.000409937 -1.09743e-05 1.20292e-06
-1.09743e-05 3.50823e-07 -8.81262e-07
1.20292e-06 -8.81262e-07 -0.000139639
0.000501376 1.18778e-06 2.08132e-06
1.18778e-06 2.84484e-05 9.74031e-08
2.08132e-06 9.74031e-08 -5.26253e-05
0.0014461 -2.41825e-05 -8.25162e-06
-2.41825e-05 0.000585783 6.6384e-06
-8.25162e-06 6.6384e-06 0.00056575
0.000496224 6.40195e-05 -1.69447e-06
6.40195e-05 2.50559e-05 -3.43408e-06
-1.69447e-06 -3.43408e-06 -5.50918e-05
0.000876576 -1.37148e-05 -3.5643e-06
-1.37148e-05 0.000237141 7.27178e-07
-3.5643e-06 7.27178e-07 0.000215158
0.000780637 3.3077e-06 -3.12811e-06
3.3077e-06 0.000163997 4.87137e-06
-3.12811e-06 4.87137e-06 0.000168742
0.000413915 -1.33761e-05 2.94437e-06
-1.33761e-05 -5.23648e-05 -4.86418e-06
2.94437e-06 -4.86418e-06 -7.54589e-05
0.00255133 3.03991e-06 6.41754e-06
3.03991e-06 0.00126576 -1.28526e-08
6.41754e-06 -1.28526e-08 0.00127841
0.000891532 1.71349e-06 -7.79176e-06
1.71349e-06 0.000228735 -5.33537e-06
-7.79176e-06 -5.33537e-06 0.000233034
0.000491076 6.23508e-05 2.08371e-06
6.23508e-05 4.27751e-05 1.15804e-06
2.08371e-06 1.15804e-06 -5.35878e-05
0.00047061 4.95219e-05 -2.49991e-06
4.95219e-05 -6.94012e-06 -2.15995e-06
-2.49991e-06 -2.15995e-06 -5.21141e-05
0.000491812 -5.65579e-06 1.58877e-06
-5.65579e-06 6.48414e-06 9.09615e-08
1.58877e-06 9.09615e-08 -4.0971e-05
0.00049716 8.81464e-06 7.11005e-07
8.81464e-06 -2.64258e-05 -3.10663e-06
7.11005e-07 -3.10663e-06 -3.52999e-05
0.000559949 -5.88256e-05 -1.71147e-06
-5.88256e-05 5.03366e-05 2.19082e-06
-1.71147e-06 2.19082e-06 -3.21462e-06
0.000489009 1.33805e-05 7.3054e-08
1.33805e-05 -3.28049e-05 -7.17458e-07
7.3054e-08 -7.17458e-07 -4.27378e-05
0.00199512 3.52102e-05 4.73781e-06
3.52102e-05 0.000917023 -4.58802e-06
4.73781e-06 -4.58802e-06 0.000933154
0.00108886 3.50304e-05 -2.2523e-07
3.50304e-05 0.000346879 1.65664e-06
-2.2523e-07 1.65664e-06 0.00033737
0.00145182 4.39074e-05 -2.06262e-07
4.39074e-05 0.000581711 1.41621e-06
-2.06262e-07 1.41621e-06 0.0005911
0.000863483 4.74129e-05 -7.87455e-06
4.74129e-05 0.000219036 7.76647e-06
-7.87455e-06 7.76647e-06 0.000221465
0.000832473 0.000369583 8.42219e-05
0.000369583 -0.00209351 1.58189e-05
8.42219e-05 1.58189e-05 -0.0014753
0.00227178 -4.91194e-05 -4.07511e-06
-4.91194e-05 -6.44343e-05 5.19561e-06
-4.07511e-06 5.19561e-06 2.00077e-05
0.00221416 7.09381e-05 3.31139e-05
7.09381e-05 0.000164103 -1.43783e-05
3.31139e-05 -1.43783e-05 0.000274538
0.00255537 0.000329646 -4.78471e-05
0.000329646 -0.00165127 -3.16158e-05
-4.78471e-05 -3.16158e-05 -0.000491827
0.0022298 0.000108128 3.86425e-05
0.000108128 -0.000703097 -1.9422e-06
3.86425e-05 -1.9422e-06 -0.000342527
0.00257666 -4.73226e-05 3.53515e-06
-4.73226e-05 0.000377199 -8.91725e-06
3.53515e-06 -8.91725e-06 0.000418845
0.00463834 -0.000306007 -5.39866e-05
-0.000306007 0.00112305 -1.60324e-05
-5.39866e-05 -1.60324e-05 0.00119979
0.00283001 -0.000182564 2.38252e-05
-0.000182564 -0.000307605 1.51501e-05
2.38252e-05 1.51501e-05 0.000112634
0.0149798 -0.000787646 3.23296e-05
-0.000787646 0.0026475 7.95207e-07
3.23296e-05 7.95207e-07 0.00145935
0.0148676 0.00490887 0.00126752
0.00490887 0.00584959 -0.000443216
0.00126752 -0.000443216 0.00334548
0.0167104 0.0056978 2.4293e-05
0.0056978 0.0108696 8.38569e-06
2.4293e-05 8.38569e-06 0.00856048
0.000210364 -9.95775e-05 -4.15309e-07
-9.95775e-05 -0.000116523 -6.95099e-07
-4.15309e-07 -6.95099e-07 -0.000225441
0.000557285 -9.28912e-06 1.42887e-06
-9.28912e-06 8.104e-05 -1.37797e-07
1.42887e-06 -1.37797e-07 -1.00266e-05
0.000639061 -8.81597e-05 -5.48553e-08
-8.81597e-05 0.000148439 3.21732e-06
-5.48553e-08 3.21732e-06 4.30621e-05
0.000548675 -3.58523e-05 5.63933e-07
-3.58523e-05 8.67034e-05 5.29317e-07
5.63933e-07 5.29317e-07 -2.68162e-05
0.000861209 9.77646e-05 -4.60566e-06
9.77646e-05 0.000317979 7.87161e-07
-4.60566e-06 7.87161e-07 0.000184633
0.000416363 0.000122458 9.59082e-07
0.000122458 -2.1325e-05 8.25886e-06
9.59082e-07 8.25886e-06 -0.000138729
0.000983723 -1.43049e-05 2.94527e-06
-1.43049e-05 0.000379109 4.15992e-06
2.94527e-06 4.15992e-06 0.000243619
0.000503101 -2.84262e-05 -1.54611e-06
-2.84262e-05 5.65963e-05 1.42119e-06
-1.54611e-06 1.42119e-06 -5.45371e-05
0.00252075 -0.000273875 9.86312e-06
-0.000273875 4.70503e-05 3.36455e-07
9.86312e-06 3.36455e-07 0.000189745
0.00202149 -0.000506956 1.52358e-05
-0.000506956 -0.000326986 -7.3865e-06
1.52358e-05 -7.3865e-06 -0.000138806
0.00218639 -0.000767484 6.5608e-07
-0.000767484 7.31183e-05 8.85125e-07
6.5608e-07 8.85125e-07 -8.39012e-05
0.00195858 -0.000770837 1.80656e-05
-0.000770837 0.000606651 6.43489e-06
1.80656e-05 6.43489e-06 0.000184632
0.00187834 -0.000908318 -1.08656e-05
-0.000908318 0.000196379 4.3862e-06
-1.08656e-05 4.3862e-06 -0.000119043
0.00272119 -0.00104946 3.14914e-05
-0.00104946 0.00148367 -7.30203e-06
3.14914e-05 -7.30203e-06 0.000715686
0.00458039 -0.000696178 6.36119e-06
-0.000696178 0.00229169 1.68653e-06
6.36119e-06 1.68653e-06 0.00190761
0.000793807 -0.000182805 7.11663e-06
-0.000182805 0.000271214 -3.23441e-05
7.11663e-06 -3.23441e-05 1.14631e-05
0.000601446 -6.96587e-05 2.60823e-06
-6.96587e-05 5.40481e-05 1.86123e-06
2.60823e-06 1.86123e-06 -4.27793e-05
0.000784248 -8.43968e-05 8.90027e-06
-8.43968e-05 0.000208044 -1.62187e-05
8.90027e-06 -1.62187e-05 4.42277e-05
0.00108057 -4.89457e-05 3.48226e-06
-4.89457e-05 0.000420767 2.04537e-06
3.48226e-06 2.04537e-06 0.000284615
0.000696797 2.67273e-05 5.5066e-06
2.67273e-05 0.000181286 -3.09417e-06
5.5066e-06 -3.09417e-06 0.000142987
0.00236231 -0.000375664 -6.41958e-07
-0.000375664 -6.98356e-05 3.27464e-06
-6.41958e-07 3.27464e-06 0.00018965
0.000503951 -7.28225e-05 -2.93883e-06
-7.28225e-05 0.000107984 -3.78734e-07
-2.93883e-06 -3.78734e-07 -2.07278e-05
0.00107379 -0.000158843 -7.26124e-06
-0.000158843 0.000401523 5.21332e-06
-7.26124e-06 5.21332e-06 0.000253727
0.00175533 -0.000593206 6.65954e-06
-0.000593206 -0.000259302 -3.23967e-06
6.65954e-06 -3.23967e-06 -0.000162278
0.00173977 -0.000797033 1.07147e-06
-0.000797033 -9.82155e-07 -6.29565e-07
1.07147e-06 -6.29565e-07 -0.000237511
0.000895168 -0.00070971 -4.8514e-08
-0.00070971 -0.00017298 -2.7096e-06
-4.8514e-08 -2.7096e-06 -0.000450602
0.00164097 -0.00032443 4.44115e-07
-0.00032443 0.000906072 -2.22569e-05
4.44115e-07 -2.22569e-05 0.000554171
0.00162891 -0.000634995 1.96243e-06
-0.000634995 0.00123068 3.09585e-06
1.96243e-06 3.09585e-06 0.000425415
0.0047216 -0.000730538 -4.83737e-05
-0.000730538 0.00108047 1.91172e-05
-4.83737e-05 1.91172e-05 0.00125914
0.00411447 -0.000916281 -5.09498e-05
-0.000916281 0.00131614 1.48274e-05
-5.09498e-05 1.48274e-05 0.00114442
0.00208545 -0.000917009 2.80093e-06
-0.000917009 0.000285725 -1.99208e-06
2.80093e-06 -1.99208e-06 3.11423e-05
-0.000589479 -0.00043888 -9.27498e-06
-0.00043888 -0.000726919 1.73423e-05
-9.27498e-06 1.73423e-05 -0.000873545
0.000284378 -0.000131017 1.81532e-06
-0.000131017 1.17386e-05 8.87814e-06
1.81532e-06 8.87814e-06 -0.00020094
0.000427066 -0.000173444 5.1118e-06
-0.000173444 0.000155236 -5.32597e-07
5.1118e-06 -5.32597e-07 -8.84593e-05
0.00178228 -0.000251055 -4.5242e-06
-0.000251055 0.00130601 -2.1881e-05
-4.5242e-06 -2.1881e-05 0.000658058
-0.00651946 -0.000320991 0.000500919
-0.000320991 -0.00440727 -1.90666e-05
0.000500919 -1.90666e-05 -0.00373763
0.0114604 -0.000312648 6.02057e-05
-0.000312648 0.00150818 1.30724e-05
6.02057e-05 1.30724e-05 0.00141456
0.00248022 0.000321066 7.37123e-06
0.000321066 0.0012704 -7.77275e-06
7.37123e-06 -7.77275e-06 0.00107091
0.00149887 0.000477297 -4.04824e-06
0.000477297 0.000476453 3.7571e-06
-4.04824e-06 3.7571e-06 0.0001424
0.00279761 0.000630565 9.47385e-05
0.000630565 0.000392064 4.0932e-05
9.47385e-05 4.0932e-05 0.000391347
0.00298888 0.00092199 2.29038e-05
0.00092199 0.000763775 9.92691e-06
2.29038e-05 9.92691e-06 0.000466845
0.00285736 0.000795859 1.56272e-05
0.000795859 0.00111593 4.25588e-06
1.56272e-05 4.25588e-06 0.000672116
0.0151753 0.00069877 7.69503e-05
0.00069877 0.00308126 -4.51488e-05
7.69503e-05 -4.51488e-05 0.00227018
0.00858272 0.00209101 -0.000200125
0.00209101 -0.000198516 6.55652e-06
-0.000200125 6.55652e-06 0.000684929
0.00232959 0.00118097 4.85449e-06
0.00118097 0.000376025 -3.00438e-05
4.85449e-06 -3.00438e-05 -9.5143e-05
0.0126079 -0.00379276 -0.000455792
-0.00379276 0.00537243 -1.56328e-05
-0.000455792 -1.56328e-05 0.00301183
0.00152705 -0.00784433 -0.00219772
-0.00784433 0.00304799 -0.00140447
-0.00219772 -0.00140447 0.00080304
0.00100826 0.000300167 1.48544e-06
0.000300167 0.000405636 -3.01033e-07
1.48544e-06 -3.01033e-07 0.000173611
-0.00192716 -0.00222837 0.000415828
-0.00222837 -0.00269517 7.05593e-05
0.000415828 7.05593e-05 -0.00427041
-0.00285535 -0.00197303 -0.000442269
-0.00197303 0.00483181 -0.000189679
-0.000442269 -0.000189679 -5.38924e-05
0.00335662 0.00100489 -1.64376e-05
0.00100489 0.000750056 1.14595e-06
-1.64376e-05 1.14595e-06 0.000630087
0.00085266 0.000392915 -7.66794e-06
0.000392915 0.000120459 7.79982e-06
-7.66794e-06 7.79982e-06 -0.000200856
0.00121561 0.000732783 5.73465e-06
0.000732783 0.000227849 2.10396e-06
5.73465e-06 2.10396e-06 -0.000152323
0.00148594 0.00106102 5.10533e-05
0.00106102 0.00025294 3.14982e-05
5.10533e-05 3.14982e-05 -2.77767e-05
0.0135715 0.00226451 -0.000141671
0.00226451 0.00110071 -8.50488e-05
-0.000141671 -8.50488e-05 -0.000734523
0.00470699 0.00274093 -5.28105e-05
0.00274093 -0.000276165 -4.55006e-05
-5.28105e-05 -4.55006e-05 0.000270748
0.0167168 -0.0045773 0.000488503
-0.0045773 0.00673357 -1.05874e-05
0.000488503 -1.05874e-05 0.00362715
0.0141664 -0.00387344 0.000178373
-0.00387344 0.00213798 0.000674587
0.000178373 0.000674587 0.000688675
0.00232473 0.000381647 -1.96467e-05
0.000381647 0.00117613 -1.20086e-05
-1.96467e-05 -1.20086e-05 0.000970709
-0.0104034 0.00114461 -0.000141087
0.00114461 0.0032517 -0.000132176
-0.000141087 -0.000132176 -0.00280649
0.00468917 0.000769672 -0.000341381
0.000769672 0.00368865 -0.000459781
-0.000341381 -0.000459781 -0.00090788
0.00315022 0.000790225 -2.75146e-05
0.000790225 0.00094372 1.38524e-06
-2.75146e-05 1.38524e-06 0.000898013
0.00219072 0.00074817 -6.67563e-05
0.00074817 0.000913062 -2.58281e-05
-6.67563e-05 -2.58281e-05 0.000550033
0.000909731 0.000751987 -9.71106e-05
0.000751987 0.000782222 -2.1444e-05
-9.71106e-05 -2.1444e-05 8.23838e-05
-0.00222012 0.00154226 -4.11942e-05
0.00154226 -0.00106518 -3.96613e-05
-4.11942e-05 -3.96613e-05 -0.00128151
-0.000115763 0.00265551 0.000357391
0.00265551 -0.00202399 0.000123727
0.000357391 0.000123727 -0.00463888
0.0183005 -0.00551593 0.000241384
-0.00551593 0.00891502 0.000654892
0.000241384 0.000654892 0.00525314
0.00847463 -0.00109889 -0.000156977
-0.00109889 -0.00203226 -0.000138377
-0.000156977 -0.000138377 -0.000954692
-0.000862253 0.000101064 3.20899e-06
0.000101064 -0.000645489 -8.43386e-06
3.20899e-06 -8.43386e-06 -0.00076966
0.00147198 0.000262462 1.10289e-05
0.000262462 0.000722096 2.84724e-06
1.10289e-05 2.84724e-06 0.00056163
-0.000692433 5.49005e-05 9.31568e-07
5.49005e-05 -0.000509735 -3.29121e-06
9.31568e-07 -3.29121e-06 -0.000662001
0.000339688 5.35565e-05 1.77205e-06
5.35565e-05 -5.08237e-05 -8.18254e-07
1.77205e-06 -8.18254e-07 -0.000184073
0.000950223 8.37946e-05 -1.19302e-06
8.37946e-05 0.00035397 -1.98136e-06
-1.19302e-06 -1.98136e-06 0.000174662
0.00059037 9.23718e-06 -1.89879e-06
9.23718e-06 0.000132547 1.87221e-06
-1.89879e-06 1.87221e-06 -4.09932e-05
0.000552739 8.16216e-05 5.13177e-06
8.16216e-05 9.49512e-05 3.88505e-06
5.13177e-06 3.88505e-06 -7.02512e-05
-0.000300907 5.82299e-05 -4.55823e-06
5.82299e-05 -0.000372876 4.86108e-08
-4.55823e-06 4.86108e-08 -0.000513651
0.000763683 4.62451e-05 1.02015e-07
4.62451e-05 0.000240032 -9.76411e-07
1.02015e-07 -9.76411e-07 6.52284e-05
0.000759329 8.13143e-05 8.2617e-07
8.13143e-05 0.000230897 -2.53803e-07
8.2617e-07 -2.53803e-07 7.49287e-05
0.000837238 -5.18468e-05 -9.20711e-07
-5.18468e-05 0.000273582 1.94495e-06
-9.20711e-07 1.94495e-06 0.000103777
-0.00090411 1.47431e-05 2.8765e-06
1.47431e-05 -0.000624317 3.17093e-07
2.8765e-06 3.17093e-07 -0.000820865
-0.000169756 3.7988e-05 -1.94669e-06
3.7988e-05 4.02676e-05 4.39662e-06
-1.94669e-06 4.39662e-06 -0.000281065
0.000633038 -3.43881e-05 -2.79749e-06
-3.43881e-05 0.000216184 -8.22545e-06
-2.79749e-06 -8.22545e-06 4.20984e-05
0.00106254 -2.48065e-05 -2.4533e-08
-2.48065e-05 0.000443137 -5.74251e-07
-2.4533e-08 -5.74251e-07 0.000251803
0.000800942 -7.7977e-05 -2.16874e-07
-7.7977e-05 0.000265414 -9.30041e-07
-2.16874e-07 -9.30041e-07 8.75455e-05
0.000408315 -7.19829e-05 3.90136e-06
-7.19829e-05 -3.34634e-05 5.44067e-06
3.90136e-06 5.44067e-06 -0.000161075
0.000834038 -8.27757e-05 7.84743e-07
-8.27757e-05 0.000289568 -1.45285e-06
7.84743e-07 -1.45285e-06 0.000107526
0.000725761 -4.90531e-05 -1.70706e-06
-4.90531e-05 0.00018597 1.25841e-07
-1.70706e-06 1.25841e-07 5.10141e-05
-0.000335663 -5.94914e-05 2.00565e-06
-5.94914e-05 -0.000458095 3.30662e-06
2.00565e-06 3.30662e-06 -0.000570443
0.000190533 -4.21157e-05 1.02174e-07
-4.21157e-05 -0.000100111 -1.48295e-06
1.02174e-07 -1.48295e-06 -0.000251576
0.000146219 -2.66846e-05 -6.83965e-06
-2.66846e-05 -9.24032e-05 -4.13919e-06
-6.83965e-06 -4.13919e-06 -0.000257622
4.98434e-05 -8.04381e-05 2.89775e-06
-8.04381e-05 -0.0001865 -3.68419e-06
2.89775e-06 -3.68419e-06 -0.000320938
0.00103311 -0.000109252 7.67855e-06
-0.000109252 0.000296668 -1.44656e-05
7.67855e-06 -1.44656e-05 0.000194779
-5.22651e-05 -8.98499e-05 1.69155e-07
-8.98499e-05 -0.000396377 4.03774e-06
1.69155e-07 4.03774e-06 -0.000535939
3.36903e-07 -5.37335e-05 -6.17154e-06
-5.37335e-05 -0.000225706 -2.47269e-06
-6.17154e-06 -2.47269e-06 -0.000382995
0.000688999 -6.06775e-05 1.01603e-06
-6.06775e-05 0.000183305 -9.55885e-07
1.01603e-06 -9.55885e-07 2.01692e-05
0.000120317 -3.80526e-05 7.82269e-07
-3.80526e-05 -0.000168043 -1.34488e-06
7.82269e-07 -1.34488e-06 -0.000325247
0.000691545 -0.000100335 1.32814e-07
-0.000100335 0.000200582 -1.27874e-07
1.32814e-07 -1.27874e-07 4.68613e-05
0.000476846 -2.29446e-05 7.84409e-07
-2.29446e-05 2.24158e-05 1.65525e-06
7.84409e-07 1.65525e-06 -9.44894e-05
0.00084804 -9.42796e-05 -1.22215e-06
-9.42796e-05 0.000288313 6.60245e-07
-1.22215e-06 6.60245e-07 0.000142083
0.000632948 -7.9133e-05 -9.22807e-07
-7.9133e-05 0.000126875 1.02947e-07
-9.22807e-07 1.02947e-07 4.89732e-06
0.000434397 3.18343e-05 -4.31463e-07
3.18343e-05 -2.46182e-05 3.91549e-06
-4.31463e-07 3.91549e-06 -0.000102504
0.000505671 -0.000101956 1.6869e-06
-0.000101956 4.23595e-05 -1.29648e-06
1.6869e-06 -1.29648e-06 -8.24405e-05
0.000523802 -3.46294e-05 -3.52279e-07
-3.46294e-05 2.90844e-05 1.18599e-07
-3.52279e-07 1.18599e-07 -4.56068e-05
0.00142583 7.49878e-06 -7.24724e-06
7.49878e-06 0.000566482 6.96415e-06
-7.24724e-06 6.96415e-06 0.000546332
0.000499508 -5.64363e-05 1.3604e-06
-5.64363e-05 2.25492e-05 -3.35965e-06
1.3604e-06 -3.35965e-06 -5.53386e-05
0.000883721 -1.4235e-05 -6.12712e-06
-1.4235e-05 0.000235457 7.82696e-07
-6.12712e-06 7.82696e-07 0.00021356
0.000760603 1.27464e-05 8.58448e-07
1.27464e-05 0.000143081 2.16877e-06
8.58448e-07 2.16877e-06 0.00014707
0.000441426 -1.1687e-05 2.34985e-06
-1.1687e-05 -3.6852e-05 -4.59911e-06
2.34985e-06 -4.59911e-06 -5.9636e-05
0.00253728 1.33298e-05 6.73791e-06
1.33298e-05 0.0012568 4.04583e-08
6.73791e-06 4.04583e-08 0.00126964
0.0025532 2.14133e-06 3.98412e-07
2.14133e-06 0.00126692 -5.10616e-06
3.98412e-07 -5.10616e-06 0.00127958
0.00101911 7.7755e-05 -6.89079e-07
7.7755e-05 0.000371611 1.16746e-06
-6.89079e-07 1.16746e-06 0.000271398
0.000518145 5.82987e-05 -1.79543e-06
5.82987e-05 2.6894e-05 -2.17957e-06
-1.79543e-06 -2.17957e-06 -2.31005e-05
0.000550301 -1.56714e-05 -3.93895e-09
-1.56714e-05 8.33532e-05 7.87863e-07
-3.93895e-09 7.87863e-07 -1.35629e-05
0.000497614 6.39198e-06 7.51365e-07
6.39198e-06 -2.62651e-05 -3.30852e-06
7.51365e-07 -3.30852e-06 -3.45394e-05
0.00047735 -1.34742e-05 7.93846e-07
-1.34742e-05 -3.70994e-06 -1.52389e-07
7.93846e-07 -1.52389e-07 -4.83422e-05
0.000549692 -5.67963e-05 -1.19551e-06
-5.67963e-05 4.50409e-05 2.11273e-06
-1.19551e-06 2.11273e-06 -4.427e-06
0.000494393 7.26412e-06 -4.3204e-07
7.26412e-06 -2.85739e-05 -9.52836e-09
-4.3204e-07 -9.52836e-09 -3.7404e-05
0.00196149 2.12237e-05 -4.05577e-07
2.12237e-05 0.000893354 -4.66671e-06
-4.05577e-07 -4.66671e-06 0.000910869
0.00112145 2.32422e-05 -5.56845e-07
2.32422e-05 0.000364515 2.04007e-06
-5.56845e-07 2.04007e-06 0.000357426
0.00130741 2.86242e-05 -1.0191e-06
2.86242e-05 0.000485128 2.33412e-08
-1.0191e-06 2.33412e-08 0.000497964
0.000808798 3.42137e-05 -9.25934e-06
3.42137e-05 0.000178294 7.28306e-06
-9.25934e-06 7.28306e-06 0.000184728
-0.00899459 0.00108022 0.000460273
0.00108022 -0.00323532 -2.89803e-05
0.000460273 -2.89803e-05 -0.00576215
-0.00143909 7.69827e-05 0.000961933
7.69827e-05 0.00565104 -0.000245567
0.000961933 -0.000245567 0.00223716
0.00249187 0.000305502 -0.000160381
0.000305502 -0.00199325 -2.67001e-05
-0.000160381 -2.67001e-05 -0.000546702
0.00159826 2.5341e-05 1.76947e-05
2.5341e-05 -0.000989233 -3.41161e-05
1.76947e-05 -3.41161e-05 -0.000599472
0.00166054 -7.10307e-05 5.90482e-06
-7.10307e-05 -0.000259755 1.57574e-05
5.90482e-06 1.57574e-05 -0.000216696
-0.00113273 3.98986e-05 -8.69548e-05
3.98986e-05 -0.00141529 -2.39942e-05
-8.69548e-05 -2.39942e-05 -0.000499603
0.00376911 -0.000355417 3.55749e-06
-0.000355417 0.00045041 5.51367e-06
3.55749e-06 5.51367e-06 0.000559192
0.0118404 -5.58601e-05 0.000169623
-5.58601e-05 -0.000333978 -6.66582e-05
0.000169623 -6.66582e-05 -0.00113949
0.000739879 0.0032483 -3.11642e-06
0.0032483 0.000663872 -5.93794e-05
-3.11642e-06 -5.93794e-05 -0.00244685
0.0103675 0.00644867 -0.000456319
0.00644867 0.00727756 0.000235638
-0.000456319 0.000235638 0.00521798
0.00200193 -0.000685191 4.52717e-05
-0.000685191 -0.00192937 -4.05832e-05
4.52717e-05 -4.05832e-05 -0.000939136
0.0150842 -0.00200961 0.000205728
-0.00200961 0.0019706 -7.44758e-05
0.000205728 -7.44758e-05 0.000443156
0.0137776 0.00582675 0.000368138
0.00582675 0.00411868 -0.000515927
0.000368138 -0.000515927 0.00123542
0.0176324 0.00386952 -0.000314779
0.00386952 0.00503442 0.000253899
-0.000314779 0.000253899 0.00332252
0.000897471 0.000161767 -2.69631e-06
0.000161767 0.000343757 4.51712e-06
-2.69631e-06 4.51712e-06 0.000175775
0.00036538 3.48763e-05 2.67201e-07
3.48763e-05 -3.43714e-05 -1.00534e-06
2.67201e-07 -1.00534e-06 -0.00013576
0.000573452 -9.60255e-05 1.42436e-06
-9.60255e-05 0.000100092 1.36237e-06
1.42436e-06 1.36237e-06 3.38304e-06
0.000638373 1.01084e-05 6.47606e-06
1.01084e-05 0.000147436 -5.86541e-09
6.47606e-06 -5.86541e-09 2.89679e-05
0.000810435 8.07953e-05 2.2015e-06
8.07953e-05 0.000299955 1.33256e-06
2.2015e-06 1.33256e-06 0.000163966
0.000452692 -1.50073e-07 -2.65039e-08
-1.50073e-07 5.50906e-05 7.89971e-06
-2.65039e-08 7.89971e-06 -0.000106635
0.000739927 9.14581e-05 1.18424e-06
9.14581e-05 0.000205816 3.24453e-06
1.18424e-06 3.24453e-06 7.32706e-05
0.000470249 6.06338e-05 4.85978e-06
6.06338e-05 2.31831e-05 5.00822e-07
4.85978e-06 5.00822e-07 -0.0001159
0.000732529 -4.0684e-05 2.88922e-06
-4.0684e-05 0.000222692 -1.26065e-06
2.88922e-06 -1.26065e-06 8.76316e-05
0.000474876 -1.54374e-05 1.84809e-06
-1.54374e-05 2.79019e-05 -3.10194e-06
1.84809e-06 -3.10194e-06 -7.68506e-05
0.00141556 -0.000322668 3.06322e-05
-0.000322668 -0.000535464 -3.39154e-06
3.06322e-05 -3.39154e-06 -0.000280054
0.00113686 -0.00054918 3.31123e-05
-0.00054918 -0.000601287 -1.04749e-05
3.31123e-05 -1.04749e-05 -0.000471831
0.00100313 -0.000693862 4.43488e-06
-0.000693862 -0.000420757 1.098e-06
4.43488e-06 1.098e-06 -0.00058576
5.86112e-05 -0.000623918 -7.05755e-06
-0.000623918 -0.000623728 1.74859e-06
-7.05755e-06 1.74859e-06 -0.000887778
0.00321954 -0.000515878 8.61295e-06
-0.000515878 0.00197941 3.26992e-05
8.61295e-06 3.26992e-05 0.0013424
-0.000104603 -0.000456725 -2.99051e-07
-0.000456725 -0.000142814 -3.56251e-06
-2.99051e-07 -3.56251e-06 -0.000595877
0.00138547 -0.000213683 4.80043e-06
-0.000213683 0.000584038 -1.2522e-06
4.80043e-06 -1.2522e-06 0.000459556
0.000727528 -4.28413e-05 -9.4142e-07
-4.28413e-05 0.000242475 3.38146e-06
-9.4142e-07 3.38146e-06 0.00010946
0.00232287 -0.000534101 1.00043e-05
-0.000534101 -0.000175074 -8.25343e-06
1.00043e-05 -8.25343e-06 5.28958e-05
0.000384345 -4.74952e-05 4.09889e-07
-4.74952e-05 8.01864e-05 1.40736e-06
4.09889e-07 1.40736e-06 -0.000146905
-0.000234536 -0.000162102 -8.05551e-07
-0.000162102 -0.000238084 -5.05882e-06
-8.05551e-07 -5.05882e-06 -0.000481052
0.00186652 -0.000728081 1.88077e-05
-0.000728081 4.17627e-05 -2.90879e-06
1.88077e-05 -2.90879e-06 -1.37071e-05
0.00188433 -0.000911771 -5.74359e-07
-0.000911771 9.6476e-05 3.89988e-06
-5.74359e-07 3.89988e-06 -9.309e-05
0.000272083 -0.000656012 1.9238e-05
-0.000656012 -0.000213156 -1.23793e-05
1.9238e-05 -1.23793e-05 -0.000467254
0.00124819 -0.000340159 3.29853e-06
-0.000340159 0.00100125 -1.68696e-05
3.29853e-06 -1.68696e-05 0.000350573
0.00288737 -0.000900071 -5.91024e-05
-0.000900071 0.000534155 3.36351e-05
-5.91024e-05 3.36351e-05 0.000266751
0.000779725 -0.000624349 -3.82543e-05
-0.000624349 -0.000310778 7.99507e-06
-3.82543e-05 7.99507e-06 -0.000342877
0.000746591 -0.00063038 -7.28363e-05
-0.00063038 0.000419974 5.07375e-05
-7.28363e-05 5.07375e-05 4.46701e-06
-0.00293847 -0.000268366 -6.148e-06
-0.000268366 -0.00193508 9.68746e-06
-6.148e-06 9.68746e-06 -0.0021741
-0.000973501 -5.71359e-05 3.94219e-06
-5.71359e-05 -0.000672996 8.36175e-06
3.94219e-06 8.36175e-06 -0.000944161
0.00054 -6.77182e-05 8.81679e-06
-6.77182e-05 0.000333167 -1.28065e-05
8.81679e-06 -1.28065e-05 -3.3201e-05
-0.00216036 0.00114039 -0.000368432
0.00114039 0.00671474 1.85016e-05
-0.000368432 1.85016e-05 0.002283
0.000483816 -0.00133336 -8.00772e-06
-0.00133336 0.00214333 1.75878e-05
-8.00772e-06 1.75878e-05 0.00144007
0.00214374 0.00102613 -0.000111362
0.00102613 -0.00501123 -3.79773e-05
-0.000111362 -3.79773e-05 -0.00527566
0.000197497 0.000233174 1.05921e-05
0.000233174 -5.41437e-05 -4.81893e-06
1.05921e-05 -4.81893e-06 -0.000282121
0.00140249 0.000528587 9.50825e-06
0.000528587 0.000487684 1.80152e-05
9.50825e-06 1.80152e-05 0.000108197
0.00350502 0.000896187 6.35609e-05
0.000896187 0.000820976 2.07e-05
6.35609e-05 2.07e-05 0.000734181
0.0016893 0.000810472 1.40802e-05
0.000810472 0.000502147 2.20412e-05
1.40802e-05 2.20412e-05 8.85204e-05
0.0120269 -0.00257078 0.000189677
-0.00257078 0.00435618 5.66571e-05
0.000189677 5.66571e-05 0.00360678
0.00381422 0.00115354 -0.000359672
0.00115354 -0.00391749 -6.11453e-05
-0.000359672 -6.11453e-05 -0.00567438
0.00508542 0.00259938 2.34098e-06
0.00259938 0.000160732 2.93451e-05
2.34098e-06 2.93451e-05 0.000525578
0.00200767 0.000977612 4.63447e-05
0.000977612 0.000736154 -1.8496e-05
4.63447e-05 -1.8496e-05 0.000527882
0.00522009 -0.00299234 -0.000374732
-0.00299234 0.00273555 -0.000346272
-0.000374732 -0.000346272 -0.000213026
-0.00048922 -0.0029376 -0.000590493
-0.0029376 0.005279 -0.00019432
-0.000590493 -0.00019432 0.000271857
0.021675 -0.00489633 0.000625643
-0.00489633 0.00581951 0.0003475
0.000625643 0.0003475 0.00417766
0.000463028 0.0002261 1.66058e-05
0.0002261 8.94052e-05 -4.11151e-06
1.66058e-05 -4.11151e-06 -0.00010852
-0.00412091 0.000426943 -0.000172926
0.000426943 0.00508283 -3.59489e-05
-0.000172926 -3.59489e-05 -2.45096e-05
0.00531793 0.00103733 -0.000106528
0.00103733 0.00310188 -0.00016143
-0.000106528 -0.00016143 -0.00191283
0.00157783 0.000766553 1.1844e-05
0.000766553 0.000210033 3.88522e-06
1.1844e-05 3.88522e-06 0.000115954
0.00069148 0.00056886 1.12716e-05
0.00056886 0.000190063 4.1789e-06
1.12716e-05 4.1789e-06 -0.000182445
0.00057432 0.000846196 -4.72807e-05
0.000846196 0.00040136 -6.02876e-05
-4.72807e-05 -6.02876e-05 -0.00014512
0.00395233 0.00282603 2.30408e-05
0.00282603 0.00117788 2.38303e-05
2.30408e-05 2.38303e-05 0.000938251
0.0166933 0.00362509 5.84995e-05
0.00362509 0.00407768 1.49667e-05
5.84995e-05 1.49667e-05 0.0019522
0.00694959 -0.00338749 7.99662e-05
-0.00338749 0.00255022 -7.74963e-05
7.99662e-05 -7.74963e-05 -0.00170332
0.0145262 -0.00218671 -5.47318e-06
-0.00218671 0.00206263 -6.62181e-05
-5.47318e-06 -6.62181e-05 0.00330179
0.000797269 0.000422144 -1.33238e-05
0.000422144 0.000315031 -8.42945e-06
-1.33238e-05 -8.42945e-06 4.9176e-05
0.00204453 0.00019919 -0.000308929
0.00019919 0.00199479 -6.99051e-05
-0.000308929 -6.99051e-05 -0.00227716
0.000720949 0.000632415 -0.000110028
0.000632415 -0.000186046 -0.000165619
-0.000110028 -0.000165619 -0.00174648
-0.000741961 0.000258566 -1.65464e-06
0.000258566 -0.00020896 -2.09814e-05
-1.65464e-06 -2.09814e-05 -0.000449518
-0.00065147 0.000556084 -0.000170408
0.000556084 0.00102061 -6.02318e-06
-0.000170408 -6.02318e-06 0.000207746
0.0142404 0.00432637 9.31485e-05
0.00432637 0.00461181 -3.83787e-05
9.31485e-05 -3.83787e-05 0.000490798
-0.00266889 -0.00473532 3.02338e-06
-0.00473532 -0.000485999 0.000225418
3.02338e-06 0.000225418 -0.00493633
0.0113657 0.000428689 5.45492e-05
0.000428689 -0.00153684 -0.000313827
5.45492e-05 -0.000313827 0.00104187
0.00084795 0.00017489 -5.55504e-06
0.00017489 0.00030434 1.33966e-05
-5.55504e-06 1.33966e-05 0.000173763
0.000880938 0.000210304 -1.01028e-05
0.000210304 0.000454608 -4.83753e-06
-1.01028e-05 -4.83753e-06 0.000269241
-0.000564745 7.88519e-05 2.50005e-06
7.88519e-05 -0.000210539 -6.95742e-07
2.50005e-06 -6.95742e-07 -0.00050279
0.000676391 8.59292e-05 -1.74459e-06
8.59292e-05 0.000169182 -2.28957e-06
-1.74459e-06 -2.28957e-06 6.12055e-06
0.00109236 -3.80039e-05 -1.56908e-06
-3.80039e-05 0.000440015 4.02196e-06
-1.56908e-06 4.02196e-06 0.000261765
0.000319173 7.15602e-05 2.79789e-06
7.15602e-05 -5.20505e-05 2.08073e-06
2.79789e-06 2.08073e-06 -0.000200179
-0.00101726 2.31727e-05 1.46987e-06
2.31727e-05 -0.000675648 2.30263e-06
1.46987e-06 2.30263e-06 -0.000871349
0.000749946 -2.81961e-05 1.23583e-06
-2.81961e-05 0.000220513 1.7053e-07
1.23583e-06 1.7053e-07 5.15026e-05
0.000582567 1.45941e-05 4.26377e-09
1.45941e-05 0.000181551 -2.4174e-06
4.26377e-09 -2.4174e-06 9.12778e-06
-9.6407e-06 2.25867e-05 1.85567e-06
2.25867e-05 0.000174121 3.07716e-06
1.85567e-06 3.07716e-06 -0.000175699
-0.000250869 5.8688e-05 -4.00817e-06
5.8688e-05 0.00020813 1.19326e-05
-4.00817e-06 1.19326e-05 -0.000262954
0.000211277 -1.2597e-06 -3.00875e-06
-1.2597e-06 0.000333137 -1.14082e-06
-3.00875e-06 -1.14082e-06 -4.04461e-05
0.000827648 1.2097e-05 -1.87223e-06
1.2097e-05 0.000303467 -6.04021e-06
-1.87223e-06 -6.04021e-06 0.000150481
0.000649658 -0.000137244 2.16623e-06
-0.000137244 0.000159143 1.56574e-06
2.16623e-06 1.56574e-06 -1.19513e-05
0.000455056 -2.76938e-05 1.27135e-06
-2.76938e-05 7.06646e-06 2.07607e-06
1.27135e-06 2.07607e-06 -0.000121273
0.0003895 -9.07526e-05 1.02846e-06
-9.07526e-05 -6.48408e-06 1.08477e-05
1.02846e-06 1.08477e-05 -0.000108037
0.000191183 -3.64476e-05 2.42258e-06
-3.64476e-05 -8.8108e-05 3.53766e-06
2.42258e-06 3.53766e-06 -0.000236531
0.000596596 -4.37475e-05 9.6414e-08
-4.37475e-05 0.000141679 5.22555e-07
9.6414e-08 5.22555e-07 -6.81096e-06
0.000485263 -4.81138e-05 -2.1449e-08
-4.81138e-05 7.78047e-05 -2.03278e-06
-2.1449e-08 -2.03278e-06 -5.43857e-05
0.000341051 -5.01572e-05 -8.00565e-06
-5.01572e-05 -1.92043e-05 -4.56143e-06
-8.00565e-06 -4.56143e-06 -0.000152105
0.000463154 -6.74988e-05 8.07519e-06
-6.74988e-05 0.000218526 -6.31398e-06
8.07519e-06 -6.31398e-06 5.24977e-05
0.000377389 -0.000172029 3.68523e-07
-0.000172029 -0.000197345 3.75392e-06
3.68523e-07 3.75392e-06 -0.000289871
0.000656907 -0.000134694 -9.94313e-06
-0.000134694 8.87418e-05 -6.92669e-07
-9.94313e-06 -6.92669e-07 -2.19181e-05
0.000328846 -0.000168916 6.858e-06
-0.000168916 -0.000125285 7.25319e-06
6.858e-06 7.25319e-06 -0.000275411
0.00190391 -0.000479024 8.82992e-07
-0.000479024 0.000731038 1.95349e-05
8.82992e-07 1.95349e-05 0.000424193
0.00172922 -0.000225299 2.95189e-06
-0.000225299 0.000772603 -6.95276e-06
2.95189e-06 -6.95276e-06 0.000584244
-6.95063e-05 -9.85335e-05 -9.56776e-06
-9.85335e-05 -0.000363743 -5.37816e-06
-9.56776e-06 -5.37816e-06 -0.000487754
0.000535155 -7.50235e-05 4.13441e-08
-7.50235e-05 7.52056e-05 -5.53224e-07
4.13441e-08 -5.53224e-07 -8.06596e-05
-0.00014559 -4.956e-05 -1.02414e-06
-4.956e-05 -0.000320755 -2.72882e-06
-1.02414e-06 -2.72882e-06 -0.000497403
0.000908351 -7.66855e-05 -3.0815e-07
-7.66855e-05 0.00031127 1.3065e-06
-3.0815e-07 1.3065e-06 0.000148498
0.000735438 -0.000115928 -6.01843e-07
-0.000115928 0.000221173 6.03818e-07
-6.01843e-07 6.03818e-07 5.1065e-05
0.000537653 -5.8511e-05 3.93636e-07
-5.8511e-05 4.84055e-05 1.71401e-06
3.93636e-07 1.71401e-06 -7.10617e-05
0.00132381 -0.000171841 -1.24946e-06
-0.000171841 0.000611722 -7.44159e-07
-1.24946e-06 -7.44159e-07 0.000434112
0.000671016 -9.84296e-05 -4.99699e-07
-9.84296e-05 0.000144129 1.57708e-08
-4.99699e-07 1.57708e-08 2.13519e-05
0.000506886 1.09405e-05 -1.78802e-06
1.09405e-05 1.63913e-05 3.24965e-06
-1.78802e-06 3.24965e-06 -6.24222e-05
0.000724421 -0.00012654 1.28395e-06
-0.00012654 0.000184385 -2.21664e-06
1.28395e-06 -2.21664e-06 5.80966e-05
0.000593117 -5.09123e-05 -2.00057e-07
-5.09123e-05 6.98753e-05 1.74081e-07
-2.00057e-07 1.74081e-07 -7.27708e-06
0.00144039 1.26827e-05 -1.18309e-05
1.26827e-05 0.000570803 7.24041e-06
-1.18309e-05 7.24041e-06 0.000549353
0.000546871 -6.46957e-05 2.12961e-06
-6.46957e-05 5.0757e-05 -3.80783e-06
2.12961e-06 -3.80783e-06 -2.90124e-05
0.00087923 -8.35178e-06 -7.36048e-06
-8.35178e-06 0.000226298 6.96141e-07
-7.36048e-06 6.96141e-07 0.000203498
0.000796736 2.21025e-05 9.054e-07
2.21025e-05 0.000162874 2.7249e-06
9.054e-07 2.7249e-06 0.000165143
0.000443195 -2.50868e-05 2.18719e-06
-2.50868e-05 -4.07789e-05 -4.88118e-06
2.18719e-06 -4.88118e-06 -6.47448e-05
0.0016541 2.19458e-05 9.87531e-06
2.19458e-05 0.000703847 -1.4901e-06
9.87531e-06 -1.4901e-06 0.000712196
0.00251682 1.33284e-05 9.82969e-06
1.33284e-05 0.00124353 -5.16511e-06
9.82969e-06 -5.16511e-06 0.0012564
0.00050777 4.75169e-05 1.69974e-06
4.75169e-05 3.3675e-05 -1.4748e-06
1.69974e-06 -1.4748e-06 -6.5723e-05
0.000606772 5.86109e-05 -1.13873e-06
5.86109e-05 7.61224e-05 -1.5643e-06
-1.13873e-06 -1.5643e-06 2.32766e-05
0.000594791 -9.80207e-07 1.1026e-06
-9.80207e-07 0.000101025 7.34746e-07
1.1026e-06 7.34746e-07 4.71389e-06
0.000484143 2.82351e-06 1.39122e-06
2.82351e-06 -3.32837e-05 -3.53696e-06
1.39122e-06 -3.53696e-06 -4.23461e-05
0.000502332 4.85026e-05 1.08685e-07
4.85026e-05 1.23813e-05 -1.50448e-07
1.08685e-07 -1.50448e-07 -3.49146e-05
0.000552197 -0.000112014 -2.73892e-06
-0.000112014 7.57393e-05 4.15573e-07
-2.73892e-06 4.15573e-07 -1.58493e-05
0.00198237 7.60854e-06 -5.51022e-06
7.60854e-06 0.000904477 -4.72371e-06
-5.51022e-06 -4.72371e-06 0.000922745
0.000474942 4.88958e-06 -2.39307e-07
4.88958e-06 -3.99467e-05 2.36644e-08
-2.39307e-07 2.36644e-08 -4.8205e-05
0.000506975 -1.54048e-05 -1.60803e-06
-1.54048e-05 1.24782e-05 2.06086e-06
-1.60803e-06 2.06086e-06 -3.08339e-05
0.000480317 5.95284e-06 -1.16174e-06
5.95284e-06 -3.79453e-05 3.35051e-06
-1.16174e-06 3.35051e-06 -4.67413e-05
0.0020089 2.27804e-05 -5.13065e-06
2.27804e-05 0.000923208 -9.99838e-08
-5.13065e-06 -9.99838e-08 0.000940422
0.00196942 3.62328e-05 -5.84539e-06
3.62328e-05 0.000901064 4.56706e-06
-5.84539e-06 4.56706e-06 0.000917267
-0.00655308 -0.00154442 -0.000161822
-0.00154442 0.00502659 5.25406e-05
-0.000161822 5.25406e-05 0.00105115
0.00151021 0.00123225 -0.000235277
0.00123225 0.000421277 7.10782e-05
-0.000235277 7.10782e-05 -0.00141307
0.00293625 -0.000935436 -0.000575253
-0.000935436 0.0012209 0.000252129
-0.000575253 0.000252129 -0.00329093
-0.00106531 0.000465013 0.0010007
0.000465013 0.0055996 -0.000325309
0.0010007 -0.000325309 0.0017801
0.00192974 0.000523725 -3.29982e-05
0.000523725 -0.00119819 -1.15721e-05
-3.29982e-05 -1.15721e-05 -0.000421879
0.00263103 -0.000420939 8.73718e-05
-0.000420939 -0.000285845 5.9113e-06
8.73718e-05 5.9113e-06 -0.000185456
0.000688447 -0.000362463 0.000251272
-0.000362463 -0.00449043 -6.50051e-05
0.000251272 -6.50051e-05 -0.00628622
0.0195274 0.00292307 -0.00069542
0.00292307 0.0087416 5.92436e-05
-0.00069542 5.92436e-05 0.00616686
0.00261922 0.00744258 -0.00209729
0.00744258 0.00294102 0.00139181
-0.00209729 0.00139181 0.000791287
0.00443914 -0.000554121 2.38437e-05
-0.000554121 -0.000389901 7.75259e-06
2.38437e-05 7.75259e-06 0.000219553
0.00895093 -0.00190527 0.000142965
-0.00190527 -0.00112784 -0.000125161
0.000142965 -0.000125161 -0.00343682
0.0195884 0.00501399 -0.000291314
0.00501399 0.00604306 -0.000104731
-0.000291314 -0.000104731 0.00329965
0.0131772 0.00399842 -3.93824e-05
0.00399842 0.00215348 0.000372898
-3.93824e-05 0.000372898 0.000210767
0.00172963 -0.00154294 -0.000108159
-0.00154294 -0.00283502 2.40691e-05
-0.000108159 2.40691e-05 -0.00188793
0.00565189 -0.00316516 0.000373848
-0.00316516 -0.000163419 -0.000214681
0.000373848 -0.000214681 -0.0040011
0.00431588 0.00316503 9.35836e-05
0.00316503 0.000362856 -0.00073842
9.35836e-05 -0.00073842 -0.0029739
0.00825946 0.000949073 -0.000250478
0.000949073 -0.00247718 4.03146e-06
-0.000250478 4.03146e-06 -0.00143926
0.00245399 -9.36863e-05 1.55496e-06
-9.36863e-05 0.00137676 1.61792e-05
1.55496e-06 1.61792e-05 0.0011139
0.000421552 0.000113997 -1.68033e-06
0.000113997 2.7341e-05 -2.38877e-06
-1.68033e-06 -2.38877e-06 -0.000114333
0.000524838 9.66188e-05 2.71028e-06
9.66188e-05 5.31451e-05 -1.43843e-06
2.71028e-06 -1.43843e-06 -4.23876e-05
0.000271523 2.04059e-05 7.19916e-06
2.04059e-05 -4.47811e-05 -6.70549e-07
7.19916e-06 -6.70549e-07 -0.000162939
0.000434189 9.11513e-05 3.40908e-06
9.11513e-05 2.10889e-05 2.19784e-06
3.40908e-06 2.19784e-06 -0.000162931
0.000449924 3.05574e-05 -3.30353e-07
3.05574e-05 4.04329e-05 2.53123e-06
-3.30353e-07 2.53123e-06 -0.000107118
0.00030604 3.57831e-05 1.41293e-06
3.57831e-05 -5.88886e-05 -3.96817e-06
1.41293e-06 -3.96817e-06 -0.000188158
0.000918964 0.000174391 3.14112e-06
0.000174391 0.000336576 6.26731e-06
3.14112e-06 6.26731e-06 0.00016379
0.000911454 0.000125989 -9.87687e-08
0.000125989 0.000339777 -1.02634e-07
-9.87687e-08 -1.02634e-07 0.000171578
0.000405272 -2.25255e-05 -4.43015e-06
-2.25255e-05 5.90312e-06 -6.69185e-06
-4.43015e-06 -6.69185e-06 -0.000122786
0.000462458 -0.000416621 7.63835e-05
-0.000416621 -0.00116355 -3.75591e-05
7.63835e-05 -3.75591e-05 -0.000894194
0.000326133 -0.000613326 2.13467e-05
-0.000613326 -0.000828691 -9.62796e-06
2.13467e-05 -9.62796e-06 -0.000824738
0.00145544 -0.000870209 -8.51624e-06
-0.000870209 -0.000192738 1.282e-05
-8.51624e-06 1.282e-05 -0.000311832
-0.000940681 -0.000640639 4.87626e-06
-0.000640639 -0.000859526 -1.27846e-05
4.87626e-06 -1.27846e-05 -0.0012029
0.00346641 -0.000443874 -2.14893e-05
-0.000443874 0.00212101 6.06606e-05
-2.14893e-05 6.06606e-05 0.00162733
0.00104915 -0.000198627 -3.34463e-06
-0.000198627 0.000560529 6.42394e-06
-3.34463e-06 6.42394e-06 0.000295169
0.000275763 0.000129318 -3.95157e-06
0.000129318 -2.30211e-06 -1.51365e-05
-3.95157e-06 -1.51365e-05 -0.000225524
0.000678318 -9.26836e-05 -2.34322e-06
-9.26836e-05 0.000266665 9.86261e-06
-2.34322e-06 9.86261e-06 -3.34703e-06
0.00169423 -0.000738853 -2.57077e-06
-0.000738853 -0.000198202 -4.83392e-06
-2.57077e-06 -4.83392e-06 -0.000251499
0.000804421 -6.93769e-05 1.24034e-06
-6.93769e-05 0.000357203 5.25578e-06
1.24034e-06 5.25578e-06 0.000101794
0.00210704 -0.000276539 1.78241e-06
-0.000276539 0.00126554 -1.40581e-06
1.78241e-06 -1.40581e-06 0.000880182
0.00142614 -0.000695058 5.71632e-06
-0.000695058 2.60797e-05 5.82079e-06
5.71632e-06 5.82079e-06 -1.81359e-05
0.000676854 -0.000638096 -2.42762e-05
-0.000638096 0.000305947 6.63171e-06
-2.42762e-05 6.63171e-06 -7.28647e-05
0.00215281 -0.00125119 2.3208e-05
-0.00125119 6.3906e-05 -1.19651e-05
2.3208e-05 -1.19651e-05 0.000101777
-0.000486657 -0.000423277 -7.32502e-06
-0.000423277 -0.000579977 2.20413e-05
-7.32502e-06 2.20413e-05 -0.000607211
-0.000920155 -9.84245e-05 1.33353e-05
-9.84245e-05 -0.000364447 -1.47333e-06
1.33353e-05 -1.47333e-06 -0.000837436
0.000796848 -5.68237e-06 -4.26151e-06
-5.68237e-06 0.000312411 -5.72786e-06
-4.26151e-06 -5.72786e-06 8.89552e-05
0.000743204 -4.77637e-06 6.98981e-06
-4.77637e-06 0.000442229 -7.71771e-06
6.98981e-06 -7.71771e-06 0.000140164
0.00131471 9.74917e-05 -3.59579e-05
9.74917e-05 0.00180005 -1.4329e-05
-3.59579e-05 -1.4329e-05 -0.0019406
-0.00613064 0.000395048 -0.000319899
0.000395048 0.00604756 -1.70615e-05
-0.000319899 -1.70615e-05 0.00126511
-0.012916 -0.00215994 -0.000634276
-0.00215994 -0.00550213 -1.30695e-05
-0.000634276 -1.30695e-05 -0.00602148
-0.000974516 0.00013309 7.8323e-06
0.00013309 -0.000721646 -6.33184e-06
7.8323e-06 -6.33184e-06 -0.000935182
-0.000682321 0.000425079 -4.08003e-06
0.000425079 -0.000501678 9.00408e-06
-4.08003e-06 9.00408e-06 -0.000882376
0.00178509 0.000862817 2.79997e-05
0.000862817 0.000343284 2.40356e-05
2.79997e-05 2.40356e-05 0.000222292
-0.00556835 0.00172667 5.67893e-05
0.00172667 0.00545699 5.26062e-05
5.67893e-05 5.26062e-05 0.00107628
0.00649183 0.00310636 -0.000254173
0.00310636 0.00022385 -0.000147803
-0.000254173 -0.000147803 -0.00328208
0.00224959 0.0019975 0.000379681
0.0019975 0.000552422 0.000136249
0.000379681 0.000136249 0.000360959
9.86323e-05 0.000833093 2.46878e-05
0.000833093 -3.21041e-05 -4.13863e-05
2.46878e-05 -4.13863e-05 -0.000276677
0.0243447 -0.00343965 -0.000160735
-0.00343965 0.00782103 -0.00032249
-0.000160735 -0.00032249 0.00502692
0.00587198 0.00132701 0.000467674
0.00132701 0.00297734 0.000172126
0.000467674 0.000172126 -0.00243788
0.013649 -0.00189599 0.000156517
-0.00189599 0.00227486 3.22773e-05
0.000156517 3.22773e-05 0.00361722
0.0012574 0.000466117 2.87258e-06
0.000466117 0.000647387 -1.84309e-06
2.87258e-06 -1.84309e-06 0.000367735
0.00378402 0.000473706 -3.70599e-06
0.000473706 0.0028802 1.45615e-05
-3.70599e-06 1.45615e-05 -0.00031992
0.00143984 0.000586771 5.89515e-05
0.000586771 5.9283e-05 4.00562e-06
5.89515e-05 4.00562e-06 -0.0015336
-0.000421388 0.000436445 -2.98388e-06
0.000436445 -0.000157324 -5.12244e-06
-2.98388e-06 -5.12244e-06 -0.000461305
0.00043699 0.00110755 -0.000115341
0.00110755 0.000923438 -5.45446e-05
-0.000115341 -5.45446e-05 -0.000275473
0.000867488 0.00396178 0.00018085
0.00396178 0.000485227 0.000100992
0.00018085 0.000100992 -0.00381937
0.00903803 9.90979e-05 -8.42646e-06
9.90979e-05 -0.00336234 -0.000203327
-8.42646e-06 -0.000203327 -0.000525086
0.00473872 -0.00247004 -6.92029e-05
-0.00247004 0.00296436 -0.00015333
-6.92029e-05 -0.00015333 -0.0014588
0.000958129 0.000367591 -6.65061e-06
0.000367591 0.000762806 -1.51637e-05
-6.65061e-06 -1.51637e-05 0.000433918
-0.00255422 0.000153115 1.05362e-05
0.000153115 -6.61906e-05 1.6038e-05
1.05362e-05 1.6038e-05 -0.000309692
0.00449348 -9.01506e-05 9.46448e-05
-9.01506e-05 -0.00023087 -0.000152714
9.46448e-05 -0.000152714 -0.00136063
0.00818018 0.00116405 0.000261109
0.00116405 -0.00216091 -1.80263e-05
0.000261109 -1.80263e-05 -0.00127084
-0.00225869 0.000130157 2.58037e-05
0.000130157 -9.41647e-05 -3.22637e-05
2.58037e-05 -3.22637e-05 -0.000870833
0.0131158 0.00312269 0.000273974
0.00312269 0.0060995 6.24945e-05
0.000273974 6.24945e-05 0.00108277
-0.000153291 -0.000486404 5.86087e-05
-0.000486404 0.00227012 0.0003705
5.86087e-05 0.0003705 -0.00112613
0.0031355 0.000434432 2.41291e-05
0.000434432 0.00184888 1.07145e-05
2.41291e-05 1.07145e-05 0.00160996
0.000467066 0.000198254 -5.81259e-06
0.000198254 0.000430845 -1.66064e-06
-5.81259e-06 -1.66064e-06 9.84781e-05
0.000221395 0.000151022 3.74947e-07
0.000151022 0.000470687 1.93564e-06
3.74947e-07 1.93564e-06 5.31427e-05
0.000550974 0.000147524 1.42245e-06
0.000147524 0.000111795 6.8374e-07
1.42245e-06 6.8374e-07 -6.3353e-05
0.000424243 5.68835e-05 1.2933e-06
5.68835e-05 6.88615e-05 3.01217e-06
1.2933e-06 3.01217e-06 -9.30348e-05
0.000151006 -3.04168e-05 5.29969e-06
-3.04168e-05 0.000299516 -2.08552e-06
5.29969e-06 -2.08552e-06 -7.16211e-05
0.000405459 1.91563e-05 3.80495e-07
1.91563e-05 3.33477e-05 -6.21118e-07
3.80495e-07 -6.21118e-07 -0.000107216
0.000655984 -3.41079e-05 -1.39124e-06
-3.41079e-05 0.000597631 -2.43686e-06
-1.39124e-06 -2.43686e-06 0.000226973
0.000188674 5.46309e-05 -7.00014e-09
5.46309e-05 0.000462889 -1.3851e-06
-7.00014e-09 -1.3851e-06 7.10651e-07
-6.76617e-06 5.46852e-06 -8.54063e-06
5.46852e-06 0.000291881 6.50569e-06
-8.54063e-06 6.50569e-06 -9.24353e-05
0.000289502 -1.9541e-05 2.04294e-07
-1.9541e-05 0.000312486 -4.12873e-06
2.04294e-07 -4.12873e-06 8.93178e-06
0.000177746 -6.41324e-05 2.17907e-06
-6.41324e-05 -0.000122921 8.42332e-06
2.17907e-06 8.42332e-06 -0.00025304
0.000940477 -5.24001e-05 -6.26015e-07
-5.24001e-05 0.000348295 2.31984e-06
-6.26015e-07 2.31984e-06 0.00020038
0.00119565 -5.19652e-05 -1.17849e-05
-5.19652e-05 0.000514747 9.26186e-06
-1.17849e-05 9.26186e-06 0.000379771
0.000787667 -8.10987e-05 3.0225e-06
-8.10987e-05 0.000393011 -4.94424e-07
3.0225e-06 -4.94424e-07 0.000236048
0.000539792 -5.1215e-05 -8.14817e-07
-5.1215e-05 9.85252e-05 -6.79375e-07
-8.14817e-07 -6.79375e-07 -3.26594e-05
0.00030782 -0.000158707 -2.29656e-07
-0.000158707 -2.98826e-05 2.02046e-06
-2.29656e-07 2.02046e-06 -0.000173348
0.000122972 -0.000143651 -1.10132e-05
-0.000143651 -0.000251117 -1.57951e-06
-1.10132e-05 -1.57951e-06 -0.000313197
-0.000660663 -0.000292931 9.40494e-06
-0.000292931 -0.000673073 1.77075e-05
9.40494e-06 1.77075e-05 -0.00095581
0.000248325 -0.000169518 5.78455e-06
-0.000169518 -0.000139034 -1.15685e-06
5.78455e-06 -1.15685e-06 -0.000255845
0.00115443 -0.000268633 -3.43546e-06
-0.000268633 0.000366862 1.04043e-05
-3.43546e-06 1.04043e-05 0.000188079
0.0019574 -0.000520009 -8.59491e-06
-0.000520009 0.000783159 1.36347e-05
-8.59491e-06 1.36347e-05 0.000440232
0.00150839 -0.000470379 -6.75159e-06
-0.000470379 0.000379516 6.05175e-07
-6.75159e-06 6.05175e-07 3.35833e-05
0.00113062 -0.000306962 6.58869e-07
-0.000306962 0.000363047 3.36328e-06
6.58869e-07 3.36328e-06 0.000128836
0.000399546 -0.000294716 1.00419e-05
-0.000294716 -0.000184908 -4.21535e-06
1.00419e-05 -4.21535e-06 -0.000443547
0.00121282 -0.000154218 2.38368e-06
-0.000154218 0.000506755 -3.40409e-06
2.38368e-06 -3.40409e-06 0.000280062
0.00127231 -0.000215113 -7.6602e-06
-0.000215113 0.000531151 1.99982e-07
-7.6602e-06 1.99982e-07 0.00032938
2.8778e-05 -0.000121571 1.05335e-05
-0.000121571 -0.000264232 -1.61423e-05
1.05335e-05 -1.61423e-05 -0.000375352
0.0011572 -0.000100963 -5.17297e-07
-0.000100963 0.00042966 2.11753e-06
-5.17297e-07 2.11753e-06 0.000273915
0.000264545 -8.19571e-05 8.17766e-07
-8.19571e-05 -7.17369e-05 -7.07534e-07
8.17766e-07 -7.07534e-07 -0.000248344
0.000473052 -5.02242e-05 1.2714e-06
-5.02242e-05 1.85239e-06 7.58432e-07
1.2714e-06 7.58432e-07 -0.00012885
0.00130285 -0.000193804 -9.41431e-07
-0.000193804 0.000583922 8.98629e-07
-9.41431e-07 8.98629e-07 0.000399191
0.000647596 -8.81905e-05 -3.69631e-07
-8.81905e-05 0.000129363 -1.66037e-07
-3.69631e-07 -1.66037e-07 -2.32388e-06
0.000454159 1.5114e-05 2.12036e-06
1.5114e-05 -6.12236e-06 4.05138e-06
2.12036e-06 4.05138e-06 -9.77324e-05
0.000783611 -0.000125048 -6.65306e-08
-0.000125048 0.000226597 -2.41484e-06
-6.65306e-08 -2.41484e-06 9.33926e-05
0.000500068 8.24087e-06 -2.03766e-06
8.24087e-06 1.88812e-05 -2.04031e-07
-2.03766e-06 -2.04031e-07 -6.48421e-05
0.00140472 1.46765e-05 -1.51949e-05
1.46765e-05 0.000548971 4.97545e-06
-1.51949e-05 4.97545e-06 0.000526372
0.00058925 -5.97329e-05 2.50287e-06
-5.97329e-05 7.10206e-05 -3.9712e-06
2.50287e-06 -3.9712e-06 -8.50886e-06
0.000891578 -3.83519e-06 -7.56798e-06
-3.83519e-06 0.000229084 5.99293e-07
-7.56798e-06 5.99293e-07 0.000205102
0.000838931 3.22305e-05 1.42341e-07
3.22305e-05 0.000187443 2.96119e-06
1.42341e-07 2.96119e-06 0.000187533
0.000458269 -1.70018e-05 2.19717e-06
-1.70018e-05 -3.84196e-05 -5.55711e-06
2.19717e-06 -5.55711e-06 -6.36152e-05
0.00170422 3.40485e-05 1.29054e-05
3.40485e-05 0.000732836 -1.28152e-06
1.29054e-05 -1.28152e-06 0.000739966
0.00252903 2.78301e-05 1.43944e-05
2.78301e-05 0.00124935 -5.38245e-06
1.43944e-05 -5.38245e-06 0.0012618
0.000316061 1.56905e-05 1.14914e-06
1.56905e-05 -6.92494e-05 3.99912e-07
1.14914e-06 3.99912e-07 -0.000198882
0.000158709 1.84926e-05 1.99733e-07
1.84926e-05 -0.000204926 -3.63923e-06
1.99733e-07 -3.63923e-06 -0.000265837
0.000632775 4.76593e-05 5.30969e-08
4.76593e-05 0.000122069 7.47676e-08
5.30969e-08 7.47676e-08 1.27032e-05
0.000482869 2.0029e-06 1.25348e-06
2.0029e-06 -3.57971e-05 -3.65265e-06
1.25348e-06 -3.65265e-06 -4.6419e-05
0.000338373 5.19335e-06 1.56977e-06
5.19335e-06 -9.53814e-05 -2.36345e-08
1.56977e-06 -2.36345e-08 -0.000146261
0.00028957 -9.41903e-05 -1.46172e-06
-9.41903e-05 -9.05674e-05 -1.13778e-06
-1.46172e-06 -1.13778e-06 -0.000187682
0.00205216 -6.28319e-06 -1.02498e-05
-6.28319e-06 0.000947534 -4.74153e-06
-1.02498e-05 -4.74153e-06 0.000965566
0.000478235 2.08757e-06 -1.40873e-08
2.08757e-06 -3.78885e-05 -7.32679e-08
-1.40873e-08 -7.32679e-08 -4.66647e-05
0.000454604 -1.64682e-05 -2.35714e-06
-1.64682e-05 -2.2137e-05 2.04283e-06
-2.35714e-06 2.04283e-06 -6.65581e-05
0.00199854 8.97166e-06 -4.51857e-06
8.97166e-06 0.000914903 9.3448e-09
-4.51857e-06 9.3448e-09 0.000932984
0.000467748 4.07633e-06 -1.05131e-06
4.07633e-06 -4.3894e-05 3.24943e-06
-1.05131e-06 3.24943e-06 -5.22028e-05
0.0019711 2.37976e-05 5.47069e-07
2.37976e-05 0.000899484 4.72081e-06
5.47069e-07 4.72081e-06 0.000916764
-0.000142961 -0.000655904 -0.000219613
-0.000655904 -0.000150919 7.72261e-05
-0.000219613 7.72261e-05 -0.00303464
0.00156551 0.000498596 -9.49522e-05
0.000498596 0.00685895 1.44676e-05
-9.49522e-05 1.44676e-05 0.00319747
0.00184047 -0.000114444 -0.000732372
-0.000114444 0.00355759 0.000136162
-0.000732372 0.000136162 0.00178558
0.000706386 0.000122007 3.89338e-06
0.000122007 0.000167597 5.65661e-06
3.89338e-06 5.65661e-06 1.19129e-05
0.00465327 -0.000776839 -6.49974e-05
-0.000776839 0.00307207 0.000211242
-6.49974e-05 0.000211242 0.00109759
0.00400346 -0.00114947 -0.00025138
-0.00114947 0.00164284 2.16139e-05
-0.00025138 2.16139e-05 -0.00283023
0.00918046 0.00265915 0.000339103
0.00265915 0.00697892 -0.000305111
0.000339103 -0.000305111 0.0033769
0.00678622 -0.000876591 0.0001031
-0.000876591 0.000812435 -2.36373e-05
0.0001031 -2.36373e-05 0.000980476
0.0127772 -0.0019714 0.000242939
-0.0019714 0.00110987 -0.000111616
0.000242939 -0.000111616 -0.000244618
0.00588788 0.00431673 -0.000548301
0.00431673 -0.000557904 0.000390379
-0.000548301 0.000390379 -0.00312104
0.0127455 0.00393305 7.43591e-05
0.00393305 0.00398724 0.000199373
7.43591e-05 0.000199373 0.00164996
0.00686093 -0.00191159 -0.000124256
-0.00191159 0.000165454 -7.18268e-06
-0.000124256 -7.18268e-06 0.000453058
0.0172266 -0.00340479 4.12619e-05
-0.00340479 0.00446661 -3.00481e-05
4.12619e-05 -3.00481e-05 0.00204604
0.00808817 0.00258238 0.000154258
0.00258238 0.00225942 -0.000315697
0.000154258 -0.000315697 -0.00126104
0.0110271 0.00121517 1.42239e-05
0.00121517 -0.000695056 3.64146e-05
1.42239e-05 3.64146e-05 -0.000222255
0.00311641 -0.00225392 -4.55048e-05
-0.00225392 -1.86221e-05 6.10872e-05
-4.55048e-05 6.10872e-05 -0.000218216
0.0114772 -0.00383716 0.000144909
-0.00383716 0.00479165 -0.000100825
0.000144909 -0.000100825 0.0004957
0.00885062 -0.000185419 0.000130926
-0.000185419 0.00392792 -0.00041284
0.000130926 -0.00041284 0.00144857
0.011345 0.000586895 -0.000114717
0.000586895 -0.00136767 0.000222121
-0.000114717 0.000222121 0.000953542
0.000500286 4.8763e-05 2.96462e-06
4.8763e-05 0.000141679 5.51989e-06
2.96462e-06 5.51989e-06 -7.92884e-05
0.000817663 -0.000133469 4.09692e-07
-0.000133469 0.00035477 -4.72651e-07
4.09692e-07 -4.72651e-07 0.000110898
0.000979572 0.000156025 9.94474e-07
0.000156025 0.000392453 -5.55222e-06
9.94474e-07 -5.55222e-06 0.000237356
0.000495442 0.000119099 -4.20126e-08
0.000119099 2.63914e-05 8.3214e-06
-4.20126e-08 8.3214e-06 -0.00011906
0.000810181 0.00017979 7.1735e-07
0.00017979 0.000281753 1.13257e-06
7.1735e-07 1.13257e-06 8.81513e-05
0.00111287 9.25688e-05 -5.71969e-06
9.25688e-05 0.000466164 -4.80681e-06
-5.71969e-06 -4.80681e-06 0.000312255
0.00103635 0.000165002 -1.42758e-06
0.000165002 0.000410968 -1.66348e-07
-1.42758e-06 -1.66348e-07 0.000236657
0.00106905 0.000177753 1.30237e-06
0.000177753 0.000455239 3.14266e-06
1.30237e-06 3.14266e-06 0.000277711
7.49509e-05 -0.000503135 0.000100186
-0.000503135 -0.00110834 -5.95055e-05
0.000100186 -5.95055e-05 -0.000973186
0.00125262 -0.00070652 -1.03017e-05
-0.00070652 -0.000145357 -9.0631e-06
-1.03017e-05 -9.0631e-06 -0.000131647
0.00106763 -0.000237638 6.01974e-07
-0.000237638 0.000521099 -2.54547e-05
6.01974e-07 -2.54547e-05 0.000232712
0.00151354 -0.000684029 1.80443e-05
-0.000684029 0.000735862 -2.77672e-05
1.80443e-05 -2.77672e-05 0.000387984
0.00259724 -0.00042629 -1.83414e-05
-0.00042629 0.0015006 1.85752e-05
-1.83414e-05 1.85752e-05 0.00112815
0.00154876 -0.000144298 5.63615e-07
-0.000144298 0.000798464 -2.15324e-05
5.63615e-07 -2.15324e-05 0.000533313
-8.70854e-05 -6.371e-05 3.27268e-06
-6.371e-05 -0.000241623 7.71489e-06
3.27268e-06 7.71489e-06 -0.000447533
0.000318093 -0.00102398 -1.87463e-06
-0.00102398 -0.000806044 -2.39096e-06
-1.87463e-06 -2.39096e-06 -0.000782606
0.00139056 3.79283e-05 -6.49225e-07
3.79283e-05 0.000833386 -2.5068e-06
-6.49225e-07 -2.5068e-06 0.000526508
0.000479029 -0.000225206 4.00025e-06
-0.000225206 0.000371713 2.89423e-06
4.00025e-06 2.89423e-06 -4.9584e-05
0.000113701 -0.000372985 1.84204e-05
-0.000372985 -0.000244587 2.36136e-06
1.84204e-05 2.36136e-06 -0.000231388
0.00102554 0.00011825 -9.71086e-07
0.00011825 0.000442667 -2.24639e-06
-9.71086e-07 -2.24639e-06 0.00025894
-0.000599511 -0.000841441 -4.12901e-05
-0.000841441 -0.000763802 -2.84152e-05
-4.12901e-05 -2.84152e-05 -0.000885037
-0.000824087 -0.000369172 -9.7807e-06
-0.000369172 -0.00049535 3.08009e-05
-9.7807e-06 3.08009e-05 -0.000703181
-7.71773e-06 0.000149818 2.08816e-05
0.000149818 0.000371432 -2.95154e-05
2.08816e-05 -2.95154e-05 -0.000179633
0.00193606 0.00030141 -4.47567e-06
0.00030141 0.00111155 -5.16792e-06
-4.47567e-06 -5.16792e-06 0.000885623
-0.00106275 8.05099e-05 8.52845e-05
8.05099e-05 0.00125344 1.34124e-05
8.52845e-05 1.34124e-05 0.000465398
0.000582452 -2.28493e-05 0.000141436
-2.28493e-05 0.00125964 -3.11496e-05
0.000141436 -3.11496e-05 -0.00246267
-0.0105518 -0.000299145 -0.000240511
-0.000299145 0.00551582 2.40575e-05
-0.000240511 2.40575e-05 0.000242827
0.00166034 0.000490866 1.88854e-05
0.000490866 0.000962891 2.82134e-06
1.88854e-05 2.82134e-06 0.000674103
-0.000794241 0.000603532 1.12065e-05
0.000603532 -0.000401907 1.30132e-05
1.12065e-05 1.30132e-05 -0.000813321
0.00531485 0.000612761 0.000265412
0.000612761 0.00349015 4.71972e-05
0.000265412 4.71972e-05 0.0013091
0.0105516 0.00333283 0.000274362
0.00333283 0.00362507 0.000183201
0.000274362 0.000183201 -0.000451294
0.00380161 0.00201694 -7.32806e-05
0.00201694 0.00226269 -8.50027e-05
-7.32806e-05 -8.50027e-05 0.000922515
0.00500754 -0.00211568 -0.000170391
-0.00211568 0.00382725 -0.000419128
-0.000170391 -0.000419128 0.000370394
0.00241844 0.000504791 0.000120279
0.000504791 0.000288569 0.000182652
0.000120279 0.000182652 -0.00127278
0.00695005 -0.00017936 -4.3684e-05
-0.00017936 -0.00529458 -0.000225952
-4.3684e-05 -0.000225952 -0.00203089
0.000917983 0.000424688 6.59663e-06
0.000424688 0.000707251 1.88637e-06
6.59663e-06 1.88637e-06 0.000356761
-0.00220441 5.88546e-05 -2.35636e-06
5.88546e-05 -1.41911e-05 9.05351e-07
-2.35636e-06 9.05351e-07 -0.00038018
0.0040669 -4.56536e-06 9.85298e-05
-4.56536e-06 -0.000247027 2.41549e-05
9.85298e-05 2.41549e-05 -0.000734074
-0.00169227 0.000369485 -1.26116e-05
0.000369485 -0.000352132 -9.80109e-06
-1.26116e-05 -9.80109e-06 -0.00103067
0.0107633 0.00133792 -6.57807e-06
0.00133792 -0.000597806 -3.53697e-05
-6.57807e-06 -3.53697e-05 -0.000227544
0.00254398 0.00170063 0.000193497
0.00170063 0.00351765 0.000124317
0.000193497 0.000124317 -0.00195786
0.00633872 0.000644137 -0.000158381
0.000644137 0.00306267 2.36281e-06
-0.000158381 2.36281e-06 -0.000272065
0.000444335 0.000384116 -3.52547e-06
0.000384116 0.000520402 -2.42422e-05
-3.52547e-06 -2.42422e-05 3.53335e-05
0.0013205 -1.87205e-06 1.03787e-05
-1.87205e-06 2.36894e-05 -2.01609e-05
1.03787e-05 -2.01609e-05 -0.000139456
0.00381278 -0.000916096 5.07954e-05
-0.000916096 0.00302693 -0.000215025
5.07954e-05 -0.000215025 0.00125693
0.0174619 0.00421292 0.000295579
0.00421292 0.00489043 -0.000254715
0.000295579 -0.000254715 0.00322407
0.00807802 -7.96852e-05 -0.000102648
-7.96852e-05 0.00391306 0.000419689
-0.000102648 0.000419689 0.00118973
0.000505178 0.000396771 -1.39171e-05
0.000396771 0.000628715 -0.000127423
-1.39171e-05 -0.000127423 7.07852e-05
0.00359399 0.00151521 0.000246955
0.00151521 0.00553675 3.36383e-05
0.000246955 3.36383e-05 -0.00231111
0.00141869 0.000318924 6.75836e-06
0.000318924 0.000971973 1.08136e-05
6.75836e-06 1.08136e-05 0.000633446
0.000630041 0.00022121 3.88994e-06
0.00022121 0.000693391 5.13385e-07
3.88994e-06 5.13385e-07 0.000287141
0.000296684 -2.68825e-05 -1.35628e-05
-2.68825e-05 0.000605422 -2.19461e-06
-1.35628e-05 -2.19461e-06 0.000271129
-4.51781e-05 -5.22306e-05 1.25428e-06
-5.22306e-05 -0.000259105 5.49637e-06
1.25428e-06 5.49637e-06 -0.000384808
0.000790844 -1.42971e-05 4.55597e-06
-1.42971e-05 0.000677971 -3.7315e-06
4.55597e-06 -3.7315e-06 0.000305464
0.00010696 5.69044e-05 4.65802e-06
5.69044e-05 0.000411889 -4.45399e-06
4.65802e-06 -4.45399e-06 -4.65832e-05
0.000330022 -3.10715e-05 7.94095e-07
-3.10715e-05 0.000273285 -6.30396e-08
7.94095e-07 -6.30396e-08 2.65458e-05
6.95005e-06 -1.53634e-05 4.2889e-06
-1.53634e-05 0.000297078 6.49042e-07
4.2889e-06 6.49042e-07 -8.99448e-05
0.00109109 -0.000292805 8.67111e-07
-0.000292805 0.000733134 -1.24806e-05
8.67111e-07 -1.24806e-05 0.000416181
0.000773716 -8.28623e-05 -5.52796e-06
-8.28623e-05 0.0003567 7.28698e-06
-5.52796e-06 7.28698e-06 0.000214831
0.000672881 -1.56854e-05 -1.01645e-06
-1.56854e-05 0.000176472 1.59003e-06
-1.01645e-06 1.59003e-06 4.78907e-05
0.0013818 -0.000253478 1.57832e-06
-0.000253478 0.000612944 4.98222e-06
1.57832e-06 4.98222e-06 0.000443076
-0.00218238 -0.00016641 1.73679e-05
-0.00016641 -0.00136731 1.5681e-05
1.73679e-05 1.5681e-05 -0.00168613
-8.75029e-05 -0.000116372 7.75138e-06
-0.000116372 -0.000293712 -2.93468e-06
7.75138e-06 -2.93468e-06 -0.000326493
-8.95869e-05 -0.000320032 -9.14552e-07
-0.000320032 -0.000372812 -4.1626e-06
-9.14552e-07 -4.1626e-06 -0.000622517
0.00129025 -0.000505223 -1.68194e-07
-0.000505223 0.00032885 -1.23129e-06
-1.68194e-07 -1.23129e-06 -9.22305e-05
0.00164736 -0.00058714 -5.43325e-06
-0.00058714 0.000423799 -6.46673e-07
-5.43325e-06 -6.46673e-07 1.29629e-05
0.00181693 -0.000356359 5.14971e-06
-0.000356359 0.000759696 -3.09354e-06
5.14971e-06 -3.09354e-06 0.000554139
0.00127433 -0.000442508 1.50263e-06
-0.000442508 0.000348706 6.77908e-07
1.50263e-06 6.77908e-07 1.25307e-05
0.00163441 -0.0004892 3.78021e-06
-0.0004892 0.000440097 -2.94379e-06
3.78021e-06 -2.94379e-06 9.85598e-05
0.000633377 -0.000292743 -2.50111e-06
-0.000292743 -7.68594e-05 5.6279e-06
-2.50111e-06 5.6279e-06 -0.000339755
0.00111424 -0.000418845 2.17204e-06
-0.000418845 0.00015375 -5.38486e-06
2.17204e-06 -5.38486e-06 -0.000174063
0.000350409 -0.000132932 4.40807e-07
-0.000132932 -2.75754e-05 -4.20318e-06
4.40807e-07 -4.20318e-06 -0.000273707
0.0011125 -0.000325307 -6.34199e-06
-0.000325307 0.000365481 4.34459e-06
-6.34199e-06 4.34459e-06 0.000112677
-0.000939843 -0.000128746 -5.04241e-07
-0.000128746 -0.000996054 -9.61636e-06
-5.04241e-07 -9.61636e-06 -0.0012103
0.000167511 -5.17707e-05 6.37028e-07
-5.17707e-05 -0.000177395 -1.07657e-06
6.37028e-07 -1.07657e-06 -0.000335037
0.000453114 -0.000128744 2.0964e-07
-0.000128744 6.18495e-05 3.40196e-07
2.0964e-07 3.40196e-07 -0.00016196
0.000825294 -0.000214695 8.11926e-06
-0.000214695 0.000297922 -1.07272e-06
8.11926e-06 -1.07272e-06 7.94264e-05
0.000505096 -0.000115133 5.44088e-07
-0.000115133 7.45017e-05 3.01311e-06
5.44088e-07 3.01311e-06 -0.000102149
0.000717611 -9.5084e-05 -1.27269e-07
-9.5084e-05 0.000170638 3.69303e-07
-1.27269e-07 3.69303e-07 2.52695e-05
0.000566318 7.56392e-07 1.36033e-06
7.56392e-07 5.51688e-05 5.37548e-06
1.36033e-06 5.37548e-06 -4.41543e-05
0.00095032 -0.000123835 -1.28377e-06
-0.000123835 0.000330789 -1.04838e-06
-1.28377e-06 -1.04838e-06 0.00018565
0.000577937 -7.46507e-07 -1.18994e-06
-7.46507e-07 6.21494e-05 -3.19724e-07
-1.18994e-06 -3.19724e-07 -2.5394e-05
0.000422991 4.19487e-05 1.06571e-06
4.19487e-05 -5.61914e-05 6.4208e-06
1.06571e-06 6.4208e-06 -8.96389e-05
0.000687635 -5.77506e-05 1.57724e-06
-5.77506e-05 0.000128219 -3.60275e-06
1.57724e-06 -3.60275e-06 4.70638e-05
0.000465613 7.381e-06 -9.04536e-07
7.381e-06 -3.95363e-05 -5.31965e-08
-9.04536e-07 -5.31965e-08 -6.74626e-05
0.00254922 8.93896e-05 -2.59844e-06
8.93896e-05 0.00126478 2.49645e-06
-2.59844e-06 2.49645e-06 0.00127021
0.000476682 -7.84805e-06 2.42371e-06
-7.84805e-06 -3.1668e-05 -5.76235e-06
2.42371e-06 -5.76235e-06 -5.82447e-05
0.00174093 4.75756e-05 1.55822e-05
4.75756e-05 0.00075546 -1.05445e-06
1.55822e-05 -1.05445e-06 0.000760597
0.00258741 4.37523e-05 2.1118e-05
4.37523e-05 0.00128493 -5.53133e-06
2.1118e-05 -5.53133e-06 0.00129634
0.00028216 1.88599e-05 9.0432e-07
1.88599e-05 -0.000109345 2.90718e-07
9.0432e-07 2.90718e-07 -0.000229355
0.000225982 1.03695e-05 1.22689e-06
1.03695e-05 -0.000164335 -3.0882e-06
1.22689e-06 -3.0882e-06 -0.000236987
0.000474415 3.54405e-05 -5.90331e-07
3.54405e-05 2.611e-05 -1.19174e-06
-5.90331e-07 -1.19174e-06 -9.79829e-05
0.000507207 2.24249e-07 1.70371e-06
2.24249e-07 -2.07861e-05 -4.19981e-06
1.70371e-06 -4.19981e-06 -3.44559e-05
0.000206836 1.42984e-05 -5.62892e-07
1.42984e-05 -0.000175512 -1.77266e-06
-5.62892e-07 -1.77266e-06 -0.000238618
0.000670034 5.56067e-05 -3.01198e-07
5.56067e-05 0.000157462 1.82564e-06
-3.01198e-07 1.82564e-06 3.97609e-05
0.00207 -1.96102e-05 -1.55048e-05
-1.96102e-05 0.00095772 -4.64673e-06
-1.55048e-05 -4.64673e-06 0.000975477
0.000484876 1.91983e-07 -5.76372e-07
1.91983e-07 -3.47943e-05 -6.25054e-08
-5.76372e-07 -6.25054e-08 -4.51397e-05
0.000129593 1.29974e-05 1.19978e-06
1.29974e-05 -0.00022225 1.41861e-06
1.19978e-06 1.41861e-06 -0.0002768
0.00202215 -4.98698e-06 -3.99922e-06
-4.98698e-06 0.000928533 4.19536e-08
-3.99922e-06 4.19536e-08 0.000946796
0.000467149 1.65851e-06 -1.29727e-06
1.65851e-06 -4.54853e-05 3.39772e-06
-1.29727e-06 3.39772e-06 -5.39089e-05
0.00203969 1.05062e-05 5.92685e-06
1.05062e-05 0.000941014 4.79512e-06
5.92685e-06 4.79512e-06 0.000958723
0.000409616 -3.56392e-05 0.000106351
-3.56392e-05 0.00177179 3.5547e-05
0.000106351 3.5547e-05 0.00130591
-0.000147476 -0.000337845 -4.19999e-05
-0.000337845 0.000334098 -1.2629e-05
-4.19999e-05 -1.2629e-05 -0.00314673
0.000259907 0.000477842 -6.45099e-06
0.000477842 0.00652779 -4.00358e-05
-6.45099e-06 -4.00358e-05 0.00282053
0.000763034 0.000129365 3.8142e-07
0.000129365 0.000195146 1.14252e-07
3.8142e-07 1.14252e-07 4.92265e-05
0.000437769 9.18304e-05 4.94277e-06
9.18304e-05 -2.42265e-05 4.54854e-06
4.94277e-06 4.54854e-06 -0.000157003
0.00105067 0.000185158 6.31458e-06
0.000185158 0.000373743 7.21335e-06
6.31458e-06 7.21335e-06 0.000226114
0.00526939 -0.000187966 -6.00254e-05
-0.000187966 -0.00041154 0.000227168
-6.00254e-05 0.000227168 -0.00132139
0.00459021 -0.000847839 7.85556e-05
-0.000847839 0.00279286 6.15575e-07
7.85556e-05 6.15575e-07 0.00137589
0.00456669 -0.00148604 0.000162755
-0.00148604 0.00194511 -0.000230885
0.000162755 -0.000230885 -0.00263897
0.00834652 -0.00232377 -3.97614e-05
-0.00232377 0.000466089 -2.98988e-05
-3.97614e-05 -2.98988e-05 0.000980757
0.00040317 -0.00270264 -0.000348905
-0.00270264 -0.00192307 9.9209e-05
-0.000348905 9.9209e-05 -0.00489088
0.0242949 0.00368705 0.000184842
0.00368705 0.00972505 0.000146826
0.000184842 0.000146826 0.00583038
0.00669651 -2.02711e-05 0.000250762
-2.02711e-05 -0.00291396 -0.000209947
0.000250762 -0.000209947 -0.0029016
0.00462986 -0.00255431 -3.3976e-05
-0.00255431 0.000219893 1.65072e-05
-3.3976e-05 1.65072e-05 0.000371729
0.00720574 -0.00350888 -9.89558e-05
-0.00350888 0.00275464 2.16386e-05
-9.89558e-05 2.16386e-05 -0.00176659
-0.00280011 0.00339963 -8.62993e-05
0.00339963 0.0032514 -0.0002863
-8.62993e-05 -0.0002863 -0.00120915
0.00922316 0.000195549 -6.51908e-05
0.000195549 -0.00356248 0.000128062
-6.51908e-05 0.000128062 -0.000576447
0.0015172 -0.00169352 -0.000122636
-0.00169352 0.000749093 4.6167e-05
-0.000122636 4.6167e-05 0.000396696
0.0102754 -0.00268993 -0.000266387
-0.00268993 0.00545197 0.000163667
-0.000266387 0.000163667 0.00050019
-0.00122321 -5.27278e-05 3.94161e-05
-5.27278e-05 0.00215117 -0.000340312
3.94161e-05 -0.000340312 -0.00135355
0.00851697 -0.00105897 0.000107144
-0.00105897 -0.00199586 5.52412e-05
0.000107144 5.52412e-05 -0.00114073
0.000286271 9.21395e-05 3.63353e-06
9.21395e-05 -6.04085e-05 1.49185e-05
3.63353e-06 1.49185e-05 -0.000211452
0.00075013 -2.07055e-05 2.78395e-06
-2.07055e-05 0.000275552 -3.26137e-06
2.78395e-06 -3.26137e-06 4.66261e-05
0.000515993 -0.000142946 3.83691e-07
-0.000142946 9.23216e-05 -1.01675e-05
3.83691e-07 -1.01675e-05 -0.000116117
0.00066739 0.000129987 -2.06151e-06
0.000129987 0.000135884 1.21813e-06
-2.06151e-06 1.21813e-06 -1.69648e-05
0.000701375 0.000128481 2.21821e-06
0.000128481 0.000214455 -3.63648e-06
2.21821e-06 -3.63648e-06 3.48674e-05
0.00119917 0.000193207 -3.36078e-06
0.000193207 0.000518022 -2.98291e-06
-3.36078e-06 -2.98291e-06 0.000339483
-0.00102848 -0.000854564 2.74383e-05
-0.000854564 -0.00146965 -1.12156e-05
2.74383e-05 -1.12156e-05 -0.00144929
0.000896037 -0.000348695 2.8398e-05
-0.000348695 0.00020105 -2.57364e-05
2.8398e-05 -2.57364e-05 0.000231905
-3.85462e-05 5.51138e-06 -1.5242e-06
5.51138e-06 -0.00020454 -9.78198e-06
-1.5242e-06 -9.78198e-06 -0.000418544
0.00192058 -0.000436364 5.15507e-05
-0.000436364 0.001144 -2.19897e-05
5.15507e-05 -2.19897e-05 0.00075411
0.00166759 -9.21227e-05 -4.36366e-06
-9.21227e-05 0.000963372 9.06671e-06
-4.36366e-06 9.06671e-06 0.000681485
0.000104807 9.37783e-05 3.38314e-06
9.37783e-05 -7.67537e-05 3.73851e-06
3.38314e-06 3.73851e-06 -0.000275854
0.000753625 0.000139731 5.88792e-07
0.000139731 0.000377668 -3.19212e-06
5.88792e-07 -3.19212e-06 0.000183885
0.000128121 -0.001001 -5.58985e-06
-0.001001 -0.000441991 -5.9071e-06
-5.58985e-06 -5.9071e-06 -0.000677753
0.000177055 -1.88668e-05 -6.88568e-06
-1.88668e-05 0.0004584 5.27688e-06
-6.88568e-06 5.27688e-06 -5.93648e-05
0.00142794 -0.00031724 2.49857e-06
-0.00031724 0.00073115 -9.3e-06
2.49857e-06 -9.3e-06 0.000468298
0.00125093 0.000175632 -1.48549e-06
0.000175632 0.000670177 -1.18998e-05
-1.48549e-06 -1.18998e-05 0.000480419
-0.00265082 -0.000187386 -7.99645e-05
-0.000187386 -0.0006216 -1.25151e-05
-7.99645e-05 -1.25151e-05 -0.00144053
1.80158e-05 -0.000152926 -1.99009e-05
-0.000152926 0.000368304 7.10637e-06
-1.99009e-05 7.10637e-06 1.50273e-05
0.000160488 0.000123731 -5.68907e-06
0.000123731 0.000420487 1.28113e-05
-5.68907e-06 1.28113e-05 7.95143e-06
-0.000171523 0.000130805 -7.60643e-06
0.000130805 -0.000611011 1.69609e-06
-7.60643e-06 1.69609e-06 -0.00147881
-0.00156848 0.000127178 3.67048e-05
0.000127178 0.000969409 -1.48713e-05
3.67048e-05 -1.48713e-05 0.000221631
-0.000221992 -0.000146851 0.000303721
-0.000146851 0.000727971 1.98344e-05
0.000303721 1.98344e-05 -0.00300312
-2.5394e-05 0.000381494 -1.1715e-06
0.000381494 0.000140161 1.60417e-05
-1.1715e-06 1.60417e-05 -0.00022862
0.000671401 0.000754152 -1.32299e-05
0.000754152 0.000449294 -4.70971e-06
-1.32299e-05 -4.70971e-06 -0.000128262
-0.0020133 2.15587e-05 -2.16405e-05
2.15587e-05 1.58035e-05 -1.35962e-05
-2.16405e-05 -1.35962e-05 -0.000480331
-0.00421926 0.000715492 5.50666e-05
0.000715492 0.00226806 0.000170435
5.50666e-05 0.000170435 -0.00290294
-0.00268094 0.00130269 -0.000188426
0.00130269 -0.00211046 -0.000438982
-0.000188426 -0.000438982 -0.00622053
0.00339362 5.72969e-05 7.62479e-05
5.72969e-05 -0.000315948 0.000101002
7.62479e-05 0.000101002 -0.000290813
0.00634538 0.000108049 -0.000253166
0.000108049 -0.00263832 0.000214875
-0.000253166 0.000214875 -0.00287589
0.000279015 0.000310512 1.24245e-06
0.000310512 0.000478048 -1.04239e-06
1.24245e-06 -1.04239e-06 5.78416e-05
0.000987219 -6.86015e-06 2.83029e-05
-6.86015e-06 -6.15115e-05 -2.14879e-05
2.83029e-05 -2.14879e-05 -0.000199334
0.00390894 -0.000676714 -7.83756e-05
-0.000676714 0.00273077 4.20975e-06
-7.83756e-05 4.20975e-06 0.0012998
1.69919e-05 0.00060158 -0.000115023
0.00060158 0.00106353 -6.30156e-06
-0.000115023 -6.30156e-06 -0.000190025
0.0126346 0.00430987 4.55146e-05
0.00430987 0.00209706 -0.000369287
4.55146e-05 -0.000369287 0.000228848
-0.00040448 0.00266635 6.89406e-05
0.00266635 0.00351908 0.000292791
6.89406e-05 0.000292791 -0.000835033
0.0055042 0.000507208 5.27708e-05
0.000507208 0.00589637 -2.35117e-05
5.27708e-05 -2.35117e-05 -0.00112396
0.000798949 -1.62117e-05 3.77066e-05
-1.62117e-05 0.00138152 -2.83973e-05
3.77066e-05 -2.83973e-05 0.000461507
7.60543e-05 -0.000116126 -9.13144e-05
-0.000116126 0.00177807 3.87995e-06
-9.13144e-05 3.87995e-06 0.00121446
0.00221618 -0.000852943 0.000638475
-0.000852943 0.000774428 -0.000244447
0.000638475 -0.000244447 -0.00387806
0.0161145 0.00612822 -5.08996e-05
0.00612822 0.0109576 3.23678e-06
-5.08996e-05 3.23678e-06 0.00855081
0.00363063 0.00333819 -0.000157271
0.00333819 0.00042991 0.000715233
-0.000157271 0.000715233 -0.00279992
0.0119308 -0.0029874 0.000241928
-0.0029874 0.00567253 -0.000202485
0.000241928 -0.000202485 0.000358966
0.00355015 -0.000704879 -7.29768e-05
-0.000704879 0.00284372 4.273e-05
-7.29768e-05 4.273e-05 0.00203911
0.000810943 0.00025376 2.27722e-06
0.00025376 0.000816425 3.24819e-06
2.27722e-06 3.24819e-06 0.000397614
2.0327e-05 -4.01847e-05 -7.7481e-06
-4.01847e-05 0.000371129 -2.71348e-06
-7.7481e-06 -2.71348e-06 2.47342e-05
0.00165765 -0.000489124 3.3666e-05
-0.000489124 0.00108378 -1.48624e-05
3.3666e-05 -1.48624e-05 0.000627572
0.000660718 -8.44018e-05 -5.85501e-07
-8.44018e-05 0.000426856 2.65999e-06
-5.85501e-07 2.65999e-06 0.000224447
-2.32932e-05 -1.95199e-05 1.03978e-06
-1.95199e-05 0.00025901 -9.37439e-06
1.03978e-06 -9.37439e-06 -0.000110473
0.000326751 -0.000254712 -3.88068e-06
-0.000254712 0.000400831 3.03637e-07
-3.88068e-06 3.03637e-07 7.08988e-05
0.000735254 -0.000497445 2.42325e-05
-0.000497445 0.000237486 -2.38527e-05
2.42325e-05 -2.38527e-05 -6.43201e-07
0.00252626 -0.000357265 -2.04894e-06
-0.000357265 0.00131499 2.00404e-06
-2.04894e-06 2.00404e-06 0.00110603
0.00206855 -0.000628154 1.44439e-05
-0.000628154 0.000955948 -3.59192e-06
1.44439e-05 -3.59192e-06 0.000582999
0.00120542 -0.000536944 8.817e-06
-0.000536944 0.00044076 -4.15771e-07
8.817e-06 -4.15771e-07 -0.000121797
0.000410266 -0.000316687 -4.55523e-06
-0.000316687 -0.000112579 -4.3058e-06
-4.55523e-06 -4.3058e-06 -0.000316438
0.00173627 -0.000555722 -2.06955e-06
-0.000555722 0.000544844 -1.55611e-07
-2.06955e-06 -1.55611e-07 0.000121878
0.00222132 -0.000727636 -3.43437e-06
-0.000727636 0.000746244 6.07091e-07
-3.43437e-06 6.07091e-07 0.000224464
0.0018748 -0.000751514 -9.0311e-06
-0.000751514 0.000409343 1.69187e-06
-9.0311e-06 1.69187e-06 -4.87315e-05
0.00167816 -0.000614807 -1.6622e-06
-0.000614807 0.000433228 -4.24748e-07
-1.6622e-06 -4.24748e-07 3.17707e-05
0.00154242 -0.000578802 -4.86118e-06
-0.000578802 0.000353688 1.52572e-06
-4.86118e-06 1.52572e-06 -5.70465e-05
0.00116957 -0.000435099 -1.40969e-06
-0.000435099 0.000252816 -4.92604e-06
-1.40969e-06 -4.92604e-06 -9.11476e-05
0.00168442 -0.000459185 7.74339e-06
-0.000459185 0.000542714 3.53036e-07
7.74339e-06 3.53036e-07 0.000226501
0.00154126 -0.0004845 5.27439e-06
-0.0004845 0.000386265 -2.85589e-06
5.27439e-06 -2.85589e-06 4.47427e-05
0.000372268 -0.000193514 2.73001e-06
-0.000193514 -0.000125937 9.08357e-07
2.73001e-06 9.08357e-07 -0.000363546
0.000910067 -0.000333554 3.1137e-06
-0.000333554 0.000107419 -1.37765e-06
3.1137e-06 -1.37765e-06 -0.00016384
0.000425321 -0.000334183 -1.00146e-06
-0.000334183 -0.000256942 -8.88249e-06
-1.00146e-06 -8.88249e-06 -0.000559848
-0.000119248 -3.59004e-05 -2.99008e-08
-3.59004e-05 -0.000319068 -7.06942e-07
-2.99008e-08 -7.06942e-07 -0.000538419
0.00106348 -0.000209259 -4.8638e-07
-0.000209259 0.00042142 -2.62218e-07
-4.8638e-07 -2.62218e-07 0.000163751
0.000945855 -0.000328985 -1.12632e-06
-0.000328985 0.000278849 -2.29749e-06
-1.12632e-06 -2.29749e-06 9.70659e-06
0.000683134 -3.31063e-05 -3.34998e-07
-3.31063e-05 0.000125298 6.36394e-06
-3.34998e-07 6.36394e-06 1.26707e-05
0.000803266 -0.000108618 -2.99788e-07
-0.000108618 0.000214538 -9.64327e-08
-2.99788e-07 -9.64327e-08 4.96922e-05
8.41128e-05 -0.000103574 1.3616e-06
-0.000103574 -0.000157319 2.6888e-06
1.3616e-06 2.6888e-06 -0.000371597
0.000979483 -0.000117899 3.6925e-07
-0.000117899 0.000341989 -8.46507e-07
3.6925e-07 -8.46507e-07 0.000187841
0.000603561 -4.27277e-05 -1.16488e-07
-4.27277e-05 7.55051e-05 -3.35382e-07
-1.16488e-07 -3.35382e-07 -2.43718e-05
0.000390063 2.88999e-05 1.22425e-06
2.88999e-05 -6.96522e-05 8.22098e-06
1.22425e-06 8.22098e-06 -0.000109008
0.000642662 -4.8535e-05 5.85042e-07
-4.8535e-05 9.79158e-05 -4.19714e-06
5.85042e-07 -4.19714e-06 1.05393e-05
0.000489805 1.93731e-05 -2.20052e-06
1.93731e-05 -1.85906e-05 -2.12014e-07
-2.20052e-06 -2.12014e-07 -5.0474e-05
0.0026873 9.65094e-05 -3.52214e-05
9.65094e-05 0.00135816 4.51612e-06
-3.52214e-05 4.51612e-06 0.00136288
0.000509731 1.26195e-06 2.32493e-06
1.26195e-06 -1.35761e-05 -5.88351e-06
2.32493e-06 -5.88351e-06 -4.11252e-05
0.00172593 6.31318e-05 1.8015e-05
6.31318e-05 0.000748746 -7.85959e-07
1.8015e-05 -7.85959e-07 0.000751794
0.00264503 6.23308e-05 2.61616e-05
6.23308e-05 0.00132215 -5.18545e-06
2.61616e-05 -5.18545e-06 0.00133181
0.000716875 9.31743e-05 3.62718e-06
9.31743e-05 0.000173059 9.39861e-07
3.62718e-06 9.39861e-07 3.97694e-05
0.000522042 4.61927e-05 1.49917e-06
4.61927e-05 1.97903e-05 -2.34283e-06
1.49917e-06 -2.34283e-06 -5.84279e-05
0.00045847 5.28958e-05 -1.09606e-06
5.28958e-05 1.46477e-05 -1.24174e-06
-1.09606e-06 -1.24174e-06 -0.00011598
0.000500414 1.34688e-06 8.59856e-07
1.34688e-06 -2.43944e-05 -5.11508e-06
8.59856e-07 -5.11508e-06 -4.28986e-05
0.000336363 3.65894e-05 -2.15485e-06
3.65894e-05 -9.41645e-05 -1.79037e-06
-2.15485e-06 -1.79037e-06 -0.000166186
0.000669386 7.41267e-05 -8.34521e-07
7.41267e-05 0.000151084 -1.97259e-06
-8.34521e-07 -1.97259e-06 2.68358e-05
0.00217778 -3.49227e-05 -1.97146e-05
-3.49227e-05 0.0010254 -4.76526e-06
-1.97146e-05 -4.76526e-06 0.00104166
0.000477823 -4.02604e-06 -4.6695e-08
-4.02604e-06 -3.96338e-05 -1.31071e-07
-4.6695e-08 -1.31071e-07 -5.28794e-05
0.000137871 1.3453e-05 -1.58216e-06
1.3453e-05 -0.000218652 5.29724e-07
-1.58216e-06 5.29724e-07 -0.000282992
0.00211245 -1.90101e-05 -5.23375e-06
-1.90101e-05 0.000984428 1.24204e-07
-5.23375e-06 1.24204e-07 0.00100205
0.000471104 -2.61986e-06 -2.1223e-06
-2.61986e-06 -4.35768e-05 3.44885e-06
-2.1223e-06 3.44885e-06 -5.36863e-05
0.00205292 -3.56483e-06 1.07452e-05
-3.56483e-06 0.000947693 4.77822e-06
1.07452e-05 4.77822e-06 0.000965846
0.00127623 -0.000200224 -4.73938e-05
-0.000200224 -5.35377e-05 3.18601e-05
-4.73938e-05 3.18601e-05 -0.000252117
-0.000409408 -0.000201117 5.32115e-05
-0.000201117 0.00148959 -3.06147e-06
5.32115e-05 -3.06147e-06 0.000921589
-0.00064241 -0.000356539 0.00015015
-0.000356539 0.000524341 -0.000120675
0.00015015 -0.000120675 -0.00330577
0.000169793 4.7897e-05 2.89954e-06
4.7897e-05 -0.000192861 3.61276e-06
2.89954e-06 3.61276e-06 -0.000327001
0.0020116 0.000102803 1.07029e-06
0.000102803 0.000934836 1.7497e-06
1.07029e-06 1.7497e-06 0.000773736
0.000728199 0.000141133 -2.01448e-06
0.000141133 0.000177049 -4.15226e-06
-2.01448e-06 -4.15226e-06 3.5878e-05
0.000444465 7.73247e-05 8.02546e-07
7.73247e-05 -3.36687e-05 8.84427e-07
8.02546e-07 8.84427e-07 -0.000157147
0.000486725 9.49694e-05 3.66052e-07
9.49694e-05 1.34273e-05 -5.90911e-07
3.66052e-07 -5.90911e-07 -0.00011422
0.000512426 8.84635e-05 5.12612e-06
8.84635e-05 2.0602e-05 3.13924e-06
5.12612e-06 3.13924e-06 -9.86987e-05
0.000507817 0.000161933 9.13672e-06
0.000161933 6.69518e-05 7.03169e-06
9.13672e-06 7.03169e-06 -7.25838e-05
0.00129199 0.000698546 0.000170549
0.000698546 -0.000462217 0.000242114
0.000170549 0.000242114 -0.0017317
0.00438024 -0.00015208 -4.04027e-05
-0.00015208 -0.000220013 5.68353e-05
-4.04027e-05 5.68353e-05 -0.000899396
0.00385428 -0.000608334 0.000160892
-0.000608334 0.00259066 -0.00010141
0.000160892 -0.00010141 0.00146357
0.00715415 -0.000121985 -2.60154e-06
-0.000121985 -0.00575923 0.000159982
-2.60154e-06 0.000159982 -0.00203287
0.00379761 -0.00238559 -9.97354e-05
-0.00238559 0.000486571 4.67342e-05
-9.97354e-05 4.67342e-05 0.000466683
0.00123582 -0.00344755 -0.00020689
-0.00344755 0.00143842 7.70538e-05
-0.00020689 7.70538e-05 -0.00392075
0.0139977 0.00388101 9.99003e-05
0.00388101 0.00677991 -0.000134594
9.99003e-05 -0.000134594 0.00268661
0.00246934 -0.00202996 -6.40248e-05
-0.00202996 0.000233315 2.48052e-05
-6.40248e-05 2.48052e-05 0.000382549
-0.00120096 -0.00069 -4.78791e-05
-0.00069 0.00345131 5.05868e-05
-4.78791e-05 5.05868e-05 -0.00315115
0.00693216 0.000554252 0.000169269
0.000554252 0.00292128 -2.14538e-05
0.000169269 -2.14538e-05 -0.00023137
0.0143712 -0.00209993 -6.94e-05
-0.00209993 0.00192124 -2.21685e-05
-6.94e-05 -2.21685e-05 0.00320941
-0.00202345 -0.000361178 -0.00019154
-0.000361178 -0.000408564 0.000137373
-0.00019154 0.000137373 -0.000395924
0.00356101 0.00197681 -0.000170794
0.00197681 0.00498885 -8.57385e-05
-0.000170794 -8.57385e-05 -0.00171773
-0.00258386 -0.00449228 2.3204e-05
-0.00449228 -0.0007402 -0.000230907
2.3204e-05 -0.000230907 -0.00520594
0.012305 -0.00268567 0.000101658
-0.00268567 0.00275333 -0.000564897
0.000101658 -0.000564897 0.00172887
0.00096125 2.81507e-05 9.96841e-06
2.81507e-05 0.000465478 3.20648e-06
9.96841e-06 3.20648e-06 0.000267893
0.000807185 0.000179221 -1.13628e-06
0.000179221 0.000281481 -2.47863e-06
-1.13628e-06 -2.47863e-06 0.000117563
0.00101054 -2.52914e-05 1.39914e-06
-2.52914e-05 0.000458361 -7.52446e-07
1.39914e-06 -7.52446e-07 0.000202582
0.00109378 0.000160114 -3.27853e-06
0.000160114 0.000429131 -7.95635e-06
-3.27853e-06 -7.95635e-06 0.000252564
0.00111487 -0.000891281 2.35424e-05
-0.000891281 0.000113504 3.28639e-05
2.35424e-05 3.28639e-05 -0.000181799
0.00342186 -0.000325317 -5.00471e-06
-0.000325317 0.00192389 -2.73146e-05
-5.00471e-06 -2.73146e-05 0.00158443
0.000840674 9.14533e-05 -6.1103e-06
9.14533e-05 0.000358369 -1.09612e-05
-6.1103e-06 -1.09612e-05 0.000180814
0.000208619 0.000182523 -2.10796e-06
0.000182523 5.40601e-05 7.45304e-07
-2.10796e-06 7.45304e-07 -0.000144181
0.000546334 5.25688e-05 -7.17112e-06
5.25688e-05 0.000631563 1.86593e-05
-7.17112e-06 1.86593e-05 0.000200481
0.000427814 5.43611e-05 3.92859e-06
5.43611e-05 0.000126705 3.6038e-06
3.92859e-06 3.6038e-06 -2.79421e-05
0.000214802 0.000197121 1.61617e-06
0.000197121 0.000467136 1.21918e-06
1.61617e-06 1.21918e-06 3.48493e-05
0.00135469 -0.000352634 3.51546e-06
-0.000352634 0.00133934 3.84276e-06
3.51546e-06 3.84276e-06 0.000305385
6.39232e-05 -0.000112896 1.51925e-05
-0.000112896 0.000568147 2.28338e-06
1.51925e-05 2.28338e-06 0.000186231
-0.000468303 0.000100814 -1.04489e-06
0.000100814 -0.0001778 -8.81849e-06
-1.04489e-06 -8.81849e-06 -0.000413233
0.00224274 -6.15584e-05 -5.77385e-05
-6.15584e-05 0.0033712 -3.4731e-05
-5.77385e-05 -3.4731e-05 0.00172911
0.000999263 0.000335168 -2.05979e-05
0.000335168 0.0010682 2.38128e-05
-2.05979e-05 2.38128e-05 0.000552655
-0.00146011 5.842e-05 -6.45011e-05
5.842e-05 0.00130615 -2.14497e-06
-6.45011e-05 -2.14497e-06 0.000424679
0.000876571 2.79258e-05 9.84168e-06
2.79258e-05 -0.000164288 3.42615e-06
9.84168e-06 3.42615e-06 -0.000437616
-0.00216592 0.000157932 -6.7615e-06
0.000157932 0.000628243 -4.95167e-05
-6.7615e-06 -4.95167e-05 -4.58194e-05
0.000189742 0.000219579 -1.56608e-05
0.000219579 0.000524982 8.47036e-06
-1.56608e-05 8.47036e-06 0.000188823
-0.0015002 0.000743943 0.000127126
0.000743943 -0.000402526 9.92415e-05
0.000127126 9.92415e-05 -0.00105565
0.00068513 9.90257e-06 4.93629e-05
9.90257e-06 -0.000148827 -5.61197e-06
4.93629e-05 -5.61197e-06 -0.000112634
0.00504177 -0.0018659 0.000195363
-0.0018659 0.00522954 -0.000174534
0.000195363 -0.000174534 -0.00252772
0.0160863 0.00341366 -0.000150893
0.00341366 0.00717514 0.000133294
-0.000150893 0.000133294 0.00334057
0.00338392 -0.000512501 -0.000150557
-0.000512501 0.00220471 0.000109848
-0.000150557 0.000109848 0.00121131
0.0120389 0.00412632 -4.50721e-05
0.00412632 0.00403774 -0.00018736
-4.50721e-05 -0.00018736 0.00160129
0.000351776 0.000179958 -5.75981e-05
0.000179958 0.00101845 1.30305e-05
-5.75981e-05 1.30305e-05 0.000122069
0.000120608 -0.000152025 -6.22645e-05
-0.000152025 0.00146464 1.22195e-06
-6.22645e-05 1.22195e-06 0.00110554
0.00338175 -0.00120902 0.000248072
-0.00120902 0.00149042 -2.8988e-05
0.000248072 -2.8988e-05 -0.00300162
-0.00198886 -0.00013524 3.50951e-05
-0.00013524 -0.0004143 2.99421e-05
3.50951e-05 2.99421e-05 -0.000798521
0.00969337 0.00681457 0.000494999
0.00681457 0.00728283 -0.000235219
0.000494999 -0.000235219 0.0051763
0.00687032 0.00270331 -0.000159379
0.00270331 0.00204443 0.000322427
-0.000159379 0.000322427 -0.00141346
-0.00261174 -0.0011535 0.000149651
-0.0011535 0.00249954 -0.000126647
0.000149651 -0.000126647 -0.00449536
-0.000362492 -0.000352863 2.17644e-05
-0.000352863 0.000572554 -2.29953e-05
2.17644e-05 -2.29953e-05 -0.000311024
0.000158969 -0.00061723 0.000242253
-0.00061723 -0.000243228 -5.75786e-05
0.000242253 -5.75786e-05 -0.00307231
-0.00150319 0.00023378 -0.00091952
0.00023378 0.00578557 0.000255526
-0.00091952 0.000255526 0.00238024
0.013939 0.0061062 -0.000528166
0.0061062 0.00405736 0.000523646
-0.000528166 0.000523646 0.00119802
0.00888539 -0.00295105 -0.000116522
-0.00295105 0.00356699 4.61549e-05
-0.000116522 4.61549e-05 -5.04409e-05
0.00287548 -0.00126193 -5.48419e-06
-0.00126193 0.00222109 1.52099e-05
-5.48419e-06 1.52099e-05 0.00152874
0.000407773 -4.86224e-05 8.96634e-06
-4.86224e-05 0.000534146 4.56523e-06
8.96634e-06 4.56523e-06 0.000188283
0.000118115 -0.000328515 1.88628e-07
-0.000328515 0.000323884 -7.06232e-07
1.88628e-07 -7.06232e-07 -0.000140988
0.00094158 -0.000643552 6.94231e-06
-0.000643552 0.000487802 -4.81705e-06
6.94231e-06 -4.81705e-06 0.0002596
-0.000484161 -0.000204072 2.33838e-06
-0.000204072 2.71207e-05 8.57939e-06
2.33838e-06 8.57939e-06 -0.000310027
-0.000583976 -0.000348829 -1.02676e-06
-0.000348829 -0.000360972 -1.46371e-06
-1.02676e-06 -1.46371e-06 -0.000604392
0.00281274 -0.000775313 3.98738e-05
-0.000775313 0.00114677 -6.17248e-06
3.98738e-05 -6.17248e-06 0.000824487
0.00626757 -0.00110852 -1.365e-05
-0.00110852 0.00324914 1.14667e-06
-1.365e-05 1.14667e-06 0.00281297
0.00276221 -0.000734442 8.84349e-06
-0.000734442 0.00121314 -1.23373e-06
8.84349e-06 -1.23373e-06 0.000654643
0.00168862 -0.000728342 9.74217e-06
-0.000728342 0.000431325 -1.17457e-05
9.74217e-06 -1.17457e-05 -0.000139414
0.00187526 -0.000565599 -8.5152e-06
-0.000565599 0.00059124 -5.96135e-06
-8.5152e-06 -5.96135e-06 0.000174821
0.00235012 -0.000752105 2.79377e-06
-0.000752105 0.000795529 -1.06372e-06
2.79377e-06 -1.06372e-06 0.000265712
0.00239944 -0.000811599 5.99992e-07
-0.000811599 0.000744131 -1.03728e-05
5.99992e-07 -1.03728e-05 0.000218342
0.00213563 -0.000691462 -4.50993e-06
-0.000691462 0.000408062 -5.14504e-06
-4.50993e-06 -5.14504e-06 3.62998e-05
0.00232123 -0.000802187 -6.35272e-06
-0.000802187 0.000639408 1.75646e-06
-6.35272e-06 1.75646e-06 0.000199191
0.00216053 -0.000785173 -2.50357e-06
-0.000785173 0.000566064 -1.21713e-07
-2.50357e-06 -1.21713e-07 9.78408e-05
0.0018202 -0.000600616 8.40793e-06
-0.000600616 0.000557526 -9.22496e-07
8.40793e-06 -9.22496e-07 0.00018226
0.00141361 -0.000576451 2.22772e-06
-0.000576451 0.00028043 -4.32588e-07
2.22772e-06 -4.32588e-07 -0.000106204
0.0013175 -0.000554372 2.3038e-06
-0.000554372 0.000213821 -4.09004e-08
2.3038e-06 -4.09004e-08 -0.00019304
0.00175861 -0.000415629 5.74304e-06
-0.000415629 0.000626034 2.48397e-06
5.74304e-06 2.48397e-06 0.000336696
0.001406 -0.000427214 -1.0284e-06
-0.000427214 0.000373151 -1.48954e-06
-1.0284e-06 -1.48954e-06 6.12991e-05
0.00144055 -0.000478249 7.71431e-06
-0.000478249 0.000329085 -1.06814e-06
7.71431e-06 -1.06814e-06 -1.16913e-05
0.000807336 -0.000187081 2.58606e-06
-0.000187081 0.000241612 -2.91434e-06
2.58606e-06 -2.91434e-06 -3.34243e-05
0.000698401 -0.000229207 -1.89099e-06
-0.000229207 8.93444e-05 1.30115e-06
-1.89099e-06 1.30115e-06 -0.00015388
0.00105558 -0.000353889 3.91869e-06
-0.000353889 0.000206348 -8.42879e-06
3.91869e-06 -8.42879e-06 -6.73061e-05
0.000182271 -4.50722e-05 -6.31277e-07
-4.50722e-05 -0.000193749 5.29104e-06
-6.31277e-07 5.29104e-06 -0.000325547
0.000716721 -9.27275e-05 -5.95551e-07
-9.27275e-05 0.000196481 6.8339e-07
-5.95551e-07 6.8339e-07 -3.00758e-05
0.00145283 -0.000295387 1.88993e-06
-0.000295387 0.00068075 6.0411e-07
1.88993e-06 6.0411e-07 0.000407945
0.000377274 3.68147e-06 -4.61625e-06
3.68147e-06 -8.20226e-05 1.23381e-05
-4.61625e-06 1.23381e-05 -0.000125428
0.000650074 -4.99986e-05 3.14374e-07
-4.99986e-05 9.78175e-05 3.38976e-08
3.14374e-07 3.38976e-08 -1.35759e-05
0.00131943 -0.000174007 -4.35523e-07
-0.000174007 0.000537477 5.7411e-07
-4.35523e-07 5.7411e-07 0.00036214
0.000647327 -4.92812e-05 2.84565e-07
-4.92812e-05 0.000101237 -4.85258e-06
2.84565e-07 -4.85258e-06 1.04922e-06
0.000466087 1.98975e-05 -2.75975e-07
1.98975e-05 -2.61798e-05 -3.29412e-07
-2.75975e-07 -3.29412e-07 -6.4274e-05
0.00282903 0.000120643 -3.63648e-05
0.000120643 0.00145607 4.34528e-06
-3.63648e-05 4.34528e-06 0.00145514
0.000537721 1.3632e-05 1.39467e-06
1.3632e-05 8.02813e-06 -6.89324e-06
1.39467e-06 -6.89324e-06 -2.28605e-05
0.00269883 9.97303e-05 4.29617e-06
9.97303e-05 0.00136597 4.84531e-07
4.29617e-06 4.84531e-07 0.00137006
0.00261663 8.03724e-05 2.95389e-05
8.03724e-05 0.00130808 -4.70022e-06
2.95389e-05 -4.70022e-06 0.00131577
0.000826026 8.88104e-05 3.1973e-06
8.88104e-05 0.00029371 -4.46085e-06
3.1973e-06 -4.46085e-06 0.000108853
0.000826352 0.000128111 6.12594e-06
0.000128111 0.000259134 5.99915e-07
6.12594e-06 5.99915e-07 9.93508e-05
0.000579931 3.93369e-05 2.74258e-06
3.93369e-05 5.32029e-05 -3.26002e-06
2.74258e-06 -3.26002e-06 -3.34283e-05
0.000624453 0.000101969 2.32534e-07
0.000101969 0.000110333 -2.22661e-07
2.32534e-07 -2.22661e-07 -1.99993e-05
0.000482331 -1.81314e-06 3.76874e-07
-1.81314e-06 -3.32906e-05 -6.21624e-06
3.76874e-07 -6.21624e-06 -5.71352e-05
0.000542637 4.90321e-05 1.72509e-07
4.90321e-05 3.30218e-05 -1.29665e-07
1.72509e-07 -1.29665e-07 -4.53044e-05
0.000584048 5.58325e-05 -3.73349e-06
5.58325e-05 7.89698e-05 -1.54434e-06
-3.73349e-06 -1.54434e-06 -4.27492e-05
0.00233378 -5.10644e-05 -2.58096e-05
-5.10644e-05 0.00112469 -4.91736e-06
-2.58096e-05 -4.91736e-06 0.00113846
0.000483858 -4.08699e-06 -7.57613e-07
-4.08699e-06 -3.4336e-05 -1.53563e-07
-7.57613e-07 -1.53563e-07 -5.241e-05
0.000491317 5.43253e-05 -3.18342e-06
5.43253e-05 3.64836e-06 5.13588e-07
-3.18342e-06 5.13588e-07 -6.78985e-05
0.00217247 -3.41206e-05 -4.6703e-06
-3.41206e-05 0.00102201 2.23905e-07
-4.6703e-06 2.23905e-07 0.00103842
0.000479614 -3.86488e-06 -2.23366e-06
-3.86488e-06 -3.88288e-05 3.86039e-06
-2.23366e-06 3.86039e-06 -5.17411e-05
0.00208755 -1.82061e-05 1.48569e-05
-1.82061e-05 0.000968665 4.64858e-06
1.48569e-05 4.64858e-06 0.00098642
-0.00198961 0.00011232 -1.42835e-05
0.00011232 7.09687e-05 -2.32832e-05
-1.42835e-05 -2.32832e-05 -8.30058e-05
0.00128546 -0.000176448 -1.56961e-05
-0.000176448 4.15648e-05 1.65813e-05
-1.56961e-05 1.65813e-05 -1.18867e-06
7.04447e-05 -0.000181941 7.225e-06
-0.000181941 0.00140604 -3.27562e-05
7.225e-06 -3.27562e-05 0.000927172
0.000819848 9.84344e-05 -3.45083e-07
9.84344e-05 0.000248945 1.02954e-06
-3.45083e-07 1.02954e-06 8.61494e-05
0.00041852 8.92868e-05 4.39053e-06
8.92868e-05 -4.9201e-05 -1.19124e-06
4.39053e-06 -1.19124e-06 -0.000197462
-0.00164193 -1.58795e-05 -4.02691e-06
-1.58795e-05 -0.00129305 -7.43781e-06
-4.02691e-06 -7.43781e-06 -0.00142522
-0.000173222 3.79215e-05 1.60376e-06
3.79215e-05 -0.000388485 1.1255e-05
1.60376e-06 1.1255e-05 -0.000523777
0.00289175 0.000391412 -3.3242e-06
0.000391412 0.00151756 -1.09513e-06
-3.3242e-06 -1.09513e-06 0.00127386
0.000698542 4.65049e-05 -5.26986e-06
4.65049e-05 0.00011372 -4.62004e-06
-5.26986e-06 -4.62004e-06 -7.06321e-06
0.000476127 9.43614e-05 -5.70932e-06
9.43614e-05 2.9811e-06 -9.25486e-06
-5.70932e-06 -9.25486e-06 -0.000116499
0.000706823 7.22814e-05 1.98143e-07
7.22814e-05 0.000142413 -4.14182e-07
1.98143e-07 -4.14182e-07 2.12314e-05
0.000958086 0.000156539 -3.92421e-07
0.000156539 0.000325705 -1.7195e-06
-3.92421e-07 -1.7195e-06 0.000195625
0.000756713 0.000117711 6.46987e-06
0.000117711 0.000322347 -1.40941e-05
6.46987e-06 -1.40941e-05 0.000118615
0.00500136 0.000785881 0.00034837
0.000785881 0.00357908 0.000446113
0.00034837 0.000446113 -0.000954652
0.00192301 0.000588609 1.87085e-05
0.000588609 -1.38213e-05 8.6619e-05
1.87085e-05 8.6619e-05 -0.00152034
0.00381816 -0.00011387 2.41803e-05
-0.00011387 -0.000166077 -1.66283e-05
2.41803e-05 -1.66283e-05 -0.000471349
0.0137795 -0.00179136 -0.000239926
-0.00179136 0.00203938 -0.000136363
-0.000239926 -0.000136363 0.00368516
-0.00373324 0.00163531 6.7749e-05
0.00163531 -0.00212161 0.000421857
6.7749e-05 0.000421857 -0.00634805
0.00306592 -0.0020885 -5.09448e-05
-0.0020885 0.00100794 -1.70822e-05
-5.09448e-05 -1.70822e-05 0.00106027
0.00943595 -0.00196662 -0.000122948
-0.00196662 0.00530072 2.05231e-05
-0.000122948 2.05231e-05 0.000446691
0.0012755 -0.000726893 -7.40168e-05
-0.000726893 0.000865019 9.83731e-05
-7.40168e-05 9.83731e-05 0.000583722
0.00929067 -0.000141926 -0.000132415
-0.000141926 0.00606899 -2.37338e-07
-0.000132415 -2.37338e-07 -0.000110175
0.0046661 -0.00244042 0.000100633
-0.00244042 0.00305804 0.000169792
0.000100633 0.000169792 -0.00126926
0.0142668 -0.00370856 -0.000170954
-0.00370856 0.00195424 -0.000662687
-0.000170954 -0.000662687 0.000630788
0.00351366 -4.06377e-05 -0.000117202
-4.06377e-05 0.00300726 0.000103731
-0.000117202 0.000103731 0.002045
0.0129545 0.00239317 -0.000160068
0.00239317 0.00691228 2.24485e-05
-0.000160068 2.24485e-05 0.00205877
0.0183534 -0.00560661 -0.000186408
-0.00560661 0.00868257 -0.000634323
-0.000186408 -0.000634323 0.00513405
0.0198398 -0.00717091 7.70638e-05
-0.00717091 0.00727937 -6.26121e-05
7.70638e-05 -6.26121e-05 0.00561483
0.000895957 0.000251866 1.14043e-05
0.000251866 0.000485397 3.04326e-07
1.14043e-05 3.04326e-07 0.000226929
0.000208184 4.60268e-05 2.88656e-06
4.60268e-05 6.91368e-05 2.30199e-06
2.88656e-06 2.30199e-06 -0.000166876
0.000863641 0.000175808 -7.82004e-06
0.000175808 0.00032581 -1.11667e-05
-7.82004e-06 -1.11667e-05 0.000153857
0.0040259 -0.000554499 -5.27234e-06
-0.000554499 0.00224195 2.72595e-05
-5.27234e-06 2.72595e-05 0.00105632
0.000120217 -9.06981e-05 -2.56703e-06
-9.06981e-05 0.000734819 -3.97277e-05
-2.56703e-06 -3.97277e-05 0.00031178
-0.000109136 1.26239e-05 -5.37383e-06
1.26239e-05 -0.000201848 2.50156e-06
-5.37383e-06 2.50156e-06 -0.000350567
-0.000311898 7.49162e-05 7.16086e-06
7.49162e-05 0.000149091 -7.99015e-06
7.16086e-06 -7.99015e-06 -0.000274122
0.000200178 0.000116245 1.71353e-06
0.000116245 0.000195648 -1.41194e-06
1.71353e-06 -1.41194e-06 -5.06194e-05
0.000530747 0.000335081 9.7692e-06
0.000335081 0.000693401 -9.46693e-07
9.7692e-06 -9.46693e-07 0.000182965
-0.00187581 -0.000113937 0.000264893
-0.000113937 0.00081706 -1.68644e-05
0.000264893 -1.68644e-05 -0.000949582
-0.00150461 0.00025741 -1.64443e-05
0.00025741 -0.000770069 1.48567e-05
-1.64443e-05 1.48567e-05 -0.00111908
0.00302907 0.000830377 -0.000136697
0.000830377 0.00227196 -6.80195e-05
-0.000136697 -6.80195e-05 0.00096379
0.00140804 0.000196504 0.00016073
0.000196504 0.00165934 5.23973e-05
0.00016073 5.23973e-05 -0.00207137
-0.00180008 0.000129408 -3.89247e-05
0.000129408 0.00102507 1.68387e-05
-3.89247e-05 1.68387e-05 0.000138621
0.00206374 -0.000199933 -1.75707e-05
-0.000199933 0.000397977 -9.57335e-07
-1.75707e-05 -9.57335e-07 0.000651244
-0.000533368 0.00045828 0.000121292
0.00045828 0.000405899 1.57737e-05
0.000121292 1.57737e-05 -0.000562773
0.00138879 0.000301918 -8.00537e-05
0.000301918 0.00195679 7.99755e-05
-8.00537e-05 7.99755e-05 0.000691564
-4.40862e-05 -0.00021864 -1.26289e-05
-0.00021864 0.00134077 3.21589e-07
-1.26289e-05 3.21589e-07 0.000833833
0.0163727 -0.00359573 0.000203968
-0.00359573 0.00791266 -9.77104e-05
0.000203968 -9.77104e-05 0.00222346
0.0219843 0.00405857 -9.20736e-05
0.00405857 0.00947999 -0.000135342
-9.20736e-05 -0.000135342 0.00561247
0.00476647 -0.00134805 -0.000212218
-0.00134805 0.00233175 0.000223497
-0.000212218 0.000223497 -0.00207256
0.00219395 0.00777735 0.00218375
0.00777735 0.00293216 -0.00142434
0.00218375 -0.00142434 0.000848115
0.00109886 -0.000440786 3.16371e-05
-0.000440786 0.00132542 -9.60431e-06
3.16371e-05 -9.60431e-06 0.000359869
-0.000183226 -0.000446152 3.59546e-05
-0.000446152 0.000279852 1.45256e-05
3.59546e-05 1.45256e-05 -0.00308686
-0.00105867 0.000610028 -0.00101945
0.000610028 0.00556704 0.000326598
-0.00101945 0.000326598 0.00187643
0.00089945 -0.000731812 3.23554e-06
-0.000731812 0.00111159 3.20148e-05
3.23554e-06 3.20148e-05 0.000500878
0.0187818 0.00539587 0.000302738
0.00539587 0.00565111 8.90506e-05
0.000302738 8.90506e-05 0.0028906
0.00742085 -0.00410814 0.000166845
-0.00410814 0.00244265 -7.04066e-05
0.000166845 -7.04066e-05 -0.00129677
0.00189944 -0.00113284 -1.3741e-05
-0.00113284 0.00106892 2.94727e-05
-1.3741e-05 2.94727e-05 0.00040108
-0.0064535 -0.0015184 0.000123658
-0.0015184 0.00480617 -6.72471e-05
0.000123658 -6.72471e-05 0.0010691
0.0151429 0.00507954 -0.00132165
0.00507954 0.005937 0.000497092
-0.00132165 0.000497092 0.00356131
0.00567478 -0.00299737 -0.000384709
-0.00299737 -0.000394636 0.000180894
-0.000384709 0.000180894 -0.00382434
0.00166099 -0.00182407 0.000187771
-0.00182407 0.000161768 -0.000108655
0.000187771 -0.000108655 0.00102843
0.000701915 -0.000423939 -7.95565e-05
-0.000423939 0.000573856 3.06717e-05
-7.95565e-05 3.06717e-05 0.000159066
0.000729626 -0.000562111 -9.07745e-06
-0.000562111 0.000407777 1.28831e-05
-9.07745e-06 1.28831e-05 0.000113003
0.00332847 -0.000837863 2.41483e-05
-0.000837863 0.00152289 -7.38549e-06
2.41483e-05 -7.38549e-06 0.00118925
-0.00206231 -0.000191961 7.32352e-06
-0.000191961 -0.00103461 1.2747e-05
7.32352e-06 1.2747e-05 -0.0012806
0.00109452 -0.000570138 5.473e-06
-0.000570138 0.000246282 -1.27044e-06
5.473e-06 -1.27044e-06 -5.61e-05
0.00269339 -0.000860919 9.79964e-06
-0.000860919 0.000794892 -2.98097e-07
9.79964e-06 -2.98097e-07 0.000437953
0.00376534 -0.000863398 -2.78489e-05
-0.000863398 0.00169267 3.94959e-06
-2.78489e-05 3.94959e-06 0.00114236
0.00139574 -0.000670447 -1.39756e-07
-0.000670447 0.000255437 -9.06772e-07
-1.39756e-07 -9.06772e-07 -0.000295568
0.00176505 -0.000821019 3.14597e-06
-0.000821019 0.00022849 -1.17505e-05
3.14597e-06 -1.17505e-05 -0.000216989
0.00281846 -0.000819148 -8.63644e-07
-0.000819148 0.00102571 4.26044e-06
-8.63644e-07 4.26044e-06 0.000483956
0.00212492 -0.000786415 4.35016e-07
-0.000786415 0.000566782 -4.89861e-06
4.35016e-07 -4.89861e-06 5.93059e-05
0.00256978 -0.000744948 8.58595e-07
-0.000744948 0.000600185 -9.2575e-06
8.58595e-07 -9.2575e-06 0.00023457
0.00172081 -0.000490562 -4.9931e-06
-0.000490562 1.83394e-05 -3.17772e-06
-4.9931e-06 -3.17772e-06 -0.000224294
0.00184022 -0.000683997 -1.5e-06
-0.000683997 0.000191119 -1.17774e-06
-1.5e-06 -1.17774e-06 -0.000177552
0.00206853 -0.000684945 2.81978e-06
-0.000684945 0.000364368 -2.91149e-06
2.81978e-06 -2.91149e-06 -3.95392e-06
0.00216094 -0.00070217 -2.59296e-06
-0.00070217 0.00061124 -2.58343e-07
-2.59296e-06 -2.58343e-07 0.000216462
0.00226296 -0.000794434 -2.66253e-06
-0.000794434 0.000616688 5.46146e-09
-2.66253e-06 5.46146e-09 0.000172787
0.0023784 -0.000812086 5.036e-06
-0.000812086 0.000683089 -3.37655e-06
5.036e-06 -3.37655e-06 0.000205991
0.00193072 -0.000518338 5.92528e-06
-0.000518338 0.000679451 1.96348e-06
5.92528e-06 1.96348e-06 0.000340639
0.00134238 -0.000539621 2.38932e-06
-0.000539621 0.000282986 1.17234e-07
2.38932e-06 1.17234e-07 -7.5581e-05
0.00120292 -0.000546191 2.99124e-06
-0.000546191 0.000159089 1.03087e-06
2.99124e-06 1.03087e-06 -0.000214243
0.00122127 -0.000332744 -8.61986e-07
-0.000332744 0.000367902 5.64571e-07
-8.61986e-07 5.64571e-07 0.000105702
0.00116793 -0.000344799 4.0597e-07
-0.000344799 0.000270785 -6.37308e-07
4.0597e-07 -6.37308e-07 -4.14537e-06
0.00122075 -0.000404191 -6.14094e-06
-0.000404191 0.000262393 -1.96484e-06
-6.14094e-06 -1.96484e-06 -4.72746e-05
-0.000337119 -7.74266e-05 -2.43289e-06
-7.74266e-05 -0.000503852 3.85407e-06
-2.43289e-06 3.85407e-06 -0.000697
0.000802978 -0.000217042 1.1797e-06
-0.000217042 0.000242453 -3.90038e-07
1.1797e-06 -3.90038e-07 -3.53529e-05
0.00133441 -0.000287109 -3.41837e-06
-0.000287109 0.000498056 1.43105e-06
-3.41837e-06 1.43105e-06 0.000241772
0.00178487 3.90834e-05 -4.03549e-05
3.90834e-05 0.000803498 7.73662e-06
-4.03549e-05 7.73662e-06 0.000756678
0.000669632 -9.67027e-05 4.36704e-07
-9.67027e-05 0.000100686 -6.22716e-07
4.36704e-07 -6.22716e-07 -3.705e-05
0.00146554 -0.000146751 -1.42953e-06
-0.000146751 0.000660964 6.95939e-07
-1.42953e-06 6.95939e-07 0.000425381
0.000703535 3.80193e-05 -4.66264e-05
3.80193e-05 0.000125669 5.36684e-06
-4.66264e-05 5.36684e-06 0.000116745
0.00114292 2.4855e-05 -1.53757e-05
2.4855e-05 0.000398678 -5.36855e-07
-1.53757e-05 -5.36855e-07 0.00035619
0.000716608 -5.95621e-05 2.22851e-06
-5.95621e-05 0.000133331 -5.86644e-06
2.22851e-06 -5.86644e-06 2.191e-05
0.000585298 1.53212e-05 2.15182e-06
1.53212e-05 4.53726e-05 -8.5889e-06
2.15182e-06 -8.5889e-06 7.51002e-06
0.00288989 0.000121658 7.44868e-06
0.000121658 0.00149438 6.72726e-07
7.44868e-06 6.72726e-07 0.00149331
0.00268937 0.000100301 3.30653e-05
0.000100301 0.00136047 -4.50674e-06
3.30653e-05 -4.50674e-06 0.00136452
0.0010333 0.000133051 9.02415e-06
0.000133051 0.000404775 -7.26604e-07
9.02415e-06 -7.26604e-07 0.000205148
0.00123385 0.00015059 4.24486e-06
0.00015059 0.000532474 -2.09122e-06
4.24486e-06 -2.09122e-06 0.000343049
0.000126969 6.27813e-05 -1.355e-08
6.27813e-05 -0.000166357 6.99321e-07
-1.355e-08 6.99321e-07 -0.000329714
0.000626486 3.45168e-05 3.17626e-06
3.45168e-05 8.17859e-05 -4.51097e-06
3.17626e-06 -4.51097e-06 -1.60481e-05
0.000805096 0.000106823 6.79296e-07
0.000106823 0.000236788 7.0286e-08
6.79296e-07 7.0286e-08 8.64514e-05
0.000471255 8.21509e-06 -1.66224e-06
8.21509e-06 -3.51203e-05 -7.54925e-06
-1.66224e-06 -7.54925e-06 -6.4121e-05
0.000548648 4.1207e-05 -1.10598e-07
4.1207e-05 3.62409e-05 -3.76796e-07
-1.10598e-07 -3.76796e-07 -5.12515e-05
0.000723855 7.01468e-05 -3.0342e-06
7.01468e-05 0.000195321 -2.23999e-07
-3.0342e-06 -2.23999e-07 4.79762e-05
0.00255468 -6.92226e-05 -3.3898e-05
-6.92226e-05 0.00126666 -4.8738e-06
-3.3898e-05 -4.8738e-06 0.00127719
0.000461062 1.1974e-06 -6.58588e-07
1.1974e-06 -4.58023e-05 -1.33125e-07
-6.58588e-07 -1.33125e-07 -6.94185e-05
0.000560614 5.29893e-05 -7.94024e-07
5.29893e-05 4.54471e-05 2.78491e-06
-7.94024e-07 2.78491e-06 -3.33522e-05
0.00234248 -5.11895e-05 -5.82948e-06
-5.11895e-05 0.00113014 3.42849e-07
-5.82948e-06 3.42849e-07 0.00114394
0.000449019 -1.09107e-05 -3.58377e-06
-1.09107e-05 -5.57257e-05 4.82865e-06
-3.58377e-06 4.82865e-06 -7.35366e-05
0.00219832 -3.29402e-05 2.04273e-05
-3.29402e-05 0.00103816 4.60755e-06
2.04273e-05 4.60755e-06 0.00105466
0.00635746 0.000527651 0.000282176
0.000527651 0.00345728 5.94199e-05
0.000282176 5.94199e-05 0.00141981
-0.00174085 6.13302e-05 -1.83999e-06
6.13302e-05 5.21799e-05 -5.86554e-06
-1.83999e-06 -5.86554e-06 -0.000302311
0.000716803 2.33469e-05 -1.65969e-05
2.33469e-05 0.000103619 -4.51223e-06
-1.65969e-05 -4.51223e-06 5.01329e-05
-0.000312454 0.000105014 -7.30551e-06
0.000105014 -0.000504077 1.03287e-06
-7.30551e-06 1.03287e-06 -0.000650204
0.000480415 7.21817e-05 -5.79693e-06
7.21817e-05 2.92277e-05 -3.49043e-06
-5.79693e-06 -3.49043e-06 -0.000119874
4.7962e-05 6.33986e-05 -4.39069e-08
6.33986e-05 -0.000278034 -1.9927e-06
-4.39069e-08 -1.9927e-06 -0.000421783
0.00111668 6.91597e-05 1.18659e-06
6.91597e-05 0.000392855 -3.7185e-07
1.18659e-06 -3.7185e-07 0.000245609
0.000106735 8.56021e-05 -2.32284e-06
8.56021e-05 -0.000244195 -1.63869e-06
-2.32284e-06 -1.63869e-06 -0.000380894
0.00202601 0.000284293 -1.61876e-06
0.000284293 0.000987796 -3.45024e-06
-1.61876e-06 -3.45024e-06 0.000793949
0.0010859 0.000236399 -8.25209e-06
0.000236399 0.000376755 -1.52165e-05
-8.25209e-06 -1.52165e-05 9.29721e-05
-0.000848967 7.6768e-05 8.71305e-07
7.6768e-05 -0.000568067 8.65889e-08
8.71305e-07 8.65889e-08 -0.000869831
0.000847483 0.000152611 -4.98006e-06
0.000152611 0.000253559 -4.55383e-06
-4.98006e-06 -4.55383e-06 0.000114079
0.000149794 5.25248e-05 -6.69725e-06
5.25248e-05 -0.000214242 -7.65313e-06
-6.69725e-06 -7.65313e-06 -0.000309084
7.96577e-05 5.17504e-05 2.38062e-07
5.17504e-05 -0.000108544 9.30921e-07
2.38062e-07 9.30921e-07 -0.00029882
0.000827897 0.000245625 1.33579e-05
0.000245625 0.000505084 -3.31334e-06
1.33579e-05 -3.31334e-06 0.000157518
0.00252728 -0.00252539 0.000137343
-0.00252539 0.00516664 0.000253922
0.000137343 0.000253922 0.00028979
0.0057647 0.00109042 0.000108642
0.00109042 0.00299826 0.000159374
0.000108642 0.000159374 -0.00188096
0.00263709 0.000394351 -2.98833e-05
0.000394351 0.000473392 -8.02902e-05
-2.98833e-05 -8.02902e-05 -0.00125438
0.0215886 -0.00463328 -0.000633233
-0.00463328 0.00553461 -0.000344836
-0.000633233 -0.000344836 0.0040079
0.00596616 -0.00169363 0.000241834
-0.00169363 0.00345568 0.000447177
0.000241834 0.000447177 0.000235529
0.00363257 -0.00140989 -0.000215787
-0.00140989 0.00483047 9.02311e-05
-0.000215787 9.02311e-05 -0.002002
-0.000859684 -0.000458317 0.000139031
-0.000458317 0.000870386 9.89409e-06
0.000139031 9.89409e-06 -4.67364e-05
-0.000208412 -0.000143495 7.70558e-05
-0.000143495 0.00086534 5.53145e-05
7.70558e-05 5.53145e-05 0.000263097
0.0117408 -0.00742393 0.000408832
-0.00742393 0.00515181 0.000387157
0.000408832 0.000387157 0.00328983
0.00203956 0.00139088 -8.74989e-05
0.00139088 0.00396211 -7.66029e-05
-8.74989e-05 -7.66029e-05 -0.00218832
0.00711173 -0.00334465 -0.000116243
-0.00334465 0.00273978 9.45158e-05
-0.000116243 9.45158e-05 -0.00139592
0.0005019 0.0006184 -2.24208e-05
0.0006184 0.000977589 7.02157e-05
-2.24208e-05 7.02157e-05 0.000698587
0.0115209 0.00338439 -0.000101993
0.00338439 0.00406415 7.3768e-06
-0.000101993 7.3768e-06 0.000392113
0.0124037 -0.00595931 -0.000744329
-0.00595931 0.00346938 -0.000488553
-0.000744329 -0.000488553 0.000331226
-0.000238444 0.000411454 -1.07616e-06
0.000411454 -0.000523321 -4.57491e-06
-1.07616e-06 -4.57491e-06 -0.000663145
0.000449585 0.000131981 7.93886e-06
0.000131981 0.000184857 3.32648e-06
7.93886e-06 3.32648e-06 -2.10987e-05
0.000102732 5.9253e-05 -6.97593e-06
5.9253e-05 -8.64006e-06 -4.7476e-06
-6.97593e-06 -4.7476e-06 -0.000235964
-0.00387376 -0.000350757 -0.000139174
-0.000350757 -0.00033424 -6.65485e-05
-0.000139174 -6.65485e-05 -0.00205114
-0.000889386 0.000252103 1.82628e-05
0.000252103 -0.000210188 -2.46463e-05
1.82628e-05 -2.46463e-05 -0.000712867
0.00106436 0.000165016 -4.98463e-06
0.000165016 0.000675984 8.33677e-06
-4.98463e-06 8.33677e-06 0.000421901
0.00100653 0.000586781 1.64158e-05
0.000586781 0.000537893 4.36868e-06
1.64158e-05 4.36868e-06 0.000158042
-0.000425642 0.000439455 4.18568e-05
0.000439455 0.000595038 -2.92805e-05
4.18568e-05 -2.92805e-05 -0.000532415
0.000559472 0.00113591 5.28529e-05
0.00113591 -0.000125986 5.98348e-06
5.28529e-05 5.98348e-06 -0.000844418
-0.00542065 0.0010099 0.000312535
0.0010099 0.00511525 9.40602e-06
0.000312535 9.40602e-06 -0.00101376
0.00227357 -9.98799e-05 -7.3457e-06
-9.98799e-05 0.00189342 5.83669e-05
-7.3457e-06 5.83669e-05 -0.000709799
-0.00217571 -5.26279e-05 -9.70514e-06
-5.26279e-05 0.000586268 4.2716e-05
-9.70514e-06 4.2716e-05 -6.39657e-05
-0.000397398 -0.000234409 -5.34011e-05
-0.000234409 0.000650513 1.33438e-05
-5.34011e-05 1.33438e-05 -0.000362979
-0.0013487 -0.000352449 -5.44165e-05
-0.000352449 -0.000503535 4.10848e-05
-5.44165e-05 4.10848e-05 -0.000229864
-5.18049e-05 -0.000361344 -0.000166852
-0.000361344 0.000600367 0.000100697
-0.000166852 0.000100697 -0.00296514
0.000176412 -0.00336558 0.000238429
-0.00336558 0.0020004 -8.47616e-05
0.000238429 -8.47616e-05 -0.00335847
0.00681405 0.00460748 0.000597095
0.00460748 -0.000501611 -0.000412886
0.000597095 -0.000412886 -0.00303807
0.00857393 0.00271139 -0.000375068
0.00271139 0.00678719 0.000284304
-0.000375068 0.000284304 0.00323091
0.0011898 -0.000683273 -9.85845e-06
-0.000683273 0.00108755 -2.50028e-06
-9.85845e-06 -2.50028e-06 0.000461204
0.00160752 0.000443989 0.000103681
0.000443989 0.00662716 -1.44166e-05
0.000103681 -1.44166e-05 0.0031085
-4.27472e-05 0.00345743 1.15768e-05
0.00345743 0.000434926 6.19425e-05
1.15768e-05 6.19425e-05 -0.00270172
0.00248142 -0.00225094 8.56488e-05
-0.00225094 0.000689037 -3.65577e-05
8.56488e-05 -3.65577e-05 0.000837213
0.0169061 -0.00325841 2.20158e-05
-0.00325841 0.00376166 -7.26188e-06
2.20158e-05 -7.26188e-06 0.0018741
0.00326728 -0.00141919 1.02842e-05
-0.00141919 0.00130893 2.02698e-05
1.02842e-05 2.02698e-05 0.00103205
-0.00876989 0.00104505 -0.000490474
0.00104505 -0.00294281 6.83139e-05
-0.000490474 6.83139e-05 -0.00530664
0.0156338 -0.00208762 -0.000209582
-0.00208762 0.0023289 7.17355e-05
-0.000209582 7.17355e-05 0.000867577
0.00383503 -0.00246705 9.61979e-05
-0.00246705 -0.000129282 -6.7015e-05
9.61979e-05 -6.7015e-05 0.000202802
0.00012622 -0.000420534 -9.41733e-06
-0.000420534 0.000167639 1.86523e-05
-9.41733e-06 1.86523e-05 -0.000191121
0.000766691 -0.000685492 -2.19094e-06
-0.000685492 2.87303e-05 -2.78092e-07
-2.19094e-06 -2.78092e-07 -0.000174422
0.00589716 -0.00101622 2.61683e-05
-0.00101622 0.00256848 -8.42994e-06
2.61683e-05 -8.42994e-06 0.00219827
-0.000612273 -0.000375307 -8.47631e-06
-0.000375307 -0.000631145 7.0855e-06
-8.47631e-06 7.0855e-06 -0.000924741
0.00133844 -0.000709993 -4.78426e-06
-0.000709993 0.000112996 -1.74383e-06
-4.78426e-06 -1.74383e-06 -0.000250045
0.00270941 -0.000919224 5.68191e-06
-0.000919224 0.000616789 -7.5261e-06
5.68191e-06 -7.5261e-06 0.00024849
0.00143508 -0.000652556 -1.36187e-05
-0.000652556 0.000252189 6.65149e-06
-1.36187e-05 6.65149e-06 -0.0002797
0.00179156 -0.000811196 -1.65635e-06
-0.000811196 0.000247834 1.12719e-08
-1.65635e-06 1.12719e-08 -0.00020292
0.00164059 -0.000665945 7.46383e-07
-0.000665945 -7.00823e-05 -6.14731e-06
7.46383e-07 -6.14731e-06 -0.000351135
0.00147294 -0.000717544 -4.70672e-06
-0.000717544 0.000186334 2.30325e-06
-4.70672e-06 2.30325e-06 -0.000298897
0.00189847 -0.000662509 -8.04804e-07
-0.000662509 0.000239042 1.46226e-06
-8.04804e-07 1.46226e-06 -0.000109121
0.0019167 -0.000505389 -1.10249e-06
-0.000505389 6.40614e-05 -4.13874e-06
-1.10249e-06 -4.13874e-06 -0.000139405
0.00184512 -0.000416845 -5.50585e-06
-0.000416845 7.60779e-05 -1.23017e-06
-5.50585e-06 -1.23017e-06 -9.29113e-05
0.00166483 -0.000500921 -5.71763e-06
-0.000500921 2.12969e-06 -1.92392e-06
-5.71763e-06 -1.92392e-06 -0.000251274
0.00176835 -0.00048796 1.35373e-06
-0.00048796 5.01894e-05 2.68998e-06
1.35373e-06 2.68998e-06 -0.000188424
0.00162569 -0.000590337 -5.57087e-06
-0.000590337 0.000121032 -2.01667e-06
-5.57087e-06 -2.01667e-06 -0.000210983
0.00200599 -0.000690811 2.65698e-06
-0.000690811 0.000306416 -3.81239e-07
2.65698e-06 -3.81239e-07 -5.85547e-05
0.00205809 -0.00068352 4.73212e-06
-0.00068352 0.000353602 1.49721e-06
4.73212e-06 1.49721e-06 -1.20559e-05
0.00155992 -0.000569121 -1.89987e-06
-0.000569121 0.000299701 -1.32969e-06
-1.89987e-06 -1.32969e-06 -6.09341e-05
0.0020027 -0.000690044 1.65481e-06
-0.000690044 0.000514223 -6.00101e-07
1.65481e-06 -6.00101e-07 0.000119381
0.0021642 -0.000781011 5.94113e-07
-0.000781011 0.000570303 -1.65569e-06
5.94113e-07 -1.65569e-06 0.000123499
0.00128568 -0.00034105 -5.90748e-06
-0.00034105 0.00029954 1.38158e-06
-5.90748e-06 1.38158e-06 4.08445e-05
0.00143447 -0.000463278 2.27796e-06
-0.000463278 0.000363155 1.09381e-06
2.27796e-06 1.09381e-06 3.82696e-05
0.000794631 -0.000469906 -4.15263e-06
-0.000469906 -3.45427e-05 6.63591e-07
-4.15263e-06 6.63591e-07 -0.000374717
0.000514973 -0.000188921 -5.47767e-06
-0.000188921 -2.854e-05 1.22023e-06
-5.47767e-06 1.22023e-06 -0.000248973
0.00107039 -0.000331138 3.86868e-07
-0.000331138 0.000263615 -8.99638e-08
3.86868e-07 -8.99638e-08 7.68744e-06
0.000409298 -0.000260889 -8.44181e-06
-0.000260889 -0.000186485 -7.88141e-07
-8.44181e-06 -7.88141e-07 -0.0004444
0.000273923 -3.46081e-05 -8.61935e-06
-3.46081e-05 -0.000150719 1.26934e-05
-8.61935e-06 1.26934e-05 -0.000217694
0.000864705 -0.000146002 1.76593e-06
-0.000146002 0.000240353 8.31434e-07
1.76593e-06 8.31434e-07 3.41762e-05
0.00095366 -0.000247557 6.60416e-07
-0.000247557 0.000331342 7.50621e-07
6.60416e-07 7.50621e-07 5.75578e-05
0.00358328 0.000212484 1.33901e-06
0.000212484 0.00195929 4.32323e-06
1.33901e-06 4.32323e-06 0.00193034
0.000399379 -1.16384e-05 5.49642e-08
-1.16384e-05 -7.01599e-05 -2.96142e-07
5.49642e-08 -2.96142e-07 -0.000124782
0.00117479 -0.000107208 7.90111e-07
-0.000107208 0.000418009 -6.33547e-06
7.90111e-07 -6.33547e-06 0.000269755
0.00320246 0.000140536 7.95129e-06
0.000140536 0.00169722 6.33783e-07
7.95129e-06 6.33783e-07 0.00169158
0.000542571 3.31772e-06 3.87779e-06
3.31772e-06 2.11167e-05 -9.83325e-06
3.87779e-06 -9.83325e-06 -2.49332e-05
0.0029486 0.000118956 4.76059e-05
0.000118956 0.00153055 -4.37501e-06
4.76059e-05 -4.37501e-06 0.00153027
0.00196227 0.000285876 6.74951e-06
0.000285876 0.000914577 3.41619e-06
6.74951e-06 3.41619e-06 0.000700067
0.000834127 0.000143419 6.19751e-07
0.000143419 0.000290791 -3.05239e-06
6.19751e-07 -3.05239e-06 8.524e-05
0.00119201 0.000151695 1.41333e-06
0.000151695 0.000522827 -6.29501e-06
1.41333e-06 -6.29501e-06 0.000302347
0.000635031 4.85879e-05 2.80783e-06
4.85879e-05 9.27092e-05 -5.69045e-06
2.80783e-06 -5.69045e-06 -2.16778e-05
0.000723101 9.37619e-05 9.9932e-08
9.37619e-05 0.000201098 1.30181e-06
9.9932e-08 1.30181e-06 2.54472e-05
0.000384812 0.000107724 -9.26827e-07
0.000107724 6.71924e-06 4.61376e-06
-9.26827e-07 4.61376e-06 -0.000169334
0.000504737 -2.21377e-06 -1.59182e-06
-2.21377e-06 -8.5272e-06 -8.99334e-06
-1.59182e-06 -8.99334e-06 -4.38409e-05
0.000597266 3.97523e-05 -3.95526e-08
3.97523e-05 6.866e-05 -2.99903e-07
-3.95526e-08 -2.99903e-07 -3.10689e-05
0.000449491 8.39675e-05 -4.44157e-06
8.39675e-05 2.01723e-06 -1.91306e-07
-4.44157e-06 -1.91306e-07 -0.000133632
0.00271988 -8.64439e-05 -4.25887e-05
-8.64439e-05 0.00137533 -4.59455e-06
-4.25887e-05 -4.59455e-06 0.0013829
0.000434246 -1.91499e-05 2.49975e-06
-1.91499e-05 -5.67036e-05 -1.24708e-07
2.49975e-06 -1.24708e-07 -8.63658e-05
0.000517058 4.57091e-05 -2.01574e-06
4.57091e-05 1.79221e-05 3.34986e-06
-2.01574e-06 3.34986e-06 -7.00322e-05
0.00253053 -6.92768e-05 -6.33857e-06
-6.92768e-05 0.00125138 4.63697e-07
-6.33857e-06 4.63697e-07 0.00126186
0.000448631 -6.5287e-06 -2.21922e-06
-6.5287e-06 -5.32381e-05 5.97733e-06
-2.21922e-06 5.97733e-06 -7.66016e-05
0.00230571 -5.03007e-05 2.30537e-05
-5.03007e-05 0.00110696 4.63845e-06
2.30537e-05 4.63845e-06 0.00112107
-0.00956849 0.000982655 -8.28862e-05
0.000982655 0.00341088 8.03746e-05
-8.28862e-05 8.03746e-05 -0.00239116
0.00598272 0.000354253 -1.2222e-06
0.000354253 0.00339529 -2.2575e-06
-1.2222e-06 -2.2575e-06 0.00145178
-0.00142114 1.22153e-05 3.01334e-05
1.22153e-05 6.22238e-05 9.96235e-06
3.01334e-05 9.96235e-06 -0.00049739
0.000125129 0.000112428 -1.50365e-06
0.000112428 -0.000205541 1.95761e-06
-1.50365e-06 1.95761e-06 -0.000380783
0.00339247 0.000617244 1.11077e-05
0.000617244 0.00173099 1.02093e-05
1.11077e-05 1.02093e-05 0.00139943
0.00162251 0.000184502 -8.48069e-06
0.000184502 0.000789376 3.31666e-07
-8.48069e-06 3.31666e-07 0.000509846
0.000633495 7.15311e-05 -6.77904e-06
7.15311e-05 9.33162e-05 -1.16538e-05
-6.77904e-06 -1.16538e-05 -5.64452e-05
0.00238114 0.000253724 3.50092e-06
0.000253724 0.00112962 -9.8807e-07
3.50092e-06 -9.8807e-07 0.000974993
-0.000436617 4.80994e-05 -7.94119e-06
4.80994e-05 -0.000518835 8.0579e-06
-7.94119e-06 8.0579e-06 -0.000658493
0.00021118 8.30953e-05 -1.47584e-06
8.30953e-05 -5.54573e-07 5.19364e-06
-1.47584e-06 5.19364e-06 -0.000259337
0.000503319 0.000148267 -2.74184e-06
0.000148267 6.80634e-05 -5.28212e-06
-2.74184e-06 -5.28212e-06 -0.000217206
0.00191142 0.00043563 6.31328e-06
0.00043563 0.0009471 -2.83287e-05
6.31328e-06 -2.83287e-05 0.000542329
0.000253739 0.000431745 -1.46725e-05
0.000431745 -0.000190729 4.35125e-05
-1.46725e-05 4.35125e-05 -0.000338069
0.00142306 4.03345e-05 -1.05621e-05
4.03345e-05 0.000682266 1.37407e-05
-1.05621e-05 1.37407e-05 0.000498983
0.00129469 0.000224594 4.06302e-06
0.000224594 0.000792307 -9.70636e-06
4.06302e-06 -9.70636e-06 0.000454509
-0.00140772 -0.00204963 -0.00131463
-0.00204963 0.00101595 -0.00022939
-0.00131463 -0.00022939 -0.00232719
-0.00297732 -0.00190209 0.000451208
-0.00190209 0.00490551 0.00018826
0.000451208 0.00018826 -0.000161897
0.00647651 0.00136462 -0.000464996
0.00136462 0.00283496 -0.000164966
-0.000464996 -0.000164966 -0.00239173
0.00152106 -0.0077732 0.00213527
-0.0077732 0.00289506 0.0013814
0.00213527 0.0013814 0.000460051
0.022944 -0.00349222 5.19533e-05
-0.00349222 0.00770561 0.000316387
5.19533e-05 0.000316387 0.00487683
-0.00282551 0.00142902 -1.05237e-05
0.00142902 0.00199107 -0.000180762
-1.05237e-05 -0.000180762 -0.00344881
-0.00256285 0.000179383 -0.000391815
0.000179383 0.000363511 -6.83126e-05
-0.000391815 -6.83126e-05 -0.00120398
0.00117995 0.00067627 6.94144e-05
0.00067627 0.0014606 4.88225e-05
6.94144e-05 4.88225e-05 0.00117629
0.0181768 -0.00436532 -0.000557749
-0.00436532 0.00744686 9.44941e-06
-0.000557749 9.44941e-06 0.00439555
-0.00231561 0.00255592 -9.4817e-05
0.00255592 0.000377218 -4.60732e-05
-9.4817e-05 -4.60732e-05 -0.00416993
0.00277727 0.00184907 7.30771e-07
0.00184907 0.000796121 -7.10007e-05
7.30771e-07 -7.10007e-05 0.00136972
0.00240265 0.0039704 -0.000342231
0.0039704 -0.00198185 -0.000105685
-0.000342231 -0.000105685 -0.00464519
0.00320872 0.00109423 2.10612e-05
0.00109423 0.00116242 -1.20096e-05
2.10612e-05 -1.20096e-05 0.000833823
0.000979253 0.000519261 -6.49242e-06
0.000519261 0.000265688 -1.06384e-06
-6.49242e-06 -1.06384e-06 0.000103963
-6.35228e-05 0.000133292 -3.62592e-06
0.000133292 -0.000119779 -1.40182e-07
-3.62592e-06 -1.40182e-07 -0.000330724
-0.00191253 0.000283706 -6.58306e-05
0.000283706 -0.00019841 -7.35655e-05
-6.58306e-05 -7.35655e-05 -0.00118085
0.0023129 0.000757825 -2.81625e-05
0.000757825 0.00117872 -2.24383e-05
-2.81625e-05 -2.24383e-05 0.000782827
0.00158254 0.0012516 1.2163e-05
0.0012516 0.000332367 -7.59977e-06
1.2163e-05 -7.59977e-06 -0.000378375
-0.000420027 0.00142343 9.76265e-05
0.00142343 -0.00149981 4.27432e-05
9.76265e-05 4.27432e-05 -0.00178915
-0.00597179 -0.000389913 -0.000520365
-0.000389913 -0.0045472 3.71949e-05
-0.000520365 3.71949e-05 -0.00387859
-0.00780175 0.000459895 0.000335116
0.000459895 0.00520336 1.46092e-05
0.000335116 1.46092e-05 -0.000558768
0.00292639 -0.000109894 -0.000111387
-0.000109894 0.00201939 3.38319e-05
-0.000111387 3.38319e-05 0.000315717
0.0022202 -0.000841295 -4.22555e-05
-0.000841295 0.0012401 -4.88377e-05
-4.22555e-05 -4.88377e-05 0.000630329
-0.000434383 -0.00174389 4.1156e-06
-0.00174389 -0.000704644 4.7506e-05
4.1156e-06 4.7506e-05 -0.00047682
0.000637912 0.000505739 2.9543e-05
0.000505739 0.0063434 3.82088e-05
2.9543e-05 3.82088e-05 0.00276615
0.00165878 -0.00277883 0.000409239
-0.00277883 -0.001612 -0.000125311
0.000409239 -0.000125311 -0.00411631
0.0197202 0.00304756 0.000700267
0.00304756 0.00867885 -9.06561e-05
0.000700267 -9.06561e-05 0.00616884
0.00160099 -0.00144167 -1.62169e-05
-0.00144167 0.000337495 5.49495e-06
-1.62169e-05 5.49495e-06 -0.000176339
0.00152802 0.00125372 0.000226559
0.00125372 0.000376992 -6.7879e-05
0.000226559 -6.7879e-05 -0.00140994
0.00781185 -0.00182548 -0.000141713
-0.00182548 -0.00179363 0.000128933
-0.000141713 0.000128933 -0.00403054
0.00425446 -0.00249415 -1.35834e-05
-0.00249415 -0.000120104 2.63338e-05
-1.35834e-05 2.63338e-05 0.000342539
0.00251432 -0.00124157 7.14934e-05
-0.00124157 0.000235695 -1.71917e-05
7.14934e-05 -1.71917e-05 0.000136065
0.0154714 -0.000772409 -4.60433e-05
-0.000772409 0.003105 3.27767e-05
-4.60433e-05 3.27767e-05 0.00179774
0.00227818 -0.00154439 0.00011523
-0.00154439 -0.00289279 -8.8766e-05
0.00011523 -8.8766e-05 -0.00183133
-0.000699142 -0.000564168 -3.23469e-05
-0.000564168 -0.000865061 2.68676e-05
-3.23469e-05 2.68676e-05 -0.000941841
0.000184006 -0.000514968 -3.69807e-05
-0.000514968 -0.000571316 2.89372e-06
-3.69807e-05 2.89372e-06 -0.000694081
0.0059394 -0.00104793 6.31264e-05
-0.00104793 0.00223551 -2.05307e-05
6.31264e-05 -2.05307e-05 0.00203847
0.000484792 -0.000604226 -1.84197e-05
-0.000604226 -0.000304117 -3.82224e-06
-1.84197e-05 -3.82224e-06 -0.000673106
0.00210967 -0.00084653 -1.51231e-06
-0.00084653 0.000304225 -3.18374e-06
-1.51231e-06 -3.18374e-06 -4.35387e-05
0.00272754 -0.000781122 1.18854e-06
-0.000781122 0.000343768 -4.71446e-06
1.18854e-06 -4.71446e-06 0.000145093
0.00220656 -0.00084548 -3.90535e-06
-0.00084548 0.000467342 7.90527e-06
-3.90535e-06 7.90527e-06 5.79581e-06
0.00209931 -0.000706982 -5.81116e-07
-0.000706982 0.00017832 1.46168e-06
-5.81116e-07 1.46168e-06 -0.000108433
0.00209298 -0.000529613 3.56061e-07
-0.000529613 4.98866e-05 -9.91614e-07
3.56061e-07 -9.91614e-07 -8.51258e-05
0.00134271 -0.000592487 5.32651e-06
-0.000592487 -6.04112e-05 7.50994e-06
5.32651e-06 7.50994e-06 -0.000393283
0.00194647 -0.00050029 -4.13725e-07
-0.00050029 8.56123e-05 2.05107e-06
-4.13725e-07 2.05107e-06 -0.000113609
0.00200118 -0.000458079 -2.9253e-06
-0.000458079 8.20991e-05 1.19543e-06
-2.9253e-06 1.19543e-06 -5.77385e-05
0.00204453 -0.000433694 -4.99231e-06
-0.000433694 0.000198046 9.51576e-07
-4.99231e-06 9.51576e-07 4.87759e-05
0.00194341 -0.000423271 -2.96449e-06
-0.000423271 0.000129602 3.35941e-06
-2.96449e-06 3.35941e-06 -3.6167e-05
0.002014 -0.000438804 -3.14214e-06
-0.000438804 0.000213611 -4.18217e-06
-3.14214e-06 -4.18217e-06 3.10958e-05
0.00195126 -0.000526087 -6.54268e-06
-0.000526087 0.00020133 -2.49649e-06
-6.54268e-06 -2.49649e-06 -5.924e-05
0.00188524 -0.000517667 1.7565e-06
-0.000517667 0.000141439 8.40164e-07
1.7565e-06 8.40164e-07 -0.000112935
0.00182102 -0.000485898 6.55942e-06
-0.000485898 8.35529e-05 7.56467e-06
6.55942e-06 7.56467e-06 -0.000151071
0.00184285 -0.000578171 -7.46094e-06
-0.000578171 0.000317182 -1.48017e-06
-7.46094e-06 -1.48017e-06 -1.33096e-05
0.00164276 -0.000598008 -4.9124e-07
-0.000598008 0.000118662 1.35855e-07
-4.9124e-07 1.35855e-07 -0.000216274
0.00213916 -0.000695392 7.60355e-06
-0.000695392 0.000401702 6.54032e-07
7.60355e-06 6.54032e-07 4.06856e-05
0.00146513 -0.000418832 -9.98824e-06
-0.000418832 0.000332131 4.48561e-06
-9.98824e-06 4.48561e-06 3.65498e-05
0.00164421 -0.000574369 -6.51182e-07
-0.000574369 0.000355852 7.03744e-07
-6.51182e-07 7.03744e-07 -4.60213e-06
0.00189556 -0.000684682 2.58775e-06
-0.000684682 0.000446188 7.9269e-08
2.58775e-06 7.9269e-08 5.01778e-05
0.000733296 -0.000216002 -7.7157e-06
-0.000216002 4.33448e-05 4.93305e-06
-7.7157e-06 4.93305e-06 -0.000163426
0.00114354 -0.000334865 6.84594e-07
-0.000334865 0.000204481 -5.84924e-07
6.84594e-07 -5.84924e-07 -5.60705e-05
0.000945547 -0.000409835 -8.8193e-08
-0.000409835 5.01528e-05 4.14254e-07
-8.8193e-08 4.14254e-07 -0.000261585
0.000421019 -0.000111447 -1.9963e-05
-0.000111447 -8.95464e-05 1.50437e-05
-1.9963e-05 1.50437e-05 -0.000175763
0.00066375 -0.000184554 -1.00553e-06
-0.000184554 8.02427e-05 1.18539e-06
-1.00553e-06 1.18539e-06 -0.000150526
0.000995858 -0.000360117 2.11656e-06
-0.000360117 0.000214755 7.20141e-08
2.11656e-06 7.20141e-08 -4.808e-05
0.00402717 0.000196443 -8.25615e-05
0.000196443 0.00223873 5.36089e-06
-8.25615e-05 5.36089e-06 0.00221701
0.000533986 -5.04676e-05 7.86534e-07
-5.04676e-05 4.34615e-06 -4.62437e-07
7.86534e-07 -4.62437e-07 -6.72596e-05
0.00163773 -0.000220731 4.46277e-06
-0.000220731 0.000714759 -4.58172e-06
4.46277e-06 -4.58172e-06 0.000498774
0.00233169 0.000124152 4.66109e-05
0.000124152 0.00116268 1.23817e-06
4.66109e-05 1.23817e-06 0.00114345
0.000735993 -1.90926e-05 9.01195e-06
-1.90926e-05 0.000134811 -1.1679e-05
9.01195e-06 -1.1679e-05 7.94032e-05
0.00341038 0.00013414 7.37033e-05
0.00013414 0.00182659 -4.14478e-06
7.37033e-05 -4.14478e-06 0.00182284
0.00143687 0.000295825 4.54897e-06
0.000295825 0.000491736 -1.88087e-06
4.54897e-06 -1.88087e-06 0.000290088
0.000469733 0.000128586 -2.35423e-06
0.000128586 -2.49898e-05 -2.48254e-07
-2.35423e-06 -2.48254e-07 -0.000205782
0.00049371 0.000144463 1.97902e-06
0.000144463 5.70827e-05 -6.61389e-06
1.97902e-06 -6.61389e-06 -0.000153382
0.000498365 0.000122735 -2.44894e-06
0.000122735 6.91794e-05 9.03029e-06
-2.44894e-06 9.03029e-06 -0.000122377
0.000604854 8.78166e-05 7.42103e-07
8.78166e-05 0.000129613 1.96818e-07
7.42103e-07 1.96818e-07 -6.53324e-05
0.000874267 9.04515e-05 1.274e-06
9.04515e-05 0.000233496 -8.59256e-06
1.274e-06 -8.59256e-06 9.98265e-05
0.000584758 2.12638e-05 -4.03976e-06
2.12638e-05 4.38155e-05 -1.1213e-05
-4.03976e-06 -1.1213e-05 -4.79067e-09
0.000628705 4.53347e-05 3.99692e-07
4.53347e-05 9.46156e-05 -1.70916e-09
3.99692e-07 -1.70916e-09 -2.11031e-05
0.000144872 4.107e-05 -5.51977e-06
4.107e-05 -0.000184206 1.84876e-06
-5.51977e-06 1.84876e-06 -0.000337674
0.00288409 -0.000100212 -5.76592e-05
-0.000100212 0.00148477 -4.6026e-06
-5.76592e-05 -4.6026e-06 0.00148997
0.000435282 8.77618e-06 8.33937e-07
8.77618e-06 -4.99503e-05 -2.51161e-07
8.33937e-07 -2.51161e-07 -8.52482e-05
0.00053536 4.04438e-05 -3.20243e-06
4.04438e-05 3.65758e-05 4.38427e-06
-3.20243e-06 4.38427e-06 -6.5271e-05
0.00269093 -8.68727e-05 -6.93225e-06
-8.68727e-05 0.00135732 5.51498e-07
-6.93225e-06 5.51498e-07 0.00136452
0.000418235 -1.22874e-05 3.22773e-07
-1.22874e-05 -6.60565e-05 7.18923e-06
3.22773e-07 7.18923e-06 -9.55016e-05
0.00251828 -6.8803e-05 2.92623e-05
-6.8803e-05 0.00124349 4.80268e-06
2.92623e-05 4.80268e-06 0.00125401
0.000773904 0.000145698 -0.000719224
0.000145698 0.0034257 -4.82455e-05
-0.000719224 -4.82455e-05 0.00143444
-0.0056235 0.000176951 3.72815e-05
0.000176951 0.00433668 9.90499e-07
3.72815e-05 9.90499e-07 -0.00165206
0.00563368 0.000159901 -0.000206001
0.000159901 0.00331879 -5.45923e-05
-0.000206001 -5.45923e-05 0.00151169
0.000116518 4.56916e-05 1.93447e-06
4.56916e-05 -0.000211954 -8.37614e-06
1.93447e-06 -8.37614e-06 -0.00039002
0.000741275 7.745e-05 5.88805e-06
7.745e-05 0.000217476 6.94685e-06
5.88805e-06 6.94685e-06 -5.43813e-05
0.0025411 0.000516346 -2.95934e-06
0.000516346 0.00124169 4.15096e-06
-2.95934e-06 4.15096e-06 0.000929334
0.00221101 0.000616554 1.20298e-05
0.000616554 0.000902743 5.16649e-06
1.20298e-05 5.16649e-06 0.000489974
0.00032921 0.000302101 2.15561e-06
0.000302101 8.97982e-06 -8.54541e-07
2.15561e-06 -8.54541e-07 -0.000328135
0.000552217 0.000118822 -5.7115e-06
0.000118822 0.000206827 9.43345e-06
-5.7115e-06 9.43345e-06 -5.93603e-05
0.000579506 0.000143462 1.06331e-05
0.000143462 0.000143381 1.13305e-05
1.06331e-05 1.13305e-05 -0.000128376
0.000533854 0.000356566 -6.15451e-06
0.000356566 0.00018283 -2.30975e-06
-6.15451e-06 -2.30975e-06 -0.000233719
-0.000355236 0.000460999 8.16342e-06
0.000460999 -0.000681854 -1.24871e-05
8.16342e-06 -1.24871e-05 -0.000986825
0.002355 0.00074881 -9.34851e-06
0.00074881 0.000857991 2.32895e-05
-9.34851e-06 2.32895e-05 0.000656855
0.0013352 0.000802394 2.30754e-05
0.000802394 -2.76777e-05 1.01125e-05
2.30754e-05 1.01125e-05 -0.000166387
0.00138761 0.000580661 -7.24035e-06
0.000580661 0.000503369 -3.65037e-06
-7.24035e-06 -3.65037e-06 0.000280403
0.00195858 0.000306304 -8.20255e-06
0.000306304 0.00106654 3.45355e-05
-8.20255e-06 3.45355e-05 0.000780611
0.0136024 0.00221625 -0.000109621
0.00221625 0.00188968 6.65524e-05
-0.000109621 6.65524e-05 0.000578039
0.0016225 -0.00171311 -0.0004953
-0.00171311 0.00347912 -0.000185826
-0.0004953 -0.000185826 0.000643542
-0.000522478 -0.00296321 0.000629471
-0.00296321 0.00535132 0.00017553
0.000629471 0.00017553 0.000209222
0.00528492 -0.00266301 0.000254863
-0.00266301 0.00246806 0.000312083
0.000254863 0.000312083 -0.000415046
0.0136011 0.00403644 -9.80116e-05
0.00403644 0.0046414 -4.83685e-05
-9.80116e-05 -4.83685e-05 0.000735838
-0.00295899 0.000192865 -4.95732e-05
0.000192865 -0.000323185 -5.74134e-05
-4.95732e-05 -5.74134e-05 -0.000645824
0.00223837 0.00168245 -4.40927e-05
0.00168245 0.000588321 -1.69587e-05
-4.40927e-05 -1.69587e-05 0.0012188
0.0171454 0.00384093 1.85842e-05
0.00384093 0.00421038 3.71619e-05
1.85842e-05 3.71619e-05 0.00189598
0.00618188 0.0031545 -5.93131e-05
0.0031545 -7.02221e-06 -9.7016e-05
-5.93131e-05 -9.7016e-05 0.000233225
0.0016729 0.00110105 1.02757e-05
0.00110105 0.000147108 -4.28877e-06
1.02757e-05 -4.28877e-06 -8.71011e-05
0.00157665 0.000858183 8.8436e-06
0.000858183 0.000412472 -2.9774e-06
8.8436e-06 -2.9774e-06 0.00012115
0.0020195 0.000578709 -2.17446e-05
0.000578709 0.000938536 1.90492e-06
-2.17446e-05 1.90492e-06 0.000763765
0.00281423 0.00146531 -6.10313e-05
0.00146531 0.00084271 -2.41723e-05
-6.10313e-05 -2.41723e-05 0.000145121
0.00145522 0.00163099 6.2902e-05
0.00163099 -0.000732947 3.37732e-05
6.2902e-05 3.37732e-05 -0.00108642
0.00192581 -0.000332605 -0.000108904
-0.000332605 -0.00465792 5.11812e-05
-0.000108904 5.11812e-05 -0.00489393
0.00098176 -0.00145065 8.70633e-06
-0.00145065 0.00190657 -5.70177e-06
8.70633e-06 -5.70177e-06 0.00124736
-0.0107301 -0.000213436 0.000279457
-0.000213436 0.00548942 -2.35119e-05
0.000279457 -2.35119e-05 0.000147426
0.000142638 -0.00153406 -5.19946e-05
-0.00153406 -0.000704012 1.16324e-05
-5.19946e-05 1.16324e-05 -0.00141295
0.0048297 -0.00272185 2.50826e-05
-0.00272185 0.000299901 3.9702e-05
2.50826e-05 3.9702e-05 0.000347734
0.00195653 -0.000104547 0.0007717
-0.000104547 0.0036505 -0.000175673
0.0007717 -0.000175673 0.0018632
0.0135279 -0.00208908 -0.000251242
-0.00208908 0.00159721 0.000124596
-0.000251242 0.000124596 0.000355482
0.00171206 -0.00124235 -3.15239e-05
-0.00124235 -0.000103861 -9.3467e-07
-3.15239e-05 -9.3467e-07 -0.000358163
0.0110983 -7.19657e-05 -0.000177541
-7.19657e-05 -0.000565086 5.60881e-05
-0.000177541 5.60881e-05 -0.00147239
0.00687727 -0.00181737 0.000101457
-0.00181737 -0.000179188 1.36899e-05
0.000101457 1.36899e-05 0.000356708
0.00376682 -0.00108553 6.06727e-05
-0.00108553 0.000580429 -4.04327e-05
6.06727e-05 -4.04327e-05 0.00033789
0.00288736 -0.000702796 -3.02056e-05
-0.000702796 -0.00153601 1.4569e-05
-3.02056e-05 1.4569e-05 -0.000576881
-0.00613254 2.59672e-05 9.36133e-06
2.59672e-05 -0.00398652 5.51642e-06
9.36133e-06 5.51642e-06 -0.0039365
0.00159965 -0.000679829 -1.51131e-05
-0.000679829 -0.00014987 1.70482e-06
-1.51131e-05 1.70482e-06 -0.000174293
0.00336295 -0.000694397 3.32122e-05
-0.000694397 0.000585198 -1.24349e-05
3.32122e-05 -1.24349e-05 0.000640597
0.00115717 -0.000741887 -9.23159e-06
-0.000741887 -0.000193462 7.30329e-06
-9.23159e-06 7.30329e-06 -0.000515721
0.00209621 -0.000721663 -3.48801e-06
-0.000721663 1.28864e-05 2.98925e-06
-3.48801e-06 2.98925e-06 -0.000179317
0.00233343 -0.000585627 4.96305e-06
-0.000585627 2.10136e-06 -1.35594e-06
4.96305e-06 -1.35594e-06 -3.55147e-05
0.0022518 -0.000714465 -4.10544e-06
-0.000714465 0.000267129 1.03272e-05
-4.10544e-06 1.03272e-05 -1.91782e-05
0.00206978 -0.000525578 3.12526e-07
-0.000525578 3.42133e-05 1.43014e-06
3.12526e-07 1.43014e-06 -9.55331e-05
0.00220075 -0.00051369 -9.13045e-07
-0.00051369 9.18299e-05 4.99472e-07
-9.13045e-07 4.99472e-07 1.53063e-05
0.00194256 -0.000492419 3.53657e-06
-0.000492419 8.80019e-05 6.26685e-06
3.53657e-06 6.26685e-06 -0.000106234
0.00199053 -0.000459102 -8.76705e-08
-0.000459102 7.21247e-05 1.29374e-06
-8.76705e-08 1.29374e-06 -6.5533e-05
0.00214319 -0.000490693 -2.66097e-06
-0.000490693 0.000160794 1.60296e-06
-2.66097e-06 1.60296e-06 2.92373e-05
0.00200712 -0.000437534 -4.1284e-06
-0.000437534 0.000167472 2.78291e-06
-4.1284e-06 2.78291e-06 1.92513e-05
0.00214315 -0.000441347 -1.47878e-06
-0.000441347 0.000288373 -1.38479e-06
-1.47878e-06 -1.38479e-06 0.00013226
0.00203214 -0.000429632 4.17708e-06
-0.000429632 0.000178129 6.32575e-06
4.17708e-06 6.32575e-06 1.54987e-05
0.00200223 -0.000438215 5.30364e-07
-0.000438215 0.000204901 -6.50114e-07
5.30364e-07 -6.50114e-07 2.24698e-05
0.00190017 -0.000453197 -3.14734e-06
-0.000453197 0.000146779 -3.1348e-06
-3.14734e-06 -3.1348e-06 -5.63918e-05
0.00197801 -0.000503809 -4.82948e-06
-0.000503809 0.000291504 -3.34681e-06
-4.82948e-06 -3.34681e-06 2.39317e-05
0.00201475 -0.000533595 -3.20946e-07
-0.000533595 0.000242507 -7.73186e-08
-3.20946e-07 -7.73186e-08 -2.06533e-05
0.00210842 -0.00053424 8.05555e-06
-0.00053424 0.000283381 3.94553e-06
8.05555e-06 3.94553e-06 2.81301e-05
0.00145319 -0.00044933 -9.58514e-06
-0.00044933 0.000187654 2.15346e-06
-9.58514e-06 2.15346e-06 -0.000111985
0.00175812 -0.000566708 -1.55976e-06
-0.000566708 0.000269197 -1.72614e-07
-1.55976e-06 -1.72614e-07 -6.06785e-05
0.00166345 -0.000605058 5.78689e-06
-0.000605058 0.000118794 1.46673e-06
5.78689e-06 1.46673e-06 -0.000218848
0.000745451 -0.000227534 -1.01586e-05
-0.000227534 -2.87844e-06 6.95413e-06
-1.01586e-05 6.95413e-06 -0.000211366
0.00124494 -0.000402496 1.538e-06
-0.000402496 0.000191549 4.05024e-07
1.538e-06 4.05024e-07 -0.000101802
0.0017257 -0.000578451 3.67574e-06
-0.000578451 0.00041185 1.23026e-06
3.67574e-06 1.23026e-06 5.19706e-05
0.000494701 -0.000173713 -2.21995e-05
-0.000173713 -6.0934e-05 1.83983e-05
-2.21995e-05 1.83983e-05 -0.000170779
0.000681966 -0.000219332 -5.95318e-07
-0.000219332 1.95634e-05 3.90857e-07
-5.95318e-07 3.90857e-07 -0.000191514
0.000801496 -0.00029961 4.93503e-06
-0.00029961 -1.62696e-05 -1.66236e-06
4.93503e-06 -1.66236e-06 -0.000270607
0.0048644 0.00019068 -0.000127125
0.00019068 0.00276403 8.7803e-06
-0.000127125 8.7803e-06 0.00274273
0.00053143 -0.000126254 -1.47822e-06
-0.000126254 -1.78831e-05 -8.49883e-07
-1.47822e-06 -8.49883e-07 -0.000112005
0.0011623 -0.000220806 5.25688e-06
-0.000220806 0.000396354 -2.96901e-06
5.25688e-06 -2.96901e-06 0.000157159
0.00427917 0.000172448 1.98483e-05
0.000172448 0.00239213 6.80396e-07
1.98483e-05 6.80396e-07 0.00237678
0.000679309 -6.83308e-05 1.60612e-05
-6.83308e-05 8.80134e-05 -1.37962e-05
1.60612e-05 -1.37962e-05 1.16729e-05
0.0037786 0.000135532 0.000105056
0.000135532 0.00206183 -5.53136e-06
0.000105056 -5.53136e-06 0.00205806
0.00164249 0.000464263 2.72688e-06
0.000464263 0.000561361 -3.98839e-06
2.72688e-06 -3.98839e-06 0.000231679
0.000922467 0.000254219 3.78616e-07
0.000254219 0.000178898 -2.70478e-06
3.78616e-07 -2.70478e-06 -2.02359e-05
0.00016037 0.0001365 4.21224e-06
0.0001365 -0.000224413 2.92233e-06
4.21224e-06 2.92233e-06 -0.00041962
-0.000853935 2.22636e-05 -2.32893e-06
2.22636e-05 -0.000818336 -3.11039e-07
-2.32893e-06 -3.11039e-07 -0.000997305
0.000357464 9.49764e-05 -3.27618e-07
9.49764e-05 -5.12348e-05 2.10048e-06
-3.27618e-07 2.10048e-06 -0.00024743
0.000876945 9.55571e-05 5.01882e-07
9.55571e-05 0.000235804 -8.7768e-06
5.01882e-07 -8.7768e-06 7.38453e-05
0.000324418 5.34924e-05 -2.83875e-06
5.34924e-05 -6.21519e-05 4.35068e-06
-2.83875e-06 4.35068e-06 -0.000242553
0.000557279 7.18817e-05 -5.90578e-08
7.18817e-05 4.49127e-05 8.81215e-09
-5.90578e-08 8.81215e-09 -8.63634e-05
0.000574258 2.46755e-05 -5.53041e-06
2.46755e-05 3.56303e-05 -1.42307e-05
-5.53041e-06 -1.42307e-05 -1.86124e-05
0.00314131 -0.000110114 -7.89362e-05
-0.000110114 0.00165402 -5.70857e-06
-7.89362e-05 -5.70857e-06 0.00165677
0.000443489 7.23589e-06 1.24776e-06
7.23589e-06 -3.94194e-05 -3.57683e-07
1.24776e-06 -3.57683e-07 -8.38055e-05
0.000552793 3.77637e-05 -3.56933e-06
3.77637e-05 5.36207e-05 6.28466e-06
-3.56933e-06 6.28466e-06 -6.27325e-05
0.00285979 -0.000105644 -7.73047e-06
-0.000105644 0.00147057 6.76208e-07
-7.73047e-06 6.76208e-07 0.00147385
0.000350171 -4.7275e-05 -5.4488e-06
-4.7275e-05 -9.62564e-05 8.55535e-06
-5.4488e-06 8.55535e-06 -0.000134688
0.00268992 -8.77099e-05 3.64649e-05
-8.77099e-05 0.00135629 4.80781e-06
3.64649e-05 4.80781e-06 0.00136309
0.0143963 0.00055423 0.000437479
0.00055423 0.00213895 0.000107273
0.000437479 0.000107273 0.00165373
-0.00161928 -0.00249464 -0.00043001
-0.00249464 -0.00261621 -7.41995e-05
-0.00043001 -7.41995e-05 -0.0043712
-0.00914161 0.00131255 -0.000181289
0.00131255 0.00365617 -0.000118312
-0.000181289 -0.000118312 -0.00273922
9.27948e-05 1.57003e-05 1.83813e-05
1.57003e-05 -0.000167829 -2.83502e-06
1.83813e-05 -2.83502e-06 -0.000462848
0.00163607 0.000397938 -1.03692e-05
0.000397938 0.000703758 -1.77015e-07
-1.03692e-05 -1.77015e-07 0.000420991
0.002016 0.000492332 -9.41457e-06
0.000492332 0.000989957 -2.42766e-06
-9.41457e-06 -2.42766e-06 0.000610634
0.00152211 0.000538549 1.23403e-06
0.000538549 0.000491082 -3.94502e-07
1.23403e-06 -3.94502e-07 9.99122e-05
0.00136362 0.000573992 1.08993e-05
0.000573992 0.000226179 1.75034e-05
1.08993e-05 1.75034e-05 -0.000151246
-0.000720169 0.000360618 1.9418e-05
0.000360618 -0.00088621 3.32602e-06
1.9418e-05 3.32602e-06 -0.00119163
-0.000385379 0.000255412 -8.80061e-06
0.000255412 -0.0002756 1.2373e-05
-8.80061e-06 1.2373e-05 -0.000732887
-4.65969e-05 0.000490917 1.10645e-05
0.000490917 -0.000518372 -3.63082e-07
1.10645e-05 -3.63082e-07 -0.000838966
0.00220015 0.000717542 3.53557e-06
0.000717542 0.000824793 6.60385e-06
3.53557e-06 6.60385e-06 0.000576214
-0.000583376 0.000470095 4.16598e-06
0.000470095 -0.00094816 -1.80055e-06
4.16598e-06 -1.80055e-06 -0.0011704
0.00327581 0.000924298 4.62627e-07
0.000924298 0.00100622 1.44744e-05
4.62627e-07 1.44744e-05 0.000854465
0.0013472 0.000812788 1.71828e-05
0.000812788 3.94304e-06 7.57265e-06
1.71828e-05 7.57265e-06 -0.000261683
0.000675551 0.000718922 3.02817e-06
0.000718922 -0.000415919 -1.7935e-08
3.02817e-06 -1.7935e-08 -0.000494335
0.000605517 0.000471467 5.68543e-06
0.000471467 5.8593e-05 -4.2516e-05
5.68543e-06 -4.2516e-05 -0.000145653
0.0053938 0.00153955 1.78555e-05
0.00153955 -0.00102562 2.17583e-05
1.78555e-05 2.17583e-05 0.000193256
0.0133928 0.00247585 0.000250671
0.00247585 0.00126379 0.00013129
0.000250671 0.00013129 -0.000348712
0.0107917 -0.00365565 0.000432527
-0.00365565 0.00512843 -4.21425e-05
0.000432527 -4.21425e-05 0.0024337
0.00531334 0.00409553 0.000487668
0.00409553 -0.000899689 0.000286741
0.000487668 0.000286741 -0.00500568
0.000119765 0.00110919 -5.38963e-05
0.00110919 7.13389e-05 -1.1697e-06
-5.38963e-05 -1.1697e-06 0.000653397
0.00394995 0.00230604 -0.000112086
0.00230604 -0.000437032 -5.13732e-05
-0.000112086 -5.13732e-05 9.30292e-05
0.00581956 0.00196206 7.5731e-05
0.00196206 0.00116865 2.814e-05
7.5731e-05 2.814e-05 0.000921947
0.00402018 0.00141433 1.74451e-05
0.00141433 0.00118731 7.37594e-06
1.74451e-05 7.37594e-06 0.000897849
-0.000155394 0.000631201 -2.45062e-05
0.000631201 -0.000472193 1.00893e-05
-2.45062e-05 1.00893e-05 -0.000709803
0.00621349 0.00218497 -0.000171961
0.00218497 0.00146798 -1.96488e-05
-0.000171961 -1.96488e-05 0.000994248
0.00298219 -0.000450915 1.50542e-05
-0.000450915 -0.000238426 7.88365e-06
1.50542e-05 7.88365e-06 0.000194977
0.0111895 -0.000516185 -3.81056e-05
-0.000516185 0.00152752 -3.25479e-06
-3.81056e-05 -3.25479e-06 0.00131613
-0.0122394 -0.00230604 0.000669024
-0.00230604 -0.00554441 4.32994e-06
0.000669024 4.32994e-06 -0.00605942
0.000323185 -0.00103262 -9.62362e-05
-0.00103262 -0.000707672 2.66897e-05
-9.62362e-05 2.66897e-05 -0.000937722
0.00883588 -0.002286 2.63133e-05
-0.002286 0.000254428 8.91327e-05
2.63133e-05 8.91327e-05 0.0011024
0.00101403 -0.000282794 -0.000250548
-0.000282794 -0.00428734 3.468e-05
-0.000250548 3.468e-05 -0.00614488
0.00247381 -0.000896467 2.66989e-05
-0.000896467 -0.000170628 1.35265e-06
2.66989e-05 1.35265e-06 -0.000118038
0.00479984 -0.00060872 -4.18419e-05
-0.00060872 -0.000386485 -4.57513e-06
-4.18419e-05 -4.57513e-06 0.000248019
0.00551479 -0.000788444 3.72696e-05
-0.000788444 0.00125183 -3.01499e-05
3.72696e-05 -3.01499e-05 0.00154094
0.00534986 -0.000381519 9.70966e-05
-0.000381519 0.00135654 3.71249e-06
9.70966e-05 3.71249e-06 0.00144378
-0.00332327 -0.000311821 5.22502e-06
-0.000311821 -0.0029519 8.07182e-06
5.22502e-06 8.07182e-06 -0.00271055
0.00199725 -0.000605048 -5.18426e-06
-0.000605048 -0.000211631 1.13071e-06
-5.18426e-06 1.13071e-06 -6.61681e-05
0.00224446 -0.000457798 2.27221e-05
-0.000457798 -0.000216915 -5.35558e-06
2.27221e-05 -5.35558e-06 3.01338e-05
0.0017036 -0.000688298 -6.45681e-07
-0.000688298 -0.000195618 7.12148e-06
-6.45681e-07 7.12148e-06 -0.000387367
0.0022718 -0.000582353 1.4983e-06
-0.000582353 -2.73506e-05 1.38861e-06
1.4983e-06 1.38861e-06 -6.68553e-05
0.00229011 -0.000506522 1.7215e-06
-0.000506522 1.64441e-05 -7.04334e-07
1.7215e-06 -7.04334e-07 1.91281e-05
0.00207864 -0.000525491 1.87577e-06
-0.000525491 3.62032e-05 4.70214e-06
1.87577e-06 4.70214e-06 -9.02287e-05
0.00214131 -0.000503951 4.0403e-07
-0.000503951 6.9524e-05 4.32447e-07
4.0403e-07 4.32447e-07 -7.86367e-06
0.00213476 -0.000451047 -2.60958e-06
-0.000451047 5.52917e-05 1.94676e-07
-2.60958e-06 1.94676e-07 -1.18841e-05
0.00199504 -0.00046126 3.9128e-06
-0.00046126 7.0871e-05 1.85052e-06
3.9128e-06 1.85052e-06 -6.53803e-05
0.00206355 -0.000482114 -1.59738e-07
-0.000482114 0.000132589 1.18328e-07
-1.59738e-07 1.18328e-07 2.06477e-06
0.00200802 -0.000438697 -1.75457e-07
-0.000438697 0.000134466 3.95518e-07
-1.75457e-07 3.95518e-07 1.42121e-06
0.00196911 -0.00044126 3.69432e-07
-0.00044126 0.000136908 2.78593e-06
3.69432e-07 2.78593e-06 -1.04074e-05
0.00205952 -0.000431323 -1.97084e-06
-0.000431323 0.000231284 2.80204e-07
-1.97084e-06 2.80204e-07 7.89811e-05
0.00209842 -0.000436086 -1.28726e-06
-0.000436086 0.000262589 -1.25668e-06
-1.28726e-06 -1.25668e-06 9.09006e-05
0.00199399 -0.00043697 4.93725e-06
-0.00043697 0.000198774 3.08659e-06
4.93725e-06 3.08659e-06 1.66743e-05
0.00195523 -0.000457968 -1.12463e-07
-0.000457968 0.00018101 -2.77497e-07
-1.12463e-07 -2.77497e-07 -2.3528e-05
0.00198765 -0.000447984 -1.46695e-06
-0.000447984 0.000256328 -2.5238e-06
-1.46695e-06 -2.5238e-06 3.33455e-05
0.00162047 -0.00042644 -8.57366e-06
-0.00042644 0.000186071 1.23016e-07
-8.57366e-06 1.23016e-07 -8.03597e-05
0.00191527 -0.000503753 -8.30811e-07
-0.000503753 0.000252664 -9.41676e-07
-8.30811e-07 -9.41676e-07 -1.96748e-05
0.00207731 -0.000541393 5.30855e-06
-0.000541393 0.000283674 2.16716e-06
5.30855e-06 2.16716e-06 1.77993e-05
0.000837184 -0.000244931 -1.29339e-05
-0.000244931 -2.88004e-05 7.61626e-06
-1.29339e-05 7.61626e-06 -0.000239424
0.00148794 -0.000447784 -2.04205e-07
-0.000447784 0.000214858 5.90744e-07
-2.04205e-07 5.90744e-07 -8.27835e-05
0.00166854 -0.000554897 3.31943e-06
-0.000554897 0.000218086 1.29446e-06
3.31943e-06 1.29446e-06 -0.000111116
0.000367472 -0.000181306 -2.04411e-05
-0.000181306 -0.000156712 1.85938e-05
-2.04411e-05 1.85938e-05 -0.000274873
0.000790966 -0.000234036 5.66392e-07
-0.000234036 2.27335e-05 1.51323e-07
5.66392e-07 1.51323e-07 -0.000188763
0.00101573 -0.000384194 1.02568e-05
-0.000384194 4.70373e-05 -2.23994e-06
1.02568e-05 -2.23994e-06 -0.000243468
0.00588757 0.000122615 -0.000198466
0.000122615 0.00336883 1.18697e-05
-0.000198466 1.18697e-05 0.00336264
0.000427398 -0.000179766 -3.83314e-07
-0.000179766 -0.000102038 9.43729e-08
-3.83314e-07 9.43729e-08 -0.000212768
0.000619346 -0.000221231 9.2589e-06
-0.000221231 -1.23671e-05 -5.86538e-06
9.2589e-06 -5.86538e-06 -0.000226305
0.00522825 0.000130591 1.41093e-06
0.000130591 0.00297329 -8.76954e-07
1.41093e-06 -8.76954e-07 0.00296491
0.000429107 -0.0001301 1.82436e-05
-0.0001301 -7.65624e-05 -1.65128e-05
1.82436e-05 -1.65128e-05 -0.000175771
0.00454341 0.000112675 0.000161588
0.000112675 0.0025454 -1.29221e-05
0.000161588 -1.29221e-05 0.00254295
0.00124231 0.000487094 -3.92296e-06
0.000487094 0.000190428 2.10147e-06
-3.92296e-06 2.10147e-06 -0.00015149
0.00170911 0.000468013 -8.88053e-07
0.000468013 0.000595333 -1.57608e-06
-8.88053e-07 -1.57608e-06 0.000269651
0.000758373 0.000275815 -1.58517e-06
0.000275815 1.64866e-05 -2.89229e-06
-1.58517e-06 -2.89229e-06 -0.000230171
0.000693982 0.000248218 -6.87933e-06
0.000248218 6.50405e-05 -3.65239e-06
-6.87933e-06 -3.65239e-06 -0.000143879
-1.95745e-05 0.000134222 1.80484e-06
0.000134222 -0.000332785 -5.74176e-07
1.80484e-06 -5.74176e-07 -0.000532784
0.0011871 0.000244924 -2.44104e-06
0.000244924 0.000442967 -5.00448e-06
-2.44104e-06 -5.00448e-06 0.000229408
-0.000104558 5.00022e-05 -1.5887e-06
5.00022e-05 -0.000351003 2.67316e-06
-1.5887e-06 2.67316e-06 -0.000536722
0.000728974 0.00010608 3.54966e-07
0.00010608 0.000152924 -1.7534e-07
3.54966e-07 -1.7534e-07 -1.12601e-05
0.000645812 5.13064e-05 -1.10516e-05
5.13064e-05 7.5445e-05 -1.60862e-05
-1.10516e-05 -1.60862e-05 8.21736e-06
0.000590349 4.65992e-05 -2.61751e-06
4.65992e-05 7.51157e-05 9.60741e-06
-2.61751e-06 9.60741e-06 -5.79191e-05
0.000519581 3.06431e-05 1.93788e-07
3.06431e-05 5.97769e-06 -2.14273e-07
1.93788e-07 -2.14273e-07 -4.77606e-05
0.0036432 -0.000126679 -0.000103364
-0.000126679 0.00197963 -7.12367e-06
-0.000103364 -7.12367e-06 0.00197737
0.0031402 -0.000124621 -9.09039e-06
-0.000124621 0.00165574 8.31322e-07
-9.09039e-06 8.31322e-07 0.00165442
0.00034223 3.10977e-05 4.68711e-06
3.10977e-05 -0.000100886 1.10326e-05
4.68711e-06 1.10326e-05 -0.000143948
0.00280049 -0.000105148 4.45637e-05
-0.000105148 0.0014335 4.65972e-06
4.45637e-05 4.65972e-06 0.00143656
0.00404068 0.000145356 8.56982e-05
0.000145356 -0.00107317 2.54237e-05
8.56982e-05 2.54237e-05 0.000203881
0.00472059 -0.000905258 0.000151734
-0.000905258 -0.00399279 7.19715e-05
0.000151734 7.19715e-05 -0.00500237
0.011711 -0.00267472 -0.000197969
-0.00267472 0.00449854 -8.91645e-05
-0.000197969 -8.91645e-05 0.00370787
0.00133095 0.00056314 9.33337e-06
0.00056314 2.07107e-05 8.57873e-06
9.33337e-06 8.57873e-06 -0.000303022
0.00415809 0.000723186 -9.20208e-06
0.000723186 0.00224035 3.35456e-06
-9.20208e-06 3.35456e-06 0.00182095
0.000905238 0.000467477 -5.14534e-06
0.000467477 0.000126515 -5.53303e-06
-5.14534e-06 -5.53303e-06 -0.000245494
0.00134849 0.000600133 2.17282e-06
0.000600133 0.000350077 -3.70187e-08
2.17282e-06 -3.70187e-08 -8.28787e-06
0.001529 0.000591649 -1.58864e-06
0.000591649 0.000344526 3.83672e-06
-1.58864e-06 3.83672e-06 -4.25303e-05
0.00158429 0.00068066 2.10359e-05
0.00068066 0.000314513 1.4173e-05
2.10359e-05 1.4173e-05 -2.17573e-05
0.00214513 0.00071912 -2.94191e-05
0.00071912 0.000788733 2.77276e-07
-2.94191e-05 2.77276e-07 0.000400746
0.000737358 0.000579417 2.11552e-05
0.000579417 2.61326e-05 -2.9856e-05
2.11552e-05 -2.9856e-05 -0.00022841
0.00155001 0.000724545 1.804e-06
0.000724545 0.000260739 -2.6739e-06
1.804e-06 -2.6739e-06 -1.17284e-05
0.00182746 0.00078716 7.4486e-06
0.00078716 0.000125506 7.24555e-07
7.4486e-06 7.24555e-07 9.48412e-05
0.00191196 0.000813477 1.30373e-05
0.000813477 0.000178645 -1.13152e-06
1.30373e-05 -1.13152e-06 -9.69149e-05
0.00169485 0.000720044 2.31016e-05
0.000720044 0.000145036 1.77895e-05
2.31016e-05 1.77895e-05 -3.92821e-05
0.000850732 0.000763478 -5.36438e-06
0.000763478 -0.00026254 -5.21803e-06
-5.36438e-06 -5.21803e-06 -0.000511774
0.000665703 0.00070744 -1.0052e-05
0.00070744 -0.000410248 -2.42406e-05
-1.0052e-05 -2.42406e-05 -0.000473046
0.00107257 0.00069513 4.77325e-05
0.00069513 -0.00105005 3.5446e-05
4.77325e-05 3.5446e-05 -0.00078
0.0060571 0.00159253 -8.80727e-05
0.00159253 -0.00100657 -2.59337e-05
-8.80727e-05 -2.59337e-05 0.000215403
0.00399474 0.00162017 0.000506172
0.00162017 -0.00394494 9.01078e-05
0.000506172 9.01078e-05 -0.00575559
0.00139364 0.00175212 -0.000139268
0.00175212 -0.0010751 -5.24233e-05
-0.000139268 -5.24233e-05 -0.000521086
0.00427799 0.0015888 -3.02131e-05
0.0015888 0.000761115 -8.98881e-06
-3.02131e-05 -8.98881e-06 0.000588204
0.00460832 0.00148821 -0.000134469
0.00148821 0.00141262 -3.53649e-05
-0.000134469 -3.53649e-05 0.00110728
0.00253789 -0.000260635 -5.95226e-05
-0.000260635 -0.000502713 -2.19414e-05
-5.95226e-05 -2.19414e-05 -0.000204936
-0.000195855 -0.000252463 7.05094e-05
-0.000252463 -0.000843792 1.51962e-05
7.05094e-05 1.51962e-05 -0.000194456
0.00257061 0.000840569 0.000187417
0.000840569 -0.00480416 -1.07095e-05
0.000187417 -1.07095e-05 -0.00500061
0.000119975 -0.000677192 -4.19618e-05
-0.000677192 -0.00138619 6.80594e-05
-4.19618e-05 6.80594e-05 -0.00114799
0.00640108 -0.000672723 -0.000144806
-0.000672723 0.000552419 4.18663e-05
-0.000144806 4.18663e-05 0.000731435
0.00244005 -0.000573394 -1.71925e-05
-0.000573394 -0.000388034 1.1623e-05
-1.71925e-05 1.1623e-05 -4.41865e-05
0.0042031 -0.000397863 -5.77642e-06
-0.000397863 0.000650362 -3.01666e-06
-5.77642e-06 -3.01666e-06 0.000736598
0.00258096 -0.000338357 5.6032e-05
-0.000338357 -0.000126414 -6.58225e-06
5.6032e-05 -6.58225e-06 0.000198524
0.00358776 -0.000100879 4.10497e-05
-0.000100879 0.00106426 -9.37642e-07
4.10497e-05 -9.37642e-07 0.00105412
0.000661488 -0.000501258 -2.48264e-05
-0.000501258 -0.000956336 1.10454e-05
-2.48264e-05 1.10454e-05 -0.000732691
0.0021009 -0.000473095 -1.92885e-06
-0.000473095 -0.000329193 1.83965e-06
-1.92885e-06 1.83965e-06 -8.65661e-05
0.00235991 -0.000411525 4.96216e-06
-0.000411525 -0.00015735 -1.6628e-06
4.96216e-06 -1.6628e-06 3.97998e-05
0.00219535 -0.000573331 -2.08009e-06
-0.000573331 -5.99565e-05 3.78164e-06
-2.08009e-06 3.78164e-06 -9.85089e-05
0.00228033 -0.000498794 1.04922e-07
-0.000498794 2.43645e-05 -2.4162e-07
1.04922e-07 -2.4162e-07 2.93194e-05
0.00221514 -0.000399339 -6.3849e-07
-0.000399339 -1.66037e-06 -6.65121e-07
-6.3849e-07 -6.65121e-07 1.56545e-06
0.0020769 -0.000492805 4.20845e-07
-0.000492805 4.51933e-05 9.43892e-07
4.20845e-07 9.43892e-07 -3.1664e-05
0.0021342 -0.000457664 -8.82474e-07
-0.000457664 6.4479e-05 1.46453e-07
-8.82474e-07 1.46453e-07 -4.41258e-06
0.00205099 -0.00039275 -1.79171e-06
-0.00039275 8.37428e-05 9.34435e-07
-1.79171e-06 9.34435e-07 -6.42882e-06
0.00198358 -0.000473386 1.0903e-06
-0.000473386 0.000104075 -8.35217e-07
1.0903e-06 -8.35217e-07 -2.51024e-05
0.00196263 -0.000436683 1.07513e-06
-0.000436683 0.000102878 -5.68181e-07
1.07513e-06 -5.68181e-07 -3.07073e-05
0.00197241 -0.000406496 -1.37779e-07
-0.000406496 0.000138377 -9.82922e-07
-1.37779e-07 -9.82922e-07 -6.62491e-06
0.00197366 -0.000421169 -1.67078e-06
-0.000421169 0.000173174 2.429e-06
-1.67078e-06 2.429e-06 2.46878e-05
0.00211009 -0.000434537 -1.863e-06
-0.000434537 0.000263448 6.79225e-07
-1.863e-06 6.79225e-07 9.55815e-05
0.00208701 -0.000424766 -1.15145e-06
-0.000424766 0.000281693 -1.95635e-06
-1.15145e-06 -1.95635e-06 8.8248e-05
0.00200922 -0.000463085 3.11534e-06
-0.000463085 0.000214256 2.64884e-06
3.11534e-06 2.64884e-06 8.24342e-06
0.00200331 -0.000451071 4.96738e-07
-0.000451071 0.000266338 -5.01135e-07
4.96738e-07 -5.01135e-07 4.32473e-05
0.0017312 -0.000383992 -6.47677e-06
-0.000383992 0.0002091 5.57101e-07
-6.47677e-06 5.57101e-07 -2.58074e-05
0.000937082 -0.000249557 -1.39714e-05
-0.000249557 -3.30688e-05 7.19266e-06
-1.39714e-05 7.19266e-06 -0.000239399
0.00159374 -0.000421747 -1.04576e-06
-0.000421747 0.000177796 -3.0192e-07
-1.04576e-06 -3.0192e-07 -8.961e-05
0.00184964 -0.000503596 2.98836e-06
-0.000503596 0.000211599 1.00526e-06
2.98836e-06 1.00526e-06 -6.55182e-05
0.000414634 -0.000223337 -2.2356e-05
-0.000223337 -0.000133359 1.88302e-05
-2.2356e-05 1.88302e-05 -0.000267805
0.000859499 -0.000251064 7.67336e-07
-0.000251064 -2.20649e-05 6.89891e-08
7.67336e-07 6.89891e-08 -0.000235079
0.00152053 -0.000446888 8.79814e-06
-0.000446888 0.000239002 -1.03133e-06
8.79814e-06 -1.03133e-06 -5.68808e-05
0.00652095 7.71173e-05 -0.000243434
7.71173e-05 0.00374044 1.58895e-05
-0.000243434 1.58895e-05 0.00374128
0.000466863 -0.000228794 -1.16992e-06
-0.000228794 -8.92453e-05 5.38184e-07
-1.16992e-06 5.38184e-07 -0.000217014
0.000767424 -0.000239626 1.18423e-05
-0.000239626 5.64014e-06 -7.07301e-06
1.18423e-05 -7.07301e-06 -0.000209326
0.00611224 0.000104497 -5.43574e-06
0.000104497 0.0035111 -4.65468e-07
-5.43574e-06 -4.65468e-07 0.00350435
0.000527747 -0.000210285 2.42679e-05
-0.000210285 -3.87679e-05 -1.85984e-05
2.42679e-05 -1.85984e-05 -0.00015366
0.00557355 0.00012914 0.000198137
0.00012914 0.00320076 -2.11726e-05
0.000198137 -2.11726e-05 0.00318634
0.00149361 0.000519943 -9.51124e-08
0.000519943 0.000182494 4.92899e-06
-9.51124e-08 4.92899e-06 -0.00014354
0.00161502 0.000532184 -2.79049e-06
0.000532184 0.000413691 -2.51313e-08
-2.79049e-06 -2.51313e-08 5.93094e-05
0.00116154 0.000375025 -6.62364e-06
0.000375025 0.000155216 -2.45917e-07
-6.62364e-06 -2.45917e-07 -0.000122279
0.00197341 0.000494404 4.89366e-07
0.000494404 0.000748201 1.5526e-06
4.89366e-07 1.5526e-06 0.000421825
0.000979861 0.000290166 -3.27271e-06
0.000290166 0.00015935 -2.09233e-06
-3.27271e-06 -2.09233e-06 -8.78257e-05
0.0012182 0.000237143 -7.94303e-06
0.000237143 0.00040379 -1.9754e-06
-7.94303e-06 -1.9754e-06 0.000184987
-0.000238831 0.000106446 -3.37209e-06
0.000106446 -0.000483082 -2.29687e-06
-3.37209e-06 -2.29687e-06 -0.000679412
0.000763978 0.000139888 -8.84475e-07
0.000139888 0.000167351 -6.26148e-07
-8.84475e-07 -6.26148e-07 -3.1607e-05
0.000609692 9.16074e-05 -1.84214e-05
9.16074e-05 3.78612e-05 -1.70988e-05
-1.84214e-05 -1.70988e-05 -4.3532e-05
0.000363556 7.63263e-05 1.38348e-07
7.63263e-05 -8.13002e-05 8.9049e-06
1.38348e-07 8.9049e-06 -0.000232862
0.000444326 4.58918e-05 -5.66564e-07
4.58918e-05 -4.49932e-05 -4.33203e-07
-5.66564e-07 -4.33203e-07 -0.000108897
0.00417592 -0.000145062 -0.00012482
-0.000145062 0.00232528 -9.62646e-06
-0.00012482 -9.62646e-06 0.00231606
0.000292669 3.48734e-05 6.00923e-06
3.48734e-05 -0.000130139 1.39165e-05
6.00923e-06 1.39165e-05 -0.000183194
0.00353864 -0.000143257 -9.20204e-06
-0.000143257 0.001917 9.23404e-07
-9.20204e-06 9.23404e-07 0.0019103
0.00305425 -0.000128471 5.32978e-05
-0.000128471 0.00160259 4.73032e-06
5.32978e-05 4.73032e-06 0.00159977
0.000422939 0.00012466 1.33507e-06
0.00012466 -0.00171711 1.18745e-05
1.33507e-06 1.18745e-05 -0.00113444
0.00517574 1.66378e-05 6.57981e-05
1.66378e-05 -0.000409674 1.50763e-05
6.57981e-05 1.50763e-05 0.000721064
0.0134777 0.000804974 -3.7099e-05
0.000804974 0.0024256 6.82952e-06
-3.7099e-05 6.82952e-06 0.00201004
0.00187969 0.000687595 1.27418e-06
0.000687595 0.000322191 4.97449e-06
1.27418e-06 4.97449e-06 1.25693e-06
0.0021099 0.000672671 -7.95611e-08
0.000672671 0.000300965 3.45687e-06
-7.95611e-08 3.45687e-06 6.16364e-06
0.00145577 0.000580014 -3.10459e-07
0.000580014 0.000108728 -3.45324e-06
-3.10459e-07 -3.45324e-06 -0.000214867
0.00276761 0.000768127 -6.88613e-06
0.000768127 0.00118679 5.21624e-06
-6.88613e-06 5.21624e-06 0.000795137
0.00176194 0.000614977 -6.56167e-06
0.000614977 0.000507078 -9.43393e-06
-6.56167e-06 -9.43393e-06 0.000108461
0.00193011 0.000730094 7.05953e-06
0.000730094 0.000478563 2.91939e-06
7.05953e-06 2.91939e-06 0.000143396
0.00176271 0.000741449 -2.82321e-06
0.000741449 4.95524e-05 -3.41197e-06
-2.82321e-06 -3.41197e-06 -0.000228885
0.00263875 0.000860808 -1.66189e-05
0.000860808 0.000840179 5.32948e-06
-1.66189e-05 5.32948e-06 0.0005414
0.00118713 0.000720576 -2.95058e-06
0.000720576 -0.000293115 9.33817e-06
-2.95058e-06 9.33817e-06 -0.000235632
0.00266774 0.000892498 -6.75924e-07
0.000892498 0.000610425 2.87495e-06
-6.75924e-07 2.87495e-06 0.000317566
0.00267769 0.000778664 -5.01943e-06
0.000778664 0.000439456 3.54857e-06
-5.01943e-06 3.54857e-06 0.000212172
0.00114533 0.000379798 3.31283e-05
0.000379798 -0.000335865 1.78647e-05
3.31283e-05 1.78647e-05 -0.000308821
0.000596029 0.000620185 9.6388e-06
0.000620185 -0.000424046 -2.74942e-06
9.6388e-06 -2.74942e-06 -0.00059788
0.00110896 0.000788704 -3.1469e-05
0.000788704 -0.000128377 -7.62452e-06
-3.1469e-05 -7.62452e-06 -0.000383948
0.00286486 0.000826213 2.97439e-06
0.000826213 -9.9226e-05 7.91238e-06
2.97439e-06 7.91238e-06 5.95711e-05
0.00650179 0.00117352 -1.65695e-05
0.00117352 -0.000738575 -3.7535e-05
-1.65695e-05 -3.7535e-05 0.000118471
0.003974 0.00132853 -3.55714e-05
0.00132853 0.000974693 -4.83832e-05
-3.55714e-05 -4.83832e-05 0.00087032
0.0013162 -6.35721e-05 2.92971e-05
-6.35721e-05 -0.000416616 2.46001e-06
2.92971e-05 2.46001e-06 -0.000292631
0.00245233 -0.000218667 -5.00206e-05
-0.000218667 -0.000457724 3.09591e-06
-5.00206e-05 3.09591e-06 -0.000195943
0.00295774 0.000320773 1.92332e-05
0.000320773 -0.000503695 -8.9573e-06
1.92332e-05 -8.9573e-06 -7.24983e-05
0.00072419 -0.000470324 -5.91551e-05
-0.000470324 -0.00126883 4.67535e-05
-5.91551e-05 4.67535e-05 -0.000913892
0.00289239 -0.000455344 -9.68519e-05
-0.000455344 -0.000116542 -4.45222e-06
-9.68519e-05 -4.45222e-06 -4.71634e-05
0.00255926 -0.000345077 7.93703e-06
-0.000345077 -4.74743e-05 -3.60309e-06
7.93703e-06 -3.60309e-06 0.000263308
0.00249888 -9.71591e-05 -1.33844e-05
-9.71591e-05 0.000353741 4.95296e-07
-1.33844e-05 4.95296e-07 0.000360495
0.00233214 -0.000233239 1.24221e-05
-0.000233239 -4.57001e-05 -3.81709e-07
1.24221e-05 -3.81709e-07 6.49453e-05
0.00229781 -1.92003e-06 9.14054e-06
-1.92003e-06 -2.21113e-05 1.55714e-06
9.14054e-06 1.55714e-06 1.55834e-05
0.00193725 -0.000493328 -1.58912e-05
-0.000493328 -0.000468146 4.95021e-06
-1.58912e-05 4.95021e-06 -0.000225098
0.00236967 -0.000422998 -2.6262e-06
-0.000422998 -0.000142844 5.78611e-07
-2.6262e-06 5.78611e-07 1.98868e-05
0.00229385 -0.000295944 1.01819e-06
-0.000295944 -6.7716e-05 -1.28803e-06
1.01819e-06 -1.28803e-06 6.40702e-06
0.0022651 -0.000492098 -3.54438e-06
-0.000492098 2.66156e-05 1.1689e-06
-3.54438e-06 1.1689e-06 3.28417e-05
0.00221634 -0.000396385 -1.31983e-07
-0.000396385 1.15722e-05 -3.98848e-08
-1.31983e-07 -3.98848e-08 1.01518e-05
0.00211692 -0.000332334 -8.82061e-07
-0.000332334 1.92129e-05 2.46357e-07
-8.82061e-07 2.46357e-07 -9.54708e-06
0.00213595 -0.000464597 3.42172e-08
-0.000464597 7.46729e-05 -7.49572e-07
3.42172e-08 -7.49572e-07 3.80106e-06
0.00204293 -0.000391113 5.37519e-07
-0.000391113 7.50419e-05 -1.43532e-07
5.37519e-07 -1.43532e-07 -1.49855e-05
0.00204269 -0.000360994 -1.65471e-06
-0.000360994 0.000126176 5.63875e-07
-1.65471e-06 5.63875e-07 1.27093e-05
0.0019204 -0.000434823 2.17182e-06
-0.000434823 7.34087e-05 -1.37903e-06
2.17182e-06 -1.37903e-06 -6.07154e-05
0.00196413 -0.000406205 4.40245e-07
-0.000406205 0.000129668 -6.19408e-07
4.40245e-07 -6.19408e-07 -1.57917e-05
0.00195255 -0.000381979 -6.96818e-07
-0.000381979 0.000157849 -1.5707e-06
-6.96818e-07 -1.5707e-06 -8.63686e-06
0.00211941 -0.000432873 -9.77293e-07
-0.000432873 0.000262569 3.10795e-06
-9.77293e-07 3.10795e-06 9.85445e-05
0.00205831 -0.000423635 -5.62662e-07
-0.000423635 0.00026531 -1.48917e-07
-5.62662e-07 -1.48917e-07 7.29037e-05
0.00169858 -0.000352249 -5.01105e-06
-0.000352249 0.000149347 3.75738e-07
-5.01105e-06 3.75738e-07 -6.39976e-05
0.00202092 -0.000454253 3.12846e-06
-0.000454253 0.000277554 1.84522e-06
3.12846e-06 1.84522e-06 5.4341e-05
0.00176628 -0.000388256 -5.94007e-07
-0.000388256 0.000230828 2.66321e-08
-5.94007e-07 2.66321e-08 -3.4226e-06
0.00098942 -0.000232993 -1.46752e-05
-0.000232993 -3.60983e-05 6.75789e-06
-1.46752e-05 6.75789e-06 -0.000232205
0.000343937 -0.000195457 -1.97308e-05
-0.000195457 -0.000195391 1.73544e-05
-1.97308e-05 1.73544e-05 -0.000324509
0.000983901 -0.000254182 2.13856e-07
-0.000254182 -8.55853e-06 7.04233e-08
2.13856e-07 7.04233e-08 -0.000215844
0.00157085 -0.000417371 5.81589e-06
-0.000417371 0.000171873 -9.91018e-07
5.81589e-06 -9.91018e-07 -9.65656e-05
0.00680545 -2.85562e-06 -0.000275177
-2.85562e-06 0.00389379 1.9192e-05
-0.000275177 1.9192e-05 0.00390367
0.000401037 -0.000217446 -1.27745e-06
-0.000217446 -0.000149698 1.11985e-06
-1.27745e-06 1.11985e-06 -0.000279182
0.000914274 -0.000257793 1.2855e-05
-0.000257793 5.91136e-06 -6.67881e-06
1.2855e-05 -6.67881e-06 -0.000209455
0.0066646 5.0318e-05 -1.36191e-06
5.0318e-05 0.00382791 4.006e-07
-1.36191e-06 4.006e-07 0.00382958
0.000480177 -0.000231507 2.46275e-05
-0.000231507 -8.63226e-05 -1.92403e-05
2.46275e-05 -1.92403e-05 -0.000214012
0.0063977 7.51447e-05 0.00024337
7.51447e-05 0.00368053 -2.12453e-05
0.00024337 -2.12453e-05 0.00367734
0.001739 0.000579843 -2.26742e-07
0.000579843 0.000188353 5.34619e-06
-2.26742e-07 5.34619e-06 -0.000114788
0.0015397 0.000531216 2.85162e-07
0.000531216 0.000212447 7.19293e-07
2.85162e-07 7.19293e-07 -0.000114347
0.00139603 0.000423908 -7.17785e-06
0.000423908 0.000212724 6.6176e-07
-7.17785e-06 6.6176e-07 -7.35306e-05
0.00162102 0.000536992 2.86009e-07
0.000536992 0.000411585 -9.52578e-07
2.86009e-07 -9.52578e-07 5.38983e-05
0.00121377 0.000373086 -1.59815e-06
0.000373086 0.000196076 9.31597e-08
-1.59815e-06 9.31597e-08 -7.90018e-05
0.000953685 0.000228921 -1.10778e-05
0.000228921 0.000156694 -4.21929e-06
-1.10778e-05 -4.21929e-06 -4.85424e-05
0.00123615 0.000308192 -3.02031e-07
0.000308192 0.000325889 -1.38108e-06
-3.02031e-07 -1.38108e-06 7.70606e-05
0.00063013 0.000199197 5.1808e-07
0.000199197 4.2398e-05 1.53396e-06
5.1808e-07 1.53396e-06 -0.000174048
0.000487256 0.000166188 -2.57957e-05
0.000166188 -5.51292e-05 -1.77737e-05
-2.57957e-05 -1.77737e-05 -0.000153893
0.000154565 8.7776e-05 5.24054e-07
8.7776e-05 -0.000200582 3.75148e-06
5.24054e-07 3.75148e-06 -0.000401586
0.000525236 7.90181e-05 -1.24818e-06
7.90181e-05 -1.007e-05 -3.77784e-07
-1.24818e-06 -3.77784e-07 -8.90025e-05
0.00507026 -0.000160848 -0.00016362
-0.000160848 0.00289631 -1.37319e-05
-0.00016362 -1.37319e-05 0.00287967
0.000421601 4.26998e-05 9.48945e-06
4.26998e-05 -5.47358e-05 1.63399e-05
9.48945e-06 1.63399e-05 -0.000118042
0.00407452 -0.000167233 -8.33385e-06
-0.000167233 0.00226725 9.56462e-07
-8.33385e-06 9.56462e-07 0.00225268
0.00343701 -0.000152752 7.0511e-05
-0.000152752 0.00185531 5.34235e-06
7.0511e-05 5.34235e-06 0.00184556
0.001192 0.000138949 2.66854e-05
0.000138949 -0.000445229 1.90808e-05
2.66854e-05 1.90808e-05 -0.000249866
0.00266697 0.000159759 -1.31421e-05
0.000159759 -0.00078537 -3.06131e-06
-1.31421e-05 -3.06131e-06 -0.00015873
0.00398665 0.000236585 0.000201547
0.000236585 -0.00155615 5.85827e-05
0.000201547 5.85827e-05 7.35017e-05
0.00262158 0.000734001 -8.2827e-06
0.000734001 0.000559889 -1.70438e-07
-8.2827e-06 -1.70438e-07 0.00027624
0.00170429 0.000689164 -6.62518e-06
0.000689164 0.00020157 -4.46105e-06
-6.62518e-06 -4.46105e-06 -0.000114375
0.00211786 0.000548029 8.33059e-07
0.000548029 0.000169188 4.46422e-06
8.33059e-07 4.46422e-06 -4.99734e-05
0.00208689 0.00066095 1.24817e-06
0.00066095 0.000288039 3.81248e-07
1.24817e-06 3.81248e-07 -3.57399e-06
0.00152388 0.000590339 -2.15756e-08
0.000590339 0.000160714 -1.09918e-05
-2.15756e-08 -1.09918e-05 -0.00016138
0.00189679 0.000575625 -3.3876e-06
0.000575625 -3.32468e-05 8.68161e-07
-3.3876e-06 8.68161e-07 -0.00023341
0.00261769 0.000819046 -7.71499e-06
0.000819046 0.000844767 -3.13551e-06
-7.71499e-06 -3.13551e-06 0.000501918
0.00230664 0.000778912 -1.91929e-07
0.000778912 0.000376554 -2.69808e-07
-1.91929e-07 -2.69808e-07 8.63801e-05
0.00202674 0.000409065 -1.13056e-05
0.000409065 -0.000121921 5.25376e-07
-1.13056e-05 5.25376e-07 -0.000149872
0.00329099 0.000968166 -2.92688e-06
0.000968166 0.000953299 5.28423e-06
-2.92688e-06 5.28423e-06 0.000651944
0.00242674 0.000758827 1.37529e-07
0.000758827 0.000298364 -3.06613e-07
1.37529e-07 -3.06613e-07 7.05963e-05
0.000667578 0.000369451 1.56024e-06
0.000369451 -0.000577195 1.97448e-06
1.56024e-06 1.97448e-06 -0.000549584
-0.000963433 0.000483727 -2.32346e-05
0.000483727 -0.00123343 -8.99682e-06
-2.32346e-05 -8.99682e-06 -0.00138413
0.00375678 0.000929909 -0.00011345
0.000929909 0.000341227 -3.64632e-05
-0.00011345 -3.64632e-05 0.000407391
0.00207362 8.18045e-05 -9.69236e-07
8.18045e-05 -0.00018693 -6.79706e-07
-9.69236e-07 -6.79706e-07 -0.000106957
0.00260914 -7.53615e-05 8.97861e-06
-7.53615e-05 0.000439432 -1.47323e-07
8.97861e-06 -1.47323e-07 0.000529444
0.00265143 -0.000222095 -8.4315e-05
-0.000222095 -0.000284659 8.34256e-06
-8.4315e-05 8.34256e-06 -3.1304e-05
0.00213828 -0.000342572 -6.49544e-05
-0.000342572 -0.000209655 6.10995e-06
-6.49544e-05 6.10995e-06 8.47846e-05
0.00134306 -0.000105477 -1.21276e-05
-0.000105477 -0.000394581 2.42729e-06
-1.21276e-05 2.42729e-06 -0.00037136
0.00234312 -0.000234888 9.90937e-07
-0.000234888 -5.23869e-05 -1.59867e-06
9.90937e-07 -1.59867e-06 7.92721e-05
0.00233864 -1.08184e-06 -3.07109e-06
-1.08184e-06 -2.75746e-05 1.53275e-06
-3.07109e-06 1.53275e-06 1.73341e-05
0.00233611 -7.50486e-05 7.10269e-07
-7.50486e-05 -4.59697e-05 -1.98239e-07
7.10269e-07 -1.98239e-07 2.58395e-05
0.00237692 -0.000430997 -6.59007e-06
-0.000430997 -0.000124339 1.19784e-06
-6.59007e-06 1.19784e-06 4.90544e-06
0.00225201 -0.000285368 3.6309e-07
-0.000285368 -7.46184e-05 -2.31149e-07
3.6309e-07 -2.31149e-07 -8.95201e-06
0.00217005 -0.000220914 3.64115e-07
-0.000220914 -1.81685e-05 -2.21735e-07
3.64115e-07 -2.21735e-07 1.24866e-05
0.00221984 -0.000393658 -2.10592e-08
-0.000393658 2.65284e-05 3.82501e-07
-2.10592e-08 3.82501e-07 2.05487e-05
0.00212032 -0.000329854 8.59909e-08
-0.000329854 2.59782e-05 1.37748e-07
8.59909e-08 1.37748e-07 -3.79425e-06
0.00206365 -0.000284819 -2.68666e-06
-0.000284819 7.57341e-05 6.36508e-07
-2.68666e-06 6.36508e-07 1.10749e-05
0.00203543 -0.000389481 2.30702e-06
-0.000389481 6.64108e-05 -1.01656e-06
2.30702e-06 -1.01656e-06 -2.3469e-05
0.00199519 -0.00035737 6.17809e-07
-0.00035737 9.46203e-05 -2.19083e-07
6.17809e-07 -2.19083e-07 -1.888e-05
0.00195736 -0.000325459 -7.81602e-07
-0.000325459 0.000120408 -1.11549e-06
-7.81602e-07 -1.11549e-06 -1.42332e-05
0.00195587 -0.000406083 1.18717e-06
-0.000406083 0.000120765 -2.44489e-07
1.18717e-06 -2.44489e-07 -2.51925e-05
0.00199662 -0.000384183 -3.53579e-07
-0.000384183 0.000187352 -9.12222e-08
-3.53579e-07 -9.12222e-08 2.05413e-05
0.00175908 -0.000319504 -3.02357e-06
-0.000319504 0.000146556 6.39337e-08
-3.02357e-06 6.39337e-08 -4.4788e-05
0.00202893 -0.000422349 6.85127e-07
-0.000422349 0.000248334 1.73289e-06
6.85127e-07 1.73289e-06 5.703e-05
0.00173668 -0.000354735 -4.84149e-07
-0.000354735 0.000173199 7.51492e-08
-4.84149e-07 7.51492e-08 -4.00084e-05
0.00101563 -0.000210596 -1.46795e-05
-0.000210596 -4.0372e-05 5.9657e-06
-1.46795e-05 5.9657e-06 -0.000226433
0.00179933 -0.000392309 5.384e-06
-0.000392309 0.000251342 -2.61605e-07
5.384e-06 -2.61605e-07 1.78001e-05
0.00104615 -0.000235611 2.42984e-08
-0.000235611 -4.70663e-06 1.13726e-07
2.42984e-08 1.13726e-07 -0.000200473
0.00273585 -0.000174209 -4.69573e-05
-0.000174209 0.00127305 1.15096e-05
-4.69573e-05 1.15096e-05 0.00117261
0.00211285 -9.41425e-05 -0.000246747
-9.41425e-05 0.000966591 3.29336e-05
-0.000246747 3.29336e-05 0.000947122
0.00159583 -0.000199265 -1.23752e-05
-0.000199265 0.000577371 -1.74022e-07
-1.23752e-05 -1.74022e-07 0.000458521
0.0010283 -0.000258715 1.38912e-05
-0.000258715 1.48317e-05 -6.54895e-06
1.38912e-05 -6.54895e-06 -0.000193433
0.00686172 -2.05731e-05 -7.32864e-06
-2.05731e-05 0.00393564 9.44644e-07
-7.32864e-06 9.44644e-07 0.00394207
0.000422245 -0.000243296 2.46463e-05
-0.000243296 -0.000136349 -1.84726e-05
2.46463e-05 -1.84726e-05 -0.000268447
0.00675362 2.82316e-05 0.00026808
2.82316e-05 0.00388789 -2.514e-05
0.00026808 -2.514e-05 0.00388699
0.0021176 0.000421442 1.03287e-06
0.000421442 0.000159669 9.61471e-07
1.03287e-06 9.61471e-07 -5.4082e-06
0.00206667 0.00054875 3.55652e-06
0.00054875 0.000279922 5.27498e-06
3.55652e-06 5.27498e-06 2.77913e-05
0.00204066 0.000605083 2.25432e-07
0.000605083 0.000366654 2.01889e-07
2.25432e-07 2.01889e-07 6.24056e-05
0.00161532 0.000457644 -6.58761e-06
0.000457644 0.000240473 1.52511e-06
-6.58761e-06 1.52511e-06 -3.97911e-05
0.00163453 0.000548981 2.71945e-06
0.000548981 0.00027018 -3.52083e-06
2.71945e-06 -3.52083e-06 -5.91278e-05
0.00139498 0.000426771 -1.04449e-07
0.000426771 0.00020485 4.75975e-07
-1.04449e-07 4.75975e-07 -8.33363e-05
0.0008581 0.000244028 -1.2972e-05
0.000244028 1.22654e-05 -5.11194e-06
-1.2972e-05 -5.11194e-06 -0.000191274
0.00125105 0.000370033 6.72057e-06
0.000370033 0.000227701 1.91264e-06
6.72057e-06 1.91264e-06 -4.49727e-05
0.000674697 0.000209182 1.19496e-06
0.000209182 -1.97445e-05 4.34675e-08
1.19496e-06 4.34675e-08 -0.000220008
0.000571251 0.000239663 -2.79063e-05
0.000239663 -1.74992e-05 -1.87685e-05
-2.79063e-05 -1.87685e-05 -0.000136454
0.000264011 0.000165546 3.76274e-06
0.000165546 -0.000194184 2.52002e-06
3.76274e-06 2.52002e-06 -0.000403514
0.0005407 0.000148736 2.01103e-07
0.000148736 -2.5146e-05 -7.29873e-07
2.01103e-07 -7.29873e-07 -0.000120198
0.00594035 -0.000152603 -0.000206066
-0.000152603 0.00344091 -2.08843e-05
-0.000206066 -2.08843e-05 0.00341746
0.00036426 7.1337e-05 1.52021e-05
7.1337e-05 -0.000107411 1.69803e-05
1.52021e-05 1.69803e-05 -0.000180573
0.00466393 -0.000187659 -1.04166e-05
-0.000187659 0.00264691 7.87086e-07
-1.04166e-05 7.87086e-07 0.00262443
0.00391149 -0.000179018 9.03678e-05
-0.000179018 0.00216799 6.83699e-06
9.03678e-05 6.83699e-06 0.00215015
0.00219741 0.000211039 -4.69899e-06
0.000211039 -0.000144051 -5.34035e-07
-4.69899e-06 -5.34035e-07 -4.80117e-05
0.00212418 9.38403e-05 2.36548e-05
9.38403e-05 -7.19631e-06 -2.92524e-06
2.36548e-05 -2.92524e-06 0.000202868
0.00567023 0.00024607 -0.000110922
0.00024607 0.000597682 -4.31868e-06
-0.000110922 -4.31868e-06 0.00124131
0.0021152 0.000500108 -3.61056e-06
0.000500108 0.000125274 1.37862e-06
-3.61056e-06 1.37862e-06 -5.82549e-05
0.0021557 0.000681117 -3.28963e-06
0.000681117 0.000318422 -1.80603e-07
-3.28963e-06 -1.80603e-07 4.3148e-05
0.00163664 0.000701731 -5.74295e-06
0.000701731 0.000142407 -9.82877e-06
-5.74295e-06 -9.82877e-06 -0.000170057
0.00225074 0.000543002 3.0404e-06
0.000543002 0.000268138 1.43403e-06
3.0404e-06 1.43403e-06 5.16813e-05
0.00206419 0.000650011 6.87242e-07
0.000650011 0.000276091 -4.49875e-06
6.87242e-07 -4.49875e-06 -1.26275e-05
0.00236215 0.000402228 -4.08972e-07
0.000402228 5.33e-05 3.61906e-07
-4.08972e-07 3.61906e-07 1.6894e-05
0.00200804 0.000588806 -7.11838e-07
0.000588806 5.10344e-05 3.73548e-07
-7.11838e-07 3.73548e-07 -0.000150035
0.00280573 0.000811772 -3.03055e-06
0.000811772 0.000681881 -1.40451e-06
-3.03055e-06 -1.40451e-06 0.000378462
0.00203126 0.000402598 -1.19147e-07
0.000402598 -0.000104357 -4.92126e-07
-1.19147e-07 -4.92126e-07 -0.00013141
0.00220878 0.000738514 1.24001e-05
0.000738514 0.000165282 1.71154e-06
1.24001e-05 1.71154e-06 -6.33405e-05
0.000285573 0.000345613 -3.87775e-05
0.000345613 -0.000780039 -1.85456e-05
-3.87775e-05 -1.85456e-05 -0.000749208
0.00232153 8.32819e-05 9.06154e-07
8.32819e-05 -1.94156e-05 3.88038e-07
9.06154e-07 3.88038e-07 3.91617e-05
0.00226299 9.28151e-05 -2.08737e-06
9.28151e-05 -5.08223e-05 3.82286e-07
-2.08737e-06 3.82286e-07 2.17067e-05
0.00351176 -7.53365e-05 -4.47669e-05
-7.53365e-05 0.00106557 1.42628e-06
-4.47669e-05 1.42628e-06 0.00112279
0.00233584 -0.00023304 -1.99894e-05
-0.00023304 -7.41867e-05 2.19854e-06
-1.99894e-05 2.19854e-06 7.7562e-05
0.00238943 3.32236e-06 -5.19762e-06
3.32236e-06 -3.12896e-05 -3.57261e-06
-5.19762e-06 -3.57261e-06 2.02817e-05
0.0023 -8.22362e-05 -4.31289e-07
-8.22362e-05 -8.48831e-05 -8.96006e-08
-4.31289e-07 -8.96006e-08 -5.54036e-06
0.00205879 -6.77325e-05 3.59413e-08
-6.77325e-05 -2.48399e-05 2.41741e-07
3.59413e-08 2.41741e-07 -3.88166e-06
0.0022083 -0.000273938 -8.3046e-07
-0.000273938 -8.14269e-05 6.22076e-07
-8.3046e-07 6.22076e-07 -2.42148e-05
0.00212789 -0.000225165 -1.65894e-07
-0.000225165 -3.65466e-05 -1.19614e-08
-1.65894e-07 -1.19614e-08 -1.16894e-05
0.00203671 -0.000190934 -2.14022e-06
-0.000190934 2.8704e-05 6.15809e-08
-2.14022e-06 6.15809e-08 6.48238e-07
0.0021238 -0.000327394 1.1512e-06
-0.000327394 3.27747e-05 1.07026e-07
1.1512e-06 1.07026e-07 2.0002e-06
0.00205194 -0.000283736 3.3654e-07
-0.000283736 6.50902e-05 -1.6338e-08
3.3654e-07 -1.6338e-08 3.72357e-07
0.00202113 -0.000262823 -1.7009e-06
-0.000262823 0.000117459 -5.72961e-07
-1.7009e-06 -5.72961e-07 1.42828e-05
0.00194539 -0.000353416 2.44672e-06
-0.000353416 6.17163e-05 -8.2912e-07
2.44672e-06 -8.2912e-07 -5.17499e-05
0.00199397 -0.000328077 -3.03962e-07
-0.000328077 0.000140435 -7.64054e-08
-3.03962e-07 -7.64054e-08 5.25538e-06
0.00178923 -0.000274162 -2.00383e-06
-0.000274162 0.000130174 -2.61566e-07
-2.00383e-06 -2.61566e-07 -3.81168e-05
0.00203831 -0.000386289 8.37624e-07
-0.000386289 0.000215397 1.11882e-06
8.37624e-07 1.11882e-06 4.82582e-05
0.00178671 -0.000321484 -3.66041e-07
-0.000321484 0.000162741 9.14385e-08
-3.66041e-07 9.14385e-08 -2.84438e-05
0.0010393 -0.000188475 -1.40334e-05
-0.000188475 -4.49e-05 4.86585e-06
-1.40334e-05 4.86585e-06 -0.000222089
0.00177458 -0.000357282 3.87935e-06
-0.000357282 0.000196794 -2.79387e-07
3.87935e-06 -2.79387e-07 -1.62943e-05
0.00107722 -0.000212785 -1.07949e-07
-0.000212785 -7.50132e-06 2.02613e-07
-1.07949e-07 2.02613e-07 -0.000192813
0.00273343 -0.000169957 -5.51177e-05
-0.000169957 0.00126236 1.10432e-05
-5.51177e-05 1.10432e-05 0.00117052
0.00109997 -0.000238385 1.47949e-05
-0.000238385 2.48586e-05 -6.37073e-06
1.47949e-05 -6.37073e-06 -0.000170624
0.00285561 -0.000212741 4.76082e-05
-0.000212741 0.00134796 -7.31446e-06
4.76082e-05 -7.31446e-06 0.00125515
0.00216403 -0.000131127 -0.00024761
-0.000131127 0.00100459 3.76526e-05
-0.00024761 3.76526e-05 0.000983105
0.00438524 -0.000103012 -0.000243123
-0.000103012 0.0023975 2.39763e-05
-0.000243123 2.39763e-05 0.00239041
0.00293544 -0.000270171 0.000155378
-0.000270171 0.0014134 -2.47197e-05
0.000155378 -2.47197e-05 0.00131997
0.00691111 -3.58517e-05 0.000283331
-3.58517e-05 0.00397503 -2.95484e-05
0.000283331 -2.95484e-05 0.00397736
0.00230538 0.00041853 -1.31534e-06
0.00041853 0.000270008 -1.394e-07
-1.31534e-06 -1.394e-07 0.000126603
0.00186765 0.000423728 3.00136e-06
0.000423728 0.000113485 1.81789e-06
3.00136e-06 1.81789e-06 -8.32735e-05
0.00211316 0.00041228 3.79858e-07
0.00041228 0.000163287 -1.65928e-06
3.79858e-07 -1.65928e-06 5.13198e-06
0.00176611 0.000442245 -4.93227e-06
0.000442245 0.000221682 1.87541e-06
-4.93227e-06 1.87541e-06 -3.22385e-05
0.00213557 0.000555032 6.76351e-07
0.000555032 0.000307935 2.67745e-07
6.76351e-07 2.67745e-07 5.5003e-05
0.00232157 0.00062941 5.40753e-07
0.00062941 0.000532431 -4.59552e-06
5.40753e-07 -4.59552e-06 0.000227143
0.00158866 0.000459056 2.37686e-07
0.000459056 0.000217182 5.22562e-07
2.37686e-07 5.22562e-07 -6.52218e-05
0.000985938 0.000269849 -1.51163e-05
0.000269849 1.42919e-06 -5.37852e-06
-1.51163e-05 -5.37852e-06 -0.000206006
0.00139875 0.000429847 8.43564e-06
0.000429847 0.000200438 8.46042e-07
8.43564e-06 8.46042e-07 -8.97015e-05
0.00079634 0.000236864 -7.02319e-07
0.000236864 -2.28607e-05 -2.17923e-08
-7.02319e-07 -2.17923e-08 -0.000223137
0.000437501 0.000245931 -2.56111e-05
0.000245931 -0.00011128 -1.91513e-05
-2.56111e-05 -1.91513e-05 -0.000242342
0.000327117 0.000186184 8.65758e-06
0.000186184 -0.000234037 2.21524e-06
8.65758e-06 2.21524e-06 -0.000429253
0.000351539 0.000199369 2.90115e-06
0.000199369 -0.000154913 3.83082e-07
2.90115e-06 3.83082e-07 -0.000267685
0.00662 -7.44307e-05 -0.000247073
-7.44307e-05 0.00383349 -2.53313e-05
-0.000247073 -2.53313e-05 0.00382009
0.000363581 0.000112971 2.08587e-05
0.000112971 -0.000133012 1.66686e-05
2.08587e-05 1.66686e-05 -0.000222809
0.00561275 -0.000168957 9.60127e-07
-0.000168957 0.00322803 -1.55177e-06
9.60127e-07 -1.55177e-06 0.00320825
0.00451585 -0.000213758 0.000108203
-0.000213758 0.00256245 9.1207e-06
0.000108203 9.1207e-06 0.00253339
0.00235071 0.000244719 3.63482e-08
0.000244719 -1.18994e-05 5.11987e-07
3.63482e-08 5.11987e-07 4.17493e-05
0.00213502 0.00021735 1.56961e-06
0.00021735 -0.0001657 -1.77361e-08
1.56961e-06 -1.77361e-08 -7.09768e-05
0.0027392 5.6464e-05 -8.03104e-05
5.6464e-05 0.000257347 -1.03589e-05
-8.03104e-05 -1.03589e-05 0.000487433
0.00208265 0.000355397 2.84824e-07
0.000355397 7.79433e-06 1.19474e-07
2.84824e-07 1.19474e-07 -7.27607e-05
0.00210822 0.000496202 -8.335e-07
0.000496202 0.000144519 4.5029e-07
-8.335e-07 4.5029e-07 -3.74973e-05
0.00165152 0.000622952 6.37358e-06
0.000622952 5.54318e-05 -2.30682e-06
6.37358e-06 -2.30682e-06 -0.000210366
0.00238272 0.000537613 -8.7223e-07
0.000537613 0.000367018 -3.13192e-06
-8.7223e-07 -3.13192e-06 0.000153426
0.00231199 0.000387676 -9.50564e-07
0.000387676 3.83462e-05 3.85949e-08
-9.50564e-07 3.85949e-08 3.66284e-06
0.00212281 0.000602541 -1.04231e-06
0.000602541 0.000137345 -1.18751e-07
-1.04231e-06 -1.18751e-07 -6.48989e-05
0.00193852 0.000390621 1.12794e-05
0.000390621 -0.00011342 -7.97969e-07
1.12794e-05 -7.97969e-07 -0.000139337
0.00213717 6.58236e-05 1.82389e-06
6.58236e-05 -5.29632e-06 4.34577e-07
1.82389e-06 4.34577e-07 1.91859e-05
0.00224848 7.84823e-05 8.672e-08
7.84823e-05 -5.25853e-05 1.96702e-08
8.672e-08 1.96702e-08 4.6015e-06
0.00243392 0.000109129 -8.8256e-06
0.000109129 7.66914e-05 -7.17045e-07
-8.8256e-06 -7.17045e-07 0.000141419
0.00199839 -1.17655e-05 -3.44386e-06
-1.17655e-05 1.67009e-05 4.13288e-07
-3.44386e-06 4.13288e-07 1.35892e-05
0.00226611 -9.53207e-05 -8.86752e-08
-9.53207e-05 -0.000121216 -6.81839e-07
-8.86752e-08 -6.81839e-07 -3.42445e-05
0.00208443 -7.07136e-05 -7.0467e-07
-7.07136e-05 -1.34431e-05 3.0071e-07
-7.0467e-07 3.0071e-07 7.91559e-06
0.00194285 -0.000105902 -3.87513e-06
-0.000105902 -2.01604e-05 4.94675e-07
-3.87513e-06 4.94675e-07 -3.86745e-05
0.002084 -0.000229234 1.87182e-07
-0.000229234 -5.58785e-05 2.13464e-07
1.87182e-07 2.13464e-07 -3.72107e-05
0.00204223 -0.000189964 1.22134e-06
-0.000189964 3.16462e-05 -3.56596e-07
1.22134e-06 -3.56596e-07 3.82518e-06
0.00203523 -0.000188774 1.47231e-07
-0.000188774 0.000102971 -7.07626e-07
1.47231e-07 -7.07626e-07 2.56845e-05
0.00204207 -0.000282222 2.91679e-06
-0.000282222 5.57775e-05 -6.4469e-07
2.91679e-06 -6.4469e-07 -8.90536e-06
0.0019982 -0.000260291 -2.61719e-07
-0.000260291 0.000101432 -2.39527e-07
-2.61719e-07 -2.39527e-07 -1.52372e-06
0.00177827 -0.00021721 -1.22364e-06
-0.00021721 0.000100934 -1.8769e-07
-1.22364e-06 -1.8769e-07 -4.53933e-05
0.00203485 -0.000330725 1.46385e-06
-0.000330725 0.000163852 6.75884e-07
1.46385e-06 6.75884e-07 2.81653e-05
0.00180237 -0.000274239 -3.42106e-07
-0.000274239 0.000138128 -4.25326e-08
-3.42106e-07 -4.25326e-08 -2.97277e-05
0.00106107 -0.000162841 -1.31997e-05
-0.000162841 -4.72343e-05 3.77472e-06
-1.31997e-05 3.77472e-06 -0.000214832
0.00181505 -0.00032337 2.15203e-06
-0.00032337 0.000179509 7.17756e-08
2.15203e-06 7.17756e-08 -1.14804e-05
0.00109633 -0.000189125 -2.59849e-07
-0.000189125 -1.4098e-05 2.42791e-07
-2.59849e-07 2.42791e-07 -0.00019013
0.00269879 -0.000164901 -6.23915e-05
-0.000164901 0.00123984 1.07484e-05
-6.23915e-05 1.07484e-05 0.00115178
0.00113964 -0.000214999 1.48057e-05
-0.000214999 2.56805e-05 -5.63012e-06
1.48057e-05 -5.63012e-06 -0.000158815
0.00280432 -0.000192449 4.35768e-05
-0.000192449 0.00130679 -5.76662e-06
4.35768e-05 -5.76662e-06 0.00122195
0.00219315 -0.000111901 -0.000241593
-0.000111901 0.00101456 3.29328e-05
-0.000241593 3.29328e-05 0.000995836
0.00295739 -0.000220076 0.000150166
-0.000220076 0.00140679 -2.57132e-05
0.000150166 -2.57132e-05 0.00132345
0.00183492 -6.88025e-05 -0.000101441
-6.88025e-05 0.000801517 1.45189e-05
-0.000101441 1.45189e-05 0.000767678
0.00651039 3.07884e-05 8.40139e-05
3.07884e-05 0.00370646 -3.88501e-06
8.40139e-05 -3.88501e-06 0.00368682
0.00206688 0.000354174 4.75327e-07
0.000354174 8.98069e-05 3.02418e-07
4.75327e-07 3.02418e-07 -2.55382e-05
0.00219135 0.000397119 -4.71398e-09
0.000397119 0.000258685 -1.60986e-07
-4.71398e-09 -1.60986e-07 9.43134e-05
0.00222265 0.000416781 -3.85492e-06
0.000416781 0.000208097 -1.30011e-07
-3.85492e-06 -1.30011e-07 6.234e-05
0.00185854 0.000389323 -1.88771e-06
0.000389323 0.000213811 7.37385e-07
-1.88771e-06 7.37385e-07 -7.02044e-06
0.00185655 0.000429685 -8.00497e-07
0.000429685 8.81841e-05 -2.06135e-06
-8.00497e-07 -2.06135e-06 -0.000105152
0.00209431 0.000402451 -5.18151e-06
0.000402451 0.000157697 -5.14308e-06
-5.18151e-06 -5.14308e-06 6.55421e-06
0.00106888 0.000264587 -1.66817e-05
0.000264587 -9.91511e-06 -5.31699e-06
-1.66817e-05 -5.31699e-06 -0.000210773
0.00170114 0.00043776 8.66729e-07
0.00043776 0.000180395 4.24649e-07
8.66729e-07 4.24649e-07 -7.37231e-05
0.00221652 0.000561771 1.56559e-06
0.000561771 0.000342507 -4.1085e-06
1.56559e-06 -4.1085e-06 8.87689e-05
0.0015459 0.000458827 7.76088e-06
0.000458827 0.000184726 -3.11579e-07
7.76088e-06 -3.11579e-07 -9.95218e-05
0.000906489 0.000258866 -9.20675e-07
0.000258866 -3.80012e-05 -6.52892e-08
-9.20675e-07 -6.52892e-08 -0.00024245
0.000354213 0.000240537 -2.51933e-05
0.000240537 -0.000172835 -1.77969e-05
-2.51933e-05 -1.77969e-05 -0.000305184
0.000702908 0.000225726 1.24886e-05
0.000225726 -7.75361e-05 5.77251e-06
1.24886e-05 5.77251e-06 -0.000273858
0.000389616 0.000234426 2.00583e-06
0.000234426 -0.000134793 8.04581e-07
2.00583e-06 8.04581e-07 -0.000266122
0.00690863 1.49862e-05 -0.000270706
1.49862e-05 0.00399655 -3.19091e-05
-0.000270706 -3.19091e-05 0.00398657
0.000411018 0.000181388 2.42344e-05
0.000181388 -0.000122208 1.89075e-05
2.42344e-05 1.89075e-05 -0.000232428
0.0063883 -0.000113095 3.8877e-06
-0.000113095 0.00368688 -9.54334e-07
3.8877e-06 -9.54334e-07 0.00367469
0.00520183 -0.000206638 0.000143013
-0.000206638 0.00298186 9.72594e-06
0.000143013 9.72594e-06 0.00295439
0.00210038 0.000193994 -4.41591e-07
0.000193994 -7.99366e-06 -2.15467e-07
-4.41591e-07 -2.15467e-07 -4.71817e-06
0.00231107 0.000247033 -1.9084e-08
0.000247033 -4.30239e-05 5.69865e-07
-1.9084e-08 5.69865e-07 1.29769e-05
0.00214367 0.000223013 3.3172e-06
0.000223013 -0.000163078 -2.29295e-07
3.3172e-06 -2.29295e-07 -6.89775e-05
0.00213749 0.000353653 -3.32883e-07
0.000353653 4.66859e-05 9.93246e-08
-3.32883e-07 9.93246e-08 -3.03314e-05
0.00209959 0.000491793 1.01206e-06
0.000491793 0.000165089 -6.50039e-07
1.01206e-06 -6.50039e-07 -1.52811e-05
0.00228458 0.000374941 1.96366e-06
0.000374941 3.07746e-05 -3.93054e-07
1.96366e-06 -3.93054e-07 -2.36442e-06
0.00200637 6.21792e-05 -1.3316e-06
6.21792e-05 -6.94436e-06 3.11715e-07
-1.3316e-06 3.11715e-07 -6.91093e-06
0.00212062 6.06461e-05 3.50238e-07
6.06461e-05 -1.25846e-05 -1.03266e-07
3.50238e-07 -1.03266e-07 1.05186e-05
0.00217582 7.38188e-05 -9.67592e-07
7.38188e-05 -8.69294e-05 -3.60684e-07
-9.67592e-07 -3.60684e-07 -3.03902e-05
0.00198441 -1.08269e-05 -9.60693e-07
-1.08269e-05 5.0761e-06 2.01676e-08
-9.60693e-07 2.01676e-08 1.55589e-06
0.00198769 -3.74766e-05 -6.44348e-06
-3.74766e-05 4.45945e-05 6.43362e-07
-6.44348e-06 6.43362e-07 2.10556e-05
0.00211115 -7.33904e-05 1.16074e-07
-7.33904e-05 -1.87939e-06 -1.98678e-08
1.16074e-07 -1.98678e-08 2.01914e-05
0.00198772 -0.000106094 -1.46374e-06
-0.000106094 1.40578e-05 2.31535e-07
-1.46374e-06 2.31535e-07 -7.38163e-06
0.00192756 -0.00011879 -5.08581e-06
-0.00011879 2.68143e-05 5.94342e-07
-5.08581e-06 5.94342e-07 -3.16972e-05
0.00204924 -0.000189474 4.47537e-06
-0.000189474 3.5867e-05 -7.93474e-07
4.47537e-06 -7.93474e-07 8.17259e-06
0.00198414 -0.000187545 2.86206e-06
-0.000187545 7.14066e-05 -8.1233e-07
2.86206e-06 -8.1233e-07 -5.76636e-06
0.00178687 -0.000158835 1.90327e-06
-0.000158835 9.09132e-05 -7.55012e-07
1.90327e-06 -7.55012e-07 -3.76119e-05
0.00196217 -0.000258932 1.98606e-06
-0.000258932 7.59527e-05 -5.40467e-08
1.98606e-06 -5.40467e-08 -2.70905e-05
0.00179944 -0.000218797 -1.78495e-07
-0.000218797 0.000111798 -6.56611e-08
-1.78495e-07 -6.56611e-08 -3.44201e-05
0.00107537 -0.000131081 -1.25201e-05
-0.000131081 -4.95967e-05 2.77365e-06
-1.25201e-05 2.77365e-06 -0.000206179
0.00181666 -0.000274588 1.00696e-06
-0.000274588 0.000145596 1.57708e-07
1.00696e-06 1.57708e-07 -2.18777e-05
0.00110602 -0.000161842 -3.4531e-07
-0.000161842 -2.17929e-05 2.31566e-07
-3.4531e-07 2.31566e-07 -0.000188134
0.00262663 -0.000167039 -6.47227e-05
-0.000167039 0.00119577 9.44139e-06
-6.47227e-05 9.44139e-06 0.00110994
0.00115238 -0.000189717 1.39905e-05
-0.000189717 1.58592e-05 -4.51454e-06
1.39905e-05 -4.51454e-06 -0.000158978
0.00275674 -0.000165876 4.16564e-05
-0.000165876 0.00127113 -4.40764e-06
4.16564e-05 -4.40764e-06 0.00119152
0.00220266 -9.33446e-05 -0.000239246
-9.33446e-05 0.00101389 2.77065e-05
-0.000239246 2.77065e-05 0.000996802
0.00287461 -0.00018487 0.000146686
-0.00018487 0.0013434 -2.18489e-05
0.000146686 -2.18489e-05 0.0012689
0.0018264 -7.27747e-05 -9.18831e-05
-7.27747e-05 0.000791105 1.16209e-05
-9.18831e-05 1.16209e-05 0.000760077
0.00154539 -6.65531e-05 5.76599e-05
-6.65531e-05 0.000631711 -8.91091e-06
5.76599e-05 -8.91091e-06 0.000582446
0.00207801 0.000231338 -1.40635e-06
0.000231338 5.51495e-05 -1.04057e-07
-1.40635e-06 -1.04057e-07 1.10981e-06
0.00209668 0.000324952 -1.46102e-06
0.000324952 0.000166469 8.8043e-07
-1.46102e-06 8.8043e-07 3.34888e-05
0.00207476 0.000357408 -2.22357e-07
0.000357408 7.54052e-05 1.68318e-08
-2.22357e-07 1.68318e-08 -3.29456e-05
0.00198024 0.000355947 -2.36235e-07
0.000355947 0.000237993 8.39172e-07
-2.36235e-07 8.39172e-07 4.74426e-05
0.00211145 0.000389758 -9.39171e-07
0.000389758 0.000217152 -5.05382e-07
-9.39171e-07 -5.05382e-07 5.19466e-05
0.00214757 0.000415868 4.62978e-08
0.000415868 0.000150969 -1.60883e-07
4.62978e-08 -1.60883e-07 2.66754e-06
0.00116834 0.000241586 -1.64955e-05
0.000241586 2.37866e-05 -5.0289e-06
-1.64955e-05 -5.0289e-06 -0.000165582
0.00180205 0.000390328 2.39462e-06
0.000390328 0.000171471 -5.44435e-08
2.39462e-06 -5.44435e-08 -4.59642e-05
0.00186118 0.00043665 -2.45556e-06
0.00043665 7.32932e-05 -4.2654e-06
-2.45556e-06 -4.2654e-06 -0.000116773
0.000300723 0.000186368 -2.24897e-05
0.000186368 -0.00023022 -1.46625e-05
-2.24897e-05 -1.46625e-05 -0.000351203
0.00105282 0.000260984 -7.28967e-07
0.000260984 -1.42721e-05 8.15953e-08
-7.28967e-07 8.15953e-08 -0.00021436
0.00164795 0.000434614 6.87288e-06
0.000434614 0.00014526 -1.08773e-06
6.87288e-06 -1.08773e-06 -0.000109288
0.000912001 0.000254563 1.53596e-05
0.000254563 -2.61471e-05 6.0717e-06
1.53596e-05 6.0717e-06 -0.000228615
0.000369993 0.000225352 6.63902e-07
0.000225352 -0.000160997 9.74168e-07
6.63902e-07 9.74168e-07 -0.000294647
0.007043 0.000115663 -0.000284224
0.000115663 0.00406138 -3.62299e-05
-0.000284224 -3.62299e-05 0.00405487
0.0003533 0.000216999 2.23019e-05
0.000216999 -0.000154515 1.81188e-05
2.23019e-05 1.81188e-05 -0.000284081
0.00679876 -1.54142e-05 7.27127e-06
-1.54142e-05 0.0039159 -7.12485e-08
7.27127e-06 -7.12485e-08 0.0039132
0.00614391 -0.000144704 0.000199647
-0.000144704 0.00353286 1.14375e-05
0.000199647 1.14375e-05 0.00352014
0.00202842 0.000124856 -3.88119e-06
0.000124856 2.50382e-05 -8.15535e-07
-3.88119e-06 -8.15535e-07 1.58021e-05
0.00211088 0.000198195 8.54241e-07
0.000198195 -2.90948e-06 3.2586e-07
8.54241e-07 3.2586e-07 -1.04529e-06
0.0022587 0.000249593 -4.42427e-07
0.000249593 -7.83896e-05 -8.48435e-07
-4.42427e-07 -8.48435e-07 -2.05426e-05
0.00219019 0.000350687 2.5733e-06
0.000350687 8.4235e-05 8.16496e-08
2.5733e-06 8.16496e-08 1.09571e-05
0.00196153 1.52933e-05 -6.02195e-06
1.52933e-05 4.71771e-05 4.69267e-07
-6.02195e-06 4.69267e-07 1.32088e-05
0.00199153 5.26459e-05 -9.04449e-09
5.26459e-05 -1.43545e-05 7.24158e-08
-9.04449e-09 7.24158e-08 -1.53947e-05
0.00210433 5.53503e-05 -1.10616e-06
5.53503e-05 -1.88297e-05 -2.56058e-07
-1.10616e-06 -2.56058e-07 2.21747e-06
0.00196915 -8.7437e-06 9.16205e-07
-8.7437e-06 -7.00154e-06 -6.64135e-07
9.16205e-07 -6.64135e-07 -1.11618e-05
0.00198377 -3.18424e-05 -7.51421e-07
-3.18424e-05 3.94611e-05 -1.8763e-07
-7.51421e-07 -1.8763e-07 1.71875e-05
0.00190582 -5.07435e-05 -3.55985e-06
-5.07435e-05 2.67456e-05 3.53624e-07
-3.55985e-06 3.53624e-07 -3.31292e-05
0.00203332 -0.000106504 3.79838e-06
-0.000106504 4.8639e-05 -2.86843e-07
3.79838e-06 -2.86843e-07 2.40646e-05
0.00195753 -0.000119317 -2.17456e-06
-0.000119317 5.50137e-05 6.03462e-07
-2.17456e-06 6.03462e-07 -9.95082e-06
0.00185145 -0.000103257 -6.62139e-07
-0.000103257 0.000117349 -2.76894e-07
-6.62139e-07 -2.76894e-07 9.92286e-06
0.00194171 -0.000185174 6.10913e-06
-0.000185174 4.53545e-05 -9.88729e-07
6.10913e-06 -9.88729e-07 -3.14305e-05
0.00181396 -0.000157656 2.11479e-06
-0.000157656 0.000104846 -5.3266e-07
2.11479e-06 -5.3266e-07 -2.30446e-05
0.00107756 -9.6653e-05 -1.21887e-05
-9.6653e-05 -5.3198e-05 1.88126e-06
-1.21887e-05 1.88126e-06 -0.000199243
0.00183753 -0.000218541 7.20298e-07
-0.000218541 0.000135097 5.30113e-08
7.20298e-07 5.30113e-08 -1.05265e-05
0.00109316 -0.000130316 -1.60725e-07
-0.000130316 -3.79212e-05 1.98796e-07
-1.60725e-07 1.98796e-07 -0.000193774
0.000430123 -8.93034e-05 -1.98716e-05
-8.93034e-05 -0.000189384 5.89213e-06
-1.98716e-05 5.89213e-06 -0.00028285
0.00114718 -0.000160565 1.30956e-05
-0.000160565 1.79885e-06 -3.42071e-06
1.30956e-05 -3.42071e-06 -0.000163232
0.00158 -0.000109064 6.1044e-05
-0.000109064 0.000530176 -4.59537e-06
6.1044e-05 -4.59537e-06 0.000447853
0.00644928 -0.000158433 -0.000316919
-0.000158433 0.0036714 2.31423e-05
-0.000316919 2.31423e-05 0.00368788
0.00283011 -0.000149192 0.000143953
-0.000149192 0.00130672 -1.73288e-05
0.000143953 -1.73288e-05 0.00123795
0.00182645 -7.25217e-05 -8.30854e-05
-7.25217e-05 0.000789969 7.55295e-06
-8.30854e-05 7.55295e-06 0.000759189
0.00145956 -9.32922e-05 6.92474e-05
-9.32922e-05 0.000582729 -1.05302e-05
6.92474e-05 -1.05302e-05 0.000532516
0.00202686 0.000166629 -3.75042e-06
0.000166629 5.72578e-05 -6.65121e-07
-3.75042e-06 -6.65121e-07 1.38425e-05
0.00210828 0.000248313 -8.72227e-07
0.000248313 0.000157032 1.07123e-06
-8.72227e-07 1.07123e-06 5.85484e-05
0.00205059 0.00022471 2.81132e-07
0.00022471 4.47221e-05 2.71563e-07
2.81132e-07 2.71563e-07 -1.33306e-05
0.00188452 0.00028219 3.54028e-08
0.00028219 0.000156261 1.43194e-06
3.54028e-08 1.43194e-06 -1.95588e-06
0.00203214 0.000319613 1.05149e-06
0.000319613 0.000130207 1.42154e-07
1.05149e-06 1.42154e-07 -2.08525e-06
0.00208139 0.000361153 4.45621e-07
0.000361153 5.98339e-05 2.87262e-07
4.45621e-07 2.87262e-07 -4.16695e-05
0.00113733 0.000211126 -1.58959e-05
0.000211126 -1.83848e-05 -3.64002e-06
-1.58959e-05 -3.64002e-06 -0.000193028
0.00196398 0.000352997 2.3502e-06
0.000352997 0.000226738 6.05288e-07
2.3502e-06 6.05288e-07 3.71566e-05
0.00201443 0.000381102 -1.47847e-06
0.000381102 0.000165357 -1.6974e-06
-1.47847e-06 -1.6974e-06 -5.03212e-07
0.00032978 0.000132492 -1.96742e-05
0.000132492 -0.000235381 -1.08992e-05
-1.96742e-05 -1.08992e-05 -0.000343182
0.00107192 0.000237367 3.23899e-07
0.000237367 -3.70098e-05 3.98086e-07
3.23899e-07 3.98086e-07 -0.000225058
0.00173041 0.000390222 6.37797e-06
0.000390222 0.000119189 -1.28107e-06
6.37797e-06 -1.28107e-06 -9.46311e-05
0.00690788 0.000194056 -0.000292984
0.000194056 0.00396147 -3.58946e-05
-0.000292984 -3.58946e-05 0.00396075
0.000347213 0.0001812 3.98276e-07
0.0001812 -0.0002022 8.2834e-07
3.98276e-07 8.2834e-07 -0.000324355
0.00100151 0.000254445 1.70574e-05
0.000254445 -3.87459e-05 6.09122e-06
1.70574e-05 6.09122e-06 -0.00023762
0.000359076 0.00021256 2.14317e-05
0.00021256 -0.000165038 1.75124e-05
2.14317e-05 1.75124e-05 -0.000299969
0.00690826 0.000105901 1.02501e-05
0.000105901 0.00397121 9.49612e-07
1.02501e-05 9.49612e-07 0.00397158
0.00666796 -4.83481e-05 0.000252784
-4.83481e-05 0.00382586 1.64036e-05
0.000252784 1.64036e-05 0.00382786
0.00194224 6.85786e-05 -8.10292e-06
6.85786e-05 3.04123e-05 -1.55717e-07
-8.10292e-06 -1.55717e-07 -6.55186e-06
0.00201886 0.000121738 1.82035e-07
0.000121738 1.85659e-05 1.73277e-08
1.82035e-07 1.73277e-08 8.80061e-06
0.00212343 0.000202529 9.27728e-07
0.000202529 3.21386e-06 3.54142e-07
9.27728e-07 3.54142e-07 4.07822e-06
0.001931 5.42993e-06 -3.97895e-06
5.42993e-06 5.61784e-05 8.10261e-09
-3.97895e-06 8.10261e-09 -8.10876e-06
0.00194754 2.03293e-05 1.95753e-07
2.03293e-05 3.62395e-05 5.45384e-08
1.95753e-07 5.45384e-08 4.89846e-06
0.00197966 4.20596e-05 6.42938e-07
4.20596e-05 -2.01632e-05 -2.9985e-07
6.42938e-07 -2.9985e-07 -2.21727e-05
0.00197898 -2.69575e-05 3.90468e-06
-2.69575e-05 3.32924e-05 -5.00842e-07
3.90468e-06 -5.00842e-07 1.26888e-05
0.00191876 -4.88617e-05 -1.53371e-06
-4.88617e-05 3.64296e-05 3.24665e-07
-1.53371e-06 3.24665e-07 -2.23729e-05
0.00189416 -4.7569e-05 1.61619e-06
-4.7569e-05 0.000156435 -6.0827e-07
1.61619e-06 -6.0827e-07 5.28136e-05
0.00197626 -0.000119492 1.2182e-07
-0.000119492 7.61403e-05 5.12148e-07
1.2182e-07 5.12148e-07 4.92996e-06
0.00184688 -0.000104472 5.55674e-07
-0.000104472 0.000118771 2.46245e-08
5.55674e-07 2.46245e-08 4.97559e-06
0.00104536 -5.72658e-05 -1.2769e-05
-5.72658e-05 -7.84519e-05 9.17289e-07
-1.2769e-05 9.17289e-07 -0.000211233
0.00182263 -0.00015826 2.22296e-06
-0.00015826 0.000106667 -3.31525e-07
2.22296e-06 -3.31525e-07 -2.1048e-05
0.00108607 -9.28864e-05 -7.5033e-08
-9.28864e-05 -4.7512e-05 9.89361e-08
-7.5033e-08 9.89361e-08 -0.000192681
0.000440068 -2.34506e-05 -1.8484e-05
-2.34506e-05 -0.000186907 3.47508e-06
-1.8484e-05 3.47508e-06 -0.000274632
0.00113371 -0.000129142 1.24305e-05
-0.000129142 -1.37624e-05 -2.44029e-06
1.24305e-05 -2.44029e-06 -0.000168669
0.000436571 -7.38455e-05 -1.87058e-07
-7.38455e-05 -0.000184054 4.58534e-07
-1.87058e-07 4.58534e-07 -0.000278201
0.0063851 -5.02461e-05 -0.000306633
-5.02461e-05 0.00362599 1.42811e-05
-0.000306633 1.42811e-05 0.00364711
0.000478075 -7.5713e-05 1.47545e-05
-7.5713e-05 -0.000160186 -7.79016e-06
1.47545e-05 -7.79016e-06 -0.000258921
0.00405167 -0.000103437 0.000136146
-0.000103437 0.00218078 -6.9035e-06
0.000136146 -6.9035e-06 0.00216489
0.00142213 -8.7594e-05 7.49665e-05
-8.7594e-05 0.000559517 -1.03892e-05
7.49665e-05 -1.03892e-05 0.000509966
0.00201656 0.000128723 -7.51307e-06
0.000128723 7.4442e-05 -5.6508e-07
-7.51307e-06 -5.6508e-07 2.71269e-05
0.00203556 0.000180429 -1.12826e-06
0.000180429 0.000116724 1.12953e-06
-1.12826e-06 1.12953e-06 3.35799e-05
0.00200774 0.000161311 -5.67911e-07
0.000161311 4.4836e-05 -9.79127e-08
-5.67911e-07 -9.79127e-08 1.98521e-06
0.00182313 0.000214582 3.39793e-07
0.000214582 0.0001117 1.12138e-06
3.39793e-07 1.12138e-06 -3.13718e-05
0.00207396 0.000246062 3.67675e-07
0.000246062 0.000132618 1.3911e-07
3.67675e-07 1.3911e-07 3.25263e-05
0.00201825 0.000217759 2.70787e-06
0.000217759 3.11067e-05 5.03845e-07
2.70787e-06 5.03845e-07 -3.09306e-05
0.00112713 0.000171557 -1.43687e-05
0.000171557 -3.14462e-05 -2.52452e-06
-1.43687e-05 -2.52452e-06 -0.000192119
0.00187025 0.000279966 1.47881e-06
0.000279966 0.000153964 6.53275e-07
1.47881e-06 6.53275e-07 -9.22174e-06
0.00196598 0.000314104 2.13571e-07
0.000314104 9.29147e-05 -9.10098e-07
2.13571e-07 -9.10098e-07 -3.85931e-05
0.000342873 9.3936e-05 -1.82833e-05
9.3936e-05 -0.00024246 -7.78803e-06
-1.82833e-05 -7.78803e-06 -0.000341278
0.00108267 0.000207217 -1.14741e-06
0.000207217 -5.06981e-05 2.49504e-07
-1.14741e-06 2.49504e-07 -0.000224805
0.00195815 0.000350827 5.07349e-06
0.000350827 0.00022227 3.81658e-07
5.07349e-06 3.81658e-07 3.35052e-05
0.00672792 0.00025258 -0.000308731
0.00025258 0.00384979 -3.4516e-05
-0.000308731 -3.4516e-05 0.00385119
0.000344659 0.000130751 -2.85859e-08
0.000130751 -0.000228172 4.60186e-07
-2.85859e-08 4.60186e-07 -0.000336392
0.000984801 0.000234085 1.59306e-05
0.000234085 -9.27723e-05 5.03738e-06
1.59306e-05 5.03738e-06 -0.000279591
0.00689267 0.000211513 1.36121e-05
0.000211513 0.00395933 3.4426e-06
1.36121e-05 3.4426e-06 0.00395681
0.000339932 0.000170603 1.97785e-05
0.000170603 -0.000207579 1.44097e-05
1.97785e-05 1.44097e-05 -0.000330284
0.0068001 6.8839e-05 0.000278822
6.8839e-05 0.00389103 2.3951e-05
0.000278822 2.3951e-05 0.00389926
0.0018954 5.07796e-05 -4.62941e-06
5.07796e-05 2.43438e-05 7.50653e-08
-4.62941e-06 7.50653e-08 -4.09718e-05
0.00195325 7.30104e-05 -8.24424e-07
7.30104e-05 4.52207e-05 -1.8807e-07
-8.24424e-07 -1.8807e-07 7.31653e-06
0.00200629 0.000118813 3.3503e-06
0.000118813 1.08716e-05 4.89868e-07
3.3503e-06 4.89868e-07 4.76843e-07
0.00188153 -4.74479e-06 2.18478e-06
-4.74479e-06 0.000152868 -4.82224e-07
2.18478e-06 -4.82224e-07 5.14336e-05
0.00191071 6.31856e-06 -1.9916e-06
6.31856e-06 4.08129e-05 2.6541e-07
-1.9916e-06 2.6541e-07 -2.11623e-05
0.00193358 2.66339e-05 7.06773e-06
2.66339e-05 2.54121e-05 -1.12563e-07
7.06773e-06 -1.12563e-07 -3.42726e-06
0.0019084 -4.70894e-05 2.79771e-07
-4.70894e-05 3.1129e-05 3.22141e-07
2.79771e-07 3.22141e-07 -2.7032e-05
0.00186718 -4.67095e-05 2.9943e-06
-4.67095e-05 0.000137905 -1.82216e-07
2.9943e-06 -1.82216e-07 3.46331e-05
0.00103682 -2.34599e-05 -1.24089e-05
-2.34599e-05 -7.71373e-05 2.1342e-07
-1.24089e-05 2.1342e-07 -0.000203671
0.00185484 -0.000106093 -1.24484e-07
-0.000106093 0.000128369 3.79974e-07
-1.24484e-07 3.79974e-07 8.15127e-06
0.00105763 -5.72611e-05 -5.16143e-07
-5.72611e-05 -6.88088e-05 -1.72034e-08
-5.16143e-07 -1.72034e-08 -0.000203704
0.000446107 -8.35055e-06 -1.87552e-05
-8.35055e-06 -0.0001835 2.17221e-06
-1.87552e-05 2.17221e-06 -0.000267953
0.00109497 -9.04113e-05 1.1678e-05
-9.04113e-05 -4.07896e-05 -1.71622e-06
1.1678e-05 -1.71622e-06 -0.000185244
0.0004191 -3.58362e-05 8.56603e-07
-3.58362e-05 -0.00019995 -2.36293e-07
8.56603e-07 -2.36293e-07 -0.000286939
0.00622212 -0.000145986 -0.00030988
-0.000145986 0.00353996 1.55667e-05
-0.00030988 1.55667e-05 0.00355547
0.000405659 -5.71937e-05 1.78978e-05
-5.71937e-05 -0.000203156 -4.47395e-06
1.78978e-05 -4.47395e-06 -0.000296782
0.00633179 -8.65976e-05 7.58203e-06
-8.65976e-05 0.00359576 -2.12995e-08
7.58203e-06 -2.12995e-08 0.00361636
0.00177325 -3.38509e-05 0.00024064
-3.38509e-05 0.000747415 -1.56908e-05
0.00024064 -1.56908e-05 0.000737409
0.00193117 0.000119714 -3.6438e-06
0.000119714 4.26975e-05 1.02251e-07
-3.6438e-06 1.02251e-07 -3.47816e-05
0.0019921 0.000130408 -2.33461e-06
0.000130408 5.09199e-05 -3.62556e-07
-2.33461e-06 -3.62556e-07 7.7999e-06
0.00180764 0.000151707 1.18637e-06
0.000151707 9.75715e-05 1.06057e-06
1.18637e-06 1.06057e-06 -2.82173e-05
0.00201516 0.000179554 9.10616e-07
0.000179554 0.000100307 4.89573e-08
9.10616e-07 4.89573e-08 1.70564e-05
0.00198986 0.000155912 4.58875e-06
0.000155912 3.2453e-05 2.64553e-07
4.58875e-06 2.64553e-07 -9.65849e-06
0.00113921 0.000128175 -1.26491e-05
0.000128175 -1.58016e-05 -1.85388e-06
-1.26491e-05 -1.85388e-06 -0.000167394
0.00182171 0.000213312 1.66795e-07
0.000213312 0.0001147 2.55452e-08
1.66795e-07 2.55452e-08 -2.83425e-05
0.00203883 0.000243749 1.83912e-06
0.000243749 0.000107947 -1.18994e-06
1.83912e-06 -1.18994e-06 6.18354e-06
0.000389876 6.92702e-05 -1.78984e-05
6.92702e-05 -0.000219701 -5.58163e-06
-1.78984e-05 -5.58163e-06 -0.000313789
0.00110157 0.000170885 -9.74421e-07
0.000170885 -4.40465e-05 2.75533e-07
-9.74421e-07 2.75533e-07 -0.000207144
0.00186163 0.000277818 2.38468e-06
0.000277818 0.000155703 1.29414e-07
2.38468e-06 1.29414e-07 -1.24292e-05
0.00656175 0.000268836 -0.000324573
0.000268836 0.00375692 -3.21776e-05
-0.000324573 -3.21776e-05 0.00375761
0.000393791 9.72389e-05 -3.49442e-08
9.72389e-05 -0.000212789 1.87318e-07
-3.49442e-08 1.87318e-07 -0.00031221
0.00101062 0.000202245 1.18398e-05
0.000202245 -9.41465e-05 3.81082e-06
1.18398e-05 3.81082e-06 -0.000267532
0.00674227 0.00027617 1.08818e-05
0.00027617 0.00387079 4.68566e-06
1.08818e-05 4.68566e-06 0.0038665
0.000391112 0.000129155 1.87408e-05
0.000129155 -0.000202119 1.11503e-05
1.87408e-05 1.11503e-05 -0.000310578
0.00687628 0.000211766 0.000307569
0.000211766 0.00394007 3.37263e-05
0.000307569 3.37263e-05 0.00394393
0.00183911 4.52002e-05 3.52957e-06
4.52002e-05 0.00012752 3.99979e-08
3.52957e-06 3.99979e-08 2.35071e-05
0.00190824 5.05932e-05 -3.2243e-06
5.05932e-05 3.81092e-05 -4.84364e-08
-3.2243e-06 -4.84364e-08 -2.85269e-05
0.00196335 7.68565e-05 6.7535e-06
7.68565e-05 5.93385e-05 3.08141e-09
6.7535e-06 3.08141e-09 2.05356e-05
0.00102337 -9.4936e-06 -1.27223e-05
-9.4936e-06 -7.62813e-05 -1.31237e-07
-1.27223e-05 -1.31237e-07 -0.000200947
0.00186055 2.25437e-10 3.3029e-06
2.25437e-10 0.000139208 -1.16782e-07
3.3029e-06 -1.16782e-07 3.78231e-05
0.00187602 6.67963e-06 1.28644e-07
6.67963e-06 1.6021e-05 3.75936e-07
1.28644e-07 3.75936e-07 -4.36644e-05
0.00186867 -4.63231e-05 4.15573e-06
-4.63231e-05 0.000138167 2.09049e-07
4.15573e-06 2.09049e-07 3.53851e-05
0.00102773 -2.4666e-05 -2.66811e-07
-2.4666e-05 -8.48056e-05 -3.51312e-08
-2.66811e-07 -3.51312e-08 -0.000211637
0.000449896 -3.22848e-05 -1.92741e-05
-3.22848e-05 -0.000179934 1.00611e-06
-1.92741e-05 1.00611e-06 -0.00026116
0.00105079 -5.62737e-05 1.15652e-05
-5.62737e-05 -7.08997e-05 -1.25689e-06
1.15652e-05 -1.25689e-06 -0.000207929
0.000424899 3.10168e-06 3.70239e-07
3.10168e-06 -0.00019751 5.74668e-08
3.70239e-07 5.74668e-08 -0.000280846
0.00614787 -0.000117245 -0.000311164
-0.000117245 0.00349267 1.15257e-05
-0.000311164 1.15257e-05 0.00351119
0.000433068 -4.30969e-05 1.87191e-05
-4.30969e-05 -0.000188878 -3.10952e-06
1.87191e-05 -3.10952e-06 -0.000277017
0.0062182 -4.05151e-05 -3.03762e-06
-4.05151e-05 0.00352553 2.66284e-06
-3.03762e-06 2.66284e-06 0.00354842
0.0063006 -0.000101188 0.000308852
-0.000101188 0.00357722 -1.38227e-05
0.000308852 -1.38227e-05 0.00359812
0.00174746 9.35221e-05 1.16392e-06
9.35221e-05 6.30963e-05 5.05799e-07
1.16392e-06 5.05799e-07 -5.1913e-05
0.00194415 0.000118254 -3.42297e-06
0.000118254 4.5404e-05 -6.82119e-07
-3.42297e-06 -6.82119e-07 -2.62953e-05
0.00197159 0.000132683 4.99863e-06
0.000132683 3.05177e-05 8.09193e-08
4.99863e-06 8.09193e-08 -8.58199e-06
0.00113256 8.37742e-05 -1.21287e-05
8.37742e-05 -1.484e-05 -1.35674e-06
-1.21287e-05 -1.35674e-06 -0.00015515
0.00180608 0.000150234 2.5585e-07
0.000150234 9.95999e-05 -1.08577e-07
2.5585e-07 -1.08577e-07 -2.62764e-05
0.00200014 0.000178766 1.49001e-06
0.000178766 8.75629e-05 -1.3806e-06
1.49001e-06 -1.3806e-06 4.19947e-06
0.000415841 4.66161e-05 -1.74263e-05
4.66161e-05 -0.000203499 -3.96615e-06
-1.74263e-05 -3.96615e-06 -0.000293746
0.00110749 0.000129735 3.71421e-07
0.000129735 -3.61969e-05 2.85178e-07
3.71421e-07 2.85178e-07 -0.000188928
0.0018185 0.000211975 4.73712e-07
0.000211975 0.00011615 -9.59357e-07
4.73712e-07 -9.59357e-07 -2.68768e-05
0.0063947 0.000227691 -0.000332984
0.000227691 0.00365371 -2.6514e-05
-0.000332984 -2.6514e-05 0.00366094
0.00041838 7.49525e-05 4.21596e-07
7.49525e-05 -0.000202041 1.73056e-07
4.21596e-07 1.73056e-07 -0.000297274
0.00106865 0.000169758 1.16496e-05
0.000169758 -6.14884e-05 3.12145e-06
1.16496e-05 3.12145e-06 -0.000226933
0.00660952 0.00028479 5.89005e-06
0.00028479 0.00379195 3.3832e-06
5.89005e-06 3.3832e-06 0.0037903
0.000435076 0.000101945 1.82439e-05
0.000101945 -0.000187592 8.496e-06
1.82439e-05 8.496e-06 -0.000288137
0.00678878 0.000309223 0.000324074
0.000309223 0.00390661 4.03389e-05
0.000324074 4.03389e-05 0.00389873
0.00105218 2.39964e-05 -1.2473e-05
2.39964e-05 -5.15647e-05 -5.45195e-07
-1.2473e-05 -5.45195e-07 -0.000181698
0.00181376 4.21691e-05 3.53154e-06
4.21691e-05 0.000108922 4.95833e-08
3.53154e-06 4.95833e-08 7.331e-06
0.00192125 5.05201e-05 -1.53989e-06
5.05201e-05 5.16519e-05 8.58075e-09
-1.53989e-06 8.58075e-09 -1.63095e-05
0.000486815 3.2049e-05 -1.9849e-05
3.2049e-05 -0.000165042 -7.11712e-07
-1.9849e-05 -7.11712e-07 -0.000238186
0.00100277 -3.75044e-06 -4.21367e-07
-3.75044e-06 -9.11037e-05 9.14883e-09
-4.21367e-07 9.14883e-09 -0.000215859
0.00184765 6.06422e-06 4.37222e-06
6.06422e-06 0.000130746 1.41549e-07
4.37222e-06 1.41549e-07 2.95325e-05
0.00101329 -2.54336e-05 1.19109e-05
-2.54336e-05 -9.60795e-05 -5.25019e-07
1.19109e-05 -5.25019e-07 -0.00022319
0.000445838 -5.65383e-06 4.07025e-07
-5.65383e-06 -0.000182485 3.8563e-07
4.07025e-07 3.8563e-07 -0.000263759
0.00605851 1.77461e-05 -0.000313723
1.77461e-05 0.00343036 1.2632e-06
-0.000313723 1.2632e-06 0.00345554
0.000404052 1.47508e-05 1.82541e-05
1.47508e-05 -0.000211984 -1.20863e-06
1.82541e-05 -1.20863e-06 -0.000293944
0.00611121 -0.000115193 -7.77821e-06
-0.000115193 0.00347153 1.93686e-06
-7.77821e-06 1.93686e-06 0.00348954
0.00615362 -2.22735e-05 0.000296384
-2.22735e-05 0.00348575 -7.14602e-06
0.000296384 -7.14602e-06 0.00350868
0.00110069 4.90288e-05 -1.23246e-05
4.90288e-05 -2.68053e-05 -1.13497e-06
-1.23246e-05 -1.13497e-06 -0.000159982
0.00178895 9.08255e-05 -3.27911e-07
9.08255e-05 8.8545e-05 -2.93312e-07
-3.27911e-07 -2.93312e-07 -2.20754e-05
0.00195843 0.000116317 -2.31138e-06
0.000116317 4.89336e-05 -1.4964e-06
-2.31138e-06 -1.4964e-06 -1.69739e-05
0.00268217 6.26596e-05 -0.000144851
6.26596e-05 0.00120809 -5.09709e-06
-0.000144851 -5.09709e-06 0.00115583
0.00108267 8.51835e-05 3.38544e-07
8.51835e-05 -4.63906e-05 8.96105e-08
3.38544e-07 8.96105e-08 -0.000187575
0.00180451 0.000148696 3.11371e-07
0.000148696 0.00010171 -1.13327e-06
3.11371e-07 -1.13327e-06 -2.42689e-05
0.00624101 0.000166382 -0.00033102
0.000166382 0.0035529 -1.89765e-05
-0.00033102 -1.89765e-05 0.00356862
0.000449303 6.59171e-05 8.64185e-07
6.59171e-05 -0.000180591 4.47199e-07
8.64185e-07 4.47199e-07 -0.000272916
0.00107858 0.000131221 1.26045e-05
0.000131221 -5.47391e-05 2.2789e-06
1.26045e-05 2.2789e-06 -0.000208577
0.00648615 0.000243228 1.31485e-06
0.000243228 0.00371167 1.60863e-06
1.31485e-06 1.60863e-06 0.00371755
0.000464411 8.38681e-05 1.84609e-05
8.38681e-05 -0.00017249 6.67359e-06
1.84609e-05 6.67359e-06 -0.000269562
0.00665466 0.000319306 0.000332832
0.000319306 0.00383285 4.01571e-05
0.000332832 4.01571e-05 0.00382431
0.000558123 1.18319e-05 -1.58301e-05
1.18319e-05 -0.000110068 -1.89617e-06
-1.58301e-05 -1.89617e-06 -0.0001925
0.00101689 2.33769e-05 2.69668e-07
2.33769e-05 -7.78004e-05 2.09237e-07
2.69668e-07 2.09237e-07 -0.000206022
0.00178845 3.79976e-05 3.7932e-06
3.79976e-05 9.02094e-05 -1.17179e-07
3.7932e-06 -1.17179e-07 -8.91743e-06
0.00590266 -0.000101205 -0.00029656
-0.000101205 0.00335193 3.65062e-06
-0.00029656 3.65062e-06 0.00336614
0.00044137 9.45661e-06 -5.84173e-07
9.45661e-06 -0.00018873 -7.34533e-08
-5.84173e-07 -7.34533e-08 -0.000264539
0.00100082 8.04411e-07 1.18467e-05
8.04411e-07 -9.44406e-05 -3.73169e-08
1.18467e-05 -3.73169e-08 -0.000219227
0.000401266 2.09703e-05 1.85136e-05
2.09703e-05 -0.000211501 2.37353e-07
1.85136e-05 2.37353e-07 -0.000291648
0.00599983 -1.78515e-05 2.04039e-06
-1.78515e-05 0.00340001 -1.55465e-06
2.04039e-06 -1.55465e-06 0.00342067
0.00609846 -3.66921e-05 0.000302465
-3.66921e-05 0.00345189 -4.91719e-06
0.000302465 -4.91719e-06 0.00347588
0.00277138 1.59971e-05 -0.000139582
1.59971e-05 0.00126194 -2.91554e-06
-0.000139582 -2.91554e-06 0.00121296
0.00107333 5.21535e-05 7.50434e-08
5.21535e-05 -4.53162e-05 5.39434e-09
7.50434e-08 5.39434e-09 -0.000179181
0.00182448 8.83221e-05 6.48588e-07
8.83221e-05 0.000110312 -8.85823e-07
6.48588e-07 -8.85823e-07 4.09382e-06
0.0057387 -3.58973e-05 -0.000128003
-3.58973e-05 0.00325318 3.7991e-07
-0.000128003 3.7991e-07 0.00324164
0.000459032 5.80748e-05 1.67445e-07
5.80748e-05 -0.000173186 2.24646e-07
1.67445e-07 2.24646e-07 -0.000260027
0.00104936 8.7268e-05 1.21018e-05
8.7268e-05 -6.82636e-05 1.48545e-06
1.21018e-05 1.48545e-06 -0.000210271
0.00632063 0.000142079 -1.05052e-05
0.000142079 0.00359675 -1.74172e-06
-1.05052e-05 -1.74172e-06 0.00361382
0.000476959 8.89173e-05 1.96935e-05
8.89173e-05 -0.000162843 5.65732e-06
1.96935e-05 5.65732e-06 -0.000256231
0.00654386 0.00026711 0.000339512
0.00026711 0.00375382 3.42391e-05
0.000339512 3.42391e-05 0.00375696
0.00178775 -5.34708e-05 -0.000236599
-5.34708e-05 0.000757756 1.32901e-06
-0.000236599 1.32901e-06 0.000756516
0.00160732 3.1159e-05 -5.98184e-05
3.1159e-05 0.000535619 1.07815e-07
-5.98184e-05 1.07815e-07 0.000475136
0.000978387 2.53825e-05 1.25557e-05
2.53825e-05 -0.000105627 6.86023e-07
1.25557e-05 6.86023e-07 -0.000232006
0.00597905 -4.7799e-05 6.96488e-06
-4.7799e-05 0.00339273 2.53565e-06
6.96488e-06 2.53565e-06 0.00341237
0.000456923 -1.18136e-05 1.91364e-05
-1.18136e-05 -0.000172596 7.4613e-07
1.91364e-05 7.4613e-07 -0.00025234
0.00604004 -8.14175e-05 0.000315186
-8.14175e-05 0.00342847 -4.68838e-06
0.000315186 -4.68838e-06 0.00344888
0.00135192 2.17478e-05 -6.05314e-05
2.17478e-05 0.00051406 -1.01247e-06
-6.05314e-05 -1.01247e-06 0.000475864
0.00159522 1.85771e-05 -6.05118e-05
1.85771e-05 0.000531199 -1.33609e-06
-6.05118e-05 -1.33609e-06 0.000466398
0.00103633 5.38135e-05 1.2197e-05
5.38135e-05 -6.96216e-05 1.15321e-06
1.2197e-05 1.15321e-06 -0.000204198
0.0037922 6.71794e-05 0.000117064
6.71794e-05 0.00202247 3.46237e-06
0.000117064 3.46237e-06 0.00201467
0.000467829 6.85372e-05 1.99278e-05
6.85372e-05 -0.00016775 4.29204e-06
1.99278e-05 4.29204e-06 -0.000254566
0.00640717 0.000129967 0.000323666
0.000129967 0.00364255 2.05075e-05
0.000323666 2.05075e-05 0.00366333
0.005933 -2.00496e-05 -8.8723e-06
-2.00496e-05 0.00336738 -3.1116e-06
-8.8723e-06 -3.1116e-06 0.00338576
0.00045141 5.01993e-05 2.07412e-05
5.01993e-05 -0.000186969 2.40826e-06
2.07412e-05 2.40826e-06 -0.00025972
0.0058911 3.80332e-05 0.000303198
3.80332e-05 0.00333382 2.17262e-07
0.000303198 2.17262e-07 0.00335711
0.00367707 3.18899e-05 0.00012923
3.18899e-05 0.00195566 5.02666e-06
0.00012923 5.02666e-06 0.00194977
0.000480385 8.82466e-06 1.9073e-05
8.82466e-06 -0.000159857 2.63539e-06
1.9073e-05 2.63539e-06 -0.000241176
0.00618916 -3.09858e-07 0.000310655
-3.09858e-07 0.00350906 9.07269e-06
0.000310655 9.07269e-06 0.00353149
0.00598133 -0.000119021 0.000300939
-0.000119021 0.00340165 -4.20497e-06
0.000300939 -4.20497e-06 0.00341557
0.00599349 8.0393e-06 0.000302912
8.0393e-06 0.00338821 5.20498e-06
0.000302912 5.20498e-06 0.00341361
