# vtk DataFile Version 2.0
Wound Healing Simulation
ASCII
DATASET UNSTRUCTURED_GRID
POINTS 3012 float
69.9759 18.75 4
67.2507 60.3285 4
69.976 18.75 2
73.0099 25.446 4
71.1327 20.9142 4
68.6801 16.6661 4
67.8265 19.926 3.98463
67.2507 60.3286 2
71.1327 54.0858 4
68.6801 58.3339 4
65.6939 62.2254 4
65.3133 59.0023 3.98574
74.6784 42.3946 4
73.7221 47.2057 4
69.9759 18.75 0
73.0099 25.446 2
68.6801 16.6661 2
71.1327 20.9142 2
67.827 19.9286 2
74.6792 32.6053 4
73.7222 27.7943 4
72.1454 23.1494 4
70.615 26.2214 3.98457
68.8867 21.9585 3.98485
67.2507 14.6715 4
66.6382 17.9711 3.98507
65.7992 21.0247 3.97696
67.2507 60.3285 0
71.1327 54.0858 2
68.6801 58.3339 2
65.694 62.2255 2
65.3144 59.0002 2
72.1454 51.8506 4
69.9759 56.25 4
68.8371 53.1128 3.98391
64.0165 64.0165 4
66.6117 57.1345 3.98526
63.8869 60.7672 3.98751
63.5028 57.7742 3.97947
60.3285 67.2507 4
74.6792 42.3947 2
73.7222 47.2057 2
74.9194 39.9526 4
74.2788 44.8158 4
72.1686 42.0857 3.98269
73.0099 49.554 4
71.25 46.5982 3.98354
73.0099 25.446 0
71.1327 20.9142 0
68.6801 16.6661 0
67.8265 19.926 0.0153657
74.6792 32.6053 2
73.7222 27.7943 2
67.2508 14.6715 2
72.1455 23.1494 2
70.6151 26.2219 2
66.6391 17.9735 2
68.887 21.9605 2
65.7989 21.0247 2
74.9197 35.0474 4
74.2794 30.1841 4
72.1853 32.9433 3.98309
71.279 28.4315 3.98409
69.8164 24.0602 3.98478
68.3487 26.9511 3.97534
66.7644 22.933 3.97612
65.694 12.7746 4
65.325 16.102 3.98655
64.7163 19.1932 3.97835
63.8889 22.0346 3.97285
71.1327 54.0858 0
65.6939 62.2254 0
68.6801 58.3339 0
65.3133 59.0023 0.0142554
72.1455 51.8506 2
69.9759 56.25 2
68.8374 53.1107 2
64.0165 64.0165 2
66.6126 57.1318 2
63.888 60.7659 2
63.5029 57.7751 2
62.2254 65.694 4
58.8952 65.4149 3.99229
69.7697 50.9887 3.98393
67.7846 55.1675 3.9843
66.6508 52.2095 3.97496
62.3372 62.4285 3.98964
64.6633 56.0333 3.97867
62.2049 59.4076 3.98078
61.8257 56.6844 3.97557
58.3339 68.6801 4
60.3285 67.2508 2
73.7221 47.2057 0
74.6784 42.3946 0
74.9197 39.9526 2
74.2794 44.8159 2
72.1684 42.0857 2
73.0099 49.554 2
71.25 46.5978 2
75 37.5 4
72.4058 39.8023 3.98266
71.7832 44.3531 3.98328
69.805 41.7899 3.97332
70.5758 48.8135 3.98364
68.9139 46.0155 3.97431
74.6792 32.6053 0
73.7222 27.7943 0
67.2507 14.6715 0
72.1454 23.1494 0
70.615 26.2214 0.0154264
68.8867 21.9585 0.0151529
66.6382 17.9711 0.014926
65.7992 21.0247 0.0230401
74.9197 35.0474 2
74.2794 30.1841 2
72.185 32.9434 2
71.279 28.4317 2
65.694 12.7745 2
65.326 16.1036 2
69.8166 24.0614 2
68.3487 26.9513 2
64.7162 19.1926 2
66.7641 22.9333 2
63.8886 22.0344 2
72.4136 35.2242 3.98264
71.8044 30.6763 3.9834
69.841 33.268 3.97395
68.968 29.0377 3.97502
67.613 24.9119 3.97548
66.1965 27.6337 3.97188
64.0165 10.9835 4
64.7582 23.8295 3.97236
63.8913 14.3257 3.9882
63.5161 17.4437 3.98065
62.9094 20.3187 3.97366
62.0934 22.943 3.9708
60.6847 11.0965 3.99041
57.613 11.4439 3.98444
72.1454 51.8506 0
69.9759 56.25 0
68.8371 53.1128 0.0160853
64.0165 64.0165 0
63.8869 60.7672 0.0124917
66.6117 57.1345 0.0147398
63.5028 57.7742 0.0205333
62.2255 65.694 2
58.8957 65.4148 2
69.7698 50.9873 2
67.7851 55.1647 2
66.6505 52.2091 2
62.3381 62.4278 2
64.6632 56.0338 2
62.205 59.4087 2
61.8258 56.6854 2
60.6696 63.9779 3.99115
57.0259 66.7357 3.99295
57.559 63.6946 3.98627
67.5089 50.1771 3.97438
65.7036 54.1739 3.97612
64.5384 51.3859 3.97085
60.7746 60.9412 3.98256
62.8227 55.0702 3.97509
60.6606 58.1636 3.97659
60.3298 55.7886 3.97466
56.25 69.9759 4
58.3339 68.6801 2
60.3285 67.2507 0
58.9219 9.65488 3.99134
62.2254 9.30607 4
73.0099 49.554 0
74.2788 44.8158 0
71.25 46.5982 0.01646
72.1686 42.0857 0.0173085
74.9194 39.9526 0
75 37.5 2
72.4057 39.8024 2
71.7831 44.3527 2
69.8047 41.7897 2
70.5759 48.8128 2
68.9139 46.0151 2
72.4891 37.5121 3.98243
70.0419 39.6575 3.97304
69.4318 43.908 3.97401
67.598 41.498 3.96992
68.2673 48.1076 3.97404
66.7115 45.4409 3.97087
74.9197 35.0474 0
74.2794 30.1841 0
72.1853 32.9433 0.0169075
71.279 28.4315 0.0159108
65.694 12.7746 0
65.325 16.102 0.0134495
69.8164 24.0602 0.0152156
68.3487 26.9511 0.0246615
66.7644 22.933 0.0238761
64.7163 19.1932 0.0216526
63.8889 22.0346 0.0271475
72.4135 35.2241 2
71.8045 30.6765 2
69.8408 33.2682 2
68.968 29.0379 2
64.0165 10.9835 2
63.8922 14.3267 2
63.5162 17.4427 2
67.6128 24.9122 2
66.1964 27.6337 2
62.9094 20.318 2
64.7579 23.8294 2
62.0932 22.9428 2
60.6854 11.0971 2
57.6132 11.4432 2
70.0585 35.3917 3.97313
69.4683 31.1491 3.97411
67.6564 33.5904 3.97046
66.7741 29.6217 3.97115
65.5255 25.6987 3.97192
64.1479 28.2545 3.97091
62.3425 12.6538 3.98936
62.8574 24.6369 3.971
62.2013 15.7809 3.98233
61.8167 18.6813 3.97611
61.2184 21.341 3.97072
60.4243 23.7279 3.97063
59.2472 12.7755 3.98293
55.8749 10.2306 3.98598
56.4059 13.1091 3.98109
69.7697 50.9887 0.0160664
62.2254 65.694 0
58.8952 65.4149 0.00771412
67.7846 55.1675 0.0157027
66.6508 52.2095 0.0250399
62.3372 62.4285 0.0103622
62.2049 59.4076 0.0192232
64.6633 56.0333 0.0213263
61.8257 56.6844 0.0244332
60.6703 63.9775 2
57.0263 66.7357 2
57.5591 63.6957 2
67.5087 50.1767 2
65.7034 54.1739 2
64.5381 51.3859 2
60.7748 60.9424 2
62.8227 55.071 2
60.6608 58.1648 2
60.3301 55.7893 2
55.0714 67.9327 3.99319
59.2204 62.3692 3.98373
55.8058 64.9125 3.98846
56.328 62.0943 3.98242
65.3327 49.409 3.97036
63.7069 53.2931 3.97145
62.441 50.6524 3.96908
59.335 59.5614 3.97954
61.0783 54.3111 3.97379
59.2908 57.0157 3.97324
59.2433 55.1844 3.97622
48.1038 68.5802 3.98945
50.949 69.9323 3.99342
54.0858 71.1327 4
56.25 69.976 2
58.3339 68.6801 0
57.0591 8.335 3.9917
60.3285 7.74928 4
58.9225 9.65521 2
62.2255 9.30602 2
70.5758 48.8135 0.0163551
71.7832 44.3531 0.016722
68.9139 46.0155 0.025695
69.805 41.7899 0.0266804
72.4058 39.8023 0.0173394
75 37.5 0
72.4889 37.5121 2
70.0418 39.6574 2
69.4317 43.9078 2
67.5978 41.4979 2
68.2672 48.1072 2
66.7115 45.4408 2
70.1299 37.5215 3.97307
67.835 39.5125 3.96971
67.225 43.4707 3.97039
65.5558 41.2102 3.96985
66.0697 47.4187 3.9704
64.6538 44.8492 3.97011
72.4136 35.2242 0.0173614
71.8044 30.6763 0.0166012
69.841 33.268 0.0260454
68.968 29.0377 0.024984
64.0165 10.9835 0
63.8913 14.3257 0.0118043
63.5161 17.4437 0.0193495
67.613 24.9119 0.0245214
66.1965 27.6337 0.0281154
64.7582 23.8295 0.027643
62.9094 20.3187 0.0263393
62.0934 22.943 0.0291989
60.6847 11.0965 0.00958603
57.613 11.4439 0.0155646
70.0584 35.3919 2
69.4683 31.1493 2
67.6562 33.5904 2
66.7741 29.6217 2
62.3433 12.6545 2
62.2013 15.78 2
61.8169 18.6801 2
65.5254 25.6987 2
64.1478 28.2544 2
61.2185 21.3405 2
62.8572 24.6368 2
60.4242 23.7279 2
59.2473 12.7749 2
56.4059 13.1081 2
55.875 10.2298 2
67.8709 35.5472 3.96986
67.2662 31.6217 3.97031
65.6986 33.9268 3.97009
64.6643 30.1911 3.97005
63.5388 26.4135 3.97087
62.2586 28.777 3.97147
60.7767 14.22 3.98269
61.0442 25.3376 3.97107
60.6154 17.1234 3.9792
60.224 19.8143 3.97283
59.6594 22.2593 3.96917
58.9749 24.3213 3.97161
54.038 9.13376 3.98684
57.9113 14.3278 3.98105
54.7872 12.0083 3.9825
55.313 14.6419 3.97967
67.5089 50.1771 0.0256241
57.0259 66.7357 0.00705234
60.6696 63.9779 0.00884875
57.559 63.6946 0.0137294
65.7036 54.1739 0.0238785
64.5384 51.3859 0.0291492
60.7746 60.9412 0.0174393
60.6606 58.1636 0.0234099
62.8227 55.0702 0.0249105
60.3298 55.7886 0.0253414
55.0717 67.9328 2
59.2205 62.3703 2
55.8057 64.9134 2
56.328 62.0956 2
65.3325 49.4089 2
63.7068 53.2935 2
62.4408 50.6524 2
59.3352 59.5627 2
61.0785 54.3116 2
59.2912 57.0164 2
59.2437 55.1848 2
53.0432 69.0005 3.99335
53.9681 66.0148 3.98915
57.8818 60.8742 3.98097
54.6849 63.2117 3.98453
55.2123 60.6211 3.98047
63.194 48.6616 3.96906
61.7399 52.5753 3.96894
60.2697 50.0184 3.96863
58.0193 58.2651 3.97573
59.3267 53.9474 3.97305
58.1268 55.8119 3.97141
50.1105 67.8581 3.98942
47.4641 66.5838 3.98698
46.0573 69.1595 3.98946
48.1037 68.5806 2
48.8031 70.7236 3.99351
50.9493 69.9324 2
51.8506 72.1454 4
54.0858 71.1327 2
56.25 69.9759 0
55.1035 7.1396 3.992
58.3339 6.31992 4
57.0597 8.33511 2
60.3286 7.74926 2
58.9219 9.65488 0.00865546
62.2254 9.30607 0
68.2673 48.1076 0.0259636
69.4318 43.908 0.0259932
66.7115 45.4409 0.0291293
67.598 41.498 0.0300831
70.0419 39.6575 0.0269574
72.4891 37.5121 0.0175733
70.1297 37.5215 2
67.8349 39.5124 2
67.2249 43.4706 2
65.5556 41.2102 2
66.0697 47.4186 2
64.6537 44.8491 2
67.9312 37.5219 3.96973
65.7856 39.3704 3.96979
65.1771 43.0259 3.97007
63.7443 40.9299 3.97144
63.9659 46.7173 3.96949
62.8069 44.2169 3.97171
70.0585 35.3917 0.026875
69.4683 31.1491 0.0258853
67.6564 33.5904 0.0295441
66.7741 29.6217 0.0288455
62.3425 12.6538 0.0106449
62.2013 15.7809 0.017665
61.8167 18.6813 0.0238942
65.5255 25.6987 0.0280762
64.1479 28.2545 0.029091
62.8574 24.6369 0.0289954
61.2184 21.341 0.0292848
60.4243 23.7279 0.0293693
59.2472 12.7755 0.0170693
56.4059 13.1091 0.0189142
55.8749 10.2306 0.0140202
67.8708 35.5472 2
67.2663 31.6217 2
65.6984 33.9268 2
64.6643 30.191 2
60.7767 14.2193 2
60.6154 17.1221 2
60.2244 19.8132 2
63.5387 26.4134 2
62.2586 28.7769 2
59.6596 22.259 2
61.044 25.3376 2
58.9749 24.3215 2
57.9111 14.327 2
55.3128 14.641 2
54.038 9.13302 2
54.7872 12.0072 2
65.875 35.6666 3.96972
65.1864 32.1537 3.96956
64.2785 34.2495 3.97086
62.5925 30.6352 3.97106
61.6509 27.0716 3.97103
60.8469 29.1398 3.97359
59.3123 15.6646 3.98064
59.3247 25.7971 3.97246
59.1253 18.3519 3.97688
58.7387 20.8542 3.96936
58.2803 23.0947 3.96938
57.9617 24.6657 3.97179
52.1126 8.15198 3.98753
53.0583 11.0144 3.98349
56.6774 15.7382 3.98024
53.8097 13.6768 3.98079
54.3765 15.9945 3.97976
55.0714 67.9327 0.00681027
65.3327 49.409 0.0296449
55.8058 64.9125 0.0115365
59.2204 62.3692 0.0162673
56.328 62.0943 0.017579
63.7069 53.2931 0.0285486
62.441 50.6524 0.03092
59.335 59.5614 0.0204563
59.2908 57.0157 0.0267558
61.0783 54.3111 0.0262083
59.2433 55.1844 0.0237834
53.0435 69.0006 2
53.968 66.0155 2
57.8818 60.8754 2
54.6848 63.2128 2
55.2123 60.6226 2
63.1939 48.6616 2
61.74 52.5755 2
60.2697 50.0183 2
58.0199 58.2664 2
59.3273 53.9476 2
58.1273 55.8119 2
52.0716 67.0012 3.98936
52.9543 64.2223 3.98617
56.6492 59.493 3.97917
53.682 61.6276 3.98234
54.2606 59.3263 3.97823
60.9844 47.8798 3.96925
59.705 52.1037 3.96873
58.0131 49.6143 3.97079
56.7771 56.9884 3.97333
57.1179 54.1187 3.971
50.1104 67.8587 2
49.3379 65.9241 3.98701
47.4639 66.5844 2
46.8933 64.7401 3.98562
45.5591 67.101 3.98681
43.9741 69.5918 3.98934
46.0573 69.1599 2
46.6096 71.368 3.99352
48.1038 68.5802 0.0105505
48.8034 70.7237 2
49.554 73.0099 4
50.949 69.9323 0.00657988
51.8506 72.1455 2
54.0858 71.1327 0
53.0646 6.07103 3.99227
55.104 7.13954 2
56.25 5.02411 4
58.3339 6.3199 2
57.0591 8.335 0.0083003
60.3285 7.74928 0
66.0697 47.4187 0.0295959
67.225 43.4707 0.0296099
64.6538 44.8492 0.0298872
65.5558 41.2102 0.0301525
67.835 39.5125 0.0302892
70.1299 37.5215 0.0269343
67.9311 37.5219 2
65.7854 39.3704 2
65.177 43.0259 2
63.7443 40.9298 2
63.9658 46.7172 2
62.8066 44.2168 2
65.8885 37.5017 3.96966
63.8787 39.2669 3.97108
63.3217 42.5506 3.97147
62.4066 40.6981 3.97307
61.965 45.9193 3.97098
61.4398 43.6838 3.97388
67.8709 35.5472 0.0301389
67.2662 31.6217 0.0296852
65.6986 33.9268 0.0299146
64.6643 30.1911 0.0299515
60.7767 14.22 0.0173077
60.6154 17.1234 0.020803
60.224 19.8143 0.0271709
63.5388 26.4135 0.0291346
62.2586 28.777 0.0285309
61.0442 25.3376 0.0289349
59.6594 22.2593 0.0308328
58.9749 24.3213 0.0283946
57.9113 14.3278 0.0189524
55.313 14.6419 0.0203282
54.038 9.13376 0.013159
54.7872 12.0083 0.0175038
65.875 35.6665 2
65.1864 32.1536 2
64.2786 34.2494 2
62.5927 30.6352 2
59.3121 15.6636 2
59.1256 18.3507 2
58.7394 20.8534 2
61.6507 27.0716 2
60.8472 29.1399 2
58.2805 23.0949 2
59.3251 25.7973 2
57.9617 24.666 2
56.6771 15.7372 2
54.3761 15.9936 2
53.8096 13.6757 2
52.1126 8.15137 2
53.0582 11.0134 2
64.0756 35.6322 3.97071
62.9178 33.0461 3.9712
60.6051 30.6115 3.97339
59.5627 27.9104 3.97324
57.9406 16.9792 3.97956
57.7278 25.7271 3.97365
57.7145 19.4742 3.97397
57.3658 21.8444 3.96744
57.1776 23.9491 3.97082
50.1127 7.28375 3.98805
51.2328 10.1223 3.98444
52.1721 12.7939 3.98204
55.5378 16.9682 3.97979
52.9775 15.2597 3.97882
53.7579 16.9767 3.98041
53.0432 69.0005 0.00664537
53.9681 66.0148 0.0108463
63.194 48.6616 0.0309357
54.6849 63.2117 0.015473
57.8818 60.8742 0.0190329
55.2123 60.6211 0.0195298
61.7399 52.5753 0.0310558
60.2697 50.0184 0.0313744
58.0193 58.2651 0.024268
58.1268 55.8119 0.0285883
59.3267 53.9474 0.0269461
52.0715 67.0018 2
52.9541 64.2232 2
56.6494 59.4945 2
53.6819 61.6289 2
54.2608 59.3278 2
60.9841 47.8797 2
59.7053 52.1036 2
58.0124 49.6139 2
56.7771 56.9926 2
57.1186 54.1187 2
51.1689 65.1312 3.98677
52.0471 62.5436 3.98421
55.4812 58.2538 3.97816
52.835 60.1407 3.98023
53.64 58.4761 3.98004
58.2867 46.8473 3.97346
57.5518 51.7821 3.96874
56.2276 49.5502 3.97274
55.47 55.7872 3.97063
55.3495 53.3755 3.96984
50.1105 67.8581 0.0105815
49.3377 65.9248 2
48.6191 64.1267 3.98558
47.4641 66.5838 0.0130237
45.5589 67.1015 2
46.893 64.7408 2
46.3828 63.0582 3.98477
45.1335 65.2012 3.98556
43.632 67.4715 3.98679
41.8611 69.8791 3.98912
43.9741 69.5923 2
44.3769 71.8628 3.99341
46.0573 69.1595 0.0105414
46.6099 71.3682 2
47.2057 73.7222 4
48.8031 70.7236 0.00648526
49.554 73.0099 2
51.8506 72.1454 0
50.9543 5.1313 3.99257
53.065 6.07092 2
54.0858 3.86728 4
55.1035 7.1396 0.00800293
56.25 5.02406 2
58.3339 6.31992 0
63.9659 46.7173 0.0305059
65.1771 43.0259 0.0299283
62.8069 44.2169 0.0282914
63.7443 40.9299 0.02856
65.7856 39.3704 0.0302086
67.9312 37.5219 0.0302719
65.8884 37.5017 2
63.8785 39.2668 2
63.3216 42.5505 2
62.4067 40.6981 2
61.9645 45.9191 2
61.4392 43.6836 2
63.9406 37.457 3.97095
62.1201 39.3552 3.97235
61.1906 41.9586 3.97364
60.2421 44.7706 3.97427
65.875 35.6666 0.0302802
65.1864 32.1537 0.0304366
64.2785 34.2495 0.0291396
62.5925 30.6352 0.0289399
59.3123 15.6646 0.0193614
59.1253 18.3519 0.023117
58.7387 20.8542 0.0306371
61.6509 27.0716 0.0289662
60.8469 29.1398 0.0264056
59.3247 25.7971 0.0275404
58.2803 23.0947 0.0306232
57.9617 24.6657 0.028213
56.6774 15.7382 0.0197558
54.3765 15.9945 0.0202417
53.8097 13.6768 0.0192138
52.1126 8.15198 0.0124722
53.0583 11.0144 0.0165135
64.0756 35.6322 2
62.9179 33.0461 2
60.6055 30.6116 2
57.9405 16.9781 2
57.7151 19.4729 2
57.3666 21.8445 2
59.5631 27.9106 2
57.1775 23.9496 2
57.7285 25.7274 2
50.1127 7.28318 2
55.5375 16.9671 2
53.7576 16.9757 2
52.9772 15.2586 2
52.172 12.793 2
51.2327 10.1216 2
62.1555 35.3596 3.97186
60.2619 32.7455 3.97328
58.6022 30.0762 3.97494
57.2688 27.3831 3.9748
56.6363 18.1529 3.97921
56.2775 25.1032 3.97198
56.354 20.5232 3.97019
56.0991 22.8752 3.96722
48.0564 6.52667 3.98858
49.3246 9.32996 3.98494
50.4333 11.9915 3.98264
51.3775 14.4951 3.98073
54.4142 17.9173 3.98062
52.3602 17.0334 3.97812
52.0716 67.0012 0.0106415
52.9543 64.2223 0.013828
60.9844 47.8798 0.0307482
53.682 61.6276 0.0176614
56.6492 59.493 0.0208284
54.2606 59.3263 0.0217715
59.705 52.1037 0.0312691
58.0131 49.6143 0.0292101
56.7771 56.9884 0.0266704
57.1179 54.1187 0.0289971
51.1686 65.1319 2
52.0469 62.5447 2
55.4814 58.2552 2
52.8351 60.1419 2
53.6401 58.4775 2
58.2865 46.847 2
57.5522 51.7819 2
56.2271 49.5496 2
55.4709 55.7881 2
55.3504 53.3758 2
50.3472 63.3851 3.98505
51.2448 60.9408 3.98178
54.2183 57.2703 3.97833
52.3126 58.6388 3.97809
56.6716 44.1804 3.97666
55.466 47.892 3.9749
55.0558 51.3824 3.96924
53.9981 54.534 3.96907
49.3379 65.9241 0.0129897
48.6188 64.1275 2
47.963 62.4796 3.98454
45.5591 67.101 0.0131942
46.8933 64.7401 0.0143823
43.6319 67.4722 2
46.3826 63.059 2
45.1332 65.2019 2
45.9884 61.5913 3.98422
44.768 63.4589 3.98494
43.3573 65.5107 3.98546
41.6639 67.6903 3.98663
39.7025 70.0262 3.98908
41.8611 69.8797 2
42.1112 72.2076 3.99325
43.9741 69.5918 0.0106574
44.3772 71.8631 2
44.8159 74.2794 4
46.6096 71.368 0.00647528
47.2057 73.7222 2
49.554 73.0099 0
48.7848 4.32221 3.99287
50.9546 5.13112 2
51.8506 2.85458 4
53.0646 6.07103 0.00772602
54.0858 3.86728 2
56.25 5.02411 0
61.965 45.9193 0.0290162
63.3217 42.5506 0.028533
61.4398 43.6838 0.0261237
62.4066 40.6981 0.0269317
63.8787 39.2669 0.028916
65.8885 37.5017 0.0303377
63.9403 37.457 2
62.1198 39.3552 2
61.1903 41.9585 2
60.2414 44.7704 2
61.9545 37.4447 3.97227
60.2044 39.8472 3.97442
58.9551 42.9175 3.97545
64.0756 35.6322 0.0292875
62.9178 33.0461 0.0288043
60.6051 30.6115 0.026605
57.9406 16.9792 0.020444
57.7145 19.4742 0.0260347
57.3658 21.8444 0.0325637
59.5627 27.9104 0.0267597
57.7278 25.7271 0.0263485
57.1776 23.9491 0.0291801
55.5378 16.9682 0.0202055
53.7579 16.9767 0.0195903
52.9775 15.2597 0.021181
50.1127 7.28375 0.0119474
52.1721 12.7939 0.0179577
51.2328 10.1223 0.0155625
62.1554 35.3596 2
60.2621 32.7455 2
58.6018 30.0765 2
56.6364 18.1516 2
56.3545 20.5205 2
56.0997 22.8757 2
57.2697 27.3832 2
56.2778 25.104 2
48.0564 6.52615 2
49.3245 9.32941 2
54.4141 17.9164 2
52.3599 17.0324 2
51.3773 14.494 2
50.4331 11.9908 2
59.8429 35.1197 3.97335
57.9583 32.2707 3.97626
56.5185 29.342 3.97597
55.4229 26.6016 3.97493
55.3402 19.1866 3.97765
54.9138 24.0619 3.97058
54.9937 21.5677 3.96852
45.9623 5.88166 3.98903
43.3736 7.47237 3.98659
47.355 8.62341 3.9855
48.6001 11.2927 3.98317
49.7138 13.7416 3.98156
50.6327 16.1299 3.97953
53.1228 18.6575 3.97666
51.2998 18.0469 3.98413
51.1689 65.1312 0.0132327
52.0471 62.5436 0.0157948
58.2867 46.8473 0.0265438
52.835 60.1407 0.0197655
55.4812 58.2538 0.0218416
53.64 58.4761 0.0199636
57.5518 51.7821 0.031263
56.2276 49.5502 0.0272585
55.47 55.7872 0.0293683
55.3495 53.3755 0.0301601
50.3469 63.3858 2
51.2448 60.9419 2
54.2186 57.2718 2
52.3127 58.64 2
56.6704 44.1801 2
55.4652 47.8914 2
55.0564 51.3819 2
53.9991 54.5358 2
49.5926 61.7495 3.98384
55.5621 41.7013 3.97702
50.5671 59.3331 3.97803
52.1823 56.4926 3.97366
54.1306 45.5582 3.97733
53.3006 49.3216 3.97245
52.6539 52.8377 3.96646
48.6191 64.1267 0.0144221
47.9628 62.4802 2
47.3302 61.0144 3.98377
43.632 67.4715 0.0132093
45.1335 65.2012 0.0144385
46.3828 63.0582 0.0152258
41.6638 67.6908 2
43.3571 65.5114 2
45.9884 61.5921 2
44.7678 63.4597 2
45.7671 60.6358 3.98315
44.4843 61.8406 3.9839
43.1472 63.7311 3.9845
41.5467 65.6482 3.98505
39.6328 67.7699 3.98639
37.5258 70.0514 3.989
39.7026 70.0269 2
39.8179 72.4047 3.99312
41.8611 69.8791 0.0108799
42.1114 72.2079 2
42.3947 74.6792 4
44.3769 71.8628 0.00658755
44.8159 74.2794 2
47.2057 73.7222 0
43.8516 5.35853 3.98933
46.5707 3.64671 3.9931
48.785 4.322 2
49.554 1.99015 4
50.9543 5.1313 0.00742556
51.8506 2.85453 2
54.0858 3.86728 0
60.2421 44.7706 0.0257349
61.1906 41.9586 0.0263601
62.1201 39.3552 0.0276515
63.9406 37.457 0.0290473
61.9542 37.4447 2
60.2041 39.8472 2
58.9544 42.9174 2
59.6949 37.5665 3.97336
57.9367 40.6562 3.97633
55.0153 39.7188 3.97774
62.1555 35.3596 0.0281381
60.2619 32.7455 0.0267167
58.6022 30.0762 0.0250592
56.6363 18.1529 0.0207939
56.354 20.5232 0.0298116
56.0991 22.8752 0.0327837
57.2688 27.3831 0.025202
56.2775 25.1032 0.0280224
54.4142 17.9173 0.0193783
52.3602 17.0334 0.0218764
51.3775 14.4951 0.0192681
48.0564 6.52667 0.011415
49.3246 9.32996 0.0150574
50.4333 11.9915 0.0173574
59.8424 35.1197 2
45.9623 5.88116 2
43.3736 7.47189 2
57.9604 32.2709 2
56.5185 29.3421 2
55.3405 19.1854 2
54.9945 21.5668 2
54.9141 24.063 2
55.4184 26.6029 2
47.355 8.62282 2
48.5999 11.2922 2
53.1229 18.6565 2
51.2996 18.0459 2
50.6325 16.1288 2
49.7134 13.7408 2
57.3301 34.7607 3.97697
55.689 31.522 3.97725
54.454 28.409 3.97846
53.7523 25.5016 3.97408
53.9649 20.137 3.97678
53.567 22.72 3.96499
41.3987 7.0775 3.98707
45.3597 7.99448 3.9861
42.8655 9.415 3.98465
46.6664 10.6532 3.98346
47.7453 13.1016 3.98219
48.9306 15.4005 3.98012
50.0045 17.6991 3.97984
51.6464 19.3213 3.98684
50.3472 63.3851 0.0149549
51.2448 60.9408 0.0182242
56.6716 44.1804 0.0233381
55.466 47.892 0.025105
52.3126 58.6388 0.0219113
54.2183 57.2703 0.0216675
55.0558 51.3824 0.0307579
53.9981 54.534 0.0309308
49.5924 61.7502 2
55.5625 41.701 2
50.5672 59.3344 2
52.1829 56.4936 2
54.1329 45.5576 2
53.3032 49.3208 2
52.6555 52.837 2
48.8496 60.2069 3.98231
52.4338 42.6336 3.97772
49.7885 57.6298 3.9778
50.5841 54.4241 3.9708
51.7467 47.2601 3.97596
51.1861 50.9348 3.96793
48.0646 43.7958 3.99268
47.963 62.4796 0.0154568
47.3301 61.015 2
46.6195 59.801 3.98308
41.6639 67.6903 0.0133711
43.3573 65.5107 0.0145435
44.768 63.4589 0.015062
45.9884 61.5913 0.0157788
39.6328 67.7707 2
41.5464 65.6487 2
45.767 60.6366 2
43.147 63.7317 2
44.4842 61.8414 2
44.6243 60.2981 3.98322
42.9513 62.0886 3.98375
41.6005 63.8243 3.9845
39.6479 65.6163 3.98458
37.5633 67.7523 3.98623
31.6964 65.135 3.98498
33.3918 67.4898 3.98622
35.333 69.9615 3.98901
37.5259 70.0521 2
37.5094 72.4593 3.99305
39.7025 70.0262 0.0109199
39.818 72.4051 2
39.9526 74.9197 4
42.1112 72.2076 0.00675201
42.3947 74.6792 2
44.8159 74.2794 0
41.7362 4.96766 3.98965
43.8517 5.35804 2
44.326 3.10987 3.99333
46.571 3.64647 2
47.2057 1.27793 4
48.7848 4.32221 0.00712668
49.554 1.99013 2
51.8506 2.85458 0
58.9551 42.9175 0.0245458
60.2044 39.8472 0.0255795
61.9545 37.4447 0.027726
59.6949 37.5666 2
57.9361 40.6561 2
55.0155 39.719 2
56.737 37.8956 3.97709
49.4669 41.3321 3.98795
53.0346 39.303 3.97904
39.4421 6.80089 3.98713
59.8429 35.1197 0.0266512
57.9583 32.2707 0.0237411
56.5185 29.342 0.0240279
55.3402 19.1866 0.0223476
54.9937 21.5677 0.0314794
54.9138 24.0619 0.0294195
55.4229 26.6016 0.0250706
53.1228 18.6575 0.0233443
51.2998 18.0469 0.0158719
50.6327 16.1299 0.0204673
45.9623 5.88166 0.0109691
49.7138 13.7416 0.0184377
47.355 8.62341 0.0145013
48.6001 11.2927 0.0168338
43.3736 7.47237 0.0134094
57.3292 34.7609 2
41.3988 7.07696 2
45.3597 7.99398 2
42.8654 9.41451 2
55.6889 31.5221 2
54.4516 28.4104 2
53.9656 20.1362 2
53.5675 22.7176 2
53.7509 25.5026 2
46.6662 10.6525 2
47.7449 13.101 2
51.6465 19.3202 2
50.0043 17.6981 2
48.9303 15.3997 2
54.8025 33.9754 3.97753
53.4279 30.4923 3.97575
52.551 27.2069 3.97617
52.1222 24.1055 3.97254
52.3821 21.0559 3.98059
41.0135 9.04778 3.9847
44.7237 9.99548 3.98402
42.4685 10.9022 3.98341
46.0051 12.7299 3.98144
47.6811 14.5846 3.98118
48.1119 16.9897 3.97843
49.8154 19.6175 3.976
49.5926 61.7495 0.0161633
50.5671 59.3331 0.0219739
55.5621 41.7013 0.0229806
54.1306 45.5582 0.0226716
53.3006 49.3216 0.027547
52.1823 56.4926 0.0263409
52.6539 52.8377 0.0335419
48.8495 60.2077 2
52.4363 42.632 2
49.7888 57.6314 2
50.585 54.4257 2
51.7479 47.2585 2
51.1887 50.9334 2
48.0675 43.8054 2
47.9872 58.748 3.98016
50.0068 45.2691 3.9778
48.5936 55.9205 3.97825
49.1114 52.587 3.97191
49.6261 49.0386 3.97308
45.8706 39.873 3.89641
46.3088 42.6774 3.93969
46.4124 45.8431 3.99331
43.7114 41.1703 3.86632
41.9627 42.0243 3.79776
47.3302 61.0144 0.0162261
46.6193 59.8017 2
45.4692 58.7977 3.98342
39.6328 67.7699 0.0136127
41.5467 65.6482 0.0149547
43.1472 63.7311 0.0154987
44.4843 61.8406 0.0160989
45.7671 60.6358 0.0168506
41.6004 63.8249 2
37.5633 67.7531 2
39.6477 65.6169 2
44.6242 60.299 2
42.9512 62.0894 2
41.7541 62.4994 3.98384
42.4818 59.9899 3.98458
39.8939 63.5591 3.98391
37.6423 65.5152 3.98424
35.4632 67.6616 3.98617
33.5749 65.3483 3.98447
31.9588 63.3077 3.98424
29.8824 64.7263 3.98548
31.6965 65.1357 2
31.3762 67.1997 3.9864
33.3918 67.4906 2
33.1557 69.7547 3.98894
35.333 69.9622 2
35.1947 72.3736 3.993
37.5258 70.0514 0.0109958
37.5095 72.4597 2
37.5 75 4
39.8179 72.4047 0.0068832
39.9526 74.9197 2
42.3947 74.6792 0
39.6238 4.71471 3.98984
41.7363 4.96716 2
42.0623 2.71745 3.99344
43.8516 5.35853 0.0106697
44.3262 3.10958 2
44.8158 0.721173 4
46.5707 3.64671 0.00690463
47.2057 1.27779 2
49.554 1.99015 0
57.9367 40.6562 0.0236731
59.6949 37.5665 0.0266429
55.0153 39.7188 0.0222562
49.4806 41.3349 2
56.736 37.8955 2
53.0356 39.3055 2
53.8839 36.6287 3.97784
47.3938 40.4093 3.9432
50.4062 38.5122 3.988
37.5159 6.67184 3.98737
39.4422 6.80034 2
39.2109 8.6902 3.98511
35.9414 8.48989 3.98546
57.3301 34.7607 0.0230297
55.689 31.522 0.0227498
54.454 28.409 0.0215423
53.9649 20.137 0.0232175
53.567 22.72 0.0350073
53.7523 25.5016 0.0259154
51.6464 19.3213 0.0131629
50.0045 17.6991 0.0201625
48.9306 15.4005 0.0198777
45.3597 7.99448 0.0138977
47.7453 13.1016 0.0178094
46.6664 10.6532 0.0165386
41.3987 7.0775 0.0129324
42.8655 9.415 0.0153502
54.8044 33.9747 2
41.0134 9.04728 2
44.7235 9.99509 2
42.4681 10.9018 2
53.4238 30.4918 2
52.5542 27.2083 2
52.3828 21.0541 2
52.1231 24.1067 2
46.0046 12.7291 2
47.6807 14.5839 2
49.8156 19.6165 2
48.1117 16.9889 2
52.3667 32.8833 3.98
51.2599 29.1623 3.97807
50.7531 25.7366 3.97222
49.9319 22.2013 3.97703
40.5696 11.6062 3.98235
43.858 11.9183 3.98234
45.8022 15.4224 3.98045
47.5024 19.2304 3.97652
46.2037 37.4946 3.9011
48.8496 60.2069 0.0176856
49.7885 57.6298 0.0222016
52.4338 42.6336 0.0222771
51.7467 47.2601 0.0240356
51.1861 50.9348 0.0320662
50.5841 54.4241 0.0291974
48.0646 43.7958 0.00731881
47.9871 58.7491 2
50.012 45.2716 2
48.5941 55.9227 2
49.1126 52.589 2
49.6291 49.0375 2
45.8942 39.8812 2
46.3252 42.6899 2
46.4129 45.8364 2
43.7325 41.185 2
41.971 42.0308 2
46.8378 57.3503 3.98282
44.4585 39.4506 3.86085
42.3116 40.8886 3.82404
48.0143 47.2357 3.97614
47.1583 54.2454 3.97727
47.5575 50.7422 3.96906
44.7417 47.4246 3.99252
44.9728 41.9641 3.89825
44.865 44.5788 3.94696
42.5672 42.6902 3.86626
40.8593 42.3723 3.82745
46.6195 59.801 0.0169222
45.4688 58.7986 2
43.8769 57.7234 3.98461
37.5633 67.7523 0.0137744
39.6479 65.6163 0.0154194
41.6005 63.8243 0.0155014
42.9513 62.0886 0.0162516
44.6243 60.2981 0.0167849
35.4632 67.6625 2
41.754 62.5 2
39.8938 63.5597 2
37.6422 65.516 2
42.4818 59.9908 2
40.6236 61.6577 3.98343
40.4456 58.2229 3.98526
37.8371 63.2201 3.98313
35.5728 65.4373 3.98429
33.575 65.3489 2
31.9587 63.3084 2
33.6286 63.3472 3.98363
30.3776 62.8666 3.98455
32.1225 62.0145 3.98475
26.8674 61.5099 3.98395
28.0612 64.1543 3.98555
29.8825 64.727 2
29.4055 66.7634 3.98661
31.6964 65.135 0.0150217
31.3763 67.2003 2
31.0128 69.4197 3.98896
33.3918 67.4898 0.0137835
33.1557 69.7554 2
32.8916 72.1478 3.99305
35.333 69.9615 0.010988
35.1947 72.374 2
35.0474 74.9194 4
37.5094 72.4593 0.00695431
37.5 75 2
39.9526 74.9197 0
35.6205 6.72293 3.98718
37.523 4.61423 3.98999
39.6238 4.71422 2
39.7886 2.47383 3.99357
41.7362 4.96766 0.0103471
42.0624 2.71715 2
42.3946 0.32156 4
44.326 3.10987 0.00667375
44.8159 0.72056 2
47.2057 1.27793 0
49.4669 41.3321 0.0120525
56.737 37.8956 0.022913
53.0346 39.303 0.0209552
47.4084 40.4212 2
50.4188 38.5112 2
53.8885 36.6298 2
51.2072 35.581 3.97847
48.0487 37.7461 3.9589
45.8742 35.1382 3.89736
43.722 33.8324 3.86198
41.9711 32.9874 3.79444
37.4576 8.53167 3.98528
37.5159 6.67114 2
39.4421 6.80089 0.0128712
39.2109 8.68962 2
38.9764 10.1236 3.98458
35.8982 9.77008 3.98403
34.1499 8.81942 3.9852
35.9413 8.48915 2
54.8025 33.9754 0.0224703
53.4279 30.4923 0.0242529
52.551 27.2069 0.0238287
52.3821 21.0559 0.0194123
52.1222 24.1055 0.027457
49.8154 19.6175 0.0240007
48.1119 16.9897 0.0215665
47.6811 14.5846 0.0188217
44.7237 9.99548 0.0159752
46.0051 12.7299 0.0185554
41.0135 9.04778 0.0153017
42.4685 10.9022 0.0165936
52.3673 32.8833 2
40.5692 11.6059 2
43.8576 11.9179 2
51.2709 29.1619 2
50.754 25.7392 2
49.9329 22.2005 2
45.8018 15.4215 2
47.5025 19.2284 2
49.8937 31.4165 3.96881
49.2356 27.4949 3.97692
49.3811 24.4152 3.98085
47.182 21.9631 3.97452
38.3021 12.7317 3.98216
42.1013 14.3045 3.98105
44.7995 18.4618 3.97844
44.7495 37.5011 3.86089
46.2324 37.5016 2
47.9872 58.748 0.0198382
48.5936 55.9205 0.0217484
50.0068 45.2691 0.0222026
49.6261 49.0386 0.0269243
49.1114 52.587 0.0280884
45.8706 39.873 0.10359
46.3088 42.6774 0.0603078
46.4124 45.8431 0.00668657
43.7114 41.1703 0.133682
41.9627 42.0243 0.202242
46.8377 57.3518 2
44.4716 39.4609 2
42.3078 40.8893 2
48.0162 47.2371 2
47.1592 54.2491 2
47.5599 50.7435 2
44.7456 47.4009 2
44.9891 41.9768 2
44.8798 44.5937 2
42.5924 42.7101 2
40.8576 42.373 2
45.3955 55.9388 3.98686
42.6374 39.2777 3.83817
40.7688 40.8112 3.8907
46.0478 48.9134 3.98612
45.5243 52.5375 3.98172
43.4081 48.4548 4.00684
43.3326 46.1349 3.94418
43.5985 43.7756 3.89558
41.0946 43.8607 3.86353
39.2898 42.7309 3.84042
45.4692 58.7977 0.0165846
43.8765 57.7241 2
42.1067 56.3507 3.98834
35.4632 67.6616 0.0138333
37.6423 65.5152 0.0157619
39.8939 63.5591 0.0160946
41.7541 62.4994 0.0161636
42.4818 59.9899 0.015421
35.5728 65.4382 2
40.6234 61.6583 2
37.8369 63.2207 2
40.4453 58.2243 2
38.9255 56.5197 3.99086
38.2505 60.3408 3.98362
35.6068 63.2135 3.98297
33.5749 65.3483 0.0155275
31.9588 63.3077 0.0157585
33.6285 63.3479 2
30.3776 62.8672 2
32.1224 62.0152 2
28.68 62.2121 3.98491
33.3452 61.5269 3.98394
31.0656 61.232 3.98443
27.5668 59.6076 3.98245
23.7902 59.0925 3.98029
25.0331 60.8819 3.98269
26.8674 61.5106 2
26.2278 63.4866 3.98531
28.0613 64.155 2
27.4619 66.1873 3.98676
29.8824 64.7263 0.0145206
29.4056 66.7642 2
28.9049 68.9452 3.98905
31.3762 67.1997 0.0136045
31.0127 69.4203 2
30.6139 71.7788 3.99311
33.1557 69.7547 0.011058
32.8915 72.1482 2
32.6054 74.6784 4
35.1947 72.3736 0.00699655
35.0474 74.9197 2
37.5 75 0
33.7231 6.97752 3.98676
35.4344 4.68455 3.9898
35.6204 6.72227 2
37.514 2.38649 3.9936
37.523 4.6137 2
39.6238 4.71471 0.0101557
39.7887 2.47353 2
39.9526 0.0806499 4
42.0623 2.71745 0.00656264
42.3947 0.320817 2
44.8158 0.721173 0
44.4797 35.5514 3.85543
42.324 34.1158 3.8207
47.3938 40.4093 0.0567998
50.4062 38.5122 0.0119962
53.8839 36.6287 0.022165
48.0614 37.7546 2
51.2163 35.5804 2
45.8916 35.1227 2
43.7449 33.8166 2
41.9794 32.9802 2
48.2302 34.3062 3.98005
44.9796 33.0395 3.89324
42.5756 32.322 3.86411
40.8688 32.638 3.82508
37.3105 10.627 3.98336
37.4576 8.53075 2
37.5159 6.67184 0.0126299
39.2109 8.6902 0.0148904
38.9763 10.1229 2
34.7534 10.3759 3.9836
35.8982 9.76931 2
32.3766 9.36602 3.98462
34.1498 8.81872 2
35.9414 8.48989 0.0145383
52.3667 32.8833 0.0199987
51.2599 29.1623 0.021926
50.7531 25.7366 0.0277804
49.9319 22.2013 0.0229663
47.5024 19.2304 0.0234828
45.8022 15.4224 0.0195507
43.858 11.9183 0.0176572
40.5696 11.6062 0.0176486
49.8997 31.4117 2
38.3016 12.7311 2
42.1008 14.3042 2
49.2369 27.4983 2
49.3823 24.4148 2
47.1831 21.9638 2
44.7995 18.4611 2
47.7239 29.5341 3.99102
47.0784 25.1545 3.98216
44.2868 21.3223 3.97527
36.5817 12.9278 3.98227
38.6812 14.8028 3.98111
41.7496 17.8363 3.98027
42.7755 37.4926 3.83798
44.7637 37.5007 2
46.2037 37.4946 0.0988982
46.8378 57.3503 0.0171761
47.1583 54.2454 0.0227321
48.0143 47.2357 0.0238575
47.5575 50.7422 0.0309383
44.4585 39.4506 0.139147
44.9728 41.9641 0.10175
44.865 44.5788 0.0530443
44.7417 47.4246 0.00748442
42.5672 42.6902 0.133745
42.3116 40.8886 0.175964
40.8593 42.3723 0.172545
45.3959 55.9401 2
42.6376 39.2758 2
40.7643 40.8069 2
46.0493 48.9142 2
45.5266 52.5419 2
43.4109 48.4713 2
43.3546 46.157 2
43.6156 43.7924 2
41.1127 43.8795 2
39.2829 42.725 2
43.7322 54.4555 3.99723
40.8742 39.1766 3.91868
39.1713 40.9034 3.92023
43.6733 50.5078 3.99858
41.9272 47.682 3.97723
41.8524 45.1962 3.897
39.3686 44.5976 3.87738
37.4904 42.8533 3.85117
43.8769 57.7234 0.0153905
42.1061 56.352 2
40.418 54.9619 3.99225
35.5728 65.4373 0.0157081
37.8371 63.2201 0.0168665
40.6236 61.6577 0.0165729
40.4456 58.2229 0.0147371
35.6068 63.2144 2
38.2502 60.3415 2
38.925 56.5221 2
37.9993 55.2775 3.9917
36.9344 57.6453 3.98505
35.3633 60.9254 3.98338
33.6286 63.3472 0.0163713
30.3776 62.8666 0.01545
32.1225 62.0145 0.0152497
33.3451 61.5277 2
28.68 62.2127 2
31.0656 61.2327 2
29.4017 60.3024 3.98414
32.3557 59.76 3.98603
28.0207 58.3874 3.98552
27.5667 59.6082 2
25.3772 58.6052 3.98002
22.7542 58.249 3.97526
23.3989 60.361 3.98074
23.7901 59.0935 2
25.0331 60.8827 2
24.4304 62.7787 3.98449
26.8674 61.5099 0.0160495
26.2279 63.4872 2
25.5459 65.4973 3.98678
28.0612 64.1543 0.0144484
27.462 66.188 2
26.8343 68.3335 3.98912
29.4055 66.7634 0.0133915
28.9048 68.9458 2
28.3689 71.264 3.9932
31.0128 69.4197 0.011039
30.6138 71.7792 2
30.1842 74.2788 4
32.8916 72.1478 0.00695475
32.6053 74.6792 2
35.0474 74.9194 0
31.7874 7.41732 3.9864
33.3464 4.92372 3.98961
33.723 6.97688 2
35.2442 2.46262 3.9936
35.4344 4.68403 2
35.6205 6.72293 0.0128165
37.5 0 4
37.5141 2.38617 2
37.523 4.61423 0.0100138
39.7886 2.47383 0.00642638
39.9526 0.0802889 2
42.3946 0.32156 0
42.6472 35.716 3.83853
44.4886 35.542 2
40.78 34.1953 3.88961
42.3193 34.1164 2
48.0487 37.7461 0.0410955
51.2072 35.581 0.0215346
45.8742 35.1382 0.10264
43.722 33.8324 0.138024
41.9711 32.9874 0.20556
48.2424 34.2902 2
44.9969 33.0274 2
42.5978 32.304 2
40.8673 32.6367 2
46.2427 31.559 3.95734
43.6045 31.2386 3.89069
41.1089 31.1555 3.86521
39.2975 32.2784 3.83961
35.6919 11.7718 3.98243
37.3105 10.6262 2
37.4576 8.53167 0.0147165
38.9764 10.1236 0.0154201
33.0972 11.2126 3.98252
34.7533 10.3751 2
35.8982 9.77008 0.0159701
30.4812 10.014 3.98411
32.3764 9.36531 2
34.1499 8.81942 0.0147996
49.8937 31.4165 0.0311938
49.2356 27.4949 0.023084
49.3811 24.4152 0.0191538
47.182 21.9631 0.0254845
44.7995 18.4618 0.0215597
42.1013 14.3045 0.0189468
38.3021 12.7317 0.0178413
36.5813 12.9272 2
47.7254 29.5214 2
38.6805 14.8024 2
41.749 17.8353 2
47.0803 25.1551 2
44.2878 21.3186 2
45.5103 27.6505 4.00045
43.7886 24.0496 3.99843
41.3404 20.7137 3.98099
35.7716 14.7533 3.98163
38.6812 17.5916 3.9791
40.9238 37.4848 3.93024
42.7792 37.4941 2
44.7495 37.5011 0.139114
45.3955 55.9388 0.0131356
45.5243 52.5375 0.0182767
46.0478 48.9134 0.0138836
42.6374 39.2777 0.161826
43.5985 43.7756 0.104416
43.3326 46.1349 0.0558207
43.4081 48.4548 -0.00683836
41.0946 43.8607 0.136466
40.7688 40.8112 0.109299
39.2898 42.7309 0.159585
43.733 54.4579 2
40.8697 39.1738 2
39.1656 40.8956 2
43.6764 50.5194 2
41.9292 47.6941 2
41.8758 45.212 2
37.4921 42.8448 2
39.3897 44.6051 2
41.8745 53.0323 3.99498
39.1875 39.1787 3.95072
37.4919 40.9514 3.93606
35.6986 42.7294 3.84098
40.907 49.7376 4.00229
39.8033 46.1007 3.87883
37.4932 44.8278 3.87171
42.1067 56.3507 0.011657
40.4172 54.9634 2
38.728 53.894 3.99485
35.6068 63.2135 0.0170345
38.2505 60.3408 0.0163825
38.9255 56.5197 0.00914209
35.363 60.9262 2
36.9339 57.6463 2
37.9987 55.2788 2
36.3196 55.4072 3.99235
34.4868 58.5378 3.98554
33.3452 61.5269 0.0160628
28.68 62.2121 0.0150877
31.0656 61.232 0.0155698
32.3555 59.7607 2
29.4016 60.3029 2
30.2963 57.8349 3.98575
28.0204 58.3881 2
26.9435 56.8368 3.97984
27.5668 59.6076 0.0175455
25.377 58.6061 2
23.837 56.8097 3.97358
21.3312 57.4065 3.97507
21.9917 59.6314 3.97989
22.754 58.2504 2
22.7343 62.0297 3.98317
23.3989 60.3619 2
23.7902 59.0925 0.0197064
25.0331 60.8819 0.0173128
24.4306 62.7795 2
23.6798 64.7156 3.98631
26.2278 63.4866 0.0146935
25.5461 65.4979 2
24.8065 67.5946 3.98914
27.4619 66.1873 0.0132416
26.8343 68.334 2
26.1641 70.6047 3.99327
28.9049 68.9452 0.0109492
28.3687 71.2643 2
27.7943 73.7221 4
30.6139 71.7788 0.00689181
30.1841 74.2794 2
32.6054 74.6784 0
29.8098 7.99056 3.9859
31.2515 5.33084 3.98922
31.7873 7.4166 2
32.9798 2.70079 3.99347
33.3463 4.92317 2
33.7231 6.97752 0.0132383
35.0474 0.080333 4
35.2442 2.4623 2
35.4344 4.68455 0.0101992
37.5 0 2
37.514 2.38649 0.00639826
39.9526 0.0806499 0
40.8798 35.8055 3.92042
42.6465 35.7189 2
44.4797 35.5514 0.144573
28.5419 10.6892 3.98396
39.1792 34.1047 3.9198
40.7735 34.2002 2
42.324 34.1158 0.179305
48.2302 34.3062 0.0199528
44.9796 33.0395 0.10676
42.5756 32.322 0.135887
40.8688 32.638 0.17492
46.2609 31.551 2
43.6158 31.2242 2
41.1275 31.1373 2
39.2927 32.283 2
44.3763 29.7473 3.94606
41.8721 29.8204 3.90029
39.3888 30.4109 3.87838
37.4992 32.157 3.85231
34.0918 12.9299 3.98175
35.6918 11.771 2
37.3105 10.627 0.0166375
31.185 11.9806 3.98295
33.0971 11.2118 2
34.7534 10.3759 0.0163982
30.481 10.0131 2
32.3766 9.36602 0.0153808
47.7239 29.5341 0.00898207
47.0784 25.1545 0.0178405
36.5817 12.9278 0.017734
44.2868 21.3223 0.0247274
41.7496 17.8363 0.0197257
38.6812 14.8028 0.0188871
35.7709 14.7529 2
45.5113 27.6492 2
38.6801 17.5908 2
41.3403 20.7112 2
43.7903 24.0495 2
33.6068 15.8695 3.98149
43.0337 26.4809 3.99816
40.9112 23.2816 4.00012
38.4203 20.3236 3.98016
35.8476 17.5022 3.98209
39.2045 37.4858 3.95845
40.9149 37.4849 2
42.7755 37.4926 0.162022
43.7322 54.4555 0.00277181
43.6733 50.5078 0.00142316
40.8742 39.1766 0.0813163
41.8524 45.1962 0.103004
41.9272 47.682 0.0227698
39.3686 44.5976 0.12262
39.1713 40.9034 0.0797714
37.4904 42.8533 0.148834
41.8767 53.0364 2
39.1808 39.1768 2
37.4917 40.9435 2
40.9134 49.7422 2
35.703 42.7247 2
39.8274 46.1215 2
37.4904 44.8308 2
39.8122 51.9456 3.99451
37.4904 39.1925 3.96879
35.8111 40.9122 3.91981
34.1244 42.3701 3.82615
35.5969 44.5977 3.87494
38.6993 48.7555 3.98848
37.483 46.4247 3.88217
40.418 54.9619 0.00775495
38.7279 53.8942 2
36.719 53.2451 4.00672
35.3633 60.9254 0.0166152
36.9344 57.6453 0.0149483
37.9993 55.2775 0.00830153
34.4864 58.5385 2
36.3189 55.4084 2
33.226 55.5232 3.98859
32.3557 59.76 0.0139744
29.4017 60.3024 0.0158575
30.296 57.8357 2
28.689 55.3259 3.97896
28.0207 58.3874 0.0144817
26.9429 56.8373 2
25.3089 55.1469 3.9748
21.8069 55.3523 3.97011
25.3772 58.6052 0.0199793
23.8365 56.8113 2
20.2158 57.0336 3.97835
20.6429 58.7884 3.97801
21.3308 57.4079 2
21.1647 61.1782 3.9814
21.9916 59.6327 2
22.7542 58.249 0.0247363
21.8932 63.8433 3.98562
22.7344 62.0306 2
23.3989 60.361 0.01926
24.4304 62.7787 0.0155095
23.68 64.7163 2
22.8347 66.7382 3.98916
25.5459 65.4973 0.0132244
24.8065 67.5951 2
24.0083 69.8058 3.99328
26.8343 68.3335 0.010883
26.1638 70.605 2
25.446 73.0099 4
28.3689 71.264 0.00679706
27.7943 73.7222 2
30.1842 74.2788 0
27.8196 8.65017 3.98564
29.1534 5.87661 3.98879
29.8096 7.98976 2
30.725 3.09798 3.99327
31.2513 5.33027 2
31.7874 7.41732 0.0136035
32.6053 0.320823 4
32.9797 2.70046 2
33.3464 4.92372 0.0103918
35.0474 0.0802903 2
35.2442 2.46262 0.00640294
37.5 0 0
39.1997 35.8053 3.94981
40.8739 35.8087 2
42.6472 35.716 0.161469
28.5418 10.6885 2
26.6207 11.3842 3.98412
29.2238 12.6368 3.9835
37.4981 34.058 3.9363
39.1722 34.1124 2
40.78 34.1953 0.110391
46.2427 31.559 0.042656
43.6045 31.2386 0.109305
41.1089 31.1555 0.134793
39.2975 32.2784 0.160388
44.3931 29.7328 2
41.8917 29.8025 2
39.4048 30.3979 2
37.5005 32.1656 2
42.354 28.3873 3.93295
39.8566 28.9054 3.89555
37.5161 30.1709 3.8701
35.7054 32.2748 3.83972
31.9131 14.4746 3.98236
34.0916 12.9291 2
35.6919 11.7718 0.017571
31.185 11.9797 2
33.0972 11.2126 0.0174767
30.4812 10.014 0.0158941
45.5103 27.6505 -0.000446122
43.7886 24.0496 0.00157111
35.7716 14.7533 0.0183718
41.3404 20.7137 0.0190121
38.6812 17.5916 0.0209007
33.6061 15.8692 2
35.8464 17.5023 2
43.0371 26.4813 2
38.4199 20.3224 2
40.9111 23.2748 2
33.5489 17.3782 3.98329
40.4126 25.6221 4.007
38.075 22.8552 3.9943
35.583 20.0687 3.98529
37.495 37.4953 3.97713
39.1962 37.4859 2
40.9238 37.4848 0.0697633
41.8745 53.0323 0.0050203
40.907 49.7376 -0.00228864
39.1875 39.1787 0.0492756
39.8033 46.1007 0.121166
37.4932 44.8278 0.128289
37.4919 40.9514 0.0639413
35.6986 42.7294 0.159024
39.8171 51.9486 2
37.4917 39.1894 2
35.8179 40.905 2
38.7002 48.7857 2
34.1251 42.371 2
35.5852 44.6131 2
37.4846 46.4452 2
37.6498 51.0422 4.01014
35.7985 39.1948 3.95152
34.2173 40.8195 3.89056
33.0159 42.0215 3.79551
33.8768 43.8504 3.86398
35.1484 46.0879 3.89016
36.8499 48.3998 3.96711
38.728 53.894 0.00514601
36.7198 53.2465 2
34.3607 52.498 3.99467
34.4868 58.5378 0.0144618
36.3196 55.4072 0.00764873
33.2253 55.5239 2
30.5184 53.3943 3.98075
30.2963 57.8349 0.0142531
28.6884 55.3274 2
26.8816 53.4384 3.97463
26.9435 56.8368 0.0201643
25.3084 55.1497 2
23.5728 53.4809 3.96828
20.4672 53.2186 3.96442
19.9294 55.8352 3.97373
21.806 55.3537 2
23.837 56.8097 0.0264182
19.4354 57.8955 3.97722
20.2153 57.0351 2
19.7044 60.2104 3.9797
20.6427 58.7896 2
21.3312 57.4065 0.0249288
20.2058 62.8639 3.98394
21.1647 61.1794 2
21.9917 59.6314 0.0201091
20.9362 65.7671 3.98893
21.8934 63.8442 2
22.7343 62.0297 0.0168279
23.6798 64.7156 0.0136908
22.8348 66.7388 2
21.9107 68.8729 3.99326
24.8065 67.5946 0.0108583
24.008 69.806 2
23.1494 72.1454 4
26.1641 70.6047 0.00673176
25.446 73.0099 2
27.7943 73.7221 0
25.8587 9.37827 3.9854
27.068 6.5407 3.98834
27.8194 8.64939 2
28.4871 3.64396 3.99305
29.1532 5.87598 2
29.8098 7.99056 0.0140966
30.1841 0.720592 4
30.7248 3.09766 2
31.2515 5.33084 0.0107806
32.6053 0.320817 2
32.9798 2.70079 0.00653498
35.0474 0.080333 0
37.4981 35.8043 3.96985
39.1902 35.8073 2
40.8798 35.8055 0.0795825
24.7755 12.0671 3.9843
23.75 14.3518 3.98341
28.5419 10.6892 0.0160386
26.6207 11.3836 2
29.2238 12.6361 2
27.2899 13.3693 3.98373
29.7788 14.1959 3.98305
35.8214 34.0969 3.92072
37.4982 34.0656 2
39.1792 34.1047 0.080202
37.4992 32.157 0.147686
44.3763 29.7473 0.0539403
41.8721 29.8204 0.0997072
39.3888 30.4109 0.121623
42.3727 28.3681 2
39.8714 28.8812 2
37.5165 30.1681 2
35.7124 32.2796 2
40.0464 27.5333 3.92871
37.5274 28.579 3.89245
35.6225 30.4119 3.87851
34.1397 32.6312 3.82515
30.9245 16.8304 3.98288
31.9129 14.4738 2
34.0918 12.9299 0.0182472
31.185 11.9806 0.0170517
43.0337 26.4809 0.0018356
40.9112 23.2816 -0.000115596
33.6068 15.8695 0.0185133
35.8476 17.5022 0.0179095
38.4203 20.3236 0.0198385
33.548 17.3783 2
35.5825 20.0686 2
40.4126 25.6161 2
38.0734 22.8536 2
32.8617 19.7835 3.98416
37.8012 25.1664 4.01491
35.2004 22.6234 3.99204
35.7904 37.5011 3.96081
37.4953 37.4948 2
39.2045 37.4858 0.0415485
39.8122 51.9456 0.00548572
38.6993 48.7555 0.0115206
37.4904 39.1925 0.0312116
37.483 46.4247 0.117828
35.5969 44.5977 0.12506
35.8111 40.9122 0.0801879
34.1244 42.3701 0.173849
37.656 51.0531 2
35.8085 39.1921 2
34.223 40.8147 2
36.8427 48.4173 2
33.0081 42.0277 2
33.8634 43.8653 2
35.1327 46.1044 2
35.4654 50.1714 4.00907
34.1222 39.1918 3.9214
32.6632 40.8912 3.82252
32.4106 42.6866 3.8684
33.1296 45.1881 3.89849
34.2632 47.4601 3.93934
36.719 53.2451 -0.00672021
34.3618 52.5014 2
32.0033 51.2023 4.00028
33.226 55.5232 0.0114129
30.5178 53.398 2
28.4282 51.6077 3.97851
28.689 55.3259 0.0210414
26.8807 53.4405 2
25.0799 51.7498 3.96594
25.3089 55.1469 0.025202
23.5718 53.4823 2
21.9668 51.8019 3.96482
19.2011 51.6337 3.96924
18.9202 54.3073 3.96665
20.4661 53.2183 2
18.4444 56.7265 3.9769
19.9286 55.8367 2
21.8069 55.3523 0.0298902
18.3669 59.1154 3.97687
19.435 57.8966 2
20.2158 57.0336 0.0216471
18.6171 61.7702 3.9819
19.7043 60.2117 2
20.6429 58.7884 0.0219887
19.1253 64.6777 3.98797
20.2059 62.8651 2
21.1647 61.1782 0.0186044
19.8848 67.8094 3.9931
20.9363 65.7679 2
21.8932 63.8433 0.0143828
22.8347 66.7382 0.010838
21.9105 68.873 2
20.9142 71.1327 4
24.0083 69.8058 0.00672428
23.1494 72.1455 2
25.446 73.0099 0
23.0949 12.7816 3.98392
23.9711 10.1648 3.98527
25.0218 7.31094 3.98801
25.8586 9.37763 2
26.2788 4.32822 3.99282
27.0678 6.54007 2
27.8196 8.65017 0.014358
27.7943 1.27781 4
28.4869 3.64365 2
29.1534 5.87661 0.0112057
30.1841 0.720551 2
30.725 3.09798 0.00672749
32.6053 0.320823 0
35.8014 35.8101 3.95265
37.4978 35.8065 2
39.1997 35.8053 0.0501891
24.7757 12.0666 2
23.7503 14.3515 2
22.4788 15.0285 3.98279
25.3561 13.9011 3.98329
24.0232 15.614 3.98224
26.6207 11.3842 0.0158768
29.2238 12.6368 0.0165042
27.29 13.3689 2
29.7787 14.1953 2
28.3547 15.9694 3.98338
34.2309 34.1892 3.88965
35.828 34.1039 2
37.4981 34.058 0.0636983
35.7054 32.2748 0.160284
37.5161 30.1709 0.129898
42.354 28.3873 0.0670469
39.8566 28.9054 0.104452
40.0593 27.5185 2
37.5305 28.5557 2
35.6078 30.394 2
34.1403 32.6302 2
37.6192 27.2193 3.9393
35.1857 28.8991 3.89297
33.8883 31.149 3.86375
33.0393 32.9779 3.7958
30.2064 19.3326 3.986
30.924 16.8302 2
31.9131 14.4746 0.0176352
40.4126 25.6221 -0.00699862
38.075 22.8552 0.00570029
33.5489 17.3782 0.0167147
35.583 20.0687 0.0147144
32.8607 19.7844 2
35.1974 22.6206 2
37.7894 25.1666 2
32.3096 22.3972 3.9906
34.984 25.1558 4.00705
34.0725 37.502 3.93097
35.7994 37.5005 2
37.495 37.4953 0.0228694
37.6498 51.0422 -0.0101449
36.8499 48.3998 0.0328905
35.7985 39.1948 0.0484825
35.1484 46.0879 0.109841
33.8768 43.8504 0.136021
34.2173 40.8195 0.109439
33.0159 42.0215 0.204492
35.4625 50.1835 2
34.1316 39.189 2
32.6661 40.8903 2
34.2587 47.4932 2
32.3917 42.701 2
33.1129 45.2057 2
33.2446 49.1605 4.0069
32.3426 39.2852 3.84022
31.2563 41.1704 3.86272
31.3882 43.7699 3.89216
32.2482 46.3769 3.93798
34.3607 52.498 0.00533215
32.0019 51.2098 2
29.8596 49.7208 3.98914
30.5184 53.3943 0.019248
28.4265 51.6066 2
26.5112 49.9897 3.9709
26.8816 53.4384 0.0253695
25.0783 51.7488 2
23.3464 50.1959 3.97166
23.5728 53.4809 0.0317217
21.9658 51.8013 2
20.4654 50.3174 3.97019
17.9892 50.3317 3.97019
17.8338 52.7894 3.96669
19.2005 51.6333 2
17.4352 55.341 3.97048
18.9191 54.3075 2
20.4672 53.2186 0.035577
17.133 57.8764 3.97677
18.4437 56.7276 2
19.9294 55.8352 0.0262695
17.1349 60.552 3.97922
18.3667 59.1166 2
19.4354 57.8955 0.0227753
17.4061 63.4697 3.98588
18.6171 61.7715 2
19.7044 60.2104 0.0202992
17.941 66.6178 3.99283
19.1253 64.6787 2
20.2058 62.8639 0.0160625
18.75 69.9759 4
19.8845 67.8096 2
20.9362 65.7671 0.0110732
21.9107 68.8729 0.00673869
20.9142 71.1327 2
23.1494 72.1454 0
21.5858 13.6019 3.98333
22.1892 11.024 3.98495
23.0952 12.7815 2
23.0396 8.17635 3.98783
23.9712 10.1644 2
24.1164 5.14299 3.99259
25.0215 7.31041 2
25.8587 9.37827 0.0146024
25.446 1.99014 4
26.2785 4.32796 2
27.068 6.5407 0.0116606
27.7943 1.27778 2
28.4871 3.64396 0.00694952
30.1841 0.720592 0
34.12 35.8132 3.91961
35.8096 35.8117 2
37.4981 35.8043 0.0301476
21.304 15.8241 3.9824
24.7755 12.0671 0.0156958
23.75 14.3518 0.0165942
25.3563 13.9007 2
22.4792 15.0284 2
24.0237 15.6139 2
23.2625 16.2459 3.98203
25.3786 16.0821 3.98311
27.2899 13.3693 0.0162692
29.7788 14.1959 0.0169536
28.355 15.9694 2
27.4382 18.7911 3.98475
32.6882 34.109 3.82162
34.2381 34.1938 2
35.8214 34.0969 0.0792787
34.1397 32.6312 0.174853
35.6225 30.4119 0.121487
37.5274 28.579 0.107554
40.0464 27.5333 0.0712907
37.621 27.1901 2
33.0287 32.9725 2
35.171 28.88 2
33.8735 31.1288 2
35.0691 27.345 3.94396
33.1485 29.8182 3.89348
32.4228 32.3069 3.86115
29.575 21.9256 3.99593
30.206 19.3337 2
30.9245 16.8304 0.0171196
37.8012 25.1664 -0.0149127
35.2004 22.6234 0.00795511
32.8617 19.7835 0.0158372
32.3062 22.3979 2
34.9964 25.1531 2
31.7012 25.6132 4.0014
32.2125 37.5036 3.83932
34.0827 37.5025 2
35.7904 37.5011 0.0391891
35.4654 50.1714 -0.00906704
34.2632 47.4601 0.0606623
34.1222 39.1918 0.0785984
33.1296 45.1881 0.101505
32.4106 42.6866 0.1316
32.6632 40.8912 0.17748
33.2396 49.1515 2
32.3436 39.2825 2
31.235 41.1818 2
32.226 46.399 2
31.3732 43.7824 2
31.1527 47.9866 3.99532
30.5082 39.4509 3.85706
30.0054 41.9657 3.89513
30.4309 44.9608 3.94503
32.0033 51.2023 -0.000276902
29.8571 49.7194 2
27.8809 48.1872 3.97481
28.4282 51.6077 0.0214869
26.5095 49.9885 2
24.6581 48.4748 3.97675
25.0799 51.7498 0.0340551
23.3452 50.195 2
21.6701 48.7936 3.97165
21.9668 51.8019 0.03518
20.465 50.3167 2
19.0368 49.095 3.97252
16.8936 49.3326 3.97217
16.7747 51.4065 3.96931
17.9891 50.3312 2
16.3896 53.8685 3.96759
17.8331 52.7893 2
19.2011 51.6337 0.0307607
15.9752 56.4769 3.97379
17.4344 55.342 2
18.9202 54.3073 0.0333474
15.7485 59.212 3.97816
17.1327 57.8777 2
18.4444 56.7265 0.0230974
15.787 62.1392 3.98295
17.1349 60.5534 2
18.3669 59.1154 0.023132
16.0878 65.3003 3.99213
17.406 63.4708 2
18.6171 61.7702 0.0180989
16.6661 68.6801 4
17.9406 66.6179 2
19.1253 64.6777 0.012031
18.75 69.9759 2
19.8848 67.8094 0.00690488
20.9142 71.1327 0
20.218 14.5908 3.98254
21.5862 13.6018 2
20.5285 11.9938 3.98435
21.1425 9.14611 3.98776
22.1894 11.0237 2
23.0949 12.7816 0.0160756
22.0154 6.082 3.99249
23.0394 8.17593 2
23.9711 10.1648 0.0147305
23.1494 2.85457 4
24.116 5.14283 2
25.0218 7.31094 0.0119877
25.446 1.99012 2
26.2788 4.32822 0.00718327
27.7943 1.27781 0
32.3524 35.7167 3.8377
34.1279 35.8169 2
35.8014 35.8101 0.0473504
21.3044 15.8238 2
20.3017 16.9584 3.98238
22.0957 16.63 3.9806
25.3561 13.9011 0.0167072
22.4788 15.0285 0.0172095
24.0232 15.614 0.0177612
25.379 16.0819 2
23.263 16.2457 2
24.2025 18.4458 3.98012
27.0132 21.4496 3.98861
28.3547 15.9694 0.0166156
27.4383 18.7913 2
31.2918 33.8341 3.86474
32.6906 34.1113 2
34.2309 34.1892 0.110346
33.0393 32.9779 0.204197
33.8883 31.149 0.136251
35.1857 28.8991 0.107028
37.6192 27.2193 0.0606953
35.0532 27.3174 2
32.4058 32.2977 2
33.131 29.7909 2
32.5565 28.0797 3.96177
31.3887 31.2362 3.89614
28.8075 24.3933 3.98407
29.5716 21.9282 2
30.2064 19.3326 0.0140032
34.984 25.1558 -0.00705104
32.3096 22.3972 0.00940466
31.7095 25.6003 2
29.6612 27.3036 3.96784
30.2311 37.4965 3.86136
32.213 37.5023 2
34.0725 37.502 0.0690251
33.2446 49.1605 -0.00689572
32.2482 46.3769 0.0620201
32.3426 39.2852 0.159778
31.3882 43.7699 0.107844
31.2563 41.1704 0.137282
31.1506 47.988 2
30.4941 39.4617 2
29.9892 41.9782 2
30.4085 44.976 2
29.1973 46.5842 4.00039
29.1046 39.8566 3.89512
28.7243 43.1781 3.94998
29.8596 49.7208 0.0108608
27.8787 48.1831 2
25.9651 46.6641 3.97627
26.5112 49.9897 0.0291026
24.6567 48.4732 2
22.8289 47.0828 3.97652
23.3464 50.1959 0.0283366
21.669 48.7927 2
19.9903 47.6222 3.97697
20.4654 50.3174 0.0298065
19.0375 49.0945 2
17.6731 48.1802 3.9751
16.1421 48.6839 3.97352
16.8941 49.3322 2
15.85 50.1702 3.97039
15.3798 52.4134 3.96869
16.7743 51.4061 2
17.9892 50.3317 0.0298126
14.8689 54.9761 3.97039
16.389 53.869 2
17.8338 52.7894 0.0333104
14.4582 57.7403 3.97667
15.9747 56.4781 2
17.4352 55.341 0.0295166
14.2654 60.6929 3.98146
15.7484 59.2134 2
17.133 57.8764 0.0232254
14.3324 63.8594 3.99074
15.7869 62.1404 2
17.1349 60.552 0.0207764
14.6715 67.2507 4
16.0873 65.3002 2
17.4061 63.4697 0.0141219
16.6661 68.6801 2
17.941 66.6178 0.00717086
18.75 69.9759 0
18.9321 15.7783 3.98164
20.2183 14.5907 2
18.9783 13.1047 3.98348
21.5858 13.6019 0.0166729
20.5289 11.9937 2
19.3418 10.2339 3.9875
19.99 7.14665 3.99245
21.1424 9.1458 2
22.1892 11.024 0.0150518
20.9142 3.86727 4
22.0149 6.08198 2
23.0396 8.17635 0.0121682
23.1494 2.85451 2
24.1164 5.14299 0.00741071
25.446 1.99014 0
30.5331 35.5582 3.86129
32.3561 35.7191 2
34.12 35.8132 0.0803918
21.304 15.8241 0.0175953
22.0961 16.6298 2
20.302 16.9578 2
19.2422 18.406 3.9799
21.7804 17.8469 3.98113
25.3786 16.0821 0.0168876
23.2625 16.2459 0.0179677
24.2028 18.4457 2
22.2775 19.8904 3.97695
24.5914 21.3189 3.98237
26.4224 23.7148 3.97407
27.0119 21.4501 2
27.4382 18.7911 0.0152505
30.0311 33.0375 3.89533
31.2626 33.8106 2
32.6882 34.109 0.17838
32.4228 32.3069 0.138852
33.1485 29.8182 0.10652
35.0691 27.345 0.0560401
32.5489 28.0683 2
31.3891 31.2252 2
30.1395 29.5344 3.96097
27.9005 26.5347 3.97588
28.8105 24.4013 2
29.575 21.9256 0.00407014
31.7012 25.6132 -0.00139631
29.6583 27.2654 2
28.773 37.5131 3.90175
30.2249 37.4988 2
32.2125 37.5036 0.160682
31.1527 47.9866 0.00468044
30.4309 44.9608 0.0549692
30.5082 39.4509 0.142942
30.0054 41.9657 0.10487
29.1953 46.5989 2
29.0856 39.8708 2
28.7038 43.1914 2
27.3103 44.8715 3.98648
26.8738 40.591 3.97059
27.8809 48.1872 0.0251877
25.9624 46.6668 2
24.0406 45.2223 3.97911
24.6581 48.4748 0.0232545
22.8281 47.0815 2
20.9579 45.8982 3.97903
21.6701 48.7936 0.0283462
19.9912 47.6215 2
18.3294 46.7394 3.97717
19.0368 49.095 0.0274754
17.6731 48.1799 2
16.3349 47.714 3.97446
16.1425 48.6835 2
15.1949 49.0153 3.97206
16.8936 49.3326 0.0278337
15.8502 50.1699 2
14.4927 50.9835 3.97026
13.8321 53.4319 3.96982
15.3796 52.4135 2
16.7747 51.4065 0.0306935
13.2546 56.1668 3.97378
14.8685 54.9769 2
16.3896 53.8685 0.032412
12.848 59.1262 3.98063
14.4579 57.7416 2
15.9752 56.4769 0.0262057
12.6781 62.3017 3.98869
14.2652 60.6939 2
15.7485 59.212 0.021844
12.7746 65.6939 4
14.3317 63.8591 2
15.787 62.1392 0.0170523
14.6714 67.2507 2
16.0878 65.3003 0.00786742
16.6661 68.6801 0
17.6668 17.1543 3.97986
18.9322 15.7779 2
17.5102 14.3695 3.9822
20.218 14.5908 0.0174564
18.9787 13.1044 2
17.6375 11.4529 3.98666
20.5285 11.9938 0.0156514
19.342 10.2337 2
18.0501 8.33949 3.9924
18.75 5.0241 4
19.9895 7.14681 2
21.1425 9.14611 0.0122424
20.9142 3.86727 2
22.0154 6.082 0.0075103
23.1494 2.85457 0
29.1256 35.1253 3.89723
30.5159 35.5455 2
32.3524 35.7167 0.162297
22.0957 16.63 0.0193951
20.3017 16.9584 0.0176248
21.7807 17.8465 2
19.2424 18.4053 2
17.9802 19.9394 3.97693
20.8753 19.3765 3.97953
24.2025 18.4458 0.0198792
22.2777 19.8899 2
24.591 21.3199 2
22.3584 21.717 3.97953
24.6986 23.1651 3.97251
25.4821 25.9441 3.96687
26.4259 23.7155 2
27.0132 21.4496 0.0113876
28.403 32.3264 3.94375
30.0111 33.0291 2
31.2918 33.8341 0.135261
31.3887 31.2362 0.103864
32.5565 28.0797 0.0382343
30.1187 29.5213 2
27.0567 29.1272 4.00044
27.8979 26.5323 2
28.8075 24.3933 0.0159313
29.6612 27.3036 0.0321566
27.0023 37.3728 3.95515
28.7489 37.5058 2
30.2311 37.4965 0.13864
29.1973 46.5842 -0.000386968
28.7243 43.1781 0.0500183
29.1046 39.8566 0.104883
27.3082 44.883 2
26.8614 40.6054 2
25.3234 43.1765 3.97082
24.1224 39.4302 3.97984
25.9651 46.6641 0.0237279
24.0325 45.2225 2
21.941 43.9553 3.97827
22.8289 47.0828 0.0234767
20.9591 45.8974 2
19.0016 44.9712 3.97814
19.9903 47.6222 0.0230297
18.3295 46.7391 2
16.6324 46.2128 3.97495
17.6731 48.1802 0.0249031
16.335 47.7137 2
14.9256 47.6701 3.97251
16.1421 48.6839 0.0264786
15.1951 49.0151 2
13.7896 49.5454 3.97112
15.85 50.1702 0.0296067
14.4929 50.9833 2
12.8989 51.8721 3.97069
12.1434 54.5249 3.97242
13.832 53.4323 2
15.3798 52.4134 0.0313062
11.5333 57.4578 3.97858
13.2543 56.1678 2
14.8689 54.9761 0.0296132
11.1328 60.6276 3.98718
12.8478 59.1271 2
14.4582 57.7403 0.0233329
10.9835 64.0165 4
12.6773 62.3009 2
14.2654 60.6929 0.0185445
12.7745 65.694 2
14.3324 63.8594 0.00926441
14.6715 67.2507 0
16.4003 18.6493 3.97807
17.6669 17.1537 2
16.1014 15.7789 3.98144
18.9321 15.7783 0.0183601
17.5104 14.3688 2
16.0194 12.8066 3.98467
18.9783 13.1047 0.0165237
17.6378 11.4524 2
16.2013 9.66255 3.99221
19.3418 10.2339 0.0124962
18.0497 8.3398 2
16.6661 6.31991 4
18.75 5.02404 2
19.99 7.14665 0.00754626
20.9142 3.86727 0
27.5193 34.7741 3.94369
29.1006 35.113 2
30.5331 35.5582 0.138709
16.6835 21.3773 3.97261
21.7804 17.8469 0.0188746
19.2422 18.406 0.0201027
20.8756 19.3759 2
17.9804 19.9385 2
19.7253 21.5719 3.97995
22.2775 19.8904 0.0230464
24.5914 21.3189 0.0176342
22.3586 21.7168 2
24.7001 23.165 2
22.8524 24.5997 3.97099
24.599 28.5253 3.97175
25.4799 25.9429 2
26.4224 23.7148 0.0259285
26.2448 31.6974 3.99031
28.3831 32.3113 2
30.0311 33.0375 0.104671
30.1395 29.5344 0.0390322
27.0645 29.1255 2
27.9005 26.5347 0.0241165
24.8265 36.856 3.98614
26.9845 37.3713 2
28.773 37.5131 0.0982493
27.3103 44.8715 0.0135229
26.8738 40.591 0.0294076
25.3137 43.1808 2
24.1117 39.4305 2
23.0231 41.7976 3.98044
21.8411 38.5061 3.97708
24.0406 45.2223 0.0208886
21.9404 43.9549 2
19.7779 42.8876 3.97789
20.9579 45.8982 0.0209675
19.0012 44.971 2
16.9736 44.3799 3.97528
18.3294 46.7394 0.0228309
16.6324 46.2126 2
14.8503 46.0902 3.97245
16.3349 47.714 0.025539
14.9258 47.6699 2
13.2958 48.0083 3.97095
15.1949 49.0153 0.0279376
13.7899 49.5453 2
12.1174 50.2517 3.97112
14.4927 50.9835 0.0297393
12.8991 51.8721 2
11.1393 52.8346 3.97231
10.3246 55.7095 3.97691
12.1433 54.5255 2
13.8321 53.4319 0.0301847
9.69965 58.8497 3.98547
11.533 57.4586 2
13.2546 56.1668 0.0262215
9.30605 62.2254 4
11.1318 60.6265 2
12.848 59.1262 0.0193711
10.9835 64.0165 2
12.6781 62.3017 0.0113096
12.7746 65.6939 0
15.1475 20.1855 3.97372
16.4004 18.6485 2
14.7475 17.3023 3.97927
17.6668 17.1543 0.0201391
16.1016 15.778 2
14.4822 14.289 3.98319
17.5102 14.3695 0.0178046
16.0196 12.806 2
14.4442 11.1136 3.99162
17.6375 11.4529 0.0133377
16.2009 9.66292 2
14.6715 7.74927 4
18.0501 8.33949 0.00760496
16.6661 6.31988 2
18.75 5.0241 0
25.4732 34.2626 3.98899
27.4997 34.7678 2
29.1256 35.1253 0.102769
17.8594 22.3225 3.98325
15.5317 22.9204 3.97001
16.6837 21.3765 2
20.8753 19.3765 0.0204652
17.9802 19.9394 0.0230678
19.7255 21.5712 2
19.6719 24.3796 3.96932
22.3584 21.717 0.0204654
24.6986 23.1651 0.0274863
22.8527 24.5989 2
21.9666 27.8219 3.97092
23.807 31.1851 3.97457
24.6033 28.5244 2
25.4821 25.9441 0.033129
26.2383 31.6893 2
28.403 32.3264 0.0562498
27.0567 29.1272 -0.00043689
22.574 36.2777 3.97747
24.8097 36.8547 2
27.0023 37.3728 0.0448487
25.3234 43.1765 0.0291805
24.1224 39.4302 0.0201603
23.0194 41.7962 2
21.8363 38.5059 2
20.7635 40.6361 3.97757
20.1752 37.7844 3.97697
21.941 43.9553 0.0217285
19.7783 42.8878 2
17.3973 42.1002 3.97607
19.0016 44.9712 0.0218607
16.9737 44.3797 2
14.8602 44.1998 3.97251
16.6324 46.2128 0.0250467
14.8503 46.0901 2
12.9675 46.2955 3.97055
14.9256 47.6701 0.0274941
13.2959 48.0083 2
11.4883 48.5494 3.97066
13.7896 49.5454 0.0288769
12.1176 50.2517 2
10.2649 51.0792 3.97234
12.8989 51.8721 0.029315
11.1396 52.8347 2
9.23387 53.8881 3.97634
8.38349 56.9821 3.98422
10.3247 55.7098 2
12.1434 54.5249 0.0275782
7.74927 60.3285 4
9.69849 58.8478 2
11.5333 57.4578 0.0214154
9.306 62.2255 2
11.1328 60.6276 0.0128235
10.9835 64.0165 0
13.9619 21.7534 3.97058
15.1477 20.1846 2
13.4495 18.9006 3.97625
16.4003 18.6493 0.0219312
14.7477 17.3011 2
13.0278 15.8822 3.98216
16.1014 15.7789 0.0185556
14.4823 14.2881 2
12.7817 12.687 3.9902
16.0194 12.8066 0.0153303
14.4438 11.1141 2
12.7746 9.30605 4
16.2013 9.66255 0.00779393
14.6715 7.74924 2
16.6661 6.31991 0
23.1431 33.7993 3.97667
25.4543 34.2596 2
27.5193 34.7741 0.0563109
17.6347 24.0403 3.97032
17.8596 22.3217 2
14.3156 24.45 3.97048
15.532 22.9199 2
16.6835 21.3773 0.0273868
19.0728 27.2016 3.97033
19.7253 21.5719 0.0200461
19.6719 24.3792 2
21.232 30.6621 3.97223
22.8524 24.5997 0.0290147
21.9674 27.8218 2
23.7994 31.1855 2
24.599 28.5253 0.0282499
26.2448 31.6974 0.00969095
20.3096 35.923 3.97631
22.573 36.2773 2
24.8265 36.856 0.0138607
23.0231 41.7976 0.0195565
21.8411 38.5061 0.0229216
20.7607 40.6361 2
20.1733 37.7844 2
18.1328 39.0006 3.97581
19.7779 42.8876 0.022115
17.3971 42.1001 2
14.8318 41.9172 3.97309
16.9736 44.3799 0.0247222
14.8603 44.1997 2
12.7102 44.3914 3.97039
14.8503 46.0902 0.0275513
12.9675 46.2954 2
10.9893 46.7337 3.9701
13.2958 48.0083 0.0290507
11.4885 48.5494 2
9.52802 49.2396 3.97186
12.1174 50.2517 0.028882
10.2652 51.0791 2
8.26685 52.0016 3.97605
11.1393 52.8346 0.0276936
9.23416 53.8878 2
7.1926 55.0321 3.98415
6.31991 58.3339 4
8.38257 56.9794 2
10.3246 55.7095 0.0230919
7.74924 60.3285 2
9.69965 58.8497 0.0145301
9.30605 62.2254 0
13.2302 25.362 3.97144
12.8305 23.2825 3.97012
13.9622 21.7527 2
12.2365 20.5505 3.97375
15.1475 20.1855 0.0262813
13.4498 18.8993 2
11.658 17.5637 3.9805
14.7475 17.3023 0.0207275
13.0278 15.8811 2
11.2193 14.3721 3.98834
14.4822 14.289 0.0168082
12.7812 12.6875 2
10.9835 10.9835 4
14.4442 11.1136 0.00837816
12.7745 9.306 2
14.6715 7.74927 0
20.6729 33.3944 3.97462
23.1486 33.7995 2
25.4732 34.2626 0.0110144
15.9183 26.3987 3.97029
17.6348 24.0398 2
17.8594 22.3225 0.0167511
14.3159 24.4497 2
15.5317 22.9204 0.0299943
18.4261 30.1713 3.97291
19.0717 27.2013 2
19.6719 24.3796 0.0306804
21.2376 30.6622 2
21.9666 27.8219 0.0290794
23.807 31.1851 0.0254265
17.7625 35.9628 3.97595
20.311 35.923 2
22.574 36.2777 0.0225313
20.7635 40.6361 0.0224314
20.1752 37.7844 0.0230253
18.1338 39.0007 2
14.362 39.1751 3.97354
17.3973 42.1002 0.0239295
14.8319 41.9171 2
12.4083 42.2757 3.97055
14.8602 44.1998 0.0274914
12.7103 44.3914 2
10.5662 44.8025 3.96969
12.9675 46.2955 0.0294478
10.9893 46.7337 2
8.91017 47.3192 3.97129
11.4883 48.5494 0.029343
9.52819 49.2396 2
7.43384 50.0352 3.97547
10.2649 51.0792 0.0276647
8.26712 52.0012 2
6.13325 53.0068 3.98463
9.23387 53.8881 0.0236627
7.19206 55.0294 2
5.0241 56.25 4
6.31988 58.3339 2
8.38349 56.9821 0.0157812
7.74927 60.3285 0
13.4698 26.8136 3.97031
11.9419 24.7883 3.97159
13.2305 25.3617 2
11.1413 22.2361 3.97169
12.831 23.2821 2
13.9619 21.7534 0.0294159
12.237 20.5495 2
10.3891 19.3191 3.9786
13.4495 18.9006 0.0237479
11.6581 17.5626 2
9.76026 16.1559 3.98658
13.0278 15.8822 0.0178398
11.2185 14.3728 2
9.30607 12.7746 4
12.7817 12.687 0.00979558
10.9835 10.9835 2
12.7746 9.30605 0
17.925 33.1095 3.97483
20.6737 33.3945 2
23.1431 33.7993 0.023326
15.5189 29.6353 3.97178
15.9174 26.3983 2
17.6347 24.0403 0.0296786
14.3156 24.45 0.0295217
18.4274 30.1713 2
19.0728 27.2016 0.0296706
21.232 30.6621 0.0277686
14.969 36.0173 3.97403
17.7625 35.9629 2
20.3096 35.923 0.0236906
12.6346 37.8285 3.97316
18.1328 39.0006 0.0241936
14.3625 39.1751 2
11.9316 40.1396 3.9713
14.8318 41.9172 0.0269081
12.4081 42.2757 2
10.1666 42.7776 3.96897
12.7102 44.3914 0.0296081
10.5662 44.8025 2
8.38811 45.3213 3.97062
10.9893 46.7337 0.0299048
8.91021 47.3192 2
6.72512 48.0006 3.97498
9.52802 49.2396 0.0281446
7.434 50.0348 2
5.21012 50.9101 3.98466
8.26685 52.0016 0.0239474
6.13294 53.0048 2
3.86727 54.0858 4
7.1926 55.0321 0.015847
5.02404 56.25 2
6.31991 58.3339 0
12.9297 29.032 3.97004
11.3715 26.4872 3.9703
13.4692 26.8133 2
10.1999 23.9683 3.9724
11.9423 24.788 2
13.2302 25.362 0.0285564
9.24255 21.1387 3.97616
11.1419 22.2355 2
12.8305 23.2825 0.0298797
12.2365 20.5505 0.0262543
10.3895 19.3183 2
8.41627 18.0275 3.98524
11.658 17.5637 0.0195024
9.75933 16.1573 2
7.74928 14.6715 4
11.2193 14.3721 0.0116569
9.30602 12.7745 2
10.9835 10.9835 0
14.5292 32.8616 3.97315
17.9257 33.1096 2
20.6729 33.3944 0.0253839
15.519 29.6351 2
15.9183 26.3987 0.0297054
18.4261 30.1713 0.0270949
12.929 36.2084 3.97237
14.9692 36.0173 2
17.7625 35.9628 0.0240541
12.635 37.8285 2
11.2867 38.3091 3.97178
14.362 39.1751 0.0264617
11.9319 40.1395 2
9.75593 40.7539 3.96928
12.4083 42.2757 0.0294452
10.1666 42.7776 2
7.93815 43.27 3.96948
10.5662 44.8025 0.0303085
8.3881 45.3213 2
6.13143 45.9058 3.9744
8.91017 47.3192 0.028715
6.72515 48.0003 2
4.42176 48.7511 3.98436
7.43384 50.0352 0.0245282
5.20995 50.9089 2
2.85457 51.8506 4
6.13325 53.0068 0.0153729
3.86727 54.0858 2
5.0241 56.25 0
12.0764 31.2556 3.97104
10.7836 28.4144 3.96954
12.9296 29.0319 2
9.41457 25.798 3.97148
11.3716 26.4869 2
13.4698 26.8136 0.029686
8.22974 23.0235 3.97565
10.2004 23.968 2
11.9419 24.7883 0.0284103
7.19873 19.9783 3.98407
9.24319 21.1385 2
11.1413 22.2361 0.0283068
10.3891 19.3191 0.021399
8.41554 18.0297 2
6.31992 16.6661 4
9.76026 16.1559 0.0134154
7.74926 14.6714 2
9.30607 12.7746 0
12.1117 34.2941 3.97244
14.529 32.8616 2
17.925 33.1095 0.0251689
15.5189 29.6353 0.0282178
10.8495 36.6106 3.97152
12.9292 36.2084 2
14.969 36.0173 0.0259721
12.6346 37.8285 0.0268424
11.287 38.309 2
9.35207 38.8231 3.96969
11.9316 40.1396 0.028705
9.75627 40.7538 2
7.54988 41.2111 3.96922
10.1666 42.7776 0.0310339
7.93819 43.2699 2
5.64397 43.7686 3.97352
8.38811 45.3213 0.0293821
6.13142 45.9056 2
3.76749 46.537 3.98385
6.72512 48.0006 0.0250159
4.42168 48.7505 2
1.99014 49.554 4
5.21012 50.9101 0.0153364
2.85451 51.8506 2
3.86727 54.0858 0
10.931 32.9185 3.97172
10.0974 30.3815 3.96945
12.0766 31.2556 2
8.72285 27.7317 3.97065
10.7836 28.4142 2
12.9297 29.032 0.0299579
7.35516 24.9823 3.97523
9.41478 25.7977 2
11.3715 26.4872 0.0296998
6.11575 22.0024 3.98424
8.23031 23.0235 2
10.1999 23.9683 0.0276013
5.02411 18.75 4
7.19844 19.9806 2
9.24255 21.1387 0.0238391
8.41627 18.0275 0.0147615
6.3199 16.6661 2
7.74928 14.6715 0
10.456 34.9996 3.97129
12.1121 34.2941 2
14.5292 32.8616 0.0268544
9.02213 36.9846 3.96994
10.85 36.6106 2
12.929 36.2084 0.0276267
11.2867 38.3091 0.0282206
9.35229 38.823 2
7.23054 39.1819 3.96948
9.75593 40.7539 0.0307227
7.55008 41.211 2
5.25973 41.6142 3.97274
7.93815 43.27 0.0305167
5.644 43.7684 2
3.24543 44.282 3.98308
6.13143 45.9058 0.0255975
3.76749 46.5368 2
1.27781 47.2057 4
4.42176 48.7511 0.0156403
1.99012 49.554 2
2.85457 51.8506 0
10.0956 33.881 3.97126
9.3895 32.154 3.9699
10.9311 32.9185 2
8.0722 29.6952 3.9702
10.0974 30.3814 2
12.0764 31.2556 0.0289644
6.59914 27.0083 3.97445
8.72287 27.7315 2
10.7836 28.4144 0.030463
5.17107 24.0953 3.98456
7.35544 24.9823 2
9.41457 25.798 0.0285199
3.86728 20.9142 4
6.11569 22.004 2
8.22974 23.0235 0.0243515
5.02406 18.75 2
7.19873 19.9783 0.0159328
6.31992 16.6661 0
8.84689 35.2791 3.97019
10.4562 34.9995 2
12.1117 34.2941 0.027556
7.01421 37.2057 3.9697
9.02202 36.9845 2
10.8495 36.6106 0.0284838
9.35207 38.8231 0.0303071
7.23063 39.1818 2
4.98777 39.4675 3.97245
7.54988 41.2111 0.0307771
5.25992 41.614 2
2.85611 42.0024 3.98244
5.64397 43.7686 0.0264778
3.24549 44.2819 2
0.720592 44.8159 4
3.76749 46.537 0.016151
1.27778 47.2057 2
1.99014 49.554 0
8.88548 33.6974 3.97035
10.0958 33.8809 2
7.50976 31.6089 3.97036
9.38953 32.1539 2
10.931 32.9185 0.0282814
5.94453 29.0693 3.97404
8.07211 29.6951 2
10.0974 30.3815 0.0305482
4.35889 26.2478 3.98407
6.59921 27.0083 2
8.72285 27.7317 0.0293547
2.85458 23.1494 4
5.17104 24.0961 2
7.35516 24.9823 0.0247689
3.86728 20.9142 2
6.11575 22.0024 0.0157594
5.02411 18.75 0
6.96433 35.3058 3.96989
8.84716 35.279 2
10.456 34.9996 0.0287069
4.83785 37.3398 3.97289
7.0143 37.2056 2
9.02213 36.9846 0.030059
7.23054 39.1819 0.0305207
4.98785 39.4674 2
2.60435 39.7141 3.98197
5.25973 41.6142 0.0272559
2.85633 42.0026 2
0.320823 42.3947 4
3.24543 44.282 0.0169229
0.720551 44.8159 2
1.27781 47.2057 0
7.12378 33.4607 3.97049
8.88558 33.6973 2
10.0956 33.881 0.0287372
5.41555 31.1333 3.97393
7.50973 31.6088 2
9.3895 32.154 0.0300999
3.68077 28.4436 3.98346
5.94445 29.0694 2
8.0722 29.6952 0.0297994
1.99015 25.446 4
4.3589 26.248 2
6.59914 27.0083 0.0255514
2.85453 23.1494 2
5.17107 24.0953 0.0154361
3.86728 20.9142 0
4.85208 35.2514 3.97305
6.96453 35.3058 2
8.84689 35.2791 0.0298083
2.49572 37.4286 3.98238
4.83793 37.3399 2
7.01421 37.2057 0.0303019
4.98777 39.4675 0.0275459
2.60448 39.7144 2
0.080333 39.9526 4
2.85611 42.0024 0.0175578
0.320817 42.3947 2
0.720592 44.8159 0
5.04515 33.1899 3.97368
7.12388 33.4606 2
8.88548 33.6974 0.0296465
3.14519 30.6662 3.98295
5.4155 31.1334 2
7.50976 31.6089 0.0296397
1.27793 27.7943 4
3.68077 28.4436 2
5.94453 29.0693 0.0259585
1.99013 25.446 2
4.35889 26.2478 0.0159342
2.85458 23.1494 0
2.54783 35.1591 3.98252
4.85228 35.2516 2
6.96433 35.3058 0.0301123
0 37.5 4
2.49586 37.4289 2
4.83785 37.3398 0.0271135
2.60435 39.7141 0.0180339
0.0802903 39.9526 2
0.320823 42.3947 0
2.76531 32.9058 3.98281
5.04526 33.1901 2
7.12378 33.4607 0.0295096
0.721173 30.1842 4
3.14524 30.6664 2
5.41555 31.1333 0.0260732
1.27779 27.7943 2
3.68077 28.4436 0.0165378
1.99015 25.446 0
0.0806499 35.0474 4
2.54806 35.1594 2
4.85208 35.2514 0.0269456
0 37.5 2
2.49572 37.4286 0.0176191
0.080333 39.9526 0
0.32156 32.6054 4
2.76544 32.9062 2
5.04515 33.1899 0.0263233
0.72056 30.1841 2
3.14519 30.6662 0.0170493
1.27793 27.7943 0
0.0802889 35.0474 2
2.54783 35.1591 0.0174766
0 37.5 0
0.320817 32.6053 2
2.76531 32.9058 0.017191
0.721173 30.1842 0
0.0806499 35.0474 0
0.32156 32.6054 0
CELLS 1910 17190
8 18 6 25 56 2 0 5 16
8 57 23 6 18 17 4 0 2
8 78 36 9 29 31 11 1 7
8 31 11 1 7 79 37 10 30
8 110 57 18 50 48 17 2 14
8 50 18 56 111 14 2 16 49
8 116 62 22 55 52 20 3 15
8 56 25 67 118 16 5 24 53
8 119 63 23 57 54 21 4 17
8 55 22 63 119 15 3 21 54
8 58 26 68 121 18 6 25 56
8 122 65 26 58 57 23 6 18
8 73 31 7 27 142 79 30 71
8 143 78 29 72 73 31 7 27
8 83 147 76 34 32 74 28 8
8 84 148 78 36 33 75 29 9
8 76 34 8 28 148 84 33 75
8 37 79 150 86 10 30 77 35
8 151 87 36 78 80 38 11 31
8 80 38 11 31 152 88 37 79
8 175 100 42 94 96 44 12 40
8 44 96 176 101 12 40 95 43
8 101 176 98 46 43 95 41 13
8 46 98 178 103 13 41 97 45
8 178 103 45 97 147 83 32 74
8 189 116 55 109 106 52 15 47
8 111 56 118 191 49 16 53 107
8 192 119 57 110 108 54 17 48
8 109 55 119 192 47 15 54 108
8 194 122 58 112 110 57 18 50
8 112 58 121 195 50 18 56 111
8 115 61 19 51 197 124 59 113
8 115 61 125 198 51 19 60 114
8 198 125 62 116 114 60 20 52
8 200 127 64 120 116 62 22 55
8 118 67 132 202 53 24 66 117
8 121 68 133 203 56 25 67 118
8 120 64 128 204 55 22 63 119
8 204 128 65 122 119 63 23 57
8 206 134 68 121 123 69 26 58
8 123 69 26 58 207 131 65 122
8 226 147 74 138 140 76 28 70
8 229 148 75 139 143 78 29 72
8 140 76 28 70 229 148 75 139
8 142 79 30 71 231 150 77 141
8 144 80 31 73 232 152 79 142
8 233 151 78 143 144 80 31 73
8 150 86 35 77 235 154 81 145
8 235 154 81 145 146 82 39 91
8 146 82 39 91 236 155 90 165
8 238 157 83 147 149 85 34 76
8 239 158 84 148 151 87 36 78
8 149 85 34 76 239 158 84 148
8 152 88 37 79 241 160 86 150
8 242 161 87 151 153 89 38 80
8 153 89 38 80 243 162 88 152
8 171 98 41 92 265 178 97 169
8 265 178 97 169 226 147 74 138
8 172 96 40 93 266 176 95 170
8 266 176 95 170 171 98 41 92
8 269 175 94 173 172 96 40 93
8 271 180 99 174 175 100 42 94
8 197 124 59 113 271 180 99 174
8 272 181 100 175 177 102 44 96
8 273 182 101 176 179 104 46 98
8 177 102 44 96 273 182 101 176
8 179 104 46 98 275 184 103 178
8 275 184 103 178 238 157 83 147
8 188 115 51 105 283 197 113 186
8 188 115 198 284 105 51 114 187
8 284 198 116 189 187 114 52 106
8 286 200 120 193 189 116 55 109
8 191 118 202 288 107 53 117 190
8 195 121 203 289 111 56 118 191
8 193 120 204 290 109 55 119 192
8 290 204 122 194 192 119 57 110
8 196 123 58 112 292 207 122 194
8 293 206 121 195 196 123 58 112
8 199 126 61 115 297 211 124 197
8 298 212 127 200 198 125 62 116
8 199 126 212 298 115 61 125 198
8 205 129 64 120 300 214 127 200
8 301 217 130 201 202 132 66 117
8 209 136 168 264 301 217 130 201
8 302 219 132 202 203 133 67 118
8 303 220 133 203 206 134 68 121
8 205 129 215 304 120 64 128 204
8 304 215 131 207 204 128 65 122
8 306 221 134 206 208 135 69 123
8 208 135 69 123 307 218 131 207
8 210 137 167 263 309 223 136 209
8 328 238 147 226 230 149 76 140
8 228 146 91 166 329 236 165 260
8 231 150 77 141 330 235 145 227
8 330 235 145 227 228 146 91 166
8 332 239 148 229 233 151 78 143
8 230 149 76 140 332 239 148 229
8 232 152 79 142 334 241 150 231
8 234 153 80 144 335 243 152 232
8 336 242 151 233 234 153 80 144
8 236 155 90 165 338 245 164 259
8 241 160 86 150 339 246 154 235
8 339 246 154 235 237 156 82 146
8 237 156 82 146 340 247 155 236
8 342 249 157 238 240 159 85 149
8 343 250 158 239 242 161 87 151
8 240 159 85 149 343 250 158 239
8 243 162 88 152 345 252 160 241
8 244 163 253 346 153 89 161 242
8 244 163 89 153 347 254 162 243
8 311 224 261 371 210 137 167 263
8 263 167 262 372 209 136 168 264
8 267 179 98 171 375 275 178 265
8 375 275 178 265 328 238 147 226
8 376 273 176 266 267 179 98 171
8 268 177 96 172 376 273 176 266
8 379 272 175 269 268 177 96 172
8 380 271 174 270 269 175 94 173
8 283 197 113 186 380 271 174 270
8 381 277 180 271 272 181 100 175
8 297 211 124 197 381 277 180 271
8 382 278 181 272 274 183 102 177
8 274 183 102 177 383 279 182 273
8 383 279 182 273 276 185 104 179
8 385 281 184 275 342 249 157 238
8 276 185 104 179 385 281 184 275
8 285 199 115 188 393 297 197 283
8 394 298 200 286 284 198 116 189
8 285 199 298 394 188 115 198 284
8 291 205 120 193 396 300 200 286
8 397 301 201 287 288 202 117 190
8 295 209 264 374 397 301 201 287
8 398 302 202 288 289 203 118 191
8 399 303 203 289 293 206 121 195
8 291 205 304 400 193 120 204 290
8 400 304 207 292 290 204 122 194
8 294 208 123 196 402 307 207 292
8 403 306 206 293 294 208 123 196
8 296 210 263 373 405 309 209 295
8 408 312 213 299 297 211 126 199
8 299 213 313 409 199 126 212 298
8 409 313 214 300 298 212 127 200
8 305 216 129 205 411 315 214 300
8 412 318 217 301 302 219 132 202
8 309 223 136 209 412 318 217 301
8 413 320 219 302 303 220 133 203
8 306 221 321 414 206 134 220 303
8 307 218 131 207 415 316 215 304
8 305 216 316 415 205 129 215 304
8 417 322 221 306 308 222 135 208
8 308 222 135 208 418 319 218 307
8 310 225 137 210 420 325 223 309
8 423 326 224 311 310 225 137 210
8 329 236 165 260 441 338 259 368
8 442 342 238 328 333 240 149 230
8 331 237 146 228 443 340 236 329
8 334 241 150 231 444 339 235 330
8 444 339 235 330 331 237 146 228
8 446 343 239 332 336 242 151 233
8 333 240 149 230 446 343 239 332
8 335 243 152 232 448 345 241 334
8 337 244 153 234 449 347 243 335
8 337 244 346 450 234 153 242 336
8 338 245 164 259 452 349 258 367
8 340 247 155 236 453 350 245 338
8 345 252 160 241 454 351 246 339
8 454 351 246 339 341 248 156 237
8 341 248 156 237 455 352 247 340
8 240 159 251 344 342 249 354 457
8 242 161 253 346 343 250 355 458
8 343 250 355 458 240 159 251 344
8 347 254 162 243 460 357 252 345
8 348 255 358 461 244 163 253 346
8 348 255 163 244 462 359 254 347
8 473 360 257 365 363 256 364 482
8 452 349 258 367 365 257 366 485
8 422 324 369 488 311 224 261 371
8 371 261 370 490 263 167 262 372
8 407 311 371 491 296 210 263 373
8 373 263 372 492 295 209 264 374
8 493 385 275 375 442 342 238 328
8 377 276 179 267 493 385 275 375
8 378 274 177 268 494 383 273 376
8 494 383 273 376 377 276 179 267
8 497 382 272 379 378 274 177 268
8 498 381 271 380 379 272 175 269
8 393 297 197 283 498 381 271 380
8 499 387 277 381 382 278 181 272
8 408 312 211 297 499 387 277 381
8 500 388 278 382 384 280 183 274
8 501 389 279 383 386 282 185 276
8 384 280 183 274 501 389 279 383
8 386 282 185 276 503 391 281 385
8 503 391 281 385 457 354 249 342
8 511 408 299 395 393 297 199 285
8 395 299 409 512 285 199 298 394
8 512 409 300 396 394 298 200 286
8 401 305 205 291 514 411 300 396
8 515 412 301 397 398 302 202 288
8 405 309 209 295 515 412 301 397
8 516 413 302 398 399 303 203 289
8 403 306 414 517 293 206 303 399
8 402 307 207 292 518 415 304 400
8 401 305 415 518 291 205 304 400
8 404 308 208 294 520 418 307 402
8 521 417 306 403 404 308 208 294
8 406 310 210 296 523 420 309 405
8 526 423 311 407 406 310 210 296
8 410 314 213 299 527 424 312 408
8 528 425 315 411 409 313 214 300
8 410 314 425 528 299 213 313 409
8 416 317 216 305 530 427 315 411
8 531 430 318 412 413 320 219 302
8 420 325 223 309 531 430 318 412
8 532 432 320 413 414 321 220 303
8 417 322 433 533 306 221 321 414
8 418 319 218 307 534 428 316 415
8 416 317 428 534 305 216 316 415
8 419 323 434 536 308 222 322 417
8 419 323 222 308 537 431 319 418
8 421 327 225 310 539 438 325 420
8 421 327 439 541 310 225 326 423
8 543 437 324 422 423 326 224 311
8 441 338 259 368 559 452 367 486
8 443 340 236 329 560 453 338 441
8 333 240 344 447 442 342 457 561
8 445 341 237 331 562 455 340 443
8 448 345 241 334 563 454 339 444
8 563 454 339 444 445 341 237 331
8 336 242 346 450 446 343 458 565
8 446 343 458 565 333 240 344 447
8 449 347 243 335 567 460 345 448
8 451 348 244 337 568 462 347 449
8 451 348 461 569 337 244 346 450
8 570 463 349 452 473 360 257 365
8 453 350 245 338 570 463 349 452
8 455 352 247 340 571 464 350 453
8 460 357 252 345 572 465 351 454
8 572 465 351 454 456 353 248 341
8 456 353 248 341 573 466 352 455
8 344 251 356 459 457 354 468 575
8 458 355 469 576 344 251 356 459
8 346 253 358 461 458 355 469 576
8 462 359 254 347 578 471 357 460
8 348 255 359 462 461 358 472 579
8 591 474 360 473 475 361 256 363
8 475 361 256 363 594 477 362 479
8 363 256 364 482 479 362 480 603
8 590 473 365 484 481 363 482 605
8 482 364 257 365 606 483 366 485
8 559 452 367 486 484 365 485 607
8 542 436 487 609 422 324 369 488
8 525 422 488 611 407 311 371 491
8 488 369 489 612 371 261 370 490
8 491 371 490 613 373 263 372 492
8 495 386 276 377 614 503 385 493
8 614 503 385 493 561 457 342 442
8 615 501 383 494 495 386 276 377
8 496 384 274 378 615 501 383 494
8 618 500 382 497 496 384 274 378
8 619 499 381 498 497 382 272 379
8 511 408 297 393 619 499 381 498
8 620 505 387 499 500 388 278 382
8 527 424 312 408 620 505 387 499
8 502 390 506 621 384 280 388 500
8 622 507 389 501 504 392 282 386
8 502 390 280 384 622 507 389 501
8 504 392 282 386 624 509 391 503
8 624 509 391 503 575 468 354 457
8 513 410 299 395 630 527 408 511
8 631 528 411 514 512 409 300 396
8 513 410 528 631 395 299 409 512
8 519 416 305 401 633 530 411 514
8 634 531 412 515 516 413 302 398
8 523 420 309 405 634 531 412 515
8 635 532 413 516 517 414 303 399
8 521 417 533 636 403 306 414 517
8 520 418 307 402 637 534 415 518
8 519 416 534 637 401 305 415 518
8 522 419 308 404 639 537 418 520
8 522 419 536 640 404 308 417 521
8 524 421 310 406 642 539 420 523
8 524 421 541 644 406 310 423 526
8 646 543 422 525 526 423 311 407
8 529 426 314 410 647 544 424 527
8 528 425 545 648 411 315 427 530
8 529 426 545 648 410 314 425 528
8 535 429 317 416 649 546 427 530
8 650 548 430 531 532 432 320 413
8 539 438 325 420 650 548 430 531
8 533 433 550 651 414 321 432 532
8 536 434 551 652 417 322 433 533
8 537 431 319 418 653 547 428 534
8 535 429 547 653 416 317 428 534
8 538 435 552 654 419 323 434 536
8 538 435 323 419 655 549 431 537
8 540 440 327 421 657 556 438 539
8 540 440 557 659 421 327 439 541
8 541 439 555 660 423 326 437 543
8 661 554 436 542 543 437 324 422
8 676 570 452 559 590 473 365 484
8 560 453 338 441 676 570 452 559
8 562 455 340 443 677 571 453 560
8 447 344 459 566 561 457 575 678
8 564 456 341 445 679 573 455 562
8 567 460 345 448 680 572 454 563
8 680 572 454 563 564 456 341 445
8 565 458 576 682 447 344 459 566
8 450 346 461 569 565 458 576 682
8 568 462 347 449 684 578 460 567
8 451 348 462 568 569 461 579 685
8 686 580 463 570 591 474 360 473
8 571 464 350 453 686 580 463 570
8 573 466 352 455 687 581 464 571
8 572 465 582 688 460 357 471 578
8 574 467 582 688 456 353 465 572
8 574 467 353 456 689 583 466 573
8 459 356 470 577 575 468 585 691
8 576 469 586 692 459 356 470 577
8 461 358 472 579 576 469 586 692
8 462 359 471 578 579 472 588 694
8 704 591 473 590 593 475 363 481
8 595 476 592 705 475 361 474 591
8 593 475 363 481 707 594 479 602
8 594 477 362 479 709 598 478 600
8 595 476 361 475 711 597 477 594
8 479 362 480 603 600 478 601 720
8 481 363 482 605 602 479 603 722
8 603 480 364 482 723 604 483 606
8 605 482 365 484 724 606 485 607
8 656 553 608 726 542 436 487 609
8 645 542 609 728 525 422 488 611
8 609 487 610 729 488 369 489 612
8 611 488 612 730 491 371 490 613
8 616 504 386 495 731 624 503 614
8 731 624 503 614 678 575 457 561
8 732 622 501 615 616 504 386 495
8 617 502 384 496 732 622 501 615
8 617 502 621 735 496 384 500 618
8 736 620 499 619 618 500 382 497
8 630 527 408 511 736 620 499 619
8 621 506 626 737 500 388 505 620
8 647 544 424 527 737 626 505 620
8 623 508 627 738 502 390 506 621
8 623 508 390 502 739 628 507 622
8 625 510 628 739 504 392 507 622
8 740 629 509 624 691 585 468 575
8 625 510 392 504 740 629 509 624
8 632 529 410 513 744 647 527 630
8 631 528 648 745 514 411 530 633
8 632 529 648 745 513 410 528 631
8 638 535 416 519 746 649 530 633
8 747 650 531 634 635 532 413 516
8 642 539 420 523 747 650 531 634
8 636 533 651 748 517 414 532 635
8 640 536 652 749 521 417 533 636
8 639 537 418 520 750 653 534 637
8 638 535 653 750 519 416 534 637
8 641 538 419 522 751 655 537 639
8 641 538 654 752 522 419 536 640
8 643 540 421 524 753 657 539 642
8 643 540 659 755 524 421 541 644
8 644 541 660 757 526 423 543 646
8 758 661 542 645 646 543 422 525
8 529 426 544 647 648 545 662 759
8 530 427 545 648 649 546 663 760
8 535 429 546 649 653 547 664 761
8 762 666 548 650 651 550 432 532
8 657 556 438 539 762 666 548 650
8 652 551 668 763 533 433 550 651
8 654 552 669 764 536 434 551 652
8 655 549 431 537 765 665 547 653
8 538 435 549 655 654 552 667 766
8 661 554 671 768 542 436 553 656
8 658 558 440 540 769 674 556 657
8 658 558 675 770 540 440 557 659
8 659 557 673 771 541 439 555 660
8 660 555 672 772 543 437 554 661
8 788 686 570 676 704 591 473 590
8 677 571 453 560 788 686 570 676
8 679 573 455 562 789 687 571 677
8 566 459 577 683 678 575 691 790
8 681 574 456 564 791 689 573 679
8 680 572 688 792 567 460 578 684
8 681 574 688 792 564 456 572 680
8 682 576 692 794 566 459 577 683
8 569 461 579 685 682 576 692 794
8 568 462 578 684 685 579 694 796
8 687 581 464 571 798 696 580 686
8 798 696 580 686 705 592 474 591
8 689 583 466 573 799 697 581 687
8 688 582 698 800 578 471 588 694
8 690 584 698 800 574 467 582 688
8 690 584 467 574 801 699 583 689
8 693 587 701 803 577 470 585 691
8 693 587 470 577 804 702 586 692
8 695 589 702 804 579 472 586 692
8 695 589 472 579 805 703 588 694
8 708 595 705 813 593 475 591 704
8 710 596 706 814 595 476 592 705
8 707 594 479 602 816 709 600 719
8 708 595 475 593 817 711 594 707
8 709 598 478 600 819 715 599 717
8 711 597 477 594 820 714 598 709
8 710 596 476 595 822 713 597 711
8 600 478 601 720 717 599 718 832
8 602 479 603 722 719 600 720 834
8 720 601 480 603 835 721 604 723
8 722 603 482 605 836 723 606 724
8 767 670 725 839 656 553 608 726
8 756 656 726 841 645 542 609 728
8 726 608 727 842 609 487 610 729
8 728 609 729 843 611 488 612 730
8 844 740 624 731 790 691 575 678
8 733 625 504 616 844 740 624 731
8 734 623 502 617 845 739 622 732
8 733 625 739 845 616 504 622 732
8 734 623 738 846 617 502 621 735
8 735 621 737 847 618 500 620 736
8 744 647 527 630 847 737 620 736
8 621 506 627 738 737 626 741 848
8 647 544 626 737 759 662 741 848
8 623 508 628 739 738 627 742 849
8 740 629 585 691 850 743 700 802
8 625 510 629 740 739 628 743 850
8 632 529 647 744 745 648 759 854
8 633 530 648 745 746 649 760 855
8 638 535 649 746 750 653 761 856
8 857 762 650 747 748 651 532 635
8 753 657 539 642 857 762 650 747
8 749 652 763 858 636 533 651 748
8 752 654 764 859 640 536 652 749
8 751 655 537 639 860 765 653 750
8 641 538 655 751 752 654 766 861
8 754 658 540 643 862 769 657 753
8 754 658 770 863 643 540 659 755
8 755 659 771 864 644 541 660 757
8 758 661 768 866 645 542 656 756
8 757 660 772 867 646 543 661 758
8 759 662 773 868 648 545 663 760
8 649 546 663 760 761 664 774 871
8 765 665 547 653 872 775 664 761
8 873 777 666 762 763 668 550 651
8 769 674 556 657 873 777 666 762
8 764 669 779 874 652 551 668 763
8 654 552 667 766 764 669 778 875
8 655 549 665 765 766 667 776 876
8 768 671 782 877 656 553 670 767
8 772 672 783 878 661 554 671 768
8 658 558 674 769 770 675 786 879
8 659 557 675 770 771 673 785 881
8 882 784 672 772 771 673 555 660
8 789 687 571 677 897 798 686 788
8 897 798 686 788 813 705 591 704
8 791 689 573 679 898 799 687 789
8 795 693 803 900 683 577 691 790
8 793 690 574 681 901 801 689 791
8 792 688 800 902 684 578 694 796
8 793 690 800 902 681 574 688 792
8 795 693 577 683 903 804 692 794
8 797 695 804 903 685 579 692 794
8 797 695 579 685 904 805 694 796
8 905 806 697 799 798 696 581 687
8 814 706 806 905 705 592 696 798
8 689 583 697 799 801 699 808 907
8 800 698 809 908 694 588 703 805
8 690 584 699 801 800 698 809 908
8 803 701 810 909 691 585 700 802
8 693 587 702 804 803 701 811 910
8 695 589 703 805 804 702 812 911
8 818 710 814 919 708 595 705 813
8 821 712 815 920 710 596 706 814
8 816 709 600 719 922 819 717 831
8 817 711 594 707 923 820 709 816
8 818 710 595 708 924 822 711 817
8 819 715 599 717 926 827 716 829
8 820 714 598 709 927 826 715 819
8 929 825 713 822 820 714 597 711
8 821 712 596 710 930 824 713 822
8 717 599 718 832 829 716 830 942
8 719 600 720 834 831 717 832 944
8 832 718 601 720 945 833 721 835
8 834 720 603 722 946 835 723 836
8 869 780 838 950 767 670 725 839
8 865 767 839 952 756 656 726 841
8 839 725 840 953 726 608 727 842
8 841 726 842 954 728 609 729 843
8 844 740 691 790 955 850 802 899
8 733 625 740 844 845 739 850 955
8 734 623 739 845 846 738 849 956
8 735 621 738 846 847 737 848 957
8 744 647 737 847 854 759 848 957
8 738 627 742 849 848 741 851 958
8 848 741 851 958 759 662 773 868
8 850 743 700 802 959 852 807 906
8 849 742 628 739 959 852 743 850
8 854 759 868 965 745 648 760 855
8 746 649 760 855 856 761 871 966
8 860 765 653 750 967 872 761 856
8 968 873 762 857 858 763 651 748
8 862 769 657 753 968 873 762 857
8 859 764 874 969 749 652 763 858
8 752 654 766 861 859 764 875 970
8 751 655 765 860 861 766 876 971
8 754 658 769 862 863 770 879 972
8 755 659 770 863 864 771 881 974
8 976 882 772 867 864 771 660 757
8 866 768 877 977 756 656 767 865
8 867 772 878 978 758 661 768 866
8 760 663 773 868 871 774 883 980
8 870 781 837 948 982 890 780 869
8 982 890 780 869 877 782 670 767
8 761 664 774 871 872 775 884 984
8 876 776 665 765 985 885 775 872
8 873 777 668 763 986 887 779 874
8 769 674 777 873 879 786 887 986
8 764 669 778 875 874 779 888 987
8 766 667 776 876 875 778 886 988
8 878 783 892 989 768 671 782 877
8 878 783 672 772 990 893 784 882
8 880 787 675 770 991 896 786 879
8 880 787 895 992 770 675 785 881
8 881 785 894 993 771 673 784 882
8 1006 905 799 898 897 798 687 789
8 919 814 905 1006 813 705 798 897
8 791 689 799 898 901 801 907 1007
8 900 803 909 1009 790 691 802 899
8 795 693 804 903 900 803 910 1010
8 902 800 908 1011 796 694 805 904
8 793 690 801 901 902 800 908 1011
8 797 695 805 904 903 804 911 1012
8 799 697 806 905 907 808 912 1013
8 920 815 912 1013 814 706 806 905
8 802 700 810 909 906 807 913 1014
8 801 699 808 907 908 809 914 1015
8 805 703 809 908 911 812 915 1016
8 803 701 811 910 909 810 916 1017
8 911 812 917 1018 804 702 811 910
8 925 821 920 1030 818 710 814 919
8 928 823 921 1031 821 712 815 920
8 922 819 717 831 1033 926 829 941
8 923 820 709 816 1034 927 819 922
8 1035 929 822 924 923 820 711 817
8 925 821 710 818 1036 930 822 924
8 1038 933 825 929 927 826 714 820
8 926 827 716 829 1039 935 828 939
8 927 826 715 819 1040 934 827 926
8 928 823 712 821 1041 931 824 930
8 1042 932 824 930 929 825 713 822
8 829 716 830 942 939 828 940 1058
8 831 717 832 944 941 829 942 1060
8 942 830 718 832 1061 943 833 945
8 944 832 720 834 1062 945 835 946
8 981 889 947 1064 870 781 837 948
8 948 837 949 1067 869 780 838 950
8 975 869 950 1069 865 767 839 952
8 950 838 951 1070 839 725 840 953
8 952 839 953 1071 841 726 842 954
8 955 850 802 899 1072 959 906 1008
8 956 849 739 845 1072 959 850 955
8 846 738 849 956 957 848 958 1073
8 957 848 958 1073 854 759 868 965
8 849 742 852 959 958 851 961 1076
8 960 853 961 1076 906 807 852 959
8 958 851 961 1076 868 773 883 980
8 960 853 807 906 1077 963 913 1014
8 855 760 868 965 966 871 980 1085
8 856 761 871 966 967 872 984 1086
8 971 876 765 860 1087 985 872 967
8 968 873 763 858 1088 986 874 969
8 862 769 873 968 972 879 986 1088
8 859 764 875 970 969 874 987 1089
8 861 766 876 971 970 875 988 1090
8 973 880 770 863 1091 991 879 972
8 973 880 992 1092 863 770 881 974
8 974 881 993 1093 864 771 882 976
8 979 870 948 1066 1094 982 869 975
8 1094 982 869 975 977 877 767 865
8 978 878 772 867 1095 990 882 976
8 978 878 989 1096 866 768 877 977
8 871 774 883 980 984 884 994 1099
8 983 891 999 1100 870 781 889 981
8 1101 1000 890 982 989 892 782 877
8 983 891 781 870 1101 1000 890 982
8 872 775 884 984 985 885 995 1103
8 876 776 885 985 988 886 996 1104
8 986 887 779 874 1105 998 888 987
8 879 786 887 986 991 896 998 1105
8 875 778 886 988 987 888 997 1106
8 990 893 1002 1107 878 783 892 989
8 1108 1003 893 990 993 894 784 882
8 880 787 896 991 992 895 1005 1109
8 993 894 785 881 1110 1004 895 992
8 898 799 905 1006 1007 907 1013 1120
8 1030 920 1013 1120 919 814 905 1006
8 901 801 907 1007 1011 908 1015 1121
8 899 802 909 1009 1008 906 1014 1122
8 900 803 910 1010 1009 909 1017 1123
8 1012 911 1018 1124 903 804 910 1010
8 904 805 908 1011 1012 911 1016 1125
8 1013 912 1020 1127 907 808 914 1015
8 1031 921 1020 1127 920 815 912 1013
8 1019 918 962 1075 1128 1021 913 1014
8 1128 1021 913 1014 1017 916 810 909
8 1015 914 1022 1129 908 809 915 1016
8 1016 915 1023 1130 911 812 917 1018
8 1018 917 1024 1131 910 811 916 1017
8 1037 928 1031 1148 925 821 920 1030
8 928 823 931 1041 1031 921 1032 1149
8 1033 926 829 941 1151 1039 939 1057
8 1034 927 819 922 1152 1040 926 1033
8 1153 1038 929 1035 1034 927 820 923
8 1154 1042 930 1036 1035 929 822 924
8 1037 928 821 925 1155 1041 930 1036
8 1039 935 828 939 1156 1047 938 1055
8 1157 1043 932 1042 1038 933 825 929
8 1038 933 826 927 1158 1045 934 1040
8 1040 934 827 926 1159 1046 935 1039
8 930 824 932 1042 1041 931 1044 1160
8 1051 936 1048 1165 1175 1052 937 1053
8 1156 1047 938 1055 1053 937 1054 1178
8 939 828 940 1058 1055 938 1056 1181
8 941 829 942 1060 1057 939 1058 1183
8 942 830 943 1061 1058 940 1059 1184
8 1060 942 832 944 1185 1061 945 1062
8 1082 964 1063 1188 981 889 947 1064
8 1097 981 1064 1190 979 870 948 1066
8 1064 947 1065 1191 948 837 949 1067
8 1066 948 1067 1193 975 869 950 1069
8 1067 949 1068 1194 950 838 951 1070
8 1069 950 1070 1195 952 839 953 1071
8 956 849 959 1072 1073 958 1076 1197
8 1074 960 1076 1197 1008 906 959 1072
8 1073 958 1076 1197 965 868 980 1085
8 1074 960 906 1008 1198 1077 1014 1122
8 1133 1026 1079 1199 1019 918 962 1075
8 1077 963 913 1014 1200 1080 962 1075
8 960 853 963 1077 1076 961 1078 1201
8 980 883 961 1076 1099 994 1078 1201
8 1210 1083 964 1082 1100 999 889 981
8 966 871 980 1085 1086 984 1099 1215
8 967 872 984 1086 1087 985 1103 1216
8 971 876 985 1087 1090 988 1104 1217
8 1088 986 874 969 1218 1105 987 1089
8 972 879 986 1088 1091 991 1105 1218
8 970 875 988 1090 1089 987 1106 1219
8 973 880 991 1091 1092 992 1109 1220
8 1093 993 881 974 1221 1110 992 1092
8 1222 1108 990 1095 1093 993 882 976
8 1223 1101 982 1094 1096 989 877 977
8 1098 983 870 979 1223 1101 982 1094
8 1095 990 1107 1224 978 878 989 1096
8 1098 983 1100 1225 979 870 981 1097
8 984 884 994 1099 1103 995 1111 1227
8 1102 1001 1115 1228 983 891 999 1100
8 1101 1000 892 989 1229 1116 1002 1107
8 1102 1001 891 983 1229 1116 1000 1101
8 985 885 995 1103 1104 996 1112 1230
8 988 886 996 1104 1106 997 1113 1231
8 1105 998 888 987 1232 1114 997 1106
8 991 896 998 1105 1109 1005 1114 1232
8 1108 1003 1117 1233 990 893 1002 1107
8 1108 1003 894 993 1233 1117 1004 1110
8 992 895 1005 1109 1110 1004 1118 1234
8 1120 1013 1127 1244 1007 907 1015 1121
8 1148 1031 1127 1244 1030 920 1013 1120
8 1121 1015 1129 1245 1011 908 1016 1125
8 1126 1019 1075 1196 1246 1128 1014 1122
8 1246 1128 1014 1122 1123 1017 909 1009
8 1124 1018 1131 1247 1010 910 1017 1123
8 1125 1016 1130 1248 1012 911 1018 1124
8 1127 1020 1137 1254 1015 914 1022 1129
8 1031 921 1032 1149 1127 1020 1137 1254
8 1134 1027 918 1019 1257 1140 1021 1128
8 1257 1140 1021 1128 1131 1024 916 1017
8 1129 1022 1141 1258 1016 915 1023 1130
8 1130 1023 1142 1259 1018 917 1024 1131
8 1261 1144 1025 1132 1133 1026 1079 1199
8 1255 1138 1025 1132 1135 1028 1144 1261
8 1133 1026 918 1019 1262 1145 1027 1134
8 1136 1029 1139 1256 1263 1146 1028 1135
8 1037 928 1041 1155 1148 1031 1149 1275
8 1041 931 1044 1160 1149 1032 1150 1276
8 1151 1039 939 1057 1278 1156 1055 1180
8 1152 1040 926 1033 1279 1159 1039 1151
8 1153 1038 927 1034 1280 1158 1040 1152
8 1281 1157 1042 1154 1153 1038 929 1035
8 1036 930 1042 1154 1155 1041 1160 1282
8 1283 1164 1046 1159 1156 1047 935 1039
8 1165 1048 1164 1283 1053 937 1047 1156
8 1157 1043 933 1038 1284 1161 1045 1158
8 1157 1043 1161 1284 1042 932 1044 1160
8 1040 934 1046 1159 1158 1045 1163 1285
8 1166 1049 1167 1292 1051 936 1048 1165
8 1166 1049 936 1051 1293 1168 1050 1172
8 1051 936 1052 1175 1172 1050 1173 1306
8 1174 1051 1165 1290 1308 1175 1053 1177
8 1053 937 1054 1178 1175 1052 1176 1309
8 1278 1156 1055 1180 1177 1053 1178 1311
8 1055 938 1056 1181 1178 1054 1179 1312
8 1057 939 1058 1183 1180 1055 1181 1314
8 1058 940 1059 1184 1181 1056 1182 1315
8 1060 942 1061 1185 1183 1058 1184 1316
8 1208 1081 1187 1321 1082 964 1063 1188
8 1209 1082 1188 1322 1097 981 1064 1190
8 1188 1063 1189 1323 1064 947 1065 1191
8 1190 1064 1191 1325 1066 948 1067 1193
8 1191 1065 1192 1326 1067 949 1068 1194
8 1067 1193 1069 950 1194 1327 1195 1070
8 1250 1133 1199 1330 1126 1019 1075 1196
8 1198 1077 1014 1122 1331 1200 1075 1196
8 1074 960 1077 1198 1197 1076 1201 1332
8 1085 980 1076 1197 1215 1099 1201 1332
8 1199 1079 1203 1333 1075 962 1080 1200
8 1132 1025 1119 1243 1199 1079 1203 1333
8 1201 1078 963 1077 1334 1202 1080 1200
8 1099 994 1078 1201 1227 1111 1202 1334
8 1343 1207 1081 1208 1210 1083 964 1082
8 1214 1084 1186 1319 1343 1207 1081 1208
8 1345 1210 1082 1209 1225 1100 981 1097
8 1346 1211 1083 1210 1228 1115 999 1100
8 1086 984 1099 1215 1216 1103 1227 1352
8 1087 985 1103 1216 1217 1104 1230 1353
8 1090 988 1104 1217 1219 1106 1231 1354
8 1218 1105 987 1089 1355 1232 1106 1219
8 1091 991 1105 1218 1220 1109 1232 1355
8 1092 992 1109 1220 1221 1110 1234 1356
8 1222 1108 1233 1357 1095 990 1107 1224
8 1222 1108 993 1093 1357 1233 1110 1221
8 1223 1101 989 1096 1358 1229 1107 1224
8 1226 1102 983 1098 1358 1229 1101 1223
8 1226 1102 1228 1359 1098 983 1100 1225
8 1103 995 1111 1227 1230 1112 1235 1360
8 1107 1002 1117 1233 1229 1116 1240 1362
8 1102 1001 1116 1229 1228 1115 1240 1362
8 1104 996 1112 1230 1231 1113 1236 1363
8 1364 1237 1114 1232 1231 1113 997 1106
8 1109 1005 1114 1232 1234 1118 1238 1365
8 1110 1004 1118 1234 1233 1117 1241 1366
8 1242 1374 1255 1138 1119 1243 1132 1025
8 1244 1127 1254 1376 1121 1015 1129 1245
8 1148 1031 1149 1275 1244 1127 1254 1376
8 1245 1129 1258 1377 1125 1016 1130 1248
8 1251 1134 1019 1126 1378 1257 1128 1246
8 1378 1257 1128 1246 1247 1131 1017 1123
8 1248 1130 1259 1379 1124 1018 1131 1247
8 1261 1381 1250 1133 1132 1249 1330 1199
8 1255 1380 1252 1135 1132 1249 1381 1261
8 1250 1133 1019 1126 1382 1262 1134 1251
8 1253 1136 1256 1385 1384 1263 1135 1252
8 1254 1137 1265 1387 1129 1022 1141 1258
8 1149 1032 1150 1276 1254 1137 1265 1387
8 1028 1135 1255 1138 1139 1256 1388 1266
8 1136 1029 1147 1264 1256 1139 1267 1389
8 1390 1268 1140 1257 1259 1142 1024 1131
8 1260 1143 1027 1134 1390 1268 1140 1257
8 1258 1141 1269 1391 1130 1023 1142 1259
8 1262 1145 1027 1134 1393 1271 1143 1260
8 1261 1144 1026 1133 1394 1272 1145 1262
8 1135 1028 1144 1261 1263 1146 1272 1394
8 1136 1029 1146 1263 1264 1147 1273 1395
8 1155 1041 1160 1282 1275 1149 1276 1405
8 1276 1150 1044 1160 1406 1277 1162 1286
8 1408 1283 1159 1279 1278 1156 1039 1151
8 1290 1165 1283 1408 1177 1053 1156 1278
8 1152 1040 1159 1279 1280 1158 1285 1409
8 1281 1157 1038 1153 1410 1284 1158 1280
8 1281 1157 1284 1410 1154 1042 1160 1282
8 1159 1046 1164 1283 1285 1163 1289 1412
8 1292 1167 1289 1412 1165 1048 1164 1283
8 1158 1045 1163 1285 1284 1161 1288 1413
8 1284 1161 1288 1413 1160 1044 1162 1286
8 1291 1166 1292 1418 1174 1051 1165 1290
8 1291 1166 1051 1174 1419 1293 1172 1305
8 1294 1169 1296 1421 1166 1049 1167 1292
8 1293 1168 1050 1172 1422 1295 1171 1303
8 1294 1169 1049 1166 1423 1297 1168 1293
8 1422 1295 1171 1303 1301 1170 1302 1435
8 1172 1050 1173 1306 1303 1171 1304 1438
8 1174 1051 1175 1308 1305 1172 1306 1440
8 1175 1052 1176 1309 1306 1173 1307 1441
8 1177 1053 1178 1311 1308 1175 1309 1443
8 1178 1054 1179 1312 1309 1176 1310 1444
8 1180 1055 1181 1314 1311 1178 1312 1446
8 1056 1181 1312 1179 1182 1315 1447 1313
8 1183 1058 1184 1316 1314 1181 1315 1448
8 1319 1186 1084 1214 1451 1317 1213 1350
8 1319 1186 1318 1453 1208 1081 1187 1321
8 1321 1187 1320 1456 1188 1063 1189 1323
8 1344 1208 1321 1457 1209 1082 1188 1322
8 1322 1188 1323 1458 1190 1064 1191 1325
8 1323 1189 1324 1459 1191 1065 1192 1326
8 1191 1325 1193 1067 1326 1460 1327 1194
8 1242 1374 1243 1119 1328 1462 1335 1204
8 1330 1199 1333 1465 1196 1075 1200 1331
8 1132 1249 1330 1199 1243 1375 1465 1333
8 1332 1201 1077 1198 1466 1334 1200 1331
8 1215 1099 1201 1332 1352 1227 1334 1466
8 1119 1243 1333 1203 1204 1335 1470 1338
8 1333 1203 1338 1470 1200 1080 1202 1334
8 1227 1111 1202 1334 1360 1235 1338 1470
8 1328 1462 1335 1204 1205 1336 1471 1339
8 1337 1206 1340 1472 1464 1329 1205 1336
8 1346 1211 1342 1479 1210 1083 1207 1343
8 1346 1211 1115 1228 1479 1342 1239 1361
8 1348 1212 1084 1214 1479 1342 1207 1343
8 1480 1343 1208 1344 1345 1210 1082 1209
8 1351 1214 1319 1454 1480 1343 1208 1344
8 1481 1346 1210 1345 1359 1228 1100 1225
8 1348 1212 1347 1483 1214 1084 1213 1350
8 1216 1103 1227 1352 1353 1230 1360 1488
8 1217 1104 1230 1353 1354 1231 1363 1489
8 1490 1364 1232 1355 1354 1231 1106 1219
8 1220 1109 1232 1355 1356 1234 1365 1491
8 1221 1110 1234 1356 1357 1233 1366 1492
8 1224 1107 1233 1357 1358 1229 1362 1493
8 1226 1102 1229 1358 1359 1228 1362 1493
8 1230 1112 1235 1360 1363 1236 1367 1496
8 1361 1239 1115 1228 1497 1371 1240 1362
8 1366 1241 1372 1498 1233 1117 1240 1362
8 1364 1237 1113 1231 1499 1368 1236 1363
8 1364 1237 1368 1499 1232 1114 1238 1365
8 1234 1118 1238 1365 1366 1241 1369 1500
8 1507 1373 1242 1374 1388 1266 1138 1255
8 1508 1374 1243 1375 1380 1255 1132 1249
8 1376 1254 1387 1509 1245 1129 1258 1377
8 1275 1149 1276 1405 1376 1254 1387 1509
8 1377 1258 1391 1510 1248 1130 1259 1379
8 1511 1390 1257 1378 1379 1259 1131 1247
8 1383 1260 1134 1251 1511 1390 1257 1378
8 1252 1135 1256 1385 1380 1255 1388 1512
8 1261 1381 1513 1394 1133 1250 1382 1262
8 1135 1252 1384 1263 1261 1381 1513 1394
8 1382 1262 1134 1251 1514 1393 1260 1383
8 1253 1136 1263 1384 1386 1264 1395 1516
8 1253 1136 1264 1386 1385 1256 1389 1517
8 1387 1265 1397 1519 1258 1141 1269 1391
8 1276 1150 1277 1406 1387 1265 1397 1519
8 1256 1139 1267 1389 1388 1266 1398 1520
8 1264 1147 1274 1396 1389 1267 1399 1521
8 1392 1270 1143 1260 1522 1400 1268 1390
8 1390 1268 1142 1259 1522 1400 1269 1391
8 1392 1270 1401 1523 1260 1143 1271 1393
8 1272 1394 1524 1402 1145 1262 1393 1271
8 1395 1273 1146 1263 1524 1402 1272 1394
8 1273 1395 1264 1147 1403 1526 1396 1274
8 1405 1276 1160 1282 1534 1406 1286 1411
8 1414 1287 1407 1535 1286 1162 1277 1406
8 1279 1159 1283 1408 1409 1285 1412 1537
8 1418 1292 1412 1537 1290 1165 1283 1408
8 1280 1158 1285 1409 1410 1284 1413 1538
8 1410 1284 1413 1538 1282 1160 1286 1411
8 1285 1163 1289 1412 1413 1288 1417 1540
8 1421 1296 1417 1540 1292 1167 1289 1412
8 1414 1287 1162 1286 1541 1416 1288 1413
8 1420 1294 1421 1545 1291 1166 1292 1418
8 1419 1293 1172 1305 1546 1422 1303 1437
8 1420 1294 1166 1291 1547 1423 1293 1419
8 1294 1169 1297 1423 1421 1296 1425 1548
8 1423 1297 1168 1293 1549 1424 1295 1422
8 1301 1170 1298 1427 1422 1295 1424 1549
8 1432 1300 1428 1554 1301 1170 1298 1427
8 1431 1299 1428 1554 1560 1430 1300 1432
8 1563 1433 1300 1432 1435 1302 1170 1301
8 1546 1422 1303 1437 1434 1301 1435 1565
8 1303 1171 1304 1438 1435 1302 1436 1566
8 1305 1172 1306 1440 1437 1303 1438 1568
8 1306 1173 1307 1441 1438 1304 1439 1569
8 1308 1175 1309 1443 1440 1306 1441 1571
8 1309 1176 1310 1444 1441 1307 1442 1572
8 1311 1178 1312 1446 1443 1309 1444 1574
8 1179 1312 1444 1310 1313 1447 1575 1445
8 1314 1181 1315 1448 1446 1312 1447 1576
8 1350 1213 1349 1486 1451 1317 1449 1579
8 1451 1317 1450 1581 1319 1186 1318 1453
8 1454 1319 1214 1351 1582 1451 1350 1487
8 1453 1318 1452 1584 1321 1187 1320 1456
8 1454 1319 1453 1585 1344 1208 1321 1457
8 1456 1320 1455 1586 1323 1189 1324 1459
8 1457 1321 1456 1587 1322 1188 1323 1458
8 1458 1323 1459 1588 1325 1191 1326 1460
8 1205 1336 1464 1329 1328 1462 1590 1461
8 1507 1373 1461 1590 1374 1242 1328 1462
8 1508 1374 1462 1591 1375 1243 1335 1467
8 1337 1206 1329 1464 1473 1341 1463 1594
8 1375 1243 1335 1467 1465 1333 1470 1596
8 1465 1333 1470 1596 1331 1200 1334 1466
8 1352 1227 1334 1466 1488 1360 1470 1596
8 1591 1462 1336 1468 1467 1335 1471 1597
8 1469 1337 1472 1598 1595 1464 1336 1468
8 1471 1339 1474 1600 1335 1204 1338 1470
8 1600 1474 1367 1496 1470 1338 1235 1360
8 1336 1205 1340 1472 1471 1339 1475 1601
8 1337 1206 1341 1473 1472 1340 1476 1602
8 1495 1370 1478 1609 1361 1239 1342 1479
8 1348 1212 1342 1479 1483 1347 1478 1609
8 1481 1346 1479 1610 1345 1210 1343 1480
8 1481 1346 1228 1359 1610 1479 1361 1494
8 1484 1348 1214 1351 1610 1479 1343 1480
8 1483 1347 1482 1612 1350 1213 1349 1486
8 1484 1348 1483 1613 1351 1214 1350 1487
8 1353 1230 1360 1488 1489 1363 1496 1616
8 1490 1364 1231 1354 1617 1499 1363 1489
8 1490 1364 1499 1617 1355 1232 1365 1491
8 1356 1234 1365 1491 1492 1366 1500 1619
8 1492 1366 1498 1620 1357 1233 1362 1493
8 1494 1361 1228 1359 1621 1497 1362 1493
8 1495 1370 1239 1361 1622 1504 1371 1497
8 1363 1236 1367 1496 1499 1368 1501 1623
8 1497 1371 1240 1362 1624 1505 1372 1498
8 1625 1503 1372 1498 1500 1369 1241 1366
8 1365 1238 1368 1499 1500 1369 1502 1626
8 1520 1398 1506 1633 1388 1266 1373 1507
8 1634 1507 1374 1508 1512 1388 1255 1380
8 1509 1387 1519 1635 1377 1258 1391 1510
8 1405 1276 1406 1534 1509 1387 1519 1635
8 1515 1392 1260 1383 1636 1522 1390 1511
8 1511 1390 1259 1379 1636 1522 1391 1510
8 1385 1256 1389 1517 1512 1388 1520 1637
8 1513 1394 1262 1382 1638 1524 1393 1514
8 1395 1516 1638 1524 1263 1384 1513 1394
8 1515 1392 1523 1639 1383 1260 1393 1514
8 1516 1395 1526 1640 1386 1264 1396 1518
8 1386 1264 1396 1518 1517 1389 1521 1641
8 1519 1397 1527 1643 1391 1269 1400 1522
8 1535 1407 1527 1643 1406 1277 1397 1519
8 1389 1267 1399 1521 1520 1398 1528 1644
8 1645 1529 1399 1521 1525 1404 1274 1396
8 1392 1270 1400 1522 1523 1401 1531 1646
8 1524 1402 1271 1393 1648 1532 1401 1523
8 1403 1526 1648 1532 1273 1395 1524 1402
8 1525 1404 1274 1396 1649 1533 1403 1526
8 1539 1414 1535 1657 1411 1286 1406 1534
8 1542 1415 1536 1658 1414 1287 1407 1535
8 1409 1285 1412 1537 1538 1413 1540 1660
8 1545 1421 1540 1660 1418 1292 1412 1537
8 1539 1414 1286 1411 1661 1541 1413 1538
8 1540 1417 1544 1663 1413 1288 1416 1541
8 1421 1296 1425 1548 1540 1417 1544 1663
8 1542 1415 1287 1414 1664 1543 1416 1541
8 1420 1294 1423 1547 1545 1421 1548 1666
8 1547 1423 1293 1419 1667 1549 1422 1546
8 1434 1301 1427 1553 1546 1422 1549 1667
8 1423 1297 1424 1549 1548 1425 1550 1668
8 1551 1426 1550 1668 1427 1298 1424 1549
8 1551 1426 1298 1427 1671 1552 1428 1554
8 1562 1432 1554 1674 1434 1301 1427 1553
8 1431 1299 1429 1558 1554 1428 1555 1675
8 1431 1299 1430 1560 1558 1429 1557 1680
8 1560 1430 1300 1432 1683 1559 1433 1563
8 1561 1431 1554 1674 1684 1560 1432 1562
8 1685 1563 1432 1562 1565 1435 1301 1434
8 1435 1302 1436 1566 1563 1433 1564 1686
8 1437 1303 1438 1568 1565 1435 1566 1688
8 1438 1304 1439 1569 1566 1436 1567 1689
8 1440 1306 1441 1571 1568 1438 1569 1691
8 1441 1307 1442 1572 1569 1439 1570 1692
8 1443 1309 1444 1574 1571 1441 1572 1694
8 1310 1444 1572 1442 1445 1575 1695 1573
8 1446 1312 1447 1576 1574 1444 1575 1696
8 1486 1349 1485 1614 1579 1449 1577 1699
8 1451 1317 1449 1579 1581 1450 1578 1701
8 1487 1350 1486 1615 1582 1451 1579 1702
8 1581 1450 1580 1704 1453 1318 1452 1584
8 1582 1451 1581 1705 1454 1319 1453 1585
8 1584 1452 1583 1706 1456 1320 1455 1586
8 1585 1453 1584 1707 1457 1321 1456 1587
8 1587 1456 1586 1708 1458 1323 1459 1588
8 1633 1506 1589 1710 1507 1373 1461 1590
8 1464 1329 1461 1590 1594 1463 1589 1710
8 1468 1336 1462 1591 1595 1464 1590 1711
8 1634 1507 1590 1711 1508 1374 1462 1591
8 1473 1341 1463 1594 1603 1477 1593 1716
8 1469 1337 1464 1595 1599 1473 1594 1717
8 1471 1597 1467 1335 1600 1718 1596 1470
8 1718 1600 1496 1616 1596 1470 1360 1488
8 1336 1468 1597 1471 1472 1598 1719 1601
8 1469 1337 1473 1599 1598 1472 1602 1720
8 1722 1604 1501 1623 1600 1474 1367 1496
8 1475 1601 1471 1339 1604 1722 1600 1474
8 1602 1476 1605 1723 1472 1340 1475 1601
8 1476 1602 1724 1606 1341 1473 1603 1477
8 1483 1347 1478 1609 1612 1482 1608 1731
8 1495 1370 1504 1622 1609 1478 1608 1731
8 1618 1495 1609 1732 1494 1361 1479 1610
8 1484 1348 1479 1610 1613 1483 1609 1732
8 1486 1349 1482 1612 1614 1485 1611 1733
8 1613 1483 1612 1734 1487 1350 1486 1615
8 1489 1363 1496 1616 1617 1499 1623 1736
8 1491 1365 1499 1617 1619 1500 1626 1737
8 1618 1495 1361 1494 1738 1622 1497 1621
8 1739 1625 1498 1620 1619 1500 1366 1492
8 1621 1497 1362 1493 1740 1624 1498 1620
8 1742 1631 1504 1622 1624 1505 1371 1497
8 1743 1628 1502 1626 1623 1501 1368 1499
8 1744 1630 1505 1624 1625 1503 1372 1498
8 1745 1629 1503 1625 1626 1502 1369 1500
8 1520 1398 1528 1644 1633 1506 1632 1751
8 1637 1520 1633 1752 1512 1388 1507 1634
8 1635 1519 1643 1753 1510 1391 1522 1636
8 1657 1535 1643 1753 1534 1406 1519 1635
8 1515 1392 1522 1636 1639 1523 1646 1754
8 1517 1389 1521 1641 1637 1520 1644 1755
8 1524 1638 1756 1648 1393 1514 1639 1523
8 1640 1526 1395 1516 1756 1648 1524 1638
8 1642 1525 1396 1518 1757 1649 1526 1640
8 1758 1645 1521 1641 1642 1525 1396 1518
8 1646 1531 1400 1522 1760 1650 1527 1643
8 1535 1407 1536 1658 1643 1527 1650 1760
8 1521 1399 1529 1645 1644 1528 1651 1761
8 1647 1530 1652 1762 1525 1404 1529 1645
8 1401 1523 1648 1532 1531 1646 1763 1655
8 1525 1404 1533 1649 1647 1530 1654 1765
8 1533 1649 1766 1656 1403 1526 1648 1532
8 1662 1542 1658 1774 1539 1414 1535 1657
8 1542 1415 1543 1664 1658 1536 1659 1775
8 1660 1540 1663 1777 1538 1413 1541 1661
8 1545 1421 1548 1666 1660 1540 1663 1777
8 1662 1542 1414 1539 1778 1664 1541 1661
8 1664 1543 1416 1541 1779 1665 1544 1663
8 1548 1425 1550 1668 1663 1544 1665 1779
8 1547 1423 1549 1667 1666 1548 1668 1781
8 1670 1551 1668 1781 1553 1427 1549 1667
8 1551 1426 1552 1671 1668 1550 1669 1782
8 1670 1551 1427 1553 1784 1671 1554 1674
8 1675 1555 1672 1785 1554 1428 1552 1671
8 1678 1556 1673 1789 1558 1429 1555 1675
8 1561 1431 1558 1681 1674 1554 1675 1790
8 1794 1677 1556 1678 1680 1557 1429 1558
8 1560 1430 1559 1683 1680 1557 1679 1797
8 1561 1431 1560 1684 1681 1558 1680 1798
8 1563 1433 1564 1686 1683 1559 1682 1800
8 1684 1560 1432 1562 1801 1683 1563 1685
8 1565 1435 1566 1688 1685 1563 1686 1802
8 1566 1436 1567 1689 1686 1564 1687 1803
8 1568 1438 1569 1691 1688 1566 1689 1805
8 1569 1439 1570 1692 1689 1567 1690 1806
8 1571 1441 1572 1694 1691 1569 1692 1808
8 1442 1572 1692 1570 1573 1695 1809 1693
8 1574 1444 1575 1696 1694 1572 1695 1810
8 1614 1485 1592 1712 1699 1577 1697 1813
8 1579 1449 1577 1699 1701 1578 1698 1815
8 1615 1486 1614 1735 1702 1579 1699 1816
8 1701 1578 1700 1818 1581 1450 1580 1704
8 1582 1451 1579 1702 1705 1581 1701 1819
8 1704 1580 1703 1820 1584 1452 1583 1706
8 1705 1581 1704 1821 1585 1453 1584 1707
8 1707 1584 1706 1822 1587 1456 1586 1708
8 1710 1589 1506 1633 1824 1709 1632 1751
8 1594 1463 1589 1710 1716 1593 1709 1824
8 1752 1633 1710 1825 1634 1507 1590 1711
8 1595 1464 1590 1711 1717 1594 1710 1825
8 1830 1714 1592 1712 1733 1611 1485 1614
8 1603 1477 1593 1716 1725 1607 1715 1834
8 1599 1473 1594 1717 1721 1603 1716 1835
8 1837 1722 1623 1736 1718 1600 1496 1616
8 1719 1601 1722 1837 1597 1471 1600 1718
8 1602 1720 1598 1472 1723 1838 1719 1601
8 1720 1602 1473 1599 1839 1724 1603 1721
8 1723 1605 1726 1840 1601 1475 1604 1722
8 1840 1726 1628 1743 1722 1604 1501 1623
8 1724 1606 1727 1841 1602 1476 1605 1723
8 1725 1607 1728 1842 1603 1477 1606 1724
8 1612 1482 1608 1731 1733 1611 1730 1849
8 1741 1627 1730 1849 1622 1504 1608 1731
8 1613 1483 1609 1732 1734 1612 1731 1850
8 1618 1495 1622 1738 1732 1609 1731 1850
8 1615 1486 1612 1734 1735 1614 1733 1851
8 1852 1743 1626 1737 1736 1623 1499 1617
8 1853 1745 1625 1739 1737 1626 1500 1619
8 1855 1742 1622 1738 1740 1624 1497 1621
8 1856 1744 1624 1740 1739 1625 1498 1620
8 1741 1627 1504 1622 1857 1746 1631 1742
8 1742 1631 1505 1624 1858 1749 1630 1744
8 1859 1747 1629 1745 1743 1628 1502 1626
8 1860 1748 1630 1744 1745 1629 1503 1625
8 1644 1528 1651 1761 1751 1632 1750 1865
8 1637 1520 1644 1755 1752 1633 1751 1866
8 1754 1646 1522 1636 1867 1760 1643 1753
8 1657 1535 1658 1774 1753 1643 1760 1867
8 1639 1523 1646 1754 1756 1648 1763 1868
8 1641 1521 1645 1758 1755 1644 1761 1869
8 1757 1649 1526 1640 1870 1766 1648 1756
8 1642 1525 1649 1757 1759 1647 1765 1871
8 1759 1647 1762 1872 1642 1525 1645 1758
8 1760 1650 1767 1874 1646 1531 1655 1763
8 1658 1536 1659 1775 1760 1650 1767 1874
8 1762 1652 1768 1875 1645 1529 1651 1761
8 1764 1653 1769 1876 1647 1530 1652 1762
8 1656 1766 1877 1773 1532 1648 1763 1655
8 1771 1879 1765 1654 1653 1764 1647 1530
8 1533 1649 1765 1654 1656 1766 1880 1772
8 1662 1542 1664 1778 1774 1658 1775 1887
8 1664 1543 1665 1779 1775 1659 1776 1888
8 1778 1664 1541 1661 1890 1779 1663 1777
8 1666 1548 1668 1781 1777 1663 1779 1890
8 1782 1669 1780 1891 1668 1550 1665 1779
8 1670 1551 1671 1784 1781 1668 1782 1893
8 1671 1552 1672 1785 1782 1669 1783 1894
8 1790 1675 1785 1896 1674 1554 1671 1784
8 1675 1555 1673 1789 1785 1672 1786 1897
8 1792 1676 1788 1903 1678 1556 1673 1789
8 1795 1678 1789 1904 1681 1558 1675 1790
8 1792 1676 1556 1678 1906 1791 1677 1794
8 1680 1557 1679 1797 1794 1677 1793 1909
8 1910 1794 1678 1795 1798 1680 1558 1681
8 1683 1559 1682 1800 1797 1679 1796 1912
8 1684 1560 1683 1801 1798 1680 1797 1913
8 1686 1564 1687 1803 1800 1682 1799 1915
8 1685 1563 1686 1802 1801 1683 1800 1916
8 1688 1566 1689 1805 1802 1686 1803 1917
8 1689 1567 1690 1806 1803 1687 1804 1918
8 1691 1569 1692 1808 1805 1689 1806 1920
8 1692 1570 1693 1809 1806 1690 1807 1921
8 1694 1572 1695 1810 1808 1692 1809 1922
8 1829 1713 1811 1926 1712 1592 1697 1813
8 1813 1697 1812 1928 1699 1577 1698 1815
8 1735 1614 1712 1828 1816 1699 1813 1929
8 1815 1698 1814 1931 1701 1578 1700 1818
8 1702 1579 1699 1816 1819 1701 1815 1932
8 1818 1700 1817 1933 1704 1580 1703 1820
8 1819 1701 1818 1934 1705 1581 1704 1821
8 1821 1704 1820 1935 1707 1584 1706 1822
8 1824 1709 1632 1751 1937 1823 1750 1865
8 1716 1593 1709 1824 1834 1715 1823 1937
8 1825 1710 1633 1752 1938 1824 1751 1866
8 1717 1594 1710 1825 1835 1716 1824 1938
8 1945 1830 1712 1828 1851 1733 1614 1735
8 1830 1714 1831 1946 1712 1592 1713 1829
8 1947 1832 1714 1830 1849 1730 1611 1733
8 1843 1729 1607 1725 1950 1833 1715 1834
8 1721 1603 1716 1835 1836 1725 1834 1951
8 1836 1725 1842 1953 1721 1603 1724 1839
8 1723 1838 1719 1601 1840 1954 1837 1722
8 1954 1840 1743 1852 1837 1722 1623 1736
8 1724 1839 1720 1602 1841 1955 1838 1723
8 1841 1727 1844 1956 1723 1605 1726 1840
8 1956 1844 1747 1859 1840 1726 1628 1743
8 1728 1842 1724 1606 1845 1957 1841 1727
8 1725 1607 1729 1843 1842 1728 1846 1958
8 1741 1627 1746 1857 1849 1730 1848 1965
8 1734 1612 1731 1850 1851 1733 1849 1966
8 1854 1741 1849 1966 1738 1622 1731 1850
8 1967 1859 1745 1853 1852 1743 1626 1737
8 1968 1860 1744 1856 1853 1745 1625 1739
8 1854 1741 1622 1738 1969 1857 1742 1855
8 1855 1742 1624 1740 1970 1858 1744 1856
8 1857 1746 1631 1742 1971 1861 1749 1858
8 1858 1749 1630 1744 1972 1863 1748 1860
8 1859 1747 1862 1973 1745 1629 1748 1860
8 1875 1768 1864 1977 1761 1651 1750 1865
8 1755 1644 1761 1869 1866 1751 1865 1978
8 1867 1760 1874 1979 1754 1646 1763 1868
8 1774 1658 1775 1887 1867 1760 1874 1979
8 1870 1766 1648 1756 1980 1877 1763 1868
8 1872 1762 1875 1981 1758 1645 1761 1869
8 1757 1649 1766 1870 1871 1765 1880 1982
8 1983 1879 1764 1873 1871 1765 1647 1759
8 1873 1764 1876 1984 1759 1647 1762 1872
8 1877 1773 1655 1763 1986 1881 1767 1874
8 1775 1659 1776 1888 1874 1767 1881 1986
8 1876 1769 1882 1987 1762 1652 1768 1875
8 1878 1770 1883 1988 1764 1653 1769 1876
8 1880 1772 1656 1766 1989 1886 1773 1877
8 1878 1770 1653 1764 1990 1884 1771 1879
8 1765 1654 1772 1880 1879 1771 1885 1991
8 1778 1664 1779 1890 1887 1775 1888 1997
8 1998 1889 1776 1888 1891 1780 1665 1779
8 1893 1782 1891 2000 1781 1668 1779 1890
8 1894 1783 1892 2001 1782 1669 1780 1891
8 1784 1671 1785 1896 1893 1782 1894 2003
8 1897 1786 1895 2004 1785 1672 1783 1894
8 1790 1675 1789 1904 1896 1785 1897 2006
8 1901 1787 1898 2007 1789 1673 1786 1897
8 1903 1788 1900 2013 1789 1673 1787 1901
8 1792 1676 1791 1906 1903 1788 1902 2016
8 1907 1792 1903 2017 1795 1678 1789 1904
8 1906 1791 1677 1794 2019 1905 1793 1909
8 1907 1792 1678 1795 2020 1906 1794 1910
8 1797 1679 1796 1912 1909 1793 1908 2022
8 1798 1680 1797 1913 1910 1794 1909 2023
8 1800 1682 1799 1915 1912 1796 1911 2025
8 1801 1683 1800 1916 1913 1797 1912 2026
8 1803 1687 1804 1918 1915 1799 1914 2028
8 1802 1686 1803 1917 1916 1800 1915 2029
8 1805 1689 1806 1920 1917 1803 1918 2030
8 1806 1690 1807 1921 1918 1804 1919 2031
8 1808 1692 1809 1922 1920 1806 1921 2032
8 1939 1826 1924 2037 1829 1713 1811 1926
8 1926 1811 1925 2039 1813 1697 1812 1928
8 1944 1829 1926 2040 1828 1712 1813 1929
8 1928 1812 1927 2042 1815 1698 1814 1931
8 1929 1813 1928 2043 1816 1699 1815 1932
8 1931 1814 1930 2044 1818 1700 1817 1933
8 1932 1815 1931 2045 1819 1701 1818 1934
8 1934 1818 1933 2046 1821 1704 1820 1935
8 2048 1936 1823 1937 1977 1864 1750 1865
8 1950 1833 1715 1834 2048 1936 1823 1937
8 1938 1824 1751 1866 2049 1937 1865 1978
8 1835 1716 1824 1938 1951 1834 1937 2049
8 1939 1826 1713 1829 2053 1942 1831 1946
8 1940 1827 1923 2035 2053 1942 1826 1939
8 1945 1830 1946 2058 1828 1712 1829 1944
8 2059 1947 1830 1945 1966 1849 1733 1851
8 1947 1832 1730 1849 2060 1948 1848 1965
8 1947 1832 1948 2060 1830 1714 1831 1946
8 1959 1847 1729 1843 2063 1949 1833 1950
8 1952 1843 1725 1836 2064 1950 1834 1951
8 1836 1725 1843 1952 1953 1842 1958 2066
8 1953 1842 1957 2067 1839 1724 1841 1955
8 1841 1955 1838 1723 1956 2068 1954 1840
8 2068 1956 1859 1967 1954 1840 1743 1852
8 1956 1844 1960 2069 1859 1747 1862 1973
8 1845 1957 1841 1727 1960 2069 1956 1844
8 1728 1842 1957 1845 1846 1958 2071 1961
8 1962 2072 1959 1847 1846 1958 1843 1729
8 1971 1861 1964 2077 1857 1746 1848 1965
8 1854 1741 1857 1969 1966 1849 1965 2078
8 1967 1859 1973 2079 1853 1745 1860 1968
8 1970 1858 1744 1856 2080 1972 1860 1968
8 1969 1857 1742 1855 2081 1971 1858 1970
8 1971 1861 1749 1858 2082 1974 1863 1972
8 1973 1862 1975 2083 1860 1748 1863 1972
8 1987 1882 1976 2086 1875 1768 1864 1977
8 1981 1875 1977 2087 1869 1761 1865 1978
8 1980 1877 1763 1868 2088 1986 1874 1979
8 1887 1775 1888 1997 1979 1874 1986 2088
8 1880 1982 2089 1989 1766 1870 1980 1877
8 1984 1876 1987 2090 1872 1762 1875 1981
8 1765 1871 1983 1879 1880 1982 2091 1991
8 1985 1878 1764 1873 2092 1990 1879 1983
8 1985 1878 1988 2093 1873 1764 1876 1984
8 2094 1992 1881 1986 1998 1889 1776 1888
8 1986 1881 1992 2094 1877 1773 1886 1989
8 1988 1883 1993 2095 1876 1769 1882 1987
8 1878 1770 1884 1990 1988 1883 1994 2096
8 1991 1885 1772 1880 2097 1996 1886 1989
8 1879 1771 1885 1991 1990 1884 1995 2098
8 2103 1998 1888 1997 2000 1891 1779 1890
8 2104 1999 1889 1998 2001 1892 1780 1891
8 2003 1894 2001 2106 1893 1782 1891 2000
8 2004 1895 2002 2107 1894 1783 1892 2001
8 2006 1897 2004 2109 1896 1785 1894 2003
8 2007 1898 2005 2110 1897 1786 1895 2004
8 2014 1901 2007 2112 1904 1789 1897 2006
8 2011 1899 2008 2113 1901 1787 1898 2007
8 2119 2010 1899 2011 2013 1900 1787 1901
8 2016 1902 2012 2122 1903 1788 1900 2013
8 2017 1903 2013 2123 1904 1789 1901 2014
8 1906 1791 1905 2019 2016 1902 2015 2125
8 1907 1792 1906 2020 2017 1903 2016 2126
8 1909 1793 1908 2022 2019 1905 2018 2128
8 2020 1906 1794 1910 2129 2019 1909 2023
8 1912 1796 1911 2025 2022 1908 2021 2131
8 1913 1797 1912 2026 2023 1909 2022 2132
8 1915 1799 1914 2028 2025 1911 2024 2134
8 1916 1800 1915 2029 2026 1912 2025 2135
8 1918 1804 1919 2031 2028 1914 2027 2136
8 1917 1803 1918 2030 2029 1915 2028 2137
8 1920 1806 1921 2032 2030 1918 2031 2138
8 1940 1827 1941 2054 2035 1923 2033 2140
8 2035 1923 2034 2143 1939 1826 1924 2037
8 2037 1924 2036 2146 1926 1811 1925 2039
8 2051 1939 2037 2147 1944 1829 1926 2040
8 2039 1925 2038 2149 1928 1812 1927 2042
8 2040 1926 2039 2150 1929 1813 1928 2043
8 2042 1927 2041 2151 1931 1814 1930 2044
8 2043 1928 2042 2152 1932 1815 1931 2045
8 2045 1931 2044 2153 1934 1818 1933 2046
8 2155 2047 1936 2048 2086 1976 1864 1977
8 2063 1949 1833 1950 2155 2047 1936 2048
8 2156 2048 1937 2049 2087 1977 1865 1978
8 2064 1950 1834 1951 2156 2048 1937 2049
8 2051 1939 1829 1944 2160 2053 1946 2058
8 2052 1940 2035 2144 2160 2053 1939 2051
8 2053 1942 1831 1946 2163 2057 1948 2060
8 2055 1943 1827 1940 2163 2057 1942 2053
8 2055 1943 2056 2164 1940 1827 1941 2054
8 2059 1947 1849 1966 2167 2060 1965 2078
8 2059 1947 2060 2167 1945 1830 1946 2058
8 2077 1964 2061 2168 1965 1848 1948 2060
8 2070 1963 1847 1959 2170 2062 1949 2063
8 2065 1959 1843 1952 2171 2063 1950 2064
8 2173 2072 1958 2066 2065 1959 1843 1952
8 1953 1842 1958 2066 2067 1957 2071 2174
8 2068 1956 2069 2175 1967 1859 1973 2079
8 2067 1957 2069 2175 1955 1841 1956 2068
8 1845 1957 2069 1960 1961 2071 2176 2073
8 2069 1960 2073 2176 1973 1862 1975 2083
8 2070 1963 2075 2177 1959 1847 1962 2072
8 1846 1958 2071 1961 1962 2072 2178 2074
8 2077 1964 1861 1971 2182 2076 1974 2082
8 2081 1971 2077 2183 1969 1857 1965 2078
8 2079 1973 2083 2184 1968 1860 1972 2080
8 2081 1971 1858 1970 2185 2082 1972 2080
8 2083 1975 2084 2186 1972 1863 1974 2082
8 2086 1976 1882 1987 2189 2085 1993 2095
8 2090 1987 2086 2190 1981 1875 1977 2087
8 2191 2094 1986 2088 2103 1998 1888 1997
8 2088 1986 2094 2191 1980 1877 1989 2089
8 1991 2091 2192 2097 1880 1982 2089 1989
8 2093 1988 2095 2193 1984 1876 1987 2090
8 1879 1983 2092 1990 1991 2091 2194 2098
8 1985 1878 1990 2092 2093 1988 2096 2195
8 2097 1996 1886 1989 2196 2099 1992 2094
8 2196 2099 1992 2094 2104 1999 1889 1998
8 1994 2096 1988 1883 2100 2197 2095 1993
8 2096 1994 1884 1990 2198 2101 1995 2098
8 1995 2098 2199 2102 1885 1991 2097 1996
8 2203 2104 1998 2103 2106 2001 1891 2000
8 2107 2002 2105 2204 2001 1892 1999 2104
8 2109 2004 2107 2206 2003 1894 2001 2106
8 2110 2005 2108 2207 2004 1895 2002 2107
8 2112 2007 2110 2209 2006 1897 2004 2109
8 2113 2008 2111 2210 2007 1898 2005 2110
8 2120 2011 2113 2212 2014 1901 2007 2112
8 2117 2009 2114 2213 2011 1899 2008 2113
8 2219 2116 2009 2117 2119 2010 1899 2011
8 2222 2118 2010 2119 2122 2012 1900 2013
8 2223 2119 2011 2120 2123 2013 1901 2014
8 2016 1902 2015 2125 2122 2012 2121 2225
8 2126 2016 2122 2226 2017 1903 2013 2123
8 2019 1905 2018 2128 2125 2015 2124 2228
8 2020 1906 2019 2129 2126 2016 2125 2229
8 2022 1908 2021 2131 2128 2018 2127 2231
8 2023 1909 2022 2132 2129 2019 2128 2232
8 2025 1911 2024 2134 2131 2021 2130 2234
8 2026 1912 2025 2135 2132 2022 2131 2235
8 1914 2028 2134 2024 2027 2136 2236 2133
8 2029 1915 2028 2137 2135 2025 2134 2237
8 2030 1918 2031 2138 2137 2028 2136 2238
8 2157 2050 2139 2240 2054 1941 2033 2140
8 2052 1940 2054 2161 2144 2035 2140 2242
8 2140 2033 2141 2243 2035 1923 2034 2143
8 2143 2034 2142 2246 2037 1924 2036 2146
8 2144 2035 2143 2247 2051 1939 2037 2147
8 2146 2036 2145 2249 2039 1925 2038 2149
8 2147 2037 2146 2250 2040 1926 2039 2150
8 2149 2038 2148 2251 2042 1927 2041 2151
8 2150 2039 2149 2252 2043 1928 2042 2152
8 2152 2042 2151 2253 2045 1931 2044 2153
8 2255 2154 2047 2155 2189 2085 1976 2086
8 2170 2062 1949 2063 2255 2154 2047 2155
8 2256 2155 2048 2156 2190 2086 1977 2087
8 2171 2063 1950 2064 2256 2155 2048 2156
8 2258 2159 2050 2157 2164 2056 1941 2054
8 2160 2053 1946 2058 2262 2163 2060 2167
8 2162 2055 1940 2052 2262 2163 2053 2160
8 2162 2055 2164 2263 2052 1940 2054 2161
8 2163 2057 1948 2060 2264 2165 2061 2168
8 2055 1943 2057 2163 2164 2056 2165 2264
8 2182 2076 2166 2268 2077 1964 2061 2168
8 2183 2077 2168 2269 2078 1965 2060 2167
8 2070 1963 2062 2170 2177 2075 2169 2271
8 2172 2070 1959 2065 2272 2170 2063 2171
8 2172 2070 2177 2273 2065 1959 2072 2173
8 2066 1958 2072 2173 2174 2071 2178 2274
8 2067 1957 2071 2174 2175 2069 2176 2275
8 2175 2069 2176 2275 2079 1973 2083 2184
8 2071 1961 2074 2178 2176 2073 2179 2276
8 2176 2073 2179 2276 2083 1975 2084 2186
8 2072 1962 2075 2177 2178 2074 2180 2277
8 2182 2076 1974 2082 2280 2181 2084 2186
8 2183 2077 1971 2081 2281 2182 2082 2185
8 2184 2083 2186 2282 2080 1972 2082 2185
8 2189 2085 1993 2095 2285 2188 2100 2197
8 2190 2086 1987 2090 2286 2189 2095 2193
8 2192 2097 1989 2089 2287 2196 2094 2191
8 2287 2196 2094 2191 2203 2104 1998 2103
8 2194 2098 1991 2091 2288 2199 2097 2192
8 2195 2096 2197 2289 2093 1988 2095 2193
8 2096 2195 2290 2198 1990 2092 2194 2098
8 2097 1996 2099 2196 2199 2102 2200 2291
8 2196 2099 1999 2104 2291 2200 2105 2204
8 2100 2197 2292 2201 1994 2096 2198 2101
8 1995 2098 2198 2101 2102 2199 2293 2202
8 2206 2107 2204 2296 2106 2001 2104 2203
8 2207 2108 2205 2297 2107 2002 2105 2204
8 2209 2110 2207 2299 2109 2004 2107 2206
8 2210 2111 2208 2300 2110 2005 2108 2207
8 2212 2113 2210 2302 2112 2007 2110 2209
8 2213 2114 2211 2303 2113 2008 2111 2210
8 2220 2117 2213 2305 2120 2011 2113 2212
8 2216 2115 2214 2306 2117 2009 2114 2213
8 2216 2115 2009 2117 2311 2217 2116 2219
8 2219 2116 2010 2119 2314 2218 2118 2222
8 2315 2219 2117 2220 2223 2119 2011 2120
8 2122 2012 2121 2225 2222 2118 2221 2317
8 2318 2222 2119 2223 2226 2122 2013 2123
8 2125 2015 2124 2228 2225 2121 2224 2320
8 2126 2016 2125 2229 2226 2122 2225 2321
8 2128 2018 2127 2231 2228 2124 2227 2323
8 2129 2019 2128 2232 2229 2125 2228 2324
8 2131 2021 2130 2234 2231 2127 2230 2326
8 2132 2022 2131 2235 2232 2128 2231 2327
8 2134 2024 2133 2236 2234 2130 2233 2328
8 2135 2025 2134 2237 2235 2131 2234 2329
8 2137 2028 2136 2238 2237 2134 2236 2330
8 2157 2050 2158 2259 2240 2139 2239 2332
8 2257 2157 2240 2334 2161 2054 2140 2242
8 2240 2139 2241 2335 2140 2033 2141 2243
8 2242 2140 2243 2337 2144 2035 2143 2247
8 2243 2141 2244 2338 2143 2034 2142 2246
8 2246 2142 2245 2341 2146 2036 2145 2249
8 2247 2143 2246 2342 2147 2037 2146 2250
8 2249 2145 2248 2343 2149 2038 2148 2251
8 2250 2146 2249 2344 2150 2039 2149 2252
8 2252 2149 2251 2345 2152 2042 2151 2253
8 2169 2271 2347 2254 2062 2170 2255 2154
8 2189 2085 2188 2285 2255 2154 2254 2347
8 2348 2255 2155 2256 2286 2189 2086 2190
8 2272 2170 2063 2171 2348 2255 2155 2256
8 2349 2258 2157 2257 2263 2164 2054 2161
8 2258 2159 2261 2351 2157 2050 2158 2259
8 2258 2159 2056 2164 2351 2261 2165 2264
8 2262 2163 2060 2167 2355 2264 2168 2269
8 2162 2055 2163 2262 2263 2164 2264 2355
8 2357 2266 2165 2264 2268 2166 2061 2168
8 2268 2166 2076 2182 2361 2267 2181 2280
8 2281 2182 2268 2362 2183 2077 2168 2269
8 2271 2169 2270 2364 2177 2075 2180 2277
8 2172 2070 2170 2272 2273 2177 2271 2365
8 2072 2173 2274 2178 2177 2273 2366 2277
8 2071 2174 2275 2176 2178 2274 2367 2276
8 2275 2176 2276 2367 2184 2083 2186 2282
8 2283 2187 2084 2186 2368 2278 2179 2276
8 2178 2074 2180 2277 2276 2179 2278 2368
8 2283 2187 2279 2370 2186 2084 2181 2280
8 2281 2182 2082 2185 2371 2280 2186 2282
8 2188 2285 2374 2284 2100 2197 2292 2201
8 2286 2189 2095 2193 2375 2285 2197 2289
8 2192 2097 2196 2287 2288 2199 2291 2376
8 2287 2196 2104 2203 2376 2291 2204 2296
8 2194 2098 2199 2288 2290 2198 2293 2377
8 2289 2197 2096 2195 2378 2292 2198 2290
8 2291 2200 2105 2204 2379 2294 2205 2297
8 2199 2102 2200 2291 2293 2202 2294 2379
8 2198 2101 2202 2293 2292 2201 2295 2380
8 2299 2207 2297 2383 2206 2107 2204 2296
8 2300 2208 2298 2384 2207 2108 2205 2297
8 2302 2210 2300 2386 2209 2110 2207 2299
8 2303 2211 2301 2387 2210 2111 2208 2300
8 2305 2213 2303 2389 2212 2113 2210 2302
8 2306 2214 2304 2390 2213 2114 2211 2303
8 2310 2216 2306 2392 2220 2117 2213 2305
8 2308 2215 2307 2393 2216 2115 2214 2306
8 2308 2215 2115 2216 2396 2309 2217 2311
8 2310 2216 2117 2220 2398 2311 2219 2315
8 2311 2217 2116 2219 2399 2312 2218 2314
8 2314 2218 2118 2222 2402 2313 2221 2317
8 2315 2219 2119 2223 2403 2314 2222 2318
8 2225 2121 2224 2320 2317 2221 2316 2405
8 2226 2122 2225 2321 2318 2222 2317 2406
8 2228 2124 2227 2323 2320 2224 2319 2408
8 2229 2125 2228 2324 2321 2225 2320 2409
8 2231 2127 2230 2326 2323 2227 2322 2411
8 2232 2128 2231 2327 2324 2228 2323 2412
8 2234 2130 2233 2328 2326 2230 2325 2413
8 2235 2131 2234 2329 2327 2231 2326 2414
8 2237 2134 2236 2330 2329 2234 2328 2415
8 2259 2158 2260 2352 2332 2239 2331 2417
8 2257 2157 2259 2350 2334 2240 2332 2419
8 2240 2139 2239 2332 2335 2241 2333 2420
8 2334 2240 2335 2422 2242 2140 2243 2337
8 2335 2241 2336 2423 2243 2141 2244 2338
8 2337 2243 2338 2425 2247 2143 2246 2342
8 2338 2244 2339 2426 2246 2142 2245 2341
8 2341 2245 2340 2428 2249 2145 2248 2343
8 2342 2246 2341 2429 2250 2146 2249 2344
8 2344 2249 2343 2430 2252 2149 2251 2345
8 2188 2285 2347 2254 2284 2374 2432 2346
8 2347 2254 2346 2432 2271 2169 2270 2364
8 2365 2271 2170 2272 2433 2347 2255 2348
8 2286 2189 2285 2375 2348 2255 2347 2433
8 2349 2258 2351 2435 2257 2157 2259 2350
8 2349 2258 2164 2263 2435 2351 2264 2355
8 2259 2158 2261 2351 2352 2260 2354 2437
8 2356 2265 2354 2437 2264 2165 2261 2351
8 2441 2357 2264 2355 2362 2268 2168 2269
8 2356 2265 2165 2264 2442 2358 2266 2357
8 2443 2359 2266 2357 2361 2267 2166 2268
8 2370 2279 2360 2446 2280 2181 2267 2361
8 2362 2268 2182 2281 2447 2361 2280 2371
8 2180 2277 2368 2278 2270 2364 2449 2363
8 2271 2365 2273 2177 2364 2450 2366 2277
8 2372 2283 2186 2282 2451 2368 2276 2367
8 2178 2274 2367 2276 2277 2366 2451 2368
8 2283 2187 2278 2368 2370 2279 2369 2452
8 2372 2283 2370 2453 2282 2186 2280 2371
8 2284 2374 2455 2373 2201 2292 2380 2295
8 2375 2285 2197 2289 2456 2374 2292 2378
8 2376 2291 2204 2296 2457 2379 2297 2383
8 2288 2199 2291 2376 2377 2293 2379 2457
8 2198 2290 2378 2292 2293 2377 2458 2380
8 2293 2202 2294 2379 2380 2295 2381 2459
8 2384 2298 2381 2459 2297 2205 2294 2379
8 2386 2300 2384 2463 2299 2207 2297 2383
8 2387 2301 2385 2464 2300 2208 2298 2384
8 2389 2303 2387 2466 2302 2210 2300 2386
8 2390 2304 2388 2467 2303 2211 2301 2387
8 2392 2306 2390 2469 2305 2213 2303 2389
8 2393 2307 2391 2470 2306 2214 2304 2390
8 2395 2308 2393 2472 2310 2216 2306 2392
8 2308 2215 2309 2396 2393 2307 2394 2473
8 2395 2308 2216 2310 2475 2396 2311 2398
8 2396 2309 2217 2311 2476 2397 2312 2399
8 2398 2311 2219 2315 2478 2399 2314 2403
8 2399 2312 2218 2314 2479 2400 2313 2402
8 2317 2221 2316 2405 2402 2313 2401 2482
8 2403 2314 2222 2318 2483 2402 2317 2406
8 2320 2224 2319 2408 2405 2316 2404 2485
8 2321 2225 2320 2409 2406 2317 2405 2486
8 2323 2227 2322 2411 2408 2319 2407 2488
8 2324 2228 2323 2412 2409 2320 2408 2489
8 2326 2230 2325 2413 2411 2322 2410 2490
8 2327 2231 2326 2414 2412 2323 2411 2491
8 2329 2234 2328 2415 2414 2326 2413 2492
8 2417 2331 2260 2352 2494 2416 2353 2438
8 2350 2259 2352 2436 2419 2332 2417 2496
8 2332 2239 2331 2417 2420 2333 2418 2497
8 2334 2240 2332 2419 2422 2335 2420 2499
8 2420 2333 2421 2500 2335 2241 2336 2423
8 2422 2335 2423 2502 2337 2243 2338 2425
8 2423 2336 2424 2503 2338 2244 2339 2426
8 2425 2338 2426 2505 2342 2246 2341 2429
8 2426 2339 2427 2506 2341 2245 2340 2428
8 2429 2341 2428 2507 2344 2249 2343 2430
8 2432 2346 2284 2374 2509 2431 2373 2455
8 2432 2346 2431 2509 2364 2270 2363 2449
8 2375 2285 2374 2456 2433 2347 2432 2510
8 2347 2433 2365 2271 2432 2510 2450 2364
8 2350 2259 2351 2435 2436 2352 2437 2514
8 2440 2356 2437 2514 2355 2264 2351 2435
8 2352 2260 2354 2437 2438 2353 2439 2516
8 2356 2265 2358 2442 2437 2354 2439 2516
8 2440 2356 2264 2355 2518 2442 2357 2441
8 2519 2443 2357 2441 2447 2361 2268 2362
8 2443 2359 2444 2520 2357 2266 2358 2442
8 2443 2359 2267 2361 2520 2444 2360 2446
8 2446 2360 2279 2370 2523 2445 2369 2452
8 2453 2370 2446 2524 2371 2280 2361 2447
8 2449 2363 2448 2525 2368 2278 2369 2452
8 2366 2277 2364 2450 2451 2368 2449 2526
8 2372 2283 2368 2451 2453 2370 2452 2527
8 2455 2373 2295 2380 2529 2454 2382 2460
8 2456 2374 2292 2378 2530 2455 2380 2458
8 2377 2293 2379 2457 2458 2380 2459 2531
8 2463 2384 2459 2531 2383 2297 2379 2457
8 2533 2461 2382 2460 2459 2381 2295 2380
8 2464 2385 2461 2533 2384 2298 2381 2459
8 2466 2387 2464 2537 2386 2300 2384 2463
8 2467 2388 2465 2538 2387 2301 2385 2464
8 2469 2390 2467 2540 2389 2303 2387 2466
8 2470 2391 2468 2541 2390 2304 2388 2467
8 2472 2393 2470 2543 2392 2306 2390 2469
8 2393 2307 2394 2473 2470 2391 2471 2544
8 2395 2308 2396 2475 2472 2393 2473 2546
8 2396 2309 2397 2476 2473 2394 2474 2547
8 2475 2396 2311 2398 2549 2476 2399 2478
8 2476 2397 2312 2399 2550 2477 2400 2479
8 2478 2399 2314 2403 2552 2479 2402 2483
8 2479 2400 2313 2402 2553 2480 2401 2482
8 2405 2316 2404 2485 2482 2401 2481 2556
8 2406 2317 2405 2486 2483 2402 2482 2557
8 2408 2319 2407 2488 2485 2404 2484 2559
8 2409 2320 2408 2489 2486 2405 2485 2560
8 2411 2322 2410 2490 2488 2407 2487 2561
8 2412 2323 2411 2491 2489 2408 2488 2562
8 2414 2326 2413 2492 2491 2411 2490 2563
8 2513 2434 2493 2565 2438 2353 2416 2494
8 2496 2417 2352 2436 2567 2494 2438 2515
8 2494 2416 2495 2568 2417 2331 2418 2497
8 2419 2332 2417 2496 2499 2420 2497 2570
8 2497 2418 2498 2571 2420 2333 2421 2500
8 2499 2420 2500 2573 2422 2335 2423 2502
8 2500 2421 2501 2574 2423 2336 2424 2503
8 2502 2423 2503 2576 2425 2338 2426 2505
8 2503 2424 2504 2577 2426 2339 2427 2506
8 2505 2426 2506 2578 2429 2341 2428 2507
8 2509 2431 2373 2455 2580 2508 2454 2529
8 2509 2431 2508 2580 2449 2363 2448 2525
8 2432 2510 2581 2509 2374 2456 2530 2455
8 2432 2510 2450 2364 2509 2581 2526 2449
8 2583 2511 2434 2513 2516 2439 2353 2438
8 2436 2352 2437 2514 2515 2438 2516 2588
8 2440 2356 2442 2518 2514 2437 2516 2588
8 2442 2358 2444 2520 2516 2439 2517 2589
8 2519 2443 2520 2591 2441 2357 2442 2518
8 2519 2443 2361 2447 2591 2520 2446 2524
8 2446 2360 2445 2523 2520 2444 2521 2592
8 2525 2448 2522 2593 2452 2369 2445 2523
8 2524 2446 2370 2453 2594 2523 2452 2527
8 2526 2449 2525 2595 2451 2368 2452 2527
8 2534 2462 2528 2597 2460 2382 2454 2529
8 2530 2455 2380 2458 2598 2529 2460 2532
8 2599 2533 2460 2532 2531 2459 2380 2458
8 2537 2464 2533 2599 2463 2384 2459 2531
8 2534 2462 2382 2460 2601 2535 2461 2533
8 2538 2465 2535 2601 2464 2385 2461 2533
8 2540 2467 2538 2604 2466 2387 2464 2537
8 2541 2468 2539 2605 2467 2388 2465 2538
8 2543 2470 2541 2607 2469 2390 2467 2540
8 2470 2391 2471 2544 2541 2468 2542 2608
8 2472 2393 2473 2546 2543 2470 2544 2610
8 2473 2394 2474 2547 2544 2471 2545 2611
8 2475 2396 2476 2549 2546 2473 2547 2613
8 2476 2397 2477 2550 2547 2474 2548 2614
8 2549 2476 2399 2478 2616 2550 2479 2552
8 2479 2400 2480 2553 2550 2477 2551 2617
8 2552 2479 2402 2483 2619 2553 2482 2557
8 2482 2401 2481 2556 2553 2480 2554 2620
8 2485 2404 2484 2559 2556 2481 2555 2623
8 2486 2405 2485 2560 2557 2482 2556 2624
8 2488 2407 2487 2561 2559 2484 2558 2625
8 2489 2408 2488 2562 2560 2485 2559 2626
8 2491 2411 2490 2563 2562 2488 2561 2627
8 2513 2434 2512 2585 2565 2493 2564 2630
8 2586 2513 2565 2632 2515 2438 2494 2567
8 2565 2493 2566 2633 2494 2416 2495 2568
8 2567 2494 2568 2635 2496 2417 2497 2570
8 2568 2495 2569 2636 2497 2418 2498 2571
8 2570 2497 2571 2638 2499 2420 2500 2573
8 2571 2498 2572 2639 2500 2421 2501 2574
8 2573 2500 2574 2641 2502 2423 2503 2576
8 2574 2501 2575 2642 2503 2424 2504 2577
8 2576 2503 2577 2643 2505 2426 2506 2578
8 2597 2528 2579 2645 2529 2454 2508 2580
8 2580 2508 2579 2645 2525 2448 2522 2593
8 2581 2509 2455 2530 2646 2580 2529 2598
8 2581 2509 2580 2646 2526 2449 2525 2595
8 2583 2511 2582 2648 2513 2434 2512 2585
8 2583 2511 2439 2516 2648 2582 2517 2589
8 2649 2583 2513 2586 2588 2516 2438 2515
8 2589 2517 2444 2520 2653 2587 2521 2592
8 2518 2442 2520 2591 2588 2516 2589 2654
8 2593 2522 2590 2655 2523 2445 2521 2592
8 2524 2446 2523 2594 2591 2520 2592 2656
8 2595 2525 2593 2657 2527 2452 2523 2594
8 2602 2536 2596 2659 2534 2462 2528 2597
8 2600 2534 2597 2660 2532 2460 2529 2598
8 2600 2534 2460 2532 2661 2601 2533 2599
8 2604 2538 2601 2661 2537 2464 2533 2599
8 2602 2536 2462 2534 2663 2603 2535 2601
8 2601 2535 2465 2538 2663 2603 2539 2605
8 2607 2541 2605 2665 2540 2467 2538 2604
8 2608 2542 2606 2666 2541 2468 2539 2605
8 2543 2470 2544 2610 2607 2541 2608 2668
8 2544 2471 2545 2611 2608 2542 2609 2669
8 2546 2473 2547 2613 2610 2544 2611 2671
8 2547 2474 2548 2614 2611 2545 2612 2672
8 2549 2476 2550 2616 2613 2547 2614 2674
8 2550 2477 2551 2617 2614 2548 2615 2675
8 2552 2479 2553 2619 2616 2550 2617 2677
8 2553 2480 2554 2620 2617 2551 2618 2678
8 2557 2482 2556 2624 2619 2553 2620 2680
8 2556 2481 2555 2623 2620 2554 2621 2681
8 2559 2484 2558 2625 2623 2555 2622 2683
8 2560 2485 2559 2626 2624 2556 2623 2684
8 2562 2488 2561 2627 2626 2559 2625 2685
8 2690 2629 2564 2630 2650 2584 2512 2585
8 2586 2513 2585 2651 2632 2565 2630 2691
8 2630 2564 2631 2692 2565 2493 2566 2633
8 2632 2565 2633 2694 2567 2494 2568 2635
8 2633 2566 2634 2695 2568 2495 2569 2636
8 2635 2568 2636 2697 2570 2497 2571 2638
8 2636 2569 2637 2698 2571 2498 2572 2639
8 2638 2571 2639 2700 2573 2500 2574 2641
8 2639 2572 2640 2701 2574 2501 2575 2642
8 2641 2574 2642 2702 2576 2503 2577 2643
8 2597 2528 2596 2659 2645 2579 2644 2704
8 2645 2579 2644 2704 2593 2522 2590 2655
8 2660 2597 2645 2705 2598 2529 2580 2646
8 2646 2580 2645 2705 2595 2525 2593 2657
8 2650 2584 2512 2585 2707 2647 2582 2648
8 2648 2582 2517 2589 2707 2647 2587 2653
8 2649 2583 2648 2708 2586 2513 2585 2651
8 2649 2583 2516 2588 2708 2648 2589 2654
8 2655 2590 2652 2710 2592 2521 2587 2653
8 2654 2589 2520 2591 2711 2653 2592 2656
8 2657 2593 2655 2712 2594 2523 2592 2656
8 2602 2536 2603 2663 2659 2596 2658 2714
8 2662 2602 2659 2715 2600 2534 2597 2660
8 2662 2602 2534 2600 2717 2663 2601 2661
8 2661 2601 2538 2604 2717 2663 2605 2665
8 2666 2606 2664 2718 2605 2539 2603 2663
8 2668 2608 2666 2720 2607 2541 2605 2665
8 2608 2542 2609 2669 2666 2606 2667 2721
8 2610 2544 2611 2671 2668 2608 2669 2723
8 2611 2545 2612 2672 2669 2609 2670 2724
8 2613 2547 2614 2674 2671 2611 2672 2726
8 2614 2548 2615 2675 2672 2612 2673 2727
8 2616 2550 2617 2677 2674 2614 2675 2729
8 2617 2551 2618 2678 2675 2615 2676 2730
8 2619 2553 2620 2680 2677 2617 2678 2732
8 2620 2554 2621 2681 2678 2618 2679 2733
8 2624 2556 2623 2684 2680 2620 2681 2735
8 2681 2621 2555 2623 2736 2682 2622 2683
8 2626 2559 2625 2685 2684 2623 2683 2737
8 2688 2628 2584 2650 2740 2686 2647 2707
8 2688 2628 2687 2742 2650 2584 2629 2690
8 2690 2629 2689 2745 2630 2564 2631 2692
8 2746 2690 2630 2691 2709 2650 2585 2651
8 2691 2630 2692 2747 2632 2565 2633 2694
8 2692 2631 2693 2748 2633 2566 2634 2695
8 2694 2633 2695 2750 2635 2568 2636 2697
8 2695 2634 2696 2751 2636 2569 2637 2698
8 2697 2636 2698 2753 2638 2571 2639 2700
8 2698 2637 2699 2754 2639 2572 2640 2701
8 2700 2639 2701 2755 2641 2574 2642 2702
8 2659 2596 2658 2714 2704 2644 2703 2757
8 2704 2644 2703 2757 2655 2590 2652 2710
8 2660 2597 2659 2715 2705 2645 2704 2758
8 2705 2645 2704 2758 2657 2593 2655 2712
8 2759 2706 2647 2707 2710 2652 2587 2653
8 2709 2650 2585 2651 2760 2707 2648 2708
8 2708 2648 2589 2654 2760 2707 2653 2711
8 2712 2655 2710 2761 2656 2592 2653 2711
8 2763 2713 2658 2714 2718 2664 2603 2663
8 2662 2602 2663 2717 2715 2659 2714 2764
8 2720 2666 2718 2767 2665 2605 2663 2717
8 2768 2719 2664 2718 2721 2667 2606 2666
8 2668 2608 2669 2723 2720 2666 2721 2770
8 2669 2609 2670 2724 2721 2667 2722 2771
8 2671 2611 2672 2726 2723 2669 2724 2773
8 2672 2612 2673 2727 2724 2670 2725 2774
8 2674 2614 2675 2729 2726 2672 2727 2776
8 2675 2615 2676 2730 2727 2673 2728 2777
8 2677 2617 2678 2732 2729 2675 2730 2779
8 2678 2618 2679 2733 2730 2676 2731 2780
8 2680 2620 2681 2735 2732 2678 2733 2782
8 2733 2679 2621 2681 2783 2734 2682 2736
8 2735 2681 2623 2684 2784 2736 2683 2737
8 2740 2686 2647 2707 2787 2738 2706 2759
8 2688 2628 2686 2740 2742 2687 2739 2789
8 2743 2688 2650 2709 2790 2740 2707 2760
8 2742 2687 2741 2792 2690 2629 2689 2745
8 2743 2688 2742 2793 2709 2650 2690 2746
8 2745 2689 2744 2795 2692 2631 2693 2748
8 2746 2690 2745 2796 2691 2630 2692 2747
8 2747 2692 2748 2797 2694 2633 2695 2750
8 2748 2693 2749 2798 2695 2634 2696 2751
8 2750 2695 2751 2800 2697 2636 2698 2753
8 2751 2696 2752 2801 2698 2637 2699 2754
8 2753 2698 2754 2802 2700 2639 2701 2755
8 2763 2713 2756 2804 2714 2658 2703 2757
8 2759 2706 2652 2710 2804 2756 2703 2757
8 2715 2659 2714 2764 2758 2704 2757 2805
8 2758 2704 2757 2805 2712 2655 2710 2761
8 2806 2759 2707 2760 2761 2710 2653 2711
8 2765 2716 2762 2808 2718 2664 2713 2763
8 2809 2763 2714 2764 2767 2718 2663 2717
8 2765 2716 2664 2718 2811 2766 2719 2768
8 2813 2768 2718 2767 2770 2721 2666 2720
8 2814 2769 2719 2768 2771 2722 2667 2721
8 2723 2669 2724 2773 2770 2721 2771 2816
8 2724 2670 2725 2774 2771 2722 2772 2817
8 2726 2672 2727 2776 2773 2724 2774 2819
8 2727 2673 2728 2777 2774 2725 2775 2820
8 2729 2675 2730 2779 2776 2727 2777 2822
8 2730 2676 2731 2780 2777 2728 2778 2823
8 2732 2678 2733 2782 2779 2730 2780 2825
8 2780 2731 2679 2733 2826 2781 2734 2783
8 2782 2733 2681 2735 2827 2783 2736 2784
8 2830 2785 2738 2787 2804 2756 2706 2759
8 2789 2739 2686 2740 2832 2786 2738 2787
8 2790 2740 2707 2760 2833 2787 2759 2806
8 2742 2687 2739 2789 2792 2741 2788 2835
8 2743 2688 2740 2790 2793 2742 2789 2836
8 2792 2741 2791 2838 2745 2689 2744 2795
8 2793 2742 2792 2839 2746 2690 2745 2796
8 2795 2744 2794 2841 2748 2693 2749 2798
8 2796 2745 2795 2842 2747 2692 2748 2797
8 2797 2748 2798 2843 2750 2695 2751 2800
8 2798 2749 2799 2844 2751 2696 2752 2801
8 2800 2751 2801 2845 2753 2698 2754 2802
8 2808 2762 2803 2847 2763 2713 2756 2804
8 2809 2763 2804 2848 2764 2714 2757 2805
8 2806 2759 2710 2761 2848 2804 2757 2805
8 2765 2716 2766 2811 2808 2762 2807 2850
8 2810 2765 2808 2851 2767 2718 2763 2809
8 2810 2765 2718 2767 2852 2811 2768 2813
8 2811 2766 2719 2768 2853 2812 2769 2814
8 2855 2814 2768 2813 2816 2771 2721 2770
8 2856 2815 2769 2814 2817 2772 2722 2771
8 2773 2724 2774 2819 2816 2771 2817 2858
8 2774 2725 2775 2820 2817 2772 2818 2859
8 2776 2727 2777 2822 2819 2774 2820 2861
8 2777 2728 2778 2823 2820 2775 2821 2862
8 2779 2730 2780 2825 2822 2777 2823 2864
8 2823 2778 2731 2780 2865 2824 2781 2826
8 2825 2780 2733 2782 2866 2826 2783 2827
8 2869 2828 2785 2830 2847 2803 2756 2804
8 2871 2829 2786 2832 2830 2785 2738 2787
8 2872 2830 2787 2833 2848 2804 2759 2806
8 2789 2739 2786 2832 2835 2788 2831 2874
8 2836 2789 2740 2790 2875 2832 2787 2833
8 2792 2741 2788 2835 2838 2791 2834 2877
8 2793 2742 2789 2836 2839 2792 2835 2878
8 2838 2791 2837 2880 2795 2744 2794 2841
8 2839 2792 2838 2881 2796 2745 2795 2842
8 2841 2794 2840 2882 2798 2749 2799 2844
8 2842 2795 2841 2883 2797 2748 2798 2843
8 2843 2798 2844 2884 2800 2751 2801 2845
8 2886 2846 2803 2847 2850 2807 2762 2808
8 2851 2808 2847 2887 2809 2763 2804 2848
8 2850 2807 2766 2811 2889 2849 2812 2853
8 2810 2765 2811 2852 2851 2808 2850 2890
8 2852 2811 2768 2813 2891 2853 2814 2855
8 2853 2812 2769 2814 2892 2854 2815 2856
8 2894 2856 2814 2855 2858 2817 2771 2816
8 2817 2772 2818 2859 2856 2815 2857 2895
8 2819 2774 2820 2861 2858 2817 2859 2897
8 2820 2775 2821 2862 2859 2818 2860 2898
8 2822 2777 2823 2864 2861 2820 2862 2900
8 2823 2778 2824 2865 2862 2821 2863 2901
8 2864 2823 2780 2825 2902 2865 2826 2866
8 2904 2867 2828 2869 2886 2846 2803 2847
8 2869 2828 2868 2906 2830 2785 2829 2871
8 2907 2869 2830 2872 2887 2847 2804 2848
8 2871 2829 2870 2909 2832 2786 2831 2874
8 2910 2871 2832 2875 2872 2830 2787 2833
8 2835 2788 2831 2874 2877 2834 2873 2912
8 2836 2789 2832 2875 2878 2835 2874 2913
8 2877 2834 2876 2915 2838 2791 2837 2880
8 2839 2792 2835 2878 2881 2838 2877 2916
8 2880 2837 2879 2917 2841 2794 2840 2882
8 2881 2838 2880 2918 2842 2795 2841 2883
8 2883 2841 2882 2919 2843 2798 2844 2884
8 2921 2885 2846 2886 2889 2849 2807 2850
8 2922 2886 2847 2887 2890 2850 2808 2851
8 2889 2849 2812 2853 2924 2888 2854 2892
8 2890 2850 2811 2852 2925 2889 2853 2891
8 2891 2853 2814 2855 2926 2892 2856 2894
8 2892 2854 2815 2856 2927 2893 2857 2895
8 2858 2817 2859 2897 2894 2856 2895 2929
8 2859 2818 2860 2898 2895 2857 2896 2930
8 2861 2820 2862 2900 2897 2859 2898 2932
8 2862 2821 2863 2901 2898 2860 2899 2933
8 2864 2823 2865 2902 2900 2862 2901 2934
8 2904 2867 2846 2886 2936 2903 2885 2921
8 2904 2867 2903 2936 2869 2828 2868 2906
8 2937 2904 2869 2907 2922 2886 2847 2887
8 2906 2868 2905 2939 2871 2829 2870 2909
8 2907 2869 2906 2940 2872 2830 2871 2910
8 2909 2870 2908 2942 2874 2831 2873 2912
8 2910 2871 2909 2943 2875 2832 2874 2913
8 2912 2873 2911 2945 2877 2834 2876 2915
8 2878 2835 2874 2913 2916 2877 2912 2946
8 2915 2876 2914 2947 2880 2837 2879 2917
8 2916 2877 2915 2948 2881 2838 2880 2918
8 2918 2880 2917 2949 2883 2841 2882 2919
8 2921 2885 2849 2889 2951 2920 2888 2924
8 2952 2921 2886 2922 2925 2889 2850 2890
8 2924 2888 2854 2892 2954 2923 2893 2927
8 2925 2889 2853 2891 2955 2924 2892 2926
8 2926 2892 2856 2894 2956 2927 2895 2929
8 2895 2857 2896 2930 2927 2893 2928 2957
8 2897 2859 2898 2932 2929 2895 2930 2959
8 2898 2860 2899 2933 2930 2896 2931 2960
8 2900 2862 2901 2934 2932 2898 2933 2961
8 2936 2903 2885 2921 2963 2935 2920 2951
8 2936 2903 2935 2963 2906 2868 2905 2939
8 2937 2904 2886 2922 2964 2936 2921 2952
8 2937 2904 2936 2964 2907 2869 2906 2940
8 2939 2905 2938 2966 2909 2870 2908 2942
8 2940 2906 2939 2967 2910 2871 2909 2943
8 2942 2908 2941 2969 2912 2873 2911 2945
8 2943 2909 2942 2970 2913 2874 2912 2946
8 2945 2911 2944 2971 2915 2876 2914 2947
8 2946 2912 2945 2972 2916 2877 2915 2948
8 2948 2915 2947 2973 2918 2880 2917 2949
8 2951 2920 2888 2924 2975 2950 2923 2954
8 2952 2921 2889 2925 2976 2951 2924 2955
8 2927 2893 2928 2957 2954 2923 2953 2978
8 2955 2924 2892 2926 2979 2954 2927 2956
8 2929 2895 2930 2959 2956 2927 2957 2980
8 2930 2896 2931 2960 2957 2928 2958 2981
8 2932 2898 2933 2961 2959 2930 2960 2982
8 2951 2920 2950 2975 2963 2935 2962 2984
8 2963 2935 2962 2984 2939 2905 2938 2966
8 2964 2936 2921 2952 2985 2963 2951 2976
8 2964 2936 2963 2985 2940 2906 2939 2967
8 2966 2938 2965 2987 2942 2908 2941 2969
8 2967 2939 2966 2988 2943 2909 2942 2970
8 2969 2941 2968 2989 2945 2911 2944 2971
8 2970 2942 2969 2990 2946 2912 2945 2972
8 2972 2945 2971 2991 2948 2915 2947 2973
8 2954 2923 2953 2978 2975 2950 2974 2993
8 2976 2951 2924 2955 2994 2975 2954 2979
8 2957 2928 2958 2981 2978 2953 2977 2995
8 2956 2927 2957 2980 2979 2954 2978 2996
8 2959 2930 2960 2982 2980 2957 2981 2997
8 2984 2962 2983 2999 2966 2938 2965 2987
8 2975 2950 2974 2993 2984 2962 2983 2999
8 2976 2951 2975 2994 2985 2963 2984 3000
8 2985 2963 2984 3000 2967 2939 2966 2988
8 2987 2965 2986 3001 2969 2941 2968 2989
8 2988 2966 2987 3002 2970 2942 2969 2990
8 2990 2969 2989 3003 2972 2945 2971 2991
8 2978 2953 2977 2995 2993 2974 2992 3004
8 2979 2954 2978 2996 2994 2975 2993 3005
8 2980 2957 2981 2997 2996 2978 2995 3006
8 2974 2993 2999 2983 2992 3004 3007 2998
8 2983 2999 2987 2965 2998 3007 3001 2986
8 3000 2984 2999 3008 2988 2966 2987 3002
8 2994 2975 2993 3005 3000 2984 2999 3008
8 3002 2987 3001 3009 2990 2969 2989 3003
8 2996 2978 2995 3006 3005 2993 3004 3010
8 3005 2993 3004 3010 3008 2999 3007 3011
8 3008 2999 3007 3011 3002 2987 3001 3009

CELL_TYPES 1910
12
12
12
12
12
12
12
12
12
12
12
12
12
12
12
12
12
12
12
12
12
12
12
12
12
12
12
12
12
12
12
12
12
12
12
12
12
12
12
12
12
12
12
12
12
12
12
12
12
12
12
12
12
12
12
12
12
12
12
12
12
12
12
12
12
12
12
12
12
12
12
12
12
12
12
12
12
12
12
12
12
12
12
12
12
12
12
12
12
12
12
12
12
12
12
12
12
12
12
12
12
12
12
12
12
12
12
12
12
12
12
12
12
12
12
12
12
12
12
12
12
12
12
12
12
12
12
12
12
12
12
12
12
12
12
12
12
12
12
12
12
12
12
12
12
12
12
12
12
12
12
12
12
12
12
12
12
12
12
12
12
12
12
12
12
12
12
12
12
12
12
12
12
12
12
12
12
12
12
12
12
12
12
12
12
12
12
12
12
12
12
12
12
12
12
12
12
12
12
12
12
12
12
12
12
12
12
12
12
12
12
12
12
12
12
12
12
12
12
12
12
12
12
12
12
12
12
12
12
12
12
12
12
12
12
12
12
12
12
12
12
12
12
12
12
12
12
12
12
12
12
12
12
12
12
12
12
12
12
12
12
12
12
12
12
12
12
12
12
12
12
12
12
12
12
12
12
12
12
12
12
12
12
12
12
12
12
12
12
12
12
12
12
12
12
12
12
12
12
12
12
12
12
12
12
12
12
12
12
12
12
12
12
12
12
12
12
12
12
12
12
12
12
12
12
12
12
12
12
12
12
12
12
12
12
12
12
12
12
12
12
12
12
12
12
12
12
12
12
12
12
12
12
12
12
12
12
12
12
12
12
12
12
12
12
12
12
12
12
12
12
12
12
12
12
12
12
12
12
12
12
12
12
12
12
12
12
12
12
12
12
12
12
12
12
12
12
12
12
12
12
12
12
12
12
12
12
12
12
12
12
12
12
12
12
12
12
12
12
12
12
12
12
12
12
12
12
12
12
12
12
12
12
12
12
12
12
12
12
12
12
12
12
12
12
12
12
12
12
12
12
12
12
12
12
12
12
12
12
12
12
12
12
12
12
12
12
12
12
12
12
12
12
12
12
12
12
12
12
12
12
12
12
12
12
12
12
12
12
12
12
12
12
12
12
12
12
12
12
12
12
12
12
12
12
12
12
12
12
12
12
12
12
12
12
12
12
12
12
12
12
12
12
12
12
12
12
12
12
12
12
12
12
12
12
12
12
12
12
12
12
12
12
12
12
12
12
12
12
12
12
12
12
12
12
12
12
12
12
12
12
12
12
12
12
12
12
12
12
12
12
12
12
12
12
12
12
12
12
12
12
12
12
12
12
12
12
12
12
12
12
12
12
12
12
12
12
12
12
12
12
12
12
12
12
12
12
12
12
12
12
12
12
12
12
12
12
12
12
12
12
12
12
12
12
12
12
12
12
12
12
12
12
12
12
12
12
12
12
12
12
12
12
12
12
12
12
12
12
12
12
12
12
12
12
12
12
12
12
12
12
12
12
12
12
12
12
12
12
12
12
12
12
12
12
12
12
12
12
12
12
12
12
12
12
12
12
12
12
12
12
12
12
12
12
12
12
12
12
12
12
12
12
12
12
12
12
12
12
12
12
12
12
12
12
12
12
12
12
12
12
12
12
12
12
12
12
12
12
12
12
12
12
12
12
12
12
12
12
12
12
12
12
12
12
12
12
12
12
12
12
12
12
12
12
12
12
12
12
12
12
12
12
12
12
12
12
12
12
12
12
12
12
12
12
12
12
12
12
12
12
12
12
12
12
12
12
12
12
12
12
12
12
12
12
12
12
12
12
12
12
12
12
12
12
12
12
12
12
12
12
12
12
12
12
12
12
12
12
12
12
12
12
12
12
12
12
12
12
12
12
12
12
12
12
12
12
12
12
12
12
12
12
12
12
12
12
12
12
12
12
12
12
12
12
12
12
12
12
12
12
12
12
12
12
12
12
12
12
12
12
12
12
12
12
12
12
12
12
12
12
12
12
12
12
12
12
12
12
12
12
12
12
12
12
12
12
12
12
12
12
12
12
12
12
12
12
12
12
12
12
12
12
12
12
12
12
12
12
12
12
12
12
12
12
12
12
12
12
12
12
12
12
12
12
12
12
12
12
12
12
12
12
12
12
12
12
12
12
12
12
12
12
12
12
12
12
12
12
12
12
12
12
12
12
12
12
12
12
12
12
12
12
12
12
12
12
12
12
12
12
12
12
12
12
12
12
12
12
12
12
12
12
12
12
12
12
12
12
12
12
12
12
12
12
12
12
12
12
12
12
12
12
12
12
12
12
12
12
12
12
12
12
12
12
12
12
12
12
12
12
12
12
12
12
12
12
12
12
12
12
12
12
12
12
12
12
12
12
12
12
12
12
12
12
12
12
12
12
12
12
12
12
12
12
12
12
12
12
12
12
12
12
12
12
12
12
12
12
12
12
12
12
12
12
12
12
12
12
12
12
12
12
12
12
12
12
12
12
12
12
12
12
12
12
12
12
12
12
12
12
12
12
12
12
12
12
12
12
12
12
12
12
12
12
12
12
12
12
12
12
12
12
12
12
12
12
12
12
12
12
12
12
12
12
12
12
12
12
12
12
12
12
12
12
12
12
12
12
12
12
12
12
12
12
12
12
12
12
12
12
12
12
12
12
12
12
12
12
12
12
12
12
12
12
12
12
12
12
12
12
12
12
12
12
12
12
12
12
12
12
12
12
12
12
12
12
12
12
12
12
12
12
12
12
12
12
12
12
12
12
12
12
12
12
12
12
12
12
12
12
12
12
12
12
12
12
12
12
12
12
12
12
12
12
12
12
12
12
12
12
12
12
12
12
12
12
12
12
12
12
12
12
12
12
12
12
12
12
12
12
12
12
12
12
12
12
12
12
12
12
12
12
12
12
12
12
12
12
12
12
12
12
12
12
12
12
12
12
12
12
12
12
12
12
12
12
12
12
12
12
12
12
12
12
12
12
12
12
12
12
12
12
12
12
12
12
12
12
12
12
12
12
12
12
12
12
12
12
12
12
12
12
12
12
12
12
12
12
12
12
12
12
12
12
12
12
12
12
12
12
12
12
12
12
12
12
12
12
12
12
12
12
12
12
12
12
12
12
12
12
12
12
12
12
12
12
12
12
12
12
12
12
12
12
12
12
12
12
12
12
12
12
12
12
12
12
12
12
12
12
12
12
12
12
12
12
12
12
12
12
12
12
12
12
12
12
12
12
12
12
12
12
12
12
12
12
12
12
12
12
12
12
12
12
12
12
12
12
12
12
12
12
12
12
12
12
12
12
12
12
12
12
12
12
12
12
12
12
12
12
12
12
12
12
12
12
12
12
12
12
12
12
12
12
12
12
12
12
12
12
12
12
12
12
12
12
12
12
12
12
12
12
12
12
12
12
12
12
12
12
12
12
12
12
12
12
12
12
12
12
12
12
12
12
12
12
12
12
12
12
12
12
12
12
12
12
12
12
12
12
12
12
12
12
12
12
12
12
12
12
12
12
12
12
12
12
12
12
12
12
12
12
12
12
12
12
12
12
12
12
12
12
12
12
12
12
12
12
12
12
12
12
12
12
12
12
12
12
12
12
12
12
12
12
12
12
12
12
12
12
12
12
12
12
12
12
12
12
12
12
12
12
12
12
12
12
12
12
12
12
12
12
12
12
12
12
12
12
12
12
12
12
12
12
12
12
12
12
12
12
12
12
12
12
12
12
12
12
12
12
12
12
12
12
12
12
12
12
12
12
12
12
12
12
12
12
12
12
12
12
12
12
12
12
12
12
12
12
12
12
12
12
12
12
12
12
12
12
12
12
12
12
12
12
12
12
12
12
12
12
12
12
12
12
12
12
12
12
12
12
12
12
12
12
12
12
12
12
12
12
12
12
12
12
12
12
12
12
12
12
12
12
12
12
12
12
12
12
12
12
12
12
12
12
12
12
12
12
12
12
12
12
12
12
12
12
12
12
12
12
12
12
12
12
12
12
12
12
12
12
12
12
12
12
12
12
12
12
12
12
12
12
12
12
12
12
12
12
12
12
12
12
12
12
12
12
12
12
12
12
12
12
12
12
12
12
12
12
12
12
12
12
12
12
12
12
12
12
12
12
12
12
12
12
12
12
12
12
12
12
12
12
12
12
12
12
12
12
12
12
12
12
12
12
12
12
12
12
12
12
12
12
12
12
12
12
12
12
12
12
12
12
12
12
12
12
12
12
12
12
12
12
12
12
12
12
12
12
12
12
12
12
12
12
12
12
12
12
12
12
12
12
12
12
12
12
12
12
12
12
12
12
12
12
12
12
12
12
12

POINT_DATA 3012
SCALARS Jp_lamdaP float 4
LOOKUP_TABLE default
0.99998 1 1 0.99998
1 1 1 1
0.999982 1 1 0.999982
0.999955 1 1 0.999955
0.999974 1 1 0.999974
0.999988 1 1 0.999988
0.999757 1 1 0.999757
1 1 1 1
1 1 1 1
1 1 1 1
1 1 1 1
0.999893 1 1 0.999893
0.999923 1 1 0.999923
0.999953 1 1 0.999953
0.999983 1 1 0.999983
0.99996 1 1 0.99996
0.99999 1 1 0.99999
0.999977 1 1 0.999977
0.99976 1 1 0.99976
1 1 1 1
0.999948 1 1 0.999948
0.999965 1 1 0.999965
0.999645 1 1 0.999645
0.99972 1 1 0.99972
0.999997 1 1 0.999997
0.999803 1 1 0.999803
0.999385 1 1 0.999385
1 1 1 1
0.999983 1 1 0.999983
0.999994 1 1 0.999994
1 1 1 1
0.9999 1 1 0.9999
0.999961 1 1 0.999961
0.999982 1 1 0.999982
0.999789 1 1 0.999789
1 1 1 1
0.999867 1 1 0.999867
0.999929 1 1 0.999929
0.999469 1 1 0.999469
1 1 1 1
1 1 1 1
0.999975 1 1 0.999975
1 1 1 1
0.999942 1 1 0.999942
0.999606 1 1 0.999606
1 1 1 1
0.999724 1 1 0.999724
0.999964 1 1 0.999964
0.999979 1 1 0.999979
0.999992 1 1 0.999992
0.999764 1 1 0.999764
0.999963 1 1 0.999963
0.999953 1 1 0.999953
0.999998 1 1 0.999998
0.999969 1 1 0.999969
0.999646 1 1 0.999646
0.999806 1 1 0.999806
0.999723 1 1 0.999723
0.999372 1 1 0.999372
1 1 1 1
0.999937 1 1 0.999937
0.999672 1 1 0.999672
0.999625 1 1 0.999625
0.99968 1 1 0.99968
0.99912 1 1 0.99912
0.999254 1 1 0.999254
1 1 1 1
0.999869 1 1 0.999869
0.999485 1 1 0.999485
0.998972 1 1 0.998972
1 1 1 1
1 1 1 1
1 1 1 1
0.999907 1 1 0.999907
1 1 1 1
1 1 1 1
0.999779 1 1 0.999779
1 1 1 1
0.999868 1 1 0.999868
0.999941 1 1 0.999941
0.999467 1 1 0.999467
1 1 1 1
1 1 1 1
0.999735 1 1 0.999735
0.999814 1 1 0.999814
0.999169 1 1 0.999169
0.999969 1 1 0.999969
0.999409 1 1 0.999409
0.999527 1 1 0.999527
0.999186 1 1 0.999186
1 1 1 1
1 1 1 1
1 1 1 1
1 1 1 1
1 1 1 1
0.999968 1 1 0.999968
0.999639 1 1 0.999639
0.999978 1 1 0.999978
0.999715 1 1 0.999715
1 1 1 1
0.999575 1 1 0.999575
0.999694 1 1 0.999694
0.998866 1 1 0.998866
0.999744 1 1 0.999744
0.998969 1 1 0.998969
0.999933 1 1 0.999933
0.999958 1 1 0.999958
1 1 1 1
0.999972 1 1 0.999972
0.999648 1 1 0.999648
0.999726 1 1 0.999726
0.999809 1 1 0.999809
0.999358 1 1 0.999358
1 1 1 1
0.999943 1 1 0.999943
0.999598 1 1 0.999598
0.999626 1 1 0.999626
1 1 1 1
0.999895 1 1 0.999895
0.999683 1 1 0.999683
0.999096 1 1 0.999096
0.999469 1 1 0.999469
0.999271 1 1 0.999271
0.998973 1 1 0.998973
0.999592 1 1 0.999592
0.999606 1 1 0.999606
0.998948 1 1 0.998948
0.999042 1 1 0.999042
0.999151 1 1 0.999151
0.998731 1 1 0.998731
1 1 1 1
0.998893 1 1 0.998893
0.999963 1 1 0.999963
0.999528 1 1 0.999528
0.999055 1 1 0.999055
0.9988 1 1 0.9988
0.999995 1 1 0.999995
0.99972 1 1 0.99972
1 1 1 1
1 1 1 1
0.999785 1 1 0.999785
1 1 1 1
0.999952 1 1 0.999952
0.999871 1 1 0.999871
0.999465 1 1 0.999465
1 1 1 1
1 1 1 1
0.999752 1 1 0.999752
0.99983 1 1 0.99983
0.999171 1 1 0.999171
0.999978 1 1 0.999978
0.99941 1 1 0.99941
0.999527 1 1 0.999527
0.999176 1 1 0.999176
0.999994 1 1 0.999994
1 1 1 1
0.999773 1 1 0.999773
0.99907 1 1 0.99907
0.999299 1 1 0.999299
0.998826 1 1 0.998826
0.999605 1 1 0.999605
0.999113 1 1 0.999113
0.999226 1 1 0.999226
0.999068 1 1 0.999068
1 1 1 1
1 1 1 1
1 1 1 1
1 1 1 1
1 1 1 1
1 1 1 1
1 1 1 1
0.999704 1 1 0.999704
0.999624 1 1 0.999624
1 1 1 1
1 1 1 1
0.999577 1 1 0.999577
0.999686 1 1 0.999686
0.998866 1 1 0.998866
0.999722 1 1 0.999722
0.998969 1 1 0.998969
0.999564 1 1 0.999564
0.998806 1 1 0.998806
0.998927 1 1 0.998927
0.998818 1.00028 1 0.998543
0.999009 1 1 0.999009
0.998653 1 1 0.998653
1 1 1 1
0.999949 1 1 0.999949
0.99952 1 1 0.99952
0.999626 1 1 0.999626
1 1 1 1
0.999921 1 1 0.999921
0.999686 1 1 0.999686
0.999072 1 1 0.999072
0.999287 1 1 0.999287
0.999454 1 1 0.999454
0.998975 1 1 0.998975
0.999589 1 1 0.999589
0.999606 1 1 0.999606
0.998899 1 1 0.998899
0.99906 1 1 0.99906
1 1 1 1
0.999955 1 1 0.999955
0.999548 1 1 0.999548
0.999152 1 1 0.999152
0.998702 1 1 0.998702
0.999052 1 1 0.999052
0.998908 1 1 0.998908
0.998802 1 1 0.998802
0.999992 1 1 0.999992
0.99972 1 1 0.99972
0.998819 1 1 0.998819
0.999006 1 1 0.999006
0.998616 1.00001 1 0.998609
0.99863 1 1 0.99863
0.99882 1 1 0.99882
0.998676 1.00008 1 0.998593
0.999983 1 1 0.999983
0.998735 1 1 0.998733
0.999579 1 1 0.999579
0.999175 1 1 0.999175
0.998883 1 1 0.998883
0.998833 1.00009 1 0.998745
0.999646 1 1 0.999646
0.999808 1 1 0.999808
0.999391 1 1 0.999391
0.999747 1 1 0.999747
1 1 1 1
1 1 1 1
0.999833 1 1 0.999833
0.999174 1 1 0.999174
0.999986 1 1 0.999986
0.999526 1 1 0.999526
0.999412 1 1 0.999412
0.999165 1 1 0.999165
0.999996 1 1 0.999996
1 1 1 1
0.999774 1 1 0.999774
0.99907 1 1 0.99907
0.999303 1 1 0.999303
0.998826 1 1 0.998826
0.999605 1 1 0.999605
0.999122 1 1 0.999122
0.999225 1 1 0.999225
0.999057 1 1 0.999057
1 1 1 1
0.999683 1 1 0.999683
0.999861 1 1 0.999861
0.999458 1 1 0.999458
0.998732 1 1 0.998732
0.998984 1 1 0.998984
0.999409 1.00075 1 0.998657
0.99931 1 1 0.99931
0.998994 1 1 0.998994
0.999446 1 1.00041 0.999034
0.998969 1 1 0.998969
0.99997 1 1 0.99997
1 1 1 1
1 1 1 1
1 1 1 1
1 1 1 1
1 1 1 1
1 1 1 1
0.999999 1 1 0.999999
1 1 1 1
0.999724 1 1 0.999724
0.999671 1 1 0.999671
0.99897 1 1 0.99897
0.998866 1 1 0.998866
0.999579 1 1 0.999579
1 1 1 1
0.999563 1 1 0.999563
0.998807 1 1 0.998807
0.998927 1 1 0.998927
0.998741 1.0002 1 0.998542
0.999009 1 1 0.999009
0.998653 1 1 0.998653
0.998792 1 1 0.998792
0.999016 1.00053 1 0.998483
0.99864 1.00004 1 0.998605
1.00167 1.00321 1 0.99846
0.998689 1 1 0.998689
0.999714 1.00117 1 0.99855
0.999586 1 1 0.999586
0.999607 1 1 0.999607
0.99885 1 1 0.99885
0.999079 1 1 0.999079
1 1 1 1
0.999946 1 1 0.999946
0.999569 1 1 0.999569
0.999154 1 1 0.999154
0.998673 1 1 0.998673
0.998922 1 1 0.998922
0.999048 1 1 0.999048
0.998805 1 1 0.998805
0.999989 1 1 0.999989
0.99972 1 1 0.99972
0.998803 1 1 0.998803
0.999006 1 1 0.999006
0.998662 1.00007 1 0.998596
0.99866 1 1 0.99866
0.999978 1 1 0.999978
0.999578 1 1 0.999578
0.999198 1 1 0.999198
0.998821 1 1 0.998821
0.998793 1.00021 1 0.998587
0.998859 1 1 0.998859
0.998742 1.00001 1 0.998733
0.998977 1.00023 1 0.998746
0.999647 1 1 0.999647
0.999388 1 1 0.999388
0.999806 1 1 0.999806
0.998758 1.00021 1 0.998548
0.998653 1.00002 1 0.998634
1.00098 1.00253 1 0.998457
0.99913 1.00061 1 0.998524
0.998731 1.00007 1 0.998661
1.00051 1.00192 1 0.998591
0.999609 1 1 0.999609
0.999392 1.00069 1 0.998699
0.999315 1 1 0.999315
0.998969 1 1 0.998969
0.998741 1 1 0.998741
0.999585 1.00079 1 0.998795
0.999875 1 1 0.999875
0.999376 1 1 0.999376
0.999432 1 1 0.999432
0.999269 1 1 0.999269
0.999071 1 1 0.999071
1 1 1 1
0.999999 1 1 0.999999
0.999775 1 1 0.999775
0.999307 1 1 0.999307
0.998826 1 1 0.998826
0.999606 1 1 0.999606
0.999223 1 1 0.999223
0.999132 1 1 0.999132
0.999046 1 1 0.999046
1 1 1 1
0.999683 1 1 0.999683
0.999865 1 1 0.999865
0.999456 1 1 0.999456
0.998731 1 1 0.998731
0.998987 1 1 0.998987
0.999155 1.0005 1 0.998657
0.999312 1 1 0.999312
0.999005 1 1 0.999005
0.999294 1 1.00027 0.999027
0.99901 1 1 0.99901
1 1 1 1
0.999916 1 1 0.999916
0.99939 1 1 0.99939
0.999542 1 1 0.999542
0.99928 1 1 0.99928
0.999698 1.00111 1 0.998587
0.998906 1.00008 1 0.998828
0.999938 1.00134 1 0.998603
0.999509 1 1.00041 0.999097
0.998928 1 1 0.998928
0.999295 1 1.00045 0.998841
0.999959 1 1 0.999959
0.999748 1 1 0.999748
0.999978 1 1 0.999978
0.999973 1 1 0.999973
1 1 1 1
1 1 1 1
1 1 1 1
1 1 1 1
1 1 1 1
1 1 1 1
1 1 1 1
1 1 1 1
1 1 1 1
0.999998 1 1 0.999998
1 1 1 1
0.99901 1 1 0.99901
0.998927 1 1 0.998927
0.998653 1 1 0.998653
0.998659 1.00012 1 0.998541
0.998807 1 1 0.998807
0.999563 1 1 0.999563
0.998792 1 1 0.998792
0.998955 1.00047 1 0.998483
0.998621 1.00002 1 0.998605
1.00159 1.00313 1 0.998456
0.998688 1 1 0.998688
0.999487 1.00094 1 0.99855
0.99896 1.00049 1 0.998467
1.00363 1.00523 1 0.998406
1.00076 1.00226 1 0.998504
1.0063 1.00785 1 0.998463
0.999345 1.00077 1 0.998575
1.00267 1.00408 1 0.998593
0.998787 1 1 0.998787
0.999005 1 1 0.999005
0.99871 1.00013 1 0.998584
0.998691 1 1 0.998691
0.999973 1 1 0.999973
0.999578 1 1 0.999578
0.99922 1 1 0.99922
0.998821 1 1 0.998821
0.998915 1.00033 1 0.99858
0.998748 1.00001 1 0.998734
0.998835 1 1 0.998835
0.999146 1.0004 1 0.998747
0.999649 1 1 0.999649
0.999386 1 1 0.999386
0.999805 1 1 0.999805
0.998823 1.0003 1 0.998522
0.998652 1.00002 1 0.998633
1.00122 1.00278 1 0.998447
0.999492 1.00096 1 0.99853
0.99961 1 1 0.99961
0.999311 1 1 0.999311
0.998997 1 1 0.998997
0.998746 1.00007 1 0.998671
1.00052 1.00192 1 0.998599
0.998723 1 1 0.998723
0.999668 1.00097 1 0.9987
0.999607 1.0008 1 0.998804
0.999378 1 1 0.999378
0.999255 1 1 0.999255
0.999871 1 1 0.999871
0.999444 1 1 0.999444
1.00207 1.00368 1 0.998399
1.00042 1.00193 1 0.99849
1.00613 1.00773 1 0.998412
1.00177 1.00326 1 0.998521
1.00041 1.00176 1 0.998652
1.00363 1.005 1 0.998629
0.999365 1 1 0.999365
1.00113 1.00234 1 0.998791
0.999139 1 1 0.999139
0.998886 1 1.00008 0.998803
0.998835 1.00018 1 0.998659
1.00084 1.00204 1 0.998806
0.999909 1 1 0.999909
0.999513 1 1 0.999513
0.999262 1 1 0.999262
0.999284 1 1 0.999284
0.99921 1 1 0.99921
1 1 1 1
0.998729 1 1 0.998729
0.999868 1 1 0.999868
0.999683 1 1 0.999683
0.999454 1 1 0.999454
0.998989 1 1 0.998989
0.998919 1.00026 1 0.998657
0.999314 1 1 0.999314
0.999244 1 1.00022 0.99902
0.999017 1 1 0.999017
0.99905 1 1 0.99905
1 1 1 1
0.999921 1 1 0.999921
0.999389 1 1 0.999389
0.999541 1 1 0.999541
0.999268 1 1 0.999268
0.999677 1.00109 1 0.998585
0.998873 1.00004 1 0.998829
0.99997 1.00137 1 0.998597
0.999418 1 1.00032 0.9991
0.998937 1 1 0.998937
0.999529 1 1.00067 0.998857
0.999943 1 1 0.999943
0.999622 1 1 0.999622
0.999192 1 1 0.999192
0.999344 1 1 0.999344
0.999171 1 1 0.999171
1.00131 1.00275 1 0.998558
0.999321 1.00056 1 0.998764
1.00066 1.00197 1 0.99869
1.00124 1 1.00233 0.998913
0.99875 1 1 0.99875
0.999962 1 1 0.999962
0.999692 1 1 0.999692
0.999733 1 1 0.999733
0.999589 1 1 0.999589
0.999756 1 1 0.999756
0.999982 1 1 0.999982
0.999979 1 1 0.999979
1 1 1 1
0.999975 1 1 0.999975
1 1 1 1
1 1 1 1
1 1 1 1
1 1 1 1
1 1 1 1
1 1 1 1
1 1 1 1
1 1 1 1
1 1 1 1
1 1 1 1
1 1 1 1
0.998687 1 1 0.998686
0.998605 1 1 0.998605
0.999264 1.00071 1 0.998551
1.00149 1.00305 1 0.998453
0.9989 1.00042 1 0.998483
0.998791 1 1 0.998791
0.998993 1.00053 1 0.998467
1.00371 1.00532 1 0.998398
1.0004 1.00189 1 0.998504
1.00635 1.00789 1 0.998466
0.999524 1.00095 1 0.998572
1.00251 1.00392 1 0.998595
1.00337 1.005 1 0.998374
1.00914 1.01075 1 0.998405
1.00437 1.00585 1 0.998524
1.00797 1.0095 1 0.998481
1.00251 1.00393 1 0.998588
1.00569 1.00706 1 0.998643
0.998883 1.00039 1 0.998496
0.998648 1.00002 1 0.998633
1.00146 1.00302 1 0.998438
0.999855 1.00132 1 0.998535
0.999611 1 1 0.999611
0.999308 1 1 0.999308
0.999024 1 1 0.999024
0.998761 1.00008 1 0.998681
1.00052 1.00191 1 0.998607
0.999911 1.00121 1 0.9987
0.998706 1 1 0.998706
0.999628 1.00082 1 0.998814
0.999381 1 1 0.999381
0.99924 1 1 0.99924
0.999868 1 1 0.999868
0.999455 1 1 0.999455
1.00236 1.00397 1 0.9984
1.00063 1.00214 1 0.99849
1.00566 1.00726 1 0.998415
1.00149 1.00298 1 0.998521
0.999364 1 1 0.999364
0.999162 1 1 0.999162
0.998997 1 1.0002 0.9988
1.00045 1.00181 1 0.998646
1.00352 1.00487 1 0.998659
0.998847 1.0002 1 0.998649
1.00134 1.00256 1 0.998792
1.00066 1.00183 1 0.998836
0.999262 1 1 0.999262
0.999206 1 1 0.999206
0.999282 1 1 0.999282
0.999886 1 1 0.999886
0.999523 1 1 0.999523
1.0084 1.01004 1 0.998379
1.00569 1.00728 1 0.998423
1.00487 1.00631 1 0.998569
1.00379 1.00508 1 0.998713
0.999253 1 1 0.999253
1.00332 1.00446 1 0.998865
0.999149 1 1.00013 0.999016
0.999006 1 1.00041 0.998599
0.999791 1.0012 1 0.998591
0.999893 1 1 0.999893
0.99962 1 1 0.99962
0.999364 1 1 0.999364
0.999227 1 1 0.999227
0.999167 1 1 0.999167
0.999167 1 1 0.999167
1 1 1 1
0.999925 1 1 0.999925
0.999636 1.00106 1 0.998582
0.999541 1 1 0.999541
0.999389 1 1 0.999389
0.999256 1 1 0.999256
0.998833 1 1 0.99883
0.999915 1.00132 1 0.998593
0.99931 1 1.00021 0.999103
0.999464 1 1.00059 0.998873
0.998947 1 1 0.998947
0.999947 1 1 0.999947
0.999623 1 1 0.999623
0.999243 1 1.00004 0.999201
0.999343 1 1 0.999343
0.999157 1 1 0.999157
1.00133 1.00278 1 0.998556
0.999086 1.00033 1 0.998759
1.00065 1.00195 1 0.998706
1.00068 1 1.00178 0.998903
0.998777 1 1.00006 0.998721
0.999681 1 1 0.999681
0.999393 1 1 0.999393
1.00007 1 1.00102 0.999056
0.999171 1 1 0.999171
0.999076 1 1 0.999076
1.00475 1.006 1 0.998761
0.99921 1.00055 1 0.998666
1.00178 1.00307 1 0.998716
1.00222 1 1.00342 0.998797
0.998529 1 1 0.998529
0.999966 1 1 0.999966
0.999705 1 1 0.999705
0.999508 1 1 0.999508
0.999718 1 1 0.999718
0.999756 1 1 0.999756
0.999567 1 1 0.999567
0.999451 1 1 0.999451
0.999561 1 1 0.999561
0.999764 1 1 0.999764
0.999982 1 1 0.999982
0.999982 1 1 0.999982
1 1 1 1
0.999981 1 1 0.999981
1 1 1 1
1 1 1 1
1 1 1 1
1 1 1 1
1 1 1 1
1 1 1 1
1 1 1 1
1 1 1 1
1 1 1 1
1 1 1 1
1 1 1 1
0.999716 1.00115 1 0.99857
1.00003 1.00153 1 0.998504
1.00236 1.00377 1 0.998596
1.0064 1.00794 1 0.998469
1.00379 1.0054 1 0.998391
0.999027 1.00056 1 0.998467
1.00344 1.00507 1 0.99837
1.00904 1.01065 1 0.998404
1.00474 1.00624 1 0.998513
1.00829 1.00983 1 0.998478
1.00203 1.00344 1 0.998589
1.00557 1.00692 1 0.998662
1.00928 1.01092 1 0.998374
1.00982 1.01139 1 0.99845
1.00843 1.00989 1 0.998559
1.00585 1.00713 1 0.998727
1.00265 1.00426 1 0.9984
1.00084 1.00235 1 0.998489
1.00521 1.0068 1 0.998419
1.00122 1.00271 1 0.998521
0.999364 1 1 0.999364
0.999184 1 1 0.999184
0.999213 1 1.00042 0.998797
1.0005 1.00186 1 0.998641
1.00345 1.00477 1 0.99869
1.00159 1.0028 1 0.998793
0.998849 1.00021 1 0.99864
1.00047 1.0016 1 0.998866
0.999263 1 1 0.999263
0.999202 1 1 0.999202
0.999279 1 1 0.999279
0.999863 1 1 0.999863
0.999533 1 1 0.999533
1.00796 1.00959 1 0.998383
1.00562 1.0072 1 0.99843
1.00475 1.00618 1 0.998575
0.99925 1 1 0.99925
0.999175 1 1.00013 0.999042
0.999259 1 1.00067 0.998594
1.00393 1.00523 1 0.998704
0.999826 1.0012 1 0.998629
1.00255 1.00369 1 0.998865
0.999894 1 1 0.999894
0.999225 1 1 0.999225
0.999179 1 1 0.999179
0.999163 1 1 0.999163
0.999372 1 1 0.999372
0.999602 1 1 0.999602
1.00929 1.01091 1 0.998396
1.00689 1.00844 1 0.998465
1.0061 1.00748 1 0.998631
1.00583 1.00703 1 0.998807
0.999183 1 1 0.999183
1.00104 1.00235 1 0.998694
1.00009 1 1.00133 0.998765
0.99978 1.00028 1.00104 0.99846
0.99992 1 1 0.99992
0.999674 1 1 0.999674
0.999436 1 1 0.999436
0.999195 1 1 0.999195
0.999166 1 1 0.999166
0.999108 1 1 0.999108
0.999951 1 1 0.999951
0.999624 1 1 0.999624
1.00141 1.00286 1 0.998553
0.999342 1 1 0.999342
0.99921 1 1 0.99921
0.999144 1 1 0.999144
0.998892 1.00014 1 0.998754
1.0007 1.00198 1 0.998723
1.00015 1 1.00126 0.998893
0.998958 1 1.00027 0.998692
0.999681 1 1 0.999681
0.999401 1 1 0.999401
0.999872 1 1.0008 0.999072
0.999177 1 1 0.999177
0.999086 1 1 0.999086
1.00468 1.00592 1 0.998767
0.9992 1.00053 1 0.998666
1.0018 1.00301 1 0.998791
1.00244 1 1.00366 0.998784
0.998519 1 1.00003 0.99849
0.999467 1 1 0.999467
0.999211 1 1 0.999211
1.00188 1 1.00293 0.998952
0.999013 1 1 0.999013
1.01094 1.01214 1 0.998808
1.00696 1.00825 0.999872 0.998853
1.00045 1.00196 1 0.998495
1.00241 1 1.0039 0.998514
0.999717 1 1 0.999717
0.999518 1 1 0.999518
0.999394 1 1 0.999394
0.999756 1 1 0.999756
0.999545 1 1 0.999545
0.999764 1 1 0.999764
0.999434 1 1 0.999434
0.999569 1 1 0.999569
0.999337 1 1 0.999337
0.999434 1 1 0.999434
0.999568 1 1 0.999568
0.999764 1 1 0.999764
0.999979 1 1 0.999979
0.999981 1 1 0.999981
1 1 1 1
0.999982 1 1 0.999982
1 1 1 1
1 1 1 1
1 1 1 1
1 1 1 1
1 1 1 1
1 1 1 1
1 1 1 1
1 1 1 1
1 1 1 1
1 1 1 1
1 1 1 1
1.00153 1.00294 1 0.99859
1.00511 1.00662 1 0.998502
1.00546 1.00679 1 0.99868
1.00859 1.01013 1 0.998476
1.00893 1.01054 1 0.998404
1.00352 1.00516 1 0.998366
1.00904 1.01068 1 0.99838
1.00951 1.01107 1 0.998449
1.00822 1.00967 1 0.998564
1.00667 1.00796 1 0.998721
1.01079 1.01239 1 0.998419
1.01066 1.01213 1 0.998543
1.00992 1.01127 1 0.998664
1.00752 1.00915 1 0.998387
1.00557 1.00714 1 0.998437
1.00457 1.006 1 0.998581
0.999248 1 1 0.999248
0.999093 1 1.00003 0.999068
0.999336 1 1.00075 0.998588
1.00403 1.00534 1 0.998696
1.0019 1.00304 1 0.998866
0.999893 1.00123 1 0.998667
0.999223 1 1 0.999223
0.999191 1 1 0.999191
0.999159 1 1 0.999159
0.999896 1 1 0.999896
0.99938 1 1 0.99938
0.999584 1 1 0.999584
1.0099 1.01152 1 0.998398
1.00673 1.00828 1 0.998465
1.00608 1.00747 1 0.998618
0.999178 1 1 0.999178
0.99991 1 1.0011 0.998811
0.999641 1.00027 1.0009 0.998468
1.00622 1.00741 1 0.998825
1.00129 1.0026 1 0.998687
0.999939 1 1 0.999939
0.999675 1 1 0.999675
0.999168 1 1 0.999168
0.999128 1 1 0.999128
0.999196 1 1 0.999196
0.999422 1 1 0.999422
1.01025 1.0118 1 0.998471
1.00778 1.00925 1 0.998537
1.0087 1.01005 0.999877 0.998783
1.006 1.00714 1 0.998868
0.999768 1 1.00071 0.999058
1.00035 1.00053 1.0014 0.998414
1.00119 1 1.00257 0.998618
0.999977 1 1 0.999977
0.99978 1 1 0.99978
0.999679 1 1 0.999679
0.999459 1 1 0.999459
0.999262 1 1 0.999262
0.999072 1 1 0.999072
0.999186 1 1 0.999186
1.00135 1 1.00219 0.999158
0.999682 1 1 0.999682
0.999409 1 1 0.999409
1.00452 1.00575 1 0.998773
0.999183 1 1 0.999183
0.999884 1 1.0008 0.999088
0.999096 1 1 0.999096
0.999162 1.0005 1 0.998666
1.00176 1.0029 1 0.998867
1.00267 1 1.0039 0.998772
0.998451 1 1 0.998451
0.999459 1 1 0.999459
0.99922 1 1 0.99922
1.0022 1 1.00324 0.998965
0.999027 1 1 0.999027
1.01043 1.01164 1 0.998802
1.00633 1.00754 0.999949 0.998845
1.00079 1.00227 1 0.998528
1.00194 1 1.00345 0.998492
0.999335 1 1 0.999335
1.01129 1.01331 0.999254 0.998748
0.999081 1 1 0.999079
1.00112 1 1.00231 0.998818
1.01311 1.01452 0.999722 0.998887
1.00519 1.00667 1 0.998532
1.00236 1.00076 1.00323 0.99837
0.999529 1 1 0.999529
0.999394 1 1 0.999394
0.999286 1 1 0.999286
0.999764 1 1 0.999764
0.999577 1 1 0.999577
0.999417 1 1 0.999417
0.999764 1 1 0.999764
0.999568 1 1 0.999568
0.999323 1 1 0.999323
0.999451 1 1 0.999451
0.999251 1 1 0.999251
0.999322 1 1 0.999322
0.999464 1 1 0.999464
0.999582 1 1 0.999582
0.999757 1 1 0.999757
0.999976 1 1 0.999976
0.999978 1 1 0.999978
1 1 1 1
0.99998 1 1 0.99998
1 1 1 1
1 1 1 1
1 1 1 1
1 1 1 1
1 1 1 1
0.999987 1 1 0.999987
1 1 1 1
1 1 1 1
1 1 1 1
1 1 1 1
1 1 1 1
1 1 1 1
1.00751 1.0088 1 0.998716
1.008 1.00945 1 0.998569
1.00921 1.01078 1 0.998447
1.0088 1.01044 1 0.998385
1.01062 1.01222 1 0.998427
1.01108 1.01257 1 0.998532
1.01047 1.0118 1 0.998677
1.01098 1.01248 1 0.998515
1.0127 1.01409 1 0.998624
1.00815 1.01129 0.998104 0.998785
1.01046 1.01208 1 0.9984
1.00659 1.00814 1 0.998465
1.00614 1.00754 1 0.998606
0.999172 1 1 0.999172
0.999915 1 1.00106 0.998858
0.999481 1.00023 1.00078 0.998475
1.00668 1.00784 1 0.998843
1.0013 1.00263 1 0.998681
0.999169 1 1 0.999169
0.999147 1 1 0.999147
0.999198 1 1 0.999198
0.999957 1 1 0.999957
0.999675 1 1 0.999675
0.999409 1 1 0.999409
1.0098 1.01133 1 0.998483
0.999973 1 1 0.999973
0.999768 1 1 0.999768
1.00743 1.00891 1 0.998536
1.00988 1.01115 0.99999 0.998755
0.99973 1 1.00064 0.999087
1.00185 1 1.00326 0.998586
0.999967 1.00071 1.00084 0.998422
1.00547 1.00661 1 0.998865
0.999714 1 1 0.999714
0.999458 1 1 0.999458
0.999158 1 1 0.999158
1.00031 1 1.0011 0.999217
0.999051 1 1 0.999051
0.999265 1 1 0.999265
1.01154 1.01317 0.999795 0.998599
1.01153 1.01291 1 0.998644
1.00971 1.0115 0.999263 0.998971
1.00131 1.00266 1 0.998652
1.00134 1 1.00231 0.999037
1.00395 1.00009 1.00547 0.998406
0.999783 1 1 0.999783
0.999745 1 1 0.999745
0.999609 1 1 0.999609
0.999463 1 1 0.999463
0.999321 1 1 0.999321
0.999111 1 1 0.999111
1.00149 1 1.00252 0.998971
0.999232 1 1 0.999232
0.999451 1 1 0.999451
0.999229 1 1 0.999229
1.0101 1.01132 1 0.998796
1.00589 1.00706 1 0.998838
0.99904 1 1 0.99904
1.00241 1 1.00343 0.998978
1.0012 1.00261 1.00004 0.998562
1.00152 1 1.00306 0.99847
0.999332 1 1 0.999332
1.0114 1.01343 0.999226 0.998766
0.999085 1 1 0.999083
1.00118 1 1.00238 0.998798
1.0129 1.01431 0.999735 0.998871
1.00566 1.00712 1 0.998549
1.0025 1.00065 1.00348 0.998377
0.999176 1 1 0.999176
1.01804 1.02162 0.99757 0.998922
0.998961 1 1 0.998958
1.0023 1 1.0037 0.998614
1.00631 1.01047 0.997225 0.998652
1.00184 1.00125 1.00221 0.998372
1.00636 1.00888 0.998501 0.998995
0.999393 1 1 0.999393
0.999285 1 1 0.999285
0.999203 1 1 0.999203
0.999764 1 1 0.999764
0.999568 1 1 0.999568
0.999469 1 1 0.999469
0.999308 1 1 0.999308
0.999757 1 1 0.999757
0.999573 1 1 0.999573
0.999245 1 1 0.999245
0.999463 1 1 0.999463
0.999337 1 1 0.999337
0.999235 1 1 0.999235
0.999378 1 1 0.999378
0.99947 1 1 0.99947
0.999548 1 1 0.999548
0.999721 1 1 0.999721
0.999603 1 1 0.999603
0.999723 1 1 0.999723
0.999974 1 1 0.999974
0.999975 1 1 0.999975
1 1 1 1
0.999977 1 1 0.999977
1 1 1 1
1 1 1 1
1 1 1 1
1 1 1 1
1 1 1 1
0.999992 1 1 0.999992
0.999984 1 1 0.999984
1 1 1 1
1 1 1 1
1 1 1 1
1 1 1 1
1 1 1 1
1 1 1 1
1.01095 1.01227 1 0.998691
1.01152 1.01302 1 0.998522
1.01048 1.01207 1 0.998435
1.01141 1.01292 1 0.998514
1.01196 1.01335 0.999997 0.998627
1.00918 1.01181 0.998605 0.998791
1.01174 1.01345 0.999631 0.998685
1.00962 1.01596 0.994948 0.998805
1.01946 1.02353 0.997025 0.998994
0.999828 1 1 0.999828
1.00938 1.0109 1 0.998495
1.00695 1.00843 1 0.998534
1.01081 1.0121 1 0.998726
0.999696 1 1.00058 0.999117
1.00255 1 1.00401 0.998554
0.999875 1.001 1.00045 0.99843
1.00494 1.00609 1 0.998863
0.99913 1 1 0.99913
0.999277 1 1 0.999277
0.999031 1 1 0.999031
0.99997 1 1 0.99997
0.999268 1 1 0.999268
0.999749 1 1 0.999749
0.999457 1 1 0.999457
0.999755 1 1 0.999755
1.01186 1.01345 0.999828 0.998601
0.999799 1 1 0.999799
0.999744 1 1 0.999744
0.999582 1 1 0.999582
1.01198 1.01338 0.999978 0.998647
1.00845 1.01025 0.999283 0.998934
1.00059 1 1.00154 0.999051
1.00396 1.00003 1.00553 0.998401
1.00158 1.00276 1.00016 0.998657
0.999482 1 1 0.999482
0.999313 1 1 0.999313
0.999863 1 1.00067 0.999194
1.00133 1 1.00233 0.999
0.999126 1 1 0.999126
1.01164 1.0144 0.998626 0.998649
1.01061 1.01452 0.997374 0.998769
1.0045 1.00636 0.999373 0.998776
1.0034 1.00155 1.00332 0.998539
1.00373 1 1.00478 0.998959
0.999583 1 1 0.999583
0.999516 1 1 0.999516
0.999443 1 1 0.999443
0.99933 1 1 0.99933
0.999201 1 1 0.999201
0.99995 1 1.00093 0.999019
1.00476 1 1.00585 0.998918
0.999329 1 1 0.999329
0.999087 1 1 0.999087
1.01149 1.01345 0.999282 0.998783
1.01251 1.01397 0.999702 0.998855
1.00592 1.00736 1 0.998566
1.0012 1 1.00242 0.998778
1.0025 1.00052 1.0036 0.998385
0.999195 1 1 0.999195
1.01801 1.02208 0.997093 0.998925
0.999021 1 1.00006 0.998966
1.00253 1 1.00391 0.998624
1.00729 1.0108 0.99784 0.998693
1.0022 1.00115 1.00269 0.998364
1.00737 1.00987 0.998686 0.998844
0.999084 1 1 0.999084
1.00266 1.0135 0.990398 0.998888
1.00049 1 1.00157 0.998922
1.00488 1 1.00635 0.99854
1.00172 1.00217 1.00104 0.998506
0.960827 0.971253 0.996178 0.993061
0.996327 0.993764 1.00562 0.996976
0.985418 1.00466 0.981703 0.99913
0.911466 0.933178 0.981609 0.995032
0.903934 0.947174 0.958823 0.995332
0.999284 1 1 0.999284
0.999211 1 1 0.999211
0.9992 1 1 0.9992
0.999756 1 1 0.999756
0.999563 1 1 0.999563
0.999463 1 1 0.999463
0.999352 1 1 0.999352
0.999239 1 1 0.999239
0.999455 1 1 0.999455
0.999735 1 1 0.999735
0.99956 1 1 0.99956
0.999241 1 1 0.999241
0.999375 1 1 0.999375
0.999385 1 1 0.999385
0.999305 1 1 0.999305
0.999423 1 1 0.999423
0.999532 1 1 0.999532
0.999719 1 1 0.999719
0.999573 1 1 0.999573
0.999472 1 1 0.999472
0.999574 1 1 0.999574
0.999582 1 1 0.999582
0.999751 1 1 0.999751
0.999722 1 1 0.999722
0.999973 1 1 0.999973
0.999974 1 1 0.999974
1 1 1 1
0.999975 1 1 0.999975
1 1 1 1
1 1 1 1
1 1 1 1
1 1 1 1
1 1 1 1
0.999994 1 1 0.999994
0.99999 1 1 0.99999
1 1 1 1
0.999982 1 1 0.999982
1 1 1 1
1 1 1 1
1 1 1 1
1 1 1 1
1 1 1 1
1.01125 1.01265 0.999988 0.998629
1.01178 1.01329 1 0.998512
1.01001 1.01222 0.999014 0.998796
1.00997 1.01572 0.995498 0.998828
1.01152 1.0132 0.999656 0.998685
1.02031 1.02428 0.997167 0.99895
1.02118 1.02352 0.999073 0.998641
0.975831 0.984914 0.994382 0.996376
1.01589 1.01935 0.997607 0.998996
0.999837 1 1 0.999837
0.999828 1 1 0.999828
0.999638 1 1 0.999638
0.999658 1 1 0.999658
1.01226 1.01376 0.99992 0.998603
1.0125 1.01389 0.999981 0.998651
1.00727 1.00891 0.999481 0.998896
0.999744 1 1.00068 0.999064
1.00375 1 1.00536 0.998396
1.00182 1.00303 1.00013 0.998662
1.00049 1 1.00134 0.999154
1.00112 1 1.00209 0.999028
0.999141 1 1 0.999141
0.999743 1 1 0.999743
0.999304 1 1 0.999304
0.9995 1 1 0.9995
0.999815 1 1 0.999815
0.999556 1 1 0.999556
1.01031 1.01261 0.999057 0.998665
0.999611 1 1 0.999611
0.999531 1 1 0.999531
0.99944 1 1 0.99944
1.01252 1.01552 0.99826 0.99878
1.00318 1.00524 0.99918 0.998772
1.0036 1 1.00465 0.998956
1.00305 1.00168 1.00285 0.998525
0.999334 1 1 0.999334
0.999209 1 1 0.999209
1.00363 1 1.00471 0.998919
1.00056 1 1.00156 0.999
1.01819 1.02071 0.998853 0.998679
1.00194 1.01173 0.991555 0.998761
1.00267 1.00345 1.00073 0.998501
1.0019 1 1.00306 0.998835
0.999391 1 1 0.999391
0.999374 1 1 0.999374
0.999153 1 1 0.999153
1.00618 1 1.00737 0.998816
0.949821 0.967902 0.988364 0.992872
0.999214 1 1 0.999214
0.999069 1 1.0001 0.998973
1.01757 1.02237 0.996369 0.998929
1.00833 1.01105 0.99857 0.998735
1.00276 1.00111 1.0033 0.998357
1.00284 1 1.00421 0.998633
1.00792 1.01061 0.998655 0.99869
0.999146 1 1.00005 0.999098
1.00189 1.01307 0.990079 0.998876
1.00009 1 1.00116 0.998928
1.00462 1 1.00609 0.998542
1.00171 1.00297 1.00023 0.998518
0.958532 0.970611 0.994264 0.993253
0.991326 0.992037 1.00336 0.995936
0.988093 1.00454 0.984431 0.99918
0.917882 0.93594 0.985976 0.994655
0.893269 0.939515 0.955576 0.994978
0.999516 1 1.00038 0.99914
0.925128 0.941418 0.98833 0.9943
0.927349 0.949548 0.980831 0.995707
0.978894 1.00369 0.976382 0.99889
1.0041 1 1.00517 0.998936
1.00903 1.00024 1.01012 0.998676
0.988218 1.00259 0.986376 0.999282
0.968062 0.972777 1.00242 0.992747
0.990838 0.988415 1.00682 0.995664
0.904343 0.937194 0.969889 0.994905
0.936871 0.973341 0.965929 0.996483
0.999218 1 1 0.999218
0.9992 1 1 0.9992
0.999266 1 1 0.999266
0.999749 1 1 0.999749
0.999571 1 1 0.999571
0.99944 1 1 0.99944
0.999371 1 1 0.999371
0.999248 1 1 0.999248
0.999719 1 1 0.999719
0.999386 1 1 0.999386
0.999439 1 1 0.999439
0.999548 1 1 0.999548
0.999295 1 1 0.999295
0.999339 1 1 0.999339
0.999492 1 1.0002 0.999295
0.99943 1 1 0.99943
0.999561 1 1 0.999561
0.999573 1 1 0.999573
0.999457 1 1 0.999457
0.999446 1 1 0.999446
0.999446 1 1 0.999446
0.999388 1 1 0.999388
0.999355 1 1 0.999355
0.999552 1 1 0.999552
0.999574 1 1 0.999574
0.999749 1 1 0.999749
0.999561 1 1 0.999561
0.999739 1 1 0.999739
0.999973 1 1 0.999973
0.999721 1 1 0.999721
0.999973 1 1 0.999973
1 1 1 1
0.999974 1 1 0.999974
1 1 1 1
1 1 1 1
1 1 1 1
1 1 1 1
1 1 1 1
0.999831 1 1 0.999831
0.999994 1 1 0.999994
0.999993 1 1 0.999993
1 1 1 1
0.999989 1 1 0.999989
1 1 1 1
1 1 1 1
1 1 1 1
1 1 1 1
1 1 1 1
1.01116 1.01581 0.996573 0.998851
1.01134 1.01306 0.999615 0.998685
1.02167 1.02519 0.997651 0.998905
0.978254 0.984356 0.996811 0.996981
1.01535 1.01907 0.997319 0.999032
1.02172 1.02474 0.998423 0.998628
1.01938 1.02263 0.998057 0.99877
0.980892 0.986526 0.997162 0.997118
0.958889 0.970937 0.995438 0.992117
0.899989 0.930401 0.973313 0.993835
0.895857 0.935237 0.962481 0.995233
0.999629 1 1 0.999629
0.999836 1 1 0.999836
0.999828 1 1 0.999828
0.99963 1 1 0.99963
0.999509 1 1 0.999509
0.999538 1 1 0.999538
0.99964 1 1 0.99964
0.999646 1 1 0.999646
1.00871 1.01071 0.999343 0.998682
1.01464 1.01691 0.998976 0.998791
1.00211 1.00434 0.999003 0.998768
1.00359 1 1.00464 0.998953
1.00283 1.0016 1.00272 0.99851
1.0026 1 1.00368 0.998919
1.00125 1 1.00227 0.99898
0.999217 1 1 0.999217
0.999546 1 1 0.999546
0.999338 1 1 0.999338
0.999639 1 1 0.999639
0.999436 1 1 0.999436
1.01864 1.02158 0.998469 0.998655
0.999406 1 1 0.999406
0.999374 1 1 0.999374
1.00292 1.01054 0.993694 0.998752
1.00259 1.00379 1.00025 0.998563
1.00349 1 1.00471 0.998794
0.99922 1 1.00007 0.999146
1.00561 1 1.0068 0.99882
1.01396 1.02102 0.994475 0.998609
0.990169 1.00324 0.988254 0.998706
0.999731 1 1.00103 0.998701
1.00664 1 1.00782 0.998832
0.999315 1 1 0.999315
0.999218 1 1 0.999218
1.00074 1 1.00176 0.998979
0.914979 0.941219 0.977382 0.994617
0.956036 0.969574 0.992655 0.993333
0.999221 1 1.00011 0.999111
0.999803 1 1.00087 0.998934
1.002 1.01305 0.990213 0.998865
1.00178 1.00385 0.999406 0.99853
1.00425 1 1.00571 0.998544
0.959569 0.971653 0.995517 0.99201
0.991949 0.993212 1.00206 0.996672
0.991191 1.00464 0.987375 0.999228
0.912789 0.937164 0.979666 0.994206
0.881938 0.930843 0.952584 0.994623
0.999376 1 1.00024 0.99914
0.920161 0.944479 0.979401 0.994743
0.927747 0.947192 0.983778 0.995621
0.981543 1.00434 0.978402 0.99888
1.00349 1 1.00454 0.998947
1.00818 1.00014 1.00933 0.998717
0.981804 1.00012 0.98238 0.999291
0.968788 0.974072 1.00229 0.992301
0.989333 0.988481 1.00421 0.996667
0.906915 0.936168 0.974623 0.993977
0.936132 0.9734 0.965336 0.996247
1.00022 1 1.00103 0.999189
0.944147 0.950959 0.996381 0.996442
0.9908 0.992171 1.00073 0.997891
0.986829 1.00029 0.987361 0.999174
1.00906 1 1.00988 0.999192
1.00418 0.997662 1.00691 0.999625
0.982215 0.986027 0.998476 0.997655
0.970654 0.970593 1.00769 0.992432
0.927547 0.959504 0.97255 0.993979
0.95788 0.991102 0.969113 0.997282
0.999199 1 1 0.999199
0.999248 1 1 0.999248
0.999771 1 1.00042 0.99935
0.999718 1 1 0.999718
0.999564 1 1 0.999564
0.999455 1 1 0.999455
0.999386 1 1 0.999386
0.999286 1 1 0.999286
0.999561 1 1 0.999561
0.99935 1 1 0.99935
0.99943 1 1 0.99943
0.999545 1 1.00024 0.9993
0.999903 1 1.00055 0.999348
0.999425 1 1.00009 0.999338
0.999431 1 1 0.999431
0.999572 1 1 0.999572
0.999442 1 1 0.999442
0.999446 1 1 0.999446
0.999445 1 1 0.999445
0.999385 1 1 0.999385
0.999412 1 1 0.999412
0.999372 1 1 0.999372
0.999348 1 1 0.999348
0.999222 1 1 0.999222
0.999649 1 1.00054 0.999111
0.999283 1 1 0.999283
0.999353 1 1 0.999353
0.999514 1 1 0.999514
0.999551 1 1 0.999551
0.999738 1 1 0.999738
0.999574 1 1 0.999574
0.999748 1 1 0.999748
0.999972 1 1 0.999972
0.999727 1 1 0.999727
0.999973 1 1 0.999973
1 1 1 1
0.999973 1 1 0.999973
1 1 1 1
1 1 1 1
1 1 1 1
1 1 1 1
1 1 1 1
0.999846 1 1 0.999846
0.999993 1 1 0.999993
0.999831 1 1 0.999831
1 1 1 1
0.999994 1 1 0.999994
0.999993 1 1 0.999993
1 1 1 1
1 1 1 1
1 1 1 1
1 1 1 1
1 1 1 1
0.917922 0.939149 0.982373 0.994936
0.934142 0.951043 0.986068 0.996107
0.981248 0.985045 0.998726 0.997415
1.01508 1.01871 0.997364 0.999068
1.02227 1.02587 0.997873 0.998615
0.980402 0.985026 0.997188 0.998113
1.01995 1.02244 0.998782 0.998779
0.960818 0.971973 0.995291 0.9932
0.911268 0.933753 0.980987 0.994834
0.887218 0.932157 0.956691 0.994877
0.998597 1.00007 0.999837 0.998693
0.966192 0.971992 1.00094 0.993097
0.899055 0.934278 0.967317 0.994812
0.935345 0.970371 0.967837 0.995937
0.999464 1 1 0.999464
0.99964 1 1 0.99964
0.999836 1 1 0.999836
0.999621 1 1 0.999621
0.999525 1 1 0.999525
0.999486 1 1 0.999486
0.999538 1 1 0.999538
0.999568 1 1 0.999568
0.999625 1 1 0.999625
0.999634 1 1 0.999634
1.01916 1.02239 0.998209 0.998632
1.00303 1.00866 0.995669 0.998742
1.00243 1.00409 0.999727 0.998624
1.00489 1 1.00614 0.998753
1.00472 1 1.00591 0.998824
0.999259 1 1.00012 0.999139
0.999373 1 1 0.999373
0.99942 1 1 0.99942
1.01374 1.02114 0.99415 0.998588
0.999309 1 1 0.999309
0.999202 1 1 0.999202
0.991714 1.00318 0.989888 0.998664
1.00008 1 1.00133 0.998752
1.00556 1 1.00678 0.998791
1.00169 1 1.00272 0.998968
1.00718 1.00989 0.998607 0.998713
0.995929 1 0.996881 0.999045
1.00595 1 1.00706 0.998897
0.999296 1 1 0.999296
0.999196 1 1 0.999196
0.999059 1 1 0.999059
0.944668 0.953829 0.993715 0.99666
0.919584 0.94108 0.982975 0.994082
0.953818 0.970637 0.989755 0.992844
0.999139 1 1 0.999139
1.00283 1 1.00387 0.998957
0.984163 1.00483 0.980537 0.998871
1.0074 1 1.00866 0.998758
0.917491 0.943089 0.978709 0.994021
0.967693 0.973276 1.00059 0.993673
0.988701 0.989873 1.00311 0.99572
0.979135 0.99801 0.981767 0.999308
0.909334 0.934879 0.977674 0.994887
0.92911 0.949626 0.982813 0.995506
0.93196 0.971853 0.962808 0.995994
1.00037 1 1.00118 0.999188
0.942313 0.9525 0.992861 0.996418
0.991632 0.992678 1.00106 0.997889
0.989703 1.00012 0.990377 0.9992
1.00902 1 1.00984 0.999188
1.00396 0.998781 1.00595 0.999244
0.982896 0.985224 1.00139 0.996252
0.967242 0.971204 1.00352 0.99243
0.93012 0.962193 0.971385 0.995143
0.951646 0.985252 0.968762 0.997036
1.00113 1 1.00164 0.999496
0.99156 0.993183 0.999894 0.998471
1.00025 0.996941 1.00451 0.998813
1.00929 0.99951 1.01008 0.999715
0.991885 0.987233 1.00594 0.998779
0.970878 0.972843 1.00584 0.992186
0.957214 0.976014 0.985228 0.995443
0.958703 0.995815 0.965683 0.996945
0.999229 1 1 0.999229
0.999716 1 1.00036 0.999361
1.00075 1 1.0013 0.999451
0.99956 1 1 0.99956
0.999429 1 1 0.999429
0.99936 1 1 0.99936
0.999586 1 1.00028 0.999305
0.999431 1 1 0.999431
0.999367 1 1.00003 0.999336
1.00029 1 1.00093 0.999362
1.00031 1 1.00086 0.999456
0.999548 1 1.00021 0.999336
0.999358 1 1 0.999358
0.999446 1 1 0.999446
0.999444 1 1 0.999444
0.999383 1 1 0.999383
0.999375 1 1 0.999375
0.999411 1 1 0.999411
0.999352 1 1 0.999352
0.999306 1 1 0.999306
0.999337 1 1 0.999337
0.999202 1 1 0.999202
0.999231 1 1 0.999231
0.999676 1 1.00055 0.999129
0.999502 1 1.00054 0.998959
0.999262 1 1 0.999262
0.999516 1 1.00036 0.999155
0.999304 1 1 0.999304
0.999436 1 1 0.999436
0.999352 1 1 0.999352
0.999513 1 1 0.999513
0.999715 1 1 0.999715
0.99955 1 1 0.99955
0.999738 1 1 0.999738
0.999969 1 1 0.999969
0.999748 1 1 0.999748
0.999971 1 1 0.999971
1 1 1 1
0.999972 1 1 0.999972
1 1 1 1
1 1 1 1
1 1 1 1
1 1 1 1
1 1 1 1
0.999784 1 1 0.999784
0.999991 1 1 0.999991
0.999818 1 1 0.999818
1 1 1 1
0.999994 1 1 0.999994
0.999831 1 1 0.999831
1 1 1 1
1 1 1 1
0.999994 1 1 0.999994
1 1 1 1
1 1 1 1
1 1 1 1
0.947769 0.954512 0.996126 0.996797
0.918141 0.940307 0.981952 0.994373
0.991229 0.994173 0.999232 0.997805
0.927931 0.946666 0.984223 0.995922
0.976315 0.983685 0.995652 0.996842
1.01975 1.02227 0.998745 0.998788
0.960655 0.97236 0.993627 0.994299
0.909329 0.935168 0.978284 0.993954
0.878951 0.929636 0.950687 0.994521
0.996281 0.999379 0.998694 0.998204
0.967386 0.971344 1.00335 0.992599
0.903656 0.938384 0.968953 0.993848
0.932662 0.969347 0.966193 0.995821
0.99452 0.997312 0.999039 0.99816
0.96936 0.969333 1.00779 0.992301
0.929873 0.962589 0.970804 0.995064
0.956608 0.991963 0.967292 0.996968
0.999369 1 1 0.999369
0.99948 1 1 0.99948
0.999651 1 1 0.999651
0.99954 1 1 0.99954
0.999392 1 1 0.999392
0.999498 1 1 0.999498
0.999538 1 1 0.999538
0.999551 1 1 0.999551
0.999584 1 1 0.999584
0.99961 1 1 0.99961
1.01404 1.02192 0.993707 0.998567
0.994103 1.0035 0.992003 0.998622
1.00039 1 1.00159 0.998803
1.00485 1 1.00611 0.998749
1.00277 1 1.00382 0.998956
0.999187 1 1 0.999187
0.999302 1 1 0.999302
0.999297 1 1 0.999297
1.00211 1.00864 0.994783 0.998734
0.999206 1 1 0.999206
0.999145 1 1.00009 0.999054
0.994265 1 0.995264 0.998996
1.005 1 1.00612 0.998893
0.987158 1.00197 0.986096 0.999112
1.01063 1 1.01132 0.999317
0.999825 1 1.00078 0.999042
0.999221 1 1 0.999221
0.999072 1 1 0.999072
0.990827 0.992292 0.999768 0.998756
0.947102 0.953984 0.995954 0.99682
0.918025 0.940662 0.980884 0.994955
1.00056 1 1.00138 0.999187
1.00886 0.999969 1.00972 0.999183
0.991043 1 0.991814 0.999223
0.948202 0.954953 0.996184 0.996733
0.970984 0.969963 1.00892 0.992204
0.984807 0.986529 1.00096 0.997293
0.998008 0.998838 1.00033 0.998837
0.929337 0.95953 0.974409 0.99397
0.991686 0.992353 1.00144 0.997887
0.946499 0.980997 0.967654 0.997086
1.00134 0.999984 1.00185 0.999502
0.990578 0.991816 1.00007 0.998679
1.00248 0.998792 1.00487 0.998824
1.00904 0.999521 1.00994 0.99959
0.991138 0.987855 1.00497 0.998365
0.974111 0.975117 1.00704 0.991988
0.959674 0.998941 0.963356 0.997235
0.941678 0.967809 0.978054 0.994832
1.00238 0.999368 1.0033 0.999711
0.999926 0.999972 1.00033 0.999622
1.00991 1.00581 1.00511 0.998972
0.958753 0.992718 0.968718 0.996974
1.00117 0.988472 1.01323 0.999624
0.978208 0.976557 1.00918 0.992576
0.934656 0.953785 0.984561 0.995311
0.999639 1 1.00027 0.999372
1.0005 1 1.00109 0.999414
1.00312 1 1.00355 0.999566
0.999431 1 1 0.999431
0.999335 1 1 0.999335
1.00075 1 1.00138 0.999377
0.99936 1 1 0.99936
0.999662 1 1.00033 0.999337
1.00069 1 1.00126 0.999429
0.999851 1 1.00035 0.999496
0.999325 1 1 0.999325
0.999377 1 1 0.999377
0.99941 1 1 0.99941
0.999357 1 1 0.999357
0.999335 1 1 0.999335
0.999313 1 1 0.999313
0.999594 1 1.00029 0.999303
0.999237 1 1 0.999237
1.00143 1 1.00247 0.998959
0.99924 1 1 0.99924
0.999577 1 1.00046 0.99912
0.999681 1 1.00085 0.998829
0.999466 1 1.00052 0.998947
0.999194 1 1 0.999194
0.999526 1 1.00056 0.998965
0.99939 1 1 0.99939
0.999245 1 1 0.999245
0.999386 1 1.00019 0.999199
0.999325 1 1 0.999325
0.999454 1 1 0.999454
0.999675 1 1 0.999675
0.999512 1 1 0.999512
0.999714 1 1 0.999714
0.999964 1 1 0.999964
0.999737 1 1 0.999737
0.999968 1 1 0.999968
1 1 1 1
0.999971 1 1 0.999971
1 1 1 1
1 1 1 1
1 1 1 1
1 1 1 1
1 1 1 1
0.999699 1 1 0.999699
0.999948 1 1 0.999948
0.999782 1 1 0.999782
1 1 1 1
0.999975 1 1 0.999975
0.999789 1 1 0.999789
1 1 1 1
1 1 1 1
0.999994 1 1 0.999994
1 1 1 1
1 1 1 1
1 1 1 1
0.989915 0.991609 0.999662 0.99863
0.940677 0.953468 0.990094 0.996456
0.919231 0.938737 0.985018 0.994115
0.999498 1 1 0.999498
0.997787 0.994618 1.0042 0.998988
0.992814 0.994214 1.00079 0.997804
0.922102 0.946151 0.978796 0.995696
0.99466 0.999252 0.997731 0.997667
0.970646 0.973326 1.00428 0.993
0.907686 0.942717 0.96791 0.994762
0.92749 0.966692 0.963621 0.995668
0.996994 0.999345 1.00085 0.996798
0.965693 0.96819 1.00487 0.992583
0.933526 0.963077 0.974507 0.994674
0.955786 0.991424 0.967211 0.996736
0.987437 0.988851 1.00257 0.996007
0.974617 0.96911 1.01456 0.991252
0.942214 0.969422 0.977365 0.994443
0.957629 0.995499 0.964916 0.996935
0.999283 1 1 0.999283
0.99936 1 1 0.99936
0.999496 1 1 0.999496
0.999383 1 1 0.999383
0.999412 1 1 0.999412
0.99951 1 1 0.99951
0.999555 1 1 0.999555
0.9996 1 1 0.9996
0.996582 1.00699 0.990905 0.998753
0.992275 1 0.993321 0.998947
0.999298 1 1 0.999298
1.004 1 1.00511 0.99889
0.999294 1 1.00025 0.999049
0.999216 1 1 0.999216
0.999224 1 1 0.999224
0.991719 1.00359 0.989038 0.999119
0.999092 1 1 0.999092
1.00071 1 1.00168 0.999039
1.00656 1 1.00724 0.999321
0.999239 1 1 0.999239
0.983729 0.995206 0.988933 0.999528
1.01262 0.999547 1.01363 0.999454
0.999144 1 1 0.999144
0.999183 1 1 0.999183
1.00015 1.00109 0.99935 0.999706
0.990354 0.991835 0.99973 0.998777
0.949958 0.954211 0.998555 0.996984
1.00148 0.999999 1.00198 0.999508
1.0098 0.999579 1.01076 0.999466
0.989386 0.990495 0.999995 0.998886
0.975953 0.972828 1.01092 0.992374
0.990618 0.985716 1.00807 0.99693
0.94519 0.970248 0.979781 0.994277
1.00449 1.0004 1.00526 0.998835
0.962609 1.00365 0.96149 0.997524
1.00267 0.999444 1.00355 0.999678
0.99879 0.999212 0.999948 0.99963
1.00911 1.00509 1.00484 0.99917
1.00699 0.993302 1.01385 0.999931
0.95667 0.991918 0.967626 0.996733
0.976001 0.974776 1.00872 0.992599
0.94131 0.964999 0.981112 0.994231
1.0065 0.996451 1.01031 0.999771
1.00839 1.00752 1.00111 0.999749
0.998137 0.996058 1.0031 0.998992
0.936316 0.97171 0.967485 0.99596
0.941669 0.970936 0.975358 0.99436
0.993427 0.987461 1.00626 0.999786
0.979598 0.970615 1.01746 0.991938
1.00027 1 1.00089 0.999376
1.00223 1 1.00268 0.99955
1.00829 0.996138 1.01262 0.999582
0.999362 1 1 0.999362
0.999704 1 1.00037 0.999338
1.00094 1 1.00154 0.999403
0.999321 1 1 0.999321
0.99993 1 1.00043 0.999497
1.00438 0.999846 1.00517 0.99937
0.999333 1 1 0.999333
0.99932 1 1 0.99932
0.99999 1 1.00071 0.99928
1.00555 1 1.00653 0.999028
0.999272 1 1 0.999272
1.0009 1 1.0019 0.999003
1.00281 1 1.00411 0.998708
1.00054 1 1.00188 0.998667
0.999449 1 1.00034 0.999111
0.999682 1 1.00089 0.998795
0.999462 1 1.00044 0.999019
0.999722 1 1.0006 0.999124
0.99944 1 1.00047 0.998974
0.999345 1 1 0.999345
0.99919 1 1 0.99919
0.999568 1 1.0006 0.998971
0.99962 1 1 0.99962
0.999384 1 1 0.999384
0.999228 1 1 0.999228
0.999471 1 1 0.999471
0.999674 1 1 0.999674
0.999952 1 1 0.999952
0.999713 1 1 0.999713
0.999961 1 1 0.999961
1 1 1 1
0.999967 1 1 0.999967
1 1 1 1
1 1 1 1
1 1 1 1
1 1 1 1
1 1 1 1
0.999665 1 1 0.999665
0.999923 1 1 0.999923
0.999716 1 1 0.999716
1 1 1 1
0.999947 1 1 0.999947
0.999781 1 1 0.999781
1 1 1 1
1 1 1 1
0.999959 1 1 0.999959
1 1 1 1
1 1 1 1
1 1 1 1
0.997967 0.998343 1.00002 0.999608
0.989743 0.991385 0.999705 0.998638
0.941162 0.954113 0.989912 0.996479
0.999504 1 1 0.999504
0.999467 1 1 0.999467
0.999398 1 1 0.999398
1.00963 1.00453 1.00611 0.99897
0.998372 0.995222 1.00417 0.999003
0.994073 0.99428 1.00199 0.997803
1.00277 1.00014 1.00475 0.997895
0.967716 0.969129 1.00622 0.992372
0.929805 0.959867 0.974528 0.994001
0.95741 0.993362 0.966889 0.996813
0.982463 0.983982 1.00127 0.997193
0.97048 0.968839 1.00952 0.992251
0.941615 0.965319 0.979964 0.995388
0.960002 0.999051 0.963584 0.997229
0.974504 0.979003 0.998515 0.996885
0.981246 0.973041 1.01617 0.992381
0.935101 0.953474 0.985348 0.995314
0.956981 0.989628 0.96967 0.997257
0.99927 1 1 0.99927
0.999281 1 1 0.999281
0.999351 1 1 0.999351
0.999381 1 1 0.999381
0.999433 1 1 0.999433
0.99956 1 1 0.99956
0.996789 1.00517 0.992532 0.999124
1.00245 1 1.00313 0.999324
0.999228 1 1 0.999228
1.00135 1 1.00231 0.999036
0.999112 1 1 0.999112
0.999229 1 1 0.999229
0.999187 1 1 0.999187
0.992986 0.997817 0.995638 0.999519
0.999182 1 1 0.999182
1.00956 0.99731 1.0128 0.99948
0.999251 1 1 0.999251
1.00776 0.989941 1.01825 0.999754
0.994805 0.994749 1.00044 0.99962
0.99925 1 1 0.99925
1.01076 1.01141 0.999502 0.999851
1.00003 1.00098 0.999306 0.999747
0.990183 0.991543 0.999831 0.998796
1.00288 0.99952 1.00371 0.999644
1.0017 0.994243 1.00765 0.999858
0.997928 0.998698 0.99959 0.999638
0.982808 0.976952 1.01117 0.994878
0.947463 0.964938 0.986283 0.995545
1.00815 1.00433 1.00444 0.999369
0.957899 0.993919 0.966835 0.996819
1.00611 0.997611 1.00873 0.999788
1.00864 1.00783 1.00102 0.999781
0.999134 0.996672 1.00347 0.999006
0.991911 0.98361 1.01033 0.998131
0.934051 0.970845 0.966112 0.995848
0.939506 0.967467 0.975688 0.995297
0.990365 0.976744 1.02163 0.992479
1.01597 0.99059 1.02574 0.999889
0.998467 0.998912 0.999943 0.999611
0.992195 0.995501 0.998856 0.99782
0.896029 0.935977 0.961865 0.995274
0.930567 0.962334 0.971762 0.995089
0.983599 0.975415 1.01613 0.99238
0.966116 0.977524 0.990748 0.99756
1.0012 1 1.00167 0.999534
1.0105 0.997268 1.01369 0.999586
1.01941 0.999912 1.01998 0.999529
0.999318 1 1 0.999318
1.00005 1 1.00055 0.999497
1.00371 0.999965 1.00435 0.999394
1.01359 1 1.01446 0.999146
1.00036 1 1.0011 0.999258
1.00558 1 1.0066 0.998979
1.01088 1 1.01228 0.998622
1.00047 1 1.00142 0.999047
1.00355 1 1.00486 0.998699
1.00346 1 1.00502 0.998449
1.00038 1.00002 1.00191 0.998453
0.999941 1 1.00106 0.998877
1.0005 1 1.00185 0.998647
0.999735 1 1.00097 0.998762
0.999697 1 1.00058 0.999122
0.999488 1 1.00043 0.999055
0.999473 1 1.00023 0.999245
0.999617 1 1.00047 0.999144
0.999382 1 1.00038 0.999002
0.999548 1 1 0.999548
0.999346 1 1 0.999346
0.999187 1 1 0.999187
0.999929 1 1 0.999929
0.99962 1 1 0.99962
0.999378 1 1 0.999378
0.999673 1 1 0.999673
0.999949 1 1 0.999949
1 1 1 1
0.999959 1 1 0.999959
1 1 1 1
1 1 1 1
1 1 1 1
1 1 1 1
1 1 1 1
0.999663 1 1 0.999663
0.999943 1 1 0.999943
0.999677 1 1 0.999677
1 1 1 1
0.999944 1 1 0.999944
0.999733 1 1 0.999733
1 1 1 1
1 1 1 1
0.999946 1 1 0.999946
1 1 1 1
1 1 1 1
1 1 1 1
1.0092 1.0073 1.00214 0.999747
0.999743 0.99927 1.00086 0.999617
0.989925 0.991106 1.00016 0.998647
0.99945 1 1 0.99945
0.999368 1 1 0.999368
0.999511 1 1 0.999511
0.999465 1 1 0.999465
0.999383 1 1 0.999383
0.999377 1 1 0.999377
0.999315 1 1 0.999315
0.999807 0.995949 1.00508 0.998803
1.0078 1.00327 1.00535 0.999168
0.999243 0.995814 1.00443 0.999018
0.963723 1.00357 0.962679 0.997523
0.979012 0.982211 1.00064 0.996102
0.976447 0.972914 1.01043 0.993267
0.943866 0.961124 0.987768 0.994205
0.974162 0.979233 0.998498 0.996319
0.974655 0.970538 1.01214 0.992192
0.942941 0.965525 0.982124 0.994385
0.951819 0.985378 0.968854 0.996995
0.965226 0.974533 0.992933 0.997499
0.971709 0.972304 1.00741 0.992037
0.960482 0.978806 0.985793 0.995421
0.935204 0.972035 0.965559 0.996428
0.99929 1 1 0.99929
0.999269 1 1 0.999269
0.999279 1 1 0.999279
0.99938 1 1 0.99938
1.00125 1.00037 1.00138 0.999511
1.00703 0.995349 1.01224 0.999505
0.999218 1 1 0.999218
0.999191 1 1 0.999191
0.999221 1 1 0.999221
0.999247 1 1 0.999247
0.999239 1 1 0.999239
1.00307 0.988483 1.0152 0.999568
0.996348 0.996228 1.00044 0.999682
0.999268 1 1 0.999268
1.00899 0.985115 1.02458 0.99967
1.00177 0.997888 1.00451 0.999386
1.00065 1.00119 0.999753 0.999708
1.00963 1.0103 0.999468 0.999871
0.999864 1.00074 0.999332 0.999789
1.00582 0.998683 1.00734 0.999805
0.99324 0.983565 1.0101 0.999743
1.00879 1.00806 1.00091 0.999813
0.978348 0.970224 1.01646 0.992049
0.943316 0.963019 0.985335 0.994118
1.00027 0.9973 1.00396 0.999021
0.929431 0.968016 0.964287 0.9957
1.01903 0.990798 1.02863 0.999873
0.999696 0.999598 1.00048 0.999619
0.993671 0.995542 1.0003 0.997819
0.970166 0.980421 0.990394 0.999137
0.888323 0.933198 0.956769 0.994925
0.931628 0.961514 0.974106 0.994674
0.986636 0.975303 1.01906 0.992695
1.0027 0.987184 1.01598 0.999736
0.991453 0.992767 1.00004 0.99864
0.935319 0.952034 0.986234 0.996155
0.900953 0.934216 0.969391 0.994846
0.977766 0.971193 1.01447 0.992411
0.960835 0.975498 0.988313 0.996616
1.0133 0.998862 1.01487 0.99959
1.0188 0.998614 1.0207 0.999522
1.01299 1 1.01359 0.999404
1.00296 1 1.00355 0.999417
1.01407 1 1.0149 0.999184
1.00916 1 1.01045 0.998717
1.00568 1 1.00676 0.99893
1.01055 1 1.01198 0.998587
1.00508 1 1.00673 0.99836
1.0042 1 1.00552 0.99869
1.00349 1 1.00508 0.998419
1.00216 1.00068 1.00316 0.998319
0.998649 1.00022 1 0.998425
0.999388 1 1.00077 0.998623
1.0006 1.00001 1.00218 0.998419
0.999131 1 1.00011 0.999026
0.999629 1 1.00073 0.998901
1.00043 1 1.00181 0.998627
0.999376 1 1.00021 0.999165
0.99979 1 1.00068 0.999114
0.999516 1 1.00043 0.99909
0.999451 1 1 0.999451
0.999385 1 1.00012 0.999264
0.999532 1 1.00037 0.999164
0.999875 1 1 0.999875
0.999549 1 1 0.999549
0.999348 1 1 0.999348
1 1 1 1
0.999924 1 1 0.999924
0.999619 1 1 0.999619
0.999945 1 1 0.999945
1 1 1 1
1 1 1 1
1 1 1 1
1 1 1 1
1 1 1 1
0.999447 1 1 0.999447
0.999634 1 1 0.999634
0.999929 1 1 0.999929
0.999663 1 1 0.999663
1 1 1 1
0.999947 1 1 0.999947
0.999689 1 1 0.999689
1 1 1 1
1 1 1 1
0.999965 1 1 0.999965
1 1 1 1
1 1 1 1
1 1 1 1
1.00027 0.999188 1.00146 0.999624
1.00936 1.00757 1.002 0.999779
1.00111 1.00021 1.00128 0.999626
0.999457 1 1 0.999457
0.999357 1 1 0.999357
0.999313 1 1 0.999313
0.999356 1 1 0.999356
0.999302 1 1 0.999302
0.999463 1 1 0.999463
0.999369 1 1 0.999369
0.999378 1 1 0.999378
0.99931 1 1 0.99931
0.999324 1 1 0.999324
0.989365 0.99056 1.00094 0.997856
1.00162 0.997451 1.00537 0.998815
1.00583 1.00205 1.00441 0.999366
0.947772 0.982143 0.967859 0.997051
0.945205 0.962653 0.986231 0.995584
0.966984 0.974205 0.996859 0.995716
0.977483 0.976064 1.00921 0.992311
0.966762 0.974918 0.995461 0.996156
0.982697 0.977735 1.01292 0.992258
0.946033 0.970881 0.979413 0.994888
0.934762 0.972262 0.965112 0.996185
0.981631 0.978737 1.00624 0.996737
0.974625 0.976069 1.00607 0.9925
0.927533 0.959631 0.972445 0.99394
0.901496 0.946145 0.95737 0.995237
0.999452 1 1 0.999452
0.99929 1 1 0.99929
0.999267 1 1 0.999267
0.998777 0.986697 1.01287 0.99938
0.996636 0.996483 1.00041 0.999748
0.999243 1 1 0.999243
0.999227 1 1 0.999227
0.999311 1 1.00003 0.999278
1.00246 0.998419 1.00467 0.99938
1.00713 0.984912 1.02288 0.999684
1.00375 1 1.00435 0.999396
1.00617 0.992539 1.01432 0.99942
0.990973 0.99224 1 0.998723
1.00062 1.00115 0.999712 0.999751
1.00846 1.00916 0.999408 0.999892
1.0214 0.990536 1.03131 0.999855
0.970009 0.980643 0.992008 0.997125
1.00067 1.00029 1.00075 0.999628
0.978224 0.974412 1.01305 0.990981
0.929559 0.958936 0.975178 0.99404
0.994929 0.995629 1.00148 0.997818
0.881181 0.931109 0.95154 0.994575
1.00313 0.987576 1.01598 0.999772
0.991443 0.992794 0.999993 0.998647
0.92904 0.947744 0.984231 0.99597
0.960324 0.976353 0.986166 0.99738
0.905042 0.938363 0.97041 0.993899
0.969784 0.969416 1.0087 0.991748
0.983523 0.988096 0.996037 0.999332
0.948296 0.954802 0.996334 0.99684
0.901755 0.931081 0.974464 0.993884
0.973463 0.970981 1.01032 0.992312
0.977809 0.982115 0.998143 0.997468
1.01774 0.997234 1.02106 0.999515
1.01529 1 1.01591 0.999395
0.99334 1 0.994269 0.999065
1.01431 1 1.0151 0.999222
1.00909 1 1.01034 0.998765
1.00201 1.00078 1.00272 0.998517
1.01007 1 1.01154 0.998552
1.00427 1.00001 1.0059 0.998367
0.999231 1.00076 1.00003 0.99844
1.00339 1 1.00501 0.998389
1.00196 1.00118 1.00245 0.99833
1.00148 1.003 1 0.998484
1.00025 1.00168 1 0.998579
0.998548 1.00002 1.00002 0.998513
0.99872 1.00029 1 0.998435
0.998823 1 1 0.998823
0.999655 1 1.00107 0.998589
1.00082 1 1.00244 0.998386
0.999145 1 1 0.999145
0.999072 1 1.00002 0.999054
0.999241 1 1.00032 0.998924
0.999351 1 1 0.999351
0.999521 1 1.00035 0.999173
0.999875 1 1.00077 0.999107
0.999782 1 1 0.999782
0.999451 1 1 0.999451
0.999286 1 1 0.999282
1 1 1 1
0.999872 1 1 0.999872
0.99955 1 1 0.99955
1 1 1 1
1 1 1 1
0.99992 1 1 0.99992
1 1 1 1
1 1 1 1
1 1 1 1
0.999396 1 1 0.999396
0.999599 1 1 0.999599
0.999439 1 1 0.999439
0.999916 1 1 0.999916
0.999634 1 1 0.999634
1 1 1 1
0.999931 1 1 0.999931
0.999662 1 1 0.999662
1 1 1 1
1 1 1 1
0.999951 1 1 0.999951
1 1 1 1
1 1 1 1
1 1 1 1
0.991955 0.99308 1 0.998868
0.999438 0.99866 1.00115 0.999633
1.00946 1.00775 1.00188 0.999811
0.999306 1 1 0.999306
0.999464 1 1 0.999464
0.999347 1 1 0.999347
0.999367 1 1 0.999367
0.999323 1 1 0.999323
0.999298 1 1 0.999298
0.999252 1 1 0.999252
0.999284 1 1 0.999284
0.999378 1 1 0.999378
0.999305 1 1 0.999305
0.99932 1 1 0.99932
0.999332 1 1 0.999332
0.927369 0.948949 0.981532 0.995647
0.990365 0.991178 1.00133 0.997853
1.003 0.998509 1.00567 0.998828
0.93122 0.97146 0.962511 0.995914
0.950758 0.974256 0.981337 0.994441
0.971973 0.972327 1.00763 0.99207
0.968991 0.973915 0.997701 0.997236
0.981415 0.978134 1.00538 0.99799
0.891625 0.938272 0.955156 0.994898
0.97972 0.97478 1.01351 0.991672
0.927132 0.959685 0.970914 0.99502
0.980744 0.983326 0.999204 0.998168
0.973314 0.970459 1.01018 0.992834
0.899641 0.933964 0.96834 0.994745
1.00006 1 1.00041 0.999658
0.999454 1 1 0.999454
0.99929 1 1 0.99929
1.00784 0.987645 1.02076 0.999692
1.0041 0.999663 1.00506 0.999375
0.999338 1 1.00005 0.999287
1.00404 1 1.00465 0.9994
1.00507 0.992932 1.01279 0.999447
1.00641 0.997498 1.00939 0.999556
0.945203 0.953791 0.994722 0.996255
0.991311 0.992346 0.999986 0.998971
1.00056 1.00103 0.999735 0.999793
1.00323 0.987666 1.01596 0.999809
0.960438 0.978061 0.984006 0.997943
0.991601 0.992771 1.00017 0.998656
0.974921 0.972025 1.0097 0.99334
0.910159 0.943473 0.969725 0.994807
0.922252 0.946774 0.97826 0.995747
0.982656 0.988598 0.994609 0.999376
0.941057 0.953695 0.990215 0.996499
0.912427 0.933077 0.982881 0.9949
0.977217 0.97904 1.00199 0.996161
0.968248 0.970371 1.0053 0.992549
0.973233 0.9953 0.978382 0.999435
0.918641 0.940285 0.981902 0.99499
0.969122 0.972717 1.00345 0.992878
0.98943 0.991463 1.002 0.995959
1.01847 1 1.0191 0.999386
0.989755 1 0.990638 0.999108
0.981624 1.00108 0.981637 0.99891
1.00934 1 1.01054 0.998813
1.00213 1.00099 1.00263 0.998516
1.00001 1.00186 0.999428 0.998716
1.00355 1 1.00518 0.998374
0.999239 1.00041 1.00037 0.998455
1.00499 1.00626 1 0.998734
1.00184 1.00166 1.00185 0.998341
1.00135 1.00286 1 0.99849
1.00342 1.00466 1 0.998761
1.00181 1.00302 1 0.998786
0.999255 1.00066 1 0.998593
1.00029 1.0017 1 0.998597
0.998683 1 1 0.998683
0.998564 1.00003 1 0.998538
0.998807 1.00036 1 0.998444
0.999044 1 1 0.999044
0.998951 1 1.00013 0.998825
1.00001 1 1.00145 0.998555
0.999291 1 1 0.999291
0.999143 1 1 0.999143
0.999082 1 1 0.999082
0.99967 1 1 0.99967
0.999353 1 1 0.999353
0.999673 1 1.00049 0.999181
1 1 1 1
0.99978 1 1 0.99978
0.999451 1 1 0.999451
1 1 1 1
1 1 1 1
0.999869 1 1 0.999869
1 1 1 1
1 1 1 1
1 1 1 1
0.999385 1 1 0.999385
0.999398 1 1 0.999398
0.999553 1 1 0.999553
0.9999 1 1 0.9999
0.999599 1 1 0.999599
0.99943 1 1 0.99943
1 1 1 1
0.999919 1 1 0.999919
0.999634 1 1 0.999634
1 1 1 1
1 1 1 1
0.999934 1 1 0.999934
1 1 1 1
1 1 1 1
1 1 1 1
0.944903 0.952097 0.995968 0.996462
0.991192 0.992303 1 0.998881
0.998816 0.998332 1.00084 0.999641
0.999297 1 1 0.999297
0.999277 1 1 0.999277
0.999249 1 1 0.999249
0.999378 1 1 0.999378
0.999334 1 1 0.999334
0.999294 1 1 0.999294
0.999283 1 1 0.999283
0.999251 1 1 0.999251
0.999193 1 1 0.999193
0.999319 1 1 0.999319
0.999317 1 1 0.999317
0.999333 1 1 0.999333
0.909595 0.932289 0.98067 0.99489
0.92623 0.946071 0.983388 0.995566
0.991102 0.991465 1.00179 0.997851
0.881714 0.930385 0.952872 0.99456
0.92556 0.95713 0.972926 0.993925
0.98688 0.98076 1.0127 0.993623
0.985646 0.977023 1.01225 0.996615
0.978153 0.980776 1.00046 0.996866
0.903002 0.934226 0.972563 0.993845
0.972706 0.970578 1.00916 0.993095
0.98186 0.982202 1.00252 0.997142
0.97261 0.973771 1.00628 0.992572
1.00749 1 1.00819 0.999308
0.999906 1 1.00027 0.999639
0.999456 1 1 0.999456
1.00132 0.99086 1.01109 0.999473
1.00434 1 1.00494 0.999404
1.00699 0.998355 1.00918 0.999482
1.00112 1.00067 1.00146 0.99899
0.91534 0.942441 0.976451 0.994668
0.946894 0.953429 0.996517 0.996617
0.991924 0.992781 0.999918 0.999218
0.98088 0.988941 0.992416 0.999429
0.977095 0.978865 1.00107 0.99712
0.941903 0.954315 0.99044 0.996521
0.972093 0.970939 1.00888 0.992375
0.91093 0.935646 0.979464 0.993997
0.976752 0.995827 0.981564 0.999268
0.918879 0.940778 0.982224 0.994399
0.970426 0.972358 1.00555 0.992502
0.990617 0.988309 1.00526 0.997093
0.991568 1.00223 0.990148 0.999209
0.958742 0.971785 0.994536 0.991999
0.993317 0.994676 1.00096 0.997676
0.986124 1 0.986961 0.999151
0.982568 1.00116 0.982521 0.998892
0.982562 1.0027 0.981012 0.998879
1.00191 1.00115 1.00224 0.998514
0.999696 1.00233 0.998656 0.998711
1.00501 1.00874 0.997266 0.999036
0.999315 1.00013 1.00071 0.998469
1.00545 1.00673 1 0.998732
1.00905 1.01007 1 0.998983
1.00124 1.00275 1 0.998495
1.00308 1.00433 1 0.99876
1.00368 1.00475 1 0.998931
1.0015 1.00261 1 0.998889
1.00169 1.00289 1 0.998809
0.999987 1.00123 1 0.998759
0.998877 1.0002 1 0.998679
0.999265 1.00067 1 0.998595
1.00025 1.00164 1 0.998614
0.998867 1 1 0.998867
0.99871 1 1 0.99871
0.998602 1.00004 1 0.998563
0.999222 1 1 0.999222
0.99904 1 1 0.99904
0.998984 1 1.00016 0.998827
0.999583 1 1 0.999583
0.999291 1 1 0.999291
0.99914 1 1 0.99914
0.999996 1 1 0.999996
0.99967 1 1 0.99967
0.999355 1 1 0.999355
1 1 1 1
1 1 1 1
0.999777 1 1 0.999777
1 1 1 1
1 1 1 1
1 1 1 1
0.999335 1 1 0.999335
0.999372 1 1 0.999372
0.999505 1 1 0.999505
0.999401 1 1 0.999401
0.999553 1 1 0.999553
0.999866 1 1 0.999866
1 1 1 1
0.999902 1 1 0.999902
0.999599 1 1 0.999599
1 1 1 1
1 1 1 1
0.999921 1 1 0.999921
1 1 1 1
1 1 1 1
1 1 1 1
0.924487 0.940381 0.988729 0.994305
0.943152 0.95287 0.993556 0.996221
0.990051 0.991148 1 0.998893
0.999287 1 1 0.999287
0.999236 1 1 0.999236
0.99929 1 1 0.99929
0.99923 1 1 0.99923
0.999217 1 1 0.999217
0.999282 1 1 0.999282
0.99925 1 1 0.99925
0.9992 1 1 0.9992
0.999163 1 1 0.999163
0.999202 1 1 0.999202
0.99916 1 1.00026 0.998903
0.999329 1 1 0.999329
0.999333 1 1 0.999333
0.968251 0.977594 0.998662 0.99177
0.915076 0.934197 0.984925 0.994525
0.927153 0.947471 0.983036 0.995442
0.903481 0.933671 0.972772 0.99475
0.975905 0.970515 1.0143 0.991376
0.980392 0.979902 1.00226 0.998245
0.984869 0.985122 1.00188 0.997868
0.971385 0.974498 1.00392 0.992909
0.988843 0.997213 0.99462 0.99697
1.00563 1.00132 1.0057 0.998622
1.00595 1 1.00666 0.999294
0.999621 1 1 0.999621
1.00702 0.999577 1.00804 0.999413
1.00015 1.00101 1.00017 0.998965
0.950825 0.970527 0.986749 0.992857
0.919738 0.94209 0.982006 0.994164
0.949481 0.953285 0.999025 0.996983
0.980529 0.996906 0.984461 0.999097
0.989792 0.987034 1.00683 0.995994
0.91967 0.939712 0.984461 0.994119
0.973039 0.973404 1.00683 0.992842
0.989371 1.00312 0.98709 0.999193
0.961398 0.973089 0.994908 0.993043
0.995674 0.996835 1.00236 0.996487
1.00306 1.00691 0.997365 0.998809
0.99465 0.996832 0.999383 0.998427
0.982988 1.00128 0.982843 0.998874
0.985392 1.00235 0.984221 0.998843
1.00335 1.01515 0.989457 0.998906
0.999543 1.00271 0.998135 0.998707
1.00358 1.00733 0.997247 0.999029
1.0106 1.01464 0.996933 0.999087
1.00583 1.00711 1 0.998729
1.0094 1.01045 0.999984 0.99897
1.00701 1.00803 0.999987 0.998995
1.0028 1.00404 1 0.99876
1.00375 1.00484 1 0.99892
1.00275 1.00385 1 0.998907
1.0015 1.00259 1 0.998916
1.00008 1.00127 1 0.998818
1.00164 1.00281 1 0.998832
0.999988 1.00124 1 0.998754
0.998895 1.00016 1 0.998739
0.998782 1 1 0.998782
0.998832 1.00016 1 0.998674
0.999265 1.00067 1 0.998598
0.999109 1 1 0.999109
0.998886 1 1 0.998886
0.998737 1 1 0.998737
0.999519 1 1 0.999519
0.999219 1 1 0.999219
0.999036 1 1 0.999036
0.999977 1 1 0.999977
0.999585 1 1 0.999585
0.999292 1 1 0.999292
1 1 1 1
0.999991 1 1 0.999991
0.999669 1 1 0.999669
1 1 1 1
0.999999 1 1 0.999999
1 1 1 1
0.999256 1 1 0.999256
0.999336 1 1 0.999336
0.999428 1 1 0.999428
0.99936 1 1 0.99936
0.999491 1 1 0.999491
0.9998 1 1 0.9998
0.999553 1 1 0.999553
0.999867 1 1 0.999867
1 1 1 1
1 1 1 1
1 1 1 1
0.999903 1 1 0.999903
1 1 1 1
1 1 1 1
1 1 1 1
0.965268 0.974993 0.997058 0.992946
0.919554 0.943261 0.979945 0.994818
0.947778 0.954694 0.996428 0.996314
0.999222 1 1 0.999222
0.999302 1 1 0.999302
0.999224 1 1 0.999224
0.999233 1 1 0.999233
0.999132 1 1 0.999132
0.99921 1 1 0.99921
0.999206 1 1 0.999206
0.999128 1 1 0.999128
0.999184 1 1 0.999184
0.999064 1 1 0.999064
1.00023 1.00129 1 0.998942
0.999125 1.00058 1.00011 0.998434
0.999327 1.00034 1.00006 0.998933
0.999339 1 1 0.999339
0.986158 0.993497 0.995434 0.997166
0.967264 0.975252 0.999184 0.992618
0.909431 0.935166 0.978368 0.993982
0.973787 0.973557 1.00788 0.992412
0.981568 0.985689 0.997299 0.998516
0.992306 0.996994 0.99708 0.998213
0.996378 1.00479 0.992823 0.998798
1.00276 1.00067 1.00337 0.998717
1.0049 1 1.00563 0.999279
0.997985 1.00112 0.997932 0.998934
0.981578 0.986386 0.998202 0.996919
0.958164 0.971779 0.992638 0.993302
0.91761 0.941624 0.979374 0.995021
0.988895 1.00417 0.985603 0.999175
1.00106 0.997694 1.00598 0.997412
0.961028 0.973168 0.993356 0.994129
0.99711 1.0054 0.992925 0.998823
0.993255 0.996706 0.998581 0.997954
1.01028 1.01899 0.992766 0.998671
1.00997 1.0142 0.997186 0.998646
0.988508 1.00211 0.987607 0.998807
1.00468 1.01476 0.991153 0.998902
1.0127 1.01779 0.996108 0.99889
1.00234 1.00618 0.997152 0.999021
1.01084 1.01433 0.997473 0.999078
1.00884 1.01106 0.998914 0.998888
1.00975 1.01084 0.999964 0.998957
1.00634 1.00739 0.999982 0.998984
1.00455 1.00575 1 0.998804
1.00377 1.00487 1 0.998909
1.00249 1.00358 1 0.998915
1.00103 1.00227 1 0.998768
1.00147 1.00253 1 0.998943
1.00006 1.00123 1 0.998834
0.998907 1.00016 1 0.998746
0.99999 1.00124 1 0.99875
0.998904 1.00017 1 0.998734
0.998794 1 1 0.998794
0.998979 1 1 0.998979
0.9988 1 1 0.9988
0.998794 1.00013 1 0.998668
0.999434 1 1 0.999434
0.999108 1 1 0.999108
0.998905 1 1 0.998905
0.999944 1 1 0.999944
0.999519 1 1 0.999519
0.999216 1 1 0.999216
1 1 1 1
0.999969 1 1 0.999969
0.999586 1 1 0.999586
1 1 1 1
0.999987 1 1 0.999987
1 1 1 1
0.999169 1 1 0.999169
0.999265 1 1 0.999265
0.999362 1 1 0.999362
0.999337 1 1 0.999337
0.99942 1 1 0.99942
0.999712 1 1 0.999712
0.999477 1 1 0.999477
0.999801 1 1 0.999801
1 1 1 1
0.999869 1 1 0.999869
1 1 1 1
1 1 1 1
1 1 1 1
1 1 1 1
1 1 1 1
0.979163 0.986272 0.995547 0.997233
0.959064 0.972407 0.993476 0.992755
0.917389 0.943089 0.978581 0.994041
0.998991 1 1 0.998991
0.999231 1 1 0.999231
0.999236 1 1 0.999236
0.999204 1 1 0.999204
0.999125 1 1 0.999125
0.999219 1 1 0.999219
0.999093 1 1 0.999093
0.999167 1 1 0.999167
0.999095 1 1 0.999095
0.999679 1.00072 1 0.998959
1.00024 1.00168 1 0.99856
1.00386 1.00572 0.999978 0.998175
0.999494 1.00095 1.00013 0.998418
0.999628 1.00067 1 0.998963
1.00081 1.00636 0.995394 0.99909
0.987724 0.995058 0.995982 0.996633
0.970562 0.977087 0.999726 0.993594
0.992709 0.99691 0.998604 0.997178
1.00142 1.00654 0.996032 0.998877
1.00132 1.0002 1.00231 0.998814
1.00538 1.00664 0.999916 0.998836
0.981544 0.985341 0.998304 0.997839
0.955892 0.971863 0.990602 0.992898
0.990557 1.00354 0.988217 0.998836
0.992374 0.996357 0.998577 0.997421
1.01072 1.01939 0.992814 0.998665
1.0093 1.01233 0.998267 0.998738
1.0187 1.02286 0.997304 0.998628
1.01254 1.01484 0.999177 0.998559
1.00578 1.01407 0.992922 0.998898
1.01385 1.01882 0.996213 0.9989
1.00734 1.00983 0.998786 0.998746
1.01102 1.01398 0.998013 0.999069
1.00987 1.01179 0.999214 0.998886
1.00545 1.00683 0.999968 0.998662
1.00572 1.00677 0.99998 0.998973
1.00437 1.00555 1 0.998825
1.00293 1.0043 1 0.998634
1.00227 1.00335 1 0.998924
1.00094 1.00217 1 0.998768
0.999336 1.00066 1 0.998679
1.00006 1.00122 1 0.998849
0.999003 1.00025 1 0.998751
0.998749 1 1 0.998749
0.998905 1.00018 1 0.998729
0.998782 1 1 0.998782
0.998931 1 1 0.998931
0.999339 1 1 0.999339
0.998998 1 1 0.998998
0.998818 1 1 0.998818
0.999897 1 1 0.999897
0.999433 1 1 0.999433
0.999107 1 1 0.999107
1 1 1 1
0.999934 1 1 0.999934
0.999518 1 1 0.999518
1 1 1 1
0.99996 1 1 0.99996
1 1 1 1
0.999034 1 1 0.999034
0.999171 1 1 0.999171
0.999292 1 1 0.999292
0.999275 1 1 0.999275
0.999368 1 1 0.999368
0.999629 1 1 0.999629
0.999411 1 1 0.999411
0.999712 1 1 0.999712
0.999998 1 1 0.999998
0.999802 1 1 0.999802
1 1 1 1
1 1 1 1
1 1 1 1
1 1 1 1
1 1 1 1
1.00614 1.00994 0.997083 0.999155
0.979192 0.98748 0.995396 0.996193
0.962896 0.972055 0.997497 0.993063
0.999039 1 1 0.999039
0.998962 1.00022 1 0.998747
0.99901 1 1 0.99901
0.999198 1 1 0.999198
0.999118 1 1 0.999118
0.999188 1 1 0.999188
1.00098 1.0023 1 0.99868
0.999126 1 1 0.999126
0.998977 1 1 0.998976
1.00032 1.00173 1 0.99859
1.00346 1.00526 1 0.998209
1.01001 1.01215 0.999407 0.998474
1.00261 1.00448 0.999958 0.998183
0.999783 1.00138 1 0.998403
1.00373 1.00901 0.995627 0.999139
0.986205 0.994334 0.995827 0.995981
1.00458 1.00773 0.99792 0.998956
1.01029 1.01144 0.999894 0.998965
1.0038 1.00538 0.999546 0.998886
0.978314 0.98512 0.996435 0.996644
1.01109 1.02003 0.992562 0.99866
1.008 1.01035 0.998843 0.998829
1.01833 1.02299 0.996779 0.99866
1.01408 1.01616 0.999373 0.998584
1.00921 1.01237 0.998255 0.998628
1.01425 1.01554 1 0.998735
1.01494 1.01996 0.996165 0.998909
1.00726 1.00993 0.9986 0.998751
1.0071 1.00908 0.999467 0.998571
1.01081 1.01244 0.999506 0.998884
1.00535 1.0067 0.999992 0.998669
1.00541 1.00689 1 0.998531
1.00417 1.00533 1 0.998846
1.0028 1.00417 1 0.998632
1.00059 1.00202 1 0.998568
1.00082 1.00206 1 0.998768
0.999575 1.0009 1 0.998678
0.9987 1.00002 1 0.99868
0.999098 1.00034 1 0.998757
0.99875 1 1 0.99875
0.998877 1 1 0.998877
0.99877 1 1 0.99877
0.998925 1 1 0.998925
0.999264 1 1 0.999264
0.999848 1 1 0.999848
0.999339 1 1 0.999339
0.999017 1 1 0.999017
1 1 1 1
0.999888 1 1 0.999888
0.999432 1 1 0.999432
1 1 1 1
0.999925 1 1 0.999925
1 1 1 1
0.998832 1 1 0.998832
0.999014 1 1 0.999014
0.999175 1 1 0.999175
0.999174 1 1 0.999174
0.999294 1 1 0.999294
0.999557 1 1 0.999557
0.999374 1 1 0.999374
0.999629 1 1 0.999629
0.99998 1 1 0.99998
0.999712 1 1 0.999712
0.999999 1 1 0.999999
1 1 1 1
1 1 1 1
1 1 1 1
1 1 1 1
1.00939 1.01137 0.999215 0.998818
1.00521 1.00915 0.997032 0.999052
0.978615 0.986214 0.995362 0.996917
1.00105 1.00235 1 0.998701
0.999146 1 1 0.999146
1.00111 1.00254 1 0.998569
0.99885 1.00012 1 0.998735
0.99903 1 1 0.99903
1.00739 1.00908 1 0.998323
0.999158 1 1 0.999158
1.00095 1.0023 1 0.99865
1.00861 1.0103 1 0.998334
1.00041 1.0018 1 0.99862
1.0042 1.00603 1 0.998186
1.00795 1.00995 0.999538 0.998474
1.00101 1.00283 1 0.99819
1.00603 1.01096 0.995925 0.999189
1.01369 1.01486 1 0.998845
1.01037 1.01155 0.999877 0.998962
1.00274 1.00409 0.999728 0.998935
1.01824 1.02333 0.996325 0.998693
1.01568 1.01756 0.999541 0.998609
1.00974 1.0127 0.998447 0.998635
1.01467 1.01595 1 0.998744
1.01282 1.01419 1 0.99865
1.00724 1.01005 0.998463 0.998756
1.00715 1.00885 0.999735 0.998576
1.00839 1.0099 1 0.998499
1.00526 1.00659 1 0.998676
1.00502 1.0065 1 0.998524
1.00286 1.00439 1 0.998474
1.00267 1.00405 1 0.99863
1.00082 1.00226 1 0.998566
0.998781 1.00019 1 0.998587
0.999821 1.00115 1 0.998678
0.998731 1.00005 1 0.99868
0.998797 1 1 0.998797
0.998751 1 1 0.998751
0.998878 1 1 0.998878
0.999194 1 1 0.999194
0.998918 1 1 0.998918
0.999263 1 1 0.999263
0.999825 1 1 0.999825
0.999978 1 1 0.999978
0.999846 1 1 0.999846
0.999338 1 1 0.999338
1 1 1 1
0.999879 1 1 0.999879
1 1 1 1
1.00181 1.00321 1 0.998608
0.998832 1.00011 1 0.998726
0.998811 1 1 0.998811
0.999055 1 1 0.999055
0.998993 1 1 0.998993
0.999179 1 1 0.999179
0.999484 1 1 0.999484
0.999296 1 1 0.999296
0.999557 1 1 0.999557
0.999946 1 1 0.999946
0.999628 1 1 0.999628
0.999987 1 1 0.999987
1 1 1 1
1 1 1 1
1 1 1 1
1 1 1 1
1.01213 1.0135 1 0.998644
1.01256 1.01427 0.999436 0.998878
1.0055 1.00952 0.997069 0.998948
1.00617 1.00777 1 0.998414
1.00027 1.0015 1 0.99877
0.999252 1 1 0.999252
1.00135 1.00276 1 0.998594
0.998726 1 1 0.998723
1.01311 1.01484 1 0.9983
1.00704 1.00876 1 0.998293
1.00097 1.00236 1 0.998619
1.00926 1.01095 1 0.998326
1.00558 1.00743 1 0.998163
1.00761 1.00959 0.999569 0.998475
1.016 1.01729 1 0.998732
1.01371 1.01489 1 0.998839
1.01076 1.01192 0.9999 0.998958
1.01018 1.01294 0.99863 0.998642
1.01541 1.01668 1 0.998752
1.01331 1.0148 0.999868 0.998662
1.01306 1.01453 1 0.998545
1.00723 1.00867 0.999993 0.998582
1.00784 1.00936 1 0.998495
1.00607 1.00764 1 0.998444
1.00463 1.00612 1 0.998516
1.00298 1.00451 1 0.998473
0.999331 1.00083 1 0.998505
1.00105 1.00249 1 0.998564
0.998923 1.00034 1 0.998586
0.998711 1 1 0.998711
0.998762 1.00008 1 0.998679
0.998796 1 1 0.998796
0.999114 1 1 0.999114
0.998879 1 1 0.998879
0.999193 1 1 0.999193
0.999806 1 1 0.999806
0.999262 1 1 0.999262
0.999819 1 1 0.999819
0.999973 1 1 0.999973
0.999989 1 1 0.999989
0.999844 1 1 0.999844
1 1 1 1
1.00374 1.00531 1 0.998435
0.998883 1.00017 1 0.998714
1.00144 1.00275 1 0.998696
0.998929 1 1 0.998929
0.998926 1.0002 1 0.998723
0.998791 1 1 0.998791
0.999056 1 1 0.999056
0.999392 1 1 0.999392
0.999182 1 1 0.999182
0.999485 1 1 0.999485
0.999905 1 1 0.999905
0.999558 1 1 0.999558
0.999956 1 1 0.999956
1 1 1 1
0.999993 1 1 0.999993
1 1 1 1
1 1 1 1
1.01486 1.01636 1 0.998521
1.01161 1.01299 1 0.998642
1.01411 1.01557 0.999625 0.998937
1.01086 1.01255 1 0.998327
1.00588 1.00747 1 0.998417
0.999501 1.00066 1 0.998839
1.0016 1.00299 1 0.998618
1.01281 1.01454 1 0.998295
1.00655 1.0083 1 0.998263
1.00862 1.01031 1 0.998319
1.01457 1.01599 1 0.998599
1.01571 1.01703 1 0.998703
1.01322 1.0144 1 0.998833
1.01337 1.0149 1 0.9985
1.01362 1.01522 0.999741 0.998674
1.01297 1.01445 1 0.998545
1.00951 1.01105 1 0.998472
1.0073 1.00882 1 0.998491
1.00617 1.00773 1 0.998446
1.00095 1.0025 1 0.998454
1.00308 1.00461 1 0.998473
0.999731 1.00123 1 0.998505
0.998639 1 1 0.998639
0.999063 1.00048 1 0.998584
0.99871 1 1 0.99871
0.999035 1 1 0.999035
0.998796 1 1 0.998796
0.999112 1 1 0.999112
0.999788 1 1 0.999788
0.999192 1 1 0.999192
0.999801 1 1 0.999801
0.999971 1 1 0.999971
0.999814 1 1 0.999814
0.999975 1 1 0.999975
1 1 1 1
1.00537 1.00705 1 0.998337
0.999701 1.00117 1 0.998532
1.00363 1.00517 1 0.998466
0.998861 1 1 0.998861
0.998946 1.00023 1 0.998712
1.00108 1.0023 1 0.998784
0.999267 1 1 0.999267
0.998926 1 1 0.998926
0.999022 1.0003 1 0.99872
0.999057 1 1 0.999057
0.999394 1 1 0.999394
0.999859 1 1 0.999859
0.999486 1 1 0.999486
0.999915 1 1 0.999915
1 1 1 1
0.999967 1 1 0.999967
1 1 1 1
1 1 1 1
1.01314 1.0147 1 0.99846
1.01499 1.01651 1 0.998503
1.01208 1.01346 1 0.998639
1.0107 1.01239 1 0.998328
1.00558 1.00717 1 0.99842
1.01271 1.01445 1 0.998291
1.01282 1.01434 1 0.9985
1.01471 1.01614 1 0.998596
1.01561 1.01696 1 0.998674
1.01363 1.01514 1 0.998506
1.01058 1.01215 1 0.998447
1.01287 1.01435 1 0.998545
1.00954 1.01109 1 0.998465
1.00302 1.00458 1 0.998447
1.00628 1.00784 1 0.998448
1.00133 1.00288 1 0.998457
0.998685 1.00011 1 0.998576
1.00014 1.00164 1 0.998506
0.998643 1 1 0.998638
0.998977 1 1 0.998977
0.99871 1 1 0.99871
0.999034 1 1 0.999034
0.999764 1 1 0.999764
0.99911 1 1 0.99911
0.999782 1 1 0.999782
0.999966 1 1 0.999966
0.999797 1 1 0.999797
0.999974 1 1 0.999974
0.999975 1 1 0.999975
1.00812 1.00971 1 0.998428
1.00045 1.00205 1 0.998407
1.00532 1.007 1 0.998333
0.998713 1 1 0.998713
0.999506 1.00096 1 0.998544
1.00349 1.005 1 0.998498
0.999148 1 1 0.999148
0.998828 1 1 0.998828
0.999021 1.00031 1 0.998709
0.999805 1 1 0.999805
0.999269 1 1 0.999269
0.998924 1 1 0.998924
0.999395 1 1 0.999395
0.999867 1 1 0.999867
1 1 1 1
0.999925 1 1 0.999925
1 1 1 1
1 1 1 1
1.01159 1.01316 1 0.998442
1.01303 1.0146 1 0.998457
1.01493 1.01647 1 0.998485
1.01054 1.01223 1 0.998328
1.011 1.0126 1 0.998421
1.01326 1.01477 1 0.998505
1.01486 1.01629 1 0.998593
1.01385 1.01536 1 0.998512
1.01052 1.01209 1 0.99845
1.00425 1.00581 1 0.998442
1.00958 1.01114 1 0.998459
1.00312 1.00467 1 0.998451
0.999101 1.00058 1 0.998525
1.0017 1.00324 1 0.998459
0.998803 1.00023 1 0.998577
0.998924 1 1 0.998924
0.998649 1.00001 1 0.998637
0.998976 1 1 0.998976
0.999719 1 1 0.999719
0.999032 1 1 0.999032
0.99975 1 1 0.99975
1 1 1 1
0.999776 1 1 0.999776
0.999969 1 1 0.999969
0.999975 1 1 0.999975
1.00812 1.00968 1 0.998452
1.00131 1.00288 1 0.998434
1.00811 1.00969 1 0.99843
0.998631 1.00007 1 0.998563
1.00024 1.00182 1 0.998424
1.00527 1.00696 1 0.998329
0.998994 1 1 0.998994
0.998712 1 1 0.998712
0.999335 1.00078 1 0.998556
0.999757 1 1 0.999757
0.99912 1 1 0.99912
0.998795 1 1 0.998795
1 1 1 1
0.999814 1 1 0.999814
0.999271 1 1 0.999271
0.999875 1 1 0.999875
1 1 1 1
1 1 1 1
1.01023 1.01182 1 0.998425
1.01202 1.01359 1 0.998451
1.01293 1.0145 1 0.998453
1.00493 1.00655 1 0.998397
1.01049 1.01209 1 0.99842
1.0137 1.01521 1 0.998511
1.01048 1.01204 1 0.998453
1.00427 1.00584 1 0.998442
0.999808 1.00127 1 0.998537
1.00322 1.00477 1 0.998454
0.999264 1.00071 1 0.998552
0.998817 1 1 0.998817
0.998925 1.00035 1 0.998577
0.998924 1 1 0.998924
0.999682 1 1 0.999682
0.998975 1 1 0.998975
0.999716 1 1 0.999716
1 1 1 1
0.999734 1 1 0.999734
0.999981 1 1 0.999981
0.999972 1 1 0.999972
1.00644 1.008 1 0.998452
1.00139 1.00293 1 0.99847
1.00808 1.00964 1 0.998452
0.998675 1.00011 1 0.99857
1.00151 1.00308 1 0.998436
1.00811 1.00969 1 0.998433
0.998907 1 1 0.998907
0.998643 1.00005 1 0.998598
1.00001 1.00158 1 0.99844
0.999727 1 1 0.999727
0.998983 1 1 0.998983
0.99871 1 1 0.99871
1 1 1 1
0.999766 1 1 0.999766
0.999092 1 1 0.999092
1 1 1 1
0.999824 1 1 0.999824
1 1 1 1
1.00468 1.00627 1 0.998419
1.00986 1.01145 1 0.998425
1.01249 1.01405 1 0.998459
0.999562 1.00106 1 0.998503
1.0049 1.00651 1 0.998403
1.01002 1.01162 1 0.998419
1.0043 1.00587 1 0.998442
0.999796 1.00126 1 0.998536
0.998765 1 1 0.998765
0.999419 1.00084 1 0.99858
0.998844 1 1 0.998844
0.999625 1 1 0.999625
0.998924 1 1 0.998924
0.999679 1 1 0.999679
1 1 1 1
0.999714 1 1 0.999714
1 1 1 1
0.999966 1 1 0.999966
1.00171 1.00324 1 0.998481
1.00642 1.00798 1 0.998452
0.998606 1.00004 1 0.99857
1.00144 1.00298 1 0.99847
1.00803 1.00959 1 0.998453
0.998911 1 1 0.998911
0.998679 1.00011 1 0.998567
1.00171 1.00327 1 0.998439
0.999703 1 1 0.999703
0.998926 1 1 0.998926
0.99865 1.00002 1 0.998633
1 1 1 1
0.999732 1 1 0.999732
0.998971 1 1 0.998971
1 1 1 1
0.999774 1 1 0.999774
1 1 1 1
0.999236 1.00071 1 0.99853
1.00453 1.00612 1 0.998421
1.00942 1.01101 1 0.998425
0.998745 1 1 0.998745
0.999554 1.00105 1 0.998503
1.00483 1.00644 1 0.998409
0.999782 1.00125 1 0.998536
0.998771 1 1 0.998771
0.999573 1 1 0.999573
0.99887 1 1 0.99887
0.999622 1 1 0.999622
1 1 1 1
0.999676 1 1 0.999676
1 1 1 1
1 1 1 1
0.998626 1.00007 1 0.998555
1.0016 1.00313 1 0.998475
1.0064 1.00796 1 0.998451
0.998887 1 1 0.998887
0.998648 1.00008 1 0.998568
1.00149 1.00302 1 0.99847
0.999674 1 1 0.999674
0.99891 1 1 0.99891
0.998688 1.00012 1 0.998565
1 1 1 1
0.999706 1 1 0.999706
0.998945 1 1 0.998945
1 1 1 1
0.999737 1 1 0.999737
1 1 1 1
0.998803 1 1 0.998803
0.999215 1.00071 1 0.998503
1.00442 1.00601 1 0.998423
0.999554 1 1 0.999554
0.998746 1 1 0.998746
0.999549 1.00105 1 0.998502
0.998776 1 1 0.998776
0.999571 1 1 0.999571
1 1 1 1
0.999618 1 1 0.999618
1 1 1 1
1 1 1 1
0.998848 1 1 0.998848
0.998613 1.00007 1 0.998545
1.0015 1.00303 1 0.99847
0.99968 1 1 0.99968
0.998886 1 1 0.998886
0.99869 1.00012 1 0.998567
1 1 1 1
0.999675 1 1 0.999675
0.998909 1 1 0.998909
1 1 1 1
0.999709 1 1 0.999709
1 1 1 1
0.999553 1 1 0.999553
0.998783 1 1 0.998783
0.999194 1.00072 1 0.998476
1 1 1 1
0.999553 1 1 0.999553
0.998748 1 1 0.998748
0.999569 1 1 0.999569
1 1 1 1
1 1 1 1
0.999636 1 1 0.999636
0.998848 1 1 0.998848
0.998599 1.00006 1 0.998534
1 1 1 1
0.999641 1 1 0.999641
0.998884 1 1 0.998884
1 1 1 1
0.999677 1 1 0.999677
1 1 1 1
0.999895 1 1 0.999895
0.99959 1 1 0.99959
0.998763 1 1 0.998763
1 1 1 1
0.999553 1 1 0.999553
1 1 1 1
0.999913 1 1 0.999913
0.999621 1 1 0.999621
0.998849 1 1 0.998849
0.999962 1 1 0.999962
0.999639 1 1 0.999639
1 1 1 1
1 1 1 1
0.999565 1 1 0.999565
1 1 1 1
0.999952 1 1 0.999952
0.999599 1 1 0.999599
1 1 1 1
1 1 1 1
1 1 1 1

VECTORS lamdaE float
0.999408 1.00027 0.996
0.99939 0.999829 0.998333
0.999239 1.00045 0.996109
0.999752 0.999921 0.995904
0.999536 1.00012 0.996009
0.999336 1.00015 0.996138
1.00044 1.0007 0.993515
0.999379 0.999706 0.998385
0.999398 1.00033 0.998294
0.999096 1.00029 0.998441
0.999452 0.9994 0.996758
1.00016 1.00087 0.993511
0.99989 1.00001 0.995528
0.999581 0.999913 0.995924
0.999074 1.00069 0.996197
0.999615 0.999895 0.996035
0.999202 1.00033 0.996228
0.999368 1.00024 0.996119
1.00054 1.00061 0.993486
0.999847 1 0.997973
0.999795 0.999966 0.995762
0.999678 0.999964 0.995977
1.00099 0.999907 0.99337
1.00072 1.00028 0.993468
0.999374 0.999683 0.996482
1.00007 1.00104 0.993762
1.00246 1.00078 0.989933
0.999354 0.999585 0.998448
0.999494 1.00019 0.997069
0.999219 1.00025 0.99728
0.999409 0.999221 0.998551
1.00005 1.00098 0.993523
0.999746 0.99993 0.995808
0.999469 1.00047 0.995935
1.00103 1.00025 0.993632
0.999326 0.998614 0.998894
1.00047 1.00079 0.994085
0.99994 1.00071 0.994019
1.00121 1.00203 0.990462
0.999421 0.997975 0.999099
0.999887 1.00001 0.997935
0.99969 0.999972 0.996975
0.999915 1 0.997906
0.999593 1 0.995876
1.00134 1.00006 0.992068
0.999615 0.999976 0.998248
1.00128 0.999997 0.99343
0.999477 0.999846 0.996166
0.999211 1.00037 0.996217
0.999044 1.00057 0.996336
1.00063 1.00048 0.993466
0.99978 1.00001 0.996858
0.999653 0.999946 0.995911
0.999259 0.999802 0.996575
0.999528 0.999991 0.996097
1.00105 0.999871 0.993319
1.00016 1.00096 0.993755
1.00081 1.0002 0.99343
1.00249 1.00083 0.989882
0.999871 1 0.997943
0.999864 1.00001 0.995597
1.00122 1.00001 0.993449
1.00103 0.999968 0.99322
1.00092 0.999988 0.993417
1.00323 0.999804 0.989497
1.00292 1.00014 0.989463
0.999511 0.998959 0.996947
0.999609 1.00107 0.99443
1.00167 1.00158 0.990484
1.00353 1.00065 0.987568
0.999592 1.0002 0.998126
0.999391 0.999021 0.99867
0.999323 1.00003 0.998305
0.999967 1.00107 0.993533
0.999764 1.00003 0.998091
0.999486 1.00032 0.998162
1.00094 1.00022 0.992571
0.999373 0.998699 0.998073
1.00029 1.00089 0.993145
0.999854 1.00072 0.994566
1.00121 1.00199 0.990458
0.999439 0.998293 0.998947
0.999591 0.999236 0.996145
1.00119 0.999931 0.992467
1.00075 1.00057 0.992702
1.00315 1.00024 0.988604
0.999714 1.00024 0.995671
1.00187 1.00143 0.989833
1.00064 1.00249 0.991065
1.00188 1.00232 0.988837
0.999449 0.997651 0.999199
0.999395 0.997916 0.999137
0.999804 0.999969 0.99805
0.99986 1 0.997964
0.999915 1 0.997914
0.999715 0.999995 0.996921
1.00135 1.00004 0.992686
0.999695 0.999954 0.997004
1.00124 1.00002 0.992907
0.999926 1 0.997908
1.00135 0.999994 0.992079
1.00132 1.00007 0.993324
1.00362 0.999866 0.988135
1.00125 0.999925 0.993524
1.00348 0.999876 0.988398
0.999862 1.00002 0.995591
0.999506 0.999902 0.996064
0.99914 0.999903 0.996689
0.999382 1.00001 0.99621
1.00111 0.999859 0.993269
1.00089 1.00011 0.993398
1.00027 1.00083 0.993739
1.00251 1.00088 0.989831
0.999906 1 0.997923
0.999707 1 0.995755
1.00129 0.999997 0.992495
1.00109 0.999939 0.993171
0.999416 0.999023 0.997797
0.999789 1.00097 0.99456
1.00099 0.999943 0.993372
1.00324 0.999783 0.989369
1.00175 1.00164 0.990379
1.00292 1.00021 0.98956
1.00349 1.00067 0.987586
1.00133 1.00002 0.992117
1.00114 0.999993 0.992991
1.00356 0.999787 0.988636
1.00327 0.999834 0.98911
1.00318 0.999808 0.989308
1.00435 0.999466 0.987495
0.999483 0.998475 0.998844
1.00399 0.999948 0.987424
0.999665 1.00068 0.994487
1.00073 1.00222 0.990985
1.00279 1.00183 0.987872
1.00424 1.00025 0.986661
0.999696 0.999774 0.995338
1.00014 1.00168 0.992701
0.999732 1.00006 0.998096
0.999396 1.00024 0.998208
1.00094 1.00021 0.992582
0.999398 0.998534 0.998886
0.999732 1.00086 0.994169
1.00021 1.00096 0.993143
1.00121 1.00196 0.990455
0.999403 0.998234 0.999003
0.999596 0.999165 0.996181
1.00119 0.999962 0.993019
1.00069 1.00057 0.993292
1.00316 1.00023 0.988608
0.999663 1.00023 0.995003
1.00185 1.00141 0.989852
1.00061 1.00249 0.991068
1.00189 1.00232 0.988771
0.999591 0.999765 0.995606
0.999676 0.998716 0.996526
1.00001 1.00118 0.993431
1.00341 0.999968 0.988414
1.00258 1.00084 0.989092
1.00427 1.00006 0.986735
1.00036 1.00227 0.991793
1.00271 1.00151 0.988048
1.00119 1.00325 0.989367
1.00207 1.00261 0.988251
0.999531 0.997347 0.999249
0.999445 0.997592 0.999218
0.999373 0.997851 0.999171
0.999721 0.999352 0.99573
0.999498 0.998184 0.998967
0.999797 0.999981 0.998074
0.999807 0.999983 0.998019
1.00119 1.00002 0.99237
1.00129 1.00005 0.992147
0.999893 1 0.997926
0.999918 1 0.997906
1.00134 1 0.99208
1.00126 1.00007 0.992815
1.00362 0.999866 0.988135
1.0012 0.999921 0.992433
1.00348 0.999883 0.988395
1.00135 0.999992 0.992062
1.0037 0.999803 0.988051
1.00351 0.999906 0.988307
1.00471 0.99943 0.98661
1.00348 0.999885 0.988376
1.00457 0.999509 0.9868
0.999914 1 0.997908
0.999553 1 0.995917
1.0013 0.999991 0.991614
1.00116 0.999933 0.993119
0.999255 0.999022 0.998742
0.999982 1.00085 0.994681
1.00105 0.999906 0.993329
1.00325 0.999752 0.989241
1.00292 1.00028 0.989656
1.00182 1.00174 0.990274
1.00346 1.00069 0.987604
1.00132 1 0.992113
1.0012 0.999995 0.992933
1.00356 0.999775 0.988369
1.00329 0.999866 0.989208
0.999477 0.998544 0.9988
0.999741 1.00059 0.99487
1.00084 1.00226 0.991088
1.00317 0.999849 0.9893
1.00436 0.999384 0.987357
1.00267 1.00183 0.987865
1.00398 0.999986 0.987538
1.00421 1.00025 0.986683
0.999683 0.999826 0.995326
1.00016 1.00163 0.9927
1.00369 0.999793 0.988077
1.00347 0.999842 0.98876
1.00464 0.999451 0.986984
1.0044 0.999431 0.987048
1.00428 0.99954 0.98749
1.00488 0.998937 0.986889
0.999684 1.00022 0.994893
1.00466 0.999337 0.986778
1.00036 1.00233 0.991583
1.00154 1.00272 0.988801
1.00351 1.00183 0.986854
1.00469 0.999484 0.986592
1.00023 1.00203 0.992221
1.00014 1.00114 0.993239
1.0004 1.00267 0.991291
1.00114 0.999945 0.992501
0.999371 0.998178 0.999055
0.999596 0.999099 0.996216
1.00055 1.00066 0.992809
1.00317 1.00022 0.988611
0.999634 1.00025 0.994956
1.00057 1.00248 0.99107
1.00183 1.0014 0.989872
1.0019 1.00231 0.988704
0.999594 0.999693 0.995634
0.999669 0.998684 0.996547
0.99998 1.00122 0.993444
1.00341 0.999979 0.988415
1.00257 1.00083 0.989112
1.00429 1.00006 0.986721
1.0003 1.00232 0.991798
1.00275 1.00153 0.98808
1.00117 1.00324 0.989354
1.00208 1.0026 0.98822
0.999773 0.998343 0.996719
1.00017 1.00178 0.992557
0.999974 1.00046 0.994217
1.00018 1.00244 0.991928
1.00449 0.999764 0.986643
1.00361 1.00083 0.987216
1.00488 0.999756 0.985941
1.00071 1.00328 0.990244
1.00319 1.00149 0.987369
1.0013 1.00402 0.988207
1.0024 1.00232 0.987774
1.00023 0.999403 0.994836
0.999934 0.99791 0.996842
0.999633 0.997086 0.999274
0.999541 0.997293 0.999258
0.999445 0.997525 0.999234
0.999778 0.999007 0.995988
0.999506 0.997947 0.999053
0.999711 0.999412 0.995708
0.999511 0.998228 0.998927
1.0012 0.999931 0.992431
1.00122 1.00005 0.992273
1.00347 0.999889 0.988392
1.00363 0.999866 0.988135
1.00134 1.00001 0.992081
0.999927 1 0.997904
1.00136 0.999993 0.992062
1.0037 0.999807 0.98805
1.00351 0.999914 0.988308
1.00471 0.999432 0.986605
1.00348 0.999897 0.988369
1.00457 0.99951 0.986795
1.00371 0.999794 0.988045
1.00477 0.999357 0.986557
1.0046 0.999515 0.986743
1.00508 0.998784 0.986557
1.00458 0.999575 0.986698
1.00502 0.998947 0.986524
1.00134 0.999986 0.992108
1.00127 0.999988 0.992873
1.00356 0.999752 0.988103
1.00332 0.999885 0.989306
0.999474 0.998616 0.998752
0.999828 1.00056 0.995211
1.00099 1.00227 0.99119
1.00315 0.999883 0.989292
1.00436 0.999299 0.987219
1.00398 1.00002 0.987653
1.00255 1.00183 0.987858
1.00417 1.00026 0.986705
0.999674 0.99988 0.995314
1.00019 1.00157 0.992698
1.00368 0.999762 0.988001
1.00348 0.999837 0.988751
1.00466 0.999409 0.986954
1.00441 0.999494 0.98719
0.9997 1.00023 0.994893
1.00043 1.00232 0.99157
1.00153 1.00272 0.988963
1.00428 0.99958 0.98751
1.00488 0.998858 0.986879
1.00344 1.0018 0.986715
1.00464 0.999343 0.986787
1.00466 0.999452 0.986583
1.00024 1.00197 0.992231
1.00036 1.00267 0.991308
1.00014 1.00114 0.993227
1.00475 0.999421 0.986824
1.00461 0.999466 0.986944
1.00509 0.998868 0.986588
1.00493 0.998973 0.986665
1.00484 0.998866 0.986858
1.0051 0.998249 0.987093
1.00027 1.00218 0.99195
1.00498 0.998636 0.986823
1.00093 1.00282 0.990158
1.00209 1.00327 0.98731
1.00396 1.00138 0.986254
1.005 0.998707 0.986889
1.00015 1.00073 0.993633
1.00054 1.00254 0.991151
1.00027 1.00246 0.991662
1.00051 1.00299 0.990851
1.0034 0.999987 0.988415
0.99966 0.998659 0.996569
0.999602 0.999615 0.995661
0.999974 1.00123 0.993456
1.00256 1.00082 0.989131
1.00431 1.00006 0.986707
1.00024 1.00237 0.991805
1.00115 1.00325 0.98934
1.00279 1.00156 0.988113
1.00207 1.00258 0.988189
0.999765 0.998333 0.996726
1.00015 1.00182 0.992558
0.999984 1.00043 0.994236
1.00015 1.0025 0.991918
1.00451 0.999763 0.986635
1.0036 1.00083 0.987222
1.00487 0.999768 0.985929
1.00067 1.00327 0.990265
1.00322 1.00152 0.987416
1.00133 1.00414 0.988162
1.00235 1.00212 0.988105
0.999861 0.99809 0.996802
1.00006 0.999896 0.99464
1.00043 1.00288 0.991124
1.00014 1.00169 0.99274
1.00009 1.00346 0.99111
1.00499 0.999432 0.98609
1.00419 1.00062 0.986335
1.00506 0.99939 0.985942
1.00078 1.00448 0.988928
1.00336 1.00134 0.987153
1.00169 1.00373 0.987319
1.00019 0.999475 0.994828
1.00025 1.00045 0.993782
1.00026 0.999366 0.994815
1.00022 0.999419 0.994831
0.999978 0.997727 0.997345
0.999922 0.997899 0.997082
0.999789 0.9969 0.998343
0.999647 0.997042 0.99928
0.999553 0.99724 0.999266
0.999842 0.998734 0.996155
0.999547 0.997727 0.999103
0.999776 0.999046 0.99597
0.999522 0.997979 0.999028
0.999702 0.999468 0.995685
0.999525 0.998276 0.998885
1.00348 0.999905 0.988361
1.0035 0.999921 0.988309
1.00456 0.99952 0.98679
1.00471 0.999434 0.986601
1.0037 0.999812 0.988049
1.00135 0.999996 0.992062
1.00371 0.999791 0.988044
1.00477 0.999359 0.986556
1.00459 0.99953 0.986738
1.0051 0.998727 0.98661
1.00459 0.999571 0.986691
1.00501 0.998963 0.98652
1.00478 0.999339 0.986561
1.00512 0.998663 0.986637
1.00501 0.998854 0.986593
1.00515 0.998123 0.987121
1.00504 0.999138 0.986305
1.00515 0.998031 0.987179
1.00366 0.99973 0.987925
1.00349 0.99984 0.988741
1.00466 0.999373 0.986925
1.00443 0.999559 0.987332
0.999719 1.00024 0.994892
1.00046 1.00234 0.991556
1.00152 1.00271 0.989126
1.00428 0.999621 0.98753
1.00488 0.998779 0.98687
1.00463 0.999349 0.986797
1.00338 1.00176 0.986576
1.00464 0.999412 0.986574
1.00026 1.00191 0.992242
1.00035 1.00264 0.991324
1.00015 1.00113 0.993216
1.00475 0.999387 0.986709
1.00461 0.999465 0.986935
1.00508 0.998781 0.986619
1.00493 0.999002 0.986687
1.00031 1.00215 0.991951
1.00099 1.00281 0.990125
1.00199 1.00332 0.987527
1.00484 0.998953 0.986879
1.00509 0.998139 0.987185
1.00391 1.00138 0.986136
1.00498 0.998642 0.986835
1.00499 0.998588 0.986936
1.00056 1.00255 0.991161
1.00051 1.00302 0.9908
1.00016 1.00073 0.993625
1.00024 1.0024 0.991737
1.00512 0.99879 0.986535
1.00506 0.998943 0.986632
1.00519 0.998298 0.986892
1.00513 0.997989 0.987277
1.00507 0.998239 0.987121
1.00516 0.997438 0.98775
1.0007 1.00251 0.990891
1.00511 0.997822 0.98737
1.00098 1.00364 0.988933
1.00263 1.00362 0.9863
1.00444 1.00045 0.986185
1.00515 0.998148 0.987108
1.00018 1.00044 0.993889
1.00022 1.00206 0.992144
1.00064 1.00281 0.990736
1.00031 1.00304 0.991117
1.0006 1.00295 0.990689
0.999756 0.998325 0.996733
1.00451 0.999762 0.986627
0.999996 1.00039 0.994254
1.00012 1.00189 0.992561
1.00011 1.00257 0.991908
1.0036 1.00083 0.987227
1.00487 0.99978 0.985917
1.00065 1.00322 0.990286
1.00138 1.00425 0.988117
1.00326 1.00154 0.987463
1.0023 1.00195 0.988434
0.999855 0.998087 0.996805
1.00007 0.999878 0.994649
1.00041 1.00287 0.991133
1.00011 1.00173 0.992746
1.00007 1.00355 0.991002
1.00498 0.999438 0.986071
1.00418 1.00064 0.986335
1.00507 0.999402 0.985912
1.00071 1.0045 0.988943
1.00338 1.00134 0.987226
1.00186 1.00365 0.987374
1.00014 0.999618 0.994785
1.00018 1.00099 0.993378
1.00042 1.00397 0.990047
0.999991 1.00291 0.991814
1.00015 1.00407 0.990499
1.00511 0.99886 0.986373
1.00442 1.00027 0.986169
1.0051 0.998491 0.986583
1.00075 1.00504 0.988225
1.00304 1.00227 0.986754
1.00019 0.999491 0.994825
1.00023 1.00048 0.993722
1.00024 1.00046 0.993747
1.00018 1.00115 0.993332
1.00026 1.00049 0.993733
1.00028 0.999384 0.994756
1.00026 0.999377 0.994813
1.00004 0.997599 0.997351
1.00022 0.999435 0.994826
0.999987 0.997725 0.997345
0.999893 0.996674 0.998368
0.99991 0.997891 0.997318
0.999763 0.996854 0.998819
0.999661 0.997001 0.999285
0.999909 0.998469 0.996303
0.999844 0.998753 0.996143
0.999613 0.997491 0.999141
0.999554 0.997761 0.999089
0.999772 0.999084 0.995952
0.999538 0.998012 0.998999
1.0046 0.999567 0.986683
1.00459 0.999537 0.986732
1.005 0.998976 0.986516
1.00511 0.998668 0.986662
1.00477 0.99936 0.986555
1.00371 0.999788 0.988043
1.00478 0.999338 0.986562
1.00512 0.998669 0.986635
1.00503 0.998864 0.986587
1.00515 0.998032 0.987232
1.00503 0.999145 0.986293
1.00515 0.997945 0.987256
1.00512 0.9987 0.986614
1.00515 0.998143 0.987123
1.00513 0.997861 0.987399
1.00512 0.997551 0.987775
1.00515 0.998298 0.986862
1.00516 0.997332 0.987952
1.00476 0.99935 0.986594
1.00461 0.999467 0.986925
1.00507 0.998689 0.98665
1.00494 0.99903 0.986709
1.00035 1.00211 0.991952
1.00106 1.0028 0.990092
1.00189 1.00339 0.987744
1.00483 0.999039 0.986901
1.00508 0.998026 0.987277
1.00498 0.998648 0.986846
1.00385 1.00138 0.986018
1.00498 0.998466 0.986982
1.00055 1.00257 0.99117
1.00047 1.00308 0.990749
1.00016 1.00074 0.993618
1.00023 1.00234 0.991812
1.0051 0.998793 0.98654
1.00506 0.998967 0.986562
1.00519 0.998258 0.98692
1.00512 0.998066 0.987199
1.00072 1.00256 0.990871
1.00097 1.00358 0.98913
1.00257 1.00375 0.986262
1.00506 0.99833 0.987045
1.00516 0.997325 0.987832
1.00445 1.00033 0.986169
1.0051 0.997839 0.987388
1.00515 0.998059 0.987074
1.00067 1.00281 0.990735
1.00062 1.00295 0.990691
1.00028 1.00309 0.991109
1.00017 1.00044 0.993813
1.00021 1.00201 0.9922
1.00517 0.998184 0.987079
1.00516 0.998032 0.987184
1.00515 0.997003 0.988208
1.00513 0.997268 0.98786
1.00071 1.00307 0.990316
1.00513 0.997544 0.987758
1.00086 1.00437 0.988124
1.0033 1.00317 0.985614
1.00496 0.999148 0.986373
1.00018 1.0002 0.99395
1.00021 1.00169 0.992679
1.00018 1.00275 0.991677
1.00072 1.00282 0.990631
1.00037 1.00341 0.990675
1.00075 1.00273 0.990562
0.999848 0.998087 0.996807
1.00007 0.999858 0.994658
1.00498 0.999443 0.986053
1.00009 1.00177 0.992753
1.00036 1.00288 0.991141
1.00004 1.00364 0.990893
1.00416 1.00065 0.986335
1.00508 0.999413 0.985882
1.00066 1.00453 0.988958
1.00202 1.00362 0.987429
1.0034 1.00134 0.987301
1.00014 0.999622 0.994786
1.00017 1.00099 0.993391
1.00038 1.00399 0.990062
0.999973 1.00293 0.991813
1.00011 1.00405 0.990464
1.00511 0.998896 0.986353
1.00445 1.00028 0.98614
1.00509 0.998438 0.986686
1.00075 1.005 0.988113
1.00308 1.00241 0.986666
1.0002 1.00063 0.993698
1 1.00216 0.992405
1.00047 1.00437 0.989478
0.999939 1.00389 0.99078
1.00035 1.00404 0.990103
1.00513 0.997241 0.987855
1.00458 1.00004 0.986313
1.00506 0.997864 0.987173
1.00161 1.00455 0.987655
1.00318 1.00191 0.986246
1.00018 0.999508 0.994822
1.00023 1.00046 0.993765
1.00011 1.00123 0.993203
1.00023 1.00046 0.993713
1.00026 1.00049 0.993732
1.00014 1.00116 0.993276
1.00006 1.00163 0.993012
1.00014 1.0012 0.99319
1.00027 1.00055 0.993676
1.00028 0.999462 0.994683
1.00028 0.999394 0.994756
1.00009 0.997536 0.997318
1.00025 0.999388 0.99481
1.00005 0.997608 0.997346
0.999966 0.996536 0.99837
0.999995 0.997723 0.997347
0.999882 0.996648 0.998373
0.999734 0.996797 0.999304
0.999969 0.998222 0.996448
0.999912 0.998483 0.996294
0.999691 0.997245 0.999178
0.999844 0.998778 0.996131
0.999612 0.997538 0.999129
0.999562 0.997792 0.999074
1.00501 0.999153 0.98628
1.00504 0.998877 0.986582
1.00515 0.997855 0.987334
1.00516 0.997942 0.987343
1.00512 0.998675 0.986633
1.00478 0.999339 0.986563
1.00512 0.99874 0.986571
1.00515 0.99819 0.987077
1.00514 0.997908 0.987327
1.00512 0.99745 0.98785
1.00514 0.998322 0.986866
1.00516 0.997172 0.988026
1.00514 0.998242 0.987077
1.00512 0.997536 0.987745
1.00513 0.997026 0.988238
1.00515 0.997028 0.988265
1.00509 0.998796 0.986546
1.00506 0.99899 0.986491
1.00519 0.998222 0.986948
1.00511 0.998145 0.987121
1.00076 1.00258 0.99085
1.00097 1.0035 0.989328
1.00251 1.00387 0.986224
1.00506 0.998423 0.98697
1.00516 0.997217 0.987914
1.00509 0.997856 0.987407
1.00445 1.00022 0.986153
1.00515 0.997993 0.987041
1.0007 1.00282 0.990733
1.00065 1.00291 0.990692
1.00024 1.00313 0.991101
1.00017 1.00044 0.993736
1.0002 1.00196 0.992257
1.00517 0.998194 0.987069
1.00516 0.998049 0.987198
1.00515 0.997108 0.988103
1.00077 1.00308 0.990289
1.00101 1.00435 0.988293
1.00322 1.00321 0.985565
1.00513 0.997324 0.987857
1.00497 0.998968 0.986486
1.00512 0.997479 0.987652
1.00018 1.00017 0.993983
1.00076 1.00279 0.990612
1.00072 1.00267 0.990686
1.00037 1.00348 0.990618
1.00018 1.00274 0.991698
1.0002 1.00168 0.992615
1.00514 0.997776 0.987414
1.00512 0.996976 0.988297
1.00512 0.996438 0.988659
1.00512 0.996589 0.988605
1.00077 1.00349 0.989857
1.00509 0.997795 0.987383
1.0016 1.00488 0.986567
1.00404 1.00188 0.985549
1.00019 0.999928 0.994209
1.00021 1.00141 0.992961
1.00018 1.00245 0.992041
1.00015 1.00332 0.991117
1.00081 1.00287 0.990339
1.00081 1.00293 0.990316
1.00014 0.999624 0.994786
1.00016 1.00097 0.993404
1.00512 0.998933 0.986332
0.999956 1.00295 0.991813
1.00035 1.00402 0.990077
1.00004 1.00406 0.990429
1.00448 1.00029 0.98611
1.00509 0.998385 0.98679
1.00077 1.00501 0.988
1.00312 1.00253 0.986577
1.0002 1.0006 0.993706
1.00003 1.00213 0.992447
1.00046 1.00442 0.989523
0.999895 1.00401 0.990777
1.00023 1.00392 0.990326
1.00514 0.997226 0.988015
1.00463 1.00004 0.986183
1.00509 0.997854 0.987226
1.00145 1.00463 0.987566
1.0033 1.0019 0.986327
1.00006 1.00148 0.993006
0.999896 1.00325 0.991404
1.00077 1.00421 0.98916
0.999959 1.00449 0.989771
1.00515 0.995893 0.989235
1.00511 0.996722 0.988493
1.00468 0.999653 0.986273
1.00201 1.00364 0.986439
1.00024 1.00044 0.993808
1.00011 1.00125 0.993224
0.999967 1.00191 0.992884
1.00025 1.00049 0.993732
1.00012 1.00117 0.993219
1.00027 1.00054 0.993675
1.00005 1.00163 0.992974
1.00015 1.00117 0.993212
1.00001 1.00196 0.992737
1.00011 1.00158 0.99291
1.00018 1.00123 0.993078
1.00026 1.00062 0.993595
1.00026 0.999543 0.994632
1.00028 0.999465 0.994683
1.00013 0.997538 0.997263
1.00028 0.999399 0.994757
1.0001 0.997562 0.997309
1.00002 0.996465 0.998343
1.00006 0.997619 0.997343
0.999958 0.996508 0.998376
0.999872 0.996623 0.998375
1.00002 0.997983 0.996585
0.999974 0.998227 0.99644
0.99977 0.997 0.999214
0.999914 0.998498 0.996284
0.999685 0.997295 0.999166
0.999613 0.997579 0.999117
1.00513 0.998346 0.98687
1.00515 0.997956 0.987255
1.00517 0.997016 0.988101
1.00512 0.997351 0.987925
1.00516 0.998236 0.98703
1.00512 0.998779 0.986528
1.00514 0.998236 0.98707
1.00511 0.997569 0.98772
1.00512 0.997025 0.988221
1.00515 0.996983 0.988275
1.00512 0.997741 0.987567
1.0051 0.996771 0.988622
1.00515 0.996262 0.988852
1.00517 0.998205 0.987058
1.00515 0.998066 0.987212
1.00515 0.997211 0.987998
1.00082 1.00308 0.990261
1.00117 1.00432 0.988462
1.00314 1.00326 0.985516
1.00513 0.997375 0.987854
1.00512 0.99742 0.987545
1.00498 0.998783 0.986599
1.00079 1.00277 0.990594
1.00067 1.00263 0.990811
1.00039 1.00353 0.990561
1.00018 1.00014 0.994015
1.00018 1.00273 0.991718
1.00019 1.00167 0.992551
1.00515 0.99782 0.987436
1.00512 0.996944 0.988351
1.00512 0.996477 0.988666
1.00079 1.00349 0.98981
1.00146 1.00495 0.986891
1.00406 1.0017 0.985638
1.00512 0.996647 0.988554
1.0051 0.997781 0.987359
1.00019 0.99991 0.994316
1.00021 1.00141 0.992959
1.00072 1.00275 0.990409
1.00079 1.00285 0.99055
1.00018 1.00329 0.991085
1.00016 1.00249 0.99199
1.00513 0.996971 0.988298
1.0051 0.995899 0.989314
1.00512 0.995856 0.989232
1.00507 0.996785 0.988703
1.0007 1.004 0.988954
1.00473 0.999394 0.986503
1.00258 1.00437 0.986069
1.0002 0.999714 0.994588
1.00015 1.00088 0.99352
1.00018 1.00122 0.993027
1.00013 1.00228 0.992205
1.00003 1.00317 0.991459
1.00009 1.00355 0.990832
1.0012 1.00147 0.99081
1.00068 1.00261 0.991493
1.0002 1.00059 0.993714
1.00006 1.00211 0.992488
1.00514 0.997217 0.988176
0.999913 1.00407 0.990774
1.00044 1.00446 0.989568
1.00011 1.00383 0.990549
1.00468 1.00002 0.986051
1.0051 0.99784 0.987278
1.00129 1.00468 0.987479
1.00339 1.00184 0.986409
1.00008 1.0015 0.992958
0.999937 1.00327 0.99141
1.00069 1.00426 0.989211
1.00012 1.00447 0.989875
1.00515 0.99586 0.989315
1.0051 0.996833 0.988308
1.00465 0.999653 0.986353
1.00235 1.00364 0.986315
0.999922 1.00235 0.992496
1.0052 0.995158 0.989735
0.999987 1.00445 0.990532
1.00084 1.00473 0.988436
1.0051 0.995717 0.9896
1.00503 0.997859 0.987086
1.00369 1.00232 0.985814
1.00011 1.00127 0.993244
0.999965 1.0019 0.992875
0.999861 1.00244 0.99255
1.00027 1.00052 0.993673
1.00016 1.00116 0.993235
1.00003 1.00163 0.992935
1.00027 1.00061 0.993591
1.00017 1.00123 0.993093
0.999995 1.00199 0.992693
1.00012 1.00155 0.992951
1.00002 1.00213 0.992483
1.00011 1.00182 0.992644
1.00017 1.00162 0.992822
1.00027 1.00123 0.992956
1.00027 1.00071 0.993496
1.00024 0.999608 0.994604
1.00026 0.999549 0.994631
1.00015 0.997558 0.99721
1.00028 0.999472 0.994683
1.00013 0.997567 0.997254
1.00006 0.996435 0.998306
1.0001 0.997587 0.997301
1.00002 0.996429 0.998351
0.99995 0.996481 0.998379
1.00019 0.999566 0.99475
1.00007 0.997784 0.996702
1.00003 0.997989 0.996578
0.999846 0.99678 0.999246
0.999979 0.998234 0.996432
0.999762 0.997051 0.999203
0.99968 0.997346 0.999155
1.00516 0.996939 0.988285
1.00511 0.997023 0.988204
1.00511 0.997597 0.987695
1.00514 0.998228 0.987062
1.00512 0.997701 0.987624
1.00509 0.996787 0.988575
1.00514 0.99625 0.98885
1.00514 0.996862 0.988383
1.00517 0.995791 0.989502
1.00516 0.994901 0.990028
1.00515 0.997863 0.987458
1.00512 0.996911 0.988405
1.00512 0.996519 0.988674
1.00081 1.00355 0.989762
1.00133 1.00498 0.987216
1.00407 1.0015 0.985727
1.00512 0.996703 0.988503
1.0051 0.997736 0.987336
1.00064 1.00265 0.990479
1.00079 1.00277 0.990778
1.00013 1.00336 0.991054
1.00019 0.999886 0.994423
1.00021 1.00141 0.992957
1.00013 1.00253 0.99194
1.00513 0.996885 0.988403
1.0002 0.999713 0.994586
1.00014 1.0009 0.993473
1.0051 0.995966 0.989303
1.00511 0.995859 0.989178
1.00059 1.00412 0.989251
1.00247 1.00432 0.986032
1.00459 0.999461 0.986496
1.00499 0.996704 0.988594
1.00019 1.0012 0.993174
1.00013 1.00227 0.992198
1.00134 1.00174 0.990482
1.00041 1.00232 0.991836
1.00006 1.00364 0.990803
1.00005 1.00314 0.99147
1.00517 0.995689 0.989483
1.00514 0.995522 0.989709
1.00508 0.99526 0.989641
1.00503 0.996801 0.98816
1.00103 1.00327 0.98944
1.00339 1.00288 0.986051
1.00014 1.00075 0.993558
1.00017 1.00104 0.993341
1.00007 1.00187 0.992817
1.0001 1.00223 0.992156
1.00001 1.00304 0.991785
0.999947 1.00369 0.990875
0.999709 1.00437 0.990831
1.00064 1.00136 0.992028
1.00009 1.00152 0.99291
0.999983 1.0033 0.991418
1.00516 0.995815 0.989395
1.0051 0.996959 0.988123
1.00027 1.00447 0.98998
1.00062 1.0043 0.98926
1.00463 0.999671 0.986432
1.00271 1.00371 0.986189
0.999922 1.00236 0.992465
1.0052 0.995142 0.989778
0.999894 1.00431 0.990623
1.00085 1.00464 0.988354
1.0051 0.995651 0.989477
1.00502 0.997798 0.987295
1.00359 1.00251 0.985862
0.999855 1.00354 0.991549
1.00501 0.995066 0.990946
1.00056 1.00462 0.989831
1.00179 1.00464 0.987496
1.00492 0.996581 0.988825
1.00384 1.00062 0.986749
0.999705 0.998935 0.992578
0.999962 1.00189 0.992865
0.99985 1.00246 0.992535
0.999977 1.00267 0.992153
1.00027 1.0006 0.993586
1.00017 1.00124 0.993109
1.00013 1.00152 0.992992
0.999988 1.00201 0.992649
1.00027 1.0007 0.993491
1.00026 1.00124 0.992953
1.00003 1.00218 0.992442
1.00016 1.00162 0.992819
1.00012 1.00183 0.992677
1.00016 1.00192 0.992486
1.00022 1.00166 0.992632
1.00023 1.00156 0.992747
1.00035 1.00129 0.992762
1.00029 1.00077 0.993309
1.00026 1.00125 0.993057
1.00028 1.00076 0.993333
1.00023 0.999638 0.994587
1.00024 0.999611 0.994603
1.00018 0.997612 0.996681
1.00026 0.999557 0.99463
1.00016 0.997591 0.996958
1.00003 0.99638 0.999273
1.00013 0.997598 0.997246
1.00006 0.996395 0.998312
1.00001 0.996394 0.998356
1.00017 0.99946 0.994882
1.00019 0.999563 0.994747
1.00011 0.99763 0.996798
1.00006 0.997786 0.996944
0.999912 0.996594 0.999273
1.00003 0.997996 0.99657
0.999838 0.996824 0.999237
0.999755 0.9971 0.999191
1.00514 0.99624 0.988849
1.0051 0.996799 0.988527
1.00512 0.997665 0.987682
1.00513 0.996851 0.988375
1.00517 0.99579 0.98939
1.00516 0.994913 0.990039
1.00518 0.995357 0.989698
1.00078 0.99944 0.988438
1.0049 0.994948 0.99142
1.00012 1.00069 0.993788
1.00513 0.9968 0.988507
1.00509 0.996013 0.989292
1.00511 0.995896 0.989124
1.00049 1.00423 0.989548
1.00236 1.00428 0.985995
1.00443 0.999553 0.986489
1.00493 0.996663 0.988485
1.0015 1.00194 0.990163
1.00013 1.00205 0.992192
1.00008 1.00367 0.990774
1.0002 0.999714 0.994585
1.00007 1.00311 0.991482
1.0002 1.00118 0.993321
1.00013 1.00227 0.992189
1.00013 1.0009 0.993425
1.00517 0.995555 0.989605
1.00013 1.00074 0.993639
1.00017 1.00104 0.993338
1.00008 1.00186 0.992713
1.00514 0.995372 0.98971
1.00508 0.995471 0.989484
1.00112 1.00305 0.989513
1.00298 1.00273 0.986195
1.00497 0.997034 0.988148
1.0001 1.00223 0.992224
1.00002 1.00301 0.991723
1.00057 1.00175 0.991691
0.999749 1.00421 0.990987
1 1.00366 0.990937
1.00513 0.995005 0.990273
1.00511 0.995908 0.989528
1.00509 0.995889 0.989096
1.00385 0.999901 0.987921
1.00079 1.00321 0.990013
1.0001 1.00168 0.9927
1.00007 1.00204 0.9924
1.00002 1.0026 0.992146
0.99999 1.00307 0.991647
0.999873 1.00363 0.991237
0.999751 1.00447 0.990581
0.999736 1.00461 0.990486
0.999926 1.00237 0.992433
0.999797 1.00417 0.990714
1.0052 0.995135 0.98982
1.0051 0.995582 0.989355
1.00502 0.997707 0.987504
1.00085 1.00454 0.988273
1.00349 1.00268 0.985912
0.999813 1.00345 0.991714
1.00497 0.995028 0.990923
1.00029 1.00448 0.989961
1.00144 1.00479 0.987549
1.00494 0.996319 0.988999
1.00389 1.00055 0.986693
0.999643 0.998949 0.990901
0.999999 1.00384 0.991023
1.0046 0.995461 0.991565
1.00028 1.00462 0.9898
1.00191 1.00356 0.98761
1.00411 0.997551 0.988233
1.00118 0.995263 0.959396
0.995958 0.998671 0.977778
0.998843 1.00058 0.992707
0.999853 0.996896 0.933501
0.994976 0.998139 0.923363
0.999848 1.00247 0.99252
0.999904 1.00271 0.992225
0.999977 1.0023 0.992501
1.00027 1.0007 0.993487
1.00026 1.00121 0.99295
1.00016 1.00162 0.992817
1.00013 1.00183 0.99271
1.00005 1.00221 0.992401
1.00024 1.00154 0.992714
1.00028 1.00077 0.993365
1.00035 1.00128 0.992786
1.00015 1.00194 0.992492
1.00021 1.00168 0.992645
1.00025 1.00161 0.992588
1.0002 1.00146 0.992812
1.00034 1.00156 0.992552
1.0004 1.00136 0.992568
1.00029 1.00079 0.993287
1.00034 1.00132 0.99279
1.00029 1.00146 0.992772
1.00016 1.00125 0.993129
1.00026 1.00126 0.992997
1.00027 1.00067 0.99352
1.00028 1.00077 0.993324
1.00024 0.999632 0.99458
1.00023 0.999636 0.994588
1.00016 0.997665 0.996666
1.00024 0.999612 0.994603
1.00018 0.997616 0.996681
1.00004 0.996379 0.999268
1.00017 0.997621 0.996706
1.00006 0.99638 0.998777
1.00006 0.996355 0.998317
1.00016 0.999386 0.994979
1.00017 0.999458 0.994881
1.00013 0.997513 0.99687
1.00019 0.999561 0.994745
1.0001 0.99761 0.99704
0.999965 0.996443 0.999295
1.00008 0.99781 0.996678
0.999902 0.996665 0.99926
0.999829 0.996867 0.999227
1.00517 0.995786 0.989278
1.00513 0.996844 0.988368
1.00516 0.994923 0.990049
1.00079 0.998641 0.988548
1.00518 0.99533 0.989727
1.00491 0.99521 0.991308
1.00498 0.995902 0.990561
0.997162 0.999385 0.974919
1.00218 0.996578 0.989755
1.00012 1.00065 0.993832
1.00013 1.00067 0.993786
1.00006 1.00163 0.992941
1.00009 1.00147 0.993052
1.00518 0.995438 0.989728
1.00515 0.995299 0.98971
1.00511 0.995581 0.989327
1.00124 1.00285 0.989588
1.0026 1.00253 0.986336
1.0049 0.997318 0.988136
1.00048 1.00221 0.991341
0.999802 1.00404 0.991143
1.00005 1.00363 0.990999
1.00017 1.00105 0.993336
1.00004 1.00297 0.991663
1.00011 1.00224 0.992293
1.00013 1.00073 0.99372
1.00009 1.00186 0.992609
1.00507 0.995053 0.990242
1.00009 1.00171 0.992815
1.00008 1.00203 0.992465
1 1.00252 0.992179
1.00508 0.995589 0.989585
1.00509 0.995747 0.989072
1.00093 1.00302 0.989979
1.00385 0.99995 0.987919
0.999997 1.00311 0.991644
0.999874 1.0036 0.991272
0.999766 1.00459 0.990492
0.999871 1.00448 0.990556
1.00505 0.996084 0.989729
1.00506 0.995466 0.989888
1.0042 0.998242 0.988702
1.001 1.00305 0.989931
1.00005 1.00262 0.991939
0.999982 1.00286 0.991824
0.999781 1.00403 0.991004
0.999883 1.0051 0.989635
1.00057 0.994955 0.954865
0.999766 1.00336 0.991879
1 1.0044 0.99009
1.00494 0.994977 0.990895
1.00498 0.996064 0.989172
1.0039 1.00044 0.986635
1.00106 1.00491 0.9876
0.999626 0.998945 0.989193
0.999855 1.00389 0.991166
1.0046 0.995354 0.99151
1.00016 1.00463 0.98986
1.00188 1.0035 0.987583
1.00434 0.997579 0.988309
1.0016 0.995554 0.954963
0.99562 0.998915 0.973963
0.998875 1.00046 0.992757
0.998973 0.997161 0.935217
0.994718 0.998144 0.917864
0.999717 1.00369 0.991779
0.999916 0.995057 0.937784
0.995016 0.999338 0.924987
1.00394 0.996929 0.991237
0.999863 1.00474 0.990267
1.00235 1.00132 0.988398
0.997989 1.00105 0.994344
0.999437 0.997025 0.959374
0.994842 0.998834 0.972787
0.998271 0.99899 0.93615
0.994671 0.999879 0.927169
0.99982 1.00276 0.992297
0.999927 1.00243 0.992461
0.999947 1.00124 0.99377
1.00027 1.00076 0.993421
1.00034 1.00127 0.99281
1.00022 1.00156 0.992682
1.00021 1.0017 0.992658
1.00014 1.00197 0.992499
1.00029 1.00079 0.993286
1.00026 1.00165 0.992568
1.00033 1.00156 0.992575
1.0004 1.00135 0.992638
1.0002 1.00142 0.992866
1.00033 1.00154 0.99257
1.00027 1.00072 0.993412
1.00043 1.0016 0.992348
1.00039 1.00136 0.99267
1.00036 1.00131 0.992783
1.00029 1.00145 0.99277
1.00041 1.00145 0.99252
1.00018 1.0015 0.992877
1.00021 1.00146 0.9928
0.99985 1.00234 0.992584
1.00006 1.00136 0.993206
1.00016 1.00126 0.993131
1.00024 1.00063 0.993608
1.00027 1.00128 0.992938
1.00027 1.00069 0.993477
1.00026 0.999597 0.994597
1.00028 1.00079 0.993315
1.00025 0.999623 0.994581
1.00012 0.997697 0.997176
1.00023 0.999633 0.994588
1.00015 0.997656 0.99692
1.00009 0.996402 0.998254
1.00018 0.99762 0.99668
1.00004 0.996383 0.999266
1.00009 0.996381 0.998282
1.00013 1.00067 0.99378
1.00016 0.999348 0.995013
1.00016 0.999383 0.994979
1.00015 0.997436 0.996921
1.00018 0.999455 0.99488
1.00014 0.997498 0.996869
1 0.996332 0.99931
1.00009 0.997621 0.997267
0.999978 0.996503 0.998803
0.999944 0.996704 0.998268
1.00074 0.997822 0.988676
1.00517 0.995305 0.989757
1.00492 0.995466 0.991196
0.996619 0.998642 0.976617
1.00199 0.99694 0.989992
1.00499 0.995449 0.990517
1.0042 0.995861 0.990346
0.998148 0.996602 0.979138
1.00032 0.995546 0.957926
0.99875 0.997408 0.937685
0.994625 0.9982 0.922188
1.00004 1.00157 0.992916
1.00012 1.00065 0.993829
1.00014 1.00066 0.993785
1.00007 1.00163 0.992909
1.00001 1.00226 0.992408
1.00015 1.00195 0.992534
1.00011 1.00155 0.992964
1.00007 1.00154 0.992994
1.00505 0.995073 0.990211
1.0051 0.995198 0.989639
1.00505 0.995618 0.989049
1.00104 1.0028 0.989946
1.00386 0.999908 0.987915
0.999794 1.00454 0.990501
0.99999 1.00448 0.990531
0.999884 1.00357 0.991306
1.00008 1.00202 0.99253
1 1.00317 0.99164
1.0001 1.00174 0.992929
1.00001 1.00242 0.992212
1.00501 0.995813 0.989741
1.00003 1.0026 0.992023
0.999985 1.00288 0.991848
1.00501 0.995342 0.989765
1.00383 0.99786 0.98906
1.00117 1.00291 0.989784
0.999838 1.00405 0.990977
1.00001 1.00509 0.989649
1.00329 1.00044 0.989622
1.00447 0.996094 0.990788
1.00209 0.999511 0.989958
1.00051 1.00362 0.990069
1.00003 1.00281 0.991734
0.999915 1.00347 0.991386
0.999789 1.00464 0.990364
0.999968 0.994879 0.936288
1.00109 0.994971 0.961362
0.999732 1.00391 0.991309
1.00005 1.00458 0.98992
1.00457 0.99519 0.991461
1.00456 0.997615 0.988384
1.00187 1.00349 0.987557
1.0006 0.995033 0.957352
0.995998 0.999222 0.974073
0.998879 1.0002 0.992806
0.998361 0.997074 0.940064
0.994608 0.998151 0.912354
0.999666 1.00361 0.991796
0.999936 0.995424 0.936263
0.995053 0.999263 0.922177
1.00399 0.996886 0.991205
0.999778 1.0047 0.990379
1.00197 1.00133 0.989008
0.998304 1.00064 0.995055
1.00017 0.997075 0.95573
0.995294 0.998529 0.975684
0.997745 0.999263 0.937003
0.994844 0.999863 0.925192
0.999255 1.00324 0.993011
0.995057 0.999198 0.927139
0.994869 1.00276 0.941568
1.00087 0.999112 0.993957
0.999215 1.00415 0.992446
0.996882 1.00243 0.995548
0.994959 0.999825 0.978115
0.996986 0.999304 0.954308
0.995468 0.999896 0.940434
0.994614 0.999735 0.934465
0.999909 1.00251 0.992421
0.999954 1.00139 0.993605
0.999695 0.999712 0.995398
1.00029 1.00079 0.993285
1.00039 1.00134 0.992709
1.00031 1.00156 0.992597
1.00027 1.00169 0.992547
1.0002 1.00139 0.99292
1.00039 1.00136 0.992666
1.00033 1.00157 0.992572
1.00044 1.0016 0.992347
1.00016 1.00068 0.99361
0.999859 0.999992 0.994938
1.00044 1.00122 0.992711
1.0005 1.00155 0.9923
1.00037 1.0013 0.992775
1.0003 1.00144 0.992768
1.00042 1.00145 0.992515
1.00019 1.00149 0.992869
1.00021 1.00145 0.992848
1.00003 1.00172 0.992893
1.00031 1.00144 0.992622
1.00011 1.00142 0.993046
0.999981 1.0027 0.992018
0.999655 1.00471 0.990357
0.999714 1.00305 0.991943
0.999846 1.0024 0.992562
0.999974 1.00163 0.993089
1.00007 1.00137 0.993201
1.0002 1.00063 0.993684
1.00016 1.00128 0.993134
1.00025 1.00063 0.993612
1.00025 0.999567 0.994638
1.00028 1.0007 0.993434
1.00026 0.999584 0.994599
1.00009 0.997732 0.997194
1.00025 0.999614 0.994582
1.00013 0.997688 0.996928
1.00005 0.996416 0.998264
1.00017 0.997642 0.996667
1.00003 0.996406 0.999262
1.00004 0.996387 0.999264
1.00017 1.00075 0.993833
1.00018 0.999382 0.994961
1.00013 1.00068 0.993778
1.00015 0.997405 0.99694
1.00016 0.999349 0.995013
1.00016 0.999383 0.994978
1.00015 0.997437 0.996918
1.00003 0.996267 0.999321
1.00011 0.997493 0.997338
1.00002 0.996353 0.998832
1.00001 0.996503 0.99833
0.999925 0.995484 0.9334
0.995275 0.99884 0.925267
0.997676 0.99792 0.977598
1.00181 0.997314 0.990229
1.00499 0.994976 0.990475
0.997394 0.996662 0.981374
1.00417 0.995925 0.990414
1.00114 0.995377 0.958236
0.999342 0.996609 0.933638
0.994608 0.998165 0.916567
0.998811 0.997676 0.984774
0.9989 0.997478 0.960056
0.998249 0.998971 0.935064
0.994704 0.999854 0.925152
1.00012 1.00223 0.992237
1.00006 1.00156 0.992965
1.00013 1.00063 0.993827
1.00008 1.00162 0.992878
1.00001 1.00218 0.992491
1.00018 1.00206 0.992357
1.00016 1.00192 0.992516
1.00017 1.00168 0.992695
1.00012 1.00156 0.992905
1.00005 1.00159 0.992936
1.00494 0.995443 0.989756
1.00494 0.99523 0.98965
1.00343 0.997464 0.98942
1.00132 1.00282 0.989637
1.00014 1.00507 0.989663
0.999901 1.00407 0.990951
0.999985 1.0029 0.991871
1 1.00259 0.992107
1.0035 0.999107 0.989806
1.00003 1.00284 0.991727
0.999927 1.00346 0.991349
1.00434 0.99588 0.99055
1.00184 0.999854 0.990407
1.00068 1.00369 0.989683
0.999925 1.00471 0.990226
1.00036 1.00092 0.99296
1.00153 0.998661 0.993418
0.999805 1.0042 0.990504
1.00005 1.00282 0.991751
1.00004 1.00313 0.991364
0.999963 1.00377 0.990979
0.9948 0.99925 0.936036
0.999944 0.995242 0.938688
1.00062 0.994941 0.954693
0.999588 1.00362 0.991813
0.999705 1.00466 0.990493
1.00406 0.996832 0.991171
1.00159 1.00149 0.989617
0.99992 0.995217 0.939619
0.998973 0.996988 0.956356
0.994899 0.998031 0.972796
0.998684 0.999556 0.995704
0.998184 0.999086 0.931873
0.995035 0.999164 0.922877
0.994994 0.99988 0.926797
0.999142 1.0033 0.993027
0.995072 0.999293 0.930144
0.995051 1.00288 0.941038
1.00111 0.999006 0.994053
0.99876 1.00442 0.992433
0.996606 1.00031 0.998263
0.99516 0.999244 0.97546
0.996905 0.999472 0.959909
0.997625 0.999888 0.935762
0.994617 0.999734 0.936603
0.998145 1.00226 0.995932
0.994759 1.00166 0.950287
0.994271 1.00284 0.954697
0.996503 1.00226 0.998562
0.995093 1.00007 0.984676
0.99546 1.00002 0.959132
0.994931 0.999926 0.936746
0.994727 0.99918 0.934197
0.99994 1.00152 0.993443
0.99977 0.999676 0.995484
0.999312 0.999219 0.996794
1.00039 1.00137 0.992663
1.00044 1.00161 0.992346
1.00033 1.0016 0.992574
1.00006 1.00062 0.993807
1.00047 1.00157 0.992299
1.00043 1.00126 0.992677
0.999829 0.999743 0.995172
0.998907 0.999572 0.99697
1.00011 1.00054 0.994084
1.00044 1.00145 0.992433
1.00042 1.00145 0.992509
1.00019 1.00148 0.992861
1.0002 1.00145 0.992896
1.0003 1.00145 0.992649
1.00002 1.00176 0.992881
1.00013 1.00144 0.993036
1.00007 1.00175 0.992848
0.999908 1.00141 0.993405
1.00003 1.00231 0.992232
1 1.0026 0.99213
0.99974 1.00403 0.991015
1.00042 1.005 0.988992
0.999802 1.00395 0.991311
0.999619 1.00473 0.990498
0.999741 1.00307 0.992059
0.99989 1.0021 0.99262
0.999842 1.00246 0.992541
0.999984 1.00165 0.993076
1.00016 1.00071 0.993672
1.00008 1.00138 0.993196
1.00021 1.00063 0.993683
1.00021 0.999593 0.994676
1.00025 1.00063 0.993615
1.00025 0.999558 0.994641
1.00004 0.997778 0.997223
1.00026 0.999575 0.994601
1.0001 0.997723 0.996952
1 0.996493 0.99828
1.00015 0.997666 0.996676
1.00003 0.996432 0.998761
1.00002 0.99642 0.999263
1.00019 1.00085 0.993543
1.00019 0.99945 0.994871
1.00015 1.00076 0.993701
1.00015 0.997431 0.996921
1.00017 0.999378 0.994964
1.00012 1.0007 0.993776
1.00003 0.996251 0.999323
1.00015 0.997406 0.99694
1.00016 0.999344 0.995013
1.00015 0.997438 0.996915
1.00002 0.996277 0.999318
1 0.996351 0.999305
0.994834 0.998385 0.932635
0.999942 0.9953 0.935737
0.995174 1.003 0.940809
0.995224 0.999146 0.923367
0.998218 0.996727 0.977672
1.00411 0.996365 0.990474
1.00084 0.995552 0.958431
0.999885 0.99718 0.938524
0.9946 0.998142 0.910968
0.998605 0.997548 0.983408
1.0003 0.996973 0.953259
0.998014 0.999082 0.935893
0.994689 0.999848 0.922041
0.995043 1.0008 0.980275
0.998439 0.999916 0.953265
0.995792 0.999845 0.93378
0.994655 0.999501 0.92962
1.00014 1.00251 0.991957
1.0001 1.00223 0.99231
1.00005 1.0016 0.993013
1.00002 1.00211 0.992573
1.00025 1.00216 0.992039
1.00018 1.00204 0.992396
1.00015 1.00191 0.992499
1.00026 1.00162 0.992678
1.00019 1.00164 0.99276
1.00013 1.00156 0.992846
1.00364 0.997883 0.990001
1.00424 0.995742 0.990316
1.00165 1.00024 0.990851
1.00087 1.00373 0.989302
1.00002 1.00482 0.990087
0.999947 1.00344 0.991312
1.00006 1.00284 0.991719
1.00005 1.00281 0.991772
1.00062 1.00031 0.993219
1.00006 1.0032 0.991385
1 1.00385 0.990928
1.00158 0.998785 0.993057
1.00019 1.0039 0.99041
0.998861 0.998372 0.995848
0.99903 0.999708 0.997428
0.999882 1.00294 0.991596
1.00016 1.00277 0.991611
1.00014 1.00355 0.990842
0.994367 1.00119 0.955435
0.994792 0.999633 0.935138
0.999937 0.99568 0.934406
0.999041 1.00336 0.993036
0.998405 1.00453 0.992404
1.00128 0.998981 0.994156
0.995044 0.999104 0.931657
0.997858 0.999265 0.95448
0.99489 0.998803 0.976402
0.996466 0.999524 1.00117
0.995987 0.99979 0.939938
0.995278 1.00303 0.940517
0.99461 0.999743 0.936739
0.998188 1.00208 0.996115
0.99479 1.00106 0.952576
0.994307 1.00294 0.954484
0.996659 1.00277 0.99834
0.994947 1.00012 0.985116
0.996469 1.00001 0.953866
0.994681 0.999315 0.935944
0.995022 0.999958 0.939866
0.997038 1.00237 0.998131
0.993928 1.00154 0.97223
0.994333 1.0018 0.957476
0.994685 0.999511 0.929756
0.994992 1.00165 0.995399
0.996213 0.999232 0.961155
0.994736 0.999984 0.940018
0.999914 0.999601 0.995564
0.999344 0.999328 0.996618
0.998347 0.999668 0.998176
1.00046 1.00158 0.992299
1.00041 1.00131 0.992643
0.999796 0.999515 0.995409
1.00041 1.00146 0.992449
1.00009 1.00047 0.994075
0.999087 0.999456 0.996828
0.998529 0.999691 0.997474
0.999949 1.00125 0.993563
1.00029 1.00147 0.992677
1.00001 1.0018 0.992868
1.00015 1.00146 0.993025
0.999973 1.00139 0.993363
1.00008 1.00167 0.99289
0.999549 1.00229 0.993222
0.999768 1.00246 0.992571
1.00007 1.00383 0.990495
1.00004 1.00248 0.992243
0.999954 1.00398 0.990899
1.00048 1.00483 0.988631
1.00045 1.00501 0.988722
0.999901 1.00436 0.990555
1.00033 1.00491 0.989073
0.999924 1.00281 0.992047
0.99978 1.004 0.991186
0.999583 1.00473 0.99064
0.999769 1.00308 0.992176
0.999908 1.00207 0.992709
1.00012 1.00093 0.993515
0.999996 1.00167 0.993064
1.00017 1.00072 0.993664
1.00016 0.999663 0.994696
1.00022 1.00063 0.993682
1.00022 0.999579 0.994678
0.999971 0.997864 0.997247
1.00026 0.999544 0.994643
1.00005 0.997777 0.996984
0.999938 0.996588 0.998302
1.00011 0.997701 0.996704
0.999984 0.996504 0.998771
0.999993 0.996471 0.999266
1.00025 1.00094 0.99319
1.0002 0.999586 0.994545
1.00019 1.00085 0.993542
1.00014 0.997512 0.996861
1.00019 0.999459 0.994774
1.00013 1.00076 0.99357
1.00002 0.996287 0.999317
1.00015 0.99743 0.996924
1.00017 0.999374 0.994967
1.00003 0.996251 0.999323
1.00015 0.997406 0.996941
1.00002 0.996288 0.999315
0.994485 1.00083 0.954007
0.994855 0.998385 0.933839
0.999908 0.99546 0.936528
1.00031 1.00158 0.992555
0.994266 1.00253 0.956899
0.995204 1.00303 0.94033
0.995243 0.999313 0.925077
0.998816 0.997777 0.981873
0.999329 0.998291 0.959801
0.998339 0.999055 0.930765
0.994674 0.999858 0.922855
0.995509 0.999788 0.9764
0.997193 0.999659 0.958658
0.997435 0.999891 0.936568
0.994669 0.99962 0.9299
0.995265 0.999696 0.972517
0.995421 1.00072 0.957601
0.99479 0.999932 0.940001
0.994694 0.999096 0.934267
1.00024 1.0025 0.991765
1.00013 1.00254 0.991929
1.0001 1.00221 0.992383
1.00027 1.00204 0.99215
1.00025 1.00215 0.992118
1.00017 1.00202 0.992434
1.00027 1.00164 0.992686
1.00021 1.00163 0.992825
1.00091 0.999906 0.993451
1.00159 0.99891 0.992685
1.00006 1.0028 0.991793
1.00058 1.00367 0.990312
1.00007 1.00388 0.990877
1.00003 1.0033 0.991406
1.00016 1.00281 0.991624
0.998853 0.99906 0.996221
1.00013 1.00338 0.991069
1.00019 1.00268 0.99163
0.999122 0.999064 0.997418
1.00019 1.0025 0.991874
0.99741 0.999364 0.996761
0.997687 1.00048 0.999424
1.00008 1.00243 0.991869
1.00014 1.00262 0.991853
0.993808 1.00176 0.975456
0.994345 1.00166 0.956023
0.994791 1.00006 0.934271
0.998124 1.00196 0.996321
0.996737 1.00287 0.998089
0.994841 1.00068 0.954839
0.995565 1.00007 0.960233
0.994878 0.999193 0.981206
0.995199 0.999954 0.939205
0.994323 1.00304 0.954285
0.99464 0.999421 0.937686
0.99717 1.00232 0.997944
0.993879 1.00164 0.97221
0.994249 1.00189 0.961421
0.995249 1.00276 0.998241
0.9947 0.999591 0.929933
0.995395 0.99922 0.958006
0.995053 0.999955 0.94123
0.996637 1.00273 0.998565
0.993853 1.00058 0.977954
0.994278 1.00253 0.957048
0.994734 0.999805 0.925364
0.995367 0.999931 0.939213
0.995608 0.998882 0.99105
0.996537 1.00024 0.952081
0.999326 0.999411 0.996435
0.998217 1.00027 0.997893
0.996604 0.999809 1.00158
1.00038 1.00148 0.992465
1.00008 1.00038 0.994065
0.999248 0.999315 0.996676
0.999959 1.00126 0.993513
0.998664 0.999364 0.997576
0.99828 1.00283 0.994805
1.00004 1.00137 0.993321
1.00007 1.0016 0.992933
0.999721 1.00235 0.993093
0.999298 1.00443 0.991274
0.999491 1.00259 0.992908
0.99987 1.00378 0.990826
1.00066 1.00495 0.988535
1.00175 1.00468 0.986768
1.00017 1.00394 0.990781
1.00063 1.00485 0.988471
1.00088 1.00458 0.988864
0.999872 1.00474 0.989826
1.00049 1.00486 0.988879
0.999904 1.00351 0.991385
0.999942 1.00436 0.990546
1.00024 1.00483 0.989155
1.00008 1.0014 0.993134
0.999907 1.00279 0.992019
0.999758 1.00405 0.991062
0.999925 1.00204 0.992799
1.00013 1.00095 0.993501
1.0001 0.999811 0.994671
1.00017 1.00074 0.993657
1.00017 0.999655 0.994696
0.999915 0.998001 0.996772
1.00023 0.999564 0.99468
0.999995 0.997865 0.996766
0.999809 0.996708 0.999288
1.00007 0.997758 0.996739
0.999922 0.996596 0.998785
0.999946 0.996544 0.999272
1.00029 1.00096 0.993098
1.00022 0.999739 0.994336
1.00025 1.00094 0.993267
1.00012 0.997642 0.996768
1.0002 0.999593 0.994519
1.0002 1.00085 0.993542
0.999996 0.996377 0.999301
1.00014 0.99751 0.996865
1.00018 0.999469 0.994677
1.00002 0.996277 0.99932
1.00015 0.997429 0.996927
1.00003 0.99625 0.999323
0.993791 1.00103 0.972942
0.994466 1.00157 0.953804
0.994875 0.998862 0.933941
1.00029 1.00159 0.992596
1.00028 1.00155 0.9926
1.00027 1.00192 0.992337
0.994326 1.00145 0.957624
0.994306 1.00244 0.956713
0.995209 1.00333 0.939855
0.995044 1.00034 0.978815
0.997876 1.00005 0.952682
0.99518 0.999902 0.94079
0.99468 0.999745 0.928084
0.995579 0.999402 0.975372
0.996432 1.00005 0.956583
0.995042 0.99997 0.941391
0.99466 0.999224 0.936003
0.994885 0.99951 0.972085
0.995849 1.00006 0.959054
0.994712 1.00002 0.940281
0.994617 0.999682 0.934337
1.00031 1.00224 0.991894
1.00024 1.0025 0.991748
1.00013 1.00256 0.9919
1.00028 1.00205 0.992136
1.00026 1.00213 0.992197
1.00028 1.00164 0.992693
0.998848 0.999474 0.996583
0.998986 0.998563 0.997415
1.00017 1.00286 0.991638
1.00048 1.00231 0.991666
1.00007 1.00332 0.991296
1.00026 1.00244 0.991783
1.00007 1.00265 0.991964
0.997437 0.99925 0.997109
0.999981 1.00244 0.992372
0.997505 1.00029 0.999549
1.0001 1.00221 0.992391
0.99584 0.998887 0.997911
0.997464 1.00187 0.9986
0.999662 1.00179 0.993715
0.993805 1.00155 0.982335
0.99371 1.0016 0.977151
0.994314 1.00204 0.956574
0.997418 1.0023 0.997745
0.995961 1.00257 0.996127
0.993838 1.00171 0.972187
0.995282 0.99927 0.963294
0.994751 0.99997 0.93809
0.994181 1.00197 0.965363
0.994709 0.999698 0.928296
0.996326 1.00324 0.998788
0.993803 1.00048 0.979376
0.994318 1.00241 0.956861
0.995061 0.99915 0.986494
0.994712 0.999804 0.92242
0.995246 0.999946 0.940305
0.995574 1.00029 0.958587
0.995277 1.00181 1.00081
0.993765 1.00078 0.973354
0.995071 1.00297 0.9413
0.99461 0.998179 0.923047
0.995761 0.999259 0.933797
0.995882 1.00004 0.958419
0.995831 0.999208 0.9816
0.998071 1.00101 0.997669
0.996871 0.999409 1.00143
0.99677 1.00155 0.999268
0.999965 1.00129 0.993464
0.99882 0.999067 0.997665
0.998061 1.00296 0.995114
0.998872 1.0037 0.993365
0.999905 1.00241 0.992965
0.999845 1.00435 0.990933
1.00068 1.00505 0.988383
0.999669 1.00373 0.99116
1.00074 1.00489 0.988452
1.00225 1.00478 0.986145
1.0034 1.00331 0.985236
1.00128 1.00448 0.987572
1.00174 1.00481 0.986677
1.00078 1.00488 0.988311
1.00063 1.0043 0.989498
1.00067 1.00441 0.98918
0.999898 1.00436 0.990413
0.999958 1.00477 0.989937
1.00052 1.00472 0.989037
1.00003 1.00217 0.99245
0.999961 1.00341 0.991391
0.999973 1.00435 0.990536
1.00002 1.0001 0.994509
1.00009 1.0014 0.993119
0.999891 1.00277 0.991991
1.00014 1.00096 0.993488
1.0001 0.999814 0.994668
0.999823 0.998185 0.996753
1.00018 0.999648 0.994695
0.999919 0.997999 0.996772
0.999741 0.996872 0.99928
1 0.997856 0.996764
0.999839 0.996732 0.998796
0.999883 0.996639 0.999278
1.00032 1.00098 0.993124
1.00025 0.999855 0.994333
1.00029 1.00097 0.993133
1.00009 0.997806 0.996659
1.00023 0.999742 0.994405
1.00026 1.00094 0.993344
0.999956 0.996509 0.999278
1.00012 0.997637 0.996774
1.00021 0.9996 0.994493
1 0.996356 0.999306
1.00014 0.997508 0.99687
1.00003 0.996267 0.999322
0.993882 1.00026 0.978081
0.993862 1.00074 0.97293
0.994451 1.0018 0.953677
1.00022 1.00165 0.992582
1.0001 1.00226 0.992305
1.00027 1.00161 0.992637
1.00027 1.00157 0.992605
1.00025 1.00193 0.992313
1.00019 1.0019 0.992466
1.00027 1.00201 0.992226
0.994294 1.00228 0.954875
0.994242 1.00161 0.961599
0.994344 1.00223 0.956532
0.994639 0.99934 0.937738
0.994837 0.999853 0.972841
0.995295 1.00006 0.956528
0.994791 0.999965 0.942686
0.995377 0.999612 0.971477
0.995242 1.00007 0.95469
0.994861 0.999969 0.942565
0.994623 0.999641 0.93655
0.99605 0.997698 0.975546
0.995148 1.00008 0.954028
0.995158 0.99994 0.937305
0.994692 0.999843 0.926521
1.00008 1.00213 0.992468
1.0003 1.00221 0.991914
1.00024 1.00249 0.991732
1.00029 1.00205 0.992123
0.997576 0.999365 0.997426
0.997495 1.00009 0.999662
1.00029 1.00241 0.991693
1.00007 1.00257 0.992074
0.999906 1.00248 0.992879
1.00008 1.00221 0.992335
0.999541 1.00182 0.993667
0.99575 0.999698 0.995695
0.996988 1.00238 0.998866
0.999386 1.00205 0.993626
0.995564 0.999489 0.994962
0.997907 1.00247 0.997758
0.99375 1.00122 0.976259
0.993686 1.00089 0.984159
0.993631 1.00148 0.978846
0.996169 1.00355 0.99895
0.995368 0.998442 0.991953
0.993747 1.00039 0.980808
0.996781 1.00027 0.952677
0.995067 0.999918 0.941679
0.994358 1.00222 0.956673
0.994689 0.999853 0.923178
0.995509 1.00098 1.00108
0.993834 1.00059 0.97334
0.995165 1.00292 0.940813
0.994867 0.999318 0.98487
0.994586 0.998149 0.917345
0.997578 0.999858 0.936129
0.99532 1.00005 0.95461
0.995681 1.00193 0.997482
0.994511 1.00044 0.954674
0.995189 0.998866 0.92597
0.998231 0.998005 0.936454
0.995541 1.0005 0.958814
0.994898 0.99914 0.976079
0.997269 0.998784 1.00121
0.996692 1.00226 0.999212
0.998993 0.998911 0.998584
0.997887 1.00313 0.995425
0.998231 1.00371 0.993688
1.00151 1.00189 0.990047
1.00039 1.00426 0.990589
1.00091 1.00503 0.988257
1.00247 1.00307 0.986551
1.00082 1.00484 0.98837
1.00227 1.00484 0.985966
1.00381 1.00209 0.98529
1.00469 1.00027 0.985661
1.00297 1.0044 0.985368
1.00345 1.00333 0.98503
1.00104 1.00408 0.988395
1.00128 1.00444 0.987793
1.00174 1.00496 0.986587
1.00046 1.00444 0.989508
1.00055 1.00434 0.989478
1.00046 1.00426 0.989496
1.00006 1.00303 0.991496
0.999923 1.00425 0.990543
1.00006 1.00479 0.99005
0.999962 1.00065 0.994052
1.00006 1.00212 0.992446
1.00002 1.00331 0.991397
0.999736 0.998406 0.996695
1.00002 1.00012 0.994499
1.0001 1.00141 0.993105
1.0001 0.999816 0.994665
0.999829 0.998189 0.996751
0.999643 0.99706 0.999274
0.999924 0.997999 0.996772
0.999729 0.996903 0.999278
0.999807 0.996769 0.99928
1.00021 1.00177 0.992549
1.00034 1.00102 0.993058
1.00026 0.999976 0.994198
1.00033 1.00098 0.993118
1.00004 0.997993 0.996547
1.00025 0.999874 0.994329
1.00028 1.00099 0.993168
0.999905 0.996671 0.999252
1.00008 0.997801 0.996666
1.00023 0.999746 0.994475
0.999962 0.99648 0.999285
1.00011 0.997633 0.99678
1 0.996334 0.999312
0.993913 1.00068 0.972926
0.993811 1.00019 0.979493
0.99393 1.00056 0.972914
1.00025 1.00162 0.992608
1.00008 1.00228 0.992262
1.00004 1.00263 0.991963
1.00009 1.00213 0.992323
1.00007 1.00265 0.992002
1.00026 1.00157 0.99261
1.00023 1.00194 0.992289
1.00018 1.00191 0.992463
1.00027 1.00202 0.992224
1.00008 1.00214 0.992494
0.994884 1.00267 0.941209
0.994319 1.00241 0.9547
0.994152 1.00176 0.965569
0.994632 0.999595 0.936708
0.994719 1 0.9387
0.994868 0.999572 0.970223
0.995045 1.00006 0.958514
0.995559 0.997832 0.971879
0.995763 1.00006 0.958603
0.994878 0.999937 0.940857
0.994896 0.999826 0.924403
0.996109 0.995596 0.976354
0.995336 1.00007 0.959309
0.995759 0.999883 0.940088
0.995049 0.998156 0.922113
0.999395 1.00153 0.994174
1.00004 1.00221 0.992484
1.0003 1.0022 0.991934
0.995593 1.00034 0.9935
0.996789 1.00273 0.999114
1.00008 1.00222 0.992279
0.9994 1.00197 0.993619
0.999373 1.0021 0.993641
0.997692 1.00199 0.997639
0.995277 0.999543 0.995165
0.997946 1.00172 0.996701
0.995885 1.00117 0.994353
0.99443 1.00112 0.955304
0.993658 1.00104 0.977921
0.993548 1.00019 0.985984
0.995518 1.00034 1.00141
0.995266 0.99914 0.979247
0.993899 1.00047 0.97332
0.996817 1.00006 0.955567
0.995159 0.999892 0.940277
0.995198 1.00315 0.940343
0.994574 0.998132 0.911658
0.995754 1.00171 0.997756
0.994488 1.00119 0.954457
0.995167 0.999102 0.924079
0.994982 0.999043 0.977512
0.998184 0.998752 0.936664
0.996261 1.00004 0.955665
0.997084 0.999221 0.994592
0.994874 0.998256 0.93335
0.998411 0.996866 0.93848
0.99833 0.999236 0.953727
0.994864 0.999141 0.97756
0.996638 1.00276 0.999141
0.998834 0.998857 0.998607
1.00252 0.997867 0.993337
0.997694 1.00366 0.993992
1.00091 1.00215 0.990507
1.00325 0.999076 0.988663
1.00115 1.00498 0.988129
1.00252 1.00315 0.986608
1.00429 0.99969 0.98672
1.00229 1.00497 0.985788
1.00382 1.00217 0.985331
1.00503 0.998857 0.986341
1.00506 0.998694 0.986519
1.00402 1.00227 0.985025
1.00464 1.0003 0.985691
1.00232 1.00427 0.986343
1.00278 1.00439 0.985236
1.00347 1.00336 0.984824
1.00104 1.00383 0.988974
1.00099 1.00401 0.988659
1.00129 1.00442 0.988014
1.00041 1.00338 0.99053
1.00039 1.00438 0.989604
1.00046 1.00437 0.989458
0.999957 1.00151 0.993197
1.00011 1.00299 0.9915
0.999946 1.00415 0.990671
0.999637 0.998749 0.997006
0.999961 1.00068 0.994034
1.00009 1.00208 0.992442
0.999558 0.997317 0.998254
0.999736 0.998442 0.996918
1.00001 1.00015 0.994488
0.999835 0.998194 0.996749
0.999631 0.997103 0.99927
0.999717 0.996936 0.999277
1.00016 1.00212 0.992235
1.00032 1.0012 0.99293
1.00019 1.00182 0.992514
1.00024 1.00011 0.994116
1.00032 1.00105 0.993058
0.999988 0.99818 0.996454
1.00025 0.999997 0.994196
1.00033 1.00099 0.993112
0.999844 0.996856 0.999225
1.00004 0.99799 0.996553
1.00024 0.999895 0.994326
0.999911 0.996639 0.99926
1.00008 0.997798 0.996673
0.999968 0.996452 0.999292
0.994807 1.00035 0.956127
0.993869 1.00078 0.972922
0.993735 1.00016 0.980914
1.00004 1.0028 0.991858
1.00025 1.00164 0.992634
1.00008 1.00231 0.992218
1.00011 1.00215 0.992356
1.00008 1.00257 0.992007
1.00005 1.00266 0.99196
1.00005 1.00297 0.991669
0.999962 1.00264 0.991983
1.00018 1.0019 0.99246
1.00025 1.00202 0.992222
1.00005 1.00218 0.992451
0.999716 1.00258 0.993009
0.994973 0.999502 0.92426
0.995073 1.00278 0.940664
0.994328 1.00255 0.95453
0.995092 0.999818 0.926143
0.995193 0.999932 0.940677
0.995147 1.00008 0.954191
0.996078 0.997941 0.970102
0.996296 0.995322 0.97819
0.994799 0.99815 0.916682
0.995533 1.00005 0.955755
0.997353 0.999883 0.935406
0.995595 0.997425 0.979056
0.995827 1.00003 0.960666
0.998454 0.998676 0.934485
0.999194 1.00056 0.995518
0.999552 1.00147 0.994152
0.999996 1.00229 0.9925
0.994906 0.99953 0.995323
0.997706 1.00126 0.997516
0.999391 1.00208 0.993654
0.998652 1.00148 0.996512
0.995681 1.00129 0.994546
0.997773 1.00085 0.994456
0.994809 0.999789 0.930372
0.994355 1.00077 0.959339
0.993595 1.00087 0.979586
0.995734 1.00201 0.998069
0.994904 0.999021 0.978444
0.994469 1.00157 0.9543
0.995282 1.00008 0.955812
0.998328 0.998093 0.931806
0.99523 0.999159 0.925719
0.997142 0.999334 0.994657
0.994891 0.998234 0.934518
0.999397 0.996245 0.934363
0.995012 0.99923 0.973514
0.997456 0.999062 0.958995
0.998591 0.99866 0.995173
0.999914 0.995351 0.933863
0.998611 0.998032 0.959719
0.995269 0.99923 0.972353
0.998561 0.998897 0.998675
1.00192 0.997549 0.994073
1.00377 0.997063 0.991146
1.0003 1.00244 0.990968
1.00318 0.999543 0.988588
1.00471 0.996783 0.988704
1.00257 1.00329 0.986665
1.00422 0.999859 0.986734
1.00495 0.997565 0.98782
1.00384 1.0022 0.985369
1.00505 0.998818 0.986332
1.00511 0.997585 0.987548
1.00513 0.998102 0.987035
1.00492 0.999832 0.985892
1.00506 0.998686 0.986537
1.00338 1.00269 0.985511
1.00399 1.00218 0.985162
1.00458 1.00034 0.98572
1.00176 1.00362 0.987843
1.00211 1.00424 0.986441
1.00259 1.00436 0.985104
1.00097 1.00311 0.989816
1.0011 1.0038 0.988945
1.00094 1.00391 0.988923
1.00013 1.00225 0.992175
1.00045 1.00336 0.990539
1.00031 1.00431 0.9897
0.999598 0.999199 0.996108
0.999995 1.00147 0.993179
1.00016 1.00294 0.991504
0.999422 0.997586 0.999236
0.999648 0.998803 0.99647
0.999963 1.00069 0.994015
0.999536 0.997316 0.999254
0.999742 0.998458 0.996663
0.99962 0.997147 0.999266
1.00016 1.00241 0.992038
1.00018 1.00212 0.992227
1.00027 1.0015 0.992692
1.00018 1.00028 0.99405
1.00029 1.00121 0.992935
1.00019 1.00183 0.992479
0.999927 0.99835 0.9964
1.00023 1.00011 0.994116
1.00031 1.00106 0.993057
0.999776 0.997039 0.999202
0.999987 0.998177 0.996458
1.00025 1.00001 0.994193
0.999851 0.996822 0.999233
1.00004 0.997987 0.996559
0.999918 0.996605 0.999268
0.994899 0.99943 0.92729
0.994743 1.0004 0.955937
0.993826 1.00086 0.972914
0.999984 1.00289 0.991814
1.00018 1.0032 0.991375
0.999962 1.00321 0.99156
1.00013 1.00215 0.992389
1.00012 1.00251 0.99205
0.999993 1.00269 0.991918
1.00002 1.00264 0.991956
1.00002 1.003 0.991636
0.999894 1.00362 0.991359
1.00017 1.00165 0.992696
1.00008 1.00215 0.992408
0.999709 1.00238 0.992957
0.999741 0.996865 0.932567
0.994954 0.999538 0.921333
0.995274 1.00289 0.940149
0.994635 0.998143 0.911258
0.996105 0.999411 0.939447
0.995914 1.00001 0.957239
0.996014 0.995113 0.975801
0.995299 0.997563 0.977277
0.997918 0.998728 0.936035
0.996379 1 0.955761
0.995811 0.997892 0.978648
0.997969 0.999202 0.953948
1.00152 0.999517 0.992982
0.999404 1.00046 0.995323
0.99966 1.00139 0.99414
0.995214 1.00171 0.994714
0.999113 1.00131 0.996322
0.998127 1.00115 0.993865
1.00107 0.999196 0.989916
0.999959 0.994874 0.936551
0.994825 0.999989 0.932415
0.994288 1.00051 0.963324
0.99723 0.99929 0.994787
0.994861 0.999224 0.973224
0.994905 0.998599 0.934625
0.997434 0.998907 0.953421
0.999918 0.997535 0.939324
0.998496 0.998919 0.993587
0.999944 0.995304 0.936197
1.00057 0.996721 0.953505
0.99531 0.998912 0.975115
0.999359 0.997181 0.99477
1.00036 0.996393 0.957559
0.995781 1.00049 0.977897
1.00129 0.997185 0.994798
1.00364 0.996676 0.991116
1.005 0.995342 0.990113
1.0031 0.999967 0.988513
1.00461 0.996785 0.9887
1.00487 0.995936 0.989413
1.00412 0.999946 0.986749
1.0049 0.99755 0.98778
1.00509 0.996221 0.988844
1.00507 0.998782 0.986324
1.0051 0.997532 0.987568
1.00513 0.996816 0.988244
1.00514 0.997617 0.987578
1.00512 0.998025 0.987118
1.0051 0.99868 0.986631
1.00457 1.00056 0.985903
1.00493 0.999703 0.985925
1.00507 0.998681 0.986554
1.00284 1.00274 0.986499
1.00338 1.00279 0.98562
1.00397 1.00206 0.985299
1.00148 1.00294 0.989028
1.0018 1.00361 0.987809
1.00191 1.00425 0.986537
1.00044 1.00242 0.991409
1.00102 1.00308 0.989809
1.00115 1.00377 0.988916
0.999618 0.999808 0.995438
1.00018 1.00216 0.992172
1.00051 1.00332 0.990548
0.999401 0.997861 0.999155
0.999595 0.999278 0.996071
1.00003 1.00143 0.993161
0.999452 0.997621 0.998704
0.999655 0.998826 0.996455
0.999528 0.997397 0.99924
1.00022 1.00273 0.991595
1.00011 1.00248 0.992018
1.00018 1.00196 0.992387
1.00021 1.00213 0.992218
1.00025 1.00152 0.992695
1.0001 1.00055 0.993905
0.999852 0.998527 0.996369
1.00017 1.00027 0.994055
1.00026 1.00124 0.992939
0.999699 0.99721 0.999188
0.999924 0.998347 0.996402
1.00023 1.00012 0.994116
0.999783 0.997011 0.999209
0.999984 0.998176 0.996462
0.999857 0.996786 0.999241
0.99992 0.995126 0.937693
0.994934 0.999798 0.9273
0.994659 1.00045 0.955735
0.999931 1.003 0.991769
0.999932 1.00337 0.991433
1.00007 1.00317 0.991495
1.00057 1.00332 0.990519
0.999907 1.00383 0.991103
1.00005 1.00267 0.991929
1.00001 1.00302 0.991602
0.999851 1.00347 0.991418
0.999861 1.0038 0.990581
1.00036 1.00229 0.991744
1.0033 1.00035 0.988406
0.999878 1.00184 0.992979
0.999769 1.00216 0.992904
1.00027 0.99723 0.957034
0.999094 0.996906 0.934532
0.994941 0.999424 0.922134
0.998291 0.999067 0.930654
0.995778 1.00017 0.957248
0.995567 0.997664 0.979731
0.995556 0.997918 0.980651
0.997162 0.999334 0.960416
0.997275 0.999723 0.977239
1.00382 0.997164 0.990587
1.00118 0.999341 0.993001
0.999596 1.00039 0.995121
0.998455 1.00133 0.993313
1.0018 1.00021 0.988577
1.00042 0.995454 0.95467
0.999948 0.9952 0.938936
0.994841 0.999933 0.934506
0.99835 0.999233 0.99198
0.994871 0.999106 0.972546
0.99992 0.995319 0.936895
0.999316 0.998547 0.959651
0.999198 0.998316 0.995031
1.00154 0.995505 0.957483
0.995684 0.999652 0.974783
1.00074 1.00078 0.991851
0.999869 0.997455 0.98239
1.00353 0.996291 0.991097
1.00499 0.995194 0.989885
1.00508 0.994943 0.990142
1.0045 0.99684 0.988693
1.00478 0.995951 0.989394
1.00507 0.995049 0.989926
1.00488 0.997544 0.987739
1.00509 0.996172 0.988832
1.00512 0.995837 0.989256
1.00508 0.997472 0.987588
1.00513 0.996845 0.988214
1.00513 0.996939 0.988312
1.00514 0.997494 0.987629
1.00511 0.998175 0.987133
1.00512 0.997943 0.987201
1.0051 0.998676 0.986629
1.00491 0.999289 0.986438
1.00397 1.0011 0.986185
1.00455 1.0005 0.985882
1.00494 0.999576 0.985957
1.00225 1.00255 0.988039
1.00279 1.00282 0.986595
1.00337 1.0029 0.985729
1.00079 1.00235 0.990794
1.00153 1.00293 0.989004
1.00185 1.0036 0.987775
0.99974 1.00035 0.99466
1.00048 1.00238 0.991415
1.00105 1.00308 0.989803
0.999416 0.998194 0.99902
0.999625 0.999865 0.995408
1.00023 1.00208 0.992171
0.999425 0.997919 0.999118
0.999591 0.999355 0.996033
0.999465 0.997671 0.999188
1.00066 1.00294 0.990608
1.00024 1.00267 0.991591
1.00021 1.00239 0.991844
1.00006 1.00252 0.991997
1.00016 1.00203 0.992318
1.00005 1.00101 0.99352
1.00023 1.00153 0.992697
1.0001 1.00054 0.993913
0.999761 0.998755 0.996311
0.999615 0.997389 0.999177
0.999848 0.998522 0.996371
1.00017 1.00027 0.994059
0.999708 0.99719 0.999192
0.999921 0.998346 0.996405
0.99979 0.996981 0.999215
1.00135 0.995182 0.959521
0.999936 0.995344 0.936303
0.99495 1.00033 0.925859
0.999897 1.00352 0.991307
0.999971 1.00311 0.991616
0.99993 1.00381 0.991151
1.0005 1.00329 0.990575
1.00093 1.00359 0.989482
1.00004 1.00371 0.990675
0.999809 1.00333 0.991477
1.00015 1.0039 0.990255
1.0003 1.0026 0.991476
1.00122 1.0022 0.989632
1.00336 1.00038 0.988887
1.00428 0.998652 0.987677
1.00287 1.00037 0.988838
0.999552 1.00218 0.993264
0.9964 0.9998 0.976335
1.00015 0.996692 0.956498
0.998797 0.997208 0.939387
0.998855 0.999589 0.953799
0.995335 0.998056 0.981991
0.997617 0.999278 0.981569
1.00155 0.998491 0.991619
1.0037 0.997184 0.990899
1.00114 0.999089 0.99302
1.00304 1.0013 0.987199
0.998517 0.996682 0.977928
1.00106 0.995101 0.96106
0.999923 0.995611 0.934678
0.999113 0.999132 0.995238
0.995448 0.999876 0.976899
1.00108 0.995457 0.957379
1.00079 1.00026 0.991995
0.999115 0.997361 0.981154
1.0035 1.00106 0.989239
1.00436 0.995933 0.989836
1.00493 0.995046 0.98965
1.00506 0.994943 0.990084
1.00507 0.995004 0.990186
1.00472 0.995968 0.989378
1.00506 0.995165 0.989884
1.00509 0.995258 0.989861
1.0051 0.996129 0.988819
1.00512 0.995862 0.989224
1.00512 0.996486 0.98882
1.00513 0.996877 0.988184
1.00512 0.996944 0.988232
1.00513 0.997762 0.987416
1.00515 0.997375 0.98768
1.0051 0.99809 0.987209
1.00496 0.998853 0.986783
1.00509 0.998692 0.986626
1.00491 0.999269 0.986432
1.00448 0.999878 0.986707
1.00319 1.00134 0.987279
1.0039 1.00118 0.986263
1.00453 1.00044 0.985861
1.00136 1.00211 0.990032
1.00226 1.00253 0.988038
1.00274 1.00289 0.986691
0.999853 1.00084 0.993957
1.00083 1.00237 0.990785
1.00158 1.00292 0.988979
0.999473 0.998582 0.998819
0.999772 1.00036 0.994648
1.00052 1.00234 0.99142
0.999456 0.99827 0.998956
0.999632 0.999927 0.995377
0.999456 0.997981 0.999076
1.00103 1.00332 0.989564
1.00069 1.00292 0.990647
1.00053 1.00263 0.991122
1.00024 1.00264 0.991587
1.00023 1.00242 0.991763
1.00011 1.00151 0.992905
1.00015 1.0021 0.99225
1.00005 1.001 0.99353
0.99967 0.999081 0.996146
1.00011 1.00052 0.99392
0.999761 0.998733 0.996319
0.999535 0.997592 0.99916
0.999625 0.997366 0.999181
0.999844 0.998515 0.996374
0.999715 0.997168 0.999196
0.997486 0.998351 0.977898
1.00117 0.995675 0.953887
0.999898 0.995139 0.939558
1.00204 1.0028 0.988284
0.999961 1.0038 0.991199
1.00043 1.00328 0.990632
1.00014 1.00378 0.990598
1.00088 1.00371 0.989421
1.00104 1.00231 0.990214
1.00042 1.00399 0.989929
1.00033 1.00284 0.991209
1.00139 1.00213 0.989863
1.00341 1.00038 0.988417
1.00441 0.999135 0.98716
1.00456 0.997167 0.988854
1.00436 0.998743 0.987304
1.00252 1.00031 0.989271
1.0004 0.998987 0.993633
0.996671 0.999661 0.974914
0.999648 0.997135 0.956369
0.997749 0.998441 0.979935
1.00157 0.997375 0.993614
1.00316 0.997276 0.991198
1.00261 0.996159 0.989013
0.997755 0.995987 0.980396
1.00055 0.995188 0.954641
1.00068 0.999935 0.992138
0.999242 0.997353 0.979831
1.00343 0.999135 0.989449
1.00429 0.995817 0.989772
1.00506 0.996105 0.989955
1.00489 0.996254 0.990499
1.00508 0.994961 0.990025
1.00508 0.994981 0.990218
1.00512 0.99515 0.990036
1.00505 0.995265 0.989839
1.00509 0.995312 0.989862
1.00512 0.996057 0.989173
1.00513 0.995888 0.989193
1.00512 0.996474 0.988759
1.00515 0.997555 0.987608
1.00512 0.996951 0.988153
1.00512 0.997775 0.987432
1.00503 0.998593 0.986804
1.00509 0.998001 0.987285
1.00496 0.998777 0.986809
1.00465 0.999349 0.986779
1.00491 0.999241 0.986425
1.00448 0.999835 0.986632
1.00383 1.00036 0.987336
1.00212 1.00137 0.989394
1.00314 1.00142 0.987364
1.00383 1.00127 0.986341
1.00006 1.0011 0.993316
1.00138 1.00212 0.990022
1.00228 1.00251 0.988036
0.999471 0.999035 0.998608
0.999958 1.00073 0.993945
1.00087 1.00238 0.990776
0.999498 0.998667 0.998745
0.999807 1.00035 0.994637
0.999498 0.998337 0.998884
1.00175 1.00314 0.988246
1.00101 1.00331 0.989577
1.00094 1.00282 0.990274
1.00072 1.0029 0.990686
1.00053 1.0026 0.991139
1.00024 1.00196 0.992266
1.00026 1.00246 0.991682
1.00007 1.00159 0.992906
0.999605 0.999543 0.995786
1.00004 1.00101 0.99354
0.999676 0.99903 0.996166
0.99948 0.997809 0.999117
0.999761 0.998714 0.996327
0.999541 0.99756 0.999167
0.999633 0.997346 0.999184
1.00135 0.998347 0.991485
0.99757 0.997897 0.974408
1.00034 0.995685 0.959931
1.00231 1.0015 0.988658
1.00407 1.00041 0.986708
1.00181 1.00276 0.988476
1.00024 1.00386 0.990521
1.00082 1.00384 0.989354
1.00138 1.00219 0.989985
1.0042 0.999468 0.987651
1.00151 1.00209 0.990093
1.00332 1.0004 0.987947
1.00432 0.999184 0.987344
1.00506 0.997885 0.987385
1.00493 0.995959 0.989433
1.00463 0.997299 0.988635
1.00439 0.998897 0.986934
1.00081 0.998878 0.993751
0.996328 1.00025 0.972963
1.00175 0.996335 0.995618
1.00505 0.995549 0.990616
1.0024 0.996694 0.989163
0.998427 0.995908 0.977138
1.00351 0.997452 0.989665
1.00424 0.996041 0.989714
1.00506 0.99555 0.9901
1.00494 0.995789 0.990309
1.00505 0.995115 0.990051
1.00513 0.995403 0.989549
1.00509 0.994947 0.990249
1.00513 0.995077 0.990023
1.00513 0.995955 0.98926
1.0051 0.995371 0.989864
1.00512 0.996149 0.989058
1.00513 0.997226 0.987996
1.00512 0.996459 0.988697
1.00514 0.997568 0.98762
1.00512 0.998488 0.986785
1.00511 0.997787 0.987448
1.00504 0.998593 0.986815
1.00478 0.999222 0.986692
1.00496 0.998704 0.986835
1.00465 0.999329 0.986764
1.00408 0.999891 0.987334
1.00448 0.999788 0.986556
1.00378 1.00035 0.987289
1.00271 1.00057 0.98913
1.00036 1.00093 0.992861
1.00211 1.00139 0.989392
1.0031 1.0015 0.987448
0.999416 0.999561 0.998418
1.00015 1.00101 0.993297
1.00139 1.00215 0.990013
0.999485 0.99915 0.998541
1.00004 1.00067 0.993931
0.999526 0.998755 0.998672
1.003 1.00188 0.986879
1.00175 1.0031 0.988132
1.0016 1.00277 0.989065
1.00098 1.0033 0.98959
1.00088 1.00283 0.990299
1.00046 1.00229 0.991608
1.00053 1.00258 0.991156
1.00019 1.00203 0.992263
0.999651 1.00004 0.995208
1.00004 1.00165 0.992907
0.999619 0.999469 0.995812
0.999465 0.998079 0.999012
0.999681 0.998982 0.996188
0.999476 0.997775 0.999134
0.999548 0.997532 0.999173
1.00507 0.995548 0.989824
1.0015 0.997973 0.99045
0.99725 0.997047 0.975162
1.00454 0.999372 0.98699
1.00198 1.00116 0.989632
1.00495 0.9988 0.986648
1.00418 1.00046 0.986649
1.00156 1.00271 0.988677
1.00508 0.998151 0.987022
1.00172 1.00203 0.989763
1.00437 0.999473 0.98724
1.00512 0.997003 0.988013
1.00429 0.99922 0.98753
1.00501 0.99783 0.987421
1.00489 0.996 0.989538
1.00454 0.997408 0.988407
1.00106 0.998713 0.993901
1.00515 0.995717 0.989169
1.00506 0.995872 0.990615
1.00221 0.996887 0.989291
1.00505 0.994896 0.990253
1.00493 0.99534 0.990121
1.00507 0.995061 0.990179
1.00514 0.995396 0.989589
1.00518 0.995911 0.989144
1.00513 0.99499 0.990012
1.00513 0.99591 0.989267
1.00509 0.997034 0.988285
1.00512 0.99625 0.988942
1.00513 0.997319 0.987888
1.00515 0.998442 0.986798
1.00514 0.997582 0.987632
1.00511 0.998493 0.986794
1.0049 0.999165 0.986541
1.00504 0.998594 0.986827
1.00478 0.999221 0.986696
1.00423 0.999708 0.987232
1.00465 0.999307 0.98675
1.00406 0.999899 0.98734
1.00299 1.00016 0.989035
1.00374 1.00034 0.987243
1.00269 1.00059 0.989126
1.00061 1.00061 0.99385
0.999524 0.999922 0.995989
1.00045 1.00087 0.993409
1.0021 1.00141 0.989391
0.99945 0.999686 0.998347
1.00028 1.00089 0.993277
0.999501 0.999246 0.998468
1.00511 0.998617 0.986779
1.00423 0.999957 0.986686
1.00316 1.00185 0.986773
1.00242 1.00226 0.987973
1.00174 1.00306 0.988018
1.00155 1.00279 0.989092
1.00088 1.0023 0.990825
1.00083 1.00283 0.990323
1.0004 1.0023 0.991621
0.999805 1.00052 0.994491
1.00014 1.00211 0.992262
0.999638 1.00001 0.995223
0.999459 0.998454 0.998831
0.999632 0.999391 0.995836
0.999446 0.998025 0.999052
0.999474 0.99774 0.999149
1.00516 0.996254 0.988673
1.00511 0.995603 0.990229
1.00177 0.997675 0.989415
1.00514 0.99832 0.986803
1.00436 0.999437 0.987278
1.00166 1.00083 0.990586
1.00498 0.998914 0.986646
1.00428 1.00052 0.986591
1.0051 0.997232 0.988162
1.00507 0.998148 0.986978
1.00454 0.9995 0.986826
1.00512 0.996994 0.988017
1.00501 0.997791 0.987455
1.0049 0.996029 0.98966
1.00516 0.996168 0.989081
1.00516 0.995711 0.98923
1.00507 0.996198 0.990618
1.0051 0.995011 0.990305
1.00515 0.995413 0.989629
1.00517 0.995797 0.98927
1.00514 0.997084 0.988192
1.00514 0.995876 0.989274
1.00509 0.997051 0.988256
1.00515 0.998325 0.986921
1.00514 0.99741 0.98778
1.00514 0.998442 0.986812
1.005 0.999186 0.986359
1.00511 0.998498 0.986804
1.00489 0.999165 0.986547
1.00436 0.999655 0.987036
1.00478 0.999221 0.9867
1.00423 0.999711 0.987233
1.00313 1.00002 0.988905
1.00405 0.999907 0.987345
1.00299 1.00015 0.989029
1.00079 1.00024 0.993928
1.00268 1.00061 0.989123
1.00074 1.00054 0.993805
0.999582 1.00013 0.995891
0.999443 1.0001 0.997073
1.0006 1.0008 0.993875
0.99948 0.999802 0.998274
1.00515 0.998464 0.986755
1.00479 0.999105 0.986933
1.00509 0.998528 0.986783
1.00338 1.00099 0.987408
1.0043 0.999991 0.986652
1.00333 1.00182 0.986667
1.00242 1.00228 0.987966
1.00153 1.00197 0.98993
1.00149 1.00281 0.989118
1.00084 1.00228 0.990843
1 1.0009 0.993779
1.00035 1.00231 0.991634
0.999735 1.00057 0.994502
0.999404 0.999005 0.998609
0.999624 0.999983 0.995238
0.99944 0.998377 0.998898
0.999436 0.997977 0.999088
1.00512 0.996648 0.98857
1.00515 0.996248 0.988676
1.00512 0.995653 0.990609
1.00513 0.997785 0.987469
1.00514 0.99833 0.986826
1.00418 0.999495 0.987572
1.005 0.999024 0.986644
1.0051 0.997234 0.988043
1.00507 0.998147 0.986933
1.0051 0.996998 0.988022
1.00513 0.996935 0.988357
1.00515 0.996221 0.988989
1.00518 0.99569 0.98929
1.00512 0.997449 0.987789
1.00516 0.995678 0.989396
1.00514 0.997094 0.988181
1.00514 0.998103 0.987253
1.00509 0.997068 0.988228
1.00514 0.998322 0.98693
1.00509 0.999153 0.986223
1.00512 0.998445 0.986826
1.00497 0.999186 0.986372
1.0045 0.999695 0.986745
1.00488 0.999164 0.986554
1.00436 0.999653 0.987038
1.00325 0.999983 0.988724
1.00422 0.999713 0.987233
1.00314 1 0.988901
1.00092 1.00003 0.993951
1.00299 1.00015 0.989023
1.00089 1.00019 0.993881
0.999625 1.00004 0.995958
1.00087 1.00045 0.993768
0.999405 1.0003 0.995989
0.999216 1.00029 0.998349
1.00515 0.998422 0.986757
1.00493 0.998931 0.986724
1.00516 0.998458 0.986741
1.00405 0.999903 0.98758
1.00476 0.998998 0.986897
1.00508 0.998439 0.986787
1.00233 1.00113 0.98922
1.00342 1.001 0.98738
1.00437 1.00002 0.986618
1.00242 1.0023 0.98796
1.00152 1.00193 0.989945
1.00024 1.00108 0.993165
1.0008 1.00226 0.990862
0.999892 1.001 0.993799
0.999323 0.999662 0.998404
0.999669 1.00063 0.994513
0.999402 0.998883 0.998692
0.999427 0.998292 0.998959
1.00513 0.997328 0.987871
1.00512 0.996574 0.988599
1.00516 0.996245 0.988679
1.00513 0.997762 0.987488
1.00514 0.998343 0.986849
1.0051 0.997235 0.987924
1.00511 0.997501 0.987845
1.00513 0.997002 0.988306
1.00514 0.996271 0.988897
1.00513 0.997432 0.987859
1.00513 0.998106 0.987201
1.00513 0.997106 0.98817
1.00514 0.998177 0.987113
1.00512 0.998933 0.986398
1.00514 0.998314 0.986939
1.00506 0.999153 0.986238
1.00467 0.999693 0.986423
1.00495 0.999182 0.986386
1.0045 0.999691 0.986748
1.00337 1 0.988465
1.00436 0.999651 0.987039
1.00326 0.999969 0.988723
1.001 0.999991 0.993837
1.00315 0.999985 0.988896
1.001 0.999999 0.993885
0.999698 0.999954 0.995946
1.00099 1.00014 0.993843
0.999459 1.00013 0.996066
0.999232 1.00052 0.996072
1.00515 0.998063 0.987223
1.00505 0.998892 0.986462
1.00516 0.998339 0.986836
1.00436 0.999467 0.987342
1.00494 0.998963 0.986735
1.00518 0.998453 0.986727
1.00294 1.00025 0.98896
1.00406 0.999816 0.987442
1.00473 0.998896 0.986861
1.00053 1.00086 0.992771
1.00235 1.00112 0.989221
1.00346 1.00102 0.987352
1.0015 1.00191 0.98996
1.00012 1.00118 0.993189
0.999323 1.00024 0.998237
0.999784 1.00111 0.993816
0.999317 0.999519 0.998479
0.9994 0.998753 0.998766
1.00511 0.997622 0.987656
1.00512 0.997306 0.987902
1.00512 0.996501 0.988627
1.00512 0.99774 0.987508
1.00512 0.998145 0.987182
1.00511 0.997506 0.98786
1.00512 0.997069 0.988254
1.00513 0.997419 0.987929
1.00513 0.998058 0.987244
1.00511 0.998829 0.986601
1.00515 0.998251 0.986973
1.00511 0.999019 0.986325
1.00479 0.999515 0.986295
1.00504 0.999157 0.986253
1.00466 0.999695 0.986432
1.00356 0.999991 0.988128
1.00449 0.999692 0.986751
1.00339 0.999989 0.988462
1.0011 1.00004 0.99249
1.00327 0.999952 0.988721
1.00107 0.999956 0.993212
0.999695 0.999967 0.998147
1.00107 0.999978 0.993822
0.999555 0.999972 0.996064
0.999307 1.00024 0.996156
1.00514 0.998032 0.987308
1.00509 0.998776 0.986563
1.00514 0.998113 0.987187
1.00459 0.999272 0.986796
1.00505 0.998898 0.986531
1.00517 0.998255 0.986915
1.00322 0.999794 0.988627
1.00436 0.999485 0.987336
1.00494 0.998989 0.986745
1.00081 1.00034 0.992711
1.00295 1.00021 0.988853
1.00408 0.999723 0.987304
0.9994 1.00049 0.998158
1.00047 1.0009 0.99279
1.00236 1.0011 0.989223
1.00002 1.00125 0.993216
0.999273 1.0001 0.998297
0.999309 0.999355 0.998556
1.00512 0.998114 0.987219
1.00511 0.997617 0.987664
1.00511 0.997283 0.987932
1.0051 0.998781 0.986605
1.00512 0.998101 0.987229
1.00512 0.99751 0.987876
1.00513 0.998006 0.987288
1.00511 0.998817 0.986603
1.00483 0.999402 0.986592
1.0051 0.999108 0.986253
1.00479 0.999585 0.986396
1.00374 0.999875 0.987656
1.00466 0.999692 0.98644
1.00356 0.999988 0.988128
1.00123 1.00008 0.992217
1.0034 0.999981 0.988459
1.00111 1.00003 0.992479
0.999728 0.999974 0.998105
1.00109 0.999942 0.992648
0.999638 0.999939 0.997092
0.999413 0.999982 0.996176
1.00514 0.998251 0.987078
1.0051 0.99872 0.986564
1.00514 0.998011 0.987305
1.00469 0.999288 0.98675
1.0051 0.998798 0.986502
1.00514 0.998163 0.98715
1.00344 0.999652 0.988364
1.00459 0.999345 0.986936
1.00506 0.998904 0.9866
1.00099 0.99997 0.992731
1.00323 0.999797 0.988601
1.00437 0.9995 0.987329
0.999523 1.00037 0.998156
1.0008 1.00034 0.992718
1.00296 1.00016 0.988746
0.999363 1.00039 0.998175
1.00041 1.00093 0.992814
0.999228 0.999967 0.998363
1.0051 0.998671 0.986742
1.00512 0.998133 0.987173
1.00511 0.997611 0.987672
1.0048 0.999289 0.98675
1.00511 0.998738 0.986665
1.00511 0.998064 0.987275
1.00511 0.998804 0.986605
1.00483 0.999409 0.986587
1.0038 0.999787 0.987627
1.00478 0.999658 0.986497
1.00373 0.999911 0.987769
1.00136 1.00007 0.991981
1.00356 0.999982 0.988128
1.00123 1.00008 0.992207
0.999802 0.999991 0.998023
1.00112 1.00003 0.992469
0.999753 0.999974 0.998076
0.999698 0.999869 0.995913
1.0051 0.998734 0.98668
1.00514 0.998166 0.987103
1.00471 0.999268 0.986759
1.0051 0.998725 0.986565
1.00514 0.99799 0.987302
1.00356 0.999674 0.988423
1.00469 0.999287 0.986746
1.0051 0.99882 0.986441
1.00114 0.999843 0.992589
1.00344 0.999699 0.988456
1.0046 0.999423 0.987076
0.999671 1.00013 0.998136
1.00099 0.999962 0.992738
1.00324 0.999798 0.988574
0.999496 1.00034 0.998148
1.00078 1.00035 0.992723
0.999291 1.00034 0.998209
1.00475 0.999246 0.986884
1.0051 0.998696 0.98671
1.00512 0.998154 0.987127
1.00375 0.999726 0.987772
1.0048 0.999302 0.98675
1.00511 0.998691 0.986725
1.00483 0.999415 0.986582
1.0038 0.999785 0.987617
1.00143 1.00005 0.991893
1.00371 0.999943 0.987882
1.00136 1.00006 0.991976
0.999899 1.00001 0.997937
1.00124 1.00009 0.992196
0.999836 0.999995 0.997991
0.99978 0.999976 0.998042
1.00471 0.999262 0.986791
1.00509 0.998645 0.986722
1.00515 0.998081 0.987127
1.00359 0.999702 0.988338
1.00471 0.999269 0.986751
1.00509 0.998729 0.986566
1.00124 0.99988 0.992376
1.00356 0.999684 0.988418
1.00469 0.999285 0.986742
0.999794 0.999979 0.998068
1.00114 0.999848 0.992598
1.00345 0.999737 0.988548
0.999628 1.00015 0.998146
1.00099 0.999964 0.992746
0.999472 1.00033 0.99814
1.0037 0.999781 0.988092
1.00476 0.999214 0.986776
1.0051 0.998718 0.986679
1.00141 0.999996 0.991969
1.00376 0.99972 0.987752
1.0048 0.999314 0.986749
1.00381 0.999782 0.987607
1.00142 1.00003 0.991896
0.999962 1.00001 0.997872
1.00136 1.00006 0.99197
0.999923 1.00001 0.997906
0.999865 0.999999 0.99796
1.00363 0.999749 0.98823
1.00471 0.999208 0.986772
1.00509 0.998558 0.986764
1.00135 0.999978 0.993349
1.0036 0.999703 0.988332
1.0047 0.999271 0.986742
0.999855 0.999947 0.997993
1.00124 0.999901 0.992381
1.00356 0.999692 0.988413
0.999752 1.00001 0.998096
1.00113 0.999863 0.992607
0.9996 1.00016 0.998149
1.0014 0.99999 0.992013
1.0037 0.999742 0.987994
1.00477 0.999179 0.986668
0.999962 1 0.997876
1.0014 1 0.991971
1.00378 0.999717 0.987732
1.00142 1.00003 0.991897
0.99997 1.00001 0.997869
0.999954 1.00001 0.997886
1.00143 0.999995 0.993216
1.00364 0.999743 0.98823
1.00472 0.999153 0.986754
0.999642 0.999984 0.998189
1.00128 0.999985 0.992231
1.00361 0.999703 0.988326
0.999834 0.999967 0.998024
1.00123 0.999927 0.992386
0.999718 1.00003 0.998122
0.999929 1 0.99549
1.00141 0.999989 0.992617
1.0037 0.999705 0.987896
0.999957 1 0.997878
1.00139 1 0.991977
0.999978 1.00001 0.997859
0.999652 1.00001 0.995787
1.00137 0.999994 0.99269
1.00364 0.999738 0.988231
0.99975 0.999989 0.996889
1.00129 0.999985 0.992231
0.999808 0.999984 0.998052
0.999928 0.999997 0.997898
1.00135 0.999993 0.992079
0.999941 1 0.997887
0.999778 0.999997 0.996851
1.00132 0.999995 0.992151
0.999855 0.999978 0.997989
0.999911 0.999993 0.99792
0.99988 0.999987 0.997948

TENSORS stress float
0.00139844 -4.93895e-05 0.000118591
-4.93895e-05 0.000434648 -1.37477e-05
0.000118591 -1.37477e-05 0.00041364
0.00410159 -9.48436e-05 0.00011073
-9.48436e-05 0.00194907 7.04867e-06
0.00011073 7.04867e-06 0.00193883
0.001364 2.70367e-05 6.29714e-05
2.70367e-05 0.000432981 -4.15222e-06
6.29714e-05 -4.15222e-06 0.000400331
0.00169593 -3.49506e-05 0.000124488
-3.49506e-05 0.000574888 -9.42836e-06
0.000124488 -9.42836e-06 0.000555545
0.00155327 -4.73486e-05 0.000120192
-4.73486e-05 0.000512567 -1.29719e-05
0.000120192 -1.29719e-05 0.000491549
0.00122566 -3.45957e-05 0.000109824
-3.45957e-05 0.000338097 -1.22383e-05
0.000109824 -1.22383e-05 0.000320795
0.00129826 -9.85913e-06 1.0436e-05
-9.85913e-06 0.000325678 -7.47697e-06
1.0436e-05 -7.47697e-06 0.000256548
0.00396408 -0.000121361 6.53826e-06
-0.000121361 0.00187414 -7.71479e-07
6.53826e-06 -7.71479e-07 0.00186229
0.00483815 -9.53461e-05 2.70535e-05
-9.53461e-05 0.00234136 1.84398e-06
2.70535e-05 1.84398e-06 0.00232453
0.00412751 -0.000257947 -6.60742e-06
-0.000257947 0.00200798 4.36392e-06
-6.60742e-06 4.36392e-06 0.00196535
0.0013583 -6.29136e-06 9.46588e-05
-6.29136e-06 0.000404047 6.79077e-06
9.46588e-05 6.79077e-06 0.000393233
0.000754825 8.56581e-05 1.22578e-05
8.56581e-05 3.04078e-05 8.66511e-06
1.22578e-05 8.66511e-06 -2.88796e-05
0.00165959 -1.75919e-05 0.000140897
-1.75919e-05 0.000544567 1.60511e-06
0.000140897 1.60511e-06 0.000525689
0.00124829 2.73373e-06 1.68835e-05
2.73373e-06 0.00033391 1.7471e-06
1.68835e-05 1.7471e-06 0.000304084
0.00139903 6.6727e-05 -6.30914e-06
6.6727e-05 0.00045737 4.273e-06
-6.30914e-06 4.273e-06 0.000420881
0.00147576 -2.35125e-05 4.95298e-05
-2.35125e-05 0.000458782 -2.95931e-06
4.95298e-05 -2.95931e-06 0.000435758
0.00125661 2.99158e-05 5.53847e-05
2.99158e-05 0.000372527 -4.02398e-06
5.53847e-05 -4.02398e-06 0.000343296
0.00142646 3.51305e-06 5.68863e-05
3.51305e-06 0.000451014 -4.68382e-06
5.68863e-05 -4.68382e-06 0.000424212
0.00139354 -5.3821e-05 -2.39366e-05
-5.3821e-05 0.000364175 1.14967e-06
-2.39366e-05 1.14967e-06 0.000304285
0.00509656 -8.35846e-05 0.000149813
-8.35846e-05 0.00246901 -2.79076e-06
0.000149813 -2.79076e-06 0.00246415
0.00167058 -2.19261e-05 0.000127218
-2.19261e-05 0.000557832 -7.34171e-06
0.000127218 -7.34171e-06 0.000538197
0.0016624 -4.3114e-05 0.000122368
-4.3114e-05 0.000562252 -1.13622e-05
0.000122368 -1.13622e-05 0.000542357
0.00145173 -5.62168e-05 2.9252e-05
-5.62168e-05 0.000354768 -4.4056e-06
2.9252e-05 -4.4056e-06 0.000298876
0.00139737 -3.33053e-05 1.89914e-05
-3.33053e-05 0.000350618 -6.16888e-06
1.89914e-05 -6.16888e-06 0.000289493
0.00114881 1.32024e-05 8.7661e-05
1.32024e-05 0.000292942 -9.7547e-06
8.7661e-05 -9.7547e-06 0.000276566
0.00112197 -9.70772e-06 9.98227e-06
-9.70772e-06 0.000249671 -6.99411e-06
9.98227e-06 -6.99411e-06 0.00018362
0.00184236 -0.000154819 8.39592e-06
-0.000154819 0.000495205 -3.75882e-06
8.39592e-06 -3.75882e-06 0.000389298
0.0038104 -0.000143894 -8.45222e-05
-0.000143894 0.00179095 -4.05917e-06
-8.45222e-05 -4.05917e-06 0.00177687
0.00309753 -2.0983e-05 -7.07144e-05
-2.0983e-05 0.00137426 -2.66225e-06
-7.07144e-05 -2.66225e-06 0.00135324
0.00271542 -0.000102634 -4.77619e-05
-0.000102634 0.00119209 -1.72981e-06
-4.77619e-05 -1.72981e-06 0.00116442
0.00357917 -0.000122315 4.68821e-06
-0.000122315 0.00165177 -3.30601e-07
4.68821e-06 -3.30601e-07 0.00164393
0.000651401 7.41875e-05 -9.46027e-08
7.41875e-05 -2.16286e-05 -3.00031e-07
-9.46027e-08 -3.00031e-07 -8.02143e-05
0.00155539 4.51532e-05 0.000127342
4.51532e-05 0.000499012 8.67381e-06
0.000127342 8.67381e-06 0.000478884
0.00177317 7.58906e-05 0.000125879
7.58906e-05 0.000636368 1.14202e-05
0.000125879 1.14202e-05 0.000616662
0.00246293 0.0001295 7.75032e-05
0.0001295 0.000924169 9.06488e-06
7.75032e-05 9.06488e-06 0.000872729
0.00296242 -0.000138934 1.48347e-05
-0.000138934 0.00130873 1.51765e-06
1.48347e-05 1.51765e-06 0.00129914
0.00233812 0.000107668 6.64088e-05
0.000107668 0.000896659 9.00983e-06
6.64088e-05 9.00983e-06 0.000844844
0.000675287 3.7657e-05 1.10972e-05
3.7657e-05 -5.48262e-06 1.04214e-05
1.10972e-05 1.04214e-05 -5.66884e-05
0.000949657 0.000114524 5.13961e-06
0.000114524 8.9067e-05 2.43879e-06
5.13961e-06 2.43879e-06 -1.71869e-05
0.00258037 -8.94988e-05 5.20492e-05
-8.94988e-05 0.00108154 2.58349e-06
5.20492e-05 2.58349e-06 0.0010864
0.00516152 4.53583e-05 1.14743e-06
4.53583e-05 0.00249878 -1.03014e-06
1.14743e-06 -1.03014e-06 0.00249649
0.00316845 2.81671e-05 -5.58757e-05
2.81671e-05 0.00139952 -1.19353e-06
-5.58757e-05 -1.19353e-06 0.00138203
0.00518853 8.01263e-05 0.000152523
8.01263e-05 0.0025165 1.1783e-06
0.000152523 1.1783e-06 0.00251198
0.00134315 -1.28456e-05 1.25441e-05
-1.28456e-05 0.000386909 1.23918e-06
1.25441e-05 1.23918e-06 0.000355954
0.000749304 1.54327e-07 1.57475e-05
1.54327e-07 -6.60826e-05 2.12181e-06
1.57475e-05 2.12181e-06 -0.000128918
0.00483605 9.49226e-05 5.71058e-05
9.49226e-05 0.00232906 3.6413e-06
5.71058e-05 3.6413e-06 0.00231573
0.00248132 2.80135e-05 7.85396e-05
2.80135e-05 0.000904348 4.72436e-06
7.85396e-05 4.72436e-06 0.000859574
0.00121668 -4.32012e-05 -2.76794e-05
-4.32012e-05 0.0003248 3.10278e-06
-2.76794e-05 3.10278e-06 0.000296058
0.00133474 1.5791e-06 -1.9072e-05
1.5791e-06 0.000403224 3.51108e-06
-1.9072e-05 3.51108e-06 0.000374428
0.00133078 0.00011517 1.86039e-06
0.00011517 0.000436728 5.2601e-06
1.86039e-06 5.2601e-06 0.000391907
0.00143518 -7.8076e-05 -6.47401e-05
-7.8076e-05 0.00037885 8.96809e-06
-6.47401e-05 8.96809e-06 0.000324489
0.00329075 3.32644e-05 -5.99681e-05
3.32644e-05 0.00147409 -1.02297e-06
-5.99681e-05 -1.02297e-06 0.00144903
0.00147085 -3.26124e-05 5.11844e-05
-3.26124e-05 0.000456196 -1.82312e-06
5.11844e-05 -1.82312e-06 0.000431183
0.00114627 4.52892e-05 4.3018e-05
4.52892e-05 0.000303392 -3.09695e-06
4.3018e-05 -3.09695e-06 0.000279764
0.00146931 -1.59196e-05 5.19446e-05
-1.59196e-05 0.000460677 -4.12445e-06
5.19446e-05 -4.12445e-06 0.000437209
0.00149123 -5.80732e-05 -1.85306e-05
-5.80732e-05 0.000373692 6.60851e-07
-1.85306e-05 6.60851e-07 0.000320453
0.00126344 -3.2093e-05 -2.45104e-05
-3.2093e-05 0.000319779 3.80865e-07
-2.45104e-05 3.80865e-07 0.000258899
0.00146205 -6.58898e-05 -2.04077e-05
-6.58898e-05 0.000378901 1.1841e-06
-2.04077e-05 1.1841e-06 0.000322968
0.00190891 -0.000157025 -4.09928e-06
-0.000157025 0.000529579 1.10095e-06
-4.09928e-06 1.10095e-06 0.000422925
0.00512856 6.06527e-05 0.000142452
6.06527e-05 0.00248142 -2.15556e-08
0.000142452 -2.15556e-08 0.00247929
0.00167945 -7.82982e-06 0.00013212
-7.82982e-06 0.000558597 -4.99999e-06
0.00013212 -4.99999e-06 0.000538394
0.00234024 6.78919e-05 1.52531e-05
6.78919e-05 0.000837483 -1.32543e-06
1.52531e-05 -1.32543e-06 0.000780358
0.00143686 -6.20466e-05 2.90156e-05
-6.20466e-05 0.000344618 -3.95539e-06
2.90156e-05 -3.95539e-06 0.000286929
0.00145084 -5.05634e-05 2.58214e-05
-5.05634e-05 0.000360627 -5.18e-06
2.58214e-05 -5.18e-06 0.000303779
0.0019458 -0.000100934 9.00428e-06
-0.000100934 0.000475534 -2.11592e-06
9.00428e-06 -2.11592e-06 0.000380108
0.00149632 -0.000127058 1.09039e-05
-0.000127058 0.000262043 -3.97981e-06
1.09039e-05 -3.97981e-06 0.000158278
0.00114717 4.43486e-05 6.61717e-05
4.43486e-05 0.000280535 -7.88479e-06
6.61717e-05 -7.88479e-06 0.000267248
0.000882741 1.81124e-05 8.14437e-06
1.81124e-05 0.000138359 -5.39416e-06
8.14437e-06 -5.39416e-06 8.36602e-05
0.00161964 -0.000144054 5.95039e-06
-0.000144054 0.000429041 -3.35286e-06
5.95039e-06 -3.35286e-06 0.000324039
0.00126771 -0.000151292 5.50747e-06
-0.000151292 9.49698e-05 -1.85199e-06
5.50747e-06 -1.85199e-06 -3.87689e-05
0.00491745 6.93336e-06 -0.000136484
6.93336e-06 0.00237523 -7.9032e-06
-0.000136484 -7.9032e-06 0.0023717
0.00340844 -0.000132479 -7.15645e-05
-0.000132479 0.00155699 -2.84843e-06
-7.15645e-05 -2.84843e-06 0.00154868
0.00416756 -0.000146595 -9.37679e-05
-0.000146595 0.00199942 -6.20295e-06
-9.37679e-05 -6.20295e-06 0.00198051
0.000556625 7.02239e-05 -1.05895e-05
7.02239e-05 -6.97778e-05 -9.00601e-06
-1.05895e-05 -9.00601e-06 -0.000127835
0.00510148 6.12897e-05 -2.69486e-06
6.12897e-05 0.00246654 -9.67767e-07
-2.69486e-06 -9.67767e-07 0.00246411
0.00484729 -6.95806e-05 -6.68107e-06
-6.95806e-05 0.00235796 4.6317e-07
-6.68107e-06 4.6317e-07 0.00234453
0.000600974 0.000102178 -5.97145e-07
0.000102178 -0.000105805 -2.59634e-07
-5.97145e-07 -2.59634e-07 -0.000171615
0.00202821 -9.01744e-05 -2.95585e-05
-9.01744e-05 0.000782442 -2.15091e-07
-2.95585e-05 -2.15091e-07 0.000772786
0.000618605 0.000105778 -4.13552e-07
0.000105778 -5.28218e-05 -8.66185e-08
-4.13552e-07 -8.66185e-08 -0.000115506
0.00124579 1.70548e-05 1.86078e-05
1.70548e-05 0.000319039 2.62305e-07
1.86078e-05 2.62305e-07 0.000273303
0.00087843 0.000108162 2.94794e-07
0.000108162 4.84845e-05 -1.78052e-07
2.94794e-07 -1.78052e-07 -5.67026e-05
0.00287627 -9.54876e-05 6.63237e-05
-9.54876e-05 0.00124796 2.8172e-06
6.63237e-05 2.8172e-06 0.00125051
0.000639755 -6.83794e-05 -1.29881e-06
-6.83794e-05 -3.38787e-06 5.39847e-06
-1.29881e-06 5.39847e-06 -3.18676e-05
0.00072615 7.32912e-05 1.65344e-05
7.32912e-05 -5.81556e-05 7.7218e-06
1.65344e-05 7.7218e-06 -0.000121532
0.000764829 0.000114128 1.97871e-05
0.000114128 1.0386e-06 1.16459e-05
1.97871e-05 1.16459e-05 -6.64777e-05
0.00106166 0.000112758 1.02115e-05
0.000112758 1.05693e-06 4.18605e-06
1.02115e-05 4.18605e-06 -0.000111033
0.00175404 -3.24221e-05 3.70166e-05
-3.24221e-05 0.000609568 4.74291e-06
3.70166e-05 4.74291e-06 0.000576136
0.00100291 0.00012374 6.58747e-06
0.00012374 7.11357e-05 4.25625e-06
6.58747e-06 4.25625e-06 -3.85882e-05
0.000929217 9.35391e-05 4.67263e-06
9.35391e-05 0.000117355 2.76196e-06
4.67263e-06 2.76196e-06 1.47632e-05
0.000891579 0.000137453 1.88742e-06
0.000137453 1.8723e-05 3.88013e-08
1.88742e-06 3.88013e-08 -0.00011302
0.00233081 -8.19404e-05 3.9538e-05
-8.19404e-05 0.000937609 2.65554e-06
3.9538e-05 2.65554e-06 0.000944967
0.0024779 -9.18097e-05 2.43881e-06
-9.18097e-05 0.00102589 -1.79796e-07
2.43881e-06 -1.79796e-07 0.0010302
0.00505328 3.17323e-05 -0.000144474
3.17323e-05 0.00243754 -5.56573e-06
-0.000144474 -5.56573e-06 0.00243685
0.00512629 4.65899e-05 -0.000145102
4.65899e-05 0.00247883 -2.59834e-06
-0.000145102 -2.59834e-06 0.00247744
0.00520098 7.47139e-05 2.38355e-06
7.47139e-05 0.00252502 -8.71294e-07
2.38355e-06 -8.71294e-07 0.00251948
0.00319332 -1.74618e-05 -6.65619e-05
-1.74618e-05 0.00140919 -1.41164e-06
-6.65619e-05 -1.41164e-06 0.00139352
0.001645 1.47051e-05 3.38578e-05
1.47051e-05 0.000433142 2.76191e-07
3.38578e-05 2.76191e-07 0.000378712
0.00320113 5.73238e-05 -6.22576e-05
5.73238e-05 0.00141517 -2.87406e-06
-6.22576e-05 -2.87406e-06 0.00139834
0.00164016 4.35125e-05 3.18996e-05
4.35125e-05 0.000440986 8.50521e-07
3.18996e-05 8.50521e-07 0.000387202
0.00521333 0.000138369 0.000146798
0.000138369 0.00253929 2.25871e-06
0.000146798 2.25871e-06 0.00252846
0.000694907 -3.34769e-06 1.57273e-05
-3.34769e-06 -9.82815e-05 5.69758e-07
1.57273e-05 5.69758e-07 -0.000160746
0.00254318 1.09545e-06 8.03145e-05
1.09545e-06 0.000935406 3.40802e-06
8.03145e-05 3.40802e-06 0.000890035
0.0011643 2.41026e-05 1.08451e-05
2.41026e-05 5.7002e-06 1.43421e-06
1.08451e-05 1.43421e-06 -0.000100204
0.00242432 7.21556e-05 7.83371e-05
7.21556e-05 0.000879886 5.63936e-06
7.83371e-05 5.63936e-06 0.000832986
0.00116266 6.03866e-05 1.03802e-05
6.03866e-05 2.03315e-05 2.43872e-06
1.03802e-05 2.43872e-06 -8.46563e-05
0.0016894 2.44974e-05 -0.000139424
2.44974e-05 0.000563121 7.8288e-07
-0.000139424 7.8288e-07 0.000544368
0.00122708 -2.62966e-05 -2.09542e-05
-2.62966e-05 0.00032788 2.02435e-06
-2.09542e-05 2.02435e-06 0.000298736
0.00113538 9.53678e-05 -4.64933e-06
9.53678e-05 0.000312242 3.79414e-06
-4.64933e-06 3.79414e-06 0.000278321
0.00127025 -2.5859e-05 -2.55234e-05
-2.5859e-05 0.000357835 3.34529e-06
-2.55234e-05 3.34529e-06 0.000329965
0.00157007 -4.49389e-05 -6.73585e-05
-4.49389e-05 0.00041274 5.32127e-06
-6.73585e-05 5.32127e-06 0.000363019
0.00150833 -7.1541e-05 -6.56183e-05
-7.1541e-05 0.0003996 8.29355e-06
-6.56183e-05 8.29355e-06 0.000347004
0.00133651 -6.33459e-05 -5.87693e-05
-6.33459e-05 0.000348886 8.33607e-06
-5.87693e-05 8.33607e-06 0.000295221
0.00198912 -0.000160379 -1.68128e-05
-0.000160379 0.000571913 6.1166e-06
-1.68128e-05 6.1166e-06 0.000464336
0.00519075 -6.40787e-05 -1.45617e-06
-6.40787e-05 0.00251779 -7.55908e-07
-1.45617e-06 -7.55908e-07 0.00251321
0.00147452 2.08343e-05 5.98288e-05
2.08343e-05 0.000452775 -1.66145e-06
5.98288e-05 -1.66145e-06 0.00042799
0.00114795 6.02231e-06 -3.63233e-05
6.02231e-06 0.000160684 4.93367e-07
-3.63233e-05 4.93367e-07 0.000104224
0.00148437 -4.12744e-05 -2.0838e-05
-4.12744e-05 0.000365661 5.23409e-07
-2.0838e-05 5.23409e-07 0.000312037
0.00221493 7.64774e-05 6.34727e-05
7.64774e-05 0.000884673 -4.94203e-07
6.34727e-05 -4.94203e-07 0.000875755
0.00141152 1.60112e-06 -1.57336e-05
1.60112e-06 0.000422024 -3.39034e-07
-1.57336e-05 -3.39034e-07 0.000370433
0.00149556 -6.44546e-05 -1.87949e-05
-6.44546e-05 0.000382322 9.00803e-07
-1.87949e-05 9.00803e-07 0.000328316
0.00176923 -9.3535e-05 -6.2724e-06
-9.3535e-05 0.000376109 1.11827e-06
-6.2724e-06 1.11827e-06 0.000279601
0.00177222 -0.000154461 -3.01858e-06
-0.000154461 0.000509787 1.01513e-06
-3.01858e-06 1.01513e-06 0.000402356
0.0017448 -0.000135605 -2.12545e-06
-0.000135605 0.00039978 4.23445e-07
-2.12545e-06 4.23445e-07 0.000296656
0.00122794 -0.000148164 -1.19166e-08
-0.000148164 7.43552e-05 -1.82229e-07
-1.19166e-08 -1.82229e-07 -5.88858e-05
0.000721659 6.00156e-06 1.59911e-05
6.00156e-06 -8.13691e-05 -1.25385e-06
1.59911e-05 -1.25385e-06 -0.000143253
0.00144799 -2.63107e-06 2.26375e-05
-2.63107e-06 0.000339493 -2.43841e-06
2.26375e-05 -2.43841e-06 0.00028209
0.00160958 -1.86117e-05 1.07318e-05
-1.86117e-05 0.000257196 -1.29769e-06
1.07318e-05 -1.29769e-06 0.000157661
0.00153641 -7.14958e-05 1.01613e-05
-7.14958e-05 0.000242798 -2.26693e-06
1.01613e-05 -2.26693e-06 0.000144671
0.00154493 -0.000110235 1.09695e-05
-0.000110235 0.000262055 -3.18071e-06
1.09695e-05 -3.18071e-06 0.00016157
0.00176587 -0.000107889 3.11754e-06
-0.000107889 0.000286908 -7.21952e-07
3.11754e-06 -7.21952e-07 0.000169868
0.00311782 0.000114738 6.44446e-05
0.000114738 0.00138208 -2.48808e-06
6.44446e-05 -2.48808e-06 0.00138004
0.00133317 -0.00013865 5.42833e-06
-0.00013865 8.75971e-05 -1.58369e-06
5.42833e-06 -1.58369e-06 -3.99099e-05
0.000551315 2.31917e-05 4.5042e-06
2.31917e-05 -5.82597e-05 -6.61204e-06
4.5042e-06 -6.61204e-06 -0.000103767
0.000656923 -9.36003e-05 3.75876e-06
-9.36003e-05 -4.44659e-05 -2.72971e-06
3.75876e-06 -2.72971e-06 -0.000144403
0.0013513 -0.000167372 4.81247e-06
-0.000167372 0.000206649 -2.75527e-06
4.81247e-06 -2.75527e-06 6.52625e-05
0.00144294 -0.000168402 3.13801e-06
-0.000168402 0.000131256 -3.12665e-07
3.13801e-06 -3.12665e-07 -1.23911e-05
0.000540124 5.56807e-05 9.22115e-07
5.56807e-05 -6.38128e-05 -6.24734e-06
9.22115e-07 -6.24734e-06 -0.000100058
0.000709444 2.73404e-05 4.75275e-07
2.73404e-05 1.05106e-05 -3.06503e-06
4.75275e-07 -3.06503e-06 -5.9739e-05
0.0050638 6.52128e-05 -0.000150365
6.52128e-05 0.00244755 -8.51823e-06
-0.000150365 -8.51823e-06 0.00244509
0.00455216 -8.63265e-05 -0.000111685
-8.63265e-05 0.00219639 -7.06575e-06
-0.000111685 -7.06575e-06 0.00218513
0.000589175 9.22686e-05 -1.50232e-05
9.22686e-05 -0.000112416 -8.51376e-06
-1.50232e-05 -8.51376e-06 -0.000178293
0.00302855 -0.000115914 -6.09242e-05
-0.000115914 0.00133916 -2.44409e-06
-6.09242e-05 -2.44409e-06 0.00133649
0.000533092 7.87857e-06 -5.1838e-06
7.87857e-06 -7.38184e-05 -7.95414e-06
-5.1838e-06 -7.95414e-06 -0.000121675
0.000517163 9.77106e-05 -1.34779e-05
9.77106e-05 -0.000105384 -9.17199e-06
-1.34779e-05 -9.17199e-06 -0.000167782
0.00083014 0.000103457 -5.20835e-06
0.000103457 2.07527e-05 -3.00924e-06
-5.20835e-06 -3.00924e-06 -8.36271e-05
0.00277176 -0.000100626 2.83372e-06
-0.000100626 0.00119218 -2.05691e-07
2.83372e-06 -2.05691e-07 0.00119374
0.000601155 -7.01779e-05 6.43477e-08
-7.01779e-05 -2.42942e-05 2.05245e-07
6.43477e-08 2.05245e-07 -5.27622e-05
0.00157457 8.83535e-05 3.09369e-05
8.83535e-05 0.000415232 1.15588e-06
3.09369e-05 1.15588e-06 0.000358371
0.00146128 0.000115449 2.73999e-05
0.000115449 0.000391845 7.93067e-07
2.73999e-05 7.93067e-07 0.000332733
0.00107642 0.00011492 2.64239e-07
0.00011492 9.75521e-06 -2.05156e-07
2.64239e-07 -2.05156e-07 -0.000102677
0.000634408 -3.05593e-05 -5.4614e-07
-3.05593e-05 -1.20172e-05 1.5725e-07
-5.4614e-07 1.5725e-07 -5.17745e-05
0.000944861 0.000119561 3.46024e-07
0.000119561 4.01124e-05 4.77648e-07
3.46024e-07 4.77648e-07 -6.89442e-05
0.00083419 8.61966e-05 2.70142e-07
8.61966e-05 6.41235e-05 -2.26804e-07
2.70142e-07 -2.26804e-07 -3.65025e-05
0.00082151 0.000133169 -3.65633e-09
0.000133169 -2.12613e-05 -3.54709e-08
-3.65633e-09 -3.54709e-08 -0.000153327
0.000630713 -5.06667e-05 2.77029e-06
-5.06667e-05 -7.81094e-06 5.8155e-06
2.77029e-06 5.8155e-06 -4.22834e-05
0.00067463 -6.13775e-05 -1.4562e-07
-6.13775e-05 4.27067e-06 4.32449e-06
-1.4562e-07 4.32449e-06 -1.65194e-05
0.000677341 -4.04172e-06 1.97328e-06
-4.04172e-06 5.70215e-06 2.77261e-06
1.97328e-06 2.77261e-06 -6.03912e-05
0.00110948 9.58673e-05 1.04317e-05
9.58673e-05 3.53039e-06 3.70413e-06
1.04317e-05 3.70413e-06 -0.000106049
0.00103381 0.000124034 8.86376e-06
0.000124034 3.38968e-05 4.44333e-06
8.86376e-06 4.44333e-06 -7.92192e-05
0.00130529 0.00014109 5.94373e-06
0.00014109 5.34471e-05 1.75069e-06
5.94373e-06 1.75069e-06 -8.30853e-05
0.000870948 6.67592e-05 3.67296e-06
6.67592e-05 0.000102568 2.89777e-06
3.67296e-06 2.89777e-06 9.68425e-06
0.000903552 0.000139602 2.15598e-06
0.000139602 -4.08301e-05 1.93983e-06
2.15598e-06 1.93983e-06 -0.00017527
0.00111521 0.000147365 2.04344e-06
0.000147365 0.000195773 7.69881e-07
2.04344e-06 7.69881e-07 6.26637e-05
0.00104488 0.000157768 -2.39188e-06
0.000157768 9.03417e-05 -1.33458e-06
-2.39188e-06 -1.33458e-06 -5.3711e-05
0.00218083 -7.26856e-05 3.29771e-05
-7.26856e-05 0.000845688 2.8912e-06
3.29771e-05 2.8912e-06 0.000855979
0.002259 -8.16737e-05 1.24236e-06
-8.16737e-05 0.000897365 -1.35321e-07
1.24236e-06 -1.35321e-07 0.000904862
0.00237387 -9.15107e-05 -3.83553e-05
-9.15107e-05 0.000968809 -2.51618e-06
-3.83553e-05 -2.51618e-06 0.000973197
0.000561132 6.49886e-05 2.35613e-07
6.49886e-05 -5.39603e-05 -5.46019e-06
2.35613e-07 -5.46019e-06 -8.60168e-05
0.00291032 0.000104518 5.51936e-05
0.000104518 0.00126254 -2.62913e-06
5.51936e-05 -2.62913e-06 0.00126361
0.00508831 9.4006e-05 -0.000154738
9.4006e-05 0.00246077 -8.23322e-06
-0.000154738 -8.23322e-06 0.00245723
0.0050349 -9.89845e-06 -0.000140174
-9.89845e-06 0.00242884 -3.66552e-06
-0.000140174 -3.66552e-06 0.00242798
0.000730087 5.24051e-05 -1.59092e-05
5.24051e-05 -6.25338e-05 -4.05109e-06
-1.59092e-05 -4.05109e-06 -0.000123916
0.000700068 1.95037e-05 -1.60234e-05
1.95037e-05 -8.84232e-05 -2.33981e-06
-1.60234e-05 -2.33981e-06 -0.000151146
0.00516107 -6.91696e-05 -0.000142874
-6.91696e-05 0.00250038 -5.65758e-07
-0.000142874 -5.65758e-07 0.00249708
0.00519835 2.1409e-06 -1.09835e-06
2.1409e-06 0.00251867 4.36544e-07
-1.09835e-06 4.36544e-07 0.00251615
0.000692713 -3.11239e-06 -1.56626e-07
-3.11239e-06 -9.91341e-05 -1.99449e-07
-1.56626e-07 -1.99449e-07 -0.000161532
0.00161896 1.77663e-05 3.27694e-05
1.77663e-05 0.000425755 7.17887e-07
3.27694e-05 7.17887e-07 0.000372341
0.00117673 2.83138e-05 1.61991e-07
2.83138e-05 1.26632e-05 -2.30408e-07
1.61991e-07 -2.30408e-07 -9.33833e-05
0.000673145 5.1189e-05 2.167e-07
5.1189e-05 -9.21604e-05 -1.65702e-07
2.167e-07 -1.65702e-07 -0.000153527
0.00115145 6.26339e-05 -1.38188e-07
6.26339e-05 1.48622e-05 1.97631e-08
-1.38188e-07 1.97631e-08 -9.05018e-05
0.000685018 -1.4907e-05 1.60614e-05
-1.4907e-05 -0.000104858 -3.91703e-07
1.60614e-05 -3.91703e-07 -0.000167186
0.00117762 1.03989e-05 1.08179e-05
1.03989e-05 5.75954e-06 5.56001e-07
1.08179e-05 5.56001e-07 -0.00010071
0.00116207 4.27382e-05 1.05434e-05
4.27382e-05 1.50317e-05 2.21844e-06
1.05434e-05 2.21844e-06 -8.99434e-05
0.00144019 3.13956e-05 4.43923e-06
3.13956e-05 6.98241e-05 6.9286e-07
4.43923e-06 6.9286e-07 -5.14756e-05
0.00113799 7.71121e-05 1.04253e-05
7.71121e-05 9.92622e-06 2.74073e-06
1.04253e-05 2.74073e-06 -9.70567e-05
0.00142188 7.2139e-05 4.2992e-06
7.2139e-05 7.79067e-05 1.03051e-06
4.2992e-06 1.03051e-06 -4.40694e-05
0.00518739 -5.91135e-05 -0.000154698
-5.91135e-05 0.00251554 -3.99307e-07
-0.000154698 -3.99307e-07 0.0025111
0.00128571 -5.47055e-05 -1.74329e-05
-5.47055e-05 0.00035823 1.72047e-06
-1.74329e-05 1.72047e-06 0.000327221
-0.000136965 -4.38897e-07 -1.35833e-05
-4.38897e-07 -0.000553364 2.24994e-06
-1.35833e-05 2.24994e-06 -0.000622313
0.00157635 -3.00094e-05 -6.87369e-05
-3.00094e-05 0.000412658 3.93395e-06
-6.87369e-05 3.93395e-06 0.000362322
0.00314288 0.000157414 -1.58164e-05
0.000157414 0.00141884 1.51469e-06
-1.58164e-05 1.51469e-06 0.00140291
0.001954 -4.64491e-05 -4.86783e-05
-4.64491e-05 0.000707574 6.90844e-06
-4.86783e-05 6.90844e-06 0.000663201
0.00155361 -6.01986e-05 -6.65569e-05
-6.01986e-05 0.000410416 6.9868e-06
-6.65569e-05 6.9868e-06 0.000359548
0.00157496 -8.58784e-05 -2.00274e-05
-8.58784e-05 0.00026673 3.85574e-06
-2.00274e-05 3.85574e-06 0.00016926
0.00199455 -0.000144634 -1.63572e-05
-0.000144634 0.000538442 5.08973e-06
-1.63572e-05 5.08973e-06 0.000435938
0.00197557 -0.000166554 -1.36387e-05
-0.000166554 0.000618859 6.09254e-06
-1.36387e-05 6.09254e-06 0.000508756
0.00119567 -0.000145477 -4.80645e-06
-0.000145477 5.78208e-05 1.28265e-06
-4.80645e-06 1.28265e-06 -7.49703e-05
0.000684745 8.89071e-06 3.39232e-08
8.89071e-06 -0.000102268 -2.07592e-07
3.39232e-08 -2.07592e-07 -0.000163959
0.00153502 -3.34924e-05 -2.29204e-05
-3.34924e-05 0.000385348 1.32261e-07
-2.29204e-05 1.32261e-07 0.000330292
0.00119198 -1.6095e-05 -4.36197e-06
-1.6095e-05 2.59793e-05 2.05225e-07
-4.36197e-06 2.05225e-07 -7.68598e-05
0.00180048 -7.45565e-05 -2.99171e-06
-7.45565e-05 0.000386976 3.95127e-07
-2.99171e-06 3.95127e-07 0.000290515
0.00313567 0.000111615 -1.43919e-06
0.000111615 0.00139269 -2.83182e-07
-1.43919e-06 -2.83182e-07 0.00139083
0.0011857 7.86547e-06 2.14043e-06
7.86547e-06 0.000291897 4.23587e-07
2.14043e-06 4.23587e-07 0.00024734
0.00118967 -0.000114335 5.50566e-07
-0.000114335 0.000245845 -3.55813e-07
5.50566e-07 -3.55813e-07 0.000145266
0.00155555 -0.000109384 -3.37851e-06
-0.000109384 0.000268564 6.40907e-07
-3.37851e-06 6.40907e-07 0.000167995
0.00146896 -9.88383e-05 -2.36029e-06
-9.88383e-05 0.00012101 6.45078e-07
-2.36029e-06 6.45078e-07 2.77283e-06
0.0010167 -0.000147245 -7.42194e-07
-0.000147245 2.60747e-05 -3.67535e-07
-7.42194e-07 -3.67535e-07 -0.000113623
0.00154248 -0.000145174 1.53314e-07
-0.000145174 0.000204143 -1.51646e-07
1.53314e-07 -1.51646e-07 7.77386e-05
0.00138397 -0.000164686 2.12235e-07
-0.000164686 0.000100723 -1.32944e-07
2.12235e-07 -1.32944e-07 -4.23943e-05
0.000567778 4.95435e-05 -6.53393e-07
4.95435e-05 -4.94054e-05 8.64313e-08
-6.53393e-07 8.64313e-08 -8.52753e-05
0.000692747 1.30946e-05 -1.64157e-07
1.30946e-05 -3.99762e-07 1.61343e-07
-1.64157e-07 1.61343e-07 -7.06308e-05
0.00116779 -8.17459e-06 1.06489e-05
-8.17459e-06 1.34194e-06 -1.28964e-06
1.06489e-05 -1.28964e-06 -0.000104576
0.00159897 -4.06725e-05 1.03064e-05
-4.06725e-05 0.000260161 -1.64783e-06
1.03064e-05 -1.64783e-06 0.000161065
0.00182656 -2.47607e-05 3.25121e-06
-2.47607e-05 0.000290017 -3.14154e-07
3.25121e-06 -3.14154e-07 0.000174264
0.00119547 -7.09313e-05 5.11112e-06
-7.09313e-05 -3.6294e-05 -1.59218e-06
5.11112e-06 -1.59218e-06 -0.000156206
0.00165479 -0.000132567 4.50452e-06
-0.000132567 0.000237386 -1.01493e-06
4.50452e-06 -1.01493e-06 0.000115938
0.00169097 -0.000105433 4.24571e-07
-0.000105433 0.000193173 1.46699e-09
4.24571e-07 1.46699e-09 7.2476e-05
0.000515297 3.59038e-05 3.21599e-06
3.59038e-05 -7.9257e-05 -6.48137e-06
3.21599e-06 -6.48137e-06 -0.000119327
0.00147075 -0.000148925 2.33218e-06
-0.000148925 0.000102781 -1.36553e-07
2.33218e-06 -1.36553e-07 -2.93675e-05
0.000642124 -6.26102e-05 2.58579e-06
-6.26102e-05 -2.91662e-05 -1.77895e-06
2.58579e-06 -1.77895e-06 -0.000121515
0.000514117 -0.000115595 3.16944e-06
-0.000115595 -0.000168506 -3.51665e-06
3.16944e-06 -3.51665e-06 -0.000301964
0.00196688 -0.000215385 1.93131e-06
-0.000215385 0.00049487 -7.70291e-07
1.93131e-06 -7.70291e-07 0.000336347
0.00158118 -0.000177854 -7.09603e-08
-0.000177854 0.000158281 1.65788e-06
-7.09603e-08 1.65788e-06 1.80514e-05
0.000768711 -1.70948e-05 1.55227e-06
-1.70948e-05 4.78857e-05 -2.93784e-06
1.55227e-06 -2.93784e-06 -3.50736e-05
0.000690852 2.64652e-05 1.1695e-06
2.64652e-05 -2.644e-06 -2.42257e-06
1.1695e-06 -2.42257e-06 -6.36434e-05
0.00083478 -5.28035e-05 5.05896e-07
-5.28035e-05 8.25433e-05 -6.90247e-07
5.05896e-07 -6.90247e-07 -1.90553e-05
0.000639103 7.49407e-05 -1.49674e-05
7.49407e-05 -0.000102005 -6.7599e-06
-1.49674e-05 -6.7599e-06 -0.000165698
0.00268039 -0.000103637 -4.8159e-05
-0.000103637 0.00114314 -2.36829e-06
-4.8159e-05 -2.36829e-06 0.0011441
0.0005568 -6.32695e-05 -5.51562e-07
-6.32695e-05 -5.1241e-05 -4.59598e-06
-5.51562e-07 -4.59598e-06 -7.78042e-05
0.00052371 0.000103395 -1.47192e-05
0.000103395 -0.000122646 -9.56791e-06
-1.47192e-05 -9.56791e-06 -0.000188006
0.00108878 0.00011734 -1.04322e-05
0.00011734 1.7117e-05 -4.62433e-06
-1.04322e-05 -4.62433e-06 -9.57002e-05
0.000512148 -4.00243e-05 -2.51194e-06
-4.00243e-05 -7.67222e-05 -6.79408e-06
-2.51194e-06 -6.79408e-06 -0.000117066
0.000720875 7.68779e-05 -3.25902e-06
7.68779e-05 1.27076e-06 -2.88663e-06
-3.25902e-06 -2.88663e-06 -9.75084e-05
0.000887715 0.000115279 -6.08715e-06
0.000115279 9.90382e-06 -3.43414e-06
-6.08715e-06 -3.43414e-06 -9.85121e-05
0.000746231 0.000128656 -3.16119e-06
0.000128656 -6.43443e-05 -1.01398e-06
-3.16119e-06 -1.01398e-06 -0.000196676
0.000572292 -5.6701e-05 1.72294e-06
-5.6701e-05 -4.01907e-05 5.4579e-08
1.72294e-06 5.4579e-08 -7.40816e-05
0.000639427 -5.66252e-05 -2.35495e-07
-5.66252e-05 -1.6406e-05 1.45475e-07
-2.35495e-07 1.45475e-07 -3.61e-05
0.000675439 -3.53594e-05 3.16295e-07
-3.53594e-05 8.6417e-07 3.43148e-07
3.16295e-07 3.43148e-07 -6.1383e-05
0.00111625 9.79299e-05 1.06684e-07
9.79299e-05 8.07998e-06 -1.69271e-07
1.06684e-07 -1.69271e-07 -0.000101919
0.00101604 0.000123585 6.15882e-07
0.000123585 2.54671e-05 -3.32373e-07
6.15882e-07 -3.32373e-07 -8.75328e-05
0.00134254 0.00014399 3.35756e-07
0.00014399 7.31444e-05 2.30095e-08
3.35756e-07 2.30095e-08 -6.38674e-05
0.000795002 5.81586e-05 9.41725e-08
5.81586e-05 6.33955e-05 -1.39114e-08
9.41725e-08 -1.39114e-08 -2.91542e-05
0.00109329 0.000150697 -2.19962e-07
0.000150697 6.40334e-05 -1.6583e-07
-2.19962e-07 -1.6583e-07 -7.11933e-05
0.00102494 0.000140615 3.41455e-07
0.000140615 0.000146352 -3.97952e-07
3.41455e-07 -3.97952e-07 1.3932e-05
0.00101085 0.000158216 -8.79662e-07
0.000158216 7.05226e-05 9.81561e-07
-8.79662e-07 9.81561e-07 -7.4171e-05
0.000681752 -5.03214e-05 1.65879e-06
-5.03214e-05 -4.47178e-06 3.56777e-06
1.65879e-06 3.56777e-06 -1.93668e-05
0.000722557 2.73527e-05 2.36904e-06
2.73527e-05 2.43974e-05 2.4871e-06
2.36904e-06 2.4871e-06 -5.38876e-05
0.000674262 -5.02415e-05 1.34079e-07
-5.02415e-05 -3.49152e-06 2.33525e-06
1.34079e-07 2.33525e-06 -5.36485e-05
0.00082165 3.35811e-05 2.24965e-07
3.35811e-05 8.92356e-05 7.77801e-07
2.24965e-07 7.77801e-07 -5.61395e-06
0.00136201 0.000117547 6.09925e-06
0.000117547 6.03865e-05 1.58608e-06
6.09925e-06 1.58608e-06 -7.08584e-05
0.00126384 0.000156682 5.12232e-06
0.000156682 8.84439e-05 3.01119e-06
5.12232e-06 3.01119e-06 -5.112e-05
0.0015103 0.000159043 3.39162e-06
0.000159043 0.000107188 5.23841e-07
3.39162e-06 5.23841e-07 -3.88929e-05
0.00108708 0.000116004 2.27669e-06
0.000116004 0.000209308 2.00431e-06
2.27669e-06 2.00431e-06 8.90416e-05
0.0013164 0.000175753 -5.63679e-07
0.000175753 0.000150177 1.97295e-06
-5.63679e-07 1.97295e-06 3.35016e-06
0.000908338 0.000148275 -4.42112e-07
0.000148275 7.64533e-05 -1.75789e-06
-4.42112e-07 -1.75789e-06 -7.97522e-05
0.000915839 0.00015823 -5.42548e-07
0.00015823 -1.29749e-05 -5.37067e-07
-5.42548e-07 -5.37067e-07 -0.000161655
0.000736189 -2.61465e-05 1.34891e-06
-2.61465e-05 2.87761e-06 1.66753e-06
1.34891e-06 1.66753e-06 -3.14852e-05
0.000679554 -3.79687e-05 1.32358e-06
-3.79687e-05 -2.27922e-05 3.45126e-06
1.32358e-06 3.45126e-06 -3.21899e-05
0.00211699 -6.41838e-05 2.83809e-05
-6.41838e-05 0.000800834 3.21012e-06
2.83809e-05 3.21012e-06 0.000813688
0.00214256 -7.20453e-05 1.47521e-06
-7.20453e-05 0.000823278 -1.31599e-07
1.47521e-06 -1.31599e-07 0.000833852
0.00218575 -8.01382e-05 -3.38597e-05
-8.01382e-05 0.000855986 -2.74132e-06
-3.38597e-05 -2.74132e-06 0.000863957
0.000594931 5.33461e-05 1.4607e-06
5.33461e-05 -4.55821e-05 -4.69074e-06
1.4607e-06 -4.69074e-06 -7.11666e-05
0.00271079 9.47119e-05 4.70041e-05
9.47119e-05 0.00114835 -2.87551e-06
4.70041e-05 -2.87551e-06 0.00115194
0.000590727 5.92387e-05 -3.79137e-07
5.92387e-05 -3.87009e-05 8.81648e-08
-3.79137e-07 8.81648e-08 -7.0083e-05
0.00295249 0.00010165 -1.67043e-06
0.00010165 0.00128524 -1.98207e-07
-1.67043e-06 -1.98207e-07 0.00128675
0.00069553 6.3363e-05 -1.55226e-05
6.3363e-05 -7.87709e-05 -5.3361e-06
-1.55226e-05 -5.3361e-06 -0.000141103
0.000693703 3.01056e-05 -1.55559e-05
3.01056e-05 -8.57574e-05 -3.22462e-06
-1.55559e-05 -3.22462e-06 -0.000147553
0.00114486 6.41879e-05 -1.02437e-05
6.41879e-05 1.17227e-05 -2.34321e-06
-1.02437e-05 -2.34321e-06 -9.39295e-05
0.00117804 3.0371e-05 -1.07907e-05
3.0371e-05 1.36464e-05 -1.864e-06
-1.07907e-05 -1.864e-06 -9.24797e-05
0.000717639 -4.63399e-07 -1.62919e-05
-4.63399e-07 -8.62157e-05 -1.06753e-06
-1.62919e-05 -1.06753e-06 -0.000148051
0.00522195 -8.58367e-05 -0.000153243
-8.58367e-05 0.002534 1.38739e-06
-0.000153243 1.38739e-06 0.00253008
0.00070778 -1.39206e-06 1.03689e-07
-1.39206e-06 -9.31767e-05 -3.04238e-07
1.03689e-07 -3.04238e-07 -0.000155223
0.00118374 1.47549e-05 4.76003e-09
1.47549e-05 9.28313e-06 -1.81694e-07
4.76003e-09 -1.81694e-07 -9.72486e-05
0.00115911 4.37557e-05 1.50502e-09
4.37557e-05 1.40439e-05 -3.52358e-08
1.50502e-09 -3.52358e-08 -9.108e-05
0.00143613 3.10796e-05 2.27536e-08
3.10796e-05 6.81547e-05 -1.29807e-07
2.27536e-08 -1.29807e-07 -5.32014e-05
0.00114021 7.97598e-05 7.4355e-09
7.97598e-05 1.16973e-05 -2.70858e-07
7.4355e-09 -2.70858e-07 -9.58108e-05
0.00142102 7.44149e-05 -8.98016e-08
7.44149e-05 7.76307e-05 1.93001e-07
-8.98016e-08 1.93001e-07 -4.46491e-05
0.00119117 -4.71489e-07 1.07714e-05
-4.71489e-07 1.20613e-05 -1.9942e-07
1.07714e-05 -1.9942e-07 -9.43522e-05
0.00145438 1.91705e-05 4.32156e-06
1.91705e-05 6.90415e-05 2.97477e-07
4.32156e-06 2.97477e-07 -5.24474e-05
0.0014334 5.23777e-05 4.3771e-06
5.23777e-05 7.90275e-05 1.06699e-06
4.3771e-06 1.06699e-06 -4.21842e-05
0.00156063 3.65127e-05 4.26022e-07
3.65127e-05 7.27983e-05 1.29543e-07
4.26022e-07 1.29543e-07 -4.57404e-05
0.00139296 9.43232e-05 4.6782e-06
9.43232e-05 6.5681e-05 7.02931e-07
4.6782e-06 7.02931e-07 -6.02661e-05
0.00155213 8.0832e-05 5.42124e-07
8.0832e-05 9.5544e-05 -4.43853e-08
5.42124e-07 -4.43853e-08 -2.6936e-05
0.000692523 1.2063e-05 -1.54332e-05
1.2063e-05 -9.89684e-05 7.1723e-07
-1.54332e-05 7.1723e-07 -0.000160689
0.00160115 -1.16771e-05 -7.08391e-05
-1.16771e-05 0.000418531 2.7739e-06
-7.08391e-05 2.7739e-06 0.000366629
0.000767142 -1.21227e-05 -1.14356e-05
-1.21227e-05 -0.00020924 1.69889e-06
-1.14356e-05 1.69889e-06 -0.000315437
0.00203988 -7.61944e-05 -1.75716e-05
-7.61944e-05 0.000517277 2.96537e-06
-1.75716e-05 2.96537e-06 0.00042267
0.00316446 0.000105579 -7.46244e-05
0.000105579 0.00140874 2.84163e-06
-7.46244e-05 2.84163e-06 0.00140763
0.00187598 8.79066e-07 -4.08556e-05
8.79066e-07 0.000671871 4.76217e-06
-4.08556e-05 4.76217e-06 0.000632408
0.00176916 -0.000143038 -9.16195e-06
-0.000143038 0.000561005 4.12957e-06
-9.16195e-06 4.12957e-06 0.000458976
0.0015555 -0.000108074 -1.72744e-05
-0.000108074 0.000269102 4.30651e-06
-1.72744e-05 4.30651e-06 0.000168572
0.00116655 -8.95124e-05 -6.3258e-06
-8.95124e-05 -4.79154e-05 1.65919e-06
-6.3258e-06 1.65919e-06 -0.000167322
0.00175117 -0.00015175 -6.27079e-06
-0.00015175 0.000320352 1.57482e-06
-6.27079e-06 1.57482e-06 0.000195034
0.000674794 -0.000126493 -4.26153e-06
-0.000126493 -0.000158322 1.52949e-06
-4.26153e-06 1.52949e-06 -0.00029627
0.00132248 -0.000160802 -2.2113e-06
-0.000160802 6.88358e-05 -7.66629e-08
-2.2113e-06 -7.66629e-08 -7.37337e-05
0.00060568 4.10769e-05 -3.44991e-06
4.10769e-05 -2.88671e-05 5.92517e-06
-3.44991e-06 5.92517e-06 -6.46103e-05
0.000683927 -1.51167e-06 -1.79945e-06
-1.51167e-06 -5.69159e-06 2.73155e-06
-1.79945e-06 2.73155e-06 -7.6841e-05
0.000977217 -4.07768e-06 -4.69521e-07
-4.07768e-06 -0.000103032 -2.68801e-07
-4.69521e-07 -2.68801e-07 -0.000210124
0.00160739 -4.21685e-05 -3.57977e-06
-4.21685e-05 0.000264212 2.73761e-07
-3.57977e-06 2.73761e-07 0.000165059
0.00175702 -2.13736e-05 -2.27686e-06
-2.13736e-05 0.000249742 4.37121e-07
-2.27686e-06 4.37121e-07 0.000133778
0.00153483 -7.70117e-05 1.02311e-06
-7.70117e-05 0.000150494 -3.56802e-07
1.02311e-06 -3.56802e-07 3.25049e-05
0.000581052 2.59474e-05 1.51413e-07
2.59474e-05 -4.53951e-05 1.53725e-07
1.51413e-07 1.53725e-07 -8.5005e-05
0.000820124 -7.83833e-05 -1.47152e-07
-7.83833e-05 6.7797e-05 1.65335e-07
-1.47152e-07 1.65335e-07 -2.66003e-05
0.000702187 -0.000126825 1.16903e-06
-0.000126825 -6.20662e-05 -1.17616e-06
1.16903e-06 -1.17616e-06 -0.000194632
0.0017412 -0.000133738 -1.28169e-06
-0.000133738 0.000285079 3.06552e-07
-1.28169e-06 3.06552e-07 0.000163905
0.00155624 -0.00010043 -6.99151e-07
-0.00010043 0.0001167 4.34687e-07
-6.99151e-07 4.34687e-07 -3.6e-06
0.00153472 -0.000190437 -1.6142e-06
-0.000190437 0.000256959 6.23244e-07
-1.6142e-06 6.23244e-07 9.89883e-05
0.00144911 -0.000147439 2.26706e-07
-0.000147439 9.17578e-05 2.04289e-08
2.26706e-07 2.04289e-08 -4.0197e-05
0.00145797 -0.000171919 4.02135e-07
-0.000171919 9.00639e-05 3.53786e-07
4.02135e-07 3.53786e-07 -4.97804e-05
0.000738344 -2.22449e-05 -2.64562e-07
-2.22449e-05 3.01742e-05 -1.61875e-07
-2.64562e-07 -1.61875e-07 -5.27406e-05
0.00075024 -2.21528e-05 -7.22644e-07
-2.21528e-05 3.09867e-05 -3.44614e-07
-7.22644e-07 -3.44614e-07 -6.58223e-05
0.000695776 1.80542e-05 4.50585e-07
1.80542e-05 -1.54983e-06 2.7452e-07
4.50585e-07 2.7452e-07 -6.22394e-05
0.00184828 -4.97203e-06 3.08405e-06
-4.97203e-06 0.00029132 -4.46021e-07
3.08405e-06 -4.46021e-07 0.000174077
0.00168973 -4.71724e-05 3.80852e-06
-4.71724e-05 0.000218694 -5.4388e-07
3.80852e-06 -5.4388e-07 0.000101114
0.00173134 -2.3757e-05 6.15583e-07
-2.3757e-05 0.000173841 3.24553e-07
6.15583e-07 3.24553e-07 5.60711e-05
0.00155564 -7.51313e-05 5.35094e-07
-7.51313e-05 0.000106538 -6.83074e-07
5.35094e-07 -6.83074e-07 -1.43297e-05
0.00143542 -0.000126116 2.18087e-06
-0.000126116 5.90522e-05 -1.14002e-07
2.18087e-06 -1.14002e-07 -6.55456e-05
0.00167361 -0.000101924 -2.3462e-06
-0.000101924 0.000138254 7.92102e-07
-2.3462e-06 7.92102e-07 2.47541e-05
0.000725987 -4.54508e-05 2.39805e-06
-4.54508e-05 2.5931e-05 -1.98064e-06
2.39805e-06 -1.98064e-06 -6.36877e-05
0.00152635 -0.000153483 -5.48027e-07
-0.000153483 8.8337e-05 7.05537e-07
-5.48027e-07 7.05537e-07 -3.91189e-05
0.000881234 -0.000127772 1.166e-06
-0.000127772 8.16738e-05 -6.8504e-07
1.166e-06 -6.8504e-07 -3.84987e-05
0.000724617 -0.00014592 3.41327e-06
-0.00014592 -8.56851e-05 -4.04367e-06
3.41327e-06 -4.04367e-06 -0.00024432
0.00181319 -0.000214674 1.32373e-06
-0.000214674 0.000361437 1.26622e-06
1.32373e-06 1.26622e-06 0.000197966
0.0018661 -0.000196732 -2.86935e-06
-0.000196732 0.00026907 1.84413e-06
-2.86935e-06 1.84413e-06 0.000136313
0.00070944 1.54889e-05 1.45463e-06
1.54889e-05 3.29544e-06 -2.10152e-06
1.45463e-06 -2.10152e-06 -5.03332e-05
0.00083507 -7.35233e-05 1.29653e-06
-7.35233e-05 7.17637e-05 3.17916e-07
1.29653e-06 3.17916e-07 -2.94591e-05
0.00070487 -4.32449e-06 5.01816e-07
-4.32449e-06 1.28661e-05 -1.39235e-06
5.01816e-07 -1.39235e-06 -8.02791e-05
0.000982826 -0.000118651 -3.42292e-07
-0.000118651 0.00016405 1.36752e-06
-3.42292e-07 1.36752e-06 5.08251e-05
0.00111808 0.000100158 -1.08404e-05
0.000100158 9.90278e-06 -3.99598e-06
-1.08404e-05 -3.99598e-06 -0.000100529
0.000609101 -5.30874e-05 -1.78877e-06
-5.30874e-05 -3.38298e-05 -3.71271e-06
-1.78877e-06 -3.71271e-06 -5.2743e-05
0.000513376 -7.38247e-05 1.33382e-06
-7.38247e-05 -6.77211e-05 -6.05359e-06
1.33382e-06 -6.05359e-06 -0.000104325
0.000695864 -6.13215e-05 9.09385e-07
-6.13215e-05 1.55847e-05 -2.87489e-06
9.09385e-07 -2.87489e-06 -4.82081e-05
0.000989727 0.000122799 -7.76706e-06
0.000122799 1.25663e-05 -5.13076e-06
-7.76706e-06 -5.13076e-06 -0.00010033
0.00136254 0.000145886 -5.65258e-06
0.000145886 8.3616e-05 -1.79856e-06
-5.65258e-06 -1.79856e-06 -5.38039e-05
0.000713736 5.02477e-05 -2.12376e-06
5.02477e-05 2.06438e-05 -2.48139e-06
-2.12376e-06 -2.48139e-06 -7.09534e-05
0.000964655 0.000135877 -2.75402e-06
0.000135877 0.000113722 -2.30923e-06
-2.75402e-06 -2.30923e-06 -1.83233e-05
0.00129287 0.000162449 -2.84047e-06
0.000162449 0.000174442 -2.14953e-06
-2.84047e-06 -2.14953e-06 3.83377e-05
0.000932343 0.000155651 -1.3822e-06
0.000155651 2.68469e-05 6.20522e-07
-1.3822e-06 6.20522e-07 -0.000118171
0.000655741 -4.84079e-05 5.54811e-08
-4.84079e-05 -1.9005e-05 2.94391e-08
5.54811e-08 2.94391e-08 -3.35992e-05
0.000742058 2.10826e-05 2.22259e-07
2.10826e-05 3.99714e-05 -7.6657e-08
2.22259e-07 -7.6657e-08 -4.06829e-05
0.000681476 -5.81057e-05 -3.56296e-07
-5.81057e-05 1.48327e-06 4.09813e-07
-3.56296e-07 4.09813e-07 -4.9274e-05
0.000807537 1.16035e-05 3.96334e-07
1.16035e-05 8.03679e-05 -2.19873e-07
3.96334e-07 -2.19873e-07 -1.27101e-05
0.00138183 0.000118907 1.01831e-06
0.000118907 7.0566e-05 1.22012e-07
1.01831e-06 1.22012e-07 -6.08859e-05
0.00124169 0.000156617 1.51838e-07
0.000156617 7.77836e-05 1.41306e-07
1.51838e-07 1.41306e-07 -6.19837e-05
0.00149533 0.00015824 3.07757e-07
0.00015824 0.000101323 5.81666e-08
3.07757e-07 5.81666e-08 -4.49306e-05
0.000989123 0.00011369 3.48583e-07
0.00011369 0.000156096 4.00852e-07
3.48583e-07 4.00852e-07 3.71848e-05
0.00151306 0.000186882 -7.9259e-07
0.000186882 0.000259326 -1.74621e-06
-7.9259e-07 -1.74621e-06 0.000111917
0.00112147 0.000163093 3.07068e-07
0.000163093 0.000194295 -1.35319e-06
3.07068e-07 -1.35319e-06 3.6272e-05
0.000939436 0.000159392 -1.93902e-06
0.000159392 3.5754e-06 -4.06502e-07
-1.93902e-06 -4.06502e-07 -0.000140356
0.00068017 -4.38829e-05 1.58353e-06
-4.38829e-05 -1.4883e-05 3.44865e-06
1.58353e-06 3.44865e-06 -2.65198e-05
0.000709464 -4.96004e-05 5.13543e-07
-4.96004e-05 6.88906e-06 1.88192e-06
5.13543e-07 1.88192e-06 -3.52811e-05
0.000977874 6.63231e-05 1.6869e-06
6.63231e-05 0.000163028 9.06785e-07
1.6869e-06 9.06785e-07 5.71172e-05
0.000781889 1.7764e-05 6.28732e-08
1.7764e-05 6.05468e-05 1.37512e-06
6.28732e-08 1.37512e-06 -1.79281e-05
0.000889707 8.71527e-05 5.39658e-07
8.71527e-05 0.000137955 -1.06424e-07
5.39658e-07 -1.06424e-07 2.6295e-05
0.00155424 0.00012762 2.96363e-06
0.00012762 0.000110997 7.90834e-08
2.96363e-06 7.90834e-08 -2.56359e-05
0.00140548 0.000175218 1.45439e-06
0.000175218 0.000115238 3.83816e-06
1.45439e-06 3.83816e-06 -3.60538e-05
0.0016043 0.000175024 7.3478e-08
0.000175024 0.000126999 -1.18369e-07
7.3478e-08 -1.18369e-07 -1.93462e-05
0.00115666 0.000156778 2.52197e-06
0.000156778 0.000255085 3.17749e-06
2.52197e-06 3.17749e-06 0.000103604
0.00132886 0.000187465 1.49851e-06
0.000187465 0.000133963 2.62215e-06
1.49851e-06 2.62215e-06 -1.69224e-05
0.000339967 0.000121341 1.41309e-06
0.000121341 -0.000273388 -2.74398e-06
1.41309e-06 -2.74398e-06 -0.000438443
0.000732803 -3.07491e-05 1.61074e-06
-3.07491e-05 4.68161e-06 1.5436e-06
1.61074e-06 1.5436e-06 -3.07123e-05
0.000766531 1.0023e-05 5.66076e-07
1.0023e-05 3.50715e-05 5.46635e-07
5.66076e-07 5.46635e-07 -2.11755e-05
0.000749208 -1.9075e-05 9.7131e-07
-1.9075e-05 6.72064e-06 1.76782e-06
9.7131e-07 1.76782e-06 -2.70847e-05
0.000742484 -2.54635e-05 1.1197e-07
-2.54635e-05 6.65588e-06 -1.00444e-08
1.1197e-07 -1.00444e-08 -2.77974e-05
0.00125472 -4.14593e-05 1.54982e-06
-4.14593e-05 0.000293735 2.11237e-06
1.54982e-06 2.11237e-06 0.000289261
0.000970773 -4.20846e-05 7.97163e-07
-4.20846e-05 0.000140814 -3.72641e-08
7.97163e-07 -3.72641e-08 0.000132986
0.000944195 -3.66543e-05 2.35119e-05
-3.66543e-05 0.000132364 6.28073e-06
2.35119e-05 6.28073e-06 0.000141549
0.00209955 -6.36141e-05 1.48486e-06
-6.36141e-05 0.000789865 -1.22411e-07
1.48486e-06 -1.22411e-07 0.00080298
0.00211087 -7.12243e-05 -3.01536e-05
-7.12243e-05 0.000804412 -3.03694e-06
-3.01536e-05 -3.03694e-06 0.000815327
0.000620852 4.47461e-05 1.77465e-06
4.47461e-05 -4.01962e-05 -4.28096e-06
1.77465e-06 -4.28096e-06 -6.13554e-05
0.0025749 8.56787e-05 4.05086e-05
8.56787e-05 0.00106753 -3.18092e-06
4.05086e-05 -3.18092e-06 0.00107342
0.000617977 5.72116e-05 -3.41055e-08
5.72116e-05 -3.12727e-05 4.50917e-08
-3.41055e-08 4.50917e-08 -5.78181e-05
0.00276406 9.36464e-05 -1.94167e-06
9.36464e-05 0.00117713 -1.7105e-07
-1.94167e-06 -1.7105e-07 0.00118097
0.00061616 5.74436e-05 -7.08897e-07
5.74436e-05 -2.45205e-05 5.73264e-06
-7.08897e-07 5.73264e-06 -5.60657e-05
0.00300135 9.82168e-05 -6.62781e-05
9.82168e-05 0.00131147 2.91471e-06
-6.62781e-05 2.91471e-06 0.00131351
0.00114953 8.2521e-05 -1.05744e-05
8.2521e-05 1.70078e-05 -3.22782e-06
-1.05744e-05 -3.22782e-06 -9.09686e-05
0.00116278 4.75135e-05 -1.03007e-05
4.75135e-05 1.67419e-05 -2.23937e-06
-1.03007e-05 -2.23937e-06 -8.86549e-05
0.00140811 7.29245e-05 -4.58515e-06
7.29245e-05 7.09288e-05 -6.5411e-07
-4.58515e-06 -6.5411e-07 -5.14286e-05
0.00143754 3.10519e-05 -4.55333e-06
3.10519e-05 6.9381e-05 -9.24738e-07
-4.55333e-06 -9.24738e-07 -5.20224e-05
0.00119036 1.78012e-05 -1.09507e-05
1.78012e-05 1.30938e-05 -9.52612e-07
-1.09507e-05 -9.52612e-07 -9.35184e-05
0.000691823 1.22655e-05 -1.59766e-05
1.22655e-05 -0.000101257 -2.25889e-07
-1.59766e-05 -2.25889e-07 -0.000163499
0.00118325 1.62504e-06 2.15593e-08
1.62504e-06 7.72429e-06 -1.32286e-07
2.15593e-08 -1.32286e-07 -9.87366e-05
0.00144505 2.08804e-05 -7.75296e-08
2.08804e-05 6.47175e-05 -9.61493e-08
-7.75296e-08 -9.61493e-08 -5.68423e-05
0.0014255 4.98517e-05 6.37148e-08
4.98517e-05 7.51419e-05 -2.78242e-08
6.37148e-08 -2.78242e-08 -4.60651e-05
0.00160183 3.75624e-05 -9.46234e-08
3.75624e-05 9.361e-05 2.84623e-08
-9.46234e-08 2.84623e-08 -2.39366e-05
0.00140501 9.50366e-05 -1.32891e-07
9.50366e-05 7.15218e-05 -1.82709e-07
-1.32891e-07 -1.82709e-07 -5.45248e-05
0.00154571 7.98602e-05 -1.58149e-07
7.98602e-05 9.43945e-05 1.99067e-07
-1.58149e-07 1.99067e-07 -2.81554e-05
0.00144181 6.13183e-06 4.55916e-06
6.13183e-06 6.18395e-05 -5.76145e-08
4.55916e-06 -5.76145e-08 -5.94234e-05
0.00162293 2.80287e-05 -1.17756e-07
2.80287e-05 8.58826e-05 2.68352e-07
-1.17756e-07 2.68352e-07 -3.12464e-05
0.00152099 5.86989e-05 4.16303e-07
5.86989e-05 6.5952e-05 1.64905e-07
4.16303e-07 1.64905e-07 -5.38893e-05
0.00171533 4.74059e-05 -9.39949e-07
4.74059e-05 0.000100238 2.01448e-07
-9.39949e-07 2.01448e-07 -8.33491e-06
0.00157771 9.81005e-05 7.66272e-07
9.81005e-05 0.000115416 -5.46561e-07
7.66272e-07 -5.46561e-07 -1.2401e-05
0.00165317 8.69298e-05 -2.59879e-06
8.69298e-05 9.75632e-05 -3.77659e-07
-2.59879e-06 -3.77659e-07 -1.16286e-05
0.000778226 -1.81267e-06 -1.05682e-05
-1.81267e-06 -0.000211775 6.32617e-07
-1.05682e-05 6.32617e-07 -0.000320094
0.00163512 -4.53879e-05 -1.73388e-05
-4.53879e-05 0.000278806 2.34142e-06
-1.73388e-05 2.34142e-06 0.000179574
0.0016819 -1.47625e-05 -7.47615e-06
-1.47625e-05 0.000206612 9.43952e-07
-7.47615e-06 9.43952e-07 9.05156e-05
0.00187596 -8.3343e-05 -4.85878e-06
-8.3343e-05 0.000338278 1.15348e-06
-4.85878e-06 1.15348e-06 0.000222193
0.000646773 1.59488e-05 -5.61078e-06
1.59488e-05 -9.89903e-06 6.10544e-06
-5.61078e-06 6.10544e-06 -5.01292e-05
0.000915611 -8.76588e-05 -4.2213e-06
-8.76588e-05 0.000120812 2.65522e-06
-4.2213e-06 2.65522e-06 2.48228e-05
0.000901854 -0.000139156 -9.6932e-07
-0.000139156 5.06239e-05 8.24911e-07
-9.6932e-07 8.24911e-07 -8.1201e-05
0.00183159 -0.000135063 -7.02196e-06
-0.000135063 0.000334928 1.64997e-06
-7.02196e-06 1.64997e-06 0.000214024
0.00142466 -9.54495e-05 -1.56636e-06
-9.54495e-05 4.18746e-05 6.49902e-07
-1.56636e-06 6.49902e-07 -7.80246e-05
0.00142976 -0.000146024 -2.18482e-06
-0.000146024 8.19416e-05 2.34713e-07
-2.18482e-06 2.34713e-07 -4.98158e-05
0.00108986 -0.000164861 -3.51518e-06
-0.000164861 1.20683e-05 1.46232e-06
-3.51518e-06 1.46232e-06 -0.000145287
0.00132526 -0.00016546 9.6055e-07
-0.00016546 1.62967e-05 -1.15232e-06
9.6055e-07 -1.15232e-06 -0.000123073
0.000709112 -2.49189e-05 -2.5304e-06
-2.49189e-05 1.1883e-05 2.37634e-06
-2.5304e-06 2.37634e-06 -7.02053e-05
0.000713319 -1.25289e-05 -1.42902e-06
-1.25289e-05 1.10177e-05 4.89423e-09
-1.42902e-06 4.89423e-09 -8.54391e-05
0.000700428 1.12988e-05 -1.07321e-06
1.12988e-05 -2.26393e-07 2.55306e-06
-1.07321e-06 2.55306e-06 -6.08549e-05
0.00165096 -3.61068e-06 -2.29637e-06
-3.61068e-06 0.000181088 1.41882e-07
-2.29637e-06 1.41882e-07 6.21663e-05
0.00167493 -5.18654e-05 -1.49103e-06
-5.18654e-05 0.000210826 2.2479e-07
-1.49103e-06 2.2479e-07 9.29071e-05
0.001627 -2.04606e-05 -6.36663e-07
-2.04606e-05 0.00011393 2.19682e-07
-6.36663e-07 2.19682e-07 -3.22848e-06
0.00164457 -7.4429e-05 -3.14292e-07
-7.4429e-05 0.000152306 -1.46742e-07
-3.14292e-07 -1.46742e-07 3.18496e-05
0.000771567 -5.21602e-05 -2.6555e-09
-5.21602e-05 5.01584e-05 -1.77369e-07
-2.6555e-09 -1.77369e-07 -4.00416e-05
0.000999618 -0.000136524 -3.36361e-07
-0.000136524 0.000144159 5.56753e-07
-3.36361e-07 5.56753e-07 2.27366e-05
0.000838114 -0.000150242 8.95994e-07
-0.000150242 -1.59806e-05 -1.64537e-06
8.95994e-07 -1.64537e-06 -0.000172552
0.0015806 -0.00013104 2.60973e-07
-0.00013104 0.000140607 -7.66709e-08
2.60973e-07 -7.66709e-08 1.57394e-05
0.00162672 -9.9554e-05 3.05356e-07
-9.9554e-05 0.000111317 4.10796e-07
3.05356e-07 4.10796e-07 -3.32882e-07
0.00148798 -0.000197458 -3.57635e-07
-0.000197458 0.000184436 8.51691e-07
-3.57635e-07 8.51691e-07 2.04808e-05
0.0015525 -0.000154084 -2.84711e-08
-0.000154084 0.000100591 1.49745e-07
-2.84711e-08 1.49745e-07 -2.6738e-05
0.00174192 -0.000190383 4.51136e-07
-0.000190383 0.00019914 -4.39651e-07
4.51136e-07 -4.39651e-07 6.81888e-05
0.000912731 -8.15645e-05 -1.75244e-07
-8.15645e-05 0.000116767 -5.46452e-08
-1.75244e-07 -5.46452e-08 1.35957e-05
0.000948341 -0.000117627 -3.50553e-07
-0.000117627 0.00014625 3.72432e-07
-3.50553e-07 3.72432e-07 3.15114e-05
0.000715481 9.78477e-06 1.62595e-07
9.78477e-06 6.28248e-06 1.24162e-07
1.62595e-07 1.24162e-07 -4.74696e-05
0.000661191 1.62991e-05 -1.05261e-07
1.62991e-05 -1.53806e-05 -5.62743e-07
-1.05261e-07 -5.62743e-07 -0.000103884
0.00163213 -9.84364e-06 9.93963e-07
-9.84364e-06 0.000106551 -2.70475e-07
9.93963e-07 -2.70475e-07 -1.19452e-05
0.00183886 -4.8957e-05 3.84495e-07
-4.8957e-05 0.000240401 3.40234e-07
3.84495e-07 3.40234e-07 0.000122058
0.00171113 -3.57859e-05 2.88244e-08
-3.57859e-05 0.000100356 1.84755e-07
2.88244e-08 1.84755e-07 -1.16853e-05
0.00167157 -8.34381e-05 -2.88155e-06
-8.34381e-05 0.000115835 -3.66302e-08
-2.88155e-06 -3.66302e-08 7.82926e-06
0.00163834 -0.000129556 -1.96202e-06
-0.000129556 0.000125165 1.10554e-06
-1.96202e-06 1.10554e-06 8.01658e-06
0.00168829 -0.000101847 -8.54107e-07
-0.000101847 0.000101456 1.96646e-07
-8.54107e-07 1.96646e-07 6.65684e-07
0.000854323 -0.000119498 1.14756e-06
-0.000119498 8.04172e-05 3.25615e-07
1.14756e-06 3.25615e-07 -2.91258e-05
0.00161496 -0.000164393 -3.78551e-06
-0.000164393 9.42239e-05 1.26517e-06
-3.78551e-06 1.26517e-06 -2.22482e-05
0.000483802 -0.000116482 -5.34159e-07
-0.000116482 -0.000140667 -3.18153e-06
-5.34159e-07 -3.18153e-06 -0.000280294
0.00137942 -0.000199078 2.71945e-06
-0.000199078 0.000238889 -1.84364e-06
2.71945e-06 -1.84364e-06 5.95788e-05
0.00181384 -0.000221213 -6.37168e-07
-0.000221213 0.000306161 2.67914e-06
-6.37168e-07 2.67914e-06 0.00014619
0.00189714 -0.000202682 -1.42883e-06
-0.000202682 0.000247916 6.6161e-07
-1.42883e-06 6.6161e-07 0.000120613
0.000721144 5.22197e-06 1.94114e-06
5.22197e-06 6.30395e-06 -2.04323e-06
1.94114e-06 -2.04323e-06 -4.28901e-05
0.000658286 6.4372e-06 3.02174e-07
6.4372e-06 -8.08809e-06 -1.2897e-06
3.02174e-07 -1.2897e-06 -9.5256e-05
0.000913366 -0.000132977 1.29202e-07
-0.000132977 0.000122322 1.69223e-06
1.29202e-07 1.69223e-06 5.23587e-06
0.000913386 -8.59067e-05 1.25674e-06
-8.59067e-05 0.000130914 1.65921e-07
1.25674e-06 1.65921e-07 2.46473e-05
0.000950349 -0.000136539 -9.06082e-07
-0.000136539 0.000145357 2.52417e-06
-9.06082e-07 2.52417e-06 2.58599e-05
0.000631763 -4.68734e-05 -1.85647e-06
-4.68734e-05 -3.22431e-05 -3.51132e-06
-1.85647e-06 -3.51132e-06 -4.66084e-05
0.00139544 0.000120089 -4.20601e-06
0.000120089 7.75011e-05 -1.37886e-06
-4.20601e-06 -1.37886e-06 -5.41731e-05
0.000681363 -6.37676e-05 -2.39094e-07
-6.37676e-05 2.43047e-06 -1.88281e-06
-2.39094e-07 -1.88281e-06 -4.89518e-05
0.00075381 3.53264e-06 -2.20595e-07
3.53264e-06 4.50506e-05 -2.88915e-06
-2.20595e-07 -2.88915e-06 -3.33799e-05
0.000806723 -9.3827e-06 1.08666e-06
-9.3827e-06 7.86427e-05 -9.77748e-07
1.08666e-06 -9.77748e-07 -1.25316e-05
0.00124492 0.000157801 -4.93379e-06
0.000157801 8.06192e-05 -2.78643e-06
-4.93379e-06 -2.78643e-06 -5.94243e-05
0.00148075 0.000157565 -2.28399e-06
0.000157565 9.55989e-05 -3.40897e-07
-2.28399e-06 -3.40897e-07 -5.08631e-05
0.000888491 0.000121229 -1.47086e-06
0.000121229 0.000103923 -1.0391e-06
-1.47086e-06 -1.0391e-06 -1.58258e-05
0.00134818 0.000179119 -1.80119e-06
0.000179119 0.000319756 -1.4635e-06
-1.80119e-06 -1.4635e-06 0.000158983
0.00171489 0.000198227 -1.95442e-06
0.000198227 0.000370988 -4.10753e-06
-1.95442e-06 -4.10753e-06 0.000223023
0.00102628 0.000164343 -3.64071e-06
0.000164343 5.4841e-05 5.29017e-07
-3.64071e-06 5.29017e-07 -8.48146e-05
0.000662317 -4.26653e-05 5.67981e-08
-4.26653e-05 -2.47091e-05 7.13402e-09
5.67981e-08 7.13402e-09 -3.62231e-05
0.000711327 -5.12973e-05 -3.59608e-07
-5.12973e-05 8.08957e-06 1.40198e-07
-3.59608e-07 1.40198e-07 -3.42018e-05
0.000920572 6.99541e-05 6.85391e-07
6.99541e-05 0.000133184 -5.32885e-08
6.85391e-07 -5.32885e-08 2.70738e-05
0.000772761 -1.84197e-05 -2.83338e-07
-1.84197e-05 5.40268e-05 1.74654e-07
-2.83338e-07 1.74654e-07 -2.23983e-05
0.000814172 6.19064e-05 7.3709e-07
6.19064e-05 9.27059e-05 -2.73049e-07
7.3709e-07 -2.73049e-07 -1.72991e-05
0.00151758 0.000126903 1.16329e-06
0.000126903 9.14635e-05 3.68286e-08
1.16329e-06 3.68286e-08 -4.54974e-05
0.00138721 0.000175078 -1.42371e-07
0.000175078 0.000106835 1.49345e-06
-1.42371e-07 1.49345e-06 -4.47079e-05
0.0015998 0.00017667 1.37978e-06
0.00017667 0.000123766 3.72879e-07
1.37978e-06 3.72879e-07 -2.34058e-05
0.001028 0.000147329 1.29242e-06
0.000147329 0.00018702 1.31893e-06
1.29242e-06 1.31893e-06 3.71913e-05
0.00150876 0.000196515 1.33849e-06
0.000196515 0.000233445 -1.68116e-06
1.33849e-06 -1.68116e-06 8.2736e-05
0.000768967 0.000150127 -1.94221e-06
0.000150127 -4.33301e-05 -1.14951e-06
-1.94221e-06 -1.14951e-06 -0.000211526
0.000730577 -3.88459e-05 1.47411e-06
-3.88459e-05 9.55472e-06 1.56287e-06
1.47411e-06 1.56287e-06 -2.80617e-05
0.000791846 9.36239e-06 3.91442e-07
9.36239e-06 5.40392e-05 1.107e-06
3.91442e-07 1.107e-06 -9.56214e-06
0.00102125 0.000136839 -6.54244e-07
0.000136839 0.00019827 -2.04486e-07
-6.54244e-07 -2.04486e-07 6.77304e-05
0.000842181 1.57882e-05 1.92634e-07
1.57882e-05 0.000101955 6.4516e-07
1.92634e-07 6.4516e-07 9.11151e-06
0.00108408 7.1088e-05 -1.93103e-06
7.1088e-05 0.000237165 -2.73709e-06
-1.93103e-06 -2.73709e-06 0.00011873
0.00155544 0.000128174 -2.18408e-06
0.000128174 7.58679e-05 -2.27347e-06
-2.18408e-06 -2.27347e-06 -5.45169e-05
0.00143027 0.000190121 9.69101e-07
0.000190121 9.19561e-05 3.70895e-06
9.69101e-07 3.70895e-06 -6.21166e-05
0.00148095 0.000189612 -2.29486e-06
0.000189612 2.75535e-05 -1.4681e-06
-2.29486e-06 -1.4681e-06 -0.000108984
0.000912311 0.000146265 -2.84299e-07
0.000146265 0.000131108 7.99099e-07
-2.84299e-07 7.99099e-07 -4.7538e-05
0.00128815 0.000197567 2.33758e-06
0.000197567 0.000138466 5.06253e-07
2.33758e-06 5.06253e-07 -2.74931e-05
0.00073519 -3.02361e-05 1.74481e-08
-3.02361e-05 6.43724e-06 -1.00829e-08
1.74481e-08 -1.00829e-08 -2.90332e-05
0.000658033 -9.97782e-06 1.23735e-06
-9.97782e-06 -2.93745e-05 9.16294e-07
1.23735e-06 9.16294e-07 -8.35334e-05
0.00069955 -2.27138e-05 -6.23708e-07
-2.27138e-05 -3.91939e-06 -7.89482e-08
-6.23708e-07 -7.89482e-08 -5.92007e-05
0.000943534 2.89715e-05 1.17639e-06
2.89715e-05 0.000143911 -4.53709e-07
1.17639e-06 -4.53709e-07 7.57228e-05
0.000786517 2.43355e-05 1.69942e-06
2.43355e-05 4.31746e-05 6.81572e-07
1.69942e-06 6.81572e-07 -1.2079e-05
0.000750678 -8.16266e-06 9.96156e-07
-8.16266e-06 5.5862e-06 1.71777e-06
9.96156e-07 1.71777e-06 -2.83894e-05
0.000751331 -1.95361e-05 -7.37484e-08
-1.95361e-05 8.24232e-06 2.15844e-09
-7.37484e-08 2.15844e-09 -2.56399e-05
0.00125672 -3.3442e-05 1.03675e-06
-3.3442e-05 0.000288554 2.13958e-06
1.03675e-06 2.13958e-06 0.000285641
0.00074847 -2.51107e-05 -1.25113e-06
-2.51107e-05 1.02709e-05 -1.75689e-06
-1.25113e-06 -1.75689e-06 -2.42838e-05
0.00127483 -3.90688e-05 -4.51329e-06
-3.90688e-05 0.000304363 -1.20373e-06
-4.51329e-06 -1.20373e-06 0.000300228
0.000936776 -3.06197e-05 2.07312e-05
-3.06197e-05 0.000119287 6.47394e-06
2.07312e-05 6.47394e-06 0.000130646
0.0012663 -4.38367e-05 -9.78165e-06
-4.38367e-05 0.000306971 -3.17041e-06
-9.78165e-06 -3.17041e-06 0.000301089
0.00148892 -4.59389e-05 1.89903e-05
-4.59389e-05 0.000438517 1.95392e-06
1.89903e-05 1.95392e-06 0.000450763
0.00208598 -6.29347e-05 -2.68496e-05
-6.29347e-05 0.000781054 -3.33819e-06
-2.68496e-05 -3.33819e-06 0.000794444
0.000638396 3.97209e-05 1.54355e-06
3.97209e-05 -3.84149e-05 -4.06423e-06
1.54355e-06 -4.06423e-06 -5.59858e-05
0.000635517 4.70634e-05 -9.18886e-08
4.70634e-05 -3.13831e-05 3.60161e-08
-9.18886e-08 3.60161e-08 -5.30053e-05
0.00246468 7.63973e-05 3.48367e-05
7.63973e-05 0.000999321 -3.48185e-06
3.48367e-05 -3.48185e-06 0.00100764
0.00262241 8.55036e-05 -2.03299e-06
8.55036e-05 0.00109376 -1.7676e-07
-2.03299e-06 -1.7676e-07 0.00109971
0.000637186 5.48375e-05 -4.88229e-07
5.48375e-05 -2.08365e-05 5.06493e-06
-4.88229e-07 5.06493e-06 -4.72457e-05
0.00281605 9.08949e-05 -5.70011e-05
9.08949e-05 0.00120502 2.95618e-06
-5.70011e-05 2.95618e-06 0.00120945
0.00141934 9.5925e-05 -4.86647e-06
9.5925e-05 7.85375e-05 -1.04402e-06
-4.86647e-06 -1.04402e-06 -4.76162e-05
0.00142091 5.06786e-05 -4.53109e-06
5.06786e-05 7.31049e-05 -1.13723e-06
-4.53109e-06 -1.13723e-06 -4.83256e-05
0.00153627 7.98866e-05 -6.64728e-07
7.98866e-05 9.16506e-05 4.83267e-07
-6.64728e-07 4.83267e-07 -3.10384e-05
0.00163732 3.85574e-05 -4.21636e-07
3.85574e-05 0.000111451 -2.08619e-07
-4.21636e-07 -2.08619e-07 -5.10605e-06
0.0014394 2.40547e-05 -4.35196e-06
2.40547e-05 6.23057e-05 -4.69701e-07
-4.35196e-06 -4.69701e-07 -5.93563e-05
0.00118759 6.4925e-06 -1.07461e-05
6.4925e-06 9.78636e-06 -1.49184e-07
-1.07461e-05 -1.49184e-07 -9.66468e-05
0.00145034 9.95131e-06 7.13927e-08
9.95131e-06 6.6198e-05 -8.58938e-08
7.13927e-08 -8.58938e-08 -5.51288e-05
0.00163656 1.79965e-05 -4.03212e-07
1.79965e-05 9.28628e-05 -1.07991e-08
-4.03212e-07 -1.07991e-08 -2.42069e-05
0.00155923 5.79065e-05 -5.94377e-08
5.79065e-05 8.90085e-05 2.54271e-08
-5.94377e-08 2.54271e-08 -3.07071e-05
0.00176155 4.99407e-05 5.32065e-07
4.99407e-05 0.000123121 4.027e-07
5.32065e-07 4.027e-07 1.64137e-05
0.00153024 9.81094e-05 -1.48393e-07
9.81094e-05 8.90067e-05 -6.64704e-08
-1.48393e-07 -6.64704e-08 -3.92336e-05
0.00164696 8.62004e-05 -9.79207e-08
8.62004e-05 9.3729e-05 5.83697e-07
-9.79207e-08 5.83697e-07 -1.39431e-05
0.00163885 -1.02494e-06 6.83069e-07
-1.02494e-06 9.82801e-05 9.64597e-08
6.83069e-07 9.64597e-08 -1.91552e-05
0.00175131 3.73523e-05 -3.63783e-07
3.73523e-05 9.88526e-05 5.9206e-07
-3.63783e-07 5.9206e-07 -1.02333e-05
0.00170074 7.01356e-05 -2.56633e-06
7.01356e-05 0.000105499 -1.06365e-07
-2.56633e-06 -1.06365e-07 7.45106e-07
0.00180386 5.68334e-05 -3.0435e-07
5.68334e-05 0.000125426 1.86117e-07
-3.0435e-07 1.86117e-07 2.75769e-05
0.00155872 9.27599e-05 -1.91478e-06
9.27599e-05 5.3763e-05 -1.57257e-06
-1.91478e-06 -1.57257e-06 -6.20844e-05
0.00188562 9.72426e-05 -2.64553e-07
9.72426e-05 0.000182243 -3.07846e-08
-2.64553e-07 -3.07846e-08 8.63416e-05
0.00145111 -2.70197e-06 -6.33269e-06
-2.70197e-06 6.94812e-05 6.00335e-07
-6.33269e-06 6.00335e-07 -5.11182e-05
0.0016614 -5.34519e-05 -6.70935e-06
-5.34519e-05 0.00020359 1.11697e-06
-6.70935e-06 1.11697e-06 8.54507e-05
0.00152345 -1.89907e-05 -1.5598e-06
-1.89907e-05 5.43968e-05 4.99689e-08
-1.5598e-06 4.99689e-08 -6.21954e-05
0.0017317 -7.42425e-05 -1.3043e-06
-7.42425e-05 0.000197141 4.68472e-07
-1.3043e-06 4.68472e-07 7.70664e-05
0.000833541 -6.12478e-05 -3.30925e-06
-6.12478e-05 8.2711e-05 2.07822e-06
-3.30925e-06 2.07822e-06 -7.79431e-06
0.00112158 -0.000145464 -1.91509e-06
-0.000145464 0.000208747 1.84827e-06
-1.91509e-06 1.84827e-06 8.6026e-05
0.000968624 -0.000155274 -1.14144e-06
-0.000155274 6.31964e-05 1.10394e-06
-1.14144e-06 1.10394e-06 -9.13861e-05
0.00172204 -0.000135775 -2.00601e-06
-0.000135775 0.00022016 1.58466e-07
-2.00601e-06 1.58466e-07 9.5034e-05
0.00157593 -9.71414e-05 2.16118e-06
-9.71414e-05 8.22922e-05 -3.3958e-07
2.16118e-06 -3.3958e-07 -2.74973e-05
0.00157221 -0.000154379 8.96345e-07
-0.000154379 0.000109691 -4.76951e-07
8.96345e-07 -4.76951e-07 -1.74954e-05
0.0011623 -0.000180225 -2.15418e-06
-0.000180225 6.97131e-06 -1.4801e-07
-2.15418e-06 -1.4801e-07 -0.00015744
0.00161585 -0.000183809 4.21582e-06
-0.000183809 0.000127951 -2.68739e-06
4.21582e-06 -2.68739e-06 -1.13278e-06
0.000934617 -7.47745e-05 -1.26881e-06
-7.47745e-05 0.000128448 -3.65544e-07
-1.26881e-06 -3.65544e-07 2.60344e-05
0.000875251 -8.78524e-05 -9.49025e-07
-8.78524e-05 9.9539e-05 -7.97995e-07
-9.49025e-07 -7.97995e-07 -1.04685e-05
0.000718751 7.30616e-06 -1.47667e-06
7.30616e-06 7.62361e-06 2.1852e-06
-1.47667e-06 2.1852e-06 -4.61875e-05
0.000642873 2.9435e-05 1.47005e-07
2.9435e-05 -2.74655e-05 2.01147e-07
1.47005e-07 2.01147e-07 -0.000113214
0.00160993 -9.37714e-06 -1.45097e-08
-9.37714e-06 9.30376e-05 -1.15804e-07
-1.45097e-08 -1.15804e-07 -2.55109e-05
0.00177289 -4.66665e-05 -6.73855e-07
-4.66665e-05 0.000202418 2.56044e-07
-6.73855e-07 2.56044e-07 8.31028e-05
0.00169275 -3.49364e-05 8.68697e-08
-3.49364e-05 9.38361e-05 -1.59573e-07
8.68697e-08 -1.59573e-07 -1.76064e-05
0.00163398 -8.21612e-05 -2.92092e-07
-8.21612e-05 9.96423e-05 2.38945e-08
-2.92092e-07 2.38945e-08 -9.74352e-06
0.000955242 -0.00011168 -3.30089e-07
-0.00011168 0.000132839 3.56732e-07
-3.30089e-07 3.56732e-07 2.44645e-05
0.000657673 -0.000126257 8.06742e-07
-0.000126257 -4.34367e-05 -1.11004e-06
8.06742e-07 -1.11004e-06 -0.000181235
0.00133106 -0.000194356 -3.72385e-07
-0.000194356 0.000216433 3.86777e-07
-3.72385e-07 3.86777e-07 3.55612e-05
0.00163818 -0.000130236 -7.69812e-07
-0.000130236 0.000126607 2.39283e-07
-7.69812e-07 2.39283e-07 7.93891e-06
0.00164362 -0.000101411 1.29359e-06
-0.000101411 7.71543e-05 -4.31518e-07
1.29359e-06 -4.31518e-07 -2.18414e-05
0.00163998 -0.000211803 -6.13737e-07
-0.000211803 0.000208777 9.43747e-07
-6.13737e-07 9.43747e-07 4.9806e-05
0.00164415 -0.000165277 -3.29644e-07
-0.000165277 0.000109313 2.39016e-07
-3.29644e-07 2.39016e-07 -7.1138e-06
0.00171662 -0.000193868 2.21901e-06
-0.000193868 0.000149606 -1.88193e-06
2.21901e-06 -1.88193e-06 2.35458e-05
0.000983379 -0.00013789 1.61825e-07
-0.00013789 0.000160444 1.92858e-07
1.61825e-07 1.92858e-07 4.27588e-05
0.000985484 -0.00013119 4.06807e-07
-0.00013119 0.000161366 3.91673e-07
4.06807e-07 3.91673e-07 4.35812e-05
0.000877887 -5.92858e-05 -3.35345e-07
-5.92858e-05 0.000108336 -8.90377e-08
-3.35345e-07 -8.90377e-08 5.06165e-06
0.000594115 1.67309e-05 -4.87668e-07
1.67309e-05 -6.34199e-05 6.30733e-08
-4.87668e-07 6.30733e-08 -0.000114109
0.000642367 2.40094e-05 1.18508e-07
2.40094e-05 -2.169e-05 -4.30089e-07
1.18508e-07 -4.30089e-07 -0.000104648
0.00178589 -2.37347e-05 1.92824e-08
-2.37347e-05 0.000122845 -5.31658e-08
1.92824e-08 -5.31658e-08 1.34012e-05
0.0017163 -5.14211e-05 -6.4042e-07
-5.14211e-05 0.000101962 2.34116e-07
-6.4042e-07 2.34116e-07 -5.7267e-06
0.00173353 -9.59439e-05 -2.22926e-06
-9.59439e-05 0.000106505 -4.5845e-07
-2.22926e-06 -4.5845e-07 1.43116e-05
0.00157574 -0.000126246 -2.13833e-06
-0.000126246 3.77045e-05 8.71132e-07
-2.13833e-06 8.71132e-07 -6.41359e-05
0.000872293 -0.000133198 -6.13929e-07
-0.000133198 9.53836e-05 7.25898e-07
-6.13929e-07 7.25898e-07 -2.75175e-05
0.00202001 -0.000197132 -2.3413e-06
-0.000197132 0.000272073 1.29846e-06
-2.3413e-06 1.29846e-06 0.00015909
9.09239e-05 -9.54875e-05 -4.29076e-07
-9.54875e-05 -0.000351745 -4.81397e-06
-4.29076e-07 -4.81397e-06 -0.000504821
0.00168769 -0.000230292 2.56865e-06
-0.000230292 0.000349889 -1.71045e-07
2.56865e-06 -1.71045e-07 0.000158432
0.00177506 -0.000224712 -7.59464e-08
-0.000224712 0.0002148 1.45574e-06
-7.59464e-08 1.45574e-06 6.42586e-05
0.000465383 2.06367e-05 1.32435e-06
2.06367e-05 -0.000136957 -2.82216e-06
1.32435e-06 -2.82216e-06 -0.000185244
0.000878334 -9.02086e-06 1.45358e-06
-9.02086e-06 0.000111986 -7.17868e-07
1.45358e-06 -7.17868e-07 3.39847e-05
0.000929525 -3.94982e-05 -2.36519e-07
-3.94982e-05 0.000142056 1.00249e-07
-2.36519e-07 1.00249e-07 4.72203e-05
0.000979558 -0.000139279 -1.54932e-06
-0.000139279 0.000154151 2.33075e-06
-1.54932e-06 2.33075e-06 3.48053e-05
0.000971183 -8.90991e-05 7.13076e-07
-8.90991e-05 0.000156758 1.74735e-06
7.13076e-07 1.74735e-06 4.44053e-05
0.00084003 -0.000131111 -5.6552e-07
-0.000131111 7.23216e-05 1.86368e-06
-5.6552e-07 1.86368e-06 -4.69323e-05
0.000647028 -4.16403e-05 -1.62752e-06
-4.16403e-05 -3.30554e-05 -3.48792e-06
-1.62752e-06 -3.48792e-06 -4.44774e-05
0.000708791 -4.96002e-05 -1.61814e-06
-4.96002e-05 5.95228e-06 -1.422e-06
-1.61814e-06 -1.422e-06 -3.59008e-05
0.00148543 0.0001263 -9.90478e-07
0.0001263 7.44409e-05 -1.30863e-07
-9.90478e-07 -1.30863e-07 -6.28397e-05
0.000771779 -5.65094e-05 7.28005e-07
-5.65094e-05 5.20212e-05 -1.12859e-06
7.28005e-07 -1.12859e-06 -2.24308e-05
0.000814629 6.10366e-05 -1.01952e-07
6.10366e-05 7.3712e-05 -4.44332e-07
-1.01952e-07 -4.44332e-07 -2.98744e-05
0.000721916 3.60973e-05 1.29642e-06
3.60973e-05 3.77909e-05 7.82692e-11
1.29642e-06 7.82692e-11 -7.00481e-05
0.00136379 0.000174557 -2.35812e-06
0.000174557 9.57793e-05 -1.07545e-06
-2.35812e-06 -1.07545e-06 -5.59794e-05
0.00160913 0.000178794 7.29305e-07
0.000178794 0.000128465 5.43553e-07
7.29305e-07 5.43553e-07 -1.9512e-05
0.000937919 0.000140429 3.95514e-07
0.000140429 0.00013973 -5.4334e-07
3.95514e-07 -5.4334e-07 -8.51218e-06
0.00125128 0.000182345 -3.34322e-07
0.000182345 0.000214983 -1.8041e-07
-3.34322e-07 -1.8041e-07 4.54078e-05
0.0016625 0.000204375 -2.80896e-06
0.000204375 0.000319011 -4.5069e-06
-2.80896e-06 -4.5069e-06 0.000168548
0.000729318 -3.77231e-05 -1.04851e-07
-3.77231e-05 8.84601e-06 1.71309e-08
-1.04851e-07 1.71309e-08 -2.86667e-05
0.000770054 -2.49023e-05 -5.91314e-07
-2.49023e-05 4.16204e-05 3.25065e-07
-5.91314e-07 3.25065e-07 -2.10472e-05
0.000968476 0.000133151 -5.50768e-07
0.000133151 0.000171663 4.59614e-09
-5.50768e-07 4.59614e-09 4.12685e-05
0.000818497 -1.15546e-05 2.60773e-07
-1.15546e-05 8.59282e-05 5.12928e-08
2.60773e-07 5.12928e-08 -4.28562e-06
0.000900573 7.36329e-05 7.98199e-08
7.36329e-05 0.000140409 -4.99948e-07
7.98199e-08 -4.99948e-07 1.98434e-05
0.00159595 0.000132274 -1.19951e-06
0.000132274 9.79801e-05 -1.01921e-06
-1.19951e-06 -1.01921e-06 -3.33766e-05
0.00148547 0.000192252 1.11977e-06
0.000192252 0.00012257 1.53502e-06
1.11977e-06 1.53502e-06 -3.18989e-05
0.00154992 0.000189781 7.44488e-07
0.000189781 6.44856e-05 2.94567e-07
7.44488e-07 2.94567e-07 -6.99635e-05
0.00071738 0.000134909 3.70407e-07
0.000134909 1.92144e-05 2.33018e-06
3.70407e-07 2.33018e-06 -0.000156217
0.00146106 0.000209309 -1.26922e-06
0.000209309 0.000233958 -3.7707e-07
-1.26922e-06 -3.7707e-07 6.43787e-05
0.000791579 6.37783e-06 1.0155e-06
6.37783e-06 4.76296e-05 6.63825e-07
1.0155e-06 6.63825e-07 -8.33128e-06
0.000625782 -3.2922e-05 -1.03039e-06
-3.2922e-05 -2.83121e-05 1.49782e-06
-1.03039e-06 1.49782e-06 -0.000106567
0.000944795 0.000139838 -2.18371e-06
0.000139838 0.000157777 -2.13682e-06
-2.18371e-06 -2.13682e-06 9.37329e-06
0.000652027 2.48814e-05 -1.32605e-06
2.48814e-05 3.10371e-06 -8.00567e-07
-1.32605e-06 -8.00567e-07 -0.000106816
0.00100519 0.000113217 -1.24613e-06
0.000113217 0.000189871 -2.21051e-06
-1.24613e-06 -2.21051e-06 6.03922e-05
0.00161464 0.000144365 -3.13079e-06
0.000144365 4.32665e-05 -2.18622e-06
-3.13079e-06 -2.18622e-06 -6.02133e-05
0.00190632 0.000234934 -8.52706e-07
0.000234934 0.000324606 6.74021e-07
-8.52706e-07 6.74021e-07 0.000166814
0.00142852 0.000187954 8.24531e-08
0.000187954 -2.72361e-05 -1.78455e-07
8.24531e-08 -1.78455e-07 -0.00015289
0.0018155 0.000212143 2.35995e-06
0.000212143 0.000577826 4.12065e-06
2.35995e-06 4.12065e-06 0.000379347
0.000505118 0.000163061 -9.87772e-07
0.000163061 -0.000316741 -2.59287e-07
-9.87772e-07 -2.59287e-07 -0.000487343
0.000738406 -2.91393e-05 -1.68867e-06
-2.91393e-05 8.5846e-06 -1.54803e-06
-1.68867e-06 -1.54803e-06 -2.69278e-05
0.000713084 -8.76643e-06 2.01964e-07
-8.76643e-06 2.78376e-06 4.40976e-07
2.01964e-07 4.40976e-07 -5.19426e-05
0.00069327 -3.63086e-05 -2.16298e-07
-3.63086e-05 1.75661e-07 3.09901e-07
-2.16298e-07 3.09901e-07 -6.48588e-05
0.000635878 -4.63869e-05 -9.46746e-07
-4.63869e-05 -3.98476e-05 -4.78871e-07
-9.46746e-07 -4.78871e-07 -9.50162e-05
0.000779529 -1.04323e-06 1.01462e-07
-1.04323e-06 3.86135e-05 1.62698e-09
1.01462e-07 1.62698e-09 -1.60032e-05
0.000800237 -9.01144e-06 1.06093e-07
-9.01144e-06 5.91254e-05 -3.40521e-07
1.06093e-07 -3.40521e-07 -5.27491e-06
0.000889841 1.44443e-05 2.16642e-08
1.44443e-05 0.000115646 -8.27328e-07
2.16642e-08 -8.27328e-07 4.37558e-05
0.000718332 -3.39406e-05 6.66733e-07
-3.39406e-05 1.75849e-05 -1.24447e-07
6.66733e-07 -1.24447e-07 -5.01986e-05
0.00080694 6.99379e-06 4.79994e-07
6.99379e-06 4.96564e-05 4.98629e-07
4.79994e-07 4.98629e-07 -3.12883e-06
0.000748494 -7.33066e-08 9.68304e-07
-7.33066e-08 4.97226e-06 1.59004e-06
9.68304e-07 1.59004e-06 -2.99737e-05
0.000753087 -1.18754e-05 -1.76464e-07
-1.18754e-05 7.40177e-06 -1.56499e-09
-1.76464e-07 -1.56499e-09 -2.66971e-05
0.00126068 -2.46244e-05 9.9099e-07
-2.46244e-05 0.000286082 2.0879e-06
9.9099e-07 2.0879e-06 0.000283904
0.000751814 -1.98592e-05 -9.90055e-07
-1.98592e-05 8.86459e-06 -1.78929e-06
-9.90055e-07 -1.78929e-06 -2.50907e-05
0.00127942 -3.11909e-05 -3.84292e-06
-3.11909e-05 0.000300949 -1.25707e-06
-3.84292e-06 -1.25707e-06 0.000298167
0.000939657 -2.5251e-05 1.69406e-05
-2.5251e-05 0.000114738 6.68363e-06
1.69406e-05 6.68363e-06 0.000127286
0.00129576 -3.73475e-05 -8.30067e-06
-3.73475e-05 0.000315573 -4.62141e-06
-8.30067e-06 -4.62141e-06 0.000311593
0.000877499 -3.17622e-05 6.7364e-06
-3.17622e-05 8.63562e-05 2.49611e-06
6.7364e-06 2.49611e-06 9.73777e-05
0.00201843 -5.99595e-05 -6.14791e-06
-5.99595e-05 0.000735964 -1.55794e-06
-6.14791e-06 -1.55794e-06 0.000750492
0.000655062 3.52435e-05 1.12829e-06
3.52435e-05 -3.6211e-05 -3.8919e-06
1.12829e-06 -3.8919e-06 -5.04633e-05
0.000650684 4.08226e-05 -1.50118e-07
4.08226e-05 -3.13436e-05 3.45319e-08
-1.50118e-07 3.45319e-08 -4.9148e-05
0.00237145 6.7022e-05 2.96017e-05
6.7022e-05 0.000939738 -3.73671e-06
2.96017e-05 -3.73671e-06 0.000950595
0.000653889 4.96817e-05 -1.10738e-06
4.96817e-05 -2.0322e-05 4.46607e-06
-1.10738e-06 4.46607e-06 -4.25122e-05
0.00251351 7.68991e-05 -2.0134e-06
7.68991e-05 0.00102695 -1.58377e-07
-2.0134e-06 -1.58377e-07 0.00103509
0.00266722 8.44021e-05 -4.74779e-05
8.44021e-05 0.00111836 3.0558e-06
-4.74779e-05 3.0558e-06 0.00112458
0.00148192 9.80595e-05 -1.63453e-06
9.80595e-05 6.20572e-05 2.79348e-07
-1.63453e-06 2.79348e-07 -6.66098e-05
0.0016006 5.62654e-05 -2.74997e-07
5.62654e-05 0.000113653 -6.15364e-08
-2.74997e-07 -6.15364e-08 -5.87262e-06
0.00163536 8.53901e-05 2.56212e-06
8.53901e-05 8.69045e-05 1.2041e-06
2.56212e-06 1.2041e-06 -1.92441e-05
0.00180869 5.24045e-05 2.13391e-06
5.24045e-05 0.000146389 4.42573e-08
2.13391e-06 4.42573e-08 4.15504e-05
0.00164981 1.08404e-05 -9.3276e-07
1.08404e-05 9.97884e-05 -1.41084e-07
-9.3276e-07 -1.41084e-07 -1.72604e-05
0.00145682 1.30797e-05 -4.24356e-06
1.30797e-05 6.94362e-05 -9.21985e-08
-4.24356e-06 -9.21985e-08 -5.19167e-05
0.00162644 2.16224e-06 -3.04527e-07
2.16224e-06 9.14935e-05 -2.38393e-08
-3.04527e-07 -2.38393e-08 -2.67538e-05
0.00174911 3.10822e-05 5.27927e-07
3.10822e-05 9.98209e-05 -2.59442e-08
5.27927e-07 -2.59442e-08 -9.94618e-06
0.00167822 6.73798e-05 -8.12516e-07
6.73798e-05 9.04004e-05 -1.52691e-07
-8.12516e-07 -1.52691e-07 -1.54087e-05
0.00177628 5.69989e-05 1.23072e-06
5.69989e-05 0.000105495 -1.23485e-07
1.23072e-06 -1.23485e-07 8.99014e-06
0.00157496 9.23411e-05 -6.38228e-07
9.23411e-05 6.75718e-05 9.02245e-08
-6.38228e-07 9.02245e-08 -4.82493e-05
0.00178108 9.97979e-05 2.73353e-06
9.97979e-05 0.000122626 4.95789e-07
2.73353e-06 4.95789e-07 2.83289e-05
0.00176674 2.16302e-06 -4.74079e-07
2.16302e-06 0.000111826 2.05656e-07
-4.74079e-07 2.05656e-07 1.78604e-06
0.001741 4.21431e-05 -4.56185e-07
4.21431e-05 7.95043e-05 6.19729e-07
-4.56185e-07 6.19729e-07 -1.89632e-05
0.00179102 7.35124e-05 -9.75681e-07
7.35124e-05 0.000104068 3.37314e-08
-9.75681e-07 3.37314e-08 1.40532e-05
0.00192073 0.000121243 -1.38918e-06
0.000121243 0.000194868 -8.84759e-07
-1.38918e-06 -8.84759e-07 0.000102514
0.00158835 -8.95158e-06 -8.6243e-07
-8.95158e-06 7.98603e-05 5.54489e-08
-8.6243e-07 5.54489e-08 -3.87387e-05
0.00170346 -4.60403e-05 -1.75773e-06
-4.60403e-05 0.000162717 1.12935e-07
-1.75773e-06 1.12935e-07 4.23541e-05
0.00167891 -3.42654e-05 2.72443e-07
-3.42654e-05 8.97946e-05 -2.10929e-07
2.72443e-07 -2.10929e-07 -2.10682e-05
0.0015983 -8.03754e-05 1.45112e-06
-8.03754e-05 8.43687e-05 -1.4743e-07
1.45112e-06 -1.4743e-07 -2.63593e-05
0.00107039 -0.000116515 -1.41507e-06
-0.000116515 0.00019559 3.76335e-07
-1.41507e-06 3.76335e-07 8.60053e-05
0.000834752 -0.000136692 1.04446e-06
-0.000136692 5.55522e-05 7.77941e-07
1.04446e-06 7.77941e-07 -8.05377e-05
0.00127876 -0.000188873 -1.99735e-06
-0.000188873 0.00019279 3.21343e-06
-1.99735e-06 3.21343e-06 9.3511e-06
0.00164172 -0.000130977 3.72447e-08
-0.000130977 0.000130058 -3.34162e-07
3.72447e-08 -3.34162e-07 9.86471e-06
0.00160479 -0.000101366 3.33494e-06
-0.000101366 5.58217e-05 -1.02059e-06
3.33494e-06 -1.02059e-06 -4.14253e-05
0.00167567 -0.000166302 3.32466e-06
-0.000166302 0.000125455 -8.13238e-07
3.32466e-06 -8.13238e-07 9.06017e-06
0.00146549 -0.000202387 -9.99475e-07
-0.000202387 0.000111779 -1.84528e-06
-9.99475e-07 -1.84528e-06 -4.62584e-05
0.00156271 -0.000186587 2.94316e-06
-0.000186587 6.65827e-05 -4.54233e-06
2.94316e-06 -4.54233e-06 -5.8516e-05
0.00106653 -0.000143725 3.34089e-07
-0.000143725 0.000206066 -1.19708e-06
3.34089e-07 -1.19708e-06 8.76094e-05
0.00103267 -0.000135332 6.70236e-07
-0.000135332 0.000185438 -2.56092e-06
6.70236e-07 -2.56092e-06 6.75912e-05
0.000830954 -3.48336e-05 1.06287e-07
-3.48336e-05 8.06617e-05 -6.63896e-08
1.06287e-07 -6.63896e-08 -2.03528e-05
0.000464668 2.00178e-05 -1.74801e-06
2.00178e-05 -0.000134734 2.06948e-06
-1.74801e-06 2.06948e-06 -0.000186762
0.000630268 3.81909e-05 1.05325e-07
3.81909e-05 -3.13483e-05 2.16401e-07
1.05325e-07 2.16401e-07 -0.000111375
0.00178607 -2.48921e-05 2.29629e-07
-2.48921e-05 0.000126639 -6.97784e-08
2.29629e-07 -6.97784e-08 1.70707e-05
0.00174643 -5.31667e-05 2.45521e-07
-5.31667e-05 0.000120167 -1.7531e-07
2.45521e-07 -1.7531e-07 1.25348e-05
0.0017252 -9.62587e-05 -8.71236e-07
-9.62587e-05 0.000104649 -3.23421e-08
-8.71236e-07 -3.23421e-08 1.05735e-05
0.00101018 -0.000142151 -9.5523e-08
-0.000142151 0.000169258 6.56158e-07
-9.5523e-08 6.56158e-07 4.514e-05
0.000726826 -0.000136184 1.63927e-06
-0.000136184 -5.93477e-06 -2.05437e-06
1.63927e-06 -2.05437e-06 -0.000160684
0.00147126 -0.000214901 -7.62074e-07
-0.000214901 0.00023719 8.29076e-07
-7.62074e-07 8.29076e-07 4.34385e-05
0.00164791 -0.000127944 7.02647e-07
-0.000127944 7.70674e-05 -1.41916e-07
7.02647e-07 -1.41916e-07 -2.51913e-05
0.00166835 -0.000215951 7.922e-07
-0.000215951 0.000156418 -1.26923e-06
7.922e-07 -1.26923e-06 9.70976e-06
0.001744 -0.000188126 -2.4805e-07
-0.000188126 0.000128597 -7.94142e-07
-2.4805e-07 -7.94142e-07 1.49596e-05
0.000464683 2.42744e-05 7.53713e-08
2.42744e-05 -0.00013799 -7.01254e-07
7.53713e-08 -7.01254e-07 -0.000185539
0.00102655 -0.00014235 -8.549e-08
-0.00014235 0.000177856 3.36518e-07
-8.549e-08 3.36518e-07 5.8184e-05
0.000853222 -0.000131414 -6.71167e-07
-0.000131414 8.09707e-05 3.04967e-07
-6.71167e-07 3.04967e-07 -3.66202e-05
0.00100169 -9.51001e-05 -3.80954e-07
-9.51001e-05 0.000177502 8.17282e-07
-3.80954e-07 8.17282e-07 6.16637e-05
0.000954106 -3.7074e-05 -4.76372e-08
-3.7074e-05 0.000155901 6.56823e-08
-4.76372e-08 6.56823e-08 6.11046e-05
0.000747593 1.13415e-05 -2.33608e-07
1.13415e-05 3.58599e-05 2.95505e-07
-2.33608e-07 2.95505e-07 -4.04019e-05
0.00166975 -3.50521e-05 -9.35723e-07
-3.50521e-05 4.30154e-05 1.43066e-07
-9.35723e-07 1.43066e-07 -6.0696e-05
0.00178432 -7.75425e-05 -2.5073e-06
-7.75425e-05 0.000108306 -1.33254e-07
-2.5073e-06 -1.33254e-07 1.88626e-05
0.00155815 -0.000106834 -1.29581e-06
-0.000106834 -8.27182e-06 2.48638e-07
-1.29581e-06 2.48638e-07 -9.34388e-05
0.0018904 -0.000162343 -6.52861e-07
-0.000162343 0.000162296 1.69035e-07
-6.52861e-07 1.69035e-07 6.99183e-05
0.00100156 -0.00014485 -1.74487e-06
-0.00014485 0.000164295 5.74864e-07
-1.74487e-06 5.74864e-07 3.23349e-05
0.00179371 -0.000216986 9.40658e-07
-0.000216986 0.000169355 2.02903e-06
9.40658e-07 2.02903e-06 4.30061e-05
0.000707843 -0.000150299 -3.13068e-07
-0.000150299 -5.09469e-05 -2.56524e-06
-3.13068e-07 -2.56524e-06 -0.000241882
0.00192607 -0.000255902 -1.87654e-07
-0.000255902 0.000409574 2.19807e-06
-1.87654e-07 2.19807e-06 0.000216089
0.000467836 2.81478e-05 3.754e-07
2.81478e-05 -0.000138858 -2.72581e-06
3.754e-07 -2.72581e-06 -0.000182754
0.000874404 -6.10182e-06 1.26973e-06
-6.10182e-06 0.000105762 -9.79155e-07
1.26973e-06 -9.79155e-07 3.42392e-05
0.00100311 -5.57145e-05 4.4542e-08
-5.57145e-05 0.000185349 8.34663e-07
4.4542e-08 8.34663e-07 9.43832e-05
0.00087383 -2.00328e-05 3.16225e-07
-2.00328e-05 0.000110375 -1.38072e-07
3.16225e-07 -1.38072e-07 7.00916e-06
0.000899094 -0.000137197 -9.65563e-07
-0.000137197 0.000101586 1.50609e-06
-9.65563e-07 1.50609e-06 -2.14244e-05
0.000968609 -0.000140784 -3.43762e-06
-0.000140784 0.000139704 3.24699e-06
-3.43762e-06 3.24699e-06 1.54777e-05
0.000728537 -3.68414e-05 -1.87101e-06
-3.68414e-05 8.38228e-06 -1.42472e-06
-1.87101e-06 -1.42472e-06 -2.90322e-05
0.000735481 -5.65705e-05 -1.3911e-07
-5.65705e-05 2.39263e-05 -7.0069e-07
-1.3911e-07 -7.0069e-07 -3.90514e-05
0.00164314 0.00013679 3.78232e-08
0.00013679 0.000123276 3.66088e-07
3.78232e-08 3.66088e-07 -9.09348e-06
0.000801328 -3.4724e-05 6.45118e-07
-3.4724e-05 7.3779e-05 -4.84842e-07
6.45118e-07 -4.84842e-07 -1.40721e-05
0.000921259 0.000129719 6.05968e-07
0.000129719 0.000147841 -3.49355e-07
6.05968e-07 -3.49355e-07 1.81296e-05
0.000684291 4.13644e-05 1.30161e-06
4.13644e-05 1.7652e-05 -2.01409e-07
1.30161e-06 -2.01409e-07 -9.86797e-05
0.00154293 0.000194726 -1.23316e-06
0.000194726 0.000154094 -1.07447e-06
-1.23316e-06 -1.07447e-06 -8.35262e-07
0.00163748 0.000191211 2.09347e-06
0.000191211 0.000110331 1.54357e-06
2.09347e-06 1.54357e-06 -2.21291e-05
0.000605803 0.000128665 6.84907e-07
0.000128665 -4.657e-05 1.3192e-06
6.84907e-07 1.3192e-06 -0.000219161
0.00162194 0.000219792 -3.31436e-07
0.000219792 0.000323138 -7.55387e-07
-3.31436e-07 -7.55387e-07 0.000149059
0.000766198 -1.76101e-05 -5.48236e-07
-1.76101e-05 3.41532e-05 1.21331e-07
-5.48236e-07 1.21331e-07 -2.1952e-05
0.000724901 -1.59508e-05 5.71301e-10
-1.59508e-05 2.60705e-05 8.81477e-07
5.71301e-10 8.81477e-07 -5.2439e-05
0.00106331 0.000146746 -6.67518e-07
0.000146746 0.000225406 -1.8369e-06
-6.67518e-07 -1.8369e-06 7.77183e-05
0.000706576 -1.26157e-05 -2.56682e-07
-1.26157e-05 2.6347e-05 1.02009e-07
-2.56682e-07 1.02009e-07 -7.74549e-05
0.000851282 9.44272e-05 -1.08183e-06
9.44272e-05 0.000106475 -9.37888e-07
-1.08183e-06 -9.37888e-07 -1.72141e-05
0.00183622 0.00015042 -2.09993e-06
0.00015042 0.000164771 -8.84948e-07
-2.09993e-06 -8.84948e-07 6.31715e-05
0.00186429 0.000230977 8.10386e-07
0.000230977 0.000297774 6.28626e-07
8.10386e-07 6.28626e-07 0.00013928
0.00156791 0.000197599 6.66704e-07
0.000197599 4.80258e-05 1.7769e-06
6.66704e-07 1.7769e-06 -7.71243e-05
0.00137249 0.000184782 1.89888e-06
0.000184782 0.000345948 3.02821e-06
1.89888e-06 3.02821e-06 0.000145006
0.000933047 0.000191131 -1.81348e-06
0.000191131 -8.6166e-05 -7.0433e-07
-1.81348e-06 -7.0433e-07 -0.00025915
0.000645926 -3.75889e-05 -2.98865e-07
-3.75889e-05 -2.23632e-05 7.31092e-07
-2.98865e-07 7.31092e-07 -9.11295e-05
0.000477107 3.03183e-05 -6.69348e-07
3.03183e-05 -9.29049e-05 2.01239e-07
-6.69348e-07 2.01239e-07 -0.000193465
0.00110435 0.000150728 -2.13468e-07
0.000150728 0.000241311 3.68242e-07
-2.13468e-07 3.68242e-07 7.18935e-05
0.000118489 3.76294e-05 4.67775e-07
3.76294e-05 -0.000289871 -1.83148e-08
4.67775e-07 -1.83148e-08 -0.000415515
0.00192476 0.000147568 -2.12208e-06
0.000147568 0.000120412 -4.42224e-07
-2.12208e-06 -4.42224e-07 4.34699e-05
0.0019322 0.000187659 1.03199e-06
0.000187659 0.000173385 -4.70172e-07
1.03199e-06 -4.70172e-07 7.67689e-05
0.00170329 0.00024716 -1.34612e-06
0.00024716 0.000178753 -1.51272e-06
-1.34612e-06 -1.51272e-06 1.71896e-05
-5.26289e-05 0.000105398 -6.83207e-07
0.000105398 -0.000492971 1.43227e-06
-6.83207e-07 1.43227e-06 -0.000706899
0.000768326 6.15557e-06 -8.5717e-07
6.15557e-06 3.74571e-05 4.23713e-10
-8.5717e-07 4.23713e-10 -1.94867e-05
0.000760501 -1.11439e-05 -3.19266e-07
-1.11439e-05 4.09149e-05 4.13691e-07
-3.19266e-07 4.13691e-07 -2.61529e-05
0.000853631 -3.502e-05 -3.33302e-07
-3.502e-05 9.82153e-05 -1.15292e-07
-3.33302e-07 -1.15292e-07 2.57238e-05
0.000763698 -3.22799e-05 -1.0373e-06
-3.22799e-05 2.77822e-05 -5.85683e-07
-1.0373e-06 -5.85683e-07 -2.52672e-05
0.000659488 -3.97228e-05 -1.93639e-07
-3.97228e-05 -1.79331e-05 -1.23955e-07
-1.93639e-07 -1.23955e-07 -8.28947e-05
0.000785042 -8.53689e-06 3.70772e-08
-8.53689e-06 3.85977e-05 2.85896e-08
3.70772e-08 2.85896e-08 -1.48596e-05
0.000799191 2.1021e-05 -3.19575e-07
2.1021e-05 7.14064e-05 -2.71463e-07
-3.19575e-07 -2.71463e-07 -4.49604e-06
0.000741183 -9.38668e-06 3.57804e-07
-9.38668e-06 3.18153e-05 2.35224e-07
3.57804e-07 2.35224e-07 -3.69452e-05
0.000839725 -8.64665e-06 2.1314e-07
-8.64665e-06 8.84102e-05 -4.54239e-07
2.1314e-07 -4.54239e-07 1.25927e-05
0.000803714 -3.98377e-05 1.6943e-07
-3.98377e-05 6.73426e-05 -2.91108e-07
1.6943e-07 -2.91108e-07 -6.82013e-06
0.000694985 1.12803e-05 5.0212e-07
1.12803e-05 2.45818e-06 1.04165e-07
5.0212e-07 1.04165e-07 -6.60366e-05
0.000785625 2.05806e-05 6.29363e-07
2.05806e-05 3.94733e-05 5.04221e-07
6.29363e-07 5.04221e-07 -1.49282e-05
0.000737795 6.67519e-06 5.96941e-07
6.67519e-06 1.16579e-06 1.47512e-06
5.96941e-07 1.47512e-06 -3.48234e-05
0.000747777 -6.01969e-06 -1.54394e-07
-6.01969e-06 4.84588e-06 7.3358e-09
-1.54394e-07 7.3358e-09 -3.01906e-05
0.00127697 -1.62758e-05 8.23975e-07
-1.62758e-05 0.000292405 2.05079e-06
8.23975e-07 2.05079e-06 0.000290161
0.00075044 -1.6191e-05 -6.65639e-07
-1.6191e-05 6.34804e-06 -1.67885e-06
-6.65639e-07 -1.67885e-06 -2.7873e-05
0.00129344 -2.26816e-05 -3.18138e-06
-2.26816e-05 0.000304477 -1.31823e-06
-3.18138e-06 -1.31823e-06 0.000302192
0.00094933 -1.92732e-05 1.40576e-05
-1.92732e-05 0.000115677 6.90753e-06
1.40576e-05 6.90753e-06 0.000128747
0.00130783 -2.95563e-05 -6.73141e-06
-2.95563e-05 0.000316542 -4.67653e-06
-6.73141e-06 -4.67653e-06 0.000313748
0.000889234 -2.5989e-05 5.39963e-06
-2.5989e-05 8.6426e-05 2.57813e-06
5.39963e-06 2.57813e-06 9.88566e-05
0.000821599 -3.17078e-05 -2.07443e-06
-3.17078e-05 5.50882e-05 -1.71204e-06
-2.07443e-06 -1.71204e-06 6.61036e-05
0.000664432 3.02246e-05 7.82735e-07
3.02246e-05 -3.77066e-05 -3.72527e-06
7.82735e-07 -3.72527e-06 -4.87916e-05
0.000663991 3.58905e-05 -1.75894e-07
3.58905e-05 -3.13324e-05 3.74812e-08
-1.75894e-07 3.74812e-08 -4.57015e-05
0.00228279 5.73787e-05 2.46594e-05
5.73787e-05 0.000882684 -3.93352e-06
2.46594e-05 -3.93352e-06 0.000896078
0.000664843 4.23107e-05 -1.46813e-06
4.23107e-05 -2.31121e-05 4.14394e-06
-1.46813e-06 4.14394e-06 -4.12113e-05
0.00241067 6.76619e-05 -2.05973e-06
6.76619e-05 0.000962387 -1.42801e-07
-2.05973e-06 -1.42801e-07 0.000972962
0.00255661 7.68123e-05 -4.0005e-05
7.68123e-05 0.00105122 3.35674e-06
-4.0005e-05 3.35674e-06 0.00105934
0.00159104 9.19733e-05 1.70963e-06
9.19733e-05 8.13722e-05 1.99192e-06
1.70963e-06 1.99192e-06 -3.44232e-05
0.00165907 6.46398e-05 8.44973e-07
6.46398e-05 7.71424e-05 5.62279e-08
8.44973e-07 5.62279e-08 -2.97225e-05
0.00168189 0.000102406 4.5752e-06
0.000102406 6.59548e-05 5.64422e-07
4.5752e-06 5.64422e-07 -2.67525e-05
0.00175087 5.72048e-05 2.71092e-06
5.72048e-05 8.70438e-05 -6.28851e-07
2.71092e-06 -6.28851e-07 -8.1283e-06
0.00174617 2.57367e-05 1.57649e-06
2.57367e-05 0.000100582 -2.04021e-07
1.57649e-06 -2.04021e-07 -9.9281e-06
0.00161515 1.0548e-06 -1.05854e-06
1.0548e-06 8.51412e-05 -1.11309e-07
-1.05854e-06 -1.11309e-07 -3.3874e-05
0.00175535 3.11303e-06 -1.16448e-07
3.11303e-06 0.00010699 -1.33573e-08
-1.16448e-07 -1.33573e-08 -3.07735e-06
0.00172318 3.82648e-05 5.93101e-07
3.82648e-05 7.30522e-05 -1.82627e-07
5.93101e-07 -1.82627e-07 -2.58041e-05
0.00175033 7.48083e-05 7.67195e-07
7.48083e-05 8.33059e-05 -1.66109e-07
7.67195e-07 -1.66109e-07 -7.06972e-06
0.00189187 0.000116298 4.82094e-07
0.000116298 0.000171444 2.64532e-07
4.82094e-07 2.64532e-07 7.9833e-05
0.00175724 3.24636e-06 -1.32642e-06
3.24636e-06 8.68616e-05 3.52282e-07
-1.32642e-06 3.52282e-07 -1.47603e-05
0.00191772 5.73083e-05 -1.87468e-07
5.73083e-05 0.000152602 3.68954e-07
-1.87468e-07 3.68954e-07 6.95629e-05
0.00175594 0.000111331 -3.27509e-07
0.000111331 5.25038e-05 -1.25248e-07
-3.27509e-07 -1.25248e-07 -2.82304e-05
0.00178666 -2.58066e-05 5.58652e-07
-2.58066e-05 0.000130655 -2.29157e-07
5.58652e-07 -2.29157e-07 2.09648e-05
0.00177484 -5.47945e-05 8.10165e-07
-5.47945e-05 0.000137357 -3.16517e-07
8.10165e-07 -3.16517e-07 2.97839e-05
0.00171409 -9.59827e-05 1.67499e-06
-9.59827e-05 0.000101732 -2.77681e-08
1.67499e-06 -2.77681e-08 5.82266e-06
0.00113235 -0.000149888 2.57858e-08
-0.000149888 0.000234181 8.27565e-07
2.57858e-08 8.27565e-07 0.000109069
0.00136315 -0.000177317 9.59483e-08
-0.000177317 0.000338224 1.56449e-06
9.59483e-08 1.56449e-06 0.00018304
0.00125274 -0.000199891 -1.9899e-06
-0.000199891 0.000122357 1.98568e-06
-1.9899e-06 1.98568e-06 -7.24668e-05
0.00171896 -0.000129409 1.61254e-06
-0.000129409 0.000115974 -6.885e-07
1.61254e-06 -6.885e-07 1.33411e-05
0.00148498 -0.000180615 -2.05607e-07
-0.000180615 -7.25095e-06 -1.99601e-06
-2.05607e-07 -1.99601e-06 -0.000121728
0.00158489 -0.000208891 -3.52185e-07
-0.000208891 0.000109731 -4.57466e-06
-3.52185e-07 -4.57466e-06 -3.32851e-05
0.00105753 -0.000144324 7.71856e-07
-0.000144324 0.000193019 -1.21922e-06
7.71856e-07 -1.21922e-06 7.31242e-05
0.000832727 -0.000129188 -2.47526e-06
-0.000129188 7.19256e-05 -2.14798e-06
-2.47526e-06 -2.14798e-06 -4.37842e-05
0.00104062 -0.00010896 6.07861e-07
-0.00010896 0.000205426 1.25646e-07
6.07861e-07 1.25646e-07 8.39934e-05
0.000463383 2.24214e-05 -9.01715e-07
2.24214e-05 -0.000139186 1.3036e-06
-9.01715e-07 1.3036e-06 -0.000186095
0.000971711 -2.89729e-05 1.44258e-07
-2.89729e-05 0.000162919 -2.20972e-07
1.44258e-07 -2.20972e-07 7.01524e-05
0.0006178 2.82631e-05 3.40329e-07
2.82631e-05 -4.00124e-05 1.22436e-06
3.40329e-07 1.22436e-06 -0.000114395
0.00176931 -3.33283e-05 -1.87164e-07
-3.33283e-05 9.43361e-05 9.3576e-08
-1.87164e-07 9.3576e-08 -9.19158e-06
0.00182316 -7.92478e-05 5.92303e-07
-7.92478e-05 0.000131 -1.75332e-08
5.92303e-07 -1.75332e-08 4.22224e-05
0.00161404 -0.000107295 -3.6959e-07
-0.000107295 2.35317e-05 8.98161e-08
-3.6959e-07 8.98161e-08 -6.17206e-05
0.00101355 -0.000144958 1.4924e-07
-0.000144958 0.000168262 1.37989e-06
1.4924e-07 1.37989e-06 3.60386e-05
0.000904075 -0.000160952 -1.91286e-07
-0.000160952 6.55973e-05 8.23833e-09
-1.91286e-07 8.23833e-09 -0.00012102
0.0018442 -0.000248354 -2.55334e-06
-0.000248354 0.000360958 7.52113e-07
-2.55334e-06 7.52113e-07 0.000170998
0.00190309 -0.000164115 5.39544e-07
-0.000164115 0.000167274 -5.54742e-07
5.39544e-07 -5.54742e-07 7.37311e-05
0.00175755 -0.000216875 1.58688e-06
-0.000216875 0.000146789 -4.40792e-07
1.58688e-06 -4.40792e-07 2.01671e-05
0.000600203 2.03649e-05 3.4594e-07
2.03649e-05 -6.61334e-05 -6.76997e-07
3.4594e-07 -6.76997e-07 -0.000108253
0.000867624 2.69508e-06 -3.00389e-07
2.69508e-06 0.000100761 2.19843e-07
-3.00389e-07 2.19843e-07 3.01346e-05
0.000587323 -0.000115548 -1.46807e-06
-0.000115548 -7.06093e-05 1.27644e-06
-1.46807e-06 1.27644e-06 -0.000189661
0.00113609 -0.00014521 8.3371e-07
-0.00014521 0.000233454 7.03676e-07
8.3371e-07 7.03676e-07 0.000112566
0.00086816 -3.32487e-05 2.0819e-07
-3.32487e-05 0.000108571 -3.79902e-07
2.0819e-07 -3.79902e-07 2.94102e-06
0.000915204 -4.36139e-05 -6.82033e-07
-4.36139e-05 0.00013711 9.88553e-07
-6.82033e-07 9.88553e-07 4.6006e-05
0.00181785 -5.24887e-05 -1.66029e-06
-5.24887e-05 9.99188e-05 -2.41423e-07
-1.66029e-06 -2.41423e-07 1.16068e-05
0.00173058 -0.000105351 -4.27673e-06
-0.000105351 5.16175e-05 -2.8165e-07
-4.27673e-06 -2.8165e-07 -2.08437e-05
0.00171126 -0.000123721 3.56938e-07
-0.000123721 3.11676e-05 7.9816e-08
3.56938e-07 7.9816e-08 -4.35202e-05
0.00242428 -0.000241318 3.99638e-06
-0.000241318 0.00042589 -5.49859e-07
3.99638e-06 -5.49859e-07 0.000323164
0.000289324 -0.000103473 -2.34124e-06
-0.000103473 -0.000223553 -6.73848e-07
-2.34124e-06 -6.73848e-07 -0.000372609
0.00182073 -0.000257109 -2.99242e-06
-0.000257109 0.000255282 4.02449e-06
-2.99242e-06 4.02449e-06 8.41201e-05
0.00208654 -0.00025561 1.86768e-06
-0.00025561 0.000643505 -2.99723e-06
1.86768e-06 -2.99723e-06 0.000429812
0.000744094 1.62919e-05 7.2733e-07
1.62919e-05 1.07179e-05 -1.88782e-06
7.2733e-07 -1.88782e-06 -2.70624e-05
0.000756375 -6.91232e-05 1.33069e-06
-6.91232e-05 4.53961e-05 -1.3766e-06
1.33069e-06 -1.3766e-06 -2.01873e-05
0.000603992 1.04482e-05 5.42652e-07
1.04482e-05 -4.24795e-05 -1.88312e-06
5.42652e-07 -1.88312e-06 -0.000113411
0.000842113 -3.71484e-05 1.15686e-06
-3.71484e-05 0.000100756 1.01064e-07
1.15686e-06 1.01064e-07 1.13084e-05
0.00082739 7.02805e-07 5.47705e-07
7.02805e-07 8.61526e-05 -2.5842e-07
5.47705e-07 -2.5842e-07 -8.48303e-06
0.00063468 -0.000112542 5.49091e-07
-0.000112542 -2.03931e-06 2.6521e-06
5.49091e-07 2.6521e-06 -0.000122239
0.000642337 -0.000121193 -3.81728e-06
-0.000121193 -8.06912e-05 1.28722e-06
-3.81728e-06 1.28722e-06 -0.000187384
0.00185979 -0.000194891 -5.34136e-06
-0.000194891 0.000655688 3.76809e-06
-5.34136e-06 3.76809e-06 0.000522062
0.000752345 -4.64544e-05 -5.46247e-07
-4.64544e-05 2.64491e-05 -4.82232e-07
-5.46247e-07 -4.82232e-07 -2.93588e-05
0.000825319 -5.81836e-06 -1.17962e-07
-5.81836e-06 8.18531e-05 3.74248e-07
-1.17962e-07 3.74248e-07 2.83908e-06
0.00205866 0.000155807 8.74528e-07
0.000155807 0.000287903 4.78301e-07
8.74528e-07 4.78301e-07 0.000188248
0.00082945 7.27995e-06 -4.8217e-08
7.27995e-06 9.79357e-05 -4.75522e-07
-4.8217e-08 -4.75522e-07 -9.07408e-06
0.00112294 0.000150067 6.47195e-07
0.000150067 0.000262515 -9.7681e-07
6.47195e-07 -9.7681e-07 0.000114047
0.000683105 7.422e-05 -1.58599e-07
7.422e-05 1.61719e-05 1.68045e-06
-1.58599e-07 1.68045e-06 -0.000101809
0.00176589 0.000223674 1.00951e-06
0.000223674 0.000240813 3.02924e-08
1.00951e-06 3.02924e-08 8.20145e-05
0.0016552 0.000204701 4.35604e-06
0.000204701 9.63051e-05 4.26748e-06
4.35604e-06 4.26748e-06 -2.81159e-05
0.000851469 0.000152849 1.50603e-06
0.000152849 7.17431e-05 5.5069e-07
1.50603e-06 5.5069e-07 -0.000131702
0.00122096 0.000210526 -2.81312e-06
0.000210526 6.74804e-05 -6.58429e-07
-2.81312e-06 -6.58429e-07 -0.000106324
0.000657629 -1.53185e-05 8.73849e-08
-1.53185e-05 -1.24126e-05 6.07373e-07
8.73849e-08 6.07373e-07 -8.46731e-05
0.000639987 4.52924e-05 -1.4114e-07
4.52924e-05 -3.31638e-06 -1.33895e-06
-1.4114e-07 -1.33895e-06 -0.000105031
0.00102326 0.000145881 7.84352e-07
0.000145881 0.000205144 -1.43457e-06
7.84352e-07 -1.43457e-06 3.26863e-05
0.000698124 7.64986e-05 -5.95898e-07
7.64986e-05 2.57015e-05 -1.20576e-06
-5.95898e-07 -1.20576e-06 -0.000102698
0.00198534 0.000145454 1.75238e-07
0.000145454 0.000159057 -5.07334e-07
1.75238e-07 -5.07334e-07 8.37122e-05
0.00179237 0.000187401 1.81562e-06
0.000187401 0.000107286 3.81467e-07
1.81562e-06 3.81467e-07 6.52432e-06
0.00172251 0.000243418 -1.68026e-06
0.000243418 0.0001887 -6.63845e-07
-1.68026e-06 -6.63845e-07 2.91652e-05
0.000750269 0.000162447 6.34828e-07
0.000162447 -7.90315e-05 2.06029e-07
6.34828e-07 2.06029e-07 -0.000291307
0.000822046 -1.99525e-05 -1.87633e-07
-1.99525e-05 8.20373e-05 -3.56314e-09
-1.87633e-07 -3.56314e-09 4.80903e-06
0.00175481 0.00010997 -1.17798e-06
0.00010997 -1.43425e-06 4.46993e-07
-1.17798e-06 4.46993e-07 -5.75347e-05
0.00125262 0.000140325 -9.95212e-07
0.000140325 0.000354072 2.11799e-06
-9.95212e-07 2.11799e-06 0.000223245
0.00103457 0.000151488 2.37786e-08
0.000151488 0.000194829 2.04147e-06
2.37786e-08 2.04147e-06 1.60423e-05
0.00229619 0.000185753 -4.32849e-06
0.000185753 0.000283695 2.1584e-07
-4.32849e-06 2.1584e-07 0.000210378
0.00151373 0.000249415 -2.04885e-06
0.000249415 -4.04738e-05 -2.90907e-06
-2.04885e-06 -2.90907e-06 -0.000180161
0.00199331 0.00026246 -1.89073e-06
0.00026246 0.000482286 2.05178e-06
-1.89073e-06 2.05178e-06 0.000267581
0.000833983 -3.70205e-06 -1.52775e-06
-3.70205e-06 8.14584e-05 3.34789e-07
-1.52775e-06 3.34789e-07 1.47397e-05
0.00082699 -1.68905e-05 -8.03475e-08
-1.68905e-05 8.25725e-05 2.74032e-08
-8.03475e-08 2.74032e-08 1.06002e-05
0.0008785 -2.80307e-05 -4.99255e-07
-2.80307e-05 0.000118397 1.77086e-07
-4.99255e-07 1.77086e-07 3.92393e-05
0.000763838 -2.7565e-05 -4.62028e-07
-2.7565e-05 2.8143e-05 -6.39498e-07
-4.62028e-07 -6.39498e-07 -2.61852e-05
0.000771491 3.1639e-06 7.22957e-08
3.1639e-06 4.93653e-05 4.9943e-07
7.22957e-08 4.9943e-07 -1.97094e-05
0.00068533 -1.09488e-05 -5.35692e-07
-1.09488e-05 1.17068e-05 5.04564e-08
-5.35692e-07 5.04564e-08 -6.59698e-05
0.000773588 -1.6027e-05 -1.17046e-07
-1.6027e-05 3.62087e-05 1.35044e-08
-1.17046e-07 1.35044e-08 -2.06525e-05
0.000706515 -2.51102e-05 -5.26739e-07
-2.51102e-05 1.21598e-05 2.7106e-07
-5.26739e-07 2.7106e-07 -5.81585e-05
0.000782858 -4.45325e-05 3.80581e-07
-4.45325e-05 5.76717e-05 -3.57471e-07
3.80581e-07 -3.57471e-07 -1.86587e-05
0.000844391 8.65013e-06 2.33739e-07
8.65013e-06 9.54371e-05 4.1674e-07
2.33739e-07 4.1674e-07 1.78516e-05
0.000750356 -2.69245e-05 6.12519e-07
-2.69245e-05 3.47673e-05 -1.11675e-06
6.12519e-07 -1.11675e-06 -4.27079e-05
0.000790626 -6.28938e-05 2.37983e-07
-6.28938e-05 5.79603e-05 -3.19253e-07
2.37983e-07 -3.19253e-07 -2.02603e-05
0.000881121 1.24144e-05 6.214e-07
1.24144e-05 0.000110787 -4.56841e-07
6.214e-07 -4.56841e-07 3.38064e-05
0.000781126 1.60189e-05 1.52797e-06
1.60189e-05 5.24794e-05 1.87701e-09
1.52797e-06 1.87701e-09 -2.19407e-05
0.000782358 5.37601e-06 7.04957e-07
5.37601e-06 3.77797e-05 5.49845e-07
7.04957e-07 5.49845e-07 -1.78686e-05
0.000726323 1.01058e-05 4.53921e-07
1.01058e-05 -2.98247e-06 1.43576e-06
4.53921e-07 1.43576e-06 -3.9681e-05
0.000740026 1.10703e-06 -1.99899e-07
1.10703e-06 2.55239e-06 1.26232e-08
-1.99899e-07 1.26232e-08 -3.34338e-05
0.00128418 -7.8832e-06 5.82491e-07
-7.8832e-06 0.000295047 1.99994e-06
5.82491e-07 1.99994e-06 0.000292488
0.000752646 -1.1519e-05 -3.25895e-07
-1.1519e-05 7.83392e-06 -1.61591e-06
-3.25895e-07 -1.61591e-06 -2.7292e-05
0.00130701 -1.4462e-05 -2.37113e-06
-1.4462e-05 0.000309576 -1.37442e-06
-2.37113e-06 -1.37442e-06 0.000307143
0.000956826 -1.3204e-05 1.06311e-05
-1.3204e-05 0.000116885 7.15206e-06
1.06311e-05 7.15206e-06 0.000130019
0.00132584 -2.12814e-05 -5.06802e-06
-2.12814e-05 0.000322646 -4.73141e-06
-5.06802e-06 -4.73141e-06 0.000320161
0.000902092 -1.97857e-05 3.86729e-06
-1.97857e-05 8.87219e-05 2.67413e-06
3.86729e-06 2.67413e-06 0.000101855
0.000835782 -2.56492e-05 -1.49891e-06
-2.56492e-05 5.64045e-05 -1.72669e-06
-1.49891e-06 -1.72669e-06 6.89583e-05
0.000744066 7.10858e-06 4.81943e-07
7.10858e-06 9.2024e-06 -1.82707e-06
4.81943e-07 -1.82707e-06 -2.59415e-05
0.000674991 2.42347e-05 6.79062e-07
2.42347e-05 -3.74588e-05 -3.61555e-06
6.79062e-07 -3.61555e-06 -4.58184e-05
0.000676028 3.07653e-05 -1.38969e-07
3.07653e-05 -3.13608e-05 3.52383e-08
-1.38969e-07 3.52383e-08 -4.25558e-05
0.00221839 4.76984e-05 2.0292e-05
4.76984e-05 0.000839639 -4.1022e-06
2.0292e-05 -4.1022e-06 0.000855338
0.00067646 3.67461e-05 -1.27247e-06
3.67461e-05 -2.44185e-05 3.93744e-06
-1.27247e-06 3.93744e-06 -3.89439e-05
0.00232109 5.82095e-05 -2.17938e-06
5.82095e-05 0.000904945 -1.28475e-07
-2.17938e-06 -1.28475e-07 0.000917983
0.00245542 6.81261e-05 -3.35181e-05
6.81261e-05 0.00098804 3.66e-06
-3.35181e-05 3.66e-06 0.000998377
0.00186266 0.000111264 1.76735e-06
0.000111264 0.0001477 1.52895e-06
1.76735e-06 1.52895e-06 5.68418e-05
0.001707 7.5984e-05 1.68084e-06
7.5984e-05 6.10157e-05 -1.50326e-07
1.68084e-06 -1.50326e-07 -2.97041e-05
0.00169757 3.7704e-05 1.64567e-06
3.7704e-05 6.21206e-05 -6.07113e-07
1.64567e-06 -6.07113e-07 -3.71425e-05
0.00174379 4.30551e-06 7.73669e-07
4.30551e-06 0.000101991 -2.2369e-07
7.73669e-07 -2.2369e-07 -8.04734e-06
0.00177619 3.66599e-06 -5.51094e-07
3.66599e-06 9.79363e-05 1.11759e-07
-5.51094e-07 1.11759e-07 -2.54738e-06
0.00187149 5.51944e-05 5.41304e-07
5.51944e-05 0.000124276 -3.27722e-07
5.41304e-07 -3.27722e-07 4.04666e-05
0.00172861 0.000111723 -4.98778e-07
0.000111723 3.30393e-05 -1.35456e-07
-4.98778e-07 -1.35456e-07 -4.76549e-05
0.00179675 5.64041e-06 -1.24436e-06
5.64041e-06 8.31519e-05 8.80083e-07
-1.24436e-06 8.80083e-07 -2.76391e-06
0.00200194 7.20863e-05 -6.97791e-07
7.20863e-05 0.00016611 1.01641e-07
-6.97791e-07 1.01641e-07 9.8733e-05
0.00173708 5.21855e-05 -1.03171e-06
5.21855e-05 -1.61934e-06 -1.13241e-06
-1.03171e-06 -1.13241e-06 -3.85996e-05
0.00187215 -3.17984e-05 4.14957e-07
-3.17984e-05 0.000147597 -1.06743e-07
4.14957e-07 -1.06743e-07 4.42691e-05
0.00186629 -8.2056e-05 3.72913e-06
-8.2056e-05 0.00015556 2.11826e-07
3.72913e-06 2.11826e-07 6.74167e-05
0.00167238 -0.0001092 2.31047e-07
-0.0001092 5.57427e-05 -9.91068e-08
2.31047e-07 -9.91068e-08 -2.97357e-05
0.00107762 -0.000148616 3.13828e-09
-0.000148616 0.000202282 2.6446e-06
3.13828e-09 2.6446e-06 6.91346e-05
0.00104974 -0.000168078 7.02727e-07
-0.000168078 0.00015471 4.22786e-06
7.02727e-07 4.22786e-06 -2.85003e-05
0.00170054 -0.000236525 -1.98877e-06
-0.000236525 0.000280002 -3.69094e-07
-1.98877e-06 -3.69094e-07 9.42149e-05
0.00188183 -0.000163563 3.24816e-06
-0.000163563 0.000154338 -1.12946e-06
3.24816e-06 -1.12946e-06 5.98403e-05
0.00165523 -0.000211747 4.67263e-07
-0.000211747 9.11609e-05 -2.34266e-06
4.67263e-07 -2.34266e-06 -3.50483e-05
0.000314205 -9.65043e-05 -1.88625e-06
-9.65043e-05 -0.000221289 2.05144e-06
-1.88625e-06 2.05144e-06 -0.000336764
0.00133376 -0.000154792 7.59016e-06
-0.000154792 0.0003446 -3.89579e-06
7.59016e-06 -3.89579e-06 0.000225984
0.000784843 -1.70052e-06 -2.80781e-08
-1.70052e-06 5.48095e-05 -7.07081e-07
-2.80781e-08 -7.07081e-07 -4.41667e-05
0.000732805 1.69663e-05 -7.31466e-07
1.69663e-05 6.87846e-06 1.28281e-06
-7.31466e-07 1.28281e-06 -3.36853e-05
0.000867317 2.00419e-05 -7.23361e-07
2.00419e-05 0.000100031 1.31303e-06
-7.23361e-07 1.31303e-06 2.97194e-05
0.000828749 -1.85214e-05 -5.87021e-07
-1.85214e-05 8.98416e-05 1.02845e-06
-5.87021e-07 1.02845e-06 -1.41827e-06
0.00185344 -5.34777e-05 -1.03527e-08
-5.34777e-05 0.00012157 3.59943e-08
-1.03527e-08 3.59943e-08 3.51258e-05
0.000742154 1.23659e-05 3.35692e-07
1.23659e-05 9.62075e-06 3.32869e-08
3.35692e-07 3.32869e-08 -2.82129e-05
0.000682845 -1.78548e-05 -5.64722e-07
-1.78548e-05 -5.15383e-06 4.85001e-08
-5.64722e-07 4.85001e-08 -6.47581e-05
0.00180319 -0.000105291 -3.14687e-07
-0.000105291 9.55226e-05 -1.45357e-07
-3.14687e-07 -1.45357e-07 2.24137e-05
0.00159914 -0.000120166 -1.77638e-06
-0.000120166 -3.49964e-05 9.15104e-07
-1.77638e-06 9.15104e-07 -0.000111488
0.000596303 -0.000122317 5.00291e-08
-0.000122317 -4.70761e-05 2.68137e-06
5.00291e-08 2.68137e-06 -0.000194024
0.00164148 -0.000223239 -1.84774e-06
-0.000223239 0.000410432 8.29042e-07
-1.84774e-06 8.29042e-07 0.000191262
0.00148731 -0.000233981 6.3876e-07
-0.000233981 8.17289e-05 -9.85003e-07
6.3876e-07 -9.85003e-07 -8.38853e-05
0.00191878 -0.000225185 2.60652e-06
-0.000225185 0.000161797 -8.69787e-07
2.60652e-06 -8.69787e-07 5.88185e-05
0.000826453 -2.25909e-05 1.16755e-06
-2.25909e-05 7.99069e-05 -6.62605e-07
1.16755e-06 -6.62605e-07 1.12078e-05
0.000823391 -2.51462e-05 -3.02926e-07
-2.51462e-05 9.14807e-05 6.24613e-07
-3.02926e-07 6.24613e-07 1.03643e-06
0.000935546 -0.00012935 -1.77922e-07
-0.00012935 7.63993e-05 -3.17726e-07
-1.77922e-07 -3.17726e-07 -3.49892e-05
0.001199 -0.000153615 6.16203e-06
-0.000153615 0.000291564 -1.92134e-06
6.16203e-06 -1.92134e-06 0.000176365
0.000652701 -8.46728e-05 -9.47728e-07
-8.46728e-05 2.05639e-06 2.19199e-07
-9.47728e-07 2.19199e-07 -0.000114075
0.000847296 -4.83849e-06 2.72916e-07
-4.83849e-06 9.95951e-05 -4.57514e-07
2.72916e-07 -4.57514e-07 2.91987e-06
0.00193446 -6.54208e-05 -3.66407e-06
-6.54208e-05 0.000119405 -1.28001e-07
-3.66407e-06 -1.28001e-07 5.50061e-05
0.00191244 -9.55348e-05 1.2777e-06
-9.55348e-05 0.000117513 7.26248e-07
1.2777e-06 7.26248e-07 5.26268e-05
0.00177926 -0.000207671 -1.23909e-06
-0.000207671 -2.59372e-06 -1.83655e-06
-1.23909e-06 -1.83655e-06 -7.28619e-05
0.00154762 -0.000250628 1.37103e-06
-0.000250628 -5.99523e-06 6.71977e-07
1.37103e-06 6.71977e-07 -0.000125414
0.000855093 -0.000108314 -4.74617e-06
-0.000108314 6.87314e-05 -2.96558e-06
-4.74617e-06 -2.96558e-06 -8.04627e-05
0.00239082 -0.000297567 -3.22113e-06
-0.000297567 0.000722187 2.6818e-06
-3.22113e-06 2.6818e-06 0.000490965
0.000570458 4.61854e-05 -1.21109e-06
4.61854e-05 -6.40164e-05 -1.9498e-06
-1.21109e-06 -1.9498e-06 -0.000124536
0.000767497 -3.64236e-05 1.04832e-06
-3.64236e-05 4.20552e-05 -1.26357e-06
1.04832e-06 -1.26357e-06 -2.0171e-05
0.000967403 -4.63195e-05 1.04586e-06
-4.63195e-05 0.0001718 -3.56411e-07
1.04586e-06 -3.56411e-07 9.23802e-05
0.00059748 1.67893e-05 -2.63262e-07
1.67893e-05 -2.9918e-05 -5.71798e-07
-2.63262e-07 -5.71798e-07 -0.0001218
0.00104348 -2.90913e-05 3.46259e-07
-2.90913e-05 0.000210618 2.72133e-08
3.46259e-07 2.72133e-08 0.000117766
0.00052053 -3.09931e-05 6.3601e-07
-3.09931e-05 -7.11998e-05 4.27615e-07
6.3601e-07 4.27615e-07 -0.000180686
0.000809673 -8.26477e-05 5.58223e-06
-8.26477e-05 0.000132012 9.30154e-07
5.58223e-06 9.30154e-07 -1.25926e-05
0.000709098 -0.000138681 -1.43985e-05
-0.000138681 -1.97882e-05 4.90737e-06
-1.43985e-05 4.90737e-06 -0.000118301
0.000648434 2.60488e-06 -7.21505e-08
2.60488e-06 -1.39437e-05 2.82837e-07
-7.21505e-08 2.82837e-07 -8.96905e-05
0.000813629 6.08583e-05 -1.90764e-06
6.08583e-05 9.16644e-05 -2.32522e-06
-1.90764e-06 -2.32522e-06 -1.10288e-05
0.00202552 0.000143548 -8.14618e-07
0.000143548 0.000184865 -3.61924e-07
-8.14618e-07 -3.61924e-07 0.00011111
0.00168236 0.000188663 1.51557e-06
0.000188663 5.54675e-05 1.67341e-06
1.51557e-06 1.67341e-06 -4.94667e-05
0.00127582 9.66254e-05 -2.67324e-06
9.66254e-05 0.000336425 -7.21197e-07
-2.67324e-06 -7.21197e-07 0.000208107
0.000953403 0.000141282 -3.05412e-07
0.000141282 0.000173264 -3.92548e-06
-3.05412e-07 -3.92548e-06 -8.83507e-07
0.00182777 0.000244259 1.86186e-06
0.000244259 0.000244602 3.06445e-07
1.86186e-06 3.06445e-07 8.63801e-05
0.00167754 0.000227011 -8.38266e-07
0.000227011 0.00040417 -1.10777e-06
-8.38266e-07 -1.10777e-06 0.000191859
0.000794203 7.62763e-06 6.96995e-07
7.62763e-06 7.24641e-05 -6.23131e-07
6.96995e-07 -6.23131e-07 -8.89975e-06
0.00182404 0.000106598 -4.19606e-07
0.000106598 3.4581e-05 1.13415e-08
-4.19606e-07 1.13415e-08 -2.04321e-05
0.000923772 9.44288e-05 2.45585e-07
9.44288e-05 0.00016874 1.58169e-06
2.45585e-07 1.58169e-06 4.57404e-05
0.000784634 0.00013455 4.91245e-07
0.00013455 5.81678e-05 -2.4874e-07
4.91245e-07 -2.4874e-07 -0.000121771
0.00202598 0.000177198 2.41912e-06
0.000177198 0.000136873 -2.07902e-07
2.41912e-06 -2.07902e-07 6.2896e-05
0.0017341 0.000256805 -3.08534e-07
0.000256805 7.35553e-05 -1.3419e-06
-3.08534e-07 -1.3419e-06 -6.3454e-05
0.00206431 0.000269723 1.01049e-06
0.000269723 0.000531784 1.25753e-06
1.01049e-06 1.25753e-06 0.000315711
0.00102851 3.26802e-05 -2.29198e-06
3.26802e-05 0.000214813 1.05104e-06
-2.29198e-06 1.05104e-06 0.000112898
0.00214556 0.000121954 -1.54984e-05
0.000121954 0.000206572 -1.70042e-06
-1.54984e-05 -1.70042e-06 0.000171502
0.00209346 0.000195219 -3.34591e-06
0.000195219 0.00078722 -3.48631e-07
-3.34591e-06 -3.48631e-07 0.000641415
0.00230484 0.000255411 -5.3592e-06
0.000255411 0.00082084 1.71602e-06
-5.3592e-06 1.71602e-06 0.000619147
0.00211183 0.000274603 -4.42534e-06
0.000274603 0.000178976 -3.78295e-06
-4.42534e-06 -3.78295e-06 8.90248e-05
0.00155742 0.000260891 -6.278e-06
0.000260891 0.000158045 9.04502e-08
-6.278e-06 9.04502e-08 -3.01053e-05
0.000212732 0.000124823 9.54452e-06
0.000124823 -0.00052685 -7.7312e-07
9.54452e-06 -7.7312e-07 -0.000692903
0.000794626 -2.07851e-06 6.22995e-08
-2.07851e-06 6.61724e-05 1.13285e-07
6.22995e-08 1.13285e-07 -6.75359e-06
0.000848873 -2.3746e-05 -2.64202e-07
-2.3746e-05 0.00010319 2.10488e-07
-2.64202e-07 2.10488e-07 2.35265e-05
0.000959559 -1.26377e-05 -6.80837e-08
-1.26377e-05 0.000155626 -1.25142e-06
-6.80837e-08 -1.25142e-06 7.13808e-05
0.00075972 -4.81248e-05 -2.76241e-07
-4.81248e-05 3.13043e-05 -7.1045e-07
-2.76241e-07 -7.1045e-07 -2.75324e-05
0.000729891 -4.9627e-05 -1.1409e-06
-4.9627e-05 2.43283e-05 5.40167e-07
-1.1409e-06 5.40167e-07 -4.5162e-05
0.000872638 6.59203e-05 -7.74003e-07
6.59203e-05 0.000114195 7.78072e-07
-7.74003e-07 7.78072e-07 3.49109e-05
0.000732253 -4.76298e-05 -1.1165e-07
-4.76298e-05 3.15988e-05 2.85388e-07
-1.1165e-07 2.85388e-07 -4.62673e-05
0.000763921 -2.60397e-05 -7.25026e-08
-2.60397e-05 3.40925e-05 7.06768e-09
-7.25026e-08 7.06768e-09 -2.59008e-05
0.000742459 1.04453e-05 -1.82271e-09
1.04453e-05 2.36292e-05 -1.28746e-07
-1.82271e-09 -1.28746e-07 -4.55582e-05
0.000788106 -3.12443e-05 2.8693e-07
-3.12443e-05 5.56467e-05 -4.54228e-07
2.8693e-07 -4.54228e-07 -2.27713e-05
0.000869431 -1.60452e-05 1.16129e-08
-1.60452e-05 0.000100225 -1.27849e-08
1.16129e-08 -1.27849e-08 2.60429e-05
0.000866816 -4.2435e-05 2.33954e-07
-4.2435e-05 9.86982e-05 -3.50108e-09
2.33954e-07 -3.50108e-09 2.15453e-05
0.000837926 -3.96191e-05 6.67047e-08
-3.96191e-05 7.56725e-05 -1.10062e-06
6.67047e-08 -1.10062e-06 -1.96125e-06
0.000819694 -6.14328e-06 3.47466e-07
-6.14328e-06 6.36306e-05 -1.43175e-06
3.47466e-07 -1.43175e-06 -1.07504e-05
0.000849302 1.80079e-05 5.43283e-07
1.80079e-05 8.10214e-05 -4.81629e-07
5.43283e-07 -4.81629e-07 9.25289e-06
0.000794847 2.64398e-05 2.56863e-07
2.64398e-05 5.73885e-05 4.41566e-08
2.56863e-07 4.41566e-08 -2.04357e-05
0.000665026 -1.16953e-05 3.55703e-08
-1.16953e-05 -2.89563e-05 9.75993e-07
3.55703e-08 9.75993e-07 -8.68247e-05
0.000905593 -6.81082e-06 2.72852e-07
-6.81082e-06 0.000132242 -7.01372e-07
2.72852e-07 -7.01372e-07 5.27857e-05
0.000643378 4.00907e-06 -6.5798e-07
4.00907e-06 -3.6352e-05 9.29904e-07
-6.5798e-07 9.29904e-07 -9.64319e-05
0.000730411 1.0525e-05 7.64562e-09
1.0525e-05 -5.5778e-08 1.39398e-06
7.64562e-09 1.39398e-06 -3.70733e-05
0.000729669 3.65481e-06 -1.88337e-08
3.65481e-06 -1.17242e-06 9.28482e-09
-1.88337e-08 9.28482e-09 -3.78056e-05
0.000685267 1.02568e-06 1.59271e-07
1.02568e-06 -4.11857e-05 3.33609e-06
1.59271e-07 3.33609e-06 -4.76246e-05
0.00074537 -4.39934e-06 -1.01419e-07
-4.39934e-06 5.66996e-06 -1.50937e-06
-1.01419e-07 -1.50937e-06 -3.032e-05
0.00100443 -5.79148e-06 -1.53e-06
-5.79148e-06 0.000138316 -1.44337e-06
-1.53e-06 -1.44337e-06 0.000133867
0.00218145 -9.49486e-06 6.57461e-06
-9.49486e-06 0.000802495 4.5084e-06
6.57461e-06 4.5084e-06 0.000822532
0.00134118 -1.32663e-05 -3.00849e-06
-1.32663e-05 0.000329036 -4.76786e-06
-3.00849e-06 -4.76786e-06 0.000326324
0.000911859 -1.34223e-05 2.06753e-06
-1.34223e-05 9.08836e-05 2.76666e-06
2.06753e-06 2.76666e-06 0.000104212
0.000850877 -1.91668e-05 -9.68535e-07
-1.91668e-05 5.96201e-05 -1.71969e-06
-9.68535e-07 -1.71969e-06 7.3016e-05
0.000734088 9.60348e-06 1.15899e-07
9.60348e-06 3.65564e-06 -1.79869e-06
1.15899e-07 -1.79869e-06 -2.96678e-05
0.000743073 7.19045e-06 5.09401e-08
7.19045e-06 8.5132e-06 1.47514e-08
5.09401e-08 1.47514e-08 -2.66833e-05
0.000688522 1.80996e-05 3.9699e-07
1.80996e-05 -3.42817e-05 -3.49574e-06
3.9699e-07 -3.49574e-06 -4.04714e-05
0.00100061 2.80366e-05 -4.92777e-07
2.80366e-05 0.000145232 3.03005e-08
-4.92777e-07 3.03005e-08 0.000138396
0.00216547 3.77068e-05 1.67171e-05
3.77068e-05 0.00080406 -4.22649e-06
1.67171e-05 -4.22649e-06 0.000821771
0.000686415 3.1368e-05 -8.9397e-07
3.1368e-05 -2.5624e-05 3.78341e-06
-8.9397e-07 3.78341e-06 -3.69397e-05
0.00224331 4.85397e-05 -2.21235e-06
4.85397e-05 0.000854454 -1.0972e-07
-2.21235e-06 -1.0972e-07 0.000869826
0.00235589 5.87994e-05 -2.76811e-05
5.87994e-05 0.000925222 3.912e-06
-2.76811e-05 3.912e-06 0.000937958
0.00169835 0.000112289 -1.25092e-06
0.000112289 1.24814e-05 -1.79123e-07
-1.25092e-06 -1.79123e-07 -6.81947e-05
0.00182409 5.37559e-05 1.45789e-06
5.37559e-05 9.52676e-05 -9.25897e-07
1.45789e-06 -9.25897e-07 1.06663e-05
0.00180054 9.21843e-07 1.34639e-07
9.21843e-07 0.000111817 -1.81633e-07
1.34639e-07 -1.81633e-07 1.24805e-05
0.00176156 7.58717e-06 3.41058e-07
7.58717e-06 6.10036e-05 3.41189e-07
3.41058e-07 3.41189e-07 -2.50897e-05
0.00182806 6.97294e-05 -5.59905e-07
6.97294e-05 7.64649e-05 -1.25471e-07
-5.59905e-07 -1.25471e-07 7.71747e-06
0.0017712 5.2185e-05 2.18534e-06
5.2185e-05 1.81802e-05 3.67681e-07
2.18534e-06 3.67681e-07 -2.30378e-05
0.0017069 1.11041e-05 -1.01866e-06
1.11041e-05 -4.96926e-08 1.1307e-07
-1.01866e-06 1.1307e-07 -5.69734e-05
0.00322565 7.36098e-05 1.35703e-05
7.36098e-05 0.000556987 7.56743e-07
1.35703e-05 7.56743e-07 0.00050652
0.00169862 3.93547e-05 -1.2049e-05
3.93547e-05 1.38786e-05 -3.11622e-06
-1.2049e-05 -3.11622e-06 -4.26053e-06
0.000772151 4.068e-05 -3.61222e-07
4.068e-05 4.51192e-05 -1.0809e-06
-3.61222e-07 -1.0809e-06 -1.00442e-05
0.00188632 -5.41597e-05 2.07978e-06
-5.41597e-05 0.000141673 2.77909e-07
2.07978e-06 2.77909e-07 5.7073e-05
0.00183832 -0.000102428 2.6903e-06
-0.000102428 0.000120747 -1.47842e-07
2.6903e-06 -1.47842e-07 4.72297e-05
0.00154532 -0.000117711 1.40571e-06
-0.000117711 -6.83292e-05 3.64669e-07
1.40571e-06 3.64669e-07 -0.00014592
0.00090989 -0.000141216 1.9886e-06
-0.000141216 0.000132646 4.53719e-06
1.9886e-06 4.53719e-06 -1.20542e-05
0.00123859 -0.000193541 1.63222e-06
-0.000193541 0.000200783 4.8918e-06
1.63222e-06 4.8918e-06 -2.51299e-05
0.00114789 -0.000211838 -1.03721e-06
-0.000211838 -9.46636e-05 -3.91772e-06
-1.03721e-06 -3.91772e-06 -0.000256171
0.0015182 -0.000215244 -3.82884e-06
-0.000215244 -4.81385e-05 -1.87376e-06
-3.82884e-06 -1.87376e-06 -0.000152104
0.001183 -0.00014139 9.35046e-06
-0.00014139 0.000208113 -3.42496e-06
9.35046e-06 -3.42496e-06 9.15698e-05
0.000537896 -0.00011376 3.37616e-06
-0.00011376 -7.04327e-05 -9.86309e-06
3.37616e-06 -9.86309e-06 -0.000167953
0.000712066 -8.38743e-05 -1.52e-07
-8.38743e-05 3.2334e-05 -1.40071e-06
-1.52e-07 -1.40071e-06 -8.37974e-05
0.000742172 6.33697e-06 -1.05293e-06
6.33697e-06 9.40331e-06 1.95e-06
-1.05293e-06 1.95e-06 -2.83016e-05
0.000872322 -1.40821e-05 -7.28776e-08
-1.40821e-05 0.000116707 -5.41168e-07
-7.28776e-08 -5.41168e-07 1.73147e-05
0.00103957 -5.42896e-05 -3.74662e-07
-5.42896e-05 0.000201462 5.76938e-07
-3.74662e-07 5.76938e-07 0.000132082
0.000801608 -1.76635e-05 -1.03414e-06
-1.76635e-05 7.88471e-05 9.7001e-07
-1.03414e-06 9.7001e-07 -1.1307e-05
0.000597271 -1.29569e-05 -4.58867e-07
-1.29569e-05 -5.6345e-05 1.20589e-06
-4.58867e-07 1.20589e-06 -0.000114045
0.00192749 -7.01015e-05 -6.53545e-07
-7.01015e-05 0.000111795 -1.62948e-07
-6.53545e-07 -1.62948e-07 4.92505e-05
0.000662734 2.1003e-05 1.00866e-07
2.1003e-05 -1.11894e-05 -7.41679e-07
1.00866e-07 -7.41679e-07 -7.16439e-05
0.000772317 -4.70345e-05 -2.51996e-07
-4.70345e-05 4.96879e-05 9.4463e-08
-2.51996e-07 9.4463e-08 -1.61205e-05
0.00082811 -2.08274e-05 -6.62529e-07
-2.08274e-05 9.56104e-05 6.41245e-07
-6.62529e-07 6.41245e-07 1.36645e-05
0.00172595 -0.000100591 5.77921e-07
-0.000100591 4.86496e-06 -5.75497e-07
5.77921e-07 -5.75497e-07 -5.91287e-05
0.00179867 -0.000207688 -7.05713e-07
-0.000207688 2.20205e-05 -2.3247e-07
-7.05713e-07 -2.3247e-07 -5.24304e-05
0.000885424 -0.000121063 2.08102e-06
-0.000121063 7.05124e-05 -9.65459e-08
2.08102e-06 -9.65459e-08 -7.04594e-05
0.00116704 -0.000216543 2.28306e-06
-0.000216543 9.71792e-05 -3.37338e-08
2.28306e-06 -3.37338e-08 -0.00013433
0.00172688 -0.00026688 -1.67694e-07
-0.00026688 9.21435e-05 4.15675e-07
-1.67694e-07 4.15675e-07 -3.1633e-05
0.000719177 -3.13614e-06 -2.18333e-07
-3.13614e-06 3.7568e-05 1.32204e-08
-2.18333e-07 1.32204e-08 -5.37002e-05
0.000942005 -4.56401e-05 -9.99224e-08
-4.56401e-05 0.000159116 1.01011e-07
-9.99224e-08 1.01011e-07 6.21421e-05
0.000581682 -0.000131811 -6.16402e-06
-0.000131811 -7.68604e-05 1.29658e-06
-6.16402e-06 1.29658e-06 -0.000187245
0.000911904 -7.82198e-05 8.40201e-07
-7.82198e-05 0.000179263 -2.38759e-07
8.40201e-07 -2.38759e-07 4.22217e-05
0.000720428 -5.59926e-05 -5.81598e-07
-5.59926e-05 3.82557e-05 5.10797e-07
-5.81598e-07 5.10797e-07 -7.21843e-05
0.00208626 -0.00012993 -4.56786e-06
-0.00012993 0.000144754 5.36729e-07
-4.56786e-06 5.36729e-07 0.000101772
0.00231696 -0.00013786 -7.56694e-07
-0.00013786 0.000294959 1.35284e-06
-7.56694e-07 1.35284e-06 0.00024204
0.00218516 -0.000298905 -2.72222e-07
-0.000298905 0.00023185 -6.80907e-07
-2.72222e-07 -6.80907e-07 0.000134665
0.00223079 -0.000307222 -1.0092e-05
-0.000307222 0.000530014 5.2876e-07
-1.0092e-05 5.2876e-07 0.000353458
0.000947027 -0.000122305 -6.19696e-06
-0.000122305 0.000142218 -2.02683e-06
-6.19696e-06 -2.02683e-06 -3.37528e-05
0.000587832 1.31762e-05 5.74186e-07
1.31762e-05 -4.14189e-05 -1.38581e-06
5.74186e-07 -1.38581e-06 -0.000121214
0.000614278 5.33632e-05 3.34712e-08
5.33632e-05 -2.36445e-05 -9.28032e-07
3.34712e-08 -9.28032e-07 -0.00010919
0.000919099 1.35842e-05 9.49325e-07
1.35842e-05 0.000148549 1.72248e-07
9.49325e-07 1.72248e-07 5.7831e-05
0.000819432 -7.46136e-05 1.6469e-06
-7.46136e-05 9.80173e-05 -8.92753e-08
1.6469e-06 -8.92753e-08 -2.53709e-06
0.000750218 -1.76495e-05 5.48554e-07
-1.76495e-05 5.04759e-05 7.47738e-07
5.48554e-07 7.47738e-07 -4.71081e-05
0.00070395 -1.975e-05 1.88715e-06
-1.975e-05 5.02489e-05 -3.93003e-07
1.88715e-06 -3.93003e-07 -7.43723e-05
0.000745817 -0.000106978 8.78011e-06
-0.000106978 0.000116974 1.07364e-06
8.78011e-06 1.07364e-06 -6.86616e-05
0.000774487 4.45552e-05 9.34146e-07
4.45552e-05 6.8073e-05 -1.58469e-06
9.34146e-07 -1.58469e-06 -1.79946e-05
0.0005753 4.76875e-05 1.08042e-06
4.76875e-05 -2.68503e-05 3.14343e-07
1.08042e-06 3.14343e-07 -0.000142152
0.00190659 0.000103091 1.6451e-06
0.000103091 7.93648e-05 -2.45393e-07
1.6451e-06 -2.45393e-07 2.46486e-05
0.00174951 0.00016833 3.83441e-06
0.00016833 -1.22978e-05 -5.89635e-07
3.83441e-06 -5.89635e-07 -8.65399e-05
0.00193689 0.000263136 3.98163e-06
0.000263136 0.000178731 3.06811e-07
3.98163e-06 3.06811e-07 4.47101e-05
0.000523344 0.000117591 2.11403e-06
0.000117591 -8.52576e-05 -8.94539e-07
2.11403e-06 -8.94539e-07 -0.000265975
0.00211045 0.000276283 3.11275e-06
0.000276283 0.000566161 1.27375e-06
3.11275e-06 1.27375e-06 0.000350212
0.00101459 2.37408e-05 -2.26972e-07
2.37408e-05 0.000204602 4.30566e-07
-2.26972e-07 4.30566e-07 0.000108246
0.00193171 0.00011423 -1.39952e-06
0.00011423 8.72626e-05 -9.8078e-08
-1.39952e-06 -9.8078e-08 5.79115e-05
0.00131762 0.000147424 -1.07077e-06
0.000147424 0.000368408 -3.43813e-07
-1.07077e-06 -3.43813e-07 0.00023009
0.00158557 0.000205263 -7.66439e-07
0.000205263 0.000455472 1.28702e-06
-7.66439e-07 1.28702e-06 0.000251038
0.00205692 0.000264496 8.55759e-07
0.000264496 0.000149062 -1.19541e-06
8.55759e-07 -1.19541e-06 6.14648e-05
0.0015049 0.000260243 -1.36822e-06
0.000260243 0.000130465 1.55986e-06
-1.36822e-06 1.55986e-06 -6.19069e-05
0.00118262 0.000149132 1.48895e-05
0.000149132 -0.000249573 1.38407e-06
1.48895e-05 1.38407e-06 -0.00045434
0.00110074 6.33257e-05 -2.54801e-06
6.33257e-05 0.000249226 -1.60079e-06
-2.54801e-06 -1.60079e-06 0.000138526
0.00253495 0.00018644 -2.11619e-05
0.00018644 0.000419666 -1.10819e-05
-2.11619e-05 -1.10819e-05 0.000422205
0.00131862 0.000176194 -5.82657e-06
0.000176194 0.000369432 -1.76103e-06
-5.82657e-06 -1.76103e-06 0.000213916
0.00141332 0.000217183 -6.94901e-06
0.000217183 0.000288079 -1.5952e-07
-6.94901e-06 -1.5952e-07 6.8547e-05
0.000473802 0.000269361 -9.54687e-06
0.000269361 -0.000548359 -2.28608e-06
-9.54687e-06 -2.28608e-06 -0.00069925
0.0080795 8.06674e-05 -8.9735e-05
8.06674e-05 0.00245383 -3.34038e-05
-8.9735e-05 -3.34038e-05 0.00156325
0.00375843 0.000304859 0.000102247
0.000304859 0.000507474 -4.37484e-07
0.000102247 -4.37484e-07 -0.000190233
0.00048123 0.000242392 1.04043e-05
0.000242392 -0.000427799 1.77275e-05
1.04043e-05 1.77275e-05 -0.000537606
-0.00233388 -0.000358879 7.1995e-05
-0.000358879 -0.000847283 -8.9328e-06
7.1995e-05 -8.9328e-06 -0.00108821
0.00350518 -0.000775833 -2.21577e-05
-0.000775833 0.000415059 -9.94713e-06
-2.21577e-05 -9.94713e-06 0.00173216
0.000840641 -1.47509e-05 4.57682e-07
-1.47509e-05 9.78365e-05 -5.9282e-08
4.57682e-07 -5.9282e-08 1.8571e-05
0.000924186 -2.52589e-05 9.39412e-07
-2.52589e-05 0.000140862 -3.04128e-07
9.39412e-07 -3.04128e-07 5.70612e-05
0.000916057 2.24655e-05 -4.25869e-07
2.24655e-05 0.000138512 -2.42334e-06
-4.25869e-07 -2.42334e-06 5.42891e-05
0.000752947 -5.26489e-05 7.80821e-08
-5.26489e-05 3.2454e-05 -7.03203e-07
7.80821e-08 -7.03203e-07 -3.04914e-05
0.000705738 4.62457e-05 -9.57117e-07
4.62457e-05 5.36291e-06 2.61139e-08
-9.57117e-07 2.61139e-08 -6.545e-05
0.000862177 -4.28569e-05 -1.20731e-07
-4.28569e-05 9.65913e-05 3.87049e-07
-1.20731e-07 3.87049e-07 2.21595e-05
0.00093723 -2.00341e-05 -8.36758e-07
-2.00341e-05 0.000135482 7.33317e-07
-8.36758e-07 7.33317e-07 5.99035e-05
0.000833119 -4.27074e-05 3.23097e-10
-4.27074e-05 8.09976e-05 -1.47801e-07
3.23097e-10 -1.47801e-07 1.05022e-06
0.000803064 3.948e-05 -7.10163e-07
3.948e-05 6.13088e-05 -2.59502e-07
-7.10163e-07 -2.59502e-07 -1.51503e-05
0.000705956 -4.81481e-06 -3.4178e-08
-4.81481e-06 -1.72085e-06 5.38767e-07
-3.4178e-08 5.38767e-07 -6.13222e-05
0.000800324 2.34853e-05 -2.68477e-07
2.34853e-05 5.91944e-05 -4.91263e-08
-2.68477e-07 -4.91263e-08 -1.72229e-05
0.000859102 -3.73112e-05 -2.09527e-07
-3.73112e-05 8.69796e-05 5.01382e-07
-2.09527e-07 5.01382e-07 9.90782e-06
0.000849892 -8.84418e-06 -1.43768e-07
-8.84418e-06 8.00997e-05 -1.57389e-07
-1.43768e-07 -1.57389e-07 6.27511e-06
0.000778542 2.43825e-05 1.76657e-07
2.43825e-05 3.68997e-05 -1.06661e-06
1.76657e-07 -1.06661e-06 -3.63054e-05
0.000739138 -1.0026e-05 7.07071e-07
-1.0026e-05 1.36443e-05 -2.22909e-06
7.07071e-07 -2.22909e-06 -5.58766e-05
0.000884561 3.05806e-05 1.35551e-06
3.05806e-05 9.52788e-05 -1.3018e-07
1.35551e-06 -1.3018e-07 2.0376e-05
0.000748839 2.0578e-06 1.06695e-06
2.0578e-06 2.16697e-05 -2.61643e-07
1.06695e-06 -2.61643e-07 -5.33576e-05
0.000654041 -4.11645e-05 -1.27851e-06
-4.11645e-05 -2.96392e-05 9.36013e-07
-1.27851e-06 9.36013e-07 -9.11072e-05
0.000864612 1.19397e-05 -4.97418e-07
1.19397e-05 9.5262e-05 -2.71321e-07
-4.97418e-07 -2.71321e-07 1.89648e-05
0.000902884 5.69371e-05 -2.13175e-08
5.69371e-05 0.000116674 -1.45966e-06
-2.13175e-08 -1.45966e-06 3.93256e-05
0.000763075 4.61806e-06 -7.60263e-07
4.61806e-06 4.86458e-05 -3.77125e-07
-7.60263e-07 -3.77125e-07 -2.43745e-05
0.000860981 7.25246e-06 6.90806e-07
7.25246e-06 9.91328e-05 -3.91279e-07
6.90806e-07 -3.91279e-07 2.39862e-05
0.000770035 -3.51239e-05 -1.54953e-06
-3.51239e-05 3.47692e-05 4.30205e-07
-1.54953e-06 4.30205e-07 -2.33906e-05
0.000650831 6.18004e-06 1.23825e-07
6.18004e-06 -2.9455e-05 5.25002e-07
1.23825e-07 5.25002e-07 -9.14895e-05
0.000742149 1.06257e-05 -2.89295e-07
1.06257e-05 5.7028e-06 1.43985e-06
-2.89295e-07 1.43985e-06 -3.13432e-05
0.000727791 3.32343e-06 -6.27576e-08
3.32343e-06 -1.66256e-06 -4.85664e-09
-6.27576e-08 -4.85664e-09 -3.85895e-05
0.000705917 6.86763e-06 -3.69863e-07
6.86763e-06 -2.82704e-05 4.77272e-06
-3.69863e-07 4.77272e-06 -3.52681e-05
0.000728623 -8.85846e-07 3.33883e-07
-8.85846e-07 -1.80047e-06 -1.44482e-06
3.33883e-07 -1.44482e-06 -3.83596e-05
0.000690214 1.2766e-06 2.34064e-07
1.2766e-06 -3.83998e-05 -4.04319e-09
2.34064e-07 -4.04319e-09 -4.48674e-05
0.00218845 -9.738e-07 2.78274e-07
-9.738e-07 0.000805905 4.57182e-06
2.78274e-07 4.57182e-06 0.000825904
0.000713499 -4.40245e-06 -4.98698e-07
-4.40245e-06 -2.48268e-05 -4.79946e-06
-4.98698e-07 -4.79946e-06 -3.11939e-05
0.00154477 -7.54939e-06 -3.75334e-07
-7.54939e-06 0.000444557 3.20383e-08
-3.75334e-07 3.20383e-08 0.000461226
0.000863541 -1.2409e-05 -4.51921e-07
-1.2409e-05 6.30623e-05 -1.73328e-06
-4.51921e-07 -1.73328e-06 7.67399e-05
0.000737125 6.89377e-06 -2.01905e-07
6.89377e-06 5.13967e-06 -1.7675e-06
-2.01905e-07 -1.7675e-06 -2.68368e-05
0.000738338 3.89548e-06 4.62259e-08
3.89548e-06 5.7204e-06 2.04323e-08
4.62259e-08 2.04323e-08 -2.75644e-05
0.000695737 1.21338e-05 1.57484e-07
1.21338e-05 -3.34086e-05 -3.44733e-06
1.57484e-07 -3.44733e-06 -3.79837e-05
0.000745005 3.14458e-06 -9.08992e-07
3.14458e-06 9.3513e-06 1.88161e-06
-9.08992e-07 1.88161e-06 -2.58431e-05
0.000987176 2.06295e-05 -2.26753e-07
2.06295e-05 0.000133072 -7.09493e-07
-2.26753e-07 -7.09493e-07 0.000128608
0.00212093 2.78592e-05 1.26452e-05
2.78592e-05 0.000774316 -4.35391e-06
1.26452e-05 -4.35391e-06 0.000793621
0.000688713 2.53197e-05 -6.20922e-07
2.53197e-05 -2.96269e-05 3.65579e-06
-6.20922e-07 3.65579e-06 -3.8386e-05
0.00222175 3.7938e-05 -7.31459e-06
3.7938e-05 0.00083703 1.17669e-06
-7.31459e-06 1.17669e-06 0.000854296
0.00227064 4.92507e-05 -2.23178e-05
4.92507e-05 0.000870591 4.09403e-06
-2.23178e-05 4.09403e-06 0.000885649
0.00165384 6.7649e-05 1.24128e-07
6.7649e-05 -1.3739e-05 -4.83687e-07
1.24128e-07 -4.83687e-07 -8.37996e-05
0.00172782 8.82187e-06 1.27419e-06
8.82187e-06 4.01098e-05 -9.85641e-08
1.27419e-06 -9.85641e-08 -4.61368e-05
0.00181583 5.31485e-05 4.92813e-06
5.31485e-05 4.36363e-05 1.3258e-06
4.92813e-06 1.3258e-06 -1.03015e-06
0.00206998 5.93283e-05 1.53396e-05
5.93283e-05 3.56225e-06 2.76722e-06
1.53396e-05 2.76722e-06 -6.45981e-05
0.0017734 1.00166e-05 -1.09635e-06
1.00166e-05 3.33149e-05 -4.31158e-08
-1.09635e-06 -4.31158e-08 -2.34087e-05
0.0019022 4.09555e-05 2.20018e-06
4.09555e-05 0.000133118 8.19694e-07
2.20018e-06 8.19694e-07 0.000113051
0.0024317 9.05817e-07 -1.11877e-05
9.05817e-07 0.000414291 -6.37585e-07
-1.11877e-05 -6.37585e-07 0.000368649
0.00310245 -4.87864e-07 0.000135507
-4.87864e-07 0.000318012 -4.15662e-06
0.000135507 -4.15662e-06 1.54567e-05
0.00186084 -1.56116e-05 -1.16212e-05
-1.56116e-05 -2.89664e-05 -5.44312e-06
-1.16212e-05 -5.44312e-06 -9.25822e-05
0.00077182 4.52542e-05 -7.47939e-07
4.52542e-05 4.69843e-05 -1.02997e-06
-7.47939e-07 -1.02997e-06 -8.88931e-06
0.000770756 -1.21703e-05 6.89423e-07
-1.21703e-05 4.82099e-05 -6.24836e-08
6.89423e-07 -6.24836e-08 -9.85426e-06
0.000750875 -6.0739e-05 9.31334e-08
-6.0739e-05 4.36656e-05 -3.7805e-07
9.31334e-08 -3.7805e-07 -2.78324e-05
0.00076764 -2.22684e-05 -1.25715e-06
-2.22684e-05 6.17798e-05 -4.9158e-08
-1.25715e-06 -4.9158e-08 -1.49826e-05
0.00194839 -7.61601e-05 1.87645e-06
-7.61601e-05 0.000119235 -1.17232e-07
1.87645e-06 -1.17232e-07 5.7895e-05
0.0016702 -0.000108137 -1.35161e-06
-0.000108137 -3.53456e-05 5.10119e-08
-1.35161e-06 5.10119e-08 -9.93662e-05
0.00178333 -0.000206137 -4.57301e-06
-0.000206137 2.543e-05 9.66551e-07
-4.57301e-06 9.66551e-07 -5.35857e-05
0.00102384 -0.000160197 4.00728e-06
-0.000160197 0.00013868 2.76854e-06
4.00728e-06 2.76854e-06 7.18836e-07
-7.9218e-05 -0.00013349 4.19441e-06
-0.00013349 -0.000544745 -9.14564e-07
4.19441e-06 -9.14564e-07 -0.000774165
0.00192278 -0.000284147 1.02328e-07
-0.000284147 0.000201925 -2.40015e-06
1.02328e-07 -2.40015e-06 7.44105e-05
0.000506376 -0.000115645 -7.21094e-06
-0.000115645 -0.00010945 8.0688e-07
-7.21094e-06 8.0688e-07 -0.000229522
0.00104265 -7.41784e-05 -1.2486e-06
-7.41784e-05 0.000240954 -1.4621e-06
-1.2486e-06 -1.4621e-06 0.000112017
0.000886646 -8.11179e-05 -2.15023e-06
-8.11179e-05 0.000129384 8.30516e-07
-2.15023e-06 8.30516e-07 1.82381e-05
0.000784461 -2.24051e-05 -1.14779e-06
-2.24051e-05 5.31704e-05 1.37712e-06
-1.14779e-06 1.37712e-06 -1.05895e-05
0.000830828 -5.83131e-05 -6.50475e-07
-5.83131e-05 0.000103714 2.42886e-08
-6.50475e-07 2.42886e-08 1.55813e-06
0.000842562 -7.62059e-06 -1.00443e-06
-7.62059e-06 0.000103865 8.38462e-07
-1.00443e-06 8.38462e-07 1.48111e-05
0.0007677 -2.8973e-06 1.50815e-08
-2.8973e-06 4.9563e-05 5.66086e-07
1.50815e-08 5.66086e-07 -1.14876e-05
0.000685903 2.02465e-05 -2.63563e-07
2.02465e-05 1.86451e-05 1.66033e-06
-2.63563e-07 1.66033e-06 -6.61001e-05
0.00195607 -0.000112831 3.08212e-07
-0.000112831 0.000103385 2.98445e-07
3.08212e-07 2.98445e-07 5.69288e-05
0.000776351 8.30498e-06 6.58437e-07
8.30498e-06 6.43466e-05 -5.1567e-07
6.58437e-07 -5.1567e-07 -1.44383e-05
0.000715894 1.93053e-05 6.14566e-07
1.93053e-05 3.46488e-05 -6.49044e-08
6.14566e-07 -6.49044e-08 -5.1583e-05
0.000813287 6.12293e-05 -2.95476e-07
6.12293e-05 9.32298e-05 9.58336e-07
-2.95476e-07 9.58336e-07 1.40787e-06
0.00195105 -0.000131082 -2.74702e-06
-0.000131082 8.33536e-05 9.63635e-07
-2.74702e-06 9.63635e-07 2.69224e-05
0.00190015 -0.000277864 8.20235e-07
-0.000277864 9.02249e-05 -1.00571e-06
8.20235e-07 -1.00571e-06 -2.64134e-06
0.00101827 -0.000166061 -1.44159e-06
-0.000166061 0.000169273 -1.53436e-08
-1.44159e-06 -1.53436e-08 -8.88203e-06
0.00229491 -0.000312759 -1.17818e-06
-0.000312759 0.000560078 6.51131e-07
-1.17818e-06 6.51131e-07 0.000380422
0.000909322 -2.57148e-05 -3.55259e-07
-2.57148e-05 0.000143639 4.85264e-08
-3.55259e-07 4.85264e-08 4.53582e-05
0.000754084 -3.50816e-05 -2.44312e-07
-3.50816e-05 5.84029e-05 9.1797e-07
-2.44312e-07 9.1797e-07 -4.25603e-05
0.000803785 -0.000111265 3.81506e-06
-0.000111265 0.000137743 -1.01938e-06
3.81506e-06 -1.01938e-06 -3.8588e-05
0.00101255 -7.27337e-05 1.02412e-06
-7.27337e-05 0.000224075 -8.68862e-07
1.02412e-06 -8.68862e-07 8.92691e-05
0.00225821 -9.2284e-05 -6.6588e-06
-9.2284e-05 0.000239173 4.68867e-06
-6.6588e-06 4.68867e-06 0.000182056
0.0024569 -0.000247001 -4.85087e-06
-0.000247001 0.000294314 -1.57177e-06
-4.85087e-06 -1.57177e-06 0.000276062
0.00238033 -0.000328166 -4.55817e-06
-0.000328166 0.000471063 -2.97244e-06
-4.55817e-06 -2.97244e-06 0.000328093
0.00141967 -0.00024328 -1.44186e-06
-0.00024328 0.000349218 -5.86526e-07
-1.44186e-06 -5.86526e-07 0.000164779
0.000731807 2.67903e-05 -4.04458e-07
2.67903e-05 4.94619e-05 -7.04292e-07
-4.04458e-07 -7.04292e-07 -4.84459e-05
0.000745745 -4.23553e-05 6.65668e-07
-4.23553e-05 6.06205e-05 -1.12512e-06
6.65668e-07 -1.12512e-06 -3.89841e-05
0.000752934 -3.28371e-05 5.36633e-07
-3.28371e-05 6.52363e-05 -6.30249e-09
5.36633e-07 -6.30249e-09 -4.14555e-05
0.000618804 -7.51494e-06 -2.88799e-07
-7.51494e-06 4.79833e-05 5.14118e-07
-2.88799e-07 5.14118e-07 -0.000149002
0.000392861 -0.000123976 1.77947e-05
-0.000123976 -0.00158533 -3.31487e-06
1.77947e-05 -3.31487e-06 -0.00207745
0.000992004 1.34583e-05 1.32923e-06
1.34583e-05 0.000189421 -1.12864e-06
1.32923e-06 -1.12864e-06 9.89082e-05
0.000569357 9.40563e-05 2.79642e-06
9.40563e-05 -3.5383e-05 1.52573e-06
2.79642e-06 1.52573e-06 -0.000165218
0.00171169 0.000108302 1.44967e-05
0.000108302 -3.57853e-05 1.07405e-06
1.44967e-05 1.07405e-06 -5.79454e-05
0.00208166 0.000257711 3.93575e-06
0.000257711 0.000160724 -1.80259e-07
3.93575e-06 -1.80259e-07 7.49967e-05
0.00129426 0.00024976 5.55349e-06
0.00024976 2.09366e-05 2.69763e-06
5.55349e-06 2.69763e-06 -0.000177045
0.000764238 0.000147366 4.60729e-06
0.000147366 3.56486e-05 1.32318e-06
4.60729e-06 1.32318e-06 -0.000171642
0.00219647 0.000183056 1.72175e-05
0.000183056 7.11407e-05 2.81571e-06
1.72175e-05 2.81571e-06 -0.000186231
0.000986922 5.3676e-05 7.76982e-07
5.3676e-05 0.000193753 -7.51282e-07
7.76982e-07 -7.51282e-07 8.51761e-05
0.00226373 0.000180188 -6.72487e-06
0.000180188 0.000281341 -1.8905e-06
-6.72487e-06 -1.8905e-06 0.000293519
0.0010629 0.00015737 4.51854e-07
0.00015737 0.000236942 -3.80358e-07
4.51854e-07 -3.80358e-07 8.52178e-05
0.00117007 0.000207647 -2.52114e-07
0.000207647 0.000168107 5.09963e-07
-2.52114e-07 5.09963e-07 -5.32424e-05
0.00129674 0.000314865 -2.19084e-06
0.000314865 -0.000144881 -1.15479e-06
-2.19084e-06 -1.15479e-06 -0.000289081
0.00275592 -0.000134681 -6.11066e-05
-0.000134681 -0.00019907 -1.95284e-05
-6.11066e-05 -1.95284e-05 -0.00104564
0.00368003 0.00021789 8.37558e-06
0.00021789 0.00029022 -1.59378e-05
8.37558e-06 -1.59378e-05 -0.00048722
0.000287983 0.000196742 5.5413e-06
0.000196742 -0.000507416 6.02714e-06
5.5413e-06 6.02714e-06 -0.000630738
-0.00176429 -0.000225902 5.70244e-05
-0.000225902 -0.000277029 1.64379e-05
5.70244e-05 1.64379e-05 -0.000813811
-0.000352485 -0.000785438 -5.77849e-06
-0.000785438 -0.00135981 -1.93278e-05
-5.77849e-06 -1.93278e-05 0.000156017
0.00119568 0.000111376 -3.41557e-06
0.000111376 0.000325638 -3.30596e-06
-3.41557e-06 -3.30596e-06 0.00021498
0.000705941 0.000172248 -2.70484e-05
0.000172248 0.000838289 -2.54017e-05
-2.70484e-05 -2.54017e-05 0.000285132
0.00136551 -0.000361126 -5.58449e-05
-0.000361126 0.000896271 -5.59315e-05
-5.58449e-05 -5.59315e-05 0.000867957
0.0023808 0.000261275 -2.31376e-05
0.000261275 0.000402385 -6.01138e-06
-2.31376e-05 -6.01138e-06 0.000418037
0.00106331 9.99856e-05 -1.01315e-05
9.99856e-05 0.000245326 -2.43542e-06
-1.01315e-05 -2.43542e-06 8.06133e-05
0.000988306 0.000312564 -1.66566e-05
0.000312564 -3.14579e-07 -7.93032e-06
-1.66566e-05 -7.93032e-06 -0.000230313
-0.000176581 0.000250136 1.28739e-05
0.000250136 -0.000756379 4.94036e-05
1.28739e-05 4.94036e-05 -0.000766336
0.00816385 -7.07293e-06 -4.07567e-05
-7.07293e-06 0.00286634 -1.90565e-05
-4.07567e-05 -1.90565e-05 0.00148886
0.00363843 0.000460048 -5.42853e-06
0.000460048 0.000601684 1.49048e-05
-5.42853e-06 1.49048e-05 -0.000526655
0.000773716 -0.000630247 2.76208e-05
-0.000630247 -0.000194939 1.81458e-05
2.76208e-05 1.81458e-05 0.000172062
0.00130103 -0.00043864 -2.15966e-05
-0.00043864 -0.00163896 4.65172e-05
-2.15966e-05 4.65172e-05 -0.000465537
0.000869078 -3.09177e-05 1.40765e-06
-3.09177e-05 0.000115446 -4.26762e-07
1.40765e-06 -4.26762e-07 3.232e-05
0.000909179 1.56029e-05 2.87544e-07
1.56029e-05 0.0001357 1.02296e-07
2.87544e-07 1.02296e-07 5.20046e-05
0.00112143 5.80318e-05 -1.38869e-06
5.80318e-05 0.000248476 -3.52682e-06
-1.38869e-06 -3.52682e-06 0.000182313
0.000752946 4.30568e-06 -8.50759e-08
4.30568e-06 3.52583e-05 -2.92994e-09
-8.50759e-08 -2.92994e-09 -3.04249e-05
0.00081328 2.01849e-05 -6.78547e-07
2.01849e-05 6.51142e-05 -1.72711e-07
-6.78547e-07 -1.72711e-07 -9.91629e-06
0.000743255 -3.12057e-05 -5.38319e-07
-3.12057e-05 2.16442e-05 2.249e-07
-5.38319e-07 2.249e-07 -5.04121e-05
0.000891231 -1.04326e-05 -5.58538e-08
-1.04326e-05 0.000102891 7.54659e-07
-5.58538e-08 7.54659e-07 2.93288e-05
0.000894682 -3.62199e-05 -3.51759e-07
-3.62199e-05 0.000106689 1.7387e-06
-3.51759e-07 1.7387e-06 2.98863e-05
0.000651569 -5.86729e-07 5.20326e-07
-5.86729e-07 -2.86159e-05 5.3282e-07
5.20326e-07 5.3282e-07 -9.17191e-05
0.000827317 -5.04935e-06 -1.09656e-07
-5.04935e-06 6.3292e-05 -1.20249e-07
-1.09656e-07 -1.20249e-07 -9.88529e-06
0.000884738 -4.14524e-06 2.02356e-08
-4.14524e-06 9.72983e-05 2.99457e-07
2.02356e-08 2.99457e-07 2.19997e-05
0.000825525 2.23295e-05 5.66718e-07
2.23295e-05 7.28561e-05 -2.42941e-07
5.66718e-07 -2.42941e-07 -6.708e-06
0.000766279 -7.44925e-06 1.29248e-07
-7.44925e-06 2.82755e-05 -1.24742e-07
1.29248e-07 -1.24742e-07 -4.0552e-05
0.000855849 -1.25417e-05 5.10158e-07
-1.25417e-05 7.22283e-05 -1.15369e-06
5.10158e-07 -1.15369e-06 5.18691e-07
0.000732389 2.06965e-05 -8.61128e-07
2.06965e-05 4.07357e-06 -5.01299e-06
-8.61128e-07 -5.01299e-06 -5.94728e-05
0.000890188 -6.12779e-05 2.14039e-07
-6.12779e-05 9.70634e-05 -5.89258e-07
2.14039e-07 -5.89258e-07 1.78651e-05
0.000869937 -4.74997e-05 -5.14213e-07
-4.74997e-05 0.00010024 -7.15353e-07
-5.14213e-07 -7.15353e-07 1.95272e-05
0.000875477 -1.15623e-05 -4.65214e-07
-1.15623e-05 0.000103367 -1.80247e-07
-4.65214e-07 -1.80247e-07 2.51767e-05
0.000899097 4.37121e-05 -5.48991e-07
4.37121e-05 0.000110701 -2.92105e-07
-5.48991e-07 -2.92105e-07 3.56151e-05
0.000863891 1.99494e-05 -7.32401e-07
1.99494e-05 9.76232e-05 -1.33157e-06
-7.32401e-07 -1.33157e-06 1.15466e-05
0.000827606 4.61718e-05 3.38331e-07
4.61718e-05 7.68748e-05 -1.0415e-06
3.38331e-07 -1.0415e-06 2.48919e-06
0.000736604 3.78068e-05 2.37774e-07
3.78068e-05 1.68829e-05 -1.51019e-06
2.37774e-07 -1.51019e-06 -5.39226e-05
0.000733184 5.12279e-05 1.89043e-06
5.12279e-05 4.19369e-05 8.81703e-07
1.89043e-06 8.81703e-07 -3.7767e-05
0.0007592 1.32697e-05 -2.29273e-07
1.32697e-05 4.06317e-05 -3.75597e-07
-2.29273e-07 -3.75597e-07 -2.47708e-05
0.00078283 -2.99473e-06 -9.36389e-08
-2.99473e-06 5.66856e-05 3.87013e-08
-9.36389e-08 3.87013e-08 -1.44765e-05
0.0007663 2.48848e-06 -1.22751e-06
2.48848e-06 2.89836e-05 2.19046e-07
-1.22751e-06 2.19046e-07 -2.50158e-05
0.000813463 9.13496e-06 8.90548e-07
9.13496e-06 6.30836e-05 -6.26909e-08
8.90548e-07 -6.26909e-08 -6.85963e-06
0.000735745 -2.99766e-05 -2.06265e-08
-2.99766e-05 1.53268e-05 3.87179e-08
-2.06265e-08 3.87179e-08 -4.32298e-05
0.000751177 1.45898e-05 -6.96911e-07
1.45898e-05 9.77313e-06 1.49343e-06
-6.96911e-07 1.49343e-06 -2.70648e-05
0.000657491 6.40455e-06 5.66958e-07
6.40455e-06 -2.16057e-05 6.57439e-08
5.66958e-07 6.57439e-08 -8.64154e-05
0.000736961 8.30655e-06 -1.85641e-08
8.30655e-06 2.52719e-06 -1.07321e-08
-1.85641e-08 -1.07321e-08 -3.44398e-05
0.00135005 1.53693e-05 -2.96118e-06
1.53693e-05 0.000335703 4.67672e-06
-2.96118e-06 4.67672e-06 0.000331731
0.000724103 -3.16667e-07 4.95815e-07
-3.16667e-07 -3.78392e-06 -1.38213e-06
4.95815e-07 -1.38213e-06 -4.06619e-05
0.00102293 8.22043e-06 -1.46379e-06
8.22043e-06 0.000149783 7.12124e-07
-1.46379e-06 7.12124e-07 0.000144562
0.000916669 3.77827e-06 -3.21455e-06
3.77827e-06 9.19416e-05 4.42295e-06
-3.21455e-06 4.42295e-06 0.000104973
0.000695895 1.51873e-06 3.60529e-08
1.51873e-06 -3.51822e-05 -3.31294e-06
3.60529e-08 -3.31294e-06 -4.16861e-05
0.00219079 -8.54878e-08 3.01982e-06
-8.54878e-08 0.000807254 -9.70472e-10
3.01982e-06 -9.70472e-10 0.000827224
0.000925258 -3.78621e-06 -2.85938e-06
-3.78621e-06 9.65765e-05 -4.43482e-06
-2.85938e-06 -4.43482e-06 0.000109966
0.000770036 5.9934e-05 7.11661e-07
5.9934e-05 5.06655e-05 -2.85778e-07
7.11661e-07 -2.85778e-07 -9.4048e-06
0.000742687 3.23334e-06 -8.92332e-08
3.23334e-06 7.5124e-06 -1.72494e-06
-8.92332e-08 -1.72494e-06 -2.38949e-05
0.00073692 3.87496e-06 -1.81941e-08
3.87496e-06 4.85987e-06 5.9852e-09
-1.81941e-08 5.9852e-09 -2.70859e-05
0.000697624 5.94031e-06 -7.71192e-08
5.94031e-06 -3.42393e-05 -3.40184e-06
-7.71192e-08 -3.40184e-06 -3.77395e-05
0.000740292 1.70939e-06 -4.56596e-07
1.70939e-06 6.5253e-06 1.79374e-06
-4.56596e-07 1.79374e-06 -2.67429e-05
0.000688545 1.2271e-05 5.95001e-09
1.2271e-05 -3.78692e-05 -7.1969e-07
5.95001e-09 -7.1969e-07 -4.23309e-05
0.00208864 1.81727e-05 8.41329e-06
1.81727e-05 0.000752715 -4.44961e-06
8.41329e-06 -4.44961e-06 0.000773181
0.00129155 2.49796e-05 -1.09662e-06
2.49796e-05 0.000304291 2.10429e-06
-1.09662e-06 2.10429e-06 0.000301152
0.00154111 2.37918e-05 3.88108e-07
2.37918e-05 0.000449722 1.40769e-06
3.88108e-07 1.40769e-06 0.000465306
0.000976051 2.6482e-05 -1.67485e-05
2.6482e-05 0.000137808 7.13433e-06
-1.67485e-05 7.13433e-06 0.0001483
0.000713439 4.77626e-05 2.82401e-05
4.77626e-05 -0.000652009 1.09954e-05
2.82401e-05 1.09954e-05 -0.000748425
0.0018395 8.54941e-06 2.95541e-06
8.54941e-06 6.5279e-05 5.80041e-07
2.95541e-06 5.80041e-07 9.35036e-06
0.00212231 4.04379e-05 1.58118e-05
4.04379e-05 0.000263044 8.70327e-07
1.58118e-05 8.70327e-07 0.000238873
0.000893846 2.66925e-05 1.75574e-05
2.66925e-05 -0.000558375 -3.30309e-06
1.75574e-05 -3.30309e-06 -0.000897203
0.00177766 -8.23389e-06 2.84581e-06
-8.23389e-06 -3.50944e-05 9.14045e-07
2.84581e-06 9.14045e-07 -8.04748e-05
0.00204684 -9.05244e-06 -2.6327e-06
-9.05244e-06 0.000147463 -7.09233e-07
-2.6327e-06 -7.09233e-07 0.000107758
0.00260247 -2.51041e-05 -3.8251e-05
-2.51041e-05 0.000404587 3.74997e-06
-3.8251e-05 3.74997e-06 0.000377893
0.00213123 -0.000102888 0.000139335
-0.000102888 1.86721e-05 -1.01399e-05
0.000139335 -1.01399e-05 -0.000261607
0.00792226 -0.000105267 -2.43174e-05
-0.000105267 0.00237853 6.61022e-06
-2.43174e-05 6.61022e-06 0.00140992
0.00461682 0.000761732 6.60645e-05
0.000761732 0.00224426 -2.02663e-05
6.60645e-05 -2.02663e-05 0.0024254
0.00211377 0.000721547 -1.18067e-05
0.000721547 0.000795682 1.49385e-05
-1.18067e-05 1.49385e-05 0.00180945
0.000581633 -6.32111e-05 1.42489e-06
-6.32111e-05 -4.65223e-05 -1.05923e-06
1.42489e-06 -1.05923e-06 -0.000120077
0.000774102 -9.0488e-06 5.87812e-07
-9.0488e-06 4.97744e-05 -4.85045e-08
5.87812e-07 -4.85045e-08 -7.25267e-06
0.00076832 -6.34402e-05 -1.17556e-06
-6.34402e-05 5.12422e-05 1.28848e-06
-1.17556e-06 1.28848e-06 -9.95546e-06
0.000745672 -2.93076e-05 -3.25072e-07
-2.93076e-05 4.47785e-05 6.6559e-08
-3.25072e-07 6.6559e-08 -3.01911e-05
0.000780061 4.4798e-05 2.54484e-07
4.4798e-05 7.72074e-05 6.1465e-07
2.54484e-07 6.1465e-07 -1.26645e-05
0.000904188 9.12774e-05 7.51446e-07
9.12774e-05 0.000132461 8.00428e-07
7.51446e-07 8.00428e-07 4.85124e-05
0.000831267 -1.93584e-05 9.00911e-07
-1.93584e-05 9.06888e-05 -1.24568e-06
9.00911e-07 -1.24568e-06 1.59717e-05
0.000724339 -3.34152e-05 -5.16756e-07
-3.34152e-05 3.31117e-05 6.34185e-07
-5.16756e-07 6.34185e-07 -4.05594e-05
0.00188793 -9.47048e-05 4.71858e-06
-9.47048e-05 9.32665e-05 -1.05489e-06
4.71858e-06 -1.05489e-06 4.48714e-05
0.00162324 -0.000130262 1.08736e-06
-0.000130262 -0.000121032 -8.56225e-07
1.08736e-06 -8.56225e-07 -0.000179925
0.00152367 -0.000254469 -2.13045e-06
-0.000254469 -9.88582e-05 8.95887e-07
-2.13045e-06 8.95887e-07 -0.000188075
0.000984019 -0.000183599 1.8294e-06
-0.000183599 0.000133155 3.12194e-06
1.8294e-06 3.12194e-06 -4.26179e-05
0.00228048 -0.000313509 1.71735e-06
-0.000313509 0.00054819 9.19873e-07
1.71735e-06 9.19873e-07 0.000364551
0.000828601 -0.000113219 -1.02922e-06
-0.000113219 0.000142401 -7.561e-07
-1.02922e-06 -7.561e-07 -2.55344e-05
0.00132057 -0.00012455 -5.99595e-07
-0.00012455 0.000398855 -4.08351e-07
-5.99595e-07 -4.08351e-07 0.000252757
0.000795159 -6.19645e-05 -1.61632e-06
-6.19645e-05 8.66809e-05 1.1315e-06
-1.61632e-06 1.1315e-06 -1.79381e-05
0.000788804 -7.10624e-06 8.48536e-08
-7.10624e-06 7.63055e-05 1.02982e-06
8.48536e-08 1.02982e-06 -9.88904e-06
0.00100048 9.59776e-06 -1.50065e-06
9.59776e-06 0.000190021 -1.07368e-07
-1.50065e-06 -1.07368e-07 9.40906e-05
0.00099946 -4.27456e-06 7.50488e-07
-4.27456e-06 0.000187853 4.69982e-07
7.50488e-07 4.69982e-07 0.000110559
0.000727731 9.95009e-05 1.35388e-06
9.95009e-05 4.86018e-05 1.93518e-06
1.35388e-06 1.93518e-06 -4.46173e-05
0.00162632 -9.25594e-05 -1.07402e-06
-9.25594e-05 -0.000107889 -2.31324e-06
-1.07402e-06 -2.31324e-06 -0.000158776
0.000787012 3.25684e-05 -5.96156e-07
3.25684e-05 7.97151e-05 3.33697e-07
-5.96156e-07 3.33697e-07 -1.62088e-05
0.00081652 -3.58821e-05 -4.42143e-07
-3.58821e-05 9.50098e-05 -3.50373e-07
-4.42143e-07 -3.50373e-07 -1.42902e-06
0.00203711 -0.000241747 -4.08134e-07
-0.000241747 8.40212e-05 -1.16741e-06
-4.08134e-07 -1.16741e-06 5.20405e-05
0.00125923 -0.000268683 2.56478e-07
-0.000268683 -0.000106165 1.68174e-06
2.56478e-07 1.68174e-06 -0.0002346
0.00152137 -0.000250602 1.68539e-06
-0.000250602 0.000397804 -1.61278e-06
1.68539e-06 -1.61278e-06 0.000199775
0.000895382 -3.44461e-05 3.47056e-07
-3.44461e-05 0.000146095 -5.60855e-07
3.47056e-07 -5.60855e-07 3.51659e-05
0.000964831 -4.05768e-05 -9.79525e-08
-4.05768e-05 0.000229495 4.29233e-07
-9.79525e-08 4.29233e-07 3.57841e-05
0.00353783 -0.000178039 -1.02819e-05
-0.000178039 0.00105407 8.17918e-06
-1.02819e-05 8.17918e-06 0.000961495
0.00296921 -0.000334876 -1.38235e-05
-0.000334876 0.000637622 8.78808e-07
-1.38235e-05 8.78808e-07 0.000626929
-0.000274562 -0.000200668 -4.25884e-06
-0.000200668 -0.000724413 -1.98607e-06
-4.25884e-06 -1.98607e-06 -0.000866488
0.00111917 -0.000153753 -4.44459e-06
-0.000153753 0.000243366 4.5999e-06
-4.44459e-06 4.5999e-06 3.01186e-05
0.000671713 -8.2929e-05 9.28227e-07
-8.2929e-05 1.03695e-05 -3.78996e-07
9.28227e-07 -3.78996e-07 -8.6901e-05
0.000834848 -3.76978e-05 1.07053e-06
-3.76978e-05 0.000105898 -1.87648e-07
1.07053e-06 -1.87648e-07 3.63189e-06
0.000737216 -1.3261e-05 -1.58778e-06
-1.3261e-05 7.29113e-05 5.96675e-07
-1.58778e-06 5.96675e-07 -6.10796e-05
-0.00375747 -2.66756e-05 0.000118601
-2.66756e-05 -0.00177718 2.51792e-06
0.000118601 2.51792e-06 -0.0015505
0.00871258 -7.28122e-05 -2.84532e-05
-7.28122e-05 0.00286857 -5.04709e-07
-2.84532e-05 -5.04709e-07 0.00227861
0.000878384 4.71806e-05 2.40263e-06
4.71806e-05 0.000140615 3.19773e-07
2.40263e-06 3.19773e-07 3.37301e-05
0.000749271 0.000134684 4.30399e-06
0.000134684 7.13034e-05 3.54011e-09
4.30399e-06 3.54011e-09 -7.6478e-05
0.00182905 0.000162711 9.97989e-06
0.000162711 5.18434e-05 7.97716e-06
9.97989e-06 7.97716e-06 7.79541e-05
0.00210962 0.000360073 5.29917e-06
0.000360073 0.000253309 2.16601e-06
5.29917e-06 2.16601e-06 0.000116549
0.00107924 0.000207868 7.13931e-06
0.000207868 0.00012887 1.6415e-06
7.13931e-06 1.6415e-06 -9.36382e-05
0.00601993 0.00024923 6.69965e-05
0.00024923 0.00138093 3.66361e-06
6.69965e-05 3.66361e-06 0.000405694
0.00581809 0.000324643 -9.57872e-05
0.000324643 0.00119772 -2.66867e-05
-9.57872e-05 -2.66867e-05 0.000535381
-0.000206134 0.000141188 3.59891e-06
0.000141188 -0.000745115 -2.02528e-05
3.59891e-06 -2.02528e-05 -0.000874661
0.00440861 -0.000626825 6.44334e-06
-0.000626825 0.00221318 2.2614e-05
6.44334e-06 2.2614e-05 0.00206242
-0.00419471 -0.000817825 -7.18814e-05
-0.000817825 -0.00304188 -7.889e-05
-7.18814e-05 -7.889e-05 -0.00131437
0.000955285 0.00011344 1.95159e-07
0.00011344 0.00020008 -8.09317e-07
1.95159e-07 -8.09317e-07 8.86006e-05
-0.00243596 -0.000211769 3.43938e-05
-0.000211769 -0.00140418 4.14541e-06
3.43938e-05 4.14541e-06 -0.00143406
-0.000779286 -0.000314325 -3.9614e-05
-0.000314325 5.40741e-05 -1.52805e-05
-3.9614e-05 -1.52805e-05 -0.000199909
0.00249494 0.000254164 -4.38195e-06
0.000254164 0.000430838 -2.65389e-06
-4.38195e-06 -2.65389e-06 0.000465167
0.000893548 0.000117206 -1.14696e-06
0.000117206 0.000173017 -5.90803e-07
-1.14696e-06 -5.90803e-07 5.20279e-06
0.000647566 0.000244891 2.63252e-06
0.000244891 -0.000148832 1.79414e-06
2.63252e-06 1.79414e-06 -0.000371645
0.000547184 0.000181865 1.11455e-05
0.000181865 -0.000305181 1.00509e-05
1.11455e-05 1.00509e-05 -0.000267912
0.00633803 2.12497e-05 -1.12757e-05
2.12497e-05 0.00180992 -8.28826e-06
-1.12757e-05 -8.28826e-06 0.000312278
0.00638062 0.000618789 -3.86008e-05
0.000618789 0.00167169 -1.75939e-05
-3.86008e-05 -1.75939e-05 0.000896351
0.00550154 -0.000862793 2.73591e-05
-0.000862793 0.00242071 -1.8623e-05
2.73591e-05 -1.8623e-05 0.0025183
0.00124321 -0.000508889 3.62999e-05
-0.000508889 -0.00179083 8.06341e-05
3.62999e-05 8.06341e-05 -0.000566588
0.00103503 7.00222e-05 -8.38103e-06
7.00222e-05 0.000264494 -6.7252e-06
-8.38103e-06 -6.7252e-06 0.000170043
-0.00261346 -6.91899e-05 -7.46331e-05
-6.91899e-05 -0.000233099 -2.18468e-05
-7.46331e-05 -2.18468e-05 -0.00105229
0.00201727 1.02537e-05 -7.13085e-05
1.02537e-05 0.000356506 -8.09581e-05
-7.13085e-05 -8.09581e-05 -0.000394212
0.0002391 0.000224215 -2.41601e-05
0.000224215 -0.000423129 1.23266e-06
-2.41601e-05 1.23266e-06 -0.000413783
0.00160732 0.000274134 -3.17252e-05
0.000274134 0.00061439 -8.63952e-06
-3.17252e-05 -8.63952e-06 0.000432285
0.00272477 0.000181237 -5.6987e-05
0.000181237 0.00110526 -1.06875e-06
-5.6987e-05 -1.06875e-06 0.000949979
0.00382395 0.000637995 -7.52629e-05
0.000637995 0.000525388 2.03115e-06
-7.52629e-05 2.03115e-06 0.000146498
-0.00103966 4.74995e-05 6.23785e-05
4.74995e-05 -0.000952067 5.29093e-05
6.23785e-05 5.29093e-05 -0.0029596
0.00664723 -0.000793229 -4.31591e-05
-0.000793229 0.00167803 4.68056e-05
-4.31591e-05 4.68056e-05 0.00175393
0.00188642 -0.000301373 -9.77836e-06
-0.000301373 -0.00196285 -1.9849e-05
-9.77836e-06 -1.9849e-05 -0.000753775
0.000924718 2.98843e-05 1.6382e-06
2.98843e-05 0.000149689 2.83627e-06
1.6382e-06 2.83627e-06 6.24104e-05
0.00111261 6.28532e-05 2.2357e-06
6.28532e-05 0.000245835 1.98109e-06
2.2357e-06 1.98109e-06 0.000175836
0.000555343 5.36551e-05 -5.71935e-07
5.36551e-05 -5.61481e-05 -8.19355e-06
-5.71935e-07 -8.19355e-06 -0.000103257
0.000642363 4.19365e-05 5.21743e-07
4.19365e-05 -3.40943e-05 8.93802e-08
5.21743e-07 8.93802e-08 -9.69572e-05
0.000886575 3.74704e-05 -8.13374e-07
3.74704e-05 0.000111815 -3.10297e-07
-8.13374e-07 -3.10297e-07 3.03053e-05
0.000871502 -2.1612e-05 -4.25997e-07
-2.1612e-05 9.06773e-05 7.2575e-07
-4.25997e-07 7.2575e-07 1.57998e-05
0.000861541 -2.02379e-05 -4.3604e-07
-2.02379e-05 8.35528e-05 2.24529e-07
-4.3604e-07 2.24529e-07 9.15879e-06
0.000797103 -1.10416e-05 -5.69618e-07
-1.10416e-05 4.53632e-05 2.59482e-06
-5.69618e-07 2.59482e-06 -2.28744e-05
0.00086967 3.0208e-05 2.5553e-07
3.0208e-05 0.000100652 -5.13181e-07
2.5553e-07 -5.13181e-07 1.96656e-05
0.000907326 -1.20796e-05 -1.1426e-07
-1.20796e-05 0.000101227 4.07267e-07
-1.1426e-07 4.07267e-07 2.93294e-05
0.000900895 -3.2925e-05 3.46602e-08
-3.2925e-05 0.00010567 3.32818e-07
3.46602e-08 3.32818e-07 2.46087e-05
0.000643167 5.93013e-06 4.66988e-08
5.93013e-06 -3.97862e-05 -5.26125e-07
4.66988e-08 -5.26125e-07 -0.000100526
0.000753676 -2.02145e-05 1.8401e-06
-2.02145e-05 3.94703e-05 -4.8838e-06
1.8401e-06 -4.8838e-06 -1.00837e-05
0.000899637 -2.90361e-05 9.88646e-08
-2.90361e-05 9.35601e-05 -3.23186e-06
9.88646e-08 -3.23186e-06 2.08636e-05
0.000924496 2.619e-06 8.34769e-08
2.619e-06 0.000128049 -1.10602e-06
8.34769e-08 -1.10602e-06 3.83702e-05
0.000879018 -3.79688e-05 6.20176e-08
-3.79688e-05 0.000108201 -1.54086e-07
6.20176e-08 -1.54086e-07 2.76753e-05
0.000895369 1.12994e-05 -3.8417e-07
1.12994e-05 0.000104035 8.10826e-07
-3.8417e-07 8.10826e-07 3.15083e-05
0.00086559 -1.39332e-05 3.11387e-07
-1.39332e-05 9.35793e-05 -3.30897e-07
3.11387e-07 -3.30897e-07 1.05836e-05
0.000818225 4.2656e-05 -5.68208e-08
4.2656e-05 6.97847e-05 3.30383e-08
-5.68208e-08 3.30383e-08 -3.72462e-06
0.00078865 9.70684e-06 -2.17329e-07
9.70684e-06 4.47108e-05 3.50004e-07
-2.17329e-07 3.50004e-07 -2.47103e-05
0.000764598 5.7616e-05 9.05352e-07
5.7616e-05 4.85155e-05 -2.80892e-07
9.05352e-07 -2.80892e-07 -2.55473e-05
0.000711478 2.49459e-05 -1.18986e-07
2.49459e-05 8.65513e-06 -2.0372e-06
-1.18986e-07 -2.0372e-06 -7.12498e-05
0.000768542 2.25828e-05 1.00608e-06
2.25828e-05 3.75991e-05 -1.3023e-06
1.00608e-06 -1.3023e-06 -2.99564e-05
0.000814747 2.54985e-05 2.62749e-06
2.54985e-05 7.58496e-05 -1.31722e-06
2.62749e-06 -1.31722e-06 -1.02196e-05
0.000462599 -3.09389e-05 5.323e-07
-3.09389e-05 -7.56223e-05 -7.23036e-08
5.323e-07 -7.23036e-08 -0.000201094
0.000483078 3.37628e-05 6.29532e-07
3.37628e-05 -8.76022e-05 3.27377e-08
6.29532e-07 3.27377e-08 -0.000176267
0.000780055 4.47031e-05 4.63849e-07
4.47031e-05 6.70383e-05 4.94315e-07
4.63849e-07 4.94315e-07 -1.24197e-05
0.000746641 4.56831e-05 5.71283e-07
4.56831e-05 4.0314e-05 3.30335e-07
5.71283e-07 3.30335e-07 -2.86316e-05
0.000784121 1.2693e-05 -2.56873e-07
1.2693e-05 5.85925e-05 -6.38057e-08
-2.56873e-07 -6.38057e-08 -9.905e-06
0.000747506 2.77149e-05 -7.15334e-07
2.77149e-05 2.30521e-05 1.73167e-07
-7.15334e-07 1.73167e-07 -3.16285e-05
0.000803097 1.02532e-05 5.51379e-07
1.02532e-05 6.61129e-05 5.11648e-07
5.51379e-07 5.11648e-07 -3.77142e-06
0.000778854 -5.27554e-06 -1.58093e-07
-5.27554e-06 3.89008e-05 1.56722e-08
-1.58093e-07 1.56722e-08 -1.71404e-05
0.000742146 2.23281e-05 -1.05857e-06
2.23281e-05 5.69888e-06 1.48772e-06
-1.05857e-06 1.48772e-06 -3.10284e-05
0.000694893 -2.16848e-05 8.33742e-07
-2.16848e-05 -9.76256e-06 -2.16214e-07
8.33742e-07 -2.16214e-07 -6.74577e-05
0.000741815 1.16039e-05 -7.63554e-08
1.16039e-05 4.21687e-06 3.50114e-09
-7.63554e-08 3.50114e-09 -3.24885e-05
0.00134473 2.30404e-05 -4.93957e-06
2.30404e-05 0.000335388 4.65408e-06
-4.93957e-06 4.65408e-06 0.000331038
0.000732488 8.71287e-07 8.10342e-07
8.71287e-07 -3.01392e-07 -1.3814e-06
8.10342e-07 -1.3814e-06 -3.71664e-05
0.00102133 1.51851e-05 -2.31891e-06
1.51851e-05 0.000150802 6.93171e-07
-2.31891e-06 6.93171e-07 0.000145242
0.000859962 1.24492e-05 -5.40497e-07
1.24492e-05 6.18191e-05 1.68833e-06
-5.40497e-07 1.68833e-06 7.46472e-05
0.000686915 7.46208e-06 2.78194e-07
7.46208e-06 -3.93696e-05 -3.31086e-06
2.78194e-07 -3.31086e-06 -4.61899e-05
0.00219546 9.43405e-06 2.67132e-06
9.43405e-06 0.000810615 2.50094e-08
2.67132e-06 2.50094e-08 0.000830351
0.00219439 8.09005e-07 5.66581e-07
8.09005e-07 0.000809293 -4.57851e-06
5.66581e-07 -4.57851e-06 0.000829208
0.00105162 4.90986e-05 -1.18942e-06
4.90986e-05 0.000202058 -7.70576e-07
-1.18942e-06 -7.70576e-07 0.000144467
0.000751582 -4.9191e-07 -3.37414e-07
-4.9191e-07 1.19426e-05 -1.80243e-06
-3.37414e-07 -1.80243e-06 -2.01186e-05
0.000763095 4.03219e-06 6.81038e-07
4.03219e-06 4.57856e-05 6.11094e-07
6.81038e-07 6.11094e-07 -1.34785e-05
0.000699136 -4.32672e-07 -1.35937e-07
-4.32672e-07 -3.41405e-05 -3.41727e-06
-1.35937e-07 -3.41727e-06 -3.72294e-05
0.000744503 8.8732e-07 1.54932e-07
8.8732e-07 8.51667e-06 -1.42687e-08
1.54932e-07 -1.42687e-08 -2.28927e-05
0.000740815 1.67474e-06 -3.17206e-07
1.67474e-06 6.90845e-06 1.74205e-06
-3.17206e-07 1.74205e-06 -2.5036e-05
0.000700884 6.20162e-06 -1.53998e-07
6.20162e-06 -3.25044e-05 3.22893e-09
-1.53998e-07 3.22893e-09 -3.603e-05
0.00207138 8.53088e-06 3.97136e-06
8.53088e-06 0.00074101 -4.51415e-06
3.97136e-06 -4.51415e-06 0.000762163
0.00128263 1.67752e-05 -6.71759e-07
1.67752e-05 0.00029595 2.06981e-06
-6.71759e-07 2.06981e-06 0.000294572
0.00148897 1.59377e-05 2.21847e-06
1.59377e-05 0.00041593 6.41606e-08
2.21847e-06 6.41606e-08 0.000433022
0.000950811 1.90934e-05 -1.46867e-05
1.90934e-05 0.000117585 7.08361e-06
-1.46867e-05 7.08361e-06 0.000130317
-0.00612302 0.000131804 7.26572e-05
0.000131804 -0.00297261 -2.68616e-06
7.26572e-05 -2.68616e-06 -0.00319187
-0.0014349 0.000228162 4.35669e-05
0.000228162 -0.000157892 1.93621e-05
4.35669e-05 1.93621e-05 -0.000398091
0.00339824 4.01653e-05 -0.000146844
4.01653e-05 0.000656435 8.84757e-07
-0.000146844 8.84757e-07 0.000309602
0.00175632 -5.17511e-06 2.67794e-05
-5.17511e-06 5.48893e-06 3.26445e-06
2.67794e-05 3.26445e-06 -3.99688e-05
0.00159958 -1.96293e-05 7.28711e-06
-1.96293e-05 -0.000155767 1.00437e-06
7.28711e-06 1.00437e-06 -0.000190368
0.00106515 3.65351e-06 2.57062e-05
3.65351e-06 -0.000370135 -1.09424e-06
2.57062e-05 -1.09424e-06 -0.000533969
0.00214043 -4.20036e-05 -1.22804e-09
-4.20036e-05 0.00016368 1.11591e-06
-1.22804e-09 1.11591e-06 0.000118203
0.0061643 0.000192388 -9.30573e-06
0.000192388 0.00148134 -1.83939e-05
-9.30573e-06 -1.83939e-05 0.000658901
-0.00371607 0.000302929 -2.38128e-05
0.000302929 -0.00144919 -7.4464e-07
-2.38128e-05 -7.4464e-07 -0.00174262
-0.00115056 0.000767338 -2.00274e-05
0.000767338 -0.00118105 7.24756e-06
-2.00274e-05 7.24756e-06 0.000233745
0.00208457 -0.000129603 6.57127e-05
-0.000129603 8.23437e-05 8.89306e-06
6.57127e-05 8.89306e-06 -0.000169752
0.00725355 0.000245757 2.04431e-05
0.000245757 0.00233091 -5.11639e-06
2.04431e-05 -5.11639e-06 0.00112258
0.000202226 0.000610953 1.7108e-07
0.000610953 -0.000448952 -4.94723e-05
1.7108e-07 -4.94723e-05 6.20343e-05
0.00386337 0.000556151 -6.93031e-05
0.000556151 -3.91303e-05 5.00866e-05
-6.93031e-05 5.00866e-05 0.00084372
0.000777563 5.58744e-05 -6.33797e-07
5.58744e-05 7.13421e-05 -1.84875e-07
-6.33797e-07 -1.84875e-07 -2.20066e-05
0.000681455 6.4807e-06 -2.12542e-07
6.4807e-06 5.33695e-06 -4.28532e-07
-2.12542e-07 -4.28532e-07 -6.5842e-05
0.000769618 -6.20284e-05 -8.70453e-07
-6.20284e-05 5.06173e-05 1.09469e-06
-8.70453e-07 1.09469e-06 -8.92534e-06
0.000686671 -4.95221e-07 1.5709e-07
-4.95221e-07 1.4872e-05 6.6191e-07
1.5709e-07 6.6191e-07 -6.24926e-05
0.000780353 5.14525e-05 7.81138e-07
5.14525e-05 7.79625e-05 1.00614e-06
7.81138e-07 1.00614e-06 -1.11912e-05
0.000879907 5.0504e-05 -5.50547e-07
5.0504e-05 0.000121827 2.5129e-07
-5.50547e-07 2.5129e-07 3.18993e-05
0.000842279 6.52029e-05 1.49305e-06
6.52029e-05 0.000101681 1.21305e-06
1.49305e-06 1.21305e-06 1.50617e-05
0.000764447 -1.23308e-05 8.83284e-07
-1.23308e-05 4.85702e-05 2.82427e-08
8.83284e-07 2.82427e-08 -2.89899e-05
0.000758404 -2.18603e-05 4.00738e-07
-2.18603e-05 5.34212e-05 -6.78731e-07
4.00738e-07 -6.78731e-07 -2.43025e-05
0.000672872 -1.523e-05 9.86219e-08
-1.523e-05 2.39217e-07 8.9822e-07
9.86219e-08 8.9822e-07 -7.10007e-05
0.000785729 -9.03059e-05 2.90875e-06
-9.03059e-05 -0.000574167 -3.88213e-06
2.90875e-06 -3.88213e-06 -0.000619492
0.00158671 -0.000230855 6.65977e-06
-0.000230855 -0.000132848 9.38843e-07
6.65977e-06 9.38843e-07 -0.000178229
6.62924e-05 -0.000203459 6.05991e-06
-0.000203459 -0.000720549 3.24069e-06
6.05991e-06 3.24069e-06 -0.000832599
0.00162339 -0.000258393 1.72654e-06
-0.000258393 0.000448227 8.737e-07
1.72654e-06 8.737e-07 0.000238027
0.00132363 -7.64359e-05 1.23103e-06
-7.64359e-05 0.000414754 -9.30461e-07
1.23103e-06 -9.30461e-07 0.000227246
0.00105247 -4.85401e-05 -3.55053e-07
-4.85401e-05 0.000235118 -5.25323e-07
-3.55053e-07 -5.25323e-07 0.000119803
0.000885676 -2.82445e-05 -9.97718e-07
-2.82445e-05 0.000127221 -4.93718e-08
-9.97718e-07 -4.93718e-08 3.48976e-05
0.000808507 3.94951e-05 -1.14853e-06
3.94951e-05 9.12177e-05 5.59184e-07
-1.14853e-06 5.59184e-07 -2.24258e-06
0.00181078 -0.000145828 -3.07559e-06
-0.000145828 0.000113979 1.73418e-06
-3.07559e-06 1.73418e-06 4.48861e-05
0.000715084 -3.48722e-05 -7.04662e-08
-3.48722e-05 3.65963e-05 5.84065e-08
-7.04662e-08 5.84065e-08 -6.25216e-05
0.000803086 -3.60503e-05 4.43908e-07
-3.60503e-05 8.76245e-05 -4.22247e-07
4.43908e-07 -4.22247e-07 -1.5219e-05
0.00194537 -0.000292965 3.97316e-06
-0.000292965 0.000114521 -2.20129e-06
3.97316e-06 -2.20129e-06 9.73027e-05
0.00021167 -0.00022523 1.48236e-06
-0.00022523 -0.00045143 1.30187e-06
1.48236e-06 1.30187e-06 -0.000592844
0.00114126 -0.000154335 2.86821e-06
-0.000154335 0.000245786 -1.66976e-06
2.86821e-06 -1.66976e-06 3.66343e-05
0.0010047 -4.58432e-05 -6.03428e-07
-4.58432e-05 0.000224098 -7.30077e-07
-6.03428e-07 -7.30077e-07 7.79247e-05
0.00164079 -0.000223188 1.71309e-06
-0.000223188 0.000334369 -5.12607e-06
1.71309e-06 -5.12607e-06 0.000120685
0.00163871 -0.000251304 -1.71218e-05
-0.000251304 0.00028583 1.98561e-06
-1.71218e-05 1.98561e-06 0.000217953
0.000450954 -2.80468e-05 -1.25085e-05
-2.80468e-05 -4.84425e-05 1.29112e-05
-1.25085e-05 1.29112e-05 -0.000232601
0.000785004 2.97325e-05 6.17396e-07
2.97325e-05 7.08721e-05 8.44373e-07
6.17396e-07 8.44373e-07 -2.62377e-05
0.000634925 -7.69203e-05 1.22813e-06
-7.69203e-05 -1.01456e-05 9.36482e-08
1.22813e-06 9.36482e-08 -0.000113249
0.000831352 -2.3381e-05 7.15344e-07
-2.3381e-05 9.2494e-05 1.60771e-06
7.15344e-07 1.60771e-06 -1.10881e-05
0.000901445 1.78153e-05 -9.11267e-05
1.78153e-05 0.00162022 -1.34051e-06
-9.11267e-05 -1.34051e-06 0.00113007
0.00190006 -0.000110816 1.3941e-05
-0.000110816 0.00127003 6.79934e-06
1.3941e-05 6.79934e-06 0.00112041
-7.54393e-05 0.000284031 -5.39549e-05
0.000284031 -0.001925 2.20794e-05
-5.39549e-05 2.20794e-05 -0.00250227
0.000777499 9.98193e-05 3.91708e-06
9.98193e-05 0.000105429 1.9465e-06
3.91708e-06 1.9465e-06 -3.33297e-06
0.000765968 0.000134432 7.47821e-06
0.000134432 0.000120939 2.96235e-06
7.47821e-06 2.96235e-06 -4.85002e-05
0.00266215 0.000244706 1.23714e-05
0.000244706 0.000498221 3.95961e-06
1.23714e-05 3.95961e-06 0.000540888
0.000502586 0.000174794 1.26137e-05
0.000174794 -0.000194779 5.97099e-06
1.26137e-05 5.97099e-06 -0.000411218
0.00428493 -0.000342941 4.0967e-05
-0.000342941 0.00183819 1.75833e-05
4.0967e-05 1.75833e-05 0.00189899
-0.000373468 -0.000137638 -2.86079e-05
-0.000137638 -0.00151288 3.3498e-06
-2.86079e-05 3.3498e-06 -0.00276715
0.00356888 0.00051832 -7.38099e-05
0.00051832 2.74221e-05 -4.08585e-05
-7.38099e-05 -4.08585e-05 -0.000817324
0.000353403 0.000102531 2.59798e-05
0.000102531 -0.000326463 -1.63316e-05
2.59798e-05 -1.63316e-05 -0.000285326
-0.00332918 -0.000391738 8.21119e-06
-0.000391738 -0.00145458 -9.32361e-06
8.21119e-06 -9.32361e-06 -0.00154202
0.000794439 -0.000351291 1.89069e-05
-0.000351291 0.000548174 2.43156e-05
1.89069e-05 2.43156e-05 0.000294095
0.00481006 -0.000631715 7.97299e-05
-0.000631715 0.000107165 6.3364e-05
7.97299e-05 6.3364e-05 0.00141954
0.000819268 7.55778e-05 1.6687e-06
7.55778e-05 0.00015629 -1.76096e-06
1.6687e-06 -1.76096e-06 5.75508e-05
-0.000352215 -0.000121562 -3.13449e-05
-0.000121562 0.000702306 -1.09572e-05
-3.13449e-05 -1.09572e-05 0.000126471
0.00226303 1.38605e-05 -2.79588e-06
1.38605e-05 0.000487325 -1.79497e-05
-2.79588e-06 -1.79497e-05 -0.000289534
0.000781314 0.000188835 -7.29482e-06
0.000188835 -8.49564e-05 2.59635e-06
-7.29482e-06 2.59635e-06 -0.000129656
0.000671578 0.000136604 -6.20654e-07
0.000136604 0.000149004 1.08343e-06
-6.20654e-07 1.08343e-06 -3.89832e-05
0.000249865 0.000147236 3.06629e-05
0.000147236 -0.000160315 -1.94083e-05
3.06629e-05 -1.94083e-05 -0.000265078
0.005673 0.0008186 -1.86221e-05
0.0008186 0.00152828 -9.43447e-08
-1.86221e-05 -9.43447e-08 0.000801932
0.00841694 -0.000191197 3.801e-05
-0.000191197 0.00319609 1.1798e-05
3.801e-05 1.1798e-05 0.00163474
0.00187751 -0.00050281 1.66426e-06
-0.00050281 -0.000982872 -8.0224e-06
1.66426e-06 -8.0224e-06 -0.000713124
0.00567391 -0.000401543 5.33768e-06
-0.000401543 0.000524656 -8.90114e-06
5.33768e-06 -8.90114e-06 0.00165457
0.000811102 0.000106861 -1.35077e-05
0.000106861 0.000202475 -9.91837e-06
-1.35077e-05 -9.91837e-06 0.000128485
0.00178519 -4.90846e-05 -6.17588e-05
-4.90846e-05 0.000242423 -2.78691e-05
-6.17588e-05 -2.78691e-05 -0.000288867
0.00137112 1.41823e-05 -1.59974e-05
1.41823e-05 0.000202525 -4.64259e-05
-1.59974e-05 -4.64259e-05 -0.000466794
-0.000954389 -6.36643e-06 -2.42078e-05
-6.36643e-06 -0.000539158 -1.58034e-05
-2.42078e-05 -1.58034e-05 -0.000652534
0.00274916 0.000340215 -3.70027e-06
0.000340215 0.000713023 5.51123e-05
-3.70027e-06 5.51123e-05 0.000238446
0.00809588 -2.2649e-06 2.14029e-05
-2.2649e-06 0.00291416 4.80629e-06
2.14029e-05 4.80629e-06 0.00109924
-0.00582316 -0.000459884 -5.37041e-05
-0.000459884 -0.0038802 1.12067e-05
-5.37041e-05 1.12067e-05 -0.00471121
0.00494951 9.60377e-05 -3.01093e-06
9.60377e-05 -0.000353882 -6.78489e-05
-3.01093e-06 -6.78489e-05 0.000971814
0.00103887 6.2202e-05 2.57687e-06
6.2202e-05 0.000206171 5.67899e-06
2.57687e-06 5.67899e-06 0.000133892
0.000840808 7.15646e-05 -2.82602e-06
7.15646e-05 0.000100269 -5.31021e-07
-2.82602e-06 -5.31021e-07 5.24155e-05
0.000846765 5.64542e-05 -1.38286e-06
5.64542e-05 0.000130382 -5.69776e-06
-1.38286e-06 -5.69776e-06 9.16038e-05
0.000882587 6.60253e-05 -1.40189e-06
6.60253e-05 0.000101533 -3.63702e-07
-1.40189e-06 -3.63702e-07 2.45795e-05
0.000922542 -2.97804e-05 -1.87862e-07
-2.97804e-05 0.000122852 1.31588e-06
-1.87862e-07 1.31588e-06 3.81938e-05
0.000958561 -2.73761e-06 -6.61489e-07
-2.73761e-06 0.000130035 1.78048e-06
-6.61489e-07 1.78048e-06 5.77627e-05
0.000568444 -5.24571e-06 -5.17793e-07
-5.24571e-06 -7.49218e-05 3.88419e-06
-5.17793e-07 3.88419e-06 -0.000133833
0.000892471 8.99328e-06 4.96414e-07
8.99328e-06 0.000101367 3.34567e-08
4.96414e-07 3.34567e-08 1.83008e-05
0.000871305 -1.17867e-05 -1.86039e-07
-1.17867e-05 7.90788e-05 -2.33305e-07
-1.86039e-07 -2.33305e-07 5.90463e-06
0.000653148 -1.65952e-05 1.24825e-07
-1.65952e-05 -1.28357e-05 9.87966e-07
1.24825e-07 9.87966e-07 -6.23732e-05
0.000551109 -2.30971e-05 -3.37184e-07
-2.30971e-05 -1.72604e-05 -4.44504e-06
-3.37184e-07 -4.44504e-06 -4.9704e-05
0.000995514 -2.4639e-05 3.4497e-06
-2.4639e-05 0.000157975 -5.90689e-06
3.4497e-06 -5.90689e-06 0.000102688
0.000807669 3.50272e-05 4.56232e-07
3.50272e-05 5.42361e-05 -2.19501e-06
4.56232e-07 -2.19501e-06 -2.74476e-05
0.000881895 -4.67629e-05 9.9268e-07
-4.67629e-05 9.61795e-05 6.58677e-07
9.9268e-07 6.58677e-07 1.70202e-05
0.000797525 4.67139e-05 -1.50867e-07
4.67139e-05 5.70996e-05 6.74886e-07
-1.50867e-07 6.74886e-07 -1.58213e-05
0.000845517 2.9983e-06 -7.30668e-07
2.9983e-06 7.68448e-05 1.78718e-06
-7.30668e-07 1.78718e-06 7.8796e-06
0.000758494 1.94868e-05 3.05032e-07
1.94868e-05 3.00959e-05 3.01266e-07
3.05032e-07 3.01266e-07 -4.62214e-05
0.000787194 5.36575e-05 1.97185e-07
5.36575e-05 6.13224e-05 2.41139e-07
1.97185e-07 2.41139e-07 -1.30745e-05
0.00083667 3.62614e-05 -2.55049e-07
3.62614e-05 7.58014e-05 3.97605e-08
-2.55049e-07 3.97605e-08 7.29911e-06
0.000854734 4.00994e-05 1.63293e-06
4.00994e-05 9.04824e-05 -9.05258e-07
1.63293e-06 -9.05258e-07 1.72769e-05
0.000715104 1.83533e-05 1.52041e-06
1.83533e-05 2.03582e-05 -2.28544e-06
1.52041e-06 -2.28544e-06 -4.37546e-05
0.000676108 -5.66127e-05 1.47658e-06
-5.66127e-05 5.76457e-06 -6.30606e-07
1.47658e-06 -6.30606e-07 -8.50474e-05
0.000897872 1.0311e-05 -9.81204e-07
1.0311e-05 0.000123983 -1.99808e-07
-9.81204e-07 -1.99808e-07 3.66145e-05
0.000647764 -4.33608e-05 1.96398e-06
-4.33608e-05 1.66419e-05 1.28306e-06
1.96398e-06 1.28306e-06 -9.83788e-05
0.00103901 -0.000147795 -1.30134e-06
-0.000147795 0.000210831 3.26553e-06
-1.30134e-06 3.26553e-06 5.57426e-05
0.00112978 -3.22972e-05 1.25641e-06
-3.22972e-05 0.000274317 -5.80754e-07
1.25641e-06 -5.80754e-07 0.000170913
0.000593184 -4.83665e-05 -2.41587e-07
-4.83665e-05 -1.29584e-07 -2.67629e-06
-2.41587e-07 -2.67629e-06 -0.000123994
0.000750548 3.47625e-05 -6.09263e-07
3.47625e-05 5.77143e-05 -5.65629e-07
-6.09263e-07 -5.65629e-07 -2.91638e-05
0.000532465 3.81154e-05 1.04345e-06
3.81154e-05 -7.23128e-05 6.14132e-07
1.04345e-06 6.14132e-07 -0.000148565
0.000833103 3.377e-05 -6.97878e-07
3.377e-05 9.51014e-05 1.64192e-07
-6.97878e-07 1.64192e-07 1.61299e-05
0.000793731 1.20489e-05 -3.06217e-07
1.20489e-05 6.77021e-05 3.51274e-07
-3.06217e-07 3.51274e-07 -2.73337e-06
0.0007347 3.68552e-05 -6.54559e-07
3.68552e-05 1.85715e-05 3.42633e-07
-6.54559e-07 3.42633e-07 -3.69432e-05
0.000821571 -1.55396e-05 2.92745e-07
-1.55396e-05 8.44001e-05 2.3028e-07
2.92745e-07 2.3028e-07 1.20167e-05
0.000771778 -2.58293e-06 -4.42801e-07
-2.58293e-06 3.79245e-05 3.01512e-08
-4.42801e-07 3.01512e-08 -1.80668e-05
0.000736015 2.88049e-05 -1.28397e-06
2.88049e-05 5.57899e-06 1.46256e-06
-1.28397e-06 1.46256e-06 -3.15165e-05
0.000802734 -2.9718e-05 1.30485e-06
-2.9718e-05 5.41217e-05 -1.93886e-07
1.30485e-06 -1.93886e-07 -3.35918e-06
0.000745483 1.81931e-05 -1.56743e-07
1.81931e-05 6.94049e-06 5.56488e-09
-1.56743e-07 5.56488e-09 -2.95573e-05
0.00133069 3.08932e-05 -6.81065e-06
3.08932e-05 0.000331503 4.57349e-06
-6.81065e-06 4.57349e-06 0.000326643
0.000739103 7.66217e-06 1.18194e-06
7.66217e-06 2.29207e-06 -1.41066e-06
1.18194e-06 -1.41066e-06 -3.42481e-05
0.00101335 2.22369e-05 -3.11649e-06
2.22369e-05 0.000149293 6.61287e-07
-3.11649e-06 6.61287e-07 0.000143377
0.000859516 1.92123e-05 -1.03112e-06
1.92123e-05 6.57046e-05 1.69515e-06
-1.03112e-06 1.69515e-06 7.7813e-05
0.000678539 1.36251e-05 4.41498e-07
1.36251e-05 -4.22402e-05 -3.32667e-06
4.41498e-07 -3.32667e-06 -4.93514e-05
0.00152737 1.69453e-05 4.91617e-06
1.69453e-05 0.000436966 -1.3547e-06
4.91617e-06 -1.3547e-06 0.00045302
0.00220385 1.08921e-05 4.86123e-06
1.08921e-05 0.000815702 -4.50838e-06
4.86123e-06 -4.50838e-06 0.000835321
0.000833654 -1.8347e-05 5.88357e-07
-1.8347e-05 7.60443e-05 -6.53123e-07
5.88357e-07 -6.53123e-07 1.73167e-05
0.000756145 -5.20354e-06 -2.28112e-07
-5.20354e-06 1.4471e-05 -1.81908e-06
-2.28112e-07 -1.81908e-06 -1.88225e-05
0.000821815 -2.64538e-06 4.57639e-07
-2.64538e-06 7.3585e-05 1.41051e-07
4.57639e-07 1.41051e-07 1.57388e-05
0.000700985 -6.73715e-06 -3.03494e-07
-6.73715e-06 -3.25502e-05 -3.42789e-06
-3.03494e-07 -3.42789e-06 -3.60216e-05
0.000746618 -1.79719e-06 -7.02126e-08
-1.79719e-06 9.26093e-06 -2.16794e-08
-7.02126e-08 -2.16794e-08 -2.27466e-05
0.000761594 -4.64231e-05 -1.72217e-06
-4.64231e-05 4.08502e-05 1.57777e-06
-1.72217e-06 1.57777e-06 -1.54318e-05
0.00206798 -1.12784e-06 -2.91204e-07
-1.12784e-06 0.000738595 -4.52372e-06
-2.91204e-07 -4.52372e-06 0.000759932
0.000701643 -1.57451e-07 -9.25411e-08
-1.57451e-07 -3.27694e-05 -9.56334e-10
-9.25411e-08 -9.56334e-10 -3.58583e-05
0.00073889 -1.91599e-06 1.36593e-08
-1.91599e-06 5.3137e-06 1.73557e-06
1.36593e-08 1.73557e-06 -2.60553e-05
0.000704098 6.46718e-06 -4.53573e-08
6.46718e-06 -3.07896e-05 3.41866e-06
-4.53573e-08 3.41866e-06 -3.43429e-05
0.00207545 9.3527e-06 -2.79159e-06
9.3527e-06 0.000743497 -2.60109e-08
-2.79159e-06 -2.60109e-08 0.000764578
0.00210229 1.84495e-05 -1.10436e-05
1.84495e-05 0.000760607 4.39693e-06
-1.10436e-05 4.39693e-06 0.000781008
-0.00185592 3.22234e-05 -4.18945e-05
3.22234e-05 3.86873e-05 8.53546e-06
-4.18945e-05 8.53546e-06 -0.000645032
-0.000943976 0.000276178 -1.15731e-05
0.000276178 -0.000352695 5.25e-06
-1.15731e-05 5.25e-06 -0.000526942
0.00241243 1.34122e-05 -8.99192e-05
1.34122e-05 0.000349643 6.81977e-05
-8.99192e-05 6.81977e-05 -0.000326279
-0.0018804 0.000258943 8.75939e-05
0.000258943 -0.000183251 -3.62594e-05
8.75939e-05 -3.62594e-05 -0.000338669
0.00271444 0.000113645 -9.5721e-05
0.000113645 0.000344623 1.52849e-05
-9.5721e-05 1.52849e-05 5.70089e-05
0.0020177 -5.97598e-05 6.06598e-05
-5.97598e-05 0.000103063 -9.61319e-06
6.06598e-05 -9.61319e-06 5.43375e-05
0.00154191 -0.000317465 -8.68856e-05
-0.000317465 -0.000823921 -3.48037e-05
-8.68856e-05 -3.48037e-05 -0.0015463
0.00820496 0.00051119 3.83101e-05
0.00051119 0.00406695 -1.71672e-05
3.83101e-05 -1.71672e-05 0.00402201
-0.00438029 0.000836223 -7.30908e-05
0.000836223 -0.00319435 8.30868e-05
-7.30908e-05 8.30868e-05 -0.00133932
0.00153374 -1.37575e-05 -5.65271e-06
-1.37575e-05 -0.000327518 -4.70736e-06
-5.65271e-06 -4.70736e-06 -0.000568372
0.00254669 9.53908e-05 1.83654e-05
9.53908e-05 0.00012978 -2.28927e-05
1.83654e-05 -2.28927e-05 -0.00153117
0.00585253 0.000900846 -1.93613e-05
0.000900846 0.00188385 -2.61093e-05
-1.93613e-05 -2.61093e-05 0.00239195
0.00175216 0.000543831 -1.79429e-05
0.000543831 -0.00131766 3.89979e-05
-1.79429e-05 3.89979e-05 -0.000357054
0.00311472 -0.000230582 -3.51781e-05
-0.000230582 0.000307652 1.24786e-05
-3.51781e-05 1.24786e-05 -0.000121732
0.00416986 2.94269e-05 9.76736e-05
2.94269e-05 0.00139774 -6.18904e-05
9.76736e-05 -6.18904e-05 -0.000606557
-0.00555777 0.000243868 -6.9504e-05
0.000243868 -0.00439487 -6.58712e-05
-6.9504e-05 -6.58712e-05 -0.00410871
0.00135853 0.000338214 -2.22765e-05
0.000338214 -0.00250133 1.67276e-05
-2.22765e-05 1.67276e-05 -0.00132789
0.000859358 -1.79118e-05 1.07497e-06
-1.79118e-05 0.000113996 3.6186e-07
1.07497e-06 3.6186e-07 1.63473e-05
0.000836045 4.28389e-05 -1.65023e-06
4.28389e-05 0.000103249 -4.86268e-07
-1.65023e-06 -4.86268e-07 1.19194e-05
0.000790102 2.54675e-05 6.26304e-07
2.54675e-05 6.65251e-05 -8.35322e-08
6.26304e-07 -8.35322e-08 -4.26641e-06
0.000824561 5.91202e-05 1.82965e-06
5.91202e-05 0.000102854 1.44553e-06
1.82965e-06 1.44553e-06 1.43319e-05
0.000757113 2.04478e-05 -2.16813e-07
2.04478e-05 5.34467e-05 5.97579e-07
-2.16813e-07 5.97579e-07 -4.38623e-05
0.000901852 5.25798e-05 2.19483e-07
5.25798e-05 0.000135471 6.36699e-07
2.19483e-07 6.36699e-07 4.52596e-05
0.000781013 7.77689e-06 -1.77368e-07
7.77689e-06 6.45951e-05 1.62067e-06
-1.77368e-07 1.62067e-06 -1.9735e-05
0.000905958 8.08458e-05 -4.91904e-07
8.08458e-05 0.000138691 3.99406e-07
-4.91904e-07 3.99406e-07 4.97472e-05
0.000880384 3.9764e-05 -2.27609e-07
3.9764e-05 0.000124137 3.62492e-07
-2.27609e-07 3.62492e-07 3.91664e-05
0.000698113 -1.40733e-05 -1.04701e-06
-1.40733e-05 2.23908e-05 -9.67385e-08
-1.04701e-06 -9.67385e-08 -5.80243e-05
-3.25357e-05 -0.000107236 1.5342e-05
-0.000107236 -0.000870529 -9.97421e-06
1.5342e-05 -9.97421e-06 -0.000910783
0.0011025 -0.000266308 1.26883e-05
-0.000266308 -0.000315255 -2.34677e-08
1.26883e-05 -2.34677e-08 -0.000346214
0.000907446 -0.000262874 9.32035e-06
-0.000262874 -7.02772e-05 1.37019e-06
9.32035e-06 1.37019e-06 -0.000212808
0.00118073 -0.000153666 6.44168e-06
-0.000153666 0.000257602 -3.50342e-06
6.44168e-06 -3.50342e-06 4.89696e-05
0.00122181 -4.76487e-05 9.97362e-07
-4.76487e-05 0.000347954 -1.14037e-06
9.97362e-07 -1.14037e-06 0.00019048
0.000760589 -4.66235e-05 -8.07919e-07
-4.66235e-05 6.84404e-05 -4.70277e-07
-8.07919e-07 -4.70277e-07 -3.85258e-05
0.000788656 5.67391e-05 -2.1465e-07
5.67391e-05 7.97425e-05 -1.22029e-07
-2.1465e-07 -1.22029e-07 -2.23562e-05
0.000806318 -3.63819e-05 -2.28406e-07
-3.63819e-05 8.65354e-05 5.3197e-07
-2.28406e-07 5.3197e-07 -1.30041e-05
0.00123454 -0.000178664 1.43041e-06
-0.000178664 9.74326e-05 -4.12192e-07
1.43041e-06 -4.12192e-07 -4.29909e-05
0.000833369 5.60749e-06 -4.01795e-07
5.60749e-06 0.000103946 -3.69328e-07
-4.01795e-07 -3.69328e-07 -3.01912e-06
0.000985056 -3.97266e-05 2.32277e-07
-3.97266e-05 0.000184306 1.5906e-07
2.32277e-07 1.5906e-07 7.34569e-05
0.00140847 -0.000239995 -1.45205e-06
-0.000239995 0.000153684 1.15021e-07
-1.45205e-06 1.15021e-07 9.93529e-05
0.00100505 -5.27868e-05 -5.03564e-06
-5.27868e-05 0.000219942 2.47845e-06
-5.03564e-06 2.47845e-06 4.40114e-05
-0.000571255 -0.000212363 -1.41888e-06
-0.000212363 -0.000885465 -1.17186e-05
-1.41888e-06 -1.17186e-05 -0.000905831
0.00125651 -9.06796e-05 -1.49338e-05
-9.06796e-05 0.000403298 1.10086e-05
-1.49338e-05 1.10086e-05 0.000291642
0.000423805 1.60563e-05 -2.68293e-06
1.60563e-05 -0.000130997 1.03734e-05
-2.68293e-06 1.03734e-05 -0.000233431
0.000822216 -3.17412e-06 4.59137e-07
-3.17412e-06 7.83182e-05 4.52031e-07
4.59137e-07 4.52031e-07 -1.66548e-05
0.000764819 2.04375e-05 7.35972e-09
2.04375e-05 5.69979e-05 7.19485e-07
7.35972e-09 7.19485e-07 -5.40557e-05
0.00128237 -6.88772e-06 -2.81093e-05
-6.88772e-06 3.31537e-05 -4.55665e-06
-2.81093e-05 -4.55665e-06 -0.000400755
-0.00057502 -6.78963e-06 -4.28118e-05
-6.78963e-06 0.000886366 -1.61046e-06
-4.28118e-05 -1.61046e-06 0.000259337
-0.00643319 -0.000135065 -0.000128131
-0.000135065 -0.00319943 1.63858e-06
-0.000128131 1.63858e-06 -0.00320662
0.000634259 8.94643e-05 7.89502e-06
8.94643e-05 6.72284e-05 2.36627e-06
7.89502e-06 2.36627e-06 -3.82227e-05
-0.000233183 2.08226e-05 7.9225e-06
2.08226e-05 -0.000307984 3.20944e-06
7.9225e-06 3.20944e-06 -0.000502339
0.00125273 0.000144493 1.76682e-05
0.000144493 0.000192445 -8.46511e-07
1.76682e-05 -8.46511e-07 0.000124897
-0.00178888 -1.98555e-05 1.1891e-05
-1.98555e-05 3.10829e-05 7.33009e-06
1.1891e-05 7.33009e-06 -0.000683306
0.00332514 -0.000154778 -3.07793e-05
-0.000154778 0.0010451 -2.58184e-05
-3.07793e-05 -2.58184e-05 -0.00102572
0.00378319 0.000675303 4.74258e-05
0.000675303 0.000372442 -1.30742e-05
4.74258e-05 -1.30742e-05 -0.000154557
0.000588333 0.000161599 9.09418e-06
0.000161599 4.2946e-05 -3.72524e-06
9.09418e-06 -3.72524e-06 4.78802e-05
0.00677371 -0.000680176 3.09692e-05
-0.000680176 0.00193581 1.52519e-06
3.09692e-05 1.52519e-06 0.00196954
0.00252073 9.91224e-06 6.15102e-05
9.91224e-06 0.00067309 4.48441e-05
6.15102e-05 4.48441e-05 -0.000129082
0.00546612 -0.000359171 2.64129e-05
-0.000359171 0.000656416 1.20133e-05
2.64129e-05 1.20133e-05 0.00182887
0.000914701 0.000113128 2.00766e-07
0.000113128 0.000269541 -2.11381e-06
2.00766e-07 -2.11381e-06 0.000192919
0.00180492 -4.18205e-05 3.91365e-06
-4.18205e-05 0.000344586 -7.49903e-06
3.91365e-06 -7.49903e-06 -0.000134633
0.00157732 2.33158e-05 3.81652e-06
2.33158e-05 0.000205237 8.23402e-06
3.81652e-06 8.23402e-06 -0.000477421
0.000147107 0.000100484 -5.35727e-06
0.000100484 2.87356e-05 -2.44938e-07
-5.35727e-06 -2.44938e-07 -0.00010073
0.00288161 0.000429881 -3.40036e-05
0.000429881 0.000548338 -3.20044e-05
-3.40036e-05 -3.20044e-05 0.000156483
0.00321694 0.000447757 4.34701e-05
0.000447757 0.000571075 2.56065e-05
4.34701e-05 2.56065e-05 -0.00152187
0.00366266 3.2757e-05 -1.59345e-06
3.2757e-05 -0.00149355 -3.6013e-05
-1.59345e-06 -3.6013e-05 9.55469e-05
0.000561265 -0.000271815 -1.30641e-05
-0.000271815 -0.000622189 9.99869e-06
-1.30641e-05 9.99869e-06 -0.000961582
0.000801273 5.34717e-05 -3.85934e-06
5.34717e-05 0.000299706 -1.03524e-05
-3.85934e-06 -1.03524e-05 0.000238444
0.00125109 -3.29065e-05 -1.38572e-05
-3.29065e-05 0.000131391 -1.8969e-05
-1.38572e-05 -1.8969e-05 -6.69211e-05
0.00185353 6.61578e-06 6.40667e-06
6.61578e-06 9.88949e-05 -4.39706e-05
6.40667e-06 -4.39706e-05 -0.000509929
0.00143028 0.000334165 1.9336e-05
0.000334165 -0.00240165 -1.95233e-05
1.9336e-05 -1.95233e-05 -0.00132024
-0.00151564 1.75348e-05 2.08386e-06
1.75348e-05 -0.000680115 -1.06297e-05
2.08386e-06 -1.06297e-05 -0.000981418
0.00970161 0.00033308 8.73578e-05
0.00033308 0.00384573 3.92246e-05
8.73578e-05 3.92246e-05 0.00178727
-0.00529318 -0.000137274 3.0346e-05
-0.000137274 -0.000970998 1.75704e-05
3.0346e-05 1.75704e-05 -0.00178239
0.00125299 0.000105947 9.48945e-06
0.000105947 0.000323977 8.2217e-06
9.48945e-06 8.2217e-06 0.000274188
0.000825237 7.49887e-05 -2.99438e-06
7.49887e-05 0.000120716 1.21542e-06
-2.99438e-06 1.21542e-06 7.78946e-05
0.000443977 4.13499e-05 -7.41987e-06
4.13499e-05 -1.77638e-06 -7.43942e-06
-7.41987e-06 -7.43942e-06 -4.9006e-05
0.000864873 9.57746e-05 5.25245e-08
9.57746e-05 9.15124e-05 1.14149e-06
5.25245e-08 1.14149e-06 5.42039e-06
0.00084231 1.40811e-05 -4.08398e-07
1.40811e-05 6.18136e-05 2.19683e-06
-4.08398e-07 2.19683e-06 -1.0125e-05
0.000576615 -2.684e-05 -2.50837e-06
-2.684e-05 -5.16536e-05 9.15891e-06
-2.50837e-06 9.15891e-06 -0.00010133
0.000796741 3.87855e-05 -1.4007e-07
3.87855e-05 4.67786e-05 -1.20533e-07
-1.4007e-07 -1.20533e-07 -3.30428e-05
0.000826968 -3.34473e-05 4.52379e-07
-3.34473e-05 6.81972e-05 -1.12651e-06
4.52379e-07 -1.12651e-06 1.13228e-05
0.000675397 -4.60272e-05 3.43795e-06
-4.60272e-05 4.41389e-05 3.02263e-06
3.43795e-06 3.02263e-06 5.54291e-06
0.000501339 -3.62817e-06 -4.15572e-07
-3.62817e-06 -2.64871e-05 -6.30346e-06
-4.15572e-07 -6.30346e-06 -5.35105e-05
0.000817833 4.24629e-06 -5.69428e-07
4.24629e-06 7.41355e-05 -4.31248e-06
-5.69428e-07 -4.31248e-06 1.25951e-05
0.000805973 1.69352e-05 -5.39728e-08
1.69352e-05 5.09125e-05 2.07557e-06
-5.39728e-08 2.07557e-06 -2.12638e-05
0.000803631 5.27814e-05 -4.13094e-07
5.27814e-05 7.10014e-05 5.47659e-07
-4.13094e-07 5.47659e-07 -3.83149e-06
0.000906508 4.33955e-05 -1.66752e-06
4.33955e-05 0.000114314 2.16779e-06
-1.66752e-06 2.16779e-06 4.51398e-05
0.000804984 1.91245e-05 5.22396e-07
1.91245e-05 6.6227e-05 3.83893e-09
5.22396e-07 3.83893e-09 1.82425e-06
0.000825488 4.08695e-05 7.06582e-07
4.08695e-05 7.41953e-05 2.23287e-07
7.06582e-07 2.23287e-07 1.40887e-06
0.000744244 -3.58299e-05 1.56729e-06
-3.58299e-05 7.34303e-05 2.55863e-07
1.56729e-06 2.55863e-07 -7.31331e-06
0.000679471 -3.19073e-05 -7.78529e-07
-3.19073e-05 1.79712e-05 -1.07804e-06
-7.78529e-07 -1.07804e-06 -6.6018e-05
0.00049955 -7.06861e-05 3.88485e-06
-7.06861e-05 -6.56157e-05 5.06909e-07
3.88485e-06 5.06909e-07 -0.000206795
0.000992234 -5.90411e-06 -1.80087e-06
-5.90411e-06 0.000177028 2.75811e-07
-1.80087e-06 2.75811e-07 8.8815e-05
0.0010062 -6.95654e-05 -9.36909e-07
-6.95654e-05 0.000204501 9.6289e-07
-9.36909e-07 9.6289e-07 8.59658e-05
0.000456723 -0.000115308 3.0213e-07
-0.000115308 -0.000117642 1.93338e-06
3.0213e-07 1.93338e-06 -0.000277819
0.000745903 -0.000126394 -3.57977e-06
-0.000126394 4.49695e-05 -1.76684e-07
-3.57977e-06 -1.76684e-07 -0.000111067
0.000911478 -0.000103001 -1.04514e-06
-0.000103001 0.00016186 1.99379e-06
-1.04514e-06 1.99379e-06 3.957e-05
0.000777243 -0.000127974 -8.28663e-08
-0.000127974 6.91816e-05 8.34223e-07
-8.28663e-08 8.34223e-07 -8.28031e-05
0.000850522 -7.545e-06 9.44148e-07
-7.545e-06 0.000105324 7.57451e-07
9.44148e-07 7.57451e-07 1.89247e-05
0.000960783 -3.10672e-05 -5.70894e-07
-3.10672e-05 0.00018367 -6.50728e-07
-5.70894e-07 -6.50728e-07 7.77341e-05
0.000704431 -6.31066e-05 4.85744e-07
-6.31066e-05 6.42928e-05 -4.70021e-06
4.85744e-07 -4.70021e-06 -5.7698e-05
0.00102164 3.71508e-05 -1.99552e-06
3.71508e-05 0.000205138 -1.14815e-06
-1.99552e-06 -1.14815e-06 0.00011996
0.00066716 2.88528e-05 1.51175e-07
2.88528e-05 1.82915e-06 -3.06439e-08
1.51175e-07 -3.06439e-08 -7.37484e-05
0.000735767 5.02647e-05 1.31854e-08
5.02647e-05 2.50306e-05 6.39329e-07
1.31854e-08 6.39329e-07 -3.54065e-05
0.000831098 -1.05806e-05 -2.07879e-07
-1.05806e-05 9.07261e-05 2.3311e-07
-2.07879e-07 2.3311e-07 1.81087e-05
0.000769217 9.55716e-06 -6.7752e-07
9.55716e-06 3.87399e-05 -1.00472e-07
-6.7752e-07 -1.00472e-07 -1.79316e-05
0.000730578 3.5089e-05 -1.48803e-06
3.5089e-05 7.3143e-06 1.4296e-06
-1.48803e-06 1.4296e-06 -3.07079e-05
0.000794974 -2.57979e-05 1.26444e-06
-2.57979e-05 5.18352e-05 -2.76615e-07
1.26444e-06 -2.76615e-07 -5.24684e-06
0.000740807 2.71501e-05 -1.43435e-07
2.71501e-05 7.51705e-06 8.16189e-09
-1.43435e-07 8.16189e-09 -2.9388e-05
0.00129398 3.87097e-05 -7.69592e-06
3.87097e-05 0.000317234 3.15029e-06
-7.69592e-06 3.15029e-06 0.000311406
0.000742881 1.46178e-05 1.34269e-06
1.46178e-05 4.83126e-06 -1.41329e-06
1.34269e-06 -1.41329e-06 -3.14314e-05
0.00100618 2.94281e-05 -3.85673e-06
2.94281e-05 0.000149512 6.00216e-07
-3.85673e-06 6.00216e-07 0.000143035
0.000848211 2.56663e-05 -1.55792e-06
2.56663e-05 6.48107e-05 1.67603e-06
-1.55792e-06 1.67603e-06 7.60124e-05
0.000674066 2.00703e-05 6.41523e-07
2.00703e-05 -4.17467e-05 -3.34678e-06
6.41523e-07 -3.34678e-06 -4.92063e-05
0.00151799 2.52114e-05 6.48598e-06
2.52114e-05 0.00043566 -1.25896e-06
6.48598e-06 -1.25896e-06 0.000450997
0.00219884 2.08638e-05 8.90689e-06
2.08638e-05 0.000815535 -4.37462e-06
8.90689e-06 -4.37462e-06 0.00083465
0.000608047 3.18663e-06 -3.00426e-07
3.18663e-06 -4.37873e-05 -1.20255e-06
-3.00426e-07 -1.20255e-06 -0.000112599
0.000498924 -1.06721e-05 -3.00006e-07
-1.06721e-05 -0.000127392 -2.43821e-06
-3.00006e-07 -2.43821e-06 -0.000164928
0.000860052 -5.23077e-06 2.04533e-08
-5.23077e-06 9.34929e-05 9.09925e-08
2.04533e-08 9.09925e-08 3.26791e-05
0.000699132 -1.30937e-05 -2.87593e-07
-1.30937e-05 -3.1743e-05 -3.46415e-06
-2.87593e-07 -3.46415e-06 -3.63955e-05
0.00061683 -6.94556e-06 2.03355e-07
-6.94556e-06 -6.25808e-05 -9.52793e-09
2.03355e-07 -9.52793e-09 -9.7016e-05
0.000593833 -4.97971e-05 2.17514e-07
-4.97971e-05 -5.08671e-05 1.06528e-06
2.17514e-07 1.06528e-06 -0.00011113
0.00208256 -1.07052e-05 -4.82082e-06
-1.07052e-05 0.000747755 -4.49961e-06
-4.82082e-06 -4.49961e-06 0.000768735
0.000700616 -6.46564e-06 -1.7609e-07
-6.46564e-06 -3.27455e-05 -5.03182e-09
-1.7609e-07 -5.03182e-09 -3.6186e-05
0.000740279 -5.0697e-06 -1.4064e-07
-5.0697e-06 5.83586e-06 1.74755e-06
-1.4064e-07 1.74755e-06 -2.61261e-05
0.00206831 -3.07286e-07 -2.72976e-06
-3.07286e-07 0.000738769 -4.47586e-12
-2.72976e-06 -4.47586e-12 0.000760112
0.000703511 1.15652e-07 1.4566e-07
1.15652e-07 -3.17541e-05 3.39636e-06
1.4566e-07 3.39636e-06 -3.48436e-05
0.00208187 1.01624e-05 -4.97669e-06
1.01624e-05 0.00074731 4.50288e-06
-4.97669e-06 4.50288e-06 0.000768287
0.00109423 -1.50606e-08 -5.49951e-05
-1.50606e-08 -8.64018e-05 2.21227e-05
-5.49951e-05 2.21227e-05 -0.000556942
0.00135481 0.000159771 -3.74718e-06
0.000159771 0.00151665 -6.17962e-06
-3.74718e-06 -6.17962e-06 0.00118163
0.000956951 -0.000145583 -3.94828e-05
-0.000145583 0.000929425 -1.34953e-05
-3.94828e-05 -1.34953e-05 0.000546535
0.00080731 3.43091e-05 -3.12494e-08
3.43091e-05 7.35119e-05 5.18498e-07
-3.12494e-08 5.18498e-07 -1.2268e-05
0.00235312 -4.95159e-06 -2.41192e-05
-4.95159e-06 0.000795086 4.85639e-05
-2.41192e-05 4.85639e-05 0.000248312
0.00243416 -5.04902e-06 -2.4486e-05
-5.04902e-06 0.000428299 3.46934e-06
-2.4486e-05 3.46934e-06 -0.000331979
0.00150291 0.00038286 7.91073e-05
0.00038286 0.00126841 -6.41784e-05
7.91073e-05 -6.41784e-05 0.00141698
0.00297801 -0.000103435 -1.63422e-05
-0.000103435 0.000180816 -1.35134e-05
-1.63422e-05 -1.35134e-05 -7.70003e-05
0.00992578 0.000384255 3.44341e-05
0.000384255 0.00371719 -3.10181e-05
3.44341e-05 -3.10181e-05 0.00226426
-0.00270394 0.000487954 -3.32517e-06
0.000487954 -0.00255259 1.86015e-05
-3.32517e-06 1.86015e-05 -0.00190732
0.00327141 0.000592672 2.99469e-05
0.000592672 -0.000471069 -7.93062e-06
2.99469e-05 -7.93062e-06 0.000519154
0.00324671 -0.000347869 -5.43396e-05
-0.000347869 7.35543e-05 1.17423e-06
-5.43396e-05 1.17423e-06 -0.000615448
0.00723301 0.000131087 2.96346e-05
0.000131087 0.00287695 -1.38301e-05
2.96346e-05 -1.38301e-05 0.00119182
0.0049486 0.000543581 8.36509e-06
0.000543581 0.000446511 -2.57244e-05
8.36509e-06 -2.57244e-05 0.00062518
0.00337879 0.000354731 -1.0374e-05
0.000354731 -0.0013475 1.09716e-06
-1.0374e-05 1.09716e-06 -0.000226609
0.0042995 -0.000621445 -5.90039e-06
-0.000621445 0.000654696 -1.38875e-05
-5.90039e-06 -1.38875e-05 -0.000282226
0.008835 -0.000152952 4.59723e-05
-0.000152952 0.00416232 -1.23659e-07
4.59723e-05 -1.23659e-07 0.00164441
0.00131844 7.33652e-05 1.0702e-05
7.33652e-05 -0.000663411 -1.70999e-05
1.0702e-05 -1.70999e-05 -0.000766548
0.00492843 4.66075e-05 -7.5703e-06
4.66075e-05 -0.000415363 3.59016e-05
-7.5703e-06 3.59016e-05 0.000951918
0.000847723 -2.96217e-05 4.81549e-07
-2.96217e-05 9.96867e-05 3.95875e-07
4.81549e-07 3.95875e-07 1.23867e-07
0.00083039 -3.74071e-05 4.8072e-07
-3.74071e-05 0.000101258 3.31394e-09
4.8072e-07 3.31394e-09 1.24667e-06
0.000912059 6.46342e-05 -1.16234e-06
6.46342e-05 0.000147553 7.45078e-09
-1.16234e-06 7.45078e-09 5.56521e-05
0.000806213 -3.51846e-06 -2.72651e-07
-3.51846e-06 6.52689e-05 2.48232e-07
-2.72651e-07 2.48232e-07 -2.15088e-05
0.000867066 5.51688e-05 -6.53044e-07
5.51688e-05 0.000114491 3.95028e-07
-6.53044e-07 3.95028e-07 1.7963e-05
0.000906253 3.65409e-05 6.58013e-07
3.65409e-05 0.000138496 1.2269e-06
6.58013e-07 1.2269e-06 4.88984e-05
0.000960164 7.48319e-05 -6.35671e-07
7.48319e-05 0.000166752 7.08474e-08
-6.35671e-07 7.08474e-08 7.89924e-05
0.00100195 8.27846e-05 8.78223e-07
8.27846e-05 0.000196315 1.18861e-06
8.78223e-07 1.18861e-06 0.00010842
0.00119039 -0.000152935 2.6169e-05
-0.000152935 4.07035e-05 -1.28495e-05
2.6169e-05 -1.28495e-05 -2.69223e-05
0.00107337 -0.000223325 8.38222e-06
-0.000223325 -3.59811e-05 -5.14705e-06
8.38222e-06 -5.14705e-06 -6.96733e-05
0.000822344 -0.000121107 -1.37125e-06
-0.000121107 0.000105082 -2.64173e-08
-1.37125e-06 -2.64173e-08 -5.34029e-07
0.00165258 -8.33236e-05 4.85571e-06
-8.33236e-05 0.000539999 -5.77904e-06
4.85571e-06 -5.77904e-06 0.000372313
0.00111574 -6.15544e-05 -3.96483e-07
-6.15544e-05 0.000259987 -8.96512e-07
-3.96483e-07 -8.96512e-07 0.000143245
0.000946022 -3.18283e-05 -1.26861e-06
-3.18283e-05 0.00016151 -1.52102e-07
-1.26861e-06 -1.52102e-07 5.84482e-05
0.000890609 1.42268e-05 3.25149e-09
1.42268e-05 0.000123047 -1.99999e-07
3.25149e-09 -1.99999e-07 2.37904e-05
0.000720663 -0.000283949 -6.67671e-06
-0.000283949 -0.000243281 4.01321e-07
-6.67671e-06 4.01321e-07 -0.000289321
0.000852529 2.39699e-05 -1.78215e-07
2.39699e-05 0.000110486 -4.56788e-07
-1.78215e-07 -4.56788e-07 -1.90666e-06
0.000959403 -3.71653e-05 5.28358e-07
-3.71653e-05 0.00014786 8.41564e-07
5.28358e-07 8.41564e-07 3.91622e-05
0.000481435 -7.74918e-05 6.71472e-07
-7.74918e-05 -3.37443e-05 3.46656e-06
6.71472e-07 3.46656e-06 -0.000112545
0.000878924 -2.85634e-06 6.80533e-07
-2.85634e-06 9.7794e-05 8.48933e-07
6.80533e-07 8.48933e-07 1.32799e-05
0.000319347 -0.000279174 5.32687e-05
-0.000279174 -0.000341484 -2.88514e-05
5.32687e-05 -2.88514e-05 -0.000292951
0.00108157 -5.24275e-05 -1.19358e-05
-5.24275e-05 0.000489053 1.65191e-05
-1.19358e-05 1.65191e-05 0.000375032
0.000552113 4.19838e-06 -9.71004e-07
4.19838e-06 -7.18768e-05 5.16443e-06
-9.71004e-07 5.16443e-06 -0.000164373
0.000900298 0.000106763 1.8078e-06
0.000106763 0.000132898 1.04869e-06
1.8078e-06 1.04869e-06 3.26308e-05
0.00139873 -1.40286e-05 -1.73154e-05
-1.40286e-05 0.000244072 -3.17652e-07
-1.73154e-05 -3.17652e-07 0.000104676
0.00123146 -2.40662e-05 3.26295e-05
-2.40662e-05 4.50844e-05 -2.04122e-06
3.26295e-05 -2.04122e-06 -0.000386987
-0.00202856 -3.89788e-05 -9.97829e-06
-3.89788e-05 0.000185615 1.45817e-06
-9.97829e-06 1.45817e-06 -0.000601533
0.000837827 9.97479e-05 1.41743e-05
9.97479e-05 0.000244217 3.87118e-06
1.41743e-05 3.87118e-06 0.000166943
0.000363679 0.000175644 2.35803e-05
0.000175644 0.000139721 1.03577e-05
2.35803e-05 1.03577e-05 -1.4122e-05
0.00197537 -3.44185e-05 5.66162e-05
-3.44185e-05 0.000518589 1.22313e-05
5.66162e-05 1.22313e-05 0.000105637
0.00746552 -0.000204453 7.72825e-05
-0.000204453 0.00303531 3.78134e-05
7.72825e-05 3.78134e-05 0.000950229
0.00229461 0.00042284 -6.54191e-05
0.00042284 0.000402565 -8.48117e-05
-6.54191e-05 -8.48117e-05 -0.000397124
0.00319807 -0.000254536 2.59422e-05
-0.000254536 0.000304781 -4.33951e-06
2.59422e-05 -4.33951e-06 -0.000142297
0.00177687 3.03809e-05 2.19666e-05
3.03809e-05 0.000204816 6.3136e-05
2.19666e-05 6.3136e-05 -0.000493721
0.00246278 2.69053e-06 4.03024e-06
2.69053e-06 -0.00266014 -2.38426e-05
4.03024e-06 -2.38426e-05 -0.000829148
0.000794838 9.33776e-05 1.41459e-07
9.33776e-05 0.000299465 -2.62392e-07
1.41459e-07 -2.62392e-07 0.000225697
0.00129532 -2.97554e-05 -1.59477e-07
-2.97554e-05 0.000155362 -6.25846e-06
-1.59477e-07 -6.25846e-06 -3.17001e-05
0.0020894 1.01152e-05 1.28248e-05
1.01152e-05 0.000351752 4.7732e-06
1.28248e-05 4.7732e-06 -0.000164162
-0.000795901 7.30107e-05 -1.45395e-05
7.30107e-05 -0.000323966 -4.71318e-06
-1.45395e-05 -4.71318e-06 -0.000555757
0.00341549 0.000362121 7.13371e-06
0.000362121 -0.00132771 -8.07927e-07
7.13371e-06 -8.07927e-07 -0.000229559
0.00545363 0.000607223 5.07299e-05
0.000607223 0.00182756 1.06621e-05
5.07299e-05 1.06621e-05 -0.00027293
0.00281579 0.000155947 -4.72395e-05
0.000155947 0.00132267 -2.14834e-06
-4.72395e-05 -2.14834e-06 0.000826512
0.000375841 0.00010346 -1.75808e-05
0.00010346 0.000170213 -1.1466e-05
-1.75808e-05 -1.1466e-05 4.5957e-05
0.00147746 4.52542e-07 -4.98646e-07
4.52542e-07 0.000189293 -1.87359e-05
-4.98646e-07 -1.87359e-05 2.59421e-05
0.00242918 -3.50578e-06 2.38744e-05
-3.50578e-06 0.00076103 -4.87199e-05
2.38744e-05 -4.87199e-05 0.000255736
0.00397328 0.00057063 6.45376e-05
0.00057063 -7.77399e-05 -4.79402e-05
6.45376e-05 -4.79402e-05 0.000835151
0.00261407 0.000146599 -2.57558e-05
0.000146599 -0.00024494 1.63514e-05
-2.57558e-05 1.63514e-05 -0.000200194
0.00247328 0.000267201 1.72106e-05
0.000267201 0.000391036 -2.24556e-05
1.72106e-05 -2.24556e-05 0.00047168
0.00203224 6.47405e-05 8.85023e-05
6.47405e-05 0.00155895 3.20153e-05
8.85023e-05 3.20153e-05 -0.00144616
0.000617772 8.82944e-05 3.75015e-06
8.82944e-05 1.11046e-05 7.443e-06
3.75015e-06 7.443e-06 -3.51579e-05
0.000652701 3.3563e-05 7.19151e-06
3.3563e-05 0.000114443 7.67719e-07
7.19151e-06 7.67719e-07 6.90974e-05
4.75225e-05 -5.22041e-06 6.70039e-06
-5.22041e-06 -7.36168e-06 -1.28574e-05
6.70039e-06 -1.28574e-05 -7.81081e-05
0.000765265 1.76612e-05 -6.836e-08
1.76612e-05 2.44704e-05 2.2491e-06
-6.836e-08 2.2491e-06 -5.09059e-05
0.00064477 -3.14729e-05 -1.18693e-06
-3.14729e-05 -3.21944e-05 4.32564e-06
-1.18693e-06 4.32564e-06 -8.86788e-05
0.000695616 -4.8392e-05 -3.83151e-06
-4.8392e-05 4.55346e-05 9.46134e-06
-3.83151e-06 9.46134e-06 4.22516e-06
0.00078558 -9.42862e-06 -5.82147e-08
-9.42862e-06 5.63079e-05 -1.95386e-07
-5.82147e-08 -1.95386e-07 -6.09219e-06
0.00054708 -1.09585e-05 4.33507e-07
-1.09585e-05 -1.27831e-05 2.29558e-06
4.33507e-07 2.29558e-06 -3.72805e-05
0.000332251 -8.661e-05 4.32658e-06
-8.661e-05 -1.3876e-05 -5.48597e-06
4.32658e-06 -5.48597e-06 -0.00013646
0.00089801 1.41092e-05 -3.15881e-07
1.41092e-05 0.00011409 2.19093e-06
-3.15881e-07 2.19093e-06 4.92191e-05
0.000761185 5.0964e-05 -9.2282e-07
5.0964e-05 4.02561e-05 1.44899e-06
-9.2282e-07 1.44899e-06 -3.24853e-05
0.00113136 -5.09503e-05 9.80901e-07
-5.09503e-05 0.000275753 8.9722e-07
9.80901e-07 8.9722e-07 0.000189898
0.000344116 -6.46321e-05 3.84418e-06
-6.46321e-05 -6.32478e-05 1.08477e-06
3.84418e-06 1.08477e-06 -0.000239406
0.000606639 -3.37538e-06 -4.25112e-06
-3.37538e-06 -1.05438e-05 2.65283e-07
-4.25112e-06 2.65283e-07 -8.78589e-05
0.000369663 -6.94116e-05 1.17307e-06
-6.94116e-05 -0.000130596 -4.97477e-07
1.17307e-06 -4.97477e-07 -0.000262893
0.00105728 -0.000163985 4.51739e-06
-0.000163985 0.0002171 -1.03579e-06
4.51739e-06 -1.03579e-06 2.38984e-05
0.00113489 -0.000173554 -1.7727e-06
-0.000173554 0.000176817 3.76136e-06
-1.7727e-06 3.76136e-06 -1.74995e-05
0.00138538 -9.72527e-05 -2.25025e-06
-9.72527e-05 0.000403915 -4.3635e-07
-2.25025e-06 -4.3635e-07 0.000281752
0.000693374 -0.000132756 -3.36225e-07
-0.000132756 4.23982e-06 4.12966e-08
-3.36225e-07 4.12966e-08 -0.000160004
0.00152817 -0.000184356 9.49461e-07
-0.000184356 0.000456957 -1.33211e-06
9.49461e-07 -1.33211e-06 0.000299871
0.000322286 -8.10442e-05 -1.14522e-06
-8.10442e-05 -0.00015735 -3.13951e-07
-1.14522e-06 -3.13951e-07 -0.000293646
0.000860509 -0.000133868 9.05234e-08
-0.000133868 0.000106283 3.91295e-07
9.05234e-08 3.91295e-07 -4.72777e-05
0.000861228 -1.15755e-05 1.24758e-07
-1.15755e-05 0.000115586 6.64672e-07
1.24758e-07 6.64672e-07 1.87555e-05
0.00100269 -0.000103043 -1.90645e-06
-0.000103043 0.000210622 1.58881e-06
-1.90645e-06 1.58881e-06 8.7547e-05
0.000526354 -0.000108989 -9.16154e-07
-0.000108989 -6.60492e-05 -7.54695e-07
-9.16154e-07 -7.54695e-07 -0.000215329
0.00075526 5.20965e-05 2.11954e-07
5.20965e-05 4.11029e-05 8.27247e-07
2.11954e-07 8.27247e-07 -2.64702e-05
0.000724872 -3.34833e-06 6.74466e-07
-3.34833e-06 3.74469e-05 -1.28643e-07
6.74466e-07 -1.28643e-07 -4.95777e-05
0.000798321 -3.11878e-05 7.5389e-07
-3.11878e-05 9.67414e-05 -2.50093e-06
7.5389e-07 -2.50093e-06 -1.18127e-05
0.000806706 1.68404e-05 -1.15432e-07
1.68404e-05 7.82098e-05 -5.22843e-07
-1.15432e-07 -5.22843e-07 3.6127e-06
0.000774336 1.89278e-05 -4.83571e-07
1.89278e-05 4.39724e-05 -1.58172e-07
-4.83571e-07 -1.58172e-07 -1.55846e-05
0.000723727 4.51256e-05 -1.50329e-06
4.51256e-05 1.09215e-05 1.38138e-06
-1.50329e-06 1.38138e-06 -2.95332e-05
0.000801052 -1.49193e-05 8.64014e-07
-1.49193e-05 5.66222e-05 -5.66195e-07
8.64014e-07 -5.66195e-07 -6.31026e-07
0.00073429 3.52229e-05 -1.00471e-07
3.52229e-05 9.01523e-06 3.62847e-09
-1.00471e-07 3.62847e-09 -2.89884e-05
0.000657992 3.80889e-05 -1.16365e-06
3.80889e-05 -3.30336e-05 3.39291e-06
-1.16365e-06 3.39291e-06 -4.36462e-05
0.000743676 2.51236e-05 1.32355e-06
2.51236e-05 8.34315e-06 -1.43085e-06
1.32355e-06 -1.43085e-06 -2.83452e-05
0.000673781 3.27211e-05 1.23715e-07
3.27211e-05 -3.14215e-05 2.95317e-08
1.23715e-07 2.95317e-08 -4.05442e-05
0.00207117 5.16019e-05 -4.71565e-06
5.16019e-05 0.000758917 1.61753e-06
-4.71565e-06 1.61753e-06 0.000774716
0.000672711 2.65911e-05 8.082e-07
2.65911e-05 -3.82004e-05 -3.35167e-06
8.082e-07 -3.35167e-06 -4.62346e-05
0.00150114 3.31294e-05 7.86557e-06
3.31294e-05 0.000431417 -1.14912e-06
7.86557e-06 -1.14912e-06 0.000445825
0.00218439 3.05682e-05 1.27155e-05
3.05682e-05 0.000811481 -4.17936e-06
1.27155e-05 -4.17936e-06 0.00082985
0.000628368 -1.59903e-05 -1.35052e-07
-1.59903e-05 -4.07906e-05 -8.82984e-07
-1.35052e-07 -8.82984e-07 -0.000107073
0.000477971 -1.2901e-05 -3.61676e-07
-1.2901e-05 -0.000138506 -2.34177e-06
-3.61676e-07 -2.34177e-06 -0.000179138
0.000741906 4.64028e-06 -3.25191e-07
4.64028e-06 2.92607e-05 -5.81239e-07
-3.25191e-07 -5.81239e-07 -3.79778e-05
0.000693069 -1.95103e-05 -3.01525e-07
-1.95103e-05 -3.19349e-05 -3.51923e-06
-3.01525e-07 -3.51923e-06 -3.84767e-05
0.000481876 -1.15763e-05 -6.07937e-08
-1.15763e-05 -0.000136863 -7.19792e-07
-6.07937e-08 -7.19792e-07 -0.000174771
0.000879783 5.35291e-06 -1.17292e-07
5.35291e-06 0.000109097 9.22537e-07
-1.17292e-07 9.22537e-07 4.50322e-05
0.00211805 -2.04817e-05 -8.78928e-06
-2.04817e-05 0.000770031 -4.44514e-06
-8.78928e-06 -4.44514e-06 0.000790088
0.000696652 -1.27813e-05 -1.21876e-07
-1.27813e-05 -3.31016e-05 -1.48186e-08
-1.21876e-07 -1.48186e-08 -3.77022e-05
0.000478393 -7.94777e-06 1.69489e-07
-7.94777e-06 -0.000139139 1.74902e-06
1.69489e-07 1.74902e-06 -0.000174682
0.00207673 -9.92831e-06 -2.89554e-06
-9.92831e-06 0.000744275 2.73545e-08
-2.89554e-06 2.73545e-08 0.000765355
0.000700559 -6.19898e-06 1.86739e-07
-6.19898e-06 -3.2757e-05 3.38844e-06
1.86739e-07 3.38844e-06 -3.61707e-05
0.00206681 5.15813e-07 -4.89164e-07
5.15813e-07 0.000737918 4.52237e-06
-4.89164e-07 4.52237e-06 0.000759259
0.00140853 2.18565e-05 -1.48854e-05
2.18565e-05 0.000255482 1.61572e-05
-1.48854e-05 1.61572e-05 7.1521e-05
0.00148677 1.30289e-05 8.2151e-06
1.30289e-05 0.000166772 -2.57915e-06
8.2151e-06 -2.57915e-06 -0.000303084
0.00157993 0.000125856 4.0973e-05
0.000125856 0.00167453 -2.14549e-05
4.0973e-05 -2.14549e-05 0.001368
0.000844691 3.49008e-05 6.95322e-08
3.49008e-05 9.01461e-05 1.39172e-07
6.95322e-08 1.39172e-07 8.12681e-06
0.00075149 3.31156e-06 1.00235e-07
3.31156e-06 3.18223e-05 4.17153e-07
1.00235e-07 4.17153e-07 -4.5708e-05
0.000904438 5.3392e-05 -1.29387e-07
5.3392e-05 0.00012242 1.08792e-06
-1.29387e-07 1.08792e-06 3.59127e-05
0.00174421 7.7965e-06 2.19568e-06
7.7965e-06 8.48492e-05 7.66293e-05
2.19568e-06 7.66293e-05 -0.0005491
0.00237287 4.50697e-06 -6.13342e-06
4.50697e-06 0.000784945 1.37718e-06
-6.13342e-06 1.37718e-06 0.000241261
0.00259999 -1.91392e-05 4.32682e-05
-1.91392e-05 0.000575761 -5.57784e-05
4.32682e-05 -5.57784e-05 -0.00024475
0.0044941 -0.000374529 -5.91057e-05
-0.000374529 0.000862674 -8.7024e-08
-5.91057e-05 -8.7024e-08 0.000190385
0.000659205 -9.38257e-05 -5.29283e-05
-9.38257e-05 -0.000158534 2.89573e-05
-5.29283e-05 2.89573e-05 -0.00209775
0.0054026 0.000649687 6.22636e-05
0.000649687 0.001349 -6.94762e-06
6.22636e-05 -6.94762e-06 0.00133061
0.00140477 0.000235474 1.41121e-05
0.000235474 -0.00255623 -3.68334e-05
1.41121e-05 -3.68334e-05 -0.00139078
0.00491154 -0.000688013 -7.90236e-06
-0.000688013 0.001261 4.55556e-06
-7.90236e-06 4.55556e-06 0.000609267
0.00587029 -0.000187525 1.08646e-05
-0.000187525 0.00240694 -2.38438e-06
1.08646e-05 -2.38438e-06 0.000315675
-0.000695278 0.000130456 -9.40274e-06
0.000130456 -0.000729765 -2.26908e-05
-9.40274e-06 -2.26908e-05 -0.00114092
0.00366492 1.1329e-05 -7.50547e-06
1.1329e-05 -0.00150499 9.3752e-06
-7.50547e-06 9.3752e-06 5.20405e-05
0.00216869 -0.000519889 -2.98696e-05
-0.000519889 -0.000184474 -2.9341e-05
-2.98696e-05 -2.9341e-05 -0.0007656
0.0096762 -0.000493012 5.33139e-05
-0.000493012 0.00441568 1.8286e-05
5.33139e-05 1.8286e-05 0.00186857
-0.00533562 4.94659e-05 3.63562e-05
4.94659e-05 -0.00101989 -3.89773e-05
3.63562e-05 -3.89773e-05 -0.00185653
0.00182294 -0.000300665 3.99208e-07
-0.000300665 -0.0018896 1.11987e-06
3.99208e-07 1.11987e-06 -0.000721776
0.000843962 1.43159e-05 -1.07768e-07
1.43159e-05 8.5568e-05 1.16154e-06
-1.07768e-07 1.16154e-06 -7.13211e-06
0.000827918 -1.0981e-05 1.69139e-07
-1.0981e-05 9.03368e-05 -1.10688e-07
1.69139e-07 -1.10688e-07 -1.06969e-05
0.000815613 -4.92726e-05 1.74228e-08
-4.92726e-05 9.4642e-05 -2.56654e-07
1.74228e-08 -2.56654e-07 -6.78261e-06
0.000829775 2.00138e-05 -3.56396e-07
2.00138e-05 7.91815e-05 -3.07848e-07
-3.56396e-07 -3.07848e-07 -8.85488e-06
0.000970166 9.47183e-05 1.22911e-06
9.47183e-05 0.000170753 2.20563e-07
1.22911e-06 2.20563e-07 7.56983e-05
0.0010222 8.50368e-05 -3.10259e-07
8.50368e-05 0.000201845 1.58479e-07
-3.10259e-07 1.58479e-07 0.000113163
0.0016318 -0.000330038 4.5158e-07
-0.000330038 0.000220372 5.56331e-06
4.5158e-07 5.56331e-06 0.000135042
-0.00074212 -5.68861e-05 9.09581e-06
-5.68861e-05 -0.000691666 -7.56833e-06
9.09581e-06 -7.56833e-06 -0.000743453
0.0010005 5.45105e-05 -4.48695e-07
5.45105e-05 0.000190792 -3.86822e-07
-4.48695e-07 -3.86822e-07 8.67828e-05
0.00130258 -8.3634e-05 9.82161e-06
-8.3634e-05 0.000318707 -1.18645e-05
9.82161e-06 -1.18645e-05 0.000206212
0.000961919 1.26481e-05 -4.85878e-07
1.26481e-05 0.00017221 -1.77876e-06
-4.85878e-07 -1.77876e-06 6.28362e-05
0.000845605 3.26241e-06 8.04224e-08
3.26241e-06 7.92794e-05 -2.88852e-07
8.04224e-08 -2.88852e-07 -8.65295e-06
0.00092783 5.99244e-05 5.69906e-07
5.99244e-05 0.000145198 -4.14691e-07
5.69906e-07 -4.14691e-07 5.09607e-05
0.000551823 -0.000261381 -5.61741e-06
-0.000261381 -0.000233886 -2.21942e-06
-5.61741e-06 -2.21942e-06 -0.000245104
0.000995039 -2.77164e-05 1.47629e-06
-2.77164e-05 0.000179912 -2.48815e-06
1.47629e-06 -2.48815e-06 9.27973e-05
0.000436604 -2.68046e-05 1.28929e-05
-2.68046e-05 0.000153121 -5.99617e-07
1.28929e-05 -5.99617e-07 4.27145e-05
0.00094514 2.83556e-05 2.23862e-06
2.83556e-05 0.000145396 9.86029e-07
2.23862e-06 9.86029e-07 6.32012e-05
-0.00210284 1.39023e-05 -4.51771e-07
1.39023e-05 -0.00101785 -2.76876e-05
-4.51771e-07 -2.76876e-05 -0.00131818
0.00117219 -7.26112e-07 6.72274e-06
-7.26112e-07 0.000498063 1.97359e-05
6.72274e-06 1.97359e-05 0.000453676
0.00106614 -4.16249e-06 2.48272e-06
-4.16249e-06 0.000238124 3.54778e-06
2.48272e-06 3.54778e-06 0.000167437
0.0015773 -1.04642e-05 -1.4908e-06
-1.04642e-05 0.000265677 5.83495e-08
-1.4908e-06 5.83495e-08 0.000181986
0.00113256 -1.13908e-05 -6.99567e-06
-1.13908e-05 0.000108497 -1.78906e-06
-6.99567e-06 -1.78906e-06 -1.36363e-05
0.00110107 -3.05702e-05 9.76753e-05
-3.05702e-05 7.85367e-06 -1.7022e-06
9.76753e-05 -1.7022e-06 -0.000432378
0.00114919 0.000140381 1.85807e-05
0.000140381 0.000483292 1.28675e-05
1.85807e-05 1.28675e-05 0.000399799
0.00352923 0.000363484 2.59145e-06
0.000363484 0.0014678 -1.60291e-05
2.59145e-06 -1.60291e-05 0.00133027
0.0013289 -2.76552e-05 9.89188e-06
-2.76552e-05 0.000169173 6.34535e-06
9.89188e-06 6.34535e-06 -6.80101e-06
0.000242541 0.000300074 -1.41076e-06
0.000300074 -0.000239887 3.03486e-06
-1.41076e-06 3.03486e-06 -0.00230886
-0.00787312 1.86189e-05 -3.29719e-05
1.86189e-05 -0.00342693 -2.34578e-05
-3.29719e-05 -2.34578e-05 -0.00434722
0.00231868 1.6766e-05 1.54272e-05
1.6766e-05 0.000607682 4.07611e-05
1.54272e-05 4.07611e-05 0.000196147
0.00152861 0.000249917 -1.14868e-05
0.000249917 -0.00250964 3.71604e-05
-1.14868e-05 3.71604e-05 -0.00134126
0.000387393 7.72297e-05 7.68464e-07
7.72297e-05 0.000187506 -9.90234e-07
7.68464e-07 -9.90234e-07 7.93936e-05
0.00129199 -4.58849e-06 3.65402e-06
-4.58849e-06 9.74887e-05 -7.62984e-06
3.65402e-06 -7.62984e-06 -4.47697e-05
0.00242681 2.12196e-06 6.24307e-06
2.12196e-06 0.000749793 -1.41333e-06
6.24307e-06 -1.41333e-06 0.00023349
0.00117339 0.000224361 3.53203e-05
0.000224361 -0.000323481 -9.28087e-07
3.53203e-05 -9.28087e-07 -0.000482423
0.00190816 0.000549677 1.60143e-05
0.000549677 -0.00131162 -3.72184e-05
1.60143e-05 -3.72184e-05 -0.000342585
-0.000576617 0.000145779 9.59216e-06
0.000145779 -0.00112545 1.92645e-05
9.59216e-06 1.92645e-05 -0.00121496
0.00635133 7.88929e-05 5.7618e-05
7.88929e-05 0.00348951 -1.7018e-05
5.7618e-05 -1.7018e-05 0.000291169
4.94135e-05 1.40423e-05 1.27501e-06
1.40423e-05 0.000217945 -1.14375e-05
1.27501e-06 -1.14375e-05 -1.25379e-05
0.00136498 1.82435e-05 1.33589e-05
1.82435e-05 0.000211611 -1.57942e-05
1.33589e-05 -1.57942e-05 3.39925e-05
0.00244691 1.22458e-05 8.9157e-05
1.22458e-05 0.000303082 -6.78616e-05
8.9157e-05 -6.78616e-05 -0.000349501
0.00240005 0.000756817 7.82381e-06
0.000756817 0.000856782 -9.07928e-06
7.82381e-06 -9.07928e-06 0.00190569
-0.00632291 0.000185396 5.27052e-05
0.000185396 -0.00463544 6.83684e-05
5.27052e-05 6.83684e-05 -0.0043935
0.00929546 -0.000223708 3.68442e-05
-0.000223708 0.00390762 -5.57379e-05
3.68442e-05 -5.57379e-05 0.00138619
0.00466148 -0.000276224 -7.15278e-05
-0.000276224 0.00111427 0.000120177
-7.15278e-05 0.000120177 0.00118801
0.00109615 2.80914e-05 4.68129e-07
2.80914e-05 0.000369089 6.59978e-06
4.68129e-07 6.59978e-06 0.000322744
5.64808e-05 -1.44173e-05 6.35322e-07
-1.44173e-05 -1.96144e-05 -1.13514e-06
6.35322e-07 -1.13514e-06 -0.000101446
-0.000557992 -0.000108335 5.80665e-06
-0.000108335 -0.000255371 -1.17412e-05
5.80665e-06 -1.17412e-05 -0.000439256
0.000768285 -2.37331e-05 1.90258e-08
-2.37331e-05 4.92558e-05 2.06484e-06
1.90258e-08 2.06484e-06 -1.55085e-05
0.000677997 -1.20921e-05 6.77031e-06
-1.20921e-05 4.64119e-05 1.18437e-05
6.77031e-06 1.18437e-05 2.44274e-05
0.00040213 -3.57488e-05 -8.8242e-07
-3.57488e-05 2.20709e-05 1.5683e-08
-8.8242e-07 1.5683e-08 -8.64113e-05
0.00115701 -0.000158232 1.69243e-05
-0.000158232 0.00046151 -1.09596e-05
1.69243e-05 -1.09596e-05 0.000238744
0.00156824 -6.83019e-05 -2.30197e-06
-6.83019e-05 0.000505027 1.91432e-06
-2.30197e-06 1.91432e-06 0.000414059
0.00129324 -0.000152356 9.7112e-07
-0.000152356 0.000415087 4.88802e-07
9.7112e-07 4.88802e-07 0.000235006
0.00107406 -0.000177867 6.79116e-06
-0.000177867 0.000287431 1.76365e-06
6.79116e-06 1.76365e-06 1.09941e-05
0.000221056 -6.46732e-05 -2.03987e-06
-6.46732e-05 -0.000206441 -1.49484e-06
-2.03987e-06 -1.49484e-06 -0.00032921
0.0010825 -0.000163403 -2.72005e-07
-0.000163403 0.000224694 9.1385e-07
-2.72005e-07 9.1385e-07 2.56979e-05
0.00194523 -0.000251624 2.12775e-06
-0.000251624 0.000591345 1.20917e-06
2.12775e-06 1.20917e-06 0.000352371
0.00172915 -0.000239117 -2.91468e-06
-0.000239117 0.00036741 1.81433e-07
-2.91468e-06 1.81433e-07 0.000155413
0.000641955 -0.000133086 -2.68863e-07
-0.000133086 -6.52328e-05 4.62201e-06
-2.68863e-07 4.62201e-06 -0.00023799
0.00118495 -0.000177398 -1.86489e-06
-0.000177398 0.000204011 1.31815e-06
-1.86489e-06 1.31815e-06 8.10806e-06
0.000930966 -0.000150131 -3.12003e-06
-0.000150131 0.000127148 3.25078e-07
-3.12003e-06 3.25078e-07 -4.15056e-05
0.00131534 -0.000165998 2.57418e-06
-0.000165998 0.000355537 -2.20726e-06
2.57418e-06 -2.20726e-06 0.00020824
0.00114867 -0.000155854 2.39913e-06
-0.000155854 0.00025613 -2.11765e-06
2.39913e-06 -2.11765e-06 0.000106628
0.000687141 -4.41708e-05 9.63198e-07
-4.41708e-05 3.04248e-05 8.79196e-07
9.63198e-07 8.79196e-07 -8.71915e-05
0.000775215 -0.000107089 1.04205e-06
-0.000107089 9.05905e-05 -3.64968e-07
1.04205e-06 -3.64968e-07 -4.61958e-05
0.00097645 -0.000141365 4.46059e-06
-0.000141365 0.000168152 -2.65081e-06
4.46059e-06 -2.65081e-06 1.73855e-05
0.000750061 5.9378e-05 8.36122e-07
5.9378e-05 4.69364e-05 1.2249e-06
8.36122e-07 1.2249e-06 -3.33065e-05
0.000883831 -3.00387e-05 -1.52632e-07
-3.00387e-05 0.000128887 -3.24228e-09
-1.52632e-07 -3.24228e-09 2.95156e-05
0.00106699 -0.000101691 -5.93908e-07
-0.000101691 0.000244182 3.09402e-08
-5.93908e-07 3.09402e-08 0.000120958
0.00070019 5.68394e-05 -8.85985e-07
5.68394e-05 7.44807e-06 1.49807e-06
-8.85985e-07 1.49807e-06 -3.81482e-05
0.000776015 2.67704e-05 -6.58341e-07
2.67704e-05 5.07062e-05 -2.71375e-07
-6.58341e-07 -2.71375e-07 -1.63436e-05
0.000605123 7.81439e-07 -3.01727e-07
7.81439e-07 -2.69738e-05 -7.76696e-07
-3.01727e-07 -7.76696e-07 -0.000114804
0.000806006 -3.86733e-06 7.86999e-07
-3.86733e-06 6.07352e-05 -9.12413e-07
7.86999e-07 -9.12413e-07 1.01232e-06
0.000726178 4.44148e-05 -1.982e-07
4.44148e-05 1.21885e-05 -3.86211e-08
-1.982e-07 -3.86211e-08 -2.82442e-05
0.000643254 4.38597e-05 -1.3774e-06
4.38597e-05 -3.24823e-05 3.37427e-06
-1.3774e-06 3.37427e-06 -4.52549e-05
0.000740476 3.58322e-05 1.34301e-06
3.58322e-05 1.21684e-05 -1.53011e-06
1.34301e-06 -1.53011e-06 -2.58618e-05
0.000667107 3.89132e-05 8.55798e-08
3.89132e-05 -2.80551e-05 1.95699e-08
8.55798e-08 1.95699e-08 -3.87075e-05
0.00211103 5.59911e-05 -2.18821e-05
5.59911e-05 0.000788058 3.57297e-06
-2.18821e-05 3.57297e-06 0.000802733
0.000675369 3.32771e-05 9.48592e-07
3.32771e-05 -3.08718e-05 -3.35513e-06
9.48592e-07 -3.35513e-06 -3.99677e-05
0.00148594 4.12406e-05 9.19454e-06
4.12406e-05 0.000429972 -1.0202e-06
9.19454e-06 -1.0202e-06 0.000442959
0.00215997 3.98906e-05 1.6213e-05
3.98906e-05 0.000803143 -3.94208e-06
1.6213e-05 -3.94208e-06 0.000820513
0.000783014 3.09274e-05 -5.60846e-07
3.09274e-05 4.38813e-05 -3.41764e-07
-5.60846e-07 -3.41764e-07 -2.2653e-05
0.00072286 -1.29078e-05 -6.64787e-07
-1.29078e-05 -2.66422e-06 -1.68072e-06
-6.64787e-07 -1.68072e-06 -4.37641e-05
0.000695287 2.18896e-05 -7.94984e-07
2.18896e-05 1.32704e-06 -4.93319e-07
-7.94984e-07 -4.93319e-07 -6.7809e-05
0.00068214 -2.60305e-05 -2.0498e-07
-2.60305e-05 -3.35638e-05 -3.61278e-06
-2.0498e-07 -3.61278e-06 -4.24731e-05
0.000599779 -1.14232e-05 -3.84006e-07
-1.14232e-05 -7.10362e-05 -7.28332e-07
-3.84006e-07 -7.28332e-07 -0.000110809
0.000876871 6.19004e-06 9.87117e-08
6.19004e-06 0.000104465 4.67324e-08
9.87117e-08 4.67324e-08 3.77901e-05
0.00216927 -3.02986e-05 -1.28538e-05
-3.02986e-05 0.000802361 -4.34815e-06
-1.28538e-05 -4.34815e-06 0.000821047
0.000689479 -1.91282e-05 -1.84278e-07
-1.91282e-05 -3.39818e-05 -1.44443e-08
-1.84278e-07 -1.44443e-08 -4.04379e-05
0.000463246 -1.20386e-05 -7.48405e-08
-1.20386e-05 -0.000147272 1.04853e-06
-7.48405e-08 1.04853e-06 -0.000185504
0.00210731 -1.96565e-05 -2.66639e-06
-1.96565e-05 0.000763602 5.34401e-08
-2.66639e-06 5.34401e-08 0.000783852
0.000695397 -1.24913e-05 3.2565e-07
-1.24913e-05 -3.37664e-05 3.44487e-06
3.2565e-07 3.44487e-06 -3.83254e-05
0.00207253 -9.14095e-06 3.76046e-06
-9.14095e-06 0.000741696 4.50688e-06
3.76046e-06 4.50688e-06 0.000762849
0.00144163 -3.54741e-06 -2.35219e-06
-3.54741e-06 0.00019484 1.9559e-05
-2.35219e-06 1.9559e-05 6.38881e-06
0.00134187 1.83456e-05 -4.06966e-06
1.83456e-05 0.000211314 8.39207e-07
-4.06966e-06 8.39207e-07 1.09406e-05
0.00160626 1.979e-05 7.12543e-05
1.979e-05 0.000271936 -1.75542e-05
7.12543e-05 -1.75542e-05 -0.000209492
0.000727873 -3.62762e-05 1.06578e-07
-3.62762e-05 1.46619e-05 -1.1985e-07
1.06578e-07 -1.1985e-07 -5.87898e-05
0.000886513 -2.54441e-06 -4.86116e-07
-2.54441e-06 0.000110389 -4.21121e-07
-4.86116e-07 -4.21121e-07 3.07879e-05
0.000866559 3.29924e-05 1.24182e-06
3.29924e-05 0.000101215 -1.95083e-07
1.24182e-06 -1.95083e-07 2.11569e-05
0.000756238 -1.17662e-05 1.30134e-07
-1.17662e-05 3.02003e-05 6.87525e-08
1.30134e-07 6.87525e-08 -4.42253e-05
0.000829649 1.57881e-05 -2.68849e-08
1.57881e-05 8.03681e-05 2.08999e-07
-2.68849e-08 2.08999e-07 -5.36145e-06
0.000855852 -7.20334e-06 -8.87333e-07
-7.20334e-06 9.42171e-05 4.20657e-07
-8.87333e-07 4.20657e-07 1.26753e-05
0.000879972 0.000122844 8.53453e-07
0.000122844 0.000119957 1.02039e-06
8.53453e-07 1.02039e-06 2.33842e-05
0.00128162 9.49241e-06 2.4737e-05
9.49241e-06 0.000187633 7.32342e-05
2.4737e-05 7.32342e-05 -0.000493719
0.00201093 1.30927e-05 -2.96828e-06
1.30927e-05 0.00037119 2.21688e-05
-2.96828e-06 2.21688e-05 -0.000148395
0.00231674 1.3886e-05 1.22473e-05
1.3886e-05 0.000736837 -4.33739e-05
1.22473e-05 -4.33739e-05 0.0001884
0.00241585 -2.3298e-05 -8.06467e-06
-2.3298e-05 -0.00260307 -1.29171e-06
-8.06467e-06 -1.29171e-06 -0.00086368
0.00317423 -0.000594437 -2.31521e-05
-0.000594437 0.000573023 5.09957e-05
-2.31521e-05 5.09957e-05 -0.000266801
-0.00127225 -0.000333391 4.35978e-05
-0.000333391 -0.00098291 5.00526e-06
4.35978e-05 5.00526e-06 -0.00317178
0.00508117 0.000593666 4.05295e-05
0.000593666 0.00264512 -2.63879e-05
4.05295e-05 -2.63879e-05 0.00165755
0.00479989 -0.000723476 -1.72317e-05
-0.000723476 0.00109893 3.60187e-06
-1.72317e-05 3.60187e-06 0.000373546
0.000902619 -0.000271372 4.12961e-05
-0.000271372 0.000292732 -1.38983e-05
4.12961e-05 -1.38983e-05 -0.00207009
0.0035579 -3.31402e-05 -2.63442e-05
-3.31402e-05 0.00156611 2.22759e-06
-2.63442e-05 2.22759e-06 0.00107761
0.0056815 -0.000402665 -1.39895e-05
-0.000402665 0.00053309 -2.03697e-05
-1.39895e-05 -2.03697e-05 0.00166329
0.0024772 -0.000161122 -2.8265e-05
-0.000161122 -9.56608e-05 1.82267e-05
-2.8265e-05 1.82267e-05 -2.68454e-05
0.000551012 3.05359e-05 3.39775e-05
3.05359e-05 -0.000295921 -6.17893e-05
3.39775e-05 -6.17893e-05 -0.00227298
-0.00484333 -0.000490583 3.68029e-05
-0.000490583 -0.00358439 -1.19818e-05
3.68029e-05 -1.19818e-05 -0.00438891
0.00116463 -0.000423092 2.11629e-05
-0.000423092 -0.00167854 -4.69943e-05
2.11629e-05 -4.69943e-05 -0.00047391
0.000881196 -3.38924e-05 -4.97001e-07
-3.38924e-05 0.000106281 1.87608e-06
-4.97001e-07 1.87608e-06 2.86059e-05
0.000801551 1.32626e-05 1.72588e-07
1.32626e-05 6.27959e-05 5.37287e-08
1.72588e-07 5.37287e-08 -2.96442e-05
0.000795729 2.71936e-06 -5.60199e-07
2.71936e-06 7.64999e-05 -1.22143e-06
-5.60199e-07 -1.22143e-06 -2.73011e-05
0.000845503 2.623e-05 -1.01838e-07
2.623e-05 9.27882e-05 -1.38039e-06
-1.01838e-07 -1.38039e-06 9.70588e-07
0.00140059 -0.000290761 1.97884e-07
-0.000290761 0.000157223 1.7322e-05
1.97884e-07 1.7322e-05 0.000102259
0.000315407 -1.75992e-05 -1.318e-06
-1.75992e-05 9.19578e-05 -1.2439e-05
-1.318e-06 -1.2439e-05 -6.41405e-06
0.000755475 -1.80639e-05 -3.10638e-07
-1.80639e-05 2.30631e-05 -1.97074e-06
-3.10638e-07 -1.97074e-06 -6.29268e-05
0.000942361 7.83817e-05 -8.5641e-07
7.83817e-05 0.00016076 -1.6727e-06
-8.5641e-07 -1.6727e-06 6.35084e-05
0.00152789 -2.6372e-05 7.80091e-06
-2.6372e-05 0.000492676 -1.27284e-05
7.80091e-06 -1.27284e-05 0.000402222
0.00082324 7.52949e-06 -5.81284e-07
7.52949e-06 7.68047e-05 -5.25019e-08
-5.81284e-07 -5.25019e-08 -4.65062e-06
0.000736005 6.69409e-06 -3.6305e-07
6.69409e-06 6.52262e-05 -8.96662e-07
-3.6305e-07 -8.96662e-07 -8.57939e-06
-0.000662448 -2.29159e-05 -1.46663e-05
-2.29159e-05 -0.000335948 -9.90391e-06
-1.46663e-05 -9.90391e-06 -0.00067761
0.000910927 -2.90301e-05 5.23809e-06
-2.90301e-05 0.000387449 9.20715e-07
5.23809e-06 9.20715e-07 0.000350734
0.000709211 1.08274e-06 3.05646e-06
1.08274e-06 5.16114e-05 6.0767e-07
3.05646e-06 6.0767e-07 -2.14821e-05
0.000741661 1.85308e-06 -1.57754e-05
1.85308e-06 0.000879877 -5.25474e-05
-1.57754e-05 -5.25474e-05 -5.13024e-05
0.00199268 -2.38159e-07 2.58268e-06
-2.38159e-07 0.000920957 1.45085e-05
2.58268e-06 1.45085e-05 0.000849168
0.0014365 -1.43607e-05 1.56571e-05
-1.43607e-05 0.000268856 6.78547e-07
1.56571e-05 6.78547e-07 0.000128167
0.00113917 -9.5322e-06 -3.66508e-07
-9.5322e-06 5.53426e-05 -1.11054e-07
-3.66508e-07 -1.11054e-07 -1.39052e-05
0.00090048 -8.2068e-06 3.13072e-06
-8.2068e-06 1.95177e-06 -1.74821e-06
3.13072e-06 -1.74821e-06 -0.00010431
0.000523888 6.66963e-05 9.31509e-06
6.66963e-05 0.000253284 8.22354e-06
9.31509e-06 8.22354e-06 0.000164223
0.00134012 0.000182434 -5.14965e-05
0.000182434 -4.60685e-05 1.96809e-05
-5.14965e-05 1.96809e-05 -5.17872e-05
0.00111654 -7.89189e-06 6.05735e-06
-7.89189e-06 1.40836e-05 4.24392e-06
6.05735e-06 4.24392e-06 -0.000109743
0.00331571 -0.000311584 0.000126809
-0.000311584 0.00200058 -0.000120719
0.000126809 -0.000120719 -0.000834127
0.0056002 0.000643994 -3.4412e-05
0.000643994 0.00252819 2.54448e-05
-3.4412e-05 2.54448e-05 0.0017018
0.00237206 4.69157e-06 -1.35578e-05
4.69157e-06 0.000708622 4.40917e-05
-1.35578e-05 4.40917e-05 0.000178914
0.00338353 0.000590818 -2.51356e-05
0.000590818 -0.000424886 9.03528e-06
-2.51356e-05 9.03528e-06 0.000529846
-0.000505121 -9.54157e-06 1.67682e-05
-9.54157e-06 -2.67878e-05 3.91125e-07
1.67682e-05 3.91125e-07 -0.000307104
0.0013491 1.55943e-05 4.71344e-06
1.55943e-05 0.000198365 -7.4389e-07
4.71344e-06 -7.4389e-07 1.14322e-05
0.00248063 -1.03245e-05 2.44384e-05
-1.03245e-05 0.00038404 -3.20666e-06
2.44384e-05 -3.20666e-06 -0.000348012
0.00132058 -9.54443e-05 -1.32077e-05
-9.54443e-05 -0.000609022 2.56597e-05
-1.32077e-05 2.56597e-05 -0.000319249
-0.000930721 0.000796568 2.0988e-05
0.000796568 -0.00112601 -7.06862e-06
2.0988e-05 -7.06862e-06 0.000286672
0.00516107 0.000585652 -7.1124e-06
0.000585652 0.000538688 2.49729e-05
-7.1124e-06 2.49729e-05 0.000767745
-0.000234557 -0.000426146 4.94244e-05
-0.000426146 -6.0645e-05 -2.99902e-05
4.94244e-05 -2.99902e-05 -0.00307936
0.000848887 -3.03407e-05 4.65105e-05
-3.03407e-05 0.000345436 -8.39104e-06
4.65105e-05 -8.39104e-06 0.000288055
0.00108024 -7.14981e-06 5.05705e-05
-7.14981e-06 -0.000121313 -2.1824e-05
5.05705e-05 -2.1824e-05 -0.00059705
-0.0013298 0.000234341 -4.13206e-05
0.000234341 -0.000149432 -1.80989e-05
-4.13206e-05 -1.80989e-05 -0.000388475
1.0463e-05 0.00061325 -1.94142e-05
0.00061325 -0.000405134 5.86105e-05
-1.94142e-05 5.86105e-05 -6.2403e-06
0.00774289 0.000125445 1.73e-05
0.000125445 0.00334866 -3.16328e-05
1.73e-05 -3.16328e-05 0.000973812
0.00282337 -0.000305001 -7.18734e-05
-0.000305001 0.000234484 7.75184e-05
-7.18734e-05 7.75184e-05 -5.96382e-05
-2.57188e-05 -2.43893e-05 -6.78466e-06
-2.43893e-05 -8.0023e-05 1.00867e-05
-6.78466e-06 1.00867e-05 -0.000178292
0.000238664 -5.3688e-05 3.61512e-07
-5.3688e-05 0.000167326 -4.64979e-07
3.61512e-07 -4.64979e-07 -3.21445e-06
0.00102641 -0.000170039 1.90453e-05
-0.000170039 0.000358221 -8.55607e-06
1.90453e-05 -8.55607e-06 0.000231696
0.000651816 1.79887e-05 -4.09384e-06
1.79887e-05 0.000153047 3.68145e-06
-4.09384e-06 3.68145e-06 5.92249e-05
-0.000169548 -8.38068e-05 1.11834e-06
-8.38068e-05 -0.00020807 -3.00868e-06
1.11834e-06 -3.00868e-06 -0.000440027
0.00157736 -0.000242276 1.63673e-05
-0.000242276 0.000422523 -1.96399e-06
1.63673e-05 -1.96399e-06 0.000200756
0.00222829 -0.000241037 -4.55935e-06
-0.000241037 0.000886058 1.04424e-06
-4.55935e-06 1.04424e-06 0.000700825
0.00153219 -0.00020461 1.35952e-06
-0.00020461 0.000506855 1.06326e-06
1.35952e-06 1.06326e-06 0.000238352
0.00085968 -0.000206793 3.85853e-06
-0.000206793 -4.63912e-05 -3.72164e-06
3.85853e-06 -3.72164e-06 -0.000291143
0.00113427 -0.000165384 -3.82733e-06
-0.000165384 0.000245589 1.51695e-07
-3.82733e-06 1.51695e-07 4.1687e-05
0.00185354 -0.000244646 1.2395e-06
-0.000244646 0.000534396 1.31532e-07
1.2395e-06 1.31532e-07 0.000294862
0.00133493 -0.000231628 1.56565e-06
-0.000231628 9.26594e-05 -3.66567e-06
1.56565e-06 -3.66567e-06 -0.000124401
0.0015875 -0.000231648 5.67006e-07
-0.000231648 0.000153395 -1.60938e-06
5.67006e-07 -1.60938e-06 -1.7794e-05
0.00218846 -0.000257627 -4.88211e-06
-0.000257627 0.000663094 4.66518e-06
-4.88211e-06 4.66518e-06 0.000456926
0.00159345 -0.000231247 -1.42207e-06
-0.000231247 0.000291015 -3.06564e-07
-1.42207e-06 -3.06564e-07 7.46188e-05
0.000562486 -0.000125508 2.58243e-06
-0.000125508 -0.000100966 -1.94293e-07
2.58243e-06 -1.94293e-07 -0.000251793
0.000922481 -0.0001508 1.77301e-06
-0.0001508 8.69268e-05 -2.78484e-07
1.77301e-06 -2.78484e-07 -8.11707e-05
0.00127529 -0.00018409 -1.16773e-06
-0.00018409 0.000252363 -1.48734e-06
-1.16773e-06 -1.48734e-06 5.50658e-05
0.00106186 -0.000142301 1.04782e-06
-0.000142301 0.000221876 -7.27678e-08
1.04782e-06 -7.27678e-08 8.07148e-05
0.00111836 -0.000150956 -8.22622e-07
-0.000150956 0.000250096 -9.44047e-07
-8.22622e-07 -9.44047e-07 0.000103036
0.000792912 -0.000129073 2.58632e-06
-0.000129073 6.89991e-05 -1.93162e-06
2.58632e-06 -1.93162e-06 -7.32996e-05
0.000725954 1.07557e-05 1.23961e-06
1.07557e-05 4.16307e-05 1.27088e-06
1.23961e-06 1.27088e-06 -5.75783e-05
0.000777755 -5.29309e-05 7.33789e-08
-5.29309e-05 8.18196e-05 7.08843e-07
7.33789e-08 7.08843e-07 -3.5569e-05
0.0012449 -0.000133679 1.49018e-06
-0.000133679 0.000348003 -1.09712e-06
1.49018e-06 -1.09712e-06 0.000210058
0.000679171 7.10976e-05 2.45877e-07
7.10976e-05 7.4429e-06 2.02404e-06
2.45877e-07 2.02404e-06 -4.88459e-05
0.000771005 2.11868e-05 -2.9459e-07
2.11868e-05 5.885e-05 -1.79151e-07
-2.9459e-07 -1.79151e-07 -2.29049e-05
0.000894455 -4.38356e-05 -2.50999e-07
-4.38356e-05 0.00013549 -6.20457e-07
-2.50999e-07 -6.20457e-07 3.37237e-05
0.000637126 4.93099e-05 -2.33154e-06
4.93099e-05 -2.68155e-05 4.69441e-06
-2.33154e-06 4.69441e-06 -4.23039e-05
0.000705557 5.55333e-05 -2.35793e-07
5.55333e-05 1.04912e-05 -1.75508e-07
-2.35793e-07 -1.75508e-07 -3.51218e-05
0.000796802 2.70949e-06 1.85212e-07
2.70949e-06 6.06573e-05 -1.23506e-06
1.85212e-07 -1.23506e-06 -6.06567e-06
0.000725318 4.43162e-05 9.18107e-07
4.43162e-05 1.1755e-05 -1.64304e-06
9.18107e-07 -1.64304e-06 -2.87334e-05
0.000661568 4.50415e-05 8.82876e-09
4.50415e-05 -2.23571e-05 -1.41828e-08
8.82876e-09 -1.41828e-08 -3.5252e-05
0.00210691 6.44887e-05 -2.47713e-05
6.44887e-05 0.000794282 3.2806e-06
-2.47713e-05 3.2806e-06 0.000806933
0.000679098 3.98664e-05 1.14848e-06
3.98664e-05 -2.14482e-05 -3.34239e-06
1.14848e-06 -3.34239e-06 -3.21638e-05
0.00212168 5.68755e-05 1.62423e-06
5.68755e-05 0.000795049 1.10877e-07
1.62423e-06 1.10877e-07 0.000809498
0.00214015 4.89357e-05 1.93934e-05
4.89357e-05 0.000798675 -3.69166e-06
1.93934e-05 -3.69166e-06 0.000814663
0.000814137 1.0126e-05 2.71892e-08
1.0126e-05 7.3263e-05 -4.82312e-07
2.71892e-08 -4.82312e-07 -7.42562e-06
0.000804679 4.1313e-05 -9.60242e-07
4.1313e-05 6.30057e-05 -8.6014e-07
-9.60242e-07 -8.6014e-07 -9.94908e-06
0.000724601 -2.13417e-05 -7.99155e-07
-2.13417e-05 -4.33592e-07 -1.77473e-06
-7.99155e-07 -1.77473e-06 -4.38966e-05
0.00079219 3.3379e-05 -7.53615e-08
3.3379e-05 4.93532e-05 -1.23992e-08
-7.53615e-08 -1.23992e-08 -1.75186e-05
0.000667904 -3.21197e-05 -3.48384e-07
-3.21197e-05 -3.5947e-05 -3.73256e-06
-3.48384e-07 -3.73256e-06 -4.74958e-05
0.000732156 -1.43307e-05 -1.24371e-07
-1.43307e-05 3.08309e-06 -1.31162e-08
-1.24371e-07 -1.31162e-08 -3.81795e-05
0.000760585 2.21917e-05 -2.23479e-07
2.21917e-05 2.95623e-05 3.73512e-08
-2.23479e-07 3.73512e-08 -3.35485e-05
0.00222821 -4.01075e-05 -1.67921e-05
-4.01075e-05 0.000840088 -4.22186e-06
-1.67921e-05 -4.22186e-06 0.000857068
0.000679761 -2.54617e-05 -1.6842e-07
-2.54617e-05 -3.49843e-05 -1.52466e-08
-1.6842e-07 -1.52466e-08 -4.37896e-05
0.000721904 -1.11795e-05 -1.33994e-07
-1.11795e-05 -3.40846e-06 1.06519e-06
-1.33994e-07 1.06519e-06 -4.23315e-05
0.00215339 -2.95172e-05 -2.70249e-06
-2.95172e-05 0.000792924 7.98677e-08
-2.70249e-06 7.98677e-08 0.000811857
0.000686779 -1.87852e-05 2.64831e-07
-1.87852e-05 -3.5507e-05 3.48824e-06
2.64831e-07 3.48824e-06 -4.18874e-05
0.00209503 -1.87909e-05 8.17204e-06
-1.87909e-05 0.000756313 4.44134e-06
8.17204e-06 4.44134e-06 0.00077675
0.00116579 -3.94084e-05 1.25386e-05
-3.94084e-05 0.000122798 2.09309e-05
1.25386e-05 2.09309e-05 -9.83375e-05
0.00125043 -6.55493e-06 -4.4606e-06
-6.55493e-06 9.62449e-05 7.92648e-06
-4.4606e-06 7.92648e-06 -6.77853e-05
0.00133924 1.29657e-05 8.30116e-06
1.29657e-05 0.000194276 -1.2173e-05
8.30116e-06 -1.2173e-05 -1.04896e-05
0.000790895 5.19507e-06 -2.30454e-07
5.19507e-06 5.58575e-05 -6.0917e-08
-2.30454e-07 -6.0917e-08 -2.23478e-05
0.000804125 -1.78992e-05 -1.87503e-07
-1.78992e-05 6.57017e-05 2.55429e-07
-1.87503e-07 2.55429e-07 -1.44401e-05
0.000767538 -2.25974e-05 -2.37318e-07
-2.25974e-05 4.78446e-05 -1.56416e-06
-2.37318e-07 -1.56416e-06 -3.66135e-05
0.000700301 -3.24153e-05 -1.66806e-07
-3.24153e-05 6.8918e-06 -6.2448e-07
-1.66806e-07 -6.2448e-07 -7.18791e-05
0.000963988 5.29159e-05 -8.2906e-07
5.29159e-05 0.000164639 -1.08519e-07
-8.2906e-07 -1.08519e-07 7.33302e-05
0.000761605 -2.87396e-05 -6.66621e-08
-2.87396e-05 3.06217e-05 -2.12674e-07
-6.66621e-08 -2.12674e-07 -4.19791e-05
0.000758456 -8.86791e-06 4.65821e-07
-8.86791e-06 3.73161e-05 -8.60754e-07
4.65821e-07 -8.60754e-07 -4.5736e-05
0.000829336 1.2154e-05 -1.00225e-07
1.2154e-05 8.05098e-05 -4.28782e-08
-1.00225e-07 -4.28782e-08 -1.38121e-06
0.000884829 3.90621e-05 -7.92269e-09
3.90621e-05 0.000110757 1.76005e-07
-7.92269e-09 1.76005e-07 2.20458e-05
0.000947483 1.45541e-05 -1.25294e-07
1.45541e-05 0.000156929 5.44471e-07
-1.25294e-07 5.44471e-07 7.00452e-05
0.00190804 -7.00998e-06 6.95956e-05
-7.00998e-06 0.00038214 8.26996e-05
6.95956e-05 8.26996e-05 -0.00039021
0.00150059 1.97571e-05 4.43287e-06
1.97571e-05 0.000209332 1.97573e-05
4.43287e-06 1.97573e-05 -0.00048134
0.00227929 2.11856e-05 -6.15767e-06
2.11856e-05 0.000648609 -1.83933e-05
-6.15767e-06 -1.83933e-05 0.000248977
0.00549945 -0.000366766 -2.83191e-05
-0.000366766 0.000618521 -5.30437e-05
-2.83191e-05 -5.30437e-05 0.00178119
-0.00777166 0.000240109 -3.36702e-05
0.000240109 -0.00329256 4.85521e-05
-3.36702e-05 4.85521e-05 -0.00420399
0.00404847 -0.000665683 -6.4564e-05
-0.000665683 0.000972662 5.2072e-05
-6.4564e-05 5.2072e-05 0.0002158
0.00717483 -0.00018986 -8.51588e-06
-0.00018986 0.00237732 -4.80745e-05
-8.51588e-06 -4.80745e-05 0.00049939
0.00353434 -0.00027255 -4.04922e-05
-0.00027255 0.000445609 4.30122e-05
-4.04922e-05 4.30122e-05 0.000159753
0.00966191 -0.000203983 5.82828e-05
-0.000203983 0.00411555 -1.44786e-05
5.82828e-05 -1.44786e-05 0.00169697
0.000550283 -0.000303107 2.35491e-05
-0.000303107 -0.000703627 4.52043e-06
2.35491e-05 4.52043e-06 -0.00106115
0.00109883 -0.000485892 -3.5329e-05
-0.000485892 -0.001832 -8.16251e-05
-3.5329e-05 -8.16251e-05 -0.000583087
0.00467079 3.78269e-05 -0.000108543
3.78269e-05 0.000951292 -1.7503e-05
-0.000108543 -1.7503e-05 0.000700775
0.00794914 -0.000153328 -1.61994e-05
-0.000153328 0.0027705 4.55016e-05
-1.61994e-05 4.55016e-05 0.00106735
0.00763117 -0.000964104 -3.06678e-06
-0.000964104 0.00209678 -3.45956e-05
-3.06678e-06 -3.45956e-05 0.00220549
0.0032916 -0.000755692 1.93208e-05
-0.000755692 0.000299081 1.8849e-06
1.93208e-05 1.8849e-06 0.00171537
0.000626875 2.44525e-05 2.37678e-06
2.44525e-05 1.25313e-05 1.6347e-06
2.37678e-06 1.6347e-06 -5.36058e-05
0.000917926 -2.93864e-05 -5.89486e-08
-2.93864e-05 0.000131834 6.13688e-07
-5.89486e-08 6.13688e-07 5.19523e-05
0.00080771 1.28709e-05 -1.18775e-07
1.28709e-05 6.40912e-05 -1.20732e-06
-1.18775e-07 -1.20732e-06 -2.67847e-05
0.000193785 1.83572e-05 -2.71039e-05
1.83572e-05 5.78075e-05 1.79342e-05
-2.71039e-05 1.79342e-05 -0.000318625
0.00116266 -6.39377e-05 -2.97544e-05
-6.39377e-05 0.00053912 -8.63788e-06
-2.97544e-05 -8.63788e-06 0.000514609
0.000750172 -1.24756e-05 -1.13179e-06
-1.24756e-05 3.80071e-05 -6.15106e-07
-1.13179e-06 -6.15106e-07 -4.52394e-05
0.000522142 -3.29237e-05 -4.29281e-07
-3.29237e-05 -5.26311e-05 -5.50047e-06
-4.29281e-07 -5.50047e-06 -0.000122417
0.000760175 5.71102e-06 -3.52789e-07
5.71102e-06 8.30558e-05 -1.56173e-06
-3.52789e-07 -1.56173e-06 8.37199e-06
0.000464275 -8.58643e-06 -1.92778e-06
-8.58643e-06 0.00010884 4.09091e-06
-1.92778e-06 4.09091e-06 3.52997e-05
8.32522e-05 -1.71884e-05 4.52708e-05
-1.71884e-05 0.000563189 -3.44963e-05
4.52708e-05 -3.44963e-05 -0.000347639
-0.000691397 -1.37052e-05 -7.76555e-06
-1.37052e-05 -0.000531007 8.46945e-06
-7.76555e-06 8.46945e-06 -0.000613262
0.00112951 0.000123875 -6.36662e-06
0.000123875 0.000531761 -3.16955e-05
-6.36662e-06 -3.16955e-05 6.524e-06
0.00138492 -5.66839e-06 5.20353e-05
-5.66839e-06 0.000114155 6.86852e-06
5.20353e-05 6.86852e-06 -0.000335874
0.00115577 -1.13856e-05 7.74327e-06
-1.13856e-05 0.000124564 1.95431e-06
7.74327e-06 1.95431e-06 5.72662e-07
0.000675039 -8.67042e-06 7.07467e-07
-8.67042e-06 -0.000177139 -4.16476e-07
7.07467e-07 -4.16476e-07 -0.000231624
-0.00151824 -4.25973e-05 -3.74203e-05
-4.25973e-05 -0.000458275 1.20514e-05
-3.74203e-05 1.20514e-05 -0.000813728
0.00259468 3.6079e-05 1.13099e-06
3.6079e-05 -6.20581e-05 -3.99965e-05
1.13099e-06 -3.99965e-05 -0.000178839
0.00137781 9.96927e-06 -5.48076e-06
9.96927e-06 0.000204833 1.17283e-05
-5.48076e-06 1.17283e-05 1.63992e-05
0.0126712 -0.000354601 9.78455e-05
-0.000354601 0.00545991 -9.25197e-06
9.78455e-05 -9.25197e-06 0.00298259
0.00511814 0.000692037 -4.37877e-05
0.000692037 0.00126096 3.00507e-06
-4.37877e-05 3.00507e-06 0.0011964
0.00263494 -2.53258e-05 -4.41438e-05
-2.53258e-05 0.000521538 5.52282e-05
-4.41438e-05 5.52282e-05 -0.000269714
-0.00421708 0.000856943 8.59074e-05
0.000856943 -0.00314712 -9.32294e-05
8.59074e-05 -9.32294e-05 -0.00134448
0.000525887 -3.26355e-05 -7.46034e-06
-3.26355e-05 0.000214065 -1.26149e-06
-7.46034e-06 -1.26149e-06 0.000124981
0.0014784 -1.75668e-06 -8.55324e-06
-1.75668e-06 0.00012257 2.70427e-06
-8.55324e-06 2.70427e-06 -0.000351153
-0.00176961 0.000269994 -8.85956e-05
0.000269994 -0.000188472 3.71391e-05
-8.85956e-05 3.71391e-05 -0.000335841
0.00190516 -0.000294306 -2.45813e-05
-0.000294306 -0.000192844 2.97805e-05
-2.45813e-05 2.97805e-05 -0.000386191
0.00652612 0.00100625 2.059e-05
0.00100625 0.00223453 2.22855e-05
2.059e-05 2.22855e-05 0.00265769
0.00694672 -0.000250455 5.13374e-05
-0.000250455 0.00262261 -2.96601e-05
5.13374e-05 -2.96601e-05 0.000480839
0.00163019 -0.000202655 1.73028e-05
-0.000202655 0.000285646 1.81911e-05
1.73028e-05 1.81911e-05 0.00044794
-0.00177783 2.59345e-05 3.94777e-05
2.59345e-05 8.33772e-05 -8.95934e-06
3.94777e-05 -8.95934e-06 -0.000596068
0.00311025 0.00068476 -6.5308e-05
0.00068476 0.00157936 2.86162e-05
-6.5308e-05 2.86162e-05 0.00168536
0.00406191 0.000115099 -8.68209e-05
0.000115099 0.00128365 6.83083e-05
-8.68209e-05 6.83083e-05 -0.000905225
0.00267702 -0.000607716 2.42841e-05
-0.000607716 0.00018891 1.87209e-06
2.42841e-05 1.87209e-06 -0.000389246
0.000717789 -1.22646e-05 7.87507e-06
-1.22646e-05 0.000423837 1.04088e-05
7.87507e-06 1.04088e-05 0.000267686
0.000566454 -0.000151606 -2.40409e-06
-0.000151606 0.000134109 7.75244e-07
-2.40409e-06 7.75244e-07 -1.64979e-05
0.00257889 -0.000287442 2.08587e-05
-0.000287442 0.000753523 1.20387e-06
2.08587e-05 1.20387e-06 0.000724081
-0.00131955 -1.35068e-05 -4.92405e-06
-1.35068e-05 -0.000791866 6.51766e-06
-4.92405e-06 6.51766e-06 -0.00102926
0.000767478 -0.000181997 4.57896e-06
-0.000181997 3.588e-05 -6.04025e-07
4.57896e-06 -6.04025e-07 -0.000189748
0.000806931 -0.000241961 4.34496e-06
-0.000241961 -0.000245057 -2.04041e-06
4.34496e-06 -2.04041e-06 -0.00041136
0.00197009 -0.000228899 -5.67376e-06
-0.000228899 0.000712777 1.51495e-06
-5.67376e-06 1.51495e-06 0.000454152
0.00120289 -0.000224938 -2.35172e-06
-0.000224938 0.000126716 -2.29828e-06
-2.35172e-06 -2.29828e-06 -0.000108493
0.00152003 -0.000274192 5.19293e-06
-0.000274192 8.00075e-05 -2.09187e-06
5.19293e-06 -2.09187e-06 -8.49869e-05
0.00184171 -0.000242138 -2.55902e-06
-0.000242138 0.000520759 -8.15779e-07
-2.55902e-06 -8.15779e-07 0.000281076
0.00152589 -0.000241487 -2.79711e-07
-0.000241487 0.000189627 -2.00872e-06
-2.79711e-07 -2.00872e-06 -2.20859e-05
0.00164389 -0.000240448 7.04987e-07
-0.000240448 0.000104469 -2.72851e-06
7.04987e-07 -2.72851e-06 -4.94261e-05
0.00157687 -0.000198718 3.81049e-07
-0.000198718 8.95878e-05 -1.54208e-06
3.81049e-07 -1.54208e-06 -5.17903e-05
0.00158773 -0.000223563 -1.06656e-07
-0.000223563 0.000230063 -1.24343e-06
-1.06656e-07 -1.24343e-06 4.14945e-05
0.0015252 -0.00022612 1.5278e-06
-0.00022612 0.000123401 2.52244e-07
1.5278e-06 2.52244e-07 -4.69159e-05
0.00150043 -0.000200904 -1.56444e-06
-0.000200904 0.00033097 4.36024e-06
-1.56444e-06 4.36024e-06 0.000149639
0.0014621 -0.000211171 -3.55039e-09
-0.000211171 0.000275694 2.86727e-07
-3.55039e-09 2.86727e-07 6.79826e-05
0.00141298 -0.000220319 -7.27584e-07
-0.000220319 0.000191753 -1.6504e-06
-7.27584e-07 -1.6504e-06 -2.90923e-05
0.000973511 -0.000146228 1.30718e-06
-0.000146228 0.000132405 -1.2102e-06
1.30718e-06 -1.2102e-06 -1.03938e-05
0.00067249 -0.00013142 -2.79777e-07
-0.00013142 -3.71992e-05 -1.73777e-06
-2.79777e-07 -1.73777e-06 -0.0001843
0.00122093 -0.000169857 4.0874e-06
-0.000169857 0.000248742 -4.44988e-06
4.0874e-06 -4.44988e-06 8.56324e-05
0.000827636 -7.78855e-05 3.7123e-07
-7.78855e-05 8.45497e-05 1.17026e-06
3.7123e-07 1.17026e-06 -3.21477e-05
0.000891106 -0.000122077 2.77567e-07
-0.000122077 0.000128814 4.61767e-07
2.77567e-07 4.61767e-07 -9.3613e-06
0.00089112 -0.000133823 -7.65131e-07
-0.000133823 0.00012761 1.01793e-06
-7.65131e-07 1.01793e-06 -1.88076e-05
0.000673923 8.11458e-05 1.42889e-06
8.11458e-05 1.21861e-05 2.98507e-06
1.42889e-06 2.98507e-06 -5.95019e-05
0.000812087 -1.05521e-05 1.08124e-07
-1.05521e-05 9.12842e-05 -9.28344e-08
1.08124e-07 -9.28344e-08 -1.12976e-05
0.00087542 -6.94963e-05 -1.00989e-06
-6.94963e-05 0.000137211 1.66492e-07
-1.00989e-06 1.66492e-07 2.00633e-05
0.00130479 6.87875e-05 -1.37573e-05
6.87875e-05 0.00035828 2.97886e-06
-1.37573e-05 2.97886e-06 0.00034138
0.000687137 5.26916e-05 -4.05163e-07
5.26916e-05 7.83212e-06 -3.94238e-07
-4.05163e-07 -3.94238e-07 -4.62666e-05
0.000799595 -1.23454e-05 1.2422e-07
-1.23454e-05 7.56773e-05 -1.45917e-06
1.2422e-07 -1.45917e-06 -8.12407e-06
0.000788126 3.96685e-05 -2.3598e-05
3.96685e-05 6.43039e-05 3.22483e-06
-2.3598e-05 3.22483e-06 6.92544e-05
0.0010095 5.79754e-05 -6.51846e-06
5.79754e-05 0.000182188 2.70301e-07
-6.51846e-06 2.70301e-07 0.000167751
0.000707327 5.26706e-05 1.30587e-07
5.26706e-05 1.12089e-05 -1.92613e-06
1.30587e-07 -1.92613e-06 -3.42015e-05
0.000682608 4.64598e-05 1.1363e-06
4.64598e-05 -1.06675e-05 -3.36419e-06
1.1363e-06 -3.36419e-06 -2.37231e-05
0.00213147 6.552e-05 1.35109e-06
6.552e-05 0.000809097 1.12535e-07
1.35109e-06 1.12535e-07 0.000821418
0.00213414 5.76726e-05 2.26566e-05
5.76726e-05 0.000803078 -3.41159e-06
2.26566e-05 -3.41159e-06 0.000817303
0.000746017 -1.44598e-05 2.22464e-07
-1.44598e-05 3.3161e-05 -1.04174e-06
2.22464e-07 -1.04174e-06 -4.88137e-05
0.00080594 2.31822e-05 -4.53702e-07
2.31822e-05 6.32124e-05 -1.34288e-06
-4.53702e-07 -1.34288e-06 -1.05196e-05
0.00079114 -1.55001e-05 1.1913e-07
-1.55001e-05 5.78544e-05 -6.74612e-08
1.1913e-07 -6.74612e-08 -2.09758e-05
0.000726303 -3.28802e-05 -8.98917e-07
-3.28802e-05 4.39394e-06 -1.9976e-06
-8.98917e-07 -1.9976e-06 -4.14227e-05
0.000795899 1.21363e-05 6.91123e-07
1.21363e-05 5.2613e-05 -5.23932e-08
6.91123e-07 -5.23932e-08 -1.60083e-05
0.000656452 -3.79827e-05 -5.1861e-07
-3.79827e-05 -3.61207e-05 -3.87806e-06
-5.1861e-07 -3.87806e-06 -5.02649e-05
0.00072739 -1.80759e-05 -1.60993e-07
-1.80759e-05 1.85582e-06 2.75805e-09
-1.60993e-07 2.75805e-09 -4.17266e-05
0.000809494 4.67091e-05 9.8849e-07
4.67091e-05 6.67554e-05 6.60899e-07
9.8849e-07 6.60899e-07 -5.4628e-06
0.00229273 -4.95995e-05 -2.14008e-05
-4.95995e-05 0.000881793 -4.05752e-06
-2.14008e-05 -4.05752e-06 0.000896869
0.000667449 -3.14871e-05 -2.96785e-07
-3.14871e-05 -3.62902e-05 -5.12664e-09
-2.96785e-07 -5.12664e-09 -4.77396e-05
0.000741369 -1.47539e-05 3.45561e-07
-1.47539e-05 8.77062e-06 1.78769e-06
3.45561e-07 1.78769e-06 -3.26359e-05
0.00221082 -3.94052e-05 -2.52218e-06
-3.94052e-05 0.000829733 1.03108e-07
-2.52218e-06 1.03108e-07 0.000846971
0.00067743 -2.49711e-05 2.79774e-07
-2.49711e-05 -3.63358e-05 3.57426e-06
2.79774e-07 3.57426e-06 -4.50524e-05
0.00213892 -2.86885e-05 1.19471e-05
-2.86885e-05 0.000784251 4.35956e-06
1.19471e-05 4.35956e-06 0.000803421
0.00207222 -4.85652e-05 5.27566e-05
-4.85652e-05 0.000477479 2.91376e-05
5.27566e-05 2.91376e-05 7.07153e-05
0.00121666 -3.5133e-05 5.5572e-07
-3.5133e-05 0.000148299 6.70263e-06
5.5572e-07 6.70263e-06 -6.34839e-05
0.00107792 -9.41728e-06 -4.23411e-06
-9.41728e-06 1.24981e-05 -5.07258e-06
-4.23411e-06 -5.07258e-06 -0.000131254
0.000879192 5.49621e-05 -1.3371e-06
5.49621e-05 0.000120869 -5.12143e-07
-1.3371e-06 -5.12143e-07 2.70655e-05
0.000857589 1.16324e-06 1.62093e-07
1.16324e-06 9.25031e-05 7.38074e-08
1.62093e-07 7.38074e-08 1.48093e-05
0.000774625 -2.69552e-05 8.74638e-08
-2.69552e-05 4.91398e-05 4.1047e-07
8.74638e-08 4.1047e-07 -3.12929e-05
0.000844044 -2.08394e-05 9.81874e-08
-2.08394e-05 8.34871e-05 -1.30224e-07
9.81874e-08 -1.30224e-07 6.07315e-06
0.000872672 8.59757e-06 1.24445e-07
8.59757e-06 0.000106411 -3.28925e-07
1.24445e-07 -3.28925e-07 2.06308e-05
0.00085399 3.51939e-05 1.99074e-07
3.51939e-05 0.000102277 6.64754e-07
1.99074e-07 6.64754e-07 1.24046e-05
0.000872247 2.41621e-05 -3.77212e-07
2.41621e-05 0.00011349 -1.51437e-06
-3.77212e-07 -1.51437e-06 1.87748e-05
0.00062243 -2.42552e-05 2.71112e-07
-2.42552e-05 -2.81892e-05 -1.10395e-07
2.71112e-07 -1.10395e-07 -0.000113335
0.000826789 6.04347e-05 2.67318e-07
6.04347e-05 8.21406e-05 -4.22762e-07
2.67318e-07 -4.22762e-07 -1.86574e-06
0.000838762 -4.2978e-05 7.20991e-07
-4.2978e-05 7.30047e-05 -8.01352e-07
7.20991e-07 -8.01352e-07 -7.02266e-06
0.000849489 7.90333e-06 -1.77118e-07
7.90333e-06 9.93309e-05 1.28652e-07
-1.77118e-07 1.28652e-07 1.54057e-05
0.00134017 2.79145e-05 4.2721e-06
2.79145e-05 0.000393204 1.87875e-06
4.2721e-06 1.87875e-06 0.000310864
0.00123502 -0.000365957 6.17634e-05
-0.000365957 0.00092287 5.83859e-05
6.17634e-05 5.83859e-05 0.000845307
0.00215473 3.65817e-06 3.97438e-06
3.65817e-06 0.00050674 1.79448e-05
3.97438e-06 1.79448e-05 -0.000295233
0.0016877 2.72474e-05 -1.23926e-05
2.72474e-05 0.000236209 -3.35184e-05
-1.23926e-05 -3.35184e-05 -0.000461499
0.00477534 -0.000623848 -7.65968e-05
-0.000623848 0.000101679 -6.54159e-05
-7.65968e-05 -6.54159e-05 0.00144574
0.00392365 -0.000232036 -8.10419e-06
-0.000232036 0.000436371 1.75266e-05
-8.10419e-06 1.75266e-05 2.19337e-05
0.000745763 -0.00036086 -9.10906e-05
-0.00036086 -0.000263056 5.88187e-05
-9.10906e-05 5.88187e-05 -0.00223488
0.00298334 -0.000210892 -5.02357e-05
-0.000210892 0.000365974 9.1937e-05
-5.02357e-05 9.1937e-05 -7.00352e-05
0.00416159 -0.000192512 -3.8151e-06
-0.000192512 0.000735566 3.48379e-05
-3.8151e-06 3.48379e-05 0.000632103
-0.000535685 -0.000753011 7.75467e-06
-0.000753011 -0.00138442 1.90647e-05
7.75467e-06 1.90647e-05 0.000171098
0.00527313 0.000139031 7.50414e-06
0.000139031 0.00225192 1.88908e-05
7.50414e-06 1.88908e-05 -0.000198969
0.00104009 -0.000472889 -5.77367e-06
-0.000472889 -0.00120955 1.35033e-05
-5.77367e-06 1.35033e-05 -0.000926655
0.0023807 0.000200815 -4.18994e-05
0.000200815 6.39873e-05 -1.06134e-05
-4.18994e-05 -1.06134e-05 -0.00014334
0.00875609 -0.000315636 -3.67053e-05
-0.000315636 0.00386413 3.72431e-05
-3.67053e-05 3.72431e-05 0.00184489
-8.75173e-05 -0.000555617 -5.88009e-05
-0.000555617 -0.000456874 -4.49273e-05
-5.88009e-05 -4.49273e-05 -3.08245e-07
0.000547786 0.000152634 6.18227e-07
0.000152634 -4.74925e-05 -2.66429e-06
6.18227e-07 -2.66429e-06 -0.000115213
0.000930238 3.32408e-05 4.5384e-06
3.32408e-05 0.000171124 -2.56453e-08
4.5384e-06 -2.56453e-08 0.000106442
0.000947992 -1.06544e-05 -8.57981e-07
-1.06544e-05 0.000152399 -3.39548e-07
-8.57981e-07 -3.39548e-07 7.14381e-05
-0.000783547 -9.87397e-06 -5.19789e-05
-9.87397e-06 -8.96841e-06 -1.26911e-05
-5.19789e-05 -1.26911e-05 -0.000864171
-0.000835945 3.82006e-05 4.83582e-06
3.82006e-05 -0.000598862 -6.79002e-06
4.83582e-06 -6.79002e-06 -0.000676155
0.000813981 3.68908e-05 1.75108e-07
3.68908e-05 0.000115062 -2.4953e-06
1.75108e-07 -2.4953e-06 3.8001e-05
0.000796666 9.22441e-05 3.22069e-06
9.22441e-05 0.000213251 1.98174e-06
3.22069e-06 1.98174e-06 0.000123077
0.000760505 0.000162224 2.3274e-06
0.000162224 0.000271263 -2.19724e-05
2.3274e-06 -2.19724e-05 -0.000142893
0.000458031 0.000233135 1.66982e-05
0.000233135 -0.000129154 5.27248e-06
1.66982e-05 5.27248e-06 -0.00029655
0.000255656 1.67053e-07 9.2952e-05
1.67053e-07 0.00124647 5.8954e-07
9.2952e-05 5.8954e-07 0.000573992
0.00143897 -2.20161e-05 -5.32012e-06
-2.20161e-05 0.000199698 6.29603e-06
-5.32012e-06 6.29603e-06 -0.000173629
0.000906126 -9.59332e-06 -1.43156e-06
-9.59332e-06 4.94552e-06 1.38803e-06
-1.43156e-06 1.38803e-06 -0.000103673
0.000974544 -4.9302e-05 -2.16006e-05
-4.9302e-05 0.000463011 5.55756e-06
-2.16006e-05 5.55756e-06 0.000374854
0.00101825 -0.000211829 2.48283e-06
-0.000211829 -0.000832572 -2.22385e-05
2.48283e-06 -2.22385e-05 -0.000807049
0.0016795 3.44739e-06 -6.67164e-05
3.44739e-06 0.000263786 1.7735e-05
-6.67164e-05 1.7735e-05 -0.000213157
-0.000655277 -0.000354703 3.12701e-05
-0.000354703 -0.000826893 -3.67136e-05
3.12701e-05 -3.67136e-05 -0.00299962
-0.0030727 0.00049628 8.68252e-06
0.00049628 -0.00266468 -3.24221e-05
8.68252e-06 -3.24221e-05 -0.00210888
0.00152388 0.000393172 -7.78317e-05
0.000393172 0.00121575 5.96359e-05
-7.78317e-05 5.96359e-05 0.00140111
0.00175118 -0.000120177 -3.78578e-06
-0.000120177 0.000209351 3.07503e-06
-3.78578e-06 3.07503e-06 0.000492814
0.00139544 0.000147744 3.18985e-06
0.000147744 0.00154335 6.09308e-06
3.18985e-06 6.09308e-06 0.00121495
-0.00385839 0.000314684 2.54163e-05
0.000314684 -0.00135291 6.29125e-07
2.54163e-05 6.29125e-07 -0.00175946
0.0041548 -0.000653544 2.91478e-07
-0.000653544 0.00115975 1.54134e-06
2.91478e-07 1.54134e-06 0.000210654
0.00840464 0.000244432 1.38119e-05
0.000244432 0.0032439 -1.07288e-06
1.38119e-05 -1.07288e-06 0.00153378
0.000570977 -0.000214216 1.7845e-06
-0.000214216 -0.000311354 1.56427e-05
1.7845e-06 1.56427e-05 -0.000225759
-0.00614969 0.000147031 -6.96023e-05
0.000147031 -0.00311095 1.87992e-06
-6.96023e-05 1.87992e-06 -0.00329391
0.00673083 0.000174866 -1.2212e-05
0.000174866 0.00229052 7.24208e-06
-1.2212e-05 7.24208e-06 0.000859371
0.00549198 -0.000617594 -4.6999e-07
-0.000617594 0.000934974 1.64244e-05
-4.6999e-07 1.64244e-05 5.38625e-05
-1.64981e-05 -0.000121155 -1.78611e-05
-0.000121155 -0.000138333 1.21012e-05
-1.78611e-05 1.21012e-05 -0.000327698
0.00123339 -0.000212879 -1.18079e-06
-0.000212879 5.01351e-05 7.10712e-07
-1.18079e-06 7.10712e-07 6.80522e-05
0.00202307 -0.000246258 1.3815e-05
-0.000246258 0.000212227 -2.46772e-06
1.3815e-05 -2.46772e-06 0.00026275
5.07572e-06 -0.000124127 -5.50606e-06
-0.000124127 -0.000325415 2.03951e-07
-5.50606e-06 2.03951e-07 -0.000557868
0.00120586 -0.000263815 -3.91805e-06
-0.000263815 -3.38021e-05 -1.2905e-06
-3.91805e-06 -1.2905e-06 -0.000204309
0.0019156 -0.000311138 2.97358e-06
-0.000311138 0.000153128 -8.23322e-08
2.97358e-06 -8.23322e-08 3.63325e-05
0.0016292 -0.000248319 -5.92487e-06
-0.000248319 0.000346142 -1.73786e-06
-5.92487e-06 -1.73786e-06 0.000118137
0.00156989 -0.000273301 2.06315e-06
-0.000273301 0.000116999 3.84281e-07
2.06315e-06 3.84281e-07 -5.13798e-05
0.00190824 -0.000252272 6.94247e-07
-0.000252272 0.000176281 -3.90458e-06
6.94247e-07 -3.90458e-06 5.08248e-05
0.00166596 -0.000248474 -3.80182e-06
-0.000248474 0.000259384 2.80919e-07
-3.80182e-06 2.80919e-07 5.23832e-05
0.00163229 -0.000238304 1.27837e-07
-0.000238304 9.69292e-05 5.82027e-07
1.27837e-07 5.82027e-07 -5.63086e-05
0.00175784 -0.000201181 1.11023e-07
-0.000201181 0.000125187 -3.84877e-06
1.11023e-07 -3.84877e-06 6.15024e-06
0.00165304 -0.00016977 -2.94031e-07
-0.00016977 0.000103573 -2.1322e-06
-2.94031e-07 -2.1322e-06 -1.9234e-05
0.00182753 -0.00021106 -3.91682e-07
-0.00021106 0.000269482 -1.34907e-06
-3.91682e-07 -1.34907e-06 0.000112863
0.0015817 -0.000197228 1.61805e-07
-0.000197228 9.32706e-05 2.45411e-07
1.61805e-07 2.45411e-07 -4.73216e-05
0.00097657 -0.000175571 -2.2419e-06
-0.000175571 -4.80846e-05 8.99026e-07
-2.2419e-06 8.99026e-07 -0.000227516
0.00156581 -0.000218312 2.02954e-06
-0.000218312 0.00021989 -5.87662e-07
2.02954e-06 -5.87662e-07 3.46202e-05
0.00145532 -0.000220377 2.19032e-06
-0.000220377 8.90669e-05 2.19631e-06
2.19032e-06 2.19631e-06 -8.03727e-05
0.00108428 -0.000163019 2.77875e-07
-0.000163019 0.000142154 1.8573e-06
2.77875e-07 1.8573e-06 -1.3843e-05
0.00101034 -0.000168166 1.55287e-06
-0.000168166 7.11625e-05 -8.30776e-07
1.55287e-06 -8.30776e-07 -0.000107126
0.000688306 -0.000161276 -3.17483e-07
-0.000161276 -0.000137722 -3.03591e-06
-3.17483e-07 -3.03591e-06 -0.000347118
0.000932609 -0.00012682 -1.47799e-06
-0.00012682 0.000107914 1.91593e-07
-1.47799e-06 1.91593e-07 -1.63921e-05
0.0010599 -0.000151361 -6.16753e-08
-0.000151361 0.000175893 -7.65886e-07
-6.16753e-08 -7.65886e-07 3.26755e-05
0.000780843 -0.000137181 -1.23951e-06
-0.000137181 2.57147e-05 -3.645e-06
-1.23951e-06 -3.645e-06 -0.000118228
0.000753205 -3.47614e-06 2.65111e-07
-3.47614e-06 4.43664e-05 3.26839e-06
2.65111e-07 3.26839e-06 -3.91507e-05
0.000921661 -7.87796e-05 1.00995e-06
-7.87796e-05 0.000134592 4.24694e-07
1.00995e-06 4.24694e-07 1.7656e-05
0.000723646 -9.83525e-05 -6.9965e-07
-9.83525e-05 3.74164e-05 1.22183e-06
-6.9965e-07 1.22183e-06 -9.7856e-05
0.000550236 6.56694e-05 -8.33234e-08
6.56694e-05 -5.35639e-05 4.63506e-06
-8.33234e-08 4.63506e-06 -8.20625e-05
0.000699583 2.06012e-05 -6.65667e-07
2.06012e-05 1.80987e-05 -4.16877e-07
-6.65667e-07 -4.16877e-07 -5.01327e-05
0.000897215 -3.62734e-05 -1.70594e-07
-3.62734e-05 0.000139289 -1.6509e-06
-1.70594e-07 -1.6509e-06 3.40165e-05
0.00221444 9.04217e-05 -9.49544e-06
9.04217e-05 0.000873933 1.23522e-06
-9.49544e-06 1.23522e-06 0.000879151
0.00064354 5.92499e-05 -5.88765e-08
5.92499e-05 -1.12818e-05 -1.0134e-07
-5.88765e-08 -1.0134e-07 -3.27498e-05
0.000692432 3.2976e-05 1.19185e-06
3.2976e-05 7.82135e-06 -2.30496e-06
1.19185e-06 -2.30496e-06 -4.48633e-05
0.00215883 7.33106e-05 1.42435e-06
7.33106e-05 0.000832792 1.15365e-07
1.42435e-06 1.15365e-07 0.000842902
0.000684015 5.36711e-05 9.23662e-07
5.36711e-05 2.95043e-07 -3.56166e-06
9.23662e-07 -3.56166e-06 -1.62708e-05
0.00215889 6.63467e-05 2.61846e-05
6.63467e-05 0.000825484 -3.1382e-06
2.61846e-05 -3.1382e-06 0.000837515
0.000886687 4.53824e-05 -3.80674e-07
4.53824e-05 0.000116487 -1.81486e-07
-3.80674e-07 -1.81486e-07 2.77349e-05
0.000786989 -8.07506e-07 -4.59237e-08
-8.07506e-07 5.57206e-05 -2.87283e-07
-4.59237e-08 -2.87283e-07 -2.69296e-05
0.000789734 7.55229e-06 -2.42634e-07
7.55229e-06 5.98679e-05 -1.71797e-06
-2.42634e-07 -1.71797e-06 -1.98624e-05
0.000716053 -3.74061e-05 -8.69432e-07
-3.74061e-05 4.16701e-06 -2.33772e-06
-8.69432e-07 -2.33772e-06 -4.38858e-05
0.000767709 -5.24034e-06 8.39683e-07
-5.24034e-06 4.22916e-05 -6.68746e-08
8.39683e-07 -6.68746e-08 -3.07086e-05
0.000746019 -1.18256e-06 5.187e-07
-1.18256e-06 3.57601e-05 6.19518e-07
5.187e-07 6.19518e-07 -4.54297e-05
0.000654401 -4.34748e-05 -9.5971e-07
-4.34748e-05 -3.06937e-05 -4.0219e-06
-9.5971e-07 -4.0219e-06 -4.70687e-05
0.000721653 -2.56598e-05 -1.81007e-07
-2.56598e-05 1.64253e-06 6.84743e-09
-1.81007e-07 6.84743e-09 -4.38463e-05
0.000773768 3.88819e-06 1.19453e-06
3.88819e-06 3.9569e-05 7.9463e-07
1.19453e-06 7.9463e-07 -2.806e-05
0.00233998 -5.86392e-05 -2.58212e-05
-5.86392e-05 0.0009145 -3.8245e-06
-2.58212e-05 -3.8245e-06 0.000927672
0.000653014 -3.69894e-05 -2.57454e-07
-3.69894e-05 -3.81888e-05 1.68217e-08
-2.57454e-07 1.68217e-08 -5.21985e-05
0.000731689 -1.63297e-05 8.45333e-07
-1.63297e-05 4.65488e-06 1.84668e-06
8.45333e-07 1.84668e-06 -3.8949e-05
0.00227301 -4.90488e-05 -2.66823e-06
-4.90488e-05 0.000870135 1.30077e-07
-2.66823e-06 1.30077e-07 0.000885442
0.000663413 -3.08408e-05 2.54315e-07
-3.08408e-05 -3.85743e-05 3.71492e-06
2.54315e-07 3.71492e-06 -4.9926e-05
0.00219067 -3.85604e-05 1.57582e-05
-3.85604e-05 0.000817794 4.24253e-06
1.57582e-05 4.24253e-06 0.000835316
-0.00259238 -0.000104076 3.22929e-05
-0.000104076 -0.000308268 2.16966e-05
3.22929e-05 2.16966e-05 -0.00109988
0.00202266 -5.73256e-05 2.08775e-06
-5.73256e-05 0.000478249 8.4165e-06
2.08775e-06 8.4165e-06 7.40795e-05
0.00126241 -3.08878e-05 -8.2226e-06
-3.08878e-05 0.000168025 -7.30421e-06
-8.2226e-06 -7.30421e-06 -3.41248e-05
0.000797429 1.81423e-05 -8.26404e-07
1.81423e-05 7.27529e-05 6.35261e-07
-8.26404e-07 6.35261e-07 -1.76913e-05
0.00113828 0.00013564 7.22396e-08
0.00013564 0.000273843 6.82758e-07
7.22396e-08 6.82758e-07 0.000161379
0.000842767 2.74566e-05 -7.23219e-07
2.74566e-05 0.0001053 4.52458e-08
-7.23219e-07 4.52458e-08 6.92429e-06
0.000946123 -3.11604e-05 2.98668e-07
-3.11604e-05 0.000139908 -3.60447e-07
2.98668e-07 -3.60447e-07 6.23059e-05
0.000944326 4.01321e-05 8.25931e-07
4.01321e-05 0.000143886 4.20741e-07
8.25931e-07 4.20741e-07 5.88577e-05
0.000681583 -1.00582e-05 -4.07189e-07
-1.00582e-05 1.50063e-06 1.4851e-06
-4.07189e-07 1.4851e-06 -8.29996e-05
0.000723096 7.96223e-06 -7.98843e-07
7.96223e-06 3.1614e-05 -2.72377e-08
-7.98843e-07 -2.72377e-08 -5.85784e-05
0.000791772 1.05881e-05 2.07113e-07
1.05881e-05 6.79986e-05 -2.33123e-07
2.07113e-07 -2.33123e-07 -2.53131e-05
0.000968956 5.72677e-05 1.30903e-06
5.72677e-05 0.000187742 -1.64387e-06
1.30903e-06 -1.64387e-06 7.77173e-05
0.000902676 8.93413e-05 4.57548e-06
8.93413e-05 0.000104738 -5.63002e-06
4.57548e-06 -5.63002e-06 1.48624e-05
0.000826363 3.67884e-05 -1.49504e-07
3.67884e-05 8.82584e-05 -7.27918e-07
-1.49504e-07 -7.27918e-07 1.50908e-06
0.000946236 4.65319e-05 7.49285e-07
4.65319e-05 0.000178384 1.05548e-06
7.49285e-07 1.05548e-06 9.44014e-05
-0.00317383 -0.000396131 -7.46196e-05
-0.000396131 -0.00122442 1.49056e-05
-7.46196e-05 1.49056e-05 -0.00144758
-0.000940377 -0.000336733 4.33774e-05
-0.000336733 4.46928e-05 1.61535e-05
4.33774e-05 1.61535e-05 -0.000198272
0.00238885 -1.32721e-06 -5.8675e-05
-1.32721e-06 0.000651609 -4.71343e-05
-5.8675e-05 -4.71343e-05 -0.00017928
-0.00435057 -0.000767437 5.81506e-05
-0.000767437 -0.00305729 7.88575e-05
5.81506e-05 7.88575e-05 -0.00134129
0.00614955 -0.000697161 -6.33523e-06
-0.000697161 0.00177397 3.69766e-06
-6.33523e-06 3.69766e-06 0.00189261
0.0023499 0.000457535 5.59912e-05
0.000457535 0.000559427 -1.42899e-05
5.59912e-05 -1.42899e-05 -0.00180572
0.00315375 -0.000225113 -0.000143259
-0.000225113 0.000421023 7.89285e-05
-0.000143259 7.89285e-05 -0.00015942
0.00317807 0.000157882 -2.6631e-05
0.000157882 0.000435293 7.06878e-06
-2.6631e-05 7.06878e-06 0.000137094
0.00520558 -0.00085181 -2.44924e-05
-0.00085181 0.00229157 2.59704e-05
-2.44924e-05 2.59704e-05 0.00250335
0.00196697 0.00014541 8.63068e-06
0.00014541 0.000573048 1.06385e-05
8.63068e-06 1.06385e-05 -0.00150113
0.00250309 0.000425699 -0.000111454
0.000425699 0.000633392 -7.35871e-05
-0.000111454 -7.35871e-05 -0.000108814
0.00171865 0.000505197 -0.000156202
0.000505197 0.000138423 -5.97714e-05
-0.000156202 -5.97714e-05 -0.0018225
0.00219339 0.000362573 1.02554e-05
0.000362573 0.000588721 -1.16036e-05
1.02554e-05 -1.16036e-05 0.000439751
0.000783157 0.000151264 -3.1996e-06
0.000151264 7.284e-05 8.52999e-07
-3.1996e-06 8.52999e-07 6.77837e-06
0.00108238 3.16819e-05 -1.47353e-06
3.16819e-05 0.000248394 -2.72547e-06
-1.47353e-06 -2.72547e-06 0.000184802
4.57866e-05 0.000141075 -3.11911e-05
0.000141075 -7.049e-05 -1.88053e-05
-3.11911e-05 -1.88053e-05 -0.000387877
0.00171188 0.000151075 -6.92094e-06
0.000151075 0.000662493 -6.60573e-06
-6.92094e-06 -6.60573e-06 0.000566204
0.00118016 0.000287395 8.3599e-06
0.000287395 0.000157236 -1.32113e-06
8.3599e-06 -1.32113e-06 1.92038e-06
0.00212949 0.000425122 6.4206e-05
0.000425122 0.000118728 3.30282e-05
6.4206e-05 3.30282e-05 8.42167e-05
-0.00358248 -5.08118e-05 -0.000129476
-5.08118e-05 -0.00185589 -6.88409e-06
-0.000129476 -6.88409e-06 -0.00155913
-0.000720766 -7.07996e-06 3.86737e-05
-7.07996e-06 0.000825375 6.90874e-07
3.86737e-05 6.90874e-07 0.000105826
0.00154827 -3.11682e-05 -4.83036e-05
-3.11682e-05 0.00029798 5.96057e-06
-4.83036e-05 5.96057e-06 3.19125e-06
0.00194607 -0.00017732 -4.04163e-05
-0.00017732 0.000273397 -2.20057e-05
-4.04163e-05 -2.20057e-05 0.000548451
0.00337359 -0.000663917 -5.45754e-05
-0.000663917 0.000529365 4.27056e-07
-5.45754e-05 4.27056e-07 -0.000204165
0.00158663 0.00011302 -3.94162e-05
0.00011302 0.00168467 2.17416e-05
-3.94162e-05 2.17416e-05 0.00135736
-0.00117008 -0.000171487 7.69119e-05
-0.000171487 -0.000974661 -6.6189e-05
7.69119e-05 -6.6189e-05 -0.0031121
0.0093206 0.00051776 -5.61861e-05
0.00051776 0.00467434 5.81558e-06
-5.61861e-05 5.81558e-06 0.00458137
0.00187557 -0.000345014 -3.99593e-07
-0.000345014 0.000264888 1.917e-06
-3.99593e-07 1.917e-06 0.000246342
-0.000932994 0.000283604 -1.07929e-06
0.000283604 -0.000357511 -4.68613e-06
-1.07929e-06 -4.68613e-06 -0.000546497
0.00299885 0.000144605 -1.7155e-05
0.000144605 0.000455951 2.31384e-05
-1.7155e-05 2.31384e-05 -0.00136254
0.00553663 -0.000630021 -3.47395e-05
-0.000630021 0.00141892 1.06504e-05
-3.47395e-05 1.06504e-05 0.000567247
-0.000872865 -0.000138771 1.24287e-05
-0.000138771 -0.000943484 -4.15787e-06
1.24287e-05 -4.15787e-06 -0.00115601
0.0082961 -0.000134467 5.53395e-05
-0.000134467 0.00250305 -2.9405e-06
5.53395e-05 -2.9405e-06 0.00157221
0.00427526 -0.000207167 2.23415e-05
-0.000207167 0.000901016 -1.53482e-05
2.23415e-05 -1.53482e-05 0.000331878
-0.000268345 -0.000132743 -1.81055e-05
-0.000132743 -0.000733428 5.15038e-06
-1.81055e-05 5.15038e-06 -0.000667737
0.00100915 -0.000209022 -1.31815e-06
-0.000209022 -0.000315577 -8.45422e-07
-1.31815e-06 -8.45422e-07 -0.000253486
0.00211482 -0.000283636 1.10318e-05
-0.000283636 9.17831e-05 -1.21685e-05
1.10318e-05 -1.21685e-05 0.000150037
0.00151918 -0.000279756 -9.88272e-06
-0.000279756 0.000133055 -1.93366e-06
-9.88272e-06 -1.93366e-06 -3.79968e-05
0.00163479 -0.000295235 -1.77667e-07
-0.000295235 2.40405e-06 9.43633e-07
-1.77667e-07 9.43633e-07 -0.000106102
0.00209051 -0.000274104 -2.40832e-06
-0.000274104 0.000156922 -6.53147e-07
-2.40832e-06 -6.53147e-07 8.78042e-05
0.00141958 -0.000261216 -1.57174e-06
-0.000261216 4.86022e-05 2.59131e-06
-1.57174e-06 2.59131e-06 -0.00012212
0.00171576 -0.000245657 -2.20925e-06
-0.000245657 6.82117e-05 -3.84202e-07
-2.20925e-06 -3.84202e-07 -5.70521e-05
0.00189047 -0.000204249 -4.58682e-07
-0.000204249 0.000102941 -1.86925e-06
-4.58682e-07 -1.86925e-06 1.14446e-05
0.00163025 -0.000236544 1.52515e-06
-0.000236544 9.44139e-05 2.97945e-06
1.52515e-06 2.97945e-06 -5.8178e-05
0.0016854 -0.000194887 -2.24309e-07
-0.000194887 8.89136e-05 -1.53152e-07
-2.24309e-07 -1.53152e-07 -2.87826e-05
0.00169483 -0.000162475 7.19988e-07
-0.000162475 7.76542e-05 -1.88807e-06
7.19988e-07 -1.88807e-06 -1.98865e-05
0.00174604 -0.0001519 2.5023e-07
-0.0001519 0.00015056 -7.64415e-07
2.5023e-07 -7.64415e-07 4.17234e-05
0.00163514 -0.000165956 -1.98289e-06
-0.000165956 9.50314e-05 1.41223e-06
-1.98289e-06 1.41223e-06 -2.55244e-05
0.00171628 -0.000172793 9.52413e-07
-0.000172793 0.000174415 -2.82736e-06
9.52413e-07 -2.82736e-06 4.27096e-05
0.00179789 -0.000204608 -1.88364e-06
-0.000204608 0.000301028 -1.16573e-06
-1.88364e-06 -1.16573e-06 0.000141431
0.00170591 -0.000204541 8.57109e-07
-0.000204541 0.000202132 6.30365e-07
8.57109e-07 6.30365e-07 4.71056e-05
0.001611 -0.000196644 -1.10679e-06
-0.000196644 0.000110498 2.79341e-06
-1.10679e-06 2.79341e-06 -2.93214e-05
0.000894768 -0.000159794 -3.98651e-06
-0.000159794 -4.68445e-05 3.22061e-06
-3.98651e-06 3.22061e-06 -0.000212423
0.00129082 -0.000191356 6.85495e-07
-0.000191356 0.000126317 -3.02041e-07
6.85495e-07 -3.02041e-07 -5.30979e-05
0.00151679 -0.000211681 2.98777e-06
-0.000211681 0.000194276 6.6081e-08
2.98777e-06 6.6081e-08 1.24155e-05
0.000970167 -0.000139347 -1.54045e-06
-0.000139347 9.52559e-05 1.00128e-06
-1.54045e-06 1.00128e-06 -3.85569e-05
0.00112684 -0.000164577 3.20539e-07
-0.000164577 0.000161921 -2.0792e-07
3.20539e-07 -2.0792e-07 5.86639e-06
0.000601112 -0.000140703 8.98876e-08
-0.000140703 -0.00014474 -4.79947e-06
8.98876e-08 -4.79947e-06 -0.000319779
0.00076249 -6.24685e-05 -3.05169e-06
-6.24685e-05 3.35659e-05 2.66224e-06
-3.05169e-06 2.66224e-06 -6.0911e-05
0.00102882 -0.00013438 1.33581e-07
-0.00013438 0.000159056 -1.39659e-07
1.33581e-07 -1.39659e-07 3.3874e-05
0.00113096 -0.000155455 2.23196e-07
-0.000155455 0.000211325 -1.06952e-06
2.23196e-07 -1.06952e-06 6.77665e-05
0.000520607 6.44243e-05 1.60563e-06
6.44243e-05 -6.69066e-05 6.17111e-06
1.60563e-06 6.17111e-06 -0.000104556
0.000753153 -2.00864e-05 2.39751e-07
-2.00864e-05 4.62575e-05 1.5587e-07
2.39751e-07 1.5587e-07 -4.04031e-05
0.00103654 -8.75697e-05 1.22658e-06
-8.75697e-05 0.000197174 -2.85107e-07
1.22658e-06 -2.85107e-07 7.86822e-05
0.00244225 9.41485e-05 -3.69226e-05
9.41485e-05 0.00100535 2.48093e-06
-3.69226e-05 2.48093e-06 0.00100923
0.000604847 6.8756e-05 -2.5514e-07
6.8756e-05 -2.22053e-05 -2.88484e-07
-2.5514e-07 -2.88484e-07 -5.18262e-05
0.000718405 -1.79976e-05 2.18783e-06
-1.79976e-05 2.54871e-05 -3.17891e-06
2.18783e-06 -3.17891e-06 -4.24663e-05
0.00158645 6.97555e-05 1.49526e-05
6.97555e-05 0.000520541 -4.74457e-07
1.49526e-05 -4.74457e-07 0.00052401
0.000675078 6.32333e-05 -4.07555e-07
6.32333e-05 7.05488e-06 -4.28731e-06
-4.07555e-07 -4.28731e-06 -1.5259e-05
0.00223633 7.51594e-05 3.09643e-05
7.51594e-05 0.000877203 -2.83182e-06
3.09643e-05 -2.83182e-06 0.000886712
0.000892544 6.32522e-05 6.70868e-07
6.32522e-05 0.000118381 3.73658e-07
6.70868e-07 3.73658e-07 2.20119e-05
0.000814747 7.9882e-06 -2.56036e-07
7.9882e-06 7.26909e-05 4.89637e-07
-2.56036e-07 4.89637e-07 -1.18626e-05
0.000777712 -2.55105e-05 2.58845e-07
-2.55105e-05 5.59066e-05 -1.6481e-06
2.58845e-07 -1.6481e-06 -2.69861e-05
0.000863427 2.02377e-05 2.15451e-07
2.02377e-05 9.83357e-05 5.93249e-07
2.15451e-07 5.93249e-07 1.44036e-05
0.000770041 -2.45697e-05 4.29059e-07
-2.45697e-05 4.4937e-05 -7.24908e-08
4.29059e-07 -7.24908e-08 -3.1223e-05
0.00069018 -3.7561e-05 -8.42203e-07
-3.7561e-05 -3.93687e-06 -2.65276e-06
-8.42203e-07 -2.65276e-06 -5.55294e-05
0.000656751 -4.94989e-05 -1.21378e-06
-4.94989e-05 -2.16445e-05 -4.2156e-06
-1.21378e-06 -4.2156e-06 -4.02999e-05
0.000712554 -3.37452e-05 1.06709e-07
-3.37452e-05 2.20565e-06 -3.64159e-08
1.06709e-07 -3.64159e-08 -4.56351e-05
0.000745686 -4.4363e-05 -2.2053e-07
-4.4363e-05 2.5209e-05 1.17716e-06
-2.2053e-07 1.17716e-06 -4.34746e-05
0.00235721 -6.70281e-05 -3.00399e-05
-6.70281e-05 0.000931042 -3.52096e-06
-3.00399e-05 -3.52096e-06 0.000942435
0.000644344 -4.22338e-05 -2.60236e-07
-4.22338e-05 -3.63581e-05 3.78078e-08
-2.60236e-07 3.78078e-08 -5.25832e-05
0.000721686 -1.77028e-05 1.62035e-06
-1.77028e-05 1.62683e-06 1.98817e-06
1.62035e-06 1.98817e-06 -4.36379e-05
0.00232826 -5.82437e-05 -2.38331e-06
-5.82437e-05 0.000907301 1.49114e-07
-2.38331e-06 1.49114e-07 0.00092062
0.000650741 -3.61501e-05 5.15349e-07
-3.61501e-05 -3.94791e-05 3.89418e-06
5.15349e-07 3.89418e-06 -5.33987e-05
0.0022515 -4.84021e-05 1.94402e-05
-4.84021e-05 0.000857427 4.09665e-06
1.94402e-05 4.09665e-06 0.000872987
0.000822118 0.000168182 3.62643e-05
0.000168182 0.00093871 3.73798e-05
3.62643e-05 3.73798e-05 0.00034973
-0.000651427 -0.000154725 9.71212e-07
-0.000154725 0.000517717 7.71073e-06
9.71212e-07 7.71073e-06 -0.000164118
0.00193665 -6.58394e-05 -5.11152e-05
-6.58394e-05 0.000472711 -1.27062e-05
-5.11152e-05 -1.27062e-05 7.10578e-05
0.000744135 -1.2326e-05 3.20427e-07
-1.2326e-05 4.13481e-05 5.01987e-07
3.20427e-07 5.01987e-07 -4.65117e-05
0.000809569 4.52011e-06 1.2287e-08
4.52011e-06 8.43319e-05 6.63717e-07
1.2287e-08 6.63717e-07 -1.29377e-05
0.00096259 0.000118621 -2.93945e-07
0.000118621 0.000181756 2.87908e-07
-2.93945e-07 2.87908e-07 7.18809e-05
0.00115749 0.00015635 1.21578e-06
0.00015635 0.000263957 3.21653e-08
1.21578e-06 3.21653e-08 0.000137669
0.000934465 9.24191e-05 -1.79615e-06
9.24191e-05 0.000175401 -7.77567e-07
-1.79615e-06 -7.77567e-07 5.92497e-05
0.000816221 4.56953e-05 7.25991e-07
4.56953e-05 8.20379e-05 1.06389e-06
7.25991e-07 1.06389e-06 -9.116e-06
0.000746784 1.9685e-05 4.87444e-07
1.9685e-05 4.2387e-05 1.09694e-06
4.87444e-07 1.09694e-06 -5.04272e-05
0.000709446 6.3238e-05 -1.24484e-06
6.3238e-05 4.37619e-05 -1.26374e-06
-1.24484e-06 -1.26374e-06 -6.23657e-05
1.02699e-05 7.60519e-05 -2.806e-07
7.60519e-05 -0.000337694 2.80455e-07
-2.806e-07 2.80455e-07 -0.000457534
0.00100115 0.000136491 6.22767e-07
0.000136491 0.000148002 -4.82645e-06
6.22767e-07 -4.82645e-06 4.03752e-05
0.00203166 0.000293287 5.43229e-06
0.000293287 0.000455005 -1.07472e-05
5.43229e-06 -1.07472e-05 0.000302573
0.000749801 8.27683e-05 -1.8284e-06
8.27683e-05 4.54192e-05 -4.43482e-07
-1.8284e-06 -4.43482e-07 -4.28417e-05
0.000713459 1.21807e-05 -4.98833e-07
1.21807e-05 3.80826e-05 -8.04743e-07
-4.98833e-07 -8.04743e-07 -4.02998e-05
0.0107913 5.33659e-05 -4.78943e-05
5.33659e-05 0.00358072 2.65708e-07
-4.78943e-05 2.65708e-07 0.00230873
-0.00201985 -0.000305765 -6.13295e-05
-0.000305765 -0.000377607 -1.189e-05
-6.13295e-05 -1.189e-05 -0.000856656
0.000655378 -0.000381923 -2.11297e-05
-0.000381923 0.000638319 -2.8995e-05
-2.11297e-05 -2.8995e-05 0.000360069
-0.00357757 -0.000374797 1.32707e-05
-0.000374797 -0.00177885 3.66396e-05
1.32707e-05 3.66396e-05 -0.00157105
0.00918828 -0.00024364 8.48633e-05
-0.00024364 0.00419562 -5.38765e-06
8.48633e-05 -5.38765e-06 0.00160554
0.00289328 0.00020776 -1.34518e-05
0.00020776 0.000467679 7.43426e-06
-1.34518e-05 7.43426e-06 0.000284038
0.00156378 0.000392825 -4.4855e-05
0.000392825 2.22186e-05 -1.8575e-05
-4.4855e-05 -1.8575e-05 -0.000586419
0.0078031 -0.00021322 5.81411e-05
-0.00021322 0.00280533 1.76386e-05
5.81411e-05 1.76386e-05 0.00125332
0.00393305 0.000528143 6.98202e-06
0.000528143 0.000569243 -2.7142e-05
6.98202e-06 -2.7142e-05 -3.57465e-05
0.00201497 0.000407743 3.47085e-06
0.000407743 0.000287962 1.36998e-05
3.47085e-06 1.36998e-05 0.000130215
0.000873142 0.000253573 3.04805e-06
0.000253573 -7.83661e-06 -4.52424e-06
3.04805e-06 -4.52424e-06 -0.000162041
0.0009826 0.000143471 -1.09271e-05
0.000143471 0.000179309 6.37836e-06
-1.09271e-05 6.37836e-06 0.000116607
0.00153047 0.000324537 -2.964e-05
0.000324537 0.000253872 -1.55033e-05
-2.964e-05 -1.55033e-05 0.000113038
0.00133502 0.000386248 -1.67078e-05
0.000386248 -0.000236741 1.4712e-05
-1.67078e-05 1.4712e-05 -0.000295612
0.000423714 -0.000147814 -1.57575e-05
-0.000147814 -0.00185033 -3.80682e-06
-1.57575e-05 -3.80682e-06 -0.00222981
0.00208147 -0.000103 -7.84264e-07
-0.000103 0.0012129 -5.35787e-06
-7.84264e-07 -5.35787e-06 0.00113689
-0.00188456 -2.25875e-05 1.81732e-05
-2.25875e-05 0.000342683 -2.38464e-07
1.81732e-05 -2.38464e-07 -0.000465352
0.00287719 -0.00044071 -5.44569e-05
-0.00044071 0.000693622 4.81595e-06
-5.44569e-05 4.81595e-06 0.00061717
0.00378367 -0.000568091 -1.06076e-05
-0.000568091 0.000782018 -1.39738e-05
-1.06076e-05 -1.39738e-05 -0.000386993
0.000662327 -0.000127776 1.99757e-05
-0.000127776 0.000673635 1.7099e-05
1.99757e-05 1.7099e-05 0.000341469
0.0099587 0.000230271 -4.98447e-05
0.000230271 0.00401169 3.00288e-05
-4.98447e-05 3.00288e-05 0.0023765
0.000656974 -0.000200945 -5.96812e-06
-0.000200945 -0.00024781 -8.74639e-07
-5.96812e-06 -8.74639e-07 -0.000383319
0.00637907 0.000100163 1.28366e-05
0.000100163 0.00150776 1.93416e-05
1.28366e-05 1.93416e-05 0.000679999
0.00362097 -0.000295582 4.40746e-05
-0.000295582 0.00028123 -1.4219e-06
4.40746e-05 -1.4219e-06 -0.000535464
0.00249695 -0.000236461 3.86338e-06
-0.000236461 0.00073624 1.81998e-06
3.86338e-06 1.81998e-06 0.000470024
0.00373284 -8.18902e-05 -8.39337e-05
-8.18902e-05 0.000862614 -1.00915e-05
-8.39337e-05 -1.00915e-05 0.000581289
0.000102948 -0.000175389 -1.42645e-05
-0.000175389 -0.000800913 4.8585e-06
-1.42645e-05 4.8585e-06 -0.000720241
0.00151931 -0.000268513 -1.11428e-07
-0.000268513 -0.000194292 4.63276e-07
-1.11428e-07 4.63276e-07 -0.00015829
0.00189372 -0.000191832 4.45259e-06
-0.000191832 -4.93672e-05 -1.26775e-06
4.45259e-06 -1.26775e-06 -3.24748e-05
0.00136798 -0.000280477 1.03087e-07
-0.000280477 -0.000135761 1.89562e-06
1.03087e-07 1.89562e-06 -0.000238546
0.0017783 -0.000249987 -7.79921e-07
-0.000249987 1.69196e-05 -2.64307e-07
-7.79921e-07 -2.64307e-07 -5.02651e-05
0.00181696 -0.000174427 -1.04355e-06
-0.000174427 -2.50786e-05 9.05443e-07
-1.04355e-06 9.05443e-07 -6.44148e-05
0.00160375 -0.000242919 -3.90945e-06
-0.000242919 2.04023e-06 2.84282e-06
-3.90945e-06 2.84282e-06 -0.000123277
0.00178927 -0.000200768 3.20258e-07
-0.000200768 4.67116e-05 1.15138e-06
3.20258e-07 1.15138e-06 -4.45098e-05
0.00184215 -0.000169443 2.18676e-06
-0.000169443 0.000102021 1.08051e-07
2.18676e-06 1.08051e-07 2.35262e-05
0.00158235 -0.000187425 8.46678e-07
-0.000187425 3.58931e-05 2.95839e-06
8.46678e-07 2.95839e-06 -8.03787e-05
0.00169782 -0.000164706 5.12396e-08
-0.000164706 7.98004e-05 1.03747e-06
5.12396e-08 1.03747e-06 -1.87174e-05
0.00187572 -0.00015241 1.99657e-06
-0.00015241 0.000194047 -4.22351e-07
1.99657e-06 -4.22351e-07 9.87796e-05
0.0016616 -0.000150104 -3.08162e-06
-0.000150104 0.000102374 2.10393e-06
-3.08162e-06 2.10393e-06 -4.93769e-06
0.0017172 -0.000150685 2.54465e-06
-0.000150685 0.000165196 -1.80182e-06
2.54465e-06 -1.80182e-06 4.72543e-05
0.00161121 -0.000162332 -7.69878e-07
-0.000162332 8.25877e-05 4.52418e-06
-7.69878e-07 4.52418e-06 -3.5767e-05
0.00169803 -0.00017144 8.22062e-07
-0.00017144 0.000164293 -4.96235e-07
8.22062e-07 -4.96235e-07 3.27124e-05
0.00168881 -0.00017164 -1.15654e-06
-0.00017164 0.000199009 -1.47483e-06
-1.15654e-06 -1.47483e-06 6.08469e-05
0.0012165 -0.000170254 -4.63015e-06
-0.000170254 3.65897e-05 7.19966e-07
-4.63015e-06 7.19966e-07 -0.000120472
0.0016434 -0.000196564 5.46563e-07
-0.000196564 0.000216648 -7.64359e-07
5.46563e-07 -7.64359e-07 5.75128e-05
0.00158458 -0.000198333 1.648e-06
-0.000198333 0.000135052 2.4682e-06
1.648e-06 2.4682e-06 -1.84337e-05
0.00110707 -0.000155814 -3.0895e-06
-0.000155814 0.000116158 2.57494e-06
-3.0895e-06 2.57494e-06 -2.78212e-05
0.0010023 -0.000164416 -1.19664e-06
-0.000164416 1.62245e-05 1.30562e-06
-1.19664e-06 1.30562e-06 -0.000148694
0.00158898 -0.000205838 3.15624e-06
-0.000205838 0.000292815 -1.47025e-06
3.15624e-06 -1.47025e-06 0.000113467
0.000732569 -8.19278e-05 -3.57508e-06
-8.19278e-05 -6.36594e-06 2.46935e-06
-3.57508e-06 2.46935e-06 -0.000107078
0.00106416 -0.000146254 1.75916e-07
-0.000146254 0.000144498 -3.88871e-07
1.75916e-07 -3.88871e-07 9.77972e-06
0.00118941 -0.000167604 1.29112e-06
-0.000167604 0.000192673 -2.54735e-06
1.29112e-06 -2.54735e-06 3.63709e-05
0.000525489 1.9167e-05 -3.35758e-06
1.9167e-05 -7.8876e-05 6.89311e-06
-3.35758e-06 6.89311e-06 -0.000120104
0.000814795 -6.74377e-05 2.25893e-07
-6.74377e-05 6.21025e-05 2.87547e-07
2.25893e-07 2.87547e-07 -3.34557e-05
0.00109886 -0.000133902 1.66662e-06
-0.000133902 0.000194969 -4.85844e-07
1.66662e-06 -4.85844e-07 7.02391e-05
0.00277689 0.000108366 -4.53278e-05
0.000108366 0.00119437 2.41083e-06
-4.53278e-05 2.41083e-06 0.00119428
0.000583624 4.44761e-05 6.13742e-07
4.44761e-05 -3.78364e-05 -2.80978e-07
6.13742e-07 -2.80978e-07 -7.28796e-05
0.000773436 -5.47115e-05 2.57261e-06
-5.47115e-05 5.41041e-05 -2.83003e-06
2.57261e-06 -2.83003e-06 -3.24816e-05
0.00253988 9.4811e-05 1.95784e-06
9.4811e-05 0.00105863 1.69262e-07
1.95784e-06 1.69262e-07 0.00106231
0.000653997 5.88548e-05 2.86174e-07
5.88548e-05 2.28441e-06 -5.18288e-06
2.86174e-07 -5.18288e-06 -2.60114e-05
0.00238718 8.44368e-05 3.77663e-05
8.44368e-05 0.00096824 -2.60814e-06
3.77663e-05 -2.60814e-06 0.000975014
0.000974089 0.000135273 7.86341e-07
0.000135273 0.000152579 -6.38895e-07
7.86341e-07 -6.38895e-07 3.37339e-05
0.000835813 9.34557e-05 4.55878e-07
9.34557e-05 9.21852e-05 3.42268e-08
4.55878e-07 3.42268e-08 -8.11085e-06
0.000711002 -1.51144e-05 -4.81323e-07
-1.51144e-05 1.98152e-05 -1.02204e-06
-4.81323e-07 -1.02204e-06 -7.23246e-05
0.000729376 -2.29382e-05 -2.44279e-07
-2.29382e-05 2.49301e-05 9.83106e-07
-2.44279e-07 9.83106e-07 -5.8057e-05
0.000734271 -4.10185e-05 2.24706e-07
-4.10185e-05 3.05363e-05 7.64952e-08
2.24706e-07 7.64952e-08 -5.18094e-05
0.000664884 -3.64534e-05 -8.60809e-07
-3.64534e-05 -1.2874e-05 -2.90081e-06
-8.60809e-07 -2.90081e-06 -7.14211e-05
0.000731225 -4.64988e-05 -3.44263e-07
-4.64988e-05 2.22601e-05 1.61654e-06
-3.44263e-07 1.61654e-06 -5.22793e-05
0.000691634 -4.20452e-05 3.27783e-07
-4.20452e-05 -2.39551e-06 -1.59288e-07
3.27783e-07 -1.59288e-07 -5.43116e-05
0.000652784 -5.89267e-05 -5.82724e-07
-5.89267e-05 -1.34953e-05 -4.56116e-06
-5.82724e-07 -4.56116e-06 -3.57157e-05
0.00237129 -7.5366e-05 -3.37468e-05
-7.5366e-05 0.0009465 -3.163e-06
-3.37468e-05 -3.163e-06 0.000955966
0.000641825 -4.78549e-05 -4.87767e-08
-4.78549e-05 -3.00757e-05 2.85848e-08
-4.87767e-08 2.85848e-08 -4.84953e-05
0.000703113 -3.09123e-05 1.78662e-06
-3.09123e-05 -2.96186e-06 2.17304e-06
1.78662e-06 2.17304e-06 -5.0587e-05
0.00235824 -6.67825e-05 -2.08207e-06
-6.67825e-05 0.000930904 1.59613e-07
-2.08207e-06 1.59613e-07 0.000942346
0.000638355 -4.10711e-05 8.3491e-07
-4.10711e-05 -3.97551e-05 4.05868e-06
8.3491e-07 4.05868e-06 -5.58552e-05
0.00231169 -5.77282e-05 2.3857e-05
-5.77282e-05 0.000897378 3.91374e-06
2.3857e-05 3.91374e-06 0.000910878
0.00907079 0.00020347 0.000106997
0.00020347 0.00274302 3.64448e-05
0.000106997 3.64448e-05 0.00181386
-0.00242346 -0.000228395 -3.31949e-05
-0.000228395 -0.00129766 -3.13729e-06
-3.31949e-05 -3.13729e-06 -0.00137105
-0.00206322 -6.07572e-05 -4.68065e-05
-6.07572e-05 -0.000157588 -9.52116e-06
-4.68065e-05 -9.52116e-06 -0.00102001
0.000758807 -3.16075e-05 8.19786e-07
-3.16075e-05 5.48312e-05 1.66849e-06
8.19786e-07 1.66849e-06 -4.19194e-05
0.000791956 0.000114224 -7.95578e-07
0.000114224 9.16529e-05 7.91209e-07
-7.95578e-07 7.91209e-07 -1.56937e-05
0.00104685 9.79423e-05 5.12498e-07
9.79423e-05 0.000236846 -3.84535e-08
5.12498e-07 -3.84535e-08 0.000120587
0.00102496 0.000146803 -1.34044e-06
0.000146803 0.000193662 7.93838e-08
-1.34044e-06 7.93838e-08 6.9137e-05
0.00110621 0.000159029 9.87206e-06
0.000159029 0.000207139 1.69652e-06
9.87206e-06 1.69652e-06 6.82304e-05
0.000503827 0.000110995 -1.11207e-06
0.000110995 -7.05607e-05 -2.25778e-07
-1.11207e-06 -2.25778e-07 -0.000192857
0.000476527 6.60931e-05 -1.04371e-06
6.60931e-05 -8.15263e-05 -3.99081e-07
-1.04371e-06 -3.99081e-07 -0.000186594
0.000490802 0.000111798 5.86957e-07
0.000111798 -8.50408e-05 6.08254e-07
5.86957e-07 6.08254e-07 -0.000213239
0.000913709 0.000119743 -1.64014e-06
0.000119743 0.000103131 -3.91624e-08
-1.64014e-06 -3.91624e-08 -8.03661e-06
0.00023693 0.000125288 5.852e-07
0.000125288 -0.000321039 -1.47515e-06
5.852e-07 -1.47515e-06 -0.000449177
0.00284464 0.000320015 -1.79944e-06
0.000320015 0.000892199 -3.65437e-06
-1.79944e-06 -3.65437e-06 0.000746792
0.0014249 0.000293673 1.76074e-06
0.000293673 -1.15445e-06 4.65471e-07
1.76074e-06 4.65471e-07 -0.00015328
0.0014311 0.000256686 3.53252e-06
0.000256686 0.000161339 -2.62679e-06
3.53252e-06 -2.62679e-06 1.6783e-05
0.000732091 8.90117e-05 -5.62536e-06
8.90117e-05 5.36048e-05 4.38961e-06
-5.62536e-06 4.38961e-06 -3.38118e-05
0.00335938 0.000170412 6.09016e-06
0.000170412 8.02469e-05 5.33202e-06
6.09016e-06 5.33202e-06 -0.000191096
0.00555809 3.91618e-05 1.80257e-05
3.91618e-05 0.00121321 1.11032e-05
1.80257e-05 1.11032e-05 -4.36809e-05
0.00553758 -0.000698548 -2.77874e-05
-0.000698548 0.00285472 -3.48993e-05
-2.77874e-05 -3.48993e-05 0.00277229
0.00640494 0.000139423 0.000274512
0.000139423 0.00221987 7.59485e-05
0.000274512 7.59485e-05 0.000142766
0.00128462 0.000355816 2.82282e-05
0.000355816 -0.000314564 3.05938e-05
2.82282e-05 3.05938e-05 -0.000512441
0.00246009 0.00039611 -7.28417e-05
0.00039611 4.02608e-05 -2.15475e-05
-7.28417e-05 -2.15475e-05 -0.000372427
0.00294996 0.000415904 4.95639e-05
0.000415904 0.000532651 2.15127e-05
4.95639e-05 2.15127e-05 0.000539968
0.00216688 0.000412001 4.33079e-07
0.000412001 0.000344848 4.9844e-06
4.33079e-07 4.9844e-06 0.000211346
0.000436171 0.000211246 -8.48339e-07
0.000211246 -0.000213957 6.42205e-06
-8.48339e-07 6.42205e-06 -0.000359758
0.00230898 0.000463755 -7.54109e-05
0.000463755 0.00024551 -4.64711e-05
-7.54109e-05 -4.64711e-05 0.000161577
0.00282037 -0.000140112 -0.000139862
-0.000140112 0.000369328 2.33142e-06
-0.000139862 2.33142e-06 -4.09278e-06
0.0086329 -0.00011329 1.15141e-05
-0.00011329 0.00268933 -1.43022e-06
1.15141e-05 -1.43022e-06 0.00209592
-0.00623336 -0.000172518 0.000132374
-0.000172518 -0.00330069 9.11823e-07
0.000132374 9.11823e-07 -0.0032032
0.00182307 -0.000251897 -1.03265e-05
-0.000251897 0.000300462 6.49239e-06
-1.03265e-05 6.49239e-06 0.000194796
0.00525503 -0.000345503 9.2676e-05
-0.000345503 0.00120289 5.58575e-06
9.2676e-05 5.58575e-06 0.00041516
0.000771434 -0.000328066 7.94872e-05
-0.000328066 -0.00130674 3.58269e-05
7.94872e-05 3.58269e-05 -0.002056
0.0013568 -0.000161388 6.51005e-06
-0.000161388 0.000140233 -9.56502e-07
6.51005e-06 -9.56502e-07 -4.40679e-05
0.00162017 -1.2103e-06 -7.11394e-06
-1.2103e-06 -0.000350498 3.48671e-06
-7.11394e-06 3.48671e-06 -0.00063255
0.00508584 -0.00017564 9.40698e-06
-0.00017564 0.00186971 -3.23996e-06
9.40698e-06 -3.23996e-06 0.00175859
0.00266649 2.89082e-07 4.84669e-05
2.89082e-07 0.000442459 -3.3723e-06
4.84669e-05 -3.3723e-06 0.000413423
0.000734107 -0.000249744 -7.79874e-06
-0.000249744 -0.000576423 4.44271e-06
-7.79874e-06 4.44271e-06 -0.000560589
0.00181287 -0.000198539 -3.06531e-07
-0.000198539 -7.86372e-05 1.21331e-06
-3.06531e-07 1.21331e-06 -7.50773e-05
0.00178595 -9.0056e-05 6.49801e-06
-9.0056e-05 -3.75867e-05 3.40703e-07
6.49801e-06 3.40703e-07 -5.76998e-05
0.00154035 -0.000231021 1.48241e-06
-0.000231021 -8.98076e-05 2.55647e-07
1.48241e-06 2.55647e-07 -0.000155054
0.00186577 -0.000176048 1.62802e-06
-0.000176048 1.50204e-05 7.35583e-07
1.62802e-06 7.35583e-07 -3.06639e-05
0.00171004 -0.000113129 2.37041e-06
-0.000113129 3.35815e-06 1.00582e-06
2.37041e-06 1.00582e-06 -4.91225e-05
0.00169596 -0.000197474 3.90764e-06
-0.000197474 -5.19485e-06 3.01294e-06
3.90764e-06 3.01294e-06 -9.61702e-05
0.00181255 -0.000165177 1.11579e-06
-0.000165177 9.51591e-05 4.43055e-07
1.11579e-06 4.43055e-07 1.64831e-05
0.00193032 -0.000134205 1.79749e-06
-0.000134205 0.000201976 4.07138e-07
1.79749e-06 4.07138e-07 0.000117646
0.0017041 -0.000166515 3.05268e-09
-0.000166515 8.41894e-05 3.15674e-06
3.05268e-09 3.15674e-06 -1.52483e-05
0.00174597 -0.000151362 -5.29501e-07
-0.000151362 0.000126958 4.00317e-07
-5.29501e-07 4.00317e-07 3.04151e-05
0.00161256 -0.000136824 3.46804e-06
-0.000136824 8.98832e-05 -5.97334e-07
3.46804e-06 -5.97334e-07 -2.06565e-05
0.00158524 -0.000148499 -3.28667e-06
-0.000148499 5.8937e-05 4.449e-06
-3.28667e-06 4.449e-06 -4.68544e-05
0.00169684 -0.000148801 -1.01194e-06
-0.000148801 0.00015258 -1.77273e-07
-1.01194e-06 -1.77273e-07 3.63587e-05
0.00167264 -0.000147198 4.7522e-07
-0.000147198 0.000178479 -6.49604e-07
4.7522e-07 -6.49604e-07 5.17942e-05
0.00170143 -0.000170947 5.96705e-07
-0.000170947 0.000166363 1.3992e-06
5.96705e-07 1.3992e-06 3.47574e-05
0.00164979 -0.000169311 6.80455e-07
-0.000169311 0.000177117 -2.13084e-07
6.80455e-07 -2.13084e-07 3.91582e-05
0.00162963 -0.000167699 -2.61988e-06
-0.000167699 0.000214476 -3.62056e-07
-2.61988e-06 -3.62056e-07 7.56318e-05
0.000888775 -0.00014274 -6.47942e-06
-0.00014274 -8.24619e-05 2.41305e-06
-6.47942e-06 2.41305e-06 -0.000225228
0.00126389 -0.000171471 -9.54687e-07
-0.000171471 6.8197e-05 2.26292e-07
-9.54687e-07 2.26292e-07 -8.84799e-05
0.00146971 -0.000187479 2.89015e-06
-0.000187479 0.00012166 3.92023e-07
2.89015e-06 3.92023e-07 -3.6891e-05
0.000855325 -0.000108463 -4.82186e-06
-0.000108463 2.54641e-05 3.68206e-06
-4.82186e-06 3.68206e-06 -8.46501e-05
0.00111708 -0.000155637 4.25313e-07
-0.000155637 0.000119761 3.16543e-07
4.25313e-07 3.16543e-07 -2.3814e-05
0.0011094 -0.000169038 1.17674e-06
-0.000169038 7.85824e-05 -5.95582e-07
1.17674e-06 -5.95582e-07 -8.56123e-05
0.000533976 -6.09737e-06 -6.41896e-06
-6.09737e-06 -8.13153e-05 7.48484e-06
-6.41896e-06 7.48484e-06 -0.000130396
0.000867171 -9.23675e-05 5.21787e-08
-9.23675e-05 6.76408e-05 -1.74172e-07
5.21787e-08 -1.74172e-07 -3.46562e-05
0.0011493 -0.000152483 2.44875e-06
-0.000152483 0.000188945 -1.99343e-06
2.44875e-06 -1.99343e-06 5.34014e-05
0.00321066 0.000122968 -5.94932e-05
0.000122968 0.00143623 2.43145e-06
-5.94932e-05 2.43145e-06 0.00143194
0.000608764 1.1865e-05 3.56168e-07
1.1865e-05 -3.46151e-05 -1.79771e-07
3.56168e-07 -1.79771e-07 -7.65554e-05
0.000879752 -7.4563e-05 4.0251e-06
-7.4563e-05 9.61771e-05 -2.36166e-06
4.0251e-06 -2.36166e-06 1.88935e-07
0.00290402 0.000106454 2.59865e-06
0.000106454 0.00126295 2.01697e-07
2.59865e-06 2.01697e-07 0.00126314
0.000651638 4.19407e-05 2.98835e-06
4.19407e-05 -3.17686e-07 -5.94392e-06
2.98835e-06 -5.94392e-06 -3.62756e-05
0.00265539 9.32704e-05 4.94458e-05
9.32704e-05 0.0011213 -2.58319e-06
4.94458e-05 -2.58319e-06 0.00112532
0.00108875 0.000151662 -2.1219e-07
0.000151662 0.000192005 -2.73168e-06
-2.1219e-07 -2.73168e-06 5.77483e-05
0.00108829 0.000143122 4.02824e-07
0.000143122 0.000215671 2.11354e-07
4.02824e-07 2.11354e-07 9.63846e-05
0.000883669 7.53681e-05 -1.32934e-06
7.53681e-05 0.000102339 -1.33955e-06
-1.32934e-06 -1.33955e-06 -3.00246e-06
0.000775652 0.000113213 -7.057e-08
0.000113213 6.45915e-05 3.93691e-07
-7.057e-08 3.93691e-07 -3.9362e-05
0.000702065 6.07811e-06 -5.48256e-07
6.07811e-06 1.49272e-05 -1.72515e-07
-5.48256e-07 -1.72515e-07 -7.91582e-05
0.000699733 1.51199e-05 -2.01744e-06
1.51199e-05 1.13962e-05 -2.60446e-06
-2.01744e-06 -2.60446e-06 -6.09764e-05
0.000699317 -5.86693e-05 -1.78856e-07
-5.86693e-05 1.24123e-05 1.51638e-06
-1.78856e-07 1.51638e-06 -7.11909e-05
0.000677022 -3.94176e-05 4.13202e-07
-3.94176e-05 -4.39794e-06 -3.68159e-07
4.13202e-07 -3.68159e-07 -6.38476e-05
0.000635301 -7.16819e-05 1.38789e-06
-7.16819e-05 -1.06281e-05 -5.3556e-06
1.38789e-06 -5.3556e-06 -3.89022e-05
0.000692092 -4.51287e-05 1.0597e-06
-4.51287e-05 -1.74053e-06 2.48456e-06
1.0597e-06 2.48456e-06 -5.37711e-05
0.000630696 -5.55721e-05 2.03716e-07
-5.55721e-05 -2.68218e-05 -1.87019e-08
2.03716e-07 -1.87019e-08 -4.83201e-05
0.00242381 -8.40563e-05 -3.80738e-05
-8.40563e-05 0.000983334 -2.74806e-06
-3.80738e-05 -2.74806e-06 0.00099062
0.00237096 -7.50801e-05 -1.33637e-06
-7.50801e-05 0.000945465 1.51302e-07
-1.33637e-06 1.51302e-07 0.000954998
0.000627752 -4.62999e-05 1.38088e-06
-4.62999e-05 -3.80789e-05 4.21323e-06
1.38088e-06 4.21323e-06 -5.62746e-05
0.00235204 -6.64629e-05 2.82144e-05
-6.64629e-05 0.000926794 3.674e-06
2.82144e-05 3.674e-06 0.000938303
0.00284907 -8.80519e-07 -4.9855e-05
-8.80519e-07 0.000231673 1.41342e-05
-4.9855e-05 1.41342e-05 3.90625e-05
0.00189861 -0.000220304 2.02029e-05
-0.000220304 -0.000819919 8.46194e-06
2.02029e-05 8.46194e-06 -0.00168822
0.00414069 -0.000390333 -4.53422e-05
-0.000390333 0.00175922 -2.53001e-05
-4.53422e-05 -2.53001e-05 0.00184028
0.001366 0.00018337 9.79623e-06
0.00018337 0.000267243 2.41186e-06
9.79623e-06 2.41186e-06 0.000118241
0.00118017 0.000109277 6.63449e-07
0.000109277 0.000309045 4.90112e-07
6.63449e-07 4.90112e-07 0.000192817
0.000897509 0.000137611 -1.25886e-06
0.000137611 0.000126463 1.12289e-06
-1.25886e-06 1.12289e-06 3.60704e-06
0.000790298 0.0001318 5.42513e-07
0.0001318 8.44858e-05 7.61339e-07
5.42513e-07 7.61339e-07 -4.16021e-05
0.00103377 0.000155428 -3.08951e-07
0.000155428 0.000171671 -1.49707e-06
-3.08951e-07 -1.49707e-06 3.14062e-05
0.00068516 0.000141662 -4.57013e-07
0.000141662 -5.82199e-05 3.34839e-07
-4.57013e-07 3.34839e-07 -0.000180317
0.000900976 0.000143463 -8.28849e-07
0.000143463 0.000129369 -3.70453e-07
-8.28849e-07 -3.70453e-07 -6.76493e-06
0.00096292 0.000112672 -2.64827e-06
0.000112672 0.000126317 5.2008e-06
-2.64827e-06 5.2008e-06 1.12723e-05
0.000965213 0.000171428 5.37581e-07
0.000171428 6.68381e-05 4.00706e-09
5.37581e-07 4.00706e-09 -6.28933e-05
0.0022709 0.000284426 9.75116e-07
0.000284426 0.000586604 5.01359e-06
9.75116e-07 5.01359e-06 0.000440278
0.00169199 0.000280482 -2.21247e-06
0.000280482 0.000151815 -1.10577e-06
-2.21247e-06 -1.10577e-06 -2.48444e-06
0.00149605 0.000245717 1.3234e-05
0.000245717 -2.1014e-05 1.04849e-05
1.3234e-05 1.04849e-05 -0.00013748
0.00133579 0.000290739 -1.95598e-06
0.000290739 -5.63092e-05 -2.44563e-06
-1.95598e-06 -2.44563e-06 -0.000213638
0.000962472 0.000223613 8.47089e-07
0.000223613 -7.23196e-05 6.10789e-06
8.47089e-07 6.10789e-06 -0.000208248
0.000197395 0.000158723 1.04744e-05
0.000158723 -0.000489304 3.86071e-06
1.04744e-05 3.86071e-06 -0.000490013
0.00476639 0.000265581 -2.30049e-05
0.000265581 0.000602514 2.55961e-07
-2.30049e-05 2.55961e-07 0.000215934
0.000972386 -6.78759e-05 5.40803e-05
-6.78759e-05 -0.00103192 1.4556e-05
5.40803e-05 1.4556e-05 -0.00222955
0.00217372 0.000427845 5.99182e-05
0.000427845 -0.000157628 8.66138e-06
5.99182e-05 8.66138e-06 -0.000724997
0.00170294 0.000317361 -1.90821e-05
0.000317361 0.000107286 -3.04919e-06
-1.90821e-05 -3.04919e-06 8.92899e-05
0.000993027 0.000318126 -2.88516e-05
0.000318126 -0.000175566 -2.1676e-05
-2.88516e-05 -2.1676e-05 -0.000313251
0.00194305 -9.49097e-05 1.58374e-05
-9.49097e-05 5.66453e-05 7.42791e-07
1.58374e-05 7.42791e-07 -4.37973e-05
0.0011143 2.63846e-06 -1.66968e-05
2.63846e-06 -0.000404872 1.41063e-06
-1.66968e-05 1.41063e-06 -0.000631614
0.000302732 0.000287099 6.04028e-05
0.000287099 -0.00183115 -1.91989e-05
6.04028e-05 -1.91989e-05 -0.00245598
0.000132551 -8.03708e-05 1.61412e-06
-8.03708e-05 -0.000523233 1.30401e-05
1.61412e-06 1.30401e-05 -0.000602017
0.0024154 -2.02734e-05 1.04539e-05
-2.02734e-05 -9.48461e-05 1.39133e-05
1.04539e-05 1.39133e-05 -0.000448691
0.00161261 -9.96046e-05 -3.0831e-06
-9.96046e-05 -5.89789e-06 -8.56511e-07
-3.0831e-06 -8.56511e-07 -6.82785e-05
0.00216595 -2.41412e-05 -3.40854e-06
-2.41412e-05 0.000179451 -7.10845e-07
-3.40854e-06 -7.10845e-07 0.000130188
0.00213243 -3.61323e-05 1.61245e-05
-3.61323e-05 0.000191022 -1.99126e-06
1.61245e-05 -1.99126e-06 0.000148398
0.00265612 -2.71906e-05 1.22337e-05
-2.71906e-05 0.00056263 4.10814e-07
1.22337e-05 4.10814e-07 0.000513839
0.00190403 -0.000209338 -5.28221e-06
-0.000209338 -1.41705e-05 5.22653e-07
-5.28221e-06 5.22653e-07 -2.72294e-05
0.0019403 -9.97484e-05 2.86389e-06
-9.97484e-05 3.12949e-05 -6.00364e-07
2.86389e-06 -6.00364e-07 9.23672e-06
0.00189119 -0.000105361 1.64735e-06
-0.000105361 9.78222e-05 2.05551e-07
1.64735e-06 2.05551e-07 5.14997e-05
0.00188171 -0.000176664 2.37632e-06
-0.000176664 3.77288e-05 1.02222e-06
2.37632e-06 1.02222e-06 -1.40425e-05
0.00181749 -0.000127016 7.47305e-07
-0.000127016 5.62368e-05 -6.76454e-08
7.47305e-07 -6.76454e-08 -3.28552e-07
0.0017957 -0.000115649 3.08735e-06
-0.000115649 0.000112961 3.20961e-07
3.08735e-06 3.20961e-07 3.74636e-05
0.00178775 -0.000161601 -1.81645e-06
-0.000161601 9.06683e-05 1.67408e-06
-1.81645e-06 1.67408e-06 1.16933e-05
0.00181713 -0.000137069 -1.28771e-06
-0.000137069 0.000142246 5.86028e-08
-1.28771e-06 5.86028e-08 5.66914e-05
0.00163238 -0.00011938 2.32932e-06
-0.00011938 7.87113e-05 2.64749e-07
2.32932e-06 2.64749e-07 -2.66195e-05
0.00161505 -0.000150402 -3.28416e-06
-0.000150402 5.91176e-05 1.33367e-06
-3.28416e-06 1.33367e-06 -3.87378e-05
0.00162059 -0.000136937 3.59866e-07
-0.000136937 9.60575e-05 -3.25991e-07
3.59866e-07 -3.25991e-07 -1.43948e-05
0.00155533 -0.000128352 9.25574e-07
-0.000128352 9.77356e-05 1.01595e-07
9.25574e-07 1.01595e-07 -2.48642e-05
0.00166916 -0.000146687 -3.75241e-06
-0.000146687 0.000135732 2.09096e-06
-3.75241e-06 2.09096e-06 2.12596e-05
0.00161645 -0.000143834 -1.37792e-07
-0.000143834 0.000144742 -3.21778e-07
-1.37792e-07 -3.21778e-07 1.91614e-05
0.00145066 -0.000138084 -2.25278e-06
-0.000138084 9.26623e-05 1.67516e-07
-2.25278e-06 1.67516e-07 -3.73394e-05
0.00161249 -0.000167153 2.14443e-06
-0.000167153 0.000155861 5.76091e-07
2.14443e-06 5.76091e-07 1.81434e-05
0.00146525 -0.000160345 6.55703e-07
-0.000160345 0.000122377 -4.47544e-07
6.55703e-07 -4.47544e-07 -1.67778e-05
0.00134099 -0.000148306 -5.75672e-06
-0.000148306 0.000111989 1.59029e-06
-5.75672e-06 1.59029e-06 -2.09908e-05
0.000979578 -0.000121562 -6.9949e-06
-0.000121562 4.01933e-05 4.25329e-06
-6.9949e-06 4.25329e-06 -7.35273e-05
0.00100414 -0.000147668 -1.52197e-06
-0.000147668 -1.50681e-05 7.97812e-07
-1.52197e-06 7.97812e-07 -0.000157439
0.00131812 -0.000172696 2.67934e-06
-0.000172696 0.000103773 -7.99659e-08
2.67934e-06 -7.99659e-08 -5.25281e-05
0.000557565 -7.36136e-05 -1.0115e-05
-7.36136e-05 -7.59019e-05 8.85711e-06
-1.0115e-05 8.85711e-06 -0.00013554
0.000908364 -0.000113738 3.64181e-07
-0.000113738 5.45676e-05 4.53338e-08
3.64181e-07 4.53338e-08 -5.6431e-05
0.00113233 -0.000156009 3.70477e-06
-0.000156009 0.000126229 -1.81843e-06
3.70477e-06 -1.81843e-06 -1.70255e-05
0.00356211 0.000134722 -7.41683e-05
0.000134722 0.00163698 2.74742e-06
-7.41683e-05 2.74742e-06 0.00162823
0.000639353 -3.87057e-05 -3.34382e-08
-3.87057e-05 -2.69369e-05 -1.61652e-07
-3.34382e-08 -1.61652e-07 -7.77872e-05
0.000962651 -0.00010175 4.79808e-06
-0.00010175 0.000120111 -3.1451e-06
4.79808e-06 -3.1451e-06 1.6407e-05
0.00329585 0.000114755 2.56151e-06
0.000114755 0.00148194 2.89091e-07
2.56151e-06 2.89091e-07 0.00147886
0.000682885 -4.92107e-06 7.06472e-06
-4.92107e-06 4.17399e-06 -6.56769e-06
7.06472e-06 -6.56769e-06 -3.82167e-05
0.00301437 9.8045e-05 6.68263e-05
9.8045e-05 0.00132141 -2.97834e-06
6.68263e-05 -2.97834e-06 0.00132303
0.000945351 0.000151914 -6.77047e-07
0.000151914 5.78634e-05 -1.92574e-06
-6.77047e-07 -1.92574e-06 -8.97322e-05
0.00101219 0.000146151 -1.20688e-07
0.000146151 0.000151092 -1.18823e-06
-1.20688e-07 -1.18823e-06 1.76216e-05
0.00110946 0.00013725 -1.07019e-06
0.00013725 0.000205196 -1.4067e-06
-1.07019e-06 -1.4067e-06 8.59217e-05
0.00120256 0.000151039 -5.42596e-07
0.000151039 0.00027858 2.09631e-07
-5.42596e-07 2.09631e-07 0.000158866
0.000887729 8.05944e-05 -1.06235e-06
8.05944e-05 0.000103374 -6.7706e-07
-1.06235e-06 -6.7706e-07 -1.06169e-06
0.000778608 3.72017e-05 -2.23177e-06
3.72017e-05 5.43983e-05 -2.15225e-06
-2.23177e-06 -2.15225e-06 -3.05185e-05
0.000698994 2.68667e-05 -2.39907e-07
2.68667e-05 1.24297e-05 3.99876e-07
-2.39907e-07 3.99876e-07 -8.30911e-05
0.000692319 -2.33685e-05 -3.85066e-07
-2.33685e-05 7.12917e-06 -6.72185e-08
-3.85066e-07 -6.72185e-08 -6.33797e-05
0.000604764 -6.88436e-05 -6.22849e-08
-6.88436e-05 -2.15147e-05 -5.58983e-06
-6.22849e-08 -5.58983e-06 -5.50992e-05
0.000676513 -5.52398e-05 5.39371e-07
-5.52398e-05 -2.02773e-06 2.85463e-06
5.39371e-07 2.85463e-06 -6.25327e-05
0.000605775 -6.79924e-05 2.27335e-07
-6.79924e-05 -2.87239e-05 -1.12534e-07
2.27335e-07 -1.12534e-07 -5.58482e-05
0.00252886 -9.2684e-05 -4.41239e-05
-9.2684e-05 0.00104788 -2.3895e-06
-4.41239e-05 -2.3895e-06 0.00105288
0.00061636 -5.29365e-05 1.64512e-06
-5.29365e-05 -3.56517e-05 4.35828e-06
1.64512e-06 4.35828e-06 -5.65883e-05
0.00240366 -8.37916e-05 -8.68806e-07
-8.37916e-05 0.000971414 1.37103e-07
-8.68806e-07 1.37103e-07 0.000978774
0.0023695 -7.46042e-05 3.24942e-05
-7.46042e-05 0.000943937 3.35216e-06
3.24942e-05 3.35216e-06 0.00095356
0.000298046 2.32244e-05 9.1398e-06
2.32244e-05 -0.000572572 3.37488e-06
9.1398e-06 3.37488e-06 -0.000597699
0.00385655 3.5146e-05 8.67267e-06
3.5146e-05 0.000499226 1.07349e-05
8.67267e-06 1.07349e-05 0.000156034
0.00679957 0.000273314 -9.91541e-05
0.000273314 0.00194916 -2.56044e-05
-9.91541e-05 -2.56044e-05 0.000974389
0.000799597 0.000147515 2.67961e-06
0.000147515 -8.69938e-05 5.41414e-07
2.67961e-06 5.41414e-07 -0.000219426
0.00136248 0.00018892 3.61013e-06
0.00018892 9.28503e-05 -3.46678e-06
3.61013e-06 -3.46678e-06 -5.77643e-05
0.00092081 0.000158315 2.17808e-08
0.000158315 3.39681e-05 -1.83359e-06
2.17808e-08 -1.83359e-06 -0.000110949
0.00107093 0.000152018 -1.42996e-06
0.000152018 0.000236603 -4.63084e-07
-1.42996e-06 -4.63084e-07 0.000106796
0.000971039 0.000152187 -1.28135e-06
0.000152187 0.000140888 -8.65984e-07
-1.28135e-06 -8.65984e-07 -7.17305e-07
0.0011435 0.000174419 4.60621e-06
0.000174419 0.000172334 2.28434e-06
4.60621e-06 2.28434e-06 4.48605e-05
0.00209548 0.000274974 -6.62675e-06
0.000274974 0.000410923 -5.4286e-06
-6.62675e-06 -5.4286e-06 0.00026407
0.00159093 0.0002116 6.1106e-08
0.0002116 0.000403403 2.08941e-06
6.1106e-08 2.08941e-06 0.000272318
0.00129488 0.000226 4.37809e-06
0.000226 7.37966e-05 1.21163e-05
4.37809e-06 1.21163e-05 -7.19748e-05
0.00178163 0.000281782 -9.13602e-07
0.000281782 0.000207576 1.22905e-06
-9.13602e-07 1.22905e-06 5.51323e-05
0.0022161 0.000281185 -6.58291e-06
0.000281185 0.000326472 2.69518e-06
-6.58291e-06 2.69518e-06 0.000186698
0.00120956 0.00011428 1.3884e-05
0.00011428 -0.000234512 4.51958e-06
1.3884e-05 4.51958e-06 -0.000306264
0.00161117 0.000245749 8.27304e-06
0.000245749 4.50858e-05 2.26709e-06
8.27304e-06 2.26709e-06 -7.39321e-05
0.00118246 0.000278938 -5.91585e-06
0.000278938 -0.00014322 -4.22645e-06
-5.91585e-06 -4.22645e-06 -0.000303705
0.000974283 0.000150384 -4.47502e-06
0.000150384 -0.000102798 1.5532e-06
-4.47502e-06 1.5532e-06 -0.000112047
0.00478123 0.000118391 4.2765e-05
0.000118391 0.000520127 3.20389e-06
4.2765e-05 3.20389e-06 0.000103975
0.00109229 0.000253795 2.51057e-06
0.000253795 -3.62853e-05 -9.70545e-06
2.51057e-06 -9.70545e-06 -6.09754e-05
0.00148221 -2.7206e-05 1.20082e-05
-2.7206e-05 -1.93011e-05 1.4273e-06
1.20082e-05 1.4273e-06 -6.86086e-05
0.00204659 -4.92335e-05 -5.52138e-06
-4.92335e-05 0.000146885 -2.22543e-07
-5.52138e-06 -2.22543e-07 6.3167e-05
0.00227507 0.000128884 5.73055e-05
0.000128884 -4.22424e-05 -4.89586e-06
5.73055e-05 -4.89586e-06 -0.000318714
-0.00112753 -5.7089e-05 -1.41629e-05
-5.7089e-05 -0.00148558 8.64951e-06
-1.41629e-05 8.64951e-06 -0.00150734
0.00212953 -5.48645e-05 -5.329e-05
-5.48645e-05 0.000159286 6.73718e-06
-5.329e-05 6.73718e-06 0.00010335
0.001542 -6.97526e-05 4.46369e-07
-6.97526e-05 -0.000164555 1.86222e-06
4.46369e-07 1.86222e-06 -0.000194937
0.00223569 -4.14485e-05 -1.37936e-06
-4.14485e-05 0.000289172 2.40051e-07
-1.37936e-06 2.40051e-07 0.000238458
0.00190182 -0.000112649 5.61633e-06
-0.000112649 4.98189e-05 1.16002e-06
5.61633e-06 1.16002e-06 9.74229e-06
0.00179399 -3.34895e-05 2.45906e-06
-3.34895e-05 6.64419e-06 1.75583e-07
2.45906e-06 1.75583e-07 -5.56836e-05
0.0020841 -0.000109845 -1.14641e-06
-0.000109845 9.12717e-05 1.54915e-07
-1.14641e-06 1.54915e-07 6.8821e-05
0.00179811 -0.000103988 -1.64296e-06
-0.000103988 4.11131e-05 1.35262e-07
-1.64296e-06 1.35262e-07 -3.01547e-06
0.00190414 -0.000106094 3.20869e-06
-0.000106094 0.000127142 2.88589e-07
3.20869e-06 2.88589e-07 6.0065e-05
0.00192752 -0.000139503 -2.54412e-06
-0.000139503 0.00011191 -2.44519e-07
-2.54412e-06 -2.44519e-07 5.14037e-05
0.00176029 -0.000115428 -1.18023e-07
-0.000115428 9.55369e-05 -2.28469e-07
-1.18023e-07 -2.28469e-07 1.79017e-05
0.00170816 -0.00010083 2.27653e-06
-0.00010083 8.7864e-05 1.24441e-07
2.27653e-06 1.24441e-07 -8.53133e-06
0.00169788 -0.000139382 -5.95454e-06
-0.000139382 7.9246e-05 6.38909e-08
-5.95454e-06 6.38909e-08 -7.45501e-06
0.00165917 -0.000119147 1.13698e-07
-0.000119147 9.47236e-05 -1.32289e-08
1.13698e-07 -1.32289e-08 -1.04327e-05
0.00160521 -0.00010878 7.32214e-07
-0.00010878 0.000103614 3.20949e-07
7.32214e-07 3.20949e-07 -1.61632e-05
0.00163333 -0.000137157 -2.56442e-06
-0.000137157 0.000104878 -9.98261e-08
-2.56442e-06 -9.98261e-08 -5.47451e-06
0.00158043 -0.00012868 1.06097e-07
-0.00012868 0.000109439 -1.17838e-07
1.06097e-07 -1.17838e-07 -1.29837e-05
0.00150744 -0.00012554 -1.74255e-06
-0.00012554 0.000109633 7.65319e-07
-1.74255e-06 7.65319e-07 -1.83301e-05
0.0015625 -0.000140605 -4.41201e-07
-0.000140605 0.00011232 4.82583e-07
-4.41201e-07 4.82583e-07 -1.21908e-05
0.00139546 -0.000136214 -2.73267e-07
-0.000136214 6.18874e-05 -2.6913e-07
-2.73267e-07 -2.6913e-07 -6.81369e-05
0.00135119 -0.000132054 -5.59408e-06
-0.000132054 9.12984e-05 1.50313e-06
-5.59408e-06 1.50313e-06 -3.53563e-05
0.0012943 -0.000152807 3.78682e-06
-0.000152807 2.67118e-05 -2.74378e-07
3.78682e-06 -2.74378e-07 -0.00011274
0.0011335 -0.000138106 1.66397e-07
-0.000138106 -1.0274e-06 -3.21708e-08
1.66397e-07 -3.21708e-08 -0.000133893
0.00104903 -0.000118043 -8.94798e-06
-0.000118043 3.13742e-05 4.15162e-06
-8.94798e-06 4.15162e-06 -7.85944e-05
0.000482442 -0.000105682 -1.39639e-05
-0.000105682 -0.00013589 9.54178e-06
-1.39639e-05 9.54178e-06 -0.000199811
0.000976601 -0.000122429 4.1656e-07
-0.000122429 3.89807e-05 2.49872e-07
4.1656e-07 2.49872e-07 -7.49462e-05
0.00113364 -0.000153529 3.09914e-06
-0.000153529 5.99524e-05 -6.69692e-07
3.09914e-06 -6.69692e-07 -8.21183e-05
0.00390448 0.000151914 -8.11737e-05
0.000151914 0.00183914 3.55202e-06
-8.11737e-05 3.55202e-06 0.0018239
0.000651824 -6.93344e-05 -1.34461e-08
-6.93344e-05 -2.84331e-05 1.16208e-07
-1.34461e-08 1.16208e-07 -8.86024e-05
0.000984836 -0.000119559 5.71829e-06
-0.000119559 9.71707e-05 -3.52225e-06
5.71829e-06 -3.52225e-06 -1.49058e-05
0.00367278 0.00012731 4.15755e-06
0.00012731 0.00169796 4.29798e-07
4.15755e-06 4.29798e-07 0.00168992
0.000752886 -4.10871e-05 9.3565e-06
-4.10871e-05 3.11575e-05 -7.72791e-06
9.3565e-06 -7.72791e-06 -2.02012e-05
0.00339676 0.000105868 8.07715e-05
0.000105868 0.00153589 -3.30544e-06
8.07715e-05 -3.30544e-06 0.00153394
0.000665831 0.000143683 -1.54108e-06
0.000143683 -0.00019875 -1.07523e-06
-1.54108e-06 -1.07523e-06 -0.000353334
0.000707897 0.000137918 -2.18914e-07
0.000137918 -7.41761e-05 8.52211e-08
-2.18914e-07 8.52211e-08 -0.000221746
0.00112843 0.000148268 -2.62013e-06
0.000148268 0.000170302 -1.84536e-06
-2.62013e-06 -1.84536e-06 3.72032e-05
0.000931925 0.000140441 -4.96787e-07
0.000140441 0.000108128 2.6055e-07
-4.96787e-07 2.6055e-07 -2.45177e-05
0.000985223 0.000128068 -3.32512e-07
0.000128068 0.000138921 -4.40054e-07
-3.32512e-07 -4.40054e-07 2.09793e-05
0.000918849 7.33971e-05 -3.6309e-06
7.33971e-05 0.000121442 -2.20124e-06
-3.6309e-06 -2.20124e-06 2.63167e-05
0.00088173 8.48851e-05 -4.75178e-08
8.48851e-05 9.90675e-05 -4.15874e-07
-4.75178e-08 -4.15874e-07 -4.43794e-06
0.000747269 2.27247e-05 -1.72513e-07
2.27247e-05 3.91543e-05 1.24576e-07
-1.72513e-07 1.24576e-07 -4.53401e-05
0.000627062 -3.9377e-05 -3.92728e-06
-3.9377e-05 -1.40127e-05 -5.73107e-06
-3.92728e-06 -5.73107e-06 -5.29579e-05
0.00069392 -5.02482e-05 2.96128e-07
-5.02482e-05 1.02583e-05 3.05274e-06
2.96128e-07 3.05274e-06 -6.04317e-05
0.000571611 -7.62111e-05 -1.82978e-07
-7.62111e-05 -3.81421e-05 -1.84494e-07
-1.82978e-07 -1.84494e-07 -7.27929e-05
0.00272878 -0.000101811 -5.32733e-05
-0.000101811 0.00116309 -2.24425e-06
-5.32733e-05 -2.24425e-06 0.00116535
0.000580342 -6.30862e-05 1.16037e-06
-6.30862e-05 -4.49866e-05 4.65931e-06
1.16037e-06 4.65931e-06 -7.07252e-05
0.00249197 -9.31211e-05 -8.92534e-07
-9.31211e-05 0.00102736 1.33953e-07
-8.92534e-07 1.33953e-07 0.00103226
0.00239094 -8.31566e-05 3.57941e-05
-8.31566e-05 0.00096365 2.97642e-06
3.57941e-05 2.97642e-06 0.000971159
0.0013862 4.17187e-05 8.59923e-06
4.17187e-05 -0.00014087 1.87482e-06
8.59923e-06 1.87482e-06 -0.000194566
0.00144226 -8.46928e-06 -2.89362e-06
-8.46928e-06 -7.69668e-05 3.36599e-06
-2.89362e-06 3.36599e-06 -0.000131227
0.00274103 -6.57303e-06 6.2842e-05
-6.57303e-06 -8.8553e-05 5.82905e-07
6.2842e-05 5.82905e-07 -0.000326435
0.00170188 0.0002135 -6.83604e-07
0.0002135 0.000206338 -5.26477e-06
-6.83604e-07 -5.26477e-06 6.39364e-05
0.000775446 0.0001505 -1.21714e-06
0.0001505 -7.89998e-05 1.27268e-06
-1.21714e-06 1.27268e-06 -0.000200364
0.00153437 0.000184455 -1.81546e-06
0.000184455 7.63902e-05 1.3365e-06
-1.81546e-06 1.3365e-06 -6.19668e-05
0.00165329 0.000205681 9.04337e-07
0.000205681 0.000248872 3.28781e-07
9.04337e-07 3.28781e-07 9.60371e-05
0.000465273 0.00013272 -4.36913e-06
0.00013272 -0.000204976 1.60283e-06
-4.36913e-06 1.60283e-06 -0.00034571
0.00177928 0.000224535 -4.16767e-06
0.000224535 0.000105445 1.64633e-06
-4.16767e-06 1.64633e-06 -3.15354e-05
0.00154614 0.000203864 -4.54911e-07
0.000203864 0.000373446 1.0426e-06
-4.54911e-07 1.0426e-06 0.000241032
0.00197243 0.000267437 -3.60588e-08
0.000267437 0.000335584 -2.65882e-06
-3.60588e-08 -2.65882e-06 0.000185315
0.0018043 0.000153134 -4.43087e-06
0.000153134 7.22656e-05 1.77266e-06
-4.43087e-06 1.77266e-06 -3.14834e-05
0.00202801 0.000293413 3.69523e-06
0.000293413 0.000343911 3.83259e-06
3.69523e-06 3.83259e-06 0.000192454
0.00205077 0.000274183 -1.25381e-06
0.000274183 0.000235732 5.86246e-08
-1.25381e-06 5.86246e-08 9.68139e-05
0.00127929 0.000125152 -6.27433e-07
0.000125152 -0.000175081 -3.57758e-09
-6.27433e-07 -3.57758e-09 -0.000247542
0.001194 0.000221721 -3.72818e-06
0.000221721 -0.000154482 -3.89409e-06
-3.72818e-06 -3.89409e-06 -0.000275674
0.00127147 0.000137415 -1.92785e-05
0.000137415 4.60193e-05 -2.64526e-06
-1.92785e-05 -2.64526e-06 2.9774e-05
0.00168505 7.58262e-06 -1.02061e-06
7.58262e-06 -4.44952e-05 5.3858e-07
-1.02061e-06 5.3858e-07 -0.000112098
0.00194856 -7.61545e-06 -1.78579e-06
-7.61545e-06 0.000242294 -3.06416e-07
-1.78579e-06 -3.06416e-07 0.00019247
0.00168136 1.4471e-06 -3.76411e-05
1.4471e-06 -1.23794e-05 -8.64866e-07
-3.76411e-05 -8.64866e-07 -9.73314e-05
0.000867746 -9.96892e-05 -9.43948e-06
-9.96892e-05 -0.000577858 1.20466e-06
-9.43948e-06 1.20466e-06 -0.000596575
0.00165168 -5.55438e-05 -7.09589e-06
-5.55438e-05 -7.26395e-05 -1.0517e-06
-7.09589e-06 -1.0517e-06 -0.000125256
0.00197912 -0.000107296 -9.47225e-07
-0.000107296 9.58876e-05 2.54058e-07
-9.47225e-07 2.54058e-07 5.5731e-05
0.00184438 -3.4389e-05 1.19175e-06
-3.4389e-05 3.25877e-05 -1.4522e-07
1.19175e-06 -1.4522e-07 -2.91852e-05
0.00180152 -5.50227e-05 9.9066e-07
-5.50227e-05 3.88723e-05 -7.18845e-08
9.9066e-07 -7.18845e-08 -3.17352e-05
0.00167947 -0.000102434 -3.18324e-06
-0.000102434 -2.90284e-05 -8.02562e-07
-3.18324e-06 -8.02562e-07 -7.13224e-05
0.00184346 -0.000102482 5.18849e-07
-0.000102482 9.96954e-05 -6.4791e-10
5.18849e-07 -6.4791e-10 3.07173e-05
0.00183801 -8.43243e-05 1.35364e-06
-8.43243e-05 0.000117972 -3.89272e-07
1.35364e-06 -3.89272e-07 2.86265e-05
0.00174037 -0.000116206 -4.3709e-06
-0.000116206 8.61269e-05 -2.68146e-07
-4.3709e-06 -2.68146e-07 6.37713e-06
0.00169054 -0.000100905 -7.23071e-08
-0.000100905 8.20629e-05 9.98293e-08
-7.23071e-08 9.98293e-08 -1.61512e-05
0.00167463 -8.39508e-05 7.89939e-07
-8.39508e-05 0.000112255 8.28688e-08
7.89939e-07 8.28688e-08 -4.32212e-06
0.0016871 -0.000118863 -2.23084e-06
-0.000118863 0.000111237 -2.63488e-07
-2.23084e-06 -2.63488e-07 6.2634e-06
0.00161288 -0.000108065 -3.81292e-10
-0.000108065 0.000106174 6.43786e-08
-3.81292e-10 6.43786e-08 -1.34577e-05
0.00153959 -0.000104001 -1.6636e-06
-0.000104001 0.000112371 7.03146e-07
-1.6636e-06 7.03146e-07 -1.40687e-05
0.00160486 -0.000129046 -6.34106e-07
-0.000129046 0.00012072 -3.27436e-07
-6.34106e-07 -3.27436e-07 -1.53283e-06
0.00150601 -0.000124925 2.15777e-08
-0.000124925 0.000108678 -1.96594e-08
2.15777e-08 -1.96594e-08 -1.91501e-05
0.00137118 -0.000116769 -4.99403e-06
-0.000116769 8.56377e-05 1.65358e-06
-4.99403e-06 1.65358e-06 -3.84938e-05
0.00133615 -0.000134108 1.99898e-06
-0.000134108 2.88343e-05 -6.03001e-07
1.99898e-06 -6.03001e-07 -0.000101185
0.00132671 -0.000130139 -1.16625e-07
-0.000130139 7.86462e-05 -6.22172e-08
-1.16625e-07 -6.22172e-08 -4.77884e-05
0.00108378 -0.000106535 -9.96987e-06
-0.000106535 2.47846e-05 3.99843e-06
-9.96987e-06 3.99843e-06 -8.12267e-05
0.000920696 -0.000127519 5.15437e-06
-0.000127519 -0.000116873 -1.12416e-06
5.15437e-06 -1.12416e-06 -0.000249593
0.00103334 -0.000116727 3.24253e-07
-0.000116727 2.32283e-05 1.20485e-07
3.24253e-07 1.20485e-07 -8.66783e-05
0.00211774 -3.23715e-05 -9.61811e-06
-3.23715e-05 0.000769 6.82942e-06
-9.61811e-06 6.82942e-06 0.000705088
0.00119223 -3.80627e-06 -0.00010287
-3.80627e-06 0.000307177 1.03917e-05
-0.00010287 1.03917e-05 0.000287846
0.00142649 -6.58036e-05 1.35986e-06
-6.58036e-05 0.000391726 1.11532e-07
1.35986e-06 1.11532e-07 0.000326158
0.000978441 -0.000123534 7.3413e-06
-0.000123534 4.07901e-05 -3.54057e-06
7.3413e-06 -3.54057e-06 -7.34305e-05
0.00407662 0.000132437 7.7422e-06
0.000132437 0.00193217 6.2891e-07
7.7422e-06 6.2891e-07 0.00191895
0.000779372 -8.84574e-05 1.26226e-05
-8.84574e-05 3.57908e-05 -8.97439e-06
1.26226e-05 -8.97439e-06 -2.52761e-05
0.00375137 0.000104312 9.68996e-05
0.000104312 0.00173903 -4.30842e-06
9.68996e-05 -4.30842e-06 0.00173371
0.00189077 0.000165961 -1.68916e-07
0.000165961 0.000250439 4.92004e-07
-1.68916e-07 4.92004e-07 0.000121512
0.00109257 0.000161389 -1.05007e-06
0.000161389 -6.89186e-05 1.63224e-06
-1.05007e-06 1.63224e-06 -0.000212966
0.000944323 0.000161077 -2.25456e-07
0.000161077 -5.45711e-05 -1.40932e-07
-2.25456e-07 -1.40932e-07 -0.000211644
0.00112067 0.000153058 -3.78275e-06
0.000153058 0.00010348 -1.84895e-06
-3.78275e-06 -1.84895e-06 -3.84626e-05
0.0004739 0.000124173 3.51153e-07
0.000124173 -0.000204193 2.45386e-06
3.51153e-07 2.45386e-06 -0.000351801
0.00104046 0.000141532 -5.20451e-07
0.000141532 0.000124972 -9.29575e-08
-5.20451e-07 -9.29575e-08 -7.21992e-06
0.000986046 0.000104159 -4.78967e-06
0.000104159 0.000129494 -2.65779e-06
-4.78967e-06 -2.65779e-06 2.63587e-05
0.000868995 0.000119338 1.02635e-06
0.000119338 7.69975e-05 8.30993e-07
1.02635e-06 8.30993e-07 -3.96594e-05
0.000800431 6.43762e-05 -3.08631e-07
6.43762e-05 5.76822e-05 1.05476e-08
-3.08631e-07 1.05476e-08 -3.62109e-05
0.000709824 1.25317e-05 -7.24017e-06
1.25317e-05 2.04317e-05 -6.4419e-06
-7.24017e-06 -6.4419e-06 -2.5305e-05
0.000721494 7.47769e-06 1.0992e-06
7.47769e-06 2.45317e-05 2.14285e-06
1.0992e-06 2.14285e-06 -5.79501e-05
0.000565227 -4.94171e-05 -5.18331e-07
-4.94171e-05 -4.6903e-05 -2.29548e-07
-5.18331e-07 -2.29548e-07 -8.55734e-05
0.00299864 -0.000110109 -6.58643e-05
-0.000110109 0.00131738 -2.27732e-06
-6.58643e-05 -2.27732e-06 0.00131627
0.000527371 -7.72926e-05 -5.929e-07
-7.72926e-05 -6.26441e-05 5.452e-06
-5.929e-07 5.452e-06 -9.71504e-05
0.0026555 -0.000103542 -1.25558e-06
-0.000103542 0.0011233 1.5271e-07
-1.25558e-06 1.5271e-07 0.00112526
0.00245727 -9.26711e-05 3.91479e-05
-9.26711e-05 0.00100787 2.56017e-06
3.91479e-05 2.56017e-06 0.0010129
0.00181338 8.20982e-05 -2.39365e-06
8.20982e-05 3.38193e-05 1.43821e-06
-2.39365e-06 1.43821e-06 -4.61293e-05
0.00184033 3.75092e-05 1.73853e-06
3.75092e-05 0.000108701 -6.11766e-07
1.73853e-06 -6.11766e-07 5.71543e-05
0.00311416 -3.71851e-05 -3.14102e-05
-3.71851e-05 0.000682112 -5.6257e-06
-3.14102e-05 -5.6257e-06 0.000596164
0.00171342 0.000186613 -3.08129e-06
0.000186613 9.69693e-05 6.29827e-07
-3.08129e-06 6.29827e-07 -3.57246e-05
0.00168473 0.000211311 -2.79873e-06
0.000211311 0.000220699 1.03186e-07
-2.79873e-06 1.03186e-07 8.13294e-05
0.000773461 0.000154941 -1.11621e-05
0.000154941 -6.00082e-05 3.60003e-06
-1.11621e-05 3.60003e-06 -0.000170477
0.00177187 0.000191105 1.80395e-06
0.000191105 0.00020504 2.42481e-07
1.80395e-06 2.42481e-07 6.65634e-05
0.0019544 0.000223029 -1.4907e-06
0.000223029 0.000411172 1.13088e-07
-1.4907e-06 1.13088e-07 0.000256013
0.00208394 0.00015302 -3.35636e-06
0.00015302 0.000217555 1.50652e-06
-3.35636e-06 1.50652e-06 0.000114868
0.00171418 0.000224613 -1.36394e-06
0.000224613 7.11387e-05 5.65398e-07
-1.36394e-06 5.65398e-07 -6.69768e-05
0.00189961 0.000262932 2.73998e-06
0.000262932 0.000286072 6.26655e-07
2.73998e-06 6.26655e-07 0.000131983
0.00181776 0.000153369 -4.71761e-07
0.000153369 7.46125e-05 1.42288e-07
-4.71761e-07 1.42288e-07 -2.92547e-05
0.00202939 0.000273232 5.86465e-06
0.000273232 0.000214441 -5.90019e-07
5.86465e-06 -5.90019e-07 7.62245e-05
0.0015071 0.0001382 -1.70644e-05
0.0001382 -4.95174e-05 -5.54481e-06
-1.70644e-05 -5.54481e-06 -0.000121614
0.0019569 1.35772e-05 3.85234e-07
1.35772e-05 0.000118264 1.73691e-07
3.85234e-07 1.73691e-07 4.61255e-05
0.0017912 1.16294e-05 4.00198e-07
1.16294e-05 1.4986e-05 -3.73762e-07
4.00198e-07 -3.73762e-07 -5.17553e-05
0.00245525 1.18247e-05 -1.84748e-05
1.18247e-05 0.00052423 -1.64522e-06
-1.84748e-05 -1.64522e-06 0.000473497
0.00213271 -0.000103327 -1.04128e-05
-0.000103327 0.00018157 -8.69067e-07
-1.04128e-05 -8.69067e-07 0.000141204
0.00193114 -3.46025e-05 -1.94059e-06
-3.46025e-05 7.63976e-05 -4.01794e-07
-1.94059e-06 -4.01794e-07 1.50877e-05
0.00181666 -5.45945e-05 6.01831e-07
-5.45945e-05 3.93191e-05 7.39877e-08
6.01831e-07 7.39877e-08 -2.79794e-05
0.00186464 -3.60246e-05 1.90067e-07
-3.60246e-05 0.000106703 -1.96292e-07
1.90067e-07 -1.96292e-07 1.73476e-05
0.00180152 -9.9433e-05 -1.06614e-06
-9.9433e-05 8.19307e-05 -2.70227e-07
-1.06614e-06 -2.70227e-07 1.10519e-05
0.00181839 -8.43942e-05 -3.88021e-07
-8.43942e-05 0.00011308 -1.93501e-07
-3.88021e-07 -1.93501e-07 2.30377e-05
0.00174411 -6.40758e-05 1.82457e-06
-6.40758e-05 0.000114315 -9.20407e-07
1.82457e-06 -9.20407e-07 1.6185e-06
0.00166985 -0.000100961 -2.31076e-06
-0.000100961 7.45747e-05 1.8062e-07
-2.31076e-06 1.8062e-07 -2.54665e-05
0.00166228 -8.37925e-05 -1.7743e-07
-8.37925e-05 0.000105398 1.07198e-07
-1.7743e-07 1.07198e-07 -1.10721e-05
0.00159245 -7.46983e-05 -1.48447e-06
-7.46983e-05 0.00012379 5.60739e-07
-1.48447e-06 5.60739e-07 -1.63918e-06
0.00162101 -0.000107265 -4.65963e-07
-0.000107265 0.000109022 -2.10488e-07
-4.65963e-07 -2.10488e-07 -1.04501e-05
0.00152749 -0.000103135 -6.95364e-08
-0.000103135 0.000104966 7.47264e-08
-6.95364e-08 7.47264e-08 -2.13647e-05
0.00139387 -9.76295e-05 -4.84237e-06
-9.76295e-05 8.35908e-05 1.49962e-06
-4.84237e-06 1.49962e-06 -3.97624e-05
0.00150439 -0.000124341 1.84815e-06
-0.000124341 0.00010765 -7.82771e-07
1.84815e-06 -7.82771e-07 -2.00522e-05
0.00136659 -0.000115756 -2.98428e-08
-0.000115756 8.31393e-05 4.05803e-08
-2.98428e-08 4.05803e-08 -4.08472e-05
0.00110373 -9.44142e-05 -1.01643e-05
-9.44142e-05 2.11591e-05 3.71186e-06
-1.01643e-05 3.71186e-06 -8.35331e-05
0.00130333 -0.000128279 5.15458e-06
-0.000128279 6.65389e-05 -1.58867e-06
5.15458e-06 -1.58867e-06 -5.96729e-05
0.00107165 -0.000104784 2.48724e-07
-0.000104784 1.74975e-05 4.75733e-09
2.48724e-07 4.75733e-09 -8.82641e-05
0.00220135 -4.95802e-05 -1.64508e-05
-4.95802e-05 0.000793968 5.53049e-06
-1.64508e-05 5.53049e-06 0.000737808
0.0010084 -0.000115256 8.8924e-06
-0.000115256 1.01729e-05 -3.7901e-06
8.8924e-06 -3.7901e-06 -9.97028e-05
0.00231075 -8.2427e-05 2.8326e-05
-8.2427e-05 0.00086226 -2.18056e-06
2.8326e-05 -2.18056e-06 0.000805734
0.00150748 -4.45956e-05 -0.000122119
-4.45956e-05 0.000482664 1.34869e-05
-0.000122119 1.34869e-05 0.000462216
0.00281219 3.08476e-05 -0.000106605
3.08476e-05 0.0012225 3.29784e-06
-0.000106605 3.29784e-06 0.00120691
0.00239884 -0.000107817 6.79027e-05
-0.000107817 0.000921701 -8.66882e-06
6.79027e-05 -8.66882e-06 0.000868257
0.00422621 9.56845e-05 0.00011275
9.56845e-05 0.00201173 -6.89772e-06
0.00011275 -6.89772e-06 0.00200138
0.00175898 0.000146693 -2.55536e-06
0.000146693 0.000151966 -3.18801e-07
-2.55536e-06 -3.18801e-07 2.56625e-05
0.00178608 0.000171385 1.16749e-06
0.000171385 0.0002622 3.61629e-07
1.16749e-06 3.61629e-07 0.000130406
0.00170765 0.000160176 8.89286e-07
0.000160176 0.000153937 3.06284e-07
8.89286e-07 3.06284e-07 2.65013e-05
0.00114539 0.000153864 -5.27442e-06
0.000153864 3.79924e-05 -2.35485e-07
-5.27442e-06 -2.35485e-07 -0.000101734
0.00127396 0.000171618 -2.01275e-07
0.000171618 2.66609e-05 6.03444e-07
-2.01275e-07 6.03444e-07 -0.000118636
0.0012032 0.000177558 1.8937e-06
0.000177558 7.91671e-05 9.54884e-07
1.8937e-06 9.54884e-07 -8.0337e-05
0.00113101 0.0001542 -4.47214e-07
0.0001542 0.000110469 5.8544e-08
-4.47214e-07 5.8544e-08 -3.19765e-05
0.000984478 0.000119622 -6.16225e-06
0.000119622 8.37345e-05 -3.66126e-06
-6.16225e-06 -3.66126e-06 -2.78999e-05
0.00094956 0.000134591 1.60136e-06
0.000134591 7.80052e-05 1.67846e-06
1.60136e-06 1.67846e-06 -5.32522e-05
0.000859809 9.61822e-05 -3.44047e-07
9.61822e-05 6.0649e-05 -8.81415e-08
-3.44047e-07 -8.81415e-08 -4.10227e-05
0.000774264 5.57067e-05 -9.89944e-06
5.57067e-05 4.7461e-05 -7.55713e-06
-9.89944e-06 -7.55713e-06 -7.87451e-06
0.000674196 5.64168e-05 1.83083e-06
5.64168e-05 -1.1066e-05 1.68819e-06
1.83083e-06 1.68819e-06 -0.000103196
0.000604668 -9.6898e-06 2.61059e-07
-9.6898e-06 -3.21993e-05 -2.39045e-07
2.61059e-07 -2.39045e-07 -7.81933e-05
0.00333343 -0.000106552 -8.47469e-05
-0.000106552 0.00151137 -3.11731e-06
-8.47469e-05 -3.11731e-06 0.00150731
0.000500211 -7.67311e-05 -1.50492e-06
-7.67311e-05 -7.39287e-05 6.38974e-06
-1.50492e-06 6.38974e-06 -0.000117001
0.00293137 -0.000116505 -2.05746e-06
-0.000116505 0.00128118 2.4769e-07
-2.05746e-06 2.4769e-07 0.0012791
0.00261073 -0.000103957 4.38124e-05
-0.000103957 0.0010987 2.18868e-06
4.38124e-05 2.18868e-06 0.00110074
0.00188706 8.2806e-05 -1.32905e-06
8.2806e-05 8.21508e-05 1.21421e-06
-1.32905e-06 1.21421e-06 -2.70181e-06
0.00178073 8.14233e-05 7.92077e-07
8.14233e-05 2.2564e-05 -1.61536e-07
7.92077e-07 -1.61536e-07 -5.72834e-05
0.00215502 3.13277e-05 -2.9365e-05
3.13277e-05 0.000303421 -4.59487e-06
-2.9365e-05 -4.59487e-06 0.000254352
0.00189219 0.000136709 1.94637e-07
0.000136709 0.000143552 1.40741e-06
1.94637e-07 1.40741e-06 3.07417e-05
0.00174525 0.000184072 -8.69242e-07
0.000184072 0.000119073 -3.31003e-07
-8.69242e-07 -3.31003e-07 -1.28043e-05
0.00166014 0.000208376 -1.72801e-06
0.000208376 0.000230716 1.47512e-06
-1.72801e-06 1.47512e-06 9.45303e-05
0.00199192 0.000196886 1.14933e-06
0.000196886 0.000323999 -8.13701e-07
1.14933e-06 -8.13701e-07 0.00018547
0.00191034 0.00014665 2.67106e-07
0.00014665 0.000123594 -3.67831e-08
2.67106e-07 -3.67831e-08 1.96348e-05
0.00163683 0.000224157 2.379e-07
0.000224157 3.1512e-05 -9.77331e-07
2.379e-07 -9.77331e-07 -0.000107695
0.00178387 0.000151961 5.27807e-06
0.000151961 6.37929e-05 -1.39246e-06
5.27807e-06 -1.39246e-06 -4.02369e-05
0.00185377 1.85103e-05 1.67179e-06
1.85103e-05 9.12189e-05 4.58997e-07
1.67179e-06 4.58997e-07 4.87395e-06
0.00188969 1.38984e-05 -3.81607e-07
1.38984e-05 8.36536e-05 -2.76444e-08
-3.81607e-07 -2.76444e-08 9.72195e-06
0.00186969 1.53633e-05 -2.05375e-06
1.53633e-05 6.36754e-05 -1.31042e-06
-2.05375e-06 -1.31042e-06 -2.13743e-06
0.00167708 -6.95787e-06 -2.61333e-07
-6.95787e-06 1.75344e-05 6.33981e-08
-2.61333e-07 6.33981e-08 -7.91256e-05
0.00182879 -5.36801e-05 -1.32045e-06
-5.36801e-05 3.97526e-05 9.0667e-08
-1.32045e-06 9.0667e-08 -2.41882e-05
0.00185896 -3.69505e-05 -2.97348e-07
-3.69505e-05 0.000103438 3.88485e-07
-2.97348e-07 3.88485e-07 1.38707e-05
0.00189621 -3.59545e-05 9.5798e-07
-3.59545e-05 0.000172089 -6.86168e-07
9.5798e-07 -6.86168e-07 6.57124e-05
0.00179764 -8.45762e-05 -2.3067e-06
-8.45762e-05 0.000107521 2.73836e-07
-2.3067e-06 2.73836e-07 1.67992e-05
0.00173992 -6.40179e-05 4.77388e-07
-6.40179e-05 0.000111717 -3.58494e-07
4.77388e-07 -3.58494e-07 -8.47319e-07
0.00162569 -4.56017e-05 -1.44966e-06
-4.56017e-05 0.000116462 2.53393e-07
-1.44966e-06 2.53393e-07 -8.20664e-06
0.00165471 -8.30932e-05 -6.02506e-07
-8.30932e-05 0.000101262 9.9404e-08
-6.02506e-07 9.9404e-08 -1.50503e-05
0.00155013 -7.28268e-05 -9.79809e-08
-7.28268e-05 9.87808e-05 -3.9575e-08
-9.79809e-08 -3.9575e-08 -2.65685e-05
0.00141193 -7.41295e-05 -4.7464e-06
-7.41295e-05 7.97763e-05 1.46293e-06
-4.7464e-06 1.46293e-06 -4.43493e-05
0.00151619 -0.000102223 1.73755e-06
-0.000102223 9.79785e-05 -5.722e-07
1.73755e-06 -5.722e-07 -2.82348e-05
0.00139323 -9.67521e-05 -6.53882e-08
-9.67521e-05 8.30488e-05 3.7815e-08
-6.53882e-08 3.7815e-08 -4.0154e-05
0.00111935 -7.98895e-05 -1.01793e-05
-7.98895e-05 1.7906e-05 3.11634e-06
-1.01793e-05 3.11634e-06 -8.66554e-05
0.00135962 -0.000114601 5.06372e-06
-0.000114601 7.93396e-05 -1.59631e-06
5.06372e-06 -1.59631e-06 -4.44872e-05
0.00110304 -9.24057e-05 1.77286e-07
-9.24057e-05 1.95249e-05 1.22272e-07
1.77286e-07 1.22272e-07 -8.47648e-05
0.00227119 -6.94143e-05 -2.35213e-05
-6.94143e-05 0.000818032 4.62839e-06
-2.35213e-05 4.62839e-06 0.000766937
0.00105557 -0.000103002 9.77869e-06
-0.000103002 7.9855e-06 -3.96806e-06
9.77869e-06 -3.96806e-06 -9.75159e-05
0.00233833 -9.02077e-05 2.524e-05
-9.02077e-05 0.000862005 -2.34259e-06
2.524e-05 -2.34259e-06 0.000810573
0.00160197 -4.04309e-05 -0.000120687
-4.04309e-05 0.000532789 1.24161e-05
-0.000120687 1.24161e-05 0.000512297
0.00247519 -0.000114462 7.50404e-05
-0.000114462 0.000944957 -1.09202e-05
7.50404e-05 -1.09202e-05 0.000892429
0.00141724 2.88663e-05 -6.31171e-05
2.88663e-05 0.000450166 4.09515e-06
-6.31171e-05 4.09515e-06 0.000418224
0.00431704 0.000266252 -6.07144e-06
0.000266252 0.00210656 -4.34477e-06
-6.07144e-06 -4.34477e-06 0.0020627
0.00168858 0.000118242 -1.30696e-07
0.000118242 9.46414e-05 5.97048e-07
-1.30696e-07 5.97048e-07 -2.82222e-05
0.00165656 0.00013567 -1.56776e-06
0.00013567 0.000160005 -5.94741e-07
-1.56776e-06 -5.94741e-07 3.21588e-05
0.0017585 0.000148839 -2.09206e-06
0.000148839 0.000153027 4.19312e-08
-2.09206e-06 4.19312e-08 2.65017e-05
0.00169703 0.000163469 -3.44437e-06
0.000163469 0.000284072 -3.64435e-07
-3.44437e-06 -3.64435e-07 0.000155254
0.00151362 0.000161471 5.98075e-07
0.000161471 0.0001109 -3.63929e-07
5.98075e-07 -3.63929e-07 -2.04553e-05
0.00154359 0.000155363 3.96065e-06
0.000155363 6.76856e-05 3.17339e-08
3.96065e-06 3.17339e-08 -5.82474e-05
0.000988707 0.000124135 -8.58776e-06
0.000124135 2.49221e-05 -3.25827e-06
-8.58776e-06 -3.25827e-06 -8.96384e-05
0.00123994 0.000160222 -4.71204e-07
0.000160222 8.8584e-05 7.52242e-07
-4.71204e-07 7.52242e-07 -5.22219e-05
0.00147673 0.000182826 3.35173e-06
0.000182826 0.000133448 -8.40669e-08
3.35173e-06 -8.40669e-08 -1.3127e-05
0.00113954 0.000155393 3.40994e-06
0.000155393 0.000116538 2.22115e-06
3.40994e-06 2.22115e-06 -2.64375e-05
0.000927291 0.000115171 -4.4493e-07
0.000115171 5.23777e-05 -2.05487e-07
-4.4493e-07 -2.05487e-07 -5.84823e-05
0.000784184 0.000108302 -1.48648e-05
0.000108302 4.31984e-05 -8.78276e-06
-1.48648e-05 -8.78276e-06 -2.11266e-05
0.000743884 8.83369e-05 3.43008e-06
8.83369e-05 -2.45009e-06 2.33398e-06
3.43008e-06 2.33398e-06 -0.000102747
0.000648927 5.0372e-05 -5.4075e-08
5.0372e-05 -1.46491e-05 3.27379e-10
-5.4075e-08 3.27379e-10 -7.00099e-05
0.00377427 -9.29471e-05 -0.000101411
-9.29471e-05 0.00176842 -5.67722e-06
-0.000101411 -5.67722e-06 0.00175947
0.000526281 -2.02169e-05 3.44539e-06
-2.02169e-05 -7.32843e-05 6.53482e-06
3.44539e-06 6.53482e-06 -0.000117768
0.00326959 -0.000130383 -3.89514e-06
-0.000130383 0.00147765 3.9973e-07
-3.89514e-06 3.9973e-07 0.00147037
0.00286058 -0.000118164 5.02849e-05
-0.000118164 0.00124205 1.98456e-06
5.02849e-05 1.98456e-06 0.00123999
0.00178441 7.50706e-05 1.07637e-06
7.50706e-05 5.72976e-05 1.27204e-06
1.07637e-06 1.27204e-06 -4.02033e-05
0.0018214 8.4651e-05 -3.50102e-07
8.4651e-05 4.3633e-05 2.58696e-07
-3.50102e-07 2.58696e-07 -4.08687e-05
0.00181353 8.21227e-05 2.17837e-06
8.21227e-05 3.68145e-05 -1.72897e-06
2.17837e-06 -1.72897e-06 -4.2918e-05
0.00188241 0.00013539 5.30768e-07
0.00013539 0.000137856 -9.84516e-08
5.30768e-07 -9.84516e-08 2.57135e-05
0.00178154 0.000181706 -1.10327e-07
0.000181706 0.000143825 -1.39883e-06
-1.10327e-07 -1.39883e-06 1.27268e-05
0.00175791 0.000140461 1.99857e-06
0.000140461 3.93325e-05 -1.61721e-06
1.99857e-06 -1.61721e-06 -6.58412e-05
0.00183797 2.04649e-05 4.85114e-07
2.04649e-05 0.000107597 3.80142e-07
4.85114e-07 3.80142e-07 1.12579e-05
0.0018679 1.98009e-05 3.61068e-07
1.98009e-05 9.95557e-05 -2.06077e-07
3.61068e-07 -2.06077e-07 1.2161e-05
0.00180432 1.4727e-05 5.23127e-07
1.4727e-05 3.75356e-05 -1.93795e-07
5.23127e-07 -1.93795e-07 -3.82361e-05
0.00176814 -1.36337e-05 -1.25334e-06
-1.36337e-05 6.66656e-05 9.28876e-08
-1.25334e-06 9.28876e-08 -2.89898e-05
0.00173549 -1.67675e-05 1.13691e-06
-1.67675e-05 8.27148e-05 -4.42778e-07
1.13691e-06 -4.42778e-07 -2.46719e-05
0.00185215 -3.77817e-05 -1.02461e-06
-3.77817e-05 9.9819e-05 4.24192e-07
-1.02461e-06 4.24192e-07 1.00194e-05
0.00180175 -3.61612e-05 -3.4664e-07
-3.61612e-05 0.000119955 3.09422e-07
-3.4664e-07 3.09422e-07 1.13075e-05
0.00167243 -2.45832e-05 1.20741e-07
-2.45832e-05 0.000119872 -4.33458e-07
1.20741e-07 -4.33458e-07 -7.94893e-07
0.00172932 -6.44921e-05 -1.29276e-07
-6.44921e-05 0.000105625 1.35324e-07
-1.29276e-07 1.35324e-07 -6.85909e-06
0.0015799 -4.68115e-05 -2.84918e-07
-4.68115e-05 9.01943e-05 6.45039e-08
-2.84918e-07 6.45039e-08 -3.45686e-05
0.00142373 -4.32564e-05 -5.55342e-06
-4.32564e-05 6.93143e-05 1.59646e-06
-5.55342e-06 1.59646e-06 -5.61813e-05
0.00150391 -7.24799e-05 1.00807e-06
-7.24799e-05 7.1621e-05 -6.32191e-07
1.00807e-06 -6.32191e-07 -5.37389e-05
0.00141081 -7.28154e-05 5.62302e-08
-7.28154e-05 7.88455e-05 -8.85125e-08
5.62302e-08 -8.85125e-08 -4.50953e-05
0.00112854 -6.14509e-05 -1.01454e-05
-6.14509e-05 1.05784e-05 2.7308e-06
-1.01454e-05 2.7308e-06 -9.47716e-05
0.00138986 -9.57378e-05 4.77311e-06
-9.57378e-05 8.10666e-05 -1.42462e-06
4.77311e-06 -1.42462e-06 -4.19818e-05
0.00112541 -7.76756e-05 -1.5227e-09
-7.76756e-05 2.00218e-05 1.05495e-07
-1.5227e-09 1.05495e-07 -8.4119e-05
0.00228667 -7.44558e-05 -2.68321e-05
-7.44558e-05 0.000818845 3.84347e-06
-2.68321e-05 3.84347e-06 0.000768124
0.00109964 -9.04542e-05 1.02242e-05
-9.04542e-05 1.63203e-05 -3.54819e-06
1.02242e-05 -3.54819e-06 -8.75565e-05
0.00235187 -8.72549e-05 2.40052e-05
-8.72549e-05 0.000859307 -1.96356e-06
2.40052e-05 -1.96356e-06 0.000810325
0.00166016 -3.63119e-05 -0.00012079
-3.63119e-05 0.00055903 1.07595e-05
-0.00012079 1.07595e-05 0.000539131
0.0024628 -0.000103622 7.50934e-05
-0.000103622 0.000926722 -9.73455e-06
7.50934e-05 -9.73455e-06 0.000877622
0.00144613 9.73545e-06 -5.71751e-05
9.73545e-06 0.000456011 4.37738e-06
-5.71751e-05 4.37738e-06 0.000429136
0.00139539 6.69069e-05 7.14909e-06
6.69069e-05 0.000444643 -4.3615e-06
7.14909e-06 -4.3615e-06 0.000408208
0.00186069 7.41012e-05 7.28607e-07
7.41012e-05 0.000155408 1.42691e-06
7.28607e-07 1.42691e-06 4.63679e-05
0.00155144 0.000102788 -2.06961e-06
0.000102788 8.05144e-05 -2.11678e-07
-2.06961e-06 -2.11678e-07 -4.64017e-05
0.00172747 0.000120482 -1.15515e-06
0.000120482 0.000113147 -1.28438e-07
-1.15515e-06 -1.28438e-07 -8.451e-06
0.00161091 0.000133472 -4.24333e-06
0.000133472 0.000201332 -1.32412e-06
-4.24333e-06 -1.32412e-06 7.74832e-05
0.00171222 0.000137417 1.00546e-06
0.000137417 0.000193385 3.70138e-07
1.00546e-06 3.70138e-07 6.55774e-05
0.00175572 0.000150947 2.84178e-06
0.000150947 0.000153349 4.31251e-07
2.84178e-06 4.31251e-07 2.65316e-05
0.00102401 0.00011805 -9.8661e-06
0.00011805 -6.06961e-06 -3.15161e-06
-9.8661e-06 -3.15161e-06 -0.000116553
0.00142609 0.000154086 2.8762e-06
0.000154086 0.000131636 3.74904e-07
2.8762e-06 3.74904e-07 1.74129e-06
0.00123326 0.000151036 3.11499e-06
0.000151036 -4.48463e-05 -6.73739e-07
3.11499e-06 -6.73739e-07 -0.000175769
0.000696264 0.000126884 -1.76819e-05
0.000126884 -2.28175e-05 -8.59834e-06
-1.76819e-05 -8.59834e-06 -9.09757e-05
0.00100718 0.000124453 -8.60815e-07
0.000124453 3.47391e-05 3.87987e-07
-8.60815e-07 3.87987e-07 -7.97284e-05
0.00133942 0.000166828 5.38122e-06
0.000166828 0.000141956 2.02864e-06
5.38122e-06 2.02864e-06 2.79223e-08
0.000882291 0.000111377 5.59196e-06
0.000111377 2.82225e-05 3.46549e-06
5.59196e-06 3.46549e-06 -8.20057e-05
0.000651428 9.64854e-05 1.39263e-08
9.64854e-05 -2.38681e-05 7.20448e-08
1.39263e-08 7.20448e-08 -8.77428e-05
0.00437869 -8.24339e-05 -0.000113097
-8.24339e-05 0.00211549 -9.38111e-06
-0.000113097 -9.38111e-06 0.00209798
0.000540485 4.07406e-05 7.03927e-06
4.07406e-05 -7.03201e-05 7.40902e-06
7.03927e-06 7.40902e-06 -0.000124167
0.00365815 -0.000132301 -6.74133e-06
-0.000132301 0.00170636 4.74586e-07
-6.74133e-06 4.74586e-07 0.00169423
0.00318192 -0.000135713 5.92358e-05
-0.000135713 0.00142827 1.93358e-06
5.92358e-05 1.93358e-06 0.00142047
0.00178541 5.3897e-05 4.42171e-07
5.3897e-05 8.2547e-05 2.87168e-07
4.42171e-07 2.87168e-07 -1.79057e-05
0.00177599 7.431e-05 1.27872e-07
7.431e-05 5.40464e-05 3.90149e-07
1.27872e-07 3.90149e-07 -4.29802e-05
0.00174558 8.58713e-05 2.78929e-06
8.58713e-05 1.44252e-06 -7.91943e-07
2.78929e-06 -7.91943e-07 -8.27052e-05
0.00186933 0.000133898 4.85875e-07
0.000133898 0.000130448 -1.42908e-06
4.85875e-07 -1.42908e-06 1.89864e-05
0.00175165 -3.66029e-06 1.17279e-06
-3.66029e-06 8.8625e-05 4.27006e-08
1.17279e-06 4.27006e-08 -1.95994e-05
0.00187648 1.70826e-05 -8.84685e-08
1.70826e-05 0.00012641 -1.18453e-07
-8.84685e-08 -1.18453e-07 3.02642e-05
0.00188606 2.05823e-05 -1.20808e-06
2.05823e-05 0.000110166 -1.09468e-07
-1.20808e-06 -1.09468e-07 2.17427e-05
0.00186025 -1.72755e-05 -2.62277e-06
-1.72755e-05 0.000116573 -2.71194e-07
-2.62277e-06 -2.71194e-07 2.19108e-05
0.00172627 -1.04525e-05 -8.21692e-07
-1.04525e-05 7.73687e-05 -7.09195e-08
-8.21692e-07 -7.09195e-08 -2.91643e-05
0.00178305 -5.03428e-06 7.7619e-07
-5.03428e-06 0.000172941 -3.99682e-07
7.7619e-07 -3.99682e-07 5.5495e-05
0.00170637 -3.64427e-05 -1.21977e-06
-3.64427e-05 6.71605e-05 1.09578e-06
-1.21977e-06 1.09578e-06 -4.37554e-05
0.00166476 -2.40207e-05 5.68213e-07
-2.40207e-05 0.000116536 7.24509e-08
5.68213e-07 7.24509e-08 -5.44765e-06
0.00135142 -1.62355e-05 -4.48564e-06
-1.62355e-05 1.23875e-05 4.77576e-07
-4.48564e-06 4.77576e-07 -0.000112641
0.0015361 -4.64507e-05 5.58189e-07
-4.64507e-05 6.5128e-05 -1.09288e-07
5.58189e-07 -1.09288e-07 -5.96421e-05
0.00142239 -4.07539e-05 -4.64428e-07
-4.07539e-05 6.78288e-05 3.18143e-07
-4.64428e-07 3.18143e-07 -5.73978e-05
0.00115821 -3.86969e-05 -1.04547e-05
-3.86969e-05 1.05308e-05 2.52473e-06
-1.04547e-05 2.52473e-06 -9.66425e-05
0.0014051 -6.94856e-05 4.4208e-06
-6.94856e-05 7.54241e-05 -1.57766e-06
4.4208e-06 -1.57766e-06 -4.81983e-05
0.00114115 -6.09302e-05 -1.15982e-08
-6.09302e-05 1.64991e-05 2.65656e-08
-1.15982e-08 2.65656e-08 -8.86968e-05
0.000679099 -4.67107e-05 -1.5473e-05
-4.67107e-05 -8.50572e-05 3.88842e-06
-1.5473e-05 3.88842e-06 -0.00014489
0.00113591 -7.56933e-05 1.02438e-05
-7.56933e-05 2.43745e-05 -3.00095e-06
1.02438e-05 -3.00095e-06 -7.93317e-05
0.00151909 -6.10578e-05 3.05471e-05
-6.10578e-05 0.000387887 -1.6148e-06
3.05471e-05 -1.6148e-06 0.000335478
0.00488991 -7.90158e-05 -0.000146795
-7.90158e-05 0.00235513 7.36707e-06
-0.000146795 7.36707e-06 0.00235253
0.00244434 -8.58724e-05 7.51772e-05
-8.58724e-05 0.000906244 -8.07633e-06
7.51772e-05 -8.07633e-06 0.000859691
0.00146776 -1.18564e-05 -5.09002e-05
-1.18564e-05 0.000457926 3.80143e-06
-5.09002e-05 3.80143e-06 0.00043434
0.00132601 5.78152e-06 1.90741e-05
5.78152e-06 0.000391656 -3.47298e-06
1.90741e-05 -3.47298e-06 0.000363253
0.00188289 5.23287e-05 1.11523e-06
5.23287e-05 0.000171741 6.91298e-07
1.11523e-06 6.91298e-07 6.56117e-05
0.00164359 6.68364e-05 -6.2496e-07
6.68364e-05 0.000115265 8.73009e-07
-6.2496e-07 8.73009e-07 -5.29597e-06
0.00185721 7.11709e-05 1.19707e-07
7.11709e-05 0.000156303 -6.11296e-08
1.19707e-07 -6.11296e-08 4.66824e-05
0.00118501 9.36316e-05 -5.38485e-06
9.36316e-05 -5.90042e-05 -1.35622e-06
-5.38485e-06 -1.35622e-06 -0.000184122
0.00166704 0.000105651 -7.3812e-08
0.000105651 0.000145772 -2.39984e-08
-7.3812e-08 -2.39984e-08 1.98962e-05
0.00177033 0.000123187 -8.34117e-07
0.000123187 0.000133613 -9.55436e-07
-8.34117e-07 -9.55436e-07 1.32427e-05
0.00066296 8.6819e-05 -1.20711e-05
8.6819e-05 -0.000234948 -3.79688e-06
-1.20711e-05 -3.79688e-06 -0.0003431
0.00164109 0.00013656 1.34399e-06
0.00013656 0.000218259 2.94191e-07
1.34399e-06 2.94191e-07 9.38892e-05
0.00176351 0.000139344 3.43742e-06
0.000139344 0.000224392 1.05423e-06
3.43742e-06 1.05423e-06 9.66025e-05
0.00063146 0.00011317 -1.70972e-05
0.00011317 -8.11073e-05 -7.15399e-06
-1.70972e-05 -7.15399e-06 -0.00014634
0.000837731 0.000110494 2.96547e-07
0.000110494 -0.000110397 9.58348e-08
2.96547e-07 9.58348e-08 -0.000221724
0.00114998 0.000144362 7.8407e-06
0.000144362 -2.37779e-05 1.1147e-06
7.8407e-06 1.1147e-06 -0.000154679
0.00484994 -8.8636e-05 -0.000113554
-8.8636e-05 0.00238048 -1.13597e-05
-0.000113554 -1.13597e-05 0.00235585
0.000633479 0.000116558 1.17777e-06
0.000116558 -5.57125e-05 3.57413e-07
1.17777e-06 3.57413e-07 -0.000123087
0.00101158 0.000124109 8.05908e-06
0.000124109 3.7113e-05 4.35612e-06
8.05908e-06 4.35612e-06 -7.72466e-05
0.000514353 8.73251e-05 1.12394e-05
8.73251e-05 -9.51166e-05 8.4202e-06
1.12394e-05 8.4202e-06 -0.000157986
0.0041262 -0.000120618 -8.52572e-06
-0.000120618 0.00197746 5.28351e-07
-8.52572e-06 5.28351e-07 0.00195982
0.00350527 -0.000153503 6.92874e-05
-0.000153503 0.00162248 2.25802e-06
6.92874e-05 2.25802e-06 0.00160784
0.0018078 3.13476e-05 -4.38088e-07
3.13476e-05 0.000117681 -4.64031e-08
-4.38088e-07 -4.64031e-08 1.0134e-05
0.0017935 5.32002e-05 -1.2258e-07
5.32002e-05 8.33696e-05 2.44893e-07
-1.2258e-07 2.44893e-07 -1.68974e-05
0.00176981 7.40601e-05 -2.02278e-07
7.40601e-05 5.1822e-05 -6.43564e-07
-2.02278e-07 -6.43564e-07 -4.47456e-05
0.00171392 7.12388e-06 9.39277e-07
7.12388e-06 0.000128065 -2.67391e-07
9.39277e-07 -2.67391e-07 1.02003e-05
0.00174432 -5.09325e-07 -7.05568e-08
-5.09325e-07 8.78288e-05 6.4767e-08
-7.05568e-08 6.4767e-08 -1.94798e-05
0.00191353 1.13735e-05 -1.48319e-06
1.13735e-05 0.000144415 -5.23762e-08
-1.48319e-06 -5.23762e-08 4.84633e-05
0.00171278 -5.37818e-06 -1.86316e-06
-5.37818e-06 6.94642e-05 5.68234e-07
-1.86316e-06 5.68234e-07 -3.61967e-05
0.00176979 -2.4532e-06 1.08424e-06
-2.4532e-06 0.000165161 -1.83413e-07
1.08424e-06 -1.83413e-07 4.77648e-05
0.00174561 -1.83001e-06 -2.77233e-06
-1.83001e-06 0.000219336 2.38544e-09
-2.77233e-06 2.38544e-09 9.93187e-05
0.00166099 -2.34004e-05 1.334e-06
-2.34004e-05 0.000115304 4.20619e-07
1.334e-06 4.20619e-07 -8.00192e-06
0.00158533 -1.47735e-05 -3.73365e-08
-1.47735e-05 0.000141283 6.64441e-08
-3.73365e-08 6.64441e-08 1.77216e-05
0.000805709 -1.43706e-05 -1.25078e-05
-1.43706e-05 -0.000199644 1.89534e-06
-1.25078e-05 1.89534e-06 -0.000311462
0.00143161 -4.05181e-05 4.09061e-06
-4.05181e-05 7.19117e-05 -9.05061e-07
4.09061e-06 -9.05061e-07 -5.31775e-05
0.0011519 -3.59151e-05 5.39969e-08
-3.59151e-05 6.59748e-06 1.66637e-07
5.39969e-08 1.66637e-07 -0.000100368
0.000677707 -1.9908e-05 -1.52746e-05
-1.9908e-05 -9.57741e-05 2.93282e-06
-1.52746e-05 2.93282e-06 -0.000157568
0.00115529 -5.92512e-05 1.04394e-05
-5.92512e-05 2.31619e-05 -2.7462e-06
1.04394e-05 -2.7462e-06 -8.1769e-05
0.000683601 -3.29482e-05 -2.67291e-07
-3.29482e-05 -8.3243e-05 1.34337e-07
-2.67291e-07 1.34337e-07 -0.000143188
0.00493254 -3.02725e-05 -0.000139951
-3.02725e-05 0.00237451 5.01893e-06
-0.000139951 5.01893e-06 0.00237366
0.000720149 -5.19164e-05 1.56643e-05
-5.19164e-05 -5.87419e-05 -5.60012e-06
1.56643e-05 -5.60012e-06 -0.000118068
0.00315154 -4.81419e-05 6.18201e-05
-4.81419e-05 0.00138985 -3.43285e-07
6.18201e-05 -3.43285e-07 0.00137441
0.00125948 -2.53512e-05 2.52113e-05
-2.53512e-05 0.000349741 -3.32979e-06
2.52113e-05 -3.32979e-06 0.000321859
0.00182452 4.14622e-05 1.94696e-07
4.14622e-05 0.000158017 2.02154e-07
1.94696e-07 2.02154e-07 4.86133e-05
0.00158046 3.73496e-05 -1.41215e-07
3.73496e-05 7.90943e-05 8.90794e-07
-1.41215e-07 8.90794e-07 -3.8918e-05
0.00184397 4.99243e-05 -3.32037e-07
4.99243e-05 0.000150558 -2.00781e-07
-3.32037e-07 -2.00781e-07 4.4524e-05
0.00143005 6.64292e-05 -4.37675e-06
6.64292e-05 6.44055e-05 -3.91722e-07
-4.37675e-06 -3.91722e-07 -5.70411e-05
0.00160388 6.49055e-05 4.19273e-07
6.49055e-05 9.17687e-05 9.74282e-08
4.19273e-07 9.74282e-08 -2.95479e-05
0.00185433 6.79214e-05 -1.1127e-06
6.79214e-05 0.000157426 -1.28915e-06
-1.1127e-06 -1.28915e-06 4.7244e-05
0.000686244 6.98517e-05 -1.22068e-05
6.98517e-05 -0.000242343 -3.19316e-06
-1.22068e-05 -3.19316e-06 -0.000350012
0.00151174 0.000104106 -1.34489e-06
0.000104106 0.000122085 -2.87927e-07
-1.34489e-06 -2.87927e-07 -1.66642e-06
0.00178418 0.000108347 2.31e-06
0.000108347 0.000211927 -5.26619e-08
2.31e-06 -5.26619e-08 8.7121e-05
0.000624995 8.22925e-05 -1.58371e-05
8.22925e-05 -0.000101491 -5.7675e-06
-1.58371e-05 -5.7675e-06 -0.000163446
0.000655667 8.7428e-05 -2.61336e-06
8.7428e-05 -0.000239132 -6.67469e-07
-2.61336e-06 -6.67469e-07 -0.00034786
0.00166873 0.000139573 7.09353e-06
0.000139573 0.000233808 1.67974e-06
7.09353e-06 1.67974e-06 0.000108923
0.00501954 -5.6475e-06 -0.000131434
-5.6475e-06 0.00244134 -9.12989e-06
-0.000131434 -9.12989e-06 0.00243295
0.000605531 0.000103627 8.80122e-07
0.000103627 -9.38819e-05 3.61533e-07
8.80122e-07 3.61533e-07 -0.000159881
0.00064704 0.000102901 1.00882e-05
0.000102901 -0.000217211 3.30376e-06
1.00882e-05 3.30376e-06 -0.000329391
0.00462324 -5.74752e-05 4.23758e-06
-5.74752e-05 0.00224214 -3.57616e-07
4.23758e-06 -3.57616e-07 0.00222767
0.000525637 0.000105907 1.45317e-05
0.000105907 -0.000111659 8.66977e-06
1.45317e-05 8.66977e-06 -0.000178939
0.00389803 -0.000157203 8.08563e-05
-0.000157203 0.00185527 4.39535e-06
8.08563e-05 4.39535e-06 0.00183498
0.0017754 2.36559e-05 -2.37371e-07
2.36559e-05 0.000159513 -9.13634e-08
-2.37371e-07 -9.13634e-08 4.40173e-05
0.00176461 2.99027e-05 -1.91306e-07
2.99027e-05 9.76873e-05 6.82499e-08
-1.91306e-07 6.82499e-08 -1.05449e-05
0.00180225 5.23736e-05 -6.98528e-07
5.23736e-05 8.42805e-05 -1.69518e-07
-6.98528e-07 -1.69518e-07 -1.57978e-05
0.00172188 -1.70714e-06 -2.8556e-06
-1.70714e-06 0.000208249 -1.56207e-07
-2.8556e-06 -1.56207e-07 9.01559e-05
0.00173969 6.27037e-06 6.79653e-07
6.27037e-06 0.000142207 1.30305e-09
6.79653e-07 1.30305e-09 2.53675e-05
0.00174843 4.71075e-06 1.92672e-07
4.71075e-06 9.31292e-05 1.18087e-09
1.92672e-07 1.18087e-09 -1.32923e-05
0.00175604 -8.42052e-07 9.74675e-07
-8.42052e-07 0.000157103 2.944e-07
9.74675e-07 2.944e-07 3.97516e-05
0.00174684 -1.62172e-06 1.67163e-06
-1.62172e-06 0.000220014 -2.1457e-07
1.67163e-06 -2.1457e-07 9.99296e-05
0.000820221 -4.4184e-06 -1.17927e-05
-4.4184e-06 -0.000198098 8.4258e-07
-1.17927e-05 8.4258e-07 -0.000309906
0.00181981 -1.34869e-05 5.51296e-06
-1.34869e-05 0.000270647 -5.98731e-07
5.51296e-06 -5.98731e-07 0.000148549
0.000991237 -1.29375e-05 -2.52814e-06
-1.29375e-05 -9.64892e-05 4.337e-07
-2.52814e-06 4.337e-07 -0.000206618
0.000700064 -7.13547e-06 -1.58532e-05
-7.13547e-06 -9.40566e-05 1.98803e-06
-1.58532e-05 1.98803e-06 -0.000157849
0.00115254 -3.45503e-05 1.04334e-05
-3.45503e-05 6.42272e-06 -2.22441e-06
1.04334e-05 -2.22441e-06 -0.000100422
0.000687667 -1.71935e-05 3.50768e-07
-1.71935e-05 -9.1346e-05 3.1663e-08
3.50768e-07 3.1663e-08 -0.000152872
0.00503869 -4.64623e-05 -0.000142286
-4.64623e-05 0.00243145 3.67565e-06
-0.000142286 3.67565e-06 0.0024299
0.000679539 -2.24898e-05 1.43918e-05
-2.24898e-05 -8.70455e-05 -3.36417e-06
1.43918e-05 -3.36417e-06 -0.000146355
0.00495668 -1.1689e-05 9.21398e-06
-1.1689e-05 0.00238954 1.48611e-08
9.21398e-06 1.48611e-08 0.00238722
0.00148382 -1.61384e-05 0.000124462
-1.61384e-05 0.000460656 -5.7158e-06
0.000124462 -5.7158e-06 0.00044259
0.00173589 2.8177e-05 -2.19403e-08
2.8177e-05 0.000163884 1.65104e-07
-2.19403e-08 1.65104e-07 4.79823e-05
0.00176355 4.4706e-05 -7.9113e-07
4.4706e-05 0.000121518 -8.70647e-08
-7.9113e-07 -8.70647e-08 1.26996e-05
0.00145461 3.42417e-05 -3.99467e-06
3.42417e-05 7.48206e-05 -1.40273e-07
-3.99467e-06 -1.40273e-07 -4.37441e-05
0.00157642 3.6872e-05 3.41107e-07
3.6872e-05 7.67656e-05 1.28555e-08
3.41107e-07 1.28555e-08 -4.12732e-05
0.00180353 4.76402e-05 -6.86326e-07
4.76402e-05 0.0001286 -1.20631e-06
-6.86326e-07 -1.20631e-06 2.26661e-05
0.00115643 5.75393e-05 -1.04865e-05
5.75393e-05 5.60737e-06 -1.90798e-06
-1.04865e-05 -1.90798e-06 -9.82394e-05
0.00142034 6.64583e-05 -1.28338e-08
6.64583e-05 5.88078e-05 2.06412e-07
-1.28338e-08 2.06412e-07 -6.27103e-05
0.00155919 6.29496e-05 6.34755e-07
6.29496e-05 6.56902e-05 -3.99612e-07
6.34755e-07 -3.99612e-07 -5.64005e-05
0.0006459 5.73104e-05 -1.54798e-05
5.73104e-05 -0.000104988 -4.34577e-06
-1.54798e-05 -4.34577e-06 -0.000165182
0.000903852 7.75745e-05 -3.129e-06
7.75745e-05 -0.000121706 -5.34044e-07
-3.129e-06 -5.34044e-07 -0.000228649
0.00184887 0.000114863 4.98214e-06
0.000114863 0.000308825 1.06338e-06
4.98214e-06 1.06338e-06 0.000186431
0.00504934 6.0672e-05 -0.000149468
6.0672e-05 0.00244222 -8.27442e-06
-0.000149468 -8.27442e-06 0.00244
0.000617517 7.83116e-05 1.49053e-07
7.83116e-05 -0.000105292 8.55594e-08
1.49053e-07 8.55594e-08 -0.000167479
0.00064978 8.83081e-05 7.26226e-06
8.83081e-05 -0.000242635 2.32448e-06
7.26226e-06 2.32448e-06 -0.000351955
0.00489432 1.24052e-05 9.47574e-06
1.24052e-05 0.00237535 5.42267e-07
9.47574e-06 5.42267e-07 0.00236643
0.000579148 9.34236e-05 1.51547e-05
9.34236e-05 -0.000107433 7.31533e-06
1.51547e-05 7.31533e-06 -0.000173832
0.00440094 -8.68263e-05 0.000103915
-8.68263e-05 0.002119 6.47705e-06
0.000103915 6.47705e-06 0.00210656
0.00172569 1.80906e-05 -2.74657e-06
1.80906e-05 0.000215557 -3.23429e-07
-2.74657e-06 -3.23429e-07 9.9367e-05
0.00175784 1.95352e-05 2.62435e-08
1.95352e-05 0.0001522 1.07182e-07
2.62435e-08 1.07182e-07 3.62497e-05
0.00172133 2.82106e-05 -3.98014e-07
2.82106e-05 7.81876e-05 1.14356e-07
-3.98014e-07 1.14356e-07 -3.07113e-05
0.000812391 -1.05517e-05 -1.22719e-05
-1.05517e-05 -0.000199934 -1.26219e-07
-1.22719e-05 -1.26219e-07 -0.000310261
0.00174431 4.79579e-06 1.74415e-06
4.79579e-06 0.000220775 -5.54549e-08
1.74415e-06 -5.54549e-08 0.000102644
0.00176036 5.45954e-06 1.24638e-06
5.45954e-06 0.000153778 1.41245e-07
1.24638e-06 1.41245e-07 3.79774e-05
0.00174882 -1.69313e-06 5.98187e-06
-1.69313e-06 0.000221145 -1.47673e-07
5.98187e-06 -1.47673e-07 0.000100989
0.00081418 -4.56402e-06 -1.88635e-06
-4.56402e-06 -0.000201682 1.91732e-07
-1.88635e-06 1.91732e-07 -0.000313564
0.000724317 -9.70475e-06 -1.61156e-05
-9.70475e-06 -8.68728e-05 8.00996e-07
-1.61156e-05 8.00996e-07 -0.000151318
0.00116506 -1.06902e-05 8.36969e-06
-1.06902e-05 2.40507e-07 -1.30689e-06
8.36969e-06 -1.30689e-06 -0.000108187
0.000695448 2.22417e-06 1.74202e-07
2.22417e-06 -9.73461e-05 1.16977e-07
1.74202e-07 1.16977e-07 -0.000160951
0.00519943 -5.76352e-05 -0.000147409
-5.76352e-05 0.00251863 2.19721e-06
-0.000147409 2.19721e-06 0.0025156
0.000701358 -6.76821e-06 1.51258e-05
-6.76821e-06 -8.45479e-05 -2.37679e-06
1.51258e-05 -2.37679e-06 -0.000146099
0.00509372 1.61408e-05 4.72245e-06
1.61408e-05 0.00246004 4.45495e-07
4.72245e-06 4.45495e-07 0.00245887
0.00498236 -5.73082e-05 0.000153296
-5.73082e-05 0.00240208 -4.35169e-06
0.000153296 -4.35169e-06 0.00240057
0.00147576 2.13801e-05 -4.05012e-06
2.13801e-05 8.67429e-05 -5.78499e-07
-4.05012e-06 -5.78499e-07 -3.09368e-05
0.00166646 3.01801e-05 3.72681e-07
3.01801e-05 0.000124559 -1.48892e-07
3.72681e-07 -1.48892e-07 9.41905e-06
0.00170291 4.80761e-05 -1.48089e-06
4.80761e-05 8.51914e-05 -1.98265e-07
-1.48089e-06 -1.98265e-07 -2.3048e-05
0.00115735 2.8381e-05 -1.02354e-05
2.8381e-05 1.67222e-06 -1.49261e-06
-1.02354e-05 -1.49261e-06 -0.0001012
0.00143274 3.41958e-05 2.3291e-07
3.41958e-05 6.26596e-05 6.32545e-08
2.3291e-07 6.32545e-08 -5.6083e-05
0.00157034 3.63741e-05 2.89966e-07
3.63741e-05 7.34421e-05 -9.00102e-07
2.89966e-07 -9.00102e-07 -4.46275e-05
0.00067017 3.45645e-05 -1.5026e-05
3.45645e-05 -0.000101859 -3.25457e-06
-1.5026e-05 -3.25457e-06 -0.000162098
0.00115281 5.90934e-05 5.17418e-08
5.90934e-05 3.96791e-06 2.28623e-07
5.17418e-08 2.28623e-07 -0.000100202
0.0014095 6.64048e-05 4.60963e-06
6.64048e-05 5.25483e-05 8.56428e-07
4.60963e-06 8.56428e-07 -6.9042e-05
0.00506797 8.21161e-05 -0.000161279
8.21161e-05 0.00244772 -7.22949e-06
-0.000161279 -7.22949e-06 0.00244599
0.000654154 5.76837e-05 1.08723e-07
5.76837e-05 -0.000100011 1.33333e-07
1.08723e-07 1.33333e-07 -0.00016035
0.00111111 8.513e-05 7.56892e-06
8.513e-05 -6.75176e-06 2.24703e-06
7.56892e-06 2.24703e-06 -0.000112939
0.00498304 7.15048e-05 5.11107e-06
7.15048e-05 0.00241088 1.1405e-06
5.11107e-06 1.1405e-06 0.00240677
0.000614002 7.47748e-05 1.48547e-05
7.47748e-05 -0.000106924 5.68703e-06
1.48547e-05 5.68703e-06 -0.000169117
0.00479775 2.71983e-05 0.000133449
2.71983e-05 0.00231692 8.3666e-06
0.000133449 8.3666e-06 0.00231235
0.00120195 8.49091e-06 -1.09893e-05
8.49091e-06 1.86372e-05 -6.7543e-07
-1.09893e-05 -6.7543e-07 -8.72872e-05
0.00154602 1.30576e-05 1.93045e-06
1.30576e-05 0.000115731 5.98627e-08
1.93045e-06 5.98627e-08 -2.01496e-06
0.0017383 1.43523e-05 7.6329e-07
1.43523e-05 0.000143486 3.65323e-07
7.6329e-07 3.65323e-07 2.70762e-05
0.000715125 2.06504e-05 -1.64703e-05
2.06504e-05 -9.66784e-05 -2.87191e-07
-1.64703e-05 -2.87191e-07 -0.000157117
0.000807486 -4.4634e-06 -2.04693e-06
-4.4634e-06 -0.000203498 3.3024e-08
-2.04693e-06 3.3024e-08 -0.000313984
0.00176697 1.12128e-05 6.36516e-06
1.12128e-05 0.000233373 6.20393e-08
6.36516e-06 6.20393e-08 0.0001152
0.00080735 -4.26449e-06 7.94398e-06
-4.26449e-06 -0.000205737 -3.83095e-07
7.94398e-06 -3.83095e-07 -0.000317682
0.000696699 1.56885e-06 9.00175e-08
1.56885e-06 -0.000102188 2.99598e-07
9.00175e-08 2.99598e-07 -0.000166444
0.00528844 5.72483e-05 -0.00015772
5.72483e-05 0.00256386 -7.16226e-07
-0.00015772 -7.16226e-07 0.00256191
0.000676988 1.12653e-05 1.52374e-05
1.12653e-05 -0.000107962 -1.30081e-06
1.52374e-05 -1.30081e-06 -0.000171412
0.00522537 -4.33029e-05 -4.47588e-06
-4.33029e-05 0.00253038 1.03118e-06
-4.47588e-06 1.03118e-06 0.00252833
0.0051315 5.43973e-05 0.00014517
5.43973e-05 0.00248115 -1.64096e-06
0.00014517 -1.64096e-06 0.00247876
0.00118107 1.41343e-05 -1.0776e-05
1.41343e-05 1.13723e-05 -1.4616e-06
-1.0776e-05 -1.4616e-06 -9.25381e-05
0.00138768 2.00476e-05 8.20718e-08
2.00476e-05 3.71122e-05 -9.57198e-08
8.20718e-08 -9.57198e-08 -8.07159e-05
0.00160087 3.21164e-05 3.79075e-07
3.21164e-05 8.7255e-05 -6.11106e-07
3.79075e-07 -6.11106e-07 -2.71236e-05
0.00252835 2.08917e-05 -8.21489e-05
2.08917e-05 0.000924206 -2.32219e-06
-8.21489e-05 -2.32219e-06 0.000878992
0.00116746 3.04742e-05 1.53622e-07
3.04742e-05 6.77389e-06 1.18346e-07
1.53622e-07 1.18346e-07 -9.62891e-05
0.00141058 3.40005e-05 4.36718e-06
3.40005e-05 5.03468e-05 2.82545e-07
4.36718e-06 2.82545e-07 -6.8576e-05
0.00507438 8.301e-05 -0.000165151
8.301e-05 0.0024513 -5.58209e-06
-0.000165151 -5.58209e-06 0.00244851
0.000697242 3.89513e-05 2.65844e-07
3.89513e-05 -8.60635e-05 1.80437e-07
2.65844e-07 1.80437e-07 -0.000146702
0.00115915 6.08664e-05 1.04981e-05
6.08664e-05 7.53743e-06 2.33643e-06
1.04981e-05 2.33643e-06 -9.69294e-05
0.0050398 9.52887e-05 4.36353e-07
9.52887e-05 0.00243665 1.09998e-06
4.36353e-07 1.09998e-06 0.00243335
0.000665658 5.75716e-05 1.50538e-05
5.75716e-05 -9.29487e-05 4.7114e-06
1.50538e-05 4.7114e-06 -0.000153428
0.00492306 8.76945e-05 0.000147723
8.76945e-05 0.00237973 9.29202e-06
0.000147723 9.29202e-06 0.00237545
0.000749472 7.90739e-06 -1.59233e-05
7.90739e-06 -7.14906e-05 -1.62912e-06
-1.59233e-05 -1.62912e-06 -0.000134822
0.0010064 5.94908e-06 5.28541e-07
5.94908e-06 -8.93704e-05 3.32383e-07
5.28541e-07 3.32383e-07 -0.000196689
0.00135982 7.87429e-06 5.79483e-06
7.87429e-06 1.22883e-05 4.47928e-07
5.79483e-06 4.47928e-07 -0.000106982
0.00527375 -8.16343e-05 -0.000143838
-8.16343e-05 0.00256697 -1.88807e-06
-0.000143838 -1.88807e-06 0.00255786
0.000705306 9.04798e-06 -2.16336e-07
9.04798e-06 -9.8739e-05 2.41889e-07
-2.16336e-07 2.41889e-07 -0.000161061
0.00081125 1.27871e-06 8.11134e-06
1.27871e-06 -0.000202409 1.24234e-07
8.11134e-06 1.24234e-07 -0.000313041
0.000681875 1.61187e-05 1.55987e-05
1.61187e-05 -0.000110403 6.77846e-09
1.55987e-05 6.77846e-09 -0.000174635
0.00530087 3.01249e-05 3.40664e-06
3.01249e-05 0.00257364 4.19528e-07
3.40664e-06 4.19528e-07 0.00256914
0.00528153 5.77697e-05 0.000149044
5.77697e-05 0.00255887 -1.80912e-07
0.000149044 -1.80912e-07 0.00255688
0.00258774 -3.27184e-06 -8.30773e-05
-3.27184e-06 0.000950752 -1.85377e-06
-8.30773e-05 -1.85377e-06 0.000904687
0.00119363 1.65201e-05 -4.11684e-08
1.65201e-05 1.78346e-05 8.15851e-09
-4.11684e-08 8.15851e-09 -8.61041e-05
0.0012975 1.88685e-05 4.18793e-06
1.88685e-05 -1.36424e-05 2.3223e-07
4.18793e-06 2.3223e-07 -0.00013162
0.00483458 -3.45921e-05 -2.9431e-05
-3.45921e-05 0.00232728 -7.43849e-07
-2.9431e-05 -7.43849e-07 0.00231507
0.000721479 2.53877e-05 -5.27384e-08
2.53877e-05 -7.66886e-05 2.13066e-07
-5.27384e-08 2.13066e-07 -0.000138266
0.0011929 3.31978e-05 1.04453e-05
3.31978e-05 1.9956e-05 1.78295e-06
1.04453e-05 1.78295e-06 -8.3259e-05
0.00509357 5.80622e-05 -8.48113e-06
5.80622e-05 0.00246013 8.66152e-08
-8.48113e-06 8.66152e-08 0.00245885
0.000728476 5.01125e-05 1.60779e-05
5.01125e-05 -6.73748e-05 3.92015e-06
1.60779e-05 3.92015e-06 -0.000128737
0.00501088 0.00011063 0.000155708
0.00011063 0.00242459 9.13241e-06
0.000155708 9.13241e-06 0.00241978
0.00169646 -2.77998e-05 -0.000141716
-2.77998e-05 0.000563206 3.34829e-07
-0.000141716 3.34829e-07 0.000543098
0.00165497 1.54469e-05 -3.39049e-05
1.54469e-05 0.000429419 3.23203e-07
-3.39049e-05 3.23203e-07 0.000376492
0.00081372 6.18873e-06 1.07035e-05
6.18873e-06 -0.000195753 1.1534e-06
1.07035e-05 1.1534e-06 -0.00030449
0.00526508 -3.29829e-05 8.41212e-06
-3.29829e-05 0.00255885 -7.66675e-07
8.41212e-06 -7.66675e-07 0.00255251
0.00069241 -1.31163e-06 1.62291e-05
-1.31163e-06 -0.000103291 8.3381e-07
1.62291e-05 8.3381e-07 -0.000166834
0.00530404 -4.30787e-05 0.000164387
-4.30787e-05 0.00257359 1.74313e-07
0.000164387 1.74313e-07 0.00257064
0.00138092 -4.50579e-05 -1.03549e-05
-4.50579e-05 0.000408368 -8.41226e-07
-1.03549e-05 -8.41226e-07 0.000374285
0.00164932 9.71358e-06 -3.36365e-05
9.71358e-06 0.000432353 -9.55066e-08
-3.36365e-05 -9.55066e-08 0.000378533
0.00119504 1.71757e-05 1.05291e-05
1.71757e-05 1.84798e-05 1.51708e-06
1.05291e-05 1.51708e-06 -8.55152e-05
0.00323422 3.67558e-05 5.90883e-05
3.67558e-05 0.00143184 6.03872e-07
5.90883e-05 6.03872e-07 0.00141459
0.000734813 3.39504e-05 1.6294e-05
3.39504e-05 -6.92621e-05 3.2345e-06
1.6294e-05 3.2345e-06 -0.00013112
0.0050858 9.98261e-05 0.000155029
9.98261e-05 0.00246098 7.28198e-06
0.000155029 7.28198e-06 0.00245716
0.00520615 -2.91454e-05 -9.40929e-06
-2.91454e-05 0.00252802 1.53185e-07
-9.40929e-06 1.53185e-07 0.00252155
0.000709299 2.59247e-05 1.6744e-05
2.59247e-05 -9.45953e-05 1.66085e-06
1.6744e-05 1.66085e-06 -0.000154663
0.0052322 6.38109e-05 0.000147907
6.38109e-05 0.00254069 -1.31842e-06
0.000147907 -1.31842e-06 0.0025348
0.00326409 2.3473e-05 7.27042e-05
2.3473e-05 0.00144802 1.09438e-06
7.27042e-05 1.09438e-06 0.00143034
0.000722322 8.86093e-06 1.59432e-05
8.86093e-06 -8.00667e-05 2.40488e-06
1.59432e-05 2.40488e-06 -0.00014205
0.00511732 -2.11229e-05 0.000146122
-2.11229e-05 0.00247212 3.69612e-06
0.000146122 3.69612e-06 0.00247094
0.00517886 -0.000130216 0.000141919
-0.000130216 0.00252007 -2.6569e-07
0.000141919 -2.6569e-07 0.00250904
0.00513655 -5.06638e-05 0.000143214
-5.06638e-05 0.00248334 1.59891e-06
0.000143214 1.59891e-06 0.00248137
