# vtk DataFile Version 2.0
Wound Healing Simulation
ASCII
DATASET UNSTRUCTURED_GRID
POINTS 3012 float
69.9759 18.75 4
67.2507 60.3285 4
69.976 18.75 2
73.0099 25.446 4
71.1327 20.9142 4
68.6801 16.6661 4
67.8251 19.9262 3.98157
67.2507 60.3286 2
71.1327 54.0858 4
68.6801 58.3339 4
65.6939 62.2254 4
65.3115 59.0007 3.98033
74.6784 42.3946 4
73.7221 47.2057 4
69.9759 18.75 0
73.0099 25.446 2
68.6801 16.6661 2
71.1327 20.9142 2
67.8256 19.9293 2
74.6792 32.6053 4
73.7222 27.7943 4
72.1454 23.1494 4
70.6137 26.2208 3.98101
68.8852 21.958 3.98188
67.2507 14.6715 4
66.6365 17.9723 3.98067
65.7951 21.0264 3.97133
67.2507 60.3285 0
71.1327 54.0858 2
68.6801 58.3339 2
65.694 62.2255 2
65.3127 58.9971 2
72.1454 51.8506 4
69.9759 56.25 4
68.8359 53.1129 3.98089
64.0165 64.0165 4
66.6102 57.1335 3.98115
63.8849 60.7653 3.98135
63.498 57.7686 3.97186
60.3285 67.2507 4
74.6792 42.3947 2
73.7222 47.2057 2
74.9194 39.9526 4
74.2788 44.8158 4
72.1679 42.0854 3.98037
73.0099 49.554 4
71.2489 46.5979 3.98014
73.0099 25.446 0
71.1327 20.9142 0
68.6801 16.6661 0
67.8251 19.9262 0.0184302
74.6792 32.6053 2
73.7222 27.7943 2
67.2508 14.6715 2
72.1455 23.1494 2
70.6137 26.2213 2
66.6374 17.9761 2
68.8855 21.9601 2
65.7946 21.0272 2
74.9197 35.0474 4
74.2794 30.1841 4
72.1846 32.9432 3.98073
71.2778 28.4313 3.9805
69.8151 24.0595 3.98162
68.3451 26.9519 3.97008
66.7606 22.934 3.97072
65.694 12.7746 4
65.3228 16.1042 3.98017
64.7115 19.197 3.97213
63.8822 22.039 3.9675
71.1327 54.0858 0
65.6939 62.2254 0
68.6801 58.3339 0
65.3115 59.0007 0.0196683
72.1455 51.8506 2
69.9759 56.25 2
68.8361 53.111 2
64.0165 64.0165 2
66.6111 57.1299 2
63.8865 60.7621 2
63.4975 57.7685 2
62.2254 65.694 4
58.8943 65.414 3.9902
69.7685 50.9888 3.98081
67.7832 55.1671 3.98099
66.6474 52.2081 3.96969
62.3356 62.4272 3.98531
64.6589 56.0299 3.97191
62.2 59.3995 3.97094
61.8173 56.6747 3.96762
58.3339 68.6801 4
60.3285 67.2508 2
73.7221 47.2057 0
74.6784 42.3946 0
74.9197 39.9526 2
74.2794 44.8159 2
72.1675 42.0854 2
73.0099 49.554 2
71.2488 46.5978 2
75 37.5 4
72.4052 39.8021 3.98091
71.7822 44.3527 3.98042
69.8026 41.7891 3.96994
70.5747 48.8134 3.98035
68.9105 46.0139 3.96956
74.6792 32.6053 0
73.7222 27.7943 0
67.2507 14.6715 0
72.1454 23.1494 0
70.6137 26.2208 0.0189887
68.8852 21.958 0.0181231
66.6365 17.9723 0.0193338
65.7951 21.0264 0.0286698
74.9197 35.0474 2
74.2794 30.1841 2
72.1841 32.9436 2
71.2777 28.4317 2
65.694 12.7745 2
65.3241 16.1083 2
69.8152 24.0606 2
68.345 26.9524 2
64.7109 19.1977 2
66.7602 22.9348 2
63.8816 22.0394 2
72.413 35.2241 3.981
71.8036 30.6762 3.98078
69.8386 33.2684 3.97028
68.9644 29.0385 3.97002
67.6094 24.9126 3.97028
66.1889 27.6365 3.96733
64.0165 10.9835 4
64.7521 23.8327 3.96755
63.8893 14.328 3.98261
63.5103 17.4512 3.97173
62.9015 20.3256 3.96739
62.0704 22.9536 3.96705
60.6835 11.0984 3.9865
57.6115 11.4519 3.97805
72.1454 51.8506 0
69.9759 56.25 0
68.8359 53.1129 0.0191116
64.0165 64.0165 0
63.8849 60.7653 0.0186528
66.6102 57.1335 0.0188488
63.498 57.7686 0.0281361
62.2255 65.694 2
58.8956 65.4133 2
69.7685 50.9879 2
67.7837 55.1642 2
66.6469 52.2073 2
62.3374 62.4249 2
64.6583 56.0295 2
62.1994 59.3999 2
61.8168 56.6747 2
60.6683 63.9767 3.98767
57.0254 66.7347 3.99138
57.5572 63.6894 3.98078
67.5057 50.1757 3.96936
65.6999 54.1719 3.97044
64.5324 51.3816 3.96637
60.7715 60.9341 3.9757
62.8152 55.0629 3.9672
60.6512 58.1491 3.96519
60.3193 55.7748 3.96732
56.25 69.9759 4
58.3339 68.6801 2
60.3285 67.2507 0
58.9208 9.65657 3.98785
62.2254 9.30607 4
73.0099 49.554 0
74.2788 44.8158 0
71.2489 46.5979 0.0198614
72.1679 42.0854 0.0196283
74.9194 39.9526 0
75 37.5 2
72.4051 39.8023 2
71.7821 44.3525 2
69.8021 41.7888 2
70.5746 48.8132 2
68.9105 46.0134 2
72.4886 37.512 3.98062
70.0399 39.657 3.97003
69.4288 43.9068 3.96983
67.5907 41.496 3.96813
68.2641 48.1061 3.96933
66.7001 45.4369 3.96737
74.9197 35.0474 0
74.2794 30.1841 0
72.1846 32.9432 0.0192737
71.2778 28.4313 0.019504
65.694 12.7746 0
65.3228 16.1042 0.0198267
69.8151 24.0595 0.0183828
68.3451 26.9519 0.0299179
66.7606 22.934 0.0292763
64.7115 19.197 0.0278748
63.8822 22.039 0.0324973
72.413 35.2242 2
71.8036 30.6767 2
69.8381 33.2688 2
68.9644 29.0389 2
64.0165 10.9835 2
63.8913 14.3313 2
63.5097 17.452 2
67.6092 24.9132 2
66.189 27.6368 2
62.9009 20.326 2
64.7516 23.8331 2
62.0695 22.954 2
60.6856 11.1007 2
57.6123 11.4507 2
70.0566 35.3919 3.97027
69.4656 31.1496 3.97006
67.651 33.5915 3.96806
66.766 29.6244 3.9675
65.5191 25.7014 3.96737
64.1034 28.2647 3.96959
62.3412 12.6555 3.98521
62.8282 24.6473 3.96791
62.1965 15.7902 3.97312
61.8061 18.6933 3.96703
61.1985 21.3533 3.96559
60.3708 23.7469 3.96869
59.2452 12.7837 3.97651
55.8739 10.2368 3.98073
56.4037 13.1248 3.97455
69.7685 50.9888 0.0191853
62.2254 65.694 0
58.8943 65.414 0.00979796
67.7832 55.1671 0.0190061
66.6474 52.2081 0.0303081
62.3356 62.4272 0.0146851
62.2 59.3995 0.0290649
64.6589 56.0299 0.0280867
61.8173 56.6747 0.0323847
60.6699 63.9752 2
57.0263 66.7344 2
57.5574 63.691 2
67.5054 50.175 2
65.6993 54.1713 2
64.5321 51.3813 2
60.7714 60.9352 2
62.8146 55.0628 2
60.6508 58.1492 2
60.3189 55.7746 2
55.0712 67.9316 3.99193
59.218 62.3625 3.9771
55.8044 64.9086 3.98459
56.3252 62.0832 3.9753
65.3241 49.4046 3.96656
63.7011 53.2881 3.9667
62.4049 50.6388 3.9669
59.3291 59.549 3.97018
61.0664 54.2988 3.96583
59.2743 56.9955 3.96351
59.23 55.1679 3.96554
48.1022 68.5775 3.98745
50.949 69.9312 3.9921
54.0858 71.1327 4
56.25 69.976 2
58.3339 68.6801 0
57.0583 8.33633 3.98923
60.3285 7.74928 4
58.9228 9.65795 2
62.2255 9.30602 2
70.5747 48.8134 0.0196539
71.7822 44.3527 0.0195784
68.9105 46.0139 0.0304423
69.8026 41.7891 0.0300617
72.4052 39.8021 0.0190932
75 37.5 0
72.4881 37.5121 2
70.0398 39.6569 2
69.4287 43.9064 2
67.5906 41.4958 2
68.264 48.1055 2
66.6997 45.4366 2
70.1279 37.5213 3.9702
67.8301 39.5114 3.96824
67.2144 43.4676 3.96776
65.5018 41.204 3.9715
66.0595 47.4146 3.967
64.5957 44.8381 3.96988
72.413 35.2241 0.0190016
71.8036 30.6762 0.0192207
69.8386 33.2684 0.0297212
68.9644 29.0385 0.0299824
64.0165 10.9835 0
63.8893 14.328 0.0173888
63.5103 17.4512 0.0282741
67.6094 24.9126 0.0297215
66.1889 27.6365 0.0326696
64.7521 23.8327 0.0324454
62.9015 20.3256 0.0326063
62.0704 22.9536 0.0329513
60.6835 11.0984 0.0134986
57.6115 11.4519 0.0219463
70.0566 35.3921 2
69.4655 31.15 2
67.651 33.5917 2
66.7661 29.6246 2
62.3432 12.6586 2
62.1963 15.7899 2
61.8054 18.6936 2
65.5189 25.7017 2
64.1026 28.265 2
61.1975 21.3536 2
62.8277 24.6476 2
60.3707 23.7474 2
59.2458 12.7834 2
56.4043 13.1232 2
55.8746 10.2356 2
67.867 35.5477 3.96828
67.2598 31.6235 3.9678
65.6547 33.9305 3.97151
64.6162 30.1998 3.97017
63.5034 26.4239 3.96888
62.1711 28.7941 3.97331
60.7742 14.228 3.97625
60.9806 25.3566 3.97053
60.6054 17.1395 3.96752
60.2045 19.8304 3.96422
59.6069 22.2798 3.96592
58.8955 24.3473 3.97123
54.0372 9.13833 3.98259
57.9078 14.3423 3.97542
54.7856 12.0199 3.97565
55.3089 14.6634 3.97324
67.5057 50.1757 0.0306443
57.0254 66.7347 0.00862426
60.6683 63.9767 0.0123265
57.5572 63.6894 0.0192177
65.6999 54.1719 0.0295592
64.5324 51.3816 0.0336252
60.7715 60.9341 0.0242981
60.6512 58.1491 0.0348131
62.8152 55.0629 0.0328049
60.3193 55.7748 0.0326756
55.0718 67.9315 2
59.218 62.3638 2
55.8043 64.9096 2
56.3248 62.0851 2
65.3239 49.4043 2
63.7005 53.2878 2
62.4051 50.6387 2
59.3286 59.5506 2
61.0663 54.2987 2
59.2741 56.9952 2
59.2298 55.1675 2
53.0432 68.9993 3.99201
53.9668 66.0119 3.98611
57.8778 60.8623 3.97503
54.6833 63.2037 3.97998
55.2083 60.6024 3.97492
63.1476 48.6479 3.96806
61.7179 52.5632 3.96625
60.1934 49.9956 3.96881
58.0079 58.249 3.96832
59.3043 53.9299 3.96713
58.0994 55.7917 3.96393
50.1089 67.8558 3.98722
47.463 66.5782 3.98408
46.0558 69.1566 3.98761
48.1022 68.5782 2
48.803 70.7225 3.99219
50.9494 69.9312 2
51.8506 72.1454 4
54.0858 71.1327 2
56.25 69.9759 0
55.103 7.14073 3.99061
58.3339 6.31992 4
57.0599 8.33703 2
60.3286 7.74926 2
58.9208 9.65657 0.0121523
62.2254 9.30607 0
68.2641 48.1061 0.0306743
69.4288 43.9068 0.0301712
66.7001 45.4369 0.0326276
67.5907 41.496 0.0318679
70.0399 39.657 0.0299679
72.4886 37.512 0.0193817
70.1276 37.5213 2
67.83 39.5113 2
67.2149 43.4674 2
65.5009 41.2038 2
66.0596 47.4143 2
64.5945 44.8377 2
67.9279 37.5216 3.96836
65.7387 39.3669 3.97192
65.1216 43.0173 3.97086
63.6503 40.92 3.97564
63.9103 46.7045 3.96897
62.7016 44.1992 3.97374
70.0566 35.3919 0.0297298
69.4656 31.1496 0.0299368
67.651 33.5915 0.0319419
66.766 29.6244 0.0325032
62.3412 12.6555 0.014792
62.1965 15.7902 0.0268779
61.8061 18.6933 0.032968
65.5191 25.7014 0.0326318
64.1034 28.2647 0.0304136
62.8282 24.6473 0.0320858
61.1985 21.3533 0.0344066
60.3708 23.7469 0.0313081
59.2452 12.7837 0.0234912
56.4037 13.1248 0.0254477
55.8739 10.2368 0.0192719
67.8669 35.5477 2
67.2601 31.6237 2
65.6542 33.9306 2
64.6155 30.2001 2
60.774 14.2282 2
60.6053 17.1386 2
60.2043 19.8302 2
63.5028 26.4242 2
62.1698 28.7946 2
59.6088 22.28 2
60.9803 25.3571 2
58.8947 24.3482 2
57.9077 14.3414 2
55.3091 14.6631 2
54.0377 9.13699 2
54.7862 12.0179 2
65.8292 35.668 3.97164
65.1365 32.1601 3.97077
64.2022 34.2545 3.97575
62.4857 30.6506 3.97402
61.5732 27.0904 3.97171
60.7295 29.1617 3.97692
59.3069 15.6782 3.97246
59.2265 25.824 3.97421
59.1084 18.3729 3.96563
58.7037 20.8756 3.96336
58.2024 23.1218 3.96654
57.8659 24.6975 3.9731
52.112 8.1554 3.98464
53.0575 11.0236 3.9781
56.6713 15.7577 3.9745
53.8069 13.6953 3.97521
54.3689 16.0192 3.97478
55.0712 67.9316 0.00807123
65.3241 49.4046 0.0334419
55.8044 64.9086 0.0154075
59.218 62.3625 0.0229015
56.3252 62.0832 0.0247011
63.7011 53.2881 0.0333048
62.4049 50.6388 0.0331043
59.3291 59.549 0.0298232
59.2743 56.9955 0.0364913
61.0664 54.2988 0.0341735
59.23 55.1679 0.0344568
53.0437 68.9994 2
53.9668 66.0127 2
57.8772 60.8637 2
54.6828 63.2047 2
55.2081 60.6041 2
63.1472 48.6476 2
61.7188 52.5632 2
60.1931 49.9951 2
58.0074 58.2505 2
59.3059 53.9297 2
58.0985 55.7911 2
52.0702 66.9988 3.98694
52.9533 64.2158 3.9826
56.6425 59.4773 3.97452
53.6792 61.6156 3.97674
54.2528 59.3045 3.97428
60.8886 47.8567 3.96949
59.6491 52.0828 3.96772
57.9072 49.5838 3.97036
56.7584 56.9658 3.96712
57.0768 54.0976 3.96526
50.1089 67.8562 2
49.3369 65.9188 3.98395
47.463 66.5789 2
46.8924 64.7317 3.98238
45.558 67.0952 3.9842
43.9729 69.5888 3.98777
46.0558 69.1572 2
46.6096 71.3669 3.99222
48.1022 68.5775 0.0125544
48.8035 70.7227 2
49.554 73.0099 4
50.949 69.9312 0.00790482
51.8506 72.1455 2
54.0858 71.1327 0
53.0646 6.07206 3.99142
55.1043 7.14083 2
56.25 5.02411 4
58.3339 6.3199 2
57.0583 8.33633 0.0107668
60.3285 7.74928 0
66.0595 47.4146 0.032996
67.2144 43.4676 0.0322419
64.5957 44.8381 0.0301172
65.5018 41.204 0.0284971
67.8301 39.5114 0.0317564
70.1279 37.5213 0.0297963
67.9276 37.5216 2
65.7376 39.3667 2
65.1207 43.017 2
63.6484 40.9197 2
63.9093 46.7041 2
62.6995 44.1987 2
65.8435 37.5007 3.97175
63.7973 39.2609 3.97565
63.2148 42.5362 3.97459
62.2845 40.684 3.97699
61.8622 45.8985 3.97161
61.3045 43.6615 3.97726
67.867 35.5477 0.0317203
67.2598 31.6235 0.0321995
65.6547 33.9305 0.0284898
64.6162 30.1998 0.0298289
60.7742 14.228 0.023752
60.6054 17.1395 0.0324752
60.2045 19.8304 0.0357795
63.5034 26.4239 0.0311184
62.1711 28.7941 0.0266853
60.9806 25.3566 0.0294679
59.6069 22.2798 0.0340815
58.8955 24.3473 0.0287674
57.9078 14.3423 0.0245814
55.3089 14.6634 0.026756
54.0372 9.13833 0.0174064
54.7856 12.0199 0.0243457
65.8281 35.6681 2
65.136 32.1603 2
64.2015 34.2546 2
62.4844 30.651 2
59.3061 15.6783 2
59.1089 18.3721 2
58.7069 20.8756 2
61.5724 27.0909 2
60.7289 29.1622 2
58.2015 23.1228 2
59.2261 25.8248 2
57.8655 24.6986 2
56.6709 15.7568 2
54.3687 16.0196 2
53.8071 13.6921 2
52.1123 8.15438 2
53.0578 11.0221 2
63.9978 35.6342 3.97512
62.8168 33.0563 3.97522
60.4681 30.633 3.97697
59.4435 27.9371 3.9752
57.9304 16.9986 3.96998
57.6207 25.7608 3.97581
57.6884 19.4988 3.96281
57.2993 21.8722 3.96316
57.0719 23.9847 3.96807
50.1124 7.28612 3.98679
51.2324 10.1293 3.98037
52.1701 12.8069 3.97673
55.5271 16.9915 3.97344
52.9729 15.2854 3.97264
53.7472 17.0043 3.97838
53.0432 68.9993 0.00799424
53.9668 66.0119 0.0138901
63.1476 48.6479 0.031936
54.6833 63.2037 0.0200207
57.8778 60.8623 0.0249739
55.2083 60.6024 0.025081
61.7179 52.5632 0.0337468
60.1934 49.9956 0.0311899
58.0079 58.249 0.0316816
58.0994 55.7917 0.0360732
59.3043 53.9299 0.0328714
52.0701 66.9994 2
52.953 64.2165 2
56.6421 59.4784 2
53.6787 61.6163 2
54.2527 59.3063 2
60.8874 47.856 2
59.6491 52.0824 2
57.9042 49.5827 2
56.7572 56.9701 2
57.0755 54.097 2
51.1681 65.1257 3.98399
52.0453 62.5338 3.97955
55.4694 58.2352 3.97469
52.8291 60.1213 3.97728
53.6281 58.4545 3.97925
58.1469 46.8131 3.97394
57.4796 51.7569 3.96708
56.099 49.5148 3.97069
55.4404 55.7655 3.96219
55.291 53.3513 3.96322
50.1089 67.8558 0.0127846
49.3369 65.9192 2
48.6181 64.1187 3.98282
47.463 66.5782 0.01592
45.5581 67.0958 2
46.8924 64.7322 2
46.382 63.0471 3.98205
45.1326 65.1925 3.98235
43.6313 67.4658 3.9843
41.8603 69.8761 3.98761
43.9729 69.5893 2
44.3769 71.8618 3.99217
46.0558 69.1566 0.0123876
46.6099 71.3672 2
47.2057 73.7222 4
48.803 70.7225 0.00780509
49.554 73.0099 2
51.8506 72.1454 0
50.9546 5.13237 3.99207
53.0654 6.07205 2
54.0858 3.86728 4
55.103 7.14073 0.00939209
56.25 5.02406 2
58.3339 6.31992 0
63.9103 46.7045 0.0310343
65.1216 43.0173 0.0291442
62.7016 44.1992 0.0262551
63.6503 40.92 0.0243579
65.7387 39.3669 0.0280771
67.9279 37.5216 0.031644
65.8425 37.5007 2
63.7958 39.2608 2
63.2129 42.5357 2
62.2823 40.6835 2
61.8604 45.8979 2
61.3025 43.6608 2
63.8579 37.4551 3.97488
62.0044 39.3466 3.97688
61.0498 41.938 3.97685
60.0985 44.7432 3.97613
65.8292 35.668 0.0283603
65.1365 32.1601 0.0292293
64.2022 34.2545 0.0242506
62.4857 30.6506 0.0259791
59.3069 15.6782 0.0275369
59.1084 18.3729 0.0343669
58.7037 20.8756 0.036641
61.5732 27.0904 0.0282941
60.7295 29.1617 0.0230797
59.2265 25.824 0.0257855
58.2024 23.1218 0.0334617
57.8659 24.6975 0.0269001
56.6713 15.7577 0.0255035
54.3689 16.0192 0.0252171
53.8069 13.6953 0.0247871
52.112 8.1554 0.0153649
53.0575 11.0236 0.0219037
63.9966 35.6342 2
62.8155 33.0567 2
60.4667 30.6335 2
57.9294 16.9987 2
57.6901 19.4973 2
57.3013 21.8727 2
59.4426 27.9379 2
57.0709 23.9861 2
57.6207 25.7619 2
50.1126 7.28476 2
55.5268 16.991 2
53.7468 17.0039 2
52.973 15.2846 2
52.1707 12.8058 2
51.2327 10.1281 2
62.0427 35.3665 3.97669
60.1086 32.7645 3.97691
58.4436 30.1081 3.97709
57.1324 27.4209 3.97648
56.6191 18.1771 3.96838
56.1586 25.1459 3.97346
56.3141 20.5507 3.9609
56.0044 22.9107 3.96342
48.0566 6.52802 3.98849
49.3247 9.33466 3.98217
50.4322 12.002 3.97787
51.3733 14.5119 3.97351
54.3981 17.9439 3.97447
52.3506 17.0658 3.97041
52.0702 66.9988 0.0130642
52.9533 64.2158 0.0174002
60.8886 47.8567 0.0305126
53.6792 61.6156 0.0232557
56.6425 59.4773 0.0254808
54.2528 59.3045 0.0257169
59.6491 52.0828 0.0322775
57.9072 49.5838 0.0296401
56.7584 56.9658 0.0328836
57.0768 54.0976 0.0347413
51.1679 65.1263 2
52.0449 62.5343 2
55.4689 58.2364 2
52.829 60.1247 2
53.6277 58.4556 2
58.1455 46.8122 2
57.4779 51.7561 2
56.0954 49.5138 2
55.4403 55.7658 2
55.2933 53.3518 2
50.3461 63.3774 3.98239
51.2412 60.9273 3.97665
54.1996 57.2512 3.97457
52.3021 58.6138 3.97494
56.4743 44.1363 3.97747
55.3002 47.8495 3.97307
54.9612 51.3524 3.96622
53.9546 54.5121 3.9652
49.3369 65.9188 0.0160487
48.6181 64.1191 2
47.9619 62.469 3.98165
45.558 67.0952 0.0158042
46.8924 64.7317 0.0176222
43.6312 67.4664 2
46.3822 63.0476 2
45.1327 65.1931 2
45.9873 61.5781 3.98299
44.7673 63.447 3.98097
43.3568 65.5017 3.98208
41.6635 67.6844 3.98417
39.7022 70.0229 3.98782
41.8602 69.8766 2
42.1112 72.2066 3.99217
43.9729 69.5888 0.0122345
44.3772 71.862 2
44.8159 74.2794 4
46.6096 71.3669 0.00778375
47.2057 73.7222 2
49.554 73.0099 0
48.7853 4.32295 3.99262
50.9552 5.13191 2
51.8506 2.85458 4
53.0646 6.07206 0.00858434
54.0858 3.86728 2
56.25 5.02411 0
61.8622 45.8985 0.0283913
63.2148 42.5362 0.0254063
61.3045 43.6615 0.0227437
62.2845 40.684 0.0230142
63.7973 39.2609 0.0243469
65.8435 37.5007 0.0282532
63.8565 37.4551 2
62.0023 39.3465 2
61.048 41.9373 2
60.0971 44.7424 2
61.8423 37.4445 3.97748
60.0414 39.8284 3.97724
58.7723 42.8836 3.97733
63.9978 35.6342 0.02488
62.8168 33.0563 0.024783
60.4681 30.633 0.0230327
57.9304 16.9986 0.030016
57.6884 19.4988 0.0371933
57.2993 21.8722 0.036835
59.4435 27.9371 0.0247957
57.6207 25.7608 0.0241897
57.0719 23.9847 0.0319288
55.5271 16.9915 0.0265641
53.7472 17.0043 0.0216243
52.9729 15.2854 0.0273553
50.1124 7.28612 0.0132114
52.1701 12.8069 0.0232663
51.2324 10.1293 0.0196328
62.0411 35.3669 2
60.1063 32.7649 2
58.443 30.109 2
56.6182 18.1773 2
56.3171 20.5479 2
56.0062 22.9118 2
57.1332 27.4219 2
56.1598 25.1473 2
48.0567 6.52684 2
49.325 9.33314 2
54.3981 17.9437 2
52.3501 17.0657 2
51.373 14.5091 2
50.4327 12.0007 2
59.687 35.1328 3.9772
57.7534 32.3039 3.97695
56.3472 29.3851 3.9774
55.2552 26.6538 3.9772
55.3137 19.2143 3.96607
54.7968 24.1092 3.96397
54.9332 21.6013 3.95982
45.9627 5.88279 3.989
43.3742 7.47403 3.986
47.3555 8.62579 3.98436
48.5997 11.2999 3.97925
49.7101 13.7539 3.97737
50.6257 16.1561 3.97654
53.1026 18.6905 3.96962
51.2849 18.0844 3.97893
51.1681 65.1257 0.0160127
52.0453 62.5338 0.0204498
58.1469 46.8131 0.026061
52.8291 60.1213 0.0227201
55.4694 58.2352 0.0253084
53.6281 58.4545 0.0207465
57.4796 51.7569 0.0329184
56.099 49.5148 0.0293125
55.4404 55.7655 0.0378073
55.291 53.3513 0.0367812
50.3459 63.3775 2
51.2408 60.9273 2
54.1995 57.2525 2
52.3017 58.6147 2
56.4734 44.1355 2
55.2995 47.8486 2
54.9623 51.3523 2
53.9552 54.5132 2
49.5912 61.7396 3.98112
55.3026 41.6728 3.97614
50.5591 59.315 3.97439
52.1582 56.4678 3.96775
53.918 45.5053 3.97479
53.1617 49.281 3.96965
52.5841 52.8165 3.96276
48.6181 64.1187 0.0171806
47.9619 62.469 2
47.3277 61.0016 3.98408
43.6313 67.4658 0.0156998
45.1326 65.1925 0.0176454
46.382 63.0471 0.0179458
41.6636 67.6846 2
43.3568 65.5025 2
45.9875 61.5787 2
44.7675 63.4477 2
45.7644 60.6217 3.98206
44.4836 61.8259 3.98102
43.1466 63.7188 3.98037
41.5464 65.6393 3.9814
39.6328 67.7638 3.98386
37.5261 70.0477 3.9874
39.7022 70.0235 2
39.8179 72.4036 3.99199
41.8603 69.8761 0.012385
42.1114 72.2069 2
42.3947 74.6792 4
44.3769 71.8618 0.00782808
44.8159 74.2794 2
47.2057 73.7222 0
43.852 5.35969 3.98901
46.5712 3.64738 3.99277
48.7856 4.32249 2
49.554 1.99015 4
50.9546 5.13237 0.00793331
51.8506 2.85453 2
54.0858 3.86728 0
60.0985 44.7432 0.0238679
61.0498 41.938 0.0231525
62.0044 39.3466 0.0231224
63.8579 37.4551 0.0251242
61.8407 37.4447 2
60.0403 39.8283 2
58.771 42.8828 2
59.5433 37.5647 3.97743
57.7277 40.6299 3.97744
54.735 39.6868 3.97579
62.0427 35.3665 0.0233077
60.1086 32.7645 0.0230885
58.4436 30.1081 0.0229117
56.6191 18.1771 0.0316206
56.3141 20.5507 0.0390955
56.0044 22.9107 0.0365791
57.1324 27.4209 0.0235162
56.1586 25.1459 0.0265412
54.3981 17.9439 0.0255259
52.3506 17.0658 0.0295903
51.3733 14.5119 0.0264925
48.0566 6.52802 0.0115058
49.3247 9.33466 0.0178273
50.4322 12.002 0.0221251
59.6861 35.1328 2
45.9625 5.88217 2
43.3741 7.47339 2
57.7528 32.3048 2
56.3467 29.386 2
55.3131 19.2151 2
54.9379 21.6007 2
54.7956 24.1113 2
55.2512 26.6558 2
47.3557 8.62381 2
48.6001 11.2982 2
53.1029 18.69 2
51.2849 18.0858 2
50.6257 16.1559 2
49.7101 13.7529 2
57.1168 34.7752 3.97731
55.4757 31.5609 3.97729
54.2691 28.4712 3.97779
53.6115 25.563 3.97607
53.9288 20.1706 3.96603
53.4849 22.7634 3.95612
41.3993 7.07976 3.9863
45.3604 7.99548 3.98648
42.8662 9.41731 3.98298
46.6669 10.6571 3.98151
47.7429 13.1107 3.97934
48.9255 15.4164 3.97472
49.9918 17.7219 3.97561
51.6211 19.3621 3.97798
50.3461 63.3774 0.017605
51.2412 60.9273 0.0233483
56.4743 44.1363 0.0225342
55.3002 47.8495 0.0269319
52.3021 58.6138 0.0250621
54.1996 57.2512 0.0254252
54.9612 51.3524 0.0337806
53.9546 54.5121 0.0347953
49.5909 61.7393 2
55.3014 41.6724 2
50.5589 59.3164 2
52.1581 56.4688 2
53.9224 45.505 2
53.1663 49.281 2
52.585 52.8155 2
48.8447 60.196 3.9789
52.1596 42.577 3.98146
49.7726 57.6073 3.97281
50.5367 54.4016 3.96586
51.5767 47.2131 3.97664
51.0849 50.9055 3.95841
47.8153 43.7155 3.98897
47.9619 62.469 0.0183469
47.328 61.0018 2
46.615 59.7877 3.98402
41.6635 67.6844 0.0158306
43.3568 65.5017 0.017919
44.7673 63.447 0.019026
45.9873 61.5781 0.0170089
39.633 67.7645 2
41.5462 65.6391 2
45.7645 60.6226 2
43.1467 63.7196 2
44.4838 61.8267 2
44.6213 60.2825 3.98287
42.9506 62.0731 3.9789
41.6001 63.8121 3.98061
39.6477 65.6065 3.98045
37.5635 67.7453 3.98316
31.6972 65.1257 3.98138
33.3925 67.4832 3.98286
35.3338 69.9578 3.98752
37.526 70.0485 2
37.5095 72.4581 3.99194
39.7022 70.0229 0.0121839
39.8181 72.4039 2
39.9526 74.9197 4
42.1112 72.2066 0.00783191
42.3947 74.6792 2
44.8159 74.2794 0
41.7365 4.96892 3.9892
43.8519 5.35899 2
44.3264 3.11051 3.9931
46.5714 3.64707 2
47.2057 1.27793 4
48.7853 4.32295 0.00737602
49.554 1.99013 2
51.8506 2.85458 0
58.7723 42.8836 0.0226749
60.0414 39.8284 0.0227613
61.8423 37.4445 0.0225192
59.5429 37.5651 2
57.728 40.6303 2
54.7353 39.6859 2
56.5117 37.8852 3.97721
49.1924 41.2853 3.9885
52.756 39.3045 3.98315
39.4428 6.80362 3.98612
59.687 35.1328 0.0228043
57.7534 32.3039 0.0230467
56.3472 29.3851 0.0226035
55.3137 19.2143 0.0339331
54.9332 21.6013 0.0401767
54.7968 24.1092 0.0360312
55.2552 26.6538 0.0228034
53.1026 18.6905 0.0303792
51.2849 18.0844 0.0210738
50.6257 16.1561 0.023461
45.9627 5.88279 0.0110006
49.7101 13.7539 0.0226281
47.3555 8.62579 0.0156371
48.5997 11.2999 0.0207501
43.3742 7.47403 0.0139989
57.1157 34.7748 2
41.3993 7.07879 2
45.3601 7.99492 2
42.8661 9.41682 2
55.4788 31.5603 2
54.2686 28.472 2
53.9291 20.1725 2
53.4837 22.7619 2
53.6086 25.5647 2
46.6672 10.654 2
47.7433 13.1083 2
51.6217 19.3627 2
49.991 17.7202 2
48.9249 15.416 2
54.5329 33.9746 3.97612
53.2185 30.5594 3.97753
52.365 27.28 3.97582
52.0198 24.1701 3.97708
52.3339 21.0994 3.97522
41.0138 9.05092 3.98291
44.7253 9.99574 3.98451
42.4684 10.9041 3.9855
46.0038 12.7359 3.9776
47.6759 14.5954 3.97395
48.099 17.0013 3.97391
49.7996 19.6977 3.97465
49.5912 61.7396 0.0188841
50.5591 59.315 0.0256077
55.3026 41.6728 0.0238636
53.918 45.5053 0.0252133
53.1617 49.281 0.0303532
52.1582 56.4678 0.0322477
52.5841 52.8165 0.0372396
48.8445 60.1945 2
52.1708 42.58 2
49.7723 57.6082 2
50.5368 54.403 2
51.5801 47.2143 2
51.086 50.904 2
47.8252 43.738 2
47.9769 58.7295 3.9789
49.7687 45.2172 3.97976
48.5637 55.8994 3.97601
49.0441 52.5633 3.97502
49.4984 48.9984 3.97152
45.5931 39.8464 3.88243
46.0498 42.5905 3.91584
46.2113 45.7553 3.98639
43.4066 41.1033 3.78583
41.8382 41.9855 3.63673
47.3277 61.0016 0.0159231
46.6149 59.7882 2
45.4621 58.7828 3.98176
39.6328 67.7638 0.0161416
41.5464 65.6393 0.0185978
43.1466 63.7188 0.0196271
44.4836 61.8259 0.0189764
45.7644 60.6217 0.0179407
41.6002 63.8122 2
37.5637 67.7462 2
39.6477 65.6072 2
44.6214 60.2833 2
42.9508 62.0738 2
41.7536 62.4844 3.97973
42.4793 59.9702 3.98203
39.8939 63.5451 3.97889
37.6424 65.5047 3.98089
35.4637 67.6546 3.98304
33.5756 65.3377 3.9804
31.9591 63.295 3.9812
29.8833 64.7177 3.9826
31.6972 65.1265 2
31.3771 67.1936 3.98349
33.3926 67.4839 2
33.1571 69.7516 3.98735
35.3338 69.9587 2
35.195 72.3725 3.99186
37.5261 70.0477 0.0125984
37.5096 72.4586 2
37.5 75 4
39.8179 72.4036 0.00800785
39.9526 74.9197 2
42.3947 74.6792 0
39.6241 4.71636 3.98951
41.7365 4.96809 2
42.0628 2.71803 3.99328
43.852 5.35969 0.0109949
44.3266 3.11006 2
44.8158 0.721173 4
46.5712 3.64738 0.00722751
47.2057 1.27779 2
49.554 1.99015 0
57.7277 40.6299 0.0225561
59.5433 37.5647 0.0225675
54.735 39.6868 0.0242147
49.2124 41.2946 2
56.5113 37.8855 2
52.7559 39.2963 2
53.5994 36.6309 3.97726
47.1173 40.3677 3.92365
50.1322 38.5177 3.99184
37.5168 6.675 3.98611
39.4429 6.80248 2
39.2113 8.69428 3.98358
35.9427 8.49481 3.98382
57.1168 34.7752 0.0226857
55.4757 31.5609 0.022712
54.2691 28.4712 0.0222142
53.9288 20.1706 0.0339727
53.4849 22.7634 0.0438822
53.6115 25.563 0.0239277
51.6211 19.3621 0.0220179
49.9918 17.7219 0.0243916
48.9255 15.4164 0.0252756
45.3604 7.99548 0.0135157
47.7429 13.1107 0.0206648
46.6669 10.6571 0.0184933
41.3993 7.07976 0.0137001
42.8662 9.41731 0.0170212
54.5287 33.9769 2
41.0139 9.05016 2
44.7247 9.99541 2
42.4682 10.9041 2
53.2164 30.5586 2
52.3711 27.2823 2
52.3354 21.0999 2
52.0199 24.172 2
46.0039 12.7311 2
47.6757 14.5927 2
49.8001 19.6981 2
48.0976 16.9992 2
52.0836 32.889 3.97984
51.023 29.242 3.97506
50.6051 25.8077 3.97297
49.886 22.2851 3.9826
40.5692 11.6106 3.9807
43.858 11.9165 3.98019
45.7954 15.4323 3.98145
47.4902 19.3109 3.97744
45.9669 37.4829 3.88353
48.8447 60.196 0.0210962
49.7726 57.6073 0.0271903
52.1596 42.577 0.0185384
51.5767 47.2131 0.023361
51.0849 50.9055 0.0415869
50.5367 54.4016 0.0341387
47.8153 43.7155 0.0110325
47.9764 58.7307 2
49.7823 45.2264 2
48.5627 55.9014 2
49.0438 52.567 2
49.5012 48.9964 2
45.6324 39.8547 2
46.0735 42.6139 2
46.2157 45.7577 2
43.431 41.1295 2
41.8557 42.002 2
46.822 57.3314 3.98231
44.1563 39.3886 3.78528
42.1909 40.856 3.68889
47.8369 47.1946 3.97939
47.1167 54.2152 3.97275
47.4714 50.7157 3.9695
44.5969 47.3511 3.97668
44.7029 41.9193 3.86552
44.6824 44.4883 3.93272
42.2968 42.6063 3.79589
40.7679 42.3146 3.67348
46.615 59.7877 0.0159801
45.4623 58.7835 2
43.8672 57.7029 3.98383
37.5635 67.7453 0.0168447
39.6477 65.6065 0.0195493
41.6001 63.8121 0.0193858
42.9506 62.0731 0.0211039
44.6213 60.2825 0.017129
35.4639 67.6558 2
41.7538 62.4849 2
39.8938 63.5456 2
37.6425 65.5054 2
42.4796 59.9707 2
40.6236 61.6399 3.98052
40.4415 58.1963 3.98095
37.8371 63.2058 3.97913
35.5731 65.4263 3.98028
33.5757 65.3382 2
31.959 63.2957 2
33.6286 63.333 3.97962
30.3783 62.8549 3.9819
32.1236 61.9998 3.98321
26.87 61.4967 3.98001
28.0621 64.1462 3.98229
29.8833 64.7183 2
29.4065 66.7579 3.98413
31.6972 65.1257 0.0186211
31.3772 67.1943 2
31.0145 69.4167 3.98733
33.3925 67.4832 0.0171408
33.157 69.7522 2
32.892 72.1469 3.99198
35.3338 69.9578 0.012476
35.1949 72.373 2
35.0474 74.9194 4
37.5095 72.4581 0.00806453
37.5 75 2
39.9526 74.9197 0
35.6214 6.72622 3.98559
37.5236 4.61595 3.98959
39.6242 4.71538 2
39.7892 2.47453 3.99328
41.7365 4.96892 0.010801
42.0628 2.71754 2
42.3946 0.32156 4
44.3264 3.11051 0.00689918
44.8159 0.72056 2
47.2057 1.27793 0
49.1924 41.2853 0.0115021
56.5117 37.8852 0.0227883
52.756 39.3045 0.0168497
47.1363 40.3684 2
50.1412 38.5094 2
53.6066 36.6338 2
50.9199 35.5758 3.97676
47.7812 37.7486 3.93688
45.5922 35.1402 3.88053
43.4117 33.8824 3.77868
41.8412 33.0097 3.63314
37.4584 8.53619 3.98428
37.5167 6.67381 2
39.4428 6.80362 0.013876
39.2115 8.69287 2
38.9764 10.129 3.98367
35.8992 9.77644 3.98197
34.1516 8.82506 3.98296
35.9422 8.49326 2
54.5329 33.9746 0.0238783
53.2185 30.5594 0.0224725
52.365 27.28 0.0241776
52.3339 21.0994 0.0247801
52.0198 24.1701 0.0229199
49.7996 19.6977 0.025352
48.099 17.0013 0.0260908
47.6759 14.5954 0.0260517
44.7253 9.99574 0.0154891
46.0038 12.7359 0.0223979
41.0138 9.05092 0.0170924
42.4684 10.9041 0.0144981
52.09 32.8888 2
40.5698 11.6107 2
43.8571 11.9172 2
51.038 29.243 2
50.6092 25.8107 2
49.8852 22.2821 2
45.7941 15.4247 2
47.4903 19.3176 2
49.6262 31.474 3.98607
49.0447 27.5801 3.97433
49.2764 24.491 3.9799
47.1573 22.0554 3.98006
38.3025 12.7414 3.97815
42.1006 14.3072 3.97862
44.7912 18.5044 3.97731
44.4916 37.4905 3.79392
46.0259 37.4888 2
47.9769 58.7295 0.0211007
48.5637 55.8994 0.0239918
49.7687 45.2172 0.020236
49.4984 48.9984 0.0284807
49.0441 52.5633 0.0249752
45.5931 39.8464 0.117568
46.0498 42.5905 0.0841578
46.2113 45.7553 0.0136056
43.4066 41.1033 0.214172
41.8382 41.9855 0.363268
46.8211 57.3323 2
44.1902 39.4094 2
42.1841 40.8645 2
47.839 47.196 2
47.1152 54.2193 2
47.4735 50.719 2
44.6062 47.329 2
44.7266 41.94 2
44.703 44.5071 2
42.344 42.6356 2
40.7755 42.3124 2
45.3716 55.9209 3.98921
42.5112 39.2665 3.70031
40.6541 40.7547 3.78657
45.9291 48.8768 3.98782
45.4596 52.5032 3.98047
43.2916 48.3633 3.99885
43.2372 46.0295 3.91415
43.4175 43.7012 3.86429
40.9281 43.7281 3.78321
39.2565 42.6217 3.69198
45.4621 58.7828 0.0182429
43.8673 57.7039 2
42.0949 56.3195 3.98508
35.4637 67.6546 0.0169611
37.6424 65.5047 0.0191123
39.8939 63.5451 0.0211132
41.7536 62.4844 0.0202666
42.4793 59.9702 0.0179661
35.5733 65.4279 2
40.6238 61.6406 2
37.8368 63.2063 2
40.4417 58.197 2
38.9208 56.4873 3.98963
38.2507 60.3215 3.97934
35.6069 63.1978 3.97717
33.5756 65.3377 0.0196025
31.9591 63.295 0.0188017
33.6285 63.3337 2
30.3783 62.8554 2
32.1238 62.0006 2
28.6814 62.2004 3.98161
33.3459 61.5097 3.98138
31.068 61.2176 3.98109
27.5729 59.5911 3.9809
23.7982 59.0776 3.97922
25.0363 60.8698 3.9801
26.8702 61.4975 2
26.2292 63.4772 3.98156
28.0623 64.1466 2
27.4631 66.1822 3.98439
29.8833 64.7177 0.0174021
29.4066 66.7584 2
28.9068 68.9428 3.98722
31.3771 67.1936 0.016512
31.0145 69.4174 2
30.6143 71.7778 3.99189
33.1571 69.7516 0.0126451
32.8917 72.1472 2
32.6054 74.6784 4
35.195 72.3725 0.00814
35.0474 74.9197 2
37.5 75 0
33.7243 6.98138 3.98505
35.4355 4.68624 3.98942
35.6213 6.72514 2
37.5147 2.38709 3.99325
37.5236 4.61514 2
39.6241 4.71636 0.0104941
39.7891 2.47397 2
39.9526 0.0806499 4
42.0628 2.71803 0.00671605
42.3947 0.320817 2
44.8158 0.721173 0
44.1686 35.5907 3.78152
42.1981 34.1297 3.68704
47.1173 40.3677 0.0763526
50.1322 38.5177 0.00816108
53.5994 36.6309 0.0227402
47.7857 37.754 2
50.9326 35.574 2
45.6234 35.1215 2
43.4405 33.8547 2
41.8597 32.9925 2
47.9493 34.3037 3.96371
44.702 33.0552 3.85912
42.3003 32.3894 3.7907
40.7711 32.6852 3.6706
37.311 10.6338 3.98124
37.4583 8.53436 2
37.5168 6.675 0.0138923
39.2113 8.69428 0.0164192
38.9773 10.1275 2
34.7548 10.3836 3.98121
35.8992 9.77413 2
32.3784 9.37246 3.98114
34.1507 8.82328 2
35.9427 8.49481 0.016182
52.0836 32.889 0.0201616
51.023 29.242 0.0249399
50.6051 25.8077 0.0270281
49.886 22.2851 0.0174034
47.4902 19.3109 0.0225634
45.7954 15.4323 0.0185463
43.858 11.9165 0.0198145
40.5692 11.6106 0.019299
49.6393 31.4685 2
38.3025 12.739 2
42.1009 14.3095 2
49.0489 27.5798 2
49.2789 24.487 2
47.1525 22.0536 2
44.791 18.5188 2
47.462 29.5764 3.98357
46.9665 25.2402 3.98184
44.2678 21.439 3.9753
36.583 12.9399 3.97669
38.6826 14.8174 3.97629
41.7463 17.8705 3.97845
42.63 37.4842 3.71435
44.5183 37.491 2
45.9669 37.4829 0.116471
46.822 57.3314 0.0176865
47.1167 54.2152 0.0272538
47.8369 47.1946 0.0206051
47.4714 50.7157 0.0305041
44.1563 39.3886 0.214721
44.7029 41.9193 0.134482
44.6824 44.4883 0.0672802
44.5969 47.3511 0.0233175
42.2968 42.6063 0.20411
42.1909 40.856 0.311109
40.7679 42.3146 0.326517
45.3705 55.9207 2
42.5024 39.2645 2
40.645 40.7404 2
45.9296 48.8841 2
45.459 52.5095 2
43.2958 48.3821 2
43.2685 46.0573 2
43.4488 43.7291 2
40.9597 43.7694 2
39.2536 42.618 2
43.7029 54.4217 3.99564
40.7505 39.1482 3.81015
39.1199 40.8212 3.79662
43.5836 50.4235 4.00425
41.8796 47.5732 3.95021
41.7949 45.1191 3.8776
39.3371 44.4156 3.78825
37.5042 42.7167 3.71363
43.8672 57.7029 0.0161748
42.095 56.3203 2
40.4057 54.9164 3.98179
35.5731 65.4263 0.0197193
37.8371 63.2058 0.0208749
40.6236 61.6399 0.0194826
40.4415 58.1963 0.0190458
35.6068 63.1992 2
38.2511 60.3221 2
38.9207 56.4876 2
37.9966 55.2311 3.99137
36.9343 57.6176 3.98306
35.3634 60.904 3.97744
33.6286 63.333 0.0203765
30.3783 62.8549 0.0180985
32.1236 61.9998 0.0167903
33.3462 61.5105 2
28.6816 62.2007 2
31.0684 61.2181 2
29.4057 60.287 3.97992
32.3604 59.7416 3.9868
28.0327 58.3722 3.98926
27.5734 59.592 2
25.3863 58.5915 3.97756
22.7668 58.2319 3.97004
23.4036 60.3473 3.97868
23.7985 59.0786 2
25.0365 60.8707 2
24.4323 62.7691 3.98166
26.87 61.4967 0.0199899
26.2294 63.4781 2
25.5473 65.4917 3.98359
28.0621 64.1462 0.0177091
27.4631 66.1827 2
26.8363 68.3312 3.98728
29.4065 66.7579 0.0158692
28.9068 68.943 2
28.3693 71.2631 3.99196
31.0145 69.4167 0.0126682
30.614 71.7782 2
30.1842 74.2788 4
32.892 72.1469 0.00801624
32.6053 74.6792 2
35.0474 74.9194 0
31.7887 7.42148 3.98395
33.3479 4.92573 3.98892
33.7239 6.97999 2
35.2449 2.46314 3.99318
35.4353 4.68555 2
35.6214 6.72622 0.0144127
37.5 0 4
37.5145 2.38666 2
37.5236 4.61595 0.0104075
39.7892 2.47453 0.00671658
39.9526 0.0802889 2
42.3946 0.32156 0
42.5072 35.7086 3.70248
44.1986 35.5708 2
40.6596 34.241 3.78553
42.1883 34.1224 2
47.7812 37.7486 0.0631245
50.9199 35.5758 0.0232366
45.5922 35.1402 0.119475
43.4117 33.8824 0.221316
41.8412 33.0097 0.366857
47.9667 34.2944 2
44.7284 33.0373 2
42.3484 32.3567 2
40.7806 32.6868 2
45.9749 31.6187 3.93745
43.4083 31.2965 3.86679
40.9269 31.2688 3.78458
39.2582 32.3881 3.69127
35.6934 11.7813 3.97934
37.3119 10.631 2
37.4584 8.53619 0.0157223
38.9764 10.129 0.0163314
33.0992 11.2221 3.97812
34.7543 10.381 2
35.8992 9.77644 0.0180281
30.4835 10.0222 3.98064
32.3778 9.37198 2
34.1516 8.82506 0.01704
49.6262 31.474 0.0139254
49.0447 27.5801 0.0256677
49.2764 24.491 0.0200955
47.1573 22.0554 0.019937
44.7912 18.5044 0.0226865
42.1006 14.3072 0.0213803
38.3025 12.7414 0.0218512
36.5828 12.9356 2
47.472 29.5543 2
38.682 14.8139 2
41.7446 17.8753 2
46.9724 25.2376 2
44.2657 21.4222 2
45.323 27.7022 4.00208
43.7187 24.1598 4.0069
41.3265 20.821 3.97942
35.7734 14.7703 3.97718
38.6821 17.6167 3.97829
40.8016 37.4778 3.81941
42.6259 37.4855 2
44.4916 37.4905 0.206077
45.3716 55.9209 0.0107871
45.4596 52.5032 0.0195334
45.9291 48.8768 0.0121837
42.5112 39.2665 0.299695
43.4175 43.7012 0.135707
43.2372 46.0295 0.0858453
43.2916 48.3633 0.00115176
40.9281 43.7281 0.216791
40.6541 40.7547 0.213427
39.2565 42.6217 0.30802
43.7009 54.4217 2
40.7326 39.1408 2
39.121 40.8033 2
43.5825 50.4401 2
41.8722 47.5943 2
41.8155 45.1483 2
37.5032 42.7158 2
39.3547 44.4482 2
41.8508 52.9701 3.99444
39.1401 39.1599 3.81846
37.5037 40.8696 3.80984
35.7543 42.6292 3.69361
40.8628 49.6264 3.99768
39.8042 45.9719 3.85553
37.503 44.6443 3.7804
42.0949 56.3195 0.0149176
40.4045 54.9182 2
38.7236 53.8023 3.99538
35.6069 63.1978 0.0228267
38.2507 60.3215 0.0206601
38.9208 56.4873 0.0103685
35.3636 60.9048 2
36.9349 57.6184 2
37.9963 55.2283 2
36.3237 55.3179 3.99675
34.4896 58.5098 3.98521
33.3459 61.5097 0.0186222
28.6814 62.2004 0.0183895
31.068 61.2176 0.0189143
32.3609 59.7425 2
29.4063 60.2873 2
30.3102 57.817 3.98416
28.0329 58.3731 2
26.9655 56.8245 3.97565
27.5729 59.5911 0.0190986
25.3867 58.5927 2
23.8594 56.7906 3.963
21.3484 57.3841 3.96929
21.999 59.6168 3.97722
22.7669 58.2337 2
22.7371 62.019 3.97948
23.4039 60.3484 2
23.7982 59.0776 0.0207832
25.0363 60.8698 0.0198985
24.4325 62.77 2
23.6815 64.7092 3.98321
26.2292 63.4772 0.0184404
25.5473 65.4926 2
24.8085 67.5925 3.98705
27.4631 66.1822 0.0156125
26.8363 68.3319 2
26.1644 70.6038 3.99203
28.9068 68.9428 0.0127777
28.369 71.2632 2
27.7943 73.7221 4
30.6143 71.7778 0.00810681
30.1841 74.2794 2
32.6054 74.6784 0
29.8114 7.99599 3.983
31.2532 5.33276 3.98804
31.7884 7.42066 2
32.9807 2.70144 3.99286
33.3475 4.92475 2
33.7243 6.98138 0.0149481
35.0474 0.080333 4
35.2447 2.46281 2
35.4355 4.68624 0.0105808
37.5 0 2
37.5147 2.38709 0.00675304
39.9526 0.0806499 0
40.754 35.8239 3.80875
42.4982 35.7115 2
44.1686 35.5907 0.218478
28.5442 10.6979 3.97948
39.1197 34.1873 3.79576
40.648 34.2553 2
42.1981 34.1297 0.312956
47.9493 34.3037 0.0362938
44.702 33.0552 0.140884
42.3003 32.3894 0.209304
40.7711 32.6852 0.329403
46.0024 31.6042 2
43.4379 31.2657 2
40.9606 31.2298 2
39.2592 32.3926 2
44.2265 29.8132 3.92925
41.7902 29.8774 3.87614
39.3419 30.5894 3.78693
37.5087 32.3014 3.71298
34.094 12.9427 3.97646
35.6934 11.7768 2
37.311 10.6338 0.0187607
31.1877 11.9925 3.97849
33.0995 11.2215 2
34.7548 10.3836 0.0187914
30.4824 10.0199 2
32.3784 9.37246 0.0188595
47.462 29.5764 0.016433
46.9665 25.2402 0.0181641
36.583 12.9399 0.0233068
44.2678 21.439 0.024705
41.7463 17.8705 0.0215481
38.6826 14.8174 0.0237061
35.774 14.7753 2
45.3267 27.7017 2
38.6801 17.6202 2
41.3231 20.809 2
43.7217 24.1475 2
33.6103 15.8907 3.977
42.9169 26.553 3.9986
40.8692 23.3836 4.01313
38.4136 20.3966 3.98235
35.852 17.5249 3.97941
39.1462 37.488 3.84152
40.7851 37.4776 2
42.63 37.4842 0.28565
43.7029 54.4217 0.00436326
43.5836 50.4235 -0.00425472
40.7505 39.1482 0.18985
41.7949 45.1191 0.122404
41.8796 47.5732 0.0497867
39.3371 44.4156 0.211747
39.1199 40.8212 0.203385
37.5042 42.7167 0.286368
41.8492 52.9676 2
39.1288 39.1485 2
37.5028 40.8461 2
40.8692 49.6421 2
35.7518 42.6241 2
39.8247 46.0075 2
37.4977 44.6737 2
39.792 51.8408 4.00166
37.5005 39.1714 3.84388
35.8872 40.8347 3.79649
34.2402 42.3232 3.67085
35.6672 44.4298 3.78443
38.6713 48.618 3.96532
37.5178 46.2705 3.87076
40.4057 54.9164 0.018207
38.723 53.7967 2
36.7412 53.1367 3.99941
35.3634 60.904 0.0225573
36.9343 57.6176 0.0169385
37.9966 55.2311 0.00862965
34.4905 58.5106 2
36.3249 55.3219 2
33.2453 55.4915 3.99537
32.3604 59.7416 0.0132016
29.4057 60.287 0.0200781
30.3106 57.8174 2
28.7252 55.3128 3.97875
28.0327 58.3722 0.0107383
26.9653 56.8253 2
25.3483 55.1303 3.97123
21.8375 55.3311 3.96512
25.3863 58.5915 0.0224387
23.859 56.7929 2
20.2346 57.0125 3.97204
20.6529 58.7678 3.97313
21.3482 57.3857 2
21.1688 61.1668 3.97725
21.9992 59.618 2
22.7668 58.2319 0.0299619
21.8952 63.8364 3.98196
22.7373 62.0201 2
23.4036 60.3473 0.0213246
24.4323 62.7691 0.0183381
23.6815 64.71 2
22.8368 66.7356 3.98635
25.5473 65.4917 0.0164095
24.8085 67.5934 2
24.0086 69.805 3.99213
26.8363 68.3312 0.0127233
26.164 70.6041 2
25.446 73.0099 4
28.3693 71.2631 0.00803835
27.7943 73.7222 2
30.1842 74.2788 0
27.8213 8.65574 3.98254
29.1554 5.87903 3.98702
29.8107 7.99411 2
30.7259 3.0985 3.99256
31.2529 5.33201 2
31.7887 7.42148 0.0160517
32.6053 0.320823 4
32.9803 2.70095 2
33.3479 4.92573 0.0110795
35.0474 0.0802903 2
35.2449 2.46314 0.00681883
37.5 0 0
39.1423 35.827 3.81847
40.7348 35.8304 2
42.5072 35.7086 0.297522
28.5433 10.6969 2
26.6228 11.3941 3.97929
29.2267 12.6492 3.97896
37.502 34.1507 3.80867
39.1203 34.2062 2
40.6596 34.241 0.214473
45.9749 31.6187 0.0625518
43.4083 31.2965 0.133205
40.9269 31.2688 0.21542
39.2582 32.3881 0.308726
44.2284 29.8018 2
41.8066 29.854 2
39.3566 30.553 2
37.51 32.3013 2
42.2473 28.4716 3.90449
39.8138 29.024 3.87627
37.5113 30.3699 3.78085
35.7612 32.3882 3.69176
31.9165 14.4925 3.9773
34.095 12.9424 2
35.6934 11.7813 0.0206569
31.187 11.9889 2
33.0992 11.2221 0.0218802
30.4835 10.0222 0.0193562
45.323 27.7022 -0.00207824
43.7187 24.1598 -0.0069047
35.7734 14.7703 0.0228209
41.3265 20.821 0.0205799
38.6821 17.6167 0.0217141
33.6092 15.8872 2
35.8489 17.5276 2
42.926 26.5531 2
38.4128 20.3967 2
40.8678 23.3697 2
33.555 17.4004 3.97819
40.3274 25.7392 3.9897
38.0672 23.0297 3.99788
35.5833 20.1109 3.98153
37.499 37.4989 3.86333
39.1362 37.4876 2
40.8016 37.4778 0.180587
41.8508 52.9701 0.00556142
40.8628 49.6264 0.0023245
39.1401 39.1599 0.181541
39.8042 45.9719 0.144469
37.503 44.6443 0.219597
37.5037 40.8696 0.190162
35.7543 42.6292 0.306386
39.794 51.8449 2
37.5007 39.1572 2
35.8857 40.8177 2
38.6865 48.6576 2
34.2328 42.3218 2
35.6506 44.464 2
37.5174 46.3073 2
37.6561 50.9101 4.0021
35.8638 39.178 3.81885
34.3539 40.7742 3.78591
33.1643 41.996 3.63638
34.0691 43.7286 3.78405
35.1841 45.9663 3.86784
36.9056 48.2472 3.93414
38.7236 53.8023 0.00462463
36.7374 53.1427 2
34.393 52.4385 3.99694
34.4896 58.5098 0.0147885
36.3237 55.3179 0.00324872
33.2457 55.4945 2
30.5578 53.3437 3.97811
30.3102 57.817 0.0158366
28.7251 55.315 2
26.9406 53.426 3.97149
26.9655 56.8245 0.0243452
25.3479 55.1339 2
23.6378 53.4624 3.95847
20.5401 53.1981 3.96237
19.9558 55.8134 3.96673
21.8361 55.3326 2
23.8594 56.7906 0.0370007
19.4487 57.8741 3.97198
20.2341 57.0138 2
19.7103 60.1934 3.97655
20.6527 58.7685 2
21.3484 57.3841 0.0307062
20.2083 62.8563 3.97966
21.1691 61.1682 2
21.999 59.6168 0.0227814
20.9382 65.7642 3.98546
21.8953 63.8373 2
22.7371 62.019 0.0205193
23.6815 64.7092 0.0167892
22.8368 66.7363 2
21.9111 68.8719 3.9918
24.8085 67.5925 0.0129468
24.0081 69.8052 2
23.1494 72.1454 4
26.1644 70.6038 0.00797325
25.446 73.0099 2
27.7943 73.7221 0
25.8605 9.38462 3.98158
27.0702 6.54311 3.98601
27.8205 8.65481 2
28.4882 3.64459 3.99207
29.1548 5.87778 2
29.8114 7.99599 0.0170002
30.1841 0.720592 4
30.7254 3.09816 2
31.2532 5.33276 0.0119643
32.6053 0.320817 2
32.9807 2.70144 0.00714315
35.0474 0.080333 0
37.5006 35.833 3.84294
39.1297 35.8376 2
40.754 35.8239 0.191255
24.7777 12.0787 3.9794
23.7534 14.3681 3.97816
28.5442 10.6979 0.0205156
26.6221 11.3938 2
29.226 12.6479 2
27.2931 13.3828 3.97856
29.7829 14.2117 3.9787
35.8874 34.1857 3.79593
37.5028 34.1734 2
39.1197 34.1873 0.204241
37.5087 32.3014 0.287017
44.2265 29.8132 0.0707533
41.7902 29.8774 0.123858
39.3419 30.5894 0.213067
42.2703 28.4426 2
39.8264 28.9879 2
37.5153 30.3399 2
35.7605 32.3929 2
40.0016 27.6578 3.90598
37.5075 28.7367 3.87141
35.6777 30.5994 3.78964
34.2524 32.692 3.67094
30.9299 16.8551 3.9776
31.9164 14.4864 2
34.094 12.9427 0.0235445
31.1877 11.9925 0.0215075
42.9169 26.553 0.00140151
40.8692 23.3836 -0.0131344
33.6103 15.8907 0.022997
35.852 17.5249 0.0205917
38.4136 20.3966 0.0176458
33.551 17.4124 2
35.5854 20.1148 2
40.3288 25.723 2
38.0599 23.0162 2
32.8683 19.8077 3.98556
37.7826 25.3363 4.00078
35.1947 22.7557 3.99418
35.8531 37.5032 3.84202
37.4989 37.4988 2
39.1462 37.488 0.158482
39.792 51.8408 -0.00166213
38.6713 48.618 0.0346773
37.5005 39.1714 0.156123
37.5178 46.2705 0.129241
35.6672 44.4298 0.215571
35.8872 40.8347 0.203512
34.2402 42.3232 0.329152
37.6432 50.9299 2
35.8769 39.1669 2
34.3637 40.7606 2
36.8881 48.2854 2
33.1464 42.0122 2
34.0413 43.7663 2
35.1689 45.9972 2
35.5103 50.0702 3.99314
34.2599 39.1739 3.81071
32.8051 40.8731 3.68821
32.7056 42.6176 3.79272
33.2149 45.1211 3.8739
34.3373 47.3386 3.90916
36.7412 53.1367 0.000592077
34.3884 52.4459 2
32.0732 51.1523 4.0039
33.2453 55.4915 0.00462904
30.5575 53.349 2
28.4988 51.56 3.97896
28.7252 55.3128 0.0212509
26.9399 53.4295 2
25.1672 51.7155 3.95769
25.3483 55.1303 0.0287707
23.6369 53.4645 2
22.0679 51.7734 3.9554
19.3121 51.6062 3.9632
18.9625 54.2877 3.9632
20.5395 53.1974 2
18.4636 56.706 3.9694
19.9548 55.8146 2
21.8375 55.3311 0.0348802
18.375 59.0966 3.97093
19.4483 57.875 2
20.2346 57.0125 0.0279594
18.6208 61.7599 3.97455
19.7106 60.195 2
20.6529 58.7678 0.0268737
19.1272 64.6741 3.98399
20.2083 62.8575 2
21.1688 61.1668 0.0227525
19.8853 67.8086 3.99171
20.9382 65.765 2
21.8952 63.8364 0.0180417
22.8368 66.7356 0.0136506
21.9106 68.8719 2
20.9142 71.1327 4
24.0086 69.805 0.00787028
23.1494 72.1455 2
25.446 73.0099 0
23.0972 12.7946 3.97895
23.9731 10.1725 3.98088
25.0238 7.31377 3.98502
25.8598 9.38407 2
26.2799 4.32875 3.9916
27.0695 6.54241 2
27.8213 8.65574 0.0174612
27.7943 1.27781 4
28.4874 3.64416 2
29.1554 5.87903 0.0129808
30.1841 0.720551 2
30.7259 3.0985 0.00743728
32.6053 0.320823 0
35.8593 35.8329 3.81756
37.5008 35.8474 2
39.1423 35.827 0.181534
24.7772 12.0782 2
23.7535 14.368 2
22.4826 15.0451 3.97899
25.3593 13.9163 3.97768
24.0296 15.6319 3.97941
26.6228 11.3941 0.020712
29.2267 12.6492 0.0210375
27.2929 13.3827 2
29.7817 14.2094 2
28.361 15.9882 3.97799
34.3565 34.249 3.78331
35.8865 34.2042 2
37.502 34.1507 0.19133
35.7612 32.3882 0.308237
37.5113 30.3699 0.219148
42.2473 28.4716 0.0955081
39.8138 29.024 0.123732
40.0181 27.6337 2
37.5081 28.7048 2
35.6614 30.5603 2
34.2402 32.6951 2
37.5855 27.3715 3.91895
35.1942 29.0385 3.87503
34.0825 31.2847 3.78418
33.1827 33.02 3.63528
30.2154 19.3668 3.98097
30.9284 16.8479 2
31.9165 14.4925 0.0226977
40.3274 25.7392 0.0103006
38.0672 23.0297 0.00212339
33.555 17.4004 0.0218086
35.5833 20.1109 0.0184732
32.8679 19.8204 2
35.1919 22.7457 2
37.7781 25.3211 2
32.3168 22.4876 3.99626
35.0167 25.3027 4.00126
34.2017 37.5103 3.82058
35.8636 37.5043 2
37.499 37.4989 0.136675
37.6561 50.9101 -0.00210331
36.9056 48.2472 0.0658628
35.8638 39.178 0.181154
35.1841 45.9663 0.132157
34.0691 43.7286 0.215953
34.3539 40.7742 0.214085
33.1643 41.996 0.363624
35.5002 50.0766 2
34.2805 39.1671 2
32.8108 40.8802 2
34.3234 47.3788 2
32.6664 42.6465 2
33.1982 45.1474 2
33.3305 49.0659 3.98812
32.4883 39.2902 3.70471
31.5852 41.1173 3.78366
31.5881 43.709 3.86601
32.3824 46.275 3.90769
34.393 52.4385 0.00305858
32.073 51.162 2
29.9703 49.6698 3.98569
30.5578 53.3437 0.0218936
28.4974 51.5584 2
26.6248 49.9433 3.96948
26.9406 53.426 0.0285055
25.1659 51.7131 2
23.471 50.1492 3.96444
23.6378 53.4624 0.0415314
22.0671 51.772 2
20.5991 50.2786 3.96534
18.1147 50.3009 3.96796
17.9193 52.7672 3.9644
19.3108 51.6055 2
17.4615 55.3241 3.96326
18.9592 54.2878 2
20.5401 53.1981 0.0376332
17.1452 57.8578 3.9678
18.4629 56.7063 2
19.9558 55.8134 0.033271
17.1394 60.5368 3.97391
18.3749 59.0977 2
19.4487 57.8741 0.0280192
17.4083 63.4648 3.98033
18.6209 61.7613 2
19.7103 60.1934 0.0234459
17.9419 66.6171 3.99124
19.127 64.6753 2
20.2083 62.8563 0.0203367
18.75 69.9759 4
19.8847 67.8084 2
20.9382 65.7642 0.0145352
21.9111 68.8719 0.0082042
20.9142 71.1327 2
23.1494 72.1454 0
21.5885 13.6156 3.9786
22.1912 11.0328 3.98005
23.0972 12.7945 2
23.0416 8.18004 3.98419
23.9725 10.1718 2
24.1175 5.14354 3.99112
25.0232 7.31311 2
25.8605 9.38462 0.0184216
25.446 1.99014 4
26.279 4.32867 2
27.0702 6.54311 0.01399
27.7943 1.27778 2
28.4882 3.64459 0.00792671
30.1841 0.720592 0
34.2536 35.8416 3.8086
35.8707 35.8437 2
37.5006 35.833 0.157056
21.3096 15.8419 3.98039
24.7777 12.0787 0.020597
23.7534 14.3681 0.0218446
25.3593 13.916 2
22.4831 15.0454 2
24.0295 15.6323 2
23.2704 16.2627 3.97641
25.3856 16.1016 3.97873
27.2931 13.3828 0.021443
29.7829 14.2117 0.0213026
28.3592 15.9895 2
27.4463 18.8183 3.9792
32.8176 34.1447 3.68668
34.3702 34.2634 2
35.8874 34.1857 0.204067
34.2524 32.692 0.32906
35.6777 30.5994 0.210358
37.5075 28.7367 0.12859
40.0016 27.6578 0.0940212
37.5874 27.3363 2
33.1633 33.0046 2
35.1883 28.9983 2
34.0455 31.2409 2
35.0901 27.4955 3.91814
33.2182 29.8941 3.87056
32.7217 32.392 3.78041
29.6027 21.9628 3.99537
30.2152 19.3776 2
30.9299 16.8551 0.0224036
37.7826 25.3363 -0.000777315
35.1947 22.7557 0.00582367
32.8683 19.8077 0.0144436
32.3172 22.4799 2
35.0344 25.2912 2
31.789 25.7102 4.00815
32.3596 37.5112 3.71699
34.223 37.5105 2
35.8531 37.5032 0.157982
35.5103 50.0702 0.0068643
34.3373 47.3386 0.0908395
34.2599 39.1739 0.189287
33.2149 45.1211 0.126098
32.7056 42.6176 0.207282
32.8051 40.8731 0.311792
33.3259 49.0627 2
32.5031 39.2881 2
31.5577 41.1416 2
32.3488 46.3053 2
31.5572 43.7368 2
31.291 47.9029 3.98683
30.8347 39.4083 3.78335
30.2951 41.9432 3.85997
30.6168 44.8718 3.92927
32.0732 51.1523 -0.00390352
29.968 49.6703 2
28.0414 48.1278 3.96519
28.4988 51.56 0.0210401
26.6239 49.9413 2
24.8185 48.4175 3.97254
25.1672 51.7155 0.0423139
23.4706 50.1468 2
21.8387 48.7419 3.96963
22.0679 51.7734 0.0445989
20.5975 50.2776 2
19.1872 49.0574 3.97218
17.014 49.305 3.97274
16.8657 51.3834 3.96688
18.1163 50.2998 2
16.4316 53.8531 3.9644
17.9168 52.7669 2
19.3121 51.6062 0.0367954
15.9907 56.4614 3.96631
17.4597 55.3246 2
18.9625 54.2877 0.0368004
15.7555 59.1987 3.97009
17.145 57.8589 2
18.4636 56.706 0.0305962
15.7902 62.1318 3.97527
17.1397 60.5386 2
18.375 59.0966 0.0290721
16.0891 65.2997 3.98995
17.4079 63.4664 2
18.6208 61.7599 0.0254512
16.6661 68.6801 4
17.9409 66.6169 2
19.1272 64.6741 0.0160056
18.75 69.9759 2
19.8853 67.8086 0.0082873
20.9142 71.1327 0
20.2216 14.6061 3.97725
21.5887 13.6158 2
20.5306 12.0035 3.97939
21.1444 9.15042 3.98355
22.1909 11.0326 2
23.0972 12.7946 0.0210453
22.0166 6.08274 3.99057
23.0409 8.17927 2
23.9731 10.1725 0.0191215
23.1494 2.85457 4
24.1164 5.1436 2
25.0238 7.31377 0.0149782
25.446 1.99012 2
26.2799 4.32875 0.00840313
27.7943 1.27781 0
32.485 35.7286 3.69756
34.2723 35.8521 2
35.8593 35.8329 0.182442
21.3102 15.8416 2
20.3095 16.974 3.98097
22.103 16.6483 3.97441
25.3593 13.9163 0.0223227
22.4826 15.0451 0.0210133
24.0296 15.6319 0.0205893
25.3849 16.1023 2
23.2706 16.2636 2
24.2116 18.4734 3.97374
27.0424 21.4853 3.99137
28.361 15.9882 0.0220064
27.4478 18.8185 2
31.6043 33.9057 3.7815
32.8252 34.1359 2
34.3565 34.249 0.216691
33.1827 33.02 0.364719
34.0825 31.2847 0.215818
35.1942 29.0385 0.124966
37.5855 27.3715 0.0810474
35.0799 27.454 2
32.6544 32.3621 2
33.2043 29.8745 2
32.6539 28.2051 3.92949
31.5911 31.3142 3.86752
28.8965 24.4439 3.9814
29.598 21.9744 2
30.2154 19.3668 0.0190304
35.0167 25.3027 -0.00125902
32.3168 22.4876 0.00373556
31.7913 25.6887 2
29.7872 27.3702 3.97046
30.4932 37.504 3.79243
32.372 37.5095 2
34.2017 37.5103 0.179418
33.3305 49.0659 0.011877
32.3824 46.275 0.092312
32.4883 39.2902 0.295293
31.5881 43.709 0.133994
31.5852 41.1173 0.216337
31.2879 47.907 2
30.7969 39.4285 2
30.2701 41.9598 2
30.5978 44.8924 2
29.3985 46.5064 4.00194
29.3967 39.8523 3.88208
29.0028 43.102 3.92902
29.9703 49.6698 0.0143104
28.0398 48.1236 2
26.1667 46.5968 3.97656
26.6248 49.9433 0.0305174
24.8184 48.415 2
23.0336 47.0199 3.97408
23.471 50.1492 0.0355636
21.8379 48.7407 2
20.1642 47.577 3.97693
20.5991 50.2786 0.0346616
19.1893 49.056 2
17.8115 48.1487 3.97623
16.2529 48.6596 3.97588
17.0153 49.3042 2
15.9445 50.1478 3.97029
15.4368 52.3977 3.96642
16.866 51.3828 2
18.1147 50.3009 0.0320387
14.8868 54.9654 3.96518
16.431 53.853 2
17.9193 52.7672 0.0356012
14.4679 57.7277 3.96716
15.9908 56.4614 2
17.4615 55.3241 0.0367413
14.2691 60.6855 3.97419
15.7557 59.2 2
17.1452 57.8578 0.032198
14.3342 63.8582 3.98662
15.7899 62.133 2
17.1394 60.5368 0.0260917
14.6715 67.2507 4
16.0876 65.299 2
17.4083 63.4648 0.0196679
16.6661 68.6801 2
17.9419 66.6171 0.00876477
18.75 69.9759 0
18.9365 15.7926 3.9786
20.2219 14.6059 2
18.9808 13.1154 3.97812
21.5885 13.6156 0.0213953
20.5306 12.0035 2
19.3436 10.2388 3.98286
19.9912 7.14744 3.99017
21.1439 9.15003 2
22.1912 11.0328 0.0199533
20.9142 3.86727 4
22.0153 6.08297 2
23.0416 8.18004 0.0158059
23.1494 2.85451 2
24.1175 5.14354 0.00888047
25.446 1.99014 0
30.8525 35.6191 3.78614
32.4966 35.7313 2
34.2536 35.8416 0.191404
21.3096 15.8419 0.0196125
22.1036 16.6486 2
20.31 16.973 2
19.2583 18.4236 3.97349
21.7893 17.8668 3.97959
25.3856 16.1016 0.0212661
23.2704 16.2627 0.0235854
24.2121 18.4741 2
22.3032 19.917 3.96921
24.6246 21.357 3.98979
26.5054 23.7517 3.97098
27.042 21.4832 2
27.4463 18.8183 0.0207975
30.3255 33.0823 3.87325
31.5814 33.8708 2
32.8176 34.1447 0.313316
32.7217 32.392 0.219592
33.2182 29.8941 0.129443
35.0901 27.4955 0.0818584
32.618 28.1799 2
31.556 31.2793 2
30.3045 29.6261 3.94786
28.0339 26.5838 3.98652
28.8916 24.4602 2
29.6027 21.9628 0.00463137
31.789 25.7102 -0.00815065
29.7837 27.3397 2
29.0163 37.5169 3.88412
30.4737 37.5048 2
32.3596 37.5112 0.283013
31.291 47.9029 0.0131665
30.6168 44.8718 0.0707281
30.8347 39.4083 0.21665
30.2951 41.9432 0.140032
29.3979 46.5176 2
29.3648 39.8718 2
28.9747 43.1279 2
27.577 44.8099 3.97542
27.1671 40.5918 3.95352
28.0414 48.1278 0.0348057
26.1631 46.5989 2
24.2837 45.1424 3.97607
24.8185 48.4175 0.0274572
23.033 47.0191 2
21.1412 45.8448 3.97833
21.8387 48.7419 0.0303726
20.1636 47.5758 2
18.4935 46.7023 3.97826
19.1872 49.0574 0.0278163
17.8131 48.1476 2
16.4589 47.6888 3.97695
16.2539 48.6589 2
15.2894 48.9948 3.97342
17.014 49.305 0.0272554
15.9458 50.1471 2
14.5536 50.9679 3.96837
13.8564 53.4232 3.96596
15.4378 52.3973 2
16.8657 51.3834 0.0331184
13.2638 56.1587 3.96712
14.8862 54.9654 2
16.4316 53.8531 0.0356014
12.853 59.119 3.97212
14.4684 57.7279 2
15.9907 56.4614 0.0336891
12.68 62.3004 3.98386
14.2691 60.686 2
15.7555 59.1987 0.0299113
12.7746 65.6939 4
14.3324 63.8567 2
15.7902 62.1318 0.0247251
14.6714 67.2507 2
16.0891 65.2997 0.0100465
16.6661 68.6801 0
17.6758 17.1696 3.97311
18.9369 15.7921 2
17.513 14.3804 3.97727
20.2216 14.6061 0.0227528
18.981 13.1151 2
17.6392 11.4584 3.98162
20.5306 12.0035 0.0206142
19.3433 10.2386 2
18.0513 8.34033 3.98989
18.75 5.0241 4
19.9897 7.14819 2
21.1444 9.15042 0.0164495
20.9142 3.86727 2
22.0166 6.08274 0.0094267
23.1494 2.85457 0
29.4137 35.1542 3.88441
30.807 35.5932 2
32.485 35.7286 0.30244
22.103 16.6483 0.0255889
20.3095 16.974 0.0190275
21.7899 17.8662 2
19.2588 18.4225 2
18.0106 19.9612 3.96266
20.898 19.3978 3.97469
24.2116 18.4734 0.0262622
22.3032 19.9167 2
24.6244 21.3578 2
22.4063 21.7484 3.97666
24.7742 23.196 3.97782
25.6208 25.982 3.97581
26.5071 23.7505 2
27.0424 21.4853 0.00863
28.7053 32.3996 3.93178
30.2948 33.0615 2
31.6043 33.9057 0.2185
31.5911 31.3142 0.132477
32.6539 28.2051 0.0705131
30.2991 29.626 2
27.2518 29.172 4.00571
28.0267 26.5967 2
28.8965 24.4439 0.0186002
29.7872 27.3702 0.0295422
27.2799 37.3675 3.93412
28.9654 37.5061 2
30.4932 37.504 0.207572
29.3985 46.5064 -0.00193838
29.0028 43.102 0.070984
29.3967 39.8523 0.117917
27.5676 44.8342 2
27.1495 40.5984 2
25.6012 43.1196 3.98836
24.4227 39.4512 3.97628
26.1667 46.5968 0.0234372
24.2761 45.1433 2
22.1704 43.8951 3.97819
23.0336 47.0199 0.0259157
21.1391 45.8438 2
19.1945 44.9335 3.9779
20.1642 47.577 0.023073
18.4941 46.7012 2
16.7778 46.1864 3.97723
17.8115 48.1487 0.0237745
16.4601 47.6881 2
15.0356 47.6497 3.97486
16.2529 48.6596 0.0241194
15.2907 48.9942 2
13.8549 49.5303 3.9704
15.9445 50.1478 0.0297104
14.5546 50.9674 2
12.9267 51.864 3.96697
12.1506 54.5209 3.96729
13.8562 53.4231 2
15.4368 52.3977 0.0335776
11.5386 57.4526 3.97129
13.2643 56.1587 2
14.8868 54.9654 0.0348201
11.1349 60.6259 3.98144
12.8534 59.1187 2
14.4679 57.7277 0.032843
10.9835 64.0165 4
12.6783 62.2978 2
14.2691 60.6855 0.0258062
12.7745 65.694 2
14.3342 63.8582 0.0133754
14.6715 67.2507 0
16.4173 18.6679 3.96522
17.6759 17.1688 2
16.1056 15.7907 3.97485
18.9365 15.7926 0.0214046
17.5132 14.3797 2
16.0211 12.8128 3.97964
18.9808 13.1154 0.0218842
17.6391 11.4581 2
16.2024 9.66342 3.98948
19.3436 10.2388 0.0171373
18.0498 8.34147 2
16.6661 6.31991 4
18.75 5.02404 2
19.9912 7.14744 0.00982823
20.9142 3.86727 0
27.8098 34.7986 3.92603
29.3814 35.1379 2
30.8525 35.6191 0.213858
16.724 21.396 3.96542
21.7893 17.8668 0.0204134
19.2583 18.4236 0.0265149
20.8982 19.3969 2
18.0111 19.9604 2
19.7754 21.5977 3.97102
22.3032 19.917 0.0307909
24.6246 21.357 0.0102141
22.4063 21.7482 2
24.7746 23.1954 2
22.9671 24.6317 3.97273
24.7929 28.5637 3.97821
25.6186 25.98 2
26.5054 23.7517 0.0290191
26.5529 31.7546 3.98328
28.6776 32.3762 2
30.3255 33.0823 0.12675
30.3045 29.6261 0.0521409
27.2737 29.1553 2
28.0339 26.5838 0.0134845
25.1094 36.8595 3.98303
27.2632 37.3589 2
29.0163 37.5169 0.11588
27.577 44.8099 0.0245773
27.1671 40.5918 0.0464842
25.5849 43.1307 2
24.4067 39.4512 2
23.3175 41.8124 3.97997
22.1403 38.5201 3.97781
24.2837 45.1424 0.0239258
22.1687 43.8954 2
20.0151 42.8652 3.97693
21.1412 45.8448 0.0216733
19.1945 44.9334 2
17.1471 44.3528 3.97719
18.4935 46.7023 0.0217406
16.7794 46.1858 2
14.9775 46.0703 3.97528
16.4589 47.6888 0.023054
15.0369 47.6491 2
13.3724 47.9936 3.97194
15.2894 48.9948 0.0265796
13.856 49.5298 2
12.1484 50.2436 3.9678
14.5536 50.9679 0.0316346
12.9269 51.8637 2
11.1458 52.8323 3.96732
10.3291 55.7074 3.97143
12.1511 54.5208 2
13.8564 53.4232 0.0340398
9.70168 58.8482 3.97999
11.5389 57.4522 2
13.2638 56.1587 0.0328792
9.30605 62.2254 4
11.1334 60.6228 2
12.853 59.119 0.0278783
10.9835 64.0165 2
12.68 62.3004 0.0161384
12.7746 65.6939 0
15.1649 20.2001 3.96566
16.4176 18.6675 2
14.7562 17.3172 3.96858
17.6758 17.1696 0.0268938
16.1058 15.7896 2
14.4842 14.2959 3.97762
17.513 14.3804 0.0227315
16.0211 12.812 2
14.4453 11.1147 3.98858
17.6392 11.4584 0.018377
16.2009 9.6649 2
14.6715 7.74927 4
18.0513 8.34033 0.0101144
16.6661 6.31988 2
18.75 5.0241 0
25.769 34.288 3.99037
27.788 34.8074 2
29.4137 35.1542 0.115586
17.9212 22.346 3.96956
15.5755 22.9367 3.96775
16.7247 21.3959 2
20.898 19.3978 0.0253053
18.0106 19.9612 0.0373405
19.7758 21.5973 2
19.7932 24.4128 3.97031
22.4063 21.7484 0.0233412
24.7742 23.196 0.0221783
22.9666 24.6314 2
22.1609 27.8639 3.97266
24.1096 31.235 3.97652
24.8076 28.5637 2
25.6208 25.982 0.0241941
26.5362 31.728 2
28.7053 32.3996 0.0682212
27.2518 29.172 -0.00571408
22.8621 36.2875 3.98223
25.0918 36.8597 2
27.2799 37.3675 0.0658837
25.6012 43.1196 0.0116377
24.4227 39.4512 0.023723
23.3076 41.8111 2
22.1328 38.5183 2
21.0446 40.6373 3.97576
20.4385 37.8025 3.97699
22.1704 43.8951 0.0218065
20.0139 42.8658 2
17.6057 42.0737 3.97659
19.1945 44.9335 0.0220967
17.1488 44.3525 2
15.0073 44.181 3.97579
16.7778 46.1864 0.0227693
14.9786 46.0698 2
13.0598 46.2815 3.97303
15.0356 47.6497 0.0251437
13.3734 47.9932 2
11.5253 48.5413 3.96854
13.8549 49.5303 0.0296037
12.149 50.2433 2
10.2713 51.0774 3.96726
12.9267 51.864 0.0330338
11.1464 52.8321 2
9.23789 53.8873 3.97103
8.38508 56.9814 3.98052
10.3295 55.7068 2
12.1506 54.5209 0.0327085
7.74927 60.3285 4
9.70048 58.8447 2
11.5386 57.4526 0.0287054
9.306 62.2255 2
11.1349 60.6259 0.0185649
10.9835 64.0165 0
13.9839 21.7647 3.96568
15.1656 20.2001 2
13.4604 18.9137 3.96712
16.4173 18.6679 0.034778
14.7567 17.3162 2
13.0316 15.8909 3.97381
16.1056 15.7907 0.0251452
14.4842 14.2949 2
12.7829 12.6884 3.98681
16.0211 12.8128 0.0203565
14.4437 11.1166 2
12.7746 9.30605 4
16.2024 9.66342 0.0105241
14.6715 7.74924 2
16.6661 6.31991 0
23.4463 33.8292 3.98374
25.7455 34.2784 2
27.8098 34.7986 0.0739701
17.7315 24.0683 3.97032
17.9218 22.3459 2
14.3971 24.4695 3.96946
15.5766 22.9368 2
16.724 21.396 0.0345821
19.2439 27.2397 3.97187
19.7754 21.5977 0.0289771
19.7912 24.4126 2
21.4847 30.7054 3.97512
22.9671 24.6317 0.0272713
22.1702 27.8651 2
24.0913 31.2326 2
24.7929 28.5637 0.021789
26.5529 31.7546 0.0167236
20.5605 35.9512 3.97715
22.8607 36.2836 2
25.1094 36.8595 0.0169679
23.3175 41.8124 0.0200288
22.1403 38.5201 0.0221897
21.0508 40.6366 2
20.4419 37.8019 2
18.348 39.0065 3.97735
20.0151 42.8652 0.0230664
17.607 42.0736 2
14.991 41.9014 3.97687
17.1471 44.3528 0.0228122
15.0089 44.1805 2
12.8192 44.3796 3.97365
14.9775 46.0703 0.0247205
13.061 46.2812 2
11.0334 46.7257 3.96921
13.3724 47.9936 0.0280567
11.5258 48.541 2
9.53501 49.238 3.967
12.1484 50.2436 0.032199
10.2718 51.0772 2
8.27079 52.0013 3.97068
11.1458 52.8323 0.0326769
9.23835 53.8866 2
7.19404 55.0322 3.9813
6.31991 58.3339 4
8.38419 56.978 2
10.3291 55.7074 0.0285674
7.74924 60.3285 2
9.70168 58.8482 0.0200079
9.30605 62.2254 0
13.2936 25.3775 3.97207
12.8657 23.293 3.96705
13.9835 21.7645 2
12.2454 20.5589 3.9675
15.1649 20.2001 0.0343381
13.4613 18.9135 2
11.6634 17.5725 3.97152
14.7562 17.3172 0.031419
13.0319 15.8902 2
11.2208 14.3742 3.98338
14.4842 14.2959 0.0223841
12.7811 12.6906 2
10.9835 10.9835 4
14.4453 11.1147 0.0114159
12.7745 9.306 2
14.6715 7.74927 0
20.9186 33.4342 3.97583
23.4483 33.8376 2
25.769 34.288 0.00962981
16.0518 26.4275 3.9719
17.7319 24.0683 2
17.9212 22.346 0.0304448
14.397 24.4698 2
15.5755 22.9367 0.0322451
18.6205 30.2083 3.9749
19.2431 27.2398 2
19.7932 24.4128 0.0296886
21.4868 30.7057 2
22.1609 27.8639 0.0273402
24.1096 31.235 0.023475
17.9592 35.9833 3.97814
20.5601 35.9534 2
22.8621 36.2875 0.0177656
21.0446 40.6373 0.0242388
20.4385 37.8025 0.0230084
18.3475 39.0062 2
14.4974 39.1712 3.97771
17.6057 42.0737 0.0234096
14.9926 41.901 2
12.5193 42.2679 3.97409
15.0073 44.181 0.0242071
12.8203 44.3793 2
10.6203 44.7953 3.96979
13.0598 46.2815 0.0269732
11.0339 46.7255 2
8.91834 47.3174 3.96683
11.5253 48.5413 0.0314566
9.53519 49.2377 2
7.4377 50.0349 3.97013
10.2713 51.0774 0.0327448
8.27114 52.0005 2
6.1347 53.0074 3.98166
9.23789 53.8873 0.0289692
7.1935 55.0294 2
5.0241 56.25 4
6.31988 58.3339 2
8.38508 56.9814 0.0194843
7.74927 60.3285 0
13.5588 26.8315 3.97162
11.9721 24.7979 3.96864
13.2929 25.3777 2
11.1482 22.2404 3.96725
12.866 23.2932 2
13.9839 21.7647 0.0343231
12.2464 20.5589 2
10.3941 19.3248 3.97173
13.4604 18.9137 0.0328757
11.6642 17.5726 2
9.76224 16.1586 3.98026
13.0316 15.8909 0.0261929
11.2191 14.3772 2
9.30607 12.7746 4
12.7829 12.6884 0.013189
10.9835 10.9835 2
12.7746 9.30605 0
18.1326 33.1428 3.97728
20.9214 33.4347 2
23.4463 33.8292 0.016263
15.6761 29.6623 3.97423
16.0513 26.4279 2
17.7315 24.0683 0.0296776
14.3971 24.4695 0.0305411
18.618 30.2084 2
19.2439 27.2397 0.0281319
21.4847 30.7054 0.0248764
15.1142 36.0325 3.97784
17.9615 35.9836 2
20.5605 35.9512 0.0228547
12.7407 37.8304 3.97764
18.348 39.0065 0.0226542
14.4982 39.1711 2
12.0264 40.1361 3.97475
14.991 41.9014 0.023126
12.5202 42.2677 2
10.2273 42.7722 3.9702
12.8192 44.3796 0.0263452
10.6207 44.7951 2
8.39744 45.3194 3.96701
11.0334 46.7257 0.0307914
8.91824 47.3171 2
6.72891 48.0002 3.96972
9.53501 49.238 0.0329981
7.43789 50.0343 2
5.21153 50.9108 3.98139
8.27079 52.0013 0.02932
6.13443 53.0055 2
3.86727 54.0858 4
7.19404 55.0322 0.0187028
5.02404 56.25 2
6.31991 58.3339 0
13.0339 29.0494 3.97114
11.4153 26.4976 3.96898
13.5581 26.8317 2
10.2065 23.9714 3.96738
11.9729 24.7981 2
13.2936 25.3775 0.0279332
9.24658 21.1416 3.97073
11.1491 22.2405 2
12.8657 23.293 0.0329511
12.2454 20.5589 0.0325022
10.395 19.3251 2
8.41796 18.0297 3.98022
11.6634 17.5725 0.0284837
9.76094 16.1624 2
7.74928 14.6715 4
11.2208 14.3742 0.0166203
9.30602 12.7745 2
10.9835 10.9835 0
14.6721 32.8811 3.97644
18.1308 33.1432 2
20.9186 33.4342 0.0241725
15.6772 29.6628 2
16.0518 26.4275 0.0280975
18.6205 30.2083 0.0251049
13.0334 36.2152 3.97688
15.1152 36.0328 2
17.9592 35.9833 0.0218618
12.7422 37.8304 2
11.3697 38.3091 3.97491
14.4974 39.1712 0.022288
12.0278 40.1359 2
9.81313 40.7508 3.97089
12.5193 42.2679 0.0259072
10.2283 42.7719 2
7.94678 43.2686 3.96732
10.6203 44.7953 0.0302139
8.39746 45.3192 2
6.13496 45.9054 3.96951
8.91834 47.3174 0.0331652
6.72904 47.9997 2
4.42306 48.7516 3.98075
7.4377 50.0349 0.0298667
5.21142 50.9098 2
2.85457 51.8506 4
6.1347 53.0074 0.0183448
3.86727 54.0858 2
5.0241 56.25 0
12.1796 31.2701 3.9724
10.8379 28.4249 3.96919
13.0352 29.0498 2
9.42268 25.8009 3.96735
11.4155 26.4978 2
13.5588 26.8315 0.0283833
8.23336 23.025 3.9706
10.2071 23.9716 2
11.9721 24.7979 0.0313555
7.20005 19.9794 3.98073
9.24745 21.1421 2
11.1482 22.2404 0.0327545
10.3941 19.3248 0.0282666
8.4172 18.0334 2
6.31992 16.6661 4
9.76224 16.1586 0.0197397
7.74926 14.6714 2
9.30607 12.7746 0
12.2036 34.3037 3.97648
14.6731 32.8815 2
18.1326 33.1428 0.0227198
15.6761 29.6623 0.0257688
10.927 36.6134 3.97433
13.0344 36.2152 2
15.1142 36.0325 0.0221605
12.7407 37.8304 0.022358
11.3711 38.309 2
9.40417 38.8222 3.97107
12.0264 40.1361 0.025245
9.81395 40.7506 2
7.55784 41.2105 3.96773
10.2273 42.7722 0.0298022
7.94627 43.2684 2
5.64684 43.7683 3.96945
8.39744 45.3194 0.0329894
6.13508 45.9049 2
3.76862 46.5372 3.98031
6.72891 48.0002 0.0302838
4.42312 48.7511 2
1.99014 49.554 4
5.21153 50.9108 0.0186122
2.85451 51.8506 2
3.86727 54.0858 0
11.0094 32.9281 3.97431
10.1564 30.3908 3.96963
12.1809 31.2704 2
8.73335 27.7345 3.96733
10.8385 28.4251 2
13.0339 29.0494 0.0288566
7.35869 24.9834 3.97021
9.42292 25.8011 2
11.4153 26.4976 0.0310203
6.11698 22.0025 3.98146
8.23396 23.0256 2
10.2065 23.9714 0.0326185
5.02411 18.75 4
7.1997 19.9824 2
9.24658 21.1416 0.0292664
8.41796 18.0297 0.0197843
6.3199 16.6661 2
7.74928 14.6715 0
10.5271 35.0047 3.97421
12.2052 34.3039 2
14.6721 32.8811 0.0235646
9.06866 36.9858 3.97154
10.9283 36.6134 2
13.0334 36.2152 0.0231171
11.3697 38.3091 0.0250881
9.40543 38.8221 2
7.23783 39.182 3.96809
9.81313 40.7508 0.0291064
7.55797 41.2103 2
5.26197 41.614 3.96934
7.94678 43.2686 0.0326779
5.6469 43.7679 2
3.24633 44.2819 3.98026
6.13496 45.9054 0.0304852
3.76878 46.5369 2
1.27781 47.2057 4
4.42306 48.7516 0.0192485
1.99012 49.554 2
2.85457 51.8506 0
10.1622 33.8874 3.97468
9.43992 32.1608 3.97035
11.0107 32.9283 2
8.08221 29.6978 3.96752
10.1572 30.391 2
12.1796 31.2701 0.0275996
6.6023 27.0092 3.96994
8.73314 27.7347 2
10.8379 28.4249 0.0308124
5.17234 24.0951 3.98151
7.359 24.9839 2
9.42268 25.8009 0.0326503
3.86728 20.9142 4
6.11686 22.0044 2
8.23336 23.025 0.0294028
5.02406 18.75 2
7.20005 19.9794 0.0192747
6.31992 16.6661 0
8.88883 35.2821 3.97164
10.5281 35.0047 2
12.2036 34.3037 0.0235195
7.01921 37.2064 3.96804
9.06934 36.9857 2
10.927 36.6134 0.025675
9.40417 38.8222 0.0289259
7.23829 39.1819 2
4.98952 39.4674 3.96956
7.55784 41.2105 0.0322668
5.26235 41.6137 2
2.85678 42.0022 3.98022
5.64684 43.7683 0.0305468
3.2464 44.2817 2
0.720592 44.8159 4
3.76862 46.5372 0.019688
1.27778 47.2057 2
1.99014 49.554 0
8.92765 33.702 3.97144
10.1633 33.8875 2
7.51844 31.6109 3.96775
9.44088 32.161 2
11.0094 32.9281 0.0256932
5.94729 29.0701 3.96996
8.08176 29.6979 2
10.1564 30.3908 0.0303721
4.36002 26.2475 3.98097
6.60241 27.0095 2
8.73335 27.7345 0.0326733
2.85458 23.1494 4
5.17233 24.0959 2
7.35869 24.9834 0.0297886
3.86728 20.9142 2
6.11698 22.0025 0.0185377
5.02411 18.75 0
6.96777 35.307 3.96804
8.8896 35.2821 2
10.5271 35.0047 0.0257864
4.83965 37.3398 3.96997
7.01943 37.2063 2
9.06866 36.9858 0.0284623
7.23783 39.182 0.0319081
4.9899 39.4672 2
2.60481 39.7138 3.9802
5.26197 41.614 0.0306576
2.85709 42.0022 2
0.320823 42.3947 4
3.24633 44.2819 0.0197407
0.720551 44.8159 2
1.27781 47.2057 0
7.12913 33.4622 3.96796
8.92813 33.7021 2
10.1622 33.8874 0.0253178
5.418 31.1339 3.97013
7.51829 31.6111 2
9.43992 32.1608 0.029645
3.68169 28.4434 3.98055
5.94736 29.0704 2
8.08221 29.6978 0.0324782
1.99015 25.446 4
4.36008 26.2478 2
6.6023 27.0092 0.0300634
2.85453 23.1494 2
5.17234 24.0951 0.0184906
3.86728 20.9142 0
4.85391 35.2517 3.97017
6.96796 35.307 2
8.88883 35.2821 0.0283609
2.49623 37.4284 3.98083
4.83966 37.3399 2
7.01921 37.2064 0.0319607
4.98952 39.4674 0.0304375
2.60519 39.7142 2
0.080333 39.9526 4
2.85678 42.0022 0.0197758
0.320817 42.3947 2
0.720592 44.8159 0
5.04733 33.1904 3.97018
7.12902 33.4623 2
8.92765 33.702 0.0285631
3.14593 30.6661 3.98046
5.4181 31.1342 2
7.51844 31.6109 0.0322488
1.27793 27.7943 4
3.68184 28.4436 2
5.94729 29.0701 0.0300354
1.99013 25.446 2
4.36002 26.2475 0.0190306
2.85458 23.1494 0
2.54833 35.159 3.98071
4.85436 35.2519 2
6.96777 35.307 0.0319591
0 37.5 4
2.49627 37.4289 2
4.83965 37.3398 0.0300257
2.60481 39.7138 0.0198001
0.0802903 39.9526 2
0.320823 42.3947 0
2.76595 32.9057 3.98082
5.04746 33.1907 2
7.12913 33.4622 0.0320429
0.721173 30.1842 4
3.14612 30.6665 2
5.418 31.1339 0.0298656
1.27779 27.7943 2
3.68169 28.4434 0.0194453
1.99015 25.446 0
0.0806499 35.0474 4
2.54878 35.1594 2
4.85391 35.2517 0.0298257
0 37.5 2
2.49623 37.4284 0.019173
0.080333 39.9526 0
0.32156 32.6054 4
2.76605 32.9062 2
5.04733 33.1904 0.0298182
0.72056 30.1841 2
3.14593 30.6661 0.0195421
1.27793 27.7943 0
0.0802889 35.0474 2
2.54833 35.159 0.0192881
0 37.5 0
0.320817 32.6053 2
2.76595 32.9057 0.0191808
0.721173 30.1842 0
0.0806499 35.0474 0
0.32156 32.6054 0
CELLS 1910 17190
8 18 6 25 56 2 0 5 16
8 57 23 6 18 17 4 0 2
8 78 36 9 29 31 11 1 7
8 31 11 1 7 79 37 10 30
8 110 57 18 50 48 17 2 14
8 50 18 56 111 14 2 16 49
8 116 62 22 55 52 20 3 15
8 56 25 67 118 16 5 24 53
8 119 63 23 57 54 21 4 17
8 55 22 63 119 15 3 21 54
8 58 26 68 121 18 6 25 56
8 122 65 26 58 57 23 6 18
8 73 31 7 27 142 79 30 71
8 143 78 29 72 73 31 7 27
8 83 147 76 34 32 74 28 8
8 84 148 78 36 33 75 29 9
8 76 34 8 28 148 84 33 75
8 37 79 150 86 10 30 77 35
8 151 87 36 78 80 38 11 31
8 80 38 11 31 152 88 37 79
8 175 100 42 94 96 44 12 40
8 44 96 176 101 12 40 95 43
8 101 176 98 46 43 95 41 13
8 46 98 178 103 13 41 97 45
8 178 103 45 97 147 83 32 74
8 189 116 55 109 106 52 15 47
8 111 56 118 191 49 16 53 107
8 192 119 57 110 108 54 17 48
8 109 55 119 192 47 15 54 108
8 194 122 58 112 110 57 18 50
8 112 58 121 195 50 18 56 111
8 115 61 19 51 197 124 59 113
8 115 61 125 198 51 19 60 114
8 198 125 62 116 114 60 20 52
8 200 127 64 120 116 62 22 55
8 118 67 132 202 53 24 66 117
8 121 68 133 203 56 25 67 118
8 120 64 128 204 55 22 63 119
8 204 128 65 122 119 63 23 57
8 206 134 68 121 123 69 26 58
8 123 69 26 58 207 131 65 122
8 226 147 74 138 140 76 28 70
8 229 148 75 139 143 78 29 72
8 140 76 28 70 229 148 75 139
8 142 79 30 71 231 150 77 141
8 144 80 31 73 232 152 79 142
8 233 151 78 143 144 80 31 73
8 150 86 35 77 235 154 81 145
8 235 154 81 145 146 82 39 91
8 146 82 39 91 236 155 90 165
8 238 157 83 147 149 85 34 76
8 239 158 84 148 151 87 36 78
8 149 85 34 76 239 158 84 148
8 152 88 37 79 241 160 86 150
8 242 161 87 151 153 89 38 80
8 153 89 38 80 243 162 88 152
8 171 98 41 92 265 178 97 169
8 265 178 97 169 226 147 74 138
8 172 96 40 93 266 176 95 170
8 266 176 95 170 171 98 41 92
8 269 175 94 173 172 96 40 93
8 271 180 99 174 175 100 42 94
8 197 124 59 113 271 180 99 174
8 272 181 100 175 177 102 44 96
8 273 182 101 176 179 104 46 98
8 177 102 44 96 273 182 101 176
8 179 104 46 98 275 184 103 178
8 275 184 103 178 238 157 83 147
8 188 115 51 105 283 197 113 186
8 188 115 198 284 105 51 114 187
8 284 198 116 189 187 114 52 106
8 286 200 120 193 189 116 55 109
8 191 118 202 288 107 53 117 190
8 195 121 203 289 111 56 118 191
8 193 120 204 290 109 55 119 192
8 290 204 122 194 192 119 57 110
8 196 123 58 112 292 207 122 194
8 293 206 121 195 196 123 58 112
8 199 126 61 115 297 211 124 197
8 298 212 127 200 198 125 62 116
8 199 126 212 298 115 61 125 198
8 205 129 64 120 300 214 127 200
8 301 217 130 201 202 132 66 117
8 209 136 168 264 301 217 130 201
8 302 219 132 202 203 133 67 118
8 303 220 133 203 206 134 68 121
8 205 129 215 304 120 64 128 204
8 304 215 131 207 204 128 65 122
8 306 221 134 206 208 135 69 123
8 208 135 69 123 307 218 131 207
8 210 137 167 263 309 223 136 209
8 328 238 147 226 230 149 76 140
8 228 146 91 166 329 236 165 260
8 231 150 77 141 330 235 145 227
8 330 235 145 227 228 146 91 166
8 332 239 148 229 233 151 78 143
8 230 149 76 140 332 239 148 229
8 232 152 79 142 334 241 150 231
8 234 153 80 144 335 243 152 232
8 336 242 151 233 234 153 80 144
8 236 155 90 165 338 245 164 259
8 241 160 86 150 339 246 154 235
8 339 246 154 235 237 156 82 146
8 237 156 82 146 340 247 155 236
8 342 249 157 238 240 159 85 149
8 343 250 158 239 242 161 87 151
8 240 159 85 149 343 250 158 239
8 243 162 88 152 345 252 160 241
8 244 163 253 346 153 89 161 242
8 244 163 89 153 347 254 162 243
8 311 224 261 371 210 137 167 263
8 263 167 262 372 209 136 168 264
8 267 179 98 171 375 275 178 265
8 375 275 178 265 328 238 147 226
8 376 273 176 266 267 179 98 171
8 268 177 96 172 376 273 176 266
8 379 272 175 269 268 177 96 172
8 380 271 174 270 269 175 94 173
8 283 197 113 186 380 271 174 270
8 381 277 180 271 272 181 100 175
8 297 211 124 197 381 277 180 271
8 382 278 181 272 274 183 102 177
8 274 183 102 177 383 279 182 273
8 383 279 182 273 276 185 104 179
8 385 281 184 275 342 249 157 238
8 276 185 104 179 385 281 184 275
8 285 199 115 188 393 297 197 283
8 394 298 200 286 284 198 116 189
8 285 199 298 394 188 115 198 284
8 291 205 120 193 396 300 200 286
8 397 301 201 287 288 202 117 190
8 295 209 264 374 397 301 201 287
8 398 302 202 288 289 203 118 191
8 399 303 203 289 293 206 121 195
8 291 205 304 400 193 120 204 290
8 400 304 207 292 290 204 122 194
8 294 208 123 196 402 307 207 292
8 403 306 206 293 294 208 123 196
8 296 210 263 373 405 309 209 295
8 408 312 213 299 297 211 126 199
8 299 213 313 409 199 126 212 298
8 409 313 214 300 298 212 127 200
8 305 216 129 205 411 315 214 300
8 412 318 217 301 302 219 132 202
8 309 223 136 209 412 318 217 301
8 413 320 219 302 303 220 133 203
8 306 221 321 414 206 134 220 303
8 307 218 131 207 415 316 215 304
8 305 216 316 415 205 129 215 304
8 417 322 221 306 308 222 135 208
8 308 222 135 208 418 319 218 307
8 310 225 137 210 420 325 223 309
8 423 326 224 311 310 225 137 210
8 329 236 165 260 441 338 259 368
8 442 342 238 328 333 240 149 230
8 331 237 146 228 443 340 236 329
8 334 241 150 231 444 339 235 330
8 444 339 235 330 331 237 146 228
8 446 343 239 332 336 242 151 233
8 333 240 149 230 446 343 239 332
8 335 243 152 232 448 345 241 334
8 337 244 153 234 449 347 243 335
8 337 244 346 450 234 153 242 336
8 338 245 164 259 452 349 258 367
8 340 247 155 236 453 350 245 338
8 345 252 160 241 454 351 246 339
8 454 351 246 339 341 248 156 237
8 341 248 156 237 455 352 247 340
8 240 159 251 344 342 249 354 457
8 242 161 253 346 343 250 355 458
8 343 250 355 458 240 159 251 344
8 347 254 162 243 460 357 252 345
8 348 255 358 461 244 163 253 346
8 348 255 163 244 462 359 254 347
8 473 360 257 365 363 256 364 482
8 452 349 258 367 365 257 366 485
8 422 324 369 488 311 224 261 371
8 371 261 370 490 263 167 262 372
8 407 311 371 491 296 210 263 373
8 373 263 372 492 295 209 264 374
8 493 385 275 375 442 342 238 328
8 377 276 179 267 493 385 275 375
8 378 274 177 268 494 383 273 376
8 494 383 273 376 377 276 179 267
8 497 382 272 379 378 274 177 268
8 498 381 271 380 379 272 175 269
8 393 297 197 283 498 381 271 380
8 499 387 277 381 382 278 181 272
8 408 312 211 297 499 387 277 381
8 500 388 278 382 384 280 183 274
8 501 389 279 383 386 282 185 276
8 384 280 183 274 501 389 279 383
8 386 282 185 276 503 391 281 385
8 503 391 281 385 457 354 249 342
8 511 408 299 395 393 297 199 285
8 395 299 409 512 285 199 298 394
8 512 409 300 396 394 298 200 286
8 401 305 205 291 514 411 300 396
8 515 412 301 397 398 302 202 288
8 405 309 209 295 515 412 301 397
8 516 413 302 398 399 303 203 289
8 403 306 414 517 293 206 303 399
8 402 307 207 292 518 415 304 400
8 401 305 415 518 291 205 304 400
8 404 308 208 294 520 418 307 402
8 521 417 306 403 404 308 208 294
8 406 310 210 296 523 420 309 405
8 526 423 311 407 406 310 210 296
8 410 314 213 299 527 424 312 408
8 528 425 315 411 409 313 214 300
8 410 314 425 528 299 213 313 409
8 416 317 216 305 530 427 315 411
8 531 430 318 412 413 320 219 302
8 420 325 223 309 531 430 318 412
8 532 432 320 413 414 321 220 303
8 417 322 433 533 306 221 321 414
8 418 319 218 307 534 428 316 415
8 416 317 428 534 305 216 316 415
8 419 323 434 536 308 222 322 417
8 419 323 222 308 537 431 319 418
8 421 327 225 310 539 438 325 420
8 421 327 439 541 310 225 326 423
8 543 437 324 422 423 326 224 311
8 441 338 259 368 559 452 367 486
8 443 340 236 329 560 453 338 441
8 333 240 344 447 442 342 457 561
8 445 341 237 331 562 455 340 443
8 448 345 241 334 563 454 339 444
8 563 454 339 444 445 341 237 331
8 336 242 346 450 446 343 458 565
8 446 343 458 565 333 240 344 447
8 449 347 243 335 567 460 345 448
8 451 348 244 337 568 462 347 449
8 451 348 461 569 337 244 346 450
8 570 463 349 452 473 360 257 365
8 453 350 245 338 570 463 349 452
8 455 352 247 340 571 464 350 453
8 460 357 252 345 572 465 351 454
8 572 465 351 454 456 353 248 341
8 456 353 248 341 573 466 352 455
8 344 251 356 459 457 354 468 575
8 458 355 469 576 344 251 356 459
8 346 253 358 461 458 355 469 576
8 462 359 254 347 578 471 357 460
8 348 255 359 462 461 358 472 579
8 591 474 360 473 475 361 256 363
8 475 361 256 363 594 477 362 479
8 363 256 364 482 479 362 480 603
8 590 473 365 484 481 363 482 605
8 482 364 257 365 606 483 366 485
8 559 452 367 486 484 365 485 607
8 542 436 487 609 422 324 369 488
8 525 422 488 611 407 311 371 491
8 488 369 489 612 371 261 370 490
8 491 371 490 613 373 263 372 492
8 495 386 276 377 614 503 385 493
8 614 503 385 493 561 457 342 442
8 615 501 383 494 495 386 276 377
8 496 384 274 378 615 501 383 494
8 618 500 382 497 496 384 274 378
8 619 499 381 498 497 382 272 379
8 511 408 297 393 619 499 381 498
8 620 505 387 499 500 388 278 382
8 527 424 312 408 620 505 387 499
8 502 390 506 621 384 280 388 500
8 622 507 389 501 504 392 282 386
8 502 390 280 384 622 507 389 501
8 504 392 282 386 624 509 391 503
8 624 509 391 503 575 468 354 457
8 513 410 299 395 630 527 408 511
8 631 528 411 514 512 409 300 396
8 513 410 528 631 395 299 409 512
8 519 416 305 401 633 530 411 514
8 634 531 412 515 516 413 302 398
8 523 420 309 405 634 531 412 515
8 635 532 413 516 517 414 303 399
8 521 417 533 636 403 306 414 517
8 520 418 307 402 637 534 415 518
8 519 416 534 637 401 305 415 518
8 522 419 308 404 639 537 418 520
8 522 419 536 640 404 308 417 521
8 524 421 310 406 642 539 420 523
8 524 421 541 644 406 310 423 526
8 646 543 422 525 526 423 311 407
8 529 426 314 410 647 544 424 527
8 528 425 545 648 411 315 427 530
8 529 426 545 648 410 314 425 528
8 535 429 317 416 649 546 427 530
8 650 548 430 531 532 432 320 413
8 539 438 325 420 650 548 430 531
8 533 433 550 651 414 321 432 532
8 536 434 551 652 417 322 433 533
8 537 431 319 418 653 547 428 534
8 535 429 547 653 416 317 428 534
8 538 435 552 654 419 323 434 536
8 538 435 323 419 655 549 431 537
8 540 440 327 421 657 556 438 539
8 540 440 557 659 421 327 439 541
8 541 439 555 660 423 326 437 543
8 661 554 436 542 543 437 324 422
8 676 570 452 559 590 473 365 484
8 560 453 338 441 676 570 452 559
8 562 455 340 443 677 571 453 560
8 447 344 459 566 561 457 575 678
8 564 456 341 445 679 573 455 562
8 567 460 345 448 680 572 454 563
8 680 572 454 563 564 456 341 445
8 565 458 576 682 447 344 459 566
8 450 346 461 569 565 458 576 682
8 568 462 347 449 684 578 460 567
8 451 348 462 568 569 461 579 685
8 686 580 463 570 591 474 360 473
8 571 464 350 453 686 580 463 570
8 573 466 352 455 687 581 464 571
8 572 465 582 688 460 357 471 578
8 574 467 582 688 456 353 465 572
8 574 467 353 456 689 583 466 573
8 459 356 470 577 575 468 585 691
8 576 469 586 692 459 356 470 577
8 461 358 472 579 576 469 586 692
8 462 359 471 578 579 472 588 694
8 704 591 473 590 593 475 363 481
8 595 476 592 705 475 361 474 591
8 593 475 363 481 707 594 479 602
8 594 477 362 479 709 598 478 600
8 595 476 361 475 711 597 477 594
8 479 362 480 603 600 478 601 720
8 481 363 482 605 602 479 603 722
8 603 480 364 482 723 604 483 606
8 605 482 365 484 724 606 485 607
8 656 553 608 726 542 436 487 609
8 645 542 609 728 525 422 488 611
8 609 487 610 729 488 369 489 612
8 611 488 612 730 491 371 490 613
8 616 504 386 495 731 624 503 614
8 731 624 503 614 678 575 457 561
8 732 622 501 615 616 504 386 495
8 617 502 384 496 732 622 501 615
8 617 502 621 735 496 384 500 618
8 736 620 499 619 618 500 382 497
8 630 527 408 511 736 620 499 619
8 621 506 626 737 500 388 505 620
8 647 544 424 527 737 626 505 620
8 623 508 627 738 502 390 506 621
8 623 508 390 502 739 628 507 622
8 625 510 628 739 504 392 507 622
8 740 629 509 624 691 585 468 575
8 625 510 392 504 740 629 509 624
8 632 529 410 513 744 647 527 630
8 631 528 648 745 514 411 530 633
8 632 529 648 745 513 410 528 631
8 638 535 416 519 746 649 530 633
8 747 650 531 634 635 532 413 516
8 642 539 420 523 747 650 531 634
8 636 533 651 748 517 414 532 635
8 640 536 652 749 521 417 533 636
8 639 537 418 520 750 653 534 637
8 638 535 653 750 519 416 534 637
8 641 538 419 522 751 655 537 639
8 641 538 654 752 522 419 536 640
8 643 540 421 524 753 657 539 642
8 643 540 659 755 524 421 541 644
8 644 541 660 757 526 423 543 646
8 758 661 542 645 646 543 422 525
8 529 426 544 647 648 545 662 759
8 530 427 545 648 649 546 663 760
8 535 429 546 649 653 547 664 761
8 762 666 548 650 651 550 432 532
8 657 556 438 539 762 666 548 650
8 652 551 668 763 533 433 550 651
8 654 552 669 764 536 434 551 652
8 655 549 431 537 765 665 547 653
8 538 435 549 655 654 552 667 766
8 661 554 671 768 542 436 553 656
8 658 558 440 540 769 674 556 657
8 658 558 675 770 540 440 557 659
8 659 557 673 771 541 439 555 660
8 660 555 672 772 543 437 554 661
8 788 686 570 676 704 591 473 590
8 677 571 453 560 788 686 570 676
8 679 573 455 562 789 687 571 677
8 566 459 577 683 678 575 691 790
8 681 574 456 564 791 689 573 679
8 680 572 688 792 567 460 578 684
8 681 574 688 792 564 456 572 680
8 682 576 692 794 566 459 577 683
8 569 461 579 685 682 576 692 794
8 568 462 578 684 685 579 694 796
8 687 581 464 571 798 696 580 686
8 798 696 580 686 705 592 474 591
8 689 583 466 573 799 697 581 687
8 688 582 698 800 578 471 588 694
8 690 584 698 800 574 467 582 688
8 690 584 467 574 801 699 583 689
8 693 587 701 803 577 470 585 691
8 693 587 470 577 804 702 586 692
8 695 589 702 804 579 472 586 692
8 695 589 472 579 805 703 588 694
8 708 595 705 813 593 475 591 704
8 710 596 706 814 595 476 592 705
8 707 594 479 602 816 709 600 719
8 708 595 475 593 817 711 594 707
8 709 598 478 600 819 715 599 717
8 711 597 477 594 820 714 598 709
8 710 596 476 595 822 713 597 711
8 600 478 601 720 717 599 718 832
8 602 479 603 722 719 600 720 834
8 720 601 480 603 835 721 604 723
8 722 603 482 605 836 723 606 724
8 767 670 725 839 656 553 608 726
8 756 656 726 841 645 542 609 728
8 726 608 727 842 609 487 610 729
8 728 609 729 843 611 488 612 730
8 844 740 624 731 790 691 575 678
8 733 625 504 616 844 740 624 731
8 734 623 502 617 845 739 622 732
8 733 625 739 845 616 504 622 732
8 734 623 738 846 617 502 621 735
8 735 621 737 847 618 500 620 736
8 744 647 527 630 847 737 620 736
8 621 506 627 738 737 626 741 848
8 647 544 626 737 759 662 741 848
8 623 508 628 739 738 627 742 849
8 740 629 585 691 850 743 700 802
8 625 510 629 740 739 628 743 850
8 632 529 647 744 745 648 759 854
8 633 530 648 745 746 649 760 855
8 638 535 649 746 750 653 761 856
8 857 762 650 747 748 651 532 635
8 753 657 539 642 857 762 650 747
8 749 652 763 858 636 533 651 748
8 752 654 764 859 640 536 652 749
8 751 655 537 639 860 765 653 750
8 641 538 655 751 752 654 766 861
8 754 658 540 643 862 769 657 753
8 754 658 770 863 643 540 659 755
8 755 659 771 864 644 541 660 757
8 758 661 768 866 645 542 656 756
8 757 660 772 867 646 543 661 758
8 759 662 773 868 648 545 663 760
8 649 546 663 760 761 664 774 871
8 765 665 547 653 872 775 664 761
8 873 777 666 762 763 668 550 651
8 769 674 556 657 873 777 666 762
8 764 669 779 874 652 551 668 763
8 654 552 667 766 764 669 778 875
8 655 549 665 765 766 667 776 876
8 768 671 782 877 656 553 670 767
8 772 672 783 878 661 554 671 768
8 658 558 674 769 770 675 786 879
8 659 557 675 770 771 673 785 881
8 882 784 672 772 771 673 555 660
8 789 687 571 677 897 798 686 788
8 897 798 686 788 813 705 591 704
8 791 689 573 679 898 799 687 789
8 795 693 803 900 683 577 691 790
8 793 690 574 681 901 801 689 791
8 792 688 800 902 684 578 694 796
8 793 690 800 902 681 574 688 792
8 795 693 577 683 903 804 692 794
8 797 695 804 903 685 579 692 794
8 797 695 579 685 904 805 694 796
8 905 806 697 799 798 696 581 687
8 814 706 806 905 705 592 696 798
8 689 583 697 799 801 699 808 907
8 800 698 809 908 694 588 703 805
8 690 584 699 801 800 698 809 908
8 803 701 810 909 691 585 700 802
8 693 587 702 804 803 701 811 910
8 695 589 703 805 804 702 812 911
8 818 710 814 919 708 595 705 813
8 821 712 815 920 710 596 706 814
8 816 709 600 719 922 819 717 831
8 817 711 594 707 923 820 709 816
8 818 710 595 708 924 822 711 817
8 819 715 599 717 926 827 716 829
8 820 714 598 709 927 826 715 819
8 929 825 713 822 820 714 597 711
8 821 712 596 710 930 824 713 822
8 717 599 718 832 829 716 830 942
8 719 600 720 834 831 717 832 944
8 832 718 601 720 945 833 721 835
8 834 720 603 722 946 835 723 836
8 869 780 838 950 767 670 725 839
8 865 767 839 952 756 656 726 841
8 839 725 840 953 726 608 727 842
8 841 726 842 954 728 609 729 843
8 844 740 691 790 955 850 802 899
8 733 625 740 844 845 739 850 955
8 734 623 739 845 846 738 849 956
8 735 621 738 846 847 737 848 957
8 744 647 737 847 854 759 848 957
8 738 627 742 849 848 741 851 958
8 848 741 851 958 759 662 773 868
8 850 743 700 802 959 852 807 906
8 849 742 628 739 959 852 743 850
8 854 759 868 965 745 648 760 855
8 746 649 760 855 856 761 871 966
8 860 765 653 750 967 872 761 856
8 968 873 762 857 858 763 651 748
8 862 769 657 753 968 873 762 857
8 859 764 874 969 749 652 763 858
8 752 654 766 861 859 764 875 970
8 751 655 765 860 861 766 876 971
8 754 658 769 862 863 770 879 972
8 755 659 770 863 864 771 881 974
8 976 882 772 867 864 771 660 757
8 866 768 877 977 756 656 767 865
8 867 772 878 978 758 661 768 866
8 760 663 773 868 871 774 883 980
8 870 781 837 948 982 890 780 869
8 982 890 780 869 877 782 670 767
8 761 664 774 871 872 775 884 984
8 876 776 665 765 985 885 775 872
8 873 777 668 763 986 887 779 874
8 769 674 777 873 879 786 887 986
8 764 669 778 875 874 779 888 987
8 766 667 776 876 875 778 886 988
8 878 783 892 989 768 671 782 877
8 878 783 672 772 990 893 784 882
8 880 787 675 770 991 896 786 879
8 880 787 895 992 770 675 785 881
8 881 785 894 993 771 673 784 882
8 1006 905 799 898 897 798 687 789
8 919 814 905 1006 813 705 798 897
8 791 689 799 898 901 801 907 1007
8 900 803 909 1009 790 691 802 899
8 795 693 804 903 900 803 910 1010
8 902 800 908 1011 796 694 805 904
8 793 690 801 901 902 800 908 1011
8 797 695 805 904 903 804 911 1012
8 799 697 806 905 907 808 912 1013
8 920 815 912 1013 814 706 806 905
8 802 700 810 909 906 807 913 1014
8 801 699 808 907 908 809 914 1015
8 805 703 809 908 911 812 915 1016
8 803 701 811 910 909 810 916 1017
8 911 812 917 1018 804 702 811 910
8 925 821 920 1030 818 710 814 919
8 928 823 921 1031 821 712 815 920
8 922 819 717 831 1033 926 829 941
8 923 820 709 816 1034 927 819 922
8 1035 929 822 924 923 820 711 817
8 925 821 710 818 1036 930 822 924
8 1038 933 825 929 927 826 714 820
8 926 827 716 829 1039 935 828 939
8 927 826 715 819 1040 934 827 926
8 928 823 712 821 1041 931 824 930
8 1042 932 824 930 929 825 713 822
8 829 716 830 942 939 828 940 1058
8 831 717 832 944 941 829 942 1060
8 942 830 718 832 1061 943 833 945
8 944 832 720 834 1062 945 835 946
8 981 889 947 1064 870 781 837 948
8 948 837 949 1067 869 780 838 950
8 975 869 950 1069 865 767 839 952
8 950 838 951 1070 839 725 840 953
8 952 839 953 1071 841 726 842 954
8 955 850 802 899 1072 959 906 1008
8 956 849 739 845 1072 959 850 955
8 846 738 849 956 957 848 958 1073
8 957 848 958 1073 854 759 868 965
8 849 742 852 959 958 851 961 1076
8 960 853 961 1076 906 807 852 959
8 958 851 961 1076 868 773 883 980
8 960 853 807 906 1077 963 913 1014
8 855 760 868 965 966 871 980 1085
8 856 761 871 966 967 872 984 1086
8 971 876 765 860 1087 985 872 967
8 968 873 763 858 1088 986 874 969
8 862 769 873 968 972 879 986 1088
8 859 764 875 970 969 874 987 1089
8 861 766 876 971 970 875 988 1090
8 973 880 770 863 1091 991 879 972
8 973 880 992 1092 863 770 881 974
8 974 881 993 1093 864 771 882 976
8 979 870 948 1066 1094 982 869 975
8 1094 982 869 975 977 877 767 865
8 978 878 772 867 1095 990 882 976
8 978 878 989 1096 866 768 877 977
8 871 774 883 980 984 884 994 1099
8 983 891 999 1100 870 781 889 981
8 1101 1000 890 982 989 892 782 877
8 983 891 781 870 1101 1000 890 982
8 872 775 884 984 985 885 995 1103
8 876 776 885 985 988 886 996 1104
8 986 887 779 874 1105 998 888 987
8 879 786 887 986 991 896 998 1105
8 875 778 886 988 987 888 997 1106
8 990 893 1002 1107 878 783 892 989
8 1108 1003 893 990 993 894 784 882
8 880 787 896 991 992 895 1005 1109
8 993 894 785 881 1110 1004 895 992
8 898 799 905 1006 1007 907 1013 1120
8 1030 920 1013 1120 919 814 905 1006
8 901 801 907 1007 1011 908 1015 1121
8 899 802 909 1009 1008 906 1014 1122
8 900 803 910 1010 1009 909 1017 1123
8 1012 911 1018 1124 903 804 910 1010
8 904 805 908 1011 1012 911 1016 1125
8 1013 912 1020 1127 907 808 914 1015
8 1031 921 1020 1127 920 815 912 1013
8 1019 918 962 1075 1128 1021 913 1014
8 1128 1021 913 1014 1017 916 810 909
8 1015 914 1022 1129 908 809 915 1016
8 1016 915 1023 1130 911 812 917 1018
8 1018 917 1024 1131 910 811 916 1017
8 1037 928 1031 1148 925 821 920 1030
8 928 823 931 1041 1031 921 1032 1149
8 1033 926 829 941 1151 1039 939 1057
8 1034 927 819 922 1152 1040 926 1033
8 1153 1038 929 1035 1034 927 820 923
8 1154 1042 930 1036 1035 929 822 924
8 1037 928 821 925 1155 1041 930 1036
8 1039 935 828 939 1156 1047 938 1055
8 1157 1043 932 1042 1038 933 825 929
8 1038 933 826 927 1158 1045 934 1040
8 1040 934 827 926 1159 1046 935 1039
8 930 824 932 1042 1041 931 1044 1160
8 1051 936 1048 1165 1175 1052 937 1053
8 1156 1047 938 1055 1053 937 1054 1178
8 939 828 940 1058 1055 938 1056 1181
8 941 829 942 1060 1057 939 1058 1183
8 942 830 943 1061 1058 940 1059 1184
8 1060 942 832 944 1185 1061 945 1062
8 1082 964 1063 1188 981 889 947 1064
8 1097 981 1064 1190 979 870 948 1066
8 1064 947 1065 1191 948 837 949 1067
8 1066 948 1067 1193 975 869 950 1069
8 1067 949 1068 1194 950 838 951 1070
8 1069 950 1070 1195 952 839 953 1071
8 956 849 959 1072 1073 958 1076 1197
8 1074 960 1076 1197 1008 906 959 1072
8 1073 958 1076 1197 965 868 980 1085
8 1074 960 906 1008 1198 1077 1014 1122
8 1133 1026 1079 1199 1019 918 962 1075
8 1077 963 913 1014 1200 1080 962 1075
8 960 853 963 1077 1076 961 1078 1201
8 980 883 961 1076 1099 994 1078 1201
8 1210 1083 964 1082 1100 999 889 981
8 966 871 980 1085 1086 984 1099 1215
8 967 872 984 1086 1087 985 1103 1216
8 971 876 985 1087 1090 988 1104 1217
8 1088 986 874 969 1218 1105 987 1089
8 972 879 986 1088 1091 991 1105 1218
8 970 875 988 1090 1089 987 1106 1219
8 973 880 991 1091 1092 992 1109 1220
8 1093 993 881 974 1221 1110 992 1092
8 1222 1108 990 1095 1093 993 882 976
8 1223 1101 982 1094 1096 989 877 977
8 1098 983 870 979 1223 1101 982 1094
8 1095 990 1107 1224 978 878 989 1096
8 1098 983 1100 1225 979 870 981 1097
8 984 884 994 1099 1103 995 1111 1227
8 1102 1001 1115 1228 983 891 999 1100
8 1101 1000 892 989 1229 1116 1002 1107
8 1102 1001 891 983 1229 1116 1000 1101
8 985 885 995 1103 1104 996 1112 1230
8 988 886 996 1104 1106 997 1113 1231
8 1105 998 888 987 1232 1114 997 1106
8 991 896 998 1105 1109 1005 1114 1232
8 1108 1003 1117 1233 990 893 1002 1107
8 1108 1003 894 993 1233 1117 1004 1110
8 992 895 1005 1109 1110 1004 1118 1234
8 1120 1013 1127 1244 1007 907 1015 1121
8 1148 1031 1127 1244 1030 920 1013 1120
8 1121 1015 1129 1245 1011 908 1016 1125
8 1126 1019 1075 1196 1246 1128 1014 1122
8 1246 1128 1014 1122 1123 1017 909 1009
8 1124 1018 1131 1247 1010 910 1017 1123
8 1125 1016 1130 1248 1012 911 1018 1124
8 1127 1020 1137 1254 1015 914 1022 1129
8 1031 921 1032 1149 1127 1020 1137 1254
8 1134 1027 918 1019 1257 1140 1021 1128
8 1257 1140 1021 1128 1131 1024 916 1017
8 1129 1022 1141 1258 1016 915 1023 1130
8 1130 1023 1142 1259 1018 917 1024 1131
8 1261 1144 1025 1132 1133 1026 1079 1199
8 1255 1138 1025 1132 1135 1028 1144 1261
8 1133 1026 918 1019 1262 1145 1027 1134
8 1136 1029 1139 1256 1263 1146 1028 1135
8 1037 928 1041 1155 1148 1031 1149 1275
8 1041 931 1044 1160 1149 1032 1150 1276
8 1151 1039 939 1057 1278 1156 1055 1180
8 1152 1040 926 1033 1279 1159 1039 1151
8 1153 1038 927 1034 1280 1158 1040 1152
8 1281 1157 1042 1154 1153 1038 929 1035
8 1036 930 1042 1154 1155 1041 1160 1282
8 1283 1164 1046 1159 1156 1047 935 1039
8 1165 1048 1164 1283 1053 937 1047 1156
8 1157 1043 933 1038 1284 1161 1045 1158
8 1157 1043 1161 1284 1042 932 1044 1160
8 1040 934 1046 1159 1158 1045 1163 1285
8 1166 1049 1167 1292 1051 936 1048 1165
8 1166 1049 936 1051 1293 1168 1050 1172
8 1051 936 1052 1175 1172 1050 1173 1306
8 1174 1051 1165 1290 1308 1175 1053 1177
8 1053 937 1054 1178 1175 1052 1176 1309
8 1278 1156 1055 1180 1177 1053 1178 1311
8 1055 938 1056 1181 1178 1054 1179 1312
8 1057 939 1058 1183 1180 1055 1181 1314
8 1058 940 1059 1184 1181 1056 1182 1315
8 1060 942 1061 1185 1183 1058 1184 1316
8 1208 1081 1187 1321 1082 964 1063 1188
8 1209 1082 1188 1322 1097 981 1064 1190
8 1188 1063 1189 1323 1064 947 1065 1191
8 1190 1064 1191 1325 1066 948 1067 1193
8 1191 1065 1192 1326 1067 949 1068 1194
8 1067 1193 1069 950 1194 1327 1195 1070
8 1250 1133 1199 1330 1126 1019 1075 1196
8 1198 1077 1014 1122 1331 1200 1075 1196
8 1074 960 1077 1198 1197 1076 1201 1332
8 1085 980 1076 1197 1215 1099 1201 1332
8 1199 1079 1203 1333 1075 962 1080 1200
8 1132 1025 1119 1243 1199 1079 1203 1333
8 1201 1078 963 1077 1334 1202 1080 1200
8 1099 994 1078 1201 1227 1111 1202 1334
8 1343 1207 1081 1208 1210 1083 964 1082
8 1214 1084 1186 1319 1343 1207 1081 1208
8 1345 1210 1082 1209 1225 1100 981 1097
8 1346 1211 1083 1210 1228 1115 999 1100
8 1086 984 1099 1215 1216 1103 1227 1352
8 1087 985 1103 1216 1217 1104 1230 1353
8 1090 988 1104 1217 1219 1106 1231 1354
8 1218 1105 987 1089 1355 1232 1106 1219
8 1091 991 1105 1218 1220 1109 1232 1355
8 1092 992 1109 1220 1221 1110 1234 1356
8 1222 1108 1233 1357 1095 990 1107 1224
8 1222 1108 993 1093 1357 1233 1110 1221
8 1223 1101 989 1096 1358 1229 1107 1224
8 1226 1102 983 1098 1358 1229 1101 1223
8 1226 1102 1228 1359 1098 983 1100 1225
8 1103 995 1111 1227 1230 1112 1235 1360
8 1107 1002 1117 1233 1229 1116 1240 1362
8 1102 1001 1116 1229 1228 1115 1240 1362
8 1104 996 1112 1230 1231 1113 1236 1363
8 1364 1237 1114 1232 1231 1113 997 1106
8 1109 1005 1114 1232 1234 1118 1238 1365
8 1110 1004 1118 1234 1233 1117 1241 1366
8 1242 1374 1255 1138 1119 1243 1132 1025
8 1244 1127 1254 1376 1121 1015 1129 1245
8 1148 1031 1149 1275 1244 1127 1254 1376
8 1245 1129 1258 1377 1125 1016 1130 1248
8 1251 1134 1019 1126 1378 1257 1128 1246
8 1378 1257 1128 1246 1247 1131 1017 1123
8 1248 1130 1259 1379 1124 1018 1131 1247
8 1261 1381 1250 1133 1132 1249 1330 1199
8 1255 1380 1252 1135 1132 1249 1381 1261
8 1250 1133 1019 1126 1382 1262 1134 1251
8 1253 1136 1256 1385 1384 1263 1135 1252
8 1254 1137 1265 1387 1129 1022 1141 1258
8 1149 1032 1150 1276 1254 1137 1265 1387
8 1028 1135 1255 1138 1139 1256 1388 1266
8 1136 1029 1147 1264 1256 1139 1267 1389
8 1390 1268 1140 1257 1259 1142 1024 1131
8 1260 1143 1027 1134 1390 1268 1140 1257
8 1258 1141 1269 1391 1130 1023 1142 1259
8 1262 1145 1027 1134 1393 1271 1143 1260
8 1261 1144 1026 1133 1394 1272 1145 1262
8 1135 1028 1144 1261 1263 1146 1272 1394
8 1136 1029 1146 1263 1264 1147 1273 1395
8 1155 1041 1160 1282 1275 1149 1276 1405
8 1276 1150 1044 1160 1406 1277 1162 1286
8 1408 1283 1159 1279 1278 1156 1039 1151
8 1290 1165 1283 1408 1177 1053 1156 1278
8 1152 1040 1159 1279 1280 1158 1285 1409
8 1281 1157 1038 1153 1410 1284 1158 1280
8 1281 1157 1284 1410 1154 1042 1160 1282
8 1159 1046 1164 1283 1285 1163 1289 1412
8 1292 1167 1289 1412 1165 1048 1164 1283
8 1158 1045 1163 1285 1284 1161 1288 1413
8 1284 1161 1288 1413 1160 1044 1162 1286
8 1291 1166 1292 1418 1174 1051 1165 1290
8 1291 1166 1051 1174 1419 1293 1172 1305
8 1294 1169 1296 1421 1166 1049 1167 1292
8 1293 1168 1050 1172 1422 1295 1171 1303
8 1294 1169 1049 1166 1423 1297 1168 1293
8 1422 1295 1171 1303 1301 1170 1302 1435
8 1172 1050 1173 1306 1303 1171 1304 1438
8 1174 1051 1175 1308 1305 1172 1306 1440
8 1175 1052 1176 1309 1306 1173 1307 1441
8 1177 1053 1178 1311 1308 1175 1309 1443
8 1178 1054 1179 1312 1309 1176 1310 1444
8 1180 1055 1181 1314 1311 1178 1312 1446
8 1056 1181 1312 1179 1182 1315 1447 1313
8 1183 1058 1184 1316 1314 1181 1315 1448
8 1319 1186 1084 1214 1451 1317 1213 1350
8 1319 1186 1318 1453 1208 1081 1187 1321
8 1321 1187 1320 1456 1188 1063 1189 1323
8 1344 1208 1321 1457 1209 1082 1188 1322
8 1322 1188 1323 1458 1190 1064 1191 1325
8 1323 1189 1324 1459 1191 1065 1192 1326
8 1191 1325 1193 1067 1326 1460 1327 1194
8 1242 1374 1243 1119 1328 1462 1335 1204
8 1330 1199 1333 1465 1196 1075 1200 1331
8 1132 1249 1330 1199 1243 1375 1465 1333
8 1332 1201 1077 1198 1466 1334 1200 1331
8 1215 1099 1201 1332 1352 1227 1334 1466
8 1119 1243 1333 1203 1204 1335 1470 1338
8 1333 1203 1338 1470 1200 1080 1202 1334
8 1227 1111 1202 1334 1360 1235 1338 1470
8 1328 1462 1335 1204 1205 1336 1471 1339
8 1337 1206 1340 1472 1464 1329 1205 1336
8 1346 1211 1342 1479 1210 1083 1207 1343
8 1346 1211 1115 1228 1479 1342 1239 1361
8 1348 1212 1084 1214 1479 1342 1207 1343
8 1480 1343 1208 1344 1345 1210 1082 1209
8 1351 1214 1319 1454 1480 1343 1208 1344
8 1481 1346 1210 1345 1359 1228 1100 1225
8 1348 1212 1347 1483 1214 1084 1213 1350
8 1216 1103 1227 1352 1353 1230 1360 1488
8 1217 1104 1230 1353 1354 1231 1363 1489
8 1490 1364 1232 1355 1354 1231 1106 1219
8 1220 1109 1232 1355 1356 1234 1365 1491
8 1221 1110 1234 1356 1357 1233 1366 1492
8 1224 1107 1233 1357 1358 1229 1362 1493
8 1226 1102 1229 1358 1359 1228 1362 1493
8 1230 1112 1235 1360 1363 1236 1367 1496
8 1361 1239 1115 1228 1497 1371 1240 1362
8 1366 1241 1372 1498 1233 1117 1240 1362
8 1364 1237 1113 1231 1499 1368 1236 1363
8 1364 1237 1368 1499 1232 1114 1238 1365
8 1234 1118 1238 1365 1366 1241 1369 1500
8 1507 1373 1242 1374 1388 1266 1138 1255
8 1508 1374 1243 1375 1380 1255 1132 1249
8 1376 1254 1387 1509 1245 1129 1258 1377
8 1275 1149 1276 1405 1376 1254 1387 1509
8 1377 1258 1391 1510 1248 1130 1259 1379
8 1511 1390 1257 1378 1379 1259 1131 1247
8 1383 1260 1134 1251 1511 1390 1257 1378
8 1252 1135 1256 1385 1380 1255 1388 1512
8 1261 1381 1513 1394 1133 1250 1382 1262
8 1135 1252 1384 1263 1261 1381 1513 1394
8 1382 1262 1134 1251 1514 1393 1260 1383
8 1253 1136 1263 1384 1386 1264 1395 1516
8 1253 1136 1264 1386 1385 1256 1389 1517
8 1387 1265 1397 1519 1258 1141 1269 1391
8 1276 1150 1277 1406 1387 1265 1397 1519
8 1256 1139 1267 1389 1388 1266 1398 1520
8 1264 1147 1274 1396 1389 1267 1399 1521
8 1392 1270 1143 1260 1522 1400 1268 1390
8 1390 1268 1142 1259 1522 1400 1269 1391
8 1392 1270 1401 1523 1260 1143 1271 1393
8 1272 1394 1524 1402 1145 1262 1393 1271
8 1395 1273 1146 1263 1524 1402 1272 1394
8 1273 1395 1264 1147 1403 1526 1396 1274
8 1405 1276 1160 1282 1534 1406 1286 1411
8 1414 1287 1407 1535 1286 1162 1277 1406
8 1279 1159 1283 1408 1409 1285 1412 1537
8 1418 1292 1412 1537 1290 1165 1283 1408
8 1280 1158 1285 1409 1410 1284 1413 1538
8 1410 1284 1413 1538 1282 1160 1286 1411
8 1285 1163 1289 1412 1413 1288 1417 1540
8 1421 1296 1417 1540 1292 1167 1289 1412
8 1414 1287 1162 1286 1541 1416 1288 1413
8 1420 1294 1421 1545 1291 1166 1292 1418
8 1419 1293 1172 1305 1546 1422 1303 1437
8 1420 1294 1166 1291 1547 1423 1293 1419
8 1294 1169 1297 1423 1421 1296 1425 1548
8 1423 1297 1168 1293 1549 1424 1295 1422
8 1301 1170 1298 1427 1422 1295 1424 1549
8 1432 1300 1428 1554 1301 1170 1298 1427
8 1431 1299 1428 1554 1560 1430 1300 1432
8 1563 1433 1300 1432 1435 1302 1170 1301
8 1546 1422 1303 1437 1434 1301 1435 1565
8 1303 1171 1304 1438 1435 1302 1436 1566
8 1305 1172 1306 1440 1437 1303 1438 1568
8 1306 1173 1307 1441 1438 1304 1439 1569
8 1308 1175 1309 1443 1440 1306 1441 1571
8 1309 1176 1310 1444 1441 1307 1442 1572
8 1311 1178 1312 1446 1443 1309 1444 1574
8 1179 1312 1444 1310 1313 1447 1575 1445
8 1314 1181 1315 1448 1446 1312 1447 1576
8 1350 1213 1349 1486 1451 1317 1449 1579
8 1451 1317 1450 1581 1319 1186 1318 1453
8 1454 1319 1214 1351 1582 1451 1350 1487
8 1453 1318 1452 1584 1321 1187 1320 1456
8 1454 1319 1453 1585 1344 1208 1321 1457
8 1456 1320 1455 1586 1323 1189 1324 1459
8 1457 1321 1456 1587 1322 1188 1323 1458
8 1458 1323 1459 1588 1325 1191 1326 1460
8 1205 1336 1464 1329 1328 1462 1590 1461
8 1507 1373 1461 1590 1374 1242 1328 1462
8 1508 1374 1462 1591 1375 1243 1335 1467
8 1337 1206 1329 1464 1473 1341 1463 1594
8 1375 1243 1335 1467 1465 1333 1470 1596
8 1465 1333 1470 1596 1331 1200 1334 1466
8 1352 1227 1334 1466 1488 1360 1470 1596
8 1591 1462 1336 1468 1467 1335 1471 1597
8 1469 1337 1472 1598 1595 1464 1336 1468
8 1471 1339 1474 1600 1335 1204 1338 1470
8 1600 1474 1367 1496 1470 1338 1235 1360
8 1336 1205 1340 1472 1471 1339 1475 1601
8 1337 1206 1341 1473 1472 1340 1476 1602
8 1495 1370 1478 1609 1361 1239 1342 1479
8 1348 1212 1342 1479 1483 1347 1478 1609
8 1481 1346 1479 1610 1345 1210 1343 1480
8 1481 1346 1228 1359 1610 1479 1361 1494
8 1484 1348 1214 1351 1610 1479 1343 1480
8 1483 1347 1482 1612 1350 1213 1349 1486
8 1484 1348 1483 1613 1351 1214 1350 1487
8 1353 1230 1360 1488 1489 1363 1496 1616
8 1490 1364 1231 1354 1617 1499 1363 1489
8 1490 1364 1499 1617 1355 1232 1365 1491
8 1356 1234 1365 1491 1492 1366 1500 1619
8 1492 1366 1498 1620 1357 1233 1362 1493
8 1494 1361 1228 1359 1621 1497 1362 1493
8 1495 1370 1239 1361 1622 1504 1371 1497
8 1363 1236 1367 1496 1499 1368 1501 1623
8 1497 1371 1240 1362 1624 1505 1372 1498
8 1625 1503 1372 1498 1500 1369 1241 1366
8 1365 1238 1368 1499 1500 1369 1502 1626
8 1520 1398 1506 1633 1388 1266 1373 1507
8 1634 1507 1374 1508 1512 1388 1255 1380
8 1509 1387 1519 1635 1377 1258 1391 1510
8 1405 1276 1406 1534 1509 1387 1519 1635
8 1515 1392 1260 1383 1636 1522 1390 1511
8 1511 1390 1259 1379 1636 1522 1391 1510
8 1385 1256 1389 1517 1512 1388 1520 1637
8 1513 1394 1262 1382 1638 1524 1393 1514
8 1395 1516 1638 1524 1263 1384 1513 1394
8 1515 1392 1523 1639 1383 1260 1393 1514
8 1516 1395 1526 1640 1386 1264 1396 1518
8 1386 1264 1396 1518 1517 1389 1521 1641
8 1519 1397 1527 1643 1391 1269 1400 1522
8 1535 1407 1527 1643 1406 1277 1397 1519
8 1389 1267 1399 1521 1520 1398 1528 1644
8 1645 1529 1399 1521 1525 1404 1274 1396
8 1392 1270 1400 1522 1523 1401 1531 1646
8 1524 1402 1271 1393 1648 1532 1401 1523
8 1403 1526 1648 1532 1273 1395 1524 1402
8 1525 1404 1274 1396 1649 1533 1403 1526
8 1539 1414 1535 1657 1411 1286 1406 1534
8 1542 1415 1536 1658 1414 1287 1407 1535
8 1409 1285 1412 1537 1538 1413 1540 1660
8 1545 1421 1540 1660 1418 1292 1412 1537
8 1539 1414 1286 1411 1661 1541 1413 1538
8 1540 1417 1544 1663 1413 1288 1416 1541
8 1421 1296 1425 1548 1540 1417 1544 1663
8 1542 1415 1287 1414 1664 1543 1416 1541
8 1420 1294 1423 1547 1545 1421 1548 1666
8 1547 1423 1293 1419 1667 1549 1422 1546
8 1434 1301 1427 1553 1546 1422 1549 1667
8 1423 1297 1424 1549 1548 1425 1550 1668
8 1551 1426 1550 1668 1427 1298 1424 1549
8 1551 1426 1298 1427 1671 1552 1428 1554
8 1562 1432 1554 1674 1434 1301 1427 1553
8 1431 1299 1429 1558 1554 1428 1555 1675
8 1431 1299 1430 1560 1558 1429 1557 1680
8 1560 1430 1300 1432 1683 1559 1433 1563
8 1561 1431 1554 1674 1684 1560 1432 1562
8 1685 1563 1432 1562 1565 1435 1301 1434
8 1435 1302 1436 1566 1563 1433 1564 1686
8 1437 1303 1438 1568 1565 1435 1566 1688
8 1438 1304 1439 1569 1566 1436 1567 1689
8 1440 1306 1441 1571 1568 1438 1569 1691
8 1441 1307 1442 1572 1569 1439 1570 1692
8 1443 1309 1444 1574 1571 1441 1572 1694
8 1310 1444 1572 1442 1445 1575 1695 1573
8 1446 1312 1447 1576 1574 1444 1575 1696
8 1486 1349 1485 1614 1579 1449 1577 1699
8 1451 1317 1449 1579 1581 1450 1578 1701
8 1487 1350 1486 1615 1582 1451 1579 1702
8 1581 1450 1580 1704 1453 1318 1452 1584
8 1582 1451 1581 1705 1454 1319 1453 1585
8 1584 1452 1583 1706 1456 1320 1455 1586
8 1585 1453 1584 1707 1457 1321 1456 1587
8 1587 1456 1586 1708 1458 1323 1459 1588
8 1633 1506 1589 1710 1507 1373 1461 1590
8 1464 1329 1461 1590 1594 1463 1589 1710
8 1468 1336 1462 1591 1595 1464 1590 1711
8 1634 1507 1590 1711 1508 1374 1462 1591
8 1473 1341 1463 1594 1603 1477 1593 1716
8 1469 1337 1464 1595 1599 1473 1594 1717
8 1471 1597 1467 1335 1600 1718 1596 1470
8 1718 1600 1496 1616 1596 1470 1360 1488
8 1336 1468 1597 1471 1472 1598 1719 1601
8 1469 1337 1473 1599 1598 1472 1602 1720
8 1722 1604 1501 1623 1600 1474 1367 1496
8 1475 1601 1471 1339 1604 1722 1600 1474
8 1602 1476 1605 1723 1472 1340 1475 1601
8 1476 1602 1724 1606 1341 1473 1603 1477
8 1483 1347 1478 1609 1612 1482 1608 1731
8 1495 1370 1504 1622 1609 1478 1608 1731
8 1618 1495 1609 1732 1494 1361 1479 1610
8 1484 1348 1479 1610 1613 1483 1609 1732
8 1486 1349 1482 1612 1614 1485 1611 1733
8 1613 1483 1612 1734 1487 1350 1486 1615
8 1489 1363 1496 1616 1617 1499 1623 1736
8 1491 1365 1499 1617 1619 1500 1626 1737
8 1618 1495 1361 1494 1738 1622 1497 1621
8 1739 1625 1498 1620 1619 1500 1366 1492
8 1621 1497 1362 1493 1740 1624 1498 1620
8 1742 1631 1504 1622 1624 1505 1371 1497
8 1743 1628 1502 1626 1623 1501 1368 1499
8 1744 1630 1505 1624 1625 1503 1372 1498
8 1745 1629 1503 1625 1626 1502 1369 1500
8 1520 1398 1528 1644 1633 1506 1632 1751
8 1637 1520 1633 1752 1512 1388 1507 1634
8 1635 1519 1643 1753 1510 1391 1522 1636
8 1657 1535 1643 1753 1534 1406 1519 1635
8 1515 1392 1522 1636 1639 1523 1646 1754
8 1517 1389 1521 1641 1637 1520 1644 1755
8 1524 1638 1756 1648 1393 1514 1639 1523
8 1640 1526 1395 1516 1756 1648 1524 1638
8 1642 1525 1396 1518 1757 1649 1526 1640
8 1758 1645 1521 1641 1642 1525 1396 1518
8 1646 1531 1400 1522 1760 1650 1527 1643
8 1535 1407 1536 1658 1643 1527 1650 1760
8 1521 1399 1529 1645 1644 1528 1651 1761
8 1647 1530 1652 1762 1525 1404 1529 1645
8 1401 1523 1648 1532 1531 1646 1763 1655
8 1525 1404 1533 1649 1647 1530 1654 1765
8 1533 1649 1766 1656 1403 1526 1648 1532
8 1662 1542 1658 1774 1539 1414 1535 1657
8 1542 1415 1543 1664 1658 1536 1659 1775
8 1660 1540 1663 1777 1538 1413 1541 1661
8 1545 1421 1548 1666 1660 1540 1663 1777
8 1662 1542 1414 1539 1778 1664 1541 1661
8 1664 1543 1416 1541 1779 1665 1544 1663
8 1548 1425 1550 1668 1663 1544 1665 1779
8 1547 1423 1549 1667 1666 1548 1668 1781
8 1670 1551 1668 1781 1553 1427 1549 1667
8 1551 1426 1552 1671 1668 1550 1669 1782
8 1670 1551 1427 1553 1784 1671 1554 1674
8 1675 1555 1672 1785 1554 1428 1552 1671
8 1678 1556 1673 1789 1558 1429 1555 1675
8 1561 1431 1558 1681 1674 1554 1675 1790
8 1794 1677 1556 1678 1680 1557 1429 1558
8 1560 1430 1559 1683 1680 1557 1679 1797
8 1561 1431 1560 1684 1681 1558 1680 1798
8 1563 1433 1564 1686 1683 1559 1682 1800
8 1684 1560 1432 1562 1801 1683 1563 1685
8 1565 1435 1566 1688 1685 1563 1686 1802
8 1566 1436 1567 1689 1686 1564 1687 1803
8 1568 1438 1569 1691 1688 1566 1689 1805
8 1569 1439 1570 1692 1689 1567 1690 1806
8 1571 1441 1572 1694 1691 1569 1692 1808
8 1442 1572 1692 1570 1573 1695 1809 1693
8 1574 1444 1575 1696 1694 1572 1695 1810
8 1614 1485 1592 1712 1699 1577 1697 1813
8 1579 1449 1577 1699 1701 1578 1698 1815
8 1615 1486 1614 1735 1702 1579 1699 1816
8 1701 1578 1700 1818 1581 1450 1580 1704
8 1582 1451 1579 1702 1705 1581 1701 1819
8 1704 1580 1703 1820 1584 1452 1583 1706
8 1705 1581 1704 1821 1585 1453 1584 1707
8 1707 1584 1706 1822 1587 1456 1586 1708
8 1710 1589 1506 1633 1824 1709 1632 1751
8 1594 1463 1589 1710 1716 1593 1709 1824
8 1752 1633 1710 1825 1634 1507 1590 1711
8 1595 1464 1590 1711 1717 1594 1710 1825
8 1830 1714 1592 1712 1733 1611 1485 1614
8 1603 1477 1593 1716 1725 1607 1715 1834
8 1599 1473 1594 1717 1721 1603 1716 1835
8 1837 1722 1623 1736 1718 1600 1496 1616
8 1719 1601 1722 1837 1597 1471 1600 1718
8 1602 1720 1598 1472 1723 1838 1719 1601
8 1720 1602 1473 1599 1839 1724 1603 1721
8 1723 1605 1726 1840 1601 1475 1604 1722
8 1840 1726 1628 1743 1722 1604 1501 1623
8 1724 1606 1727 1841 1602 1476 1605 1723
8 1725 1607 1728 1842 1603 1477 1606 1724
8 1612 1482 1608 1731 1733 1611 1730 1849
8 1741 1627 1730 1849 1622 1504 1608 1731
8 1613 1483 1609 1732 1734 1612 1731 1850
8 1618 1495 1622 1738 1732 1609 1731 1850
8 1615 1486 1612 1734 1735 1614 1733 1851
8 1852 1743 1626 1737 1736 1623 1499 1617
8 1853 1745 1625 1739 1737 1626 1500 1619
8 1855 1742 1622 1738 1740 1624 1497 1621
8 1856 1744 1624 1740 1739 1625 1498 1620
8 1741 1627 1504 1622 1857 1746 1631 1742
8 1742 1631 1505 1624 1858 1749 1630 1744
8 1859 1747 1629 1745 1743 1628 1502 1626
8 1860 1748 1630 1744 1745 1629 1503 1625
8 1644 1528 1651 1761 1751 1632 1750 1865
8 1637 1520 1644 1755 1752 1633 1751 1866
8 1754 1646 1522 1636 1867 1760 1643 1753
8 1657 1535 1658 1774 1753 1643 1760 1867
8 1639 1523 1646 1754 1756 1648 1763 1868
8 1641 1521 1645 1758 1755 1644 1761 1869
8 1757 1649 1526 1640 1870 1766 1648 1756
8 1642 1525 1649 1757 1759 1647 1765 1871
8 1759 1647 1762 1872 1642 1525 1645 1758
8 1760 1650 1767 1874 1646 1531 1655 1763
8 1658 1536 1659 1775 1760 1650 1767 1874
8 1762 1652 1768 1875 1645 1529 1651 1761
8 1764 1653 1769 1876 1647 1530 1652 1762
8 1656 1766 1877 1773 1532 1648 1763 1655
8 1771 1879 1765 1654 1653 1764 1647 1530
8 1533 1649 1765 1654 1656 1766 1880 1772
8 1662 1542 1664 1778 1774 1658 1775 1887
8 1664 1543 1665 1779 1775 1659 1776 1888
8 1778 1664 1541 1661 1890 1779 1663 1777
8 1666 1548 1668 1781 1777 1663 1779 1890
8 1782 1669 1780 1891 1668 1550 1665 1779
8 1670 1551 1671 1784 1781 1668 1782 1893
8 1671 1552 1672 1785 1782 1669 1783 1894
8 1790 1675 1785 1896 1674 1554 1671 1784
8 1675 1555 1673 1789 1785 1672 1786 1897
8 1792 1676 1788 1903 1678 1556 1673 1789
8 1795 1678 1789 1904 1681 1558 1675 1790
8 1792 1676 1556 1678 1906 1791 1677 1794
8 1680 1557 1679 1797 1794 1677 1793 1909
8 1910 1794 1678 1795 1798 1680 1558 1681
8 1683 1559 1682 1800 1797 1679 1796 1912
8 1684 1560 1683 1801 1798 1680 1797 1913
8 1686 1564 1687 1803 1800 1682 1799 1915
8 1685 1563 1686 1802 1801 1683 1800 1916
8 1688 1566 1689 1805 1802 1686 1803 1917
8 1689 1567 1690 1806 1803 1687 1804 1918
8 1691 1569 1692 1808 1805 1689 1806 1920
8 1692 1570 1693 1809 1806 1690 1807 1921
8 1694 1572 1695 1810 1808 1692 1809 1922
8 1829 1713 1811 1926 1712 1592 1697 1813
8 1813 1697 1812 1928 1699 1577 1698 1815
8 1735 1614 1712 1828 1816 1699 1813 1929
8 1815 1698 1814 1931 1701 1578 1700 1818
8 1702 1579 1699 1816 1819 1701 1815 1932
8 1818 1700 1817 1933 1704 1580 1703 1820
8 1819 1701 1818 1934 1705 1581 1704 1821
8 1821 1704 1820 1935 1707 1584 1706 1822
8 1824 1709 1632 1751 1937 1823 1750 1865
8 1716 1593 1709 1824 1834 1715 1823 1937
8 1825 1710 1633 1752 1938 1824 1751 1866
8 1717 1594 1710 1825 1835 1716 1824 1938
8 1945 1830 1712 1828 1851 1733 1614 1735
8 1830 1714 1831 1946 1712 1592 1713 1829
8 1947 1832 1714 1830 1849 1730 1611 1733
8 1843 1729 1607 1725 1950 1833 1715 1834
8 1721 1603 1716 1835 1836 1725 1834 1951
8 1836 1725 1842 1953 1721 1603 1724 1839
8 1723 1838 1719 1601 1840 1954 1837 1722
8 1954 1840 1743 1852 1837 1722 1623 1736
8 1724 1839 1720 1602 1841 1955 1838 1723
8 1841 1727 1844 1956 1723 1605 1726 1840
8 1956 1844 1747 1859 1840 1726 1628 1743
8 1728 1842 1724 1606 1845 1957 1841 1727
8 1725 1607 1729 1843 1842 1728 1846 1958
8 1741 1627 1746 1857 1849 1730 1848 1965
8 1734 1612 1731 1850 1851 1733 1849 1966
8 1854 1741 1849 1966 1738 1622 1731 1850
8 1967 1859 1745 1853 1852 1743 1626 1737
8 1968 1860 1744 1856 1853 1745 1625 1739
8 1854 1741 1622 1738 1969 1857 1742 1855
8 1855 1742 1624 1740 1970 1858 1744 1856
8 1857 1746 1631 1742 1971 1861 1749 1858
8 1858 1749 1630 1744 1972 1863 1748 1860
8 1859 1747 1862 1973 1745 1629 1748 1860
8 1875 1768 1864 1977 1761 1651 1750 1865
8 1755 1644 1761 1869 1866 1751 1865 1978
8 1867 1760 1874 1979 1754 1646 1763 1868
8 1774 1658 1775 1887 1867 1760 1874 1979
8 1870 1766 1648 1756 1980 1877 1763 1868
8 1872 1762 1875 1981 1758 1645 1761 1869
8 1757 1649 1766 1870 1871 1765 1880 1982
8 1983 1879 1764 1873 1871 1765 1647 1759
8 1873 1764 1876 1984 1759 1647 1762 1872
8 1877 1773 1655 1763 1986 1881 1767 1874
8 1775 1659 1776 1888 1874 1767 1881 1986
8 1876 1769 1882 1987 1762 1652 1768 1875
8 1878 1770 1883 1988 1764 1653 1769 1876
8 1880 1772 1656 1766 1989 1886 1773 1877
8 1878 1770 1653 1764 1990 1884 1771 1879
8 1765 1654 1772 1880 1879 1771 1885 1991
8 1778 1664 1779 1890 1887 1775 1888 1997
8 1998 1889 1776 1888 1891 1780 1665 1779
8 1893 1782 1891 2000 1781 1668 1779 1890
8 1894 1783 1892 2001 1782 1669 1780 1891
8 1784 1671 1785 1896 1893 1782 1894 2003
8 1897 1786 1895 2004 1785 1672 1783 1894
8 1790 1675 1789 1904 1896 1785 1897 2006
8 1901 1787 1898 2007 1789 1673 1786 1897
8 1903 1788 1900 2013 1789 1673 1787 1901
8 1792 1676 1791 1906 1903 1788 1902 2016
8 1907 1792 1903 2017 1795 1678 1789 1904
8 1906 1791 1677 1794 2019 1905 1793 1909
8 1907 1792 1678 1795 2020 1906 1794 1910
8 1797 1679 1796 1912 1909 1793 1908 2022
8 1798 1680 1797 1913 1910 1794 1909 2023
8 1800 1682 1799 1915 1912 1796 1911 2025
8 1801 1683 1800 1916 1913 1797 1912 2026
8 1803 1687 1804 1918 1915 1799 1914 2028
8 1802 1686 1803 1917 1916 1800 1915 2029
8 1805 1689 1806 1920 1917 1803 1918 2030
8 1806 1690 1807 1921 1918 1804 1919 2031
8 1808 1692 1809 1922 1920 1806 1921 2032
8 1939 1826 1924 2037 1829 1713 1811 1926
8 1926 1811 1925 2039 1813 1697 1812 1928
8 1944 1829 1926 2040 1828 1712 1813 1929
8 1928 1812 1927 2042 1815 1698 1814 1931
8 1929 1813 1928 2043 1816 1699 1815 1932
8 1931 1814 1930 2044 1818 1700 1817 1933
8 1932 1815 1931 2045 1819 1701 1818 1934
8 1934 1818 1933 2046 1821 1704 1820 1935
8 2048 1936 1823 1937 1977 1864 1750 1865
8 1950 1833 1715 1834 2048 1936 1823 1937
8 1938 1824 1751 1866 2049 1937 1865 1978
8 1835 1716 1824 1938 1951 1834 1937 2049
8 1939 1826 1713 1829 2053 1942 1831 1946
8 1940 1827 1923 2035 2053 1942 1826 1939
8 1945 1830 1946 2058 1828 1712 1829 1944
8 2059 1947 1830 1945 1966 1849 1733 1851
8 1947 1832 1730 1849 2060 1948 1848 1965
8 1947 1832 1948 2060 1830 1714 1831 1946
8 1959 1847 1729 1843 2063 1949 1833 1950
8 1952 1843 1725 1836 2064 1950 1834 1951
8 1836 1725 1843 1952 1953 1842 1958 2066
8 1953 1842 1957 2067 1839 1724 1841 1955
8 1841 1955 1838 1723 1956 2068 1954 1840
8 2068 1956 1859 1967 1954 1840 1743 1852
8 1956 1844 1960 2069 1859 1747 1862 1973
8 1845 1957 1841 1727 1960 2069 1956 1844
8 1728 1842 1957 1845 1846 1958 2071 1961
8 1962 2072 1959 1847 1846 1958 1843 1729
8 1971 1861 1964 2077 1857 1746 1848 1965
8 1854 1741 1857 1969 1966 1849 1965 2078
8 1967 1859 1973 2079 1853 1745 1860 1968
8 1970 1858 1744 1856 2080 1972 1860 1968
8 1969 1857 1742 1855 2081 1971 1858 1970
8 1971 1861 1749 1858 2082 1974 1863 1972
8 1973 1862 1975 2083 1860 1748 1863 1972
8 1987 1882 1976 2086 1875 1768 1864 1977
8 1981 1875 1977 2087 1869 1761 1865 1978
8 1980 1877 1763 1868 2088 1986 1874 1979
8 1887 1775 1888 1997 1979 1874 1986 2088
8 1880 1982 2089 1989 1766 1870 1980 1877
8 1984 1876 1987 2090 1872 1762 1875 1981
8 1765 1871 1983 1879 1880 1982 2091 1991
8 1985 1878 1764 1873 2092 1990 1879 1983
8 1985 1878 1988 2093 1873 1764 1876 1984
8 2094 1992 1881 1986 1998 1889 1776 1888
8 1986 1881 1992 2094 1877 1773 1886 1989
8 1988 1883 1993 2095 1876 1769 1882 1987
8 1878 1770 1884 1990 1988 1883 1994 2096
8 1991 1885 1772 1880 2097 1996 1886 1989
8 1879 1771 1885 1991 1990 1884 1995 2098
8 2103 1998 1888 1997 2000 1891 1779 1890
8 2104 1999 1889 1998 2001 1892 1780 1891
8 2003 1894 2001 2106 1893 1782 1891 2000
8 2004 1895 2002 2107 1894 1783 1892 2001
8 2006 1897 2004 2109 1896 1785 1894 2003
8 2007 1898 2005 2110 1897 1786 1895 2004
8 2014 1901 2007 2112 1904 1789 1897 2006
8 2011 1899 2008 2113 1901 1787 1898 2007
8 2119 2010 1899 2011 2013 1900 1787 1901
8 2016 1902 2012 2122 1903 1788 1900 2013
8 2017 1903 2013 2123 1904 1789 1901 2014
8 1906 1791 1905 2019 2016 1902 2015 2125
8 1907 1792 1906 2020 2017 1903 2016 2126
8 1909 1793 1908 2022 2019 1905 2018 2128
8 2020 1906 1794 1910 2129 2019 1909 2023
8 1912 1796 1911 2025 2022 1908 2021 2131
8 1913 1797 1912 2026 2023 1909 2022 2132
8 1915 1799 1914 2028 2025 1911 2024 2134
8 1916 1800 1915 2029 2026 1912 2025 2135
8 1918 1804 1919 2031 2028 1914 2027 2136
8 1917 1803 1918 2030 2029 1915 2028 2137
8 1920 1806 1921 2032 2030 1918 2031 2138
8 1940 1827 1941 2054 2035 1923 2033 2140
8 2035 1923 2034 2143 1939 1826 1924 2037
8 2037 1924 2036 2146 1926 1811 1925 2039
8 2051 1939 2037 2147 1944 1829 1926 2040
8 2039 1925 2038 2149 1928 1812 1927 2042
8 2040 1926 2039 2150 1929 1813 1928 2043
8 2042 1927 2041 2151 1931 1814 1930 2044
8 2043 1928 2042 2152 1932 1815 1931 2045
8 2045 1931 2044 2153 1934 1818 1933 2046
8 2155 2047 1936 2048 2086 1976 1864 1977
8 2063 1949 1833 1950 2155 2047 1936 2048
8 2156 2048 1937 2049 2087 1977 1865 1978
8 2064 1950 1834 1951 2156 2048 1937 2049
8 2051 1939 1829 1944 2160 2053 1946 2058
8 2052 1940 2035 2144 2160 2053 1939 2051
8 2053 1942 1831 1946 2163 2057 1948 2060
8 2055 1943 1827 1940 2163 2057 1942 2053
8 2055 1943 2056 2164 1940 1827 1941 2054
8 2059 1947 1849 1966 2167 2060 1965 2078
8 2059 1947 2060 2167 1945 1830 1946 2058
8 2077 1964 2061 2168 1965 1848 1948 2060
8 2070 1963 1847 1959 2170 2062 1949 2063
8 2065 1959 1843 1952 2171 2063 1950 2064
8 2173 2072 1958 2066 2065 1959 1843 1952
8 1953 1842 1958 2066 2067 1957 2071 2174
8 2068 1956 2069 2175 1967 1859 1973 2079
8 2067 1957 2069 2175 1955 1841 1956 2068
8 1845 1957 2069 1960 1961 2071 2176 2073
8 2069 1960 2073 2176 1973 1862 1975 2083
8 2070 1963 2075 2177 1959 1847 1962 2072
8 1846 1958 2071 1961 1962 2072 2178 2074
8 2077 1964 1861 1971 2182 2076 1974 2082
8 2081 1971 2077 2183 1969 1857 1965 2078
8 2079 1973 2083 2184 1968 1860 1972 2080
8 2081 1971 1858 1970 2185 2082 1972 2080
8 2083 1975 2084 2186 1972 1863 1974 2082
8 2086 1976 1882 1987 2189 2085 1993 2095
8 2090 1987 2086 2190 1981 1875 1977 2087
8 2191 2094 1986 2088 2103 1998 1888 1997
8 2088 1986 2094 2191 1980 1877 1989 2089
8 1991 2091 2192 2097 1880 1982 2089 1989
8 2093 1988 2095 2193 1984 1876 1987 2090
8 1879 1983 2092 1990 1991 2091 2194 2098
8 1985 1878 1990 2092 2093 1988 2096 2195
8 2097 1996 1886 1989 2196 2099 1992 2094
8 2196 2099 1992 2094 2104 1999 1889 1998
8 1994 2096 1988 1883 2100 2197 2095 1993
8 2096 1994 1884 1990 2198 2101 1995 2098
8 1995 2098 2199 2102 1885 1991 2097 1996
8 2203 2104 1998 2103 2106 2001 1891 2000
8 2107 2002 2105 2204 2001 1892 1999 2104
8 2109 2004 2107 2206 2003 1894 2001 2106
8 2110 2005 2108 2207 2004 1895 2002 2107
8 2112 2007 2110 2209 2006 1897 2004 2109
8 2113 2008 2111 2210 2007 1898 2005 2110
8 2120 2011 2113 2212 2014 1901 2007 2112
8 2117 2009 2114 2213 2011 1899 2008 2113
8 2219 2116 2009 2117 2119 2010 1899 2011
8 2222 2118 2010 2119 2122 2012 1900 2013
8 2223 2119 2011 2120 2123 2013 1901 2014
8 2016 1902 2015 2125 2122 2012 2121 2225
8 2126 2016 2122 2226 2017 1903 2013 2123
8 2019 1905 2018 2128 2125 2015 2124 2228
8 2020 1906 2019 2129 2126 2016 2125 2229
8 2022 1908 2021 2131 2128 2018 2127 2231
8 2023 1909 2022 2132 2129 2019 2128 2232
8 2025 1911 2024 2134 2131 2021 2130 2234
8 2026 1912 2025 2135 2132 2022 2131 2235
8 1914 2028 2134 2024 2027 2136 2236 2133
8 2029 1915 2028 2137 2135 2025 2134 2237
8 2030 1918 2031 2138 2137 2028 2136 2238
8 2157 2050 2139 2240 2054 1941 2033 2140
8 2052 1940 2054 2161 2144 2035 2140 2242
8 2140 2033 2141 2243 2035 1923 2034 2143
8 2143 2034 2142 2246 2037 1924 2036 2146
8 2144 2035 2143 2247 2051 1939 2037 2147
8 2146 2036 2145 2249 2039 1925 2038 2149
8 2147 2037 2146 2250 2040 1926 2039 2150
8 2149 2038 2148 2251 2042 1927 2041 2151
8 2150 2039 2149 2252 2043 1928 2042 2152
8 2152 2042 2151 2253 2045 1931 2044 2153
8 2255 2154 2047 2155 2189 2085 1976 2086
8 2170 2062 1949 2063 2255 2154 2047 2155
8 2256 2155 2048 2156 2190 2086 1977 2087
8 2171 2063 1950 2064 2256 2155 2048 2156
8 2258 2159 2050 2157 2164 2056 1941 2054
8 2160 2053 1946 2058 2262 2163 2060 2167
8 2162 2055 1940 2052 2262 2163 2053 2160
8 2162 2055 2164 2263 2052 1940 2054 2161
8 2163 2057 1948 2060 2264 2165 2061 2168
8 2055 1943 2057 2163 2164 2056 2165 2264
8 2182 2076 2166 2268 2077 1964 2061 2168
8 2183 2077 2168 2269 2078 1965 2060 2167
8 2070 1963 2062 2170 2177 2075 2169 2271
8 2172 2070 1959 2065 2272 2170 2063 2171
8 2172 2070 2177 2273 2065 1959 2072 2173
8 2066 1958 2072 2173 2174 2071 2178 2274
8 2067 1957 2071 2174 2175 2069 2176 2275
8 2175 2069 2176 2275 2079 1973 2083 2184
8 2071 1961 2074 2178 2176 2073 2179 2276
8 2176 2073 2179 2276 2083 1975 2084 2186
8 2072 1962 2075 2177 2178 2074 2180 2277
8 2182 2076 1974 2082 2280 2181 2084 2186
8 2183 2077 1971 2081 2281 2182 2082 2185
8 2184 2083 2186 2282 2080 1972 2082 2185
8 2189 2085 1993 2095 2285 2188 2100 2197
8 2190 2086 1987 2090 2286 2189 2095 2193
8 2192 2097 1989 2089 2287 2196 2094 2191
8 2287 2196 2094 2191 2203 2104 1998 2103
8 2194 2098 1991 2091 2288 2199 2097 2192
8 2195 2096 2197 2289 2093 1988 2095 2193
8 2096 2195 2290 2198 1990 2092 2194 2098
8 2097 1996 2099 2196 2199 2102 2200 2291
8 2196 2099 1999 2104 2291 2200 2105 2204
8 2100 2197 2292 2201 1994 2096 2198 2101
8 1995 2098 2198 2101 2102 2199 2293 2202
8 2206 2107 2204 2296 2106 2001 2104 2203
8 2207 2108 2205 2297 2107 2002 2105 2204
8 2209 2110 2207 2299 2109 2004 2107 2206
8 2210 2111 2208 2300 2110 2005 2108 2207
8 2212 2113 2210 2302 2112 2007 2110 2209
8 2213 2114 2211 2303 2113 2008 2111 2210
8 2220 2117 2213 2305 2120 2011 2113 2212
8 2216 2115 2214 2306 2117 2009 2114 2213
8 2216 2115 2009 2117 2311 2217 2116 2219
8 2219 2116 2010 2119 2314 2218 2118 2222
8 2315 2219 2117 2220 2223 2119 2011 2120
8 2122 2012 2121 2225 2222 2118 2221 2317
8 2318 2222 2119 2223 2226 2122 2013 2123
8 2125 2015 2124 2228 2225 2121 2224 2320
8 2126 2016 2125 2229 2226 2122 2225 2321
8 2128 2018 2127 2231 2228 2124 2227 2323
8 2129 2019 2128 2232 2229 2125 2228 2324
8 2131 2021 2130 2234 2231 2127 2230 2326
8 2132 2022 2131 2235 2232 2128 2231 2327
8 2134 2024 2133 2236 2234 2130 2233 2328
8 2135 2025 2134 2237 2235 2131 2234 2329
8 2137 2028 2136 2238 2237 2134 2236 2330
8 2157 2050 2158 2259 2240 2139 2239 2332
8 2257 2157 2240 2334 2161 2054 2140 2242
8 2240 2139 2241 2335 2140 2033 2141 2243
8 2242 2140 2243 2337 2144 2035 2143 2247
8 2243 2141 2244 2338 2143 2034 2142 2246
8 2246 2142 2245 2341 2146 2036 2145 2249
8 2247 2143 2246 2342 2147 2037 2146 2250
8 2249 2145 2248 2343 2149 2038 2148 2251
8 2250 2146 2249 2344 2150 2039 2149 2252
8 2252 2149 2251 2345 2152 2042 2151 2253
8 2169 2271 2347 2254 2062 2170 2255 2154
8 2189 2085 2188 2285 2255 2154 2254 2347
8 2348 2255 2155 2256 2286 2189 2086 2190
8 2272 2170 2063 2171 2348 2255 2155 2256
8 2349 2258 2157 2257 2263 2164 2054 2161
8 2258 2159 2261 2351 2157 2050 2158 2259
8 2258 2159 2056 2164 2351 2261 2165 2264
8 2262 2163 2060 2167 2355 2264 2168 2269
8 2162 2055 2163 2262 2263 2164 2264 2355
8 2357 2266 2165 2264 2268 2166 2061 2168
8 2268 2166 2076 2182 2361 2267 2181 2280
8 2281 2182 2268 2362 2183 2077 2168 2269
8 2271 2169 2270 2364 2177 2075 2180 2277
8 2172 2070 2170 2272 2273 2177 2271 2365
8 2072 2173 2274 2178 2177 2273 2366 2277
8 2071 2174 2275 2176 2178 2274 2367 2276
8 2275 2176 2276 2367 2184 2083 2186 2282
8 2283 2187 2084 2186 2368 2278 2179 2276
8 2178 2074 2180 2277 2276 2179 2278 2368
8 2283 2187 2279 2370 2186 2084 2181 2280
8 2281 2182 2082 2185 2371 2280 2186 2282
8 2188 2285 2374 2284 2100 2197 2292 2201
8 2286 2189 2095 2193 2375 2285 2197 2289
8 2192 2097 2196 2287 2288 2199 2291 2376
8 2287 2196 2104 2203 2376 2291 2204 2296
8 2194 2098 2199 2288 2290 2198 2293 2377
8 2289 2197 2096 2195 2378 2292 2198 2290
8 2291 2200 2105 2204 2379 2294 2205 2297
8 2199 2102 2200 2291 2293 2202 2294 2379
8 2198 2101 2202 2293 2292 2201 2295 2380
8 2299 2207 2297 2383 2206 2107 2204 2296
8 2300 2208 2298 2384 2207 2108 2205 2297
8 2302 2210 2300 2386 2209 2110 2207 2299
8 2303 2211 2301 2387 2210 2111 2208 2300
8 2305 2213 2303 2389 2212 2113 2210 2302
8 2306 2214 2304 2390 2213 2114 2211 2303
8 2310 2216 2306 2392 2220 2117 2213 2305
8 2308 2215 2307 2393 2216 2115 2214 2306
8 2308 2215 2115 2216 2396 2309 2217 2311
8 2310 2216 2117 2220 2398 2311 2219 2315
8 2311 2217 2116 2219 2399 2312 2218 2314
8 2314 2218 2118 2222 2402 2313 2221 2317
8 2315 2219 2119 2223 2403 2314 2222 2318
8 2225 2121 2224 2320 2317 2221 2316 2405
8 2226 2122 2225 2321 2318 2222 2317 2406
8 2228 2124 2227 2323 2320 2224 2319 2408
8 2229 2125 2228 2324 2321 2225 2320 2409
8 2231 2127 2230 2326 2323 2227 2322 2411
8 2232 2128 2231 2327 2324 2228 2323 2412
8 2234 2130 2233 2328 2326 2230 2325 2413
8 2235 2131 2234 2329 2327 2231 2326 2414
8 2237 2134 2236 2330 2329 2234 2328 2415
8 2259 2158 2260 2352 2332 2239 2331 2417
8 2257 2157 2259 2350 2334 2240 2332 2419
8 2240 2139 2239 2332 2335 2241 2333 2420
8 2334 2240 2335 2422 2242 2140 2243 2337
8 2335 2241 2336 2423 2243 2141 2244 2338
8 2337 2243 2338 2425 2247 2143 2246 2342
8 2338 2244 2339 2426 2246 2142 2245 2341
8 2341 2245 2340 2428 2249 2145 2248 2343
8 2342 2246 2341 2429 2250 2146 2249 2344
8 2344 2249 2343 2430 2252 2149 2251 2345
8 2188 2285 2347 2254 2284 2374 2432 2346
8 2347 2254 2346 2432 2271 2169 2270 2364
8 2365 2271 2170 2272 2433 2347 2255 2348
8 2286 2189 2285 2375 2348 2255 2347 2433
8 2349 2258 2351 2435 2257 2157 2259 2350
8 2349 2258 2164 2263 2435 2351 2264 2355
8 2259 2158 2261 2351 2352 2260 2354 2437
8 2356 2265 2354 2437 2264 2165 2261 2351
8 2441 2357 2264 2355 2362 2268 2168 2269
8 2356 2265 2165 2264 2442 2358 2266 2357
8 2443 2359 2266 2357 2361 2267 2166 2268
8 2370 2279 2360 2446 2280 2181 2267 2361
8 2362 2268 2182 2281 2447 2361 2280 2371
8 2180 2277 2368 2278 2270 2364 2449 2363
8 2271 2365 2273 2177 2364 2450 2366 2277
8 2372 2283 2186 2282 2451 2368 2276 2367
8 2178 2274 2367 2276 2277 2366 2451 2368
8 2283 2187 2278 2368 2370 2279 2369 2452
8 2372 2283 2370 2453 2282 2186 2280 2371
8 2284 2374 2455 2373 2201 2292 2380 2295
8 2375 2285 2197 2289 2456 2374 2292 2378
8 2376 2291 2204 2296 2457 2379 2297 2383
8 2288 2199 2291 2376 2377 2293 2379 2457
8 2198 2290 2378 2292 2293 2377 2458 2380
8 2293 2202 2294 2379 2380 2295 2381 2459
8 2384 2298 2381 2459 2297 2205 2294 2379
8 2386 2300 2384 2463 2299 2207 2297 2383
8 2387 2301 2385 2464 2300 2208 2298 2384
8 2389 2303 2387 2466 2302 2210 2300 2386
8 2390 2304 2388 2467 2303 2211 2301 2387
8 2392 2306 2390 2469 2305 2213 2303 2389
8 2393 2307 2391 2470 2306 2214 2304 2390
8 2395 2308 2393 2472 2310 2216 2306 2392
8 2308 2215 2309 2396 2393 2307 2394 2473
8 2395 2308 2216 2310 2475 2396 2311 2398
8 2396 2309 2217 2311 2476 2397 2312 2399
8 2398 2311 2219 2315 2478 2399 2314 2403
8 2399 2312 2218 2314 2479 2400 2313 2402
8 2317 2221 2316 2405 2402 2313 2401 2482
8 2403 2314 2222 2318 2483 2402 2317 2406
8 2320 2224 2319 2408 2405 2316 2404 2485
8 2321 2225 2320 2409 2406 2317 2405 2486
8 2323 2227 2322 2411 2408 2319 2407 2488
8 2324 2228 2323 2412 2409 2320 2408 2489
8 2326 2230 2325 2413 2411 2322 2410 2490
8 2327 2231 2326 2414 2412 2323 2411 2491
8 2329 2234 2328 2415 2414 2326 2413 2492
8 2417 2331 2260 2352 2494 2416 2353 2438
8 2350 2259 2352 2436 2419 2332 2417 2496
8 2332 2239 2331 2417 2420 2333 2418 2497
8 2334 2240 2332 2419 2422 2335 2420 2499
8 2420 2333 2421 2500 2335 2241 2336 2423
8 2422 2335 2423 2502 2337 2243 2338 2425
8 2423 2336 2424 2503 2338 2244 2339 2426
8 2425 2338 2426 2505 2342 2246 2341 2429
8 2426 2339 2427 2506 2341 2245 2340 2428
8 2429 2341 2428 2507 2344 2249 2343 2430
8 2432 2346 2284 2374 2509 2431 2373 2455
8 2432 2346 2431 2509 2364 2270 2363 2449
8 2375 2285 2374 2456 2433 2347 2432 2510
8 2347 2433 2365 2271 2432 2510 2450 2364
8 2350 2259 2351 2435 2436 2352 2437 2514
8 2440 2356 2437 2514 2355 2264 2351 2435
8 2352 2260 2354 2437 2438 2353 2439 2516
8 2356 2265 2358 2442 2437 2354 2439 2516
8 2440 2356 2264 2355 2518 2442 2357 2441
8 2519 2443 2357 2441 2447 2361 2268 2362
8 2443 2359 2444 2520 2357 2266 2358 2442
8 2443 2359 2267 2361 2520 2444 2360 2446
8 2446 2360 2279 2370 2523 2445 2369 2452
8 2453 2370 2446 2524 2371 2280 2361 2447
8 2449 2363 2448 2525 2368 2278 2369 2452
8 2366 2277 2364 2450 2451 2368 2449 2526
8 2372 2283 2368 2451 2453 2370 2452 2527
8 2455 2373 2295 2380 2529 2454 2382 2460
8 2456 2374 2292 2378 2530 2455 2380 2458
8 2377 2293 2379 2457 2458 2380 2459 2531
8 2463 2384 2459 2531 2383 2297 2379 2457
8 2533 2461 2382 2460 2459 2381 2295 2380
8 2464 2385 2461 2533 2384 2298 2381 2459
8 2466 2387 2464 2537 2386 2300 2384 2463
8 2467 2388 2465 2538 2387 2301 2385 2464
8 2469 2390 2467 2540 2389 2303 2387 2466
8 2470 2391 2468 2541 2390 2304 2388 2467
8 2472 2393 2470 2543 2392 2306 2390 2469
8 2393 2307 2394 2473 2470 2391 2471 2544
8 2395 2308 2396 2475 2472 2393 2473 2546
8 2396 2309 2397 2476 2473 2394 2474 2547
8 2475 2396 2311 2398 2549 2476 2399 2478
8 2476 2397 2312 2399 2550 2477 2400 2479
8 2478 2399 2314 2403 2552 2479 2402 2483
8 2479 2400 2313 2402 2553 2480 2401 2482
8 2405 2316 2404 2485 2482 2401 2481 2556
8 2406 2317 2405 2486 2483 2402 2482 2557
8 2408 2319 2407 2488 2485 2404 2484 2559
8 2409 2320 2408 2489 2486 2405 2485 2560
8 2411 2322 2410 2490 2488 2407 2487 2561
8 2412 2323 2411 2491 2489 2408 2488 2562
8 2414 2326 2413 2492 2491 2411 2490 2563
8 2513 2434 2493 2565 2438 2353 2416 2494
8 2496 2417 2352 2436 2567 2494 2438 2515
8 2494 2416 2495 2568 2417 2331 2418 2497
8 2419 2332 2417 2496 2499 2420 2497 2570
8 2497 2418 2498 2571 2420 2333 2421 2500
8 2499 2420 2500 2573 2422 2335 2423 2502
8 2500 2421 2501 2574 2423 2336 2424 2503
8 2502 2423 2503 2576 2425 2338 2426 2505
8 2503 2424 2504 2577 2426 2339 2427 2506
8 2505 2426 2506 2578 2429 2341 2428 2507
8 2509 2431 2373 2455 2580 2508 2454 2529
8 2509 2431 2508 2580 2449 2363 2448 2525
8 2432 2510 2581 2509 2374 2456 2530 2455
8 2432 2510 2450 2364 2509 2581 2526 2449
8 2583 2511 2434 2513 2516 2439 2353 2438
8 2436 2352 2437 2514 2515 2438 2516 2588
8 2440 2356 2442 2518 2514 2437 2516 2588
8 2442 2358 2444 2520 2516 2439 2517 2589
8 2519 2443 2520 2591 2441 2357 2442 2518
8 2519 2443 2361 2447 2591 2520 2446 2524
8 2446 2360 2445 2523 2520 2444 2521 2592
8 2525 2448 2522 2593 2452 2369 2445 2523
8 2524 2446 2370 2453 2594 2523 2452 2527
8 2526 2449 2525 2595 2451 2368 2452 2527
8 2534 2462 2528 2597 2460 2382 2454 2529
8 2530 2455 2380 2458 2598 2529 2460 2532
8 2599 2533 2460 2532 2531 2459 2380 2458
8 2537 2464 2533 2599 2463 2384 2459 2531
8 2534 2462 2382 2460 2601 2535 2461 2533
8 2538 2465 2535 2601 2464 2385 2461 2533
8 2540 2467 2538 2604 2466 2387 2464 2537
8 2541 2468 2539 2605 2467 2388 2465 2538
8 2543 2470 2541 2607 2469 2390 2467 2540
8 2470 2391 2471 2544 2541 2468 2542 2608
8 2472 2393 2473 2546 2543 2470 2544 2610
8 2473 2394 2474 2547 2544 2471 2545 2611
8 2475 2396 2476 2549 2546 2473 2547 2613
8 2476 2397 2477 2550 2547 2474 2548 2614
8 2549 2476 2399 2478 2616 2550 2479 2552
8 2479 2400 2480 2553 2550 2477 2551 2617
8 2552 2479 2402 2483 2619 2553 2482 2557
8 2482 2401 2481 2556 2553 2480 2554 2620
8 2485 2404 2484 2559 2556 2481 2555 2623
8 2486 2405 2485 2560 2557 2482 2556 2624
8 2488 2407 2487 2561 2559 2484 2558 2625
8 2489 2408 2488 2562 2560 2485 2559 2626
8 2491 2411 2490 2563 2562 2488 2561 2627
8 2513 2434 2512 2585 2565 2493 2564 2630
8 2586 2513 2565 2632 2515 2438 2494 2567
8 2565 2493 2566 2633 2494 2416 2495 2568
8 2567 2494 2568 2635 2496 2417 2497 2570
8 2568 2495 2569 2636 2497 2418 2498 2571
8 2570 2497 2571 2638 2499 2420 2500 2573
8 2571 2498 2572 2639 2500 2421 2501 2574
8 2573 2500 2574 2641 2502 2423 2503 2576
8 2574 2501 2575 2642 2503 2424 2504 2577
8 2576 2503 2577 2643 2505 2426 2506 2578
8 2597 2528 2579 2645 2529 2454 2508 2580
8 2580 2508 2579 2645 2525 2448 2522 2593
8 2581 2509 2455 2530 2646 2580 2529 2598
8 2581 2509 2580 2646 2526 2449 2525 2595
8 2583 2511 2582 2648 2513 2434 2512 2585
8 2583 2511 2439 2516 2648 2582 2517 2589
8 2649 2583 2513 2586 2588 2516 2438 2515
8 2589 2517 2444 2520 2653 2587 2521 2592
8 2518 2442 2520 2591 2588 2516 2589 2654
8 2593 2522 2590 2655 2523 2445 2521 2592
8 2524 2446 2523 2594 2591 2520 2592 2656
8 2595 2525 2593 2657 2527 2452 2523 2594
8 2602 2536 2596 2659 2534 2462 2528 2597
8 2600 2534 2597 2660 2532 2460 2529 2598
8 2600 2534 2460 2532 2661 2601 2533 2599
8 2604 2538 2601 2661 2537 2464 2533 2599
8 2602 2536 2462 2534 2663 2603 2535 2601
8 2601 2535 2465 2538 2663 2603 2539 2605
8 2607 2541 2605 2665 2540 2467 2538 2604
8 2608 2542 2606 2666 2541 2468 2539 2605
8 2543 2470 2544 2610 2607 2541 2608 2668
8 2544 2471 2545 2611 2608 2542 2609 2669
8 2546 2473 2547 2613 2610 2544 2611 2671
8 2547 2474 2548 2614 2611 2545 2612 2672
8 2549 2476 2550 2616 2613 2547 2614 2674
8 2550 2477 2551 2617 2614 2548 2615 2675
8 2552 2479 2553 2619 2616 2550 2617 2677
8 2553 2480 2554 2620 2617 2551 2618 2678
8 2557 2482 2556 2624 2619 2553 2620 2680
8 2556 2481 2555 2623 2620 2554 2621 2681
8 2559 2484 2558 2625 2623 2555 2622 2683
8 2560 2485 2559 2626 2624 2556 2623 2684
8 2562 2488 2561 2627 2626 2559 2625 2685
8 2690 2629 2564 2630 2650 2584 2512 2585
8 2586 2513 2585 2651 2632 2565 2630 2691
8 2630 2564 2631 2692 2565 2493 2566 2633
8 2632 2565 2633 2694 2567 2494 2568 2635
8 2633 2566 2634 2695 2568 2495 2569 2636
8 2635 2568 2636 2697 2570 2497 2571 2638
8 2636 2569 2637 2698 2571 2498 2572 2639
8 2638 2571 2639 2700 2573 2500 2574 2641
8 2639 2572 2640 2701 2574 2501 2575 2642
8 2641 2574 2642 2702 2576 2503 2577 2643
8 2597 2528 2596 2659 2645 2579 2644 2704
8 2645 2579 2644 2704 2593 2522 2590 2655
8 2660 2597 2645 2705 2598 2529 2580 2646
8 2646 2580 2645 2705 2595 2525 2593 2657
8 2650 2584 2512 2585 2707 2647 2582 2648
8 2648 2582 2517 2589 2707 2647 2587 2653
8 2649 2583 2648 2708 2586 2513 2585 2651
8 2649 2583 2516 2588 2708 2648 2589 2654
8 2655 2590 2652 2710 2592 2521 2587 2653
8 2654 2589 2520 2591 2711 2653 2592 2656
8 2657 2593 2655 2712 2594 2523 2592 2656
8 2602 2536 2603 2663 2659 2596 2658 2714
8 2662 2602 2659 2715 2600 2534 2597 2660
8 2662 2602 2534 2600 2717 2663 2601 2661
8 2661 2601 2538 2604 2717 2663 2605 2665
8 2666 2606 2664 2718 2605 2539 2603 2663
8 2668 2608 2666 2720 2607 2541 2605 2665
8 2608 2542 2609 2669 2666 2606 2667 2721
8 2610 2544 2611 2671 2668 2608 2669 2723
8 2611 2545 2612 2672 2669 2609 2670 2724
8 2613 2547 2614 2674 2671 2611 2672 2726
8 2614 2548 2615 2675 2672 2612 2673 2727
8 2616 2550 2617 2677 2674 2614 2675 2729
8 2617 2551 2618 2678 2675 2615 2676 2730
8 2619 2553 2620 2680 2677 2617 2678 2732
8 2620 2554 2621 2681 2678 2618 2679 2733
8 2624 2556 2623 2684 2680 2620 2681 2735
8 2681 2621 2555 2623 2736 2682 2622 2683
8 2626 2559 2625 2685 2684 2623 2683 2737
8 2688 2628 2584 2650 2740 2686 2647 2707
8 2688 2628 2687 2742 2650 2584 2629 2690
8 2690 2629 2689 2745 2630 2564 2631 2692
8 2746 2690 2630 2691 2709 2650 2585 2651
8 2691 2630 2692 2747 2632 2565 2633 2694
8 2692 2631 2693 2748 2633 2566 2634 2695
8 2694 2633 2695 2750 2635 2568 2636 2697
8 2695 2634 2696 2751 2636 2569 2637 2698
8 2697 2636 2698 2753 2638 2571 2639 2700
8 2698 2637 2699 2754 2639 2572 2640 2701
8 2700 2639 2701 2755 2641 2574 2642 2702
8 2659 2596 2658 2714 2704 2644 2703 2757
8 2704 2644 2703 2757 2655 2590 2652 2710
8 2660 2597 2659 2715 2705 2645 2704 2758
8 2705 2645 2704 2758 2657 2593 2655 2712
8 2759 2706 2647 2707 2710 2652 2587 2653
8 2709 2650 2585 2651 2760 2707 2648 2708
8 2708 2648 2589 2654 2760 2707 2653 2711
8 2712 2655 2710 2761 2656 2592 2653 2711
8 2763 2713 2658 2714 2718 2664 2603 2663
8 2662 2602 2663 2717 2715 2659 2714 2764
8 2720 2666 2718 2767 2665 2605 2663 2717
8 2768 2719 2664 2718 2721 2667 2606 2666
8 2668 2608 2669 2723 2720 2666 2721 2770
8 2669 2609 2670 2724 2721 2667 2722 2771
8 2671 2611 2672 2726 2723 2669 2724 2773
8 2672 2612 2673 2727 2724 2670 2725 2774
8 2674 2614 2675 2729 2726 2672 2727 2776
8 2675 2615 2676 2730 2727 2673 2728 2777
8 2677 2617 2678 2732 2729 2675 2730 2779
8 2678 2618 2679 2733 2730 2676 2731 2780
8 2680 2620 2681 2735 2732 2678 2733 2782
8 2733 2679 2621 2681 2783 2734 2682 2736
8 2735 2681 2623 2684 2784 2736 2683 2737
8 2740 2686 2647 2707 2787 2738 2706 2759
8 2688 2628 2686 2740 2742 2687 2739 2789
8 2743 2688 2650 2709 2790 2740 2707 2760
8 2742 2687 2741 2792 2690 2629 2689 2745
8 2743 2688 2742 2793 2709 2650 2690 2746
8 2745 2689 2744 2795 2692 2631 2693 2748
8 2746 2690 2745 2796 2691 2630 2692 2747
8 2747 2692 2748 2797 2694 2633 2695 2750
8 2748 2693 2749 2798 2695 2634 2696 2751
8 2750 2695 2751 2800 2697 2636 2698 2753
8 2751 2696 2752 2801 2698 2637 2699 2754
8 2753 2698 2754 2802 2700 2639 2701 2755
8 2763 2713 2756 2804 2714 2658 2703 2757
8 2759 2706 2652 2710 2804 2756 2703 2757
8 2715 2659 2714 2764 2758 2704 2757 2805
8 2758 2704 2757 2805 2712 2655 2710 2761
8 2806 2759 2707 2760 2761 2710 2653 2711
8 2765 2716 2762 2808 2718 2664 2713 2763
8 2809 2763 2714 2764 2767 2718 2663 2717
8 2765 2716 2664 2718 2811 2766 2719 2768
8 2813 2768 2718 2767 2770 2721 2666 2720
8 2814 2769 2719 2768 2771 2722 2667 2721
8 2723 2669 2724 2773 2770 2721 2771 2816
8 2724 2670 2725 2774 2771 2722 2772 2817
8 2726 2672 2727 2776 2773 2724 2774 2819
8 2727 2673 2728 2777 2774 2725 2775 2820
8 2729 2675 2730 2779 2776 2727 2777 2822
8 2730 2676 2731 2780 2777 2728 2778 2823
8 2732 2678 2733 2782 2779 2730 2780 2825
8 2780 2731 2679 2733 2826 2781 2734 2783
8 2782 2733 2681 2735 2827 2783 2736 2784
8 2830 2785 2738 2787 2804 2756 2706 2759
8 2789 2739 2686 2740 2832 2786 2738 2787
8 2790 2740 2707 2760 2833 2787 2759 2806
8 2742 2687 2739 2789 2792 2741 2788 2835
8 2743 2688 2740 2790 2793 2742 2789 2836
8 2792 2741 2791 2838 2745 2689 2744 2795
8 2793 2742 2792 2839 2746 2690 2745 2796
8 2795 2744 2794 2841 2748 2693 2749 2798
8 2796 2745 2795 2842 2747 2692 2748 2797
8 2797 2748 2798 2843 2750 2695 2751 2800
8 2798 2749 2799 2844 2751 2696 2752 2801
8 2800 2751 2801 2845 2753 2698 2754 2802
8 2808 2762 2803 2847 2763 2713 2756 2804
8 2809 2763 2804 2848 2764 2714 2757 2805
8 2806 2759 2710 2761 2848 2804 2757 2805
8 2765 2716 2766 2811 2808 2762 2807 2850
8 2810 2765 2808 2851 2767 2718 2763 2809
8 2810 2765 2718 2767 2852 2811 2768 2813
8 2811 2766 2719 2768 2853 2812 2769 2814
8 2855 2814 2768 2813 2816 2771 2721 2770
8 2856 2815 2769 2814 2817 2772 2722 2771
8 2773 2724 2774 2819 2816 2771 2817 2858
8 2774 2725 2775 2820 2817 2772 2818 2859
8 2776 2727 2777 2822 2819 2774 2820 2861
8 2777 2728 2778 2823 2820 2775 2821 2862
8 2779 2730 2780 2825 2822 2777 2823 2864
8 2823 2778 2731 2780 2865 2824 2781 2826
8 2825 2780 2733 2782 2866 2826 2783 2827
8 2869 2828 2785 2830 2847 2803 2756 2804
8 2871 2829 2786 2832 2830 2785 2738 2787
8 2872 2830 2787 2833 2848 2804 2759 2806
8 2789 2739 2786 2832 2835 2788 2831 2874
8 2836 2789 2740 2790 2875 2832 2787 2833
8 2792 2741 2788 2835 2838 2791 2834 2877
8 2793 2742 2789 2836 2839 2792 2835 2878
8 2838 2791 2837 2880 2795 2744 2794 2841
8 2839 2792 2838 2881 2796 2745 2795 2842
8 2841 2794 2840 2882 2798 2749 2799 2844
8 2842 2795 2841 2883 2797 2748 2798 2843
8 2843 2798 2844 2884 2800 2751 2801 2845
8 2886 2846 2803 2847 2850 2807 2762 2808
8 2851 2808 2847 2887 2809 2763 2804 2848
8 2850 2807 2766 2811 2889 2849 2812 2853
8 2810 2765 2811 2852 2851 2808 2850 2890
8 2852 2811 2768 2813 2891 2853 2814 2855
8 2853 2812 2769 2814 2892 2854 2815 2856
8 2894 2856 2814 2855 2858 2817 2771 2816
8 2817 2772 2818 2859 2856 2815 2857 2895
8 2819 2774 2820 2861 2858 2817 2859 2897
8 2820 2775 2821 2862 2859 2818 2860 2898
8 2822 2777 2823 2864 2861 2820 2862 2900
8 2823 2778 2824 2865 2862 2821 2863 2901
8 2864 2823 2780 2825 2902 2865 2826 2866
8 2904 2867 2828 2869 2886 2846 2803 2847
8 2869 2828 2868 2906 2830 2785 2829 2871
8 2907 2869 2830 2872 2887 2847 2804 2848
8 2871 2829 2870 2909 2832 2786 2831 2874
8 2910 2871 2832 2875 2872 2830 2787 2833
8 2835 2788 2831 2874 2877 2834 2873 2912
8 2836 2789 2832 2875 2878 2835 2874 2913
8 2877 2834 2876 2915 2838 2791 2837 2880
8 2839 2792 2835 2878 2881 2838 2877 2916
8 2880 2837 2879 2917 2841 2794 2840 2882
8 2881 2838 2880 2918 2842 2795 2841 2883
8 2883 2841 2882 2919 2843 2798 2844 2884
8 2921 2885 2846 2886 2889 2849 2807 2850
8 2922 2886 2847 2887 2890 2850 2808 2851
8 2889 2849 2812 2853 2924 2888 2854 2892
8 2890 2850 2811 2852 2925 2889 2853 2891
8 2891 2853 2814 2855 2926 2892 2856 2894
8 2892 2854 2815 2856 2927 2893 2857 2895
8 2858 2817 2859 2897 2894 2856 2895 2929
8 2859 2818 2860 2898 2895 2857 2896 2930
8 2861 2820 2862 2900 2897 2859 2898 2932
8 2862 2821 2863 2901 2898 2860 2899 2933
8 2864 2823 2865 2902 2900 2862 2901 2934
8 2904 2867 2846 2886 2936 2903 2885 2921
8 2904 2867 2903 2936 2869 2828 2868 2906
8 2937 2904 2869 2907 2922 2886 2847 2887
8 2906 2868 2905 2939 2871 2829 2870 2909
8 2907 2869 2906 2940 2872 2830 2871 2910
8 2909 2870 2908 2942 2874 2831 2873 2912
8 2910 2871 2909 2943 2875 2832 2874 2913
8 2912 2873 2911 2945 2877 2834 2876 2915
8 2878 2835 2874 2913 2916 2877 2912 2946
8 2915 2876 2914 2947 2880 2837 2879 2917
8 2916 2877 2915 2948 2881 2838 2880 2918
8 2918 2880 2917 2949 2883 2841 2882 2919
8 2921 2885 2849 2889 2951 2920 2888 2924
8 2952 2921 2886 2922 2925 2889 2850 2890
8 2924 2888 2854 2892 2954 2923 2893 2927
8 2925 2889 2853 2891 2955 2924 2892 2926
8 2926 2892 2856 2894 2956 2927 2895 2929
8 2895 2857 2896 2930 2927 2893 2928 2957
8 2897 2859 2898 2932 2929 2895 2930 2959
8 2898 2860 2899 2933 2930 2896 2931 2960
8 2900 2862 2901 2934 2932 2898 2933 2961
8 2936 2903 2885 2921 2963 2935 2920 2951
8 2936 2903 2935 2963 2906 2868 2905 2939
8 2937 2904 2886 2922 2964 2936 2921 2952
8 2937 2904 2936 2964 2907 2869 2906 2940
8 2939 2905 2938 2966 2909 2870 2908 2942
8 2940 2906 2939 2967 2910 2871 2909 2943
8 2942 2908 2941 2969 2912 2873 2911 2945
8 2943 2909 2942 2970 2913 2874 2912 2946
8 2945 2911 2944 2971 2915 2876 2914 2947
8 2946 2912 2945 2972 2916 2877 2915 2948
8 2948 2915 2947 2973 2918 2880 2917 2949
8 2951 2920 2888 2924 2975 2950 2923 2954
8 2952 2921 2889 2925 2976 2951 2924 2955
8 2927 2893 2928 2957 2954 2923 2953 2978
8 2955 2924 2892 2926 2979 2954 2927 2956
8 2929 2895 2930 2959 2956 2927 2957 2980
8 2930 2896 2931 2960 2957 2928 2958 2981
8 2932 2898 2933 2961 2959 2930 2960 2982
8 2951 2920 2950 2975 2963 2935 2962 2984
8 2963 2935 2962 2984 2939 2905 2938 2966
8 2964 2936 2921 2952 2985 2963 2951 2976
8 2964 2936 2963 2985 2940 2906 2939 2967
8 2966 2938 2965 2987 2942 2908 2941 2969
8 2967 2939 2966 2988 2943 2909 2942 2970
8 2969 2941 2968 2989 2945 2911 2944 2971
8 2970 2942 2969 2990 2946 2912 2945 2972
8 2972 2945 2971 2991 2948 2915 2947 2973
8 2954 2923 2953 2978 2975 2950 2974 2993
8 2976 2951 2924 2955 2994 2975 2954 2979
8 2957 2928 2958 2981 2978 2953 2977 2995
8 2956 2927 2957 2980 2979 2954 2978 2996
8 2959 2930 2960 2982 2980 2957 2981 2997
8 2984 2962 2983 2999 2966 2938 2965 2987
8 2975 2950 2974 2993 2984 2962 2983 2999
8 2976 2951 2975 2994 2985 2963 2984 3000
8 2985 2963 2984 3000 2967 2939 2966 2988
8 2987 2965 2986 3001 2969 2941 2968 2989
8 2988 2966 2987 3002 2970 2942 2969 2990
8 2990 2969 2989 3003 2972 2945 2971 2991
8 2978 2953 2977 2995 2993 2974 2992 3004
8 2979 2954 2978 2996 2994 2975 2993 3005
8 2980 2957 2981 2997 2996 2978 2995 3006
8 2974 2993 2999 2983 2992 3004 3007 2998
8 2983 2999 2987 2965 2998 3007 3001 2986
8 3000 2984 2999 3008 2988 2966 2987 3002
8 2994 2975 2993 3005 3000 2984 2999 3008
8 3002 2987 3001 3009 2990 2969 2989 3003
8 2996 2978 2995 3006 3005 2993 3004 3010
8 3005 2993 3004 3010 3008 2999 3007 3011
8 3008 2999 3007 3011 3002 2987 3001 3009

CELL_TYPES 1910
12
12
12
12
12
12
12
12
12
12
12
12
12
12
12
12
12
12
12
12
12
12
12
12
12
12
12
12
12
12
12
12
12
12
12
12
12
12
12
12
12
12
12
12
12
12
12
12
12
12
12
12
12
12
12
12
12
12
12
12
12
12
12
12
12
12
12
12
12
12
12
12
12
12
12
12
12
12
12
12
12
12
12
12
12
12
12
12
12
12
12
12
12
12
12
12
12
12
12
12
12
12
12
12
12
12
12
12
12
12
12
12
12
12
12
12
12
12
12
12
12
12
12
12
12
12
12
12
12
12
12
12
12
12
12
12
12
12
12
12
12
12
12
12
12
12
12
12
12
12
12
12
12
12
12
12
12
12
12
12
12
12
12
12
12
12
12
12
12
12
12
12
12
12
12
12
12
12
12
12
12
12
12
12
12
12
12
12
12
12
12
12
12
12
12
12
12
12
12
12
12
12
12
12
12
12
12
12
12
12
12
12
12
12
12
12
12
12
12
12
12
12
12
12
12
12
12
12
12
12
12
12
12
12
12
12
12
12
12
12
12
12
12
12
12
12
12
12
12
12
12
12
12
12
12
12
12
12
12
12
12
12
12
12
12
12
12
12
12
12
12
12
12
12
12
12
12
12
12
12
12
12
12
12
12
12
12
12
12
12
12
12
12
12
12
12
12
12
12
12
12
12
12
12
12
12
12
12
12
12
12
12
12
12
12
12
12
12
12
12
12
12
12
12
12
12
12
12
12
12
12
12
12
12
12
12
12
12
12
12
12
12
12
12
12
12
12
12
12
12
12
12
12
12
12
12
12
12
12
12
12
12
12
12
12
12
12
12
12
12
12
12
12
12
12
12
12
12
12
12
12
12
12
12
12
12
12
12
12
12
12
12
12
12
12
12
12
12
12
12
12
12
12
12
12
12
12
12
12
12
12
12
12
12
12
12
12
12
12
12
12
12
12
12
12
12
12
12
12
12
12
12
12
12
12
12
12
12
12
12
12
12
12
12
12
12
12
12
12
12
12
12
12
12
12
12
12
12
12
12
12
12
12
12
12
12
12
12
12
12
12
12
12
12
12
12
12
12
12
12
12
12
12
12
12
12
12
12
12
12
12
12
12
12
12
12
12
12
12
12
12
12
12
12
12
12
12
12
12
12
12
12
12
12
12
12
12
12
12
12
12
12
12
12
12
12
12
12
12
12
12
12
12
12
12
12
12
12
12
12
12
12
12
12
12
12
12
12
12
12
12
12
12
12
12
12
12
12
12
12
12
12
12
12
12
12
12
12
12
12
12
12
12
12
12
12
12
12
12
12
12
12
12
12
12
12
12
12
12
12
12
12
12
12
12
12
12
12
12
12
12
12
12
12
12
12
12
12
12
12
12
12
12
12
12
12
12
12
12
12
12
12
12
12
12
12
12
12
12
12
12
12
12
12
12
12
12
12
12
12
12
12
12
12
12
12
12
12
12
12
12
12
12
12
12
12
12
12
12
12
12
12
12
12
12
12
12
12
12
12
12
12
12
12
12
12
12
12
12
12
12
12
12
12
12
12
12
12
12
12
12
12
12
12
12
12
12
12
12
12
12
12
12
12
12
12
12
12
12
12
12
12
12
12
12
12
12
12
12
12
12
12
12
12
12
12
12
12
12
12
12
12
12
12
12
12
12
12
12
12
12
12
12
12
12
12
12
12
12
12
12
12
12
12
12
12
12
12
12
12
12
12
12
12
12
12
12
12
12
12
12
12
12
12
12
12
12
12
12
12
12
12
12
12
12
12
12
12
12
12
12
12
12
12
12
12
12
12
12
12
12
12
12
12
12
12
12
12
12
12
12
12
12
12
12
12
12
12
12
12
12
12
12
12
12
12
12
12
12
12
12
12
12
12
12
12
12
12
12
12
12
12
12
12
12
12
12
12
12
12
12
12
12
12
12
12
12
12
12
12
12
12
12
12
12
12
12
12
12
12
12
12
12
12
12
12
12
12
12
12
12
12
12
12
12
12
12
12
12
12
12
12
12
12
12
12
12
12
12
12
12
12
12
12
12
12
12
12
12
12
12
12
12
12
12
12
12
12
12
12
12
12
12
12
12
12
12
12
12
12
12
12
12
12
12
12
12
12
12
12
12
12
12
12
12
12
12
12
12
12
12
12
12
12
12
12
12
12
12
12
12
12
12
12
12
12
12
12
12
12
12
12
12
12
12
12
12
12
12
12
12
12
12
12
12
12
12
12
12
12
12
12
12
12
12
12
12
12
12
12
12
12
12
12
12
12
12
12
12
12
12
12
12
12
12
12
12
12
12
12
12
12
12
12
12
12
12
12
12
12
12
12
12
12
12
12
12
12
12
12
12
12
12
12
12
12
12
12
12
12
12
12
12
12
12
12
12
12
12
12
12
12
12
12
12
12
12
12
12
12
12
12
12
12
12
12
12
12
12
12
12
12
12
12
12
12
12
12
12
12
12
12
12
12
12
12
12
12
12
12
12
12
12
12
12
12
12
12
12
12
12
12
12
12
12
12
12
12
12
12
12
12
12
12
12
12
12
12
12
12
12
12
12
12
12
12
12
12
12
12
12
12
12
12
12
12
12
12
12
12
12
12
12
12
12
12
12
12
12
12
12
12
12
12
12
12
12
12
12
12
12
12
12
12
12
12
12
12
12
12
12
12
12
12
12
12
12
12
12
12
12
12
12
12
12
12
12
12
12
12
12
12
12
12
12
12
12
12
12
12
12
12
12
12
12
12
12
12
12
12
12
12
12
12
12
12
12
12
12
12
12
12
12
12
12
12
12
12
12
12
12
12
12
12
12
12
12
12
12
12
12
12
12
12
12
12
12
12
12
12
12
12
12
12
12
12
12
12
12
12
12
12
12
12
12
12
12
12
12
12
12
12
12
12
12
12
12
12
12
12
12
12
12
12
12
12
12
12
12
12
12
12
12
12
12
12
12
12
12
12
12
12
12
12
12
12
12
12
12
12
12
12
12
12
12
12
12
12
12
12
12
12
12
12
12
12
12
12
12
12
12
12
12
12
12
12
12
12
12
12
12
12
12
12
12
12
12
12
12
12
12
12
12
12
12
12
12
12
12
12
12
12
12
12
12
12
12
12
12
12
12
12
12
12
12
12
12
12
12
12
12
12
12
12
12
12
12
12
12
12
12
12
12
12
12
12
12
12
12
12
12
12
12
12
12
12
12
12
12
12
12
12
12
12
12
12
12
12
12
12
12
12
12
12
12
12
12
12
12
12
12
12
12
12
12
12
12
12
12
12
12
12
12
12
12
12
12
12
12
12
12
12
12
12
12
12
12
12
12
12
12
12
12
12
12
12
12
12
12
12
12
12
12
12
12
12
12
12
12
12
12
12
12
12
12
12
12
12
12
12
12
12
12
12
12
12
12
12
12
12
12
12
12
12
12
12
12
12
12
12
12
12
12
12
12
12
12
12
12
12
12
12
12
12
12
12
12
12
12
12
12
12
12
12
12
12
12
12
12
12
12
12
12
12
12
12
12
12
12
12
12
12
12
12
12
12
12
12
12
12
12
12
12
12
12
12
12
12
12
12
12
12
12
12
12
12
12
12
12
12
12
12
12
12
12
12
12
12
12
12
12
12
12
12
12
12
12
12
12
12
12
12
12
12
12
12
12
12
12
12
12
12
12
12
12
12
12
12
12
12
12
12
12
12
12
12
12
12
12
12
12
12
12
12
12
12
12
12
12
12
12
12
12
12
12
12
12
12
12
12
12
12
12
12
12
12
12
12
12
12
12
12
12
12
12
12
12
12
12
12
12
12
12
12
12
12
12
12
12
12
12
12
12
12
12
12
12
12
12
12
12
12
12
12
12
12
12
12
12
12
12
12
12
12
12
12
12
12
12
12
12
12
12
12
12
12
12
12
12
12
12
12
12
12
12
12
12
12
12
12
12
12
12
12
12
12
12
12
12
12
12
12
12
12
12
12
12
12
12
12
12
12
12
12
12
12
12
12
12
12
12
12
12
12
12
12
12
12
12
12
12
12
12
12
12
12
12
12
12
12
12
12
12
12
12
12
12
12
12
12
12
12
12
12
12
12
12
12
12
12
12
12
12
12
12
12
12
12
12
12
12
12
12
12
12
12
12
12
12
12
12
12
12
12
12
12
12
12
12
12
12
12
12
12
12
12
12
12
12
12
12
12
12
12
12
12
12
12
12
12
12
12
12
12
12
12
12
12
12
12
12
12
12
12
12
12
12
12
12
12
12
12
12
12
12
12
12
12
12
12
12
12
12
12
12
12
12
12
12
12
12
12
12
12
12
12
12
12
12
12

POINT_DATA 3012
SCALARS Jp_lamdaP float 4
LOOKUP_TABLE default
0.999886 1 1 0.999886
1 1 1 1
0.99989 1 1 0.99989
0.999847 1 1 0.999847
0.999884 1 1 0.999884
0.999883 1 1 0.999883
0.999417 1 1 0.999417
1 1 1 1
1 1 1 1
1 1 1 1
0.999956 1 1 0.999956
0.999584 1 1 0.999584
0.999808 1 1 0.999808
0.999838 1 1 0.999838
0.999889 1 1 0.999889
0.99986 1 1 0.99986
0.999888 1 1 0.999888
0.999892 1 1 0.999892
0.99942 1 1 0.99942
1 1 1 1
0.999829 1 1 0.999829
0.999869 1 1 0.999869
0.999291 1 1 0.999291
0.999385 1 1 0.999385
0.999906 1 1 0.999906
0.999454 1 1 0.999454
0.998671 1 1 0.998671
1 1 1 1
0.999932 1 1 0.999932
0.999945 1 1 0.999945
1 1 1 1
0.999592 1 1 0.999592
0.999859 1 1 0.999859
0.999882 1 1 0.999882
0.999491 1 1 0.999491
1 1 1 1
0.999581 1 1 0.999581
0.999677 1 1 0.999677
0.998733 1 1 0.998733
1 1 1 1
1 1 1 1
0.999917 1 1 0.999917
1 1 1 1
0.999829 1 1 0.999829
0.999222 1 1 0.999222
1 1 1 1
0.999401 1 1 0.999401
0.999871 1 1 0.999871
0.999896 1 1 0.999896
0.99989 1 1 0.99989
0.999425 1 1 0.999425
0.999902 1 1 0.999902
0.999842 1 1 0.999842
0.999915 1 1 0.999915
0.99988 1 1 0.99988
0.999291 1 1 0.999291
0.999458 1 1 0.999458
0.999388 1 1 0.999388
0.998656 1 1 0.998656
1 1 1 1
0.999816 1 1 0.999816
0.999368 1 1 0.999368
0.999256 1 1 0.999256
0.999338 1 1 0.999338
0.998692 1.00032 1 0.998376
0.998511 1 1 0.998511
0.999954 1 1 0.999954
0.999569 1 1 0.999569
0.998777 1 1 0.998777
1.0013 1.00332 1 0.997986
1 1 1 1
1 1 1 1
1 1 1 1
0.9996 1 1 0.9996
1 1 1 1
1 1 1 1
0.999427 1 1 0.999427
0.999992 1 1 0.999992
0.999534 1 1 0.999534
0.999718 1 1 0.999718
0.99873 1 1 0.99873
1 1 1 1
0.99997 1 1 0.99997
0.99937 1 1 0.99937
0.999464 1 1 0.999464
0.998657 1.00034 1 0.99832
0.999832 1 1 0.999832
0.998631 1 1 0.998631
0.998865 1 1 0.998865
0.998233 1 1 0.998231
1 1 1 1
1 1 1 1
1 1 1 1
1 1 1 1
1 1 1 1
0.999911 1 1 0.999911
0.999291 1 1 0.999291
0.999922 1 1 0.999922
0.999364 1 1 0.999364
1 1 1 1
0.999204 1 1 0.999204
0.999371 1 1 0.999371
0.998653 1.00064 1 0.998014
0.999434 1 1 0.999434
0.99939 1.00128 1 0.998107
0.999824 1 1 0.999824
0.999854 1 1 0.999854
0.999923 1 1 0.999923
0.999889 1 1 0.999889
0.999293 1 1 0.999293
0.999393 1 1 0.999393
0.999464 1 1 0.999464
0.998642 1 1 0.998642
1 1 1 1
0.999829 1 1 0.999829
0.999229 1 1 0.999229
0.999256 1 1 0.999256
0.999977 1 1 0.999977
0.999617 1 1 0.999617
0.999341 1 1 0.999341
0.998671 1.00033 1 0.998337
0.998759 1 1 0.998759
0.998543 1 1 0.998538
1.00167 1.00369 1 0.997989
0.999225 1 1 0.999225
0.999232 1 1 0.999232
0.99847 1.00031 1 0.998163
0.998712 1.00045 1 0.998262
0.998517 1.00012 1 0.998394
1.00629 1.00854 1 0.997765
1 1 1 1
1.00263 1.00472 1 0.997912
0.999778 1 1 0.999778
0.998829 1 1 0.998829
1.00047 1.00242 1 0.998058
1.00924 1.01153 1 0.997743
0.99991 1 1 0.99991
0.999305 1 1 0.999303
1 1 1 1
1 1 1 1
0.999433 1 1 0.999433
1 1 1 1
0.999724 1 1 0.999724
0.999538 1 1 0.999538
0.998727 1 1 0.998727
1 1 1 1
0.999979 1 1 0.999979
0.999418 1 1 0.999418
0.999509 1 1 0.999509
0.998557 1.00024 1 0.998323
0.999849 1 1 0.999849
0.998633 1 1 0.998633
0.998864 1 1 0.998864
0.998353 1.00014 1 0.998216
0.999917 1 1 0.999917
0.999996 1 1 0.999996
0.999468 1 1 0.999468
0.99901 1.0008 1 0.998208
0.998523 1.00004 1 0.99848
1.00461 1.00684 1 0.997783
0.999059 1 1 0.999059
0.99954 1.00143 1 0.998116
0.998902 1.00001 1.00057 0.998326
0.999369 1.00131 1 0.99806
1 1 1 1
1 1 1 1
1 1 1 1
0.999948 1 1 0.999948
1 1 1 1
1 1 1 1
1 1 1 1
0.999324 1 1 0.999324
0.999246 1 1 0.999246
1 1 1 1
1 1 1 1
0.999206 1 1 0.999206
0.999334 1 1 0.999334
0.998802 1.00079 1 0.998014
0.999352 1 1 0.999352
0.99935 1.00125 1 0.998107
0.999196 1 1 0.999196
0.998238 1.00028 1 0.997962
0.999126 1.00106 1 0.99807
1.00961 1.01209 1 0.997553
0.999275 1.00113 1 0.998144
1.00936 1.01176 1 0.997635
1 1 1 1
0.999842 1 1 0.999842
0.99908 1 1 0.99908
0.999256 1 1 0.999256
1 1 1 1
0.999666 1 1 0.999666
0.999344 1 1 0.999344
0.998651 1.00035 1 0.998299
0.998573 1.00001 1 0.998565
0.99874 1 1 0.99874
1.00206 1.00407 1 0.997993
0.999222 1 1 0.999222
0.99923 1 1 0.99923
0.998357 1.00028 1 0.998079
0.998749 1.00046 1 0.998289
1 1 1 1
0.999769 1 1 0.999769
0.998873 1 1 0.998873
0.998514 1.00012 1 0.998394
1.00625 1.00854 1 0.997727
1.00054 1.0025 1 0.998048
1.00306 1.00513 1 0.99794
1.00883 1.0111 1 0.997748
0.999901 1 1 0.999901
0.999357 1 1.00005 0.999304
0.998163 1.00018 1 0.997981
0.998672 1.00046 1 0.998217
1.00762 1.00999 1 0.99765
1.00684 1.00922 1 0.997645
1.00402 1.00618 1 0.99786
1.01687 1.01929 1 0.997623
0.999855 1 1 0.999855
1.0111 1.01342 1 0.997716
0.99898 1 1 0.99898
0.998787 1.00059 1 0.998197
1.00734 1.00956 1 0.997797
1.01355 1.01586 1 0.997729
0.999175 1 1 0.999175
0.999469 1 1 0.999469
0.999422 1 1.00063 0.998794
0.999388 1 1 0.999388
1 1 1 1
0.999989 1 1 0.999989
0.99949 1 1 0.99949
0.998447 1.00012 1 0.998325
0.999861 1 1 0.999861
0.998864 1 1 0.998864
0.998636 1 1 0.998636
0.998479 1.00028 1 0.9982
0.999933 1 1 0.999933
0.999997 1 1 0.999997
0.99947 1 1 0.99947
0.998878 1.00067 1 0.998209
0.998501 1.00002 1 0.998484
1.00402 1.00625 1 0.997781
0.999061 1 1 0.999061
0.999176 1.00105 1 0.998127
0.998933 1.00014 1.00047 0.998322
0.999418 1.00137 1 0.998047
1 1 1 1
0.999256 1 1 0.999256
0.999671 1 1 0.999671
0.999288 1 1.00033 0.998959
1.00666 1.00899 1 0.997692
1.00227 1.00432 1 0.997955
1.01253 1.01499 1 0.997579
0.998982 1 1.00044 0.998545
1.00254 1.00461 1 0.99794
1.00072 1.00112 1.00158 0.998022
1.00382 1.00591 1 0.997918
0.99989 1 1 0.99989
1 1 1 1
1 1 1 1
1 1 1 1
1 1 1 1
0.999975 1 1 0.999975
1 1 1 1
0.999938 1 1 0.999938
1 1 1 1
0.999353 1 1 0.999353
0.99929 1 1 0.99929
0.999362 1.00126 1 0.998107
0.998948 1.00094 1 0.998014
0.999208 1 1 0.999208
1 1 1 1
0.999195 1 1 0.999195
0.998342 1.00038 1 0.997962
0.999229 1.00116 1 0.998069
1.00951 1.01199 1 0.997552
0.999213 1.00107 1 0.998144
1.00938 1.01177 1 0.997634
0.998074 1.00012 1 0.997953
1.0089 1.01143 1 0.997505
1.00988 1.01231 1 0.997601
1.02316 1.02569 1 0.99754
1.00853 1.0109 1 0.997657
1.02135 1.02383 1 0.997576
0.999219 1 1 0.999219
0.999229 1 1 0.999229
0.998249 1.00025 1 0.997995
0.998782 1.00047 1 0.998317
1 1 1 1
0.99976 1 1 0.99976
0.998916 1 1 0.998916
0.998511 1.00012 1 0.998394
1.00621 1.00854 1 0.997688
1.00349 1.00553 1 0.997967
1.0006 1.00257 1 0.998037
1.00847 1.01074 1 0.997754
0.999891 1 1 0.999891
0.999406 1 1.0001 0.999305
0.998111 1.00015 1 0.997957
0.998644 1.00043 1 0.998215
1.00784 1.01022 1 0.997643
1.00702 1.00936 1 0.997683
0.999845 1 1 0.999845
0.998977 1 1 0.998977
0.999014 1.00079 1 0.99823
1.00429 1.00645 1 0.997859
1.01721 1.01962 1 0.997629
1.00671 1.00896 1 0.997764
1.01103 1.01334 1 0.997718
1.01385 1.01616 1 0.997729
0.999179 1 1 0.999178
0.999473 1 1.00068 0.998795
0.999517 1 1.00005 0.999466
1.00807 1.0105 1 0.997592
1.00794 1.01029 1 0.997673
1.021 1.02353 1 0.997534
1.01923 1.02172 1 0.997567
1.01336 1.01571 1 0.997682
1.02049 1.0228 1 0.997738
0.999096 1 1 0.999096
1.01566 1.01796 1 0.997746
0.998499 1 1 0.998499
1.0006 1.00279 1 0.997821
1.01081 1.01321 1 0.997627
1.01445 1.01663 1 0.997855
0.999607 1 1 0.999607
0.998774 1 1 0.998774
0.999742 1 1.00087 0.998874
0.999243 1 1.00061 0.99863
0.998748 1.00054 1 0.998209
0.999999 1 1 0.999999
0.999949 1 1 0.999949
0.999472 1 1 0.999472
0.998489 1 1 0.998489
1.00343 1.00566 1 0.997779
0.999064 1 1 0.999064
0.998914 1.00027 1.00033 0.998317
0.998767 1.00063 1 0.998137
0.999459 1.00143 1 0.998033
1 1 1 1
0.999256 1 1 0.999256
0.999678 1 1 0.999678
0.999254 1 1.0003 0.998955
1.00635 1.00868 1 0.997688
1.00136 1.00341 1 0.997957
1.01264 1.0151 1 0.997578
0.998999 1 1.00045 0.99855
1.00213 1.00419 1 0.997954
1.00099 1.00126 1.00173 0.998011
1.00365 1.00568 1 0.997985
1 1 1 1
0.999795 1 1 0.999795
0.998779 1 1.00001 0.998771
0.999526 1 1.00036 0.999164
0.999534 1 1.00084 0.998691
1.0158 1.0183 1 0.997542
1.00759 1.00987 1 0.997743
1.01391 1.01637 1 0.997576
1.00019 1 1.00199 0.998195
1.00491 1.00706 1 0.997864
1.00306 1.00447 1.00086 0.997746
0.999875 1 1 0.999875
0.999533 1 1 0.999533
0.999899 1 1 0.999899
0.999892 1 1 0.999892
1 1 1 1
1 1 1 1
1 1 1 1
1 1 1 1
1 1 1 1
0.999993 1 1 0.999993
1 1 1 1
0.999968 1 1 0.999968
1 1 1 1
0.999929 1 1 0.999929
1 1 1 1
0.999135 1.00099 1 0.998143
0.999287 1.00122 1 0.998069
1.0093 1.01169 1 0.997633
1.00937 1.01185 1 0.99755
0.998463 1.0005 1 0.997962
0.999194 1 1 0.999194
0.998107 1.00015 1 0.997952
1.0089 1.01143 1 0.997505
1.00963 1.01206 1 0.9976
1.02338 1.0259 1 0.997547
1.00826 1.01063 1 0.997654
1.02084 1.02332 1 0.997575
1.0085 1.01103 1 0.997494
1.02303 1.02557 1 0.99752
1.02306 1.02556 1 0.997561
1.02823 1.03063 1 0.997663
1.01806 1.02054 1 0.997565
1.02263 1.02492 1 0.997765
0.998067 1.00013 1 0.997933
0.998619 1.00041 1 0.998213
1.00804 1.01043 1 0.997637
1.0072 1.0095 1 0.997721
0.999835 1 1 0.999835
0.998974 1 1 0.998974
0.999212 1.00095 1 0.998263
1.00457 1.00673 1 0.997858
1.01754 1.01995 1 0.997634
1.01097 1.01328 1 0.997721
1.00599 1.00828 1 0.99773
1.01413 1.01644 1 0.997729
0.99918 1 1 0.99918
0.999497 1 1.0007 0.998796
0.99957 1 1.00011 0.999463
1.00821 1.01068 1 0.997557
1.00798 1.01033 1 0.997672
1.02074 1.02325 1 0.997541
1.01955 1.02203 1 0.997571
0.999095 1 1 0.999095
0.998625 1.00013 1 0.998492
1.00062 1.00272 1.00003 0.997871
1.0135 1.01586 1 0.997685
1.01979 1.02207 1 0.997768
1.01093 1.01336 1 0.997597
1.01569 1.01798 1 0.997749
1.01386 1.01602 1 0.997876
0.998776 1 1 0.998776
0.99925 1 1.00064 0.998613
0.999603 1 1 0.999603
0.999769 1 1.00087 0.998898
1.02139 1.02395 1 0.997492
1.02144 1.02393 1 0.997568
1.0252 1.02768 1 0.997592
1.02225 1.02457 0.999994 0.997739
1.0179 1.02017 1 0.997775
1.01968 1.02183 1 0.997897
0.9987 1 1 0.9987
1.01462 1.01669 1 0.997964
0.998283 1.00012 1 0.998158
1.00493 1.00719 1.00018 0.997586
1.01308 1.01557 1 0.997554
1.01318 1.0153 1 0.997907
0.999695 1 1 0.999695
0.999198 1 1.00016 0.999038
0.998609 1 1 0.998609
1.00009 1 1.00143 0.998662
0.998935 1 1.00036 0.998579
1 1 1 1
1.00598 1.00831 1 0.997685
0.999684 1 1 0.999684
0.999256 1 1 0.999256
0.999252 1 1.0003 0.998952
1.00054 1.00258 1 0.997958
1.01279 1.01525 1 0.997576
0.999059 1 1.00051 0.998554
1.00139 1.00146 1.00193 0.997999
1.00189 1.00393 1 0.997969
1.00361 1.00556 1 0.998053
1 1 1 1
0.999801 1 1 0.999801
0.998816 1 1.00004 0.998773
0.999436 1 1.00027 0.999164
0.999815 1 1.00115 0.998669
1.01604 1.01855 1 0.997537
1.00759 1.00987 1 0.997743
1.0139 1.01637 1 0.997567
1.00034 1.00001 1.00213 0.998199
1.00666 1.0088 1 0.997877
1.00262 1.0039 1.00096 0.997766
0.999849 1 1 0.999849
0.999343 1 1 0.999343
0.998944 1 1.00048 0.998468
1.00003 1 1.00118 0.998853
0.999575 1 1.00103 0.998545
1.01695 1.0194 1 0.997598
1.00951 1.01185 1 0.997696
1.01287 1.01517 1 0.997733
1.00174 1 1.00379 0.997955
1.004 1.00639 1 0.99762
0.999878 1 1 0.999878
0.999468 1 1 0.999468
0.999513 1 1 0.999513
0.999316 1 1 0.999316
0.999542 1 1 0.999542
0.999902 1 1 0.999902
0.999901 1 1 0.999901
1 1 1 1
0.999894 1 1 0.999894
1 1 1 1
1 1 1 1
1 1 1 1
1 1 1 1
1 1 1 1
1 1 1 1
0.999988 1 1 0.999988
1 1 1 1
1 1 1 1
0.99996 1 1 0.99996
1 1 1 1
1.00804 1.01041 1 0.997652
1.00949 1.01192 1 0.997599
1.02038 1.02286 1 0.997574
1.02362 1.02613 1 0.997555
1.0089 1.01143 1 0.997505
0.998126 1.00017 1 0.997952
1.00847 1.01101 1 0.997494
1.02294 1.02549 1 0.997513
1.02295 1.02545 1 0.997561
1.02739 1.02997 0.999808 0.997687
1.01843 1.02093 1 0.99756
1.02293 1.02521 1 0.997779
1.02212 1.0247 1 0.997487
1.02652 1.02929 0.999687 0.997621
1.02571 1.02802 1 0.997753
1.02626 1.0293 0.999247 0.997794
1.02042 1.02277 1 0.997701
1.02356 1.02577 0.999917 0.997935
1.00838 1.01088 1 0.997522
1.008 1.01036 1 0.99767
1.0205 1.023 1 0.997548
1.01988 1.02236 1 0.997576
0.999095 1 1 0.999095
0.998797 1.00031 1 0.998486
1.00085 1.00275 1.00018 0.99792
1.01366 1.01601 1 0.997688
1.01907 1.02132 1 0.997798
1.01569 1.01797 1 0.997751
1.01107 1.01354 1 0.997567
1.01322 1.01535 1 0.997897
0.998787 1 1.00001 0.998779
0.999233 1 1.00064 0.998595
0.999598 1 1 0.999598
0.999669 1 1.00075 0.998921
1.02139 1.02396 1 0.997493
1.02111 1.02361 1 0.997556
1.02512 1.02758 1 0.997608
1.02172 1.02405 1 0.997726
0.998695 1 1 0.998695
0.998489 1.00026 1.00003 0.998202
1.00517 1.00722 1.00039 0.997579
1.01763 1.01993 1 0.99775
1.01977 1.02187 1 0.997944
1.01265 1.01514 1 0.997542
1.01458 1.01665 1 0.997966
1.01433 1.01642 1 0.997946
0.998608 1 1 0.998608
0.998744 1 1.00016 0.998581
1.00049 1 1.00184 0.998657
0.999663 1 1 0.999663
0.999111 1 1.00005 0.99906
1.02601 1.02863 0.999852 0.997598
1.02554 1.02797 0.999977 0.997657
1.02084 1.02331 0.999666 0.997915
1.01718 1.01924 1 0.997977
0.998495 1 1 0.998495
1.01678 1.01871 1 0.998104
0.998286 1.00005 1.00029 0.997948
1.00789 1.01005 1.00051 0.997352
1.01273 1.01525 1 0.997519
0.999713 1 1 0.999713
0.999242 1 1 0.999242
0.999448 1 1.00062 0.998828
0.998569 1 1 0.998569
1.00114 1 1.00265 0.998494
0.998521 1 1 0.998521
1 1 1 1
0.999807 1 1 0.999807
1.01633 1.01884 1 0.997532
0.999355 1 1.00019 0.999165
0.998811 1 1.00004 0.998774
1.00022 1 1.00157 0.998648
1.00738 1.00966 1 0.997742
1.01374 1.01622 1 0.997558
1.00049 1 1.00229 0.998204
1.00179 1.00323 1.00077 0.997786
1.00815 1.01028 1 0.997892
0.999853 1 1 0.999853
0.999346 1 1 0.999346
0.998887 1 1.00041 0.998474
1.00034 1 1.00149 0.99885
0.999789 1 1.00126 0.998535
1.01703 1.01948 1 0.997593
1.01003 1.01237 1 0.997687
1.01274 1.01502 1 0.997757
1.00117 1 1.00324 0.99793
1.0033 1.00567 1.00006 0.99759
0.99945 1 1 0.99945
0.999447 1 1.00046 0.998991
1.00029 1 1.002 0.9983
1.0008 1 1.00221 0.998588
0.999423 1 1.001 0.998429
1.01885 1.02093 1 0.997964
1.00899 1.01141 1 0.997611
1.01058 1.01283 1 0.997781
1.00326 1.00116 1.00433 0.997771
1.00046 1.00308 1 0.997385
0.999881 1 1 0.999881
0.999485 1 1 0.999485
0.999226 1 1 0.999226
0.999494 1 1 0.999494
0.999542 1 1 0.999542
0.999287 1 1 0.999287
0.999145 1 1 0.999145
0.999266 1 1 0.999266
0.999545 1 1 0.999545
0.9999 1 1 0.9999
0.999903 1 1 0.999903
1 1 1 1
0.999902 1 1 0.999902
1 1 1 1
1 1 1 1
1 1 1 1
1 1 1 1
1 1 1 1
1 1 1 1
0.999998 1 1 0.999998
1 1 1 1
0.999984 1 1 0.999984
1 1 1 1
1 1 1 1
1.01876 1.02126 1 0.997556
1.02279 1.0253 1 0.997561
1.02323 1.0255 1 0.997794
1.02653 1.02933 0.999572 0.99771
1.02283 1.02539 1 0.997506
1.00844 1.01098 1 0.997495
1.02236 1.02494 1 0.997474
1.02686 1.0295 0.999824 0.997613
1.0255 1.02783 1 0.997733
1.02582 1.02905 0.999054 0.997808
1.01983 1.02218 1 0.997701
1.02305 1.02521 0.999927 0.99797
1.02599 1.02847 1 0.997581
1.02659 1.0308 0.998134 0.997781
1.02529 1.02818 0.999274 0.997914
1.02132 1.02333 1 0.998033
1.02136 1.02393 1 0.997493
1.02078 1.02329 1 0.997544
1.02501 1.02745 1 0.997624
1.02123 1.02357 1 0.997712
0.998691 1 1 0.998691
0.99846 1.00021 1 0.998247
1.00534 1.0072 1.00058 0.997572
1.01732 1.01964 1 0.997725
1.01988 1.02193 1 0.99799
1.01461 1.01668 1 0.997968
1.01227 1.01478 1 0.997531
1.01539 1.01744 1 0.997985
0.998607 1 1 0.998607
0.998582 1 1 0.998582
1.00121 1 1.00257 0.998651
0.999631 1 1 0.999631
0.999081 1 1 0.999081
1.02594 1.02847 0.999932 0.997601
1.02574 1.02816 0.999987 0.997661
1.02071 1.02318 0.999676 0.997906
0.998489 1 1 0.998489
0.998943 1.0007 1.00026 0.997988
1.00743 1.00934 1.00076 0.997341
1.01769 1.01976 1 0.997966
1.01241 1.01486 1 0.997584
1.01571 1.01766 1 0.998087
0.999723 1 1 0.999723
0.998564 1 1 0.998564
0.998576 1 1 0.998576
1.00099 1 1.00252 0.998481
0.999366 1 1.00053 0.998838
0.999217 1 1 0.999217
1.02644 1.02942 0.999424 0.997675
1.02491 1.02948 0.997734 0.997824
1.01885 1.02217 0.998741 0.998003
1.02204 1.02425 0.999695 0.998151
0.998362 1 1 0.998362
1.01378 1.016 1 0.997818
1.00051 1.00133 1.00165 0.997547
1.00537 1.00714 1.00104 0.99721
0.999803 1 1 0.999803
0.999362 1 1 0.999362
0.998977 1 1 0.998977
1.00126 1 1.0027 0.998565
0.998484 1 1 0.998484
0.999598 1 1.00121 0.998391
0.999857 1 1 0.999857
0.999349 1 1 0.999349
1.01723 1.01969 1 0.997587
1.00038 1 1.00153 0.998848
0.99875 1 1.00027 0.99848
0.999919 1 1.0014 0.998526
1.01076 1.01312 1 0.997678
1.01284 1.01509 1 0.99778
1.00063 1 1.00273 0.997905
1.00275 1.00494 1.00027 0.997559
0.999452 1 1 0.999452
0.999213 1 1.00021 0.999001
1.0003 1 1.00198 0.998317
1.00106 1 1.00247 0.998592
0.998958 1 1.00048 0.998483
1.01891 1.02096 1 0.997991
1.00855 1.01097 1 0.997614
1.01172 1.0139 1 0.997856
1.00304 1.00073 1.00458 0.997741
1.0012 1.00384 1.00003 0.997342
0.999162 1 1 0.999162
0.999684 1 1.00099 0.998692
1.00193 1 1.00378 0.998157
0.99983 1 1.00151 0.998323
1.02166 1.02757 0.996064 0.998178
1.01557 1.01766 0.999872 0.998074
1.00566 1.00826 1 0.997424
1.003 1.00136 1.00426 0.997395
0.999501 1 1 0.999501
0.999239 1 1 0.999239
0.999093 1 1 0.999093
0.999541 1 1 0.999541
0.999258 1 1 0.999258
0.999545 1 1 0.999545
0.999126 1 1 0.999126
0.999277 1 1 0.999277
0.999022 1 1 0.999022
0.999104 1 1 0.999104
0.999256 1 1 0.999256
0.999535 1 1 0.999535
0.999894 1 1 0.999894
0.999899 1 1 0.999899
1 1 1 1
0.999903 1 1 0.999903
1 1 1 1
1 1 1 1
1 1 1 1
1 1 1 1
1 1 1 1
1 1 1 1
1 1 1 1
1 1 1 1
0.999997 1 1 0.999997
1 1 1 1
1 1 1 1
1.01921 1.02155 1 0.997701
1.02526 1.02761 1 0.997712
1.02255 1.02465 0.999938 0.998006
1.0254 1.02875 0.998917 0.997821
1.02721 1.02968 1 0.997604
1.02262 1.02522 1 0.997462
1.02591 1.02845 0.99994 0.997588
1.02571 1.02971 0.998341 0.997772
1.02514 1.02819 0.999113 0.997914
1.02273 1.02474 1 0.998034
1.02627 1.03002 0.998636 0.997722
1.02676 1.03289 0.996098 0.997952
1.02652 1.03016 0.998405 0.998055
1.02587 1.02833 1 0.997604
1.02593 1.02833 1 0.997664
1.02053 1.02299 0.999698 0.997898
0.998483 1 1 0.998483
0.999695 1.00149 1.00018 0.998029
1.00678 1.00863 1.00085 0.997331
1.01817 1.02025 1 0.997956
1.01479 1.01675 1 0.99807
1.01241 1.0148 1 0.99765
0.998558 1 1 0.998558
0.99863 1 1 0.99863
1.0007 1 1.00223 0.998468
0.999733 1 1 0.999733
0.999149 1 1.0003 0.998848
0.999193 1 1 0.999193
1.027 1.02987 0.999529 0.997681
1.02561 1.02967 0.998225 0.997831
1.01899 1.02208 0.998975 0.997994
0.998524 1.00017 1 0.998352
1.00062 1.0016 1.0014 0.997631
1.00474 1.00661 1.0009 0.997242
1.02186 1.02404 0.999709 0.998162
1.01444 1.01666 1 0.997808
0.999837 1 1 0.999837
0.999362 1 1 0.999362
0.998501 1 1 0.998501
1.00019 1 1.00173 0.998454
1.0012 1 1.00262 0.998579
0.998956 1 1 0.998956
1.02735 1.0325 0.997137 0.997868
1.01888 1.02685 0.994266 0.997964
1.01991 1.02405 0.997757 0.99819
1.01853 1.02058 0.999797 0.99819
0.999159 1.00012 1.00088 0.998154
1.00463 1.00592 1.0014 0.997315
1.00255 1.00256 1.00264 0.997354
0.999918 1 1 0.999918
0.999586 1 1 0.999586
0.999413 1 1 0.999413
0.999049 1 1 0.999049
0.999374 1 1.00065 0.998725
1.00064 1 1.00219 0.998451
0.998525 1 1 0.998525
1.00982 1 1.01125 0.99858
0.999453 1 1 0.999453
0.999127 1 1.00012 0.999011
1.01886 1.02088 1 0.998019
1.00157 1 1.00298 0.998595
1.00049 1 1.00215 0.998335
0.998572 1 1.00004 0.998537
1.0079 1.01031 1 0.997616
1.01279 1.01489 1 0.99793
1.00294 1.00042 1.00482 0.997712
1.00197 1.00468 1 0.9973
0.999147 1 1 0.999147
1 1 1.0013 0.998704
1.00233 1.00001 1.00415 0.998179
0.999639 1 1.00129 0.998349
1.02292 1.02849 0.996388 0.998187
1.01514 1.01719 0.999949 0.998043
1.00653 1.00909 1 0.997463
1.00282 1.0017 1.00377 0.997357
0.998989 1 1.00002 0.99897
1.02077 1.02889 0.99392 0.998178
1.00069 1 1.00223 0.998467
1.00062 1.00001 1.00268 0.997937
1.02041 1.02366 0.998541 0.998278
1.00642 1.0089 1 0.997543
1.00429 1.00384 1.00323 0.997226
0.999252 1 1 0.999252
0.99909 1 1 0.99909
0.998974 1 1 0.998974
0.999544 1 1 0.999544
0.999289 1 1 0.999289
0.999108 1 1 0.999108
0.999533 1 1 0.999533
0.999258 1 1 0.999258
0.999005 1 1 0.999005
0.999125 1 1 0.999125
0.998928 1 1 0.998928
0.998987 1 1 0.998987
0.999106 1 1 0.999106
0.999248 1 1 0.999248
0.999512 1 1 0.999512
0.999886 1 1 0.999886
0.999893 1 1 0.999893
1 1 1 1
0.999898 1 1 0.999898
1 1 1 1
1 1 1 1
1 1 1 1
1 1 1 1
1 1 1 1
0.999943 1 1 0.999943
1 1 1 1
1 1 1 1
1 1 1 1
1 1 1 1
1 1 1 1
1 1 1 1
1.02414 1.02616 1 0.998035
1.02502 1.02823 0.998963 0.997915
1.02484 1.02867 0.998511 0.997763
1.02586 1.02845 0.999892 0.997595
1.02611 1.02992 0.998556 0.997741
1.02717 1.03307 0.996344 0.99794
1.02613 1.03008 0.99809 0.998068
1.02662 1.03381 0.99511 0.997924
1.02959 1.03646 0.995292 0.99807
1.01402 1.02633 0.989708 0.998278
1.02761 1.03036 0.99964 0.997687
1.02635 1.02994 0.998673 0.997838
1.01906 1.02198 0.999155 0.997985
0.998713 1.00032 1.00006 0.998342
1.00078 1.00181 1.00126 0.997714
1.00406 1.00603 1.00078 0.997274
1.02178 1.02396 0.999698 0.998172
1.01454 1.01678 1 0.997797
0.998519 1 1 0.998519
1.00085 1 1.00234 0.998515
1.00148 1 1.00289 0.998593
0.999872 1 1 0.999872
0.999362 1 1 0.999362
0.998935 1 1 0.998935
1.02681 1.03241 0.996692 0.997882
0.999914 1 1 0.999914
0.999567 1 1 0.999567
1.01885 1.02611 0.994949 0.997964
1.02058 1.0248 0.997717 0.998159
0.999098 1.00003 1.00084 0.998228
1.00294 1.00232 1.0033 0.997326
1.00513 1.00699 1.00084 0.997318
1.01751 1.01962 0.999762 0.998175
0.999468 1 1 0.999468
0.999046 1 1 0.999046
0.998466 1 1 0.998466
1.00646 1 1.00779 0.998678
1.00077 1 1.00233 0.998439
0.999502 1 1.00077 0.998736
1.0292 1.03591 0.995485 0.998032
1.01103 1.02449 0.988739 0.998102
1.01833 1.02324 0.996815 0.998377
1.00569 1.00841 0.999397 0.997905
1.00056 1 1.00234 0.998219
1.00428 1.00163 1.00547 0.997187
0.999584 1 1 0.999584
0.999535 1 1 0.999535
0.999325 1 1 0.999325
0.999067 1 1 0.999067
0.998864 1 1 0.998864
0.999556 1 1.00105 0.998507
1.01536 1 1.01699 0.998398
1.00019 1 1.00148 0.998712
0.999131 1 1 0.999131
1.00001 1 1.0013 0.998715
1.02409 1.02928 0.996751 0.998197
1.01484 1.01686 1 0.998012
0.999393 1 1.00102 0.998375
1.00261 1 1.00441 0.998202
1.00762 1.01011 1.00004 0.997502
1.00263 1.00197 1.00335 0.997318
0.999035 1 1.00007 0.998963
1.02158 1.03069 0.992944 0.998206
1.00049 1 1.00201 0.998483
1.0006 1.00001 1.00269 0.99791
1.01939 1.02287 0.998342 0.998251
1.00698 1.00942 1 0.997587
1.00408 1.00336 1.00348 0.997239
0.999936 1 1.00123 0.998708
1.0163 1.02698 0.991064 0.998523
0.99995 1.00002 1.00166 0.998275
1.00216 1.00072 1.00379 0.997657
1.00961 1.01462 0.997115 0.99794
1.00166 1.00211 1.00221 0.99734
1.00384 1.00773 0.99756 0.998583
0.999088 1 1 0.999088
0.999026 1 1.00005 0.998972
0.998855 1 1 0.998855
0.999532 1 1 0.999532
0.99926 1 1 0.99926
0.999147 1 1 0.999147
0.998989 1 1 0.998989
0.999511 1 1 0.999511
0.999238 1 1 0.999238
0.998911 1 1 0.998911
0.999105 1 1 0.999105
0.999001 1 1 0.999001
0.998902 1 1 0.998902
0.998986 1 1 0.998986
0.999099 1 1 0.999099
0.999185 1 1 0.999185
0.999448 1 1 0.999448
0.999289 1 1 0.999289
0.999444 1 1 0.999444
0.999879 1 1 0.999879
0.999885 1 1 0.999885
1 1 1 1
0.999892 1 1 0.999892
1 1 1 1
1 1 1 1
1 1 1 1
1 1 1 1
1 1 1 1
0.999958 1 1 0.999958
0.99994 1 1 0.99994
1 1 1 1
1 1 1 1
1 1 1 1
1 1 1 1
1 1 1 1
1 1 1 1
1.02578 1.03007 0.997752 0.99808
1.02758 1.03326 0.996569 0.997929
1.02592 1.02981 0.998466 0.997759
1.02644 1.0336 0.995144 0.997922
1.02808 1.03481 0.995426 0.998067
1.01464 1.02603 0.990631 0.998256
1.0263 1.03599 0.992497 0.998135
0.99898 1.01596 0.985407 0.99785
1.01043 1.02512 0.986932 0.99872
0.999659 1 1 0.999659
1.02626 1.03226 0.996281 0.997895
1.01914 1.02547 0.99585 0.997963
1.02121 1.02546 0.997718 0.998127
0.99912 1 1.00082 0.998301
1.00338 1.00207 1.00402 0.997299
1.00597 1.00822 1.00045 0.997321
1.01656 1.01862 0.999812 0.99816
0.998408 1 1 0.998408
1.00312 1 1.00435 0.998777
1.00071 1 1.00229 0.998428
0.99991 1 1 0.99991
0.999505 1 1.00076 0.998747
0.999523 1 1 0.999523
0.999043 1 1 0.999043
0.999548 1 1 0.999548
1.02825 1.03651 0.99398 0.99804
0.999611 1 1 0.999611
0.999534 1 1 0.999534
0.999287 1 1 0.999287
1.01181 1.02416 0.98982 0.998105
1.01805 1.02286 0.996963 0.998329
0.999878 1 1.00164 0.998238
1.0042 1.00145 1.00555 0.997222
1.00505 1.00741 0.999759 0.997903
0.999097 1 1 0.999097
0.998938 1 1.0001 0.998839
1.00262 1 1.00397 0.998647
1.01235 1 1.01394 0.998435
0.999359 1 1.00083 0.998531
1.01797 1.02927 0.990888 0.998119
1.01142 1.02747 0.986136 0.99822
1.01105 1.0148 0.998202 0.998099
1.00375 1.0039 1.00211 0.997741
1.00312 1 1.00484 0.99829
0.999272 1 1 0.999272
0.999171 1 1 0.999171
0.999062 1 1 0.999062
0.998913 1 1.00004 0.998873
0.999221 1 1.00054 0.99868
1.01104 1 1.01262 0.998432
1.01344 1 1.0151 0.998366
0.999093 1 1.00014 0.998955
1.00033 1 1.00183 0.998498
1.02214 1.03253 0.991681 0.998234
1.01828 1.02206 0.998071 0.998224
1.00725 1.00964 1 0.997631
1.00056 1 1.00268 0.997884
1.00362 1.00277 1.0036 0.997252
0.999898 1 1.00116 0.998743
1.01491 1.02658 0.990085 0.998534
0.999579 1.00001 1.00127 0.998302
1.00209 1.00035 1.00408 0.997669
1.01072 1.01522 0.997549 0.998016
1.00202 1.00201 1.00269 0.997327
1.00337 1.00793 0.997345 0.998131
0.999975 1 1.00139 0.998582
1.00544 1.01705 0.990045 0.998518
1.00021 1 1.00194 0.998271
1.00408 1.00009 1.00636 0.997647
1.00284 1.00503 1.00012 0.997697
0.953413 0.979663 0.98597 0.987054
0.975739 0.987228 0.994526 0.993802
0.981534 0.999095 0.983748 0.998653
0.862216 0.905479 0.967697 0.984006
0.82471 0.904631 0.92887 0.981465
0.999007 1 1.00004 0.99897
0.998983 1 1.00011 0.99887
0.998883 1 1 0.998883
0.99951 1 1 0.99951
0.999228 1 1 0.999228
0.999104 1 1 0.999104
0.999016 1 1 0.999016
0.998894 1 1 0.998894
0.999079 1 1 0.999079
0.999471 1 1 0.999471
0.999198 1 1 0.999198
0.998904 1 1 0.998904
0.998988 1 1 0.998988
0.998996 1 1 0.998996
0.998955 1 1 0.998955
0.999024 1 1 0.999024
0.999156 1 1 0.999156
0.999437 1 1 0.999437
0.99922 1 1 0.99922
0.999127 1 1 0.999127
0.999268 1 1 0.999268
0.99926 1 1 0.99926
0.999503 1 1 0.999503
0.999443 1 1 0.999443
0.999875 1 1 0.999875
0.999879 1 1 0.999879
1 1 1 1
0.999885 1 1 0.999885
1 1 1 1
1 1 1 1
1 1 1 1
1 1 1 1
1 1 1 1
0.999966 1 1 0.999966
0.999955 1 1 0.999955
1 1 1 1
0.999937 1 1 0.999937
1 1 1 1
1 1 1 1
1 1 1 1
1 1 1 1
1 1 1 1
1.02659 1.03313 0.995597 0.998064
1.02621 1.03333 0.995181 0.99792
1.01533 1.02561 0.991725 0.998234
1.0008 1.01572 0.987394 0.997892
1.0247 1.03442 0.992455 0.998133
1.01501 1.02707 0.989604 0.998643
1.02432 1.03079 0.995543 0.998179
0.963311 0.984914 0.984964 0.992997
1.0072 1.01935 0.989796 0.998262
0.999666 1 1 0.999666
0.999658 1 1 0.999658
0.999358 1 1 0.999358
0.999386 1 1 0.999386
1.02696 1.03693 0.992327 0.998047
1.01193 1.02338 0.990687 0.998107
1.01773 1.02245 0.997096 0.998281
0.999027 1 1.00077 0.998257
1.0039 1.0013 1.00536 0.997256
1.00437 1.00662 0.999864 0.997901
1.00488 1 1.00631 0.998581
1.00942 1 1.01097 0.998472
0.999172 1 1.00062 0.998554
0.999533 1 1 0.999533
0.998934 1 1.00012 0.998815
0.999127 1 1 0.999127
0.999638 1 1 0.999638
0.999249 1 1 0.999249
1.01614 1.02836 0.98996 0.998134
0.999313 1 1 0.999313
0.999201 1 1 0.999201
0.999086 1 1 0.999086
1.01376 1.02926 0.986683 0.998226
1.00971 1.01394 0.997734 0.998096
1.00297 1 1.0047 0.998279
1.00394 1.00424 1.00195 0.99775
0.998991 1 1.00012 0.998871
0.99893 1 1.00027 0.998662
1.01413 1 1.01579 0.998365
1.01205 1 1.01366 0.998407
1.00914 1.02837 0.983074 0.998192
1.00324 1.02225 0.983177 0.998193
1.00506 1.00716 1.0001 0.997809
1.00027 1.00031 1.00166 0.998314
0.998974 1 1 0.998974
0.999171 1 1.00024 0.99893
1.00306 1 1.0044 0.998674
1.02429 1 1.02612 0.998218
0.937609 0.972876 0.977075 0.986361
1.00002 1 1.00125 0.998778
0.999421 1 1.00109 0.998328
1.01322 1.02593 0.989054 0.998544
1.01183 1.01573 0.998064 0.998092
1.00272 1.00212 1.0033 0.997312
1.00214 1 1.00447 0.99768
1.00266 1.00794 0.997085 0.997669
1.00002 1 1.00141 0.998609
1.00485 1.01728 0.989251 0.998505
0.999718 1 1.00144 0.998283
1.00378 1.00004 1.00611 0.997647
1.00311 1.00593 0.999476 0.997721
0.952386 0.981604 0.983405 0.986607
0.970647 0.984981 0.993284 0.992111
0.983394 0.99718 0.987474 0.998684
0.864751 0.904874 0.971294 0.983903
0.808466 0.892501 0.924427 0.979896
0.999487 1 1.00074 0.998749
0.88508 0.923549 0.973697 0.984235
0.864541 0.909145 0.967777 0.982602
0.9837 1.00657 0.978841 0.998406
1.0049 1 1.00653 0.998379
1.01073 1.00266 1.01019 0.997876
0.979605 0.99253 0.988151 0.998813
0.952475 0.972296 0.993247 0.986274
0.957792 0.967882 0.998127 0.991433
0.842346 0.905848 0.94477 0.984259
0.871283 0.939775 0.94285 0.983316
0.999211 1 1.00033 0.998886
0.998911 1 1.00004 0.998875
0.999091 1 1 0.999091
0.999493 1 1 0.999493
0.999212 1 1 0.999212
0.999059 1 1 0.999059
0.998991 1 1 0.998991
0.998906 1 1 0.998906
0.999437 1 1 0.999437
0.998992 1 1 0.998992
0.999042 1 1 0.999042
0.999179 1 1 0.999179
0.998953 1 1 0.998953
0.998956 1 1 0.998956
0.999173 1 1.0002 0.998976
0.999008 1 1 0.999008
0.999187 1 1 0.999187
0.999217 1 1 0.999217
0.999113 1 1 0.999113
0.999064 1 1 0.999064
0.999108 1 1 0.999108
0.999052 1 1 0.999052
0.998979 1 1 0.998979
0.999248 1 1 0.999248
0.999268 1 1 0.999268
0.999513 1 1 0.999513
0.999231 1 1 0.999231
0.999484 1 1 0.999484
0.999873 1 1 0.999873
0.999441 1 1 0.999441
0.999875 1 1 0.999875
1 1 1 1
0.999879 1 1 0.999879
1 1 1 1
1 1 1 1
1 1 1 1
1 1 1 1
1 1 1 1
0.999647 1 1 0.999647
0.999966 1 1 0.999966
0.999964 1 1 0.999964
1 1 1 1
0.999953 1 1 0.999953
1 1 1 1
1 1 1 1
1 1 1 1
1 1 1 1
1 1 1 1
1.00244 1.01579 0.988895 0.997936
1.02347 1.03306 0.992567 0.998131
1.0194 1.02928 0.99183 0.998566
0.96071 0.981198 0.985173 0.993855
1.00727 1.01907 0.990057 0.998348
1.02633 1.03351 0.994895 0.998145
1.01661 1.02368 0.994973 0.998114
0.968971 0.983664 0.990547 0.994463
0.953909 0.978423 0.989116 0.985673
0.842625 0.897238 0.955114 0.983267
0.806756 0.879703 0.934752 0.981092
0.999345 1 1 0.999345
0.999666 1 1 0.999666
0.999657 1 1 0.999657
0.999346 1 1 0.999346
0.999153 1 1 0.999153
0.999189 1 1 0.999189
0.999341 1 1 0.999341
0.999365 1 1 0.999365
1.01494 1.02795 0.989179 0.998148
1.01662 1.03181 0.987026 0.998232
1.00853 1.01317 0.997325 0.998094
1.00314 1 1.00488 0.99827
1.00431 1.00437 1.00219 0.99776
1.01461 1 1.01627 0.998365
1.01316 1 1.0148 0.998383
0.998752 1 1.00011 0.998644
0.999231 1 1 0.999231
0.998954 1 1.00009 0.998868
0.999355 1 1 0.999355
0.999111 1 1 0.999111
1.01005 1.02845 0.983904 0.998175
0.998998 1 1 0.998998
0.999008 1 1.00006 0.998945
1.00421 1.02154 0.98484 0.998172
1.00411 1.00694 0.999269 0.997914
1.0021 1.00062 1.00323 0.998252
1.00458 1 1.00596 0.998633
1.02151 1 1.02332 0.998228
1.00863 1.02515 0.985693 0.998165
0.985395 1.00674 0.980542 0.998219
0.997485 1.00051 0.99876 0.998212
1.00662 1 1.00829 0.998342
0.998943 1 1.00012 0.998823
1.00181 1 1.00309 0.998726
1.02014 1 1.02175 0.998423
0.873155 0.927467 0.956074 0.984694
0.949006 0.976043 0.98441 0.987697
0.999769 1 1.00113 0.998636
0.99936 1 1.00107 0.998294
1.00549 1.01804 0.989164 0.998493
1.00335 1.007 0.998628 0.997745
1.00334 1 1.00571 0.997647
0.950809 0.977191 0.9871 0.985718
0.97309 0.988736 0.991323 0.99279
0.985388 0.995714 0.990905 0.998712
0.858844 0.905627 0.963707 0.984056
0.794172 0.879802 0.922685 0.978309
0.999153 1 1.0004 0.998751
0.877614 0.926128 0.962415 0.984624
0.859974 0.903787 0.969032 0.981931
0.985424 1.00734 0.979812 0.998398
1.00449 1.00002 1.00607 0.9984
1.00979 1.00132 1.01049 0.997989
0.971321 0.987848 0.984362 0.998891
0.957079 0.979116 0.992138 0.985238
0.959912 0.971629 0.994831 0.993074
0.844624 0.900185 0.954479 0.983027
0.871067 0.941386 0.941587 0.982706
1.00109 1 1.00213 0.998966
0.889682 0.916891 0.985955 0.984147
0.950357 0.967826 0.993615 0.988261
0.989311 1.00044 0.990012 0.998857
1.01216 1.00138 1.01194 0.998838
0.987035 0.980352 1.00772 0.999106
0.943942 0.959392 0.98969 0.994147
0.94481 0.95875 1.0004 0.985068
0.861569 0.917469 0.954979 0.983342
0.900302 0.96031 0.951265 0.985543
0.998867 1 1 0.998867
0.999071 1 1 0.999071
0.999696 1 1.00043 0.999269
0.999438 1 1 0.999438
0.999203 1 1 0.999203
0.999061 1 1 0.999061
0.998988 1 1 0.998988
0.998952 1 1 0.998952
0.999186 1 1 0.999186
0.998963 1 1 0.998963
0.999008 1 1 0.999008
0.999242 1 1.00024 0.998997
1.0038 1 1.0046 0.999202
0.999023 1 1.00009 0.998936
0.998998 1 1 0.998998
0.999215 1 1 0.999215
0.999099 1 1 0.999099
0.999063 1 1 0.999063
0.999105 1 1 0.999105
0.999058 1 1 0.999058
0.999063 1 1 0.999063
0.999015 1 1 0.999015
0.999038 1 1 0.999038
0.998832 1 1 0.998832
0.999442 1 1.00093 0.998514
0.998863 1 1 0.998863
0.998976 1 1 0.998976
0.999197 1 1 0.999197
0.999246 1 1 0.999246
0.999507 1 1 0.999507
0.999267 1 1 0.999267
0.999513 1 1 0.999513
0.999874 1 1 0.999874
0.999465 1 1 0.999465
0.999874 1 1 0.999874
1 1 1 1
0.999875 1 1 0.999875
1 1 1 1
1 1 1 1
1 1 1 1
1 1 1 1
1 1 1 1
0.999667 1 1 0.999667
0.999958 1 1 0.999958
0.999648 1 1 0.999648
1 1 1 1
0.999966 1 1 0.999966
0.999963 1 1 0.999963
1 1 1 1
1 1 1 1
1 1 1 1
1 1 1 1
1 1 1 1
0.873488 0.916325 0.968499 0.984257
0.86958 0.911538 0.97028 0.98319
0.962531 0.983868 0.98386 0.994362
1.00897 1.01871 0.991987 0.998434
1.02824 1.03582 0.994555 0.998111
0.963485 0.977326 0.990084 0.995712
1.01622 1.02335 0.994856 0.998161
0.957613 0.982372 0.987669 0.986967
0.856781 0.903394 0.964013 0.983807
0.797586 0.878134 0.927295 0.979487
0.988006 0.998945 0.992146 0.996879
0.95297 0.972717 0.992896 0.986708
0.834319 0.899736 0.94245 0.983918
0.867266 0.93244 0.947026 0.98213
0.999074 1 1 0.999074
0.999364 1 1 0.999364
0.999665 1 1 0.999665
0.999333 1 1 0.999333
0.999181 1 1 0.999181
0.999098 1 1 0.999098
0.999189 1 1 0.999189
0.999215 1 1 0.999215
0.999317 1 1 0.999317
0.999345 1 1 0.999345
1.01068 1.02808 0.984892 0.998159
1.00421 1.01984 0.986498 0.998153
1.00331 1.00694 0.998378 0.99802
1.00359 1.00094 1.00447 0.99819
1.0182 1 1.02 0.998237
1.0062 1 1.00762 0.998592
0.99896 1 1 0.99896
0.999022 1 1 0.999022
1.0082 1.02549 0.984941 0.998171
0.998907 1 1.0001 0.998811
1.00181 1 1.00311 0.998698
0.986226 1.00556 0.982598 0.998144
0.997345 1.00038 0.998633 0.998335
1.00753 1.00042 1.00888 0.998241
1.01759 1 1.01922 0.998398
0.999386 1.00528 0.995671 0.998463
0.988581 1 0.989726 0.998843
1.01376 1.00022 1.01515 0.998415
1.00035 1 1.00156 0.998792
1.00006 1 1.00142 0.998651
1.01148 1 1.01299 0.998511
0.89561 0.922724 0.984174 0.986222
0.881521 0.926833 0.966218 0.984365
0.943542 0.976816 0.97929 0.986365
0.998752 1 1 0.998752
1.00409 1 1.00568 0.998422
0.987841 1.00784 0.981737 0.99839
1.00898 1 1.0109 0.998102
0.871662 0.921421 0.961151 0.984234
0.956622 0.977114 0.991974 0.986949
0.955456 0.971575 0.991835 0.991505
0.967428 0.983958 0.984214 0.998971
0.845674 0.900651 0.954908 0.983298
0.862049 0.908208 0.966738 0.981834
0.863036 0.93635 0.937892 0.982738
1.00171 1 1.00274 0.998972
0.89082 0.920287 0.983025 0.984695
0.954501 0.971187 0.994563 0.988191
0.991654 1.00029 0.992438 0.998923
1.01156 1.00031 1.01244 0.998819
0.985172 0.979957 1.00636 0.998974
0.945361 0.961017 0.991295 0.992347
0.946997 0.963656 0.996875 0.985793
0.870655 0.92744 0.954048 0.983988
0.891014 0.952224 0.949433 0.985556
1.00325 0.999757 1.00403 0.99947
0.952863 0.970951 0.990541 0.990742
0.941254 0.961175 0.987802 0.991367
1.00496 0.991744 1.01361 0.999715
0.963132 0.96348 1.00324 0.996413
0.95262 0.959868 1.00745 0.985113
0.906192 0.945149 0.97428 0.984093
0.90653 0.972355 0.946517 0.984983
0.99905 1 1 0.99905
0.999847 1 1.00058 0.999269
1.00906 1 1.00964 0.999423
0.999185 1 1 0.999185
0.999008 1 1 0.999008
0.99897 1 1 0.99897
0.9993 1 1.00028 0.999019
0.998997 1 1 0.998997
0.998964 1 1.00003 0.998933
1.00607 1 1.00684 0.99924
1.01226 0.998542 1.0143 0.999446
1.00446 1 1.00533 0.999133
0.998943 1 1 0.998943
0.999061 1 1 0.999061
0.999102 1 1 0.999102
0.999064 1 1 0.999064
0.999022 1 1 0.999022
0.999062 1 1 0.999062
0.999044 1 1 0.999044
0.998972 1 1 0.998972
0.99913 1 1 0.99913
0.998853 1 1 0.998853
0.998854 1 1 0.998854
0.999314 1 1.00069 0.998621
0.999678 1 1.00153 0.998155
0.999014 1 1.00023 0.998779
0.999388 1 1.00079 0.998597
0.998893 1 1 0.998893
0.999078 1 1 0.999078
0.998974 1 1 0.998974
0.999195 1 1 0.999195
0.999476 1 1 0.999476
0.999245 1 1 0.999245
0.999506 1 1 0.999506
0.999872 1 1 0.999872
0.999513 1 1 0.999513
0.999874 1 1 0.999874
1 1 1 1
0.999874 1 1 0.999874
1 1 1 1
1 1 1 1
1 1 1 1
1 1 1 1
1 1 1 1
0.999553 1 1 0.999553
0.999946 1 1 0.999946
0.99962 1 1 0.99962
1 1 1 1
0.99996 1 1 0.99996
0.999648 1 1 0.999648
1 1 1 1
1 1 1 1
0.999967 1 1 0.999967
1 1 1 1
1 1 1 1
1 1 1 1
0.89436 0.920654 0.985691 0.985542
0.876597 0.921605 0.966668 0.98396
0.952352 0.972857 0.990733 0.98808
0.860697 0.904398 0.968592 0.98254
0.960384 0.979622 0.986365 0.993914
1.01457 1.02317 0.993368 0.998209
0.960935 0.982682 0.989528 0.988219
0.857913 0.906754 0.962016 0.983494
0.791425 0.878841 0.920909 0.977873
0.984326 0.996878 0.991166 0.99621
0.953013 0.973623 0.99354 0.985196
0.844518 0.906278 0.948245 0.982714
0.865038 0.933589 0.944106 0.981429
0.969501 0.985904 0.987891 0.995416
0.958041 0.965516 1.00759 0.984782
0.870129 0.929474 0.951852 0.983506
0.896977 0.961761 0.947562 0.984253
0.999087 1 1.00016 0.998923
0.999102 1 1 0.999102
0.999383 1 1 0.999383
0.999208 1 1 0.999208
0.998941 1 1 0.998941
0.999118 1 1 0.999118
0.999189 1 1 0.999189
0.999187 1 1 0.999187
0.999241 1 1 0.999241
0.999293 1 1 0.999293
1.00826 1.02649 0.984042 0.998177
0.988569 1.00521 0.985351 0.99807
0.997058 1 0.998599 0.998456
1.00943 1.00097 1.01032 0.998142
1.01538 1 1.01704 0.998372
1.00149 1 1.00283 0.998669
0.998944 1 1.00014 0.998799
0.999791 1 1.001 0.99879
0.995183 1.00595 0.990801 0.998477
1.00007 1 1.00142 0.998661
1.01174 1 1.01326 0.998505
0.98742 1.00017 0.988472 0.998763
1.01334 1.00049 1.01447 0.998395
0.968471 0.992171 0.977132 0.998957
1.00522 0.999116 1.00684 0.999271
1.01576 1 1.01716 0.998625
0.99947 1 1.0008 0.998672
1.00717 1 1.00867 0.998512
0.952505 0.966766 0.993173 0.992021
0.899097 0.922569 0.988071 0.986324
0.874891 0.923163 0.962396 0.984741
1.00231 1 1.00333 0.998978
1.01091 0.999227 1.01291 0.998798
0.991859 1 0.992867 0.998984
0.900756 0.926097 0.987055 0.985393
0.956026 0.963309 1.00775 0.984804
0.948133 0.962311 0.991618 0.993595
0.976068 0.9771 1.00013 0.998814
0.872113 0.926635 0.957078 0.983369
0.958635 0.974467 0.995576 0.988125
0.889962 0.951995 0.948459 0.98564
1.00279 0.999474 1.00388 0.999449
0.951251 0.969202 0.989971 0.991421
0.943911 0.963569 0.988118 0.991378
1.00619 0.99342 1.01329 0.999568
0.965955 0.965652 1.00434 0.995989
0.945487 0.959179 1.00152 0.98423
0.909585 0.974532 0.94686 0.985737
0.90101 0.942412 0.971789 0.983823
1.005 0.994616 1.01073 0.999711
0.936531 0.95913 0.980979 0.995371
0.951595 0.973667 0.98522 0.991993
0.899344 0.962774 0.949026 0.984291
0.991473 0.977845 1.01493 0.999026
0.967711 0.967835 1.01434 0.985738
0.904066 0.934961 0.982511 0.984167
1.00015 1 1.00088 0.999269
1.00807 1 1.0087 0.999368
1.01383 0.998059 1.01624 0.999566
0.998995 1 1 0.998995
0.99893 1 1 0.99893
1.00886 1 1.00959 0.999277
0.998953 1 1 0.998953
1.0043 1 1.00517 0.999138
1.01386 0.998585 1.01588 0.999421
1.0053 0.99825 1.00758 0.999489
1.00297 1 1.00385 0.999131
0.999028 1 1 0.999028
0.999061 1 1 0.999061
0.99905 1 1 0.99905
0.999117 1 1 0.999117
0.998981 1 1 0.998981
0.999404 1 1.00033 0.999072
0.998958 1 1 0.998958
1.00099 1 1.00259 0.998401
0.998877 1 1 0.998877
0.999158 1 1.00057 0.998592
0.999008 1 1.00101 0.997997
0.999381 1 1.00129 0.998094
1.00001 1 1.0014 0.998609
0.999554 1 1.00138 0.998175
0.998968 1 1 0.998968
0.999026 1 1.00027 0.998752
0.999324 1 1.00065 0.998679
0.998923 1 1 0.998923
0.999106 1 1 0.999106
0.999416 1 1 0.999416
0.999193 1 1 0.999193
0.999475 1 1 0.999475
0.999862 1 1 0.999862
0.999505 1 1 0.999505
0.999871 1 1 0.999871
1 1 1 1
0.999873 1 1 0.999873
1 1 1 1
1 1 1 1
1 1 1 1
1 1 1 1
1 1 1 1
0.999413 1 1 0.999413
0.999853 1 1 0.999853
0.999552 1 1 0.999552
1 1 1 1
0.999917 1 1 0.999917
0.999573 1 1 0.999573
1 1 1 1
1 1 1 1
0.999963 1 1 0.999963
1 1 1 1
1 1 1 1
1 1 1 1
0.948078 0.966626 0.989296 0.991424
0.883416 0.918508 0.976089 0.985355
0.877445 0.918882 0.970642 0.983786
0.999102 1 1 0.999102
0.940807 0.959495 0.988334 0.992096
0.956365 0.973951 0.993844 0.988027
0.855891 0.905482 0.962083 0.982486
0.986135 0.997714 0.992949 0.995414
0.955677 0.973683 0.994964 0.986476
0.850896 0.917006 0.943982 0.982971
0.85793 0.927786 0.942224 0.981409
0.971645 0.986941 0.991071 0.993372
0.944431 0.959086 0.998895 0.985809
0.879439 0.932491 0.959055 0.983372
0.895088 0.958463 0.949085 0.983977
0.954512 0.969193 0.993006 0.991789
0.954548 0.955738 1.015 0.983995
0.904047 0.946762 0.970864 0.983539
0.905439 0.970505 0.947187 0.984976
0.999033 1 1.00026 0.998777
0.999224 1 1.00032 0.998904
0.99913 1 1 0.99913
0.998937 1 1 0.998937
0.998974 1 1 0.998974
0.999137 1 1 0.999137
0.999194 1 1 0.999194
0.999267 1 1 0.999267
0.989602 1.00579 0.985395 0.99849
0.985287 1.00012 0.986469 0.998683
0.99915 1 1.00036 0.998787
1.01252 1.00063 1.01353 0.998374
1.01217 1 1.01369 0.998499
1.00032 1 1.00165 0.998671
0.999666 1 1.00099 0.998681
0.973133 0.993775 0.980228 0.99898
1.00753 1 1.00901 0.998538
1.01303 1 1.01442 0.998628
0.999287 0.999138 1.00085 0.999299
1.00025 1 1.00154 0.998712
0.965565 0.985485 0.980472 0.9993
1.00964 0.99666 1.01358 0.999454
1.02027 1 1.0216 0.998699
1.00177 1 1.00312 0.998659
0.949097 0.961245 0.99129 0.996037
0.951939 0.965846 0.993425 0.992125
0.903826 0.922793 0.99292 0.986431
1.00206 0.999166 1.00347 0.99943
1.00879 0.995301 1.01414 0.999426
0.950009 0.967551 0.989692 0.992096
0.959526 0.959519 1.01465 0.985568
0.961091 0.963378 1.0039 0.99375
0.905479 0.945808 0.973914 0.983003
0.944864 0.964281 0.988374 0.99139
0.913729 0.978023 0.947057 0.986489
1.00591 0.996082 1.01019 0.999675
0.936239 0.95848 0.981327 0.995382
0.949175 0.971774 0.983724 0.992905
0.999979 0.984323 1.01607 0.999841
0.896553 0.959814 0.949285 0.983993
0.958415 0.961384 1.01188 0.985207
0.914589 0.949148 0.979935 0.983319
1.00752 0.992636 1.01522 0.999771
0.948778 0.971614 0.98029 0.996131
0.94171 0.960821 0.98788 0.992134
0.867425 0.934385 0.945163 0.982199
0.903997 0.948744 0.969058 0.98326
0.975415 0.971916 1.00518 0.998431
0.969672 0.960776 1.02618 0.983508
1.00634 1 1.00703 0.999313
1.01272 0.997239 1.01599 0.999544
1.00364 0.986994 1.01729 0.999582
0.998962 1 1 0.998962
1.00377 1 1.00463 0.999142
1.01526 0.999258 1.01663 0.999396
1.00118 1 1.00206 0.999121
1.00525 0.998719 1.00705 0.999488
1.00655 0.997887 1.00942 0.999266
0.999104 1 1 0.999104
0.998989 1 1 0.998989
1.00004 1 1.001 0.999043
1.00644 1 1.00787 0.998584
0.999062 1 1 0.999062
1.00047 1 1.00198 0.99849
1.00202 1 1.00413 0.9979
1.00042 1.00096 1.00188 0.997586
0.998966 1 1.0004 0.998562
0.999081 1.00007 1.00109 0.997921
0.998712 1 1.00053 0.998188
1.00074 1 1.00232 0.998425
0.999398 1 1.00125 0.998146
1.0001 1 1.00126 0.998841
0.999942 1 1.00134 0.998603
0.999471 1 1.00128 0.998194
0.999314 1 1 0.999314
0.998971 1 1.00001 0.998962
0.999094 1 1.00037 0.998725
0.999134 1 1 0.999134
0.999414 1 1 0.999414
0.999837 1 1 0.999837
0.999474 1 1 0.999474
0.999859 1 1 0.999859
1 1 1 1
0.999869 1 1 0.999869
1 1 1 1
1 1 1 1
1 1 1 1
1 1 1 1
1 1 1 1
0.999355 1 1 0.999355
0.99979 1 1 0.99979
0.999439 1 1 0.999439
1 1 1 1
0.999848 1 1 0.999848
0.99955 1 1 0.99955
1 1 1 1
1 1 1 1
0.999888 1 1 0.999888
1 1 1 1
1 1 1 1
1 1 1 1
0.938128 0.95863 0.983136 0.995399
0.948954 0.967194 0.989632 0.991421
0.883546 0.919747 0.974833 0.985441
0.999117 1 1 0.999117
0.999073 1 1 0.999073
0.998972 1 1 0.998972
0.948392 0.972264 0.983361 0.991953
0.939978 0.958579 0.988385 0.992118
0.96064 0.975146 0.997115 0.987974
0.978162 0.988412 0.994712 0.99489
0.943941 0.95963 0.998834 0.984799
0.870358 0.922287 0.959627 0.983398
0.901566 0.963349 0.951298 0.983778
0.955905 0.968637 0.993254 0.993559
0.949747 0.954988 1.00972 0.984937
0.895521 0.934106 0.973595 0.984693
0.907556 0.973076 0.946181 0.985718
0.942533 0.958031 0.991282 0.992475
0.968378 0.965574 1.0179 0.985267
0.904895 0.933504 0.984794 0.984321
0.900558 0.959559 0.952357 0.985463
0.998766 1 1 0.998766
0.999237 1 1.00046 0.998773
0.99937 1 1.00048 0.998886
0.998933 1 1 0.998933
0.999007 1 1 0.999007
0.999201 1 1 0.999201
0.979867 0.9963 0.984493 0.998998
0.994208 0.999174 0.995703 0.999324
0.999769 1 1.00108 0.99869
1.01084 1 1.01223 0.998631
1.0082 1 1.00966 0.998564
1 1 1.00132 0.998689
1.00172 1 1.00305 0.99867
0.977463 0.989062 0.988945 0.99932
1.01868 1 1.01991 0.998794
1.00597 0.992189 1.01441 0.99948
0.99997 1 1.00119 0.998783
0.992327 0.978502 1.01461 0.999526
0.997273 0.988435 1.00942 0.999526
1.01513 1 1.01623 0.998923
0.96451 0.975464 0.991781 0.996964
0.948485 0.961179 0.990459 0.996298
0.9517 0.964888 0.99406 0.992226
1.00751 0.997833 1.01006 0.999638
0.99532 0.986518 1.00952 0.999402
0.936897 0.958787 0.981693 0.995392
0.959515 0.956607 1.01465 0.988558
0.914436 0.946025 0.981993 0.984333
0.947891 0.97024 0.983042 0.993818
0.902645 0.963898 0.951853 0.983822
1.00626 0.992773 1.0138 0.999788
0.949296 0.971984 0.980199 0.996388
0.941295 0.959835 0.988437 0.992156
0.974315 0.968533 1.01017 0.995843
0.864041 0.934169 0.942333 0.981532
0.893405 0.937315 0.96824 0.984418
0.979213 0.966861 1.02809 0.985108
1.0028 0.975997 1.02779 0.999681
0.938816 0.959216 0.983204 0.995453
0.953044 0.973836 0.990355 0.988181
0.805061 0.878488 0.93388 0.981299
0.872209 0.931787 0.951729 0.983536
0.968217 0.966258 1.01729 0.984995
0.951574 0.963423 0.993219 0.994444
1.01208 0.99639 1.01623 0.999522
1.0073 0.991185 1.01667 0.999586
1.01759 0.995894 1.02227 0.999529
0.999451 1 1.00034 0.999111
1.00506 0.998671 1.00691 0.999487
1.00755 0.998177 1.01007 0.999334
1.01733 1 1.01849 0.998858
1.00062 1 1.00161 0.999013
1.00674 1 1.00827 0.99849
1.01501 1 1.01727 0.997785
1.00002 1 1.00145 0.998581
1.00303 1.0001 1.00507 0.997862
1.00454 1.00139 1.00589 0.997281
1.00258 1.0035 1.00191 0.997188
0.998962 1 1.00108 0.997886
1.0004 1.00097 1.00189 0.997552
0.999205 1.00012 1.00124 0.997845
0.999461 1 1.0011 0.998365
0.998752 1 1.00048 0.998273
1.00103 1 1.00242 0.998612
1.0008 1 1.00234 0.99846
0.999367 1 1.00117 0.998199
0.999329 1 1.00019 0.999141
0.999905 1 1.00106 0.998844
0.999837 1 1.00124 0.998596
0.999787 1 1 0.999787
0.999312 1 1 0.999312
0.998973 1 1.00002 0.998955
0.999412 1 1 0.999412
0.999833 1 1 0.999833
1 1 1 1
0.999856 1 1 0.999856
1 1 1 1
1 1 1 1
1 1 1 1
1 1 1 1
1 1 1 1
0.999349 1 1 0.999349
0.999801 1 1 0.999801
0.999372 1 1 0.999372
1 1 1 1
0.99982 1 1 0.99982
0.999466 1 1 0.999466
1 1 1 1
1 1 1 1
0.999843 1 1 0.999843
1 1 1 1
1 1 1 1
1 1 1 1
0.947967 0.970895 0.980205 0.996103
0.937729 0.958992 0.982334 0.995412
0.948274 0.967695 0.988404 0.991428
0.999053 1 1 0.999053
0.998942 1 1 0.998942
0.999132 1 1 0.999132
0.999071 1 1 0.999071
0.998954 1 1 0.998954
0.998964 1 1 0.998964
0.998864 1 1 0.998864
0.938793 0.960425 0.986062 0.991292
0.947528 0.970231 0.983613 0.992871
0.939042 0.957522 0.988469 0.992141
0.910458 0.97628 0.945378 0.986461
0.944538 0.958696 0.993206 0.991972
0.953649 0.956792 1.01086 0.986008
0.899808 0.934322 0.979092 0.983626
0.938596 0.957381 0.988492 0.991792
0.958352 0.958097 1.0161 0.984422
0.916877 0.950304 0.980759 0.983754
0.890207 0.951574 0.949294 0.985481
0.940893 0.958182 0.988329 0.993552
0.963448 0.962878 1.01679 0.984066
0.90812 0.946821 0.974493 0.98423
0.868912 0.938184 0.942067 0.983119
0.999368 1 1.00052 0.998847
0.99886 1 1.00009 0.998766
0.999373 1 1.00061 0.998769
0.998929 1 1 0.998929
0.986715 0.991938 0.995389 0.999343
1.00116 0.988222 1.01359 0.999505
0.998701 1 1.00004 0.998666
1.0015 1 1.00283 0.998682
1.01576 1 1.01689 0.99889
0.999477 1 1.0007 0.998778
1.01589 0.999944 1.01706 0.998909
0.988034 0.976574 1.01284 0.998912
0.999548 0.988605 1.01144 0.999635
1.00682 0.99957 1.00826 0.999006
0.992009 0.973741 1.01998 0.998806
1.01453 0.994324 1.02103 0.999305
0.949508 0.96162 0.991299 0.996071
0.959903 0.973501 0.988769 0.997232
0.947736 0.961027 0.989575 0.996559
1.00364 0.991472 1.01248 0.999805
0.977015 0.969709 1.00901 0.998532
0.948948 0.97164 0.979932 0.996646
0.97094 0.964023 1.02375 0.983813
0.897404 0.936226 0.974803 0.98331
0.940264 0.958823 0.988375 0.992178
0.857683 0.928045 0.941591 0.981513
1.00767 0.978863 1.02969 0.999741
0.938148 0.959519 0.98218 0.995467
0.957042 0.975123 0.993251 0.988126
0.954232 0.963821 0.99349 0.996538
0.797814 0.878041 0.927447 0.979711
0.877347 0.932124 0.95722 0.9833
0.966049 0.96155 1.02014 0.984848
0.999165 0.979635 1.02085 0.999104
0.94907 0.967782 0.989029 0.991543
0.870521 0.912276 0.970339 0.983399
0.836801 0.900636 0.94409 0.984147
0.951745 0.954041 1.01247 0.985306
0.935761 0.95721 0.984909 0.99257
1.01074 0.995012 1.01623 0.99959
1.01809 0.994304 1.02441 0.999522
1.01356 0.999978 1.01423 0.999362
1.00867 0.998562 1.01073 0.999402
1.01663 0.998934 1.0188 0.99893
1.01072 1.00068 1.01193 0.998121
1.00725 1 1.00886 0.998395
1.0141 1 1.0164 0.997735
1.00873 1.00017 1.01135 0.997245
1.00407 1.00024 1.00602 0.997823
1.00443 1.00093 1.00629 0.99722
1.00324 1.00209 1.00414 0.997014
1.00412 1.00692 1 0.997215
1.00416 1.00603 1.00077 0.997377
1.00313 1.00382 1.00218 0.997136
0.998257 1.00002 1.00013 0.998113
0.998771 1.00009 1.00074 0.997937
1.00043 1.00102 1.0019 0.997518
0.999507 1 1.00112 0.998394
0.999439 1 1.00108 0.998358
0.998783 1 1.00043 0.998358
1.00009 1 1.00119 0.998905
1.00086 1 1.00222 0.998648
1.00082 1 1.00233 0.998495
0.999666 1 1 0.999666
0.99937 1 1.00023 0.999142
0.999703 1 1.00086 0.998846
1 1 1 1
0.999781 1 1 0.999781
0.99931 1 1 0.99931
0.999829 1 1 0.999829
1 1 1 1
1 1 1 1
1 1 1 1
1 1 1 1
1 1 1 1
0.999048 1 1 0.999048
0.9993 1 1 0.9993
0.999756 1 1 0.999756
0.999347 1 1 0.999347
1 1 1 1
0.999804 1 1 0.999804
0.99939 1 1 0.99939
1 1 1 1
1 1 1 1
0.99985 1 1 0.99985
1 1 1 1
1 1 1 1
1 1 1 1
0.936409 0.959495 0.980491 0.995357
0.948449 0.971429 0.979907 0.996364
0.937401 0.959389 0.981573 0.995424
0.999063 1 1 0.999063
0.998928 1 1 0.998928
0.998864 1 1 0.998864
0.998929 1 1 0.998929
0.998856 1 1.00002 0.99884
0.999069 1 1 0.999069
0.998936 1 1 0.998936
0.998964 1 1 0.998964
0.998864 1 1 0.998864
0.999138 1 1.00023 0.998911
0.948607 0.966669 0.993131 0.988103
0.942812 0.963218 0.987395 0.991311
0.94771 0.968902 0.984243 0.993787
0.88819 0.951343 0.94728 0.985576
0.914894 0.944565 0.983824 0.984513
0.931593 0.953553 0.985945 0.990898
0.966498 0.965331 1.01639 0.985068
0.942264 0.959933 0.989936 0.991573
0.9749 0.971797 1.01849 0.984984
0.90271 0.943095 0.972566 0.984178
0.869927 0.940421 0.941548 0.982467
0.962396 0.968335 1.00101 0.992868
0.964506 0.964528 1.01476 0.985434
0.859746 0.917159 0.953447 0.983171
0.826125 0.905101 0.930402 0.98102
1.00125 1 1.00203 0.999217
1.00078 1 1.00193 0.998847
0.999553 1 1.00079 0.998767
0.985939 0.974975 1.01298 0.998291
1.00176 0.988043 1.01414 0.999748
0.999759 1 1.00099 0.998772
1.01725 0.999952 1.01843 0.998895
1.00773 0.999802 1.00892 0.999013
1.01551 0.996104 1.0202 0.999295
0.988885 0.971023 1.01957 0.998844
1.01331 0.999442 1.01454 0.999346
0.994835 0.981373 1.01509 0.998643
0.954836 0.968655 0.993752 0.991932
0.948797 0.961331 0.990599 0.996328
0.955182 0.971654 0.985511 0.9975
1.01289 0.982338 1.03131 0.999798
0.953354 0.964793 0.994562 0.993546
0.937878 0.959779 0.981619 0.995479
0.966156 0.966908 1.01641 0.983095
0.870901 0.922833 0.959697 0.983358
0.961478 0.976565 0.996435 0.988074
0.793351 0.879758 0.921963 0.978113
0.997848 0.977989 1.02111 0.999209
0.950288 0.968577 0.989489 0.99154
0.861577 0.905385 0.968315 0.982752
0.938036 0.959954 0.983447 0.993615
0.846597 0.906945 0.949679 0.982922
0.94115 0.952079 1.00439 0.984197
0.975202 0.979553 0.997194 0.998359
0.894674 0.921516 0.984908 0.985748
0.84523 0.89837 0.956632 0.983502
0.955931 0.965347 1.00547 0.984862
0.938256 0.957271 0.986091 0.993961
1.01776 0.993042 1.02539 0.999515
1.01424 0.998416 1.01653 0.999335
0.993861 1.00084 0.994269 0.99875
1.01545 0.997703 1.01881 0.999001
1.01131 1.00081 1.0123 0.998216
1.00243 1.00193 1.00277 0.997733
1.01288 1 1.01523 0.997685
1.00721 1.00032 1.00966 0.99726
0.999464 1.00147 1.00065 0.997349
1.00413 1.00047 1.00652 0.997158
1.00348 1.00301 1.00344 0.997033
1.00546 1.00811 1 0.997368
1.01251 1.01502 1 0.997525
1.00798 1.01074 1.00002 0.997251
1.00387 1.00666 1 0.997231
1.00092 1.00327 1 0.997659
1.00267 1.00427 1.00107 0.997331
1.00366 1.00414 1.00244 0.997085
0.998268 1 1 0.998268
0.998246 1.00005 1.00002 0.998174
0.998461 1.00015 1.00032 0.997989
0.999722 1 1.00105 0.998678
0.999698 1 1.00128 0.998415
0.999444 1 1.0011 0.99835
0.9996 1 1.00016 0.999442
1.00004 1 1.00113 0.998906
1.00072 1 1.00204 0.998684
0.999999 1 1 0.999999
0.99966 1 1 0.99966
0.999432 1 1.00029 0.999143
1 1 1 1
1 1 1 1
0.999775 1 1 0.999775
1 1 1 1
1 1 1 1
1 1 1 1
0.998965 1 1 0.998965
0.999242 1 1 0.999242
0.999035 1 1 0.999035
0.99972 1 1 0.99972
0.9993 1 1 0.9993
0.999998 1 1 0.999998
0.999758 1 1 0.999758
0.999345 1 1 0.999345
1 1 1 1
1 1 1 1
0.999808 1 1 0.999808
1 1 1 1
1 1 1 1
1 1 1 1
0.95155 0.970935 0.987763 0.992176
0.935782 0.958566 0.980771 0.995371
0.948372 0.971239 0.979763 0.996625
0.998863 1 1 0.998863
0.999073 1 1 0.999073
0.998914 1 1 0.998914
0.998943 1 1 0.998943
0.998879 1 1 0.998879
0.998842 1 1 0.998841
0.999238 1 1.00049 0.998747
0.999338 1 1.00052 0.998814
0.998964 1 1 0.998964
0.998863 1 1 0.998863
0.999198 1 1.0003 0.998902
0.999646 1 1.00062 0.999024
0.863697 0.90883 0.967429 0.982335
0.952359 0.969922 0.993785 0.988033
0.944438 0.963583 0.988705 0.99133
0.863914 0.936651 0.938777 0.982494
0.909858 0.949912 0.973785 0.983619
0.9641 0.962795 1.01752 0.984118
0.946199 0.960227 0.992954 0.992384
0.962189 0.966043 1.0015 0.994514
0.809942 0.893091 0.925877 0.979501
0.961663 0.961166 1.01673 0.984059
0.867652 0.92657 0.951909 0.98372
0.952734 0.964878 0.992459 0.994917
0.95358 0.956595 1.01096 0.986044
0.841563 0.905854 0.944555 0.983561
1.00009 1 1.00048 0.999603
1.00079 1 1.00157 0.999219
1.00181 1 1.00297 0.998848
0.986767 0.969666 1.01878 0.998876
1.01739 0.998791 1.01935 0.999284
1.00861 1 1.0096 0.999021
1.01264 0.999785 1.01352 0.999345
0.994737 0.982771 1.0135 0.998691
1.00126 0.992899 1.00939 0.999044
0.896555 0.923606 0.985673 0.98482
0.953376 0.967515 0.992477 0.992856
0.947719 0.960795 0.989769 0.996586
0.99799 0.976553 1.02266 0.999306
0.934863 0.960783 0.978544 0.994356
0.949823 0.969291 0.988272 0.991544
0.949589 0.953181 1.01048 0.985898
0.855066 0.919256 0.946061 0.983205
0.855793 0.905736 0.961488 0.982705
0.975653 0.979835 0.997312 0.998416
0.883775 0.91905 0.97571 0.985557
0.859957 0.904646 0.965991 0.984068
0.939577 0.956831 0.989978 0.991909
0.944624 0.961822 0.996237 0.985829
0.96517 0.987412 0.97836 0.999095
0.873905 0.917021 0.968037 0.984448
0.955512 0.975541 0.992906 0.986467
0.952054 0.969716 0.989995 0.991708
1.01573 0.996897 1.0196 0.999308
0.989901 1.00041 0.990637 0.998851
0.982512 1.00255 0.981634 0.998346
1.01238 1.00101 1.01307 0.99831
1.00336 1.00236 1.00329 0.997725
1.00064 1.00332 0.999428 0.997894
1.00603 1.0005 1.00827 0.997275
0.99957 1.00111 1.00111 0.997363
1.00975 1.01193 1 0.997845
1.0038 1.00395 1.00281 0.997052
1.00521 1.00785 1 0.997374
1.01373 1.01587 1 0.997892
1.01821 1.02037 1 0.997885
1.01377 1.01635 1 0.997466
1.0121 1.01458 1 0.99755
1.00652 1.00907 1 0.997467
1.00718 1.00991 1 0.997292
1.00356 1.00633 1 0.997247
0.998925 1.00091 1 0.998013
1.00123 1.00342 1.00014 0.997678
1.00131 1.00255 1.00148 0.997285
0.998502 1 1 0.998502
0.998366 1.0001 1 0.998263
0.998236 1 1 0.998236
0.99929 1 1.00011 0.999184
0.999544 1 1.00086 0.99868
0.999878 1 1.00144 0.998437
0.999984 1 1 0.999984
0.999567 1 1.00013 0.999438
0.999903 1 1.001 0.998907
1 1 1 1
0.999996 1 1 0.999996
0.999653 1 1 0.999653
1 1 1 1
1 1 1 1
1 1 1 1
0.998933 1 1 0.998933
0.998966 1 1 0.998966
0.999164 1 1 0.999164
0.999683 1 1 0.999683
0.999243 1 1 0.999243
0.999023 1 1 0.999023
0.999995 1 1 0.999995
0.999722 1 1 0.999722
0.999299 1 1 0.999299
1 1 1 1
0.999999 1 1 0.999999
0.999761 1 1 0.999761
1 1 1 1
1 1 1 1
1 1 1 1
0.887853 0.915709 0.985109 0.984236
0.950788 0.969395 0.98853 0.992186
0.936402 0.958922 0.981044 0.995384
0.998849 1 1 0.998849
0.998794 1 1 0.998794
0.999017 1 1.00025 0.998769
0.998957 1 1 0.998957
0.998895 1 1 0.998895
0.998842 1 1 0.998842
0.999235 1 1.00042 0.998811
0.999258 1 1.00051 0.998749
0.999472 1 1.00081 0.998661
0.999166 1 1.00008 0.999085
0.998964 1 1.00007 0.998893
0.99924 1 1.00023 0.99901
0.85726 0.902314 0.965895 0.983615
0.858419 0.902675 0.968757 0.981641
0.957203 0.974178 0.99454 0.987969
0.794495 0.879235 0.923978 0.977969
0.868849 0.924106 0.956317 0.983152
0.964009 0.964204 1.01359 0.986391
0.963048 0.963527 1.00694 0.992612
0.951392 0.963413 0.99425 0.993233
0.842373 0.898929 0.953684 0.982595
0.944894 0.953428 1.00542 0.985708
0.948253 0.964899 0.988876 0.993804
0.943727 0.964052 0.993611 0.985212
1.00724 1 1.00819 0.999062
0.999813 1 1.00027 0.999547
0.999959 1 1.00074 0.999221
0.992753 0.982152 1.01207 0.998736
1.01177 1 1.01244 0.999344
1.00182 0.993768 1.00918 0.998939
0.993044 0.997025 0.997794 0.998209
0.872734 0.928465 0.954525 0.984757
0.900331 0.923812 0.98883 0.985592
0.952998 0.966733 0.991968 0.993775
0.974743 0.980973 0.995138 0.998504
0.938937 0.956288 0.989051 0.992726
0.884204 0.920307 0.974771 0.985637
0.942195 0.95884 0.997686 0.98492
0.862646 0.910174 0.963458 0.983729
0.968588 0.988189 0.981516 0.998623
0.878225 0.922809 0.967029 0.984135
0.956417 0.976837 0.993837 0.985166
0.957319 0.970709 0.992727 0.993431
0.980361 0.995151 0.986206 0.998917
0.956245 0.980778 0.989263 0.985568
0.967599 0.986125 0.986568 0.994572
0.985909 1 0.986946 0.998949
0.983349 1.00324 0.981816 0.998324
0.984056 1.00621 0.979719 0.998226
1.00389 1.0027 1.00348 0.997716
0.999971 1.00344 0.998648 0.997889
1.01278 1.0173 0.997227 0.998321
0.999488 1.00064 1.00148 0.997377
1.00954 1.01173 1 0.997836
1.01876 1.0207 0.999812 0.998286
1.00478 1.00742 1 0.997381
1.01315 1.01529 1 0.997892
1.01873 1.02055 1 0.998213
1.01638 1.01831 1 0.998104
1.01826 1.02038 1 0.997927
1.01775 1.02001 1 0.997785
1.01322 1.01571 1 0.99755
1.01448 1.01705 1 0.99747
1.01171 1.01416 1 0.997575
1.00199 1.00427 1 0.997734
1.00703 1.00955 1 0.997503
1.00639 1.00908 1 0.997332
0.998386 1.00008 1 0.998305
0.999627 1.00162 1 0.998006
1.00156 1.0037 1.00017 0.997698
0.998993 1 1 0.998993
0.998501 1 1 0.998501
0.998572 1.00031 1 0.998258
0.999923 1 1 0.999923
0.999342 1 1.00016 0.999184
0.999427 1 1.00075 0.998683
1 1 1 1
0.999971 1 1 0.999971
0.999592 1 1.00016 0.999435
1 1 1 1
0.999994 1 1 0.999994
1 1 1 1
0.998865 1 1 0.998865
0.998923 1 1 0.998923
0.999079 1 1 0.999079
0.998966 1 1 0.998966
0.999164 1 1 0.999164
0.999623 1 1 0.999623
0.999991 1 1 0.999991
0.999685 1 1 0.999685
0.999243 1 1 0.999243
1 1 1 1
0.999996 1 1 0.999996
0.999724 1 1 0.999724
1 1 1 1
1 1 1 1
1 1 1 1
0.881775 0.9211 0.972658 0.984217
0.889819 0.919477 0.983531 0.983949
0.949219 0.967121 0.989211 0.992194
0.998835 1 1 0.998835
0.999042 1 1.00031 0.998738
0.998829 1 1 0.998829
0.998568 1 1 0.998568
0.999 1 1.0003 0.998697
0.999261 1 1.00045 0.998808
0.999271 1 1.00052 0.998751
0.999378 1 1.00069 0.998689
0.998551 1 1 0.998551
0.998652 1 0.999749 0.998903
0.998732 1.00034 1.00026 0.998139
0.999521 1 1.00039 0.999133
0.999197 1 1.0002 0.998997
0.951393 0.976209 0.989339 0.985081
0.860341 0.901415 0.970337 0.983611
0.859371 0.905668 0.966712 0.981555
0.84129 0.899681 0.95148 0.982783
0.949305 0.955888 1.00923 0.984033
0.953894 0.962228 0.99627 0.995051
0.949331 0.964507 0.989286 0.994925
0.94893 0.965517 0.99635 0.986422
0.968954 0.987701 0.987012 0.993928
1.00112 1.00132 1.00154 0.99826
1.0057 1 1.00666 0.999041
0.99949 1 1 0.99949
1.0024 0.995545 1.00804 0.99885
0.997551 1.00015 0.999291 0.998106
0.938793 0.974247 0.976937 0.986357
0.88128 0.927927 0.964696 0.984487
0.905115 0.924386 0.992679 0.986374
0.971912 0.989147 0.984416 0.998131
0.952248 0.965926 0.993986 0.991805
0.879061 0.920692 0.970376 0.983931
0.955266 0.973787 0.994599 0.986308
0.980155 0.995255 0.985883 0.998931
0.958723 0.983699 0.987684 0.986762
0.968907 0.986501 0.989264 0.992824
0.998709 1.00501 0.995336 0.998387
0.981845 0.996273 0.989222 0.996257
0.984333 1.00413 0.981952 0.998306
0.985865 1.00577 0.981996 0.998178
1.00508 1.02464 0.982554 0.998332
0.999578 1.00358 0.998123 0.997883
1.01206 1.01671 0.997107 0.998309
1.01943 1.02629 0.994816 0.998492
1.00946 1.01166 1 0.997827
1.01861 1.02085 0.999531 0.998271
1.01879 1.02142 0.999027 0.998395
1.01277 1.01491 1 0.997891
1.019 1.02088 0.999959 0.998198
1.0169 1.0187 1 0.998231
1.01708 1.01897 1 0.998145
1.01629 1.01837 1 0.997956
1.01832 1.02039 1 0.997969
1.01759 1.01985 1 0.997779
1.01576 1.0181 1 0.997697
1.00766 1.01002 1 0.997671
1.01303 1.01553 1 0.997542
1.01514 1.01771 1 0.997475
0.998962 1.00086 1 0.998103
1.00225 1.0045 1 0.997756
1.00749 1.00997 1 0.997539
0.998835 1 1 0.998835
0.99853 1.00023 1 0.998301
1.00011 1.00211 1 0.997999
0.999816 1 1 0.999816
0.998993 1 1 0.998993
0.9985 1 1 0.9985
1 1 1 1
0.999903 1 1 0.999903
0.999335 1 1.00015 0.999184
1 1 1 1
0.999957 1 1 0.999957
1 1 1 1
0.998582 1 1 0.998582
0.998864 1 1 0.998864
0.998953 1 1 0.998953
0.998913 1 1 0.998913
0.999059 1 1 0.999059
0.999509 1 1 0.999509
0.999164 1 1 0.999164
0.999625 1 1 0.999625
0.999986 1 1 0.999986
1 1 1 1
0.999992 1 1 0.999992
0.999687 1 1 0.999687
1 1 1 1
0.999997 1 1 0.999997
1 1 1 1
0.956485 0.981351 0.987494 0.987005
0.8742 0.923105 0.96176 0.984675
0.900571 0.925654 0.988915 0.983809
0.999056 1 1.00035 0.998706
0.998864 1 1 0.998864
0.998932 1 1.00022 0.998708
0.998582 1 1 0.998582
0.999699 1.00143 1.00002 0.998251
0.998605 1 1 0.998605
0.999201 1 1.00049 0.998716
0.998462 1 1 0.998462
0.999129 1 1.00026 0.998867
0.998382 1 1 0.998382
1.00005 1.00213 0.999625 0.998295
0.998331 1.00129 0.999322 0.997723
0.999064 1.00081 1.00001 0.998248
0.99999 1 1.00081 0.999182
0.967088 0.98787 0.984773 0.9941
0.953641 0.97702 0.990032 0.985899
0.854936 0.902112 0.963413 0.983695
0.96117 0.971971 1.00403 0.984916
0.948199 0.963837 0.987962 0.995762
0.973135 0.988811 0.988129 0.99597
0.993616 1.00381 0.991523 0.998303
0.99883 1.00067 0.999844 0.998318
1.00464 1 1.00563 0.999021
0.997521 1.00112 0.998415 0.997986
0.968849 0.982845 0.991637 0.994072
0.950135 0.977103 0.984544 0.987665
0.873162 0.923539 0.960015 0.984831
0.980869 0.996393 0.985462 0.998943
0.973771 0.988593 0.990837 0.994116
0.962009 0.984225 0.989326 0.987973
0.992483 1.00419 0.989925 0.998398
0.979818 0.99451 0.989549 0.995633
1.00033 1.02277 0.979867 0.998152
1.00589 1.01489 0.993249 0.99787
0.987344 1.00515 0.984126 0.998128
1.0053 1.02428 0.983119 0.998323
1.00866 1.03041 0.980501 0.998359
1.01151 1.01641 0.996875 0.998297
1.01911 1.02602 0.99478 0.998478
1.01441 1.02175 0.994468 0.998337
1.01832 1.0209 0.999223 0.998255
1.01838 1.02118 0.998871 0.99838
1.01793 1.02063 0.99916 0.998188
1.01921 1.02117 0.999902 0.998183
1.01653 1.01839 0.999951 0.998229
1.01635 1.01841 1 0.997985
1.01779 1.01964 1 0.998186
1.01611 1.01816 1 0.997988
1.01634 1.01861 1 0.997771
1.01746 1.01974 1 0.997772
1.01565 1.01801 1 0.997689
1.01069 1.01298 1 0.997744
1.00051 1.00256 1 0.99795
1.00734 1.00968 1 0.99769
1.01288 1.01538 1 0.997533
0.998666 1 1 0.998666
0.999451 1.00135 1 0.998103
1.00266 1.00489 1 0.997778
0.999691 1 1 0.999691
0.998833 1 1 0.998833
0.998702 1.00041 1 0.998296
1 1 1 1
0.999801 1 1 0.999801
0.998994 1 1 0.998994
1 1 1 1
0.999883 1 1 0.999883
1 1 1 1
0.9999 1.0016 1 0.998299
0.998594 1 1 0.998594
0.998757 1 1 0.998757
0.998864 1 1 0.998864
0.998934 1 1 0.998934
0.999349 1 1 0.999349
0.999039 1 1 0.999039
0.99951 1 1 0.99951
0.999974 1 1 0.999974
0.999627 1 1 0.999627
0.999988 1 1 0.999988
1 1 1 1
1 1 1 1
0.999993 1 1 0.999993
1 1 1 1
0.968519 0.98554 0.988233 0.99443
0.952603 0.981522 0.984229 0.986088
0.868269 0.919164 0.95976 0.984235
1.00436 1.00638 1.00007 0.997931
0.998872 1 1.00015 0.998718
0.998596 1 1 0.998596
0.99858 1 1 0.99858
0.999742 1.00138 1.00012 0.998241
0.999838 1.00134 1 0.998498
0.998374 1 1 0.998374
0.999518 1 1.00069 0.998832
0.998433 1.00001 1 0.998425
0.999453 1.0015 0.999679 0.998271
1.00116 1.00344 1 0.997719
1.00312 1.0058 0.999671 0.997661
0.999418 1.00195 0.99979 0.997678
0.999551 1.00134 0.999859 0.998357
0.996399 1.00623 0.991439 0.99878
0.966904 0.988317 0.984964 0.993269
0.957443 0.97822 0.991667 0.986985
0.967754 0.985043 0.987928 0.994453
0.997823 1.00589 0.993348 0.99862
0.999366 1.0002 1.00079 0.998375
0.999456 1.00668 0.994847 0.997964
0.965494 0.977375 0.992521 0.995289
0.944219 0.976799 0.97993 0.986444
0.985808 1.00256 0.984859 0.998405
0.982528 0.995457 0.992098 0.994873
1.00145 1.02362 0.980119 0.99818
1.00486 1.01328 0.993676 0.997997
1.00774 1.02926 0.980921 0.998143
1.01921 1.02449 0.99678 0.998059
1.0054 1.02368 0.983801 0.998315
1.01102 1.03155 0.981704 0.99836
1.0074 1.0238 0.985756 0.998202
1.01859 1.0255 0.994791 0.998465
1.01515 1.02209 0.99486 0.998334
1.01779 1.02238 0.997427 0.998076
1.01807 1.02098 0.998786 0.998365
1.01787 1.02038 0.999339 0.998202
1.01795 1.02009 1 0.997902
1.01615 1.01804 0.999917 0.998227
1.01606 1.01811 1 0.997986
1.01823 1.02052 1 0.997759
1.01592 1.01793 1 0.998021
1.01635 1.01861 1 0.99779
1.01235 1.01467 1 0.997713
1.01552 1.01788 1 0.997681
1.01056 1.01286 1 0.997724
1.00256 1.00464 1 0.997931
0.99854 1 1 0.99854
1.00086 1.00289 1 0.997975
1.00697 1.00928 1 0.99771
0.999568 1 1 0.999568
0.998665 1 1 0.998665
0.999901 1.0018 1 0.998103
1 1 1 1
0.999678 1 1 0.999678
0.998832 1 1 0.998832
1 1 1 1
0.999786 1 1 0.999786
1 1 1 1
1.00152 1.00353 1 0.997997
0.999448 1.00114 1 0.998304
0.998527 1 1 0.998527
0.998613 1 1.00001 0.998606
0.998765 1 1 0.998765
0.999176 1 1 0.999176
0.998915 1 1 0.998915
0.999349 1 1 0.999349
0.999942 1 1 0.999942
0.999512 1 1 0.999512
0.999978 1 1 0.999978
1 1 1 1
0.99999 1 1 0.99999
1 1 1 1
1 1 1 1
1.00099 1.0105 0.99183 0.998753
0.96363 0.984199 0.986198 0.992803
0.953078 0.975959 0.989143 0.987274
1.00532 1.00721 1.00001 0.998111
1.00905 1.01135 1 0.997725
1.00389 1.0058 1.00013 0.997969
0.998555 1 1 0.998555
0.999794 1.00132 1.00024 0.998229
1.00036 1.00191 1 0.998443
1.00698 1.00919 1 0.997819
0.998482 1.00001 1 0.998468
0.998777 1.00077 0.999762 0.998247
1.00164 1.00387 1 0.997776
1.0093 1.01188 1 0.997449
1.01123 1.01718 0.996171 0.99798
1.00308 1.00597 0.999491 0.997638
1.00018 1.00262 0.999929 0.997633
1.00015 1.00854 0.992783 0.998887
0.968364 0.988298 0.987447 0.992286
0.998524 1.0072 0.99243 0.998943
1.01369 1.02062 0.994606 0.998594
0.998242 1.00539 0.994837 0.998042
0.964804 0.980998 0.98978 0.993647
1.00307 1.02468 0.980663 0.998208
1.00306 1.01191 0.993108 0.998128
1.00674 1.02917 0.979971 0.998202
1.02124 1.02672 0.996592 0.998069
1.01653 1.02844 0.990328 0.998074
1.03045 1.03647 0.996004 0.998181
1.01342 1.03313 0.982532 0.99836
1.00819 1.02339 0.986917 0.998206
1.02015 1.02806 0.99431 0.997985
1.01585 1.02245 0.995203 0.998331
1.018 1.02201 0.997993 0.998074
1.02146 1.0239 0.999764 0.99785
1.01776 1.02009 0.999495 0.998216
1.01808 1.02023 1 0.9979
1.02091 1.02327 1 0.997688
1.01576 1.01781 1 0.997986
1.01813 1.02041 1 0.997759
1.01439 1.01677 1 0.99766
1.01637 1.0186 1 0.997809
1.01221 1.01453 1 0.997718
1.0033 1.00544 1 0.997875
1.01046 1.01279 1 0.997704
1.00259 1.00468 1 0.997919
0.998466 1 1 0.998466
0.999489 1 1 0.999489
0.99854 1 1 0.99854
1.00123 1.00323 1 0.998
1 1 1 1
0.999557 1 1 0.999557
0.998665 1 1 0.998665
1 1 1 1
0.999666 1 1 0.999666
1 1 1 1
1.00252 1.00477 1 0.997755
1.00134 1.00338 1 0.99797
0.999062 1.00081 1 0.99825
0.998995 1.00069 1 0.998309
0.998532 1 1 0.998532
0.998987 1 1 0.998987
0.998773 1 1 0.998773
0.999177 1 1 0.999177
0.999875 1 1 0.999875
0.999349 1 1 0.999349
0.999953 1 1 0.999953
1 1 1 1
0.999983 1 1 0.999983
1 1 1 1
1 1 1 1
1.01158 1.02143 0.991934 0.99841
0.997965 1.00952 0.990106 0.998432
0.961171 0.984537 0.982539 0.993616
1.01248 1.01474 1 0.997772
1.00442 1.00616 1 0.998271
1.01821 1.02064 1 0.997618
1.00903 1.01135 1 0.997711
1.00346 1.00529 1.00018 0.998009
1.01864 1.02122 1 0.997477
1.00089 1.00251 1 0.998389
1.00653 1.00879 1 0.997761
1.02388 1.02676 0.999564 0.997626
1.00196 1.00414 1 0.997834
1.01016 1.01277 1 0.997419
1.01123 1.01657 0.99675 0.997993
1.00273 1.00552 0.999616 0.997613
1.00317 1.01042 0.99382 0.998996
1.02631 1.03303 0.995234 0.998257
1.01337 1.02045 0.994464 0.998596
0.997816 1.00409 0.995628 0.998115
1.0059 1.02872 0.979522 0.998261
1.02201 1.02797 0.99612 0.998079
1.01567 1.02874 0.989183 0.998089
1.03061 1.03746 0.995209 0.998184
1.02938 1.03724 0.994334 0.99808
1.00886 1.02281 0.98813 0.99821
1.02004 1.02762 0.994622 0.997993
1.02475 1.02963 0.997402 0.997854
1.01823 1.02168 0.998545 0.998072
1.02116 1.02353 0.999858 0.997833
1.02308 1.02552 1 0.997622
1.01829 1.02043 1 0.997899
1.02071 1.02308 1 0.997687
1.01725 1.01971 1 0.997583
1.01804 1.02033 1 0.99776
1.01447 1.01685 1 0.997661
1.00444 1.00667 1 0.997787
1.01207 1.01438 1 0.997723
1.00354 1.00567 1 0.997877
0.998409 1.00002 1 0.998391
1.00259 1.00469 1 0.997908
0.998464 1 1 0.998464
0.999536 1 1 0.999536
0.999866 1 1 0.999866
0.999516 1 1 0.999516
0.998539 1 1 0.998539
1 1 1 1
0.999546 1 1 0.999546
1 1 1 1
1.02389 1.02629 1 0.997663
1.01045 1.01278 1 0.997701
1.00291 1.00518 1 0.997739
1.00131 1.00326 1 0.998059
1.00108 1.00314 1 0.997943
0.998765 1.00051 1 0.998254
0.998791 1 1 0.998791
0.998537 1 1 0.998537
0.99899 1 1 0.99899
0.999761 1 1 0.999761
0.999178 1 1 0.999178
0.999892 1 1 0.999892
1 1 1 1
0.999964 1 1 0.999964
1 1 1 1
1 1 1 1
1.02755 1.03223 0.997458 0.998011
1.01503 1.02452 0.992231 0.998495
0.996122 1.00962 0.9885 0.998111
1.02123 1.02375 1 0.997534
1.01163 1.01381 1 0.997844
1.00343 1.00501 1 0.998427
1.01815 1.02056 1 0.997639
1.00903 1.01136 1 0.997696
1.02741 1.02989 0.999983 0.997609
1.01687 1.01948 1 0.997439
1.0062 1.00851 1 0.997702
1.02325 1.02599 0.999713 0.99762
1.01189 1.01454 1 0.997389
1.01325 1.01805 0.997264 0.99801
1.03272 1.03825 0.996495 0.998168
1.02817 1.03429 0.995815 0.998266
1.01418 1.02039 0.99531 0.9986
1.01568 1.0299 0.988062 0.998104
1.0315 1.03882 0.994762 0.998188
1.02943 1.03795 0.993693 0.998093
1.02887 1.03368 0.99743 0.997915
1.01978 1.02706 0.994898 0.998001
1.02484 1.02916 0.997951 0.997846
1.02548 1.02793 1 0.997619
1.02083 1.02311 0.999951 0.997816
1.02344 1.02587 1 0.997622
1.02029 1.02284 1 0.997516
1.02049 1.02285 1 0.997686
1.0173 1.01976 1 0.997583
1.00588 1.00821 1 0.997691
1.01454 1.01692 1 0.997663
1.00471 1.00694 1 0.997788
0.998415 1.00012 1 0.998294
1.00379 1.00592 1 0.99788
0.998424 1.00003 1 0.998389
0.999533 1 1 0.999533
0.998462 1 1 0.998462
0.999531 1 1 0.999531
0.999874 1 1 0.999874
0.999935 1 1 0.999935
0.999544 1 1 0.999544
1 1 1 1
1.02429 1.02682 1 0.997536
1.01522 1.01754 1 0.997721
1.02384 1.02614 1 0.99776
1.00334 1.00542 1 0.997932
1.01151 1.01385 1 0.997694
1.00337 1.00566 1 0.997723
1.00049 1.00244 1 0.998058
0.998615 1 1 0.998615
0.998514 1.00026 1 0.998258
0.998793 1 1 0.998793
0.999624 1 1 0.999624
0.998994 1 1 0.998994
0.999778 1 1 0.999778
1 1 1 1
0.99991 1 1 0.99991
1 1 1 1
1 1 1 1
1.03084 1.03404 0.999012 0.997893
1.02753 1.03222 0.997446 0.998008
1.01625 1.02621 0.991709 0.998575
1.02747 1.03 1 0.99755
1.02046 1.02298 1 0.997537
1.01091 1.01302 1 0.997916
1.01798 1.02037 1 0.99766
1.0273 1.02982 0.999966 0.99759
1.0151 1.01774 1 0.997401
1.02125 1.02388 0.999808 0.997614
1.03193 1.03592 0.998169 0.997975
1.03222 1.03758 0.996697 0.99813
1.03025 1.036 0.996171 0.998275
1.02777 1.03119 0.998878 0.997804
1.02939 1.03856 0.993054 0.998107
1.02852 1.03352 0.997254 0.997904
1.02725 1.02966 0.999968 0.997697
1.02498 1.02872 0.998521 0.997837
1.02615 1.0286 1 0.997621
1.02227 1.02485 1 0.997482
1.02376 1.0262 1 0.997622
1.02003 1.02256 1 0.997517
1.00757 1.00998 1 0.997611
1.01732 1.01979 1 0.997583
1.00619 1.00852 1 0.997692
0.998542 1.00035 1 0.998195
1.00498 1.00721 1 0.997789
0.998466 1.00017 1 0.998292
0.999512 1 1 0.999512
0.99844 1.00005 1 0.998387
0.999526 1 1 0.999526
0.999877 1 1 0.999877
0.999528 1 1 0.999528
0.999876 1 1 0.999876
1 1 1 1
1.02492 1.02755 1 0.997438
1.01725 1.01974 1 0.99756
1.02486 1.02737 1 0.997556
1.00397 1.00607 1 0.997906
1.01521 1.01753 1 0.997724
1.02386 1.02606 1 0.997857
0.998497 1.00003 1 0.998462
1.00292 1.00501 1 0.997928
1.01269 1.01504 1 0.997687
0.999599 1.00155 1 0.998057
0.998617 1 1 0.998617
0.999514 1 1 0.999514
0.998795 1 1 0.998795
0.999637 1 1 0.999637
1 1 1 1
0.999796 1 1 0.999796
1 1 1 1
1 1 1 1
1.03076 1.03328 0.999808 0.997753
1.0308 1.03426 0.998773 0.997877
1.02806 1.03264 0.997561 0.998005
1.02692 1.02944 1 0.997556
1.01965 1.02216 1 0.99754
1.02701 1.02956 0.99995 0.997571
1.02857 1.03114 0.999704 0.997807
1.03193 1.03594 0.998162 0.997967
1.03133 1.03651 0.996901 0.998092
1.0284 1.03167 0.999004 0.997822
1.0262 1.02862 1 0.997651
1.02815 1.03336 0.997061 0.997893
1.02732 1.02974 0.999979 0.997667
1.02282 1.02536 1 0.997519
1.02679 1.02923 1 0.997623
1.022 1.02458 1 0.997485
1.00917 1.01165 1 0.997547
1.01985 1.02239 1 0.997518
1.00802 1.01043 1 0.997611
0.998768 1.00065 1 0.998117
1.00653 1.00886 1 0.997692
0.998633 1.00044 1 0.998194
0.999469 1 1 0.999469
0.998523 1.00023 1 0.99829
0.999501 1 1 0.999501
0.999865 1 1 0.999865
0.999521 1 1 0.999521
0.999883 1 1 0.999883
0.999875 1 1 0.999875
1.0266 1.02906 1 0.99761
1.01977 1.02241 1 0.997427
1.02523 1.02785 1 0.99745
1.00605 1.00832 1 0.997749
1.01699 1.01947 1 0.997564
1.02535 1.02784 1 0.997577
0.998474 1.00013 1 0.998347
1.00393 1.00608 1 0.997861
1.01508 1.01739 1 0.997727
0.999453 1 1 0.999453
0.998491 1.00003 1 0.998465
1.00251 1.00459 1 0.997923
0.998618 1 1 0.998618
0.999524 1 1 0.999524
1 1 1 1
0.99965 1 1 0.99965
1 1 1 1
1 1 1 1
1.02696 1.02937 0.999941 0.997717
1.03001 1.0327 0.99965 0.997751
1.031 1.03474 0.998523 0.997862
1.02637 1.02888 1 0.997563
1.02619 1.02864 1 0.997616
1.02911 1.03194 0.999447 0.997816
1.03184 1.03588 0.998134 0.997959
1.02905 1.03217 0.999138 0.997839
1.02575 1.02829 0.999871 0.997661
1.02195 1.02448 1 0.997531
1.02748 1.02992 1 0.997637
1.02256 1.02512 1 0.997505
1.01013 1.01265 1 0.997517
1.02171 1.02428 1 0.997488
1.00947 1.01195 1 0.997549
0.998866 1.00082 1 0.998048
1.00839 1.0108 1 0.997611
0.998816 1.0007 1 0.998117
0.999347 1 1 0.999347
0.998712 1.00052 1 0.998193
0.999426 1 1 0.999426
1 1 1 1
0.999492 1 1 0.999492
0.999875 1 1 0.999875
0.999887 1 1 0.999887
1.02505 1.02745 1 0.997662
1.02087 1.02344 1 0.99749
1.02622 1.02869 1 0.997607
1.00873 1.01119 1 0.997566
1.01984 1.02245 1 0.997449
1.02564 1.02825 1 0.997462
0.998663 1.0005 1 0.998159
1.0061 1.00837 1 0.997748
1.0168 1.01928 1 0.997569
0.999425 1 1 0.999425
0.998402 1.0001 1 0.998306
1.00393 1.00613 1 0.997817
1 1 1 1
0.999463 1 1 0.999463
0.998484 1.00002 1 0.998467
0.999535 1 1 0.999535
1 1 1 1
1 1 1 1
1.02519 1.02763 1 0.997625
1.02728 1.02966 0.999969 0.997725
1.02925 1.03209 0.999502 0.997749
1.02296 1.02555 1 0.997479
1.02531 1.02776 1 0.997622
1.02966 1.03272 0.999202 0.997826
1.02529 1.02796 0.99973 0.99767
1.02199 1.02452 1 0.997531
1.01023 1.01269 1 0.997565
1.02225 1.02482 1 0.997491
1.01016 1.01264 1 0.997547
0.998841 1.00092 1 0.997918
1.00983 1.0123 1 0.997551
0.9989 1.00085 1 0.998049
0.999296 1 1 0.999296
0.998885 1.00077 1 0.998116
0.999344 1 1 0.999344
1 1 1 1
0.999375 1 1 0.999375
0.999927 1 1 0.999927
0.999883 1 1 0.999883
1.02271 1.02515 1 0.997626
1.02115 1.02368 1 0.997533
1.02478 1.02718 1 0.997664
1.00977 1.01222 1 0.99757
1.02134 1.02392 1 0.997483
1.02585 1.02831 1 0.997604
0.999146 1.0011 1 0.998052
1.00868 1.01109 1 0.99761
1.01985 1.02243 1 0.99747
0.999398 1 1 0.999398
0.998637 1.00049 1 0.998145
1.00614 1.00841 1 0.997747
1 1 1 1
0.999434 1 1 0.999434
0.998332 1.00007 1 0.998265
1 1 1 1
0.999473 1 1 0.999473
1 1 1 1
1.0231 1.02564 1 0.99752
1.0248 1.02725 1 0.997618
1.02765 1.02999 0.999991 0.997734
1.0094 1.01188 1 0.99755
1.02297 1.02554 1 0.997494
1.02448 1.02692 1 0.997628
1.02205 1.02458 1 0.997532
1.01025 1.01272 1 0.997565
0.998819 1.00094 1 0.997877
1.01019 1.01265 1 0.997577
0.998858 1.00091 1 0.997953
0.99923 1 1 0.99923
0.998908 1.00086 1 0.998049
0.999292 1 1 0.999292
1 1 1 1
0.999342 1 1 0.999342
1 1 1 1
0.999868 1 1 0.999868
1.02134 1.02385 1 0.997554
1.02299 1.02542 1 0.997636
1.00933 1.01178 1 0.997579
1.02112 1.02365 1 0.997533
1.02452 1.02691 1 0.997666
0.999227 1.00116 1 0.998071
1.00966 1.01212 1 0.997567
1.0218 1.02439 1 0.997476
0.999355 1 1 0.999355
0.999176 1.0011 1 0.99808
1.00861 1.01099 1 0.997654
1 1 1 1
0.999403 1 1 0.999403
0.998613 1.00048 1 0.998131
1 1 1 1
0.999442 1 1 0.999442
1 1 1 1
1.00873 1.01117 1 0.997587
1.02301 1.02556 1 0.997514
1.02433 1.02678 1 0.997611
0.998365 1.00049 1 0.997878
1.00944 1.01192 1 0.99755
1.02295 1.0255 1 0.997509
1.01028 1.01274 1 0.997565
0.998818 1.00094 1 0.99788
0.99918 1 1 0.99918
0.998888 1.0009 1 0.997987
0.999227 1 1 0.999227
1 1 1 1
0.999289 1 1 0.999289
1 1 1 1
1 1 1 1
1.00872 1.01117 1 0.997575
1.02096 1.02345 1 0.997564
1.02326 1.02567 1 0.997646
0.998869 1.00082 1 0.998047
1.00944 1.01189 1 0.997577
1.02105 1.02358 1 0.997532
0.999307 1 1 0.999307
0.999263 1.0012 1 0.998069
1.00958 1.01205 1 0.997564
1 1 1 1
0.999358 1 1 0.999358
0.999211 1.0011 1 0.998108
1 1 1 1
0.999409 1 1 0.999409
1 1 1 1
0.998115 1.00015 1 0.997966
1.0087 1.01118 1 0.997551
1.02294 1.0255 1 0.997509
0.999176 1 1 0.999176
0.998379 1.0005 1 0.997876
1.00948 1.01196 1 0.997551
0.998814 1.00093 1 0.997883
0.999179 1 1 0.999179
1 1 1 1
0.999223 1 1 0.999223
1 1 1 1
1 1 1 1
0.998356 1.00035 1 0.998011
1.00863 1.01109 1 0.997571
1.02061 1.02309 1 0.997574
0.999371 1 1 0.999371
0.999001 1.00096 1 0.998046
1.00956 1.01202 1 0.997574
1 1 1 1
0.999309 1 1 0.999309
0.999283 1.00122 1 0.998068
1 1 1 1
0.999362 1 1 0.999362
1 1 1 1
0.999177 1 1 0.999177
0.998133 1.0002 1 0.997936
1.00867 1.01118 1 0.997516
1 1 1 1
0.999175 1 1 0.999175
0.998392 1.00052 1 0.997875
0.999178 1 1 0.999178
1 1 1 1
1 1 1 1
0.999323 1 1 0.999323
0.998509 1.0005 1 0.998011
1.00853 1.01099 1 0.997567
1 1 1 1
0.999267 1 1 0.999267
0.999142 1.0011 1 0.998044
1 1 1 1
0.99931 1 1 0.99931
1 1 1 1
0.999786 1 1 0.999786
0.999249 1 1 0.999249
0.998153 1.00025 1 0.997905
1 1 1 1
0.999176 1 1 0.999176
1 1 1 1
0.999803 1 1 0.999803
0.999279 1 1 0.999279
0.998661 1.00065 1 0.998012
0.999905 1 1 0.999905
0.999266 1 1 0.999266
1 1 1 1
1 1 1 1
0.999197 1 1 0.999197
1 1 1 1
0.999898 1 1 0.999898
0.999229 1 1 0.999229
1 1 1 1
1 1 1 1
1 1 1 1

VECTORS lamdaE float
1.00016 1.00015 0.995125
1.00003 1.00041 0.997668
0.999862 1.00035 0.995303
1.00046 0.999927 0.99491
1.00028 0.999958 0.995155
1.00014 1.0003 0.994974
1.0014 1.00049 0.992325
1.00005 1.0003 0.997678
0.999949 1.00023 0.997941
0.999558 1.0007 0.997991
1.00002 1.00028 0.99522
1.00123 1.00122 0.991319
1.00032 1.00001 0.994933
1.00005 0.999991 0.995184
0.999591 1.00056 0.995455
1.00024 0.999904 0.995135
0.999821 1.0006 0.995127
1.00002 1.00003 0.99535
1.00157 1.00033 0.992253
1.00031 1 0.997577
1.00048 0.999987 0.994799
1.0004 0.99988 0.995067
1.0018 0.999989 0.992162
1.00161 1.00012 0.992348
1.00015 1.00026 0.994917
1.00119 1.00099 0.992192
1.00403 1.00033 0.988071
1.00003 1.00024 0.997712
1.00009 1.0001 0.996487
0.999792 1.00053 0.996518
1 1.00006 0.997807
1.00114 1.00136 0.991317
1.00036 0.99984 0.994982
1.00009 1.00037 0.995053
1.00189 1.00018 0.992562
0.999554 0.999466 0.99843
1.00155 1.00082 0.992565
1.00089 1.00161 0.991544
1.00321 1.00179 0.987309
0.999638 0.998436 0.998768
1.00033 1.00001 0.997548
1.00021 1.00001 0.996367
1.00029 0.999996 0.99757
0.999989 1.00004 0.995243
1.00193 1.00003 0.991308
1.00012 0.999963 0.997864
1.00207 1.00012 0.992346
1.00001 0.999843 0.995361
0.999782 1.0001 0.995531
0.999516 1.00093 0.995264
1.00171 1.00016 0.992195
1.00019 1.00002 0.996391
1.00024 0.999988 0.995032
0.999826 1.00061 0.995068
1.00017 0.999868 0.995277
1.00189 0.999954 0.992069
1.00139 1.00078 0.992116
1.00173 1.00003 0.992272
1.00402 1.00034 0.988053
1.00027 0.999999 0.99759
1.00043 1.00002 0.99485
1.00176 1 0.992843
1.00182 1.00002 0.992086
1.00175 0.999966 0.992277
1.0043 0.99994 0.987875
1.00419 0.999981 0.987848
0.999922 0.999753 0.995549
1.00074 1.00168 0.992178
1.0038 1.00076 0.988003
1.00499 1.00008 0.985872
1.00027 1.00014 0.997645
0.999885 0.999826 0.998007
1.00003 1.00037 0.997664
1.00108 1.00146 0.991309
1.00039 0.999976 0.997607
1.00015 1.00032 0.997666
1.00179 1.00013 0.991365
0.999667 0.999547 0.997216
1.00134 1.0009 0.9914
1.00076 1.00166 0.992337
1.00326 1.00171 0.987294
0.999771 0.998895 0.998472
0.999718 1.0003 0.994961
1.00198 0.999987 0.991244
1.00169 1.00041 0.99137
1.0043 1.00022 0.986948
1.00037 1.00144 0.993867
1.00365 1.00098 0.987356
1.00217 1.00344 0.987539
1.00449 1.00135 0.985451
0.999573 0.998022 0.998996
0.999563 0.998356 0.998867
1.00039 0.999992 0.997548
1.00035 1.00001 0.997547
1.00032 0.999998 0.997568
1.00017 1.00002 0.996399
1.00196 1.00002 0.991943
1.00024 0.999972 0.996388
1.00201 1.00013 0.991758
1.00031 0.999992 0.99758
1.00184 0.99995 0.991491
1.00204 1.00011 0.992423
1.00437 0.9997 0.98737
1.00204 1.00003 0.992443
1.00442 0.999915 0.987088
1.00029 1.00001 0.994998
0.999997 0.999982 0.99527
0.999485 1.00101 0.995229
0.999945 0.999834 0.995482
1.00199 0.999956 0.991975
1.00185 0.999947 0.992202
1.00158 1.00052 0.992048
1.00401 1.00036 0.988035
1.0003 0.999996 0.997584
1.00018 1.00002 0.995084
1.00187 0.999977 0.99178
1.00191 1.00001 0.991982
0.9998 1.00003 0.996724
1.00098 1.00156 0.992307
1.00185 0.999914 0.992194
1.00432 0.999918 0.987788
1.00378 1.00079 0.988018
1.00419 1.00006 0.987911
1.00497 1.00009 0.985897
1.00182 0.999975 0.991532
1.00177 1.00001 0.992163
1.00429 0.999661 0.98798
1.00432 0.999851 0.987736
1.00428 0.999861 0.98778
1.00518 0.999563 0.986352
0.999699 0.999423 0.998325
1.00508 0.999797 0.985995
1.0002 1.00203 0.992156
1.00313 1.00183 0.987391
1.00489 1.00047 0.985737
1.00522 0.999785 0.985754
0.99988 1.00127 0.99356
1.0002 1.00424 0.990169
1.00037 1.00001 0.99762
1.0001 1.00031 0.997675
1.0018 1.00011 0.991367
0.999738 0.999246 0.998371
1.00051 1.00191 0.991786
1.00129 1.00094 0.991407
1.00332 1.00165 0.98728
0.99968 0.998816 0.998584
0.999705 1.00021 0.99501
1.00199 1.00002 0.991878
1.00167 1.00044 0.991995
1.00429 1.00023 0.986945
1.00014 1.00151 0.992983
1.00366 1.00095 0.987365
1.00219 1.00338 0.987525
1.00448 1.0013 0.985413
0.999891 1.00096 0.994016
0.99974 0.999555 0.995658
1.00029 1.00315 0.991173
1.00439 1.0001 0.986921
1.00401 1.00054 0.987132
1.0051 1.00011 0.985657
1.00125 1.00405 0.988612
1.00473 1.00082 0.985545
1.00366 1.00306 0.985396
1.00498 1.00107 0.985041
0.999599 0.997721 0.999098
0.999543 0.997958 0.999039
0.999508 0.998251 0.998946
0.999809 1.00081 0.99415
0.999654 0.99906 0.99851
1.00041 0.999976 0.997579
1.00036 1.00001 0.99754
1.00192 1.00014 0.991176
1.00188 1.00002 0.991368
1.0003 1 0.997568
1.00028 0.999996 0.997578
1.00184 0.999958 0.991487
1.00197 1.0001 0.991828
1.00437 0.999699 0.98737
1.00194 1.00006 0.991208
1.00441 0.999913 0.987083
1.00181 0.999945 0.991539
1.00434 0.999636 0.987487
1.00439 0.999794 0.987235
1.00517 0.998993 0.986731
1.00442 1.00002 0.986975
1.00521 0.999389 0.98628
1.00028 0.999994 0.997578
0.999942 1.00003 0.995318
1.00188 0.999968 0.990818
1.00201 1 0.991876
0.999452 1.00026 0.998167
1.00131 1.00134 0.992434
1.00194 0.999886 0.992113
1.00434 0.999879 0.987701
1.00419 1.00012 0.987973
1.00376 1.00084 0.988032
1.00496 1.00011 0.985923
1.00181 0.99996 0.991533
1.00188 1.00001 0.992052
1.00431 0.99964 0.987664
1.00434 0.999888 0.987781
0.999737 0.999509 0.998241
1.00046 1.0018 0.992706
1.00302 1.00205 0.987681
1.00429 0.999887 0.987759
1.00518 0.999433 0.986369
1.00488 1.0005 0.985679
1.00508 0.999849 0.986094
1.00521 0.999777 0.985783
0.999916 1.00127 0.993554
1.00029 1.00403 0.990188
1.0043 0.999639 0.987555
1.00431 0.999775 0.987845
1.00517 0.999123 0.986803
1.00518 0.99918 0.986531
1.00515 0.999558 0.986365
1.00524 0.998537 0.987092
1 1.00165 0.992913
1.00523 0.999246 0.986304
1.00176 1.00357 0.988006
1.00461 1.00121 0.985336
1.00519 1.00048 0.985312
1.00519 0.998993 0.9867
1.00062 1.00408 0.989615
1.00014 1.00346 0.991017
1.00086 1.0047 0.988717
1.00191 0.999997 0.9913
0.999592 0.998723 0.998701
0.999696 1.00011 0.995058
1.00154 1.00048 0.991432
1.00429 1.00024 0.986942
1.00004 1.0016 0.992905
1.00219 1.00335 0.987511
1.00367 1.00093 0.987375
1.00447 1.00125 0.985376
0.999853 1.00091 0.994041
0.999753 0.999444 0.995697
1.00012 1.00333 0.991179
1.00438 1.00012 0.986911
1.00402 1.00054 0.987132
1.00512 1.0001 0.985637
1.00116 1.00412 0.988637
1.00477 1.00082 0.98555
1.00363 1.00304 0.98538
1.00493 1.00092 0.985
0.999857 0.998974 0.99601
1.00069 1.00368 0.9899
1.00008 1.00222 0.992434
1.00043 1.00461 0.989445
1.00515 0.999875 0.985826
1.00494 1.00044 0.985589
1.0052 0.999631 0.985976
1.00229 1.00435 0.98664
1.00511 1.00057 0.985239
1.00436 1.0024 0.984833
1.00513 1.00089 0.984961
1.00027 1.0004 0.993897
1.00007 0.998403 0.996198
0.999672 0.997486 0.999132
0.999593 0.997681 0.99911
0.999524 0.9979 0.99907
0.99981 1.0002 0.994783
0.999622 0.998681 0.998683
0.999836 1.00086 0.994127
0.999703 0.999111 0.998447
1.00193 1.00009 0.991202
1.00192 1.00008 0.991247
1.0044 0.999914 0.987078
1.00436 0.999698 0.98737
1.00185 0.999966 0.991485
1.00031 0.999997 0.997572
1.00183 0.999947 0.991539
1.00433 0.999641 0.987487
1.00439 0.999798 0.987232
1.00517 0.999001 0.986726
1.00441 1.00003 0.986964
1.00521 0.999391 0.98627
1.0043 0.999631 0.987553
1.00516 0.998892 0.986866
1.0052 0.999165 0.98652
1.0052 0.99757 0.988164
1.00519 0.999624 0.986046
1.00523 0.998245 0.987412
1.00182 0.999948 0.991537
1.00198 0.999988 0.991942
1.00433 0.999606 0.987351
1.00437 0.999921 0.987826
0.999804 0.99962 0.998146
1.00071 1.00169 0.993138
1.00301 1.0022 0.987969
1.00429 0.999902 0.987739
1.00517 0.9993 0.986386
1.00508 0.999904 0.986193
1.00487 1.00053 0.985621
1.00521 0.999769 0.985812
0.999963 1.00126 0.993548
1.00038 1.00386 0.990205
1.0043 0.999589 0.987507
1.00433 0.999759 0.98783
1.00517 0.999005 0.986934
1.00518 0.999313 0.986488
1.00008 1.00164 0.992897
1.0019 1.00344 0.988002
1.00453 1.00128 0.985384
1.00515 0.999633 0.986303
1.00524 0.998367 0.987295
1.00518 1.00048 0.985295
1.00522 0.999239 0.986325
1.0052 0.998942 0.986704
1.00069 1.00395 0.989616
1.00072 1.00464 0.988748
1.00018 1.00343 0.991013
1.00515 0.999012 0.986929
1.00517 0.999077 0.986862
1.00522 0.997708 0.98797
1.00524 0.9981 0.98751
1.00522 0.998629 0.986935
1.00517 0.997011 0.988633
1.00105 1.00389 0.988996
1.00519 0.99808 0.987441
1.0033 1.00314 0.985947
1.00512 1.00117 0.984446
1.00519 1.00015 0.98558
1.00513 0.998074 0.987654
1.00017 1.00254 0.9919
1.00132 1.00394 0.988505
1.00034 1.00493 0.989087
1.00154 1.00396 0.988418
1.00437 1.00013 0.986901
0.999764 0.999346 0.995735
0.999808 1.00088 0.994067
1.00001 1.00347 0.991186
1.00403 1.00054 0.987131
1.00514 1.0001 0.985617
1.00106 1.00418 0.988663
1.00362 1.00306 0.985365
1.0048 1.00083 0.985555
1.00486 1.00079 0.984959
0.999868 0.998916 0.996027
1.00062 1.00379 0.989904
1.00005 1.00218 0.99247
1.00032 1.00484 0.989408
1.00516 0.99988 0.98581
1.00497 1.00042 0.985562
1.0052 0.999637 0.985963
1.00218 1.00437 0.986673
1.00513 1.00064 0.985234
1.00433 1.00224 0.984837
1.00513 1.00088 0.984866
0.999984 0.998601 0.996142
1.00018 1.00121 0.993265
1.00119 1.00452 0.988302
1.00017 1.00389 0.990676
1.00091 1.00438 0.989019
1.00521 0.999163 0.986465
1.00516 1.00012 0.985501
1.00514 0.998846 0.986787
1.00285 1.00381 0.986164
1.00515 1.00021 0.985536
1.00437 1.00185 0.984729
1.00027 1.00047 0.993815
1.00024 1.00179 0.992602
1.00023 1.00041 0.993964
1.00026 1.00041 0.993896
1.00009 0.998229 0.996811
1.00006 0.998389 0.996489
0.999828 0.997297 0.998008
0.99968 0.997446 0.999136
0.999592 0.997633 0.99912
0.999837 0.999603 0.99536
0.999621 0.998273 0.998864
0.999816 1.00027 0.994756
0.999671 0.998751 0.998622
0.999866 1.00089 0.994103
0.999742 0.999169 0.998382
1.0044 1.00004 0.986952
1.00439 0.999802 0.987228
1.0052 0.999407 0.98626
1.00517 0.99901 0.98672
1.00433 0.999647 0.987486
1.00181 0.999949 0.991536
1.0043 0.99963 0.987554
1.00515 0.998895 0.986865
1.00519 0.99918 0.986512
1.0052 0.997442 0.988311
1.00519 0.999632 0.986036
1.00523 0.998259 0.987396
1.00515 0.998869 0.986904
1.00516 0.997223 0.988637
1.00523 0.997813 0.98785
1.0052 0.996073 0.989578
1.00521 0.998729 0.986949
1.00519 0.996664 0.988867
1.0043 0.999542 0.987459
1.00435 0.999754 0.987814
1.00517 0.998899 0.987066
1.00518 0.999447 0.986445
1.00017 1.00162 0.99288
1.00192 1.00339 0.988
1.00448 1.00135 0.985433
1.00515 0.999708 0.98624
1.00524 0.998196 0.987498
1.00522 0.99923 0.986346
1.00518 1.00046 0.985277
1.0052 0.998891 0.986706
1.00076 1.00381 0.989615
1.00069 1.00463 0.988779
1.00021 1.00336 0.991011
1.00515 0.998966 0.986897
1.00518 0.999075 0.986854
1.00521 0.997481 0.988233
1.00523 0.998186 0.987437
1.00109 1.00389 0.988964
1.00335 1.00301 0.985943
1.00504 1.00127 0.984511
1.00522 0.998802 0.986773
1.00518 0.996808 0.988856
1.00519 1.00015 0.985501
1.00519 0.998089 0.987454
1.00514 0.997953 0.987781
1.0014 1.00394 0.988492
1.00149 1.00399 0.988402
1.0002 1.00252 0.991885
1.00028 1.00484 0.989198
1.0052 0.997452 0.988314
1.00522 0.997847 0.987923
1.00515 0.996267 0.989431
1.00519 0.996091 0.989448
1.00517 0.997315 0.988279
1.00514 0.996039 0.989734
1.00214 1.00369 0.987394
1.00512 0.996691 0.988774
1.00402 1.00283 0.984834
1.00514 1.00136 0.984289
1.00517 0.999635 0.985872
1.00511 0.997691 0.988012
1.00015 1.00183 0.992627
1.0002 1.00434 0.989906
1.00199 1.00332 0.98798
1.00058 1.00503 0.988746
1.00184 1.0033 0.988606
0.999873 0.998872 0.996045
1.00517 0.999884 0.985794
1.00002 1.00213 0.992506
1.00051 1.00396 0.989908
1.0002 1.00504 0.989371
1.005 1.00041 0.985536
1.0052 0.999643 0.98595
1.00217 1.00425 0.986706
1.00431 1.00209 0.984842
1.00514 1.00069 0.985229
1.00514 1.00088 0.984774
0.999989 0.998586 0.996151
1.00015 1.00121 0.993284
1.00118 1.00449 0.988312
1.00005 1.00403 0.99067
1.00077 1.00434 0.988998
1.00521 0.999162 0.986453
1.00517 1.00012 0.985483
1.00514 0.998819 0.986757
1.00281 1.00377 0.986165
1.00517 1.00024 0.985433
1.00459 1.00178 0.984708
1.00026 1.00069 0.993648
1.00016 1.00279 0.99182
1.0017 1.00384 0.988058
1.00028 1.0048 0.989767
1.00124 1.0036 0.989205
1.00516 0.998196 0.987424
1.00514 0.99946 0.986124
1.0051 0.998192 0.98715
1.00302 1.00304 0.986185
1.005 1.00088 0.984824
1.00027 1.00047 0.993811
1.00025 1.00174 0.992534
1.00018 1.00184 0.992557
1.00022 1.0025 0.992064
1.00019 1.00183 0.992636
1.00018 1.00046 0.993996
1.00022 1.0004 0.993965
1.00012 0.998158 0.996832
1.00025 1.00042 0.993894
1.0001 0.998248 0.996813
0.999923 0.997078 0.998036
1.00005 0.998389 0.996775
0.999793 0.997258 0.99858
0.999689 0.997396 0.99914
0.99989 0.99905 0.995821
0.999833 0.999656 0.995334
0.999633 0.9979 0.999001
0.999653 0.998359 0.998797
0.999822 1.00035 0.994728
0.999718 0.998805 0.998557
1.00519 0.99964 0.986026
1.00519 0.999181 0.986503
1.00523 0.998267 0.98738
1.0052 0.997312 0.988457
1.00515 0.998898 0.986866
1.0043 0.999629 0.987555
1.00514 0.99887 0.986908
1.00516 0.997222 0.988645
1.00523 0.997823 0.987842
1.00519 0.99591 0.989753
1.00521 0.998722 0.986928
1.00519 0.996555 0.989
1.00518 0.997249 0.988593
1.00518 0.99588 0.989812
1.0052 0.995989 0.989633
1.00521 0.995164 0.990404
1.00518 0.997428 0.988174
1.00518 0.995646 0.989883
1.00515 0.998916 0.986866
1.00518 0.99908 0.986846
1.00521 0.997243 0.988496
1.00523 0.998269 0.987365
1.00115 1.0039 0.988933
1.00338 1.00289 0.985937
1.00489 1.00134 0.984575
1.00522 0.998976 0.986611
1.00518 0.996603 0.98908
1.00519 0.998098 0.987468
1.00519 1.00015 0.985422
1.00514 0.997834 0.987908
1.00136 1.00401 0.988478
1.00129 1.00403 0.988387
1.00024 1.00251 0.991871
1.00024 1.00478 0.98931
1.0052 0.997458 0.988305
1.00521 0.997934 0.987796
1.00515 0.996087 0.989648
1.0052 0.996201 0.989323
1.00205 1.00391 0.987357
1.00396 1.00274 0.984916
1.00514 1.0014 0.984252
1.00517 0.997502 0.988068
1.00513 0.995751 0.989915
1.00517 0.999674 0.98585
1.00513 0.996714 0.988775
1.00512 0.99744 0.988141
1.00209 1.00328 0.987949
1.00178 1.00322 0.988675
1.00059 1.00503 0.988715
1.00015 1.00183 0.992556
1.00014 1.0043 0.990033
1.00517 0.995785 0.989966
1.00518 0.995848 0.98984
1.00515 0.995136 0.990394
1.00513 0.995923 0.989555
1.00267 1.00363 0.986526
1.00515 0.996238 0.989397
1.00441 1.0026 0.984073
1.005 1.00143 0.984356
1.00514 0.999215 0.986169
1.00007 1.00115 0.993237
1.00011 1.00363 0.991002
1.00045 1.00467 0.989445
1.00232 1.00306 0.987807
1.00083 1.00481 0.988298
1.00209 1.00253 0.988392
0.99999 0.998578 0.996159
1.00013 1.00119 0.993304
1.0052 0.999161 0.986441
0.999911 1.00417 0.990665
1.00106 1.0046 0.988322
1.00062 1.00431 0.988975
1.00518 1.00013 0.985464
1.00514 0.998792 0.986727
1.00274 1.00371 0.986167
1.00476 1.00176 0.984685
1.00519 1.00027 0.98533
1.00025 1.00068 0.993653
1.00007 1.00282 0.991843
1.00174 1.0038 0.988059
1.00012 1.00488 0.98973
1.00116 1.00346 0.989291
1.00516 0.998211 0.987401
1.00514 0.999459 0.986102
1.0051 0.998224 0.987211
1.00314 1.00296 0.985998
1.00499 1.00098 0.984831
1.00023 1.00204 0.992415
0.999825 1.00421 0.990654
1.0024 1.00254 0.988051
1.0002 1.00486 0.989492
1.00175 1.00252 0.989127
1.00511 0.996757 0.988642
1.0051 0.999556 0.986019
1.00508 0.998053 0.987227
1.00404 1.00214 0.985616
1.00492 1.00085 0.985031
1.00027 1.00047 0.993808
1.00025 1.00176 0.992558
1.00006 1.0025 0.992068
1.00014 1.00188 0.992513
1.00016 1.00188 0.992631
1.00012 1.00257 0.992008
1.00007 1.00289 0.991852
1.0001 1.0027 0.991821
1.00012 1.00195 0.992642
1.00012 1.00057 0.993997
1.00018 1.00046 0.993997
1.00013 0.998147 0.996831
1.00022 1.00039 0.993966
1.00013 0.998181 0.996831
0.999988 0.996955 0.998043
1.00011 0.998258 0.996818
0.999912 0.997049 0.998043
0.999754 0.99721 0.999164
0.999939 0.998615 0.996188
0.999879 0.999121 0.995791
0.999669 0.997599 0.999096
0.999828 0.999727 0.995309
0.999656 0.997981 0.998961
0.999693 0.998429 0.998734
1.00522 0.998715 0.986906
1.00523 0.997839 0.987833
1.00519 0.996447 0.989133
1.00518 0.995768 0.989928
1.00516 0.99722 0.988653
1.00514 0.998871 0.986911
1.00518 0.99734 0.98848
1.00518 0.99595 0.989785
1.00519 0.996037 0.989597
1.00521 0.995093 0.990471
1.00517 0.997469 0.988163
1.00517 0.995428 0.990072
1.0052 0.99591 0.989839
1.00523 0.994948 0.990653
1.00518 0.995104 0.990443
1.00515 0.995763 0.989755
1.0052 0.997465 0.988296
1.00521 0.998019 0.98767
1.00515 0.995922 0.989864
1.0052 0.996314 0.989197
1.00204 1.00402 0.98732
1.004 1.00263 0.984998
1.00514 1.00145 0.984215
1.00517 0.99769 0.987857
1.00513 0.995472 0.990094
1.00514 0.996737 0.988776
1.00516 0.999703 0.985827
1.00514 0.997197 0.988271
1.00218 1.00328 0.987917
1.00181 1.003 0.988742
1.00057 1.00504 0.988684
1.00017 1.00181 0.992486
1.00011 1.00422 0.99016
1.00518 0.995827 0.989962
1.00518 0.995885 0.989773
1.00514 0.995282 0.990285
1.00264 1.00374 0.986512
1.00446 1.00251 0.984168
1.00503 1.00137 0.984328
1.00513 0.99594 0.989547
1.00513 0.998998 0.986459
1.00513 0.99621 0.989244
1.00009 1.00105 0.993347
1.00246 1.00287 0.987745
1.0019 1.00234 0.98896
1.00098 1.0049 0.988238
1.00045 1.00474 0.989469
1.00012 1.00359 0.990938
1.00521 0.995099 0.990396
1.00517 0.995171 0.990443
1.00513 0.994996 0.990362
1.00516 0.995327 0.99012
1.00341 1.00317 0.985796
1.00513 0.997217 0.988146
1.00498 1.00247 0.983253
1.00498 1.00149 0.984209
1.00014 1.00027 0.99404
1.00008 1.00273 0.991949
1.00028 1.00421 0.990239
1.00071 1.00502 0.988582
1.00253 1.00274 0.987365
1.00197 1.00367 0.987688
1.00023 1.00068 0.993658
1 1.00284 0.991866
1.00515 0.998225 0.987378
0.99996 1.00496 0.989695
1.00178 1.00375 0.98806
1.00091 1.00337 0.989381
1.00514 0.999458 0.986079
1.0051 0.998261 0.98727
1.0033 1.00292 0.985808
1.00499 1.00107 0.984837
1.00019 1.00205 0.99243
0.999901 1.00428 0.99062
1.00248 1.0026 0.988048
1.00005 1.005 0.989525
1.00156 1.0022 0.989641
1.00512 0.996727 0.988832
1.0051 0.999551 0.986086
1.00509 0.998127 0.987236
1.00396 1.00232 0.985397
1.00496 1.00087 0.984853
0.999902 1.00291 0.991847
0.999767 1.00504 0.989733
1.00312 1.00171 0.987666
1.0007 1.00388 0.988641
1.00515 0.995403 0.989848
1.00503 0.997205 0.988589
1.00499 0.999839 0.985731
1.00434 1.00102 0.985192
1.00026 1.00176 0.992583
1.00009 1.0025 0.992082
0.999844 1.00308 0.992108
1.00012 1.00194 0.992627
1.00003 1.00263 0.991953
1.00011 1.00196 0.992635
1.00001 1.00287 0.991883
1.00011 1.00269 0.99186
0.999945 1.00279 0.992118
1.00008 1.00311 0.991541
1.00012 1.00284 0.991642
1.0001 1.00204 0.992578
1.00006 1.00066 0.993967
1.00012 1.00054 0.993997
1.00012 0.998172 0.99682
1.00018 1.00044 0.993997
1.00013 0.998178 0.996829
1.00003 0.996883 0.998038
1.00013 0.998204 0.996833
0.999981 0.99692 0.99805
0.999898 0.997026 0.998045
1.00003 0.998216 0.996444
0.999945 0.998646 0.996158
0.99973 0.997275 0.999167
0.999867 0.999191 0.995759
0.99968 0.997647 0.99907
0.999682 0.998048 0.998904
1.00517 0.997509 0.988151
1.00518 0.996083 0.989561
1.00516 0.99521 0.99026
1.00521 0.994994 0.990538
1.00518 0.996003 0.989758
1.00518 0.997433 0.988369
1.0052 0.995927 0.989825
1.00524 0.994977 0.990609
1.00518 0.995141 0.990401
1.00516 0.995682 0.989851
1.00523 0.995086 0.990559
1.00519 0.994942 0.99064
1.00517 0.995023 0.990398
1.00518 0.995877 0.989958
1.00518 0.995921 0.989705
1.00514 0.995428 0.990177
1.00264 1.00385 0.986498
1.00446 1.00243 0.984263
1.00503 1.00134 0.984299
1.00514 0.995953 0.98954
1.00512 0.996179 0.98909
1.00512 0.998781 0.98675
1.00261 1.00272 0.987682
1.00166 1.00223 0.989527
1.00117 1.00502 0.988179
1.0001 1.00096 0.993457
1.00037 1.00476 0.989493
1.00013 1.00355 0.990873
1.0052 0.995176 0.990434
1.00518 0.995081 0.990488
1.00512 0.995064 0.990407
1.00325 1.00333 0.985772
1.00477 1.00251 0.983413
1.00493 1.00129 0.984526
1.00515 0.995354 0.990076
1.00514 0.997162 0.988086
1.00013 1.00024 0.994197
1.00008 1.00274 0.991947
1.00229 1.00261 0.987683
1.00183 1.00374 0.988179
1.00064 1.00499 0.988793
1.00026 1.00424 0.990173
1.00516 0.994943 0.990706
1.00514 0.994932 0.990523
1.00513 0.995054 0.990401
1.00513 0.995056 0.990042
1.00376 1.00287 0.984691
1.0048 1.0004 0.985507
1.00503 1.00274 0.983041
1.00021 0.999826 0.994576
1.00021 1.00097 0.993479
1.00009 1.00171 0.992786
1.00002 1.00378 0.990952
1.0002 1.00479 0.989548
1.0004 1.00472 0.988871
1.00258 1.00173 0.987862
1.0019 1.00355 0.988999
1.00013 1.00209 0.992444
0.999974 1.00434 0.990586
1.00513 0.996695 0.989022
1.00013 1.00503 0.989556
1.00254 1.0027 0.988047
1.00135 1.00195 0.990152
1.00509 0.999529 0.986155
1.0051 0.998187 0.987247
1.00387 1.00245 0.985184
1.00503 1.00088 0.984677
0.999911 1.003 0.991745
0.999861 1.00495 0.989808
1.00306 1.00176 0.987764
1.00108 1.00393 0.988773
1.00516 0.995326 0.989981
1.00507 0.997198 0.9884
1.00501 0.999789 0.985739
1.00461 1.00113 0.985069
0.999736 1.0037 0.991385
1.00518 0.994893 0.990307
1.00066 1.00494 0.989157
1.00324 1.00221 0.98685
1.00509 0.99588 0.989918
1.00502 0.998612 0.986151
1.00497 1.00102 0.984906
1.00008 1.00254 0.992095
0.999824 1.00302 0.992079
0.999548 1.00323 0.992503
1.00012 1.00193 0.992628
1.00012 1.00268 0.991899
0.999843 1.00294 0.991913
1.00011 1.00202 0.992567
1.0001 1.00284 0.991663
0.999782 1.0029 0.992168
1.00014 1.00302 0.991566
0.999956 1.00256 0.992524
0.999928 1.00305 0.991852
1.00019 1.00334 0.991155
1.00026 1.00284 0.991469
1.00012 1.00215 0.992417
1.00003 1.0008 0.993895
1.00005 1.00069 0.993962
1.00011 0.998239 0.996779
1.00012 1.00055 0.993996
1.00012 0.998209 0.996816
1.00006 0.996838 0.998032
1.00013 0.998208 0.996828
1.00003 0.996847 0.998043
0.999977 0.996889 0.998053
1.00019 0.999809 0.994638
1.00009 0.997977 0.996584
1.00003 0.998243 0.996427
0.999819 0.996993 0.999213
0.999949 0.998688 0.996129
0.999734 0.997355 0.999147
0.999696 0.997719 0.999043
1.00516 0.995604 0.989947
1.00518 0.995181 0.99036
1.00524 0.995022 0.990566
1.0052 0.995931 0.989811
1.00523 0.994999 0.990643
1.00518 0.994943 0.990658
1.00516 0.995051 0.990377
1.00518 0.994949 0.990708
1.0052 0.994936 0.990525
1.00518 0.99496 0.990858
1.0052 0.995247 0.990473
1.00518 0.994986 0.990532
1.00512 0.995133 0.990452
1.00313 1.00348 0.985748
1.00465 1.00257 0.983577
1.00486 1.0011 0.984842
1.00515 0.9954 0.990032
1.00514 0.997091 0.988026
1.00207 1.00254 0.988005
1.00175 1.00378 0.988667
1.00043 1.00494 0.989004
1.00012 1.00017 0.994353
1.00013 1.0027 0.991945
1.00024 1.00435 0.990106
1.00517 0.994943 0.990671
1.00019 0.999851 0.994571
1.00017 1.00101 0.993408
1.00514 0.994927 0.990534
1.00513 0.995044 0.990399
1.00353 1.00309 0.985062
1.00497 1.0027 0.983197
1.00488 1.00018 0.985437
1.00513 0.995266 0.989979
1.00009 1.0017 0.992969
1.00008 1.00374 0.990926
1.00283 1.00225 0.987522
1.00128 1.00357 0.989397
1.00046 1.00468 0.989057
1.00016 1.00481 0.989644
1.0052 0.994959 0.990454
1.00514 0.994877 0.990539
1.00512 0.994926 0.990184
1.00476 0.99588 0.989774
1.00337 1.00292 0.985622
1.00444 1.00316 0.983902
1.00011 1.00118 0.993264
1.00018 1.00106 0.993415
1.00035 1.00158 0.992779
1.00013 1.00293 0.991458
0.999982 1.00448 0.990456
1.00092 1.00434 0.988959
0.999765 1.00493 0.989453
1.00199 1.0011 0.98948
0.999926 1.00308 0.991645
1.00003 1.00486 0.989888
1.00517 0.995251 0.990114
1.00509 0.997238 0.988213
1.00143 1.00396 0.988906
1.00299 1.00176 0.987858
1.00504 0.999749 0.985745
1.00483 1.00127 0.984942
0.999807 1.00369 0.991343
1.00519 0.994897 0.990423
1.00044 1.00491 0.989217
1.00318 1.00215 0.986844
1.00508 0.995779 0.989892
1.00492 0.998712 0.986423
1.00491 1.00113 0.98496
0.999875 1.00462 0.990659
1.00452 0.995033 0.991799
1.00195 1.00373 0.988582
1.00377 1.00217 0.986395
1.00492 0.996475 0.989231
1.00407 1.00096 0.985668
0.998964 0.997216 0.990797
0.999767 1.00303 0.992051
0.999402 1.00332 0.992487
0.999639 1.00341 0.992429
1.0001 1.00203 0.992555
1.00008 1.00288 0.991683
1.00023 1.00293 0.991592
0.999689 1.0029 0.992217
1.00012 1.00215 0.992415
1.00022 1.00291 0.991453
0.99991 1.00259 0.992431
1.00014 1.00341 0.991159
1.00003 1.00298 0.991785
0.999978 1.00263 0.992287
1.00027 1.00345 0.990904
1.0002 1.00343 0.99107
1.00037 1.00298 0.991176
1.00016 1.00227 0.992108
1.00027 1.00272 0.991739
1.00017 1.00235 0.991991
1.00002 1.00083 0.99385
1.00002 1.0008 0.99389
1.00012 0.998332 0.996162
1.00006 1.00067 0.993957
1.00012 0.998285 0.996484
1.00003 0.996818 0.999154
1.00012 0.998247 0.996813
1.00006 0.9968 0.998037
1.00003 0.996813 0.998045
1.00014 0.999801 0.994706
1.0002 0.999771 0.994647
1.0001 0.997859 0.996688
1.00007 0.997984 0.996838
0.999892 0.996808 0.999244
1.00003 0.998267 0.99641
0.99981 0.997062 0.999202
0.999739 0.997407 0.999127
1.00516 0.995076 0.990356
1.00518 0.994946 0.990677
1.00523 0.994923 0.990728
1.00518 0.994949 0.990709
1.0052 0.994936 0.990529
1.00517 0.994975 0.990532
1.00522 0.994999 0.99045
1.00101 0.994848 0.987262
1.00437 0.994969 0.993079
1.00003 1.00124 0.993466
1.00518 0.994942 0.990635
1.00514 0.994923 0.990546
1.00513 0.995036 0.990396
1.00319 1.00324 0.985428
1.00493 1.00264 0.983351
1.00496 0.999989 0.985371
1.00512 0.995495 0.989914
1.00321 1.00244 0.987185
1.00064 1.00357 0.989801
1.00059 1.00462 0.989245
1.00016 0.999899 0.994566
1.00014 1.00484 0.98974
1.00008 1.00168 0.993151
1.00016 1.00369 0.9909
1.00016 1.001 0.993337
1.0052 0.994959 0.990453
1.00011 1.00114 0.993363
1.00015 1.00111 0.99341
1.00032 1.00159 0.992718
1.00513 0.994893 0.990522
1.00513 0.994932 0.990204
1.00358 1.00277 0.985666
1.00435 1.00254 0.984452
1.00465 0.996348 0.989675
1.00004 1.00298 0.9916
1.00008 1.00441 0.990281
1.0019 1.00194 0.98921
1.00019 1.00476 0.989495
1.00079 1.00427 0.989046
1.00518 0.995112 0.990514
1.00515 0.994885 0.99048
1.00508 0.995593 0.989708
1.00444 0.99816 0.989004
1.00188 1.00308 0.988528
1.00012 1.00212 0.99231
1.00038 1.00175 0.992252
1.00014 1.00238 0.991987
0.99989 1.00437 0.990984
1.00005 1.0045 0.989997
1.00016 1.00452 0.989471
1.00052 1.0034 0.989979
0.999926 1.00363 0.991297
1.00011 1.00489 0.989275
1.00521 0.9949 0.990535
1.0051 0.99563 0.989864
1.00487 0.998825 0.986694
1.00314 1.00206 0.986842
1.00484 1.00119 0.985016
0.999946 1.00451 0.990764
1.00444 0.995011 0.991921
1.00156 1.00374 0.988693
1.00348 1.0022 0.986473
1.00491 0.996133 0.989592
1.00419 1.00113 0.985635
0.999014 0.997159 0.988722
1.00001 1.00455 0.990516
1.0029 0.99723 0.991942
1.00146 1.00306 0.989229
1.00271 1.00176 0.987494
1.00382 0.997402 0.98895
1.00021 0.995377 0.953285
0.997047 0.994915 0.972186
0.996606 1.0024 0.990116
0.99979 0.99652 0.899254
0.994702 0.996995 0.874585
0.999283 1.00342 0.992472
0.999291 1.00364 0.992515
0.9997 1.00307 0.992413
1.00012 1.00215 0.992414
1.00027 1.00283 0.991437
1.00012 1.00345 0.991162
1.00014 1.00291 0.991718
0.999837 1.00265 0.992338
1.00024 1.00337 0.99103
1.00016 1.00225 0.992181
1.00035 1.00297 0.991203
0.999989 1.00261 0.992202
1.00018 1.0035 0.991025
1.00022 1.00356 0.991012
0.999819 1.00317 0.991712
1.00032 1.00347 0.99084
1.00034 1.00301 0.991107
1.0002 1.00234 0.991962
1.00033 1.00303 0.991232
1.0002 1.0029 0.991606
1.00013 1.00265 0.991905
1.00025 1.00275 0.991678
1.00024 1.00202 0.992365
1.00019 1.00236 0.991976
1.00008 1.00078 0.993828
1.00003 1.00084 0.993847
1.00011 0.998395 0.99614
1.00001 1.00083 0.993886
1.00012 0.998346 0.99616
1.00003 0.996818 0.999149
1.00013 0.998332 0.99619
1.00005 0.996817 0.998579
1.00006 0.996763 0.99804
1.00008 0.999826 0.994787
1.00015 0.999786 0.994709
1.00012 0.997768 0.996768
1.00021 0.999737 0.994655
1.0001 0.997819 0.996944
0.999943 0.996647 0.999273
1.00008 0.998023 0.996557
0.999881 0.996884 0.999229
0.999805 0.997121 0.999191
1.0052 0.994934 0.990534
1.00518 0.994947 0.990711
1.00516 0.994965 0.990206
1.00085 0.994913 0.987388
1.00521 0.994986 0.990453
1.00425 0.995353 0.992681
1.00496 0.996308 0.991108
0.996904 0.9949 0.971191
1.00067 0.996774 0.988862
1.00005 1.00128 0.993407
1.00009 1.00118 0.99346
1.00002 1.00222 0.992503
1.00004 1.00218 0.992525
1.00519 0.994959 0.990453
1.00513 0.994902 0.990505
1.00514 0.994923 0.990224
1.00407 1.00245 0.985708
1.00419 1.00178 0.984997
1.00456 0.996855 0.989573
1.00164 1.00296 0.988938
1.00069 1.00461 0.989534
1.00066 1.00416 0.989133
1.00012 1.00121 0.993405
1.00013 1.0044 0.990104
1.00007 1.003 0.991742
1.00011 1.00114 0.993463
1.00026 1.00161 0.992653
1.0052 0.995039 0.990507
1.00013 1.00214 0.992406
1.00035 1.00176 0.992431
0.999941 1.0023 0.992421
1.00516 0.994886 0.990389
1.00494 0.995519 0.989734
1.00241 1.00228 0.988442
1.00409 0.998009 0.989406
0.999997 1.00418 0.990833
1.0002 1.0047 0.989561
1.00061 1.00381 0.989907
1.00073 1.00434 0.989372
1.00465 0.995045 0.991374
1.00511 0.995733 0.990043
1.00501 0.996186 0.989572
1.00206 0.999542 0.991602
0.999936 1.00325 0.991549
1.00019 1.00291 0.991416
0.999366 1.00466 0.991103
0.999587 1.00491 0.990143
1 0.9949 0.945855
0.999964 1.00444 0.990869
1.00106 1.00383 0.988802
1.00441 0.994945 0.992043
1.00488 0.995853 0.989952
1.00424 1.00122 0.985597
1.00314 1.00227 0.986546
0.999138 0.997095 0.986587
0.999881 1.0047 0.990645
1.00311 0.996975 0.991964
1.00137 1.00313 0.989241
1.00313 1.00136 0.987458
1.00408 0.997652 0.988975
1.00127 0.995586 0.944273
0.996822 0.995105 0.967913
0.99652 1.00237 0.989891
0.999774 0.996889 0.902679
0.994701 0.996981 0.864121
0.999689 1.00391 0.991601
0.999846 0.995071 0.909172
0.995095 0.996476 0.875443
1.00162 0.999991 0.991282
1.00078 1.00284 0.990332
1.00203 1.00065 0.989156
0.996488 1.00326 0.989694
1.00056 0.996912 0.949924
0.994923 0.996253 0.96574
0.997958 0.998756 0.907297
0.9948 0.997948 0.871006
0.999026 1.0038 0.9926
0.999533 1.00332 0.992341
0.999514 1.00281 0.993406
1.00017 1.00222 0.992253
1.00034 1.003 0.991229
1.00011 1.00348 0.990992
1.00009 1.00353 0.991146
1.00003 1.00258 0.992116
1.0002 1.00232 0.991972
1.00013 1.00365 0.990972
1.0003 1.00347 0.990845
1.00038 1.00296 0.991174
0.999807 1.00318 0.991798
1.00003 1.00368 0.991304
0.9993 1.00356 0.991957
1.0004 1.00342 0.99069
1.00044 1.0031 0.990985
1.00038 1.003 0.991207
1.00018 1.00289 0.991653
1.00042 1.00312 0.991052
1.00006 1.00295 0.991756
0.999879 1.00278 0.991846
0.999729 1.0039 0.99128
0.999981 1.00289 0.991904
1.00015 1.00264 0.991901
1.00017 1.00192 0.992567
1.00024 1.00276 0.991617
1.00025 1.00203 0.992297
1.00016 1.00068 0.993813
1.0002 1.00237 0.991961
1.00007 1.00079 0.993831
1.00011 0.998359 0.996738
1.00002 1.00086 0.993845
1.00011 0.998368 0.996439
1.00008 0.996837 0.997973
1.00012 0.998361 0.996157
1.00003 0.996828 0.999147
1.00008 0.996824 0.998003
1.00009 1.00138 0.993237
1.00003 0.999889 0.994804
1.00008 0.999812 0.99479
1.00012 0.99774 0.996794
1.00016 0.999765 0.994712
1.00012 0.997732 0.99677
0.999983 0.996543 0.999287
1.00009 0.99782 0.997178
0.999959 0.996726 0.99876
0.999925 0.996938 0.998195
1.00055 0.995068 0.987536
1.00519 0.99499 0.990457
1.0041 0.996029 0.992279
0.996762 0.994897 0.972492
1.00055 0.996499 0.989131
1.00498 0.995912 0.990948
1.00316 0.997175 0.988727
0.996667 0.996896 0.975114
1.00008 0.995673 0.950586
0.999307 0.998246 0.910775
0.994643 0.997115 0.873289
0.999931 1.00227 0.992465
1.00007 1.00126 0.993405
1.00015 1.00111 0.993453
1.00003 1.00222 0.99249
0.99984 1.00313 0.991908
1.0002 1.0026 0.991848
1.00003 1.00263 0.992187
0.999996 1.0023 0.992439
1.00521 0.994934 0.990497
1.00516 0.994891 0.990295
1.00487 0.995361 0.989761
1.00269 1.00178 0.988361
1.00376 0.997925 0.989811
1.00072 1.00431 0.989832
1.00119 1.0042 0.989274
1.00042 1.00487 0.989128
1.00023 1.00177 0.992611
1 1.00419 0.990681
1.00015 1.00219 0.992504
0.999839 1.00221 0.992854
1.00468 0.994959 0.991478
0.999922 1.00328 0.991619
1.00014 1.00306 0.991559
1.00504 0.995459 0.989997
1.00479 0.995705 0.989772
1.00205 0.999565 0.991254
0.999667 1.0049 0.990609
1.00011 1.00456 0.990234
1.00341 0.99613 0.991806
1.00467 0.99625 0.990526
1.00438 0.995218 0.991241
1.00156 0.999755 0.991923
0.999987 1.00434 0.990418
0.999598 1.00433 0.991011
0.999605 1.00507 0.990636
0.999882 0.994843 0.910632
1.00054 0.994985 0.95528
0.999833 1.00479 0.990774
1.00131 1.00307 0.989256
1.00328 0.996501 0.991991
1.00432 0.998043 0.989002
1.00357 1.00097 0.987429
1.00042 0.994945 0.951741
0.997183 0.995433 0.967143
0.996484 1.00255 0.989629
0.999377 0.997031 0.912502
0.994709 0.997049 0.853355
0.999709 1.00382 0.9916
0.999855 0.995774 0.908067
0.99505 0.996533 0.870142
1.00158 1.00032 0.991333
1.00083 1.00268 0.990387
1.00226 1.00055 0.989698
0.996797 1.00315 0.99029
1.00165 0.996889 0.943438
0.994926 0.995782 0.969614
0.998545 0.999315 0.907559
0.994805 0.997676 0.868937
0.999311 1.0035 0.993031
0.995183 0.996455 0.874127
0.994796 0.997552 0.888783
0.99943 1.00195 0.993291
0.999601 1.00308 0.992535
0.995944 1.00275 0.990412
0.994849 0.998568 0.968863
0.998315 0.999126 0.94116
0.994986 0.999826 0.913288
0.994855 0.994799 0.876717
0.999505 1.00345 0.99227
0.999628 1.00247 0.993365
0.99844 1.0038 0.993386
1.00021 1.00231 0.991981
1.0004 1.00291 0.991241
1.00029 1.00345 0.990851
1.00008 1.00376 0.990931
0.999736 1.00324 0.991884
1.00042 1.00313 0.99098
1.00005 1.00357 0.991221
1.00042 1.00338 0.990712
0.999057 1.00392 0.992097
0.997451 1.00458 0.99386
1.0001 1.00366 0.991065
1.00065 1.00358 0.990224
1.00041 1.00297 0.991183
1.00021 1.00282 0.991701
1.00041 1.00314 0.991018
1.00009 1.00295 0.991726
0.999917 1.00273 0.992021
0.999824 1.00347 0.991568
0.999916 1.00337 0.991376
0.999837 1.00272 0.99215
1.00027 1.00277 0.99154
1.00002 1.00487 0.989333
0.999561 1.00428 0.990988
0.999788 1.00387 0.99127
0.999836 1.00332 0.991715
1 1.00291 0.991895
1.00007 1.00199 0.992618
1.00015 1.00269 0.991898
1.00018 1.00191 0.992575
1.00022 1.00052 0.993828
1.00026 1.00203 0.992229
1.00015 1.00066 0.993823
1.00013 0.998332 0.996728
1.00007 1.00079 0.993834
1.00013 0.998328 0.996445
1.00006 0.996797 0.997991
1.00013 0.99834 0.996146
1.00003 0.99684 0.999143
1.00003 0.996832 0.999146
1.00012 1.00157 0.993241
1.00002 1.00001 0.994708
1.00008 1.0014 0.993242
1.00012 0.997746 0.99678
1.00003 0.999884 0.994806
1.00009 0.99981 0.994792
1.00012 0.997728 0.996791
1.00001 0.996487 0.999289
1.0001 0.997708 0.997248
1 0.996558 0.998798
0.999983 0.99673 0.998275
0.999853 0.995859 0.901054
0.994673 0.996437 0.874131
0.998037 0.994874 0.972571
1.00049 0.995707 0.989424
1.00503 0.995273 0.990791
0.996293 0.995945 0.976274
1.00338 0.996385 0.98907
1.00126 0.995996 0.949548
0.999821 0.997438 0.900988
0.994668 0.996994 0.862757
0.998694 0.995041 0.979823
1.00002 0.997942 0.950375
0.998251 0.999141 0.905755
0.994771 0.996462 0.870897
1 1.0033 0.991474
0.999937 1.00225 0.992543
1.00011 1.00121 0.993403
1.00003 1.00219 0.992478
0.999808 1.00301 0.99209
1.00006 1.00349 0.991311
1.00013 1.00278 0.991833
1.00024 1.00295 0.991386
1.00007 1.00258 0.992093
0.999943 1.00243 0.992357
1.0047 0.994914 0.991585
1.00507 0.99519 0.989965
1.00433 0.995407 0.989973
1.00188 0.999685 0.990904
1.00058 1.00427 0.990325
0.999888 1.00508 0.990113
1.00012 1.00305 0.991705
0.999854 1.00335 0.991689
1.00343 0.995565 0.992058
0.999929 1.00457 0.990302
0.999552 1.00441 0.990902
1.00485 0.995882 0.990286
1.00414 0.99534 0.991267
1.00162 0.999681 0.991743
0.999821 1.00503 0.990573
1.00078 0.99735 0.992416
1.00285 0.995626 0.994253
1.00054 1.00142 0.991836
0.999568 1.00478 0.990162
0.999682 1.00502 0.99011
0.999397 1.00512 0.990719
0.994749 0.996409 0.89006
0.999866 0.994866 0.913753
1.00001 0.994903 0.94605
0.999556 1.00393 0.991597
1.0009 1.00252 0.990439
1.00153 1.00036 0.991386
1.00248 1.00056 0.990235
0.999833 0.995307 0.915229
1.00024 0.996645 0.943542
0.994901 0.995274 0.965876
0.997055 1.00215 0.990848
0.998146 0.998968 0.897243
0.995028 0.996541 0.872079
0.994781 0.997324 0.875249
0.999053 1.0034 0.993013
0.995106 0.995631 0.880555
0.994915 0.997688 0.888393
0.999605 1.00166 0.993323
0.999392 1.00313 0.99254
0.99584 0.999883 0.993267
0.994875 0.997977 0.967895
0.997437 0.999355 0.950605
0.99722 0.999903 0.902407
0.994823 0.994801 0.883211
0.997606 1.004 0.995243
0.994826 0.996353 0.898758
0.994788 0.994744 0.895899
0.995798 1.00213 0.999445
0.994825 0.999805 0.975432
0.995048 0.999973 0.951294
0.994835 0.99967 0.899414
0.994857 0.994796 0.880969
0.999727 1.00214 0.993323
0.998696 1.00366 0.993627
0.997029 1.00485 0.995078
1.00039 1.00318 0.990975
1.00046 1.00336 0.990734
1.0001 1.00341 0.991138
0.998824 1.00424 0.992242
1.00055 1.00369 0.990206
1.00007 1.00374 0.991018
0.997574 1.00456 0.994255
0.995486 1.00525 0.99681
0.998172 1.00458 0.993631
1.00036 1.00384 0.990489
1.00043 1.00317 0.990983
1.00009 1.00296 0.991697
0.9999 1.00274 0.992192
0.999927 1.00329 0.991489
0.999857 1.00346 0.991576
0.999827 1.00284 0.992186
1.00008 1.00298 0.991822
0.998863 1.00305 0.993341
1.00133 1.00019 0.991885
1.00032 1.00262 0.991667
1.00035 1.00379 0.990172
1.00169 1.00475 0.987176
0.999851 1.00487 0.990509
0.999878 1.00489 0.989749
0.999678 1.00422 0.99105
0.999675 1.00373 0.991385
0.999852 1.00386 0.991259
0.999923 1.00323 0.991714
1.00001 1.0023 0.992435
1.00009 1.00285 0.991886
1.00012 1.00197 0.992612
1.00024 1.00049 0.993828
1.00021 1.00188 0.992582
1.00023 1.00054 0.993834
1.00014 0.998303 0.996732
1.00016 1.00065 0.993832
1.00014 0.998309 0.996436
1.00003 0.996876 0.997977
1.00015 0.998302 0.99615
1.00004 0.99682 0.998567
1.00002 0.99683 0.999146
1.00014 1.00197 0.9926
1.00007 1.00012 0.994532
1.00008 1.00161 0.993067
1.00012 0.997801 0.996717
1.00002 0.999994 0.99471
1.00006 1.00145 0.993246
1.00003 0.996468 0.999284
1.00012 0.997742 0.996781
1.00004 0.999868 0.994809
1.00012 0.997718 0.996788
1.00001 0.996501 0.999289
0.999983 0.996547 0.999286
0.994696 0.994854 0.881043
0.999877 0.995588 0.90716
0.994837 0.997858 0.888338
0.994682 0.996485 0.871584
0.996111 0.995496 0.97365
1.00344 0.99627 0.989446
1.0002 0.996361 0.947885
0.999809 0.997405 0.911461
0.994707 0.99706 0.852025
0.998426 0.995642 0.978934
1.00134 0.997698 0.939895
0.998432 0.999443 0.906519
0.994792 0.997205 0.865527
0.995723 0.996102 0.974082
0.997774 0.998948 0.941838
0.995624 0.999887 0.897579
0.994841 0.994787 0.871314
1.00004 1.00413 0.990775
0.999979 1.00322 0.991604
0.999917 1.00229 0.99262
0.999772 1.00289 0.992272
1.00038 1.00368 0.990388
1.00006 1.00329 0.991429
1 1.00292 0.991816
1.0004 1.00299 0.991237
1.00025 1.00298 0.99147
1.00009 1.00253 0.991997
1.00357 0.994958 0.992294
1.00488 0.995304 0.990056
1.00432 0.995244 0.991288
1.00174 0.999414 0.991576
1.00003 1.00493 0.990511
0.999655 1.00455 0.990795
0.99983 1.00473 0.990187
0.99993 1.00488 0.989997
1.00087 0.99691 0.992732
0.999876 1.00496 0.990031
0.99969 1.00511 0.990691
1.00304 0.995425 0.993978
1.00106 1.00121 0.991651
0.998543 0.996575 0.99428
0.99831 0.998211 1.00017
0.998655 1.00386 0.992322
0.999965 1.00487 0.989927
0.99936 1.00505 0.990779
0.994834 0.99627 0.90367
0.994747 0.996389 0.887639
0.999856 0.994852 0.904026
0.998825 1.0033 0.992997
0.999264 1.0031 0.992529
0.999837 1.00144 0.993372
0.99504 0.994876 0.881136
0.997552 0.998891 0.942375
0.994868 0.997346 0.968125
0.996048 0.99848 0.99634
0.995466 0.999888 0.91354
0.995059 0.99792 0.888054
0.994836 0.994808 0.883521
0.997549 1.00397 0.995434
0.99491 0.99562 0.901647
0.994764 0.994749 0.89597
0.996023 1.0023 0.99847
0.994853 0.999522 0.97693
0.996127 0.999892 0.94241
0.994849 0.994809 0.881094
0.994847 0.999962 0.906499
0.995636 1.00499 0.998145
0.994681 0.994784 0.914291
0.994777 0.99478 0.899028
0.994837 0.994785 0.871893
0.995074 1.00041 0.992989
0.994984 0.999781 0.954622
0.994956 0.999927 0.90605
0.999044 1.00347 0.993863
0.997571 1.00488 0.994255
0.995333 1.00521 0.998228
1.00052 1.00372 0.990188
1.00002 1.00378 0.990968
0.997602 1.00457 0.994639
1.00023 1.0038 0.990553
0.998171 1.00443 0.993682
0.995761 1.0052 0.996717
0.995369 1.00514 0.998158
0.998161 1.00407 0.993607
0.999926 1.00323 0.991604
0.999883 1.00345 0.991584
0.999852 1.00293 0.992225
0.99906 1.00326 0.993197
1 1.0029 0.99181
0.99979 1.00224 0.99296
1.00058 1.00067 0.992853
1.00132 1.00212 0.989689
1.00038 1.00244 0.991797
1.00078 1.00369 0.989895
1.00233 1.00356 0.986779
1.00228 1.00397 0.986676
1.00026 1.00494 0.989531
1.00137 1.00471 0.987262
0.999863 1.00442 0.990681
0.999765 1.00494 0.990444
0.999718 1.00491 0.990164
0.999793 1.00417 0.991113
0.999734 1.00362 0.991483
0.999983 1.00262 0.992154
0.999996 1.00315 0.991713
1.00006 1.00225 0.992438
1.0002 1.00068 0.993709
1.00016 1.00195 0.992607
1.00025 1.00049 0.993824
1.00012 0.998298 0.996758
1.00024 1.00052 0.99384
1.00015 0.99828 0.996446
0.999988 0.996951 0.997992
1.00016 0.99826 0.996147
1.00001 0.996884 0.99856
1.00001 0.996857 0.999146
1.00027 1.00216 0.992011
1.00011 1.00041 0.993944
1.00016 1.00196 0.992599
1.00014 0.997897 0.996585
1.00007 1.00014 0.994394
1.00008 1.00161 0.992894
1.00003 0.99652 0.999266
1.00012 0.997792 0.996722
1.00003 0.999976 0.994712
1.00003 0.996477 0.999286
1.00011 0.997738 0.996782
1.00001 0.996503 0.99929
0.994802 0.994822 0.899612
0.994702 0.995563 0.886688
0.999859 0.995849 0.908115
1.00052 1.00313 0.990798
0.994768 0.995857 0.901093
0.994822 0.996985 0.888123
0.994722 0.996463 0.876244
0.998547 0.995895 0.9776
0.999569 0.998357 0.949806
0.998164 0.998849 0.895635
0.994774 0.997504 0.86888
0.996552 0.995666 0.970228
0.997436 0.998948 0.950273
0.997034 0.999899 0.901605
0.994828 0.99532 0.873803
0.994863 0.996683 0.966362
0.995328 0.999926 0.949767
0.99488 0.999973 0.906926
0.994871 0.994816 0.880721
1.00017 1.00445 0.989994
1.00002 1.00419 0.990622
1 1.00314 0.991734
1.00032 1.00384 0.990389
1.00029 1.00379 0.990554
1.00008 1.00323 0.991547
1.00044 1.00295 0.991268
1.00025 1.00299 0.991553
1.00062 0.996884 0.992989
1.00321 0.995447 0.993664
1.00003 1.00497 0.989832
1.00163 1.00108 0.991452
0.999975 1.00511 0.990662
0.999995 1.00499 0.989951
0.999922 1.0049 0.989951
0.997824 0.997159 0.994868
0.999606 1.00494 0.990851
0.999399 1.00365 0.992374
0.998494 0.997635 1.00018
0.999965 1.00489 0.990034
0.996037 0.998533 0.994615
0.995382 1.00026 1.00294
0.998111 1.00522 0.992568
0.999693 1.00479 0.990913
0.994684 0.994778 0.919291
0.994825 0.996372 0.903668
0.994741 0.99643 0.885208
0.997433 1.00401 0.995653
0.99595 1.00204 0.997479
0.994961 0.994826 0.904463
0.995149 0.999988 0.951562
0.994867 0.998989 0.974005
0.994846 0.999949 0.905911
0.994772 0.994767 0.896017
0.994827 0.994842 0.881216
0.995896 1.00491 0.997736
0.994713 0.994777 0.914119
0.994769 0.994776 0.90288
0.994937 1.00118 0.996308
0.994821 0.995485 0.874154
0.994904 0.999095 0.949206
0.994948 0.999914 0.910753
0.995064 1.00429 0.998668
0.994736 0.994768 0.918347
0.994751 0.996055 0.901462
0.99477 0.996638 0.871161
0.995876 0.999979 0.906352
0.994909 0.999513 0.983196
0.99501 1.00053 0.9419
0.998131 1.00491 0.99343
0.995567 1.00513 0.997778
0.994955 1.00508 0.999687
1.00009 1.00379 0.990617
0.998141 1.00434 0.993735
0.99614 1.00477 0.996629
0.998379 1.0041 0.9935
0.995501 1.00442 0.998088
0.99762 1.00336 0.996159
0.999291 1.00338 0.99305
0.999848 1.0029 0.991799
0.999866 1.00238 0.993088
0.999508 1.00376 0.991129
0.999809 1.00111 0.993807
1.00115 1.00199 0.990202
1.00266 1.00292 0.986974
1.00429 1.00214 0.984882
1.00122 1.00359 0.989615
1.00278 1.00369 0.985952
1.00321 1.00315 0.986671
1.00094 1.00445 0.98824
1.00223 1.00391 0.986869
0.999878 1.00488 0.989963
1.0003 1.00493 0.989486
1.00105 1.00469 0.98735
0.999977 1.00314 0.991619
0.999792 1.00442 0.99073
0.999691 1.00499 0.990377
0.9998 1.00352 0.99158
1.00003 1.00258 0.992152
1.00018 1.00098 0.993442
1.0001 1.00222 0.992442
1.00021 1.00068 0.993704
1.00007 0.998429 0.99617
1.00026 1.00052 0.99382
1.00014 0.998291 0.996185
0.999866 0.997017 0.999157
1.00016 0.998259 0.996156
0.999966 0.996958 0.998564
0.999977 0.996914 0.999143
1.0003 1.00239 0.99169
1.00021 1.00072 0.993486
1.00025 1.00219 0.992107
1.00015 0.998063 0.9964
1.00014 1.00042 0.993888
1.00015 1.00199 0.992597
1.00003 0.996596 0.999234
1.00014 0.99789 0.996596
1.00007 1.00016 0.994255
1.00004 0.996498 0.999272
1.00012 0.997781 0.996727
1.00003 0.996488 0.999287
0.994718 0.994767 0.915126
0.994802 0.995535 0.899444
0.994704 0.996234 0.886889
1.00044 1.00316 0.990884
1.00043 1.0033 0.990632
1.00048 1.0036 0.990502
0.994794 0.994763 0.898543
0.994776 0.995481 0.901131
0.994807 0.996557 0.8879
0.996369 0.995045 0.972581
0.99837 0.999372 0.940597
0.995216 0.999912 0.913049
0.994848 0.996217 0.870109
0.994909 0.996585 0.96962
0.996062 0.999962 0.94656
0.994822 0.999891 0.906775
0.994854 0.994819 0.880725
0.994885 0.996826 0.965627
0.994901 0.99981 0.95142
0.994957 0.999983 0.906339
0.994846 0.994835 0.876592
1.00034 1.00426 0.989907
1.0002 1.00447 0.989896
1.00013 1.00412 0.990469
1.00043 1.00368 0.990362
1.00017 1.00383 0.990721
1.00047 1.00293 0.9913
0.997215 0.99764 0.99545
0.998231 0.997333 1.00023
0.999998 1.00474 0.989974
1.00005 1.0031 0.992436
0.999697 1.0049 0.990922
0.999962 1.00478 0.989983
0.999338 1.0048 0.991038
0.995791 0.998337 0.994923
0.998142 1.00507 0.993254
0.995475 1.00091 1.00194
0.999647 1.00432 0.991068
0.994938 0.998261 0.994421
0.996104 1.00204 0.998516
0.998339 1.00517 0.993333
0.994713 0.994748 0.923801
0.994692 0.994772 0.920479
0.994807 0.996422 0.903654
0.99616 1.00486 0.997311
0.994966 1.00118 0.993308
0.994707 0.994768 0.913951
0.994857 0.999205 0.951328
0.994946 0.999914 0.900445
0.994762 0.994729 0.906724
0.994855 0.996411 0.870582
0.995151 1.00401 0.999116
0.994725 0.994778 0.919905
0.994774 0.995558 0.901513
0.994951 0.99959 0.979646
0.994798 0.997402 0.865874
0.994811 0.999959 0.905963
0.994929 1.00018 0.951943
0.995115 1.00483 0.99534
0.994719 0.994763 0.915493
0.994886 0.998149 0.888669
0.994622 0.997239 0.873882
0.995976 0.999212 0.897465
0.995942 0.999963 0.949857
0.994996 1.00032 0.9737
0.995939 1.00513 0.99734
0.995219 1.00414 0.999621
0.996468 1.00356 0.998334
0.998532 1.00424 0.993396
0.995651 1.00408 0.998036
0.996639 1.00402 0.99664
0.999726 1.00227 0.993587
0.999953 1.00262 0.993215
1.00075 1.0034 0.990696
1.00175 1.00442 0.987292
1.00096 1.0019 0.990732
1.00289 1.00305 0.986628
1.00403 1.00384 0.983683
1.00497 1.00156 0.98422
1.00395 1.00208 0.985465
1.00427 1.00235 0.984676
1.00324 1.0038 0.985124
1.00271 1.00324 0.987258
1.00293 1.00299 0.986897
1.0004 1.00476 0.988791
1.00108 1.00442 0.988403
1.0022 1.00387 0.987064
0.999926 1.0043 0.99048
1.00003 1.00483 0.989974
1.00032 1.00495 0.98944
1.00016 1.00142 0.993036
1.00005 1.0031 0.991605
0.999723 1.00441 0.990781
1.00008 1.00255 0.992151
1.00019 1.00099 0.993436
0.999985 0.998662 0.996078
1.00022 1.00069 0.9937
1.00008 0.99843 0.996163
0.999805 0.997175 0.999148
1.00014 0.998283 0.996182
0.9999 0.997047 0.998576
0.999929 0.996996 0.999146
1.00035 1.00264 0.991541
1.00029 1.00095 0.993307
1.00034 1.00238 0.991751
1.00017 0.998251 0.996174
1.0002 1.00071 0.993569
1.00027 1.00219 0.992204
1.00002 0.996731 0.999193
1.00015 0.998039 0.996414
1.00015 1.00042 0.993832
1.00003 0.996585 0.999244
1.00013 0.997884 0.996606
1.00004 0.996493 0.999278
0.994731 0.994785 0.91801
0.994717 0.994795 0.914957
0.994801 0.996281 0.899383
1.00031 1.00364 0.990486
1.0005 1.00378 0.990247
1.00039 1.0032 0.990972
1.0004 1.0034 0.99061
1.00034 1.00371 0.990468
1.00029 1.00392 0.990335
1.00038 1.00384 0.99023
0.994794 0.994705 0.895461
0.994791 0.994769 0.902452
0.994783 0.994753 0.901185
0.994837 0.994816 0.880753
0.994905 0.996369 0.966867
0.995198 0.999964 0.943815
0.994858 0.999793 0.913477
0.994879 0.997293 0.964792
0.994884 0.999942 0.943007
0.994947 0.999953 0.911302
0.99482 0.994824 0.883112
0.995076 0.996284 0.968727
0.994914 1.00026 0.942764
0.994795 0.999866 0.90005
0.994803 0.998132 0.870193
0.999642 1.005 0.990499
1.00023 1.00437 0.989943
1.00024 1.00467 0.989798
1.00055 1.00352 0.990337
0.995655 0.998071 0.995339
0.995612 1.00208 1.00094
0.999948 1.0049 0.989933
0.99928 1.00483 0.991164
0.998514 1.00514 0.993935
0.999608 1.00452 0.991019
0.998031 1.00517 0.993334
0.994871 0.999581 0.991569
0.995528 1.00331 0.998795
0.997716 1.00495 0.993909
0.995121 0.998522 0.99017
0.997352 1.00413 0.997367
0.994683 0.994793 0.919392
0.994703 0.994721 0.926662
0.994711 0.994759 0.921663
0.995019 1.00369 0.999516
0.99494 0.998351 0.983867
0.994724 0.994808 0.921498
0.996003 1.0003 0.942538
0.994845 0.999899 0.912611
0.994797 0.994861 0.901577
0.994779 0.99783 0.869307
0.994975 1.00354 0.996
0.994721 0.99479 0.915342
0.994929 0.997224 0.888453
0.994918 1.00055 0.97466
0.994654 0.997105 0.86359
0.997066 0.9999 0.901216
0.994892 0.999889 0.94228
0.995405 1.00478 0.990133
0.994802 0.994841 0.900272
0.994682 0.996527 0.874773
0.99865 0.99816 0.906404
0.995238 0.999972 0.949695
0.994877 1.00001 0.967534
0.995322 1.00326 0.999764
0.995841 1.0041 0.998269
0.997285 1.0016 0.997089
0.99576 1.00457 0.997121
0.998527 1.00257 0.994133
1.00294 1.00055 0.990053
1.00202 1.00294 0.990261
1.00215 1.00426 0.987198
1.00298 1.0044 0.984466
1.00312 1.00316 0.986283
1.00442 1.00384 0.98322
1.00441 1.00405 0.982684
1.005 1.00101 0.984783
1.00507 1.0012 0.984536
1.00488 1.00171 0.984198
1.00373 1.0019 0.985908
1.00397 1.00199 0.985647
1.00421 1.00259 0.984471
1.00207 1.00424 0.987106
1.00256 1.00322 0.987226
1.00262 1.00283 0.987121
1.00027 1.00503 0.989107
1.00044 1.00478 0.989019
1.00124 1.00437 0.988568
1.00007 1.00229 0.992263
1.0001 1.00412 0.990495
1.00018 1.00481 0.989986
0.999899 0.998913 0.995961
1.00018 1.00142 0.993019
1.00013 1.00307 0.991591
1.00021 1.00098 0.993431
0.999984 0.99868 0.996066
0.999717 0.997385 0.999131
1.00008 0.998425 0.996156
0.999796 0.997214 0.999144
0.999866 0.997075 0.999151
1.00035 1.0037 0.990481
1.00044 1.00287 0.991221
1.00034 1.00127 0.992907
1.00036 1.00264 0.99153
1.00016 0.998502 0.995932
1.00028 1.00096 0.993307
1.0003 1.00243 0.991811
0.999995 0.996886 0.99914
1.00016 0.998247 0.99619
1.00021 1.00071 0.993651
1.00002 0.996695 0.999205
1.00015 0.998024 0.996429
1.00003 0.996554 0.999254
0.994678 0.994779 0.913973
0.994719 0.994783 0.919602
0.994718 0.994811 0.914769
1.00039 1.00358 0.990519
1.00037 1.00385 0.99025
1.00023 1.00365 0.990407
1.00018 1.00407 0.990189
1.00041 1.00432 0.990089
1.00039 1.00347 0.990588
1.00028 1.00382 0.990434
1.00034 1.00388 0.990336
1.00036 1.004 0.990296
1.00011 1.00451 0.990272
0.994925 0.997843 0.887731
0.994756 0.99475 0.895581
0.994779 0.994756 0.906342
0.994825 0.994786 0.88342
0.994948 0.999975 0.900715
0.994868 0.998391 0.963308
0.994888 0.999976 0.951196
0.994948 0.996681 0.965534
0.994927 0.999782 0.951654
0.99485 0.999977 0.907627
0.994856 0.997893 0.867925
0.99502 0.994961 0.970359
0.99493 1.00001 0.951747
0.995517 0.999886 0.912209
0.994726 0.997111 0.872448
0.998812 1.00376 0.992731
0.999781 1.00488 0.990438
1.00023 1.00438 0.98998
0.994891 1.00034 0.988569
0.995345 1.00399 0.999076
0.999581 1.00455 0.990969
0.997357 1.00519 0.993334
0.997855 1.00462 0.993927
0.996486 1.00364 0.997415
0.994964 0.99877 0.990296
0.996141 1.00204 0.998468
0.996008 0.999887 0.990901
0.994903 0.995975 0.903239
0.994692 0.994787 0.920553
0.994688 0.994694 0.929527
0.995021 1.0023 0.996301
0.99489 1.001 0.971176
0.994723 0.994807 0.915166
0.996037 0.999977 0.948872
0.995108 0.99991 0.912634
0.994874 0.996683 0.888243
0.994707 0.997153 0.853095
0.995331 1.00509 0.990605
0.994797 0.995326 0.900126
0.994707 0.996606 0.872228
0.994887 0.999993 0.96855
0.998471 0.999275 0.907133
0.996048 0.999946 0.945323
0.994882 1.00413 0.987744
0.994698 0.994873 0.881911
0.999641 0.997829 0.911808
0.997705 0.998805 0.941648
0.99487 0.997226 0.970346
0.995369 1.00492 0.998197
0.997438 1.00211 0.996981
1.00198 1.0014 0.991613
0.997366 1.00293 0.994599
1.00185 1.00077 0.990333
1.00395 0.999572 0.988076
1.00252 1.00407 0.987101
1.00308 1.00421 0.984525
1.00443 1.00162 0.984794
1.00479 1.00384 0.982759
1.00446 1.00366 0.98277
1.00483 1.00085 0.985099
1.00516 0.999162 0.986204
1.0051 1.00067 0.984844
1.00495 1.00092 0.984868
1.00507 1.00143 0.984476
1.00505 1.00125 0.98452
1.00481 1.00185 0.984176
1.00332 1.00307 0.985954
1.00366 1.00195 0.986096
1.00401 1.00192 0.985829
1.00132 1.00437 0.987969
1.00186 1.00423 0.987262
1.00242 1.00322 0.987193
1.00001 1.00378 0.990826
1.00043 1.00491 0.989126
1.0005 1.00482 0.989246
0.999811 0.9994 0.996242
1.00014 1.00229 0.992226
1.00026 1.00395 0.990512
0.999645 0.997632 0.997891
0.999894 0.998996 0.996213
1.00021 1.00142 0.993002
0.99998 0.998706 0.996054
0.999713 0.997429 0.999122
0.999788 0.997245 0.99914
1.00026 1.00398 0.99033
1.00043 1.00317 0.990924
1.00028 1.00379 0.990448
1.00035 1.0016 0.992551
1.00037 1.00295 0.991213
1.00013 0.998796 0.995689
1.00033 1.00127 0.99291
1.00041 1.00261 0.991518
0.999964 0.997088 0.999085
1.00016 0.998485 0.995947
1.00027 1.00097 0.993307
0.999997 0.996868 0.999156
1.00015 0.998237 0.996205
1.00002 0.996676 0.999218
0.9952 0.994845 0.904816
0.994709 0.99477 0.913825
0.994714 0.994796 0.921215
1.00056 1.00313 0.990583
1.00038 1.00364 0.990552
1.00027 1.00392 0.990252
1.00029 1.00411 0.990195
1.00045 1.00356 0.990456
1.00034 1.00405 0.990305
1.00064 1.00416 0.989548
0.999813 1.00467 0.990006
1.00042 1.00376 0.990337
1.00006 1.00417 0.990362
0.999961 1.00452 0.990252
0.999437 1.00482 0.991589
0.995241 0.996728 0.874328
0.995205 0.997864 0.88734
0.994762 0.994839 0.895676
0.994894 0.997541 0.874389
0.994845 0.999959 0.907441
0.99494 1.00019 0.942814
0.995119 0.99675 0.963856
0.994992 0.995 0.97193
0.99471 0.997241 0.862388
0.9949 0.999848 0.946904
0.997047 0.99991 0.901568
0.994874 0.996259 0.972502
0.995343 0.999969 0.951878
0.9992 0.998419 0.903137
0.999134 1.0017 0.994954
0.998967 1.00389 0.992685
0.999679 1.00483 0.990377
0.994856 0.999148 0.990529
0.99577 1.00316 0.997455
0.99786 1.00436 0.993943
0.997355 1.00187 0.998305
0.995516 0.999696 0.991007
0.996975 0.998877 0.993781
0.994754 0.997586 0.884029
0.994875 0.995489 0.906874
0.994712 0.994768 0.921712
0.99507 1.00511 0.990893
0.994863 0.999982 0.968673
0.994789 0.995928 0.900074
0.995139 0.999977 0.943092
0.998491 0.99802 0.896529
0.994859 0.996537 0.877084
0.995286 1.00444 0.987695
0.9947 0.995402 0.88752
0.999818 0.996616 0.902322
0.994918 0.997273 0.966374
0.99746 0.998993 0.949975
0.996992 1.00159 0.991439
0.999837 0.99568 0.901867
1.00003 0.997863 0.950286
0.994884 0.995605 0.965838
0.997531 1.00248 0.996979
1.00139 1.00039 0.991991
1.00336 1.00049 0.989154
1.00074 1.00104 0.99062
1.00336 1.0001 0.988064
1.00459 0.998343 0.987817
1.00317 1.00403 0.984582
1.00428 1.00165 0.984762
1.005 0.997952 0.987238
1.00451 1.0033 0.982856
1.00478 1.00066 0.985144
1.00508 0.997501 0.987855
1.00515 0.997478 0.987938
1.00519 0.999479 0.98587
1.00515 0.999034 0.98633
1.00512 1.00087 0.984714
1.00508 1.00067 0.984906
1.0049 1.00083 0.984953
1.00467 1.0014 0.985183
1.00488 1.00141 0.984639
1.005 1.00126 0.984502
1.00261 1.0035 0.986725
1.00336 1.00298 0.985945
1.00361 1.00195 0.986285
1.00055 1.00446 0.98932
1.0014 1.00443 0.987946
1.00164 1.00418 0.987419
0.999731 1.00023 0.994861
1.00019 1.00361 0.990821
1.00062 1.00478 0.989144
0.999553 0.997881 0.999064
0.999793 0.999494 0.99558
1.00021 1.00227 0.992189
0.999646 0.997626 0.999097
0.999869 0.99906 0.995899
0.99971 0.997478 0.999114
1.00068 1.00356 0.990128
1.00031 1.00398 0.990289
1.00043 1.00352 0.990585
1.00032 1.00196 0.992248
1.00038 1.00322 0.990919
1.00027 1.00381 0.990416
1.0001 0.999088 0.995457
1.00034 1.00161 0.992554
1.00033 1.00301 0.991205
0.999922 0.997309 0.999024
1.00014 0.998765 0.995703
1.00032 1.00128 0.992912
0.999966 0.997049 0.999101
1.00016 0.998471 0.995962
0.999999 0.996822 0.999172
0.995278 0.996168 0.874556
0.995126 0.994832 0.904703
0.994705 0.99476 0.913679
1.00042 1.00338 0.990529
1.00128 1.00304 0.99024
1.00054 1.00366 0.990176
1.00034 1.00419 0.990201
1.00067 1.00345 0.990505
1.00013 1.00391 0.990521
1.00001 1.00469 0.989974
1.00052 1.00419 0.989649
1.00037 1.00475 0.989426
0.999902 1.00077 0.99369
1.00014 1.00449 0.990232
0.999522 1.00463 0.991254
0.999803 0.997371 0.897589
0.995111 0.996715 0.869004
0.995416 0.998015 0.887015
0.994707 0.997449 0.852077
0.99669 0.999022 0.912255
0.994867 0.999969 0.944894
0.994906 0.995018 0.9697
0.994927 0.996258 0.971176
0.998469 0.999464 0.90583
0.996071 0.999966 0.943493
0.994891 0.997579 0.972424
0.998655 0.998927 0.941733
1.00196 0.997949 0.994008
0.999144 1.00178 0.994779
0.999126 1.0041 0.992651
0.99502 0.999601 0.991068
0.998368 1.00173 0.998132
0.997617 0.998952 0.993263
0.99916 0.998558 0.990568
0.999886 0.994849 0.910289
0.994809 0.996778 0.88429
0.994788 0.994866 0.910417
0.995699 1.00484 0.987812
0.994891 0.997249 0.964331
0.994705 0.995813 0.887674
0.998782 0.998693 0.940583
0.99981 0.997135 0.912658
0.996768 1.00063 0.989323
0.999875 0.995371 0.90804
1.00147 0.997315 0.940227
0.994912 0.995673 0.969357
0.998528 0.996726 0.991834
1.00003 0.995923 0.950968
0.996345 0.995867 0.971636
1.0008 0.999185 0.992316
1.00319 0.999402 0.989116
1.00485 0.997647 0.989198
1.00272 1.00054 0.988058
1.00432 0.998506 0.987815
1.00487 0.996534 0.988985
1.00423 1.00167 0.984732
1.00493 0.998234 0.987161
1.00509 0.995816 0.989349
1.00474 1.00048 0.985189
1.00508 0.9975 0.987848
1.00512 0.995927 0.989482
1.00512 0.996563 0.989138
1.00516 0.9973 0.988148
1.00516 0.998196 0.987402
1.00517 0.999919 0.98567
1.00519 0.999534 0.985908
1.00514 0.998905 0.986457
1.00513 1.00066 0.985025
1.00511 1.00086 0.984711
1.00507 1.00065 0.984967
1.00391 1.00221 0.985769
1.00456 1.00152 0.985173
1.00468 1.00145 0.984803
1.00143 1.00392 0.988316
1.00266 1.00348 0.986715
1.00335 1.00292 0.985935
0.999897 1.00112 0.993652
1.00067 1.00424 0.989331
1.00154 1.00442 0.987923
0.999595 0.998197 0.998916
0.999754 1.00033 0.994808
1.00034 1.00348 0.990818
0.999594 0.997909 0.998408
0.99978 0.999585 0.995556
0.999658 0.99769 0.999077
1.00093 1.00297 0.990272
1.00044 1.0037 0.990211
1.00036 1.00388 0.990229
1.00038 1.00398 0.990248
1.00035 1.00359 0.990583
1.00029 1.00234 0.991921
1.00004 0.999392 0.995263
1.00032 1.00195 0.992252
1.00029 1.00332 0.990914
0.999871 0.997529 0.998964
1.00009 0.999069 0.995467
1.00033 1.00163 0.992556
0.999924 0.997267 0.999043
1.00014 0.998741 0.995716
0.999969 0.997025 0.999118
0.999831 0.995145 0.908878
0.995248 0.996209 0.877266
0.995151 0.99482 0.904575
1.0003 1.00359 0.990475
1.0005 1.00409 0.989733
1.00095 1.00301 0.990519
1.00234 1.00361 0.987382
1.00047 1.00411 0.990021
1.00015 1.00468 0.989943
1.00048 1.00417 0.989751
1.00015 1.00466 0.989695
1.00073 1.00348 0.988887
1.00114 0.999751 0.993103
1.00418 0.997457 0.989788
1.00009 1.00064 0.993779
0.999909 1.00393 0.990915
0.998807 0.997502 0.950159
0.999775 0.997882 0.902066
0.995041 0.996637 0.870842
0.999089 0.999722 0.894617
0.995701 0.999955 0.94932
0.994865 0.996184 0.97243
0.994865 0.997582 0.974263
0.997422 0.998734 0.951794
0.995905 0.997742 0.973512
1.00264 0.996074 0.993904
1.00128 0.9986 0.994101
0.999183 1.00187 0.994597
0.998387 0.99879 0.992827
0.999874 0.9986 0.989819
0.999989 0.994898 0.945975
0.999874 0.994878 0.913879
0.994892 0.996128 0.88466
0.996419 0.999992 0.987135
0.994963 0.99547 0.966112
0.999855 0.995685 0.908938
1.00034 0.997998 0.949405
0.997727 0.997849 0.992187
1.00127 0.99597 0.949485
0.996685 0.995249 0.968576
1.00138 0.996208 0.990786
0.999155 0.995737 0.977464
1.00304 0.998511 0.989138
1.00478 0.996782 0.989138
1.00497 0.995891 0.990248
1.00407 0.998683 0.987812
1.00473 0.996697 0.988914
1.00514 0.995126 0.990053
1.0048 0.998516 0.987084
1.00509 0.995904 0.989311
1.00506 0.995021 0.990358
1.00508 0.997502 0.987841
1.00512 0.995947 0.98944
1.00514 0.995578 0.990026
1.00512 0.996321 0.989287
1.00513 0.997187 0.98852
1.00517 0.99712 0.988359
1.00516 0.998205 0.987377
1.00519 0.999029 0.986553
1.00517 1.00023 0.985425
1.00517 0.999962 0.985647
1.00519 0.999587 0.985946
1.00472 1.00083 0.9856
1.00509 1.00071 0.985008
1.0051 1.00085 0.984709
1.00245 1.00283 0.987603
1.00385 1.00225 0.985776
1.00451 1.00162 0.985164
1.00028 1.0016 0.992499
1.00149 1.00384 0.988301
1.00263 1.00355 0.986705
0.999704 0.998732 0.998628
0.999967 1.00113 0.993623
1.00084 1.00404 0.989341
0.999657 0.998307 0.998828
0.999789 1.00041 0.994754
0.999653 0.997944 0.998979
1.00227 1.00358 0.987371
1.00098 1.00286 0.990246
1.00048 1.00384 0.989904
1.00024 1.00378 0.990293
1.0003 1.00392 0.990196
1.00029 1.00279 0.991451
1.00028 1.00364 0.990581
1.00027 1.00234 0.991928
0.999956 0.999719 0.995084
0.999803 0.997768 0.998913
1.00003 0.999367 0.995272
1.0003 1.00194 0.992256
0.999874 0.997505 0.998983
1.00009 0.999056 0.995478
0.999929 0.997223 0.999061
1.00009 0.995321 0.953908
0.999843 0.995091 0.908075
0.995142 0.996274 0.873874
1.00046 1.00459 0.989291
1.00067 1.00293 0.9908
1.00066 1.00402 0.989949
1.00217 1.00362 0.987557
1.004 1.00255 0.985118
1.00103 1.00359 0.988865
0.999916 1.00472 0.989963
1.00147 1.00349 0.988145
1.00082 0.999996 0.993185
1.00285 1.00011 0.988936
1.0047 0.996288 0.990891
1.00421 0.996585 0.990539
1.00373 0.997256 0.990474
0.999821 1.00088 0.993871
0.995992 0.996114 0.972935
1.00015 0.99721 0.94748
0.998127 0.997636 0.91211
0.997858 0.999411 0.941665
0.994865 0.997965 0.975068
0.995929 0.997836 0.978202
0.999776 0.99795 0.992196
1.00292 0.995754 0.99384
1.00088 0.999085 0.994195
1.00139 0.998664 0.989034
0.996531 0.997521 0.973639
1.00028 0.995061 0.955303
0.999858 0.994859 0.903993
0.996988 0.998737 0.992403
0.996815 0.994872 0.970643
1.00014 0.996655 0.947753
1.0009 0.996248 0.990911
0.998555 0.995757 0.976804
1.00367 0.995605 0.991077
1.00282 0.998236 0.9876
1.00471 0.995967 0.989049
1.00485 0.995715 0.99025
1.00514 0.994866 0.990601
1.00462 0.996851 0.988844
1.00515 0.995103 0.990006
1.00509 0.994943 0.990534
1.00509 0.995979 0.989272
1.00506 0.995126 0.990328
1.00514 0.995122 0.990409
1.00512 0.995972 0.989397
1.00513 0.995555 0.989944
1.00512 0.996273 0.98927
1.00512 0.99609 0.989435
1.00513 0.997041 0.988674
1.00518 0.998355 0.987322
1.00517 0.998216 0.987353
1.00519 0.999091 0.986525
1.00521 0.999712 0.985999
1.00494 1.00022 0.985696
1.00517 1.00027 0.985406
1.00517 1.00001 0.985624
1.00343 1.00142 0.987308
1.00471 1.00088 0.985602
1.00504 1.00077 0.984991
1.00066 1.00177 0.991648
1.00243 1.00287 0.987608
1.00381 1.00229 0.985781
0.99989 0.999289 0.998256
1.00037 1.00155 0.992488
1.00157 1.00375 0.988287
0.999802 0.998853 0.99849
1.00003 1.00116 0.993594
0.999737 0.998395 0.998717
1.00379 1.00289 0.985388
1.00235 1.00357 0.987403
1.00144 1.00402 0.988138
1.00095 1.00284 0.990219
1.00057 1.00379 0.989793
1.00053 1.00311 0.990775
1.00025 1.00397 0.990163
1.00027 1.00281 0.991455
0.999876 1.00012 0.994821
1.00026 1.00233 0.991935
0.999955 0.999679 0.995097
0.999732 0.998018 0.998863
0.999809 0.997735 0.998929
1.00003 0.999343 0.995282
0.999875 0.99746 0.999001
0.996789 0.9949 0.974561
1.00031 0.995466 0.944889
0.999825 0.995251 0.915097
1.00512 1.0008 0.984788
1.00084 1.00389 0.989875
1.00202 1.00365 0.987734
1.00143 1.00353 0.988565
1.00397 1.00262 0.985116
1.00342 1.00081 0.987422
1.00219 1.00354 0.987407
1.00049 1.00023 0.993273
1.00333 0.999898 0.988831
1.00458 0.995902 0.990809
1.00482 0.996559 0.989023
1.00417 0.995703 0.991711
1.00411 0.996252 0.990422
1.00322 0.997007 0.991161
0.999972 0.997121 0.99262
0.995866 0.995886 0.971245
0.999539 0.996577 0.945431
0.995704 0.997358 0.976634
0.999991 0.997002 0.994269
1.00261 0.995472 0.993763
1.00069 0.99744 0.987134
0.996422 0.996219 0.975178
1.00001 0.994907 0.946064
1.00018 0.99671 0.991095
0.998487 0.996177 0.975648
1.00328 0.995499 0.991397
1.00282 0.997719 0.988016
1.00448 0.994875 0.991248
1.0045 0.997527 0.990708
1.00475 0.995527 0.990252
1.00514 0.994865 0.990479
1.00518 0.994869 0.990411
1.00515 0.995096 0.989961
1.00508 0.994939 0.990522
1.00515 0.994974 0.990486
1.00505 0.995225 0.990297
1.00513 0.995113 0.990371
1.00514 0.995824 0.98971
1.00513 0.995525 0.989863
1.00513 0.996286 0.989261
1.00518 0.997517 0.988097
1.00513 0.996894 0.988828
1.00518 0.998224 0.987494
1.00523 0.999342 0.986295
1.00519 0.999149 0.986497
1.00521 0.99972 0.985959
1.00504 1.00002 0.985861
1.00389 1.00055 0.987361
1.00494 1.00029 0.98572
1.00517 1.00031 0.985388
1.00118 1.00135 0.991226
1.00337 1.00148 0.987316
1.00468 1.00092 0.985605
1.00002 0.999775 0.997944
1.00084 1.00158 0.991633
1.00242 1.00288 0.987615
0.99997 0.999387 0.998134
1.00049 1.00145 0.992477
0.999899 0.998958 0.998352
1.00485 1.00126 0.984854
1.00372 1.00288 0.985387
1.00284 1.00338 0.986433
1.00243 1.00356 0.987437
1.00152 1.00404 0.988116
1.00085 1.0037 0.989687
1.00068 1.00373 0.989681
1.00038 1.00329 0.990779
0.999853 1.00063 0.99436
1.00022 1.00285 0.99146
0.999873 1.00007 0.994842
0.999677 0.998309 0.99878
0.999955 0.999643 0.99511
0.999735 0.997977 0.998881
0.999813 0.99771 0.998945
1.00099 0.995075 0.991072
0.996812 0.994894 0.97104
0.99999 0.994966 0.954536
1.00455 0.999926 0.986209
1.00514 0.999447 0.986187
1.00508 1.00065 0.984909
1.00181 1.00345 0.988261
1.00393 1.00268 0.985112
1.00377 1.00064 0.987347
1.00505 0.997469 0.987903
1.00382 0.99966 0.988721
1.00444 0.995527 0.990719
1.00487 0.996602 0.989237
1.00499 0.995831 0.989652
1.0042 0.995431 0.991606
1.00397 0.995857 0.991555
1.00426 0.996026 0.990297
1.0002 0.99706 0.992755
0.995972 0.99584 0.969434
1.00033 0.996691 0.996414
1.00413 0.995688 0.992025
1.00051 0.997697 0.98731
0.996391 0.995759 0.972905
1.00319 0.994877 0.991688
1.0028 0.997729 0.988465
1.00454 0.995036 0.991566
1.00455 0.996759 0.990652
1.0052 0.994938 0.990388
1.00525 0.995002 0.990585
1.00515 0.99487 0.990358
1.00518 0.994888 0.990395
1.00519 0.994937 0.990368
1.00508 0.994936 0.99051
1.00515 0.994959 0.990454
1.00517 0.99542 0.99012
1.00512 0.995096 0.990332
1.00515 0.995841 0.989701
1.00517 0.996954 0.988673
1.00514 0.9963 0.989251
1.00518 0.997536 0.988099
1.00524 0.998947 0.986643
1.00518 0.998092 0.987666
1.00522 0.999284 0.986365
1.00512 0.999871 0.985888
1.0052 0.999734 0.985919
1.00504 1.00001 0.985863
1.00409 1.0002 0.987366
1.00145 1.00078 0.991264
1.00387 1.00057 0.987352
1.00493 1.00036 0.985743
1.0001 1.00015 0.997715
1.00123 1.00128 0.991225
1.0033 1.00157 0.987324
1.00008 0.999881 0.997843
1.00095 1.00148 0.991624
1.00004 0.999501 0.998015
1.00511 1.00028 0.985414
1.00488 1.00118 0.984861
1.00418 1.00173 0.985665
1.00365 1.00286 0.985385
1.00283 1.00342 0.986441
1.00157 1.00373 0.988336
1.00158 1.00406 0.988094
1.00069 1.00384 0.989715
1.00003 1.00124 0.993507
1.00026 1.00344 0.990785
0.999835 1.00059 0.994381
0.999663 0.998698 0.998621
0.999872 1.00002 0.994862
0.999669 0.998253 0.998814
0.99974 0.997942 0.998897
1.00409 0.994896 0.9925
1.001 0.995075 0.989428
0.996578 0.99489 0.970719
1.00509 0.998545 0.987199
1.00485 0.999601 0.986182
1.00521 0.998247 0.987289
1.00514 0.99942 0.986208
1.00504 1.00049 0.985031
1.00511 0.996644 0.988642
1.00414 1.00047 0.987274
1.00504 0.997683 0.987845
1.00514 0.995307 0.989908
1.00493 0.996644 0.989457
1.00496 0.995904 0.989545
1.00419 0.995543 0.991724
1.00356 0.995908 0.99139
1.00038 0.996995 0.992817
1.0052 0.994901 0.990445
1.00413 0.996292 0.992072
1.0004 0.99759 0.987472
1.00458 0.995188 0.991879
1.00458 0.995951 0.990603
1.0052 0.994918 0.990434
1.00524 0.995011 0.990493
1.0052 0.994943 0.99058
1.00518 0.994904 0.99038
1.00518 0.994935 0.990391
1.0052 0.995075 0.990435
1.00514 0.99496 0.990421
1.00516 0.995426 0.99006
1.00516 0.99654 0.98907
1.00516 0.995858 0.989691
1.00517 0.996978 0.988673
1.00524 0.998559 0.987044
1.00518 0.997554 0.988102
1.00523 0.998946 0.986665
1.00516 0.999792 0.985919
1.00522 0.999225 0.986436
1.00511 0.999876 0.985905
1.00421 1.00007 0.987281
1.00503 1.00001 0.985866
1.00409 1.00021 0.987359
1.00153 1.0004 0.99284
1.00031 1.00005 0.994934
1.0015 1.00073 0.991946
1.00385 1.00061 0.987345
1.00014 1.0002 0.997667
1.00135 1.00111 0.991222
1.00013 0.999988 0.997748
1.00523 0.998166 0.987391
1.00521 0.999391 0.98617
1.00513 1.00026 0.98549
1.00478 1.00061 0.985743
1.0049 1.00111 0.984867
1.00423 1.00168 0.985642
1.0027 1.00247 0.987498
1.00281 1.00347 0.986448
1.0015 1.00379 0.988345
1.00044 1.00175 0.992303
1.00055 1.00399 0.989742
0.999927 1.00127 0.993536
0.999713 0.999261 0.998318
0.999819 1.00054 0.994401
0.999632 0.998608 0.998688
0.999667 0.998199 0.998842
1.00518 0.994945 0.99032
1.00444 0.994886 0.992487
1.00126 0.994897 0.987826
1.00513 0.997205 0.988201
1.0051 0.998503 0.987042
1.00513 0.999296 0.986157
1.00519 0.998361 0.987247
1.00515 0.999395 0.98623
1.00518 0.995615 0.989901
1.00509 0.996644 0.988591
1.00502 0.997908 0.987788
1.00514 0.995305 0.989913
1.00496 0.995999 0.989438
1.00423 0.995729 0.991867
1.00519 0.994915 0.990683
1.0052 0.994903 0.990593
1.00413 0.996909 0.992124
1.0052 0.994899 0.990474
1.00525 0.994962 0.990402
1.00521 0.994946 0.990528
1.00518 0.994926 0.99075
1.00518 0.994931 0.990414
1.00519 0.995056 0.990394
1.00516 0.99629 0.98936
1.00516 0.995432 0.99
1.00517 0.996557 0.989075
1.00523 0.998252 0.987382
1.00517 0.997003 0.988672
1.00524 0.998561 0.987057
1.00519 0.999703 0.985992
1.00523 0.998944 0.986687
1.00516 0.999788 0.985936
1.00428 1.00006 0.987165
1.00511 0.999881 0.985922
1.00422 1.00006 0.98728
1.00166 1.0001 0.992937
1.00408 1.00021 0.987351
1.00168 1.00031 0.992767
1.00029 0.999992 0.995075
1.00012 1.00028 0.99631
1.00167 1.00066 0.992505
1.00014 1.0003 0.997635
1.00517 0.99757 0.988126
1.00525 0.999051 0.986423
1.00523 0.997983 0.987559
1.005 1.00003 0.985916
1.00523 0.999458 0.986111
1.00516 1.00024 0.985567
1.0048 1.00056 0.985727
1.00358 1.00108 0.987321
1.00429 1.00163 0.985619
1.00275 1.00241 0.987483
1.00093 1.00171 0.991397
1.00141 1.00386 0.988353
1.00025 1.00189 0.992335
0.999833 1 0.997914
0.999819 1.00132 0.993563
0.999645 0.999145 0.998444
0.999616 0.998522 0.998744
1.00519 0.994975 0.990388
1.00518 0.994962 0.990305
1.00468 0.994895 0.992442
1.00516 0.996345 0.989249
1.00512 0.997263 0.988187
1.00512 0.998465 0.986883
1.00518 0.998476 0.987206
1.00518 0.995624 0.989807
1.00508 0.996649 0.988539
1.00514 0.995306 0.98992
1.00516 0.994937 0.990776
1.00518 0.994924 0.990671
1.00519 0.994909 0.990741
1.00521 0.995072 0.990449
1.0052 0.994951 0.990475
1.00517 0.995011 0.990644
1.00517 0.99602 0.98974
1.00517 0.995038 0.990353
1.00518 0.996264 0.989364
1.0052 0.998048 0.987669
1.00518 0.996578 0.989079
1.00523 0.998254 0.987386
1.00519 0.999559 0.986143
1.00524 0.998563 0.98707
1.00518 0.999693 0.986006
1.00434 1.00006 0.987071
1.00515 0.999784 0.985953
1.00429 1.00004 0.987171
1.00175 1.00003 0.992877
1.00423 1.00004 0.987279
1.00179 1.00005 0.992839
1.00035 0.999891 0.995108
1.00184 1.00021 0.992702
1.00001 1.00015 0.995248
0.999713 1.00055 0.997934
1.00518 0.997478 0.988107
1.00522 0.998595 0.987033
1.00517 0.99762 0.987983
1.00516 0.999707 0.986197
1.00526 0.998881 0.986567
1.00523 0.997802 0.987726
1.00402 1.00034 0.987293
1.00502 0.999995 0.985888
1.00525 0.999522 0.986052
1.00482 1.00051 0.985711
1.00361 1.00103 0.987321
1.00129 1.00121 0.991193
1.0028 1.00235 0.987467
1.00082 1.00184 0.991403
0.999899 1.00059 0.997665
1.00011 1.00201 0.992364
0.99973 0.999848 0.998073
0.999597 0.998994 0.998552
1.00517 0.995508 0.99006
1.00519 0.994967 0.990407
1.00518 0.994975 0.99029
1.00517 0.996243 0.989324
1.00511 0.997315 0.988174
1.00517 0.995629 0.989713
1.00519 0.995116 0.990567
1.00516 0.99494 0.990779
1.00519 0.994933 0.99066
1.00522 0.995037 0.990588
1.00523 0.996243 0.989411
1.00517 0.9951 0.990537
1.00519 0.996194 0.989526
1.00516 0.997715 0.988139
1.00521 0.996232 0.989368
1.0052 0.998028 0.987669
1.00518 0.99938 0.986348
1.00523 0.998245 0.987389
1.00519 0.999548 0.986153
1.00437 1.00001 0.987048
1.00518 0.999684 0.986019
1.00434 1.00005 0.98708
1.00181 1.00009 0.992705
1.00431 1.00003 0.987176
1.00187 0.999987 0.992759
1.00042 0.999881 0.995019
1.00191 1 0.99275
1.0001 0.999944 0.995304
0.999749 1.00033 0.995405
1.00518 0.996773 0.988923
1.0052 0.998465 0.98716
1.00518 0.997289 0.988274
1.00518 0.99939 0.986448
1.00521 0.99868 0.986929
1.00518 0.997671 0.987839
1.00427 0.999919 0.987295
1.00516 0.999591 0.986161
1.00527 0.998714 0.986713
1.00149 1.00067 0.991364
1.00403 1.00033 0.987302
1.00504 0.999966 0.985861
1.00365 1.00099 0.987324
1.00123 1.0013 0.991196
0.999918 1.00078 0.997629
1.0007 1.00196 0.991418
0.999858 1.00044 0.997741
0.999642 0.999668 0.998224
1.00518 0.99542 0.990177
1.00517 0.995551 0.990018
1.00519 0.994961 0.990426
1.00517 0.996146 0.9894
1.0052 0.996403 0.989352
1.00521 0.995116 0.990597
1.00516 0.994944 0.990782
1.00523 0.994987 0.990726
1.00521 0.99618 0.989487
1.0052 0.997743 0.98807
1.0052 0.996365 0.989312
1.00516 0.9979 0.987903
1.00517 0.999033 0.986756
1.0052 0.998018 0.987669
1.00517 0.999375 0.986355
1.00439 0.999938 0.987084
1.00518 0.999544 0.986162
1.00437 1.00001 0.987056
1.00188 1.00016 0.991219
1.00434 1.00005 0.98709
1.00192 1.00006 0.99193
1.00035 0.999934 0.997621
1.00198 0.99996 0.992642
1.0002 0.99987 0.995226
0.99987 0.999996 0.995482
1.00517 0.996402 0.989363
1.0052 0.998157 0.987574
1.00518 0.996857 0.988885
1.00518 0.999197 0.98646
1.0052 0.998467 0.987162
1.00518 0.997096 0.988441
1.00435 0.999707 0.987156
1.00519 0.999394 0.986456
1.00521 0.998762 0.986825
1.00166 1.00015 0.991548
1.00426 0.999878 0.987217
1.00516 0.999467 0.986125
0.999992 1.00064 0.997676
1.00147 1.00068 0.991373
1.00403 1.00032 0.98731
1.00116 1.00136 0.991201
0.999921 1.00068 0.997628
0.999765 1.00033 0.997849
1.00517 0.996277 0.989465
1.00518 0.995504 0.990153
1.00517 0.995591 0.989975
1.0052 0.997779 0.987964
1.00519 0.996293 0.989429
1.00522 0.99512 0.990628
1.0052 0.996119 0.989563
1.0052 0.997726 0.988075
1.00516 0.99896 0.987001
1.00516 0.998083 0.987666
1.00516 0.99917 0.986677
1.00439 0.999748 0.987109
1.00517 0.999363 0.986363
1.00439 0.999937 0.98709
1.0019 1.00014 0.991202
1.00437 1.00001 0.987065
1.00189 1.00015 0.991218
1.00035 0.999975 0.997584
1.00194 1.00005 0.991248
1.00026 0.999926 0.996395
0.999975 0.999836 0.995431
1.00517 0.996641 0.98908
1.0052 0.99799 0.987713
1.00517 0.996383 0.989406
1.00519 0.999248 0.986414
1.0052 0.998212 0.987488
1.00517 0.996944 0.988847
1.00439 0.999641 0.987165
1.00518 0.999309 0.986445
1.0052 0.998472 0.987163
1.0018 0.999886 0.991574
1.00434 0.999705 0.987155
1.00519 0.9994 0.986464
1.00014 1.00031 0.997706
1.00168 1.00013 0.991553
1.00426 0.999838 0.987137
0.999996 1.00059 0.997653
1.00145 1.00067 0.991382
0.99989 1.00063 0.997642
1.00521 0.997609 0.98814
1.00516 0.996355 0.989367
1.00518 0.995589 0.990128
1.00516 0.998855 0.98711
1.0052 0.99769 0.988056
1.00518 0.996186 0.989505
1.00519 0.997712 0.988081
1.00516 0.998964 0.987
1.00436 0.999654 0.987271
1.00516 0.99931 0.986598
1.0044 0.999798 0.98713
1.00192 1.00006 0.991246
1.00439 0.999932 0.987096
1.00189 1.00014 0.991204
1.00035 1.00001 0.997544
1.00189 1.00014 0.991217
1.00035 0.999988 0.997565
1.00033 0.999882 0.994977
1.00521 0.997894 0.987762
1.00516 0.996459 0.98924
1.00519 0.999145 0.986539
1.0052 0.997997 0.9877
1.00517 0.996361 0.989448
1.0044 0.999693 0.987324
1.00518 0.999258 0.986409
1.0052 0.998264 0.987403
1.00189 0.999861 0.991455
1.00438 0.999683 0.987218
1.00518 0.999424 0.986428
1.0003 1.00005 0.997667
1.00181 0.999877 0.991577
1.00434 0.999695 0.987152
1.00012 1.00032 0.997695
1.00168 1.00012 0.991555
0.999988 1.00057 0.997636
1.00517 0.998828 0.987102
1.00521 0.997684 0.988049
1.00516 0.996435 0.989269
1.00432 0.999604 0.987388
1.00516 0.99886 0.98711
1.0052 0.997598 0.988148
1.00516 0.998971 0.987
1.00437 0.999645 0.987249
1.00189 1.00001 0.991352
1.0044 0.999847 0.98715
1.00191 1.00007 0.99125
1.00037 1.00001 0.997528
1.0019 1.00014 0.991206
1.00035 1.00002 0.997541
1.00036 0.999996 0.99755
1.00519 0.999048 0.986648
1.00521 0.997687 0.98799
1.00516 0.99628 0.9894
1.00437 0.999684 0.987391
1.00518 0.999154 0.986529
1.00521 0.998004 0.987687
1.00191 0.999948 0.991353
1.00438 0.999698 0.987318
1.00518 0.999267 0.986405
1.00038 0.999947 0.997593
1.00189 0.999876 0.991456
1.00438 0.999718 0.987272
1.00026 1.00009 0.997685
1.00181 0.999885 0.99158
1.00013 1.00032 0.997678
1.00431 0.999669 0.987515
1.00517 0.998786 0.987064
1.00521 0.997759 0.987958
1.00185 0.99996 0.991487
1.00433 0.999586 0.987374
1.00516 0.998864 0.987109
1.00438 0.999631 0.987227
1.00189 0.999999 0.991359
1.00036 1.00001 0.997519
1.00189 1.00008 0.991253
1.00036 1.00002 0.997519
1.00034 1.00003 0.997536
1.00433 0.999669 0.987466
1.00518 0.998931 0.986774
1.00522 0.997481 0.988218
1.00198 1.00001 0.992579
1.00436 0.999682 0.987391
1.00518 0.999164 0.98652
1.00038 0.999954 0.997543
1.00191 0.999968 0.991354
1.00437 0.999703 0.987312
1.00036 0.999978 0.997622
1.00189 0.999901 0.991458
1.00024 1.0001 0.997696
1.00189 0.999959 0.991449
1.00431 0.999618 0.987463
1.00517 0.998741 0.987025
1.00031 0.999996 0.997553
1.00184 0.999959 0.991487
1.00434 0.999571 0.98736
1.00188 0.999986 0.991362
1.00034 1.00001 0.997528
1.00036 1.00003 0.997518
1.002 0.999984 0.992594
1.00433 0.999667 0.987466
1.00517 0.998812 0.986899
1.00001 0.999992 0.997897
1.00189 1.00001 0.991365
1.00436 0.999678 0.987392
1.00038 0.999965 0.997567
1.00191 0.999989 0.991355
1.00034 0.999998 0.997649
1.0003 0.999986 0.995021
1.00191 0.999958 0.992075
1.00431 0.999568 0.98741
1.00033 0.999996 0.997557
1.00184 0.999959 0.991492
1.00036 1 0.997532
0.999937 1 0.995362
1.00193 0.999979 0.992022
1.00433 0.999667 0.987466
1.00017 0.99999 0.996428
1.00189 1.00001 0.991375
1.00038 0.999976 0.99759
1.00031 0.99999 0.997561
1.00182 0.999956 0.991525
1.0003 0.999995 0.99756
1.00013 0.999988 0.996467
1.00186 0.999979 0.991466
1.00036 0.99998 0.997558
1.00032 0.999987 0.997572
1.00031 0.999985 0.997564

TENSORS stress float
0.00171399 -9.45934e-05 0.000178522
-9.45934e-05 0.000673213 -2.45296e-05
0.000178522 -2.45296e-05 0.000651843
0.00543795 -0.000109111 0.000172311
-0.000109111 0.00290658 1.83819e-05
0.000172311 1.83819e-05 0.00288513
0.00150622 -2.49916e-05 8.30094e-05
-2.49916e-05 0.000557544 -9.54585e-06
8.30094e-05 -9.54585e-06 0.000526989
0.00185324 -5.68862e-05 0.000179437
-5.68862e-05 0.000729931 -1.55231e-05
0.000179437 -1.55231e-05 0.00071222
0.00178786 -8.53081e-05 0.000175742
-8.53081e-05 0.000707472 -2.22288e-05
0.000175742 -2.22288e-05 0.000687545
0.00166517 -9.11182e-05 0.000183522
-9.11182e-05 0.000642575 -2.42208e-05
0.000183522 -2.42208e-05 0.000622866
0.00147171 -6.90841e-05 2.77369e-05
-6.90841e-05 0.000457434 -9.5378e-06
2.77369e-05 -9.5378e-06 0.000374785
0.0053539 -0.000111935 -5.77853e-06
-0.000111935 0.00284519 4.21938e-07
-5.77853e-06 4.21938e-07 0.00283011
0.00541487 6.13458e-05 7.93296e-05
6.13458e-05 0.00284238 4.73414e-06
7.93296e-05 4.73414e-06 0.00282853
0.00515646 -0.000211763 1.60311e-05
-0.000211763 0.0027361 3.04922e-06
1.60311e-05 3.04922e-06 0.00270065
0.00171063 8.44359e-05 0.000179142
8.44359e-05 0.00066727 1.68706e-05
0.000179142 1.68706e-05 0.000657399
0.00062819 0.000184162 2.24848e-05
0.000184162 -2.65591e-05 1.38906e-05
2.24848e-05 1.38906e-05 -0.000118396
0.00165264 -3.25698e-05 0.00018937
-3.25698e-05 0.000606809 2.43916e-06
0.00018937 2.43916e-06 0.000597995
0.00127922 -1.20177e-05 3.3971e-05
-1.20177e-05 0.000408081 1.07496e-06
3.3971e-05 1.07496e-06 0.000371025
0.00136329 -1.49463e-05 -2.90367e-05
-1.49463e-05 0.000474522 5.2928e-06
-2.90367e-05 5.2928e-06 0.000438778
0.00156326 -6.08978e-05 6.34243e-05
-6.08978e-05 0.000571678 -3.60601e-06
6.34243e-05 -3.60601e-06 0.000543968
0.00151253 -6.53203e-06 8.95868e-05
-6.53203e-06 0.000568045 -9.02657e-06
8.95868e-05 -9.02657e-06 0.00053331
0.00153034 -4.15443e-05 7.42034e-05
-4.15443e-05 0.000559105 -8.45401e-06
7.42034e-05 -8.45401e-06 0.000532773
0.00154257 -0.000110758 -3.08789e-05
-0.000110758 0.000490205 3.05506e-06
-3.08789e-05 3.05506e-06 0.000416134
0.00545753 -0.000110166 0.000225158
-0.000110166 0.00287545 -6.6649e-06
0.000225158 -6.6649e-06 0.00287915
0.00182671 -3.91533e-05 0.000181828
-3.91533e-05 0.000711718 -1.16103e-05
0.000181828 -1.16103e-05 0.00069475
0.00184771 -7.31439e-05 0.000177159
-7.31439e-05 0.000732767 -1.91309e-05
0.000177159 -1.91309e-05 0.000714439
0.00151823 -0.000102577 4.89795e-05
-0.000102577 0.000453842 -7.43364e-06
4.89795e-05 -7.43364e-06 0.000379159
0.00150004 -8.48861e-05 3.69011e-05
-8.48861e-05 0.000454345 -8.71931e-06
3.69011e-05 -8.71931e-06 0.000378792
0.00154795 -6.28023e-05 0.00017498
-6.28023e-05 0.000565399 -2.06941e-05
0.00017498 -2.06941e-05 0.000548706
0.0014601 -5.5172e-05 2.05292e-05
-5.5172e-05 0.000471151 -1.0292e-05
2.05292e-05 -1.0292e-05 0.000380019
0.00202368 -0.000216979 1.35798e-05
-0.000216979 0.000639577 -6.12108e-06
1.35798e-05 -6.12108e-06 0.000498428
0.00527048 -0.00013013 -0.000165359
-0.00013013 0.00278911 -1.03627e-05
-0.000165359 -1.03627e-05 0.00277721
0.00347277 6.68714e-05 -0.000104069
6.68714e-05 0.0017029 -8.41987e-06
-0.000104069 -8.41987e-06 0.00168444
0.00336769 -4.56361e-05 -9.72616e-05
-4.56361e-05 0.00166629 -4.63303e-06
-9.72616e-05 -4.63303e-06 0.00164077
0.00505602 -0.000157236 6.41009e-06
-0.000157236 0.00267723 -4.25252e-07
6.41009e-06 -4.25252e-07 0.00265851
0.000595435 0.000173991 -2.39282e-06
0.000173991 -4.66151e-05 -6.10534e-07
-2.39282e-06 -6.10534e-07 -0.000135634
0.00158091 5.31064e-05 0.000182761
5.31064e-05 0.0005752 1.3973e-05
0.000182761 1.3973e-05 0.000558648
0.0017533 0.000124938 0.000185732
0.000124938 0.00069868 2.08127e-05
0.000185732 2.08127e-05 0.000677501
0.00262255 0.000171907 0.000113324
0.000171907 0.00110952 1.42757e-05
0.000113324 1.42757e-05 0.0010447
0.00394595 -0.000251145 1.8321e-06
-0.000251145 0.00204471 4.06598e-06
1.8321e-06 4.06598e-06 0.0020054
0.00266577 0.000211868 0.000112079
0.000211868 0.00116146 1.60515e-05
0.000112079 1.60515e-05 0.00109269
0.000622112 0.000148296 2.63566e-05
0.000148296 -2.43386e-05 1.76996e-05
2.63566e-05 1.76996e-05 -0.000107657
0.000881633 0.000175907 1.01931e-05
0.000175907 3.16524e-05 4.93538e-06
1.01931e-05 4.93538e-06 -0.000127424
0.003142 -0.000104031 9.81731e-05
-0.000104031 0.00153565 3.97123e-06
9.81731e-05 3.97123e-06 0.00153908
0.00548835 6.4887e-05 3.70687e-06
6.4887e-05 0.00288404 -1.30971e-06
3.70687e-06 -1.30971e-06 0.00289287
0.00344499 5.7206e-05 -8.55149e-05
5.7206e-05 0.00168012 -3.08073e-06
-8.55149e-05 -3.08073e-06 0.00166578
0.0053945 5.89817e-05 0.00022119
5.89817e-05 0.00283143 2.4116e-06
0.00022119 2.4116e-06 0.0028401
0.00129435 6.62975e-05 3.72856e-05
6.62975e-05 0.000414667 2.00279e-06
3.72856e-05 2.00279e-06 0.000381764
0.000679491 8.11331e-06 1.62055e-05
8.11331e-06 -6.809e-05 1.63989e-06
1.62055e-05 1.63989e-06 -0.000140099
0.00531474 0.000185274 0.000112178
0.000185274 0.00280553 9.64583e-06
0.000112178 9.64583e-06 0.00278365
0.0026821 5.47591e-05 0.00011087
5.47591e-05 0.00111157 6.4157e-06
0.00011087 6.4157e-06 0.00105999
0.00120969 -7.36586e-05 -4.78973e-05
-7.36586e-05 0.000378671 6.00064e-06
-4.78973e-05 6.00064e-06 0.000339144
0.0012782 -5.97562e-05 -4.10311e-05
-5.97562e-05 0.00042142 6.20176e-06
-4.10311e-05 6.20176e-06 0.000385268
0.00142928 3.8722e-05 -1.73731e-05
3.8722e-05 0.000520879 5.49851e-06
-1.73731e-05 5.49851e-06 0.000479768
0.00157492 -0.000122011 -9.68598e-05
-0.000122011 0.000502552 1.52504e-05
-9.68598e-05 1.52504e-05 0.000435108
0.00343533 1.15729e-05 -9.08351e-05
1.15729e-05 0.00168104 -1.77659e-06
-9.08351e-05 -1.77659e-06 0.00166414
0.00155581 -4.47715e-05 7.0311e-05
-4.47715e-05 0.000562474 -3.04333e-06
7.0311e-05 -3.04333e-06 0.000536443
0.00144874 1.79005e-05 9.20218e-05
1.79005e-05 0.000533048 -6.99693e-06
9.20218e-05 -6.99693e-06 0.000496989
0.00155618 -5.2571e-05 6.76372e-05
-5.2571e-05 0.0005672 -6.09082e-06
6.76372e-05 -6.09082e-06 0.000541658
0.0015704 -8.54448e-05 -2.49541e-05
-8.54448e-05 0.000477799 1.07916e-06
-2.49541e-05 1.07916e-06 0.000409889
0.00153566 -0.000101909 -3.58929e-05
-0.000101909 0.000499924 3.16285e-06
-3.58929e-05 3.16285e-06 0.000420912
0.00156236 -0.000110181 -2.6272e-05
-0.000110181 0.000488433 2.26003e-06
-2.6272e-05 2.26003e-06 0.000417926
0.00201395 -0.000214788 -6.84185e-06
-0.000214788 0.00063214 1.81504e-06
-6.84185e-06 1.81504e-06 0.00049127
0.0053569 4.24409e-05 0.000215048
4.24409e-05 0.00280932 -1.36342e-07
0.000215048 -1.36342e-07 0.00281854
0.00180074 -2.07134e-05 0.000182065
-2.07134e-05 0.000698416 -7.93422e-06
0.000182065 -7.93422e-06 0.000682915
0.00241139 2.1734e-05 3.35466e-05
2.1734e-05 0.000968741 -9.4621e-07
3.35466e-05 -9.4621e-07 0.000908834
0.00152074 -8.23034e-05 4.25133e-05
-8.23034e-05 0.000447058 -5.0812e-06
4.25133e-05 -5.0812e-06 0.000375916
0.00151953 -9.54646e-05 4.43531e-05
-9.54646e-05 0.000456085 -8.12616e-06
4.43531e-05 -8.12616e-06 0.000382434
0.00192226 -0.000132225 1.14127e-05
-0.000132225 0.000528437 -2.9395e-06
1.14127e-05 -2.9395e-06 0.000405493
0.00165307 -0.000173823 1.52838e-05
-0.000173823 0.000397577 -5.54624e-06
1.52838e-05 -5.54624e-06 0.000263143
0.00114178 -2.09782e-05 0.000135514
-2.09782e-05 0.000329516 -1.44386e-05
0.000135514 -1.44386e-05 0.000317398
0.00126088 -7.80565e-06 1.16728e-05
-7.80565e-06 0.000377999 -1.0653e-05
1.16728e-05 -1.0653e-05 0.000287049
0.00197388 -0.000232949 1.27039e-05
-0.000232949 0.000635983 -6.22895e-06
1.27039e-05 -6.22895e-06 0.000486105
0.00123866 -0.000206499 7.79467e-06
-0.000206499 7.5304e-05 -2.60686e-06
7.79467e-06 -2.60686e-06 -9.67562e-05
0.00564731 0.000134335 -0.000226832
0.000134335 0.00297981 -1.83701e-05
-0.000226832 -1.83701e-05 0.00298225
0.00469909 -0.000195017 -0.000123312
-0.000195017 0.00247876 -9.06004e-06
-0.000123312 -9.06004e-06 0.00245413
0.00540373 -5.19579e-05 -0.000189144
-5.19579e-05 0.00285197 -1.23727e-05
-0.000189144 -1.23727e-05 0.00285041
0.000546636 0.000170099 -2.34218e-05
0.000170099 -7.24219e-05 -1.42967e-05
-2.34218e-05 -1.42967e-05 -0.000161606
0.00566435 0.00015646 -3.01392e-06
0.00015646 0.0029888 -1.82051e-06
-3.01392e-06 -1.82051e-06 0.00299069
0.00564862 6.43839e-05 -8.5041e-06
6.43839e-05 0.00298541 -1.08153e-06
-8.5041e-06 -1.08153e-06 0.00298632
0.000537033 0.00012014 -1.94489e-07
0.00012014 -0.000119099 -2.82885e-07
-1.94489e-07 -2.82885e-07 -0.000204508
0.00259994 -0.000124942 -5.51077e-05
-0.000124942 0.00122918 -1.55297e-06
-5.51077e-05 -1.55297e-06 0.00120345
0.000534345 0.000174516 -6.62701e-07
0.000174516 -8.71984e-05 -2.87268e-07
-6.62701e-07 -2.87268e-07 -0.00017793
0.00151584 0.000122612 3.68032e-05
0.000122612 0.000513637 7.27859e-07
3.68032e-05 7.27859e-07 0.000441651
0.000895662 0.000174064 8.3417e-08
0.000174064 3.68251e-05 -5.3531e-08
8.3417e-08 -5.3531e-08 -0.000121731
0.00372539 -0.000108884 0.000124152
-0.000108884 0.00187936 6.36765e-06
0.000124152 6.36765e-06 0.00187998
0.000628086 -3.68251e-05 3.18534e-06
-3.68251e-05 3.86997e-05 8.05065e-06
3.18534e-06 8.05065e-06 -1.75234e-06
0.000656187 8.96363e-05 1.71638e-05
8.96363e-05 -6.91274e-05 8.50917e-06
1.71638e-05 8.50917e-06 -0.000149977
0.000692828 0.000143827 2.18913e-05
0.000143827 -1.38916e-05 1.45906e-05
2.18913e-05 1.45906e-05 -0.000104139
0.000996966 0.000143699 1.34466e-05
0.000143699 -1.23626e-06 5.27355e-06
1.34466e-05 5.27355e-06 -0.000145041
0.00238624 5.46804e-05 7.89414e-05
5.46804e-05 0.00104648 1.05191e-05
7.89414e-05 1.05191e-05 0.000995521
0.000941094 0.000170394 1.12954e-05
0.000170394 2.96526e-05 6.1727e-06
1.12954e-05 6.1727e-06 -0.000121964
0.000910076 0.000184279 9.38554e-06
0.000184279 0.000121407 5.04307e-06
9.38554e-06 5.04307e-06 -4.61377e-05
0.00105925 0.000221376 4.71442e-06
0.000221376 6.28049e-05 1.52542e-06
4.71442e-06 1.52542e-06 -0.000130534
0.00270578 -0.000119436 5.38433e-05
-0.000119436 0.00127759 2.239e-06
5.38433e-05 2.239e-06 0.00127736
0.00297782 -0.000133541 1.08823e-05
-0.000133541 0.00144425 -3.78877e-07
1.08823e-05 -3.78877e-07 0.0014401
0.00561873 1.96173e-05 -0.000220937
1.96173e-05 0.00295503 -9.09491e-06
-0.000220937 -9.09491e-06 0.00296248
0.00553289 5.53394e-05 -0.000225883
5.53394e-05 0.00290794 -5.34613e-06
-0.000225883 -5.34613e-06 0.0029175
0.0054628 8.22817e-05 -1.84276e-07
8.22817e-05 0.00287756 -2.5035e-06
-1.84276e-07 -2.5035e-06 0.00288216
0.0034135 1.07825e-05 -9.97004e-05
1.07825e-05 0.00165993 -3.7888e-06
-9.97004e-05 -3.7888e-06 0.00164865
0.00165675 3.12657e-05 4.74098e-05
3.12657e-05 0.000509066 8.8525e-07
4.74098e-05 8.8525e-07 0.000448695
0.00351295 0.00010363 -8.70552e-05
0.00010363 0.00172339 -4.31888e-06
-8.70552e-05 -4.31888e-06 0.00170528
0.00169103 7.37364e-05 4.64492e-05
7.37364e-05 0.000531733 1.74335e-06
4.64492e-05 1.74335e-06 0.000466735
0.00542909 0.000140479 0.000224079
0.000140479 0.00286805 5.43264e-06
0.000224079 5.43264e-06 0.00286642
0.000606221 9.6856e-06 1.83034e-05
9.6856e-06 -0.000107907 4.31076e-07
1.83034e-05 4.31076e-07 -0.0001782
0.00270347 2.27648e-05 0.000111159
2.27648e-05 0.00112287 4.25229e-06
0.000111159 4.25229e-06 0.00107392
0.00102834 3.3971e-05 1.24027e-05
3.3971e-05 -1.72152e-05 1.20782e-06
1.24027e-05 1.20782e-06 -0.000137668
0.00260721 9.71245e-05 0.00011264
9.71245e-05 0.00107574 8.17449e-06
0.00011264 8.17449e-06 0.0010206
0.00104673 8.07946e-05 1.21113e-05
8.07946e-05 -4.41822e-06 2.48241e-06
1.21113e-05 2.48241e-06 -0.000133119
0.00165424 4.07568e-05 -0.000187343
4.07568e-05 0.000609576 1.58917e-06
-0.000187343 1.58917e-06 0.000601121
0.00126042 1.71495e-06 -3.47229e-05
1.71495e-06 0.000399345 1.69164e-06
-3.47229e-05 1.69164e-06 0.000363397
0.0014071 9.44932e-05 -6.15532e-06
9.44932e-05 0.000528346 6.92614e-06
-6.15532e-06 6.92614e-06 0.000476087
0.00122678 -7.37811e-05 -4.86299e-05
-7.37811e-05 0.000389477 6.66576e-06
-4.86299e-05 6.66576e-06 0.000351703
0.00168537 -6.52733e-05 -9.64169e-05
-6.52733e-05 0.000537714 8.19403e-06
-9.64169e-05 8.19403e-06 0.000477227
0.00163135 -0.000104884 -9.56694e-05
-0.000104884 0.000522636 1.33741e-05
-9.56694e-05 1.33741e-05 0.000458709
0.00154729 -0.000127308 -9.82214e-05
-0.000127308 0.000496943 1.56392e-05
-9.82214e-05 1.56392e-05 0.000426026
0.0020074 -0.000213045 -2.58754e-05
-0.000213045 0.000627137 9.25389e-06
-2.58754e-05 9.25389e-06 0.00048653
0.00543623 -8.44666e-05 2.03229e-06
-8.44666e-05 0.00286276 -1.42307e-06
2.03229e-06 -1.42307e-06 0.00286702
0.00150657 4.45117e-05 7.88451e-05
4.45117e-05 0.000532667 -2.76559e-06
7.88451e-05 -2.76559e-06 0.000509248
0.00113198 -8.07888e-07 -5.02068e-05
-8.07888e-07 0.000204771 8.98968e-07
-5.02068e-05 8.98968e-07 0.000143115
0.00158144 -5.00638e-05 -2.89724e-05
-5.00638e-05 0.000478008 1.55169e-06
-2.89724e-05 1.55169e-06 0.00041244
0.00293635 4.54956e-05 0.000142517
4.54956e-05 0.0014122 -3.09618e-06
0.000142517 -3.09618e-06 0.00140081
0.00191792 -7.48443e-05 -3.20541e-05
-7.48443e-05 0.000747664 2.42075e-07
-3.20541e-05 2.42075e-07 0.000667734
0.00157478 -0.000100364 -2.42827e-05
-0.000100364 0.000485923 1.5247e-06
-2.42827e-05 1.5247e-06 0.000417268
0.00181855 -0.000125665 -8.60409e-06
-0.000125665 0.000465865 1.48519e-06
-8.60409e-06 1.48519e-06 0.000342422
0.00198484 -0.00023403 -5.57792e-06
-0.00023403 0.000641965 1.83416e-06
-5.57792e-06 1.83416e-06 0.000491941
0.00184878 -0.000181954 -4.19492e-06
-0.000181954 0.000512226 1.03945e-06
-4.19492e-06 1.03945e-06 0.000378299
0.00125779 -0.000207924 2.82011e-07
-0.000207924 8.43881e-05 -1.56746e-07
2.82011e-07 -1.56746e-07 -8.75886e-05
0.000643868 1.28584e-05 1.88123e-05
1.28584e-05 -8.76137e-05 -1.17676e-06
1.88123e-05 -1.17676e-06 -0.000154813
0.00147265 1.58428e-05 3.37384e-05
1.58428e-05 0.00041463 -2.54066e-06
3.37384e-05 -2.54066e-06 0.000348176
0.00163499 -3.11039e-05 1.27974e-05
-3.11039e-05 0.000345089 -1.06484e-06
1.27974e-05 -1.06484e-06 0.00023351
0.00164317 -9.81969e-05 1.25318e-05
-9.81969e-05 0.00035723 -2.37334e-06
1.25318e-05 -2.37334e-06 0.000236316
0.00162945 -0.000147029 1.42064e-05
-0.000147029 0.000366202 -4.24822e-06
1.42064e-05 -4.24822e-06 0.000237445
0.00171496 -0.000157635 1.92372e-06
-0.000157635 0.000268122 -7.77785e-07
1.92372e-06 -7.77785e-07 0.000121265
0.00410345 0.00015862 0.000112949
0.00015862 0.0021174 -5.48227e-06
0.000112949 -5.48227e-06 0.00210418
0.00127539 -0.000189878 6.494e-06
-0.000189878 6.66597e-05 -2.08935e-06
6.494e-06 -2.08935e-06 -9.673e-05
0.000348058 -7.50504e-05 1.36233e-05
-7.50504e-05 -0.000160801 -1.30313e-05
1.36233e-05 -1.30313e-05 -0.000228632
0.000859797 -0.000174856 9.49255e-06
-0.000174856 2.49182e-05 -6.89456e-06
9.49255e-06 -6.89456e-06 -0.000133797
0.00131258 -0.000232472 8.98109e-06
-0.000232472 0.000150075 -2.96733e-06
8.98109e-06 -2.96733e-06 -3.3805e-05
0.0015011 -0.000263813 4.03755e-06
-0.000263813 0.000128108 4.25671e-07
4.03755e-06 4.25671e-07 -5.76789e-05
0.000425579 -1.57344e-05 7.30452e-06
-1.57344e-05 -9.17605e-05 -1.05859e-05
7.30452e-06 -1.05859e-05 -0.000144737
0.000684623 -3.2477e-05 1.03741e-06
-3.2477e-05 6.51667e-05 -4.40192e-06
1.03741e-06 -4.40192e-06 -4.57654e-05
0.00568413 0.000171701 -0.000238915
0.000171701 0.00300418 -1.91006e-05
-0.000238915 -1.91006e-05 0.00300421
0.00550097 4.59021e-05 -0.000206449
4.59021e-05 0.00289776 -1.53096e-05
-0.000206449 -1.53096e-05 0.00290163
0.000535295 0.000113004 -1.80588e-05
0.000113004 -0.000121737 -1.01329e-05
-1.80588e-05 -1.01329e-05 -0.000206925
0.00400687 -0.000163849 -0.000108561
-0.000163849 0.00205963 -5.01175e-06
-0.000108561 -5.01175e-06 0.00204691
0.000444122 0.000111337 -1.78978e-05
0.000111337 -0.00011975 -1.37454e-05
-1.78978e-05 -1.37454e-05 -0.000192777
0.000487937 0.000159376 -2.02071e-05
0.000159376 -0.000109981 -1.33026e-05
-2.02071e-05 -1.33026e-05 -0.0002024
0.000925688 0.000174603 -1.14985e-05
0.000174603 5.13877e-05 -5.18494e-06
-1.14985e-05 -5.18494e-06 -0.000106983
0.00353918 -0.000128926 7.33603e-06
-0.000128926 0.00177548 -4.25329e-07
7.33603e-06 -4.25329e-07 0.00177222
0.000528136 -4.81311e-05 2.18253e-07
-4.81311e-05 -1.60102e-05 4.69841e-07
2.18253e-07 4.69841e-07 -5.72024e-05
0.00165194 0.000116278 4.65318e-05
0.000116278 0.000520662 2.99231e-06
4.65318e-05 2.99231e-06 0.000449482
0.00159235 0.000164446 4.47107e-05
0.000164446 0.000519996 2.69121e-06
4.47107e-05 2.69121e-06 0.000440242
0.000986931 0.000145076 1.68834e-07
0.000145076 -4.86369e-06 -2.4425e-07
1.68834e-07 -2.4425e-07 -0.000149353
0.000622849 5.19445e-05 -6.62421e-07
5.19445e-05 8.85286e-06 1.78218e-07
-6.62421e-07 1.78218e-07 -5.18407e-05
0.00093882 0.000170689 4.81786e-07
0.000170689 2.86151e-05 3.23881e-07
4.81786e-07 3.23881e-07 -0.000123
0.000859081 0.000171277 7.79826e-07
0.000171277 8.80173e-05 -1.36457e-06
7.79826e-07 -1.36457e-06 -7.71961e-05
0.000914777 0.000211799 -7.08665e-07
0.000211799 -2.35287e-05 7.9654e-07
-7.08665e-07 7.9654e-07 -0.000216207
0.000670259 1.09133e-05 9.36724e-06
1.09133e-05 5.19482e-05 9.70139e-06
9.36724e-06 9.70139e-06 1.85898e-06
0.000597914 -6.45705e-05 -2.78998e-07
-6.45705e-05 2.30566e-05 6.53575e-06
-2.78998e-07 6.53575e-06 -1.13146e-05
0.000769768 5.52852e-05 3.2059e-06
5.52852e-05 0.000126393 4.51092e-06
3.2059e-06 4.51092e-06 1.89237e-05
0.0010278 0.000123346 1.29369e-05
0.000123346 6.43353e-08 4.29055e-06
1.29369e-05 4.29055e-06 -0.000138762
0.000953049 0.000160137 1.27749e-05
0.000160137 3.48975e-06 6.0383e-06
1.27749e-05 6.0383e-06 -0.000144836
0.00131608 0.000203901 6.17503e-06
0.000203901 7.53069e-05 1.75394e-06
6.17503e-06 1.75394e-06 -9.82359e-05
0.000915807 0.00016882 6.74438e-06
0.00016882 0.000182439 7.01635e-06
6.74438e-06 7.01635e-06 2.59923e-05
0.00111141 0.000215654 5.33804e-06
0.000215654 4.99974e-05 2.86616e-06
5.33804e-06 2.86616e-06 -0.000135278
0.00125421 0.000244573 5.58006e-06
0.000244573 0.000250261 5.67405e-07
5.58006e-06 5.67405e-07 3.53133e-05
0.00152141 0.000273794 3.74655e-07
0.000273794 0.000282692 2.87482e-07
3.74655e-07 2.87482e-07 7.53686e-05
0.00247918 -0.000112529 3.32929e-05
-0.000112529 0.00113822 2.90682e-06
3.32929e-05 2.90682e-06 0.00113948
0.00259509 -0.00012613 5.16992e-06
-0.00012613 0.00121425 -4.7784e-07
5.16992e-06 -4.7784e-07 0.00121174
0.00279715 -0.000143642 -4.30818e-05
-0.000143642 0.00134109 -2.45027e-06
-4.30818e-05 -2.45027e-06 0.0013336
0.00042687 4.42359e-07 5.1452e-06
4.42359e-07 -8.58467e-05 -8.98121e-06
5.1452e-06 -8.98121e-06 -0.000132348
0.00372526 0.000140338 9.88737e-05
0.000140338 0.00188839 -4.52516e-06
9.88737e-05 -4.52516e-06 0.00188037
0.00567508 0.000166341 -0.000241189
0.000166341 0.00299937 -1.70185e-05
-0.000241189 -1.70185e-05 0.00299994
0.00552759 5.82621e-05 -0.000222601
5.82621e-05 0.00290306 -7.48519e-06
-0.000222601 -7.48519e-06 0.00291215
0.000628286 8.50467e-05 -1.94301e-05
8.50467e-05 -9.32789e-05 -4.57678e-06
-1.94301e-05 -4.57678e-06 -0.00016873
0.000608166 3.80466e-05 -1.90329e-05
3.80466e-05 -0.000104867 -2.2119e-06
-1.90329e-05 -2.2119e-06 -0.000177757
0.00540463 -1.85656e-05 -0.000216432
-1.85656e-05 0.00283434 -1.20827e-06
-0.000216432 -1.20827e-06 0.00284465
0.00537538 1.78561e-05 -6.85331e-07
1.78561e-05 0.00281855 -3.09307e-07
-6.85331e-07 -3.09307e-07 0.00282845
0.000590613 5.61245e-07 -1.23565e-07
5.61245e-07 -0.000119006 -8.43476e-08
-1.23565e-07 -8.43476e-08 -0.000187872
0.00164085 2.9728e-05 4.71799e-05
2.9728e-05 0.000498828 1.56441e-06
4.71799e-05 1.56441e-06 0.000438003
0.00101189 3.77774e-05 3.45315e-08
3.77774e-05 -2.70667e-05 -1.38506e-07
3.45315e-08 -1.38506e-07 -0.000147878
0.000599295 7.19095e-05 -4.2339e-07
7.19095e-05 -0.000105557 -2.8743e-07
-4.2339e-07 -2.8743e-07 -0.000183975
0.00101456 8.24138e-05 -8.70066e-08
8.24138e-05 -2.20117e-05 -1.59278e-07
-8.70066e-08 -1.59278e-07 -0.000151236
0.000582878 -2.60231e-05 1.87753e-05
-2.60231e-05 -0.000125041 -7.92752e-07
1.87753e-05 -7.92752e-07 -0.000191684
0.00101195 1.46703e-05 1.22344e-05
1.46703e-05 -2.41796e-05 4.48868e-07
1.22344e-05 4.48868e-07 -0.000142686
0.00102124 5.75275e-05 1.21596e-05
5.75275e-05 -2.12726e-05 1.89831e-06
1.21596e-05 1.89831e-06 -0.000145275
0.00142951 5.62582e-05 2.16763e-06
5.62582e-05 5.22833e-05 1.68077e-07
2.16763e-06 1.68077e-07 -7.62215e-05
0.00104158 0.000101577 1.23982e-05
0.000101577 -1.56785e-06 3.2928e-06
1.23982e-05 3.2928e-06 -0.000135249
0.0014525 0.000122868 2.93935e-06
0.000122868 7.81442e-05 3.29617e-07
2.93935e-06 3.29617e-07 -6.49576e-05
0.00537324 -4.50563e-05 -0.000222658
-4.50563e-05 0.00282014 4.0294e-07
-0.000222658 4.0294e-07 0.00282834
0.00125428 -0.000125722 -3.67673e-05
-0.000125722 0.000401468 3.81207e-06
-3.67673e-05 3.81207e-06 0.000364263
-0.000255501 -1.49219e-06 -1.30375e-05
-1.49219e-06 -0.000610762 2.12617e-06
-1.30375e-05 2.12617e-06 -0.00069072
0.0016667 -4.482e-05 -9.68849e-05
-4.482e-05 0.000523366 5.93706e-06
-9.68849e-05 5.93706e-06 0.000463654
0.00445477 0.00031491 7.74515e-06
0.00031491 0.00237415 5.9997e-06
7.74515e-06 5.9997e-06 0.00231431
0.00259931 -0.000165917 -9.82957e-05
-0.000165917 0.00113382 1.57429e-05
-9.82957e-05 1.57429e-05 0.00106285
0.00166843 -8.557e-05 -9.58768e-05
-8.557e-05 0.000533554 1.08022e-05
-9.58768e-05 1.08022e-05 0.000472114
0.00168681 -0.000118154 -2.66652e-05
-0.000118154 0.000386534 5.25273e-06
-2.66652e-05 5.25273e-06 0.000262803
0.0020313 -0.000189319 -2.46312e-05
-0.000189319 0.000619181 7.68643e-06
-2.46312e-05 7.68643e-06 0.000485993
0.00201849 -0.000236287 -2.35147e-05
-0.000236287 0.00066232 9.2216e-06
-2.35147e-05 9.2216e-06 0.000511892
0.00127662 -0.000209392 -6.62253e-06
-0.000209392 9.32662e-05 2.14185e-06
-6.62253e-06 2.14185e-06 -7.86542e-05
0.000586879 7.7774e-06 -5.96771e-08
7.7774e-06 -0.000119213 4.66051e-08
-5.96771e-08 4.66051e-08 -0.000187339
0.00158906 -6.25733e-05 -2.85258e-05
-6.25733e-05 0.000482264 3.19382e-07
-2.85258e-05 3.19382e-07 0.000418793
0.00120475 -2.67401e-05 -6.77829e-06
-2.67401e-05 9.23684e-05 3.3903e-07
-6.77829e-06 3.3903e-07 -2.35044e-05
0.00182179 -0.000100024 -5.07803e-06
-0.000100024 0.000460065 7.66478e-07
-5.07803e-06 7.66478e-07 0.000340599
0.00420421 0.00014778 -5.74269e-06
0.00014778 0.0021746 -8.01257e-07
-5.74269e-06 -8.01257e-07 0.00216311
0.00148005 -6.90708e-05 -2.28875e-06
-6.90708e-05 0.000512891 1.25903e-08
-2.28875e-06 1.25903e-08 0.000434492
0.00131374 -0.000199305 1.00862e-06
-0.000199305 0.000300537 -1.16358e-06
1.00862e-06 -1.16358e-06 0.000142192
0.00165192 -0.000146514 -5.48882e-06
-0.000146514 0.000378964 1.18704e-06
-5.48882e-06 1.18704e-06 0.000250276
0.00155594 -0.000153333 -2.47762e-06
-0.000153333 0.000173079 5.01698e-07
-2.47762e-06 5.01698e-07 2.66178e-05
0.00124506 -0.000228947 4.2299e-07
-0.000228947 0.000110117 1.94397e-08
4.2299e-07 1.94397e-08 -7.45616e-05
0.00149907 -0.000200591 3.62901e-07
-0.000200591 0.000194691 -1.29269e-07
3.62901e-07 -1.29269e-07 3.18613e-05
0.00151385 -0.000263304 6.21052e-07
-0.000263304 0.000140169 -4.57631e-09
6.21052e-07 -4.57631e-09 -4.49177e-05
0.000514321 -2.17855e-05 -7.59693e-07
-2.17855e-05 -4.23352e-05 1.47708e-07
-7.59693e-07 1.47708e-07 -9.57429e-05
0.000655021 -5.06874e-05 -5.55746e-07
-5.06874e-05 4.68051e-05 -4.74174e-08
-5.55746e-07 -4.74174e-08 -6.64952e-05
0.00100243 -1.26673e-05 1.2151e-05
-1.26673e-05 -2.63749e-05 -8.67885e-07
1.2151e-05 -8.67885e-07 -0.000143867
0.00166548 -5.96679e-05 1.21398e-05
-5.96679e-05 0.000364246 -1.64465e-06
1.21398e-05 -1.64465e-06 0.000249239
0.00167419 -4.87787e-05 1.17993e-06
-4.87787e-05 0.000214215 -1.06868e-08
1.17993e-06 -1.06868e-08 8.83784e-05
0.0014391 -0.000120587 3.2111e-06
-0.000120587 8.97689e-05 -3.42537e-07
3.2111e-06 -3.42537e-07 -4.87475e-05
0.00166646 -0.000189827 3.9295e-06
-0.000189827 0.000267727 -1.04207e-06
3.9295e-06 -1.04207e-06 0.000114125
0.00170871 -0.00019018 -7.59529e-07
-0.00019018 0.000142971 4.91071e-07
-7.59529e-07 4.91071e-07 3.05204e-06
0.000376015 -4.75493e-05 1.07634e-05
-4.75493e-05 -0.000130708 -1.18876e-05
1.07634e-05 -1.18876e-05 -0.000190221
0.00157983 -0.000245823 2.04257e-06
-0.000245823 0.000139114 4.4992e-07
2.04257e-06 4.4992e-07 -2.96102e-05
0.000682143 -0.000146225 5.04689e-06
-0.000146225 6.79631e-06 -7.00059e-06
5.04689e-06 -7.00059e-06 -0.000149695
0.00101906 -0.000230797 9.53687e-06
-0.000230797 3.11234e-05 -3.45359e-06
9.53687e-06 -3.45359e-06 -0.000167272
0.00175331 -0.000305982 3.56391e-06
-0.000305982 0.000322382 3.29504e-08
3.56391e-06 3.29504e-08 0.000115424
0.00185436 -0.000301313 -1.68437e-06
-0.000301313 0.000275766 3.2425e-06
-1.68437e-06 3.2425e-06 0.000100038
0.000756347 -9.27789e-05 2.82679e-06
-9.27789e-05 0.000103748 -4.50867e-06
2.82679e-06 -4.50867e-06 -2.62784e-05
0.000615554 -1.83412e-05 6.09285e-07
-1.83412e-05 2.82389e-05 -3.72741e-06
6.09285e-07 -3.72741e-06 -7.02806e-05
0.000986417 -0.000147591 1.72784e-07
-0.000147591 0.000256291 1.13292e-07
1.72784e-07 1.13292e-07 8.85753e-05
0.00056876 9.20229e-05 -1.75603e-05
9.20229e-05 -0.000116049 -7.69992e-06
-1.75603e-05 -7.69992e-06 -0.000197448
0.00334726 -0.000153323 -7.48233e-05
-0.000153323 0.00166766 -2.54712e-06
-7.48233e-05 -2.54712e-06 0.00165825
0.000419162 -6.07986e-05 1.67963e-06
-6.07986e-05 -7.40755e-05 -7.70816e-06
1.67963e-06 -7.70816e-06 -0.0001173
0.00049399 0.000138307 -1.88128e-05
0.000138307 -0.000123372 -1.24318e-05
-1.88128e-05 -1.24318e-05 -0.000212971
0.000975938 0.000146674 -1.38048e-05
0.000146674 -9.07323e-06 -5.74763e-06
-1.38048e-05 -5.74763e-06 -0.000154264
0.000374916 4.39136e-05 -1.1721e-05
4.39136e-05 -0.000133943 -1.1611e-05
-1.1721e-05 -1.1611e-05 -0.000192649
0.000764707 0.000156117 -6.98114e-06
0.000156117 3.029e-05 -7.51058e-06
-6.98114e-06 -7.51058e-06 -0.000132284
0.000940762 0.000171186 -1.11552e-05
0.000171186 3.0226e-05 -5.75494e-06
-1.11552e-05 -5.75494e-06 -0.000121425
0.000755605 0.000200764 -7.22401e-06
0.000200764 -0.000118665 -8.96038e-07
-7.22401e-06 -8.96038e-07 -0.000310364
0.000534725 9.57854e-08 1.75258e-06
9.57854e-08 -2.55165e-05 4.08072e-07
1.75258e-06 4.08072e-07 -7.43137e-05
0.000523578 -6.99284e-05 -8.69798e-08
-6.99284e-05 -1.89176e-05 2.69776e-07
-8.69798e-08 2.69776e-07 -5.40429e-05
0.000633235 1.30871e-05 6.82679e-07
1.30871e-05 3.96785e-05 3.83718e-07
6.82679e-07 3.83718e-07 -5.83557e-05
0.00100334 0.000124237 -2.67464e-08
0.000124237 -1.18427e-05 -2.40693e-07
-2.67464e-08 -2.40693e-07 -0.000151367
0.000971388 0.000162728 4.48284e-07
0.000162728 1.53956e-05 -2.11664e-07
4.48284e-07 -2.11664e-07 -0.000133581
0.00132991 0.000203759 3.22915e-07
0.000203759 8.68189e-05 4.16897e-08
3.22915e-07 4.16897e-08 -8.67673e-05
0.000800309 0.000149973 -5.5703e-07
0.000149973 0.000116885 4.3534e-07
-5.5703e-07 4.3534e-07 -3.67296e-05
0.00121121 0.000221881 -4.92982e-08
0.000221881 0.000110881 4.43626e-08
-4.92982e-08 4.43626e-08 -7.48769e-05
0.00113596 0.000234454 9.66805e-07
0.000234454 0.000181222 -1.96854e-06
9.66805e-07 -1.96854e-06 -3.22383e-05
0.0011296 0.000247218 -8.30039e-07
0.000247218 5.12219e-05 2.95684e-07
-8.30039e-07 2.95684e-07 -0.000152911
0.000564761 -6.90276e-05 -1.67071e-06
-6.90276e-05 -5.04169e-06 5.53567e-06
-1.67071e-06 5.53567e-06 -3.41715e-05
0.000764657 0.000108306 5.06658e-06
0.000108306 0.000109001 4.48895e-06
5.06658e-06 4.48895e-06 -1.94629e-05
0.000690969 -8.24979e-06 1.02027e-06
-8.24979e-06 6.77995e-05 4.18824e-06
1.02027e-06 4.18824e-06 -7.74939e-06
0.000790831 0.000102779 1.58615e-06
0.000102779 0.000161137 4.6106e-08
1.58615e-06 4.6106e-08 5.81872e-06
0.00138519 0.000181534 4.91948e-06
0.000181534 8.12524e-05 7.57119e-07
4.91948e-06 7.57119e-07 -8.22667e-05
0.00124427 0.000217904 6.98254e-06
0.000217904 7.83702e-05 2.39823e-06
6.98254e-06 2.39823e-06 -0.000102894
0.00165687 0.000271862 1.4283e-06
0.000271862 0.000175751 -1.24444e-07
1.4283e-06 -1.24444e-07 -6.96425e-06
0.00127675 0.000220903 3.14338e-06
0.000220903 0.000351734 4.36967e-06
3.14338e-06 4.36967e-06 0.000150222
0.00156935 0.000289665 5.42669e-08
0.000289665 0.000253831 -5.90648e-08
5.42669e-08 -5.90648e-08 4.93285e-05
0.00150866 0.000285313 2.81259e-06
0.000285313 0.000344056 -1.5378e-06
2.81259e-06 -1.5378e-06 0.000105736
0.00173057 0.000297108 4.69411e-07
0.000297108 0.000338115 2.07306e-07
4.69411e-07 2.07306e-07 0.000127003
0.000638307 1.32598e-06 2.15849e-06
1.32598e-06 1.64244e-05 2.26138e-06
2.15849e-06 2.26138e-06 -3.23386e-05
0.000556308 -4.47591e-05 6.56902e-07
-4.47591e-05 -3.48135e-05 4.53875e-06
6.56902e-07 4.53875e-06 -5.37771e-05
0.00237658 -9.78938e-05 2.84655e-05
-9.78938e-05 0.00106899 3.3102e-06
2.84655e-05 3.3102e-06 0.0010739
0.00242268 -0.000110142 3.11716e-06
-0.000110142 0.00110436 -3.20829e-07
3.11716e-06 -3.20829e-07 0.00110608
0.00250621 -0.000123733 -3.55622e-05
-0.000123733 0.00116191 -2.68096e-06
-3.55622e-05 -2.68096e-06 0.00115981
0.00044937 8.27111e-06 3.94748e-06
8.27111e-06 -7.42858e-05 -7.42966e-06
3.94748e-06 -7.42966e-06 -0.000112631
0.00334048 0.000128099 8.1269e-05
0.000128099 0.00165662 -3.77722e-06
8.1269e-05 -3.77722e-06 0.00165202
0.000532243 -1.62114e-06 -3.41984e-07
-1.62114e-06 -2.6246e-05 1.74064e-07
-3.41984e-07 1.74064e-07 -7.31037e-05
0.00383569 0.000130204 -4.07286e-06
0.000130204 0.00195043 -5.85117e-07
-4.07286e-06 -5.85117e-07 0.00194478
0.000620227 9.52567e-05 -1.89931e-05
9.52567e-05 -9.1696e-05 -6.14529e-06
-1.89931e-05 -6.14529e-06 -0.000171413
0.000626507 3.23532e-05 -1.83231e-05
3.23532e-05 -9.70412e-05 -3.15913e-06
-1.83231e-05 -3.15913e-06 -0.000169943
0.000997195 8.37594e-05 -1.19739e-05
8.37594e-05 -3.17302e-05 -2.78448e-06
-1.19739e-05 -2.78448e-06 -0.000161364
0.000994184 3.97815e-05 -1.23606e-05
3.97815e-05 -3.77782e-05 -1.46689e-06
-1.23606e-05 -1.46689e-06 -0.000158819
0.000640062 -6.18834e-06 -1.90301e-05
-6.18834e-06 -9.37004e-05 -7.26513e-07
-1.90301e-05 -7.26513e-07 -0.000160565
0.00544447 -9.51194e-05 -0.000230055
-9.51194e-05 0.00286735 3.43222e-06
-0.000230055 3.43222e-06 0.00287257
0.000625482 -4.5286e-07 1.41174e-07
-4.5286e-07 -0.000100978 -4.29765e-07
1.41174e-07 -4.29765e-07 -0.000167517
0.00100516 1.9361e-05 -3.88784e-08
1.9361e-05 -2.83538e-05 -1.136e-07
-3.88784e-08 -1.136e-07 -0.000147033
0.00101862 5.92222e-05 -5.85846e-08
5.92222e-05 -2.31505e-05 -9.73448e-08
-5.85846e-08 -9.73448e-08 -0.000147463
0.00142999 5.54646e-05 -5.68863e-08
5.54646e-05 5.33298e-05 5.90014e-08
-5.68863e-08 5.90014e-08 -7.52921e-05
0.00101442 0.000103432 -9.25407e-08
0.000103432 -1.57439e-05 -2.26135e-07
-9.25407e-08 -2.26135e-07 -0.000150219
0.0014402 0.000123865 -1.38257e-08
0.000123865 7.0977e-05 -4.73894e-08
-1.38257e-08 -4.73894e-08 -7.26527e-05
0.00100424 -2.68762e-07 1.21927e-05
-2.68762e-07 -2.56767e-05 -2.99481e-07
1.21927e-05 -2.99481e-07 -0.000143334
0.00142098 3.02686e-05 2.35702e-06
3.02686e-05 5.17665e-05 1.07784e-07
2.35702e-06 1.07784e-07 -7.34049e-05
0.00144101 8.98909e-05 2.29833e-06
8.98909e-05 6.10811e-05 1.65373e-07
2.29833e-06 1.65373e-07 -7.37354e-05
0.00175148 8.00605e-05 -1.72398e-06
8.00605e-05 9.55717e-05 -5.13757e-07
-1.72398e-06 -5.13757e-07 -1.09246e-05
0.00143992 0.000154984 3.67009e-06
0.000154984 8.58709e-05 6.02691e-07
3.67009e-06 6.02691e-07 -6.70935e-05
0.00175289 0.00016546 -4.08949e-07
0.00016546 0.000123411 -1.13693e-06
-4.08949e-07 -1.13693e-06 -6.27382e-06
0.000608202 1.91146e-06 -1.8179e-05
1.91146e-06 -0.000105115 1.05478e-06
-1.8179e-05 1.05478e-06 -0.000174725
0.00166431 -2.30332e-05 -9.67345e-05
-2.30332e-05 0.000520881 3.87566e-06
-9.67345e-05 3.87566e-06 0.000463279
0.000749409 -2.11096e-05 -1.42095e-05
-2.11096e-05 -0.000174596 1.6814e-06
-1.42095e-05 1.6814e-06 -0.000294949
0.00198795 -0.000100622 -2.3568e-05
-0.000100622 0.000555279 3.74e-06
-2.3568e-05 3.74e-06 0.000437434
0.00440287 0.000125846 -0.000141944
0.000125846 0.00228603 8.23622e-06
-0.000141944 8.23622e-06 0.0022785
0.00258415 -0.000107943 -8.8916e-05
-0.000107943 0.00115126 1.21615e-05
-8.8916e-05 1.21615e-05 0.00108832
0.00193375 -0.000241854 -1.88493e-05
-0.000241854 0.000670205 7.84155e-06
-1.88493e-05 7.84155e-06 0.0005095
0.00165601 -0.000144862 -2.46134e-05
-0.000144862 0.000380628 6.311e-06
-2.46134e-05 6.311e-06 0.000252288
0.00139355 -0.000148832 -5.84739e-06
-0.000148832 7.59754e-05 1.2495e-06
-5.84739e-06 1.2495e-06 -7.00692e-05
0.00172615 -0.000211626 -7.09943e-06
-0.000211626 0.000324876 2.15872e-06
-7.09943e-06 2.15872e-06 0.000162555
0.00119573 -0.000226797 -7.61324e-06
-0.000226797 8.08116e-05 2.44026e-06
-7.61324e-06 2.44026e-06 -0.000104871
0.00153095 -0.000263292 -2.54688e-06
-0.000263292 0.000154045 -4.90448e-07
-2.54688e-06 -4.90448e-07 -3.04205e-05
0.000619249 -3.10956e-05 -9.62371e-06
-3.10956e-05 1.75313e-05 1.05974e-05
-9.62371e-06 1.05974e-05 -3.71212e-05
0.000672052 -7.01726e-05 -2.26058e-06
-7.01726e-05 5.7836e-05 3.45184e-06
-2.26058e-06 3.45184e-06 -5.91607e-05
0.000871701 -8.122e-06 -3.06473e-07
-8.122e-06 -0.000102733 -6.25939e-08
-3.06473e-07 -6.25939e-08 -0.000221014
0.00167279 -6.06706e-05 -5.60954e-06
-6.06706e-05 0.000367403 5.80113e-07
-5.60954e-06 5.80113e-07 0.00025247
0.00169901 -4.51143e-05 -2.13611e-06
-4.51143e-05 0.000225084 2.60321e-07
-2.13611e-06 2.60321e-07 0.000101681
0.00155725 -0.000122489 -2.25318e-07
-0.000122489 0.000159517 1.34996e-07
-2.25318e-07 1.34996e-07 2.0422e-05
0.000530271 -5.86432e-05 -1.41272e-07
-5.86432e-05 -4.25019e-05 3.38031e-07
-1.41272e-07 3.38031e-07 -0.000104069
0.00085208 -0.000169809 -7.86804e-07
-0.000169809 0.000103117 -3.71863e-07
-7.86804e-07 -3.71863e-07 -5.67086e-05
0.000995842 -0.000226949 2.23155e-06
-0.000226949 1.99337e-05 -1.10222e-06
2.23155e-06 -1.10222e-06 -0.000177068
0.00168384 -0.000188187 -2.57357e-06
-0.000188187 0.000276541 6.50683e-07
-2.57357e-06 6.50683e-07 0.000122328
0.0017738 -0.000193929 4.78139e-07
-0.000193929 0.000175354 -2.65927e-08
4.78139e-07 -2.65927e-08 3.85946e-05
0.00172189 -0.000307317 -1.91315e-06
-0.000307317 0.000307391 3.08859e-07
-1.91315e-06 3.08859e-07 9.90272e-05
0.00158188 -0.000245373 4.39274e-07
-0.000245373 0.000141483 -1.0356e-07
4.39274e-07 -1.0356e-07 -2.67964e-05
0.00180444 -0.000300437 6.72306e-07
-0.000300437 0.000241336 5.75076e-07
6.72306e-07 5.75076e-07 6.55571e-05
0.000730297 -0.000104822 -1.34195e-07
-0.000104822 8.81902e-05 -1.94404e-07
-1.34195e-07 -1.94404e-07 -4.3727e-05
0.000593405 -9.09238e-05 -6.17397e-07
-9.09238e-05 1.30809e-05 -7.21749e-07
-6.17397e-07 -7.21749e-07 -0.000141107
0.000667313 -2.97098e-05 3.93965e-08
-2.97098e-05 5.71837e-05 1.85463e-07
3.93965e-08 1.85463e-07 -4.23166e-05
0.00166244 -1.82401e-05 1.01011e-06
-1.82401e-05 0.000201045 -8.34585e-09
1.01011e-06 -8.34585e-09 7.79061e-05
0.00172599 -8.08897e-05 7.68348e-07
-8.08897e-05 0.000243083 2.98668e-07
7.68348e-07 2.98668e-07 0.000115705
0.00166415 -6.59588e-05 -2.12333e-06
-6.59588e-05 6.43223e-05 1.07022e-06
-2.12333e-06 1.07022e-06 -4.37182e-05
0.00171075 -0.000156148 -2.42808e-06
-0.000156148 0.000109407 1.17589e-06
-2.42808e-06 1.17589e-06 -1.69835e-05
0.00160286 -0.000224521 2.00893e-07
-0.000224521 0.000117444 1.45644e-06
2.00893e-07 1.45644e-06 -3.36494e-05
0.00178912 -0.000216291 -1.98242e-06
-0.000216291 0.000123669 1.24826e-06
-1.98242e-06 1.24826e-06 7.97439e-06
0.000683852 -0.000128601 3.92044e-06
-0.000128601 5.06399e-05 -5.0089e-06
3.92044e-06 -5.0089e-06 -9.47235e-05
0.00168049 -0.000277882 -2.12328e-06
-0.000277882 0.000126839 2.06306e-06
-2.12328e-06 2.06306e-06 -2.7972e-05
0.00116095 -0.000233735 2.81392e-06
-0.000233735 0.000222533 -4.90913e-06
2.81392e-06 -4.90913e-06 1.91812e-05
0.00126758 -0.000292797 5.89231e-06
-0.000292797 0.000118237 -1.85811e-06
5.89231e-06 -1.85811e-06 -0.00010942
0.00187704 -0.000345004 1.11098e-06
-0.000345004 0.000339864 3.28699e-06
1.11098e-06 3.28699e-06 0.000126844
0.00196269 -0.000326233 -3.26182e-06
-0.000326233 0.000300591 3.87925e-06
-3.26182e-06 3.87925e-06 0.000137702
0.000612871 -2.10632e-05 7.56332e-07
-2.10632e-05 2.45884e-05 -3.31944e-06
7.56332e-07 -3.31944e-06 -6.09393e-05
0.00075886 -0.00014398 1.13296e-06
-0.00014398 8.6555e-05 8.17091e-08
1.13296e-06 8.17091e-08 -7.22232e-05
0.00049813 -7.44739e-05 -5.42861e-07
-7.44739e-05 -1.89324e-05 -1.21706e-07
-5.42861e-07 -1.21706e-07 -0.000171582
0.00126992 -0.000208836 -2.15754e-06
-0.000208836 0.000396353 1.83062e-06
-2.15754e-06 1.83062e-06 0.00021557
0.000975764 0.000125241 -1.34704e-05
0.000125241 -2.56552e-05 -4.68991e-06
-1.34704e-05 -4.68991e-06 -0.000165883
0.000462701 -7.09532e-05 1.22546e-06
-7.09532e-05 -5.49357e-05 -5.96514e-06
1.22546e-06 -5.96514e-06 -8.96581e-05
0.000402494 -1.76546e-05 -3.35993e-06
-1.76546e-05 -9.86154e-05 -9.6383e-06
-3.35993e-06 -9.6383e-06 -0.000147302
0.000549229 -2.06614e-05 5.82508e-07
-2.06614e-05 -6.26865e-06 -4.69972e-06
5.82508e-07 -4.69972e-06 -0.00010259
0.000985048 0.000165328 -1.28049e-05
0.000165328 2.46086e-05 -6.6719e-06
-1.28049e-05 -6.6719e-06 -0.000125077
0.00134728 0.000203745 -6.02679e-06
0.000203745 0.000100354 -1.76152e-06
-6.02679e-06 -1.76152e-06 -7.3273e-05
0.000675441 0.000127974 -4.54062e-06
0.000127974 4.49656e-05 -4.89653e-06
-4.54062e-06 -4.89653e-06 -0.000105229
0.00111858 0.000232781 -4.88842e-06
0.000232781 0.000171176 -4.79112e-06
-4.88842e-06 -4.79112e-06 -4.16934e-05
0.00132551 0.000229105 -6.21152e-06
0.000229105 0.000180759 -2.62749e-06
-6.21152e-06 -2.62749e-06 -5.64667e-06
0.000709452 0.000218033 -3.78356e-06
0.000218033 -0.000195567 1.51328e-06
-3.78356e-06 1.51328e-06 -0.00039625
0.000533233 -6.54001e-05 -2.01405e-07
-6.54001e-05 -2.59135e-05 1.25986e-07
-2.01405e-07 1.25986e-07 -5.37533e-05
0.000747311 9.60891e-05 3.5701e-07
9.60891e-05 0.00010539 -2.81172e-07
3.5701e-07 -2.81172e-07 -2.47589e-05
0.00060527 -2.47086e-05 -5.83046e-07
-2.47086e-05 2.01943e-05 7.2141e-07
-5.83046e-07 7.2141e-07 -5.53148e-05
0.000789496 7.32966e-05 1.43253e-06
7.32966e-05 0.000158019 -8.78177e-07
1.43253e-06 -8.78177e-07 7.45805e-06
0.00139124 0.000181494 2.29217e-07
0.000181494 8.67033e-05 -2.82578e-07
2.29217e-07 -2.82578e-07 -7.70349e-05
0.00126024 0.000217782 4.02272e-07
0.000217782 9.33406e-05 2.65858e-08
4.02272e-07 2.65858e-08 -8.796e-05
0.00164739 0.000271626 2.08524e-07
0.000271626 0.000169013 1.52729e-07
2.08524e-07 1.52729e-07 -1.39762e-05
0.00105754 0.000203641 7.75834e-07
0.000203641 0.000227784 6.06687e-07
7.75834e-07 6.06687e-07 2.88834e-05
0.00167152 0.000293872 -1.24336e-06
0.000293872 0.000318309 -2.11424e-07
-1.24336e-06 -2.11424e-07 0.000113566
0.0012062 0.000261004 6.36376e-07
0.000261004 0.0001662 -2.59269e-06
6.36376e-07 -2.59269e-06 -7.08685e-05
0.0015625 0.000285764 -2.27807e-06
0.000285764 0.000242766 2.88586e-07
-2.27807e-06 2.88586e-07 3.25232e-05
0.000548017 -5.52607e-05 1.8515e-07
-5.52607e-05 -3.00401e-05 4.75842e-06
1.8515e-07 4.75842e-06 -5.26393e-05
0.000682131 -1.43249e-05 1.44495e-06
-1.43249e-05 5.36484e-05 3.02614e-06
1.44495e-06 3.02614e-06 -7.37621e-06
0.000998182 0.000165435 1.59936e-06
0.000165435 0.000242083 1.6185e-06
1.59936e-06 1.6185e-06 7.26e-05
0.000833297 5.87956e-05 -9.22508e-07
5.87956e-05 0.000189409 2.68101e-06
-9.22508e-07 2.68101e-06 5.81357e-05
0.00112827 0.000157445 3.01615e-07
0.000157445 0.00034634 -1.79196e-06
3.01615e-07 -1.79196e-06 0.000169427
0.00171505 0.000239949 1.10533e-06
0.000239949 0.000163731 -1.4028e-06
1.10533e-06 -1.4028e-06 1.86129e-07
0.00152874 0.000288153 1.52646e-06
0.000288153 0.000164182 1.93601e-07
1.52646e-06 1.93601e-07 -3.42913e-05
0.0017886 0.00030967 3.06089e-07
0.00030967 0.000208321 -3.39754e-07
3.06089e-07 -3.39754e-07 3.1199e-05
0.00140242 0.000269244 2.30888e-06
0.000269244 0.000398659 5.16801e-06
2.30888e-06 5.16801e-06 0.000164403
0.00182071 0.00034628 1.56214e-06
0.00034628 0.000346656 -2.80235e-07
1.56214e-06 -2.80235e-07 0.000134025
0.000791079 0.000235447 2.71177e-06
0.000235447 -0.000139395 -1.71656e-06
2.71177e-06 -1.71656e-06 -0.000368657
0.000635559 -3.02953e-06 2.49312e-06
-3.02953e-06 1.57693e-05 2.28296e-06
2.49312e-06 2.28296e-06 -3.45689e-05
0.000688542 4.23001e-05 1.7045e-07
4.23001e-05 7.47953e-05 1.02224e-06
1.7045e-07 1.02224e-06 -7.85313e-06
0.00065272 1.11733e-05 1.89939e-06
1.11733e-05 2.69125e-05 2.22267e-06
1.89939e-06 2.22267e-06 -2.14387e-05
0.000626657 -1.97931e-05 -5.40182e-07
-1.97931e-05 1.17145e-05 1.13787e-08
-5.40182e-07 1.13787e-08 -3.8156e-05
0.00125251 -5.17984e-05 9.97177e-07
-5.17984e-05 0.000373098 2.63902e-06
9.97177e-07 2.63902e-06 0.000359914
0.000925097 -5.19375e-05 5.96917e-07
-5.19375e-05 0.000183976 -8.85941e-08
5.96917e-07 -8.85941e-08 0.000166844
0.000900357 -4.97538e-05 2.37163e-05
-4.97538e-05 0.000180677 7.3156e-06
2.37163e-05 7.3156e-06 0.000182803
0.00234214 -9.56748e-05 3.2332e-06
-9.56748e-05 0.00104761 -2.85051e-07
3.2332e-06 -2.85051e-07 0.00105299
0.00236562 -0.000107105 -3.24528e-05
-0.000107105 0.00106992 -3.03591e-06
-3.24528e-05 -3.03591e-06 0.00107228
0.00048887 3.01912e-05 4.05774e-07
3.01912e-05 -5.23884e-05 -6.11685e-06
4.05774e-07 -6.11685e-06 -8.47112e-05
0.00300783 0.000129872 5.11026e-05
0.000129872 0.00145545 -3.08066e-06
5.11026e-05 -3.08066e-06 0.001451
0.00053601 7.57289e-06 -3.03194e-07
7.57289e-06 -2.3935e-05 2.53914e-07
-3.03194e-07 2.53914e-07 -6.29015e-05
0.00347982 0.000118975 -4.9332e-06
0.000118975 0.001736 -4.49321e-07
-4.9332e-06 -4.49321e-07 0.00173366
0.000621458 -4.08075e-06 -5.95e-06
-4.08075e-06 2.3847e-05 9.16232e-06
-5.95e-06 9.16232e-06 -2.35287e-05
0.00392718 0.000117824 -0.000121812
0.000117824 0.00200112 6.42616e-06
-0.000121812 6.42616e-06 0.00199803
0.000994135 0.0001054 -1.25838e-05
0.0001054 -2.61476e-05 -3.67896e-06
-1.25838e-05 -3.67896e-06 -0.000161339
0.00100379 6.2973e-05 -1.2116e-05
6.2973e-05 -3.13011e-05 -2.0821e-06
-1.2116e-05 -2.0821e-06 -0.000156146
0.00144192 0.000121695 -3.5396e-06
0.000121695 7.22637e-05 -4.72292e-07
-3.5396e-06 -4.72292e-07 -7.14544e-05
0.00143007 5.48599e-05 -2.54777e-06
5.48599e-05 5.43835e-05 -2.50276e-08
-2.54777e-06 -2.50276e-08 -7.43661e-05
0.00100306 2.29664e-05 -1.2324e-05
2.29664e-05 -3.00405e-05 -7.26084e-07
-1.2324e-05 -7.26084e-07 -0.000148895
0.000593178 2.58686e-05 -1.87638e-05
2.58686e-05 -0.000119451 -5.78803e-08
-1.87638e-05 -5.78803e-08 -0.000185921
0.00100202 2.1024e-06 4.9936e-09
2.1024e-06 -2.72254e-05 -1.02345e-07
4.9936e-09 -1.02345e-07 -0.000144913
0.00141703 3.18998e-05 -6.96791e-08
3.18998e-05 4.9701e-05 2.86086e-08
-6.96791e-08 2.86086e-08 -7.55984e-05
0.00144308 8.74744e-05 1.15539e-08
8.74744e-05 6.37058e-05 -7.0539e-09
1.15539e-08 -7.0539e-09 -7.10925e-05
0.00179672 8.03097e-05 -2.23986e-08
8.03097e-05 0.000117989 2.55284e-07
-2.23986e-08 2.55284e-07 1.40507e-05
0.00142843 0.000154321 -2.00018e-07
0.000154321 8.1075e-05 -6.01688e-08
-2.00018e-07 -6.01688e-08 -7.20971e-05
0.00174608 0.000163086 -2.60981e-07
0.000163086 0.000123587 2.59243e-08
-2.60981e-07 2.59243e-08 -6.04638e-06
0.00141687 6.7482e-06 2.65629e-06
6.7482e-06 5.2808e-05 4.92229e-08
2.65629e-06 4.92229e-08 -7.13045e-05
0.00178853 4.44491e-05 -2.89758e-06
4.44491e-05 0.000119981 2.28258e-08
-2.89758e-06 2.28258e-08 2.33329e-05
0.00176074 0.000127932 -1.3e-06
0.000127932 0.000104024 -9.66675e-07
-1.3e-06 -9.66675e-07 -1.26514e-05
0.00178258 8.28973e-05 1.42503e-06
8.28973e-05 4.34025e-05 8.12474e-08
1.42503e-06 8.12474e-08 -3.75369e-05
0.00174106 0.000199456 -3.23751e-08
0.000199456 0.000151243 -1.10001e-06
-3.23751e-08 -1.10001e-06 6.59002e-06
0.00172272 0.000185084 -1.34715e-06
0.000185084 4.94357e-05 -1.21305e-06
-1.34715e-06 -1.21305e-06 -5.50582e-05
0.000742671 -5.09723e-06 -1.20444e-05
-5.09723e-06 -0.00017796 6.59323e-07
-1.20444e-05 6.59323e-07 -0.000297084
0.00170054 -6.30501e-05 -2.31879e-05
-6.30501e-05 0.000382553 2.75846e-06
-2.31879e-05 2.75846e-06 0.000267653
0.00174456 -3.90685e-05 -5.79248e-06
-3.90685e-05 0.000248017 2.12502e-07
-5.79248e-06 2.12502e-07 0.000127268
0.00167651 -0.000124607 -4.3879e-06
-0.000124607 0.000229928 9.70719e-07
-4.3879e-06 9.70719e-07 9.02392e-05
0.00071593 -7.39499e-05 -1.35493e-05
-7.39499e-05 6.4976e-05 1.2643e-05
-1.35493e-05 1.2643e-05 1.24452e-07
0.000834639 -0.000176196 -7.76274e-06
-0.000176196 9.23557e-05 6.71493e-06
-7.76274e-06 6.71493e-06 -6.8351e-05
0.0010222 -0.00022772 -5.45404e-06
-0.00022772 3.69988e-05 1.99289e-06
-5.45404e-06 1.99289e-06 -0.000159246
0.00170113 -0.000186425 -8.00254e-06
-0.000186425 0.000285239 2.34638e-06
-8.00254e-06 2.34638e-06 0.000130444
0.00183825 -0.000197523 5.64519e-07
-0.000197523 0.000207347 -9.5834e-07
5.64519e-07 -9.5834e-07 7.37816e-05
0.00158209 -0.00024485 -1.52402e-06
-0.00024485 0.00014259 -5.48897e-07
-1.52402e-06 -5.48897e-07 -2.52422e-05
0.00165743 -0.000305924 -5.37416e-06
-0.000305924 0.000273616 -3.16353e-07
-5.37416e-06 -3.16353e-07 6.43274e-05
0.00175105 -0.000298607 3.23138e-06
-0.000298607 0.00020504 -2.748e-06
3.23138e-06 -2.748e-06 2.94501e-05
0.000712891 -0.000111909 -4.07328e-06
-0.000111909 7.40476e-05 4.51859e-06
-4.07328e-06 4.51859e-06 -5.75225e-05
0.000521005 -7.80293e-05 -1.01203e-06
-7.80293e-05 -2.81951e-05 -8.89009e-07
-1.01203e-06 -8.89009e-07 -0.000181403
0.000656171 -3.70362e-05 -9.95547e-07
-3.70362e-05 5.01473e-05 3.55303e-06
-9.95547e-07 3.55303e-06 -5.07058e-05
0.00155193 -1.6029e-05 -2.23522e-06
-1.6029e-05 0.00013505 1.27706e-07
-2.23522e-06 1.27706e-07 1.12296e-05
0.00172524 -8.81818e-05 -2.69114e-06
-8.81818e-05 0.000242145 4.45201e-07
-2.69114e-06 4.45201e-07 0.000114017
0.00170829 -6.28032e-05 1.19473e-06
-6.28032e-05 9.00119e-05 5.4301e-07
1.19473e-06 5.4301e-07 -1.3198e-05
0.00171578 -0.000153082 -1.52437e-06
-0.000153082 0.000111086 4.48525e-07
-1.52437e-06 4.48525e-07 -1.61218e-05
0.000754738 -0.000143557 4.52177e-07
-0.000143557 9.32255e-05 3.57308e-07
4.52177e-07 3.57308e-07 -5.48197e-05
0.00110499 -0.000229867 -1.68502e-06
-0.000229867 0.000182246 -6.26047e-07
-1.68502e-06 -6.26047e-07 -1.94949e-05
0.00127629 -0.000288797 1.62728e-06
-0.000288797 0.000129884 -4.21287e-07
1.62728e-06 -4.21287e-07 -9.62604e-05
0.00160562 -0.00022367 -6.48985e-07
-0.00022367 0.000120994 5.04656e-07
-6.48985e-07 5.04656e-07 -3.28397e-05
0.00183658 -0.000217714 1.55527e-06
-0.000217714 0.000153165 1.55412e-07
1.55527e-06 1.55412e-07 4.16585e-05
0.00176645 -0.000343298 -8.80991e-07
-0.000343298 0.000271881 5.25702e-07
-8.80991e-07 5.25702e-07 5.65665e-05
0.00171189 -0.000278449 1.26257e-07
-0.000278449 0.000145047 2.98862e-07
1.26257e-07 2.98862e-07 -9.47522e-06
0.00198459 -0.000324282 1.77754e-06
-0.000324282 0.000313796 -4.0537e-07
1.77754e-06 -4.0537e-07 0.00015409
0.0009583 -0.000168182 3.49307e-07
-0.000168182 0.000206996 7.76636e-07
3.49307e-07 7.76636e-07 4.26158e-05
0.00113469 -0.000205421 -3.91538e-07
-0.000205421 0.000323457 1.49577e-07
-3.91538e-07 1.49577e-07 0.00014017
0.000643401 -2.66758e-05 3.89797e-08
-2.66758e-05 4.16995e-05 2.03371e-07
3.89797e-08 2.03371e-07 -4.46778e-05
0.000396072 -3.65342e-05 -1.56643e-07
-3.65342e-05 -8.82131e-05 -5.80461e-07
-1.56643e-07 -5.80461e-07 -0.000231286
0.00173812 -3.51884e-05 -2.15089e-06
-3.51884e-05 0.000103714 1.91702e-07
-2.15089e-06 1.91702e-07 2.19348e-06
0.00184926 -0.000105195 -1.01557e-06
-0.000105195 0.000172691 1.33607e-06
-1.01557e-06 1.33607e-06 6.01018e-05
0.00167293 -7.48028e-05 1.06137e-06
-7.48028e-05 1.08869e-05 -2.99505e-08
1.06137e-06 -2.99505e-08 -7.27648e-05
0.00175931 -0.000179457 -3.80975e-06
-0.000179457 6.52179e-05 8.59375e-07
-3.80975e-06 8.59375e-07 -2.86347e-05
0.00172681 -0.000248321 -3.80145e-06
-0.000248321 0.00011966 2.8959e-06
-3.80145e-06 2.8959e-06 -1.11254e-05
0.00199252 -0.000222357 1.74393e-06
-0.000222357 0.000225202 -4.60513e-07
1.74393e-06 -4.60513e-07 0.000130038
0.000943681 -0.000198241 8.53817e-07
-0.000198241 0.000166408 -3.38808e-06
8.53817e-07 -3.38808e-06 -1.70767e-05
0.00163755 -0.000292205 -4.75376e-06
-0.000292205 7.37141e-05 2.75397e-06
-4.75376e-06 2.75397e-06 -5.85088e-05
0.00119628 -0.000270438 2.32766e-06
-0.000270438 0.000191509 -4.50921e-06
2.32766e-06 -4.50921e-06 -3.72675e-05
0.00161175 -0.000362374 8.63828e-07
-0.000362374 0.000266818 1.02483e-06
8.63828e-07 1.02483e-06 1.54084e-05
0.00172398 -0.000355002 7.86014e-07
-0.000355002 0.0002001 5.32103e-06
7.86014e-07 5.32103e-06 -1.14382e-05
0.00195434 -0.000311715 -1.85068e-07
-0.000311715 0.00028474 1.27294e-06
-1.85068e-07 1.27294e-06 0.000132477
0.000556938 -2.77515e-05 1.03535e-06
-2.77515e-05 -9.45673e-06 -3.08173e-06
1.03535e-06 -3.08173e-06 -8.42373e-05
0.00045688 -3.11121e-05 -1.38319e-06
-3.11121e-05 -4.29855e-05 -1.30462e-06
-1.38319e-06 -1.30462e-06 -0.000176038
0.000865206 -0.000200159 -6.235e-07
-0.000200159 0.000130576 7.22335e-07
-6.235e-07 7.22335e-07 -4.93935e-05
0.000804893 -0.000142083 4.96024e-07
-0.000142083 0.000169173 1.72849e-06
4.96024e-07 1.72849e-06 -7.51223e-06
0.00137819 -0.000247041 -3.22473e-06
-0.000247041 0.000452343 3.35867e-06
-3.22473e-06 3.35867e-06 0.000266548
0.00051017 -5.98111e-05 -5.99831e-07
-5.98111e-05 -4.21484e-05 -4.85459e-06
-5.99831e-07 -4.85459e-06 -6.84275e-05
0.0013929 0.00018112 -4.62815e-06
0.00018112 9.00988e-05 -1.33235e-06
-4.62815e-06 -1.33235e-06 -7.38278e-05
0.000520811 -4.11868e-05 -2.54906e-07
-4.11868e-05 -2.5653e-05 -3.29398e-06
-2.54906e-07 -3.29398e-06 -0.00010187
0.000716706 7.0985e-05 -1.88541e-06
7.0985e-05 8.43834e-05 -4.60967e-06
-1.88541e-06 -4.60967e-06 -4.00804e-05
0.000729891 4.18425e-05 1.74283e-06
4.18425e-05 0.000119506 -1.74968e-06
1.74283e-06 -1.74968e-06 -2.54715e-05
0.0012738 0.000217718 -6.65557e-06
0.000217718 0.000106375 -2.44023e-06
-6.65557e-06 -2.44023e-06 -7.50197e-05
0.00164084 0.000271683 -9.25558e-08
0.000271683 0.000163669 6.89862e-07
-9.25558e-08 6.89862e-07 -1.96472e-05
0.000892504 0.000194807 -1.51639e-06
0.000194807 0.000135535 -3.51012e-06
-1.51639e-06 -3.51012e-06 -6.35625e-05
0.000960575 0.000242549 -1.61369e-06
0.000242549 2.0687e-05 -2.98304e-06
-1.61369e-06 -2.98304e-06 -0.000216086
0.00175652 0.00029742 -2.84966e-06
0.00029742 0.000371501 -9.37953e-07
-2.84966e-06 -9.37953e-07 0.000166561
0.00144793 0.000279319 -5.35387e-06
0.000279319 0.000177211 1.59634e-06
-5.35387e-06 1.59634e-06 -3.28604e-05
0.000552031 -5.19479e-05 3.11484e-08
-5.19479e-05 -2.93486e-05 1.22588e-09
3.11484e-08 1.22588e-09 -5.11353e-05
0.00063371 -2.31784e-05 -6.31036e-07
-2.31784e-05 2.75629e-05 3.05093e-07
-6.31036e-07 3.05093e-07 -3.37437e-05
0.000935566 0.00015884 -1.6594e-07
0.00015884 0.000205867 8.77402e-07
-1.6594e-07 8.77402e-07 3.72568e-05
0.000706921 1.00082e-05 -6.47903e-07
1.00082e-05 0.000108898 4.7431e-07
-6.47903e-07 4.7431e-07 -1.39573e-05
0.000661067 0.000109432 6.28971e-07
0.000109432 6.48266e-05 -7.76708e-07
6.28971e-07 -7.76708e-07 -0.000102992
0.00170055 0.000240507 -6.25994e-08
0.000240507 0.00015274 -8.04044e-07
-6.25994e-08 -8.04044e-07 -1.12491e-05
0.00153839 0.000289156 4.93395e-07
0.000289156 0.000169076 1.66138e-07
4.93395e-07 1.66138e-07 -2.98374e-05
0.00171594 0.000306842 1.75147e-06
0.000306842 0.000166362 2.19692e-07
1.75147e-06 2.19692e-07 -1.11728e-05
0.00120355 0.000251373 1.02817e-06
0.000251373 0.000289587 1.83964e-06
1.02817e-06 1.83964e-06 5.51972e-05
0.00178455 0.000343319 6.14876e-07
0.000343319 0.00031214 2.06466e-07
6.14876e-07 2.06466e-07 9.88203e-05
0.00121083 0.000270371 -1.84738e-06
0.000270371 0.000103594 1.11927e-07
-1.84738e-06 1.11927e-07 -0.00012988
0.000682631 -9.63819e-06 2.20145e-06
-9.63819e-06 4.63098e-05 2.46101e-06
2.20145e-06 2.46101e-06 -7.38108e-06
0.000824875 4.75946e-05 7.61465e-07
4.75946e-05 0.000167677 2.66829e-06
7.61465e-07 2.66829e-06 6.59519e-05
0.00105983 0.000220137 -2.18978e-06
0.000220137 0.000258974 -6.63064e-07
-2.18978e-06 -6.63064e-07 6.79295e-05
0.00117138 7.86024e-05 2.00929e-07
7.86024e-05 0.000383874 9.20992e-07
2.00929e-07 9.20992e-07 0.000229891
0.00114569 0.00012892 -5.1466e-06
0.00012892 0.000310584 -6.006e-06
-5.1466e-06 -6.006e-06 0.000150059
0.00174859 0.000251882 -2.84301e-06
0.000251882 0.00014578 -2.58708e-06
-2.84301e-06 -2.58708e-06 -2.69104e-06
0.00174372 0.000348457 1.62486e-06
0.000348457 0.000231714 2.65776e-07
1.62486e-06 2.65776e-07 2.93218e-05
0.00152448 0.000326723 3.99056e-06
0.000326723 2.77093e-05 -9.03962e-07
3.99056e-06 -9.03962e-07 -0.00014746
0.000893241 0.000237733 -1.52168e-07
0.000237733 8.2894e-05 3.23312e-06
-1.52168e-07 3.23312e-06 -0.000163634
0.00145924 0.000331146 5.761e-06
0.000331146 0.00015544 -5.51035e-07
5.761e-06 -5.51035e-07 -7.50068e-05
0.000638282 -1.10789e-05 -1.79191e-07
-1.10789e-05 1.72361e-05 1.43211e-08
-1.79191e-07 1.43211e-08 -3.30377e-05
0.000562744 2.01956e-05 1.51267e-06
2.01956e-05 -9.80841e-06 1.49535e-06
1.51267e-06 1.49535e-06 -8.77301e-05
0.000559322 8.19138e-06 -5.87591e-07
8.19138e-06 -6.98357e-06 -8.90921e-08
-5.87591e-07 -8.90921e-08 -8.50708e-05
0.00092705 8.47608e-05 4.26268e-07
8.47608e-05 0.000222534 -3.73322e-07
4.26268e-07 -3.73322e-07 0.00012499
0.00068818 6.47629e-05 1.83912e-06
6.47629e-05 7.51021e-05 1.31058e-06
1.83912e-06 1.31058e-06 -6.15118e-06
0.000633387 2.34933e-05 1.93529e-06
2.34933e-05 1.98232e-05 2.28406e-06
1.93529e-06 2.28406e-06 -2.93224e-05
0.000631234 -1.20789e-05 -6.40303e-07
-1.20789e-05 1.56577e-05 1.0992e-08
-6.40303e-07 1.0992e-08 -3.33192e-05
0.00125074 -3.9624e-05 7.82002e-07
-3.9624e-05 0.00036785 2.51403e-06
7.82002e-07 2.51403e-06 0.00035657
0.000632194 -2.27195e-05 -1.0581e-06
-2.27195e-05 1.42699e-05 -2.29311e-06
-1.0581e-06 -2.29311e-06 -3.49528e-05
0.00129575 -4.86091e-05 -5.25223e-06
-4.86091e-05 0.000398333 -1.38375e-06
-5.25223e-06 -1.38375e-06 0.000385632
0.000867883 -3.96211e-05 2.28577e-05
-3.96211e-05 0.000153017 7.47264e-06
2.28577e-05 7.47264e-06 0.000158094
0.00131228 -5.70122e-05 -9.48789e-06
-5.70122e-05 0.000414226 -3.83175e-06
-9.48789e-06 -3.83175e-06 0.000399314
0.00157205 -6.54338e-05 2.06615e-05
-6.54338e-05 0.000580774 1.92163e-06
2.06615e-05 1.92163e-06 0.000586143
0.00229837 -9.30835e-05 -2.86849e-05
-9.30835e-05 0.00102054 -3.55132e-06
-2.86849e-05 -3.55132e-06 0.00102649
0.000486927 6.08972e-05 -1.69502e-06
6.08972e-05 -5.36888e-05 -5.10835e-06
-1.69502e-06 -5.10835e-06 -8.30359e-05
0.000521376 2.5777e-05 3.09397e-07
2.5777e-05 -3.34961e-05 2.8381e-07
3.09397e-07 2.8381e-07 -6.61354e-05
0.00269083 0.000114311 3.57003e-05
0.000114311 0.00126186 -3.38822e-06
3.57003e-05 -3.38822e-06 0.00126141
0.0031141 0.000110302 -6.47575e-06
0.000110302 0.00151541 -3.76464e-07
-6.47575e-06 -3.76464e-07 0.00151568
0.000623552 6.25311e-06 -4.59567e-06
6.25311e-06 2.67945e-05 7.69878e-06
-4.59567e-06 7.69878e-06 -1.27871e-05
0.0035849 0.000106678 -0.000107712
0.000106678 0.0017948 5.50184e-06
-0.000107712 5.50184e-06 0.00179524
0.00141916 0.000153992 -4.22059e-06
0.000153992 7.71045e-05 -7.35039e-07
-4.22059e-06 -7.35039e-07 -7.63223e-05
0.00143182 8.79244e-05 -2.82607e-06
8.79244e-05 5.82e-05 -1.77949e-07
-2.82607e-06 -1.77949e-07 -7.69811e-05
0.00173407 0.000161818 -2.05278e-07
0.000161818 0.000120535 1.12203e-06
-2.05278e-07 1.12203e-06 -9.21179e-06
0.00184308 8.04807e-05 1.11397e-06
8.04807e-05 0.000140795 8.7339e-07
1.11397e-06 8.7339e-07 3.9444e-05
0.00140831 3.49203e-05 -2.43105e-06
3.49203e-05 4.50452e-05 -3.15364e-08
-2.43105e-06 -3.15364e-08 -8.04475e-05
0.00100579 6.66282e-06 -1.2082e-05
6.66282e-06 -2.53666e-05 -1.47077e-08
-1.2082e-05 -1.47077e-08 -0.00014302
0.001407 1.01527e-05 7.6396e-08
1.01527e-05 4.78537e-05 4.49499e-08
7.6396e-08 4.49499e-08 -7.637e-05
0.00179049 3.49777e-05 -1.60865e-06
3.49777e-05 0.000122311 3.06947e-08
-1.60865e-06 3.06947e-08 2.60477e-05
0.00177066 0.000126727 -2.12437e-07
0.000126727 0.000110322 1.06665e-07
-2.12437e-07 1.06665e-07 -6.23735e-06
0.00179407 8.15592e-05 2.02064e-06
8.15592e-05 5.07483e-05 8.86649e-07
2.02064e-06 8.86649e-07 -2.50823e-05
0.00172093 0.000200092 -2.77891e-07
0.000200092 0.00013566 -6.96606e-08
-2.77891e-07 -6.96606e-08 -9.56636e-06
0.00176014 0.00018299 -4.27106e-07
0.00018299 6.84921e-05 9.92843e-07
-4.27106e-07 9.92843e-07 -3.31306e-05
0.0017713 2.49911e-06 -2.04129e-06
2.49911e-06 0.000119109 3.54524e-07
-2.04129e-06 3.54524e-07 2.27371e-05
0.00173417 4.06019e-05 1.77276e-06
4.06019e-05 2.80222e-05 3.83581e-07
1.77276e-06 3.83581e-07 -4.40091e-05
0.00186451 0.000137766 -1.52803e-06
0.000137766 0.00010125 -8.04041e-07
-1.52803e-06 -8.04041e-07 1.64197e-05
0.00181286 8.94438e-05 4.30555e-06
8.94438e-05 4.0969e-05 4.96793e-07
4.30555e-06 4.96793e-07 -1.75366e-05
0.00171182 0.000201219 -8.80875e-07
0.000201219 8.22371e-05 -2.51855e-06
-8.80875e-07 -2.51855e-06 -3.91208e-05
0.00187255 0.000193126 3.25643e-06
0.000193126 9.56588e-05 6.21909e-07
3.25643e-06 6.21909e-07 1.12784e-05
0.00142999 -1.41354e-05 -4.49278e-06
-1.41354e-05 6.22863e-05 8.0898e-08
-4.49278e-06 8.0898e-08 -6.2242e-05
0.00173518 -9.25752e-05 -6.27064e-06
-9.25752e-05 0.000247278 7.00631e-07
-6.27064e-06 7.00631e-07 0.000118656
0.00173347 -6.07732e-05 2.89022e-06
-6.07732e-05 0.000104437 -1.12315e-06
2.89022e-06 -1.12315e-06 5.94449e-06
0.00171432 -0.000150369 -3.60213e-08
-0.000150369 0.00010903 -1.6755e-07
-3.60213e-08 -1.6755e-07 -1.90665e-05
0.000881055 -0.000168595 -5.23409e-06
-0.000168595 0.000169585 6.86613e-06
-5.23409e-06 6.86613e-06 1.73428e-05
0.00101533 -0.000222695 -5.37505e-06
-0.000222695 0.000123357 3.3691e-06
-5.37505e-06 3.3691e-06 -7.642e-05
0.00106165 -0.000264604 -1.94589e-06
-0.000264604 1.12914e-05 5.2579e-07
-1.94589e-06 5.2579e-07 -0.000210828
0.00161102 -0.000222965 -1.20068e-06
-0.000222965 0.000126018 1.40126e-07
-1.20068e-06 1.40126e-07 -3.05767e-05
0.00187991 -0.000218701 3.79331e-06
-0.000218701 0.000180599 -1.82407e-06
3.79331e-06 -1.82407e-06 7.334e-05
0.00174466 -0.000279065 2.59601e-06
-0.000279065 0.000164324 -1.4387e-06
2.59601e-06 -1.4387e-06 1.00896e-05
0.00168661 -0.000345064 -3.22119e-07
-0.000345064 0.00022141 -1.99782e-06
-3.22119e-07 -1.99782e-06 3.1004e-06
0.00200778 -0.000322292 5.53355e-06
-0.000322292 0.00032834 -6.4596e-06
5.53355e-06 -6.4596e-06 0.000171836
0.000926688 -0.000169048 -2.45699e-07
-0.000169048 0.00019043 1.43932e-06
-2.45699e-07 1.43932e-06 2.56832e-05
0.000666596 -0.000147449 1.77552e-08
-0.000147449 3.93206e-05 -6.55177e-07
1.77552e-08 -6.55177e-07 -0.000131105
0.000708496 -3.11915e-05 -1.21136e-06
-3.11915e-05 7.78654e-05 3.42231e-06
-1.21136e-06 3.42231e-06 -8.83526e-06
0.000349448 -9.6711e-06 8.5126e-07
-9.6711e-06 -0.000119933 -1.36006e-06
8.5126e-07 -1.36006e-06 -0.000256568
0.00173045 -3.51895e-05 -1.04869e-09
-3.51895e-05 9.93395e-05 8.14219e-08
-1.04869e-09 8.14219e-08 -2.35566e-06
0.001773 -0.000104103 2.8811e-07
-0.000104103 0.000129997 -2.8882e-07
2.8811e-07 -2.8882e-07 1.53093e-05
0.00171799 -7.41933e-05 1.99827e-06
-7.41933e-05 3.72867e-05 -4.74736e-07
1.99827e-06 -4.74736e-07 -4.25058e-05
0.00173512 -0.000176239 -1.66133e-06
-0.000176239 5.79245e-05 7.0448e-07
-1.66133e-06 7.0448e-07 -3.79636e-05
0.000983279 -0.000193966 -8.23388e-07
-0.000193966 0.000190696 9.38332e-07
-8.23388e-07 9.38332e-07 8.09316e-06
0.000998904 -0.000249609 1.16873e-06
-0.000249609 7.55995e-05 -1.82987e-06
1.16873e-06 -1.82987e-06 -0.000147382
0.00161851 -0.000365645 8.41308e-08
-0.000365645 0.00027036 7.54842e-07
8.41308e-08 7.54842e-07 1.54169e-05
0.00167626 -0.00024503 -1.49714e-06
-0.00024503 9.53199e-05 7.53536e-07
-1.49714e-06 7.53536e-07 -3.89786e-05
0.00183682 -0.000218737 2.10495e-06
-0.000218737 0.000130239 -1.11794e-06
2.10495e-06 -1.11794e-06 3.91542e-05
0.00172693 -0.000356592 -7.61555e-07
-0.000356592 0.000205216 6.79185e-07
-7.61555e-07 6.79185e-07 -7.37468e-06
0.00169473 -0.000295034 -5.29923e-07
-0.000295034 0.000105343 1.06325e-06
-5.29923e-07 1.06325e-06 -2.7244e-05
0.00183602 -0.000305203 3.4374e-06
-0.000305203 0.000202982 -5.15241e-06
3.4374e-06 -5.15241e-06 5.50886e-05
0.00102689 -0.000215526 5.93767e-07
-0.000215526 0.00022259 1.39943e-06
5.93767e-07 1.39943e-06 3.98736e-05
0.00121271 -0.000225342 2.90419e-06
-0.000225342 0.000347568 1.14409e-06
2.90419e-06 1.14409e-06 0.000169997
0.000783015 -0.000109259 -1.92772e-07
-0.000109259 0.000151441 -1.87471e-07
-1.92772e-07 -1.87471e-07 -2.44646e-05
0.000475316 -4.66507e-06 -1.23487e-06
-4.66507e-06 -5.76144e-05 3.66049e-07
-1.23487e-06 3.66049e-07 -0.000133863
0.000417134 -9.39474e-07 -3.73374e-07
-9.39474e-07 -6.88417e-05 -6.65624e-07
-3.73374e-07 -6.65624e-07 -0.000196221
0.00178592 -4.91067e-05 7.97327e-07
-4.91067e-05 6.50929e-05 -7.40127e-07
7.97327e-07 -7.40127e-07 -6.48511e-06
0.00184918 -0.000104569 1.92651e-06
-0.000104569 9.6639e-05 2.87427e-07
1.92651e-06 2.87427e-07 1.8869e-05
0.00179889 -0.000209986 -3.81831e-08
-0.000209986 6.6515e-05 -1.26573e-06
-3.81831e-08 -1.26573e-06 -9.66269e-06
0.00162103 -0.000244575 -9.28978e-07
-0.000244575 2.61389e-05 3.4578e-07
-9.28978e-07 3.4578e-07 -7.79187e-05
0.00105763 -0.000232001 -1.78246e-06
-0.000232001 0.000206529 -3.88506e-06
-1.78246e-06 -3.88506e-06 1.92942e-06
0.00220443 -0.00034992 -3.29565e-06
-0.00034992 0.000341909 1.00461e-06
-3.29565e-06 1.00461e-06 0.000213043
0.000947171 -0.000281478 2.00899e-06
-0.000281478 1.31643e-05 -3.94644e-06
2.00899e-06 -3.94644e-06 -0.000235557
0.00168996 -0.000406886 6.7787e-07
-0.000406886 0.000268324 2.34159e-06
6.7787e-07 2.34159e-06 -7.861e-08
0.00162924 -0.000345113 1.89718e-06
-0.000345113 0.000117097 4.02402e-06
1.89718e-06 4.02402e-06 -8.58518e-05
0.000275683 1.2647e-05 2.99112e-07
1.2647e-05 -0.000174725 -3.44818e-06
2.99112e-07 -3.44818e-06 -0.000240849
0.000740801 -3.59398e-05 3.56333e-07
-3.59398e-05 0.000132741 -8.97286e-07
3.56333e-07 -8.97286e-07 1.32539e-05
0.000946051 -6.57303e-05 -1.44614e-06
-6.57303e-05 0.000239796 6.27886e-07
-1.44614e-06 6.27886e-07 8.92072e-05
0.00113188 -0.000232818 -5.27774e-06
-0.000232818 0.000269477 1.26204e-07
-5.27774e-06 1.26204e-07 8.22056e-05
0.000518533 -0.000122903 2.61955e-06
-0.000122903 -1.25185e-05 3.38708e-06
2.61955e-06 3.38708e-06 -0.000202538
0.000615235 -0.000190518 -7.20712e-07
-0.000190518 -3.32272e-05 1.25368e-07
-7.20712e-07 1.25368e-07 -0.000205812
0.000555832 -5.01971e-05 -1.03418e-06
-5.01971e-05 -2.80328e-05 -4.53695e-06
-1.03418e-06 -4.53695e-06 -4.94026e-05
0.000580816 -2.64636e-05 -1.84395e-06
-2.64636e-05 -2.12398e-06 -2.52059e-06
-1.84395e-06 -2.52059e-06 -6.33001e-05
0.00168514 0.000241133 -1.12115e-06
0.000241133 0.00014081 -1.50952e-07
-1.12115e-06 -1.50952e-07 -2.36535e-05
0.000559293 -6.3698e-05 1.39232e-06
-6.3698e-05 2.09506e-05 -2.61606e-06
1.39232e-06 -2.61606e-06 -9.64028e-05
0.000808811 0.000143324 -1.32053e-06
0.000143324 0.000133208 4.90749e-07
-1.32053e-06 4.90749e-07 -3.20047e-05
0.0002241 6.4639e-05 1.57387e-06
6.4639e-05 -0.000198029 1.55851e-06
1.57387e-06 1.55851e-06 -0.000357935
0.00154966 0.000289806 -5.00695e-07
0.000289806 0.000176514 2.39635e-07
-5.00695e-07 2.39635e-07 -2.27174e-05
0.00164108 0.000303483 2.27899e-07
0.000303483 0.000124371 2.63788e-07
2.27899e-07 2.63788e-07 -5.34563e-05
0.000942392 0.000227706 1.08383e-06
0.000227706 0.00014437 -1.63186e-06
1.08383e-06 -1.63186e-06 -8.96816e-05
0.00159486 0.000301677 -1.2505e-06
0.000301677 0.00032511 -7.51715e-07
-1.2505e-06 -7.51715e-07 8.9699e-05
0.00173702 0.00033927 -2.75566e-06
0.00033927 0.000272884 -6.4945e-07
-2.75566e-06 -6.4945e-07 5.9016e-05
0.000635685 -1.02484e-05 -3.1378e-07
-1.02484e-05 1.97357e-05 1.5917e-07
-3.1378e-07 1.5917e-07 -3.393e-05
0.000700236 -6.96628e-06 -9.78517e-07
-6.96628e-06 9.24985e-05 4.06419e-07
-9.78517e-07 4.06419e-07 -4.89134e-06
0.001087 0.00022287 -8.53516e-07
0.00022287 0.000275968 -1.62359e-08
-8.53516e-07 -1.62359e-08 8.46443e-05
0.000829278 3.11988e-05 3.30997e-07
3.11988e-05 0.000179304 -2.09372e-07
3.30997e-07 -2.09372e-07 3.22588e-05
0.000842236 0.000140841 8.74519e-07
0.000140841 0.000149041 1.10838e-06
8.74519e-07 1.10838e-06 -1.87739e-05
0.00172733 0.00025354 -1.84677e-06
0.00025354 0.000134317 -1.39195e-06
-1.84677e-06 -1.39195e-06 -1.53784e-05
0.00171408 0.00034586 1.4447e-06
0.00034586 0.000211456 4.04236e-07
1.4447e-06 4.04236e-07 9.21668e-06
0.00166289 0.000331745 4.77877e-07
0.000331745 0.000108593 1.04186e-07
4.77877e-07 1.04186e-07 -6.55385e-05
0.000827797 0.000237377 2.29332e-07
0.000237377 3.74648e-05 3.13941e-06
2.29332e-07 3.13941e-06 -0.000208625
0.00158907 0.000342212 -1.63813e-06
0.000342212 0.000240625 -8.42793e-07
-1.63813e-06 -8.42793e-07 6.86801e-06
0.000776924 3.26457e-05 8.59261e-07
3.26457e-05 0.000126821 1.88404e-06
8.59261e-07 1.88404e-06 4.04954e-05
0.000405875 -9.3341e-06 -1.69746e-06
-9.3341e-06 -7.31336e-05 3.02992e-06
-1.69746e-06 3.02992e-06 -0.000189813
0.00106435 0.00023431 -3.42195e-06
0.00023431 0.000217708 -1.04609e-06
-3.42195e-06 -1.04609e-06 1.68713e-05
0.000666861 0.000104338 -4.51354e-06
0.000104338 0.000107348 -4.18338e-06
-4.51354e-06 -4.18338e-06 -6.87027e-05
0.000786158 0.000204739 -1.05593e-06
0.000204739 8.91984e-05 -2.57275e-06
-1.05593e-06 -2.57275e-06 -8.64262e-05
0.00160798 0.000268938 6.22677e-08
0.000268938 -3.30943e-06 -2.20857e-06
6.22677e-08 -2.20857e-06 -0.000128444
0.00189388 0.000385682 3.56724e-06
0.000385682 0.000295156 -1.94159e-06
3.56724e-06 -1.94159e-06 8.07187e-05
0.00153411 0.000342964 3.38607e-06
0.000342964 2.18825e-05 1.91264e-07
3.38607e-06 1.91264e-07 -0.000154088
0.00160107 0.000317217 2.95292e-06
0.000317217 0.000416936 7.23721e-06
2.95292e-06 7.23721e-06 0.000150895
0.00166583 0.000373395 -1.18952e-06
0.000373395 0.000285467 -8.60563e-07
-1.18952e-06 -8.60563e-07 4.42122e-05
0.000617412 -2.2103e-05 -1.38001e-06
-2.2103e-05 6.51371e-06 -2.40218e-06
-1.38001e-06 -2.40218e-06 -4.46531e-05
0.000629106 2.44596e-05 9.44978e-07
2.44596e-05 3.12113e-05 3.34698e-07
9.44978e-07 3.34698e-07 -4.74465e-05
0.000533559 9.65343e-07 -2.93462e-07
9.65343e-07 -2.13416e-05 1.00914e-06
-2.93462e-07 1.00914e-06 -0.000107389
0.000452887 -3.04726e-05 -6.78354e-07
-3.04726e-05 -7.05503e-05 -1.2738e-06
-6.78354e-07 -1.2738e-06 -0.000147662
0.000670379 3.16826e-05 -2.49086e-07
3.16826e-05 6.35447e-05 2.66921e-08
-2.49086e-07 2.66921e-08 -1.62267e-05
0.000693581 4.19755e-05 -2.62204e-07
4.19755e-05 7.48907e-05 -3.5488e-07
-2.62204e-07 -3.5488e-07 -1.38998e-05
0.000827165 7.21712e-05 -1.18697e-06
7.21712e-05 0.000161732 -1.54322e-06
-1.18697e-06 -1.54322e-06 6.31598e-05
0.000540048 -1.56127e-05 6.22046e-07
-1.56127e-05 -2.21462e-06 3.69891e-07
6.22046e-07 3.69891e-07 -0.000100773
0.000694566 5.38316e-05 8.89721e-07
5.38316e-05 7.44882e-05 1.40703e-06
8.89721e-07 1.40703e-06 -2.06675e-06
0.000639344 3.00569e-05 1.97878e-06
3.00569e-05 2.76469e-05 2.31618e-06
1.97878e-06 2.31618e-06 -2.25903e-05
0.000630961 -2.52814e-06 -1.0663e-06
-2.52814e-06 1.85049e-05 1.24318e-08
-1.0663e-06 1.24318e-08 -3.06805e-05
0.00125531 -2.77068e-05 8.75668e-07
-2.77068e-05 0.000368517 2.44886e-06
8.75668e-07 2.44886e-06 0.000358235
0.000603636 -4.28698e-05 -1.89611e-07
-4.28698e-05 2.20784e-06 -2.26204e-06
-1.89611e-07 -2.26204e-06 -4.82996e-05
0.00129689 -3.65783e-05 -4.51973e-06
-3.65783e-05 0.000394929 -1.44045e-06
-4.51973e-06 -1.44045e-06 0.000383924
0.000868647 -3.23313e-05 1.9146e-05
-3.23313e-05 0.000147982 7.80295e-06
1.9146e-05 7.80295e-06 0.000154516
0.00133308 -4.6313e-05 -8.33148e-06
-4.6313e-05 0.000420024 -5.42928e-06
-8.33148e-06 -5.42928e-06 0.000407551
0.000813356 -4.05343e-05 7.05383e-06
-4.05343e-05 0.000120263 2.9287e-06
7.05383e-06 2.9287e-06 0.000124814
0.00223424 -8.73146e-05 -4.82656e-06
-8.73146e-05 0.000974501 -1.91722e-06
-4.82656e-06 -1.91722e-06 0.000981808
0.00051857 4.4435e-05 -5.03926e-07
4.4435e-05 -4.74421e-05 -3.93449e-06
-5.03926e-07 -3.93449e-06 -6.8004e-05
0.000522941 4.47501e-05 -6.94623e-07
4.47501e-05 -3.57075e-05 3.36992e-08
-6.94623e-07 3.36992e-08 -6.33109e-05
0.00248129 9.88643e-05 2.65668e-05
9.88643e-05 0.00113115 -3.63547e-06
2.65668e-05 -3.63547e-06 0.00113476
0.000577666 1.32003e-05 -3.70594e-06
1.32003e-05 -2.83515e-06 6.32564e-06
-3.70594e-06 6.32564e-06 -3.4398e-05
0.00281042 0.000114886 -8.44989e-06
0.000114886 0.00133206 -5.27704e-07
-8.44989e-06 -5.27704e-07 0.00133168
0.0032302 9.88271e-05 -8.97274e-05
9.88271e-05 0.00158145 4.52045e-06
-8.97274e-05 4.52045e-06 0.0015844
0.00169964 0.000200552 -1.59686e-06
0.000200552 0.000119819 7.12492e-07
-1.59686e-06 7.12492e-07 -2.59551e-05
0.00178388 0.000124609 1.16495e-06
0.000124609 0.000118747 1.21521e-06
1.16495e-06 1.21521e-06 2.43677e-06
0.00180034 0.000181037 1.29092e-06
0.000181037 8.90127e-05 2.20686e-06
1.29092e-06 2.20686e-06 -9.74316e-06
0.00183507 8.07533e-05 1.78787e-06
8.07533e-05 7.53718e-05 1.16813e-06
1.78787e-06 1.16813e-06 4.94737e-06
0.00179113 2.79467e-05 -4.39644e-07
2.79467e-05 0.000124152 1.35531e-07
-4.39644e-07 1.35531e-07 2.8206e-05
0.0014045 1.28605e-05 -2.33692e-06
1.28605e-05 4.6976e-05 6.38223e-08
-2.33692e-06 6.38223e-08 -7.72672e-05
0.00174623 3.93216e-06 -1.32632e-06
3.93216e-06 0.000103188 1.21159e-08
-1.32632e-06 1.21159e-08 4.7732e-06
0.00177833 3.84231e-05 1.77925e-06
3.84231e-05 5.68329e-05 -1.99865e-08
1.77925e-06 -1.99865e-08 -1.70509e-05
0.00185678 0.000136319 -1.42011e-06
0.000136319 9.87943e-05 -6.28954e-07
-1.42011e-06 -6.28954e-07 1.33402e-05
0.00182915 9.00609e-05 1.96152e-06
9.00609e-05 4.82548e-05 5.34828e-07
1.96152e-06 5.34828e-07 -7.11556e-06
0.00173616 0.000200253 -7.93531e-07
0.000200253 0.00010391 -2.59184e-07
-7.93531e-07 -2.59184e-07 -1.74649e-05
0.00183498 0.00019449 3.58878e-06
0.00019449 7.34113e-05 1.45571e-06
3.58878e-06 1.45571e-06 -7.62552e-06
0.00179277 -7.3565e-06 -1.9201e-07
-7.3565e-06 7.93245e-05 1.02142e-07
-1.9201e-07 1.02142e-07 5.42647e-06
0.00184936 4.29543e-05 4.354e-06
4.29543e-05 4.78777e-05 8.96615e-08
4.354e-06 8.96615e-08 6.00787e-06
0.00186351 0.000140517 3.19529e-06
0.000140517 6.47673e-05 7.59036e-07
3.19529e-06 7.59036e-07 3.00109e-06
0.00187048 0.000238385 7.15378e-07
0.000238385 0.000108373 -8.78343e-07
7.15378e-07 -8.78343e-07 1.42314e-05
0.00172433 -3.518e-05 1.23862e-06
-3.518e-05 9.61395e-05 7.18382e-09
1.23862e-06 7.18382e-09 -5.71735e-06
0.00169633 -0.000104713 2.3205e-06
-0.000104713 8.72441e-05 -1.24587e-06
2.3205e-06 -1.24587e-06 -2.9693e-05
0.00178096 -7.3933e-05 4.04904e-06
-7.3933e-05 7.47884e-05 -1.45404e-06
4.04904e-06 -1.45404e-06 -1.21184e-06
0.00171912 -0.000172888 -2.3137e-07
-0.000172888 5.46717e-05 2.85681e-08
-2.3137e-07 2.85681e-08 -4.31522e-05
0.00108608 -0.000202476 -1.11236e-06
-0.000202476 0.000252614 4.52677e-06
-1.11236e-06 4.52677e-06 6.7605e-05
0.00105689 -0.00025191 -1.03492e-07
-0.00025191 0.000106922 1.24084e-06
-1.03492e-07 1.24084e-06 -0.000113272
0.00163757 -0.000370576 -1.05833e-06
-0.000370576 0.000282201 -1.0263e-07
-1.05833e-06 -1.0263e-07 2.33047e-05
0.0016258 -0.000241872 5.0952e-07
-0.000241872 7.13461e-05 -5.60702e-07
5.0952e-07 -5.60702e-07 -6.64848e-05
0.00169085 -0.00021564 3.77508e-06
-0.00021564 4.10014e-05 -2.24281e-06
3.77508e-06 -2.24281e-06 -4.61193e-05
0.00174666 -0.000297662 3.643e-06
-0.000297662 0.000133521 -5.77669e-07
3.643e-06 -5.77669e-07 5.6981e-07
0.00172202 -0.000357067 -1.77501e-06
-0.000357067 0.000204724 -2.89073e-06
-1.77501e-06 -2.89073e-06 -8.61923e-06
0.00172515 -0.000299089 2.48267e-06
-0.000299089 0.000126951 -1.12635e-05
2.48267e-06 -1.12635e-05 -1.66968e-05
0.00122634 -0.000234252 2.21445e-06
-0.000234252 0.000338029 2.24996e-06
2.21445e-06 2.24996e-06 0.000151731
0.00104505 -0.000208652 3.24571e-06
-0.000208652 0.00023922 -2.33598e-06
3.24571e-06 -2.33598e-06 6.88623e-05
0.000710152 -8.90808e-05 1.53177e-06
-8.90808e-05 0.000104886 -2.50726e-06
1.53177e-06 -2.50726e-06 -7.12928e-05
0.000376431 1.0333e-05 -1.10186e-06
1.0333e-05 -0.000115169 2.90566e-06
-1.10186e-06 2.90566e-06 -0.000193498
0.000420569 2.78616e-05 1.51655e-06
2.78616e-05 -6.84757e-05 5.31518e-08
1.51655e-06 5.31518e-08 -0.000192236
0.00185636 -5.41542e-05 2.21025e-08
-5.41542e-05 0.000109222 -1.09384e-07
2.21025e-08 -1.09384e-07 3.65696e-05
0.00181249 -0.000107549 1.26765e-06
-0.000107549 7.26852e-05 -7.38821e-07
1.26765e-06 -7.38821e-07 -6.70245e-06
0.00181061 -0.000204588 -2.16108e-06
-0.000204588 7.9557e-05 2.52407e-07
-2.16108e-06 2.52407e-07 1.5033e-06
0.0011316 -0.000236559 -9.14886e-07
-0.000236559 0.000250311 3.52913e-07
-9.14886e-07 3.52913e-07 4.4845e-05
0.00107834 -0.000286474 1.62169e-06
-0.000286474 7.94109e-05 -2.28974e-06
1.62169e-06 -2.28974e-06 -0.000165676
0.00163491 -0.000408469 -3.84887e-07
-0.000408469 0.000239022 6.19844e-07
-3.84887e-07 6.19844e-07 -3.32741e-05
0.00164837 -0.000245701 4.15617e-07
-0.000245701 3.70479e-05 -2.90543e-07
4.15617e-07 -2.90543e-07 -6.73346e-05
0.00168048 -0.000344287 7.00591e-07
-0.000344287 0.000150012 -2.20852e-06
7.00591e-07 -2.20852e-06 -4.65051e-05
0.00188558 -0.000329163 -3.20989e-07
-0.000329163 0.000171741 -1.06203e-06
-3.20989e-07 -1.06203e-06 4.32091e-05
0.000314312 3.2242e-05 -2.14577e-07
3.2242e-05 -0.000156359 -8.56954e-07
-2.14577e-07 -8.56954e-07 -0.000218926
0.00114962 -0.000233075 -1.43676e-07
-0.000233075 0.000269455 1.51197e-06
-1.43676e-07 1.51197e-06 8.33571e-05
0.000659633 -0.000191516 -2.65342e-08
-0.000191516 1.44729e-07 7.77605e-07
-2.65342e-08 7.77605e-07 -0.000165001
0.000940868 -0.000157565 -6.48881e-07
-0.000157565 0.000237295 3.24161e-07
-6.48881e-07 3.24161e-07 3.97583e-05
0.00108901 -7.23104e-05 1.67735e-07
-7.23104e-05 0.000324815 -5.96079e-07
1.67735e-07 -5.96079e-07 0.000173861
0.000623956 1.69704e-06 -4.34985e-07
1.69704e-06 5.7118e-05 4.99867e-07
-4.34985e-07 4.99867e-07 -5.92806e-05
0.00161611 -6.0292e-05 1.57624e-06
-6.0292e-05 -6.61937e-05 -2.79208e-07
1.57624e-06 -2.79208e-07 -0.000125311
0.00201646 -0.000149203 2.14045e-06
-0.000149203 0.000122794 -3.64688e-07
2.14045e-06 -3.64688e-07 7.28635e-05
0.00159283 -0.000235961 1.42592e-06
-0.000235961 -6.38346e-05 -1.00976e-06
1.42592e-06 -1.00976e-06 -0.000136199
0.0020284 -0.000308005 -6.38009e-07
-0.000308005 0.000170286 -1.74351e-06
-6.38009e-07 -1.74351e-06 7.03553e-05
0.00137863 -0.000278289 -3.96277e-06
-0.000278289 0.000347635 -4.71615e-06
-3.96277e-06 -4.71615e-06 0.000126992
0.00185057 -0.000366078 1.32335e-06
-0.000366078 0.000172181 4.24317e-06
1.32335e-06 4.24317e-06 9.42448e-06
0.00138786 -0.000369848 -1.50446e-06
-0.000369848 0.00020801 3.57312e-07
-1.50446e-06 3.57312e-07 -8.61333e-05
0.00170811 -0.00042848 -1.6011e-06
-0.00042848 0.000272799 2.74915e-06
-1.6011e-06 2.74915e-06 -9.64585e-06
0.000310002 5.0617e-05 -1.7979e-06
5.0617e-05 -0.000163139 -2.26376e-06
-1.7979e-06 -2.26376e-06 -0.00021606
0.000729855 -1.26097e-06 -8.62456e-08
-1.26097e-06 0.000116928 -7.35519e-07
-8.62456e-08 -7.35519e-07 1.67037e-05
0.000968725 -0.000100625 -1.7066e-06
-0.000100625 0.000261786 1.75205e-06
-1.7066e-06 1.75205e-06 0.000125126
0.00089429 -2.63923e-05 -2.30133e-06
-2.63923e-05 0.000210987 2.58399e-06
-2.30133e-06 2.58399e-06 2.82011e-05
0.000649252 -0.000207816 -2.86571e-06
-0.000207816 -4.03198e-05 -3.37489e-06
-2.86571e-06 -3.37489e-06 -0.000229602
0.000968117 -0.000218234 -6.29763e-06
-0.000218234 0.00019904 1.44417e-06
-6.29763e-06 1.44417e-06 -1.88072e-06
0.000596517 -1.82929e-05 -2.17084e-06
-1.82929e-05 -2.48588e-06 -2.31169e-06
-2.17084e-06 -2.31169e-06 -5.60469e-05
0.000579309 -4.39696e-05 2.01437e-07
-4.39696e-05 1.67072e-05 -1.80207e-06
2.01437e-07 -1.80207e-06 -7.48759e-05
0.00170904 0.000255654 -2.06039e-06
0.000255654 0.00012346 -4.25585e-07
-2.06039e-06 -4.25585e-07 -2.75353e-05
0.000470633 -1.34453e-05 7.55446e-07
-1.34453e-05 -3.55047e-05 -1.22307e-06
7.55446e-07 -1.22307e-06 -0.000174227
0.00110049 0.000224097 1.08613e-06
0.000224097 0.000284557 -3.04983e-07
1.08613e-06 -3.04983e-07 9.37911e-05
0.000205934 7.28796e-05 2.73831e-06
7.28796e-05 -0.000233098 2.20572e-06
2.73831e-06 2.20572e-06 -0.000384696
0.00169051 0.00034404 -6.21104e-07
0.00034404 0.00019293 2.17046e-07
-6.21104e-07 2.17046e-07 -9.30299e-06
0.00181454 0.000337809 -2.77622e-06
0.000337809 0.000194636 1.14894e-06
-2.77622e-06 1.14894e-06 2.13354e-05
0.000910992 0.000249285 -1.57064e-06
0.000249285 7.97192e-05 5.63154e-07
-1.57064e-06 5.63154e-07 -0.000167691
0.00171858 0.000352293 -1.97163e-06
0.000352293 0.0003264 1.36593e-06
-1.97163e-06 1.36593e-06 8.85738e-05
0.000698548 9.76429e-06 -8.40413e-07
9.76429e-06 7.79123e-05 1.86033e-07
-8.40413e-07 1.86033e-07 -4.89631e-06
0.000643824 1.59377e-05 6.77537e-07
1.59377e-05 6.51868e-05 1.36218e-06
6.77537e-07 1.36218e-06 -5.26272e-05
0.00131024 0.000256694 -9.81847e-07
0.000256694 0.000373056 -2.91471e-06
-9.81847e-07 -2.91471e-06 0.000165727
0.00054176 2.88083e-05 -8.06547e-07
2.88083e-05 7.19336e-06 -4.44977e-07
-8.06547e-07 -4.44977e-07 -0.000146225
0.000591764 0.000168578 -2.03495e-06
0.000168578 -3.36115e-05 -9.70188e-07
-2.03495e-06 -9.70188e-07 -0.000188287
0.00186576 0.000279791 -2.83062e-06
0.000279791 0.000144391 -1.31115e-06
-2.83062e-06 -1.31115e-06 2.13755e-05
0.00196558 0.000386778 1.759e-06
0.000386778 0.000340055 -2.15575e-07
1.759e-06 -2.15575e-07 0.000127355
0.00170415 0.000361534 1.79048e-06
0.000361534 0.000109211 2.33476e-06
1.79048e-06 2.33476e-06 -6.94398e-05
0.00131605 0.000295387 3.52648e-06
0.000295387 0.00026345 4.37864e-06
3.52648e-06 4.37864e-06 -7.74879e-06
0.00157069 0.000371988 -2.95247e-06
0.000371988 0.000224969 5.11311e-07
-2.95247e-06 5.11311e-07 -2.03555e-05
0.000406908 -2.08165e-05 -9.99039e-07
-2.08165e-05 -8.21331e-05 2.55265e-06
-9.99039e-07 2.55265e-06 -0.000176053
0.000134964 7.75797e-05 1.59699e-07
7.75797e-05 -0.000200045 7.35668e-07
1.59699e-07 7.35668e-07 -0.000353566
0.00121204 0.000256639 2.06455e-06
0.000256639 0.000275979 3.71087e-06
2.06455e-06 3.71087e-06 5.29217e-05
-0.000638321 6.13463e-05 3.37931e-06
6.13463e-05 -0.000709145 -2.42221e-07
3.37931e-06 -2.42221e-07 -0.000877444
0.00191086 0.000291514 -2.20424e-06
0.000291514 1.21869e-05 -6.33167e-07
-2.20424e-06 -6.33167e-07 -5.10384e-05
0.00229513 0.000354542 7.54044e-07
0.000354542 0.000381331 -5.96564e-07
7.54044e-07 -5.96564e-07 0.000239685
0.0018143 0.000416253 -1.79306e-06
0.000416253 0.000252275 -3.52631e-06
-1.79306e-06 -3.52631e-06 2.07545e-05
0.000397744 0.00024844 -1.51535e-06
0.00024844 -0.000332567 1.72203e-06
-1.51535e-06 1.72203e-06 -0.000602656
0.000684131 5.27801e-05 -9.1978e-07
5.27801e-05 6.86378e-05 -6.74756e-07
-9.1978e-07 -6.74756e-07 -1.30097e-05
0.000618159 3.15284e-05 -5.24991e-08
3.15284e-05 3.48454e-05 3.96912e-07
-5.24991e-08 3.96912e-07 -5.573e-05
0.000904491 2.15582e-05 -1.89298e-06
2.15582e-05 0.000201409 -1.35492e-06
-1.89298e-06 -1.35492e-06 0.000113947
0.000659821 1.90438e-06 -1.44096e-06
1.90438e-06 4.83363e-05 -1.2476e-06
-1.44096e-06 -1.2476e-06 -2.47359e-05
0.00046257 -7.78727e-06 -1.38272e-07
-7.78727e-06 -5.81703e-05 -7.6899e-07
-1.38272e-07 -7.6899e-07 -0.000146816
0.000675357 2.23075e-05 1.60992e-08
2.23075e-05 6.51293e-05 3.08341e-09
1.60992e-08 3.08341e-09 -1.24545e-05
0.000671008 7.16123e-05 -6.06728e-07
7.16123e-05 7.98822e-05 -3.38124e-07
-6.06728e-07 -3.38124e-07 -2.27081e-05
0.000622675 1.7222e-05 7.17873e-07
1.7222e-05 4.89495e-05 4.00676e-07
7.17873e-07 4.00676e-07 -5.12645e-05
0.000761518 4.38257e-05 7.1518e-07
4.38257e-05 0.000117973 -1.08049e-06
7.1518e-07 -1.08049e-06 2.59611e-05
0.000709179 -2.46498e-05 1.15915e-06
-2.46498e-05 9.87172e-05 -1.19636e-06
1.15915e-06 -1.19636e-06 -7.41037e-06
0.000546014 4.16237e-05 5.17672e-07
4.16237e-05 1.56711e-06 1.2912e-06
5.17672e-07 1.2912e-06 -9.99532e-05
0.000665968 6.55336e-05 1.1708e-06
6.55336e-05 6.28725e-05 1.81611e-06
1.1708e-06 1.81611e-06 -1.71278e-05
0.000589695 3.95757e-05 1.51658e-06
3.95757e-05 4.22636e-06 2.12106e-06
1.51658e-06 2.12106e-06 -4.83099e-05
0.000606374 -3.31316e-06 -9.48649e-07
-3.31316e-06 9.17508e-06 6.36837e-09
-9.48649e-07 6.36837e-09 -4.16706e-05
0.00126227 -1.64596e-05 7.02241e-07
-1.64596e-05 0.000372263 2.37349e-06
7.02241e-07 2.37349e-06 0.000362306
0.000605508 -3.95875e-05 4.6514e-09
-3.95875e-05 5.30915e-06 -2.27835e-06
4.6514e-09 -2.27835e-06 -4.49808e-05
0.00130325 -2.49028e-05 -3.78664e-06
-2.49028e-05 0.00039703 -1.51291e-06
-3.78664e-06 -1.51291e-06 0.000386811
0.000868725 -2.45002e-05 1.6055e-05
-2.45002e-05 0.000144303 8.10361e-06
1.6055e-05 8.10361e-06 0.000151775
0.00133979 -3.44241e-05 -6.94089e-06
-3.44241e-05 0.000420344 -5.44037e-06
-6.94089e-06 -5.44037e-06 0.000409365
0.000815183 -3.2731e-05 5.68908e-06
-3.2731e-05 0.000115574 3.03289e-06
5.68908e-06 3.03289e-06 0.000121873
0.000751975 -3.93655e-05 -1.33599e-06
-3.93655e-05 8.35142e-05 -2.11728e-06
-1.33599e-06 -2.11728e-06 8.81184e-05
0.00054341 3.64105e-05 2.76467e-07
3.64105e-05 -4.37998e-05 -3.38975e-06
2.76467e-07 -3.38975e-06 -5.85405e-05
0.000537488 5.05141e-05 -8.29299e-09
5.05141e-05 -3.45978e-05 1.31462e-07
-8.29299e-09 1.31462e-07 -5.64962e-05
0.00226857 8.20373e-05 2.11888e-05
8.20373e-05 0.000997338 -3.76625e-06
2.11888e-05 -3.76625e-06 0.00100539
0.000550807 3.67726e-05 -2.27311e-06
3.67726e-05 -2.00651e-05 5.3908e-06
-2.27311e-06 5.3908e-06 -4.72271e-05
0.00254192 0.000100265 -6.00329e-06
0.000100265 0.00116713 -4.30568e-07
-6.00329e-06 -4.30568e-07 0.00117044
0.00289048 9.35283e-05 -6.86675e-05
9.35283e-05 0.00137654 3.6817e-06
-6.86675e-05 3.6817e-06 0.00138117
0.00175461 0.00019909 9.6452e-08
0.00019909 0.000122466 2.1077e-06
9.6452e-08 2.1077e-06 1.07937e-06
0.00184688 0.000134687 -1.26998e-06
0.000134687 9.53281e-05 5.82554e-07
-1.26998e-06 5.82554e-07 9.27374e-06
0.00179521 0.00019559 2.57606e-06
0.00019559 4.98436e-05 1.32228e-06
2.57606e-06 1.32228e-06 -2.78287e-05
0.00180477 9.01166e-05 -1.36994e-06
9.01166e-05 3.17547e-05 -1.04704e-07
-1.36994e-06 -1.04704e-07 -2.08817e-05
0.00179678 3.64636e-05 1.9472e-06
3.64636e-05 7.05543e-05 -3.56518e-07
1.9472e-06 -3.56518e-07 -5.47959e-06
0.00172428 2.06257e-06 -4.42558e-07
2.06257e-06 8.87501e-05 -2.26202e-08
-4.42558e-07 -2.26202e-08 -1.16423e-05
0.00179798 -4.24421e-06 -2.48401e-08
-4.24421e-06 8.22015e-05 -7.17107e-08
-2.48401e-08 -7.17107e-08 8.57223e-06
0.00182968 4.22718e-05 1.15162e-06
4.22718e-05 4.73164e-05 1.39941e-07
1.15162e-06 1.39941e-07 2.82805e-06
0.00186889 0.000145502 6.54546e-07
0.000145502 6.50579e-05 -4.03506e-07
6.54546e-07 -4.03506e-07 3.30968e-06
0.00190712 0.000235406 1.53284e-07
0.000235406 0.000116742 1.6121e-07
1.53284e-07 1.6121e-07 2.50677e-05
0.00179737 -1.06735e-05 9.21918e-07
-1.06735e-05 3.98872e-05 -6.02187e-07
9.21918e-07 -6.02187e-07 -7.70317e-06
0.00191702 8.85433e-05 3.06064e-06
8.85433e-05 3.38479e-05 -1.17617e-08
3.06064e-06 -1.17617e-08 8.49594e-06
0.00192807 0.000210975 2.71761e-06
0.000210975 4.82157e-05 1.71095e-07
2.71761e-06 1.71095e-07 -1.47163e-05
0.00193856 -5.91448e-05 1.04578e-06
-5.91448e-05 0.00016022 4.53041e-07
1.04578e-06 4.53041e-07 8.66041e-05
0.00177075 -0.00011039 2.17364e-07
-0.00011039 4.60777e-05 -6.74378e-07
2.17364e-07 -6.74378e-07 -3.49478e-05
0.00181956 -0.000198917 -1.79025e-06
-0.000198917 9.19191e-05 6.02008e-07
-1.79025e-06 6.02008e-07 1.19445e-05
0.00129485 -0.000249159 -6.66786e-07
-0.000249159 0.000345748 4.71789e-06
-6.66786e-07 4.71789e-06 0.000138109
0.00109674 -0.000281048 2.63455e-07
-0.000281048 7.97969e-05 8.14298e-07
2.63455e-07 8.14298e-07 -0.000159518
0.00157924 -0.000410523 -8.39651e-07
-0.000410523 0.000210438 -1.19789e-06
-8.39651e-07 -1.19789e-06 -6.49233e-05
0.00167121 -0.000246691 5.44444e-07
-0.000246691 4.52348e-05 -3.11946e-07
5.44444e-07 -3.11946e-07 -5.94178e-05
0.00157705 -0.000311102 8.91147e-07
-0.000311102 4.08767e-06 -2.86191e-06
8.91147e-07 -2.86191e-06 -0.000124604
0.00175357 -0.000346637 -1.97865e-06
-0.000346637 0.000192455 -7.86187e-06
-1.97865e-06 -7.86187e-06 1.73486e-06
0.0012321 -0.000239482 3.40459e-06
-0.000239482 0.000308918 4.17299e-06
3.40459e-06 4.17299e-06 0.000122587
0.000698078 -0.00019121 -7.11923e-06
-0.00019121 3.2443e-05 1.33084e-06
-7.11923e-06 1.33084e-06 -0.000125485
0.00153757 -0.000200935 9.52946e-07
-0.000200935 0.000597605 1.45267e-07
9.52946e-07 1.45267e-07 0.000385664
0.000372422 2.24463e-05 4.50554e-07
2.24463e-05 -0.00012273 8.21405e-07
4.50554e-07 8.21405e-07 -0.000184109
0.000947495 -7.54316e-05 1.84723e-06
-7.54316e-05 0.00023712 -5.85571e-07
1.84723e-06 -5.85571e-07 9.30343e-05
0.000492548 3.46584e-05 2.42487e-06
3.46584e-05 -2.72887e-05 1.62893e-06
2.42487e-06 1.62893e-06 -0.000140359
0.00176066 -6.10243e-05 -6.05345e-07
-6.10243e-05 1.93614e-05 1.03357e-07
-6.05345e-07 1.03357e-07 -4.05011e-05
0.0019601 -0.000154005 1.38825e-07
-0.000154005 9.07107e-05 -1.62136e-07
1.38825e-07 -1.62136e-07 3.68928e-05
0.00173584 -0.000239181 -9.80567e-08
-0.000239181 2.2913e-05 4.58204e-07
-9.80567e-08 4.58204e-07 -5.12264e-05
0.00118423 -0.000258047 -1.62088e-06
-0.000258047 0.000235462 5.53202e-07
-1.62088e-06 5.53202e-07 1.77601e-05
0.00110682 -0.000339039 -5.29057e-07
-0.000339039 4.90238e-05 -5.09943e-07
-5.29057e-07 -5.09943e-07 -0.000234931
0.001732 -0.000425069 -3.35049e-06
-0.000425069 0.000289301 1.04466e-07
-3.35049e-06 1.04466e-07 1.48135e-05
0.00198057 -0.000311793 9.89834e-07
-0.000311793 0.000146157 -4.21651e-07
9.89834e-07 -4.21651e-07 4.40682e-05
0.00170346 -0.000360445 1.1315e-06
-0.000360445 7.93585e-05 -2.88067e-06
1.1315e-06 -2.88067e-06 -8.35781e-05
0.000467672 4.18911e-05 -2.16761e-07
4.18911e-05 -7.29292e-05 -9.2196e-07
-2.16761e-07 -9.2196e-07 -0.000122068
0.000745846 -9.29782e-06 -5.72664e-07
-9.29782e-06 0.000125138 3.11125e-07
-5.72664e-07 3.11125e-07 2.54398e-05
0.000302064 -0.000174792 -2.94526e-06
-0.000174792 -0.000240072 4.16757e-06
-2.94526e-06 4.16757e-06 -0.000419118
0.00140024 -0.000240906 4.78732e-07
-0.000240906 0.000464788 -3.49185e-07
4.78732e-07 -3.49185e-07 0.000263471
0.000983392 -6.50713e-05 -1.26043e-07
-6.50713e-05 0.000271613 -7.89201e-07
-1.26043e-07 -7.89201e-07 8.84219e-05
0.000847492 -7.33692e-05 -4.72873e-07
-7.33692e-05 0.000190773 1.34433e-06
-4.72873e-07 1.34433e-06 5.38295e-05
0.00188599 -7.93245e-05 2.5121e-06
-7.93245e-05 3.20425e-05 2.56488e-08
2.5121e-06 2.56488e-08 -1.46497e-06
0.00196056 -0.000219878 6.48102e-07
-0.000219878 4.41458e-05 -1.10489e-06
6.48102e-07 -1.10489e-06 1.95479e-05
0.00190763 -0.000261484 6.16294e-07
-0.000261484 7.99252e-05 -1.39839e-06
6.16294e-07 -1.39839e-06 1.40439e-05
0.00182272 -0.000402084 5.34611e-06
-0.000402084 2.50676e-05 -2.11934e-06
5.34611e-06 -2.11934e-06 -9.96368e-05
0.000473686 -0.000230053 -5.02168e-06
-0.000230053 -0.000214913 -5.7874e-06
-5.02168e-06 -5.7874e-06 -0.000455627
0.00174897 -0.000429382 -6.57123e-07
-0.000429382 0.000259177 1.15902e-05
-6.57123e-07 1.15902e-05 -5.71352e-08
0.00186663 -0.000448874 -1.23586e-06
-0.000448874 0.000448051 -1.43267e-06
-1.23586e-06 -1.43267e-06 0.000122892
0.000629585 4.24531e-05 2.16867e-07
4.24531e-05 1.44712e-05 -1.3543e-06
2.16867e-07 -1.3543e-06 -2.72223e-05
0.000693129 -0.000101925 2.58366e-06
-0.000101925 8.94848e-05 -1.75719e-06
2.58366e-06 -1.75719e-06 9.81151e-06
0.00046763 4.34326e-05 -1.95448e-06
4.34326e-05 -4.47077e-05 -1.1129e-06
-1.95448e-06 -1.1129e-06 -0.000130355
0.00069059 -4.43144e-05 -8.34841e-07
-4.43144e-05 0.00011086 2.21468e-06
-8.34841e-07 2.21468e-06 -1.60237e-05
0.000629261 -2.40309e-05 9.64662e-07
-2.40309e-05 5.0384e-05 -6.11873e-07
9.64662e-07 -6.11873e-07 -9.15858e-05
8.1982e-05 -9.17049e-05 -5.11231e-08
-9.17049e-05 -0.000249956 1.30331e-06
-5.11231e-08 1.30331e-06 -0.000427668
5.86813e-05 -0.000172269 -2.95031e-06
-0.000172269 -0.000405874 -4.82802e-06
-2.95031e-06 -4.82802e-06 -0.000576376
0.00254407 -0.000344006 -1.03525e-05
-0.000344006 0.00119347 2.5653e-06
-1.03525e-05 2.5653e-06 0.000909285
0.000642746 -9.94979e-06 -1.16103e-06
-9.94979e-06 3.98884e-05 -9.22688e-07
-1.16103e-06 -9.22688e-07 -3.77046e-05
0.00087857 2.34074e-05 4.59501e-07
2.34074e-05 0.0002059 -1.59383e-06
4.59501e-07 -1.59383e-06 8.38855e-05
0.00211539 0.000289533 -1.50526e-06
0.000289533 0.000288923 -2.54628e-07
-1.50526e-06 -2.54628e-07 0.000168236
0.000843851 6.61554e-05 -1.17197e-06
6.61554e-05 0.000193769 2.82852e-06
-1.17197e-06 2.82852e-06 2.93586e-05
0.00157952 0.000282422 7.73372e-07
0.000282422 0.000543299 -2.45522e-06
7.73372e-07 -2.45522e-06 0.000327077
0.000414005 0.00013284 -5.28907e-07
0.00013284 -0.000143566 1.25893e-06
-5.28907e-07 1.25893e-06 -0.000278757
0.00200491 0.000384379 -3.39e-06
0.000384379 0.000368685 1.70265e-07
-3.39e-06 1.70265e-07 0.000158451
0.00184556 0.000378034 -2.71633e-06
0.000378034 0.000180974 4.67294e-06
-2.71633e-06 4.67294e-06 6.39504e-08
0.00100342 0.000273204 -2.77274e-07
0.000273204 9.19246e-05 -6.48375e-07
-2.77274e-07 -6.48375e-07 -0.000184337
0.00151246 0.000374634 5.27152e-08
0.000374634 0.000182733 1.5928e-06
5.27152e-08 1.5928e-06 -6.67062e-05
0.000412385 7.12711e-06 -1.6446e-07
7.12711e-06 -7.03345e-05 1.18314e-06
-1.6446e-07 1.18314e-06 -0.000171156
0.000356201 9.50838e-05 -5.65023e-07
9.50838e-05 -6.78795e-05 -2.10349e-06
-5.65023e-07 -2.10349e-06 -0.000226018
0.00126882 0.000264313 3.21992e-06
0.000264313 0.000320229 -1.79426e-06
3.21992e-06 -1.79426e-06 9.11828e-05
0.0006193 0.000155903 -1.39445e-06
0.000155903 1.84442e-05 -3.36285e-06
-1.39445e-06 -3.36285e-06 -0.000159425
0.00200795 0.000286542 9.78656e-07
0.000286542 6.47189e-05 -9.20561e-07
9.78656e-07 -9.20561e-07 2.26217e-06
0.00210109 0.000350696 3.29059e-06
0.000350696 0.000276909 7.02654e-07
3.29059e-06 7.02654e-07 0.000131155
0.00179698 0.000409162 -1.23021e-06
0.000409162 0.000235761 2.69634e-07
-1.23021e-06 2.69634e-07 6.94082e-06
0.00111953 0.000314682 3.56186e-07
0.000314682 6.26301e-05 7.34221e-08
3.56186e-07 7.34221e-08 -0.000210869
0.00049594 3.18024e-05 -1.09289e-06
3.18024e-05 -2.92844e-05 2.64696e-06
-1.09289e-06 2.64696e-06 -0.000129193
0.00188962 0.000230281 -1.26799e-06
0.000230281 -3.53119e-05 1.46307e-06
-1.26799e-06 1.46307e-06 -5.86865e-05
0.00153381 0.000255277 5.54816e-07
0.000255277 0.000619671 2.52232e-06
5.54816e-07 2.52232e-06 0.000412959
0.00123334 0.000272455 3.13748e-06
0.000272455 0.000262689 4.17495e-06
3.13748e-06 4.17495e-06 2.719e-05
0.00246872 0.000346805 -1.76098e-05
0.000346805 0.000383777 -4.34293e-06
-1.76098e-05 -4.34293e-06 0.000286845
0.00114851 0.000383464 -2.94719e-06
0.000383464 -0.000211601 -7.03637e-06
-2.94719e-06 -7.03637e-06 -0.000422937
0.00200237 0.000422928 -2.14076e-06
0.000422928 0.00048365 3.42252e-06
-2.14076e-06 3.42252e-06 0.000200483
0.000691704 4.5925e-05 -1.22049e-06
4.5925e-05 7.81472e-05 -4.67934e-07
-1.22049e-06 -4.67934e-07 -1.20128e-05
0.000729892 3.8216e-05 -1.16465e-06
3.8216e-05 0.000104474 -4.94234e-07
-1.16465e-06 -4.94234e-07 1.42106e-05
0.000942087 2.53935e-05 -1.51515e-06
2.53935e-05 0.000236656 -6.72523e-10
-1.51515e-06 -6.72523e-10 0.000149776
0.000637183 -8.20348e-06 -4.32788e-08
-8.20348e-06 4.49686e-05 -1.82382e-06
-4.32788e-08 -1.82382e-06 -3.42322e-05
0.00067711 4.07818e-05 8.12773e-07
4.07818e-05 8.24757e-05 6.48225e-08
8.12773e-07 6.48225e-08 -1.83592e-05
0.000394907 9.24219e-06 -7.28859e-07
9.24219e-06 -7.00637e-05 8.52827e-07
-7.28859e-07 8.52827e-07 -0.000175
0.000645888 1.18799e-06 -5.4631e-07
1.18799e-06 5.71829e-05 -1.19054e-08
-5.4631e-07 -1.19054e-08 -2.70669e-05
0.000518089 -2.37196e-05 -6.54522e-07
-2.37196e-05 -7.22362e-06 3.8845e-07
-6.54522e-07 3.8845e-07 -0.000112625
0.000566182 -4.86154e-06 5.41274e-07
-4.86154e-06 9.07865e-06 9.37616e-09
5.41274e-07 9.37616e-09 -8.08867e-05
0.000780967 3.4113e-05 4.4789e-07
3.4113e-05 0.000151081 -1.14942e-07
4.4789e-07 -1.14942e-07 3.70461e-05
0.00104717 3.38265e-05 3.15825e-07
3.38265e-05 0.000273063 -1.33966e-06
3.15825e-07 -1.33966e-06 0.000190897
0.000709832 -2.81385e-05 1.58464e-06
-2.81385e-05 9.07031e-05 -1.746e-06
1.58464e-06 -1.746e-06 -5.23118e-06
0.000767708 2.99734e-05 -2.57498e-08
2.99734e-05 0.000141057 4.60794e-08
-2.57498e-08 4.60794e-08 2.2598e-05
0.000641136 3.17866e-05 1.87727e-06
3.17866e-05 6.67569e-05 1.50629e-06
1.87727e-06 1.50629e-06 -4.63109e-05
0.000667767 2.00966e-05 1.41495e-06
2.00966e-05 6.35766e-05 1.83559e-06
1.41495e-06 1.83559e-06 -1.88847e-05
0.000591171 -2.43798e-05 -2.07093e-07
-2.43798e-05 4.71273e-06 1.91718e-06
-2.07093e-07 1.91718e-06 -4.73113e-05
0.000605436 -8.31319e-06 -3.1681e-07
-8.31319e-06 1.10983e-05 3.09347e-08
-3.1681e-07 3.09347e-08 -3.9851e-05
0.00127554 -6.06686e-06 6.32917e-07
-6.06686e-06 0.000380877 2.26064e-06
6.32917e-07 2.26064e-06 0.000370461
0.000614855 -2.74603e-05 6.9528e-07
-2.74603e-05 1.29597e-05 -2.40376e-06
6.9528e-07 -2.40376e-06 -3.70271e-05
0.00130789 -1.39032e-05 -2.86145e-06
-1.39032e-05 0.000399812 -1.56658e-06
-2.86145e-06 -1.56658e-06 0.000389737
0.000861917 -1.67061e-05 1.20026e-05
-1.67061e-05 0.000137956 8.2731e-06
1.20026e-05 8.2731e-06 0.00014597
0.0013513 -2.30685e-05 -4.95897e-06
-2.30685e-05 0.000425746 -5.54857e-06
-4.95897e-06 -5.54857e-06 0.000415379
0.000825159 -2.49222e-05 3.79058e-06
-2.49222e-05 0.000117353 3.14127e-06
3.79058e-06 3.14127e-06 0.00012472
0.000770153 -3.16062e-05 -8.97634e-07
-3.16062e-05 8.77489e-05 -2.0938e-06
-8.97634e-07 -2.0938e-06 9.42507e-05
0.000664239 1.10205e-05 9.81006e-07
1.10205e-05 3.12117e-05 -1.54669e-06
9.81006e-07 -1.54669e-06 -7.18326e-06
0.00055796 2.82718e-05 4.03112e-07
2.82718e-05 -4.24765e-05 -3.47382e-06
4.03112e-07 -3.47382e-06 -5.35932e-05
0.000564443 3.73905e-05 8.97521e-08
3.73905e-05 -3.08645e-05 1.08155e-07
8.97521e-08 1.08155e-07 -4.59754e-05
0.0021516 6.65234e-05 1.85249e-05
6.65234e-05 0.000919425 -3.97293e-06
1.85249e-05 -3.97293e-06 0.000931368
0.000565572 5.51222e-05 2.35208e-06
5.51222e-05 -1.65175e-05 4.7256e-06
2.35208e-06 4.7256e-06 -3.97921e-05
0.00236803 8.54314e-05 -3.95713e-06
8.54314e-05 0.00105691 -2.97933e-07
-3.95713e-06 -2.97933e-07 0.0010641
0.00265017 0.000102126 -3.35892e-05
0.000102126 0.00123107 3.59573e-06
-3.35892e-05 3.59573e-06 0.001234
0.00194865 0.000232737 -3.79118e-07
0.000232737 0.000127978 1.66784e-06
-3.79118e-07 1.66784e-06 3.87345e-05
0.00187573 0.000150602 -2.31096e-06
0.000150602 6.62476e-05 -4.50851e-07
-2.31096e-06 -4.50851e-07 4.40414e-06
0.00183386 4.41827e-05 -1.61922e-06
4.41827e-05 6.06624e-05 3.3286e-08
-1.61922e-06 3.3286e-08 1.38413e-05
0.00178669 -9.80736e-07 3.6755e-07
-9.80736e-07 7.50813e-05 -1.6203e-07
3.6755e-07 -1.6203e-07 1.63665e-06
0.00180692 -6.2759e-06 -1.24688e-06
-6.2759e-06 4.38716e-05 -1.33211e-07
-1.24688e-06 -1.33211e-07 -1.29167e-06
0.00190386 8.38259e-05 2.25104e-07
8.38259e-05 2.9153e-05 -4.32669e-08
2.25104e-07 -4.32669e-08 2.22111e-06
0.0019243 0.000214891 -5.9575e-07
0.000214891 4.45446e-05 -1.72208e-07
-5.9575e-07 -1.72208e-07 -1.64363e-05
0.00190995 4.0674e-07 2.50312e-06
4.0674e-07 2.35215e-05 -3.90496e-07
2.50312e-06 -3.90496e-07 1.025e-05
0.00198755 0.0001249 2.0286e-06
0.0001249 1.83361e-05 -3.14517e-07
2.0286e-06 -3.14517e-07 -3.30936e-06
0.00216072 7.2147e-05 -4.24676e-06
7.2147e-05 0.000172037 3.10782e-06
-4.24676e-06 3.10782e-06 0.000199608
0.00189845 -6.19166e-05 -2.89911e-06
-6.19166e-05 0.00010039 6.0136e-08
-2.89911e-06 6.0136e-08 3.97503e-05
0.00190409 -0.000159782 -3.33649e-06
-0.000159782 5.70477e-05 1.01097e-06
-3.33649e-06 1.01097e-06 -4.21408e-07
0.00188168 -0.000242382 -2.62672e-06
-0.000242382 0.000110711 1.5139e-06
-2.62672e-06 1.5139e-06 3.51912e-05
0.0010421 -0.000242465 -3.78925e-07
-0.000242465 0.000152326 5.98912e-06
-3.78925e-07 5.98912e-06 -6.33393e-05
0.00107858 -0.000332227 9.24199e-07
-0.000332227 3.56926e-05 2.06684e-06
9.24199e-07 2.06684e-06 -0.000242701
0.00168721 -0.00041407 -3.93531e-06
-0.00041407 0.000271193 -3.0821e-06
-3.93531e-06 -3.0821e-06 5.68355e-06
0.00194622 -0.000314118 2.66348e-06
-0.000314118 0.000130632 2.98136e-07
2.66348e-06 2.98136e-07 2.69331e-05
0.00150926 -0.000347058 -3.60554e-06
-0.000347058 -3.30385e-05 -6.04589e-06
-3.60554e-06 -6.04589e-06 -0.000194596
9.60051e-05 -0.00015398 -1.72211e-06
-0.00015398 -0.000356285 9.17165e-06
-1.72211e-06 9.17165e-06 -0.000527389
0.0019616 -0.000278107 1.2859e-05
-0.000278107 0.000807786 -3.18961e-06
1.2859e-05 -3.18961e-06 0.000602566
0.000692017 -2.54055e-05 3.3883e-07
-2.54055e-05 9.00117e-05 -7.61453e-07
3.3883e-07 -7.61453e-07 -7.72579e-05
0.000574889 1.53124e-05 -6.77058e-08
1.53124e-05 -1.14831e-05 5.47828e-07
-6.77058e-08 5.47828e-07 -5.73502e-05
0.00080847 2.21792e-05 1.0523e-06
2.21792e-05 0.000158707 1.02285e-06
1.0523e-06 1.02285e-06 5.97051e-05
0.000865001 -4.69317e-05 8.95943e-07
-4.69317e-05 0.000202796 1.58769e-06
8.95943e-07 1.58769e-06 6.41262e-05
0.00189389 -8.14365e-05 2.28109e-07
-8.14365e-05 3.06047e-05 -9.77977e-08
2.28109e-07 -9.77977e-08 5.05445e-07
0.000608101 1.68562e-05 9.99213e-07
1.68562e-05 1.62216e-06 1.14897e-07
9.99213e-07 1.14897e-07 -3.95396e-05
0.000552598 -3.32752e-05 -1.73272e-06
-3.32752e-05 -9.48523e-06 -5.03448e-08
-1.73272e-06 -5.03448e-08 -7.87018e-05
0.00193632 -0.000210868 -2.78881e-07
-0.000210868 4.64802e-05 2.45433e-07
-2.78881e-07 2.45433e-07 1.66829e-05
0.00186246 -0.000261435 -1.48709e-06
-0.000261435 5.06287e-05 2.85886e-07
-1.48709e-06 2.85886e-07 -1.50925e-05
0.000713052 -0.000248914 -2.41076e-07
-0.000248914 -6.64152e-05 2.31144e-06
-2.41076e-07 2.31144e-06 -0.000304697
0.00183951 -0.000445173 -2.83436e-07
-0.000445173 0.000441946 2.55311e-07
-2.83436e-07 2.55311e-07 0.000113124
0.00156055 -0.000418255 2.81989e-06
-0.000418255 0.000130933 -1.3619e-06
2.81989e-06 -1.3619e-06 -0.000121411
0.00202332 -0.000410625 2.5383e-06
-0.000410625 0.000150204 -8.37122e-07
2.5383e-06 -8.37122e-07 2.27546e-05
0.000727739 -1.41095e-05 9.2651e-07
-1.41095e-05 0.000112998 -1.10098e-06
9.2651e-07 -1.10098e-06 2.68679e-05
0.000734957 -2.82688e-05 2.50439e-07
-2.82688e-05 0.00013705 1.24434e-06
2.50439e-07 1.24434e-06 8.14601e-06
0.0009553 -0.000228413 -3.26955e-06
-0.000228413 0.000113693 -1.12387e-06
-3.26955e-06 -1.12387e-06 -6.88299e-05
0.00153562 -0.000257373 1.32342e-05
-0.000257373 0.000599445 -3.44829e-06
1.32342e-05 -3.44829e-06 0.000361873
0.000475177 -8.27952e-05 -2.53061e-06
-8.27952e-05 -2.91836e-05 -2.43937e-08
-2.53061e-06 -2.43937e-08 -0.000203644
0.000687339 -2.40861e-05 4.54138e-07
-2.40861e-05 9.39766e-05 -7.2684e-07
4.54138e-07 -7.2684e-07 -5.1952e-05
0.0019197 -9.05367e-05 2.64672e-06
-9.05367e-05 -1.98815e-05 -1.03553e-06
2.64672e-06 -1.03553e-06 -4.13248e-05
0.0018676 -0.000238977 -3.74698e-07
-0.000238977 -3.95065e-05 -4.05844e-07
-3.74698e-07 -4.05844e-07 -1.35841e-05
0.00201192 -0.000368519 -2.22641e-06
-0.000368519 5.74244e-05 -2.38677e-06
-2.22641e-06 -2.38677e-06 -2.40779e-05
0.00159544 -0.000462856 2.93487e-06
-0.000462856 1.91809e-05 6.59999e-08
2.93487e-06 6.59999e-08 -0.000137675
0.000816993 -0.000226421 -8.62992e-06
-0.000226421 1.20104e-05 -8.07994e-06
-8.62992e-06 -8.07994e-06 -0.000225717
0.00246199 -0.000534629 -6.45563e-06
-0.000534629 0.000765366 6.12639e-06
-6.45563e-06 6.12639e-06 0.000414273
0.000418353 5.36717e-05 -1.16845e-06
5.36717e-05 -8.0293e-05 -2.26509e-06
-1.16845e-06 -2.26509e-06 -0.000154044
0.000669319 -5.84661e-05 2.9341e-06
-5.84661e-05 6.12377e-05 -8.87377e-07
2.9341e-06 -8.87377e-07 -1.01366e-05
0.000927292 -8.2725e-05 1.44632e-06
-8.2725e-05 0.000225301 1.12038e-06
1.44632e-06 1.12038e-06 0.000129659
0.000436092 1.71846e-05 -1.61822e-06
1.71846e-05 -4.43384e-05 2.51962e-06
-1.61822e-06 2.51962e-06 -0.000164311
0.000927955 -6.21562e-05 -1.4986e-06
-6.21562e-05 0.000236021 1.86687e-06
-1.4986e-06 1.86687e-06 0.000108002
0.00102232 -4.67025e-05 2.3522e-06
-4.67025e-05 0.000249004 9.3505e-07
2.3522e-06 9.3505e-07 9.09229e-05
-0.000438421 -9.10326e-05 6.27712e-06
-9.10326e-05 -0.000409616 6.89715e-07
6.27712e-06 6.89715e-07 -0.000722242
7.87636e-05 -0.000227227 -1.85904e-05
-0.000227227 -0.000381464 2.51265e-06
-1.85904e-05 2.51265e-06 -0.000558262
0.000409028 4.51941e-05 9.0948e-08
4.51941e-05 -6.70238e-05 -1.03655e-06
9.0948e-08 -1.03655e-06 -0.0001729
0.000785564 0.000127567 -3.55083e-06
0.000127567 0.000181817 -2.78971e-06
-3.55083e-06 -2.78971e-06 1.98819e-05
0.00209428 0.000282279 -2.57382e-06
0.000282279 0.00011184 -9.90734e-07
-2.57382e-06 -9.90734e-07 4.96689e-05
0.00193961 0.000348579 -7.11708e-07
0.000348579 0.000191311 1.81505e-06
-7.11708e-07 1.81505e-06 4.10774e-05
0.00178945 0.000221769 -6.8902e-06
0.000221769 0.000683259 -2.35793e-06
-6.8902e-06 -2.35793e-06 0.000504492
0.00122694 0.000261858 -3.0818e-06
0.000261858 0.000305731 -9.02958e-06
-3.0818e-06 -9.02958e-06 7.34091e-05
0.00182742 0.000406418 7.44105e-07
0.000406418 0.000244389 1.55019e-06
7.44105e-07 1.55019e-06 1.728e-05
0.0017551 0.000371414 -2.34497e-07
0.000371414 0.000412791 -9.82745e-07
-2.34497e-07 -9.82745e-07 0.000136113
0.000593158 5.85082e-05 7.94385e-07
5.85082e-05 3.92745e-05 -9.08864e-07
7.94385e-07 -9.08864e-07 -7.07575e-05
0.0019973 0.000221147 -5.92616e-07
0.000221147 1.51575e-05 -3.78895e-07
-5.92616e-07 -3.78895e-07 -1.71479e-07
0.000987984 0.000183798 8.8963e-07
0.000183798 0.000294396 1.60445e-06
8.8963e-07 1.60445e-06 0.000103673
0.00092481 0.000245346 1.23523e-06
0.000245346 9.44644e-05 4.68912e-07
1.23523e-06 4.68912e-07 -0.000139409
0.00225402 0.000338444 2.92881e-06
0.000338444 0.000268166 6.20984e-07
2.92881e-06 6.20984e-07 0.000172698
0.00143686 0.000401957 -6.88581e-07
0.000401957 -4.86567e-05 -3.14844e-06
-6.88581e-07 -3.14844e-06 -0.000258962
0.00204374 0.000425188 1.14685e-07
0.000425188 0.000521495 4.71376e-07
1.14685e-07 4.71376e-07 0.000237115
0.00116969 0.000134648 -3.6466e-06
0.000134648 0.000397074 2.96048e-06
-3.6466e-06 2.96048e-06 0.000248193
0.00243961 0.000247657 -4.18522e-05
0.000247657 0.000321912 -1.02641e-05
-4.18522e-05 -1.02641e-05 0.000333697
0.00242472 0.000382232 -5.9777e-06
0.000382232 0.00106375 2.14527e-07
-5.9777e-06 2.14527e-07 0.000837619
0.00221084 0.00039676 -7.40961e-06
0.00039676 0.00074457 -5.6152e-08
-7.40961e-06 -5.6152e-08 0.000483034
0.00201807 0.000458511 -1.95105e-05
0.000458511 0.000157915 -1.29109e-05
-1.95105e-05 -1.29109e-05 1.7338e-05
0.00111432 0.000378397 -1.41248e-05
0.000378397 -6.20059e-05 -6.99166e-07
-1.41248e-05 -6.99166e-07 -0.000326249
0.00071957 0.000316663 2.6498e-05
0.000316663 -0.000580299 -1.81375e-05
2.6498e-05 -1.81375e-05 -0.000803394
0.000534261 5.29444e-05 8.3056e-07
5.29444e-05 -1.02922e-06 -4.21976e-07
8.3056e-07 -4.21976e-07 -9.51365e-05
0.000673529 3.38773e-05 -1.52473e-07
3.38773e-05 9.18284e-05 8.52611e-07
-1.52473e-07 8.52611e-07 2.03581e-06
0.00135175 6.0737e-05 4.20279e-08
6.0737e-05 0.000474702 -7.78029e-07
4.20279e-08 -7.78029e-07 0.000382423
0.000619351 -5.89186e-05 1.14971e-07
-5.89186e-05 4.76744e-05 -2.29556e-06
1.14971e-07 -2.29556e-06 -4.02765e-05
0.000563784 -4.22888e-05 -1.07673e-06
-4.22888e-05 1.53468e-05 -2.85933e-09
-1.07673e-06 -2.85933e-09 -8.65974e-05
0.000912288 0.000119753 -1.23345e-07
0.000119753 0.000228224 7.01544e-07
-1.23345e-07 7.01544e-07 0.000112036
0.000402916 -1.85625e-05 -1.19576e-06
-1.85625e-05 -7.79152e-05 2.91948e-06
-1.19576e-06 2.91948e-06 -0.000169952
0.000640857 -2.30402e-05 -1.11803e-07
-2.30402e-05 5.90301e-05 -3.6192e-08
-1.11803e-07 -3.6192e-08 -3.04619e-05
0.000637767 3.81098e-05 -9.91316e-08
3.81098e-05 5.13558e-05 -3.77631e-07
-9.91316e-08 -3.77631e-07 -5.23593e-05
0.000842024 2.7567e-05 -1.06167e-06
2.7567e-05 0.000155733 1.04298e-07
-1.06167e-06 1.04298e-07 7.22932e-05
0.000758967 1.67246e-05 4.01244e-07
1.67246e-05 0.000124529 -8.58295e-08
4.01244e-07 -8.58295e-08 1.46686e-05
0.000782005 -6.13244e-06 -3.05177e-08
-6.13244e-06 0.000130666 -2.55798e-07
-3.05177e-08 -2.55798e-07 3.24785e-05
0.000868719 2.57162e-05 -5.87437e-07
2.57162e-05 0.000168216 -2.85957e-06
-5.87437e-07 -2.85957e-06 8.33352e-05
0.000806236 3.28384e-05 -1.43518e-06
3.28384e-05 0.000140242 -2.18412e-06
-1.43518e-06 -2.18412e-06 2.87351e-05
0.000809185 6.88258e-05 4.05833e-07
6.88258e-05 0.000145405 3.48979e-07
4.05833e-07 3.48979e-07 3.85392e-05
0.000691827 4.04862e-05 2.4444e-07
4.04862e-05 9.60209e-05 1.20435e-06
2.4444e-07 1.20435e-06 -2.34038e-05
0.000491306 -1.96166e-05 -1.50655e-07
-1.96166e-05 -4.32889e-05 2.01834e-06
-1.50655e-07 2.01834e-06 -0.000128792
0.000886508 -2.59083e-05 5.6832e-08
-2.59083e-05 0.000227892 -1.0152e-06
5.6832e-08 -1.0152e-06 0.000107309
0.000434088 -1.05098e-05 -7.71564e-07
-1.05098e-05 -7.28075e-05 2.18164e-06
-7.71564e-07 2.18164e-06 -0.000162552
0.000564631 7.09251e-06 -1.0899e-06
7.09251e-06 -8.02417e-06 1.9205e-06
-1.0899e-06 1.9205e-06 -6.21971e-05
0.000581418 1.97184e-05 1.111e-06
1.97184e-05 8.30183e-07 -8.49953e-09
1.111e-06 -8.49953e-09 -5.23262e-05
0.000552829 3.39418e-06 2.7971e-07
3.39418e-06 -4.63031e-05 3.71938e-06
2.7971e-07 3.71938e-06 -6.15156e-05
0.000592009 -1.52447e-06 -1.41998e-06
-1.52447e-06 4.82295e-06 -2.21093e-06
-1.41998e-06 -2.21093e-06 -4.73583e-05
0.000942853 -3.07221e-06 -1.91283e-06
-3.07221e-06 0.000184354 -1.64663e-06
-1.91283e-06 -1.64663e-06 0.000171679
0.00235164 -1.3078e-05 7.80479e-06
-1.3078e-05 0.00102022 5.17076e-06
7.80479e-06 5.17076e-06 0.00103617
0.00135703 -1.22958e-05 -2.95769e-06
-1.22958e-05 0.000429479 -5.47969e-06
-2.95769e-06 -5.47969e-06 0.000419136
0.000823917 -1.66972e-05 2.03094e-06
-1.66972e-05 0.000114026 3.2021e-06
2.03094e-06 3.2021e-06 0.000122136
0.000783583 -2.34097e-05 -3.46886e-07
-2.34097e-05 9.1335e-05 -2.11488e-06
-3.46886e-07 -2.11488e-06 9.8999e-05
0.000622131 7.78613e-06 -4.5568e-07
7.78613e-06 9.1652e-06 -1.52414e-06
-4.5568e-07 -1.52414e-06 -2.8759e-05
0.000635702 -2.88636e-06 9.52808e-07
-2.88636e-06 1.56469e-05 -1.05526e-07
9.52808e-07 -1.05526e-07 -2.3634e-05
0.000584538 2.14947e-05 3.35557e-07
2.14947e-05 -3.0091e-05 -3.40057e-06
3.35557e-07 -3.40057e-06 -3.90272e-05
0.000890362 3.414e-05 -3.8145e-07
3.414e-05 0.000155769 4.85225e-08
-3.8145e-07 4.85225e-08 0.000146075
0.00211576 5.31821e-05 1.46388e-05
5.31821e-05 0.000891383 -4.18336e-06
1.46388e-05 -4.18336e-06 0.000905983
0.000571808 3.95298e-05 5.12732e-07
3.95298e-05 -2.55138e-05 3.74601e-06
5.12732e-07 3.74601e-06 -4.1184e-05
0.00221401 6.94513e-05 -2.87512e-06
6.94513e-05 0.000957524 -1.81587e-07
-2.87512e-06 -1.81587e-07 0.000968686
0.0024287 8.78589e-05 -2.23899e-05
8.78589e-05 0.00109332 3.94516e-06
-2.23899e-05 3.94516e-06 0.00109986
0.00192302 0.00021875 -4.23661e-06
0.00021875 4.13655e-05 -1.46308e-06
-4.23661e-06 -1.46308e-06 -1.74447e-05
0.00189251 7.95906e-05 -2.24165e-06
7.95906e-05 2.52889e-05 2.66503e-07
-2.24165e-06 2.66503e-07 -3.07001e-06
0.0018288 -4.04016e-06 -3.43575e-06
-4.04016e-06 5.5497e-05 7.57497e-08
-3.43575e-06 7.57497e-08 1.28251e-05
0.00190125 5.44626e-07 7.80667e-08
5.44626e-07 2.14309e-05 -1.66515e-07
7.80667e-08 -1.66515e-07 8.00273e-06
0.00196768 0.000124325 2.74049e-07
0.000124325 2.22578e-05 9.09497e-08
2.74049e-07 9.09497e-08 -8.54781e-07
0.00188827 6.17926e-05 4.13869e-06
6.17926e-05 6.05127e-06 2.84726e-07
4.13869e-06 2.84726e-07 2.69482e-05
0.00195346 8.23325e-06 -3.59754e-07
8.23325e-06 -1.52806e-05 -7.14685e-07
-3.59754e-07 -7.14685e-07 -5.98087e-06
0.00283506 0.000296841 3.17254e-05
0.000296841 -0.000248694 6.08017e-06
3.17254e-05 6.08017e-06 -0.000126826
0.00216788 3.7347e-05 -2.89689e-05
3.7347e-05 0.000315572 9.68298e-06
-2.89689e-05 9.68298e-06 0.000376838
0.000613392 7.79845e-05 -9.5861e-07
7.79845e-05 3.74349e-05 -4.95815e-07
-9.5861e-07 -4.95815e-07 -3.31903e-05
0.00189505 -8.30502e-05 -2.33582e-06
-8.30502e-05 2.62704e-05 7.01165e-08
-2.33582e-06 7.01165e-08 -6.78767e-07
0.00190444 -0.000202139 -7.35528e-07
-0.000202139 4.54894e-05 1.04562e-06
-7.35528e-07 1.04562e-06 8.80005e-06
0.00182441 -0.000263236 2.86248e-07
-0.000263236 2.60074e-05 1.78273e-06
2.86248e-07 1.78273e-06 -4.0215e-05
0.000541963 -0.000229883 9.26074e-07
-0.000229883 -0.000155668 8.94992e-06
9.26074e-07 8.94992e-06 -0.000385454
0.00185296 -0.000444271 2.09696e-06
-0.000444271 0.000457494 5.19142e-06
2.09696e-06 5.19142e-06 0.000125516
0.00144256 -0.000414811 -3.79483e-07
-0.000414811 4.04491e-05 -7.98362e-06
-3.79483e-07 -7.98362e-06 -0.000207777
0.00225706 -0.000423732 -4.10704e-06
-0.000423732 0.000292963 -1.79995e-06
-4.10704e-06 -1.79995e-06 0.000161053
0.00172856 -0.000278563 1.38389e-05
-0.000278563 0.00055274 -8.19732e-07
1.38389e-05 -8.19732e-07 0.000359838
0.000426357 -0.000164986 1.02613e-05
-0.000164986 -4.98941e-05 -5.00976e-06
1.02613e-05 -5.00976e-06 -0.000242055
0.000994807 -0.000107138 1.03397e-06
-0.000107138 0.000269625 -2.07415e-06
1.03397e-06 -2.07415e-06 9.46194e-05
0.000609736 4.24829e-06 -8.38254e-07
4.24829e-06 2.09137e-06 1.56091e-06
-8.38254e-07 1.56091e-06 -3.81626e-05
0.000831913 -1.66363e-05 1.94601e-06
-1.66363e-05 0.000188654 -7.53681e-07
1.94601e-06 -7.53681e-07 3.80001e-05
0.000924087 -3.998e-05 1.81734e-06
-3.998e-05 0.000234816 -4.69769e-07
1.81734e-06 -4.69769e-07 0.000147766
0.000833381 -2.33872e-05 8.04962e-07
-2.33872e-05 0.000191574 -6.05384e-07
8.04962e-07 -6.05384e-07 6.17128e-05
0.000407085 -2.43737e-05 -1.84812e-06
-2.43737e-05 -0.000101398 1.01547e-06
-1.84812e-06 1.01547e-06 -0.00016729
0.00194891 -0.000103699 -2.2293e-07
-0.000103699 -2.37634e-05 7.73353e-08
-2.2293e-07 7.73353e-08 -3.27455e-05
0.000514175 3.57412e-05 6.8645e-08
3.57412e-05 -1.9052e-05 -1.22872e-06
6.8645e-08 -1.22872e-06 -9.47105e-05
0.000658159 -5.33745e-05 7.164e-07
-5.33745e-05 6.19509e-05 4.26147e-07
7.164e-07 4.26147e-07 -1.33306e-05
0.000787673 -5.16148e-05 -1.28296e-07
-5.16148e-05 0.000143174 7.71661e-07
-1.28296e-07 7.71661e-07 4.72752e-05
0.00188865 -0.000242438 1.16957e-06
-0.000242438 -1.95537e-05 -1.97724e-07
1.16957e-06 -1.97724e-07 -4.4475e-06
0.00203223 -0.00036743 -5.44726e-07
-0.00036743 8.03049e-05 -3.36877e-07
-5.44726e-07 -3.36877e-07 -3.06436e-06
0.00124277 -0.000280874 5.72968e-06
-0.000280874 0.000237805 -2.01011e-07
5.72968e-06 -2.01011e-07 6.09482e-07
0.00200146 -0.000494282 5.39388e-06
-0.000494282 0.000521311 1.98283e-07
5.39388e-06 1.98283e-07 0.000180963
0.00183086 -0.000474936 -7.56125e-07
-0.000474936 0.000167717 1.38585e-06
-7.56125e-07 1.38585e-06 2.17196e-06
0.000497466 -1.05902e-05 -4.22196e-07
-1.05902e-05 -4.80947e-06 -2.02979e-07
-4.22196e-07 -2.02979e-07 -0.00012265
0.000831611 -7.23322e-05 -1.57337e-06
-7.23322e-05 0.000185776 4.76201e-07
-1.57337e-06 4.76201e-07 4.84296e-05
0.000650369 -0.000273796 -5.86619e-06
-0.000273796 -3.96671e-05 9.41746e-08
-5.86619e-06 9.41746e-08 -0.000250223
0.000536214 -0.000103944 -2.17736e-07
-0.000103944 8.8069e-05 -1.2964e-06
-2.17736e-07 -1.2964e-06 -0.000178153
0.00071317 -6.83508e-05 -5.22163e-08
-6.83508e-05 7.24126e-05 -2.22887e-07
-5.22163e-08 -2.22887e-07 -8.16182e-05
0.00234458 -0.000212896 -2.54222e-06
-0.000212896 0.000187787 -1.7546e-06
-2.54222e-06 -1.7546e-06 0.000189802
0.00176301 -0.000255906 -1.00739e-05
-0.000255906 -0.000130433 1.8756e-06
-1.00739e-05 1.8756e-06 -8.85756e-05
0.00249635 -0.000517191 -5.96551e-06
-0.000517191 0.00036522 -3.41567e-06
-5.96551e-06 -3.41567e-06 0.000223611
0.00278844 -0.000586154 -1.92249e-05
-0.000586154 0.000808879 2.34608e-06
-1.92249e-05 2.34608e-06 0.000578888
0.00130464 -0.000313428 -1.44395e-05
-0.000313428 0.000322224 -3.11534e-06
-1.44395e-05 -3.11534e-06 6.83377e-05
0.000445935 7.37908e-06 1.25062e-06
7.37908e-06 -5.57671e-05 -8.3211e-07
1.25062e-06 -8.3211e-07 -0.000150888
0.000501169 4.63129e-05 3.76453e-07
4.63129e-05 -3.2475e-05 5.39411e-07
3.76453e-07 5.39411e-07 -0.000132048
0.00045507 8.83757e-07 8.98818e-08
8.83757e-07 -4.9388e-05 -1.09427e-06
8.98818e-08 -1.09427e-06 -0.000155105
0.00128825 -0.000148396 -2.1329e-06
-0.000148396 0.000470203 4.3335e-06
-2.1329e-06 4.3335e-06 0.000333764
0.000478654 -5.52805e-05 -5.70603e-07
-5.52805e-05 -4.41594e-05 5.14319e-06
-5.70603e-07 5.14319e-06 -0.000173451
-1.33582e-05 -7.26268e-05 2.09732e-06
-7.26268e-05 -0.000185518 3.14914e-06
2.09732e-06 3.14914e-06 -0.000470637
0.000268006 -0.000318615 4.08742e-06
-0.000318615 -5.87961e-05 -1.37257e-06
4.08742e-06 -1.37257e-06 -0.000397827
0.000745127 9.33878e-05 1.40268e-06
9.33878e-05 0.000142209 -4.34014e-06
1.40268e-06 -4.34014e-06 1.87252e-05
0.000188882 8.54186e-05 5.68781e-07
8.54186e-05 -0.000179892 -1.34047e-06
5.68781e-07 -1.34047e-06 -0.00034958
0.00212202 0.000210721 7.63274e-06
0.000210721 7.4045e-05 -2.9763e-08
7.63274e-06 -2.9763e-08 6.8648e-05
0.0020274 0.000329365 1.29833e-05
0.000329365 0.000145529 3.41972e-06
1.29833e-05 3.41972e-06 5.26786e-05
0.00187364 0.000431046 9.31467e-06
0.000431046 0.000193728 3.53854e-06
9.31467e-06 3.53854e-06 -1.65546e-05
0.000669389 0.000224039 1.38559e-06
0.000224039 -4.54083e-05 -6.54113e-07
1.38559e-06 -6.54113e-07 -0.000277614
0.00203431 0.000423774 2.30198e-06
0.000423774 0.000530115 7.34953e-07
2.30198e-06 7.34953e-07 0.000246286
0.00134712 0.0001146 -8.54088e-08
0.0001146 0.000485038 4.66229e-07
-8.54088e-08 4.66229e-07 0.000347114
0.0021883 0.000213467 -2.35549e-06
0.000213467 0.000202804 4.25869e-07
-2.35549e-06 4.25869e-07 0.000222726
0.00153526 0.000275895 -1.71638e-06
0.000275895 0.000546689 4.32233e-07
-1.71638e-06 4.32233e-07 0.000343676
0.00152535 0.000334041 -5.99761e-07
0.000334041 0.000382131 9.18972e-07
-5.99761e-07 9.18972e-07 0.000120641
0.00200167 0.00044295 -1.58914e-06
0.00044295 0.000152422 -3.32349e-06
-1.58914e-06 -3.32349e-06 2.17327e-05
0.00164898 0.000427517 -2.86455e-06
0.000427517 0.000239048 4.56595e-06
-2.86455e-06 4.56595e-06 -3.67958e-05
0.00190773 0.000410753 3.21482e-05
0.000410753 -0.000222621 3.13126e-06
3.21482e-05 3.13126e-06 -0.00052871
0.00120627 0.000188587 -5.08264e-06
0.000188587 0.000429411 -1.05398e-06
-5.08264e-06 -1.05398e-06 0.000266389
0.00226139 0.000347711 -4.83863e-05
0.000347711 0.000326922 -2.45718e-05
-4.83863e-05 -2.45718e-05 0.00031624
0.00125821 0.000270406 -5.81037e-06
0.000270406 0.00032676 -1.12899e-06
-5.81037e-06 -1.12899e-06 0.000131706
0.000831565 0.000302588 -3.20476e-06
0.000302588 -6.01436e-05 -3.54871e-06
-3.20476e-06 -3.54871e-06 -0.000325007
3.25223e-05 0.000387273 -1.53329e-05
0.000387273 -0.000766197 -6.49467e-06
-1.53329e-05 -6.49467e-06 -0.000960333
0.0103036 0.00034924 -0.000186317
0.00034924 0.00229675 -3.81085e-05
-0.000186317 -3.81085e-05 0.00141501
0.00557452 0.000774598 0.000130705
0.000774598 0.000722328 -2.14845e-05
0.000130705 -2.14845e-05 0.000358202
0.0011939 0.000553551 1.99063e-05
0.000553551 -0.000179104 1.13972e-05
1.99063e-05 1.13972e-05 -0.000393356
-0.00476047 -0.000724217 0.000362575
-0.000724217 -0.00116215 3.0863e-05
0.000362575 3.0863e-05 -0.00244507
0.00815784 -0.00231918 -2.20084e-05
-0.00231918 0.00169938 1.19285e-05
-2.20084e-05 1.19285e-05 0.00311187
0.000480786 4.2926e-05 3.21408e-06
4.2926e-05 -1.16164e-05 9.01627e-07
3.21408e-06 9.01627e-07 -0.000103177
0.000891638 3.77745e-05 1.15494e-06
3.77745e-05 0.00022392 -5.53531e-07
1.15494e-06 -5.53531e-07 0.000132194
0.000957122 8.67036e-05 -2.52345e-06
8.67036e-05 0.000256536 -1.81403e-06
-2.52345e-06 -1.81403e-06 0.000155749
0.000625477 -5.99073e-05 -5.25209e-08
-5.99073e-05 5.74906e-05 -1.77966e-06
-5.25209e-08 -1.77966e-06 -3.67144e-05
0.000620338 5.7414e-05 -1.10238e-06
5.7414e-05 4.458e-05 -1.41654e-06
-1.10238e-06 -1.41654e-06 -6.29564e-05
0.000764349 -3.10219e-05 3.89051e-07
-3.10219e-05 0.000129753 -2.79199e-07
3.89051e-07 -2.79199e-07 1.92956e-05
0.000848369 1.77051e-05 -1.24302e-06
1.77051e-05 0.000166443 2.53675e-06
-1.24302e-06 2.53675e-06 6.65287e-05
0.000599904 1.76471e-05 -1.28512e-06
1.76471e-05 1.78162e-05 1.9713e-06
-1.28512e-06 1.9713e-06 -6.67307e-05
0.00075668 7.51403e-05 -1.46464e-06
7.51403e-05 0.00012747 -4.95875e-07
-1.46464e-06 -4.95875e-07 1.07947e-05
0.000564774 -8.51133e-06 7.94944e-09
-8.51133e-06 5.998e-06 7.26595e-07
7.94944e-09 7.26595e-07 -8.23622e-05
0.000676602 2.20807e-05 9.62245e-08
2.20807e-05 8.40422e-05 7.99646e-08
9.62245e-08 7.99646e-08 -3.25177e-05
0.000744484 2.68867e-05 7.95871e-07
2.68867e-05 9.50615e-05 -3.23357e-08
7.95871e-07 -3.23357e-08 9.34168e-06
0.000818706 3.98763e-05 -5.41847e-07
3.98763e-05 0.000147012 -7.99419e-08
-5.41847e-07 -7.99419e-08 3.97866e-05
0.00099907 8.39337e-05 -1.26064e-06
8.39337e-05 0.000255153 -1.19959e-06
-1.26064e-06 -1.19959e-06 0.000145539
0.000403614 4.08317e-05 7.92001e-08
4.08317e-05 -8.69596e-05 -2.83143e-06
7.92001e-08 -2.83143e-06 -0.000182652
0.000840946 7.74773e-05 1.55356e-06
7.74773e-05 0.000161904 5.72223e-07
1.55356e-06 5.72223e-07 5.01096e-05
0.000589345 -1.85414e-05 1.1399e-06
-1.85414e-05 1.99086e-05 7.12152e-08
1.1399e-06 7.12152e-08 -8.96769e-05
0.00047818 -5.10488e-05 -1.22352e-06
-5.10488e-05 -4.53253e-05 1.74779e-06
-1.22352e-06 1.74779e-06 -0.000137372
0.000784872 -1.92295e-06 -9.70408e-07
-1.92295e-06 0.000145231 -7.15122e-08
-9.70408e-07 -7.15122e-08 3.12867e-05
0.000790734 3.53701e-05 -1.36834e-07
3.53701e-05 0.000149103 -2.61265e-06
-1.36834e-07 -2.61265e-06 4.00212e-05
0.000671701 -1.93841e-05 -9.59405e-07
-1.93841e-05 8.76744e-05 -2.12596e-07
-9.59405e-07 -2.12596e-07 -1.91474e-05
0.000798541 -2.05168e-05 1.11589e-06
-2.05168e-05 0.000158947 -5.66306e-07
1.11589e-06 -5.66306e-07 4.87955e-05
0.000679152 -8.0887e-05 -2.31711e-06
-8.0887e-05 7.13366e-05 1.33323e-06
-2.31711e-06 1.33323e-06 -1.56268e-05
0.000481934 -8.73108e-06 1.06933e-07
-8.73108e-06 -4.25005e-05 7.89253e-07
1.06933e-07 7.89253e-07 -0.000134397
0.000602561 -1.52804e-05 -1.34771e-06
-1.52804e-05 7.89422e-06 2.23777e-06
-1.34771e-06 2.23777e-06 -4.4148e-05
0.000593351 -1.59125e-05 9.33788e-07
-1.59125e-05 7.57978e-06 -1.33673e-08
9.33788e-07 -1.33673e-08 -4.60112e-05
0.00058983 6.00247e-06 -3.13521e-07
6.00247e-06 -2.33176e-05 5.4095e-06
-3.13521e-07 5.4095e-06 -3.91686e-05
0.000592435 1.52325e-05 -7.60648e-07
1.52325e-05 5.6479e-06 -2.02432e-06
-7.60648e-07 -2.02432e-06 -4.63031e-05
0.00056385 2.87413e-06 3.76032e-07
2.87413e-06 -3.95416e-05 -1.06925e-08
3.76032e-07 -1.06925e-08 -5.48527e-05
0.00235278 -1.63237e-06 -6.24949e-07
-1.63237e-06 0.0010205 5.25145e-06
-6.24949e-07 5.25145e-06 0.00103642
0.000603348 -1.05874e-06 -5.78932e-07
-1.05874e-06 -1.68866e-05 -5.56339e-06
-5.78932e-07 -5.56339e-06 -3.18974e-05
0.00159005 -9.79283e-06 -4.34543e-08
-9.79283e-06 0.000567477 8.2037e-08
-4.34543e-08 8.2037e-08 0.000579423
0.000783637 -1.48496e-05 1.13481e-07
-1.48496e-05 8.86772e-05 -2.0879e-06
1.13481e-07 -2.0879e-06 9.71451e-05
0.000616969 -8.3849e-06 7.59309e-07
-8.3849e-06 8.55967e-06 -1.43756e-06
7.59309e-07 -1.43756e-06 -2.83282e-05
0.000632716 -1.57787e-05 4.32736e-07
-1.57787e-05 1.55993e-05 -3.70809e-08
4.32736e-07 -3.70809e-08 -2.28332e-05
0.00059931 1.42204e-05 3.33044e-07
1.42204e-05 -2.37471e-05 -3.19396e-06
3.33044e-07 -3.19396e-06 -3.09877e-05
0.000614248 -1.36176e-05 -1.4342e-06
-1.36176e-05 2.18182e-06 1.42474e-06
-1.4342e-06 1.42474e-06 -3.6693e-05
0.00087277 2.51296e-05 -6.71603e-08
2.51296e-05 0.000141084 -7.16545e-07
-6.71603e-08 -7.16545e-07 0.000134061
0.00205325 3.94594e-05 1.11662e-05
3.94594e-05 0.000849392 -4.31386e-06
1.11662e-05 -4.31386e-06 0.000866264
0.000571301 3.00598e-05 -3.99332e-07
3.00598e-05 -3.33241e-05 3.45156e-06
-3.99332e-07 3.45156e-06 -4.50861e-05
0.00217492 5.5074e-05 -7.24667e-06
5.5074e-05 0.000928544 1.126e-06
-7.24667e-06 1.126e-06 0.000942492
0.00227241 7.22395e-05 -1.73775e-05
7.22395e-05 0.000993137 4.03408e-06
-1.73775e-05 4.03408e-06 0.00100358
0.00193708 0.00012361 -2.60322e-06
0.00012361 2.0533e-05 -2.56889e-07
-2.60322e-06 -2.56889e-07 -4.32979e-06
0.00189408 1.2048e-07 -2.13535e-06
1.2048e-07 2.05415e-05 2.15522e-07
-2.13535e-06 2.15522e-07 6.94084e-06
0.0015751 5.12351e-05 1.0788e-05
5.12351e-05 -0.000184109 -1.42466e-06
1.0788e-05 -1.42466e-06 -0.000169413
0.00229847 0.000215125 3.5344e-05
0.000215125 -0.000378157 7.77208e-06
3.5344e-05 7.77208e-06 -0.000313141
0.00191195 -4.39728e-06 -2.56566e-06
-4.39728e-06 -3.05961e-05 -3.5157e-07
-2.56566e-06 -3.5157e-07 -2.0581e-05
0.00190466 4.74462e-05 3.97377e-06
4.74462e-05 0.00017044 -1.5827e-06
3.97377e-06 -1.5827e-06 0.000216503
0.00280011 -1.21471e-05 -2.61752e-05
-1.21471e-05 0.000694345 3.00294e-06
-2.61752e-05 3.00294e-06 0.000672289
0.00204765 -4.16517e-05 6.81623e-05
-4.16517e-05 -0.00114606 -1.47351e-05
6.81623e-05 -1.47351e-05 -0.00107282
0.00260739 6.87831e-05 2.19556e-05
6.87831e-05 5.72456e-05 1.35587e-05
2.19556e-05 1.35587e-05 0.000154229
0.000641004 6.78323e-05 -4.77922e-08
6.78323e-05 5.69563e-05 -6.3476e-07
-4.77922e-08 -6.3476e-07 -1.69641e-05
0.000666038 -9.05268e-06 6.0501e-07
-9.05268e-06 7.29967e-05 -2.06003e-07
6.0501e-07 -2.06003e-07 -2.29321e-06
0.000637672 -9.01955e-05 -4.87649e-07
-9.01955e-05 5.69951e-05 7.58251e-07
-4.87649e-07 7.58251e-07 -3.27671e-05
0.000649501 -3.75817e-05 -9.90964e-07
-3.75817e-05 8.33205e-05 1.28894e-06
-9.90964e-07 1.28894e-06 -1.82356e-05
0.00198074 -0.000114802 -4.45518e-06
-0.000114802 -2.60254e-05 8.00036e-07
-4.45518e-06 8.00036e-07 -2.11647e-05
0.00189369 -0.000241292 6.19689e-07
-0.000241292 -5.09072e-06 4.72974e-07
6.19689e-07 4.72974e-07 1.32148e-06
0.00202709 -0.000362725 -3.82536e-06
-0.000362725 8.87872e-05 2.51766e-06
-3.82536e-06 2.51766e-06 4.57881e-06
0.00219068 -0.000390394 7.04633e-06
-0.000390394 0.000757434 4.78957e-06
7.04633e-06 4.78957e-06 0.000512531
0.00117774 -0.000424256 8.67529e-06
-0.000424256 7.66032e-05 -3.61716e-06
8.67529e-06 -3.61716e-06 -0.000251385
0.00219253 -0.000497224 3.69429e-06
-0.000497224 0.000381203 -3.63947e-06
3.69429e-06 -3.63947e-06 0.000207367
0.00102394 -0.000291932 -4.93963e-06
-0.000291932 0.000191555 2.2859e-06
-4.93963e-06 2.2859e-06 -4.48864e-05
0.00172093 -0.000130372 2.42101e-07
-0.000130372 0.000708326 -6.30204e-07
2.42101e-07 -6.30204e-07 0.00048517
0.000335335 -7.99783e-05 -7.56751e-07
-7.99783e-05 -0.000147468 -7.91664e-07
-7.56751e-07 -7.91664e-07 -0.000295133
0.000689774 -3.59581e-05 -3.21324e-07
-3.59581e-05 7.87544e-05 1.20597e-06
-3.21324e-07 1.20597e-06 5.36787e-06
0.000654019 -8.36217e-05 3.05526e-07
-8.36217e-05 9.07297e-05 -2.03821e-06
3.05526e-07 -2.03821e-06 -5.54997e-05
0.000814524 -5.10829e-06 6.86495e-07
-5.10829e-06 0.000182081 -7.63235e-07
6.86495e-07 -7.63235e-07 6.43192e-05
0.000658393 9.12446e-06 3.57459e-07
9.12446e-06 7.21829e-05 1.68474e-07
3.57459e-07 1.68474e-07 -6.30611e-06
0.000570508 9.87228e-06 -2.54311e-06
9.87228e-06 1.58692e-05 2.59049e-06
-2.54311e-06 2.59049e-06 -7.94461e-05
0.00224779 -0.000192992 1.09532e-06
-0.000192992 0.000144333 5.92963e-07
1.09532e-06 5.92963e-07 0.000157978
0.000664384 -1.0511e-05 1.14585e-06
-1.0511e-05 8.11489e-05 -3.85945e-07
1.14585e-06 -3.85945e-07 -1.86323e-05
0.000700907 9.54392e-06 2.25245e-06
9.54392e-06 9.30455e-05 -1.83962e-07
2.25245e-06 -1.83962e-07 -9.08138e-06
0.000453693 4.69243e-05 1.07667e-07
4.69243e-05 -4.48503e-05 1.51968e-06
1.07667e-07 1.51968e-06 -0.000142819
0.0017606 -0.000259422 -9.56107e-07
-0.000259422 -0.000153739 -1.70211e-06
-9.56107e-07 -1.70211e-06 -0.00011773
0.00200707 -0.0004778 1.26592e-06
-0.0004778 0.000113007 -4.18143e-07
1.26592e-06 -4.18143e-07 -1.80367e-05
0.0014796 -0.000365574 -9.44134e-07
-0.000365574 0.000407793 -5.75245e-07
-9.44134e-07 -5.75245e-07 0.000145311
0.00216865 -0.000539908 -5.14868e-06
-0.000539908 0.000478861 1.96434e-06
-5.14868e-06 1.96434e-06 0.000252719
0.00107524 -6.89606e-05 -1.00744e-06
-6.89606e-05 0.000327854 6.42494e-07
-1.00744e-06 6.42494e-07 0.000198645
0.000541261 -7.52269e-05 -2.23952e-07
-7.52269e-05 -7.4091e-06 9.87168e-07
-2.23952e-07 9.87168e-07 -0.000145776
0.000995696 -0.000364861 3.01804e-06
-0.000364861 0.000351715 -1.03883e-06
3.01804e-06 -1.03883e-06 2.24343e-06
0.00111711 -0.000172082 3.68716e-07
-0.000172082 0.000409528 -1.25088e-07
3.68716e-07 -1.25088e-07 0.000139928
0.00239269 -0.000222122 -2.1075e-05
-0.000222122 0.000157241 3.70025e-07
-2.1075e-05 3.70025e-07 0.000242417
0.00239855 -0.000397324 -2.19442e-05
-0.000397324 0.000214181 6.17693e-06
-2.19442e-05 6.17693e-06 0.000222951
0.00287853 -0.000632113 -9.43788e-06
-0.000632113 0.000667287 -6.31889e-06
-9.43788e-06 -6.31889e-06 0.00046356
0.00166657 -0.000466469 -4.03747e-06
-0.000466469 0.000401092 3.49237e-06
-4.03747e-06 3.49237e-06 0.000184502
0.000566077 -1.22788e-06 -1.42596e-06
-1.22788e-06 3.90823e-05 -2.18648e-06
-1.42596e-06 -2.18648e-06 -8.20703e-05
0.000540097 -7.09244e-05 -6.51475e-07
-7.09244e-05 1.52043e-05 -4.46713e-06
-6.51475e-07 -4.46713e-06 -0.000112392
0.000512379 -0.000107465 -1.89839e-06
-0.000107465 7.14857e-05 6.89355e-06
-1.89839e-06 6.89355e-06 -0.000101584
3.7989e-05 -0.000153454 -3.06611e-08
-0.000153454 -1.15993e-05 -7.34649e-06
-3.06611e-08 -7.34649e-06 -0.000439907
0.00081831 -0.000359846 3.05044e-05
-0.000359846 -0.00296408 -4.15181e-06
3.05044e-05 -4.15181e-06 -0.00331565
0.00144747 0.000106169 7.5364e-07
0.000106169 0.000534467 -3.49595e-06
7.5364e-07 -3.49595e-06 0.000404306
0.000487416 0.000161236 3.78752e-06
0.000161236 -5.39879e-05 1.08714e-06
3.78752e-06 1.08714e-06 -0.000236153
0.00197838 0.000188417 4.69e-05
0.000188417 0.000104085 8.6632e-06
4.69e-05 8.6632e-06 0.000128729
0.00205955 0.000432355 1.64312e-05
0.000432355 0.000186288 7.42112e-06
1.64312e-05 7.42112e-06 6.32056e-05
0.00180156 0.000445478 5.69676e-06
0.000445478 0.000338985 6.71639e-06
5.69676e-06 6.71639e-06 5.31537e-05
0.000809498 0.000267989 6.28043e-06
0.000267989 1.85179e-06 2.75121e-06
6.28043e-06 2.75121e-06 -0.000260008
0.00319139 0.000509635 7.14136e-05
0.000509635 0.000244874 2.24522e-05
7.14136e-05 2.24522e-05 -0.000198072
0.00128185 0.000167588 2.71934e-06
0.000167588 0.000473562 2.50494e-07
2.71934e-06 2.50494e-07 0.000315045
0.00241188 0.000352774 -1.23767e-05
0.000352774 0.000388756 -1.18331e-06
-1.23767e-05 -1.18331e-06 0.000392368
0.0010943 0.000256048 1.14265e-06
0.000256048 0.000251856 4.51615e-07
1.14265e-06 4.51615e-07 5.75104e-05
0.00126289 0.000356045 2.07711e-06
0.000356045 0.000188591 -1.59611e-06
2.07711e-06 -1.59611e-06 -8.57259e-05
0.00121419 0.000478146 -6.06115e-06
0.000478146 -0.000158703 -1.50798e-06
-6.06115e-06 -1.50798e-06 -0.000356856
0.00294582 -0.000257754 -0.000109451
-0.000257754 -0.00195996 -3.28434e-05
-0.000109451 -3.28434e-05 -0.00293571
0.00551082 0.000633981 -1.71559e-05
0.000633981 0.000491256 -3.95357e-05
-1.71559e-05 -3.95357e-05 -2.79435e-05
0.000367918 0.000422207 -8.2133e-06
0.000422207 -0.000474701 7.86566e-06
-8.2133e-06 7.86566e-06 -0.00073859
-0.00153479 -0.000530026 0.000163216
-0.000530026 0.000999093 6.83998e-05
0.000163216 6.83998e-05 -0.000436297
0.000725289 -0.00230825 -0.000112873
-0.00230825 -0.000836577 -0.000128026
-0.000112873 -0.000128026 0.000771443
0.00105583 0.00018255 -5.4179e-06
0.00018255 0.00032958 -3.47447e-06
-5.4179e-06 -3.47447e-06 0.000187136
0.000508073 0.000399841 0.00017511
0.000399841 0.00167695 -1.60286e-05
0.00017511 -1.60286e-05 0.00056256
0.00118538 -0.000727025 -0.000106218
-0.000727025 0.00239323 -0.000167096
-0.000106218 -0.000167096 0.000710509
0.00236143 0.000505776 -2.77264e-05
0.000505776 0.000377415 -9.06061e-06
-2.77264e-05 -9.06061e-06 0.00041676
0.000926481 0.000172438 -1.28524e-05
0.000172438 0.000143264 -2.82341e-06
-1.28524e-05 -2.82341e-06 -4.80667e-05
-0.000166334 0.000384986 -2.03937e-05
0.000384986 -0.000582045 -1.49772e-05
-2.03937e-05 -1.49772e-05 -0.000870222
0.00018138 0.000470289 3.23853e-05
0.000470289 -0.000613475 6.61324e-05
3.23853e-05 6.61324e-05 -0.000759029
0.0119113 0.00071243 -2.0474e-05
0.00071243 0.00364032 -3.66486e-05
-2.0474e-05 -3.66486e-05 0.00212792
0.00293328 0.000970178 1.33644e-05
0.000970178 0.00053488 7.62421e-06
1.33644e-05 7.62421e-06 -0.000597237
0.00284324 -0.00204543 0.000275558
-0.00204543 -0.000171687 0.000203063
0.000275558 0.000203063 2.02095e-05
0.0054987 -0.00110088 -1.78985e-05
-0.00110088 -0.000609713 0.000236176
-1.78985e-05 0.000236176 0.000536529
0.000554624 2.26719e-05 1.82409e-06
2.26719e-05 4.27011e-05 -1.11645e-06
1.82409e-06 -1.11645e-06 -5.00015e-05
0.00078542 8.143e-05 1.85712e-06
8.143e-05 0.00016413 9.08295e-07
1.85712e-06 9.08295e-07 6.22273e-05
0.00155191 0.000149436 -3.2489e-06
0.000149436 0.000619724 -3.19242e-06
-3.2489e-06 -3.19242e-06 0.000521513
0.000634781 4.64933e-06 6.76152e-07
4.64933e-06 6.40303e-05 -4.34448e-07
6.76152e-07 -4.34448e-07 -3.42903e-05
0.000739002 3.50497e-05 -5.65917e-08
3.50497e-05 0.000119098 -1.40927e-06
-5.65917e-08 -1.40927e-06 4.27264e-06
0.000538991 -6.25448e-06 -1.09013e-06
-6.25448e-06 -1.29248e-05 -8.56274e-08
-1.09013e-06 -8.56274e-08 -0.000118318
0.000807114 4.71836e-05 -4.89836e-07
4.71836e-05 0.000140675 1.32956e-06
-4.89836e-07 1.32956e-06 3.72526e-05
0.000678255 2.78487e-05 -3.99652e-07
2.78487e-05 5.38491e-05 7.01645e-07
-3.99652e-07 7.01645e-07 -3.25158e-05
0.000461169 -2.35572e-06 2.80192e-07
-2.35572e-06 -5.14555e-05 7.80284e-07
2.80192e-07 7.80284e-07 -0.000145861
0.000828571 3.53983e-05 2.97796e-07
3.53983e-05 0.000157175 5.12026e-07
2.97796e-07 5.12026e-07 4.87365e-05
0.000807105 3.05089e-05 2.37342e-07
3.05089e-05 0.000143647 3.60718e-07
2.37342e-07 3.60718e-07 3.16e-05
0.000705191 2.03024e-05 5.52559e-07
2.03024e-05 0.000102809 -3.44015e-07
5.52559e-07 -3.44015e-07 -1.6295e-05
0.000506469 4.52974e-05 -2.71182e-07
4.52974e-05 -2.53245e-05 -5.51917e-07
-2.71182e-07 -5.51917e-07 -0.000120664
0.00109446 5.27843e-05 -5.22132e-07
5.27843e-05 0.000310963 -1.98934e-06
-5.22132e-07 -1.98934e-06 0.000209946
-3.11035e-05 3.54676e-05 -1.51409e-06
3.54676e-05 -0.000306988 -3.88764e-06
-1.51409e-06 -3.88764e-06 -0.00040667
0.000754363 -7.5509e-05 2.00802e-08
-7.5509e-05 0.00011471 1.69379e-08
2.00802e-08 1.69379e-08 -2.94052e-06
0.000788393 -5.69145e-05 -1.03906e-06
-5.69145e-05 0.000155515 -8.75694e-07
-1.03906e-06 -8.75694e-07 3.02179e-05
0.000809937 -2.65064e-05 -5.69235e-07
-2.65064e-05 0.000167618 -3.751e-07
-5.69235e-07 -3.751e-07 4.73289e-05
0.000804214 8.85601e-06 -7.31723e-07
8.85601e-06 0.000148867 -2.23389e-07
-7.31723e-07 -2.23389e-07 4.58145e-05
0.000849008 6.14842e-06 -2.45637e-06
6.14842e-06 0.000196549 -2.40838e-06
-2.45637e-06 -2.40838e-06 6.66308e-05
0.000738986 1.49192e-05 8.58562e-07
1.49192e-05 0.000115043 -1.37998e-06
8.58562e-07 -1.37998e-06 1.27124e-05
0.000157429 -1.64186e-05 1.25408e-07
-1.64186e-05 -0.000236922 -1.96188e-06
1.25408e-07 -1.96188e-06 -0.000326411
0.000615045 7.05535e-06 1.0461e-06
7.05535e-06 3.79514e-05 -3.02668e-08
1.0461e-06 -3.02668e-08 -6.19322e-05
0.000661737 -4.13869e-05 5.64527e-09
-4.13869e-05 6.1171e-05 1.45919e-07
5.64527e-09 1.45919e-07 -2.94409e-05
0.000719979 -3.93375e-05 -2.22562e-07
-3.93375e-05 0.00010987 -1.45452e-08
-2.22562e-07 -1.45452e-08 5.93748e-06
0.000672317 -4.68405e-05 -1.9341e-06
-4.68405e-05 5.65605e-05 1.02032e-06
-1.9341e-06 1.02032e-06 -1.96397e-05
0.000706307 -3.14267e-05 1.5892e-06
-3.14267e-05 8.64864e-05 -2.73796e-07
1.5892e-06 -2.73796e-07 -1.28294e-05
0.000622483 -7.49558e-05 -5.24322e-09
-7.49558e-05 3.58182e-05 2.02363e-07
-5.24322e-09 2.02363e-07 -5.10659e-05
0.000637127 -1.36939e-05 -1.8693e-06
-1.36939e-05 2.34124e-05 2.44028e-06
-1.8693e-06 2.44028e-06 -2.81161e-05
0.000505202 -5.9833e-06 1.20892e-06
-5.9833e-06 -2.00391e-05 -6.07356e-07
1.20892e-06 -6.07356e-07 -0.000118026
0.000599445 4.28256e-06 1.1202e-06
4.28256e-06 9.2022e-06 -1.64782e-08
1.1202e-06 -1.64782e-08 -4.4646e-05
0.00138224 1.36601e-05 -2.87536e-06
1.36601e-05 0.000446279 5.34101e-06
-2.87536e-06 5.34101e-06 0.000434621
0.000592229 3.08725e-05 -4.68806e-07
3.08725e-05 6.9961e-06 -1.99507e-06
-4.68806e-07 -1.99507e-06 -4.64732e-05
0.000967561 6.46664e-06 -1.652e-06
6.46664e-06 0.000200565 8.17523e-07
-1.652e-06 8.17523e-07 0.000186987
0.000841188 3.40936e-06 -3.97615e-06
3.40936e-06 0.000123791 5.05348e-06
-3.97615e-06 5.05348e-06 0.000131537
0.000574056 1.67996e-06 1.6856e-07
1.67996e-06 -3.32618e-05 -3.72241e-06
1.6856e-07 -3.72241e-06 -4.86746e-05
0.0023629 1.19998e-07 4.35952e-06
1.19998e-07 0.0010266 -7.28266e-09
4.35952e-06 -7.28266e-09 0.00104245
0.0008565 -3.209e-06 -4.11141e-06
-3.209e-06 0.000132847 -5.1516e-06
-4.11141e-06 -5.1516e-06 0.000140908
0.000628479 6.54351e-05 1.75536e-06
6.54351e-05 5.62286e-05 1.72224e-07
1.75536e-06 1.72224e-07 -2.5031e-05
0.000602269 2.32423e-05 -1.19138e-06
2.32423e-05 4.51057e-06 -1.73857e-06
-1.19138e-06 -1.73857e-06 -3.37656e-05
0.000609387 -6.61845e-06 8.89692e-07
-6.61845e-06 5.67157e-06 6.63922e-09
8.89692e-07 6.63922e-09 -3.2357e-05
0.00060269 8.2188e-06 2.26047e-07
8.2188e-06 -2.26324e-05 -3.14805e-06
2.26047e-07 -3.14805e-06 -2.92412e-05
0.00063267 -3.00798e-05 -1.65092e-06
-3.00798e-05 1.68294e-05 1.4966e-06
-1.65092e-06 1.4966e-06 -2.27711e-05
0.000571532 1.41341e-05 9.48881e-09
1.41341e-05 -4.07457e-05 -7.57603e-07
9.48881e-09 -7.57603e-07 -4.77094e-05
0.00202622 2.63926e-05 7.44689e-06
2.63926e-05 0.000829706 -4.47239e-06
7.44689e-06 -4.47239e-06 0.000848062
0.00117401 3.13447e-05 -6.81579e-07
3.13447e-05 0.000320752 1.88985e-06
-6.81579e-07 1.88985e-06 0.000315013
0.00148386 3.39474e-05 1.36123e-07
3.39474e-05 0.000511401 1.41287e-06
1.36123e-07 1.41287e-06 0.000524282
0.00090157 3.72318e-05 -1.38349e-05
3.72318e-05 0.000170704 7.16719e-06
-1.38349e-05 7.16719e-06 0.000177811
0.00155322 0.000136298 6.74242e-05
0.000136298 -0.000681599 1.26965e-05
6.74242e-05 1.26965e-05 -0.000614917
0.00189711 -1.65056e-05 2.43518e-06
-1.65056e-05 -2.99937e-05 4.30348e-07
2.43518e-06 4.30348e-07 -2.13526e-05
0.00195644 5.90334e-05 3.44627e-05
5.90334e-05 0.000217622 -8.94124e-06
3.44627e-05 -8.94124e-06 0.000252334
0.00141196 0.000104559 -1.296e-05
0.000104559 -0.00108495 -8.38262e-06
-1.296e-05 -8.38262e-06 -0.000894605
0.00181313 5.42109e-05 1.78979e-05
5.42109e-05 -0.000303909 4.20813e-07
1.78979e-05 4.20813e-07 -0.000204827
0.00230438 -1.83355e-05 -2.76706e-07
-1.83355e-05 0.000350514 -1.94206e-06
-2.76706e-07 -1.94206e-06 0.000331146
0.00331571 -7.13928e-05 -5.96956e-05
-7.13928e-05 0.000728335 2.95741e-06
-5.96956e-05 2.95741e-06 0.000705258
0.00304996 -7.02906e-05 9.82095e-05
-7.02906e-05 0.000353662 -2.12815e-06
9.82095e-05 -2.12815e-06 0.000235172
0.00972359 -0.00041447 1.45897e-05
-0.00041447 0.00226346 3.08791e-05
1.45897e-05 3.08791e-05 0.000848217
0.00862677 0.00175921 0.000359605
0.00175921 0.00408693 -0.000156686
0.000359605 -0.000156686 0.00397879
0.00513353 0.00189291 -2.04974e-05
0.00189291 0.00366108 2.26347e-05
-2.04974e-05 2.26347e-05 0.00420478
0.000420002 -8.3753e-05 2.17586e-06
-8.3753e-05 -6.13786e-05 1.87293e-07
2.17586e-06 1.87293e-07 -0.000154584
0.00066148 -1.08621e-05 1.33691e-06
-1.08621e-05 7.09007e-05 -1.62188e-07
1.33691e-06 -1.62188e-07 -4.80084e-06
0.0006951 -7.7566e-05 -1.62105e-06
-7.7566e-05 9.54467e-05 1.19864e-06
-1.62105e-06 1.19864e-06 1.50841e-05
0.00063029 -3.84457e-05 -2.61133e-07
-3.84457e-05 5.44876e-05 2.60856e-07
-2.61133e-07 2.60856e-07 -3.68053e-05
0.000661859 6.5228e-05 -8.45376e-07
6.5228e-05 9.31998e-05 1.88228e-06
-8.45376e-07 1.88228e-06 -1.65141e-05
0.000716048 0.00012137 1.44559e-06
0.00012137 0.000110065 3.52658e-06
1.44559e-06 3.52658e-06 5.49439e-07
0.000808729 -8.97433e-06 2.52009e-06
-8.97433e-06 0.000174198 -3.3442e-07
2.52009e-06 -3.3442e-07 7.02927e-05
0.00058899 -2.89062e-05 -8.59179e-07
-2.89062e-05 3.89756e-05 8.7065e-07
-8.59179e-07 8.7065e-07 -5.688e-05
0.00210461 -0.000177532 4.11692e-06
-0.000177532 6.93317e-05 1.96152e-06
4.11692e-06 1.96152e-06 9.36085e-05
0.00179264 -0.000270074 7.49592e-06
-0.000270074 -0.00016819 -1.63314e-06
7.49592e-06 -1.63314e-06 -0.000137488
0.00156013 -0.000442564 2.87288e-06
-0.000442564 -0.000119708 4.60071e-06
2.87288e-06 4.60071e-06 -0.000241226
0.00141566 -0.000385415 1.00038e-05
-0.000385415 0.00036041 1.73996e-06
1.00038e-05 1.73996e-06 9.13435e-05
0.00170713 -0.000507588 3.47355e-06
-0.000507588 0.000238525 7.49972e-07
3.47355e-06 7.49972e-07 1.51726e-05
0.00191952 -0.000427404 3.00175e-06
-0.000427404 0.00087163 -3.69754e-07
3.00175e-06 -3.69754e-07 0.000509498
0.0020587 -0.000259799 -1.00745e-07
-0.000259799 0.00091063 -2.28239e-06
-1.00745e-07 -2.28239e-06 0.000649008
0.000732867 -0.000120344 2.41283e-06
-0.000120344 0.000109088 -2.50762e-06
2.41283e-06 -2.50762e-06 -4.42219e-05
0.000682588 -2.34283e-05 3.73445e-07
-2.34283e-05 8.5404e-05 2.37681e-06
3.73445e-07 2.37681e-06 -1.31802e-05
0.000889684 -3.60669e-05 1.1825e-06
-3.60669e-05 0.000205658 -6.1345e-06
1.1825e-06 -6.1345e-06 8.38169e-05
0.000927314 -2.16817e-05 1.50596e-06
-2.16817e-05 0.000238436 3.27036e-07
1.50596e-06 3.27036e-07 0.00013737
0.000681703 0.00010353 2.46382e-06
0.00010353 9.38097e-05 2.64653e-06
2.46382e-06 2.64653e-06 7.15718e-07
0.00195385 -0.000212769 5.45756e-08
-0.000212769 -3.27584e-05 1.52995e-06
5.45756e-08 1.52995e-06 4.11277e-05
0.000681472 1.47547e-05 -1.61939e-06
1.47547e-05 0.000107426 2.99645e-07
-1.61939e-06 2.99645e-07 -1.26756e-05
0.000832077 -8.16172e-05 -2.03391e-06
-8.16172e-05 0.000179657 1.38417e-06
-2.03391e-06 1.38417e-06 5.99179e-05
0.00174855 -0.00037536 1.74885e-06
-0.00037536 -0.000132872 -1.56537e-06
1.74885e-06 -1.56537e-06 -0.000127521
0.00167515 -0.000538064 5.597e-07
-0.000538064 3.03443e-05 1.29875e-06
5.597e-07 1.29875e-06 -0.000146852
0.00118585 -0.000425111 -9.01991e-07
-0.000425111 0.000142978 -2.09607e-06
-9.01991e-07 -2.09607e-06 -8.84518e-05
0.000957043 -0.000139968 4.34951e-07
-0.000139968 0.000319232 -3.80894e-06
4.34951e-07 -3.80894e-06 0.000128196
0.00110405 -0.000223697 -1.08439e-06
-0.000223697 0.000543506 1.09669e-06
-1.08439e-06 1.09669e-06 0.000149719
0.00340242 -0.000340233 -3.10752e-05
-0.000340233 0.000746966 6.70285e-06
-3.10752e-05 6.70285e-06 0.000754707
0.00276096 -0.000535462 -2.99441e-05
-0.000535462 0.000513309 5.31248e-06
-2.99441e-05 5.31248e-06 0.000497847
0.00158341 -0.000575447 -8.51894e-06
-0.000575447 8.84429e-05 1.20031e-06
-8.51894e-06 1.20031e-06 -9.18918e-05
0.0006929 -0.000322302 -1.12163e-05
-0.000322302 1.16339e-05 1.60683e-05
-1.12163e-05 1.60683e-05 -0.000218472
0.000673036 -0.00013093 1.35724e-06
-0.00013093 0.000105459 5.62158e-07
1.35724e-06 5.62158e-07 -3.56197e-05
0.000497745 -0.000104572 2.49822e-06
-0.000104572 3.61109e-05 -2.83047e-06
2.49822e-06 -2.83047e-06 -0.000120937
0.00105292 -9.20634e-05 3.03791e-07
-9.20634e-05 0.000514632 -6.453e-06
3.03791e-07 -6.453e-06 0.000177333
-0.00479321 -7.47162e-05 0.00026236
-7.47162e-05 -0.00332526 4.94201e-07
0.00026236 4.94201e-07 -0.00238321
0.0100873 -0.000138395 1.16027e-06
-0.000138395 0.00283272 -8.20823e-07
1.16027e-06 -8.20823e-07 0.0022206
0.0015067 0.000147021 5.06474e-06
0.000147021 0.000592557 -1.81056e-06
5.06474e-06 -1.81056e-06 0.000444303
0.00081291 0.000230658 3.93566e-06
0.000230658 0.000106246 -7.48597e-07
3.93566e-06 -7.48597e-07 -8.52406e-05
0.00211454 0.000323559 4.19042e-05
0.000323559 0.000208606 2.33223e-05
4.19042e-05 2.33223e-05 0.000232686
0.00252889 0.000580762 1.20804e-05
0.000580762 0.000522 6.44852e-06
1.20804e-05 6.44852e-06 0.000319702
0.00182631 0.000420749 9.78164e-06
0.000420749 0.000504952 3.43664e-07
9.78164e-06 3.43664e-07 0.000221689
0.0104722 0.000530504 4.43933e-05
0.000530504 0.0026756 1.51001e-05
4.43933e-05 1.51001e-05 0.00154679
0.00746321 0.000939461 -0.000154622
0.000939461 0.00103244 -2.86817e-05
-0.000154622 -2.86817e-05 0.000613708
-7.45126e-05 0.000308096 5.07907e-06
0.000308096 -0.000556931 -1.8994e-05
5.07907e-06 -1.8994e-05 -0.000883703
0.00865215 -0.00142234 -8.95558e-05
-0.00142234 0.00408462 2.17376e-05
-8.95558e-05 2.17376e-05 0.00344151
-0.00752274 -0.00233665 -0.000609812
-0.00233665 -0.00342066 -0.000464526
-0.000609812 -0.000464526 -0.00187034
0.000940659 0.000175473 -4.38733e-07
0.000175473 0.000270944 -1.83386e-06
-4.38733e-07 -1.83386e-06 0.000128555
-0.00234393 -0.000696106 0.000128047
-0.000696106 -0.00208692 1.62687e-05
0.000128047 1.62687e-05 -0.00232323
-0.00263032 -0.000526058 -0.000149532
-0.000526058 0.00135247 -7.54384e-05
-0.000149532 -7.54384e-05 -0.000665078
0.00283174 0.000478026 -9.39112e-06
0.000478026 0.000645152 -4.32335e-07
-9.39112e-06 -4.32335e-07 0.000677767
0.000833197 0.000209938 -2.59859e-06
0.000209938 0.000123784 1.06074e-06
-2.59859e-06 1.06074e-06 -8.49482e-05
0.000979292 0.000434869 3.73215e-06
0.000434869 3.74059e-05 1.71801e-06
3.73215e-06 1.71801e-06 -0.000245468
0.00112033 0.00040774 1.58063e-05
0.00040774 3.01204e-06 1.37814e-05
1.58063e-05 1.37814e-05 -3.15349e-05
0.00867626 0.000556239 -5.56709e-05
0.000556239 0.00135512 -2.83531e-05
-5.56709e-05 -2.83531e-05 -0.00044342
0.00631904 0.00136019 -5.86091e-05
0.00136019 0.00158189 -2.43011e-05
-5.86091e-05 -2.43011e-05 0.000814412
0.0101565 -0.00166095 0.000127704
-0.00166095 0.00462265 -4.88946e-05
0.000127704 -4.88946e-05 0.00443224
0.004688 -0.00134991 0.00014176
-0.00134991 -0.00133659 0.000301744
0.00014176 0.000301744 -0.000200617
0.00150678 0.000164999 -1.59274e-05
0.000164999 0.000612459 -8.09158e-06
-1.59274e-05 -8.09158e-06 0.000485374
-0.00564328 0.000283129 -9.04845e-05
0.000283129 0.00094512 -5.06076e-05
-9.04845e-05 -5.06076e-05 -0.00171735
0.00313062 0.000296705 -0.000159453
0.000296705 0.00161007 -0.000218975
-0.000159453 -0.000218975 -0.00101066
0.00134022 0.000416841 -1.66022e-05
0.000416841 0.000111159 5.70438e-06
-1.66022e-05 5.70438e-06 0.000104599
0.00108867 0.000407358 -4.55592e-05
0.000407358 0.000342731 -1.64693e-05
-4.55592e-05 -1.64693e-05 9.26554e-05
0.00229733 0.000361833 -6.29049e-05
0.000361833 0.00120454 -5.87256e-06
-6.29049e-05 -5.87256e-06 0.000821095
0.00226346 0.000963255 -3.92128e-05
0.000963255 0.000199307 -1.57449e-05
-3.92128e-05 -1.57449e-05 -8.87824e-05
0.00120634 0.00073952 0.000150437
0.00073952 -7.69866e-05 0.000109622
0.000150437 0.000109622 -0.00272913
0.00993444 -0.00190204 7.33658e-05
-0.00190204 0.00333913 0.000260944
7.33658e-05 0.000260944 0.00281797
0.00421299 -0.000854322 -4.72596e-05
-0.000854322 -0.00200576 -4.60621e-05
-4.72596e-05 -4.60621e-05 -0.000824512
0.000811623 9.8753e-05 3.5808e-06
9.8753e-05 0.000187183 3.26435e-06
3.5808e-06 3.26435e-06 7.89126e-05
0.00127528 0.000131593 5.74334e-06
0.000131593 0.00045069 2.66456e-06
5.74334e-06 2.66456e-06 0.000355225
0.000144392 4.90128e-05 2.37465e-06
4.90128e-05 -0.00015025 -3.45827e-06
2.37465e-06 -3.45827e-06 -0.000242252
0.000467451 4.47242e-05 1.30094e-06
4.47242e-05 -4.86828e-05 -1.0882e-07
1.30094e-06 -1.0882e-07 -0.000142528
0.000763697 5.19165e-05 -6.78492e-07
5.19165e-05 0.000143187 -1.11727e-06
-6.78492e-07 -1.11727e-06 2.09497e-05
0.000749711 -5.71939e-06 -3.63793e-07
-5.71939e-06 0.00011021 1.06634e-06
-3.63793e-07 1.06634e-06 -1.38254e-06
0.000779818 1.94178e-06 2.21594e-06
1.94178e-06 0.000135551 5.58811e-07
2.21594e-06 5.58811e-07 2.38423e-05
0.000538853 3.81009e-05 7.05453e-07
3.81009e-05 -3.83934e-06 2.65895e-06
7.05453e-07 2.65895e-06 -9.7651e-05
0.000775492 4.30311e-05 -2.0719e-08
4.30311e-05 0.000148854 -8.08778e-07
-2.0719e-08 -8.08778e-07 2.348e-05
0.000874403 4.17122e-05 -5.00028e-08
4.17122e-05 0.000180456 2.73739e-07
-5.00028e-08 2.73739e-07 7.89914e-05
0.000787828 -3.3467e-05 -4.65806e-07
-3.3467e-05 0.000136351 5.51124e-07
-4.65806e-07 5.51124e-07 1.69952e-05
7.01091e-05 3.52769e-05 -1.63632e-07
3.52769e-05 -0.000234383 6.73979e-07
-1.63632e-07 6.73979e-07 -0.000334077
-0.000609299 2.1399e-05 -8.53094e-07
2.1399e-05 -0.000497634 -1.92555e-06
-8.53094e-07 -1.92555e-06 -0.000630502
0.000891806 -1.36699e-06 -2.58575e-06
-1.36699e-06 0.000200818 -3.98379e-06
-2.58575e-06 -3.98379e-06 8.95315e-05
0.000944738 1.1115e-05 -6.83125e-07
1.1115e-05 0.000248143 -1.16412e-06
-6.83125e-07 -1.16412e-06 0.000104075
0.000819691 -5.65465e-05 3.58567e-08
-5.65465e-05 0.000177009 -7.48135e-07
3.58567e-08 -7.48135e-07 5.31671e-05
0.000865859 -2.98442e-05 -1.12441e-08
-2.98442e-05 0.000178599 1.42447e-06
-1.12441e-08 1.42447e-06 7.88873e-05
0.000845862 -5.16007e-05 1.73857e-07
-5.16007e-05 0.000183877 -6.37758e-07
1.73857e-07 -6.37758e-07 6.04732e-05
0.000765843 8.85418e-06 -2.86874e-07
8.85418e-06 0.000127253 -8.76912e-08
-2.86874e-07 -8.76912e-08 2.59206e-05
0.000436397 -4.37546e-05 2.91022e-07
-4.37546e-05 -7.04356e-05 1.00882e-06
2.91022e-07 1.00882e-06 -0.000161041
0.000643402 1.62843e-05 8.78841e-07
1.62843e-05 5.73494e-05 4.89979e-07
8.78841e-07 4.89979e-07 -4.08629e-05
0.000419859 -1.69545e-05 -1.61323e-06
-1.69545e-05 -5.33798e-05 -3.56066e-06
-1.61323e-06 -3.56066e-06 -0.000167961
0.00041616 -3.60509e-05 1.89099e-06
-3.60509e-05 -8.29001e-05 -1.09175e-06
1.89099e-06 -1.09175e-06 -0.000170535
0.00076838 -2.6272e-05 4.00339e-06
-2.6272e-05 9.36889e-05 -5.12685e-06
4.00339e-06 -5.12685e-06 -1.73812e-06
3.26532e-05 -4.15272e-05 9.43338e-07
-4.15272e-05 -0.000293792 9.50606e-07
9.43338e-07 9.50606e-07 -0.000444516
0.000323213 1.24383e-05 -3.98199e-07
1.24383e-05 -0.000121083 -8.24972e-07
-3.98199e-07 -8.24972e-07 -0.000228749
0.000724804 2.68677e-07 2.25291e-07
2.68677e-07 0.000100974 3.66369e-07
2.25291e-07 3.66369e-07 -8.0166e-07
0.000651764 -6.30817e-06 4.4398e-08
-6.30817e-06 5.61779e-05 3.18849e-07
4.4398e-08 3.18849e-07 -3.44977e-05
0.000722445 -2.359e-05 -1.63749e-07
-2.359e-05 0.00010922 -5.61099e-08
-1.63749e-07 -5.61099e-08 9.70889e-06
0.000593603 3.30477e-06 -6.5572e-07
3.30477e-06 1.75663e-05 8.21628e-07
-6.5572e-07 8.21628e-07 -6.01741e-05
0.000764736 -2.06925e-05 3.02075e-07
-2.06925e-05 0.000134054 6.79954e-08
3.02075e-07 6.79954e-08 3.14974e-05
0.000679734 -4.21664e-05 -4.19664e-07
-4.21664e-05 6.87537e-05 9.67677e-08
-4.19664e-07 9.67677e-08 -1.25003e-05
0.000584152 3.87964e-05 -8.68049e-07
3.87964e-05 -8.95619e-06 2.29217e-06
-8.68049e-07 2.29217e-06 -6.13666e-05
0.000566028 -6.5994e-05 1.68861e-06
-6.5994e-05 -2.17668e-06 -9.74518e-07
1.68861e-06 -9.74518e-07 -8.7262e-05
0.000612404 4.7492e-07 -2.52636e-07
4.7492e-07 8.66215e-06 -1.11961e-08
-2.52636e-07 -1.11961e-08 -4.25457e-05
0.00137944 2.34813e-05 -4.7306e-06
2.34813e-05 0.000443951 5.46255e-06
-4.7306e-06 5.46255e-06 0.000432003
0.000600526 -2.0006e-05 9.32242e-07
-2.0006e-05 8.26647e-06 -2.04542e-06
9.32242e-07 -2.04542e-06 -4.45298e-05
0.000958634 1.25048e-05 -2.63811e-06
1.25048e-05 0.000194403 7.55043e-07
-2.63811e-06 7.55043e-07 0.000180953
0.000772475 1.46303e-05 -1.71664e-07
1.46303e-05 8.20964e-05 2.00336e-06
-1.71664e-07 2.00336e-06 8.99589e-05
0.000560084 3.84129e-06 6.21755e-07
3.84129e-06 -4.21851e-05 -3.74405e-06
6.21755e-07 -3.74405e-06 -5.75754e-05
0.00236833 1.34557e-05 4.07319e-06
1.34557e-05 0.00103016 5.10645e-08
4.07319e-06 5.10645e-08 0.0010458
0.00236402 1.90418e-06 -5.47568e-07
1.90418e-06 0.00102734 -5.24916e-06
-5.47568e-07 -5.24916e-06 0.00104311
0.00099909 7.21286e-05 -1.11691e-06
7.21286e-05 0.000269378 -6.64679e-07
-1.11691e-06 -6.64679e-07 0.000190373
0.000616515 3.32968e-05 -1.1501e-06
3.32968e-05 1.56885e-05 -1.90193e-06
-1.1501e-06 -1.90193e-06 -2.52845e-05
0.000649289 -7.47769e-06 6.47804e-07
-7.47769e-06 6.7376e-05 8.80577e-07
6.47804e-07 8.80577e-07 -1.29603e-05
0.000603633 2.97188e-06 1.27956e-07
2.97188e-06 -2.2446e-05 -3.31222e-06
1.27956e-07 -3.31222e-06 -2.90781e-05
0.000608444 -1.07729e-05 2.10463e-07
-1.07729e-05 8.28312e-06 -2.84245e-08
2.10463e-07 -2.84245e-08 -3.01845e-05
0.00062413 -2.97875e-05 -1.38697e-06
-2.97875e-05 1.51633e-05 1.35937e-06
-1.38697e-06 1.35937e-06 -2.36037e-05
0.000586435 7.96384e-06 -2.00634e-07
7.96384e-06 -3.22822e-05 -2.23551e-08
-2.00634e-07 -2.23551e-08 -3.8826e-05
0.0020198 1.38524e-05 3.02345e-06
1.38524e-05 0.000823482 -4.63532e-06
3.02345e-06 -4.63532e-06 0.000842631
0.00115909 2.0649e-05 -6.56336e-07
2.0649e-05 0.000308863 1.86456e-06
-6.56336e-07 1.86456e-06 0.000305095
0.00140593 2.25846e-05 9.81103e-07
2.25846e-05 0.0004603 1.76011e-08
9.81103e-07 1.76011e-08 0.000475274
0.000866627 2.68333e-05 -1.29357e-05
2.68333e-05 0.000144099 7.03696e-06
-1.29357e-05 7.03696e-06 0.000154152
-0.00822695 0.000377934 0.00020439
0.000377934 -0.0036039 3.66323e-06
0.00020439 3.66323e-06 -0.00448511
-0.00187446 6.06784e-05 0.000242745
6.06784e-05 0.00187665 7.32354e-06
0.000242745 7.32354e-06 0.000356687
0.00442403 0.00022157 -0.000218419
0.00022157 0.000283454 -1.88202e-05
-0.000218419 -1.88202e-05 0.000593057
0.000465648 4.27181e-05 3.12266e-05
4.27181e-05 -0.00094988 -7.73627e-06
3.12266e-05 -7.73627e-06 -0.000913226
0.00151081 -2.73097e-05 1.85673e-05
-2.73097e-05 -0.00017447 -7.03856e-07
1.85673e-05 -7.03856e-07 -0.000192283
0.000305324 5.22611e-05 -6.75046e-06
5.22611e-05 -0.000734365 -6.55362e-06
-6.75046e-06 -6.55362e-06 -0.000697449
0.00258528 -0.000111556 -6.37179e-07
-0.000111556 0.000257935 3.97824e-06
-6.37179e-07 3.97824e-06 0.00022191
0.00903037 0.000123197 4.92095e-05
0.000123197 0.00143291 -3.10812e-05
4.92095e-05 -3.10812e-05 0.000413284
-0.00329149 0.00105282 -2.71381e-05
0.00105282 -0.000818501 -1.23211e-05
-2.71381e-05 -1.23211e-05 -0.00199557
-0.00110182 0.00203777 -0.000123477
0.00203777 0.000200317 6.16026e-05
-0.000123477 6.16026e-05 0.00133713
0.00181054 -0.000233537 6.10379e-05
-0.000233537 -0.00065071 -1.15441e-06
6.10379e-05 -1.15441e-06 -0.000739945
0.0122057 -0.000345051 9.33664e-05
-0.000345051 0.00340912 -3.2562e-05
9.33664e-05 -3.2562e-05 0.00191593
0.0030236 0.00196175 0.000129087
0.00196175 0.000210564 -0.000250611
0.000129087 -0.000250611 0.000618928
0.0063619 0.00145096 -0.000195245
0.00145096 0.000780655 0.000124011
-0.000195245 0.000124011 0.000813234
0.000698577 8.05743e-05 -1.82002e-06
8.05743e-05 0.000123794 1.53231e-06
-1.82002e-06 1.53231e-06 -2.33412e-06
0.000519057 1.47795e-05 -1.71363e-07
1.47795e-05 -8.02352e-06 -7.56458e-07
-1.71363e-07 -7.56458e-07 -9.74729e-05
0.00068155 -8.61073e-05 -9.93382e-07
-8.61073e-05 8.7421e-05 8.55406e-07
-9.93382e-07 8.55406e-07 7.62366e-06
0.000564664 -5.92007e-06 5.28088e-07
-5.92007e-06 2.22234e-05 -2.81942e-07
5.28088e-07 -2.81942e-07 -7.31355e-05
0.000649792 6.03205e-05 9.18933e-07
6.03205e-05 9.20345e-05 1.46594e-06
9.18933e-07 1.46594e-06 -1.79769e-05
0.000862749 7.04886e-05 7.86897e-08
7.04886e-05 0.000218853 1.82959e-06
7.86897e-08 1.82959e-06 9.1134e-05
0.000757588 8.90245e-05 1.63627e-06
8.90245e-05 0.00014478 1.86658e-06
1.63627e-06 1.86658e-06 3.08004e-05
0.000657266 1.31517e-05 2.51972e-06
1.31517e-05 6.96104e-05 8.75292e-08
2.51972e-06 8.75292e-08 -4.10872e-05
0.000691783 -2.09404e-05 1.02202e-06
-2.09404e-05 0.000106941 -9.33539e-07
1.02202e-06 -9.33539e-07 -2.61679e-07
0.000528709 -8.46401e-06 -5.92741e-07
-8.46401e-06 -5.31276e-06 -3.81221e-07
-5.92741e-07 -3.81221e-07 -9.52883e-05
0.00156077 -0.000197828 1.84547e-05
-0.000197828 -0.00019205 -1.28585e-06
1.84547e-05 -1.28585e-06 -0.000129859
0.00141622 -0.000364531 2.10449e-05
-0.000364531 -0.000301406 -4.27787e-06
2.10449e-05 -4.27787e-06 -0.000304585
5.89415e-05 -0.000405332 1.21524e-05
-0.000405332 -0.000824426 3.16984e-06
1.21524e-05 3.16984e-06 -0.000967545
0.000408639 -0.000360919 3.37312e-06
-0.000360919 -0.000265599 -9.71382e-07
3.37312e-06 -9.71382e-07 -0.000501907
0.00210059 -0.000273277 1.30718e-06
-0.000273277 0.00105936 8.23373e-06
1.30718e-06 8.23373e-06 0.000702297
0.00108423 -0.000188521 2.00871e-06
-0.000188521 0.000395957 -9.16439e-07
2.00871e-06 -9.16439e-07 0.00018044
0.00100311 -8.73662e-05 -1.98245e-07
-8.73662e-05 0.000268048 -1.59179e-07
-1.98245e-07 -1.59179e-07 0.000158453
0.000701738 2.42156e-05 -1.34334e-06
2.42156e-05 0.00011987 1.70841e-06
-1.34334e-06 1.70841e-06 2.66918e-06
0.00191572 -0.000256432 5.54363e-06
-0.000256432 -1.46595e-05 -2.81151e-06
5.54363e-06 -2.81151e-06 1.80658e-05
0.000688753 -6.2536e-05 -3.11896e-07
-6.2536e-05 0.00011772 -2.83316e-07
-3.11896e-07 -2.83316e-07 -2.50216e-05
0.000339607 -8.38564e-05 7.79573e-07
-8.38564e-05 -5.06757e-05 -1.55976e-06
7.79573e-07 -1.55976e-06 -0.000211405
0.00219118 -0.000502441 6.97183e-06
-0.000502441 0.000222762 -5.66647e-07
6.97183e-06 -5.66647e-07 0.000196311
0.00125105 -0.000550439 7.673e-07
-0.000550439 -0.000100437 4.22446e-06
7.673e-07 4.22446e-06 -0.000268038
0.00061958 -0.000355333 8.85291e-06
-0.000355333 -2.79619e-05 -5.6183e-06
8.85291e-06 -5.6183e-06 -0.000278813
0.00149902 -0.000146778 -5.42158e-07
-0.000146778 0.000740378 -3.75207e-06
-5.42158e-07 -3.75207e-06 0.00042333
0.00194405 -0.000399418 -2.66147e-05
-0.000399418 0.000374945 4.46166e-06
-2.66147e-05 4.46166e-06 0.000107597
0.0014408 -0.000430407 -3.76111e-05
-0.000430407 0.000106859 9.76844e-06
-3.76111e-05 9.76844e-06 3.73073e-05
4.40345e-05 -0.000226686 -2.44516e-05
-0.000226686 -0.000188583 3.7962e-05
-2.44516e-05 3.7962e-05 -0.000476326
-0.000146944 4.47896e-06 -3.45267e-07
4.47896e-06 -0.000360907 1.90772e-06
-3.45267e-07 1.90772e-06 -0.000505233
0.000425115 -0.000114071 2.2097e-06
-0.000114071 -9.5643e-06 -1.05808e-06
2.2097e-06 -1.05808e-06 -0.00017133
0.000723774 -9.19814e-05 3.20432e-06
-9.19814e-05 0.000240187 -4.82508e-06
3.20432e-06 -4.82508e-06 2.04184e-06
0.000101924 0.000248213 -0.000155472
0.000248213 0.00364598 4.33844e-06
-0.000155472 4.33844e-06 0.00189585
0.00180298 -0.000402032 1.64214e-05
-0.000402032 0.00140279 2.31503e-05
1.64214e-05 2.31503e-05 0.00133805
0.000845603 0.000692959 -6.32048e-05
0.000692959 -0.00304873 9.69618e-06
-6.32048e-05 9.69618e-06 -0.00356464
0.000682602 0.000157187 5.99559e-06
0.000157187 0.000133937 1.82829e-06
5.99559e-06 1.82829e-06 -5.88593e-06
0.000832222 0.00025651 6.53005e-06
0.00025651 0.000151329 7.82942e-06
6.53005e-06 7.82942e-06 -7.42996e-05
0.00285801 0.000427629 2.6278e-05
0.000427629 0.000665636 1.09208e-05
2.6278e-05 1.09208e-05 0.000698464
0.0022174 0.000481932 1.89716e-05
0.000481932 0.000704614 1.29463e-05
1.89716e-05 1.29463e-05 0.000424084
0.00699788 -0.000805261 6.8912e-05
-0.000805261 0.00258394 3.90324e-05
6.8912e-05 3.90324e-05 0.00278017
0.00267395 3.15886e-05 -0.000146978
3.15886e-05 -0.00173446 -9.72001e-06
-0.000146978 -9.72001e-06 -0.00342228
0.00295946 0.00122486 -7.41856e-05
0.00122486 -0.000367517 -1.38541e-05
-7.41856e-05 -1.38541e-05 -0.00106119
0.000463166 0.000251787 2.51576e-05
0.000251787 -0.0001537 -2.29339e-05
2.51576e-05 -2.29339e-05 -0.000142162
-0.00349961 -0.000920243 -9.9017e-05
-0.000920243 -0.000936989 -0.000128814
-9.9017e-05 -0.000128814 -0.0014112
-0.000581373 -0.000841097 -8.8692e-05
-0.000841097 0.00140351 -5.26289e-06
-8.8692e-05 -5.26289e-06 -0.000632686
0.00927537 -0.00176783 0.000215615
-0.00176783 0.00108651 0.000164424
0.000215615 0.000164424 0.00228621
0.000637137 0.000121614 6.03936e-06
0.000121614 0.000130299 -2.28257e-06
6.03936e-06 -2.28257e-06 -2.96097e-06
-0.0019835 6.30213e-05 -8.14112e-05
6.30213e-05 0.00202731 -2.39788e-05
-8.14112e-05 -2.39788e-05 -0.000227863
0.0035246 0.000336898 -1.92848e-05
0.000336898 0.00169134 -7.25797e-05
-1.92848e-05 -7.25797e-05 -0.00102169
0.00132028 0.000395651 -5.32309e-06
0.000395651 0.000144557 4.42169e-06
-5.32309e-06 4.42169e-06 9.76914e-05
0.000541353 0.000275063 4.56951e-07
0.000275063 7.71381e-05 2.0642e-06
4.56951e-07 2.0642e-06 -0.000168212
-0.000461364 0.000260608 2.21791e-05
0.000260608 -0.000319927 -3.70081e-05
2.21791e-05 -3.70081e-05 -0.00059802
0.00539623 0.00144992 -8.27933e-06
0.00144992 0.00183682 5.90256e-06
-8.27933e-06 5.90256e-06 0.00120078
0.0113411 0.000819915 5.7801e-05
0.000819915 0.0039489 2.16341e-05
5.7801e-05 2.16341e-05 0.00196878
0.00389017 -0.00123964 2.31776e-05
-0.00123964 -0.000413568 -4.22359e-05
2.31776e-05 -4.22359e-05 -0.000892758
0.00897611 -0.00115372 8.34082e-06
-0.00115372 0.00115518 -3.18274e-05
8.34082e-06 -3.18274e-05 0.00230249
0.000861494 0.00019762 -1.13518e-05
0.00019762 0.000312112 -1.02732e-05
-1.13518e-05 -1.02732e-05 0.000177997
0.00269065 5.83409e-05 -0.000111845
5.83409e-05 0.000955377 -3.18295e-05
-0.000111845 -3.18295e-05 -0.000761249
-3.01239e-05 8.36876e-05 -3.51934e-05
8.36876e-05 0.000113879 -9.09889e-05
-3.51934e-05 -9.09889e-05 -0.00146589
-0.000940279 6.99704e-05 -1.33696e-05
6.99704e-05 -0.000440879 -1.78677e-05
-1.33696e-05 -1.78677e-05 -0.000599542
0.00160804 0.000366887 -3.85377e-05
0.000366887 0.000870698 4.25885e-05
-3.85377e-05 4.25885e-05 0.000169313
0.00961957 0.00120177 4.3908e-05
0.00120177 0.00386749 1.35472e-06
4.3908e-05 1.35472e-06 0.000889071
-0.00684611 -0.00182189 -4.19879e-05
-0.00182189 -0.00371832 0.000116197
-4.19879e-05 0.000116197 -0.00578912
0.00740763 0.000395038 1.60154e-05
0.000395038 -0.000892872 -0.000169855
1.60154e-05 -0.000169855 0.000988564
0.000987934 0.000104203 2.54491e-06
0.000104203 0.000270014 6.66832e-06
2.54491e-06 6.66832e-06 0.000181417
0.00096527 0.000118919 -4.73761e-06
0.000118919 0.000332407 -1.27289e-06
-4.73761e-06 -1.27289e-06 0.000228232
0.000300189 7.56808e-05 -3.00198e-06
7.56808e-05 0.000102755 -2.71504e-06
-3.00198e-06 -2.71504e-06 -6.34793e-05
0.000772865 7.88541e-05 -2.44453e-06
7.88541e-05 0.000137268 -9.05191e-07
-2.44453e-06 -9.05191e-07 1.90922e-05
0.000863395 -2.77045e-05 -8.09811e-07
-2.77045e-05 0.000190798 1.13281e-06
-8.09811e-07 1.13281e-06 6.43005e-05
0.000637572 3.85402e-05 8.87816e-07
3.85402e-05 4.04335e-05 2.08972e-06
8.87816e-07 2.08972e-06 -6.22157e-05
0.000150628 3.37993e-05 1.59828e-06
3.37993e-05 -0.000173739 2.70703e-06
1.59828e-06 2.70703e-06 -0.000273422
0.000831372 -3.15847e-06 1.0592e-06
-3.15847e-06 0.000164539 1.33659e-07
1.0592e-06 1.33659e-07 3.39731e-05
0.000858616 2.42608e-05 1.88738e-07
2.42608e-05 0.000185405 -8.95589e-07
1.88738e-07 -8.95589e-07 7.1991e-05
0.000259999 -6.4351e-06 4.56525e-07
-6.4351e-06 1.12764e-05 1.39994e-06
4.56525e-07 1.39994e-06 -0.000129546
-0.000649942 8.49516e-06 -3.08836e-06
8.49516e-06 -0.000311429 -1.19557e-06
-3.08836e-06 -1.19557e-06 -0.000512874
0.000953263 -6.22882e-06 -2.11519e-06
-6.22882e-06 0.000364477 -7.4644e-06
-2.11519e-06 -7.4644e-06 0.00023622
0.00096038 4.43181e-05 -1.60257e-06
4.43181e-05 0.000253348 -3.81837e-06
-1.60257e-06 -3.81837e-06 0.000121431
0.000881844 -0.000104636 1.7217e-06
-0.000104636 0.000192991 8.86749e-07
1.7217e-06 8.86749e-07 7.62222e-05
0.000755073 1.04759e-05 -3.12282e-07
1.04759e-05 0.000117325 9.89027e-08
-3.12282e-07 9.89027e-08 1.76861e-05
0.000652712 -5.25373e-05 -1.83071e-06
-5.25373e-05 5.87438e-05 3.07603e-06
-1.83071e-06 3.07603e-06 -3.0918e-05
0.000507318 -3.14176e-05 1.70145e-06
-3.14176e-05 -1.35672e-05 1.33828e-06
1.70145e-06 1.33828e-06 -0.000120047
0.000721282 1.21547e-05 2.75912e-07
1.21547e-05 0.000103457 4.20378e-08
2.75912e-07 4.20378e-08 3.50814e-06
0.000613579 -2.17213e-05 -7.40444e-07
-2.17213e-05 3.2368e-05 -6.42226e-10
-7.40444e-07 -6.42226e-10 -5.43771e-05
0.000939004 -1.66812e-05 -1.88781e-07
-1.66812e-05 0.000207861 -2.86297e-06
-1.88781e-07 -2.86297e-06 0.000116684
9.74987e-05 -3.77205e-05 3.31713e-06
-3.77205e-05 -0.000215188 -4.39125e-06
3.31713e-06 -4.39125e-06 -0.000294218
0.000278666 -9.00061e-05 1.82981e-06
-9.00061e-05 -0.000242803 -1.037e-06
1.82981e-06 -1.037e-06 -0.000337277
0.000849622 -5.38499e-05 -2.49478e-06
-5.38499e-05 0.000146633 -3.77083e-07
-2.49478e-06 -3.77083e-07 4.65435e-05
0.000519338 -9.61452e-05 5.18951e-06
-9.61452e-05 -2.54365e-05 3.13282e-06
5.18951e-06 3.13282e-06 -0.00016696
0.00118778 -0.000234273 -1.45848e-06
-0.000234273 0.000328259 7.18601e-06
-1.45848e-06 7.18601e-06 0.000108432
0.00125912 -0.000109991 1.83045e-06
-0.000109991 0.000435035 -1.47344e-06
1.83045e-06 -1.47344e-06 0.000300363
0.00028691 -6.85845e-05 -2.08414e-06
-6.85845e-05 -0.00013207 -4.74191e-06
-2.08414e-06 -4.74191e-06 -0.000282385
0.000640492 -3.64758e-06 -2.78975e-07
-3.64758e-06 5.59955e-05 -1.22766e-07
-2.78975e-07 -1.22766e-07 -4.98272e-05
0.000368706 2.16602e-06 5.24272e-07
2.16602e-06 -9.76946e-05 -6.38601e-08
5.24272e-07 -6.38601e-08 -0.000196804
0.000850387 -1.20557e-05 -5.96685e-07
-1.20557e-05 0.000173469 9.41016e-07
-5.96685e-07 9.41016e-07 6.95356e-05
0.000740355 -3.32012e-05 -5.63922e-07
-3.32012e-05 0.000117751 5.93549e-07
-5.63922e-07 5.93549e-07 1.79921e-05
0.000629098 -1.5093e-05 -6.33109e-07
-1.5093e-05 3.44245e-05 8.34541e-07
-6.33109e-07 8.34541e-07 -4.18622e-05
0.000831666 -5.1802e-05 -9.99358e-09
-5.1802e-05 0.00018527 -4.72342e-07
-9.99358e-09 -4.72342e-07 7.53338e-05
0.000684354 -4.78694e-05 -5.6765e-07
-4.78694e-05 7.19327e-05 -2.47385e-08
-5.6765e-07 -2.47385e-08 -8.12453e-06
0.000603277 3.04482e-05 -1.93299e-06
3.04482e-05 8.24479e-07 1.82838e-06
-1.93299e-06 1.82838e-06 -5.12625e-05
0.000718027 -7.88412e-05 1.8231e-06
-7.88412e-05 9.42955e-05 -1.09695e-06
1.8231e-06 -1.09695e-06 1.0348e-05
0.000651129 -8.21514e-06 -2.65186e-07
-8.21514e-06 2.67797e-05 3.66701e-08
-2.65186e-07 3.66701e-08 -2.36372e-05
0.00136997 3.31548e-05 -7.27757e-06
3.31548e-05 0.00043857 5.42493e-06
-7.27757e-06 5.42493e-06 0.000426277
0.00062486 -2.74144e-05 1.95441e-06
-2.74144e-05 1.76422e-05 -2.12057e-06
1.95441e-06 -2.12057e-06 -3.47216e-05
0.000962766 2.07933e-05 -3.53979e-06
2.07933e-05 0.000196313 7.15564e-07
-3.53979e-06 7.15564e-07 0.000182583
0.000781503 2.31725e-05 -4.88759e-07
2.31725e-05 9.04741e-05 2.07503e-06
-4.88759e-07 2.07503e-06 9.71916e-05
0.000555083 9.53026e-06 4.94449e-07
9.53026e-06 -4.61141e-05 -3.84774e-06
4.94449e-07 -3.84774e-06 -6.13958e-05
0.00155993 2.27691e-05 5.601e-06
2.27691e-05 0.00055065 -1.49011e-06
5.601e-06 -1.49011e-06 0.000562184
0.00235091 1.58961e-05 4.16287e-06
1.58961e-05 0.00102002 -5.14132e-06
4.16287e-06 -5.14132e-06 0.00103567
0.000708972 6.82575e-06 1.23016e-06
6.82575e-06 8.94326e-05 -1.38993e-06
1.23016e-06 -1.38993e-06 7.53692e-06
0.000654889 2.84706e-05 -6.45914e-07
2.84706e-05 3.57915e-05 -1.82593e-06
-6.45914e-07 -1.82593e-06 -6.94921e-06
0.000705683 -3.0211e-06 1.12719e-06
-3.0211e-06 9.42705e-05 3.00174e-07
1.12719e-06 3.00174e-07 1.56354e-05
0.000593031 -2.76378e-06 2.55091e-07
-2.76378e-06 -2.81005e-05 -3.45475e-06
2.55091e-07 -3.45475e-06 -3.55761e-05
0.000607941 2.19892e-05 6.36501e-08
2.19892e-05 9.25409e-06 -2.26553e-08
6.36501e-08 -2.26553e-08 -3.08531e-05
0.000662914 -8.67784e-05 -3.44059e-06
-8.67784e-05 7.00024e-05 1.36462e-06
-3.44059e-06 1.36462e-06 -6.14862e-06
0.00203251 1.39064e-06 -1.68191e-06
1.39064e-06 0.00082972 -4.73358e-06
-1.68191e-06 -4.73358e-06 0.000849136
0.000588325 2.64737e-06 -1.79473e-07
2.64737e-06 -3.12114e-05 -1.026e-08
-1.79473e-07 -1.026e-08 -3.78131e-05
0.000600876 -2.00878e-05 -1.35751e-06
-2.00878e-05 2.82706e-06 1.5976e-06
-1.35751e-06 1.5976e-06 -3.51088e-05
0.000570564 7.75388e-06 -4.28185e-07
7.75388e-06 -4.1689e-05 3.21895e-06
-4.28185e-07 3.21895e-06 -4.81869e-05
0.00203737 1.5294e-05 -3.77337e-06
1.5294e-05 0.000834077 -4.58745e-08
-3.77337e-06 -4.58745e-08 0.000853116
0.00202899 2.71743e-05 -9.7036e-06
2.71743e-05 0.000831398 4.34812e-06
-9.7036e-06 4.34812e-06 0.000849818
-0.00416515 -0.000358124 -4.97514e-05
-0.000358124 0.00146942 1.76921e-05
-4.97514e-05 1.76921e-05 -0.000743555
-0.000763153 0.000491523 -7.54589e-05
0.000491523 -0.000425834 1.89538e-05
-7.54589e-05 1.89538e-05 -0.00097635
0.0037548 -0.000374448 -0.000242311
-0.000374448 0.00116261 0.000165501
-0.000242311 0.000165501 -0.00120595
-0.00291677 0.000111302 0.000341278
0.000111302 0.00188449 -0.000148954
0.000341278 -0.000148954 0.000372199
0.000312248 0.000255553 -2.40887e-05
0.000255553 -0.00124773 4.61658e-06
-2.40887e-05 4.61658e-06 -0.00125607
0.00241161 -0.000164852 9.9138e-05
-0.000164852 8.86039e-05 -9.07763e-06
9.9138e-05 -9.07763e-06 7.68044e-05
0.00110062 -0.000413178 -2.96728e-05
-0.000413178 -0.00212795 -6.06265e-05
-2.96728e-05 -6.06265e-05 -0.00353147
0.0101242 0.00105345 -0.00011245
0.00105345 0.00495988 -2.08181e-05
-0.00011245 -2.08181e-05 0.0043373
-0.00765709 0.00227426 -0.000582627
0.00227426 -0.00355783 0.000447059
-0.000582627 0.000447059 -0.00187646
0.00274429 -0.000104236 -5.08678e-06
-0.000104236 -0.00023581 -5.04796e-06
-5.08678e-06 -5.04796e-06 -0.000341047
0.00474479 -0.000426802 4.89467e-05
-0.000426802 -0.000164653 -5.9152e-05
4.89467e-05 -5.9152e-05 -0.00227486
0.0106925 0.00193207 -7.72658e-05
0.00193207 0.00334109 -7.71967e-05
-7.72658e-05 -7.71967e-05 0.00380997
0.00361364 0.00140544 -6.79554e-05
0.00140544 -0.00115224 0.000170977
-6.79554e-05 0.000170977 -0.000955019
0.0031007 -0.000676325 -6.82045e-05
-0.000676325 -0.000488862 1.90842e-05
-6.82045e-05 1.90842e-05 -0.000515075
0.00288846 -0.000914567 0.000195157
-0.000914567 0.000177698 -0.000126073
0.000195157 -0.000126073 -0.00310326
-0.00455433 0.00104404 -6.66758e-05
0.00104404 -0.0041754 -0.000318292
-6.66758e-05 -0.000318292 -0.00437868
0.00345289 0.00082661 -8.33419e-05
0.00082661 -0.00296905 7.09025e-06
-8.33419e-05 7.09025e-06 -0.00178982
0.000985649 -1.89937e-05 6.40545e-07
-1.89937e-05 0.00030021 3.45066e-06
6.40545e-07 3.45066e-06 0.000156124
0.000693611 6.87555e-05 -1.77071e-06
6.87555e-05 0.000114612 -1.20079e-06
-1.77071e-06 -1.20079e-06 -4.89991e-06
0.00064328 6.23872e-05 9.23638e-08
6.23872e-05 6.09936e-05 -1.59642e-06
9.23638e-08 -1.59642e-06 -2.44799e-05
0.000646482 6.31132e-05 3.27874e-06
6.31132e-05 9.37506e-05 7.45038e-07
3.27874e-06 7.45038e-07 -1.48517e-05
0.000652683 4.45339e-05 4.93628e-07
4.45339e-05 8.31506e-05 1.27075e-06
4.93628e-07 1.27075e-06 -5.88191e-05
0.00074726 6.97612e-05 -9.63238e-09
6.97612e-05 0.000147232 1.31206e-06
-9.63238e-09 1.31206e-06 2.37102e-05
0.000620168 2.57672e-05 -2.6928e-07
2.57672e-05 6.45569e-05 1.37366e-08
-2.6928e-07 1.37366e-08 -4.60016e-05
0.000885092 0.000125089 1.02821e-06
0.000125089 0.000227102 1.65042e-06
1.02821e-06 1.65042e-06 9.45673e-05
0.000838427 7.69725e-05 -9.93115e-08
7.69725e-05 0.000198692 3.72446e-07
-9.93115e-08 3.72446e-07 7.42877e-05
0.000523902 -5.74391e-06 -2.84614e-06
-5.74391e-06 7.89456e-06 -1.45278e-06
-2.84614e-06 -1.45278e-06 -0.000100908
0.000701598 -0.000202623 3.73099e-05
-0.000202623 -0.000640501 -1.84212e-05
3.73099e-05 -1.84212e-05 -0.000590416
0.000915599 -0.000437964 2.8351e-05
-0.000437964 -0.000457455 -5.53769e-06
2.8351e-05 -5.53769e-06 -0.000482533
0.00181539 -0.000605544 1.4538e-05
-0.000605544 0.000185229 6.75121e-08
1.4538e-05 6.75121e-08 1.295e-05
0.000447942 -0.000385034 6.553e-06
-0.000385034 -0.000130218 -1.20466e-05
6.553e-06 -1.20466e-05 -0.000414116
0.00183114 -0.000179014 -1.94491e-06
-0.000179014 0.000885551 1.4195e-05
-1.94491e-06 1.4195e-05 0.000600023
0.000659771 -9.43217e-05 -9.81056e-07
-9.43217e-05 0.000139561 3.33002e-06
-9.81056e-07 3.33002e-06 -2.78631e-05
0.00049858 7.22722e-05 -2.59543e-09
7.22722e-05 1.13769e-05 -2.52818e-06
-2.59543e-09 -2.52818e-06 -0.000132767
0.000710862 -5.35819e-05 -5.12258e-07
-5.35819e-05 0.000141949 2.84386e-06
-5.12258e-07 2.84386e-06 -1.54351e-05
0.00142497 -0.000328569 1.08084e-06
-0.000328569 3.0335e-05 -9.90589e-07
1.08084e-06 -9.90589e-07 -0.000127395
0.000719553 -1.9465e-05 4.90629e-08
-1.9465e-05 0.000153306 9.98818e-07
4.90629e-08 9.98818e-07 -1.00004e-05
0.00144767 -0.000141532 -2.56288e-07
-0.000141532 0.000658637 -1.70881e-07
-2.56288e-07 -1.70881e-07 0.00041102
0.00141709 -0.000440422 7.5028e-07
-0.000440422 5.53481e-05 6.34046e-07
7.5028e-07 6.34046e-07 -7.8019e-07
0.000907197 -0.000301271 -1.6278e-05
-0.000301271 0.000266847 4.79345e-06
-1.6278e-05 4.79345e-06 -1.53467e-05
0.000766573 -0.00051786 -1.21882e-05
-0.00051786 -0.000362283 -2.43961e-05
-1.21882e-05 -2.43961e-05 -0.000342838
0.00100779 -0.000245703 -1.79442e-05
-0.000245703 0.000337903 1.9117e-05
-1.79442e-05 1.9117e-05 0.000220245
-0.000847306 -3.76837e-05 1.43544e-07
-3.76837e-05 -0.000579295 2.30764e-05
1.43544e-07 2.30764e-05 -0.000857185
0.000690254 9.31287e-06 -8.91861e-07
9.31287e-06 0.000107318 -4.37414e-06
-8.91861e-07 -4.37414e-06 -3.7974e-05
0.000613996 3.79442e-05 1.96303e-06
3.79442e-05 0.00017329 -3.45766e-06
1.96303e-06 -3.45766e-06 -4.70955e-05
0.00172706 -4.77828e-05 -1.85279e-05
-4.77828e-05 0.00108262 -5.28187e-06
-1.85279e-05 -5.28187e-06 -0.000543287
-0.0024967 9.7704e-05 -0.000124366
9.7704e-05 0.00274752 -5.2536e-06
-0.000124366 -5.2536e-06 0.00062283
-0.00955042 -0.000569531 -0.000299418
-0.000569531 -0.00506052 4.57437e-06
-0.000299418 4.57437e-06 -0.00487878
-0.000156151 9.3495e-05 6.29063e-06
9.3495e-05 -0.000302712 -1.53354e-06
6.29063e-06 -1.53354e-06 -0.000447919
0.000107845 0.000169648 3.22738e-06
0.000169648 -0.000139209 5.30505e-06
3.22738e-06 5.30505e-06 -0.000378634
0.00162572 0.000380674 1.91042e-05
0.000380674 0.000302337 6.53118e-06
1.91042e-05 6.53118e-06 0.000261052
-0.00379638 0.000434285 -1.98404e-05
0.000434285 0.00132491 1.47277e-05
-1.98404e-05 1.47277e-05 -0.00106457
0.00147282 0.000752435 -8.86833e-05
0.000752435 -5.51969e-06 -8.78169e-05
-8.86833e-05 -8.78169e-05 -0.00328934
0.0029581 0.00107785 0.000149511
0.00107785 0.000455948 3.5287e-05
0.000149511 3.5287e-05 -6.39759e-06
0.000307727 0.000318509 6.94629e-06
0.000318509 -5.51575e-05 -2.62909e-05
6.94629e-06 -2.62909e-05 -0.00011613
0.0124422 -0.00139161 4.28614e-06
-0.00139161 0.00361702 -0.000108555
4.28614e-06 -0.000108555 0.00329111
0.00405112 0.000365997 0.000140534
0.000365997 0.00186374 7.49045e-05
0.000140534 7.49045e-05 -0.000940526
0.00914522 -0.00102125 6.1932e-05
-0.00102125 0.00138896 1.5787e-05
6.1932e-05 1.5787e-05 0.00261333
0.000933991 0.000198942 1.87288e-06
0.000198942 0.000401117 -2.01336e-06
1.87288e-06 -2.01336e-06 0.00025945
0.00324204 7.05596e-05 9.27008e-06
7.05596e-05 0.00145841 -2.26874e-06
9.27008e-06 -2.26874e-06 1.37291e-05
0.000495972 0.000105591 1.45461e-05
0.000105591 0.000130109 1.07165e-05
1.45461e-05 1.07165e-05 -0.00147927
-0.000258694 0.000200914 -7.36866e-06
0.000200914 -0.000145625 -1.66143e-06
-7.36866e-06 -1.66143e-06 -0.000343863
0.00224182 0.000591159 -7.37872e-05
0.000591159 0.000990579 -3.84735e-05
-7.37872e-05 -3.84735e-05 0.000175326
0.00276734 0.00159873 7.53759e-05
0.00159873 0.000913784 5.66991e-05
7.53759e-05 5.66991e-05 -0.0022659
0.00568314 0.000158571 -1.00414e-05
0.000158571 -0.00236562 -0.000108657
-1.00414e-05 -0.000108657 -0.000156928
0.00202957 -0.00114069 -3.10162e-05
-0.00114069 0.000398384 -4.29223e-05
-3.10162e-05 -4.29223e-05 -0.00119787
0.00086495 0.000148543 -7.53121e-06
0.000148543 0.000556453 -1.16584e-05
-7.53121e-06 -1.16584e-05 0.000394479
0.000559429 -6.39471e-05 -5.97559e-06
-6.39471e-05 6.23899e-05 -8.8556e-06
-5.97559e-06 -8.8556e-06 5.83419e-05
0.00265222 1.37249e-05 2.87383e-05
1.37249e-05 0.000321826 -7.95274e-05
2.87383e-05 -7.95274e-05 -0.000837197
0.00355756 0.000863791 8.91206e-05
0.000863791 -0.00281452 -7.74576e-06
8.91206e-05 -7.74576e-06 -0.00179868
-0.000735105 0.000100464 -3.93783e-06
0.000100464 -2.53705e-05 -1.85459e-05
-3.93783e-06 -1.85459e-05 -0.000529803
0.0104462 0.00121338 0.000126087
0.00121338 0.00508667 4.9469e-05
0.000126087 4.9469e-05 0.00148635
-0.00895585 -0.000328704 6.93238e-05
-0.000328704 -0.000622877 0.000189299
6.93238e-05 0.000189299 -0.00256399
0.00193069 0.000208297 1.69684e-05
0.000208297 0.000900853 8.55145e-06
1.69684e-05 8.55145e-06 0.000780509
0.000588616 0.000116663 -4.47906e-06
0.000116663 0.000244841 -3.0301e-07
-4.47906e-06 -3.0301e-07 6.91742e-05
0.000218414 7.587e-05 -3.42334e-06
7.587e-05 0.000237783 -2.43835e-06
-3.42334e-06 -2.43835e-06 3.53795e-05
0.000765161 0.000133523 7.9229e-07
0.000133523 0.000136029 1.22513e-06
7.9229e-07 1.22513e-06 -3.07055e-07
0.000720025 6.11636e-05 9.49876e-07
6.11636e-05 9.95486e-05 2.07119e-06
9.49876e-07 2.07119e-06 -9.64465e-06
0.000912333 9.51189e-07 6.56148e-06
9.51189e-07 0.00040436 6.76873e-06
6.56148e-06 6.76873e-06 0.000249827
0.000678125 4.46715e-05 -1.79313e-07
4.46715e-05 8.20633e-05 -1.98074e-07
-1.79313e-07 -1.98074e-07 -4.15052e-05
0.000798077 -2.20201e-05 -1.1069e-06
-2.20201e-05 0.00027995 -1.67933e-06
-1.1069e-06 -1.67933e-06 0.000148951
-6.26665e-05 2.91723e-05 5.29866e-06
2.91723e-05 1.58443e-05 3.41182e-06
5.29866e-06 3.41182e-06 -0.000191564
0.000918735 9.44509e-06 -8.90693e-06
9.44509e-06 0.000505917 -9.27508e-06
-8.90693e-06 -9.27508e-06 0.000401372
0.000124 -3.69582e-05 -3.32891e-06
-3.69582e-05 -0.000123212 -8.38414e-06
-3.32891e-06 -8.38414e-06 -0.000241128
0.000590308 -4.39742e-05 2.4912e-06
-4.39742e-05 2.26403e-05 3.72461e-06
2.4912e-06 3.72461e-06 -7.48265e-05
0.000781348 1.28929e-05 -7.0218e-07
1.28929e-05 0.000138998 2.29825e-07
-7.0218e-07 2.29825e-07 3.76162e-05
0.000873416 -1.49934e-05 -5.63338e-06
-1.49934e-05 0.000183332 3.97085e-06
-5.63338e-06 3.97085e-06 9.69422e-05
0.000709776 -4.4504e-05 3.12184e-06
-4.4504e-05 0.000132794 -1.02926e-08
3.12184e-06 -1.02926e-08 5.19394e-05
0.000621801 -7.26188e-06 -5.69059e-07
-7.26188e-06 2.87211e-05 2.05453e-07
-5.69059e-07 2.05453e-07 -6.39455e-05
0.000765545 -8.84199e-05 3.42969e-06
-8.84199e-05 0.000137146 -5.77251e-07
3.42969e-06 -5.77251e-07 4.16971e-05
0.000413043 -8.03917e-05 -2.36245e-06
-8.03917e-05 -0.000130525 -1.14263e-06
-2.36245e-06 -1.14263e-06 -0.000212856
-7.40017e-05 -0.000155075 8.25223e-06
-0.000155075 -0.000388588 3.34838e-07
8.25223e-06 3.34838e-07 -0.0005653
0.000948605 -7.86609e-05 -1.24328e-06
-7.86609e-05 0.000210278 1.12542e-06
-1.24328e-06 1.12542e-06 0.000104832
0.0011212 -0.000155474 -3.92967e-07
-0.000155474 0.000311871 2.53472e-06
-3.92967e-07 2.53472e-06 0.000158789
0.000665658 -0.000217039 -3.00525e-06
-0.000217039 -1.78345e-05 4.79519e-06
-3.00525e-06 4.79519e-06 -0.000235373
0.000894369 -0.000214926 -4.22682e-06
-0.000214926 0.000119211 2.4994e-07
-4.22682e-06 2.4994e-07 -9.82942e-05
0.00101299 -0.000177501 -1.99759e-06
-0.000177501 0.000308813 3.76231e-06
-1.99759e-06 3.76231e-06 0.000130826
0.000420023 -0.000157072 1.80839e-06
-0.000157072 -0.000114253 -1.49691e-07
1.80839e-06 -1.49691e-07 -0.000319439
0.000860622 -6.62116e-05 1.14334e-06
-6.62116e-05 0.00019076 2.96437e-08
1.14334e-06 2.96437e-08 7.3424e-05
0.00104501 -0.000103589 -1.40485e-06
-0.000103589 0.000318631 -4.92225e-07
-1.40485e-06 -4.92225e-07 0.000179808
0.00048419 -9.07483e-05 2.30206e-06
-9.07483e-05 -4.39566e-06 -9.49956e-06
2.30206e-06 -9.49956e-06 -0.000152895
0.000953839 -1.98773e-05 -7.138e-07
-1.98773e-05 0.000230766 -2.70821e-07
-7.138e-07 -2.70821e-07 0.00012689
0.000503781 -5.61308e-06 2.92031e-07
-5.61308e-06 -1.66573e-05 -7.88358e-08
2.92031e-07 -7.88358e-08 -0.000117762
0.000625375 -3.12211e-06 -3.27742e-07
-3.12211e-06 3.41041e-05 5.88364e-07
-3.27742e-07 5.88364e-07 -4.69487e-05
0.000799402 -4.9065e-05 -1.21883e-07
-4.9065e-05 0.000161784 3.80883e-07
-1.21883e-07 3.80883e-07 5.35558e-05
0.000684388 -2.99913e-05 -1.46423e-07
-2.99913e-05 7.4213e-05 4.63362e-08
-1.46423e-07 4.63362e-08 -8.16757e-06
0.000604519 3.05588e-05 -6.24518e-07
3.05588e-05 6.5174e-06 1.83563e-06
-6.24518e-07 1.83563e-06 -4.88689e-05
0.000737643 -6.35587e-05 6.50777e-07
-6.35587e-05 0.000109965 -1.13377e-06
6.50777e-07 -1.13377e-06 2.45568e-05
0.000626765 2.18531e-05 -8.97727e-07
2.18531e-05 1.5013e-05 -5.04689e-08
-8.97727e-07 -5.04689e-08 -3.76842e-05
0.00133115 4.54185e-05 -8.28212e-06
4.54185e-05 0.000418811 3.60244e-06
-8.28212e-06 3.60244e-06 0.000405692
0.000657469 -2.01818e-05 2.24512e-06
-2.01818e-05 3.14127e-05 -2.12521e-06
2.24512e-06 -2.12521e-06 -1.97284e-05
0.00094421 2.99554e-05 -4.46655e-06
2.99554e-05 0.000185954 6.31627e-07
-4.46655e-06 6.31627e-07 0.000171866
0.000803241 3.17733e-05 -1.08333e-06
3.17733e-05 0.000106929 2.11977e-06
-1.08333e-06 2.11977e-06 0.000112548
0.00053865 1.64211e-05 8.16022e-07
1.64211e-05 -5.66701e-05 -4.03923e-06
8.16022e-07 -4.03923e-06 -7.20358e-05
0.00156643 3.40623e-05 7.60955e-06
3.40623e-05 0.000557443 -1.35391e-06
7.60955e-06 -1.35391e-06 0.000567926
0.00234784 3.03247e-05 7.87092e-06
3.03247e-05 0.00102005 -5.03681e-06
7.87092e-06 -5.03681e-06 0.00103508
0.000456235 4.38657e-06 8.2687e-07
4.38657e-06 -4.87623e-05 -6.88388e-07
8.2687e-07 -6.88388e-07 -0.000148988
0.000331686 2.81951e-06 -8.1166e-08
2.81951e-06 -0.000154831 -3.19043e-06
-8.1166e-08 -3.19043e-06 -0.000205404
0.000751491 1.73845e-05 4.74003e-08
1.73845e-05 0.000120171 1.15472e-07
4.74003e-08 1.15472e-07 3.39522e-05
0.000587806 -8.1144e-06 2.33048e-07
-8.1144e-06 -3.08927e-05 -3.63583e-06
2.33048e-07 -3.63583e-06 -4.01158e-05
0.000460918 4.07756e-06 1.06771e-06
4.07756e-06 -7.92297e-05 -7.04399e-08
1.06771e-06 -7.04399e-08 -0.000122875
0.000442312 -7.7966e-05 -1.26177e-06
-7.7966e-05 -5.98994e-05 8.07114e-07
-1.26177e-06 8.07114e-07 -0.0001413
0.00209104 -1.15337e-05 -6.04299e-06
-1.15337e-05 0.000864608 -4.785e-06
-6.04299e-06 -4.785e-06 0.000883469
0.00058944 -2.81477e-06 -1.08026e-07
-2.81477e-06 -3.03403e-05 -4.2409e-08
-1.08026e-07 -4.2409e-08 -3.77315e-05
0.000589717 -1.04191e-05 -1.44792e-06
-1.04191e-05 -2.66627e-06 1.76129e-06
-1.44792e-06 1.76129e-06 -4.19408e-05
0.00204417 2.74294e-06 -3.80776e-06
2.74294e-06 0.000836751 8.78114e-09
-3.80776e-06 8.78114e-09 0.000856118
0.000573172 2.44335e-06 -3.07768e-07
2.44335e-06 -3.98868e-05 3.2972e-06
-3.07768e-07 3.2972e-06 -4.64598e-05
0.00203678 1.66777e-05 -2.68845e-06
1.66777e-05 0.000833864 4.53986e-06
-2.68845e-06 4.53986e-06 0.000852845
0.000467805 -0.000170884 -9.2162e-05
-0.000170884 -0.000159922 2.74901e-05
-9.2162e-05 2.74901e-05 -0.00166368
0.00150435 0.000158824 -2.73662e-05
0.000158824 0.00340602 -7.75966e-06
-2.73662e-05 -7.75966e-06 0.00201283
0.00115022 -0.000337126 -0.000253056
-0.000337126 0.00200123 3.6286e-06
-0.000253056 3.6286e-06 0.00107045
0.000759674 7.79056e-05 1.72562e-06
7.79056e-05 0.000133526 6.90783e-07
1.72562e-06 6.90783e-07 4.7843e-06
0.00369417 -0.00024274 -3.36592e-05
-0.00024274 0.00230197 9.04915e-05
-3.36592e-05 9.04915e-05 0.00106628
0.00356719 -0.000419076 -8.93456e-05
-0.000419076 0.00118257 7.5764e-06
-8.93456e-05 7.5764e-06 -0.00146368
0.00218363 0.000663937 0.000175622
0.000663937 0.00312301 -0.000159722
0.000175622 -0.000159722 0.00207605
0.00378154 -0.000219004 2.39982e-05
-0.000219004 0.000134631 -3.25121e-05
2.39982e-05 -3.25121e-05 -0.000148828
0.0114309 -0.000376921 0.000110944
-0.000376921 0.0031426 -5.97806e-05
0.000110944 -5.97806e-05 0.00149435
-0.00234441 0.00154576 -0.000122096
0.00154576 -0.00368811 0.000143441
-0.000122096 0.000143441 -0.00299605
0.00550053 0.00153227 4.04031e-05
0.00153227 0.000142296 4.46721e-05
4.04031e-05 4.46721e-05 0.000205607
0.00483964 -0.000803381 -8.59055e-05
-0.000803381 0.000251906 -7.84542e-07
-8.59055e-05 -7.84542e-07 -0.00018231
0.0104417 -0.000768608 5.55575e-05
-0.000768608 0.00383561 -1.44669e-05
5.55575e-05 -1.44669e-05 0.00170371
0.00656716 0.00101802 6.47597e-05
0.00101802 0.000558015 -0.000119114
6.47597e-05 -0.000119114 0.000152479
0.00535198 0.000753631 -7.91409e-06
0.000753631 -0.00158127 1.20331e-05
-7.91409e-06 1.20331e-05 -0.000626823
0.00414936 -0.00126934 1.9106e-05
-0.00126934 0.000480152 -6.10522e-07
1.9106e-05 -6.10522e-07 -0.000357284
0.0112073 -0.00134379 8.86553e-05
-0.00134379 0.00533223 -4.73452e-05
8.86553e-05 -4.73452e-05 0.00166474
0.00347348 -0.000139366 6.21769e-05
-0.000139366 0.000371793 -0.000176389
6.21769e-05 -0.000176389 -8.89339e-05
0.00712915 0.000383894 -4.02977e-05
0.000383894 -0.000859346 0.000100963
-4.02977e-05 0.000100963 0.000933478
0.00067328 -2.40445e-05 3.71964e-07
-2.40445e-05 0.000102874 1.78967e-06
3.71964e-07 1.78967e-06 -4.64383e-05
0.00079964 -5.73915e-05 -7.72758e-08
-5.73915e-05 0.000195703 -7.68883e-08
-7.72758e-08 -7.68883e-08 4.70817e-05
0.000818411 9.27295e-05 -6.03426e-07
9.27295e-05 0.000193261 -2.23615e-06
-6.03426e-07 -2.23615e-06 7.14494e-05
0.000741808 4.15492e-05 6.33843e-07
4.15492e-05 0.000114241 2.39144e-06
6.33843e-07 2.39144e-06 -1.1993e-05
0.000820557 9.30423e-05 -5.72248e-07
9.30423e-05 0.000190506 7.36593e-07
-5.72248e-07 7.36593e-07 4.77068e-05
0.000888627 6.35218e-05 -1.03281e-06
6.35218e-05 0.000229637 1.55537e-07
-1.03281e-06 1.55537e-07 0.000107321
0.000981862 0.000115356 -9.02634e-07
0.000115356 0.000281212 -1.07991e-07
-9.02634e-07 -1.07991e-07 0.000149637
0.000966348 0.000121738 7.83484e-07
0.000121738 0.000284327 2.39998e-06
7.83484e-07 2.39998e-06 0.000154444
0.000394652 -0.000224623 4.8923e-05
-0.000224623 -0.000590777 -2.09003e-05
4.8923e-05 -2.09003e-05 -0.000609633
0.00157188 -0.00045167 8.04373e-06
-0.00045167 0.00011041 -1.34717e-05
8.04373e-06 -1.34717e-05 6.15257e-05
0.000848624 -0.000167776 -6.16661e-07
-0.000167776 0.000230279 -2.50003e-06
-6.16661e-07 -2.50003e-06 6.51336e-05
0.00201755 -0.000377237 1.66057e-05
-0.000377237 0.000865972 -2.28264e-05
1.66057e-05 -2.28264e-05 0.000589556
0.00217662 -0.000188556 -3.84743e-06
-0.000188556 0.00107151 6.79121e-06
-3.84743e-06 6.79121e-06 0.000819252
0.000970047 -7.14723e-05 -1.42166e-06
-7.14723e-05 0.000289568 -2.79896e-06
-1.42166e-06 -2.79896e-06 0.000126526
0.000637637 -1.05673e-06 7.17854e-07
-1.05673e-06 8.65566e-05 2.21862e-06
7.17854e-07 2.21862e-06 -6.40107e-05
0.000218104 -0.00048422 -7.37274e-06
-0.00048422 -0.000669345 -6.29569e-07
-7.37274e-06 -6.29569e-07 -0.000631206
0.00122148 5.06147e-05 2.38275e-07
5.06147e-05 0.000524785 8.50159e-07
2.38275e-07 8.50159e-07 0.000297259
0.000981046 -0.000162591 -1.45697e-05
-0.000162591 0.000407141 2.92686e-06
-1.45697e-05 2.92686e-06 0.000149268
0.000555535 -0.000186452 8.08289e-06
-0.000186452 4.43784e-05 4.31166e-06
8.08289e-06 4.31166e-06 -1.88267e-05
0.000873652 5.34541e-05 1.65607e-06
5.34541e-05 0.000200323 -2.58159e-06
1.65607e-06 -2.58159e-06 6.43275e-05
0.00118045 -0.000400449 1.9078e-05
-0.000400449 -5.75899e-05 -3.44583e-05
1.9078e-05 -3.44583e-05 0.000111872
-0.000127486 -0.000113371 3.81927e-06
-0.000113371 -6.45981e-05 2.39201e-05
3.81927e-06 2.39201e-05 -0.00016792
2.09247e-05 3.48776e-05 1.20707e-06
3.48776e-05 1.40965e-05 8.1298e-06
1.20707e-06 8.1298e-06 -0.000313403
0.00136594 0.000192603 1.78074e-06
0.000192603 0.000558203 -5.02256e-06
1.78074e-06 -5.02256e-06 0.000380998
0.000575325 -2.36277e-05 -6.13037e-06
-2.36277e-05 0.000689064 -8.99471e-06
-6.13037e-06 -8.99471e-06 6.20491e-05
0.0013217 -5.35501e-05 7.73717e-05
-5.35501e-05 0.000916139 -8.62851e-06
7.73717e-05 -8.62851e-06 -0.000729499
-0.0051357 -5.92791e-05 -0.000138724
-5.92791e-05 0.00192425 5.85834e-06
-0.000138724 5.85834e-06 -0.000644549
0.000959907 0.000186012 1.47279e-05
0.000186012 0.00047317 3.30962e-06
1.47279e-05 3.30962e-06 0.000324433
-0.00111905 0.000251062 8.53613e-06
0.000251062 -0.00063887 1.09595e-05
8.53613e-06 1.09595e-05 -0.000899255
0.00365897 6.05143e-05 8.75822e-05
6.05143e-05 0.00189129 2.66486e-06
8.75822e-05 2.66486e-06 0.000700524
0.00779994 0.000748932 0.000140248
0.000748932 0.00350207 7.70522e-05
0.000140248 7.70522e-05 0.000147423
0.00317693 0.000801735 -0.000102809
0.000801735 0.00147405 -8.50297e-05
-0.000102809 -8.50297e-05 0.000416528
0.00438155 -0.00072561 -5.92773e-06
-0.00072561 0.00131954 -0.000196219
-5.92773e-06 -0.000196219 -0.000110475
0.00090831 0.000129286 4.93456e-05
0.000129286 0.000185584 0.000116276
4.93456e-05 0.000116276 -0.00140623
0.00414172 -3.58073e-05 -1.05327e-05
-3.58073e-05 -0.00392512 -0.000108381
-1.05327e-05 -0.000108381 -0.00128626
0.000702459 0.000170123 6.44854e-07
0.000170123 0.000465491 -1.73563e-06
6.44854e-07 -1.73563e-06 0.000285461
0.000521677 -5.96755e-05 1.30741e-06
-5.96755e-05 8.72059e-05 -2.12481e-06
1.30741e-06 -2.12481e-06 6.84401e-05
0.0027531 3.88167e-05 3.54972e-05
3.88167e-05 0.000483162 1.52718e-05
3.54972e-05 1.52718e-05 -0.000306194
-0.000932663 0.000143156 -7.20596e-06
0.000143156 -0.000336501 -5.24653e-06
-7.20596e-06 -5.24653e-06 -0.000743731
0.00561353 0.000844432 6.56302e-06
0.000844432 -0.00151799 -1.21757e-05
6.56302e-06 -1.21757e-05 -0.000601418
0.0050036 0.000956629 0.000115221
0.000956629 0.00298355 5.5192e-05
0.000115221 5.5192e-05 -0.000781074
0.00329925 0.000356069 -6.73885e-05
0.000356069 0.00231728 6.0004e-06
-6.73885e-05 6.0004e-06 0.00107868
0.00043748 0.000190339 -1.71534e-05
0.000190339 0.000347477 -1.69853e-05
-1.71534e-05 -1.69853e-05 9.54857e-05
0.00171141 6.15336e-05 8.21816e-06
6.15336e-05 -0.000171461 -1.39428e-05
8.21816e-06 -1.39428e-05 -1.43534e-05
0.00378046 -0.000197361 3.83816e-05
-0.000197361 0.00227698 -9.24519e-05
3.83816e-05 -9.24519e-05 0.0010874
0.00660754 0.00156423 0.000178432
0.00156423 0.000540112 -0.000122778
0.000178432 -0.000122778 0.000767143
0.00662897 -0.000148569 -8.28279e-05
-0.000148569 0.00144343 0.000172697
-8.28279e-05 0.000172697 0.00119142
0.000824799 0.000182012 -1.61815e-05
0.000182012 2.75307e-05 -6.01611e-05
-1.61815e-05 -6.01611e-05 -6.95536e-05
-0.000634939 0.000994393 0.000126094
0.000994393 0.00264229 3.40172e-05
0.000126094 3.40172e-05 -0.00300563
0.000927788 0.000165579 3.09118e-06
0.000165579 0.000408254 9.19305e-06
3.09118e-06 9.19305e-06 0.00022877
0.000182542 9.11539e-05 2.91585e-06
9.11539e-05 0.000212406 1.7386e-06
2.91585e-06 1.7386e-06 5.55177e-06
0.00106939 1.52023e-05 -1.40673e-05
1.52023e-05 0.000763781 -1.45429e-05
-1.40673e-05 -1.45429e-05 0.00062895
0.000385272 -2.2573e-05 1.21692e-06
-2.2573e-05 -0.000101688 4.10422e-06
1.21692e-06 4.10422e-06 -0.000212505
0.00066528 -2.70883e-05 1.85767e-06
-2.70883e-05 0.000205446 5.60049e-06
1.85767e-06 5.60049e-06 7.52149e-05
0.000205271 -8.49631e-06 1.9392e-06
-8.49631e-06 0.000149272 3.46383e-06
1.9392e-06 3.46383e-06 -6.1428e-05
0.000591156 -6.2962e-05 6.71034e-07
-6.2962e-05 0.000126994 -4.30173e-07
6.71034e-07 -4.30173e-07 2.12878e-05
0.000107396 -1.16588e-05 1.5018e-06
-1.16588e-05 3.4597e-05 1.37869e-06
1.5018e-06 1.37869e-06 -7.39008e-05
0.0011333 -0.000195345 9.24479e-06
-0.000195345 0.000586619 -9.05039e-06
9.24479e-06 -9.05039e-06 0.000409106
0.00127467 -6.26472e-05 -1.83721e-06
-6.26472e-05 0.000454352 4.17544e-06
-1.83721e-06 4.17544e-06 0.000370154
0.000197794 7.96835e-06 -1.20342e-06
7.96835e-06 -0.000211354 1.84473e-06
-1.20342e-06 1.84473e-06 -0.00030393
0.00141051 -0.000144027 1.18945e-06
-0.000144027 0.000499128 2.1768e-06
1.18945e-06 2.1768e-06 0.000393037
-0.000416123 -0.000139906 5.49621e-06
-0.000139906 -0.00044246 1.46117e-06
5.49621e-06 1.46117e-06 -0.000667952
0.000422105 -6.27026e-05 -5.68701e-06
-6.27026e-05 -9.20867e-05 1.00079e-06
-5.68701e-06 1.00079e-06 -0.000161147
3.46402e-05 -0.000150803 2.27664e-06
-0.000150803 -0.000329426 -1.20131e-06
2.27664e-06 -1.20131e-06 -0.000491917
0.00105841 -0.000277741 1.0986e-05
-0.000277741 0.000183112 -2.48682e-06
1.0986e-05 -2.48682e-06 -6.65103e-05
0.00130371 -0.000315255 -4.35422e-06
-0.000315255 0.000199569 3.70153e-06
-4.35422e-06 3.70153e-06 -5.79871e-05
0.0017304 -0.000215125 -3.08865e-06
-0.000215125 0.000653993 1.3484e-07
-3.08865e-06 1.3484e-07 0.00048908
0.000879407 -0.000237752 -7.04595e-07
-0.000237752 7.83574e-05 4.04702e-07
-7.04595e-07 4.04702e-07 -0.000153364
0.0021129 -0.000337395 2.7227e-06
-0.000337395 0.000800319 -1.06034e-06
2.7227e-06 -1.06034e-06 0.000574523
0.000233117 -0.000125155 -1.40878e-06
-0.000125155 -0.00018656 1.85888e-06
-1.40878e-06 1.85888e-06 -0.000379933
0.0009381 -0.000215444 -1.45257e-07
-0.000215444 0.000150353 -2.10589e-07
-1.45257e-07 -2.10589e-07 -6.40681e-05
0.000527406 -5.9395e-05 3.79455e-07
-5.9395e-05 9.28162e-06 -3.79314e-07
3.79455e-07 -3.79314e-07 -0.000131786
0.00105002 -0.000191235 -3.88303e-06
-0.000191235 0.000331498 2.39611e-06
-3.88303e-06 2.39611e-06 0.000150492
-0.000344924 -8.03371e-05 -2.49906e-06
-8.03371e-05 -0.000554013 -3.72979e-06
-2.49906e-06 -3.72979e-06 -0.00074561
0.000598362 2.06776e-05 8.5098e-07
2.06776e-05 2.8709e-05 1.00015e-06
8.5098e-07 1.00015e-06 -6.70006e-05
0.000741358 -5.18953e-05 8.6737e-07
-5.18953e-05 0.000127829 -2.19075e-07
8.6737e-07 -2.19075e-07 8.82899e-06
0.000831942 -9.66086e-05 3.12712e-06
-9.66086e-05 0.000202099 -2.84711e-06
3.12712e-06 -2.84711e-06 5.88688e-05
0.000656836 -1.56787e-05 1.91681e-07
-1.56787e-05 7.48123e-05 -8.70768e-08
1.91681e-07 -8.70768e-08 -2.84376e-05
0.000696527 -1.56959e-05 -6.4159e-07
-1.56959e-05 8.41109e-05 -1.29928e-07
-6.4159e-07 -1.29928e-07 -3.94189e-06
0.000595684 3.47703e-05 -6.49725e-07
3.47703e-05 4.01119e-06 2.19093e-06
-6.49725e-07 2.19093e-06 -5.53096e-05
0.000753768 -4.25529e-05 5.69226e-07
-4.25529e-05 0.00012142 -7.03384e-07
5.69226e-07 -7.03384e-07 3.34841e-05
0.00062628 2.66951e-05 -7.56217e-07
2.66951e-05 1.78443e-05 -1.1004e-07
-7.56217e-07 -1.1004e-07 -3.69879e-05
0.000565617 4.25477e-05 -1.08593e-06
4.25477e-05 -3.0021e-05 4.0429e-06
-1.08593e-06 4.0429e-06 -4.90321e-05
0.000684717 -1.10169e-05 2.16229e-06
-1.10169e-05 4.5465e-05 -1.97027e-06
2.16229e-06 -1.97027e-06 -5.33806e-06
0.000568165 3.35159e-05 1.5738e-07
3.35159e-05 -3.52817e-05 7.3744e-09
1.5738e-07 7.3744e-09 -5.20443e-05
0.00223298 7.31259e-05 -4.06211e-06
7.31259e-05 0.000963869 1.87431e-06
-4.06211e-06 1.87431e-06 0.000974304
0.000538983 2.52302e-05 9.53935e-07
2.52302e-05 -5.51681e-05 -4.09258e-06
9.53935e-07 -4.09258e-06 -7.11236e-05
0.00156407 4.50956e-05 9.08269e-06
4.50956e-05 0.000560199 -1.16357e-06
9.08269e-06 -1.16357e-06 0.000569394
0.00234669 4.41216e-05 1.24279e-05
4.41216e-05 0.00102254 -4.82091e-06
1.24279e-05 -4.82091e-06 0.00103652
0.000408142 2.68649e-06 7.21635e-07
2.68649e-06 -9.01627e-05 -1.66229e-06
7.21635e-07 -1.66229e-06 -0.000186956
0.000347413 -5.36734e-07 1.6739e-07
-5.36734e-07 -0.000147409 -2.76969e-06
1.6739e-07 -2.76969e-06 -0.000204616
0.000580141 1.57731e-05 -4.30213e-07
1.57731e-05 2.27663e-05 -1.02409e-06
-4.30213e-07 -1.02409e-06 -7.44681e-05
0.000588596 -1.40036e-05 3.48156e-07
-1.40036e-05 -2.87791e-05 -3.88704e-06
3.48156e-07 -3.88704e-06 -4.07397e-05
0.000318711 1.88582e-06 -4.05146e-07
1.88582e-06 -0.000162813 -1.17786e-06
-4.05146e-07 -1.17786e-06 -0.000214307
0.000751568 2.80325e-05 -2.30751e-07
2.80325e-05 0.000128999 1.67627e-06
-2.30751e-07 1.67627e-06 3.7512e-05
0.00214684 -2.44875e-05 -1.06246e-05
-2.44875e-05 0.000898726 -4.75452e-06
-1.06246e-05 -4.75452e-06 0.000916561
0.000583733 -8.37384e-06 -2.0546e-07
-8.37384e-06 -3.32147e-05 -4.71337e-08
-2.0546e-07 -4.71337e-08 -4.23189e-05
0.000288811 2.49502e-06 6.26393e-07
2.49502e-06 -0.000179449 1.78134e-06
6.26393e-07 1.78134e-06 -0.000225419
0.00207173 -1.0069e-05 -3.57031e-06
-1.0069e-05 0.000852897 4.13617e-08
-3.57031e-06 4.13617e-08 0.000871985
0.000581367 -2.87074e-06 -2.50478e-07
-2.87074e-06 -3.51944e-05 3.40741e-06
-2.50478e-07 3.40741e-06 -4.24694e-05
0.00205868 4.12548e-06 1.8481e-06
4.12548e-06 0.000845471 4.66883e-06
1.8481e-06 4.66883e-06 0.000864729
0.00084812 2.48766e-07 9.85878e-06
2.48766e-07 0.000456039 9.05675e-06
9.85878e-06 9.05675e-06 0.000293057
0.000934064 -0.000123296 2.76439e-06
-0.000123296 0.000145926 -1.0419e-05
2.76439e-06 -1.0419e-05 -0.00140121
0.00171238 7.58831e-05 2.92439e-05
7.58831e-05 0.00348471 -3.20267e-05
2.92439e-05 -3.20267e-05 0.00226808
0.000741245 8.39364e-05 -1.7556e-07
8.39364e-05 0.000115942 3.35765e-07
-1.7556e-07 3.35765e-07 -5.23603e-06
0.000559529 5.75336e-05 1.47351e-06
5.75336e-05 -6.39474e-06 -2.53377e-07
1.47351e-06 -2.53377e-07 -0.000120392
0.000951688 0.000118615 2.25814e-06
0.000118615 0.000239698 3.00667e-06
2.25814e-06 3.00667e-06 0.000109091
0.00259516 -5.22812e-05 4.15176e-06
-5.22812e-05 0.000189389 0.000152474
4.15176e-06 0.000152474 -0.000800131
0.00343237 -0.000210877 5.47319e-06
-0.000210877 0.00226277 -2.07277e-06
5.47319e-06 -2.07277e-06 0.00106388
0.00356896 -0.000463686 6.37367e-05
-0.000463686 0.00130756 -0.000117625
6.37367e-05 -0.000117625 -0.00163086
0.00558822 -0.000920558 -8.73342e-05
-0.000920558 0.000740856 -4.69841e-07
-8.73342e-05 -4.69841e-07 0.000303938
0.0022864 -0.000834614 -0.000121085
-0.000834614 8.49423e-05 7.7644e-05
-0.000121085 7.7644e-05 -0.00251621
0.0108973 0.00144183 9.75851e-05
0.00144183 0.00374026 4.70404e-05
9.75851e-05 4.70404e-05 0.00306819
0.00297337 0.00022428 6.79007e-05
0.00022428 -0.00296922 -9.02532e-05
6.79007e-05 -9.02532e-05 -0.00205412
0.00527427 -0.00136751 -1.60363e-05
-0.00136751 0.00117636 2.95956e-06
-1.60363e-05 2.95956e-06 0.000500032
0.0065036 -0.00112883 -1.80115e-05
-0.00112883 0.00303858 2.06495e-05
-1.80115e-05 2.06495e-05 -0.000289053
-0.00285595 0.00102931 -3.04398e-05
0.00102931 -5.42983e-05 -0.000118484
-3.04398e-05 -0.000118484 -0.00187943
0.00555995 9.10014e-05 -1.46346e-05
9.10014e-05 -0.00243124 4.64869e-05
-1.46346e-05 4.64869e-05 -0.000167637
0.00184641 -0.000841521 -3.85333e-05
-0.000841521 0.000289383 -2.0934e-05
-3.85333e-05 -2.0934e-05 -0.00030533
0.0110311 -0.00138196 -6.90603e-05
-0.00138196 0.0048983 5.38413e-05
-6.90603e-05 5.38413e-05 0.00110703
-0.00921744 -0.000109741 3.72164e-05
-0.000109741 -0.000469329 -0.000187361
3.72164e-05 -0.000187361 -0.00267521
0.00394017 -0.000868416 3.87749e-05
-0.000868416 -0.00195143 -1.75407e-05
3.87749e-05 -1.75407e-05 -0.000870136
0.000715156 4.754e-05 -8.79403e-08
4.754e-05 0.000100756 7.52064e-06
-8.79403e-08 7.52064e-06 -3.64348e-05
0.000636202 3.73874e-06 5.60455e-07
3.73874e-06 8.19423e-05 -5.73692e-07
5.60455e-07 -5.73692e-07 -7.08198e-05
0.000783808 -7.37362e-05 8.7139e-07
-7.37362e-05 0.000180724 -2.10407e-06
8.7139e-07 -2.10407e-06 2.91031e-05
0.000740627 6.20059e-05 -6.88188e-07
6.20059e-05 0.000112457 -7.03953e-07
-6.88188e-07 -7.03953e-07 -1.66859e-05
0.000798734 0.000115211 9.68272e-07
0.000115211 0.000179876 -3.13937e-07
9.68272e-07 -3.13937e-07 4.17377e-05
0.00107314 0.000129147 -1.84892e-06
0.000129147 0.000337586 -7.59454e-07
-1.84892e-06 -7.59454e-07 0.000203886
-0.000101998 -0.000462662 1.84328e-05
-0.000462662 -0.000849241 8.53134e-06
1.84328e-05 8.53134e-06 -0.000842564
-0.000673175 -0.000107338 1.89172e-05
-0.000107338 -0.000652913 -2.00248e-05
1.89172e-05 -2.00248e-05 -0.000669199
0.000640241 5.24344e-05 -1.2645e-06
5.24344e-05 9.48993e-05 -9.8425e-07
-1.2645e-06 -9.8425e-07 -6.23815e-05
0.00204693 -0.000259011 3.93257e-05
-0.000259011 0.00096201 -3.21035e-05
3.93257e-05 -3.21035e-05 0.000716973
0.0015215 1.64908e-05 -3.12207e-06
1.64908e-05 0.00068891 4.21438e-07
-3.12207e-06 4.21438e-07 0.000463162
0.000616188 3.64746e-05 -2.82944e-07
3.64746e-05 5.58261e-05 1.98363e-06
-2.82944e-07 1.98363e-06 -8.34993e-05
0.000618914 0.000107814 5.18817e-07
0.000107814 0.000124172 -9.92328e-07
5.18817e-07 -9.92328e-07 -3.84003e-05
0.000451972 -0.000430755 -1.68407e-06
-0.000430755 -0.000421421 -3.65846e-06
-1.68407e-06 -3.65846e-06 -0.000412419
0.000759986 -1.79274e-05 -1.82309e-07
-1.79274e-05 0.000398823 -2.5208e-07
-1.82309e-07 -2.5208e-07 0.000121345
0.000454117 -8.48176e-05 1.34173e-05
-8.48176e-05 0.000301588 -8.12852e-07
1.34173e-05 -8.12852e-07 0.000173172
0.00074773 7.57469e-05 3.8186e-06
7.57469e-05 0.000145621 -1.16026e-05
3.8186e-06 -1.16026e-05 1.79202e-05
-0.00256799 0.000134363 -7.62098e-05
0.000134363 -0.00105416 -1.22432e-05
-7.62098e-05 -1.22432e-05 -0.0014738
-0.000308171 2.87284e-05 1.51107e-05
2.87284e-05 -0.000121735 2.80884e-05
1.51107e-05 2.80884e-05 -0.000258063
0.00144631 8.37976e-06 5.39358e-06
8.37976e-06 0.000743685 1.66769e-06
5.39358e-06 1.66769e-06 0.000528293
0.000910415 -2.254e-05 -8.5753e-07
-2.254e-05 -8.88846e-05 6.16703e-07
-8.5753e-07 6.16703e-07 -0.000601978
0.000397214 -1.87103e-05 -1.61445e-05
-1.87103e-05 0.000504631 -1.11404e-05
-1.61445e-05 -1.11404e-05 -2.69408e-05
0.000816187 -3.71556e-05 0.000171781
-3.71556e-05 0.000722442 -8.8947e-06
0.000171781 -8.8947e-06 -0.00096838
0.000563167 0.000188139 1.23236e-05
0.000188139 0.000373029 1.46505e-05
1.23236e-05 1.46505e-05 0.000177595
0.00125074 0.000417627 1.01067e-05
0.000417627 0.000339268 -1.25683e-05
1.01067e-05 -1.25683e-05 5.31046e-05
0.000523016 -5.95841e-05 1.09153e-05
-5.95841e-05 6.20454e-05 2.98506e-06
1.09153e-05 2.98506e-06 2.6521e-05
-0.00271819 0.000525194 4.48175e-05
0.000525194 0.000252278 6.04654e-05
4.48175e-05 6.04654e-05 -0.00353096
-0.0102434 0.00050325 -7.93209e-05
0.00050325 -0.00365931 -0.000227923
-7.93209e-05 -0.000227923 -0.00578485
0.00274743 4.3117e-05 3.35676e-05
4.3117e-05 0.000654337 6.02777e-05
3.35676e-05 6.02777e-05 0.000150888
0.00315081 0.000325393 -6.98775e-05
0.000325393 -0.00280821 8.8082e-05
-6.98775e-05 8.8082e-05 -0.00196226
0.000500649 0.000169046 6.99906e-06
0.000169046 0.000381161 -1.6067e-06
6.99906e-06 -1.6067e-06 0.000163812
0.00152625 -1.83085e-06 1.3182e-05
-1.83085e-06 -0.000291386 -2.32949e-05
1.3182e-05 -2.32949e-05 -0.000101227
0.00344874 -0.000152807 -5.37677e-06
-0.000152807 0.00223755 1.7468e-06
-5.37677e-06 1.7468e-06 0.00104478
0.00123046 0.000206285 -4.08798e-05
0.000206285 0.000501016 -3.72688e-06
-4.08798e-05 -3.72688e-06 -8.08435e-05
0.00368061 0.00145868 6.24243e-05
0.00145868 -0.00131842 -0.000167555
6.24243e-05 -0.000167555 -0.000928246
-0.0026408 0.000973786 2.84899e-05
0.000973786 -0.000742012 0.000115888
2.84899e-05 0.000115888 -0.00211411
0.00695324 5.51581e-05 6.07606e-05
5.51581e-05 0.00544137 -2.52203e-05
6.07606e-05 -2.52203e-05 0.00024037
0.00176692 -8.03405e-05 5.93263e-05
-8.03405e-05 0.00139053 -2.06516e-05
5.93263e-05 -2.06516e-05 0.000949427
0.000940106 3.06367e-05 -1.27335e-05
3.06367e-05 0.000468242 -9.21277e-06
-1.27335e-05 -9.21277e-06 0.000308871
0.003744 -0.000324614 0.000246576
-0.000324614 0.00111478 -0.000165531
0.000246576 -0.000165531 -0.00120328
0.00509226 0.00194946 2.4802e-06
0.00194946 0.00362873 -1.52825e-05
2.4802e-06 -1.52825e-05 0.00424703
-0.00403968 0.00104354 3.32593e-05
0.00104354 -0.00421672 0.000315653
3.32593e-05 0.000315653 -0.0043721
0.0131579 -0.00131532 0.00012323
-0.00131532 0.00539537 -0.000106006
0.00012323 -0.000106006 0.00162612
0.00322807 -0.000407218 -6.72758e-05
-0.000407218 0.00115358 7.83873e-05
-6.72758e-05 7.83873e-05 0.000883706
0.00067698 0.000143407 8.25432e-06
0.000143407 0.000486713 6.23353e-06
8.25432e-06 6.23353e-06 0.000274207
0.00017529 3.75508e-06 -2.31753e-05
3.75508e-06 0.000231027 1.47687e-06
-2.31753e-05 1.47687e-06 7.89611e-05
0.00112348 -0.000272722 1.67096e-05
-0.000272722 0.000770594 -9.4358e-06
1.67096e-05 -9.4358e-06 0.0004796
0.00105192 -8.36669e-05 9.47149e-07
-8.36669e-05 0.000377748 3.62115e-06
9.47149e-07 3.62115e-06 0.000282971
-8.99846e-05 -2.89904e-05 3.87858e-06
-2.89904e-05 -8.02942e-05 8.87524e-06
3.87858e-06 8.87524e-06 -0.00019406
0.000239679 -0.000182215 -1.10261e-06
-0.000182215 0.000123637 -6.87222e-07
-1.10261e-06 -6.87222e-07 -4.72566e-05
0.00130504 -0.000299609 2.34884e-05
-0.000299609 0.000601697 -1.57034e-05
2.34884e-05 -1.57034e-05 0.000316455
0.00223561 -0.000203844 -6.23011e-06
-0.000203844 0.00096592 4.58996e-06
-6.23011e-06 4.58996e-06 0.000847993
0.00189149 -0.000351699 3.1347e-06
-0.000351699 0.000781462 -2.9587e-07
3.1347e-06 -2.9587e-07 0.000539127
0.00137022 -0.000330784 1.03994e-05
-0.000330784 0.00051572 1.92561e-06
1.03994e-05 1.92561e-06 0.000116215
0.000199986 -0.000140368 -2.80747e-06
-0.000140368 -0.00024016 -1.21432e-07
-2.80747e-06 -1.21432e-07 -0.000385491
0.00144178 -0.000311356 -9.51872e-07
-0.000311356 0.000366132 1.20716e-06
-9.51872e-07 1.20716e-06 0.000104349
0.00174486 -0.000401711 -2.77355e-07
-0.000401711 0.000465889 2.13287e-06
-2.77355e-07 2.13287e-06 0.000121906
0.00171772 -0.000416487 -3.4202e-06
-0.000416487 0.000328314 3.2613e-06
-3.4202e-06 3.2613e-06 3.97465e-05
0.000986259 -0.000269349 -2.71311e-07
-0.000269349 5.5895e-05 4.70512e-06
-2.71311e-07 4.70512e-06 -0.000176343
0.00128366 -0.000315708 -2.56229e-06
-0.000315708 0.000188446 1.68543e-06
-2.56229e-06 1.68543e-06 -7.36418e-05
0.00110019 -0.000259346 -7.99206e-06
-0.000259346 0.000176995 2.64427e-06
-7.99206e-06 2.64427e-06 -6.90165e-05
0.00172681 -0.000295186 5.22224e-06
-0.000295186 0.000605953 -1.14484e-06
5.22224e-06 -1.14484e-06 0.000390421
0.00145158 -0.000274931 2.78781e-06
-0.000274931 0.000416921 -2.89507e-06
2.78781e-06 -2.89507e-06 0.000206021
4.20849e-05 -5.88975e-05 1.50461e-06
-5.88975e-05 -0.000288049 1.66095e-07
1.50461e-06 1.66095e-07 -0.000458287
0.000791067 -0.0001809 1.87902e-06
-0.0001809 0.000143679 -1.16538e-06
1.87902e-06 -1.16538e-06 -5.65934e-05
0.00104723 -0.000222148 5.70671e-06
-0.000222148 0.000220005 -4.66144e-06
5.70671e-06 -4.66144e-06 7.96922e-06
0.00053468 2.40505e-05 1.54151e-06
2.40505e-05 -8.1317e-07 1.68278e-06
1.54151e-06 1.68278e-06 -0.000117105
0.000888763 -9.48992e-05 -3.19335e-07
-9.48992e-05 0.000226301 5.97895e-07
-3.19335e-07 5.97895e-07 7.66492e-05
0.00105848 -0.000201948 -1.06663e-06
-0.000201948 0.000338375 -5.26527e-07
-1.06663e-06 -5.26527e-07 0.000154864
0.000596502 2.15628e-05 -1.04471e-06
2.15628e-05 6.24795e-06 2.39697e-06
-1.04471e-06 2.39697e-06 -5.854e-05
0.000724063 -1.39964e-05 -6.23534e-07
-1.39964e-05 0.00010026 -2.53009e-07
-6.23534e-07 -2.53009e-07 3.12842e-06
0.000617496 -3.62473e-05 -3.42466e-07
-3.62473e-05 6.29684e-05 -1.34389e-07
-3.42466e-07 -1.34389e-07 -5.82408e-05
0.000766419 -3.48685e-05 3.78255e-07
-3.48685e-05 0.000127992 -1.03737e-06
3.78255e-07 -1.03737e-06 3.6514e-05
0.000641238 8.46175e-06 -2.82078e-07
8.46175e-06 2.7217e-05 -1.54944e-07
-2.82078e-07 -1.54944e-07 -3.03999e-05
0.00054862 5.17392e-05 -5.46147e-07
5.17392e-05 -3.06523e-05 4.51112e-06
-5.46147e-07 4.51112e-06 -5.34469e-05
0.000655969 -1.48327e-06 1.85055e-06
-1.48327e-06 3.16509e-05 -1.86501e-06
1.85055e-06 -1.86501e-06 -2.12341e-05
0.000571263 4.42151e-05 -1.40378e-07
4.42151e-05 -2.64302e-05 -3.94715e-08
-1.40378e-07 -3.94715e-08 -4.5707e-05
0.00228741 8.04477e-05 -2.43334e-05
8.04477e-05 0.00100383 3.81515e-06
-2.43334e-05 3.81515e-06 0.00101283
0.000557941 3.43708e-05 1.02459e-06
3.43708e-05 -4.12089e-05 -4.01034e-06
1.02459e-06 -4.01034e-06 -5.80473e-05
0.0015386 5.62258e-05 1.08884e-05
5.62258e-05 0.000551042 -1.00757e-06
1.08884e-05 -1.00757e-06 0.000558615
0.00234572 5.79899e-05 1.63411e-05
5.79899e-05 0.00102668 -4.47311e-06
1.63411e-05 -4.47311e-06 0.00103917
0.000704425 6.33192e-05 3.20137e-07
6.33192e-05 8.80696e-05 -1.02787e-06
3.20137e-07 -1.02787e-06 -1.4602e-05
0.000634463 2.2441e-05 -3.28816e-07
2.2441e-05 1.95229e-05 -2.31549e-06
-3.28816e-07 -2.31549e-06 -4.02101e-05
0.000570648 3.87908e-05 -1.15164e-06
3.87908e-05 1.62807e-05 -1.08974e-06
-1.15164e-06 -1.08974e-06 -8.7685e-05
0.000572446 -1.98159e-05 4.82894e-07
-1.98159e-05 -3.6325e-05 -4.26905e-06
4.82894e-07 -4.26905e-06 -5.16036e-05
0.000452473 1.48617e-05 -1.36511e-06
1.48617e-05 -8.53366e-05 -1.16748e-06
-1.36511e-06 -1.16748e-06 -0.000141286
0.000782474 3.97665e-05 -2.30772e-07
3.97665e-05 0.000141823 -7.03475e-07
-2.30772e-07 -7.03475e-07 4.52289e-05
0.00225003 -3.82661e-05 -1.53971e-05
-3.82661e-05 0.000962144 -4.70097e-06
-1.53971e-05 -4.70097e-06 0.000978221
0.000576011 -1.39174e-05 -2.10743e-07
-1.39174e-05 -3.65471e-05 -6.57124e-08
-2.10743e-07 -6.57124e-08 -4.82616e-05
0.000263423 1.2922e-06 -7.78555e-07
1.2922e-06 -0.000195601 9.70021e-07
-7.78555e-07 9.70021e-07 -0.000247787
0.00215164 -2.33014e-05 -3.90349e-06
-2.33014e-05 0.000901298 9.50312e-08
-3.90349e-06 9.50312e-08 0.000919294
0.000578979 -8.75238e-06 -4.02069e-07
-8.75238e-06 -3.58833e-05 3.50965e-06
-4.02069e-07 3.50965e-06 -4.4899e-05
0.0020802 -8.62426e-06 6.51422e-06
-8.62426e-06 0.000857745 4.72359e-06
6.51422e-06 4.72359e-06 0.000876882
0.00159697 -4.40725e-05 -1.18616e-05
-4.40725e-05 -0.000198142 1.55221e-05
-1.18616e-05 1.55221e-05 -3.7621e-05
0.000905117 -2.34318e-05 5.49226e-06
-2.34318e-05 0.000413895 -2.33281e-06
5.49226e-06 -2.33281e-06 0.000305603
0.00150716 -0.00011122 0.000103058
-0.00011122 0.000400897 -2.65408e-05
0.000103058 -2.65408e-05 -0.00104998
0.000554076 1.77364e-05 6.52965e-07
1.77364e-05 -2.03002e-05 -6.71195e-07
6.52965e-07 -6.71195e-07 -0.000126277
0.000923808 4.95003e-05 -3.56654e-07
4.95003e-05 0.000193952 3.16037e-07
-3.56654e-07 3.16037e-07 7.68419e-05
0.000804149 9.16877e-05 -1.24955e-07
9.16877e-05 0.000151087 -1.24521e-07
-1.24955e-07 -1.24521e-07 3.35901e-05
0.000598423 4.21299e-05 2.10932e-07
4.21299e-05 9.42496e-06 1.55684e-07
2.10932e-07 1.55684e-07 -9.94795e-05
0.00071974 5.81828e-05 4.82201e-08
5.81828e-05 0.000100944 5.03273e-07
4.82201e-08 5.03273e-07 -2.42865e-05
0.000708139 5.33742e-05 1.14398e-06
5.33742e-05 8.53719e-05 -5.03926e-07
1.14398e-06 -5.03926e-07 -3.40499e-05
0.00065044 0.000143948 2.89881e-06
0.000143948 8.07744e-05 4.46277e-06
2.89881e-06 4.46277e-06 -6.3327e-05
-3.80987e-05 3.72082e-05 5.91203e-05
3.72082e-05 3.37231e-05 0.000150962
5.91203e-05 0.000150962 -0.00143131
0.00258305 -4.15819e-05 -8.86407e-06
-4.15819e-05 0.00049254 4.86519e-05
-8.86407e-06 4.86519e-05 -0.000314276
0.00291622 -0.000153848 2.89442e-05
-0.000153848 0.00211038 -6.28628e-05
2.89442e-05 -6.28628e-05 0.000940762
0.00397335 -0.000113567 -1.04189e-05
-0.000113567 -0.00404176 5.0444e-05
-1.04189e-05 5.0444e-05 -0.00126925
0.00310311 -0.00112375 -8.60605e-05
-0.00112375 0.00102301 6.22988e-05
-8.60605e-05 6.22988e-05 0.000125962
-0.00182948 -0.00130535 -1.64628e-05
-0.00130535 -0.000292721 7.79572e-05
-1.64628e-05 7.79572e-05 -0.0041182
0.00844197 0.00167899 7.67686e-05
0.00167899 0.00455317 -5.12712e-05
7.67686e-05 -5.12712e-05 0.00262695
0.00344076 -0.00101294 -2.52063e-05
-0.00101294 0.000923722 4.64368e-06
-2.52063e-05 4.64368e-06 0.000369165
-0.000268848 -0.000482862 3.24736e-05
-0.000482862 0.00147136 2.36954e-05
3.24736e-05 2.36954e-05 -0.00292451
0.00450076 0.000129315 8.13629e-06
0.000129315 0.00247208 -9.59289e-06
8.13629e-06 -9.59289e-06 0.00121739
0.00871956 -0.00116258 -3.11724e-05
-0.00116258 0.00111931 -3.8681e-05
-3.11724e-05 -3.8681e-05 0.00227425
-0.00129246 1.86286e-05 -0.000157714
1.86286e-05 -0.00138911 7.11362e-05
-0.000157714 7.11362e-05 -0.00123302
0.000848272 0.00119643 -4.47795e-05
0.00119643 0.00185839 -8.62889e-05
-4.47795e-05 -8.62889e-05 -0.00255585
-0.00678976 -0.00181808 4.67452e-05
-0.00181808 -0.00382005 -0.000124669
4.67452e-05 -0.000124669 -0.00583562
0.00510464 -0.00109448 3.45718e-05
-0.00109448 -0.000692168 -0.000240216
3.45718e-05 -0.000240216 0.000527645
0.000875632 2.09113e-05 2.71675e-06
2.09113e-05 0.000205564 -1.23077e-07
2.71675e-06 -1.23077e-07 8.68952e-05
0.000642763 5.59323e-05 3.39427e-07
5.59323e-05 6.61728e-05 -9.88631e-07
3.39427e-07 -9.88631e-07 -7.22867e-05
0.00089397 -5.72283e-06 8.12942e-07
-5.72283e-06 0.000249431 -2.60928e-06
8.12942e-07 -2.60928e-06 8.29567e-05
0.000776668 5.04925e-05 -9.94157e-07
5.04925e-05 0.000141048 -4.22877e-06
-9.94157e-07 -4.22877e-06 3.14574e-06
0.000127099 -0.000398059 -4.81538e-06
-0.000398059 -0.000615314 2.91199e-05
-4.81538e-06 2.91199e-05 -0.000687608
0.00199605 -6.91256e-05 -1.6727e-05
-6.91256e-05 0.00117195 -2.56084e-05
-1.6727e-05 -2.56084e-05 0.00104403
0.000687743 3.27992e-05 -2.25954e-06
3.27992e-05 7.75711e-05 -3.10877e-06
-2.25954e-06 -3.10877e-06 -4.47015e-05
0.000689316 0.000137746 -1.44095e-06
0.000137746 0.000176882 4.86754e-06
-1.44095e-06 4.86754e-06 1.05152e-05
0.00274871 -5.59405e-05 1.54647e-05
-5.59405e-05 0.00148471 -2.22546e-05
1.54647e-05 -2.22546e-05 0.00126586
0.00087295 6.2015e-05 1.03741e-06
6.2015e-05 0.000212804 3.27767e-06
1.03741e-06 3.27767e-06 9.11793e-05
0.000644775 0.00010175 -2.26524e-06
0.00010175 0.00031376 -1.73204e-06
-2.26524e-06 -1.73204e-06 7.39206e-05
6.39403e-05 2.41293e-05 4.6957e-05
2.41293e-05 0.000220151 -1.61112e-05
4.6957e-05 -1.61112e-05 -0.000307406
0.000267961 1.39344e-05 2.57459e-05
1.39344e-05 0.000222748 -7.00969e-07
2.57459e-05 -7.00969e-07 0.00010585
0.000596788 0.000132014 -2.7121e-07
0.000132014 0.000231789 -7.43946e-06
-2.7121e-07 -7.43946e-06 6.39873e-05
-2.12195e-05 -9.29854e-05 -3.11486e-05
-9.29854e-05 0.000601687 -4.42435e-05
-3.11486e-05 -4.42435e-05 -0.00057859
0.00389386 0.000135463 2.26814e-05
0.000135463 0.00213029 2.22297e-05
2.26814e-05 2.22297e-05 0.00192498
0.000614924 -4.29273e-06 1.12584e-06
-4.29273e-06 0.000687 1.093e-05
1.12584e-06 1.093e-05 6.37766e-05
0.00133543 -3.26958e-05 -1.37484e-07
-3.26958e-05 0.000124596 6.27444e-07
-1.37484e-07 6.27444e-07 -0.000133188
0.000237754 -1.92122e-05 8.46557e-07
-1.92122e-05 0.000328978 -1.57568e-05
8.46557e-07 -1.57568e-05 -0.000100255
-0.000216605 9.28904e-05 -2.67168e-07
9.28904e-05 3.68489e-05 6.94381e-06
-2.67168e-07 6.94381e-06 -0.000146147
-0.000917721 0.000292151 5.6642e-05
0.000292151 -0.000809045 4.55168e-05
5.6642e-05 4.55168e-05 -0.0010381
0.00135505 -2.89317e-05 1.68988e-05
-2.89317e-05 -0.000363365 -5.7788e-06
1.68988e-05 -5.7788e-06 -0.000127934
0.00353662 -0.00100533 0.000112926
-0.00100533 0.00366651 -0.000123733
0.000112926 -0.000123733 -0.00152831
0.00853177 0.00173527 -7.04009e-05
0.00173527 0.00404801 4.74553e-05
-7.04009e-05 4.74553e-05 0.00237706
0.00300973 -9.22465e-05 -3.45909e-05
-9.22465e-05 0.00210674 6.55418e-05
-3.45909e-05 6.55418e-05 0.000953771
0.00558475 0.00154561 -3.42674e-05
0.00154561 0.000156926 -4.3608e-05
-3.42674e-05 -4.3608e-05 0.000287953
-0.000168821 0.000134674 -2.88376e-05
0.000134674 0.000380446 8.70556e-06
-2.88376e-05 8.70556e-06 -0.000138335
0.000988344 1.42311e-05 -6.54466e-06
1.42311e-05 0.000416028 2.47628e-06
-6.54466e-06 2.47628e-06 0.00032769
0.00363888 -0.000375317 8.76715e-05
-0.000375317 0.00113837 -9.2412e-06
8.76715e-05 -9.2412e-06 -0.00143632
6.56377e-05 -0.000184067 5.16074e-06
-0.000184067 -0.000515234 2.43809e-05
5.16074e-06 2.43809e-05 -0.000528439
-0.00107037 0.00209448 0.000129665
0.00209448 0.000220621 -5.87728e-05
0.000129665 -5.87728e-05 0.00136562
0.00678245 0.00101873 -5.98328e-05
0.00101873 0.000397323 0.000119039
-5.98328e-05 0.000119039 0.000179501
-0.00281508 -0.000783877 7.21674e-05
-0.000783877 0.000429716 -6.99624e-05
7.21674e-05 -6.99624e-05 -0.00456988
0.000566098 -0.000121449 4.07185e-05
-0.000121449 0.000421973 -7.30372e-06
4.07185e-05 -7.30372e-06 9.18935e-05
0.000630198 -0.000149855 8.04012e-05
-0.000149855 -0.00019039 -2.95504e-05
8.04012e-05 -2.95504e-05 -0.00164144
-0.00184756 0.000113085 -0.000245094
0.000113085 0.00182472 -1.22175e-06
-0.000245094 -1.22175e-06 0.000327271
0.00334834 0.00193303 -0.000175148
0.00193303 0.000290623 0.000257589
-0.000175148 0.000257589 0.000591372
0.0080432 -0.000787054 3.76044e-06
-0.000787054 0.00361532 -4.81318e-06
3.76044e-06 -4.81318e-06 0.000357683
0.0032196 -0.000492525 -6.12997e-05
-0.000492525 0.00102876 5.05568e-05
-6.12997e-05 5.05568e-05 0.000704166
-0.00078815 4.90637e-05 3.01567e-05
4.90637e-05 -0.00032021 1.12464e-05
3.01567e-05 1.12464e-05 -0.000491862
7.87986e-05 -0.000181297 -5.73066e-06
-0.000181297 0.000221043 8.51799e-07
-5.73066e-06 8.51799e-07 -7.00837e-05
-0.000548277 -0.000193907 1.22804e-05
-0.000193907 -0.000399763 -4.77819e-06
1.22804e-05 -4.77819e-06 -0.000572916
-0.00055455 -0.000157103 -5.7653e-06
-0.000157103 -0.000289986 7.11823e-06
-5.7653e-06 7.11823e-06 -0.000450406
-0.000697413 -0.000158515 -1.13275e-08
-0.000158515 -0.000452221 -4.32287e-06
-1.13275e-08 -4.32287e-06 -0.000735645
0.00333302 -0.000575812 2.90026e-05
-0.000575812 0.00133823 -2.99287e-06
2.90026e-05 -2.99287e-06 0.00103975
0.00411562 -0.000569213 -8.73953e-06
-0.000569213 0.00195285 3.3399e-06
-8.73953e-06 3.3399e-06 0.00169251
0.00220194 -0.000406485 5.29049e-06
-0.000406485 0.00090507 6.19156e-07
5.29049e-06 6.19156e-07 0.000529317
0.00119861 -0.000380031 8.14424e-06
-0.000380031 0.000195222 -4.92704e-06
8.14424e-06 -4.92704e-06 -0.000199003
0.00182501 -0.000346241 -7.95704e-06
-0.000346241 0.000547338 1.78766e-06
-7.95704e-06 1.78766e-06 0.00027396
0.00220223 -0.000451966 1.04976e-06
-0.000451966 0.00068278 4.62637e-07
1.04976e-06 4.62637e-07 0.000330906
0.00188482 -0.000444513 9.32123e-07
-0.000444513 0.000457404 -5.307e-06
9.32123e-07 -5.307e-06 0.000107865
0.00191546 -0.000417822 -8.91932e-07
-0.000417822 0.000368699 -2.53218e-06
-8.91932e-07 -2.53218e-06 0.000114831
0.00178666 -0.000417162 -1.24743e-06
-0.000417162 0.000354459 3.20523e-06
-1.24743e-06 3.20523e-06 8.39394e-05
0.00168757 -0.000417442 -8.2186e-07
-0.000417442 0.000313876 -2.82227e-07
-8.2186e-07 -2.82227e-07 2.02189e-05
0.000673215 -0.000225056 5.57222e-06
-0.000225056 -0.000115806 1.61197e-06
5.57222e-06 1.61197e-06 -0.000322174
0.00116783 -0.000279347 1.82203e-06
-0.000279347 0.000156785 1.60092e-07
1.82203e-06 1.60092e-07 -6.96815e-05
0.00119609 -0.000309525 1.7168e-07
-0.000309525 0.00014051 -3.00132e-06
1.7168e-07 -3.00132e-06 -0.000125388
0.00124481 -0.000237014 3.34766e-06
-0.000237014 0.000355442 1.4882e-06
3.34766e-06 1.4882e-06 0.000143544
0.00126446 -0.000250471 -1.95921e-06
-0.000250471 0.000332316 -1.52156e-06
-1.95921e-06 -1.52156e-06 0.000123818
0.000715132 -0.000205658 4.63611e-06
-0.000205658 -9.73224e-06 -5.092e-06
4.63611e-06 -5.092e-06 -0.000204611
0.000520188 -5.84294e-05 2.6185e-06
-5.84294e-05 -1.57146e-06 1.55385e-06
2.6185e-06 1.55385e-06 -0.000158059
0.000506879 -9.90222e-05 -6.13823e-07
-9.90222e-05 -4.37876e-06 1.0602e-06
-6.13823e-07 1.0602e-06 -0.000180771
0.00136497 -0.000237969 2.64344e-06
-0.000237969 0.000482579 -3.93359e-06
2.64344e-06 -3.93359e-06 0.000275409
0.000518018 3.12375e-05 2.95437e-08
3.12375e-05 -3.08177e-05 2.98761e-06
2.95437e-08 2.98761e-06 -0.000109338
0.000730549 -2.45013e-05 -4.9693e-07
-2.45013e-05 0.000118466 -6.28486e-07
-4.9693e-07 -6.28486e-07 -6.24487e-06
0.00123774 -0.000131596 4.85597e-07
-0.000131596 0.000434949 -3.74544e-07
4.85597e-07 -3.74544e-07 0.000277859
0.000510276 6.20538e-05 -7.97862e-07
6.20538e-05 -4.19312e-05 6.52533e-06
-7.97862e-07 6.52533e-06 -6.94502e-05
0.000640071 1.81305e-05 -2.60347e-07
1.81305e-05 2.99957e-05 -2.86549e-07
-2.60347e-07 -2.86549e-07 -3.47265e-05
0.000841018 -3.71187e-05 -2.2137e-07
-3.71187e-05 0.000171439 -1.53258e-06
-2.2137e-07 -1.53258e-06 6.99647e-05
0.000663323 6.93725e-06 1.43749e-06
6.93725e-06 3.91039e-05 -2.19656e-06
1.43749e-06 -2.19656e-06 -1.84288e-05
0.000552003 5.48975e-05 -2.1021e-08
5.48975e-05 -2.72304e-05 -1.89845e-08
-2.1021e-08 -1.89845e-08 -5.07814e-05
0.00234235 9.53136e-05 -2.65014e-05
9.53136e-05 0.00104502 3.46289e-06
-2.65014e-05 3.46289e-06 0.00105061
0.000570088 4.62855e-05 2.58262e-07
4.62855e-05 -2.68395e-05 -4.25779e-06
2.58262e-07 -4.25779e-06 -4.6448e-05
0.00231668 8.31242e-05 2.58932e-06
8.31242e-05 0.00102211 2.27073e-07
2.58932e-06 2.27073e-07 0.00103057
0.00230474 7.08166e-05 1.9747e-05
7.08166e-05 0.00100832 -4.02932e-06
1.9747e-05 -4.02932e-06 0.00101915
0.000720169 5.39429e-05 2.7258e-09
5.39429e-05 0.000102626 -6.13734e-07
2.7258e-09 -6.13734e-07 -2.15415e-05
0.000773123 8.27628e-05 3.27037e-07
8.27628e-05 0.000139134 -1.3835e-06
3.27037e-07 -1.3835e-06 2.29725e-05
0.000647239 1.40494e-05 -3.37701e-07
1.40494e-05 2.66528e-05 -2.64807e-06
-3.37701e-07 -2.64807e-06 -3.85653e-05
0.000714622 7.53657e-05 -1.03374e-07
7.53657e-05 9.35735e-05 1.24551e-08
-1.03374e-07 1.24551e-08 -9.20253e-06
0.000562477 -2.45853e-05 3.61965e-08
-2.45853e-05 -3.82179e-05 -4.82204e-06
3.61965e-08 -4.82204e-06 -5.73899e-05
0.000634116 2.25309e-05 -5.73557e-08
2.25309e-05 1.99548e-05 -9.20167e-08
-5.73557e-08 -9.20167e-08 -3.97718e-05
0.000644571 4.04036e-05 -1.88284e-06
4.04036e-05 4.90572e-05 2.48389e-07
-1.88284e-06 2.48389e-07 -4.61811e-05
0.00234661 -5.227e-05 -2.01774e-05
-5.227e-05 0.00102259 -4.62746e-06
-2.01774e-05 -4.62746e-06 0.00103649
0.000573482 -2.00134e-05 -2.67036e-07
-2.00134e-05 -3.54662e-05 -6.38012e-08
-2.67036e-07 -6.38012e-08 -5.06367e-05
0.000572924 2.55649e-05 -1.1394e-06
2.55649e-05 -1.43113e-05 8.42425e-07
-1.1394e-06 8.42425e-07 -6.90519e-05
0.00222284 -3.68094e-05 -3.95738e-06
-3.68094e-05 0.000945571 1.46165e-07
-3.95738e-06 1.46165e-07 0.000962017
0.000576833 -1.37686e-05 -4.54897e-07
-1.37686e-05 -3.6311e-05 3.70421e-06
-4.54897e-07 3.70421e-06 -4.78184e-05
0.00212696 -2.19279e-05 1.06186e-05
-2.19279e-05 0.000886307 4.68193e-06
1.06186e-05 4.68193e-06 0.000904582
0.000707773 -8.42907e-05 5.76261e-06
-8.42907e-05 5.63281e-05 9.31664e-06
5.76261e-06 9.31664e-06 8.01409e-05
0.00150012 -7.66195e-05 -1.4716e-05
-7.66195e-05 -0.000300211 2.32742e-05
-1.4716e-05 2.32742e-05 -9.69146e-05
0.000956595 -4.23173e-05 6.18065e-06
-4.23173e-05 0.000367265 -1.13075e-05
6.18065e-06 -1.13075e-05 0.000307936
0.000725102 5.41983e-05 -2.1629e-07
5.41983e-05 9.73195e-05 5.12949e-08
-2.1629e-07 5.12949e-08 -2.16765e-05
0.000715364 3.58629e-05 9.7116e-07
3.58629e-05 7.32868e-05 -1.5678e-07
9.7116e-07 -1.5678e-07 -4.10979e-05
0.000276166 2.84738e-05 -2.44448e-06
2.84738e-05 -0.000183647 -3.86504e-06
-2.44448e-06 -3.86504e-06 -0.000293643
0.000429275 7.30409e-06 2.33973e-07
7.30409e-06 -8.42148e-05 -4.2899e-07
2.33973e-07 -4.2899e-07 -0.00019905
0.00126186 0.00013791 -3.21947e-07
0.00013791 0.000421101 -1.22809e-06
-3.21947e-07 -1.22809e-06 0.000281691
0.000647032 2.37328e-05 -1.31218e-06
2.37328e-05 3.18733e-05 6.14664e-07
-1.31218e-06 6.14664e-07 -7.31828e-05
0.000664701 4.68516e-05 -1.59697e-06
4.68516e-05 6.02312e-05 -2.87272e-06
-1.59697e-06 -2.87272e-06 -5.83779e-05
0.000777394 5.8404e-05 -8.87177e-08
5.8404e-05 0.00012667 -1.77162e-07
-8.87177e-08 -1.77162e-07 5.1262e-06
0.000950777 9.17578e-05 2.2526e-07
9.17578e-05 0.000238171 1.92905e-07
2.2526e-07 1.92905e-07 0.000107026
0.00102015 6.41217e-05 1.73635e-06
6.41217e-05 0.000288678 -6.66798e-07
1.73635e-06 -6.66798e-07 0.000156655
0.00292049 0.000202641 0.000152941
0.000202641 0.00160375 0.000214818
0.000152941 0.000214818 -0.00102767
0.00047753 6.75712e-05 8.64548e-06
6.75712e-05 9.8402e-05 5.94521e-05
8.64548e-06 5.94521e-05 -0.0014683
0.00257029 -4.14314e-05 -1.17877e-05
-4.14314e-05 0.000749244 -3.37035e-06
-1.17877e-05 -3.37035e-06 0.000132017
0.0089734 -0.00101791 -9.06059e-05
-0.00101791 0.00125206 -9.76381e-05
-9.06059e-05 -9.76381e-05 0.00258308
-0.0105464 0.000782788 -2.75226e-05
0.000782788 -0.00351077 0.000228345
-2.75226e-05 0.000228345 -0.00583211
0.00548679 -0.00109923 -0.000122458
-0.00109923 0.00208931 5.33682e-05
-0.000122458 5.33682e-05 0.00155087
0.0105318 -0.000883267 -4.99927e-05
-0.000883267 0.00457974 -8.29477e-06
-4.99927e-05 -8.29477e-06 0.00109796
0.00219821 -0.000157143 -9.80956e-06
-0.000157143 0.000452497 5.62595e-05
-9.80956e-06 5.62595e-05 0.000156432
0.0114263 -0.000114989 3.50709e-06
-0.000114989 0.00570055 -1.42987e-05
3.50709e-06 -1.42987e-05 0.00147434
0.00217047 -0.0011223 4.9418e-05
-0.0011223 0.000432434 6.31081e-05
4.9418e-05 6.31081e-05 -0.00106815
0.00427437 -0.00131495 -0.000129459
-0.00131495 -0.00139685 -0.000289315
-0.000129459 -0.000289315 -0.000260851
0.00337404 6.98459e-05 -0.000119965
6.98459e-05 0.000843925 3.95708e-05
-0.000119965 3.95708e-05 0.000309334
0.00962632 0.000908315 -3.08319e-05
0.000908315 0.00446077 1.89938e-05
-3.08319e-05 1.89938e-05 0.00106108
0.0108313 -0.00197712 -5.54393e-05
-0.00197712 0.00357662 -0.000243158
-5.54393e-05 -0.000243158 0.00332726
0.00726772 -0.00212979 6.66039e-05
-0.00212979 0.00148727 3.27925e-06
6.66039e-05 3.27925e-06 0.00281954
0.000106841 6.49682e-05 2.05651e-06
6.49682e-05 -0.000170645 -4.54976e-06
2.05651e-06 -4.54976e-06 -0.000294994
0.000969329 1.91821e-05 9.08076e-07
1.91821e-05 0.000273433 2.82647e-06
9.08076e-07 2.82647e-06 0.000136392
0.000699077 6.34357e-05 -1.13938e-06
6.34357e-05 0.000100995 -5.70391e-06
-1.13938e-06 -5.70391e-06 -4.05607e-05
0.00166993 -7.75023e-05 -4.32235e-05
-7.75023e-05 0.00100754 2.39596e-05
-4.32235e-05 2.39596e-05 0.000337126
0.00102478 -3.95795e-05 -7.01545e-05
-3.95795e-05 0.000668158 -2.54684e-05
-7.01545e-05 -2.54684e-05 0.000568714
0.00077516 8.05228e-06 -2.70291e-06
8.05228e-06 0.000158097 5.69698e-06
-2.70291e-06 5.69698e-06 3.50277e-05
-0.00110329 9.85459e-05 -5.89814e-06
9.85459e-05 -0.000638899 -3.90094e-06
-5.89814e-06 -3.90094e-06 -0.000911826
0.000529776 7.58691e-05 1.9548e-07
7.58691e-05 0.000192453 -2.92715e-06
1.9548e-07 -2.92715e-06 1.46192e-05
0.000630441 0.000115594 -2.82658e-06
0.000115594 0.00038286 3.22984e-06
-2.82658e-06 3.22984e-06 0.000140572
-0.000349301 -6.20358e-05 0.000125115
-6.20358e-05 0.000661572 -4.10861e-05
0.000125115 -4.10861e-05 -0.000516921
-0.00234292 -1.59105e-07 -2.29582e-05
-1.59105e-07 -0.00127179 1.28029e-05
-2.29582e-05 1.28029e-05 -0.00146395
0.0025209 0.000280332 -3.71847e-05
0.000280332 0.00152245 -4.11295e-05
-3.71847e-05 -4.11295e-05 0.000731783
0.00183834 1.53158e-05 7.87913e-05
1.53158e-05 0.000999526 1.22996e-05
7.87913e-05 1.22996e-05 -0.000716332
0.000412577 -7.21334e-06 1.65739e-05
-7.21334e-06 0.000513424 1.20652e-05
1.65739e-05 1.20652e-05 -2.3716e-05
0.00177976 -6.21125e-05 3.75638e-07
-6.21125e-05 0.000330888 -3.54577e-07
3.75638e-07 -3.54577e-07 0.000323038
-0.00206501 0.000212655 7.63539e-05
0.000212655 -0.000612358 8.48387e-06
7.63539e-05 8.48387e-06 -0.00125001
0.00336297 0.000120366 -2.68673e-05
0.000120366 0.00138994 3.2824e-06
-2.68673e-05 3.2824e-06 0.000783487
0.0010036 -1.65136e-05 -4.22644e-06
-1.65136e-05 0.000375372 1.04314e-05
-4.22644e-06 1.04314e-05 0.000323566
0.0159655 -0.00144191 0.000119968
-0.00144191 0.00689682 -3.18286e-05
0.000119968 -3.18286e-05 0.00298969
0.0104588 0.00150601 -7.03128e-05
0.00150601 0.00348299 -4.58423e-05
-7.03128e-05 -4.58423e-05 0.00276405
0.00363622 -0.000419358 -7.13281e-05
-0.000419358 0.00121558 0.000120127
-7.13281e-05 0.000120127 -0.00163785
-0.00741357 0.00233767 0.00060873
0.00233767 -0.00344705 -0.000457196
0.00060873 -0.000457196 -0.00182824
0.000962401 -0.000156985 8.47269e-06
-0.000156985 0.000758566 -3.41033e-06
8.47269e-06 -3.41033e-06 0.000356815
0.00101768 -0.00011978 -3.1494e-06
-0.00011978 6.05552e-05 1.0161e-05
-3.1494e-06 1.0161e-05 -0.00145131
-0.00281535 0.000178745 -0.000344365
0.000178745 0.00181646 0.000149256
-0.000344365 0.000149256 0.000359125
0.00176348 -0.000328336 -2.49375e-05
-0.000328336 0.000347258 3.5362e-05
-2.49375e-05 3.5362e-05 4.18318e-05
0.0109216 0.00200307 8.25601e-05
0.00200307 0.00340459 7.31915e-05
8.25601e-05 7.31915e-05 0.00378434
0.0075327 -0.00136359 7.87135e-05
-0.00136359 0.00313998 -5.12795e-05
7.87135e-05 -5.12795e-05 0.000133834
0.000658686 -0.000263636 6.57273e-06
-0.000263636 9.49875e-05 2.44796e-05
6.57273e-06 2.44796e-05 0.000106023
-0.00393454 -0.000330752 3.40263e-05
-0.000330752 0.00144799 -1.90624e-05
3.40263e-05 -1.90624e-05 -0.000646819
0.00939358 0.00184251 -0.000366869
0.00184251 0.00440616 0.000172436
-0.000366869 0.000172436 0.00425264
0.00242527 -0.000788241 -0.000183701
-0.000788241 -0.00023851 0.000127801
-0.000183701 0.000127801 -0.00331596
0.00227768 -0.000857949 8.68345e-05
-0.000857949 0.000383508 -3.77649e-05
8.68345e-05 -3.77649e-05 0.000207242
-0.000184196 -0.000172842 -4.11086e-05
-0.000172842 5.06255e-05 1.31309e-05
-4.11086e-05 1.31309e-05 -0.000213781
0.000531692 -0.000255464 1.31841e-07
-0.000255464 0.000218246 4.37303e-06
1.31841e-07 4.37303e-06 -1.33669e-05
0.00383649 -0.000583784 3.22594e-05
-0.000583784 0.00153407 3.22905e-06
3.22594e-05 3.22905e-06 0.00140667
-0.00260085 -4.13775e-05 -2.92125e-06
-4.13775e-05 -0.00144665 9.64184e-06
-2.92125e-06 9.64184e-06 -0.00172629
0.000711289 -0.000326266 2.67912e-06
-0.000326266 -3.90779e-06 1.37091e-06
2.67912e-06 1.37091e-06 -0.000306317
0.00239581 -0.00055605 4.86276e-06
-0.00055605 0.000586513 4.82033e-07
4.86276e-06 4.82033e-07 0.000329523
0.00285563 -0.000462569 -1.1982e-05
-0.000462569 0.00119719 3.45898e-06
-1.1982e-05 3.45898e-06 0.000848843
0.00131416 -0.00038366 -2.20627e-06
-0.00038366 0.000229303 -3.60974e-06
-2.20627e-06 -3.60974e-06 -0.000140477
0.0020048 -0.000512524 4.50471e-06
-0.000512524 0.000371233 -4.69773e-06
4.50471e-06 -4.69773e-06 8.61246e-05
0.00259254 -0.000495208 -4.13797e-06
-0.000495208 0.000864233 -2.06798e-06
-4.13797e-06 -2.06798e-06 0.000505765
0.00157146 -0.000419847 3.26687e-08
-0.000419847 0.000257654 -3.02491e-06
3.26687e-08 -3.02491e-06 -7.79774e-05
0.00198631 -0.000433976 -2.4861e-07
-0.000433976 0.000348035 -6.35844e-06
-2.4861e-07 -6.35844e-06 0.000101458
0.00168597 -0.000341617 -2.58015e-06
-0.000341617 0.000138288 -3.12098e-06
-2.58015e-06 -3.12098e-06 -5.95571e-05
0.0016242 -0.000402458 2.47021e-06
-0.000402458 0.000192775 -7.18083e-07
2.47021e-06 -7.18083e-07 -5.97513e-05
0.00174944 -0.000403961 1.88474e-06
-0.000403961 0.000277063 -2.17216e-06
1.88474e-06 -2.17216e-06 2.67118e-05
0.00172129 -0.000355299 -8.48274e-07
-0.000355299 0.000372403 2.95188e-06
-8.48274e-07 2.95188e-06 0.000127675
0.00175609 -0.00041495 -1.79237e-06
-0.00041495 0.000355362 1.1614e-07
-1.79237e-06 1.1614e-07 8.07441e-05
0.0016801 -0.000421226 1.17921e-06
-0.000421226 0.000311922 -3.56119e-06
1.17921e-06 -3.56119e-06 1.29959e-05
0.00124256 -0.000256309 3.6747e-06
-0.000256309 0.000264253 7.89824e-07
3.6747e-06 7.89824e-07 5.16064e-05
0.000816912 -0.000234577 4.31773e-07
-0.000234577 -2.79897e-05 -7.0609e-07
4.31773e-07 -7.0609e-07 -0.000231927
0.00143302 -0.000297932 4.6273e-06
-0.000297932 0.000305072 -4.14732e-06
4.6273e-06 -4.14732e-06 8.37176e-05
0.000647747 -0.000159155 -8.80602e-08
-0.000159155 3.29351e-05 -5.66509e-07
-8.80602e-08 -5.66509e-07 -0.00014909
0.00090627 -0.000200633 1.03828e-07
-0.000200633 0.000160436 -4.46312e-07
1.03828e-07 -4.46312e-07 -4.4199e-05
0.000855335 -0.000210317 -2.98574e-06
-0.000210317 8.98895e-05 -1.21453e-06
-2.98574e-06 -1.21453e-06 -0.00011249
0.000469983 3.09899e-05 1.04211e-06
3.09899e-05 -5.07488e-05 4.57644e-06
1.04211e-06 4.57644e-06 -0.000153645
0.000780986 -8.4185e-05 1.20597e-06
-8.4185e-05 0.000157024 7.55066e-07
1.20597e-06 7.55066e-07 -8.41489e-06
0.00104246 -0.000143747 -2.54306e-06
-0.000143747 0.000320685 8.67872e-07
-2.54306e-06 8.67872e-07 0.000137326
0.00138398 9.64196e-05 -1.47005e-05
9.64196e-05 0.000490619 4.4304e-06
-1.47005e-05 4.4304e-06 0.000458504
0.000656848 8.05843e-06 -4.36884e-07
8.05843e-06 4.64633e-05 -6.38356e-07
-4.36884e-07 -6.38356e-07 -3.2473e-05
0.000917985 -6.41285e-05 -2.21024e-06
-6.41285e-05 0.00023291 -1.73761e-06
-2.21024e-06 -1.73761e-06 9.98869e-05
0.000751029 4.91395e-05 -2.77177e-05
4.91395e-05 0.000106317 3.5379e-06
-2.77177e-05 3.5379e-06 0.000105026
0.000978623 7.67678e-05 -8.16593e-06
7.67678e-05 0.000238034 3.74896e-08
-8.16593e-06 3.74896e-08 0.000210866
0.000683824 1.36247e-05 8.30104e-07
1.36247e-05 5.36376e-05 -2.75964e-06
8.30104e-07 -2.75964e-06 -1.09842e-05
0.000562417 6.07961e-05 -9.50957e-07
6.07961e-05 -1.85467e-05 -4.8801e-06
-9.50957e-07 -4.8801e-06 -4.35567e-05
0.00238376 9.75334e-05 3.36464e-06
9.75334e-05 0.00107039 3.04256e-07
3.36464e-06 3.04256e-07 0.00107551
0.00233453 8.51809e-05 2.26548e-05
8.51809e-05 0.00103371 -3.75174e-06
2.26548e-05 -3.75174e-06 0.00104171
0.000700924 5.14173e-05 5.18082e-07
5.14173e-05 7.72543e-05 1.37831e-07
5.18082e-07 1.37831e-07 -3.95482e-05
0.000787844 6.92291e-05 2.12452e-07
6.92291e-05 0.000143736 -1.74046e-06
2.12452e-07 -1.74046e-06 2.54172e-05
0.00064663 4.0928e-05 -1.22334e-07
4.0928e-05 4.61444e-05 1.78535e-07
-1.22334e-07 1.78535e-07 -6.80225e-05
0.000651356 3.2e-06 -5.72064e-07
3.2e-06 2.98659e-05 -2.83772e-06
-5.72064e-07 -2.83772e-06 -4.03475e-05
0.000729385 5.75295e-05 6.22481e-07
5.75295e-05 0.000100717 3.30665e-08
6.22481e-07 3.30665e-08 -5.63422e-06
0.000558643 -2.67685e-05 -6.32035e-07
-2.67685e-05 -3.55276e-05 -5.30768e-06
-6.32035e-07 -5.30768e-06 -5.8779e-05
0.000630312 1.75232e-05 -5.86784e-08
1.75232e-05 1.80501e-05 -9.28804e-08
-5.86784e-08 -9.28804e-08 -4.76347e-05
0.000743199 6.54949e-05 -4.15703e-07
6.54949e-05 0.000125961 1.67173e-06
-4.15703e-07 1.67173e-06 1.20095e-05
0.00247958 -6.67906e-05 -2.63537e-05
-6.67906e-05 0.00110584 -4.47292e-06
-2.63537e-05 -4.47292e-06 0.00111709
0.000556182 -2.57624e-05 -3.8836e-07
-2.57624e-05 -4.19407e-05 -4.2252e-08
-3.8836e-07 -4.2252e-08 -6.10278e-05
0.000618742 2.43174e-05 3.53607e-07
2.43174e-05 1.16679e-05 2.42551e-06
3.53607e-07 2.42551e-06 -4.80464e-05
0.00234843 -5.1384e-05 -4.07006e-06
-5.1384e-05 0.00102329 2.09417e-07
-4.07006e-06 2.09417e-07 0.00103741
0.000561855 -2.01629e-05 -6.03162e-07
-2.01629e-05 -4.21454e-05 4.11016e-06
-6.03162e-07 4.11016e-06 -5.71868e-05
0.00222369 -3.5541e-05 1.52853e-05
-3.5541e-05 0.000945623 4.62951e-06
1.52853e-05 4.62951e-06 0.000962282
0.0041386 4.57766e-05 9.09061e-05
4.57766e-05 0.00163466 2.68091e-05
9.09061e-05 2.68091e-05 0.000572592
0.000647063 -7.80875e-05 -1.33665e-06
-7.80875e-05 8.67577e-05 1.58589e-06
-1.33665e-06 1.58589e-06 0.000100688
0.001375 -7.91673e-05 -1.56097e-05
-7.91673e-05 -0.000355216 4.7325e-06
-1.56097e-05 4.7325e-06 -0.000117111
0.000632852 0.000103976 -4.6786e-06
0.000103976 2.99896e-05 -1.179e-06
-4.6786e-06 -1.179e-06 -9.27332e-05
0.000822764 5.84709e-05 -4.78872e-07
5.84709e-05 0.00015038 6.48654e-07
-4.78872e-07 6.48654e-07 3.48881e-05
0.000545104 2.56741e-05 2.62365e-07
2.56741e-05 -2.55625e-05 1.35552e-07
2.62365e-07 1.35552e-07 -0.000137299
0.00079254 3.06177e-05 -1.51408e-07
3.06177e-05 0.000121854 -1.0882e-07
-1.51408e-07 -1.0882e-07 7.86285e-06
0.000802489 7.18706e-05 -5.41866e-07
7.18706e-05 0.000124747 -2.21094e-08
-5.41866e-07 -2.21094e-08 8.33219e-06
0.000999053 0.000113713 8.9444e-07
0.000113713 0.000262578 5.32851e-07
8.9444e-07 5.32851e-07 0.000131384
0.000866374 9.19038e-05 -8.5568e-07
9.19038e-05 0.000168317 -5.76254e-06
-8.5568e-07 -5.76254e-06 2.60959e-05
0.00011173 1.92838e-05 3.50021e-07
1.92838e-05 -0.000247673 -9.77102e-07
3.50021e-07 -9.77102e-07 -0.000372595
0.000807883 0.000110788 -1.52233e-06
0.000110788 0.000153964 3.74067e-07
-1.52233e-06 3.74067e-07 2.39271e-05
0.000515172 1.41098e-05 -1.4364e-06
1.41098e-05 -3.18645e-05 -3.39931e-06
-1.4364e-06 -3.39931e-06 -0.000143143
0.000630043 5.50752e-05 -2.71735e-07
5.50752e-05 6.02395e-05 6.75581e-07
-2.71735e-07 6.75581e-07 -6.74053e-05
0.00168312 0.00015159 7.59789e-06
0.00015159 0.000713328 5.64745e-06
7.59789e-06 5.64745e-06 0.000577872
0.00105031 -0.000783611 0.000102699
-0.000783611 0.00236426 0.000178442
0.000102699 0.000178442 0.00066826
0.00347554 0.00026849 2.19037e-05
0.00026849 0.00174565 7.13469e-05
2.19037e-05 7.13469e-05 -0.00095117
0.000829269 8.19203e-05 -2.36152e-05
8.19203e-05 0.000280689 -3.6319e-05
-2.36152e-05 -3.6319e-05 -0.00138465
0.00902444 -0.0017121 -0.000231667
-0.0017121 0.0011343 -0.00017252
-0.000231667 -0.00017252 0.00223315
0.00532153 -0.000591464 5.2772e-05
-0.000591464 0.00117734 0.00021653
5.2772e-05 0.00021653 1.56522e-06
0.000791302 -0.000737185 -9.44651e-05
-0.000737185 0.00175635 9.04545e-05
-9.44651e-05 9.04545e-05 -0.00272754
0.00140989 -0.000276357 -1.02921e-05
-0.000276357 0.000305442 7.57168e-05
-1.02921e-05 7.57168e-05 -0.000263163
0.00277249 -0.000138438 2.29186e-05
-0.000138438 0.00064639 5.09766e-05
2.29186e-05 5.09766e-05 0.000289269
0.000209994 -0.00218246 0.000103133
-0.00218246 -0.000918996 0.000118094
0.000103133 0.000118094 0.000588572
0.00496973 0.000827539 -2.66253e-06
0.000827539 0.00350025 -1.98765e-05
-2.66253e-06 -1.98765e-05 -0.000671072
0.00262573 -0.00113743 -3.59125e-05
-0.00113743 -0.000988576 4.57796e-05
-3.59125e-05 4.57796e-05 -0.00126582
0.000978854 0.000336064 -1.54446e-06
0.000336064 -0.000101307 4.36363e-05
-1.54446e-06 4.36363e-05 -0.000191358
0.00822541 0.000802035 -3.66579e-05
0.000802035 0.00393179 -9.82714e-06
-3.66579e-05 -9.82714e-06 0.000863784
0.00286213 -0.00186468 -0.000178766
-0.00186468 -0.000257578 -0.000175724
-0.000178766 -0.000175724 -2.50917e-05
0.000912324 0.000303168 5.304e-06
0.000303168 0.000216091 -1.30667e-05
5.304e-06 -1.30667e-05 8.31308e-05
0.000652337 8.75688e-05 3.10677e-06
8.75688e-05 0.000135621 -5.89315e-07
3.10677e-06 -5.89315e-07 1.57296e-05
0.000533032 3.74563e-05 -2.20061e-06
3.74563e-05 2.85346e-05 -2.29597e-06
-2.20061e-06 -2.29597e-06 -0.000116753
1.7254e-05 -5.62209e-05 -0.000160353
-5.62209e-05 0.000951601 -4.41795e-05
-0.000160353 -4.41795e-05 -0.000176688
-0.00222077 0.000127659 6.5501e-06
0.000127659 -0.0011816 -1.49465e-05
6.5501e-06 -1.49465e-05 -0.00144606
0.000185437 0.000106328 -2.18067e-06
0.000106328 2.27959e-06 4.67387e-06
-2.18067e-06 4.67387e-06 -0.000190741
0.00055267 0.000285433 1.07309e-05
0.000285433 0.000233407 3.43745e-06
1.07309e-05 3.43745e-06 2.84454e-05
0.000726781 0.000240837 -3.08497e-06
0.000240837 0.000506761 -3.22849e-05
-3.08497e-06 -3.22849e-05 -0.000167191
-0.000145079 0.000453907 2.59779e-05
0.000453907 -0.000490838 5.53387e-06
2.59779e-05 5.53387e-06 -0.000803028
-0.000857424 0.000260348 0.00014618
0.000260348 0.00308233 8.74418e-06
0.00014618 8.74418e-06 0.000795593
0.00200609 -2.18672e-05 -5.62445e-06
-2.18672e-05 0.00111798 1.92951e-05
-5.62445e-06 1.92951e-05 -0.000250556
0.00018851 -1.81229e-05 1.70163e-06
-1.81229e-05 0.000336624 1.51325e-05
1.70163e-06 1.51325e-05 -0.000101796
0.000126696 -0.000107656 -3.96087e-05
-0.000107656 0.000425917 3.70635e-06
-3.96087e-05 3.70635e-06 6.79494e-06
0.00035751 -0.000104639 -4.90557e-05
-0.000104639 -0.000887503 1.14424e-05
-4.90557e-05 1.14424e-05 -0.000658757
0.00154697 -9.99681e-05 -8.77671e-05
-9.99681e-05 0.000270276 2.75085e-05
-8.77671e-05 2.75085e-05 -0.00115528
-0.00171022 -0.0012854 6.05984e-05
-0.0012854 -7.76491e-05 -8.92476e-05
6.05984e-05 -8.92476e-05 -0.00393319
-0.0017746 0.00156725 0.000155221
0.00156725 -0.00356293 -0.000154087
0.000155221 -0.000154087 -0.0030096
0.00234047 0.000742273 -0.000174315
0.000742273 0.00313773 0.000154447
-0.000174315 0.000154447 0.00217202
0.00184051 -0.000158792 -8.91517e-06
-0.000158792 0.000587618 -6.7272e-08
-8.91517e-06 -6.7272e-08 0.000713789
0.00156932 0.000174483 2.75076e-05
0.000174483 0.00334447 7.61522e-06
2.75076e-05 7.61522e-06 0.00201956
-0.00358764 0.00112148 2.73946e-05
0.00112148 -0.000928936 1.24482e-05
2.73946e-05 1.24482e-05 -0.002234
0.00361169 -0.00102012 3.33859e-05
-0.00102012 0.00126447 -9.11068e-06
3.33859e-05 -9.11068e-06 0.000609286
0.010803 -0.000673892 1.43199e-05
-0.000673892 0.00359212 -1.03057e-05
1.43199e-05 -1.03057e-05 0.00169551
0.00293401 -0.000602989 -8.98678e-06
-0.000602989 0.00092078 2.46764e-05
-8.98678e-06 2.46764e-05 0.000970444
-0.00801859 0.000430781 -0.000200212
0.000430781 -0.00367199 5.17911e-06
-0.000200212 5.17911e-06 -0.00449629
0.011971 -0.000359189 -8.35354e-05
-0.000359189 0.00329026 2.60994e-05
-8.35354e-05 2.60994e-05 0.00176895
0.00350535 -0.00114671 1.59347e-05
-0.00114671 -5.96606e-05 -1.884e-05
1.59347e-05 -1.884e-05 -0.000606437
0.00142263 -0.000287422 -1.82594e-05
-0.000287422 0.000732876 1.61265e-05
-1.82594e-05 1.61265e-05 0.000439159
0.00174825 -0.000443435 -3.40907e-06
-0.000443435 0.000333343 1.33164e-06
-3.40907e-06 1.33164e-06 0.000293062
0.00285337 -0.000498021 1.31448e-05
-0.000498021 0.000731699 -3.53685e-06
1.31448e-05 -3.53685e-06 0.000680468
-0.00186968 -8.10897e-05 -3.92143e-06
-8.10897e-05 -0.00132119 -1.24327e-07
-3.92143e-06 -1.24327e-07 -0.00163172
0.00139528 -0.000459466 -4.6096e-06
-0.000459466 9.63135e-05 -2.24118e-06
-4.6096e-06 -2.24118e-06 -0.000166445
0.00228066 -0.000554494 2.83012e-06
-0.000554494 0.000383895 -5.33899e-07
2.83012e-06 -5.33899e-07 0.000171757
0.00138969 -0.00038565 -1.27995e-05
-0.00038565 0.000247889 -2.62551e-06
-1.27995e-05 -2.62551e-06 -0.000101184
0.00156753 -0.000468268 3.35675e-08
-0.000468268 0.000149346 2.99844e-07
3.35675e-08 2.99844e-07 -0.000136813
0.00170077 -0.000425667 -4.37983e-07
-0.000425667 5.84018e-05 -5.06008e-06
-4.37983e-07 -5.06008e-06 -0.000136185
0.00129899 -0.000399833 -3.12169e-06
-0.000399833 8.21035e-05 -2.73244e-07
-3.12169e-06 -2.73244e-07 -0.000240745
0.00162136 -0.000401101 -3.88559e-07
-0.000401101 0.000145315 5.62439e-07
-3.88559e-07 5.62439e-07 -9.51818e-05
0.00174962 -0.000339913 -2.14099e-06
-0.000339913 0.000104446 -5.06369e-06
-2.14099e-06 -5.06369e-06 -5.58666e-05
0.00161693 -0.000270847 -3.94051e-06
-0.000270847 4.22766e-05 -3.16933e-06
-3.94051e-06 -3.16933e-06 -0.000100909
0.00155464 -0.000328839 -2.31806e-06
-0.000328839 8.6079e-05 -2.11207e-06
-2.31806e-06 -2.11207e-06 -0.000117714
0.00162583 -0.00032975 9.54182e-07
-0.00032975 0.000109312 1.36751e-06
9.54182e-07 1.36751e-06 -8.35849e-05
0.00150375 -0.000349579 -2.04004e-06
-0.000349579 0.000169967 -5.90573e-07
-2.04004e-06 -5.90573e-07 -6.84248e-05
0.00161867 -0.000397162 1.57436e-06
-0.000397162 0.000199869 -2.19057e-07
1.57436e-06 -2.19057e-07 -4.97601e-05
0.00160959 -0.000391959 1.47201e-06
-0.000391959 0.000200031 2.32277e-07
1.47201e-06 2.32277e-07 -4.69303e-05
0.00134516 -0.000280594 -7.42663e-07
-0.000280594 0.000218067 1.82588e-06
-7.42663e-07 1.82588e-06 2.11569e-06
0.00142028 -0.000331115 1.71848e-06
-0.000331115 0.000203094 -8.20281e-07
1.71848e-06 -8.20281e-07 -3.75768e-05
0.0016118 -0.000402141 -2.22067e-06
-0.000402141 0.000291102 -1.98273e-06
-2.22067e-06 -1.98273e-06 1.35099e-05
0.000976531 -0.000205952 -9.39895e-07
-0.000205952 0.000150337 2.58847e-06
-9.39895e-07 2.58847e-06 -4.11943e-05
0.00118625 -0.000249698 9.38778e-07
-0.000249698 0.000224259 1.95589e-07
9.38778e-07 1.95589e-07 1.39344e-05
0.000944412 -0.000242124 -8.79273e-07
-0.000242124 4.98199e-05 -4.5921e-06
-8.79273e-07 -4.5921e-06 -0.000151728
0.000706958 -7.27609e-05 -7.97361e-07
-7.27609e-05 7.57096e-05 5.26829e-06
-7.97361e-07 5.26829e-06 -5.76628e-05
0.000934452 -0.000165647 -1.41932e-07
-0.000165647 0.000199316 -1.03636e-07
-1.41932e-07 -1.03636e-07 1.49611e-05
0.000474774 -0.000157344 -3.93299e-06
-0.000157344 -8.95365e-05 -2.36656e-07
-3.93299e-06 -2.36656e-07 -0.000285696
0.000397377 5.02766e-05 8.24599e-07
5.02766e-05 -9.22215e-05 7.64153e-06
8.24599e-07 7.64153e-06 -0.000135382
0.000696834 -3.82958e-05 -4.5696e-07
-3.82958e-05 8.19233e-05 -4.64867e-07
-4.5696e-07 -4.64867e-07 -2.70008e-05
0.00111107 -0.000118149 8.48547e-07
-0.000118149 0.000354451 -1.22648e-06
8.48547e-07 -1.22648e-06 0.00018042
0.00255015 0.000136161 -7.10643e-06
0.000136161 0.00118595 1.70828e-06
-7.10643e-06 1.70828e-06 0.00118048
0.000534613 5.98508e-05 -3.89834e-07
5.98508e-05 -1.80305e-05 -2.57806e-07
-3.89834e-07 -2.57806e-07 -5.19361e-05
0.00075139 -1.32714e-05 1.8878e-06
-1.32714e-05 9.97069e-05 -4.11762e-06
1.8878e-06 -4.11762e-06 1.925e-05
0.00246167 0.000109893 3.56461e-06
0.000109893 0.00112398 2.98257e-07
3.56461e-06 2.98257e-07 0.00112619
0.000563757 6.05653e-05 -4.39208e-07
6.05653e-05 -8.70322e-06 -5.33066e-06
-4.39208e-07 -5.33066e-06 -3.70726e-05
0.00243643 9.97497e-05 2.8047e-05
9.97497e-05 0.00110235 -3.27167e-06
2.8047e-05 -3.27167e-06 0.001107
0.000897928 0.000115832 3.78865e-07
0.000115832 0.000188231 1.59247e-06
3.78865e-07 1.59247e-06 5.75102e-05
0.000777999 6.39467e-05 -3.67813e-08
6.39467e-05 0.000125101 -1.62193e-07
-3.67813e-08 -1.62193e-07 4.82869e-06
0.000804269 5.28165e-05 7.34792e-08
5.28165e-05 0.000159006 -2.3294e-06
7.34792e-08 -2.3294e-06 3.10753e-05
0.000656837 -1.59259e-07 -9.08704e-07
-1.59259e-07 3.65289e-05 -3.32549e-06
-9.08704e-07 -3.32549e-06 -3.90396e-05
0.000725312 3.97868e-05 3.55032e-07
3.97868e-05 0.000100957 1.94859e-07
3.55032e-07 1.94859e-07 -1.18573e-05
0.000595883 5.23787e-05 6.77388e-07
5.23787e-05 2.37608e-05 1.09346e-06
6.77388e-07 1.09346e-06 -9.52314e-05
0.000560668 -3.04899e-05 -1.01881e-06
-3.04899e-05 -2.93089e-05 -5.78541e-06
-1.01881e-06 -5.78541e-06 -5.66708e-05
0.000633767 9.22993e-06 -2.83028e-08
9.22993e-06 2.17754e-05 -7.2608e-08
-2.83028e-08 -7.2608e-08 -4.93099e-05
0.000713355 5.61099e-05 6.15708e-07
5.61099e-05 8.72574e-05 1.47244e-06
6.15708e-07 1.47244e-06 -1.53461e-05
0.00260788 -8.09394e-05 -3.37589e-05
-8.09394e-05 0.00118733 -4.21028e-06
-3.37589e-05 -4.21028e-06 0.00119577
0.000543038 -2.71911e-05 -4.46054e-07
-2.71911e-05 -4.49835e-05 -7.07268e-08
-4.46054e-07 -7.07268e-08 -6.80066e-05
0.000629948 2.01752e-05 4.9333e-07
2.01752e-05 1.8776e-05 2.76663e-06
4.9333e-07 2.76663e-06 -4.71457e-05
0.00245278 -6.57329e-05 -4.54946e-06
-6.57329e-05 0.00108944 2.77111e-07
-4.54946e-06 2.77111e-07 0.001101
0.000551013 -2.53441e-05 -6.18742e-07
-2.53441e-05 -4.50893e-05 4.65977e-06
-6.18742e-07 4.65977e-06 -6.39655e-05
0.00230826 -4.97504e-05 1.95454e-05
-4.97504e-05 0.000999008 4.53116e-06
1.95454e-05 4.53116e-06 0.00101356
-0.00550769 0.000194819 -6.75242e-06
0.000194819 0.00101883 4.39815e-05
-6.75242e-06 4.39815e-05 -0.00152415
0.00392326 -7.75242e-06 -1.10342e-06
-7.75242e-06 0.00173625 7.90674e-06
-1.10342e-06 7.90674e-06 0.000635094
0.000663325 -7.94573e-05 -8.75969e-06
-7.94573e-05 5.96714e-05 -4.58226e-06
-8.75969e-06 -4.58226e-06 6.33339e-05
0.000548462 7.04914e-05 -1.1521e-06
7.04914e-05 -2.44341e-05 9.41545e-07
-1.1521e-06 9.41545e-07 -0.000140312
0.00190328 0.000279188 -5.13894e-07
0.000279188 0.00078486 2.51707e-06
-5.13894e-07 2.51707e-06 0.000616854
0.000790532 7.30064e-05 -2.85372e-06
7.30064e-05 0.000115905 -6.76184e-07
-2.85372e-06 -6.76184e-07 -1.02454e-05
0.0010425 3.35926e-05 -5.87363e-07
3.35926e-05 0.000263108 -4.35323e-07
-5.87363e-07 -4.35323e-07 0.000151167
0.00127234 0.000120065 1.78461e-06
0.000120065 0.000397287 6.03909e-07
1.78461e-06 6.03909e-07 0.000276312
0.000562816 4.59589e-05 -1.84495e-06
4.59589e-05 -8.88223e-06 2.7451e-06
-1.84495e-06 2.7451e-06 -0.000120179
0.000606981 6.53737e-05 -1.19031e-06
6.53737e-05 4.90382e-05 1.13634e-06
-1.19031e-06 1.13634e-06 -8.73139e-05
0.000744821 7.22871e-05 -1.2022e-06
7.22871e-05 9.51409e-05 -1.11914e-06
-1.2022e-06 -1.11914e-06 -4.04994e-05
0.000884969 0.000134602 1.07086e-06
0.000134602 0.000209667 -3.77354e-06
1.07086e-06 -3.77354e-06 4.02762e-05
0.000357066 0.000186911 1.83335e-06
0.000186911 -0.000161528 -4.75555e-06
1.83335e-06 -4.75555e-06 -0.000266173
0.000999746 8.59568e-05 -1.86129e-06
8.59568e-05 0.000284099 -6.43842e-07
-1.86129e-06 -6.43842e-07 0.000146361
0.00111009 0.000134595 4.83919e-07
0.000134595 0.000383137 2.90721e-06
4.83919e-07 2.90721e-06 0.000245246
-0.00525301 -0.000849844 -0.000369315
-0.000849844 -0.00126408 -2.40107e-09
-0.000369315 -2.40107e-09 -0.00249939
-0.00292461 -0.000589572 0.000152728
-0.000589572 0.00130731 7.66146e-05
0.000152728 7.66146e-05 -0.000723132
0.00416001 0.000302271 -0.000136382
0.000302271 0.0018789 -7.33108e-05
-0.000136382 -7.33108e-05 -0.000889305
-0.00786844 -0.0022405 0.000500213
-0.0022405 -0.00332522 0.000401279
0.000500213 0.000401279 -0.00187862
0.0128435 -0.00138491 -6.20257e-05
-0.00138491 0.00393029 0.000123078
-6.20257e-05 0.000123078 0.00373858
-0.00120167 0.000993147 1.98813e-06
0.000993147 0.000223928 -6.72363e-05
1.98813e-06 -6.72363e-05 -0.00382113
0.00229863 -1.55023e-05 -0.000141526
-1.55023e-05 0.00078249 3.9446e-05
-0.000141526 3.9446e-05 -0.000114486
0.00253379 0.000384268 -4.29467e-06
0.000384268 0.000763941 2.22031e-05
-4.29467e-06 2.22031e-05 0.00049563
0.00916315 -0.00152866 -0.00016075
-0.00152866 0.00439079 5.29234e-05
-0.00016075 5.29234e-05 0.0042633
-6.08853e-05 0.000965045 -9.02385e-06
0.000965045 0.000474877 -2.5519e-05
-9.02385e-06 -2.5519e-05 -0.00273253
0.00157422 0.000702682 -4.74657e-05
0.000702682 0.000258747 -6.33966e-05
-4.74657e-05 -6.33966e-05 6.14694e-05
0.00435669 0.00145618 -0.000171216
0.00145618 0.000363313 -9.83924e-05
-0.000171216 -9.83924e-05 -0.00189211
0.00221532 0.000605657 1.66019e-05
0.000605657 0.000597108 -2.26802e-05
1.66019e-05 -2.26802e-05 0.000372433
0.0008408 0.000279244 -4.37232e-06
0.000279244 0.000173488 7.78132e-07
-4.37232e-06 7.78132e-07 4.85041e-05
0.00135795 0.000100702 -4.67302e-06
0.000100702 0.000531748 3.75122e-06
-4.67302e-06 3.75122e-06 0.000420665
-0.00102342 0.000182778 -4.30933e-05
0.000182778 -0.000435269 -4.46281e-05
-4.30933e-05 -4.46281e-05 -0.00101103
0.00284224 0.000424701 -1.82123e-05
0.000424701 0.00142707 -1.34956e-05
-1.82123e-05 -1.34956e-05 0.00121665
0.0011856 0.00057125 1.32377e-05
0.00057125 0.000131132 -3.96971e-06
1.32377e-05 -3.96971e-06 -0.000187309
0.00319991 0.000923789 9.65028e-05
0.000923789 0.000524619 3.07704e-05
9.65028e-05 3.07704e-05 0.000417062
-0.00458741 -7.17891e-05 -0.000280078
-7.17891e-05 -0.00353177 2.80291e-06
-0.000280078 2.80291e-06 -0.00246642
-0.00287168 0.000154192 0.000124609
0.000154192 0.00238204 2.19723e-06
0.000124609 2.19723e-06 -4.54134e-05
0.00200749 -4.87865e-05 -6.78099e-05
-4.87865e-05 0.00115077 2.66023e-05
-6.78099e-05 2.66023e-05 7.41276e-05
0.00377472 -0.000336613 -6.6256e-05
-0.000336613 0.00148303 -3.58308e-05
-6.6256e-05 -3.58308e-05 0.00157899
0.00161557 -0.000884188 -3.0698e-05
-0.000884188 3.82982e-05 1.06202e-05
-3.0698e-05 1.06202e-05 -0.000439433
0.00172434 0.000121136 -1.95427e-05
0.000121136 0.00336027 3.27834e-05
-1.95427e-05 3.27834e-05 0.00215686
0.00251877 -0.000806817 0.00015275
-0.000806817 0.000123005 -0.000121722
0.00015275 -0.000121722 -0.00230078
0.0103835 0.0010942 0.000109914
0.0010942 0.0049461 6.87557e-06
0.000109914 6.87557e-06 0.00420442
0.00267905 -0.000722811 -2.14515e-05
-0.000722811 0.000625668 7.56618e-06
-2.14515e-05 7.56618e-06 0.000531884
-0.00074544 0.000542894 6.9027e-05
0.000542894 -0.00050311 -1.8128e-05
6.9027e-05 -1.8128e-05 -0.00105745
0.00445807 -0.000339943 -4.92661e-05
-0.000339943 -0.000415112 5.43756e-05
-4.92661e-05 5.43756e-05 -0.00252457
0.00587775 -0.00126194 -3.22579e-05
-0.00126194 0.00125976 1.45594e-05
-3.22579e-05 1.45594e-05 0.000700628
0.000995572 -0.000470069 4.31388e-05
-0.000470069 -0.000190549 -9.16338e-06
4.31388e-05 -9.16338e-06 -0.000390717
0.00993048 -0.00041799 1.57279e-05
-0.00041799 0.00236018 -3.01482e-05
1.57279e-05 -3.01482e-05 0.000936159
0.00395053 -0.000661338 6.6232e-05
-0.000661338 -0.000325202 -3.78573e-05
6.6232e-05 -3.78573e-05 -0.000285522
-0.000642569 -0.000282293 -1.96507e-05
-0.000282293 -0.00102922 6.65095e-06
-1.96507e-05 6.65095e-06 -0.000975797
0.000639057 -0.00036133 -8.8377e-06
-0.00036133 -0.000471256 -1.07147e-06
-8.8377e-06 -1.07147e-06 -0.000471285
0.00325131 -0.000532916 2.70808e-05
-0.000532916 0.000765802 -1.69031e-05
2.70808e-05 -1.69031e-05 0.000729846
0.000158137 -0.000342113 -1.07289e-05
-0.000342113 -0.000520307 -5.26783e-06
-1.07289e-05 -5.26783e-06 -0.000781681
0.00171981 -0.000502668 -1.02405e-08
-0.000502668 0.000100356 -2.58291e-07
-1.02405e-08 -2.58291e-07 -9.96505e-05
0.00214968 -0.000455987 -2.51488e-06
-0.000455987 0.000172993 -1.30776e-06
-2.51488e-06 -1.30776e-06 4.11677e-05
0.00139374 -0.00044529 -2.54311e-06
-0.00044529 6.37008e-05 3.38184e-06
-2.54311e-06 3.38184e-06 -0.000224659
0.00182543 -0.000431883 -2.21418e-06
-0.000431883 0.000127722 5.34254e-07
-2.21418e-06 5.34254e-07 -6.96917e-05
0.0018138 -0.000337314 -1.05325e-06
-0.000337314 3.66521e-05 -1.29063e-06
-1.05325e-06 -1.29063e-06 -8.39656e-05
0.00132369 -0.000372762 4.15176e-06
-0.000372762 -1.96191e-05 4.13707e-06
4.15176e-06 4.13707e-06 -0.000254555
0.00170638 -0.00033105 -4.22963e-08
-0.00033105 8.72547e-05 8.05718e-07
-4.22963e-08 8.05718e-07 -7.11153e-05
0.00179379 -0.000278694 -3.47172e-06
-0.000278694 8.75204e-05 -1.62756e-06
-3.47172e-06 -1.62756e-06 -2.26964e-05
0.00191616 -0.000258893 -2.30439e-06
-0.000258893 0.000219902 -7.0736e-07
-2.30439e-06 -7.0736e-07 0.000105087
0.00168675 -0.000272432 -2.46665e-06
-0.000272432 8.0033e-05 3.03313e-06
-2.46665e-06 3.03313e-06 -5.8699e-05
0.00174424 -0.000284344 -1.11479e-06
-0.000284344 0.000151027 -5.40822e-06
-1.11479e-06 -5.40822e-06 -6.68724e-06
0.00165756 -0.000325142 -3.65589e-06
-0.000325142 0.000180203 -1.85635e-06
-3.65589e-06 -1.85635e-06 -2.61496e-05
0.00166749 -0.00033536 1.17984e-06
-0.00033536 0.000149712 4.57758e-07
1.17984e-06 4.57758e-07 -5.43771e-05
0.00157087 -0.000318003 2.74606e-06
-0.000318003 8.28363e-05 5.54755e-06
2.74606e-06 5.54755e-06 -0.000105064
0.00137895 -0.000292309 -6.07041e-06
-0.000292309 0.000159045 2.03141e-06
-6.07041e-06 2.03141e-06 -5.6068e-05
0.00146304 -0.000346605 -2.62288e-07
-0.000346605 0.000143466 2.08899e-07
-2.62288e-07 2.08899e-07 -9.4206e-05
0.00164304 -0.000394926 1.64708e-06
-0.000394926 0.000222708 6.51728e-07
1.64708e-06 6.51728e-07 -2.4521e-05
0.00120716 -0.000237735 -3.65363e-06
-0.000237735 0.000201277 3.3525e-06
-3.65363e-06 3.3525e-06 1.21984e-06
0.00124788 -0.000272662 3.43975e-07
-0.000272662 0.000159175 3.68429e-07
3.43975e-07 3.68429e-07 -5.63663e-05
0.00119355 -0.000313566 2.2453e-06
-0.000313566 7.69464e-05 -2.90054e-06
2.2453e-06 -2.90054e-06 -0.000160275
0.00076336 -0.000137978 -4.89037e-06
-0.000137978 7.38241e-05 4.70496e-06
-4.89037e-06 4.70496e-06 -7.91786e-05
0.00107751 -0.000215548 9.14541e-07
-0.000215548 0.000208014 -2.65263e-07
9.14541e-07 -2.65263e-07 1.4884e-05
0.00106623 -0.000238169 7.07611e-07
-0.000238169 0.000148847 -1.76087e-06
7.07611e-07 -1.76087e-06 -5.88607e-05
0.000386993 -1.27958e-06 -3.84352e-06
-1.27958e-06 -0.000115157 1.02549e-05
-3.84352e-06 1.02549e-05 -0.000167246
0.000727983 -9.85969e-05 3.78294e-07
-9.85969e-05 9.18715e-05 5.39011e-07
3.78294e-07 5.39011e-07 -4.82332e-05
0.00125114 -0.000183197 1.07582e-07
-0.000183197 0.000384837 -1.03074e-06
1.07582e-07 -1.03074e-06 0.000195137
0.00290135 0.000144655 -4.55481e-05
0.000144655 0.00139717 2.29954e-06
-4.55481e-05 2.29954e-06 0.00139024
0.000535229 3.62924e-05 -3.3792e-07
3.62924e-05 -1.69138e-05 -6.5126e-07
-3.3792e-07 -6.5126e-07 -5.8916e-05
0.000893453 -8.46518e-05 2.64078e-06
-8.46518e-05 0.000198446 -4.79781e-06
2.64078e-06 -4.79781e-06 8.33466e-05
0.00175788 9.88456e-05 2.13042e-05
9.88456e-05 0.000712198 2.23438e-07
2.13042e-05 2.23438e-07 0.000707192
0.000603625 5.24493e-05 8.38005e-07
5.24493e-05 2.06133e-05 -6.3145e-06
8.38005e-07 -6.3145e-06 -1.23282e-05
0.00255691 0.000112521 3.67245e-05
0.000112521 0.00118053 -2.65834e-06
3.67245e-05 -2.65834e-06 0.00118234
0.000904333 0.000124966 2.95476e-06
0.000124966 0.000174903 9.32329e-07
2.95476e-06 9.32329e-07 4.63019e-05
0.000614104 6.69332e-05 -2.09439e-07
6.69332e-05 1.54526e-05 3.97874e-07
-2.09439e-07 3.97874e-07 -0.00010295
0.000669386 3.92803e-05 -3.64297e-07
3.92803e-05 5.92844e-05 -1.40949e-06
-3.64297e-07 -1.40949e-06 -6.01691e-05
0.000904063 8.61365e-05 3.91768e-07
8.61365e-05 0.000202523 6.04104e-07
3.91768e-07 6.04104e-07 7.73079e-05
0.000714272 2.99378e-05 2.01179e-07
2.99378e-05 8.7224e-05 5.61826e-08
2.01179e-07 5.61826e-08 -2.61283e-05
0.000666999 2.20443e-06 -1.20355e-06
2.20443e-06 4.5273e-05 -3.91062e-06
-1.20355e-06 -3.91062e-06 -3.65219e-05
0.000564205 -3.21616e-05 -1.56766e-06
-3.21616e-05 -2.11872e-05 -6.44337e-06
-1.56766e-06 -6.44337e-06 -5.23158e-05
0.00063098 1.6276e-06 2.23076e-07
1.6276e-06 2.28109e-05 -7.4025e-08
2.23076e-07 -7.4025e-08 -5.32988e-05
0.000646684 1.1345e-05 -2.26192e-07
1.1345e-05 3.6987e-05 1.5695e-06
-2.26192e-07 1.5695e-06 -6.20268e-05
0.00270846 -9.4232e-05 -4.19243e-05
-9.4232e-05 0.00125326 -3.84496e-06
-4.19243e-05 -3.84496e-06 0.00125896
0.000534794 -2.6779e-05 -1.89448e-07
-2.6779e-05 -4.45887e-05 -5.41341e-08
-1.89448e-07 -5.41341e-08 -7.15117e-05
0.000620259 1.51104e-05 1.0296e-06
1.51104e-05 1.63635e-05 2.98867e-06
1.0296e-06 2.98867e-06 -5.58489e-05
0.002579 -8.02826e-05 -4.80695e-06
-8.02826e-05 0.00116973 3.19111e-07
-4.80695e-06 3.19111e-07 0.00117836
0.000531507 -3.04032e-05 -2.98339e-07
-3.04032e-05 -5.15111e-05 5.23528e-06
-2.98339e-07 5.23528e-06 -7.46193e-05
0.00244946 -6.49256e-05 2.43213e-05
-6.49256e-05 0.00108697 4.43238e-06
2.43213e-05 4.43238e-06 0.00109871
0.000230137 0.000323005 -0.000194031
0.000323005 0.00159965 3.2929e-05
-0.000194031 3.2929e-05 0.000529803
-0.00246407 -2.5833e-05 1.10533e-05
-2.5833e-05 0.00177995 1.42546e-05
1.10533e-05 1.42546e-05 -0.000744582
0.00372741 -5.05723e-05 -6.84186e-05
-5.05723e-05 0.00191109 -6.29422e-06
-6.84186e-05 -6.29422e-06 0.000781294
0.000495131 3.8469e-05 2.00048e-06
3.8469e-05 -6.05758e-05 -1.33557e-06
2.00048e-06 -1.33557e-06 -0.000170362
0.00066829 4.65881e-05 2.24862e-06
4.65881e-05 4.06694e-05 7.29059e-07
2.24862e-06 7.29059e-07 -8.70281e-05
0.00138147 0.000225423 -1.55289e-06
0.000225423 0.00048664 8.02084e-07
-1.55289e-06 8.02084e-07 0.000331116
0.00148072 0.000279559 3.4544e-06
0.000279559 0.000468657 -2.065e-06
3.4544e-06 -2.065e-06 0.00026234
0.00106776 0.000178259 -6.70514e-06
0.000178259 0.00032175 -1.27194e-06
-6.70514e-06 -1.27194e-06 0.000157802
0.000908082 0.00011143 6.35163e-07
0.00011143 0.000227018 3.18971e-06
6.35163e-07 3.18971e-06 8.43007e-05
0.000755267 8.63924e-05 3.49166e-06
8.63924e-05 0.00010555 3.03212e-06
3.49166e-06 3.03212e-06 -3.01449e-05
0.000559235 0.00013592 -4.18643e-06
0.00013592 3.05819e-05 -3.54807e-06
-4.18643e-06 -3.54807e-06 -0.000131927
-0.000756089 8.91798e-05 -2.58409e-07
8.91798e-05 -0.000778525 -4.05966e-07
-2.58409e-07 -4.05966e-07 -0.000941161
0.00135054 0.000287801 2.82479e-06
0.000287801 0.000335733 -2.33144e-06
2.82479e-06 -2.33144e-06 0.00021388
0.00212281 0.000521259 2.75255e-06
0.000521259 0.000477127 -1.09945e-05
2.75255e-06 -1.09945e-05 0.000277325
0.000683325 0.000218774 -5.94921e-06
0.000218774 3.8513e-05 -5.35739e-07
-5.94921e-06 -5.35739e-07 -7.50917e-05
0.000611163 8.40906e-05 -2.72473e-07
8.40906e-05 5.20726e-05 -1.22281e-06
-2.72473e-07 -1.22281e-06 -7.36602e-05
0.0109996 0.000792429 -8.58692e-05
0.000792429 0.00276514 3.70499e-05
-8.58692e-05 3.70499e-05 0.00135231
-0.000377849 -0.000680097 -0.000178784
-0.000680097 0.00180398 -5.82833e-05
-0.000178784 -5.82833e-05 0.00045132
-0.0011217 -0.000933508 9.26583e-05
-0.000933508 0.00137611 -1.11558e-05
9.26583e-05 -1.11558e-05 -0.000676785
-0.00184759 -0.000819647 1.64281e-05
-0.000819647 -0.000505406 0.000141656
1.64281e-05 0.000141656 -0.000724237
0.011032 0.000982139 1.27983e-06
0.000982139 0.00498644 -9.52011e-07
1.27983e-06 -9.52011e-07 0.0018072
0.000387764 0.000312504 -4.21548e-05
0.000312504 -0.000328711 -2.4738e-05
-4.21548e-05 -2.4738e-05 -0.000467802
0.00151878 0.000687978 -2.13752e-05
0.000687978 0.000255117 -1.16575e-05
-2.13752e-05 -1.16575e-05 9.86573e-05
0.0100356 0.00089014 2.81261e-05
0.00089014 0.00326236 2.19924e-05
2.81261e-05 2.19924e-05 0.00134941
0.00565273 0.00140573 -3.91849e-05
0.00140573 0.000906967 -4.3981e-05
-3.91849e-05 -4.3981e-05 0.000471205
0.00176758 0.000633246 1.83781e-06
0.000633246 0.000201797 -6.68867e-06
1.83781e-06 -6.68867e-06 3.22751e-05
0.00105898 0.000456746 5.79075e-06
0.000456746 0.00011405 -1.16318e-06
5.79075e-06 -1.16318e-06 -9.74151e-05
0.000827444 0.000251235 -1.63335e-05
0.000251235 0.000176655 1.80262e-05
-1.63335e-05 1.80262e-05 6.0731e-05
0.00270497 0.000736847 -4.32263e-05
0.000736847 0.000781518 -1.81148e-05
-4.32263e-05 -1.81148e-05 0.000476929
0.00222099 0.000844431 -1.13064e-06
0.000844431 -6.32536e-05 1.8729e-05
-1.13064e-06 1.8729e-05 -0.00018653
0.00082979 -0.000330239 -3.30605e-05
-0.000330239 -0.00305359 1.52261e-05
-3.30605e-05 1.52261e-05 -0.00333674
0.00227912 -0.00042909 -1.25801e-06
-0.00042909 0.00130176 -2.12156e-05
-1.25801e-06 -2.12156e-05 0.00137938
-0.00491878 2.41686e-05 0.000149825
2.41686e-05 0.00180641 -7.05958e-06
0.000149825 -7.05958e-06 -0.000791445
0.00193376 -0.000752609 -2.86409e-05
-0.000752609 0.000146099 6.13553e-06
-2.86409e-05 6.13553e-06 -2.82804e-05
0.00322874 -0.0011192 3.17201e-05
-0.0011192 0.00053089 -9.51376e-06
3.17201e-05 -9.51376e-06 -0.000327682
0.00125733 -0.000286794 0.000227661
-0.000286794 0.00190333 -8.25581e-06
0.000227661 -8.25581e-06 0.00105011
0.0122479 -0.000413424 -0.00012848
-0.000413424 0.00366809 6.51882e-05
-0.00012848 6.51882e-05 0.00206283
0.000836354 -0.000485708 -2.72768e-05
-0.000485708 -0.000346204 -3.2191e-06
-2.72768e-05 -3.2191e-06 -0.000470641
0.00849116 6.08274e-05 -5.38448e-05
6.08274e-05 0.00118844 2.84829e-05
-5.38448e-05 2.84829e-05 0.000167275
0.00455446 -0.000726509 7.30511e-05
-0.000726509 -0.000101423 4.27015e-06
7.30511e-05 4.27015e-06 -0.000434851
0.00320923 -0.000499933 4.80091e-05
-0.000499933 0.000841143 -1.11301e-05
4.80091e-05 -1.11301e-05 0.000535349
0.00340528 -0.000260624 -9.14953e-05
-0.000260624 5.55293e-05 3.76066e-06
-9.14953e-05 3.76066e-06 4.32658e-05
-0.00108335 -0.000262099 -1.48701e-05
-0.000262099 -0.0014198 3.39607e-06
-1.48701e-05 3.39607e-06 -0.00137642
0.00156739 -0.000438782 -2.26447e-08
-0.000438782 -0.000128241 -7.32169e-07
-2.26447e-08 -7.32169e-07 -0.000145588
0.00236967 -0.000374476 1.52143e-05
-0.000374476 0.000174975 -9.46578e-06
1.52143e-05 -9.46578e-06 0.00020148
0.00122817 -0.000459728 -1.80212e-06
-0.000459728 -0.00014617 2.87567e-06
-1.80212e-06 2.87567e-06 -0.000337318
0.00181851 -0.000424249 -2.12752e-06
-0.000424249 1.70278e-05 2.1073e-07
-2.12752e-06 2.1073e-07 -0.000111994
0.00205538 -0.000331181 9.19614e-07
-0.000331181 5.66908e-05 1.03759e-06
9.19614e-07 1.03759e-06 3.04496e-06
0.00178296 -0.000424596 -3.073e-06
-0.000424596 0.000109832 5.48582e-06
-3.073e-06 5.48582e-06 -8.8855e-05
0.00186218 -0.000338953 3.59464e-07
-0.000338953 6.45575e-05 1.59058e-06
3.59464e-07 1.59058e-06 -5.50602e-05
0.00179308 -0.000292669 -4.75749e-07
-0.000292669 3.01708e-05 1.54773e-06
-4.75749e-07 1.54773e-06 -5.39974e-05
0.00167252 -0.000323913 4.27115e-06
-0.000323913 7.36221e-05 5.31612e-06
4.27115e-06 5.31612e-06 -8.31344e-05
0.00175712 -0.000279532 -3.27469e-07
-0.000279532 6.50549e-05 1.22722e-06
-3.27469e-07 1.22722e-06 -4.61028e-05
0.00202734 -0.000280137 -6.11125e-07
-0.000280137 0.000238257 1.78364e-07
-6.11125e-07 1.78364e-07 0.000138873
0.0018017 -0.000254816 -3.96259e-06
-0.000254816 0.00014439 3.50412e-06
-3.96259e-06 3.50412e-06 3.32444e-05
0.00184005 -0.000267139 1.93661e-06
-0.000267139 0.00019788 -3.1766e-06
1.93661e-06 -3.1766e-06 6.80726e-05
0.00175417 -0.000274417 2.32516e-06
-0.000274417 0.00011635 7.64544e-06
2.32516e-06 7.64544e-06 -1.80483e-05
0.00174379 -0.000286019 3.65847e-07
-0.000286019 0.000150067 -7.88264e-07
3.65847e-07 -7.88264e-07 -8.34861e-06
0.00168132 -0.000280679 -1.33707e-06
-0.000280679 0.000153306 -3.13384e-06
-1.33707e-06 -3.13384e-06 -2.0142e-05
0.00151786 -0.000286285 -5.22983e-06
-0.000286285 0.0001692 -2.58983e-07
-5.22983e-06 -2.58983e-07 -3.19274e-05
0.00169139 -0.000328306 3.93667e-07
-0.000328306 0.000201535 -3.57654e-07
3.93667e-07 -3.57654e-07 -6.0133e-06
0.00177731 -0.000341937 3.26742e-06
-0.000341937 0.000212175 2.63448e-06
3.26742e-06 2.63448e-06 7.72849e-06
0.0011491 -0.000230842 -6.85642e-06
-0.000230842 9.05222e-05 2.52141e-06
-6.85642e-06 2.52141e-06 -0.000100376
0.00132676 -0.000287507 -1.13675e-06
-0.000287507 0.00012976 4.78554e-07
-1.13675e-06 4.78554e-07 -8.50922e-05
0.00141847 -0.000343119 2.48387e-06
-0.000343119 0.000115035 2.83596e-07
2.48387e-06 2.83596e-07 -0.000121843
0.000806305 -0.000157552 -6.7042e-06
-0.000157552 3.67482e-05 6.38672e-06
-6.7042e-06 6.38672e-06 -0.000121495
0.00112441 -0.00023021 9.00775e-07
-0.00023021 0.000152493 5.02112e-07
9.00775e-07 5.02112e-07 -4.63058e-05
0.00125954 -0.000273549 2.83255e-06
-0.000273549 0.000163719 -1.71711e-06
2.83255e-06 -1.71711e-06 -5.24878e-05
0.00041055 -6.96154e-05 -1.30262e-05
-6.96154e-05 -0.000126171 1.20424e-05
-1.30262e-05 1.20424e-05 -0.000189302
0.000791024 -0.000152832 -4.58009e-07
-0.000152832 8.91151e-05 1.86477e-07
-4.58009e-07 1.86477e-07 -6.59714e-05
0.00108592 -0.000212724 1.41639e-06
-0.000212724 0.000211426 -1.95131e-06
1.41639e-06 -1.95131e-06 1.94957e-05
0.00354718 0.000165032 -7.11963e-05
0.000165032 0.00178043 2.45183e-06
-7.11963e-05 2.45183e-06 0.00176853
0.000552212 -2.05595e-05 9.89528e-07
-2.05595e-05 -2.27489e-05 -3.61664e-07
9.89528e-07 -3.61664e-07 -7.57867e-05
0.000858068 -0.000146693 4.62678e-06
-0.000146693 0.00016958 -4.38526e-06
4.62678e-06 -4.38526e-06 2.32982e-05
0.00309275 0.000138957 8.27735e-06
0.000138957 0.0015069 4.14552e-07
8.27735e-06 4.14552e-07 0.00150201
0.000678161 1.8907e-05 4.99932e-06
1.8907e-05 6.15972e-05 -8.40605e-06
4.99932e-06 -8.40605e-06 2.03039e-05
0.00277191 0.000120983 5.45319e-05
0.000120983 0.0013118 -2.09643e-06
5.45319e-05 -2.09643e-06 0.00131195
0.00115791 0.000227472 4.06687e-06
0.000227472 0.000286215 -4.40056e-06
4.06687e-06 -4.40056e-06 9.47012e-05
0.000825403 0.000149189 1.14395e-06
0.000149189 0.000138963 -2.53438e-07
1.14395e-06 -2.53438e-07 2.41203e-06
0.000465568 4.73433e-05 1.80588e-07
4.73433e-05 -6.79173e-05 -5.66571e-07
1.80588e-07 -5.66571e-07 -0.000192535
0.000320676 2.85872e-05 1.07984e-08
2.85872e-05 -0.000156552 -2.89064e-07
1.07984e-08 -2.89064e-07 -0.000267539
0.000548708 1.50998e-05 -3.00938e-07
1.50998e-05 -1.47909e-05 6.22485e-07
-3.00938e-07 6.22485e-07 -0.000131007
0.000661583 7.51485e-06 -1.43914e-06
7.51485e-06 4.26528e-05 -3.99801e-06
-1.43914e-06 -3.99801e-06 -4.75955e-05
0.000628112 1.00262e-05 1.75831e-07
1.00262e-05 2.77099e-05 1.82012e-06
1.75831e-07 1.82012e-06 -7.79349e-05
0.000619865 -3.87277e-06 3.29153e-07
-3.87277e-06 1.92601e-05 -1.99047e-07
3.29153e-07 -1.99047e-07 -6.26364e-05
0.000568505 -3.55316e-05 -1.92598e-06
-3.55316e-05 -1.15284e-05 -7.18918e-06
-1.92598e-06 -7.18918e-06 -4.65921e-05
0.00280973 -0.0001078 -4.96631e-05
-0.0001078 0.00132091 -3.35378e-06
-4.96631e-05 -3.35378e-06 0.00132366
0.000531142 -3.01175e-05 1.11076e-07
-3.01175e-05 -4.06451e-05 -1.67293e-08
1.11076e-07 -1.67293e-08 -7.13961e-05
0.000594133 2.48755e-06 1.32869e-06
2.48755e-06 2.68492e-06 3.39564e-06
1.32869e-06 3.39564e-06 -7.38615e-05
0.00270887 -9.45754e-05 -5.00913e-06
-9.45754e-05 0.00125318 3.81202e-07
-5.00913e-06 3.81202e-07 0.00125872
0.000514739 -2.6463e-05 1.00175e-06
-2.6463e-05 -5.60717e-05 5.76607e-06
1.00175e-06 5.76607e-06 -8.28533e-05
0.00255315 -7.93951e-05 3.01724e-05
-7.93951e-05 0.00115376 4.26114e-06
3.01724e-05 4.26114e-06 0.00116263
0.0110872 0.000508285 0.000193067
0.000508285 0.00258501 5.89338e-05
0.000193067 5.89338e-05 0.00167032
-0.00302712 -0.000829134 -0.000125595
-0.000829134 -0.00229571 -1.61664e-05
-0.000125595 -1.61664e-05 -0.00251918
-0.00506397 0.000349003 -6.54032e-05
0.000349003 0.000657172 -3.74915e-05
-6.54032e-05 -3.74915e-05 -0.00239145
0.000677259 2.22704e-05 8.00956e-06
2.22704e-05 3.91461e-05 1.89565e-06
8.00956e-06 1.89565e-06 -8.91129e-05
0.000933252 0.000186372 -3.125e-06
0.000186372 0.00023116 1.72496e-06
-3.125e-06 1.72496e-06 8.64855e-05
0.00132705 0.000201715 8.13254e-09
0.000201715 0.000464043 -6.43274e-07
8.13254e-09 -6.43274e-07 0.000297606
0.00127794 0.000258648 -4.09642e-06
0.000258648 0.00036029 1.00807e-06
-4.09642e-06 1.00807e-06 0.000159148
0.00123267 0.000294131 1.31687e-05
0.000294131 0.000192155 1.02016e-06
1.31687e-05 1.02016e-06 -3.91543e-05
0.000163101 0.000166766 -7.53643e-07
0.000166766 -0.000248868 -2.71287e-06
-7.53643e-07 -2.71287e-06 -0.000424033
0.000395471 0.000132998 -2.8668e-06
0.000132998 -4.80469e-05 -2.52222e-06
-2.8668e-06 -2.52222e-06 -0.000207169
0.000170692 0.000182787 1.02783e-06
0.000182787 -0.000268283 1.7924e-06
1.02783e-06 1.7924e-06 -0.000456398
0.000986341 0.000265085 6.62325e-07
0.000265085 0.000148635 6.60043e-07
6.62325e-07 6.60043e-07 2.37981e-05
0.000519356 0.00027812 5.74841e-06
0.00027812 -0.000227392 1.4409e-06
5.74841e-06 1.4409e-06 -0.000403385
0.00343024 0.000589745 -3.61446e-06
0.000589745 0.00117445 -4.02793e-06
-3.61446e-06 -4.02793e-06 0.000993551
0.00207218 0.000545039 -5.72219e-06
0.000545039 0.000358513 3.46964e-06
-5.72219e-06 3.46964e-06 0.000176228
0.00149991 0.000467037 3.58984e-06
0.000467037 0.000156558 -2.85401e-06
3.58984e-06 -2.85401e-06 -2.52145e-05
0.000412992 0.000215313 -2.18776e-06
0.000215313 -0.000101909 4.23416e-06
-2.18776e-06 4.23416e-06 -0.000219129
0.00555736 0.000621543 -1.99415e-05
0.000621543 0.000339161 8.7222e-06
-1.99415e-05 8.7222e-06 0.000545138
0.00929782 0.000617684 8.65413e-05
0.000617684 0.00185782 4.67845e-05
8.65413e-05 4.67845e-05 0.00033088
0.0053707 -0.00132746 9.1267e-05
-0.00132746 0.00307413 -5.75335e-05
9.1267e-05 -5.75335e-05 0.00234811
0.00394553 0.00131958 0.000327937
0.00131958 5.30276e-05 0.000146572
0.000327937 0.000146572 -0.00316567
0.00127248 0.000594982 -3.61698e-05
0.000594982 0.000165107 1.23191e-06
-3.61698e-05 1.23191e-06 0.00025325
0.00336575 0.00108385 -8.21508e-05
0.00108385 -4.81521e-05 -2.54856e-05
-8.21508e-05 -2.54856e-05 -0.000232599
0.00376922 0.000887452 4.13104e-05
0.000887452 0.000645299 2.05857e-05
4.13104e-05 2.05857e-05 0.000614254
0.00301033 0.00074258 7.47446e-06
0.00074258 0.000747517 7.16293e-06
7.47446e-06 7.16293e-06 0.000579785
0.000634494 0.000393485 -9.29569e-06
0.000393485 -5.76025e-05 1.9533e-05
-9.29569e-06 1.9533e-05 -0.000254588
0.00389847 0.000989401 -0.000120347
0.000989401 0.000729805 -2.88085e-05
-0.000120347 -2.88085e-05 0.000530206
0.00289369 -0.000220681 -6.88145e-05
-0.000220681 0.000373381 9.05586e-06
-6.88145e-05 9.05586e-06 0.000129116
0.00999539 -0.000277102 -8.79125e-06
-0.000277102 0.00265502 3.51134e-06
-8.79125e-06 3.51134e-06 0.00203434
-0.00912821 -0.000615998 0.000310479
-0.000615998 -0.00517584 -8.8736e-06
0.000310479 -8.8736e-06 -0.00480754
0.00037025 -0.000466264 -4.32857e-05
-0.000466264 -0.000696445 8.30667e-06
-4.32857e-05 8.30667e-06 -0.000744247
0.00677849 -0.000937437 0.000116495
-0.000937437 0.000962661 2.60548e-05
0.000116495 2.60548e-05 0.000723603
0.0013545 -0.000385714 -4.69522e-06
-0.000385714 -0.00213872 5.87152e-05
-4.69522e-06 5.87152e-05 -0.00352653
0.00146608 -0.000368554 1.7589e-05
-0.000368554 -0.0001438 8.96703e-07
1.7589e-05 8.96703e-07 -0.000284383
0.00270517 -0.000139889 -6.07537e-06
-0.000139889 -0.000386182 5.92296e-06
-6.07537e-06 5.92296e-06 -0.000460028
0.00413337 -0.000379986 2.16063e-05
-0.000379986 0.000972407 -8.49354e-06
2.16063e-05 -8.49354e-06 0.0010438
0.00359443 -0.000102668 7.10066e-05
-0.000102668 0.000844867 1.06458e-06
7.10066e-05 1.06458e-06 0.000808977
-8.47646e-05 -0.000353418 -8.16787e-06
-0.000353418 -0.00100788 7.71346e-06
-8.16787e-06 7.71346e-06 -0.00100243
0.00177163 -0.000350306 -3.86782e-07
-0.000350306 -0.000148465 5.42258e-07
-3.86782e-07 5.42258e-07 -0.000114276
0.0018139 -0.000239771 1.35498e-05
-0.000239771 -0.000175822 -2.41873e-06
1.35498e-05 -2.41873e-06 -7.67886e-05
0.00156136 -0.000399204 4.45109e-07
-0.000399204 -0.000107121 1.79152e-06
4.45109e-07 1.79152e-06 -0.000233493
0.00195834 -0.000328278 1.92725e-06
-0.000328278 6.58712e-06 9.64315e-07
1.92725e-06 9.64315e-07 -4.75585e-05
0.00188955 -0.000265681 9.38246e-07
-0.000265681 3.79867e-05 1.29723e-06
9.38246e-07 1.29723e-06 7.74078e-06
0.00189011 -0.000338761 4.6432e-06
-0.000338761 8.05872e-05 3.66702e-06
4.6432e-06 3.66702e-06 -3.7469e-05
0.00185365 -0.000292994 8.3133e-07
-0.000292994 7.12685e-05 4.43497e-07
8.3133e-07 4.43497e-07 -1.24812e-05
0.00193085 -0.000261808 -1.84724e-06
-0.000261808 0.000144158 1.42524e-06
-1.84724e-06 1.42524e-06 6.51019e-05
0.00172289 -0.000279942 4.12415e-06
-0.000279942 4.45362e-05 3.71382e-06
4.12415e-06 3.71382e-06 -6.73353e-05
0.00184353 -0.000272976 1.95558e-07
-0.000272976 0.00013815 5.98127e-07
1.95558e-07 5.98127e-07 3.84469e-05
0.00169274 -0.000257611 3.49473e-06
-0.000257611 8.49088e-05 -1.53939e-06
3.49473e-06 -1.53939e-06 -2.79164e-05
0.00169848 -0.000251342 -2.51407e-06
-0.000251342 7.56706e-05 7.33712e-06
-2.51407e-06 7.33712e-06 -3.19246e-05
0.00186952 -0.000265222 -2.16203e-06
-0.000265222 0.000212887 5.22247e-08
-2.16203e-06 5.22247e-08 8.6726e-05
0.00178066 -0.000259143 6.91124e-07
-0.000259143 0.000192663 -1.96599e-06
6.91124e-07 -1.96599e-06 4.12154e-05
0.00174535 -0.000287331 2.09462e-06
-0.000287331 0.000150201 3.58822e-06
2.09462e-06 3.58822e-06 -8.80163e-06
0.00172101 -0.000283446 6.07982e-07
-0.000283446 0.000178266 -6.50007e-07
6.07982e-07 -6.50007e-07 3.7553e-06
0.00171562 -0.000262608 -2.35196e-06
-0.000262608 0.000240039 -1.18198e-06
-2.35196e-06 -1.18198e-06 6.1223e-05
0.0010393 -0.00020874 -8.89006e-06
-0.00020874 -2.2788e-05 2.45631e-06
-8.89006e-06 2.45631e-06 -0.000202287
0.00154708 -0.000288843 -1.01443e-06
-0.000288843 0.000189932 -2.68808e-07
-1.01443e-06 -2.68808e-07 -1.20608e-05
0.0017209 -0.000330619 3.71882e-06
-0.000330619 0.000220395 8.12806e-07
3.71882e-06 8.12806e-07 1.1837e-05
0.000944773 -0.000175167 -1.01054e-05
-0.000175167 5.19963e-05 6.27157e-06
-1.01054e-05 6.27157e-06 -0.000104846
0.00118557 -0.000233479 -7.76326e-08
-0.000233479 0.000108714 2.65873e-07
-7.76326e-08 2.65873e-07 -8.25653e-05
0.00126648 -0.000282067 1.87147e-06
-0.000282067 9.49309e-05 -6.93928e-07
1.87147e-06 -6.93928e-07 -0.000119589
0.00043755 -0.000104316 -1.71148e-05
-0.000104316 -0.000132286 1.31742e-05
-1.71148e-05 1.31742e-05 -0.000205712
0.000853257 -0.000165459 5.61402e-07
-0.000165459 6.60137e-05 3.94163e-07
5.61402e-07 3.94163e-07 -9.37403e-05
0.00105503 -0.000224088 5.53895e-06
-0.000224088 0.000111066 -2.32908e-06
5.53895e-06 -2.32908e-06 -8.67116e-05
0.00429886 0.000174395 -0.000110421
0.000174395 0.00222405 4.54239e-06
-0.000110421 4.54239e-06 0.00220902
0.000573439 -7.69382e-05 5.29558e-07
-7.69382e-05 -3.24589e-05 -2.78914e-07
5.29558e-07 -2.78914e-07 -9.84726e-05
0.00083807 -0.000167382 6.23196e-06
-0.000167382 0.000114095 -5.6706e-06
6.23196e-06 -5.6706e-06 -4.24443e-05
0.00377315 0.000139398 8.1075e-06
0.000139398 0.00190741 3.83802e-07
8.1075e-06 3.83802e-07 0.00190166
0.000711335 -2.99966e-05 1.01129e-05
-2.99966e-05 6.69327e-05 -1.02601e-05
1.01129e-05 -1.02601e-05 1.29189e-05
0.0032662 0.000110536 9.5477e-05
0.000110536 0.00160301 -3.69478e-06
9.5477e-05 -3.69478e-06 0.0016051
0.00139408 0.000274592 -3.6457e-06
0.000274592 0.000317494 -4.06068e-06
-3.6457e-06 -4.06068e-06 9.77515e-05
0.0013805 0.000247308 7.4725e-07
0.000247308 0.000420197 3.03604e-07
7.4725e-07 3.03604e-07 0.00022533
0.000692695 0.000141099 -1.83295e-07
0.000141099 3.78749e-05 -5.5895e-06
-1.83295e-07 -5.5895e-06 -0.000126121
0.000678736 0.000160896 -1.87422e-06
0.000160896 6.5153e-05 1.45816e-08
-1.87422e-06 1.45816e-08 -7.80818e-05
0.000472178 6.0829e-05 1.14972e-07
6.0829e-05 -6.33332e-05 -5.03457e-07
1.14972e-07 -5.03457e-07 -0.000192816
0.000771586 8.16143e-05 -2.80185e-06
8.16143e-05 0.000116373 -4.05141e-06
-2.80185e-06 -4.05141e-06 2.51081e-06
0.000425372 -2.76793e-06 3.46055e-07
-2.76793e-06 -9.13897e-05 1.48518e-06
3.46055e-07 1.48518e-06 -0.000203703
0.000637853 6.31342e-06 1.60629e-07
6.31342e-06 3.0929e-05 -2.52297e-07
1.60629e-07 -2.52297e-07 -5.97918e-05
0.00057361 -3.1806e-05 -2.57763e-06
-3.1806e-05 -3.31793e-06 -7.97916e-06
-2.57763e-06 -7.97916e-06 -4.26188e-05
0.000582138 -6.19127e-06 1.1708e-06
-6.19127e-06 -2.54008e-06 3.84624e-06
1.1708e-06 3.84624e-06 -8.38478e-05
0.00052486 -3.34074e-05 2.62946e-07
-3.34074e-05 -3.73327e-05 -5.20602e-08
2.62946e-07 -5.20602e-08 -7.19272e-05
0.00291554 -0.000119941 -5.88557e-05
-0.000119941 0.00139163 -2.74301e-06
-5.88557e-05 -2.74301e-06 0.00139162
0.00280014 -0.000108096 -3.91173e-06
-0.000108096 0.00131474 3.8463e-07
-3.91173e-06 3.8463e-07 0.00131726
0.000502606 -2.41162e-05 2.43753e-06
-2.41162e-05 -5.80089e-05 6.39781e-06
2.43753e-06 6.39781e-06 -8.80725e-05
0.0026714 -9.38562e-05 3.70161e-05
-9.38562e-05 0.00123054 3.97501e-06
3.70161e-05 3.97501e-06 0.00123618
0.00322743 1.3648e-05 1.63901e-05
1.3648e-05 -0.000299404 9.55789e-06
1.63901e-05 9.55789e-06 -0.000191898
0.0027891 -0.000566076 6.04057e-05
-0.000566076 -0.00201876 2.67709e-05
6.04057e-05 2.67709e-05 -0.00309179
0.00725445 -0.000889646 -7.69073e-05
-0.000889646 0.00273702 -5.91179e-05
-7.69073e-05 -5.91179e-05 0.00306223
0.00132693 0.000319689 6.01815e-06
0.000319689 0.000115687 4.11802e-06
6.01815e-06 4.11802e-06 -0.000113904
0.00150981 0.000226252 1.78789e-06
0.000226252 0.000562888 1.46072e-06
1.78789e-06 1.46072e-06 0.00039312
0.00115373 0.000245652 -5.87718e-06
0.000245652 0.000298449 6.54763e-06
-5.87718e-06 6.54763e-06 0.000100845
0.000717791 0.000223351 1.32019e-06
0.000223351 6.03599e-05 2.32555e-06
1.32019e-06 2.32555e-06 -0.000128533
0.00124013 0.000296849 -4.33681e-07
0.000296849 0.000203623 -1.53116e-06
-4.33681e-07 -1.53116e-06 -3.07313e-05
0.000816738 0.000300183 5.23542e-06
0.000300183 -7.87593e-05 3.56327e-06
5.23542e-06 3.56327e-06 -0.00027764
0.00108582 0.000275807 -4.73441e-06
0.000275807 0.000237962 -2.596e-06
-4.73441e-06 -2.596e-06 2.41137e-05
0.00056596 0.000241056 3.28624e-06
0.000241056 -6.88922e-05 3.62246e-06
3.28624e-06 3.62246e-06 -0.000195144
0.0013819 0.00035901 2.86532e-06
0.00035901 0.000244678 -6.23525e-07
2.86532e-06 -6.23525e-07 5.61582e-05
0.00233306 0.00049821 3.41587e-06
0.00049821 0.00057927 6.91745e-06
3.41587e-06 6.91745e-06 0.000415329
0.00167685 0.000478229 1.02048e-06
0.000478229 0.000123714 -3.79731e-07
1.02048e-06 -3.79731e-07 -6.40656e-05
0.00163782 0.000447307 4.32011e-06
0.000447307 0.000119269 9.11113e-06
4.32011e-06 9.11113e-06 -1.02188e-05
0.0011812 0.000476672 -2.7244e-06
0.000476672 -0.000115863 -3.08597e-06
-2.7244e-06 -3.08597e-06 -0.000290481
0.000644462 0.000388826 2.89038e-07
0.000388826 -0.000284963 2.32271e-06
2.89038e-07 2.32271e-06 -0.000443831
0.00135887 0.000351239 2.60806e-05
0.000351239 -0.000264959 2.93736e-05
2.60806e-05 2.93736e-05 -0.000217337
0.00512974 0.000730794 -4.76868e-05
0.000730794 -5.93772e-05 -1.32014e-05
-4.76868e-05 -1.32014e-05 6.36906e-05
0.00201662 0.000368141 0.000266574
0.000368141 -0.00193575 3.21793e-05
0.000266574 3.21793e-05 -0.00362498
0.000570158 0.000806545 -8.56388e-06
0.000806545 -0.00119287 -2.11166e-05
-8.56388e-06 -2.11166e-05 -0.00136044
0.00253589 0.000710572 -2.55308e-05
0.000710572 0.00029417 -2.63978e-06
-2.55308e-05 -2.63978e-06 0.0002406
0.0023369 0.000668846 -5.87975e-05
0.000668846 0.000420294 -2.19714e-05
-5.87975e-05 -2.19714e-05 0.00025088
0.00233439 -0.000183881 -5.44584e-06
-0.000183881 6.8382e-05 -4.61957e-06
-5.44584e-06 -4.61957e-06 4.69252e-05
0.00101174 -4.97839e-05 6.96634e-06
-4.97839e-05 -0.000251229 5.93443e-06
6.96634e-06 5.93443e-06 -0.000412036
0.00108833 0.000688486 8.8627e-05
0.000688486 -0.00293351 -2.44302e-05
8.8627e-05 -2.44302e-05 -0.00348889
-0.000253249 -0.000242859 -1.70521e-05
-0.000242859 -0.00107125 2.76991e-05
-1.70521e-05 2.76991e-05 -0.00105473
0.00349817 -0.00012264 -3.38611e-05
-0.00012264 -4.88833e-05 3.56103e-05
-3.38611e-05 3.56103e-05 -0.000349758
0.00218572 -0.000274787 -1.43101e-05
-0.000274787 -1.49743e-05 5.21002e-06
-1.43101e-05 5.21002e-06 8.138e-05
0.00301349 -0.000131857 -3.67264e-06
-0.000131857 0.000493474 -3.10633e-06
-3.67264e-06 -3.10633e-06 0.000448789
0.0015355 -0.000157275 2.95027e-05
-0.000157275 -0.000349948 -9.70487e-07
2.95027e-05 -9.70487e-07 -0.000225603
0.0031393 -5.20773e-05 2.41429e-05
-5.20773e-05 0.000914852 9.93705e-07
2.41429e-05 9.93705e-07 0.000874494
0.00118533 -0.000323925 -1.61557e-05
-0.000323925 -0.000458503 8.30848e-06
-1.61557e-05 8.30848e-06 -0.000419473
0.00176645 -0.000249444 6.73409e-07
-0.000249444 -0.000220436 2.15757e-06
6.73409e-07 2.15757e-06 -0.000132185
0.00195073 -0.000248598 1.71243e-06
-0.000248598 -4.29834e-05 9.04711e-08
1.71243e-06 9.04711e-08 7.76378e-06
0.00187106 -0.000324433 1.03926e-06
-0.000324433 -3.4351e-05 1.75678e-06
1.03926e-06 1.75678e-06 -8.93316e-05
0.00189205 -0.000273556 3.64079e-07
-0.000273556 3.67737e-05 1.06137e-07
3.64079e-07 1.06137e-07 9.52292e-07
0.00192608 -0.000247579 -1.14689e-06
-0.000247579 9.30374e-05 8.90631e-07
-1.14689e-06 8.90631e-07 3.5776e-05
0.00190485 -0.000293616 1.03292e-06
-0.000293616 0.00010746 5.59945e-07
1.03292e-06 5.59945e-07 2.33947e-05
0.00184278 -0.000264595 -6.58667e-07
-0.000264595 9.78369e-05 3.35923e-08
-6.58667e-07 3.35923e-08 1.55675e-05
0.00172649 -0.000233804 6.35742e-07
-0.000233804 7.63569e-05 3.42161e-07
6.35742e-07 3.42161e-07 -2.22171e-05
0.00164561 -0.000265045 -3.488e-07
-0.000265045 3.02036e-05 1.29366e-06
-3.488e-07 1.29366e-06 -6.98447e-05
0.00172248 -0.000259001 7.26927e-07
-0.000259001 0.000103058 -6.89839e-07
7.26927e-07 -6.89839e-07 -1.00664e-05
0.00172433 -0.000245231 1.94642e-06
-0.000245231 0.000124551 -2.0204e-06
1.94642e-06 -2.0204e-06 -9.1516e-06
0.00189485 -0.000262906 -5.05052e-06
-0.000262906 0.000225642 4.77822e-06
-5.05052e-06 4.77822e-06 0.000103187
0.00184393 -0.000260629 -1.22954e-06
-0.000260629 0.000227028 2.93015e-07
-1.22954e-06 2.93015e-07 7.88109e-05
0.0016489 -0.000234532 -1.54597e-06
-0.000234532 0.000172975 -8.02683e-07
-1.54597e-06 -8.02683e-07 7.67931e-06
0.00175635 -0.000286337 2.483e-06
-0.000286337 0.000200652 1.64444e-06
2.483e-06 1.64444e-06 2.50222e-05
0.0016669 -0.000261402 1.01247e-06
-0.000261402 0.000212056 -6.56751e-07
1.01247e-06 -6.56751e-07 3.22969e-05
0.00127357 -0.000200465 -7.16787e-06
-0.000200465 7.9213e-05 2.14849e-06
-7.16787e-06 2.14849e-06 -9.0397e-05
0.000962237 -0.000168466 -1.15865e-05
-0.000168466 2.28168e-05 5.79803e-06
-1.15865e-05 5.79803e-06 -0.000125748
0.00115778 -0.000216942 -1.99579e-06
-0.000216942 4.64632e-05 4.19416e-07
-1.99579e-06 4.19416e-07 -0.000133938
0.00157287 -0.000291574 3.29864e-06
-0.000291574 0.00020889 -5.07884e-07
3.29864e-06 -5.07884e-07 5.94643e-06
0.00053316 -0.000168258 -2.11137e-05
-0.000168258 -8.74181e-05 1.39295e-05
-2.11137e-05 1.39295e-05 -0.000176496
0.000886747 -0.000172203 5.29977e-07
-0.000172203 2.04417e-05 2.87579e-07
5.29977e-07 2.87579e-07 -0.000136187
0.00119869 -0.000234135 7.06969e-06
-0.000234135 0.000113673 -2.21543e-06
7.06969e-06 -2.21543e-06 -7.76708e-05
0.00487465 0.000197163 -0.000128291
0.000197163 0.00257336 8.28742e-06
-0.000128291 8.28742e-06 0.002549
0.000582695 -0.000140676 -5.27409e-07
-0.000140676 -4.35565e-05 8.02558e-08
-5.27409e-07 8.02558e-08 -0.000125167
0.000840865 -0.000171216 8.4149e-06
-0.000171216 6.10405e-05 -5.99693e-06
8.4149e-06 -5.99693e-06 -0.000100106
0.00447112 0.000150451 8.29874e-06
0.000150451 0.00232071 9.7225e-07
8.29874e-06 9.7225e-07 0.00230953
0.000733609 -9.68077e-05 1.59999e-05
-9.68077e-05 5.96496e-05 -1.254e-05
1.59999e-05 -1.254e-05 -1.00185e-05
0.0039783 0.000110239 0.000128455
0.000110239 0.00202143 -6.77895e-06
0.000128455 -6.77895e-06 0.00202081
0.00117513 0.000269453 -4.21635e-06
0.000269453 8.11409e-05 -3.29784e-07
-4.21635e-06 -3.29784e-07 -0.000135245
0.0011756 0.000253686 -1.79406e-06
0.000253686 0.000193808 -4.98184e-07
-1.79406e-06 -4.98184e-07 -2.24671e-05
0.0010223 0.000209093 -3.38033e-06
0.000209093 0.000160499 -2.50094e-06
-3.38033e-06 -2.50094e-06 -3.24269e-05
0.00159196 0.000265881 -2.43908e-06
0.000265881 0.000547453 3.49209e-06
-2.43908e-06 3.49209e-06 0.000349489
0.000884902 0.000158785 -1.1304e-06
0.000158785 0.000151697 -1.99598e-06
-1.1304e-06 -1.99598e-06 -1.51381e-05
0.000888553 0.000130524 -3.73346e-06
0.000130524 0.000180306 -5.30377e-06
-3.73346e-06 -5.30377e-06 4.40786e-05
0.000500827 7.68734e-05 -2.94465e-07
7.68734e-05 -4.82552e-05 1.71589e-07
-2.94465e-07 1.71589e-07 -0.000181478
0.000662545 3.35534e-05 -6.25437e-07
3.35534e-05 4.53952e-05 -1.53097e-07
-6.25437e-07 -1.53097e-07 -5.92621e-05
0.000589043 -1.60339e-05 -4.80339e-06
-1.60339e-05 5.73838e-06 -8.82571e-06
-4.80339e-06 -8.82571e-06 -3.93472e-05
0.00056489 -1.05453e-05 1.08328e-06
-1.05453e-05 -1.0593e-05 4.13242e-06
1.08328e-06 4.13242e-06 -0.000100167
0.000512937 -3.53803e-05 3.94588e-07
-3.53803e-05 -3.75793e-05 -1.58845e-07
3.94588e-07 -1.58845e-07 -7.69749e-05
0.0030801 -0.000128352 -7.30866e-05
-0.000128352 0.001496 -2.27189e-06
-7.30866e-05 -2.27189e-06 0.00149397
0.000487268 -3.13551e-05 2.45092e-06
-3.13551e-05 -5.96292e-05 7.03828e-06
2.45092e-06 7.03828e-06 -9.37225e-05
0.00289129 -0.000121543 -3.05445e-06
-0.000121543 0.00137703 3.55538e-07
-3.05445e-06 3.55538e-07 0.00137638
0.00279594 -0.000107949 4.52929e-05
-0.000107949 0.00131184 3.59975e-06
4.52929e-05 3.59975e-06 0.00131425
0.000303992 5.07108e-05 1.57446e-05
5.07108e-05 -0.000934235 8.05022e-06
1.57446e-05 8.05022e-06 -0.000873325
0.00454301 2.15402e-05 5.35182e-05
2.15402e-05 0.000276357 1.03533e-06
5.35182e-05 1.03533e-06 0.000284035
0.010345 0.000612534 -8.00505e-05
0.000612534 0.00289847 -2.23532e-05
-8.00505e-05 -2.23532e-05 0.00182792
0.000813534 0.000291596 2.03473e-06
0.000291596 -0.000205871 2.29114e-06
2.03473e-06 2.29114e-06 -0.000408254
0.00170403 0.000363054 1.94524e-06
0.000363054 0.00023217 2.59682e-06
1.94524e-06 2.59682e-06 2.50756e-05
0.00122543 0.000318878 -1.77897e-07
0.000318878 5.88979e-05 -8.68173e-07
-1.77897e-07 -8.68173e-07 -0.000170123
0.00117671 0.000270882 -2.18321e-06
0.000270882 0.000313229 1.89067e-06
-2.18321e-06 1.89067e-06 0.000112452
0.0012168 0.000296005 -1.55987e-06
0.000296005 0.00019652 -8.98545e-07
-1.55987e-06 -8.98545e-07 -4.01833e-05
0.00142721 0.000357518 7.87414e-06
0.000357518 0.00024869 9.49917e-07
7.87414e-06 9.49917e-07 4.08811e-05
0.00184528 0.000456949 -4.21488e-06
0.000456949 0.000205274 -1.85156e-06
-4.21488e-06 -1.85156e-06 8.24517e-06
0.00220662 0.000437004 -4.70679e-06
0.000437004 0.000694511 6.85345e-07
-4.70679e-06 6.85345e-07 0.000493985
0.00118427 0.000403497 1.06904e-05
0.000403497 -4.68334e-05 1.7525e-05
1.06904e-05 1.7525e-05 -0.000194376
0.00216122 0.000511749 -3.15647e-06
0.000511749 0.000390968 5.34794e-08
-3.15647e-06 5.34794e-08 0.000201624
0.00197746 0.000455978 -1.15144e-05
0.000455978 0.000188058 1.60817e-06
-1.15144e-05 1.60817e-06 2.83215e-05
0.000691683 0.000224684 1.47026e-05
0.000224684 -0.000482364 7.27499e-06
1.47026e-05 7.27499e-06 -0.000522023
0.00107869 0.000405439 9.87851e-06
0.000405439 -0.000165998 -2.19097e-08
9.87851e-06 -2.19097e-08 -0.000293054
0.00112644 0.000465784 -8.07716e-06
0.000465784 -0.000152225 -7.86353e-06
-8.07716e-06 -7.86353e-06 -0.000326157
0.00175461 0.00035939 3.40505e-06
0.00035939 -6.35168e-05 6.12141e-06
3.40505e-06 6.12141e-06 -5.49638e-05
0.0053302 0.000485716 3.09861e-05
0.000485716 5.36692e-05 -1.67781e-05
3.09861e-05 -1.67781e-05 -6.92481e-05
0.0026639 0.000626208 1.0216e-05
0.000626208 0.000612482 -2.76289e-05
1.0216e-05 -2.76289e-05 0.000565361
0.00149913 -4.11023e-05 2.34682e-05
-4.11023e-05 3.48134e-06 -2.18204e-06
2.34682e-05 -2.18204e-06 -3.09161e-06
0.0021435 -0.000122508 -2.50726e-05
-0.000122508 1.55223e-05 -2.17896e-07
-2.50726e-05 -2.17896e-07 -6.4647e-06
0.00145759 0.000164509 2.94372e-05
0.000164509 -0.000597626 -6.11008e-06
2.94372e-05 -6.11008e-06 -0.000801694
0.000280423 -0.000192637 -2.98521e-05
-0.000192637 -0.000996915 2.24745e-05
-2.98521e-05 2.24745e-05 -0.000887929
0.00321751 -0.000198474 -9.18889e-05
-0.000198474 0.000544833 -9.335e-07
-9.18889e-05 -9.335e-07 0.000528726
0.00189629 -0.000187942 3.15341e-06
-0.000187942 -0.00010732 -2.63035e-06
3.15341e-06 -2.63035e-06 5.9671e-06
0.00230938 -6.60462e-05 -8.94865e-06
-6.60462e-05 0.000387407 3.06442e-07
-8.94865e-06 3.06442e-07 0.000350733
0.00201533 -0.000179309 2.80556e-06
-0.000179309 2.59962e-06 1.49441e-06
2.80556e-06 1.49441e-06 1.86076e-05
0.00209746 -2.61107e-05 4.33238e-06
-2.61107e-05 9.80126e-05 1.11012e-07
4.33238e-06 1.11012e-07 7.85582e-05
0.00174993 -0.000262564 -7.08815e-06
-0.000262564 -0.000255265 2.85298e-06
-7.08815e-06 2.85298e-06 -0.000175314
0.00197158 -0.00024531 -1.85671e-06
-0.00024531 -2.15552e-05 5.8014e-09
-1.85671e-06 5.8014e-09 1.97598e-05
0.0019612 -0.000197281 -2.22293e-06
-0.000197281 2.01234e-05 -7.63355e-09
-2.22293e-06 -7.63355e-09 -2.31668e-06
0.00189506 -0.000280743 -1.65727e-06
-0.000280743 3.53756e-05 -8.22817e-07
-1.65727e-06 -8.22817e-07 -5.34631e-06
0.00183742 -0.000242122 2.80063e-07
-0.000242122 5.06804e-05 -1.7247e-07
2.80063e-07 -1.7247e-07 -1.14563e-05
0.00191474 -0.000215592 -8.54436e-07
-0.000215592 0.000123286 4.28575e-07
-8.54436e-07 4.28575e-07 4.07089e-05
0.00174862 -0.00026708 -1.78347e-06
-0.00026708 4.78438e-05 -8.34259e-07
-1.78347e-06 -8.34259e-07 -3.73347e-05
0.00176753 -0.000234915 3.78056e-07
-0.000234915 9.70034e-05 -1.1615e-07
3.78056e-07 -1.1615e-07 -1.70768e-06
0.00175674 -0.000220863 1.50008e-06
-0.000220863 0.000105137 -9.89814e-07
1.50008e-06 -9.89814e-07 -1.22944e-05
0.0017556 -0.000260571 -1.69959e-06
-0.000260571 0.000123086 1.45299e-07
-1.69959e-06 1.45299e-07 9.6579e-06
0.00175175 -0.000245797 -3.72912e-08
-0.000245797 0.000141408 -3.13221e-07
-3.72912e-08 -3.13221e-07 7.72361e-06
0.00162208 -0.000216526 -3.95071e-07
-0.000216526 0.000128642 -8.14228e-07
-3.95071e-07 -8.14228e-07 -2.59939e-05
0.00190496 -0.000262072 -1.82326e-06
-0.000262072 0.000260032 3.3441e-06
-1.82326e-06 3.3441e-06 0.000115044
0.00165898 -0.000235486 -6.16613e-07
-0.000235486 0.000179455 -1.02907e-07
-6.16613e-07 -1.02907e-07 1.52013e-05
0.00129188 -0.000181112 -6.45107e-06
-0.000181112 6.93865e-05 1.90801e-06
-6.45107e-06 1.90801e-06 -9.32815e-05
0.00162502 -0.000260509 4.40052e-06
-0.000260509 0.000187935 -7.01151e-08
4.40052e-06 -7.01151e-08 7.1964e-06
0.00125373 -0.000200547 -1.175e-07
-0.000200547 6.70117e-05 -3.10606e-08
-1.175e-07 -3.10606e-08 -0.000102897
0.00098791 -0.000152813 -1.25587e-05
-0.000152813 1.56657e-05 5.97662e-06
-1.25587e-05 5.97662e-06 -0.000125647
0.000455813 -0.00016124 -1.98892e-05
-0.00016124 -0.000142041 1.31654e-05
-1.98892e-05 1.31654e-05 -0.000233357
0.000938874 -0.000166324 1.93747e-07
-0.000166324 9.61271e-06 -5.23337e-08
1.93747e-07 -5.23337e-08 -0.000138761
0.00128498 -0.000225763 5.49651e-06
-0.000225763 0.000120719 -1.83117e-06
5.49651e-06 -1.83117e-06 -6.06737e-05
0.00532561 0.000136199 -0.000160441
0.000136199 0.0028149 8.65031e-06
-0.000160441 8.65031e-06 0.002803
0.000563902 -0.000161584 -2.02041e-06
-0.000161584 -7.41238e-05 5.86471e-07
-2.02041e-06 5.86471e-07 -0.000161536
0.000846377 -0.000171459 1.01539e-05
-0.000171459 1.34681e-07 -5.531e-06
1.01539e-05 -5.531e-06 -0.000156636
0.00504845 0.00015387 7.82183e-06
0.00015387 0.00266167 8.22625e-07
7.82183e-06 8.22625e-07 0.00264608
0.000701031 -0.000144384 2.01544e-05
-0.000144384 2.14152e-05 -1.37089e-05
2.01544e-05 -1.37089e-05 -6.13711e-05
0.0046554 0.000123822 0.000150334
0.000123822 0.00242193 -9.06966e-06
0.000150334 -9.06966e-06 0.00241491
0.00138323 0.000293109 -3.2025e-06
0.000293109 0.000148546 1.01354e-06
-3.2025e-06 1.01354e-06 -5.88011e-05
0.00113539 0.000265825 4.04381e-07
0.000265825 5.61618e-05 4.80551e-07
4.04381e-07 4.80551e-07 -0.000159276
0.00107861 0.00022241 -6.56033e-06
0.00022241 9.16873e-05 -1.60615e-06
-6.56033e-06 -1.60615e-06 -0.000102186
0.00095955 0.000233315 -5.39912e-07
0.000233315 7.15382e-05 2.90037e-06
-5.39912e-07 2.90037e-06 -0.000141334
0.00103615 0.000209283 -1.60799e-06
0.000209283 0.000171002 7.27899e-07
-1.60799e-06 7.27899e-07 -2.21201e-05
0.000895042 0.000166366 -6.16743e-06
0.000166366 0.000148439 -5.53383e-06
-6.16743e-06 -5.53383e-06 -8.6598e-06
0.00103199 0.000172175 -6.2715e-07
0.000172175 0.000238927 8.46694e-07
-6.2715e-07 8.46694e-07 6.99608e-05
0.000733822 0.000103089 -1.35229e-07
0.000103089 9.1957e-05 -3.77371e-07
-1.35229e-07 -3.77371e-07 -4.05894e-05
0.00069809 3.28035e-05 -1.00033e-05
3.28035e-05 6.18363e-05 -1.09749e-05
-1.00033e-05 -1.09749e-05 4.78234e-06
0.000594282 5.39627e-07 1.14131e-06
5.39627e-07 5.09556e-06 4.00216e-06
1.14131e-06 4.00216e-06 -9.56756e-05
0.000507477 -2.42423e-05 -1.16879e-07
-2.42423e-05 -3.95331e-05 -2.65268e-07
-1.16879e-07 -2.65268e-07 -8.46587e-05
0.00337837 -0.000129844 -9.54057e-05
-0.000129844 0.00167725 -2.72878e-06
-9.54057e-05 -2.72878e-06 0.00167421
0.00046489 -3.6355e-05 2.28049e-06
-3.6355e-05 -6.51765e-05 7.7306e-06
2.28049e-06 7.7306e-06 -0.000104336
0.00302562 -0.000134508 -2.97152e-06
-0.000134508 0.00146467 3.45592e-07
-2.97152e-06 3.45592e-07 0.00146076
0.002876 -0.000121539 5.2133e-05
-0.000121539 0.00136758 3.11369e-06
5.2133e-05 3.11369e-06 0.00136674
0.000600603 5.62498e-05 1.74587e-05
5.62498e-05 -0.000541946 -3.50883e-06
1.74587e-05 -3.50883e-06 -0.000509394
0.00199234 2.20406e-05 -6.94769e-06
2.20406e-05 -0.000215969 -1.1514e-06
-6.94769e-06 -1.1514e-06 -0.000141124
0.00425138 3.24076e-05 0.000138191
3.24076e-05 -0.000234758 3.93931e-05
0.000138191 3.93931e-05 0.000144417
0.00209227 0.000421295 -1.86986e-06
0.000421295 0.000367964 1.13632e-06
-1.86986e-06 1.13632e-06 0.000169954
0.00118937 0.000343537 5.86006e-07
0.000343537 -1.97293e-06 -2.04461e-06
5.86006e-07 -2.04461e-06 -0.00021206
0.00194253 0.000350206 -1.85892e-07
0.000350206 0.000245557 3.16197e-06
-1.85892e-07 3.16197e-06 6.73477e-05
0.0017223 0.000363118 8.19308e-07
0.000363118 0.000241929 2.39352e-07
8.19308e-07 2.39352e-07 3.52692e-05
0.00111598 0.000318316 1.1527e-06
0.000318316 -4.36535e-06 -4.62047e-06
1.1527e-06 -4.62047e-06 -0.000232933
0.0018399 0.00037654 -2.29247e-06
0.00037654 9.22069e-05 1.49473e-06
-2.29247e-06 1.49473e-06 -6.62302e-05
0.00208104 0.000419354 -3.66518e-06
0.000419354 0.000601926 -1.19894e-06
-3.66518e-06 -1.19894e-06 0.000384246
0.00199667 0.000461682 -2.93438e-08
0.000461682 0.000300696 -6.38117e-07
-2.93438e-08 -6.38117e-07 0.000101881
0.00179782 0.000267375 -5.20373e-06
0.000267375 -9.02368e-06 1.19291e-08
-5.20373e-06 1.19291e-08 -0.00010808
0.00267688 0.000548528 4.53573e-06
0.000548528 0.00067532 2.84087e-06
4.53573e-06 2.84087e-06 0.00048394
0.00193158 0.000454794 -1.59902e-06
0.000454794 0.000154835 1.33507e-07
-1.59902e-06 1.33507e-07 -7.04567e-06
0.000870516 0.00023793 3.69301e-06
0.00023793 -0.00035011 2.77012e-06
3.69301e-06 2.77012e-06 -0.000400106
-0.000237953 0.000315873 -7.95755e-07
0.000315873 -0.000843403 -4.26589e-06
-7.95755e-07 -4.26589e-06 -0.000963545
0.00190742 0.000366566 -4.9009e-05
0.000366566 1.69752e-06 -2.34425e-05
-4.9009e-05 -2.34425e-05 -1.57703e-05
0.00182614 3.85151e-05 8.55901e-07
3.85151e-05 -6.01746e-05 -2.02282e-06
8.55901e-07 -2.02282e-06 -7.45588e-05
0.00214243 -3.25387e-05 8.27823e-07
-3.25387e-05 0.000394137 2.56785e-06
8.27823e-07 2.56785e-06 0.000391362
0.00157363 -3.9782e-05 -5.77566e-05
-3.9782e-05 -0.000203457 -4.85003e-06
-5.77566e-05 -4.85003e-06 -0.00029979
0.0022465 -0.000216586 -3.16282e-05
-0.000216586 0.000126809 1.54096e-06
-3.16282e-05 1.54096e-06 0.000225163
0.00133833 -7.31387e-05 -7.43266e-06
-7.31387e-05 -0.000216434 4.37237e-07
-7.43266e-06 4.37237e-07 -0.000248092
0.00195609 -0.000172638 1.80223e-07
-0.000172638 -3.22976e-05 -6.04301e-07
1.80223e-07 -6.04301e-07 -7.10838e-06
0.00206664 -2.70275e-05 -3.38943e-06
-2.70275e-05 5.88659e-05 1.04162e-06
-3.38943e-06 1.04162e-06 4.54017e-05
0.00206081 -6.36684e-05 -4.49567e-06
-6.36684e-05 4.69207e-05 -3.1201e-07
-4.49567e-06 -3.1201e-07 3.85921e-05
0.00198308 -0.00024078 -3.66382e-06
-0.00024078 -2.45847e-06 -3.04415e-07
-3.66382e-06 -3.04415e-07 2.90743e-05
0.00194835 -0.000189155 4.71869e-07
-0.000189155 2.38415e-05 -2.21062e-07
4.71869e-07 -2.21062e-07 -3.42532e-07
0.0020453 -0.000156618 -1.04567e-06
-0.000156618 0.000116518 -3.25126e-07
-1.04567e-06 -3.25126e-07 7.00609e-05
0.0017737 -0.000238023 6.76226e-07
-0.000238023 2.24002e-05 -1.20286e-06
6.76226e-07 -1.20286e-06 -4.47726e-05
0.00182605 -0.000211449 5.9356e-08
-0.000211449 7.57534e-05 -7.91886e-08
5.9356e-08 -7.91886e-08 -8.2962e-06
0.00175999 -0.000178384 8.50026e-07
-0.000178384 6.865e-05 -4.2833e-07
8.50026e-07 -4.2833e-07 -3.32159e-05
0.00180602 -0.000235934 8.17967e-08
-0.000235934 0.000115632 -4.70475e-07
8.17967e-08 -4.70475e-07 1.67951e-05
0.00178288 -0.000220963 2.20252e-08
-0.000220963 0.000121856 -2.04205e-07
2.20252e-08 -2.04205e-07 4.43596e-06
0.00167387 -0.000194772 6.11718e-07
-0.000194772 0.000121689 -7.59011e-07
6.11718e-07 -7.59011e-07 -2.07037e-05
0.00177859 -0.000246401 -1.34597e-06
-0.000246401 0.000157766 1.22826e-06
-1.34597e-06 1.22826e-06 2.40887e-05
0.00164295 -0.00021707 -2.88204e-07
-0.00021707 0.000140717 -2.26167e-08
-2.88204e-07 -2.26167e-08 -1.35765e-05
0.00134837 -0.000165518 -5.1398e-06
-0.000165518 8.25227e-05 1.58466e-06
-5.1398e-06 1.58466e-06 -7.53126e-05
0.00166856 -0.000236327 1.17071e-06
-0.000236327 0.000185538 8.20715e-07
1.17071e-06 8.20715e-07 2.23593e-05
0.00132142 -0.000182742 -2.06201e-07
-0.000182742 8.47916e-05 4.77639e-08
-2.06201e-07 4.77639e-08 -7.77546e-05
0.000997214 -0.000135259 -1.32021e-05
-0.000135259 5.84833e-06 5.49714e-06
-1.32021e-05 5.49714e-06 -0.000130933
0.00123391 -0.0002007 6.44628e-06
-0.0002007 5.48516e-05 -1.78948e-06
6.44628e-06 -1.78948e-06 -0.000115366
0.000980438 -0.000150906 2.68221e-07
-0.000150906 1.08289e-05 6.23595e-08
2.68221e-07 6.23595e-08 -0.000130111
0.0023966 -0.000105773 -2.7584e-05
-0.000105773 0.000994184 8.22845e-06
-2.7584e-05 8.22845e-06 0.000918155
0.00167476 -4.40184e-05 -0.000174683
-4.40184e-05 0.000633178 1.86764e-05
-0.000174683 1.86764e-05 0.000615304
0.00152469 -0.000141855 -4.67422e-06
-0.000141855 0.00048448 -3.29772e-07
-4.67422e-06 -3.29772e-07 0.000398593
0.000920817 -0.000164576 1.13675e-05
-0.000164576 -3.46614e-07 -5.71258e-06
1.13675e-05 -5.71258e-06 -0.000148614
0.00543104 0.000117398 -5.19464e-06
0.000117398 0.00288187 -7.55585e-07
-5.19464e-06 -7.55585e-07 0.00286761
0.000627872 -0.000181424 2.20516e-05
-0.000181424 -3.59047e-05 -1.36398e-05
2.20516e-05 -1.36398e-05 -0.000127146
0.00520759 0.000130674 0.000165762
0.000130674 0.00275678 -1.31719e-05
0.000165762 -1.31719e-05 0.00274054
0.0019066 0.000280252 1.00732e-06
0.000280252 0.000191619 5.4278e-07
1.00732e-06 5.4278e-07 3.65948e-05
0.00160893 0.000302261 9.37246e-07
0.000302261 0.000174226 2.54528e-06
9.37246e-07 2.54528e-06 -1.62895e-05
0.00154383 0.000310144 -1.76582e-07
0.000310144 0.000236066 -8.44827e-08
-1.76582e-07 -8.44827e-08 2.67269e-05
0.0012423 0.000234565 -6.77225e-06
0.000234565 0.000113467 -1.86436e-06
-6.77225e-06 -1.86436e-06 -7.33664e-05
0.00111576 0.000263853 5.02049e-06
0.000263853 4.40262e-05 6.87909e-07
5.02049e-06 6.87909e-07 -0.000170786
0.00111624 0.000225067 -5.37675e-07
0.000225067 0.000114472 4.216e-07
-5.37675e-07 4.216e-07 -7.97812e-05
0.000828498 0.000169863 -9.08808e-06
0.000169863 3.2379e-05 -4.77806e-06
-9.08808e-06 -4.77806e-06 -0.000127297
0.00108463 0.000212332 1.73442e-06
0.000212332 0.000201989 4.53117e-06
1.73442e-06 4.53117e-06 8.16773e-06
0.000802877 0.000151946 -4.22889e-07
0.000151946 9.55163e-05 3.61023e-07
-4.22889e-07 3.61023e-07 -5.93307e-05
0.000775114 0.000112661 -1.66996e-05
0.000112661 9.11711e-05 -1.31863e-05
-1.66996e-05 -1.31863e-05 1.56728e-05
0.000615082 7.49233e-05 1.85403e-06
7.49233e-05 2.02564e-05 3.91881e-06
1.85403e-06 3.91881e-06 -0.000106016
0.000527134 2.04142e-05 -9.03381e-07
2.04142e-05 -3.51999e-05 -5.40625e-07
-9.03381e-07 -5.40625e-07 -8.97747e-05
0.00389214 -0.000124338 -0.000125849
-0.000124338 0.00198405 -5.38797e-06
-0.000125849 -5.38797e-06 0.00197898
0.000414693 -3.21399e-05 2.32918e-06
-3.21399e-05 -9.04632e-05 8.69905e-06
2.32918e-06 8.69905e-06 -0.00013612
0.00326631 -0.000146104 -4.02819e-06
-0.000146104 0.00161406 3.65739e-07
-4.02819e-06 3.65739e-07 0.00160693
0.00298234 -0.000135809 5.88582e-05
-0.000135809 0.0014391 2.50381e-06
5.88582e-05 2.50381e-06 0.00143464
0.00184623 0.00014636 4.32187e-08
0.00014636 -4.11602e-05 -9.00015e-07
4.32187e-08 -9.00015e-07 -8.6763e-05
0.00193435 4.56859e-05 1.52954e-05
4.56859e-05 0.000160826 1.67511e-06
1.52954e-05 1.67511e-06 0.000182502
0.00417913 7.39589e-06 -9.25807e-05
7.39589e-06 0.000739173 -1.28781e-05
-9.25807e-05 -1.28781e-05 0.000844224
0.00174948 0.00032566 -2.50536e-06
0.00032566 5.9671e-05 1.30136e-06
-2.50536e-06 1.30136e-06 -9.392e-05
0.0017868 0.000396014 -1.28014e-06
0.000396014 0.000208073 -1.10639e-07
-1.28014e-06 -1.10639e-07 1.20562e-05
0.00151872 0.000390303 -1.49272e-05
0.000390303 0.000176872 -7.00502e-06
-1.49272e-05 -7.00502e-06 -3.9664e-05
0.00197366 0.000341014 2.53911e-06
0.000341014 0.000271693 8.56921e-07
2.53911e-06 8.56921e-07 9.56331e-05
0.0017379 0.00036283 -1.40146e-06
0.00036283 0.000251222 -2.31793e-06
-1.40146e-06 -2.31793e-06 4.49878e-05
0.00215429 0.000265118 1.40874e-06
0.000265118 0.000205939 1.09259e-06
1.40874e-06 1.09259e-06 0.00010529
0.00171199 0.000370167 -1.26974e-06
0.000370167 3.37062e-05 7.91344e-07
-1.26974e-06 7.91344e-07 -0.000125435
0.00217692 0.000468837 4.41861e-08
0.000468837 0.000411399 -5.35134e-07
4.41861e-08 -5.35134e-07 0.000210363
0.00180064 0.000272615 -9.82697e-07
0.000272615 -7.05705e-08 4.86203e-08
-9.82697e-07 4.86203e-08 -0.000101148
0.00203387 0.000463782 1.77009e-05
0.000463782 0.000192766 1.48184e-06
1.77009e-05 1.48184e-06 2.77621e-05
0.0013243 0.000253138 -2.36184e-05
0.000253138 -8.14293e-05 -4.98791e-06
-2.36184e-05 -4.98791e-06 -0.000140791
0.00200775 4.87298e-05 -4.62126e-06
4.87298e-05 4.12518e-05 -3.5824e-07
-4.62126e-06 -3.5824e-07 1.73618e-05
0.00192083 4.97744e-05 -2.42247e-06
4.97744e-05 3.63763e-08 3.51673e-07
-2.42247e-06 3.51673e-07 -1.8019e-05
0.00285475 -2.04962e-05 -3.91313e-05
-2.04962e-05 0.000831868 -7.49576e-08
-3.91313e-05 -7.49576e-08 0.000823168
0.00187973 -0.000164428 -7.80106e-06
-0.000164428 -8.2471e-05 -1.57794e-06
-7.80106e-06 -1.57794e-06 -4.81818e-05
0.00196503 -2.68351e-05 3.58241e-06
-2.68351e-05 -2.3364e-05 -3.88728e-07
3.58241e-06 -3.88728e-07 -3.30316e-05
0.00202536 -6.8134e-05 -3.80929e-07
-6.8134e-05 1.12153e-05 8.20869e-08
-3.80929e-07 8.20869e-08 8.03755e-06
0.00191927 -4.84193e-05 -2.16426e-06
-4.84193e-05 5.1712e-05 -1.34271e-07
-2.16426e-06 -1.34271e-07 1.81615e-05
0.00192983 -0.000179864 2.65667e-06
-0.000179864 2.5373e-05 -4.83454e-07
2.65667e-06 -4.83454e-07 -1.53451e-07
0.00189621 -0.000155175 4.23108e-07
-0.000155175 4.03407e-05 -1.8588e-08
4.23108e-07 -1.8588e-08 -1.17761e-05
0.00181326 -0.000122322 2.97317e-06
-0.000122322 7.28285e-05 -1.24683e-06
2.97317e-06 -1.24683e-06 -1.59593e-05
0.00173835 -0.000207275 1.12477e-06
-0.000207275 2.91289e-05 -2.30105e-07
1.12477e-06 -2.30105e-07 -5.64017e-05
0.00181044 -0.000180211 -2.41026e-09
-0.000180211 9.52866e-05 -5.57353e-08
-2.41026e-09 -5.57353e-08 -6.64208e-06
0.00175172 -0.000162749 9.01615e-07
-0.000162749 0.000125931 -5.98765e-07
9.01615e-07 -5.98765e-07 -4.16022e-06
0.00180921 -0.000220946 -8.62196e-07
-0.000220946 0.000138925 4.97081e-07
-8.62196e-07 4.97081e-07 2.15408e-05
0.0016956 -0.000195142 -2.57798e-07
-0.000195142 0.000134367 -3.12059e-08
-2.57798e-07 -3.12059e-08 -7.78167e-06
0.00139232 -0.00014555 -4.12046e-06
-0.00014555 8.61339e-05 1.10897e-06
-4.12046e-06 1.10897e-06 -6.62516e-05
0.00166423 -0.000217653 -9.11683e-09
-0.000217653 0.000153119 7.10961e-07
-9.11683e-09 7.10961e-07 -8.36757e-07
0.00135735 -0.000165828 -1.22714e-07
-0.000165828 8.5574e-05 8.91352e-08
-1.22714e-07 8.91352e-08 -7.19744e-05
0.00099057 -0.000118306 -1.29961e-05
-0.000118306 -7.92239e-06 4.81453e-06
-1.29961e-05 4.81453e-06 -0.000142557
0.00135237 -0.000184504 5.72682e-06
-0.000184504 0.000100959 -1.68332e-06
5.72682e-06 -1.68332e-06 -6.14846e-05
0.000997414 -0.00013331 1.82875e-07
-0.00013331 4.85458e-06 8.55962e-08
1.82875e-07 8.55962e-08 -0.000131346
0.00245301 -0.000113974 -3.52731e-05
-0.000113974 0.00101292 7.46393e-06
-3.52731e-05 7.46393e-06 0.000944039
0.000965835 -0.000148788 1.25469e-05
-0.000148788 1.96645e-06 -5.72473e-06
1.25469e-05 -5.72473e-06 -0.000138609
0.0025646 -0.000151845 3.6659e-05
-0.000151845 0.00108731 -4.52883e-06
3.6659e-05 -4.52883e-06 0.00101753
0.00174493 -8.42232e-05 -0.000178938
-8.42232e-05 0.000681056 2.28864e-05
-0.000178938 2.28864e-05 0.000661737
0.00353326 -1.17541e-05 -0.000176097
-1.17541e-05 0.00175082 1.05597e-05
-0.000176097 1.05597e-05 0.00173662
0.00265445 -0.000203428 0.000111426
-0.000203428 0.00114466 -1.49829e-05
0.000111426 -1.49829e-05 0.00107741
0.00552376 0.000105225 0.000174827
0.000105225 0.00294662 -1.71656e-05
0.000174827 -1.71656e-05 0.00292725
0.00204664 0.000279665 -1.61018e-06
0.000279665 0.000245705 -6.33346e-07
-1.61018e-06 -6.33346e-07 0.000104779
0.00156016 0.000250545 2.70691e-06
0.000250545 9.15728e-05 9.76924e-07
2.70691e-06 9.76924e-07 -7.64655e-05
0.00189711 0.000280072 4.1851e-07
0.000280072 0.000182595 -1.11787e-06
4.1851e-07 -1.11787e-06 3.1489e-05
0.00130648 0.000226373 -6.49468e-06
0.000226373 0.000100738 -1.35327e-06
-6.49468e-06 -1.35327e-06 -7.65579e-05
0.00166853 0.000303862 5.25087e-07
0.000303862 0.00020178 3.91755e-07
5.25087e-07 3.91755e-07 1.06657e-05
0.001716 0.000328459 2.65957e-06
0.000328459 0.000329642 -6.66348e-07
2.65957e-06 -6.66348e-07 0.000118129
0.00119706 0.000229284 7.49174e-08
0.000229284 9.17105e-05 -2.09292e-08
7.49174e-08 -2.09292e-08 -9.41013e-05
0.000882007 0.000168489 -1.07261e-05
0.000168489 -1.91388e-06 -5.54204e-06
-1.07261e-05 -5.54204e-06 -0.000154941
0.00115187 0.00022774 6.13969e-06
0.00022774 0.000135652 2.71695e-06
6.13969e-06 2.71695e-06 -5.89982e-05
0.000843555 0.000165871 -6.77942e-07
0.000165871 3.84758e-05 6.25002e-07
-6.77942e-07 6.25002e-07 -0.000120376
0.000662261 0.000167516 -2.14136e-05
0.000167516 4.15755e-06 -1.35253e-05
-2.14136e-05 -1.35253e-05 -8.4486e-05
0.000685056 0.000134441 3.53204e-06
0.000134441 2.78459e-05 5.66692e-06
3.53204e-06 5.66692e-06 -0.000124319
0.000549279 8.66855e-05 -7.97706e-07
8.66855e-05 -3.75901e-05 -4.97345e-08
-7.97706e-07 -4.97345e-08 -0.000108319
0.0046994 -0.000118208 -0.000158393
-0.000118208 0.00246726 -1.08726e-05
-0.000158393 -1.08726e-05 0.00245472
0.00035225 -5.05131e-06 4.58016e-06
-5.05131e-06 -0.000130833 1.01013e-05
4.58016e-06 1.01013e-05 -0.000185
0.00372875 -0.000158153 -7.1386e-06
-0.000158153 0.00189458 4.79486e-07
-7.1386e-06 4.79486e-07 0.00188299
0.00318043 -0.000151925 6.75157e-05
-0.000151925 0.0015644 1.98631e-06
6.75157e-05 1.98631e-06 0.0015556
0.00187976 0.000155562 -8.42575e-07
0.000155562 -8.48686e-06 5.00545e-07
-8.42575e-07 5.00545e-07 -6.985e-05
0.0018383 0.000145618 6.8146e-07
0.000145618 -4.47911e-05 -2.24143e-07
6.8146e-07 -2.24143e-07 -9.0352e-05
0.00291275 3.63907e-05 -6.2121e-05
3.63907e-05 0.000678907 -5.44852e-06
-6.2121e-05 -5.44852e-06 0.000700121
0.00200274 0.000236312 1.53217e-06
0.000236312 0.000151918 1.03704e-06
1.53217e-06 1.03704e-06 4.17864e-05
0.00175311 0.00032095 -5.75944e-07
0.00032095 7.68068e-05 2.83523e-07
-5.75944e-07 2.83523e-07 -7.61624e-05
0.00148646 0.000371378 -7.05972e-07
0.000371378 4.95983e-05 -2.27478e-06
-7.05972e-07 -2.27478e-06 -0.000144571
0.00200637 0.000331533 -7.69996e-07
0.000331533 0.000299311 -2.35217e-06
-7.69996e-07 -2.35217e-06 0.000125494
0.00200861 0.00025635 -1.13785e-06
0.00025635 0.000122285 -2.29347e-07
-1.13785e-06 -2.29347e-07 2.1269e-05
0.00159697 0.000363962 -4.55957e-07
0.000363962 -1.78725e-05 -2.54975e-07
-4.55957e-07 -2.54975e-07 -0.000177641
0.00180595 0.000274688 7.51267e-06
0.000274688 2.23113e-05 -5.77384e-07
7.51267e-06 -5.77384e-07 -7.99586e-05
0.00190815 4.48343e-05 -1.35656e-06
4.48343e-05 3.67756e-05 3.12043e-07
-1.35656e-06 3.12043e-07 -2.60532e-06
0.00196891 4.85015e-05 5.69106e-07
4.85015e-05 2.66816e-05 -1.70596e-08
5.69106e-07 -1.70596e-08 4.73358e-07
0.0019803 6.00702e-05 -6.0622e-06
6.00702e-05 3.59839e-05 4.23023e-07
-6.0622e-06 4.23023e-07 1.64509e-05
0.00158439 -1.05527e-05 -2.32444e-06
-1.05527e-05 -9.78092e-05 1.22624e-08
-2.32444e-06 1.22624e-08 -0.000148356
0.00198838 -7.67689e-05 4.68799e-06
-7.67689e-05 -2.53021e-05 -3.22156e-07
4.68799e-06 -3.22156e-07 -2.35724e-05
0.00188856 -5.08141e-05 -1.05487e-06
-5.08141e-05 3.22112e-05 5.62862e-07
-1.05487e-06 5.62862e-07 -1.93627e-06
0.00186984 -6.50979e-05 -4.53131e-07
-6.50979e-05 0.000102527 -8.4262e-07
-4.53131e-07 -8.4262e-07 2.59343e-05
0.00175166 -0.000153839 2.6351e-06
-0.000153839 -3.34727e-05 -3.29776e-07
2.6351e-06 -3.29776e-07 -9.14273e-05
0.00184393 -0.000123326 2.26957e-06
-0.000123326 8.41325e-05 -6.7241e-07
2.26957e-06 -6.7241e-07 -4.40509e-06
0.00180339 -0.00011474 2.32583e-06
-0.00011474 0.000130894 -1.27622e-06
2.32583e-06 -1.27622e-06 1.23257e-05
0.00186822 -0.000181711 -7.0735e-07
-0.000181711 0.000126256 3.24343e-07
-7.0735e-07 3.24343e-07 2.4348e-05
0.00175643 -0.000161221 -1.23985e-07
-0.000161221 0.000130893 -4.18905e-08
-1.23985e-07 -4.18905e-08 1.12744e-06
0.00142924 -0.00011828 -3.29739e-06
-0.00011828 8.33696e-05 5.96014e-07
-3.29739e-06 5.96014e-07 -6.18997e-05
0.00171592 -0.000195358 -6.39888e-07
-0.000195358 0.00014639 6.06377e-07
-6.39888e-07 6.06377e-07 4.50407e-06
0.00138865 -0.000145034 -1.32202e-07
-0.000145034 8.15475e-05 1.41699e-07
-1.32202e-07 1.41699e-07 -7.05066e-05
0.000996278 -0.000100551 -1.26406e-05
-0.000100551 -1.42065e-05 3.90927e-06
-1.26406e-05 3.90927e-06 -0.000146935
0.00136427 -0.00016597 4.61023e-06
-0.00016597 8.74696e-05 -1.32905e-06
4.61023e-06 -1.32905e-06 -6.97689e-05
0.00100621 -0.000116541 4.07468e-08
-0.000116541 -4.30791e-07 1.95179e-07
4.07468e-08 1.95179e-07 -0.000134363
0.00249221 -0.000123959 -4.30569e-05
-0.000123959 0.00102887 7.18023e-06
-4.30569e-05 7.18023e-06 0.000962287
0.000993085 -0.00013121 1.3088e-05
-0.00013121 1.12695e-06 -5.35474e-06
1.3088e-05 -5.35474e-06 -0.000134452
0.00255967 -0.000145774 3.33917e-05
-0.000145774 0.0010736 -3.82596e-06
3.33917e-05 -3.82596e-06 0.00100887
0.00179613 -7.3529e-05 -0.000175383
-7.3529e-05 0.000706188 2.05561e-05
-0.000175383 2.05561e-05 0.000687723
0.00270838 -0.000169968 0.000110925
-0.000169968 0.00116767 -1.70522e-05
0.000110925 -1.70522e-05 0.00110278
0.00152518 -2.07241e-05 -8.07726e-05
-2.07241e-05 0.000558851 8.86068e-06
-8.07726e-05 8.86068e-06 0.000529994
0.00526315 0.000188682 2.50858e-05
0.000188682 0.00278528 -2.4496e-06
2.50858e-05 -2.4496e-06 0.00275454
0.00185152 0.000226249 8.49947e-07
0.000226249 0.00011618 3.73934e-07
8.49947e-07 3.73934e-07 -1.39217e-05
0.00182015 0.000248367 1.15834e-10
0.000248367 0.000200572 -5.98582e-07
1.15834e-10 -5.98582e-07 4.59568e-05
0.00190679 0.000273897 -3.2519e-06
0.000273897 0.00016145 7.01993e-08
-3.2519e-06 7.01993e-08 1.86967e-05
0.00168763 0.000222505 -3.82049e-06
0.000222505 0.000292599 -8.78731e-07
-3.82049e-06 -8.78731e-07 0.000127335
0.00159313 0.000257434 6.01402e-07
0.000257434 0.000104534 -1.14249e-06
6.01402e-07 -1.14249e-06 -6.21712e-05
0.00188797 0.000280009 -2.73326e-06
0.000280009 0.00017371 -3.2851e-06
-2.73326e-06 -3.2851e-06 2.65423e-05
0.000939998 0.000162451 -1.24758e-05
0.000162451 -6.85036e-06 -5.39523e-06
-1.24758e-05 -5.39523e-06 -0.000153379
0.00125662 0.000222459 8.59486e-08
0.000222459 7.31849e-05 2.45384e-07
8.59486e-08 2.45384e-07 -0.000103758
0.00172665 0.000305469 2.82111e-06
0.000305469 0.000227452 -1.29419e-06
2.82111e-06 -1.29419e-06 3.57064e-05
0.00113436 0.00022256 7.24666e-06
0.00022256 6.04386e-05 1.96477e-06
7.24666e-06 1.96477e-06 -0.000124137
0.000891304 0.000168877 -4.10499e-07
0.000168877 2.7342e-06 -2.25094e-07
-4.10499e-07 -2.25094e-07 -0.000150168
0.000594181 0.000199925 -2.41315e-05
0.000199925 -5.06998e-05 -1.34343e-05
-2.41315e-05 -1.34343e-05 -0.000143922
0.000846295 0.000162563 7.91694e-06
0.000162563 3.76639e-05 5.92108e-06
7.91694e-06 5.92108e-06 -0.000120432
0.000574241 0.00015963 1.05894e-06
0.00015963 -4.38057e-05 4.97839e-07
1.05894e-06 4.97839e-07 -0.000131127
0.00536448 -0.000123508 -0.000167126
-0.000123508 0.00287913 -1.79212e-05
-0.000167126 -1.79212e-05 0.0028499
0.000375703 7.1308e-05 1.16675e-05
7.1308e-05 -0.000137188 1.23563e-05
1.16675e-05 1.23563e-05 -0.000203561
0.00443437 -0.000172661 -1.25171e-05
-0.000172661 0.00232114 1.15129e-06
-1.25171e-05 1.15129e-06 0.00230127
0.00354361 -0.000171698 8.11155e-05
-0.000171698 0.00178781 2.02351e-06
8.11155e-05 2.02351e-06 0.00177315
0.00184282 0.000125952 -3.77059e-07
0.000125952 2.27606e-05 1.67253e-06
-3.77059e-07 1.67253e-06 -5.11331e-05
0.00190788 0.000158936 7.35801e-07
0.000158936 3.69727e-06 2.93431e-07
7.35801e-07 2.93431e-07 -5.57723e-05
0.00185267 0.000151046 8.392e-07
0.000151046 -4.10459e-05 9.39916e-07
8.392e-07 9.39916e-07 -8.81266e-05
0.00197167 0.000232187 3.61037e-07
0.000232187 0.000137124 -7.59602e-08
3.61037e-07 -7.59602e-08 2.93611e-05
0.00174363 0.000315567 -9.46928e-07
0.000315567 8.70332e-05 -1.07885e-06
-9.46928e-07 -1.07885e-06 -6.52593e-05
0.00184302 0.000246659 -4.06396e-07
0.000246659 2.90355e-05 -1.11193e-06
-4.06396e-07 -1.11193e-06 -7.22929e-05
0.00183864 4.83511e-05 -3.5946e-07
4.83511e-05 5.66846e-05 6.11148e-08
-3.5946e-07 6.11148e-08 -1.12021e-06
0.0019089 4.32534e-05 5.13707e-07
4.32534e-05 3.89062e-05 -1.13282e-07
5.13707e-07 -1.13282e-07 -4.74014e-07
0.00196216 4.91178e-05 3.7295e-06
4.91178e-05 3.37474e-05 4.95865e-07
3.7295e-06 4.95865e-07 5.11514e-06
0.00175784 -1.57198e-05 -2.46035e-06
-1.57198e-05 3.52755e-06 5.90178e-08
-2.46035e-06 5.90178e-08 -4.58871e-05
0.00173936 -3.45852e-05 6.13905e-08
-3.45852e-05 4.45894e-05 -5.826e-07
6.13905e-08 -5.826e-07 -3.5945e-05
0.00186599 -5.31252e-05 9.30361e-07
-5.31252e-05 1.75145e-05 6.90292e-07
9.30361e-07 6.90292e-07 -1.71356e-05
0.0018486 -6.53169e-05 -1.21955e-06
-6.53169e-05 9.07622e-05 4.49028e-07
-1.21955e-06 4.49028e-07 1.03417e-05
0.00183639 -6.65899e-05 3.14252e-07
-6.65899e-05 0.000149934 -4.21491e-07
3.14252e-07 -4.21491e-07 4.35364e-05
0.0018642 -0.000124535 1.63237e-06
-0.000124535 8.97231e-05 -4.73971e-08
1.63237e-06 -4.73971e-08 1.36597e-06
0.00176638 -0.000115471 1.59021e-06
-0.000115471 0.00011178 -6.432e-07
1.59021e-06 -6.432e-07 -6.97599e-06
0.00145374 -8.21023e-05 -2.54285e-06
-8.21023e-05 7.48296e-05 1.85747e-08
-2.54285e-06 1.85747e-08 -6.2805e-05
0.00174968 -0.000161134 -9.50427e-07
-0.000161134 0.000128637 4.67746e-07
-9.50427e-07 4.67746e-07 -1.04638e-06
0.00142021 -0.000117739 -7.93178e-08
-0.000117739 7.45165e-05 8.14404e-08
-7.93178e-08 8.14404e-08 -7.05339e-05
0.00100019 -7.90203e-05 -1.23449e-05
-7.90203e-05 -2.19754e-05 2.99412e-06
-1.23449e-05 2.99412e-06 -0.000151684
0.00139066 -0.000144716 3.67926e-06
-0.000144716 7.99175e-05 -8.17286e-07
3.67926e-06 -8.17286e-07 -7.17997e-05
0.00101139 -9.85491e-05 -8.95304e-08
-9.85491e-05 -6.86243e-06 2.33872e-07
-8.95304e-08 2.33872e-07 -0.000138946
0.00247946 -0.000138127 -4.68884e-05
-0.000138127 0.00101781 6.52219e-06
-4.68884e-05 6.52219e-06 0.000950368
0.00102226 -0.000114858 1.30171e-05
-0.000114858 7.12189e-06 -4.51925e-06
1.30171e-05 -4.51925e-06 -0.000126088
0.00255804 -0.000132542 3.21773e-05
-0.000132542 0.00106437 -2.90703e-06
3.21773e-05 -2.90703e-06 0.00100182
0.00183729 -6.30665e-05 -0.00017557
-6.30665e-05 0.000723985 1.76887e-05
-0.00017557 1.76887e-05 0.000705984
0.00266543 -0.000146753 0.000109707
-0.000146753 0.00113095 -1.48928e-05
0.000109707 -1.48928e-05 0.0010715
0.00153451 -3.35895e-05 -7.34268e-05
-3.35895e-05 0.000556868 7.85475e-06
-7.34268e-05 7.85475e-06 0.000531176
0.00135984 -1.12175e-05 3.1224e-05
-1.12175e-05 0.000464862 -5.00089e-06
3.1224e-05 -5.00089e-06 0.000429735
0.00191623 0.0001326 -2.91961e-07
0.0001326 0.000130853 1.87971e-06
-2.91961e-07 1.87971e-06 3.27713e-05
0.00177635 0.000207671 -1.08381e-06
0.000207671 0.000142658 2.35484e-07
-1.08381e-06 2.35484e-07 -9.41825e-07
0.00184464 0.000226262 -7.60544e-07
0.000226262 0.00010543 -1.17006e-07
-7.60544e-07 -1.17006e-07 -2.16446e-05
0.00171203 0.000203789 -3.17024e-06
0.000203789 0.000267208 -6.09426e-07
-3.17024e-06 -6.09426e-07 0.000111546
0.00176199 0.000243553 5.44899e-07
0.000243553 0.000171522 2.69407e-08
5.44899e-07 2.69407e-08 1.59016e-05
0.00176871 0.000268359 3.58956e-07
0.000268359 7.88113e-05 9.47377e-08
3.58956e-07 9.47377e-08 -6.58424e-05
0.000990549 0.000149607 -1.3426e-05
0.000149607 -3.51924e-06 -5.07241e-06
-1.3426e-05 -5.07241e-06 -0.000143433
0.00148501 0.000215924 3.23582e-06
0.000215924 0.000170865 7.63542e-07
3.23582e-06 7.63542e-07 5.17965e-06
0.00163285 0.000264695 6.12528e-07
0.000264695 0.00012189 -1.80637e-06
6.12528e-07 -1.80637e-06 -4.35024e-05
0.000546471 0.000173716 -2.24277e-05
0.000173716 -8.88196e-05 -1.20291e-05
-2.24277e-05 -1.20291e-05 -0.000179995
0.000958499 0.000163956 -6.79916e-07
0.000163956 4.36309e-06 1.72405e-07
-6.79916e-07 1.72405e-07 -0.00014232
0.00122279 0.000219634 7.53249e-06
0.000219634 5.49556e-05 2.23774e-06
7.53249e-06 2.23774e-06 -0.000121768
0.000918727 0.000170715 1.10715e-05
0.000170715 1.80073e-05 5.32115e-06
1.10715e-05 5.32115e-06 -0.000135009
0.000552753 0.000183488 1.65136e-06
0.000183488 -7.15291e-05 4.77643e-07
1.65136e-06 4.77643e-07 -0.000165377
0.00566122 -4.13814e-05 -0.000182342
-4.13814e-05 0.00303434 -2.0379e-05
-0.000182342 -2.0379e-05 0.00301342
0.000462507 0.000150796 1.947e-05
0.000150796 -0.000110657 1.35113e-05
1.947e-05 1.35113e-05 -0.000193306
0.00515275 -0.000131325 -2.97239e-06
-0.000131325 0.00273596 -2.02544e-07
-2.97239e-06 -2.02544e-07 0.00271838
0.00416365 -0.000199631 0.000100216
-0.000199631 0.00216657 4.00836e-06
0.000100216 4.00836e-06 0.00214229
0.00175877 8.84547e-05 -1.70526e-06
8.84547e-05 2.00256e-05 1.0678e-06
-1.70526e-06 1.0678e-06 -4.93905e-05
0.00184645 0.000125505 1.10811e-06
0.000125505 2.92832e-05 7.26755e-07
1.10811e-06 7.26755e-07 -4.38954e-05
0.00192661 0.000162428 -1.50261e-07
0.000162428 8.49303e-06 -3.90989e-08
-1.50261e-07 -3.90989e-08 -4.89642e-05
0.00194607 0.00022783 1.10833e-06
0.00022783 0.000125291 -7.22553e-07
1.10833e-06 -7.22553e-07 1.99803e-05
0.00179726 -8.80481e-07 2.40176e-06
-8.80481e-07 8.44523e-05 -4.48903e-07
2.40176e-06 -4.48903e-07 2.07074e-06
0.00191797 4.20638e-05 7.54835e-07
4.20638e-05 9.63189e-05 -1.35257e-07
7.54835e-07 -1.35257e-07 4.15185e-05
0.00190771 4.16146e-05 2.49311e-06
4.16146e-05 4.04608e-05 1.6519e-07
2.49311e-06 1.6519e-07 1.31031e-06
0.00191325 -1.87163e-05 -2.77588e-06
-1.87163e-05 9.3665e-05 4.45451e-07
-2.77588e-06 4.45451e-07 4.53576e-05
0.00172754 -2.61111e-05 -2.00742e-06
-2.61111e-05 3.89991e-05 -3.11471e-07
-2.00742e-06 -3.11471e-07 -3.88938e-05
0.00179344 -2.91311e-05 2.0092e-06
-2.91311e-05 0.000136496 -5.40231e-07
2.0092e-06 -5.40231e-07 3.14345e-05
0.00182428 -6.54701e-05 -2.06707e-06
-6.54701e-05 7.64514e-05 1.17981e-06
-2.06707e-06 1.17981e-06 -7.87721e-06
0.00175472 -6.70264e-05 -2.3679e-07
-6.70264e-05 0.000105299 3.50268e-07
-2.3679e-07 3.50268e-07 -5.22203e-06
0.00151727 -4.76693e-05 -2.97057e-06
-4.76693e-05 9.72669e-05 4.63105e-08
-2.97057e-06 4.63105e-08 -3.05665e-05
0.00174275 -0.000114908 9.65762e-07
-0.000114908 0.000100448 -4.97698e-08
9.65762e-07 -4.97698e-08 -1.82671e-05
0.00144376 -8.00987e-05 4.37805e-07
-8.00987e-05 6.65864e-05 -1.93902e-07
4.37805e-07 -1.93902e-07 -7.06663e-05
0.000996466 -5.3761e-05 -1.22214e-05
-5.3761e-05 -3.21807e-05 2.22521e-06
-1.22214e-05 2.22521e-06 -0.00015866
0.00141325 -0.000115147 3.01763e-06
-0.000115147 6.72199e-05 -4.69898e-07
3.01763e-06 -4.69898e-07 -7.7351e-05
0.00100545 -7.81321e-05 -4.82308e-08
-7.81321e-05 -1.94538e-05 1.74576e-07
-4.82308e-08 1.74576e-07 -0.000148863
0.00060562 -7.75816e-05 -1.9367e-05
-7.75816e-05 -0.000104845 4.70972e-06
-1.9367e-05 4.70972e-06 -0.000178622
0.00102777 -9.66008e-05 1.25782e-05
-9.66008e-05 1.19246e-06 -3.4996e-06
1.25782e-05 -3.4996e-06 -0.000130226
0.00158448 -8.76273e-05 4.4711e-05
-8.76273e-05 0.000479989 -2.87581e-06
4.4711e-05 -2.87581e-06 0.000414014
0.00552608 -0.000116938 -0.000223248
-0.000116938 0.00290567 1.37704e-05
-0.000223248 1.37704e-05 0.00291074
0.00264201 -0.000119736 0.000109002
-0.000119736 0.00110605 -1.20812e-05
0.000109002 -1.20812e-05 0.00104989
0.00155127 -4.57452e-05 -6.61572e-05
-4.57452e-05 0.000562533 5.50291e-06
-6.61572e-05 5.50291e-06 0.000537019
0.00128039 -5.46418e-05 4.23079e-05
-5.46418e-05 0.000417421 -5.84501e-06
4.23079e-05 -5.84501e-06 0.000382274
0.00190608 9.24424e-05 3.45632e-08
9.24424e-05 0.000142882 1.73998e-06
3.45632e-08 1.73998e-06 5.75576e-05
0.00184625 0.000142947 4.58458e-07
0.000142947 0.000168125 1.44689e-06
4.58458e-07 1.44689e-06 4.38269e-05
0.00196082 0.000129946 4.48835e-07
0.000129946 0.000163977 2.4187e-08
4.48835e-07 2.4187e-08 6.5178e-05
0.00147586 0.00016251 -3.76954e-06
0.00016251 9.23952e-05 -4.80415e-07
-3.76954e-06 -4.80415e-07 -5.56769e-05
0.00177013 0.000204733 3.31959e-07
0.000204733 0.000138919 5.36229e-10
3.31959e-07 5.36229e-10 -3.9181e-06
0.00183373 0.000226426 -1.0336e-07
0.000226426 9.15235e-05 -3.7721e-07
-1.0336e-07 -3.7721e-07 -3.25998e-05
0.000705369 0.000115891 -1.52522e-05
0.000115891 -0.000189007 -4.67126e-06
-1.52522e-05 -4.67126e-06 -0.000324648
0.0017341 0.000205324 2.36709e-06
0.000205324 0.000280089 6.35474e-07
2.36709e-06 6.35474e-07 0.000124421
0.00169841 0.000238377 4.20286e-07
0.000238377 0.000139125 -2.31662e-07
4.20286e-07 -2.31662e-07 -1.74786e-05
0.00051689 0.000129004 -1.94237e-05
0.000129004 -0.000124004 -9.51229e-06
-1.94237e-05 -9.51229e-06 -0.000208199
0.000810437 0.000141058 4.25619e-07
0.000141058 -0.000108963 2.46666e-07
4.25619e-07 2.46666e-07 -0.000249583
0.00127149 0.000208669 9.09241e-06
0.000208669 4.24112e-05 2.03438e-06
9.09241e-06 2.03438e-06 -0.000123599
0.00572121 4.46323e-05 -0.000196095
4.46323e-05 0.00304323 -1.96915e-05
-0.000196095 -1.96915e-05 0.00303507
0.000522764 0.000160489 1.24228e-06
0.000160489 -0.000101461 6.19352e-07
1.24228e-06 6.19352e-07 -0.000193485
0.000963001 0.000164702 1.24822e-05
0.000164702 7.59286e-06 5.99205e-06
1.24822e-05 5.99205e-06 -0.000139198
0.000473094 0.000167662 2.04676e-05
0.000167662 -0.000113449 1.32756e-05
2.04676e-05 1.32756e-05 -0.000208516
0.00552255 -5.14562e-05 8.40637e-06
-5.14562e-05 0.00294268 -8.94602e-07
8.40637e-06 -8.94602e-07 0.00292909
0.00490549 -0.000186313 0.000131776
-0.000186313 0.00259951 6.99787e-06
0.000131776 6.99787e-06 0.00257524
0.00181774 6.18102e-05 -1.34099e-06
6.18102e-05 9.14702e-05 -6.9805e-07
-1.34099e-06 -6.9805e-07 9.28092e-06
0.00184616 8.94168e-05 2.01657e-07
8.94168e-05 7.02859e-05 5.0334e-07
2.01657e-07 5.0334e-07 4.34975e-08
0.00184739 0.000124905 1.40432e-06
0.000124905 3.44602e-05 -2.51525e-08
1.40432e-06 -2.51525e-08 -3.80973e-05
0.00168942 4.35273e-06 2.38702e-06
4.35273e-06 6.69392e-05 -5.33053e-07
2.38702e-06 -5.33053e-07 -3.99997e-05
0.001738 1.35495e-06 6.61483e-07
1.35495e-06 5.4149e-05 2.39375e-08
6.61483e-07 2.39375e-08 -2.67068e-05
0.00199995 3.45794e-05 6.676e-07
3.45794e-05 0.000137756 -6.6476e-08
6.676e-07 -6.6476e-08 8.5798e-05
0.00171834 -1.89478e-05 -2.77828e-06
-1.89478e-05 3.49677e-05 9.43076e-07
-2.77828e-06 9.43076e-07 -4.01977e-05
0.00176756 -2.45601e-05 9.62445e-07
-2.45601e-05 0.000120744 -1.22495e-07
9.62445e-07 -1.22495e-07 1.58955e-05
0.00173083 -1.81401e-05 -1.03061e-06
-1.81401e-05 0.000221034 -3.9191e-07
-1.03061e-06 -3.9191e-07 9.88759e-05
0.00167001 -6.75079e-05 -1.46982e-06
-6.75079e-05 5.93239e-05 9.87513e-07
-1.46982e-06 9.87513e-07 -5.53144e-05
0.00158829 -4.75606e-05 3.44965e-08
-4.75606e-05 0.000139841 6.61245e-08
3.44965e-08 6.61245e-08 1.0877e-05
0.00077362 -2.59921e-05 -1.38263e-05
-2.59921e-05 -0.000168871 1.43446e-06
-1.38263e-05 1.43446e-06 -0.00029374
0.0014282 -8.01437e-05 3.19726e-06
-8.01437e-05 5.50626e-05 -4.43532e-07
3.19726e-06 -4.43532e-07 -8.20749e-05
0.00099989 -5.07234e-05 -3.57665e-08
-5.07234e-05 -3.09928e-05 1.29396e-07
-3.57665e-08 1.29396e-07 -0.000157051
0.000607556 -2.03746e-05 -1.82953e-05
-2.03746e-05 -0.000107511 3.0798e-06
-1.82953e-05 3.0798e-06 -0.000180492
0.00102186 -7.65371e-05 1.22725e-05
-7.65371e-05 -1.0935e-05 -2.64274e-06
1.22725e-05 -2.64274e-06 -0.0001399
0.000611023 -6.10929e-05 -2.00764e-07
-6.10929e-05 -9.96867e-05 3.30419e-07
-2.00764e-07 3.30419e-07 -0.000174893
0.00554233 -1.13915e-05 -0.000214508
-1.13915e-05 0.00291187 8.39742e-06
-0.000214508 8.39742e-06 0.00291909
0.000638997 -6.55122e-05 1.60855e-05
-6.55122e-05 -8.12734e-05 -6.60792e-06
1.60855e-05 -6.60792e-06 -0.000158234
0.00348769 -7.70575e-05 0.000100874
-7.70575e-05 0.00170573 -3.54257e-06
0.000100874 -3.54257e-06 0.00168947
0.00123011 -7.10354e-05 4.83973e-05
-7.10354e-05 0.000389612 -6.41358e-06
4.83973e-05 -6.41358e-06 0.000351788
0.00180188 8.78586e-05 -5.76223e-07
8.78586e-05 0.000103461 1.37812e-07
-5.76223e-07 1.37812e-07 1.34661e-05
0.00170865 8.48165e-05 2.33824e-06
8.48165e-05 8.84263e-05 2.20569e-06
2.33824e-06 2.20569e-06 -2.5862e-05
0.00192649 8.98778e-05 -4.27806e-08
8.98778e-05 0.000156787 -3.6521e-07
-4.27806e-08 -3.6521e-07 7.23352e-05
0.00145134 0.000115355 -2.54171e-06
0.000115355 6.38442e-05 -2.02004e-07
-2.54171e-06 -2.02004e-07 -7.6575e-05
0.00180885 0.00014172 5.51892e-07
0.00014172 0.000142405 1.61933e-07
5.51892e-07 1.61933e-07 1.68013e-05
0.00201056 0.00012715 -2.19298e-07
0.00012715 0.0002002 -1.89242e-06
-2.19298e-07 -1.89242e-06 0.000100715
0.000747397 9.53813e-05 -1.45502e-05
9.53813e-05 -0.000179241 -3.52607e-06
-1.45502e-05 -3.52607e-06 -0.0003105
0.00160065 0.000165177 -2.47879e-07
0.000165177 0.000168291 1.60666e-07
-2.47879e-07 1.60666e-07 2.013e-05
0.00176547 0.000201813 8.36932e-07
0.000201813 0.000136495 -4.63287e-07
8.36932e-07 -4.63287e-07 -5.57123e-06
0.000527937 9.14866e-05 -1.78788e-05
9.14866e-05 -0.000135434 -7.0913e-06
-1.78788e-05 -7.0913e-06 -0.000213291
0.00068385 0.00011539 -2.81726e-06
0.00011539 -0.000200913 -4.29185e-07
-2.81726e-06 -4.29185e-07 -0.000336811
0.00176013 0.000207299 8.09496e-06
0.000207299 0.000295338 2.00336e-06
8.09496e-06 2.00336e-06 0.00013959
0.00568029 0.000123096 -0.000213954
0.000123096 0.00300226 -1.86028e-05
-0.000213954 -1.86028e-05 0.00300238
0.000522551 0.000122976 4.2448e-07
0.000122976 -0.000121183 3.93596e-07
4.2448e-07 3.93596e-07 -0.00020585
0.000634884 0.000133089 1.31805e-05
0.000133089 -0.000211856 4.96497e-06
1.31805e-05 4.96497e-06 -0.000353259
0.00562362 5.80078e-05 1.2361e-05
5.80078e-05 0.00298646 9.24798e-07
1.2361e-05 9.24798e-07 0.00297956
0.000482689 0.000146625 1.89156e-05
0.000146625 -0.000123567 1.19305e-05
1.89156e-05 1.19305e-05 -0.000216301
0.00539663 -8.34549e-05 0.000174327
-8.34549e-05 0.00285958 1.03368e-05
0.000174327 1.03368e-05 0.00285178
0.00179787 4.36643e-05 8.87562e-07
4.36643e-05 0.000121249 -6.04546e-07
8.87562e-07 -6.04546e-07 1.67444e-05
0.00176623 5.92949e-05 -1.61125e-06
5.92949e-05 6.65875e-05 4.68877e-07
-1.61125e-06 4.68877e-07 -1.72178e-05
0.00193898 9.00754e-05 1.20037e-06
9.00754e-05 0.000123527 3.64793e-08
1.20037e-06 3.64793e-08 5.25382e-05
0.00173696 -1.81759e-06 5.24991e-09
-1.81759e-06 0.000230038 -3.21354e-07
5.24991e-09 -3.21354e-07 0.000109856
0.00170196 2.44403e-06 2.2451e-07
2.44403e-06 7.31371e-05 1.75487e-09
2.2451e-07 1.75487e-09 -3.21483e-05
0.00168546 4.99985e-06 9.03714e-07
4.99985e-06 2.74633e-05 2.30851e-07
9.03714e-07 2.30851e-07 -5.18599e-05
0.00174467 -2.02345e-05 -2.7451e-07
-2.02345e-05 0.000106929 4.56005e-07
-2.7451e-07 4.56005e-07 2.25905e-06
0.00173796 -1.82714e-05 2.63956e-06
-1.82714e-05 0.000224858 -1.93854e-07
2.63956e-06 -1.93854e-07 0.000102708
0.000788649 -8.90985e-06 -1.333e-05
-8.90985e-06 -0.000160804 5.79899e-07
-1.333e-05 5.79899e-07 -0.000283075
0.00166202 -4.75977e-05 3.4385e-06
-4.75977e-05 0.000183953 7.02831e-09
3.4385e-06 7.02831e-09 5.38542e-05
0.000887899 -2.52305e-05 -2.34208e-06
-2.52305e-05 -0.000102069 2.32803e-07
-2.34208e-06 2.32803e-07 -0.000226212
0.000611566 -6.10767e-06 -1.85346e-05
-6.10767e-06 -0.000109388 1.99793e-06
-1.85346e-05 1.99793e-06 -0.000181119
0.00100763 -4.88678e-05 1.18596e-05
-4.88678e-05 -2.70227e-05 -1.93776e-06
1.18596e-05 -1.93776e-06 -0.000152765
0.000592604 -2.98452e-05 7.42055e-07
-2.98452e-05 -0.000117901 -3.55258e-08
7.42055e-07 -3.55258e-08 -0.00018966
0.00550497 -0.000108503 -0.000223572
-0.000108503 0.00289752 8.61979e-06
-0.000223572 8.61979e-06 0.00290171
0.000590077 -4.48973e-05 1.76583e-05
-4.48973e-05 -0.00011222 -3.69976e-06
1.76583e-05 -3.69976e-06 -0.00018715
0.00552274 -4.7193e-05 7.86797e-06
-4.7193e-05 0.00290128 -3.23745e-08
7.86797e-06 -3.23745e-08 0.0029086
0.00155448 -1.80349e-05 0.000181431
-1.80349e-05 0.000556743 -9.7307e-06
0.000181431 -9.7307e-06 0.000543061
0.00165596 6.37925e-05 2.39405e-06
6.37925e-05 5.4845e-05 3.80972e-07
2.39405e-06 3.80972e-07 -5.64742e-05
0.00178536 9.20276e-05 -3.06508e-06
9.20276e-05 8.66131e-05 -5.97565e-07
-3.06508e-06 -5.97565e-07 -8.17345e-07
0.00145574 6.94975e-05 -1.69482e-06
6.94975e-05 6.59909e-05 1.11231e-07
-1.69482e-06 1.11231e-07 -6.62703e-05
0.00171506 8.36709e-05 5.95146e-07
8.36709e-05 9.20159e-05 1.4534e-07
5.95146e-07 1.4534e-07 -2.23446e-05
0.0019404 8.7448e-05 -9.78775e-07
8.7448e-05 0.000166658 -2.91264e-06
-9.78775e-07 -2.91264e-06 8.30663e-05
0.00104795 7.53361e-05 -1.23552e-05
7.53361e-05 -9.0629e-06 -2.37714e-06
-1.23552e-05 -2.37714e-06 -0.000133676
0.00145114 0.000115243 6.74165e-08
0.000115243 6.48148e-05 7.64889e-08
6.74165e-08 7.64889e-08 -7.57735e-05
0.00176771 0.000140388 7.02458e-08
0.000140388 0.000114551 -8.73337e-07
7.02458e-08 -8.73337e-07 -1.23596e-05
0.000556919 6.46262e-05 -1.74118e-05
6.46262e-05 -0.000131559 -5.12642e-06
-1.74118e-05 -5.12642e-06 -0.000206054
0.00085946 0.000100041 -3.12132e-06
0.000100041 -0.000112401 -3.27499e-07
-3.12132e-06 -3.27499e-07 -0.000243193
0.00172903 0.000167762 4.5982e-06
0.000167762 0.000246452 1.16084e-06
4.5982e-06 1.16084e-06 9.82307e-05
0.00563276 0.000170469 -0.00023244
0.000170469 0.00297382 -1.79294e-05
-0.00023244 -1.79294e-05 0.00297396
0.000548091 9.03725e-05 1.80945e-08
9.03725e-05 -0.000124495 1.41719e-07
1.80945e-08 1.41719e-07 -0.000202494
0.000661058 0.000114877 9.32246e-06
0.000114877 -0.000213799 3.5856e-06
9.32246e-06 3.5856e-06 -0.000349903
0.00562314 0.000143077 1.06328e-05
0.000143077 0.00297728 2.59839e-06
1.06328e-05 2.59839e-06 0.00297361
0.000532185 0.000115488 1.81011e-05
0.000115488 -0.000116691 9.52763e-06
1.81011e-05 9.52763e-06 -0.000201376
0.0055517 5.26562e-05 0.000201781
5.26562e-05 0.00293334 1.54731e-05
0.000201781 1.54731e-05 0.00293415
0.00172077 2.95758e-05 4.5746e-07
2.95758e-05 0.000224354 -1.43666e-07
4.5746e-07 -1.43666e-07 0.000104127
0.00175549 3.92337e-05 -1.13805e-06
3.92337e-05 9.93745e-05 1.0061e-07
-1.13805e-06 1.0061e-07 -6.49714e-06
0.00171341 5.64893e-05 -1.62856e-06
5.64893e-05 4.15797e-05 5.79439e-07
-1.62856e-06 5.79439e-07 -4.38039e-05
0.000784044 -7.94664e-06 -1.3811e-05
-7.94664e-06 -0.00015819 -1.56659e-07
-1.3811e-05 -1.56659e-07 -0.000278926
0.00174177 4.08341e-06 3.01396e-06
4.08341e-06 0.000232782 -1.71162e-07
3.01396e-06 -1.71162e-07 0.000112564
0.00170996 4.04265e-07 -1.1326e-06
4.04265e-07 7.67125e-05 4.52086e-07
-1.1326e-06 4.52086e-07 -2.69049e-05
0.00174951 -1.87527e-05 6.12783e-06
-1.87527e-05 0.000231274 -1.65736e-08
6.12783e-06 -1.65736e-08 0.000109131
0.00077928 -9.05112e-06 -1.78739e-06
-9.05112e-06 -0.000167057 1.10583e-07
-1.78739e-06 1.10583e-07 -0.000289536
0.00061293 -2.73484e-05 -1.88521e-05
-2.73484e-05 -0.000109763 7.46963e-07
-1.88521e-05 7.46963e-07 -0.000179679
0.000986672 -2.36636e-05 1.00046e-05
-2.36636e-05 -4.42464e-05 -1.17115e-06
1.00046e-05 -1.17115e-06 -0.000167677
0.000592905 4.50421e-06 2.98896e-07
4.50421e-06 -0.000120605 8.07992e-08
2.98896e-07 8.07992e-08 -0.000191786
0.00554205 -8.60459e-05 -0.000230615
-8.60459e-05 0.00291704 6.02959e-06
-0.000230615 6.02959e-06 0.00292328
0.000602034 -3.1699e-05 1.8405e-05
-3.1699e-05 -0.00011095 -2.4899e-06
1.8405e-05 -2.4899e-06 -0.000183736
0.00553775 -1.98557e-06 -3.0184e-06
-1.98557e-06 0.00290835 1.45606e-06
-3.0184e-06 1.45606e-06 0.00291749
0.00553014 -6.6227e-05 0.000223698
-6.6227e-05 0.00290407 -7.7125e-06
0.000223698 -7.7125e-06 0.00291266
0.00143456 4.31747e-05 -1.62694e-06
4.31747e-05 5.91792e-05 -4.25462e-08
-1.62694e-06 -4.25462e-08 -6.91709e-05
0.00171237 6.703e-05 -1.20693e-06
6.703e-05 8.66272e-05 -1.18794e-06
-1.20693e-06 -1.18794e-06 -2.0828e-05
0.00177645 9.66193e-05 -4.36516e-06
9.66193e-05 7.43353e-05 -1.10174e-06
-4.36516e-06 -1.10174e-06 -1.05597e-05
0.00104886 4.2799e-05 -1.2152e-05
4.2799e-05 -8.07017e-06 -1.7938e-06
-1.2152e-05 -1.7938e-06 -0.00012851
0.00144223 6.95048e-05 1.7328e-07
6.95048e-05 5.75938e-05 3.41153e-08
1.7328e-07 3.41153e-08 -7.50565e-05
0.00172082 8.24246e-05 -1.08676e-06
8.24246e-05 9.56413e-05 -1.73014e-06
-1.08676e-06 -1.73014e-06 -1.8785e-05
0.000583183 3.99189e-05 -1.7015e-05
3.99189e-05 -0.000122222 -3.72752e-06
-1.7015e-05 -3.72752e-06 -0.000194827
0.00101741 7.64992e-05 2.12803e-07
7.64992e-05 -2.62434e-05 2.22372e-07
2.12803e-07 2.22372e-07 -0.000151338
0.00145183 0.000115175 3.13635e-06
0.000115175 6.59824e-05 4.28085e-07
3.13635e-06 4.28085e-07 -7.47865e-05
0.00557507 0.000166318 -0.000244418
0.000166318 0.00294207 -1.56031e-05
-0.000244418 -1.56031e-05 0.00294262
0.000580332 6.70886e-05 3.21307e-07
6.70886e-05 -0.000117819 1.62248e-07
3.21307e-07 1.62248e-07 -0.000192723
0.000968784 0.000104658 9.37297e-06
0.000104658 -4.73215e-05 3.00391e-06
9.37297e-06 3.00391e-06 -0.000177607
0.00561165 0.000184072 6.06519e-06
0.000184072 0.00296816 2.52407e-06
6.06519e-06 2.52407e-06 0.00296554
0.000571261 9.03474e-05 1.74219e-05
9.03474e-05 -0.000111262 7.3644e-06
1.74219e-05 7.3644e-06 -0.00018949
0.00559737 0.000164714 0.000221021
0.000164714 0.00296147 2.01765e-05
0.000221021 2.01765e-05 0.00295879
0.00102448 1.33596e-05 -1.28369e-05
1.33596e-05 -1.45168e-05 -7.89351e-07
-1.28369e-05 -7.89351e-07 -0.00013282
0.0015976 2.52088e-05 3.41656e-06
2.52088e-05 0.000152814 1.10982e-07
3.41656e-06 1.10982e-07 3.18068e-05
0.00171412 3.40487e-05 -3.3276e-06
3.40487e-05 7.77946e-05 2.38132e-07
-3.3276e-06 2.38132e-07 -2.94594e-05
0.00063999 2.93428e-05 -1.93271e-05
2.93428e-05 -0.000100934 -4.42567e-07
-1.93271e-05 -4.42567e-07 -0.000164021
0.000762665 -2.50025e-06 -2.01386e-06
-2.50025e-06 -0.000171489 6.75192e-08
-2.01386e-06 6.75192e-08 -0.00029239
0.00174433 1.01936e-05 6.08802e-06
1.01936e-05 0.000234203 1.35856e-07
6.08802e-06 1.35856e-07 0.000113935
0.00076658 -8.83786e-06 9.79519e-06
-8.83786e-06 -0.000175344 -3.90835e-07
9.79519e-06 -3.90835e-07 -0.000298013
0.000606513 -4.01792e-06 2.45395e-07
-4.01792e-06 -0.000113425 2.99203e-07
2.45395e-07 2.99203e-07 -0.00018343
0.0055226 4.24637e-05 -0.000236545
4.24637e-05 0.00290179 -6.31534e-07
-0.000236545 -6.31534e-07 0.00291142
0.000570737 1.53425e-05 1.7953e-05
1.53425e-05 -0.000134346 -1.17899e-06
1.7953e-05 -1.17899e-06 -0.0002047
0.00552665 -8.50147e-05 -7.84067e-06
-8.50147e-05 0.00290862 1.48722e-06
-7.84067e-06 1.48722e-06 0.00291454
0.00550954 1.82486e-05 0.000215459
1.82486e-05 0.00289218 -3.40235e-06
0.000215459 -3.40235e-06 0.00290092
0.00103175 2.28257e-05 -1.26296e-05
2.28257e-05 -1.34013e-05 -1.35569e-06
-1.26296e-05 -1.35569e-06 -0.000131917
0.00143571 4.27843e-05 -1.35053e-07
4.27843e-05 5.89315e-05 -9.96504e-08
-1.35053e-07 -9.96504e-08 -6.74184e-05
0.00177041 7.00409e-05 -4.12795e-06
7.00409e-05 0.000119106 -1.8437e-06
-4.12795e-06 -1.8437e-06 1.55305e-05
0.00261641 4.74922e-05 -0.000114408
4.74922e-05 0.00107407 -3.57785e-06
-0.000114408 -3.57785e-06 0.00102604
0.00102147 4.47176e-05 2.37634e-07
4.47176e-05 -2.44257e-05 1.41404e-07
2.37634e-07 1.41404e-07 -0.000145193
0.00142966 6.94522e-05 2.75147e-06
6.94522e-05 4.96939e-05 8.70404e-08
2.75147e-06 8.70404e-08 -8.33539e-05
0.00551939 0.000134047 -0.000246998
0.000134047 0.00290813 -1.17089e-05
-0.000246998 -1.17089e-05 0.00291155
0.000616081 5.59526e-05 7.98954e-07
5.59526e-05 -0.000101149 3.18023e-07
7.98954e-07 3.18023e-07 -0.000175156
0.000991679 7.78308e-05 1.22459e-05
7.78308e-05 -4.06088e-05 2.78128e-06
1.22459e-05 2.78128e-06 -0.000166165
0.00560833 0.000178226 1.65498e-06
0.000178226 0.00296393 1.65276e-06
1.65498e-06 1.65276e-06 0.00296338
0.000614169 7.19791e-05 1.77615e-05
7.19791e-05 -9.69999e-05 5.88085e-06
1.77615e-05 5.88085e-06 -0.000172847
0.00559423 0.000209713 0.000232926
0.000209713 0.0029653 2.16984e-05
0.000232926 2.16984e-05 0.00295886
0.00068382 9.02339e-06 -1.63655e-05
9.02339e-06 -6.46882e-05 -1.79747e-06
-1.63655e-05 -1.79747e-06 -0.000135367
0.000883618 1.14076e-05 6.61016e-07
1.14076e-05 -9.72267e-05 2.32007e-07
6.61016e-07 2.32007e-07 -0.000216514
0.00147116 2.05144e-05 5.6181e-06
2.05144e-05 7.92692e-05 1.64379e-07
5.6181e-06 1.64379e-07 -4.2484e-05
0.00540401 -9.30576e-05 -0.000220443
-9.30576e-05 0.00284819 7.04422e-07
-0.000220443 7.04422e-07 0.00284825
0.000602326 7.82107e-06 -4.82912e-07
7.82107e-06 -0.000118101 1.81087e-07
-4.82912e-07 1.81087e-07 -0.000183919
0.000753099 2.52139e-06 9.6373e-06
2.52139e-06 -0.00017806 1.70077e-07
9.6373e-06 1.70077e-07 -0.000299088
0.000569738 2.06131e-05 1.81849e-05
2.06131e-05 -0.00013531 1.45933e-07
1.81849e-05 1.45933e-07 -0.000204787
0.00548082 6.73379e-06 2.5747e-06
6.73379e-06 0.00288146 -7.70493e-07
2.5747e-06 -7.70493e-07 0.0028879
0.00553966 1.76231e-06 0.000225126
1.76231e-06 0.00290736 -1.55642e-06
0.000225126 -1.55642e-06 0.00291767
0.00267861 6.27917e-06 -0.00011137
6.27917e-06 0.00110748 -2.25864e-06
-0.00011137 -2.25864e-06 0.00106065
0.00102942 2.5606e-05 4.55589e-08
2.5606e-05 -1.58194e-05 9.79562e-08
4.55589e-08 9.79562e-08 -0.000134542
0.00143172 4.25439e-05 2.51336e-06
4.25439e-05 5.58434e-05 -1.1351e-07
2.51336e-06 -1.1351e-07 -6.85073e-05
0.00514005 -5.99358e-05 -7.29635e-05
-5.99358e-05 0.00269584 4.11383e-07
-7.29635e-05 4.11383e-07 0.00268156
0.000630733 4.81646e-05 4.61357e-08
4.81646e-05 -9.45558e-05 2.23087e-07
4.61357e-08 2.23087e-07 -0.000166198
0.00100997 4.71473e-05 1.20795e-05
4.71473e-05 -3.20002e-05 2.11743e-06
1.20795e-05 2.11743e-06 -0.00015304
0.00556624 0.000103266 -1.09645e-05
0.000103266 0.00293117 -1.05985e-06
-1.09645e-05 -1.05985e-06 0.00293641
0.000645827 7.74918e-05 1.92432e-05
7.74918e-05 -8.30784e-05 4.9007e-06
1.92432e-05 4.9007e-06 -0.000157686
0.00561578 0.000202366 0.000243327
0.000202366 0.0029756 2.01766e-05
0.000243327 2.01766e-05 0.00297154
0.00166886 -4.8845e-05 -0.000188543
-4.8845e-05 0.00061869 6.40806e-07
-0.000188543 6.40806e-07 0.00060915
0.00165171 2.47781e-05 -4.62761e-05
2.47781e-05 0.000499635 2.01267e-07
-4.62761e-05 2.01267e-07 0.000445132
0.000742639 1.18299e-05 1.24242e-05
1.18299e-05 -0.000179849 9.47835e-07
1.24242e-05 9.47835e-07 -0.000300175
0.00545654 -3.95397e-05 7.91847e-06
-3.95397e-05 0.00287386 1.12831e-06
7.91847e-06 1.12831e-06 0.00287797
0.000616497 -1.20836e-05 1.86695e-05
-1.20836e-05 -0.000105005 8.76932e-07
1.86695e-05 8.76932e-07 -0.000173733
0.0055127 -6.16754e-05 0.00023991
-6.16754e-05 0.00290095 -1.81436e-06
0.00023991 -1.81436e-06 0.00290807
0.00126766 5.92261e-06 -3.57179e-05
5.92261e-06 0.000405537 -6.52017e-07
-3.57179e-05 -6.52017e-07 0.000371577
0.00164251 1.19501e-05 -4.66396e-05
1.19501e-05 0.000498094 -5.62656e-07
-4.66396e-05 -5.62656e-07 0.000440577
0.00101575 2.69747e-05 1.23356e-05
2.69747e-05 -2.45047e-05 1.59534e-06
1.23356e-05 1.59534e-06 -0.000143462
0.00340117 4.72392e-05 8.80124e-05
4.72392e-05 0.00165413 2.02283e-06
8.80124e-05 2.02283e-06 0.00164226
0.000637842 5.75751e-05 1.9424e-05
5.75751e-05 -9.0095e-05 3.82689e-06
1.9424e-05 3.82689e-06 -0.000161921
0.00561015 9.39385e-05 0.000232574
9.39385e-05 0.00295209 1.23315e-05
0.000232574 1.23315e-05 0.00296001
0.00540044 -2.26327e-05 -8.88814e-06
-2.26327e-05 0.00284342 -1.75563e-06
-8.88814e-06 -1.75563e-06 0.00284678
0.000618445 4.19204e-05 2.00027e-05
4.19204e-05 -0.00011097 1.91916e-06
2.00027e-05 1.91916e-06 -0.000173958
0.00537742 5.1598e-05 0.000226148
5.1598e-05 0.00282445 -5.20934e-08
0.000226148 -5.20934e-08 0.00283126
0.00335191 2.61201e-05 0.000101828
2.61201e-05 0.00162925 2.98508e-06
0.000101828 2.98508e-06 0.00161743
0.000648796 4.62197e-06 1.86954e-05
4.62197e-06 -8.55641e-05 2.62341e-06
1.86954e-05 2.62341e-06 -0.000154471
0.00551513 -2.86266e-05 0.000224298
-2.86266e-05 0.00289902 5.51153e-06
0.000224298 5.51153e-06 0.00290603
0.00542821 -0.00012854 0.000221853
-0.00012854 0.00286566 -2.72523e-06
0.000221853 -2.72523e-06 0.00286405
0.00541618 -1.33186e-05 0.000221115
-1.33186e-05 0.00283849 2.81558e-06
0.000221115 2.81558e-06 0.0028488
