# vtk DataFile Version 2.0
Wound Healing Simulation
ASCII
DATASET UNSTRUCTURED_GRID
POINTS 3012 float
69.9759 18.75 4
67.2507 60.3285 4
69.976 18.75 2
73.0099 25.446 4
71.1327 20.9142 4
68.6801 16.6661 4
67.8266 19.926 3.98479
67.2507 60.3286 2
71.1327 54.0858 4
68.6801 58.3339 4
65.6939 62.2254 4
65.3134 59.0024 3.98591
74.6784 42.3946 4
73.7221 47.2057 4
69.9759 18.75 0
73.0099 25.446 2
68.6801 16.6661 2
71.1327 20.9142 2
67.8271 19.9286 2
74.6792 32.6053 4
73.7222 27.7943 4
72.1454 23.1494 4
70.615 26.2214 3.98465
68.8867 21.9585 3.98491
67.2507 14.6715 4
66.6383 17.971 3.98529
65.7994 21.0246 3.97721
67.2507 60.3285 0
71.1327 54.0858 2
68.6801 58.3339 2
65.694 62.2255 2
65.3145 59.0004 2
72.1454 51.8506 4
69.9759 56.25 4
68.8372 53.1128 3.984
64.0165 64.0165 4
66.6118 57.1346 3.98544
63.8869 60.7672 3.98765
63.5029 57.7745 3.97973
60.3285 67.2507 4
74.6792 42.3947 2
73.7222 47.2057 2
74.9194 39.9526 4
74.2788 44.8158 4
72.1686 42.0857 3.98275
73.0099 49.554 4
71.25 46.5982 3.98366
73.0099 25.446 0
71.1327 20.9142 0
68.6801 16.6661 0
67.8266 19.926 0.0152147
74.6792 32.6053 2
73.7222 27.7943 2
67.2508 14.6715 2
72.1455 23.1494 2
70.6151 26.222 2
66.6392 17.9734 2
68.887 21.9605 2
65.7991 21.0246 2
74.9197 35.0474 4
74.2794 30.1841 4
72.1853 32.9433 3.98319
71.279 28.4315 3.98419
69.8165 24.0603 3.98485
68.3488 26.9511 3.97547
66.7645 22.9331 3.97626
65.694 12.7746 4
65.325 16.102 3.98672
64.7166 19.1929 3.9787
63.8892 22.0344 3.97308
71.1327 54.0858 0
65.6939 62.2254 0
68.6801 58.3339 0
65.3134 59.0024 0.0140896
72.1455 51.8506 2
69.9759 56.25 2
68.8375 53.1107 2
64.0165 64.0165 2
66.6127 57.1319 2
63.888 60.7661 2
63.5031 57.7753 2
62.2254 65.694 4
58.8952 65.4149 3.99233
69.7697 50.9886 3.984
67.7846 55.1675 3.98446
66.6509 52.2096 3.97513
62.3372 62.4285 3.98975
64.6635 56.0335 3.97898
62.205 59.4079 3.98101
61.826 56.6848 3.97593
58.3339 68.6801 4
60.3285 67.2508 2
73.7221 47.2057 0
74.6784 42.3946 0
74.9197 39.9526 2
74.2794 44.8159 2
72.1684 42.0857 2
73.0099 49.554 2
71.2501 46.5978 2
75 37.5 4
72.4058 39.8023 3.9827
71.7832 44.3531 3.98337
69.805 41.79 3.97344
70.5758 48.8134 3.98375
68.914 46.0155 3.97448
74.6792 32.6053 0
73.7222 27.7943 0
67.2507 14.6715 0
72.1454 23.1494 0
70.615 26.2214 0.0153461
68.8867 21.9585 0.0150861
66.6383 17.971 0.0147136
65.7994 21.0246 0.0227917
74.9197 35.0474 2
74.2794 30.1841 2
72.185 32.9434 2
71.279 28.4317 2
65.694 12.7745 2
65.3261 16.1035 2
69.8166 24.0615 2
68.3488 26.9514 2
64.7165 19.1924 2
66.7642 22.9333 2
63.8889 22.0341 2
72.4136 35.2242 3.98269
71.8045 30.6763 3.9835
69.8411 33.268 3.9741
68.9681 29.0377 3.9752
67.6131 24.9119 3.97562
66.1966 27.6337 3.97202
64.0165 10.9835 4
64.7584 23.8295 3.97251
63.8913 14.3256 3.98831
63.5162 17.4434 3.98094
62.9098 20.3183 3.97409
62.0938 22.9427 3.97093
60.6847 11.0965 3.99052
57.6131 11.4437 3.98461
72.1454 51.8506 0
69.9759 56.25 0
68.8372 53.1128 0.0159974
64.0165 64.0165 0
63.8869 60.7672 0.0123464
66.6118 57.1346 0.0145608
63.5029 57.7745 0.0202685
62.2255 65.694 2
58.8957 65.4148 2
69.7699 50.9872 2
67.7852 55.1648 2
66.6507 52.2092 2
62.3381 62.4279 2
64.6634 56.034 2
62.2051 59.4089 2
61.8262 56.6858 2
60.6697 63.9779 3.99122
57.0259 66.7357 3.99298
57.559 63.6947 3.98638
67.5089 50.1771 3.97453
65.7038 54.1741 3.97642
64.5385 51.386 3.97101
60.7746 60.9414 3.98273
62.8231 55.0706 3.97545
60.6608 58.164 3.97688
60.3303 55.7891 3.975
56.25 69.9759 4
58.3339 68.6801 2
60.3285 67.2507 0
58.9219 9.65483 3.99143
62.2254 9.30607 4
73.0099 49.554 0
74.2788 44.8158 0
71.25 46.5982 0.0163448
72.1686 42.0857 0.0172488
74.9194 39.9526 0
75 37.5 2
72.4057 39.8024 2
71.7831 44.3527 2
69.8048 41.7898 2
70.5759 48.8127 2
68.914 46.0152 2
72.4891 37.5121 3.98248
70.0419 39.6575 3.97313
69.4319 43.9081 3.97416
67.5981 41.4981 3.96998
68.2674 48.1077 3.97422
66.7117 45.441 3.97107
74.9197 35.0474 0
74.2794 30.1841 0
72.1853 32.9433 0.0168147
71.279 28.4315 0.0158077
65.694 12.7746 0
65.325 16.102 0.01328
69.8165 24.0603 0.0151517
68.3488 26.9511 0.0245293
66.7645 22.9331 0.023736
64.7166 19.1929 0.0213027
63.8892 22.0344 0.0269215
72.4135 35.2241 2
71.8045 30.6765 2
69.8409 33.2682 2
68.9682 29.0379 2
64.0165 10.9835 2
63.8922 14.3266 2
63.5164 17.4424 2
67.6129 24.9122 2
66.1965 27.6337 2
62.9099 20.3175 2
64.7581 23.8294 2
62.0936 22.9425 2
60.6854 11.097 2
57.6132 11.443 2
70.0585 35.3918 3.97322
69.4684 31.1491 3.97429
67.6566 33.5904 3.97066
66.7743 29.6217 3.97132
65.5257 25.6987 3.97209
64.1481 28.2544 3.97102
62.3426 12.6537 3.98946
62.8577 24.6368 3.97109
62.2014 15.7807 3.98252
61.8171 18.6808 3.97651
61.2191 21.3403 3.97119
60.4248 23.7276 3.97056
59.2472 12.7753 3.98309
55.8749 10.2304 3.98614
56.406 13.1087 3.98128
69.7697 50.9886 0.0159952
62.2254 65.694 0
58.8952 65.4149 0.00767261
67.7846 55.1675 0.0155442
66.6509 52.2096 0.024874
62.3372 62.4285 0.010251
62.205 59.4079 0.018993
64.6635 56.0335 0.0210197
61.826 56.6848 0.0240718
60.6703 63.9775 2
57.0263 66.7358 2
57.5591 63.6958 2
67.5088 50.1767 2
65.7036 54.174 2
64.5383 51.386 2
60.7748 60.9426 2
62.8231 55.0714 2
60.661 58.1651 2
60.3306 55.7898 2
55.0714 67.9327 3.99322
59.2204 62.3694 3.98389
55.8058 64.9126 3.98854
56.328 62.0946 3.98256
65.3328 49.4091 3.97054
63.7072 53.2933 3.97178
62.4411 50.6528 3.96911
59.3351 59.5618 3.97976
61.0788 54.3116 3.97428
59.2911 57.0162 3.97357
59.2438 55.1851 3.97642
48.1038 68.5803 3.98953
50.9489 69.9323 3.99347
54.0858 71.1327 4
56.25 69.976 2
58.3339 68.6801 0
57.0592 8.33495 3.99176
60.3285 7.74928 4
58.9225 9.65513 2
62.2255 9.30602 2
70.5758 48.8134 0.0162546
71.7832 44.3531 0.016629
68.914 46.0155 0.0255217
69.805 41.79 0.0265614
72.4058 39.8023 0.0173023
75 37.5 0
72.4889 37.5121 2
70.0419 39.6574 2
69.4318 43.9079 2
67.5979 41.498 2
68.2673 48.1072 2
66.7116 45.4409 2
70.1299 37.5215 3.97316
67.835 39.5125 3.96975
67.2252 43.4708 3.97055
65.5562 41.2104 3.96985
66.0699 47.4189 3.97061
64.654 44.8494 3.97028
72.4136 35.2242 0.0173147
71.8045 30.6763 0.0164954
69.8411 33.268 0.0259046
68.9681 29.0377 0.0248037
64.0165 10.9835 0
63.8913 14.3256 0.0116917
63.5162 17.4434 0.0190557
67.6131 24.9119 0.0243779
66.1966 27.6337 0.0279834
64.7584 23.8295 0.0274921
62.9098 20.3183 0.025912
62.0938 22.9427 0.0290685
60.6847 11.0965 0.0094827
57.6131 11.4437 0.0153902
70.0585 35.3919 2
69.4685 31.1493 2
67.6564 33.5904 2
66.7743 29.6217 2
62.3433 12.6544 2
62.2014 15.7798 2
61.8173 18.6796 2
65.5255 25.6986 2
64.148 28.2543 2
61.2192 21.3398 2
62.8575 24.6367 2
60.4247 23.7275 2
59.2473 12.7747 2
56.4059 13.1077 2
55.8751 10.2296 2
67.871 35.5472 3.96993
67.2664 31.6217 3.97049
65.6988 33.9268 3.97026
64.6645 30.191 3.97015
63.5391 26.4134 3.97102
62.2589 28.7768 3.97156
60.7768 14.2198 3.98284
61.0444 25.3374 3.97111
60.6156 17.123 3.97944
60.2246 19.8136 3.97331
59.6603 22.2585 3.96951
58.9753 24.3208 3.97173
54.038 9.13358 3.98698
57.9114 14.3274 3.9812
54.7872 12.0079 3.98269
55.3131 14.6413 3.97986
67.5089 50.1771 0.0254686
57.0259 66.7357 0.00701502
60.6697 63.9779 0.00877758
57.559 63.6947 0.0136182
65.7038 54.1741 0.0235846
64.5385 51.386 0.0289855
60.7746 60.9414 0.0172655
60.6608 58.164 0.0231215
62.8231 55.0706 0.0245488
60.3303 55.7891 0.0250006
55.0717 67.9328 2
59.2205 62.3705 2
55.8057 64.9136 2
56.328 62.0959 2
65.3327 49.409 2
63.7071 53.2937 2
62.441 50.6528 2
59.3354 59.5631 2
61.0791 54.3122 2
59.2916 57.017 2
59.2443 55.1855 2
53.0432 69.0006 3.9934
53.9681 66.0149 3.98921
57.8819 60.8745 3.98116
54.6849 63.2119 3.98464
55.2124 60.6215 3.98065
63.1942 48.6619 3.96914
61.7404 52.5758 3.96933
60.2704 50.0191 3.96869
58.0196 58.2656 3.97601
59.3275 53.9481 3.97336
58.1273 55.8129 3.97174
50.1105 67.8582 3.98949
47.4641 66.584 3.98707
46.0573 69.1596 3.98955
48.1037 68.5807 2
48.8031 70.7236 3.99356
50.9492 69.9325 2
51.8506 72.1454 4
54.0858 71.1327 2
56.25 69.9759 0
55.1035 7.13953 3.99206
58.3339 6.31992 4
57.0597 8.33502 2
60.3286 7.74926 2
58.9219 9.65483 0.00857148
62.2254 9.30607 0
68.2674 48.1077 0.0257838
69.4319 43.9081 0.0258401
66.7117 45.441 0.028932
67.5981 41.4981 0.0300163
70.0419 39.6575 0.0268713
72.4891 37.5121 0.0175237
70.1298 37.5215 2
67.835 39.5125 2
67.2251 43.4707 2
65.556 41.2104 2
66.0699 47.4188 2
64.654 44.8494 2
67.9313 37.5219 3.96978
65.7863 39.3705 3.96976
65.1773 43.0261 3.97013
63.7462 40.9301 3.97135
63.9662 46.7175 3.96962
62.8079 44.2172 3.97167
70.0585 35.3918 0.0267824
69.4684 31.1491 0.0257117
67.6566 33.5904 0.0293361
66.7743 29.6217 0.0286844
62.3426 12.6537 0.0105432
62.2014 15.7807 0.0174808
61.8171 18.6808 0.0234884
65.5257 25.6987 0.0279086
64.1481 28.2544 0.0289814
62.8577 24.6368 0.0289078
61.2191 21.3403 0.028814
60.4248 23.7276 0.029436
59.2472 12.7753 0.0169103
56.406 13.1087 0.0187177
55.8749 10.2304 0.0138561
67.8709 35.5472 2
67.2665 31.6217 2
65.6986 33.9267 2
64.6646 30.1909 2
60.7768 14.2191 2
60.6156 17.1218 2
60.225 19.8125 2
63.5389 26.4133 2
62.2589 28.7767 2
59.6605 22.2581 2
61.0443 25.3374 2
58.9753 24.3211 2
57.9112 14.3266 2
55.3129 14.6404 2
54.0381 9.13284 2
54.7873 12.0068 2
65.8756 35.6665 3.9697
65.1867 32.1536 3.96965
64.2798 34.2495 3.97081
62.5939 30.6351 3.97103
61.6514 27.0714 3.97115
60.8482 29.1396 3.97345
59.3124 15.6642 3.98081
59.3258 25.7966 3.97245
59.1257 18.3513 3.97723
58.7395 20.8532 3.96999
58.2812 23.0939 3.96938
57.9627 24.6651 3.972
52.1127 8.15181 3.98764
53.0583 11.014 3.98364
56.6775 15.7376 3.98037
53.8098 13.6762 3.98101
54.3766 15.9938 3.97989
55.0714 67.9327 0.00678153
65.3328 49.4091 0.0294581
55.8058 64.9126 0.0114641
59.2204 62.3694 0.0161055
56.328 62.0946 0.0174412
63.7072 53.2933 0.0282236
62.4411 50.6528 0.0308937
59.3351 59.5618 0.0202364
59.2911 57.0162 0.026426
61.0788 54.3116 0.0257219
59.2438 55.1851 0.0235821
53.0435 69.0007 2
53.968 66.0156 2
57.8819 60.8757 2
54.6848 63.2131 2
55.2124 60.623 2
63.1941 48.6619 2
61.7405 52.5761 2
60.2703 50.019 2
58.0201 58.2669 2
59.328 53.9482 2
58.1279 55.8128 2
52.0716 67.0014 3.98942
52.9543 64.2225 3.98626
56.6494 59.4934 3.97938
53.682 61.6279 3.98247
54.2608 59.3268 3.97842
60.9859 47.8805 3.96924
59.7057 52.1042 3.96915
58.0149 49.6153 3.97061
56.7774 56.9896 3.97353
57.1187 54.1198 3.97134
50.1104 67.8588 2
49.3379 65.9243 3.9871
47.4639 66.5846 2
46.8933 64.7405 3.98572
45.5591 67.1012 3.98688
43.9741 69.5919 3.98943
46.0573 69.1601 2
46.6096 71.3681 3.99358
48.1038 68.5803 0.0104723
48.8033 70.7238 2
49.554 73.0099 4
50.9489 69.9323 0.00653071
51.8506 72.1455 2
54.0858 71.1327 0
53.0646 6.07096 3.99234
55.1039 7.13946 2
56.25 5.02411 4
58.3339 6.3199 2
57.0592 8.33495 0.00823651
60.3285 7.74928 0
66.0699 47.4189 0.0293852
67.2252 43.4708 0.0294474
64.654 44.8494 0.0297242
65.5562 41.2104 0.0301484
67.835 39.5125 0.0302496
70.1299 37.5215 0.0268383
67.9312 37.5219 2
65.7862 39.3705 2
65.1772 43.0261 2
63.7462 40.9301 2
63.9661 46.7175 2
62.8076 44.2171 2
65.8893 37.5018 3.96963
63.8808 39.267 3.97102
63.3232 42.5508 3.97139
62.4093 40.6983 3.97291
61.9664 45.9198 3.97097
61.4422 43.6842 3.9737
67.871 35.5472 0.0300665
67.2664 31.6217 0.0295056
65.6988 33.9268 0.0297415
64.6645 30.191 0.0298503
60.7768 14.2198 0.0171585
60.6156 17.123 0.0205562
60.2246 19.8136 0.0266858
63.5391 26.4134 0.02898
62.2589 28.7768 0.0284362
61.0444 25.3374 0.0288894
59.6603 22.2585 0.0304919
58.9753 24.3208 0.0282708
57.9114 14.3274 0.0188049
55.3131 14.6413 0.0201445
54.038 9.13358 0.0130243
54.7872 12.0079 0.0173094
65.8756 35.6665 2
65.1868 32.1536 2
64.2799 34.2494 2
62.5941 30.635 2
59.3122 15.6633 2
59.1259 18.3501 2
58.7402 20.8525 2
61.6512 27.0714 2
60.8485 29.1396 2
58.2815 23.0942 2
59.3262 25.7968 2
57.9627 24.6654 2
56.6772 15.7367 2
54.3763 15.9929 2
53.8097 13.6751 2
52.1127 8.1512 2
53.0582 11.0131 2
64.0775 35.6322 3.97068
62.92 33.046 3.97115
60.6077 30.6113 3.97327
59.5643 27.91 3.97311
57.9408 16.9787 3.97976
57.7298 25.7265 3.97349
57.7151 19.4734 3.97452
57.3669 21.8429 3.9679
57.1789 23.9487 3.97111
50.1127 7.28359 3.98816
51.2328 10.122 3.98457
52.1722 12.7934 3.98223
55.538 16.9675 3.97995
52.9776 15.259 3.97906
53.7581 16.976 3.98044
53.0432 69.0006 0.00660034
53.9681 66.0149 0.010791
63.1942 48.6619 0.0308566
54.6849 63.2119 0.0153611
57.8819 60.8745 0.0188437
55.2124 60.6215 0.0193508
61.7404 52.5758 0.0306675
60.2704 50.0191 0.0313083
58.0196 58.2656 0.0239877
58.1273 55.8129 0.0282571
59.3275 53.9481 0.0266435
52.0715 67.002 2
52.9541 64.2234 2
56.6495 59.495 2
53.6819 61.6292 2
54.2609 59.3284 2
60.9856 47.8803 2
59.7059 52.1042 2
58.0142 49.6149 2
56.7775 56.9934 2
57.1194 54.1198 2
51.1689 65.1314 3.98686
52.0471 62.5439 3.98431
55.4815 58.2543 3.97832
52.8351 60.1411 3.98037
53.6402 58.4767 3.98004
58.2899 46.8482 3.97335
57.5527 51.7831 3.96912
56.2303 49.5512 3.97282
55.4707 55.7885 3.97097
55.3505 53.3766 3.96976
50.1105 67.8582 0.0105087
49.3377 65.925 2
48.619 64.127 3.98565
47.4641 66.584 0.0129347
45.5589 67.1017 2
46.893 64.7411 2
46.3828 63.0586 3.98484
45.1335 65.2016 3.98566
43.632 67.4717 3.98686
41.8611 69.8792 3.9892
43.9742 69.5924 2
44.3769 71.8629 3.99346
46.0573 69.1596 0.0104549
46.6099 71.3683 2
47.2057 73.7222 4
48.8031 70.7236 0.00643735
49.554 73.0099 2
51.8506 72.1454 0
50.9543 5.13123 3.99264
53.0649 6.07084 2
54.0858 3.86728 4
55.1035 7.13953 0.00794046
56.25 5.02406 2
58.3339 6.31992 0
63.9662 46.7175 0.0303751
65.1773 43.0261 0.0298694
62.8079 44.2172 0.0283296
63.7462 40.9301 0.0286489
65.7863 39.3705 0.0302402
67.9313 37.5219 0.0302184
65.8891 37.5018 2
63.8807 39.267 2
63.3231 42.5508 2
62.4094 40.6983 2
61.9659 45.9196 2
61.4417 43.6841 2
63.9427 37.4571 3.9709
62.1232 39.3554 3.97227
61.1935 41.959 3.97347
60.2447 44.7713 3.97415
65.8756 35.6665 0.0302976
65.1867 32.1536 0.0303479
64.2798 34.2495 0.0291871
62.5939 30.6351 0.028969
59.3124 15.6642 0.0191875
59.1257 18.3513 0.0227703
58.7395 20.8532 0.0300076
61.6514 27.0714 0.0288454
60.8482 29.1396 0.026554
59.3258 25.7966 0.0275495
58.2812 23.0939 0.0306177
57.9627 24.6651 0.0280017
56.6775 15.7376 0.0196305
54.3766 15.9938 0.0201055
53.8098 13.6762 0.0189885
52.1127 8.15181 0.012355
53.0583 11.014 0.0163572
64.0776 35.6322 2
62.9201 33.046 2
60.608 30.6113 2
57.9407 16.9776 2
57.7157 19.4722 2
57.3677 21.8432 2
59.5646 27.9102 2
57.1789 23.9492 2
57.7304 25.7267 2
50.1127 7.28301 2
55.5377 16.9665 2
53.7578 16.975 2
52.9774 15.2578 2
52.1721 12.7924 2
51.2327 10.1213 2
62.1587 35.3596 3.9718
60.2655 32.7453 3.97316
58.6058 30.0758 3.97472
57.2713 27.3824 3.97468
56.6366 18.1522 3.97941
56.2797 25.1024 3.97229
56.3549 20.522 3.97062
56.1008 22.8744 3.96733
48.0564 6.52655 3.98867
49.3246 9.32965 3.98508
50.4333 11.991 3.98278
51.3776 14.4944 3.98093
54.4145 17.9167 3.98075
52.3604 17.0324 3.97837
52.0716 67.0014 0.0105772
52.9543 64.2225 0.0137356
60.9859 47.8805 0.0307613
53.682 61.6279 0.0175313
56.6494 59.4934 0.020615
54.2608 59.3268 0.0215795
59.7057 52.1042 0.0308527
58.0149 49.6153 0.0293903
56.7774 56.9896 0.0264682
57.1187 54.1198 0.0286606
51.1686 65.1321 2
52.0469 62.545 2
55.4816 58.2558 2
52.8351 60.1424 2
53.6403 58.4781 2
58.2898 46.848 2
57.5531 51.7829 2
56.2297 49.5507 2
55.4715 55.7893 2
55.3514 53.3769 2
50.3472 63.3854 3.98512
51.2448 60.9412 3.98193
54.2187 57.2708 3.97846
52.3128 58.6394 3.97823
56.6769 44.1816 3.97662
55.4701 47.8933 3.97493
55.0569 51.3831 3.96953
53.999 54.5354 3.96936
49.3379 65.9243 0.0128978
48.6188 64.1278 2
47.963 62.48 3.98458
45.5591 67.1012 0.0131221
46.8933 64.7405 0.0142804
43.6319 67.4724 2
46.3826 63.0594 2
45.1332 65.2022 2
45.9884 61.5917 3.98427
44.768 63.4593 3.98506
43.3573 65.511 3.98555
41.6639 67.6905 3.98671
39.7025 70.0263 3.98914
41.8612 69.8798 2
42.1112 72.2077 3.9933
43.9741 69.5919 0.0105741
44.3772 71.8632 2
44.8159 74.2794 4
46.6096 71.3681 0.00642287
47.2057 73.7222 2
49.554 73.0099 0
48.7848 4.32215 3.99293
50.9546 5.13104 2
51.8506 2.85458 4
53.0646 6.07096 0.00766293
54.0858 3.86728 2
56.25 5.02411 0
61.9664 45.9198 0.0290278
63.3232 42.5508 0.0286137
61.4422 43.6842 0.0262966
62.4093 40.6983 0.0270933
63.8808 39.267 0.028979
65.8893 37.5018 0.030371
63.9423 37.4571 2
62.123 39.3554 2
61.1932 41.9589 2
60.2441 44.7711 2
61.9575 37.4448 3.97216
60.208 39.8475 3.97424
58.9591 42.9183 3.97529
64.0775 35.6322 0.0293224
62.92 33.046 0.0288505
60.6077 30.6113 0.0267318
57.9408 16.9787 0.0202365
57.7151 19.4734 0.0254762
57.3669 21.8429 0.0320977
59.5643 27.91 0.0268911
57.7298 25.7265 0.0265091
57.1789 23.9487 0.028889
55.538 16.9675 0.020052
53.7581 16.976 0.0195566
52.9776 15.259 0.0209384
50.1127 7.28359 0.0118375
52.1722 12.7934 0.0177729
51.2328 10.122 0.0154289
62.1586 35.3596 2
60.2658 32.7454 2
58.6053 30.076 2
56.6367 18.1509 2
56.3554 20.5195 2
56.1014 22.875 2
57.2721 27.3826 2
56.28 25.1032 2
48.0565 6.52599 2
49.3245 9.32907 2
54.4144 17.9157 2
52.3602 17.0315 2
51.3774 14.4933 2
50.4331 11.9903 2
59.847 35.1197 3.97329
57.9627 32.2704 3.97614
56.5225 29.3413 3.97569
55.4259 26.6007 3.9749
55.3408 19.186 3.97784
54.9163 24.0613 3.9708
54.995 21.5668 3.96884
45.9623 5.88153 3.98909
43.3736 7.47216 3.98669
47.355 8.62315 3.98565
48.6001 11.2922 3.98332
49.7138 13.741 3.9817
50.6328 16.129 3.97966
53.1232 18.6566 3.9768
51.3002 18.0459 3.98431
51.1689 65.1314 0.0131402
52.0471 62.5439 0.0156908
58.2899 46.8482 0.0266472
52.8351 60.1411 0.0196345
55.4815 58.2543 0.0216845
53.6402 58.4767 0.0199648
57.5527 51.7831 0.0308836
56.2303 49.5512 0.0271775
55.4707 55.7885 0.0290315
55.3505 53.3766 0.0302435
50.3469 63.3861 2
51.2448 60.9424 2
54.219 57.2723 2
52.3129 58.6405 2
56.6757 44.1813 2
55.4694 47.8927 2
55.0574 51.3826 2
54 54.5371 2
49.5926 61.7499 3.9839
55.5684 41.7027 3.97707
50.5672 59.3337 3.97827
52.1829 56.4933 3.97396
54.1362 45.5598 3.97733
53.3047 49.323 3.97265
52.6555 52.8385 3.96672
48.619 64.127 0.0143522
47.9627 62.4806 2
47.3302 61.0148 3.98383
43.632 67.4717 0.0131399
45.1335 65.2016 0.0143367
46.3828 63.0586 0.0151557
41.6638 67.6911 2
43.357 65.5117 2
45.9883 61.5926 2
44.7678 63.4601 2
45.7671 60.6363 3.9832
44.4843 61.8411 3.98397
43.1471 63.7315 3.98463
41.5466 65.6485 3.98517
39.6328 67.7702 3.98647
37.5259 70.0515 3.98904
39.7026 70.027 2
39.8179 72.4047 3.99317
41.8611 69.8792 0.0108
42.1114 72.208 2
42.3947 74.6792 4
44.3769 71.8629 0.00653536
44.8159 74.2794 2
47.2057 73.7222 0
43.8516 5.35841 3.98938
46.5707 3.64666 3.99315
48.785 4.32193 2
49.554 1.99015 4
50.9543 5.13123 0.00736025
51.8506 2.85453 2
54.0858 3.86728 0
60.2447 44.7713 0.025851
61.1935 41.959 0.0265307
62.1232 39.3554 0.0277305
63.9427 37.4571 0.0291035
61.9572 37.4448 2
60.2078 39.8475 2
58.9585 42.9181 2
59.6995 37.5667 3.97323
57.9405 40.6569 3.97599
55.0236 39.7198 3.97791
62.1587 35.3596 0.0281957
60.2655 32.7453 0.0268402
58.6058 30.0758 0.0252827
56.6366 18.1522 0.0205893
56.3549 20.522 0.0293769
56.1008 22.8744 0.0326694
57.2713 27.3824 0.0253192
56.2797 25.1024 0.0277079
54.4145 17.9167 0.0192506
52.3604 17.0324 0.0216272
51.3776 14.4944 0.0190711
48.0564 6.52655 0.01133
49.3246 9.32965 0.0149182
50.4333 11.991 0.01722
59.8465 35.1198 2
45.9623 5.88103 2
43.3736 7.4717 2
57.9648 32.2706 2
56.5222 29.3414 2
55.341 19.1847 2
54.9958 21.5658 2
54.9165 24.0625 2
55.4216 26.6019 2
47.355 8.62251 2
48.5999 11.2917 2
53.1233 18.6557 2
51.3001 18.0449 2
50.6326 16.128 2
49.7135 13.7402 2
57.3353 34.7606 3.97676
55.6937 31.5216 3.97698
54.4579 28.4079 3.97822
53.7548 25.5007 3.97439
53.9657 20.1361 3.97701
53.569 22.7192 3.9653
41.3987 7.07736 3.98714
45.3597 7.99423 3.9862
42.8655 9.41467 3.9848
46.6664 10.6528 3.98365
47.7453 13.101 3.98229
48.9306 15.3998 3.98029
50.0048 17.6983 3.97982
51.647 19.3204 3.98708
50.3472 63.3854 0.0148753
51.2448 60.9412 0.0180708
56.6769 44.1816 0.0233755
55.4701 47.8933 0.0250707
52.3128 58.6394 0.0217738
54.2187 57.2708 0.021544
55.0569 51.3831 0.030468
53.999 54.5354 0.0306382
49.5924 61.7506 2
55.5688 41.7024 2
50.5673 59.335 2
52.1834 56.4944 2
54.1387 45.5592 2
53.3071 49.3222 2
52.657 52.8378 2
48.8497 60.2074 3.98241
52.4421 42.6353 3.97764
49.7888 57.6307 3.9778
50.5852 54.4252 3.97105
51.752 47.2618 3.97586
51.189 50.9356 3.96818
48.0721 43.7979 3.99266
47.963 62.48 0.0154167
47.3301 61.0155 2
46.6195 59.8015 3.9831
41.6639 67.6905 0.0132929
43.3573 65.511 0.014448
44.768 63.4593 0.0149375
45.9884 61.5917 0.0157274
39.6328 67.7709 2
41.5464 65.6491 2
45.767 60.6371 2
43.147 63.7321 2
44.4842 61.8419 2
44.6243 60.2987 3.98324
42.9512 62.0892 3.98389
41.6005 63.8247 3.98462
39.6479 65.6166 3.98471
37.5633 67.7525 3.98633
31.6964 65.1355 3.9851
33.3918 67.49 3.98633
35.333 69.9616 3.98905
37.5259 70.0522 2
37.5094 72.4593 3.99308
39.7025 70.0263 0.0108628
39.818 72.4051 2
39.9526 74.9197 4
42.1112 72.2077 0.00670243
42.3947 74.6792 2
44.8159 74.2794 0
41.7362 4.96758 3.98968
43.8517 5.35794 2
44.3259 3.10982 3.99337
46.5709 3.64641 2
47.2057 1.27793 4
48.7848 4.32215 0.00707479
49.554 1.99013 2
51.8506 2.85458 0
58.9591 42.9183 0.0247148
60.208 39.8475 0.0257577
61.9575 37.4448 0.0278392
59.6995 37.5667 2
57.9399 40.6568 2
55.0236 39.7201 2
56.7436 37.8961 3.97679
49.4755 41.3334 3.9879
53.0431 39.303 3.97882
39.4421 6.80077 3.98719
59.847 35.1197 0.0267129
57.9627 32.2704 0.0238567
56.5225 29.3413 0.0243051
55.3408 19.186 0.0221577
54.995 21.5668 0.0311617
54.9163 24.0613 0.0292013
55.4259 26.6007 0.0250981
53.1232 18.6566 0.023198
51.3002 18.0459 0.0156894
50.6328 16.129 0.0203422
45.9623 5.88153 0.010909
49.7138 13.741 0.0183033
47.355 8.62315 0.0143512
48.6001 11.2922 0.0166837
43.3736 7.47216 0.0133145
57.3344 34.7608 2
41.3987 7.0768 2
45.3597 7.99376 2
42.8654 9.4142 2
55.6933 31.5217 2
54.4565 28.4092 2
53.9663 20.1354 2
53.5695 22.7168 2
53.7533 25.5018 2
46.6662 10.652 2
47.7449 13.1003 2
51.6471 19.3193 2
50.0046 17.6973 2
48.9304 15.399 2
54.8102 33.9752 3.97742
53.4345 30.4913 3.97545
52.5544 27.2054 3.97636
52.1249 24.1041 3.97246
52.3832 21.055 3.98068
41.0134 9.04755 3.98481
44.7237 9.99511 3.98416
42.4684 10.9018 3.98353
46.0051 12.7293 3.98166
47.6811 14.584 3.98137
48.1121 16.989 3.97845
49.8158 19.6152 3.97597
49.5926 61.7499 0.0160952
50.5672 59.3337 0.0217264
55.5684 41.7027 0.0229252
54.1362 45.5598 0.0226716
53.3047 49.323 0.0273501
52.1829 56.4933 0.0260437
52.6555 52.8385 0.0332796
48.8495 60.2082 2
52.4443 42.6338 2
49.789 57.6322 2
50.5861 54.4269 2
51.7528 47.2602 2
51.1915 50.9342 2
48.0747 43.8072 2
47.9873 58.7486 3.98031
50.0137 45.2707 3.97756
48.5942 55.9214 3.97834
49.1131 52.588 3.97182
49.6298 49.0399 3.97327
45.8788 39.8743 3.89689
46.3164 42.6798 3.94049
46.4188 45.8458 3.99363
43.7207 41.1718 3.86921
41.9672 42.0253 3.80259
47.3302 61.0148 0.0161674
46.6193 59.8021 2
45.4692 58.7982 3.98348
39.6328 67.7702 0.0135289
41.5466 65.6485 0.014833
43.1471 63.7315 0.0153736
44.4843 61.8411 0.0160283
45.7671 60.6363 0.0167958
41.6003 63.8253 2
37.5633 67.7533 2
39.6477 65.6172 2
44.6242 60.2995 2
42.9511 62.0899 2
41.7541 62.4999 3.98396
42.4818 59.9905 3.98471
39.8939 63.5596 3.98404
37.6423 65.5155 3.98434
35.4632 67.6618 3.98628
33.5749 65.3486 3.98459
31.9587 63.3082 3.98435
29.8824 64.7267 3.98558
31.6965 65.1361 2
31.3762 67.2 3.9865
33.3918 67.4908 2
33.1557 69.7548 3.989
35.333 69.9623 2
35.1947 72.3737 3.99305
37.5259 70.0515 0.0109599
37.5095 72.4597 2
37.5 75 4
39.8179 72.4047 0.00682703
39.9526 74.9197 2
42.3947 74.6792 0
39.6238 4.71465 3.98986
41.7362 4.96707 2
42.0622 2.71742 3.99347
43.8516 5.35841 0.0106222
44.3261 3.10955 2
44.8158 0.721173 4
46.5707 3.64666 0.00685216
47.2057 1.27779 2
49.554 1.99015 0
57.9405 40.6569 0.0240095
59.6995 37.5667 0.0267657
55.0236 39.7198 0.0220862
49.4888 41.3362 2
56.7428 37.8959 2
53.0437 39.3051 2
53.8923 36.6284 3.97798
47.4022 40.4112 3.94351
50.4145 38.5121 3.9878
37.5159 6.67173 3.9874
39.4421 6.80022 2
39.2108 8.69 3.98521
35.9413 8.48969 3.98554
57.3353 34.7606 0.0232396
55.6937 31.5216 0.0230176
54.4579 28.4079 0.0217767
53.9657 20.1361 0.02299
53.569 22.7192 0.0347033
53.7548 25.5007 0.0256079
51.647 19.3204 0.0129195
50.0048 17.6983 0.0201782
48.9306 15.3998 0.019708
45.3597 7.99423 0.0137994
47.7453 13.101 0.0177141
46.6664 10.6528 0.016349
41.3987 7.07736 0.0128649
42.8655 9.41467 0.0152046
54.8119 33.9744 2
41.0134 9.04705 2
44.7235 9.99474 2
42.4681 10.9013 2
53.4301 30.4909 2
52.5576 27.2067 2
52.384 21.0533 2
52.1258 24.1054 2
46.0047 12.7283 2
47.6808 14.5831 2
49.8161 19.6142 2
48.112 16.9881 2
52.3736 32.8824 3.98008
51.266 29.1614 3.97798
50.7569 25.7349 3.97219
49.933 22.199 3.97702
40.5695 11.6058 3.98252
43.858 11.9178 3.98259
45.8023 15.4216 3.98062
47.5027 19.2283 3.97643
46.2116 37.4951 3.90144
48.8497 60.2074 0.0175891
49.7888 57.6307 0.0222006
52.4421 42.6353 0.0223578
51.752 47.2618 0.0241367
51.189 50.9356 0.0318171
50.5852 54.4252 0.0289467
48.0721 43.7979 0.00733518
47.9872 58.7497 2
50.0188 45.2731 2
48.5947 55.9233 2
49.1144 52.5901 2
49.6326 49.0388 2
45.9019 39.8823 2
46.3327 42.6918 2
46.4193 45.8389 2
43.7415 41.1863 2
41.9753 42.0316 2
46.838 57.351 3.98287
44.4675 39.4526 3.86306
42.3165 40.8895 3.82822
48.0199 47.2375 3.97611
47.1593 54.2467 3.97745
47.5602 50.7432 3.96961
44.7463 47.4267 3.99301
44.9807 41.9654 3.8989
44.8698 44.5816 3.94717
42.5753 42.6925 3.86859
40.8626 42.3732 3.83232
46.6195 59.8015 0.0168956
45.4688 58.799 2
43.877 57.724 3.98455
37.5633 67.7525 0.0136669
39.6479 65.6166 0.0152869
41.6005 63.8247 0.0153824
42.9512 62.0892 0.0161052
44.6243 60.2987 0.0167592
35.4632 67.6626 2
41.754 62.5005 2
39.8938 63.5601 2
37.6422 65.5163 2
42.4818 59.9914 2
40.6235 61.6583 3.98355
40.4457 58.2238 3.98546
37.837 63.2205 3.98327
35.5727 65.4376 3.98442
33.575 65.3493 2
31.9587 63.3089 2
33.6285 63.3477 3.98374
30.3775 62.8671 3.98466
32.1224 62.015 3.98487
26.8673 61.5105 3.98405
28.0611 64.1549 3.98572
29.8825 64.7274 2
29.4054 66.7638 3.98671
31.6964 65.1355 0.0149015
31.3763 67.2006 2
31.0127 69.4199 3.98906
33.3918 67.49 0.0136682
33.1556 69.7555 2
32.8917 72.1479 3.99309
35.333 69.9616 0.0109533
35.1947 72.3741 2
35.0474 74.9194 4
37.5094 72.4593 0.00691734
37.5 75 2
39.9526 74.9197 0
35.6204 6.72279 3.98725
37.523 4.61416 3.99001
39.6238 4.71416 2
39.7886 2.4738 3.9936
41.7362 4.96758 0.0103187
42.0624 2.71711 2
42.3946 0.32156 4
44.3259 3.10982 0.00663204
44.8159 0.72056 2
47.2057 1.27793 0
49.4755 41.3334 0.0120987
56.7436 37.8961 0.0232057
53.0431 39.303 0.0211786
47.4164 40.4226 2
50.4266 38.5111 2
53.8967 36.6294 2
51.2158 35.5813 3.9784
48.0568 37.7474 3.95956
45.8825 35.139 3.89796
43.7312 33.8322 3.86507
41.9754 32.9876 3.7996
37.4576 8.53151 3.98534
37.5159 6.67101 2
39.4421 6.80077 0.0128115
39.2109 8.68943 2
38.9763 10.1234 3.98469
35.8982 9.76983 3.98413
34.1498 8.81919 3.9853
35.9413 8.48894 2
54.8102 33.9752 0.022582
53.4345 30.4913 0.0245476
52.5544 27.2054 0.0236388
52.3832 21.055 0.0193214
52.1249 24.1041 0.0275368
49.8158 19.6152 0.0240268
48.1121 16.989 0.0215534
47.6811 14.584 0.0186287
44.7237 9.99511 0.0158399
46.0051 12.7293 0.0183372
41.0134 9.04755 0.0151893
42.4684 10.9018 0.0164679
52.374 32.8825 2
40.5691 11.6055 2
43.8575 11.9174 2
51.2768 29.1611 2
50.7577 25.7374 2
49.9341 22.1983 2
45.8019 15.4203 2
47.5028 19.2264 2
49.9011 31.4159 3.96855
49.2403 27.4919 3.97707
49.3838 24.4127 3.98055
47.1826 21.9599 3.97462
38.302 12.7312 3.98244
42.1014 14.3036 3.98137
44.7996 18.4608 3.97873
44.7583 37.5019 3.86286
46.2398 37.5024 2
47.9873 58.7486 0.0196888
48.5942 55.9214 0.021663
50.0137 45.2707 0.022442
49.6298 49.0399 0.0267284
49.1131 52.588 0.0281835
45.8788 39.8743 0.10311
46.3164 42.6798 0.0595102
46.4188 45.8458 0.00636573
43.7207 41.1718 0.130789
41.9672 42.0253 0.197411
46.8379 57.3524 2
44.4804 39.4626 2
42.3128 40.8901 2
48.0218 47.2388 2
47.1602 54.2502 2
47.5626 50.7445 2
44.7503 47.4031 2
44.9968 41.9778 2
44.8845 44.5964 2
42.6004 42.7121 2
40.8611 42.3735 2
45.396 55.9392 3.98664
42.6429 39.2779 3.84222
40.7738 40.8126 3.89383
46.0515 48.9147 3.98608
45.5261 52.5386 3.98145
43.4119 48.4571 4.00762
43.3344 46.1388 3.94533
43.6043 43.7785 3.8967
41.101 43.8642 3.86546
39.2908 42.7326 3.8454
45.4692 58.7982 0.0165151
43.8766 57.7247 2
42.1069 56.3515 3.98839
35.4632 67.6618 0.01372
37.6423 65.5155 0.0156585
39.8939 63.5596 0.0159617
41.7541 62.4999 0.0160432
42.4818 59.9905 0.0152867
35.5727 65.4385 2
40.6233 61.6589 2
37.8369 63.2211 2
40.4454 58.2251 2
38.9257 56.5209 3.99088
38.2505 60.3414 3.98379
35.6068 63.214 3.98311
33.5749 65.3486 0.0154086
31.9587 63.3082 0.0156541
33.6285 63.3484 2
30.3775 62.8678 2
32.1223 62.0157 2
28.6798 62.2128 3.98511
33.3452 61.5275 3.98406
31.0656 61.2327 3.98455
27.5667 59.6083 3.98253
23.7901 59.0929 3.98028
25.033 60.8823 3.9828
26.8674 61.5111 2
26.2277 63.487 3.9854
28.0613 64.1556 2
27.4618 66.1877 3.9869
29.8824 64.7267 0.0144183
29.4056 66.7645 2
28.9048 68.9454 3.98917
31.3762 67.2 0.0135036
31.0127 69.4205 2
30.614 71.7789 3.99318
33.1557 69.7548 0.0109985
32.8915 72.1483 2
32.6054 74.6784 4
35.1947 72.3737 0.0069475
35.0474 74.9197 2
37.5 75 0
33.723 6.97737 3.98684
35.4344 4.68449 3.98983
35.6204 6.72214 2
37.514 2.38646 3.99363
37.523 4.61362 2
39.6238 4.71465 0.010138
39.7887 2.4735 2
39.9526 0.0806499 4
42.0622 2.71742 0.00653263
42.3947 0.320817 2
44.8158 0.721173 0
44.4888 35.5508 3.8577
42.329 34.116 3.82487
47.4022 40.4112 0.0564858
50.4145 38.5121 0.0121951
53.8923 36.6284 0.0220161
48.0691 37.7552 2
51.2246 35.5807 2
45.8995 35.1238 2
43.7537 33.8167 2
41.9836 32.9806 2
48.2385 34.3052 3.98041
44.9872 33.0397 3.89397
42.5838 32.3206 3.86587
40.872 32.6378 3.8299
37.3104 10.6267 3.98351
37.4576 8.53057 2
37.5159 6.67173 0.0125952
39.2108 8.69 0.0147929
38.9762 10.1227 2
34.7533 10.3756 3.98375
35.8981 9.76905 2
32.3765 9.36577 3.98473
34.1497 8.81847 2
35.9413 8.48969 0.0144591
52.3736 32.8824 0.0199236
51.266 29.1614 0.0220179
50.7569 25.7349 0.0278081
49.933 22.199 0.0229761
47.5027 19.2283 0.0235739
45.8023 15.4216 0.0193769
43.858 11.9178 0.0174146
40.5695 11.6058 0.0174823
49.9066 31.4113 2
38.3015 12.7306 2
42.1008 14.3034 2
49.2413 27.4954 2
49.3848 24.4124 2
47.1838 21.9608 2
44.7997 18.4595 2
47.7304 29.5366 3.99115
47.0811 25.1513 3.98205
44.2872 21.3192 3.97537
36.5816 12.9273 3.98241
38.6812 14.8018 3.98146
41.7497 17.8347 3.98056
42.7822 37.4931 3.84192
44.773 37.5013 2
46.2116 37.4951 0.0985553
46.838 57.351 0.017133
47.1593 54.2467 0.0225451
48.0199 47.2375 0.0238922
47.5602 50.7432 0.0303884
44.4675 39.4526 0.136937
44.9807 41.9654 0.101105
44.8698 44.5816 0.0528338
44.7463 47.4267 0.00699185
42.5753 42.6925 0.131406
42.3165 40.8895 0.171782
40.8626 42.3732 0.167676
45.3963 55.9406 2
42.6433 39.2761 2
40.7695 40.8084 2
46.053 48.9155 2
45.5285 52.5426 2
43.4148 48.4737 2
43.3563 46.1599 2
43.621 43.7949 2
41.1187 43.8823 2
39.2844 42.7265 2
43.7328 54.4562 3.99704
40.88 39.1775 3.92175
39.1737 40.9049 3.92361
43.676 50.5098 3.99832
41.9301 47.6851 3.97796
41.8542 45.1984 3.8979
39.3722 44.6014 3.87972
37.4903 42.856 3.85554
43.877 57.724 0.0154485
42.1063 56.3528 2
40.4183 54.9628 3.992
35.5727 65.4376 0.0155826
37.837 63.2205 0.0167328
40.6235 61.6583 0.0164511
40.4457 58.2238 0.0145385
35.6067 63.2148 2
38.2502 60.3421 2
38.9252 56.5231 2
37.9995 55.2788 3.9916
36.9344 57.6463 3.98529
35.3632 60.926 3.98348
33.6285 63.3477 0.0162558
30.3775 62.8671 0.0153382
32.1224 62.015 0.0151342
33.345 61.5283 2
28.6799 62.2134 2
31.0655 61.2333 2
29.4015 60.3034 3.98427
32.3556 59.7606 3.98608
28.0205 58.3881 3.9855
27.5667 59.6089 2
25.377 58.6057 3.98008
22.754 58.2494 3.97546
23.3989 60.3613 3.98079
23.79 59.0939 2
25.0331 60.8832 2
24.4304 62.779 3.98458
26.8673 61.5105 0.0159527
26.2279 63.4876 2
25.5458 65.4976 3.98689
28.0611 64.1549 0.0142755
27.462 66.1883 2
26.8343 68.3337 3.98924
29.4054 66.7638 0.0132895
28.9048 68.9459 2
28.369 71.2641 3.99328
31.0127 69.4199 0.0109379
30.6138 71.7792 2
30.1842 74.2788 4
32.8917 72.1479 0.00690957
32.6053 74.6792 2
35.0474 74.9194 0
31.7873 7.41716 3.98649
33.3463 4.92365 3.98965
33.7229 6.97673 2
35.2442 2.4626 3.99362
35.4343 4.68397 2
35.6204 6.72279 0.0127496
37.5 0 4
37.5141 2.38614 2
37.523 4.61416 0.00998927
39.7886 2.4738 0.00640134
39.9526 0.0802889 2
42.3946 0.32156 0
42.6533 35.7167 3.84252
44.498 35.5416 2
40.7851 34.1948 3.89275
42.3245 34.1166 2
48.0568 37.7474 0.0404394
51.2158 35.5813 0.0216007
45.8825 35.139 0.102043
43.7312 33.8322 0.134931
41.9754 32.9876 0.200396
48.2506 34.29 2
45.0042 33.0276 2
42.6058 32.3029 2
40.8705 32.6367 2
46.2495 31.5591 3.95827
43.6097 31.2369 3.89237
41.1147 31.1529 3.8676
39.2984 32.2773 3.84473
35.6918 11.7714 3.98259
37.3104 10.6259 2
37.4576 8.53151 0.014662
38.9763 10.1234 0.0153142
33.0971 11.2122 3.98266
34.7533 10.3748 2
35.8982 9.76983 0.0158704
30.4811 10.0137 3.98422
32.3763 9.36504 2
34.1498 8.81919 0.0147023
49.9011 31.4159 0.0314514
49.2403 27.4919 0.0229301
49.3838 24.4127 0.0194508
47.1826 21.9599 0.0253798
44.7996 18.4608 0.0212735
42.1014 14.3036 0.0186335
38.302 12.7312 0.0175637
36.5812 12.9267 2
47.7316 29.5244 2
38.6804 14.8015 2
41.749 17.8338 2
47.0829 25.1522 2
44.2884 21.3165 2
45.515 27.6501 4.00017
43.7903 24.0466 3.99812
41.3405 20.712 3.9812
35.7715 14.7527 3.98187
38.6812 17.59 3.9796
40.93 37.4853 3.93322
42.7862 37.4946 2
44.7583 37.5019 0.137144
45.396 55.9392 0.0133574
45.5261 52.5386 0.0185485
46.0515 48.9147 0.0139214
42.6429 39.2779 0.157783
43.6043 43.7785 0.103299
43.3344 46.1388 0.0546721
43.4119 48.4571 -0.00761512
41.101 43.8642 0.134541
40.7738 40.8126 0.106168
39.2908 42.7326 0.154602
43.7336 54.4588 2
40.8756 39.1748 2
39.1683 40.8971 2
43.6791 50.5215 2
41.9326 47.6973 2
41.8776 45.214 2
37.4922 42.8477 2
39.3931 44.6084 2
41.8755 53.033 3.99502
39.1898 39.1795 3.95361
37.4918 40.9534 3.93879
35.6974 42.731 3.84599
40.9098 49.7407 4.00264
39.8033 46.1029 3.87957
37.4934 44.8332 3.87478
42.1069 56.3515 0.011613
40.4176 54.9641 2
38.7284 53.8952 3.99461
35.6068 63.214 0.0168894
38.2505 60.3414 0.0162074
38.9257 56.5209 0.00912261
35.363 60.9268 2
36.9339 57.6472 2
37.9989 55.2801 2
36.3197 55.4087 3.99245
34.4867 58.5385 3.98547
33.3452 61.5275 0.0159393
28.6798 62.2128 0.0148934
31.0656 61.2327 0.0154478
32.3555 59.7613 2
29.4015 60.3038 2
30.296 57.8359 3.98566
28.0202 58.3888 2
26.9432 56.8373 3.97985
27.5667 59.6083 0.0174746
25.3769 58.6066 2
23.8366 56.8105 3.97376
21.3309 57.4072 3.97522
21.9916 59.6318 3.97999
22.7538 58.2508 2
22.7342 62.03 3.98325
23.3989 60.3623 2
23.7901 59.0929 0.0197191
25.033 60.8823 0.0172012
24.4305 62.7798 2
23.6797 64.7158 3.98639
26.2277 63.487 0.0146032
25.546 65.4982 2
24.8065 67.5947 3.98925
27.4618 66.1877 0.0130999
26.8343 68.3342 2
26.1641 70.6048 3.99334
28.9048 68.9454 0.0108284
28.3687 71.2643 2
27.7943 73.7221 4
30.614 71.7789 0.00681945
30.1841 74.2794 2
32.6054 74.6784 0
29.8098 7.99037 3.986
31.2514 5.33078 3.98927
31.7872 7.41643 2
32.9798 2.70076 3.9935
33.3462 4.9231 2
33.723 6.97737 0.0131627
35.0474 0.080333 4
35.2441 2.46228 2
35.4344 4.68449 0.0101685
37.5 0 2
37.514 2.38646 0.00636508
39.9526 0.0806499 0
40.8861 35.8055 3.92342
42.6529 35.7196 2
44.4888 35.5508 0.142301
28.5418 10.6889 3.98411
39.1816 34.1037 3.92324
40.7789 34.1996 2
42.329 34.116 0.175127
48.2385 34.3052 0.0195907
44.9872 33.0397 0.106026
42.5838 32.3206 0.134133
40.872 32.6378 0.1701
46.2671 31.5508 2
43.621 31.2227 2
41.1332 31.1356 2
39.2939 32.2819 2
44.3792 29.7462 3.94658
41.8733 29.8192 3.90095
39.3916 30.4074 3.8806
37.499 32.1543 3.8567
34.0916 12.9295 3.98191
35.6916 11.7706 2
37.3104 10.6267 0.0164899
31.1849 11.9802 3.9831
33.097 11.2114 2
34.7533 10.3756 0.0162537
30.4809 10.0129 2
32.3765 9.36577 0.0152743
47.7304 29.5366 0.00885141
47.0811 25.1513 0.0179547
36.5816 12.9273 0.0175877
44.2872 21.3192 0.0246261
41.7497 17.8347 0.0194377
38.6812 14.8018 0.0185358
35.7708 14.7523 2
45.5157 27.6487 2
38.6801 17.5893 2
41.3405 20.7092 2
43.792 24.0474 2
33.6066 15.8688 3.98172
43.0367 26.479 3.99825
40.9122 23.2795 3.9997
38.4205 20.3211 3.98076
35.8476 17.5011 3.98247
39.2067 37.486 3.96123
40.9209 37.4854 2
42.7822 37.4931 0.158077
43.7328 54.4562 0.0029608
43.676 50.5098 0.00168438
40.88 39.1775 0.0782502
41.8542 45.1984 0.102097
41.9301 47.6851 0.0220444
39.3722 44.6014 0.120279
39.1737 40.9049 0.0763889
37.4903 42.856 0.144462
41.8776 53.0368 2
39.1836 39.1778 2
37.4916 40.9458 2
40.916 49.7453 2
35.7017 42.7264 2
39.8274 46.1233 2
37.4906 44.8353 2
39.8137 51.947 3.99464
37.4903 39.1934 3.97086
35.8086 40.9136 3.92307
34.1211 42.371 3.83104
35.5938 44.6013 3.87725
38.7019 48.7577 3.98935
37.4836 46.4283 3.88294
40.4183 54.9628 0.00799508
38.7282 53.8954 2
36.7193 53.247 4.00675
35.3632 60.926 0.0165165
36.9344 57.6463 0.0147078
37.9995 55.2788 0.00839591
34.4864 58.5391 2
36.319 55.4097 2
33.2257 55.5238 3.98821
32.3556 59.7606 0.0139242
29.4015 60.3034 0.0157294
30.2958 57.8366 2
28.6883 55.3264 3.97894
28.0205 58.3881 0.0144988
26.9426 56.8379 2
25.3082 55.1477 3.97489
21.8062 55.353 3.97032
25.377 58.6057 0.0199186
23.8361 56.812 2
20.2155 57.0343 3.97845
20.6427 58.7888 3.97817
21.3305 57.4085 2
21.1647 61.1785 3.98152
21.9915 59.6331 2
22.754 58.2494 0.0245422
21.8932 63.8435 3.98572
22.7343 62.0309 2
23.3989 60.3613 0.0192123
24.4304 62.779 0.0154234
23.6799 64.7165 2
22.8347 66.7383 3.98922
25.5458 65.4976 0.0131095
24.8065 67.5952 2
24.0083 69.8059 3.99333
26.8343 68.3337 0.0107571
26.1639 70.605 2
25.446 73.0099 4
28.369 71.2641 0.00672487
27.7943 73.7222 2
30.1842 74.2788 0
27.8195 8.64997 3.98575
29.1533 5.87653 3.98886
29.8096 7.98958 2
30.725 3.09795 3.99331
31.2513 5.33019 2
31.7873 7.41716 0.0135143
32.6053 0.320823 4
32.9797 2.70044 2
33.3463 4.92365 0.0103504
35.0474 0.0802903 2
35.2442 2.4626 0.00637607
37.5 0 0
39.2023 35.805 3.95278
40.8804 35.8086 2
42.6533 35.7167 0.157477
28.5417 10.6882 2
26.6206 11.3838 3.98426
29.2237 12.6364 3.98364
37.498 34.056 3.93907
39.1752 34.1112 2
40.7851 34.1948 0.107249
46.2495 31.5591 0.0417266
43.6097 31.2369 0.107634
41.1147 31.1529 0.132405
39.2984 32.2773 0.155272
44.3961 29.7321 2
41.893 29.8014 2
39.4076 30.3949 2
37.5001 32.1628 2
42.3544 28.3858 3.93381
39.8559 28.9037 3.89613
37.515 30.1655 3.87318
35.7037 32.2731 3.84473
31.9129 14.474 3.98255
34.0914 12.9287 2
35.6918 11.7714 0.0174101
31.1849 11.9793 2
33.0971 11.2122 0.0173448
30.4811 10.0137 0.0157833
45.515 27.6501 -0.000174634
43.7903 24.0466 0.00188178
35.7715 14.7527 0.0181333
41.3405 20.712 0.0188033
38.6812 17.59 0.0204035
33.6059 15.8684 2
35.8463 17.5012 2
43.0398 26.4799 2
38.4199 20.32 2
40.9124 23.2728 2
33.5488 17.3773 3.98348
40.415 25.6202 4.00728
38.0754 22.8521 3.99424
35.583 20.067 3.98575
37.4954 37.4954 3.97901
39.1987 37.4861 2
40.93 37.4853 0.0667758
41.8755 53.033 0.00498296
40.9098 49.7407 -0.00264306
39.1898 39.1795 0.0463876
39.8033 46.1029 0.120426
37.4934 44.8332 0.125217
37.4918 40.9534 0.0612053
35.6974 42.731 0.154008
39.8184 51.9499 2
37.4916 39.1906 2
35.8149 40.9066 2
38.7028 48.7878 2
34.122 42.3715 2
35.5823 44.6168 2
37.4849 46.4487 2
37.6515 51.0445 4.01045
35.7961 39.1955 3.95438
34.2122 40.8205 3.89358
33.0118 42.0218 3.80096
33.8708 43.8545 3.86638
35.1495 46.0909 3.89101
36.8487 48.403 3.9688
38.7284 53.8952 0.00538643
36.72 53.2483 2
34.361 52.4996 3.99523
34.4867 58.5385 0.0145303
36.3197 55.4087 0.00754633
33.225 55.5244 2
30.5178 53.3968 3.98108
30.296 57.8359 0.0143385
28.6878 55.328 2
26.8804 53.4389 3.97468
26.9432 56.8373 0.020147
25.3077 55.1506 2
23.5715 53.4818 3.96856
20.4659 53.2195 3.96491
19.9288 55.8359 3.97398
21.8053 55.3543 2
23.8366 56.8105 0.0262392
19.4352 57.8963 3.97736
20.215 57.0358 2
19.7043 60.2108 3.97995
20.6425 58.7901 2
21.3309 57.4072 0.0247753
20.2057 62.8641 3.98404
21.1647 61.1797 2
21.9916 59.6318 0.0200096
20.9362 65.7673 3.989
21.8933 63.8444 2
22.7342 62.03 0.0167532
23.6797 64.7158 0.0136089
22.8348 66.7389 2
21.9108 68.8729 3.9933
24.8065 67.5947 0.0107545
24.008 69.8061 2
23.1494 72.1454 4
26.1641 70.6048 0.00666288
25.446 73.0099 2
27.7943 73.7221 0
25.8586 9.37804 3.98552
27.068 6.54061 3.98842
27.8194 8.64917 2
28.4871 3.64392 3.9931
29.1531 5.8759 2
29.8098 7.99037 0.0140011
30.1841 0.720592 4
30.7248 3.09763 2
31.2514 5.33078 0.0107262
32.6053 0.320817 2
32.9798 2.70076 0.00650015
35.0474 0.080333 0
37.4985 35.8035 3.9719
39.1932 35.8068 2
40.8861 35.8055 0.0765844
24.7754 12.0667 3.98443
23.7499 14.3513 3.98352
28.5418 10.6889 0.0158946
26.6206 11.3832 2
29.2237 12.6357 2
27.2898 13.3688 3.98385
29.7786 14.1955 3.98318
35.8191 34.0955 3.92397
37.4981 34.0635 2
39.1816 34.1037 0.0767649
37.499 32.1543 0.143303
44.3792 29.7462 0.05342
41.8733 29.8192 0.0990493
39.3916 30.4074 0.119404
42.3731 28.3669 2
39.8707 28.8799 2
37.5156 30.1634 2
35.7105 32.2779 2
40.0462 27.5315 3.92984
37.5265 28.5758 3.89302
35.6184 30.4078 3.8807
34.1356 32.63 3.83
30.9243 16.8298 3.98305
31.9127 14.4733 2
34.0916 12.9295 0.0180866
31.1849 11.9802 0.0168977
43.0367 26.479 0.00174938
40.9122 23.2795 0.000304849
33.6066 15.8688 0.0182835
35.8476 17.5011 0.0175252
38.4205 20.3211 0.01924
33.5478 17.3774 2
35.5824 20.0668 2
40.4149 25.6143 2
38.0741 22.8505 2
32.8616 19.7824 3.9844
37.8018 25.163 4.01547
35.2008 22.6211 3.99229
35.7886 37.5012 3.96348
37.4955 37.4949 2
39.2067 37.486 0.0387748
39.8137 51.947 0.00535608
38.7019 48.7577 0.0106545
37.4903 39.1934 0.0291378
37.4836 46.4283 0.117055
35.5938 44.6013 0.122748
35.8086 40.9136 0.0769333
34.1211 42.371 0.168959
37.6574 51.0552 2
35.8055 39.193 2
34.2175 40.8157 2
36.8426 48.4202 2
33.0044 42.0273 2
33.8577 43.8681 2
35.1333 46.1068 2
35.464 50.1741 4.00987
34.1161 39.1922 3.92422
32.658 40.8915 3.82642
32.4018 42.6885 3.86958
33.1287 45.19 3.89904
34.2632 47.463 3.94044
36.7193 53.247 -0.00674851
34.3619 52.5028 2
32.0019 51.2049 3.99952
33.2257 55.5238 0.0117885
30.5171 53.4003 2
28.4268 51.6097 3.97854
28.6883 55.3264 0.0210609
26.8796 53.4412 2
25.0781 51.7511 3.96625
25.3082 55.1477 0.0251065
23.5706 53.4831 2
21.9648 51.8028 3.96478
19.1996 51.6343 3.96953
18.9193 54.3082 3.96714
20.4648 53.2193 2
18.444 56.7273 3.97705
19.928 55.8374 2
21.8062 55.353 0.0296821
18.3667 59.1159 3.97704
19.4348 57.8974 2
20.2155 57.0343 0.0215471
18.617 61.7705 3.98206
19.7042 60.212 2
20.6427 58.7888 0.0218264
19.1253 64.6778 3.98804
20.2058 62.8653 2
21.1647 61.1785 0.0184789
19.8848 67.8095 3.99314
20.9363 65.768 2
21.8932 63.8435 0.0142845
22.8347 66.7383 0.0107755
21.9105 68.8731 2
20.9142 71.1327 4
24.0083 69.8059 0.00666508
23.1494 72.1455 2
25.446 73.0099 0
23.0948 12.7812 3.98404
23.971 10.1645 3.9854
25.0217 7.31083 3.98812
25.8585 9.37739 2
26.2788 4.32818 3.99287
27.0677 6.53998 2
27.8195 8.64997 0.0142544
27.7943 1.27781 4
28.4869 3.64361 2
29.1533 5.87653 0.0111383
30.1841 0.720551 2
30.725 3.09795 0.0066889
32.6053 0.320823 0
35.7994 35.8094 3.95545
37.498 35.8056 2
39.2023 35.805 0.0472249
24.7756 12.0662 2
23.7502 14.351 2
22.4786 15.028 3.98292
25.356 13.9006 3.98341
24.0231 15.6134 3.98236
26.6206 11.3838 0.0157356
29.2237 12.6364 0.0163585
27.2899 13.3684 2
29.7785 14.1947 2
28.3546 15.9688 3.98351
34.2263 34.1881 3.89283
35.8251 34.1024 2
37.498 34.056 0.0609342
35.7037 32.2731 0.155274
37.515 30.1655 0.126822
42.3544 28.3858 0.0661888
39.8559 28.9037 0.103865
40.0591 27.5168 2
37.5294 28.5531 2
35.6036 30.3907 2
34.1368 32.6293 2
37.6192 27.2159 3.94007
35.1846 28.8964 3.89368
33.8817 31.1458 3.86601
33.0344 32.9773 3.80079
30.2062 19.3318 3.9861
30.9238 16.8295 2
31.9129 14.474 0.0174508
40.415 25.6202 -0.00728075
38.0754 22.8521 0.00575847
33.5488 17.3773 0.0165175
35.583 20.067 0.0142524
32.8605 19.7832 2
35.1975 22.6179 2
37.7896 25.1634 2
32.3095 22.3957 3.99055
34.9827 25.152 4.00707
34.0667 37.5019 3.93386
35.7971 37.5006 2
37.4954 37.4954 0.0209898
37.6515 51.0445 -0.0104488
36.8487 48.403 0.0312029
35.7961 39.1955 0.0456238
35.1495 46.0909 0.108987
33.8708 43.8545 0.133624
34.2122 40.8205 0.106424
33.0118 42.0218 0.199042
35.4612 50.186 2
34.1252 39.1894 2
32.6607 40.8905 2
34.2587 47.496 2
32.3832 42.7026 2
33.1116 45.2075 2
33.2424 49.1635 4.00722
32.3366 39.285 3.84415
31.2475 41.1709 3.86598
31.3832 43.7727 3.89391
32.2467 46.3798 3.93914
34.361 52.4996 0.00476751
32.0006 51.2123 2
29.857 49.7228 3.98879
30.5178 53.3968 0.0189241
28.4251 51.6084 2
26.5088 49.9912 3.97078
26.8804 53.4389 0.0253221
25.0766 51.7501 2
23.3439 50.1972 3.97199
23.5715 53.4818 0.0314366
21.9639 51.8022 2
20.4637 50.3181 3.97063
17.988 50.3321 3.97053
17.8327 52.7902 3.96688
19.1989 51.6339 2
17.4346 55.3418 3.97089
18.9182 54.3084 2
20.4659 53.2195 0.0350872
17.1327 57.877 3.97701
18.4433 56.7283 2
19.9288 55.8359 0.0260229
17.1348 60.5524 3.97942
18.3665 59.1171 2
19.4352 57.8963 0.0226422
17.406 63.4699 3.98599
18.617 61.7717 2
19.7043 60.2108 0.0200478
17.941 66.6179 3.99287
19.1253 64.6788 2
20.2057 62.8641 0.0159642
18.75 69.9759 4
19.8845 67.8096 2
20.9362 65.7673 0.0109958
21.9108 68.8729 0.00669676
20.9142 71.1327 2
23.1494 72.1454 0
21.5857 13.6015 3.98345
22.1891 11.0237 3.98508
23.0951 12.7811 2
23.0395 8.17622 3.98796
23.9711 10.1641 2
24.1164 5.14294 3.99265
25.0214 7.31031 2
25.8586 9.37804 0.014477
25.446 1.99014 4
26.2784 4.32792 2
27.068 6.54061 0.0115763
27.7943 1.27778 2
28.4871 3.64392 0.0069035
30.1841 0.720592 0
34.1145 35.8126 3.92258
35.8068 35.8109 2
37.4985 35.8035 0.0280967
21.3038 15.8236 3.98248
24.7754 12.0667 0.015572
23.7499 14.3513 0.0164752
25.3562 13.9003 2
22.4791 15.0279 2
24.0236 15.6133 2
23.2624 16.2453 3.98216
25.3784 16.0815 3.98324
27.2898 13.3688 0.0161517
29.7786 14.1955 0.0168178
28.3548 15.9687 2
27.438 18.7905 3.98481
32.6836 34.1085 3.82594
34.2328 34.1924 2
35.8191 34.0955 0.0760287
34.1356 32.63 0.169997
35.6184 30.4078 0.119305
37.5265 28.5758 0.106982
40.0462 27.5315 0.0701586
37.6211 27.1868 2
33.0244 32.9724 2
35.1695 28.8772 2
33.8667 31.1259 2
35.0686 27.3416 3.94476
33.1461 29.8161 3.89423
32.4138 32.3049 3.86354
29.5746 21.9247 3.99575
30.2057 19.3328 2
30.9243 16.8298 0.0169457
37.8018 25.163 -0.0154715
35.2008 22.6211 0.00771306
32.8616 19.7824 0.0155988
32.306 22.3964 2
34.9946 25.1501 2
31.6981 25.6111 4.00142
32.2058 37.5035 3.84315
34.077 37.5023 2
35.7886 37.5012 0.0365162
35.464 50.1741 -0.00987017
34.2632 47.463 0.0595621
34.1161 39.1922 0.0757775
33.1287 45.19 0.100956
32.4018 42.6885 0.130423
32.658 40.8915 0.173583
33.2377 49.1541 2
32.3373 39.2822 2
31.2262 41.182 2
32.2242 46.4016 2
31.3682 43.785 2
31.1492 47.9892 3.99551
30.4988 39.4519 3.8593
29.9979 41.9661 3.89539
30.4274 44.9629 3.94546
32.0019 51.2049 0.000482876
29.8547 49.7211 2
27.8771 48.1886 3.97468
28.4268 51.6097 0.0214642
26.5072 49.99 2
24.6547 48.4763 3.97695
25.0781 51.7511 0.0337497
23.3428 50.1963 2
21.6666 48.7948 3.97171
21.9648 51.8028 0.0352165
20.4632 50.3174 2
19.0343 49.0959 3.97271
16.8921 49.3331 3.9722
16.7736 51.4068 3.96919
17.9878 50.3317 2
16.3887 53.8694 3.96798
17.832 52.7901 2
19.1996 51.6343 0.0304741
15.9748 56.4775 3.97414
17.4338 55.3428 2
18.9193 54.3082 0.0328562
15.7483 59.2124 3.9784
17.1324 57.8782 2
18.444 56.7273 0.0229465
15.787 62.1394 3.98312
17.1348 60.5537 2
18.3667 59.1159 0.02296
16.0878 65.3003 3.99217
17.406 63.4709 2
18.617 61.7705 0.017944
16.6661 68.6801 4
17.9406 66.618 2
19.1253 64.6778 0.011962
18.75 69.9759 2
19.8848 67.8095 0.00685998
20.9142 71.1327 0
20.2178 14.5904 3.98267
21.5861 13.6014 2
20.5284 11.9935 3.98448
21.1424 9.14596 3.98789
22.1893 11.0234 2
23.0948 12.7812 0.0159606
22.0154 6.08193 3.99256
23.0393 8.17581 2
23.971 10.1645 0.014596
23.1494 2.85457 4
24.116 5.14278 2
25.0217 7.31083 0.0118837
25.446 1.99012 2
26.2788 4.32818 0.00712802
27.7943 1.27781 0
32.3472 35.7168 3.84186
34.1219 35.8161 2
35.7994 35.8094 0.0445492
21.3042 15.8233 2
20.3015 16.958 3.98241
22.0956 16.6295 3.98072
25.356 13.9006 0.0165918
22.4786 15.028 0.0170799
24.0231 15.6134 0.0176408
25.3789 16.0813 2
23.2628 16.2452 2
24.2023 18.4451 3.98024
27.0126 21.4488 3.9884
28.3546 15.9688 0.01649
27.438 18.7906 2
31.2824 33.8327 3.86743
32.6854 34.111 2
34.2263 34.1881 0.107174
33.0344 32.9773 0.19921
33.8817 31.1458 0.133987
35.1846 28.8964 0.106316
37.6192 27.2159 0.0599339
35.0528 27.3149 2
32.3985 32.2964 2
33.1282 29.7891 2
32.5531 28.0767 3.96294
31.3827 31.2335 3.89687
28.805 24.3921 3.98444
29.5711 21.9272 2
30.2062 19.3318 0.013896
34.9827 25.152 -0.00707274
32.3095 22.3957 0.00945319
31.7064 25.5984 2
29.6574 27.3021 3.96798
30.2228 37.4963 3.8634
32.2067 37.5022 2
34.0667 37.5019 0.066142
33.2424 49.1635 -0.00721829
32.2467 46.3798 0.0608589
32.3366 39.285 0.155853
31.3832 43.7727 0.106091
31.2475 41.1709 0.134017
31.1473 47.9904 2
30.4849 39.4627 2
29.982 41.979 2
30.4053 44.9781 2
29.1923 46.5857 4.0003
29.0964 39.8565 3.89569
28.7172 43.1791 3.95083
29.857 49.7228 0.011211
27.8751 48.1843 2
25.9599 46.6663 3.97636
26.5088 49.9912 0.0292217
24.6534 48.4746 2
22.8245 47.0843 3.97665
23.3439 50.1972 0.0280139
21.6655 48.7939 2
19.9864 47.6233 3.97698
20.4637 50.3181 0.0293656
19.0349 49.0954 2
17.6709 48.181 3.97502
16.141 48.6843 3.97354
16.8925 49.3327 2
15.8491 50.1706 3.97061
15.379 52.4139 3.96881
16.7733 51.4065 2
17.988 50.3321 0.0294677
14.8683 54.9767 3.97092
16.3882 53.87 2
17.8327 52.7902 0.0331172
14.4579 57.7407 3.97695
15.9743 56.4786 2
17.4346 55.3418 0.0291136
14.2653 60.6931 3.98164
15.7482 59.2138 2
17.1327 57.877 0.0229902
14.3324 63.8594 3.99082
15.7868 62.1405 2
17.1348 60.5524 0.0205762
14.6715 67.2507 4
16.0873 65.3002 2
17.406 63.4699 0.0140081
16.6661 68.6801 2
17.941 66.6179 0.00713405
18.75 69.9759 0
18.9319 15.7778 3.98174
20.2181 14.5902 2
18.9783 13.1044 3.98361
21.5857 13.6015 0.0165515
20.5288 11.9934 2
19.3417 10.2338 3.98764
19.99 7.14658 3.99253
21.1424 9.14566 2
22.1891 11.0237 0.0149166
20.9142 3.86727 4
22.0149 6.08192 2
23.0395 8.17622 0.012044
23.1494 2.85451 2
24.1164 5.14294 0.00734835
25.446 1.99014 0
30.5242 35.5565 3.86365
32.3503 35.7192 2
34.1145 35.8126 0.0774172
21.3038 15.8236 0.0175247
22.096 16.6292 2
20.3018 16.9573 2
19.2418 18.4055 3.98005
21.7802 17.8463 3.98123
25.3784 16.0815 0.0167572
23.2624 16.2453 0.0178395
24.2026 18.4451 2
22.277 19.8896 3.97705
24.5906 21.318 3.98229
26.4205 23.7139 3.97482
27.0113 21.4493 2
27.438 18.7905 0.0151854
30.0226 33.0359 3.89536
31.2533 33.8097 2
32.6836 34.1085 0.174064
32.4138 32.3049 0.136464
33.1461 29.8161 0.105775
35.0686 27.3416 0.0552387
32.5455 28.0655 2
31.3834 31.2234 2
30.1349 29.5328 3.96127
27.8965 26.5337 3.97527
28.8079 24.4 2
29.5746 21.9247 0.00424659
31.6981 25.6111 -0.00141688
29.6544 27.2638 2
28.7651 37.5125 3.902
30.2166 37.4984 2
32.2058 37.5035 0.156848
31.1492 47.9892 0.00449222
30.4274 44.9629 0.0545408
30.4988 39.4519 0.140696
29.9979 41.9661 0.10461
29.1906 46.6005 2
29.0778 39.8697 2
28.6977 43.1922 2
27.3037 44.8715 3.98657
26.8657 40.5928 3.97092
27.8771 48.1886 0.0253245
25.9575 46.6687 2
24.0342 45.2236 3.97904
24.6547 48.4763 0.0230489
22.8238 47.0831 2
20.9533 45.8996 3.97906
21.6666 48.7948 0.0282946
19.9874 47.6226 2
18.326 46.7403 3.97717
19.0343 49.0959 0.027288
17.6708 48.1806 2
16.333 47.7145 3.97437
16.1413 48.684 2
15.1943 49.0157 3.97215
16.8921 49.3331 0.0278003
15.8494 50.1703 2
14.4923 50.9837 3.97061
13.8315 53.4325 3.97014
15.3788 52.4139 2
16.7736 51.4068 0.0308085
13.2542 56.1673 3.97418
14.8678 54.9775 2
16.3887 53.8694 0.0320172
12.8478 59.1265 3.98085
14.4577 57.7419 2
15.9748 56.4775 0.0258611
12.6781 62.3017 3.98881
14.2651 60.6941 2
15.7483 59.2124 0.0216044
12.7746 65.6939 4
14.3317 63.8591 2
15.787 62.1394 0.0168791
14.6714 67.2507 2
16.0878 65.3003 0.00783383
16.6661 68.6801 0
17.6666 17.1539 3.98003
18.9321 15.7775 2
17.5101 14.3692 3.98233
20.2178 14.5904 0.0173311
18.9786 13.1041 2
17.6375 11.4527 3.98681
20.5284 11.9935 0.0155248
19.3419 10.2335 2
18.0501 8.33944 3.99247
18.75 5.0241 4
19.9895 7.14675 2
21.1424 9.14596 0.0121072
20.9142 3.86727 2
22.0154 6.08193 0.00743585
23.1494 2.85457 0
29.1171 35.1246 3.89739
30.5069 35.5442 2
32.3472 35.7168 0.158141
22.0956 16.6295 0.0192847
20.3015 16.958 0.0175905
21.7805 17.8459 2
19.2421 18.4049 2
17.9796 19.9389 3.97714
20.8749 19.3758 3.97964
24.2023 18.4451 0.0197586
22.2772 19.8892 2
24.5902 21.3192 2
22.3575 21.7163 3.97962
24.697 23.1642 3.9728
25.4781 25.943 3.96657
26.4239 23.7146 2
27.0126 21.4488 0.0115964
28.3945 32.3235 3.944
30.0035 33.0278 2
31.2824 33.8327 0.132566
31.3827 31.2335 0.103131
32.5531 28.0767 0.0370627
30.1141 29.5193 2
27.0515 29.1264 3.99993
27.8938 26.5311 2
28.805 24.3921 0.0155584
29.6574 27.3021 0.0320165
26.9943 37.3719 3.9558
28.7419 37.5054 2
30.2228 37.4963 0.136603
29.1923 46.5857 -0.000301314
28.7172 43.1791 0.0491667
29.0964 39.8565 0.104315
27.302 44.8825 2
26.8532 40.6065 2
25.3158 43.1776 3.97063
24.1142 39.4296 3.97985
25.9599 46.6663 0.023643
24.0265 45.2238 2
21.9355 43.9564 3.97825
22.8245 47.0843 0.0233465
20.9547 45.8989 2
18.997 44.9722 3.97815
19.9864 47.6233 0.0230238
18.326 46.7399 2
16.6294 46.2134 3.97485
17.6709 48.181 0.0249787
16.3331 47.7142 2
14.9244 47.6704 3.97248
16.141 48.6843 0.0264644
15.1945 49.0155 2
13.7893 49.5456 3.9713
15.8491 50.1706 0.0293912
14.4924 50.9836 2
12.8985 51.8723 3.97082
12.1429 54.5253 3.97278
13.8314 53.4328 2
15.379 52.4139 0.0311853
11.5331 57.458 3.97889
13.2539 56.1683 2
14.8683 54.9767 0.0290837
11.1328 60.6276 3.98731
12.8477 59.1274 2
14.4579 57.7407 0.0230477
10.9835 64.0165 4
12.6773 62.301 2
14.2653 60.6931 0.0183622
12.7745 65.694 2
14.3324 63.8594 0.00917841
14.6715 67.2507 0
16.3999 18.6489 3.97828
17.6667 17.1533 2
16.1012 15.7786 3.98159
18.9319 15.7778 0.0182639
17.5103 14.3685 2
16.0194 12.8065 3.98481
18.9783 13.1044 0.0163942
17.6377 11.4523 2
16.2013 9.66251 3.99228
19.3417 10.2338 0.0123564
18.0497 8.33973 2
16.6661 6.31991 4
18.75 5.02404 2
19.99 7.14658 0.00747031
20.9142 3.86727 0
27.5105 34.7726 3.94371
29.0926 35.1126 2
30.5242 35.5565 0.136355
16.6827 21.3769 3.97285
21.7802 17.8463 0.0187673
19.2418 18.4055 0.0199475
20.8751 19.3752 2
17.9799 19.9381 2
19.7244 21.5712 3.98002
22.277 19.8896 0.0229493
24.5906 21.318 0.0177073
22.3577 21.716 2
24.6985 23.1646 2
22.8502 24.5993 3.97103
24.5937 28.5246 3.97133
25.4758 25.9419 2
26.4205 23.7139 0.0251822
26.2361 31.6966 3.9905
28.3752 32.3089 2
30.0226 33.0359 0.104639
30.1349 29.5328 0.0387276
27.0591 29.1249 2
27.8965 26.5337 0.024733
24.8182 36.8559 3.98599
26.977 37.3711 2
28.7651 37.5125 0.097995
27.3037 44.8715 0.0134253
26.8657 40.5928 0.0290826
25.3067 43.1818 2
24.1034 39.4296 2
23.016 41.7987 3.98072
21.8327 38.5056 3.97705
24.0342 45.2236 0.0209615
21.9351 43.9562 2
19.772 42.8889 3.97801
20.9533 45.8996 0.0209355
18.9964 44.9721 2
16.9699 44.3804 3.97505
18.326 46.7403 0.0228294
16.6293 46.2132 2
14.8481 46.0905 3.97233
16.333 47.7145 0.0256271
14.9246 47.6703 2
13.2955 48.0086 3.97111
15.1943 49.0157 0.027853
13.7895 49.5456 2
12.1171 50.2518 3.97129
14.4923 50.9837 0.0293921
12.8987 51.8723 2
11.139 52.8348 3.97252
10.3244 55.7097 3.97723
12.1429 54.5258 2
13.8315 53.4325 0.0298562
9.69959 58.8498 3.98565
11.5328 57.4589 2
13.2542 56.1673 0.0258158
9.30605 62.2254 4
11.1317 60.6266 2
12.8478 59.1265 0.0191531
10.9835 64.0165 2
12.6781 62.3017 0.0111911
12.7746 65.6939 0
15.147 20.1851 3.97407
16.4001 18.6481 2
14.7473 17.302 3.97947
17.6666 17.1539 0.0199748
16.1014 15.7777 2
14.4821 14.2888 3.98333
17.5101 14.3692 0.0176723
16.0196 12.8058 2
14.4441 11.1136 3.99169
17.6375 11.4527 0.0131906
16.2009 9.66286 2
14.6715 7.74927 4
18.0501 8.33944 0.00753463
16.6661 6.31988 2
18.75 5.0241 0
25.4639 34.262 3.98876
27.4914 34.7666 2
29.1171 35.1246 0.102613
17.8583 22.3222 3.98298
15.5309 22.9203 3.97004
16.6829 21.376 2
20.8749 19.3758 0.0203572
17.9796 19.9389 0.0228622
19.7247 21.5706 2
19.67 24.3794 3.96947
22.3575 21.7163 0.0203834
24.697 23.1642 0.0271974
22.8506 24.5984 2
21.9612 27.8212 3.97093
23.7992 31.1844 3.97451
24.598 28.5238 2
25.4781 25.943 0.0334273
26.2303 31.6886 2
28.3945 32.3235 0.0560021
27.0515 29.1264 7.0682e-05
22.5658 36.277 3.97734
24.802 36.8545 2
26.9943 37.3719 0.0442022
25.3158 43.1776 0.0293738
24.1142 39.4296 0.0201546
23.0124 41.7975 2
21.828 38.5053 2
20.7559 40.6357 3.9777
20.1674 37.784 3.97687
21.9355 43.9564 0.0217544
19.7724 42.8891 2
17.3936 42.1005 3.97569
18.997 44.9722 0.0218511
16.9699 44.3803 2
14.8574 44.2001 3.97239
16.6294 46.2134 0.0251493
14.8481 46.0904 2
12.9668 46.2957 3.97056
14.9244 47.6704 0.0275184
13.2956 48.0085 2
11.4881 48.5495 3.97083
13.7893 49.5456 0.0287009
12.1173 50.2518 2
10.2647 51.0792 3.97252
12.8985 51.8723 0.0291831
11.1392 52.8349 2
9.23369 53.8882 3.97656
8.38341 56.9821 3.98442
10.3244 55.71 2
12.1429 54.5253 0.0272185
7.74927 60.3285 4
9.69845 58.8479 2
11.5331 57.458 0.021108
9.306 62.2255 2
11.1328 60.6276 0.012688
10.9835 64.0165 0
13.9613 21.7529 3.97082
15.1472 20.1842 2
13.4492 18.9002 3.97652
16.3999 18.6489 0.0217201
14.7475 17.3008 2
13.0277 15.882 3.98233
16.1012 15.7786 0.0184064
14.4822 14.2879 2
12.7817 12.6869 3.9903
16.0194 12.8065 0.0151883
14.4437 11.114 2
12.7746 9.30605 4
16.2013 9.66251 0.00772332
14.6715 7.74924 2
16.6661 6.31991 0
23.1347 33.7987 3.97656
25.4456 34.259 2
27.5105 34.7726 0.0562902
17.6332 24.0404 3.97076
17.8586 22.3214 2
14.3149 24.45 3.97065
15.5312 22.9198 2
16.6827 21.3769 0.0271502
19.0682 27.201 3.97034
19.7244 21.5712 0.0199814
19.67 24.379 2
21.2257 30.6614 3.97216
22.8502 24.5993 0.0289748
21.9621 27.821 2
23.7915 31.1848 2
24.5937 28.5246 0.0286676
26.2361 31.6966 0.0095049
20.3026 35.9225 3.97625
22.565 36.2768 2
24.8182 36.8559 0.0140091
23.016 41.7987 0.019282
21.8327 38.5056 0.0229547
20.753 40.6357 2
20.1653 37.784 2
18.1267 39.0007 3.97561
19.772 42.8889 0.0219947
17.3933 42.1004 2
14.8281 41.9173 3.97295
16.9699 44.3804 0.0249514
14.8574 44.2 2
12.7089 44.3917 3.97038
14.8481 46.0905 0.0276715
12.9668 46.2957 2
10.9891 46.7338 3.97025
13.2955 48.0086 0.0288895
11.4882 48.5495 2
9.52783 49.2397 3.97203
12.1171 50.2518 0.0287074
10.2649 51.0792 2
8.26672 52.0016 3.97622
11.139 52.8348 0.0274751
9.23396 53.8879 2
7.19254 55.0321 3.98428
6.31991 58.3339 4
8.38249 56.9795 2
10.3244 55.7097 0.0227694
7.74924 60.3285 2
9.69959 58.8498 0.0143493
9.30605 62.2254 0
13.23 25.3619 3.97166
12.83 23.2824 3.97022
13.9616 21.7523 2
12.2361 20.5502 3.97412
15.147 20.1851 0.0259317
13.4495 18.899 2
11.6579 17.5635 3.98072
14.7473 17.302 0.0205257
13.0277 15.8809 2
11.2193 14.372 3.98846
14.4821 14.2888 0.0166661
12.7812 12.6874 2
10.9835 10.9835 4
14.4441 11.1136 0.00831223
12.7745 9.306 2
14.6715 7.74927 0
20.6665 33.3938 3.97456
23.1397 33.7988 2
25.4639 34.262 0.0112388
15.9149 26.3983 3.97036
17.6333 24.0399 2
17.8583 22.3222 0.017022
14.3151 24.4497 2
15.5309 22.9203 0.0299558
18.4214 30.1707 3.97284
19.0672 27.2008 2
19.67 24.3794 0.0305262
21.2311 30.6614 2
21.9612 27.8212 0.0290739
23.7992 31.1844 0.0254946
17.7575 35.9626 3.97575
20.3045 35.9225 2
22.5658 36.277 0.0226571
20.7559 40.6357 0.022304
20.1674 37.784 0.0231347
18.1275 39.0008 2
14.3582 39.1751 3.97344
17.3936 42.1005 0.0243082
14.8281 41.9173 2
12.4061 42.2759 3.97053
14.8574 44.2001 0.0276118
12.709 44.3916 2
10.5659 44.8026 3.96974
12.9668 46.2957 0.0294396
10.9891 46.7338 2
8.90999 47.3192 3.97146
11.4881 48.5495 0.0291686
9.528 49.2396 2
7.43373 50.0352 3.97563
10.2647 51.0792 0.027481
8.26699 52.0012 2
6.1332 53.0068 3.98471
9.23369 53.8882 0.0234415
7.192 55.0294 2
5.0241 56.25 4
6.31988 58.3339 2
8.38341 56.9821 0.0155779
7.74927 60.3285 0
13.4685 26.8135 3.97027
11.9418 24.7884 3.97164
13.2303 25.3616 2
11.141 22.2359 3.97195
12.8304 23.282 2
13.9613 21.7529 0.0291848
12.2366 20.5492 2
10.3889 19.3189 3.97888
13.4492 18.9002 0.0234797
11.658 17.5624 2
9.76021 16.1558 3.98672
13.0277 15.882 0.017674
11.2185 14.3727 2
9.30607 12.7746 4
12.7817 12.6869 0.00969888
10.9835 10.9835 2
12.7746 9.30605 0
17.9197 33.1091 3.9747
20.6675 33.3938 2
23.1347 33.7987 0.02344
15.515 29.6349 3.97177
15.914 26.398 2
17.6332 24.0404 0.0292389
14.3149 24.45 0.0293514
18.4228 30.1708 2
19.0682 27.201 0.0296617
21.2257 30.6614 0.0278424
14.9654 36.0172 3.97392
17.7577 35.9627 2
20.3026 35.9225 0.023751
12.632 37.8285 3.9731
18.1267 39.0007 0.0243948
14.3585 39.1751 2
11.9292 40.1397 3.97124
14.8281 41.9173 0.0270517
12.4059 42.2759 2
10.1661 42.7777 3.96913
12.7089 44.3917 0.0296237
10.5659 44.8026 2
8.38791 45.3213 3.9708
10.9891 46.7338 0.029751
8.91004 47.3192 2
6.72502 48.0006 3.97513
9.52783 49.2397 0.027971
7.43389 50.0348 2
5.21008 50.9101 3.98475
8.26672 52.0016 0.0237815
6.1329 53.0047 2
3.86727 54.0858 4
7.19254 55.0321 0.0157166
5.02404 56.25 2
6.31991 58.3339 0
12.9276 29.0319 3.97007
11.3712 26.4872 3.97053
13.4679 26.8132 2
10.1998 23.9683 3.97238
11.9422 24.7881 2
13.23 25.3619 0.0283373
9.24233 21.1386 3.97644
11.1415 22.2353 2
12.83 23.2824 0.0297773
12.2361 20.5502 0.0258841
10.3893 19.3181 2
8.4162 18.0274 3.98541
11.6579 17.5635 0.0192755
9.75931 16.1572 2
7.74928 14.6715 4
11.2193 14.372 0.0115408
9.30602 12.7745 2
10.9835 10.9835 0
14.5258 32.8613 3.97306
17.9206 33.1092 2
20.6665 33.3938 0.0254379
15.5152 29.6347 2
15.9149 26.3983 0.0296386
18.4214 30.1707 0.0271553
12.9264 36.2083 3.97232
14.9657 36.0172 2
17.7575 35.9626 0.024254
12.6323 37.8285 2
11.2848 38.3092 3.97175
14.3582 39.1751 0.0265597
11.9295 40.1396 2
9.75488 40.754 3.96936
12.4061 42.2759 0.0294675
10.1661 42.7777 2
7.93793 43.27 3.96964
10.5659 44.8026 0.0302591
8.3879 45.3213 2
6.13132 45.9058 3.97458
8.90999 47.3192 0.0285445
6.72506 48.0003 2
4.42173 48.751 3.98446
7.43373 50.0352 0.0243688
5.20991 50.9088 2
2.85457 51.8506 4
6.1332 53.0068 0.0152924
3.86727 54.0858 2
5.0241 56.25 0
12.0743 31.2555 3.97102
10.7833 28.4144 3.96968
12.9276 29.0317 2
9.41436 25.798 3.97171
11.3713 26.4869 2
13.4685 26.8135 0.029726
8.22964 23.0235 3.97574
10.2003 23.968 2
11.9418 24.7884 0.0283593
7.19866 19.9783 3.98424
9.24296 21.1383 2
11.141 22.2359 0.0280457
10.3889 19.3189 0.0211229
8.41548 18.0296 2
6.31992 16.6661 4
9.76021 16.1558 0.0132763
7.74926 14.6714 2
9.30607 12.7746 0
12.1097 34.2941 3.97238
14.5256 32.8613 2
17.9197 33.1091 0.0253046
15.515 29.6349 0.0282329
10.8477 36.6106 3.97149
12.9267 36.2083 2
14.9654 36.0172 0.0260789
12.632 37.8285 0.026902
11.285 38.3091 2
9.35115 38.8232 3.96973
11.9292 40.1397 0.0287605
9.75519 40.7539 2
7.54977 41.2112 3.96934
10.1661 42.7777 0.0308654
7.93796 43.2699 2
5.64384 43.7686 3.97372
8.38791 45.3213 0.0292013
6.13131 45.9055 2
3.76746 46.537 3.98395
6.72502 48.0006 0.024867
4.42164 48.7504 2
1.99014 49.554 4
5.21008 50.9101 0.0152514
2.85451 51.8506 2
3.86727 54.0858 0
10.9295 32.9185 3.97169
10.0967 30.3815 3.96945
12.0744 31.2554 2
8.72263 27.7317 3.97079
10.7833 28.4142 2
12.9276 29.0319 0.0299286
7.35506 24.9823 3.97539
9.41457 25.7977 2
11.3712 26.4872 0.0294716
6.11571 22.0024 3.98429
8.23022 23.0235 2
10.1998 23.9683 0.0276167
5.02411 18.75 4
7.19837 19.9806 2
9.24233 21.1386 0.0235637
8.4162 18.0274 0.0145862
6.3199 16.6661 2
7.74928 14.6715 0
10.4545 34.9996 3.97127
12.11 34.294 2
14.5258 32.8613 0.0269379
9.0214 36.9847 3.96997
10.8483 36.6106 2
12.9264 36.2083 0.0276817
11.2848 38.3092 0.0282524
9.35133 38.8231 2
7.23044 39.1819 3.96956
9.75488 40.754 0.0306424
7.54997 41.2111 2
5.25967 41.6143 3.97286
7.93793 43.27 0.0303574
5.64386 43.7684 2
3.2454 44.282 3.98319
6.13132 45.9058 0.0254188
3.76745 46.5368 2
1.27781 47.2057 4
4.42173 48.751 0.0155427
1.99012 49.554 2
2.85457 51.8506 0
10.0945 33.881 3.97125
9.38911 32.1541 3.96987
10.9296 32.9184 2
8.07208 29.6952 3.97033
10.0967 30.3814 2
12.0743 31.2555 0.0289789
6.599 27.0083 3.97462
8.72266 27.7315 2
10.7833 28.4144 0.0303248
5.17104 24.0954 3.98463
7.35534 24.9823 2
9.41436 25.798 0.0282926
3.86728 20.9142 4
6.11565 22.004 2
8.22964 23.0235 0.024263
5.02406 18.75 2
7.19866 19.9783 0.0157612
6.31992 16.6661 0
8.84633 35.2792 3.97027
10.4547 34.9995 2
12.1097 34.2941 0.027619
7.01414 37.2057 3.96977
9.0213 36.9846 2
10.8477 36.6106 0.0285075
9.35115 38.8232 0.0302705
7.23053 39.1818 2
4.98771 39.4675 3.97257
7.54977 41.2112 0.0306561
5.25986 41.614 2
2.8561 42.0024 3.9825
5.64384 43.7686 0.0262835
3.24545 44.2819 2
0.720592 44.8159 4
3.76746 46.537 0.0160456
1.27778 47.2057 2
1.99014 49.554 0
8.88525 33.6975 3.97046
10.0947 33.881 2
7.5096 31.6089 3.97049
9.38911 32.154 2
10.9295 32.9185 0.0283108
5.94445 29.0694 3.97414
8.07199 29.6951 2
10.0967 30.3815 0.0305463
4.35885 26.2478 3.98419
6.59908 27.0083 2
8.72263 27.7317 0.0292063
2.85458 23.1494 4
5.17101 24.0962 2
7.35506 24.9823 0.0246091
3.86728 20.9142 2
6.11571 22.0024 0.0157082
5.02411 18.75 0
6.96431 35.3058 3.96995
8.84658 35.2791 2
10.4545 34.9996 0.0287284
4.83781 37.3398 3.97298
7.01424 37.2057 2
9.0214 36.9847 0.0300313
7.23044 39.1819 0.0304352
4.98779 39.4674 2
2.60433 39.7141 3.98202
5.25967 41.6143 0.0271439
2.85631 42.0026 2
0.320823 42.3947 4
3.2454 44.282 0.0168053
0.720551 44.8159 2
1.27781 47.2057 0
7.12363 33.4607 3.97065
8.88535 33.6974 2
10.0945 33.881 0.0287466
5.41547 31.1333 3.97409
7.50956 31.6088 2
9.38911 32.1541 0.0301262
3.68075 28.4436 3.98354
5.94437 29.0694 2
8.07208 29.6952 0.0296717
1.99015 25.446 4
4.35886 26.248 2
6.599 27.0083 0.0253831
2.85453 23.1494 2
5.17104 24.0954 0.0153725
3.86728 20.9142 0
4.85206 35.2515 3.97309
6.96451 35.3058 2
8.84633 35.2792 0.029735
2.49571 37.4286 3.98242
4.83789 37.3399 2
7.01414 37.2057 0.030232
4.98771 39.4675 0.0274308
2.60446 39.7144 2
0.080333 39.9526 4
2.8561 42.0024 0.0175003
0.320817 42.3947 2
0.720592 44.8159 0
5.04507 33.19 3.97382
7.12373 33.4606 2
8.88525 33.6975 0.0295382
3.14517 30.6662 3.98302
5.41541 31.1334 2
7.5096 31.6089 0.0295145
1.27793 27.7943 4
3.68075 28.4436 2
5.94445 29.0694 0.0258563
1.99013 25.446 2
4.35885 26.2478 0.015814
2.85458 23.1494 0
2.54783 35.1591 3.98254
4.85227 35.2516 2
6.96431 35.3058 0.0300529
0 37.5 4
2.49585 37.4289 2
4.83781 37.3398 0.0270198
2.60433 39.7141 0.0179821
0.0802903 39.9526 2
0.320823 42.3947 0
2.76529 32.9058 3.98288
5.04517 33.1901 2
7.12363 33.4607 0.0293456
0.721173 30.1842 4
3.14521 30.6664 2
5.41547 31.1333 0.0259093
1.27779 27.7943 2
3.68075 28.4436 0.0164616
1.99015 25.446 0
0.0806499 35.0474 4
2.54805 35.1594 2
4.85206 35.2515 0.0269065
0 37.5 2
2.49571 37.4286 0.0175808
0.080333 39.9526 0
0.32156 32.6054 4
2.76542 32.9062 2
5.04507 33.19 0.0261786
0.72056 30.1841 2
3.14517 30.6662 0.0169753
1.27793 27.7943 0
0.0802889 35.0474 2
2.54783 35.1591 0.0174577
0 37.5 0
0.320817 32.6053 2
2.76529 32.9058 0.0171239
0.721173 30.1842 0
0.0806499 35.0474 0
0.32156 32.6054 0
CELLS 1910 17190
8 18 6 25 56 2 0 5 16
8 57 23 6 18 17 4 0 2
8 78 36 9 29 31 11 1 7
8 31 11 1 7 79 37 10 30
8 110 57 18 50 48 17 2 14
8 50 18 56 111 14 2 16 49
8 116 62 22 55 52 20 3 15
8 56 25 67 118 16 5 24 53
8 119 63 23 57 54 21 4 17
8 55 22 63 119 15 3 21 54
8 58 26 68 121 18 6 25 56
8 122 65 26 58 57 23 6 18
8 73 31 7 27 142 79 30 71
8 143 78 29 72 73 31 7 27
8 83 147 76 34 32 74 28 8
8 84 148 78 36 33 75 29 9
8 76 34 8 28 148 84 33 75
8 37 79 150 86 10 30 77 35
8 151 87 36 78 80 38 11 31
8 80 38 11 31 152 88 37 79
8 175 100 42 94 96 44 12 40
8 44 96 176 101 12 40 95 43
8 101 176 98 46 43 95 41 13
8 46 98 178 103 13 41 97 45
8 178 103 45 97 147 83 32 74
8 189 116 55 109 106 52 15 47
8 111 56 118 191 49 16 53 107
8 192 119 57 110 108 54 17 48
8 109 55 119 192 47 15 54 108
8 194 122 58 112 110 57 18 50
8 112 58 121 195 50 18 56 111
8 115 61 19 51 197 124 59 113
8 115 61 125 198 51 19 60 114
8 198 125 62 116 114 60 20 52
8 200 127 64 120 116 62 22 55
8 118 67 132 202 53 24 66 117
8 121 68 133 203 56 25 67 118
8 120 64 128 204 55 22 63 119
8 204 128 65 122 119 63 23 57
8 206 134 68 121 123 69 26 58
8 123 69 26 58 207 131 65 122
8 226 147 74 138 140 76 28 70
8 229 148 75 139 143 78 29 72
8 140 76 28 70 229 148 75 139
8 142 79 30 71 231 150 77 141
8 144 80 31 73 232 152 79 142
8 233 151 78 143 144 80 31 73
8 150 86 35 77 235 154 81 145
8 235 154 81 145 146 82 39 91
8 146 82 39 91 236 155 90 165
8 238 157 83 147 149 85 34 76
8 239 158 84 148 151 87 36 78
8 149 85 34 76 239 158 84 148
8 152 88 37 79 241 160 86 150
8 242 161 87 151 153 89 38 80
8 153 89 38 80 243 162 88 152
8 171 98 41 92 265 178 97 169
8 265 178 97 169 226 147 74 138
8 172 96 40 93 266 176 95 170
8 266 176 95 170 171 98 41 92
8 269 175 94 173 172 96 40 93
8 271 180 99 174 175 100 42 94
8 197 124 59 113 271 180 99 174
8 272 181 100 175 177 102 44 96
8 273 182 101 176 179 104 46 98
8 177 102 44 96 273 182 101 176
8 179 104 46 98 275 184 103 178
8 275 184 103 178 238 157 83 147
8 188 115 51 105 283 197 113 186
8 188 115 198 284 105 51 114 187
8 284 198 116 189 187 114 52 106
8 286 200 120 193 189 116 55 109
8 191 118 202 288 107 53 117 190
8 195 121 203 289 111 56 118 191
8 193 120 204 290 109 55 119 192
8 290 204 122 194 192 119 57 110
8 196 123 58 112 292 207 122 194
8 293 206 121 195 196 123 58 112
8 199 126 61 115 297 211 124 197
8 298 212 127 200 198 125 62 116
8 199 126 212 298 115 61 125 198
8 205 129 64 120 300 214 127 200
8 301 217 130 201 202 132 66 117
8 209 136 168 264 301 217 130 201
8 302 219 132 202 203 133 67 118
8 303 220 133 203 206 134 68 121
8 205 129 215 304 120 64 128 204
8 304 215 131 207 204 128 65 122
8 306 221 134 206 208 135 69 123
8 208 135 69 123 307 218 131 207
8 210 137 167 263 309 223 136 209
8 328 238 147 226 230 149 76 140
8 228 146 91 166 329 236 165 260
8 231 150 77 141 330 235 145 227
8 330 235 145 227 228 146 91 166
8 332 239 148 229 233 151 78 143
8 230 149 76 140 332 239 148 229
8 232 152 79 142 334 241 150 231
8 234 153 80 144 335 243 152 232
8 336 242 151 233 234 153 80 144
8 236 155 90 165 338 245 164 259
8 241 160 86 150 339 246 154 235
8 339 246 154 235 237 156 82 146
8 237 156 82 146 340 247 155 236
8 342 249 157 238 240 159 85 149
8 343 250 158 239 242 161 87 151
8 240 159 85 149 343 250 158 239
8 243 162 88 152 345 252 160 241
8 244 163 253 346 153 89 161 242
8 244 163 89 153 347 254 162 243
8 311 224 261 371 210 137 167 263
8 263 167 262 372 209 136 168 264
8 267 179 98 171 375 275 178 265
8 375 275 178 265 328 238 147 226
8 376 273 176 266 267 179 98 171
8 268 177 96 172 376 273 176 266
8 379 272 175 269 268 177 96 172
8 380 271 174 270 269 175 94 173
8 283 197 113 186 380 271 174 270
8 381 277 180 271 272 181 100 175
8 297 211 124 197 381 277 180 271
8 382 278 181 272 274 183 102 177
8 274 183 102 177 383 279 182 273
8 383 279 182 273 276 185 104 179
8 385 281 184 275 342 249 157 238
8 276 185 104 179 385 281 184 275
8 285 199 115 188 393 297 197 283
8 394 298 200 286 284 198 116 189
8 285 199 298 394 188 115 198 284
8 291 205 120 193 396 300 200 286
8 397 301 201 287 288 202 117 190
8 295 209 264 374 397 301 201 287
8 398 302 202 288 289 203 118 191
8 399 303 203 289 293 206 121 195
8 291 205 304 400 193 120 204 290
8 400 304 207 292 290 204 122 194
8 294 208 123 196 402 307 207 292
8 403 306 206 293 294 208 123 196
8 296 210 263 373 405 309 209 295
8 408 312 213 299 297 211 126 199
8 299 213 313 409 199 126 212 298
8 409 313 214 300 298 212 127 200
8 305 216 129 205 411 315 214 300
8 412 318 217 301 302 219 132 202
8 309 223 136 209 412 318 217 301
8 413 320 219 302 303 220 133 203
8 306 221 321 414 206 134 220 303
8 307 218 131 207 415 316 215 304
8 305 216 316 415 205 129 215 304
8 417 322 221 306 308 222 135 208
8 308 222 135 208 418 319 218 307
8 310 225 137 210 420 325 223 309
8 423 326 224 311 310 225 137 210
8 329 236 165 260 441 338 259 368
8 442 342 238 328 333 240 149 230
8 331 237 146 228 443 340 236 329
8 334 241 150 231 444 339 235 330
8 444 339 235 330 331 237 146 228
8 446 343 239 332 336 242 151 233
8 333 240 149 230 446 343 239 332
8 335 243 152 232 448 345 241 334
8 337 244 153 234 449 347 243 335
8 337 244 346 450 234 153 242 336
8 338 245 164 259 452 349 258 367
8 340 247 155 236 453 350 245 338
8 345 252 160 241 454 351 246 339
8 454 351 246 339 341 248 156 237
8 341 248 156 237 455 352 247 340
8 240 159 251 344 342 249 354 457
8 242 161 253 346 343 250 355 458
8 343 250 355 458 240 159 251 344
8 347 254 162 243 460 357 252 345
8 348 255 358 461 244 163 253 346
8 348 255 163 244 462 359 254 347
8 473 360 257 365 363 256 364 482
8 452 349 258 367 365 257 366 485
8 422 324 369 488 311 224 261 371
8 371 261 370 490 263 167 262 372
8 407 311 371 491 296 210 263 373
8 373 263 372 492 295 209 264 374
8 493 385 275 375 442 342 238 328
8 377 276 179 267 493 385 275 375
8 378 274 177 268 494 383 273 376
8 494 383 273 376 377 276 179 267
8 497 382 272 379 378 274 177 268
8 498 381 271 380 379 272 175 269
8 393 297 197 283 498 381 271 380
8 499 387 277 381 382 278 181 272
8 408 312 211 297 499 387 277 381
8 500 388 278 382 384 280 183 274
8 501 389 279 383 386 282 185 276
8 384 280 183 274 501 389 279 383
8 386 282 185 276 503 391 281 385
8 503 391 281 385 457 354 249 342
8 511 408 299 395 393 297 199 285
8 395 299 409 512 285 199 298 394
8 512 409 300 396 394 298 200 286
8 401 305 205 291 514 411 300 396
8 515 412 301 397 398 302 202 288
8 405 309 209 295 515 412 301 397
8 516 413 302 398 399 303 203 289
8 403 306 414 517 293 206 303 399
8 402 307 207 292 518 415 304 400
8 401 305 415 518 291 205 304 400
8 404 308 208 294 520 418 307 402
8 521 417 306 403 404 308 208 294
8 406 310 210 296 523 420 309 405
8 526 423 311 407 406 310 210 296
8 410 314 213 299 527 424 312 408
8 528 425 315 411 409 313 214 300
8 410 314 425 528 299 213 313 409
8 416 317 216 305 530 427 315 411
8 531 430 318 412 413 320 219 302
8 420 325 223 309 531 430 318 412
8 532 432 320 413 414 321 220 303
8 417 322 433 533 306 221 321 414
8 418 319 218 307 534 428 316 415
8 416 317 428 534 305 216 316 415
8 419 323 434 536 308 222 322 417
8 419 323 222 308 537 431 319 418
8 421 327 225 310 539 438 325 420
8 421 327 439 541 310 225 326 423
8 543 437 324 422 423 326 224 311
8 441 338 259 368 559 452 367 486
8 443 340 236 329 560 453 338 441
8 333 240 344 447 442 342 457 561
8 445 341 237 331 562 455 340 443
8 448 345 241 334 563 454 339 444
8 563 454 339 444 445 341 237 331
8 336 242 346 450 446 343 458 565
8 446 343 458 565 333 240 344 447
8 449 347 243 335 567 460 345 448
8 451 348 244 337 568 462 347 449
8 451 348 461 569 337 244 346 450
8 570 463 349 452 473 360 257 365
8 453 350 245 338 570 463 349 452
8 455 352 247 340 571 464 350 453
8 460 357 252 345 572 465 351 454
8 572 465 351 454 456 353 248 341
8 456 353 248 341 573 466 352 455
8 344 251 356 459 457 354 468 575
8 458 355 469 576 344 251 356 459
8 346 253 358 461 458 355 469 576
8 462 359 254 347 578 471 357 460
8 348 255 359 462 461 358 472 579
8 591 474 360 473 475 361 256 363
8 475 361 256 363 594 477 362 479
8 363 256 364 482 479 362 480 603
8 590 473 365 484 481 363 482 605
8 482 364 257 365 606 483 366 485
8 559 452 367 486 484 365 485 607
8 542 436 487 609 422 324 369 488
8 525 422 488 611 407 311 371 491
8 488 369 489 612 371 261 370 490
8 491 371 490 613 373 263 372 492
8 495 386 276 377 614 503 385 493
8 614 503 385 493 561 457 342 442
8 615 501 383 494 495 386 276 377
8 496 384 274 378 615 501 383 494
8 618 500 382 497 496 384 274 378
8 619 499 381 498 497 382 272 379
8 511 408 297 393 619 499 381 498
8 620 505 387 499 500 388 278 382
8 527 424 312 408 620 505 387 499
8 502 390 506 621 384 280 388 500
8 622 507 389 501 504 392 282 386
8 502 390 280 384 622 507 389 501
8 504 392 282 386 624 509 391 503
8 624 509 391 503 575 468 354 457
8 513 410 299 395 630 527 408 511
8 631 528 411 514 512 409 300 396
8 513 410 528 631 395 299 409 512
8 519 416 305 401 633 530 411 514
8 634 531 412 515 516 413 302 398
8 523 420 309 405 634 531 412 515
8 635 532 413 516 517 414 303 399
8 521 417 533 636 403 306 414 517
8 520 418 307 402 637 534 415 518
8 519 416 534 637 401 305 415 518
8 522 419 308 404 639 537 418 520
8 522 419 536 640 404 308 417 521
8 524 421 310 406 642 539 420 523
8 524 421 541 644 406 310 423 526
8 646 543 422 525 526 423 311 407
8 529 426 314 410 647 544 424 527
8 528 425 545 648 411 315 427 530
8 529 426 545 648 410 314 425 528
8 535 429 317 416 649 546 427 530
8 650 548 430 531 532 432 320 413
8 539 438 325 420 650 548 430 531
8 533 433 550 651 414 321 432 532
8 536 434 551 652 417 322 433 533
8 537 431 319 418 653 547 428 534
8 535 429 547 653 416 317 428 534
8 538 435 552 654 419 323 434 536
8 538 435 323 419 655 549 431 537
8 540 440 327 421 657 556 438 539
8 540 440 557 659 421 327 439 541
8 541 439 555 660 423 326 437 543
8 661 554 436 542 543 437 324 422
8 676 570 452 559 590 473 365 484
8 560 453 338 441 676 570 452 559
8 562 455 340 443 677 571 453 560
8 447 344 459 566 561 457 575 678
8 564 456 341 445 679 573 455 562
8 567 460 345 448 680 572 454 563
8 680 572 454 563 564 456 341 445
8 565 458 576 682 447 344 459 566
8 450 346 461 569 565 458 576 682
8 568 462 347 449 684 578 460 567
8 451 348 462 568 569 461 579 685
8 686 580 463 570 591 474 360 473
8 571 464 350 453 686 580 463 570
8 573 466 352 455 687 581 464 571
8 572 465 582 688 460 357 471 578
8 574 467 582 688 456 353 465 572
8 574 467 353 456 689 583 466 573
8 459 356 470 577 575 468 585 691
8 576 469 586 692 459 356 470 577
8 461 358 472 579 576 469 586 692
8 462 359 471 578 579 472 588 694
8 704 591 473 590 593 475 363 481
8 595 476 592 705 475 361 474 591
8 593 475 363 481 707 594 479 602
8 594 477 362 479 709 598 478 600
8 595 476 361 475 711 597 477 594
8 479 362 480 603 600 478 601 720
8 481 363 482 605 602 479 603 722
8 603 480 364 482 723 604 483 606
8 605 482 365 484 724 606 485 607
8 656 553 608 726 542 436 487 609
8 645 542 609 728 525 422 488 611
8 609 487 610 729 488 369 489 612
8 611 488 612 730 491 371 490 613
8 616 504 386 495 731 624 503 614
8 731 624 503 614 678 575 457 561
8 732 622 501 615 616 504 386 495
8 617 502 384 496 732 622 501 615
8 617 502 621 735 496 384 500 618
8 736 620 499 619 618 500 382 497
8 630 527 408 511 736 620 499 619
8 621 506 626 737 500 388 505 620
8 647 544 424 527 737 626 505 620
8 623 508 627 738 502 390 506 621
8 623 508 390 502 739 628 507 622
8 625 510 628 739 504 392 507 622
8 740 629 509 624 691 585 468 575
8 625 510 392 504 740 629 509 624
8 632 529 410 513 744 647 527 630
8 631 528 648 745 514 411 530 633
8 632 529 648 745 513 410 528 631
8 638 535 416 519 746 649 530 633
8 747 650 531 634 635 532 413 516
8 642 539 420 523 747 650 531 634
8 636 533 651 748 517 414 532 635
8 640 536 652 749 521 417 533 636
8 639 537 418 520 750 653 534 637
8 638 535 653 750 519 416 534 637
8 641 538 419 522 751 655 537 639
8 641 538 654 752 522 419 536 640
8 643 540 421 524 753 657 539 642
8 643 540 659 755 524 421 541 644
8 644 541 660 757 526 423 543 646
8 758 661 542 645 646 543 422 525
8 529 426 544 647 648 545 662 759
8 530 427 545 648 649 546 663 760
8 535 429 546 649 653 547 664 761
8 762 666 548 650 651 550 432 532
8 657 556 438 539 762 666 548 650
8 652 551 668 763 533 433 550 651
8 654 552 669 764 536 434 551 652
8 655 549 431 537 765 665 547 653
8 538 435 549 655 654 552 667 766
8 661 554 671 768 542 436 553 656
8 658 558 440 540 769 674 556 657
8 658 558 675 770 540 440 557 659
8 659 557 673 771 541 439 555 660
8 660 555 672 772 543 437 554 661
8 788 686 570 676 704 591 473 590
8 677 571 453 560 788 686 570 676
8 679 573 455 562 789 687 571 677
8 566 459 577 683 678 575 691 790
8 681 574 456 564 791 689 573 679
8 680 572 688 792 567 460 578 684
8 681 574 688 792 564 456 572 680
8 682 576 692 794 566 459 577 683
8 569 461 579 685 682 576 692 794
8 568 462 578 684 685 579 694 796
8 687 581 464 571 798 696 580 686
8 798 696 580 686 705 592 474 591
8 689 583 466 573 799 697 581 687
8 688 582 698 800 578 471 588 694
8 690 584 698 800 574 467 582 688
8 690 584 467 574 801 699 583 689
8 693 587 701 803 577 470 585 691
8 693 587 470 577 804 702 586 692
8 695 589 702 804 579 472 586 692
8 695 589 472 579 805 703 588 694
8 708 595 705 813 593 475 591 704
8 710 596 706 814 595 476 592 705
8 707 594 479 602 816 709 600 719
8 708 595 475 593 817 711 594 707
8 709 598 478 600 819 715 599 717
8 711 597 477 594 820 714 598 709
8 710 596 476 595 822 713 597 711
8 600 478 601 720 717 599 718 832
8 602 479 603 722 719 600 720 834
8 720 601 480 603 835 721 604 723
8 722 603 482 605 836 723 606 724
8 767 670 725 839 656 553 608 726
8 756 656 726 841 645 542 609 728
8 726 608 727 842 609 487 610 729
8 728 609 729 843 611 488 612 730
8 844 740 624 731 790 691 575 678
8 733 625 504 616 844 740 624 731
8 734 623 502 617 845 739 622 732
8 733 625 739 845 616 504 622 732
8 734 623 738 846 617 502 621 735
8 735 621 737 847 618 500 620 736
8 744 647 527 630 847 737 620 736
8 621 506 627 738 737 626 741 848
8 647 544 626 737 759 662 741 848
8 623 508 628 739 738 627 742 849
8 740 629 585 691 850 743 700 802
8 625 510 629 740 739 628 743 850
8 632 529 647 744 745 648 759 854
8 633 530 648 745 746 649 760 855
8 638 535 649 746 750 653 761 856
8 857 762 650 747 748 651 532 635
8 753 657 539 642 857 762 650 747
8 749 652 763 858 636 533 651 748
8 752 654 764 859 640 536 652 749
8 751 655 537 639 860 765 653 750
8 641 538 655 751 752 654 766 861
8 754 658 540 643 862 769 657 753
8 754 658 770 863 643 540 659 755
8 755 659 771 864 644 541 660 757
8 758 661 768 866 645 542 656 756
8 757 660 772 867 646 543 661 758
8 759 662 773 868 648 545 663 760
8 649 546 663 760 761 664 774 871
8 765 665 547 653 872 775 664 761
8 873 777 666 762 763 668 550 651
8 769 674 556 657 873 777 666 762
8 764 669 779 874 652 551 668 763
8 654 552 667 766 764 669 778 875
8 655 549 665 765 766 667 776 876
8 768 671 782 877 656 553 670 767
8 772 672 783 878 661 554 671 768
8 658 558 674 769 770 675 786 879
8 659 557 675 770 771 673 785 881
8 882 784 672 772 771 673 555 660
8 789 687 571 677 897 798 686 788
8 897 798 686 788 813 705 591 704
8 791 689 573 679 898 799 687 789
8 795 693 803 900 683 577 691 790
8 793 690 574 681 901 801 689 791
8 792 688 800 902 684 578 694 796
8 793 690 800 902 681 574 688 792
8 795 693 577 683 903 804 692 794
8 797 695 804 903 685 579 692 794
8 797 695 579 685 904 805 694 796
8 905 806 697 799 798 696 581 687
8 814 706 806 905 705 592 696 798
8 689 583 697 799 801 699 808 907
8 800 698 809 908 694 588 703 805
8 690 584 699 801 800 698 809 908
8 803 701 810 909 691 585 700 802
8 693 587 702 804 803 701 811 910
8 695 589 703 805 804 702 812 911
8 818 710 814 919 708 595 705 813
8 821 712 815 920 710 596 706 814
8 816 709 600 719 922 819 717 831
8 817 711 594 707 923 820 709 816
8 818 710 595 708 924 822 711 817
8 819 715 599 717 926 827 716 829
8 820 714 598 709 927 826 715 819
8 929 825 713 822 820 714 597 711
8 821 712 596 710 930 824 713 822
8 717 599 718 832 829 716 830 942
8 719 600 720 834 831 717 832 944
8 832 718 601 720 945 833 721 835
8 834 720 603 722 946 835 723 836
8 869 780 838 950 767 670 725 839
8 865 767 839 952 756 656 726 841
8 839 725 840 953 726 608 727 842
8 841 726 842 954 728 609 729 843
8 844 740 691 790 955 850 802 899
8 733 625 740 844 845 739 850 955
8 734 623 739 845 846 738 849 956
8 735 621 738 846 847 737 848 957
8 744 647 737 847 854 759 848 957
8 738 627 742 849 848 741 851 958
8 848 741 851 958 759 662 773 868
8 850 743 700 802 959 852 807 906
8 849 742 628 739 959 852 743 850
8 854 759 868 965 745 648 760 855
8 746 649 760 855 856 761 871 966
8 860 765 653 750 967 872 761 856
8 968 873 762 857 858 763 651 748
8 862 769 657 753 968 873 762 857
8 859 764 874 969 749 652 763 858
8 752 654 766 861 859 764 875 970
8 751 655 765 860 861 766 876 971
8 754 658 769 862 863 770 879 972
8 755 659 770 863 864 771 881 974
8 976 882 772 867 864 771 660 757
8 866 768 877 977 756 656 767 865
8 867 772 878 978 758 661 768 866
8 760 663 773 868 871 774 883 980
8 870 781 837 948 982 890 780 869
8 982 890 780 869 877 782 670 767
8 761 664 774 871 872 775 884 984
8 876 776 665 765 985 885 775 872
8 873 777 668 763 986 887 779 874
8 769 674 777 873 879 786 887 986
8 764 669 778 875 874 779 888 987
8 766 667 776 876 875 778 886 988
8 878 783 892 989 768 671 782 877
8 878 783 672 772 990 893 784 882
8 880 787 675 770 991 896 786 879
8 880 787 895 992 770 675 785 881
8 881 785 894 993 771 673 784 882
8 1006 905 799 898 897 798 687 789
8 919 814 905 1006 813 705 798 897
8 791 689 799 898 901 801 907 1007
8 900 803 909 1009 790 691 802 899
8 795 693 804 903 900 803 910 1010
8 902 800 908 1011 796 694 805 904
8 793 690 801 901 902 800 908 1011
8 797 695 805 904 903 804 911 1012
8 799 697 806 905 907 808 912 1013
8 920 815 912 1013 814 706 806 905
8 802 700 810 909 906 807 913 1014
8 801 699 808 907 908 809 914 1015
8 805 703 809 908 911 812 915 1016
8 803 701 811 910 909 810 916 1017
8 911 812 917 1018 804 702 811 910
8 925 821 920 1030 818 710 814 919
8 928 823 921 1031 821 712 815 920
8 922 819 717 831 1033 926 829 941
8 923 820 709 816 1034 927 819 922
8 1035 929 822 924 923 820 711 817
8 925 821 710 818 1036 930 822 924
8 1038 933 825 929 927 826 714 820
8 926 827 716 829 1039 935 828 939
8 927 826 715 819 1040 934 827 926
8 928 823 712 821 1041 931 824 930
8 1042 932 824 930 929 825 713 822
8 829 716 830 942 939 828 940 1058
8 831 717 832 944 941 829 942 1060
8 942 830 718 832 1061 943 833 945
8 944 832 720 834 1062 945 835 946
8 981 889 947 1064 870 781 837 948
8 948 837 949 1067 869 780 838 950
8 975 869 950 1069 865 767 839 952
8 950 838 951 1070 839 725 840 953
8 952 839 953 1071 841 726 842 954
8 955 850 802 899 1072 959 906 1008
8 956 849 739 845 1072 959 850 955
8 846 738 849 956 957 848 958 1073
8 957 848 958 1073 854 759 868 965
8 849 742 852 959 958 851 961 1076
8 960 853 961 1076 906 807 852 959
8 958 851 961 1076 868 773 883 980
8 960 853 807 906 1077 963 913 1014
8 855 760 868 965 966 871 980 1085
8 856 761 871 966 967 872 984 1086
8 971 876 765 860 1087 985 872 967
8 968 873 763 858 1088 986 874 969
8 862 769 873 968 972 879 986 1088
8 859 764 875 970 969 874 987 1089
8 861 766 876 971 970 875 988 1090
8 973 880 770 863 1091 991 879 972
8 973 880 992 1092 863 770 881 974
8 974 881 993 1093 864 771 882 976
8 979 870 948 1066 1094 982 869 975
8 1094 982 869 975 977 877 767 865
8 978 878 772 867 1095 990 882 976
8 978 878 989 1096 866 768 877 977
8 871 774 883 980 984 884 994 1099
8 983 891 999 1100 870 781 889 981
8 1101 1000 890 982 989 892 782 877
8 983 891 781 870 1101 1000 890 982
8 872 775 884 984 985 885 995 1103
8 876 776 885 985 988 886 996 1104
8 986 887 779 874 1105 998 888 987
8 879 786 887 986 991 896 998 1105
8 875 778 886 988 987 888 997 1106
8 990 893 1002 1107 878 783 892 989
8 1108 1003 893 990 993 894 784 882
8 880 787 896 991 992 895 1005 1109
8 993 894 785 881 1110 1004 895 992
8 898 799 905 1006 1007 907 1013 1120
8 1030 920 1013 1120 919 814 905 1006
8 901 801 907 1007 1011 908 1015 1121
8 899 802 909 1009 1008 906 1014 1122
8 900 803 910 1010 1009 909 1017 1123
8 1012 911 1018 1124 903 804 910 1010
8 904 805 908 1011 1012 911 1016 1125
8 1013 912 1020 1127 907 808 914 1015
8 1031 921 1020 1127 920 815 912 1013
8 1019 918 962 1075 1128 1021 913 1014
8 1128 1021 913 1014 1017 916 810 909
8 1015 914 1022 1129 908 809 915 1016
8 1016 915 1023 1130 911 812 917 1018
8 1018 917 1024 1131 910 811 916 1017
8 1037 928 1031 1148 925 821 920 1030
8 928 823 931 1041 1031 921 1032 1149
8 1033 926 829 941 1151 1039 939 1057
8 1034 927 819 922 1152 1040 926 1033
8 1153 1038 929 1035 1034 927 820 923
8 1154 1042 930 1036 1035 929 822 924
8 1037 928 821 925 1155 1041 930 1036
8 1039 935 828 939 1156 1047 938 1055
8 1157 1043 932 1042 1038 933 825 929
8 1038 933 826 927 1158 1045 934 1040
8 1040 934 827 926 1159 1046 935 1039
8 930 824 932 1042 1041 931 1044 1160
8 1051 936 1048 1165 1175 1052 937 1053
8 1156 1047 938 1055 1053 937 1054 1178
8 939 828 940 1058 1055 938 1056 1181
8 941 829 942 1060 1057 939 1058 1183
8 942 830 943 1061 1058 940 1059 1184
8 1060 942 832 944 1185 1061 945 1062
8 1082 964 1063 1188 981 889 947 1064
8 1097 981 1064 1190 979 870 948 1066
8 1064 947 1065 1191 948 837 949 1067
8 1066 948 1067 1193 975 869 950 1069
8 1067 949 1068 1194 950 838 951 1070
8 1069 950 1070 1195 952 839 953 1071
8 956 849 959 1072 1073 958 1076 1197
8 1074 960 1076 1197 1008 906 959 1072
8 1073 958 1076 1197 965 868 980 1085
8 1074 960 906 1008 1198 1077 1014 1122
8 1133 1026 1079 1199 1019 918 962 1075
8 1077 963 913 1014 1200 1080 962 1075
8 960 853 963 1077 1076 961 1078 1201
8 980 883 961 1076 1099 994 1078 1201
8 1210 1083 964 1082 1100 999 889 981
8 966 871 980 1085 1086 984 1099 1215
8 967 872 984 1086 1087 985 1103 1216
8 971 876 985 1087 1090 988 1104 1217
8 1088 986 874 969 1218 1105 987 1089
8 972 879 986 1088 1091 991 1105 1218
8 970 875 988 1090 1089 987 1106 1219
8 973 880 991 1091 1092 992 1109 1220
8 1093 993 881 974 1221 1110 992 1092
8 1222 1108 990 1095 1093 993 882 976
8 1223 1101 982 1094 1096 989 877 977
8 1098 983 870 979 1223 1101 982 1094
8 1095 990 1107 1224 978 878 989 1096
8 1098 983 1100 1225 979 870 981 1097
8 984 884 994 1099 1103 995 1111 1227
8 1102 1001 1115 1228 983 891 999 1100
8 1101 1000 892 989 1229 1116 1002 1107
8 1102 1001 891 983 1229 1116 1000 1101
8 985 885 995 1103 1104 996 1112 1230
8 988 886 996 1104 1106 997 1113 1231
8 1105 998 888 987 1232 1114 997 1106
8 991 896 998 1105 1109 1005 1114 1232
8 1108 1003 1117 1233 990 893 1002 1107
8 1108 1003 894 993 1233 1117 1004 1110
8 992 895 1005 1109 1110 1004 1118 1234
8 1120 1013 1127 1244 1007 907 1015 1121
8 1148 1031 1127 1244 1030 920 1013 1120
8 1121 1015 1129 1245 1011 908 1016 1125
8 1126 1019 1075 1196 1246 1128 1014 1122
8 1246 1128 1014 1122 1123 1017 909 1009
8 1124 1018 1131 1247 1010 910 1017 1123
8 1125 1016 1130 1248 1012 911 1018 1124
8 1127 1020 1137 1254 1015 914 1022 1129
8 1031 921 1032 1149 1127 1020 1137 1254
8 1134 1027 918 1019 1257 1140 1021 1128
8 1257 1140 1021 1128 1131 1024 916 1017
8 1129 1022 1141 1258 1016 915 1023 1130
8 1130 1023 1142 1259 1018 917 1024 1131
8 1261 1144 1025 1132 1133 1026 1079 1199
8 1255 1138 1025 1132 1135 1028 1144 1261
8 1133 1026 918 1019 1262 1145 1027 1134
8 1136 1029 1139 1256 1263 1146 1028 1135
8 1037 928 1041 1155 1148 1031 1149 1275
8 1041 931 1044 1160 1149 1032 1150 1276
8 1151 1039 939 1057 1278 1156 1055 1180
8 1152 1040 926 1033 1279 1159 1039 1151
8 1153 1038 927 1034 1280 1158 1040 1152
8 1281 1157 1042 1154 1153 1038 929 1035
8 1036 930 1042 1154 1155 1041 1160 1282
8 1283 1164 1046 1159 1156 1047 935 1039
8 1165 1048 1164 1283 1053 937 1047 1156
8 1157 1043 933 1038 1284 1161 1045 1158
8 1157 1043 1161 1284 1042 932 1044 1160
8 1040 934 1046 1159 1158 1045 1163 1285
8 1166 1049 1167 1292 1051 936 1048 1165
8 1166 1049 936 1051 1293 1168 1050 1172
8 1051 936 1052 1175 1172 1050 1173 1306
8 1174 1051 1165 1290 1308 1175 1053 1177
8 1053 937 1054 1178 1175 1052 1176 1309
8 1278 1156 1055 1180 1177 1053 1178 1311
8 1055 938 1056 1181 1178 1054 1179 1312
8 1057 939 1058 1183 1180 1055 1181 1314
8 1058 940 1059 1184 1181 1056 1182 1315
8 1060 942 1061 1185 1183 1058 1184 1316
8 1208 1081 1187 1321 1082 964 1063 1188
8 1209 1082 1188 1322 1097 981 1064 1190
8 1188 1063 1189 1323 1064 947 1065 1191
8 1190 1064 1191 1325 1066 948 1067 1193
8 1191 1065 1192 1326 1067 949 1068 1194
8 1067 1193 1069 950 1194 1327 1195 1070
8 1250 1133 1199 1330 1126 1019 1075 1196
8 1198 1077 1014 1122 1331 1200 1075 1196
8 1074 960 1077 1198 1197 1076 1201 1332
8 1085 980 1076 1197 1215 1099 1201 1332
8 1199 1079 1203 1333 1075 962 1080 1200
8 1132 1025 1119 1243 1199 1079 1203 1333
8 1201 1078 963 1077 1334 1202 1080 1200
8 1099 994 1078 1201 1227 1111 1202 1334
8 1343 1207 1081 1208 1210 1083 964 1082
8 1214 1084 1186 1319 1343 1207 1081 1208
8 1345 1210 1082 1209 1225 1100 981 1097
8 1346 1211 1083 1210 1228 1115 999 1100
8 1086 984 1099 1215 1216 1103 1227 1352
8 1087 985 1103 1216 1217 1104 1230 1353
8 1090 988 1104 1217 1219 1106 1231 1354
8 1218 1105 987 1089 1355 1232 1106 1219
8 1091 991 1105 1218 1220 1109 1232 1355
8 1092 992 1109 1220 1221 1110 1234 1356
8 1222 1108 1233 1357 1095 990 1107 1224
8 1222 1108 993 1093 1357 1233 1110 1221
8 1223 1101 989 1096 1358 1229 1107 1224
8 1226 1102 983 1098 1358 1229 1101 1223
8 1226 1102 1228 1359 1098 983 1100 1225
8 1103 995 1111 1227 1230 1112 1235 1360
8 1107 1002 1117 1233 1229 1116 1240 1362
8 1102 1001 1116 1229 1228 1115 1240 1362
8 1104 996 1112 1230 1231 1113 1236 1363
8 1364 1237 1114 1232 1231 1113 997 1106
8 1109 1005 1114 1232 1234 1118 1238 1365
8 1110 1004 1118 1234 1233 1117 1241 1366
8 1242 1374 1255 1138 1119 1243 1132 1025
8 1244 1127 1254 1376 1121 1015 1129 1245
8 1148 1031 1149 1275 1244 1127 1254 1376
8 1245 1129 1258 1377 1125 1016 1130 1248
8 1251 1134 1019 1126 1378 1257 1128 1246
8 1378 1257 1128 1246 1247 1131 1017 1123
8 1248 1130 1259 1379 1124 1018 1131 1247
8 1261 1381 1250 1133 1132 1249 1330 1199
8 1255 1380 1252 1135 1132 1249 1381 1261
8 1250 1133 1019 1126 1382 1262 1134 1251
8 1253 1136 1256 1385 1384 1263 1135 1252
8 1254 1137 1265 1387 1129 1022 1141 1258
8 1149 1032 1150 1276 1254 1137 1265 1387
8 1028 1135 1255 1138 1139 1256 1388 1266
8 1136 1029 1147 1264 1256 1139 1267 1389
8 1390 1268 1140 1257 1259 1142 1024 1131
8 1260 1143 1027 1134 1390 1268 1140 1257
8 1258 1141 1269 1391 1130 1023 1142 1259
8 1262 1145 1027 1134 1393 1271 1143 1260
8 1261 1144 1026 1133 1394 1272 1145 1262
8 1135 1028 1144 1261 1263 1146 1272 1394
8 1136 1029 1146 1263 1264 1147 1273 1395
8 1155 1041 1160 1282 1275 1149 1276 1405
8 1276 1150 1044 1160 1406 1277 1162 1286
8 1408 1283 1159 1279 1278 1156 1039 1151
8 1290 1165 1283 1408 1177 1053 1156 1278
8 1152 1040 1159 1279 1280 1158 1285 1409
8 1281 1157 1038 1153 1410 1284 1158 1280
8 1281 1157 1284 1410 1154 1042 1160 1282
8 1159 1046 1164 1283 1285 1163 1289 1412
8 1292 1167 1289 1412 1165 1048 1164 1283
8 1158 1045 1163 1285 1284 1161 1288 1413
8 1284 1161 1288 1413 1160 1044 1162 1286
8 1291 1166 1292 1418 1174 1051 1165 1290
8 1291 1166 1051 1174 1419 1293 1172 1305
8 1294 1169 1296 1421 1166 1049 1167 1292
8 1293 1168 1050 1172 1422 1295 1171 1303
8 1294 1169 1049 1166 1423 1297 1168 1293
8 1422 1295 1171 1303 1301 1170 1302 1435
8 1172 1050 1173 1306 1303 1171 1304 1438
8 1174 1051 1175 1308 1305 1172 1306 1440
8 1175 1052 1176 1309 1306 1173 1307 1441
8 1177 1053 1178 1311 1308 1175 1309 1443
8 1178 1054 1179 1312 1309 1176 1310 1444
8 1180 1055 1181 1314 1311 1178 1312 1446
8 1056 1181 1312 1179 1182 1315 1447 1313
8 1183 1058 1184 1316 1314 1181 1315 1448
8 1319 1186 1084 1214 1451 1317 1213 1350
8 1319 1186 1318 1453 1208 1081 1187 1321
8 1321 1187 1320 1456 1188 1063 1189 1323
8 1344 1208 1321 1457 1209 1082 1188 1322
8 1322 1188 1323 1458 1190 1064 1191 1325
8 1323 1189 1324 1459 1191 1065 1192 1326
8 1191 1325 1193 1067 1326 1460 1327 1194
8 1242 1374 1243 1119 1328 1462 1335 1204
8 1330 1199 1333 1465 1196 1075 1200 1331
8 1132 1249 1330 1199 1243 1375 1465 1333
8 1332 1201 1077 1198 1466 1334 1200 1331
8 1215 1099 1201 1332 1352 1227 1334 1466
8 1119 1243 1333 1203 1204 1335 1470 1338
8 1333 1203 1338 1470 1200 1080 1202 1334
8 1227 1111 1202 1334 1360 1235 1338 1470
8 1328 1462 1335 1204 1205 1336 1471 1339
8 1337 1206 1340 1472 1464 1329 1205 1336
8 1346 1211 1342 1479 1210 1083 1207 1343
8 1346 1211 1115 1228 1479 1342 1239 1361
8 1348 1212 1084 1214 1479 1342 1207 1343
8 1480 1343 1208 1344 1345 1210 1082 1209
8 1351 1214 1319 1454 1480 1343 1208 1344
8 1481 1346 1210 1345 1359 1228 1100 1225
8 1348 1212 1347 1483 1214 1084 1213 1350
8 1216 1103 1227 1352 1353 1230 1360 1488
8 1217 1104 1230 1353 1354 1231 1363 1489
8 1490 1364 1232 1355 1354 1231 1106 1219
8 1220 1109 1232 1355 1356 1234 1365 1491
8 1221 1110 1234 1356 1357 1233 1366 1492
8 1224 1107 1233 1357 1358 1229 1362 1493
8 1226 1102 1229 1358 1359 1228 1362 1493
8 1230 1112 1235 1360 1363 1236 1367 1496
8 1361 1239 1115 1228 1497 1371 1240 1362
8 1366 1241 1372 1498 1233 1117 1240 1362
8 1364 1237 1113 1231 1499 1368 1236 1363
8 1364 1237 1368 1499 1232 1114 1238 1365
8 1234 1118 1238 1365 1366 1241 1369 1500
8 1507 1373 1242 1374 1388 1266 1138 1255
8 1508 1374 1243 1375 1380 1255 1132 1249
8 1376 1254 1387 1509 1245 1129 1258 1377
8 1275 1149 1276 1405 1376 1254 1387 1509
8 1377 1258 1391 1510 1248 1130 1259 1379
8 1511 1390 1257 1378 1379 1259 1131 1247
8 1383 1260 1134 1251 1511 1390 1257 1378
8 1252 1135 1256 1385 1380 1255 1388 1512
8 1261 1381 1513 1394 1133 1250 1382 1262
8 1135 1252 1384 1263 1261 1381 1513 1394
8 1382 1262 1134 1251 1514 1393 1260 1383
8 1253 1136 1263 1384 1386 1264 1395 1516
8 1253 1136 1264 1386 1385 1256 1389 1517
8 1387 1265 1397 1519 1258 1141 1269 1391
8 1276 1150 1277 1406 1387 1265 1397 1519
8 1256 1139 1267 1389 1388 1266 1398 1520
8 1264 1147 1274 1396 1389 1267 1399 1521
8 1392 1270 1143 1260 1522 1400 1268 1390
8 1390 1268 1142 1259 1522 1400 1269 1391
8 1392 1270 1401 1523 1260 1143 1271 1393
8 1272 1394 1524 1402 1145 1262 1393 1271
8 1395 1273 1146 1263 1524 1402 1272 1394
8 1273 1395 1264 1147 1403 1526 1396 1274
8 1405 1276 1160 1282 1534 1406 1286 1411
8 1414 1287 1407 1535 1286 1162 1277 1406
8 1279 1159 1283 1408 1409 1285 1412 1537
8 1418 1292 1412 1537 1290 1165 1283 1408
8 1280 1158 1285 1409 1410 1284 1413 1538
8 1410 1284 1413 1538 1282 1160 1286 1411
8 1285 1163 1289 1412 1413 1288 1417 1540
8 1421 1296 1417 1540 1292 1167 1289 1412
8 1414 1287 1162 1286 1541 1416 1288 1413
8 1420 1294 1421 1545 1291 1166 1292 1418
8 1419 1293 1172 1305 1546 1422 1303 1437
8 1420 1294 1166 1291 1547 1423 1293 1419
8 1294 1169 1297 1423 1421 1296 1425 1548
8 1423 1297 1168 1293 1549 1424 1295 1422
8 1301 1170 1298 1427 1422 1295 1424 1549
8 1432 1300 1428 1554 1301 1170 1298 1427
8 1431 1299 1428 1554 1560 1430 1300 1432
8 1563 1433 1300 1432 1435 1302 1170 1301
8 1546 1422 1303 1437 1434 1301 1435 1565
8 1303 1171 1304 1438 1435 1302 1436 1566
8 1305 1172 1306 1440 1437 1303 1438 1568
8 1306 1173 1307 1441 1438 1304 1439 1569
8 1308 1175 1309 1443 1440 1306 1441 1571
8 1309 1176 1310 1444 1441 1307 1442 1572
8 1311 1178 1312 1446 1443 1309 1444 1574
8 1179 1312 1444 1310 1313 1447 1575 1445
8 1314 1181 1315 1448 1446 1312 1447 1576
8 1350 1213 1349 1486 1451 1317 1449 1579
8 1451 1317 1450 1581 1319 1186 1318 1453
8 1454 1319 1214 1351 1582 1451 1350 1487
8 1453 1318 1452 1584 1321 1187 1320 1456
8 1454 1319 1453 1585 1344 1208 1321 1457
8 1456 1320 1455 1586 1323 1189 1324 1459
8 1457 1321 1456 1587 1322 1188 1323 1458
8 1458 1323 1459 1588 1325 1191 1326 1460
8 1205 1336 1464 1329 1328 1462 1590 1461
8 1507 1373 1461 1590 1374 1242 1328 1462
8 1508 1374 1462 1591 1375 1243 1335 1467
8 1337 1206 1329 1464 1473 1341 1463 1594
8 1375 1243 1335 1467 1465 1333 1470 1596
8 1465 1333 1470 1596 1331 1200 1334 1466
8 1352 1227 1334 1466 1488 1360 1470 1596
8 1591 1462 1336 1468 1467 1335 1471 1597
8 1469 1337 1472 1598 1595 1464 1336 1468
8 1471 1339 1474 1600 1335 1204 1338 1470
8 1600 1474 1367 1496 1470 1338 1235 1360
8 1336 1205 1340 1472 1471 1339 1475 1601
8 1337 1206 1341 1473 1472 1340 1476 1602
8 1495 1370 1478 1609 1361 1239 1342 1479
8 1348 1212 1342 1479 1483 1347 1478 1609
8 1481 1346 1479 1610 1345 1210 1343 1480
8 1481 1346 1228 1359 1610 1479 1361 1494
8 1484 1348 1214 1351 1610 1479 1343 1480
8 1483 1347 1482 1612 1350 1213 1349 1486
8 1484 1348 1483 1613 1351 1214 1350 1487
8 1353 1230 1360 1488 1489 1363 1496 1616
8 1490 1364 1231 1354 1617 1499 1363 1489
8 1490 1364 1499 1617 1355 1232 1365 1491
8 1356 1234 1365 1491 1492 1366 1500 1619
8 1492 1366 1498 1620 1357 1233 1362 1493
8 1494 1361 1228 1359 1621 1497 1362 1493
8 1495 1370 1239 1361 1622 1504 1371 1497
8 1363 1236 1367 1496 1499 1368 1501 1623
8 1497 1371 1240 1362 1624 1505 1372 1498
8 1625 1503 1372 1498 1500 1369 1241 1366
8 1365 1238 1368 1499 1500 1369 1502 1626
8 1520 1398 1506 1633 1388 1266 1373 1507
8 1634 1507 1374 1508 1512 1388 1255 1380
8 1509 1387 1519 1635 1377 1258 1391 1510
8 1405 1276 1406 1534 1509 1387 1519 1635
8 1515 1392 1260 1383 1636 1522 1390 1511
8 1511 1390 1259 1379 1636 1522 1391 1510
8 1385 1256 1389 1517 1512 1388 1520 1637
8 1513 1394 1262 1382 1638 1524 1393 1514
8 1395 1516 1638 1524 1263 1384 1513 1394
8 1515 1392 1523 1639 1383 1260 1393 1514
8 1516 1395 1526 1640 1386 1264 1396 1518
8 1386 1264 1396 1518 1517 1389 1521 1641
8 1519 1397 1527 1643 1391 1269 1400 1522
8 1535 1407 1527 1643 1406 1277 1397 1519
8 1389 1267 1399 1521 1520 1398 1528 1644
8 1645 1529 1399 1521 1525 1404 1274 1396
8 1392 1270 1400 1522 1523 1401 1531 1646
8 1524 1402 1271 1393 1648 1532 1401 1523
8 1403 1526 1648 1532 1273 1395 1524 1402
8 1525 1404 1274 1396 1649 1533 1403 1526
8 1539 1414 1535 1657 1411 1286 1406 1534
8 1542 1415 1536 1658 1414 1287 1407 1535
8 1409 1285 1412 1537 1538 1413 1540 1660
8 1545 1421 1540 1660 1418 1292 1412 1537
8 1539 1414 1286 1411 1661 1541 1413 1538
8 1540 1417 1544 1663 1413 1288 1416 1541
8 1421 1296 1425 1548 1540 1417 1544 1663
8 1542 1415 1287 1414 1664 1543 1416 1541
8 1420 1294 1423 1547 1545 1421 1548 1666
8 1547 1423 1293 1419 1667 1549 1422 1546
8 1434 1301 1427 1553 1546 1422 1549 1667
8 1423 1297 1424 1549 1548 1425 1550 1668
8 1551 1426 1550 1668 1427 1298 1424 1549
8 1551 1426 1298 1427 1671 1552 1428 1554
8 1562 1432 1554 1674 1434 1301 1427 1553
8 1431 1299 1429 1558 1554 1428 1555 1675
8 1431 1299 1430 1560 1558 1429 1557 1680
8 1560 1430 1300 1432 1683 1559 1433 1563
8 1561 1431 1554 1674 1684 1560 1432 1562
8 1685 1563 1432 1562 1565 1435 1301 1434
8 1435 1302 1436 1566 1563 1433 1564 1686
8 1437 1303 1438 1568 1565 1435 1566 1688
8 1438 1304 1439 1569 1566 1436 1567 1689
8 1440 1306 1441 1571 1568 1438 1569 1691
8 1441 1307 1442 1572 1569 1439 1570 1692
8 1443 1309 1444 1574 1571 1441 1572 1694
8 1310 1444 1572 1442 1445 1575 1695 1573
8 1446 1312 1447 1576 1574 1444 1575 1696
8 1486 1349 1485 1614 1579 1449 1577 1699
8 1451 1317 1449 1579 1581 1450 1578 1701
8 1487 1350 1486 1615 1582 1451 1579 1702
8 1581 1450 1580 1704 1453 1318 1452 1584
8 1582 1451 1581 1705 1454 1319 1453 1585
8 1584 1452 1583 1706 1456 1320 1455 1586
8 1585 1453 1584 1707 1457 1321 1456 1587
8 1587 1456 1586 1708 1458 1323 1459 1588
8 1633 1506 1589 1710 1507 1373 1461 1590
8 1464 1329 1461 1590 1594 1463 1589 1710
8 1468 1336 1462 1591 1595 1464 1590 1711
8 1634 1507 1590 1711 1508 1374 1462 1591
8 1473 1341 1463 1594 1603 1477 1593 1716
8 1469 1337 1464 1595 1599 1473 1594 1717
8 1471 1597 1467 1335 1600 1718 1596 1470
8 1718 1600 1496 1616 1596 1470 1360 1488
8 1336 1468 1597 1471 1472 1598 1719 1601
8 1469 1337 1473 1599 1598 1472 1602 1720
8 1722 1604 1501 1623 1600 1474 1367 1496
8 1475 1601 1471 1339 1604 1722 1600 1474
8 1602 1476 1605 1723 1472 1340 1475 1601
8 1476 1602 1724 1606 1341 1473 1603 1477
8 1483 1347 1478 1609 1612 1482 1608 1731
8 1495 1370 1504 1622 1609 1478 1608 1731
8 1618 1495 1609 1732 1494 1361 1479 1610
8 1484 1348 1479 1610 1613 1483 1609 1732
8 1486 1349 1482 1612 1614 1485 1611 1733
8 1613 1483 1612 1734 1487 1350 1486 1615
8 1489 1363 1496 1616 1617 1499 1623 1736
8 1491 1365 1499 1617 1619 1500 1626 1737
8 1618 1495 1361 1494 1738 1622 1497 1621
8 1739 1625 1498 1620 1619 1500 1366 1492
8 1621 1497 1362 1493 1740 1624 1498 1620
8 1742 1631 1504 1622 1624 1505 1371 1497
8 1743 1628 1502 1626 1623 1501 1368 1499
8 1744 1630 1505 1624 1625 1503 1372 1498
8 1745 1629 1503 1625 1626 1502 1369 1500
8 1520 1398 1528 1644 1633 1506 1632 1751
8 1637 1520 1633 1752 1512 1388 1507 1634
8 1635 1519 1643 1753 1510 1391 1522 1636
8 1657 1535 1643 1753 1534 1406 1519 1635
8 1515 1392 1522 1636 1639 1523 1646 1754
8 1517 1389 1521 1641 1637 1520 1644 1755
8 1524 1638 1756 1648 1393 1514 1639 1523
8 1640 1526 1395 1516 1756 1648 1524 1638
8 1642 1525 1396 1518 1757 1649 1526 1640
8 1758 1645 1521 1641 1642 1525 1396 1518
8 1646 1531 1400 1522 1760 1650 1527 1643
8 1535 1407 1536 1658 1643 1527 1650 1760
8 1521 1399 1529 1645 1644 1528 1651 1761
8 1647 1530 1652 1762 1525 1404 1529 1645
8 1401 1523 1648 1532 1531 1646 1763 1655
8 1525 1404 1533 1649 1647 1530 1654 1765
8 1533 1649 1766 1656 1403 1526 1648 1532
8 1662 1542 1658 1774 1539 1414 1535 1657
8 1542 1415 1543 1664 1658 1536 1659 1775
8 1660 1540 1663 1777 1538 1413 1541 1661
8 1545 1421 1548 1666 1660 1540 1663 1777
8 1662 1542 1414 1539 1778 1664 1541 1661
8 1664 1543 1416 1541 1779 1665 1544 1663
8 1548 1425 1550 1668 1663 1544 1665 1779
8 1547 1423 1549 1667 1666 1548 1668 1781
8 1670 1551 1668 1781 1553 1427 1549 1667
8 1551 1426 1552 1671 1668 1550 1669 1782
8 1670 1551 1427 1553 1784 1671 1554 1674
8 1675 1555 1672 1785 1554 1428 1552 1671
8 1678 1556 1673 1789 1558 1429 1555 1675
8 1561 1431 1558 1681 1674 1554 1675 1790
8 1794 1677 1556 1678 1680 1557 1429 1558
8 1560 1430 1559 1683 1680 1557 1679 1797
8 1561 1431 1560 1684 1681 1558 1680 1798
8 1563 1433 1564 1686 1683 1559 1682 1800
8 1684 1560 1432 1562 1801 1683 1563 1685
8 1565 1435 1566 1688 1685 1563 1686 1802
8 1566 1436 1567 1689 1686 1564 1687 1803
8 1568 1438 1569 1691 1688 1566 1689 1805
8 1569 1439 1570 1692 1689 1567 1690 1806
8 1571 1441 1572 1694 1691 1569 1692 1808
8 1442 1572 1692 1570 1573 1695 1809 1693
8 1574 1444 1575 1696 1694 1572 1695 1810
8 1614 1485 1592 1712 1699 1577 1697 1813
8 1579 1449 1577 1699 1701 1578 1698 1815
8 1615 1486 1614 1735 1702 1579 1699 1816
8 1701 1578 1700 1818 1581 1450 1580 1704
8 1582 1451 1579 1702 1705 1581 1701 1819
8 1704 1580 1703 1820 1584 1452 1583 1706
8 1705 1581 1704 1821 1585 1453 1584 1707
8 1707 1584 1706 1822 1587 1456 1586 1708
8 1710 1589 1506 1633 1824 1709 1632 1751
8 1594 1463 1589 1710 1716 1593 1709 1824
8 1752 1633 1710 1825 1634 1507 1590 1711
8 1595 1464 1590 1711 1717 1594 1710 1825
8 1830 1714 1592 1712 1733 1611 1485 1614
8 1603 1477 1593 1716 1725 1607 1715 1834
8 1599 1473 1594 1717 1721 1603 1716 1835
8 1837 1722 1623 1736 1718 1600 1496 1616
8 1719 1601 1722 1837 1597 1471 1600 1718
8 1602 1720 1598 1472 1723 1838 1719 1601
8 1720 1602 1473 1599 1839 1724 1603 1721
8 1723 1605 1726 1840 1601 1475 1604 1722
8 1840 1726 1628 1743 1722 1604 1501 1623
8 1724 1606 1727 1841 1602 1476 1605 1723
8 1725 1607 1728 1842 1603 1477 1606 1724
8 1612 1482 1608 1731 1733 1611 1730 1849
8 1741 1627 1730 1849 1622 1504 1608 1731
8 1613 1483 1609 1732 1734 1612 1731 1850
8 1618 1495 1622 1738 1732 1609 1731 1850
8 1615 1486 1612 1734 1735 1614 1733 1851
8 1852 1743 1626 1737 1736 1623 1499 1617
8 1853 1745 1625 1739 1737 1626 1500 1619
8 1855 1742 1622 1738 1740 1624 1497 1621
8 1856 1744 1624 1740 1739 1625 1498 1620
8 1741 1627 1504 1622 1857 1746 1631 1742
8 1742 1631 1505 1624 1858 1749 1630 1744
8 1859 1747 1629 1745 1743 1628 1502 1626
8 1860 1748 1630 1744 1745 1629 1503 1625
8 1644 1528 1651 1761 1751 1632 1750 1865
8 1637 1520 1644 1755 1752 1633 1751 1866
8 1754 1646 1522 1636 1867 1760 1643 1753
8 1657 1535 1658 1774 1753 1643 1760 1867
8 1639 1523 1646 1754 1756 1648 1763 1868
8 1641 1521 1645 1758 1755 1644 1761 1869
8 1757 1649 1526 1640 1870 1766 1648 1756
8 1642 1525 1649 1757 1759 1647 1765 1871
8 1759 1647 1762 1872 1642 1525 1645 1758
8 1760 1650 1767 1874 1646 1531 1655 1763
8 1658 1536 1659 1775 1760 1650 1767 1874
8 1762 1652 1768 1875 1645 1529 1651 1761
8 1764 1653 1769 1876 1647 1530 1652 1762
8 1656 1766 1877 1773 1532 1648 1763 1655
8 1771 1879 1765 1654 1653 1764 1647 1530
8 1533 1649 1765 1654 1656 1766 1880 1772
8 1662 1542 1664 1778 1774 1658 1775 1887
8 1664 1543 1665 1779 1775 1659 1776 1888
8 1778 1664 1541 1661 1890 1779 1663 1777
8 1666 1548 1668 1781 1777 1663 1779 1890
8 1782 1669 1780 1891 1668 1550 1665 1779
8 1670 1551 1671 1784 1781 1668 1782 1893
8 1671 1552 1672 1785 1782 1669 1783 1894
8 1790 1675 1785 1896 1674 1554 1671 1784
8 1675 1555 1673 1789 1785 1672 1786 1897
8 1792 1676 1788 1903 1678 1556 1673 1789
8 1795 1678 1789 1904 1681 1558 1675 1790
8 1792 1676 1556 1678 1906 1791 1677 1794
8 1680 1557 1679 1797 1794 1677 1793 1909
8 1910 1794 1678 1795 1798 1680 1558 1681
8 1683 1559 1682 1800 1797 1679 1796 1912
8 1684 1560 1683 1801 1798 1680 1797 1913
8 1686 1564 1687 1803 1800 1682 1799 1915
8 1685 1563 1686 1802 1801 1683 1800 1916
8 1688 1566 1689 1805 1802 1686 1803 1917
8 1689 1567 1690 1806 1803 1687 1804 1918
8 1691 1569 1692 1808 1805 1689 1806 1920
8 1692 1570 1693 1809 1806 1690 1807 1921
8 1694 1572 1695 1810 1808 1692 1809 1922
8 1829 1713 1811 1926 1712 1592 1697 1813
8 1813 1697 1812 1928 1699 1577 1698 1815
8 1735 1614 1712 1828 1816 1699 1813 1929
8 1815 1698 1814 1931 1701 1578 1700 1818
8 1702 1579 1699 1816 1819 1701 1815 1932
8 1818 1700 1817 1933 1704 1580 1703 1820
8 1819 1701 1818 1934 1705 1581 1704 1821
8 1821 1704 1820 1935 1707 1584 1706 1822
8 1824 1709 1632 1751 1937 1823 1750 1865
8 1716 1593 1709 1824 1834 1715 1823 1937
8 1825 1710 1633 1752 1938 1824 1751 1866
8 1717 1594 1710 1825 1835 1716 1824 1938
8 1945 1830 1712 1828 1851 1733 1614 1735
8 1830 1714 1831 1946 1712 1592 1713 1829
8 1947 1832 1714 1830 1849 1730 1611 1733
8 1843 1729 1607 1725 1950 1833 1715 1834
8 1721 1603 1716 1835 1836 1725 1834 1951
8 1836 1725 1842 1953 1721 1603 1724 1839
8 1723 1838 1719 1601 1840 1954 1837 1722
8 1954 1840 1743 1852 1837 1722 1623 1736
8 1724 1839 1720 1602 1841 1955 1838 1723
8 1841 1727 1844 1956 1723 1605 1726 1840
8 1956 1844 1747 1859 1840 1726 1628 1743
8 1728 1842 1724 1606 1845 1957 1841 1727
8 1725 1607 1729 1843 1842 1728 1846 1958
8 1741 1627 1746 1857 1849 1730 1848 1965
8 1734 1612 1731 1850 1851 1733 1849 1966
8 1854 1741 1849 1966 1738 1622 1731 1850
8 1967 1859 1745 1853 1852 1743 1626 1737
8 1968 1860 1744 1856 1853 1745 1625 1739
8 1854 1741 1622 1738 1969 1857 1742 1855
8 1855 1742 1624 1740 1970 1858 1744 1856
8 1857 1746 1631 1742 1971 1861 1749 1858
8 1858 1749 1630 1744 1972 1863 1748 1860
8 1859 1747 1862 1973 1745 1629 1748 1860
8 1875 1768 1864 1977 1761 1651 1750 1865
8 1755 1644 1761 1869 1866 1751 1865 1978
8 1867 1760 1874 1979 1754 1646 1763 1868
8 1774 1658 1775 1887 1867 1760 1874 1979
8 1870 1766 1648 1756 1980 1877 1763 1868
8 1872 1762 1875 1981 1758 1645 1761 1869
8 1757 1649 1766 1870 1871 1765 1880 1982
8 1983 1879 1764 1873 1871 1765 1647 1759
8 1873 1764 1876 1984 1759 1647 1762 1872
8 1877 1773 1655 1763 1986 1881 1767 1874
8 1775 1659 1776 1888 1874 1767 1881 1986
8 1876 1769 1882 1987 1762 1652 1768 1875
8 1878 1770 1883 1988 1764 1653 1769 1876
8 1880 1772 1656 1766 1989 1886 1773 1877
8 1878 1770 1653 1764 1990 1884 1771 1879
8 1765 1654 1772 1880 1879 1771 1885 1991
8 1778 1664 1779 1890 1887 1775 1888 1997
8 1998 1889 1776 1888 1891 1780 1665 1779
8 1893 1782 1891 2000 1781 1668 1779 1890
8 1894 1783 1892 2001 1782 1669 1780 1891
8 1784 1671 1785 1896 1893 1782 1894 2003
8 1897 1786 1895 2004 1785 1672 1783 1894
8 1790 1675 1789 1904 1896 1785 1897 2006
8 1901 1787 1898 2007 1789 1673 1786 1897
8 1903 1788 1900 2013 1789 1673 1787 1901
8 1792 1676 1791 1906 1903 1788 1902 2016
8 1907 1792 1903 2017 1795 1678 1789 1904
8 1906 1791 1677 1794 2019 1905 1793 1909
8 1907 1792 1678 1795 2020 1906 1794 1910
8 1797 1679 1796 1912 1909 1793 1908 2022
8 1798 1680 1797 1913 1910 1794 1909 2023
8 1800 1682 1799 1915 1912 1796 1911 2025
8 1801 1683 1800 1916 1913 1797 1912 2026
8 1803 1687 1804 1918 1915 1799 1914 2028
8 1802 1686 1803 1917 1916 1800 1915 2029
8 1805 1689 1806 1920 1917 1803 1918 2030
8 1806 1690 1807 1921 1918 1804 1919 2031
8 1808 1692 1809 1922 1920 1806 1921 2032
8 1939 1826 1924 2037 1829 1713 1811 1926
8 1926 1811 1925 2039 1813 1697 1812 1928
8 1944 1829 1926 2040 1828 1712 1813 1929
8 1928 1812 1927 2042 1815 1698 1814 1931
8 1929 1813 1928 2043 1816 1699 1815 1932
8 1931 1814 1930 2044 1818 1700 1817 1933
8 1932 1815 1931 2045 1819 1701 1818 1934
8 1934 1818 1933 2046 1821 1704 1820 1935
8 2048 1936 1823 1937 1977 1864 1750 1865
8 1950 1833 1715 1834 2048 1936 1823 1937
8 1938 1824 1751 1866 2049 1937 1865 1978
8 1835 1716 1824 1938 1951 1834 1937 2049
8 1939 1826 1713 1829 2053 1942 1831 1946
8 1940 1827 1923 2035 2053 1942 1826 1939
8 1945 1830 1946 2058 1828 1712 1829 1944
8 2059 1947 1830 1945 1966 1849 1733 1851
8 1947 1832 1730 1849 2060 1948 1848 1965
8 1947 1832 1948 2060 1830 1714 1831 1946
8 1959 1847 1729 1843 2063 1949 1833 1950
8 1952 1843 1725 1836 2064 1950 1834 1951
8 1836 1725 1843 1952 1953 1842 1958 2066
8 1953 1842 1957 2067 1839 1724 1841 1955
8 1841 1955 1838 1723 1956 2068 1954 1840
8 2068 1956 1859 1967 1954 1840 1743 1852
8 1956 1844 1960 2069 1859 1747 1862 1973
8 1845 1957 1841 1727 1960 2069 1956 1844
8 1728 1842 1957 1845 1846 1958 2071 1961
8 1962 2072 1959 1847 1846 1958 1843 1729
8 1971 1861 1964 2077 1857 1746 1848 1965
8 1854 1741 1857 1969 1966 1849 1965 2078
8 1967 1859 1973 2079 1853 1745 1860 1968
8 1970 1858 1744 1856 2080 1972 1860 1968
8 1969 1857 1742 1855 2081 1971 1858 1970
8 1971 1861 1749 1858 2082 1974 1863 1972
8 1973 1862 1975 2083 1860 1748 1863 1972
8 1987 1882 1976 2086 1875 1768 1864 1977
8 1981 1875 1977 2087 1869 1761 1865 1978
8 1980 1877 1763 1868 2088 1986 1874 1979
8 1887 1775 1888 1997 1979 1874 1986 2088
8 1880 1982 2089 1989 1766 1870 1980 1877
8 1984 1876 1987 2090 1872 1762 1875 1981
8 1765 1871 1983 1879 1880 1982 2091 1991
8 1985 1878 1764 1873 2092 1990 1879 1983
8 1985 1878 1988 2093 1873 1764 1876 1984
8 2094 1992 1881 1986 1998 1889 1776 1888
8 1986 1881 1992 2094 1877 1773 1886 1989
8 1988 1883 1993 2095 1876 1769 1882 1987
8 1878 1770 1884 1990 1988 1883 1994 2096
8 1991 1885 1772 1880 2097 1996 1886 1989
8 1879 1771 1885 1991 1990 1884 1995 2098
8 2103 1998 1888 1997 2000 1891 1779 1890
8 2104 1999 1889 1998 2001 1892 1780 1891
8 2003 1894 2001 2106 1893 1782 1891 2000
8 2004 1895 2002 2107 1894 1783 1892 2001
8 2006 1897 2004 2109 1896 1785 1894 2003
8 2007 1898 2005 2110 1897 1786 1895 2004
8 2014 1901 2007 2112 1904 1789 1897 2006
8 2011 1899 2008 2113 1901 1787 1898 2007
8 2119 2010 1899 2011 2013 1900 1787 1901
8 2016 1902 2012 2122 1903 1788 1900 2013
8 2017 1903 2013 2123 1904 1789 1901 2014
8 1906 1791 1905 2019 2016 1902 2015 2125
8 1907 1792 1906 2020 2017 1903 2016 2126
8 1909 1793 1908 2022 2019 1905 2018 2128
8 2020 1906 1794 1910 2129 2019 1909 2023
8 1912 1796 1911 2025 2022 1908 2021 2131
8 1913 1797 1912 2026 2023 1909 2022 2132
8 1915 1799 1914 2028 2025 1911 2024 2134
8 1916 1800 1915 2029 2026 1912 2025 2135
8 1918 1804 1919 2031 2028 1914 2027 2136
8 1917 1803 1918 2030 2029 1915 2028 2137
8 1920 1806 1921 2032 2030 1918 2031 2138
8 1940 1827 1941 2054 2035 1923 2033 2140
8 2035 1923 2034 2143 1939 1826 1924 2037
8 2037 1924 2036 2146 1926 1811 1925 2039
8 2051 1939 2037 2147 1944 1829 1926 2040
8 2039 1925 2038 2149 1928 1812 1927 2042
8 2040 1926 2039 2150 1929 1813 1928 2043
8 2042 1927 2041 2151 1931 1814 1930 2044
8 2043 1928 2042 2152 1932 1815 1931 2045
8 2045 1931 2044 2153 1934 1818 1933 2046
8 2155 2047 1936 2048 2086 1976 1864 1977
8 2063 1949 1833 1950 2155 2047 1936 2048
8 2156 2048 1937 2049 2087 1977 1865 1978
8 2064 1950 1834 1951 2156 2048 1937 2049
8 2051 1939 1829 1944 2160 2053 1946 2058
8 2052 1940 2035 2144 2160 2053 1939 2051
8 2053 1942 1831 1946 2163 2057 1948 2060
8 2055 1943 1827 1940 2163 2057 1942 2053
8 2055 1943 2056 2164 1940 1827 1941 2054
8 2059 1947 1849 1966 2167 2060 1965 2078
8 2059 1947 2060 2167 1945 1830 1946 2058
8 2077 1964 2061 2168 1965 1848 1948 2060
8 2070 1963 1847 1959 2170 2062 1949 2063
8 2065 1959 1843 1952 2171 2063 1950 2064
8 2173 2072 1958 2066 2065 1959 1843 1952
8 1953 1842 1958 2066 2067 1957 2071 2174
8 2068 1956 2069 2175 1967 1859 1973 2079
8 2067 1957 2069 2175 1955 1841 1956 2068
8 1845 1957 2069 1960 1961 2071 2176 2073
8 2069 1960 2073 2176 1973 1862 1975 2083
8 2070 1963 2075 2177 1959 1847 1962 2072
8 1846 1958 2071 1961 1962 2072 2178 2074
8 2077 1964 1861 1971 2182 2076 1974 2082
8 2081 1971 2077 2183 1969 1857 1965 2078
8 2079 1973 2083 2184 1968 1860 1972 2080
8 2081 1971 1858 1970 2185 2082 1972 2080
8 2083 1975 2084 2186 1972 1863 1974 2082
8 2086 1976 1882 1987 2189 2085 1993 2095
8 2090 1987 2086 2190 1981 1875 1977 2087
8 2191 2094 1986 2088 2103 1998 1888 1997
8 2088 1986 2094 2191 1980 1877 1989 2089
8 1991 2091 2192 2097 1880 1982 2089 1989
8 2093 1988 2095 2193 1984 1876 1987 2090
8 1879 1983 2092 1990 1991 2091 2194 2098
8 1985 1878 1990 2092 2093 1988 2096 2195
8 2097 1996 1886 1989 2196 2099 1992 2094
8 2196 2099 1992 2094 2104 1999 1889 1998
8 1994 2096 1988 1883 2100 2197 2095 1993
8 2096 1994 1884 1990 2198 2101 1995 2098
8 1995 2098 2199 2102 1885 1991 2097 1996
8 2203 2104 1998 2103 2106 2001 1891 2000
8 2107 2002 2105 2204 2001 1892 1999 2104
8 2109 2004 2107 2206 2003 1894 2001 2106
8 2110 2005 2108 2207 2004 1895 2002 2107
8 2112 2007 2110 2209 2006 1897 2004 2109
8 2113 2008 2111 2210 2007 1898 2005 2110
8 2120 2011 2113 2212 2014 1901 2007 2112
8 2117 2009 2114 2213 2011 1899 2008 2113
8 2219 2116 2009 2117 2119 2010 1899 2011
8 2222 2118 2010 2119 2122 2012 1900 2013
8 2223 2119 2011 2120 2123 2013 1901 2014
8 2016 1902 2015 2125 2122 2012 2121 2225
8 2126 2016 2122 2226 2017 1903 2013 2123
8 2019 1905 2018 2128 2125 2015 2124 2228
8 2020 1906 2019 2129 2126 2016 2125 2229
8 2022 1908 2021 2131 2128 2018 2127 2231
8 2023 1909 2022 2132 2129 2019 2128 2232
8 2025 1911 2024 2134 2131 2021 2130 2234
8 2026 1912 2025 2135 2132 2022 2131 2235
8 1914 2028 2134 2024 2027 2136 2236 2133
8 2029 1915 2028 2137 2135 2025 2134 2237
8 2030 1918 2031 2138 2137 2028 2136 2238
8 2157 2050 2139 2240 2054 1941 2033 2140
8 2052 1940 2054 2161 2144 2035 2140 2242
8 2140 2033 2141 2243 2035 1923 2034 2143
8 2143 2034 2142 2246 2037 1924 2036 2146
8 2144 2035 2143 2247 2051 1939 2037 2147
8 2146 2036 2145 2249 2039 1925 2038 2149
8 2147 2037 2146 2250 2040 1926 2039 2150
8 2149 2038 2148 2251 2042 1927 2041 2151
8 2150 2039 2149 2252 2043 1928 2042 2152
8 2152 2042 2151 2253 2045 1931 2044 2153
8 2255 2154 2047 2155 2189 2085 1976 2086
8 2170 2062 1949 2063 2255 2154 2047 2155
8 2256 2155 2048 2156 2190 2086 1977 2087
8 2171 2063 1950 2064 2256 2155 2048 2156
8 2258 2159 2050 2157 2164 2056 1941 2054
8 2160 2053 1946 2058 2262 2163 2060 2167
8 2162 2055 1940 2052 2262 2163 2053 2160
8 2162 2055 2164 2263 2052 1940 2054 2161
8 2163 2057 1948 2060 2264 2165 2061 2168
8 2055 1943 2057 2163 2164 2056 2165 2264
8 2182 2076 2166 2268 2077 1964 2061 2168
8 2183 2077 2168 2269 2078 1965 2060 2167
8 2070 1963 2062 2170 2177 2075 2169 2271
8 2172 2070 1959 2065 2272 2170 2063 2171
8 2172 2070 2177 2273 2065 1959 2072 2173
8 2066 1958 2072 2173 2174 2071 2178 2274
8 2067 1957 2071 2174 2175 2069 2176 2275
8 2175 2069 2176 2275 2079 1973 2083 2184
8 2071 1961 2074 2178 2176 2073 2179 2276
8 2176 2073 2179 2276 2083 1975 2084 2186
8 2072 1962 2075 2177 2178 2074 2180 2277
8 2182 2076 1974 2082 2280 2181 2084 2186
8 2183 2077 1971 2081 2281 2182 2082 2185
8 2184 2083 2186 2282 2080 1972 2082 2185
8 2189 2085 1993 2095 2285 2188 2100 2197
8 2190 2086 1987 2090 2286 2189 2095 2193
8 2192 2097 1989 2089 2287 2196 2094 2191
8 2287 2196 2094 2191 2203 2104 1998 2103
8 2194 2098 1991 2091 2288 2199 2097 2192
8 2195 2096 2197 2289 2093 1988 2095 2193
8 2096 2195 2290 2198 1990 2092 2194 2098
8 2097 1996 2099 2196 2199 2102 2200 2291
8 2196 2099 1999 2104 2291 2200 2105 2204
8 2100 2197 2292 2201 1994 2096 2198 2101
8 1995 2098 2198 2101 2102 2199 2293 2202
8 2206 2107 2204 2296 2106 2001 2104 2203
8 2207 2108 2205 2297 2107 2002 2105 2204
8 2209 2110 2207 2299 2109 2004 2107 2206
8 2210 2111 2208 2300 2110 2005 2108 2207
8 2212 2113 2210 2302 2112 2007 2110 2209
8 2213 2114 2211 2303 2113 2008 2111 2210
8 2220 2117 2213 2305 2120 2011 2113 2212
8 2216 2115 2214 2306 2117 2009 2114 2213
8 2216 2115 2009 2117 2311 2217 2116 2219
8 2219 2116 2010 2119 2314 2218 2118 2222
8 2315 2219 2117 2220 2223 2119 2011 2120
8 2122 2012 2121 2225 2222 2118 2221 2317
8 2318 2222 2119 2223 2226 2122 2013 2123
8 2125 2015 2124 2228 2225 2121 2224 2320
8 2126 2016 2125 2229 2226 2122 2225 2321
8 2128 2018 2127 2231 2228 2124 2227 2323
8 2129 2019 2128 2232 2229 2125 2228 2324
8 2131 2021 2130 2234 2231 2127 2230 2326
8 2132 2022 2131 2235 2232 2128 2231 2327
8 2134 2024 2133 2236 2234 2130 2233 2328
8 2135 2025 2134 2237 2235 2131 2234 2329
8 2137 2028 2136 2238 2237 2134 2236 2330
8 2157 2050 2158 2259 2240 2139 2239 2332
8 2257 2157 2240 2334 2161 2054 2140 2242
8 2240 2139 2241 2335 2140 2033 2141 2243
8 2242 2140 2243 2337 2144 2035 2143 2247
8 2243 2141 2244 2338 2143 2034 2142 2246
8 2246 2142 2245 2341 2146 2036 2145 2249
8 2247 2143 2246 2342 2147 2037 2146 2250
8 2249 2145 2248 2343 2149 2038 2148 2251
8 2250 2146 2249 2344 2150 2039 2149 2252
8 2252 2149 2251 2345 2152 2042 2151 2253
8 2169 2271 2347 2254 2062 2170 2255 2154
8 2189 2085 2188 2285 2255 2154 2254 2347
8 2348 2255 2155 2256 2286 2189 2086 2190
8 2272 2170 2063 2171 2348 2255 2155 2256
8 2349 2258 2157 2257 2263 2164 2054 2161
8 2258 2159 2261 2351 2157 2050 2158 2259
8 2258 2159 2056 2164 2351 2261 2165 2264
8 2262 2163 2060 2167 2355 2264 2168 2269
8 2162 2055 2163 2262 2263 2164 2264 2355
8 2357 2266 2165 2264 2268 2166 2061 2168
8 2268 2166 2076 2182 2361 2267 2181 2280
8 2281 2182 2268 2362 2183 2077 2168 2269
8 2271 2169 2270 2364 2177 2075 2180 2277
8 2172 2070 2170 2272 2273 2177 2271 2365
8 2072 2173 2274 2178 2177 2273 2366 2277
8 2071 2174 2275 2176 2178 2274 2367 2276
8 2275 2176 2276 2367 2184 2083 2186 2282
8 2283 2187 2084 2186 2368 2278 2179 2276
8 2178 2074 2180 2277 2276 2179 2278 2368
8 2283 2187 2279 2370 2186 2084 2181 2280
8 2281 2182 2082 2185 2371 2280 2186 2282
8 2188 2285 2374 2284 2100 2197 2292 2201
8 2286 2189 2095 2193 2375 2285 2197 2289
8 2192 2097 2196 2287 2288 2199 2291 2376
8 2287 2196 2104 2203 2376 2291 2204 2296
8 2194 2098 2199 2288 2290 2198 2293 2377
8 2289 2197 2096 2195 2378 2292 2198 2290
8 2291 2200 2105 2204 2379 2294 2205 2297
8 2199 2102 2200 2291 2293 2202 2294 2379
8 2198 2101 2202 2293 2292 2201 2295 2380
8 2299 2207 2297 2383 2206 2107 2204 2296
8 2300 2208 2298 2384 2207 2108 2205 2297
8 2302 2210 2300 2386 2209 2110 2207 2299
8 2303 2211 2301 2387 2210 2111 2208 2300
8 2305 2213 2303 2389 2212 2113 2210 2302
8 2306 2214 2304 2390 2213 2114 2211 2303
8 2310 2216 2306 2392 2220 2117 2213 2305
8 2308 2215 2307 2393 2216 2115 2214 2306
8 2308 2215 2115 2216 2396 2309 2217 2311
8 2310 2216 2117 2220 2398 2311 2219 2315
8 2311 2217 2116 2219 2399 2312 2218 2314
8 2314 2218 2118 2222 2402 2313 2221 2317
8 2315 2219 2119 2223 2403 2314 2222 2318
8 2225 2121 2224 2320 2317 2221 2316 2405
8 2226 2122 2225 2321 2318 2222 2317 2406
8 2228 2124 2227 2323 2320 2224 2319 2408
8 2229 2125 2228 2324 2321 2225 2320 2409
8 2231 2127 2230 2326 2323 2227 2322 2411
8 2232 2128 2231 2327 2324 2228 2323 2412
8 2234 2130 2233 2328 2326 2230 2325 2413
8 2235 2131 2234 2329 2327 2231 2326 2414
8 2237 2134 2236 2330 2329 2234 2328 2415
8 2259 2158 2260 2352 2332 2239 2331 2417
8 2257 2157 2259 2350 2334 2240 2332 2419
8 2240 2139 2239 2332 2335 2241 2333 2420
8 2334 2240 2335 2422 2242 2140 2243 2337
8 2335 2241 2336 2423 2243 2141 2244 2338
8 2337 2243 2338 2425 2247 2143 2246 2342
8 2338 2244 2339 2426 2246 2142 2245 2341
8 2341 2245 2340 2428 2249 2145 2248 2343
8 2342 2246 2341 2429 2250 2146 2249 2344
8 2344 2249 2343 2430 2252 2149 2251 2345
8 2188 2285 2347 2254 2284 2374 2432 2346
8 2347 2254 2346 2432 2271 2169 2270 2364
8 2365 2271 2170 2272 2433 2347 2255 2348
8 2286 2189 2285 2375 2348 2255 2347 2433
8 2349 2258 2351 2435 2257 2157 2259 2350
8 2349 2258 2164 2263 2435 2351 2264 2355
8 2259 2158 2261 2351 2352 2260 2354 2437
8 2356 2265 2354 2437 2264 2165 2261 2351
8 2441 2357 2264 2355 2362 2268 2168 2269
8 2356 2265 2165 2264 2442 2358 2266 2357
8 2443 2359 2266 2357 2361 2267 2166 2268
8 2370 2279 2360 2446 2280 2181 2267 2361
8 2362 2268 2182 2281 2447 2361 2280 2371
8 2180 2277 2368 2278 2270 2364 2449 2363
8 2271 2365 2273 2177 2364 2450 2366 2277
8 2372 2283 2186 2282 2451 2368 2276 2367
8 2178 2274 2367 2276 2277 2366 2451 2368
8 2283 2187 2278 2368 2370 2279 2369 2452
8 2372 2283 2370 2453 2282 2186 2280 2371
8 2284 2374 2455 2373 2201 2292 2380 2295
8 2375 2285 2197 2289 2456 2374 2292 2378
8 2376 2291 2204 2296 2457 2379 2297 2383
8 2288 2199 2291 2376 2377 2293 2379 2457
8 2198 2290 2378 2292 2293 2377 2458 2380
8 2293 2202 2294 2379 2380 2295 2381 2459
8 2384 2298 2381 2459 2297 2205 2294 2379
8 2386 2300 2384 2463 2299 2207 2297 2383
8 2387 2301 2385 2464 2300 2208 2298 2384
8 2389 2303 2387 2466 2302 2210 2300 2386
8 2390 2304 2388 2467 2303 2211 2301 2387
8 2392 2306 2390 2469 2305 2213 2303 2389
8 2393 2307 2391 2470 2306 2214 2304 2390
8 2395 2308 2393 2472 2310 2216 2306 2392
8 2308 2215 2309 2396 2393 2307 2394 2473
8 2395 2308 2216 2310 2475 2396 2311 2398
8 2396 2309 2217 2311 2476 2397 2312 2399
8 2398 2311 2219 2315 2478 2399 2314 2403
8 2399 2312 2218 2314 2479 2400 2313 2402
8 2317 2221 2316 2405 2402 2313 2401 2482
8 2403 2314 2222 2318 2483 2402 2317 2406
8 2320 2224 2319 2408 2405 2316 2404 2485
8 2321 2225 2320 2409 2406 2317 2405 2486
8 2323 2227 2322 2411 2408 2319 2407 2488
8 2324 2228 2323 2412 2409 2320 2408 2489
8 2326 2230 2325 2413 2411 2322 2410 2490
8 2327 2231 2326 2414 2412 2323 2411 2491
8 2329 2234 2328 2415 2414 2326 2413 2492
8 2417 2331 2260 2352 2494 2416 2353 2438
8 2350 2259 2352 2436 2419 2332 2417 2496
8 2332 2239 2331 2417 2420 2333 2418 2497
8 2334 2240 2332 2419 2422 2335 2420 2499
8 2420 2333 2421 2500 2335 2241 2336 2423
8 2422 2335 2423 2502 2337 2243 2338 2425
8 2423 2336 2424 2503 2338 2244 2339 2426
8 2425 2338 2426 2505 2342 2246 2341 2429
8 2426 2339 2427 2506 2341 2245 2340 2428
8 2429 2341 2428 2507 2344 2249 2343 2430
8 2432 2346 2284 2374 2509 2431 2373 2455
8 2432 2346 2431 2509 2364 2270 2363 2449
8 2375 2285 2374 2456 2433 2347 2432 2510
8 2347 2433 2365 2271 2432 2510 2450 2364
8 2350 2259 2351 2435 2436 2352 2437 2514
8 2440 2356 2437 2514 2355 2264 2351 2435
8 2352 2260 2354 2437 2438 2353 2439 2516
8 2356 2265 2358 2442 2437 2354 2439 2516
8 2440 2356 2264 2355 2518 2442 2357 2441
8 2519 2443 2357 2441 2447 2361 2268 2362
8 2443 2359 2444 2520 2357 2266 2358 2442
8 2443 2359 2267 2361 2520 2444 2360 2446
8 2446 2360 2279 2370 2523 2445 2369 2452
8 2453 2370 2446 2524 2371 2280 2361 2447
8 2449 2363 2448 2525 2368 2278 2369 2452
8 2366 2277 2364 2450 2451 2368 2449 2526
8 2372 2283 2368 2451 2453 2370 2452 2527
8 2455 2373 2295 2380 2529 2454 2382 2460
8 2456 2374 2292 2378 2530 2455 2380 2458
8 2377 2293 2379 2457 2458 2380 2459 2531
8 2463 2384 2459 2531 2383 2297 2379 2457
8 2533 2461 2382 2460 2459 2381 2295 2380
8 2464 2385 2461 2533 2384 2298 2381 2459
8 2466 2387 2464 2537 2386 2300 2384 2463
8 2467 2388 2465 2538 2387 2301 2385 2464
8 2469 2390 2467 2540 2389 2303 2387 2466
8 2470 2391 2468 2541 2390 2304 2388 2467
8 2472 2393 2470 2543 2392 2306 2390 2469
8 2393 2307 2394 2473 2470 2391 2471 2544
8 2395 2308 2396 2475 2472 2393 2473 2546
8 2396 2309 2397 2476 2473 2394 2474 2547
8 2475 2396 2311 2398 2549 2476 2399 2478
8 2476 2397 2312 2399 2550 2477 2400 2479
8 2478 2399 2314 2403 2552 2479 2402 2483
8 2479 2400 2313 2402 2553 2480 2401 2482
8 2405 2316 2404 2485 2482 2401 2481 2556
8 2406 2317 2405 2486 2483 2402 2482 2557
8 2408 2319 2407 2488 2485 2404 2484 2559
8 2409 2320 2408 2489 2486 2405 2485 2560
8 2411 2322 2410 2490 2488 2407 2487 2561
8 2412 2323 2411 2491 2489 2408 2488 2562
8 2414 2326 2413 2492 2491 2411 2490 2563
8 2513 2434 2493 2565 2438 2353 2416 2494
8 2496 2417 2352 2436 2567 2494 2438 2515
8 2494 2416 2495 2568 2417 2331 2418 2497
8 2419 2332 2417 2496 2499 2420 2497 2570
8 2497 2418 2498 2571 2420 2333 2421 2500
8 2499 2420 2500 2573 2422 2335 2423 2502
8 2500 2421 2501 2574 2423 2336 2424 2503
8 2502 2423 2503 2576 2425 2338 2426 2505
8 2503 2424 2504 2577 2426 2339 2427 2506
8 2505 2426 2506 2578 2429 2341 2428 2507
8 2509 2431 2373 2455 2580 2508 2454 2529
8 2509 2431 2508 2580 2449 2363 2448 2525
8 2432 2510 2581 2509 2374 2456 2530 2455
8 2432 2510 2450 2364 2509 2581 2526 2449
8 2583 2511 2434 2513 2516 2439 2353 2438
8 2436 2352 2437 2514 2515 2438 2516 2588
8 2440 2356 2442 2518 2514 2437 2516 2588
8 2442 2358 2444 2520 2516 2439 2517 2589
8 2519 2443 2520 2591 2441 2357 2442 2518
8 2519 2443 2361 2447 2591 2520 2446 2524
8 2446 2360 2445 2523 2520 2444 2521 2592
8 2525 2448 2522 2593 2452 2369 2445 2523
8 2524 2446 2370 2453 2594 2523 2452 2527
8 2526 2449 2525 2595 2451 2368 2452 2527
8 2534 2462 2528 2597 2460 2382 2454 2529
8 2530 2455 2380 2458 2598 2529 2460 2532
8 2599 2533 2460 2532 2531 2459 2380 2458
8 2537 2464 2533 2599 2463 2384 2459 2531
8 2534 2462 2382 2460 2601 2535 2461 2533
8 2538 2465 2535 2601 2464 2385 2461 2533
8 2540 2467 2538 2604 2466 2387 2464 2537
8 2541 2468 2539 2605 2467 2388 2465 2538
8 2543 2470 2541 2607 2469 2390 2467 2540
8 2470 2391 2471 2544 2541 2468 2542 2608
8 2472 2393 2473 2546 2543 2470 2544 2610
8 2473 2394 2474 2547 2544 2471 2545 2611
8 2475 2396 2476 2549 2546 2473 2547 2613
8 2476 2397 2477 2550 2547 2474 2548 2614
8 2549 2476 2399 2478 2616 2550 2479 2552
8 2479 2400 2480 2553 2550 2477 2551 2617
8 2552 2479 2402 2483 2619 2553 2482 2557
8 2482 2401 2481 2556 2553 2480 2554 2620
8 2485 2404 2484 2559 2556 2481 2555 2623
8 2486 2405 2485 2560 2557 2482 2556 2624
8 2488 2407 2487 2561 2559 2484 2558 2625
8 2489 2408 2488 2562 2560 2485 2559 2626
8 2491 2411 2490 2563 2562 2488 2561 2627
8 2513 2434 2512 2585 2565 2493 2564 2630
8 2586 2513 2565 2632 2515 2438 2494 2567
8 2565 2493 2566 2633 2494 2416 2495 2568
8 2567 2494 2568 2635 2496 2417 2497 2570
8 2568 2495 2569 2636 2497 2418 2498 2571
8 2570 2497 2571 2638 2499 2420 2500 2573
8 2571 2498 2572 2639 2500 2421 2501 2574
8 2573 2500 2574 2641 2502 2423 2503 2576
8 2574 2501 2575 2642 2503 2424 2504 2577
8 2576 2503 2577 2643 2505 2426 2506 2578
8 2597 2528 2579 2645 2529 2454 2508 2580
8 2580 2508 2579 2645 2525 2448 2522 2593
8 2581 2509 2455 2530 2646 2580 2529 2598
8 2581 2509 2580 2646 2526 2449 2525 2595
8 2583 2511 2582 2648 2513 2434 2512 2585
8 2583 2511 2439 2516 2648 2582 2517 2589
8 2649 2583 2513 2586 2588 2516 2438 2515
8 2589 2517 2444 2520 2653 2587 2521 2592
8 2518 2442 2520 2591 2588 2516 2589 2654
8 2593 2522 2590 2655 2523 2445 2521 2592
8 2524 2446 2523 2594 2591 2520 2592 2656
8 2595 2525 2593 2657 2527 2452 2523 2594
8 2602 2536 2596 2659 2534 2462 2528 2597
8 2600 2534 2597 2660 2532 2460 2529 2598
8 2600 2534 2460 2532 2661 2601 2533 2599
8 2604 2538 2601 2661 2537 2464 2533 2599
8 2602 2536 2462 2534 2663 2603 2535 2601
8 2601 2535 2465 2538 2663 2603 2539 2605
8 2607 2541 2605 2665 2540 2467 2538 2604
8 2608 2542 2606 2666 2541 2468 2539 2605
8 2543 2470 2544 2610 2607 2541 2608 2668
8 2544 2471 2545 2611 2608 2542 2609 2669
8 2546 2473 2547 2613 2610 2544 2611 2671
8 2547 2474 2548 2614 2611 2545 2612 2672
8 2549 2476 2550 2616 2613 2547 2614 2674
8 2550 2477 2551 2617 2614 2548 2615 2675
8 2552 2479 2553 2619 2616 2550 2617 2677
8 2553 2480 2554 2620 2617 2551 2618 2678
8 2557 2482 2556 2624 2619 2553 2620 2680
8 2556 2481 2555 2623 2620 2554 2621 2681
8 2559 2484 2558 2625 2623 2555 2622 2683
8 2560 2485 2559 2626 2624 2556 2623 2684
8 2562 2488 2561 2627 2626 2559 2625 2685
8 2690 2629 2564 2630 2650 2584 2512 2585
8 2586 2513 2585 2651 2632 2565 2630 2691
8 2630 2564 2631 2692 2565 2493 2566 2633
8 2632 2565 2633 2694 2567 2494 2568 2635
8 2633 2566 2634 2695 2568 2495 2569 2636
8 2635 2568 2636 2697 2570 2497 2571 2638
8 2636 2569 2637 2698 2571 2498 2572 2639
8 2638 2571 2639 2700 2573 2500 2574 2641
8 2639 2572 2640 2701 2574 2501 2575 2642
8 2641 2574 2642 2702 2576 2503 2577 2643
8 2597 2528 2596 2659 2645 2579 2644 2704
8 2645 2579 2644 2704 2593 2522 2590 2655
8 2660 2597 2645 2705 2598 2529 2580 2646
8 2646 2580 2645 2705 2595 2525 2593 2657
8 2650 2584 2512 2585 2707 2647 2582 2648
8 2648 2582 2517 2589 2707 2647 2587 2653
8 2649 2583 2648 2708 2586 2513 2585 2651
8 2649 2583 2516 2588 2708 2648 2589 2654
8 2655 2590 2652 2710 2592 2521 2587 2653
8 2654 2589 2520 2591 2711 2653 2592 2656
8 2657 2593 2655 2712 2594 2523 2592 2656
8 2602 2536 2603 2663 2659 2596 2658 2714
8 2662 2602 2659 2715 2600 2534 2597 2660
8 2662 2602 2534 2600 2717 2663 2601 2661
8 2661 2601 2538 2604 2717 2663 2605 2665
8 2666 2606 2664 2718 2605 2539 2603 2663
8 2668 2608 2666 2720 2607 2541 2605 2665
8 2608 2542 2609 2669 2666 2606 2667 2721
8 2610 2544 2611 2671 2668 2608 2669 2723
8 2611 2545 2612 2672 2669 2609 2670 2724
8 2613 2547 2614 2674 2671 2611 2672 2726
8 2614 2548 2615 2675 2672 2612 2673 2727
8 2616 2550 2617 2677 2674 2614 2675 2729
8 2617 2551 2618 2678 2675 2615 2676 2730
8 2619 2553 2620 2680 2677 2617 2678 2732
8 2620 2554 2621 2681 2678 2618 2679 2733
8 2624 2556 2623 2684 2680 2620 2681 2735
8 2681 2621 2555 2623 2736 2682 2622 2683
8 2626 2559 2625 2685 2684 2623 2683 2737
8 2688 2628 2584 2650 2740 2686 2647 2707
8 2688 2628 2687 2742 2650 2584 2629 2690
8 2690 2629 2689 2745 2630 2564 2631 2692
8 2746 2690 2630 2691 2709 2650 2585 2651
8 2691 2630 2692 2747 2632 2565 2633 2694
8 2692 2631 2693 2748 2633 2566 2634 2695
8 2694 2633 2695 2750 2635 2568 2636 2697
8 2695 2634 2696 2751 2636 2569 2637 2698
8 2697 2636 2698 2753 2638 2571 2639 2700
8 2698 2637 2699 2754 2639 2572 2640 2701
8 2700 2639 2701 2755 2641 2574 2642 2702
8 2659 2596 2658 2714 2704 2644 2703 2757
8 2704 2644 2703 2757 2655 2590 2652 2710
8 2660 2597 2659 2715 2705 2645 2704 2758
8 2705 2645 2704 2758 2657 2593 2655 2712
8 2759 2706 2647 2707 2710 2652 2587 2653
8 2709 2650 2585 2651 2760 2707 2648 2708
8 2708 2648 2589 2654 2760 2707 2653 2711
8 2712 2655 2710 2761 2656 2592 2653 2711
8 2763 2713 2658 2714 2718 2664 2603 2663
8 2662 2602 2663 2717 2715 2659 2714 2764
8 2720 2666 2718 2767 2665 2605 2663 2717
8 2768 2719 2664 2718 2721 2667 2606 2666
8 2668 2608 2669 2723 2720 2666 2721 2770
8 2669 2609 2670 2724 2721 2667 2722 2771
8 2671 2611 2672 2726 2723 2669 2724 2773
8 2672 2612 2673 2727 2724 2670 2725 2774
8 2674 2614 2675 2729 2726 2672 2727 2776
8 2675 2615 2676 2730 2727 2673 2728 2777
8 2677 2617 2678 2732 2729 2675 2730 2779
8 2678 2618 2679 2733 2730 2676 2731 2780
8 2680 2620 2681 2735 2732 2678 2733 2782
8 2733 2679 2621 2681 2783 2734 2682 2736
8 2735 2681 2623 2684 2784 2736 2683 2737
8 2740 2686 2647 2707 2787 2738 2706 2759
8 2688 2628 2686 2740 2742 2687 2739 2789
8 2743 2688 2650 2709 2790 2740 2707 2760
8 2742 2687 2741 2792 2690 2629 2689 2745
8 2743 2688 2742 2793 2709 2650 2690 2746
8 2745 2689 2744 2795 2692 2631 2693 2748
8 2746 2690 2745 2796 2691 2630 2692 2747
8 2747 2692 2748 2797 2694 2633 2695 2750
8 2748 2693 2749 2798 2695 2634 2696 2751
8 2750 2695 2751 2800 2697 2636 2698 2753
8 2751 2696 2752 2801 2698 2637 2699 2754
8 2753 2698 2754 2802 2700 2639 2701 2755
8 2763 2713 2756 2804 2714 2658 2703 2757
8 2759 2706 2652 2710 2804 2756 2703 2757
8 2715 2659 2714 2764 2758 2704 2757 2805
8 2758 2704 2757 2805 2712 2655 2710 2761
8 2806 2759 2707 2760 2761 2710 2653 2711
8 2765 2716 2762 2808 2718 2664 2713 2763
8 2809 2763 2714 2764 2767 2718 2663 2717
8 2765 2716 2664 2718 2811 2766 2719 2768
8 2813 2768 2718 2767 2770 2721 2666 2720
8 2814 2769 2719 2768 2771 2722 2667 2721
8 2723 2669 2724 2773 2770 2721 2771 2816
8 2724 2670 2725 2774 2771 2722 2772 2817
8 2726 2672 2727 2776 2773 2724 2774 2819
8 2727 2673 2728 2777 2774 2725 2775 2820
8 2729 2675 2730 2779 2776 2727 2777 2822
8 2730 2676 2731 2780 2777 2728 2778 2823
8 2732 2678 2733 2782 2779 2730 2780 2825
8 2780 2731 2679 2733 2826 2781 2734 2783
8 2782 2733 2681 2735 2827 2783 2736 2784
8 2830 2785 2738 2787 2804 2756 2706 2759
8 2789 2739 2686 2740 2832 2786 2738 2787
8 2790 2740 2707 2760 2833 2787 2759 2806
8 2742 2687 2739 2789 2792 2741 2788 2835
8 2743 2688 2740 2790 2793 2742 2789 2836
8 2792 2741 2791 2838 2745 2689 2744 2795
8 2793 2742 2792 2839 2746 2690 2745 2796
8 2795 2744 2794 2841 2748 2693 2749 2798
8 2796 2745 2795 2842 2747 2692 2748 2797
8 2797 2748 2798 2843 2750 2695 2751 2800
8 2798 2749 2799 2844 2751 2696 2752 2801
8 2800 2751 2801 2845 2753 2698 2754 2802
8 2808 2762 2803 2847 2763 2713 2756 2804
8 2809 2763 2804 2848 2764 2714 2757 2805
8 2806 2759 2710 2761 2848 2804 2757 2805
8 2765 2716 2766 2811 2808 2762 2807 2850
8 2810 2765 2808 2851 2767 2718 2763 2809
8 2810 2765 2718 2767 2852 2811 2768 2813
8 2811 2766 2719 2768 2853 2812 2769 2814
8 2855 2814 2768 2813 2816 2771 2721 2770
8 2856 2815 2769 2814 2817 2772 2722 2771
8 2773 2724 2774 2819 2816 2771 2817 2858
8 2774 2725 2775 2820 2817 2772 2818 2859
8 2776 2727 2777 2822 2819 2774 2820 2861
8 2777 2728 2778 2823 2820 2775 2821 2862
8 2779 2730 2780 2825 2822 2777 2823 2864
8 2823 2778 2731 2780 2865 2824 2781 2826
8 2825 2780 2733 2782 2866 2826 2783 2827
8 2869 2828 2785 2830 2847 2803 2756 2804
8 2871 2829 2786 2832 2830 2785 2738 2787
8 2872 2830 2787 2833 2848 2804 2759 2806
8 2789 2739 2786 2832 2835 2788 2831 2874
8 2836 2789 2740 2790 2875 2832 2787 2833
8 2792 2741 2788 2835 2838 2791 2834 2877
8 2793 2742 2789 2836 2839 2792 2835 2878
8 2838 2791 2837 2880 2795 2744 2794 2841
8 2839 2792 2838 2881 2796 2745 2795 2842
8 2841 2794 2840 2882 2798 2749 2799 2844
8 2842 2795 2841 2883 2797 2748 2798 2843
8 2843 2798 2844 2884 2800 2751 2801 2845
8 2886 2846 2803 2847 2850 2807 2762 2808
8 2851 2808 2847 2887 2809 2763 2804 2848
8 2850 2807 2766 2811 2889 2849 2812 2853
8 2810 2765 2811 2852 2851 2808 2850 2890
8 2852 2811 2768 2813 2891 2853 2814 2855
8 2853 2812 2769 2814 2892 2854 2815 2856
8 2894 2856 2814 2855 2858 2817 2771 2816
8 2817 2772 2818 2859 2856 2815 2857 2895
8 2819 2774 2820 2861 2858 2817 2859 2897
8 2820 2775 2821 2862 2859 2818 2860 2898
8 2822 2777 2823 2864 2861 2820 2862 2900
8 2823 2778 2824 2865 2862 2821 2863 2901
8 2864 2823 2780 2825 2902 2865 2826 2866
8 2904 2867 2828 2869 2886 2846 2803 2847
8 2869 2828 2868 2906 2830 2785 2829 2871
8 2907 2869 2830 2872 2887 2847 2804 2848
8 2871 2829 2870 2909 2832 2786 2831 2874
8 2910 2871 2832 2875 2872 2830 2787 2833
8 2835 2788 2831 2874 2877 2834 2873 2912
8 2836 2789 2832 2875 2878 2835 2874 2913
8 2877 2834 2876 2915 2838 2791 2837 2880
8 2839 2792 2835 2878 2881 2838 2877 2916
8 2880 2837 2879 2917 2841 2794 2840 2882
8 2881 2838 2880 2918 2842 2795 2841 2883
8 2883 2841 2882 2919 2843 2798 2844 2884
8 2921 2885 2846 2886 2889 2849 2807 2850
8 2922 2886 2847 2887 2890 2850 2808 2851
8 2889 2849 2812 2853 2924 2888 2854 2892
8 2890 2850 2811 2852 2925 2889 2853 2891
8 2891 2853 2814 2855 2926 2892 2856 2894
8 2892 2854 2815 2856 2927 2893 2857 2895
8 2858 2817 2859 2897 2894 2856 2895 2929
8 2859 2818 2860 2898 2895 2857 2896 2930
8 2861 2820 2862 2900 2897 2859 2898 2932
8 2862 2821 2863 2901 2898 2860 2899 2933
8 2864 2823 2865 2902 2900 2862 2901 2934
8 2904 2867 2846 2886 2936 2903 2885 2921
8 2904 2867 2903 2936 2869 2828 2868 2906
8 2937 2904 2869 2907 2922 2886 2847 2887
8 2906 2868 2905 2939 2871 2829 2870 2909
8 2907 2869 2906 2940 2872 2830 2871 2910
8 2909 2870 2908 2942 2874 2831 2873 2912
8 2910 2871 2909 2943 2875 2832 2874 2913
8 2912 2873 2911 2945 2877 2834 2876 2915
8 2878 2835 2874 2913 2916 2877 2912 2946
8 2915 2876 2914 2947 2880 2837 2879 2917
8 2916 2877 2915 2948 2881 2838 2880 2918
8 2918 2880 2917 2949 2883 2841 2882 2919
8 2921 2885 2849 2889 2951 2920 2888 2924
8 2952 2921 2886 2922 2925 2889 2850 2890
8 2924 2888 2854 2892 2954 2923 2893 2927
8 2925 2889 2853 2891 2955 2924 2892 2926
8 2926 2892 2856 2894 2956 2927 2895 2929
8 2895 2857 2896 2930 2927 2893 2928 2957
8 2897 2859 2898 2932 2929 2895 2930 2959
8 2898 2860 2899 2933 2930 2896 2931 2960
8 2900 2862 2901 2934 2932 2898 2933 2961
8 2936 2903 2885 2921 2963 2935 2920 2951
8 2936 2903 2935 2963 2906 2868 2905 2939
8 2937 2904 2886 2922 2964 2936 2921 2952
8 2937 2904 2936 2964 2907 2869 2906 2940
8 2939 2905 2938 2966 2909 2870 2908 2942
8 2940 2906 2939 2967 2910 2871 2909 2943
8 2942 2908 2941 2969 2912 2873 2911 2945
8 2943 2909 2942 2970 2913 2874 2912 2946
8 2945 2911 2944 2971 2915 2876 2914 2947
8 2946 2912 2945 2972 2916 2877 2915 2948
8 2948 2915 2947 2973 2918 2880 2917 2949
8 2951 2920 2888 2924 2975 2950 2923 2954
8 2952 2921 2889 2925 2976 2951 2924 2955
8 2927 2893 2928 2957 2954 2923 2953 2978
8 2955 2924 2892 2926 2979 2954 2927 2956
8 2929 2895 2930 2959 2956 2927 2957 2980
8 2930 2896 2931 2960 2957 2928 2958 2981
8 2932 2898 2933 2961 2959 2930 2960 2982
8 2951 2920 2950 2975 2963 2935 2962 2984
8 2963 2935 2962 2984 2939 2905 2938 2966
8 2964 2936 2921 2952 2985 2963 2951 2976
8 2964 2936 2963 2985 2940 2906 2939 2967
8 2966 2938 2965 2987 2942 2908 2941 2969
8 2967 2939 2966 2988 2943 2909 2942 2970
8 2969 2941 2968 2989 2945 2911 2944 2971
8 2970 2942 2969 2990 2946 2912 2945 2972
8 2972 2945 2971 2991 2948 2915 2947 2973
8 2954 2923 2953 2978 2975 2950 2974 2993
8 2976 2951 2924 2955 2994 2975 2954 2979
8 2957 2928 2958 2981 2978 2953 2977 2995
8 2956 2927 2957 2980 2979 2954 2978 2996
8 2959 2930 2960 2982 2980 2957 2981 2997
8 2984 2962 2983 2999 2966 2938 2965 2987
8 2975 2950 2974 2993 2984 2962 2983 2999
8 2976 2951 2975 2994 2985 2963 2984 3000
8 2985 2963 2984 3000 2967 2939 2966 2988
8 2987 2965 2986 3001 2969 2941 2968 2989
8 2988 2966 2987 3002 2970 2942 2969 2990
8 2990 2969 2989 3003 2972 2945 2971 2991
8 2978 2953 2977 2995 2993 2974 2992 3004
8 2979 2954 2978 2996 2994 2975 2993 3005
8 2980 2957 2981 2997 2996 2978 2995 3006
8 2974 2993 2999 2983 2992 3004 3007 2998
8 2983 2999 2987 2965 2998 3007 3001 2986
8 3000 2984 2999 3008 2988 2966 2987 3002
8 2994 2975 2993 3005 3000 2984 2999 3008
8 3002 2987 3001 3009 2990 2969 2989 3003
8 2996 2978 2995 3006 3005 2993 3004 3010
8 3005 2993 3004 3010 3008 2999 3007 3011
8 3008 2999 3007 3011 3002 2987 3001 3009

CELL_TYPES 1910
12
12
12
12
12
12
12
12
12
12
12
12
12
12
12
12
12
12
12
12
12
12
12
12
12
12
12
12
12
12
12
12
12
12
12
12
12
12
12
12
12
12
12
12
12
12
12
12
12
12
12
12
12
12
12
12
12
12
12
12
12
12
12
12
12
12
12
12
12
12
12
12
12
12
12
12
12
12
12
12
12
12
12
12
12
12
12
12
12
12
12
12
12
12
12
12
12
12
12
12
12
12
12
12
12
12
12
12
12
12
12
12
12
12
12
12
12
12
12
12
12
12
12
12
12
12
12
12
12
12
12
12
12
12
12
12
12
12
12
12
12
12
12
12
12
12
12
12
12
12
12
12
12
12
12
12
12
12
12
12
12
12
12
12
12
12
12
12
12
12
12
12
12
12
12
12
12
12
12
12
12
12
12
12
12
12
12
12
12
12
12
12
12
12
12
12
12
12
12
12
12
12
12
12
12
12
12
12
12
12
12
12
12
12
12
12
12
12
12
12
12
12
12
12
12
12
12
12
12
12
12
12
12
12
12
12
12
12
12
12
12
12
12
12
12
12
12
12
12
12
12
12
12
12
12
12
12
12
12
12
12
12
12
12
12
12
12
12
12
12
12
12
12
12
12
12
12
12
12
12
12
12
12
12
12
12
12
12
12
12
12
12
12
12
12
12
12
12
12
12
12
12
12
12
12
12
12
12
12
12
12
12
12
12
12
12
12
12
12
12
12
12
12
12
12
12
12
12
12
12
12
12
12
12
12
12
12
12
12
12
12
12
12
12
12
12
12
12
12
12
12
12
12
12
12
12
12
12
12
12
12
12
12
12
12
12
12
12
12
12
12
12
12
12
12
12
12
12
12
12
12
12
12
12
12
12
12
12
12
12
12
12
12
12
12
12
12
12
12
12
12
12
12
12
12
12
12
12
12
12
12
12
12
12
12
12
12
12
12
12
12
12
12
12
12
12
12
12
12
12
12
12
12
12
12
12
12
12
12
12
12
12
12
12
12
12
12
12
12
12
12
12
12
12
12
12
12
12
12
12
12
12
12
12
12
12
12
12
12
12
12
12
12
12
12
12
12
12
12
12
12
12
12
12
12
12
12
12
12
12
12
12
12
12
12
12
12
12
12
12
12
12
12
12
12
12
12
12
12
12
12
12
12
12
12
12
12
12
12
12
12
12
12
12
12
12
12
12
12
12
12
12
12
12
12
12
12
12
12
12
12
12
12
12
12
12
12
12
12
12
12
12
12
12
12
12
12
12
12
12
12
12
12
12
12
12
12
12
12
12
12
12
12
12
12
12
12
12
12
12
12
12
12
12
12
12
12
12
12
12
12
12
12
12
12
12
12
12
12
12
12
12
12
12
12
12
12
12
12
12
12
12
12
12
12
12
12
12
12
12
12
12
12
12
12
12
12
12
12
12
12
12
12
12
12
12
12
12
12
12
12
12
12
12
12
12
12
12
12
12
12
12
12
12
12
12
12
12
12
12
12
12
12
12
12
12
12
12
12
12
12
12
12
12
12
12
12
12
12
12
12
12
12
12
12
12
12
12
12
12
12
12
12
12
12
12
12
12
12
12
12
12
12
12
12
12
12
12
12
12
12
12
12
12
12
12
12
12
12
12
12
12
12
12
12
12
12
12
12
12
12
12
12
12
12
12
12
12
12
12
12
12
12
12
12
12
12
12
12
12
12
12
12
12
12
12
12
12
12
12
12
12
12
12
12
12
12
12
12
12
12
12
12
12
12
12
12
12
12
12
12
12
12
12
12
12
12
12
12
12
12
12
12
12
12
12
12
12
12
12
12
12
12
12
12
12
12
12
12
12
12
12
12
12
12
12
12
12
12
12
12
12
12
12
12
12
12
12
12
12
12
12
12
12
12
12
12
12
12
12
12
12
12
12
12
12
12
12
12
12
12
12
12
12
12
12
12
12
12
12
12
12
12
12
12
12
12
12
12
12
12
12
12
12
12
12
12
12
12
12
12
12
12
12
12
12
12
12
12
12
12
12
12
12
12
12
12
12
12
12
12
12
12
12
12
12
12
12
12
12
12
12
12
12
12
12
12
12
12
12
12
12
12
12
12
12
12
12
12
12
12
12
12
12
12
12
12
12
12
12
12
12
12
12
12
12
12
12
12
12
12
12
12
12
12
12
12
12
12
12
12
12
12
12
12
12
12
12
12
12
12
12
12
12
12
12
12
12
12
12
12
12
12
12
12
12
12
12
12
12
12
12
12
12
12
12
12
12
12
12
12
12
12
12
12
12
12
12
12
12
12
12
12
12
12
12
12
12
12
12
12
12
12
12
12
12
12
12
12
12
12
12
12
12
12
12
12
12
12
12
12
12
12
12
12
12
12
12
12
12
12
12
12
12
12
12
12
12
12
12
12
12
12
12
12
12
12
12
12
12
12
12
12
12
12
12
12
12
12
12
12
12
12
12
12
12
12
12
12
12
12
12
12
12
12
12
12
12
12
12
12
12
12
12
12
12
12
12
12
12
12
12
12
12
12
12
12
12
12
12
12
12
12
12
12
12
12
12
12
12
12
12
12
12
12
12
12
12
12
12
12
12
12
12
12
12
12
12
12
12
12
12
12
12
12
12
12
12
12
12
12
12
12
12
12
12
12
12
12
12
12
12
12
12
12
12
12
12
12
12
12
12
12
12
12
12
12
12
12
12
12
12
12
12
12
12
12
12
12
12
12
12
12
12
12
12
12
12
12
12
12
12
12
12
12
12
12
12
12
12
12
12
12
12
12
12
12
12
12
12
12
12
12
12
12
12
12
12
12
12
12
12
12
12
12
12
12
12
12
12
12
12
12
12
12
12
12
12
12
12
12
12
12
12
12
12
12
12
12
12
12
12
12
12
12
12
12
12
12
12
12
12
12
12
12
12
12
12
12
12
12
12
12
12
12
12
12
12
12
12
12
12
12
12
12
12
12
12
12
12
12
12
12
12
12
12
12
12
12
12
12
12
12
12
12
12
12
12
12
12
12
12
12
12
12
12
12
12
12
12
12
12
12
12
12
12
12
12
12
12
12
12
12
12
12
12
12
12
12
12
12
12
12
12
12
12
12
12
12
12
12
12
12
12
12
12
12
12
12
12
12
12
12
12
12
12
12
12
12
12
12
12
12
12
12
12
12
12
12
12
12
12
12
12
12
12
12
12
12
12
12
12
12
12
12
12
12
12
12
12
12
12
12
12
12
12
12
12
12
12
12
12
12
12
12
12
12
12
12
12
12
12
12
12
12
12
12
12
12
12
12
12
12
12
12
12
12
12
12
12
12
12
12
12
12
12
12
12
12
12
12
12
12
12
12
12
12
12
12
12
12
12
12
12
12
12
12
12
12
12
12
12
12
12
12
12
12
12
12
12
12
12
12
12
12
12
12
12
12
12
12
12
12
12
12
12
12
12
12
12
12
12
12
12
12
12
12
12
12
12
12
12
12
12
12
12
12
12
12
12
12
12
12
12
12
12
12
12
12
12
12
12
12
12
12
12
12
12
12
12
12
12
12
12
12
12
12
12
12
12
12
12
12
12
12
12
12
12
12
12
12
12
12
12
12
12
12
12
12
12
12
12
12
12
12
12
12
12
12
12
12
12
12
12
12
12
12
12
12
12
12
12
12
12
12
12
12
12
12
12
12
12
12
12
12
12
12
12
12
12
12
12
12
12
12
12
12
12
12
12
12
12
12
12
12
12
12
12
12
12
12
12
12
12
12
12
12
12
12
12
12
12
12
12
12
12
12
12
12
12
12
12
12
12
12
12
12
12
12
12
12
12
12
12
12
12
12
12
12
12
12
12
12
12
12
12
12
12
12
12
12
12
12
12
12
12
12
12
12
12
12
12
12
12
12
12
12
12
12
12
12
12
12
12
12
12
12
12
12
12
12
12
12
12
12
12
12
12
12
12
12
12
12
12
12
12
12
12
12
12
12
12
12
12
12
12
12
12
12
12
12
12
12
12
12
12
12
12
12
12
12
12
12
12
12
12
12
12
12
12
12
12
12
12
12
12
12
12
12
12
12
12
12
12
12
12
12
12
12
12
12
12
12
12
12
12
12
12
12
12
12
12
12
12
12
12
12
12
12
12
12
12
12
12
12
12
12
12
12
12
12
12
12
12
12
12
12
12
12
12
12
12
12
12
12
12
12
12
12
12
12
12
12
12
12
12
12
12
12
12
12
12
12
12
12
12
12
12
12
12
12
12
12
12
12
12
12
12
12
12
12
12
12
12
12
12
12
12
12
12
12
12
12
12
12
12
12
12
12
12
12
12
12
12
12
12
12
12
12
12

POINT_DATA 3012
SCALARS Jp_lamdaP float 4
LOOKUP_TABLE default
0.999982 1 1 0.999982
1 1 1 1
0.999984 1 1 0.999984
0.999958 1 1 0.999958
0.999976 1 1 0.999976
0.999989 1 1 0.999989
0.999766 1 1 0.999766
1 1 1 1
1 1 1 1
1 1 1 1
1 1 1 1
0.999899 1 1 0.999899
0.999926 1 1 0.999926
0.999955 1 1 0.999955
0.999985 1 1 0.999985
0.999962 1 1 0.999962
0.999991 1 1 0.999991
0.999979 1 1 0.999979
0.999769 1 1 0.999769
1 1 1 1
0.999951 1 1 0.999951
0.999967 1 1 0.999967
0.999655 1 1 0.999655
0.999729 1 1 0.999729
0.999998 1 1 0.999998
0.999812 1 1 0.999812
0.999405 1 1 0.999405
1 1 1 1
0.999984 1 1 0.999984
0.999995 1 1 0.999995
1 1 1 1
0.999906 1 1 0.999906
0.999964 1 1 0.999964
0.999984 1 1 0.999984
0.999797 1 1 0.999797
1 1 1 1
0.999874 1 1 0.999874
0.999933 1 1 0.999933
0.999487 1 1 0.999487
1 1 1 1
1 1 1 1
0.999976 1 1 0.999976
1 1 1 1
0.999945 1 1 0.999945
0.999618 1 1 0.999618
1 1 1 1
0.999733 1 1 0.999733
0.999966 1 1 0.999966
0.999981 1 1 0.999981
0.999993 1 1 0.999993
0.999773 1 1 0.999773
0.999964 1 1 0.999964
0.999956 1 1 0.999956
0.999999 1 1 0.999999
0.999971 1 1 0.999971
0.999656 1 1 0.999656
0.999814 1 1 0.999814
0.999732 1 1 0.999732
0.999392 1 1 0.999392
1 1 1 1
0.99994 1 1 0.99994
0.999682 1 1 0.999682
0.999636 1 1 0.999636
0.99969 1 1 0.99969
0.999142 1 1 0.999142
0.999277 1 1 0.999277
1 1 1 1
0.999875 1 1 0.999875
0.999503 1 1 0.999503
0.999002 1 1 0.999002
1 1 1 1
1 1 1 1
1 1 1 1
0.999913 1 1 0.999913
1 1 1 1
1 1 1 1
0.999788 1 1 0.999788
1 1 1 1
0.999875 1 1 0.999875
0.999944 1 1 0.999944
0.999485 1 1 0.999485
1 1 1 1
1 1 1 1
0.999745 1 1 0.999745
0.999823 1 1 0.999823
0.999195 1 1 0.999195
0.999972 1 1 0.999972
0.999429 1 1 0.999429
0.999543 1 1 0.999543
0.99921 1 1 0.99921
1 1 1 1
1 1 1 1
1 1 1 1
1 1 1 1
1 1 1 1
0.999969 1 1 0.999969
0.99965 1 1 0.99965
0.999979 1 1 0.999979
0.999725 1 1 0.999725
1 1 1 1
0.999587 1 1 0.999587
0.999704 1 1 0.999704
0.998894 1 1 0.998894
0.999753 1 1 0.999753
0.998996 1 1 0.998996
0.999936 1 1 0.999936
0.99996 1 1 0.99996
1 1 1 1
0.999974 1 1 0.999974
0.999658 1 1 0.999658
0.999736 1 1 0.999736
0.999817 1 1 0.999817
0.999379 1 1 0.999379
1 1 1 1
0.999946 1 1 0.999946
0.999609 1 1 0.999609
0.999636 1 1 0.999636
1 1 1 1
0.9999 1 1 0.9999
0.999693 1 1 0.999693
0.999118 1 1 0.999118
0.999488 1 1 0.999488
0.999292 1 1 0.999292
0.999003 1 1 0.999003
0.999604 1 1 0.999604
0.999617 1 1 0.999617
0.998973 1 1 0.998973
0.999065 1 1 0.999065
0.999174 1 1 0.999174
0.998762 1 1 0.998762
1 1 1 1
0.998923 1 1 0.998923
0.999966 1 1 0.999966
0.999544 1 1 0.999544
0.999084 1 1 0.999084
0.998833 1 1 0.998833
0.999996 1 1 0.999996
0.999729 1 1 0.999729
1 1 1 1
1 1 1 1
0.999794 1 1 0.999794
1 1 1 1
0.999956 1 1 0.999956
0.999879 1 1 0.999879
0.999483 1 1 0.999483
1 1 1 1
1 1 1 1
0.999762 1 1 0.999762
0.999838 1 1 0.999838
0.999197 1 1 0.999197
0.99998 1 1 0.99998
0.999431 1 1 0.999431
0.999542 1 1 0.999542
0.9992 1 1 0.9992
0.999995 1 1 0.999995
1 1 1 1
0.999779 1 1 0.999779
0.999096 1 1 0.999096
0.999323 1 1 0.999323
0.99886 1 1 0.99886
0.999618 1 1 0.999618
0.999141 1 1 0.999141
0.999249 1 1 0.999249
0.999095 1 1 0.999095
1 1 1 1
1 1 1 1
1 1 1 1
1 1 1 1
1 1 1 1
1 1 1 1
1 1 1 1
0.999714 1 1 0.999714
0.999635 1 1 0.999635
1 1 1 1
1 1 1 1
0.999589 1 1 0.999589
0.999696 1 1 0.999696
0.998894 1 1 0.998894
0.999733 1 1 0.999733
0.998996 1 1 0.998996
0.999576 1 1 0.999576
0.998835 1 1 0.998835
0.998954 1 1 0.998954
0.998758 1.00018 1 0.998577
0.999036 1 1 0.999036
0.998686 1 1 0.998686
1 1 1 1
0.999952 1 1 0.999952
0.999533 1 1 0.999533
0.999637 1 1 0.999637
1 1 1 1
0.999925 1 1 0.999925
0.999696 1 1 0.999696
0.999095 1 1 0.999095
0.999308 1 1 0.999308
0.999473 1 1 0.999473
0.999005 1 1 0.999005
0.999601 1 1 0.999601
0.999618 1 1 0.999618
0.998925 1 1 0.998925
0.999084 1 1 0.999084
1 1 1 1
0.999958 1 1 0.999958
0.999564 1 1 0.999564
0.999175 1 1 0.999175
0.998733 1 1 0.998733
0.99908 1 1 0.99908
0.998938 1 1 0.998938
0.998836 1 1 0.998836
0.999993 1 1 0.999993
0.999729 1 1 0.999729
0.998847 1 1 0.998847
0.999031 1 1 0.999031
0.998641 1 1 0.998641
0.998662 1 1 0.998662
0.998851 1 1 0.998851
0.998661 1.00004 1 0.998626
0.999985 1 1 0.999985
0.998766 1 1 0.998766
0.999592 1 1 0.999592
0.9992 1 1 0.9992
0.998916 1 1 0.998916
0.99884 1.00006 1 0.998779
0.999657 1 1 0.999657
0.999815 1 1 0.999815
0.999406 1 1 0.999406
0.999757 1 1 0.999757
1 1 1 1
1 1 1 1
0.999842 1 1 0.999842
0.999199 1 1 0.999199
0.999988 1 1 0.999988
0.999542 1 1 0.999542
0.999432 1 1 0.999432
0.999191 1 1 0.999191
0.999997 1 1 0.999997
1 1 1 1
0.99978 1 1 0.99978
0.999097 1 1 0.999097
0.999327 1 1 0.999327
0.99886 1 1 0.99886
0.999618 1 1 0.999618
0.99915 1 1 0.99915
0.999247 1 1 0.999247
0.999084 1 1 0.999084
1 1 1 1
0.999693 1 1 0.999693
0.999864 1 1 0.999864
0.99947 1 1 0.99947
0.998766 1 1 0.998766
0.999015 1 1 0.999015
0.999283 1.00059 1 0.998694
0.999329 1 1 0.999329
0.999024 1 1 0.999024
0.999443 1 1.00038 0.999061
0.998998 1 1 0.998998
0.999971 1 1 0.999971
1 1 1 1
1 1 1 1
1 1 1 1
1 1 1 1
1 1 1 1
1 1 1 1
0.999999 1 1 0.999999
1 1 1 1
0.999734 1 1 0.999734
0.999682 1 1 0.999682
0.998996 1 1 0.998996
0.998894 1 1 0.998894
0.999591 1 1 0.999591
1 1 1 1
0.999575 1 1 0.999575
0.998835 1 1 0.998835
0.998954 1 1 0.998954
0.998706 1.00013 1 0.998576
0.999036 1 1 0.999036
0.998686 1 1 0.998686
0.99882 1 1 0.99882
0.998902 1.00039 1 0.998517
0.998647 1.00001 1 0.998638
1.00128 1.00279 1 0.998494
0.998722 1 1 0.998722
0.999495 1.00091 1 0.998584
0.999598 1 1 0.999598
0.999618 1 1 0.999618
0.998877 1 1 0.998877
0.999102 1 1 0.999102
1 1 1 1
0.99995 1 1 0.99995
0.999584 1 1 0.999584
0.999177 1 1 0.999177
0.998705 1 1 0.998705
0.998952 1 1 0.998952
0.999076 1 1 0.999076
0.998838 1 1 0.998838
0.999991 1 1 0.999991
0.999729 1 1 0.999729
0.998831 1 1 0.998831
0.999031 1 1 0.999031
0.998666 1.00004 1 0.998629
0.998692 1 1 0.998692
0.99998 1 1 0.99998
0.999592 1 1 0.999592
0.999222 1 1 0.999222
0.998851 1 1 0.998851
0.998745 1.00013 1 0.99862
0.998892 1 1 0.998892
0.998767 1 1 0.998767
0.998948 1.00017 1 0.99878
0.999658 1 1 0.999658
0.999403 1 1 0.999403
0.999813 1 1 0.999813
0.998716 1.00014 1 0.998581
0.998671 1 1 0.998666
1.00061 1.00212 1 0.998491
0.999003 1.00045 1 0.998558
0.998732 1.00004 1 0.998694
1.00013 1.00151 1 0.998623
0.999621 1 1 0.999621
0.999274 1.00054 1 0.998732
0.999334 1 1 0.999334
0.999 1 1 0.999
0.998776 1 1 0.998776
0.99928 1.00045 1 0.998828
0.99988 1 1 0.99988
0.999391 1 1 0.999391
0.999445 1 1 0.999445
0.999286 1 1 0.999286
0.999098 1 1 0.999098
1 1 1 1
0.999999 1 1 0.999999
0.999781 1 1 0.999781
0.999331 1 1 0.999331
0.998859 1 1 0.998859
0.999619 1 1 0.999619
0.999245 1 1 0.999245
0.999159 1 1 0.999159
0.999073 1 1 0.999073
1 1 1 1
0.999693 1 1 0.999693
0.999868 1 1 0.999868
0.999469 1 1 0.999469
0.998764 1 1 0.998764
0.999018 1 1 0.999018
0.999081 1.00039 1 0.998694
0.999331 1 1 0.999331
0.999036 1 1 0.999036
0.999289 1 1.00023 0.999055
0.999037 1 1 0.999037
1 1 1 1
0.999917 1 1 0.999917
0.999405 1 1 0.999405
0.999551 1 1 0.999551
0.999295 1 1 0.999295
0.9995 1.00088 1 0.998623
0.998897 1.00003 1 0.998863
0.999692 1.00105 1 0.998639
0.999448 1 1.00033 0.999122
0.99896 1 1 0.99896
0.999295 1 1.00042 0.998872
0.99996 1 1 0.99996
0.999753 1 1 0.999753
0.999979 1 1 0.999979
0.999973 1 1 0.999973
1 1 1 1
1 1 1 1
1 1 1 1
1 1 1 1
1 1 1 1
1 1 1 1
1 1 1 1
1 1 1 1
1 1 1 1
0.999998 1 1 0.999998
1 1 1 1
0.999036 1 1 0.999036
0.998954 1 1 0.998954
0.998686 1 1 0.998686
0.998652 1.00008 1 0.998575
0.998835 1 1 0.998835
0.999575 1 1 0.999575
0.99882 1 1 0.99882
0.998854 1.00034 1 0.998517
0.998642 1 1 0.998638
1.00119 1.0027 1 0.99849
0.998721 1 1 0.998721
0.999284 1.0007 1 0.998585
0.998847 1.00035 1 0.998501
1.00318 1.00475 1 0.998439
1.00046 1.00193 1 0.998538
1.00568 1.0072 1 0.998495
0.999156 1.00055 1 0.99861
1.00208 1.00346 1 0.998625
0.998816 1 1 0.998816
0.99903 1 1 0.99903
0.998693 1.00008 1 0.998617
0.998722 1 1 0.998722
0.999975 1 1 0.999975
0.999592 1 1 0.999592
0.999244 1 1 0.999244
0.998851 1 1 0.998851
0.998832 1.00022 1 0.998613
0.998767 1 1 0.998767
0.998869 1 1 0.998869
0.999079 1.0003 1 0.998781
0.99966 1 1 0.99966
0.999401 1 1 0.999401
0.999812 1 1 0.999812
0.998756 1.0002 1 0.998555
0.998671 1 1 0.998666
1.00087 1.00239 1 0.998481
0.999314 1.00075 1 0.998563
0.999622 1 1 0.999622
0.999331 1 1 0.999331
0.999027 1 1 0.999027
0.998741 1.00004 1 0.998704
1.00018 1.00155 1 0.998631
0.998759 1 1 0.998759
0.999521 1.00079 1 0.998733
0.99933 1.00049 1 0.998837
0.999394 1 1 0.999394
0.999272 1 1 0.999272
0.999877 1 1 0.999877
0.999457 1 1 0.999457
1.00163 1.0032 1 0.998433
1.00011 1.00159 1 0.998524
1.0054 1.00697 1 0.998445
1.00126 1.00271 1 0.998552
1.00017 1.00149 1 0.998684
1.00299 1.00433 1 0.998658
0.999382 1 1 0.999382
1.00071 1.00189 1 0.998822
0.999164 1 1 0.999164
0.998879 1 1.00004 0.998837
0.998766 1.00007 1 0.998694
1.00026 1.00143 1 0.998838
0.999913 1 1 0.999913
0.999524 1 1 0.999524
0.999279 1 1 0.999279
0.9993 1 1 0.9993
0.999227 1 1 0.999227
1 1 1 1
0.998762 1 1 0.998762
0.999871 1 1 0.999871
0.999692 1 1 0.999692
0.999467 1 1 0.999467
0.99902 1 1 0.99902
0.998894 1.0002 1 0.998694
0.999333 1 1 0.999333
0.999226 1 1.00018 0.999048
0.999047 1 1 0.999047
0.999077 1 1 0.999077
1 1 1 1
0.999922 1 1 0.999922
0.999405 1 1 0.999405
0.999551 1 1 0.999551
0.999284 1 1 0.999284
0.999497 1.00088 1 0.998621
0.998884 1.00002 1 0.998864
0.999697 1.00106 1 0.998634
0.999404 1 1.00028 0.999124
0.998969 1 1 0.998969
0.999527 1 1.00064 0.998888
0.999944 1 1 0.999944
0.999629 1 1 0.999629
0.999212 1 1 0.999212
0.999357 1 1 0.999357
0.999189 1 1 0.999189
1.00088 1.00229 1 0.998593
0.999239 1.00044 1 0.998799
1.00029 1.00157 1 0.998724
1.00109 1 1.00215 0.998941
0.998783 1 1 0.998783
0.999963 1 1 0.999963
0.999698 1 1 0.999698
0.999738 1 1 0.999738
0.999596 1 1 0.999596
0.999761 1 1 0.999761
0.999983 1 1 0.999983
0.99998 1 1 0.99998
1 1 1 1
0.999976 1 1 0.999976
1 1 1 1
1 1 1 1
1 1 1 1
1 1 1 1
1 1 1 1
1 1 1 1
1 1 1 1
1 1 1 1
1 1 1 1
1 1 1 1
1 1 1 1
0.99872 1 1 0.99872
0.998638 1 1 0.998638
0.999074 1.00049 1 0.998585
1.00108 1.0026 1 0.998486
0.998812 1.0003 1 0.998517
0.998819 1 1 0.998819
0.998877 1.00038 1 0.998501
1.00324 1.00482 1 0.998432
1.00011 1.00158 1 0.998538
1.00571 1.00723 1 0.998497
0.999322 1.00072 1 0.998607
1.00192 1.0033 1 0.998626
1.00289 1.00449 1 0.998408
1.00852 1.0101 1 0.998437
1.00383 1.00528 1 0.998555
1.00749 1.00899 1 0.99851
1.00193 1.00331 1 0.998621
1.00504 1.00638 1 0.998672
0.99879 1.00026 1 0.99853
0.998668 1 1 0.998665
1.00112 1.00265 1 0.998472
0.999626 1.00106 1 0.998569
0.999623 1 1 0.999623
0.999328 1 1 0.999328
0.999053 1 1 0.999053
0.99875 1.00004 1 0.998714
1.00022 1.00158 1 0.998639
0.999739 1.00101 1 0.998733
0.998742 1 1 0.998742
0.999374 1.00053 1 0.998846
0.999396 1 1 0.999396
0.999257 1 1 0.999257
0.999874 1 1 0.999874
0.999468 1 1 0.999468
1.00195 1.00352 1 0.998434
1.00031 1.00179 1 0.998524
1.00493 1.00649 1 0.998448
1.00103 1.00248 1 0.998553
0.999381 1 1 0.999381
0.999185 1 1 0.999185
0.998985 1 1.00015 0.998835
1.00022 1.00154 1 0.998679
1.00288 1.0042 1 0.998689
0.998767 1.00008 1 0.998685
1.00096 1.00214 1 0.998823
1.00007 1.00121 1 0.998868
0.999279 1 1 0.999279
0.999223 1 1 0.999223
0.999297 1 1 0.999297
0.999891 1 1 0.999891
0.999534 1 1 0.999534
1.00774 1.00934 1 0.998411
1.00505 1.0066 1 0.998455
1.00426 1.00567 1 0.998596
1.00326 1.00452 1 0.998742
0.999271 1 1 0.999271
1.00281 1.00392 1 0.998894
0.99913 1 1.00009 0.999044
0.999004 1 1.00037 0.998637
0.999423 1.0008 1 0.998625
0.999897 1 1 0.999897
0.999629 1 1 0.999629
0.999378 1 1 0.999378
0.999244 1 1 0.999244
0.999185 1 1 0.999185
0.999184 1 1 0.999184
1 1 1 1
0.999926 1 1 0.999926
0.999478 1.00086 1 0.998618
0.99955 1 1 0.99955
0.999405 1 1 0.999405
0.999273 1 1 0.999273
0.998865 1 1 0.998865
0.999632 1.001 1 0.998629
0.999302 1 1.00018 0.999127
0.99948 1 1.00058 0.998903
0.998978 1 1 0.998978
0.999948 1 1 0.999948
0.999629 1 1 0.999629
0.999236 1 1.00002 0.999221
0.999356 1 1 0.999356
0.999176 1 1 0.999176
1.00089 1.0023 1 0.998591
0.999018 1.00022 1 0.998794
1.0003 1.00156 1 0.99874
1.00058 1 1.00165 0.998931
0.99881 1 1.00006 0.998754
0.999686 1 1 0.999686
0.999403 1 1 0.999403
1.00004 1 1.00096 0.999078
0.999188 1 1 0.999188
0.999095 1 1 0.999095
1.0042 1.00541 1 0.99879
0.9991 1.0004 1 0.998701
1.00147 1.00273 1 0.998748
1.00209 1 1.00327 0.998826
0.998564 1 1 0.998564
0.999967 1 1 0.999967
0.99971 1 1 0.99971
0.999515 1 1 0.999515
0.999723 1 1 0.999723
0.999761 1 1 0.999761
0.999574 1 1 0.999574
0.999459 1 1 0.999459
0.999568 1 1 0.999568
0.999769 1 1 0.999769
0.999983 1 1 0.999983
0.999983 1 1 0.999983
1 1 1 1
0.999982 1 1 0.999982
1 1 1 1
1 1 1 1
1 1 1 1
1 1 1 1
1 1 1 1
1 1 1 1
1 1 1 1
1 1 1 1
1 1 1 1
1 1 1 1
1 1 1 1
0.999502 1.0009 1 0.998605
0.999771 1.00123 1 0.998538
1.00177 1.00314 1 0.998627
1.00575 1.00726 1 0.9985
1.0033 1.00488 1 0.998425
0.998906 1.0004 1 0.998502
1.00297 1.00458 1 0.998405
1.00841 1.00999 1 0.998437
1.00418 1.00564 1 0.998544
1.0078 1.00931 1 0.998508
1.00148 1.00286 1 0.998622
1.00491 1.00623 1 0.99869
1.00871 1.01032 1 0.998406
1.00932 1.01086 1 0.99848
1.00792 1.00934 1 0.998586
1.00524 1.00649 1 0.998754
1.00227 1.00384 1 0.998435
1.0005 1.00198 1 0.998524
1.00447 1.00603 1 0.998451
1.00081 1.00226 1 0.998553
0.99938 1 1 0.99938
0.999207 1 1 0.999207
0.999202 1 1.00037 0.998832
1.00028 1.00161 1 0.998673
1.00281 1.0041 1 0.998719
1.00123 1.00241 1 0.998824
0.998762 1.00009 1 0.998676
0.999876 1.00098 1 0.998898
0.99928 1 1 0.99928
0.999219 1 1 0.999219
0.999295 1 1 0.999295
0.999868 1 1 0.999868
0.999544 1 1 0.999544
1.00729 1.00889 1 0.998415
1.005 1.00654 1 0.998461
1.00413 1.00554 1 0.998603
0.999269 1 1 0.999269
0.999181 1 1.00011 0.999069
0.999253 1 1.00062 0.998632
1.0034 1.00468 1 0.998733
0.99942 1.00076 1 0.998663
1.00208 1.00319 1 0.998895
0.999898 1 1 0.999898
0.999243 1 1 0.999243
0.999196 1 1 0.999196
0.999181 1 1 0.999181
0.999385 1 1 0.999385
0.999612 1 1 0.999612
1.00872 1.01031 1 0.998427
1.00644 1.00796 1 0.998492
1.00559 1.00695 1 0.998657
1.00534 1.00652 1 0.998833
0.999204 1 1 0.999204
1.00068 1.00196 1 0.998724
0.999995 1 1.0012 0.998799
0.999691 1.00015 1.00104 0.998499
0.999923 1 1 0.999923
0.999683 1 1 0.999683
0.999448 1 1 0.999448
0.99921 1 1 0.99921
0.999185 1 1 0.999185
0.999127 1 1 0.999127
0.999952 1 1 0.999952
0.99963 1 1 0.99963
1.00094 1.00235 1 0.998588
0.999355 1 1 0.999355
0.999229 1 1 0.999229
0.999163 1 1 0.999163
0.998831 1.00004 1 0.99879
1.00036 1.0016 1 0.998756
1.00006 1 1.00114 0.998921
0.998985 1 1.00026 0.998726
0.999686 1 1 0.999686
0.999411 1 1 0.999411
0.999785 1 1.00069 0.999094
0.999194 1 1 0.999194
0.999105 1 1 0.999105
1.00412 1.00533 1 0.998795
0.999104 1.0004 1 0.998702
1.00144 1.00262 1 0.998823
1.00231 1 1.0035 0.998814
0.998554 1 1.00003 0.998525
0.999475 1 1 0.999475
0.999226 1 1 0.999226
1.00175 1 1.00278 0.998976
0.999034 1 1 0.999034
1.01034 1.01152 1 0.998831
1.00651 1.00777 0.999872 0.998879
1.00024 1.00171 1 0.99853
1.00236 1 1.00382 0.998549
0.999722 1 1 0.999722
0.999525 1 1 0.999525
0.999403 1 1 0.999403
0.999761 1 1 0.999761
0.999552 1 1 0.999552
0.999769 1 1 0.999769
0.999442 1 1 0.999442
0.999576 1 1 0.999576
0.999346 1 1 0.999346
0.999443 1 1 0.999443
0.999576 1 1 0.999576
0.99977 1 1 0.99977
0.999981 1 1 0.999981
0.999982 1 1 0.999982
1 1 1 1
0.999983 1 1 0.999983
1 1 1 1
1 1 1 1
1 1 1 1
1 1 1 1
1 1 1 1
1 1 1 1
1 1 1 1
1 1 1 1
1 1 1 1
1 1 1 1
1 1 1 1
1.00101 1.00239 1 0.998623
1.00452 1.006 1 0.998533
1.00478 1.00608 1 0.998709
1.0081 1.00961 1 0.998505
1.0083 1.00988 1 0.998437
1.00307 1.00467 1 0.998401
1.00847 1.01007 1 0.998412
1.00904 1.01058 1 0.998478
1.00773 1.00915 1 0.998591
1.00603 1.00729 1 0.998749
1.01028 1.01185 1 0.998449
1.01028 1.01172 1 0.998569
1.0093 1.01062 1 0.998689
1.00685 1.00845 1 0.998419
1.00496 1.0065 1 0.998468
1.00397 1.00536 1 0.99861
0.999267 1 1 0.999267
0.999094 1 1 0.999094
0.999319 1 1.00069 0.998626
1.0035 1.00478 1 0.998725
1.00146 1.00257 1 0.998896
0.999434 1.00073 1 0.998701
0.999241 1 1 0.999241
0.999208 1 1 0.999208
0.999177 1 1 0.999177
0.9999 1 1 0.9999
0.999393 1 1 0.999393
0.999594 1 1 0.999594
1.00932 1.01091 1 0.998429
1.00626 1.00778 1 0.998492
1.00557 1.00694 1 0.998644
0.999198 1 1 0.999198
0.99984 1 1.001 0.998844
0.999546 1.00014 1.0009 0.998505
1.00573 1.00688 1 0.998851
1.00091 1.00219 1 0.998718
0.999941 1 1 0.999941
0.999683 1 1 0.999683
0.999186 1 1 0.999186
0.999146 1 1 0.999146
0.999212 1 1 0.999212
0.999435 1 1 0.999435
1.00977 1.01129 1 0.998498
1.00739 1.00884 1 0.99856
1.00824 1.00954 0.999905 0.998807
1.0057 1.00682 1 0.998894
0.999731 1 1.00065 0.999083
1.00017 1.00032 1.0014 0.998449
1.00119 1 1.00254 0.998654
0.999978 1 1 0.999978
0.999786 1 1 0.999786
0.999687 1 1 0.999687
0.99947 1 1 0.99947
0.999276 1 1 0.999276
0.999088 1 1 0.999088
0.999203 1 1 0.999203
1.00118 1 1.00201 0.999172
0.999687 1 1 0.999687
0.999419 1 1 0.999419
1.00395 1.00516 1 0.998801
0.9992 1 1 0.9992
0.99975 1 1.00064 0.99911
0.999114 1 1 0.999114
0.999089 1.00039 1 0.998703
1.00136 1.00246 1 0.998898
1.00252 1 1.00373 0.998802
0.998486 1 1 0.998486
0.999467 1 1 0.999467
0.999235 1 1 0.999235
1.00206 1 1.00308 0.998989
0.999047 1 1 0.999047
1.00981 1.01099 1 0.998825
1.0059 1.00709 0.999949 0.998873
1.00055 1.00199 1 0.998563
1.0019 1 1.00338 0.998527
0.999345 1 1 0.999345
1.01062 1.01247 0.999408 0.99877
0.999097 1 1 0.999097
1.00106 1 1.00222 0.998844
1.01273 1.01411 0.999722 0.998909
1.00497 1.00642 1 0.998563
1.00222 1.00059 1.00323 0.998407
0.999536 1 1 0.999536
0.999402 1 1 0.999402
0.999296 1 1 0.999296
0.999769 1 1 0.999769
0.999584 1 1 0.999584
0.999425 1 1 0.999425
0.999769 1 1 0.999769
0.999575 1 1 0.999575
0.999332 1 1 0.999332
0.99946 1 1 0.99946
0.999261 1 1 0.999261
0.999332 1 1 0.999332
0.999473 1 1 0.999473
0.99959 1 1 0.99959
0.999763 1 1 0.999763
0.999978 1 1 0.999978
0.99998 1 1 0.99998
1 1 1 1
0.999982 1 1 0.999982
1 1 1 1
1 1 1 1
1 1 1 1
1 1 1 1
1 1 1 1
0.999988 1 1 0.999988
1 1 1 1
1 1 1 1
1 1 1 1
1 1 1 1
1 1 1 1
1 1 1 1
1.00685 1.00811 1 0.998743
1.00754 1.00896 1 0.998597
1.00878 1.01032 1 0.998477
1.00822 1.00982 1 0.998417
1.01013 1.0117 1 0.998457
1.0107 1.01216 1 0.998558
1.00987 1.01119 1 0.998703
1.01044 1.01191 1 0.998542
1.01201 1.01338 1 0.998647
1.00792 1.01061 0.998531 0.998805
1.00987 1.01146 1 0.99843
1.00611 1.00763 1 0.998492
1.00564 1.00702 1 0.998631
0.999193 1 1 0.999193
0.999939 1 1.00105 0.998889
0.999388 1.0001 1.00078 0.998512
1.00621 1.00735 1 0.998869
1.00094 1.00223 1 0.998712
0.999188 1 1 0.999188
0.999164 1 1 0.999164
0.999214 1 1 0.999214
0.99996 1 1 0.99996
0.999683 1 1 0.999683
0.999421 1 1 0.999421
1.0093 1.01081 1 0.99851
0.999975 1 1 0.999975
0.999774 1 1 0.999774
1.00706 1.00852 1 0.998559
1.00943 1.01066 1 0.998778
0.999695 1 1.00058 0.999111
1.00187 1 1.00325 0.998622
0.999821 1.00053 1.00084 0.998456
1.00519 1.00631 1 0.998891
0.999721 1 1 0.999721
0.999469 1 1 0.999469
0.999176 1 1 0.999176
1.00023 1 1.001 0.99923
0.999068 1 1 0.999068
0.999279 1 1 0.999279
1.01086 1.01244 0.999815 0.998622
1.01097 1.01232 1 0.998665
1.00949 1.01114 0.999376 0.998993
1.00115 1.00248 1 0.99868
1.00134 1 1.00228 0.99906
1.00393 1.00004 1.00546 0.998443
0.999789 1 1 0.999789
0.999751 1 1 0.999751
0.999618 1 1 0.999618
0.999475 1 1 0.999475
0.999334 1 1 0.999334
0.999128 1 1 0.999128
1.00122 1 1.00224 0.998988
0.999244 1 1 0.999244
0.99946 1 1 0.99946
0.999243 1 1 0.999243
1.00947 1.01066 1 0.998819
1.00548 1.00662 1 0.998866
0.999061 1 1 0.999061
1.00227 1 1.00327 0.999002
1.00093 1.0023 1.00004 0.998597
1.00149 1 1.00299 0.998505
0.999342 1 1 0.999342
1.01075 1.01258 0.999406 0.998787
0.999101 1 1 0.999101
1.00113 1 1.00231 0.998825
1.0125 1.01389 0.999738 0.998894
1.0054 1.00683 1 0.99858
1.00239 1.0005 1.00348 0.998414
0.99919 1 1 0.99919
1.01796 1.02129 0.997801 0.998938
0.998979 1 1 0.998979
1.00229 1 1.00366 0.998644
1.00612 1.01025 0.997225 0.998677
1.00181 1.0012 1.00221 0.998405
1.00645 1.00894 0.998525 0.999005
0.999402 1 1 0.999402
0.999295 1 1 0.999295
0.999214 1 1 0.999214
0.999769 1 1 0.999769
0.999575 1 1 0.999575
0.999477 1 1 0.999477
0.999318 1 1 0.999318
0.999763 1 1 0.999763
0.999581 1 1 0.999581
0.999255 1 1 0.999255
0.999472 1 1 0.999472
0.999346 1 1 0.999346
0.999245 1 1 0.999245
0.999388 1 1 0.999388
0.999479 1 1 0.999479
0.999557 1 1 0.999557
0.999727 1 1 0.999727
0.999611 1 1 0.999611
0.999729 1 1 0.999729
0.999976 1 1 0.999976
0.999977 1 1 0.999977
1 1 1 1
0.999979 1 1 0.999979
1 1 1 1
1 1 1 1
1 1 1 1
1 1 1 1
1 1 1 1
0.999992 1 1 0.999992
0.999986 1 1 0.999986
1 1 1 1
1 1 1 1
1 1 1 1
1 1 1 1
1 1 1 1
1 1 1 1
1.01039 1.01169 1 0.998716
1.01114 1.01261 1 0.998548
1.01001 1.01156 1 0.998465
1.01088 1.01236 1 0.998541
1.01128 1.01265 1 0.99865
1.00892 1.01114 0.998989 0.998811
1.01108 1.01267 0.999728 0.998707
1.00982 1.01595 0.995133 0.998835
1.0197 1.02343 0.997345 0.999008
0.999833 1 1 0.999833
1.00888 1.01037 1 0.998521
1.00661 1.00807 1 0.998558
1.01035 1.01162 1 0.99875
0.999619 1 1.00048 0.999138
1.00259 1 1.004 0.99859
0.999739 1.00082 1.00045 0.998464
1.00467 1.00578 1 0.998889
0.999149 1 1 0.999149
0.999288 1 1 0.999288
0.999048 1 1 0.999048
0.999971 1 1 0.999971
0.999282 1 1 0.999282
0.999756 1 1 0.999756
0.999468 1 1 0.999468
0.999761 1 1 0.999761
1.01116 1.0127 0.999861 0.998623
0.999804 1 1 0.999804
0.99975 1 1 0.99975
0.999592 1 1 0.999592
1.01143 1.01278 1 0.998669
1.00815 1.00987 0.999346 0.998956
1.00057 1 1.0015 0.999073
1.00397 1.00001 1.00553 0.998437
1.00139 1.00255 1.00016 0.998685
0.999493 1 1 0.999493
0.999326 1 1 0.999326
0.999816 1 1.00061 0.999207
1.00111 1 1.0021 0.999016
0.999143 1 1 0.999143
1.01124 1.01382 0.998785 0.998668
1.01016 1.01405 0.997374 0.998791
1.00425 1.00599 0.99947 0.998799
1.0033 1.00142 1.00331 0.998568
1.00375 1 1.00478 0.998979
0.999593 1 1 0.999593
0.999527 1 1 0.999527
0.999455 1 1 0.999455
0.999343 1 1 0.999343
0.999216 1 1 0.999216
0.99982 1 1.00078 0.999037
1.00454 1 1.00561 0.998937
0.99934 1 1 0.99934
0.999105 1 1 0.999105
1.01086 1.0126 0.999476 0.998804
1.0121 1.01353 0.999709 0.998878
1.00562 1.00703 1 0.998596
1.00117 1 1.00237 0.998805
1.00242 1.0004 1.0036 0.998422
0.999208 1 1 0.999208
1.01792 1.02175 0.997315 0.998942
0.999024 1 1.00004 0.998986
1.0025 1 1.00385 0.998654
1.00713 1.01061 0.99784 0.998718
1.00215 1.00106 1.00269 0.998398
1.00753 1.00998 0.998706 0.998862
0.9991 1 1 0.9991
1.00254 1.01336 0.990408 0.998903
1.00046 1 1.00152 0.998943
1.00491 1 1.00635 0.998569
1.00163 1.00206 1.00104 0.998533
0.960808 0.970877 0.996371 0.993234
0.996974 0.994093 1.00585 0.997064
0.985742 1.00498 0.981703 0.99914
0.912579 0.933868 0.981851 0.995267
0.90604 0.948358 0.9596 0.995599
0.999294 1 1 0.999294
0.999222 1 1 0.999222
0.99921 1 1 0.99921
0.999762 1 1 0.999762
0.999571 1 1 0.999571
0.999471 1 1 0.999471
0.999361 1 1 0.999361
0.99925 1 1 0.99925
0.999464 1 1 0.999464
0.999741 1 1 0.999741
0.999569 1 1 0.999569
0.999251 1 1 0.999251
0.999384 1 1 0.999384
0.999395 1 1 0.999395
0.999314 1 1 0.999314
0.999433 1 1 0.999433
0.999542 1 1 0.999542
0.999726 1 1 0.999726
0.999582 1 1 0.999582
0.99948 1 1 0.99948
0.999582 1 1 0.999582
0.99959 1 1 0.99959
0.999757 1 1 0.999757
0.999729 1 1 0.999729
0.999975 1 1 0.999975
0.999975 1 1 0.999975
1 1 1 1
0.999976 1 1 0.999976
1 1 1 1
1 1 1 1
1 1 1 1
1 1 1 1
1 1 1 1
0.999994 1 1 0.999994
0.999991 1 1 0.999991
1 1 1 1
0.999983 1 1 0.999983
1 1 1 1
1 1 1 1
1 1 1 1
1 1 1 1
1 1 1 1
1.01058 1.01195 1 0.998652
1.01126 1.01274 1 0.998539
1.0097 1.01154 0.999362 0.998816
1.01017 1.01572 0.995669 0.998857
1.01091 1.01245 0.999772 0.998707
1.0205 1.02415 0.997468 0.998965
1.02101 1.02322 0.999183 0.998659
0.976056 0.984914 0.994512 0.996475
1.01603 1.01935 0.997723 0.999019
0.999841 1 1 0.999841
0.999833 1 1 0.999833
0.999646 1 1 0.999646
0.999666 1 1 0.999666
1.01156 1.01299 0.999961 0.998625
1.01192 1.01327 1 0.998673
1.00686 1.00847 0.999481 0.99892
0.99973 1 1.00065 0.999085
1.00378 1 1.00536 0.998431
1.0016 1.00278 1.00013 0.99869
1.00039 1 1.00122 0.999169
1.00096 1 1.00192 0.999044
0.999157 1 1 0.999157
0.99975 1 1 0.99975
0.999317 1 1 0.999317
0.999511 1 1 0.999511
0.99982 1 1 0.99982
0.999565 1 1 0.999565
1.0099 1.01206 0.999173 0.998685
0.99962 1 1 0.99962
0.999541 1 1 0.999541
0.999451 1 1 0.999451
1.01203 1.01496 0.998302 0.998802
1.00293 1.00487 0.999272 0.998796
1.0036 1 1.00463 0.998976
1.00291 1.00151 1.00285 0.998553
0.999347 1 1 0.999347
0.999224 1 1 0.999224
1.00338 1 1.00445 0.998937
1.00038 1 1.00136 0.999018
1.01814 1.02049 0.998991 0.9987
1.0023 1.01149 0.992124 0.998782
1.00245 1.0032 1.00073 0.998527
1.00192 1 1.00306 0.998855
0.999403 1 1 0.999403
0.999387 1 1 0.999387
0.999169 1 1 0.999169
1.00576 1 1.00693 0.998838
0.949738 0.967445 0.988564 0.993054
0.999226 1 1 0.999226
0.999058 1 1.00007 0.998993
1.01749 1.02203 0.996605 0.998946
1.00819 1.01089 0.99857 0.998758
1.00268 1.00099 1.0033 0.998391
1.00279 1 1.00413 0.998663
1.00815 1.01077 0.998685 0.998717
0.999146 1 1.00003 0.999113
1.0018 1.01293 0.990105 0.998891
1.00005 1 1.0011 0.998948
1.00465 1 1.00608 0.998572
1.00159 1.00282 1.00023 0.998545
0.958507 0.970193 0.994485 0.993434
0.991886 0.992289 1.00357 0.996043
0.988473 1.00495 0.984403 0.999189
0.91917 0.936736 0.986289 0.994888
0.895541 0.940884 0.956334 0.995266
0.999498 1 1.00034 0.999153
0.925957 0.941683 0.988713 0.994525
0.928714 0.950547 0.980998 0.995956
0.978775 1.00355 0.976382 0.998906
1.00402 1 1.00507 0.998955
1.00901 1.0002 1.01012 0.998703
0.988553 1.00304 0.986256 0.999288
0.968359 0.972697 1.00263 0.992926
0.991941 0.989271 1.00695 0.99578
0.906079 0.938119 0.970562 0.995141
0.93865 0.974478 0.966413 0.996711
0.999229 1 1 0.999229
0.99921 1 1 0.99921
0.999271 1 1 0.999271
0.999755 1 1 0.999755
0.99958 1 1 0.99958
0.999449 1 1 0.999449
0.99938 1 1 0.99938
0.999258 1 1 0.999258
0.999725 1 1 0.999725
0.999396 1 1 0.999396
0.999449 1 1 0.999449
0.999558 1 1 0.999558
0.999304 1 1 0.999304
0.999349 1 1 0.999349
0.999499 1 1.0002 0.999302
0.999441 1 1 0.999441
0.99957 1 1 0.99957
0.999581 1 1 0.999581
0.999466 1 1 0.999466
0.999456 1 1 0.999456
0.999454 1 1 0.999454
0.999396 1 1 0.999396
0.999364 1 1 0.999364
0.99956 1 1 0.99956
0.999581 1 1 0.999581
0.999754 1 1 0.999754
0.999569 1 1 0.999569
0.999745 1 1 0.999745
0.999974 1 1 0.999974
0.999728 1 1 0.999728
0.999975 1 1 0.999975
1 1 1 1
0.999975 1 1 0.999975
1 1 1 1
1 1 1 1
1 1 1 1
1 1 1 1
1 1 1 1
0.999836 1 1 0.999836
0.999995 1 1 0.999995
0.999994 1 1 0.999994
1 1 1 1
0.99999 1 1 0.99999
1 1 1 1
1 1 1 1
1 1 1 1
1 1 1 1
1 1 1 1
1.01135 1.01582 0.996716 0.998879
1.01078 1.01234 0.999758 0.998706
1.02178 1.02503 0.997907 0.998921
0.978511 0.984372 0.996965 0.997072
1.01555 1.01907 0.997488 0.999055
1.02156 1.02442 0.998558 0.998646
1.01955 1.02253 0.99829 0.998789
0.98117 0.986526 0.997368 0.997195
0.958727 0.970471 0.995562 0.992302
0.901376 0.93123 0.973708 0.994078
0.898114 0.936789 0.963043 0.995507
0.999637 1 1 0.999637
0.999841 1 1 0.999841
0.999832 1 1 0.999832
0.999638 1 1 0.999638
0.99952 1 1 0.99952
0.999548 1 1 0.999548
0.999648 1 1 0.999648
0.999655 1 1 0.999655
1.0083 1.01019 0.999426 0.998701
1.01417 1.0163 0.999091 0.998813
1.00188 1.004 0.99909 0.998792
1.00359 1 1.00462 0.998973
1.00264 1.00138 1.00272 0.998539
1.00233 1 1.0034 0.998937
1.00101 1 1.00202 0.998999
0.999232 1 1 0.999232
0.999556 1 1 0.999556
0.999351 1 1 0.999351
0.999647 1 1 0.999647
0.999447 1 1 0.999447
1.0186 1.02138 0.998592 0.998676
0.999418 1 1 0.999418
0.999386 1 1 0.999386
1.00319 1.01034 0.99414 0.998773
1.00238 1.00351 1.00029 0.998587
1.00349 1 1.00468 0.998815
0.999203 1 1.00004 0.999162
1.00526 1 1.00643 0.998842
1.01359 1.02089 0.994206 0.998631
0.990851 1.0031 0.989054 0.998723
0.999752 1 1.00103 0.998721
1.00657 1 1.00773 0.998852
0.999328 1 1 0.999328
0.999232 1 1 0.999232
1.00051 1 1.00151 0.998998
0.915826 0.941396 0.977877 0.994848
0.955957 0.969126 0.992869 0.993497
0.999203 1 1.00008 0.999126
0.999769 1 1.00082 0.998954
1.00193 1.01294 0.990242 0.998879
1.00161 1.00365 0.999411 0.998556
1.00428 1 1.00571 0.998575
0.959563 0.97129 0.995699 0.992194
0.99249 0.993429 1.00228 0.996778
0.991581 1.00512 0.987287 0.999238
0.914003 0.937905 0.979969 0.994434
0.884362 0.932395 0.953315 0.994933
0.99937 1 1.00022 0.999153
0.920989 0.944764 0.979761 0.994972
0.929348 0.94831 0.984059 0.995879
0.98141 1.00418 0.978404 0.998896
1.00341 1 1.00445 0.998965
1.00813 1.00012 1.00928 0.998741
0.982179 1.00058 0.982306 0.999296
0.969092 0.973951 1.00254 0.992491
0.990129 0.989033 1.00436 0.996766
0.908616 0.937159 0.975178 0.99422
0.937923 0.974474 0.965886 0.996486
1.00017 1 1.00098 0.999197
0.945197 0.951692 0.996499 0.996665
0.991728 0.993105 1.00057 0.998042
0.986791 1.00024 0.987361 0.999183
1.00899 1 1.00979 0.999204
1.00445 0.998028 1.00681 0.999628
0.982903 0.986522 0.998587 0.997741
0.971149 0.970796 1.00779 0.992626
0.929021 0.96038 0.972972 0.994219
0.95973 0.992298 0.969632 0.99747
0.999209 1 1 0.999209
0.999253 1 1 0.999253
0.999772 1 1.00042 0.999351
0.999725 1 1 0.999725
0.999573 1 1 0.999573
0.999464 1 1 0.999464
0.999396 1 1 0.999396
0.999294 1 1 0.999294
0.99957 1 1 0.99957
0.999359 1 1 0.999359
0.99944 1 1 0.99944
0.999551 1 1.00024 0.999306
0.999905 1 1.00055 0.99935
0.999434 1 1.00009 0.999347
0.999442 1 1 0.999442
0.999581 1 1 0.999581
0.999451 1 1 0.999451
0.999456 1 1 0.999456
0.999453 1 1 0.999453
0.999394 1 1 0.999394
0.999421 1 1 0.999421
0.999382 1 1 0.999382
0.999356 1 1 0.999356
0.999234 1 1 0.999234
0.999629 1 1.0005 0.99913
0.999296 1 1 0.999296
0.999363 1 1 0.999363
0.999522 1 1 0.999522
0.999558 1 1 0.999558
0.999744 1 1 0.999744
0.999581 1 1 0.999581
0.999754 1 1 0.999754
0.999973 1 1 0.999973
0.999733 1 1 0.999733
0.999974 1 1 0.999974
1 1 1 1
0.999975 1 1 0.999975
1 1 1 1
1 1 1 1
1 1 1 1
1 1 1 1
1 1 1 1
0.999851 1 1 0.999851
0.999994 1 1 0.999994
0.999836 1 1 0.999836
1 1 1 1
0.999995 1 1 0.999995
0.999993 1 1 0.999993
1 1 1 1
1 1 1 1
1 1 1 1
1 1 1 1
1 1 1 1
0.918585 0.939457 0.98253 0.995169
0.935483 0.951991 0.986264 0.996346
0.981539 0.985076 0.998905 0.997502
1.0153 1.01871 0.997559 0.999089
1.0221 1.02553 0.998023 0.998633
0.980674 0.985026 0.997399 0.998179
1.02001 1.02234 0.998918 0.998798
0.960688 0.971557 0.995408 0.993374
0.912579 0.934497 0.981379 0.995075
0.889655 0.933766 0.95738 0.995174
0.998705 1.00001 0.999955 0.99874
0.966488 0.971905 1.00116 0.993272
0.90086 0.935194 0.968074 0.995055
0.937282 0.971544 0.968428 0.996186
0.999475 1 1 0.999475
0.999648 1 1 0.999648
0.99984 1 1 0.99984
0.99963 1 1 0.99963
0.999535 1 1 0.999535
0.999497 1 1 0.999497
0.999548 1 1 0.999548
0.999577 1 1 0.999577
0.999633 1 1 0.999633
0.999643 1 1 0.999643
1.01912 1.02221 0.998318 0.998653
1.0032 1.00849 0.995991 0.998764
1.00225 1.00379 0.999818 0.998647
1.00485 1 1.00608 0.998775
1.00447 1 1.00563 0.998846
0.999213 1 1.00006 0.999155
0.999386 1 1 0.999386
0.999432 1 1 0.999432
1.01353 1.021 0.99407 0.998609
0.999322 1 1 0.999322
0.999217 1 1 0.999217
0.992377 1.0031 0.990618 0.998682
1.0001 1 1.00133 0.998771
1.00546 1 1.00666 0.998812
1.00151 1 1.00252 0.998987
1.0076 1.01007 0.998832 0.998723
0.996244 1 0.997187 0.999055
1.00574 1 1.00684 0.998915
0.999309 1 1 0.999309
0.99921 1 1 0.99921
0.999075 1 1 0.999075
0.945691 0.954578 0.993817 0.996853
0.920328 0.941287 0.98333 0.994309
0.953832 0.970188 0.990047 0.993026
0.999152 1 1 0.999152
1.00273 1 1.00376 0.998975
0.984017 1.00467 0.980537 0.998887
1.00735 1 1.00859 0.99878
0.918352 0.943428 0.979051 0.994249
0.967917 0.973151 1.00078 0.99385
0.989705 0.990427 1.00345 0.995835
0.979515 0.998451 0.981711 0.999311
0.911083 0.935855 0.97829 0.995135
0.930711 0.950662 0.983176 0.995766
0.933721 0.972918 0.963337 0.996237
1.00028 1 1.00109 0.999196
0.943324 0.953226 0.992954 0.996634
0.992408 0.993488 1.00087 0.998041
0.989691 1.0001 0.990377 0.999206
1.00895 1 1.00976 0.9992
1.00418 0.999088 1.00586 0.999245
0.98373 0.985837 1.00151 0.996356
0.96785 0.971428 1.00373 0.992613
0.931453 0.962873 0.971859 0.99538
0.953624 0.986518 0.969343 0.997228
1.00108 1 1.00158 0.999497
0.992682 0.994223 0.999865 0.998585
1.00187 0.998465 1.00451 0.998909
1.00914 0.999532 1.0099 0.999715
0.992219 0.987544 1.00591 0.99883
0.971321 0.973212 1.00571 0.992386
0.958512 0.976863 0.985479 0.995673
0.960325 0.996802 0.966164 0.997145
0.999235 1 1 0.999235
0.999717 1 1.00036 0.999362
1.00075 1 1.0013 0.999451
0.99957 1 1 0.99957
0.99944 1 1 0.99944
0.99937 1 1 0.99937
0.999591 1 1.00028 0.99931
0.999442 1 1 0.999442
0.999377 1 1.00003 0.999346
1.0003 1 1.00093 0.999364
1.00031 1 1.00086 0.999456
0.999552 1 1.00021 0.99934
0.999369 1 1 0.999369
0.999456 1 1 0.999456
0.999452 1 1 0.999452
0.999392 1 1 0.999392
0.999384 1 1 0.999384
0.99942 1 1 0.99942
0.99936 1 1 0.99936
0.999314 1 1 0.999314
0.999343 1 1 0.999343
0.999213 1 1 0.999213
0.999243 1 1 0.999243
0.99965 1 1.00051 0.999145
0.999452 1 1.00047 0.998983
0.999277 1 1 0.999277
0.999492 1 1.00032 0.999173
0.999316 1 1 0.999316
0.999445 1 1 0.999445
0.999362 1 1 0.999362
0.999521 1 1 0.999521
0.99972 1 1 0.99972
0.999557 1 1 0.999557
0.999743 1 1 0.999743
0.999971 1 1 0.999971
0.999754 1 1 0.999754
0.999973 1 1 0.999973
1 1 1 1
0.999974 1 1 0.999974
1 1 1 1
1 1 1 1
1 1 1 1
1 1 1 1
1 1 1 1
0.999789 1 1 0.999789
0.999992 1 1 0.999992
0.999823 1 1 0.999823
1 1 1 1
0.999994 1 1 0.999994
0.999836 1 1 0.999836
1 1 1 1
1 1 1 1
0.999995 1 1 0.999995
1 1 1 1
1 1 1 1
1 1 1 1
0.948777 0.955225 0.996241 0.996998
0.918815 0.940543 0.982193 0.994609
0.992026 0.994941 0.999108 0.99796
0.92947 0.947791 0.984439 0.996171
0.976599 0.983685 0.995857 0.996927
1.01973 1.02216 0.998815 0.998806
0.960571 0.971902 0.993845 0.994462
0.910354 0.935711 0.978584 0.994193
0.881479 0.931257 0.951458 0.99484
0.99636 0.999379 0.998719 0.998258
0.967617 0.971195 1.00355 0.992794
0.905361 0.939344 0.969544 0.994098
0.934636 0.97054 0.966796 0.99608
0.99486 0.997612 0.999008 0.998232
0.969381 0.969305 1.00763 0.992505
0.931449 0.963432 0.971365 0.995304
0.958533 0.993137 0.967891 0.997176
0.999381 1 1 0.999381
0.999491 1 1 0.999491
0.999659 1 1 0.999659
0.999549 1 1 0.999549
0.999404 1 1 0.999404
0.999508 1 1 0.999508
0.999548 1 1 0.999548
0.99956 1 1 0.99956
0.999593 1 1 0.999593
0.999618 1 1 0.999618
1.01404 1.02177 0.993838 0.998587
0.994718 1.00345 0.992643 0.99864
1.00041 1 1.00159 0.99882
1.0047 1 1.00594 0.998772
1.0027 1 1.00373 0.998976
0.999202 1 1 0.999202
0.999315 1 1 0.999315
0.99931 1 1 0.99931
1.00259 1.00879 0.995101 0.998743
0.99922 1 1 0.99922
0.999161 1 1.00009 0.99907
0.994651 1 0.99564 0.999006
1.00491 1 1.00601 0.998912
0.988352 1.00241 0.986852 0.999114
1.01075 1 1.01143 0.99932
0.999836 1 1.00078 0.999056
0.999234 1 1 0.999234
0.999088 1 1 0.999088
0.992213 0.993586 0.999768 0.99885
0.948074 0.954718 0.996018 0.997011
0.918853 0.940919 0.981277 0.995182
1.00044 1 1.00125 0.999195
1.0088 0.999992 1.00962 0.999196
0.991049 1 0.991814 0.999228
0.949186 0.95562 0.996318 0.996938
0.971206 0.970086 1.00882 0.992401
0.985651 0.987136 1.00111 0.997389
0.9983 0.99913 1.00033 0.998837
0.930842 0.960359 0.974909 0.994211
0.99232 0.993051 1.00123 0.99804
0.94849 0.982296 0.968222 0.997276
1.00131 0.999996 1.00181 0.999504
0.991641 0.992796 1.00006 0.998782
1.00404 1.00026 1.00486 0.998919
1.00887 0.999538 1.00975 0.99959
0.991491 0.988262 1.00485 0.998421
0.974526 0.975344 1.00702 0.992198
0.961345 0.999976 0.963853 0.997422
0.942887 0.968707 0.978174 0.995065
1.0022 0.999402 1.00309 0.999711
1.00167 1.00168 1.00033 0.999658
1.01138 1.00719 1.00511 0.999056
0.960585 0.993783 0.969326 0.997182
1.00135 0.988755 1.0131 0.999637
0.978278 0.976739 1.00887 0.992772
0.936108 0.954984 0.984626 0.995539
0.999641 1 1.00027 0.999373
1.0005 1 1.00109 0.999414
1.00312 1 1.00355 0.999566
0.999442 1 1 0.999442
0.999344 1 1 0.999344
1.00075 1 1.00138 0.999377
0.999371 1 1 0.999371
0.999666 1 1.00033 0.999341
1.00069 1 1.00126 0.999429
0.999851 1 1.00035 0.999496
0.999331 1 1 0.999331
0.999387 1 1 0.999387
0.999419 1 1 0.999419
0.999364 1 1 0.999364
0.999342 1 1 0.999342
0.999321 1 1 0.999321
0.999595 1 1.00029 0.99931
0.999247 1 1 0.999247
1.00141 1 1.00244 0.998977
0.999251 1 1 0.999251
0.999556 1 1.00042 0.999137
0.999662 1 1.00081 0.998855
0.999447 1 1.00048 0.998973
0.999212 1 1 0.999212
0.999505 1 1.00052 0.998989
0.999402 1 1 0.999402
0.999261 1 1 0.999261
0.999361 1 1.00014 0.999217
0.999336 1 1 0.999336
0.999463 1 1 0.999463
0.999681 1 1 0.999681
0.99952 1 1 0.99952
0.999719 1 1 0.999719
0.999965 1 1 0.999965
0.999742 1 1 0.999742
0.999969 1 1 0.999969
1 1 1 1
0.999972 1 1 0.999972
1 1 1 1
1 1 1 1
1 1 1 1
1 1 1 1
1 1 1 1
0.999707 1 1 0.999707
0.99995 1 1 0.99995
0.999788 1 1 0.999788
1 1 1 1
0.999976 1 1 0.999976
0.999795 1 1 0.999795
1 1 1 1
1 1 1 1
0.999995 1 1 0.999995
1 1 1 1
1 1 1 1
1 1 1 1
0.99108 0.992674 0.999662 0.998732
0.941752 0.954206 0.990254 0.996663
0.920016 0.939063 0.985284 0.994349
0.999507 1 1 0.999507
0.999468 0.996262 1.00415 0.999073
0.993655 0.995001 1.00069 0.99796
0.923649 0.947311 0.97899 0.995947
0.994731 0.999292 0.997701 0.99773
0.970649 0.973129 1.0043 0.993179
0.90919 0.943403 0.968563 0.995014
0.929528 0.967964 0.964216 0.99593
0.997347 0.99967 1.00079 0.996891
0.966106 0.968411 1.00488 0.992773
0.934828 0.96376 0.974942 0.994911
0.957689 0.992612 0.967767 0.996951
0.9881 0.989383 1.00259 0.996124
0.974771 0.969392 1.01421 0.991458
0.943474 0.970305 0.977556 0.994672
0.959393 0.996605 0.965426 0.997135
0.999296 1 1 0.999296
0.999372 1 1 0.999372
0.999506 1 1 0.999506
0.999395 1 1 0.999395
0.999424 1 1 0.999424
0.99952 1 1 0.99952
0.999564 1 1 0.999564
0.999609 1 1 0.999609
0.997106 1.0071 0.9913 0.998762
0.992737 1 0.993773 0.998957
0.99931 1 1 0.99931
1.00394 1 1.00504 0.998909
0.999232 1 1.00017 0.999065
0.99923 1 1 0.99923
0.999238 1 1 0.999238
0.992734 1.00397 0.989676 0.99912
0.999107 1 1 0.999107
1.00067 1 1.00162 0.999053
1.00675 1 1.00743 0.999322
0.999252 1 1 0.999252
0.984464 0.99565 0.989229 0.999531
1.01268 0.999603 1.01363 0.999454
0.999156 1 1 0.999156
0.999196 1 1 0.999196
1.00199 1.00291 0.99935 0.999735
0.991696 0.993095 0.999723 0.998868
0.950828 0.954903 0.998555 0.997173
1.00145 1 1.00194 0.999511
1.00961 0.999579 1.01057 0.999467
0.99041 0.991429 0.999995 0.998978
0.976036 0.973026 1.01061 0.992563
0.991284 0.986378 1.00798 0.997015
0.946182 0.970979 0.979833 0.994518
1.00601 1.00183 1.00525 0.99893
0.964333 1.00469 0.962049 0.997698
1.00246 0.999458 1.00332 0.999678
1.00062 1.00101 0.999948 0.999666
1.01065 1.00655 1.00484 0.999241
1.00685 0.993379 1.01363 0.999931
0.958525 0.992992 0.968244 0.996948
0.976291 0.975095 1.00848 0.992806
0.942468 0.965862 0.981207 0.994467
1.00637 0.996475 1.01016 0.999771
1.01001 1.00912 1.00111 0.999773
0.999786 0.99765 1.00307 0.999077
0.938353 0.972765 0.968296 0.996208
0.942833 0.971693 0.975571 0.994595
0.994066 0.98802 1.00631 0.999813
0.979642 0.97083 1.01704 0.992168
1.00027 1 1.00089 0.999376
1.00223 1 1.00268 0.99955
1.00851 0.996358 1.01262 0.999582
0.999373 1 1 0.999373
0.999708 1 1.00037 0.999342
1.00094 1 1.00154 0.999403
0.999327 1 1 0.999327
0.99993 1 1.00043 0.999497
1.00434 0.999928 1.00504 0.999374
0.99934 1 1 0.99934
0.999329 1 1 0.999329
0.999968 1 1.00068 0.999288
1.00544 1 1.0064 0.999043
0.99928 1 1 0.99928
1.00088 1 1.00186 0.99902
1.00282 1 1.00409 0.998734
1.00055 1 1.00185 0.9987
0.999431 1 1.0003 0.999128
0.999655 1 1.00083 0.998822
0.999469 1 1.00043 0.999044
0.999677 1 1.00053 0.999144
0.999414 1 1.00042 0.998999
0.999359 1 1 0.999359
0.999208 1 1 0.999208
0.999556 1 1.00056 0.998994
0.999627 1 1 0.999627
0.999396 1 1 0.999396
0.999244 1 1 0.999244
0.99948 1 1 0.99948
0.99968 1 1 0.99968
0.999954 1 1 0.999954
0.999718 1 1 0.999718
0.999962 1 1 0.999962
1 1 1 1
0.999968 1 1 0.999968
1 1 1 1
1 1 1 1
1 1 1 1
1 1 1 1
1 1 1 1
0.999673 1 1 0.999673
0.999925 1 1 0.999925
0.999723 1 1 0.999723
1 1 1 1
0.999949 1 1 0.999949
0.999787 1 1 0.999787
1 1 1 1
1 1 1 1
0.99996 1 1 0.99996
1 1 1 1
1 1 1 1
1 1 1 1
0.999957 1.0003 1.00002 0.999644
0.990932 0.992476 0.999705 0.998739
0.942309 0.954809 0.990192 0.996684
0.999514 1 1 0.999514
0.999477 1 1 0.999477
0.999408 1 1 0.999408
1.01114 1.00595 1.00611 0.999054
1 0.996807 1.00412 0.999088
0.994941 0.995086 1.0019 0.99796
1.00315 1.00055 1.00463 0.997975
0.968139 0.969307 1.00627 0.992576
0.931367 0.960815 0.974969 0.994238
0.959152 0.994486 0.967342 0.99703
0.983098 0.984523 1.00126 0.997293
0.970671 0.969092 1.00925 0.992452
0.943017 0.966395 0.980114 0.995608
0.96178 1.00015 0.964126 0.997416
0.975355 0.979645 0.99861 0.997006
0.981209 0.973183 1.01578 0.992582
0.936501 0.954751 0.98528 0.99554
0.958833 0.990826 0.970188 0.997446
0.999283 1 1 0.999283
0.999294 1 1 0.999294
0.999363 1 1 0.999363
0.999393 1 1 0.999393
0.999444 1 1 0.999444
0.999569 1 1 0.999569
0.99761 1.00547 0.993049 0.999126
1.00272 1 1.0034 0.999324
0.999241 1 1 0.999241
1.00136 1 1.00231 0.999049
0.999126 1 1 0.999126
0.999242 1 1 0.999242
0.999199 1 1 0.999199
0.993613 0.998198 0.995884 0.999521
0.999193 1 1 0.999193
1.00969 0.997416 1.01284 0.99948
0.999261 1 1 0.999261
1.00821 0.99032 1.01831 0.999754
0.994956 0.994898 1.00044 0.999623
0.999256 1 1 0.999256
1.01221 1.01285 0.999502 0.999865
1.0019 1.00282 0.999306 0.999772
0.991467 0.992769 0.999802 0.998887
1.00265 0.99952 1.00348 0.999644
1.00147 0.994243 1.0074 0.999868
0.999836 1.00057 0.99959 0.999674
0.983356 0.977585 1.01091 0.995043
0.948793 0.966006 0.986356 0.995768
1.00975 1.00586 1.00444 0.999425
0.95956 0.99493 0.967317 0.997036
1.00591 0.997625 1.00852 0.999788
1.01027 1.00944 1.00102 0.999801
1.00072 0.998201 1.00344 0.999091
0.992578 0.9842 1.01034 0.998191
0.93616 0.971968 0.966925 0.996105
0.940867 0.968392 0.975946 0.995523
0.990359 0.976953 1.02119 0.992688
1.0166 0.991203 1.02574 0.99989
1.00047 1.00088 0.999943 0.999646
0.992984 0.996259 0.998737 0.997973
0.898475 0.937622 0.962538 0.995544
0.932129 0.963097 0.972387 0.99533
0.983767 0.975614 1.01589 0.992587
0.966762 0.978098 0.990748 0.997641
1.0012 1 1.00167 0.999534
1.01066 0.997427 1.01369 0.999586
1.01949 0.999994 1.01998 0.999529
0.999324 1 1 0.999324
1.00005 1 1.00055 0.999497
1.00361 0.999998 1.00422 0.999396
1.01339 1 1.01425 0.999155
1.00032 1 1.00105 0.999266
1.00546 1 1.00647 0.998995
1.01069 1 1.01206 0.998648
1.00045 1 1.00139 0.999063
1.00355 1 1.00483 0.998726
1.0035 1 1.00502 0.998485
1.00036 1 1.00187 0.998492
0.999943 1 1.00104 0.998907
1.0005 1 1.00182 0.99868
0.999705 1 1.00092 0.998789
0.999659 1 1.00052 0.999144
0.999497 1 1.00042 0.999078
0.999451 1 1.00019 0.999263
0.999588 1 1.00042 0.999164
0.999368 1 1.00034 0.999026
0.999559 1 1 0.999559
0.999361 1 1 0.999361
0.999205 1 1 0.999205
0.999931 1 1 0.999931
0.999627 1 1 0.999627
0.99939 1 1 0.99939
0.999679 1 1 0.999679
0.99995 1 1 0.99995
1 1 1 1
0.99996 1 1 0.99996
1 1 1 1
1 1 1 1
1 1 1 1
1 1 1 1
1 1 1 1
0.999671 1 1 0.999671
0.999946 1 1 0.999946
0.999685 1 1 0.999685
1 1 1 1
0.999946 1 1 0.999946
0.999739 1 1 0.999739
1 1 1 1
1 1 1 1
0.999948 1 1 0.999948
1 1 1 1
1 1 1 1
1 1 1 1
1.01079 1.00887 1.00214 0.99977
1.00165 1.00114 1.00086 0.999653
0.991116 0.992217 1.00014 0.998748
0.99946 1 1 0.99946
0.999379 1 1 0.999379
0.99952 1 1 0.99952
0.999474 1 1 0.999474
0.999394 1 1 0.999394
0.999387 1 1 0.999387
0.999326 1 1 0.999326
1.00141 0.997451 1.00508 0.998899
1.00939 1.00478 1.00535 0.999238
1.00084 0.997339 1.00441 0.999102
0.965513 1.00465 0.963261 0.997697
0.980121 0.983099 1.00076 0.996217
0.976609 0.973166 1.01015 0.993458
0.945258 0.962233 0.987855 0.994436
0.97496 0.979822 0.998589 0.996444
0.974864 0.970846 1.01183 0.992403
0.944124 0.966474 0.982167 0.994611
0.953799 0.986654 0.969426 0.997188
0.965965 0.975018 0.993093 0.997606
0.971872 0.972607 1.00705 0.992252
0.961777 0.979707 0.985991 0.995647
0.937039 0.973117 0.966153 0.996659
0.9993 1 1 0.9993
0.999281 1 1 0.999281
0.999292 1 1 0.999292
0.999391 1 1 0.999391
1.00176 1.00068 1.00156 0.999513
1.00727 0.995517 1.0123 0.999505
0.999231 1 1 0.999231
0.999202 1 1 0.999202
0.99923 1 1 0.99923
0.999258 1 1 0.999258
0.999245 1 1 0.999245
1.00352 0.98888 1.01523 0.999582
0.996568 0.996447 1.00044 0.999683
0.999274 1 1 0.999274
1.00942 0.985475 1.02462 0.999692
1.0018 0.99802 1.0044 0.999387
1.00257 1.00309 0.999753 0.999735
1.01114 1.0118 0.999468 0.999883
1.00175 1.00262 0.999332 0.999809
1.00555 0.998694 1.00706 0.999805
0.993884 0.984129 1.01015 0.999768
1.01043 1.00968 1.00091 0.99983
0.978467 0.970441 1.01612 0.992273
0.944799 0.96399 0.985655 0.994356
1.00182 0.998764 1.00396 0.999105
0.931498 0.969252 0.964947 0.99596
1.01952 0.991274 1.02863 0.999873
1.00162 1.00149 1.00048 0.999654
0.994502 0.996323 1.0002 0.997973
0.970848 0.981055 0.990394 0.999194
0.890945 0.934924 0.957539 0.995217
0.933098 0.962237 0.974674 0.994914
0.986924 0.975605 1.01883 0.992905
1.00304 0.987508 1.01598 0.999747
0.992611 0.993828 1.00004 0.998739
0.936565 0.952971 0.986344 0.99639
0.902923 0.935175 0.970284 0.995082
0.978008 0.971516 1.01418 0.992609
0.961598 0.976065 0.988417 0.996724
1.01338 0.998941 1.01487 0.99959
1.01889 0.998739 1.02066 0.999522
1.01301 1 1.01362 0.999405
1.00283 1 1.00342 0.999418
1.01389 1 1.01471 0.999192
1.00914 1 1.01042 0.998737
1.00556 1 1.00662 0.998948
1.0104 1 1.01181 0.998614
1.005 1 1.00662 0.998394
1.00419 1 1.00548 0.998717
1.00352 1 1.00507 0.998456
1.00212 1.0006 1.00316 0.998358
0.998598 1.00013 1 0.998463
0.999405 1 1.00074 0.998662
1.0006 1 1.00215 0.998459
0.999149 1 1.0001 0.999053
0.999635 1 1.00071 0.99893
1.00044 1 1.00178 0.998661
0.999359 1 1.00017 0.999187
0.999756 1 1.00062 0.999137
0.999533 1 1.00042 0.999113
0.999465 1 1 0.999465
0.999382 1 1.0001 0.999281
0.999522 1 1.00034 0.999183
0.999879 1 1 0.999879
0.999559 1 1 0.999559
0.999362 1 1 0.999362
1 1 1 1
0.999926 1 1 0.999926
0.999627 1 1 0.999627
0.999946 1 1 0.999946
1 1 1 1
1 1 1 1
1 1 1 1
1 1 1 1
1 1 1 1
0.999457 1 1 0.999457
0.999642 1 1 0.999642
0.999932 1 1 0.999932
0.99967 1 1 0.99967
1 1 1 1
0.99995 1 1 0.99995
0.999696 1 1 0.999696
1 1 1 1
1 1 1 1
0.999967 1 1 0.999967
1 1 1 1
1 1 1 1
1 1 1 1
1.00203 1.00092 1.00146 0.99966
1.01099 1.00917 1.002 0.999799
1.00293 1.00199 1.00128 0.999661
0.999467 1 1 0.999467
0.999368 1 1 0.999368
0.999325 1 1 0.999325
0.999367 1 1 0.999367
0.999314 1 1 0.999314
0.999472 1 1 0.999472
0.99938 1 1 0.99938
0.999388 1 1 0.999388
0.999321 1 1 0.999321
0.999334 1 1 0.999334
0.990428 0.991481 1.00093 0.998009
1.00318 0.998908 1.00537 0.998911
1.00751 1.00367 1.00441 0.999423
0.949709 0.983376 0.968434 0.997242
0.946536 0.963843 0.986183 0.995803
0.96799 0.97495 0.997 0.995849
0.977521 0.976252 1.00885 0.992517
0.967452 0.975331 0.995622 0.996284
0.982555 0.977759 1.01254 0.992465
0.947343 0.971775 0.979646 0.995113
0.936613 0.973291 0.965766 0.996427
0.982144 0.978928 1.00646 0.996846
0.974751 0.976309 1.00574 0.992701
0.929064 0.960522 0.972909 0.994183
0.903531 0.947301 0.958096 0.995511
0.999457 1 1 0.999457
0.9993 1 1 0.9993
0.99928 1 1 0.99928
0.999203 0.987091 1.01287 0.999407
0.996871 0.996718 1.00041 0.999748
0.999254 1 1 0.999254
0.999234 1 1 0.999234
0.999317 1 1.00003 0.999284
1.00249 0.998515 1.0046 0.999381
1.00752 0.985273 1.02288 0.999705
1.00375 1 1.00435 0.999397
1.0065 0.992897 1.01427 0.999439
0.992263 0.993438 1 0.998818
1.00255 1.00306 0.999712 0.999774
1.01002 1.01072 0.999408 0.9999
1.02181 0.990936 1.03131 0.999855
0.970537 0.981084 0.992008 0.99722
1.00252 1.00211 1.00075 0.999662
0.978372 0.97461 1.01276 0.991209
0.931193 0.959926 0.975649 0.994279
0.995811 0.996433 1.00141 0.997973
0.883883 0.932853 0.952373 0.994889
1.00358 0.988008 1.01598 0.99978
0.992627 0.99388 0.999993 0.998747
0.930543 0.948874 0.984407 0.996215
0.960982 0.976871 0.986224 0.997476
0.906891 0.939382 0.971098 0.994145
0.970185 0.969812 1.0085 0.991955
0.983933 0.988455 0.99607 0.999353
0.949247 0.955462 0.996448 0.997037
0.903144 0.931924 0.974847 0.994122
0.9733 0.970826 1.01011 0.992514
0.978855 0.98282 0.998402 0.99756
1.0178 0.997384 1.02097 0.999515
1.01532 1 1.01594 0.999396
0.993352 1 0.994273 0.999074
1.01418 1 1.01496 0.99923
1.00903 1 1.01026 0.998783
1.00199 1.00074 1.00272 0.998543
1.00996 1 1.0114 0.99858
1.0042 1 1.0058 0.998401
0.999175 1.00067 1.00003 0.998474
1.00341 1 1.00499 0.998427
1.00185 1.00103 1.00245 0.998369
1.00127 1.00275 1 0.998519
1.00008 1.00147 1 0.998613
0.99857 1 1.00002 0.998553
0.998643 1.00017 1 0.998472
0.998858 1 1 0.998858
0.999671 1 1.00104 0.998629
1.00083 1 1.00241 0.998426
0.999169 1 1 0.999169
0.999096 1 1.00002 0.99908
0.999258 1 1.00031 0.998952
0.999369 1 1 0.999369
0.999495 1 1.0003 0.999195
0.99984 1 1.00071 0.99913
0.999789 1 1 0.999789
0.999465 1 1 0.999465
0.9993 1 1 0.9993
1 1 1 1
0.999876 1 1 0.999876
0.99956 1 1 0.99956
1 1 1 1
1 1 1 1
0.999922 1 1 0.999922
1 1 1 1
1 1 1 1
1 1 1 1
0.999407 1 1 0.999407
0.999607 1 1 0.999607
0.999449 1 1 0.999449
0.99992 1 1 0.99992
0.999642 1 1 0.999642
1 1 1 1
0.999935 1 1 0.999935
0.99967 1 1 0.99967
1 1 1 1
1 1 1 1
0.999953 1 1 0.999953
1 1 1 1
1 1 1 1
1 1 1 1
0.993075 0.994111 1 0.998958
1.00129 1.00048 1.00115 0.999668
1.01113 1.0094 1.00188 0.999828
0.999319 1 1 0.999319
0.999474 1 1 0.999474
0.999358 1 1 0.999358
0.999377 1 1 0.999377
0.999335 1 1 0.999335
0.99931 1 1 0.99931
0.999266 1 1 0.999266
0.999296 1 1 0.999296
0.999389 1 1 0.999389
0.999316 1 1 0.999316
0.999331 1 1 0.999331
0.99934 1 1 0.99934
0.928793 0.949986 0.981716 0.9959
0.991289 0.99199 1.00129 0.998007
1.00455 0.999955 1.00567 0.998923
0.933138 0.972509 0.963214 0.996161
0.951875 0.974997 0.981518 0.994669
0.972093 0.972638 1.00721 0.992285
0.969621 0.974283 0.997839 0.99737
0.981869 0.9783 1.00557 0.998087
0.893824 0.939564 0.955912 0.995194
0.97995 0.97505 1.01325 0.991887
0.928424 0.960322 0.971388 0.99526
0.981394 0.983754 0.999344 0.998256
0.973673 0.97078 1.01003 0.993023
0.901226 0.934713 0.969028 0.99499
1.00007 1 1.00041 0.999658
0.999459 1 1 0.999459
0.9993 1 1 0.9993
1.00828 0.988056 1.02076 0.999713
1.00416 0.999729 1.00506 0.999376
0.999344 1 1.00005 0.999293
1.00404 1 1.00465 0.999401
1.00543 0.993317 1.01274 0.999466
1.00657 0.997637 1.00939 0.999567
0.946255 0.954505 0.994867 0.996471
0.992616 0.993573 0.999986 0.99905
1.00249 1.00294 0.999735 0.999812
1.00378 0.988193 1.01596 0.999815
0.961177 0.978565 0.98417 0.99803
0.99281 0.993882 1.00017 0.998755
0.975105 0.972399 1.00931 0.993536
0.911629 0.944002 0.970506 0.995055
0.923887 0.948047 0.978435 0.995995
0.983042 0.988936 0.994642 0.999396
0.9421 0.954384 0.990395 0.996702
0.913757 0.93384 0.983276 0.995136
0.978233 0.979775 1.00216 0.996277
0.968768 0.970611 1.0054 0.992737
0.973691 0.995723 0.978422 0.999439
0.91934 0.940613 0.982077 0.99522
0.969579 0.972644 1.00382 0.993055
0.990331 0.992033 1.00221 0.996078
1.01852 1 1.01914 0.999388
0.989771 1 0.990648 0.999115
0.981617 1.00104 0.981655 0.998926
1.00925 1 1.01043 0.99883
1.00209 1.00094 1.00261 0.998542
0.999927 1.00176 0.999428 0.998741
1.00352 1 1.00512 0.998408
0.99923 1.00037 1.00037 0.998488
1.00479 1.00604 1 0.998763
1.00167 1.00145 1.00185 0.99838
1.00112 1.0026 1 0.998524
1.003 1.00421 1 0.998791
1.0013 1.00248 1 0.998819
0.999192 1.00056 1 0.998629
1.00008 1.00145 1 0.998631
0.998721 1 1 0.998721
0.998579 1 1 0.998577
0.99871 1.00023 1 0.998481
0.999073 1 1 0.999073
0.998978 1 1.00012 0.99886
1.00001 1 1.00142 0.998595
0.999311 1 1 0.999311
0.999167 1 1 0.999167
0.999107 1 1 0.999107
0.999681 1 1 0.999681
0.999371 1 1 0.999371
0.999638 1 1.00044 0.999203
1 1 1 1
0.999787 1 1 0.999787
0.999465 1 1 0.999465
1 1 1 1
1 1 1 1
0.999873 1 1 0.999873
1 1 1 1
1 1 1 1
1 1 1 1
0.999397 1 1 0.999397
0.999409 1 1 0.999409
0.999562 1 1 0.999562
0.999904 1 1 0.999904
0.999607 1 1 0.999607
0.99944 1 1 0.99944
1 1 1 1
0.999922 1 1 0.999922
0.999642 1 1 0.999642
1 1 1 1
1 1 1 1
0.999938 1 1 0.999938
1 1 1 1
1 1 1 1
1 1 1 1
0.946092 0.952907 0.996153 0.996683
0.992298 0.993321 1 0.99897
1.00075 1.00023 1.00084 0.999676
0.999309 1 1 0.999309
0.999292 1 1 0.999292
0.999263 1 1 0.999263
0.999388 1 1 0.999388
0.999346 1 1 0.999346
0.999306 1 1 0.999306
0.999295 1 1 0.999295
0.999265 1 1 0.999265
0.999208 1 1 0.999208
0.999328 1 1 0.999328
0.999327 1 1 0.999327
0.999341 1 1 0.999341
0.910926 0.933177 0.980932 0.995131
0.927867 0.947236 0.983655 0.995829
0.991839 0.992121 1.00171 0.998006
0.884142 0.931885 0.953652 0.994877
0.926925 0.957862 0.973379 0.994169
0.987256 0.98096 1.01268 0.993815
0.986093 0.977213 1.0124 0.996729
0.978913 0.981278 1.00062 0.996968
0.904723 0.935228 0.973127 0.994096
0.973394 0.971048 1.00919 0.993292
0.982723 0.982724 1.00278 0.99723
0.972993 0.973888 1.00636 0.99277
1.0075 1 1.00819 0.999318
0.999908 1 1.00027 0.999641
0.999461 1 1 0.999461
1.00169 0.991295 1.011 0.999491
1.00434 1 1.00494 0.999405
1.00712 0.99847 1.00918 0.999494
1.00115 1.00067 1.00146 0.999014
0.916232 0.94264 0.976971 0.994897
0.947804 0.954064 0.996609 0.99682
0.993248 0.994043 0.999918 0.999282
0.981202 0.989219 0.992445 0.999446
0.978237 0.979645 1.00133 0.997234
0.943017 0.954978 0.990722 0.996723
0.972571 0.971122 1.00898 0.992575
0.91174 0.935993 0.97974 0.994231
0.977224 0.996252 0.981606 0.999282
0.919528 0.940998 0.982457 0.994632
0.970712 0.972235 1.00578 0.992696
0.991277 0.988789 1.00534 0.997196
0.992281 1.00265 0.990437 0.999213
0.958667 0.971354 0.994712 0.992185
0.993725 0.994945 1.00102 0.99776
0.986154 1 0.986987 0.999156
0.982652 1.00113 0.982617 0.998908
0.982739 1.00259 0.981282 0.998899
1.00184 1.0011 1.0022 0.998541
0.999623 1.00222 0.998673 0.998737
1.00485 1.0085 0.997314 0.999059
0.999338 1.00012 1.00071 0.998502
1.00529 1.00654 1 0.998761
1.00867 1.00967 1 0.999008
1.00098 1.00246 1 0.99853
1.0027 1.00392 1 0.99879
1.00317 1.00421 1 0.998958
1.00094 1.00202 1 0.998919
1.0012 1.00236 1 0.998841
0.999663 1.00087 1 0.998792
0.998847 1.00013 1 0.998716
0.999171 1.00054 1 0.998632
1.00001 1.00136 1 0.998648
0.998902 1 1 0.998902
0.998748 1 1 0.998748
0.998605 1 1 0.998602
0.999246 1 1 0.999246
0.999069 1 1 0.999069
0.99901 1 1.00015 0.998861
0.999598 1 1 0.999598
0.999312 1 1 0.999312
0.999164 1 1 0.999164
0.999996 1 1 0.999996
0.999681 1 1 0.999681
0.999373 1 1 0.999373
1 1 1 1
1 1 1 1
0.999785 1 1 0.999785
1 1 1 1
1 1 1 1
1 1 1 1
0.999349 1 1 0.999349
0.999384 1 1 0.999384
0.999516 1 1 0.999516
0.999412 1 1 0.999412
0.999562 1 1 0.999562
0.999871 1 1 0.999871
1 1 1 1
0.999905 1 1 0.999905
0.999607 1 1 0.999607
1 1 1 1
1 1 1 1
0.999924 1 1 0.999924
1 1 1 1
1 1 1 1
1 1 1 1
0.925315 0.94068 0.989075 0.994532
0.944208 0.953623 0.993657 0.996448
0.991147 0.992157 1 0.998982
0.9993 1 1 0.9993
0.99925 1 1 0.99925
0.999304 1 1 0.999304
0.999248 1 1 0.999248
0.999233 1 1 0.999233
0.999294 1 1 0.999294
0.999264 1 1 0.999264
0.999214 1 1 0.999214
0.999181 1 1 0.999181
0.999215 1 1 0.999215
0.999186 1 1.00026 0.998929
0.999337 1 1 0.999337
0.999342 1 1 0.999342
0.968572 0.977481 0.998913 0.991963
0.916419 0.935056 0.985229 0.994762
0.928746 0.948541 0.983353 0.995707
0.905259 0.934747 0.973315 0.995005
0.976173 0.970823 1.01404 0.991586
0.981076 0.98048 1.00228 0.998329
0.98572 0.985679 1.0021 0.997944
0.971878 0.974707 1.00403 0.993091
0.98903 0.997388 0.994543 0.99706
1.00565 1.00132 1.0057 0.99864
1.00596 1 1.00666 0.999304
0.999624 1 1 0.999624
1.00711 0.999653 1.00804 0.999427
1.00018 1.00101 1.00017 0.998993
0.950808 0.97012 0.986962 0.99304
0.920501 0.942288 0.98239 0.994389
0.950184 0.953825 0.999009 0.997171
0.981003 0.997328 0.984498 0.99912
0.990792 0.987745 1.007 0.996112
0.920439 0.93997 0.984784 0.994351
0.9731 0.973208 1.00692 0.993021
0.989942 1.0035 0.987284 0.999197
0.96139 0.972718 0.9951 0.993221
0.996153 0.997167 1.0024 0.996589
1.00333 1.00709 0.997445 0.998821
0.994922 0.996787 0.999642 0.998486
0.983133 1.00126 0.982988 0.99889
0.985577 1.00225 0.98448 0.998864
1.00332 1.01482 0.989736 0.998926
0.999472 1.00258 0.998164 0.998732
1.00345 1.00712 0.997305 0.999051
1.01042 1.01436 0.997012 0.999107
1.00571 1.00696 1 0.998758
1.00901 1.01004 0.999984 0.998995
1.00655 1.00755 0.999987 0.999019
1.00244 1.00366 1 0.99879
1.00322 1.00428 1 0.998947
1.00222 1.00329 1 0.998934
1.00093 1.00199 1 0.998946
0.999699 1.00085 1 0.99885
1.00116 1.0023 1 0.998864
0.999661 1.00087 1 0.998788
0.998811 1.00004 1 0.998774
0.998818 1 1 0.998818
0.998803 1.00009 1 0.998711
0.999142 1.00051 1 0.998635
0.999137 1 1 0.999137
0.99892 1 1 0.99892
0.998775 1 1 0.998775
0.999536 1 1 0.999536
0.999243 1 1 0.999243
0.999065 1 1 0.999065
0.999979 1 1 0.999979
0.999599 1 1 0.999599
0.999313 1 1 0.999313
1 1 1 1
0.999992 1 1 0.999992
0.999681 1 1 0.999681
1 1 1 1
0.999999 1 1 0.999999
1 1 1 1
0.999273 1 1 0.999273
0.99935 1 1 0.99935
0.999441 1 1 0.999441
0.999372 1 1 0.999372
0.999502 1 1 0.999502
0.999806 1 1 0.999806
0.999562 1 1 0.999562
0.999872 1 1 0.999872
1 1 1 1
1 1 1 1
1 1 1 1
0.999907 1 1 0.999907
1 1 1 1
1 1 1 1
1 1 1 1
0.965327 0.974658 0.997287 0.99312
0.920417 0.943574 0.980314 0.995047
0.948727 0.955327 0.996536 0.996543
0.999237 1 1 0.999237
0.999316 1 1 0.999316
0.99924 1 1 0.99924
0.99925 1 1 0.99925
0.999154 1 1 0.999154
0.999227 1 1 0.999227
0.99922 1 1 0.99922
0.999147 1 1 0.999147
0.999199 1 1 0.999199
0.999086 1 1 0.999086
1.00012 1.00115 1 0.998966
0.999076 1.0005 1.00011 0.998464
0.999306 1.00029 1.00006 0.998958
0.999346 1 1 0.999346
0.986433 0.993594 0.995522 0.997258
0.967552 0.97513 0.999419 0.992806
0.910698 0.935971 0.978659 0.994216
0.973799 0.973494 1.00776 0.992615
0.982337 0.986152 0.997542 0.998585
0.992355 0.997018 0.997041 0.998277
0.996422 1.00479 0.992849 0.998816
1.00278 1.00067 1.00337 0.998735
1.00491 1 1.00563 0.999289
0.998017 1.00112 0.997932 0.998966
0.981818 0.986386 0.998363 0.997001
0.958232 0.971489 0.992839 0.993468
0.918543 0.941939 0.97982 0.995246
0.989333 1.00448 0.985725 0.999179
1.00154 0.998062 1.006 0.997502
0.961119 0.972746 0.993714 0.994298
0.997402 1.00556 0.993046 0.998836
0.993452 0.996702 0.998717 0.998019
1.00999 1.0188 0.992647 0.998695
1.01043 1.0141 0.997705 0.998668
0.988718 1.00203 0.987872 0.998829
1.00459 1.01441 0.991386 0.998922
1.01252 1.01748 0.996209 0.99891
1.00223 1.00598 0.997221 0.999044
1.01067 1.01409 0.997533 0.999099
1.00851 1.01066 0.99896 0.998909
1.00936 1.01042 0.999965 0.998982
1.00586 1.00688 0.999983 0.999007
1.00405 1.00523 1 0.998829
1.00323 1.0043 1 0.998937
1.00199 1.00305 1 0.998943
1.00053 1.00173 1 0.998798
1.00088 1.00191 1 0.998973
0.999704 1.00084 1 0.998865
0.998835 1.00006 1 0.998779
0.999675 1.00089 1 0.998784
0.998824 1.00006 1 0.998769
0.998828 1 1 0.998828
0.99901 1 1 0.99901
0.998835 1 1 0.998835
0.998766 1.00006 1 0.998705
0.999454 1 1 0.999454
0.999136 1 1 0.999136
0.998939 1 1 0.998939
0.999948 1 1 0.999948
0.999536 1 1 0.999536
0.99924 1 1 0.99924
1 1 1 1
0.999971 1 1 0.999971
0.9996 1 1 0.9996
1 1 1 1
0.999988 1 1 0.999988
1 1 1 1
0.999191 1 1 0.999191
0.999283 1 1 0.999283
0.999377 1 1 0.999377
0.999351 1 1 0.999351
0.999433 1 1 0.999433
0.99972 1 1 0.99972
0.999488 1 1 0.999488
0.999807 1 1 0.999807
1 1 1 1
0.999873 1 1 0.999873
1 1 1 1
1 1 1 1
1 1 1 1
1 1 1 1
1 1 1 1
0.979468 0.986272 0.995773 0.997317
0.959114 0.972058 0.993697 0.992942
0.91833 0.943516 0.978916 0.99427
0.999018 1 1 0.999018
0.999247 1 1 0.999247
0.999253 1 1 0.999253
0.999222 1 1 0.999222
0.999147 1 1 0.999147
0.999238 1 1 0.999238
0.999114 1 1 0.999114
0.999183 1 1 0.999183
0.999116 1 1 0.999116
0.9996 1.00062 1 0.998985
1.0001 1.00151 1 0.998592
1.00386 1.00568 0.999994 0.9982
0.999395 1.00082 1.00013 0.99845
0.999564 1.00058 1 0.998987
1.00078 1.00629 0.995415 0.999098
0.987967 0.995132 0.996053 0.996734
0.970798 0.976995 0.999883 0.993773
0.992986 0.997028 0.998687 0.997255
1.00144 1.00652 0.996055 0.998886
1.00134 1.0002 1.00231 0.998831
1.00537 1.00659 0.999919 0.998862
0.981869 0.985341 0.998563 0.99791
0.955966 0.971544 0.990823 0.99308
0.990856 1.0037 0.988343 0.99885
0.9926 0.996397 0.998693 0.997494
1.01057 1.01921 0.992829 0.998687
1.00958 1.01226 0.998598 0.998759
1.01884 1.02263 0.997646 0.998648
1.0125 1.01466 0.999293 0.998578
1.0056 1.0137 0.993079 0.998918
1.01369 1.01849 0.99636 0.998919
1.00707 1.00933 0.999 0.998766
1.01089 1.01378 0.998059 0.99909
1.00952 1.01139 0.99924 0.998907
1.00496 1.0063 0.99998 0.998686
1.00522 1.00624 0.999981 0.998996
1.00389 1.00504 1 0.99885
1.00234 1.00368 1 0.998664
1.00179 1.00284 1 0.998952
1.00049 1.00169 1 0.998798
0.999135 1.00042 1 0.998712
0.999729 1.00085 1 0.99888
0.998902 1.00012 1 0.998784
0.998782 1 1 0.998782
0.99882 1.00006 1 0.998764
0.998816 1 1 0.998816
0.998962 1 1 0.998962
0.999362 1 1 0.999362
0.999028 1 1 0.999028
0.998852 1 1 0.998852
0.999904 1 1 0.999904
0.999453 1 1 0.999453
0.999135 1 1 0.999135
1 1 1 1
0.999939 1 1 0.999939
0.999535 1 1 0.999535
1 1 1 1
0.999963 1 1 0.999963
1 1 1 1
0.999061 1 1 0.999061
0.999193 1 1 0.999193
0.999311 1 1 0.999311
0.999292 1 1 0.999292
0.999383 1 1 0.999383
0.99964 1 1 0.99964
0.999424 1 1 0.999424
0.99972 1 1 0.99972
0.999998 1 1 0.999998
0.999808 1 1 0.999808
1 1 1 1
1 1 1 1
1 1 1 1
1 1 1 1
1 1 1 1
1.00608 1.00985 0.997094 0.99917
0.979498 0.987505 0.995581 0.996295
0.962921 0.971759 0.997656 0.993234
0.999065 1 1 0.999065
0.998923 1.00014 1 0.99878
0.999037 1 1 0.999037
0.999217 1 1 0.999217
0.999141 1 1 0.999141
0.999208 1 1 0.999208
1.0009 1.0022 1 0.99871
0.999146 1 1 0.999146
0.999004 1 1 0.999004
1.0002 1.00158 1 0.998621
1.00325 1.00502 1 0.99824
1.00983 1.01193 0.999425 0.998496
1.00259 1.00443 0.999962 0.998209
0.999629 1.00119 1 0.998436
1.00372 1.00897 0.995649 0.999146
0.986426 0.994431 0.995842 0.996092
1.00463 1.00773 0.997968 0.998956
1.00995 1.01108 0.999894 0.998983
1.00388 1.00535 0.99963 0.998912
0.978647 0.98512 0.996687 0.996732
1.01114 1.01988 0.99274 0.998682
1.00817 1.0103 0.999039 0.998851
1.01854 1.02277 0.997181 0.99868
1.01399 1.01596 0.999462 0.998603
1.00915 1.01198 0.998557 0.998648
1.01371 1.01498 1 0.998758
1.01483 1.01961 0.996387 0.998928
1.00695 1.00941 0.998793 0.998771
1.00672 1.00851 0.999625 0.998594
1.01042 1.01203 0.999508 0.998905
1.00485 1.00617 0.999998 0.998693
1.00488 1.00633 1 0.99856
1.0037 1.00483 1 0.998871
1.00222 1.00356 1 0.998662
1.00016 1.00156 1 0.998602
1.00041 1.00161 1 0.998798
0.999344 1.00063 1 0.998712
0.998716 1 1 0.998714
0.998969 1.00018 1 0.99879
0.998783 1 1 0.998783
0.998908 1 1 0.998908
0.998804 1 1 0.998804
0.998956 1 1 0.998956
0.999287 1 1 0.999287
0.999857 1 1 0.999857
0.999361 1 1 0.999361
0.999047 1 1 0.999047
1 1 1 1
0.999895 1 1 0.999895
0.999452 1 1 0.999452
1 1 1 1
0.99993 1 1 0.99993
1 1 1 1
0.998864 1 1 0.998864
0.999041 1 1 0.999041
0.999199 1 1 0.999199
0.999195 1 1 0.999195
0.999313 1 1 0.999313
0.99957 1 1 0.99957
0.999389 1 1 0.999389
0.99964 1 1 0.99964
0.999982 1 1 0.999982
0.99972 1 1 0.99972
0.999999 1 1 0.999999
1 1 1 1
1 1 1 1
1 1 1 1
1 1 1 1
1.00909 1.01101 0.999252 0.998839
1.00516 1.00907 0.997047 0.999072
0.978944 0.986214 0.995599 0.997015
1.00094 1.00221 1 0.998734
0.999168 1 1 0.999168
1.00073 1.00213 1 0.998603
0.998844 1.00008 1 0.998768
0.999055 1 1 0.999055
1.00709 1.00875 1 0.998355
0.999179 1 1 0.999179
1.00087 1.00219 1 0.998681
1.00813 1.00979 1 0.998362
1.00027 1.00163 1 0.998651
1.00402 1.00582 1 0.998217
1.00774 1.00971 0.999557 0.998496
1.00097 1.00276 1 0.998217
1.00604 1.01094 0.995954 0.999194
1.0131 1.01425 1 0.998869
1.01008 1.01122 0.999894 0.998979
1.00289 1.00408 0.999858 0.99896
1.01851 1.02312 0.996781 0.998712
1.01556 1.01735 0.999609 0.998628
1.00968 1.01231 0.998742 0.998655
1.01411 1.01537 1 0.998766
1.01211 1.01345 1 0.998674
1.00688 1.0095 0.998633 0.998776
1.00668 1.00828 0.999819 0.9986
1.00802 1.0095 1 0.998527
1.00475 1.00606 1 0.998701
1.00447 1.00593 1 0.998553
1.00228 1.00378 1 0.998507
1.00211 1.00346 1 0.99866
1.00041 1.00182 1 0.998599
0.998731 1.00011 1 0.998621
0.999564 1.00085 1 0.998711
0.998733 1.00002 1 0.998713
0.998828 1 1 0.998828
0.998784 1 1 0.998784
0.998909 1 1 0.998909
0.999218 1 1 0.999218
0.99895 1 1 0.99895
0.999286 1 1 0.999286
0.999833 1 1 0.999833
0.99998 1 1 0.99998
0.999854 1 1 0.999854
0.999361 1 1 0.999361
1 1 1 1
0.999886 1 1 0.999886
1 1 1 1
1.00138 1.00274 1 0.998641
0.998818 1.00006 1 0.998759
0.998844 1 1 0.998844
0.999083 1 1 0.999083
0.999021 1 1 0.999021
0.999202 1 1 0.999202
0.9995 1 1 0.9995
0.999314 1 1 0.999314
0.999571 1 1 0.999571
0.999949 1 1 0.999949
0.999639 1 1 0.999639
0.999988 1 1 0.999988
1 1 1 1
1 1 1 1
1 1 1 1
1 1 1 1
1.01149 1.01284 1 0.998669
1.01213 1.0138 0.999454 0.998898
1.00544 1.00943 0.997069 0.998974
1.00562 1.00719 1 0.998448
1.0002 1.0014 1 0.998801
0.99927 1 1 0.99927
1.00095 1.00232 1 0.998627
0.998756 1 1 0.998756
1.01271 1.01441 1 0.998327
1.00675 1.00843 1 0.998326
1.00089 1.00224 1 0.998652
1.00878 1.01045 1 0.998355
1.00541 1.00723 1 0.998194
1.00733 1.00927 0.999581 0.998496
1.01535 1.01661 1 0.998756
1.01305 1.01421 1 0.998863
1.01049 1.01161 0.99992 0.998976
1.01009 1.01254 0.998913 0.998661
1.01483 1.01607 1 0.998774
1.01268 1.01409 0.999916 0.998685
1.0125 1.01394 1 0.998573
1.00667 1.00808 1 0.998605
1.00746 1.00895 1 0.998523
1.00549 1.00702 1 0.998477
1.00407 1.00553 1 0.998545
1.00245 1.00395 1 0.998506
0.999175 1.00064 1 0.99854
1.00066 1.00207 1 0.998597
0.998842 1.00022 1 0.99862
0.998743 1 1 0.998743
0.99875 1.00004 1 0.998713
0.998828 1 1 0.998828
0.999139 1 1 0.999139
0.99891 1 1 0.99891
0.999217 1 1 0.999217
0.999814 1 1 0.999814
0.999286 1 1 0.999286
0.999827 1 1 0.999827
0.999976 1 1 0.999976
0.99999 1 1 0.99999
0.999851 1 1 0.999851
1 1 1 1
1.00315 1.00468 1 0.998468
0.998829 1.00008 1 0.998747
1.00105 1.00232 1 0.99873
0.998959 1 1 0.998959
0.998907 1.00015 1 0.998756
0.998824 1 1 0.998824
0.999084 1 1 0.999084
0.999413 1 1 0.999413
0.999206 1 1 0.999206
0.999502 1 1 0.999502
0.99991 1 1 0.99991
0.999572 1 1 0.999572
0.999959 1 1 0.999959
1 1 1 1
0.999993 1 1 0.999993
1 1 1 1
1 1 1 1
1.01437 1.01584 1 0.998548
1.011 1.01235 1 0.998667
1.01362 1.01505 0.999638 0.998954
1.01032 1.01198 1 0.998358
1.00532 1.00689 1 0.99845
0.999474 1.0006 1 0.998869
1.00117 1.00252 1 0.998652
1.01242 1.01412 1 0.998323
1.00629 1.008 1 0.998296
1.00823 1.0099 1 0.998347
1.01405 1.01544 1 0.998626
1.01508 1.01638 1 0.998728
1.0125 1.01366 1 0.998856
1.01288 1.01437 1 0.998529
1.01306 1.01455 0.999839 0.998696
1.01242 1.01387 1 0.998573
1.00894 1.01045 1 0.998503
1.00691 1.0084 1 0.998519
1.0056 1.00714 1 0.998479
1.00063 1.00214 1 0.99849
1.0026 1.0041 1 0.998506
0.99954 1.001 1 0.99854
0.998672 1 1 0.998672
0.998951 1.00033 1 0.998619
0.998742 1 1 0.998742
0.99906 1 1 0.99906
0.998828 1 1 0.998828
0.999137 1 1 0.999137
0.999795 1 1 0.999795
0.999216 1 1 0.999216
0.999809 1 1 0.999809
0.999974 1 1 0.999974
0.999822 1 1 0.999822
0.999977 1 1 0.999977
1 1 1 1
1.00478 1.00642 1 0.998371
0.999478 1.00091 1 0.998565
1.00299 1.00449 1 0.998499
0.998891 1 1 0.998891
0.998907 1.00016 1 0.998744
1.00072 1.0019 1 0.998817
0.99929 1 1 0.99929
0.998957 1 1 0.998957
0.998996 1.00024 1 0.998753
0.999085 1 1 0.999085
0.999414 1 1 0.999414
0.999866 1 1 0.999866
0.999503 1 1 0.999503
0.99992 1 1 0.99992
1 1 1 1
0.99997 1 1 0.99997
1 1 1 1
1 1 1 1
1.01263 1.01416 1 0.998489
1.01449 1.01598 1 0.998529
1.01143 1.01278 1 0.998665
1.01019 1.01185 1 0.998358
1.00502 1.00657 1 0.998453
1.0123 1.014 1 0.998319
1.01238 1.01387 1 0.998529
1.0142 1.0156 1 0.998623
1.01503 1.01635 1 0.998699
1.01311 1.0146 1 0.998535
1.01007 1.01161 1 0.998479
1.01233 1.01378 1 0.998572
1.00896 1.01048 1 0.998497
1.00257 1.00409 1 0.998482
1.00573 1.00726 1 0.99848
1.00102 1.00253 1 0.998492
0.99868 1.00007 1 0.99861
0.999916 1.00138 1 0.99854
0.998671 1 1 0.998671
0.999004 1 1 0.999004
0.998742 1 1 0.998742
0.999059 1 1 0.999059
0.999772 1 1 0.999772
0.999135 1 1 0.999135
0.999789 1 1 0.999789
0.999968 1 1 0.999968
0.999805 1 1 0.999805
0.999976 1 1 0.999976
0.999977 1 1 0.999977
1.00753 1.00909 1 0.99846
1.00015 1.00171 1 0.998442
1.00468 1.00632 1 0.998366
0.998744 1 1 0.998744
0.999303 1.00073 1 0.998577
1.00281 1.00428 1 0.998531
0.999173 1 1 0.999173
0.998859 1 1 0.998859
0.998998 1.00026 1 0.998742
0.999813 1 1 0.999813
0.999292 1 1 0.999292
0.998955 1 1 0.998955
0.999415 1 1 0.999415
0.999874 1 1 0.999874
1 1 1 1
0.99993 1 1 0.99993
1 1 1 1
1 1 1 1
1.01113 1.01267 1 0.998472
1.01255 1.01408 1 0.998485
1.01444 1.01596 1 0.998511
1.01006 1.01172 1 0.998359
1.01052 1.01209 1 0.998453
1.0128 1.01428 1 0.998535
1.01436 1.01576 1 0.99862
1.01332 1.0148 1 0.998541
1.01002 1.01156 1 0.998482
1.00382 1.00535 1 0.998476
1.009 1.01053 1 0.998491
1.0027 1.00422 1 0.998486
0.998997 1.00044 1 0.99856
1.0014 1.00291 1 0.998494
0.99877 1.00016 1 0.998611
0.998952 1 1 0.998952
0.998671 1 1 0.998671
0.999003 1 1 0.999003
0.999729 1 1 0.999729
0.999058 1 1 0.999058
0.999758 1 1 0.999758
1 1 1 1
0.999784 1 1 0.999784
0.999971 1 1 0.999971
0.999977 1 1 0.999977
1.00755 1.00908 1 0.998483
1.00095 1.00249 1 0.998468
1.00753 1.00908 1 0.998462
0.998621 1.00003 1 0.998596
0.999939 1.00148 1 0.998458
1.00458 1.00623 1 0.998362
0.99902 1 1 0.99902
0.998743 1 1 0.998743
0.999149 1.00056 1 0.998589
0.999767 1 1 0.999767
0.999145 1 1 0.999145
0.998827 1 1 0.998827
1 1 1 1
0.999823 1 1 0.999823
0.999294 1 1 0.999294
0.999882 1 1 0.999882
1 1 1 1
1 1 1 1
1.00974 1.01131 1 0.998457
1.01156 1.0131 1 0.998481
1.01246 1.014 1 0.998482
1.00453 1.0061 1 0.998431
1.01003 1.0116 1 0.998452
1.01322 1.01471 1 0.99854
1.00998 1.01151 1 0.998484
1.00384 1.00538 1 0.998476
0.999651 1.00108 1 0.998571
1.00284 1.00436 1 0.99849
0.999135 1.00055 1 0.998587
0.998847 1 1 0.998847
0.998865 1.00025 1 0.998612
0.998952 1 1 0.998952
0.999693 1 1 0.999693
0.999002 1 1 0.999002
0.999727 1 1 0.999727
1 1 1 1
0.999743 1 1 0.999743
0.999982 1 1 0.999982
0.999974 1 1 0.999974
1.00588 1.00741 1 0.998484
1.00101 1.00251 1 0.998504
1.00752 1.00905 1 0.998484
0.998635 1.00003 1 0.998603
1.00114 1.00267 1 0.998471
1.00754 1.00909 1 0.998464
0.998933 1 1 0.998933
0.998646 1.00002 1 0.998631
0.999713 1.00124 1 0.998474
0.999736 1 1 0.999736
0.999009 1 1 0.999009
0.998741 1 1 0.998741
1 1 1 1
0.999775 1 1 0.999775
0.999117 1 1 0.999117
1 1 1 1
0.999832 1 1 0.999832
1 1 1 1
1.00428 1.00583 1 0.998453
1.00937 1.01093 1 0.998457
1.01202 1.01355 1 0.998489
0.999432 1.0009 1 0.998536
1.00449 1.00607 1 0.998437
1.00958 1.01115 1 0.998451
1.00388 1.00541 1 0.998476
0.999637 1.00107 1 0.99857
0.998795 1 1 0.998795
0.999267 1.00065 1 0.998614
0.998873 1 1 0.998873
0.999637 1 1 0.999637
0.998951 1 1 0.998951
0.99969 1 1 0.99969
1 1 1 1
0.999725 1 1 0.999725
1 1 1 1
0.999968 1 1 0.999968
1.00135 1.00284 1 0.998514
1.00584 1.00737 1 0.998484
0.998608 1.00001 1 0.998603
1.00108 1.00258 1 0.998504
1.00747 1.009 1 0.998484
0.998938 1 1 0.998938
0.998644 1.00004 1 0.998601
1.00132 1.00286 1 0.998473
0.999712 1 1 0.999712
0.998952 1 1 0.998952
0.998666 1 1 0.998665
1 1 1 1
0.999741 1 1 0.999741
0.998997 1 1 0.998997
1 1 1 1
0.999783 1 1 0.999783
1 1 1 1
0.999136 1.00057 1 0.998563
1.00413 1.00568 1 0.998454
1.00893 1.01049 1 0.998457
0.998774 1 1 0.998774
0.999424 1.00089 1 0.998536
1.00442 1.00599 1 0.998442
0.999622 1.00105 1 0.99857
0.9988 1 1 0.9988
0.999586 1 1 0.999586
0.998899 1 1 0.998899
0.999634 1 1 0.999634
1 1 1 1
0.999688 1 1 0.999688
1 1 1 1
1 1 1 1
0.998634 1.00005 1 0.998588
1.00126 1.00275 1 0.998509
1.0058 1.00733 1 0.998483
0.998914 1 1 0.998914
0.998632 1.00003 1 0.998602
1.00114 1.00264 1 0.998504
0.999685 1 1 0.999685
0.998937 1 1 0.998937
0.998658 1.00006 1 0.998598
1 1 1 1
0.999715 1 1 0.999715
0.998971 1 1 0.998971
1 1 1 1
0.999746 1 1 0.999746
1 1 1 1
0.998831 1 1 0.998831
0.999114 1.00058 1 0.998537
1.00401 1.00557 1 0.998456
0.999566 1 1 0.999566
0.998776 1 1 0.998776
0.999418 1.00088 1 0.998536
0.998806 1 1 0.998806
0.999584 1 1 0.999584
1 1 1 1
0.999631 1 1 0.999631
1 1 1 1
1 1 1 1
0.998876 1 1 0.998876
0.998613 1.00004 1 0.998578
1.00117 1.00267 1 0.998503
0.99969 1 1 0.99969
0.998913 1 1 0.998913
0.998656 1.00006 1 0.9986
1 1 1 1
0.999686 1 1 0.999686
0.998936 1 1 0.998936
1 1 1 1
0.999718 1 1 0.999718
1 1 1 1
0.999565 1 1 0.999565
0.998812 1 1 0.998812
0.999093 1.00058 1 0.99851
1 1 1 1
0.999565 1 1 0.999565
0.998777 1 1 0.998777
0.999582 1 1 0.999582
1 1 1 1
1 1 1 1
0.999646 1 1 0.999646
0.998876 1 1 0.998876
0.998591 1.00002 1 0.998567
1 1 1 1
0.999653 1 1 0.999653
0.998911 1 1 0.998911
1 1 1 1
0.999687 1 1 0.999687
1 1 1 1
0.999898 1 1 0.999898
0.999601 1 1 0.999601
0.998792 1 1 0.998792
1 1 1 1
0.999565 1 1 0.999565
1 1 1 1
0.999916 1 1 0.999916
0.999632 1 1 0.999632
0.998876 1 1 0.998876
0.999963 1 1 0.999963
0.999651 1 1 0.999651
1 1 1 1
1 1 1 1
0.999577 1 1 0.999577
1 1 1 1
0.999954 1 1 0.999954
0.99961 1 1 0.99961
1 1 1 1
1 1 1 1
1 1 1 1

VECTORS lamdaE float
0.999375 1.00028 0.996039
0.999371 0.999803 0.998355
0.999213 1.00046 0.996147
0.999733 0.999924 0.995929
0.999511 1.00014 0.99603
0.999309 1.00014 0.996192
1.0004 1.00071 0.993573
0.999362 0.999679 0.998407
0.999377 1.00034 0.998305
0.999079 1.00027 0.998459
0.99944 0.999369 0.996798
1.00012 1.00084 0.993584
0.999879 1.00001 0.995544
0.999567 0.999911 0.995949
0.999051 1.00069 0.996235
0.999598 0.999899 0.996056
0.99918 1.00031 0.996279
0.999345 1.00026 0.996139
1.00049 1.00063 0.993547
0.999831 1 0.997987
0.999776 0.999966 0.995792
0.999657 0.999974 0.995997
1.00097 0.999907 0.993399
1.00069 1.0003 0.993496
0.999361 0.999658 0.996528
1.00002 1.00103 0.993845
1.00237 1.00082 0.990033
0.99934 0.999557 0.998468
0.999471 1.0002 0.997087
0.999199 1.00023 0.997312
0.999398 0.999191 0.99857
1.00002 1.00095 0.993596
0.999726 0.999942 0.995829
0.999446 1.00047 0.995974
1.001 1.00027 0.993669
0.999325 0.998585 0.998906
1.00043 1.00078 0.994151
0.999917 1.00068 0.994085
1.00116 1.00201 0.990576
0.99942 0.997957 0.999105
0.999876 1.00001 0.997945
0.999674 0.999971 0.996996
0.999906 1 0.997915
0.999581 1 0.995897
1.00133 1.00005 0.992087
0.9996 0.99998 0.998259
1.00126 0.99999 0.993468
0.999463 0.999852 0.996184
0.99919 1.00039 0.996235
0.999028 1.00054 0.996385
1.00058 1.0005 0.99353
0.999766 1.00001 0.996875
0.999637 0.999946 0.995937
0.999249 0.999771 0.996618
0.999509 1 0.996114
1.00103 0.999871 0.993349
1.00012 1.00095 0.99384
1.00078 1.00022 0.99346
1.0024 1.00087 0.989974
0.999859 1 0.997955
0.999844 1.00001 0.995627
1.0012 1 0.993473
1.00101 0.999964 0.993258
1.0009 0.999997 0.993443
1.0032 0.999799 0.989537
1.00286 1.00016 0.989516
0.999506 0.998935 0.996979
0.999589 1.00104 0.994498
1.00158 1.00159 0.990617
1.00343 1.00073 0.987666
0.999565 1.0002 0.998143
0.999383 0.998992 0.998686
0.999302 1.00001 0.998327
0.999939 1.00104 0.993605
0.999745 1.00004 0.998104
0.999458 1.00032 0.998182
1.0009 1.00024 0.992614
0.999371 0.998671 0.998094
1.00025 1.00088 0.993222
0.999834 1.00069 0.994626
1.00115 1.00197 0.990573
0.999436 0.998271 0.998957
0.999592 0.999206 0.996171
1.00117 0.999935 0.9925
1.00071 1.00058 0.992764
1.0031 1.00025 0.988672
0.999702 1.0002 0.995715
1.0018 1.00143 0.989956
1.00061 1.00245 0.991162
1.0018 1.00231 0.98898
0.999451 0.997635 0.999204
0.999395 0.997899 0.999142
0.999785 0.99997 0.998066
0.999847 1 0.997975
0.999905 1 0.997923
0.999702 0.999995 0.996937
1.00133 1.00004 0.992706
0.999678 0.999955 0.997023
1.00122 1.00001 0.992947
0.999916 1 0.997917
1.00133 0.999994 0.992092
1.0013 1.00007 0.993354
1.0036 0.999867 0.988162
1.00123 0.999921 0.993557
1.00345 0.999867 0.988455
0.999849 1.00002 0.995614
0.999492 0.9999 0.996087
0.999134 0.999864 0.996729
0.999365 1.00003 0.996225
1.00109 0.999858 0.993299
1.00086 1.00014 0.99343
1.00022 1.00082 0.993826
1.00244 1.00092 0.989916
0.999894 1 0.997934
0.99969 1 0.995782
1.00127 0.999996 0.992524
1.00107 0.999934 0.993209
0.999412 0.998994 0.997821
0.999763 1.00094 0.994627
1.00096 0.999952 0.993398
1.00321 0.999779 0.989411
1.00166 1.00165 0.990509
1.00287 1.00024 0.989609
1.0034 1.00074 0.987682
1.00131 1.00002 0.992136
1.00112 0.999991 0.993028
1.00353 0.999788 0.988677
1.00323 0.99983 0.98916
1.00315 0.999815 0.989349
1.00432 0.999464 0.987535
0.999479 0.99845 0.998857
1.00393 0.999987 0.987475
0.999657 1.00064 0.994539
1.00068 1.00219 0.991104
1.00267 1.00187 0.988031
1.00414 1.00035 0.986726
0.999691 0.999735 0.995384
1.00013 1.00162 0.992773
0.999712 1.00007 0.998109
0.999368 1.00024 0.99823
1.0009 1.00022 0.992625
0.999394 0.99851 0.998898
0.999717 1.00082 0.994232
1.00017 1.00096 0.993218
1.00115 1.00195 0.990569
0.999401 0.998213 0.999012
0.999597 0.999137 0.996206
1.00117 0.999964 0.99305
1.00064 1.00058 0.993352
1.00311 1.00025 0.988676
0.999655 1.00019 0.995053
1.00178 1.00141 0.989975
1.00057 1.00245 0.991164
1.00181 1.0023 0.988915
0.999588 0.99973 0.995643
0.999677 0.998693 0.996544
1.00001 1.00113 0.99348
1.00338 0.999963 0.988467
1.0025 1.00086 0.989196
1.00421 1.00008 0.9868
1.00034 1.00222 0.991871
1.00262 1.00152 0.988204
1.00114 1.00322 0.989488
1.00199 1.0026 0.988392
0.999533 0.99733 0.999253
0.999447 0.997575 0.999222
0.999375 0.997834 0.999176
0.999718 0.999312 0.995772
0.999494 0.998161 0.998978
0.999779 0.999985 0.998088
0.99979 0.999983 0.998034
1.00117 1.00002 0.992412
1.00127 1.00005 0.992168
0.999884 1 0.997935
0.999909 1 0.997915
1.00133 1 0.992093
1.00123 1.00007 0.992848
1.0036 0.999866 0.988162
1.00117 0.999915 0.992471
1.00344 0.999875 0.988452
1.00134 0.99999 0.992075
1.00368 0.999804 0.988067
1.00348 0.999903 0.988352
1.00469 0.999447 0.986616
1.00345 0.999872 0.988433
1.00453 0.9995 0.986858
0.999905 0.999999 0.997918
0.999538 0.999998 0.995941
1.00128 0.99999 0.991647
1.00113 0.999929 0.993159
0.999254 0.998989 0.998755
0.999949 1.00083 0.994748
1.00103 0.999915 0.993357
1.00322 0.999749 0.989284
1.00287 1.00031 0.989703
1.00174 1.00174 0.990401
1.00337 1.00076 0.987699
1.00131 0.999999 0.992132
1.00118 0.999993 0.992971
1.00353 0.999774 0.988413
1.00326 0.999861 0.98926
0.999473 0.998518 0.998813
0.999728 1.00055 0.994921
1.00079 1.00223 0.991205
1.00313 0.999855 0.989342
1.00433 0.999381 0.987396
1.00256 1.00186 0.988023
1.00392 1.00002 0.987591
1.0041 1.00036 0.986748
0.999677 0.999788 0.995373
1.00015 1.00157 0.992771
1.00367 0.999795 0.988096
1.00343 0.999837 0.988815
1.00461 0.999446 0.987038
1.00436 0.999436 0.987088
1.00424 0.999547 0.987534
1.00486 0.998932 0.986915
0.999677 1.00018 0.994941
1.00461 0.999391 0.9868
1.00033 1.00228 0.99167
1.00147 1.00269 0.988967
1.00338 1.0019 0.987006
1.00462 0.999634 0.986573
1.00022 1.00198 0.992288
1.00013 1.00108 0.993308
1.00039 1.00261 0.991368
1.00111 0.999948 0.992533
0.999371 0.99816 0.999062
0.999596 0.999074 0.99624
1.00051 1.00067 0.992874
1.00312 1.00024 0.98868
0.999627 1.00021 0.995007
1.00053 1.00245 0.991165
1.00175 1.00141 0.989995
1.00183 1.00229 0.988849
0.999592 0.999659 0.99567
0.99967 0.998662 0.996565
0.999979 1.00117 0.993493
1.00337 0.999974 0.988468
1.00249 1.00085 0.989216
1.00424 1.00008 0.986788
1.00029 1.00227 0.991877
1.00266 1.00154 0.988234
1.00112 1.0032 0.989475
1.002 1.00259 0.988358
0.999773 0.998323 0.996736
1.00016 1.00173 0.992621
0.999974 1.00042 0.994253
1.00018 1.00238 0.991988
1.00446 0.999756 0.986697
1.00353 1.00086 0.98733
1.00485 0.999782 0.985972
1.00068 1.00323 0.99034
1.00309 1.00151 0.987539
1.00124 1.004 0.988335
1.00231 1.00234 0.987902
1.00022 0.99937 0.994873
0.999933 0.997886 0.996864
0.999635 0.997069 0.999278
0.999543 0.997276 0.999262
0.999448 0.997509 0.999238
0.999776 0.998974 0.996023
0.999504 0.997926 0.999062
0.999708 0.999373 0.995749
0.999507 0.998205 0.998939
1.00118 0.999924 0.992469
1.00119 1.00005 0.992307
1.00344 0.999882 0.988449
1.0036 0.999866 0.988163
1.00133 1.00001 0.992094
0.999918 1 0.997913
1.00135 0.999992 0.992075
1.00368 0.999809 0.988066
1.00348 0.999911 0.988353
1.00468 0.99945 0.986612
1.00345 0.999884 0.988426
1.00453 0.999501 0.986854
1.00369 0.999795 0.98806
1.00476 0.999376 0.986546
1.00457 0.999518 0.986779
1.00507 0.99881 0.98653
1.00454 0.999562 0.986761
1.00499 0.998949 0.986549
1.00132 0.999985 0.992126
1.00124 0.999985 0.992913
1.00352 0.999751 0.98815
1.00328 0.999878 0.989361
0.99947 0.998588 0.998766
0.99981 1.00052 0.995262
1.00094 1.00224 0.991305
1.00312 0.999888 0.989334
1.00433 0.999296 0.987256
1.00392 1.00006 0.987707
1.00245 1.00186 0.988015
1.00407 1.00037 0.98677
0.999667 0.999844 0.99536
1.00018 1.00151 0.992769
1.00365 0.999763 0.988021
1.00344 0.999835 0.988805
1.00462 0.999402 0.987002
1.00438 0.999497 0.987233
0.999692 1.0002 0.994941
1.0004 1.00228 0.991657
1.00146 1.00268 0.989127
1.00424 0.999587 0.987556
1.00486 0.998851 0.986902
1.00332 1.00186 0.986864
1.00459 0.999397 0.986811
1.00458 0.999593 0.986581
1.00023 1.00192 0.992297
1.00035 1.0026 0.991384
1.00014 1.00107 0.993297
1.00472 0.999431 0.986839
1.00457 0.999462 0.986991
1.00507 0.998872 0.98661
1.00491 0.998981 0.986682
1.00481 0.998872 0.986889
1.00509 0.998263 0.987087
1.00026 1.00214 0.992016
1.00496 0.998672 0.986813
1.00089 1.00277 0.990273
1.00199 1.00324 0.987523
1.00382 1.00153 0.986336
1.00495 0.998804 0.986892
1.00015 1.00067 0.993693
1.00052 1.0025 0.991218
1.00027 1.00237 0.991746
1.00048 1.00296 0.990921
1.00337 0.999981 0.988468
0.99966 0.998638 0.996587
0.999601 0.999578 0.995697
0.999974 1.00118 0.993505
1.00248 1.00084 0.989237
1.00425 1.00008 0.986775
1.00023 1.00232 0.991883
1.00111 1.00321 0.989461
1.0027 1.00157 0.988265
1.00199 1.00258 0.988323
0.999765 0.998314 0.996743
1.00014 1.00177 0.992622
0.999985 1.00039 0.994272
1.00015 1.00244 0.991978
1.00447 0.999753 0.986688
1.00351 1.00086 0.987338
1.00483 0.999798 0.985962
1.00064 1.00322 0.990361
1.00312 1.00153 0.987588
1.00128 1.00412 0.988291
1.00226 1.00216 0.988219
0.99986 0.99807 0.996822
1.00006 0.999863 0.99467
1.00042 1.00281 0.991202
1.00014 1.00164 0.992787
1.00008 1.0034 0.991179
1.00497 0.999438 0.986095
1.00411 1.00065 0.986459
1.00503 0.999389 0.985963
1.00074 1.00445 0.989037
1.00323 1.00139 0.987291
1.00161 1.00375 0.987438
1.00019 0.999443 0.994862
1.00025 1.00041 0.99382
1.00026 0.999331 0.994853
1.00022 0.999386 0.994868
0.999976 0.997703 0.997365
0.99992 0.997875 0.997103
0.99979 0.996881 0.998355
0.999649 0.997024 0.999284
0.999556 0.997223 0.999271
0.999842 0.998701 0.996187
0.999548 0.997703 0.999111
0.999775 0.999009 0.996005
0.999519 0.997957 0.999038
0.999699 0.999429 0.995727
0.999521 0.998252 0.998898
1.00345 0.999893 0.988419
1.00347 0.999919 0.988355
1.00452 0.99951 0.986849
1.00468 0.999453 0.986607
1.00368 0.999813 0.988065
1.00134 0.999995 0.992075
1.00369 0.999792 0.988058
1.00476 0.999378 0.986546
1.00456 0.999534 0.986775
1.00509 0.998753 0.986578
1.00455 0.999558 0.986753
1.00498 0.998964 0.986545
1.00476 0.999355 0.986552
1.00511 0.998697 0.98659
1.005 0.998867 0.986592
1.00516 0.998163 0.987055
1.00502 0.999135 0.986329
1.00514 0.998072 0.987132
1.00364 0.999732 0.987946
1.00345 0.999842 0.988795
1.00463 0.999365 0.986966
1.00439 0.99956 0.987378
0.999709 1.00021 0.99494
1.00043 1.0023 0.991645
1.00145 1.00267 0.989286
1.00424 0.999628 0.987578
1.00486 0.99877 0.98689
1.00457 0.999402 0.986822
1.00325 1.00183 0.986723
1.00454 0.999542 0.986588
1.00025 1.00186 0.992308
1.00034 1.00258 0.9914
1.00015 1.00107 0.993285
1.00473 0.999395 0.986718
1.00457 0.999464 0.986981
1.00506 0.998791 0.986633
1.00491 0.999011 0.986704
1.00029 1.0021 0.992018
1.00095 1.00276 0.990241
1.0019 1.00328 0.987736
1.00481 0.99896 0.986913
1.00508 0.998159 0.98717
1.00375 1.00156 0.986226
1.00496 0.998679 0.986822
1.00494 0.998642 0.986943
1.00054 1.00251 0.991228
1.00049 1.00299 0.990869
1.00015 1.00067 0.993686
1.00025 1.00231 0.99182
1.00511 0.998815 0.986513
1.00504 0.998955 0.986641
1.00517 0.998331 0.986866
1.00512 0.99803 0.987236
1.00505 0.998245 0.987113
1.00516 0.997483 0.987686
1.00068 1.00248 0.990967
1.0051 0.997848 0.987339
1.00093 1.00357 0.989099
1.00249 1.00365 0.98652
1.00427 1.00068 0.986247
1.00514 0.998121 0.987131
1.00017 1.00038 0.993943
1.00022 1.00198 0.992216
1.00062 1.00279 0.990799
1.00031 1.00296 0.991207
1.00056 1.00295 0.990746
0.999756 0.998306 0.99675
1.00448 0.99975 0.986679
0.999998 1.00035 0.99429
1.00011 1.00183 0.992624
1.00012 1.0025 0.991968
1.00351 1.00087 0.987346
1.00481 0.999815 0.985952
1.00062 1.00318 0.990382
1.00132 1.00422 0.988247
1.00315 1.00155 0.987637
1.00222 1.002 0.988534
0.999853 0.998067 0.996824
1.00007 0.999847 0.994679
1.00039 1.00281 0.99121
1.00011 1.00167 0.992793
1.00007 1.00348 0.991071
1.00496 0.999444 0.986077
1.00409 1.00066 0.986459
1.00505 0.999399 0.985934
1.00067 1.00444 0.989052
1.00327 1.0014 0.987367
1.00177 1.00367 0.987493
1.00014 0.99959 0.994817
1.00018 1.00095 0.993419
1.0004 1.0039 0.99013
0.999993 1.00285 0.991869
1.00014 1.00401 0.990559
1.0051 0.998883 0.986338
1.00432 1.00029 0.986282
1.00509 0.998539 0.986552
1.00069 1.00504 0.988309
1.00294 1.00233 0.986873
1.00018 0.99946 0.994859
1.00022 1.00043 0.99376
1.00024 1.00041 0.993785
1.00018 1.0011 0.993372
1.00026 1.00044 0.993767
1.00028 0.999347 0.994794
1.00025 0.999342 0.994851
1.00004 0.997574 0.997371
1.00022 0.999401 0.994863
0.999985 0.997701 0.997365
0.999893 0.996656 0.998381
0.999909 0.997868 0.997338
0.999765 0.996835 0.998828
0.999663 0.996983 0.99929
0.999908 0.998437 0.996334
0.999843 0.99872 0.996175
0.999615 0.997465 0.999148
0.999554 0.997738 0.999097
0.999772 0.999046 0.995988
0.999535 0.99799 0.99901
1.00456 0.999553 0.986745
1.00455 0.999541 0.98677
1.00498 0.998976 0.986541
1.0051 0.998695 0.986626
1.00475 0.99938 0.986545
1.0037 0.999789 0.988057
1.00477 0.999355 0.986553
1.00512 0.998702 0.986588
1.00501 0.998877 0.986586
1.00516 0.998074 0.98716
1.005 0.999141 0.986317
1.00514 0.99799 0.987204
1.00512 0.998734 0.986568
1.00515 0.998185 0.987059
1.00513 0.997909 0.987329
1.00513 0.997607 0.987686
1.00514 0.998326 0.986821
1.00516 0.997401 0.987865
1.00474 0.999358 0.986597
1.00457 0.999471 0.986971
1.00505 0.998705 0.986656
1.00492 0.99904 0.986727
1.00033 1.00207 0.992019
1.00102 1.00275 0.990209
1.0018 1.00334 0.987949
1.0048 0.999048 0.986937
1.00507 0.998051 0.987253
1.00496 0.998686 0.986832
1.00369 1.00158 0.986117
1.00494 0.998481 0.986994
1.00053 1.00253 0.991238
1.00046 1.00305 0.990816
1.00016 1.00068 0.993679
1.00024 1.00225 0.991894
1.00509 0.998819 0.98652
1.00504 0.998975 0.986575
1.00517 0.998296 0.986886
1.00511 0.998106 0.987162
1.0007 1.00252 0.990948
1.00092 1.00351 0.989287
1.00244 1.00375 0.986486
1.00505 0.998332 0.987046
1.00516 0.997382 0.987758
1.00428 1.00059 0.986225
1.00509 0.997868 0.987354
1.00514 0.998013 0.987111
1.00064 1.00279 0.990798
1.00058 1.00295 0.990745
1.00028 1.003 0.9912
1.00017 1.00038 0.993867
1.00021 1.00193 0.992271
1.00516 0.998225 0.987026
1.00516 0.998077 0.987133
1.00515 0.997075 0.988113
1.00513 0.997327 0.987781
1.00068 1.00303 0.990408
1.00513 0.997572 0.987727
1.0008 1.0043 0.988312
1.00307 1.00338 0.985775
1.00488 0.999239 0.986438
1.00018 1.00015 0.994001
1.00021 1.00162 0.992738
1.00019 1.00267 0.991751
1.00068 1.00281 0.990691
1.00035 1.00335 0.990763
1.0007 1.00275 0.99062
0.999847 0.998065 0.996827
1.00007 0.999829 0.994688
1.00496 0.999449 0.98606
1.00009 1.00171 0.9928
1.00035 1.00282 0.991218
1.00004 1.00357 0.990963
1.00407 1.00067 0.98646
1.00507 0.999407 0.985905
1.00062 1.00449 0.989067
1.00193 1.00366 0.987548
1.0033 1.00139 0.987444
1.00013 0.999594 0.994817
1.00017 1.00094 0.993432
1.00037 1.00394 0.990148
0.999978 1.00286 0.991868
1.0001 1.004 0.99052
1.00511 0.998919 0.986318
1.00438 1.00029 0.986252
1.00507 0.998476 0.986665
1.0007 1.005 0.988203
1.00297 1.00247 0.986778
1.0002 1.00059 0.993737
1.00001 1.0021 0.992451
1.00045 1.00433 0.989541
0.999945 1.00383 0.990836
1.00033 1.00402 0.99015
1.00514 0.997274 0.98779
1.00452 1.00011 0.986384
1.00502 0.997873 0.987177
1.00153 1.0046 0.987748
1.00304 1.00204 0.986333
1.00018 0.999476 0.994856
1.00023 1.00042 0.993804
1.00011 1.00119 0.99323
1.00023 1.00042 0.993751
1.00026 1.00045 0.993767
1.00015 1.00111 0.993315
1.00006 1.00159 0.993047
1.00014 1.00115 0.993233
1.00027 1.0005 0.993709
1.00028 0.999423 0.994718
1.00028 0.999356 0.994794
1.00009 0.997511 0.997339
1.00025 0.999352 0.994849
1.00005 0.997583 0.997367
0.999966 0.996518 0.998383
0.999993 0.997699 0.997367
0.999882 0.99663 0.998385
0.999736 0.996779 0.999309
0.999968 0.99819 0.996478
0.999911 0.99845 0.996325
0.999694 0.997218 0.999185
0.999844 0.998743 0.996164
0.999613 0.997513 0.999136
0.999561 0.997769 0.999082
1.00499 0.999148 0.986305
1.00502 0.99889 0.986579
1.00514 0.997905 0.987276
1.00516 0.997984 0.987266
1.00512 0.998708 0.986586
1.00477 0.999356 0.986554
1.00511 0.998774 0.986525
1.00515 0.99823 0.987014
1.00514 0.997954 0.987257
1.00513 0.997509 0.987755
1.00513 0.998351 0.986826
1.00516 0.997247 0.987932
1.00514 0.998278 0.987017
1.00513 0.997591 0.987666
1.00513 0.997108 0.988129
1.00515 0.997088 0.98818
1.00508 0.998822 0.986526
1.00504 0.998994 0.986509
1.00518 0.998264 0.986906
1.0051 0.998183 0.987089
1.00074 1.00254 0.990929
1.00092 1.00344 0.989475
1.00238 1.00386 0.986452
1.00505 0.998423 0.98698
1.00516 0.997285 0.987829
1.00509 0.997888 0.987369
1.00428 1.00052 0.986203
1.00514 0.997926 0.987092
1.00067 1.0028 0.990798
1.00061 1.00292 0.990744
1.00024 1.00304 0.991192
1.00017 1.00038 0.993791
1.00021 1.00187 0.992325
1.00516 0.998234 0.987017
1.00515 0.998091 0.987149
1.00515 0.997177 0.988011
1.00074 1.00304 0.990382
1.00095 1.00427 0.98848
1.00301 1.00344 0.985725
1.00513 0.997377 0.987782
1.00489 0.999086 0.986547
1.00511 0.997501 0.987631
1.00018 1.00012 0.994033
1.00072 1.0028 0.990674
1.00067 1.0027 0.990728
1.00036 1.00341 0.990709
1.00019 1.00266 0.991773
1.0002 1.00161 0.992674
1.00514 0.997829 0.987354
1.00511 0.997051 0.988221
1.00513 0.996536 0.98854
1.00512 0.996667 0.988507
1.00072 1.00345 0.989971
1.00509 0.997725 0.987438
1.0015 1.00493 0.986727
1.00386 1.00213 0.985642
1.00019 0.999881 0.994253
1.00021 1.00134 0.99302
1.00018 1.00238 0.9921
1.00015 1.00323 0.991196
1.00076 1.00292 0.990393
1.00077 1.00291 0.990402
1.00013 0.999597 0.994818
1.00016 1.00092 0.993445
1.00512 0.998956 0.986298
0.999965 1.00288 0.991868
1.00033 1.00394 0.990166
1.00004 1.00403 0.990481
1.00443 1.0003 0.986223
1.00507 0.998413 0.986778
1.00072 1.00502 0.988097
1.00301 1.00259 0.986683
1.0002 1.00056 0.993745
1.00004 1.00207 0.992492
1.00043 1.00442 0.989589
0.999904 1.00394 0.990833
1.00022 1.00392 0.990355
1.00514 0.997267 0.987952
1.00456 1.0001 0.98626
1.00507 0.997844 0.987231
1.00138 1.00467 0.987666
1.00317 1.00206 0.98637
1.00007 1.00143 0.993037
0.999907 1.00317 0.991468
1.00072 1.00424 0.989225
0.99996 1.00444 0.989829
1.00515 0.99592 0.989193
1.00511 0.996714 0.988469
1.0046 0.999699 0.98636
1.0019 1.0038 0.986531
1.00024 1.0004 0.993848
1.00012 1.00121 0.993252
0.999976 1.00187 0.992904
1.00025 1.00045 0.993766
1.00012 1.00112 0.993258
1.00027 1.00049 0.993708
1.00005 1.00159 0.993007
1.00015 1.00112 0.993256
1.00001 1.00193 0.992758
1.00011 1.00154 0.992952
1.00018 1.00118 0.993123
1.00027 1.00057 0.99363
1.00026 0.999507 0.99466
1.00028 0.999427 0.994718
1.00013 0.997514 0.997283
1.00027 0.999361 0.994795
1.0001 0.997538 0.99733
1.00002 0.996447 0.998356
1.00005 0.997594 0.997364
0.999958 0.99649 0.998389
0.999873 0.996605 0.998387
1.00002 0.997954 0.996611
0.999973 0.998195 0.99647
0.999773 0.996975 0.99922
0.999914 0.998464 0.996316
0.999687 0.997268 0.999173
0.999613 0.997555 0.999124
1.00513 0.998375 0.986831
1.00515 0.998 0.987186
1.00517 0.997095 0.987999
1.00513 0.997413 0.987824
1.00516 0.998275 0.98697
1.00511 0.998813 0.986482
1.00514 0.998273 0.987009
1.00512 0.997623 0.987639
1.00512 0.997106 0.988115
1.00516 0.997045 0.988187
1.00513 0.997788 0.987496
1.0051 0.99686 0.988501
1.00515 0.996358 0.988742
1.00516 0.998244 0.987009
1.00515 0.998104 0.987166
1.00515 0.99728 0.987909
1.00079 1.00304 0.990356
1.0011 1.00424 0.988649
1.00294 1.00348 0.985674
1.00513 0.997424 0.987783
1.0051 0.997431 0.987535
1.0049 0.998926 0.986657
1.00075 1.00278 0.990656
1.00063 1.00267 0.990837
1.00038 1.00345 0.990655
1.00018 1.00008 0.994066
1.00019 1.00265 0.991794
1.0002 1.0016 0.992609
1.00514 0.997871 0.987375
1.00511 0.997022 0.988271
1.00513 0.996573 0.988547
1.00075 1.00345 0.989924
1.00136 1.00497 0.987051
1.00387 1.00196 0.985727
1.00512 0.996722 0.98846
1.00509 0.997725 0.98741
1.00019 0.999861 0.994358
1.00021 1.00134 0.993019
1.00067 1.00279 0.99046
1.00075 1.00283 0.990626
1.00018 1.0032 0.991162
1.00016 1.00242 0.99205
1.00512 0.99705 0.988223
1.0051 0.996 0.989211
1.00512 0.995956 0.989098
1.00508 0.996767 0.988679
1.00064 1.00403 0.989057
1.00467 0.999385 0.986591
1.00244 1.0045 0.986189
1.0002 0.999673 0.994619
1.00016 1.00083 0.993561
1.00019 1.00115 0.993088
1.00013 1.00222 0.992264
1.00004 1.0031 0.99152
1.00009 1.0035 0.990885
1.00114 1.00152 0.990881
1.00064 1.00261 0.991554
1.0002 1.00055 0.993752
1.00006 1.00205 0.992534
1.00514 0.997264 0.988114
0.99992 1.00399 0.99083
1.0004 1.00446 0.989637
1.0001 1.00383 0.99056
1.00459 1.00006 0.986135
1.00511 0.99781 0.987284
1.00121 1.00471 0.987586
1.00329 1.00203 0.986407
1.00008 1.00145 0.99299
0.999945 1.0032 0.991473
1.00064 1.00428 0.989274
1.00011 1.00443 0.989932
1.00515 0.995896 0.989273
1.00511 0.996829 0.988288
1.00459 0.999703 0.986425
1.00223 1.00378 0.986399
0.999935 1.00229 0.992527
1.0052 0.995158 0.989713
0.999985 1.00437 0.990606
1.00079 1.00473 0.988525
1.0051 0.995732 0.989563
1.00504 0.997789 0.987147
1.00357 1.00247 0.985902
1.00012 1.00123 0.993273
0.999974 1.00186 0.992895
0.999871 1.00241 0.992566
1.00027 1.00048 0.993707
1.00016 1.00111 0.993279
1.00003 1.0016 0.992967
1.00027 1.00056 0.993626
1.00017 1.00118 0.993138
0.999998 1.00196 0.992713
1.00012 1.0015 0.992994
1.00001 1.00212 0.992494
1.00012 1.00179 0.99267
1.00017 1.00157 0.992874
1.00027 1.00118 0.993007
1.00027 1.00066 0.993534
1.00024 0.999574 0.994626
1.00026 0.999513 0.99466
1.00015 0.997536 0.997229
1.00028 0.999434 0.994718
1.00013 0.997544 0.997274
1.00006 0.996419 0.998319
1.0001 0.997562 0.997321
1.00002 0.996411 0.998364
0.999951 0.996463 0.998392
1.00019 0.999529 0.994774
1.00007 0.997757 0.996725
1.00003 0.99796 0.996604
0.999849 0.996757 0.999252
0.999978 0.998202 0.996462
0.999766 0.997025 0.999209
0.999682 0.997319 0.999162
1.00516 0.997002 0.988195
1.00512 0.997101 0.988101
1.00511 0.99765 0.987612
1.00515 0.998268 0.987001
1.00512 0.99775 0.98755
1.0051 0.996876 0.988458
1.00515 0.996343 0.988743
1.00513 0.996939 0.988289
1.00517 0.995927 0.989354
1.00516 0.994899 0.989964
1.00514 0.997912 0.987395
1.00512 0.996992 0.988321
1.00513 0.99661 0.988553
1.00078 1.00349 0.989877
1.00124 1.00493 0.987375
1.00388 1.00178 0.985812
1.00511 0.996777 0.988414
1.00509 0.9977 0.987383
1.0006 1.00268 0.990526
1.00075 1.00275 0.990843
1.00014 1.00326 0.991128
1.00019 0.999835 0.994463
1.00021 1.00134 0.993017
1.00013 1.00246 0.992001
1.00512 0.996963 0.988322
1.0002 0.999671 0.994618
1.00015 1.00085 0.993514
1.00509 0.996068 0.9892
1.00511 0.995968 0.989045
1.00055 1.00412 0.989344
1.00233 1.00444 0.986147
1.00453 0.99947 0.986585
1.005 0.996701 0.988579
1.0002 1.00113 0.993233
1.00013 1.0022 0.992256
1.00128 1.00179 0.99055
1.00039 1.0023 0.991904
1.00006 1.00359 0.990849
1.00005 1.00307 0.991529
1.00517 0.995766 0.989384
1.00514 0.995659 0.989578
1.00509 0.995311 0.989555
1.00498 0.996784 0.9882
1.00097 1.00331 0.989515
1.00328 1.00295 0.986132
1.00014 1.00071 0.993592
1.00017 1.00098 0.993389
1.00008 1.0018 0.992872
1.0001 1.00213 0.992235
1.00001 1.00298 0.991837
0.999937 1.00365 0.990922
0.999725 1.00436 0.990836
1.00058 1.0014 0.992095
1.0001 1.00147 0.992944
0.999988 1.00322 0.991478
1.00515 0.995859 0.989352
1.00511 0.99696 0.988106
1.00025 1.00444 0.990035
1.00058 1.00431 0.989321
1.0046 0.999725 0.986491
1.00257 1.00383 0.986267
0.999935 1.0023 0.992497
1.0052 0.99515 0.989752
0.999898 1.00424 0.990688
1.0008 1.00464 0.988437
1.0051 0.995664 0.989443
1.00503 0.997716 0.987348
1.00347 1.00265 0.985951
0.999866 1.00347 0.991594
1.00502 0.995069 0.990907
1.00054 1.00456 0.989884
1.0017 1.00469 0.987566
1.00494 0.996595 0.9888
1.00383 1.00062 0.986795
0.999736 0.999034 0.992589
0.99997 1.00186 0.992886
0.999861 1.00242 0.992552
0.99998 1.00264 0.992173
1.00027 1.00055 0.993622
1.00017 1.00119 0.993153
1.00013 1.00147 0.993036
0.999992 1.00199 0.992668
1.00027 1.00066 0.99353
1.00026 1.00118 0.993003
1.00003 1.00216 0.992455
1.00016 1.00157 0.992871
1.00012 1.0018 0.992705
1.00016 1.00191 0.992498
1.00022 1.0016 0.992689
1.00023 1.0015 0.992799
1.00035 1.00123 0.992813
1.00029 1.00072 0.993351
1.00026 1.00119 0.993104
1.00028 1.00071 0.993381
1.00024 0.999603 0.99461
1.00024 0.999578 0.994626
1.00017 0.997592 0.996701
1.00026 0.999521 0.994659
1.00016 0.997568 0.996979
1.00003 0.996364 0.999278
1.00013 0.997574 0.997266
1.00006 0.996378 0.998325
1.00001 0.996377 0.998369
1.00018 0.999432 0.994899
1.0002 0.999527 0.994771
1.00011 0.997607 0.996816
1.00006 0.99776 0.996965
0.999914 0.996574 0.999278
1.00003 0.997967 0.996597
0.99984 0.9968 0.999243
0.999758 0.997073 0.999198
1.00514 0.996327 0.988744
1.0051 0.996888 0.988415
1.00512 0.997717 0.987603
1.00513 0.996928 0.988281
1.00517 0.995921 0.98925
1.00516 0.994908 0.990009
1.00519 0.995464 0.989568
1.00082 0.999563 0.988432
1.00493 0.994946 0.991339
1.00012 1.00066 0.99381
1.00512 0.996878 0.988421
1.00508 0.996119 0.989188
1.00511 0.996011 0.988991
1.00044 1.00424 0.989632
1.00222 1.00439 0.986105
1.00438 0.99958 0.986578
1.00493 0.996669 0.988479
1.00142 1.00199 0.990226
1.00012 1.00201 0.992266
1.00008 1.00362 0.990814
1.0002 0.999672 0.994617
1.00007 1.00304 0.991538
1.00021 1.0011 0.993378
1.00013 1.0022 0.992249
1.00014 1.00085 0.993467
1.00518 0.99564 0.989501
1.00014 1.0007 0.99367
1.00018 1.00098 0.993386
1.00009 1.00179 0.992771
1.00514 0.995492 0.989577
1.00507 0.995555 0.989406
1.00106 1.00308 0.989591
1.00289 1.00282 0.986267
1.00496 0.997003 0.988186
1.00011 1.00214 0.992301
1.00002 1.00295 0.991779
1.00051 1.00179 0.991753
0.999759 1.00419 0.991
0.999991 1.00363 0.990986
1.00514 0.99502 0.990208
1.00511 0.99606 0.989398
1.00508 0.995895 0.989091
1.00377 0.999972 0.987937
1.00074 1.00326 0.99005
1.00011 1.00162 0.992749
1.00008 1.00196 0.992473
1.00002 1.00251 0.992222
0.999993 1.00297 0.991734
0.999878 1.00357 0.991297
0.999759 1.00442 0.990605
0.999733 1.00461 0.990484
0.99994 1.00232 0.992467
0.999805 1.0041 0.99077
1.0052 0.995153 0.989791
1.0051 0.995595 0.989323
1.00503 0.997612 0.987548
1.0008 1.00455 0.98835
1.00336 1.0028 0.986001
0.999827 1.00337 0.991756
1.00499 0.995035 0.990879
1.00028 1.00445 0.989999
1.00136 1.00483 0.987619
1.00495 0.996324 0.988958
1.00386 1.00054 0.986744
0.99967 0.999052 0.990932
1 1.00378 0.991056
1.00463 0.9955 0.991498
1.00027 1.0046 0.989832
1.00185 1.00366 0.987632
1.00411 0.997496 0.988287
1.00124 0.995212 0.959554
0.99597 0.998812 0.977917
0.998898 1.00052 0.992802
0.999812 0.996947 0.934718
0.994988 0.99815 0.925012
0.99986 1.00243 0.992538
0.999911 1.00268 0.992243
0.999977 1.00229 0.992509
1.00027 1.00066 0.993525
1.00026 1.00115 0.992999
1.00016 1.00157 0.992868
1.00013 1.0018 0.99274
1.00005 1.00219 0.992415
1.00024 1.00149 0.992767
1.00028 1.00072 0.993407
1.00035 1.00122 0.992838
1.00015 1.00193 0.992508
1.00021 1.00162 0.9927
1.00025 1.00155 0.992642
1.0002 1.00141 0.992862
1.00034 1.0015 0.992607
1.0004 1.00131 0.992615
1.00029 1.00074 0.993335
1.00035 1.00126 0.99284
1.00029 1.00141 0.992819
1.00017 1.00119 0.993183
1.00027 1.00121 0.993045
1.00028 1.00061 0.993567
1.00028 1.00072 0.993372
1.00025 0.999591 0.994613
1.00024 0.999601 0.99461
1.00016 0.997645 0.996686
1.00024 0.999578 0.994626
1.00017 0.997596 0.9967
1.00004 0.996366 0.999273
1.00017 0.997599 0.996729
1.00006 0.996365 0.998787
1.00006 0.996338 0.99833
1.00016 0.999362 0.994991
1.00018 0.999428 0.994898
1.00013 0.997495 0.996884
1.0002 0.999525 0.994769
1.0001 0.997588 0.997057
0.999966 0.996428 0.999299
1.00007 0.997784 0.996701
0.999904 0.996643 0.999266
0.999832 0.996842 0.999233
1.00516 0.995907 0.989145
1.00513 0.996921 0.988273
1.00516 0.994916 0.990054
1.00082 0.998757 0.988542
1.00518 0.995425 0.989619
1.00493 0.995197 0.991244
1.00499 0.995874 0.990508
0.997219 0.999517 0.974973
1.00223 0.996606 0.989744
1.00012 1.00062 0.993852
1.00013 1.00064 0.993809
1.00006 1.00157 0.99298
1.00009 1.00144 0.993083
1.00518 0.995532 0.989618
1.00514 0.995422 0.989575
1.0051 0.995698 0.989255
1.00116 1.00288 0.989668
1.0025 1.00266 0.986401
1.00493 0.997276 0.988173
1.00043 1.00225 0.991398
0.999806 1.00401 0.991162
1.00003 1.00361 0.991048
1.00017 1.001 0.993384
1.00004 1.00291 0.991722
1.00011 1.00215 0.992368
1.00014 1.00069 0.993749
1.00009 1.00179 0.992668
1.00508 0.995091 0.990174
1.0001 1.00165 0.992861
1.00008 1.00196 0.992533
1.00001 1.00243 0.992248
1.00508 0.995705 0.98946
1.00508 0.995763 0.989062
1.00087 1.00308 0.990018
1.00379 1.00003 0.987926
1 1.00301 0.991731
0.99987 1.00354 0.991338
0.999762 1.00459 0.990488
0.999866 1.00446 0.990572
1.00506 0.996106 0.989679
1.00505 0.995515 0.989832
1.00419 0.998287 0.988685
1.00096 1.00314 0.98991
1.00006 1.00252 0.992015
0.999981 1.00276 0.991924
0.999792 1.00394 0.991079
0.999902 1.0051 0.989627
1.00061 0.994956 0.955111
0.999782 1.00329 0.991918
1 1.00438 0.990114
1.00496 0.994984 0.990845
1.00499 0.996055 0.989115
1.00386 1.00044 0.986691
1.001 1.00497 0.987671
0.999638 0.999058 0.989246
0.999865 1.00384 0.991195
1.00463 0.995375 0.991441
1.00014 1.00462 0.989892
1.00181 1.00361 0.987603
1.00433 0.997532 0.98835
1.00166 0.995505 0.955255
0.995637 0.999041 0.974096
0.998941 1.00041 0.992867
0.998867 0.997173 0.936338
0.994739 0.99815 0.919652
0.999712 1.00368 0.991792
0.999936 0.995007 0.938726
0.994996 0.999412 0.926648
1.004 0.996766 0.99127
0.999841 1.00477 0.990262
1.0023 1.00131 0.988493
0.998044 1.00091 0.994531
0.999407 0.997063 0.959652
0.994847 0.998898 0.973024
0.99819 0.999134 0.937166
0.994672 0.999886 0.929055
0.999831 1.00272 0.992313
0.99993 1.00241 0.992472
0.999956 1.00123 0.993753
1.00027 1.00072 0.993463
1.00034 1.00121 0.992863
1.00022 1.00151 0.992735
1.00021 1.00164 0.992711
1.00014 1.00196 0.992517
1.00029 1.00074 0.993333
1.00026 1.00159 0.992621
1.00033 1.0015 0.992629
1.0004 1.0013 0.992687
1.0002 1.00137 0.992914
1.00033 1.00147 0.992626
1.00027 1.00066 0.993477
1.00043 1.00154 0.992405
1.00039 1.0013 0.992723
1.00036 1.00126 0.992833
1.00029 1.0014 0.992817
1.00041 1.0014 0.992569
1.00019 1.00142 0.992934
1.00021 1.00141 0.992847
0.999847 1.00229 0.992634
1.00006 1.00129 0.993266
1.00017 1.00119 0.993186
1.00025 1.00056 0.993659
1.00027 1.00122 0.992986
1.00028 1.00063 0.993524
1.00026 0.999547 0.994643
1.00028 1.00074 0.993362
1.00025 0.999581 0.994614
1.00012 0.997673 0.997195
1.00024 0.999598 0.994611
1.00015 0.997636 0.996938
1.00009 0.99639 0.998266
1.00017 0.997601 0.9967
1.00004 0.99637 0.999271
1.00009 0.996367 0.998295
1.00014 1.00064 0.993805
1.00017 0.999325 0.995027
1.00017 0.999359 0.994991
1.00015 0.99742 0.996933
1.00018 0.999425 0.994897
1.00014 0.99748 0.996883
1 0.99632 0.999313
1.00009 0.997597 0.997284
0.999979 0.996484 0.998811
0.999946 0.996683 0.99828
1.00076 0.997931 0.988669
1.00517 0.995391 0.989669
1.00495 0.99544 0.991149
0.996684 0.998755 0.976685
1.00204 0.996974 0.989981
1.005 0.995422 0.990485
1.00423 0.995807 0.99037
0.998199 0.996633 0.979222
1.00035 0.995554 0.958133
0.998665 0.997414 0.938614
0.994638 0.998218 0.923806
1.00005 1.00153 0.992951
1.00012 1.00062 0.993849
1.00014 1.00063 0.993808
1.00008 1.00158 0.992948
1.00001 1.00219 0.992465
1.00015 1.00191 0.992582
1.00012 1.00151 0.993005
1.00007 1.0015 0.993027
1.00505 0.99513 0.99014
1.00511 0.995257 0.989518
1.00504 0.995655 0.989036
1.00098 1.00285 0.989986
1.00383 0.999987 0.987913
0.99979 1.00454 0.990496
0.999974 1.00449 0.990541
0.999874 1.00352 0.991379
1.00008 1.00195 0.992594
1.00001 1.00307 0.991728
1.0001 1.00168 0.992974
1.00002 1.00234 0.992275
1.00501 0.995839 0.98969
1.00004 1.00251 0.992101
0.999991 1.00277 0.991942
1.00502 0.995376 0.989709
1.00381 0.997895 0.989039
1.00113 1.003 0.989757
0.999847 1.00396 0.991055
1.00002 1.00506 0.989641
1.00332 1.00047 0.98959
1.00448 0.996078 0.990766
1.00204 0.999635 0.989901
1.00049 1.00367 0.99005
1.00004 1.00267 0.991846
0.999929 1.00333 0.991499
0.999809 1.00454 0.990429
0.99997 0.994882 0.937095
1.00114 0.994961 0.96151
0.999746 1.00386 0.991335
1.00003 1.00459 0.989952
1.0046 0.995202 0.99139
1.00455 0.997572 0.988412
1.00179 1.00362 0.987574
1.00065 0.994989 0.957498
0.996 0.999335 0.974278
0.998953 1.00014 0.992933
0.998317 0.997101 0.941055
0.994629 0.998151 0.914283
0.999668 1.00359 0.991807
0.999955 0.995361 0.937171
0.995017 0.999346 0.923913
1.00405 0.996751 0.991239
0.999752 1.00475 0.99037
1.00194 1.00133 0.989076
0.998366 1.00046 0.995254
1.00008 0.997149 0.956076
0.995329 0.998671 0.975852
0.997664 0.999352 0.937988
0.994851 0.999869 0.927069
0.999256 1.00326 0.992965
0.995026 0.999306 0.928819
0.994828 1.00292 0.943245
1.00097 0.998882 0.994031
0.999218 1.00415 0.992411
0.996913 1.00237 0.995756
0.995019 0.999831 0.978482
0.996872 0.999411 0.954749
0.995505 0.999898 0.941276
0.994603 0.999783 0.936412
0.999913 1.00249 0.992435
0.999958 1.0014 0.99358
0.999695 0.999726 0.99538
1.00029 1.00074 0.993332
1.00039 1.00129 0.992759
1.00031 1.0015 0.992652
1.00027 1.00162 0.9926
1.0002 1.00135 0.992965
1.00039 1.00131 0.99272
1.00033 1.00151 0.992628
1.00044 1.00154 0.992404
1.00016 1.00062 0.993672
0.999888 0.999913 0.994973
1.00045 1.00113 0.992782
1.0005 1.00149 0.992353
1.00037 1.00125 0.992825
1.0003 1.00138 0.992815
1.00042 1.0014 0.992564
1.0002 1.00141 0.992925
1.00021 1.0014 0.992896
1.00004 1.00164 0.992957
1.00031 1.0014 0.992665
1.00012 1.00135 0.993089
0.999967 1.00269 0.99204
0.999656 1.00469 0.990382
0.99972 1.00301 0.991974
0.999842 1.00235 0.992612
0.999973 1.00158 0.993137
1.00007 1.0013 0.993261
1.0002 1.00056 0.993742
1.00016 1.00121 0.993188
1.00025 1.00056 0.993663
1.00025 0.999514 0.994693
1.00028 1.00064 0.99348
1.00026 0.999534 0.994644
1.00009 0.9977 0.99722
1.00025 0.999572 0.994614
1.00013 0.997662 0.99695
1.00005 0.996399 0.998276
1.00017 0.997622 0.996687
1.00003 0.996393 0.999267
1.00004 0.996375 0.999269
1.00017 1.0007 0.993863
1.00018 0.999355 0.994977
1.00013 1.00064 0.993803
1.00015 0.99739 0.996953
1.00017 0.999325 0.995026
1.00017 0.999359 0.994991
1.00015 0.997421 0.99693
1.00003 0.996256 0.999324
1.00011 0.997474 0.99735
1.00002 0.99634 0.998837
1.00001 0.996484 0.99834
0.999937 0.995394 0.934498
0.995271 0.998898 0.926964
0.997702 0.998019 0.977689
1.00187 0.997356 0.990218
1.005 0.994957 0.990464
0.997472 0.996708 0.981493
1.00421 0.995919 0.990431
1.00115 0.995336 0.958499
0.999194 0.996682 0.934801
0.99462 0.998177 0.918372
0.99889 0.997672 0.984917
0.998819 0.997604 0.960382
0.998209 0.999129 0.935955
0.99469 0.999871 0.926993
1.00012 1.00217 0.992297
1.00006 1.00152 0.992996
1.00013 1.0006 0.993847
1.00008 1.00157 0.992917
1.00002 1.00211 0.992544
1.00017 1.00201 0.992411
1.00016 1.00187 0.992562
1.00017 1.00163 0.992741
1.00012 1.00151 0.992948
1.00006 1.00154 0.99297
1.00494 0.995483 0.989705
1.00494 0.995248 0.989595
1.00342 0.997485 0.989396
1.00128 1.00293 0.989605
1.00015 1.00503 0.989656
0.9999 1.00399 0.99103
0.999998 1.00278 0.991959
1.00001 1.00249 0.992188
1.00352 0.999142 0.989771
1.00005 1.0027 0.991837
0.999941 1.00331 0.99147
1.00435 0.995851 0.99054
1.0018 1.00001 0.99032
1.00065 1.00376 0.989678
0.999935 1.00462 0.990294
1.0004 1.00102 0.992964
1.00153 0.998715 0.99335
0.99982 1.00417 0.990527
1.00005 1.00272 0.991844
1.00006 1.00294 0.991514
0.999986 1.00358 0.991132
0.994792 0.999329 0.937491
0.999948 0.995254 0.939475
1.00066 0.994938 0.954929
0.999598 1.00358 0.991822
0.999679 1.00474 0.990481
1.00413 0.996722 0.991205
1.00156 1.00148 0.989658
0.999931 0.99517 0.940429
0.998948 0.997038 0.956764
0.9949 0.998186 0.973032
0.998754 0.999356 0.995913
0.998106 0.999227 0.93302
0.994993 0.999255 0.924572
0.995002 0.999886 0.928472
0.999156 1.00332 0.992984
0.995036 0.999423 0.93174
0.995012 1.00304 0.942722
1.0012 0.998806 0.994119
0.998774 1.00443 0.992397
0.99662 1.00023 0.998522
0.9952 0.999291 0.975746
0.996802 0.999583 0.960237
0.997686 0.999893 0.936769
0.994606 0.999784 0.938355
0.998183 1.00229 0.995868
0.994688 1.00189 0.951828
0.994232 1.00307 0.956393
0.996559 1.00218 0.998534
0.995127 1.0001 0.985018
0.995426 1.00002 0.959447
0.994975 0.999936 0.937957
0.994716 0.999344 0.936008
0.99994 1.00155 0.993411
0.999768 0.999691 0.995457
0.999309 0.999224 0.996747
1.00039 1.00132 0.992716
1.00044 1.00155 0.992403
1.00033 1.00154 0.99263
1.00006 1.00057 0.993867
1.00047 1.00151 0.992353
1.00043 1.00117 0.992745
0.999862 0.999664 0.995199
0.998976 0.999467 0.99695
1.00016 1.0004 0.994129
1.00044 1.00139 0.992483
1.00042 1.0014 0.992558
1.0002 1.0014 0.992917
1.0002 1.0014 0.992945
1.0003 1.00141 0.992694
1.00003 1.00169 0.992944
1.00014 1.00137 0.993079
1.00007 1.0017 0.992875
0.999923 1.00138 0.993411
0.999989 1.00238 0.992224
0.999991 1.0026 0.992151
0.999736 1.00402 0.991032
1.0004 1.00498 0.989047
0.999807 1.00392 0.99133
0.999623 1.00471 0.99051
0.999745 1.00303 0.992092
0.999893 1.00206 0.992655
0.999837 1.00242 0.99259
0.999981 1.00161 0.993125
1.00016 1.00065 0.993723
1.00008 1.00131 0.993257
1.00021 1.00056 0.993741
1.00021 0.99954 0.994732
1.00026 1.00056 0.993666
1.00025 0.999504 0.994695
1.00004 0.997743 0.997252
1.00026 0.999525 0.994646
1.0001 0.997689 0.996981
1 0.996469 0.998298
1.00015 0.99764 0.996701
1.00003 0.996416 0.99877
1.00002 0.996406 0.999268
1.00019 1.0008 0.99358
1.00019 0.999421 0.994892
1.00015 1.00072 0.993732
1.00015 0.997416 0.996934
1.00018 0.999352 0.99498
1.00012 1.00066 0.9938
1.00003 0.99624 0.999327
1.00015 0.99739 0.996953
1.00017 0.999321 0.995026
1.00015 0.997423 0.996928
1.00002 0.996266 0.999321
1 0.996339 0.999308
0.994818 0.998532 0.934248
0.999953 0.995275 0.936697
0.995147 1.00318 0.942471
0.995212 0.999214 0.925106
0.998279 0.996788 0.977744
1.00415 0.996388 0.990483
1.00085 0.995447 0.958776
0.999865 0.997318 0.939476
0.994614 0.998147 0.912956
0.998653 0.997605 0.983536
1.00013 0.997044 0.953746
0.99788 0.999196 0.936931
0.994685 0.999858 0.923963
0.995084 1.00085 0.980538
0.998397 0.999946 0.953785
0.995753 0.999855 0.934935
0.994644 0.99958 0.931655
1.00014 1.00245 0.992023
1.0001 1.00217 0.992367
1.00005 1.00156 0.993041
1.00003 1.00205 0.992622
1.00024 1.00212 0.992096
1.00017 1.00199 0.992449
1.00015 1.00186 0.992543
1.00025 1.00157 0.992727
1.00019 1.0016 0.992805
1.00013 1.00151 0.99289
1.00363 0.997904 0.989964
1.00425 0.995701 0.990318
1.00162 1.00042 0.990735
1.00083 1.00378 0.98931
1.00003 1.00469 0.990159
0.999961 1.00328 0.991442
1.00007 1.00271 0.991829
1.00006 1.00271 0.991856
1.00064 1.00036 0.993222
1.00008 1.00301 0.991535
1.00002 1.00366 0.991071
1.00158 0.998842 0.992997
1.0002 1.00384 0.990438
0.998881 0.998532 0.995853
0.999078 0.999731 0.997324
0.99991 1.00279 0.991694
1.00017 1.00264 0.99172
1.00016 1.00331 0.991055
0.994311 1.00138 0.956957
0.99479 0.999703 0.936659
0.999939 0.995701 0.935372
0.999063 1.00338 0.992995
0.998408 1.00459 0.992369
1.00135 0.998804 0.994214
0.995015 0.99924 0.933279
0.997779 0.999346 0.954935
0.994887 0.998865 0.976722
0.996463 0.999387 1.00148
0.995942 0.99984 0.940757
0.995244 1.00318 0.942208
0.994601 0.999789 0.938511
0.998208 1.00212 0.996045
0.994726 1.00131 0.954098
0.994261 1.00318 0.956184
0.996699 1.0027 0.998359
0.994978 1.00014 0.985431
0.996475 1.00001 0.954274
0.994664 0.999452 0.937775
0.995025 0.999963 0.940908
0.997046 1.00238 0.998105
0.993835 1.00193 0.973643
0.994283 1.00221 0.959038
0.994679 0.999591 0.931766
0.994992 1.00158 0.995544
0.996214 0.999171 0.961438
0.994726 0.999993 0.941236
0.999904 0.99963 0.995529
0.999351 0.999344 0.996563
0.998418 0.999563 0.998122
1.00046 1.00152 0.992353
1.00041 1.00123 0.992708
0.999835 0.999424 0.995428
1.00042 1.00141 0.992496
1.00014 1.00034 0.994119
0.999162 0.999353 0.996799
0.998621 0.999522 0.997477
0.999981 1.00118 0.99357
1.00029 1.00142 0.992723
1.00002 1.00173 0.992931
1.00016 1.00139 0.993069
0.999986 1.00135 0.993372
1.00008 1.00162 0.992919
0.999549 1.00232 0.993193
0.999739 1.00252 0.992561
1.00005 1.00388 0.990492
1.00003 1.00248 0.992263
0.999944 1.00397 0.990919
1.00045 1.00484 0.988677
1.00043 1.005 0.988778
0.999907 1.00431 0.990593
1.00032 1.00488 0.989122
0.999927 1.00277 0.992078
0.999786 1.00397 0.991203
0.99959 1.00472 0.990639
0.99977 1.00304 0.99221
0.99991 1.00203 0.992745
1.00012 1.00089 0.993554
0.999991 1.00162 0.993112
1.00016 1.00067 0.993715
1.00016 0.99962 0.994744
1.00022 1.00056 0.993739
1.00022 0.999526 0.994734
0.999969 0.997831 0.997275
1.00025 0.999489 0.994698
1.00005 0.997742 0.997015
0.999939 0.996562 0.99832
1.00011 0.997668 0.996735
0.999985 0.996481 0.998783
0.999993 0.996452 0.999272
1.00025 1.00089 0.993232
1.0002 0.999554 0.994573
1.0002 1.00081 0.993579
1.00014 0.997498 0.996877
1.00019 0.99943 0.994796
1.00014 1.00072 0.993602
1.00002 0.996277 0.999321
1.00015 0.997415 0.996937
1.00018 0.999349 0.994983
1.00003 0.996241 0.999326
1.00015 0.997391 0.996954
1.00002 0.996277 0.999318
0.994406 1.00113 0.955541
0.994842 0.998485 0.935333
0.999913 0.995365 0.937459
1.0003 1.00153 0.992613
0.994206 1.00281 0.958478
0.995172 1.00319 0.941996
0.995234 0.999392 0.926749
0.998856 0.997833 0.981999
0.999227 0.998447 0.960204
0.99829 0.999205 0.931944
0.994675 0.999859 0.924702
0.995523 0.99984 0.976624
0.997056 0.999761 0.959082
0.997479 0.999882 0.937673
0.994658 0.999684 0.931821
0.995248 0.999753 0.972805
0.995386 1.00062 0.957918
0.994787 0.99992 0.941123
0.994675 0.999266 0.936087
1.00024 1.00243 0.991841
1.00013 1.00247 0.991996
1.0001 1.00214 0.992436
1.00026 1.00199 0.992211
1.00024 1.0021 0.992175
1.00016 1.00198 0.992486
1.00026 1.00159 0.992734
1.00021 1.00158 0.992869
1.00092 0.999901 0.993453
1.00159 0.998979 0.992632
1.00007 1.0027 0.991868
1.00058 1.00364 0.990344
1.00006 1.00372 0.99101
1.00005 1.0031 0.991555
1.00017 1.00267 0.991736
0.998882 0.999149 0.996221
1.00014 1.00316 0.991269
1.0002 1.00256 0.991729
0.999164 0.99908 0.997312
1.00021 1.00238 0.99197
0.997442 0.99943 0.996814
0.99773 1.00051 0.999309
1.00009 1.00219 0.992059
1.00015 1.0024 0.992032
0.993699 1.00213 0.976815
0.994277 1.00186 0.957545
0.994797 1.00013 0.935855
0.998151 1.00197 0.996242
0.996764 1.00282 0.998156
0.994766 1.00096 0.956344
0.995519 1.00005 0.960584
0.994879 0.999214 0.981503
0.995241 0.99996 0.940289
0.994269 1.00329 0.955988
0.994621 0.999536 0.939537
0.997187 1.00233 0.997901
0.993779 1.00202 0.973629
0.994194 1.00229 0.962915
0.995247 1.00276 0.998391
0.994693 0.999656 0.931841
0.995417 0.999172 0.958327
0.995033 0.999958 0.942286
0.99667 1.0026 0.998625
0.99376 1.00109 0.979173
0.994242 1.00282 0.958571
0.994722 0.999811 0.927214
0.995332 0.999927 0.940356
0.995643 0.998766 0.991407
0.996522 1.00017 0.952545
0.999342 0.999439 0.996374
0.998295 1.00016 0.997846
0.996705 0.999571 1.00165
1.00039 1.00143 0.99251
1.00012 1.00026 0.994107
0.999324 0.99923 0.996641
0.99999 1.00119 0.993519
0.998758 0.999183 0.997579
0.998327 1.00271 0.994788
1.00005 1.00133 0.993333
1.00008 1.00155 0.992963
0.999719 1.00237 0.993064
0.999293 1.00448 0.991252
0.99947 1.00264 0.992895
0.999848 1.00383 0.99082
1.00063 1.00497 0.988564
1.00169 1.0047 0.98685
1.00016 1.00393 0.990804
1.0006 1.00486 0.988521
1.00083 1.0046 0.988922
0.999864 1.00471 0.989881
1.00046 1.00485 0.988935
0.999907 1.00345 0.991438
0.999948 1.0043 0.990583
1.00023 1.0048 0.989198
1.00008 1.00136 0.993172
0.999909 1.00275 0.99205
0.999765 1.00402 0.991077
0.999926 1.002 0.992834
1.00013 1.00091 0.993541
1.00009 0.999779 0.994708
1.00017 1.00069 0.993707
1.00016 0.999614 0.994742
0.999913 0.997972 0.9968
1.00022 0.999511 0.994736
0.999993 0.997832 0.996798
0.99981 0.996683 0.999295
1.00006 0.997722 0.996773
0.999923 0.996569 0.998798
0.999947 0.996519 0.999279
1.00029 1.00091 0.993147
1.00022 0.999705 0.99437
1.00025 1.00089 0.993309
1.00011 0.997627 0.996786
1.0002 0.999561 0.994548
1.0002 1.00081 0.993578
0.999995 0.996367 0.999305
1.00013 0.997495 0.996881
1.00019 0.999439 0.994701
1.00002 0.996267 0.999323
1.00015 0.997415 0.99694
1.00003 0.996239 0.999326
0.99367 1.00145 0.974289
0.99439 1.00183 0.955341
0.994862 0.998919 0.935418
1.00029 1.00154 0.992653
1.00027 1.0015 0.992657
1.00026 1.00187 0.992398
0.994257 1.00189 0.95921
0.994248 1.00272 0.958295
0.995171 1.00349 0.941525
0.995046 1.00042 0.979078
0.997735 1.00008 0.953206
0.99517 0.999887 0.941677
0.99467 0.999795 0.930113
0.995607 0.999484 0.975612
0.996454 1.00005 0.956943
0.995094 0.999971 0.94242
0.994639 0.999368 0.937846
0.994885 0.999591 0.972336
0.995831 1.00007 0.959307
0.994709 1.00002 0.941483
0.994593 0.999755 0.936273
1.0003 1.00217 0.99197
1.00024 1.00243 0.991823
1.00013 1.00249 0.991969
1.00027 1.002 0.992198
1.00025 1.00209 0.992253
1.00028 1.00159 0.99274
0.998891 0.999529 0.996579
0.999027 0.998557 0.997308
1.00018 1.00272 0.991751
1.00048 1.00219 0.991765
1.00008 1.00313 0.991484
1.00027 1.00233 0.99188
1.00009 1.00244 0.992143
0.997469 0.999355 0.997155
1.00001 1.00222 0.992546
0.997556 1.00028 0.999473
1.00012 1.00207 0.992494
0.995849 0.998976 0.998009
0.997508 1.00177 0.99869
0.999725 1.0015 0.99389
0.993716 1.00201 0.983515
0.993588 1.002 0.978476
0.994239 1.00225 0.958098
0.99744 1.00232 0.997685
0.995969 1.00255 0.996307
0.993735 1.00208 0.973612
0.995319 0.999221 0.963693
0.994741 0.999977 0.939394
0.994121 1.00237 0.966791
0.994705 0.999751 0.930306
0.996377 1.00311 0.99884
0.993708 1.001 0.980571
0.994288 1.00271 0.958386
0.995098 0.999075 0.986812
0.994704 0.999792 0.924354
0.995288 0.999944 0.941364
0.995576 1.00021 0.95898
0.995344 1.00161 1.00103
0.993654 1.00122 0.974655
0.995076 1.00315 0.942893
0.994618 0.998189 0.924606
0.995727 0.999347 0.934923
0.995835 1.00004 0.958761
0.995827 0.999026 0.982051
0.998152 1.0009 0.997627
0.996947 0.999193 1.0015
0.996811 1.00129 0.999414
0.999994 1.00123 0.993469
0.998918 0.998867 0.99767
0.998132 1.00286 0.995093
0.99888 1.00368 0.99333
0.999899 1.00243 0.992936
0.999825 1.00439 0.990917
1.00066 1.00505 0.988412
0.999647 1.00379 0.991151
1.00071 1.00491 0.988485
1.00219 1.00481 0.986196
1.00328 1.00341 0.98537
1.00122 1.0045 0.987663
1.00167 1.00483 0.986764
1.00075 1.00489 0.988366
1.00059 1.00432 0.989553
1.00062 1.00444 0.989231
0.999893 1.0043 0.990484
0.999951 1.00472 0.989996
1.0005 1.0047 0.989092
1.00003 1.00212 0.992495
0.99996 1.00336 0.991445
0.99998 1.0043 0.990573
1.00002 1.00007 0.994542
1.00009 1.00136 0.993158
0.999893 1.00273 0.992022
1.00014 1.00092 0.993527
1.00009 0.999782 0.994704
0.999821 0.998163 0.996775
1.00017 0.999609 0.994741
0.999917 0.997971 0.9968
0.999743 0.996849 0.999286
1 0.997823 0.996797
0.99984 0.996707 0.998808
0.999885 0.996613 0.999285
1.00032 1.00092 0.993177
1.00025 0.999817 0.994372
1.00029 1.00091 0.993181
1.00008 0.99779 0.996681
1.00023 0.999708 0.994439
1.00026 1.00089 0.993385
0.999955 0.996497 0.999283
1.00011 0.997622 0.996793
1.00021 0.999568 0.994523
0.999999 0.996346 0.99931
1.00013 0.997493 0.996885
1.00003 0.996257 0.999325
0.993773 1.0008 0.979306
0.993748 1.00116 0.974284
0.994381 1.00203 0.955216
1.00022 1.0016 0.992635
1.00009 1.00222 0.992354
1.00027 1.00155 0.992692
1.00026 1.00151 0.992662
1.00024 1.00187 0.992374
1.00019 1.00186 0.992519
1.00026 1.00197 0.99229
0.994238 1.0026 0.95654
0.994164 1.00204 0.963115
0.994288 1.00251 0.958118
0.994612 0.999457 0.939605
0.994839 0.999879 0.973131
0.995278 1.00006 0.956931
0.994768 0.999974 0.94362
0.99543 0.999661 0.971734
0.995294 1.00007 0.955037
0.994853 0.999967 0.94359
0.994603 0.99972 0.938287
0.996041 0.997725 0.975841
0.995146 1.00008 0.954412
0.995203 0.999947 0.938529
0.994684 0.99985 0.92842
1.00008 1.00204 0.992541
1.00029 1.00214 0.99199
1.00024 1.00243 0.991804
1.00028 1.002 0.992185
0.997604 0.999495 0.997466
0.99755 1.00003 0.999624
1.0003 1.00229 0.991791
1.00008 1.00237 0.992253
0.999909 1.00226 0.993036
1.0001 1.00209 0.992436
0.999587 1.00154 0.993844
0.995762 0.999775 0.995824
0.997022 1.00225 0.99894
0.999431 1.00189 0.993706
0.995572 0.999499 0.99516
0.997946 1.00226 0.99787
0.99363 1.00165 0.977573
0.993582 1.00139 0.985269
0.993496 1.0019 0.980137
0.99623 1.00343 0.998995
0.995397 0.99839 0.992297
0.993653 1.00092 0.981979
0.996758 1.00018 0.953155
0.995043 0.999917 0.942644
0.994333 1.0025 0.958199
0.994685 0.999837 0.925031
0.99555 1.00083 1.00129
0.99373 1.00103 0.974647
0.995159 1.00309 0.942407
0.994875 0.9991 0.985441
0.99459 0.998154 0.919145
0.997606 0.99985 0.937229
0.995339 1.00005 0.955037
0.99568 1.0017 0.9979
0.99444 1.00078 0.956142
0.995205 0.998928 0.927606
0.998191 0.99831 0.937188
0.995506 1.00043 0.959198
0.994895 0.999127 0.976416
0.99732 0.9986 1.00127
0.99675 1.00201 0.99936
0.999085 0.99882 0.998501
0.997969 1.00304 0.995399
0.998268 1.00369 0.99365
1.00144 1.00202 0.990024
1.00036 1.00429 0.990579
1.00089 1.00504 0.988281
1.00244 1.00307 0.98662
1.00079 1.00486 0.988407
1.00223 1.00486 0.986024
1.00373 1.00212 0.985352
1.00457 1.00039 0.985781
1.00285 1.00444 0.98552
1.00331 1.00343 0.985173
1.001 1.00408 0.988483
1.00122 1.00447 0.987877
1.00167 1.00497 0.986679
1.00045 1.00439 0.989582
1.00051 1.00436 0.989531
1.00042 1.0043 0.989538
1.00006 1.00297 0.99156
0.999918 1.00418 0.990619
1.00005 1.00472 0.990111
0.999959 1.00062 0.994088
1.00006 1.00208 0.992492
1.00001 1.00326 0.991451
0.999735 0.998385 0.996716
1.00001 1.00009 0.994532
1.0001 1.00137 0.993144
1.00009 0.999783 0.994701
0.999827 0.998166 0.996774
0.999644 0.99704 0.99928
0.999922 0.997973 0.996799
0.999731 0.996881 0.999285
0.999808 0.996744 0.999287
1.00021 1.00172 0.992599
1.00034 1.00096 0.993115
1.00025 0.999933 0.994246
1.00032 1.00093 0.993172
1.00004 0.997974 0.996574
1.00024 0.999837 0.994369
1.00028 1.00094 0.993215
0.999903 0.996657 0.999258
1.00008 0.997785 0.996688
1.00023 0.999712 0.994508
0.99996 0.996469 0.99929
1.00011 0.997618 0.996799
1 0.996324 0.999315
0.993802 1.00117 0.974296
0.9937 1.00074 0.980694
0.993823 1.00098 0.974274
1.00025 1.00157 0.992661
1.00008 1.00223 0.99231
1.00004 1.00257 0.992008
1.00009 1.00208 0.992373
1.00006 1.00262 0.992052
1.00026 1.00151 0.992666
1.00023 1.00188 0.992351
1.00018 1.00186 0.992517
1.00026 1.00197 0.992286
1.00008 1.0021 0.992543
0.994839 1.00284 0.942885
0.994258 1.00272 0.956368
0.994069 1.00218 0.967015
0.994617 0.999686 0.93846
0.994713 1 0.939988
0.994866 0.999637 0.970474
0.995028 1.00006 0.958758
0.995593 0.997869 0.972136
0.995781 1.00007 0.958852
0.99487 0.999938 0.941888
0.994886 0.999844 0.926299
0.996135 0.995617 0.97658
0.995351 1.00009 0.959566
0.995805 0.99989 0.940945
0.995064 0.998163 0.923791
0.999415 1.00146 0.994199
1.00005 1.00212 0.992555
1.00029 1.00212 0.99201
0.995609 1.0004 0.993662
0.996858 1.00258 0.999174
1.0001 1.00209 0.992377
0.99946 1.00169 0.993798
0.999419 1.00193 0.99372
0.997757 1.0018 0.997749
0.995298 0.999549 0.99536
0.998021 1.00159 0.996724
0.995887 1.00123 0.994479
0.99436 1.00135 0.956786
0.993524 1.00149 0.979206
0.993413 1.00076 0.987023
0.995529 1.00024 1.00162
0.99528 0.998927 0.979698
0.993802 1.00092 0.974634
0.996754 1.00005 0.955869
0.995144 0.999882 0.941148
0.995182 1.00333 0.941938
0.994581 0.998119 0.913694
0.99577 1.00145 0.998166
0.994422 1.00149 0.955929
0.995175 0.999174 0.925757
0.994979 0.999021 0.977884
0.997989 0.998933 0.93765
0.996266 1.00005 0.956
0.99716 0.999148 0.994739
0.994867 0.998437 0.934914
0.998311 0.99694 0.939346
0.998334 0.999351 0.954194
0.994871 0.999197 0.977831
0.996731 1.00253 0.999294
0.998925 0.998778 0.998535
1.00248 0.998001 0.993242
0.99775 1.00364 0.993951
1.00085 1.00228 0.990473
1.0032 0.999189 0.988641
1.00113 1.00499 0.988149
1.00248 1.00316 0.986679
1.00426 0.999693 0.9868
1.00225 1.00497 0.985851
1.00377 1.0022 0.985389
1.00497 0.998805 0.986435
1.00502 0.998671 0.986614
1.00387 1.00244 0.985117
1.0045 1.00041 0.985817
1.00224 1.00424 0.986501
1.00267 1.00444 0.985389
1.00333 1.00345 0.984978
1.00101 1.00378 0.989069
1.00095 1.004 0.988738
1.00122 1.00445 0.988092
1.0004 1.00332 0.990611
1.00037 1.00433 0.989678
1.00043 1.00438 0.989508
0.999956 1.00146 0.993246
1.00011 1.00292 0.991563
0.99994 1.00407 0.990753
0.999635 0.998731 0.997022
0.999957 1.00064 0.99407
1.00009 1.00204 0.99249
0.999559 0.997301 0.998265
0.999735 0.998421 0.996937
1.00001 1.00011 0.994522
0.999834 0.998171 0.996772
0.999632 0.997084 0.999275
0.999718 0.996915 0.999283
1.00016 1.00207 0.992285
1.00031 1.00114 0.992987
1.00019 1.00177 0.992564
1.00023 1.00006 0.994172
1.00032 1.00099 0.993115
0.999982 0.998158 0.996485
1.00025 0.999954 0.994243
1.00033 1.00093 0.993166
0.999843 0.99684 0.999231
1.00003 0.997972 0.996579
1.00024 0.999858 0.994365
0.99991 0.996626 0.999265
1.00008 0.997781 0.996694
0.999966 0.996441 0.999296
0.994733 1.00066 0.957595
0.993753 1.00124 0.974297
0.993625 1.00071 0.98209
1.00004 1.00277 0.991894
1.00025 1.00159 0.992686
1.00008 1.00226 0.992267
1.00011 1.0021 0.992406
1.00008 1.00252 0.992052
1.00005 1.00261 0.992009
1.00004 1.00292 0.991718
0.999959 1.0026 0.992033
1.00018 1.00186 0.992514
1.00024 1.00197 0.992282
1.00004 1.00213 0.9925
0.999735 1.00253 0.993017
0.99497 0.999536 0.925943
0.995032 1.00295 0.942346
0.994263 1.00285 0.9562
0.995076 0.999848 0.927859
0.995235 0.999933 0.941745
0.995148 1.00009 0.954566
0.996071 0.997976 0.97044
0.99633 0.995334 0.978444
0.994804 0.998151 0.918511
0.995514 1.00005 0.956057
0.997363 0.999897 0.936475
0.995619 0.99751 0.979277
0.995831 1.00003 0.960974
0.998373 0.998866 0.935497
0.999202 1.00054 0.99553
0.999574 1.0014 0.994177
1 1.00221 0.992569
0.99491 0.999503 0.995511
0.997768 1.00104 0.997624
0.999431 1.00193 0.993732
0.998696 1.00136 0.996541
0.9957 1.00131 0.994675
0.997783 1.00086 0.99456
0.994805 0.999824 0.931865
0.994282 1.00105 0.960791
0.993445 1.00135 0.98084
0.995775 1.00171 0.998472
0.994897 0.999017 0.978827
0.994411 1.00183 0.955774
0.995282 1.0001 0.956244
0.998275 0.998394 0.932913
0.995229 0.999244 0.927365
0.997197 0.999272 0.994802
0.994886 0.998349 0.935967
0.999194 0.996409 0.935493
0.995019 0.999289 0.973782
0.997241 0.999251 0.959375
0.998624 0.998707 0.995217
0.999933 0.995261 0.934963
0.998522 0.998315 0.95994
0.995266 0.999317 0.972651
0.998658 0.998828 0.99861
1.00189 0.997688 0.993983
1.00376 0.9971 0.991082
1.00026 1.00258 0.990924
1.00314 0.999646 0.988568
1.00468 0.996815 0.988731
1.00251 1.0033 0.986739
1.00417 0.99986 0.986815
1.00495 0.997535 0.987857
1.00382 1.00222 0.985426
1.00502 0.998784 0.986424
1.0051 0.997515 0.987603
1.00513 0.998049 0.98706
1.00484 0.99995 0.985919
1.00502 0.998669 0.986609
1.00324 1.00278 0.985644
1.00386 1.00235 0.985252
1.00443 1.00044 0.985852
1.00171 1.00356 0.987991
1.00204 1.00421 0.98659
1.00249 1.00442 0.985258
1.00094 1.00307 0.989913
1.00107 1.00375 0.989042
1.0009 1.00391 0.988992
1.00012 1.00219 0.992241
1.00044 1.0033 0.990619
1.0003 1.00426 0.989774
0.999596 0.999176 0.996132
0.999991 1.00142 0.993228
1.00016 1.00288 0.991566
0.999422 0.997572 0.99924
0.999646 0.998785 0.99649
0.999958 1.00066 0.994052
0.999537 0.997299 0.999258
0.999742 0.998437 0.996683
0.999621 0.997128 0.999271
1.00015 1.00237 0.992086
1.00018 1.00207 0.992277
1.00027 1.00144 0.992748
1.00017 1.00023 0.99411
1.00029 1.00115 0.992992
1.00019 1.00177 0.992529
0.99992 0.998324 0.996435
1.00022 1.00006 0.994172
1.00031 1.00099 0.993115
0.999775 0.99702 0.999209
0.99998 0.998155 0.996489
1.00024 0.999972 0.994241
0.999849 0.996807 0.999239
1.00003 0.997968 0.996585
0.999917 0.996593 0.999273
0.994874 0.999477 0.928987
0.994674 1.0007 0.957406
0.993707 1.00131 0.974295
0.999984 1.00286 0.991849
1.00016 1.00318 0.991407
0.999958 1.00318 0.991597
1.00013 1.00211 0.992438
1.00012 1.00246 0.992096
0.999997 1.00264 0.991967
1.00001 1.0026 0.992005
1.00002 1.00295 0.991683
0.999886 1.0036 0.991396
1.00016 1.00165 0.992713
1.00007 1.00211 0.992458
0.999721 1.00234 0.992972
0.999677 0.996941 0.933738
0.994934 0.999581 0.923099
0.995233 1.00306 0.941838
0.99464 0.998141 0.913239
0.99605 0.999506 0.940311
0.995988 1.00001 0.957619
0.996018 0.995151 0.97605
0.995317 0.997633 0.977496
0.997832 0.998818 0.937001
0.99635 1.00001 0.956161
0.995835 0.997854 0.978926
0.997887 0.999449 0.954249
1.00148 0.999591 0.992984
0.999406 1.00043 0.995341
0.999682 1.00132 0.994164
0.995257 1.00172 0.994847
0.999132 1.00121 0.996357
0.99814 1.00116 0.993964
1.00109 0.999306 0.989899
0.999963 0.994872 0.937379
0.994821 1.00004 0.933947
0.994211 1.00082 0.964749
0.997269 0.999233 0.994929
0.99486 0.999284 0.973586
0.994899 0.998674 0.93606
0.997312 0.999097 0.953867
0.99993 0.997773 0.940206
0.998529 0.99897 0.993672
0.999957 0.995293 0.937145
1.00032 0.996961 0.953901
0.995315 0.999026 0.975348
0.99938 0.99732 0.994818
1.00039 0.996405 0.957702
0.995833 1.00058 0.9781
1.00127 0.997323 0.994716
1.00364 0.996729 0.99105
1.00501 0.995303 0.990097
1.00307 1.00006 0.988493
1.00459 0.996803 0.988729
1.00486 0.995904 0.989443
1.00406 0.999946 0.98683
1.0049 0.997509 0.987814
1.0051 0.996207 0.988835
1.00506 0.998764 0.986414
1.00509 0.997474 0.987625
1.00513 0.996836 0.988215
1.00514 0.99762 0.987556
1.00513 0.997979 0.987136
1.00506 0.998665 0.986683
1.00445 1.00068 0.985948
1.00486 0.999825 0.985931
1.00502 0.998669 0.986605
1.00274 1.00276 0.986665
1.00325 1.00287 0.985763
1.00385 1.00222 0.985388
1.00143 1.0029 0.989154
1.00175 1.00355 0.987957
1.00185 1.00422 0.986678
1.00042 1.00238 0.991488
1.00099 1.00304 0.989907
1.00112 1.00372 0.989014
0.999614 0.999774 0.995477
1.00017 1.00211 0.992239
1.0005 1.00326 0.990627
0.9994 0.997849 0.99916
0.999593 0.999254 0.996096
1.00002 1.00139 0.993211
0.999453 0.997607 0.998711
0.999654 0.998807 0.996475
0.999529 0.99738 0.999245
1.00021 1.00271 0.991631
1.0001 1.00243 0.992063
1.00018 1.00191 0.992442
1.0002 1.00208 0.992268
1.00025 1.00146 0.99275
1.00009 1.0005 0.993966
0.999845 0.9985 0.996405
1.00017 1.00022 0.994115
1.00026 1.00118 0.992997
0.999697 0.997189 0.999196
0.999917 0.998322 0.996437
1.00022 1.00007 0.994172
0.999782 0.996993 0.999215
0.999977 0.998155 0.996493
0.999856 0.996772 0.999247
0.999917 0.995125 0.938602
0.99492 0.999879 0.928938
0.994604 1.00075 0.957207
0.999934 1.00296 0.991804
0.999932 1.00333 0.991471
1.00005 1.00315 0.991522
1.00053 1.00332 0.990575
0.999902 1.0038 0.991139
1.00004 1.00262 0.991978
1.00001 1.00297 0.991648
0.999843 1.00344 0.99145
0.999839 1.00383 0.990608
1.00033 1.00235 0.991728
1.00319 1.00039 0.988539
0.999875 1.00185 0.992981
0.999772 1.00213 0.992927
1.00028 0.997325 0.95708
0.999018 0.996991 0.935596
0.994912 0.999474 0.923855
0.998175 0.999228 0.931826
0.995764 1.00024 0.957504
0.995591 0.997762 0.979974
0.995581 0.997899 0.980923
0.99709 0.999435 0.960618
0.997351 0.999795 0.977307
1.0038 0.997335 0.990439
1.00113 0.999407 0.993002
0.999596 1.00035 0.995145
0.998462 1.00133 0.993407
1.00182 1.00031 0.988568
1.00047 0.995478 0.95489
0.999952 0.995217 0.939725
0.994841 1.00007 0.936075
0.998385 0.999286 0.992106
0.994872 0.999164 0.972834
0.99993 0.995226 0.937808
0.999208 0.998869 0.959961
0.999232 0.998401 0.995071
1.00157 0.995477 0.957697
0.995702 0.999785 0.974939
1.0008 1.00088 0.991865
0.999953 0.997468 0.982504
1.00352 0.996362 0.991028
1.005 0.995166 0.989865
1.00507 0.994966 0.990117
1.00448 0.99684 0.988725
1.00478 0.995927 0.989425
1.00507 0.995033 0.989925
1.00488 0.997494 0.98777
1.0051 0.996153 0.988826
1.00511 0.995863 0.989221
1.00507 0.997424 0.987647
1.00513 0.996854 0.988186
1.00513 0.99697 0.98825
1.00514 0.997505 0.987607
1.00509 0.998182 0.987147
1.00513 0.997905 0.987211
1.00507 0.99865 0.986683
1.00483 0.999333 0.986524
1.00384 1.00119 0.986299
1.00443 1.00066 0.985924
1.00489 0.9997 0.985943
1.00217 1.00253 0.988194
1.00269 1.00282 0.986772
1.00325 1.00297 0.985882
1.00075 1.00231 0.990892
1.00148 1.00289 0.989131
1.00179 1.00354 0.987924
0.999729 1.00032 0.994712
1.00045 1.00234 0.991494
1.00102 1.00304 0.989901
0.999413 0.998179 0.999028
0.999619 0.999833 0.995447
1.00022 1.00202 0.992237
0.999423 0.997907 0.999123
0.999589 0.99933 0.996058
0.999464 0.997658 0.999192
1.00063 1.00293 0.990672
1.00022 1.00265 0.991627
1.0002 1.00235 0.991895
1.00006 1.00248 0.99204
1.00016 1.00198 0.992372
1.00003 1.00096 0.993582
1.00023 1.00147 0.992753
1.00009 1.00049 0.993974
0.999756 0.998727 0.996346
0.999612 0.997369 0.999185
0.999841 0.998495 0.996408
1.00016 1.00022 0.994119
0.999706 0.99717 0.9992
0.999914 0.998321 0.996439
0.999789 0.996964 0.999222
1.00143 0.995229 0.959536
0.99994 0.995297 0.937233
0.994941 1.00039 0.927556
0.999901 1.00348 0.991346
0.999963 1.0031 0.991638
0.999924 1.00378 0.991186
1.00047 1.00329 0.99063
1.00088 1.00362 0.989547
1.00002 1.00372 0.990709
0.999801 1.00331 0.991503
1.00012 1.00393 0.990283
1.00028 1.00265 0.991468
1.00115 1.00233 0.989649
1.00329 1.00045 0.988954
1.00423 0.99876 0.987629
1.00279 1.00042 0.988935
0.999559 1.00218 0.993248
0.996521 0.999906 0.976322
1.00015 0.996898 0.95662
0.998738 0.997285 0.940265
0.998862 0.999704 0.954152
0.995366 0.998046 0.982274
0.997728 0.999298 0.981635
1.00165 0.998497 0.991512
1.00368 0.997353 0.990773
1.00109 0.99915 0.993018
1.00306 1.00141 0.987197
0.998585 0.996776 0.977984
1.0011 0.995105 0.96116
0.999925 0.99564 0.93566
0.999159 0.999203 0.995272
0.995459 1 0.9771
1.00109 0.995332 0.957697
1.00081 1.00033 0.992007
0.999176 0.99745 0.981263
1.00352 1.00111 0.989238
1.00439 0.995888 0.989866
1.00494 0.995037 0.989626
1.00505 0.99495 0.990061
1.00507 0.995005 0.990172
1.0047 0.995955 0.989411
1.00506 0.995155 0.989884
1.00509 0.995281 0.989821
1.0051 0.996106 0.988816
1.00512 0.995891 0.989189
1.00512 0.99653 0.988746
1.00514 0.996877 0.988158
1.00513 0.996977 0.988174
1.00512 0.997804 0.987381
1.00514 0.997392 0.987658
1.00508 0.998097 0.987216
1.00492 0.998854 0.986836
1.00508 0.99865 0.986684
1.00484 0.999302 0.986515
1.00439 0.99995 0.986784
1.00308 1.00138 0.987413
1.00377 1.00128 0.986382
1.00441 1.00063 0.9859
1.0013 1.00208 0.990155
1.00218 1.00251 0.988192
1.00264 1.00288 0.986879
0.999837 1.00081 0.99402
1.00079 1.00234 0.990883
1.00153 1.00288 0.989108
0.999466 0.998561 0.998832
0.99976 1.00032 0.994701
1.0005 1.0023 0.991499
0.999451 0.998253 0.998966
0.999626 0.999895 0.995417
0.999453 0.997968 0.999083
1.00098 1.00332 0.989656
1.00065 1.00291 0.990712
1.0005 1.0026 0.991186
1.00022 1.00262 0.991623
1.00022 1.00239 0.991815
1.0001 1.00147 0.992965
1.00015 1.00205 0.992304
1.00004 1.00096 0.993592
0.999665 0.999054 0.996181
1.0001 1.00047 0.993982
0.999755 0.998706 0.996354
0.999531 0.997575 0.999168
0.999623 0.997345 0.999189
0.999838 0.998489 0.99641
0.999714 0.997148 0.999203
0.997604 0.998429 0.977846
1.00125 0.995708 0.954052
0.999909 0.995161 0.94034
1.00195 1.00291 0.988356
0.999952 1.00377 0.991232
1.0004 1.00328 0.990685
1.00012 1.00379 0.990633
1.00082 1.00374 0.98949
1.00096 1.00244 0.990231
1.00038 1.00403 0.989957
1.00031 1.00288 0.991207
1.00132 1.00225 0.98988
1.00334 1.00047 0.988499
1.00436 0.99923 0.98715
1.00457 0.997277 0.988691
1.00432 0.998844 0.98725
1.00246 1.00038 0.989332
1.00052 0.998948 0.993587
0.996789 0.999795 0.974899
0.999645 0.997271 0.956574
0.99786 0.99845 0.980014
1.00166 0.997403 0.993494
1.00314 0.997419 0.991096
1.00266 0.99626 0.989005
0.997848 0.996024 0.980491
1.00059 0.99522 0.954827
1.00071 0.99995 0.992145
0.999283 0.997436 0.979933
1.00345 0.999163 0.989444
1.00432 0.995834 0.989802
1.00505 0.99611 0.989973
1.0049 0.996212 0.990482
1.00508 0.994969 0.990005
1.00507 0.994995 0.990207
1.00511 0.995176 0.990003
1.00505 0.995261 0.989841
1.00509 0.995344 0.98982
1.00513 0.996123 0.989074
1.00512 0.995919 0.989157
1.00512 0.996525 0.988688
1.00515 0.997614 0.987535
1.00512 0.996985 0.988098
1.00511 0.997815 0.987397
1.00501 0.998597 0.98683
1.00508 0.998012 0.987284
1.00492 0.998774 0.986859
1.0046 0.999372 0.986833
1.00486 0.999262 0.986505
1.00439 0.999911 0.986703
1.00375 1.00043 0.987414
1.00204 1.00139 0.989516
1.00304 1.00146 0.987503
1.0037 1.00139 0.986466
1.00003 1.00107 0.993393
1.00132 1.00209 0.990145
1.0022 1.00249 0.98819
0.999461 0.99901 0.998625
0.999938 1.0007 0.994009
1.00083 1.00234 0.990875
0.99949 0.998644 0.998759
0.999792 1.00032 0.994689
0.999492 0.998318 0.998897
1.00167 1.00316 0.988363
1.00095 1.00331 0.989669
1.00091 1.0028 0.990359
1.00068 1.00289 0.990752
1.00051 1.00258 0.991203
1.00022 1.00192 0.992327
1.00024 1.00242 0.991734
1.00006 1.00155 0.992965
0.999598 0.999516 0.995822
1.00003 1.00096 0.993601
0.99967 0.999005 0.996201
0.999475 0.997796 0.999125
0.999755 0.998688 0.996363
0.999538 0.997541 0.999175
0.999632 0.997325 0.999193
1.00142 0.998396 0.991433
0.997674 0.998016 0.974369
1.00043 0.99575 0.95996
1.00218 1.0017 0.988704
1.00396 1.00059 0.986758
1.00171 1.00287 0.988537
1.00021 1.00387 0.990555
1.00076 1.00386 0.989427
1.00129 1.00232 0.989999
1.00413 0.99956 0.987661
1.00144 1.0022 0.990111
1.00317 1.00053 0.988046
1.00426 0.999296 0.987337
1.00506 0.997952 0.987312
1.00495 0.995984 0.98934
1.00465 0.997403 0.988483
1.00437 0.999007 0.986874
1.0009 0.998837 0.993712
0.996445 1.00038 0.972922
1.00184 0.996361 0.995482
1.00506 0.995618 0.990544
1.00245 0.996745 0.989158
0.998523 0.995926 0.977165
1.0035 0.997462 0.989657
1.00428 0.99609 0.989741
1.00504 0.99555 0.990128
1.00495 0.995763 0.990285
1.00504 0.995156 0.99004
1.00513 0.995434 0.989479
1.00508 0.99495 0.990241
1.00512 0.995126 0.989989
1.00514 0.996029 0.989148
1.0051 0.995411 0.98982
1.00513 0.996221 0.988963
1.00514 0.997299 0.987897
1.00512 0.996516 0.988629
1.00514 0.997627 0.987547
1.0051 0.99851 0.986769
1.0051 0.997827 0.987413
1.00501 0.998598 0.986841
1.00475 0.999218 0.986742
1.00493 0.998696 0.986882
1.0046 0.999349 0.986819
1.00402 0.999918 0.987396
1.00439 0.999872 0.986622
1.0037 1.00041 0.98737
1.00263 1.0006 0.989219
1.00032 1.00093 0.992943
1.00203 1.0014 0.989513
1.003 1.00154 0.987592
0.999401 0.999535 0.998439
1.00012 1.00099 0.993375
1.00133 1.00213 0.990136
0.999474 0.999124 0.998559
1.00001 1.00064 0.993996
0.999517 0.998731 0.998688
1.00288 1.00201 0.986952
1.00166 1.00313 0.988242
1.00155 1.00275 0.989177
1.00093 1.00329 0.989683
1.00085 1.0028 0.990383
1.00043 1.00226 0.991682
1.00051 1.00255 0.99122
1.00018 1.00199 0.992324
0.99964 1.00001 0.995251
1.00003 1.00161 0.992966
0.999612 0.999443 0.995849
0.999458 0.998066 0.999021
0.999674 0.998958 0.996222
0.999471 0.997761 0.999142
0.999545 0.997512 0.999181
1.00508 0.99557 0.989749
1.00156 0.998043 0.990405
0.997407 0.997159 0.975102
1.00445 0.999501 0.987052
1.00186 1.00137 0.989626
1.00491 0.998795 0.986689
1.00405 1.00062 0.986704
1.00147 1.00283 0.988725
1.00508 0.998144 0.987015
1.00162 1.00217 0.989773
1.0043 0.999566 0.987257
1.00512 0.997059 0.987957
1.00425 0.999323 0.987524
1.00502 0.997886 0.987357
1.00491 0.996027 0.989444
1.00456 0.997491 0.988264
1.00114 0.998683 0.99387
1.00514 0.995777 0.989105
1.00507 0.995901 0.990542
1.00227 0.996886 0.98929
1.00501 0.994891 0.99029
1.00494 0.995346 0.990091
1.00504 0.995079 0.990183
1.00514 0.99545 0.989517
1.00517 0.996003 0.989042
1.00512 0.995061 0.989976
1.00514 0.996006 0.989154
1.0051 0.997104 0.988172
1.00513 0.996327 0.988853
1.00514 0.997387 0.987793
1.00514 0.998472 0.98676
1.00514 0.99764 0.98756
1.0051 0.998514 0.986779
1.00487 0.999161 0.986572
1.00501 0.998599 0.986851
1.00474 0.999218 0.986745
1.00419 0.999713 0.987288
1.00459 0.999322 0.986805
1.004 0.999927 0.987402
1.00294 1.00017 0.989097
1.00365 1.0004 0.987326
1.00262 1.00062 0.989215
1.00057 1.00062 0.993902
0.999497 0.99991 0.99604
1.00041 1.00087 0.993483
1.00202 1.00143 0.989511
0.999432 0.99966 0.998369
1.00024 1.00086 0.993355
0.999488 0.99922 0.998488
1.00511 0.998592 0.986795
1.00413 1.00005 0.986726
1.00305 1.00198 0.986841
1.00234 1.00229 0.988094
1.00166 1.0031 0.98812
1.00149 1.00278 0.989205
1.00084 1.00228 0.99092
1.00079 1.00281 0.990406
1.00038 1.00227 0.991694
0.999788 1.00049 0.994544
1.00013 1.00207 0.992322
0.999629 0.999981 0.995266
0.99945 0.998438 0.998844
0.999625 0.999365 0.995873
0.999439 0.998013 0.999061
0.99947 0.997724 0.999157
1.00515 0.996313 0.988612
1.00511 0.995652 0.990156
1.00182 0.997786 0.989377
1.00514 0.998285 0.986819
1.00427 0.999552 0.987336
1.00156 1.00106 0.990531
1.00494 0.998917 0.986683
1.00414 1.00065 0.986649
1.0051 0.997271 0.988102
1.00508 0.998144 0.986968
1.00447 0.999595 0.98685
1.00512 0.997048 0.987958
1.00501 0.997841 0.987401
1.00491 0.996069 0.989563
1.00516 0.996257 0.988971
1.00516 0.995763 0.989163
1.00508 0.996179 0.990545
1.00507 0.995004 0.990322
1.00514 0.995478 0.989555
1.00517 0.995878 0.989177
1.00514 0.997143 0.988112
1.00514 0.995995 0.989161
1.00511 0.997123 0.988143
1.00514 0.998359 0.986877
1.00514 0.997474 0.98769
1.00513 0.998472 0.986774
1.00496 0.999201 0.986374
1.00509 0.998519 0.986789
1.00487 0.999161 0.986577
1.00433 0.999649 0.98709
1.00474 0.999218 0.986748
1.00418 0.999716 0.987288
1.00309 1.00002 0.988957
1.00399 0.999935 0.987408
1.00294 1.00017 0.989091
1.00076 1.00025 0.993961
1.0026 1.00064 0.989212
1.00069 1.00055 0.993855
0.999551 1.00013 0.995926
0.999416 1.00008 0.99711
1.00055 1.00079 0.993942
0.999458 0.999776 0.998299
1.00514 0.998484 0.986737
1.00476 0.999126 0.986946
1.00508 0.998499 0.986815
1.00329 1.00108 0.987483
1.0042 1.00011 0.986684
1.00322 1.00194 0.986728
1.00234 1.0023 0.98809
1.00146 1.00197 0.99004
1.00143 1.0028 0.989232
1.0008 1.00226 0.990937
0.999976 1.00088 0.993843
1.00032 1.00228 0.991706
0.99972 1.00054 0.994555
0.999395 0.998983 0.998625
0.999617 0.99995 0.995282
0.999432 0.998361 0.998909
0.999429 0.997965 0.999096
1.00512 0.996715 0.98849
1.00515 0.996306 0.988614
1.00512 0.995727 0.99054
1.00513 0.997802 0.987429
1.00514 0.998303 0.986845
1.00408 0.999597 0.987625
1.00496 0.999033 0.986677
1.0051 0.99727 0.987987
1.00507 0.998145 0.986922
1.0051 0.997051 0.987959
1.00513 0.996995 0.988275
1.00515 0.996307 0.988884
1.00517 0.995743 0.989221
1.00512 0.997493 0.987729
1.00516 0.995749 0.989312
1.00514 0.997154 0.988099
1.00514 0.99814 0.9872
1.00511 0.99714 0.988113
1.00514 0.998355 0.986886
1.00506 0.999154 0.98624
1.00512 0.998475 0.986787
1.00495 0.999201 0.986388
1.00446 0.999694 0.986795
1.00486 0.99916 0.986582
1.00433 0.999648 0.98709
1.00321 0.999979 0.988776
1.00418 0.999718 0.987289
1.0031 1.00001 0.988953
1.00089 1.00003 0.99398
1.00294 1.00017 0.989085
1.00086 1.0002 0.993914
0.9996 1.00005 0.995982
1.00082 1.00046 0.993815
0.99938 1.0003 0.996023
0.999196 1.00026 0.998369
1.00514 0.998432 0.986741
1.00491 0.998932 0.986764
1.00515 0.998465 0.986737
1.004 0.999967 0.9876
1.00473 0.999032 0.986912
1.00505 0.998407 0.986834
1.00226 1.00117 0.989305
1.00333 1.00109 0.987455
1.00428 1.00016 0.986643
1.00233 1.00232 0.988086
1.00145 1.00193 0.990054
1.0002 1.00106 0.993237
1.00076 1.00224 0.990955
0.999869 1.00098 0.993862
0.999307 0.999638 0.998424
0.999657 1.0006 0.994565
0.999393 0.998863 0.998707
0.99942 0.998278 0.998969
1.00513 0.997368 0.987809
1.00512 0.996642 0.988517
1.00516 0.9963 0.988617
1.00513 0.997779 0.987449
1.00514 0.998323 0.98687
1.00511 0.99727 0.987871
1.00511 0.997541 0.987783
1.00513 0.997059 0.988225
1.00514 0.996355 0.988797
1.00513 0.997475 0.9878
1.00513 0.998132 0.987161
1.00514 0.997166 0.988085
1.00514 0.998212 0.987066
1.00511 0.998926 0.986397
1.00513 0.998347 0.986895
1.00504 0.999154 0.986255
1.00464 0.999695 0.986464
1.00493 0.999198 0.986401
1.00446 0.99969 0.986798
1.00334 0.999992 0.988523
1.00433 0.999646 0.98709
1.00322 0.999965 0.988775
1.00098 0.999986 0.993869
1.00311 0.999988 0.988948
1.00097 1 0.993916
0.999677 0.999959 0.995972
1.00095 1.00016 0.993875
0.999437 1.00015 0.996089
0.999211 1.00052 0.996105
1.00515 0.99808 0.987179
1.00502 0.998895 0.98649
1.00515 0.998352 0.986815
1.00432 0.999458 0.987404
1.00491 0.998955 0.986782
1.00516 0.998449 0.986738
1.00289 1.00029 0.989
1.00402 0.999877 0.987459
1.0047 0.998944 0.986877
1.00049 1.00087 0.992831
1.00228 1.00116 0.989308
1.00337 1.0011 0.987427
1.00144 1.00192 0.99007
1.00009 1.00117 0.993261
0.999301 1.00022 0.998259
0.999763 1.00109 0.993878
0.999305 0.999495 0.998498
0.999392 0.998734 0.99878
1.00512 0.997655 0.9876
1.00512 0.997347 0.987839
1.00512 0.996571 0.988545
1.00512 0.997757 0.98747
1.00512 0.998163 0.987144
1.00512 0.997545 0.987799
1.00513 0.997122 0.988176
1.00513 0.997459 0.987871
1.00512 0.998087 0.987203
1.0051 0.998835 0.986585
1.00514 0.998283 0.986932
1.0051 0.999012 0.986331
1.00477 0.999511 0.98632
1.00502 0.999158 0.986271
1.00463 0.999697 0.986474
1.00353 0.99999 0.988181
1.00446 0.999691 0.986801
1.00335 0.999981 0.98852
1.00108 1.00004 0.992532
1.00324 0.999948 0.988773
1.00105 0.999951 0.993248
0.999678 0.999969 0.998161
1.00105 0.999983 0.993854
0.999536 0.999979 0.996086
0.999288 1.00026 0.996177
1.00514 0.998054 0.987262
1.00508 0.998793 0.986544
1.00515 0.998128 0.987144
1.00455 0.999274 0.986836
1.00503 0.998902 0.986554
1.00517 0.998272 0.986889
1.00319 0.999794 0.988674
1.00432 0.999479 0.987398
1.00491 0.998975 0.9868
1.00078 1.00036 0.992743
1.0029 1.00024 0.988894
1.00404 0.999782 0.987319
0.99938 1.00048 0.998175
1.00043 1.00091 0.99285
1.00228 1.00114 0.989312
0.999988 1.00124 0.993287
0.999254 1.00008 0.998319
0.999299 0.999332 0.998573
1.00512 0.998129 0.98718
1.00512 0.99765 0.987608
1.00512 0.997327 0.987869
1.0051 0.998782 0.98659
1.00512 0.998121 0.987189
1.00512 0.997547 0.987814
1.00512 0.998036 0.987246
1.00511 0.998825 0.986586
1.00482 0.9994 0.986599
1.00509 0.999101 0.986264
1.00477 0.999581 0.986422
1.00371 0.999876 0.98769
1.00463 0.999693 0.986483
1.00353 0.999986 0.988181
1.0012 1.00008 0.992256
1.00336 0.999973 0.988517
1.00109 1.00003 0.992521
0.999711 0.999975 0.99812
1.00107 0.999937 0.992688
0.999622 0.99994 0.997111
0.999396 0.999992 0.996195
1.00514 0.998254 0.987051
1.00509 0.998753 0.986542
1.00514 0.99803 0.98726
1.00467 0.999292 0.986777
1.00508 0.998818 0.986481
1.00514 0.998175 0.987108
1.0034 0.999659 0.988409
1.00456 0.999346 0.986978
1.00504 0.998908 0.986619
1.00097 0.999976 0.992761
1.00319 0.999799 0.988651
1.00432 0.9995 0.987391
0.999505 1.00037 0.998168
1.00076 1.00036 0.992752
1.00292 1.00019 0.988787
0.999338 1.00038 0.998195
1.00036 1.00094 0.992876
0.999212 0.999945 0.998384
1.0051 0.998664 0.98673
1.00512 0.998144 0.987138
1.00512 0.997644 0.987616
1.00479 0.999286 0.986751
1.0051 0.99874 0.986649
1.00511 0.998085 0.987234
1.00511 0.998814 0.986587
1.00482 0.999406 0.986595
1.00378 0.999784 0.987646
1.00476 0.999653 0.986525
1.0037 0.999912 0.987804
1.00134 1.00007 0.992006
1.00353 0.99998 0.988181
1.00121 1.00008 0.992245
0.999783 0.999991 0.998039
1.0011 1.00002 0.992511
0.999736 0.999974 0.998091
0.99968 0.999869 0.995939
1.00509 0.998743 0.986684
1.00514 0.998174 0.987074
1.00467 0.999282 0.986788
1.00508 0.998761 0.986543
1.00514 0.998005 0.987258
1.00353 0.999678 0.988462
1.00467 0.999289 0.986774
1.00509 0.998842 0.986417
1.00112 0.999844 0.992626
1.00341 0.999706 0.988503
1.00457 0.999423 0.987119
0.999653 1.00013 0.99815
1.00097 0.999967 0.992768
1.0032 0.999803 0.988628
0.999476 1.00035 0.998161
1.00075 1.00036 0.992757
0.999265 1.00033 0.998231
1.00474 0.999237 0.986894
1.0051 0.998686 0.986704
1.00512 0.998161 0.987095
1.00374 0.999723 0.987781
1.00479 0.9993 0.98675
1.0051 0.998695 0.986709
1.00482 0.999413 0.98659
1.00378 0.999782 0.987637
1.00142 1.00004 0.991908
1.00369 0.999944 0.987917
1.00135 1.00007 0.992
0.999884 1.00001 0.99795
1.00122 1.00008 0.992234
0.999819 0.999995 0.998007
0.999762 0.999974 0.998058
1.00467 0.999269 0.986827
1.00508 0.998659 0.986721
1.00515 0.998094 0.987096
1.00357 0.999699 0.98838
1.00467 0.999283 0.98678
1.00507 0.998769 0.986544
1.00122 0.999878 0.992408
1.00353 0.999688 0.988457
1.00467 0.999285 0.986771
0.999776 0.999981 0.998083
1.00111 0.999847 0.992635
1.00341 0.999744 0.988596
0.999611 1.00016 0.998159
1.00096 0.999969 0.992775
0.999448 1.00033 0.998156
1.00368 0.999783 0.988099
1.00475 0.999205 0.986782
1.0051 0.998706 0.986677
1.0014 0.999994 0.991978
1.00375 0.999718 0.987763
1.00479 0.999313 0.986749
1.00379 0.999778 0.987628
1.00141 1.00003 0.991911
0.999951 1.00001 0.997883
1.00134 1.00007 0.991994
0.999909 1.00001 0.997918
0.999848 0.999998 0.997974
1.00361 0.99975 0.988262
1.00469 0.999213 0.986802
1.00507 0.998576 0.986758
1.00133 0.999977 0.993374
1.00357 0.999699 0.988374
1.00467 0.999285 0.986771
0.99984 0.999947 0.998006
1.00122 0.9999 0.992413
1.00353 0.999697 0.988451
0.999733 1.00001 0.998111
1.00111 0.999861 0.992645
0.999583 1.00017 0.99816
1.0014 0.99999 0.992019
1.00368 0.999744 0.988003
1.00476 0.999171 0.98667
0.999954 1 0.997885
1.00139 0.999999 0.99198
1.00376 0.999716 0.987745
1.00141 1.00002 0.991911
0.99996 1.00001 0.997879
0.999942 1.00001 0.997897
1.00141 0.999997 0.993234
1.00362 0.999744 0.988262
1.0047 0.999156 0.986777
0.999632 0.999984 0.998197
1.00126 0.999985 0.992258
1.00358 0.999699 0.988368
0.999818 0.999967 0.998038
1.00121 0.999926 0.992418
0.999699 1.00003 0.998136
0.999923 1 0.995498
1.0014 0.999988 0.992626
1.00368 0.999707 0.987907
0.99995 1 0.997887
1.00139 1 0.991985
0.999968 1.00001 0.997869
0.999643 1.00001 0.995801
1.00135 0.999995 0.99271
1.00362 0.99974 0.988263
0.999738 0.99999 0.996903
1.00127 0.999987 0.992257
0.999791 0.999985 0.998066
0.999922 0.999997 0.997906
1.00134 0.999992 0.992088
0.999934 1 0.997895
0.999769 0.999997 0.996862
1.0013 0.999996 0.992171
0.999841 0.999979 0.998001
0.999902 0.999993 0.997929
0.999867 0.999987 0.997959

TENSORS stress float
0.00137925 -4.75e-05 0.000115986
-4.75e-05 0.000422908 -1.34372e-05
0.000115986 -1.34372e-05 0.000401942
0.00404958 -9.38977e-05 0.000108354
-9.38977e-05 0.00191432 6.76455e-06
0.000108354 6.76455e-06 0.00190449
0.00135403 2.89642e-05 6.19764e-05
2.89642e-05 0.000426669 -3.9685e-06
6.19764e-05 -3.9685e-06 0.000393951
0.00169406 -3.41685e-05 0.000122758
-3.41685e-05 0.000571532 -9.25378e-06
0.000122758 -9.25378e-06 0.000552089
0.00154218 -4.58936e-05 0.00011821
-4.58936e-05 0.000504705 -1.27251e-05
0.00011821 -1.27251e-05 0.000483563
0.00121496 -3.19689e-05 0.000106936
-3.19689e-05 0.000330902 -1.18871e-05
0.000106936 -1.18871e-05 0.000313723
0.00128339 -7.61299e-06 9.81357e-06
-7.61299e-06 0.000317643 -7.45479e-06
9.81357e-06 -7.45479e-06 0.000249007
0.00391739 -0.000119946 6.27837e-06
-0.000119946 0.00184237 -7.32535e-07
6.27837e-06 -7.32535e-07 0.00183094
0.00481501 -0.000100963 2.53681e-05
-0.000100963 0.00232378 1.85271e-06
2.53681e-05 1.85271e-06 0.00230648
0.0040756 -0.000250756 -5.29157e-06
-0.000250756 0.00197208 4.1411e-06
-5.29157e-06 4.1411e-06 0.00193115
0.00134555 -8.46615e-06 9.21469e-05
-8.46615e-06 0.000394568 6.56539e-06
9.21469e-05 6.56539e-06 0.000383786
0.000754765 8.19218e-05 1.18714e-05
8.19218e-05 2.96007e-05 8.44943e-06
1.18714e-05 8.44943e-06 -2.8681e-05
0.00166315 -1.70626e-05 0.000139236
-1.70626e-05 0.000543944 1.58374e-06
0.000139236 1.58374e-06 0.000524778
0.00124993 5.08719e-06 1.70335e-05
5.08719e-06 0.000332887 1.77506e-06
1.70335e-05 1.77506e-06 0.000303301
0.001396 7.04628e-05 -5.44577e-06
7.04628e-05 0.000455513 4.29825e-06
-5.44577e-06 4.29825e-06 0.000418658
0.00147624 -2.22899e-05 4.89896e-05
-2.22899e-05 0.000456898 -2.92845e-06
4.89896e-05 -2.92845e-06 0.000433906
0.00124454 3.06578e-05 5.36075e-05
3.06578e-05 0.000364254 -3.91169e-06
5.36075e-05 -3.91169e-06 0.000335476
0.00142232 5.18108e-06 5.6266e-05
5.18108e-06 0.000447504 -4.56973e-06
5.6266e-05 -4.56973e-06 0.000420524
0.0013822 -5.12015e-05 -2.35949e-05
-5.12015e-05 0.000357911 1.06662e-06
-2.35949e-05 1.06662e-06 0.000298488
0.00508345 -8.00543e-05 0.000147556
-8.00543e-05 0.00245453 -2.6881e-06
0.000147556 -2.6881e-06 0.00244977
0.00166968 -2.14053e-05 0.000125434
-2.14053e-05 0.000555092 -7.20713e-06
0.000125434 -7.20713e-06 0.00053538
0.00165736 -4.19745e-05 0.000120604
-4.19745e-05 0.000557334 -1.11541e-05
0.000120604 -1.11541e-05 0.000537305
0.00145327 -5.47862e-05 2.87167e-05
-5.47862e-05 0.000353275 -4.32132e-06
2.87167e-05 -4.32132e-06 0.000297818
0.00139174 -3.14594e-05 1.83947e-05
-3.14594e-05 0.000346425 -6.14144e-06
1.83947e-05 -6.14144e-06 0.000285519
0.00114738 1.58981e-05 8.51451e-05
1.58981e-05 0.00029043 -9.50043e-06
8.51451e-05 -9.50043e-06 0.00027401
0.00110822 -9.04784e-06 9.87471e-06
-9.04784e-06 0.00024169 -6.80765e-06
9.87471e-06 -6.80765e-06 0.000176965
0.00182394 -0.000151571 8.1133e-06
-0.000151571 0.00048602 -3.71648e-06
8.1133e-06 -3.71648e-06 0.000381521
0.00376726 -0.000141811 -8.26825e-05
-0.000141811 0.00176112 -3.91053e-06
-8.26825e-05 -3.91053e-06 0.00174753
0.00308025 -2.41317e-05 -6.94951e-05
-2.41317e-05 0.00136148 -2.4906e-06
-6.94951e-05 -2.4906e-06 0.00134021
0.00268694 -0.000103879 -4.58773e-05
-0.000103879 0.00117328 -1.71154e-06
-4.58773e-05 -1.71154e-06 0.00114562
0.00353957 -0.000120891 4.50021e-06
-0.000120891 0.0016242 -3.17568e-07
4.50021e-06 -3.17568e-07 0.00161669
0.000653307 7.06958e-05 -1.05307e-07
7.06958e-05 -2.11809e-05 -2.9084e-07
-1.05307e-07 -2.9084e-07 -7.88315e-05
0.00155802 4.47821e-05 0.00012544
4.47821e-05 0.000498396 8.52406e-06
0.00012544 8.52406e-06 0.000478114
0.00177665 7.23802e-05 0.000123448
7.23802e-05 0.000636599 1.11642e-05
0.000123448 1.11642e-05 0.000616688
0.00245951 0.000127709 7.61975e-05
0.000127709 0.000919433 8.92421e-06
7.61975e-05 8.92421e-06 0.000868389
0.00293881 -0.000136094 1.49469e-05
-0.000136094 0.00129024 1.48771e-06
1.49469e-05 1.48771e-06 0.00128137
0.00231749 0.000103586 6.46427e-05
0.000103586 0.000883085 8.76307e-06
6.46427e-05 8.76307e-06 0.000832
0.000674578 3.46235e-05 1.08092e-05
3.46235e-05 -6.78792e-06 1.01888e-05
1.08092e-05 1.01888e-05 -5.71663e-05
0.000948968 0.000111849 4.99977e-06
0.000111849 8.86705e-05 2.32744e-06
4.99977e-06 2.32744e-06 -1.57113e-05
0.0025691 -8.81731e-05 5.12759e-05
-8.81731e-05 0.00107058 2.60806e-06
5.12759e-05 2.60806e-06 0.00107568
0.0051566 4.22723e-05 9.53844e-07
4.22723e-05 0.00248884 -1.01668e-06
9.53844e-07 -1.01668e-06 0.00248641
0.00316208 2.74617e-05 -5.5166e-05
2.74617e-05 0.00139139 -1.17753e-06
-5.5166e-05 -1.17753e-06 0.00137413
0.00518836 7.77198e-05 0.000150805
7.77198e-05 0.00250879 1.14595e-06
0.000150805 1.14595e-06 0.00250427
0.00134447 -1.67807e-05 1.22013e-05
-1.67807e-05 0.000385726 1.2218e-06
1.22013e-05 1.2218e-06 0.000354788
0.000751184 -1.14875e-07 1.57073e-05
-1.14875e-07 -6.67184e-05 2.14337e-06
1.57073e-05 2.14337e-06 -0.000129313
0.0048261 8.92675e-05 5.56179e-05
8.92675e-05 0.00231667 3.46538e-06
5.56179e-05 3.46538e-06 0.00230374
0.00247411 2.71137e-05 7.73827e-05
2.71137e-05 0.00089717 4.66794e-06
7.73827e-05 4.66794e-06 0.000852645
0.00122103 -4.11475e-05 -2.7211e-05
-4.11475e-05 0.000325053 3.02529e-06
-2.7211e-05 3.02529e-06 0.000296618
0.00133851 4.06928e-06 -1.83624e-05
4.06928e-06 0.000404166 3.47925e-06
-1.83624e-05 3.47925e-06 0.000375352
0.00131908 0.000112686 1.31571e-06
0.000112686 0.000427546 5.07503e-06
1.31571e-06 5.07503e-06 0.00038389
0.00142722 -7.5937e-05 -6.33518e-05
-7.5937e-05 0.000374158 8.77999e-06
-6.33518e-05 8.77999e-06 0.000320331
0.00328686 3.50578e-05 -5.89778e-05
3.50578e-05 0.00146719 -1.01117e-06
-5.89778e-05 -1.01117e-06 0.00144224
0.00147142 -3.06531e-05 5.04551e-05
-3.06531e-05 0.000454179 -1.81368e-06
5.04551e-05 -1.81368e-06 0.000429361
0.00114167 4.60329e-05 4.16295e-05
4.60329e-05 0.000298586 -3.01391e-06
4.16295e-05 -3.01391e-06 0.000275354
0.00146901 -1.44756e-05 5.14064e-05
-1.44756e-05 0.000458716 -4.05319e-06
5.14064e-05 -4.05319e-06 0.000435158
0.00149239 -5.69542e-05 -1.82926e-05
-5.69542e-05 0.000371962 6.48625e-07
-1.82926e-05 6.48625e-07 0.000319089
0.00125167 -3.05347e-05 -2.37366e-05
-3.05347e-05 0.000312728 3.6651e-07
-2.37366e-05 3.6651e-07 0.000253012
0.00145828 -6.41887e-05 -2.01799e-05
-6.41887e-05 0.000375519 1.13344e-06
-2.01799e-05 1.13344e-06 0.000319843
0.00189775 -0.000154179 -3.98192e-06
-0.000154179 0.000524028 1.08819e-06
-3.98192e-06 1.08819e-06 0.000418671
0.00512295 5.82477e-05 0.000140605
5.82477e-05 0.00247108 -1.04948e-08
0.000140605 -1.04948e-08 0.00246888
0.0016765 -7.37314e-06 0.000130268
-7.37314e-06 0.00055472 -4.90925e-06
0.000130268 -4.90925e-06 0.000534425
0.00233501 6.80318e-05 1.49886e-05
6.80318e-05 0.000831493 -1.33085e-06
1.49886e-05 -1.33085e-06 0.000774527
0.00143823 -5.98356e-05 2.86135e-05
-5.98356e-05 0.000343046 -3.87202e-06
2.86135e-05 -3.87202e-06 0.000285986
0.00145071 -4.8942e-05 2.52456e-05
-4.8942e-05 0.000358632 -5.12548e-06
2.52456e-05 -5.12548e-06 0.000302097
0.00194741 -9.9923e-05 8.90719e-06
-9.9923e-05 0.000473475 -2.09032e-06
8.90719e-06 -2.09032e-06 0.000378773
0.00148915 -0.000125257 1.07048e-05
-0.000125257 0.000257344 -3.95786e-06
1.07048e-05 -3.95786e-06 0.000154422
0.00115259 4.5142e-05 6.465e-05
4.5142e-05 0.000280998 -7.78234e-06
6.465e-05 -7.78234e-06 0.000267857
0.000885501 1.85856e-05 8.10048e-06
1.85856e-05 0.0001384 -5.22193e-06
8.10048e-06 -5.22193e-06 8.47623e-05
0.00159562 -0.000139957 5.69231e-06
-0.000139957 0.000417041 -3.22161e-06
5.69231e-06 -3.22161e-06 0.000314052
0.00126184 -0.000148816 5.2983e-06
-0.000148816 9.46136e-05 -1.94621e-06
5.2983e-06 -1.94621e-06 -3.78357e-05
0.00488264 2.16721e-06 -0.000133034
2.16721e-06 0.00235059 -7.64702e-06
-0.000133034 -7.64702e-06 0.00234668
0.00337616 -0.000130531 -6.99213e-05
-0.000130531 0.00153351 -2.81522e-06
-6.99213e-05 -2.81522e-06 0.0015256
0.00411692 -0.000144423 -9.18846e-05
-0.000144423 0.00196529 -5.92937e-06
-9.18846e-05 -5.92937e-06 0.00194697
0.000560423 6.68994e-05 -1.02482e-05
6.68994e-05 -6.81326e-05 -8.8066e-06
-1.02482e-05 -8.8066e-06 -0.000125289
0.00508876 5.7195e-05 -2.71266e-06
5.7195e-05 0.00245301 -9.31681e-07
-2.71266e-06 -9.31681e-07 0.00245037
0.00480347 -7.4082e-05 -6.55413e-06
-7.4082e-05 0.00232899 5.08657e-07
-6.55413e-06 5.08657e-07 0.00231493
0.000602597 0.000101314 -6.09048e-07
0.000101314 -0.000105288 -2.63647e-07
-6.09048e-07 -2.63647e-07 -0.000170503
0.00201593 -8.90163e-05 -2.87976e-05
-8.90163e-05 0.000771631 -2.34925e-07
-2.87976e-05 -2.34925e-07 0.000762424
0.000620615 0.00010228 -3.37353e-07
0.00010228 -5.1706e-05 -8.97414e-08
-3.37353e-07 -8.97414e-08 -0.000113445
0.00124005 1.40739e-05 1.80486e-05
1.40739e-05 0.000314115 2.66052e-07
1.80486e-05 2.66052e-07 0.000269024
0.000877377 0.000105649 2.88563e-07
0.000105649 4.80366e-05 -1.777e-07
2.88563e-07 -1.777e-07 -5.53069e-05
0.00285906 -9.46153e-05 6.47692e-05
-9.46153e-05 0.0012335 2.81059e-06
6.47692e-05 2.81059e-06 0.0012362
0.000643408 -6.89017e-05 -1.40017e-06
-6.89017e-05 -3.50746e-06 5.33871e-06
-1.40017e-06 5.33871e-06 -3.16911e-05
0.000727944 7.27917e-05 1.6481e-05
7.27917e-05 -5.82736e-05 7.70161e-06
1.6481e-05 7.70161e-06 -0.000121213
0.000768733 0.000112427 1.95845e-05
0.000112427 2.96425e-06 1.1544e-05
1.95845e-05 1.1544e-05 -6.36941e-05
0.00106303 0.000111531 1.00465e-05
0.000111531 1.60636e-06 4.1609e-06
1.00465e-05 4.1609e-06 -0.000109464
0.0017389 -3.45226e-05 3.59183e-05
-3.45226e-05 0.000598435 4.64667e-06
3.59183e-05 4.64667e-06 0.000565391
0.0010023 0.000121472 6.38897e-06
0.000121472 7.18747e-05 4.15624e-06
6.38897e-06 4.15624e-06 -3.60319e-05
0.00092764 9.03637e-05 4.55232e-06
9.03637e-05 0.000115369 2.66831e-06
4.55232e-06 2.66831e-06 1.44566e-05
0.000885871 0.000134538 1.80646e-06
0.000134538 1.66037e-05 -5.36564e-09
1.80646e-06 -5.36564e-09 -0.000112711
0.00232416 -8.05606e-05 3.93309e-05
-8.05606e-05 0.000929418 2.67483e-06
3.93309e-05 2.67483e-06 0.000937065
0.00246995 -9.02807e-05 2.30709e-06
-9.02807e-05 0.00101682 -1.7274e-07
2.30709e-06 -1.7274e-07 0.00102145
0.00503695 3.40172e-05 -0.000142572
3.40172e-05 0.00242214 -5.47327e-06
-0.000142572 -5.47327e-06 0.00242118
0.00511772 4.94556e-05 -0.000143226
4.94556e-05 0.0024676 -2.57209e-06
-0.000143226 -2.57209e-06 0.00246571
0.00519902 7.51161e-05 2.7909e-06
7.51161e-05 0.00251664 -8.05793e-07
2.7909e-06 -8.05793e-07 0.00251091
0.00318852 -1.73034e-05 -6.51875e-05
-1.73034e-05 0.00140204 -1.34796e-06
-6.51875e-05 -1.34796e-06 0.00138638
0.00164571 1.41229e-05 3.33991e-05
1.41229e-05 0.000430821 2.57967e-07
3.33991e-05 2.57967e-07 0.000376566
0.003195 5.43207e-05 -6.14705e-05
5.43207e-05 0.00140729 -2.78142e-06
-6.14705e-05 -2.78142e-06 0.0013906
0.00163732 4.25116e-05 3.1393e-05
4.25116e-05 0.000437197 8.2906e-07
3.1393e-05 8.2906e-07 0.00038381
0.00521176 0.000136497 0.000144361
0.000136497 0.00253064 2.17257e-06
0.000144361 2.17257e-06 0.00251992
0.000698516 -3.83802e-06 1.56111e-05
-3.83802e-06 -9.81798e-05 5.70153e-07
1.56111e-05 5.70153e-07 -0.000160421
0.00253798 3.43469e-07 7.92105e-05
3.43469e-07 0.000929087 3.38415e-06
7.92105e-05 3.38415e-06 0.000883849
0.00116939 2.37164e-05 1.07616e-05
2.37164e-05 6.13285e-06 1.43841e-06
1.07616e-05 1.43841e-06 -9.92627e-05
0.00241743 7.13263e-05 7.71203e-05
7.13263e-05 0.000872864 5.56239e-06
7.71203e-05 5.56239e-06 0.000826226
0.00116641 5.96822e-05 1.02826e-05
5.96822e-05 2.06714e-05 2.42336e-06
1.02826e-05 2.42336e-06 -8.34127e-05
0.00169348 2.4003e-05 -0.000137674
2.4003e-05 0.000562935 7.64188e-07
-0.000137674 7.64188e-07 0.000543957
0.0012277 -2.86878e-05 -2.10903e-05
-2.86878e-05 0.000326515 2.06e-06
-2.10903e-05 2.06e-06 0.000297456
0.00112483 9.33672e-05 -4.97039e-06
9.33672e-05 0.000303404 3.65961e-06
-4.97039e-06 3.65961e-06 0.000270483
0.00127634 -2.3805e-05 -2.48637e-05
-2.3805e-05 0.000359461 3.28555e-06
-2.48637e-05 3.28555e-06 0.000331709
0.00156921 -4.42955e-05 -6.64251e-05
-4.42955e-05 0.000409921 5.24501e-06
-6.64251e-05 5.24501e-06 0.000360427
0.00150549 -7.0254e-05 -6.45822e-05
-7.0254e-05 0.000396728 8.1768e-06
-6.45822e-05 8.1768e-06 0.000344326
0.0013257 -6.02795e-05 -5.70816e-05
-6.02795e-05 0.000342658 8.08468e-06
-5.70816e-05 8.08468e-06 0.000289799
0.0019872 -0.000158004 -1.64031e-05
-0.000158004 0.000571043 6.08958e-06
-1.64031e-05 6.08958e-06 0.000464647
0.00518584 -6.11325e-05 -1.71556e-06
-6.11325e-05 0.00250756 -7.33275e-07
-1.71556e-06 -7.33275e-07 0.00250301
0.00147346 1.89298e-05 5.88011e-05
1.89298e-05 0.000450118 -1.62086e-06
5.88011e-05 -1.62086e-06 0.000425392
0.00114877 5.94072e-06 -3.58012e-05
5.94072e-06 0.000159387 4.8325e-07
-3.58012e-05 4.8325e-07 0.000103122
0.00148426 -4.13581e-05 -2.04313e-05
-4.13581e-05 0.000363534 4.97318e-07
-2.04313e-05 4.97318e-07 0.000310285
0.00220247 7.67779e-05 6.15109e-05
7.67779e-05 0.00087375 -5.12821e-07
6.15109e-05 -5.12821e-07 0.00086496
0.00140028 3.50806e-06 -1.51727e-05
3.50806e-06 0.000414037 -3.07401e-07
-1.51727e-05 -3.07401e-07 0.000363339
0.00149597 -6.31623e-05 -1.86024e-05
-6.31623e-05 0.000380485 8.80507e-07
-1.86024e-05 8.80507e-07 0.000326766
0.001769 -9.2554e-05 -6.19614e-06
-9.2554e-05 0.000373348 1.08789e-06
-6.19614e-06 1.08789e-06 0.000277568
0.00175518 -0.000150696 -2.91495e-06
-0.000150696 0.000501167 1.01635e-06
-2.91495e-06 1.01635e-06 0.00039573
0.00174034 -0.000133843 -2.07257e-06
-0.000133843 0.000396228 4.04901e-07
-2.07257e-06 4.04901e-07 0.000293893
0.00122377 -0.000145824 -4.80622e-08
-0.000145824 7.49335e-05 -2.08666e-07
-4.80622e-08 -2.08666e-07 -5.70504e-05
0.000723531 5.74823e-06 1.58631e-05
5.74823e-06 -8.19053e-05 -1.27277e-06
1.58631e-05 -1.27277e-06 -0.000143587
0.00144825 -4.27489e-06 2.25161e-05
-4.27489e-06 0.000337635 -2.43141e-06
2.25161e-05 -2.43141e-06 0.00028068
0.00161316 -1.81423e-05 1.05577e-05
-1.81423e-05 0.000256821 -1.3486e-06
1.05577e-05 -1.3486e-06 0.000157904
0.00153782 -7.06232e-05 1.00597e-05
-7.06232e-05 0.000241469 -2.21933e-06
1.00597e-05 -2.21933e-06 0.000144136
0.00154648 -0.000109141 1.08343e-05
-0.000109141 0.000260838 -3.15929e-06
1.08343e-05 -3.15929e-06 0.000161093
0.00176875 -0.000106884 3.09986e-06
-0.000106884 0.000285773 -7.086e-07
3.09986e-06 -7.086e-07 0.000169545
0.00309678 0.000113055 6.31867e-05
0.000113055 0.00136509 -2.5018e-06
6.31867e-05 -2.5018e-06 0.00136339
0.00133215 -0.000137113 5.35822e-06
-0.000137113 8.69394e-05 -1.60537e-06
5.35822e-06 -1.60537e-06 -3.97289e-05
0.000558945 2.56664e-05 4.35435e-06
2.56664e-05 -5.53373e-05 -6.47452e-06
4.35435e-06 -6.47452e-06 -0.000100376
0.000657091 -9.12169e-05 3.6646e-06
-9.12169e-05 -4.43316e-05 -2.59268e-06
3.6646e-06 -2.59268e-06 -0.000142332
0.0013442 -0.000164015 4.62921e-06
-0.000164015 0.000206012 -2.67853e-06
4.62921e-06 -2.67853e-06 6.6981e-05
0.00143484 -0.000165862 3.00961e-06
-0.000165862 0.000130078 -5.5704e-07
3.00961e-06 -5.5704e-07 -1.27986e-05
0.000542923 5.77405e-05 7.34767e-07
5.77405e-05 -6.36173e-05 -6.15664e-06
7.34767e-07 -6.15664e-06 -9.95651e-05
0.000713008 2.87728e-05 4.31628e-07
2.87728e-05 1.01541e-05 -3.00023e-06
4.31628e-07 -3.00023e-06 -5.89982e-05
0.00504565 6.08647e-05 -0.000147373
6.08647e-05 0.0024311 -8.24363e-06
-0.000147373 -8.24363e-06 0.00242847
0.0045015 -9.04931e-05 -0.000108145
-9.04931e-05 0.00216408 -6.8974e-06
-0.000108145 -6.8974e-06 0.00215218
0.000588537 9.12779e-05 -1.48347e-05
9.12779e-05 -0.000113013 -8.48931e-06
-1.48347e-05 -8.48931e-06 -0.0001783
0.00300679 -0.000114024 -5.9839e-05
-0.000114024 0.00132187 -2.45881e-06
-5.9839e-05 -2.45881e-06 0.00131958
0.000538177 5.12734e-06 -4.95176e-06
5.12734e-06 -7.19266e-05 -7.78417e-06
-4.95176e-06 -7.78417e-06 -0.000119126
0.000519532 9.40097e-05 -1.30204e-05
9.40097e-05 -0.000103773 -9.00338e-06
-1.30204e-05 -9.00338e-06 -0.000165332
0.000829654 0.000101079 -5.06083e-06
0.000101079 2.07076e-05 -2.89498e-06
-5.06083e-06 -2.89498e-06 -8.1855e-05
0.00275604 -9.91e-05 2.65676e-06
-9.91e-05 0.00117855 -2.00891e-07
2.65676e-06 -2.00891e-07 0.0011804
0.000605045 -6.9101e-05 6.05091e-08
-6.9101e-05 -2.47987e-05 1.99269e-07
6.05091e-08 1.99269e-07 -5.26198e-05
0.00157154 8.73959e-05 3.04196e-05
8.73959e-05 0.000411404 1.09546e-06
3.04196e-05 1.09546e-06 0.000354921
0.0014525 0.000113039 2.67253e-05
0.000113039 0.000386046 7.61453e-07
2.67253e-05 7.61453e-07 0.000327692
0.00107715 0.000113612 2.86455e-07
0.000113612 9.92714e-06 -2.27427e-07
2.86455e-07 -2.27427e-07 -0.000101461
0.000635818 -3.27655e-05 -5.46674e-07
-3.27655e-05 -1.26574e-05 1.58591e-07
-5.46674e-07 1.58591e-07 -5.19589e-05
0.000942776 0.000117201 3.28074e-07
0.000117201 4.01001e-05 4.88478e-07
3.28074e-07 4.88478e-07 -6.7127e-05
0.000833547 8.33909e-05 2.79184e-07
8.33909e-05 6.27156e-05 -2.28683e-07
2.79184e-07 -2.28683e-07 -3.62447e-05
0.000816206 0.000130327 -9.54926e-09
0.000130327 -2.30781e-05 -4.84027e-08
-9.54926e-09 -4.84027e-08 -0.000152715
0.000632115 -5.10138e-05 2.70694e-06
-5.10138e-05 -9.23705e-06 5.70536e-06
2.70694e-06 5.70536e-06 -4.30774e-05
0.000678511 -6.0489e-05 1.18142e-08
-6.0489e-05 3.77134e-06 4.25264e-06
1.18142e-08 4.25264e-06 -1.65283e-05
0.000677686 -5.48211e-06 1.98175e-06
-5.48211e-06 3.44597e-06 2.70091e-06
1.98175e-06 2.70091e-06 -6.17491e-05
0.00110974 9.48173e-05 1.03156e-05
9.48173e-05 2.07712e-06 3.65556e-06
1.03156e-05 3.65556e-06 -0.000106555
0.00103522 0.000122286 8.64357e-06
0.000122286 3.58968e-05 4.44256e-06
8.64357e-06 4.44256e-06 -7.57748e-05
0.00130287 0.000139457 5.88382e-06
0.000139457 5.16236e-05 1.82079e-06
5.88382e-06 1.82079e-06 -8.37426e-05
0.000869433 6.39174e-05 3.5752e-06
6.39174e-05 9.94715e-05 2.82021e-06
3.5752e-06 2.82021e-06 8.12711e-06
0.000911562 0.000137567 2.01733e-06
0.000137567 -3.41127e-05 1.83854e-06
2.01733e-06 1.83854e-06 -0.000166218
0.00111401 0.000144539 1.99412e-06
0.000144539 0.000194265 7.03325e-07
1.99412e-06 7.03325e-07 6.34971e-05
0.00104119 0.000154673 -2.2835e-06
0.000154673 8.95064e-05 -1.34855e-06
-2.2835e-06 -1.34855e-06 -5.2032e-05
0.00217533 -7.14843e-05 3.28428e-05
-7.14843e-05 0.000838282 2.90322e-06
3.28428e-05 2.90322e-06 0.000848841
0.00225291 -8.03173e-05 1.20044e-06
-8.03173e-05 0.000889533 -1.30504e-07
1.20044e-06 -1.30504e-07 0.00089733
0.00236649 -8.99648e-05 -3.81817e-05
-8.99648e-05 0.000960138 -2.53201e-06
-3.81817e-05 -2.53201e-06 0.000964866
0.000564224 6.49789e-05 2.97904e-07
6.49789e-05 -5.44564e-05 -5.34673e-06
2.97904e-07 -5.34673e-06 -8.58939e-05
0.00289001 0.000102818 5.42306e-05
0.000102818 0.00124626 -2.64497e-06
5.42306e-05 -2.64497e-06 0.00124768
0.00507357 8.98714e-05 -0.000152066
8.98714e-05 0.00244573 -7.97198e-06
-0.000152066 -7.97198e-06 0.00244218
0.0050202 -1.36403e-05 -0.000137795
-1.36403e-05 0.00241444 -3.56679e-06
-0.000137795 -3.56679e-06 0.00241317
0.00073163 5.13544e-05 -1.57612e-05
5.13544e-05 -6.28201e-05 -4.02283e-06
-1.57612e-05 -4.02283e-06 -0.000123698
0.000702884 1.88902e-05 -1.58813e-05
1.88902e-05 -8.8481e-05 -2.34881e-06
-1.58813e-05 -2.34881e-06 -0.000150888
0.00515903 -6.98426e-05 -0.0001411
-6.98426e-05 0.00249222 -5.42808e-07
-0.0001411 -5.42808e-07 0.00248859
0.0051976 6.19509e-07 -1.14677e-06
6.19509e-07 0.00251095 4.43567e-07
-1.14677e-06 4.43567e-07 0.00250823
0.000696296 -3.25231e-06 -1.56806e-07
-3.25231e-06 -9.89792e-05 -2.0616e-07
-1.56806e-07 -2.0616e-07 -0.000161193
0.00161826 1.7341e-05 3.22725e-05
1.7341e-05 0.000423109 6.9779e-07
3.22725e-05 6.9779e-07 0.00036996
0.00118166 2.79042e-05 1.65757e-07
2.79042e-05 1.30079e-05 -2.31726e-07
1.65757e-07 -2.31726e-07 -9.25189e-05
0.000673674 5.08842e-05 2.23822e-07
5.08842e-05 -9.2999e-05 -1.61138e-07
2.23822e-07 -1.61138e-07 -0.000153879
0.00115491 6.19006e-05 -1.37756e-07
6.19006e-05 1.50944e-05 2.51463e-08
-1.37756e-07 2.51463e-08 -8.93597e-05
0.000688211 -1.45823e-05 1.59501e-05
-1.45823e-05 -0.000104872 -3.82523e-07
1.59501e-05 -3.82523e-07 -0.000167057
0.00118408 1.02228e-05 1.0747e-05
1.02228e-05 6.54303e-06 5.34941e-07
1.0747e-05 5.34941e-07 -9.95461e-05
0.00116589 4.21406e-05 1.0448e-05
4.21406e-05 1.52562e-05 2.2206e-06
1.0448e-05 2.2206e-06 -8.89967e-05
0.00145171 3.07586e-05 4.45434e-06
3.07586e-05 7.39283e-05 7.09524e-07
4.45434e-06 7.09524e-07 -4.7081e-05
0.00114029 7.62442e-05 1.03277e-05
7.62442e-05 9.3504e-06 2.71047e-06
1.03277e-05 2.71047e-06 -9.6648e-05
0.0014314 7.13825e-05 4.30417e-06
7.13825e-05 8.09879e-05 1.04379e-06
4.30417e-06 1.04379e-06 -3.9948e-05
0.00518512 -5.59793e-05 -0.000152801
-5.59793e-05 0.00250663 -4.34746e-07
-0.000152801 -4.34746e-07 0.00250226
0.00128524 -5.07866e-05 -1.71855e-05
-5.07866e-05 0.000355817 1.66804e-06
-1.71855e-05 1.66804e-06 0.00032516
-0.000129841 -4.56313e-07 -1.35889e-05
-4.56313e-07 -0.00054976 2.27612e-06
-1.35889e-05 2.27612e-06 -0.0006183
0.00157597 -2.94914e-05 -6.77676e-05
-2.94914e-05 0.000410249 3.86447e-06
-6.77676e-05 3.86447e-06 0.000360226
0.00311526 0.000153944 -1.59933e-05
0.000153944 0.00139774 1.47999e-06
-1.59933e-05 1.47999e-06 0.00138268
0.00193129 -4.28055e-05 -4.72676e-05
-4.28055e-05 0.000692903 6.68135e-06
-4.72676e-05 6.68135e-06 0.000649268
0.00155314 -5.93531e-05 -6.56116e-05
-5.93531e-05 0.000408085 6.8907e-06
-6.56116e-05 6.8907e-06 0.000357402
0.00157403 -8.49591e-05 -1.97844e-05
-8.49591e-05 0.000263911 3.79424e-06
-1.97844e-05 3.79424e-06 0.000167169
0.00199293 -0.000142936 -1.6042e-05
-0.000142936 0.000536117 5.05364e-06
-1.6042e-05 5.05364e-06 0.000434341
0.00196443 -0.000162981 -1.3231e-05
-0.000162981 0.000612964 5.95939e-06
-1.3231e-05 5.95939e-06 0.000504853
0.00119264 -0.000143246 -4.67922e-06
-0.000143246 5.90181e-05 1.33265e-06
-4.67922e-06 1.33265e-06 -7.2547e-05
0.000687724 8.5697e-06 3.82148e-08
8.5697e-06 -0.000102171 -2.18273e-07
3.82148e-08 -2.18273e-07 -0.00016367
0.00153327 -3.207e-05 -2.26009e-05
-3.207e-05 0.000382261 1.2734e-07
-2.26009e-05 1.2734e-07 0.000327608
0.00119375 -1.56997e-05 -4.30639e-06
-1.56997e-05 2.51757e-05 2.10953e-07
-4.30639e-06 2.10953e-07 -7.69986e-05
0.00180057 -7.36191e-05 -2.93776e-06
-7.36191e-05 0.000384705 3.89177e-07
-2.93776e-06 3.89177e-07 0.00028905
0.00311282 0.000110174 -1.37571e-06
0.000110174 0.00137472 -2.74898e-07
-1.37571e-06 -2.74898e-07 0.00137315
0.00117898 9.88471e-06 2.16039e-06
9.88471e-06 0.000286067 4.10192e-07
2.16039e-06 4.10192e-07 0.000242245
0.00118214 -0.00011096 5.29078e-07
-0.00011096 0.00024106 -3.31235e-07
5.29078e-07 -3.31235e-07 0.000142478
0.00155544 -0.000108252 -3.31897e-06
-0.000108252 0.000266437 6.31859e-07
-3.31897e-06 6.31859e-07 0.00016661
0.00146936 -9.78476e-05 -2.3444e-06
-9.78476e-05 0.000118828 6.31389e-07
-2.3444e-06 6.31389e-07 1.3913e-06
0.00101596 -0.000144494 -7.04971e-07
-0.000144494 2.91422e-05 -3.08179e-07
-7.04971e-07 -3.08179e-07 -0.000108272
0.00154055 -0.000143496 1.36716e-07
-0.000143496 0.000202798 -1.79692e-07
1.36716e-07 -1.79692e-07 7.72529e-05
0.00137852 -0.000162298 1.38374e-07
-0.000162298 0.000101043 -2.14096e-07
1.38374e-07 -2.14096e-07 -4.13213e-05
0.000569958 5.10521e-05 -6.76316e-07
5.10521e-05 -4.97454e-05 8.07786e-08
-6.76316e-07 8.07786e-08 -8.51799e-05
0.00069514 1.44747e-05 -1.63452e-07
1.44747e-05 -1.40417e-06 1.68233e-07
-1.63452e-07 1.68233e-07 -7.04832e-05
0.00117371 -7.99191e-06 1.05593e-05
-7.99191e-06 1.96877e-06 -1.34134e-06
1.05593e-05 -1.34134e-06 -0.00010354
0.00159216 -3.99098e-05 1.01486e-05
-3.99098e-05 0.00025455 -1.62067e-06
1.01486e-05 -1.62067e-06 0.000156239
0.00183149 -2.41684e-05 3.2058e-06
-2.41684e-05 0.000290412 -3.2758e-07
3.2058e-06 -3.2758e-07 0.000175521
0.00119883 -7.00336e-05 5.10902e-06
-7.00336e-05 -3.62676e-05 -1.55414e-06
5.10902e-06 -1.55414e-06 -0.00015543
0.00165086 -0.000131168 4.48259e-06
-0.000131168 0.000233282 -1.00348e-06
4.48259e-06 -1.00348e-06 0.000112716
0.00169941 -0.00010437 4.29242e-07
-0.00010437 0.000194798 6.03641e-09
4.29242e-07 6.03641e-09 7.48395e-05
0.000518649 3.81018e-05 3.0353e-06
3.81018e-05 -7.86622e-05 -6.37642e-06
3.0353e-06 -6.37642e-06 -0.000118354
0.00147549 -0.000147681 2.38943e-06
-0.000147681 0.000104711 -1.44658e-07
2.38943e-06 -1.44658e-07 -2.69963e-05
0.000645048 -6.02026e-05 2.50754e-06
-6.02026e-05 -2.90726e-05 -1.72644e-06
2.50754e-06 -1.72644e-06 -0.000119922
0.000513261 -0.000112967 3.05664e-06
-0.000112967 -0.000167395 -3.35526e-06
3.05664e-06 -3.35526e-06 -0.000298101
0.00195492 -0.000211251 1.8437e-06
-0.000211251 0.000491974 -8.05484e-07
1.8437e-06 -8.05484e-07 0.000335789
0.00159976 -0.000176893 -2.18335e-07
-0.000176893 0.000170247 1.4448e-06
-2.18335e-07 1.4448e-06 2.95199e-05
0.000772346 -1.56434e-05 1.504e-06
-1.56434e-05 4.74578e-05 -2.90472e-06
1.504e-06 -2.90472e-06 -3.42318e-05
0.000695937 2.78301e-05 1.15379e-06
2.78301e-05 -2.26364e-06 -2.34292e-06
1.15379e-06 -2.34292e-06 -6.22363e-05
0.000833571 -5.02333e-05 4.26312e-07
-5.02333e-05 7.93626e-05 -6.79908e-07
4.26312e-07 -6.79908e-07 -2.07697e-05
0.000640733 7.44712e-05 -1.4855e-05
7.44712e-05 -0.000102126 -6.74881e-06
-1.4855e-05 -6.74881e-06 -0.000165361
0.00266906 -0.000101861 -4.77418e-05
-0.000101861 0.00113197 -2.39062e-06
-4.77418e-05 -2.39062e-06 0.00113329
0.00056299 -6.23485e-05 -6.95826e-07
-6.23485e-05 -5.03184e-05 -4.51588e-06
-6.95826e-07 -4.51588e-06 -7.63045e-05
0.000522616 0.000101399 -1.4461e-05
0.000101399 -0.000122941 -9.44585e-06
-1.4461e-05 -9.44585e-06 -0.000187401
0.00108884 0.000115947 -1.02283e-05
0.000115947 1.68984e-05 -4.65115e-06
-1.02283e-05 -4.65115e-06 -9.48505e-05
0.000515884 -4.23267e-05 -2.32137e-06
-4.23267e-05 -7.58787e-05 -6.66486e-06
-2.32137e-06 -6.66486e-06 -0.000115845
0.000721843 7.45275e-05 -3.16046e-06
7.45275e-05 8.59597e-07 -2.79838e-06
-3.16046e-06 -2.79838e-06 -9.62964e-05
0.000884777 0.000112866 -5.90011e-06
0.000112866 9.4942e-06 -3.30782e-06
-5.90011e-06 -3.30782e-06 -9.7086e-05
0.000740762 0.000125859 -3.06861e-06
0.000125859 -6.61513e-05 -9.19933e-07
-3.06861e-06 -9.19933e-07 -0.000196052
0.000575377 -5.796e-05 1.75635e-06
-5.796e-05 -4.02548e-05 3.45111e-08
1.75635e-06 3.45111e-08 -7.3793e-05
0.000643848 -5.58507e-05 -2.26713e-07
-5.58507e-05 -1.64901e-05 1.42347e-07
-2.26713e-07 1.42347e-07 -3.5738e-05
0.000678798 -3.61783e-05 3.1321e-07
-3.61783e-05 2.10402e-07 3.33507e-07
3.1321e-07 3.33507e-07 -6.11881e-05
0.00111855 9.69233e-05 1.16031e-07
9.69233e-05 7.67147e-06 -1.75369e-07
1.16031e-07 -1.75369e-07 -0.000101372
0.00101457 0.000121657 6.08126e-07
0.000121657 2.59367e-05 -2.98349e-07
6.08126e-07 -2.98349e-07 -8.55874e-05
0.0013423 0.00014243 3.1738e-07
0.00014243 7.24544e-05 2.37041e-08
3.1738e-07 2.37041e-08 -6.33718e-05
0.000795924 5.57252e-05 9.03324e-08
5.57252e-05 6.17917e-05 -1.99473e-08
9.03324e-08 -1.99473e-08 -2.92774e-05
0.00109605 0.000148255 -2.12777e-07
0.000148255 6.76618e-05 -1.6505e-07
-2.12777e-07 -1.6505e-07 -6.52167e-05
0.00102353 0.000137888 3.33214e-07
0.000137888 0.000144775 -4.0356e-07
3.33214e-07 -4.0356e-07 1.46846e-05
0.00100047 0.0001546 -8.61021e-07
0.0001546 6.61838e-05 9.42005e-07
-8.61021e-07 9.42005e-07 -7.5987e-05
0.000685994 -4.9681e-05 1.72977e-06
-4.9681e-05 -4.59913e-06 3.52715e-06
1.72977e-06 3.52715e-06 -1.9117e-05
0.000722556 2.55735e-05 2.34197e-06
2.55735e-05 2.19212e-05 2.41772e-06
2.34197e-06 2.41772e-06 -5.50956e-05
0.000677274 -5.16099e-05 1.21984e-07
-5.16099e-05 -4.07662e-06 2.29501e-06
1.21984e-07 2.29501e-06 -5.38196e-05
0.000822383 3.23166e-05 2.50199e-07
3.23166e-05 8.62206e-05 7.1688e-07
2.50199e-07 7.1688e-07 -7.11165e-06
0.00136336 0.000116278 6.13397e-06
0.000116278 5.90112e-05 1.56094e-06
6.13397e-06 1.56094e-06 -7.11127e-05
0.00126185 0.000154419 4.92502e-06
0.000154419 8.89643e-05 3.04371e-06
4.92502e-06 3.04371e-06 -4.88574e-05
0.00153153 0.000157959 3.28975e-06
0.000157959 0.000117948 7.52142e-07
3.28975e-06 7.52142e-07 -2.72629e-05
0.0010859 0.000113011 2.21366e-06
0.000113011 0.000206343 1.90662e-06
2.21366e-06 1.90662e-06 8.81218e-05
0.00131768 0.000172913 -5.47943e-07
0.000172913 0.000153798 1.87869e-06
-5.47943e-07 1.87869e-06 9.59504e-06
0.000914311 0.000145793 -4.04988e-07
0.000145793 7.97376e-05 -1.72987e-06
-4.04988e-07 -1.72987e-06 -7.3759e-05
0.00089533 0.000153682 -5.56215e-07
0.000153682 -2.1683e-05 -5.36959e-07
-5.56215e-07 -5.36959e-07 -0.000167941
0.000740603 -2.59228e-05 1.3396e-06
-2.59228e-05 2.91421e-06 1.65372e-06
1.3396e-06 1.65372e-06 -3.09014e-05
0.000683957 -3.75286e-05 1.35599e-06
-3.75286e-05 -2.27132e-05 3.42488e-06
1.35599e-06 3.42488e-06 -3.17234e-05
0.00211208 -6.3145e-05 2.82955e-05
-6.3145e-05 0.000793848 3.21414e-06
2.82955e-05 3.21414e-06 0.000806952
0.00213873 -7.09085e-05 1.43851e-06
-7.09085e-05 0.00081683 -1.28331e-07
1.43851e-06 -1.28331e-07 0.000827668
0.00218212 -7.88802e-05 -3.37264e-05
-7.88802e-05 0.000849576 -2.75386e-06
-3.37264e-05 -2.75386e-06 0.000857838
0.000601156 5.22718e-05 1.61063e-06
5.22718e-05 -4.47019e-05 -4.5872e-06
1.61063e-06 -4.5872e-06 -6.96026e-05
0.00269518 9.31775e-05 4.632e-05
9.31775e-05 0.00113486 -2.8856e-06
4.632e-05 -2.8856e-06 0.00113878
0.000594931 6.04514e-05 -4.15905e-07
6.04514e-05 -3.82049e-05 7.91312e-08
-4.15905e-07 7.91312e-08 -6.92036e-05
0.00293213 0.000100198 -1.60854e-06
0.000100198 0.0012689 -1.92663e-07
-1.60854e-06 -1.92663e-07 0.0012707
0.000696688 6.22318e-05 -1.53735e-05
6.22318e-05 -7.93868e-05 -5.30194e-06
-1.53735e-05 -5.30194e-06 -0.000141181
0.000695533 3.00363e-05 -1.54243e-05
3.00363e-05 -8.58999e-05 -3.21918e-06
-1.54243e-05 -3.21918e-06 -0.000147316
0.00114772 6.34073e-05 -1.0142e-05
6.34073e-05 1.16639e-05 -2.31469e-06
-1.0142e-05 -2.31469e-06 -9.30729e-05
0.001183 2.99372e-05 -1.06836e-05
2.99372e-05 1.40169e-05 -1.86906e-06
-1.06836e-05 -1.86906e-06 -9.158e-05
0.00072033 -2.39398e-07 -1.61709e-05
-2.39398e-07 -8.64763e-05 -1.07987e-06
-1.61709e-05 -1.07987e-06 -0.000148187
0.00522052 -8.36986e-05 -0.000150868
-8.36986e-05 0.0025256 1.32588e-06
-0.000150868 1.32588e-06 0.00252164
0.000710664 -1.42647e-06 1.05087e-07
-1.42647e-06 -9.33758e-05 -2.99763e-07
1.05087e-07 -2.99763e-07 -0.000155287
0.00119002 1.45515e-05 5.32692e-09
1.45515e-05 9.95121e-06 -1.92646e-07
5.32692e-09 -1.92646e-07 -9.61951e-05
0.00116302 4.31277e-05 1.93956e-09
4.31277e-05 1.43614e-05 -2.91517e-08
1.93956e-09 -2.91517e-08 -9.00329e-05
0.00144151 3.04073e-05 3.05911e-08
3.04073e-05 6.88899e-05 -1.4579e-07
3.05911e-08 -1.4579e-07 -5.21974e-05
0.00114299 7.88829e-05 6.65845e-09
7.88829e-05 1.13911e-05 -2.61662e-07
6.65845e-09 -2.61662e-07 -9.51237e-05
0.00142562 7.35673e-05 -9.33558e-08
7.35673e-05 7.81326e-05 2.0352e-07
-9.33558e-08 2.0352e-07 -4.31078e-05
0.00119792 -4.83808e-07 1.06983e-05
-4.83808e-07 1.29118e-05 -2.15041e-07
1.06983e-05 -2.15041e-07 -9.31288e-05
0.00146038 1.87874e-05 4.35138e-06
1.87874e-05 7.01345e-05 2.71589e-07
4.35138e-06 2.71589e-07 -5.1274e-05
0.0014482 5.17068e-05 4.37853e-06
5.17068e-05 8.48009e-05 1.11802e-06
4.37853e-06 1.11802e-06 -3.56974e-05
0.00156241 3.46873e-05 5.13241e-07
3.46873e-05 7.36531e-05 1.43276e-07
5.13241e-07 1.43276e-07 -4.49531e-05
0.00139816 9.3341e-05 4.67635e-06
9.3341e-05 6.64723e-05 6.8951e-07
4.67635e-06 6.8951e-07 -5.83128e-05
0.00155374 7.94625e-05 6.40744e-07
7.94625e-05 9.56509e-05 2.85465e-08
6.40744e-07 2.85465e-08 -2.61362e-05
0.000696035 1.17512e-05 -1.53217e-05
1.17512e-05 -9.8611e-05 7.18098e-07
-1.53217e-05 7.18098e-07 -0.000160144
0.00159854 -1.12699e-05 -6.98456e-05
-1.12699e-05 0.000414984 2.73344e-06
-6.98456e-05 2.73344e-06 0.000363371
0.000767973 -1.1799e-05 -1.1292e-05
-1.1799e-05 -0.000210009 1.72078e-06
-1.1292e-05 1.72078e-06 -0.000315489
0.00203771 -7.51874e-05 -1.73454e-05
-7.51874e-05 0.00051359 2.90596e-06
-1.73454e-05 2.90596e-06 0.0004198
0.00313899 0.0001047 -7.27689e-05
0.0001047 0.00138937 2.82402e-06
-7.27689e-05 2.82402e-06 0.00138844
0.00185704 3.63187e-06 -3.96379e-05
3.63187e-06 0.000658719 4.61762e-06
-3.96379e-05 4.61762e-06 0.000619801
0.00175073 -0.000138645 -8.8639e-06
-0.000138645 0.000549555 3.96358e-06
-8.8639e-06 3.96358e-06 0.000449608
0.00155434 -0.000106941 -1.7023e-05
-0.000106941 0.000266437 4.25285e-06
-1.7023e-05 4.25285e-06 0.000166644
0.00116485 -8.85537e-05 -6.30431e-06
-8.85537e-05 -5.09256e-05 1.6279e-06
-6.30431e-06 1.6279e-06 -0.000169545
0.00174796 -0.00014992 -6.19325e-06
-0.00014992 0.000318153 1.54032e-06
-6.19325e-06 1.54032e-06 0.000193713
0.000681345 -0.000124409 -4.06505e-06
-0.000124409 -0.000151055 1.60661e-06
-4.06505e-06 1.60661e-06 -0.000286796
0.00132022 -0.0001586 -2.17311e-06
-0.0001586 7.09492e-05 -1.31431e-08
-2.17311e-06 -1.31431e-08 -7.089e-05
0.000607749 4.306e-05 -3.29004e-06
4.306e-05 -2.91713e-05 5.83404e-06
-3.29004e-06 5.83404e-06 -6.45411e-05
0.000685205 -1.14372e-07 -1.76715e-06
-1.14372e-07 -7.3247e-06 2.67808e-06
-1.76715e-06 2.67808e-06 -7.72646e-05
0.00098082 -3.91706e-06 -4.78807e-07
-3.91706e-06 -0.000103378 -2.94404e-07
-4.78807e-07 -2.94404e-07 -0.000210046
0.00160562 -4.14992e-05 -3.51818e-06
-4.14992e-05 0.000261383 2.70363e-07
-3.51818e-06 2.70363e-07 0.000162995
0.00175868 -2.07943e-05 -2.23857e-06
-2.07943e-05 0.000248362 4.92707e-07
-2.23857e-06 4.92707e-07 0.000133192
0.00153837 -7.60419e-05 1.03532e-06
-7.60419e-05 0.000150264 -3.53604e-07
1.03532e-06 -3.53604e-07 3.30569e-05
0.000583005 2.80955e-05 1.52487e-07
2.80955e-05 -4.56767e-05 1.5176e-07
1.52487e-07 1.5176e-07 -8.48439e-05
0.000818946 -7.54025e-05 -1.58843e-07
-7.54025e-05 6.55725e-05 1.41818e-07
-1.58843e-07 1.41818e-07 -2.72506e-05
0.000699928 -0.000124028 1.14726e-06
-0.000124028 -6.21671e-05 -1.13074e-06
1.14726e-06 -1.13074e-06 -0.000191979
0.00174004 -0.000132413 -1.25527e-06
-0.000132413 0.000282415 3.01956e-07
-1.25527e-06 3.01956e-07 0.000162132
0.00155821 -9.92316e-05 -7.05024e-07
-9.92316e-05 0.000115189 4.44137e-07
-7.05024e-07 4.44137e-07 -4.39347e-06
0.00152476 -0.000186689 -1.5794e-06
-0.000186689 0.00025568 6.82037e-07
-1.5794e-06 6.82037e-07 9.99516e-05
0.00145031 -0.000146 2.17308e-07
-0.000146 9.19188e-05 -1.17523e-08
2.17308e-07 -1.17523e-08 -3.95578e-05
0.00144606 -0.000169427 4.04964e-07
-0.000169427 8.66112e-05 2.72213e-07
4.04964e-07 2.72213e-07 -5.34181e-05
0.000739751 -2.04011e-05 -2.43629e-07
-2.04011e-05 2.86648e-05 -1.55213e-07
-2.43629e-07 -1.55213e-07 -5.3032e-05
0.000752797 -1.99268e-05 -7.20714e-07
-1.99268e-05 3.00004e-05 -3.34193e-07
-7.20714e-07 -3.34193e-07 -6.54643e-05
0.000698745 1.94087e-05 4.56107e-07
1.94087e-05 -2.36318e-06 2.75875e-07
4.56107e-07 2.75875e-07 -6.19861e-05
0.00185384 -4.52622e-06 3.07553e-06
-4.52622e-06 0.000291761 -5.32321e-07
3.07553e-06 -5.32321e-07 0.000174889
0.0016823 -4.62961e-05 3.81644e-06
-4.62961e-05 0.00021258 -4.99572e-07
3.81644e-06 -4.99572e-07 9.58026e-05
0.00174284 -2.24209e-05 7.16901e-07
-2.24209e-05 0.000180326 2.73798e-07
7.16901e-07 2.73798e-07 6.31146e-05
0.00156456 -7.36221e-05 6.06847e-07
-7.36221e-05 0.000109741 -6.9087e-07
6.06847e-07 -6.9087e-07 -1.05603e-05
0.0014376 -0.000125097 2.23333e-06
-0.000125097 5.81997e-05 -5.60845e-08
2.23333e-06 -5.60845e-08 -6.56336e-05
0.0016863 -9.96094e-05 -2.18675e-06
-9.96094e-05 0.000144787 7.34012e-07
-2.18675e-06 7.34012e-07 3.17231e-05
0.000728217 -4.29502e-05 2.30468e-06
-4.29502e-05 2.53009e-05 -1.97142e-06
2.30468e-06 -1.97142e-06 -6.31945e-05
0.00151953 -0.000151339 -5.51553e-07
-0.000151339 8.34552e-05 8.55597e-07
-5.51553e-07 8.55597e-07 -4.36911e-05
0.000881409 -0.000125364 1.12719e-06
-0.000125364 8.02532e-05 -6.24115e-07
1.12719e-06 -6.24115e-07 -3.7653e-05
0.000718291 -0.000142342 3.22123e-06
-0.000142342 -8.62579e-05 -3.93564e-06
3.22123e-06 -3.93564e-06 -0.000241319
0.0017635 -0.000209303 1.42888e-06
-0.000209303 0.000340231 1.0266e-06
1.42888e-06 1.0266e-06 0.00017788
0.00189443 -0.00019499 -3.01831e-06
-0.00019499 0.000286897 1.88896e-06
-3.01831e-06 1.88896e-06 0.000154407
0.000714448 1.67636e-05 1.44523e-06
1.67636e-05 3.41886e-06 -2.04992e-06
1.44523e-06 -2.04992e-06 -4.92651e-05
0.00083806 -7.13824e-05 1.21812e-06
-7.13824e-05 7.11037e-05 2.97205e-07
1.21812e-06 2.97205e-07 -2.87475e-05
0.000711538 -2.55205e-06 4.49348e-07
-2.55205e-06 1.35109e-05 -1.33196e-06
4.49348e-07 -1.33196e-06 -7.80986e-05
0.000976093 -0.000115977 -4.10853e-07
-0.000115977 0.000158092 1.34482e-06
-4.10853e-07 1.34482e-06 4.65288e-05
0.0011226 9.92101e-05 -1.07332e-05
9.92101e-05 1.06427e-05 -3.96415e-06
-1.07332e-05 -3.96415e-06 -9.88274e-05
0.000613284 -5.24113e-05 -1.86504e-06
-5.24113e-05 -3.39495e-05 -3.66215e-06
-1.86504e-06 -3.66215e-06 -5.24474e-05
0.000516192 -7.42784e-05 1.207e-06
-7.42784e-05 -6.81502e-05 -5.93237e-06
1.207e-06 -5.93237e-06 -0.000104294
0.000701047 -6.15315e-05 8.24984e-07
-6.15315e-05 1.58195e-05 -2.80658e-06
8.24984e-07 -2.80658e-06 -4.71452e-05
0.000984852 0.000120651 -7.54528e-06
0.000120651 1.12473e-05 -5.0676e-06
-7.54528e-06 -5.0676e-06 -0.000100139
0.00136493 0.000144409 -5.59938e-06
0.000144409 8.43059e-05 -1.84882e-06
-5.59938e-06 -1.84882e-06 -5.19064e-05
0.000714747 4.76438e-05 -2.03307e-06
4.76438e-05 1.93952e-05 -2.43022e-06
-2.03307e-06 -2.43022e-06 -7.08756e-05
0.000964555 0.000133339 -2.66509e-06
0.000133339 0.000112829 -2.21902e-06
-2.66509e-06 -2.21902e-06 -1.6902e-05
0.0012873 0.000159419 -2.66052e-06
0.000159419 0.000173308 -2.08783e-06
-2.66052e-06 -2.08783e-06 3.95832e-05
0.000917584 0.000151723 -1.3956e-06
0.000151723 2.02557e-05 6.71993e-07
-1.3956e-06 6.71993e-07 -0.000122253
0.000659708 -4.78198e-05 6.25232e-08
-4.78198e-05 -1.92e-05 2.7754e-08
6.25232e-08 2.7754e-08 -3.34321e-05
0.000743173 1.90671e-05 1.90304e-07
1.90671e-05 3.81428e-05 -6.55952e-08
1.90304e-07 -6.55952e-08 -4.13259e-05
0.000685506 -5.82358e-05 -3.07689e-07
-5.82358e-05 1.1176e-06 3.94673e-07
-3.07689e-07 3.94673e-07 -4.90411e-05
0.0008104 1.09667e-05 3.91083e-07
1.09667e-05 7.84968e-05 -2.20046e-07
3.91083e-07 -2.20046e-07 -1.31228e-05
0.00138553 0.000117729 1.04638e-06
0.000117729 7.03152e-05 1.22833e-07
1.04638e-06 1.22833e-07 -6.00129e-05
0.00123719 0.000154213 1.18163e-07
0.000154213 7.71112e-05 1.24027e-07
1.18163e-07 1.24027e-07 -6.08806e-05
0.00149711 0.000156388 2.49762e-07
0.000156388 0.000101718 1.57205e-07
2.49762e-07 1.57205e-07 -4.36621e-05
0.000989772 0.000111111 3.54692e-07
0.000111111 0.000154327 3.88096e-07
3.54692e-07 3.88096e-07 3.74173e-05
0.00150315 0.000183323 -7.11679e-07
0.000183323 0.000256553 -1.73161e-06
-7.11679e-07 -1.73161e-06 0.000111884
0.00112225 0.000160076 3.02064e-07
0.000160076 0.000194305 -1.32048e-06
3.02064e-07 -1.32048e-06 3.9142e-05
0.000931846 0.00015564 -1.94825e-06
0.00015564 1.83849e-06 -3.81309e-07
-1.94825e-06 -3.81309e-07 -0.000139999
0.00068487 -4.33671e-05 1.6207e-06
-4.33671e-05 -1.46142e-05 3.42078e-06
1.6207e-06 3.42078e-06 -2.58884e-05
0.000712639 -5.01652e-05 4.61263e-07
-5.01652e-05 6.26971e-06 1.85439e-06
4.61263e-07 1.85439e-06 -3.55096e-05
0.000976574 6.39155e-05 1.63476e-06
6.39155e-05 0.000159192 8.26232e-07
1.63476e-06 8.26232e-07 5.50613e-05
0.000782918 1.66958e-05 7.90384e-08
1.66958e-05 5.7781e-05 1.32149e-06
7.90384e-08 1.32149e-06 -1.94961e-05
0.000889483 8.55923e-05 5.76444e-07
8.55923e-05 0.000134606 -1.65035e-07
5.76444e-07 -1.65035e-07 2.46617e-05
0.00155941 0.000125727 3.12926e-06
0.000125727 0.000112071 7.20316e-08
3.12926e-06 7.20316e-08 -2.38893e-05
0.00142463 0.000173888 1.29325e-06
0.000173888 0.00012747 3.88609e-06
1.29325e-06 3.88609e-06 -2.19085e-05
0.00157045 0.00017014 7.01305e-08
0.00017014 0.000108255 1.56935e-07
7.01305e-08 1.56935e-07 -3.68011e-05
0.00117608 0.000155125 2.5074e-06
0.000155125 0.000263938 3.09215e-06
2.5074e-06 3.09215e-06 0.00011532
0.00128764 0.000181856 1.44182e-06
0.000181856 0.000115974 2.52271e-06
1.44182e-06 2.52271e-06 -3.25525e-05
0.000333751 0.000118034 1.3253e-06
0.000118034 -0.000274787 -2.56203e-06
1.3253e-06 -2.56203e-06 -0.000437194
0.000737436 -3.05439e-05 1.59126e-06
-3.05439e-05 4.8228e-06 1.53244e-06
1.59126e-06 1.53244e-06 -3.00516e-05
0.000769628 9.0326e-06 5.64869e-07
9.0326e-06 3.38068e-05 5.37749e-07
5.64869e-07 5.37749e-07 -2.16959e-05
0.000753028 -1.89638e-05 9.65237e-07
-1.89638e-05 6.41912e-06 1.75994e-06
9.65237e-07 1.75994e-06 -2.68293e-05
0.000746575 -2.51997e-05 1.15697e-07
-2.51997e-05 6.50885e-06 -8.82432e-09
1.15697e-07 -8.82432e-09 -2.73979e-05
0.00125438 -4.0875e-05 1.57589e-06
-4.0875e-05 0.000290505 2.0953e-06
1.57589e-06 2.0953e-06 0.000286397
0.000972665 -4.15419e-05 7.95839e-07
-4.15419e-05 0.000139154 -3.5629e-08
7.95839e-07 -3.5629e-08 0.000131705
0.000946167 -3.61894e-05 2.34039e-05
-3.61894e-05 0.000130645 6.24878e-06
2.34039e-05 6.24878e-06 0.000140099
0.00209406 -6.2606e-05 1.4538e-06
-6.2606e-05 0.000782569 -1.18527e-07
1.4538e-06 -1.18527e-07 0.000795937
0.0021071 -7.01356e-05 -3.0001e-05
-7.01356e-05 0.000798027 -3.04107e-06
-3.0001e-05 -3.04107e-06 0.000809205
0.000625889 4.41901e-05 1.84265e-06
4.41901e-05 -3.99232e-05 -4.2113e-06
1.84265e-06 -4.2113e-06 -6.05272e-05
0.00255941 8.42098e-05 4.00237e-05
8.42098e-05 0.00105414 -3.18586e-06
4.00237e-05 -3.18586e-06 0.00106037
0.000622611 5.6422e-05 2.54795e-08
5.6422e-05 -3.13072e-05 4.79141e-08
2.54795e-08 4.79141e-08 -5.7181e-05
0.0027456 9.21517e-05 -1.853e-06
9.21517e-05 0.00116203 -1.66036e-07
-1.853e-06 -1.66036e-07 0.00116618
0.000619671 5.77787e-05 -6.22823e-07
5.77787e-05 -2.47073e-05 5.64421e-06
-6.22823e-07 5.64421e-06 -5.56737e-05
0.00298044 9.70844e-05 -6.48185e-05
9.70844e-05 0.0012948 2.91528e-06
-6.48185e-05 2.91528e-06 0.00129706
0.00115242 8.16282e-05 -1.04801e-05
8.16282e-05 1.67734e-05 -3.17824e-06
-1.04801e-05 -3.17824e-06 -9.02027e-05
0.00116696 4.68689e-05 -1.01904e-05
4.68689e-05 1.7224e-05 -2.22564e-06
-1.01904e-05 -2.22564e-06 -8.74329e-05
0.00140887 7.19931e-05 -4.5791e-06
7.19931e-05 6.94292e-05 -6.47847e-07
-4.5791e-06 -6.47847e-07 -5.18903e-05
0.00143654 3.03433e-05 -4.5593e-06
3.03433e-05 6.66091e-05 -9.77529e-07
-4.5593e-06 -9.77529e-07 -5.45483e-05
0.00119646 1.75688e-05 -1.08774e-05
1.75688e-05 1.36447e-05 -9.53385e-07
-1.08774e-05 -9.53385e-07 -9.25783e-05
0.000695311 1.18284e-05 -1.58654e-05
1.18284e-05 -0.000101129 -2.26269e-07
-1.58654e-05 -2.26269e-07 -0.000163231
0.00118942 1.59511e-06 2.06512e-08
1.59511e-06 8.26815e-06 -1.29229e-07
2.06512e-08 -1.29229e-07 -9.78225e-05
0.00145076 2.05164e-05 -7.7038e-08
2.05164e-05 6.55738e-05 -1.09469e-07
-7.7038e-08 -1.09469e-07 -5.59067e-05
0.00143098 4.9057e-05 6.61697e-08
4.9057e-05 7.59935e-05 -1.32676e-08
6.61697e-08 -1.32676e-08 -4.452e-05
0.00160116 3.56893e-05 -1.00847e-07
3.56893e-05 9.31313e-05 8.33788e-09
-1.00847e-07 8.33788e-09 -2.45367e-05
0.00140951 9.40216e-05 -1.35808e-07
9.40216e-05 7.18823e-05 -1.7241e-07
-1.35808e-07 -1.7241e-07 -5.30014e-05
0.0015465 7.84703e-05 -1.63087e-07
7.84703e-05 9.39109e-05 2.30472e-07
-1.63087e-07 2.30472e-07 -2.79392e-05
0.0014465 6.13102e-06 4.59328e-06
6.13102e-06 6.22068e-05 -9.48202e-08
4.59328e-06 -9.48202e-08 -5.8955e-05
0.00161933 2.68832e-05 -7.20141e-08
2.68832e-05 8.4097e-05 2.42505e-07
-7.20141e-08 2.42505e-07 -3.33924e-05
0.00151983 5.70058e-05 5.1667e-07
5.70058e-05 6.49482e-05 2.16716e-07
5.1667e-07 2.16716e-07 -5.45722e-05
0.00171798 4.46833e-05 -8.54476e-07
4.46833e-05 0.000102833 1.60493e-07
-8.54476e-07 1.60493e-07 -6.25163e-06
0.00158074 9.65192e-05 9.04527e-07
9.65192e-05 0.000115692 -5.40521e-07
9.04527e-07 -5.40521e-07 -1.13343e-05
0.00165118 8.40549e-05 -2.48594e-06
8.40549e-05 9.82255e-05 -3.24171e-07
-2.48594e-06 -3.24171e-07 -1.11779e-05
0.00077881 -1.68907e-06 -1.04842e-05
-1.68907e-06 -0.000213457 6.59247e-07
-1.04842e-05 6.59247e-07 -0.000321338
0.00163781 -4.4803e-05 -1.70804e-05
-4.4803e-05 0.000278419 2.3152e-06
-1.70804e-05 2.3152e-06 0.000179934
0.0016789 -1.41776e-05 -7.37789e-06
-1.41776e-05 0.000202737 1.01283e-06
-7.37789e-06 1.01283e-06 8.7362e-05
0.00188027 -8.2309e-05 -4.82087e-06
-8.2309e-05 0.000338101 1.12406e-06
-4.82087e-06 1.12406e-06 0.000222832
0.00064589 1.81129e-05 -5.46388e-06
1.81129e-05 -1.18167e-05 5.98115e-06
-5.46388e-06 5.98115e-06 -5.15403e-05
0.000913261 -8.42962e-05 -4.12017e-06
-8.42962e-05 0.0001179 2.5517e-06
-4.12017e-06 2.5517e-06 2.35319e-05
0.000896246 -0.000136047 -9.11978e-07
-0.000136047 4.82414e-05 7.76856e-07
-9.11978e-07 7.76856e-07 -8.08086e-05
0.00183336 -0.000133824 -6.95273e-06
-0.000133824 0.000333765 1.62104e-06
-6.95273e-06 1.62104e-06 0.000213765
0.00141987 -9.41011e-05 -1.59925e-06
-9.41011e-05 3.70726e-05 6.60832e-07
-1.59925e-06 6.60832e-07 -8.21297e-05
0.00142465 -0.000144288 -2.21811e-06
-0.000144288 7.88609e-05 1.67223e-07
-2.21811e-06 1.67223e-07 -5.23791e-05
0.00108184 -0.000161495 -3.31226e-06
-0.000161495 1.23504e-05 1.66943e-06
-3.31226e-06 1.66943e-06 -0.000142851
0.0012783 -0.000161218 9.16361e-07
-0.000161218 -5.04159e-06 -1.22986e-06
9.16361e-07 -1.22986e-06 -0.000144259
0.000708654 -2.2892e-05 -2.44729e-06
-2.2892e-05 9.44565e-06 2.34811e-06
-2.44729e-06 2.34811e-06 -7.14482e-05
0.000717986 -1.07184e-05 -1.33735e-06
-1.07184e-05 1.10407e-05 1.20559e-08
-1.33735e-06 1.20559e-08 -8.39977e-05
0.000702055 1.26273e-05 -1.04671e-06
1.26273e-05 -1.80608e-06 2.47661e-06
-1.04671e-06 2.47661e-06 -6.13324e-05
0.00165578 -3.19811e-06 -2.28154e-06
-3.19811e-06 0.000181304 1.27272e-07
-2.28154e-06 1.27272e-07 6.27063e-05
0.00167389 -5.10624e-05 -1.43915e-06
-5.10624e-05 0.000208209 2.17059e-07
-1.43915e-06 2.17059e-07 9.10746e-05
0.00162661 -1.91431e-05 -6.7083e-07
-1.91431e-05 0.000114113 2.44016e-07
-6.7083e-07 2.44016e-07 -2.63917e-06
0.00165521 -7.28563e-05 -2.77344e-07
-7.28563e-05 0.000156796 -1.59614e-07
-2.77344e-07 -1.59614e-07 3.69155e-05
0.000772415 -4.97101e-05 -1.3961e-08
-4.97101e-05 4.8516e-05 -1.88443e-07
-1.3961e-08 -1.88443e-07 -4.04202e-05
0.000998153 -0.000133853 -3.2897e-07
-0.000133853 0.000141865 5.30259e-07
-3.2897e-07 5.30259e-07 2.27445e-05
0.000833758 -0.000146854 8.69698e-07
-0.000146854 -1.61462e-05 -1.59669e-06
8.69698e-07 -1.59669e-06 -0.000169178
0.00158295 -0.000129885 2.88767e-07
-0.000129885 0.000139858 -6.68008e-08
2.88767e-07 -6.68008e-08 1.57808e-05
0.00163047 -9.70072e-05 2.87531e-07
-9.70072e-05 0.000112879 4.16846e-07
2.87531e-07 4.16846e-07 1.51386e-06
0.00146282 -0.000193266 -3.5257e-07
-0.000193266 0.00017803 7.46811e-07
-3.5257e-07 7.46811e-07 1.50531e-05
0.00155094 -0.000151994 -2.25986e-09
-0.000151994 9.86145e-05 1.45716e-07
-2.25986e-09 1.45716e-07 -2.84131e-05
0.00171505 -0.000186302 5.4328e-07
-0.000186302 0.000186292 -3.26175e-07
5.4328e-07 -3.26175e-07 5.602e-05
0.000912959 -7.89739e-05 -1.92689e-07
-7.89739e-05 0.000114489 -7.02095e-08
-1.92689e-07 -7.02095e-08 1.27616e-05
0.000945254 -0.000115092 -3.55319e-07
-0.000115092 0.000142232 3.75706e-07
-3.55319e-07 3.75706e-07 2.91425e-05
0.000719344 1.10887e-05 1.59317e-07
1.10887e-05 5.81162e-06 1.17501e-07
1.59317e-07 1.17501e-07 -4.69759e-05
0.000669311 1.77083e-05 -9.97073e-08
1.77083e-05 -1.39246e-05 -5.50918e-07
-9.97073e-08 -5.50918e-07 -0.000100951
0.00164075 -8.6839e-06 1.09029e-06
-8.6839e-06 0.000111555 -4.5164e-07
1.09029e-06 -4.5164e-07 -6.97068e-06
0.00183778 -4.75689e-05 4.3149e-07
-4.75689e-05 0.00023933 3.30753e-07
4.3149e-07 3.30753e-07 0.000121372
0.00171503 -3.36964e-05 2.13677e-08
-3.36964e-05 0.000105594 1.70009e-07
2.13677e-08 1.70009e-07 -6.5144e-06
0.00167547 -7.99606e-05 -2.67501e-06
-7.99606e-05 0.000119241 -1.238e-07
-2.67501e-06 -1.238e-07 1.11322e-05
0.00161819 -0.000126915 -1.75999e-06
-0.000126915 0.000112951 1.0915e-06
-1.75999e-06 1.0915e-06 -3.71171e-06
0.00168654 -9.84522e-05 -6.98735e-07
-9.84522e-05 0.000102015 1.94664e-07
-6.98735e-07 1.94664e-07 8.87904e-07
0.00085669 -0.000117475 1.10593e-06
-0.000117475 7.97203e-05 3.38324e-07
1.10593e-06 3.38324e-07 -2.81649e-05
0.00160193 -0.00016034 -3.69157e-06
-0.00016034 8.73885e-05 1.07874e-06
-3.69157e-06 1.07874e-06 -2.86137e-05
0.000493733 -0.00011469 -5.71648e-07
-0.00011469 -0.000135317 -3.01935e-06
-5.71648e-07 -3.01935e-06 -0.000271991
0.00136853 -0.000193938 2.69483e-06
-0.000193938 0.000237831 -2.13967e-06
2.69483e-06 -2.13967e-06 6.25015e-05
0.00177549 -0.000216378 -1.01297e-06
-0.000216378 0.00029461 2.62902e-06
-1.01297e-06 2.62902e-06 0.000135017
0.00188059 -0.000198851 -1.49099e-06
-0.000198851 0.0002399 5.81841e-07
-1.49099e-06 5.81841e-07 0.000114036
0.000725389 6.51682e-06 1.9229e-06
6.51682e-06 5.97356e-06 -2.01001e-06
1.9229e-06 -2.01001e-06 -4.23498e-05
0.000665761 7.58135e-06 2.8818e-07
7.58135e-06 -7.34537e-06 -1.24739e-06
2.8818e-07 -1.24739e-06 -9.30626e-05
0.000915849 -0.000130905 4.9247e-08
-0.000130905 0.000121587 1.65816e-06
4.9247e-08 1.65816e-06 6.05994e-06
0.000917296 -8.36178e-05 1.17076e-06
-8.36178e-05 0.000129909 1.90084e-07
1.17076e-06 1.90084e-07 2.55241e-05
0.00094383 -0.000133597 -9.88633e-07
-0.000133597 0.000140207 2.4628e-06
-9.88633e-07 2.4628e-06 2.22515e-05
0.000635213 -4.63095e-05 -1.89777e-06
-4.63095e-05 -3.2657e-05 -3.48053e-06
-1.89777e-06 -3.48053e-06 -4.66693e-05
0.00140094 0.000118976 -4.19539e-06
0.000118976 7.80841e-05 -1.35505e-06
-4.19539e-06 -1.35505e-06 -5.24618e-05
0.000686321 -6.26363e-05 -2.90792e-07
-6.26363e-05 2.19923e-06 -1.83723e-06
-2.90792e-07 -1.83723e-06 -4.83638e-05
0.000757793 1.84823e-06 -2.0808e-07
1.84823e-06 4.47502e-05 -2.82196e-06
-2.0808e-07 -2.82196e-06 -3.2522e-05
0.000813717 -9.12633e-06 1.03641e-06
-9.12633e-06 7.90527e-05 -9.29422e-07
1.03641e-06 -9.29422e-07 -1.07583e-05
0.00124171 0.000155456 -4.76416e-06
0.000155456 8.07795e-05 -2.83242e-06
-4.76416e-06 -2.83242e-06 -5.7473e-05
0.00145733 0.000154648 -2.28579e-06
0.000154648 8.26579e-05 -3.78414e-07
-2.28579e-06 -3.78414e-07 -6.29142e-05
0.000887825 0.000118891 -1.41114e-06
0.000118891 0.000101701 -9.61983e-07
-1.41114e-06 -9.61983e-07 -1.60407e-05
0.00133099 0.000174629 -1.76396e-06
0.000174629 0.000309533 -1.44213e-06
-1.76396e-06 -1.44213e-06 0.000151973
0.00169652 0.000194102 -1.84875e-06
0.000194102 0.000363304 -4.07961e-06
-1.84875e-06 -4.07961e-06 0.000218178
0.00103141 0.000161282 -3.58881e-06
0.000161282 5.98983e-05 4.92281e-07
-3.58881e-06 4.92281e-07 -7.79712e-05
0.000666376 -4.21669e-05 5.68929e-08
-4.21669e-05 -2.47765e-05 1.06305e-08
5.68929e-08 1.06305e-08 -3.59262e-05
0.000715114 -5.10775e-05 -3.4292e-07
-5.10775e-05 7.66983e-06 1.33908e-07
-3.4292e-07 1.33908e-07 -3.41297e-05
0.000920889 6.7913e-05 6.65009e-07
6.7913e-05 0.000130364 -5.22658e-08
6.65009e-07 -5.22658e-08 2.59978e-05
0.000776566 -1.82683e-05 -2.70333e-07
-1.82683e-05 5.27464e-05 1.74561e-07
-2.70333e-07 1.74561e-07 -2.25425e-05
0.000818479 6.11592e-05 7.19817e-07
6.11592e-05 9.19102e-05 -2.74377e-07
7.19817e-07 -2.74377e-07 -1.64741e-05
0.00151894 0.000124901 1.19974e-06
0.000124901 9.0495e-05 2.63471e-08
1.19974e-06 2.63471e-08 -4.57893e-05
0.00137995 0.000172494 -1.20537e-07
0.000172494 0.000104936 1.42223e-06
-1.20537e-07 1.42223e-06 -4.46202e-05
0.00159639 0.000173192 1.36521e-06
0.000173192 0.00012119 4.63741e-07
1.36521e-06 4.63741e-07 -2.47105e-05
0.00100802 0.000143209 1.2648e-06
0.000143209 0.000174003 1.30582e-06
1.2648e-06 1.30582e-06 2.70965e-05
0.00149917 0.000192562 1.24389e-06
0.000192562 0.000231861 -1.64824e-06
1.24389e-06 -1.64824e-06 8.34415e-05
0.000760669 0.000146215 -1.8943e-06
0.000146215 -4.60103e-05 -1.12482e-06
-1.8943e-06 -1.12482e-06 -0.000211493
0.000734185 -3.84066e-05 1.46524e-06
-3.84066e-05 9.13912e-06 1.54564e-06
1.46524e-06 1.54564e-06 -2.79724e-05
0.000792497 8.3289e-06 3.96606e-07
8.3289e-06 5.13294e-05 1.06619e-06
3.96606e-07 1.06619e-06 -1.13357e-05
0.0010061 0.000133466 -5.9382e-07
0.000133466 0.000186756 -2.6881e-07
-5.9382e-07 -2.6881e-07 5.84344e-05
0.000842713 1.46581e-05 2.29284e-07
1.46581e-05 9.90443e-05 5.90777e-07
2.29284e-07 5.90777e-07 7.49066e-06
0.0010826 6.93796e-05 -1.71454e-06
6.93796e-05 0.000233283 -2.69873e-06
-1.71454e-06 -2.69873e-06 0.000116341
0.0015513 0.000124963 -2.11087e-06
0.000124963 7.33389e-05 -2.23289e-06
-2.11087e-06 -2.23289e-06 -5.67495e-05
0.00137015 0.000184307 9.57915e-07
0.000184307 6.23072e-05 3.68452e-06
9.57915e-07 3.68452e-06 -8.95165e-05
0.00150472 0.000186609 -2.47544e-06
0.000186609 4.06187e-05 -1.27682e-06
-2.47544e-06 -1.27682e-06 -9.5422e-05
0.000900214 0.000142869 -2.37858e-07
0.000142869 0.00012341 1.01725e-06
-2.37858e-07 1.01725e-06 -5.18184e-05
0.0012834 0.00019379 2.39284e-06
0.00019379 0.000139219 5.21062e-07
2.39284e-06 5.21062e-07 -2.45674e-05
0.000739437 -2.99612e-05 1.75126e-08
-2.99612e-05 6.37483e-06 -8.80627e-09
1.75126e-08 -8.80627e-09 -2.85742e-05
0.000659225 -1.09177e-05 1.21107e-06
-1.09177e-05 -3.12844e-05 9.26178e-07
1.21107e-06 9.26178e-07 -8.47873e-05
0.000704291 -2.28776e-05 -6.36013e-07
-2.28776e-05 -4.19723e-06 -7.70893e-08
-6.36013e-07 -7.70893e-08 -5.87328e-05
0.000948277 2.70707e-05 1.19169e-06
2.70707e-05 0.000143332 -4.44392e-07
1.19169e-06 -4.44392e-07 7.5927e-05
0.000790929 2.33131e-05 1.71705e-06
2.33131e-05 4.23759e-05 6.76986e-07
1.71705e-06 6.76986e-07 -1.21019e-05
0.000754665 -8.26827e-06 9.93372e-07
-8.26827e-06 5.26864e-06 1.71591e-06
9.93372e-07 1.71591e-06 -2.81495e-05
0.000755202 -1.94134e-05 -7.01229e-08
-1.94134e-05 7.94058e-06 2.85759e-09
-7.01229e-08 2.85759e-09 -2.53837e-05
0.00125656 -3.29976e-05 1.05615e-06
-3.29976e-05 0.000285449 2.12185e-06
1.05615e-06 2.12185e-06 0.000282892
0.000752027 -2.4806e-05 -1.24651e-06
-2.4806e-05 9.81816e-06 -1.75085e-06
-1.24651e-06 -1.75085e-06 -2.41894e-05
0.00127463 -3.85322e-05 -4.47624e-06
-3.85322e-05 0.000301192 -1.19763e-06
-4.47624e-06 -1.19763e-06 0.000297414
0.000939537 -3.02695e-05 2.06014e-05
-3.02695e-05 0.000118041 6.4359e-06
2.06014e-05 6.4359e-06 0.000129645
0.00126558 -4.32087e-05 -9.76025e-06
-4.32087e-05 0.000303504 -3.14992e-06
-9.76025e-06 -3.14992e-06 0.000297988
0.00148668 -4.5277e-05 1.88554e-05
-4.5277e-05 0.000433788 1.95333e-06
1.88554e-05 1.95333e-06 0.000446291
0.00208081 -6.1969e-05 -2.66892e-05
-6.1969e-05 0.000773939 -3.33225e-06
-2.66892e-05 -3.33225e-06 0.000787583
0.000642573 3.93478e-05 1.5833e-06
3.93478e-05 -3.8553e-05 -4.01435e-06
1.5833e-06 -4.01435e-06 -5.56108e-05
0.00064085 4.62891e-05 -9.99054e-08
4.62891e-05 -3.10429e-05 3.53102e-08
-9.99054e-08 3.53102e-08 -5.20684e-05
0.00245106 7.50784e-05 3.45053e-05
7.50784e-05 0.000986958 -3.47961e-06
3.45053e-05 -3.47961e-06 0.000995625
0.00260829 8.41201e-05 -1.91773e-06
8.41201e-05 0.00108113 -1.71351e-07
-1.91773e-06 -1.71351e-07 0.00108739
0.000641679 5.53797e-05 -3.82312e-07
5.53797e-05 -2.06412e-05 4.98181e-06
-3.82312e-07 4.98181e-06 -4.6607e-05
0.00279805 8.96688e-05 -5.58578e-05
8.96688e-05 0.00119018 2.96104e-06
-5.58578e-05 2.96104e-06 0.00119485
0.0014219 9.48411e-05 -4.88509e-06
9.48411e-05 7.78133e-05 -1.01845e-06
-4.88509e-06 -1.01845e-06 -4.7178e-05
0.00141672 4.97661e-05 -4.50514e-06
4.97661e-05 6.88456e-05 -1.1594e-06
-4.50514e-06 -1.1594e-06 -5.19082e-05
0.00153879 7.85424e-05 -7.73212e-07
7.85424e-05 9.19408e-05 4.76258e-07
-7.73212e-07 4.76258e-07 -3.0038e-05
0.00163463 3.66322e-05 -5.12056e-07
3.66322e-05 0.000109895 -2.42925e-07
-5.12056e-07 -2.42925e-07 -6.83504e-06
0.00144467 2.37146e-05 -4.37429e-06
2.37146e-05 6.28535e-05 -4.69746e-07
-4.37429e-06 -4.69746e-07 -5.87303e-05
0.00119335 6.46155e-06 -1.06779e-05
6.46155e-06 1.00964e-05 -1.25409e-07
-1.06779e-05 -1.25409e-07 -9.59689e-05
0.0014561 9.97388e-06 6.97377e-08
9.97388e-06 6.71463e-05 -8.85041e-08
6.97377e-08 -8.85041e-08 -5.40768e-05
0.00163295 1.68956e-05 -3.8011e-07
1.68956e-05 9.11118e-05 -9.91842e-09
-3.8011e-07 -9.91842e-09 -2.63294e-05
0.001561 5.62909e-05 -4.92088e-08
5.62909e-05 8.93149e-05 1.37815e-08
-4.92088e-08 1.37815e-08 -3.00847e-05
0.00176001 4.71197e-05 4.81813e-07
4.71197e-05 0.000123471 3.5903e-07
4.81813e-07 3.5903e-07 1.6183e-05
0.00153217 9.64832e-05 -1.58558e-07
9.64832e-05 8.88392e-05 -6.48193e-08
-1.58558e-07 -6.48193e-08 -3.85937e-05
0.00164152 8.34708e-05 -8.63554e-08
8.34708e-05 9.26053e-05 5.65578e-07
-8.63554e-08 5.65578e-07 -1.53851e-05
0.00163784 -9.15556e-07 7.25922e-07
-9.15556e-07 9.78622e-05 5.80107e-08
7.25922e-07 5.80107e-08 -1.99626e-05
0.00175353 3.61244e-05 -4.00546e-07
3.61244e-05 0.000101268 5.2207e-07
-4.00546e-07 5.2207e-07 -8.38224e-06
0.00169209 6.70076e-05 -2.39893e-06
6.70076e-05 0.000101831 -9.33517e-08
-2.39893e-06 -9.33517e-08 -3.49071e-06
0.00180624 5.38954e-05 -3.313e-07
5.38954e-05 0.000126843 1.42895e-07
-3.313e-07 1.42895e-07 2.81159e-05
0.00156032 9.05526e-05 -1.85618e-06
9.05526e-05 5.56518e-05 -1.52597e-06
-1.85618e-06 -1.52597e-06 -6.02459e-05
0.00188238 9.36665e-05 -3.2156e-07
9.36665e-05 0.00018267 -4.50551e-08
-3.2156e-07 -4.50551e-08 8.59899e-05
0.00145679 -2.32948e-06 -6.33411e-06
-2.32948e-06 7.03152e-05 6.95331e-07
-6.33411e-06 6.95331e-07 -5.00012e-05
0.00166586 -5.26995e-05 -6.63903e-06
-5.26995e-05 0.000203993 1.09351e-06
-6.63903e-06 1.09351e-06 8.66182e-05
0.00151166 -1.77083e-05 -1.58619e-06
-1.77083e-05 4.85376e-05 2.03436e-07
-1.58619e-06 2.03436e-07 -6.77998e-05
0.00174359 -7.26117e-05 -1.33465e-06
-7.26117e-05 0.000202671 4.49365e-07
-1.33465e-06 4.49365e-07 8.31809e-05
0.000831085 -5.84538e-05 -3.21382e-06
-5.84538e-05 7.90321e-05 2.03701e-06
-3.21382e-06 2.03701e-06 -1.0086e-05
0.0011198 -0.000142644 -1.87377e-06
-0.000142644 0.000206294 1.74055e-06
-1.87377e-06 1.74055e-06 8.58936e-05
0.000961648 -0.000151795 -1.05977e-06
-0.000151795 6.09057e-05 1.05842e-06
-1.05977e-06 1.05842e-06 -9.01402e-05
0.00172757 -0.000134594 -2.01622e-06
-0.000134594 0.00022111 1.36871e-07
-2.01622e-06 1.36871e-07 9.67995e-05
0.00156714 -9.4295e-05 2.03614e-06
-9.4295e-05 7.69356e-05 -2.4117e-07
2.03614e-06 -2.4117e-07 -3.27199e-05
0.00157597 -0.000152346 7.56642e-07
-0.000152346 0.000110644 -5.70204e-07
7.56642e-07 -5.70204e-07 -1.62497e-05
0.00116393 -0.000177315 -1.99629e-06
-0.000177315 1.64806e-05 1.62922e-07
-1.99629e-06 1.62922e-07 -0.000147092
0.00155525 -0.000178374 4.22267e-06
-0.000178374 9.5929e-05 -2.57395e-06
4.22267e-06 -2.57395e-06 -3.21333e-05
0.000934376 -7.17886e-05 -1.22163e-06
-7.17886e-05 0.000125879 -3.81579e-07
-1.22163e-06 -3.81579e-07 2.4919e-05
0.000878854 -8.56655e-05 -8.30258e-07
-8.56655e-05 9.92559e-05 -7.73124e-07
-8.30258e-07 -7.73124e-07 -9.28305e-06
0.000720895 8.61777e-06 -1.46689e-06
8.61777e-06 6.26407e-06 2.12821e-06
-1.46689e-06 2.12821e-06 -4.65746e-05
0.000650555 3.0568e-05 1.77837e-07
3.0568e-05 -2.62567e-05 1.67064e-07
1.77837e-07 1.67064e-07 -0.000110565
0.00161147 -8.20553e-06 -3.37875e-08
-8.20553e-06 9.41663e-05 -1.67599e-07
-3.37875e-08 -1.67599e-07 -2.4427e-05
0.0017747 -4.52527e-05 -6.86739e-07
-4.52527e-05 0.000203111 2.60752e-07
-6.86739e-07 2.60752e-07 8.42644e-05
0.00168905 -3.28003e-05 1.4957e-08
-3.28003e-05 9.50509e-05 -1.58967e-07
1.4957e-08 -1.58967e-07 -1.65929e-05
0.00163126 -7.85903e-05 -2.72408e-07
-7.85903e-05 9.92319e-05 -1.45646e-08
-2.72408e-07 -1.45646e-08 -1.02206e-05
0.000955981 -0.000109214 -3.23289e-07
-0.000109214 0.000131 3.37962e-07
-3.23289e-07 3.37962e-07 2.43207e-05
0.000657261 -0.000123706 7.4959e-07
-0.000123706 -4.40236e-05 -1.03818e-06
7.4959e-07 -1.03818e-06 -0.00017892
0.00130371 -0.00018848 -3.0305e-07
-0.00018848 0.000205795 3.20588e-07
-3.0305e-07 3.20588e-07 2.92202e-05
0.00164131 -0.000128473 -6.90793e-07
-0.000128473 0.000126708 2.3534e-07
-6.90793e-07 2.3534e-07 8.62322e-06
0.00164094 -9.78298e-05 1.18826e-06
-9.78298e-05 7.74399e-05 -3.89734e-07
1.18826e-06 -3.89734e-07 -2.20645e-05
0.0016401 -0.000208733 -7.38766e-07
-0.000208733 0.000218915 1.10543e-06
-7.38766e-07 1.10543e-06 5.99494e-05
0.00164029 -0.000161721 -3.95434e-07
-0.000161721 0.000107007 2.19702e-07
-3.95434e-07 2.19702e-07 -9.04718e-06
0.00169672 -0.000189632 2.29945e-06
-0.000189632 0.000139841 -1.80687e-06
2.29945e-06 -1.80687e-06 1.55341e-05
0.00098405 -0.000135619 1.46587e-07
-0.000135619 0.000158604 1.61476e-07
1.46587e-07 1.61476e-07 4.25256e-05
0.000982273 -0.000128423 3.52441e-07
-0.000128423 0.000158017 3.73853e-07
3.52441e-07 3.73853e-07 4.1669e-05
0.00088137 -5.73536e-05 -3.23185e-07
-5.73536e-05 0.000107122 -9.12169e-08
-3.23185e-07 -9.12169e-08 5.66453e-06
0.000599178 1.75971e-05 -4.72062e-07
1.75971e-05 -6.31601e-05 6.00388e-08
-4.72062e-07 6.00388e-08 -0.000112964
0.000650193 2.45503e-05 1.19903e-07
2.45503e-05 -2.07981e-05 -4.23963e-07
1.19903e-07 -4.23963e-07 -0.000102315
0.00178285 -2.21342e-05 2.18259e-08
-2.21342e-05 0.000123089 -9.35551e-08
2.18259e-08 -9.35551e-08 1.31728e-05
0.00171079 -4.87822e-05 -6.52671e-07
-4.87822e-05 0.000101313 2.37109e-07
-6.52671e-07 2.37109e-07 -6.77701e-06
0.00172638 -9.2041e-05 -1.97175e-06
-9.2041e-05 0.000104411 -4.08681e-07
-1.97175e-06 -4.08681e-07 1.13439e-05
0.00158129 -0.000123222 -1.83556e-06
-0.000123222 4.13746e-05 7.58758e-07
-1.83556e-06 7.58758e-07 -6.09823e-05
0.000872299 -0.000130866 -6.40493e-07
-0.000130866 9.36682e-05 7.74183e-07
-6.40493e-07 7.74183e-07 -2.72448e-05
0.00203911 -0.000193568 -2.21476e-06
-0.000193568 0.000282602 9.26538e-07
-2.21476e-06 9.26538e-07 0.00017016
0.000103004 -9.39293e-05 -2.94157e-07
-9.39293e-05 -0.000344422 -4.67611e-06
-2.94157e-07 -4.67611e-06 -0.000493752
0.00160838 -0.000220926 2.7015e-06
-0.000220926 0.000318757 -5.45748e-07
2.7015e-06 -5.45748e-07 0.000129875
0.00180975 -0.000223592 -2.98893e-07
-0.000223592 0.000238364 1.36245e-06
-2.98893e-07 1.36245e-06 8.89378e-05
0.000473569 2.10984e-05 1.31027e-06
2.10984e-05 -0.00013501 -2.7568e-06
1.31027e-06 -2.7568e-06 -0.000182422
0.000882106 -8.13099e-06 1.44045e-06
-8.13099e-06 0.000110397 -7.03992e-07
1.44045e-06 -7.03992e-07 3.37329e-05
0.00093363 -3.8104e-05 -2.32001e-07
-3.8104e-05 0.000140557 1.19897e-07
-2.32001e-07 1.19897e-07 4.72941e-05
0.000970094 -0.000136166 -1.55495e-06
-0.000136166 0.00014732 2.31516e-06
-1.55495e-06 2.31516e-06 2.95784e-05
0.000979704 -8.71479e-05 5.60354e-07
-8.71479e-05 0.00015868 1.71306e-06
5.60354e-07 1.71306e-06 4.81288e-05
0.00085288 -0.00012934 -6.39198e-07
-0.00012934 7.86253e-05 1.91683e-06
-6.39198e-07 1.91683e-06 -3.93314e-05
0.000650622 -4.11584e-05 -1.65723e-06
-4.11584e-05 -3.33665e-05 -3.45986e-06
-1.65723e-06 -3.45986e-06 -4.44217e-05
0.000713528 -4.87563e-05 -1.61148e-06
-4.87563e-05 5.93841e-06 -1.396e-06
-1.61148e-06 -1.396e-06 -3.53288e-05
0.00148166 0.000124161 -1.02723e-06
0.000124161 7.06935e-05 -1.21193e-07
-1.02723e-06 -1.21193e-07 -6.59096e-05
0.000777086 -5.51521e-05 6.95313e-07
-5.51521e-05 5.15062e-05 -1.0876e-06
6.95313e-07 -1.0876e-06 -2.18584e-05
0.000817476 5.92776e-05 -1.085e-07
5.92776e-05 7.23871e-05 -3.68501e-07
-1.085e-07 -3.68501e-07 -2.9522e-05
0.000724094 3.59091e-05 1.20808e-06
3.59091e-05 3.58758e-05 8.13206e-08
1.20808e-06 8.13206e-08 -7.04026e-05
0.0013341 0.000170908 -2.22912e-06
0.000170908 8.1809e-05 -1.3155e-06
-2.22912e-06 -1.3155e-06 -6.7891e-05
0.00163276 0.000176575 6.38821e-07
0.000176575 0.000140097 4.36234e-07
6.38821e-07 4.36234e-07 -6.61965e-06
0.000951079 0.000138772 4.08058e-07
0.000138772 0.000145295 -4.7913e-07
4.08058e-07 -4.7913e-07 -4.46992e-07
0.00125301 0.000178611 -3.1732e-07
0.000178611 0.000217765 -2.1423e-07
-3.1732e-07 -2.1423e-07 5.07059e-05
0.00168109 0.000201888 -2.81371e-06
0.000201888 0.000332004 -4.35674e-06
-2.81371e-06 -4.35674e-06 0.000183782
0.000733433 -3.73847e-05 -9.68683e-08
-3.73847e-05 8.73293e-06 1.68608e-08
-9.68683e-08 1.68608e-08 -2.8292e-05
0.000772911 -2.53474e-05 -5.69634e-07
-2.53474e-05 4.02168e-05 3.19643e-07
-5.69634e-07 3.19643e-07 -2.16084e-05
0.000984187 0.000131949 -5.55434e-07
0.000131949 0.000177557 -1.15451e-08
-5.55434e-07 -1.15451e-08 4.9245e-05
0.000821678 -1.13174e-05 2.69971e-07
-1.13174e-05 8.4418e-05 4.29525e-08
2.69971e-07 4.29525e-08 -4.58894e-06
0.00089999 7.25472e-05 8.14042e-08
7.25472e-05 0.000137245 -5.29657e-07
8.14042e-08 -5.29657e-07 1.81716e-05
0.00159572 0.000129141 -1.12226e-06
0.000129141 9.76093e-05 -9.80835e-07
-1.12226e-06 -9.80835e-07 -3.34231e-05
0.00147728 0.000189081 1.11295e-06
0.000189081 0.000119926 1.39049e-06
1.11295e-06 1.39049e-06 -3.24184e-05
0.00154046 0.000185143 7.56501e-07
0.000185143 5.99544e-05 3.30464e-07
7.56501e-07 3.30464e-07 -7.37623e-05
0.00071069 0.000131884 3.96137e-07
0.000131884 1.45617e-05 2.25958e-06
3.96137e-07 2.25958e-06 -0.000157599
0.00143332 0.000203996 -1.23878e-06
0.000203996 0.000222325 -4.73511e-07
-1.23878e-06 -4.73511e-07 5.49781e-05
0.000792223 5.36651e-06 1.0102e-06
5.36651e-06 4.52852e-05 6.51559e-07
1.0102e-06 6.51559e-07 -9.90448e-06
0.000636231 -3.29561e-05 -9.92114e-07
-3.29561e-05 -2.56451e-05 1.45207e-06
-9.92114e-07 1.45207e-06 -0.000102952
0.000936457 0.000137106 -2.0269e-06
0.000137106 0.000150461 -2.11247e-06
-2.0269e-06 -2.11247e-06 4.27282e-06
0.000661935 2.39125e-05 -1.16779e-06
2.39125e-05 5.36615e-06 -7.68164e-07
-1.16779e-06 -7.68164e-07 -0.000103168
0.00100276 0.000110155 -1.13656e-06
0.000110155 0.000186038 -2.23762e-06
-1.13656e-06 -2.23762e-06 5.81011e-05
0.00160678 0.000140366 -3.23164e-06
0.000140366 3.96955e-05 -2.19218e-06
-3.23164e-06 -2.19218e-06 -6.38353e-05
0.00195981 0.000233774 -9.21675e-07
0.000233774 0.0003551 7.08115e-07
-9.21675e-07 7.08115e-07 0.000198742
0.00136666 0.000180086 -7.28839e-08
0.000180086 -5.92272e-05 -1.82416e-07
-7.28839e-08 -1.82416e-07 -0.000183469
0.00183043 0.000209651 2.52672e-06
0.000209651 0.000585541 4.18891e-06
2.52672e-06 4.18891e-06 0.000390306
0.000428384 0.000155557 -9.45011e-07
0.000155557 -0.000350933 -2.43452e-07
-9.45011e-07 -2.43452e-07 -0.000519854
0.000742128 -2.87881e-05 -1.68177e-06
-2.87881e-05 8.24503e-06 -1.539e-06
-1.68177e-06 -1.539e-06 -2.67447e-05
0.000716193 -9.77492e-06 1.8871e-07
-9.77492e-06 1.8734e-06 4.43593e-07
1.8871e-07 4.43593e-07 -5.21984e-05
0.000696963 -3.75496e-05 -2.08102e-07
-3.75496e-05 -6.19936e-07 3.49388e-07
-2.08102e-07 3.49388e-07 -6.51618e-05
0.000642012 -4.5775e-05 -9.53159e-07
-4.5775e-05 -3.92951e-05 -4.62353e-07
-9.53159e-07 -4.62353e-07 -9.37003e-05
0.000784413 -1.67676e-06 1.12977e-07
-1.67676e-06 3.81487e-05 -2.81463e-09
1.12977e-07 -2.81463e-09 -1.57401e-05
0.000804957 -1.02527e-05 1.13819e-07
-1.02527e-05 5.86849e-05 -3.37242e-07
1.13819e-07 -3.37242e-07 -4.95157e-06
0.000897159 1.23894e-05 3.25336e-08
1.23894e-05 0.000116786 -8.18246e-07
3.25336e-08 -8.18246e-07 4.55374e-05
0.000722214 -3.42946e-05 6.52457e-07
-3.42946e-05 1.66966e-05 -1.2505e-07
6.52457e-07 -1.2505e-07 -5.01527e-05
0.000812258 5.62817e-06 4.8344e-07
5.62817e-06 4.93537e-05 4.97537e-07
4.8344e-07 4.97537e-07 -2.75951e-06
0.000751644 -2.53859e-07 9.66487e-07
-2.53859e-07 4.04447e-06 1.58442e-06
9.66487e-07 1.58442e-06 -3.03595e-05
0.000756871 -1.19939e-05 -1.73032e-07
-1.19939e-05 6.95765e-06 -2.27541e-09
-1.73032e-07 -2.27541e-09 -2.65838e-05
0.00126057 -2.43167e-05 1.0055e-06
-2.43167e-05 0.000283008 2.07021e-06
1.0055e-06 2.07021e-06 0.000281175
0.000755889 -1.97244e-05 -9.8573e-07
-1.97244e-05 8.6485e-06 -1.78682e-06
-9.8573e-07 -1.78682e-06 -2.47475e-05
0.00127897 -3.07888e-05 -3.80866e-06
-3.07888e-05 0.000297658 -1.24859e-06
-3.80866e-06 -1.24859e-06 0.000295229
0.000941937 -2.49636e-05 1.68178e-05
-2.49636e-05 0.00011323 6.63802e-06
1.68178e-05 6.63802e-06 0.000126028
0.00129544 -3.68436e-05 -8.28011e-06
-3.68436e-05 0.000312312 -4.58757e-06
-8.28011e-06 -4.58757e-06 0.000308688
0.00088035 -3.14224e-05 6.69976e-06
-3.14224e-05 8.52282e-05 2.48049e-06
6.69976e-06 2.48049e-06 9.65052e-05
0.00201239 -5.90549e-05 -6.15792e-06
-5.90549e-05 0.00072848 -1.5485e-06
-6.15792e-06 -1.5485e-06 0.000743269
0.000658853 3.49313e-05 1.16351e-06
3.49313e-05 -3.65587e-05 -3.83961e-06
1.16351e-06 -3.83961e-06 -5.03316e-05
0.000655561 4.03856e-05 -1.51116e-07
4.03856e-05 -3.11558e-05 3.43535e-08
-1.51116e-07 3.43535e-08 -4.84341e-05
0.00235976 6.58764e-05 2.93767e-05
6.58764e-05 0.00092852 -3.72422e-06
2.93767e-05 -3.72422e-06 0.00093971
0.000659076 4.88406e-05 -1.26329e-06
4.88406e-05 -2.0128e-05 4.37668e-06
-1.26329e-06 4.37668e-06 -4.16937e-05
0.00249853 7.55589e-05 -1.92592e-06
7.55589e-05 0.00101384 -1.52104e-07
-1.92592e-06 -1.52104e-07 0.00102232
0.00265006 8.30637e-05 -4.6692e-05
8.30637e-05 0.00110404 3.06313e-06
-4.6692e-05 3.06313e-06 0.00111054
0.0014814 9.63559e-05 -1.73628e-06
9.63559e-05 6.07161e-05 2.98959e-07
-1.73628e-06 2.98959e-07 -6.71269e-05
0.00160502 5.47327e-05 -3.9026e-07
5.47327e-05 0.000115098 -1.46821e-07
-3.9026e-07 -1.46821e-07 -4.11987e-06
0.00162616 8.28044e-05 2.46287e-06
8.28044e-05 8.38098e-05 1.16042e-06
2.46287e-06 1.16042e-06 -2.27648e-05
0.00180321 4.94929e-05 1.98905e-06
4.94929e-05 0.000144642 6.0615e-08
1.98905e-06 6.0615e-08 3.91525e-05
0.00164635 9.81146e-06 -9.30981e-07
9.81146e-06 9.81387e-05 -1.36772e-07
-9.30981e-07 -1.36772e-07 -1.92913e-05
0.00146378 1.31243e-05 -4.27321e-06
1.31243e-05 7.10429e-05 -5.98664e-08
-4.27321e-06 -5.98664e-08 -5.02034e-05
0.00162579 2.29185e-06 -2.83522e-07
2.29185e-06 9.12398e-05 -2.81125e-08
-2.83522e-07 -2.81125e-08 -2.73868e-05
0.00175002 2.98985e-05 5.05019e-07
2.98985e-05 0.000101513 -2.79555e-08
5.05019e-07 -2.79555e-08 -8.79966e-06
0.00167296 6.42103e-05 -7.82483e-07
6.42103e-05 8.87014e-05 -1.47282e-07
-7.82483e-07 -1.47282e-07 -1.76485e-05
0.00177901 5.40998e-05 1.15908e-06
5.40998e-05 0.00010714 -1.06768e-07
1.15908e-06 -1.06768e-07 9.68015e-06
0.00157549 9.02607e-05 -6.21102e-07
9.02607e-05 6.86659e-05 1.06288e-07
-6.21102e-07 1.06288e-07 -4.72178e-05
0.00177644 9.62492e-05 2.67093e-06
9.62492e-05 0.00012261 4.49963e-07
2.67093e-06 4.49963e-07 2.74261e-05
0.0017662 2.57936e-06 -4.73694e-07
2.57936e-06 0.000111884 1.70394e-07
-4.73694e-07 1.70394e-07 1.29048e-06
0.00174452 4.07253e-05 -5.21623e-07
4.07253e-05 8.18549e-05 5.53805e-07
-5.21623e-07 5.53805e-07 -1.74273e-05
0.00178976 7.06306e-05 -9.89266e-07
7.06306e-05 0.0001044 1.89538e-08
-9.89266e-07 1.89538e-08 1.31506e-05
0.00191278 0.000117717 -1.47091e-06
0.000117717 0.000192095 -8.55567e-07
-1.47091e-06 -8.55567e-07 9.90823e-05
0.00158232 -7.77047e-06 -8.86725e-07
-7.77047e-06 7.68744e-05 1.25584e-07
-8.86725e-07 1.25584e-07 -4.17852e-05
0.00170902 -4.46247e-05 -1.85236e-06
-4.46247e-05 0.000165614 1.01563e-07
-1.85236e-06 1.01563e-07 4.58057e-05
0.00166967 -3.20794e-05 5.98533e-08
-3.20794e-05 8.80476e-05 -1.02141e-07
5.98533e-08 -1.02141e-07 -2.3142e-05
0.00159154 -7.67461e-05 1.3841e-06
-7.67461e-05 8.15049e-05 -1.47896e-07
1.3841e-06 -1.47896e-07 -2.925e-05
0.00106763 -0.000113587 -1.36111e-06
-0.000113587 0.000191584 3.19234e-07
-1.36111e-06 3.19234e-07 8.37846e-05
0.000830357 -0.00013377 1.05081e-06
-0.00013377 5.25537e-05 7.26978e-07
1.05081e-06 7.26978e-07 -8.07377e-05
0.001244 -0.00018274 -1.90151e-06
-0.00018274 0.00017779 3.24565e-06
-1.90151e-06 3.24565e-06 -1.1864e-06
0.00166708 -0.000130019 -4.32473e-08
-0.000130019 0.00014195 -3.50345e-07
-4.32473e-08 -3.50345e-07 2.2437e-05
0.00160023 -9.75596e-05 2.87889e-06
-9.75596e-05 5.53182e-05 -9.2152e-07
2.87889e-06 -9.2152e-07 -4.26059e-05
0.00166852 -0.00016272 3.16854e-06
-0.00016272 0.00012114 -6.8567e-07
3.16854e-06 -6.8567e-07 5.03795e-06
0.00151299 -0.000201618 -8.88894e-07
-0.000201618 0.000148515 -1.46943e-06
-8.88894e-07 -1.46943e-06 -9.95618e-06
0.00153379 -0.000181648 2.91995e-06
-0.000181648 5.18843e-05 -3.95554e-06
2.91995e-06 -3.95554e-06 -7.11162e-05
0.00106537 -0.000141243 3.65305e-07
-0.000141243 0.000203134 -1.22176e-06
3.65305e-07 -1.22176e-06 8.63279e-05
0.00102702 -0.000132371 7.2903e-07
-0.000132371 0.000180845 -2.51836e-06
7.2903e-07 -2.51836e-06 6.44029e-05
0.000832998 -3.24447e-05 1.70302e-07
-3.24447e-05 7.88517e-05 -1.1036e-07
1.70302e-07 -1.1036e-07 -2.04823e-05
0.000470745 2.04437e-05 -1.72685e-06
2.04437e-05 -0.000133818 2.03319e-06
-1.72685e-06 2.03319e-06 -0.000184919
0.000638784 3.83013e-05 1.06249e-07
3.83013e-05 -3.00889e-05 2.01455e-07
1.06249e-07 2.01455e-07 -0.000108716
0.00177929 -2.32538e-05 2.50428e-07
-2.32538e-05 0.000124962 -6.30801e-08
2.50428e-07 -6.30801e-08 1.49463e-05
0.00173818 -5.04467e-05 2.22392e-07
-5.04467e-05 0.000117852 -1.53041e-07
2.22392e-07 -1.53041e-07 9.87153e-06
0.00171822 -9.22581e-05 -8.38429e-07
-9.22581e-05 0.00010266 -5.66188e-08
-8.38429e-07 -5.66188e-08 7.77288e-06
0.00100894 -0.00013962 -8.37823e-08
-0.00013962 0.000166625 6.21483e-07
-8.37823e-08 6.21483e-07 4.45726e-05
0.000712769 -0.000132404 1.66315e-06
-0.000132404 -1.36063e-05 -1.99814e-06
1.66315e-06 -1.99814e-06 -0.000164582
0.00144242 -0.000208593 -7.07839e-07
-0.000208593 0.00023293 7.64138e-07
-7.07839e-07 7.64138e-07 4.16059e-05
0.00165045 -0.000124773 6.86287e-07
-0.000124773 7.89561e-05 -1.13502e-07
6.86287e-07 -1.13502e-07 -2.37324e-05
0.00172505 -0.000215522 9.40325e-07
-0.000215522 0.000193029 -1.35097e-06
9.40325e-07 -1.35097e-06 4.71771e-05
0.00174675 -0.000184189 -2.39635e-07
-0.000184189 0.000130725 -6.83663e-07
-2.39635e-07 -6.83663e-07 1.77755e-05
0.000471668 2.47093e-05 6.39521e-08
2.47093e-05 -0.000136643 -6.90633e-07
6.39521e-08 -6.90633e-07 -0.000183353
0.00102655 -0.000139844 -7.93212e-08
-0.000139844 0.000176476 3.23267e-07
-7.93212e-08 3.23267e-07 5.82945e-05
0.000856862 -0.000129006 -6.38907e-07
-0.000129006 8.20802e-05 3.34884e-07
-6.38907e-07 3.34884e-07 -3.43326e-05
0.00100128 -9.25556e-05 -3.75824e-07
-9.25556e-05 0.000174419 8.17021e-07
-3.75824e-07 8.17021e-07 6.05254e-05
0.000955808 -3.55192e-05 -3.68783e-08
-3.55192e-05 0.000153095 6.37341e-08
-3.68783e-08 6.37341e-08 5.98947e-05
0.000752765 1.17365e-05 -2.2745e-07
1.17365e-05 3.52151e-05 2.91109e-07
-2.2745e-07 2.91109e-07 -3.9749e-05
0.00167131 -3.35427e-05 -9.13719e-07
-3.35427e-05 4.55221e-05 1.0131e-07
-9.13719e-07 1.0131e-07 -5.87908e-05
0.00178338 -7.43988e-05 -2.39369e-06
-7.43988e-05 0.000109522 -1.15566e-07
-2.39369e-06 -1.15566e-07 1.92547e-05
0.00155955 -0.000103266 -9.23675e-07
-0.000103266 -6.18918e-06 2.92942e-07
-9.23675e-07 2.92942e-07 -9.26265e-05
0.00188269 -0.000158414 -4.54834e-07
-0.000158414 0.000158873 1.58372e-07
-4.54834e-07 1.58372e-07 6.57497e-05
0.00100637 -0.000142481 -1.72347e-06
-0.000142481 0.000165733 6.29531e-07
-1.72347e-06 6.29531e-07 3.60695e-05
0.00178 -0.000212485 8.12289e-07
-0.000212485 0.000160877 1.5123e-06
8.12289e-07 1.5123e-06 3.67487e-05
0.000745307 -0.000149367 -6.12889e-08
-0.000149367 -2.74493e-05 -2.71083e-06
-6.12889e-08 -2.71083e-06 -0.000214644
0.00192256 -0.00025066 -5.35477e-08
-0.00025066 0.000418425 2.0828e-06
-5.35477e-08 2.0828e-06 0.000226072
0.000478108 2.73552e-05 4.48677e-07
2.73552e-05 -0.000135814 -2.63937e-06
4.48677e-07 -2.63937e-06 -0.000178925
0.000878542 -5.36587e-06 1.23671e-06
-5.36587e-06 0.00010444 -9.22553e-07
1.23671e-06 -9.22553e-07 3.41708e-05
0.00100265 -5.40683e-05 2.99206e-08
-5.40683e-05 0.000181399 8.3657e-07
2.99206e-08 8.3657e-07 9.18738e-05
0.000880382 -1.96476e-05 3.06204e-07
-1.96476e-05 0.000110128 -1.51963e-07
3.06204e-07 -1.51963e-07 8.46239e-06
0.000920818 -0.000135833 -9.11344e-07
-0.000135833 0.000113409 1.66161e-06
-9.11344e-07 1.66161e-06 -8.47884e-06
0.000966838 -0.000138059 -3.42199e-06
-0.000138059 0.000137473 3.23766e-06
-3.42199e-06 3.23766e-06 1.51347e-05
0.000733247 -3.64943e-05 -1.85367e-06
-3.64943e-05 8.60336e-06 -1.41216e-06
-1.85367e-06 -1.41216e-06 -2.83272e-05
0.00074229 -5.53367e-05 -1.52949e-07
-5.53367e-05 2.45513e-05 -6.74754e-07
-1.52949e-07 -6.74754e-07 -3.75154e-05
0.00164807 0.000133759 3.92717e-08
0.000133759 0.000125774 3.75835e-07
3.92717e-08 3.75835e-07 -6.24075e-06
0.000807368 -3.32276e-05 6.0472e-07
-3.32276e-05 7.374e-05 -4.3759e-07
6.0472e-07 -4.3759e-07 -1.29451e-05
0.000910215 0.000126787 6.07243e-07
0.000126787 0.000138843 -2.37753e-07
6.07243e-07 -2.37753e-07 1.13406e-05
0.000701384 4.185e-05 1.14717e-06
4.185e-05 2.47281e-05 -1.51641e-07
1.14717e-06 -1.51641e-07 -9.0463e-05
0.00158975 0.00019434 -1.20277e-06
0.00019434 0.000180144 -1.31188e-06
-1.20277e-06 -1.31188e-06 2.72075e-05
0.00160702 0.000185501 2.15571e-06
0.000185501 9.46741e-05 1.34165e-06
2.15571e-06 1.34165e-06 -3.68464e-05
0.00062783 0.000127626 6.78208e-07
0.000127626 -3.46505e-05 1.21082e-06
6.78208e-07 1.21082e-06 -0.000204315
0.00156952 0.000212885 -3.57146e-07
0.000212885 0.000298074 -7.67279e-07
-3.57146e-07 -7.67279e-07 0.000126346
0.000769403 -1.81237e-05 -5.32283e-07
-1.81237e-05 3.32047e-05 1.17698e-07
-5.32283e-07 1.17698e-07 -2.21681e-05
0.000729476 -1.61935e-05 -1.23958e-08
-1.61935e-05 2.54122e-05 8.59853e-07
-1.23958e-08 8.59853e-07 -5.20947e-05
0.00107837 0.000145536 -6.51929e-07
0.000145536 0.000231472 -1.8074e-06
-6.51929e-07 -1.8074e-06 8.6174e-05
0.000716298 -1.28029e-05 -2.24412e-07
-1.28029e-05 2.85935e-05 9.16625e-08
-2.24412e-07 9.16625e-08 -7.40369e-05
0.000858309 9.2301e-05 -1.04617e-06
9.2301e-05 0.000108066 -9.38074e-07
-1.04617e-06 -9.38074e-07 -1.45612e-05
0.00183483 0.000146528 -2.09523e-06
0.000146528 0.000164741 -8.79266e-07
-2.09523e-06 -8.79266e-07 6.30607e-05
0.00187709 0.000227749 8.33489e-07
0.000227749 0.000306813 6.11111e-07
8.33489e-07 6.11111e-07 0.000149987
0.00153973 0.000191219 6.6488e-07
0.000191219 3.29276e-05 1.69295e-06
6.6488e-07 1.69295e-06 -9.07119e-05
0.00136631 0.000181178 1.8234e-06
0.000181178 0.000342508 2.91894e-06
1.8234e-06 2.91894e-06 0.000145091
0.00089273 0.000185683 -1.78629e-06
0.000185683 -0.000102145 -7.03314e-07
-1.78629e-06 -7.03314e-07 -0.000274219
0.000654701 -3.75071e-05 -2.64404e-07
-3.75071e-05 -2.05919e-05 7.39003e-07
-2.64404e-07 7.39003e-07 -8.8645e-05
0.000494677 2.86578e-05 -6.10097e-07
2.86578e-05 -8.65437e-05 1.69316e-07
-6.10097e-07 1.69316e-07 -0.000185664
0.0011002 0.000147902 -1.91483e-07
0.000147902 0.000237726 2.48606e-07
-1.91483e-07 2.48606e-07 7.10842e-05
0.000150076 3.73632e-05 4.36859e-07
3.73632e-05 -0.000274455 -4.87177e-08
4.36859e-07 -4.87177e-08 -0.00039885
0.00191381 0.000143691 -2.26159e-06
0.000143691 0.000116795 -4.93324e-07
-2.26159e-06 -4.93324e-07 3.99402e-05
0.00192173 0.000182447 7.76932e-07
0.000182447 0.000167282 -4.84336e-07
7.76932e-07 -4.84336e-07 7.15431e-05
0.00168102 0.000240825 -1.32124e-06
0.000240825 0.000170885 -1.52472e-06
-1.32124e-06 -1.52472e-06 1.16218e-05
4.19559e-06 0.000106621 -7.17803e-07
0.000106621 -0.000456209 1.53422e-06
-7.17803e-07 1.53422e-06 -0.000667914
0.000773312 5.16601e-06 -8.69849e-07
5.16601e-06 3.74378e-05 -1.42809e-09
-8.69849e-07 -1.42809e-09 -1.87926e-05
0.000765617 -1.19817e-05 -3.05127e-07
-1.19817e-05 4.05573e-05 4.18214e-07
-3.05127e-07 4.18214e-07 -2.58387e-05
0.000859314 -3.53119e-05 -3.00352e-07
-3.53119e-05 9.80779e-05 -1.18347e-07
-3.00352e-07 -1.18347e-07 2.61116e-05
0.000769219 -3.21464e-05 -1.03785e-06
-3.21464e-05 2.77573e-05 -5.83375e-07
-1.03785e-06 -5.83375e-07 -2.46174e-05
0.000664373 -4.01934e-05 -1.70177e-07
-4.01934e-05 -1.81869e-05 -1.14249e-07
-1.70177e-07 -1.14249e-07 -8.23769e-05
0.000790123 -9.29843e-06 4.15387e-08
-9.29843e-06 3.81946e-05 2.98603e-08
4.15387e-08 2.98603e-08 -1.45871e-05
0.00080477 1.99777e-05 -3.02928e-07
1.99777e-05 7.15035e-05 -2.78278e-07
-3.02928e-07 -2.78278e-07 -3.63127e-06
0.000744854 -1.01237e-05 3.48116e-07
-1.01237e-05 3.07284e-05 2.30589e-07
3.48116e-07 2.30589e-07 -3.71057e-05
0.000843836 -9.93474e-06 2.10625e-07
-9.93474e-06 8.80432e-05 -4.39811e-07
2.10625e-07 -4.39811e-07 1.26991e-05
0.000806403 -4.01885e-05 1.13286e-07
-4.01885e-05 6.58288e-05 -2.46671e-07
1.13286e-07 -2.46671e-07 -7.4468e-06
0.000700484 1.02757e-05 5.06869e-07
1.02757e-05 2.48366e-06 8.45384e-08
5.06869e-07 8.45384e-08 -6.50598e-05
0.000791457 1.90856e-05 6.22396e-07
1.90856e-05 3.94056e-05 4.90652e-07
6.22396e-07 4.90652e-07 -1.42524e-05
0.000742419 6.08695e-06 6.16825e-07
6.08695e-06 8.6828e-07 1.47281e-06
6.16825e-07 1.47281e-06 -3.46275e-05
0.000751881 -6.22016e-06 -1.62818e-07
-6.22016e-06 4.45508e-06 4.21079e-09
-1.62818e-07 4.21079e-09 -3.0047e-05
0.001277 -1.609e-05 8.35563e-07
-1.609e-05 0.000289403 2.03339e-06
8.35563e-07 2.03339e-06 0.000287484
0.000754386 -1.63245e-05 -6.54872e-07
-1.63245e-05 5.98817e-06 -1.67385e-06
-6.54872e-07 -1.67385e-06 -2.76758e-05
0.00129298 -2.24115e-05 -3.15e-06
-2.24115e-05 0.000301165 -1.30946e-06
-3.15e-06 -1.30946e-06 0.000299219
0.000951287 -1.90516e-05 1.3943e-05
-1.90516e-05 0.000114006 6.85792e-06
1.3943e-05 6.85792e-06 0.000127313
0.00130728 -2.919e-05 -6.70476e-06
-2.919e-05 0.000313158 -4.64138e-06
-6.70476e-06 -4.64138e-06 0.000310715
0.000891772 -2.57143e-05 5.36126e-06
-2.57143e-05 8.51325e-05 2.55996e-06
5.36126e-06 2.55996e-06 9.78162e-05
0.000824358 -3.13923e-05 -2.0898e-06
-3.13923e-05 5.39847e-05 -1.6976e-06
-2.0898e-06 -1.6976e-06 6.52566e-05
0.000668254 2.99869e-05 8.09526e-07
2.99869e-05 -3.80392e-05 -3.68271e-06
8.09526e-07 -3.68271e-06 -4.8702e-05
0.000668573 3.55662e-05 -1.71863e-07
3.55662e-05 -3.12853e-05 3.68093e-08
-1.71863e-07 3.68093e-08 -4.51692e-05
0.00227413 5.64281e-05 2.45232e-05
5.64281e-05 0.000873278 -3.91367e-06
2.45232e-05 -3.91367e-06 0.000886967
0.000670556 4.17517e-05 -1.55376e-06
4.17517e-05 -2.25469e-05 4.08587e-06
-1.55376e-06 4.08587e-06 -4.00962e-05
0.00239711 6.64689e-05 -1.98822e-06
6.64689e-05 0.000950111 -1.38195e-07
-1.98822e-06 -1.38195e-07 0.000961019
0.00254244 7.55213e-05 -3.9534e-05
7.55213e-05 0.00103857 3.36054e-06
-3.9534e-05 3.36054e-06 0.00104699
0.00158961 8.99939e-05 1.67655e-06
8.99939e-05 8.12141e-05 1.9816e-06
1.67655e-06 1.9816e-06 -3.46576e-05
0.00165754 6.14342e-05 7.51734e-07
6.14342e-05 7.75942e-05 3.79645e-08
7.51734e-07 3.79645e-08 -2.9783e-05
0.00167639 9.88894e-05 4.48619e-06
9.88894e-05 6.57749e-05 4.96587e-07
4.48619e-06 4.96587e-07 -2.79249e-05
0.00175311 5.43402e-05 2.64562e-06
5.43402e-05 8.84314e-05 -5.26479e-07
2.64562e-06 -5.26479e-07 -7.77143e-06
0.00174592 2.45985e-05 1.57277e-06
2.45985e-05 0.000101622 -1.83694e-07
1.57277e-06 -1.83694e-07 -9.41472e-06
0.00161449 1.17233e-06 -1.07255e-06
1.17233e-06 8.48557e-05 -8.91965e-08
-1.07255e-06 -8.91965e-08 -3.4531e-05
0.00175609 3.43862e-06 -1.22122e-07
3.43862e-06 0.00010791 -1.02427e-08
-1.22122e-07 -1.02427e-08 -2.71584e-06
0.00172627 3.67864e-05 5.73361e-07
3.67864e-05 7.48219e-05 -1.82303e-07
5.73361e-07 -1.82303e-07 -2.4867e-05
0.00175123 7.19952e-05 7.45686e-07
7.19952e-05 8.46253e-05 -1.50862e-07
7.45686e-07 -1.50862e-07 -6.93484e-06
0.00188438 0.000112751 5.03233e-07
0.000112751 0.000169157 2.63524e-07
5.03233e-07 2.63524e-07 7.68394e-05
0.00175777 3.40011e-06 -1.31297e-06
3.40011e-06 8.7279e-05 3.37586e-07
-1.31297e-06 3.37586e-07 -1.50802e-05
0.00191141 5.45445e-05 -2.44411e-07
5.45445e-05 0.000149002 3.37655e-07
-2.44411e-07 3.37655e-07 6.4457e-05
0.00175386 0.000108439 -4.61833e-07
0.000108439 5.4238e-05 -8.80948e-08
-4.61833e-07 -8.80948e-08 -2.77387e-05
0.00177494 -2.41206e-05 5.17238e-07
-2.41206e-05 0.000126427 -1.88708e-07
5.17238e-07 -1.88708e-07 1.63102e-05
0.00176409 -5.20049e-05 7.16576e-07
-5.20049e-05 0.000133495 -3.2299e-07
7.16576e-07 -3.2299e-07 2.56247e-05
0.00170867 -9.19632e-05 1.4591e-06
-9.19632e-05 0.000100581 -6.47782e-08
1.4591e-06 -6.47782e-08 3.91104e-06
0.00112806 -0.000147051 9.48965e-08
-0.000147051 0.000229641 7.01555e-07
9.48965e-08 7.01555e-07 0.000106685
0.00133399 -0.000171924 1.19785e-07
-0.000171924 0.000321916 1.5285e-06
1.19785e-07 1.5285e-06 0.000170645
0.00125333 -0.000195543 -2.03395e-06
-0.000195543 0.00013335 2.42937e-06
-2.03395e-06 2.42937e-06 -5.89828e-05
0.00171931 -0.000126131 1.35952e-06
-0.000126131 0.000116593 -6.21317e-07
1.35952e-06 -6.21317e-07 1.36111e-05
0.00147154 -0.000176205 -7.06294e-09
-0.000176205 -1.344e-05 -1.68122e-06
-7.06294e-09 -1.68122e-06 -0.000127042
0.00165672 -0.000208711 -1.30126e-07
-0.000208711 0.00015567 -4.76963e-06
-1.30126e-07 -4.76963e-06 1.33037e-05
0.00105778 -0.000141804 8.16741e-07
-0.000141804 0.00019196 -1.26549e-06
8.16741e-07 -1.26549e-06 7.35356e-05
0.000843485 -0.000127267 -2.26248e-06
-0.000127267 7.69205e-05 -2.21171e-06
-2.26248e-06 -2.21171e-06 -3.78902e-05
0.00103527 -0.000106741 6.76794e-07
-0.000106741 0.000199312 1.01321e-07
6.76794e-07 1.01321e-07 8.00712e-05
0.000469391 2.28532e-05 -9.09078e-07
2.28532e-05 -0.000138362 1.25014e-06
-9.09078e-07 1.25014e-06 -0.000184439
0.000971941 -2.72943e-05 1.50567e-07
-2.72943e-05 0.000159375 -2.46257e-07
1.50567e-07 -2.46257e-07 6.81981e-05
0.000624491 2.81331e-05 3.30635e-07
2.81331e-05 -3.96281e-05 1.20897e-06
3.30635e-07 1.20897e-06 -0.00011277
0.00176766 -3.17488e-05 -1.76304e-07
-3.17488e-05 9.49379e-05 7.7525e-08
-1.76304e-07 7.7525e-08 -9.20722e-06
0.00182349 -7.62411e-05 5.90595e-07
-7.62411e-05 0.00013285 6.42648e-10
5.90595e-07 6.42648e-10 4.31885e-05
0.00161802 -0.000103666 -3.64818e-07
-0.000103666 2.67095e-05 7.58923e-08
-3.64818e-07 7.58923e-08 -5.97959e-05
0.00100387 -0.000141675 1.28702e-07
-0.000141675 0.000161579 1.28958e-06
1.28702e-07 1.28958e-06 3.1791e-05
0.000908083 -0.000157857 -1.89114e-07
-0.000157857 7.03268e-05 4.0949e-08
-1.89114e-07 4.0949e-08 -0.00011255
0.00184055 -0.000243022 -2.55526e-06
-0.000243022 0.000370292 8.21705e-07
-2.55526e-06 8.21705e-07 0.000181359
0.00189668 -0.000160163 5.04234e-07
-0.000160163 0.000164634 -4.89888e-07
5.04234e-07 -4.89888e-07 7.04331e-05
0.00175072 -0.000213 1.42202e-06
-0.000213 0.000142578 -5.25085e-07
1.42202e-06 -5.25085e-07 1.79814e-05
0.000607142 2.08803e-05 3.19926e-07
2.08803e-05 -6.50278e-05 -6.6415e-07
3.19926e-07 -6.6415e-07 -0.000106456
0.000871228 3.44627e-06 -2.97479e-07
3.44627e-06 9.91862e-05 2.15649e-07
-2.97479e-07 2.15649e-07 2.98184e-05
0.000599236 -0.000113797 -1.43156e-06
-0.000113797 -6.40392e-05 1.21918e-06
-1.43156e-06 1.21918e-06 -0.000181961
0.00112609 -0.000142121 8.88047e-07
-0.000142121 0.000226139 7.63802e-07
8.88047e-07 7.63802e-07 0.000107038
0.000868702 -3.2149e-05 2.10863e-07
-3.2149e-05 0.000105092 -3.79303e-07
2.10863e-07 -3.79303e-07 1.18464e-06
0.000917975 -4.24947e-05 -6.84005e-07
-4.24947e-05 0.000134966 9.82042e-07
-6.84005e-07 9.82042e-07 4.531e-05
0.00181596 -5.02376e-05 -1.50724e-06
-5.02376e-05 0.000100712 -2.67457e-07
-1.50724e-06 -2.67457e-07 1.14569e-05
0.00172786 -0.000101346 -3.91605e-06
-0.000101346 5.22619e-05 -2.50919e-07
-3.91605e-06 -2.50919e-07 -2.14487e-05
0.00168896 -0.000119611 4.58399e-07
-0.000119611 2.02023e-05 5.82043e-08
4.58399e-07 5.82043e-08 -5.61755e-05
0.00238667 -0.000234848 3.50107e-06
-0.000234848 0.000404795 -6.01734e-07
3.50107e-06 -6.01734e-07 0.000303178
0.000318522 -0.000102918 -2.21507e-06
-0.000102918 -0.000206604 -5.60318e-07
-2.21507e-06 -5.60318e-07 -0.000353312
0.00177839 -0.000250466 -2.7786e-06
-0.000250466 0.000233825 3.93132e-06
-2.7786e-06 3.93132e-06 6.5413e-05
0.00206532 -0.000249078 1.82572e-06
-0.000249078 0.000637133 -3.0492e-06
1.82572e-06 -3.0492e-06 0.000426107
0.000750292 1.5889e-05 7.97619e-07
1.5889e-05 1.1203e-05 -1.86131e-06
7.97619e-07 -1.86131e-06 -2.60399e-05
0.000760658 -6.75268e-05 1.31641e-06
-6.75268e-05 4.42335e-05 -1.35564e-06
1.31641e-06 -1.35564e-06 -2.03073e-05
0.000614171 1.04021e-05 5.49488e-07
1.04021e-05 -4.01249e-05 -1.75778e-06
5.49488e-07 -1.75778e-06 -0.000109761
0.000844374 -3.65696e-05 1.10201e-06
-3.65696e-05 9.83572e-05 1.64739e-07
1.10201e-06 1.64739e-07 1.03535e-05
0.000836624 1.48731e-06 4.54658e-07
1.48731e-06 8.77636e-05 -1.8014e-07
4.54658e-07 -1.8014e-07 -5.55598e-06
0.000652465 -0.000112276 6.02493e-07
-0.000112276 4.59659e-06 2.61886e-06
6.02493e-07 2.61886e-06 -0.000114253
0.000657551 -0.000119194 -3.85039e-06
-0.000119194 -7.13299e-05 1.34855e-06
-3.85039e-06 1.34855e-06 -0.00017681
0.00186204 -0.00019206 -5.22248e-06
-0.00019206 0.00065351 3.73427e-06
-5.22248e-06 3.73427e-06 0.000522935
0.000756763 -4.76237e-05 -5.3596e-07
-4.76237e-05 2.64205e-05 -4.81876e-07
-5.3596e-07 -4.81876e-07 -2.88714e-05
0.000826355 -5.52459e-06 -1.36023e-07
-5.52459e-06 7.90408e-05 3.99602e-07
-1.36023e-07 3.99602e-07 1.1167e-06
0.00206353 0.000152039 1.07836e-06
0.000152039 0.000291231 5.17256e-07
1.07836e-06 5.17256e-07 0.000191464
0.000831004 7.44195e-06 -7.8658e-08
7.44195e-06 9.54257e-05 -4.27678e-07
-7.8658e-08 -4.27678e-07 -1.02556e-05
0.00111708 0.000147297 5.20926e-07
0.000147297 0.000256682 -1.0039e-06
5.20926e-07 -1.0039e-06 0.00011131
0.000688112 7.24421e-05 -3.02305e-07
7.24421e-05 1.67408e-05 1.64987e-06
-3.02305e-07 1.64987e-06 -0.00010055
0.00172566 0.000217784 9.80754e-07
0.000217784 0.000221986 -1.66784e-07
9.80754e-07 -1.66784e-07 6.5115e-05
0.00166429 0.000200059 4.79797e-06
0.000200059 9.99392e-05 4.11302e-06
4.79797e-06 4.11302e-06 -2.28916e-05
0.000843332 0.000149437 1.45452e-06
0.000149437 6.75234e-05 5.15984e-07
1.45452e-06 5.15984e-07 -0.000132077
0.00121865 0.000207302 -2.80468e-06
0.000207302 7.07976e-05 -6.95393e-07
-2.80468e-06 -6.95393e-07 -0.000102917
0.000665302 -1.55072e-05 9.45403e-08
-1.55072e-05 -1.13957e-05 5.95315e-07
9.45403e-08 5.95315e-07 -8.28213e-05
0.000651286 4.39607e-05 -1.31742e-07
4.39607e-05 -6.98044e-07 -1.29777e-06
-1.31742e-07 -1.29777e-06 -0.000100862
0.00102233 0.00014335 7.05102e-07
0.00014335 0.000202823 -1.42382e-06
7.05102e-07 -1.42382e-06 3.33617e-05
0.000705072 7.43911e-05 -5.98098e-07
7.43911e-05 2.72203e-05 -1.11624e-06
-5.98098e-07 -1.11624e-06 -9.97171e-05
0.00198131 0.000141592 1.57628e-07
0.000141592 0.000159454 -4.94285e-07
1.57628e-07 -4.94285e-07 8.41263e-05
0.00178928 0.000182521 1.79319e-06
0.000182521 0.000105276 3.8389e-07
1.79319e-06 3.8389e-07 5.41623e-06
0.001754 0.000240292 -1.8209e-06
0.000240292 0.000208567 -6.30453e-07
-1.8209e-06 -6.30453e-07 5.09002e-05
0.000741087 0.000158847 6.61694e-07
0.000158847 -7.86112e-05 2.783e-07
6.61694e-07 2.783e-07 -0.000288536
0.000825023 -2.20973e-05 -1.45672e-07
-2.20973e-05 8.0418e-05 -1.7837e-08
-1.45672e-07 -1.7837e-08 3.77584e-06
0.00172803 0.000106045 -1.2668e-06
0.000106045 -1.03686e-05 3.83646e-07
-1.2668e-06 3.83646e-07 -6.75663e-05
0.00123621 0.000136246 -9.02473e-07
0.000136246 0.000340608 2.13457e-06
-9.02473e-07 2.13457e-06 0.000212119
0.00103483 0.00014863 9.99211e-08
0.00014863 0.000193654 1.85441e-06
9.99211e-08 1.85441e-06 1.78596e-05
0.00228621 0.000180584 -4.25725e-06
0.000180584 0.000278019 1.82061e-07
-4.25725e-06 1.82061e-07 0.000205106
0.00153989 0.000245347 -1.77519e-06
0.000245347 -2.79342e-05 -2.71213e-06
-1.77519e-06 -2.71213e-06 -0.000164982
0.00200869 0.000257983 -1.80305e-06
0.000257983 0.000496866 2.08608e-06
-1.80305e-06 2.08608e-06 0.000284174
0.000840253 -4.20541e-06 -1.53399e-06
-4.20541e-06 8.14811e-05 3.15326e-07
-1.53399e-06 3.15326e-07 1.55429e-05
0.000832956 -1.78758e-05 -7.3834e-08
-1.78758e-05 8.26388e-05 1.20524e-08
-7.3834e-08 1.20524e-08 1.12114e-05
0.000882305 -2.73195e-05 -4.48452e-07
-2.73195e-05 0.000117084 2.00691e-07
-4.48452e-07 2.00691e-07 3.85473e-05
0.000768732 -2.78875e-05 -4.73708e-07
-2.78875e-05 2.76265e-05 -6.32476e-07
-4.73708e-07 -6.32476e-07 -2.59875e-05
0.000775215 2.03767e-06 4.91708e-08
2.03767e-06 4.81912e-05 5.05109e-07
4.91708e-08 5.05109e-07 -1.99428e-05
0.000690987 -1.03891e-05 -4.98935e-07
-1.03891e-05 1.17152e-05 5.97396e-09
-4.98935e-07 5.97396e-09 -6.50492e-05
0.000778972 -1.64851e-05 -1.13053e-07
-1.64851e-05 3.58281e-05 1.82708e-08
-1.13053e-07 1.82708e-08 -2.02209e-05
0.000712684 -2.53312e-05 -5.22035e-07
-2.53312e-05 1.24603e-05 2.65345e-07
-5.22035e-07 2.65345e-07 -5.68706e-05
0.000789983 -4.515e-05 3.84711e-07
-4.515e-05 5.89496e-05 -3.65438e-07
3.84711e-07 -3.65438e-07 -1.69457e-05
0.000847348 8.11219e-06 2.24379e-07
8.11219e-06 9.38091e-05 4.41044e-07
2.24379e-07 4.41044e-07 1.72754e-05
0.000747048 -2.77418e-05 6.20747e-07
-2.77418e-05 3.09756e-05 -1.09512e-06
6.20747e-07 -1.09512e-06 -4.62915e-05
0.000790865 -6.33506e-05 2.03431e-07
-6.33506e-05 5.53595e-05 -2.6583e-07
2.03431e-07 -2.6583e-07 -2.23432e-05
0.000886434 1.21833e-05 6.31648e-07
1.21833e-05 0.000110292 -4.48215e-07
6.31648e-07 -4.48215e-07 3.45281e-05
0.000786404 1.54436e-05 1.50114e-06
1.54436e-05 5.21079e-05 -1.90304e-08
1.50114e-06 -1.90304e-08 -2.11283e-05
0.000787156 4.88737e-06 6.87182e-07
4.88737e-06 3.73102e-05 5.25766e-07
6.87182e-07 5.25766e-07 -1.75582e-05
0.000731344 1.05539e-05 4.54038e-07
1.05539e-05 -3.11549e-06 1.43309e-06
4.54038e-07 1.43309e-06 -3.9419e-05
0.000744456 5.9146e-07 -1.9586e-07
5.9146e-07 2.17441e-06 9.38313e-09
-1.9586e-07 9.38313e-09 -3.33341e-05
0.00128402 -7.79592e-06 5.96999e-07
-7.79592e-06 0.000291945 1.98825e-06
5.96999e-07 1.98825e-06 0.000289681
0.000757085 -1.18308e-05 -3.35863e-07
-1.18308e-05 7.62887e-06 -1.60054e-06
-3.35863e-07 -1.60054e-06 -2.69703e-05
0.00130692 -1.43152e-05 -2.3454e-06
-1.43152e-05 0.000306467 -1.3653e-06
-2.3454e-06 -1.3653e-06 0.000304356
0.000959297 -1.30603e-05 1.05344e-05
-1.30603e-05 0.00011555 7.10029e-06
1.05344e-05 7.10029e-06 0.0001289
0.00132527 -2.10418e-05 -5.04916e-06
-2.10418e-05 0.000319235 -4.69476e-06
-5.04916e-06 -4.69476e-06 0.000317087
0.000904681 -1.95757e-05 3.84021e-06
-1.95757e-05 8.74635e-05 2.65453e-06
3.84021e-06 2.65453e-06 0.000100837
0.000838564 -2.54019e-05 -1.51342e-06
-2.54019e-05 5.53214e-05 -1.71262e-06
-1.51342e-06 -1.71262e-06 6.81264e-05
0.000747757 7.84803e-06 4.75234e-07
7.84803e-06 8.30169e-06 -1.81553e-06
4.75234e-07 -1.81553e-06 -2.6408e-05
0.000679513 2.40495e-05 7.10679e-07
2.40495e-05 -3.74417e-05 -3.59142e-06
7.10679e-07 -3.59142e-06 -4.54264e-05
0.000680463 3.05166e-05 -1.42197e-07
3.05166e-05 -3.13784e-05 3.37227e-08
-1.42197e-07 3.37227e-08 -4.21462e-05
0.00221084 4.69297e-05 2.01749e-05
4.69297e-05 0.000830966 -4.07861e-06
2.01749e-05 -4.07861e-06 0.000846922
0.000681704 3.63902e-05 -1.31756e-06
3.63902e-05 -2.40644e-05 3.88392e-06
-1.31756e-06 3.88392e-06 -3.80941e-05
0.00230995 5.72015e-05 -2.12282e-06
5.72015e-05 0.000894114 -1.25082e-07
-2.12282e-06 -1.25082e-07 0.000907459
0.00244055 6.69043e-05 -3.32082e-05
6.69043e-05 0.00097502 3.65731e-06
-3.32082e-05 3.65731e-06 0.000985683
0.00185594 0.000107716 1.81057e-06
0.000107716 0.000146068 1.49777e-06
1.81057e-06 1.49777e-06 5.44524e-05
0.00171066 7.32354e-05 1.65916e-06
7.32354e-05 6.36637e-05 -1.57627e-07
1.65916e-06 -1.57627e-07 -2.81902e-05
0.00170077 3.62083e-05 1.64196e-06
3.62083e-05 6.35923e-05 -5.70988e-07
1.64196e-06 -5.70988e-07 -3.65197e-05
0.00174524 4.54065e-06 7.73521e-07
4.54065e-06 0.000103477 -1.83116e-07
7.73521e-07 -1.83116e-07 -7.124e-06
0.00177761 3.75163e-06 -5.16001e-07
3.75163e-06 9.8655e-05 1.17673e-07
-5.16001e-07 1.17673e-07 -2.62296e-06
0.00187233 5.23511e-05 4.93253e-07
5.23511e-05 0.000124654 -3.26152e-07
4.93253e-07 -3.26152e-07 3.93901e-05
0.00172847 0.000109011 -4.39777e-07
0.000109011 3.54443e-05 -1.4269e-07
-4.39777e-07 -1.4269e-07 -4.64402e-05
0.00179652 5.03948e-06 -1.16615e-06
5.03948e-06 8.46344e-05 8.19702e-07
-1.16615e-06 8.19702e-07 -2.43375e-06
0.00200887 6.88695e-05 -1.0176e-06
6.88695e-05 0.000173173 2.21733e-07
-1.0176e-06 2.21733e-07 0.0001037
0.00166424 5.04877e-05 -7.91497e-07
5.04877e-05 -3.65094e-05 -9.50775e-07
-7.91497e-07 -9.50775e-07 -7.76122e-05
0.00186654 -3.01528e-05 4.21316e-07
-3.01528e-05 0.000145925 -9.08958e-08
4.21316e-07 -9.08958e-08 4.19626e-05
0.00186619 -7.91063e-05 3.64247e-06
-7.91063e-05 0.000157204 1.57459e-07
3.64247e-06 1.57459e-07 6.81216e-05
0.00167719 -0.000105422 -2.49202e-08
-0.000105422 5.90101e-05 -1.75127e-07
-2.49202e-08 -1.75127e-07 -2.76886e-05
0.00107966 -0.000146183 -4.46529e-08
-0.000146183 0.000201425 2.47049e-06
-4.46529e-08 2.47049e-06 7.06767e-05
0.000962727 -0.000159123 6.50303e-07
-0.000159123 0.000108291 4.2508e-06
6.50303e-07 4.2508e-06 -7.11296e-05
0.00170568 -0.00023165 -2.02386e-06
-0.00023165 0.000294708 1.22897e-07
-2.02386e-06 1.22897e-07 0.000109784
0.00187856 -0.000159661 3.1413e-06
-0.000159661 0.000153208 -9.04813e-07
3.1413e-06 -9.04813e-07 5.81103e-05
0.00165472 -0.000208603 3.27944e-07
-0.000208603 9.09983e-05 -2.19396e-06
3.27944e-07 -2.19396e-06 -3.34473e-05
0.000324675 -9.49047e-05 -1.82101e-06
-9.49047e-05 -0.000215459 1.89674e-06
-1.82101e-06 1.89674e-06 -0.000329857
0.00130748 -0.000150663 7.44821e-06
-0.000150663 0.000327567 -3.85984e-06
7.44821e-06 -3.85984e-06 0.000210769
0.000782929 -3.83485e-07 2.15103e-08
-3.83485e-07 5.03613e-05 -7.16731e-07
2.15103e-08 -7.16731e-07 -4.71354e-05
0.000735217 1.83115e-05 -7.53142e-07
1.83115e-05 5.33872e-06 1.21785e-06
-7.53142e-07 1.21785e-06 -3.45936e-05
0.000871423 2.09077e-05 -6.8143e-07
2.09077e-05 9.88046e-05 1.24701e-06
-6.8143e-07 1.24701e-06 2.97081e-05
0.000831218 -1.78784e-05 -5.68379e-07
-1.78784e-05 8.76195e-05 1.00114e-06
-5.68379e-07 1.00114e-06 -2.19476e-06
0.00184312 -5.1147e-05 -2.31313e-08
-5.1147e-05 0.000117831 1.02631e-08
-2.31313e-08 1.02631e-08 3.03732e-05
0.000746589 1.27818e-05 2.92452e-07
1.27818e-05 9.11301e-06 3.03695e-08
2.92452e-07 3.03695e-08 -2.81555e-05
0.00068762 -1.74942e-05 -5.21933e-07
-1.74942e-05 -5.63603e-06 5.34968e-08
-5.21933e-07 5.34968e-08 -6.43623e-05
0.00179626 -0.000101562 -3.24458e-07
-0.000101562 9.35712e-05 -1.62694e-07
-3.24458e-07 -1.62694e-07 1.91872e-05
0.0015964 -0.000116472 -1.64586e-06
-0.000116472 -3.54703e-05 8.80213e-07
-1.64586e-06 8.80213e-07 -0.000113549
0.000613202 -0.000120848 -2.67425e-08
-0.000120848 -3.8205e-05 2.65253e-06
-2.67425e-08 2.65253e-06 -0.000182719
0.00159895 -0.000215799 -1.87602e-06
-0.000215799 0.000392863 8.35884e-07
-1.87602e-06 8.35884e-07 0.000176306
0.00147952 -0.000229628 6.85699e-07
-0.000229628 7.92682e-05 -9.59892e-07
6.85699e-07 -9.59892e-07 -8.39566e-05
0.00193697 -0.000221563 2.61706e-06
-0.000221563 0.000170317 -7.83848e-07
2.61706e-06 -7.83848e-07 6.82877e-05
0.000831921 -2.20312e-05 1.16922e-06
-2.20312e-05 7.92976e-05 -6.5399e-07
1.16922e-06 -6.5399e-07 1.18664e-05
0.000825036 -2.44019e-05 -3.17097e-07
-2.44019e-05 8.88657e-05 6.14765e-07
-3.17097e-07 6.14765e-07 -1.29015e-07
0.000933384 -0.000126443 -7.51882e-08
-0.000126443 7.5811e-05 -3.15469e-07
-7.51882e-08 -3.15469e-07 -3.43266e-05
0.00120519 -0.000151417 5.92891e-06
-0.000151417 0.000292341 -1.89654e-06
5.92891e-06 -1.89654e-06 0.000179459
0.00065979 -8.40196e-05 -9.09592e-07
-8.40196e-05 2.98503e-06 2.26776e-07
-9.09592e-07 2.26776e-07 -0.000111966
0.000851257 -3.7193e-06 2.64214e-07
-3.7193e-06 9.83648e-05 -4.57426e-07
2.64214e-07 -4.57426e-07 2.96898e-06
0.00193005 -6.26573e-05 -3.44157e-06
-6.26573e-05 0.000120277 -9.02222e-08
-3.44157e-06 -9.02222e-08 5.4559e-05
0.00194301 -9.2295e-05 1.86868e-06
-9.2295e-05 0.000137161 8.2321e-07
1.86868e-06 8.2321e-07 7.04783e-05
0.00175243 -0.000201097 -2.21918e-06
-0.000201097 -1.55533e-05 -1.84697e-06
-2.21918e-06 -1.84697e-06 -8.69638e-05
0.00146583 -0.000241617 1.33719e-06
-0.000241617 -4.75791e-05 3.80693e-07
1.33719e-06 3.80693e-07 -0.000164823
0.000868952 -0.000107027 -4.58419e-06
-0.000107027 7.65909e-05 -2.86903e-06
-4.58419e-06 -2.86903e-06 -7.08365e-05
0.00231991 -0.000286678 -3.0942e-06
-0.000286678 0.000687486 2.53873e-06
-3.0942e-06 2.53873e-06 0.000458696
0.000575019 4.54074e-05 -1.17937e-06
4.54074e-05 -6.43866e-05 -1.89716e-06
-1.17937e-06 -1.89716e-06 -0.000124087
0.000772407 -3.54234e-05 1.02488e-06
-3.54234e-05 4.12383e-05 -1.22387e-06
1.02488e-06 -1.22387e-06 -1.99128e-05
0.000970056 -4.51198e-05 1.0807e-06
-4.51198e-05 0.000169369 -3.73296e-07
1.0807e-06 -3.73296e-07 9.13071e-05
0.000607513 1.72472e-05 -3.02561e-07
1.72472e-05 -2.80321e-05 -3.80843e-07
-3.02561e-07 -3.80843e-07 -0.000118209
0.00103991 -2.74363e-05 2.67757e-07
-2.74363e-05 0.000205473 1.92041e-07
2.67757e-07 1.92041e-07 0.000113803
0.000509805 -2.9057e-05 5.2564e-07
-2.9057e-05 -7.87576e-05 4.74981e-07
5.2564e-07 4.74981e-07 -0.000187232
0.000848404 -8.27733e-05 5.60697e-06
-8.27733e-05 0.000147453 8.67445e-07
5.60697e-06 8.67445e-07 5.92621e-06
0.000718888 -0.000135501 -1.43148e-05
-0.000135501 -1.31605e-05 4.8409e-06
-1.43148e-05 4.8409e-06 -0.000110243
0.000654306 2.82501e-06 -1.00518e-07
2.82501e-06 -1.40598e-05 2.73912e-07
-1.00518e-07 2.73912e-07 -8.88238e-05
0.000815278 5.86897e-05 -1.84723e-06
5.86897e-05 8.88658e-05 -2.23523e-06
-1.84723e-06 -2.23523e-06 -1.22423e-05
0.00202835 0.000139704 -5.55596e-07
0.000139704 0.000189195 -3.25601e-07
-5.55596e-07 -3.25601e-07 0.000115396
0.00168795 0.000184145 1.81216e-06
0.000184145 5.82802e-05 1.68554e-06
1.81216e-06 1.68554e-06 -4.57273e-05
0.00126385 9.2943e-05 -2.63269e-06
9.2943e-05 0.000327288 -6.12302e-07
-2.63269e-06 -6.12302e-07 0.000200503
0.000948768 0.000138576 -3.2418e-07
0.000138576 0.000168828 -3.73349e-06
-3.2418e-07 -3.73349e-06 -2.29835e-06
0.00190887 0.000244108 1.82388e-06
0.000244108 0.000289943 3.12318e-07
1.82388e-06 3.12318e-07 0.00013318
0.00159864 0.000218292 -7.90148e-07
0.000218292 0.000365993 -1.15668e-06
-7.90148e-07 -1.15668e-06 0.00015625
0.000799938 7.03312e-06 6.71731e-07
7.03312e-06 7.19624e-05 -6.15008e-07
6.71731e-07 -6.15008e-07 -8.51808e-06
0.00180902 0.000102975 -5.00616e-07
0.000102975 3.19763e-05 6.40449e-08
-5.00616e-07 6.40449e-08 -2.44392e-05
0.000920447 9.16803e-05 2.06167e-07
9.16803e-05 0.000162985 1.51725e-06
2.06167e-07 1.51725e-06 4.18965e-05
0.00077872 0.000131404 4.70525e-07
0.000131404 5.4016e-05 -2.59535e-07
4.70525e-07 -2.59535e-07 -0.00012316
0.00201882 0.000172255 2.43039e-06
0.000172255 0.000133079 -2.04117e-07
2.43039e-06 -2.04117e-07 5.94971e-05
0.00173874 0.00025155 -2.74008e-07
0.00025155 7.40881e-05 -1.32493e-06
-2.74008e-07 -1.32493e-06 -6.0223e-05
0.00205751 0.000263958 9.86473e-07
0.000263958 0.000533804 1.24469e-06
9.86473e-07 1.24469e-06 0.000319858
0.00101928 3.10533e-05 -2.13651e-06
3.10533e-05 0.000205567 1.02341e-06
-2.13651e-06 1.02341e-06 0.000105073
0.00213026 0.000118101 -1.47483e-05
0.000118101 0.000199454 -1.65977e-06
-1.47483e-05 -1.65977e-06 0.000162773
0.00204764 0.000189039 -3.2514e-06
0.000189039 0.000756991 -2.22113e-07
-3.2514e-06 -2.22113e-07 0.000613613
0.00223036 0.000245857 -5.16075e-06
0.000245857 0.000781191 1.72922e-06
-5.16075e-06 1.72922e-06 0.000581994
0.00217688 0.000271883 -3.8861e-06
0.000271883 0.00021113 -3.42332e-06
-3.8861e-06 -3.42332e-06 0.000122012
0.00158405 0.000257718 -5.87013e-06
0.000257718 0.00017162 6.89046e-08
-5.87013e-06 6.89046e-08 -1.42331e-05
0.000222017 0.000121176 9.79087e-06
0.000121176 -0.000515622 -4.6533e-07
9.79087e-06 -4.6533e-07 -0.000679028
0.000801836 -2.74783e-06 4.36232e-08
-2.74783e-06 6.68026e-05 8.56037e-08
4.36232e-08 8.56037e-08 -5.45874e-06
0.000853577 -2.37462e-05 -2.43277e-07
-2.37462e-05 0.000102429 2.14535e-07
-2.43277e-07 2.14535e-07 2.33566e-05
0.00095359 -1.3024e-05 -5.13786e-08
-1.3024e-05 0.000149416 -1.21904e-06
-5.13786e-08 -1.21904e-06 6.5747e-05
0.00076483 -4.77423e-05 -2.82113e-07
-4.77423e-05 3.0763e-05 -6.88e-07
-2.82113e-07 -6.88e-07 -2.72362e-05
0.000735059 -4.98633e-05 -1.12505e-06
-4.98633e-05 2.41257e-05 5.38121e-07
-1.12505e-06 5.38121e-07 -4.44296e-05
0.000874217 6.42982e-05 -7.97128e-07
6.42982e-05 0.000111874 7.63528e-07
-7.97128e-07 7.63528e-07 3.36038e-05
0.000741847 -4.73164e-05 -8.98927e-08
-4.73164e-05 3.40255e-05 2.42796e-07
-8.98927e-08 2.42796e-07 -4.32752e-05
0.00076831 -2.6026e-05 -7.48874e-08
-2.6026e-05 3.32783e-05 1.5494e-08
-7.48874e-08 1.5494e-08 -2.58292e-05
0.000746582 9.71811e-06 6.46707e-10
9.71811e-06 2.27954e-05 -1.22336e-07
6.46707e-10 -1.22336e-07 -4.53242e-05
0.000789206 -3.22421e-05 3.14204e-07
-3.22421e-05 5.40233e-05 -4.65458e-07
3.14204e-07 -4.65458e-07 -2.4155e-05
0.000874085 -1.72381e-05 -3.47915e-09
-1.72381e-05 9.97608e-05 -7.80644e-09
-3.47915e-09 -7.80644e-09 2.65539e-05
0.000870741 -4.31175e-05 2.61248e-07
-4.31175e-05 9.80235e-05 -5.2597e-09
2.61248e-07 -5.2597e-09 2.14794e-05
0.000838129 -4.03433e-05 4.79203e-08
-4.03433e-05 7.33362e-05 -1.04296e-06
4.79203e-08 -1.04296e-06 -4.03871e-06
0.000820575 -7.36374e-06 3.83951e-07
-7.36374e-06 6.11505e-05 -1.40528e-06
3.83951e-07 -1.40528e-06 -1.2157e-05
0.000853329 1.60801e-05 5.63362e-07
1.60801e-05 8.02411e-05 -4.81252e-07
5.63362e-07 -4.81252e-07 9.4194e-06
0.000801289 2.61294e-05 2.53661e-07
2.61294e-05 5.74977e-05 3.44368e-08
2.53661e-07 3.44368e-08 -1.90805e-05
0.00067104 -1.13868e-05 3.97295e-08
-1.13868e-05 -2.84301e-05 9.57132e-07
3.97295e-08 9.57132e-07 -8.55016e-05
0.000908116 -6.8902e-06 2.67857e-07
-6.8902e-06 0.000129823 -6.76469e-07
2.67857e-07 -6.76469e-07 5.16857e-05
0.000646796 4.77447e-06 -6.37659e-07
4.77447e-06 -3.74397e-05 9.16133e-07
-6.37659e-07 9.16133e-07 -9.65463e-05
0.000736046 1.05852e-05 4.45403e-08
1.05852e-05 1.02374e-07 1.38395e-06
4.45403e-08 1.38395e-06 -3.64878e-05
0.000735088 3.1691e-06 -4.72947e-08
3.1691e-06 -1.10602e-06 7.32576e-09
-4.72947e-08 7.32576e-09 -3.73319e-05
0.000688961 9.8985e-07 1.78565e-07
9.8985e-07 -4.14102e-05 3.32707e-06
1.78565e-07 3.32707e-06 -4.75643e-05
0.000750348 -5.10693e-06 -9.06126e-08
-5.10693e-06 5.59886e-06 -1.49175e-06
-9.06126e-08 -1.49175e-06 -2.99174e-05
0.00100636 -5.74897e-06 -1.51695e-06
-5.74897e-06 0.000136699 -1.43441e-06
-1.51695e-06 -1.43441e-06 0.000132561
0.00217569 -9.36996e-06 6.5133e-06
-9.36996e-06 0.000795141 4.47485e-06
6.5133e-06 4.47485e-06 0.000815334
0.00134085 -1.31463e-05 -3.00578e-06
-1.31463e-05 0.000325743 -4.73681e-06
-3.00578e-06 -4.73681e-06 0.000323352
0.000914858 -1.32833e-05 2.05642e-06
-1.32833e-05 8.98901e-05 2.74664e-06
2.05642e-06 2.74664e-06 0.000103438
0.000853846 -1.89853e-05 -9.84454e-07
-1.89853e-05 5.86474e-05 -1.70562e-06
-9.84454e-07 -1.70562e-06 7.22817e-05
0.000740385 8.3466e-06 1.87115e-07
8.3466e-06 4.20374e-06 -1.77692e-06
1.87115e-07 -1.77692e-06 -2.87741e-05
0.000748603 7.16976e-06 1.18688e-08
7.16976e-06 8.58711e-06 1.40562e-08
1.18688e-08 1.40562e-08 -2.61577e-05
0.000692906 1.79348e-05 4.21061e-07
1.79348e-05 -3.43191e-05 -3.48422e-06
4.21061e-07 -3.48422e-06 -4.01984e-05
0.00100267 2.77612e-05 -4.90338e-07
2.77612e-05 0.000143533 3.12155e-08
-4.90338e-07 3.12155e-08 0.000137058
0.00215973 3.71049e-05 1.66425e-05
3.71049e-05 0.000796498 -4.20552e-06
1.66425e-05 -4.20552e-06 0.000814428
0.000690907 3.10911e-05 -9.33975e-07
3.10911e-05 -2.56382e-05 3.73046e-06
-9.33975e-07 3.73046e-06 -3.65193e-05
0.00223555 4.77341e-05 -2.17552e-06
4.77341e-05 0.000845635 -1.06925e-07
-2.17552e-06 -1.06925e-07 0.000861268
0.00234267 5.77398e-05 -2.74966e-05
5.77398e-05 0.000913203 3.89751e-06
-2.74966e-05 3.89751e-06 0.000926256
0.00170016 0.000109752 -1.09943e-06
0.000109752 1.55438e-05 -2.06685e-07
-1.09943e-06 -2.06685e-07 -6.62709e-05
0.00183072 5.08463e-05 1.44538e-06
5.08463e-05 9.89158e-05 -8.59795e-07
1.44538e-06 -8.59795e-07 1.29126e-05
0.00180303 9.02517e-07 1.72083e-07
9.02517e-07 0.000112927 -1.46791e-07
1.72083e-07 -1.46791e-07 1.2738e-05
0.00176211 6.95952e-06 3.31585e-07
6.95952e-06 6.28043e-05 3.36598e-07
3.31585e-07 3.36598e-07 -2.44474e-05
0.00183488 6.65163e-05 -6.15884e-07
6.65163e-05 8.37496e-05 -8.67243e-08
-6.15884e-07 -8.67243e-08 1.29885e-05
0.00173774 5.04622e-05 2.23535e-06
5.04622e-05 5.07108e-06 2.69862e-07
2.23535e-06 2.69862e-07 -3.95412e-05
0.0017043 1.05909e-05 -1.2085e-06
1.05909e-05 3.20451e-06 1.53929e-07
-1.2085e-06 1.53929e-07 -5.63748e-05
0.0032574 6.61861e-05 1.35101e-05
6.61861e-05 0.000585054 1.19046e-06
1.35101e-05 1.19046e-06 0.000532864
0.00168761 3.94475e-05 -1.08504e-05
3.94475e-05 4.64775e-06 -2.7203e-06
-1.08504e-05 -2.7203e-06 -1.62539e-05
0.000776196 3.89425e-05 -3.19511e-07
3.89425e-05 4.43281e-05 -1.04733e-06
-3.19511e-07 -1.04733e-06 -1.02196e-05
0.00186861 -5.17922e-05 1.94365e-06
-5.17922e-05 0.000133923 2.68512e-07
1.94365e-06 2.68512e-07 4.82368e-05
0.00183024 -9.9093e-05 2.29185e-06
-9.9093e-05 0.00011785 -1.98199e-07
2.29185e-06 -1.98199e-07 4.30103e-05
0.00156168 -0.000114617 1.17121e-06
-0.000114617 -5.86004e-05 3.33541e-07
1.17121e-06 3.33541e-07 -0.000137735
0.000927563 -0.000139659 1.83335e-06
-0.000139659 0.000141454 4.23254e-06
1.83335e-06 4.23254e-06 -6.67912e-07
0.00116781 -0.000184755 1.517e-06
-0.000184755 0.000168093 4.9588e-06
1.517e-06 4.9588e-06 -5.51325e-05
0.00118989 -0.000210582 -1.10637e-06
-0.000210582 -7.01013e-05 -3.75929e-06
-1.10637e-06 -3.75929e-06 -0.000229623
0.00155088 -0.000212496 -3.24753e-06
-0.000212496 -3.12375e-05 -1.64465e-06
-3.24753e-06 -1.64465e-06 -0.000134269
0.00115818 -0.000137409 9.17946e-06
-0.000137409 0.000194937 -3.44711e-06
9.17946e-06 -3.44711e-06 7.96803e-05
0.000546556 -0.000112136 3.04293e-06
-0.000112136 -6.75154e-05 -9.87215e-06
3.04293e-06 -9.87215e-06 -0.000163411
0.000705545 -8.25849e-05 -1.21782e-07
-8.25849e-05 2.57863e-05 -1.29703e-06
-1.21782e-07 -1.29703e-06 -8.91826e-05
0.000747112 7.64607e-06 -1.04367e-06
7.64607e-06 9.22895e-06 1.91398e-06
-1.04367e-06 1.91398e-06 -2.79292e-05
0.000876253 -1.3245e-05 -3.85742e-08
-1.3245e-05 0.000115306 -5.83737e-07
-3.85742e-08 -5.83737e-07 1.72917e-05
0.00103695 -5.304e-05 -3.70807e-07
-5.304e-05 0.000195962 4.93486e-07
-3.70807e-07 4.93486e-07 0.000127923
0.000810641 -1.70978e-05 -9.69137e-07
-1.70978e-05 8.03314e-05 8.90994e-07
-9.69137e-07 8.90994e-07 -8.43105e-06
0.000603619 -1.27316e-05 -4.7127e-07
-1.27316e-05 -5.57906e-05 1.18679e-06
-4.7127e-07 1.18679e-06 -0.000112643
0.00192686 -6.6959e-05 -5.62642e-07
-6.6959e-05 0.000115349 -1.80748e-07
-5.62642e-07 -1.80748e-07 5.12571e-05
0.000667264 2.02061e-05 1.19451e-07
2.02061e-05 -1.17602e-05 -7.2068e-07
1.19451e-07 -7.2068e-07 -7.13899e-05
0.000775674 -4.62175e-05 -2.60981e-07
-4.62175e-05 4.80222e-05 8.85735e-08
-2.60981e-07 8.85735e-08 -1.66431e-05
0.000830929 -1.99686e-05 -6.55754e-07
-1.99686e-05 9.34883e-05 6.23388e-07
-6.55754e-07 6.23388e-07 1.29378e-05
0.00172063 -9.67779e-05 5.94464e-07
-9.67779e-05 5.34252e-06 -6.0624e-07
5.94464e-07 -6.0624e-07 -6.05843e-05
0.00179274 -0.000202006 -4.1012e-07
-0.000202006 2.1446e-05 -1.78011e-07
-4.1012e-07 -1.78011e-07 -5.38727e-05
0.000881435 -0.000118086 1.96892e-06
-0.000118086 6.85232e-05 -7.16754e-08
1.96892e-06 -7.16754e-08 -7.04388e-05
0.00114683 -0.000209911 2.22388e-06
-0.000209911 9.05788e-05 -1.25929e-08
2.22388e-06 -1.25929e-08 -0.000138934
0.00172257 -0.000261828 -3.82081e-07
-0.000261828 8.95134e-05 2.83557e-07
-3.82081e-07 2.83557e-07 -3.22025e-05
0.000723901 -2.47826e-06 -2.07653e-07
-2.47826e-06 3.65369e-05 -1.27988e-08
-2.07653e-07 -1.27988e-08 -5.30179e-05
0.000946179 -4.41097e-05 -8.75448e-08
-4.41097e-05 0.000158185 9.31936e-08
-8.75448e-08 9.31936e-08 6.25018e-05
0.000583346 -0.000128377 -6.14475e-06
-0.000128377 -7.50759e-05 1.29764e-06
-6.14475e-06 1.29764e-06 -0.000183523
0.000928436 -7.74128e-05 8.64063e-07
-7.74128e-05 0.000183263 -2.48961e-07
8.64063e-07 -2.48961e-07 4.8856e-05
0.000726374 -5.45744e-05 -5.83679e-07
-5.45744e-05 3.94713e-05 5.84235e-07
-5.83679e-07 5.84235e-07 -6.98463e-05
0.00206891 -0.0001254 -4.24817e-06
-0.0001254 0.000138164 5.35842e-07
-4.24817e-06 5.35842e-07 9.37186e-05
0.00236792 -0.000135244 -3.56044e-07
-0.000135244 0.000323974 1.33645e-06
-3.56044e-07 1.33645e-06 0.000269159
0.00217329 -0.000291893 -7.30641e-07
-0.000291893 0.000227858 -9.34605e-07
-7.30641e-07 -9.34605e-07 0.000131292
0.00212818 -0.000294513 -9.33623e-06
-0.000294513 0.000479508 4.78673e-07
-9.33623e-06 4.78673e-07 0.000304661
0.000956123 -0.00011942 -5.94278e-06
-0.00011942 0.000147551 -2.09083e-06
-5.94278e-06 -2.09083e-06 -2.68668e-05
0.000595156 1.31023e-05 5.81548e-07
1.31023e-05 -4.04571e-05 -1.36369e-06
5.81548e-07 -1.36369e-06 -0.000119119
0.000623123 5.34855e-05 6.57934e-08
5.34855e-05 -2.22574e-05 -8.77094e-07
6.57934e-08 -8.77094e-07 -0.000106246
0.000926664 1.37914e-05 1.02038e-06
1.37914e-05 0.000148747 1.40822e-07
1.02038e-06 1.40822e-07 5.97314e-05
0.000819038 -7.25531e-05 1.63525e-06
-7.25531e-05 9.42233e-05 1.65979e-07
1.63525e-06 1.65979e-07 -4.50539e-06
0.000781628 -1.5124e-05 4.63592e-07
-1.5124e-05 6.49497e-05 9.89481e-07
4.63592e-07 9.89481e-07 -3.15293e-05
0.000705051 -1.78479e-05 1.77938e-06
-1.78479e-05 4.64618e-05 -3.23861e-07
1.77938e-06 -3.23861e-07 -7.59752e-05
0.000742586 -0.000102071 8.81132e-06
-0.000102071 0.000110927 1.05515e-06
8.81132e-06 1.05515e-06 -7.12997e-05
0.000784289 4.3582e-05 8.3761e-07
4.3582e-05 6.95105e-05 -1.54346e-06
8.3761e-07 -1.54346e-06 -1.54722e-05
0.000580214 4.62168e-05 9.30557e-07
4.62168e-05 -2.75436e-05 2.66852e-07
9.30557e-07 2.66852e-07 -0.000141312
0.0019017 9.97264e-05 1.49879e-06
9.97264e-05 8.21772e-05 -2.64223e-07
1.49879e-06 -2.64223e-07 2.58315e-05
0.00174761 0.000163634 3.80774e-06
0.000163634 -1.28725e-05 -5.38111e-07
3.80774e-06 -5.38111e-07 -8.67332e-05
0.00191946 0.000256699 3.60404e-06
0.000256699 0.000166963 1.95126e-07
3.60404e-06 1.95126e-07 3.56999e-05
0.000517167 0.000114521 2.03566e-06
0.000114521 -8.90195e-05 -8.34527e-07
2.03566e-06 -8.34527e-07 -0.000267257
0.00207863 0.000269013 2.96606e-06
0.000269013 0.000554283 1.28972e-06
2.96606e-06 1.28972e-06 0.000340536
0.00101071 2.1493e-05 -2.36903e-07
2.1493e-05 0.000198495 3.85118e-07
-2.36903e-07 3.85118e-07 0.000103294
0.0019296 0.000111301 -1.33994e-06
0.000111301 8.69721e-05 -1.17309e-07
-1.33994e-06 -1.17309e-07 5.59435e-05
0.00131238 0.000144511 -1.04409e-06
0.000144511 0.000361783 -2.46141e-07
-1.04409e-06 -2.46141e-07 0.000225251
0.00154656 0.00019859 -7.54791e-07
0.00019859 0.000435192 1.2522e-06
-7.54791e-07 1.2522e-06 0.000233247
0.00207822 0.000260192 9.43971e-07
0.000260192 0.000157536 -1.10095e-06
9.43971e-07 -1.10095e-06 7.07146e-05
0.00150154 0.000254821 -1.41165e-06
0.000254821 0.00012876 1.42889e-06
-1.41165e-06 1.42889e-06 -6.10872e-05
0.00118531 0.000143979 1.43917e-05
0.000143979 -0.000240462 1.48224e-06
1.43917e-05 1.48224e-06 -0.000441158
0.00109087 6.03772e-05 -2.42551e-06
6.03772e-05 0.000239927 -1.52436e-06
-2.42551e-06 -1.52436e-06 0.000130451
0.00256385 0.000182703 -2.01875e-05
0.000182703 0.000433514 -1.08265e-05
-2.01875e-05 -1.08265e-05 0.000435141
0.00130632 0.000172748 -5.69652e-06
0.000172748 0.000360112 -1.61223e-06
-5.69652e-06 -1.61223e-06 0.000206364
0.00142206 0.000212979 -6.94916e-06
0.000212979 0.000295422 -1.8066e-07
-6.94916e-06 -1.8066e-07 7.72232e-05
0.000477917 0.00026439 -9.38762e-06
0.00026439 -0.0005466 -2.0475e-06
-9.38762e-06 -2.0475e-06 -0.000694705
0.00797156 7.46044e-05 -8.74342e-05
7.46044e-05 0.0024249 -3.21975e-05
-8.74342e-05 -3.21975e-05 0.001542
0.00373514 0.000292206 0.000101702
0.000292206 0.000506014 5.03672e-07
0.000101702 5.03672e-07 -0.000193634
0.00043092 0.000235546 9.94462e-06
0.000235546 -0.000450928 1.77703e-05
9.94462e-06 1.77703e-05 -0.00055877
-0.00213565 -0.000355759 6.5565e-05
-0.000355759 -0.000781118 -9.16505e-06
6.5565e-05 -9.16505e-06 -0.000997336
0.00343742 -0.000749275 -2.2549e-05
-0.000749275 0.000405549 -1.01966e-05
-2.2549e-05 -1.01966e-05 0.00169771
0.000848008 -1.54666e-05 4.26276e-07
-1.54666e-05 9.85336e-05 -6.14553e-08
4.26276e-07 -6.14553e-08 1.98438e-05
0.000925521 -2.46781e-05 9.00867e-07
-2.46781e-05 0.000138379 -3.08999e-07
9.00867e-07 -3.08999e-07 5.51747e-05
0.000919962 2.1729e-05 -3.69585e-07
2.1729e-05 0.000137849 -2.36125e-06
-3.69585e-07 -2.36125e-06 5.40674e-05
0.000757066 -5.21771e-05 8.31081e-08
-5.21771e-05 3.13972e-05 -6.88912e-07
8.31081e-08 -6.88912e-07 -3.05848e-05
0.000708629 4.5751e-05 -9.53605e-07
4.5751e-05 3.85719e-06 4.22016e-08
-9.53605e-07 4.22016e-08 -6.58533e-05
0.000866661 -4.40737e-05 -1.22043e-07
-4.40737e-05 9.6209e-05 3.86915e-07
-1.22043e-07 3.86915e-07 2.2648e-05
0.000945002 -2.14155e-05 -8.03689e-07
-2.14155e-05 0.00013695 6.76989e-07
-8.03689e-07 6.76989e-07 6.19858e-05
0.000836122 -4.24096e-05 1.19609e-08
-4.24096e-05 7.99667e-05 -1.90487e-07
1.19609e-08 -1.90487e-07 4.09515e-07
0.000806853 3.81677e-05 -6.9199e-07
3.81677e-05 6.01905e-05 -2.57094e-07
-6.9199e-07 -2.57094e-07 -1.51326e-05
0.000710787 -4.67344e-06 -3.25624e-08
-4.67344e-06 -1.93632e-06 5.40841e-07
-3.25624e-08 5.40841e-07 -6.06886e-05
0.000805399 2.36517e-05 -2.77137e-07
2.36517e-05 5.86394e-05 -5.57248e-08
-2.77137e-07 -5.57248e-08 -1.65567e-05
0.000862787 -3.85854e-05 -2.36634e-07
-3.85854e-05 8.6702e-05 5.00295e-07
-2.36634e-07 5.00295e-07 9.84302e-06
0.000851779 -1.05759e-05 -1.27269e-07
-1.05759e-05 7.82536e-05 -1.63238e-07
-1.27269e-07 -1.63238e-07 5.37085e-06
0.000775232 2.24433e-05 2.13756e-07
2.24433e-05 3.21605e-05 -1.05282e-06
2.13756e-07 -1.05282e-06 -4.00112e-05
0.000747428 -1.22739e-05 7.32144e-07
-1.22739e-05 1.5618e-05 -2.19882e-06
7.32144e-07 -2.19882e-06 -5.31457e-05
0.000887564 2.88547e-05 1.35462e-06
2.88547e-05 9.38025e-05 -1.25352e-07
1.35462e-06 -1.25352e-07 1.99352e-05
0.00075539 2.50318e-06 1.06181e-06
2.50318e-06 2.21625e-05 -2.46573e-07
1.06181e-06 -2.46573e-07 -5.18497e-05
0.000659416 -4.04182e-05 -1.28348e-06
-4.04182e-05 -2.95449e-05 9.26191e-07
-1.28348e-06 9.26191e-07 -9.00553e-05
0.0008671 1.2204e-05 -4.95248e-07
1.2204e-05 9.322e-05 -2.50591e-07
-4.95248e-07 -2.50591e-07 1.80456e-05
0.000907821 5.70133e-05 -3.78842e-08
5.70133e-05 0.000116019 -1.43144e-06
-3.78842e-08 -1.43144e-06 3.97494e-05
0.000768569 4.70929e-06 -7.82945e-07
4.70929e-06 4.80032e-05 -3.47597e-07
-7.82945e-07 -3.47597e-07 -2.37359e-05
0.000864256 7.86655e-06 6.77877e-07
7.86655e-06 9.74514e-05 -3.86542e-07
6.77877e-07 -3.86542e-07 2.34297e-05
0.000773072 -3.38057e-05 -1.5301e-06
-3.38057e-05 3.30047e-05 4.33075e-07
-1.5301e-06 4.33075e-07 -2.41658e-05
0.000656296 6.93502e-06 1.30025e-07
6.93502e-06 -2.93459e-05 5.13938e-07
1.30025e-07 5.13938e-07 -9.04502e-05
0.000747234 1.17662e-05 -2.83363e-07
1.17662e-05 5.64769e-06 1.41654e-06
-2.83363e-07 1.41654e-06 -3.08829e-05
0.000733174 3.91019e-06 -8.79912e-08
3.91019e-06 -1.61591e-06 -2.46247e-09
-8.79912e-08 -2.46247e-09 -3.81344e-05
0.000709704 6.76819e-06 -3.70247e-07
6.76819e-06 -2.84975e-05 4.75568e-06
-3.70247e-07 4.75568e-06 -3.52061e-05
0.000733715 -2.15571e-06 3.52288e-07
-2.15571e-06 -1.90711e-06 -1.43252e-06
3.52288e-07 -1.43252e-06 -3.80613e-05
0.000693719 1.2379e-06 2.37643e-07
1.2379e-06 -3.87391e-05 -4.76345e-09
2.37643e-07 -4.76345e-09 -4.49227e-05
0.00218567 -9.68863e-07 2.94082e-07
-9.68863e-07 0.000800224 4.54084e-06
2.94082e-07 4.54084e-06 0.000820352
0.000717412 -4.3897e-06 -5.16823e-07
-4.3897e-06 -2.49851e-05 -4.77075e-06
-5.16823e-07 -4.77075e-06 -3.10272e-05
0.00154474 -7.47165e-06 -3.79079e-07
-7.47165e-06 0.000441167 3.05026e-08
-3.79079e-07 3.05026e-08 0.000458014
0.000866894 -1.22972e-05 -4.69219e-07
-1.22972e-05 6.23236e-05 -1.71849e-06
-4.69219e-07 -1.71849e-06 7.6219e-05
0.000742193 6.02585e-06 -1.58692e-07
6.02585e-06 5.06937e-06 -1.753e-06
-1.58692e-07 -1.753e-06 -2.66342e-05
0.000742681 4.5751e-06 4.4444e-08
4.5751e-06 5.1742e-06 1.85737e-08
4.4444e-08 1.85737e-08 -2.7767e-05
0.000699589 1.20015e-05 1.75189e-07
1.20015e-05 -3.36787e-05 -3.43711e-06
1.75189e-07 -3.43711e-06 -3.80199e-05
0.000749639 4.39944e-06 -8.97805e-07
4.39944e-06 8.92016e-06 1.8711e-06
-8.97805e-07 1.8711e-06 -2.58235e-05
0.000989775 2.04175e-05 -2.26471e-07
2.04175e-05 0.000131701 -7.06032e-07
-2.26471e-07 -7.06032e-07 0.000127532
0.00211953 2.74354e-05 1.25954e-05
2.74354e-05 0.000769307 -4.33586e-06
1.25954e-05 -4.33586e-06 0.000788771
0.000692793 2.51106e-05 -6.50442e-07
2.51106e-05 -2.97923e-05 3.62139e-06
-6.50442e-07 3.62139e-06 -3.81724e-05
0.00221389 3.72857e-05 -7.25245e-06
3.72857e-05 0.00082822 1.17251e-06
-7.25245e-06 1.17251e-06 0.000845717
0.00226029 4.83862e-05 -2.22128e-05
4.83862e-05 0.000860298 4.06994e-06
-2.22128e-05 4.06994e-06 0.000875634
0.0016542 6.44351e-05 2.56055e-07
6.44351e-05 -9.74419e-06 -4.53469e-07
2.56055e-07 -4.53469e-07 -8.17522e-05
0.00173035 8.15795e-06 1.21532e-06
8.15795e-06 4.28389e-05 -4.61846e-08
1.21532e-06 -4.61846e-08 -4.45732e-05
0.00182245 5.13478e-05 4.65663e-06
5.13478e-05 5.28926e-05 1.11486e-06
4.65663e-06 1.11486e-06 5.53922e-06
0.00205987 5.47332e-05 1.48567e-05
5.47332e-05 8.56193e-06 2.66317e-06
1.48567e-05 2.66317e-06 -6.06592e-05
0.00177923 9.70948e-06 -8.93292e-07
9.70948e-06 4.11236e-05 1.99429e-08
-8.93292e-07 1.99429e-08 -1.81314e-05
0.0019067 4.05194e-05 2.04075e-06
4.05194e-05 0.000132519 7.46656e-07
2.04075e-06 7.46656e-07 0.000109816
0.00240884 1.94571e-06 -1.05173e-05
1.94571e-06 0.000397032 -4.74357e-07
-1.05173e-05 -4.74357e-07 0.00035024
0.0031194 -3.86145e-06 0.000134871
-3.86145e-06 0.000340801 -2.97898e-06
0.000134871 -2.97898e-06 3.57264e-05
0.00183666 -1.75836e-05 -1.09392e-05
-1.75836e-05 -3.82175e-05 -5.15868e-06
-1.09392e-05 -5.15868e-06 -0.000101743
0.000776411 4.43079e-05 -7.81749e-07
4.43079e-05 4.6405e-05 -1.00021e-06
-7.81749e-07 -1.00021e-06 -8.86639e-06
0.000774908 -1.25643e-05 6.91241e-07
-1.25643e-05 4.73439e-05 -6.55528e-08
6.91241e-07 -6.55528e-08 -1.00385e-05
0.000756745 -5.94349e-05 1.1289e-07
-5.94349e-05 4.35383e-05 -3.58435e-07
1.1289e-07 -3.58435e-07 -2.69772e-05
0.000772284 -2.18533e-05 -1.26899e-06
-2.18533e-05 6.10768e-05 -1.66105e-08
-1.26899e-06 -1.66105e-08 -1.47247e-05
0.00195158 -7.26089e-05 1.77614e-06
-7.26089e-05 0.000125391 -1.59045e-07
1.77614e-06 -1.59045e-07 6.23238e-05
0.00165103 -0.00010373 -1.76716e-06
-0.00010373 -4.17068e-05 -2.84177e-09
-1.76716e-06 -2.84177e-09 -0.000107644
0.00181513 -0.000201358 -3.93874e-06
-0.000201358 4.62341e-05 1.10714e-06
-3.93874e-06 1.10714e-06 -3.33332e-05
0.0010033 -0.000155526 3.96798e-06
-0.000155526 0.000127909 2.75944e-06
3.96798e-06 2.75944e-06 -7.86645e-06
-5.3639e-05 -0.000130853 4.00931e-06
-0.000130853 -0.000525722 -7.37656e-07
4.00931e-06 -7.37656e-07 -0.000753501
0.00201736 -0.000283934 -1.3573e-07
-0.000283934 0.000249155 -2.33658e-06
-1.3573e-07 -2.33658e-06 0.000123541
0.000506866 -0.000112297 -7.26318e-06
-0.000112297 -0.000108795 8.62753e-07
-7.26318e-06 8.62753e-07 -0.000226496
0.00103577 -7.2433e-05 -1.26615e-06
-7.2433e-05 0.000232921 -1.39423e-06
-1.26615e-06 -1.39423e-06 0.000106088
0.000902876 -7.97475e-05 -2.06505e-06
-7.97475e-05 0.000136058 8.35977e-07
-2.06505e-06 8.35977e-07 2.60192e-05
0.000787319 -2.1954e-05 -1.18781e-06
-2.1954e-05 5.15239e-05 1.32861e-06
-1.18781e-06 1.32861e-06 -1.12256e-05
0.000833277 -5.66527e-05 -5.57369e-07
-5.66527e-05 0.00010183 -1.16978e-07
-5.57369e-07 -1.16978e-07 1.14336e-06
0.000847282 -6.67387e-06 -9.87282e-07
-6.67387e-06 0.000102816 6.77016e-07
-9.87282e-07 6.77016e-07 1.54177e-05
0.000773331 -3.67894e-06 -6.52266e-09
-3.67894e-06 4.93701e-05 5.36553e-07
-6.52266e-09 5.36553e-07 -1.08565e-05
0.000686672 2.01247e-05 -2.92566e-07
2.01247e-05 1.56682e-05 1.62207e-06
-2.92566e-07 1.62207e-06 -6.7604e-05
0.00195012 -0.000108574 2.73046e-07
-0.000108574 0.000102993 3.07387e-07
2.73046e-07 3.07387e-07 5.5116e-05
0.000780189 8.48987e-06 6.45067e-07
8.48987e-06 6.29824e-05 -4.99585e-07
6.45067e-07 -4.99585e-07 -1.45996e-05
0.000723523 1.98934e-05 6.04722e-07
1.98934e-05 3.53154e-05 -7.50609e-08
6.04722e-07 -7.50609e-08 -4.9389e-05
0.000818827 6.01909e-05 -3.20389e-07
6.01909e-05 9.23342e-05 9.14597e-07
-3.20389e-07 9.14597e-07 2.16847e-06
0.00195799 -0.000127094 -2.77193e-06
-0.000127094 8.95536e-05 1.01508e-06
-2.77193e-06 1.01508e-06 3.13034e-05
0.00189275 -0.000270916 7.27788e-07
-0.000270916 8.91231e-05 -1.11791e-06
7.27788e-07 -1.11791e-06 -3.31603e-06
0.00101408 -0.00016171 -1.46408e-06
-0.00016171 0.000167718 1.04544e-08
-1.46408e-06 1.04544e-08 -8.57604e-06
0.00225615 -0.000303622 -1.04738e-06
-0.000303622 0.000542391 6.25844e-07
-1.04738e-06 6.25844e-07 0.000364358
0.000904368 -2.36861e-05 -3.50425e-07
-2.36861e-05 0.000137361 6.78544e-08
-3.50425e-07 6.78544e-08 4.08447e-05
0.000763092 -3.21179e-05 -1.90781e-07
-3.21179e-05 6.07889e-05 9.14183e-07
-1.90781e-07 9.14183e-07 -3.8791e-05
0.000796489 -0.000106402 3.84137e-06
-0.000106402 0.000129257 -1.04816e-06
3.84137e-06 -1.04816e-06 -4.34541e-05
0.00100774 -7.02878e-05 1.04452e-06
-7.02878e-05 0.000217095 -9.68957e-07
1.04452e-06 -9.68957e-07 8.47943e-05
0.00224891 -8.85287e-05 -5.99597e-06
-8.85287e-05 0.000234737 4.53479e-06
-5.99597e-06 4.53479e-06 0.000176378
0.00245974 -0.000241559 -4.46012e-06
-0.000241559 0.000298392 -1.91783e-06
-4.46012e-06 -1.91783e-06 0.000276256
0.00238075 -0.000320972 -4.1019e-06
-0.000320972 0.000472699 -2.86525e-06
-4.1019e-06 -2.86525e-06 0.000331333
0.00141124 -0.000236695 -1.41633e-06
-0.000236695 0.000346022 -8.6864e-07
-1.41633e-06 -8.6864e-07 0.000163055
0.00073608 2.68039e-05 -3.69857e-07
2.68039e-05 4.77213e-05 -7.06835e-07
-3.69857e-07 -7.06835e-07 -4.83982e-05
0.000749792 -4.11429e-05 7.5679e-07
-4.11429e-05 5.94305e-05 -1.06703e-06
7.5679e-07 -1.06703e-06 -3.8085e-05
0.000761471 -3.12627e-05 3.86189e-07
-3.12627e-05 6.6395e-05 4.61162e-07
3.86189e-07 4.61162e-07 -3.87214e-05
0.000671786 -4.52116e-06 -4.19068e-07
-4.52116e-06 6.95264e-05 6.45936e-07
-4.19068e-07 6.45936e-07 -0.000122734
0.000405234 -0.000118818 1.62954e-05
-0.000118818 -0.00153303 -3.96009e-06
1.62954e-05 -3.96009e-06 -0.00202022
0.000993244 1.27778e-05 1.24255e-06
1.27778e-05 0.00018611 -1.10197e-06
1.24255e-06 -1.10197e-06 9.66394e-05
0.000591961 9.28019e-05 2.63004e-06
9.28019e-05 -2.59235e-05 1.45451e-06
2.63004e-06 1.45451e-06 -0.000154404
0.00171677 0.000106127 1.36542e-05
0.000106127 -3.23776e-05 1.01538e-06
1.36542e-05 1.01538e-06 -5.63894e-05
0.00205347 0.000251679 3.35916e-06
0.000251679 0.000142463 -3.44459e-07
3.35916e-06 -3.44459e-07 5.75636e-05
0.00126117 0.000242225 5.3242e-06
0.000242225 4.33022e-06 2.67946e-06
5.3242e-06 2.67946e-06 -0.000190952
0.00078163 0.000145076 4.42885e-06
0.000145076 4.60687e-05 1.30458e-06
4.42885e-06 1.30458e-06 -0.000158756
0.0021768 0.00017589 1.5964e-05
0.00017589 6.93029e-05 2.3126e-06
1.5964e-05 2.3126e-06 -0.000181955
0.000984256 5.19033e-05 7.80764e-07
5.19033e-05 0.000188235 -7.5838e-07
7.80764e-07 -7.5838e-07 8.09719e-05
0.00224961 0.000175446 -6.63833e-06
0.000175446 0.00027231 -1.93355e-06
-6.63833e-06 -1.93355e-06 0.00028398
0.0010662 0.000155006 4.11034e-07
0.000155006 0.00023637 -3.84153e-07
4.11034e-07 -3.84153e-07 8.64554e-05
0.00117518 0.000203293 -2.83083e-07
0.000203293 0.000173992 5.90887e-07
-2.83083e-07 5.90887e-07 -4.59932e-05
0.00128848 0.000308347 -2.13355e-06
0.000308347 -0.000149727 -1.05081e-06
-2.13355e-06 -1.05081e-06 -0.000291232
0.0027575 -0.00013541 -5.99238e-05
-0.00013541 -0.000161641 -1.90326e-05
-5.99238e-05 -1.90326e-05 -0.00100021
0.00363834 0.000206481 8.52801e-06
0.000206481 0.000283717 -1.58122e-05
8.52801e-06 -1.58122e-05 -0.000494864
0.000295063 0.000192937 5.78446e-06
0.000192937 -0.000505394 5.95954e-06
5.78446e-06 5.95954e-06 -0.000625055
-0.0018691 -0.000217227 5.50597e-05
-0.000217227 -0.000352068 1.56088e-05
5.50597e-05 1.56088e-05 -0.000870726
-0.000309806 -0.000761181 -4.28314e-06
-0.000761181 -0.00134147 -1.73408e-05
-4.28314e-06 -1.73408e-05 0.000150579
0.00119868 0.000108917 -3.28126e-06
0.000108917 0.000324451 -3.10687e-06
-3.28126e-06 -3.10687e-06 0.000214801
0.000742044 0.000167821 -3.18242e-05
0.000167821 0.000840148 -2.49909e-05
-3.18242e-05 -2.49909e-05 0.000299281
0.00139257 -0.000357158 -5.42488e-05
-0.000357158 0.000872352 -5.37817e-05
-5.42488e-05 -5.37817e-05 0.000874873
0.00234045 0.000253412 -2.27971e-05
0.000253412 0.000378378 -5.91497e-06
-2.27971e-05 -5.91497e-06 0.000394405
0.00104768 9.7232e-05 -9.77701e-06
9.7232e-05 0.00023626 -2.29149e-06
-9.77701e-06 -2.29149e-06 7.2731e-05
0.000966768 0.000305045 -1.61896e-05
0.000305045 -1.02283e-05 -7.58754e-06
-1.61896e-05 -7.58754e-06 -0.000238197
-0.000201446 0.000245374 1.19586e-05
0.000245374 -0.0007709 4.89655e-05
1.19586e-05 4.89655e-05 -0.000775048
0.00811305 -2.73064e-05 -4.0757e-05
-2.73064e-05 0.00285686 -1.83727e-05
-4.0757e-05 -1.83727e-05 0.00148783
0.00359629 0.00044107 -5.81029e-06
0.00044107 0.000560438 1.56546e-05
-5.81029e-06 1.56546e-05 -0.000557182
0.000757124 -0.000607925 2.2972e-05
-0.000607925 -0.000181103 1.49955e-05
2.2972e-05 1.49955e-05 0.000174728
0.00126133 -0.000424254 -2.34302e-05
-0.000424254 -0.00163363 4.2461e-05
-2.34302e-05 4.2461e-05 -0.000476061
0.000873177 -3.14491e-05 1.31044e-06
-3.14491e-05 0.000114582 -4.20762e-07
1.31044e-06 -4.20762e-07 3.18961e-05
0.000911938 1.39589e-05 2.53437e-07
1.39589e-05 0.000134244 6.70736e-08
2.53437e-07 6.70736e-08 5.10626e-05
0.00112147 5.52356e-05 -1.23677e-06
5.52356e-05 0.000244597 -3.46393e-06
-1.23677e-06 -3.46393e-06 0.00017875
0.000755831 4.40314e-06 -1.15282e-07
4.40314e-06 3.37518e-05 5.23592e-10
-1.15282e-07 5.23592e-10 -3.0935e-05
0.000816273 1.98003e-05 -6.97231e-07
1.98003e-05 6.34468e-05 -1.58449e-07
-6.97231e-07 -1.58449e-07 -1.03711e-05
0.000748722 -3.1511e-05 -5.29101e-07
-3.1511e-05 2.16843e-05 2.18507e-07
-5.29101e-07 2.18507e-07 -4.93859e-05
0.000893643 -1.27307e-05 -2.53479e-08
-1.27307e-05 0.000101428 7.29493e-07
-2.53479e-08 7.29493e-07 2.86732e-05
0.000902747 -3.77848e-05 -3.55287e-07
-3.77848e-05 0.00010882 1.73876e-06
-3.55287e-07 1.73876e-06 3.22497e-05
0.000657501 -2.85022e-07 5.16476e-07
-2.85022e-07 -2.82097e-05 5.27028e-07
5.16476e-07 5.27028e-07 -9.03501e-05
0.000827637 -6.51233e-06 -1.20225e-07
-6.51233e-06 6.04437e-05 -1.22066e-07
-1.20225e-07 -1.22066e-07 -1.17437e-05
0.000887479 -5.50328e-06 1.65488e-08
-5.50328e-06 9.57584e-05 3.00219e-07
1.65488e-08 3.00219e-07 2.14701e-05
0.000831325 2.27163e-05 5.66078e-07
2.27163e-05 7.26228e-05 -2.42793e-07
5.66078e-07 -2.42793e-07 -5.7565e-06
0.000773641 -9.74215e-06 1.4775e-07
-9.74215e-06 2.97832e-05 -1.3872e-07
1.4775e-07 -1.3872e-07 -3.8319e-05
0.000848305 -1.4688e-05 5.26055e-07
-1.4688e-05 6.52115e-05 -1.14318e-06
5.26055e-07 -1.14318e-06 -5.61355e-06
0.000746684 1.91101e-05 -7.80345e-07
1.91101e-05 9.12048e-06 -4.8406e-06
-7.80345e-07 -4.8406e-06 -5.33635e-05
0.000895461 -6.06162e-05 2.1177e-07
-6.06162e-05 9.66449e-05 -5.85591e-07
2.1177e-07 -5.85591e-07 1.86147e-05
0.000874012 -4.69089e-05 -5.09486e-07
-4.69089e-05 9.88808e-05 -6.81302e-07
-5.09486e-07 -6.81302e-07 1.94978e-05
0.000879506 -1.12348e-05 -4.64394e-07
-1.12348e-05 0.000101971 -1.77331e-07
-4.64394e-07 -1.77331e-07 2.5037e-05
0.000901601 4.4362e-05 -5.52279e-07
4.4362e-05 0.000108892 -2.88284e-07
-5.52279e-07 -2.88284e-07 3.47583e-05
0.000867932 1.98087e-05 -7.24193e-07
1.98087e-05 9.60788e-05 -1.29688e-06
-7.24193e-07 -1.29688e-06 1.13313e-05
0.000833077 4.62013e-05 2.82871e-07
4.62013e-05 7.60516e-05 -9.99197e-07
2.82871e-07 -9.99197e-07 2.92018e-06
0.000742101 3.97693e-05 1.79423e-07
3.97693e-05 1.77323e-05 -1.46325e-06
1.79423e-07 -1.46325e-06 -5.2505e-05
0.000741832 5.01973e-05 1.86534e-06
5.01973e-05 4.42984e-05 8.98075e-07
1.86534e-06 8.98075e-07 -3.44563e-05
0.000764099 1.45675e-05 -2.84435e-07
1.45675e-05 4.01868e-05 -3.5392e-07
-2.84435e-07 -3.5392e-07 -2.41394e-05
0.000787389 -2.31749e-06 -7.68903e-08
-2.31749e-06 5.55923e-05 4.5541e-08
-7.68903e-08 4.5541e-08 -1.43561e-05
0.000772326 3.80202e-06 -1.23032e-06
3.80202e-06 2.90142e-05 2.36218e-07
-1.23032e-06 2.36218e-07 -2.40714e-05
0.000818162 1.03527e-05 8.88608e-07
1.03527e-05 6.24604e-05 -7.13298e-08
8.88608e-07 -7.13298e-08 -6.53245e-06
0.000740484 -2.86347e-05 -1.8421e-08
-2.86347e-05 1.45793e-05 3.05109e-08
-1.8421e-08 3.05109e-08 -4.30126e-05
0.000755654 1.53473e-05 -6.84395e-07
1.53473e-05 9.46842e-06 1.47506e-06
-6.84395e-07 1.47506e-06 -2.66852e-05
0.000665389 6.91767e-06 5.45431e-07
6.91767e-06 -2.02711e-05 6.67948e-08
5.45431e-07 6.67948e-08 -8.40757e-05
0.000741704 8.16226e-06 -5.05192e-08
8.16226e-06 2.22588e-06 -5.40694e-09
-5.05192e-08 -5.40694e-09 -3.41935e-05
0.00135049 1.51473e-05 -2.97851e-06
1.51473e-05 0.000332753 4.65511e-06
-2.97851e-06 4.65511e-06 0.000329094
0.000729457 -1.42816e-06 5.32059e-07
-1.42816e-06 -3.75372e-06 -1.37461e-06
5.32059e-07 -1.37461e-06 -4.02206e-05
0.00102448 8.09048e-06 -1.45948e-06
8.09048e-06 0.000147937 7.08269e-07
-1.45948e-06 7.08269e-07 0.000142992
0.000922056 3.73574e-06 -3.19679e-06
3.73574e-06 9.23221e-05 4.39959e-06
-3.19679e-06 4.39959e-06 0.00010553
0.000699343 1.4776e-06 3.2585e-08
1.4776e-06 -3.55641e-05 -3.30751e-06
3.2585e-08 -3.30751e-06 -4.17852e-05
0.00218818 -1.1265e-07 2.98227e-06
-1.1265e-07 0.000801661 -7.43877e-10
2.98227e-06 -7.43877e-10 0.000821757
0.000930684 -3.79746e-06 -2.81945e-06
-3.79746e-06 9.69502e-05 -4.40624e-06
-2.81945e-06 -4.40624e-06 0.000110539
0.00077389 5.94597e-05 6.654e-07
5.94597e-05 4.94539e-05 -2.63506e-07
6.654e-07 -2.63506e-07 -9.83544e-06
0.000746896 2.43687e-06 -3.86198e-08
2.43687e-06 7.03572e-06 -1.70756e-06
-3.86198e-08 -1.70756e-06 -2.41016e-05
0.000742366 4.10729e-06 -6.44353e-08
4.10729e-06 5.00955e-06 4.70728e-09
-6.44353e-08 4.70728e-09 -2.66675e-05
0.00070188 5.83468e-06 -7.20847e-08
5.83468e-06 -3.42575e-05 -3.39134e-06
-7.20847e-08 -3.39134e-06 -3.75539e-05
0.000745202 2.91785e-06 -4.50126e-07
2.91785e-06 6.27078e-06 1.76962e-06
-4.50126e-07 1.76962e-06 -2.66512e-05
0.000692616 1.21441e-05 8.60158e-09
1.21441e-05 -3.80085e-05 -7.18868e-07
8.60158e-09 -7.18868e-07 -4.22393e-05
0.0020884 1.78921e-05 8.38534e-06
1.78921e-05 0.000748468 -4.43265e-06
8.38534e-06 -4.43265e-06 0.000769054
0.00129218 2.46883e-05 -1.12231e-06
2.46883e-05 0.000301478 2.10283e-06
-1.12231e-06 2.10283e-06 0.000298639
0.00153996 2.34311e-05 3.86496e-07
2.34311e-05 0.000445504 1.40021e-06
3.86496e-07 1.40021e-06 0.0004613
0.000979085 2.61315e-05 -1.67003e-05
2.61315e-05 0.000136535 7.0865e-06
-1.67003e-05 7.0865e-06 0.000147299
0.00066817 4.64065e-05 2.68113e-05
4.64065e-05 -0.000666166 1.05871e-05
2.68113e-05 1.05871e-05 -0.000762772
0.00185646 8.49648e-06 3.0048e-06
8.49648e-06 7.91808e-05 4.60521e-07
3.0048e-06 4.60521e-07 2.07554e-05
0.00213695 3.9519e-05 1.48185e-05
3.9519e-05 0.000267669 7.39081e-07
1.48185e-05 7.39081e-07 0.000241196
0.00090943 2.42055e-05 1.8179e-05
2.42055e-05 -0.000535506 -3.35541e-06
1.8179e-05 -3.35541e-06 -0.000878053
0.00177902 -1.02922e-05 2.44783e-06
-1.02922e-05 -2.91706e-05 8.74947e-07
2.44783e-06 8.74947e-07 -7.68145e-05
0.00203917 -8.00289e-06 -2.80036e-06
-8.00289e-06 0.000139655 -7.71483e-07
-2.80036e-06 -7.71483e-07 9.89409e-05
0.00251877 -2.42027e-05 -3.64116e-05
-2.42027e-05 0.000362912 3.61826e-06
-3.64116e-05 3.61826e-06 0.000333484
0.00205453 -0.000101913 0.000137806
-0.000101913 -6.53614e-06 -9.88665e-06
0.000137806 -9.88665e-06 -0.000293403
0.00791893 -9.60379e-05 -2.62033e-05
-9.60379e-05 0.00240778 5.92005e-06
-2.62033e-05 5.92005e-06 0.00145365
0.00444648 0.0007484 6.05851e-05
0.0007484 0.00215709 -1.72502e-05
6.05851e-05 -1.72502e-05 0.00234088
0.00208275 0.000703348 -1.25695e-05
0.000703348 0.00073893 1.4774e-05
-1.25695e-05 1.4774e-05 0.00175274
0.000596305 -6.30872e-05 1.38406e-06
-6.30872e-05 -4.12292e-05 -9.976e-07
1.38406e-06 -9.976e-07 -0.000114008
0.000778838 -9.09396e-06 5.41894e-07
-9.09396e-06 4.92578e-05 -4.83216e-08
5.41894e-07 -4.83216e-08 -7.14538e-06
0.000772509 -6.30401e-05 -1.17446e-06
-6.30401e-05 5.03076e-05 1.24615e-06
-1.17446e-06 1.24615e-06 -1.01414e-05
0.000751078 -2.91069e-05 -3.20302e-07
-2.91069e-05 4.45747e-05 6.50122e-08
-3.20302e-07 6.50122e-08 -2.9482e-05
0.000777475 4.30414e-05 2.42944e-07
4.30414e-05 7.25865e-05 6.14308e-07
2.42944e-07 6.14308e-07 -1.60458e-05
0.000906486 8.9549e-05 7.13388e-07
8.9549e-05 0.000130516 8.32158e-07
7.13388e-07 8.32158e-07 4.77924e-05
0.000834556 -2.02069e-05 8.73983e-07
-2.02069e-05 8.92382e-05 -1.17751e-06
8.73983e-07 -1.17751e-06 1.55526e-05
0.000730349 -3.38308e-05 -5.12524e-07
-3.38308e-05 3.33317e-05 6.29353e-07
-5.12524e-07 6.29353e-07 -3.94863e-05
0.00188408 -9.05948e-05 4.43808e-06
-9.05948e-05 9.42378e-05 -1.14169e-06
4.43808e-06 -1.14169e-06 4.44126e-05
0.0015775 -0.000125249 7.57937e-07
-0.000125249 -0.000143256 -7.27701e-07
7.57937e-07 -7.27701e-07 -0.000204139
0.00152149 -0.000248104 -1.91742e-06
-0.000248104 -9.64463e-05 9.01386e-07
-1.91742e-06 9.01386e-07 -0.000185466
0.000968111 -0.000177959 1.72864e-06
-0.000177959 0.00012546 3.18271e-06
1.72864e-06 3.18271e-06 -4.8296e-05
0.00231312 -0.000308366 1.46986e-06
-0.000308366 0.000567073 1.02035e-06
1.46986e-06 1.02035e-06 0.000384897
0.000816378 -0.000108332 -1.03486e-06
-0.000108332 0.000131027 -7.13634e-07
-1.03486e-06 -7.13634e-07 -3.30909e-05
0.00131378 -0.000121394 -4.51006e-07
-0.000121394 0.000390659 -4.53667e-07
-4.51006e-07 -4.53667e-07 0.000247474
0.000797927 -5.91378e-05 -1.45577e-06
-5.91378e-05 8.57594e-05 8.67773e-07
-1.45577e-06 8.67773e-07 -1.7283e-05
0.000788773 -6.1756e-06 3.66361e-08
-6.1756e-06 7.27651e-05 9.77131e-07
3.66361e-08 9.77131e-07 -1.19157e-05
0.00100032 1.05832e-05 -1.44343e-06
1.05832e-05 0.000186266 -3.76118e-07
-1.44343e-06 -3.76118e-07 9.20179e-05
0.00100077 -4.16501e-06 7.10502e-07
-4.16501e-06 0.000184761 4.51939e-07
7.10502e-07 4.51939e-07 0.000108682
0.000738014 9.8588e-05 1.23592e-06
9.8588e-05 5.02952e-05 1.90297e-06
1.23592e-06 1.90297e-06 -4.13662e-05
0.00161733 -8.90915e-05 -1.19487e-06
-8.90915e-05 -0.000112631 -2.34375e-06
-1.19487e-06 -2.34375e-06 -0.000164781
0.000796439 3.2508e-05 -5.61604e-07
3.2508e-05 8.08532e-05 3.26839e-07
-5.61604e-07 3.26839e-07 -1.3306e-05
0.000822071 -3.45447e-05 -4.56518e-07
-3.45447e-05 9.42935e-05 -3.29621e-07
-4.56518e-07 -3.29621e-07 -2.16385e-07
0.00205625 -0.000237332 -4.57862e-07
-0.000237332 9.50679e-05 -1.11036e-06
-4.57862e-07 -1.11036e-06 5.96749e-05
0.00124791 -0.00026168 3.37701e-07
-0.00026168 -0.000109803 1.58235e-06
3.37701e-07 1.58235e-06 -0.000237165
0.00150799 -0.000243635 1.64457e-06
-0.000243635 0.00039186 -1.61986e-06
1.64457e-06 -1.61986e-06 0.000195477
0.000908529 -3.16419e-05 3.27309e-07
-3.16419e-05 0.00014936 -6.67063e-07
3.27309e-07 -6.67063e-07 4.03659e-05
0.000961145 -3.85181e-05 -2.52492e-08
-3.85181e-05 0.000220239 4.93256e-07
-2.52492e-08 4.93256e-07 3.07205e-05
0.00358746 -0.000176955 -9.81435e-06
-0.000176955 0.00107818 8.04655e-06
-9.81435e-06 8.04655e-06 0.000988031
0.00298457 -0.000329869 -1.32196e-05
-0.000329869 0.000647007 5.386e-07
-1.32196e-05 5.386e-07 0.000631654
-0.000320599 -0.00019211 -4.06543e-06
-0.00019211 -0.000744625 -2.21869e-06
-4.06543e-06 -2.21869e-06 -0.000886003
0.00112906 -0.000149142 -4.52457e-06
-0.000149142 0.000246489 3.82189e-06
-4.52457e-06 3.82189e-06 3.51198e-05
0.000680731 -8.17731e-05 1.00728e-06
-8.17731e-05 1.09312e-05 -3.44612e-07
1.00728e-06 -3.44612e-07 -8.40493e-05
0.000834739 -3.63803e-05 1.09917e-06
-3.63803e-05 0.000101372 -1.01225e-07
1.09917e-06 -1.01225e-07 1.40562e-06
0.000748955 -1.13747e-05 -1.80299e-06
-1.13747e-05 7.27993e-05 7.85198e-07
-1.80299e-06 7.85198e-07 -5.7213e-05
-0.0037564 -2.78007e-05 0.000111589
-2.78007e-05 -0.00175787 2.89793e-06
0.000111589 2.89793e-06 -0.00154239
0.00865338 -7.06109e-05 -2.90279e-05
-7.06109e-05 0.00286483 -7.68841e-07
-2.90279e-05 -7.68841e-07 0.00227686
0.0008951 4.71297e-05 2.36036e-06
4.71297e-05 0.000145895 1.76289e-07
2.36036e-06 1.76289e-07 4.01802e-05
0.000767945 0.000133476 4.17704e-06
0.000133476 7.97898e-05 -1.03439e-07
4.17704e-06 -1.03439e-07 -6.63371e-05
0.00180493 0.000157865 9.16078e-06
0.000157865 3.74753e-05 7.62167e-06
9.16078e-06 7.62167e-06 6.30705e-05
0.00209164 0.0003523 4.98787e-06
0.0003523 0.000242985 1.88555e-06
4.98787e-06 1.88555e-06 0.000108792
0.00106017 0.0002018 6.99819e-06
0.0002018 0.000122128 1.74022e-06
6.99819e-06 1.74022e-06 -9.90046e-05
0.00592248 0.000239995 6.63897e-05
0.000239995 0.0013599 3.21316e-06
6.63897e-05 3.21316e-06 0.00039317
0.00575095 0.00030775 -9.42088e-05
0.00030775 0.00118428 -2.71598e-05
-9.42088e-05 -2.71598e-05 0.000521465
-0.000138437 0.000140975 3.69439e-06
0.000140975 -0.00071688 -2.01026e-05
3.69439e-06 -2.01026e-05 -0.000840182
0.00444027 -0.000617562 7.93306e-06
-0.000617562 0.00221983 2.2264e-05
7.93306e-06 2.2264e-05 0.00208097
-0.00404346 -0.000795276 -6.42046e-05
-0.000795276 -0.00299853 -7.26065e-05
-6.42046e-05 -7.26065e-05 -0.00129431
0.000959555 0.000111672 2.20083e-07
0.000111672 0.000199294 -7.75186e-07
2.20083e-07 -7.75186e-07 8.87868e-05
-0.0024368 -0.000203098 3.25333e-05
-0.000203098 -0.00139099 4.0033e-06
3.25333e-05 4.0033e-06 -0.00141425
-0.000723519 -0.000312528 -3.78769e-05
-0.000312528 3.4538e-05 -1.44064e-05
-3.78769e-05 -1.44064e-05 -0.000189388
0.00249194 0.000248435 -4.35364e-06
0.000248435 0.000427266 -2.77207e-06
-4.35364e-06 -2.77207e-06 0.000461412
0.000884146 0.00011431 -1.06945e-06
0.00011431 0.000167338 -6.05276e-07
-1.06945e-06 -6.05276e-07 8.69612e-07
0.000650849 0.000237253 2.4948e-06
0.000237253 -0.000146682 1.729e-06
2.4948e-06 1.729e-06 -0.000366705
0.000496757 0.000175147 1.16947e-05
0.000175147 -0.000334686 1.01366e-05
1.16947e-05 1.01366e-05 -0.000293328
0.00622017 8.46637e-06 -1.01288e-05
8.46637e-06 0.00178225 -7.47319e-06
-1.01288e-05 -7.47319e-06 0.000291856
0.00639178 0.00059297 -3.72661e-05
0.00059297 0.00167703 -1.75363e-05
-3.72661e-05 -1.75363e-05 0.000908976
0.00539627 -0.000853024 2.54598e-05
-0.000853024 0.00236165 -1.81609e-05
2.54598e-05 -1.81609e-05 0.00245046
0.00121452 -0.000492704 3.40685e-05
-0.000492704 -0.00177372 7.59712e-05
3.40685e-05 7.59712e-05 -0.00056773
0.00100096 6.7109e-05 -7.92091e-06
6.7109e-05 0.000242671 -6.53027e-06
-7.92091e-06 -6.53027e-06 0.000148661
-0.00254678 -7.36768e-05 -7.36066e-05
-7.36768e-05 -0.000253917 -2.1527e-05
-7.36066e-05 -2.1527e-05 -0.00103271
0.00199883 6.18241e-06 -6.92865e-05
6.18241e-06 0.000325408 -7.71342e-05
-6.92865e-05 -7.71342e-05 -0.000376802
0.000268009 0.000221721 -2.42277e-05
0.000221721 -0.00041333 8.96336e-07
-2.42277e-05 8.96336e-07 -0.000403349
0.00156894 0.000267796 -3.07308e-05
0.000267796 0.000592025 -8.30864e-06
-3.07308e-05 -8.30864e-06 0.000410739
0.00267167 0.000171629 -5.44382e-05
0.000171629 0.00107646 -1.15882e-06
-5.44382e-05 -1.15882e-06 0.000928977
0.00394247 0.000632017 -7.84251e-05
0.000632017 0.000588767 3.42779e-06
-7.84251e-05 3.42779e-06 0.000212973
-0.00107201 2.95773e-05 5.86569e-05
2.95773e-05 -0.000965597 5.11274e-05
5.86569e-05 5.11274e-05 -0.00294826
0.00657018 -0.000776737 -4.47413e-05
-0.000776737 0.00164868 4.19353e-05
-4.47413e-05 4.19353e-05 0.00173284
0.0018435 -0.000292163 -1.0037e-05
-0.000292163 -0.00194011 -1.8877e-05
-1.0037e-05 -1.8877e-05 -0.000754041
0.000925597 2.79083e-05 1.53054e-06
2.79083e-05 0.000147029 2.72721e-06
1.53054e-06 2.72721e-06 6.03951e-05
0.00111375 6.07756e-05 2.07996e-06
6.07756e-05 0.000243103 1.93848e-06
2.07996e-06 1.93848e-06 0.000173198
0.00055773 5.25823e-05 -3.98759e-07
5.25823e-05 -5.68911e-05 -7.88844e-06
-3.98759e-07 -7.88844e-06 -0.000104068
0.000648293 4.16911e-05 4.88471e-07
4.16911e-05 -3.36093e-05 8.76301e-08
4.88471e-07 8.76301e-08 -9.55421e-05
0.000893524 3.71729e-05 -8.06315e-07
3.71729e-05 0.000112045 -3.08153e-07
-8.06315e-07 -3.08153e-07 3.17806e-05
0.000874505 -2.25041e-05 -4.3031e-07
-2.25041e-05 8.93627e-05 7.16099e-07
-4.3031e-07 7.16099e-07 1.54817e-05
0.000863702 -2.11806e-05 -4.71164e-07
-2.11806e-05 8.15334e-05 2.27456e-07
-4.71164e-07 2.27456e-07 8.16649e-06
0.000805591 -1.32271e-05 -6.15236e-07
-1.32271e-05 4.74754e-05 2.51082e-06
-6.15236e-07 2.51082e-06 -2.00938e-05
0.000872865 2.97054e-05 2.67733e-07
2.97054e-05 9.88221e-05 -5.07754e-07
2.67733e-07 -5.07754e-07 1.91694e-05
0.000907378 -1.42933e-05 -1.20874e-07
-1.42933e-05 9.82821e-05 4.14035e-07
-1.20874e-07 4.14035e-07 2.72639e-05
0.000905079 -3.3251e-05 4.27554e-08
-3.3251e-05 0.000104629 3.29439e-07
4.27554e-08 3.29439e-07 2.47344e-05
0.000663346 4.08653e-06 1.75287e-08
4.08653e-06 -3.1512e-05 -4.91493e-07
1.75287e-08 -4.91493e-07 -9.12513e-05
0.00078048 -2.30096e-05 1.88635e-06
-2.30096e-05 4.98763e-05 -4.64214e-06
1.88635e-06 -4.64214e-06 9.94106e-07
0.000897711 -2.97648e-05 1.7618e-07
-2.97648e-05 8.87239e-05 -3.19163e-06
1.7618e-07 -3.19163e-06 1.73238e-05
0.000923724 2.72649e-06 6.26322e-08
2.72649e-06 0.00012377 -1.05447e-06
6.26322e-08 -1.05447e-06 3.55496e-05
0.000884704 -3.7454e-05 6.74918e-08
-3.7454e-05 0.000107671 -1.69321e-07
6.74918e-08 -1.69321e-07 2.84272e-05
0.000897025 1.27502e-05 -3.51574e-07
1.27502e-05 0.000101867 7.71533e-07
-3.51574e-07 7.71533e-07 3.0179e-05
0.000869522 -1.31608e-05 2.90283e-07
-1.31608e-05 9.22302e-05 -3.32472e-07
2.90283e-07 -3.32472e-07 1.04027e-05
0.000822707 4.29526e-05 -4.45214e-08
4.29526e-05 6.84771e-05 4.5059e-08
-4.45214e-08 4.5059e-08 -3.82939e-06
0.000793058 1.16019e-05 -2.1964e-07
1.16019e-05 4.46426e-05 3.40656e-07
-2.1964e-07 3.40656e-07 -2.40547e-05
0.000770935 5.71937e-05 8.41301e-07
5.71937e-05 4.85661e-05 -2.09604e-07
8.41301e-07 -2.09604e-07 -2.42355e-05
0.000723398 2.60016e-05 -1.5447e-07
2.60016e-05 1.25102e-05 -1.95625e-06
-1.5447e-07 -1.95625e-06 -6.65673e-05
0.000771666 2.44321e-05 9.08686e-07
2.44321e-05 3.59431e-05 -1.20233e-06
9.08686e-07 -1.20233e-06 -3.08603e-05
0.000810851 2.62347e-05 2.50954e-06
2.62347e-05 7.22606e-05 -1.2691e-06
2.50954e-06 -1.2691e-06 -1.34119e-05
0.000477331 -3.03694e-05 4.92712e-07
-3.03694e-05 -6.97834e-05 -1.55778e-07
4.92712e-07 -1.55778e-07 -0.000194244
0.000489914 3.27672e-05 6.45536e-07
3.27672e-05 -8.64104e-05 -1.90568e-09
6.45536e-07 -1.90568e-09 -0.0001743
0.000783067 4.45889e-05 4.64249e-07
4.45889e-05 6.64214e-05 4.85134e-07
4.64249e-07 4.85134e-07 -1.21714e-05
0.000755174 4.54017e-05 6.11009e-07
4.54017e-05 4.24047e-05 3.52526e-07
6.11009e-07 3.52526e-07 -2.56863e-05
0.000788614 1.33274e-05 -2.99567e-07
1.33274e-05 5.77116e-05 -7.95927e-08
-2.99567e-07 -7.95927e-08 -9.55895e-06
0.000754957 2.81285e-05 -7.4077e-07
2.81285e-05 2.39704e-05 1.86035e-07
-7.4077e-07 1.86035e-07 -2.96957e-05
0.000806438 1.08333e-05 6.16722e-07
1.08333e-05 6.4251e-05 4.99836e-07
6.16722e-07 4.99836e-07 -4.37343e-06
0.000784532 -4.41782e-06 -1.46625e-07
-4.41782e-06 3.85376e-05 2.11224e-08
-1.46625e-07 2.11224e-08 -1.64768e-05
0.000748355 2.23323e-05 -1.05106e-06
2.23323e-05 6.45488e-06 1.48312e-06
-1.05106e-06 1.48312e-06 -2.94739e-05
0.000701532 -2.02473e-05 8.254e-07
-2.02473e-05 -9.3392e-06 -2.2552e-07
8.254e-07 -2.2552e-07 -6.61077e-05
0.000746305 1.21842e-05 -7.01906e-08
1.21842e-05 3.91789e-06 6.71091e-09
-7.01906e-08 6.71091e-09 -3.20961e-05
0.00134341 2.27333e-05 -4.93708e-06
2.27333e-05 0.000331412 4.61495e-06
-4.93708e-06 4.61495e-06 0.000327488
0.000737517 1.97768e-06 8.1144e-07
1.97768e-06 -4.69844e-07 -1.37322e-06
8.1144e-07 -1.37322e-06 -3.67783e-05
0.00102282 1.49797e-05 -2.30265e-06
1.49797e-05 0.000148851 6.92195e-07
-2.30265e-06 6.92195e-07 0.000143641
0.000865064 1.23031e-05 -5.48155e-07
1.23031e-05 6.20004e-05 1.67581e-06
-5.48155e-07 1.67581e-06 7.50497e-05
0.000690568 7.35966e-06 2.78378e-07
7.35966e-06 -3.96224e-05 -3.29945e-06
2.78378e-07 -3.29945e-06 -4.61544e-05
0.00219311 9.25807e-06 2.63292e-06
9.25807e-06 0.000805147 2.42849e-08
2.63292e-06 2.42849e-08 0.000825015
0.00219229 7.48874e-07 6.02341e-07
7.48874e-07 0.000803982 -4.5512e-06
6.02341e-07 -4.5512e-06 0.000824019
0.00105379 4.77304e-05 -1.17914e-06
4.77304e-05 0.000199656 -7.41627e-07
-1.17914e-06 -7.41627e-07 0.000142845
0.00075464 -1.20209e-06 -2.91718e-07
-1.20209e-06 1.0807e-05 -1.78505e-06
-2.91718e-07 -1.78505e-06 -2.09286e-05
0.000767765 4.23993e-06 6.98699e-07
4.23993e-06 4.50855e-05 6.02845e-07
6.98699e-07 6.02845e-07 -1.34271e-05
0.00070332 -5.1018e-07 -1.25064e-07
-5.1018e-07 -3.41475e-05 -3.401e-06
-1.25064e-07 -3.401e-06 -3.70339e-05
0.000749045 6.77171e-07 1.32029e-07
6.77171e-07 8.2182e-06 -1.30358e-08
1.32029e-07 -1.30358e-08 -2.29227e-05
0.000744968 2.03156e-06 -3.03559e-07
2.03156e-06 6.33257e-06 1.71975e-06
-3.03559e-07 1.71975e-06 -2.5334e-05
0.00070479 6.10434e-06 -1.57047e-07
6.10434e-06 -3.27121e-05 3.65395e-09
-1.57047e-07 3.65395e-09 -3.60342e-05
0.00207168 8.39282e-06 3.94322e-06
8.39282e-06 0.000737132 -4.49298e-06
3.94322e-06 -4.49298e-06 0.000758387
0.00128313 1.65599e-05 -6.8656e-07
1.65599e-05 0.000293102 2.06514e-06
-6.8656e-07 2.06514e-06 0.000291951
0.00149134 1.57038e-05 2.22663e-06
1.57038e-05 0.000413835 6.12573e-08
2.22663e-06 6.12573e-08 0.000431072
0.000952839 1.88216e-05 -1.46212e-05
1.88216e-05 0.000115838 7.04999e-06
-1.46212e-05 7.04999e-06 0.000128792
-0.00609328 0.000130114 6.80549e-05
0.000130114 -0.00296249 -2.80577e-06
6.80549e-05 -2.80577e-06 -0.00315712
-0.0014139 0.000232795 4.02298e-05
0.000232795 -0.000201125 1.89788e-05
4.02298e-05 1.89788e-05 -0.000411329
0.00329313 3.83639e-05 -0.000145458
3.83639e-05 0.000615802 -9.51547e-08
-0.000145458 -9.51547e-08 0.000266023
0.00178903 -7.36405e-06 2.53319e-05
-7.36405e-06 2.85272e-05 2.87435e-06
2.53319e-05 2.87435e-06 -2.0021e-05
0.00161884 -1.8557e-05 6.57134e-06
-1.8557e-05 -0.000147264 8.98692e-07
6.57134e-06 8.98692e-07 -0.000182672
0.00108986 2.7306e-06 2.61871e-05
2.7306e-06 -0.000343684 -1.0173e-06
2.61871e-05 -1.0173e-06 -0.000513908
0.00212884 -3.97069e-05 -3.74211e-07
-3.97069e-05 0.000161189 1.02418e-06
-3.74211e-07 1.02418e-06 0.000114889
0.00607555 0.000195299 -1.05101e-05
0.000195299 0.00146643 -1.79485e-05
-1.05101e-05 -1.79485e-05 0.000655251
-0.00380476 0.000285545 -2.27434e-05
0.000285545 -0.00149006 -5.63297e-07
-2.27434e-05 -5.63297e-07 -0.00176798
-0.00107916 0.000748518 -1.81979e-05
0.000748518 -0.00118414 6.3533e-06
-1.81979e-05 6.3533e-06 0.000216186
0.00208721 -0.000127442 6.66987e-05
-0.000127442 9.29527e-05 8.07563e-06
6.66987e-05 8.07563e-06 -0.00015579
0.00724626 0.000263238 1.90115e-05
0.000263238 0.00235516 -4.36498e-06
1.90115e-05 -4.36498e-06 0.00115377
0.000204207 0.000592532 -3.91412e-06
0.000592532 -0.000427282 -4.54783e-05
-3.91412e-06 -4.54783e-05 6.56823e-05
0.00380987 0.000539267 -6.73996e-05
0.000539267 -4.37908e-05 4.77896e-05
-6.73996e-05 4.77896e-05 0.000834637
0.000784241 5.48405e-05 -6.29601e-07
5.48405e-05 7.15225e-05 -1.03827e-07
-6.29601e-07 -1.03827e-07 -2.0332e-05
0.000687565 6.00877e-06 -2.10039e-07
6.00877e-06 5.77287e-06 -4.05041e-07
-2.10039e-07 -4.05041e-07 -6.46185e-05
0.000773414 -6.11693e-05 -8.72722e-07
-6.11693e-05 4.94961e-05 1.05877e-06
-8.72722e-07 1.05877e-06 -9.36242e-06
0.000692311 -2.25367e-07 1.54177e-07
-2.25367e-07 1.46117e-05 6.3508e-07
1.54177e-07 6.3508e-07 -6.16855e-05
0.00078166 5.07997e-05 7.6223e-07
5.07997e-05 7.49841e-05 9.61032e-07
7.6223e-07 9.61032e-07 -1.27319e-05
0.000878795 4.89468e-05 -5.7569e-07
4.89468e-05 0.000118118 3.06881e-07
-5.7569e-07 3.06881e-07 2.95274e-05
0.000844568 6.39727e-05 1.48216e-06
6.39727e-05 9.9805e-05 1.17521e-06
1.48216e-06 1.17521e-06 1.43538e-05
0.000769386 -1.32219e-05 8.63299e-07
-1.32219e-05 4.82512e-05 6.0831e-08
8.63299e-07 6.0831e-08 -2.82538e-05
0.000764092 -2.22397e-05 4.01043e-07
-2.22397e-05 5.33103e-05 -6.60373e-07
4.01043e-07 -6.60373e-07 -2.33296e-05
0.000679988 -1.54616e-05 1.34978e-07
-1.54616e-05 1.17823e-06 8.38106e-07
1.34978e-07 8.38106e-07 -6.92747e-05
0.000798912 -8.73792e-05 2.2251e-06
-8.73792e-05 -0.000566915 -3.77196e-06
2.2251e-06 -3.77196e-06 -0.000613587
0.0015658 -0.000225467 6.36567e-06
-0.000225467 -0.00014395 1.22942e-06
6.36567e-06 1.22942e-06 -0.000191475
3.03148e-05 -0.000196264 5.76753e-06
-0.000196264 -0.000736274 3.26869e-06
5.76753e-06 3.26869e-06 -0.000847798
0.00162002 -0.000252004 1.68963e-06
-0.000252004 0.000447333 1.02802e-06
1.68963e-06 1.02802e-06 0.000239053
0.00129489 -7.41783e-05 1.4678e-06
-7.41783e-05 0.000392361 -1.12898e-06
1.4678e-06 -1.12898e-06 0.000208218
0.00105363 -4.5383e-05 -2.64091e-07
-4.5383e-05 0.0002317 -8.09503e-07
-2.64091e-07 -8.09503e-07 0.000118784
0.000888404 -2.74171e-05 -1.07806e-06
-2.74171e-05 0.000124465 -1.18773e-07
-1.07806e-06 -1.18773e-07 3.39972e-05
0.000819408 3.92664e-05 -1.1729e-06
3.92664e-05 9.31958e-05 5.29097e-07
-1.1729e-06 5.29097e-07 1.52044e-06
0.00183691 -0.00014447 -3.10934e-06
-0.00014447 0.000127725 1.76876e-06
-3.10934e-06 1.76876e-06 6.02963e-05
0.00072715 -3.46295e-05 -7.97258e-08
-3.46295e-05 3.87534e-05 5.49254e-08
-7.97258e-08 5.49254e-08 -5.81034e-05
0.000806673 -3.51222e-05 4.52125e-07
-3.51222e-05 8.50799e-05 -4.68927e-07
4.52125e-07 -4.68927e-07 -1.53009e-05
0.0019523 -0.000288379 3.81462e-06
-0.000288379 0.000119189 -2.1951e-06
3.81462e-06 -2.1951e-06 9.77508e-05
0.000193706 -0.000217802 1.46723e-06
-0.000217802 -0.000457441 1.27901e-06
1.46723e-06 1.27901e-06 -0.000598572
0.00116007 -0.000149519 2.7688e-06
-0.000149519 0.000253998 -1.62964e-06
2.7688e-06 -1.62964e-06 4.72939e-05
0.00101574 -4.41669e-05 -6.66999e-07
-4.41669e-05 0.000224447 -6.48262e-07
-6.66999e-07 -6.48262e-07 8.17325e-05
0.00177278 -0.000224463 2.36573e-06
-0.000224463 0.000401565 -5.31301e-06
2.36573e-06 -5.31301e-06 0.000192717
0.00166108 -0.000248659 -1.66715e-05
-0.000248659 0.000295984 1.37985e-06
-1.66715e-05 1.37985e-06 0.000226406
0.000500179 -2.47918e-05 -1.24057e-05
-2.47918e-05 -2.71934e-05 1.18207e-05
-1.24057e-05 1.18207e-05 -0.00020772
0.000799211 2.85181e-05 6.41538e-07
2.85181e-05 7.503e-05 8.78842e-07
6.41538e-07 8.78842e-07 -2.02339e-05
0.0006417 -7.5527e-05 1.36186e-06
-7.5527e-05 -1.17767e-05 1.42866e-07
1.36186e-06 1.42866e-07 -0.000111889
0.000837597 -2.24648e-05 7.32786e-07
-2.24648e-05 9.08533e-05 1.56903e-06
7.32786e-07 1.56903e-06 -9.92307e-06
0.00091097 1.53294e-05 -8.93219e-05
1.53294e-05 0.00156998 -1.30463e-06
-8.93219e-05 -1.30463e-06 0.00110898
0.00188089 -0.000105155 1.39925e-05
-0.000105155 0.00125331 6.45957e-06
1.39925e-05 6.45957e-06 0.00110622
-9.61596e-05 0.00027715 -5.23757e-05
0.00027715 -0.00188411 2.21918e-05
-5.23757e-05 2.21918e-05 -0.00246243
0.000769592 9.72569e-05 3.81179e-06
9.72569e-05 9.7377e-05 1.7918e-06
3.81179e-06 1.7918e-06 -1.03323e-05
0.0007937 0.000132884 7.29895e-06
0.000132884 0.000134971 2.69043e-06
7.29895e-06 2.69043e-06 -3.28156e-05
0.00269733 0.000241137 1.21073e-05
0.000241137 0.000515246 3.58743e-06
1.21073e-05 3.58743e-06 0.000557277
0.000478107 0.000165568 1.23824e-05
0.000165568 -0.00020734 5.89681e-06
1.23824e-05 5.89681e-06 -0.000420753
0.00419699 -0.000337217 4.12337e-05
-0.000337217 0.00180532 1.68431e-05
4.12337e-05 1.68431e-05 0.00186653
-0.000308766 -0.000144801 -2.45113e-05
-0.000144801 -0.00145505 3.72429e-06
-2.45113e-05 3.72429e-06 -0.00269388
0.00361827 0.000495703 -7.14267e-05
0.000495703 6.52219e-05 -4.23496e-05
-7.14267e-05 -4.23496e-05 -0.000783628
0.000317978 9.90521e-05 2.56493e-05
9.90521e-05 -0.000348902 -1.59063e-05
2.56493e-05 -1.59063e-05 -0.000306023
-0.00327816 -0.000381766 1.05842e-05
-0.000381766 -0.00144638 -6.46359e-06
1.05842e-05 -6.46359e-06 -0.00153532
0.00083316 -0.000344684 1.97789e-05
-0.000344684 0.000542616 2.43749e-05
1.97789e-05 2.43749e-05 0.000315939
0.00469364 -0.000609457 7.74919e-05
-0.000609457 7.54815e-05 6.05975e-05
7.74919e-05 6.05975e-05 0.00137583
0.000827859 7.45605e-05 1.49326e-06
7.45605e-05 0.000157109 -1.73436e-06
1.49326e-06 -1.73436e-06 5.91712e-05
-0.000316812 -0.000124135 -3.04772e-05
-0.000124135 0.000673815 -1.05119e-05
-3.04772e-05 -1.05119e-05 0.000134739
0.00224277 8.77448e-06 -2.48841e-06
8.77448e-06 0.000457015 -1.68868e-05
-2.48841e-06 -1.68868e-05 -0.000268982
0.000794611 0.000184838 -7.12748e-06
0.000184838 -8.27003e-05 2.42217e-06
-7.12748e-06 2.42217e-06 -0.000126421
0.000670225 0.00013145 -7.67179e-07
0.00013145 0.0001461 1.04354e-06
-7.67179e-07 1.04354e-06 -4.09732e-05
0.000211429 0.000140995 2.98075e-05
0.000140995 -0.000175622 -1.90435e-05
2.98075e-05 -1.90435e-05 -0.000273056
0.00572379 0.000806879 -1.89589e-05
0.000806879 0.00154599 -1.71449e-07
-1.89589e-05 -1.71449e-07 0.000825739
0.00832461 -0.000217277 3.67943e-05
-0.000217277 0.00315213 1.17561e-05
3.67943e-05 1.17561e-05 0.00159888
0.00190384 -0.000493211 1.58079e-06
-0.000493211 -0.000944079 -7.91925e-06
1.58079e-06 -7.91925e-06 -0.000671569
0.0055594 -0.000386975 5.28149e-06
-0.000386975 0.000499794 -8.1304e-06
5.28149e-06 -8.1304e-06 0.00160917
0.000873363 0.000108532 -1.35923e-05
0.000108532 0.00023306 -9.81868e-06
-1.35923e-05 -9.81868e-06 0.000158943
0.00175484 -4.78551e-05 -5.99423e-05
-4.78551e-05 0.000215716 -2.72206e-05
-5.99423e-05 -2.72206e-05 -0.000284935
0.00139769 1.09385e-05 -1.60619e-05
1.09385e-05 0.000193531 -4.42089e-05
-1.60619e-05 -4.42089e-05 -0.000440569
-0.000954731 -7.43061e-06 -2.42921e-05
-7.43061e-06 -0.000543594 -1.61493e-05
-2.42921e-05 -1.61493e-05 -0.000655318
0.00278981 0.000338799 -3.25571e-06
0.000338799 0.000732634 5.48609e-05
-3.25571e-06 5.48609e-05 0.000269065
0.00800736 -3.08704e-05 2.10818e-05
-3.08704e-05 0.00284203 5.41004e-06
2.10818e-05 5.41004e-06 0.00106123
-0.00562618 -0.000435011 -5.39113e-05
-0.000435011 -0.0038043 8.75252e-06
-5.39113e-05 8.75252e-06 -0.0046003
0.00492072 8.55429e-05 -3.15188e-06
8.55429e-05 -0.00031532 -6.4738e-05
-3.15188e-06 -6.4738e-05 0.000985198
0.00103456 6.06527e-05 2.49847e-06
6.06527e-05 0.000200997 5.53928e-06
2.49847e-06 5.53928e-06 0.000128601
0.0008251 6.92715e-05 -2.56985e-06
6.92715e-05 8.90566e-05 -5.1069e-07
-2.56985e-06 -5.1069e-07 4.12522e-05
0.000781193 5.31614e-05 -1.00293e-06
5.31614e-05 9.20794e-05 -5.41768e-06
-1.00293e-06 -5.41768e-06 5.31204e-05
0.00088506 6.52995e-05 -1.37664e-06
6.52995e-05 9.94585e-05 -3.83047e-07
-1.37664e-06 -3.83047e-07 2.37346e-05
0.000925315 -2.94964e-05 -1.67908e-07
-2.94964e-05 0.000120794 1.30958e-06
-1.67908e-07 1.30958e-06 3.7424e-05
0.00096742 -4.96315e-06 -7.17326e-07
-4.96315e-06 0.000131763 1.77957e-06
-7.17326e-07 1.77957e-06 6.0409e-05
0.000599714 -7.28552e-06 -5.90201e-07
-7.28552e-06 -6.04983e-05 3.76884e-06
-5.90201e-07 3.76884e-06 -0.000118498
0.00089455 9.65579e-06 4.76178e-07
9.65579e-06 9.89807e-05 3.051e-08
4.76178e-07 3.051e-08 1.71465e-05
0.000872533 -1.31025e-05 -1.70911e-07
-1.31025e-05 7.59874e-05 -2.26999e-07
-1.70911e-07 -2.26999e-07 4.12694e-06
0.000678582 -1.82224e-05 7.46471e-08
-1.82224e-05 -3.58114e-06 9.58353e-07
7.46471e-08 9.58353e-07 -5.2351e-05
0.000561912 -2.44294e-05 -2.83951e-07
-2.44294e-05 -1.78927e-05 -4.2515e-06
-2.83951e-07 -4.2515e-06 -4.97558e-05
0.000991448 -2.43623e-05 3.3544e-06
-2.43623e-05 0.000149517 -5.71028e-06
3.3544e-06 -5.71028e-06 9.53946e-05
0.000804172 3.5191e-05 4.44571e-07
3.5191e-05 4.89242e-05 -2.091e-06
4.44571e-07 -2.091e-06 -3.15789e-05
0.000884945 -4.49849e-05 1.01476e-06
-4.49849e-05 9.45745e-05 6.26414e-07
1.01476e-06 6.26414e-07 1.6445e-05
0.000800992 4.70463e-05 -6.1298e-08
4.70463e-05 5.52625e-05 6.2162e-07
-6.1298e-08 6.2162e-07 -1.6469e-05
0.000845695 4.92332e-06 -6.64341e-07
4.92332e-06 7.43724e-05 1.7457e-06
-6.64341e-07 1.7457e-06 6.17455e-06
0.000765667 2.10272e-05 2.90879e-07
2.10272e-05 3.14473e-05 2.834e-07
2.90879e-07 2.834e-07 -4.41089e-05
0.000792547 5.38551e-05 1.79457e-07
5.38551e-05 6.10835e-05 2.45465e-07
1.79457e-07 2.45465e-07 -1.21274e-05
0.000838797 3.82349e-05 -2.38264e-07
3.82349e-05 7.36734e-05 -2.12794e-09
-2.38264e-07 -2.12794e-09 5.85579e-06
0.000847792 4.01637e-05 1.53833e-06
4.01637e-05 8.35436e-05 -6.88235e-07
1.53833e-06 -6.88235e-07 1.09773e-05
0.000730049 2.04659e-05 1.38463e-06
2.04659e-05 2.54469e-05 -2.11843e-06
1.38463e-06 -2.11843e-06 -3.84691e-05
0.000670583 -5.39587e-05 1.35824e-06
-5.39587e-05 2.87868e-06 -6.24043e-07
1.35824e-06 -6.24043e-07 -8.78917e-05
0.000898006 1.09032e-05 -9.39517e-07
1.09032e-05 0.000122255 -1.83194e-07
-9.39517e-07 -1.83194e-07 3.53973e-05
0.000653841 -4.26582e-05 1.88152e-06
-4.26582e-05 1.75435e-05 1.17655e-06
1.88152e-06 1.17655e-06 -9.64406e-05
0.00105325 -0.000146486 -1.38535e-06
-0.000146486 0.000215837 3.19716e-06
-1.38535e-06 3.19716e-06 6.28849e-05
0.00113076 -2.98559e-05 1.23852e-06
-2.98559e-05 0.000271755 -5.68454e-07
1.23852e-06 -5.68454e-07 0.000168989
0.00060411 -4.78757e-05 -2.0969e-07
-4.78757e-05 3.12446e-06 -2.63211e-06
-2.0969e-07 -2.63211e-06 -0.000119742
0.000754663 3.45918e-05 -6.07029e-07
3.45918e-05 5.74149e-05 -5.51803e-07
-6.07029e-07 -5.51803e-07 -2.87702e-05
0.00054084 3.77648e-05 1.04493e-06
3.77648e-05 -7.01313e-05 5.90587e-07
1.04493e-06 5.90587e-07 -0.000145683
0.000833979 3.48222e-05 -6.99269e-07
3.48222e-05 9.34973e-05 1.37527e-07
-6.99269e-07 1.37527e-07 1.52983e-05
0.000797579 1.25481e-05 -2.72076e-07
1.25481e-05 6.71436e-05 3.46938e-07
-2.72076e-07 3.46938e-07 -2.31292e-06
0.000739763 3.79343e-05 -6.36215e-07
3.79343e-05 1.88479e-05 3.48669e-07
-6.36215e-07 3.48669e-07 -3.59603e-05
0.000824543 -1.47525e-05 2.66508e-07
-1.47525e-05 8.25815e-05 1.88366e-07
2.66508e-07 1.88366e-07 1.15486e-05
0.000776432 -1.50685e-06 -4.59088e-07
-1.50685e-06 3.72425e-05 2.75093e-08
-4.59088e-07 2.75093e-08 -1.76929e-05
0.000740826 2.85417e-05 -1.27393e-06
2.85417e-05 5.63089e-06 1.46056e-06
-1.27393e-06 1.46056e-06 -3.06372e-05
0.000806378 -2.8357e-05 1.33283e-06
-2.8357e-05 5.2506e-05 -2.04399e-07
1.33283e-06 -2.04399e-07 -3.88432e-06
0.000749439 1.81893e-05 -1.55518e-07
1.81893e-05 6.45318e-06 8.63196e-09
-1.55518e-07 8.63196e-09 -2.92363e-05
0.00132799 3.04771e-05 -6.781e-06
3.04771e-05 0.000326774 4.5316e-06
-6.781e-06 4.5316e-06 0.000322401
0.000742618 7.98214e-06 1.18693e-06
7.98214e-06 1.44019e-06 -1.40979e-06
1.18693e-06 -1.40979e-06 -3.43996e-05
0.00101423 2.19507e-05 -3.0962e-06
2.19507e-05 0.000146935 6.56315e-07
-3.0962e-06 6.56315e-07 0.000141482
0.000862675 1.90125e-05 -1.03619e-06
1.90125e-05 6.4689e-05 1.67915e-06
-1.03619e-06 1.67915e-06 7.71226e-05
0.000682878 1.34628e-05 4.58004e-07
1.34628e-05 -4.21964e-05 -3.30342e-06
4.58004e-07 -3.30342e-06 -4.8939e-05
0.00152662 1.66797e-05 4.88734e-06
1.66797e-05 0.000433139 -1.34672e-06
4.88734e-06 -1.34672e-06 0.00044938
0.00220033 1.06712e-05 4.88073e-06
1.06712e-05 0.000809562 -4.48114e-06
4.88073e-06 -4.48114e-06 0.000829321
0.000838339 -1.91644e-05 5.89072e-07
-1.91644e-05 7.54546e-05 -6.19814e-07
5.89072e-07 -6.19814e-07 1.74894e-05
0.000759775 -5.63617e-06 -2.36196e-07
-5.63617e-06 1.36991e-05 -1.80834e-06
-2.36196e-07 -1.80834e-06 -1.92328e-05
0.000826247 -2.52379e-06 4.67349e-07
-2.52379e-06 7.27297e-05 1.41427e-07
4.67349e-07 1.41427e-07 1.56485e-05
0.000705105 -6.78737e-06 -3.01241e-07
-6.78737e-06 -3.25601e-05 -3.41353e-06
-3.01241e-07 -3.41353e-06 -3.58254e-05
0.000751435 -2.44202e-06 -8.63617e-08
-2.44202e-06 9.11632e-06 -1.9802e-08
-8.63617e-08 -1.9802e-08 -2.25804e-05
0.000766603 -4.5187e-05 -1.63974e-06
-4.5187e-05 4.04521e-05 1.53866e-06
-1.63974e-06 1.53866e-06 -1.51481e-05
0.00206699 -1.1362e-06 -2.98895e-07
-1.1362e-06 0.000734036 -4.50295e-06
-2.98895e-07 -4.50295e-06 0.000755475
0.000705813 -2.30367e-07 -8.82424e-08
-2.30367e-07 -3.27902e-05 -7.85317e-10
-8.82424e-08 -7.85317e-10 -3.5677e-05
0.000744846 -1.23617e-06 4.67902e-08
-1.23617e-06 5.81331e-06 1.71786e-06
4.67902e-08 1.71786e-06 -2.52977e-05
0.000708135 6.37932e-06 -5.84662e-08
6.37932e-06 -3.09196e-05 3.40585e-06
-5.84662e-08 3.40585e-06 -3.4271e-05
0.0020746 9.18528e-06 -2.76286e-06
9.18528e-06 0.000738968 -2.5583e-08
-2.76286e-06 -2.5583e-08 0.000760157
0.00210154 1.81538e-05 -1.10005e-05
1.81538e-05 0.000756046 4.37806e-06
-1.10005e-05 4.37806e-06 0.000776572
-0.00179441 3.89919e-05 -4.12791e-05
3.89919e-05 1.99446e-05 8.27685e-06
-4.12791e-05 8.27685e-06 -0.000629148
-0.00089459 0.000273311 -1.13178e-05
0.000273311 -0.000327171 5.21689e-06
-1.13178e-05 5.21689e-06 -0.000485558
0.00239025 2.12688e-05 -8.68766e-05
2.12688e-05 0.000331904 6.53686e-05
-8.68766e-05 6.53686e-05 -0.000299633
-0.00182851 0.000263928 8.28244e-05
0.000263928 -0.000225481 -3.41364e-05
8.28244e-05 -3.41364e-05 -0.000352742
0.00267506 0.000109563 -9.49961e-05
0.000109563 0.000335265 1.49365e-05
-9.49961e-05 1.49365e-05 4.4499e-05
0.00204665 -5.58889e-05 5.92614e-05
-5.58889e-05 0.000123341 -9.27417e-06
5.92614e-05 -9.27417e-06 7.4653e-05
0.00143823 -0.000311091 -8.47032e-05
-0.000311091 -0.000834774 -3.35373e-05
-8.47032e-05 -3.35373e-05 -0.00154571
0.00839644 0.000514457 4.22708e-05
0.000514457 0.00415462 -1.74015e-05
4.22708e-05 -1.74015e-05 0.00412238
-0.00420374 0.000815209 -6.37195e-05
0.000815209 -0.00314043 7.55559e-05
-6.37195e-05 7.55559e-05 -0.00131352
0.00153395 -1.0958e-05 -5.65885e-06
-1.0958e-05 -0.000316407 -4.3628e-06
-5.65885e-06 -4.3628e-06 -0.000552618
0.00235251 0.000104602 1.79881e-05
0.000104602 7.17997e-05 -2.1845e-05
1.79881e-05 -2.1845e-05 -0.00157362
0.00569372 0.000886877 -1.85076e-05
0.000886877 0.00182348 -2.57301e-05
-1.85076e-05 -2.57301e-05 0.00231492
0.00175141 0.00052944 -1.65719e-05
0.00052944 -0.00129299 3.63213e-05
-1.65719e-05 3.63213e-05 -0.000340498
0.00314369 -0.000216369 -3.3713e-05
-0.000216369 0.000330943 1.2436e-05
-3.3713e-05 1.2436e-05 -8.84186e-05
0.00432461 6.53594e-05 9.44424e-05
6.53594e-05 0.00146789 -5.90896e-05
9.44424e-05 -5.90896e-05 -0.00048921
-0.00566206 0.000226768 -7.09145e-05
0.000226768 -0.00441589 -6.05572e-05
-7.09145e-05 -6.05572e-05 -0.00413481
0.00135972 0.00033059 -2.18188e-05
0.00033059 -0.00244482 1.70409e-05
-2.18188e-05 1.70409e-05 -0.00129563
0.00086458 -1.83458e-05 1.07858e-06
-1.83458e-05 0.000113399 4.14637e-07
1.07858e-06 4.14637e-07 1.72792e-05
0.000839062 4.1276e-05 -1.62992e-06
4.1276e-05 0.000101405 -4.73198e-07
-1.62992e-06 -4.73198e-07 1.14573e-05
0.000792287 2.3891e-05 6.46678e-07
2.3891e-05 6.48095e-05 -1.23092e-07
6.46678e-07 -1.23092e-07 -5.36365e-06
0.000829464 5.84709e-05 1.81169e-06
5.84709e-05 0.000101744 1.38583e-06
1.81169e-06 1.38583e-06 1.45949e-05
0.000759422 1.95705e-05 -2.17853e-07
1.95705e-05 5.18286e-05 6.32319e-07
-2.17853e-07 6.32319e-07 -4.40626e-05
0.000901159 5.10118e-05 2.14224e-07
5.10118e-05 0.000131924 6.27668e-07
2.14224e-07 6.27668e-07 4.30551e-05
0.000784564 6.78914e-06 -1.60734e-07
6.78914e-06 6.35647e-05 1.51343e-06
-1.60734e-07 1.51343e-06 -1.97024e-05
0.000908147 7.95089e-05 -5.18126e-07
7.95089e-05 0.000136403 4.37968e-07
-5.18126e-07 4.37968e-07 4.88158e-05
0.000882957 3.86027e-05 -2.34085e-07
3.86027e-05 0.00012215 3.54998e-07
-2.34085e-07 3.54998e-07 3.84087e-05
0.000704597 -1.47498e-05 -1.02174e-06
-1.47498e-05 2.27413e-05 -1.34032e-07
-1.02174e-06 -1.34032e-07 -5.65533e-05
-0.000100554 -0.00010337 1.46523e-05
-0.00010337 -0.000903168 -9.43577e-06
1.46523e-05 -9.43577e-06 -0.000942701
0.00114025 -0.000263448 1.20116e-05
-0.000263448 -0.000295468 2.79677e-07
1.20116e-05 2.79677e-07 -0.000330385
0.000908455 -0.00025584 9.02893e-06
-0.00025584 -6.69571e-05 1.58106e-06
9.02893e-06 1.58106e-06 -0.000209529
0.00117424 -0.000147579 6.39707e-06
-0.000147579 0.000252333 -2.71266e-06
6.39707e-06 -2.71266e-06 4.68226e-05
0.00117176 -4.44758e-05 1.13227e-06
-4.44758e-05 0.000315457 -1.6073e-06
1.13227e-06 -1.6073e-06 0.000160584
0.000769562 -4.60319e-05 -8.68151e-07
-4.60319e-05 6.88371e-05 -3.74318e-07
-8.68151e-07 -3.74318e-07 -3.55336e-05
0.000799778 5.61919e-05 -2.69691e-07
5.61919e-05 8.13619e-05 -1.68433e-07
-2.69691e-07 -1.68433e-07 -1.84407e-05
0.000816771 -3.60433e-05 -2.53113e-07
-3.60433e-05 8.82487e-05 5.02552e-07
-2.53113e-07 5.02552e-07 -9.44782e-06
0.00123768 -0.000176193 1.64623e-06
-0.000176193 9.96181e-05 -4.41203e-07
1.64623e-06 -4.41203e-07 -3.70026e-05
0.000831029 6.03734e-06 -3.70231e-07
6.03734e-06 9.72898e-05 -3.44692e-07
-3.70231e-07 -3.44692e-07 -6.58976e-06
0.000961166 -3.73103e-05 1.78554e-07
-3.73103e-05 0.00016627 1.87244e-07
1.78554e-07 1.87244e-07 5.82837e-05
0.00143678 -0.000237751 -1.36688e-06
-0.000237751 0.000168253 2.29959e-07
-1.36688e-06 2.29959e-07 0.000111359
0.000984781 -4.95037e-05 -4.8164e-06
-4.95037e-05 0.000203932 2.35904e-06
-4.8164e-06 2.35904e-06 3.05304e-05
-0.000486071 -0.000212959 -7.19547e-07
-0.000212959 -0.000839323 -1.17165e-05
-7.19547e-07 -1.17165e-05 -0.000861709
0.00130234 -8.83717e-05 -1.47266e-05
-8.83717e-05 0.000421878 1.01984e-05
-1.47266e-05 1.01984e-05 0.00030949
0.000429609 1.76464e-05 -2.86342e-06
1.76464e-05 -0.000132074 9.85439e-06
-2.86342e-06 9.85439e-06 -0.000232655
0.000827505 -3.56709e-06 5.2726e-07
-3.56709e-06 7.68118e-05 5.42963e-07
5.2726e-07 5.42963e-07 -1.60663e-05
0.000771534 2.15315e-05 1.43768e-07
2.15315e-05 5.57831e-05 6.98103e-07
1.43768e-07 6.98103e-07 -5.15412e-05
0.00127152 -6.27533e-06 -2.71799e-05
-6.27533e-06 1.03042e-05 -4.43018e-06
-2.71799e-05 -4.43018e-06 -0.000398572
-0.000540334 -8.31295e-06 -4.05879e-05
-8.31295e-06 0.000846726 -1.60638e-06
-4.05879e-05 -1.60638e-06 0.000253931
-0.00636591 -0.000129628 -0.000121326
-0.000129628 -0.00315637 1.36905e-06
-0.000121326 1.36905e-06 -0.00316265
0.00067969 9.03492e-05 7.7331e-06
9.03492e-05 8.78659e-05 2.39849e-06
7.7331e-06 2.39849e-06 -1.65041e-05
-0.00018909 1.44605e-05 7.69722e-06
1.44605e-05 -0.000286263 3.22069e-06
7.69722e-06 3.22069e-06 -0.000478966
0.00126029 0.000137908 1.77211e-05
0.000137908 0.000192484 -9.49737e-07
1.77211e-05 -9.49737e-07 0.000125405
-0.00173823 -2.66918e-05 1.23045e-05
-2.66918e-05 1.18348e-05 7.26926e-06
1.23045e-05 7.26926e-06 -0.000667885
0.00338583 -0.000181692 -2.85419e-05
-0.000181692 0.00106031 -2.45335e-05
-2.85419e-05 -2.45335e-05 -0.000970826
0.00374766 0.000660582 4.65807e-05
0.000660582 0.000354653 -1.48784e-05
4.65807e-05 -1.48784e-05 -0.000166537
0.000515103 0.000150993 8.15887e-06
0.000150993 1.31004e-05 -3.16716e-06
8.15887e-06 -3.16716e-06 2.42011e-05
0.00651974 -0.000664103 3.15524e-05
-0.000664103 0.00183869 3.93888e-06
3.15524e-05 3.93888e-06 0.00186861
0.00250264 3.89113e-06 5.98671e-05
3.89113e-06 0.000643787 4.31233e-05
5.98671e-05 4.31233e-05 -0.00010511
0.00536284 -0.000347275 2.6569e-05
-0.000347275 0.000628305 1.18976e-05
2.6569e-05 1.18976e-05 0.00178043
0.000924758 0.000111384 6.27404e-07
0.000111384 0.000271633 -2.08761e-06
6.27404e-07 -2.08761e-06 0.000195155
0.00177979 -4.14595e-05 3.7414e-06
-4.14595e-05 0.000320524 -7.29384e-06
3.7414e-06 -7.29384e-06 -0.000131089
0.00159306 1.96464e-05 3.48878e-06
1.96464e-05 0.000195757 7.84584e-06
3.48878e-06 7.84584e-06 -0.000450709
0.000152498 9.60059e-05 -5.55303e-06
9.60059e-05 2.88861e-05 -7.31254e-08
-5.55303e-06 -7.31254e-08 -9.79265e-05
0.00293838 0.000429823 -3.20548e-05
0.000429823 0.000565632 -3.16326e-05
-3.20548e-05 -3.16326e-05 0.000189076
0.0033055 0.0004194 4.34479e-05
0.0004194 0.000594435 2.49018e-05
4.34479e-05 2.49018e-05 -0.00145885
0.00361418 2.7732e-05 -1.17963e-06
2.7732e-05 -0.00145433 -3.38375e-05
-1.17963e-06 -3.38375e-05 9.87862e-05
0.000505897 -0.000261339 -1.25876e-05
-0.000261339 -0.000667981 1.13401e-05
-1.25876e-05 1.13401e-05 -0.000981794
0.000804042 5.30557e-05 -4.01968e-06
5.30557e-05 0.000297785 -1.02956e-05
-4.01968e-06 -1.02956e-05 0.000237944
0.00126362 -3.12248e-05 -1.366e-05
-3.12248e-05 0.000132316 -1.81626e-05
-1.366e-05 -1.81626e-05 -5.27699e-05
0.00184833 7.3777e-06 5.83187e-06
7.3777e-06 9.30328e-05 -4.20266e-05
5.83187e-06 -4.20266e-05 -0.000484206
0.00141799 0.000325121 1.86733e-05
0.000325121 -0.0023481 -1.98404e-05
1.86733e-05 -1.98404e-05 -0.00128982
-0.00161597 1.36066e-05 3.08302e-06
1.36066e-05 -0.0007369 -1.09806e-05
3.08302e-06 -1.09806e-05 -0.00103429
0.00959904 0.00031333 8.67762e-05
0.00031333 0.00375753 3.8681e-05
8.67762e-05 3.8681e-05 0.00175198
-0.00503506 -0.000132511 2.90092e-05
-0.000132511 -0.000950782 1.37643e-05
2.90092e-05 1.37643e-05 -0.00173022
0.00122315 0.000102411 8.85587e-06
0.000102411 0.000304682 8.0231e-06
8.85587e-06 8.0231e-06 0.000255015
0.000793918 7.25339e-05 -2.96926e-06
7.25339e-05 0.000100658 1.23265e-06
-2.96926e-06 1.23265e-06 5.76369e-05
0.000423666 3.96702e-05 -7.18064e-06
3.96702e-05 -1.95077e-05 -7.30808e-06
-7.18064e-06 -7.30808e-06 -6.64113e-05
0.000868961 9.43023e-05 5.04745e-09
9.43023e-05 9.00576e-05 1.09272e-06
5.04745e-09 1.09272e-06 5.31652e-06
0.000846536 1.22878e-05 -4.54927e-07
1.22878e-05 6.06056e-05 2.16584e-06
-4.54927e-07 2.16584e-06 -1.01608e-05
0.000586861 -2.79101e-05 -2.49005e-06
-2.79101e-05 -5.10739e-05 8.79827e-06
-2.49005e-06 8.79827e-06 -0.000100005
0.000801099 3.92584e-05 -1.18676e-07
3.92584e-05 4.58996e-05 -9.73624e-08
-1.18676e-07 -9.73624e-08 -3.28921e-05
0.000825047 -3.34885e-05 4.60348e-07
-3.34885e-05 6.1041e-05 -1.10149e-06
4.60348e-07 -1.10149e-06 5.3982e-06
0.000694824 -4.81128e-05 3.41284e-06
-4.81128e-05 4.77484e-05 2.95636e-06
3.41284e-06 2.95636e-06 9.52566e-06
0.000515791 -3.8256e-06 -3.16848e-07
-3.8256e-06 -2.69164e-05 -6.06127e-06
-3.16848e-07 -6.06127e-06 -5.29587e-05
0.000820864 5.76304e-06 -6.28622e-07
5.76304e-06 7.10774e-05 -4.10542e-06
-6.28622e-07 -4.10542e-06 1.00263e-05
0.000810348 1.90132e-05 1.90121e-08
1.90132e-05 5.08801e-05 1.99602e-06
1.90121e-08 1.99602e-06 -2.06342e-05
0.000804021 5.32666e-05 -3.86654e-07
5.32666e-05 6.8204e-05 4.77871e-07
-3.86654e-07 4.77871e-07 -5.4964e-06
0.000909674 4.55114e-05 -1.52832e-06
4.55114e-05 0.000112775 2.04468e-06
-1.52832e-06 2.04468e-06 4.4246e-05
0.000811212 2.11229e-05 5.11124e-07
2.11229e-05 6.64526e-05 -1.49108e-08
5.11124e-07 -1.49108e-08 2.30392e-06
0.000824655 4.11604e-05 7.24827e-07
4.11604e-05 7.05736e-05 2.44142e-07
7.24827e-07 2.44142e-07 -1.5628e-06
0.000755938 -3.55122e-05 1.34094e-06
-3.55122e-05 7.76193e-05 4.40725e-07
1.34094e-06 4.40725e-07 -3.19385e-06
0.000685276 -3.01123e-05 -7.28514e-07
-3.01123e-05 2.10518e-05 -1.10985e-06
-7.28514e-07 -1.10985e-06 -6.30106e-05
0.000518028 -6.81598e-05 3.76828e-06
-6.81598e-05 -5.72167e-05 3.79617e-07
3.76828e-06 3.79617e-07 -0.000197428
0.000994683 -5.55554e-06 -1.75698e-06
-5.55554e-06 0.000176137 2.27762e-07
-1.75698e-06 2.27762e-07 8.85736e-05
0.00100608 -6.81447e-05 -9.37649e-07
-6.81447e-05 0.000201736 9.25736e-07
-9.37649e-07 9.25736e-07 8.43936e-05
0.000472097 -0.000114026 2.37694e-07
-0.000114026 -0.000110465 1.85123e-06
2.37694e-07 1.85123e-06 -0.000268949
0.000759497 -0.000125221 -3.50749e-06
-0.000125221 5.06994e-05 -1.17923e-07
-3.50749e-06 -1.17923e-07 -0.000103491
0.000912626 -0.000101102 -1.08688e-06
-0.000101102 0.000158923 1.93408e-06
-1.08688e-06 1.93408e-06 3.79455e-05
0.00077733 -0.000126012 -7.26047e-08
-0.000126012 6.66338e-05 8.45139e-07
-7.26047e-08 8.45139e-07 -8.34369e-05
0.000856203 -6.10881e-06 9.61102e-07
-6.10881e-06 0.000105692 7.68748e-07
9.61102e-07 7.68748e-07 1.99974e-05
0.000961956 -2.97707e-05 -5.41886e-07
-2.97707e-05 0.000181181 -6.47614e-07
-5.41886e-07 -6.47614e-07 7.59795e-05
0.00071038 -6.27858e-05 5.434e-07
-6.27858e-05 6.43935e-05 -4.51274e-06
5.434e-07 -4.51274e-06 -5.66375e-05
0.00102412 3.78688e-05 -2.0062e-06
3.78688e-05 0.000203922 -1.11394e-06
-2.0062e-06 -1.11394e-06 0.000119347
0.000671915 2.9171e-05 1.5431e-07
2.9171e-05 1.86333e-06 -3.11969e-08
1.5431e-07 -3.11969e-08 -7.2989e-05
0.000741965 5.01484e-05 -3.86987e-09
5.01484e-05 2.57549e-05 6.2904e-07
-3.86987e-09 6.2904e-07 -3.39438e-05
0.000831795 -9.42393e-06 -1.90895e-07
-9.42393e-06 8.83388e-05 2.18852e-07
-1.90895e-07 2.18852e-07 1.67753e-05
0.000773659 1.01678e-05 -6.61331e-07
1.01678e-05 3.84419e-05 -1.0009e-07
-6.61331e-07 -1.0009e-07 -1.73072e-05
0.000733581 3.47613e-05 -1.45649e-06
3.47613e-05 6.53257e-06 1.42311e-06
-1.45649e-06 1.42311e-06 -3.07883e-05
0.000797948 -2.45926e-05 1.25946e-06
-2.45926e-05 5.01363e-05 -3.03598e-07
1.25946e-06 -3.03598e-07 -5.79623e-06
0.000744743 2.69875e-05 -1.45311e-07
2.69875e-05 7.11685e-06 5.5779e-09
-1.45311e-07 5.5779e-09 -2.89679e-05
0.00129022 3.81558e-05 -7.65599e-06
3.81558e-05 0.000312005 3.12234e-06
-7.65599e-06 3.12234e-06 0.000306661
0.000745179 1.46129e-05 1.33397e-06
1.46129e-05 3.44349e-06 -1.40617e-06
1.33397e-06 -1.40617e-06 -3.2004e-05
0.001007 2.90657e-05 -3.8248e-06
2.90657e-05 0.000147121 5.95649e-07
-3.8248e-06 5.95649e-07 0.000141153
0.000850267 2.54059e-05 -1.56096e-06
2.54059e-05 6.31724e-05 1.65981e-06
-1.56096e-06 1.65981e-06 7.47187e-05
0.000679227 1.98546e-05 6.49349e-07
1.98546e-05 -4.13309e-05 -3.31302e-06
6.49349e-07 -3.31302e-06 -4.83157e-05
0.00151384 2.48096e-05 6.42996e-06
2.48096e-05 0.000429821 -1.25001e-06
6.42996e-06 -1.25001e-06 0.000445434
0.00219039 2.0464e-05 8.89072e-06
2.0464e-05 0.000806568 -4.33912e-06
8.89072e-06 -4.33912e-06 0.000825882
0.000615832 3.38565e-06 -3.22001e-07
3.38565e-06 -4.25644e-05 -1.16847e-06
-3.22001e-07 -1.16847e-06 -0.000110388
0.000504836 -1.10614e-05 -2.81709e-07
-1.10614e-05 -0.000126504 -2.40406e-06
-2.81709e-07 -2.40406e-06 -0.000163581
0.000864336 -5.96674e-06 1.76787e-08
-5.96674e-06 9.25526e-05 9.01191e-08
1.76787e-08 9.01191e-08 3.25704e-05
0.000703075 -1.3099e-05 -2.87658e-07
-1.3099e-05 -3.1759e-05 -3.44717e-06
-2.87658e-07 -3.44717e-06 -3.61943e-05
0.000622862 -7.4357e-06 1.71286e-07
-7.4357e-06 -6.18611e-05 -5.18557e-09
1.71286e-07 -5.18557e-09 -9.59158e-05
0.000601391 -4.91619e-05 2.25429e-07
-4.91619e-05 -4.97612e-05 1.03441e-06
2.25429e-07 1.03441e-06 -0.000109219
0.00208163 -1.05748e-05 -4.82121e-06
-1.05748e-05 0.000743236 -4.479e-06
-4.82121e-06 -4.479e-06 0.000764316
0.000704487 -6.5111e-06 -1.78448e-07
-6.5111e-06 -3.28789e-05 -4.20982e-09
-1.78448e-07 -4.20982e-09 -3.61163e-05
0.00074666 -4.76e-06 -1.22561e-07
-4.76e-06 6.56883e-06 1.73719e-06
-1.22561e-07 1.73719e-06 -2.5092e-05
0.00206778 -3.38128e-07 -2.69018e-06
-3.38128e-07 0.000734466 -1.32276e-10
-2.69018e-06 -1.32276e-10 0.000755909
0.000707599 4.69901e-08 1.40783e-07
4.69901e-08 -3.18235e-05 3.38281e-06
1.40783e-07 3.38281e-06 -3.47121e-05
0.00208156 9.97025e-06 -5.00114e-06
9.97025e-06 0.000743069 4.48402e-06
-5.00114e-06 4.48402e-06 0.000764153
0.00110216 2.99103e-06 -5.34254e-05
2.99103e-06 -8.59425e-05 2.15667e-05
-5.34254e-05 2.15667e-05 -0.000529959
0.00134144 0.000159961 -3.33353e-06
0.000159961 0.00146951 -5.96637e-06
-3.33353e-06 -5.96637e-06 0.00116108
0.000885111 -0.000139627 -3.37447e-05
-0.000139627 0.000873116 -1.29871e-05
-3.37447e-05 -1.29871e-05 0.000508363
0.000810931 3.28821e-05 -3.44339e-08
3.28821e-05 7.24039e-05 5.61643e-07
-3.44339e-08 5.61643e-07 -1.208e-05
0.00231742 7.06886e-07 -2.38395e-05
7.06886e-07 0.000741992 4.65001e-05
-2.38395e-05 4.65001e-05 0.000226236
0.0023987 3.16027e-06 -2.33775e-05
3.16027e-06 0.000401313 3.41754e-06
-2.33775e-05 3.41754e-06 -0.000313389
0.00154767 0.000381631 7.71538e-05
0.000381631 0.00123333 -6.18093e-05
7.71538e-05 -6.18093e-05 0.00140663
0.00297795 -9.99344e-05 -1.75498e-05
-9.99344e-05 0.000194152 -1.23544e-05
-1.75498e-05 -1.23544e-05 -6.12856e-05
0.0099974 0.000406502 3.36047e-05
0.000406502 0.00377499 -3.08774e-05
3.36047e-05 -3.08774e-05 0.00234591
-0.00257283 0.000475503 -1.12132e-06
0.000475503 -0.00245283 1.56463e-05
-1.12132e-06 1.56463e-05 -0.00182697
0.00324744 0.00057742 3.13258e-05
0.00057742 -0.000460906 -9.19158e-06
3.13258e-05 -9.19158e-06 0.000523304
0.00317514 -0.0003302 -5.32678e-05
-0.0003302 4.92227e-05 1.2197e-06
-5.32678e-05 1.2197e-06 -0.000628731
0.00714182 0.000158174 2.91394e-05
0.000158174 0.00282653 -1.32901e-05
2.91394e-05 -1.32901e-05 0.00116772
0.00501385 0.000542936 7.06749e-06
0.000542936 0.000500335 -2.40211e-05
7.06749e-06 -2.40211e-05 0.000681188
0.00334225 0.000346263 -1.0145e-05
0.000346263 -0.00131625 1.19405e-06
-1.0145e-05 1.19405e-06 -0.000214024
0.00420326 -0.000590452 -7.3011e-06
-0.000590452 0.000612757 -1.40504e-05
-7.3011e-06 -1.40504e-05 -0.000306183
0.0086027 -0.000120449 4.47598e-05
-0.000120449 0.00401822 8.14271e-07
4.47598e-05 8.14271e-07 0.00155268
0.00127823 8.18873e-05 8.61614e-06
8.18873e-05 -0.000683457 -1.30992e-05
8.61614e-06 -1.30992e-05 -0.000786006
0.00490458 4.7459e-05 -6.6856e-06
4.7459e-05 -0.000377053 3.41888e-05
-6.6856e-06 3.41888e-05 0.000962746
0.000855632 -2.95582e-05 4.92547e-07
-2.95582e-05 0.000100676 4.79122e-07
4.92547e-07 4.79122e-07 2.79276e-06
0.000833571 -3.75781e-05 4.72276e-07
-3.75781e-05 9.95028e-05 1.4186e-08
4.72276e-07 1.4186e-08 1.09181e-06
0.000908664 6.29089e-05 -1.16257e-06
6.29089e-05 0.00014198 -4.56535e-08
-1.16257e-06 -4.56535e-08 5.1546e-05
0.000810863 -5.04669e-06 -2.82613e-07
-5.04669e-06 6.53168e-05 3.14797e-07
-2.82613e-07 3.14797e-07 -2.03405e-05
0.000868106 5.39423e-05 -6.45682e-07
5.39423e-05 0.000112051 3.84852e-07
-6.45682e-07 3.84852e-07 1.6967e-05
0.000906956 3.50329e-05 6.48456e-07
3.50329e-05 0.000135809 1.14745e-06
6.48456e-07 1.14745e-06 4.74513e-05
0.000960513 7.33893e-05 -6.3041e-07
7.33893e-05 0.000163395 7.41672e-08
-6.3041e-07 7.41672e-08 7.6987e-05
0.00100213 8.13366e-05 8.79773e-07
8.13366e-05 0.000192746 1.13673e-06
8.79773e-07 1.13673e-06 0.000106182
0.001087 -0.000147 2.48734e-05
-0.000147 -1.18451e-05 -1.23793e-05
2.48734e-05 -1.23793e-05 -7.67903e-05
0.00112045 -0.00022242 8.21295e-06
-0.00022242 -9.79935e-06 -4.42649e-06
8.21295e-06 -4.42649e-06 -4.71774e-05
0.000827214 -0.000120078 -1.48217e-06
-0.000120078 0.000103379 -1.18856e-07
-1.48217e-06 -1.18856e-07 -3.89448e-07
0.0016612 -7.89106e-05 4.87775e-06
-7.89106e-05 0.0005399 -4.87624e-06
4.87775e-06 -4.87624e-06 0.000374518
0.00108015 -5.80988e-05 -3.97414e-07
-5.80988e-05 0.000235493 -8.72194e-07
-3.97414e-07 -8.72194e-07 0.000122295
0.000946535 -3.12374e-05 -1.33312e-06
-3.12374e-05 0.00015628 -1.4674e-07
-1.33312e-06 -1.4674e-07 5.61981e-05
0.000894882 1.34935e-05 2.35866e-08
1.34935e-05 0.000120746 -2.17172e-07
2.35866e-08 -2.17172e-07 2.37627e-05
0.000717298 -0.000278949 -6.4711e-06
-0.000278949 -0.000242076 3.68992e-07
-6.4711e-06 3.68992e-07 -0.000288864
0.000850863 2.42875e-05 -1.68524e-07
2.42875e-05 0.000104763 -4.40029e-07
-1.68524e-07 -4.40029e-07 -3.87331e-06
0.000972499 -3.413e-05 5.79028e-07
-3.413e-05 0.000150356 7.96765e-07
5.79028e-07 7.96765e-07 4.42881e-05
0.000500675 -7.63816e-05 6.6755e-07
-7.63816e-05 -2.74829e-05 3.42652e-06
6.6755e-07 3.42652e-06 -0.000108124
0.0008993 -5.12035e-06 7.13316e-07
-5.12035e-06 0.000105069 8.97556e-07
7.13316e-07 8.97556e-07 2.21638e-05
0.000287193 -0.000277347 5.25863e-05
-0.000277347 -0.000353214 -2.87139e-05
5.25863e-05 -2.87139e-05 -0.000307719
0.00110908 -4.99709e-05 -1.20055e-05
-4.99709e-05 0.000498359 1.61384e-05
-1.20055e-05 1.61384e-05 0.000383828
0.000530295 4.75522e-06 -8.75653e-07
4.75522e-06 -8.91188e-05 5.06765e-06
-8.75653e-07 5.06765e-06 -0.000177904
0.000893201 0.000104602 1.94468e-06
0.000104602 0.000123776 1.09772e-06
1.94468e-06 1.09772e-06 2.70024e-05
0.00139802 -1.27635e-05 -1.65939e-05
-1.27635e-05 0.000237312 -2.31834e-07
-1.65939e-05 -2.31834e-07 0.000108013
0.00121657 -2.23745e-05 3.14672e-05
-2.23745e-05 2.17087e-05 -1.98993e-06
3.14672e-05 -1.98993e-06 -0.000385217
-0.00196243 -3.78353e-05 -7.29236e-06
-3.78353e-05 0.000158333 1.52105e-06
-7.29236e-06 1.52105e-06 -0.000587571
0.00080839 9.68585e-05 1.36274e-05
9.68585e-05 0.000223255 3.7413e-06
1.36274e-05 3.7413e-06 0.0001464
0.000389042 0.000170082 2.33947e-05
0.000170082 0.000152176 1.03995e-05
2.33947e-05 1.03995e-05 2.73991e-06
0.00193702 -3.46937e-05 5.48072e-05
-3.46937e-05 0.000486276 1.19577e-05
5.48072e-05 1.19577e-05 9.70189e-05
0.00736886 -0.000229268 7.48256e-05
-0.000229268 0.00296164 3.67415e-05
7.48256e-05 3.67415e-05 0.000923949
0.00230488 0.00042159 -6.53892e-05
0.00042159 0.000381077 -8.42671e-05
-6.53892e-05 -8.42671e-05 -0.000401949
0.00325636 -0.000255957 2.64608e-05
-0.000255957 0.000320465 3.36219e-07
2.64608e-05 3.36219e-07 -9.94808e-05
0.0017806 2.65486e-05 2.12531e-05
2.65486e-05 0.000193912 6.017e-05
2.12531e-05 6.017e-05 -0.000467459
0.00239362 4.23145e-06 3.96728e-06
4.23145e-06 -0.00261292 -2.18782e-05
3.96728e-06 -2.18782e-05 -0.000831565
0.000798208 9.20461e-05 1.72918e-07
9.20461e-05 0.000296271 -2.82618e-07
1.72918e-07 -2.82618e-07 0.000224496
0.00129745 -2.81871e-05 -1.46452e-07
-2.81871e-05 0.000147834 -5.9887e-06
-1.46452e-07 -5.9887e-06 -2.64995e-05
0.00206442 9.76125e-06 1.18994e-05
9.76125e-06 0.000332791 4.52527e-06
1.18994e-05 4.52527e-06 -0.000156083
-0.000764018 7.40163e-05 -1.45769e-05
7.40163e-05 -0.000307727 -4.60669e-06
-1.45769e-05 -4.60669e-06 -0.00053311
0.00336764 0.000351574 6.93324e-06
0.000351574 -0.00129262 -9.22471e-07
6.93324e-06 -9.22471e-07 -0.000216835
0.00544772 0.00060066 4.87914e-05
0.00060066 0.00178283 9.45104e-06
4.87914e-05 9.45104e-06 -0.000266469
0.00279963 0.000151047 -4.77076e-05
0.000151047 0.00127997 -2.59398e-06
-4.77076e-05 -2.59398e-06 0.000793434
0.000303585 9.70954e-05 -1.62935e-05
9.70954e-05 0.000131833 -1.15454e-05
-1.62935e-05 -1.15454e-05 1.01339e-05
0.00144479 -6.90283e-08 -3.3519e-07
-6.90283e-08 0.000178275 -1.80026e-05
-3.3519e-07 -1.80026e-05 2.49573e-05
0.00239003 9.62122e-07 2.37095e-05
9.62122e-07 0.000710916 -4.65884e-05
2.37095e-05 -4.65884e-05 0.000233695
0.003907 0.000552371 6.20983e-05
0.000552371 -6.52735e-05 -4.50855e-05
6.20983e-05 -4.50855e-05 0.000828144
0.00251774 0.00014986 -2.3413e-05
0.00014986 -0.000280967 1.27791e-05
-2.3413e-05 1.27791e-05 -0.000237484
0.00248069 0.000269818 1.71374e-05
0.000269818 0.000384784 -2.18752e-05
1.71374e-05 -2.18752e-05 0.000470603
0.00207249 4.77886e-05 8.96615e-05
4.77886e-05 0.00149983 3.24197e-05
8.96615e-05 3.24197e-05 -0.00141816
0.000620075 8.68147e-05 3.54044e-06
8.68147e-05 9.12808e-06 7.16874e-06
3.54044e-06 7.16874e-06 -3.73404e-05
0.000646272 3.03135e-05 7.05859e-06
3.03135e-05 0.000103806 7.87554e-07
7.05859e-06 7.87554e-07 5.88004e-05
9.07878e-05 -8.34541e-06 7.90568e-06
-8.34541e-06 6.44147e-06 -1.27768e-05
7.90568e-06 -1.27768e-05 -6.21536e-05
0.000776646 1.90646e-05 -8.29093e-08
1.90646e-05 2.77052e-05 2.15771e-06
-8.29093e-08 2.15771e-06 -4.68587e-05
0.000649301 -3.2095e-05 -1.2389e-06
-3.2095e-05 -3.5412e-05 4.17822e-06
-1.2389e-06 4.17822e-06 -9.07587e-05
0.00073507 -5.15098e-05 -4.0299e-06
-5.15098e-05 6.02315e-05 9.13542e-06
-4.0299e-06 9.13542e-06 1.90279e-05
0.000791437 -7.81875e-06 -4.72225e-08
-7.81875e-06 5.48255e-05 -1.48187e-07
-4.72225e-08 -1.48187e-07 -7.0683e-06
0.000552463 -1.1047e-05 -6.40882e-08
-1.1047e-05 -1.85971e-05 2.38292e-06
-6.40882e-08 2.38292e-06 -4.19158e-05
0.00026021 -8.68356e-05 4.43777e-06
-8.68356e-05 -5.993e-05 -5.3849e-06
4.43777e-06 -5.3849e-06 -0.000180701
0.0008931 1.61457e-05 -1.66311e-07
1.61457e-05 0.000108028 1.98797e-06
-1.66311e-07 1.98797e-06 4.35079e-05
0.000765933 5.149e-05 -8.1277e-07
5.149e-05 3.98711e-05 1.24494e-06
-8.1277e-07 1.24494e-06 -3.22669e-05
0.00112289 -4.89155e-05 9.91781e-07
-4.89155e-05 0.000268581 8.19012e-07
9.91781e-07 8.19012e-07 0.000182971
0.000374001 -6.33238e-05 3.77049e-06
-6.33238e-05 -4.93015e-05 9.12434e-07
3.77049e-06 9.12434e-07 -0.000223961
0.000609977 -2.14617e-06 -4.20603e-06
-2.14617e-06 -9.05177e-06 2.12486e-07
-4.20603e-06 2.12486e-07 -8.65167e-05
0.00037801 -6.74144e-05 1.12423e-06
-6.74144e-05 -0.00012705 -4.83141e-07
1.12423e-06 -4.83141e-07 -0.00025862
0.00105965 -0.000161392 4.31299e-06
-0.000161392 0.000216866 -1.079e-06
4.31299e-06 -1.079e-06 2.52582e-05
0.00113482 -0.00017015 -1.85366e-06
-0.00017015 0.000176989 3.68613e-06
-1.85366e-06 3.68613e-06 -1.4992e-05
0.00137928 -9.51335e-05 -2.20062e-06
-9.51335e-05 0.000397534 -3.914e-07
-2.20062e-06 -3.914e-07 0.000276748
0.000700731 -0.000130689 -3.216e-07
-0.000130689 6.80358e-06 6.49873e-08
-3.216e-07 6.49873e-08 -0.000155467
0.00149681 -0.00017916 9.08363e-07
-0.00017916 0.000438641 -1.25661e-06
9.08363e-07 -1.25661e-06 0.000283528
0.000347389 -8.13866e-05 -1.17447e-06
-8.13866e-05 -0.000145776 -2.66967e-07
-1.17447e-06 -2.66967e-07 -0.000280251
0.000865304 -0.000132073 1.13992e-07
-0.000132073 0.000106912 3.28098e-07
1.13992e-07 3.28098e-07 -4.46835e-05
0.000870015 -1.08127e-05 6.89155e-08
-1.08127e-05 0.00011747 6.41718e-07
6.89155e-08 6.41718e-07 2.17828e-05
0.00100124 -0.000100601 -1.85525e-06
-0.000100601 0.000205976 1.55261e-06
-1.85525e-06 1.55261e-06 8.43183e-05
0.000527036 -0.00010737 -8.723e-07
-0.00010737 -6.80321e-05 -7.22708e-07
-8.723e-07 -7.22708e-07 -0.000215587
0.000760114 5.18978e-05 2.03841e-07
5.18978e-05 4.10583e-05 8.16973e-07
2.03841e-07 8.16973e-07 -2.57671e-05
0.000727946 -2.71884e-06 6.84309e-07
-2.71884e-06 3.64443e-05 -1.2154e-07
6.84309e-07 -1.2154e-07 -4.97979e-05
0.00080061 -3.1004e-05 7.46295e-07
-3.1004e-05 9.48668e-05 -2.43789e-06
7.46295e-07 -2.43789e-06 -1.28714e-05
0.000806403 1.77535e-05 -1.12325e-07
1.77535e-05 7.53403e-05 -4.88799e-07
-1.12325e-07 -4.88799e-07 1.4944e-06
0.000777093 1.99953e-05 -4.70989e-07
1.99953e-05 4.29312e-05 -1.53472e-07
-4.70989e-07 -1.53472e-07 -1.59363e-05
0.0007274 4.42392e-05 -1.47841e-06
4.42392e-05 1.04446e-05 1.37426e-06
-1.47841e-06 1.37426e-06 -2.93734e-05
0.000802877 -1.37966e-05 8.49083e-07
-1.37966e-05 5.49337e-05 -5.75376e-07
8.49083e-07 -5.75376e-07 -1.36922e-06
0.000738251 3.51178e-05 -9.61372e-08
3.51178e-05 8.82924e-06 -2.56976e-09
-9.61372e-08 -2.56976e-09 -2.85049e-05
0.000660973 3.7663e-05 -1.16858e-06
3.7663e-05 -3.37201e-05 3.36113e-06
-1.16858e-06 3.36113e-06 -4.38669e-05
0.000746898 2.50405e-05 1.29468e-06
2.50405e-05 7.57967e-06 -1.42609e-06
1.29468e-06 -1.42609e-06 -2.82942e-05
0.00067796 3.23784e-05 1.21712e-07
3.23784e-05 -3.15186e-05 2.78429e-08
1.21712e-07 2.78429e-08 -4.01279e-05
0.00205931 5.07278e-05 -4.7168e-06
5.07278e-05 0.000748124 1.60421e-06
-4.7168e-06 1.60421e-06 0.000764219
0.00067785 2.63214e-05 8.14348e-07
2.63214e-05 -3.78121e-05 -3.31452e-06
8.14348e-07 -3.31452e-06 -4.53177e-05
0.00149557 3.26192e-05 7.79758e-06
3.26192e-05 0.000424765 -1.14148e-06
7.79758e-06 -1.14148e-06 0.000439488
0.00217111 2.99833e-05 1.26593e-05
2.99833e-05 0.000799767 -4.14275e-06
1.26593e-05 -4.14275e-06 0.000818399
0.000636749 -1.61066e-05 -1.49211e-07
-1.61066e-05 -3.91905e-05 -8.27323e-07
-1.49211e-07 -8.27323e-07 -0.00010446
0.000483541 -1.3259e-05 -3.54147e-07
-1.3259e-05 -0.000137666 -2.30988e-06
-3.54147e-07 -2.30988e-06 -0.000177764
0.000747305 4.46149e-06 -3.2419e-07
4.46149e-06 2.89978e-05 -5.70533e-07
-3.2419e-07 -5.70533e-07 -3.72572e-05
0.000697172 -1.9464e-05 -3.05147e-07
-1.9464e-05 -3.18058e-05 -3.49527e-06
-3.05147e-07 -3.49527e-06 -3.80972e-05
0.000488301 -1.1975e-05 -4.91915e-08
-1.1975e-05 -0.000135682 -7.08512e-07
-4.91915e-08 -7.08512e-07 -0.000173115
0.000883836 4.6451e-06 -1.28502e-07
4.6451e-06 0.000107872 8.86287e-07
-1.28502e-07 8.86287e-07 4.47246e-05
0.0021163 -2.02102e-05 -8.76813e-06
-2.02102e-05 0.000765039 -4.42311e-06
-8.76813e-06 -4.42311e-06 0.000785207
0.000700345 -1.27807e-05 -1.19754e-07
-1.27807e-05 -3.32685e-05 -1.37624e-08
-1.19754e-07 -1.37624e-08 -3.76503e-05
0.000486132 -7.83591e-06 1.6137e-07
-7.83591e-06 -0.000137326 1.73288e-06
1.6137e-07 1.73288e-06 -0.000172462
0.00207556 -9.82268e-06 -2.86429e-06
-9.82268e-06 0.000739632 2.72736e-08
-2.86429e-06 2.72736e-08 0.000760812
0.000704194 -6.23796e-06 1.76331e-07
-6.23796e-06 -3.3008e-05 3.37707e-06
1.76331e-07 3.37707e-06 -3.62214e-05
0.00206507 4.62497e-07 -5.15842e-07
4.62497e-07 0.00073294 4.5028e-06
-5.15842e-07 4.5028e-06 0.000754387
0.0013857 2.18008e-05 -1.46895e-05
2.18008e-05 0.000226451 1.57595e-05
-1.46895e-05 1.57595e-05 5.43932e-05
0.00147141 1.59079e-05 7.97752e-06
1.59079e-05 0.000150822 -2.48548e-06
7.97752e-06 -2.48548e-06 -0.000292549
0.00153272 0.000127159 4.12071e-05
0.000127159 0.00161542 -2.091e-05
4.12071e-05 -2.091e-05 0.00132669
0.000846504 3.31098e-05 8.02971e-08
3.31098e-05 8.81602e-05 1.29561e-07
8.02971e-08 1.29561e-07 7.30858e-06
0.00075454 1.29676e-06 1.17791e-07
1.29676e-06 3.1076e-05 4.34973e-07
1.17791e-07 4.34973e-07 -4.5567e-05
0.00090567 5.1225e-05 -1.38216e-07
5.1225e-05 0.000120375 1.13334e-06
-1.38216e-07 1.13334e-06 3.50583e-05
0.00175215 9.68938e-06 2.4174e-06
9.68938e-06 8.42841e-05 7.30859e-05
2.4174e-06 7.30859e-05 -0.000516701
0.00233572 9.35084e-06 -6.33291e-06
9.35084e-06 0.000733683 1.47665e-06
-6.33291e-06 1.47665e-06 0.000220468
0.00255505 -1.062e-05 4.25136e-05
-1.062e-05 0.000541884 -5.35557e-05
4.25136e-05 -5.35557e-05 -0.000232125
0.00443753 -0.000355887 -5.96401e-05
-0.000355887 0.000836225 -2.21532e-08
-5.96401e-05 -2.21532e-08 0.000179932
0.000527261 -7.43729e-05 -4.89056e-05
-7.43729e-05 -0.000215411 2.80775e-05
-4.89056e-05 2.80775e-05 -0.00212364
0.00521591 0.000638474 6.22615e-05
0.000638474 0.00127006 -8.07688e-06
6.22615e-05 -8.07688e-06 0.00125431
0.00141807 0.000233009 1.35159e-05
0.000233009 -0.00249969 -3.52075e-05
1.35159e-05 -3.52075e-05 -0.00135128
0.00489585 -0.000663968 -7.91587e-06
-0.000663968 0.00124944 4.31487e-06
-7.91587e-06 4.31487e-06 0.000614221
0.00597648 -0.000156238 1.14593e-05
-0.000156238 0.0024205 -2.8875e-06
1.14593e-05 -2.8875e-06 0.000381024
-0.000556775 0.00012644 -9.56953e-06
0.00012644 -0.000712652 -2.04073e-05
-9.56953e-06 -2.04073e-05 -0.00109007
0.0036219 1.34954e-05 -7.1174e-06
1.34954e-05 -0.00146167 8.39295e-06
-7.1174e-06 8.39295e-06 5.79383e-05
0.00209791 -0.000505267 -3.07211e-05
-0.000505267 -0.00023273 -3.02692e-05
-3.07211e-05 -3.02692e-05 -0.000803274
0.00953701 -0.000466772 5.5214e-05
-0.000466772 0.00432709 1.69567e-05
5.5214e-05 1.69567e-05 0.00183567
-0.0050705 5.74995e-05 3.48323e-05
5.74995e-05 -0.00101123 -3.43641e-05
3.48323e-05 -3.43641e-05 -0.00180309
0.00177856 -0.000290032 7.7513e-07
-0.000290032 -0.00187034 1.19621e-06
7.7513e-07 1.19621e-06 -0.000724982
0.000847025 1.26296e-05 -8.10912e-08
1.26296e-05 8.44129e-05 1.21961e-06
-8.10912e-08 1.21961e-06 -6.88468e-06
0.000832857 -1.18095e-05 1.79292e-07
-1.18095e-05 8.99001e-05 -9.89359e-08
1.79292e-07 -9.89359e-08 -9.55191e-06
0.000815495 -4.91488e-05 -2.1863e-08
-4.91488e-05 9.09915e-05 -3.2059e-07
-2.1863e-08 -3.2059e-07 -8.73817e-06
0.000832944 1.85111e-05 -3.51618e-07
1.85111e-05 7.82508e-05 -2.9501e-07
-3.51618e-07 -2.9501e-07 -8.57664e-06
0.000970662 9.32393e-05 1.23917e-06
9.32393e-05 0.000167918 1.56809e-07
1.23917e-06 1.56809e-07 7.43136e-05
0.00102102 8.36308e-05 -2.77587e-07
8.36308e-05 0.000197523 1.22177e-07
-2.77587e-07 1.22177e-07 0.000110231
0.00161309 -0.000323739 -2.52072e-07
-0.000323739 0.00021301 5.70104e-06
-2.52072e-07 5.70104e-06 0.000128217
-0.000760851 -5.59491e-05 8.94077e-06
-5.59491e-05 -0.000703219 -6.71799e-06
8.94077e-06 -6.71799e-06 -0.000758554
0.00100258 5.32688e-05 -5.66856e-07
5.32688e-05 0.000187201 -4.75887e-07
-5.66856e-07 -4.75887e-07 8.56073e-05
0.00128822 -8.16379e-05 9.61287e-06
-8.16379e-05 0.000306918 -1.12997e-05
9.61287e-06 -1.12997e-05 0.00019656
0.000978935 1.31604e-05 -5.95364e-07
1.31604e-05 0.000176737 -1.72515e-06
-5.95364e-07 -1.72515e-06 7.084e-05
0.000857811 1.93667e-06 5.25923e-08
1.93667e-06 8.2092e-05 -3.03941e-07
5.25923e-08 -3.03941e-07 -4.12596e-06
0.000939105 5.825e-05 5.50971e-07
5.825e-05 0.00014609 -4.27963e-07
5.50971e-07 -4.27963e-07 5.50414e-05
0.000564514 -0.000260327 -5.96788e-06
-0.000260327 -0.000222663 -2.19953e-06
-5.96788e-06 -2.19953e-06 -0.000234629
0.00100498 -2.65371e-05 1.36848e-06
-2.65371e-05 0.000179802 -2.31387e-06
1.36848e-06 -2.31387e-06 9.56847e-05
0.000440561 -2.59738e-05 1.17273e-05
-2.59738e-05 0.000151016 -7.90909e-07
1.17273e-05 -7.90909e-07 4.02265e-05
0.000952972 2.65153e-05 2.37987e-06
2.65153e-05 0.000145393 1.07292e-06
2.37987e-06 1.07292e-06 6.50584e-05
-0.00208203 6.53227e-06 1.47468e-06
6.53227e-06 -0.00100934 -2.7488e-05
1.47468e-06 -2.7488e-05 -0.00130526
0.00121912 4.67601e-07 7.67548e-06
4.67601e-07 0.00051836 1.96001e-05
7.67548e-06 1.96001e-05 0.000475904
0.00108668 -6.26474e-06 2.60264e-06
-6.26474e-06 0.000240432 3.74302e-06
2.60264e-06 3.74302e-06 0.000173172
0.00155046 -9.63469e-06 -1.27752e-06
-9.63469e-06 0.00027017 4.40729e-08
-1.27752e-06 4.40729e-08 0.000192826
0.00112452 -1.02474e-05 -6.7302e-06
-1.02474e-05 9.91546e-05 -1.71113e-06
-6.7302e-06 -1.71113e-06 -1.39392e-05
0.00109316 -2.95987e-05 9.44615e-05
-2.95987e-05 -9.61043e-06 -1.57364e-06
9.44615e-05 -1.57364e-06 -0.000423475
0.00115263 0.000137712 1.80956e-05
0.000137712 0.00047885 1.26418e-05
1.80956e-05 1.26418e-05 0.00039766
0.0035626 0.000358289 3.16284e-06
0.000358289 0.00148874 -1.57473e-05
3.16284e-06 -1.57473e-05 0.00135702
0.00132511 -2.62439e-05 9.64278e-06
-2.62439e-05 0.000156104 6.09895e-06
9.64278e-06 6.09895e-06 -7.57813e-06
0.000326421 0.000291172 -2.52213e-06
0.000291172 -0.000259255 2.19461e-06
-2.52213e-06 2.19461e-06 -0.00227051
-0.00765612 1.83331e-05 -3.23383e-05
1.83331e-05 -0.00339125 -1.82743e-05
-3.23383e-05 -1.82743e-05 -0.00427413
0.00227505 1.62462e-05 1.41148e-05
1.62462e-05 0.000575365 3.90161e-05
1.41148e-05 3.90161e-05 0.00018594
0.00153036 0.000245747 -1.07593e-05
0.000245747 -0.00245113 3.55317e-05
-1.07593e-05 3.55317e-05 -0.00130165
0.000377378 7.38031e-05 -7.74484e-08
7.38031e-05 0.000178743 -1.15519e-06
-7.74484e-08 -1.15519e-06 7.40627e-05
0.00126807 -4.26804e-06 3.35972e-06
-4.26804e-06 9.28049e-05 -7.2167e-06
3.35972e-06 -7.2167e-06 -4.04422e-05
0.00238906 6.43419e-06 6.39341e-06
6.43419e-06 0.000702578 -1.50182e-06
6.39341e-06 -1.50182e-06 0.00021452
0.00124487 0.000231735 3.65112e-05
0.000231735 -0.000305301 -7.50024e-07
3.65112e-05 -7.50024e-07 -0.000451408
0.00188875 0.000534506 1.46936e-05
0.000534506 -0.00127695 -3.40847e-05
1.46936e-05 -3.40847e-05 -0.000328947
-0.000464945 0.000141802 9.81523e-06
0.000141802 -0.00109715 1.70006e-05
9.81523e-06 1.70006e-05 -0.00116584
0.00639518 8.89881e-05 5.74235e-05
8.89881e-05 0.00345661 -1.65691e-05
5.74235e-05 -1.65691e-05 0.000333161
5.10666e-05 1.28547e-05 -9.77328e-07
1.28547e-05 0.000209197 -1.16528e-05
-9.77328e-07 -1.16528e-05 -1.42547e-05
0.00134121 1.76829e-05 1.3437e-05
1.76829e-05 0.000182391 -1.54061e-05
1.3437e-05 -1.54061e-05 1.59261e-05
0.00242504 2.05727e-05 8.64249e-05
2.05727e-05 0.000287131 -6.44285e-05
8.64249e-05 -6.44285e-05 -0.000322626
0.00233195 0.000738017 8.70723e-06
0.000738017 0.000783596 -8.54275e-06
8.70723e-06 -8.54275e-06 0.0018289
-0.00634329 0.000169857 5.38707e-05
0.000169857 -0.00460984 6.36191e-05
5.38707e-05 6.36191e-05 -0.00437516
0.00915433 -0.000196978 3.64389e-05
-0.000196978 0.00383267 -5.43176e-05
3.64389e-05 -5.43176e-05 0.00135826
0.00461252 -0.000269958 -7.07996e-05
-0.000269958 0.00107207 0.000120594
-7.07996e-05 0.000120594 0.00115602
0.00109543 2.39603e-05 1.7178e-07
2.39603e-05 0.000360203 6.60114e-06
1.7178e-07 6.60114e-06 0.000314525
5.35153e-05 -1.47391e-05 1.42545e-06
-1.47391e-05 -2.80047e-05 -1.1277e-06
1.42545e-06 -1.1277e-06 -0.000108736
-0.000633133 -0.000106273 5.53765e-06
-0.000106273 -0.000301152 -1.1602e-05
5.53765e-06 -1.1602e-05 -0.000481438
0.000775719 -2.18811e-05 5.81388e-08
-2.18811e-05 4.86134e-05 1.97543e-06
5.81388e-08 1.97543e-06 -1.5547e-05
0.000669492 -1.26442e-05 5.53569e-06
-1.26442e-05 3.24615e-05 1.1743e-05
5.53569e-06 1.1743e-05 1.18172e-05
0.000421941 -3.33308e-05 -7.77726e-07
-3.33308e-05 2.44476e-05 2.25748e-08
-7.77726e-07 2.25748e-08 -8.20025e-05
0.00110324 -0.000151911 1.60719e-05
-0.000151911 0.000427631 -1.03863e-05
1.60719e-05 -1.03863e-05 0.000206893
0.00154967 -6.48919e-05 -2.12403e-06
-6.48919e-05 0.000492003 1.73888e-06
-2.12403e-06 1.73888e-06 0.00040153
0.00128933 -0.000147908 9.5714e-07
-0.000147908 0.000410614 4.79603e-07
9.5714e-07 4.79603e-07 0.000232225
0.00106103 -0.000173586 6.54465e-06
-0.000173586 0.000276915 1.64929e-06
6.54465e-06 1.64929e-06 4.27457e-06
0.000233773 -6.35833e-05 -1.93623e-06
-6.35833e-05 -0.000199837 -1.35052e-06
-1.93623e-06 -1.35052e-06 -0.000322155
0.00108417 -0.000160726 -2.65391e-07
-0.000160726 0.000224674 8.80659e-07
-2.65391e-07 8.80659e-07 2.73043e-05
0.00191019 -0.000244761 2.09603e-06
-0.000244761 0.000571955 1.39314e-06
2.09603e-06 1.39314e-06 0.000335274
0.001737 -0.000235069 -3.00512e-06
-0.000235069 0.000376375 2.04329e-07
-3.00512e-06 2.04329e-07 0.000167103
0.000645684 -0.000130698 -2.85799e-07
-0.000130698 -6.25377e-05 4.47612e-06
-2.85799e-07 4.47612e-06 -0.000233096
0.00117488 -0.000173302 -1.88544e-06
-0.000173302 0.000198695 1.28906e-06
-1.88544e-06 1.28906e-06 5.26229e-06
0.000930535 -0.000147276 -3.03416e-06
-0.000147276 0.000125351 2.9964e-07
-3.03416e-06 2.9964e-07 -4.11094e-05
0.00131887 -0.000163524 2.5068e-06
-0.000163524 0.000355617 -2.13478e-06
2.5068e-06 -2.13478e-06 0.000210276
0.00113704 -0.000152418 2.36194e-06
-0.000152418 0.000249094 -2.06477e-06
2.36194e-06 -2.06477e-06 0.000101165
0.000694047 -4.33827e-05 8.82633e-07
-4.33827e-05 3.14798e-05 8.69843e-07
8.82633e-07 8.69843e-07 -8.43162e-05
0.000777794 -0.000105158 1.01783e-06
-0.000105158 8.89372e-05 -3.62021e-07
1.01783e-06 -3.62021e-07 -4.58265e-05
0.00096 -0.000138114 4.33663e-06
-0.000138114 0.000156796 -2.65856e-06
4.33663e-06 -2.65856e-06 8.06841e-06
0.000756208 5.89291e-05 7.84189e-07
5.89291e-05 4.76282e-05 1.21983e-06
7.84189e-07 1.21983e-06 -3.17154e-05
0.000885868 -2.92058e-05 -1.47531e-07
-2.92058e-05 0.000127053 2.09782e-08
-1.47531e-07 2.09782e-08 2.89432e-05
0.00106776 -9.91501e-05 -5.35163e-07
-9.91501e-05 0.000240572 5.6567e-08
-5.35163e-07 5.6567e-08 0.000118806
0.00070429 5.5918e-05 -9.24096e-07
5.5918e-05 7.12828e-06 1.48319e-06
-9.24096e-07 1.48319e-06 -3.78132e-05
0.000779432 2.70596e-05 -6.42368e-07
2.70596e-05 4.98884e-05 -2.69591e-07
-6.42368e-07 -2.69591e-07 -1.63742e-05
0.000605557 7.42501e-07 -2.61491e-07
7.42501e-07 -2.94055e-05 -7.59547e-07
-2.61491e-07 -7.59547e-07 -0.000116369
0.000808392 -3.01662e-06 7.98158e-07
-3.01662e-06 5.92981e-05 -8.94209e-07
7.98158e-07 -8.94209e-07 3.9069e-07
0.00073018 4.45709e-05 -1.58798e-07
4.45709e-05 1.2054e-05 -3.34366e-08
-1.58798e-07 -3.34366e-08 -2.78619e-05
0.000646449 4.33432e-05 -1.38827e-06
4.33432e-05 -3.29955e-05 3.34897e-06
-1.38827e-06 3.34897e-06 -4.5362e-05
0.000745235 3.6138e-05 1.27712e-06
3.6138e-05 1.25202e-05 -1.526e-06
1.27712e-06 -1.526e-06 -2.4894e-05
0.000671129 3.84802e-05 8.3902e-08
3.84802e-05 -2.81727e-05 1.5413e-08
8.3902e-08 1.5413e-08 -3.83688e-05
0.00210067 5.50489e-05 -2.17278e-05
5.50489e-05 0.000778038 3.55348e-06
-2.17278e-05 3.55348e-06 0.000792998
0.000680244 3.29206e-05 9.58547e-07
3.29206e-05 -3.06031e-05 -3.32271e-06
9.58547e-07 -3.32271e-06 -3.91843e-05
0.00148138 4.06273e-05 9.11469e-06
4.06273e-05 0.000423912 -1.01526e-06
9.11469e-06 -1.01526e-06 0.000437214
0.00214599 3.91455e-05 1.6133e-05
3.91455e-05 0.000791045 -3.91081e-06
1.6133e-05 -3.91081e-06 0.0008087
0.000787325 2.98153e-05 -5.58478e-07
2.98153e-05 4.30708e-05 -3.16166e-07
-5.58478e-07 -3.16166e-07 -2.23851e-05
0.000726229 -1.41876e-05 -6.48377e-07
-1.41876e-05 -3.22562e-06 -1.64976e-06
-6.48377e-07 -1.64976e-06 -4.37532e-05
0.000701184 2.15029e-05 -7.93099e-07
2.15029e-05 1.36976e-06 -4.7843e-07
-7.93099e-07 -4.7843e-07 -6.66648e-05
0.000686441 -2.59204e-05 -2.14119e-07
-2.59204e-05 -3.32517e-05 -3.58313e-06
-2.14119e-07 -3.58313e-06 -4.18695e-05
0.000605228 -1.22911e-05 -3.49378e-07
-1.22911e-05 -7.04151e-05 -7.20861e-07
-3.49378e-07 -7.20861e-07 -0.000109673
0.000879928 4.87681e-06 8.2032e-08
4.87681e-06 0.000102783 2.53477e-08
8.2032e-08 2.53477e-08 3.70641e-05
0.00216522 -2.98687e-05 -1.28012e-05
-2.98687e-05 0.000796028 -4.32543e-06
-1.28012e-05 -4.32543e-06 0.000814852
0.000693231 -1.90854e-05 -1.82762e-07
-1.90854e-05 -3.40423e-05 -1.33596e-08
-1.82762e-07 -1.33596e-08 -4.02487e-05
0.000470875 -1.24404e-05 -7.45795e-08
-1.24404e-05 -0.000145411 1.03147e-06
-7.45795e-08 1.03147e-06 -0.000183157
0.00210516 -1.9405e-05 -2.62554e-06
-1.9405e-05 0.000758397 5.19294e-08
-2.62554e-06 5.19294e-08 0.000778757
0.000698919 -1.24859e-05 3.25815e-07
-1.24859e-05 -3.40394e-05 3.43105e-06
3.25815e-07 3.43105e-06 -3.83785e-05
0.0020715 -9.06088e-06 3.71292e-06
-9.06088e-06 0.000737144 4.48519e-06
3.71292e-06 4.48519e-06 0.000758395
0.00140996 -2.63495e-06 -1.98884e-06
-2.63495e-06 0.000184019 1.86937e-05
-1.98884e-06 1.86937e-05 6.76667e-06
0.00132684 1.84828e-05 -4.11734e-06
1.84828e-05 0.000188638 8.49316e-07
-4.11734e-06 8.49316e-07 1.04476e-06
0.00158615 2.09757e-05 6.93398e-05
2.09757e-05 0.000249833 -1.70324e-05
6.93398e-05 -1.70324e-05 -0.00020354
0.000733131 -3.84731e-05 1.37748e-07
-3.84731e-05 1.52668e-05 -1.38272e-07
1.37748e-07 -1.38272e-07 -5.75356e-05
0.000890293 -3.94746e-06 -4.43672e-07
-3.94746e-06 0.000109922 -4.82404e-07
-4.43672e-07 -4.82404e-07 3.11991e-05
0.000869352 3.16926e-05 1.24022e-06
3.16926e-05 9.9625e-05 -2.54159e-07
1.24022e-06 -2.54159e-07 2.07477e-05
0.000760352 -1.37901e-05 1.27808e-07
-1.37901e-05 3.00696e-05 5.9966e-08
1.27808e-07 5.9966e-08 -4.35447e-05
0.000832305 1.45093e-05 -1.79568e-08
1.45093e-05 7.9182e-05 2.09616e-07
-1.79568e-08 2.09616e-07 -5.37022e-06
0.00086069 -8.41137e-06 -8.43481e-07
-8.41137e-06 9.45165e-05 4.64776e-07
-8.43481e-07 4.64776e-07 1.38019e-05
0.000878236 0.000120906 8.76029e-07
0.000120906 0.000116044 1.09961e-06
8.76029e-07 1.09961e-06 2.10311e-05
0.00131754 7.70295e-06 2.42725e-05
7.70295e-06 0.000183579 6.97739e-05
2.42725e-05 6.97739e-05 -0.000462438
0.00199065 1.43383e-05 -2.70016e-06
1.43383e-05 0.000351073 2.11711e-05
-2.70016e-06 2.11711e-05 -0.000141052
0.0022758 1.7719e-05 1.1728e-05
1.7719e-05 0.000686119 -4.15135e-05
1.1728e-05 -4.15135e-05 0.000167382
0.00235188 -1.96227e-05 -7.63562e-06
-1.96227e-05 -0.00255602 -2.06947e-06
-7.63562e-06 -2.06947e-06 -0.000865177
0.00312635 -0.000575426 -2.22174e-05
-0.000575426 0.000526969 4.99345e-05
-2.22174e-05 4.99345e-05 -0.000301383
-0.00130671 -0.000304445 4.45742e-05
-0.000304445 -0.00103158 3.40461e-06
4.45742e-05 3.40461e-06 -0.00316072
0.00498523 0.000573639 4.03621e-05
0.000573639 0.00254933 -2.62133e-05
4.03621e-05 -2.62133e-05 0.00159541
0.00486086 -0.000712891 -1.79754e-05
-0.000712891 0.00111288 3.73772e-06
-1.79754e-05 3.73772e-06 0.000400002
0.00103764 -0.000260113 4.11761e-05
-0.000260113 0.000303805 -1.48352e-05
4.11761e-05 -1.48352e-05 -0.00199274
0.00352509 -2.81075e-05 -2.55536e-05
-2.81075e-05 0.00150984 2.34473e-06
-2.55536e-05 2.34473e-06 0.00103539
0.00557021 -0.00038661 -1.34896e-05
-0.00038661 0.000508403 -1.98225e-05
-1.34896e-05 -1.98225e-05 0.00161854
0.00243168 -0.000162772 -2.65289e-05
-0.000162772 -0.000125025 1.69575e-05
-2.65289e-05 1.69575e-05 -5.67103e-05
0.000607436 8.22314e-07 3.48109e-05
8.22314e-07 -0.000338429 -6.18198e-05
3.48109e-05 -6.18198e-05 -0.00224378
-0.00463055 -0.000464154 3.73222e-05
-0.000464154 -0.00350267 -9.24021e-06
3.73222e-05 -9.24021e-06 -0.00427059
0.00111702 -0.000410945 2.17237e-05
-0.000410945 -0.00167213 -4.31119e-05
2.17237e-05 -4.31119e-05 -0.000488399
0.000884424 -3.62445e-05 -4.06545e-07
-3.62445e-05 0.000105197 1.94934e-06
-4.06545e-07 1.94934e-06 2.85365e-05
0.000803781 1.16387e-05 1.81314e-07
1.16387e-05 6.10654e-05 5.0521e-08
1.81314e-07 5.0521e-08 -2.99115e-05
0.000798199 1.90864e-06 -5.65269e-07
1.90864e-06 7.4585e-05 -1.26578e-06
-5.65269e-07 -1.26578e-06 -2.75227e-05
0.000847417 2.56102e-05 -9.59858e-08
2.56102e-05 9.07624e-05 -1.41629e-06
-9.59858e-08 -1.41629e-06 4.01786e-07
0.00142644 -0.00028603 8.73721e-08
-0.00028603 0.000177521 1.73981e-05
8.73721e-08 1.73981e-05 0.000124156
0.000275898 -1.79515e-05 -2.5064e-09
-1.79515e-05 6.65073e-05 -1.192e-05
-2.5064e-09 -1.192e-05 -3.18257e-05
0.000762281 -2.02949e-05 -3.52654e-07
-2.02949e-05 2.31835e-05 -2.01985e-06
-3.52654e-07 -2.01985e-06 -6.12215e-05
0.000950813 7.64799e-05 -1.03385e-06
7.64799e-05 0.000160263 -1.78087e-06
-1.03385e-06 -1.78087e-06 6.62451e-05
0.0014686 -2.06228e-05 7.1448e-06
-2.06228e-05 0.000454143 -1.23434e-05
7.1448e-06 -1.23434e-05 0.000367054
0.000828191 5.23338e-06 -5.92832e-07
5.23338e-06 7.55721e-05 -4.84155e-08
-5.92832e-07 -4.84155e-08 -4.11053e-06
0.000724702 4.63041e-06 -2.45561e-07
4.63041e-06 5.16362e-05 -8.37469e-07
-2.45561e-07 -8.37469e-07 -1.88449e-05
-0.000664144 -2.68985e-05 -1.5271e-05
-2.68985e-05 -0.000338426 -9.7839e-06
-1.5271e-05 -9.7839e-06 -0.000673607
0.000871543 -2.7018e-05 4.14807e-06
-2.7018e-05 0.000361373 1.04277e-06
4.14807e-06 1.04277e-06 0.000326221
0.000718997 -1.74436e-06 3.3247e-06
-1.74436e-06 5.09215e-05 6.97194e-07
3.3247e-06 6.97194e-07 -2.04045e-05
0.000742643 3.98017e-06 -1.50609e-05
3.98017e-06 0.000873642 -5.21375e-05
-1.50609e-05 -5.21375e-05 -4.24941e-05
0.00193321 -4.80951e-06 2.1708e-06
-4.80951e-06 0.000883581 1.44149e-05
2.1708e-06 1.44149e-05 0.000814449
0.00143712 -1.40333e-05 1.53143e-05
-1.40333e-05 0.000261861 6.1628e-07
1.53143e-05 6.1628e-07 0.000130835
0.00110791 -8.78833e-06 -3.32761e-07
-8.78833e-06 5.52612e-05 -1.1172e-07
-3.32761e-07 -1.1172e-07 -8.84318e-06
0.000884976 -7.19905e-06 2.93215e-06
-7.19905e-06 -1.07362e-05 -1.65189e-06
2.93215e-06 -1.65189e-06 -0.000108956
0.000552246 6.45345e-05 9.14355e-06
6.45345e-05 0.000261111 8.30843e-06
9.14355e-06 8.30843e-06 0.000176258
0.0014138 0.000185203 -5.27238e-05
0.000185203 -1.67988e-05 1.93587e-05
-5.27238e-05 1.93587e-05 -1.36303e-05
0.00110228 -7.0813e-06 5.53967e-06
-7.0813e-06 1.62205e-05 4.17035e-06
5.53967e-06 4.17035e-06 -9.95944e-05
0.00332004 -0.000284256 0.000123455
-0.000284256 0.00193232 -0.000121207
0.000123455 -0.000121207 -0.000824146
0.00549889 0.000623929 -3.45149e-05
0.000623929 0.00245691 2.51327e-05
-3.45149e-05 2.51327e-05 0.00164912
0.0023299 8.09344e-06 -1.32658e-05
8.09344e-06 0.000661447 4.22175e-05
-1.32658e-05 4.22175e-05 0.000159503
0.00334651 0.000576877 -2.62597e-05
0.000576877 -0.000414753 9.54396e-06
-2.62597e-05 9.54396e-06 0.000532904
-0.000491562 -1.12757e-05 1.66981e-05
-1.12757e-05 -2.75509e-05 2.03837e-07
1.66981e-05 2.03837e-07 -0.00029952
0.00133269 1.52189e-05 4.72444e-06
1.52189e-05 0.0001753 -7.70623e-07
4.72444e-06 -7.70623e-07 7.35176e-08
0.00244196 -1.84399e-06 2.34131e-05
-1.84399e-06 0.000356145 -3.2363e-06
2.34131e-05 -3.2363e-06 -0.000331731
0.00136587 -9.4555e-05 -1.33333e-05
-9.4555e-05 -0.000596471 2.56981e-05
-1.33333e-05 2.56981e-05 -0.000299238
-0.000862849 0.00077721 1.88699e-05
0.00077721 -0.00113053 -6.0046e-06
1.88699e-05 -6.0046e-06 0.000263928
0.00518783 0.000587001 -5.82996e-06
0.000587001 0.000579713 2.32698e-05
-5.82996e-06 2.32698e-05 0.000799406
-7.94769e-05 -0.000402752 4.87681e-05
-0.000402752 -3.86678e-05 -2.9312e-05
4.87681e-05 -2.9312e-05 -0.0029892
0.00084527 -3.21846e-05 4.58313e-05
-3.21846e-05 0.00034487 -8.49138e-06
4.58313e-05 -8.49138e-06 0.000291536
0.00108705 -4.71313e-06 4.9256e-05
-4.71313e-06 -0.000120428 -2.12606e-05
4.9256e-05 -2.12606e-05 -0.000570488
-0.00131454 0.00023984 -3.80227e-05
0.00023984 -0.000198601 -1.70795e-05
-3.80227e-05 -1.70795e-05 -0.000403534
8.65839e-05 0.000595966 -1.45507e-05
0.000595966 -0.000345027 5.49591e-05
-1.45507e-05 5.49591e-05 2.98835e-05
0.00762894 0.000153904 1.86282e-05
0.000153904 0.00326643 -3.22127e-05
1.86282e-05 -3.22127e-05 0.000939908
0.00282228 -0.000306911 -7.02831e-05
-0.000306911 0.000223827 7.83095e-05
-7.02831e-05 7.83095e-05 -6.80151e-05
-5.65124e-05 -2.36308e-05 -5.59316e-06
-2.36308e-05 -0.000101575 1.00061e-05
-5.59316e-06 1.00061e-05 -0.000199311
0.000238383 -5.13819e-05 5.17847e-07
-5.13819e-05 0.000159789 -4.70486e-07
5.17847e-07 -4.70486e-07 -6.79964e-06
0.00100354 -0.000165446 1.90228e-05
-0.000165446 0.000339019 -8.49691e-06
1.90228e-05 -8.49691e-06 0.000211956
0.00072134 2.13722e-05 -4.16389e-06
2.13722e-05 0.000181923 3.63381e-06
-4.16389e-06 3.63381e-06 9.01118e-05
-0.000140281 -8.06741e-05 1.07989e-06
-8.06741e-05 -0.000198089 -2.8232e-06
1.07989e-06 -2.8232e-06 -0.000427421
0.00152528 -0.000233263 1.5749e-05
-0.000233263 0.000398063 -1.1749e-06
1.5749e-05 -1.1749e-06 0.000177041
0.00218089 -0.000233369 -4.38698e-06
-0.000233369 0.000857702 1.22026e-06
-4.38698e-06 1.22026e-06 0.000674518
0.00151862 -0.000200056 1.22249e-06
-0.000200056 0.000496442 1.08502e-06
1.22249e-06 1.08502e-06 0.000231039
0.000873382 -0.00020369 3.65109e-06
-0.00020369 -3.94679e-05 -3.63426e-06
3.65109e-06 -3.63426e-06 -0.000280839
0.00113417 -0.000162529 -3.66627e-06
-0.000162529 0.00024514 1.95316e-07
-3.66627e-06 1.95316e-07 4.28771e-05
0.00183237 -0.000238804 1.30373e-06
-0.000238804 0.000522255 1.34333e-07
1.30373e-06 1.34333e-07 0.000285079
0.00124957 -0.000222368 1.38222e-06
-0.000222368 4.91007e-05 -3.8619e-06
1.38222e-06 -3.8619e-06 -0.000165583
0.00161139 -0.000228998 7.26097e-07
-0.000228998 0.000172329 -1.80317e-06
7.26097e-07 -1.80317e-06 2.95177e-06
0.0021498 -0.000250534 -4.72883e-06
-0.000250534 0.000645213 4.63964e-06
-4.72883e-06 4.63964e-06 0.000442409
0.00157994 -0.000225897 -1.38287e-06
-0.000225897 0.000289083 -3.19523e-07
-1.38287e-06 -3.19523e-07 7.56398e-05
0.000581494 -0.000124368 2.48313e-06
-0.000124368 -9.06799e-05 -2.20153e-07
2.48313e-06 -2.20153e-07 -0.000239628
0.000916081 -0.000147574 1.7668e-06
-0.000147574 8.38378e-05 -2.85635e-07
1.7668e-06 -2.85635e-07 -8.21246e-05
0.00125697 -0.000179382 -1.07904e-06
-0.000179382 0.00024241 -1.48567e-06
-1.07904e-06 -1.48567e-06 4.77362e-05
0.00106097 -0.000139936 1.04266e-06
-0.000139936 0.000218146 -4.8076e-09
1.04266e-06 -4.8076e-09 7.92697e-05
0.00112357 -0.0001488 -7.88775e-07
-0.0001488 0.000251262 -9.37297e-07
-7.88775e-07 -9.37297e-07 0.000106088
0.000791301 -0.00012669 2.54352e-06
-0.00012669 6.77488e-05 -1.91203e-06
2.54352e-06 -1.91203e-06 -7.33028e-05
0.000731446 1.20512e-05 1.21711e-06
1.20512e-05 4.16927e-05 1.23916e-06
1.21711e-06 1.23916e-06 -5.62022e-05
0.000778057 -5.12972e-05 4.39996e-08
-5.12972e-05 7.90275e-05 7.06945e-07
4.39996e-08 7.06945e-07 -3.64854e-05
0.00121625 -0.000128831 1.44001e-06
-0.000128831 0.000328222 -1.11769e-06
1.44001e-06 -1.11769e-06 0.000192591
0.00068536 7.00159e-05 1.95904e-07
7.00159e-05 8.22306e-06 2.01487e-06
1.95904e-07 2.01487e-06 -4.72587e-05
0.000773476 2.17332e-05 -2.93087e-07
2.17332e-05 5.74869e-05 -1.6961e-07
-2.93087e-07 -1.6961e-07 -2.32588e-05
0.000893257 -4.30868e-05 -1.44096e-07
-4.30868e-05 0.000131944 -5.89671e-07
-1.44096e-07 -5.89671e-07 3.15103e-05
0.000642101 4.87292e-05 -2.37357e-06
4.87292e-05 -2.63858e-05 4.66331e-06
-2.37357e-06 4.66331e-06 -4.14713e-05
0.000709764 5.56891e-05 -1.98817e-07
5.56891e-05 1.05042e-05 -1.70648e-07
-1.98817e-07 -1.70648e-07 -3.46247e-05
0.000798389 3.50075e-06 1.95401e-07
3.50075e-06 5.88579e-05 -1.21718e-06
1.95401e-07 -1.21718e-06 -7.04058e-06
0.000730124 4.53558e-05 8.66997e-07
4.53558e-05 1.22156e-05 -1.62818e-06
8.66997e-07 -1.62818e-06 -2.78704e-05
0.000665854 4.45169e-05 1.60108e-08
4.45169e-05 -2.23212e-05 -1.35554e-08
1.60108e-08 -1.35554e-08 -3.48083e-05
0.00209862 6.34308e-05 -2.46135e-05
6.34308e-05 0.000785451 3.27313e-06
-2.46135e-05 3.27313e-06 0.000798376
0.000684393 3.94301e-05 1.16004e-06
3.94301e-05 -2.08695e-05 -3.31809e-06
1.16004e-06 -3.31809e-06 -3.11387e-05
0.00211147 5.59012e-05 1.58788e-06
5.59012e-05 0.000785123 1.07315e-07
1.58788e-06 1.07315e-07 0.00079985
0.00212789 4.80528e-05 1.93056e-05
4.80528e-05 0.000787569 -3.66994e-06
1.93056e-05 -3.66994e-06 0.000803842
0.000819281 9.58623e-06 3.51279e-08
9.58623e-06 7.30216e-05 -5.26458e-07
3.51279e-08 -5.26458e-07 -6.518e-06
0.000806731 4.00838e-05 -9.86284e-07
4.00838e-05 6.08088e-05 -8.64299e-07
-9.86284e-07 -8.64299e-07 -1.08921e-05
0.000727812 -2.26246e-05 -7.79703e-07
-2.26246e-05 -9.81337e-07 -1.74936e-06
-7.79703e-07 -1.74936e-06 -4.37944e-05
0.000795517 3.20579e-05 -6.45217e-08
3.20579e-05 4.80077e-05 -1.5002e-08
-6.45217e-08 -1.5002e-08 -1.77876e-05
0.000672154 -3.18972e-05 -3.66829e-07
-3.18972e-05 -3.56343e-05 -3.69663e-06
-3.66829e-07 -3.69663e-06 -4.68285e-05
0.000735854 -1.56519e-05 -1.26391e-07
-1.56519e-05 2.70413e-06 -1.07874e-08
-1.26391e-07 -1.07874e-08 -3.79963e-05
0.000764075 2.17324e-05 -1.82482e-07
2.17324e-05 2.83064e-05 -9.19375e-10
-1.82482e-07 -9.19375e-10 -3.37781e-05
0.00222243 -3.95142e-05 -1.67017e-05
-3.95142e-05 0.000832718 -4.19885e-06
-1.67017e-05 -4.19885e-06 0.000849865
0.00068349 -2.53542e-05 -1.66301e-07
-2.53542e-05 -3.49952e-05 -1.36597e-08
-1.66301e-07 -1.36597e-08 -4.35086e-05
0.000726596 -1.25361e-05 -1.26024e-07
-1.25361e-05 -3.34753e-06 1.05085e-06
-1.26024e-07 1.05085e-06 -4.17792e-05
0.00215022 -2.91172e-05 -2.65966e-06
-2.91172e-05 0.000787104 7.7862e-08
-2.65966e-06 7.7862e-08 0.000806166
0.00069009 -1.87436e-05 2.64836e-07
-1.87436e-05 -3.58072e-05 3.46802e-06
2.64836e-07 3.46802e-06 -4.19389e-05
0.00209353 -1.85647e-05 8.12102e-06
-1.85647e-05 0.00075149 4.42324e-06
8.12102e-06 4.42324e-06 0.000772031
0.00118446 -3.74452e-05 1.26856e-05
-3.74452e-05 0.00012583 2.01174e-05
1.26856e-05 2.01174e-05 -8.16631e-05
0.00122626 -5.35209e-06 -4.03107e-06
-5.35209e-06 9.05039e-05 7.49277e-06
-4.03107e-06 7.49277e-06 -6.34841e-05
0.00133273 1.34808e-05 7.74707e-06
1.34808e-05 0.000179204 -1.16988e-05
7.74707e-06 -1.16988e-05 -1.23687e-05
0.000793056 3.59982e-06 -2.37375e-07
3.59982e-06 5.4353e-05 -6.27482e-08
-2.37375e-07 -6.27482e-08 -2.29219e-05
0.000809512 -1.88289e-05 -1.88733e-07
-1.88289e-05 6.6093e-05 2.4952e-07
-1.88733e-07 2.4952e-07 -1.31659e-05
0.000768614 -2.45411e-05 -1.30147e-07
-2.45411e-05 4.59371e-05 -1.64054e-06
-1.30147e-07 -1.64054e-06 -3.78076e-05
0.000704394 -3.37204e-05 -1.05665e-07
-3.37204e-05 6.88106e-06 -6.59157e-07
-1.05665e-07 -6.59157e-07 -7.11312e-05
0.000964358 5.07654e-05 -7.78448e-07
5.07654e-05 0.000162408 -2.16491e-07
-7.78448e-07 -2.16491e-07 7.21271e-05
0.000763459 -2.99171e-05 -8.03009e-08
-2.99171e-05 2.90729e-05 -2.29282e-07
-8.03009e-08 -2.29282e-07 -4.26295e-05
0.000760597 -1.0168e-05 4.4122e-07
-1.0168e-05 3.60995e-05 -9.23434e-07
4.4122e-07 -9.23434e-07 -4.58997e-05
0.00083197 1.14605e-05 -1.03248e-07
1.14605e-05 7.92785e-05 -4.54065e-08
-1.03248e-07 -4.54065e-08 -1.50724e-06
0.000886122 3.75509e-05 -2.53502e-08
3.75509e-05 0.000108933 1.808e-07
-2.53502e-08 1.808e-07 2.14174e-05
0.000949301 1.37837e-05 -4.27409e-08
1.37837e-05 0.000155008 6.43093e-07
-4.27409e-08 6.43093e-07 6.92059e-05
0.00188393 -1.01691e-05 6.75267e-05
-1.01691e-05 0.000353793 7.89086e-05
6.75267e-05 7.89086e-05 -0.000377082
0.00152147 1.71647e-05 4.20915e-06
1.71647e-05 0.00020195 1.88128e-05
4.20915e-06 1.88128e-05 -0.000452923
0.00223615 2.19086e-05 -5.83747e-06
2.19086e-05 0.000611342 -1.75895e-05
-5.83747e-06 -1.75895e-05 0.000233558
0.00540229 -0.00035276 -2.78953e-05
-0.00035276 0.000600474 -5.12078e-05
-2.78953e-05 -5.12078e-05 0.00174273
-0.00754647 0.000233276 -3.1882e-05
0.000233276 -0.00327229 4.28466e-05
-3.1882e-05 4.28466e-05 -0.00413577
0.00397974 -0.000648503 -6.12189e-05
-0.000648503 0.000915982 5.22744e-05
-6.12189e-05 5.22744e-05 0.000167419
0.00699106 -0.00017215 -7.83069e-06
-0.00017215 0.00227483 -4.82249e-05
-7.83069e-06 -4.82249e-05 0.000445321
0.00358106 -0.000277458 -4.04802e-05
-0.000277458 0.0004593 4.27179e-05
-4.04802e-05 4.27179e-05 0.000175923
0.0096166 -0.000205528 5.8485e-05
-0.000205528 0.00406393 -1.39164e-05
5.8485e-05 -1.39164e-05 0.00170725
0.000448425 -0.000288401 2.31235e-05
-0.000288401 -0.000757884 3.33728e-06
2.31235e-05 3.33728e-06 -0.0011011
0.00106664 -0.00047044 -3.31515e-05
-0.00047044 -0.00181133 -7.70575e-05
-3.31515e-05 -7.70575e-05 -0.000585853
0.00463724 2.82929e-05 -0.000108577
2.82929e-05 0.000937123 -1.86603e-05
-0.000108577 -1.86603e-05 0.000689319
0.00797488 -0.000187545 -1.66946e-05
-0.000187545 0.00274468 4.56506e-05
-1.66946e-05 4.56506e-05 0.00108847
0.00760809 -0.000950939 -9.76276e-07
-0.000950939 0.00209362 -3.02493e-05
-9.76276e-07 -3.02493e-05 0.00220314
0.00323721 -0.000732724 1.82657e-05
-0.000732724 0.000293869 1.63058e-06
1.82657e-05 1.63058e-06 0.0016875
0.000630116 2.26217e-05 2.51046e-06
2.26217e-05 1.07572e-05 1.64204e-06
2.51046e-06 1.64204e-06 -5.45966e-05
0.000918417 -3.1256e-05 -6.60617e-08
-3.1256e-05 0.000128989 6.15292e-07
-6.60617e-08 6.15292e-07 5.02181e-05
0.000808782 1.13582e-05 -1.50528e-07
1.13582e-05 6.16306e-05 -1.28051e-06
-1.50528e-07 -1.28051e-06 -2.77703e-05
0.000173907 1.3245e-05 -2.48728e-05
1.3245e-05 4.55212e-05 1.77795e-05
-2.48728e-05 1.77795e-05 -0.00032211
0.00118594 -6.39855e-05 -2.76711e-05
-6.39855e-05 0.000545819 -8.46148e-06
-2.76711e-05 -8.46148e-06 0.000521979
0.000758102 -1.36122e-05 -1.28796e-06
-1.36122e-05 3.84292e-05 -7.21034e-07
-1.28796e-06 -7.21034e-07 -4.30921e-05
0.000560275 -3.73686e-05 -5.73383e-07
-3.73686e-05 -3.86626e-05 -5.57355e-06
-5.73383e-07 -5.57355e-06 -0.000105679
0.000773433 3.52253e-06 -3.75865e-07
3.52253e-06 8.41371e-05 -1.52241e-06
-3.75865e-07 -1.52241e-06 1.1283e-05
0.000495152 -1.19591e-05 -1.78285e-06
-1.19591e-05 0.000119675 4.00498e-06
-1.78285e-06 4.00498e-06 4.92224e-05
0.000115297 -1.68528e-05 4.28815e-05
-1.68528e-05 0.000567949 -3.42807e-05
4.28815e-05 -3.42807e-05 -0.000326202
-0.000628149 -1.32026e-05 -6.75331e-06
-1.32026e-05 -0.000502793 8.36991e-06
-6.75331e-06 8.36991e-06 -0.000583511
0.00111703 0.000121184 -5.26332e-06
0.000121184 0.000524327 -3.17228e-05
-5.26332e-06 -3.17228e-05 8.11961e-06
0.00135866 -6.30361e-06 5.01429e-05
-6.30361e-06 8.56533e-05 6.75653e-06
5.01429e-05 6.75653e-06 -0.000339555
0.00114815 -1.06729e-05 7.45056e-06
-1.06729e-05 0.000114653 1.84618e-06
7.45056e-06 1.84618e-06 -6.56403e-07
0.000628113 -7.93427e-06 5.44856e-07
-7.93427e-06 -0.000188167 -3.72153e-07
5.44856e-07 -3.72153e-07 -0.000238768
-0.00151929 -4.20709e-05 -3.74519e-05
-4.20709e-05 -0.00046417 1.2148e-05
-3.74519e-05 1.2148e-05 -0.000809957
0.00251786 3.90155e-05 2.49881e-06
3.90155e-05 -0.00010891 -4.05888e-05
2.49881e-06 -4.05888e-05 -0.000211366
0.0013717 9.92238e-06 -5.25528e-06
9.92238e-06 0.000190352 1.12903e-05
-5.25528e-06 1.12903e-05 1.38671e-05
0.0124734 -0.000327929 9.54034e-05
-0.000327929 0.00534475 -9.47702e-06
9.54034e-05 -9.47702e-06 0.00291736
0.00493937 0.000681543 -4.41576e-05
0.000681543 0.0011788 3.63558e-06
-4.41576e-05 3.63558e-06 0.00111809
0.00258647 -1.69502e-05 -4.35398e-05
-1.69502e-05 0.000487765 5.28126e-05
-4.35398e-05 5.28126e-05 -0.000259856
-0.00401521 0.000834442 7.48226e-05
0.000834442 -0.00308192 -8.56792e-05
7.48226e-05 -8.56792e-05 -0.00131089
0.000521023 -3.21069e-05 -7.53831e-06
-3.21069e-05 0.000208427 -1.35672e-06
-7.53831e-06 -1.35672e-06 0.000124885
0.00146437 6.96918e-07 -8.36048e-06
6.96918e-07 0.000109067 2.61645e-06
-8.36048e-06 2.61645e-06 -0.000338987
-0.00172224 0.000274962 -8.34807e-05
0.000274962 -0.000235251 3.47312e-05
-8.34807e-05 3.47312e-05 -0.000353078
0.00192722 -0.000295704 -2.40452e-05
-0.000295704 -0.000191101 2.97915e-05
-2.40452e-05 2.97915e-05 -0.000379088
0.0062475 0.000977382 1.94295e-05
0.000977382 0.00212309 2.24402e-05
1.94295e-05 2.24402e-05 0.00252309
0.00699964 -0.000213183 5.08945e-05
-0.000213183 0.00260434 -2.93579e-05
5.08945e-05 -2.93579e-05 0.000506865
0.00166388 -0.00020195 1.80877e-05
-0.00020195 0.000295079 1.78634e-05
1.80877e-05 1.78634e-05 0.000456098
-0.00171263 3.16238e-05 3.88392e-05
3.16238e-05 7.07593e-05 -8.62505e-06
3.88392e-05 -8.62505e-06 -0.000575011
0.0029244 0.000668551 -5.94641e-05
0.000668551 0.00148614 2.47046e-05
-5.94641e-05 2.47046e-05 0.00159483
0.00439817 0.000157421 -8.43172e-05
0.000157421 0.00144055 6.53871e-05
-8.43172e-05 6.53871e-05 -0.000696547
0.00264943 -0.000595754 2.263e-05
-0.000595754 0.0001737 3.18708e-06
2.263e-05 3.18708e-06 -0.000406063
0.000862069 -7.06417e-06 7.83352e-06
-7.06417e-06 0.000490845 1.03754e-05
7.83352e-06 1.03754e-05 0.000339692
0.000571271 -0.000147045 -2.09735e-06
-0.000147045 0.000129977 5.43638e-07
-2.09735e-06 5.43638e-07 -1.97762e-05
0.00255297 -0.000279425 2.02341e-05
-0.000279425 0.000738843 1.39263e-06
2.02341e-05 1.39263e-06 0.000709015
-0.00124096 -1.38773e-05 -4.61066e-06
-1.38773e-05 -0.000755278 6.24453e-06
-4.61066e-06 6.24453e-06 -0.000990016
0.000754752 -0.000176419 4.48941e-06
-0.000176419 3.14157e-05 -6.21912e-07
4.48941e-06 -6.21912e-07 -0.000192941
0.000809017 -0.000236681 3.89682e-06
-0.000236681 -0.000241094 -1.7629e-06
3.89682e-06 -1.7629e-06 -0.0004067
0.00195085 -0.000223649 -5.4545e-06
-0.000223649 0.000699937 1.56895e-06
-5.4545e-06 1.56895e-06 0.00044373
0.00120959 -0.000221133 -2.33411e-06
-0.000221133 0.00013034 -2.25938e-06
-2.33411e-06 -2.25938e-06 -0.000101734
0.00155464 -0.000270314 5.04879e-06
-0.000270314 9.9503e-05 -1.83247e-06
5.04879e-06 -1.83247e-06 -6.29473e-05
0.00182627 -0.000236689 -2.48789e-06
-0.000236689 0.000511527 -8.40063e-07
-2.48789e-06 -8.40063e-07 0.00027434
0.0015201 -0.00023664 -4.79996e-07
-0.00023664 0.000187747 -2.0436e-06
-4.79996e-07 -2.0436e-06 -2.1807e-05
0.00156277 -0.000231064 7.03331e-07
-0.000231064 6.217e-05 -2.60275e-06
7.03331e-07 -2.60275e-06 -8.85934e-05
0.00160671 -0.000196794 5.78357e-07
-0.000196794 0.000105548 -1.49049e-06
5.78357e-07 -1.49049e-06 -3.3685e-05
0.00157341 -0.000218505 8.19827e-09
-0.000218505 0.000229491 -1.19441e-06
8.19827e-09 -1.19441e-06 4.23562e-05
0.00150602 -0.000220944 1.56975e-06
-0.000220944 0.000119886 1.83809e-07
1.56975e-06 1.83809e-07 -4.83175e-05
0.00148233 -0.000196092 -1.57459e-06
-0.000196092 0.000321632 4.21249e-06
-1.57459e-06 4.21249e-06 0.000143593
0.00144552 -0.000206063 4.16583e-08
-0.000206063 0.000270306 3.23569e-07
4.16583e-08 3.23569e-07 6.58196e-05
0.00138214 -0.000213919 -5.68162e-07
-0.000213919 0.000180894 -1.58907e-06
-5.68162e-07 -1.58907e-06 -3.67663e-05
0.000967417 -0.000143303 1.20211e-06
-0.000143303 0.000126778 -1.22408e-06
1.20211e-06 -1.22408e-06 -1.37073e-05
0.000680607 -0.000129518 -2.527e-07
-0.000129518 -3.32374e-05 -1.68256e-06
-2.527e-07 -1.68256e-06 -0.000178541
0.00120207 -0.000165614 4.06713e-06
-0.000165614 0.000238604 -4.33629e-06
4.06713e-06 -4.33629e-06 7.75356e-05
0.000832367 -7.62204e-05 3.73333e-07
-7.62204e-05 8.43538e-05 1.1495e-06
3.73333e-07 1.1495e-06 -3.05517e-05
0.000901162 -0.000120357 3.16729e-07
-0.000120357 0.000131253 4.7104e-07
3.16729e-07 4.7104e-07 -4.68865e-06
0.000902579 -0.000132353 -7.41514e-07
-0.000132353 0.000132443 9.66665e-07
-7.41514e-07 9.66665e-07 -1.21771e-05
0.000680127 8.14759e-05 1.34538e-06
8.14759e-05 1.32587e-05 2.94117e-06
1.34538e-06 2.94117e-06 -5.76791e-05
0.000813831 -9.27625e-06 9.25232e-08
-9.27625e-06 8.89989e-05 -9.75069e-08
9.25232e-08 -9.75069e-08 -1.21021e-05
0.000870171 -6.72242e-05 -1.01473e-06
-6.72242e-05 0.000131093 1.53514e-07
-1.01473e-06 1.53514e-07 1.5935e-05
0.00130354 6.76163e-05 -1.37341e-05
6.76163e-05 0.000354465 2.96863e-06
-1.37341e-05 2.96863e-06 0.000337984
0.000690755 5.29988e-05 -3.51188e-07
5.29988e-05 7.57622e-06 -3.74193e-07
-3.51188e-07 -3.74193e-07 -4.59232e-05
0.000798002 -1.12422e-05 1.48785e-07
-1.12422e-05 7.19841e-05 -1.40842e-06
1.48785e-07 -1.40842e-06 -1.06763e-05
0.000791927 3.92965e-05 -2.34602e-05
3.92965e-05 6.3827e-05 3.22535e-06
-2.34602e-05 3.22535e-06 6.90236e-05
0.00101105 5.71366e-05 -6.46673e-06
5.71366e-05 0.000180238 2.74004e-07
-6.46673e-06 2.74004e-07 0.000166211
0.00071123 5.41519e-05 8.01471e-08
5.41519e-05 1.1365e-05 -1.92451e-06
8.01471e-08 -1.92451e-06 -3.37518e-05
0.000687435 4.59005e-05 1.17252e-06
4.59005e-05 -1.04023e-05 -3.33654e-06
1.17252e-06 -3.33654e-06 -2.30433e-05
0.00212373 6.44296e-05 1.32191e-06
6.44296e-05 0.000800549 1.09915e-07
1.32191e-06 1.09915e-07 0.000813142
0.00212489 5.66783e-05 2.25692e-05
5.66783e-05 0.000793684 -3.40316e-06
2.25692e-05 -3.40316e-06 0.000808178
0.000748855 -1.60627e-05 2.54137e-07
-1.60627e-05 3.20967e-05 -1.08553e-06
2.54137e-07 -1.08553e-06 -4.90117e-05
0.000807232 2.17098e-05 -4.63809e-07
2.17098e-05 6.08663e-05 -1.36323e-06
-4.63809e-07 -1.36323e-06 -1.16792e-05
0.000796621 -1.64841e-05 1.13989e-07
-1.64841e-05 5.81085e-05 -6.31466e-08
1.13989e-07 -6.31466e-08 -1.97943e-05
0.000729228 -3.41912e-05 -8.67792e-07
-3.41912e-05 3.85752e-06 -1.99146e-06
-8.67792e-07 -1.99146e-06 -4.12675e-05
0.000799163 1.04953e-05 6.9477e-07
1.04953e-05 5.1431e-05 -5.77343e-08
6.9477e-07 -5.77343e-08 -1.61555e-05
0.000660787 -3.76425e-05 -5.48076e-07
-3.76425e-05 -3.57803e-05 -3.8391e-06
-5.48076e-07 -3.8391e-06 -4.94904e-05
0.000731248 -1.93592e-05 -1.63117e-07
-1.93592e-05 1.6434e-06 5.83745e-09
-1.63117e-07 5.83745e-09 -4.12757e-05
0.00081294 4.63514e-05 1.02014e-06
4.63514e-05 6.51714e-05 6.18292e-07
1.02014e-06 6.18292e-07 -5.75553e-06
0.00228395 -4.88186e-05 -2.12582e-05
-4.88186e-05 0.000872661 -4.03683e-06
-2.12582e-05 -4.03683e-06 0.000887945
0.000671389 -3.12921e-05 -2.94189e-07
-3.12921e-05 -3.61363e-05 -4.00872e-09
-2.94189e-07 -4.00872e-09 -4.72373e-05
0.000746215 -1.61208e-05 3.2123e-07
-1.61208e-05 9.02016e-06 1.75718e-06
3.2123e-07 1.75718e-06 -3.18324e-05
0.00220509 -3.88331e-05 -2.47291e-06
-3.88331e-05 0.000822416 1.0053e-07
-2.47291e-06 1.0053e-07 0.000839816
0.000680835 -2.48672e-05 2.82131e-07
-2.48672e-05 -3.65314e-05 3.54813e-06
2.82131e-07 3.54813e-06 -4.49558e-05
0.00213532 -2.83094e-05 1.18678e-05
-2.83094e-05 0.000778217 4.33933e-06
1.18678e-05 4.33933e-06 0.000797514
0.00204179 -4.80385e-05 5.15693e-05
-4.80385e-05 0.000453482 2.84789e-05
5.15693e-05 2.84789e-05 6.9693e-05
0.0012259 -3.32591e-05 5.27134e-07
-3.32591e-05 0.000143463 6.4213e-06
5.27134e-07 6.4213e-06 -5.50979e-05
0.0010628 -8.03029e-06 -4.02495e-06
-8.03029e-06 1.27569e-05 -4.90706e-06
-4.02495e-06 -4.90706e-06 -0.000122014
0.000884024 5.30095e-05 -1.24613e-06
5.30095e-05 0.000120919 -5.19694e-07
-1.24613e-06 -5.19694e-07 2.79851e-05
0.000860386 -3.60107e-08 1.34778e-07
-3.60107e-08 9.12213e-05 9.55055e-08
1.34778e-07 9.55055e-08 1.45245e-05
0.000781346 -2.82202e-05 5.18573e-08
-2.82202e-05 5.03589e-05 4.76752e-07
5.18573e-08 4.76752e-07 -2.92846e-05
0.000846122 -2.26115e-05 9.84645e-08
-2.26115e-05 8.23445e-05 -1.29799e-07
9.84645e-08 -1.29799e-07 5.66678e-06
0.000871709 6.36247e-06 1.40258e-07
6.36247e-06 0.000103205 -3.41427e-07
1.40258e-07 -3.41427e-07 1.82534e-05
0.000855789 3.30696e-05 1.86368e-07
3.30696e-05 0.000100716 6.57194e-07
1.86368e-07 6.57194e-07 1.18303e-05
0.000876899 2.28729e-05 -3.28016e-07
2.28729e-05 0.000113315 -1.65664e-06
-3.28016e-07 -1.65664e-06 1.96421e-05
0.000629701 -2.46551e-05 3.48557e-07
-2.46551e-05 -2.62743e-05 -1.98787e-07
3.48557e-07 -1.98787e-07 -0.000110595
0.000826981 5.85083e-05 2.34682e-07
5.85083e-05 7.96116e-05 -4.65387e-07
2.34682e-07 -4.65387e-07 -3.27647e-06
0.0008419 -4.52476e-05 6.71983e-07
-4.52476e-05 7.30834e-05 -8.93892e-07
6.71983e-07 -8.93892e-07 -6.31296e-06
0.000852609 6.42332e-06 -1.76596e-07
6.42332e-06 9.85822e-05 1.26038e-07
-1.76596e-07 1.26038e-07 1.55439e-05
0.00134946 2.47257e-05 4.26097e-06
2.47257e-05 0.000394033 1.7681e-06
4.26097e-06 1.7681e-06 0.000312249
0.00126233 -0.00036085 6.10844e-05
-0.00036085 0.000894346 5.58001e-05
6.10844e-05 5.58001e-05 0.000847978
0.00213201 -9.39719e-07 3.69629e-06
-9.39719e-07 0.000479835 1.6918e-05
3.69629e-06 1.6918e-05 -0.000278108
0.0016947 2.42909e-05 -1.24381e-05
2.42909e-05 0.000223335 -3.20012e-05
-1.24381e-05 -3.20012e-05 -0.000438307
0.00466474 -0.00060143 -7.36457e-05
-0.00060143 8.39005e-05 -6.24647e-05
-7.36457e-05 -6.24647e-05 0.00140475
0.00397715 -0.000230585 -9.55345e-06
-0.000230585 0.000460293 1.27811e-05
-9.55345e-06 1.27811e-05 6.31023e-05
0.000794073 -0.000349093 -9.18147e-05
-0.000349093 -0.000306974 5.90538e-05
-9.18147e-05 5.90538e-05 -0.00220426
0.00296552 -0.000214682 -4.89322e-05
-0.000214682 0.00034633 9.14399e-05
-4.89322e-05 9.14399e-05 -8.13938e-05
0.00414146 -0.000198284 -4.73592e-06
-0.000198284 0.000731911 3.42952e-05
-4.73592e-06 3.42952e-05 0.000628536
-0.000499563 -0.000731403 6.12776e-06
-0.000731403 -0.00136651 1.70966e-05
6.12776e-06 1.70966e-05 0.000165323
0.00520383 0.000121617 7.38104e-06
0.000121617 0.0021751 1.96038e-05
7.38104e-06 1.96038e-05 -0.000221536
0.00103841 -0.000463118 -4.94679e-06
-0.000463118 -0.00118368 1.31641e-05
-4.94679e-06 1.31641e-05 -0.000897588
0.00240068 0.000193035 -4.27124e-05
0.000193035 7.01762e-05 -1.28086e-05
-4.27124e-05 -1.28086e-05 -0.00013534
0.00881998 -0.000355143 -3.57441e-05
-0.000355143 0.0038543 3.7328e-05
-3.57441e-05 3.7328e-05 0.00187026
-2.07693e-05 -0.000537566 -5.65583e-05
-0.000537566 -0.000396124 -4.2412e-05
-5.65583e-05 -4.2412e-05 4.86219e-05
0.00056392 0.000150356 7.1782e-07
0.000150356 -4.10647e-05 -2.59888e-06
7.1782e-07 -2.59888e-06 -0.000107594
0.000935887 3.14214e-05 4.40038e-06
3.14214e-05 0.000170154 -3.53073e-08
4.40038e-06 -3.53073e-08 0.000106262
0.000946644 -1.30368e-05 -9.38611e-07
-1.30368e-05 0.000148481 -4.39258e-07
-9.38611e-07 -4.39258e-07 6.86169e-05
-0.000862743 -1.12447e-05 -4.75806e-05
-1.12447e-05 -5.95247e-05 -1.23598e-05
-4.75806e-05 -1.23598e-05 -0.000900536
-0.000850777 3.63248e-05 4.45342e-06
3.63248e-05 -0.000611787 -6.78436e-06
4.45342e-06 -6.78436e-06 -0.000686169
0.000813542 3.52603e-05 -1.35165e-07
3.52603e-05 0.000108607 -2.4608e-06
-1.35165e-07 -2.4608e-06 3.36181e-05
0.000800853 8.86088e-05 3.08887e-06
8.86088e-05 0.000210416 1.92111e-06
3.08887e-06 1.92111e-06 0.000122049
0.00074582 0.000159083 2.70449e-06
0.000159083 0.00025803 -2.15506e-05
2.70449e-06 -2.15506e-05 -0.000147856
0.000452723 0.000225666 1.69124e-05
0.000225666 -0.000128815 5.23686e-06
1.69124e-05 5.23686e-06 -0.000292415
0.000256601 -2.50996e-06 9.05601e-05
-2.50996e-06 0.00119394 5.12633e-07
9.05601e-05 5.12633e-07 0.000554694
0.00142537 -2.14803e-05 -5.2101e-06
-2.14803e-05 0.000180273 6.09091e-06
-5.2101e-06 6.09091e-06 -0.0001717
0.000888434 -8.59311e-06 -1.57479e-06
-8.59311e-06 -9.41453e-06 1.28285e-06
-1.57479e-06 1.28285e-06 -0.000110285
0.000979907 -4.9244e-05 -2.07978e-05
-4.9244e-05 0.000456406 5.49665e-06
-2.07978e-05 5.49665e-06 0.000374098
0.0010342 -0.000216303 4.18817e-06
-0.000216303 -0.000817735 -2.30953e-05
4.18817e-06 -2.30953e-05 -0.000796948
0.00165254 5.90342e-06 -6.49947e-05
5.90342e-06 0.000240487 1.71371e-05
-6.49947e-05 1.71371e-05 -0.000210551
-0.000561315 -0.000323494 2.94991e-05
-0.000323494 -0.000833946 -3.55648e-05
2.94991e-05 -3.55648e-05 -0.00293837
-0.00285123 0.000484354 7.15941e-06
0.000484354 -0.00250288 -2.94383e-05
7.15941e-06 -2.94383e-05 -0.00197761
0.00158275 0.000391593 -7.63837e-05
0.000391593 0.00117797 5.69225e-05
-7.63837e-05 5.69225e-05 0.00138804
0.0017349 -0.000123016 -4.39532e-06
-0.000123016 0.000199582 3.18812e-06
-4.39532e-06 3.18812e-06 0.000479898
0.00137462 0.000147901 2.77503e-06
0.000147901 0.0014969 5.93643e-06
2.77503e-06 5.93643e-06 0.00119288
-0.00401072 0.000291721 2.38824e-05
0.000291721 -0.0014192 4.95572e-07
2.38824e-05 4.95572e-07 -0.0018123
0.00414689 -0.000640386 1.57369e-07
-0.000640386 0.00113907 1.9892e-06
1.57369e-07 1.9892e-06 0.000196951
0.00814528 0.000259843 1.23208e-05
0.000259843 0.00311931 -1.16764e-06
1.23208e-05 -1.16764e-06 0.00142495
0.000537098 -0.000208674 1.56619e-06
-0.000208674 -0.000328658 1.53427e-05
1.56619e-06 1.53427e-05 -0.000245012
-0.00610468 0.000144814 -6.59119e-05
0.000144814 -0.00309285 2.35562e-06
-6.59119e-05 2.35562e-06 -0.00325366
0.00678501 0.000197408 -9.45809e-06
0.000197408 0.00235084 6.39861e-06
-9.45809e-06 6.39861e-06 0.000913808
0.00549227 -0.000591081 -6.88073e-07
-0.000591081 0.000948032 1.69625e-05
-6.88073e-07 1.69625e-05 7.27624e-05
3.31194e-05 -0.000116011 -1.7252e-05
-0.000116011 -0.000118528 1.14606e-05
-1.7252e-05 1.14606e-05 -0.00030519
0.00122753 -0.000206806 -1.09836e-06
-0.000206806 4.87029e-05 6.45224e-07
-1.09836e-06 6.45224e-07 6.52258e-05
0.00202321 -0.000240483 1.32355e-05
-0.000240483 0.000209805 -2.2975e-06
1.32355e-05 -2.2975e-06 0.000259797
4.91762e-05 -0.000123207 -5.42752e-06
-0.000123207 -0.000300788 -1.47276e-07
-5.42752e-06 -1.47276e-07 -0.000531479
0.00121507 -0.000258753 -3.95076e-06
-0.000258753 -2.6846e-05 -1.36841e-06
-3.95076e-06 -1.36841e-06 -0.00019619
0.00192295 -0.000305201 2.60138e-06
-0.000305201 0.00015838 1.13766e-07
2.60138e-06 1.13766e-07 4.32838e-05
0.00160882 -0.000242731 -5.57458e-06
-0.000242731 0.000336238 -1.80905e-06
-5.57458e-06 -1.80905e-06 0.000111126
0.00156289 -0.000267253 2.13746e-06
-0.000267253 0.000114849 3.55771e-07
2.13746e-06 3.55771e-07 -5.08342e-05
0.00193135 -0.000247679 5.31669e-07
-0.000247679 0.000187344 -3.777e-06
5.31669e-07 -3.777e-06 6.39296e-05
0.0017448 -0.000248521 -3.71862e-06
-0.000248521 0.000301778 2.34909e-07
-3.71862e-06 2.34909e-07 9.66548e-05
0.00163719 -0.000233831 1.66718e-07
-0.000233831 0.00010028 7.46282e-07
1.66718e-07 7.46282e-07 -5.02987e-05
0.00175542 -0.000195944 3.29901e-07
-0.000195944 0.000123195 -3.59896e-06
3.29901e-07 -3.59896e-06 6.49592e-06
0.00164833 -0.000166618 -3.21325e-07
-0.000166618 0.000100264 -2.0181e-06
-3.21325e-07 -2.0181e-06 -2.10338e-05
0.00183908 -0.000208618 -2.19288e-07
-0.000208618 0.00027813 -1.43232e-06
-2.19288e-07 -1.43232e-06 0.000122072
0.00156401 -0.000192949 3.09026e-08
-0.000192949 8.41156e-05 3.70665e-07
3.09026e-08 3.70665e-07 -5.44805e-05
0.000945674 -0.000170208 -2.20887e-06
-0.000170208 -5.92709e-05 1.04904e-06
-2.20887e-06 1.04904e-06 -0.000236443
0.00157681 -0.000214872 2.05431e-06
-0.000214872 0.000232299 -7.41391e-07
2.05431e-06 -7.41391e-07 4.83436e-05
0.0013882 -0.000212349 2.06905e-06
-0.000212349 6.0664e-05 2.2118e-06
2.06905e-06 2.2118e-06 -0.000106348
0.0010844 -0.000160138 2.10705e-07
-0.000160138 0.000141418 1.73837e-06
2.10705e-07 1.73837e-06 -1.16298e-05
0.00101187 -0.000165082 1.47252e-06
-0.000165082 7.27043e-05 -7.7726e-07
1.47252e-06 -7.7726e-07 -0.000102539
0.000704221 -0.00015887 -2.6182e-07
-0.00015887 -0.000124872 -2.88865e-06
-2.6182e-07 -2.88865e-06 -0.000331193
0.000934243 -0.00012463 -1.48945e-06
-0.00012463 0.000107038 1.79426e-07
-1.48945e-06 1.79426e-07 -1.52737e-05
0.00105777 -0.000148648 -6.85822e-08
-0.000148648 0.000172454 -7.39116e-07
-6.85822e-08 -7.39116e-07 3.15249e-05
0.00077815 -0.000134533 -1.1554e-06
-0.000134533 2.33839e-05 -3.46563e-06
-1.1554e-06 -3.46563e-06 -0.000118804
0.000756875 -1.34636e-06 2.80081e-07
-1.34636e-06 4.42865e-05 3.22905e-06
2.80081e-07 3.22905e-06 -3.81848e-05
0.000922126 -7.66987e-05 1.00514e-06
-7.66987e-05 0.000131963 4.26905e-07
1.00514e-06 4.26905e-07 1.68664e-05
0.000745177 -9.72297e-05 -6.10883e-07
-9.72297e-05 4.63811e-05 1.19526e-06
-6.10883e-07 1.19526e-06 -8.67575e-05
0.000554858 6.45503e-05 -2.43455e-07
6.45503e-05 -5.34372e-05 4.57093e-06
-2.43455e-07 4.57093e-06 -8.13348e-05
0.000702146 2.15322e-05 -6.7284e-07
2.15322e-05 1.7036e-05 -4.11122e-07
-6.7284e-07 -4.11122e-07 -5.02566e-05
0.000894396 -3.4558e-05 -1.63386e-07
-3.4558e-05 0.000134291 -1.63211e-06
-1.63386e-07 -1.63211e-06 3.06469e-05
0.00220687 8.89651e-05 -9.51617e-06
8.89651e-05 0.000865477 1.23447e-06
-9.51617e-06 1.23447e-06 0.000871022
0.00064768 5.83328e-05 -4.99207e-08
5.83328e-05 -1.13782e-05 -9.99643e-08
-4.99207e-08 -9.99643e-08 -3.23925e-05
0.000694172 3.43966e-05 1.18024e-06
3.43966e-05 6.812e-06 -2.28319e-06
1.18024e-06 -2.28319e-06 -4.54126e-05
0.00215077 7.20832e-05 1.38266e-06
7.20832e-05 0.000824063 1.11581e-07
1.38266e-06 1.11581e-07 0.000834457
0.000689006 5.29629e-05 9.93859e-07
5.29629e-05 6.00178e-07 -3.5347e-06
9.93859e-07 -3.5347e-06 -1.55367e-05
0.00214995 6.52004e-05 2.60741e-05
6.52004e-05 0.00081625 -3.13891e-06
2.60741e-05 -3.13891e-06 0.000828556
0.00088919 4.30871e-05 -3.61528e-07
4.30871e-05 0.000115285 -2.019e-07
-3.61528e-07 -2.019e-07 2.75265e-05
0.000788337 -2.69254e-06 -2.63681e-08
-2.69254e-06 5.3755e-05 -2.79977e-07
-2.63681e-08 -2.79977e-07 -2.79874e-05
0.000791573 6.63005e-06 -2.52437e-07
6.63005e-06 5.76288e-05 -1.71722e-06
-2.52437e-07 -1.71722e-06 -2.08023e-05
0.000718395 -3.8717e-05 -8.27523e-07
-3.8717e-05 3.51564e-06 -2.33668e-06
-8.27523e-07 -2.33668e-06 -4.38179e-05
0.000770791 -6.31582e-06 8.3957e-07
-6.31582e-06 4.09517e-05 -7.0427e-08
8.3957e-07 -7.0427e-08 -3.09094e-05
0.000748319 -2.29103e-06 4.88453e-07
-2.29103e-06 3.43591e-05 6.68453e-07
4.88453e-07 6.68453e-07 -4.59242e-05
0.000659088 -4.30093e-05 -1.00387e-06
-4.30093e-05 -3.01975e-05 -3.98195e-06
-1.00387e-06 -3.98195e-06 -4.606e-05
0.00072543 -2.69319e-05 -1.82737e-07
-2.69319e-05 1.51783e-06 9.37535e-09
-1.82737e-07 9.37535e-09 -4.32392e-05
0.000776263 1.91632e-06 1.18621e-06
1.91632e-06 3.81473e-05 7.92004e-07
1.18621e-06 7.92004e-07 -2.85544e-05
0.00232793 -5.7673e-05 -2.55831e-05
-5.7673e-05 0.000903476 -3.80756e-06
-2.55831e-05 -3.80756e-06 0.000916897
0.000657118 -3.66927e-05 -2.52565e-07
-3.66927e-05 -3.79418e-05 1.90797e-08
-2.52565e-07 1.90797e-08 -5.15296e-05
0.000735818 -1.76268e-05 8.28738e-07
-1.76268e-05 4.57322e-06 1.81764e-06
8.28738e-07 1.81764e-06 -3.83604e-05
0.00226541 -4.83018e-05 -2.61391e-06
-4.83018e-05 0.000861695 1.26602e-07
-2.61391e-06 1.26602e-07 0.000877199
0.000666881 -3.0663e-05 2.60844e-07
-3.0663e-05 -3.86681e-05 3.68371e-06
2.60844e-07 3.68371e-06 -4.96759e-05
0.00218604 -3.80219e-05 1.56547e-05
-3.80219e-05 0.000811128 4.22238e-06
1.56547e-05 4.22238e-06 0.000828803
-0.00255352 -0.000106945 3.30916e-05
-0.000106945 -0.000343627 2.09002e-05
3.30916e-05 2.09002e-05 -0.00109906
0.00199073 -5.6313e-05 2.10544e-06
-5.6313e-05 0.000451239 8.18547e-06
2.10544e-06 8.18547e-06 6.99563e-05
0.00126288 -2.91204e-05 -8.35004e-06
-2.91204e-05 0.000155762 -7.07491e-06
-8.35004e-06 -7.07491e-06 -3.35678e-05
0.00080737 1.62891e-05 -8.48919e-07
1.62891e-05 7.57222e-05 6.47055e-07
-8.48919e-07 6.47055e-07 -1.40024e-05
0.00112726 0.000132541 1.08196e-07
0.000132541 0.000264885 6.91284e-07
1.08196e-07 6.91284e-07 0.000153758
0.00084831 2.71026e-05 -6.54161e-07
2.71026e-05 0.000105983 -6.06588e-09
-6.54161e-07 -6.06588e-09 8.41622e-06
0.000948547 -3.26923e-05 2.6385e-07
-3.26923e-05 0.000138867 -3.37948e-07
2.6385e-07 -3.37948e-07 6.19998e-05
0.000941127 3.79294e-05 7.83986e-07
3.79294e-05 0.000139273 4.72151e-07
7.83986e-07 4.72151e-07 5.52258e-05
0.00068956 -1.19833e-05 -4.91765e-07
-1.19833e-05 3.36782e-06 1.59371e-06
-4.91765e-07 1.59371e-06 -8.03239e-05
0.000726472 6.78909e-06 -7.87958e-07
6.78909e-06 3.12171e-05 -2.52667e-08
-7.87958e-07 -2.52667e-08 -5.8044e-05
0.000793997 9.41596e-06 2.27311e-07
9.41596e-06 6.67204e-05 -2.13033e-07
2.27311e-07 -2.13033e-07 -2.56552e-05
0.000978671 5.69009e-05 1.35656e-06
5.69009e-05 0.000190509 -1.85329e-06
1.35656e-06 -1.85329e-06 8.161e-05
0.000904187 8.57672e-05 4.6368e-06
8.57672e-05 0.000104269 -5.53008e-06
4.6368e-06 -5.53008e-06 1.54229e-05
0.000830886 3.55076e-05 -2.1721e-07
3.55076e-05 8.82784e-05 -8.02933e-07
-2.1721e-07 -8.02933e-07 2.56666e-06
0.000957026 4.47509e-05 7.50005e-07
4.47509e-05 0.000180731 1.03187e-06
7.50005e-07 1.03187e-06 9.7472e-05
-0.00305549 -0.000385511 -6.7354e-05
-0.000385511 -0.00120351 1.5145e-05
-6.7354e-05 1.5145e-05 -0.001406
-0.000877787 -0.000335059 4.09666e-05
-0.000335059 2.21988e-05 1.51053e-05
4.09666e-05 1.51053e-05 -0.000189162
0.00236065 -6.84115e-06 -5.71119e-05
-6.84115e-06 0.000624039 -4.53905e-05
-5.71119e-05 -4.53905e-05 -0.000160329
-0.0041955 -0.000745985 5.25088e-05
-0.000745985 -0.00300696 7.34191e-05
5.25088e-05 7.34191e-05 -0.00131745
0.00597708 -0.000688458 -6.12286e-06
-0.000688458 0.00171853 9.40091e-07
-6.12286e-06 9.40091e-07 0.00183254
0.00254136 0.000437255 5.54981e-05
0.000437255 0.000627902 -1.30689e-05
5.54981e-05 -1.30689e-05 -0.00168999
0.00312405 -0.00023145 -0.000141139
-0.00023145 0.000400768 7.98037e-05
-0.000141139 7.98037e-05 -0.000169053
0.00320711 0.000152726 -2.72951e-05
0.000152726 0.000440161 6.60778e-06
-2.72951e-05 6.60778e-06 0.000143545
0.00508121 -0.000836086 -2.22455e-05
-0.000836086 0.00221823 2.53848e-05
-2.22455e-05 2.53848e-05 0.00241976
0.00196471 0.000133818 8.58112e-06
0.000133818 0.000539262 1.15742e-05
8.58112e-06 1.15742e-05 -0.00150293
0.00249699 0.000417505 -0.000111013
0.000417505 0.000619788 -7.43774e-05
-0.000111013 -7.43774e-05 -0.000123938
0.00175663 0.000491262 -0.000153931
0.000491262 0.000168478 -5.90209e-05
-0.000153931 -5.90209e-05 -0.00176581
0.00220204 0.000355596 1.0554e-05
0.000355596 0.000595163 -1.17154e-05
1.0554e-05 -1.17154e-05 0.00044786
0.000779625 0.000147638 -3.06572e-06
0.000147638 6.85808e-05 7.6618e-07
-3.06572e-06 7.6618e-07 3.91438e-06
0.00108589 2.97532e-05 -1.58069e-06
2.97532e-05 0.000245977 -2.72507e-06
-1.58069e-06 -2.72507e-06 0.000183184
9.36067e-05 0.000140049 -3.12484e-05
0.000140049 -5.71414e-05 -1.76171e-05
-3.12484e-05 -1.76171e-05 -0.000366317
0.00168087 0.000144506 -6.8526e-06
0.000144506 0.000641852 -6.50624e-06
-6.8526e-06 -6.50624e-06 0.000547527
0.00117247 0.00027911 8.28305e-06
0.00027911 0.000157256 -1.19588e-06
8.28305e-06 -1.19588e-06 6.22091e-06
0.00207681 0.000411788 6.27356e-05
0.000411788 0.00010478 3.27942e-05
6.27356e-05 3.27942e-05 6.968e-05
-0.00356424 -5.09429e-05 -0.000123401
-5.09429e-05 -0.00182749 -6.39269e-06
-0.000123401 -6.39269e-06 -0.00154428
-0.000704566 -8.38005e-06 3.65991e-05
-8.38005e-06 0.00078148 6.70093e-07
3.65991e-05 6.70093e-07 9.79177e-05
0.00154034 -2.95725e-05 -4.66323e-05
-2.95725e-05 0.000284134 5.63679e-06
-4.66323e-05 5.63679e-06 7.17756e-06
0.0018754 -0.000175872 -3.95375e-05
-0.000175872 0.00024082 -2.14128e-05
-3.95375e-05 -2.14128e-05 0.000512899
0.00340378 -0.000654125 -5.67067e-05
-0.000654125 0.000533424 2.11249e-07
-5.67067e-05 2.11249e-07 -0.000196887
0.0015344 0.000113278 -3.92918e-05
0.000113278 0.00162591 2.1123e-05
-3.92918e-05 2.1123e-05 0.00131608
-0.00112034 -0.000148576 7.2445e-05
-0.000148576 -0.000937384 -6.4883e-05
7.2445e-05 -6.4883e-05 -0.00304761
0.00961743 0.000525313 -6.06647e-05
0.000525313 0.00481642 6.54344e-06
-6.06647e-05 6.54344e-06 0.00473634
0.00184764 -0.000336925 5.49354e-07
-0.000336925 0.00025134 1.85526e-06
5.49354e-07 1.85526e-06 0.000232771
-0.000873931 0.000279939 -8.82736e-07
0.000279939 -0.000327216 -4.85489e-06
-8.82736e-07 -4.85489e-06 -0.000500614
0.00270839 0.000146414 -1.64803e-05
0.000146414 0.00035535 2.20376e-05
-1.64803e-05 2.20376e-05 -0.00145382
0.0054865 -0.000605287 -3.30624e-05
-0.000605287 0.00140021 1.03519e-05
-3.30624e-05 1.03519e-05 0.000561385
-0.000825481 -0.000137195 1.07797e-05
-0.000137195 -0.000918782 -4.17272e-06
1.07797e-05 -4.17272e-06 -0.00112912
0.00822441 -0.000125656 5.73733e-05
-0.000125656 0.00249591 -2.52076e-06
5.73733e-05 -2.52076e-06 0.001573
0.00431545 -0.000190103 1.98743e-05
-0.000190103 0.000934477 -1.48612e-05
1.98743e-05 -1.48612e-05 0.000370388
-0.000266292 -0.000128295 -1.75646e-05
-0.000128295 -0.000727828 4.82272e-06
-1.75646e-05 4.82272e-06 -0.00066445
0.00101797 -0.000204675 -1.29059e-06
-0.000204675 -0.000312317 -8.23797e-07
-1.29059e-06 -8.23797e-07 -0.000251546
0.00210377 -0.000277399 1.01394e-05
-0.000277399 8.45989e-05 -1.17598e-05
1.01394e-05 -1.17598e-05 0.000141714
0.00152015 -0.00027398 -9.48077e-06
-0.00027398 0.000135097 -2.28121e-06
-9.48077e-06 -2.28121e-06 -3.42597e-05
0.00163388 -0.000289023 -1.46882e-07
-0.000289023 3.42377e-06 1.01866e-06
-1.46882e-07 1.01866e-06 -0.000103436
0.00208178 -0.000268005 -2.75531e-06
-0.000268005 0.000152723 -5.76665e-07
-2.75531e-06 -5.76665e-07 8.50137e-05
0.00138934 -0.000254148 -1.42204e-06
-0.000254148 3.43677e-05 2.48672e-06
-1.42204e-06 2.48672e-06 -0.000133615
0.00170928 -0.000239752 -2.21068e-06
-0.000239752 6.34998e-05 -4.18434e-07
-2.21068e-06 -4.18434e-07 -5.96124e-05
0.00188902 -0.00019943 -5.16748e-07
-0.00019943 0.000101691 -1.90103e-06
-5.16748e-07 -1.90103e-06 1.12717e-05
0.00171288 -0.000236501 1.87896e-06
-0.000236501 0.000139113 3.00223e-06
1.87896e-06 3.00223e-06 -1.12447e-05
0.00168415 -0.000190026 -1.45193e-07
-0.000190026 8.78025e-05 -2.02977e-07
-1.45193e-07 -2.02977e-07 -2.76962e-05
0.00170702 -0.000158543 8.50642e-07
-0.000158543 8.46709e-05 -1.7897e-06
8.50642e-07 -1.7897e-06 -1.23735e-05
0.00173849 -0.00014862 2.7649e-07
-0.00014862 0.000146861 -6.92725e-07
2.7649e-07 -6.92725e-07 3.85584e-05
0.00164125 -0.000163156 -1.94213e-06
-0.000163156 9.73289e-05 1.38992e-06
-1.94213e-06 1.38992e-06 -2.18615e-05
0.00168435 -0.000169314 7.77156e-07
-0.000169314 0.000157834 -2.78067e-06
7.77156e-07 -2.78067e-06 2.75552e-05
0.00175863 -0.000200025 -2.05803e-06
-0.000200025 0.000283584 -1.1202e-06
-2.05803e-06 -1.1202e-06 0.000124739
0.00173814 -0.000203466 9.1344e-07
-0.000203466 0.000221437 4.87783e-07
9.1344e-07 4.87783e-07 6.66056e-05
0.0015425 -0.000189834 -1.27553e-06
-0.000189834 7.4476e-05 3.01003e-06
-1.27553e-06 3.01003e-06 -6.34952e-05
0.000885846 -0.0001562 -3.92495e-06
-0.0001562 -4.87056e-05 3.17788e-06
-3.92495e-06 3.17788e-06 -0.000211459
0.00127551 -0.000186802 6.32883e-07
-0.000186802 0.000122909 -2.96397e-07
6.32883e-07 -2.96397e-07 -5.4127e-05
0.00156743 -0.000210632 2.77784e-06
-0.000210632 0.00022726 -1.49316e-07
2.77784e-06 -1.49316e-07 4.65443e-05
0.000967589 -0.000136646 -1.5244e-06
-0.000136646 9.30279e-05 9.29212e-07
-1.5244e-06 9.29212e-07 -3.83637e-05
0.00112547 -0.000161581 3.15278e-07
-0.000161581 0.000160466 -1.85903e-07
3.15278e-07 -1.85903e-07 7.35673e-06
0.000617872 -0.000138992 1.58464e-07
-0.000138992 -0.000134792 -4.62659e-06
1.58464e-07 -4.62659e-06 -0.000307047
0.000764526 -6.00943e-05 -2.98495e-06
-6.00943e-05 3.30293e-05 2.62405e-06
-2.98495e-06 2.62405e-06 -6.00747e-05
0.00102818 -0.00013192 1.26937e-07
-0.00013192 0.000156874 -1.31973e-07
1.26937e-07 -1.31973e-07 3.37389e-05
0.00113379 -0.000153032 2.75953e-07
-0.000153032 0.000210622 -9.92192e-07
2.75953e-07 -9.92192e-07 6.932e-05
0.000524243 6.49627e-05 1.47e-06
6.49627e-05 -6.67453e-05 6.0472e-06
1.47e-06 6.0472e-06 -0.000103882
0.000754191 -1.80544e-05 2.14702e-07
-1.80544e-05 4.46091e-05 1.44623e-07
2.14702e-07 1.44623e-07 -4.08665e-05
0.00103281 -8.51701e-05 1.24496e-06
-8.51701e-05 0.000192112 -2.84597e-07
1.24496e-06 -2.84597e-07 7.55252e-05
0.00243481 9.25977e-05 -3.67089e-05
9.25977e-05 0.00099673 2.50311e-06
-3.67089e-05 2.50311e-06 0.00100092
0.000608737 6.84392e-05 -2.15757e-07
6.84392e-05 -2.22883e-05 -2.70913e-07
-2.15757e-07 -2.70913e-07 -5.14592e-05
0.000717054 -1.65153e-05 2.19124e-06
-1.65153e-05 2.23286e-05 -3.13058e-06
2.19124e-06 -3.13058e-06 -4.4641e-05
0.00158416 6.87577e-05 1.48112e-05
6.87577e-05 0.000515808 -4.9054e-07
1.48112e-05 -4.9054e-07 0.000519554
0.000679994 6.2293e-05 -2.53141e-07
6.2293e-05 7.25804e-06 -4.23507e-06
-2.53141e-07 -4.23507e-06 -1.45692e-05
0.00222741 7.38642e-05 3.07973e-05
7.38642e-05 0.000867944 -2.84602e-06
3.07973e-05 -2.84602e-06 0.000877733
0.000892591 6.11503e-05 6.46839e-07
6.11503e-05 0.000116218 3.59274e-07
6.46839e-07 3.59274e-07 2.07108e-05
0.000822787 5.75033e-06 -2.64729e-07
5.75033e-06 7.47294e-05 4.88094e-07
-2.64729e-07 4.88094e-07 -9.0517e-06
0.000782502 -2.64863e-05 2.58055e-07
-2.64863e-05 5.5667e-05 -1.63418e-06
2.58055e-07 -1.63418e-06 -2.60934e-05
0.000865025 1.80173e-05 1.82718e-07
1.80173e-05 9.6379e-05 6.15682e-07
1.82718e-07 6.15682e-07 1.33896e-05
0.000773462 -2.55892e-05 4.26985e-07
-2.55892e-05 4.37936e-05 -7.5358e-08
4.26985e-07 -7.5358e-08 -3.12578e-05
0.000692088 -3.88521e-05 -8.03668e-07
-3.88521e-05 -4.78015e-06 -2.63549e-06
-8.03668e-07 -2.63549e-06 -5.56049e-05
0.000661783 -4.88693e-05 -1.28527e-06
-4.88693e-05 -2.10146e-05 -4.16733e-06
-1.28527e-06 -4.16733e-06 -3.91025e-05
0.000715708 -3.50314e-05 1.0391e-07
-3.50314e-05 1.91583e-06 -3.5094e-08
1.0391e-07 -3.5094e-08 -4.51751e-05
0.000750438 -4.61623e-05 -2.42494e-07
-4.61623e-05 2.5267e-05 1.20662e-06
-2.42494e-07 1.20662e-06 -4.26308e-05
0.00234197 -6.58708e-05 -2.97132e-05
-6.58708e-05 0.00091823 -3.51176e-06
-2.97132e-05 -3.51176e-06 0.000929911
0.000648679 -4.18222e-05 -2.55065e-07
-4.18222e-05 -3.6011e-05 3.79985e-08
-2.55065e-07 3.79985e-08 -5.17372e-05
0.000725581 -1.89282e-05 1.60393e-06
-1.89282e-05 1.49808e-06 1.96954e-06
1.60393e-06 1.96954e-06 -4.29897e-05
0.00231758 -5.7307e-05 -2.31421e-06
-5.7307e-05 0.000897062 1.45354e-07
-2.31421e-06 1.45354e-07 0.000910621
0.000654407 -3.58812e-05 5.28884e-07
-3.58812e-05 -3.94498e-05 3.86012e-06
5.28884e-07 3.86012e-06 -5.29558e-05
0.0022441 -4.76792e-05 1.92977e-05
-4.76792e-05 0.000849134 4.07718e-06
1.92977e-05 4.07718e-06 0.000864885
0.000809857 0.000164071 4.13488e-05
0.000164071 0.00091463 3.6767e-05
4.13488e-05 3.6767e-05 0.000338638
-0.000606186 -0.00015567 1.00505e-06
-0.00015567 0.000493269 7.43505e-06
1.00505e-06 7.43505e-06 -0.00014831
0.00191244 -6.4413e-05 -4.99062e-05
-6.4413e-05 0.000447526 -1.2542e-05
-4.99062e-05 -1.2542e-05 6.87301e-05
0.000755523 -1.44571e-05 2.39422e-07
-1.44571e-05 4.52002e-05 5.79419e-07
2.39422e-07 5.79419e-07 -4.20725e-05
0.000813553 3.77922e-06 -1.01342e-08
3.77922e-06 8.39702e-05 6.7836e-07
-1.01342e-08 6.7836e-07 -1.24643e-05
0.0009574 0.000116077 -2.59359e-07
0.000116077 0.0001761 2.88442e-07
-2.59359e-07 2.88442e-07 6.73948e-05
0.00115032 0.000153126 1.20065e-06
0.000153126 0.00025842 5.16124e-08
1.20065e-06 5.16124e-08 0.000133763
0.000930963 9.09611e-05 -1.69942e-06
9.09611e-05 0.000170445 -7.80144e-07
-1.69942e-06 -7.80144e-07 5.56074e-05
0.000813413 4.36155e-05 6.40623e-07
4.36155e-05 7.8015e-05 1.16724e-06
6.40623e-07 1.16724e-06 -1.2108e-05
0.000740712 1.82829e-05 4.25562e-07
1.82829e-05 3.65839e-05 1.20892e-06
4.25562e-07 1.20892e-06 -5.52658e-05
0.000708994 6.16846e-05 -1.21165e-06
6.16846e-05 4.11986e-05 -1.22361e-06
-1.21165e-06 -1.22361e-06 -6.38903e-05
3.82688e-05 7.62702e-05 -2.46397e-07
7.62702e-05 -0.000322345 2.02447e-07
-2.46397e-07 2.02447e-07 -0.000441548
0.000984406 0.000132897 7.57471e-07
0.000132897 0.000138681 -5.02153e-06
7.57471e-07 -5.02153e-06 3.16448e-05
0.00199305 0.000284254 5.56336e-06
0.000284254 0.000439397 -1.07217e-05
5.56336e-06 -1.07217e-05 0.000290198
0.000757704 8.01246e-05 -1.7168e-06
8.01246e-05 4.7927e-05 -4.00335e-07
-1.7168e-06 -4.00335e-07 -3.95826e-05
0.000715182 1.10067e-05 -5.91821e-07
1.10067e-05 3.62948e-05 -8.41501e-07
-5.91821e-07 -8.41501e-07 -4.14209e-05
0.0106129 4.09749e-05 -4.6928e-05
4.09749e-05 0.00351334 -2.24563e-07
-4.6928e-05 -2.24563e-07 0.00223996
-0.00200838 -0.000299198 -5.8688e-05
-0.000299198 -0.000406125 -1.10399e-05
-5.8688e-05 -1.10399e-05 -0.000867224
0.000692326 -0.000375551 -2.26262e-05
-0.000375551 0.000624002 -2.85484e-05
-2.26262e-05 -2.85484e-05 0.000377793
-0.00356344 -0.000365428 1.29406e-05
-0.000365428 -0.00179291 3.41995e-05
1.29406e-05 3.41995e-05 -0.0015869
0.00924394 -0.000274188 8.61143e-05
-0.000274188 0.00418008 -4.06535e-06
8.61143e-05 -4.06535e-06 0.00163428
0.00297014 0.000200505 -1.21191e-05
0.000200505 0.000487675 9.03254e-06
-1.21191e-05 9.03254e-06 0.000313577
0.001551 0.00038406 -4.51169e-05
0.00038406 4.42728e-06 -1.90016e-05
-4.51169e-05 -1.90016e-05 -0.00060435
0.00761522 -0.000219051 5.76605e-05
-0.000219051 0.00270715 1.74983e-05
5.76605e-05 1.74983e-05 0.00116818
0.00383626 0.000507511 7.1912e-06
0.000507511 0.000523857 -2.76707e-05
7.1912e-06 -2.76707e-05 -7.06499e-05
0.00202119 0.000401369 4.08333e-06
0.000401369 0.000291474 1.37469e-05
4.08333e-06 1.37469e-05 0.000133173
0.000871936 0.00024782 2.93685e-06
0.00024782 -6.99876e-06 -4.68678e-06
2.93685e-06 -4.68678e-06 -0.000159982
0.000970328 0.000139524 -1.06433e-05
0.000139524 0.000169769 6.12828e-06
-1.06433e-05 6.12828e-06 0.000108524
0.00149853 0.000314107 -2.99385e-05
0.000314107 0.000244239 -1.54558e-05
-2.99385e-05 -1.54558e-05 0.000107276
0.00127449 0.000373782 -1.66875e-05
0.000373782 -0.000253872 1.47022e-05
-1.66875e-05 1.47022e-05 -0.000313217
0.000468405 -0.000143601 -1.48786e-05
-0.000143601 -0.00178461 -3.03792e-06
-1.48786e-05 -3.03792e-06 -0.00216112
0.00205361 -9.51e-05 -1.39747e-06
-9.51e-05 0.00119693 -5.1189e-06
-1.39747e-06 -5.1189e-06 0.00112047
-0.00180311 -2.24859e-05 1.60022e-05
-2.24859e-05 0.000331074 -1.64443e-07
1.60022e-05 -1.64443e-07 -0.000434676
0.00287013 -0.000431115 -5.42976e-05
-0.000431115 0.00069048 4.87967e-06
-5.42976e-05 4.87967e-06 0.000615204
0.00376515 -0.000547973 -1.14161e-05
-0.000547973 0.000762788 -1.36565e-05
-1.14161e-05 -1.36565e-05 -0.000395097
0.000589172 -0.000121689 1.52725e-05
-0.000121689 0.000623721 1.61564e-05
1.52725e-05 1.61564e-05 0.000305188
0.010129 0.000257578 -4.87696e-05
0.000257578 0.00412129 3.02737e-05
-4.87696e-05 3.02737e-05 0.00250462
0.000643426 -0.000197318 -5.22549e-06
-0.000197318 -0.000250612 -8.77004e-07
-5.22549e-06 -8.77004e-07 -0.000386535
0.00632614 0.000105946 1.3908e-05
0.000105946 0.00150903 1.84608e-05
1.3908e-05 1.84608e-05 0.00068614
0.00358181 -0.00027763 4.3475e-05
-0.00027763 0.00027296 -1.27904e-06
4.3475e-05 -1.27904e-06 -0.000536468
0.00260626 -0.000234142 2.39642e-06
-0.000234142 0.000793085 2.05034e-06
2.39642e-06 2.05034e-06 0.000530862
0.00371682 -7.89218e-05 -8.61075e-05
-7.89218e-05 0.0008635 -8.94267e-06
-8.61075e-05 -8.94267e-06 0.000582714
0.000125207 -0.000172439 -1.35194e-05
-0.000172439 -0.000789644 4.46625e-06
-1.35194e-05 4.46625e-06 -0.000710971
0.00152159 -0.000263574 -7.65386e-08
-0.000263574 -0.000194582 5.25991e-07
-7.65386e-08 5.25991e-07 -0.000159907
0.0019078 -0.000188109 3.49172e-06
-0.000188109 -4.01736e-05 -1.15932e-06
3.49172e-06 -1.15932e-06 -2.51411e-05
0.00136286 -0.000274245 6.88333e-07
-0.000274245 -0.000137179 1.72824e-06
6.88333e-07 1.72824e-06 -0.000238295
0.00177479 -0.000244446 -7.54412e-07
-0.000244446 1.58509e-05 -2.89766e-07
-7.54412e-07 -2.89766e-07 -5.01434e-05
0.00181708 -0.000169986 -1.31498e-06
-0.000169986 -2.5116e-05 8.30812e-07
-1.31498e-06 8.30812e-07 -6.42805e-05
0.00157381 -0.000235995 -3.84423e-06
-0.000235995 -1.54011e-05 2.81387e-06
-3.84423e-06 2.81387e-06 -0.000138481
0.00178536 -0.000195683 3.06686e-07
-0.000195683 4.42159e-05 1.15548e-06
3.06686e-07 1.15548e-06 -4.5842e-05
0.00183283 -0.00016432 2.35294e-06
-0.00016432 9.82143e-05 1.22701e-07
2.35294e-06 1.22701e-07 2.00728e-05
0.00159101 -0.000183353 6.13028e-07
-0.000183353 4.02687e-05 2.8162e-06
6.13028e-07 2.8162e-06 -7.39601e-05
0.00170139 -0.000160445 3.6846e-09
-0.000160445 8.20796e-05 9.66087e-07
3.6846e-09 9.66087e-07 -1.58311e-05
0.00186365 -0.000147502 2.04401e-06
-0.000147502 0.000187624 -3.39667e-07
2.04401e-06 -3.39667e-07 9.24117e-05
0.00165604 -0.000146766 -3.00952e-06
-0.000146766 0.000100293 1.97819e-06
-3.00952e-06 1.97819e-06 -6.52408e-06
0.00172062 -0.000148031 2.5238e-06
-0.000148031 0.000167258 -1.65933e-06
2.5238e-06 -1.65933e-06 5.01582e-05
0.00162926 -0.000159936 -8.58624e-07
-0.000159936 9.11265e-05 4.13751e-06
-8.58624e-07 4.13751e-06 -2.60104e-05
0.00169719 -0.000169279 8.88915e-07
-0.000169279 0.00016366 -4.13494e-07
8.88915e-07 -4.13494e-07 3.35728e-05
0.00167502 -0.000169209 -1.18923e-06
-0.000169209 0.000193782 -1.4575e-06
-1.18923e-06 -1.4575e-06 5.69299e-05
0.00117219 -0.000165592 -4.5708e-06
-0.000165592 1.72995e-05 8.17676e-07
-4.5708e-06 8.17676e-07 -0.000138103
0.00163132 -0.000193225 5.17196e-07
-0.000193225 0.000214858 -7.2574e-07
5.17196e-07 -7.2574e-07 5.61918e-05
0.0016177 -0.000197561 1.55351e-06
-0.000197561 0.000154638 2.48209e-06
1.55351e-06 2.48209e-06 1.04855e-06
0.00109894 -0.000152509 -3.01428e-06
-0.000152509 0.000112708 2.42781e-06
-3.01428e-06 2.42781e-06 -2.8569e-05
0.000990292 -0.000160609 -1.22403e-06
-0.000160609 1.24472e-05 1.28403e-06
-1.22403e-06 1.28403e-06 -0.000149442
0.00158725 -0.000202023 3.15488e-06
-0.000202023 0.000296058 -1.60792e-06
3.15488e-06 -1.60792e-06 0.000119223
0.000733901 -7.96042e-05 -3.5051e-06
-7.96042e-05 -6.63604e-06 2.37611e-06
-3.5051e-06 2.37611e-06 -0.000105667
0.00106224 -0.000143501 1.76866e-07
-0.000143501 0.000142576 -3.67736e-07
1.76866e-07 -3.67736e-07 1.03047e-05
0.00118543 -0.000164398 1.36267e-06
-0.000164398 0.000189852 -2.40931e-06
1.36267e-06 -2.40931e-06 3.65047e-05
0.00052908 2.15888e-05 -3.1652e-06
2.15888e-05 -7.80047e-05 6.7667e-06
-3.1652e-06 6.7667e-06 -0.000118775
0.000815231 -6.48101e-05 2.2566e-07
-6.48101e-05 6.05598e-05 2.8886e-07
2.2566e-07 2.8886e-07 -3.35604e-05
0.00109666 -0.00013113 1.66253e-06
-0.00013113 0.000191899 -4.50034e-07
1.66253e-06 -4.50034e-07 6.92434e-05
0.00276356 0.000106494 -4.49024e-05
0.000106494 0.00118213 2.43403e-06
-4.49024e-05 2.43403e-06 0.00118242
0.00058564 4.57574e-05 6.39506e-07
4.57574e-05 -3.83918e-05 -2.686e-07
6.39506e-07 -2.686e-07 -7.30015e-05
0.0007717 -5.26028e-05 2.53674e-06
-5.26028e-05 5.06781e-05 -2.7913e-06
2.53674e-06 -2.7913e-06 -3.45015e-05
0.00253108 9.32594e-05 1.85416e-06
9.32594e-05 0.00104919 1.63329e-07
1.85416e-06 1.63329e-07 0.00105316
0.000656928 5.92793e-05 1.94381e-07
5.92793e-05 1.83335e-06 -5.12664e-06
1.94381e-07 -5.12664e-06 -2.61196e-05
0.00237963 8.30476e-05 3.75107e-05
8.30476e-05 0.000959652 -2.63495e-06
3.75107e-05 -2.63495e-06 0.000966686
0.000979122 0.000133231 7.68971e-07
0.000133231 0.000153754 -5.98275e-07
7.68971e-07 -5.98275e-07 3.64052e-05
0.000836697 9.15064e-05 4.36171e-07
9.15064e-05 9.0402e-05 4.0588e-08
4.36171e-07 4.0588e-08 -8.87497e-06
0.000716247 -1.67439e-05 -4.56478e-07
-1.67439e-05 2.05029e-05 -1.02544e-06
-4.56478e-07 -1.02544e-06 -7.0741e-05
0.000741717 -2.52279e-05 -3.02423e-07
-2.52279e-05 2.94783e-05 9.98223e-07
-3.02423e-07 9.98223e-07 -5.29069e-05
0.000740591 -4.19873e-05 2.32693e-07
-4.19873e-05 3.13377e-05 6.93336e-08
2.32693e-07 6.93336e-08 -4.99953e-05
0.000666244 -3.77164e-05 -8.28173e-07
-3.77164e-05 -1.38659e-05 -2.87198e-06
-8.28173e-07 -2.87198e-06 -7.16166e-05
0.000736921 -4.74283e-05 -3.33025e-07
-4.74283e-05 2.24874e-05 1.62629e-06
-3.33025e-07 1.62629e-06 -5.10402e-05
0.000695005 -4.3351e-05 3.24314e-07
-4.3351e-05 -2.48643e-06 -1.57904e-07
3.24314e-07 -1.57904e-07 -5.36446e-05
0.000657735 -5.80717e-05 -7.11823e-07
-5.80717e-05 -1.30681e-05 -4.49137e-06
-7.11823e-07 -4.49137e-06 -3.46502e-05
0.00235469 -7.40392e-05 -3.33493e-05
-7.40392e-05 0.00093296 -3.16473e-06
-3.33493e-05 -3.16473e-06 0.000942727
0.000646327 -4.72906e-05 -4.83323e-08
-4.72906e-05 -2.96775e-05 2.7004e-08
-4.83323e-08 2.7004e-08 -4.75465e-05
0.000707944 -3.21648e-05 1.76081e-06
-3.21648e-05 -2.39726e-06 2.16088e-06
1.76081e-06 2.16088e-06 -4.92472e-05
0.00234425 -6.56553e-05 -2.01755e-06
-6.56553e-05 0.000918773 1.54811e-07
-2.01755e-06 1.54811e-07 0.000930497
0.00064239 -4.07092e-05 8.57871e-07
-4.07092e-05 -3.9537e-05 4.0212e-06
8.57871e-07 4.0212e-06 -5.515e-05
0.00230238 -5.6824e-05 2.36681e-05
-5.6824e-05 0.000887929 3.89628e-06
2.36681e-05 3.89628e-06 0.000901659
0.00898022 0.000195162 0.000103577
0.000195162 0.00272364 3.51789e-05
0.000103577 3.51789e-05 0.00179335
-0.00243691 -0.000217329 -3.08766e-05
-0.000217329 -0.00129097 -3.03848e-06
-3.08766e-05 -3.03848e-06 -0.00135743
-0.00200277 -6.6151e-05 -4.65929e-05
-6.6151e-05 -0.000172099 -9.06049e-06
-4.65929e-05 -9.06049e-06 -0.000991423
0.000767672 -3.20508e-05 6.74877e-07
-3.20508e-05 5.70964e-05 1.67782e-06
6.74877e-07 1.67782e-06 -3.8881e-05
0.000791346 0.000112237 -7.89623e-07
0.000112237 8.8649e-05 7.46401e-07
-7.89623e-07 7.46401e-07 -1.7651e-05
0.00103906 9.62076e-05 5.01576e-07
9.62076e-05 0.000229432 -5.25521e-08
5.01576e-07 -5.25521e-08 0.000114528
0.00102158 0.000143993 -1.29455e-06
0.000143993 0.000190215 8.98068e-08
-1.29455e-06 8.98068e-08 6.72417e-05
0.00110927 0.000156346 9.5771e-06
0.000156346 0.000208957 1.49337e-06
9.5771e-06 1.49337e-06 7.15565e-05
0.000521434 0.000110031 -1.04359e-06
0.000110031 -6.19986e-05 -2.21046e-07
-1.04359e-06 -2.21046e-07 -0.000183274
0.000469858 6.41803e-05 -1.05387e-06
6.41803e-05 -8.72757e-05 -1.8095e-07
-1.05387e-06 -1.8095e-07 -0.000191339
0.000504319 0.000110461 5.78308e-07
0.000110461 -7.81377e-05 6.3702e-07
5.78308e-07 6.3702e-07 -0.000205413
0.000897136 0.000115528 -1.56857e-06
0.000115528 9.39836e-05 -7.69123e-08
-1.56857e-06 -7.69123e-08 -1.64197e-05
0.000244552 0.00012241 5.93806e-07
0.00012241 -0.000313381 -1.47442e-06
5.93806e-07 -1.47442e-06 -0.000441021
0.00285334 0.000313769 -1.62083e-06
0.000313769 0.000899524 -3.78944e-06
-1.62083e-06 -3.78944e-06 0.000756258
0.00139796 0.000285543 2.13315e-06
0.000285543 -1.26499e-05 -4.24668e-08
2.13315e-06 -4.24668e-08 -0.000163857
0.00142597 0.000249871 3.36689e-06
0.000249871 0.000162722 -2.59191e-06
3.36689e-06 -2.59191e-06 2.07705e-05
0.000738045 8.55678e-05 -5.68657e-06
8.55678e-05 5.45799e-05 4.18654e-06
-5.68657e-06 4.18654e-06 -3.20912e-05
0.00330864 0.000158704 4.81685e-06
0.000158704 7.0568e-05 4.06307e-06
4.81685e-06 4.06307e-06 -0.000205644
0.00558136 3.18911e-05 1.80541e-05
3.18911e-05 0.00125292 1.04393e-05
1.80541e-05 1.04393e-05 -8.16635e-07
0.00545113 -0.000684328 -2.95472e-05
-0.000684328 0.00279865 -3.41599e-05
-2.95472e-05 -3.41599e-05 0.00272449
0.00660739 9.95041e-05 0.000269775
9.95041e-05 0.00230694 7.51949e-05
0.000269775 7.51949e-05 0.000272331
0.00130093 0.000347769 2.82161e-05
0.000347769 -0.000307082 3.14251e-05
2.82161e-05 3.14251e-05 -0.000509173
0.00242221 0.000378988 -7.21969e-05
0.000378988 3.20445e-05 -2.14404e-05
-7.21969e-05 -2.14404e-05 -0.00037264
0.00289867 0.000403743 4.83189e-05
0.000403743 0.000512657 2.15352e-05
4.83189e-05 2.15352e-05 0.000518882
0.00216654 0.000404685 2.25778e-07
0.000404685 0.000347707 5.03529e-06
2.25778e-07 5.03529e-06 0.000213333
0.000412786 0.000204831 -1.05534e-06
0.000204831 -0.000224919 6.43569e-06
-1.05534e-06 6.43569e-06 -0.000369607
0.0022886 0.000452787 -7.51152e-05
0.000452787 0.000248591 -4.65313e-05
-7.51152e-05 -4.65313e-05 0.000165113
0.00283568 -0.000138731 -0.000139321
-0.000138731 0.000386989 1.89008e-06
-0.000139321 1.89008e-06 1.20378e-05
0.00853203 -0.000107457 1.23631e-05
-0.000107457 0.00265695 -1.07581e-06
1.23631e-05 -1.07581e-06 0.00206529
-0.00614368 -0.000166084 0.000126032
-0.000166084 -0.00324569 7.38483e-07
0.000126032 7.38483e-07 -0.00315186
0.00180828 -0.000246141 -9.12995e-06
-0.000246141 0.00029989 6.57741e-06
-9.12995e-06 6.57741e-06 0.000192552
0.00521438 -0.000329981 9.54428e-05
-0.000329981 0.00118694 5.05153e-06
9.54428e-05 5.05153e-06 0.000410547
0.00059343 -0.000321102 7.765e-05
-0.000321102 -0.00134689 3.38223e-05
7.765e-05 3.38223e-05 -0.00209503
0.00135489 -0.000157693 6.22623e-06
-0.000157693 0.000141787 -9.74768e-07
6.22623e-06 -9.74768e-07 -3.95651e-05
0.00166104 2.13159e-06 -6.77196e-06
2.13159e-06 -0.000316687 3.01082e-06
-6.77196e-06 3.01082e-06 -0.000596345
0.00513487 -0.00017139 8.28895e-06
-0.00017139 0.00189663 -3.25014e-06
8.28895e-06 -3.25014e-06 0.00178661
0.00255808 1.59632e-06 4.68891e-05
1.59632e-06 0.000393617 -2.91456e-06
4.68891e-05 -2.91456e-06 0.000358976
0.000781705 -0.000247584 -6.95299e-06
-0.000247584 -0.000552808 4.07207e-06
-6.95299e-06 4.07207e-06 -0.0005393
0.00181545 -0.000194543 -3.00686e-07
-0.000194543 -7.69937e-05 1.12769e-06
-3.00686e-07 1.12769e-06 -7.46734e-05
0.00178416 -8.6746e-05 5.89402e-06
-8.6746e-05 -3.85919e-05 5.52946e-08
5.89402e-06 5.52946e-08 -5.93525e-05
0.00153693 -0.00022568 1.89825e-06
-0.00022568 -9.02121e-05 1.56785e-07
1.89825e-06 1.56785e-07 -0.000154491
0.00186728 -0.000171614 1.64352e-06
-0.000171614 1.55875e-05 6.88536e-07
1.64352e-06 6.88536e-07 -2.97681e-05
0.00169914 -0.000108809 2.51384e-06
-0.000108809 -1.68803e-06 1.05171e-06
2.51384e-06 1.05171e-06 -5.45711e-05
0.00168742 -0.00019204 4.00681e-06
-0.00019204 -1.00879e-05 2.90627e-06
4.00681e-06 2.90627e-06 -9.98141e-05
0.00180714 -0.00016028 1.13564e-06
-0.00016028 9.35528e-05 4.72157e-07
1.13564e-06 4.72157e-07 1.51897e-05
0.00191525 -0.000129375 1.93574e-06
-0.000129375 0.000194266 4.34385e-07
1.93574e-06 4.34385e-07 0.000109628
0.00169921 -0.00016195 -2.74372e-07
-0.00016195 8.18124e-05 2.96812e-06
-2.74372e-07 2.96812e-06 -1.69193e-05
0.0017405 -0.000146774 -5.35751e-07
-0.000146774 0.000124156 4.03684e-07
-5.35751e-07 4.03684e-07 2.76961e-05
0.0016147 -0.0001329 3.37455e-06
-0.0001329 9.21094e-05 -4.64036e-07
3.37455e-06 -4.64036e-07 -1.82175e-05
0.00157743 -0.000144928 -3.10696e-06
-0.000144928 5.621e-05 4.13194e-06
-3.10696e-06 4.13194e-06 -4.91084e-05
0.00168907 -0.000145796 -9.81794e-07
-0.000145796 0.000148349 -2.40645e-07
-9.81794e-07 -2.40645e-07 3.28925e-05
0.00167666 -0.00014566 4.85263e-07
-0.00014566 0.000179502 -5.50519e-07
4.85263e-07 -5.50519e-07 5.39448e-05
0.00171028 -0.000169071 7.33269e-07
-0.000169071 0.000170078 1.33088e-06
7.33269e-07 1.33088e-06 4.01147e-05
0.00164128 -0.000167124 5.41686e-07
-0.000167124 0.000174074 -2.45564e-07
5.41686e-07 -2.45564e-07 3.74578e-05
0.00164411 -0.000166481 -2.37355e-06
-0.000166481 0.00022399 -3.65132e-07
-2.37355e-06 -3.65132e-07 8.61311e-05
0.000874796 -0.000139529 -6.24817e-06
-0.000139529 -8.65918e-05 2.4321e-06
-6.24817e-06 2.4321e-06 -0.000227374
0.001244 -0.000167845 -9.3501e-07
-0.000167845 6.24578e-05 2.98275e-07
-9.3501e-07 2.98275e-07 -9.26158e-05
0.00149443 -0.000185838 2.9128e-06
-0.000185838 0.000140752 2.21587e-07
2.9128e-06 2.21587e-07 -1.76589e-05
0.000852983 -0.000105923 -4.71799e-06
-0.000105923 2.44205e-05 3.51878e-06
-4.71799e-06 3.51878e-06 -8.36954e-05
0.00111414 -0.000152659 3.91684e-07
-0.000152659 0.000119058 2.74513e-07
3.91684e-07 2.74513e-07 -2.18608e-05
0.00109501 -0.000165056 1.09352e-06
-0.000165056 7.32986e-05 -5.98351e-07
1.09352e-06 -5.98351e-07 -8.76717e-05
0.000539204 -3.35312e-06 -6.22067e-06
-3.35312e-06 -7.92773e-05 7.31194e-06
-6.22067e-06 7.31194e-06 -0.00012773
0.00086669 -8.96506e-05 6.14899e-08
-8.96506e-05 6.62403e-05 -1.57952e-07
6.14899e-08 -1.57952e-07 -3.43241e-05
0.00114867 -0.00014972 2.41198e-06
-0.00014972 0.000187681 -1.86269e-06
2.41198e-06 -1.86269e-06 5.46054e-05
0.00318704 0.000121012 -5.83166e-05
0.000121012 0.00141785 2.45195e-06
-5.83166e-05 2.45195e-06 0.00141393
0.000610043 1.42334e-05 3.50695e-07
1.42334e-05 -3.51026e-05 -1.7745e-07
3.50695e-07 -1.7745e-07 -7.65314e-05
0.000877415 -7.183e-05 3.95943e-06
-7.183e-05 9.29514e-05 -2.30585e-06
3.95943e-06 -2.30585e-06 -1.49806e-06
0.00288687 0.000104866 2.40694e-06
0.000104866 0.00124854 1.94024e-07
2.40694e-06 1.94024e-07 0.00124902
0.000652113 4.39773e-05 2.83327e-06
4.39773e-05 -1.50106e-06 -5.8547e-06
2.83327e-06 -5.8547e-06 -3.71725e-05
0.00264507 9.19731e-05 4.8645e-05
9.19731e-05 0.00111096 -2.60824e-06
4.8645e-05 -2.60824e-06 0.0011152
0.00108664 0.000148842 -2.42032e-07
0.000148842 0.000190382 -2.67302e-06
-2.42032e-07 -2.67302e-06 5.80353e-05
0.00108382 0.000140342 3.91617e-07
0.000140342 0.000211456 2.0811e-07
3.91617e-07 2.0811e-07 9.37867e-05
0.000888989 7.30691e-05 -1.31934e-06
7.30691e-05 0.000103403 -1.30018e-06
-1.31934e-06 -1.30018e-06 -6.92413e-07
0.000779699 0.000111508 -6.83217e-08
0.000111508 6.4462e-05 3.85487e-07
-6.83217e-08 3.85487e-07 -3.83644e-05
0.000708089 4.61822e-06 -5.38639e-07
4.61822e-06 1.60395e-05 -1.70739e-07
-5.38639e-07 -1.70739e-07 -7.70466e-05
0.000699313 1.36636e-05 -1.99689e-06
1.36636e-05 9.12905e-06 -2.57438e-06
-1.99689e-06 -2.57438e-06 -6.21539e-05
0.00070744 -5.95686e-05 -1.84403e-07
-5.95686e-05 1.42786e-05 1.50577e-06
-1.84403e-07 1.50577e-06 -6.8365e-05
0.000680278 -4.07799e-05 4.18843e-07
-4.07799e-05 -4.40859e-06 -3.69742e-07
4.18843e-07 -3.69742e-07 -6.30724e-05
0.000640181 -7.06521e-05 1.21694e-06
-7.06521e-05 -1.03032e-05 -5.26334e-06
1.21694e-06 -5.26334e-06 -3.78705e-05
0.000696937 -4.64565e-05 1.01838e-06
-4.64565e-05 -1.07161e-06 2.46621e-06
1.01838e-06 2.46621e-06 -5.23504e-05
0.00063552 -5.47846e-05 1.98013e-07
-5.47846e-05 -2.63532e-05 -1.82505e-08
1.98013e-07 -1.82505e-08 -4.72454e-05
0.00240669 -8.2585e-05 -3.75728e-05
-8.2585e-05 0.000969528 -2.76063e-06
-3.75728e-05 -2.76063e-06 0.000977112
0.00235477 -7.37718e-05 -1.28568e-06
-7.37718e-05 0.000932127 1.46371e-07
-1.28568e-06 1.46371e-07 0.000941968
0.000632046 -4.58071e-05 1.41881e-06
-4.58071e-05 -3.77383e-05 4.17059e-06
1.41881e-06 4.17059e-06 -5.53994e-05
0.00233967 -6.53722e-05 2.79391e-05
-6.53722e-05 0.00091557 3.66153e-06
2.79391e-05 3.66153e-06 0.000927354
0.00275818 -1.57623e-06 -5.12322e-05
-1.57623e-06 0.000201714 1.32403e-05
-5.12322e-05 1.32403e-05 -2.66456e-06
0.00193668 -0.000209694 1.92949e-05
-0.000209694 -0.000766377 8.03369e-06
1.92949e-05 8.03369e-06 -0.00163045
0.00410128 -0.000383751 -4.57814e-05
-0.000383751 0.00174654 -2.45715e-05
-4.57814e-05 -2.45715e-05 0.00182749
0.00135972 0.000179739 9.48297e-06
0.000179739 0.000266791 2.2135e-06
9.48297e-06 2.2135e-06 0.000119077
0.00117081 0.000106118 5.85197e-07
0.000106118 0.000300794 4.94596e-07
5.85197e-07 4.94596e-07 0.000185872
0.000898152 0.000135222 -1.23854e-06
0.000135222 0.00012523 1.09285e-06
-1.23854e-06 1.09285e-06 3.84798e-06
0.000799108 0.000129928 5.11399e-07
0.000129928 8.79208e-05 7.5253e-07
5.11399e-07 7.5253e-07 -3.69867e-05
0.00103254 0.000152465 -3.13376e-07
0.000152465 0.000171156 -1.50026e-06
-3.13376e-07 -1.50026e-06 3.25104e-05
0.000688404 0.000138549 -4.15711e-07
0.000138549 -5.33337e-05 2.25193e-07
-4.15711e-07 2.25193e-07 -0.000174942
0.000911151 0.000141405 -8.29681e-07
0.000141405 0.000134255 -2.90595e-07
-8.29681e-07 -2.90595e-07 -8.21939e-07
0.000955392 0.000109237 -2.75408e-06
0.000109237 0.000121869 5.32557e-06
-2.75408e-06 5.32557e-06 7.6177e-06
0.00096144 0.000167504 5.3914e-07
0.000167504 6.72985e-05 1.87695e-09
5.3914e-07 1.87695e-09 -6.17022e-05
0.00232745 0.00028125 9.13101e-07
0.00028125 0.000619995 4.63531e-06
9.13101e-07 4.63531e-06 0.000475556
0.00169759 0.000274209 -2.35046e-06
0.000274209 0.000157711 -1.19861e-06
-2.35046e-06 -1.19861e-06 4.59552e-06
0.00149242 0.000240594 1.29009e-05
0.000240594 -2.60611e-05 1.0396e-05
1.29009e-05 1.0396e-05 -0.000143817
0.00131311 0.00028293 -1.83912e-06
0.00028293 -6.57398e-05 -2.42697e-06
-1.83912e-06 -2.42697e-06 -0.000222241
0.000988949 0.000219017 6.0039e-07
0.000219017 -5.4468e-05 6.61137e-06
6.0039e-07 6.61137e-06 -0.000188528
0.00022205 0.000154105 9.34092e-06
0.000154105 -0.000473582 3.51408e-06
9.34092e-06 3.51408e-06 -0.000474621
0.00475974 0.000250122 -2.24148e-05
0.000250122 0.000613477 3.66187e-07
-2.24148e-05 3.66187e-07 0.000225763
0.000935732 -7.30277e-05 4.85521e-05
-7.30277e-05 -0.00102928 1.3844e-05
4.85521e-05 1.3844e-05 -0.00221645
0.00223063 0.000417185 6.01813e-05
0.000417185 -0.000121142 9.55359e-06
6.01813e-05 9.55359e-06 -0.000685347
0.00168395 0.000309241 -1.86715e-05
0.000309241 0.000100302 -2.88221e-06
-1.86715e-05 -2.88221e-06 8.16935e-05
0.000966455 0.000310612 -2.83658e-05
0.000310612 -0.000184248 -2.09389e-05
-2.83658e-05 -2.09389e-05 -0.000322797
0.00199773 -9.47186e-05 1.54966e-05
-9.47186e-05 9.11658e-05 6.33082e-07
1.54966e-05 6.33082e-07 -8.65592e-06
0.00112855 2.51895e-06 -1.70992e-05
2.51895e-06 -0.000382907 1.29094e-06
-1.70992e-05 1.29094e-06 -0.000617656
0.000279184 0.000276022 6.02587e-05
0.000276022 -0.00180472 -1.91757e-05
6.02587e-05 -1.91757e-05 -0.00242662
4.555e-05 -7.86982e-05 1.88051e-06
-7.86982e-05 -0.000563864 1.25954e-05
1.88051e-06 1.25954e-05 -0.000641733
0.00240333 -1.58577e-05 1.11556e-05
-1.58577e-05 -8.20761e-05 1.23613e-05
1.11556e-05 1.23613e-05 -0.000440273
0.0016375 -9.68194e-05 -2.72949e-06
-9.68194e-05 1.01971e-05 -8.97781e-07
-2.72949e-06 -8.97781e-07 -5.14603e-05
0.00216999 -1.9979e-05 -2.80765e-06
-1.9979e-05 0.000189715 -7.15804e-07
-2.80765e-06 -7.15804e-07 0.000137743
0.00213958 -3.25492e-05 1.54427e-05
-3.25492e-05 0.000198028 -1.88967e-06
1.54427e-05 -1.88967e-06 0.000153138
0.00264254 -2.51351e-05 1.17069e-05
-2.51351e-05 0.00055156 5.44421e-07
1.17069e-05 5.44421e-07 0.000501923
0.00190989 -0.000204467 -4.50374e-06
-0.000204467 -1.08185e-05 3.75558e-07
-4.50374e-06 3.75558e-07 -2.41662e-05
0.00195553 -9.61722e-05 2.88446e-06
-9.61722e-05 4.05283e-05 -6.1528e-07
2.88446e-06 -6.1528e-07 1.73737e-05
0.00186289 -0.000100916 1.68556e-06
-0.000100916 8.68967e-05 2.00474e-07
1.68556e-06 2.00474e-07 3.86751e-05
0.00188787 -0.000172394 2.59427e-06
-0.000172394 4.05933e-05 1.08612e-06
2.59427e-06 1.08612e-06 -1.07522e-05
0.00181871 -0.000122845 8.06979e-07
-0.000122845 5.77361e-05 -3.23114e-08
8.06979e-07 -3.23114e-08 9.13426e-07
0.00177867 -0.000111903 3.15362e-06
-0.000111903 0.00010511 4.19698e-07
3.15362e-06 4.19698e-07 2.86091e-05
0.00178783 -0.000156922 -1.92006e-06
-0.000156922 9.21295e-05 1.61219e-06
-1.92006e-06 1.61219e-06 1.34355e-05
0.00181036 -0.000132489 -1.3048e-06
-0.000132489 0.000139327 3.45517e-08
-1.3048e-06 3.45517e-08 5.34708e-05
0.00163578 -0.000115774 2.27889e-06
-0.000115774 8.20723e-05 3.36319e-07
2.27889e-06 3.36319e-07 -2.36595e-05
0.00161682 -0.000146157 -3.29908e-06
-0.000146157 6.02131e-05 1.24241e-06
-3.29908e-06 1.24241e-06 -3.7529e-05
0.00162066 -0.000132967 3.64937e-07
-0.000132967 9.6813e-05 -3.12315e-07
3.64937e-07 -3.12315e-07 -1.34243e-05
0.00155933 -0.00012626 8.62898e-07
-0.00012626 9.90922e-05 1.68929e-07
8.62898e-07 1.68929e-07 -2.26276e-05
0.00165571 -0.000143576 -3.66535e-06
-0.000143576 0.000128287 1.85399e-06
-3.66535e-06 1.85399e-06 1.44593e-05
0.00161262 -0.000142046 -1.32368e-07
-0.000142046 0.000141688 -2.88439e-07
-1.32368e-07 -2.88439e-07 1.72301e-05
0.00145768 -0.000136925 -2.19943e-06
-0.000136925 9.5582e-05 1.34275e-07
-2.19943e-06 1.34275e-07 -3.34623e-05
0.0016214 -0.000165847 2.02464e-06
-0.000165847 0.000161464 7.28007e-07
2.02464e-06 7.28007e-07 2.50854e-05
0.00146224 -0.000158438 6.77511e-07
-0.000158438 0.000122836 -5.36462e-07
6.77511e-07 -5.36462e-07 -1.54001e-05
0.00134481 -0.000146606 -5.62851e-06
-0.000146606 0.000115703 1.63328e-06
-5.62851e-06 1.63328e-06 -1.62352e-05
0.000974067 -0.000119009 -6.79915e-06
-0.000119009 3.8842e-05 4.12334e-06
-6.79915e-06 4.12334e-06 -7.31103e-05
0.000994808 -0.000144658 -1.49223e-06
-0.000144658 -1.6922e-05 8.0479e-07
-1.49223e-06 8.0479e-07 -0.000157235
0.00131788 -0.0001699 2.59235e-06
-0.0001699 0.000108912 -1.41586e-07
2.59235e-06 -1.41586e-07 -4.58143e-05
0.000561424 -7.01165e-05 -9.80083e-06
-7.01165e-05 -7.41592e-05 8.63194e-06
-9.80083e-06 8.63194e-06 -0.000132851
0.000907103 -0.000111138 3.46323e-07
-0.000111138 5.40307e-05 3.10767e-08
3.46323e-07 3.10767e-08 -5.49578e-05
0.00113373 -0.000153296 3.59827e-06
-0.000153296 0.000127798 -1.77098e-06
3.59827e-06 -1.77098e-06 -1.2835e-05
0.00353027 0.00013288 -7.24414e-05
0.00013288 0.00161368 2.72014e-06
-7.24414e-05 2.72014e-06 0.00160531
0.000640667 -3.56994e-05 -4.78219e-08
-3.56994e-05 -2.72724e-05 -1.58047e-07
-4.78219e-08 -1.58047e-07 -7.73191e-05
0.000960278 -9.87246e-05 4.71842e-06
-9.87246e-05 0.000117567 -3.01768e-06
4.71842e-06 -3.01768e-06 1.56519e-05
0.00326916 0.000113524 2.46821e-06
0.000113524 0.0014619 2.80949e-07
2.46821e-06 2.80949e-07 0.00145905
0.000681444 -2.53681e-06 6.89823e-06
-2.53681e-06 2.084e-06 -6.42353e-06
6.89823e-06 -6.42353e-06 -3.9696e-05
0.0029945 9.73195e-05 6.5103e-05
9.73195e-05 0.0013055 -2.96554e-06
6.5103e-05 -2.96554e-06 0.00130724
0.000934229 0.000148474 -6.44271e-07
0.000148474 5.33152e-05 -2.01414e-06
-6.44271e-07 -2.01414e-06 -9.21168e-05
0.00101165 0.000143489 -1.18289e-07
0.000143489 0.000150363 -1.15178e-06
-1.18289e-07 -1.15178e-06 1.87912e-05
0.00110962 0.000134744 -1.03986e-06
0.000134744 0.000203825 -1.36388e-06
-1.03986e-06 -1.36388e-06 8.63271e-05
0.0011897 0.000147604 -5.45953e-07
0.000147604 0.000269575 1.94446e-07
-5.45953e-07 1.94446e-07 0.000151588
0.000889206 7.81682e-05 -1.05492e-06
7.81682e-05 0.000102337 -6.57614e-07
-1.05492e-06 -6.57614e-07 -7.98323e-07
0.000777043 3.53517e-05 -2.20715e-06
3.53517e-05 5.13934e-05 -2.13208e-06
-2.20715e-06 -2.13208e-06 -3.22764e-05
0.00070466 2.56351e-05 -2.31599e-07
2.56351e-05 1.335e-05 3.94481e-07
-2.31599e-07 3.94481e-07 -8.10745e-05
0.000694706 -2.47783e-05 -3.85935e-07
-2.47783e-05 6.60259e-06 -6.63853e-08
-3.85935e-07 -6.63853e-08 -6.30157e-05
0.000607399 -6.91298e-05 9.72766e-09
-6.91298e-05 -2.1826e-05 -5.52838e-06
9.72766e-09 -5.52838e-06 -5.49361e-05
0.000681831 -5.66733e-05 4.95295e-07
-5.66733e-05 -8.87594e-07 2.82773e-06
4.95295e-07 2.82773e-06 -6.06805e-05
0.000610818 -6.69572e-05 2.29389e-07
-6.69572e-05 -2.82087e-05 -1.13125e-07
2.29389e-07 -1.13125e-07 -5.46449e-05
0.00251395 -9.11706e-05 -4.351e-05
-9.11706e-05 0.0010353 -2.4135e-06
-4.351e-05 -2.4135e-06 0.00104056
0.000621027 -5.22511e-05 1.71174e-06
-5.22511e-05 -3.51743e-05 4.30216e-06
1.71174e-06 4.30216e-06 -5.55365e-05
0.00238685 -8.23239e-05 -8.25189e-07
-8.23239e-05 0.000957766 1.32609e-07
-8.25189e-07 1.32609e-07 0.000965439
0.00235428 -7.33286e-05 3.21246e-05
-7.33286e-05 0.000931114 3.34607e-06
3.21246e-05 3.34607e-06 0.000941047
0.000294382 2.22434e-05 8.54181e-06
2.22434e-05 -0.000569177 3.29342e-06
8.54181e-06 3.29342e-06 -0.000595567
0.00381434 3.16222e-05 6.96786e-06
3.16222e-05 0.000491393 1.06811e-05
6.96786e-06 1.06811e-05 0.000140564
0.0067599 0.000265104 -9.85085e-05
0.000265104 0.00195063 -2.49819e-05
-9.85085e-05 -2.49819e-05 0.000981801
0.000801728 0.000144198 2.60773e-06
0.000144198 -7.89092e-05 5.0583e-07
2.60773e-06 5.0583e-07 -0.000211013
0.00142369 0.00018879 3.5826e-06
0.00018879 0.000131747 -3.2896e-06
3.5826e-06 -3.2896e-06 -1.86456e-05
0.000912067 0.000154684 -4.04608e-08
0.000154684 3.27466e-05 -1.64477e-06
-4.04608e-08 -1.64477e-06 -0.000111076
0.00106235 0.000148669 -1.41804e-06
0.000148669 0.00023002 -4.18931e-07
-1.41804e-06 -4.18931e-07 0.000101657
0.000965139 0.000148921 -1.25201e-06
0.000148921 0.000137851 -8.14272e-07
-1.25201e-06 -8.14272e-07 -2.0212e-06
0.0011223 0.000169433 4.42845e-06
0.000169433 0.000163912 2.14427e-06
4.42845e-06 2.14427e-06 3.71152e-05
0.00207144 0.00026731 -6.42352e-06
0.00026731 0.000400729 -5.30636e-06
-6.42352e-06 -5.30636e-06 0.000255287
0.00157641 0.000206584 7.19676e-08
0.000206584 0.000397162 2.0868e-06
7.19676e-08 2.0868e-06 0.000267037
0.0012131 0.000215624 3.57288e-06
0.000215624 3.81789e-05 1.24591e-05
3.57288e-06 1.24591e-05 -0.000105359
0.00175629 0.000273945 -8.3523e-07
0.000273945 0.000198158 1.09421e-06
-8.3523e-07 1.09421e-06 4.68753e-05
0.00221679 0.000275503 -6.61086e-06
0.000275503 0.000326913 2.63119e-06
-6.61086e-06 2.63119e-06 0.000187496
0.00121796 0.000110824 1.38576e-05
0.000110824 -0.000233689 4.45769e-06
1.38576e-05 4.45769e-06 -0.000306088
0.00162842 0.000240909 8.25474e-06
0.000240909 5.10215e-05 2.37942e-06
8.25474e-06 2.37942e-06 -6.89749e-05
0.00119331 0.000273153 -5.85571e-06
0.000273153 -0.000135063 -3.44196e-06
-5.85571e-06 -3.44196e-06 -0.00029503
0.000951751 0.000145129 -4.33019e-06
0.000145129 -0.000110977 1.40303e-06
-4.33019e-06 1.40303e-06 -0.000120256
0.00474744 0.00010724 4.38834e-05
0.00010724 0.000512418 4.34491e-06
4.38834e-05 4.34491e-06 9.54011e-05
0.00108191 0.000247969 2.72556e-06
0.000247969 -4.21695e-05 -9.56908e-06
2.72556e-06 -9.56908e-06 -6.75381e-05
0.00154207 -2.69045e-05 1.14918e-05
-2.69045e-05 1.24749e-05 1.34829e-06
1.14918e-05 1.34829e-06 -3.76637e-05
0.00204901 -4.93235e-05 -5.15064e-06
-4.93235e-05 0.000154289 -1.83907e-07
-5.15064e-06 -1.83907e-07 6.85614e-05
0.002198 0.00012659 5.75543e-05
0.00012659 -7.19056e-05 -4.51006e-06
5.75543e-05 -4.51006e-06 -0.000353337
-0.00121581 -5.22865e-05 -1.33222e-05
-5.22865e-05 -0.00152591 8.23213e-06
-1.33222e-05 8.23213e-06 -0.00154718
0.00219832 -4.82164e-05 -5.26113e-05
-4.82164e-05 0.000203848 6.19295e-06
-5.26113e-05 6.19295e-06 0.000146847
0.00154076 -6.57455e-05 5.34795e-07
-6.57455e-05 -0.00016091 1.87993e-06
5.34795e-07 1.87993e-06 -0.000193861
0.0022185 -3.96161e-05 -1.18925e-06
-3.96161e-05 0.000277002 1.82711e-07
-1.18925e-06 1.82711e-07 0.00022567
0.00192423 -0.000108071 5.62274e-06
-0.000108071 6.71928e-05 1.35171e-06
5.62274e-06 1.35171e-06 2.45049e-05
0.00176773 -3.36947e-05 2.28611e-06
-3.36947e-05 -7.06518e-06 2.67027e-07
2.28611e-06 2.67027e-07 -7.00497e-05
0.00207286 -0.000105708 -5.24094e-07
-0.000105708 8.6302e-05 3.70827e-07
-5.24094e-07 3.70827e-07 6.23833e-05
0.00179784 -9.9731e-05 -1.63007e-06
-9.9731e-05 4.58614e-05 1.83428e-07
-1.63007e-06 1.83428e-07 -1.74612e-07
0.00187257 -0.00010201 3.30326e-06
-0.00010201 0.00011371 3.43944e-07
3.30326e-06 3.43944e-07 4.41268e-05
0.00193937 -0.000135456 -2.59922e-06
-0.000135456 0.000119127 -2.13363e-07
-2.59922e-06 -2.13363e-07 5.85355e-05
0.00175969 -0.00011187 -2.06682e-07
-0.00011187 9.66672e-05 -2.37075e-07
-2.06682e-07 -2.37075e-07 1.8118e-05
0.00170726 -9.77997e-05 2.2772e-06
-9.77997e-05 8.86131e-05 1.29749e-07
2.2772e-06 1.29749e-07 -8.72704e-06
0.00169825 -0.000135052 -6.12278e-06
-0.000135052 8.04705e-05 -1.77117e-08
-6.12278e-06 -1.77117e-08 -6.52552e-06
0.00165794 -0.000115392 9.88483e-08
-0.000115392 9.55009e-05 2.00225e-08
9.88483e-08 2.00225e-08 -1.00563e-05
0.00160852 -0.000106158 6.21903e-07
-0.000106158 0.000105752 4.61101e-07
6.21903e-07 4.61101e-07 -1.36819e-05
0.00162997 -0.000133079 -2.49628e-06
-0.000133079 0.000103494 -2.00529e-07
-2.49628e-06 -2.00529e-07 -6.63786e-06
0.00158208 -0.000126479 1.21001e-07
-0.000126479 0.000109723 -1.54878e-07
1.21001e-07 -1.54878e-07 -1.18323e-05
0.00151775 -0.000124548 -1.72096e-06
-0.000124548 0.000113076 7.70997e-07
-1.72096e-06 7.70997e-07 -1.38244e-05
0.00154968 -0.000138502 -4.40286e-07
-0.000138502 0.000104505 3.7575e-07
-4.40286e-07 3.7575e-07 -1.88694e-05
0.0013883 -0.000134518 -2.56185e-07
-0.000134518 5.73011e-05 -2.47793e-07
-2.56185e-07 -2.47793e-07 -7.1728e-05
0.00135116 -0.00013062 -5.52772e-06
-0.00013062 9.09738e-05 1.48486e-06
-5.52772e-06 1.48486e-06 -3.46884e-05
0.00128299 -0.00015059 3.6646e-06
-0.00015059 2.31155e-05 -2.55776e-07
3.6646e-06 -2.55776e-07 -0.000115521
0.00112966 -0.000136095 2.04043e-07
-0.000136095 -1.04891e-06 2.73808e-09
2.04043e-07 2.73808e-09 -0.000132835
0.00104599 -0.00011612 -8.72709e-06
-0.00011612 3.1065e-05 4.10889e-06
-8.72709e-06 4.10889e-06 -7.77073e-05
0.000484005 -0.000101807 -1.34693e-05
-0.000101807 -0.000134345 9.34424e-06
-1.34693e-05 9.34424e-06 -0.000197388
0.000974754 -0.000120105 3.97024e-07
-0.000120105 3.95662e-05 2.1863e-07
3.97024e-07 2.1863e-07 -7.26218e-05
0.00112714 -0.000150621 2.96385e-06
-0.000150621 5.94057e-05 -6.68641e-07
2.96385e-06 -6.68641e-07 -8.05292e-05
0.00386119 0.000149692 -7.93664e-05
0.000149692 0.00180918 3.42713e-06
-7.93664e-05 3.42713e-06 0.00179444
0.00065375 -6.57167e-05 -4.62535e-08
-6.57167e-05 -2.78438e-05 1.04136e-07
-4.62535e-08 1.04136e-07 -8.70704e-05
0.000985405 -0.000116808 5.59274e-06
-0.000116808 9.74957e-05 -3.39184e-06
5.59274e-06 -3.39184e-06 -1.2563e-05
0.00363654 0.000125973 3.94586e-06
0.000125973 0.00167225 4.14101e-07
3.94586e-06 4.14101e-07 0.0016645
0.000750522 -3.80614e-05 9.12265e-06
-3.80614e-05 2.87572e-05 -7.51548e-06
9.12265e-06 -7.51548e-06 -2.17562e-05
0.00336727 0.000105227 7.8693e-05
0.000105227 0.00151432 -3.24796e-06
7.8693e-05 -3.24796e-06 0.00151249
0.000677188 0.000141892 -1.55522e-06
0.000141892 -0.000187472 -1.2772e-06
-1.55522e-06 -1.2772e-06 -0.000341244
0.000699274 0.000134766 -1.90997e-07
0.000134766 -7.69421e-05 1.3944e-08
-1.90997e-07 1.3944e-08 -0.000222525
0.00113042 0.000145799 -2.60719e-06
0.000145799 0.000171126 -1.80956e-06
-2.60719e-06 -1.80956e-06 4.00929e-05
0.000931802 0.000137853 -4.93856e-07
0.000137853 0.000107652 2.45616e-07
-4.93856e-07 2.45616e-07 -2.30951e-05
0.000985156 0.000125674 -3.24674e-07
0.000125674 0.000137551 -4.29362e-07
-3.24674e-07 -4.29362e-07 2.13515e-05
0.000917244 7.0908e-05 -3.57118e-06
7.0908e-05 0.000118819 -2.16034e-06
-3.57118e-06 -2.16034e-06 2.51247e-05
0.000880509 8.23544e-05 -5.51398e-08
8.23544e-05 9.65784e-05 -4.05276e-07
-5.51398e-08 -4.05276e-07 -5.58274e-06
0.00074881 2.08486e-05 -1.55157e-07
2.08486e-05 3.80062e-05 1.23764e-07
-1.55157e-07 1.23764e-07 -4.53729e-05
0.00062747 -4.1327e-05 -3.7854e-06
-4.1327e-05 -1.49194e-05 -5.65221e-06
-3.7854e-06 -5.65221e-06 -5.35501e-05
0.000699528 -5.17121e-05 2.54348e-07
-5.17121e-05 1.16202e-05 3.03745e-06
2.54348e-07 3.03745e-06 -5.83202e-05
0.000575029 -7.65858e-05 -8.04095e-08
-7.65858e-05 -3.79021e-05 -1.99192e-07
-8.04095e-08 -1.99192e-07 -7.2151e-05
0.00271311 -0.000100323 -5.23221e-05
-0.000100323 0.00114991 -2.27476e-06
-5.23221e-05 -2.27476e-06 0.0011524
0.000585432 -6.20837e-05 1.2832e-06
-6.20837e-05 -4.43264e-05 4.58134e-06
1.2832e-06 4.58134e-06 -6.94136e-05
0.00247622 -9.15481e-05 -8.45742e-07
-9.15481e-05 0.00101431 1.29061e-07
-8.45742e-07 1.29061e-07 0.00101952
0.0023744 -8.17077e-05 3.53505e-05
-8.17077e-05 0.000950123 2.9803e-06
3.53505e-05 2.9803e-06 0.000957954
0.00139442 4.01702e-05 9.01384e-06
4.01702e-05 -0.000138929 1.85307e-06
9.01384e-06 1.85307e-06 -0.000193519
0.00141761 -9.74928e-06 -2.92388e-06
-9.74928e-06 -8.3012e-05 3.44376e-06
-2.92388e-06 3.44376e-06 -0.000138113
0.00274383 -9.07774e-06 6.35977e-05
-9.07774e-06 -6.87335e-05 1.58772e-06
6.35977e-05 1.58772e-06 -0.000319585
0.00173822 0.000210475 -5.65558e-07
0.000210475 0.000230717 -4.89999e-06
-5.65558e-07 -4.89999e-06 8.93735e-05
0.000773648 0.000146993 -1.15914e-06
0.000146993 -7.40011e-05 1.27462e-06
-1.15914e-06 1.27462e-06 -0.000195643
0.00150115 0.000179947 -1.68315e-06
0.000179947 5.97402e-05 1.40079e-06
-1.68315e-06 1.40079e-06 -7.71131e-05
0.00164154 0.000201525 8.51489e-07
0.000201525 0.000247664 3.14065e-07
8.51489e-07 3.14065e-07 9.55604e-05
0.000453743 0.00012908 -4.19332e-06
0.00012908 -0.000207169 1.75386e-06
-4.19332e-06 1.75386e-06 -0.000347001
0.00178376 0.000219762 -4.32926e-06
0.000219762 0.000107348 1.48836e-06
-4.32926e-06 1.48836e-06 -2.82763e-05
0.00150353 0.00019728 -4.46644e-07
0.00019728 0.000353467 1.04164e-06
-4.46644e-07 1.04164e-06 0.000221864
0.00194246 0.000259562 1.89175e-08
0.000259562 0.00032253 -2.57502e-06
1.89175e-08 -2.57502e-06 0.000173729
0.00180874 0.000149621 -4.19217e-06
0.000149621 7.66923e-05 1.8256e-06
-4.19217e-06 1.8256e-06 -2.71909e-05
0.00206096 0.000288914 3.66706e-06
0.000288914 0.000364012 3.9686e-06
3.66706e-06 3.9686e-06 0.000213532
0.00205553 0.000268669 -1.35497e-06
0.000268669 0.000238096 5.0333e-08
-1.35497e-06 5.0333e-08 9.96932e-05
0.00129613 0.00012116 -5.25975e-07
0.00012116 -0.000169582 -9.69982e-08
-5.25975e-07 -9.69982e-08 -0.000242703
0.00121912 0.000217385 -3.58692e-06
0.000217385 -0.000144794 -3.73736e-06
-3.58692e-06 -3.73736e-06 -0.00026674
0.0012337 0.00013203 -1.79224e-05
0.00013203 3.08148e-05 -2.74081e-06
-1.79224e-05 -2.74081e-06 1.46355e-05
0.00168792 5.62091e-06 -1.55801e-06
5.62091e-06 -4.03617e-05 5.6184e-07
-1.55801e-06 5.6184e-07 -0.000108691
0.00195226 -7.57135e-06 -1.89825e-06
-7.57135e-06 0.000242274 -3.74376e-07
-1.89825e-06 -3.74376e-07 0.000191601
0.00163303 2.30035e-06 -3.59895e-05
2.30035e-06 -3.21673e-05 -5.08639e-07
-3.59895e-05 -5.08639e-07 -0.000119812
0.000820766 -9.52188e-05 -8.72278e-06
-9.52188e-05 -0.000596807 1.36929e-06
-8.72278e-06 1.36929e-06 -0.000618283
0.00168095 -5.37979e-05 -6.77911e-06
-5.37979e-05 -5.89315e-05 -1.30389e-06
-6.77911e-06 -1.30389e-06 -0.000112105
0.00196171 -0.000103008 -1.07151e-06
-0.000103008 9.15606e-05 2.88362e-07
-1.07151e-06 2.88362e-07 4.91945e-05
0.00183396 -3.4542e-05 1.2509e-06
-3.4542e-05 2.84066e-05 -1.6384e-07
1.2509e-06 -1.6384e-07 -3.42006e-05
0.00179818 -5.36449e-05 1.2583e-06
-5.36449e-05 4.0715e-05 4.24353e-08
1.2583e-06 4.24353e-08 -3.12129e-05
0.00171337 -9.84526e-05 -3.23523e-06
-9.84526e-05 -5.31081e-06 -7.34438e-07
-3.23523e-06 -7.34438e-07 -4.9531e-05
0.00183989 -9.86203e-05 4.75763e-07
-9.86203e-05 0.000101312 -2.32944e-08
4.75763e-07 -2.32944e-08 3.03009e-05
0.00183041 -8.06575e-05 1.36201e-06
-8.06575e-05 0.000113889 -3.93681e-07
1.36201e-06 -3.93681e-07 2.33621e-05
0.00175636 -0.000112817 -4.63816e-06
-0.000112817 9.63301e-05 -3.76173e-07
-4.63816e-06 -3.76173e-07 1.57574e-05
0.00168853 -9.76631e-05 -7.32693e-08
-9.76631e-05 8.2362e-05 8.24802e-08
-7.32693e-08 8.24802e-08 -1.67068e-05
0.00167101 -8.06145e-05 6.95982e-07
-8.06145e-05 0.000111798 1.01647e-07
6.95982e-07 1.01647e-07 -4.79501e-06
0.00168159 -0.000114967 -2.16842e-06
-0.000114967 0.000109622 -2.71023e-07
-2.16842e-06 -2.71023e-07 4.24797e-06
0.00161184 -0.000105316 1.59455e-08
-0.000105316 0.000105851 1.01334e-07
1.59455e-08 1.01334e-07 -1.34402e-05
0.00154656 -0.000102835 -1.68118e-06
-0.000102835 0.000113852 7.59071e-07
-1.68118e-06 7.59071e-07 -1.1754e-05
0.00160583 -0.000126802 -5.69382e-07
-0.000126802 0.000120807 -4.65028e-07
-5.69382e-07 -4.65028e-07 -5.94198e-07
0.00150824 -0.000123632 2.25096e-08
-0.000123632 0.000107966 -2.98209e-08
2.25096e-08 -2.98209e-08 -1.88117e-05
0.00137296 -0.000115642 -4.93578e-06
-0.000115642 8.51648e-05 1.63302e-06
-4.93578e-06 1.63302e-06 -3.79692e-05
0.00131258 -0.00013179 1.94357e-06
-0.00013179 1.55239e-05 -5.92106e-07
1.94357e-06 -5.92106e-07 -0.000113452
0.00132594 -0.000128666 -1.09961e-07
-0.000128666 7.79998e-05 -5.65845e-08
-1.09961e-07 -5.65845e-08 -4.7437e-05
0.00108487 -0.000105271 -9.81091e-06
-0.000105271 2.50514e-05 3.96051e-06
-9.81091e-06 3.96051e-06 -8.00423e-05
0.000910616 -0.000125274 5.03922e-06
-0.000125274 -0.000119873 -1.10771e-06
5.03922e-06 -1.10771e-06 -0.000251479
0.00103253 -0.000114991 3.36792e-07
-0.000114991 2.40988e-05 1.25385e-07
3.36792e-07 1.25385e-07 -8.46334e-05
0.00209803 -2.9487e-05 -8.98293e-06
-2.9487e-05 0.00075701 6.78018e-06
-8.98293e-06 6.78018e-06 0.000693555
0.00118318 -2.17812e-06 -0.000100301
-2.17812e-06 0.000300921 1.01476e-05
-0.000100301 1.01476e-05 0.000281688
0.00141796 -6.36606e-05 1.22393e-06
-6.36606e-05 0.000385891 8.30868e-08
1.22393e-06 8.30868e-08 0.000321488
0.000981245 -0.000121491 7.14673e-06
-0.000121491 4.38557e-05 -3.47577e-06
7.14673e-06 -3.47577e-06 -6.86611e-05
0.00402844 0.0001309 7.42206e-06
0.0001309 0.00189954 5.93004e-07
7.42206e-06 5.93004e-07 0.00188675
0.000778452 -8.4616e-05 1.22303e-05
-8.4616e-05 3.45919e-05 -8.73927e-06
1.22303e-05 -8.73927e-06 -2.54204e-05
0.00371148 0.00010386 9.45018e-05
0.00010386 0.00171144 -4.15858e-06
9.45018e-05 -4.15858e-06 0.0017063
0.00190372 0.000164677 -1.61493e-07
0.000164677 0.000256129 4.93528e-07
-1.61493e-07 4.93528e-07 0.000128151
0.00103663 0.000156703 -8.50912e-07
0.000156703 -9.59473e-05 1.6184e-06
-8.50912e-07 1.6184e-06 -0.000239297
0.000939405 0.000158273 -2.68553e-07
0.000158273 -5.29356e-05 -1.64529e-07
-2.68553e-07 -1.64529e-07 -0.000209094
0.00112539 0.00015086 -3.71035e-06
0.00015086 0.000107653 -1.90417e-06
-3.71035e-06 -1.90417e-06 -3.23617e-05
0.000468634 0.00012136 3.67851e-07
0.00012136 -0.000204701 2.42528e-06
3.67851e-07 2.42528e-06 -0.000350505
0.00104061 0.000138994 -5.12568e-07
0.000138994 0.000124919 -8.60943e-08
-5.12568e-07 -8.60943e-08 -5.1979e-06
0.000985978 0.000101518 -4.68666e-06
0.000101518 0.000128733 -2.5703e-06
-4.68666e-06 -2.5703e-06 2.72235e-05
0.000868745 0.000117054 1.00495e-06
0.000117054 7.56397e-05 8.10289e-07
1.00495e-06 8.10289e-07 -3.93085e-05
0.00080107 6.19121e-05 -2.99695e-07
6.19121e-05 5.65229e-05 2.00138e-08
-2.99695e-07 2.00138e-08 -3.60591e-05
0.000707907 1.01213e-05 -7.06786e-06
1.01213e-05 1.81891e-05 -6.30777e-06
-7.06786e-06 -6.30777e-06 -2.69062e-05
0.000725204 5.51209e-06 1.08315e-06
5.51209e-06 2.47527e-05 2.13929e-06
1.08315e-06 2.13929e-06 -5.67621e-05
0.00056685 -5.0595e-05 -5.52282e-07
-5.0595e-05 -4.74067e-05 -2.16641e-07
-5.52282e-07 -2.16641e-07 -8.56088e-05
0.00297838 -0.000108967 -6.42816e-05
-0.000108967 0.00130139 -2.29798e-06
-6.42816e-05 -2.29798e-06 0.00130045
0.000531741 -7.60838e-05 -4.12505e-07
-7.60838e-05 -6.24585e-05 5.35332e-06
-4.12505e-07 5.35332e-06 -9.61701e-05
0.00264082 -0.00010187 -1.20022e-06
-0.00010187 0.00111071 1.48226e-07
-1.20022e-06 1.48226e-07 0.00111297
0.00244049 -9.10599e-05 3.86318e-05
-9.10599e-05 0.000994249 2.5753e-06
3.86318e-05 2.5753e-06 0.000999602
0.00180978 7.91052e-05 -2.55035e-06
7.91052e-05 3.53241e-05 1.44559e-06
-2.55035e-06 1.44559e-06 -4.51996e-05
0.00183999 3.57864e-05 1.38027e-06
3.57864e-05 0.000108486 -6.2126e-07
1.38027e-06 -6.2126e-07 5.60713e-05
0.0030634 -4.02775e-05 -2.93993e-05
-4.02775e-05 0.000664836 -5.175e-06
-2.93993e-05 -5.175e-06 0.000578555
0.00170489 0.00018191 -3.03498e-06
0.00018191 9.28561e-05 4.73904e-07
-3.03498e-06 4.73904e-07 -3.82417e-05
0.00168224 0.000206362 -2.6532e-06
0.000206362 0.000223451 8.92263e-08
-2.6532e-06 8.92263e-08 8.53024e-05
0.000767387 0.000151171 -1.07616e-05
0.000151171 -5.82192e-05 3.4373e-06
-1.07616e-05 3.4373e-06 -0.000169554
0.00174447 0.000186862 1.78208e-06
0.000186862 0.000191476 2.98223e-07
1.78208e-06 2.98223e-07 5.43843e-05
0.00186734 0.00021479 -1.51496e-06
0.00021479 0.000368643 2.27317e-07
-1.51496e-06 2.27317e-07 0.000214714
0.00207552 0.000149663 -3.52696e-06
0.000149663 0.000212935 1.44661e-06
-3.52696e-06 1.44661e-06 0.000110058
0.00172034 0.000219954 -1.41136e-06
0.000219954 7.39396e-05 5.14684e-07
-1.41136e-06 5.14684e-07 -6.28581e-05
0.00186564 0.000254896 2.84935e-06
0.000254896 0.000271208 6.89156e-07
2.84935e-06 6.89156e-07 0.000118647
0.001811 0.000149691 -4.8386e-07
0.000149691 7.29612e-05 1.47089e-07
-4.8386e-07 1.47089e-07 -3.10945e-05
0.00201985 0.00026693 5.7778e-06
0.00026693 0.000209655 -6.7062e-07
5.7778e-06 -6.7062e-07 7.21345e-05
0.00152214 0.000134292 -1.71227e-05
0.000134292 -4.42913e-05 -5.64276e-06
-1.71227e-05 -5.64276e-06 -0.000117034
0.00195584 1.21897e-05 1.16312e-07
1.21897e-05 0.000119623 2.31606e-07
1.16312e-07 2.31606e-07 4.60392e-05
0.00178424 9.54297e-06 5.22177e-07
9.54297e-06 1.37587e-05 -3.96491e-07
5.22177e-07 -3.96491e-07 -5.37129e-05
0.00238047 1.14469e-05 -1.74317e-05
1.14469e-05 0.000479891 -1.45661e-06
-1.74317e-05 -1.45661e-06 0.000428454
0.00208402 -9.93556e-05 -1.03312e-05
-9.93556e-05 0.000159862 -8.86391e-07
-1.03312e-05 -8.86391e-07 0.000117788
0.00193039 -3.46723e-05 -2.03508e-06
-3.46723e-05 7.7885e-05 -5.3448e-07
-2.03508e-06 -5.3448e-07 1.56489e-05
0.00181394 -5.30662e-05 5.55628e-07
-5.30662e-05 4.15284e-05 8.44572e-08
5.55628e-07 8.44572e-08 -2.73464e-05
0.0018637 -3.47376e-05 3.47692e-07
-3.47376e-05 0.000107378 -1.83043e-07
3.47692e-07 -1.83043e-07 1.71377e-05
0.0018288 -9.57836e-05 -1.29126e-06
-9.57836e-05 0.000100132 -3.31888e-07
-1.29126e-06 -3.31888e-07 2.77062e-05
0.00181361 -8.10741e-05 -3.86967e-07
-8.10741e-05 0.000110443 -1.75178e-07
-3.86967e-07 -1.75178e-07 1.9221e-05
0.00174301 -6.07976e-05 1.64033e-06
-6.07976e-05 0.000115445 -8.87298e-07
1.64033e-06 -8.87298e-07 2.56698e-06
0.00166653 -9.75113e-05 -2.27554e-06
-9.75113e-05 7.43085e-05 1.78991e-07
-2.27554e-06 1.78991e-07 -2.64991e-05
0.00165886 -8.04857e-05 -1.67883e-07
-8.04857e-05 0.000104666 1.1794e-07
-1.67883e-07 1.1794e-07 -1.18295e-05
0.00157983 -7.28363e-05 -1.56334e-06
-7.28363e-05 0.000116195 6.2876e-07
-1.56334e-06 6.2876e-07 -8.7537e-06
0.00161654 -0.000104419 -3.76245e-07
-0.000104419 0.000106718 -2.67465e-07
-3.76245e-07 -2.67465e-07 -1.24145e-05
0.00153091 -0.000101828 -5.38317e-08
-0.000101828 0.000104817 5.67826e-08
-5.38317e-08 5.67826e-08 -2.06946e-05
0.00139657 -9.66466e-05 -4.80113e-06
-9.66466e-05 8.306e-05 1.48489e-06
-4.80113e-06 1.48489e-06 -3.92964e-05
0.00149634 -0.000122664 1.86128e-06
-0.000122664 0.000101627 -8.17098e-07
1.86128e-06 -8.17098e-07 -2.50354e-05
0.00136804 -0.000114618 -2.65779e-08
-0.000114618 8.24864e-05 4.04267e-08
-2.65779e-08 4.04267e-08 -4.05042e-05
0.00110582 -9.34474e-05 -1.00449e-05
-9.34474e-05 2.10308e-05 3.67286e-06
-1.00449e-05 3.67286e-06 -8.2802e-05
0.00130188 -0.000126773 5.07065e-06
-0.000126773 6.56156e-05 -1.55051e-06
5.07065e-06 -1.55051e-06 -5.95958e-05
0.00107213 -0.000103542 2.6287e-07
-0.000103542 1.74851e-05 1.28184e-08
2.6287e-07 1.28184e-08 -8.7374e-05
0.00218886 -4.71285e-05 -1.58212e-05
-4.71285e-05 0.000785072 5.49247e-06
-1.58212e-05 5.49247e-06 0.000729198
0.00100904 -0.00011365 8.6976e-06
-0.00011365 1.18255e-05 -3.73111e-06
8.6976e-06 -3.73111e-06 -9.68933e-05
0.00229547 -7.92879e-05 2.79366e-05
-7.92879e-05 0.000852188 -2.09117e-06
2.79366e-05 -2.09117e-06 0.000796068
0.0014913 -4.2919e-05 -0.000119653
-4.2919e-05 0.000472253 1.31928e-05
-0.000119653 1.31928e-05 0.0004518
0.00277762 3.20003e-05 -0.000103587
3.20003e-05 0.00119996 3.13221e-06
-0.000103587 3.13221e-06 0.00118449
0.00237967 -0.000103811 6.61091e-05
-0.000103811 0.000909002 -8.43589e-06
6.61091e-05 -8.43589e-06 0.00085625
0.00417138 9.48388e-05 0.000110197
9.48388e-05 0.00197544 -6.61664e-06
0.000110197 -6.61664e-06 0.00196547
0.00175782 0.000143119 -2.71566e-06
0.000143119 0.000152431 -4.52475e-07
-2.71566e-06 -4.52475e-07 2.66886e-05
0.00176384 0.00016879 1.23923e-06
0.00016879 0.00024834 4.51898e-07
1.23923e-06 4.51898e-07 0.000117193
0.00170503 0.000157817 8.60091e-07
0.000157817 0.000151821 3.03276e-07
8.60091e-07 3.03276e-07 2.56273e-05
0.00115298 0.000152376 -5.11011e-06
0.000152376 4.47777e-05 -3.9348e-07
-5.11011e-06 -3.9348e-07 -9.40354e-05
0.0012583 0.000169066 -1.99134e-07
0.000169066 2.12833e-05 6.02506e-07
-1.99134e-07 6.02506e-07 -0.00012365
0.0011765 0.000173463 1.88782e-06
0.000173463 6.82428e-05 1.04083e-06
1.88782e-06 1.04083e-06 -9.02266e-05
0.00112833 0.000151518 -4.13858e-07
0.000151518 0.000110526 1.71575e-08
-4.13858e-07 1.71575e-08 -2.9887e-05
0.000988096 0.000117535 -6.02001e-06
0.000117535 8.62653e-05 -3.58214e-06
-6.02001e-06 -3.58214e-06 -2.36732e-05
0.000948171 0.000132005 1.56181e-06
0.000132005 7.72302e-05 1.62218e-06
1.56181e-06 1.62218e-06 -5.19445e-05
0.000859268 9.37329e-05 -3.41251e-07
9.37329e-05 5.97578e-05 -8.43903e-08
-3.41251e-07 -8.43903e-08 -4.03093e-05
0.000773185 5.2498e-05 -9.62286e-06
5.2498e-05 4.58522e-05 -7.37377e-06
-9.62286e-06 -7.37377e-06 -8.63128e-06
0.0006762 5.40979e-05 1.77654e-06
5.40979e-05 -1.128e-05 1.67284e-06
1.77654e-06 1.67284e-06 -0.000102186
0.000606103 -1.20641e-05 2.71467e-07
-1.20641e-05 -3.24408e-05 -2.39591e-07
2.71467e-07 -2.39591e-07 -7.79316e-05
0.00330431 -0.000106236 -8.26114e-05
-0.000106236 0.00149016 -3.02975e-06
-8.26114e-05 -3.02975e-06 0.0014862
0.000502206 -7.87565e-05 -1.67757e-06
-7.87565e-05 -7.37417e-05 6.33335e-06
-1.67757e-06 6.33335e-06 -0.000116696
0.0029119 -0.000114674 -1.95392e-06
-0.000114674 0.00126559 2.38487e-07
-1.95392e-06 2.38487e-07 0.00126383
0.00259535 -0.000102222 4.32064e-05
-0.000102222 0.00108576 2.2145e-06
4.32064e-05 2.2145e-06 0.00108812
0.001882 8.02161e-05 -1.61727e-06
8.02161e-05 8.08743e-05 1.19085e-06
-1.61727e-06 1.19085e-06 -4.80877e-06
0.00177678 7.85362e-05 8.09675e-07
7.85362e-05 2.36618e-05 -1.53213e-07
8.09675e-07 -1.53213e-07 -5.67672e-05
0.00218316 2.97731e-05 -2.88864e-05
2.97731e-05 0.000320122 -4.50569e-06
-2.88864e-05 -4.50569e-06 0.000270086
0.00188898 0.000133901 1.11391e-07
0.000133901 0.000142362 1.37393e-06
1.11391e-07 1.37393e-06 2.9717e-05
0.00174996 0.000180097 -9.1837e-07
0.000180097 0.000122129 -3.90527e-07
-9.1837e-07 -3.90527e-07 -8.23411e-06
0.00162398 0.000201692 -1.69736e-06
0.000201692 0.000214532 1.55901e-06
-1.69736e-06 1.55901e-06 7.97252e-05
0.00196577 0.000192688 1.0981e-06
0.000192688 0.000311114 -7.78834e-07
1.0981e-06 -7.78834e-07 0.000173869
0.00190618 0.000143532 2.86577e-07
0.000143532 0.00012139 -2.72432e-08
2.86577e-07 -2.72432e-08 1.72764e-05
0.00164344 0.000219583 3.56522e-07
0.000219583 3.44661e-05 -9.38641e-07
3.56522e-07 -9.38641e-07 -0.000103464
0.00177956 0.000148508 5.14172e-06
0.000148508 6.25142e-05 -1.39924e-06
5.14172e-06 -1.39924e-06 -4.17425e-05
0.00185612 1.76109e-05 1.49705e-06
1.76109e-05 9.29878e-05 4.91989e-07
1.49705e-06 4.91989e-07 5.69145e-06
0.0018861 1.25741e-05 -3.43496e-07
1.25741e-05 8.35971e-05 -3.63041e-08
-3.43496e-07 -3.63041e-08 8.29023e-06
0.00185627 1.32074e-05 -1.68215e-06
1.32074e-05 5.90908e-05 -1.30376e-06
-1.68215e-06 -1.30376e-06 -7.51223e-06
0.00168209 -6.90114e-06 -1.96874e-07
-6.90114e-06 2.07644e-05 7.58939e-08
-1.96874e-07 7.58939e-08 -7.65003e-05
0.00182015 -5.19729e-05 -1.45585e-06
-5.19729e-05 3.89799e-05 -1.09455e-08
-1.45585e-06 -1.09455e-08 -2.68338e-05
0.00185504 -3.55435e-05 -3.30049e-07
-3.55435e-05 0.000102503 3.952e-07
-3.30049e-07 3.952e-07 1.20233e-05
0.001895 -3.40733e-05 1.01813e-06
-3.40733e-05 0.000172458 -6.84213e-07
1.01813e-06 -6.84213e-07 6.56634e-05
0.0017966 -8.15862e-05 -2.23213e-06
-8.15862e-05 0.000106836 2.60868e-07
-2.23213e-06 2.60868e-07 1.49371e-05
0.00173539 -6.07095e-05 4.09313e-07
-6.07095e-05 0.000110901 -3.4124e-07
4.09313e-07 -3.4124e-07 -1.85654e-06
0.00160348 -4.30591e-05 -1.55391e-06
-4.30591e-05 0.000104841 2.54777e-07
-1.55391e-06 2.54777e-07 -1.92873e-05
0.0016511 -7.9808e-05 -5.14518e-07
-7.9808e-05 0.000100048 1.02084e-07
-5.14518e-07 1.02084e-07 -1.63018e-05
0.00155049 -7.10787e-05 -1.0017e-07
-7.10787e-05 9.83241e-05 1.23032e-08
-1.0017e-07 1.23032e-08 -2.65098e-05
0.00141634 -7.31506e-05 -4.72631e-06
-7.31506e-05 8.022e-05 1.45528e-06
-4.72631e-06 1.45528e-06 -4.29913e-05
0.00151561 -0.000100765 1.76712e-06
-0.000100765 9.5958e-05 -6.59683e-07
1.76712e-06 -6.59683e-07 -2.94501e-05
0.00139661 -9.57875e-05 -6.47247e-08
-9.57875e-05 8.28484e-05 3.86233e-08
-6.47247e-08 3.86233e-08 -3.93711e-05
0.0011229 -7.91039e-05 -1.00759e-05
-7.91039e-05 1.82453e-05 3.08913e-06
-1.00759e-05 3.08913e-06 -8.54531e-05
0.00136125 -0.000113472 5.00931e-06
-0.000113472 7.87864e-05 -1.57492e-06
5.00931e-06 -1.57492e-06 -4.40463e-05
0.00110474 -9.14565e-05 1.8386e-07
-9.14565e-05 1.91862e-05 1.19079e-07
1.8386e-07 1.19079e-07 -8.42554e-05
0.00226286 -6.72953e-05 -2.29122e-05
-6.72953e-05 0.000810612 4.56772e-06
-2.29122e-05 4.56772e-06 0.000759883
0.00105545 -0.000101788 9.62529e-06
-0.000101788 7.70881e-06 -3.90872e-06
9.62529e-06 -3.90872e-06 -9.69065e-05
0.00232966 -8.80088e-05 2.49096e-05
-8.80088e-05 0.000854737 -2.28245e-06
2.49096e-05 -2.28245e-06 0.000803628
0.00159176 -3.91178e-05 -0.000118676
-3.91178e-05 0.000525302 1.21779e-05
-0.000118676 1.21779e-05 0.000504702
0.00246377 -0.000111955 7.35606e-05
-0.000111955 0.000936362 -1.07229e-05
7.35606e-05 -1.07229e-05 0.000884294
0.00140928 3.07265e-05 -6.2246e-05
3.07265e-05 0.000444731 3.92984e-06
-6.2246e-05 3.92984e-06 0.000412675
0.00426228 0.00025873 -4.70628e-06
0.00025873 0.00206882 -4.11361e-06
-4.70628e-06 -4.11361e-06 0.00202674
0.00168679 0.000114929 -3.19292e-07
0.000114929 9.50075e-05 5.55948e-07
-3.19292e-07 5.55948e-07 -2.7348e-05
0.00166748 0.000133786 -1.68375e-06
0.000133786 0.000165234 -6.65505e-07
-1.68375e-06 -6.65505e-07 3.84542e-05
0.0017587 0.000145475 -2.06718e-06
0.000145475 0.000154652 5.76543e-08
-2.06718e-06 5.76543e-08 2.89049e-05
0.00170898 0.000162608 -3.40988e-06
0.000162608 0.000289747 -2.73548e-07
-3.40988e-06 -2.73548e-07 0.000161253
0.00151877 0.000160177 5.67581e-07
0.000160177 0.000112376 -4.50392e-07
5.67581e-07 -4.50392e-07 -1.84717e-05
0.00152379 0.000151839 4.03543e-06
0.000151839 5.69059e-05 1.88421e-07
4.03543e-06 1.88421e-07 -6.74963e-05
0.000992844 0.000122565 -8.39833e-06
0.000122565 2.84596e-05 -3.31231e-06
-8.39833e-06 -3.31231e-06 -8.49457e-05
0.00123789 0.000158121 -4.77032e-07
0.000158121 9.01543e-05 6.96973e-07
-4.77032e-07 6.96973e-07 -4.96902e-05
0.00150696 0.0001827 3.276e-06
0.0001827 0.000152696 -1.12524e-08
3.276e-06 -1.12524e-08 6.12961e-06
0.00112891 0.000152191 3.33581e-06
0.000152191 0.000112168 2.15706e-06
3.33581e-06 2.15706e-06 -2.86649e-05
0.000927218 0.000112913 -4.29637e-07
0.000112913 5.29921e-05 -2.19682e-07
-4.29637e-07 -2.19682e-07 -5.61593e-05
0.00078664 0.000104431 -1.43924e-05
0.000104431 4.40467e-05 -8.61152e-06
-1.43924e-05 -8.61152e-06 -1.93488e-05
0.000743292 8.60742e-05 3.35317e-06
8.60742e-05 -3.26181e-06 2.25906e-06
3.35317e-06 2.25906e-06 -0.00010198
0.000651052 4.72774e-05 -3.83606e-08
4.72774e-05 -1.43876e-05 -2.47208e-09
-3.83606e-08 -2.47208e-09 -6.89467e-05
0.00373171 -9.25677e-05 -9.91038e-05
-9.25677e-05 0.0017393 -5.44807e-06
-9.91038e-05 -5.44807e-06 0.00173065
0.000530354 -2.25984e-05 3.27212e-06
-2.25984e-05 -7.19832e-05 6.43248e-06
3.27212e-06 6.43248e-06 -0.000116035
0.00324322 -0.000128733 -3.67533e-06
-0.000128733 0.00145783 3.89252e-07
-3.67533e-06 3.89252e-07 0.00145086
0.00284418 -0.000116195 4.95747e-05
-0.000116195 0.00122821 2.01667e-06
4.95747e-05 2.01667e-06 0.00122653
0.00178405 7.32192e-05 1.02232e-06
7.32192e-05 5.77719e-05 1.25452e-06
1.02232e-06 1.25452e-06 -4.01928e-05
0.00182278 8.21175e-05 -3.58384e-07
8.21175e-05 4.59676e-05 2.36254e-07
-3.58384e-07 2.36254e-07 -3.93683e-05
0.00179848 7.90671e-05 2.33292e-06
7.90671e-05 3.23149e-05 -1.76739e-06
2.33292e-06 -1.76739e-06 -4.79952e-05
0.001879 0.00013258 5.1884e-07
0.00013258 0.000136358 -9.3841e-08
5.1884e-07 -9.3841e-08 2.43801e-05
0.00180015 0.00017851 -4.50156e-08
0.00017851 0.00015439 -1.32303e-06
-4.50156e-08 -1.32303e-06 2.47231e-05
0.00175745 0.000137575 2.15513e-06
0.000137575 3.94717e-05 -1.56519e-06
2.15513e-06 -1.56519e-06 -6.5822e-05
0.00183989 1.94959e-05 3.80434e-07
1.94959e-05 0.000108354 4.10287e-07
3.80434e-07 4.10287e-07 1.143e-05
0.00186985 1.89033e-05 3.53066e-07
1.89033e-05 0.000100931 -1.95665e-07
3.53066e-07 -1.95665e-07 1.26308e-05
0.00181182 1.34568e-05 7.14405e-07
1.34568e-05 4.3246e-05 -2.4456e-07
7.14405e-07 -2.4456e-07 -3.38095e-05
0.00176921 -1.36195e-05 -1.21126e-06
-1.36195e-05 6.77248e-05 9.89886e-08
-1.21126e-06 9.89886e-08 -2.85303e-05
0.00173611 -1.60608e-05 1.18644e-06
-1.60608e-05 8.3495e-05 -4.38854e-07
1.18644e-06 -4.38854e-07 -2.41546e-05
0.00184617 -3.62559e-05 -1.04388e-06
-3.62559e-05 9.77172e-05 4.41453e-07
-1.04388e-06 4.41453e-07 6.9822e-06
0.00180001 -3.42358e-05 -3.00977e-07
-3.42358e-05 0.000120318 2.88367e-07
-3.00977e-07 2.88367e-07 1.13435e-05
0.00166219 -2.26192e-05 1.04325e-07
-2.26192e-05 0.000114533 -4.11589e-07
1.04325e-07 -4.11589e-07 -5.73835e-06
0.00172153 -6.11606e-05 -1.37436e-07
-6.11606e-05 0.000102948 1.38732e-07
-1.37436e-07 1.38732e-07 -9.73709e-06
0.00158042 -4.44362e-05 -3.59985e-07
-4.44362e-05 9.04239e-05 7.13126e-08
-3.59985e-07 7.13126e-08 -3.37335e-05
0.00143221 -4.23899e-05 -5.55667e-06
-4.23899e-05 7.19893e-05 1.6231e-06
-5.55667e-06 1.6231e-06 -5.2722e-05
0.0015206 -7.08398e-05 1.1387e-06
-7.08398e-05 8.0049e-05 -5.97554e-07
1.1387e-06 -5.97554e-07 -4.47464e-05
0.00141405 -7.18364e-05 6.05303e-08
-7.18364e-05 7.86985e-05 -9.04585e-08
6.05303e-08 -9.04585e-08 -4.43363e-05
0.00113012 -6.06745e-05 -1.0041e-05
-6.06745e-05 9.87463e-06 2.68708e-06
-1.0041e-05 2.68708e-06 -9.4549e-05
0.00139373 -9.4787e-05 4.76961e-06
-9.4787e-05 8.10916e-05 -1.4159e-06
4.76961e-06 -1.4159e-06 -4.09871e-05
0.00112829 -7.68954e-05 5.4777e-09
-7.68954e-05 1.99948e-05 1.12963e-07
5.4777e-09 1.12963e-07 -8.3292e-05
0.00228131 -7.17894e-05 -2.62462e-05
-7.17894e-05 0.000812589 3.76763e-06
-2.62462e-05 3.76763e-06 0.00076238
0.00110105 -8.95334e-05 1.00987e-05
-8.95334e-05 1.58226e-05 -3.51257e-06
1.00987e-05 -3.51257e-06 -8.72188e-05
0.00234626 -8.55224e-05 2.36915e-05
-8.55224e-05 0.000853199 -1.92894e-06
2.36915e-05 -1.92894e-06 0.000804557
0.00165463 -3.52689e-05 -0.000118944
-3.52689e-05 0.00055384 1.05581e-05
-0.000118944 1.05581e-05 0.00053385
0.00245769 -0.000101979 7.38661e-05
-0.000101979 0.000921143 -9.58533e-06
7.38661e-05 -9.58533e-06 0.000872298
0.00144272 1.14075e-05 -5.65426e-05
1.14075e-05 0.000452762 4.26031e-06
-5.65426e-05 4.26031e-06 0.000425729
0.00139415 7.07811e-05 6.2296e-06
7.07811e-05 0.000443625 -4.39086e-06
6.2296e-06 -4.39086e-06 0.000406759
0.00185676 7.19353e-05 7.52906e-07
7.19353e-05 0.000153919 1.40751e-06
7.52906e-07 1.40751e-06 4.47922e-05
0.00154654 0.000100602 -2.1323e-06
0.000100602 7.80939e-05 -3.03829e-07
-2.1323e-06 -3.03829e-07 -4.79979e-05
0.00172256 0.000117153 -1.16733e-06
0.000117153 0.000112175 -1.19919e-07
-1.16733e-06 -1.19919e-07 -8.98953e-06
0.00160952 0.000132133 -4.22536e-06
0.000132133 0.000198502 -1.2253e-06
-4.22536e-06 -1.2253e-06 7.58399e-05
0.00171644 0.000135495 1.00371e-06
0.000135495 0.000194832 3.8719e-07
1.00371e-06 3.8719e-07 6.81915e-05
0.0017568 0.000147806 3.0437e-06
0.000147806 0.000155833 4.02663e-07
3.0437e-06 4.02663e-07 3.00083e-05
0.00102619 0.000116982 -9.7861e-06
0.000116982 -5.116e-06 -3.08422e-06
-9.7861e-06 -3.08422e-06 -0.000115003
0.0014331 0.000153079 2.81267e-06
0.000153079 0.000134805 4.55546e-07
2.81267e-06 4.55546e-07 5.24238e-06
0.00126628 0.000151045 3.0366e-06
0.000151045 -2.78118e-05 -7.27307e-07
3.0366e-06 -7.27307e-07 -0.000158359
0.000703544 0.000124407 -1.74029e-05
0.000124407 -1.89362e-05 -8.52565e-06
-1.74029e-05 -8.52565e-06 -8.63704e-05
0.00100731 0.000122621 -8.33697e-07
0.000122621 3.61912e-05 3.39549e-07
-8.33697e-07 3.39549e-07 -7.70814e-05
0.00132719 0.000164083 5.2607e-06
0.000164083 0.000138049 2.12475e-06
5.2607e-06 2.12475e-06 -2.87014e-06
0.000879595 0.000109007 5.45253e-06
0.000109007 2.74859e-05 3.35612e-06
5.45253e-06 3.35612e-06 -8.1026e-05
0.000653207 9.30888e-05 -3.92496e-08
9.30888e-05 -2.32539e-05 6.90932e-08
-3.92496e-08 6.90932e-08 -8.61687e-05
0.00432655 -8.15905e-05 -0.000110884
-8.15905e-05 0.0020803 -9.0077e-06
-0.000110884 -9.0077e-06 0.00206343
0.000545516 3.78651e-05 6.82194e-06
3.78651e-05 -6.83212e-05 7.25432e-06
6.82194e-06 7.25432e-06 -0.000121427
0.00362188 -0.000131067 -6.48955e-06
-0.000131067 0.00168065 4.53226e-07
-6.48955e-06 4.53226e-07 0.00166887
0.00315882 -0.000133405 5.81826e-05
-0.000133405 0.00141024 1.96597e-06
5.81826e-05 1.96597e-06 0.0014029
0.00178766 5.21611e-05 4.41531e-07
5.21611e-05 8.37261e-05 2.96132e-07
4.41531e-07 2.96132e-07 -1.71275e-05
0.00177875 7.24765e-05 7.55718e-08
7.24765e-05 5.60258e-05 3.72796e-07
7.55718e-08 3.72796e-07 -4.14756e-05
0.00175153 8.34391e-05 3.05128e-06
8.34391e-05 6.22659e-06 -7.73214e-07
3.05128e-06 -7.73214e-07 -7.87617e-05
0.00186551 0.000131084 6.24032e-07
0.000131084 0.000128482 -1.39187e-06
6.24032e-07 -1.39187e-06 1.71833e-05
0.00175476 -3.86352e-06 1.09616e-06
-3.86352e-06 9.00668e-05 5.56276e-08
1.09616e-06 5.56276e-08 -1.83505e-05
0.00187608 1.61452e-05 -8.22219e-08
1.61452e-05 0.000125909 -1.13394e-07
-8.22219e-08 -1.13394e-07 2.91748e-05
0.00188406 1.96751e-05 -9.89458e-07
1.96751e-05 0.000109271 -1.46368e-07
-9.89458e-07 -1.46368e-07 1.99839e-05
0.00186028 -1.72576e-05 -2.61722e-06
-1.72576e-05 0.000117017 -2.78027e-07
-2.61722e-06 -2.78027e-07 2.17617e-05
0.00172939 -9.81285e-06 -7.94893e-07
-9.81285e-06 7.94755e-05 -8.00501e-08
-7.94893e-07 -8.00501e-08 -2.73463e-05
0.00178273 -4.30461e-06 7.40743e-07
-4.30461e-06 0.000172288 -3.72515e-07
7.40743e-07 -3.72515e-07 5.49523e-05
0.00170449 -3.44643e-05 -1.1676e-06
-3.44643e-05 6.77415e-05 1.04626e-06
-1.1676e-06 1.04626e-06 -4.3408e-05
0.00166606 -2.21247e-05 5.72333e-07
-2.21247e-05 0.000117141 4.75944e-08
5.72333e-07 4.75944e-08 -4.35737e-06
0.00135814 -1.5478e-05 -4.43974e-06
-1.5478e-05 1.42258e-05 5.17597e-07
-4.43974e-06 5.17597e-07 -0.000110184
0.00155641 -4.42594e-05 5.9311e-07
-4.42594e-05 7.56693e-05 -1.04321e-07
5.9311e-07 -1.04321e-07 -4.84444e-05
0.0014278 -3.98496e-05 -4.70179e-07
-3.98496e-05 6.9144e-05 3.18772e-07
-4.70179e-07 3.18772e-07 -5.52994e-05
0.00116034 -3.80299e-05 -1.03299e-05
-3.80299e-05 1.02373e-05 2.51117e-06
-1.03299e-05 2.51117e-06 -9.61258e-05
0.00141221 -6.85769e-05 4.40632e-06
-6.85769e-05 7.73806e-05 -1.5704e-06
4.40632e-06 -1.5704e-06 -4.53357e-05
0.00114431 -6.02047e-05 -1.90492e-08
-6.02047e-05 1.66356e-05 2.36593e-08
-1.90492e-08 2.36593e-08 -8.76414e-05
0.000682006 -4.56386e-05 -1.53157e-05
-4.56386e-05 -8.44768e-05 3.84747e-06
-1.53157e-05 3.84747e-06 -0.000143831
0.00113802 -7.4918e-05 1.01453e-05
-7.4918e-05 2.39255e-05 -2.96113e-06
1.01453e-05 -2.96113e-06 -7.89359e-05
0.00151702 -6.04685e-05 3.00709e-05
-6.04685e-05 0.000384611 -1.57212e-06
3.00709e-05 -1.57212e-06 0.000332577
0.00487722 -7.50001e-05 -0.000144355
-7.50001e-05 0.00234149 7.13148e-06
-0.000144355 7.13148e-06 0.00233886
0.00244066 -8.46859e-05 7.40386e-05
-8.46859e-05 0.000901142 -7.95882e-06
7.40386e-05 -7.95882e-06 0.00085482
0.00146685 -1.04229e-05 -5.03322e-05
-1.04229e-05 0.00045558 3.73478e-06
-5.03322e-05 3.73478e-06 0.000431965
0.00133064 8.37588e-06 1.83407e-05
8.37588e-06 0.0003929 -3.43585e-06
1.83407e-05 -3.43585e-06 0.000364498
0.00188147 5.04818e-05 1.12166e-06
5.04818e-05 0.000171383 7.21581e-07
1.12166e-06 7.21581e-07 6.5029e-05
0.0016286 6.47513e-05 -6.4646e-07
6.47513e-05 0.0001069 8.34023e-07
-6.4646e-07 8.34023e-07 -1.35429e-05
0.00185437 6.90193e-05 1.25316e-07
6.90193e-05 0.000155148 -7.1277e-08
1.25316e-07 -7.1277e-08 4.54615e-05
0.00117679 9.24689e-05 -5.36043e-06
9.24689e-05 -6.48333e-05 -1.4213e-06
-5.36043e-06 -1.4213e-06 -0.00018914
0.0016665 0.00010361 -1.1552e-07
0.00010361 0.000145367 -2.75089e-08
-1.1552e-07 -2.75089e-08 2.02545e-05
0.00176295 0.000119843 -7.34442e-07
0.000119843 0.000131698 -9.47247e-07
-7.34442e-07 -9.47247e-07 1.16908e-05
0.000662723 8.59298e-05 -1.19624e-05
8.59298e-05 -0.000236148 -3.65777e-06
-1.19624e-05 -3.65777e-06 -0.000343446
0.00163858 0.000135178 1.32837e-06
0.000135178 0.000215019 2.75628e-07
1.32837e-06 2.75628e-07 9.18077e-05
0.00176249 0.000137415 3.56396e-06
0.000137415 0.000222873 1.01942e-06
3.56396e-06 1.01942e-06 9.63507e-05
0.000637386 0.000112448 -1.69687e-05
0.000112448 -7.84758e-05 -7.08539e-06
-1.69687e-05 -7.08539e-06 -0.000143227
0.000836464 0.000109282 2.46734e-07
0.000109282 -0.000111192 1.77909e-07
2.46734e-07 1.77909e-07 -0.000221881
0.00115292 0.000143265 7.78635e-06
0.000143265 -2.26464e-05 1.19519e-06
7.78635e-06 1.19519e-06 -0.000153214
0.00481266 -9.12399e-05 -0.000111164
-9.12399e-05 0.00235435 -1.11296e-05
-0.000111164 -1.11296e-05 0.00232944
0.000636843 0.000114004 1.12316e-06
0.000114004 -5.37453e-05 3.24551e-07
1.12316e-06 3.24551e-07 -0.000120375
0.00100757 0.000121998 7.85249e-06
0.000121998 3.64328e-05 4.29781e-06
7.85249e-06 4.29781e-06 -7.66905e-05
0.000518255 8.38343e-05 1.08821e-05
8.38343e-05 -9.30391e-05 8.24803e-06
1.08821e-05 8.24803e-06 -0.000155056
0.00407881 -0.000121484 -8.75808e-06
-0.000121484 0.001946 5.72798e-07
-8.75808e-06 5.72798e-07 0.00192838
0.0034738 -0.000151221 6.77293e-05
-0.000151221 0.0015994 2.23433e-06
6.77293e-05 2.23433e-06 0.00158524
0.00180877 2.97343e-05 -4.71716e-07
2.97343e-05 0.000118033 -4.00174e-08
-4.71716e-07 -4.00174e-08 1.0355e-05
0.00179616 5.14648e-05 -1.41568e-07
5.14648e-05 8.47703e-05 2.35376e-07
-1.41568e-07 2.35376e-07 -1.59039e-05
0.0017768 7.22455e-05 -1.14084e-07
7.22455e-05 5.59493e-05 -6.44019e-07
-1.14084e-07 -6.44019e-07 -4.11059e-05
0.00171769 7.18537e-06 8.4518e-07
7.18537e-06 0.000129259 -2.75869e-07
8.4518e-07 -2.75869e-07 1.15654e-05
0.00174641 -6.78817e-07 -9.3125e-08
-6.78817e-07 8.86064e-05 6.33556e-08
-9.3125e-08 6.33556e-08 -1.893e-05
0.00190931 1.04352e-05 -1.3828e-06
1.04352e-05 0.000141824 -8.38597e-08
-1.3828e-06 -8.38597e-08 4.52828e-05
0.00171688 -4.83427e-06 -1.83529e-06
-4.83427e-06 7.20922e-05 5.5186e-07
-1.83529e-06 5.5186e-07 -3.38846e-05
0.00177046 -1.73666e-06 1.06639e-06
-1.73666e-06 0.000165107 -1.88583e-07
1.06639e-06 -1.88583e-07 4.78055e-05
0.00174676 -1.34258e-06 -2.7854e-06
-1.34258e-06 0.000217685 2.78453e-08
-2.7854e-06 2.78453e-08 9.80378e-05
0.00167382 -2.15636e-05 1.37649e-06
-2.15636e-05 0.000121846 3.38796e-07
1.37649e-06 3.38796e-07 -8.85174e-07
0.00158842 -1.39023e-05 -3.63607e-08
-1.39023e-05 0.000141183 6.85422e-08
-3.63607e-08 6.85422e-08 1.82412e-05
0.000811321 -1.39378e-05 -1.23927e-05
-1.39378e-05 -0.000198322 1.95043e-06
-1.23927e-05 1.95043e-06 -0.000309532
0.00142866 -3.94996e-05 4.03854e-06
-3.94996e-05 6.90609e-05 -9.23395e-07
4.03854e-06 -9.23395e-07 -5.52549e-05
0.00115581 -3.52911e-05 5.017e-08
-3.52911e-05 7.22822e-06 1.42228e-07
5.017e-08 1.42228e-07 -9.89267e-05
0.000680613 -1.98235e-05 -1.51317e-05
-1.98235e-05 -9.50556e-05 2.91499e-06
-1.51317e-05 2.91499e-06 -0.000156436
0.00115935 -5.85572e-05 1.03431e-05
-5.85572e-05 2.37573e-05 -2.71529e-06
1.03431e-05 -2.71529e-06 -8.0262e-05
0.000685038 -3.19677e-05 -2.62931e-07
-3.19677e-05 -8.35205e-05 1.33462e-07
-2.62931e-07 1.33462e-07 -0.00014294
0.00491687 -3.25031e-05 -0.000138152
-3.25031e-05 0.00235959 4.93249e-06
-0.000138152 4.93249e-06 0.00235847
0.000721949 -5.151e-05 1.56126e-05
-5.151e-05 -5.88533e-05 -5.56245e-06
1.56126e-05 -5.56245e-06 -0.000117688
0.00314562 -4.67054e-05 6.03804e-05
-4.67054e-05 0.00138234 -2.4664e-07
6.03804e-05 -2.4664e-07 0.00136691
0.00126474 -2.31903e-05 2.45666e-05
-2.31903e-05 0.000350818 -3.26084e-06
2.45666e-05 -3.26084e-06 0.000323135
0.00181977 3.91095e-05 1.75627e-07
3.91095e-05 0.000155907 2.10739e-07
1.75627e-07 2.10739e-07 4.65922e-05
0.0015915 3.62524e-05 -2.74902e-07
3.62524e-05 8.52216e-05 9.692e-07
-2.74902e-07 9.692e-07 -3.28423e-05
0.00183951 4.808e-05 -3.41819e-07
4.808e-05 0.000148537 -2.00012e-07
-3.41819e-07 -2.00012e-07 4.23037e-05
0.00143143 6.5522e-05 -4.41681e-06
6.5522e-05 6.3183e-05 -4.04087e-07
-4.41681e-06 -4.04087e-07 -5.76426e-05
0.00159671 6.29878e-05 3.9497e-07
6.29878e-05 8.7652e-05 1.03455e-07
3.9497e-07 1.03455e-07 -3.35714e-05
0.00185221 6.57866e-05 -1.11834e-06
6.57866e-05 0.000156398 -1.26463e-06
-1.11834e-06 -1.26463e-06 4.6171e-05
0.000691473 6.93315e-05 -1.20878e-05
6.93315e-05 -0.000240413 -3.22618e-06
-1.20878e-05 -3.22618e-06 -0.000347344
0.00151297 0.00010312 -1.33688e-06
0.00010312 0.000120764 -2.97663e-07
-1.33688e-06 -2.97663e-07 -2.15118e-06
0.0017859 0.000106408 2.36267e-06
0.000106408 0.000212407 2.22767e-08
2.36267e-06 2.22767e-08 8.83021e-05
0.000626439 8.19592e-05 -1.57555e-05
8.19592e-05 -0.000101686 -5.69977e-06
-1.57555e-05 -5.69977e-06 -0.000163208
0.000658416 8.66384e-05 -2.58255e-06
8.66384e-05 -0.000238545 -6.68333e-07
-2.58255e-06 -6.68333e-07 -0.000346398
0.00166433 0.000138122 7.01512e-06
0.000138122 0.000229739 1.60976e-06
7.01512e-06 1.60976e-06 0.000105986
0.00500246 -1.01684e-05 -0.000128842
-1.01684e-05 0.00242619 -8.91925e-06
-0.000128842 -8.91925e-06 0.00241732
0.000608855 0.000102795 8.78284e-07
0.000102795 -9.25337e-05 3.75924e-07
8.78284e-07 3.75924e-07 -0.000158043
0.000641786 0.000101511 9.91624e-06
0.000101511 -0.000220038 3.34637e-06
9.91624e-06 3.34637e-06 -0.000331537
0.00457941 -5.94894e-05 3.51313e-06
-5.94894e-05 0.00221218 -3.1521e-07
3.51313e-06 -3.1521e-07 0.00219781
0.000524631 0.000103786 1.42754e-05
0.000103786 -0.000111992 8.53407e-06
1.42754e-05 8.53407e-06 -0.000178385
0.0038552 -0.000155115 7.91783e-05
-0.000155115 0.00182556 4.19216e-06
7.91783e-05 4.19216e-06 0.00180587
0.00177291 2.27134e-05 -3.00458e-07
2.27134e-05 0.000157216 -9.61943e-08
-3.00458e-07 -9.61943e-08 4.19722e-05
0.00176354 2.83304e-05 -1.48906e-07
2.83304e-05 9.69797e-05 6.20765e-08
-1.48906e-07 6.20765e-08 -1.13285e-05
0.00180526 5.06512e-05 -6.83221e-07
5.06512e-05 8.58818e-05 -1.91934e-07
-6.83221e-07 -1.91934e-07 -1.4611e-05
0.0017236 -1.70528e-06 -2.89694e-06
-1.70528e-06 0.000206454 -1.55342e-07
-2.89694e-06 -1.55342e-07 8.86654e-05
0.00174536 6.34344e-06 6.6373e-07
6.34344e-06 0.000144471 3.29757e-09
6.6373e-07 3.29757e-09 2.77818e-05
0.00175027 4.6069e-06 2.22466e-07
4.6069e-06 9.36596e-05 -8.78514e-09
2.22466e-07 -8.78514e-09 -1.3026e-05
0.001758 -1.68501e-07 9.67598e-07
-1.68501e-07 0.000157801 2.66243e-07
9.67598e-07 2.66243e-07 4.05314e-05
0.0017481 -1.11741e-06 1.64934e-06
-1.11741e-06 0.000218452 -2.06062e-07
1.64934e-06 -2.06062e-07 9.87421e-05
0.000823078 -4.17138e-06 -1.1714e-05
-4.17138e-06 -0.000198948 8.52483e-07
-1.1714e-05 8.52483e-07 -0.00031029
0.00181926 -1.25096e-05 5.47256e-06
-1.25096e-05 0.000268581 -6.25942e-07
5.47256e-06 -6.25942e-07 0.000147105
0.000996867 -1.24743e-05 -2.49996e-06
-1.24743e-05 -9.53274e-05 4.49787e-07
-2.49996e-06 4.49787e-07 -0.000204857
0.000701582 -7.17945e-06 -1.57011e-05
-7.17945e-06 -9.44851e-05 2.0244e-06
-1.57011e-05 2.0244e-06 -0.000158019
0.00115867 -3.39828e-05 1.03117e-05
-3.39828e-05 8.21093e-06 -2.25794e-06
1.03117e-05 -2.25794e-06 -9.78223e-05
0.000690847 -1.66751e-05 3.33103e-07
-1.66751e-05 -9.05065e-05 1.73672e-08
3.33103e-07 1.73672e-08 -0.000151643
0.00502026 -4.29146e-05 -0.000140054
-4.29146e-05 0.00241463 3.55342e-06
-0.000140054 3.55342e-06 0.00241297
0.000680127 -2.22886e-05 1.42695e-05
-2.22886e-05 -8.76995e-05 -3.33261e-06
1.42695e-05 -3.33261e-06 -0.000146523
0.0049399 -1.10595e-05 8.83723e-06
-1.10595e-05 0.00237356 4.19669e-08
8.83723e-06 4.19669e-08 0.00237123
0.00148403 -1.61697e-05 0.000122532
-1.61697e-05 0.000458678 -5.60166e-06
0.000122532 -5.60166e-06 0.000440479
0.00176111 2.70904e-05 -1.35353e-07
2.70904e-05 0.00017707 1.67537e-07
-1.35353e-07 1.67537e-07 6.1559e-05
0.00175785 4.2311e-05 -7.18357e-07
4.2311e-05 0.000119341 -8.85806e-08
-7.18357e-07 -8.85806e-08 1.05678e-05
0.00144957 3.362e-05 -4.01699e-06
3.362e-05 7.05356e-05 -1.01028e-07
-4.01699e-06 -1.01028e-07 -4.75361e-05
0.00157914 3.58071e-05 3.36146e-07
3.58071e-05 7.85637e-05 6.4724e-08
3.36146e-07 6.4724e-08 -3.95729e-05
0.00179565 4.57878e-05 -6.56808e-07
4.57878e-05 0.000124721 -1.19707e-06
-6.56808e-07 -1.19707e-06 1.86129e-05
0.0011586 5.69421e-05 -1.04053e-05
5.69421e-05 5.06871e-06 -1.86452e-06
-1.04053e-05 -1.86452e-06 -9.81433e-05
0.00142494 6.5664e-05 -2.50633e-08
6.5664e-05 5.92155e-05 2.1607e-07
-2.50633e-08 2.1607e-07 -6.1658e-05
0.00156096 6.12209e-05 6.34543e-07
6.12209e-05 6.64112e-05 -3.05767e-07
6.34543e-07 -3.05767e-07 -5.5611e-05
0.000648799 5.70766e-05 -1.5394e-05
5.70766e-05 -0.000104305 -4.33045e-06
-1.5394e-05 -4.33045e-06 -0.000164051
0.000909563 7.69975e-05 -3.10786e-06
7.69975e-05 -0.000119733 -5.50797e-07
-3.10786e-06 -5.50797e-07 -0.000225927
0.00185963 0.000114057 4.95087e-06
0.000114057 0.000312053 1.06685e-06
4.95087e-06 1.06685e-06 0.000190516
0.00503439 5.65267e-05 -0.000146624
5.65267e-05 0.00242761 -8.01327e-06
-0.000146624 -8.01327e-06 0.00242519
0.000619476 7.78999e-05 1.45795e-07
7.78999e-05 -0.000105207 9.31636e-08
1.45795e-07 9.31636e-08 -0.000166976
0.000655967 8.76433e-05 7.20789e-06
8.76433e-05 -0.000240011 2.2612e-06
7.20789e-06 2.2612e-06 -0.000348439
0.00486981 7.93714e-06 9.38477e-06
7.93714e-06 0.00235612 4.77469e-07
9.38477e-06 4.77469e-07 0.00234686
0.000579096 9.24729e-05 1.4968e-05
9.24729e-05 -0.000107786 7.2935e-06
1.4968e-05 7.2935e-06 -0.000173693
0.00435097 -9.10051e-05 0.000100617
-9.10051e-05 0.00208709 6.30514e-06
0.000100617 6.30514e-06 0.00207407
0.00172112 1.77647e-05 -2.72511e-06
1.77647e-05 0.000210268 -3.46117e-07
-2.72511e-06 -3.46117e-07 9.44953e-05
0.00175881 1.86728e-05 1.88972e-08
1.86728e-05 0.000151781 1.10278e-07
1.88972e-08 1.10278e-07 3.61585e-05
0.00171841 2.66773e-05 -2.84411e-07
2.66773e-05 7.65088e-05 1.19026e-07
-2.84411e-07 1.19026e-07 -3.2413e-05
0.000815364 -1.06235e-05 -1.22013e-05
-1.06235e-05 -0.000201062 -9.37815e-08
-1.22013e-05 -9.37815e-08 -0.000311045
0.00174627 4.82849e-06 1.72051e-06
4.82849e-06 0.000219099 -5.57668e-08
1.72051e-06 -5.57668e-08 0.000101255
0.00176742 5.56061e-06 1.29862e-06
5.56061e-06 0.000156833 1.34208e-07
1.29862e-06 1.34208e-07 4.11636e-05
0.00175062 -1.16102e-06 5.94334e-06
-1.16102e-06 0.000219904 -1.72548e-07
5.94334e-06 -1.72548e-07 0.000100126
0.000817201 -4.33923e-06 -1.87297e-06
-4.33923e-06 -0.000202414 1.9648e-07
-1.87297e-06 1.9648e-07 -0.000313818
0.000727793 -9.0654e-06 -1.60044e-05
-9.0654e-06 -8.672e-05 8.1862e-07
-1.60044e-05 8.1862e-07 -0.000150987
0.00117115 -1.01959e-05 8.27839e-06
-1.01959e-05 1.49268e-06 -1.3118e-06
8.27839e-06 -1.3118e-06 -0.000106344
0.000699166 2.18402e-06 1.79126e-07
2.18402e-06 -9.6596e-05 1.28523e-07
1.79126e-07 1.28523e-07 -0.000159952
0.0051873 -5.50042e-05 -0.000145127
-5.50042e-05 0.00250482 2.12337e-06
-0.000145127 2.12337e-06 0.00250169
0.000705337 -5.88577e-06 1.49718e-05
-5.88577e-06 -8.33847e-05 -2.39488e-06
1.49718e-05 -2.39488e-06 -0.000144518
0.00507685 1.68402e-05 5.03924e-06
1.68402e-05 0.00244444 4.06216e-07
5.03924e-06 4.06216e-07 0.00244284
0.00496387 -5.70808e-05 0.000151188
-5.70808e-05 0.00238557 -4.26798e-06
0.000151188 -4.26798e-06 0.00238377
0.00147406 2.10504e-05 -4.02493e-06
2.10504e-05 8.40438e-05 -6.41252e-07
-4.02493e-06 -6.41252e-07 -3.30413e-05
0.00167633 2.89284e-05 4.17679e-07
2.89284e-05 0.000129698 -1.51869e-07
4.17679e-07 -1.51869e-07 1.48364e-05
0.00169637 4.56398e-05 -1.26823e-06
4.56398e-05 8.29789e-05 -2.01554e-07
-1.26823e-06 -2.01554e-07 -2.52559e-05
0.00116022 2.78579e-05 -1.01232e-05
2.78579e-05 1.32361e-06 -1.4651e-06
-1.01232e-05 -1.4651e-06 -0.000100868
0.00143542 3.35578e-05 2.26957e-07
3.35578e-05 6.25094e-05 7.78246e-08
2.26957e-07 7.78246e-08 -5.57147e-05
0.00156378 3.53391e-05 3.41217e-07
3.53391e-05 7.0408e-05 -8.96782e-07
3.41217e-07 -8.96782e-07 -4.78087e-05
0.00067229 3.44509e-05 -1.49314e-05
3.44509e-05 -0.000101801 -3.21477e-06
-1.49314e-05 -3.21477e-06 -0.000161672
0.00115761 5.85131e-05 3.92674e-08
5.85131e-05 4.84468e-06 2.56617e-07
3.92674e-08 2.56617e-07 -9.8687e-05
0.00141757 6.57275e-05 4.59798e-06
6.57275e-05 5.47246e-05 8.76189e-07
4.59798e-06 8.76189e-07 -6.61957e-05
0.00505367 7.85287e-05 -0.000158519
7.85287e-05 0.00243307 -7.00015e-06
-0.000158519 -7.00015e-06 0.00243126
0.000655602 5.73814e-05 1.13702e-07
5.73814e-05 -0.000100131 1.14633e-07
1.13702e-07 1.14633e-07 -0.000160013
0.00111689 8.44891e-05 7.51041e-06
8.44891e-05 -4.94435e-06 2.22987e-06
7.51041e-06 2.22987e-06 -0.000110373
0.00496823 6.72118e-05 5.12199e-06
6.72118e-05 0.00239627 1.09564e-06
5.12199e-06 1.09564e-06 0.00239203
0.000616439 7.43141e-05 1.47726e-05
7.43141e-05 -0.000106606 5.63e-06
1.47726e-05 5.63e-06 -0.000168391
0.00476547 2.22304e-05 0.000130171
2.22304e-05 0.00229353 8.07641e-06
0.000130171 8.07641e-06 0.00228871
0.00120918 8.40056e-06 -1.09002e-05
8.40056e-06 1.94748e-05 -6.49237e-07
-1.09002e-05 -6.49237e-07 -8.61606e-05
0.00154513 1.27855e-05 1.89629e-06
1.27855e-05 0.000112461 4.30598e-08
1.89629e-06 4.30598e-08 -4.89366e-06
0.00174252 1.35508e-05 8.31796e-07
1.35508e-05 0.000144843 4.33769e-07
8.31796e-07 4.33769e-07 2.88365e-05
0.000716688 2.03888e-05 -1.6355e-05
2.03888e-05 -9.76677e-05 -2.6478e-07
-1.6355e-05 -2.6478e-07 -0.000158047
0.000811309 -4.49838e-06 -2.03269e-06
-4.49838e-06 -0.000204083 3.9075e-08
-2.03269e-06 3.9075e-08 -0.000314204
0.00176926 1.12551e-05 6.35274e-06
1.12551e-05 0.000231871 3.11903e-08
6.35274e-06 3.11903e-08 0.00011397
0.000810074 -4.05827e-06 7.87723e-06
-4.05827e-06 -0.000206595 -3.94434e-07
7.87723e-06 -3.94434e-07 -0.000318052
0.000699575 1.79738e-06 8.36128e-08
1.79738e-06 -0.000102319 2.97376e-07
8.36128e-08 2.97376e-07 -0.000166404
0.00528391 5.69966e-05 -0.000154836
5.69966e-05 0.00255413 -6.85156e-07
-0.000154836 -6.85156e-07 0.00255189
0.000681848 1.12244e-05 1.51202e-05
1.12244e-05 -0.000106567 -1.32171e-06
1.51202e-05 -1.32171e-06 -0.000169787
0.00521519 -4.10703e-05 -3.98697e-06
-4.10703e-05 0.00251769 1.0045e-06
-3.98697e-06 1.0045e-06 0.00251544
0.00511529 5.17679e-05 0.000143495
5.17679e-05 0.00246518 -1.60116e-06
0.000143495 -1.60116e-06 0.0024628
0.00118811 1.38828e-05 -1.06592e-05
1.38828e-05 1.30317e-05 -1.51728e-06
-1.06592e-05 -1.51728e-06 -9.0342e-05
0.00139413 1.96566e-05 8.75152e-08
1.96566e-05 3.8529e-05 -1.31516e-07
8.75152e-08 -1.31516e-07 -7.87307e-05
0.00159691 3.07119e-05 4.9083e-07
3.07119e-05 8.51625e-05 -6.90261e-07
4.9083e-07 -6.90261e-07 -2.90492e-05
0.00252453 1.99273e-05 -8.09568e-05
1.99273e-05 0.000918545 -2.26271e-06
-8.09568e-05 -2.26271e-06 0.000873447
0.00117046 2.99245e-05 1.60252e-07
2.99245e-05 6.46329e-06 1.023e-07
1.60252e-07 1.023e-07 -9.59189e-05
0.00142155 3.33437e-05 4.40095e-06
3.33437e-05 5.46309e-05 2.75293e-07
4.40095e-06 2.75293e-07 -6.37464e-05
0.00506401 7.96175e-05 -0.000162571
7.96175e-05 0.0024384 -5.38939e-06
-0.000162571 -5.38939e-06 0.00243561
0.000698926 3.84769e-05 2.42599e-07
3.84769e-05 -8.63042e-05 1.86237e-07
2.42599e-07 1.86237e-07 -0.000146546
0.00116584 6.02809e-05 1.04122e-05
6.02809e-05 9.41662e-06 2.34414e-06
1.04122e-05 2.34414e-06 -9.44102e-05
0.00502301 9.13563e-05 5.12506e-07
9.13563e-05 0.00242063 1.06161e-06
5.12506e-07 1.06161e-06 0.0024173
0.000665431 5.72498e-05 1.49466e-05
5.72498e-05 -9.39843e-05 4.64609e-06
1.49466e-05 4.64609e-06 -0.000154001
0.00490762 8.32267e-05 0.000145046
8.32267e-05 0.00236468 8.98114e-06
0.000145046 8.98114e-06 0.00236035
0.000752226 7.92576e-06 -1.59029e-05
7.92576e-06 -7.21135e-05 -1.6202e-06
-1.59029e-05 -1.6202e-06 -0.000135314
0.00101365 5.81693e-06 5.14633e-07
5.81693e-06 -8.82361e-05 3.67379e-07
5.14633e-07 3.67379e-07 -0.000195233
0.00136258 7.66805e-06 5.74614e-06
7.66805e-06 1.10231e-05 4.88677e-07
5.74614e-06 4.88677e-07 -0.000107881
0.00527466 -8.0209e-05 -0.000141188
-8.0209e-05 0.00255983 -1.94524e-06
-0.000141188 -1.94524e-06 0.00255065
0.000708632 9.12365e-06 -2.10746e-07
9.12365e-06 -9.88498e-05 2.3755e-07
-2.10746e-07 2.3755e-07 -0.000161082
0.000816047 1.27871e-06 8.06175e-06
1.27871e-06 -0.000202394 9.32589e-08
8.06175e-06 9.32589e-08 -0.000312642
0.000685503 1.59882e-05 1.54835e-05
1.59882e-05 -0.000110118 -1.84495e-08
1.54835e-05 -1.84495e-08 -0.000174187
0.00529863 3.17075e-05 3.92404e-06
3.17075e-05 0.00256506 4.53635e-07
3.92404e-06 4.53635e-07 0.00256033
0.00527488 6.14511e-05 0.000146869
6.14511e-05 0.00254854 -1.55517e-07
0.000146869 -1.55517e-07 0.00254599
0.00258756 -3.6022e-06 -8.20562e-05
-3.6022e-06 0.000946861 -1.85631e-06
-8.20562e-05 -1.85631e-06 0.000900794
0.00119822 1.62324e-05 -4.69928e-08
1.62324e-05 1.81929e-05 -1.95165e-08
-4.69928e-08 -1.95165e-08 -8.52097e-05
0.00131163 1.84119e-05 4.22582e-06
1.84119e-05 -8.36913e-06 2.12371e-07
4.22582e-06 2.12371e-07 -0.000125805
0.00482542 -2.83619e-05 -2.96652e-05
-2.83619e-05 0.00231542 -7.95194e-07
-2.96652e-05 -7.95194e-07 0.00230343
0.000724387 2.45895e-05 -5.50093e-08
2.45895e-05 -7.64194e-05 2.1243e-07
-5.50093e-08 2.1243e-07 -0.000137682
0.00119686 3.26428e-05 1.03478e-05
3.26428e-05 2.00977e-05 1.72111e-06
1.03478e-05 1.72111e-06 -8.24334e-05
0.00508025 5.74961e-05 -8.02993e-06
5.74961e-05 0.00244597 1.36843e-07
-8.02993e-06 1.36843e-07 0.00244454
0.000729385 4.91433e-05 1.59302e-05
4.91433e-05 -6.80691e-05 3.89126e-06
1.59302e-05 3.89126e-06 -0.00012902
0.00499375 0.000106407 0.000152982
0.000106407 0.00240829 8.81885e-06
0.000152982 8.81885e-06 0.00240354
0.00170018 -2.7104e-05 -0.000140098
-2.7104e-05 0.000562344 3.24832e-07
-0.000140098 3.24832e-07 0.000541909
0.00165638 1.51547e-05 -3.35074e-05
1.51547e-05 0.000427186 3.44713e-07
-3.35074e-05 3.44713e-07 0.00037426
0.000820481 6.04378e-06 1.06143e-05
6.04378e-06 -0.000194596 1.20819e-06
1.06143e-05 1.20819e-06 -0.000302981
0.00526592 -3.25588e-05 8.3415e-06
-3.25588e-05 0.00255175 -8.27583e-07
8.3415e-06 -8.27583e-07 0.00254526
0.000695728 -8.38748e-07 1.61358e-05
-8.38748e-07 -0.000103462 8.01073e-07
1.61358e-05 8.01073e-07 -0.000166883
0.00530164 -4.22115e-05 0.000161623
-4.22115e-05 0.00256492 2.27895e-07
0.000161623 2.27895e-07 0.0025617
0.00138765 -4.91046e-05 -1.00196e-05
-4.91046e-05 0.000410109 -8.30138e-07
-1.00196e-05 -8.30138e-07 0.000375861
0.0016495 9.60974e-06 -3.31473e-05
9.60974e-06 0.000429889 -9.51993e-08
-3.31473e-05 -9.51993e-08 0.000376179
0.00119758 1.6835e-05 1.04164e-05
1.6835e-05 1.77738e-05 1.52458e-06
1.04164e-05 1.52458e-06 -8.56868e-05
0.0032324 3.64096e-05 5.80046e-05
3.64096e-05 0.00142648 5.45535e-07
5.80046e-05 5.45535e-07 0.00140904
0.000739696 3.31641e-05 1.61672e-05
3.31641e-05 -6.79256e-05 3.1845e-06
1.61672e-05 3.1845e-06 -0.000129476
0.00507019 0.000100782 0.000153008
0.000100782 0.0024461 7.16631e-06
0.000153008 7.16631e-06 0.00244184
0.00521047 -2.9981e-05 -9.57658e-06
-2.9981e-05 0.00252267 2.16274e-07
-9.57658e-06 2.16274e-07 0.00251615
0.000711054 2.54216e-05 1.66062e-05
2.54216e-05 -9.54418e-05 1.67461e-06
1.66062e-05 1.67461e-06 -0.000155465
0.00523582 6.40801e-05 0.000145174
6.40801e-05 0.00253541 -1.38647e-06
0.000145174 -1.38647e-06 0.00252918
0.00326371 2.18142e-05 7.14956e-05
2.18142e-05 0.00144293 1.03417e-06
7.14956e-05 1.03417e-06 0.00142524
0.000723181 9.01796e-06 1.58143e-05
9.01796e-06 -8.10301e-05 2.39003e-06
1.58143e-05 2.39003e-06 -0.000142804
0.00510748 -1.86716e-05 0.000144272
-1.86716e-05 0.00245966 3.62237e-06
0.000144272 3.62237e-06 0.00245839
0.00517783 -0.000129114 0.000139195
-0.000129114 0.00251191 -1.90152e-07
0.000139195 -1.90152e-07 0.00250086
0.00512802 -5.4349e-05 0.000140991
-5.4349e-05 0.00247223 1.5504e-06
0.000140991 1.5504e-06 0.00246967
