# vtk DataFile Version 2.0
Wound Healing Simulation
ASCII
DATASET UNSTRUCTURED_GRID
POINTS 3012 float
69.9759 18.75 4
67.2507 60.3285 4
69.976 18.75 2
73.0099 25.446 4
71.1327 20.9142 4
68.6801 16.6661 4
67.8277 19.9246 3.9877
67.2507 60.3286 2
71.1327 54.0858 4
68.6801 58.3339 4
65.6939 62.2254 4
65.3141 59.0041 3.98887
74.6784 42.3946 4
73.7221 47.2057 4
69.9759 18.75 0
73.0099 25.446 2
68.6801 16.6661 2
71.1327 20.9142 2
67.8282 19.9258 2
74.6792 32.6053 4
73.7222 27.7943 4
72.1454 23.1494 4
70.6158 26.2226 3.98626
68.8879 21.9581 3.98736
67.2507 14.6715 4
66.6391 17.9692 3.98829
65.8034 21.0213 3.98265
67.2507 60.3285 0
71.1327 54.0858 2
68.6801 58.3339 2
65.694 62.2255 2
65.3145 59.0038 2
72.1454 51.8506 4
69.9759 56.25 4
68.8388 53.1129 3.98713
64.0165 64.0165 4
66.6128 57.136 3.98853
63.8874 60.769 3.99017
63.5056 57.779 3.98429
60.3285 67.2507 4
74.6792 42.3947 2
73.7222 47.2057 2
74.9194 39.9526 4
74.2788 44.8158 4
72.1692 42.0853 3.98479
73.0099 49.554 4
71.2509 46.597 3.98621
73.0099 25.446 0
71.1327 20.9142 0
68.6801 16.6661 0
67.8277 19.9246 0.0123028
74.6792 32.6053 2
73.7222 27.7943 2
67.2508 14.6715 2
72.1455 23.1494 2
70.6159 26.2233 2
66.6397 17.9697 2
68.8883 21.9595 2
65.8035 21.0206 2
74.9197 35.0474 4
74.2794 30.1841 4
72.1858 32.9434 3.98522
71.2796 28.4325 3.98605
69.8176 24.0608 3.98688
68.351 26.9519 3.9785
66.7684 22.9313 3.98141
65.694 12.7746 4
65.3255 16.1 3.98932
64.7198 19.1884 3.98383
63.8967 22.0282 3.97971
71.1327 54.0858 0
65.6939 62.2254 0
68.6801 58.3339 0
65.3141 59.0041 0.0111327
72.1455 51.8506 2
69.9759 56.25 2
68.839 53.1116 2
64.0165 64.0165 2
66.6133 57.1353 2
63.8877 60.7688 2
63.5056 57.7797 2
62.2254 65.694 4
58.8947 65.4161 3.99265
69.7711 50.9877 3.98668
67.7861 55.1685 3.98797
66.6558 52.2112 3.98114
62.3374 62.43 3.99144
64.6671 56.0375 3.98432
62.2066 59.4125 3.98469
61.8313 56.6923 3.98189
58.3339 68.6801 4
60.3285 67.2508 2
73.7221 47.2057 0
74.6784 42.3946 0
74.9197 39.9526 2
74.2794 44.8159 2
72.1691 42.0857 2
73.0099 49.554 2
71.2509 46.597 2
75 37.5 4
72.406 39.8021 3.98379
71.7838 44.3523 3.9857
69.8071 41.7893 3.97734
70.577 48.8121 3.98649
68.9167 46.0145 3.97829
74.6792 32.6053 0
73.7222 27.7943 0
67.2507 14.6715 0
72.1454 23.1494 0
70.6158 26.2226 0.0137386
68.8879 21.9581 0.0126448
66.6391 17.9692 0.0117057
65.8034 21.0213 0.017345
74.9197 35.0474 2
74.2794 30.1841 2
72.1858 32.9434 2
71.2796 28.4328 2
65.694 12.7745 2
65.3259 16.1 2
69.8178 24.0621 2
68.351 26.9519 2
64.7201 19.1875 2
66.7684 22.931 2
63.8969 22.0274 2
72.4139 35.2241 3.9841
71.8052 30.6768 3.98593
69.8432 33.2687 3.97775
68.9701 29.0387 3.97822
67.6164 24.9116 3.97985
66.2005 27.6335 3.97549
64.0165 10.9835 4
64.7655 23.8254 3.9784
63.8915 14.3238 3.99042
63.5183 17.4385 3.98505
62.9164 20.3105 3.98076
62.105 22.9333 3.97814
60.6847 11.0952 3.9919
57.6132 11.4398 3.987
72.1454 51.8506 0
69.9759 56.25 0
68.8388 53.1129 0.0128731
64.0165 64.0165 0
63.8874 60.769 0.00983494
66.6128 57.136 0.0114656
63.5056 57.779 0.0157067
62.2255 65.694 2
58.8949 65.4162 2
69.7712 50.9866 2
67.7866 55.1674 2
66.6556 52.2116 2
62.3376 62.4299 2
64.6672 56.0383 2
62.2066 59.413 2
61.8313 56.693 2
60.6695 63.9792 3.99211
57.0252 66.7368 3.99317
57.5587 63.6973 3.98746
67.513 50.1774 3.97967
65.7087 54.1773 3.98306
64.5471 51.3901 3.9777
60.7755 60.9455 3.98556
62.8302 55.0776 3.98209
60.6645 58.1711 3.98193
60.3385 55.7996 3.98089
56.25 69.9759 4
58.3339 68.6801 2
60.3285 67.2507 0
58.9217 9.65349 3.99244
62.2254 9.30607 4
73.0099 49.554 0
74.2788 44.8158 0
71.2509 46.597 0.013788
72.1692 42.0853 0.0152131
74.9194 39.9526 0
75 37.5 2
72.406 39.8024 2
71.7838 44.3526 2
69.8072 41.7894 2
70.5771 48.8116 2
68.9166 46.0145 2
72.4892 37.512 3.98341
70.043 39.6571 3.97584
69.4343 43.9071 3.97811
67.6021 41.4981 3.9742
68.2709 48.1071 3.97881
66.7164 45.4412 3.97546
74.9197 35.0474 0
74.2794 30.1841 0
72.1858 32.9434 0.0147776
71.2796 28.4325 0.0139467
65.694 12.7746 0
65.3255 16.1 0.0106779
69.8176 24.0608 0.0131178
68.351 26.9519 0.0215
66.7684 22.9313 0.0185945
64.7198 19.1884 0.0161657
63.8967 22.0282 0.02029
72.414 35.2241 2
71.8052 30.6768 2
69.8433 33.2688 2
68.9701 29.0388 2
64.0165 10.9835 2
63.8917 14.3238 2
63.5185 17.4377 2
67.6163 24.9114 2
66.2005 27.6332 2
62.9168 20.3096 2
64.7655 23.8248 2
62.1053 22.9327 2
60.685 11.0952 2
57.6132 11.4392 2
70.06 35.3922 3.97654
69.4709 31.1499 3.97831
67.6604 33.5904 3.97462
66.778 29.6219 3.97514
65.5314 25.6968 3.97672
64.1536 28.2524 3.97455
62.3426 12.6521 3.99126
62.8679 24.6301 3.97699
62.2024 15.7761 3.98543
61.8217 18.6728 3.98217
61.2295 21.3291 3.97877
60.4396 23.7152 3.97765
59.2475 12.7711 3.98574
55.875 10.2265 3.98843
56.4066 13.1023 3.98387
69.7711 50.9877 0.0133174
62.2254 65.694 0
58.8947 65.4161 0.00734778
67.7861 55.1685 0.0120265
66.6558 52.2112 0.0188551
62.3374 62.43 0.00856342
62.2066 59.4125 0.0153129
64.6671 56.0375 0.0156846
61.8313 56.6923 0.0181081
60.6698 63.9792 2
57.0254 66.7369 2
57.5586 63.6979 2
67.5129 50.1776 2
65.7088 54.178 2
64.547 51.3909 2
60.7755 60.9462 2
62.8303 55.0785 2
60.6644 58.1718 2
60.3385 55.8002 2
55.0706 67.9337 3.99345
59.2208 62.3728 3.98618
55.8049 64.9146 3.98883
56.3285 62.0984 3.98439
65.34 49.4113 3.97635
63.7165 53.2998 3.9801
62.4536 50.6595 3.97598
59.3373 59.5679 3.98341
61.0896 54.3216 3.98115
59.297 57.0267 3.98
59.254 55.1982 3.98141
48.103 68.5817 3.99024
50.9483 69.9331 3.99386
54.0858 71.1327 4
56.25 69.976 2
58.3339 68.6801 0
57.0588 8.33336 3.99295
60.3285 7.74928 4
58.922 9.65342 2
62.2255 9.30602 2
70.577 48.8121 0.0135097
71.7838 44.3523 0.0142957
68.9167 46.0145 0.0217085
69.8071 41.7893 0.022664
72.406 39.8021 0.0162111
75 37.5 0
72.4892 37.5122 2
70.0432 39.6572 2
69.4343 43.9072 2
67.6023 41.4983 2
68.2708 48.1072 2
66.7164 45.4415 2
70.1308 37.5215 3.97547
67.8373 39.5125 3.9727
67.2297 43.4709 3.97513
65.5621 41.2117 3.97327
66.0761 47.4199 3.97592
64.6606 44.8516 3.97456
72.4139 35.2241 0.015902
71.8052 30.6768 0.0140706
69.8432 33.2687 0.0222481
68.9701 29.0387 0.021779
64.0165 10.9835 0
63.8915 14.3238 0.00957852
63.5183 17.4385 0.0149467
67.6164 24.9116 0.0201538
66.2005 27.6335 0.0245077
64.7655 23.8254 0.0216034
62.9164 20.3105 0.0192431
62.105 22.9333 0.021855
60.6847 11.0952 0.00809585
57.6132 11.4398 0.012996
70.0603 35.3923 2
69.471 31.15 2
67.6606 33.5902 2
66.7781 29.6216 2
62.3429 12.6523 2
62.2024 15.7755 2
61.822 18.672 2
65.5314 25.6964 2
64.1536 28.2521 2
61.23 21.3284 2
62.868 24.6296 2
60.4399 23.7147 2
59.2475 12.7705 2
56.4065 13.1015 2
55.875 10.2258 2
67.874 35.5474 3.97359
67.2712 31.6215 3.97536
65.7042 33.9258 3.9734
64.6701 30.1894 3.974
63.547 26.4095 3.9753
62.2657 28.7728 3.97513
60.7772 14.2155 3.98532
61.0575 25.3284 3.9764
60.6181 17.1158 3.98336
60.2325 19.8021 3.98033
59.6746 22.2438 3.9774
58.9933 24.3062 3.97797
54.0379 9.1301 3.98906
57.9122 14.3209 3.98363
54.7876 12.0014 3.98505
55.3142 14.6327 3.98257
67.513 50.1774 0.0203319
57.0252 66.7368 0.00682625
60.6695 63.9792 0.00789483
57.5587 63.6973 0.0125418
65.7087 54.1773 0.0169435
64.5471 51.3901 0.0222964
60.7755 60.9455 0.014444
60.6645 58.1711 0.0180698
62.8302 55.0776 0.0179136
60.3385 55.7996 0.0191083
55.0708 67.9337 2
59.2207 62.3736 2
55.8049 64.9151 2
56.3284 62.0989 2
65.3399 49.4119 2
63.7166 53.3007 2
62.4535 50.6602 2
59.3373 59.5687 2
61.0897 54.3224 2
59.297 57.0273 2
59.254 55.1988 2
53.0425 69.0014 3.99368
53.9671 66.0166 3.98944
57.8832 60.8796 3.98386
54.6846 63.2144 3.98553
55.2136 60.6265 3.98282
63.2044 48.6665 3.97487
61.7548 52.5854 3.97863
60.2871 50.0294 3.97501
58.0235 58.2741 3.98139
59.341 53.9618 3.98031
58.1362 55.8283 3.97814
50.1096 67.8598 3.99003
47.4636 66.5861 3.98796
46.0568 69.1613 3.99046
48.1031 68.5821 2
48.8025 70.7243 3.99403
50.9486 69.9332 2
51.8506 72.1454 4
54.0858 71.1327 2
56.25 69.9759 0
55.103 7.13796 3.99318
58.3339 6.31992 4
57.0591 8.33323 2
60.3286 7.74926 2
58.9217 9.65349 0.00755791
62.2254 9.30607 0
68.2709 48.1071 0.0211856
69.4343 43.9071 0.0218867
66.7164 45.4412 0.0245449
67.6021 41.4981 0.0257986
70.043 39.6571 0.0241553
72.4892 37.512 0.0165937
70.1308 37.5216 2
67.8375 39.5126 2
67.2297 43.4712 2
65.5623 41.212 2
66.076 47.4203 2
64.6607 44.852 2
67.9331 37.522 3.9721
65.7913 39.3712 3.97176
65.1837 43.028 3.9742
63.7631 40.9326 3.97286
63.9748 46.7208 3.97485
62.8171 44.2216 3.9752
70.06 35.3922 0.0234594
69.4709 31.1499 0.0216945
67.6604 33.5904 0.0253801
66.778 29.6219 0.0248585
62.3426 12.6521 0.00874066
62.2024 15.7761 0.0145706
61.8217 18.6728 0.017828
65.5314 25.6968 0.0232832
64.1536 28.2524 0.0254548
62.8679 24.6301 0.0230056
61.2295 21.3291 0.0212312
60.4396 23.7152 0.0223499
59.2475 12.7711 0.0142612
56.4066 13.1023 0.016125
55.875 10.2265 0.01157
67.8744 35.5473 2
67.2713 31.6213 2
65.7044 33.9255 2
64.6702 30.1891 2
60.7772 14.2149 2
60.6182 17.115 2
60.233 19.8012 2
63.5471 26.4091 2
62.2658 28.7725 2
59.6751 22.2432 2
61.0577 25.328 2
58.9936 24.3057 2
57.9122 14.3203 2
55.3141 14.6319 2
54.0379 9.1295 2
54.7876 12.0006 2
65.881 35.6663 3.97255
65.1938 32.1516 3.97416
64.2916 34.2483 3.9734
62.6034 30.6314 3.97373
61.6612 27.0658 3.97453
60.8598 29.1334 3.97641
59.3137 15.6577 3.98371
59.3447 25.7848 3.97826
59.1303 18.3413 3.98227
58.7513 20.8379 3.97839
58.2991 23.0762 3.97613
57.9835 24.6499 3.97847
52.1125 8.14883 3.98942
53.0584 11.008 3.98608
56.679 15.7291 3.98283
53.8106 13.6675 3.98336
54.3784 15.9835 3.98233
55.0706 67.9337 0.00654841
65.34 49.4113 0.0236515
55.8049 64.9146 0.0111742
59.2208 62.3728 0.0138204
56.3285 62.0984 0.015613
63.7165 53.2998 0.0199004
62.4536 50.6595 0.0240233
59.3373 59.5679 0.0165875
59.297 57.0267 0.0200004
61.0896 54.3216 0.0188498
59.254 55.1982 0.01859
53.0427 69.0015 2
53.967 66.017 2
57.8831 60.8803 2
54.6844 63.215 2
55.2134 60.6272 2
63.2044 48.6671 2
61.7549 52.5862 2
60.2871 50.0301 2
58.0235 58.2749 2
59.3411 53.9625 2
58.1362 55.8288 2
52.0706 67.0029 3.98981
52.9536 64.2244 3.98657
56.6518 59.5004 3.98265
53.6823 61.6314 3.98379
54.263 59.333 3.98158
61.0055 47.8884 3.974
59.725 52.118 3.97833
58.0404 49.6307 3.97679
56.7834 57.0027 3.97852
57.1337 54.1384 3.97801
50.1096 67.8601 2
49.3372 65.9263 3.98773
47.4634 66.5866 2
46.8924 64.7435 3.98637
45.5587 67.1038 3.98787
43.9738 69.5937 3.99052
46.0568 69.1617 2
46.6092 71.3688 3.99422
48.103 68.5817 0.00976451
48.8028 70.7245 2
49.554 73.0099 4
50.9483 69.9331 0.00614031
51.8506 72.1455 2
54.0858 71.1327 0
53.064 6.06956 3.99339
55.1033 7.13784 2
56.25 5.02411 4
58.3339 6.3199 2
57.0588 8.33336 0.00705266
60.3285 7.74928 0
66.0761 47.4199 0.0240801
67.2297 43.4709 0.02487
64.6606 44.8516 0.0254416
65.5621 41.2117 0.0267289
67.8373 39.5125 0.0272984
70.1308 37.5215 0.0245328
67.9331 37.5221 2
65.7916 39.3713 2
65.1839 43.0284 2
63.7634 40.9328 2
63.9748 46.7213 2
62.8172 44.222 2
65.8935 37.502 3.97064
63.9047 39.2682 3.97162
63.3382 42.5545 3.97395
62.4403 40.7007 3.97319
61.9786 45.9256 3.97514
61.4633 43.6899 3.97511
67.874 35.5474 0.0264057
67.2712 31.6215 0.0246445
65.7042 33.9258 0.0265984
64.6701 30.1894 0.026
60.7772 14.2155 0.014676
60.6181 17.1158 0.0166359
60.2325 19.8021 0.0196713
63.547 26.4095 0.0247034
62.2657 28.7728 0.0248727
61.0575 25.3284 0.0236017
59.6746 22.2438 0.022598
58.9933 24.3062 0.0220331
57.9122 14.3209 0.0163652
55.3142 14.6327 0.0174301
54.0379 9.1301 0.0109441
54.7876 12.0014 0.014947
65.8816 35.6661 2
65.1939 32.1514 2
64.292 34.2479 2
62.6036 30.6311 2
59.3136 15.6569 2
59.1306 18.3403 2
58.7519 20.8372 2
61.6613 27.0654 2
60.8599 29.133 2
58.2996 23.0757 2
59.345 25.7844 2
57.9839 24.6495 2
56.6789 15.7284 2
54.3783 15.9827 2
53.8106 13.6666 2
52.1125 8.14827 2
53.0583 11.0073 2
64.0967 35.6316 3.97241
62.9404 33.0432 3.97327
60.625 30.6056 3.97331
59.583 27.9011 3.97524
57.9432 16.9699 3.98292
57.7551 25.7122 3.9797
57.7226 19.46 3.98085
57.3827 21.8232 3.97604
57.2008 23.931 3.97567
50.1125 7.281 3.98964
51.2326 10.1167 3.98678
52.1726 12.785 3.98463
55.5403 16.9573 3.98282
52.9791 15.2485 3.9817
53.7607 16.9648 3.98254
53.0425 69.0014 0.0063191
53.9671 66.0166 0.0105567
63.2044 48.6665 0.0251296
54.6846 63.2144 0.0144683
57.8832 60.8796 0.0161354
55.2136 60.6265 0.0171768
61.7548 52.5854 0.0213717
60.2871 50.0294 0.0249858
58.0235 58.2741 0.0186082
58.1362 55.8283 0.0218643
59.341 53.9618 0.0196926
52.0705 67.0032 2
52.9534 64.2249 2
56.6516 59.5011 2
53.6821 61.632 2
54.2628 59.3338 2
61.0055 47.889 2
59.725 52.1188 2
58.0404 49.6314 2
56.7835 57.0036 2
57.1338 54.1389 2
51.1681 65.1333 3.98727
52.0466 62.5464 3.98475
55.4849 58.263 3.98211
52.8363 60.1458 3.98237
53.6436 58.4834 3.98078
58.3204 46.8606 3.97669
57.5762 51.8019 3.97759
56.2635 49.5676 3.98092
55.4798 55.8093 3.97703
55.3702 53.3982 3.9733
50.1096 67.8598 0.00996758
49.337 65.9267 2
48.6182 64.1296 3.98595
47.4636 66.5861 0.0120398
45.5586 67.1042 2
46.8923 64.7439 2
46.3818 63.0621 3.98513
45.1327 65.2051 3.98649
43.6319 67.4747 3.98804
41.861 69.8812 3.99049
43.9738 69.5941 2
44.3767 71.8636 3.99421
46.0568 69.1613 0.00953955
46.6094 71.369 2
47.2057 73.7222 4
48.8025 70.7243 0.00597178
49.554 73.0099 2
51.8506 72.1454 0
50.9537 5.13002 3.99358
53.0643 6.06939 2
54.0858 3.86728 4
55.103 7.13796 0.00682369
56.25 5.02406 2
58.3339 6.31992 0
63.9748 46.7208 0.025151
65.1837 43.028 0.0257997
62.8171 44.2216 0.0247953
63.7631 40.9326 0.0271405
65.7913 39.3712 0.0282405
67.9331 37.522 0.0278969
65.8935 37.502 2
63.9052 39.2683 2
63.3384 42.5549 2
62.4407 40.7009 2
61.9787 45.9261 2
61.4635 43.6903 2
63.9638 37.4572 3.97044
62.166 39.3565 3.97243
61.2308 41.9632 3.97377
60.2633 44.779 3.97573
65.881 35.6663 0.0274468
65.1938 32.1516 0.0258433
64.2916 34.2483 0.0265989
62.6034 30.6314 0.0262716
59.3137 15.6577 0.0162881
59.1303 18.3413 0.0177254
58.7513 20.8379 0.0216121
61.6612 27.0658 0.0254714
60.8598 29.1334 0.0235943
59.3447 25.7848 0.0217403
58.2991 23.0762 0.0238729
57.9835 24.6499 0.0215306
56.679 15.7291 0.0171685
54.3784 15.9835 0.0176692
53.8106 13.6675 0.016638
52.1125 8.14883 0.0105806
53.0584 11.008 0.0139205
64.0975 35.6315 2
62.9404 33.0428 2
60.6252 30.6053 2
57.9433 16.969 2
57.7232 19.459 2
57.3834 21.8225 2
59.5831 27.9007 2
57.2013 23.9307 2
57.7555 25.7119 2
50.1125 7.28054 2
55.5403 16.9564 2
53.7606 16.9639 2
52.979 15.2475 2
52.1726 12.7842 2
51.2326 10.1161 2
62.1993 35.358 3.97214
60.305 32.7421 3.97268
58.635 30.0675 3.97302
57.3062 27.3682 3.97621
56.6405 18.141 3.98276
56.3085 25.0874 3.97529
56.3656 20.5048 3.97817
56.1215 22.8521 3.97299
48.0562 6.52422 3.98991
49.3244 9.32497 3.98717
50.4333 11.9835 3.98499
51.3787 14.4838 3.98317
54.4182 17.9054 3.98284
52.3633 17.0202 3.98155
52.0706 67.0029 0.010192
52.9536 64.2244 0.0134309
61.0055 47.8884 0.0260001
53.6823 61.6314 0.0162092
56.6518 59.5004 0.0173517
54.263 59.333 0.0184188
59.725 52.118 0.0216715
58.0404 49.6307 0.0232061
56.7834 57.0027 0.0214755
57.1337 54.1384 0.0219885
51.1679 65.1337 2
52.0464 62.5469 2
55.4847 58.2638 2
52.8361 60.1464 2
53.6434 58.4841 2
58.3205 46.8614 2
57.5763 51.8025 2
56.2634 49.5682 2
55.4799 55.8101 2
55.3702 53.3989 2
50.3464 63.3878 3.98549
51.245 60.9444 3.98301
54.2248 57.2777 3.98081
52.3154 58.6458 3.98083
56.7389 44.1953 3.97322
55.5106 47.9101 3.97837
55.0854 51.4017 3.97406
54.0141 54.5608 3.97534
49.3372 65.9263 0.0122732
48.6179 64.13 2
47.9621 62.483 3.98478
45.5587 67.1038 0.0121282
46.8924 64.7435 0.0136346
43.6317 67.4752 2
46.3816 63.0625 2
45.1325 65.2055 2
45.9872 61.5957 3.98412
44.7671 63.4635 3.98567
43.3566 65.5151 3.98667
41.6639 67.6939 3.98802
39.7026 70.0284 3.99035
41.861 69.8817 2
42.1111 72.2084 3.99414
43.9738 69.5937 0.00948002
44.3768 71.8639 2
44.8159 74.2794 4
46.6092 71.3688 0.00577581
47.2057 73.7222 2
49.554 73.0099 0
48.7842 4.3211 3.99381
50.9539 5.12985 2
51.8506 2.85458 4
53.064 6.06956 0.00660728
54.0858 3.86728 2
56.25 5.02411 0
61.9786 45.9256 0.0248583
63.3382 42.5545 0.0260517
61.4633 43.6899 0.0248931
62.4403 40.7007 0.0268084
63.9047 39.2682 0.0283833
65.8935 37.502 0.0293642
63.9638 37.4572 2
62.1665 39.3567 2
61.2312 41.9635 2
60.2635 44.7795 2
62.0019 37.4446 3.97095
60.2628 39.8505 3.97305
59.0131 42.9257 3.97382
64.0967 35.6316 0.0275898
62.9404 33.0432 0.0267276
60.625 30.6056 0.0266855
57.9432 16.9699 0.017076
57.7226 19.46 0.0191526
57.3827 21.8232 0.023961
59.583 27.9011 0.0247579
57.7551 25.7122 0.0203048
57.2008 23.931 0.0243305
55.5403 16.9573 0.0171776
53.7607 16.9648 0.017464
52.9791 15.2485 0.0182985
50.1125 7.281 0.0103621
52.1726 12.785 0.0153657
51.2326 10.1167 0.0132151
62.2003 35.3579 2
60.305 32.7416 2
58.6352 30.0673 2
56.6407 18.14 2
56.3664 20.5037 2
56.1223 22.8518 2
57.3064 27.3677 2
56.309 25.0875 2
48.0562 6.52378 2
49.3243 9.32451 2
54.4183 17.9043 2
52.3631 17.0192 2
51.3787 14.483 2
50.4332 11.9828 2
59.9098 35.1188 3.97266
58.0143 32.2655 3.97284
56.5616 29.3289 3.97163
55.4652 26.5867 3.97755
55.3471 19.1742 3.98241
54.9444 24.0404 3.972
55.0107 21.5461 3.97571
45.9621 5.87935 3.99021
43.3732 7.46857 3.98827
47.3547 8.61898 3.98741
48.5998 11.2853 3.98565
49.7143 13.7315 3.98392
50.6349 16.1172 3.98126
53.1282 18.6442 3.98103
51.3051 18.0327 3.98479
51.1681 65.1333 0.0127264
52.0466 62.5464 0.0152457
58.3204 46.8606 0.0233086
52.8363 60.1458 0.0176311
55.4849 58.263 0.0178868
53.6436 58.4834 0.0192246
57.5762 51.8019 0.0224083
56.2635 49.5676 0.0190848
55.4798 55.8093 0.0229688
55.3702 53.3982 0.0266959
50.3461 63.3881 2
51.2448 60.945 2
54.2247 57.2786 2
52.3151 58.6463 2
56.7393 44.1959 2
55.5107 47.9109 2
55.0854 51.4023 2
54.0142 54.562 2
49.5921 61.7528 3.9842
55.673 41.7145 3.97574
50.5686 59.3385 3.98089
52.191 56.502 3.97779
54.2098 45.5809 3.97695
53.3607 49.3392 3.97531
52.6814 52.8631 3.97265
48.6182 64.1296 0.0140468
47.9618 62.4833 2
47.3293 61.0185 3.98361
43.6319 67.4747 0.0119627
45.1327 65.2051 0.0135118
46.3818 63.0621 0.014869
41.6638 67.6944 2
43.3565 65.5155 2
45.9869 61.596 2
44.7669 63.4639 2
45.7663 60.6403 3.98331
44.483 61.8456 3.98438
43.1464 63.7363 3.98551
41.5461 65.6532 3.98669
39.6328 67.7737 3.98789
37.526 70.0537 3.99028
39.7026 70.0289 2
39.8179 72.4055 3.99405
41.861 69.8812 0.00951115
42.1112 72.2087 2
42.3947 74.6792 4
44.3767 71.8636 0.00578565
44.8159 74.2794 2
47.2057 73.7222 0
43.8514 5.35648 3.99045
46.5702 3.64571 3.99403
48.7844 4.32091 2
49.554 1.99015 4
50.9537 5.13002 0.00642115
51.8506 2.85453 2
54.0858 3.86728 0
60.2633 44.779 0.0242724
61.2308 41.9632 0.0262259
62.166 39.3565 0.027575
63.9638 37.4572 0.0295574
62.0024 37.4447 2
60.2633 39.8506 2
59.0135 42.9261 2
59.7764 37.5679 3.97216
58.0258 40.6627 3.97361
55.1496 39.7278 3.97712
62.1993 35.358 0.0278581
60.305 32.7421 0.0273201
58.635 30.0675 0.0269801
56.6405 18.141 0.0172361
56.3656 20.5048 0.0218292
56.1215 22.8521 0.0270129
57.3062 27.3682 0.0237936
56.3085 25.0874 0.0247111
54.4182 17.9054 0.0171557
52.3633 17.0202 0.0184497
51.3787 14.4838 0.0168261
48.0562 6.52422 0.0100893
49.3244 9.32497 0.0128287
50.4333 11.9835 0.0150145
59.9109 35.1187 2
45.9621 5.87888 2
43.3733 7.46808 2
58.014 32.265 2
56.562 29.3284 2
55.3476 19.1729 2
55.0118 21.5448 2
54.9451 24.0411 2
55.4653 26.5868 2
47.3547 8.61855 2
48.5997 11.2849 2
53.1284 18.6431 2
51.3052 18.0318 2
50.6347 16.1162 2
49.7142 13.7307 2
57.4237 34.7597 3.97478
55.7523 31.5123 3.97169
54.5292 28.3908 3.97706
53.7895 25.4833 3.97438
53.9747 20.1213 3.9823
53.5918 22.6929 3.97262
41.3983 7.07377 3.98847
45.3593 7.9905 3.98766
42.8649 9.40916 3.98678
46.666 10.6465 3.98571
47.7452 13.092 3.98419
48.9321 15.3882 3.98314
50.0079 17.6861 3.97919
51.6553 19.3095 3.98659
50.3464 63.3878 0.0145051
51.245 60.9444 0.0169869
56.7389 44.1953 0.0267781
55.5106 47.9101 0.0216309
52.3154 58.6458 0.019171
54.2248 57.2777 0.0191908
55.0854 51.4017 0.0259416
54.0141 54.5608 0.0246562
49.5918 61.7532 2
55.6739 41.7144 2
50.5683 59.3391 2
52.1909 56.5026 2
54.2104 45.5817 2
53.3606 49.3394 2
52.6815 52.8633 2
48.8497 60.2112 3.98273
52.5829 42.6587 3.9758
49.7925 57.6381 3.97991
50.6029 54.438 3.97597
51.8439 47.2831 3.97899
51.2329 50.9553 3.97144
48.2301 43.8085 3.9885
47.9621 62.483 0.0152243
47.329 61.0187 2
46.6192 59.8053 3.98271
41.6639 67.6939 0.0119817
43.3566 65.5151 0.0133267
44.7671 63.4635 0.0143324
45.9872 61.5957 0.0158766
39.6328 67.7742 2
41.5461 65.6535 2
45.7659 60.6405 2
43.1462 63.7366 2
44.4827 61.846 2
44.6237 60.303 3.9836
42.9502 62.0946 3.98495
41.5998 63.8301 3.98544
39.6477 65.6216 3.98656
37.5634 67.7563 3.98785
31.6972 65.1403 3.98657
33.392 67.4938 3.98776
35.3333 69.9638 3.99023
37.526 70.0541 2
37.5096 72.4601 3.99397
39.7026 70.0284 0.00964937
39.8179 72.4058 2
39.9526 74.9197 4
42.1111 72.2084 0.00586164
42.3947 74.6792 2
44.8159 74.2794 0
41.7359 4.9656 3.99068
43.8514 5.35603 2
44.3255 3.10905 3.99414
46.5704 3.64547 2
47.2057 1.27793 4
48.7842 4.3211 0.00619466
49.554 1.99013 2
51.8506 2.85458 0
59.0131 42.9257 0.0261828
60.2628 39.8505 0.0269511
62.0019 37.4446 0.0290475
59.7771 37.568 2
58.0264 40.6627 2
55.1502 39.7277 2
56.8536 37.8991 3.97481
49.6746 41.3399 3.98115
53.1905 39.3134 3.97635
39.4416 6.79723 3.98866
59.9098 35.1188 0.0273402
58.0143 32.2655 0.0271555
56.5616 29.3289 0.0283674
55.3471 19.1742 0.0175862
55.0107 21.5461 0.0242931
54.9444 24.0404 0.027997
55.4652 26.5867 0.0224544
53.1282 18.6442 0.018972
51.3051 18.0327 0.0152126
50.6349 16.1172 0.0187379
45.9621 5.87935 0.0097854
49.7143 13.7315 0.0160821
47.3547 8.61898 0.0125941
48.5998 11.2853 0.0143532
43.3732 7.46857 0.0117291
57.425 34.7598 2
41.3983 7.07326 2
45.3594 7.99005 2
42.8649 9.40865 2
55.7522 31.5121 2
54.5291 28.3911 2
53.9754 20.1198 2
53.5926 22.6889 2
53.7899 25.484 2
46.6659 10.6462 2
47.745 13.0915 2
51.6558 19.3086 2
50.0079 17.6852 2
48.9319 15.3873 2
54.9286 33.9696 3.97558
53.5211 30.4741 3.97297
52.6103 27.185 3.9755
52.1581 24.077 3.97364
52.398 21.0475 3.98086
41.0129 9.04237 3.9868
44.723 9.98959 3.98609
42.4675 10.8948 3.98511
46.0046 12.7204 3.98442
47.6818 14.5732 3.98371
48.1149 16.975 3.98168
49.82 19.5857 3.97727
49.5921 61.7528 0.0158041
50.5686 59.3385 0.0191107
55.673 41.7145 0.0242575
54.2098 45.5809 0.0230487
53.3607 49.3392 0.0246932
52.191 56.502 0.0222096
52.6814 52.8631 0.0273515
48.8493 60.2115 2
52.5841 42.6585 2
49.7922 57.6387 2
50.6029 54.4387 2
51.8439 47.2829 2
51.2329 50.9549 2
48.2265 43.8111 2
47.9884 58.7536 3.98187
50.1511 45.2976 3.97532
48.6035 55.9297 3.98139
49.1421 52.609 3.97594
49.6947 49.0581 3.97326
46.0918 39.8911 3.9098
46.4829 42.7067 3.95703
46.5429 45.8514 3.98921
43.9332 41.1948 3.92276
42.0922 42.0147 3.89969
47.3293 61.0185 0.0163856
46.6188 59.8054 2
45.4691 58.8021 3.98272
39.6328 67.7737 0.0121135
41.5461 65.6532 0.0133087
43.1464 63.7363 0.0144913
44.483 61.8456 0.0156197
45.7663 60.6403 0.0166915
41.5996 63.8303 2
37.5634 67.7567 2
39.6476 65.622 2
44.6233 60.3032 2
42.9499 62.0948 2
41.7533 62.5055 3.98534
42.4816 59.9957 3.98441
39.8933 63.5656 3.98539
37.6423 65.5208 3.98606
35.4634 67.6656 3.98783
33.5754 65.3538 3.98639
31.9597 63.314 3.98563
29.8833 64.7311 3.98658
31.6972 65.1406 2
31.3766 67.2035 3.98785
33.3921 67.4942 2
33.156 69.7571 3.99024
35.3332 69.9642 2
35.195 72.3745 3.99394
37.526 70.0537 0.00972376
37.5095 72.4604 2
37.5 75 4
39.8179 72.4055 0.00594537
39.9526 74.9197 2
42.3947 74.6792 0
39.6234 4.71273 3.99083
41.736 4.96514 2
42.0619 2.71668 3.99429
43.8514 5.35648 0.00955317
44.3257 3.10879 2
44.8158 0.721173 4
46.5702 3.64571 0.00597056
47.2057 1.27779 2
49.554 1.99015 0
58.0258 40.6627 0.0263875
59.7764 37.5679 0.0278377
55.1496 39.7278 0.0228776
49.6772 41.3418 2
56.8542 37.8991 2
53.1912 39.313 2
54.0356 36.628 3.97629
47.6079 40.4404 3.96786
50.6435 38.5112 3.97971
37.5153 6.66826 3.98867
39.4416 6.7967 2
39.2103 8.68483 3.98702
35.9407 8.4846 3.98731
57.4237 34.7597 0.0252195
55.7523 31.5123 0.0283142
54.5292 28.3908 0.0229373
53.9747 20.1213 0.0176967
53.5918 22.6929 0.0273829
53.7895 25.4833 0.0256224
51.6553 19.3095 0.0134073
50.0079 17.6861 0.0208066
48.9321 15.3882 0.0168588
45.3593 7.9905 0.0123353
47.7452 13.092 0.0158067
46.666 10.6465 0.0142922
41.3983 7.07377 0.0115293
42.8649 9.40916 0.0132168
54.9301 33.9699 2
41.0129 9.04179 2
44.723 9.98919 2
42.4674 10.8943 2
53.5213 30.4729 2
52.6105 27.1869 2
52.3989 21.0464 2
52.1594 24.077 2
46.0044 12.7201 2
47.6815 14.5726 2
49.8204 19.5844 2
48.1148 16.9739 2
52.475 32.8674 3.97611
51.3614 29.1426 3.97231
50.8102 25.7095 3.97268
49.9469 22.1647 3.97918
40.5682 11.598 3.98482
43.8572 11.9099 3.9851
45.803 15.4083 3.98365
47.5061 19.2064 3.98009
46.4336 37.5059 3.91403
48.8497 60.2112 0.0172693
49.7925 57.6381 0.0200924
52.5829 42.6587 0.0242001
51.8439 47.2831 0.0210053
51.2329 50.9553 0.0285595
50.6029 54.438 0.0240296
48.2301 43.8085 0.0115018
47.988 58.7538 2
50.1524 45.2999 2
48.6032 55.9303 2
49.1418 52.6124 2
49.6945 49.0578 2
46.1022 39.8959 2
46.4919 42.7171 2
46.54 45.8441 2
43.9448 41.2005 2
42.0975 42.0163 2
46.841 57.357 3.98268
44.6986 39.4753 3.91446
42.4724 40.8846 3.91365
48.1238 47.2558 3.97767
47.1759 54.2661 3.98166
47.6057 50.7646 3.97623
44.838 47.4145 3.99658
45.16 41.9862 3.91391
44.9614 44.6157 3.95751
42.7424 42.7143 3.92516
40.9491 42.3485 3.92463
46.6192 59.8053 0.0172917
45.4686 58.8022 2
43.8773 57.7272 3.98343
37.5634 67.7563 0.0121539
39.6477 65.6216 0.0134397
41.5998 63.8301 0.0145568
42.9502 62.0946 0.0150535
44.6237 60.303 0.0164038
35.4634 67.6661 2
41.7531 62.5057 2
39.8931 63.5658 2
37.6423 65.5211 2
42.4813 59.996 2
40.6231 61.6645 3.98458
40.4458 58.2296 3.98395
37.8368 63.2271 3.98554
35.573 65.443 3.98619
33.5755 65.3541 2
31.9597 63.3142 2
33.6292 63.3539 3.98544
30.3787 62.8724 3.98564
32.1234 62.0212 3.98492
26.8682 61.5156 3.98456
28.0621 64.1589 3.9864
29.8834 64.7314 2
29.406 66.7669 3.98786
31.6972 65.1403 0.0134272
31.3767 67.2038 2
31.0132 69.422 3.99022
33.392 67.4938 0.0122374
33.156 69.7575 2
32.892 72.1487 3.99396
35.3333 69.9638 0.00976668
35.1949 72.3748 2
35.0474 74.9194 4
37.5096 72.4601 0.00602505
37.5 75 2
39.9526 74.9197 0
35.6197 6.7193 3.9887
37.5225 4.61221 3.99095
39.6235 4.71229 2
39.7884 2.47314 3.9944
41.7359 4.9656 0.00931561
42.0621 2.7164 2
42.3946 0.32156 4
44.3255 3.10905 0.00586423
44.8159 0.72056 2
47.2057 1.27793 0
49.6746 41.3399 0.0188476
56.8536 37.8991 0.0251943
53.1905 39.3134 0.023652
47.6111 40.442 2
50.6436 38.512 2
54.0359 36.6282 2
51.429 35.5818 3.96629
48.2803 37.7726 3.97661
46.093 35.1292 3.91439
43.9333 33.8119 3.91995
42.0858 32.9961 3.89824
37.457 8.52648 3.98719
37.5153 6.66776 2
39.4416 6.79723 0.0113357
39.2104 8.6842 2
38.9753 10.1167 3.9867
35.8972 9.76372 3.98617
34.1492 8.81406 3.98713
35.9407 8.48394 2
54.9286 33.9696 0.0244189
53.5211 30.4741 0.0270291
52.6103 27.185 0.0244954
52.398 21.0475 0.0191404
52.1581 24.077 0.0263604
49.82 19.5857 0.0227329
48.1149 16.975 0.0183192
47.6818 14.5732 0.0162858
44.723 9.98959 0.0139143
46.0046 12.7204 0.015582
41.0129 9.04237 0.0131968
42.4675 10.8948 0.0148925
52.4767 32.8667 2
40.5681 11.5974 2
43.8571 11.9095 2
51.363 29.1441 2
50.8117 25.7108 2
49.9479 22.1633 2
45.8026 15.408 2
47.5063 19.2053 2
50.0523 31.401 3.96529
49.3134 27.4564 3.97442
49.42 24.376 3.98138
47.1905 21.9064 3.97974
38.3006 12.7222 3.98446
42.1005 14.2926 3.9834
44.8019 18.4409 3.98324
44.9849 37.5107 3.91575
46.4498 37.5094 2
47.9884 58.7536 0.0181343
48.6035 55.9297 0.0186133
50.1511 45.2976 0.0246761
49.6947 49.0581 0.0267397
49.1421 52.609 0.0240641
46.0918 39.8911 0.0901959
46.4829 42.7067 0.0429731
46.5429 45.8514 0.0107882
43.9332 41.1948 0.0772355
42.0922 42.0147 0.100311
46.8405 57.3572 2
44.712 39.479 2
42.4735 40.8838 2
48.1234 47.2553 2
47.1757 54.2662 2
47.6059 50.766 2
44.8388 47.4089 2
45.1678 41.9938 2
44.9718 44.6278 2
42.7596 42.722 2
40.9546 42.3477 2
45.4008 55.9444 3.98283
42.8168 39.2704 3.9275
40.9203 40.8026 3.9632
46.1203 48.9316 3.98139
45.5571 52.5628 3.98341
43.4826 48.4805 3.99305
43.3731 46.1872 3.96451
43.7232 43.803 3.90934
41.225 43.8781 3.92654
39.3178 42.6784 3.93418
45.4691 58.8021 0.0172844
43.8769 57.7272 2
42.1082 56.3539 3.98429
35.4634 67.6656 0.0121707
37.6423 65.5208 0.0139388
39.8933 63.5656 0.0146136
41.7533 62.5055 0.0146576
42.4816 59.9957 0.015594
35.573 65.4434 2
40.6228 61.6647 2
37.8366 63.2272 2
40.4454 58.2298 2
38.9269 56.5247 3.98644
38.2506 60.3496 3.985
35.6071 63.2207 3.98523
33.5754 65.3538 0.0136113
31.9597 63.314 0.0143715
33.6292 63.3542 2
30.3788 62.8726 2
32.1234 62.0213 2
28.6811 62.2176 3.9854
33.3461 61.5343 3.98505
31.0663 61.2385 3.98481
27.5664 59.614 3.98289
23.788 59.1014 3.98304
25.0331 60.8884 3.98379
26.8683 61.5158 2
26.2286 63.491 3.98601
28.0623 64.1592 2
27.4625 66.1906 3.98783
29.8833 64.7311 0.0134159
29.4061 66.7674 2
28.9055 68.9474 3.9902
31.3766 67.2035 0.0121504
31.0132 69.4224 2
30.6144 71.7798 3.99399
33.156 69.7571 0.00975953
32.8919 72.149 2
32.6054 74.6784 4
35.195 72.3745 0.00605794
35.0474 74.9197 2
37.5 75 0
33.7222 6.97395 3.98844
35.4338 4.68261 3.99091
35.6197 6.7187 2
37.5139 2.38577 3.99448
37.5226 4.61177 2
39.6234 4.71273 0.00917374
39.7885 2.47285 2
39.9526 0.0806499 4
42.0619 2.71668 0.00570967
42.3947 0.320817 2
44.8158 0.721173 0
44.7074 35.5321 3.91412
42.472 34.1198 3.9125
47.6079 40.4404 0.0321376
50.6435 38.5112 0.020293
54.0356 36.628 0.0237135
48.2817 37.7711 2
51.4301 35.5808 2
46.1011 35.125 2
43.9493 33.8014 2
42.0891 32.9965 2
48.4421 34.274 3.99748
45.1553 33.0256 3.90595
42.7396 32.2975 3.92531
40.9407 32.6605 3.92656
37.3093 10.6196 3.98577
37.457 8.52585 2
37.5153 6.66826 0.0113337
39.2103 8.68483 0.0129796
38.9753 10.116 2
34.7523 10.3692 3.98571
35.8972 9.76299 2
32.3758 9.36065 3.98642
34.1491 8.81331 2
35.9407 8.4846 0.0126924
52.475 32.8674 0.0238875
51.3614 29.1426 0.0276866
50.8102 25.7095 0.0273159
49.9469 22.1647 0.0208227
47.5061 19.2064 0.0199123
45.803 15.4083 0.0163527
43.8572 11.9099 0.0148954
40.5682 11.598 0.015183
50.0532 31.4004 2
38.3003 12.7215 2
42.1001 14.2919 2
49.3145 27.4569 2
49.4213 24.3745 2
47.1915 21.9071 2
44.8019 18.4404 2
47.8388 29.572 3.97297
47.1215 25.0922 3.98575
44.2913 21.2896 3.98218
36.5803 12.9187 3.98404
38.68 14.7911 3.98298
41.7501 17.8201 3.98113
42.9581 37.4925 3.92199
45.0038 37.5102 2
46.4336 37.5059 0.0859706
46.841 57.357 0.0173221
47.1759 54.2661 0.0183431
48.1238 47.2558 0.0223301
47.6057 50.7646 0.023772
44.6986 39.4753 0.0855436
45.16 41.9862 0.0860944
44.9614 44.6157 0.0424912
44.838 47.4145 0.00341729
42.7424 42.7143 0.0748392
42.4724 40.8846 0.0863458
40.9491 42.3485 0.07537
45.4006 55.9444 2
42.8198 39.2688 2
40.9197 40.7999 2
46.1204 48.9305 2
45.5573 52.5624 2
43.4818 48.4923 2
43.4001 46.1984 2
43.736 43.8106 2
41.2368 43.8794 2
39.3207 42.6781 2
43.7406 54.4558 3.98796
41.0079 39.1721 3.97209
39.2471 40.8854 3.97267
43.7283 50.5389 3.99069
41.9852 47.7203 3.98974
41.899 45.2009 3.90384
39.4566 44.6274 3.93186
37.4967 42.8143 3.93243
43.8773 57.7272 0.0165686
42.1076 56.354 2
40.4215 54.9618 3.98473
35.573 65.443 0.0138064
37.8368 63.2271 0.0144588
40.6231 61.6645 0.015419
40.4458 58.2296 0.0160536
35.6071 63.2209 2
38.2503 60.3494 2
38.9261 56.5256 2
38.0005 55.2832 3.98628
36.9356 57.6551 3.98468
35.3637 60.9338 3.98502
33.6292 63.3539 0.0145605
30.3787 62.8724 0.0143601
32.1234 62.0212 0.0150778
33.3461 61.5344 2
28.6812 62.2178 2
31.0663 61.2385 2
29.402 60.3081 3.98418
32.3556 59.7671 3.98404
28.0179 58.3934 3.9835
27.5666 59.614 2
25.375 58.6138 3.98184
22.7502 58.2601 3.9799
23.3981 60.3679 3.98257
23.7882 59.1017 2
25.0333 60.8886 2
24.4309 62.7834 3.98548
26.8682 61.5156 0.0154449
26.2288 63.4913 2
25.5466 65.5005 3.98769
28.0621 64.1589 0.0136023
27.4627 66.191 2
26.8351 68.3357 3.99015
29.406 66.7669 0.0121425
28.9054 68.9478 2
28.3695 71.265 3.99399
31.0132 69.422 0.00977975
30.6142 71.78 2
30.1842 74.2788 4
32.892 72.1487 0.00603977
32.6053 74.6792 2
35.0474 74.9194 0
31.7866 7.41376 3.9882
33.3457 4.92179 3.99075
33.7222 6.97328 2
35.2442 2.46192 3.99444
35.4339 4.68209 2
35.6197 6.7193 0.0112958
37.5 0 4
37.514 2.38548 2
37.5225 4.61221 0.00904923
39.7884 2.47314 0.0055963
39.9526 0.0802889 2
42.3946 0.32156 0
42.8253 35.7229 3.92495
44.718 35.5299 2
40.9205 34.202 3.96292
42.4735 34.1204 2
48.2803 37.7726 0.0233949
51.429 35.5818 0.0337103
46.093 35.1292 0.0856086
43.9333 33.8119 0.080055
42.0858 32.9961 0.101756
48.4464 34.2708 2
45.1654 33.0193 2
42.7544 32.2919 2
40.9427 32.6593 2
46.3821 31.5434 3.97651
43.714 31.2148 3.91304
41.2252 31.1237 3.92017
39.3072 32.3284 3.93352
35.6906 11.7638 3.98427
37.3093 10.6189 2
37.457 8.52648 0.0128085
38.9753 10.1167 0.013299
33.0962 11.2057 3.98448
34.7523 10.3683 2
35.8972 9.76372 0.0138319
30.4805 10.0088 3.98578
32.3757 9.35985 2
34.1492 8.81406 0.0128677
50.0523 31.401 0.0347082
49.3134 27.4564 0.0255769
49.42 24.376 0.0186184
47.1905 21.9064 0.0202555
44.8019 18.4409 0.0167604
42.1005 14.2926 0.0165997
38.3006 12.7222 0.015535
36.5801 12.918 2
47.8382 29.5695 2
38.6795 14.7905 2
41.7498 17.8192 2
47.1232 25.0929 2
44.292 21.2887 2
45.5947 27.7334 3.98324
43.8149 24.017 3.98931
41.3425 20.6968 3.98097
35.7701 14.7433 3.98328
38.6805 17.577 3.9813
41.057 37.4845 3.96891
42.9624 37.4933 2
44.9849 37.5107 0.0842465
45.4008 55.9444 0.0171678
45.5571 52.5628 0.0165886
46.1203 48.9316 0.0186138
42.8168 39.2704 0.0724958
43.7232 43.803 0.0906601
43.3731 46.1872 0.0354867
43.4826 48.4805 0.00694901
41.225 43.8781 0.0734551
40.9203 40.8026 0.0368026
39.3178 42.6784 0.0658249
43.7403 54.4564 2
41.0086 39.1706 2
39.246 40.8851 2
43.7274 50.5441 2
41.9877 47.729 2
41.9168 45.2073 2
37.4985 42.8143 2
39.4707 44.6231 2
41.8877 53.0302 3.99321
39.2406 39.1726 3.96262
37.4972 40.9305 3.96222
35.6815 42.6813 3.93452
40.9653 49.7697 4.001
39.8075 46.0875 3.90175
37.5004 44.8812 3.93361
42.1082 56.3539 0.015705
40.4205 54.9619 2
38.7299 53.8959 3.98711
35.6071 63.2207 0.0147739
38.2506 60.3496 0.0149996
38.9269 56.5247 0.0135558
35.3635 60.9336 2
36.9349 57.6543 2
37.9995 55.2823 2
36.3193 55.4187 3.98798
34.4874 58.5464 3.98467
33.3461 61.5343 0.0149477
28.6811 62.2176 0.0146011
31.0663 61.2385 0.0151926
32.3556 59.7669 2
29.4022 60.3081 2
30.2935 57.8397 3.98429
28.0181 58.3933 2
26.9356 56.8435 3.98095
27.5664 59.614 0.0171079
25.3752 58.6139 2
23.829 56.8258 3.97711
21.325 57.4192 3.97968
21.9895 59.6401 3.9824
22.7504 58.2605 2
22.7343 62.0347 3.9845
23.3983 60.3682 2
23.788 59.1014 0.0169604
25.0331 60.8884 0.0162145
24.4311 62.7838 2
23.6804 64.7188 3.98729
26.2286 63.491 0.0139881
25.5467 65.5009 2
24.8074 67.5968 3.99006
27.4625 66.1906 0.012172
26.8351 68.336 2
26.1648 70.6058 3.99396
28.9055 68.9474 0.0097988
28.3693 71.2651 2
27.7943 73.7221 4
30.6144 71.7798 0.00601465
30.1841 74.2794 2
32.6054 74.6784 0
29.8091 7.98701 3.98769
31.2508 5.32897 3.99045
31.7865 7.41297 2
32.9799 2.70004 3.99434
33.3457 4.92121 2
33.7222 6.97395 0.0115612
35.0474 0.080333 4
35.2442 2.46161 2
35.4338 4.68261 0.00908768
37.5 0 2
37.5139 2.38577 0.00552477
39.9526 0.0806499 0
41.0161 35.8082 3.97073
42.8271 35.7245 2
44.7074 35.5321 0.0858836
28.5413 10.6842 3.98562
39.2445 34.1206 3.97212
40.9194 34.2044 2
42.472 34.1198 0.0875033
48.4421 34.274 0.00252301
45.1553 33.0256 0.0940516
42.7396 32.2975 0.0746899
40.9407 32.6605 0.0734393
46.3952 31.5405 2
43.7201 31.2076 2
41.2383 31.1186 2
39.3096 32.3287 2
44.4176 29.7233 3.97068
41.8985 29.8074 3.90489
39.4539 30.379 3.93219
37.4842 32.1887 3.93374
34.0904 12.9218 3.98365
35.6905 11.763 2
37.3093 10.6196 0.0142302
31.1842 11.974 3.98471
33.0961 11.2049 2
34.7523 10.3692 0.014288
30.4804 10.008 2
32.3758 9.36065 0.0135772
47.8388 29.572 0.0270335
47.1215 25.0922 0.0142489
36.5803 12.9187 0.0159631
44.2913 21.2896 0.0178211
41.7501 17.8201 0.0188749
38.68 14.7911 0.017024
35.7696 14.7426 2
45.5944 27.7244 2
38.6801 17.5761 2
41.3426 20.6948 2
43.8171 24.0204 2
33.6053 15.86 3.98314
43.0831 26.5005 3.99532
40.9238 23.2703 3.98281
38.4219 20.3046 3.98332
35.8464 17.4905 3.98281
39.2472 37.4843 3.95534
41.0572 37.4841 2
42.9581 37.4925 0.0780072
43.7406 54.4558 0.012037
43.7283 50.5389 0.00931206
41.0079 39.1721 0.0279142
41.899 45.2009 0.0961636
41.9852 47.7203 0.0102636
39.4566 44.6274 0.0681353
39.2471 40.8854 0.0273318
37.4967 42.8143 0.067567
41.8866 53.032 2
39.241 39.1723 2
37.4968 40.93 2
40.9643 49.7706 2
35.6791 42.6812 2
39.8285 46.1042 2
37.4979 44.878 2
39.8298 51.9546 3.99955
37.4953 39.18 3.93659
35.7492 40.8932 3.97277
34.0478 42.3468 3.92526
35.5285 44.6282 3.92955
38.7549 48.7644 4.01146
37.503 46.4054 3.90124
40.4215 54.9618 0.0152672
38.7288 53.8941 2
36.7168 53.2546 3.99686
35.3637 60.9338 0.0149764
36.9356 57.6551 0.0153213
38.0005 55.2832 0.013722
34.4871 58.5459 2
36.3186 55.4166 2
33.2218 55.5333 3.98603
32.3556 59.7671 0.0159563
29.402 60.3081 0.0158196
30.2936 57.8393 2
28.6746 55.3325 3.98128
28.0179 58.3934 0.0165022
26.9359 56.8434 2
25.2941 55.1637 3.97787
21.7923 55.367 3.97641
25.375 58.6138 0.0181583
23.8292 56.8261 2
20.2082 57.0492 3.9818
20.6391 58.7981 3.98153
21.3251 57.4196 2
21.1638 61.1846 3.98396
21.9896 59.6405 2
22.7502 58.2601 0.0201027
21.8936 63.8468 3.98662
22.7344 62.0351 2
23.3981 60.3679 0.0174317
24.4309 62.7834 0.0145245
23.6806 64.7192 2
22.8357 66.7405 3.98993
25.5466 65.5005 0.0123083
24.8074 67.5971 2
24.0091 69.8069 3.99388
26.8351 68.3357 0.00984921
26.1645 70.6059 2
25.446 73.0099 4
28.3695 71.265 0.00601471
27.7943 73.7222 2
30.1842 74.2788 0
27.819 8.64672 3.98736
29.1527 5.87473 3.99007
29.809 7.98629 2
30.7251 3.09719 3.99414
31.2508 5.32832 2
31.7866 7.41376 0.0118037
32.6053 0.320823 4
32.9798 2.69972 2
33.3457 4.92179 0.00924761
35.0474 0.0802903 2
35.2442 2.46192 0.00555656
37.5 0 0
39.2466 35.8086 3.96245
41.0164 35.8093 2
42.8253 35.7229 0.0750536
28.5412 10.6836 2
26.6202 11.3795 3.98531
29.2231 12.6306 3.98475
37.492 34.0731 3.9607
39.2433 34.1208 2
40.9205 34.202 0.037078
46.3821 31.5434 0.0234895
43.714 31.2148 0.0869555
41.2252 31.1237 0.0798324
39.3072 32.3284 0.0664759
44.4306 29.716 2
41.9168 29.7974 2
39.466 30.3824 2
37.4846 32.1868 2
42.3426 28.3503 3.95334
39.8188 28.9177 3.90873
37.4879 30.1174 3.93416
35.6674 32.3177 3.93392
31.9118 14.4666 3.98374
34.0902 12.9209 2
35.6906 11.7638 0.0157308
31.1841 11.9732 2
33.0962 11.2057 0.0155161
30.4805 10.0088 0.0142153
45.5947 27.7334 0.0167569
43.8149 24.017 0.0106921
35.7701 14.7433 0.016721
41.3425 20.6968 0.0190324
38.6805 17.577 0.0186999
33.605 15.8597 2
35.846 17.49 2
43.0839 26.4999 2
38.4216 20.3038 2
40.9247 23.2656 2
33.5474 17.3677 3.9844
40.4611 25.6167 4.01125
38.0807 22.8307 3.99133
35.5823 20.0568 3.98375
37.4966 37.4925 3.92721
39.2473 37.4844 2
41.057 37.4845 0.0310932
41.8877 53.0302 0.00679176
40.9653 49.7697 -0.0010007
39.2406 39.1726 0.0373791
39.8075 46.0875 0.0982507
37.5004 44.8812 0.0663896
37.4972 40.9305 0.0377788
35.6815 42.6813 0.0654765
39.8291 51.9542 2
37.4955 39.1796 2
35.7493 40.8939 2
38.7502 48.7903 2
34.0442 42.3475 2
35.5197 44.6299 2
37.4991 46.4251 2
37.6711 51.0566 4.00842
35.7548 39.1858 3.96303
34.0806 40.8089 3.96112
32.9017 42.0097 3.89947
33.7587 43.873 3.9249
35.182 46.0882 3.90728
36.8843 48.4119 3.99576
38.7299 53.8959 0.0128877
36.7163 53.2512 2
34.3514 52.5133 3.98977
34.4874 58.5464 0.0153264
36.3193 55.4187 0.0120159
33.2219 55.5319 2
30.5006 53.4348 3.98465
30.2935 57.8397 0.0157116
28.675 55.332 2
26.8589 53.4653 3.97738
26.9356 56.8435 0.0190492
25.2943 55.1637 2
23.5487 53.5058 3.97473
20.4436 53.248 3.97358
19.9178 55.8529 3.98076
21.7925 55.3673 2
23.829 56.8258 0.0228851
19.4301 57.9101 3.98121
20.2083 57.0496 2
19.7024 60.2186 3.9829
20.6393 58.7986 2
21.325 57.4192 0.0203193
20.2056 62.8682 3.98571
21.1639 61.1851 2
21.9895 59.6401 0.0175966
20.9371 65.7697 3.9896
21.8938 63.8473 2
22.7343 62.0347 0.015504
23.6804 64.7188 0.01271
22.8358 66.7409 2
21.9116 68.8741 3.99378
24.8074 67.5968 0.00993796
24.0088 69.807 2
23.1494 72.1454 4
26.1648 70.6058 0.00603746
25.446 73.0099 2
27.7943 73.7221 0
25.8583 9.37478 3.98692
27.0675 6.53885 3.98968
27.8189 8.64604 2
28.4873 3.6431 3.99391
29.1526 5.87413 2
29.8091 7.98701 0.0123093
30.1841 0.720592 4
30.725 3.09687 2
31.2508 5.32897 0.0095516
32.6053 0.320817 2
32.9799 2.70004 0.00566186
35.0474 0.080333 0
37.4972 35.8109 3.93526
39.2465 35.8089 2
41.0161 35.8082 0.0292719
24.775 12.0625 3.9853
23.7489 14.3465 3.98431
28.5413 10.6842 0.0143804
26.6202 11.379 2
29.223 12.63 2
27.2892 13.3637 3.9846
29.7777 14.1891 3.98377
35.745 34.1056 3.97226
37.4913 34.0724 2
39.2445 34.1206 0.0278756
37.4842 32.1887 0.0662639
44.4176 29.7233 0.0293199
41.8985 29.8074 0.0951134
39.4539 30.379 0.0678082
42.354 28.3377 2
39.837 28.9047 2
37.4877 30.1225 2
35.6654 32.3171 2
40.0259 27.5233 3.97237
37.4953 28.587 3.90433
35.5137 30.3682 3.93095
34.0403 32.6441 3.925
30.923 16.8225 3.98346
31.9118 14.4659 2
34.0904 12.9218 0.016349
31.1842 11.974 0.0152886
43.0831 26.5005 0.00468301
40.9238 23.2703 0.0171856
33.6053 15.86 0.0168559
35.8464 17.4905 0.0171864
38.4219 20.3046 0.016683
33.547 17.3677 2
35.5821 20.0557 2
40.4598 25.6152 2
38.0805 22.831 2
32.8603 19.7722 3.98461
37.7961 25.1288 4.02785
35.2028 22.6142 3.98248
35.749 37.4962 3.95501
37.4968 37.4923 2
39.2472 37.4843 0.0446645
39.8298 51.9546 0.000447917
38.7549 48.7644 -0.0114579
37.4953 39.18 0.0634078
37.503 46.4054 0.098764
35.5285 44.6282 0.070446
35.7492 40.8932 0.0272312
34.0478 42.3468 0.0747427
37.6702 51.0622 2
35.7551 39.1861 2
34.0806 40.8056 2
36.8805 48.4237 2
32.8971 42.009 2
33.7488 43.8797 2
35.159 46.1003 2
35.4294 50.1945 4.00841
33.9927 39.1847 3.9682
32.5186 40.8825 3.9128
32.246 42.7045 3.9242
33.1103 45.1855 3.91198
34.2803 47.4748 3.97074
36.7168 53.2546 0.00313961
34.3515 52.5115 2
31.9716 51.2413 3.98955
33.2218 55.5333 0.0139695
30.5012 53.4352 2
28.3969 51.65 3.97995
28.6746 55.3325 0.0187183
26.8595 53.4657 2
25.0457 51.7882 3.97268
25.2941 55.1637 0.0221336
23.549 53.506 2
21.9328 51.832 3.97252
19.1731 51.6569 3.97305
18.9025 54.3293 3.9767
20.4438 53.2483 2
18.4359 56.7423 3.98194
19.9178 55.8533 2
21.7923 55.367 0.023587
18.3631 59.126 3.98141
19.4302 57.9105 2
20.2082 57.0492 0.0182032
18.616 61.776 3.98462
19.7025 60.2191 2
20.6391 58.7981 0.0184657
19.1259 64.6806 3.98888
20.2058 62.8687 2
21.1638 61.1846 0.0160414
19.8856 67.8108 3.99357
20.9372 65.7701 2
21.8936 63.8468 0.0133829
22.8357 66.7405 0.0100666
21.9113 68.8741 2
20.9142 71.1327 4
24.0091 69.8069 0.00612007
23.1494 72.1455 2
25.446 73.0099 0
23.0943 12.7772 3.98494
23.9709 10.1613 3.9867
25.0214 7.30892 3.98947
25.8583 9.37416 2
26.279 4.32731 3.99365
27.0674 6.53828 2
27.819 8.64672 0.0126442
27.7943 1.27781 4
28.4871 3.64283 2
29.1527 5.87473 0.00993054
30.1841 0.720551 2
30.7251 3.09719 0.00586463
32.6053 0.320823 0
35.7505 35.8086 3.96253
37.4971 35.8107 2
39.2466 35.8086 0.0375504
24.7751 12.062 2
23.7491 14.3463 2
22.4773 15.0228 3.98383
25.3552 13.8958 3.98419
24.0216 15.6081 3.98347
26.6202 11.3795 0.0146917
29.2231 12.6306 0.0152525
27.2893 13.3634 2
29.7777 14.1885 2
28.3534 15.963 3.98407
34.0833 34.1901 3.96231
35.7454 34.106 2
37.492 34.0731 0.0392951
35.6674 32.3177 0.0660799
37.4879 30.1174 0.0658358
42.3426 28.3503 0.0466571
39.8188 28.9177 0.0912688
40.0321 27.5127 2
37.4953 28.5708 2
35.5017 30.3712 2
34.0408 32.6412 2
37.6189 27.2068 3.97544
35.1494 28.9015 3.90761
33.7407 31.1156 3.92306
32.8998 32.982 3.89992
30.2038 19.3249 3.98479
30.9229 16.822 2
31.9118 14.4666 0.0162579
40.4611 25.6167 -0.0112544
38.0807 22.8307 0.00866796
33.5474 17.3677 0.0155953
35.5823 20.0568 0.0162501
32.8595 19.7726 2
35.2024 22.6114 2
37.797 25.1322 2
32.3061 22.3843 3.9841
34.9523 25.1419 4.00467
33.9447 37.4968 3.96716
35.7493 37.4967 2
37.4966 37.4925 0.0727876
37.6711 51.0566 -0.00842441
36.8843 48.4119 0.00424357
35.7548 39.1858 0.0369718
35.182 46.0882 0.0927223
33.7587 43.873 0.0751001
34.0806 40.8089 0.0388784
32.9017 42.0097 0.100526
35.4289 50.1967 2
33.9929 39.1827 2
32.5162 40.8802 2
34.2736 47.5036 2
32.2318 42.7066 2
33.092 45.2018 2
33.1933 49.1831 4.00746
32.1715 39.2741 3.92647
31.0543 41.1834 3.92204
31.2748 43.7865 3.90956
32.233 46.401 3.96791
34.3514 52.5133 0.0102287
31.9721 51.2423 2
29.8066 49.7572 3.98293
30.5006 53.4348 0.0153543
28.3976 51.6473 2
26.4603 50.0287 3.97294
26.8589 53.4653 0.0226178
25.0464 51.7879 2
23.2992 50.2256 3.97235
23.5487 53.5058 0.0252709
21.9332 51.8324 2
20.4308 50.3383 3.97285
17.9611 50.348 3.97491
17.8115 52.8112 3.97503
19.1737 51.6571 2
17.4223 55.3583 3.97919
18.9026 54.3297 2
20.4436 53.248 0.0264222
17.1271 57.8884 3.98235
18.436 56.7427 2
19.9178 55.8529 0.0192401
17.1327 60.5595 3.98322
18.3633 59.1264 2
19.4301 57.9101 0.018791
17.4061 63.4734 3.98771
18.6161 61.7765 2
19.7024 60.2186 0.0170951
17.9417 66.6192 3.99323
19.126 64.681 2
20.2056 62.8682 0.0142871
18.75 69.9759 4
19.8853 67.8108 2
20.9371 65.7697 0.0103989
21.9116 68.8741 0.00621982
20.9142 71.1327 2
23.1494 72.1454 0
21.5849 13.5971 3.98456
22.189 11.0205 3.98621
23.0945 12.777 2
23.0394 8.17427 3.98931
23.9709 10.1609 2
24.1167 5.14198 3.99348
25.0212 7.30844 2
25.8583 9.37478 0.013077
25.446 1.99014 4
26.2788 4.3271 2
27.0675 6.53885 0.0103188
27.7943 1.27778 2
28.4873 3.6431 0.00609309
30.1841 0.720592 0
33.9856 35.8104 3.96953
35.7505 35.8093 2
37.4972 35.8109 0.0647405
21.302 15.8185 3.98316
24.775 12.0625 0.0146997
23.7489 14.3465 0.015694
25.3554 13.8954 2
22.4776 15.0228 2
24.022 15.6079 2
23.2605 16.2394 3.98321
25.3769 16.0758 3.98413
27.2892 13.3637 0.0153995
29.7777 14.1891 0.016227
28.3536 15.9628 2
27.4354 18.7841 3.98454
32.531 34.1096 3.91397
34.0848 34.1905 2
35.745 34.1056 0.0277354
34.0403 32.6441 0.0749973
35.5137 30.3682 0.0690484
37.4953 28.587 0.0956708
40.0259 27.5233 0.0276327
37.6148 27.1741 2
32.8997 32.9828 2
35.1288 28.8863 2
33.7267 31.1037 2
35.0621 27.3269 3.97864
33.0757 29.8018 3.90903
32.232 32.2758 3.92172
29.567 21.9192 3.99101
30.2036 19.3249 2
30.923 16.8225 0.0165388
37.7961 25.1288 -0.02785
35.2028 22.6142 0.0175204
32.8603 19.7722 0.0153863
32.3054 22.3851 2
34.9557 25.1466 2
31.6528 25.6002 3.99359
32.0388 37.4975 3.92341
33.9455 37.496 2
35.749 37.4962 0.0449869
35.4294 50.1945 -0.00840604
34.2803 47.4748 0.0292576
33.9927 39.1847 0.0318023
33.1103 45.1855 0.0880193
32.246 42.7045 0.0757956
32.5186 40.8825 0.0872047
33.1936 49.1668 2
32.1692 39.2715 2
31.0382 41.1893 2
32.2161 46.4172 2
31.2655 43.7942 2
31.0792 48.0012 4.00124
30.2836 39.4596 3.91449
29.8334 41.9764 3.90792
30.3676 44.982 3.96767
31.9716 51.2413 0.0104466
29.8074 49.752 2
27.806 48.2264 3.97795
28.3969 51.65 0.0200547
26.4612 50.0271 2
24.5947 48.5032 3.97449
25.0457 51.7882 0.0273188
23.3 50.2257 2
21.6078 48.8156 3.97481
21.9328 51.832 0.0274836
20.4317 50.3383 2
19.0007 49.1109 3.97646
16.8698 49.3454 3.97765
16.7518 51.4231 3.97554
17.9618 50.3482 2
16.3726 53.8866 3.97736
17.8118 52.8114 2
19.1731 51.6569 0.0269494
15.9665 56.4899 3.9811
17.4223 55.3587 2
18.9025 54.3293 0.0232988
15.745 59.2205 3.98307
17.1272 57.8889 2
18.4359 56.7423 0.0180622
15.7862 62.1439 3.98616
17.1329 60.5601 2
18.3631 59.126 0.0185875
16.0882 65.3018 3.99286
17.4061 63.4739 2
18.616 61.776 0.0153814
16.6661 68.6801 4
17.9414 66.6192 2
19.1259 64.6806 0.0111207
18.75 69.9759 2
19.8856 67.8108 0.00642607
20.9142 71.1327 0
20.2166 14.5858 3.98388
21.5851 13.5971 2
20.5281 11.99 3.98568
21.1425 9.14389 3.98916
22.1891 11.0202 2
23.0943 12.7772 0.0150609
22.0157 6.08095 3.99333
23.0393 8.17391 2
23.9709 10.1613 0.0132962
23.1494 2.85457 4
24.1163 5.14185 2
25.0214 7.30892 0.0105283
25.446 1.99012 2
26.279 4.32731 0.00635004
27.7943 1.27781 0
32.1755 35.7181 3.92658
33.9865 35.8107 2
35.7505 35.8086 0.0374694
21.3023 15.8181 2
20.2988 16.9524 3.98349
22.0935 16.6238 3.98233
25.3552 13.8958 0.0158101
22.4773 15.0228 0.0161729
24.0216 15.6081 0.0165328
25.3773 16.0756 2
23.2609 16.2394 2
24.1995 18.4378 3.98197
27.0037 21.4421 3.98432
28.3534 15.963 0.0159266
27.4353 18.7841 2
31.0596 33.8018 3.91897
32.5295 34.1126 2
34.0833 34.1901 0.0376938
32.8998 32.982 0.100081
33.7407 31.1156 0.0769401
35.1494 28.9015 0.0923922
37.6189 27.2068 0.0245629
35.0518 27.3101 2
32.2283 32.2807 2
33.059 29.7855 2
32.4899 28.0516 3.98704
31.2458 31.2021 3.91043
28.7677 24.3845 3.98678
29.5662 21.9201 2
30.2038 19.3249 0.0152109
34.9523 25.1419 -0.00466935
32.3061 22.3843 0.0158998
31.6545 25.5882 2
29.5874 27.2894 3.97722
30.0014 37.4857 3.91524
32.0373 37.4971 2
33.9447 37.4968 0.0328394
33.1933 49.1831 -0.00745743
32.233 46.401 0.0320891
32.1715 39.2741 0.073526
31.2748 43.7865 0.0904395
31.0543 41.1834 0.077956
31.0812 48.0009 2
30.2707 39.4673 2
29.823 41.9839 2
30.3539 44.9935 2
29.0993 46.5514 3.99242
28.8955 39.8683 3.90908
28.5734 43.1927 3.96742
29.8066 49.7572 0.0170749
27.807 48.2223 2
25.872 46.6928 3.98113
26.4603 50.0287 0.0270603
24.5958 48.5031 2
22.7476 47.1108 3.97925
23.2992 50.2256 0.0276499
21.609 48.8153 2
19.9474 47.6388 3.97856
20.4308 50.3383 0.0271542
19.0015 49.1112 2
17.6451 48.1927 3.97922
16.1223 48.6949 3.97965
16.8705 49.3458 2
15.8306 50.1826 3.9769
15.3618 52.4287 3.97676
16.7523 51.4234 2
17.9611 50.348 0.0250899
14.8569 54.9897 3.97924
16.3727 53.8869 2
17.8115 52.8112 0.0249726
14.453 57.7494 3.98255
15.9666 56.4904 2
17.4223 55.3583 0.0208099
14.2638 60.6983 3.98516
15.7452 59.2211 2
17.1271 57.8884 0.017651
14.3324 63.861 3.99216
15.7863 62.1445 2
17.1327 60.5595 0.0167764
14.6715 67.2507 4
16.088 65.3018 2
17.4061 63.4734 0.012294
16.6661 68.6801 2
17.9417 66.6192 0.00676963
18.75 69.9759 0
18.9301 15.7728 3.98326
20.2168 14.5856 2
18.9776 13.1008 3.98496
21.5849 13.5971 0.0154398
20.5284 11.9899 2
19.3419 10.2314 3.98886
19.9903 7.14558 3.99327
21.1425 9.14357 2
22.189 11.0205 0.0137873
20.9142 3.86727 4
22.0154 6.08094 2
23.0394 8.17427 0.0106896
23.1494 2.85451 2
24.1167 5.14198 0.00651688
25.446 1.99014 0
30.2906 35.5302 3.9176
32.1732 35.7195 2
33.9856 35.8104 0.0304732
21.302 15.8185 0.0168395
22.0937 16.6235 2
20.2988 16.9517 2
19.2369 18.3988 3.98273
21.7773 17.8396 3.98257
25.3769 16.0758 0.0158719
23.2605 16.2394 0.0167924
24.1997 18.4379 2
22.2697 19.8802 3.98108
24.5802 21.308 3.98284
26.3916 23.7073 3.98064
27.0039 21.4426 2
27.4354 18.7841 0.0154582
29.83 33.0036 3.90801
31.0451 33.7862 2
32.531 34.1096 0.0860342
32.232 32.2758 0.0782827
33.0757 29.8018 0.0909678
35.0621 27.3269 0.0213633
32.4765 28.0462 2
31.25 31.2019 2
30.0394 29.5059 3.97791
27.8288 26.5264 3.9726
28.7682 24.3892 2
29.567 21.9192 0.0089889
31.6528 25.6002 0.00640718
29.5798 27.253 2
28.5511 37.4907 3.91568
29.9896 37.4885 2
32.0388 37.4975 0.0765938
31.0792 48.0012 -0.00124041
30.3676 44.982 0.0323341
30.2836 39.4596 0.0855111
29.8334 41.9764 0.0920803
29.1025 46.5722 2
28.8842 39.8723 2
28.5601 43.2027 2
27.18 44.8391 3.97927
26.6751 40.6293 3.9964
27.806 48.2264 0.0220522
25.8729 46.6913 2
23.9156 45.2408 3.97288
24.5947 48.5032 0.0255136
22.7489 47.1102 2
20.8818 45.9202 3.97807
21.6078 48.8156 0.0251908
19.9485 47.6393 2
18.2924 46.7527 3.97814
19.0007 49.1109 0.0235378
17.6459 48.1933 2
16.3132 47.7246 3.97924
16.1229 48.6954 2
15.1783 49.0253 3.97808
16.8698 49.3454 0.02235
15.8312 50.183 2
14.4764 50.9946 3.97694
13.8186 53.4439 3.9782
15.3621 52.4291 2
16.7518 51.4231 0.0244599
13.2471 56.1763 3.98129
14.8569 54.9902 2
16.3726 53.8866 0.0226426
12.8455 59.1319 3.98504
14.4531 57.7499 2
15.9665 56.4899 0.0189047
12.6777 62.3037 3.99113
14.2639 60.6986 2
15.745 59.2205 0.016929
12.7746 65.6939 4
14.3321 63.8609 2
15.7862 62.1439 0.0138417
14.6714 67.2507 2
16.0882 65.3018 0.0071395
16.6661 68.6801 0
17.6636 17.1482 3.98268
18.9301 15.7724 2
17.5089 14.3652 3.98416
20.2166 14.5858 0.0161233
18.9779 13.1005 2
17.6375 11.4503 3.98804
20.5281 11.99 0.0143193
19.3421 10.2312 2
18.0504 8.3384 3.99319
18.75 5.0241 4
19.99 7.14565 2
21.1425 9.14389 0.0108363
20.9142 3.86727 2
22.0157 6.08095 0.006667
23.1494 2.85457 0
28.8936 35.1028 3.90944
30.277 35.5267 2
32.1755 35.7181 0.0734158
22.0935 16.6238 0.0176667
20.2988 16.9524 0.0165104
21.7774 17.839 2
19.237 18.3982 2
17.9713 19.9307 3.98179
20.8687 19.3671 3.98257
24.1995 18.4378 0.0180293
22.27 19.8794 2
24.5806 21.3085 2
22.3441 21.7046 3.9825
24.6739 23.1529 3.98069
25.4161 25.9351 3.97219
26.3926 23.7068 2
27.0037 21.4421 0.0156805
28.214 32.2777 3.95849
29.8221 33.0027 2
31.0596 33.8018 0.0810291
31.2458 31.2021 0.0895725
32.4899 28.0516 0.0129589
30.0149 29.4955 2
26.9416 29.1179 3.9842
27.8245 26.5235 2
28.7677 24.3845 0.0132243
29.5874 27.2894 0.0227808
26.7779 37.3503 3.97136
28.5414 37.4889 2
30.0014 37.4857 0.0847588
29.0993 46.5514 0.00758083
28.5734 43.1927 0.0325776
28.8955 39.8683 0.0909223
27.1838 44.8413 2
26.6698 40.6354 2
25.1587 43.1923 3.96826
23.9163 39.4267 3.96789
25.872 46.6928 0.0188703
23.915 45.2417 2
21.8509 43.97 3.9762
22.7476 47.1108 0.0207489
20.8831 45.9209 2
18.9523 44.9841 3.97418
19.9474 47.6388 0.0214402
18.2931 46.7537 2
16.605 46.2233 3.97595
17.6451 48.1927 0.0207819
16.3138 47.7252 2
14.9093 47.6783 3.97729
16.1223 48.6949 0.0203477
15.1789 49.0258 2
13.7755 49.5533 3.97718
15.8306 50.1826 0.0230959
14.4769 50.995 2
12.886 51.8806 3.97767
12.1344 54.5331 3.98018
13.8187 53.4444 2
15.3618 52.4287 0.0232399
11.5296 57.4634 3.98429
13.247 56.1768 2
14.8569 54.9897 0.0207608
11.1322 60.6297 3.99018
12.8456 59.1322 2
14.453 57.7494 0.017447
10.9835 64.0165 4
12.6775 62.3034 2
14.2638 60.6983 0.0148378
12.7745 65.694 2
14.3324 63.861 0.00783753
14.6715 67.2507 0
16.395 18.6419 3.98242
17.6636 17.1476 2
16.0996 15.7741 3.9839
18.9301 15.7728 0.0167406
17.5091 14.3645 2
16.0191 12.8038 3.98654
18.9776 13.1008 0.015038
17.6377 11.4498 2
16.2016 9.66152 3.99289
19.3419 10.2314 0.011141
18.0502 8.33851 2
16.6661 6.31991 4
18.75 5.02404 2
19.9903 7.14558 0.00673188
20.9142 3.86727 0
27.2882 34.7375 3.95869
28.8811 35.0994 2
30.2906 35.5302 0.0823975
16.6702 21.3664 3.97919
21.7773 17.8396 0.0174257
19.2369 18.3988 0.0172726
20.8688 19.3664 2
17.9714 19.9301 2
19.7116 21.5597 3.98444
22.2697 19.8802 0.0189203
24.5802 21.308 0.0171608
22.3445 21.7033 2
24.6739 23.1528 2
22.8185 24.5874 3.97622
24.4855 28.5116 3.96861
25.4134 25.933 2
26.3916 23.7073 0.0193557
26.0562 31.6891 3.99004
28.2044 32.2695 2
29.83 33.0036 0.0919902
30.0394 29.5059 0.0220862
26.9464 29.118 2
27.8288 26.5264 0.0274029
24.5945 36.8506 3.98108
26.7739 37.3552 2
28.5511 37.4907 0.0843153
27.18 44.8391 0.0207279
26.6751 40.6293 0.00360433
25.1566 43.1949 2
23.9142 39.4288 2
22.8972 41.8092 3.97834
21.6556 38.4969 3.97343
23.9156 45.2408 0.027123
21.8514 43.9717 2
19.6974 42.8959 3.9735
20.8818 45.9202 0.0219264
18.9523 44.985 2
16.9321 44.3882 3.972
18.2924 46.7527 0.0218625
16.6054 46.2241 2
14.8313 46.0972 3.97442
16.3132 47.7246 0.0207639
14.9098 47.679 2
13.284 48.0139 3.97615
15.1783 49.0253 0.0219195
13.776 49.5539 2
12.1061 50.2571 3.97729
14.4764 50.9946 0.0230567
12.8863 51.8812 2
11.1303 52.8402 3.97929
10.3199 55.7141 3.98323
12.1344 54.5338 2
13.8186 53.4439 0.0217992
9.69859 58.8518 3.98904
11.5295 57.464 2
13.2471 56.1763 0.018713
9.30605 62.2254 4
11.1319 60.6296 2
12.8455 59.1319 0.0149614
10.9835 64.0165 2
12.6777 62.3037 0.00886603
12.7746 65.6939 0
15.1389 20.1762 3.98054
16.395 18.6413 2
14.7446 17.2968 3.983
17.6636 17.1482 0.0173165
16.0996 15.7733 2
14.4814 14.2857 3.98555
17.5089 14.3652 0.01584
16.0193 12.8031 2
14.4443 11.1127 3.99238
17.6375 11.4503 0.0119613
16.2014 9.66157 2
14.6715 7.74927 4
18.0504 8.3384 0.00681405
16.6661 6.31988 2
18.75 5.0241 0
25.2383 34.2523 3.9875
27.2816 34.737 2
28.8936 35.1028 0.0905601
17.8418 22.3108 3.98517
15.5146 22.9103 3.97684
16.6701 21.3656 2
20.8687 19.3671 0.0174312
17.9713 19.9307 0.0182126
19.7117 21.5587 2
19.6419 24.3644 3.97878
22.3441 21.7046 0.0174966
24.6739 23.1529 0.0193118
22.8166 24.5855 2
21.8659 27.8057 3.96984
23.6491 31.1706 3.97132
24.4877 28.5111 2
25.4161 25.9351 0.0278067
26.0601 31.6848 2
28.214 32.2777 0.0415074
26.9416 29.1179 0.0157969
22.3718 36.2666 3.97671
24.5923 36.8507 2
26.7779 37.3503 0.0286382
25.1587 43.1923 0.0317364
23.9163 39.4267 0.0321123
22.8959 41.8106 2
21.6554 38.4975 2
20.6231 40.6315 3.97463
20.0129 37.7774 3.97517
21.8509 43.97 0.0238031
19.6974 42.8969 2
17.3246 42.1043 3.97412
18.9523 44.9841 0.0258232
16.9321 44.3889 2
14.8309 44.2056 3.97286
16.605 46.2233 0.0240487
14.8316 46.0979 2
12.9575 46.2994 3.97402
14.9093 47.6783 0.0227122
13.2844 48.0146 2
11.4789 48.5524 3.97609
13.7755 49.5533 0.0228187
12.1065 50.2577 2
10.2568 51.0821 3.97848
12.886 51.8806 0.0223288
11.1305 52.8409 2
9.22894 53.8908 3.98236
8.38208 56.9838 3.98803
10.3198 55.7147 2
12.1344 54.5331 0.0198192
7.74927 60.3285 4
9.69824 58.8516 2
11.5296 57.4634 0.0157115
9.306 62.2255 2
11.1322 60.6297 0.00981705
10.9835 64.0165 0
13.9506 21.7431 3.97879
15.1389 20.1754 2
13.4446 18.8937 3.98183
16.395 18.6419 0.0175826
14.7447 17.296 2
13.0265 15.8784 3.98492
16.0996 15.7741 0.016101
14.4815 14.2849 2
12.7816 12.6859 3.99155
16.0191 12.8038 0.0134639
14.4441 11.1127 2
12.7746 9.30605 4
16.2016 9.66152 0.00710762
14.6715 7.74924 2
16.6661 6.31991 0
22.9622 33.7874 3.97393
25.2329 34.2512 2
27.2882 34.7375 0.0413062
17.6094 24.0295 3.97882
17.8415 22.3099 2
14.2974 24.443 3.9752
15.5139 22.9092 2
16.6702 21.3664 0.0208127
19.0008 27.1856 3.9685
19.7116 21.5597 0.0155554
19.6404 24.3639 2
21.0973 30.6461 3.97159
22.8185 24.5874 0.0237838
21.8668 27.8052 2
23.6453 31.1706 2
24.4855 28.5116 0.0313857
26.0562 31.6891 0.00996144
20.1367 35.9138 3.97592
22.3694 36.2676 2
24.5945 36.8506 0.0189182
22.8972 41.8092 0.0216594
21.6556 38.4969 0.0265668
20.6221 40.6319 2
20.0115 37.7777 2
18.0028 39 3.97411
19.6974 42.8959 0.0265002
17.3245 42.105 2
14.7773 41.9208 3.97323
16.9321 44.3882 0.0279973
14.8309 44.2062 2
12.6964 44.395 3.9735
14.8313 46.0972 0.0255767
12.9577 46.3001 2
10.9819 46.7351 3.97438
13.284 48.0139 0.0238476
11.4792 48.5531 2
9.52123 49.2406 3.97721
12.1061 50.2571 0.022713
10.2572 51.0827 2
8.2623 52.0025 3.98147
11.1303 52.8402 0.0207061
9.22899 53.8913 2
7.19107 55.033 3.98749
6.31991 58.3339 4
8.38163 56.9831 2
10.3199 55.7141 0.0167734
7.74924 60.3285 2
9.69859 58.8518 0.0109649
9.30605 62.2254 0
13.219 25.3565 3.98057
12.818 23.2732 3.97733
13.9502 21.7419 2
12.2296 20.5431 3.98085
15.1389 20.1762 0.0194606
13.4446 18.8928 2
11.6559 17.5593 3.98463
14.7446 17.2968 0.0170009
13.0266 15.8778 2
11.219 14.3706 3.99041
14.4814 14.2857 0.0144482
12.7815 12.6859 2
10.9835 10.9835 4
14.4443 11.1127 0.00761731
12.7745 9.306 2
14.6715 7.74927 0
20.5201 33.381 3.97316
22.9606 33.7883 2
25.2383 34.2523 0.0125006
15.8834 26.3916 3.97232
17.6084 24.0286 2
17.8418 22.3108 0.0148313
14.2971 24.4425 2
15.5146 22.9103 0.0231627
18.3365 30.1581 3.97054
19.0011 27.1852 2
19.6419 24.3644 0.0212224
21.0942 30.6455 2
21.8659 27.8057 0.0301567
23.6491 31.1706 0.028677
17.6378 35.9581 3.97323
20.1347 35.914 2
22.3718 36.2666 0.0232946
20.6231 40.6315 0.0253736
20.0129 37.7774 0.0248269
18.0018 39.0002 2
14.2871 39.1751 3.97256
17.3246 42.1043 0.0258753
14.7772 41.9213 2
12.383 42.2787 3.97305
14.8309 44.2056 0.0271426
12.6964 44.3957 2
10.5585 44.8036 3.97422
12.9575 46.2994 0.0259764
10.9821 46.7357 2
8.90484 47.3187 3.9757
11.4789 48.5524 0.0239052
9.52159 49.2411 2
7.42995 50.0347 3.98019
10.2568 51.0821 0.0215209
8.26256 52.0028 2
6.13174 53.0067 3.98726
9.22894 53.8908 0.0176417
7.19066 55.0318 2
5.0241 56.25 4
6.31988 58.3339 2
8.38208 56.9838 0.0119716
7.74927 60.3285 0
13.4565 26.8073 3.97377
11.9327 24.7834 3.97639
13.2188 25.356 2
11.1329 22.2291 3.97935
12.8178 23.2724 2
13.9506 21.7431 0.0212133
12.2294 20.542 2
10.3858 19.3146 3.984
13.4446 18.8937 0.0181705
11.6559 17.5585 2
9.75971 16.1541 3.98928
13.0265 15.8784 0.0150787
11.2188 14.3706 2
9.30607 12.7746 4
12.7816 12.6859 0.00845445
10.9835 10.9835 2
12.7746 9.30605 0
17.8094 33.1007 3.97217
20.5186 33.3812 2
22.9622 33.7874 0.0260698
15.4704 29.6278 3.9722
15.8832 26.3914 2
17.6094 24.0295 0.0211811
14.2974 24.443 0.0248006
18.3356 30.158 2
19.0008 27.1856 0.0315034
21.0973 30.6461 0.0284054
14.8886 36.014 3.97197
17.636 35.958 2
20.1367 35.9138 0.0240776
12.5863 37.8272 3.97249
18.0028 39 0.025891
14.2863 39.1754 2
11.8988 40.1409 3.97213
14.7773 41.9208 0.0267704
12.383 42.2793 2
10.1575 42.7788 3.97367
12.6964 44.395 0.0264992
10.5586 44.8042 2
8.38279 45.3206 3.97548
10.9819 46.7351 0.0256201
8.9051 47.3193 2
6.72208 47.9992 3.97881
9.52123 49.2406 0.02279
7.43027 50.0349 2
5.20873 50.909 3.98699
8.2623 52.0025 0.018528
6.13153 53.0053 2
3.86727 54.0858 4
7.19107 55.033 0.0125106
5.02404 56.25 2
6.31991 58.3339 0
12.9118 29.0272 3.97075
11.3635 26.4841 3.97502
13.4564 26.8069 2
10.1932 23.9647 3.97746
11.9325 24.7828 2
13.219 25.3565 0.0194252
9.23814 21.1347 3.98259
11.1327 22.2281 2
12.818 23.2732 0.0226715
12.2296 20.5431 0.0191532
10.3856 19.3136 2
8.41545 18.0256 3.98844
11.6559 17.5593 0.0153709
9.75942 16.1541 2
7.74928 14.6715 4
11.219 14.3706 0.00958936
9.30602 12.7745 2
10.9835 10.9835 0
14.4636 32.856 3.97229
17.8106 33.1006 2
20.5201 33.381 0.0268359
15.4702 29.6277 2
15.8834 26.3916 0.0276754
18.3365 30.1581 0.0294595
12.8775 36.2063 3.97169
14.8878 36.014 2
17.6378 35.9581 0.0267693
12.5859 37.8271 2
11.2594 38.3084 3.97139
14.2871 39.1751 0.0274447
11.8984 40.1414 2
9.74475 40.7545 3.97266
12.383 42.2787 0.0269457
10.1574 42.7793 2
7.93192 43.2696 3.97504
10.5585 44.8036 0.0257759
8.38287 45.3211 2
6.12852 45.9042 3.97845
8.90484 47.3187 0.0243012
6.72232 47.9993 2
4.42067 48.7495 3.98655
7.42995 50.0347 0.0198127
5.20869 50.9079 2
2.85457 51.8506 4
6.13174 53.0067 0.0127397
3.86727 54.0858 2
5.0241 56.25 0
12.0533 31.252 3.97227
10.7765 28.4121 3.97325
12.9116 29.027 2
9.40899 25.7963 3.97627
11.3634 26.4837 2
13.4565 26.8073 0.0262291
8.22599 23.0215 3.98061
10.1932 23.964 2
11.9327 24.7834 0.0236128
7.19755 19.9765 3.98768
9.23807 21.1339 2
11.1329 22.2291 0.0206543
10.3858 19.3146 0.0160013
8.41499 18.026 2
6.31992 16.6661 4
9.75971 16.1541 0.0107169
7.74926 14.6714 2
9.30607 12.7746 0
12.0745 34.2919 3.97194
14.4636 32.8559 2
17.8094 33.1007 0.0278349
15.4704 29.6278 0.0277982
10.8235 36.6095 3.97138
12.8772 36.2062 2
14.8886 36.014 0.028034
12.5863 37.8272 0.0275138
11.2591 38.3084 2
9.34267 38.8226 3.97136
11.8988 40.1409 0.0278728
9.7445 40.7549 2
7.54461 41.2107 3.97406
10.1575 42.7788 0.0263269
7.93195 43.27 2
5.64057 43.7674 3.97846
8.38279 45.3206 0.0245158
6.12864 45.9044 2
3.76657 46.5357 3.98638
6.72208 47.9992 0.0211872
4.42069 48.7489 2
1.99014 49.554 4
5.20873 50.909 0.013005
2.85451 51.8506 2
3.86727 54.0858 0
10.9172 32.9165 3.97237
10.0902 30.3796 3.97321
12.0532 31.252 2
8.71766 27.7307 3.97521
10.7764 28.4119 2
12.9118 29.0272 0.0292542
7.3521 24.9818 3.97939
9.40899 25.7959 2
11.3635 26.4841 0.0249846
6.11467 22.0016 3.98681
8.22609 23.0211 2
10.1932 23.9647 0.0225354
5.02411 18.75 4
7.19711 19.9775 2
9.23814 21.1347 0.0174051
8.41545 18.0256 0.0115558
6.3199 16.6661 2
7.74928 14.6715 0
10.4332 34.9982 3.97173
12.0745 34.2917 2
14.4636 32.856 0.02771
9.01598 36.9839 3.97096
10.8238 36.6094 2
12.8775 36.2063 0.0283052
11.2594 38.3084 0.0286057
9.34249 38.8226 2
7.22766 39.181 3.97255
9.74475 40.7545 0.0273351
7.5445 41.211 2
5.2568 41.6132 3.9774
7.93192 43.2696 0.0249576
5.64061 43.7675 2
3.24445 44.2813 3.98615
6.12852 45.9042 0.0215473
3.76662 46.5356 2
1.27781 47.2057 4
4.42067 48.7495 0.0134462
1.99012 49.554 2
2.85457 51.8506 0
10.0849 33.8796 3.97299
9.38467 32.1525 3.97323
10.9171 32.9164 2
8.0676 29.6946 3.97465
10.0901 30.3795 2
12.0533 31.252 0.0277343
6.59624 27.0084 3.97853
8.71758 27.7305 2
10.7765 28.4121 0.0267471
5.17011 24.0955 3.98649
7.35221 24.9816 2
9.40899 25.7963 0.0237309
3.86728 20.9142 4
6.11443 22.0028 2
8.22599 23.0215 0.0193923
5.02406 18.75 2
7.19755 19.9765 0.0123177
6.31992 16.6661 0
8.84184 35.2782 3.9717
10.4333 34.9981 2
12.0745 34.2919 0.028056
7.01276 37.2049 3.97185
9.01607 36.9838 2
10.8235 36.6095 0.0286201
9.34267 38.8226 0.0286386
7.22755 39.1811 2
4.98619 39.4665 3.97565
7.54461 41.2107 0.0259401
5.25678 41.6133 2
2.8553 42.002 3.98522
5.64057 43.7674 0.0215375
3.24448 44.2816 2
0.720592 44.8159 4
3.76657 46.5357 0.0136205
1.27778 47.2057 2
1.99014 49.554 0
8.88235 33.6962 3.97286
10.0848 33.8795 2
7.50621 31.6085 3.97432
9.38457 32.1523 2
10.9172 32.9165 0.0276323
5.94193 29.0697 3.97791
8.06753 29.6945 2
10.0902 30.3796 0.0267945
4.35796 26.2484 3.9863
6.59626 27.0084 2
8.71766 27.7307 0.0247873
2.85458 23.1494 4
5.16999 24.0965 2
7.3521 24.9818 0.0206086
3.86728 20.9142 2
6.11467 22.0016 0.0131879
5.02411 18.75 0
6.96287 35.3054 3.97245
8.84189 35.2781 2
10.4332 34.9982 0.0282732
4.83715 37.3393 3.97513
7.01282 37.2049 2
9.01598 36.9839 0.0290393
7.22766 39.181 0.0274541
4.98613 39.4666 2
2.60396 39.7138 3.98357
5.2568 41.6132 0.0226032
2.85535 42.0025 2
0.320823 42.3947 4
3.24445 44.2813 0.0138455
0.720551 44.8159 2
1.27781 47.2057 0
7.12152 33.4604 3.97364
8.88228 33.6961 2
10.0849 33.8796 0.0270077
5.41357 31.1338 3.97737
7.50609 31.6084 2
9.38467 32.1525 0.0267704
3.67997 28.4442 3.98593
5.94191 29.0698 2
8.0676 29.6946 0.0253479
1.99015 25.446 4
4.35788 26.249 2
6.59624 27.0084 0.0214731
2.85453 23.1494 2
5.17011 24.0955 0.0135143
3.86728 20.9142 0
4.85146 35.2514 3.9754
6.9629 35.3054 2
8.84184 35.2782 0.0282953
2.49562 37.4285 3.98312
4.83719 37.3394 2
7.01276 37.2049 0.0281454
4.98619 39.4665 0.0243501
2.60398 39.7144 2
0.080333 39.9526 4
2.8553 42.002 0.0147798
0.320817 42.3947 2
0.720592 44.8159 0
5.04402 33.1904 3.97649
7.12144 33.4603 2
8.88235 33.6962 0.027144
3.14466 30.6665 3.98509
5.41346 31.1339 2
7.50621 31.6085 0.0256781
1.27793 27.7943 4
3.67995 28.4444 2
5.94193 29.0697 0.0220895
1.99013 25.446 2
4.35796 26.2484 0.013696
2.85458 23.1494 0
2.54778 35.159 3.98319
4.85147 35.2516 2
6.96287 35.3054 0.0275467
0 37.5 4
2.49572 37.429 2
4.83715 37.3393 0.024868
2.60396 39.7138 0.0164306
0.0802903 39.9526 2
0.320823 42.3947 0
2.7651 32.9058 3.984
5.04393 33.1906 2
7.12152 33.4604 0.026355
0.721173 30.1842 4
3.14462 30.6666 2
5.41357 31.1338 0.0226301
1.27779 27.7943 2
3.67997 28.4442 0.014068
1.99015 25.446 0
0.0806499 35.0474 4
2.54784 35.1595 2
4.85146 35.2514 0.0246013
0 37.5 2
2.49562 37.4285 0.0168826
0.080333 39.9526 0
0.32156 32.6054 4
2.76509 32.9061 2
5.04402 33.1904 0.0235071
0.72056 30.1841 2
3.14466 30.6665 0.0149146
1.27793 27.7943 0
0.0802889 35.0474 2
2.54778 35.159 0.0168072
0 37.5 0
0.320817 32.6053 2
2.7651 32.9058 0.0159959
0.721173 30.1842 0
0.0806499 35.0474 0
0.32156 32.6054 0
CELLS 1910 17190
8 18 6 25 56 2 0 5 16
8 57 23 6 18 17 4 0 2
8 78 36 9 29 31 11 1 7
8 31 11 1 7 79 37 10 30
8 110 57 18 50 48 17 2 14
8 50 18 56 111 14 2 16 49
8 116 62 22 55 52 20 3 15
8 56 25 67 118 16 5 24 53
8 119 63 23 57 54 21 4 17
8 55 22 63 119 15 3 21 54
8 58 26 68 121 18 6 25 56
8 122 65 26 58 57 23 6 18
8 73 31 7 27 142 79 30 71
8 143 78 29 72 73 31 7 27
8 83 147 76 34 32 74 28 8
8 84 148 78 36 33 75 29 9
8 76 34 8 28 148 84 33 75
8 37 79 150 86 10 30 77 35
8 151 87 36 78 80 38 11 31
8 80 38 11 31 152 88 37 79
8 175 100 42 94 96 44 12 40
8 44 96 176 101 12 40 95 43
8 101 176 98 46 43 95 41 13
8 46 98 178 103 13 41 97 45
8 178 103 45 97 147 83 32 74
8 189 116 55 109 106 52 15 47
8 111 56 118 191 49 16 53 107
8 192 119 57 110 108 54 17 48
8 109 55 119 192 47 15 54 108
8 194 122 58 112 110 57 18 50
8 112 58 121 195 50 18 56 111
8 115 61 19 51 197 124 59 113
8 115 61 125 198 51 19 60 114
8 198 125 62 116 114 60 20 52
8 200 127 64 120 116 62 22 55
8 118 67 132 202 53 24 66 117
8 121 68 133 203 56 25 67 118
8 120 64 128 204 55 22 63 119
8 204 128 65 122 119 63 23 57
8 206 134 68 121 123 69 26 58
8 123 69 26 58 207 131 65 122
8 226 147 74 138 140 76 28 70
8 229 148 75 139 143 78 29 72
8 140 76 28 70 229 148 75 139
8 142 79 30 71 231 150 77 141
8 144 80 31 73 232 152 79 142
8 233 151 78 143 144 80 31 73
8 150 86 35 77 235 154 81 145
8 235 154 81 145 146 82 39 91
8 146 82 39 91 236 155 90 165
8 238 157 83 147 149 85 34 76
8 239 158 84 148 151 87 36 78
8 149 85 34 76 239 158 84 148
8 152 88 37 79 241 160 86 150
8 242 161 87 151 153 89 38 80
8 153 89 38 80 243 162 88 152
8 171 98 41 92 265 178 97 169
8 265 178 97 169 226 147 74 138
8 172 96 40 93 266 176 95 170
8 266 176 95 170 171 98 41 92
8 269 175 94 173 172 96 40 93
8 271 180 99 174 175 100 42 94
8 197 124 59 113 271 180 99 174
8 272 181 100 175 177 102 44 96
8 273 182 101 176 179 104 46 98
8 177 102 44 96 273 182 101 176
8 179 104 46 98 275 184 103 178
8 275 184 103 178 238 157 83 147
8 188 115 51 105 283 197 113 186
8 188 115 198 284 105 51 114 187
8 284 198 116 189 187 114 52 106
8 286 200 120 193 189 116 55 109
8 191 118 202 288 107 53 117 190
8 195 121 203 289 111 56 118 191
8 193 120 204 290 109 55 119 192
8 290 204 122 194 192 119 57 110
8 196 123 58 112 292 207 122 194
8 293 206 121 195 196 123 58 112
8 199 126 61 115 297 211 124 197
8 298 212 127 200 198 125 62 116
8 199 126 212 298 115 61 125 198
8 205 129 64 120 300 214 127 200
8 301 217 130 201 202 132 66 117
8 209 136 168 264 301 217 130 201
8 302 219 132 202 203 133 67 118
8 303 220 133 203 206 134 68 121
8 205 129 215 304 120 64 128 204
8 304 215 131 207 204 128 65 122
8 306 221 134 206 208 135 69 123
8 208 135 69 123 307 218 131 207
8 210 137 167 263 309 223 136 209
8 328 238 147 226 230 149 76 140
8 228 146 91 166 329 236 165 260
8 231 150 77 141 330 235 145 227
8 330 235 145 227 228 146 91 166
8 332 239 148 229 233 151 78 143
8 230 149 76 140 332 239 148 229
8 232 152 79 142 334 241 150 231
8 234 153 80 144 335 243 152 232
8 336 242 151 233 234 153 80 144
8 236 155 90 165 338 245 164 259
8 241 160 86 150 339 246 154 235
8 339 246 154 235 237 156 82 146
8 237 156 82 146 340 247 155 236
8 342 249 157 238 240 159 85 149
8 343 250 158 239 242 161 87 151
8 240 159 85 149 343 250 158 239
8 243 162 88 152 345 252 160 241
8 244 163 253 346 153 89 161 242
8 244 163 89 153 347 254 162 243
8 311 224 261 371 210 137 167 263
8 263 167 262 372 209 136 168 264
8 267 179 98 171 375 275 178 265
8 375 275 178 265 328 238 147 226
8 376 273 176 266 267 179 98 171
8 268 177 96 172 376 273 176 266
8 379 272 175 269 268 177 96 172
8 380 271 174 270 269 175 94 173
8 283 197 113 186 380 271 174 270
8 381 277 180 271 272 181 100 175
8 297 211 124 197 381 277 180 271
8 382 278 181 272 274 183 102 177
8 274 183 102 177 383 279 182 273
8 383 279 182 273 276 185 104 179
8 385 281 184 275 342 249 157 238
8 276 185 104 179 385 281 184 275
8 285 199 115 188 393 297 197 283
8 394 298 200 286 284 198 116 189
8 285 199 298 394 188 115 198 284
8 291 205 120 193 396 300 200 286
8 397 301 201 287 288 202 117 190
8 295 209 264 374 397 301 201 287
8 398 302 202 288 289 203 118 191
8 399 303 203 289 293 206 121 195
8 291 205 304 400 193 120 204 290
8 400 304 207 292 290 204 122 194
8 294 208 123 196 402 307 207 292
8 403 306 206 293 294 208 123 196
8 296 210 263 373 405 309 209 295
8 408 312 213 299 297 211 126 199
8 299 213 313 409 199 126 212 298
8 409 313 214 300 298 212 127 200
8 305 216 129 205 411 315 214 300
8 412 318 217 301 302 219 132 202
8 309 223 136 209 412 318 217 301
8 413 320 219 302 303 220 133 203
8 306 221 321 414 206 134 220 303
8 307 218 131 207 415 316 215 304
8 305 216 316 415 205 129 215 304
8 417 322 221 306 308 222 135 208
8 308 222 135 208 418 319 218 307
8 310 225 137 210 420 325 223 309
8 423 326 224 311 310 225 137 210
8 329 236 165 260 441 338 259 368
8 442 342 238 328 333 240 149 230
8 331 237 146 228 443 340 236 329
8 334 241 150 231 444 339 235 330
8 444 339 235 330 331 237 146 228
8 446 343 239 332 336 242 151 233
8 333 240 149 230 446 343 239 332
8 335 243 152 232 448 345 241 334
8 337 244 153 234 449 347 243 335
8 337 244 346 450 234 153 242 336
8 338 245 164 259 452 349 258 367
8 340 247 155 236 453 350 245 338
8 345 252 160 241 454 351 246 339
8 454 351 246 339 341 248 156 237
8 341 248 156 237 455 352 247 340
8 240 159 251 344 342 249 354 457
8 242 161 253 346 343 250 355 458
8 343 250 355 458 240 159 251 344
8 347 254 162 243 460 357 252 345
8 348 255 358 461 244 163 253 346
8 348 255 163 244 462 359 254 347
8 473 360 257 365 363 256 364 482
8 452 349 258 367 365 257 366 485
8 422 324 369 488 311 224 261 371
8 371 261 370 490 263 167 262 372
8 407 311 371 491 296 210 263 373
8 373 263 372 492 295 209 264 374
8 493 385 275 375 442 342 238 328
8 377 276 179 267 493 385 275 375
8 378 274 177 268 494 383 273 376
8 494 383 273 376 377 276 179 267
8 497 382 272 379 378 274 177 268
8 498 381 271 380 379 272 175 269
8 393 297 197 283 498 381 271 380
8 499 387 277 381 382 278 181 272
8 408 312 211 297 499 387 277 381
8 500 388 278 382 384 280 183 274
8 501 389 279 383 386 282 185 276
8 384 280 183 274 501 389 279 383
8 386 282 185 276 503 391 281 385
8 503 391 281 385 457 354 249 342
8 511 408 299 395 393 297 199 285
8 395 299 409 512 285 199 298 394
8 512 409 300 396 394 298 200 286
8 401 305 205 291 514 411 300 396
8 515 412 301 397 398 302 202 288
8 405 309 209 295 515 412 301 397
8 516 413 302 398 399 303 203 289
8 403 306 414 517 293 206 303 399
8 402 307 207 292 518 415 304 400
8 401 305 415 518 291 205 304 400
8 404 308 208 294 520 418 307 402
8 521 417 306 403 404 308 208 294
8 406 310 210 296 523 420 309 405
8 526 423 311 407 406 310 210 296
8 410 314 213 299 527 424 312 408
8 528 425 315 411 409 313 214 300
8 410 314 425 528 299 213 313 409
8 416 317 216 305 530 427 315 411
8 531 430 318 412 413 320 219 302
8 420 325 223 309 531 430 318 412
8 532 432 320 413 414 321 220 303
8 417 322 433 533 306 221 321 414
8 418 319 218 307 534 428 316 415
8 416 317 428 534 305 216 316 415
8 419 323 434 536 308 222 322 417
8 419 323 222 308 537 431 319 418
8 421 327 225 310 539 438 325 420
8 421 327 439 541 310 225 326 423
8 543 437 324 422 423 326 224 311
8 441 338 259 368 559 452 367 486
8 443 340 236 329 560 453 338 441
8 333 240 344 447 442 342 457 561
8 445 341 237 331 562 455 340 443
8 448 345 241 334 563 454 339 444
8 563 454 339 444 445 341 237 331
8 336 242 346 450 446 343 458 565
8 446 343 458 565 333 240 344 447
8 449 347 243 335 567 460 345 448
8 451 348 244 337 568 462 347 449
8 451 348 461 569 337 244 346 450
8 570 463 349 452 473 360 257 365
8 453 350 245 338 570 463 349 452
8 455 352 247 340 571 464 350 453
8 460 357 252 345 572 465 351 454
8 572 465 351 454 456 353 248 341
8 456 353 248 341 573 466 352 455
8 344 251 356 459 457 354 468 575
8 458 355 469 576 344 251 356 459
8 346 253 358 461 458 355 469 576
8 462 359 254 347 578 471 357 460
8 348 255 359 462 461 358 472 579
8 591 474 360 473 475 361 256 363
8 475 361 256 363 594 477 362 479
8 363 256 364 482 479 362 480 603
8 590 473 365 484 481 363 482 605
8 482 364 257 365 606 483 366 485
8 559 452 367 486 484 365 485 607
8 542 436 487 609 422 324 369 488
8 525 422 488 611 407 311 371 491
8 488 369 489 612 371 261 370 490
8 491 371 490 613 373 263 372 492
8 495 386 276 377 614 503 385 493
8 614 503 385 493 561 457 342 442
8 615 501 383 494 495 386 276 377
8 496 384 274 378 615 501 383 494
8 618 500 382 497 496 384 274 378
8 619 499 381 498 497 382 272 379
8 511 408 297 393 619 499 381 498
8 620 505 387 499 500 388 278 382
8 527 424 312 408 620 505 387 499
8 502 390 506 621 384 280 388 500
8 622 507 389 501 504 392 282 386
8 502 390 280 384 622 507 389 501
8 504 392 282 386 624 509 391 503
8 624 509 391 503 575 468 354 457
8 513 410 299 395 630 527 408 511
8 631 528 411 514 512 409 300 396
8 513 410 528 631 395 299 409 512
8 519 416 305 401 633 530 411 514
8 634 531 412 515 516 413 302 398
8 523 420 309 405 634 531 412 515
8 635 532 413 516 517 414 303 399
8 521 417 533 636 403 306 414 517
8 520 418 307 402 637 534 415 518
8 519 416 534 637 401 305 415 518
8 522 419 308 404 639 537 418 520
8 522 419 536 640 404 308 417 521
8 524 421 310 406 642 539 420 523
8 524 421 541 644 406 310 423 526
8 646 543 422 525 526 423 311 407
8 529 426 314 410 647 544 424 527
8 528 425 545 648 411 315 427 530
8 529 426 545 648 410 314 425 528
8 535 429 317 416 649 546 427 530
8 650 548 430 531 532 432 320 413
8 539 438 325 420 650 548 430 531
8 533 433 550 651 414 321 432 532
8 536 434 551 652 417 322 433 533
8 537 431 319 418 653 547 428 534
8 535 429 547 653 416 317 428 534
8 538 435 552 654 419 323 434 536
8 538 435 323 419 655 549 431 537
8 540 440 327 421 657 556 438 539
8 540 440 557 659 421 327 439 541
8 541 439 555 660 423 326 437 543
8 661 554 436 542 543 437 324 422
8 676 570 452 559 590 473 365 484
8 560 453 338 441 676 570 452 559
8 562 455 340 443 677 571 453 560
8 447 344 459 566 561 457 575 678
8 564 456 341 445 679 573 455 562
8 567 460 345 448 680 572 454 563
8 680 572 454 563 564 456 341 445
8 565 458 576 682 447 344 459 566
8 450 346 461 569 565 458 576 682
8 568 462 347 449 684 578 460 567
8 451 348 462 568 569 461 579 685
8 686 580 463 570 591 474 360 473
8 571 464 350 453 686 580 463 570
8 573 466 352 455 687 581 464 571
8 572 465 582 688 460 357 471 578
8 574 467 582 688 456 353 465 572
8 574 467 353 456 689 583 466 573
8 459 356 470 577 575 468 585 691
8 576 469 586 692 459 356 470 577
8 461 358 472 579 576 469 586 692
8 462 359 471 578 579 472 588 694
8 704 591 473 590 593 475 363 481
8 595 476 592 705 475 361 474 591
8 593 475 363 481 707 594 479 602
8 594 477 362 479 709 598 478 600
8 595 476 361 475 711 597 477 594
8 479 362 480 603 600 478 601 720
8 481 363 482 605 602 479 603 722
8 603 480 364 482 723 604 483 606
8 605 482 365 484 724 606 485 607
8 656 553 608 726 542 436 487 609
8 645 542 609 728 525 422 488 611
8 609 487 610 729 488 369 489 612
8 611 488 612 730 491 371 490 613
8 616 504 386 495 731 624 503 614
8 731 624 503 614 678 575 457 561
8 732 622 501 615 616 504 386 495
8 617 502 384 496 732 622 501 615
8 617 502 621 735 496 384 500 618
8 736 620 499 619 618 500 382 497
8 630 527 408 511 736 620 499 619
8 621 506 626 737 500 388 505 620
8 647 544 424 527 737 626 505 620
8 623 508 627 738 502 390 506 621
8 623 508 390 502 739 628 507 622
8 625 510 628 739 504 392 507 622
8 740 629 509 624 691 585 468 575
8 625 510 392 504 740 629 509 624
8 632 529 410 513 744 647 527 630
8 631 528 648 745 514 411 530 633
8 632 529 648 745 513 410 528 631
8 638 535 416 519 746 649 530 633
8 747 650 531 634 635 532 413 516
8 642 539 420 523 747 650 531 634
8 636 533 651 748 517 414 532 635
8 640 536 652 749 521 417 533 636
8 639 537 418 520 750 653 534 637
8 638 535 653 750 519 416 534 637
8 641 538 419 522 751 655 537 639
8 641 538 654 752 522 419 536 640
8 643 540 421 524 753 657 539 642
8 643 540 659 755 524 421 541 644
8 644 541 660 757 526 423 543 646
8 758 661 542 645 646 543 422 525
8 529 426 544 647 648 545 662 759
8 530 427 545 648 649 546 663 760
8 535 429 546 649 653 547 664 761
8 762 666 548 650 651 550 432 532
8 657 556 438 539 762 666 548 650
8 652 551 668 763 533 433 550 651
8 654 552 669 764 536 434 551 652
8 655 549 431 537 765 665 547 653
8 538 435 549 655 654 552 667 766
8 661 554 671 768 542 436 553 656
8 658 558 440 540 769 674 556 657
8 658 558 675 770 540 440 557 659
8 659 557 673 771 541 439 555 660
8 660 555 672 772 543 437 554 661
8 788 686 570 676 704 591 473 590
8 677 571 453 560 788 686 570 676
8 679 573 455 562 789 687 571 677
8 566 459 577 683 678 575 691 790
8 681 574 456 564 791 689 573 679
8 680 572 688 792 567 460 578 684
8 681 574 688 792 564 456 572 680
8 682 576 692 794 566 459 577 683
8 569 461 579 685 682 576 692 794
8 568 462 578 684 685 579 694 796
8 687 581 464 571 798 696 580 686
8 798 696 580 686 705 592 474 591
8 689 583 466 573 799 697 581 687
8 688 582 698 800 578 471 588 694
8 690 584 698 800 574 467 582 688
8 690 584 467 574 801 699 583 689
8 693 587 701 803 577 470 585 691
8 693 587 470 577 804 702 586 692
8 695 589 702 804 579 472 586 692
8 695 589 472 579 805 703 588 694
8 708 595 705 813 593 475 591 704
8 710 596 706 814 595 476 592 705
8 707 594 479 602 816 709 600 719
8 708 595 475 593 817 711 594 707
8 709 598 478 600 819 715 599 717
8 711 597 477 594 820 714 598 709
8 710 596 476 595 822 713 597 711
8 600 478 601 720 717 599 718 832
8 602 479 603 722 719 600 720 834
8 720 601 480 603 835 721 604 723
8 722 603 482 605 836 723 606 724
8 767 670 725 839 656 553 608 726
8 756 656 726 841 645 542 609 728
8 726 608 727 842 609 487 610 729
8 728 609 729 843 611 488 612 730
8 844 740 624 731 790 691 575 678
8 733 625 504 616 844 740 624 731
8 734 623 502 617 845 739 622 732
8 733 625 739 845 616 504 622 732
8 734 623 738 846 617 502 621 735
8 735 621 737 847 618 500 620 736
8 744 647 527 630 847 737 620 736
8 621 506 627 738 737 626 741 848
8 647 544 626 737 759 662 741 848
8 623 508 628 739 738 627 742 849
8 740 629 585 691 850 743 700 802
8 625 510 629 740 739 628 743 850
8 632 529 647 744 745 648 759 854
8 633 530 648 745 746 649 760 855
8 638 535 649 746 750 653 761 856
8 857 762 650 747 748 651 532 635
8 753 657 539 642 857 762 650 747
8 749 652 763 858 636 533 651 748
8 752 654 764 859 640 536 652 749
8 751 655 537 639 860 765 653 750
8 641 538 655 751 752 654 766 861
8 754 658 540 643 862 769 657 753
8 754 658 770 863 643 540 659 755
8 755 659 771 864 644 541 660 757
8 758 661 768 866 645 542 656 756
8 757 660 772 867 646 543 661 758
8 759 662 773 868 648 545 663 760
8 649 546 663 760 761 664 774 871
8 765 665 547 653 872 775 664 761
8 873 777 666 762 763 668 550 651
8 769 674 556 657 873 777 666 762
8 764 669 779 874 652 551 668 763
8 654 552 667 766 764 669 778 875
8 655 549 665 765 766 667 776 876
8 768 671 782 877 656 553 670 767
8 772 672 783 878 661 554 671 768
8 658 558 674 769 770 675 786 879
8 659 557 675 770 771 673 785 881
8 882 784 672 772 771 673 555 660
8 789 687 571 677 897 798 686 788
8 897 798 686 788 813 705 591 704
8 791 689 573 679 898 799 687 789
8 795 693 803 900 683 577 691 790
8 793 690 574 681 901 801 689 791
8 792 688 800 902 684 578 694 796
8 793 690 800 902 681 574 688 792
8 795 693 577 683 903 804 692 794
8 797 695 804 903 685 579 692 794
8 797 695 579 685 904 805 694 796
8 905 806 697 799 798 696 581 687
8 814 706 806 905 705 592 696 798
8 689 583 697 799 801 699 808 907
8 800 698 809 908 694 588 703 805
8 690 584 699 801 800 698 809 908
8 803 701 810 909 691 585 700 802
8 693 587 702 804 803 701 811 910
8 695 589 703 805 804 702 812 911
8 818 710 814 919 708 595 705 813
8 821 712 815 920 710 596 706 814
8 816 709 600 719 922 819 717 831
8 817 711 594 707 923 820 709 816
8 818 710 595 708 924 822 711 817
8 819 715 599 717 926 827 716 829
8 820 714 598 709 927 826 715 819
8 929 825 713 822 820 714 597 711
8 821 712 596 710 930 824 713 822
8 717 599 718 832 829 716 830 942
8 719 600 720 834 831 717 832 944
8 832 718 601 720 945 833 721 835
8 834 720 603 722 946 835 723 836
8 869 780 838 950 767 670 725 839
8 865 767 839 952 756 656 726 841
8 839 725 840 953 726 608 727 842
8 841 726 842 954 728 609 729 843
8 844 740 691 790 955 850 802 899
8 733 625 740 844 845 739 850 955
8 734 623 739 845 846 738 849 956
8 735 621 738 846 847 737 848 957
8 744 647 737 847 854 759 848 957
8 738 627 742 849 848 741 851 958
8 848 741 851 958 759 662 773 868
8 850 743 700 802 959 852 807 906
8 849 742 628 739 959 852 743 850
8 854 759 868 965 745 648 760 855
8 746 649 760 855 856 761 871 966
8 860 765 653 750 967 872 761 856
8 968 873 762 857 858 763 651 748
8 862 769 657 753 968 873 762 857
8 859 764 874 969 749 652 763 858
8 752 654 766 861 859 764 875 970
8 751 655 765 860 861 766 876 971
8 754 658 769 862 863 770 879 972
8 755 659 770 863 864 771 881 974
8 976 882 772 867 864 771 660 757
8 866 768 877 977 756 656 767 865
8 867 772 878 978 758 661 768 866
8 760 663 773 868 871 774 883 980
8 870 781 837 948 982 890 780 869
8 982 890 780 869 877 782 670 767
8 761 664 774 871 872 775 884 984
8 876 776 665 765 985 885 775 872
8 873 777 668 763 986 887 779 874
8 769 674 777 873 879 786 887 986
8 764 669 778 875 874 779 888 987
8 766 667 776 876 875 778 886 988
8 878 783 892 989 768 671 782 877
8 878 783 672 772 990 893 784 882
8 880 787 675 770 991 896 786 879
8 880 787 895 992 770 675 785 881
8 881 785 894 993 771 673 784 882
8 1006 905 799 898 897 798 687 789
8 919 814 905 1006 813 705 798 897
8 791 689 799 898 901 801 907 1007
8 900 803 909 1009 790 691 802 899
8 795 693 804 903 900 803 910 1010
8 902 800 908 1011 796 694 805 904
8 793 690 801 901 902 800 908 1011
8 797 695 805 904 903 804 911 1012
8 799 697 806 905 907 808 912 1013
8 920 815 912 1013 814 706 806 905
8 802 700 810 909 906 807 913 1014
8 801 699 808 907 908 809 914 1015
8 805 703 809 908 911 812 915 1016
8 803 701 811 910 909 810 916 1017
8 911 812 917 1018 804 702 811 910
8 925 821 920 1030 818 710 814 919
8 928 823 921 1031 821 712 815 920
8 922 819 717 831 1033 926 829 941
8 923 820 709 816 1034 927 819 922
8 1035 929 822 924 923 820 711 817
8 925 821 710 818 1036 930 822 924
8 1038 933 825 929 927 826 714 820
8 926 827 716 829 1039 935 828 939
8 927 826 715 819 1040 934 827 926
8 928 823 712 821 1041 931 824 930
8 1042 932 824 930 929 825 713 822
8 829 716 830 942 939 828 940 1058
8 831 717 832 944 941 829 942 1060
8 942 830 718 832 1061 943 833 945
8 944 832 720 834 1062 945 835 946
8 981 889 947 1064 870 781 837 948
8 948 837 949 1067 869 780 838 950
8 975 869 950 1069 865 767 839 952
8 950 838 951 1070 839 725 840 953
8 952 839 953 1071 841 726 842 954
8 955 850 802 899 1072 959 906 1008
8 956 849 739 845 1072 959 850 955
8 846 738 849 956 957 848 958 1073
8 957 848 958 1073 854 759 868 965
8 849 742 852 959 958 851 961 1076
8 960 853 961 1076 906 807 852 959
8 958 851 961 1076 868 773 883 980
8 960 853 807 906 1077 963 913 1014
8 855 760 868 965 966 871 980 1085
8 856 761 871 966 967 872 984 1086
8 971 876 765 860 1087 985 872 967
8 968 873 763 858 1088 986 874 969
8 862 769 873 968 972 879 986 1088
8 859 764 875 970 969 874 987 1089
8 861 766 876 971 970 875 988 1090
8 973 880 770 863 1091 991 879 972
8 973 880 992 1092 863 770 881 974
8 974 881 993 1093 864 771 882 976
8 979 870 948 1066 1094 982 869 975
8 1094 982 869 975 977 877 767 865
8 978 878 772 867 1095 990 882 976
8 978 878 989 1096 866 768 877 977
8 871 774 883 980 984 884 994 1099
8 983 891 999 1100 870 781 889 981
8 1101 1000 890 982 989 892 782 877
8 983 891 781 870 1101 1000 890 982
8 872 775 884 984 985 885 995 1103
8 876 776 885 985 988 886 996 1104
8 986 887 779 874 1105 998 888 987
8 879 786 887 986 991 896 998 1105
8 875 778 886 988 987 888 997 1106
8 990 893 1002 1107 878 783 892 989
8 1108 1003 893 990 993 894 784 882
8 880 787 896 991 992 895 1005 1109
8 993 894 785 881 1110 1004 895 992
8 898 799 905 1006 1007 907 1013 1120
8 1030 920 1013 1120 919 814 905 1006
8 901 801 907 1007 1011 908 1015 1121
8 899 802 909 1009 1008 906 1014 1122
8 900 803 910 1010 1009 909 1017 1123
8 1012 911 1018 1124 903 804 910 1010
8 904 805 908 1011 1012 911 1016 1125
8 1013 912 1020 1127 907 808 914 1015
8 1031 921 1020 1127 920 815 912 1013
8 1019 918 962 1075 1128 1021 913 1014
8 1128 1021 913 1014 1017 916 810 909
8 1015 914 1022 1129 908 809 915 1016
8 1016 915 1023 1130 911 812 917 1018
8 1018 917 1024 1131 910 811 916 1017
8 1037 928 1031 1148 925 821 920 1030
8 928 823 931 1041 1031 921 1032 1149
8 1033 926 829 941 1151 1039 939 1057
8 1034 927 819 922 1152 1040 926 1033
8 1153 1038 929 1035 1034 927 820 923
8 1154 1042 930 1036 1035 929 822 924
8 1037 928 821 925 1155 1041 930 1036
8 1039 935 828 939 1156 1047 938 1055
8 1157 1043 932 1042 1038 933 825 929
8 1038 933 826 927 1158 1045 934 1040
8 1040 934 827 926 1159 1046 935 1039
8 930 824 932 1042 1041 931 1044 1160
8 1051 936 1048 1165 1175 1052 937 1053
8 1156 1047 938 1055 1053 937 1054 1178
8 939 828 940 1058 1055 938 1056 1181
8 941 829 942 1060 1057 939 1058 1183
8 942 830 943 1061 1058 940 1059 1184
8 1060 942 832 944 1185 1061 945 1062
8 1082 964 1063 1188 981 889 947 1064
8 1097 981 1064 1190 979 870 948 1066
8 1064 947 1065 1191 948 837 949 1067
8 1066 948 1067 1193 975 869 950 1069
8 1067 949 1068 1194 950 838 951 1070
8 1069 950 1070 1195 952 839 953 1071
8 956 849 959 1072 1073 958 1076 1197
8 1074 960 1076 1197 1008 906 959 1072
8 1073 958 1076 1197 965 868 980 1085
8 1074 960 906 1008 1198 1077 1014 1122
8 1133 1026 1079 1199 1019 918 962 1075
8 1077 963 913 1014 1200 1080 962 1075
8 960 853 963 1077 1076 961 1078 1201
8 980 883 961 1076 1099 994 1078 1201
8 1210 1083 964 1082 1100 999 889 981
8 966 871 980 1085 1086 984 1099 1215
8 967 872 984 1086 1087 985 1103 1216
8 971 876 985 1087 1090 988 1104 1217
8 1088 986 874 969 1218 1105 987 1089
8 972 879 986 1088 1091 991 1105 1218
8 970 875 988 1090 1089 987 1106 1219
8 973 880 991 1091 1092 992 1109 1220
8 1093 993 881 974 1221 1110 992 1092
8 1222 1108 990 1095 1093 993 882 976
8 1223 1101 982 1094 1096 989 877 977
8 1098 983 870 979 1223 1101 982 1094
8 1095 990 1107 1224 978 878 989 1096
8 1098 983 1100 1225 979 870 981 1097
8 984 884 994 1099 1103 995 1111 1227
8 1102 1001 1115 1228 983 891 999 1100
8 1101 1000 892 989 1229 1116 1002 1107
8 1102 1001 891 983 1229 1116 1000 1101
8 985 885 995 1103 1104 996 1112 1230
8 988 886 996 1104 1106 997 1113 1231
8 1105 998 888 987 1232 1114 997 1106
8 991 896 998 1105 1109 1005 1114 1232
8 1108 1003 1117 1233 990 893 1002 1107
8 1108 1003 894 993 1233 1117 1004 1110
8 992 895 1005 1109 1110 1004 1118 1234
8 1120 1013 1127 1244 1007 907 1015 1121
8 1148 1031 1127 1244 1030 920 1013 1120
8 1121 1015 1129 1245 1011 908 1016 1125
8 1126 1019 1075 1196 1246 1128 1014 1122
8 1246 1128 1014 1122 1123 1017 909 1009
8 1124 1018 1131 1247 1010 910 1017 1123
8 1125 1016 1130 1248 1012 911 1018 1124
8 1127 1020 1137 1254 1015 914 1022 1129
8 1031 921 1032 1149 1127 1020 1137 1254
8 1134 1027 918 1019 1257 1140 1021 1128
8 1257 1140 1021 1128 1131 1024 916 1017
8 1129 1022 1141 1258 1016 915 1023 1130
8 1130 1023 1142 1259 1018 917 1024 1131
8 1261 1144 1025 1132 1133 1026 1079 1199
8 1255 1138 1025 1132 1135 1028 1144 1261
8 1133 1026 918 1019 1262 1145 1027 1134
8 1136 1029 1139 1256 1263 1146 1028 1135
8 1037 928 1041 1155 1148 1031 1149 1275
8 1041 931 1044 1160 1149 1032 1150 1276
8 1151 1039 939 1057 1278 1156 1055 1180
8 1152 1040 926 1033 1279 1159 1039 1151
8 1153 1038 927 1034 1280 1158 1040 1152
8 1281 1157 1042 1154 1153 1038 929 1035
8 1036 930 1042 1154 1155 1041 1160 1282
8 1283 1164 1046 1159 1156 1047 935 1039
8 1165 1048 1164 1283 1053 937 1047 1156
8 1157 1043 933 1038 1284 1161 1045 1158
8 1157 1043 1161 1284 1042 932 1044 1160
8 1040 934 1046 1159 1158 1045 1163 1285
8 1166 1049 1167 1292 1051 936 1048 1165
8 1166 1049 936 1051 1293 1168 1050 1172
8 1051 936 1052 1175 1172 1050 1173 1306
8 1174 1051 1165 1290 1308 1175 1053 1177
8 1053 937 1054 1178 1175 1052 1176 1309
8 1278 1156 1055 1180 1177 1053 1178 1311
8 1055 938 1056 1181 1178 1054 1179 1312
8 1057 939 1058 1183 1180 1055 1181 1314
8 1058 940 1059 1184 1181 1056 1182 1315
8 1060 942 1061 1185 1183 1058 1184 1316
8 1208 1081 1187 1321 1082 964 1063 1188
8 1209 1082 1188 1322 1097 981 1064 1190
8 1188 1063 1189 1323 1064 947 1065 1191
8 1190 1064 1191 1325 1066 948 1067 1193
8 1191 1065 1192 1326 1067 949 1068 1194
8 1067 1193 1069 950 1194 1327 1195 1070
8 1250 1133 1199 1330 1126 1019 1075 1196
8 1198 1077 1014 1122 1331 1200 1075 1196
8 1074 960 1077 1198 1197 1076 1201 1332
8 1085 980 1076 1197 1215 1099 1201 1332
8 1199 1079 1203 1333 1075 962 1080 1200
8 1132 1025 1119 1243 1199 1079 1203 1333
8 1201 1078 963 1077 1334 1202 1080 1200
8 1099 994 1078 1201 1227 1111 1202 1334
8 1343 1207 1081 1208 1210 1083 964 1082
8 1214 1084 1186 1319 1343 1207 1081 1208
8 1345 1210 1082 1209 1225 1100 981 1097
8 1346 1211 1083 1210 1228 1115 999 1100
8 1086 984 1099 1215 1216 1103 1227 1352
8 1087 985 1103 1216 1217 1104 1230 1353
8 1090 988 1104 1217 1219 1106 1231 1354
8 1218 1105 987 1089 1355 1232 1106 1219
8 1091 991 1105 1218 1220 1109 1232 1355
8 1092 992 1109 1220 1221 1110 1234 1356
8 1222 1108 1233 1357 1095 990 1107 1224
8 1222 1108 993 1093 1357 1233 1110 1221
8 1223 1101 989 1096 1358 1229 1107 1224
8 1226 1102 983 1098 1358 1229 1101 1223
8 1226 1102 1228 1359 1098 983 1100 1225
8 1103 995 1111 1227 1230 1112 1235 1360
8 1107 1002 1117 1233 1229 1116 1240 1362
8 1102 1001 1116 1229 1228 1115 1240 1362
8 1104 996 1112 1230 1231 1113 1236 1363
8 1364 1237 1114 1232 1231 1113 997 1106
8 1109 1005 1114 1232 1234 1118 1238 1365
8 1110 1004 1118 1234 1233 1117 1241 1366
8 1242 1374 1255 1138 1119 1243 1132 1025
8 1244 1127 1254 1376 1121 1015 1129 1245
8 1148 1031 1149 1275 1244 1127 1254 1376
8 1245 1129 1258 1377 1125 1016 1130 1248
8 1251 1134 1019 1126 1378 1257 1128 1246
8 1378 1257 1128 1246 1247 1131 1017 1123
8 1248 1130 1259 1379 1124 1018 1131 1247
8 1261 1381 1250 1133 1132 1249 1330 1199
8 1255 1380 1252 1135 1132 1249 1381 1261
8 1250 1133 1019 1126 1382 1262 1134 1251
8 1253 1136 1256 1385 1384 1263 1135 1252
8 1254 1137 1265 1387 1129 1022 1141 1258
8 1149 1032 1150 1276 1254 1137 1265 1387
8 1028 1135 1255 1138 1139 1256 1388 1266
8 1136 1029 1147 1264 1256 1139 1267 1389
8 1390 1268 1140 1257 1259 1142 1024 1131
8 1260 1143 1027 1134 1390 1268 1140 1257
8 1258 1141 1269 1391 1130 1023 1142 1259
8 1262 1145 1027 1134 1393 1271 1143 1260
8 1261 1144 1026 1133 1394 1272 1145 1262
8 1135 1028 1144 1261 1263 1146 1272 1394
8 1136 1029 1146 1263 1264 1147 1273 1395
8 1155 1041 1160 1282 1275 1149 1276 1405
8 1276 1150 1044 1160 1406 1277 1162 1286
8 1408 1283 1159 1279 1278 1156 1039 1151
8 1290 1165 1283 1408 1177 1053 1156 1278
8 1152 1040 1159 1279 1280 1158 1285 1409
8 1281 1157 1038 1153 1410 1284 1158 1280
8 1281 1157 1284 1410 1154 1042 1160 1282
8 1159 1046 1164 1283 1285 1163 1289 1412
8 1292 1167 1289 1412 1165 1048 1164 1283
8 1158 1045 1163 1285 1284 1161 1288 1413
8 1284 1161 1288 1413 1160 1044 1162 1286
8 1291 1166 1292 1418 1174 1051 1165 1290
8 1291 1166 1051 1174 1419 1293 1172 1305
8 1294 1169 1296 1421 1166 1049 1167 1292
8 1293 1168 1050 1172 1422 1295 1171 1303
8 1294 1169 1049 1166 1423 1297 1168 1293
8 1422 1295 1171 1303 1301 1170 1302 1435
8 1172 1050 1173 1306 1303 1171 1304 1438
8 1174 1051 1175 1308 1305 1172 1306 1440
8 1175 1052 1176 1309 1306 1173 1307 1441
8 1177 1053 1178 1311 1308 1175 1309 1443
8 1178 1054 1179 1312 1309 1176 1310 1444
8 1180 1055 1181 1314 1311 1178 1312 1446
8 1056 1181 1312 1179 1182 1315 1447 1313
8 1183 1058 1184 1316 1314 1181 1315 1448
8 1319 1186 1084 1214 1451 1317 1213 1350
8 1319 1186 1318 1453 1208 1081 1187 1321
8 1321 1187 1320 1456 1188 1063 1189 1323
8 1344 1208 1321 1457 1209 1082 1188 1322
8 1322 1188 1323 1458 1190 1064 1191 1325
8 1323 1189 1324 1459 1191 1065 1192 1326
8 1191 1325 1193 1067 1326 1460 1327 1194
8 1242 1374 1243 1119 1328 1462 1335 1204
8 1330 1199 1333 1465 1196 1075 1200 1331
8 1132 1249 1330 1199 1243 1375 1465 1333
8 1332 1201 1077 1198 1466 1334 1200 1331
8 1215 1099 1201 1332 1352 1227 1334 1466
8 1119 1243 1333 1203 1204 1335 1470 1338
8 1333 1203 1338 1470 1200 1080 1202 1334
8 1227 1111 1202 1334 1360 1235 1338 1470
8 1328 1462 1335 1204 1205 1336 1471 1339
8 1337 1206 1340 1472 1464 1329 1205 1336
8 1346 1211 1342 1479 1210 1083 1207 1343
8 1346 1211 1115 1228 1479 1342 1239 1361
8 1348 1212 1084 1214 1479 1342 1207 1343
8 1480 1343 1208 1344 1345 1210 1082 1209
8 1351 1214 1319 1454 1480 1343 1208 1344
8 1481 1346 1210 1345 1359 1228 1100 1225
8 1348 1212 1347 1483 1214 1084 1213 1350
8 1216 1103 1227 1352 1353 1230 1360 1488
8 1217 1104 1230 1353 1354 1231 1363 1489
8 1490 1364 1232 1355 1354 1231 1106 1219
8 1220 1109 1232 1355 1356 1234 1365 1491
8 1221 1110 1234 1356 1357 1233 1366 1492
8 1224 1107 1233 1357 1358 1229 1362 1493
8 1226 1102 1229 1358 1359 1228 1362 1493
8 1230 1112 1235 1360 1363 1236 1367 1496
8 1361 1239 1115 1228 1497 1371 1240 1362
8 1366 1241 1372 1498 1233 1117 1240 1362
8 1364 1237 1113 1231 1499 1368 1236 1363
8 1364 1237 1368 1499 1232 1114 1238 1365
8 1234 1118 1238 1365 1366 1241 1369 1500
8 1507 1373 1242 1374 1388 1266 1138 1255
8 1508 1374 1243 1375 1380 1255 1132 1249
8 1376 1254 1387 1509 1245 1129 1258 1377
8 1275 1149 1276 1405 1376 1254 1387 1509
8 1377 1258 1391 1510 1248 1130 1259 1379
8 1511 1390 1257 1378 1379 1259 1131 1247
8 1383 1260 1134 1251 1511 1390 1257 1378
8 1252 1135 1256 1385 1380 1255 1388 1512
8 1261 1381 1513 1394 1133 1250 1382 1262
8 1135 1252 1384 1263 1261 1381 1513 1394
8 1382 1262 1134 1251 1514 1393 1260 1383
8 1253 1136 1263 1384 1386 1264 1395 1516
8 1253 1136 1264 1386 1385 1256 1389 1517
8 1387 1265 1397 1519 1258 1141 1269 1391
8 1276 1150 1277 1406 1387 1265 1397 1519
8 1256 1139 1267 1389 1388 1266 1398 1520
8 1264 1147 1274 1396 1389 1267 1399 1521
8 1392 1270 1143 1260 1522 1400 1268 1390
8 1390 1268 1142 1259 1522 1400 1269 1391
8 1392 1270 1401 1523 1260 1143 1271 1393
8 1272 1394 1524 1402 1145 1262 1393 1271
8 1395 1273 1146 1263 1524 1402 1272 1394
8 1273 1395 1264 1147 1403 1526 1396 1274
8 1405 1276 1160 1282 1534 1406 1286 1411
8 1414 1287 1407 1535 1286 1162 1277 1406
8 1279 1159 1283 1408 1409 1285 1412 1537
8 1418 1292 1412 1537 1290 1165 1283 1408
8 1280 1158 1285 1409 1410 1284 1413 1538
8 1410 1284 1413 1538 1282 1160 1286 1411
8 1285 1163 1289 1412 1413 1288 1417 1540
8 1421 1296 1417 1540 1292 1167 1289 1412
8 1414 1287 1162 1286 1541 1416 1288 1413
8 1420 1294 1421 1545 1291 1166 1292 1418
8 1419 1293 1172 1305 1546 1422 1303 1437
8 1420 1294 1166 1291 1547 1423 1293 1419
8 1294 1169 1297 1423 1421 1296 1425 1548
8 1423 1297 1168 1293 1549 1424 1295 1422
8 1301 1170 1298 1427 1422 1295 1424 1549
8 1432 1300 1428 1554 1301 1170 1298 1427
8 1431 1299 1428 1554 1560 1430 1300 1432
8 1563 1433 1300 1432 1435 1302 1170 1301
8 1546 1422 1303 1437 1434 1301 1435 1565
8 1303 1171 1304 1438 1435 1302 1436 1566
8 1305 1172 1306 1440 1437 1303 1438 1568
8 1306 1173 1307 1441 1438 1304 1439 1569
8 1308 1175 1309 1443 1440 1306 1441 1571
8 1309 1176 1310 1444 1441 1307 1442 1572
8 1311 1178 1312 1446 1443 1309 1444 1574
8 1179 1312 1444 1310 1313 1447 1575 1445
8 1314 1181 1315 1448 1446 1312 1447 1576
8 1350 1213 1349 1486 1451 1317 1449 1579
8 1451 1317 1450 1581 1319 1186 1318 1453
8 1454 1319 1214 1351 1582 1451 1350 1487
8 1453 1318 1452 1584 1321 1187 1320 1456
8 1454 1319 1453 1585 1344 1208 1321 1457
8 1456 1320 1455 1586 1323 1189 1324 1459
8 1457 1321 1456 1587 1322 1188 1323 1458
8 1458 1323 1459 1588 1325 1191 1326 1460
8 1205 1336 1464 1329 1328 1462 1590 1461
8 1507 1373 1461 1590 1374 1242 1328 1462
8 1508 1374 1462 1591 1375 1243 1335 1467
8 1337 1206 1329 1464 1473 1341 1463 1594
8 1375 1243 1335 1467 1465 1333 1470 1596
8 1465 1333 1470 1596 1331 1200 1334 1466
8 1352 1227 1334 1466 1488 1360 1470 1596
8 1591 1462 1336 1468 1467 1335 1471 1597
8 1469 1337 1472 1598 1595 1464 1336 1468
8 1471 1339 1474 1600 1335 1204 1338 1470
8 1600 1474 1367 1496 1470 1338 1235 1360
8 1336 1205 1340 1472 1471 1339 1475 1601
8 1337 1206 1341 1473 1472 1340 1476 1602
8 1495 1370 1478 1609 1361 1239 1342 1479
8 1348 1212 1342 1479 1483 1347 1478 1609
8 1481 1346 1479 1610 1345 1210 1343 1480
8 1481 1346 1228 1359 1610 1479 1361 1494
8 1484 1348 1214 1351 1610 1479 1343 1480
8 1483 1347 1482 1612 1350 1213 1349 1486
8 1484 1348 1483 1613 1351 1214 1350 1487
8 1353 1230 1360 1488 1489 1363 1496 1616
8 1490 1364 1231 1354 1617 1499 1363 1489
8 1490 1364 1499 1617 1355 1232 1365 1491
8 1356 1234 1365 1491 1492 1366 1500 1619
8 1492 1366 1498 1620 1357 1233 1362 1493
8 1494 1361 1228 1359 1621 1497 1362 1493
8 1495 1370 1239 1361 1622 1504 1371 1497
8 1363 1236 1367 1496 1499 1368 1501 1623
8 1497 1371 1240 1362 1624 1505 1372 1498
8 1625 1503 1372 1498 1500 1369 1241 1366
8 1365 1238 1368 1499 1500 1369 1502 1626
8 1520 1398 1506 1633 1388 1266 1373 1507
8 1634 1507 1374 1508 1512 1388 1255 1380
8 1509 1387 1519 1635 1377 1258 1391 1510
8 1405 1276 1406 1534 1509 1387 1519 1635
8 1515 1392 1260 1383 1636 1522 1390 1511
8 1511 1390 1259 1379 1636 1522 1391 1510
8 1385 1256 1389 1517 1512 1388 1520 1637
8 1513 1394 1262 1382 1638 1524 1393 1514
8 1395 1516 1638 1524 1263 1384 1513 1394
8 1515 1392 1523 1639 1383 1260 1393 1514
8 1516 1395 1526 1640 1386 1264 1396 1518
8 1386 1264 1396 1518 1517 1389 1521 1641
8 1519 1397 1527 1643 1391 1269 1400 1522
8 1535 1407 1527 1643 1406 1277 1397 1519
8 1389 1267 1399 1521 1520 1398 1528 1644
8 1645 1529 1399 1521 1525 1404 1274 1396
8 1392 1270 1400 1522 1523 1401 1531 1646
8 1524 1402 1271 1393 1648 1532 1401 1523
8 1403 1526 1648 1532 1273 1395 1524 1402
8 1525 1404 1274 1396 1649 1533 1403 1526
8 1539 1414 1535 1657 1411 1286 1406 1534
8 1542 1415 1536 1658 1414 1287 1407 1535
8 1409 1285 1412 1537 1538 1413 1540 1660
8 1545 1421 1540 1660 1418 1292 1412 1537
8 1539 1414 1286 1411 1661 1541 1413 1538
8 1540 1417 1544 1663 1413 1288 1416 1541
8 1421 1296 1425 1548 1540 1417 1544 1663
8 1542 1415 1287 1414 1664 1543 1416 1541
8 1420 1294 1423 1547 1545 1421 1548 1666
8 1547 1423 1293 1419 1667 1549 1422 1546
8 1434 1301 1427 1553 1546 1422 1549 1667
8 1423 1297 1424 1549 1548 1425 1550 1668
8 1551 1426 1550 1668 1427 1298 1424 1549
8 1551 1426 1298 1427 1671 1552 1428 1554
8 1562 1432 1554 1674 1434 1301 1427 1553
8 1431 1299 1429 1558 1554 1428 1555 1675
8 1431 1299 1430 1560 1558 1429 1557 1680
8 1560 1430 1300 1432 1683 1559 1433 1563
8 1561 1431 1554 1674 1684 1560 1432 1562
8 1685 1563 1432 1562 1565 1435 1301 1434
8 1435 1302 1436 1566 1563 1433 1564 1686
8 1437 1303 1438 1568 1565 1435 1566 1688
8 1438 1304 1439 1569 1566 1436 1567 1689
8 1440 1306 1441 1571 1568 1438 1569 1691
8 1441 1307 1442 1572 1569 1439 1570 1692
8 1443 1309 1444 1574 1571 1441 1572 1694
8 1310 1444 1572 1442 1445 1575 1695 1573
8 1446 1312 1447 1576 1574 1444 1575 1696
8 1486 1349 1485 1614 1579 1449 1577 1699
8 1451 1317 1449 1579 1581 1450 1578 1701
8 1487 1350 1486 1615 1582 1451 1579 1702
8 1581 1450 1580 1704 1453 1318 1452 1584
8 1582 1451 1581 1705 1454 1319 1453 1585
8 1584 1452 1583 1706 1456 1320 1455 1586
8 1585 1453 1584 1707 1457 1321 1456 1587
8 1587 1456 1586 1708 1458 1323 1459 1588
8 1633 1506 1589 1710 1507 1373 1461 1590
8 1464 1329 1461 1590 1594 1463 1589 1710
8 1468 1336 1462 1591 1595 1464 1590 1711
8 1634 1507 1590 1711 1508 1374 1462 1591
8 1473 1341 1463 1594 1603 1477 1593 1716
8 1469 1337 1464 1595 1599 1473 1594 1717
8 1471 1597 1467 1335 1600 1718 1596 1470
8 1718 1600 1496 1616 1596 1470 1360 1488
8 1336 1468 1597 1471 1472 1598 1719 1601
8 1469 1337 1473 1599 1598 1472 1602 1720
8 1722 1604 1501 1623 1600 1474 1367 1496
8 1475 1601 1471 1339 1604 1722 1600 1474
8 1602 1476 1605 1723 1472 1340 1475 1601
8 1476 1602 1724 1606 1341 1473 1603 1477
8 1483 1347 1478 1609 1612 1482 1608 1731
8 1495 1370 1504 1622 1609 1478 1608 1731
8 1618 1495 1609 1732 1494 1361 1479 1610
8 1484 1348 1479 1610 1613 1483 1609 1732
8 1486 1349 1482 1612 1614 1485 1611 1733
8 1613 1483 1612 1734 1487 1350 1486 1615
8 1489 1363 1496 1616 1617 1499 1623 1736
8 1491 1365 1499 1617 1619 1500 1626 1737
8 1618 1495 1361 1494 1738 1622 1497 1621
8 1739 1625 1498 1620 1619 1500 1366 1492
8 1621 1497 1362 1493 1740 1624 1498 1620
8 1742 1631 1504 1622 1624 1505 1371 1497
8 1743 1628 1502 1626 1623 1501 1368 1499
8 1744 1630 1505 1624 1625 1503 1372 1498
8 1745 1629 1503 1625 1626 1502 1369 1500
8 1520 1398 1528 1644 1633 1506 1632 1751
8 1637 1520 1633 1752 1512 1388 1507 1634
8 1635 1519 1643 1753 1510 1391 1522 1636
8 1657 1535 1643 1753 1534 1406 1519 1635
8 1515 1392 1522 1636 1639 1523 1646 1754
8 1517 1389 1521 1641 1637 1520 1644 1755
8 1524 1638 1756 1648 1393 1514 1639 1523
8 1640 1526 1395 1516 1756 1648 1524 1638
8 1642 1525 1396 1518 1757 1649 1526 1640
8 1758 1645 1521 1641 1642 1525 1396 1518
8 1646 1531 1400 1522 1760 1650 1527 1643
8 1535 1407 1536 1658 1643 1527 1650 1760
8 1521 1399 1529 1645 1644 1528 1651 1761
8 1647 1530 1652 1762 1525 1404 1529 1645
8 1401 1523 1648 1532 1531 1646 1763 1655
8 1525 1404 1533 1649 1647 1530 1654 1765
8 1533 1649 1766 1656 1403 1526 1648 1532
8 1662 1542 1658 1774 1539 1414 1535 1657
8 1542 1415 1543 1664 1658 1536 1659 1775
8 1660 1540 1663 1777 1538 1413 1541 1661
8 1545 1421 1548 1666 1660 1540 1663 1777
8 1662 1542 1414 1539 1778 1664 1541 1661
8 1664 1543 1416 1541 1779 1665 1544 1663
8 1548 1425 1550 1668 1663 1544 1665 1779
8 1547 1423 1549 1667 1666 1548 1668 1781
8 1670 1551 1668 1781 1553 1427 1549 1667
8 1551 1426 1552 1671 1668 1550 1669 1782
8 1670 1551 1427 1553 1784 1671 1554 1674
8 1675 1555 1672 1785 1554 1428 1552 1671
8 1678 1556 1673 1789 1558 1429 1555 1675
8 1561 1431 1558 1681 1674 1554 1675 1790
8 1794 1677 1556 1678 1680 1557 1429 1558
8 1560 1430 1559 1683 1680 1557 1679 1797
8 1561 1431 1560 1684 1681 1558 1680 1798
8 1563 1433 1564 1686 1683 1559 1682 1800
8 1684 1560 1432 1562 1801 1683 1563 1685
8 1565 1435 1566 1688 1685 1563 1686 1802
8 1566 1436 1567 1689 1686 1564 1687 1803
8 1568 1438 1569 1691 1688 1566 1689 1805
8 1569 1439 1570 1692 1689 1567 1690 1806
8 1571 1441 1572 1694 1691 1569 1692 1808
8 1442 1572 1692 1570 1573 1695 1809 1693
8 1574 1444 1575 1696 1694 1572 1695 1810
8 1614 1485 1592 1712 1699 1577 1697 1813
8 1579 1449 1577 1699 1701 1578 1698 1815
8 1615 1486 1614 1735 1702 1579 1699 1816
8 1701 1578 1700 1818 1581 1450 1580 1704
8 1582 1451 1579 1702 1705 1581 1701 1819
8 1704 1580 1703 1820 1584 1452 1583 1706
8 1705 1581 1704 1821 1585 1453 1584 1707
8 1707 1584 1706 1822 1587 1456 1586 1708
8 1710 1589 1506 1633 1824 1709 1632 1751
8 1594 1463 1589 1710 1716 1593 1709 1824
8 1752 1633 1710 1825 1634 1507 1590 1711
8 1595 1464 1590 1711 1717 1594 1710 1825
8 1830 1714 1592 1712 1733 1611 1485 1614
8 1603 1477 1593 1716 1725 1607 1715 1834
8 1599 1473 1594 1717 1721 1603 1716 1835
8 1837 1722 1623 1736 1718 1600 1496 1616
8 1719 1601 1722 1837 1597 1471 1600 1718
8 1602 1720 1598 1472 1723 1838 1719 1601
8 1720 1602 1473 1599 1839 1724 1603 1721
8 1723 1605 1726 1840 1601 1475 1604 1722
8 1840 1726 1628 1743 1722 1604 1501 1623
8 1724 1606 1727 1841 1602 1476 1605 1723
8 1725 1607 1728 1842 1603 1477 1606 1724
8 1612 1482 1608 1731 1733 1611 1730 1849
8 1741 1627 1730 1849 1622 1504 1608 1731
8 1613 1483 1609 1732 1734 1612 1731 1850
8 1618 1495 1622 1738 1732 1609 1731 1850
8 1615 1486 1612 1734 1735 1614 1733 1851
8 1852 1743 1626 1737 1736 1623 1499 1617
8 1853 1745 1625 1739 1737 1626 1500 1619
8 1855 1742 1622 1738 1740 1624 1497 1621
8 1856 1744 1624 1740 1739 1625 1498 1620
8 1741 1627 1504 1622 1857 1746 1631 1742
8 1742 1631 1505 1624 1858 1749 1630 1744
8 1859 1747 1629 1745 1743 1628 1502 1626
8 1860 1748 1630 1744 1745 1629 1503 1625
8 1644 1528 1651 1761 1751 1632 1750 1865
8 1637 1520 1644 1755 1752 1633 1751 1866
8 1754 1646 1522 1636 1867 1760 1643 1753
8 1657 1535 1658 1774 1753 1643 1760 1867
8 1639 1523 1646 1754 1756 1648 1763 1868
8 1641 1521 1645 1758 1755 1644 1761 1869
8 1757 1649 1526 1640 1870 1766 1648 1756
8 1642 1525 1649 1757 1759 1647 1765 1871
8 1759 1647 1762 1872 1642 1525 1645 1758
8 1760 1650 1767 1874 1646 1531 1655 1763
8 1658 1536 1659 1775 1760 1650 1767 1874
8 1762 1652 1768 1875 1645 1529 1651 1761
8 1764 1653 1769 1876 1647 1530 1652 1762
8 1656 1766 1877 1773 1532 1648 1763 1655
8 1771 1879 1765 1654 1653 1764 1647 1530
8 1533 1649 1765 1654 1656 1766 1880 1772
8 1662 1542 1664 1778 1774 1658 1775 1887
8 1664 1543 1665 1779 1775 1659 1776 1888
8 1778 1664 1541 1661 1890 1779 1663 1777
8 1666 1548 1668 1781 1777 1663 1779 1890
8 1782 1669 1780 1891 1668 1550 1665 1779
8 1670 1551 1671 1784 1781 1668 1782 1893
8 1671 1552 1672 1785 1782 1669 1783 1894
8 1790 1675 1785 1896 1674 1554 1671 1784
8 1675 1555 1673 1789 1785 1672 1786 1897
8 1792 1676 1788 1903 1678 1556 1673 1789
8 1795 1678 1789 1904 1681 1558 1675 1790
8 1792 1676 1556 1678 1906 1791 1677 1794
8 1680 1557 1679 1797 1794 1677 1793 1909
8 1910 1794 1678 1795 1798 1680 1558 1681
8 1683 1559 1682 1800 1797 1679 1796 1912
8 1684 1560 1683 1801 1798 1680 1797 1913
8 1686 1564 1687 1803 1800 1682 1799 1915
8 1685 1563 1686 1802 1801 1683 1800 1916
8 1688 1566 1689 1805 1802 1686 1803 1917
8 1689 1567 1690 1806 1803 1687 1804 1918
8 1691 1569 1692 1808 1805 1689 1806 1920
8 1692 1570 1693 1809 1806 1690 1807 1921
8 1694 1572 1695 1810 1808 1692 1809 1922
8 1829 1713 1811 1926 1712 1592 1697 1813
8 1813 1697 1812 1928 1699 1577 1698 1815
8 1735 1614 1712 1828 1816 1699 1813 1929
8 1815 1698 1814 1931 1701 1578 1700 1818
8 1702 1579 1699 1816 1819 1701 1815 1932
8 1818 1700 1817 1933 1704 1580 1703 1820
8 1819 1701 1818 1934 1705 1581 1704 1821
8 1821 1704 1820 1935 1707 1584 1706 1822
8 1824 1709 1632 1751 1937 1823 1750 1865
8 1716 1593 1709 1824 1834 1715 1823 1937
8 1825 1710 1633 1752 1938 1824 1751 1866
8 1717 1594 1710 1825 1835 1716 1824 1938
8 1945 1830 1712 1828 1851 1733 1614 1735
8 1830 1714 1831 1946 1712 1592 1713 1829
8 1947 1832 1714 1830 1849 1730 1611 1733
8 1843 1729 1607 1725 1950 1833 1715 1834
8 1721 1603 1716 1835 1836 1725 1834 1951
8 1836 1725 1842 1953 1721 1603 1724 1839
8 1723 1838 1719 1601 1840 1954 1837 1722
8 1954 1840 1743 1852 1837 1722 1623 1736
8 1724 1839 1720 1602 1841 1955 1838 1723
8 1841 1727 1844 1956 1723 1605 1726 1840
8 1956 1844 1747 1859 1840 1726 1628 1743
8 1728 1842 1724 1606 1845 1957 1841 1727
8 1725 1607 1729 1843 1842 1728 1846 1958
8 1741 1627 1746 1857 1849 1730 1848 1965
8 1734 1612 1731 1850 1851 1733 1849 1966
8 1854 1741 1849 1966 1738 1622 1731 1850
8 1967 1859 1745 1853 1852 1743 1626 1737
8 1968 1860 1744 1856 1853 1745 1625 1739
8 1854 1741 1622 1738 1969 1857 1742 1855
8 1855 1742 1624 1740 1970 1858 1744 1856
8 1857 1746 1631 1742 1971 1861 1749 1858
8 1858 1749 1630 1744 1972 1863 1748 1860
8 1859 1747 1862 1973 1745 1629 1748 1860
8 1875 1768 1864 1977 1761 1651 1750 1865
8 1755 1644 1761 1869 1866 1751 1865 1978
8 1867 1760 1874 1979 1754 1646 1763 1868
8 1774 1658 1775 1887 1867 1760 1874 1979
8 1870 1766 1648 1756 1980 1877 1763 1868
8 1872 1762 1875 1981 1758 1645 1761 1869
8 1757 1649 1766 1870 1871 1765 1880 1982
8 1983 1879 1764 1873 1871 1765 1647 1759
8 1873 1764 1876 1984 1759 1647 1762 1872
8 1877 1773 1655 1763 1986 1881 1767 1874
8 1775 1659 1776 1888 1874 1767 1881 1986
8 1876 1769 1882 1987 1762 1652 1768 1875
8 1878 1770 1883 1988 1764 1653 1769 1876
8 1880 1772 1656 1766 1989 1886 1773 1877
8 1878 1770 1653 1764 1990 1884 1771 1879
8 1765 1654 1772 1880 1879 1771 1885 1991
8 1778 1664 1779 1890 1887 1775 1888 1997
8 1998 1889 1776 1888 1891 1780 1665 1779
8 1893 1782 1891 2000 1781 1668 1779 1890
8 1894 1783 1892 2001 1782 1669 1780 1891
8 1784 1671 1785 1896 1893 1782 1894 2003
8 1897 1786 1895 2004 1785 1672 1783 1894
8 1790 1675 1789 1904 1896 1785 1897 2006
8 1901 1787 1898 2007 1789 1673 1786 1897
8 1903 1788 1900 2013 1789 1673 1787 1901
8 1792 1676 1791 1906 1903 1788 1902 2016
8 1907 1792 1903 2017 1795 1678 1789 1904
8 1906 1791 1677 1794 2019 1905 1793 1909
8 1907 1792 1678 1795 2020 1906 1794 1910
8 1797 1679 1796 1912 1909 1793 1908 2022
8 1798 1680 1797 1913 1910 1794 1909 2023
8 1800 1682 1799 1915 1912 1796 1911 2025
8 1801 1683 1800 1916 1913 1797 1912 2026
8 1803 1687 1804 1918 1915 1799 1914 2028
8 1802 1686 1803 1917 1916 1800 1915 2029
8 1805 1689 1806 1920 1917 1803 1918 2030
8 1806 1690 1807 1921 1918 1804 1919 2031
8 1808 1692 1809 1922 1920 1806 1921 2032
8 1939 1826 1924 2037 1829 1713 1811 1926
8 1926 1811 1925 2039 1813 1697 1812 1928
8 1944 1829 1926 2040 1828 1712 1813 1929
8 1928 1812 1927 2042 1815 1698 1814 1931
8 1929 1813 1928 2043 1816 1699 1815 1932
8 1931 1814 1930 2044 1818 1700 1817 1933
8 1932 1815 1931 2045 1819 1701 1818 1934
8 1934 1818 1933 2046 1821 1704 1820 1935
8 2048 1936 1823 1937 1977 1864 1750 1865
8 1950 1833 1715 1834 2048 1936 1823 1937
8 1938 1824 1751 1866 2049 1937 1865 1978
8 1835 1716 1824 1938 1951 1834 1937 2049
8 1939 1826 1713 1829 2053 1942 1831 1946
8 1940 1827 1923 2035 2053 1942 1826 1939
8 1945 1830 1946 2058 1828 1712 1829 1944
8 2059 1947 1830 1945 1966 1849 1733 1851
8 1947 1832 1730 1849 2060 1948 1848 1965
8 1947 1832 1948 2060 1830 1714 1831 1946
8 1959 1847 1729 1843 2063 1949 1833 1950
8 1952 1843 1725 1836 2064 1950 1834 1951
8 1836 1725 1843 1952 1953 1842 1958 2066
8 1953 1842 1957 2067 1839 1724 1841 1955
8 1841 1955 1838 1723 1956 2068 1954 1840
8 2068 1956 1859 1967 1954 1840 1743 1852
8 1956 1844 1960 2069 1859 1747 1862 1973
8 1845 1957 1841 1727 1960 2069 1956 1844
8 1728 1842 1957 1845 1846 1958 2071 1961
8 1962 2072 1959 1847 1846 1958 1843 1729
8 1971 1861 1964 2077 1857 1746 1848 1965
8 1854 1741 1857 1969 1966 1849 1965 2078
8 1967 1859 1973 2079 1853 1745 1860 1968
8 1970 1858 1744 1856 2080 1972 1860 1968
8 1969 1857 1742 1855 2081 1971 1858 1970
8 1971 1861 1749 1858 2082 1974 1863 1972
8 1973 1862 1975 2083 1860 1748 1863 1972
8 1987 1882 1976 2086 1875 1768 1864 1977
8 1981 1875 1977 2087 1869 1761 1865 1978
8 1980 1877 1763 1868 2088 1986 1874 1979
8 1887 1775 1888 1997 1979 1874 1986 2088
8 1880 1982 2089 1989 1766 1870 1980 1877
8 1984 1876 1987 2090 1872 1762 1875 1981
8 1765 1871 1983 1879 1880 1982 2091 1991
8 1985 1878 1764 1873 2092 1990 1879 1983
8 1985 1878 1988 2093 1873 1764 1876 1984
8 2094 1992 1881 1986 1998 1889 1776 1888
8 1986 1881 1992 2094 1877 1773 1886 1989
8 1988 1883 1993 2095 1876 1769 1882 1987
8 1878 1770 1884 1990 1988 1883 1994 2096
8 1991 1885 1772 1880 2097 1996 1886 1989
8 1879 1771 1885 1991 1990 1884 1995 2098
8 2103 1998 1888 1997 2000 1891 1779 1890
8 2104 1999 1889 1998 2001 1892 1780 1891
8 2003 1894 2001 2106 1893 1782 1891 2000
8 2004 1895 2002 2107 1894 1783 1892 2001
8 2006 1897 2004 2109 1896 1785 1894 2003
8 2007 1898 2005 2110 1897 1786 1895 2004
8 2014 1901 2007 2112 1904 1789 1897 2006
8 2011 1899 2008 2113 1901 1787 1898 2007
8 2119 2010 1899 2011 2013 1900 1787 1901
8 2016 1902 2012 2122 1903 1788 1900 2013
8 2017 1903 2013 2123 1904 1789 1901 2014
8 1906 1791 1905 2019 2016 1902 2015 2125
8 1907 1792 1906 2020 2017 1903 2016 2126
8 1909 1793 1908 2022 2019 1905 2018 2128
8 2020 1906 1794 1910 2129 2019 1909 2023
8 1912 1796 1911 2025 2022 1908 2021 2131
8 1913 1797 1912 2026 2023 1909 2022 2132
8 1915 1799 1914 2028 2025 1911 2024 2134
8 1916 1800 1915 2029 2026 1912 2025 2135
8 1918 1804 1919 2031 2028 1914 2027 2136
8 1917 1803 1918 2030 2029 1915 2028 2137
8 1920 1806 1921 2032 2030 1918 2031 2138
8 1940 1827 1941 2054 2035 1923 2033 2140
8 2035 1923 2034 2143 1939 1826 1924 2037
8 2037 1924 2036 2146 1926 1811 1925 2039
8 2051 1939 2037 2147 1944 1829 1926 2040
8 2039 1925 2038 2149 1928 1812 1927 2042
8 2040 1926 2039 2150 1929 1813 1928 2043
8 2042 1927 2041 2151 1931 1814 1930 2044
8 2043 1928 2042 2152 1932 1815 1931 2045
8 2045 1931 2044 2153 1934 1818 1933 2046
8 2155 2047 1936 2048 2086 1976 1864 1977
8 2063 1949 1833 1950 2155 2047 1936 2048
8 2156 2048 1937 2049 2087 1977 1865 1978
8 2064 1950 1834 1951 2156 2048 1937 2049
8 2051 1939 1829 1944 2160 2053 1946 2058
8 2052 1940 2035 2144 2160 2053 1939 2051
8 2053 1942 1831 1946 2163 2057 1948 2060
8 2055 1943 1827 1940 2163 2057 1942 2053
8 2055 1943 2056 2164 1940 1827 1941 2054
8 2059 1947 1849 1966 2167 2060 1965 2078
8 2059 1947 2060 2167 1945 1830 1946 2058
8 2077 1964 2061 2168 1965 1848 1948 2060
8 2070 1963 1847 1959 2170 2062 1949 2063
8 2065 1959 1843 1952 2171 2063 1950 2064
8 2173 2072 1958 2066 2065 1959 1843 1952
8 1953 1842 1958 2066 2067 1957 2071 2174
8 2068 1956 2069 2175 1967 1859 1973 2079
8 2067 1957 2069 2175 1955 1841 1956 2068
8 1845 1957 2069 1960 1961 2071 2176 2073
8 2069 1960 2073 2176 1973 1862 1975 2083
8 2070 1963 2075 2177 1959 1847 1962 2072
8 1846 1958 2071 1961 1962 2072 2178 2074
8 2077 1964 1861 1971 2182 2076 1974 2082
8 2081 1971 2077 2183 1969 1857 1965 2078
8 2079 1973 2083 2184 1968 1860 1972 2080
8 2081 1971 1858 1970 2185 2082 1972 2080
8 2083 1975 2084 2186 1972 1863 1974 2082
8 2086 1976 1882 1987 2189 2085 1993 2095
8 2090 1987 2086 2190 1981 1875 1977 2087
8 2191 2094 1986 2088 2103 1998 1888 1997
8 2088 1986 2094 2191 1980 1877 1989 2089
8 1991 2091 2192 2097 1880 1982 2089 1989
8 2093 1988 2095 2193 1984 1876 1987 2090
8 1879 1983 2092 1990 1991 2091 2194 2098
8 1985 1878 1990 2092 2093 1988 2096 2195
8 2097 1996 1886 1989 2196 2099 1992 2094
8 2196 2099 1992 2094 2104 1999 1889 1998
8 1994 2096 1988 1883 2100 2197 2095 1993
8 2096 1994 1884 1990 2198 2101 1995 2098
8 1995 2098 2199 2102 1885 1991 2097 1996
8 2203 2104 1998 2103 2106 2001 1891 2000
8 2107 2002 2105 2204 2001 1892 1999 2104
8 2109 2004 2107 2206 2003 1894 2001 2106
8 2110 2005 2108 2207 2004 1895 2002 2107
8 2112 2007 2110 2209 2006 1897 2004 2109
8 2113 2008 2111 2210 2007 1898 2005 2110
8 2120 2011 2113 2212 2014 1901 2007 2112
8 2117 2009 2114 2213 2011 1899 2008 2113
8 2219 2116 2009 2117 2119 2010 1899 2011
8 2222 2118 2010 2119 2122 2012 1900 2013
8 2223 2119 2011 2120 2123 2013 1901 2014
8 2016 1902 2015 2125 2122 2012 2121 2225
8 2126 2016 2122 2226 2017 1903 2013 2123
8 2019 1905 2018 2128 2125 2015 2124 2228
8 2020 1906 2019 2129 2126 2016 2125 2229
8 2022 1908 2021 2131 2128 2018 2127 2231
8 2023 1909 2022 2132 2129 2019 2128 2232
8 2025 1911 2024 2134 2131 2021 2130 2234
8 2026 1912 2025 2135 2132 2022 2131 2235
8 1914 2028 2134 2024 2027 2136 2236 2133
8 2029 1915 2028 2137 2135 2025 2134 2237
8 2030 1918 2031 2138 2137 2028 2136 2238
8 2157 2050 2139 2240 2054 1941 2033 2140
8 2052 1940 2054 2161 2144 2035 2140 2242
8 2140 2033 2141 2243 2035 1923 2034 2143
8 2143 2034 2142 2246 2037 1924 2036 2146
8 2144 2035 2143 2247 2051 1939 2037 2147
8 2146 2036 2145 2249 2039 1925 2038 2149
8 2147 2037 2146 2250 2040 1926 2039 2150
8 2149 2038 2148 2251 2042 1927 2041 2151
8 2150 2039 2149 2252 2043 1928 2042 2152
8 2152 2042 2151 2253 2045 1931 2044 2153
8 2255 2154 2047 2155 2189 2085 1976 2086
8 2170 2062 1949 2063 2255 2154 2047 2155
8 2256 2155 2048 2156 2190 2086 1977 2087
8 2171 2063 1950 2064 2256 2155 2048 2156
8 2258 2159 2050 2157 2164 2056 1941 2054
8 2160 2053 1946 2058 2262 2163 2060 2167
8 2162 2055 1940 2052 2262 2163 2053 2160
8 2162 2055 2164 2263 2052 1940 2054 2161
8 2163 2057 1948 2060 2264 2165 2061 2168
8 2055 1943 2057 2163 2164 2056 2165 2264
8 2182 2076 2166 2268 2077 1964 2061 2168
8 2183 2077 2168 2269 2078 1965 2060 2167
8 2070 1963 2062 2170 2177 2075 2169 2271
8 2172 2070 1959 2065 2272 2170 2063 2171
8 2172 2070 2177 2273 2065 1959 2072 2173
8 2066 1958 2072 2173 2174 2071 2178 2274
8 2067 1957 2071 2174 2175 2069 2176 2275
8 2175 2069 2176 2275 2079 1973 2083 2184
8 2071 1961 2074 2178 2176 2073 2179 2276
8 2176 2073 2179 2276 2083 1975 2084 2186
8 2072 1962 2075 2177 2178 2074 2180 2277
8 2182 2076 1974 2082 2280 2181 2084 2186
8 2183 2077 1971 2081 2281 2182 2082 2185
8 2184 2083 2186 2282 2080 1972 2082 2185
8 2189 2085 1993 2095 2285 2188 2100 2197
8 2190 2086 1987 2090 2286 2189 2095 2193
8 2192 2097 1989 2089 2287 2196 2094 2191
8 2287 2196 2094 2191 2203 2104 1998 2103
8 2194 2098 1991 2091 2288 2199 2097 2192
8 2195 2096 2197 2289 2093 1988 2095 2193
8 2096 2195 2290 2198 1990 2092 2194 2098
8 2097 1996 2099 2196 2199 2102 2200 2291
8 2196 2099 1999 2104 2291 2200 2105 2204
8 2100 2197 2292 2201 1994 2096 2198 2101
8 1995 2098 2198 2101 2102 2199 2293 2202
8 2206 2107 2204 2296 2106 2001 2104 2203
8 2207 2108 2205 2297 2107 2002 2105 2204
8 2209 2110 2207 2299 2109 2004 2107 2206
8 2210 2111 2208 2300 2110 2005 2108 2207
8 2212 2113 2210 2302 2112 2007 2110 2209
8 2213 2114 2211 2303 2113 2008 2111 2210
8 2220 2117 2213 2305 2120 2011 2113 2212
8 2216 2115 2214 2306 2117 2009 2114 2213
8 2216 2115 2009 2117 2311 2217 2116 2219
8 2219 2116 2010 2119 2314 2218 2118 2222
8 2315 2219 2117 2220 2223 2119 2011 2120
8 2122 2012 2121 2225 2222 2118 2221 2317
8 2318 2222 2119 2223 2226 2122 2013 2123
8 2125 2015 2124 2228 2225 2121 2224 2320
8 2126 2016 2125 2229 2226 2122 2225 2321
8 2128 2018 2127 2231 2228 2124 2227 2323
8 2129 2019 2128 2232 2229 2125 2228 2324
8 2131 2021 2130 2234 2231 2127 2230 2326
8 2132 2022 2131 2235 2232 2128 2231 2327
8 2134 2024 2133 2236 2234 2130 2233 2328
8 2135 2025 2134 2237 2235 2131 2234 2329
8 2137 2028 2136 2238 2237 2134 2236 2330
8 2157 2050 2158 2259 2240 2139 2239 2332
8 2257 2157 2240 2334 2161 2054 2140 2242
8 2240 2139 2241 2335 2140 2033 2141 2243
8 2242 2140 2243 2337 2144 2035 2143 2247
8 2243 2141 2244 2338 2143 2034 2142 2246
8 2246 2142 2245 2341 2146 2036 2145 2249
8 2247 2143 2246 2342 2147 2037 2146 2250
8 2249 2145 2248 2343 2149 2038 2148 2251
8 2250 2146 2249 2344 2150 2039 2149 2252
8 2252 2149 2251 2345 2152 2042 2151 2253
8 2169 2271 2347 2254 2062 2170 2255 2154
8 2189 2085 2188 2285 2255 2154 2254 2347
8 2348 2255 2155 2256 2286 2189 2086 2190
8 2272 2170 2063 2171 2348 2255 2155 2256
8 2349 2258 2157 2257 2263 2164 2054 2161
8 2258 2159 2261 2351 2157 2050 2158 2259
8 2258 2159 2056 2164 2351 2261 2165 2264
8 2262 2163 2060 2167 2355 2264 2168 2269
8 2162 2055 2163 2262 2263 2164 2264 2355
8 2357 2266 2165 2264 2268 2166 2061 2168
8 2268 2166 2076 2182 2361 2267 2181 2280
8 2281 2182 2268 2362 2183 2077 2168 2269
8 2271 2169 2270 2364 2177 2075 2180 2277
8 2172 2070 2170 2272 2273 2177 2271 2365
8 2072 2173 2274 2178 2177 2273 2366 2277
8 2071 2174 2275 2176 2178 2274 2367 2276
8 2275 2176 2276 2367 2184 2083 2186 2282
8 2283 2187 2084 2186 2368 2278 2179 2276
8 2178 2074 2180 2277 2276 2179 2278 2368
8 2283 2187 2279 2370 2186 2084 2181 2280
8 2281 2182 2082 2185 2371 2280 2186 2282
8 2188 2285 2374 2284 2100 2197 2292 2201
8 2286 2189 2095 2193 2375 2285 2197 2289
8 2192 2097 2196 2287 2288 2199 2291 2376
8 2287 2196 2104 2203 2376 2291 2204 2296
8 2194 2098 2199 2288 2290 2198 2293 2377
8 2289 2197 2096 2195 2378 2292 2198 2290
8 2291 2200 2105 2204 2379 2294 2205 2297
8 2199 2102 2200 2291 2293 2202 2294 2379
8 2198 2101 2202 2293 2292 2201 2295 2380
8 2299 2207 2297 2383 2206 2107 2204 2296
8 2300 2208 2298 2384 2207 2108 2205 2297
8 2302 2210 2300 2386 2209 2110 2207 2299
8 2303 2211 2301 2387 2210 2111 2208 2300
8 2305 2213 2303 2389 2212 2113 2210 2302
8 2306 2214 2304 2390 2213 2114 2211 2303
8 2310 2216 2306 2392 2220 2117 2213 2305
8 2308 2215 2307 2393 2216 2115 2214 2306
8 2308 2215 2115 2216 2396 2309 2217 2311
8 2310 2216 2117 2220 2398 2311 2219 2315
8 2311 2217 2116 2219 2399 2312 2218 2314
8 2314 2218 2118 2222 2402 2313 2221 2317
8 2315 2219 2119 2223 2403 2314 2222 2318
8 2225 2121 2224 2320 2317 2221 2316 2405
8 2226 2122 2225 2321 2318 2222 2317 2406
8 2228 2124 2227 2323 2320 2224 2319 2408
8 2229 2125 2228 2324 2321 2225 2320 2409
8 2231 2127 2230 2326 2323 2227 2322 2411
8 2232 2128 2231 2327 2324 2228 2323 2412
8 2234 2130 2233 2328 2326 2230 2325 2413
8 2235 2131 2234 2329 2327 2231 2326 2414
8 2237 2134 2236 2330 2329 2234 2328 2415
8 2259 2158 2260 2352 2332 2239 2331 2417
8 2257 2157 2259 2350 2334 2240 2332 2419
8 2240 2139 2239 2332 2335 2241 2333 2420
8 2334 2240 2335 2422 2242 2140 2243 2337
8 2335 2241 2336 2423 2243 2141 2244 2338
8 2337 2243 2338 2425 2247 2143 2246 2342
8 2338 2244 2339 2426 2246 2142 2245 2341
8 2341 2245 2340 2428 2249 2145 2248 2343
8 2342 2246 2341 2429 2250 2146 2249 2344
8 2344 2249 2343 2430 2252 2149 2251 2345
8 2188 2285 2347 2254 2284 2374 2432 2346
8 2347 2254 2346 2432 2271 2169 2270 2364
8 2365 2271 2170 2272 2433 2347 2255 2348
8 2286 2189 2285 2375 2348 2255 2347 2433
8 2349 2258 2351 2435 2257 2157 2259 2350
8 2349 2258 2164 2263 2435 2351 2264 2355
8 2259 2158 2261 2351 2352 2260 2354 2437
8 2356 2265 2354 2437 2264 2165 2261 2351
8 2441 2357 2264 2355 2362 2268 2168 2269
8 2356 2265 2165 2264 2442 2358 2266 2357
8 2443 2359 2266 2357 2361 2267 2166 2268
8 2370 2279 2360 2446 2280 2181 2267 2361
8 2362 2268 2182 2281 2447 2361 2280 2371
8 2180 2277 2368 2278 2270 2364 2449 2363
8 2271 2365 2273 2177 2364 2450 2366 2277
8 2372 2283 2186 2282 2451 2368 2276 2367
8 2178 2274 2367 2276 2277 2366 2451 2368
8 2283 2187 2278 2368 2370 2279 2369 2452
8 2372 2283 2370 2453 2282 2186 2280 2371
8 2284 2374 2455 2373 2201 2292 2380 2295
8 2375 2285 2197 2289 2456 2374 2292 2378
8 2376 2291 2204 2296 2457 2379 2297 2383
8 2288 2199 2291 2376 2377 2293 2379 2457
8 2198 2290 2378 2292 2293 2377 2458 2380
8 2293 2202 2294 2379 2380 2295 2381 2459
8 2384 2298 2381 2459 2297 2205 2294 2379
8 2386 2300 2384 2463 2299 2207 2297 2383
8 2387 2301 2385 2464 2300 2208 2298 2384
8 2389 2303 2387 2466 2302 2210 2300 2386
8 2390 2304 2388 2467 2303 2211 2301 2387
8 2392 2306 2390 2469 2305 2213 2303 2389
8 2393 2307 2391 2470 2306 2214 2304 2390
8 2395 2308 2393 2472 2310 2216 2306 2392
8 2308 2215 2309 2396 2393 2307 2394 2473
8 2395 2308 2216 2310 2475 2396 2311 2398
8 2396 2309 2217 2311 2476 2397 2312 2399
8 2398 2311 2219 2315 2478 2399 2314 2403
8 2399 2312 2218 2314 2479 2400 2313 2402
8 2317 2221 2316 2405 2402 2313 2401 2482
8 2403 2314 2222 2318 2483 2402 2317 2406
8 2320 2224 2319 2408 2405 2316 2404 2485
8 2321 2225 2320 2409 2406 2317 2405 2486
8 2323 2227 2322 2411 2408 2319 2407 2488
8 2324 2228 2323 2412 2409 2320 2408 2489
8 2326 2230 2325 2413 2411 2322 2410 2490
8 2327 2231 2326 2414 2412 2323 2411 2491
8 2329 2234 2328 2415 2414 2326 2413 2492
8 2417 2331 2260 2352 2494 2416 2353 2438
8 2350 2259 2352 2436 2419 2332 2417 2496
8 2332 2239 2331 2417 2420 2333 2418 2497
8 2334 2240 2332 2419 2422 2335 2420 2499
8 2420 2333 2421 2500 2335 2241 2336 2423
8 2422 2335 2423 2502 2337 2243 2338 2425
8 2423 2336 2424 2503 2338 2244 2339 2426
8 2425 2338 2426 2505 2342 2246 2341 2429
8 2426 2339 2427 2506 2341 2245 2340 2428
8 2429 2341 2428 2507 2344 2249 2343 2430
8 2432 2346 2284 2374 2509 2431 2373 2455
8 2432 2346 2431 2509 2364 2270 2363 2449
8 2375 2285 2374 2456 2433 2347 2432 2510
8 2347 2433 2365 2271 2432 2510 2450 2364
8 2350 2259 2351 2435 2436 2352 2437 2514
8 2440 2356 2437 2514 2355 2264 2351 2435
8 2352 2260 2354 2437 2438 2353 2439 2516
8 2356 2265 2358 2442 2437 2354 2439 2516
8 2440 2356 2264 2355 2518 2442 2357 2441
8 2519 2443 2357 2441 2447 2361 2268 2362
8 2443 2359 2444 2520 2357 2266 2358 2442
8 2443 2359 2267 2361 2520 2444 2360 2446
8 2446 2360 2279 2370 2523 2445 2369 2452
8 2453 2370 2446 2524 2371 2280 2361 2447
8 2449 2363 2448 2525 2368 2278 2369 2452
8 2366 2277 2364 2450 2451 2368 2449 2526
8 2372 2283 2368 2451 2453 2370 2452 2527
8 2455 2373 2295 2380 2529 2454 2382 2460
8 2456 2374 2292 2378 2530 2455 2380 2458
8 2377 2293 2379 2457 2458 2380 2459 2531
8 2463 2384 2459 2531 2383 2297 2379 2457
8 2533 2461 2382 2460 2459 2381 2295 2380
8 2464 2385 2461 2533 2384 2298 2381 2459
8 2466 2387 2464 2537 2386 2300 2384 2463
8 2467 2388 2465 2538 2387 2301 2385 2464
8 2469 2390 2467 2540 2389 2303 2387 2466
8 2470 2391 2468 2541 2390 2304 2388 2467
8 2472 2393 2470 2543 2392 2306 2390 2469
8 2393 2307 2394 2473 2470 2391 2471 2544
8 2395 2308 2396 2475 2472 2393 2473 2546
8 2396 2309 2397 2476 2473 2394 2474 2547
8 2475 2396 2311 2398 2549 2476 2399 2478
8 2476 2397 2312 2399 2550 2477 2400 2479
8 2478 2399 2314 2403 2552 2479 2402 2483
8 2479 2400 2313 2402 2553 2480 2401 2482
8 2405 2316 2404 2485 2482 2401 2481 2556
8 2406 2317 2405 2486 2483 2402 2482 2557
8 2408 2319 2407 2488 2485 2404 2484 2559
8 2409 2320 2408 2489 2486 2405 2485 2560
8 2411 2322 2410 2490 2488 2407 2487 2561
8 2412 2323 2411 2491 2489 2408 2488 2562
8 2414 2326 2413 2492 2491 2411 2490 2563
8 2513 2434 2493 2565 2438 2353 2416 2494
8 2496 2417 2352 2436 2567 2494 2438 2515
8 2494 2416 2495 2568 2417 2331 2418 2497
8 2419 2332 2417 2496 2499 2420 2497 2570
8 2497 2418 2498 2571 2420 2333 2421 2500
8 2499 2420 2500 2573 2422 2335 2423 2502
8 2500 2421 2501 2574 2423 2336 2424 2503
8 2502 2423 2503 2576 2425 2338 2426 2505
8 2503 2424 2504 2577 2426 2339 2427 2506
8 2505 2426 2506 2578 2429 2341 2428 2507
8 2509 2431 2373 2455 2580 2508 2454 2529
8 2509 2431 2508 2580 2449 2363 2448 2525
8 2432 2510 2581 2509 2374 2456 2530 2455
8 2432 2510 2450 2364 2509 2581 2526 2449
8 2583 2511 2434 2513 2516 2439 2353 2438
8 2436 2352 2437 2514 2515 2438 2516 2588
8 2440 2356 2442 2518 2514 2437 2516 2588
8 2442 2358 2444 2520 2516 2439 2517 2589
8 2519 2443 2520 2591 2441 2357 2442 2518
8 2519 2443 2361 2447 2591 2520 2446 2524
8 2446 2360 2445 2523 2520 2444 2521 2592
8 2525 2448 2522 2593 2452 2369 2445 2523
8 2524 2446 2370 2453 2594 2523 2452 2527
8 2526 2449 2525 2595 2451 2368 2452 2527
8 2534 2462 2528 2597 2460 2382 2454 2529
8 2530 2455 2380 2458 2598 2529 2460 2532
8 2599 2533 2460 2532 2531 2459 2380 2458
8 2537 2464 2533 2599 2463 2384 2459 2531
8 2534 2462 2382 2460 2601 2535 2461 2533
8 2538 2465 2535 2601 2464 2385 2461 2533
8 2540 2467 2538 2604 2466 2387 2464 2537
8 2541 2468 2539 2605 2467 2388 2465 2538
8 2543 2470 2541 2607 2469 2390 2467 2540
8 2470 2391 2471 2544 2541 2468 2542 2608
8 2472 2393 2473 2546 2543 2470 2544 2610
8 2473 2394 2474 2547 2544 2471 2545 2611
8 2475 2396 2476 2549 2546 2473 2547 2613
8 2476 2397 2477 2550 2547 2474 2548 2614
8 2549 2476 2399 2478 2616 2550 2479 2552
8 2479 2400 2480 2553 2550 2477 2551 2617
8 2552 2479 2402 2483 2619 2553 2482 2557
8 2482 2401 2481 2556 2553 2480 2554 2620
8 2485 2404 2484 2559 2556 2481 2555 2623
8 2486 2405 2485 2560 2557 2482 2556 2624
8 2488 2407 2487 2561 2559 2484 2558 2625
8 2489 2408 2488 2562 2560 2485 2559 2626
8 2491 2411 2490 2563 2562 2488 2561 2627
8 2513 2434 2512 2585 2565 2493 2564 2630
8 2586 2513 2565 2632 2515 2438 2494 2567
8 2565 2493 2566 2633 2494 2416 2495 2568
8 2567 2494 2568 2635 2496 2417 2497 2570
8 2568 2495 2569 2636 2497 2418 2498 2571
8 2570 2497 2571 2638 2499 2420 2500 2573
8 2571 2498 2572 2639 2500 2421 2501 2574
8 2573 2500 2574 2641 2502 2423 2503 2576
8 2574 2501 2575 2642 2503 2424 2504 2577
8 2576 2503 2577 2643 2505 2426 2506 2578
8 2597 2528 2579 2645 2529 2454 2508 2580
8 2580 2508 2579 2645 2525 2448 2522 2593
8 2581 2509 2455 2530 2646 2580 2529 2598
8 2581 2509 2580 2646 2526 2449 2525 2595
8 2583 2511 2582 2648 2513 2434 2512 2585
8 2583 2511 2439 2516 2648 2582 2517 2589
8 2649 2583 2513 2586 2588 2516 2438 2515
8 2589 2517 2444 2520 2653 2587 2521 2592
8 2518 2442 2520 2591 2588 2516 2589 2654
8 2593 2522 2590 2655 2523 2445 2521 2592
8 2524 2446 2523 2594 2591 2520 2592 2656
8 2595 2525 2593 2657 2527 2452 2523 2594
8 2602 2536 2596 2659 2534 2462 2528 2597
8 2600 2534 2597 2660 2532 2460 2529 2598
8 2600 2534 2460 2532 2661 2601 2533 2599
8 2604 2538 2601 2661 2537 2464 2533 2599
8 2602 2536 2462 2534 2663 2603 2535 2601
8 2601 2535 2465 2538 2663 2603 2539 2605
8 2607 2541 2605 2665 2540 2467 2538 2604
8 2608 2542 2606 2666 2541 2468 2539 2605
8 2543 2470 2544 2610 2607 2541 2608 2668
8 2544 2471 2545 2611 2608 2542 2609 2669
8 2546 2473 2547 2613 2610 2544 2611 2671
8 2547 2474 2548 2614 2611 2545 2612 2672
8 2549 2476 2550 2616 2613 2547 2614 2674
8 2550 2477 2551 2617 2614 2548 2615 2675
8 2552 2479 2553 2619 2616 2550 2617 2677
8 2553 2480 2554 2620 2617 2551 2618 2678
8 2557 2482 2556 2624 2619 2553 2620 2680
8 2556 2481 2555 2623 2620 2554 2621 2681
8 2559 2484 2558 2625 2623 2555 2622 2683
8 2560 2485 2559 2626 2624 2556 2623 2684
8 2562 2488 2561 2627 2626 2559 2625 2685
8 2690 2629 2564 2630 2650 2584 2512 2585
8 2586 2513 2585 2651 2632 2565 2630 2691
8 2630 2564 2631 2692 2565 2493 2566 2633
8 2632 2565 2633 2694 2567 2494 2568 2635
8 2633 2566 2634 2695 2568 2495 2569 2636
8 2635 2568 2636 2697 2570 2497 2571 2638
8 2636 2569 2637 2698 2571 2498 2572 2639
8 2638 2571 2639 2700 2573 2500 2574 2641
8 2639 2572 2640 2701 2574 2501 2575 2642
8 2641 2574 2642 2702 2576 2503 2577 2643
8 2597 2528 2596 2659 2645 2579 2644 2704
8 2645 2579 2644 2704 2593 2522 2590 2655
8 2660 2597 2645 2705 2598 2529 2580 2646
8 2646 2580 2645 2705 2595 2525 2593 2657
8 2650 2584 2512 2585 2707 2647 2582 2648
8 2648 2582 2517 2589 2707 2647 2587 2653
8 2649 2583 2648 2708 2586 2513 2585 2651
8 2649 2583 2516 2588 2708 2648 2589 2654
8 2655 2590 2652 2710 2592 2521 2587 2653
8 2654 2589 2520 2591 2711 2653 2592 2656
8 2657 2593 2655 2712 2594 2523 2592 2656
8 2602 2536 2603 2663 2659 2596 2658 2714
8 2662 2602 2659 2715 2600 2534 2597 2660
8 2662 2602 2534 2600 2717 2663 2601 2661
8 2661 2601 2538 2604 2717 2663 2605 2665
8 2666 2606 2664 2718 2605 2539 2603 2663
8 2668 2608 2666 2720 2607 2541 2605 2665
8 2608 2542 2609 2669 2666 2606 2667 2721
8 2610 2544 2611 2671 2668 2608 2669 2723
8 2611 2545 2612 2672 2669 2609 2670 2724
8 2613 2547 2614 2674 2671 2611 2672 2726
8 2614 2548 2615 2675 2672 2612 2673 2727
8 2616 2550 2617 2677 2674 2614 2675 2729
8 2617 2551 2618 2678 2675 2615 2676 2730
8 2619 2553 2620 2680 2677 2617 2678 2732
8 2620 2554 2621 2681 2678 2618 2679 2733
8 2624 2556 2623 2684 2680 2620 2681 2735
8 2681 2621 2555 2623 2736 2682 2622 2683
8 2626 2559 2625 2685 2684 2623 2683 2737
8 2688 2628 2584 2650 2740 2686 2647 2707
8 2688 2628 2687 2742 2650 2584 2629 2690
8 2690 2629 2689 2745 2630 2564 2631 2692
8 2746 2690 2630 2691 2709 2650 2585 2651
8 2691 2630 2692 2747 2632 2565 2633 2694
8 2692 2631 2693 2748 2633 2566 2634 2695
8 2694 2633 2695 2750 2635 2568 2636 2697
8 2695 2634 2696 2751 2636 2569 2637 2698
8 2697 2636 2698 2753 2638 2571 2639 2700
8 2698 2637 2699 2754 2639 2572 2640 2701
8 2700 2639 2701 2755 2641 2574 2642 2702
8 2659 2596 2658 2714 2704 2644 2703 2757
8 2704 2644 2703 2757 2655 2590 2652 2710
8 2660 2597 2659 2715 2705 2645 2704 2758
8 2705 2645 2704 2758 2657 2593 2655 2712
8 2759 2706 2647 2707 2710 2652 2587 2653
8 2709 2650 2585 2651 2760 2707 2648 2708
8 2708 2648 2589 2654 2760 2707 2653 2711
8 2712 2655 2710 2761 2656 2592 2653 2711
8 2763 2713 2658 2714 2718 2664 2603 2663
8 2662 2602 2663 2717 2715 2659 2714 2764
8 2720 2666 2718 2767 2665 2605 2663 2717
8 2768 2719 2664 2718 2721 2667 2606 2666
8 2668 2608 2669 2723 2720 2666 2721 2770
8 2669 2609 2670 2724 2721 2667 2722 2771
8 2671 2611 2672 2726 2723 2669 2724 2773
8 2672 2612 2673 2727 2724 2670 2725 2774
8 2674 2614 2675 2729 2726 2672 2727 2776
8 2675 2615 2676 2730 2727 2673 2728 2777
8 2677 2617 2678 2732 2729 2675 2730 2779
8 2678 2618 2679 2733 2730 2676 2731 2780
8 2680 2620 2681 2735 2732 2678 2733 2782
8 2733 2679 2621 2681 2783 2734 2682 2736
8 2735 2681 2623 2684 2784 2736 2683 2737
8 2740 2686 2647 2707 2787 2738 2706 2759
8 2688 2628 2686 2740 2742 2687 2739 2789
8 2743 2688 2650 2709 2790 2740 2707 2760
8 2742 2687 2741 2792 2690 2629 2689 2745
8 2743 2688 2742 2793 2709 2650 2690 2746
8 2745 2689 2744 2795 2692 2631 2693 2748
8 2746 2690 2745 2796 2691 2630 2692 2747
8 2747 2692 2748 2797 2694 2633 2695 2750
8 2748 2693 2749 2798 2695 2634 2696 2751
8 2750 2695 2751 2800 2697 2636 2698 2753
8 2751 2696 2752 2801 2698 2637 2699 2754
8 2753 2698 2754 2802 2700 2639 2701 2755
8 2763 2713 2756 2804 2714 2658 2703 2757
8 2759 2706 2652 2710 2804 2756 2703 2757
8 2715 2659 2714 2764 2758 2704 2757 2805
8 2758 2704 2757 2805 2712 2655 2710 2761
8 2806 2759 2707 2760 2761 2710 2653 2711
8 2765 2716 2762 2808 2718 2664 2713 2763
8 2809 2763 2714 2764 2767 2718 2663 2717
8 2765 2716 2664 2718 2811 2766 2719 2768
8 2813 2768 2718 2767 2770 2721 2666 2720
8 2814 2769 2719 2768 2771 2722 2667 2721
8 2723 2669 2724 2773 2770 2721 2771 2816
8 2724 2670 2725 2774 2771 2722 2772 2817
8 2726 2672 2727 2776 2773 2724 2774 2819
8 2727 2673 2728 2777 2774 2725 2775 2820
8 2729 2675 2730 2779 2776 2727 2777 2822
8 2730 2676 2731 2780 2777 2728 2778 2823
8 2732 2678 2733 2782 2779 2730 2780 2825
8 2780 2731 2679 2733 2826 2781 2734 2783
8 2782 2733 2681 2735 2827 2783 2736 2784
8 2830 2785 2738 2787 2804 2756 2706 2759
8 2789 2739 2686 2740 2832 2786 2738 2787
8 2790 2740 2707 2760 2833 2787 2759 2806
8 2742 2687 2739 2789 2792 2741 2788 2835
8 2743 2688 2740 2790 2793 2742 2789 2836
8 2792 2741 2791 2838 2745 2689 2744 2795
8 2793 2742 2792 2839 2746 2690 2745 2796
8 2795 2744 2794 2841 2748 2693 2749 2798
8 2796 2745 2795 2842 2747 2692 2748 2797
8 2797 2748 2798 2843 2750 2695 2751 2800
8 2798 2749 2799 2844 2751 2696 2752 2801
8 2800 2751 2801 2845 2753 2698 2754 2802
8 2808 2762 2803 2847 2763 2713 2756 2804
8 2809 2763 2804 2848 2764 2714 2757 2805
8 2806 2759 2710 2761 2848 2804 2757 2805
8 2765 2716 2766 2811 2808 2762 2807 2850
8 2810 2765 2808 2851 2767 2718 2763 2809
8 2810 2765 2718 2767 2852 2811 2768 2813
8 2811 2766 2719 2768 2853 2812 2769 2814
8 2855 2814 2768 2813 2816 2771 2721 2770
8 2856 2815 2769 2814 2817 2772 2722 2771
8 2773 2724 2774 2819 2816 2771 2817 2858
8 2774 2725 2775 2820 2817 2772 2818 2859
8 2776 2727 2777 2822 2819 2774 2820 2861
8 2777 2728 2778 2823 2820 2775 2821 2862
8 2779 2730 2780 2825 2822 2777 2823 2864
8 2823 2778 2731 2780 2865 2824 2781 2826
8 2825 2780 2733 2782 2866 2826 2783 2827
8 2869 2828 2785 2830 2847 2803 2756 2804
8 2871 2829 2786 2832 2830 2785 2738 2787
8 2872 2830 2787 2833 2848 2804 2759 2806
8 2789 2739 2786 2832 2835 2788 2831 2874
8 2836 2789 2740 2790 2875 2832 2787 2833
8 2792 2741 2788 2835 2838 2791 2834 2877
8 2793 2742 2789 2836 2839 2792 2835 2878
8 2838 2791 2837 2880 2795 2744 2794 2841
8 2839 2792 2838 2881 2796 2745 2795 2842
8 2841 2794 2840 2882 2798 2749 2799 2844
8 2842 2795 2841 2883 2797 2748 2798 2843
8 2843 2798 2844 2884 2800 2751 2801 2845
8 2886 2846 2803 2847 2850 2807 2762 2808
8 2851 2808 2847 2887 2809 2763 2804 2848
8 2850 2807 2766 2811 2889 2849 2812 2853
8 2810 2765 2811 2852 2851 2808 2850 2890
8 2852 2811 2768 2813 2891 2853 2814 2855
8 2853 2812 2769 2814 2892 2854 2815 2856
8 2894 2856 2814 2855 2858 2817 2771 2816
8 2817 2772 2818 2859 2856 2815 2857 2895
8 2819 2774 2820 2861 2858 2817 2859 2897
8 2820 2775 2821 2862 2859 2818 2860 2898
8 2822 2777 2823 2864 2861 2820 2862 2900
8 2823 2778 2824 2865 2862 2821 2863 2901
8 2864 2823 2780 2825 2902 2865 2826 2866
8 2904 2867 2828 2869 2886 2846 2803 2847
8 2869 2828 2868 2906 2830 2785 2829 2871
8 2907 2869 2830 2872 2887 2847 2804 2848
8 2871 2829 2870 2909 2832 2786 2831 2874
8 2910 2871 2832 2875 2872 2830 2787 2833
8 2835 2788 2831 2874 2877 2834 2873 2912
8 2836 2789 2832 2875 2878 2835 2874 2913
8 2877 2834 2876 2915 2838 2791 2837 2880
8 2839 2792 2835 2878 2881 2838 2877 2916
8 2880 2837 2879 2917 2841 2794 2840 2882
8 2881 2838 2880 2918 2842 2795 2841 2883
8 2883 2841 2882 2919 2843 2798 2844 2884
8 2921 2885 2846 2886 2889 2849 2807 2850
8 2922 2886 2847 2887 2890 2850 2808 2851
8 2889 2849 2812 2853 2924 2888 2854 2892
8 2890 2850 2811 2852 2925 2889 2853 2891
8 2891 2853 2814 2855 2926 2892 2856 2894
8 2892 2854 2815 2856 2927 2893 2857 2895
8 2858 2817 2859 2897 2894 2856 2895 2929
8 2859 2818 2860 2898 2895 2857 2896 2930
8 2861 2820 2862 2900 2897 2859 2898 2932
8 2862 2821 2863 2901 2898 2860 2899 2933
8 2864 2823 2865 2902 2900 2862 2901 2934
8 2904 2867 2846 2886 2936 2903 2885 2921
8 2904 2867 2903 2936 2869 2828 2868 2906
8 2937 2904 2869 2907 2922 2886 2847 2887
8 2906 2868 2905 2939 2871 2829 2870 2909
8 2907 2869 2906 2940 2872 2830 2871 2910
8 2909 2870 2908 2942 2874 2831 2873 2912
8 2910 2871 2909 2943 2875 2832 2874 2913
8 2912 2873 2911 2945 2877 2834 2876 2915
8 2878 2835 2874 2913 2916 2877 2912 2946
8 2915 2876 2914 2947 2880 2837 2879 2917
8 2916 2877 2915 2948 2881 2838 2880 2918
8 2918 2880 2917 2949 2883 2841 2882 2919
8 2921 2885 2849 2889 2951 2920 2888 2924
8 2952 2921 2886 2922 2925 2889 2850 2890
8 2924 2888 2854 2892 2954 2923 2893 2927
8 2925 2889 2853 2891 2955 2924 2892 2926
8 2926 2892 2856 2894 2956 2927 2895 2929
8 2895 2857 2896 2930 2927 2893 2928 2957
8 2897 2859 2898 2932 2929 2895 2930 2959
8 2898 2860 2899 2933 2930 2896 2931 2960
8 2900 2862 2901 2934 2932 2898 2933 2961
8 2936 2903 2885 2921 2963 2935 2920 2951
8 2936 2903 2935 2963 2906 2868 2905 2939
8 2937 2904 2886 2922 2964 2936 2921 2952
8 2937 2904 2936 2964 2907 2869 2906 2940
8 2939 2905 2938 2966 2909 2870 2908 2942
8 2940 2906 2939 2967 2910 2871 2909 2943
8 2942 2908 2941 2969 2912 2873 2911 2945
8 2943 2909 2942 2970 2913 2874 2912 2946
8 2945 2911 2944 2971 2915 2876 2914 2947
8 2946 2912 2945 2972 2916 2877 2915 2948
8 2948 2915 2947 2973 2918 2880 2917 2949
8 2951 2920 2888 2924 2975 2950 2923 2954
8 2952 2921 2889 2925 2976 2951 2924 2955
8 2927 2893 2928 2957 2954 2923 2953 2978
8 2955 2924 2892 2926 2979 2954 2927 2956
8 2929 2895 2930 2959 2956 2927 2957 2980
8 2930 2896 2931 2960 2957 2928 2958 2981
8 2932 2898 2933 2961 2959 2930 2960 2982
8 2951 2920 2950 2975 2963 2935 2962 2984
8 2963 2935 2962 2984 2939 2905 2938 2966
8 2964 2936 2921 2952 2985 2963 2951 2976
8 2964 2936 2963 2985 2940 2906 2939 2967
8 2966 2938 2965 2987 2942 2908 2941 2969
8 2967 2939 2966 2988 2943 2909 2942 2970
8 2969 2941 2968 2989 2945 2911 2944 2971
8 2970 2942 2969 2990 2946 2912 2945 2972
8 2972 2945 2971 2991 2948 2915 2947 2973
8 2954 2923 2953 2978 2975 2950 2974 2993
8 2976 2951 2924 2955 2994 2975 2954 2979
8 2957 2928 2958 2981 2978 2953 2977 2995
8 2956 2927 2957 2980 2979 2954 2978 2996
8 2959 2930 2960 2982 2980 2957 2981 2997
8 2984 2962 2983 2999 2966 2938 2965 2987
8 2975 2950 2974 2993 2984 2962 2983 2999
8 2976 2951 2975 2994 2985 2963 2984 3000
8 2985 2963 2984 3000 2967 2939 2966 2988
8 2987 2965 2986 3001 2969 2941 2968 2989
8 2988 2966 2987 3002 2970 2942 2969 2990
8 2990 2969 2989 3003 2972 2945 2971 2991
8 2978 2953 2977 2995 2993 2974 2992 3004
8 2979 2954 2978 2996 2994 2975 2993 3005
8 2980 2957 2981 2997 2996 2978 2995 3006
8 2974 2993 2999 2983 2992 3004 3007 2998
8 2983 2999 2987 2965 2998 3007 3001 2986
8 3000 2984 2999 3008 2988 2966 2987 3002
8 2994 2975 2993 3005 3000 2984 2999 3008
8 3002 2987 3001 3009 2990 2969 2989 3003
8 2996 2978 2995 3006 3005 2993 3004 3010
8 3005 2993 3004 3010 3008 2999 3007 3011
8 3008 2999 3007 3011 3002 2987 3001 3009

CELL_TYPES 1910
12
12
12
12
12
12
12
12
12
12
12
12
12
12
12
12
12
12
12
12
12
12
12
12
12
12
12
12
12
12
12
12
12
12
12
12
12
12
12
12
12
12
12
12
12
12
12
12
12
12
12
12
12
12
12
12
12
12
12
12
12
12
12
12
12
12
12
12
12
12
12
12
12
12
12
12
12
12
12
12
12
12
12
12
12
12
12
12
12
12
12
12
12
12
12
12
12
12
12
12
12
12
12
12
12
12
12
12
12
12
12
12
12
12
12
12
12
12
12
12
12
12
12
12
12
12
12
12
12
12
12
12
12
12
12
12
12
12
12
12
12
12
12
12
12
12
12
12
12
12
12
12
12
12
12
12
12
12
12
12
12
12
12
12
12
12
12
12
12
12
12
12
12
12
12
12
12
12
12
12
12
12
12
12
12
12
12
12
12
12
12
12
12
12
12
12
12
12
12
12
12
12
12
12
12
12
12
12
12
12
12
12
12
12
12
12
12
12
12
12
12
12
12
12
12
12
12
12
12
12
12
12
12
12
12
12
12
12
12
12
12
12
12
12
12
12
12
12
12
12
12
12
12
12
12
12
12
12
12
12
12
12
12
12
12
12
12
12
12
12
12
12
12
12
12
12
12
12
12
12
12
12
12
12
12
12
12
12
12
12
12
12
12
12
12
12
12
12
12
12
12
12
12
12
12
12
12
12
12
12
12
12
12
12
12
12
12
12
12
12
12
12
12
12
12
12
12
12
12
12
12
12
12
12
12
12
12
12
12
12
12
12
12
12
12
12
12
12
12
12
12
12
12
12
12
12
12
12
12
12
12
12
12
12
12
12
12
12
12
12
12
12
12
12
12
12
12
12
12
12
12
12
12
12
12
12
12
12
12
12
12
12
12
12
12
12
12
12
12
12
12
12
12
12
12
12
12
12
12
12
12
12
12
12
12
12
12
12
12
12
12
12
12
12
12
12
12
12
12
12
12
12
12
12
12
12
12
12
12
12
12
12
12
12
12
12
12
12
12
12
12
12
12
12
12
12
12
12
12
12
12
12
12
12
12
12
12
12
12
12
12
12
12
12
12
12
12
12
12
12
12
12
12
12
12
12
12
12
12
12
12
12
12
12
12
12
12
12
12
12
12
12
12
12
12
12
12
12
12
12
12
12
12
12
12
12
12
12
12
12
12
12
12
12
12
12
12
12
12
12
12
12
12
12
12
12
12
12
12
12
12
12
12
12
12
12
12
12
12
12
12
12
12
12
12
12
12
12
12
12
12
12
12
12
12
12
12
12
12
12
12
12
12
12
12
12
12
12
12
12
12
12
12
12
12
12
12
12
12
12
12
12
12
12
12
12
12
12
12
12
12
12
12
12
12
12
12
12
12
12
12
12
12
12
12
12
12
12
12
12
12
12
12
12
12
12
12
12
12
12
12
12
12
12
12
12
12
12
12
12
12
12
12
12
12
12
12
12
12
12
12
12
12
12
12
12
12
12
12
12
12
12
12
12
12
12
12
12
12
12
12
12
12
12
12
12
12
12
12
12
12
12
12
12
12
12
12
12
12
12
12
12
12
12
12
12
12
12
12
12
12
12
12
12
12
12
12
12
12
12
12
12
12
12
12
12
12
12
12
12
12
12
12
12
12
12
12
12
12
12
12
12
12
12
12
12
12
12
12
12
12
12
12
12
12
12
12
12
12
12
12
12
12
12
12
12
12
12
12
12
12
12
12
12
12
12
12
12
12
12
12
12
12
12
12
12
12
12
12
12
12
12
12
12
12
12
12
12
12
12
12
12
12
12
12
12
12
12
12
12
12
12
12
12
12
12
12
12
12
12
12
12
12
12
12
12
12
12
12
12
12
12
12
12
12
12
12
12
12
12
12
12
12
12
12
12
12
12
12
12
12
12
12
12
12
12
12
12
12
12
12
12
12
12
12
12
12
12
12
12
12
12
12
12
12
12
12
12
12
12
12
12
12
12
12
12
12
12
12
12
12
12
12
12
12
12
12
12
12
12
12
12
12
12
12
12
12
12
12
12
12
12
12
12
12
12
12
12
12
12
12
12
12
12
12
12
12
12
12
12
12
12
12
12
12
12
12
12
12
12
12
12
12
12
12
12
12
12
12
12
12
12
12
12
12
12
12
12
12
12
12
12
12
12
12
12
12
12
12
12
12
12
12
12
12
12
12
12
12
12
12
12
12
12
12
12
12
12
12
12
12
12
12
12
12
12
12
12
12
12
12
12
12
12
12
12
12
12
12
12
12
12
12
12
12
12
12
12
12
12
12
12
12
12
12
12
12
12
12
12
12
12
12
12
12
12
12
12
12
12
12
12
12
12
12
12
12
12
12
12
12
12
12
12
12
12
12
12
12
12
12
12
12
12
12
12
12
12
12
12
12
12
12
12
12
12
12
12
12
12
12
12
12
12
12
12
12
12
12
12
12
12
12
12
12
12
12
12
12
12
12
12
12
12
12
12
12
12
12
12
12
12
12
12
12
12
12
12
12
12
12
12
12
12
12
12
12
12
12
12
12
12
12
12
12
12
12
12
12
12
12
12
12
12
12
12
12
12
12
12
12
12
12
12
12
12
12
12
12
12
12
12
12
12
12
12
12
12
12
12
12
12
12
12
12
12
12
12
12
12
12
12
12
12
12
12
12
12
12
12
12
12
12
12
12
12
12
12
12
12
12
12
12
12
12
12
12
12
12
12
12
12
12
12
12
12
12
12
12
12
12
12
12
12
12
12
12
12
12
12
12
12
12
12
12
12
12
12
12
12
12
12
12
12
12
12
12
12
12
12
12
12
12
12
12
12
12
12
12
12
12
12
12
12
12
12
12
12
12
12
12
12
12
12
12
12
12
12
12
12
12
12
12
12
12
12
12
12
12
12
12
12
12
12
12
12
12
12
12
12
12
12
12
12
12
12
12
12
12
12
12
12
12
12
12
12
12
12
12
12
12
12
12
12
12
12
12
12
12
12
12
12
12
12
12
12
12
12
12
12
12
12
12
12
12
12
12
12
12
12
12
12
12
12
12
12
12
12
12
12
12
12
12
12
12
12
12
12
12
12
12
12
12
12
12
12
12
12
12
12
12
12
12
12
12
12
12
12
12
12
12
12
12
12
12
12
12
12
12
12
12
12
12
12
12
12
12
12
12
12
12
12
12
12
12
12
12
12
12
12
12
12
12
12
12
12
12
12
12
12
12
12
12
12
12
12
12
12
12
12
12
12
12
12
12
12
12
12
12
12
12
12
12
12
12
12
12
12
12
12
12
12
12
12
12
12
12
12
12
12
12
12
12
12
12
12
12
12
12
12
12
12
12
12
12
12
12
12
12
12
12
12
12
12
12
12
12
12
12
12
12
12
12
12
12
12
12
12
12
12
12
12
12
12
12
12
12
12
12
12
12
12
12
12
12
12
12
12
12
12
12
12
12
12
12
12
12
12
12
12
12
12
12
12
12
12
12
12
12
12
12
12
12
12
12
12
12
12
12
12
12
12
12
12
12
12
12
12
12
12
12
12
12
12
12
12
12
12
12
12
12
12
12
12
12
12
12
12
12
12
12
12
12
12
12
12
12
12
12
12
12
12
12
12
12
12
12
12
12
12
12
12
12
12
12
12
12
12
12
12
12
12
12
12
12
12
12
12
12
12
12
12
12
12
12
12
12
12
12
12
12
12
12
12
12
12
12
12
12
12
12
12
12
12
12
12
12
12
12
12
12
12
12
12
12
12
12
12
12
12
12
12
12
12
12
12
12
12
12
12
12
12
12
12
12
12
12
12
12
12
12
12
12
12
12
12
12
12
12
12
12
12
12
12
12
12
12
12
12
12
12
12
12
12
12
12
12
12
12
12
12
12
12
12
12
12
12
12
12
12
12
12
12
12
12
12
12
12
12
12
12
12
12
12
12
12
12
12
12
12
12
12
12
12
12
12
12
12
12
12
12
12
12
12
12
12
12
12
12
12
12
12
12
12
12
12
12
12
12
12
12
12
12
12
12
12
12
12
12
12
12
12
12
12
12
12
12
12
12
12
12
12
12
12
12
12
12
12
12
12
12
12
12
12
12
12
12
12
12
12
12
12
12
12
12
12
12
12
12
12
12
12
12
12
12
12
12
12
12
12
12
12
12
12
12
12
12
12
12
12
12
12
12
12
12
12
12
12
12
12
12
12
12
12
12
12
12
12
12
12
12
12
12
12
12
12
12
12
12
12
12
12
12
12
12
12
12
12
12
12
12
12
12
12
12
12
12
12
12
12
12
12
12
12
12
12
12
12
12
12
12
12
12
12
12
12
12
12
12
12

POINT_DATA 3012
SCALARS Jp_lamdaP float 4
LOOKUP_TABLE default
1 1 1 1
1 1 1 1
1 1 1 1
0.999996 1 1 0.999996
1 1 1 1
1 1 1 1
0.999916 1 1 0.999916
1 1 1 1
1 1 1 1
1 1 1 1
1 1 1 1
0.99998 1 1 0.99998
0.999986 1 1 0.999986
0.999997 1 1 0.999997
1 1 1 1
0.999997 1 1 0.999997
1 1 1 1
1 1 1 1
0.999917 1 1 0.999917
1 1 1 1
0.999993 1 1 0.999993
0.999999 1 1 0.999999
0.999853 1 1 0.999853
0.999899 1 1 0.999899
1 1 1 1
0.999936 1 1 0.999936
0.999754 1 1 0.999754
1 1 1 1
1 1 1 1
1 1 1 1
1 1 1 1
0.999983 1 1 0.999983
0.999999 1 1 0.999999
1 1 1 1
0.999937 1 1 0.999937
1 1 1 1
0.99997 1 1 0.99997
0.99999 1 1 0.99999
0.999792 1 1 0.999792
1 1 1 1
1 1 1 1
0.999998 1 1 0.999998
1 1 1 1
0.999994 1 1 0.999994
0.999857 1 1 0.999857
1 1 1 1
0.999904 1 1 0.999904
0.999998 1 1 0.999998
1 1 1 1
1 1 1 1
0.999918 1 1 0.999918
0.999993 1 1 0.999993
0.999994 1 1 0.999994
1 1 1 1
0.999999 1 1 0.999999
0.999854 1 1 0.999854
0.999937 1 1 0.999937
0.9999 1 1 0.9999
0.999748 1 1 0.999748
1 1 1 1
0.999991 1 1 0.999991
0.999873 1 1 0.999873
0.999838 1 1 0.999838
0.999878 1 1 0.999878
0.9996 1 1 0.9996
0.999692 1 1 0.999692
1 1 1 1
0.999959 1 1 0.999959
0.999798 1 1 0.999798
0.999544 1 1 0.999544
1 1 1 1
1 1 1 1
1 1 1 1
0.999986 1 1 0.999986
1 1 1 1
1 1 1 1
0.999942 1 1 0.999942
1 1 1 1
0.999973 1 1 0.999973
0.999993 1 1 0.999993
0.999791 1 1 0.999791
1 1 1 1
1 1 1 1
0.999922 1 1 0.999922
0.999955 1 1 0.999955
0.999666 1 1 0.999666
0.999998 1 1 0.999998
0.999772 1 1 0.999772
0.999813 1 1 0.999813
0.999638 1 1 0.999638
1 1 1 1
1 1 1 1
1 1 1 1
1 1 1 1
1 1 1 1
0.999996 1 1 0.999996
0.999866 1 1 0.999866
0.999999 1 1 0.999999
0.999905 1 1 0.999905
1 1 1 1
0.999835 1 1 0.999835
0.999889 1 1 0.999889
0.999472 1 1 0.999472
0.999914 1 1 0.999914
0.999532 1 1 0.999532
0.999988 1 1 0.999988
0.999995 1 1 0.999995
1 1 1 1
1 1 1 1
0.999856 1 1 0.999856
0.999901 1 1 0.999901
0.999937 1 1 0.999937
0.999743 1 1 0.999743
1 1 1 1
0.999992 1 1 0.999992
0.999839 1 1 0.999839
0.999839 1 1 0.999839
1 1 1 1
0.999973 1 1 0.999973
0.999879 1 1 0.999879
0.999587 1 1 0.999587
0.999792 1 1 0.999792
0.999701 1 1 0.999701
0.999545 1 1 0.999545
0.999843 1 1 0.999843
0.999833 1 1 0.999833
0.999507 1 1 0.999507
0.999548 1 1 0.999548
0.999634 1 1 0.999634
0.999393 1 1 0.999393
1 1 1 1
0.99951 1 1 0.99951
0.999998 1 1 0.999998
0.999808 1 1 0.999808
0.999577 1 1 0.999577
0.99946 1 1 0.99946
1 1 1 1
0.999876 1 1 0.999876
1 1 1 1
1 1 1 1
0.999947 1 1 0.999947
1 1 1 1
0.999996 1 1 0.999996
0.999976 1 1 0.999976
0.99979 1 1 0.99979
1 1 1 1
1 1 1 1
0.999926 1 1 0.999926
0.999959 1 1 0.999959
0.999667 1 1 0.999667
0.999999 1 1 0.999999
0.999772 1 1 0.999772
0.999812 1 1 0.999812
0.999633 1 1 0.999633
1 1 1 1
1 1 1 1
0.999889 1 1 0.999889
0.999609 1 1 0.999609
0.999728 1 1 0.999728
0.999489 1 1 0.999489
0.999841 1 1 0.999841
0.999615 1 1 0.999615
0.999649 1 1 0.999649
0.999571 1 1 0.999571
1 1 1 1
1 1 1 1
1 1 1 1
1 1 1 1
1 1 1 1
1 1 1 1
1 1 1 1
0.999906 1 1 0.999906
0.999865 1 1 0.999865
1 1 1 1
1 1 1 1
0.999837 1 1 0.999837
0.999891 1 1 0.999891
0.999472 1 1 0.999472
0.999915 1 1 0.999915
0.999532 1 1 0.999532
0.999827 1 1 0.999827
0.999437 1 1 0.999437
0.999505 1 1 0.999505
0.999299 1 1 0.999299
0.999564 1 1 0.999564
0.999364 1 1 0.999364
1 1 1 1
0.999994 1 1 0.999994
0.999805 1 1 0.999805
0.99984 1 1 0.99984
1 1 1 1
0.999987 1 1 0.999987
0.999881 1 1 0.999881
0.999573 1 1 0.999573
0.99971 1 1 0.99971
0.999785 1 1 0.999785
0.999546 1 1 0.999546
0.999841 1 1 0.999841
0.999834 1 1 0.999834
0.999481 1 1 0.999481
0.999557 1 1 0.999557
1 1 1 1
0.999996 1 1 0.999996
0.99982 1 1 0.99982
0.999635 1 1 0.999635
0.999377 1 1 0.999377
0.999575 1 1 0.999575
0.999517 1 1 0.999517
0.999461 1 1 0.999461
1 1 1 1
0.999876 1 1 0.999876
0.999443 1 1 0.999443
0.999533 1 1 0.999533
0.999322 1 1 0.999322
0.999326 1 1 0.999326
0.999467 1 1 0.999467
0.999315 1 1 0.999315
1 1 1 1
0.999431 1 1 0.999431
0.999827 1 1 0.999827
0.999622 1 1 0.999622
0.999491 1 1 0.999491
0.999436 1 1 0.999436
0.99985 1 1 0.99985
0.999914 1 1 0.999914
0.99968 1 1 0.99968
0.999929 1 1 0.999929
1 1 1 1
1 1 1 1
0.999964 1 1 0.999964
0.999668 1 1 0.999668
1 1 1 1
0.999812 1 1 0.999812
0.999773 1 1 0.999773
0.999628 1 1 0.999628
1 1 1 1
1 1 1 1
0.999889 1 1 0.999889
0.999609 1 1 0.999609
0.99973 1 1 0.99973
0.999489 1 1 0.999489
0.999841 1 1 0.999841
0.999621 1 1 0.999621
0.999648 1 1 0.999648
0.999564 1 1 0.999564
1 1 1 1
0.999864 1 1 0.999864
0.999918 1 1 0.999918
0.999706 1 1 0.999706
0.999432 1 1 0.999432
0.999566 1 1 0.999566
0.999401 1 1 0.999401
0.999674 1 1 0.999674
0.999549 1 1 0.999549
0.999548 1 1 0.999548
0.999514 1 1 0.999514
0.999979 1 1 0.999979
1 1 1 1
1 1 1 1
1 1 1 1
1 1 1 1
1 1 1 1
1 1 1 1
1 1 1 1
1 1 1 1
0.999916 1 1 0.999916
0.99989 1 1 0.99989
0.999533 1 1 0.999533
0.999472 1 1 0.999472
0.999838 1 1 0.999838
1 1 1 1
0.999827 1 1 0.999827
0.999437 1 1 0.999437
0.999505 1 1 0.999505
0.999298 1 1 0.999298
0.999565 1 1 0.999565
0.999364 1 1 0.999364
0.999426 1 1 0.999426
0.999262 1 1 0.999262
0.999333 1 1 0.999333
0.999247 1 1 0.999247
0.999395 1 1 0.999395
0.999306 1 1 0.999306
0.999839 1 1 0.999839
0.999834 1 1 0.999834
0.999454 1 1 0.999454
0.999566 1 1 0.999566
1 1 1 1
0.999994 1 1 0.999994
0.999832 1 1 0.999832
0.999637 1 1 0.999637
0.999361 1 1 0.999361
0.999524 1 1 0.999524
0.999572 1 1 0.999572
0.999463 1 1 0.999463
1 1 1 1
0.999876 1 1 0.999876
0.999434 1 1 0.999434
0.999532 1 1 0.999532
0.999316 1 1 0.999316
0.999343 1 1 0.999343
1 1 1 1
0.999827 1 1 0.999827
0.999633 1 1 0.999633
0.999466 1 1 0.999466
0.999311 1 1 0.999311
0.999479 1 1 0.999479
0.999431 1 1 0.999431
0.999435 1 1 0.999435
0.99985 1 1 0.99985
0.999676 1 1 0.999676
0.999913 1 1 0.999913
0.999294 1 1 0.999294
0.99933 1 1 0.99933
0.999233 1 1 0.999233
0.999264 1 1 0.999264
0.999385 1 1 0.999385
0.999318 1 1 0.999318
0.999837 1 1 0.999837
0.999416 1 1 0.999416
0.999675 1 1 0.999675
0.999521 1 1 0.999521
0.999418 1 1 0.999418
0.999459 1 1 0.999459
0.999948 1 1 0.999948
0.999682 1 1 0.999682
0.999683 1 1 0.999683
0.999604 1 1 0.999604
0.99961 1 1 0.99961
1 1 1 1
1 1 1 1
0.999889 1 1 0.999889
0.999732 1 1 0.999732
0.999489 1 1 0.999489
0.999841 1 1 0.999841
0.999647 1 1 0.999647
0.999627 1 1 0.999627
0.999557 1 1 0.999557
1 1 1 1
0.999864 1 1 0.999864
0.999919 1 1 0.999919
0.999705 1 1 0.999705
0.999431 1 1 0.999431
0.999567 1 1 0.999567
0.999401 1 1 0.999401
0.999675 1 1 0.999675
0.999556 1 1 0.999556
0.999546 1 1 0.999546
0.99953 1 1 0.99953
1 1 1 1
0.999943 1 1 0.999943
0.999694 1 1 0.999694
0.999729 1 1 0.999729
0.999601 1 1 0.999601
0.999354 1 1 0.999354
0.999484 1 1 0.999484
0.999369 1 1 0.999369
0.999565 1 1 0.999565
0.999506 1 1 0.999506
0.999442 1 1 0.999442
0.99997 1 1 0.99997
0.999833 1 1 0.999833
0.999986 1 1 0.999986
0.999981 1 1 0.999981
1 1 1 1
1 1 1 1
1 1 1 1
1 1 1 1
1 1 1 1
1 1 1 1
1 1 1 1
1 1 1 1
1 1 1 1
1 1 1 1
1 1 1 1
0.999565 1 1 0.999565
0.999505 1 1 0.999505
0.999364 1 1 0.999364
0.999298 1 1 0.999298
0.999437 1 1 0.999437
0.999826 1 1 0.999826
0.999426 1 1 0.999426
0.999262 1 1 0.999262
0.999333 1 1 0.999333
0.999244 1 1 0.999244
0.999394 1 1 0.999394
0.999306 1 1 0.999306
0.99925 1 1 0.99925
0.999213 1 1 0.999213
0.999273 1 1 0.999273
0.999236 1 1 0.999236
0.999332 1 1 0.999332
0.999328 1 1 0.999328
0.999424 1 1 0.999424
0.999532 1 1 0.999532
0.99931 1 1 0.99931
0.99936 1 1 0.99936
0.999999 1 1 0.999999
0.999827 1 1 0.999827
0.999644 1 1 0.999644
0.999466 1 1 0.999466
0.999308 1 1 0.999308
0.999431 1 1 0.999431
0.999467 1 1 0.999467
0.999434 1 1 0.999434
0.999851 1 1 0.999851
0.999673 1 1 0.999673
0.999913 1 1 0.999913
0.999281 1 1 0.999281
0.99933 1 1 0.99933
0.999226 1 1 0.999226
0.999268 1 1 0.999268
0.999838 1 1 0.999838
0.999674 1 1 0.999674
0.999533 1 1 0.999533
0.99939 1 1 0.99939
0.999324 1 1 0.999324
0.999408 1 1 0.999408
0.999417 1 1 0.999417
0.999464 1 1 0.999464
0.999683 1 1 0.999683
0.999595 1 1 0.999595
0.999946 1 1 0.999946
0.999688 1 1 0.999688
0.999203 1 1 0.999203
0.999241 1 1 0.999241
0.99919 1 1 0.99919
0.999256 1 1 0.999256
0.999386 1 1 0.999386
0.999346 1 1 0.999346
0.999686 1 1 0.999686
0.999467 1 1 0.999467
0.999582 1 1 0.999582
0.999439 1 1 0.999439
0.999368 1 1 0.999368
0.999463 1 1 0.999463
0.999966 1 1 0.999966
0.999721 1 1 0.999721
0.999609 1 1 0.999609
0.999586 1 1 0.999586
0.999564 1 1 0.999564
1 1 1 1
0.99943 1 1 0.99943
0.99992 1 1 0.99992
0.999864 1 1 0.999864
0.999704 1 1 0.999704
0.999568 1 1 0.999568
0.999401 1 1 0.999401
0.999675 1 1 0.999675
0.999543 1 1 0.999543
0.999563 1 1 0.999563
0.999547 1 1 0.999547
1 1 1 1
0.999945 1 1 0.999945
0.999693 1 1 0.999693
0.999728 1 1 0.999728
0.999597 1 1 0.999597
0.999352 1 1 0.999352
0.999484 1 1 0.999484
0.999365 1 1 0.999365
0.999567 1 1 0.999567
0.99951 1 1 0.99951
0.99945 1 1 0.99945
0.999959 1 1 0.999959
0.999757 1 1 0.999757
0.999587 1 1 0.999587
0.999613 1 1 0.999613
0.999549 1 1 0.999549
0.999336 1 1 0.999336
0.999443 1 1 0.999443
0.999406 1 1 0.999406
0.999468 1 1 0.999468
0.99939 1 1 0.99939
0.999973 1 1 0.999973
0.999791 1 1 0.999791
0.999822 1 1 0.999822
0.999721 1 1 0.999721
0.999844 1 1 0.999844
0.99999 1 1 0.99999
0.999987 1 1 0.999987
1 1 1 1
0.999983 1 1 0.999983
1 1 1 1
1 1 1 1
1 1 1 1
1 1 1 1
1 1 1 1
1 1 1 1
1 1 1 1
1 1 1 1
1 1 1 1
1 1 1 1
1 1 1 1
0.999394 1 1 0.999394
0.999333 1 1 0.999333
0.999306 1 1 0.999306
0.999241 1 1 0.999241
0.999262 1 1 0.999262
0.999426 1 1 0.999426
0.99925 1 1 0.99925
0.999208 1 1 0.999208
0.999273 1 1 0.999273
0.999234 1 1 0.999234
0.999331 1 1 0.999331
0.999328 1 1 0.999328
0.999189 1 1 0.999189
0.99925 1.00005 1 0.999199
0.99927 1 1 0.99927
0.999226 1 1 0.999226
0.999337 1 1 0.999337
0.999349 1 1 0.999349
0.999268 1 1 0.999268
0.99933 1 1 0.99933
0.999218 1 1 0.999218
0.999271 1 1 0.999271
0.999839 1 1 0.999839
0.999673 1 1 0.999673
0.999545 1 1 0.999545
0.999395 1 1 0.999395
0.99933 1 1 0.99933
0.999417 1 1 0.999417
0.999398 1 1 0.999398
0.999469 1 1 0.999469
0.999685 1 1 0.999685
0.999586 1 1 0.999586
0.999944 1 1 0.999944
0.999693 1 1 0.999693
0.999203 1 1 0.999203
0.999243 1 1 0.999243
0.999189 1 1 0.999189
0.999257 1 1 0.999257
0.999687 1 1 0.999687
0.999591 1 1 0.999591
0.999438 1 1 0.999438
0.999381 1 1 0.999381
0.99937 1 1 0.99937
0.999363 1 1 0.999363
0.999468 1 1 0.999468
0.999479 1 1 0.999479
0.999609 1 1 0.999609
0.999561 1 1 0.999561
0.999584 1 1 0.999584
0.99995 1 1 0.99995
0.999726 1 1 0.999726
0.999169 1 1 0.999169
0.99918 1 1 0.99918
0.999277 1 1 0.999277
0.999422 1 1 0.999422
0.999618 1 1 0.999618
0.999517 1 1 0.999517
0.999518 1 1 0.999518
0.999331 1 1 0.999331
0.999325 1 1 0.999325
0.99995 1 1 0.99995
0.999784 1 1 0.999784
0.999617 1 1 0.999617
0.999582 1 1 0.999582
0.999512 1 1 0.999512
0.999533 1 1 0.999533
1 1 1 1
0.999946 1 1 0.999946
0.999351 1 1 0.999351
0.999728 1 1 0.999728
0.999693 1 1 0.999693
0.999594 1 1 0.999594
0.999484 1 1 0.999484
0.999362 1 1 0.999362
0.999568 1 1 0.999568
0.999459 1 1 0.999459
0.999515 1 1 0.999515
0.999962 1 1 0.999962
0.999757 1 1 0.999757
0.999593 1 1 0.999593
0.999612 1 1 0.999612
0.999542 1 1 0.999542
0.999334 1 1 0.999334
0.999441 1 1 0.999441
0.999411 1 1 0.999411
0.999462 1 1 0.999462
0.999376 1 1 0.999376
0.999784 1 1 0.999784
0.999617 1 1 0.999617
0.999516 1 1 0.999516
0.99953 1 1 0.99953
0.9995 1 1 0.9995
0.999443 1 1 0.999443
0.999367 1 1 0.999367
0.999395 1 1 0.999395
0.999394 1 1 0.999394
0.99926 1 1 0.99926
0.999975 1 1 0.999975
0.999799 1 1 0.999799
0.999666 1 1 0.999666
0.999812 1 1 0.999812
0.999844 1 1 0.999844
0.999706 1 1 0.999706
0.999622 1 1 0.999622
0.999702 1 1 0.999702
0.999854 1 1 0.999854
0.999992 1 1 0.999992
0.999991 1 1 0.999991
1 1 1 1
0.999988 1 1 0.999988
1 1 1 1
1 1 1 1
1 1 1 1
1 1 1 1
1 1 1 1
1 1 1 1
1 1 1 1
1 1 1 1
1 1 1 1
1 1 1 1
1 1 1 1
0.999329 1 1 0.999329
0.999274 1 1 0.999274
0.999328 1 1 0.999328
0.999232 1 1 0.999232
0.999203 1 1 0.999203
0.99925 1 1 0.99925
0.999187 1 1 0.999187
0.999237 1.00004 1 0.999201
0.999265 1 1 0.999265
0.999221 1 1 0.999221
0.999337 1 1 0.999337
0.999363 1 1 0.999363
0.999288 1.00011 1 0.999177
0.999316 1.00011 1 0.999208
0.999268 1 1 0.999268
0.999412 1 1 0.999412
0.999204 1 1 0.999204
0.999246 1 1 0.999246
0.999189 1 1 0.999189
0.999258 1 1 0.999258
0.999687 1 1 0.999687
0.999601 1 1 0.999601
0.999437 1 1 0.999437
0.999377 1 1 0.999377
0.999394 1 1 0.999394
0.99947 1 1 0.99947
0.999358 1 1 0.999358
0.999494 1 1 0.999494
0.999609 1 1 0.999609
0.999559 1 1 0.999559
0.999582 1 1 0.999582
0.999934 1 1 0.999934
0.999732 1 1 0.999732
0.999171 1 1 0.999171
0.999185 1 1 0.999185
0.999286 1 1 0.999286
0.999617 1 1 0.999617
0.999531 1 1 0.999531
0.999328 1 1 0.999328
0.999413 1 1 0.999413
0.999348 1 1 0.999348
0.999514 1 1 0.999514
0.999951 1 1 0.999951
0.999581 1 1 0.999581
0.999541 1 1 0.999541
0.999512 1 1 0.999512
0.999622 1 1 0.999622
0.999772 1 1 0.999772
0.999164 1 1 0.999164
0.999171 1 1 0.999171
0.999327 1 1 0.999327
0.999536 1.00005 1 0.999488
0.999576 1 1 0.999576
0.999392 1 1 0.999392
0.999403 1 1 0.999403
0.99926 1 1.00001 0.999247
0.999963 1 1 0.999963
0.999817 1 1 0.999817
0.999659 1 1 0.999659
0.999502 1 1 0.999502
0.999543 1 1 0.999543
0.999484 1 1 0.999484
0.999964 1 1 0.999964
0.999757 1 1 0.999757
0.999332 1 1 0.999332
0.999611 1 1 0.999611
0.999599 1 1 0.999599
0.999535 1 1 0.999535
0.999438 1 1 0.999438
0.999415 1 1 0.999415
0.999456 1 1 0.999456
0.999362 1 1 0.999362
0.999784 1 1 0.999784
0.999622 1 1 0.999622
0.999525 1 1 0.999525
0.999535 1 1 0.999535
0.999504 1 1 0.999504
0.999444 1 1 0.999444
0.999371 1 1 0.999371
0.999431 1 1 0.999431
0.999386 1 1 0.999386
0.999243 1 1 0.999243
0.999643 1 1 0.999643
0.999519 1 1 0.999519
0.999447 1 1 0.999447
0.99946 1 1 0.99946
0.999594 1.00018 1 0.999419
0.99966 1.00032 0.999872 0.99947
0.999248 1 1 0.999248
1.00045 1 1.00123 0.999227
0.999806 1 1 0.999806
0.999673 1 1 0.999673
0.99959 1 1 0.99959
0.999844 1 1 0.999844
0.99969 1 1 0.99969
0.999854 1 1 0.999854
0.99961 1 1 0.99961
0.999708 1 1 0.999708
0.999544 1 1 0.999544
0.999609 1 1 0.999609
0.999711 1 1 0.999711
0.999858 1 1 0.999858
0.999992 1 1 0.999992
0.999992 1 1 0.999992
1 1 1 1
0.999991 1 1 0.999991
1 1 1 1
1 1 1 1
1 1 1 1
1 1 1 1
1 1 1 1
1 1 1 1
1 1 1 1
1 1 1 1
1 1 1 1
1 1 1 1
1 1 1 1
0.999337 1 1 0.999337
0.999259 1 1 0.999259
0.999378 1 1 0.999378
0.999215 1 1 0.999215
0.999203 1 1 0.999203
0.999185 1 1 0.999185
0.999256 1.00008 1 0.99918
0.999289 1.00008 1 0.999208
0.999275 1 1 0.999275
0.999407 1 1 0.999407
0.999371 1.00018 1 0.99919
0.999406 1.00016 1 0.999242
0.999335 1 1 0.999335
0.999172 1 1 0.999172
0.99919 1 1 0.99919
0.999295 1 1 0.999295
0.999616 1 1 0.999616
0.999543 1 1 0.999543
0.999326 1 1 0.999326
0.999403 1 1 0.999403
0.999511 1 1 0.999511
0.999372 1 1 0.999372
0.99958 1 1 0.99958
0.999548 1 1 0.999548
0.999512 1 1 0.999512
0.999951 1 1 0.999951
0.999627 1 1 0.999627
0.999761 1 1 0.999761
0.999197 1.00003 1 0.999167
0.999168 1 1 0.999168
0.999315 1 1 0.999315
0.999574 1 1 0.999574
0.999422 1 1 0.999422
0.999312 1 1.00006 0.999252
0.999718 1.00022 1 0.999497
0.99939 1 1 0.99939
0.999974 1 1 0.999974
0.999818 1 1 0.999818
0.999542 1 1 0.999542
0.999489 1 1 0.999489
0.999508 1 1 0.999508
0.99965 1 1 0.99965
0.999243 1.00006 1 0.999187
0.999301 1.00012 1 0.999186
0.999898 1.00055 0.999905 0.999444
1.00013 1.00063 1 0.999503
0.999513 1 1 0.999513
1.00047 1 1.00127 0.9992
0.999347 1 1.00003 0.999317
0.999996 1 1 0.999996
0.999882 1 1 0.999882
0.999821 1 1 0.999821
0.999671 1 1 0.999671
0.99954 1 1 0.99954
0.999429 1 1 0.999429
0.999523 1 1 0.999523
0.999461 1 1 0.999461
0.999784 1 1 0.999784
0.999626 1 1 0.999626
0.999444 1 1 0.999444
0.99954 1 1 0.99954
0.999535 1 1 0.999535
0.999509 1 1 0.999509
0.999376 1 1 0.999376
0.999467 1 1 0.999467
0.999378 1 1 0.999378
0.999227 1 1 0.999227
0.99964 1 1 0.99964
0.999527 1 1 0.999527
0.999456 1 1 0.999456
0.999467 1 1 0.999467
0.999495 1.00008 1 0.999413
0.999571 1.00015 0.999949 0.999467
0.999265 1 1 0.999265
1.00012 1 1.0009 0.99922
0.999562 1 1 0.999562
0.999334 1 1 0.999333
0.999458 1 1 0.999458
0.999479 1 1.00011 0.999368
1.00061 1.00143 0.999722 0.999454
0.999495 1.00026 1 0.99923
1.00119 1 1.00204 0.999152
0.999681 1 1 0.999681
0.99959 1 1 0.99959
0.999519 1 1 0.999519
0.999854 1 1 0.999854
0.999714 1 1 0.999714
0.999598 1 1 0.999598
0.999859 1 1 0.999859
0.99971 1 1 0.99971
0.999535 1 1 0.999535
0.999621 1 1 0.999621
0.999488 1 1 0.999488
0.999531 1 1 0.999531
0.999632 1 1 0.999632
0.999729 1 1 0.999729
0.999858 1 1 0.999858
0.999992 1 1 0.999992
0.999992 1 1 0.999992
1 1 1 1
0.999992 1 1 0.999992
1 1 1 1
1 1 1 1
1 1 1 1
1 1 1 1
1 1 1 1
0.999999 1 1 0.999999
1 1 1 1
1 1 1 1
1 1 1 1
1 1 1 1
1 1 1 1
1 1 1 1
0.999402 1 1 0.999402
0.999281 1 1 0.999281
0.999272 1.00007 1 0.999207
0.999245 1.00006 1 0.999183
0.999355 1.00016 1 0.999195
0.999391 1.00016 1 0.999235
0.999349 1 1 0.999349
0.999431 1.0002 1 0.999228
0.999341 1.00007 1 0.999267
0.999352 1 1 0.999352
0.999215 1.00004 1 0.999171
0.999166 1 1 0.999166
0.999303 1 1 0.999303
0.999572 1 1 0.999572
0.99944 1 1 0.99944
0.999257 1 1 0.999257
0.999869 1.00036 1 0.999505
0.999388 1 1 0.999388
0.999542 1 1 0.999542
0.999494 1 1 0.999494
0.999513 1 1 0.999513
0.999986 1 1 0.999986
0.999818 1 1 0.999818
0.999641 1 1 0.999641
0.999221 1.00003 1 0.99919
0.999994 1 1 0.999994
0.999874 1 1 0.999874
0.999372 1.00019 1 0.999187
1.00004 1.00062 1 0.999422
0.999522 1 1 0.999522
0.999695 1 1.0004 0.999298
0.999799 1 1.00059 0.999207
0.999874 1.00037 1 0.999502
0.999844 1 1 0.999844
0.99967 1 1 0.99967
0.99952 1 1 0.99952
0.999484 1 1 0.999484
0.999416 1 1 0.999416
0.999542 1 1 0.999542
0.999593 1.00037 1 0.999218
1.00014 1.00087 1 0.999269
1.00081 1.00164 0.999601 0.99957
0.999313 1 1 0.999313
0.999734 1 1.00026 0.999471
1.00195 1 1.00278 0.999173
0.999882 1 1 0.999882
0.999863 1 1 0.999863
0.99977 1 1 0.99977
0.999677 1 1 0.999677
0.999575 1 1 0.999575
0.999445 1 1 0.999445
0.999358 1 1 0.999358
0.999487 1 1 0.999487
0.999636 1 1 0.999636
0.999534 1 1 0.999534
0.999407 1 1 0.999407
0.999464 1 1 0.999464
0.999474 1 1 0.999474
0.999465 1 1 0.999465
0.999282 1 1 0.999282
0.999808 1 1.0006 0.999212
0.999562 1 1 0.999562
0.999348 1 1 0.999348
0.999459 1 1 0.999459
0.999631 1 1.00028 0.999355
1.00006 1.00085 0.999759 0.999447
0.999676 1.00044 1 0.999235
1.00103 1 1.00188 0.999151
0.999481 1 1 0.999481
1.00634 1.00751 0.999451 0.999386
0.999403 1 1 0.999403
1.00069 1 1.00145 0.999245
0.997909 1.00143 0.997225 0.999253
1.00094 1 1.00184 0.999106
1.00599 1.00857 0.998175 0.999266
0.99959 1 1 0.99959
0.999519 1 1 0.999519
0.99947 1 1 0.99947
0.999859 1 1 0.999859
0.999709 1 1 0.999709
0.999633 1 1 0.999633
0.999526 1 1 0.999526
0.999858 1 1 0.999858
0.999721 1 1 0.999721
0.999485 1 1 0.999485
0.999631 1 1 0.999631
0.999542 1 1 0.999542
0.999466 1 1 0.999466
0.999566 1 1 0.999566
0.99964 1 1 0.99964
0.99971 1 1 0.99971
0.999836 1 1 0.999836
0.999746 1 1 0.999746
0.999836 1 1 0.999836
0.999991 1 1 0.999991
0.999992 1 1 0.999992
1 1 1 1
0.999992 1 1 0.999992
1 1 1 1
1 1 1 1
1 1 1 1
1 1 1 1
1 1 1 1
1 1 1 1
0.999998 1 1 0.999998
1 1 1 1
1 1 1 1
1 1 1 1
1 1 1 1
1 1 1 1
1 1 1 1
0.999362 1 1 0.999362
0.999397 1.00017 1 0.999228
0.999344 1.00014 1 0.9992
0.999432 1.0002 1 0.999227
0.999407 1.00013 1 0.999274
0.99936 1 1 0.99936
0.999882 1.00059 1 0.999292
1.00365 1.00892 0.995308 0.999467
1.00531 1.00616 0.999705 0.999454
0.999911 1 1 0.999911
0.999213 1.00002 1 0.999193
0.999446 1.00026 1 0.999187
1.00011 1.00071 1 0.9994
0.999532 1 1 0.999532
1.00026 1 1.00098 0.999278
0.999331 1 1.00012 0.999213
0.999631 1.00013 1 0.9995
0.999516 1 1 0.999516
0.999507 1 1 0.999507
0.999402 1 1 0.999402
0.999992 1 1 0.999992
0.999544 1 1 0.999544
0.999866 1 1 0.999866
0.99967 1 1 0.99967
0.999865 1 1 0.999865
0.999505 1.00029 1 0.999213
0.999892 1 1 0.999892
0.999863 1 1 0.999863
0.999752 1 1 0.999752
1.00036 1.00109 1 0.999272
1.00011 1.0011 0.999469 0.999542
0.999687 1 1.00021 0.999476
1.00214 1 1.00298 0.999164
0.99948 1 1.00016 0.999318
0.999689 1 1 0.999689
0.99957 1 1 0.99957
0.999476 1 1 0.999476
0.99941 1 1.00004 0.999372
0.999454 1 1 0.999454
1.00115 1.0019 1.00004 0.999207
0.999966 1.00318 0.997374 0.999416
0.999875 1.00077 0.999716 0.99939
1.00107 1 1.00188 0.999194
1.00168 1 1.00229 0.999384
0.999754 1 1 0.999754
0.99971 1 1 0.99971
0.999657 1 1 0.999657
0.999583 1 1 0.999583
0.999497 1 1 0.999497
0.999389 1 1 0.999389
1.00095 1 1.00161 0.999334
0.999561 1 1 0.999561
0.999459 1 1 0.999459
0.999363 1 1 0.999363
0.999471 1.00028 0.999753 0.99944
0.999847 1.00061 1 0.999239
0.999785 1 1.00044 0.999341
1.00074 1 1.00159 0.999151
0.999489 1 1 0.999489
1.00613 1.0076 0.999142 0.999392
0.999405 1 1 0.999405
1.00061 1 1.00137 0.999245
0.998975 1.00185 0.99785 0.999281
1.00147 1 1.00237 0.999102
1.00776 1.01084 0.997688 0.999265
0.999434 1 1 0.999434
0.998263 1.00637 0.992655 0.999283
0.999592 1 1.00022 0.999368
1.00411 1 1.00493 0.99918
1.00052 1.00032 1.00109 0.999119
0.959375 0.963823 0.998736 0.996644
1.00333 1.00107 1.00352 0.99874
0.989388 1.00979 0.980457 0.999327
0.931517 0.945812 0.986091 0.998779
0.94042 0.972092 0.968209 0.999184
0.999519 1 1 0.999519
0.999473 1 1 0.999473
0.999442 1 1 0.999442
0.999858 1 1 0.999858
0.999713 1 1 0.999713
0.999631 1 1 0.999631
0.999552 1 1 0.999552
0.999482 1 1 0.999482
0.999628 1 1 0.999628
0.999846 1 1 0.999846
0.999719 1 1 0.999719
0.999472 1 1 0.999472
0.999562 1 1 0.999562
0.999574 1 1 0.999574
0.999494 1 1 0.999494
0.999609 1 1 0.999609
0.999708 1 1 0.999708
0.999835 1 1 0.999835
0.999734 1 1 0.999734
0.999646 1 1 0.999646
0.999719 1 1 0.999719
0.999731 1 1 0.999731
0.999852 1 1 0.999852
0.999836 1 1 0.999836
0.99999 1 1 0.99999
0.999991 1 1 0.999991
1 1 1 1
0.999991 1 1 0.999991
1 1 1 1
1 1 1 1
1 1 1 1
1 1 1 1
1 1 1 1
1 1 1 1
1 1 1 1
1 1 1 1
0.999998 1 1 0.999998
1 1 1 1
1 1 1 1
1 1 1 1
1 1 1 1
1 1 1 1
0.999462 1.00018 1 0.999281
0.999398 1.00017 1 0.999227
0.999367 1 1 0.999367
1.00501 1.00886 0.996711 0.999475
0.999963 1.00068 1 0.999288
1.00528 1.00601 0.999863 0.99942
1.00427 1.00504 1.00004 0.999196
0.978868 0.984914 0.995419 0.998436
1.00505 1.00616 0.999342 0.999557
0.999917 1 1 0.999917
0.999911 1 1 0.999911
0.999789 1 1 0.999789
0.999803 1 1 0.999803
0.999422 1.00021 1 0.999208
1.00059 1.00131 1 0.999276
0.999486 1.00049 0.999481 0.999513
0.999482 1 1 0.999482
1.00188 1 1.00273 0.999155
0.999454 1 1.00013 0.999324
0.999466 1 1 0.999466
0.999484 1 1.0001 0.999385
0.999464 1 1 0.999464
0.999862 1 1 0.999862
0.999564 1 1 0.999564
0.999702 1 1 0.999702
0.999902 1 1 0.999902
0.999734 1 1 0.999734
1.00084 1.00159 1.00003 0.999223
0.999771 1 1 0.999771
0.99972 1 1 0.99972
0.999656 1 1 0.999656
1.00098 1.00326 0.998305 0.99942
0.999361 1.00043 0.999541 0.999391
1.00141 1 1.00203 0.999383
1.00108 1 1.00189 0.999188
0.999587 1 1 0.999587
0.9995 1 1 0.9995
1.00035 1 1.00101 0.999334
0.999429 1 1.00005 0.999379
1.00546 1.00625 0.999954 0.99927
1.00039 1.00332 0.997704 0.999373
1.00005 1.00019 1.00073 0.999137
1.00112 1 1.00182 0.999299
0.999623 1 1 0.999623
0.999607 1 1 0.999607
0.999461 1 1 0.999461
1.0014 1 1.00213 0.999276
0.9553 0.963719 0.994717 0.99653
0.999496 1 1 0.999496
0.999408 1 1 0.999408
1.00593 1.00763 0.99891 0.999398
1.00012 1.00222 0.998595 0.999309
1.00215 1 1.00305 0.999098
1.00078 1 1.00153 0.999246
1.00975 1.01297 0.997559 0.999264
0.99944 1 1 0.99944
0.998441 1.00669 0.992527 0.999275
0.999546 1 1.00018 0.99937
1.00391 1 1.00473 0.999184
0.9999 1.00044 1.00033 0.999131
0.958384 0.964303 0.996986 0.996867
0.997677 0.997478 1.00208 0.998127
0.992724 1.01157 0.982007 0.999352
0.937449 0.948437 0.989935 0.998464
0.93402 0.967617 0.966107 0.999142
0.999438 1 1 0.999438
0.94048 0.948745 0.993156 0.99812
0.954808 0.971992 0.983023 0.999286
0.980327 1.00188 0.979212 0.999261
1.00214 1 1.00279 0.999354
1.00889 1 1.00967 0.99922
0.995665 1.01017 0.986277 0.999358
0.970498 0.970959 1.00313 0.996404
1.0055 1.00408 1.00344 0.997983
0.932614 0.953674 0.979199 0.99869
0.980156 1.00364 0.977109 0.999477
0.999475 1 1 0.999475
0.999443 1 1 0.999443
0.999427 1 1 0.999427
0.999855 1 1 0.999855
0.999728 1 1 0.999728
0.999617 1 1 0.999617
0.999559 1 1 0.999559
0.999478 1 1 0.999478
0.999835 1 1 0.999835
0.999574 1 1 0.999574
0.999622 1 1 0.999622
0.999718 1 1 0.999718
0.999484 1 1 0.999484
0.999534 1 1 0.999534
0.999642 1 1.0002 0.999445
0.999623 1 1 0.999623
0.999728 1 1 0.999728
0.999734 1 1 0.999734
0.999633 1 1 0.999633
0.999635 1 1 0.999635
0.999619 1 1 0.999619
0.99957 1 1 0.99957
0.999563 1 1 0.999563
0.999698 1 1 0.999698
0.999718 1 1 0.999718
0.999846 1 1 0.999846
0.999715 1 1 0.999715
0.999844 1 1 0.999844
0.999989 1 1 0.999989
0.999836 1 1 0.999836
0.99999 1 1 0.99999
1 1 1 1
0.999991 1 1 0.999991
1 1 1 1
1 1 1 1
1 1 1 1
1 1 1 1
1 1 1 1
0.999913 1 1 0.999913
1 1 1 1
1 1 1 1
1 1 1 1
1 1 1 1
1 1 1 1
1 1 1 1
1 1 1 1
1 1 1 1
1 1 1 1
1.00649 1.00916 0.99787 0.999482
1.00005 1.00077 1 0.999283
1.00521 1.00582 1 0.999387
0.980569 0.98446 0.997225 0.998819
1.0053 1.00599 0.999752 0.999565
1.00451 1.0053 1.00003 0.99918
1.007 1.00612 1.00159 0.999285
0.986563 0.986526 1.00136 0.998675
0.962481 0.967083 0.999338 0.995901
0.925375 0.945999 0.98021 0.997948
0.935643 0.963709 0.971675 0.99918
0.999784 1 1 0.999784
0.999917 1 1 0.999917
0.99991 1 1 0.99991
0.999783 1 1 0.999783
0.999702 1 1 0.999702
0.999721 1 1 0.999721
0.999787 1 1 0.999787
0.999795 1 1 0.999795
1.00052 1.00126 1.00003 0.999239
1.00193 1.00339 0.999126 0.999425
0.99891 1.0002 0.999317 0.999391
1.00145 1 1.00207 0.999382
1.00154 1 1.00236 0.999182
0.99978 1 1.00045 0.999335
0.999447 1 1.00008 0.999369
0.999504 1 1 0.999504
0.999731 1 1 0.999731
0.999591 1 1 0.999591
0.999789 1 1 0.999789
0.999656 1 1 0.999656
1.00555 1.00684 0.999465 0.999252
0.999629 1 1 0.999629
0.999608 1 1 0.999608
0.999516 1.00287 0.997283 0.99937
0.99974 1.00017 1.0004 0.999166
1.00166 1 1.00238 0.999278
0.999456 1 1 0.999456
1.00137 1 1.00209 0.99928
0.998587 1.01002 0.989447 0.999223
1.00184 1.00075 1.0019 0.999184
1.00023 1 1.00103 0.999197
1.00435 1 1.0051 0.999252
0.999552 1 1 0.999552
0.999493 1 1 0.999493
0.999886 1 1.00054 0.999342
0.936637 0.951442 0.985891 0.998527
0.961067 0.965575 0.998637 0.99669
0.999445 1 1 0.999445
0.999371 1 1 0.999371
0.998852 1.00722 0.992423 0.999267
0.999186 1.00061 0.999438 0.999142
1.00343 1 1.00425 0.999188
0.959386 0.964993 0.998303 0.99588
0.998105 0.998065 1.00127 0.99877
0.996301 1.01377 0.983378 0.999376
0.932045 0.94824 0.984816 0.998076
0.926879 0.962717 0.963641 0.999101
0.999437 1 1 0.999437
0.934929 0.950755 0.984729 0.998604
0.956702 0.970228 0.986748 0.999302
0.98269 1.00208 0.981385 0.999252
1.00158 1 1.00223 0.999358
1.00815 1 1.00892 0.999233
0.991732 1.0076 0.984897 0.999343
0.971847 0.972773 1.00294 0.996119
1.0003 0.999463 1.00221 0.998636
0.934458 0.95393 0.981528 0.998023
0.973886 1.00102 0.973445 0.999436
0.999415 1 1 0.999415
0.97269 0.975479 0.997644 0.999495
1.01528 1.01769 0.997914 0.999721
0.993806 1 0.994438 0.999364
1.00702 1 1.00756 0.99947
1.00875 1.00361 1.00549 0.999633
0.995425 0.99654 0.999709 0.999172
0.975979 0.973594 1.00621 0.996262
0.952101 0.974493 0.978991 0.997989
0.997614 1.01851 0.97988 0.999594
0.999444 1 1 0.999444
0.99942 1 1 0.99942
0.99984 1 1.00042 0.999419
0.999835 1 1 0.999835
0.999728 1 1 0.999728
0.999635 1 1 0.999635
0.999574 1 1 0.999574
0.999473 1 1 0.999473
0.999728 1 1 0.999728
0.999543 1 1 0.999543
0.999623 1 1 0.999623
0.999685 1 1.00024 0.99944
0.999973 1 1.00055 0.999418
0.999602 1 1.00009 0.999515
0.999628 1 1 0.999628
0.999733 1 1 0.999733
0.99962 1 1 0.99962
0.999635 1 1 0.999635
0.999618 1 1 0.999618
0.999567 1 1 0.999567
0.999592 1 1 0.999592
0.999562 1 1 0.999562
0.999526 1 1 0.999526
0.999497 1 1 0.999497
0.999505 1 1 0.999505
0.999548 1 1 0.999548
0.999564 1 1 0.999564
0.999672 1 1 0.999672
0.999697 1 1 0.999697
0.999832 1 1 0.999832
0.999718 1 1 0.999718
0.999845 1 1 0.999845
0.999987 1 1 0.999987
0.999835 1 1 0.999835
0.999988 1 1 0.999988
1 1 1 1
0.99999 1 1 0.99999
1 1 1 1
1 1 1 1
1 1 1 1
1 1 1 1
1 1 1 1
0.99992 1 1 0.99992
1 1 1 1
0.999913 1 1 0.999913
1 1 1 1
1 1 1 1
1 1 1 1
1 1 1 1
1 1 1 1
1 1 1 1
1 1 1 1
1 1 1 1
0.934867 0.948252 0.987145 0.998723
0.95903 0.971559 0.987672 0.999425
0.983611 0.98512 0.999345 0.999122
1.00541 1.00585 0.999984 0.999574
1.00478 1.00559 1.00003 0.999165
0.986098 0.985026 1.00172 0.999373
1.0061 1.00601 1.0008 0.999293
0.96561 0.969246 0.999597 0.996649
0.932608 0.947096 0.985973 0.998712
0.931717 0.963978 0.967361 0.999145
1.00026 0.996949 1.00381 0.999518
0.971818 0.972805 1.00244 0.996549
0.931045 0.952831 0.978427 0.99868
0.974193 0.997762 0.977021 0.999342
0.99967 1 1 0.99967
0.999791 1 1 0.999791
0.999916 1 1 0.999916
0.999778 1 1 0.999778
0.999711 1 1 0.999711
0.999686 1 1 0.999686
0.999724 1 1 0.999724
0.99974 1 1 0.99974
0.999777 1 1 0.999777
0.999787 1 1 0.999787
1.0056 1.00735 0.999025 0.999235
0.998813 1.00239 0.997063 0.999366
0.999435 1.00011 1.00013 0.999195
1.00195 1 1.00269 0.999258
1.00126 1 1.00198 0.999284
0.999452 1 1 0.999452
0.99961 1 1 0.99961
0.999636 1 1 0.999636
1.00016 1.0096 0.991447 0.999195
0.999547 1 1 0.999547
0.999479 1 1 0.999479
1.00037 1.0005 1.00071 0.999158
1.00056 1 1.00133 0.999228
1.0034 1 1.00416 0.999239
1.00045 1 1.00112 0.999334
0.999919 1.01274 0.988261 0.999064
1.00792 1 1.00865 0.999279
1.004 1 1.00476 0.999248
0.999541 1 1 0.999541
0.999463 1 1 0.999463
0.999371 1 1 0.999371
0.972293 0.976809 0.99596 0.999414
0.938688 0.95056 0.989484 0.998006
0.958325 0.965399 0.996143 0.996516
0.999436 1 1 0.999436
1.00114 1 1.00178 0.999362
0.984859 1.00219 0.983453 0.999242
1.0076 1 1.00836 0.999246
0.932453 0.949872 0.983641 0.997988
0.970086 0.971988 1.00092 0.997129
1.00135 1.00029 1.00303 0.998031
0.988845 1.00518 0.984403 0.999335
0.93803 0.953852 0.984625 0.998768
0.957825 0.97141 0.986751 0.999254
0.965874 0.995062 0.971292 0.999356
0.999413 1 1 0.999413
0.969287 0.975072 0.994625 0.999439
1.01473 1.01723 0.997815 0.999724
0.994783 1 0.995407 0.999372
1.00723 1 1.00777 0.999473
1.00859 1.00315 1.00618 0.999247
0.995791 0.996414 1.00112 0.998261
0.97465 0.974998 1.00349 0.996164
0.958393 0.977535 0.981543 0.998853
0.991069 1.01262 0.979187 0.999522
0.999771 1 1.00021 0.999562
1.02026 1.02067 0.999791 0.999801
1.02343 1.02627 0.997399 0.999839
1.00797 1 1.00825 0.999719
0.99759 0.991933 1.00607 0.999633
0.981861 0.979831 1.00589 0.996207
0.978168 0.992912 0.986219 0.998917
0.992083 1.01438 0.978513 0.999497
0.999413 1 1 0.999413
0.999788 1 1.00036 0.999433
1.00078 1 1.0013 0.999477
0.999728 1 1 0.999728
0.999623 1 1 0.999623
0.999552 1 1 0.999552
0.999716 1 1.00028 0.999435
0.999628 1 1 0.999628
0.999547 1 1.00003 0.999516
1.00035 1 1.00093 0.999419
1.00033 1 1.00086 0.99947
0.999648 1 1.00021 0.999436
0.99955 1 1 0.99955
0.999635 1 1 0.999635
0.999618 1 1 0.999618
0.999565 1 1 0.999565
0.999564 1 1 0.999564
0.999592 1 1 0.999592
0.99953 1 1 0.99953
0.999503 1 1 0.999503
0.999501 1 1 0.999501
0.999466 1 1 0.999466
0.999499 1 1 0.999499
0.999484 1 1 0.999484
0.999454 1 1 0.999454
0.999579 1 1 0.999579
0.999533 1 1 0.999533
0.999557 1 1 0.999557
0.999636 1 1 0.999636
0.999564 1 1 0.999564
0.999672 1 1 0.999672
0.999812 1 1 0.999812
0.999697 1 1 0.999697
0.999832 1 1 0.999832
0.999983 1 1 0.999983
0.999845 1 1 0.999845
0.999986 1 1 0.999986
1 1 1 1
0.999988 1 1 0.999988
1 1 1 1
1 1 1 1
1 1 1 1
1 1 1 1
1 1 1 1
0.99988 1 1 0.99988
1 1 1 1
0.999903 1 1 0.999903
1 1 1 1
1 1 1 1
0.999913 1 1 0.999913
1 1 1 1
1 1 1 1
1 1 1 1
1 1 1 1
1 1 1 1
1 1 1 1
0.972908 0.975709 0.997591 0.999538
0.936182 0.94866 0.988497 0.99833
1.01303 1.01784 0.995556 0.999713
0.956175 0.969343 0.987019 0.999389
0.982484 0.983685 1.00019 0.998587
1.0053 1.00596 1.00004 0.999302
0.966369 0.969125 0.999732 0.997423
0.930083 0.947859 0.983224 0.997988
0.928093 0.964407 0.963203 0.999109
0.99758 0.998193 1.00016 0.999222
0.9712 0.970836 1.004 0.99639
0.933253 0.956181 0.977991 0.997987
0.974341 0.998397 0.976544 0.999345
0.999595 1.00424 0.996023 0.999354
0.971954 0.971059 1.0047 0.996237
0.961701 0.980229 0.982266 0.998812
0.995285 1.01673 0.97935 0.999547
0.999602 1 1 0.999602
0.999681 1 1 0.999681
0.999799 1 1 0.999799
0.99972 1 1 0.99972
0.999622 1 1 0.999622
0.999694 1 1 0.999694
0.999726 1 1 0.999726
0.999726 1 1 0.999726
0.99975 1 1 0.99975
0.999767 1 1 0.999767
1.00189 1.00952 0.993265 0.999166
0.998497 1.00022 0.999148 0.999133
1.00085 1 1.00159 0.999259
1.00271 1 1.00349 0.999225
1.00109 1 1.00176 0.999327
0.999466 1 1 0.999466
0.999542 1 1 0.999542
0.999542 1 1 0.999542
0.998858 1.01038 0.989508 0.999078
0.99947 1 1 0.99947
0.999459 1 1.00009 0.999368
1.00645 1 1.00721 0.999249
1.00386 1 1.00462 0.999249
0.998015 1.01062 0.988327 0.999193
1.01684 1 1.01747 0.999379
1.00009 1 1.00078 0.999315
0.999481 1 1 0.999481
0.999373 1 1 0.999373
1.02122 1.02164 0.999768 0.999824
0.973153 0.976363 0.997223 0.999488
0.938127 0.951255 0.987497 0.998686
0.999411 1 1 0.999411
1.00725 1 1.00778 0.999475
0.995293 1 0.99591 0.99938
0.973693 0.976418 0.997683 0.999524
0.974416 0.972718 1.00564 0.996123
0.997116 0.996209 1.00189 0.999024
1.00729 1.002 1.00645 0.998837
0.953929 0.974021 0.981342 0.997992
1.01441 1.01702 0.997703 0.999726
0.990139 1.01121 0.979627 0.999528
0.999709 1 1.00014 0.999574
1.02042 1.02068 0.999921 0.999829
1.02453 1.02769 0.997088 0.999841
1.00839 0.999985 1.0088 0.999614
0.998743 0.994031 1.00539 0.999353
0.985158 0.98187 1.00726 0.996118
0.995142 1.01807 0.97791 0.99956
0.970852 0.98737 0.984731 0.998518
0.999975 1 1.00026 0.999711
1.02389 1.02564 0.998346 0.999941
1.02713 1.02991 0.997446 0.999858
0.996468 1.01579 0.981418 0.99955
1.00572 0.994096 1.01185 0.999848
0.98305 0.9804 1.00624 0.996489
0.965576 0.982647 0.983811 0.998797
0.999714 1 1.00027 0.999447
1.00053 1 1.00109 0.999442
1.00312 1 1.00355 0.999572
0.999628 1 1 0.999628
0.999517 1 1 0.999517
1.00079 1 1.00138 0.999419
0.999553 1 1 0.999553
0.999759 1 1.00033 0.999434
1.00071 1 1.00126 0.999448
0.999869 1 1.00035 0.999514
0.999466 1 1 0.999466
0.999565 1 1 0.999565
0.999592 1 1 0.999592
0.999535 1 1 0.999535
0.999501 1 1 0.999501
0.999506 1 1 0.999506
0.999474 1 1 0.999474
0.999488 1 1 0.999488
0.999858 1 1.00049 0.999366
0.999502 1 1 0.999502
0.999482 1 1 0.999482
0.999368 1 1 0.999368
0.999467 1 1 0.999467
0.999568 1 1 0.999568
0.999456 1 1 0.999456
0.999638 1 1 0.999638
0.999572 1 1 0.999572
0.999561 1 1 0.999561
0.999567 1 1 0.999567
0.999645 1 1 0.999645
0.999788 1 1 0.999788
0.999672 1 1 0.999672
0.999812 1 1 0.999812
0.999978 1 1 0.999978
0.999831 1 1 0.999831
0.999982 1 1 0.999982
1 1 1 1
0.999985 1 1 0.999985
1 1 1 1
1 1 1 1
1 1 1 1
1 1 1 1
1 1 1 1
0.999827 1 1 0.999827
0.999976 1 1 0.999976
0.999879 1 1 0.999879
1 1 1 1
0.99999 1 1 0.99999
0.999886 1 1 0.999886
1 1 1 1
1 1 1 1
1 1 1 1
1 1 1 1
1 1 1 1
1 1 1 1
1.02014 1.02068 0.999662 0.999812
0.967716 0.974769 0.993365 0.999396
0.939036 0.948756 0.991671 0.998068
0.999685 1 1 0.999685
1.02625 1.02903 0.997425 0.999871
1.01432 1.01822 0.996449 0.999715
0.952334 0.969823 0.982673 0.999282
0.995235 0.998979 0.997359 0.998891
0.972283 0.971501 1.00432 0.996496
0.936886 0.95898 0.978204 0.998728
0.972241 0.996169 0.976675 0.999288
1.00018 1.00767 0.994031 0.998526
0.972792 0.971739 1.00478 0.996317
0.961702 0.980172 0.982674 0.998455
0.992206 1.01503 0.978006 0.999492
0.990482 0.998682 0.993524 0.998254
0.97763 0.975021 1.00721 0.995495
0.971345 0.989895 0.983105 0.998124
0.992832 1.01654 0.977185 0.999482
0.999536 1 1 0.999536
0.999595 1 1 0.999595
0.999692 1 1 0.999692
0.999607 1 1 0.999607
0.999635 1 1 0.999635
0.999702 1 1 0.999702
0.99973 1 1 0.99973
0.99976 1 1 0.99976
0.997511 1.00784 0.99065 0.999092
1.00494 1 1.00573 0.999218
0.999544 1 1 0.999544
1.00362 1 1.00438 0.99925
0.999532 1 1.00017 0.999366
0.999477 1 1 0.999477
0.999483 1 1 0.999483
1.00026 1.00979 0.991355 0.999201
0.999381 1 1 0.999381
1.00091 1 1.0016 0.999309
1.01598 1 1.01663 0.999362
0.999482 1 1 0.999482
1.00174 1.00289 0.999305 0.99955
1.01309 1 1.01363 0.999468
0.99938 1 1 0.99938
0.999421 1 1 0.999421
1.02355 1.02431 0.999312 0.999946
1.02058 1.02104 0.999723 0.999828
0.97396 0.975796 0.998555 0.999563
0.999586 1 1 0.999586
1.00897 0.999979 1.00948 0.999511
1.02055 1.0207 0.999995 0.999857
0.981056 0.976801 1.0082 0.996188
1.0014 0.996255 1.00664 0.998536
0.969874 0.988191 0.983277 0.998156
1.02536 1.02881 0.996807 0.999843
0.998585 1.02222 0.977245 0.999623
1.00015 1 1.00047 0.999679
1.02473 1.02656 0.998278 0.99994
1.02689 1.02944 0.997638 0.999882
1.00688 0.995223 1.01179 0.999931
0.992831 1.01385 0.979765 0.999493
0.981303 0.981504 1.00315 0.996661
0.966225 0.984964 0.982887 0.998055
1.00647 0.998125 1.0086 0.999771
1.0197 1.02163 0.998144 0.999959
1.02713 1.02928 0.998035 0.999869
0.974068 0.997358 0.977281 0.999353
0.970308 0.988401 0.983532 0.998132
1.00355 0.992402 1.01108 1.00015
0.977872 0.976063 1.00548 0.996388
1.0003 1 1.00089 0.999407
1.00224 1 1.00268 0.999558
1.0122 1 1.01262 0.999581
0.999556 1 1 0.999556
0.999799 1 1.00037 0.999433
1.00096 1 1.00154 0.999425
0.999466 1 1 0.999466
0.999945 1 1.00043 0.999512
1.00283 1 1.00337 0.999461
0.999501 1 1 0.999501
0.999508 1 1 0.999508
0.999645 1 1.00018 0.999466
1.00138 1 1.00202 0.99936
0.99951 1 1 0.99951
0.999657 1 1.00027 0.999385
1.00015 1 1.00088 0.99927
0.999337 1 1 0.999337
0.999479 1 1 0.999479
0.999352 1 1 0.999352
0.999518 1 1 0.999518
0.999553 1 1 0.999553
0.999481 1 1 0.999481
0.999639 1 1 0.999639
0.999566 1 1 0.999566
0.999458 1 1 0.999458
0.999767 1 1 0.999767
0.999635 1 1 0.999635
0.999565 1 1 0.999565
0.999654 1 1 0.999654
0.999788 1 1 0.999788
0.999969 1 1 0.999969
0.999811 1 1 0.999811
0.999976 1 1 0.999976
1 1 1 1
0.99998 1 1 0.99998
1 1 1 1
1 1 1 1
1 1 1 1
1 1 1 1
1 1 1 1
0.999802 1 1 0.999802
0.999961 1 1 0.999961
0.999837 1 1 0.999837
1 1 1 1
0.999975 1 1 0.999975
0.999877 1 1 0.999877
1 1 1 1
1 1 1 1
0.999981 1 1 0.999981
1 1 1 1
1 1 1 1
1 1 1 1
1.02464 1.02561 0.999119 0.999938
1.02 1.02073 0.999473 0.999814
0.969153 0.975008 0.994593 0.999399
0.999689 1 1 0.999689
0.999659 1 1 0.999659
0.999609 1 1 0.999609
1.0262 1.0291 0.997318 0.999858
1.027 1.02942 0.997777 0.999872
1.01627 1.01862 0.997973 0.999718
1.00642 1.01153 0.9957 0.999246
0.973097 0.97106 1.00584 0.996284
0.958042 0.976761 0.982806 0.997995
0.993674 1.0172 0.977335 0.999528
0.987604 0.997086 0.991471 0.999011
0.978334 0.9753 1.00686 0.996275
0.973325 0.989929 0.984386 0.998822
0.99519 1.01954 0.976551 0.999551
0.980805 0.990219 0.991373 0.999113
0.98135 0.977321 1.00774 0.996411
0.970729 0.986657 0.985103 0.998734
0.996105 1.01709 0.979773 0.99959
0.999518 1 1 0.999518
0.999535 1 1 0.999535
0.999588 1 1 0.999588
0.999606 1 1 0.999606
0.999648 1 1 0.999648
0.999734 1 1 0.999734
1.00326 1.00883 0.995266 0.999209
1.01508 1 1.01574 0.999346
0.999484 1 1 0.999484
1.00162 1 1.00231 0.999303
0.999389 1 1 0.999389
0.999479 1 1 0.999479
0.999418 1 1 0.999418
1.00297 1.0039 0.999535 0.999541
0.999394 1 1 0.999394
1.01294 0.999351 1.01412 0.999492
0.999449 1 1 0.999449
1.01793 0.996978 1.02127 0.999754
0.998563 0.998502 1.00044 0.999626
0.999393 1 1 0.999393
1.016 1.017 0.99904 0.999972
1.02256 1.02341 0.99921 0.999952
1.01991 1.02044 0.99965 0.999831
1.00035 1 1.00071 0.999647
1.00313 0.994949 1.00824 0.999986
1.02555 1.02743 0.998226 0.99994
0.988099 0.985006 1.00521 0.997937
0.974084 0.989624 0.985402 0.99888
1.02692 1.02906 0.998015 0.999905
0.994736 1.01612 0.979414 0.99953
1.00548 0.998833 1.00687 0.999788
1.01885 1.02043 0.998493 0.999963
1.02805 1.02968 0.998548 0.99987
1.00476 0.991285 1.01433 0.999276
0.974344 0.998192 0.976741 0.999353
0.971667 0.988394 0.984233 0.998826
0.980882 0.978246 1.00616 0.99656
1.02545 0.999828 1.02574 0.999889
1.02463 1.02538 0.999325 0.999936
1.01466 1.01821 0.996799 0.999709
0.934487 0.962446 0.971742 0.999185
0.959467 0.978429 0.981759 0.998839
0.987502 0.98133 1.00986 0.996463
0.984544 0.989659 0.995812 0.999015
1.00121 1 1.00167 0.999544
1.01327 1 1.01369 0.999586
1.0195 1 1.01998 0.999534
0.999466 1 1 0.999466
1.00006 1 1.00055 0.999509
1.00227 1 1.00281 0.999468
1.01016 1 1.01081 0.99935
0.999777 1 1.00032 0.999458
1.00161 1 1.00227 0.99934
1.0048 1 1.00561 0.999197
0.999451 1 1.00005 0.999403
1.0006 1 1.00133 0.999267
1.00122 1 1.00203 0.999186
0.999252 1 1 0.999252
0.999459 1 1 0.999459
0.999394 1 1.00007 0.999323
0.999335 1 1 0.999335
0.99957 1 1 0.99957
0.999533 1 1 0.999533
0.999613 1 1 0.999613
0.999562 1 1 0.999562
0.999495 1 1 0.999495
0.99975 1 1 0.99975
0.99964 1 1 0.99964
0.999564 1 1 0.999564
0.999956 1 1 0.999956
0.999768 1 1 0.999768
0.999631 1 1 0.999631
0.999788 1 1 0.999788
0.999966 1 1 0.999966
1 1 1 1
0.999974 1 1 0.999974
1 1 1 1
1 1 1 1
1 1 1 1
1 1 1 1
1 1 1 1
0.999799 1 1 0.999799
0.999975 1 1 0.999975
0.99981 1 1 0.99981
1 1 1 1
0.999974 1 1 0.999974
0.999847 1 1 0.999847
1 1 1 1
1 1 1 1
0.999975 1 1 0.999975
1 1 1 1
1 1 1 1
1 1 1 1
1.02004 1.02164 0.998468 0.999958
1.02497 1.02602 0.999037 0.999938
1.01975 1.02078 0.999175 0.999817
0.999648 1 1 0.999648
0.999596 1 1 0.999596
0.999693 1 1 0.999693
0.999657 1 1 0.999657
0.999599 1 1 0.999599
0.99959 1 1 0.99959
0.999544 1 1 0.999544
1.02222 1.02466 0.997775 0.999838
1.02619 1.02897 0.997419 0.999881
1.0274 1.02982 0.997777 0.999874
0.998401 1.02316 0.976175 0.99962
0.990328 1.00129 0.990762 0.998271
0.980482 0.976256 1.00734 0.997006
0.972618 0.986541 0.987841 0.998022
0.983457 0.990492 0.994213 0.998677
0.982737 0.979671 1.00682 0.996334
0.971221 0.989034 0.983918 0.99804
0.99137 1.01304 0.979099 0.999499
0.979371 0.983945 0.995947 0.999401
0.975549 0.980924 0.998245 0.996268
0.983924 0.997187 0.987841 0.998844
0.981078 1.00255 0.979099 0.999468
0.9995 1 1 0.9995
0.999516 1 1 0.999516
0.999535 1 1 0.999535
0.999605 1 1 0.999605
1.00316 1.00489 0.998743 0.999532
1.01307 0.998612 1.01497 0.999515
0.999476 1 1 0.999476
0.999415 1 1 0.999415
0.999408 1 1 0.999408
0.999452 1 1 0.999452
0.999385 1 1 0.999385
1.00885 0.994887 1.01427 0.999762
0.99932 0.999215 1.00044 0.999666
0.999403 1 1 0.999403
1.01996 0.990554 1.02974 0.999942
1.00337 1 1.00395 0.999426
1.02405 1.02447 0.999645 0.999945
1.01345 1.0143 0.999185 0.999977
1.02163 1.02249 0.999198 0.999957
1.00439 0.999481 1.00511 0.999805
1.00614 0.991242 1.01492 1.00011
1.01799 1.01926 0.998792 0.999966
0.977899 0.975964 1.00561 0.99639
0.969902 0.984469 0.987141 0.998037
1.02852 1.03007 0.998619 0.999871
0.972749 0.995848 0.977489 0.9993
1.02744 0.998972 1.02863 0.999873
1.02486 1.02576 0.999189 0.999937
1.01582 1.01859 0.997571 0.999711
0.98915 0.99232 0.996833 0.999973
0.930616 0.96269 0.967506 0.999149
0.958285 0.977276 0.98206 0.99848
0.98938 0.981387 1.01146 0.996719
1.0146 0.9988 1.01598 0.999835
1.0206 1.02076 1.00004 0.999808
0.959479 0.970941 0.98876 0.999429
0.929386 0.951016 0.978544 0.998685
0.980694 0.976405 1.0081 0.996325
0.984246 0.992267 0.993276 0.99863
1.01446 1 1.01487 0.99959
1.02018 1 1.02066 0.999532
1.01577 1 1.01634 0.99944
1.00177 1 1.0023 0.999476
1.0106 1 1.01124 0.999367
1.00792 1 1.00874 0.999189
1.00202 1 1.0027 0.999321
1.00481 1 1.00564 0.99918
1.00294 1 1.00386 0.999092
1.00107 1 1.00181 0.999263
1.00113 1 1.00197 0.999169
1.00074 1 1.00159 0.999145
0.999236 1 1 0.999236
0.999364 1 1 0.999364
0.999323 1 1.00009 0.999237
0.999538 1 1 0.999538
0.999469 1 1 0.999469
0.999448 1 1.00014 0.999309
0.999598 1 1 0.999598
0.999566 1 1 0.999566
0.999548 1 1 0.999548
0.999724 1 1 0.999724
0.99962 1 1 0.99962
0.999572 1 1 0.999572
0.999936 1 1 0.999936
0.999751 1 1 0.999751
0.99964 1 1 0.99964
1 1 1 1
0.999954 1 1 0.999954
0.999768 1 1 0.999768
0.999964 1 1 0.999964
1 1 1 1
1 1 1 1
1 1 1 1
1 1 1 1
1 1 1 1
0.999649 1 1 0.999649
0.999777 1 1 0.999777
0.999966 1 1 0.999966
0.999798 1 1 0.999798
1 1 1 1
0.999977 1 1 0.999977
0.999819 1 1 0.999819
1 1 1 1
1 1 1 1
0.999987 1 1 0.999987
1 1 1 1
1 1 1 1
1 1 1 1
1.0244 1.02514 0.999336 0.999939
1.01929 1.0205 0.998852 0.999962
1.02532 1.02644 0.998978 0.999938
0.999653 1 1 0.999653
0.99959 1 1 0.99959
0.999576 1 1 0.999576
0.999584 1 1 0.999584
0.999558 1 1 0.999558
0.999655 1 1 0.999655
0.999588 1 1 0.999588
0.999591 1 1 0.999591
0.999543 1 1 0.999543
0.999543 1 1 0.999543
1.0147 1.01583 0.999178 0.999714
1.02326 1.02599 0.997493 0.99984
1.02588 1.02859 0.997465 0.999905
0.990042 1.01134 0.979424 0.999507
0.977199 0.99174 0.986482 0.99884
0.983447 0.989231 0.995851 0.998294
0.978764 0.980445 1.00186 0.996427
0.983277 0.984074 1.00062 0.998567
0.979335 0.979435 1.00353 0.996381
0.975462 0.991537 0.985304 0.998461
0.975729 1.00012 0.976174 0.999427
1.00033 0.982593 1.0193 0.998766
0.979134 0.981807 1.00078 0.996497
0.953306 0.975426 0.979268 0.998014
0.941765 0.972648 0.969038 0.999186
0.999571 1 1 0.999571
0.999501 1 1 0.999501
0.999514 1 1 0.999514
1.00083 0.993281 1.00784 0.99977
1.00011 1 1.00041 0.999708
0.999454 1 1 0.999454
0.999377 1 1 0.999377
0.999444 1 1.00003 0.999411
1.00386 1 1.00444 0.999425
1.01979 0.992195 1.02787 0.999943
1.0038 1 1.00435 0.999445
1.01159 0.997875 1.01406 0.999687
1.02064 1.02082 1 0.999817
1.02297 1.02344 0.999593 0.99995
1.01087 1.01162 0.999277 0.999982
1.02926 0.998156 1.03131 0.999855
0.987835 0.991386 0.997551 0.998864
1.02514 1.02613 0.999098 0.999937
0.981538 0.979675 1.00634 0.995589
0.956022 0.974996 0.982464 0.998041
1.01762 1.01898 0.998948 0.999714
0.927455 0.96329 0.963654 0.999114
1.01491 0.999111 1.01598 0.999838
1.02056 1.02086 0.999899 0.99981
0.956052 0.968451 0.987798 0.999392
0.980894 0.991047 0.990642 0.999105
0.932072 0.954933 0.978009 0.998006
0.981001 0.977567 1.00767 0.995877
0.996856 0.998736 0.998456 0.999661
0.972797 0.975546 0.997641 0.99954
0.925874 0.945395 0.981356 0.997958
0.975144 0.973217 1.00574 0.996257
0.998415 0.997692 1.00163 0.9991
1.02043 1 1.02091 0.999529
1.01826 1 1.01884 0.999438
0.999154 1 0.999858 0.999296
1.01084 1 1.01146 0.999385
1.00743 1 1.00823 0.999203
1.00165 1 1.00253 0.999122
1.00462 1 1.00546 0.999162
1.00255 1 1.00346 0.999095
0.999202 1 1.00003 0.999168
1.00103 1 1.00188 0.999152
1.00035 1 1.0012 0.999152
0.999251 1 1 0.999251
0.999317 1 1 0.999317
0.999312 1 1 0.999312
0.999241 1 1 0.999241
0.999464 1 1 0.999464
0.999345 1 1 0.999345
0.999398 1 1.00018 0.999222
0.999601 1 1 0.999601
0.99955 1 1 0.99955
0.999479 1 1 0.999479
0.999694 1 1 0.999694
0.999599 1 1 0.999599
0.999562 1 1 0.999562
0.999908 1 1 0.999908
0.999724 1 1 0.999724
0.999627 1 1 0.999627
1 1 1 1
0.999936 1 1 0.999936
0.999752 1 1 0.999752
1 1 1 1
1 1 1 1
0.999952 1 1 0.999952
1 1 1 1
1 1 1 1
1 1 1 1
0.999627 1 1 0.999627
0.999755 1 1 0.999755
0.999644 1 1 0.999644
0.999957 1 1 0.999957
0.999777 1 1 0.999777
1 1 1 1
0.999968 1 1 0.999968
0.999798 1 1 0.999798
1 1 1 1
1 1 1 1
0.99998 1 1 0.99998
1 1 1 1
1 1 1 1
1 1 1 1
1.01937 1.01953 1 0.999843
1.02548 1.02625 0.999312 0.999939
1.01852 1.01939 0.999182 0.999966
0.999583 1 1 0.999583
0.999657 1 1 0.999657
0.999584 1 1 0.999584
0.999591 1 1 0.999591
0.999582 1 1 0.999582
0.999558 1 1 0.999558
0.99954 1 1 0.99954
0.999542 1 1 0.999542
0.999591 1 1 0.999591
0.999542 1 1 0.999542
0.999542 1 1 0.999542
0.999531 1 1 0.999531
0.957392 0.97265 0.985025 0.999276
1.01374 1.01497 0.99907 0.999716
1.02463 1.02757 0.997295 0.999842
0.969097 0.995516 0.974111 0.999334
0.97664 0.993632 0.984755 0.998115
0.9744 0.980076 0.997922 0.996279
0.985989 0.981061 1.00554 0.999485
0.999439 0.981139 1.01901 0.999648
0.936135 0.968198 0.967703 0.999153
0.98198 0.980893 1.00515 0.995975
0.955205 0.975626 0.980243 0.998802
0.994526 0.989753 1.00521 0.999615
0.97818 0.976232 1.00541 0.996602
0.930435 0.95133 0.979302 0.998707
1.00009 1 1.00041 0.999685
0.999572 1 1 0.999572
0.999502 1 1 0.999502
1.01934 0.993721 1.02584 0.999942
1.00448 1 1.00506 0.999424
0.999469 1 1.00005 0.999419
1.00409 1 1.00465 0.999448
1.011 0.998811 1.01251 0.999697
1.00908 1 1.00939 0.999692
0.97192 0.976315 0.996132 0.999364
1.02027 1.02044 0.999986 0.999846
1.02196 1.0224 0.999616 0.999956
1.01524 0.999456 1.01596 0.999843
0.982091 0.992912 0.989652 0.999444
1.02043 1.02097 0.999666 0.999812
0.983743 0.97874 1.00806 0.997073
0.935752 0.957656 0.978365 0.998735
0.951423 0.968846 0.982719 0.999285
0.996411 0.999357 0.997376 0.999675
0.967131 0.974475 0.993062 0.999397
0.933478 0.946126 0.987893 0.998724
0.999005 0.996398 1.00429 0.998331
0.976651 0.975585 1.00479 0.996317
0.993834 1.00674 0.987711 0.999466
0.934597 0.948334 0.986765 0.998733
0.97356 0.973214 1.00389 0.996481
1.0009 1.00385 0.998829 0.998231
1.02156 1 1.02213 0.999436
0.997038 1 0.997729 0.999307
0.992634 1.00017 0.993179 0.999286
1.00716 1 1.00795 0.999216
1.00161 1 1.00249 0.999125
0.999501 1.00021 1 0.999293
1.0022 1 1.00311 0.999098
0.999467 1 1.00029 0.999178
0.999383 1 1 0.999383
0.999965 1 1.00081 0.999159
0.999256 1 1 0.999256
0.999423 1 1 0.999423
0.999447 1 1 0.999447
0.999345 1 1 0.999345
0.999331 1 1 0.999331
0.999402 1 1 0.999402
0.999324 1 1 0.999324
0.999247 1 1 0.999247
0.999568 1 1 0.999568
0.999463 1 1 0.999463
0.999327 1 1 0.999327
0.999679 1 1 0.999679
0.9996 1 1 0.9996
0.999562 1 1 0.999562
0.999872 1 1 0.999872
0.999695 1 1 0.999695
0.999601 1 1 0.999601
1 1 1 1
0.999907 1 1 0.999907
0.999724 1 1 0.999724
1 1 1 1
1 1 1 1
0.999935 1 1 0.999935
1 1 1 1
1 1 1 1
1 1 1 1
0.999634 1 1 0.999634
0.99963 1 1 0.99963
0.999734 1 1 0.999734
0.999946 1 1 0.999946
0.999755 1 1 0.999755
0.999639 1 1 0.999639
1 1 1 1
0.999959 1 1 0.999959
0.999776 1 1 0.999776
1 1 1 1
1 1 1 1
0.999971 1 1 0.999971
1 1 1 1
1 1 1 1
1 1 1 1
0.972137 0.97509 0.997473 0.999497
1.01937 1.01953 1 0.999845
1.02652 1.0273 0.999304 0.999939
0.999578 1 1 0.999578
0.999592 1 1 0.999592
0.999553 1 1 0.999553
0.999599 1 1 0.999599
0.999588 1 1 0.999588
0.999557 1 1 0.999557
0.999543 1 1 0.999543
0.999542 1 1 0.999542
0.999509 1 1 0.999509
0.999536 1 1 0.999536
0.999541 1 1 0.999541
0.999532 1 1 0.999532
0.93349 0.9477 0.986236 0.998752
0.957372 0.970978 0.986678 0.999301
1.01303 1.01426 0.99907 0.999718
0.930556 0.964167 0.96599 0.999121
0.952401 0.972453 0.981322 0.998022
0.989323 0.985759 1.00637 0.997262
1.00571 0.981424 1.02605 0.998726
0.995252 0.990072 1.0065 0.998736
0.933326 0.95325 0.981013 0.998049
0.982436 0.979726 1.00589 0.996898
0.995554 0.991344 1.00549 0.998763
0.97721 0.975855 1.00488 0.996523
1.00771 1 1.00819 0.999525
0.999948 1 1.00027 0.999681
0.999574 1 1 0.999574
1.01009 0.999494 1.0109 0.999706
1.00439 1 1.00494 0.99945
1.00884 1 1.00918 0.999669
1.00162 1.00067 1.00146 0.999488
0.935528 0.952332 0.983776 0.998556
0.972827 0.975924 0.997364 0.999461
1.01979 1.02 0.999918 0.999876
0.994974 0.999644 0.995636 0.999691
1.00022 0.995655 1.00549 0.999101
0.968603 0.974907 0.994131 0.9994
0.977149 0.974026 1.00694 0.996297
0.929946 0.946738 0.984237 0.997995
0.995095 1.0064 0.989298 0.999462
0.935979 0.948876 0.988067 0.998322
0.97373 0.972148 1.00528 0.996362
1.00176 1.00134 1.00143 0.99899
1.01004 1.01187 0.998931 0.999262
0.963115 0.967187 0.999919 0.99587
0.997988 1.00177 0.996998 0.999222
0.994969 1 0.995648 0.999318
0.994193 1.00017 0.994746 0.999273
0.995082 1.00079 0.994949 0.999346
1.00151 1 1.00239 0.999127
0.999475 1.00028 0.999906 0.99929
1.00014 1.00118 0.999403 0.999556
0.999747 1 1.00056 0.999188
0.999384 1 1 0.999384
0.999753 1.00018 1 0.999568
0.999262 1 1 0.999262
0.999424 1 1 0.999424
0.999539 1 1 0.999539
0.999514 1 1 0.999514
0.999461 1 1 0.999461
0.999435 1 1 0.999435
0.999399 1 1 0.999399
0.999347 1 1 0.999347
0.999344 1 1 0.999344
0.999494 1 1 0.999494
0.999416 1 1 0.999416
0.999336 1 1 0.999336
0.999658 1 1 0.999658
0.999566 1 1 0.999566
0.999462 1 1 0.999462
0.999843 1 1 0.999843
0.99968 1 1 0.99968
0.999599 1 1 0.999599
1 1 1 1
0.999872 1 1 0.999872
0.999696 1 1 0.999696
1 1 1 1
1 1 1 1
0.999906 1 1 0.999906
1 1 1 1
1 1 1 1
1 1 1 1
0.999628 1 1 0.999628
0.999626 1 1 0.999626
0.999715 1 1 0.999715
0.999632 1 1 0.999632
0.999733 1 1 0.999733
0.999926 1 1 0.999926
1 1 1 1
0.999947 1 1 0.999947
0.999755 1 1 0.999755
1 1 1 1
1 1 1 1
0.999961 1 1 0.999961
1 1 1 1
1 1 1 1
1 1 1 1
0.941851 0.950558 0.99268 0.998146
0.970051 0.975126 0.995376 0.999418
1.0194 1.01956 1 0.999847
0.999573 1 1 0.999573
0.99955 1 1 0.99955
0.999597 1 1 0.999597
0.999593 1 1 0.999593
0.999556 1 1 0.999556
0.999545 1 1 0.999545
0.999544 1 1 0.999544
0.999513 1 1 0.999513
0.999537 1 1 0.999537
0.999503 1 1 0.999503
0.999663 1 1.00026 0.999406
0.999532 1 1 0.999532
0.999534 1 1 0.999534
0.972982 0.97684 1.00019 0.995862
0.93843 0.950036 0.98933 0.998436
0.957292 0.971016 0.986609 0.999247
0.93533 0.95405 0.981584 0.998772
0.978896 0.975993 1.00731 0.995692
0.998309 0.991105 1.00764 0.999632
0.997341 0.993563 1.00459 0.999217
0.977671 0.977265 1.00379 0.996633
0.991999 0.998996 0.994196 0.998792
1.00613 1.00132 1.0057 0.999113
1.00617 1 1.00666 0.999514
0.999677 1 1 0.999677
1.00769 1 1.00804 0.999648
1.00065 1.00094 1.00017 0.999534
0.956794 0.965271 0.994641 0.996559
0.938648 0.951577 0.98833 0.99806
0.974127 0.975621 0.998909 0.999559
0.996146 1.0064 0.990352 0.999458
1.0066 1.00543 1.00294 0.998242
0.939384 0.948917 0.991887 0.998052
0.974384 0.971796 1.00622 0.996464
1.00381 1.01078 0.993839 0.999256
0.965648 0.968834 1.0001 0.996609
0.998676 1.00405 0.996181 0.998459
1.0009 1.0103 0.991582 0.999103
0.998106 0.994532 1.00412 0.99948
0.994555 1.00014 0.995148 0.999259
0.995336 1.00067 0.995338 0.999333
1.00009 1.0051 0.99559 0.999426
0.999328 1.0003 0.999738 0.999288
0.999408 1.00071 0.999144 0.999551
1.00011 1.00142 0.99908 0.999614
0.999386 1 1 0.999386
0.999667 1.00011 0.999994 0.999559
0.999799 1.00023 0.999987 0.999582
0.999424 1 1 0.999424
0.999532 1 1 0.999532
0.999529 1 1 0.999529
0.99953 1 1 0.99953
0.999475 1 1 0.999475
0.999476 1 1 0.999476
0.999432 1 1 0.999432
0.999428 1 1 0.999428
0.999455 1 1 0.999455
0.999396 1 1 0.999396
0.99935 1 1 0.99935
0.999614 1 1 0.999614
0.999503 1 1 0.999503
0.99943 1 1 0.99943
0.999818 1 1 0.999818
0.999657 1 1 0.999657
0.999564 1 1 0.999564
1 1 1 1
0.999843 1 1 0.999843
0.999681 1 1 0.999681
1 1 1 1
1 1 1 1
0.999872 1 1 0.999872
1 1 1 1
1 1 1 1
1 1 1 1
0.99961 1 1 0.99961
0.999628 1 1 0.999628
0.999687 1 1 0.999687
0.999617 1 1 0.999617
0.999707 1 1 0.999707
0.999897 1 1 0.999897
0.999733 1 1 0.999733
0.999926 1 1 0.999926
1 1 1 1
1 1 1 1
1 1 1 1
0.999948 1 1 0.999948
1 1 1 1
1 1 1 1
1 1 1 1
0.967117 0.970669 0.99973 0.99661
0.938023 0.952987 0.985624 0.998655
0.97288 0.975982 0.997347 0.999474
0.999547 1 1 0.999547
0.999602 1 1 0.999602
0.999559 1 1 0.999559
0.999593 1 1 0.999593
0.99957 1 1 0.99957
0.999573 1 1 0.999573
0.999516 1 1 0.999516
0.999527 1 1 0.999527
0.999501 1 1 0.999501
0.999512 1 1 0.999512
0.999434 1 1 0.999434
0.999235 1 1.00011 0.999121
0.999471 1 1.00006 0.999414
0.999529 1 1 0.999529
0.990151 0.994079 0.99697 0.999077
0.9713 0.973864 1.00088 0.996492
0.932661 0.949604 0.984116 0.998011
0.975771 0.975137 1.00422 0.996445
0.993587 0.992176 1.00176 0.999662
0.992846 0.997044 0.996317 0.999471
0.997207 1.00469 0.993324 0.999219
1.0032 1.00065 1.00337 0.999175
1.00513 1 1.00563 0.999503
0.998574 1.00107 0.997932 0.999577
0.987433 0.986386 1.00245 0.998619
0.963057 0.966874 0.999329 0.99672
0.937074 0.951855 0.985731 0.998722
1.00018 1.00962 0.991393 0.99925
1.00501 1.00761 0.998314 0.999105
0.966846 0.96849 1.00093 0.997376
0.998201 1.00815 0.991003 0.999121
0.994761 0.995136 1.00045 0.999176
0.996119 1.00951 0.987501 0.99922
1.00629 1.00461 1.00249 0.999193
0.996316 1.00047 0.996521 0.99932
0.999971 1.00472 0.995848 0.999427
1.00098 1.00426 0.997308 0.999427
0.998948 1.00036 0.999038 0.999546
0.999965 1.00114 0.999214 0.999607
0.999927 1.00066 0.999799 0.999467
0.99955 1 1 0.99955
0.999666 1.00009 1 0.999574
0.999453 1 1 0.999453
0.999526 1 1 0.999526
0.999534 1 1 0.999534
0.999445 1 1 0.999445
0.999545 1 1 0.999545
0.999484 1 1 0.999484
0.999435 1 1 0.999435
0.999429 1 1 0.999429
0.999425 1 1 0.999425
0.999458 1 1 0.999458
0.999555 1 1 0.999555
0.999464 1 1 0.999464
0.999393 1 1 0.999393
0.999784 1 1 0.999784
0.999614 1 1 0.999614
0.999512 1 1 0.999512
0.999996 1 1 0.999996
0.999818 1 1 0.999818
0.999656 1 1 0.999656
1 1 1 1
0.999999 1 1 0.999999
0.999843 1 1 0.999843
1 1 1 1
1 1 1 1
1 1 1 1
0.999591 1 1 0.999591
0.999616 1 1 0.999616
0.999672 1 1 0.999672
0.999629 1 1 0.999629
0.999685 1 1 0.999685
0.999865 1 1 0.999865
0.999699 1 1 0.999699
0.999897 1 1 0.999897
1 1 1 1
0.999927 1 1 0.999927
1 1 1 1
1 1 1 1
1 1 1 1
1 1 1 1
1 1 1 1
0.983796 0.986272 0.998478 0.99901
0.961248 0.967849 0.996601 0.996567
0.935692 0.952472 0.984326 0.998026
0.999523 1 1 0.999523
0.999562 1 1 0.999562
0.999594 1 1 0.999594
0.999572 1 1 0.999572
0.999567 1 1 0.999567
0.999604 1 1 0.999604
0.999517 1 1 0.999517
0.999499 1 1 0.999499
0.999525 1 1 0.999525
0.99946 1 1 0.99946
0.999256 1 1 0.999256
1.00153 1.00263 1 0.998903
0.999253 1 1.00013 0.999125
0.999421 1 1 0.999421
0.998932 1.0036 0.996052 0.999296
0.990957 0.995444 0.996753 0.998734
0.972939 0.974818 1.00089 0.997181
0.995659 0.998502 0.998407 0.998744
1.00152 1.0057 0.996689 0.999151
1.00164 1.00009 1.00231 0.999238
0.999672 1.00017 1.00002 0.999484
0.988514 0.985341 1.00397 0.999253
0.960063 0.966694 0.996533 0.996596
0.994048 1.00592 0.989052 0.999137
0.992102 0.995295 0.997955 0.998835
0.998022 1.00943 0.989489 0.9992
1.00464 1.004 1.00136 0.999275
1.00685 1.00819 0.999492 0.999185
1.00213 1.003 1 0.999132
0.999768 1.00442 0.99594 0.999427
1.00216 1.0046 0.998138 0.999432
0.999519 1.00021 1 0.999308
0.99982 1.00084 0.999384 0.9996
1.00018 1.00076 0.999957 0.999465
0.999362 1.00005 1 0.999316
0.999566 1 1 0.999566
0.99947 1 1 0.99947
0.999347 1 1 0.999347
0.999538 1 1 0.999538
0.999445 1 1 0.999445
0.999392 1 1 0.999392
0.999492 1 1 0.999492
0.999438 1 1 0.999438
0.999435 1 1 0.999435
0.999422 1 1 0.999422
0.999452 1 1 0.999452
0.99953 1 1 0.99953
0.999742 1 1 0.999742
0.999564 1 1 0.999564
0.999473 1 1 0.999473
0.999986 1 1 0.999986
0.999783 1 1 0.999783
0.999613 1 1 0.999613
1 1 1 1
0.999994 1 1 0.999994
0.999818 1 1 0.999818
1 1 1 1
0.999998 1 1 0.999998
1 1 1 1
0.999549 1 1 0.999549
0.999592 1 1 0.999592
0.999658 1 1 0.999658
0.999622 1 1 0.999622
0.999676 1 1 0.999676
0.999836 1 1 0.999836
0.999683 1 1 0.999683
0.999865 1 1 0.999865
1 1 1 1
0.999897 1 1 0.999897
1 1 1 1
1 1 1 1
1 1 1 1
1 1 1 1
1 1 1 1
1.00017 1.00357 0.997094 0.999522
0.983487 0.987573 0.997494 0.998365
0.964427 0.968098 0.999555 0.996651
0.999548 1 1 0.999548
0.999422 1 1 0.999422
0.999531 1 1 0.999531
0.99957 1 1 0.99957
0.999564 1 1 0.999564
0.999593 1 1 0.999593
0.999326 1 1 0.999326
0.999537 1 1 0.999537
0.999485 1 1 0.999485
0.999265 1 1 0.999265
0.9995 1.0005 1 0.998998
1.00275 1.00412 0.999519 0.999119
1.00097 1.00206 1 0.998916
0.999129 1 1 0.999129
1.00094 1.00539 0.99625 0.999323
0.989044 0.994916 0.995761 0.99833
1.0042 1.00643 0.998694 0.999083
0.999835 1.00034 1 0.999492
1.00071 1.00004 1.00116 0.99951
0.986566 0.98512 1.00298 0.998492
1.00035 1.00964 0.991614 0.999181
1.00299 1.00337 1.00027 0.999359
1.00702 1.00865 0.999187 0.999201
1.00269 1.00353 1 0.999167
1.0009 1.00169 1 0.999211
1.00056 1.0012 1 0.999357
1.00334 1.00496 0.998947 0.999438
0.999666 1.00035 1 0.999314
0.999216 1 1 0.999216
1.00028 1.00081 1 0.999462
0.999415 1.00009 1 0.999327
0.999252 1 1 0.999252
0.999487 1 1 0.999487
0.999345 1 1 0.999345
0.999308 1 1 0.999308
0.999446 1 1 0.999446
0.999392 1 1 0.999392
0.999391 1 1 0.999391
0.999441 1 1 0.999441
0.999436 1 1 0.999436
0.999501 1 1 0.999501
0.999446 1 1 0.999446
0.999527 1 1 0.999527
0.999703 1 1 0.999703
0.999971 1 1 0.999971
0.999741 1 1 0.999741
0.999574 1 1 0.999574
1 1 1 1
0.999982 1 1 0.999982
0.999783 1 1 0.999783
1 1 1 1
0.999991 1 1 0.999991
1 1 1 1
0.999467 1 1 0.999467
0.99954 1 1 0.99954
0.999623 1 1 0.999623
0.999593 1 1 0.999593
0.999658 1 1 0.999658
0.999811 1 1 0.999811
0.99968 1 1 0.99968
0.999836 1 1 0.999836
0.999999 1 1 0.999999
0.999864 1 1 0.999864
1 1 1 1
1 1 1 1
1 1 1 1
1 1 1 1
1 1 1 1
1.0002 1.00141 0.999381 0.999409
0.999071 1.00248 0.997079 0.999514
0.983158 0.986214 0.997946 0.998953
0.999377 1 1 0.999377
0.999592 1 1 0.999592
0.999289 1 1 0.999289
0.999415 1 1 0.999415
0.999539 1 1 0.999539
0.999527 1.00043 1 0.999094
0.999582 1 1 0.999582
0.99932 1 1 0.99932
0.999907 1.00083 1 0.999079
0.999274 1 1 0.999274
0.999579 1.0006 1 0.998977
1.00237 1.00359 0.999671 0.999113
1.00019 1.00127 1 0.998928
1.00257 1.00667 0.996586 0.999348
1.00002 1.00054 1 0.999485
0.999719 1.00023 1 0.99949
1.00178 1 1.00224 0.999536
1.00725 1.00913 0.998911 0.999217
1.0034 1.0042 1 0.999201
1.00122 1.00202 1 0.999205
1.00094 1.00158 1 0.999355
0.999666 1.00036 1 0.999307
0.999826 1.00051 1 0.99932
0.999221 1 1 0.999221
0.999215 1 1 0.999215
0.999472 1.00014 1 0.999337
0.999248 1 1 0.999248
0.999236 1 1 0.999236
0.999344 1 1 0.999344
0.999307 1 1 0.999307
0.999322 1 1 0.999322
0.999392 1 1 0.999392
0.999391 1 1 0.999391
0.999452 1 1 0.999452
0.999436 1 1 0.999436
0.999501 1 1 0.999501
0.999665 1 1 0.999665
0.999523 1 1 0.999523
0.999703 1 1 0.999703
0.999955 1 1 0.999955
1 1 1 1
0.999966 1 1 0.999966
0.999741 1 1 0.999741
1 1 1 1
0.999977 1 1 0.999977
1 1 1 1
0.999315 1 1 0.999315
0.999399 1 1 0.999399
0.999457 1 1 0.999457
0.99958 1 1 0.99958
0.999531 1 1 0.999531
0.999624 1 1 0.999624
0.999789 1 1 0.999789
0.999658 1 1 0.999658
0.999811 1 1 0.999811
0.999993 1 1 0.999993
0.999836 1 1 0.999836
1 1 1 1
1 1 1 1
1 1 1 1
1 1 1 1
1 1 1 1
1.00002 1.00069 1 0.999327
1.00138 1.00239 0.999567 0.999425
0.998685 1.00212 0.997069 0.999506
0.999278 1.00011 1 0.999171
0.999415 1 1 0.999415
0.999636 1 1 0.999636
0.999305 1 1 0.999305
0.999408 1 1 0.999408
0.999959 1.00091 1 0.999047
0.999488 1.00041 1 0.999075
0.999314 1 1 0.999314
0.99999 1.00092 1 0.999072
0.999649 1.00069 1 0.998956
1.00255 1.00365 0.99979 0.999107
0.999956 1.00055 1 0.999402
0.999928 1.00045 1 0.999473
0.999513 1.00003 1 0.999487
1.00144 1.00224 1 0.9992
1.00125 1.0019 1 0.999354
0.999732 1.00042 1 0.999308
0.999342 1.00007 1 0.999276
0.999227 1 1 0.999227
0.999211 1 1 0.999211
0.999228 1 1 0.999228
0.999244 1 1 0.999244
0.999235 1 1 0.999235
0.999265 1 1 0.999265
0.999305 1 1 0.999305
0.999321 1 1 0.999321
0.999391 1 1 0.999391
0.99939 1 1 0.99939
0.999452 1 1 0.999452
0.999618 1 1 0.999618
0.999502 1 1 0.999502
0.999665 1 1 0.999665
0.999942 1 1 0.999942
0.999703 1 1 0.999703
0.999951 1 1 0.999951
1 1 1 1
1 1 1 1
0.999961 1 1 0.999961
1 1 1 1
0.999198 1 1 0.999198
0.999386 1 1 0.999386
0.999372 1 1 0.999372
0.999518 1 1 0.999518
0.999397 1 1 0.999397
0.999447 1 1 0.999447
0.999581 1 1 0.999581
0.999758 1 1 0.999758
0.999626 1 1 0.999626
0.999789 1 1 0.999789
0.999982 1 1 0.999982
0.999811 1 1 0.999811
0.999995 1 1 0.999995
1 1 1 1
1 1 1 1
1 1 1 1
1 1 1 1
1.00028 1.00105 1 0.99923
0.999973 1.00065 1 0.999325
1.00226 1.00303 0.999796 0.999441
0.999573 1.00048 1 0.999091
0.999281 1.00011 1 0.999172
0.999454 1 1 0.999454
0.999321 1 1 0.999321
1.00001 1.00097 1 0.999048
0.999534 1.00048 1 0.999056
1.00006 1.001 1 0.999066
1.00018 1.00086 1 0.99932
1.00004 1.00066 1 0.999379
0.999765 1.0003 1 0.999462
0.99964 1.00038 1 0.999256
0.999856 1.00055 1 0.999309
0.99937 1.0001 1 0.999275
0.999257 1 1 0.999257
0.999207 1 1 0.999207
0.999229 1 1 0.999229
0.99925 1 1 0.99925
0.999234 1 1 0.999234
0.999265 1 1 0.999265
0.999343 1 1 0.999343
0.99932 1 1 0.99932
0.99939 1 1 0.99939
0.999564 1 1 0.999564
0.999451 1 1 0.999451
0.999617 1 1 0.999617
0.999931 1 1 0.999931
0.999665 1 1 0.999665
0.999939 1 1 0.999939
1 1 1 1
0.999947 1 1 0.999947
1 1 1 1
1 1 1 1
0.999133 1.00001 1 0.999125
0.999269 1 1 0.999269
0.999219 1 1 0.999219
0.999474 1 1 0.999474
0.999384 1 1 0.999384
0.999428 1 1 0.999428
0.999699 1 1 0.999699
0.999517 1 1 0.999517
0.999396 1 1 0.999396
0.999582 1 1 0.999582
0.999758 1 1 0.999758
0.999967 1 1 0.999967
0.999789 1 1 0.999789
0.999986 1 1 0.999986
1 1 1 1
0.999997 1 1 0.999997
1 1 1 1
1 1 1 1
1.00004 1.00084 1 0.999201
1.00053 1.00131 1 0.999212
1.00002 1.0007 1 0.999324
0.999417 1.00033 1 0.999086
0.999279 1.00011 1 0.999174
0.999954 1.00091 1 0.999048
1.00028 1.00103 1 0.99925
1.00021 1.00089 1 0.99932
1.00015 1.0008 1 0.999355
0.999557 1.0003 1 0.999257
0.999374 1.00014 1 0.999236
0.999376 1.0001 1 0.999273
0.999257 1 1 0.999257
0.999263 1 1 0.999263
0.99923 1 1 0.99923
0.999251 1 1 0.999251
0.999321 1 1 0.999321
0.999265 1 1 0.999265
0.999343 1 1 0.999343
0.999525 1 1 0.999525
0.99939 1 1 0.99939
0.999563 1 1 0.999563
0.999917 1 1 0.999917
0.999616 1 1 0.999616
0.999927 1 1 0.999927
0.999999 1 1 0.999999
0.999936 1 1 0.999936
1 1 1 1
1 1 1 1
0.999202 1 1 0.999202
0.999182 1 1 0.999182
0.99913 1.00001 1 0.999119
0.999381 1 1 0.999381
0.999279 1 1 0.999279
0.999239 1 1 0.999239
0.999631 1 1 0.999631
0.999455 1 1 0.999455
0.999383 1 1 0.999383
0.999945 1 1 0.999945
0.9997 1 1 0.9997
0.999517 1 1 0.999517
0.999759 1 1 0.999759
0.999972 1 1 0.999972
1 1 1 1
0.999989 1 1 0.999989
1 1 1 1
1 1 1 1
0.999652 1.00045 1 0.999198
0.999957 1.00076 1 0.999196
1.00074 1.00154 1 0.999194
0.99931 1.00023 1 0.999082
0.999886 1.00068 1 0.999209
1.00031 1.00106 1 0.999255
1.00028 1.00096 1 0.99932
0.999441 1.00018 1 0.999258
0.99946 1.00022 1 0.999236
0.99926 1.00001 1 0.999255
0.999258 1 1 0.999258
0.999267 1 1 0.999267
0.999312 1 1 0.999312
0.999252 1 1 0.999252
0.999322 1 1 0.999322
0.999505 1 1 0.999505
0.999343 1 1 0.999343
0.999524 1 1 0.999524
0.999905 1 1 0.999905
0.999561 1 1 0.999561
0.999914 1 1 0.999914
1 1 1 1
0.999924 1 1 0.999924
0.999999 1 1 0.999999
1 1 1 1
0.999225 1.00001 1 0.999219
0.999218 1 1 0.999218
0.999203 1 1 0.999203
0.999284 1 1 0.999284
0.999195 1 1 0.999195
0.999129 1.00002 1 0.999112
0.999537 1 1 0.999537
0.99938 1 1 0.99938
0.999289 1 1 0.999289
0.999921 1 1 0.999921
0.999615 1 1 0.999615
0.999436 1 1 0.999436
1 1 1 1
0.999952 1 1 0.999952
0.999701 1 1 0.999701
0.999976 1 1 0.999976
1 1 1 1
1 1 1 1
0.999643 1.00044 1 0.999207
0.999813 1.00061 1 0.999206
0.99983 1.00064 1 0.999191
0.999395 1.00019 1 0.99921
0.999851 1.00065 1 0.999205
1.00034 1.00108 1 0.999261
0.999561 1.00032 1 0.999236
0.999262 1.00001 1 0.999255
0.99932 1 1 0.99932
0.999271 1 1 0.999271
0.999326 1 1 0.999326
0.999465 1 1 0.999465
0.999323 1 1 0.999323
0.999505 1 1 0.999505
0.999894 1 1 0.999894
0.999524 1 1 0.999524
0.999903 1 1 0.999903
1 1 1 1
0.99991 1 1 0.99991
0.999999 1 1 0.999999
1 1 1 1
0.999251 1.00002 1 0.999227
0.99925 1 1 0.99925
0.999241 1.00002 1 0.99922
0.999297 1 1 0.999297
0.999223 1 1 0.999223
0.999205 1 1 0.999205
0.999477 1 1 0.999477
0.999304 1 1 0.999304
0.999208 1 1 0.999208
0.999903 1 1 0.999903
0.999529 1 1 0.999529
0.999379 1 1 0.999379
1 1 1 1
0.999927 1 1 0.999927
0.999599 1 1 0.999599
1 1 1 1
0.999959 1 1 0.999959
1 1 1 1
0.999356 1.00014 1 0.999221
0.999596 1.00039 1 0.999208
0.999996 1.00078 1 0.999214
0.999278 1 1 0.999278
0.999337 1.00012 1 0.999212
0.999833 1.00063 1 0.999202
0.999262 1.00001 1 0.999256
0.99932 1 1 0.99932
0.99944 1 1 0.99944
0.999341 1 1 0.999341
0.999479 1 1 0.999479
0.999875 1 1 0.999875
0.999505 1 1 0.999505
0.999893 1 1 0.999893
1 1 1 1
0.999902 1 1 0.999902
1 1 1 1
0.999998 1 1 0.999998
0.999256 1 1 0.999256
0.999238 1.00001 1 0.999226
0.999305 1 1 0.999305
0.99925 1 1 0.99925
0.99926 1.00004 1 0.99922
0.99948 1 1 0.99948
0.999295 1 1 0.999295
0.999227 1 1 0.999227
0.999891 1 1 0.999891
0.999487 1 1 0.999487
0.999324 1 1 0.999324
1 1 1 1
0.999907 1 1 0.999907
0.999521 1 1 0.999521
1 1 1 1
0.999934 1 1 0.999934
1 1 1 1
0.999291 1 1 0.999291
0.999285 1.00006 1 0.999224
0.999522 1.00031 1 0.999209
0.999413 1 1 0.999413
0.999278 1 1 0.999278
0.999264 1.00005 1 0.999214
0.999321 1 1 0.999321
0.999444 1 1 0.999444
0.999849 1 1 0.999849
0.999492 1 1 0.999492
0.999873 1 1 0.999873
1 1 1 1
0.999891 1 1 0.999891
1 1 1 1
1 1 1 1
0.9993 1 1 0.9993
0.999251 1 1 0.999251
0.999224 1 1 0.999224
0.999473 1 1 0.999473
0.999304 1 1 0.999304
0.99925 1 1 0.99925
0.999881 1 1 0.999881
0.99948 1 1 0.99948
0.999294 1 1 0.999294
1 1 1 1
0.999893 1 1 0.999893
0.999496 1 1 0.999496
1 1 1 1
0.999911 1 1 0.999911
1 1 1 1
0.99944 1 1 0.99944
0.999277 1 1 0.999277
0.999227 1 1 0.999227
0.999832 1 1 0.999832
0.999415 1 1 0.999415
0.999278 1 1 0.999278
0.999449 1 1 0.999449
0.999848 1 1 0.999848
1 1 1 1
0.999871 1 1 0.999871
1 1 1 1
1 1 1 1
0.999459 1 1 0.999459
0.999295 1 1 0.999295
0.999247 1 1 0.999247
0.999876 1 1 0.999876
0.999473 1 1 0.999473
0.999304 1 1 0.999304
1 1 1 1
0.999882 1 1 0.999882
0.999479 1 1 0.999479
1 1 1 1
0.999895 1 1 0.999895
1 1 1 1
0.999828 1 1 0.999828
0.999429 1 1 0.999429
0.999263 1 1 0.999263
1 1 1 1
0.999831 1 1 0.999831
0.999417 1 1 0.999417
0.999846 1 1 0.999846
1 1 1 1
1 1 1 1
0.999856 1 1 0.999856
0.999459 1 1 0.999459
0.999289 1 1 0.999289
1 1 1 1
0.99987 1 1 0.99987
0.999472 1 1 0.999472
1 1 1 1
0.999882 1 1 0.999882
1 1 1 1
0.999971 1 1 0.999971
0.999839 1 1 0.999839
0.999418 1 1 0.999418
1 1 1 1
0.99983 1 1 0.99983
1 1 1 1
0.999979 1 1 0.999979
0.999855 1 1 0.999855
0.999459 1 1 0.999459
0.999992 1 1 0.999992
0.999868 1 1 0.999868
1 1 1 1
1 1 1 1
0.999833 1 1 0.999833
1 1 1 1
0.999988 1 1 0.999988
0.99985 1 1 0.99985
1 1 1 1
1 1 1 1
1 1 1 1

VECTORS lamdaE float
0.998954 1.00009 0.996833
0.999151 0.999135 0.998753
0.998883 1.00018 0.996886
0.999294 1.00006 0.996433
0.998957 1.00025 0.996725
0.999064 0.999682 0.996989
0.999627 1.00068 0.994822
0.999183 0.999012 0.998788
0.998853 1.00029 0.998645
0.998911 0.999577 0.998782
0.999331 0.998639 0.997485
0.999633 1.00035 0.99489
0.999585 0.999985 0.99606
0.999223 0.99992 0.996555
0.998807 1.00031 0.996945
0.999204 1.0001 0.99651
0.999006 0.999738 0.997044
0.99888 1.00034 0.99679
0.999682 1.00065 0.994821
0.999486 0.99999 0.998301
0.999407 0.999963 0.996369
0.999098 1.0002 0.996584
1.00044 1.00007 0.994024
0.999849 1.00055 0.99458
0.999245 0.999074 0.997244
0.999474 1.00065 0.995107
1.00086 1.00116 0.992117
0.999214 0.998881 0.998824
0.998903 1.00025 0.99767
0.998975 0.999662 0.99791
0.999315 0.998503 0.998894
0.999576 1.00043 0.994891
0.999123 1.00029 0.996581
0.998958 1.00028 0.996893
1.00003 1.0005 0.994894
0.999387 0.998017 0.999085
0.999685 1.00047 0.995428
0.999588 1.00006 0.995234
1.00024 1.0016 0.992537
0.999511 0.997556 0.999179
0.999559 1 0.998239
0.999295 0.999977 0.997472
0.999699 0.999998 0.998127
0.999294 0.999914 0.996437
1.00086 1 0.992814
0.999136 1.00013 0.998563
1.00061 0.999971 0.994398
0.999113 1.00013 0.996585
0.998794 1.00048 0.996848
0.998949 0.999787 0.997108
0.999739 1.00058 0.994817
0.999463 0.999973 0.997278
0.999321 0.999955 0.996444
0.999207 0.999059 0.9973
0.999008 1.00028 0.99666
1.00047 1.00006 0.994007
0.999522 1.00062 0.995108
0.999903 1.00051 0.994579
1.00093 1.00118 0.992045
0.999577 1 0.998223
0.999438 0.999959 0.996306
1.00073 0.999986 0.994087
1.00058 0.999919 0.993943
1.00014 1.00033 0.994291
1.00238 1.00003 0.990496
1.00133 1.00071 0.991434
0.999462 0.998388 0.997549
0.999383 1.00037 0.995548
1.00037 1.00153 0.992606
1.00157 1.00126 0.99034
0.998927 1.00015 0.998586
0.999347 0.998363 0.99896
0.999035 0.999424 0.998732
0.999517 1.00052 0.994892
0.999133 1.00023 0.998493
0.998919 1.00004 0.998631
0.999924 1.00056 0.994037
0.999408 0.998071 0.998423
0.999603 1.0006 0.994647
0.99956 1.00002 0.995653
1.00023 1.0016 0.992525
0.999468 0.997791 0.999109
0.999678 0.998736 0.996416
1.00028 1.00027 0.993718
0.999793 1.00065 0.994308
1.00144 1.00074 0.991077
0.999571 0.999526 0.996406
1.0005 1.00133 0.992322
1.00006 1.00174 0.992746
1.00068 1.00184 0.991395
0.999565 0.997282 0.999238
0.999508 0.99751 0.999198
0.999314 1.00004 0.998438
0.999495 1.00001 0.998293
0.999668 1 0.998153
0.999372 0.999981 0.997366
1.00084 1 0.993403
0.999177 1.00007 0.997537
1.00056 0.999955 0.993953
0.999701 0.999996 0.998133
1.00101 0.999967 0.992527
1.00071 0.999982 0.994194
1.00285 0.999762 0.98933
1.00046 1.00006 0.994545
1.00248 0.99991 0.989905
0.999538 0.999953 0.996158
0.999235 0.999937 0.996518
0.999164 0.999014 0.997362
0.998919 1.00037 0.996731
1.00051 1.00006 0.99399
0.999961 1.00044 0.99458
0.999571 1.00058 0.995105
1.001 1.00121 0.991973
0.999631 0.999999 0.998185
0.999356 0.999932 0.996392
1.00078 0.999959 0.993271
1.00061 0.99991 0.993913
0.999404 0.998346 0.998248
0.999457 1.00032 0.995658
1.00019 1.0003 0.994286
1.00237 1.00003 0.990391
1.00045 1.00157 0.99253
1.00137 1.00075 0.991502
1.00157 1.00125 0.990344
1.00092 0.999995 0.992679
1.0006 0.999911 0.993895
1.00275 0.999758 0.989791
1.00254 0.99976 0.99019
1.00193 1.00033 0.990768
1.00334 0.999803 0.988694
0.999489 0.997919 0.999061
1.00207 1.00076 0.98984
0.999557 0.999876 0.995484
1 1.00168 0.992793
1.00108 1.00184 0.990798
1.00202 1.00117 0.989578
0.999691 0.999003 0.996064
1.00008 1.00064 0.993778
0.999063 1.0002 0.998513
0.998903 0.999877 0.998668
0.999885 1.00058 0.99405
0.999426 0.997995 0.999076
0.99952 1.00006 0.995327
0.999528 1.00072 0.994638
1.00023 1.00159 0.992512
0.999467 0.997764 0.999132
0.999684 0.998686 0.996436
1.00025 1.00024 0.994221
0.999714 1.00065 0.994772
1.00143 1.00072 0.991095
0.999581 0.999491 0.995832
1.00048 1.00132 0.992329
1.00004 1.00174 0.992739
1.00068 1.00184 0.99136
0.999618 0.999115 0.996136
0.999753 0.998352 0.996667
1.00002 1.00053 0.993964
1.00196 1.00033 0.99048
1.00088 1.0011 0.991802
1.0022 1.00081 0.989573
1.00006 1.00138 0.993088
1.00101 1.00145 0.991148
1.00041 1.00234 0.991541
1.00083 1.00211 0.990923
0.999639 0.997013 0.999282
0.999571 0.997232 0.999253
0.999509 0.99746 0.999218
0.999739 0.998651 0.99635
0.999526 0.997679 0.999133
0.999205 1.00012 0.998473
0.999393 1.00001 0.998382
1.00054 0.999923 0.993475
1.00079 1 0.992912
0.999626 1 0.998185
0.999707 0.999998 0.998121
1.001 0.999973 0.992541
1.00066 0.999985 0.993752
1.00285 0.999766 0.989334
1.00041 1.00002 0.993623
1.00248 0.999922 0.989905
1.00106 0.999957 0.992434
1.00313 0.999698 0.988852
1.00263 0.999814 0.989713
1.00382 0.999459 0.987834
1.00229 1.00006 0.990113
1.00342 0.999592 0.988476
0.999668 0.999995 0.998149
0.999271 0.999893 0.99648
1.00079 0.999936 0.992499
1.00064 0.999913 0.993883
0.999321 0.99828 0.998981
0.999528 1.0003 0.995766
1.00023 1.00025 0.994283
1.00236 1.00003 0.990286
1.00141 1.0008 0.99157
1.00052 1.00162 0.992454
1.00157 1.00125 0.990348
1.00093 0.999983 0.992664
1.00064 0.999898 0.993866
1.00273 0.999743 0.989587
1.00255 0.999807 0.990276
0.999471 0.997955 0.999035
0.999557 0.999853 0.995805
1.00007 1.0017 0.992891
1.00191 1.00036 0.990777
1.00333 0.999745 0.988559
1.00102 1.00184 0.990783
1.00213 1.00077 0.989882
1.00201 1.00117 0.989587
0.999673 0.999065 0.996052
1.00008 1.00062 0.993775
1.00305 0.999705 0.988994
1.00256 0.999738 0.990163
1.00369 0.999519 0.988288
1.00356 0.99935 0.988313
1.00271 1.00025 0.989252
1.00386 0.999311 0.988072
0.999625 0.999397 0.995765
1.00263 1.00052 0.989037
0.99999 1.00154 0.992977
1.00047 1.00212 0.991367
1.00152 1.00197 0.990059
1.00236 1.00094 0.989263
1.00009 1.0011 0.993313
1.00009 1.0001 0.994288
1.00025 1.00173 0.992364
1.00019 1.00026 0.993784
0.999464 0.99773 0.999154
0.999688 0.998645 0.996456
0.999623 1.00077 0.994381
1.00142 1.00072 0.991113
0.999579 0.999447 0.995806
1.00002 1.00173 0.992732
1.00047 1.00131 0.992336
1.00069 1.00183 0.991326
0.999628 0.999059 0.996151
0.999748 0.998332 0.996682
1.00002 1.00054 0.993968
1.00195 1.00033 0.990488
1.00086 1.00109 0.991824
1.0022 1.00081 0.989576
1.00002 1.00143 0.993088
1.00103 1.00145 0.991191
1.0004 1.00233 0.991536
1.00081 1.00212 0.990877
0.999823 0.998046 0.996843
1.00006 1.00094 0.993481
1.00002 1.00004 0.99446
1.0002 1.00157 0.992649
1.00282 1.00024 0.988955
1.0015 1.00126 0.990492
1.00265 1.00071 0.988813
1.0003 1.00219 0.99192
1.00128 1.00151 0.99068
1.00043 1.00304 0.990777
1.00096 1.00206 0.990502
1.00014 0.999083 0.995219
0.999934 0.997634 0.997037
0.999719 0.996783 0.999312
0.99965 0.996973 0.999292
0.999578 0.997184 0.999268
0.999794 0.998325 0.996584
0.999564 0.997426 0.999195
0.999734 0.998694 0.996329
0.999526 0.997709 0.999111
1.00041 1.00001 0.993625
1.00064 0.999964 0.993251
1.00247 0.999933 0.989904
1.00284 0.999771 0.989338
1.00099 0.99998 0.992554
0.999715 1 0.998118
1.00106 0.999963 0.992429
1.00313 0.999696 0.988857
1.00262 0.999828 0.989712
1.00382 0.999466 0.987836
1.00228 1.00008 0.990116
1.00342 0.999588 0.988476
1.00322 0.999661 0.988727
1.00414 0.999381 0.987298
1.0036 0.999477 0.988255
1.00422 0.999092 0.987445
1.00319 0.999838 0.988659
1.00392 0.999082 0.988021
1.00095 0.999973 0.992647
1.00068 0.999899 0.993835
1.00272 0.999722 0.989382
1.00256 0.999845 0.990361
0.999455 0.998003 0.999008
0.999572 0.99985 0.99611
1.00016 1.0017 0.992988
1.00189 1.0004 0.990787
1.00331 0.999686 0.988425
1.00219 1.00078 0.989925
1.00095 1.00183 0.990769
1.00201 1.00116 0.989596
0.999657 0.999127 0.996039
1.00008 1.00061 0.993772
1.00303 0.999692 0.988932
1.00258 0.999735 0.990157
1.0037 0.99949 0.988214
1.00356 0.999422 0.988446
0.999615 0.999457 0.995763
1.00002 1.00155 0.992979
1.00048 1.00209 0.991461
1.00276 1.00029 0.989238
1.00385 0.999227 0.98804
1.00147 1.00199 0.989956
1.00263 1.00052 0.989036
1.0023 1.00092 0.989272
1.0001 1.00104 0.993319
1.00026 1.00169 0.992374
1.00008 1.00011 0.994277
1.00398 0.999469 0.987756
1.00355 0.999414 0.988512
1.00416 0.999262 0.987534
1.00411 0.998897 0.987863
1.00324 0.999806 0.988437
1.00416 0.998641 0.988059
1.00005 1.00138 0.993086
1.00291 1.00021 0.988793
1.00035 1.00196 0.991967
1.00071 1.00254 0.990526
1.00177 1.00201 0.989392
1.00254 1.00061 0.989446
1.00013 0.999697 0.994619
1.00032 1.00175 0.992226
1.00025 1.00133 0.992717
1.00024 1.00229 0.991894
1.00195 1.00034 0.990497
0.999743 0.99831 0.996697
0.999641 0.999002 0.996165
1.00002 1.00054 0.993973
1.00084 1.00109 0.991845
1.00219 1.00082 0.989579
0.999991 1.00148 0.993088
1.0004 1.00233 0.991531
1.00104 1.00146 0.991235
1.00079 1.00213 0.990831
0.999816 0.998038 0.99685
1.00005 1.00098 0.99348
1.00003 1.00003 0.99447
1.00019 1.0016 0.992639
1.00282 1.00025 0.988947
1.00148 1.00127 0.990506
1.00265 1.0007 0.988818
1.00027 1.0022 0.991929
1.0013 1.00153 0.990727
1.00045 1.00305 0.990746
1.00093 1.00204 0.990673
0.999882 0.997819 0.996957
1.00006 0.999644 0.994799
1.00027 1.00182 0.992299
1.00018 1.00114 0.993097
1.00017 1.00238 0.991941
1.00332 0.999967 0.988268
1.00182 1.00127 0.989844
1.00287 1.00055 0.988554
1.00026 1.00312 0.991081
1.00143 1.00149 0.990393
1.00057 1.00328 0.989898
1.00012 0.999229 0.995118
1.00017 1.00009 0.994165
1.00016 0.998971 0.995292
1.00013 0.999101 0.995215
0.999966 0.997437 0.997551
0.999924 0.997615 0.997265
0.999836 0.996601 0.998454
0.999731 0.996748 0.99932
0.999661 0.996933 0.999301
0.999856 0.998061 0.996732
0.999627 0.997168 0.999242
0.999799 0.998345 0.996568
0.999565 0.997467 0.999176
0.999728 0.99874 0.996309
0.999525 0.997738 0.99909
1.00228 1.00009 0.990119
1.00262 0.999836 0.989711
1.00342 0.999592 0.988475
1.00382 0.999473 0.987838
1.00313 0.999693 0.988862
1.00107 0.999968 0.992424
1.00322 0.999661 0.988722
1.00414 0.999381 0.987303
1.00359 0.99949 0.988257
1.00425 0.999079 0.987382
1.00319 0.999839 0.988651
1.00392 0.999089 0.988024
1.00423 0.999335 0.987158
1.00455 0.999063 0.986814
1.00409 0.998988 0.987784
1.00445 0.998871 0.987315
1.00368 0.999424 0.988131
1.00418 0.998453 0.988168
1.00301 0.99968 0.98887
1.00259 0.999724 0.990151
1.00372 0.999463 0.98814
1.00355 0.999495 0.988579
0.999607 0.999502 0.995759
1.00004 1.00155 0.992982
1.00049 1.00205 0.991556
1.0028 1.00033 0.989225
1.00385 0.999142 0.988009
1.00264 1.00052 0.989035
1.00141 1.002 0.989853
1.00225 1.0009 0.989281
1.00011 1.00099 0.993326
1.00026 1.00166 0.992383
1.00008 1.00012 0.994266
1.00401 0.999443 0.987618
1.00357 0.999375 0.988512
1.00415 0.999215 0.987492
1.00411 0.998934 0.987894
1.00007 1.00133 0.993095
1.00039 1.00195 0.99195
1.00068 1.00254 0.990645
1.00325 0.999898 0.988496
1.00417 0.998527 0.988086
1.00168 1.00207 0.989326
1.00292 1.0002 0.988794
1.00248 1.00053 0.98947
1.00033 1.00176 0.992241
1.00025 1.00231 0.991839
1.00012 0.999715 0.994612
1.00025 1.00126 0.99279
1.00442 0.999168 0.98699
1.00407 0.999067 0.987838
1.00437 0.99897 0.987339
1.00439 0.99847 0.987719
1.00365 0.999262 0.988294
1.00441 0.998169 0.988013
1.00033 1.0018 0.992168
1.00301 0.999518 0.989231
1.00035 1.00246 0.991299
1.00098 1.00295 0.989783
1.00191 1.00205 0.988903
1.00265 1.00053 0.989376
1.00014 0.999508 0.994783
1.00026 1.0008 0.993202
1.00033 1.00216 0.991822
1.00021 1.0021 0.992144
1.00025 1.00247 0.991688
0.999809 0.99803 0.996858
1.00282 1.00026 0.988939
1.00003 1.00002 0.99448
1.00004 1.00103 0.993478
1.00019 1.00162 0.992628
1.00146 1.00127 0.99052
1.00265 1.0007 0.988822
1.00024 1.00221 0.991937
1.00047 1.00306 0.990715
1.00132 1.00155 0.990775
1.0009 1.00202 0.990843
0.999876 0.99781 0.996962
1.00006 0.999637 0.994807
1.00026 1.00183 0.992296
1.00018 1.00115 0.993097
1.00016 1.0024 0.991893
1.00332 0.99998 0.988255
1.00182 1.00127 0.989851
1.00286 1.00056 0.988535
1.00023 1.00312 0.991096
1.00144 1.00151 0.990424
1.00066 1.00327 0.989971
1.00009 0.999405 0.994992
1.00019 1.00068 0.993537
1.00027 1.00262 0.991545
1.00012 1.00208 0.992298
1.0001 1.00301 0.991459
1.00363 0.999562 0.98806
1.00202 1.00112 0.989584
1.00271 1.00003 0.989193
1.00017 1.00403 0.990245
1.00128 1.0027 0.989493
1.00011 0.999237 0.995118
1.00017 1.00022 0.993949
1.00017 1.00011 0.994108
1.00014 1.00088 0.993589
1.00019 1.00006 0.994178
1.00019 0.998892 0.99532
1.00016 0.998976 0.99529
1.00002 0.997268 0.997614
1.00013 0.999119 0.995211
0.999972 0.997426 0.99756
0.999911 0.996403 0.998506
0.999915 0.997602 0.997491
0.999816 0.996572 0.9989
0.999742 0.996715 0.999327
0.999907 0.997861 0.996834
0.999861 0.998072 0.996725
0.999702 0.996943 0.999272
0.999622 0.997211 0.999228
0.999804 0.998363 0.996552
0.999566 0.997508 0.999157
1.0032 0.999839 0.988644
1.00358 0.999495 0.988259
1.00392 0.999094 0.988027
1.00428 0.999067 0.987319
1.00414 0.999379 0.987309
1.00322 0.999662 0.988718
1.00424 0.999338 0.987157
1.00457 0.999073 0.98673
1.00409 0.998995 0.987791
1.00445 0.998817 0.987317
1.00369 0.99943 0.988117
1.0042 0.998424 0.988129
1.00469 0.999047 0.98654
1.00479 0.998863 0.986623
1.00435 0.998561 0.987702
1.00455 0.998671 0.987276
1.004 0.998745 0.988127
1.0044 0.998226 0.988061
1.00404 0.999415 0.987481
1.00358 0.999345 0.988513
1.00416 0.999172 0.987449
1.0041 0.998969 0.987925
1.0001 1.00128 0.993104
1.00042 1.00195 0.991933
1.00064 1.00254 0.990765
1.00326 0.999992 0.988554
1.00418 0.998415 0.988114
1.00293 1.00018 0.988794
1.00161 1.00212 0.989259
1.00243 1.00044 0.989494
1.00033 1.00175 0.992255
1.00027 1.00232 0.991784
1.00011 0.999732 0.994604
1.00026 1.00119 0.992862
1.00443 0.999169 0.986986
1.00408 0.99905 0.987862
1.00435 0.998946 0.987384
1.0044 0.998464 0.987727
1.00036 1.00179 0.992166
1.00035 1.00242 0.991397
1.00095 1.00301 0.989773
1.00365 0.999359 0.988275
1.00433 0.998045 0.988224
1.0019 1.00211 0.98886
1.00302 0.999536 0.989236
1.00259 1.0003 0.989476
1.00035 1.00215 0.991826
1.00026 1.00247 0.991677
1.0002 1.00211 0.992136
1.00014 0.999503 0.994709
1.00027 1.00075 0.993253
1.00469 0.99881 0.986823
1.00445 0.998656 0.987434
1.00463 0.998188 0.987482
1.00392 0.998494 0.988445
1.00034 1.00216 0.991784
1.00335 0.999098 0.989341
1.00025 1.00292 0.990803
1.00124 1.00347 0.988768
1.00227 1.00204 0.988397
1.00016 0.99936 0.994752
1.00026 1.00051 0.993656
1.00021 1.00157 0.992685
1.00032 1.00225 0.991765
1.00019 1.00263 0.991699
1.00031 1.00242 0.991576
0.999871 0.997803 0.996966
1.00006 0.99963 0.994814
1.00333 0.999992 0.988242
1.00018 1.00117 0.993098
1.00025 1.00182 0.992293
1.00015 1.00243 0.991846
1.00182 1.00126 0.989857
1.00285 1.00057 0.988517
1.00021 1.0031 0.99111
1.00074 1.00325 0.990044
1.00145 1.00154 0.990457
1.00009 0.999407 0.994995
1.00019 1.00068 0.993543
1.00024 1.00261 0.991578
1.00013 1.00207 0.992293
1.0001 1.00304 0.991387
1.00361 0.999605 0.988061
1.00205 1.00111 0.989556
1.00279 0.999907 0.98923
1.00014 1.00402 0.990204
1.00127 1.00285 0.98935
1.00017 1.0004 0.993856
1.00015 1.00162 0.992622
1.00015 1.00349 0.990949
1.00009 1.00286 0.991524
1.00019 1.00331 0.990981
1.00392 0.998223 0.988854
1.00214 1.00156 0.989124
1.00289 0.999041 0.989187
1.00043 1.00446 0.989704
1.00106 1.00341 0.988422
1.00011 0.999245 0.995118
1.00017 1.00022 0.993997
1.00015 1.001 0.99325
1.00017 1.00013 0.994051
1.00019 1.00007 0.994178
1.00013 1.00086 0.993507
1.00009 1.00144 0.993078
1.00012 1.00081 0.993504
1.00021 1.00001 0.9942
1.0002 0.998882 0.995302
1.00019 0.998891 0.995321
1.00006 0.997161 0.997631
1.00016 0.998981 0.995287
1.00002 0.997263 0.997619
0.999966 0.996243 0.998549
0.999978 0.997411 0.997571
0.999903 0.996382 0.998505
0.999793 0.996535 0.99935
0.999957 0.997675 0.996928
0.999912 0.997869 0.99683
0.999772 0.996745 0.999297
0.999866 0.998083 0.996717
0.999692 0.996975 0.999264
0.999617 0.99725 0.999214
1.0037 0.999436 0.988102
1.00409 0.999005 0.987799
1.00423 0.9984 0.988089
1.00445 0.99876 0.987318
1.00461 0.999084 0.986646
1.00424 0.999343 0.987156
1.00471 0.999074 0.986509
1.00477 0.998881 0.986642
1.00436 0.998564 0.987672
1.00456 0.998585 0.987306
1.00401 0.998748 0.988136
1.00436 0.998179 0.988089
1.005 0.998811 0.986233
1.00483 0.998522 0.986857
1.00456 0.998245 0.987622
1.00435 0.998186 0.988194
1.00443 0.99917 0.986982
1.00409 0.999026 0.987887
1.0043 0.998915 0.98743
1.00441 0.998453 0.987734
1.00038 1.00179 0.992163
1.00036 1.00237 0.991496
1.00093 1.00307 0.989763
1.00366 0.999452 0.988257
1.00425 0.997923 0.988433
1.00303 0.999555 0.989241
1.00189 1.00216 0.988818
1.00254 1.00008 0.989576
1.00037 1.00214 0.99183
1.00028 1.00246 0.991665
1.00019 1.00213 0.992127
1.00014 0.9995 0.994635
1.00028 1.00071 0.993303
1.00463 0.998801 0.986922
1.00445 0.998708 0.987422
1.00462 0.998202 0.987578
1.00038 1.00216 0.991772
1.00035 1.00288 0.990913
1.00119 1.00356 0.988745
1.004 0.99852 0.98837
1.00224 1.00186 0.988561
1.0032 0.999066 0.989398
1.00016 0.999339 0.99477
1.00034 1.00225 0.991763
1.00031 1.0024 0.991614
1.00018 1.00269 0.991653
1.00021 1.00155 0.992718
1.00026 1.00049 0.993596
1.00477 0.998549 0.987009
1.00472 0.998274 0.987296
1.00461 0.998154 0.987375
1.00441 0.99779 0.988278
1.00032 1.00241 0.991581
1.00295 1.00051 0.988465
1.00047 1.00387 0.989608
1.00147 1.00396 0.987982
1.00017 0.999212 0.994889
1.00025 1.00032 0.993872
1.00022 1.00127 0.993004
1.00016 1.00229 0.992033
1.00034 1.0024 0.991624
1.00029 1.00263 0.991434
1.00008 0.999407 0.994998
1.00019 1.00067 0.993549
1.00359 0.99965 0.988063
1.00013 1.00207 0.992288
1.00021 1.00261 0.991612
1.00009 1.00308 0.991314
1.00208 1.0011 0.989529
1.00287 0.99978 0.989268
1.00011 1.00401 0.990164
1.00127 1.00303 0.989206
1.00018 1.00039 0.993861
1.00016 1.00162 0.992648
1.00011 1.00347 0.991027
1.00008 1.00287 0.991546
1.00014 1.00338 0.990952
1.00401 0.998237 0.988737
1.0022 1.00139 0.989152
1.00285 0.999031 0.989661
1.00035 1.00443 0.989648
1.0012 1.00377 0.988154
1.00016 1.00118 0.993051
1.00012 1.00244 0.991852
1.00009 1.00408 0.99043
1.0001 1.0035 0.99071
1.00469 0.997561 0.988265
1.00411 0.9971 0.989323
1.00229 1.00203 0.988132
1.00047 1.00479 0.988468
1.00018 1.00021 0.994045
1.00015 1.00101 0.993288
1.00012 1.00162 0.99279
1.00019 1.00006 0.994178
1.00013 1.00084 0.993424
1.00021 1 0.994202
1.0001 1.00144 0.993009
1.00012 1.0008 0.993528
1.00007 1.0019 0.992611
1.00009 1.00132 0.993054
1.00012 1.00076 0.993543
1.00022 0.999992 0.994195
1.0002 0.998925 0.995256
1.0002 0.998882 0.995302
1.00009 0.997126 0.997612
1.00019 0.998886 0.995322
1.00006 0.997172 0.997629
1.00001 0.996158 0.998548
1.00003 0.99726 0.997625
0.999959 0.996223 0.998549
0.999893 0.996364 0.998502
1 0.997491 0.997028
0.99996 0.997683 0.996924
0.999836 0.996559 0.999322
0.999917 0.997876 0.996825
0.999763 0.996775 0.99929
0.999683 0.99701 0.999255
1.00403 0.99875 0.988145
1.00436 0.998566 0.987642
1.00433 0.998126 0.988116
1.00457 0.998502 0.987335
1.00476 0.998898 0.986661
1.00472 0.999101 0.986477
1.00495 0.998802 0.986365
1.00482 0.998536 0.986857
1.00456 0.99823 0.987626
1.00433 0.998113 0.988179
1.00498 0.998506 0.986601
1.0049 0.997947 0.98732
1.00465 0.997928 0.987785
1.00459 0.998797 0.987021
1.00444 0.998766 0.987409
1.00461 0.998218 0.987674
1.00042 1.00215 0.99176
1.00046 1.00284 0.991023
1.00114 1.00368 0.988722
1.00408 0.998544 0.988296
1.00306 0.999034 0.989454
1.00223 1.00169 0.988726
1.00035 1.00225 0.99176
1.00028 1.00239 0.991652
1.00017 1.00274 0.991607
1.00016 0.999315 0.994788
1.00021 1.00153 0.99275
1.00026 1.00048 0.993537
1.00477 0.99858 0.986931
1.00471 0.998305 0.987269
1.0047 0.998151 0.987327
1.00036 1.00242 0.991551
1.0004 1.00384 0.989842
1.00153 1.00393 0.987981
1.0043 0.997925 0.98841
1.00297 1.00043 0.988439
1.00017 0.999193 0.994977
1.00024 1.00032 0.993874
1.00029 1.00238 0.991618
1.0003 1.00254 0.991528
1.00017 1.00228 0.992006
1.00021 1.0013 0.992955
1.00488 0.998134 0.98714
1.00491 0.997983 0.98721
1.00494 0.99752 0.987505
1.00417 0.997985 0.988588
1.00009 1.00311 0.991175
1.00203 1.0033 0.987427
1.00074 1.00468 0.988855
1.00018 0.999046 0.995179
1.00018 1.00002 0.99423
1.00022 1.00026 0.993827
1.0002 1.00112 0.993141
1.00014 1.00196 0.992392
1.00008 1.00303 0.991366
1.00043 1.00183 0.991819
1.00024 1.00291 0.991736
1.00018 1.00038 0.993866
1.00016 1.00162 0.992673
1.0041 0.99825 0.988621
1.00008 1.00288 0.991568
1.00006 1.00346 0.991105
1.00008 1.00346 0.990924
1.00227 1.00122 0.989181
1.00282 0.999021 0.990132
1.00027 1.00442 0.989592
1.00134 1.00409 0.987885
1.00016 1.00122 0.993008
1.00012 1.00245 0.991877
1.00007 1.00409 0.990479
1.00014 1.00353 0.990764
1.00477 0.997565 0.988046
1.00404 0.997245 0.989398
1.00239 1.0019 0.988331
1.00062 1.0048 0.988346
1.00012 1.0019 0.992491
1.00476 0.997123 0.988251
1.00008 1.00332 0.991263
1.00031 1.00426 0.989805
1.00497 0.996263 0.988809
1.0037 0.99918 0.988222
1.00144 1.00437 0.987768
1.00015 1.00103 0.993326
1.00012 1.00163 0.992786
1.00007 1.00218 0.992304
1.00021 1 0.994203
1.00013 1.0008 0.993553
1.0001 1.00144 0.99294
1.00022 0.999986 0.994196
1.00012 1.00077 0.99354
1.00009 1.00192 0.992551
1.00009 1.00133 0.993117
1.00008 1.00223 0.99224
1.00008 1.00177 0.992622
1.00009 1.00127 0.993199
1.00015 1.00071 0.993603
1.00022 1.00003 0.994152
1.0002 0.998974 0.995217
1.0002 0.998926 0.995256
1.0001 0.997133 0.997576
1.0002 0.998884 0.995302
1.00009 0.997148 0.997607
1.00004 0.996123 0.998531
1.00006 0.997184 0.997627
1.00001 0.996132 0.998551
0.999954 0.996203 0.998548
1.00019 0.998896 0.995304
1.00005 0.997319 0.99712
1.00001 0.997499 0.997024
0.999892 0.996384 0.999348
0.999963 0.997693 0.996921
0.999827 0.996588 0.999314
0.999754 0.996803 0.999282
1.0043 0.998043 0.988164
1.00456 0.998216 0.987629
1.00482 0.998544 0.986857
1.00487 0.998796 0.986496
1.005 0.998496 0.986569
1.00492 0.997947 0.987264
1.00463 0.997918 0.98778
1.00503 0.997917 0.987086
1.00492 0.997482 0.987753
1.00485 0.996582 0.988547
1.00479 0.998608 0.986853
1.00471 0.998339 0.987242
1.00479 0.998167 0.987279
1.0004 1.00242 0.991522
1.00034 1.00379 0.990076
1.00157 1.00386 0.987979
1.00419 0.998056 0.988542
1.00297 1.00033 0.988413
1.00025 1.00234 0.991612
1.00032 1.00246 0.99162
1.00017 1.00228 0.991979
1.00017 0.999173 0.995065
1.00024 1.00032 0.993875
1.0002 1.00133 0.992907
1.00488 0.998083 0.987218
1.00019 0.999039 0.995176
1.00017 1.00002 0.994187
1.00491 0.998024 0.987174
1.00489 0.997664 0.987424
1.00006 1.00307 0.991319
1.00072 1.00468 0.988716
1.00202 1.00318 0.98745
1.00413 0.997981 0.988629
1.00022 1.00026 0.993954
1.00019 1.00111 0.993141
1.00051 1.00191 0.991668
1.00016 1.00245 0.992057
1.00006 1.00311 0.991286
1.00016 1.00192 0.992397
1.00494 0.997204 0.987932
1.00507 0.997961 0.987074
1.00502 0.99634 0.988338
1.00322 1.00014 0.988063
1.00019 1.0032 0.991149
1.00121 1.00479 0.987841
1.00016 0.999913 0.994264
1.00019 1.00016 0.994062
1.00011 1.00087 0.993639
1.00017 1.00109 0.993117
1.00013 1.00179 0.992663
0.999999 1.00256 0.991911
0.999931 1.00389 0.99098
1.00017 1.00203 0.992176
1.00017 1.00126 0.992965
1.00011 1.00247 0.991902
1.00484 0.997574 0.987827
1.00396 0.997417 0.989473
1.00017 1.00355 0.990817
1.00004 1.00407 0.990527
1.00248 1.00181 0.988531
1.00078 1.00483 0.988224
1.00011 1.00192 0.99248
1.00474 0.997162 0.988287
1.00006 1.00325 0.991278
1.00028 1.00422 0.989769
1.00492 0.996198 0.988756
1.00378 0.999131 0.988295
1.00134 1.00448 0.987847
1.00005 1.00278 0.99178
1.00506 0.996334 0.989243
1.00035 1.00359 0.990694
1.00066 1.00468 0.989147
1.00479 0.996351 0.988819
1.00207 1.00256 0.987802
1.0014 0.999959 0.99158
1.00012 1.00163 0.992781
1.00007 1.00219 0.9923
1.00013 1.00246 0.991937
1.00022 0.999979 0.994196
1.00012 1.00078 0.993537
1.00009 1.00133 0.993178
1.0001 1.00193 0.99249
1.00022 1.00002 0.994149
1.00015 1.0007 0.993567
1.00008 1.00222 0.992221
1.0001 1.00126 0.993194
1.00008 1.00179 0.992677
1.0001 1.00212 0.992285
1.00005 1.00158 0.992947
1.00014 1.00118 0.993216
1.0002 1.00069 0.993467
1.00023 1.00006 0.994006
1.00018 1.00071 0.993642
1.00022 1.00008 0.994015
1.00019 0.998999 0.9952
1.0002 0.998974 0.995218
1.00012 0.997177 0.997116
1.0002 0.998929 0.995256
1.00011 0.997156 0.997358
1.00002 0.996074 0.999371
1.00009 0.997168 0.997602
1.00004 0.99609 0.998534
1 0.996106 0.998553
1.00019 0.998792 0.995407
1.0002 0.998896 0.995301
1.00008 0.997183 0.997191
1.00004 0.997325 0.99733
0.999941 0.996237 0.999368
1.00001 0.997508 0.997019
0.999885 0.996411 0.99934
0.999819 0.996619 0.999307
1.00461 0.997905 0.987774
1.00493 0.997949 0.987208
1.00502 0.998489 0.986536
1.00503 0.997908 0.987076
1.00492 0.997499 0.987699
1.00479 0.996653 0.988722
1.00503 0.996894 0.988054
1.00252 1.00007 0.988763
1.00503 0.995879 0.989093
1.00017 0.99985 0.994429
1.00487 0.998025 0.987295
1.00492 0.998039 0.987139
1.00483 0.997829 0.987343
1.00003 1.00303 0.991464
1.00071 1.00469 0.988577
1.00201 1.00312 0.987473
1.0041 0.998017 0.98867
1.00059 1.00201 0.991517
1.00006 1.00197 0.99238
1.00004 1.00318 0.991206
1.00019 0.999035 0.995174
1.00017 1.00188 0.992402
1.00022 1.00026 0.994081
1.00019 1.00111 0.993141
1.00017 1.00002 0.994145
1.00491 0.997211 0.987982
1.00017 0.999904 0.99432
1.00019 1.00017 0.994058
1.00012 1.00085 0.993544
1.00507 0.997776 0.987091
1.005 0.996678 0.988233
1.00026 1.00284 0.991214
1.00098 1.00486 0.987793
1.00324 1.00016 0.988071
1.00017 1.00109 0.993181
1.00012 1.00178 0.992635
1.00014 1.00226 0.991962
0.999921 1.00377 0.991069
1.00002 1.00256 0.991972
1.00495 0.996981 0.988194
1.00516 0.997924 0.986902
1.00457 0.997405 0.988111
1.00186 1.00287 0.988328
1.00017 1.00355 0.990757
1.00012 1.00072 0.993552
1.00013 1.00101 0.993313
1.00013 1.00141 0.993075
1.00009 1.00169 0.992743
1.00009 1.00221 0.992307
0.999891 1.00311 0.991656
0.999783 1.00409 0.990841
1.0001 1.00195 0.992469
1.00004 1.00318 0.991293
1.00473 0.997196 0.988323
1.00487 0.996134 0.988704
1.00387 0.999059 0.988368
1.00026 1.00418 0.989734
1.00124 1.00457 0.987927
1.00004 1.00273 0.991864
1.00502 0.996052 0.98921
1.00024 1.00356 0.990738
1.00045 1.00469 0.989231
1.0048 0.996041 0.989036
1.00207 1.00278 0.987769
1.00144 0.999968 0.990566
1.00012 1.00306 0.991392
1.00513 0.995016 0.990456
1.00009 1.00385 0.990765
1.00039 1.00485 0.98899
1.00283 0.999391 0.988622
1.00054 0.995126 0.96607
0.996825 1.00132 0.98132
1.00106 1.00013 0.992396
0.997769 0.997485 0.960417
0.994715 0.998087 0.960942
1.00007 1.0022 0.992296
1.0001 1.00246 0.991982
1.0002 1.00227 0.992033
1.00022 1.00002 0.994146
1.00015 1.00069 0.993531
1.0001 1.00125 0.993188
1.00007 1.0018 0.992732
1.00009 1.00221 0.992202
1.00014 1.00118 0.993171
1.00022 1.00007 0.994058
1.0002 1.00068 0.993511
1.00009 1.00213 0.992298
1.00006 1.00157 0.992933
1.00007 1.00148 0.992957
1.00009 1.00177 0.9927
1.0002 1.0011 0.993075
1.00024 1.00072 0.993366
1.00022 1.00007 0.994
1.00023 1.00069 0.993516
1.00018 1.00109 0.993239
1.00014 1.00077 0.993567
1.00018 1.00071 0.993576
1.00021 1.00006 0.994125
1.00022 1.00009 0.994012
1.00019 0.999007 0.995195
1.00019 0.998997 0.9952
1.00012 0.997219 0.9971
1.0002 0.998974 0.995218
1.00012 0.997179 0.997115
1.00003 0.996078 0.999366
1.00012 0.997179 0.99714
1.00004 0.996076 0.998943
1.00004 0.996058 0.998537
1.0002 0.998712 0.995483
1.0002 0.998786 0.995406
1.0001 0.997079 0.997254
1.0002 0.998894 0.995297
1.00008 0.997177 0.997401
0.99998 0.996125 0.999384
1.00005 0.997342 0.997106
0.999934 0.996281 0.99936
0.999878 0.996441 0.999332
1.00493 0.997517 0.987646
1.00504 0.9979 0.987065
1.00472 0.996722 0.988896
1.00234 0.998899 0.988899
1.00501 0.996879 0.988139
1.00507 0.996179 0.989013
1.00514 0.997017 0.987872
0.998628 0.999443 0.979417
1.00371 0.996901 0.989096
1.00017 0.999821 0.994461
1.00017 0.999846 0.994429
1.00011 1.00064 0.993756
1.00008 1.00062 0.993838
1.00488 0.997223 0.988031
1.00508 0.997663 0.987108
1.00501 0.996928 0.988126
1.00033 1.00252 0.99128
1.00076 1.0049 0.987745
1.00326 1.00022 0.988078
1.00011 1.00251 0.991746
0.999922 1.00365 0.991159
1.00004 1.00257 0.992033
1.00019 1.00017 0.994054
1.00011 1.00177 0.992607
1.00017 1.00109 0.993244
1.00017 0.999897 0.994376
1.00011 1.00084 0.993448
1.00484 0.99699 0.988244
1.00012 1.00072 0.99365
1.00012 1.00098 0.993357
1.00012 1.00138 0.993027
1.00517 0.997553 0.987005
1.00458 0.997512 0.98807
1.00023 1.0034 0.990744
1.00184 1.00316 0.988153
1.0001 1.00171 0.99275
1.00005 1.00222 0.99232
0.999804 1.0041 0.990827
0.999929 1.00329 0.991509
1.0052 0.997065 0.987647
1.00513 0.997281 0.987083
1.00287 1.00112 0.988079
1.00012 1.00405 0.990383
1.00011 1.00149 0.992879
1.00007 1.00158 0.992887
1.00005 1.00225 0.992278
0.999959 1.00379 0.990866
0.999593 0.995077 0.963676
1.00002 1.00268 0.991948
1.00012 1.00354 0.990782
1.00498 0.995737 0.989179
1.0048 0.99573 0.989253
1.00206 1.003 0.987737
1.00025 1.00465 0.989314
1.0014 0.999977 0.989549
1.00006 1.00309 0.991439
1.00511 0.994966 0.990373
1.00004 1.00381 0.990786
1.00034 1.00493 0.988997
1.00306 0.999322 0.988617
1.00037 0.995614 0.964191
0.996663 1.00114 0.978028
1.00097 1.00009 0.992653
0.997207 0.997917 0.960296
0.994644 0.99803 0.958036
1.00007 1.00286 0.991723
0.998664 0.995017 0.960586
0.995198 0.999197 0.96166
1.00418 0.996049 0.990786
0.999838 1.00405 0.990972
1.00049 1.00386 0.98985
1.00067 0.999802 0.994559
0.998194 0.998775 0.965529
0.99544 1.00176 0.976965
0.9963 0.999464 0.961846
0.995738 0.997108 0.967518
1.00008 1.00246 0.992027
1.00017 1.00229 0.992033
1.00016 1.00199 0.992464
1.00021 1.00008 0.994109
1.00021 1.00067 0.993554
1.00014 1.00118 0.993127
1.00008 1.00156 0.992919
1.00008 1.00214 0.992312
1.00022 1.00008 0.994
1.00007 1.00146 0.992993
1.0002 1.00112 0.993122
1.00025 1.0007 0.993433
1.00009 1.00178 0.992664
1.00018 1.00141 0.992811
1.00013 1.00162 0.99279
1.00024 1.00103 0.993139
1.00025 1.0007 0.993458
1.00023 1.00069 0.993514
1.00018 1.00108 0.993194
1.00025 1.001 0.993146
1.00013 1.00119 0.993174
1.00022 1.00129 0.992978
1.00002 1.00181 0.99272
1.00011 1.00087 0.9935
1.00014 1.00077 0.993566
1.0002 1.00009 0.994133
1.00018 1.00071 0.993511
1.00021 1.00007 0.994085
1.00019 0.999018 0.995193
1.00022 1.0001 0.994009
1.00019 0.999003 0.995195
1.00008 0.997246 0.997538
1.00019 0.998996 0.995199
1.00011 0.997212 0.997319
1.00006 0.9961 0.998488
1.00012 0.997182 0.997114
1.00003 0.996082 0.999365
1.00006 0.996078 0.998514
1.00017 0.99983 0.994447
1.00019 0.99868 0.995524
1.0002 0.998711 0.995483
1.00012 0.997005 0.997306
1.0002 0.998782 0.995405
1.00011 0.997072 0.997255
1.00001 0.996035 0.999399
1.00006 0.997189 0.9976
0.99999 0.996165 0.998953
0.999966 0.99631 0.998498
1.00205 0.997768 0.98903
1.005 0.996873 0.988224
1.00511 0.99646 0.988933
0.998163 0.998742 0.981464
1.00361 0.997521 0.989313
1.00519 0.996541 0.987892
1.00484 0.997518 0.988928
0.999185 0.997226 0.982847
0.999187 0.995497 0.964116
0.997596 0.997597 0.959778
0.995056 0.996432 0.960661
1.00008 1.00062 0.993736
1.00017 0.999822 0.99446
1.00017 0.999843 0.994428
1.0001 1.00065 0.993733
1.00004 1.0012 0.993324
1.00008 1.00108 0.993395
1.00009 1.0007 0.993762
1.00008 1.00063 0.993793
1.00473 0.996995 0.988294
1.00518 0.997139 0.98711
1.00456 0.997662 0.988029
1.0003 1.00321 0.990732
1.00182 1.00334 0.987977
0.999824 1.00409 0.990814
0.999967 1.00348 0.991362
1.00001 1.00222 0.992332
1.00012 1.00096 0.993402
1.0001 1.00173 0.992758
1.00013 1.00073 0.993747
1.00012 1.00135 0.99298
1.00512 0.997218 0.987505
1.00009 1.00149 0.992934
1.00008 1.00159 0.99286
1.00505 0.997461 0.987079
1.00254 1.00094 0.988399
1.00019 1.00406 0.990278
1.00007 1.00226 0.992225
0.999988 1.0038 0.990874
1.00447 1.00039 0.986708
1.00406 0.997907 0.988875
1.00022 1.00328 0.990307
0.999967 1.00328 0.991517
1.00004 1.00184 0.992593
1.0001 1.00214 0.992291
1.00011 1.00276 0.991695
0.998535 0.994825 0.959343
1.00015 0.995154 0.967715
1 1.00311 0.991485
0.999979 1.00381 0.990806
1.00511 0.994933 0.990288
1.00332 0.999313 0.988612
1.00029 1.00503 0.989004
1.00035 0.995221 0.962794
0.996723 1.00123 0.979437
1.00079 1.00007 0.992913
0.997122 0.997503 0.961244
0.994534 0.998156 0.955123
1.00005 1.00286 0.991717
0.998759 0.995058 0.959306
0.994996 0.999511 0.960617
1.00435 0.996343 0.99071
0.999741 1.00413 0.991006
1.00035 1.00366 0.989929
1.00067 0.998578 0.995005
0.998212 0.998761 0.963338
0.995607 1.00309 0.979665
0.996118 0.999701 0.960749
0.996017 0.997158 0.966028
1.00009 1.00249 0.99208
0.995353 0.999145 0.965073
0.998348 0.998865 0.976185
1.00161 0.998658 0.993239
0.999518 1.00397 0.992071
0.9993 1.00186 0.99575
0.996664 1.00175 0.983688
0.995834 1.00128 0.963107
0.995707 0.999614 0.962305
0.998635 0.996609 0.971437
1.00014 1.00231 0.992033
1.00016 1.00201 0.992387
0.999904 1.00165 0.992962
1.00022 1.00009 0.993999
1.00025 1.00068 0.993499
1.0002 1.00115 0.993169
1.00006 1.00143 0.99303
1.0001 1.00179 0.992629
1.00025 1.0007 0.993459
1.00016 1.00144 0.992856
1.00025 1.00102 0.993133
1.00009 1.00161 0.992849
1.00019 1.00114 0.993303
1.00026 1.00116 0.992954
1.00027 1.00103 0.993091
1.00024 1.00069 0.993511
1.00019 1.00107 0.993148
1.00024 1.00101 0.99315
1.00012 1.00119 0.993171
1.00023 1.00124 0.992957
1.00007 1.00141 0.993032
1.00024 1.00122 0.992962
1.00019 1.00145 0.992781
1.00006 1.00247 0.991994
0.999883 1.00343 0.991314
0.999991 1.00224 0.992276
1.00002 1.00186 0.992708
1.0001 1.00106 0.993334
1.00011 1.00089 0.993493
1.00018 1.00014 0.994117
1.00014 1.00078 0.993565
1.0002 1.00009 0.994132
1.00017 0.999058 0.995186
1.00021 1.00007 0.994045
1.00019 0.999015 0.995194
1.00006 0.997285 0.997543
1.00019 0.998999 0.995195
1.00009 0.99724 0.997321
1.00004 0.996111 0.998491
1.00012 0.997203 0.997101
1.00002 0.996101 0.999361
1.00003 0.996085 0.999363
1.00017 0.999905 0.994533
1.00019 0.998711 0.995509
1.00016 0.999843 0.994446
1.00012 0.996979 0.997332
1.00019 0.998679 0.995524
1.0002 0.998707 0.995483
1.00012 0.997008 0.997304
1.00002 0.995976 0.99941
1.00009 0.997072 0.997662
1.00002 0.996049 0.998981
1.00001 0.996174 0.998537
0.998534 0.995615 0.959947
0.995314 0.99831 0.963807
0.998378 0.997736 0.982856
1.00351 0.99828 0.989526
1.00524 0.99612 0.987911
0.999083 0.997124 0.985663
1.00483 0.997795 0.98886
0.999865 0.995106 0.966606
0.997286 0.997461 0.95995
0.994846 0.99726 0.957654
1.00041 0.997005 0.98933
0.997999 0.99794 0.967119
0.996105 0.999727 0.961588
0.996324 0.997379 0.964625
1.00006 1.00132 0.993138
1.00008 1.00062 0.993774
1.00017 0.99982 0.994458
1.0001 1.00065 0.993711
1.00003 1.00116 0.993401
1.00007 1.00133 0.993168
1.00009 1.00106 0.993384
1.00011 1.00094 0.993436
1.0001 1.0007 0.993709
1.00008 1.00064 0.993747
1.00504 0.997345 0.987367
1.00492 0.997522 0.987074
1.00219 1.00075 0.988722
1.00025 1.00411 0.990174
1.00002 1.00378 0.990881
1.00011 1.00227 0.992172
1.00008 1.00159 0.992833
1.00006 1.00149 0.992989
1.00459 0.999812 0.986674
1.00005 1.00187 0.992562
1.00012 1.00214 0.992213
1.00372 0.998502 0.988502
1.00008 1.0034 0.990626
1.00009 1.00313 0.991377
1.00017 1.00262 0.99174
1.00237 1.00358 0.987946
1.00117 0.999436 0.993097
0.999989 1.00292 0.991675
1.00004 1.00204 0.992471
1.00016 1.00219 0.992055
1.00027 1.00252 0.991614
0.996761 0.99799 0.967192
0.998566 0.995271 0.959875
0.999864 0.99514 0.963218
1.00003 1.00286 0.99171
0.999654 1.00418 0.991041
1.00458 0.99653 0.990633
1.00019 1.00351 0.990004
0.998938 0.994978 0.95993
0.997917 0.9988 0.965788
0.995881 1.0028 0.976908
1.00074 0.997804 0.995418
0.996222 0.999823 0.960642
0.994801 0.999663 0.96062
0.996453 0.997162 0.965274
1.00002 1.00255 0.992079
0.995476 0.998944 0.965514
0.998311 0.99914 0.976176
1.00173 0.998769 0.99315
0.999295 1.00383 0.992109
0.999975 1.00045 0.996526
0.996856 1.00208 0.97962
0.99596 1.00254 0.965225
0.996323 0.999135 0.963154
0.998146 0.996772 0.971156
0.999538 1.00203 0.993825
1.00012 0.999333 0.978513
1.00308 0.999085 0.979201
0.99815 1.00246 0.995727
0.997467 1.0022 0.989232
0.995631 1.00184 0.9647
0.995607 0.999955 0.965096
0.999167 0.99841 0.968673
1.00015 1.00201 0.99231
1 1.00157 0.993049
0.999861 1.00046 0.994197
1.00025 1.00069 0.993459
1.00025 1.00101 0.993127
1.00015 1.00147 0.992902
1.00005 1.00158 0.992907
1.00026 1.00104 0.993093
1.00025 1.00119 0.992938
1.00014 1.00097 0.993395
1.00001 1.0006 0.994173
1.00036 1.00073 0.993213
1.00025 1.00113 0.992969
1.00023 1.00102 0.993153
1.00012 1.00119 0.993167
1.00024 1.0012 0.992936
1.00024 1.00122 0.992963
1.00006 1.00145 0.993022
1.0002 1.00141 0.9928
1.00009 1.00185 0.992546
1.00028 1.00132 0.992754
0.999974 1.00272 0.991927
1.00007 1.00246 0.992039
0.999854 1.00333 0.99146
1.00016 1.00375 0.99059
1.00005 1.00265 0.991969
0.999863 1.00332 0.99148
0.999997 1.00223 0.992377
1.0001 1.00139 0.992934
1.00001 1.0019 0.992697
1.0001 1.00108 0.993326
1.00017 1.00023 0.994046
1.00011 1.00091 0.993487
1.00018 1.00014 0.994115
1.00014 0.999138 0.995165
1.0002 1.00009 0.994132
1.00017 0.999053 0.995187
1.00002 0.997354 0.997542
1.00019 0.99901 0.995195
1.00007 0.997286 0.997326
1 0.996174 0.998496
1.0001 0.997229 0.997103
1.00002 0.996122 0.998925
1.00002 0.996106 0.999361
1.00016 1.00005 0.994276
1.00017 0.998797 0.995448
1.00016 0.99991 0.994416
1.00011 0.997011 0.997318
1.00019 0.99871 0.995509
1.00016 0.999856 0.994445
1.00002 0.99596 0.999414
1.00012 0.996977 0.997331
1.00019 0.998678 0.995524
1.00012 0.997012 0.997302
1.00002 0.995985 0.999407
1 0.996046 0.999395
0.99599 0.99832 0.967427
0.998384 0.995176 0.959724
0.99819 1.00017 0.975181
0.99534 0.998237 0.962723
0.999475 0.997096 0.981541
1.00482 0.998029 0.988744
0.999353 0.99527 0.96902
0.997639 0.997971 0.960424
0.994611 0.998104 0.954644
0.999837 0.997946 0.987474
0.998785 0.997468 0.962963
0.996252 0.999503 0.960146
0.996155 0.998032 0.963574
0.997628 0.998431 0.986775
0.99683 0.999972 0.963434
0.995513 0.999571 0.961823
0.99849 0.997781 0.968557
1.00008 1.00178 0.992716
1.00006 1.00132 0.993194
1.00009 1.00061 0.993811
1.00002 1.00112 0.993477
1.00011 1.0016 0.992755
1.00007 1.0013 0.993218
1.00009 1.00105 0.993372
1.00015 1.00103 0.993354
1.00012 1.00093 0.993504
1.0001 1.0007 0.993655
1.00469 0.999364 0.986645
1.00342 0.999287 0.988129
0.99995 1.00349 0.990943
1.00021 1.00296 0.991237
1.0002 1.0025 0.991785
1.00014 1.00214 0.992135
1.00007 1.00191 0.992531
1.00005 1.00205 0.99247
1.00268 1.00245 0.988233
1.00014 1.00226 0.992098
1.00028 1.00249 0.991653
1.00113 0.999862 0.992487
1.00018 1.00264 0.991705
1.00066 1.00152 0.991534
1.00003 1.00053 0.99443
1.00016 1.00215 0.991879
1.00018 1.00208 0.99217
1.0003 1.00249 0.991516
1.002 0.998971 0.978395
0.996753 0.998525 0.967236
0.998466 0.995679 0.959722
0.999946 1.00264 0.992077
0.99909 1.00374 0.992148
1.00175 0.998891 0.993073
0.99543 0.998758 0.967089
0.996401 1.0014 0.962556
0.996829 1.00185 0.981852
1.00069 0.998081 0.997368
0.995705 0.999452 0.962304
0.998123 0.999427 0.976169
0.997493 0.996901 0.971523
0.999488 1.00202 0.993767
0.999787 0.998874 0.980447
1.00263 0.999441 0.979528
0.99823 1.00221 0.995905
0.997296 1.00134 0.98901
0.995903 1.00206 0.962127
0.999676 0.997844 0.969849
0.995227 0.999641 0.964643
0.998529 1.0014 0.996262
1.00703 0.999613 0.98051
1.00401 1.001 0.977859
0.998789 0.997488 0.968578
0.995337 1.00312 0.99662
0.995458 0.999294 0.968316
0.99456 1.00004 0.966016
1.00011 1.00148 0.993134
1.00001 1.00063 0.99385
0.999751 0.999247 0.995813
1.00026 1.00104 0.993095
1.00024 1.00123 0.992922
1.00012 1.00078 0.993488
1.00026 1.00115 0.992962
1.00035 1.00069 0.993205
1.00012 1.0004 0.994045
0.999703 1.00006 0.994984
1.00041 1.00087 0.992927
1.00024 1.00121 0.992963
1.00005 1.0015 0.993012
1.00021 1.00136 0.992818
1.00027 1.00133 0.99274
1.00011 1.0018 0.992596
0.999898 1.00218 0.992575
0.999923 1.00271 0.992004
0.999806 1.00401 0.990884
1.00009 1.00245 0.992084
0.999965 1.00333 0.991411
1.00008 1.00417 0.99002
1.00013 1.0039 0.990443
1.00005 1.00298 0.991556
1.00011 1.00377 0.990591
1.00011 1.0018 0.992596
1.00005 1.00267 0.991886
0.999842 1.0032 0.991645
1 1.00223 0.992478
1.0001 1.00136 0.993018
1.00016 1.00041 0.993873
1.0001 1.0011 0.993318
1.00016 1.00024 0.994041
1.00011 0.999243 0.995125
1.00018 1.00015 0.994112
1.00014 0.999128 0.995166
0.999968 0.997463 0.997527
1.00018 0.999046 0.995188
1.00003 0.997361 0.997324
0.999955 0.996264 0.998495
1.00008 0.997278 0.997109
0.999989 0.99618 0.998928
0.999996 0.996144 0.999362
1.00018 1.00024 0.993916
1.00015 0.998961 0.995176
1.00017 1.00006 0.994272
1.00009 0.997105 0.997264
1.00017 0.998807 0.995365
1.00015 0.999917 0.9943
1.00001 0.995991 0.999408
1.00011 0.997005 0.99732
1.00019 0.998708 0.99551
1.00002 0.99596 0.999413
1.00012 0.996977 0.99733
1.00002 0.995993 0.999405
1.00089 0.999432 0.978165
0.996087 0.997896 0.966676
0.998408 0.995103 0.96011
1.00021 1.00105 0.993161
1.00207 0.999515 0.980943
0.998008 0.999774 0.975167
0.99531 0.998152 0.962589
0.999755 0.999001 0.985485
0.998573 0.99791 0.967158
0.996109 0.999642 0.959994
0.996157 0.998146 0.962777
0.997013 0.999497 0.982345
0.99606 1.0009 0.966612
0.99657 0.999916 0.962119
0.998554 0.997672 0.968068
0.996171 1.00232 0.978657
0.995593 1.00065 0.962172
0.995043 0.999806 0.964049
0.998927 0.998296 0.968853
1.00015 1.00192 0.992384
1.00008 1.00179 0.992687
1.00006 1.0013 0.99325
1.00016 1.00156 0.992745
1.0001 1.00159 0.992842
1.00007 1.00127 0.993268
1.00016 1.00103 0.993371
1.00013 1.00092 0.993571
1.00297 1.00152 0.988516
1.00112 1.0003 0.991876
1.00005 1.00205 0.992468
1.00036 1.00247 0.991735
1.00032 1.00241 0.991692
1.00013 1.0023 0.992141
1.00017 1.00213 0.992183
1.00127 1.00132 0.991809
1.00028 1.00245 0.99166
1.00025 1.00232 0.991854
1.00011 1.00007 0.994241
1.00023 1.00193 0.992321
0.999046 0.998841 0.996329
0.998939 1.0028 0.994385
1.00027 1.00164 0.992156
1.00026 1.00211 0.992059
1.00914 0.9993 0.979037
1.00215 0.999352 0.978095
0.996742 0.999051 0.967288
0.999417 1.00199 0.993713
0.998299 1.00204 0.996062
0.99948 0.998419 0.982373
0.995777 1.00057 0.965319
0.9973 1.00195 0.984448
0.994882 0.999855 0.964033
1.00229 0.999766 0.979856
1.00027 0.997467 0.971025
0.998607 1.00162 0.99576
1.00692 0.999706 0.980821
1.00487 1.0009 0.978357
0.995612 1.00388 0.999079
0.9989 0.997282 0.967948
0.995024 0.999492 0.966355
0.995107 0.999895 0.964296
0.9975 1.00085 0.998859
1.01266 0.998886 0.975086
1.00225 0.999077 0.981066
0.996533 0.997003 0.964865
0.994853 0.999537 0.964164
0.995283 0.999504 0.998758
0.995129 1.00018 0.963222
1.00014 1.00085 0.993506
0.999798 0.999447 0.995644
0.998604 0.998559 0.998648
1.00027 1.00119 0.992954
1.00034 1.00067 0.993196
1.00021 1.00029 0.993917
1.00037 1.001 0.992898
0.999856 0.999748 0.994986
0.999627 1.00146 0.993663
1.00027 1.00135 0.992727
1.00014 1.00175 0.992646
1.00001 1.00214 0.992521
0.999439 1.00401 0.991538
0.999877 1.0027 0.99208
0.999723 1.00392 0.99108
1.00008 1.00486 0.989607
1.00065 1.00416 0.989241
1.00008 1.00332 0.991362
1.00019 1.00429 0.989803
1.00029 1.00349 0.990807
0.99993 1.00343 0.991174
1.00013 1.00377 0.990573
1.00011 1.00214 0.992278
1.00009 1.00296 0.991544
1.00006 1.00379 0.990593
1.00015 1.00074 0.993567
1.00011 1.00178 0.99257
1.00006 1.00269 0.991804
1.0001 1.00133 0.993102
1.00016 1.00043 0.993865
1.00007 0.999396 0.995042
1.00016 1.00025 0.994036
1.00011 0.999236 0.995124
0.999925 0.997609 0.997061
1.00015 0.999119 0.995167
0.999985 0.997469 0.997091
0.99986 0.996377 0.999361
1.00004 0.997355 0.997107
0.999945 0.996265 0.998928
0.999963 0.996207 0.999362
1.00022 1.00032 0.99377
1.00014 0.999168 0.994979
1.00019 1.00024 0.993979
1.00006 0.997252 0.997174
1.00015 0.998976 0.995153
1.00017 1.00007 0.994268
0.99999 0.996071 0.999393
1.00009 0.997095 0.997267
1.00016 0.998816 0.995282
1.00002 0.995983 0.999411
1.00011 0.996999 0.997321
1.00002 0.995961 0.999413
1.00862 0.99852 0.978791
1.0008 0.999525 0.978358
0.99606 0.997604 0.966895
1.0002 1.00106 0.993183
1.00023 1.0011 0.993024
1.00015 1.00157 0.99281
1.00393 1.00143 0.977509
1.00181 0.999336 0.981265
0.997813 0.999285 0.975151
0.996395 1.00024 0.985447
0.99661 0.999889 0.963459
0.995662 0.999873 0.961173
0.998402 0.997424 0.968242
0.995646 1.00115 0.982878
0.995927 1.00164 0.963194
0.995071 1.00001 0.965649
0.999471 0.998165 0.969958
0.99604 1.00229 0.980703
0.995085 1.00077 0.966155
0.994538 1.00009 0.966536
0.998504 0.996786 0.971295
1.00023 1.00184 0.992354
1.00015 1.00194 0.992373
1.00008 1.00182 0.992657
1.00016 1.00157 0.992739
1.0001 1.00158 0.99293
1.00017 1.00103 0.993389
1.00194 1.00081 0.992085
1.00006 0.999613 0.994054
1.00015 1.0022 0.992197
1.00035 1.00232 0.99183
1.00025 1.00248 0.991804
1.00025 1.00188 0.992264
1.00024 1.00211 0.99209
0.999383 0.999976 0.996317
1.00024 1.00172 0.992361
0.998626 1.00223 0.995579
1.0002 1.00164 0.992614
0.997173 0.998961 0.999352
0.9984 1.00044 0.998146
1.0001 1.0019 0.992431
1.01587 0.998163 0.972699
1.01045 0.999103 0.977623
1.00231 0.999774 0.977796
0.998729 1.0018 0.995254
0.996015 1.00154 0.998535
1.00682 0.999783 0.981131
0.995235 1.0005 0.973601
0.995414 0.99997 0.965705
1.00569 1.00072 0.978855
0.998791 0.997123 0.968113
0.997668 1.00091 0.998771
1.01348 0.999081 0.974086
1.00198 0.998985 0.981359
0.995003 1.00083 0.992572
0.996368 0.997531 0.963687
0.995273 0.999939 0.965025
0.995035 1.00013 0.96768
0.996448 1.00105 1.00232
1.00875 0.998425 0.978758
0.998621 0.999842 0.974877
0.995152 0.996221 0.960662
0.995265 0.999295 0.962529
0.995105 1.00008 0.966807
0.995115 0.999674 0.989262
0.999853 0.999698 0.995478
0.998752 0.998291 0.99857
0.998578 1.00024 0.997399
1.00033 1.0011 0.99287
1.00001 0.999404 0.994988
0.999512 1.00159 0.993818
0.999388 1.00286 0.992868
1.00012 1.00211 0.992467
0.999713 1.004 0.991325
0.99999 1.00505 0.989601
0.999626 1.00383 0.991276
1.00011 1.00485 0.989589
1.00088 1.00487 0.988366
1.00115 1.00446 0.988143
1.00039 1.00338 0.99031
1.00064 1.00419 0.989167
1.0003 1.00442 0.989586
1.00025 1.00306 0.991201
1.0002 1.00334 0.990952
1.00002 1.00276 0.991723
0.999975 1.00338 0.99126
1.00013 1.00364 0.990703
1.00016 1.00116 0.993145
1.00011 1.00213 0.992285
1.00012 1.00295 0.991533
1.00003 0.999648 0.994861
1.00015 1.00074 0.993563
1.00011 1.00176 0.992545
1.00015 1.00044 0.993857
1.00007 0.999396 0.995039
0.999859 0.997789 0.997005
1.00011 0.999229 0.995123
0.999929 0.997612 0.997059
0.999812 0.996522 0.999349
0.999991 0.997468 0.997091
0.999883 0.996391 0.998922
0.999917 0.996295 0.999359
1.00023 1.00041 0.993737
1.00014 0.99932 0.994968
1.00021 1.00033 0.993813
1.00002 0.99744 0.997064
1.00014 0.99918 0.995039
1.0002 1.00024 0.994041
0.999955 0.996194 0.999371
1.00006 0.997242 0.997179
1.00015 0.998994 0.995131
0.999994 0.996054 0.999398
1.00009 0.997085 0.997271
1.00002 0.995973 0.999413
1.01265 0.999192 0.974617
1.00827 0.999032 0.979091
1.0007 0.999569 0.97856
1.00023 1.00121 0.992913
1.00016 1.00178 0.992566
1.00019 1.00108 0.993204
1.00023 1.00112 0.99301
1.00016 1.00156 0.992757
1.00017 1.0016 0.992718
1.00015 1.00181 0.992517
1.00299 0.999334 0.978996
1.00476 1.00136 0.977957
1.00155 0.999181 0.981588
0.999993 0.997853 0.971064
0.995063 1.00026 0.979409
0.995792 1.0026 0.964446
0.994812 1.00006 0.964041
0.995697 1.00029 0.978989
0.995235 1.00012 0.963445
0.995047 0.99994 0.965024
0.997987 0.997054 0.97097
0.99566 0.998074 0.986477
0.994953 1.00022 0.963597
0.995861 1.00003 0.96501
0.99578 0.997036 0.967368
1.00023 1.00175 0.992506
1.00022 1.00181 0.992346
1.00014 1.00195 0.992361
1.00016 1.00158 0.992733
0.999751 1.00163 0.996287
0.998422 1.00176 0.996765
1.00027 1.00181 0.992206
1.00022 1.00209 0.992121
1.0002 1.00188 0.992567
1.00022 1.00164 0.99256
1.00007 1.00195 0.99236
0.996695 1.00068 0.998733
0.998356 1.00029 0.998515
0.999964 1.0018 0.992767
0.995817 0.997447 1.0015
0.998969 1.00238 0.995462
1.00929 0.999471 0.97873
1.01817 0.99727 0.970086
1.01178 0.998859 0.976208
0.997852 1.00092 0.998693
0.995279 0.999598 0.999039
1.01433 0.999294 0.973086
0.995171 1.00017 0.963567
0.99469 1.00003 0.96395
1.00172 0.998908 0.981652
0.996407 0.997862 0.963062
0.996532 1.00079 1.00244
1.00839 0.998904 0.97907
0.99844 0.999465 0.974865
0.994967 0.999688 0.994066
0.994912 0.997073 0.957804
0.996165 0.999741 0.962944
0.995197 1.00011 0.965376
0.996437 1.00194 1.0001
1.00116 0.999494 0.977796
0.995635 0.998073 0.963862
0.99633 0.99953 0.961466
0.995604 1.00042 0.966826
0.994832 0.999959 0.983979
0.998965 0.998019 0.998486
0.998493 1.00044 0.997384
1.00009 0.998966 0.996669
0.999385 1.00175 0.993972
0.999093 1.00291 0.993083
1.00021 1.00397 0.990237
0.999999 1.00394 0.991111
1.00014 1.00505 0.989431
1.00101 1.00473 0.987916
1.00016 1.00484 0.989571
1.00093 1.00485 0.988235
1.00143 1.00439 0.987426
1.00184 1.00351 0.987642
1.00113 1.00368 0.989099
1.00119 1.0045 0.987954
1.00036 1.00278 0.990906
1.0004 1.00337 0.990383
1.00064 1.00421 0.989093
1.00024 1.00284 0.991355
1.00023 1.0031 0.991176
1.00012 1.00319 0.991096
1.00016 1.00166 0.992615
1.00004 1.00269 0.991812
1.00002 1.00333 0.991346
1.00001 1 0.994528
1.00016 1.00114 0.993147
1.00012 1.00211 0.992291
0.999803 0.997994 0.996923
1.00003 0.999654 0.994855
1.00015 1.00074 0.993559
1.00007 0.999395 0.995035
0.999865 0.997794 0.997001
0.999737 0.996696 0.999336
0.999934 0.997615 0.997057
0.999802 0.996545 0.999346
0.99986 0.996415 0.999353
1.00022 1.00132 0.992876
1.00025 1.00051 0.993606
1.00013 0.999456 0.994852
1.00023 1.00041 0.993737
0.999975 0.997632 0.996957
1.00014 0.999333 0.994967
1.0002 1.00034 0.993857
0.999909 0.996352 0.999344
1.00002 0.997428 0.99707
1.00015 0.999189 0.995099
0.999959 0.996172 0.999378
1.00006 0.997231 0.997184
0.999997 0.996037 0.999403
1.0071 0.999728 0.980283
1.01348 0.999475 0.973656
1.00791 0.999546 0.979392
1.00022 1.00122 0.992939
1.00016 1.00179 0.992523
1.00013 1.0021 0.992228
1.00015 1.00171 0.992565
1.00013 1.00213 0.992298
1.00022 1.00113 0.992996
1.00017 1.00154 0.992705
1.00015 1.00161 0.992723
1.00019 1.00179 0.992469
1.00011 1.00191 0.992553
0.998578 0.998762 0.9758
1.00257 0.999695 0.979322
1.00562 1.00141 0.978405
0.997403 0.997126 0.971373
0.995378 1.00001 0.96634
0.99528 1.00031 0.97706
0.995073 1.00012 0.966205
0.995518 0.996973 0.981355
0.994968 1.00014 0.966542
0.995046 0.999896 0.964794
0.996001 0.997127 0.965871
0.995046 0.994819 0.986367
0.995053 1.00007 0.967174
0.995893 0.999898 0.962015
0.99484 0.997856 0.960419
0.999896 1.00151 0.993257
1.00019 1.00182 0.992479
1.00022 1.00178 0.992339
0.996156 1.00192 0.998127
0.998302 0.99998 0.998912
1.00023 1.00164 0.992506
1.00005 1.00205 0.992289
0.999954 1.00175 0.99282
0.998806 1.00234 0.995183
0.995838 0.997102 1.00156
0.998753 1.00273 0.994179
0.99719 1.00126 0.996982
1.00164 0.999582 0.978121
1.01056 0.999157 0.977391
1.02044 0.996444 0.967472
0.996553 1.00063 1.00254
0.994919 0.999821 0.987127
1.00804 0.99941 0.979383
0.995313 1.00007 0.962599
0.99543 0.999496 0.962773
0.998255 0.998971 0.974855
0.994657 0.997882 0.954946
0.996501 1.00186 1.00033
1.00106 0.999566 0.978007
0.995643 0.997947 0.96275
0.994878 0.999907 0.986254
0.996138 0.999584 0.960381
0.995676 0.999765 0.963804
0.997842 1.00049 0.997185
0.996089 0.998213 0.967595
0.997201 0.997682 0.960028
0.99706 1.00029 0.96345
0.994891 1.0001 0.98597
0.998472 1.00061 0.997364
0.999922 0.998717 0.996679
1.00194 0.998859 0.992376
0.998807 1.00294 0.993297
0.999925 1.00401 0.990507
1.00159 1.00272 0.988573
1.00027 1.00508 0.98926
1.00106 1.00461 0.987912
1.00222 1.00311 0.987407
1.00098 1.00484 0.988103
1.00143 1.00438 0.987461
1.00241 1.00237 0.987613
1.00254 1.00161 0.988121
1.00152 1.00319 0.988427
1.00184 1.00338 0.987675
1.00088 1.00306 0.99001
1.00105 1.00377 0.988926
1.00122 1.00454 0.987765
1.00042 1.00247 0.99133
1.00036 1.00276 0.99102
1.00042 1.00335 0.990456
1.00023 1.00204 0.992122
1.00022 1.00282 0.991397
1.0002 1.00315 0.991151
1.00001 1.00052 0.99402
1.00017 1.00166 0.992616
1.00006 1.00262 0.991901
0.999723 0.998276 0.997225
1.00001 1.00001 0.994519
1.00016 1.00113 0.993149
0.999675 0.99693 0.998377
0.999797 0.998025 0.997128
1.00003 0.999658 0.994849
0.99987 0.9978 0.996998
0.999727 0.996727 0.99933
0.999792 0.99657 0.999342
1.00018 1.00163 0.992585
1.00025 1.00068 0.99343
1.00021 1.00136 0.992838
1.0001 0.999599 0.994768
1.00024 1.00053 0.993606
0.999924 0.997811 0.996873
1.00012 0.999472 0.994852
1.00024 1.00042 0.993737
0.999854 0.996524 0.999318
0.999971 0.997625 0.996962
1.00013 0.99935 0.994967
0.999914 0.996325 0.999352
1.00002 0.997417 0.997075
0.999964 0.996147 0.999385
1.00063 0.99879 0.98094
1.00699 0.999801 0.980575
1.01431 0.99981 0.972696
1.00008 1.00236 0.992121
1.00022 1.00125 0.992965
1.00018 1.00179 0.992479
1.00015 1.00172 0.992602
1.00014 1.00207 0.992273
1.00013 1.00211 0.992268
1.00012 1.00239 0.992016
1.00006 1.00213 0.992287
1.00013 1.00163 0.992728
1.00022 1.00177 0.992421
1.0001 1.00192 0.992533
1.00007 1.00226 0.992548
0.995444 0.998929 0.961266
0.998487 0.999114 0.975778
1.00216 0.999976 0.979648
0.996326 0.997082 0.9649
0.995193 0.999917 0.964477
0.994951 1.00023 0.963656
0.995334 0.995705 0.984644
0.994958 0.994845 0.990338
0.994692 0.997909 0.957695
0.994906 1.00014 0.963519
0.995993 0.999793 0.962406
0.995584 0.997439 0.989082
0.995736 0.999518 0.96817
0.996376 0.999839 0.960487
0.999434 1.0013 0.994253
0.999996 1.00148 0.99326
1.00014 1.00189 0.992451
0.995865 0.996775 1.00158
0.99879 1.00219 0.994916
0.999919 1.00171 0.992871
0.999109 1.00264 0.994037
0.996776 1.00143 0.997123
0.998439 1.00115 0.994861
0.996503 0.998868 0.964057
1.00212 0.999464 0.979306
1.01185 0.998817 0.976051
0.996496 1.00176 1.0006
0.994896 0.999878 0.987875
1.00096 0.999662 0.978225
0.995785 0.999014 0.967081
0.996188 0.99973 0.960083
0.995587 0.99785 0.962711
0.997675 1.00035 0.997292
0.996183 0.997869 0.966765
0.996966 0.997749 0.960449
0.99488 1.00022 0.981517
0.996306 1.00025 0.966305
0.999038 0.999771 0.996455
0.998449 0.995601 0.960208
0.997438 1.00009 0.966161
0.995356 1.00076 0.979303
0.999682 0.998536 0.996692
1.00158 0.998721 0.993135
1.00306 0.997245 0.991167
0.999639 1.00404 0.990777
1.00165 1.00261 0.988595
1.00341 0.999391 0.988438
1.00111 1.00448 0.987909
1.00218 1.00288 0.987459
1.00347 0.999729 0.988241
1.00144 1.00436 0.987495
1.00243 1.00224 0.987645
1.00328 0.999629 0.988712
1.00297 0.99986 0.989138
1.00219 1.0019 0.988516
1.00253 1.00151 0.988242
1.00119 1.00275 0.989292
1.00155 1.00316 0.988529
1.00184 1.00326 0.987709
1.0006 1.00255 0.990916
1.00077 1.00307 0.990021
1.00098 1.00385 0.988752
1.00037 1.00205 0.991866
1.00045 1.00247 0.99132
1.00035 1.00274 0.991133
1.00002 1.00113 0.993434
1.00024 1.00203 0.992136
1.0002 1.00281 0.991439
0.999676 0.998611 0.996516
1.00001 1.00052 0.99401
1.00018 1.00166 0.992617
0.999551 0.997184 0.999283
0.999734 0.998317 0.996723
1.00001 1.00002 0.99451
0.999652 0.996925 0.99931
0.999804 0.998039 0.996888
0.999716 0.99676 0.999324
1.00013 1.00196 0.992454
1.00019 1.00162 0.992593
1.00022 1.00098 0.993185
1.00007 0.999752 0.994674
1.00024 1.00068 0.993432
1.00021 1.00138 0.9928
0.999871 0.997973 0.996811
1.0001 0.999598 0.994769
1.00024 1.00052 0.993607
0.999793 0.996694 0.999298
0.999919 0.997807 0.996876
1.00012 0.999483 0.994853
0.99986 0.996498 0.999326
0.999967 0.997616 0.996966
0.999919 0.996298 0.99936
0.996049 0.998922 0.964636
1.0004 0.998805 0.981147
1.00689 0.999858 0.980868
1.00007 1.00241 0.992079
1.00007 1.00266 0.99192
1.00007 1.00261 0.991889
1.00016 1.00173 0.99264
1.00015 1.00204 0.992318
1.00012 1.00208 0.992239
1.00008 1.00214 0.992267
1.00011 1.0024 0.991999
0.999971 1.00291 0.99181
1.00014 1.00193 0.992319
1.00009 1.00193 0.992513
1.00002 1.00214 0.992564
0.997758 0.997985 0.959432
0.99522 0.999343 0.960297
0.998312 0.99935 0.975761
0.994586 0.998065 0.954962
0.995226 0.99988 0.961831
0.995436 1.00015 0.968326
0.995007 0.994836 0.98606
0.995304 0.997523 0.985331
0.996216 0.999128 0.959804
0.995506 0.999948 0.966116
0.996922 0.996509 0.984807
0.996971 1.00078 0.963008
1.00073 1.0013 0.99255
0.999617 1.00113 0.994159
1.00008 1.00143 0.993264
0.996193 1.0017 0.997254
0.999417 1.00256 0.993891
0.999089 1.00144 0.994406
1.00168 0.999442 0.991168
0.998544 0.994832 0.959433
0.996392 0.999026 0.965842
1.00261 0.999313 0.980488
0.997572 1.00013 0.997421
0.99492 1.00006 0.983777
0.996159 0.997565 0.966987
0.996372 1.00056 0.963101
0.997554 0.998897 0.960727
0.998996 0.999815 0.995929
0.998367 0.995493 0.959758
0.998465 0.998655 0.962589
0.995186 1.00097 0.982948
1.00008 1.0005 0.994562
0.999121 0.996969 0.963297
0.997208 0.999093 0.984702
1.00125 0.998596 0.993893
1.00291 0.997545 0.991057
1.00453 0.995566 0.989946
1.0017 1.00252 0.988617
1.00345 0.99935 0.988384
1.00455 0.996402 0.98916
1.00214 1.00267 0.987511
1.00346 0.999577 0.988236
1.00439 0.996799 0.989199
1.00244 1.0021 0.987676
1.00327 0.999546 0.988702
1.00366 0.997862 0.989679
1.00327 0.998863 0.98971
1.00295 0.999727 0.989263
1.00264 1.00044 0.989128
1.00194 1.00186 0.989066
1.0022 1.00193 0.988537
1.00253 1.0014 0.988364
1.00097 1.00246 0.990099
1.00123 1.00276 0.98942
1.00158 1.00313 0.988631
1.00049 1.00206 0.991597
1.00063 1.00255 0.990897
1.00067 1.00308 0.990031
1.00007 1.00142 0.993015
1.00039 1.00202 0.991872
1.00048 1.00247 0.991311
0.99963 0.999012 0.99617
1.00003 1.00106 0.993435
1.00025 1.00201 0.992149
0.999513 0.997411 0.999234
0.999674 0.998651 0.996495
1.00001 1.00051 0.993999
0.999573 0.997202 0.998791
0.999742 0.998326 0.996718
0.999639 0.996988 0.999294
1.00013 1.00227 0.992129
1.00012 1.00199 0.992406
1.00015 1.0014 0.992916
1.0002 1.00162 0.992601
1.00022 1.00098 0.993185
1.00001 1.00002 0.994501
0.999818 0.998123 0.996764
1.00007 0.999743 0.994679
1.00024 1.0007 0.993435
0.999724 0.996862 0.999282
0.999866 0.997969 0.996814
1.0001 0.999599 0.994771
0.9998 0.996673 0.999304
0.999914 0.997804 0.996879
0.999866 0.99647 0.999333
0.998429 0.99599 0.960307
0.995777 0.999299 0.963734
1.00019 0.998825 0.98135
1.00006 1.00247 0.992036
1.00005 1.0027 0.991815
1.00002 1.00263 0.991976
1.00016 1.00267 0.991736
0.999991 1.00296 0.991715
1.0001 1.00215 0.992248
1.0001 1.00241 0.991982
0.999945 1.00282 0.991844
0.999847 1.00289 0.991605
1.00011 1.00246 0.991837
1.00146 1.00197 0.990273
0.999972 1.00226 0.992398
0.999995 1.00202 0.99258
0.999101 0.99897 0.961879
0.997251 0.998229 0.959464
0.994927 0.999734 0.960257
0.996562 0.999357 0.95958
0.995528 1.0006 0.963395
0.995029 0.997543 0.989918
0.997116 0.996766 0.987153
0.997007 0.998849 0.96686
0.999998 0.997799 0.981959
1.00303 0.999487 0.989526
1.00034 1.00113 0.992523
0.999757 1.00096 0.994063
0.999608 1.00166 0.993961
1.00239 0.999659 0.990504
0.999513 0.995577 0.96315
0.998606 0.995233 0.96018
0.99627 0.999258 0.967633
0.998926 0.999872 0.995382
0.994904 1.0014 0.979602
0.998458 0.995198 0.959894
0.997883 0.999486 0.966337
1.00039 1.00017 0.994581
1 0.995915 0.965553
0.99688 1.00005 0.981088
1.00216 1.00227 0.990207
1.00041 0.996725 0.988379
1.00278 0.997831 0.990943
1.00428 0.996103 0.989723
1.00514 0.996096 0.988472
1.0035 0.999291 0.988332
1.00452 0.996658 0.989081
1.00501 0.995782 0.988962
1.00346 0.999417 0.988231
1.00435 0.996944 0.989121
1.00455 0.996549 0.98921
1.00325 0.999472 0.988692
1.00362 0.997954 0.989629
1.00378 0.997773 0.989636
1.00318 0.998708 0.989861
1.00311 0.999465 0.989381
1.00294 0.999604 0.989388
1.00265 1.00046 0.989098
1.00246 1.0008 0.989151
1.00156 1.00185 0.989602
1.00194 1.00189 0.989043
1.00221 1.00197 0.988558
1.00073 1.00209 0.991107
1.00096 1.00246 0.990189
1.00126 1.00276 0.989549
1.0001 1.00155 0.992764
1.00053 1.00205 0.991581
1.00066 1.00256 0.990877
0.999617 0.999435 0.995745
1.00009 1.00138 0.993025
1.00042 1.002 0.991877
0.999476 0.997682 0.999166
0.999621 0.999073 0.996151
1.00005 1.00101 0.993436
0.999515 0.997456 0.999216
0.999671 0.998695 0.996475
0.999569 0.997237 0.999254
1.00023 1.00245 0.99178
1.00012 1.00225 0.992134
1.00014 1.00178 0.992495
1.00012 1.00201 0.992358
1.00015 1.00145 0.992851
0.999969 1.00046 0.994139
1.00022 1.00098 0.993185
1.00002 1 0.994507
0.999748 0.998337 0.996686
0.999647 0.997032 0.99927
0.999812 0.998122 0.996768
1.00007 0.999732 0.994685
0.999733 0.996842 0.999287
0.999862 0.997965 0.996816
0.999806 0.99665 0.99931
1.00045 0.996566 0.964826
0.998182 0.995994 0.95991
0.995374 0.999661 0.963833
1.00003 1.0028 0.991741
0.999976 1.0026 0.992031
0.999995 1.00296 0.991748
1.00014 1.00267 0.991739
1.00026 1.00291 0.991327
0.99994 1.00283 0.99174
0.99992 1.00271 0.991879
0.999968 1.00304 0.991443
1.00002 1.00271 0.991746
1.00037 1.00219 0.991234
1.00171 1.00182 0.990558
1.00306 1.00046 0.988307
1.00122 1.00186 0.990466
0.999801 1.0026 0.992476
0.999845 0.997845 0.98075
0.998731 0.998956 0.963121
0.997384 0.998236 0.959835
0.997674 1.0004 0.96304
0.997265 0.996795 0.989468
1.00017 0.997682 0.986126
1.00365 0.997226 0.990516
1.00307 0.999142 0.989913
1.00019 1.00098 0.992493
1.00352 1.00004 0.989827
0.999101 0.998695 0.981991
1.00009 0.995761 0.967085
0.998476 0.995586 0.960103
1.00058 0.999986 0.994593
0.996634 1.00086 0.98328
0.999554 0.995699 0.967886
1.00223 1.00126 0.990435
0.999874 0.997854 0.986531
1.00427 1.00009 0.98806
1.0047 0.997565 0.98868
1.00407 0.996586 0.989501
1.00503 0.996099 0.98844
1.00512 0.996968 0.987978
1.00443 0.996884 0.988998
1.00495 0.996007 0.988948
1.00498 0.997057 0.987975
1.00434 0.997101 0.989042
1.0045 0.996771 0.989151
1.0045 0.997622 0.988424
1.00358 0.998055 0.98958
1.00364 0.997845 0.989733
1.00353 0.998817 0.988983
1.00309 0.998554 0.990011
1.00307 0.999353 0.989453
1.00296 1.00007 0.989075
1.00265 1.00048 0.989068
1.00245 1.00083 0.989128
1.0022 1.00105 0.989471
1.00114 1.00173 0.990477
1.00154 1.00187 0.989691
1.00193 1.00193 0.989019
1.00022 1.00169 0.992425
1.00076 1.00208 0.991099
1.00095 1.00245 0.990278
0.999572 0.999976 0.995317
1.00012 1.00157 0.992766
1.00056 1.00205 0.991564
0.999461 0.997959 0.999066
0.999612 0.999495 0.995737
1.00011 1.00134 0.993034
0.999484 0.997725 0.999137
0.999614 0.999129 0.996132
0.999519 0.997497 0.999196
1.00033 1.00265 0.991416
1.00023 1.00243 0.991813
1.0002 1.00206 0.992167
1.00011 1.00224 0.992138
1.00014 1.00183 0.992447
0.999977 1.00093 0.993642
1.00014 1.0015 0.992785
0.999974 1.00045 0.994145
0.999671 0.998653 0.996515
1.00003 0.999981 0.994514
0.999745 0.998321 0.996695
0.999568 0.997242 0.99925
0.999659 0.997013 0.999274
0.999806 0.998118 0.996771
0.999741 0.996825 0.999292
0.999572 0.997871 0.981332
1.0002 0.996404 0.961966
0.998379 0.995893 0.959842
1.00075 1.00257 0.990705
0.999998 1.00296 0.991781
1.00011 1.00266 0.991741
0.999983 1.0029 0.991731
1.0002 1.00298 0.991296
1.00023 1.00201 0.991945
1.00009 1.00323 0.99128
0.999991 1.00298 0.991654
1.00052 1.00219 0.991362
1.00144 1.00181 0.990629
1.00268 1.00052 0.988959
1.00476 0.998369 0.986795
1.003 1.00031 0.988268
1.00106 1.00166 0.99066
1.00325 0.996703 0.992301
0.999722 0.998334 0.979176
0.998843 0.998836 0.964742
1.00001 0.997432 0.983313
1.00372 0.996729 0.991221
1.00278 0.998678 0.990311
1.00347 0.998618 0.988915
0.998939 0.997804 0.984496
0.999871 0.995494 0.962984
1.00239 1.00006 0.990653
0.999873 0.99898 0.984591
1.00428 0.999124 0.988117
1.00467 0.99775 0.989044
1.00514 0.996691 0.987885
1.00518 0.997434 0.987669
1.00487 0.99616 0.988409
1.00508 0.996654 0.988059
1.0049 0.997488 0.987908
1.00495 0.996186 0.988934
1.005 0.997006 0.987981
1.00481 0.998157 0.987233
1.00442 0.99698 0.989091
1.00436 0.997646 0.98863
1.00411 0.998555 0.988092
1.00351 0.997908 0.989829
1.00354 0.998822 0.988979
1.00338 0.999527 0.988597
1.00303 0.99924 0.989525
1.00293 0.999996 0.989092
1.00266 1.00046 0.989129
1.00245 1.00085 0.989104
1.00216 1.00106 0.989423
1.00175 1.00121 0.990132
1.00055 1.00151 0.991992
1.00113 1.00174 0.990569
1.00151 1.00189 0.98978
0.99953 1.0005 0.994878
1.00024 1.0017 0.992423
1.00078 1.00207 0.991091
0.999385 0.998307 0.998952
0.999605 0.999941 0.995311
1.00014 1.00157 0.992768
0.999449 0.998006 0.999031
0.999608 0.999539 0.995727
0.999489 0.997763 0.999105
1.00058 1.00255 0.990846
1.00031 1.00261 0.991426
1.00034 1.00218 0.991857
1.00024 1.00241 0.991846
1.00019 1.00206 0.992187
1 1.00135 0.993197
1.00014 1.00189 0.992399
0.999964 1.00098 0.99364
0.999596 0.999059 0.996239
0.999977 1.00045 0.99415
0.999673 0.998615 0.996533
0.999502 0.997485 0.999208
0.999744 0.998306 0.996703
0.999579 0.997208 0.999257
0.99967 0.996995 0.999278
1.00328 0.997241 0.991168
0.999559 0.998185 0.977971
0.99987 0.996793 0.965313
1.00084 1.00176 0.991078
1.00184 1.00162 0.989575
1.00056 1.0026 0.990809
1.00003 1.00295 0.991722
1.00015 1.00306 0.991263
1.00042 1.00197 0.991818
1.0027 1.00029 0.98929
1.00062 1.0022 0.99149
1.00102 1.00179 0.9907
1.00266 1.00049 0.989023
1.00441 0.999014 0.986746
1.0051 0.996959 0.987415
1.00477 0.998434 0.986833
1.00301 1.00025 0.988228
1.00351 0.996644 0.992469
0.999586 0.99902 0.97695
1.00403 0.996382 0.991912
1.00506 0.996781 0.988975
1.0032 0.998448 0.989178
0.999312 0.997137 0.980568
1.00431 0.998235 0.988186
1.00464 0.997954 0.989362
1.00505 0.996659 0.988059
1.0052 0.997036 0.987715
1.00491 0.997094 0.988029
1.00508 0.996468 0.987968
1.00505 0.996292 0.98814
1.00486 0.997324 0.987915
1.00471 0.997915 0.987606
1.00501 0.997047 0.987987
1.00476 0.998111 0.987386
1.00448 0.998512 0.9874
1.00421 0.997676 0.988836
1.00416 0.99855 0.988058
1.00397 0.999029 0.987951
1.00354 0.998826 0.988974
1.00339 0.999521 0.988592
1.0031 1.00003 0.988645
1.0029 0.99992 0.989108
1.00261 1.00044 0.989139
1.00215 1.00074 0.989763
1.00211 1.00107 0.989374
1.00169 1.0012 0.990109
1.00098 1.0011 0.991591
0.999587 1.00071 0.994511
1.00056 1.00152 0.991989
1.00113 1.00174 0.99066
0.999231 0.998814 0.998834
0.999598 1.00041 0.994868
1.00026 1.0017 0.992422
0.999356 0.998405 0.998916
0.999633 0.999933 0.995307
0.999441 0.99807 0.998996
1.00111 1.00224 0.989923
1.00059 1.00253 0.990755
1.00065 1.00209 0.991363
1.0003 1.00258 0.991436
1.00032 1.00217 0.991866
1.00004 1.00166 0.992868
1.00018 1.00205 0.992206
0.999974 1.00141 0.993191
0.999551 0.999508 0.995864
0.999951 1.00102 0.993638
0.999605 0.999004 0.996257
0.999455 0.997746 0.999137
0.999675 0.998577 0.99655
0.999507 0.997443 0.999223
0.999591 0.99718 0.999265
1.00502 0.996463 0.988045
1.00328 0.997114 0.990709
0.999672 0.997583 0.979594
1.00273 1.00048 0.989296
1.00065 1.00164 0.991579
1.00273 1.00044 0.988469
1.00186 1.00164 0.989509
1.00035 1.00265 0.990917
1.00442 0.999137 0.987081
1.00062 1.00192 0.991694
1.00276 1.00022 0.989174
1.00503 0.998217 0.986624
1.00266 1.00042 0.989087
1.00461 0.999015 0.986567
1.00504 0.997114 0.987416
1.00463 0.998543 0.986868
1.00362 0.996475 0.992637
1.00492 0.997017 0.988016
1.00487 0.996879 0.988944
1.00285 0.998237 0.989434
1.00495 0.996572 0.988235
1.00523 0.996727 0.987759
1.00486 0.997019 0.988082
1.0051 0.996608 0.988037
1.005 0.997491 0.987572
1.00481 0.997193 0.987923
1.00469 0.998006 0.987595
1.00458 0.998381 0.987392
1.00472 0.998069 0.987539
1.00452 0.998518 0.987388
1.00432 0.998786 0.98754
1.00421 0.998547 0.988025
1.00399 0.999028 0.987933
1.00365 0.999508 0.98811
1.0034 0.999516 0.988586
1.00311 1.00003 0.988642
1.00262 1.00037 0.989215
1.00257 1.00041 0.989149
1.00214 1.00074 0.989767
1.00139 1.00073 0.991178
1.00164 1.00119 0.990087
1.00098 1.00112 0.991583
0.999668 1.00069 0.995128
0.999137 0.999512 0.996965
0.999654 1.00062 0.99492
1.00057 1.00154 0.991985
0.999205 0.99895 0.998793
0.999664 1.00034 0.994858
0.999332 0.998492 0.998876
1.00327 0.999484 0.988672
1.00181 1.00155 0.989294
1.00123 1.00222 0.989817
1.00101 1.0019 0.99083
1.00059 1.00252 0.990664
1.0006 1.00209 0.991383
1.00016 1.00173 0.992593
1.00029 1.00216 0.991875
1.00001 1.00167 0.992867
0.999559 0.999952 0.995422
0.999945 1.00149 0.993185
0.999556 0.999459 0.995876
0.999405 0.99805 0.999033
0.999613 0.99895 0.996276
0.999453 0.997706 0.999161
0.999514 0.997402 0.999237
1.00489 0.997672 0.987367
1.00502 0.99666 0.988582
1.00335 0.997194 0.990255
1.00416 0.999084 0.987493
1.00241 1.00053 0.989676
1.00046 1.00149 0.992075
1.00293 1.00037 0.988606
1.00189 1.00167 0.989442
1.00509 0.998467 0.986453
1.00437 0.999225 0.986905
1.00281 1.00018 0.989056
1.00503 0.998243 0.986618
1.00483 0.999011 0.986389
1.00501 0.997241 0.987425
1.00509 0.997645 0.987298
1.00499 0.996948 0.988008
1.00473 0.996913 0.988915
1.00483 0.996946 0.988137
1.00512 0.996716 0.988106
1.00497 0.997457 0.987645
1.0048 0.998376 0.987034
1.00468 0.998074 0.987584
1.00455 0.998449 0.987396
1.0044 0.998915 0.987254
1.00456 0.99852 0.987376
1.00433 0.998782 0.987538
1.00398 0.99917 0.987828
1.00401 0.999028 0.987915
1.00366 0.999507 0.988104
1.00312 0.999942 0.988708
1.00311 1.00002 0.98864
1.00263 1.00037 0.989213
1.00179 1.00047 0.990672
1.00214 1.00074 0.989771
1.00139 1.00074 0.991166
0.999843 1.00055 0.994991
1.00098 1.00114 0.991576
0.999768 1.00066 0.995081
0.998996 1.00006 0.996785
0.999073 0.99956 0.997813
0.999741 1.00053 0.995299
0.999181 0.999073 0.998745
1.00422 0.998811 0.987661
1.00264 1.00052 0.989158
1.00313 0.999219 0.989242
1.00147 1.00162 0.990184
1.00193 1.00158 0.989263
1.00135 1.0022 0.989711
1.00097 1.00194 0.990838
1.00039 1.00166 0.992218
1.00056 1.00209 0.991402
1.00013 1.00171 0.992595
0.99959 1.00034 0.994991
0.999987 1.00167 0.992866
0.999538 0.999942 0.995428
0.999311 0.998462 0.998907
0.999561 0.999401 0.995888
0.999409 0.997996 0.999068
0.999454 0.99766 0.999184
1.0051 0.997933 0.986879
1.00495 0.997641 0.987348
1.00497 0.996794 0.989112
1.00492 0.998417 0.986711
1.00415 0.999139 0.987531
1.00212 1.00058 0.990058
1.00311 1.00029 0.988745
1.00509 0.998434 0.986446
1.00434 0.999312 0.98673
1.00502 0.998279 0.986611
1.00511 0.997954 0.98685
1.00507 0.997654 0.987245
1.00504 0.996898 0.988001
1.00503 0.998411 0.98672
1.00493 0.997443 0.987718
1.00481 0.998352 0.987058
1.00445 0.999075 0.986962
1.00453 0.998529 0.987401
1.0044 0.998926 0.987263
1.00408 0.999247 0.987558
1.00434 0.99878 0.987535
1.00398 0.99917 0.987825
1.00342 0.999617 0.98846
1.00367 0.999506 0.988098
1.00312 0.99994 0.988708
1.00218 1.0002 0.990206
1.00263 1.00037 0.989211
1.00181 1.00046 0.990657
1.00007 1.00033 0.994851
1.00139 1.00075 0.991155
0.999934 1.00054 0.994942
0.998964 1.00025 0.99671
0.999873 1.00061 0.995032
0.998933 1.00015 0.996835
0.998966 0.999561 0.998736
1.00463 0.998863 0.987002
1.00369 0.999374 0.988184
1.00411 0.99891 0.987846
1.00215 1.00096 0.989757
1.00263 1.0004 0.989175
1.003 0.998966 0.989805
1.0008 1.00145 0.991614
1.00147 1.00163 0.990177
1.00204 1.00162 0.989232
1.00092 1.00198 0.990847
1.00037 1.00165 0.992224
0.999639 1.00065 0.994607
1.00011 1.00169 0.992596
0.999536 1.0004 0.994995
0.999157 0.99901 0.998785
0.99952 0.999934 0.995434
0.99933 0.998375 0.998948
0.999414 0.997945 0.999102
1.00506 0.99803 0.986876
1.00511 0.99792 0.986841
1.00505 0.997605 0.987329
1.00494 0.998296 0.986793
1.00413 0.999201 0.987568
1.00508 0.998386 0.986439
1.00514 0.998076 0.986676
1.00514 0.997987 0.986789
1.00505 0.997666 0.987191
1.00501 0.998293 0.98679
1.00489 0.998786 0.986544
1.00482 0.998316 0.987083
1.00447 0.999119 0.986959
1.00417 0.999436 0.987132
1.00439 0.998936 0.987272
1.00408 0.99926 0.987557
1.00354 0.999619 0.988229
1.00399 0.999168 0.987823
1.00342 0.999614 0.988458
1.00241 0.999963 0.989988
1.00312 0.999938 0.988707
1.00219 1.00018 0.990199
1.00033 1.00009 0.99467
1.00182 1.00045 0.990642
1.00015 1.00033 0.99479
0.999053 1.00023 0.996622
1.00003 1.00051 0.994896
0.998903 1.00032 0.996769
0.998865 1.00026 0.996891
1.00478 0.998455 0.986934
1.00419 0.999083 0.987504
1.00462 0.998837 0.986959
1.00297 1.00004 0.988991
1.00367 0.99944 0.988243
1.00399 0.999003 0.988035
1.00136 1.00093 0.990993
1.00213 1.0009 0.989613
1.00262 1.00028 0.989191
0.999755 1.0008 0.99423
1.00079 1.00143 0.991626
1.00146 1.00165 0.99017
1.00034 1.00165 0.992231
0.999553 1.00075 0.994619
0.999001 0.999619 0.998677
0.999476 1.00049 0.994999
0.999186 0.998894 0.998827
0.999355 0.998291 0.998988
1.00505 0.998136 0.986824
1.00506 0.998038 0.986871
1.00512 0.99791 0.986802
1.00498 0.998176 0.986874
1.00509 0.998419 0.986512
1.00515 0.998092 0.986681
1.00516 0.998026 0.986729
1.005 0.998189 0.98686
1.00489 0.99876 0.986564
1.00464 0.99918 0.986623
1.00449 0.999167 0.986956
1.00418 0.999465 0.987193
1.00367 0.999702 0.987758
1.00407 0.999276 0.987556
1.00354 0.999625 0.988225
1.00252 0.999902 0.989821
1.00342 0.999616 0.988456
1.00242 0.999946 0.989986
1.00048 0.99994 0.993567
1.0022 1.00016 0.990192
1.00038 1.00009 0.994135
0.999201 1.00016 0.99848
1.00024 1.00033 0.994732
0.998984 1.00029 0.996689
0.998832 1.00044 0.996822
1.00481 0.998411 0.986968
1.0043 0.998922 0.98732
1.00476 0.998508 0.986967
1.00348 0.999466 0.988253
1.00417 0.999103 0.987546
1.0046 0.998818 0.986916
1.00197 1.00026 0.990223
1.00298 1.00004 0.988983
1.00366 0.999511 0.988303
0.999989 1.00065 0.993882
1.00137 1.0009 0.990866
1.00212 1.00083 0.98947
0.998962 1.0001 0.998578
0.999669 1.00088 0.99425
1.00078 1.00143 0.991639
0.999469 1.00085 0.994629
0.99902 0.999483 0.998716
0.999218 0.998765 0.998864
1.00501 0.998354 0.986674
1.00506 0.998131 0.986808
1.00505 0.998053 0.986867
1.00491 0.998881 0.986455
1.00509 0.998383 0.986517
1.00516 0.998091 0.986687
1.00487 0.998724 0.986585
1.00463 0.999215 0.986612
1.00418 0.999495 0.987238
1.00419 0.999491 0.987253
1.00367 0.999729 0.987911
1.00274 0.999907 0.989137
1.00353 0.999627 0.988221
1.00253 0.999898 0.989819
1.00056 0.999956 0.993409
1.00243 0.999931 0.989985
1.00048 0.999946 0.993565
0.999269 1.00006 0.998458
1.0004 1.0001 0.993638
0.999167 1.00015 0.99755
0.998914 1.00036 0.996753
1.00479 0.998511 0.986975
1.00441 0.998823 0.987344
1.0048 0.998402 0.986976
1.0037 0.999341 0.988149
1.00432 0.998899 0.987353
1.00474 0.998554 0.987
1.00242 0.999829 0.989794
1.0035 0.999534 0.988412
1.00415 0.99912 0.987588
1.00027 1.00029 0.993662
1.00201 1.00026 0.990167
1.00299 1.00003 0.988975
0.999045 1.00031 0.998502
0.999937 1.00068 0.993903
1.00138 1.00087 0.99074
0.998934 0.999985 0.998613
0.999594 1.00094 0.994269
0.999032 0.999338 0.998755
1.0048 0.998765 0.986699
1.00498 0.998377 0.986707
1.00507 0.998128 0.986793
1.00445 0.999225 0.987002
1.0049 0.99884 0.986485
1.00509 0.998355 0.986523
1.00462 0.999257 0.9866
1.00417 0.99953 0.987233
1.0032 0.99975 0.988427
1.00368 0.999755 0.988064
1.00271 0.999925 0.989305
1.00072 1.00002 0.99302
1.00254 0.999888 0.989817
1.00056 0.999955 0.993402
0.999336 1.00001 0.998423
1.00047 0.999958 0.993563
0.99929 1.00005 0.998449
0.999203 1.00013 0.996546
1.00453 0.998839 0.987254
1.00477 0.998431 0.987055
1.00387 0.999252 0.987915
1.00442 0.998817 0.987331
1.0048 0.998393 0.986983
1.00267 0.99973 0.989722
1.00372 0.999333 0.988142
1.00434 0.998878 0.987385
1.00049 0.999983 0.993521
1.00244 0.999876 0.989879
1.00352 0.999606 0.988572
0.999182 1.00026 0.998459
1.00024 1.0003 0.993678
1.00206 1.00025 0.990112
0.998994 1.00024 0.998525
0.999881 1.00071 0.993929
0.998906 0.999869 0.998652
1.00431 0.999162 0.987322
1.00479 0.998789 0.986718
1.00496 0.998399 0.98674
1.0034 0.999558 0.988217
1.00445 0.999234 0.986997
1.0049 0.998794 0.986516
1.00416 0.999571 0.987228
1.00314 0.999769 0.988503
1.00098 1.00002 0.99251
1.00268 0.99994 0.989473
1.00074 1.00002 0.993
0.999436 1.00001 0.998339
1.00057 0.999959 0.993396
0.999367 1.00001 0.998401
0.999318 1.00004 0.998438
1.00406 0.999199 0.987647
1.00453 0.998775 0.987224
1.00474 0.998353 0.987134
1.00285 0.999679 0.989413
1.00389 0.999254 0.987907
1.00444 0.998809 0.987317
1.00066 0.999854 0.99332
1.00266 0.999744 0.98972
1.00374 0.999324 0.988135
0.999327 1.0001 0.998419
1.00048 0.999976 0.993532
1.00245 0.999919 0.989964
0.999134 1.00024 0.99847
1.00022 1.0003 0.993692
0.998934 1.00019 0.998553
1.00331 0.999588 0.98862
1.00434 0.999136 0.987183
1.00479 0.998813 0.986736
1.00116 0.999969 0.992235
1.00339 0.999564 0.988224
1.00445 0.99924 0.986991
1.00309 0.999786 0.988579
1.001 1.00002 0.992495
0.999615 1.00001 0.998195
1.00076 1.00002 0.99298
0.999496 1 0.998289
0.9994 0.999995 0.998373
1.00309 0.999635 0.988998
1.00408 0.99917 0.987578
1.00453 0.998711 0.987195
1.00087 0.99989 0.994027
1.00285 0.99969 0.989407
1.0039 0.999256 0.987899
0.999457 0.999987 0.998349
1.00066 0.99985 0.993329
1.00265 0.999758 0.989718
0.999283 1.00012 0.998433
1.00047 0.999972 0.993544
0.999085 1.00023 0.998481
1.00118 0.999957 0.992219
1.00332 0.999553 0.988517
1.00436 0.999105 0.987044
0.999761 1 0.998089
1.00116 0.999968 0.992232
1.00338 0.999574 0.988231
1.00102 1.00001 0.992477
0.999676 1.00001 0.998149
0.999564 0.999998 0.998237
1.0011 0.999945 0.993604
1.0031 0.999631 0.988998
1.0041 0.999141 0.987509
0.999399 0.999969 0.99841
1.0008 0.999893 0.993027
1.00285 0.999697 0.9894
0.999411 1.00001 0.998376
1.00065 0.999851 0.993339
0.999241 1.00013 0.998445
0.99977 1.00001 0.995702
1.00117 0.999959 0.99285
1.00332 0.999521 0.988414
0.999772 0.999999 0.998076
1.00116 0.999966 0.992232
0.999724 1 0.998109
0.999507 0.999974 0.996054
1.00102 0.99996 0.993146
1.0031 0.999628 0.988998
0.999461 0.999969 0.997262
1.0008 0.999907 0.993007
0.999375 1.00002 0.998401
0.999774 0.999995 0.998075
1.00113 0.999959 0.992303
0.999785 0.999997 0.998067
0.999602 0.999996 0.99707
1.00098 0.999968 0.992608
0.99949 0.999985 0.998321
0.999734 0.999991 0.998111
0.999617 0.999986 0.998211

TENSORS stress float
0.00118431 4.80426e-06 6.32277e-05
4.80426e-06 0.000280997 -7.41972e-06
6.32277e-05 -7.41972e-06 0.000261209
0.0031643 -8.03649e-05 5.75271e-05
-8.03649e-05 0.00131015 3.31721e-06
5.75271e-05 3.31721e-06 0.00130642
0.00119553 3.50504e-05 2.95191e-05
3.50504e-05 0.000295202 -2.35259e-06
2.95191e-05 -2.35259e-06 0.000271109
0.0015558 -9.38224e-06 8.02173e-05
-9.38224e-06 0.00045148 -5.88647e-06
8.02173e-05 -5.88647e-06 0.0004298
0.0012742 -6.74668e-06 6.94025e-05
-6.74668e-06 0.000328964 -7.4652e-06
6.94025e-05 -7.4652e-06 0.000307901
0.00113359 2.94849e-05 5.28002e-05
2.94849e-05 0.000245115 -6.92378e-06
5.28002e-05 -6.92378e-06 0.000226964
0.00110499 -7.17047e-07 8.70134e-06
-7.17047e-07 0.000195636 -3.82343e-06
8.70134e-06 -3.82343e-06 0.000148419
0.00312797 -8.99126e-05 1.90603e-06
-8.99126e-05 0.00128848 -2.63868e-07
1.90603e-06 -2.63868e-07 0.00128448
0.00383412 -0.000167713 1.52322e-06
-0.000167713 0.00170282 2.09507e-06
1.52322e-06 2.09507e-06 0.00167931
0.00315203 -0.000123511 1.21362e-05
-0.000123511 0.00132809 1.48399e-06
1.21362e-05 1.48399e-06 0.00131472
0.0011168 -3.7349e-05 4.37685e-05
-3.7349e-05 0.000209619 4.12961e-06
4.37685e-05 4.12961e-06 0.000201454
0.000749411 1.50402e-05 7.22859e-06
1.50402e-05 5.31961e-08 4.32906e-06
7.22859e-06 4.32906e-06 -4.01005e-05
0.00174623 -8.34299e-06 9.6529e-05
-8.34299e-06 0.00053205 6.69808e-07
9.6529e-05 6.69808e-07 0.000509518
0.00132191 2.56071e-06 1.47755e-05
2.56071e-06 0.000331119 1.17432e-06
1.47755e-05 1.17432e-06 0.000306898
0.00123814 7.2427e-05 -4.27434e-06
7.2427e-05 0.000327456 2.70494e-06
-4.27434e-06 2.70494e-06 0.000298046
0.00145816 1.07505e-05 3.53446e-05
1.07505e-05 0.00040632 -2.08285e-06
3.53446e-05 -2.08285e-06 0.000382512
0.00113113 4.29824e-05 2.4428e-05
4.29824e-05 0.000249294 -2.3488e-06
2.4428e-05 -2.3488e-06 0.00022881
0.00127841 3.0737e-05 3.3936e-05
3.0737e-05 0.00034014 -2.20684e-06
3.3936e-05 -2.20684e-06 0.000314446
0.001209 -9.5516e-06 -1.25106e-05
-9.5516e-06 0.000245242 3.77365e-07
-1.25106e-05 3.77365e-07 0.000200044
0.0047529 4.58631e-07 9.633e-05
4.58631e-07 0.00212508 -9.52246e-07
9.633e-05 -9.52246e-07 0.00211964
0.00164438 -4.84404e-06 8.4344e-05
-4.84404e-06 0.000489317 -4.43062e-06
8.4344e-05 -4.43062e-06 0.000468173
0.0014082 -9.19731e-06 7.45061e-05
-9.19731e-06 0.000389188 -7.00627e-06
7.45061e-05 -7.00627e-06 0.000367443
0.00143307 -1.76928e-05 1.60949e-05
-1.76928e-05 0.000300626 -3.34944e-06
1.60949e-05 -3.34944e-06 0.000252171
0.00120568 -1.52403e-06 9.00206e-06
-1.52403e-06 0.000232588 -4.33965e-06
9.00206e-06 -4.33965e-06 0.000183462
0.00114596 4.24125e-05 4.28426e-05
4.24125e-05 0.000234558 -6.76494e-06
4.28426e-05 -6.76494e-06 0.000220701
0.00102489 6.01718e-06 8.22022e-06
6.01718e-06 0.00016265 -3.21537e-06
8.22022e-06 -3.21537e-06 0.000119178
0.00148484 -7.992e-05 3.57209e-06
-7.992e-05 0.000306996 -1.32727e-06
3.57209e-06 -1.32727e-06 0.000232681
0.00307803 -9.38505e-05 -4.64649e-05
-9.38505e-05 0.00125911 -3.17038e-06
-4.64649e-05 -3.17038e-06 0.00125541
0.00250067 -6.19226e-05 -3.12616e-05
-6.19226e-05 0.000984653 -7.11022e-07
-3.12616e-05 -7.11022e-07 0.00096461
0.00219346 -7.64204e-05 -2.26839e-05
-7.64204e-05 0.000814606 -5.71945e-07
-2.26839e-05 -5.71945e-07 0.000798914
0.00292052 -8.38259e-05 1.07991e-06
-8.38259e-05 0.00116513 -1.44981e-07
1.07991e-06 -1.44981e-07 0.00116526
0.000696276 7.04483e-06 -9.66323e-08
7.04483e-06 -2.28939e-05 -1.42524e-07
-9.66323e-08 -1.42524e-07 -6.36476e-05
0.00161775 1.96084e-05 7.58647e-05
1.96084e-05 0.000497666 4.53224e-06
7.58647e-05 4.53224e-06 0.000476252
0.00156233 4.94253e-07 6.49802e-05
4.94253e-07 0.000481527 5.11767e-06
6.49802e-05 5.11767e-06 0.000461192
0.00213821 5.96513e-05 4.08307e-05
5.96513e-05 0.000709216 4.75007e-06
4.08307e-05 4.75007e-06 0.000667768
0.00269794 -8.61737e-05 1.40287e-05
-8.61737e-05 0.00103862 1.39435e-06
1.40287e-05 1.39435e-06 0.00104148
0.0018531 2.09319e-05 3.12985e-05
2.09319e-05 0.000582206 3.65538e-06
3.12985e-05 3.65538e-06 0.000545615
0.000686659 -2.03717e-05 7.29519e-06
-2.03717e-05 -2.97012e-05 6.40998e-06
7.29519e-06 6.40998e-06 -6.63332e-05
0.000910095 5.20915e-05 3.61519e-06
5.20915e-05 5.38398e-05 7.7706e-07
3.61519e-06 7.7706e-07 -1.91052e-05
0.00251806 -6.07572e-05 3.63e-05
-6.07572e-05 0.000930207 3.41498e-06
3.63e-05 3.41498e-06 0.000940078
0.00489341 -1.40689e-05 1.87587e-06
-1.40689e-05 0.00219449 -4.37011e-07
1.87587e-06 -4.37011e-07 0.00218876
0.00295968 -4.69241e-08 -3.79378e-05
-4.69241e-08 0.00119069 -8.35993e-07
-3.79378e-05 -8.35993e-07 0.00117561
0.0051346 3.60751e-06 0.000105416
3.60751e-06 0.00231222 3.07194e-07
0.000105416 3.07194e-07 0.00230664
0.00134775 8.80237e-06 1.35221e-05
8.80237e-06 0.000340039 7.61548e-07
1.35221e-05 7.61548e-07 0.000314758
0.000798757 -5.04452e-06 1.40744e-05
-5.04452e-06 -7.04589e-05 1.89832e-06
1.40744e-05 1.89832e-06 -0.000125295
0.00432638 -4.20314e-05 2.27607e-05
-4.20314e-05 0.00192234 9.96965e-07
2.27607e-05 9.96965e-07 0.00191182
0.00231428 6.06162e-06 4.98617e-05
6.06162e-06 0.000750453 2.86844e-06
4.98617e-05 2.86844e-06 0.000711407
0.00135736 9.29338e-06 -1.44158e-05
9.29338e-06 0.000358766 1.949e-06
-1.44158e-05 1.949e-06 0.000333436
0.00131319 7.32238e-05 -2.58403e-06
7.32238e-05 0.000369144 2.91266e-06
-2.58403e-06 2.91266e-06 0.000337914
0.00113172 6.56837e-05 -6.67494e-06
6.56837e-05 0.000255923 2.22502e-06
-6.67494e-06 2.22502e-06 0.000232021
0.00127256 -2.16933e-05 -3.37326e-05
-2.16933e-05 0.000272864 4.54226e-06
-3.37326e-05 4.54226e-06 0.000230242
0.00315772 4.14772e-05 -3.90078e-05
4.14772e-05 0.00128699 -1.00566e-06
-3.90078e-05 -1.00566e-06 0.00126899
0.00149438 5.7438e-06 3.53015e-05
5.7438e-06 0.000415729 -1.4924e-06
3.53015e-05 -1.4924e-06 0.000392801
0.0010988 4.99316e-05 1.83131e-05
4.99316e-05 0.000212681 -2.33946e-06
1.83131e-05 -2.33946e-06 0.000197879
0.00136858 2.3991e-05 3.57798e-05
2.3991e-05 0.000376644 -2.22332e-06
3.57798e-05 -2.22332e-06 0.000351323
0.00148855 -2.69062e-05 -1.27889e-05
-2.69062e-05 0.000327103 1.96136e-07
-1.27889e-05 1.96136e-07 0.000280332
0.00111596 3.00953e-06 -9.65282e-06
3.00953e-06 0.000206518 3.55306e-07
-9.65282e-06 3.55306e-07 0.000164452
0.0013022 -1.49344e-05 -1.40486e-05
-1.49344e-05 0.000277727 3.04494e-07
-1.40486e-05 3.04494e-07 0.000231158
0.00160625 -8.49289e-05 -2.07715e-06
-8.49289e-05 0.000366405 7.34249e-07
-2.07715e-06 7.34249e-07 0.0002911
0.0049197 3.54524e-05 9.53911e-05
3.54524e-05 0.00220776 1.40582e-07
9.53911e-05 1.40582e-07 0.00220156
0.00163852 3.64003e-06 8.68208e-05
3.64003e-06 0.000484285 -3.15639e-06
8.68208e-05 -3.15639e-06 0.000462923
0.00224163 3.88373e-05 1.20086e-05
3.88373e-05 0.000704571 -9.8447e-07
1.20086e-05 -9.8447e-07 0.000658298
0.00148488 -1.88668e-05 1.82731e-05
-1.88668e-05 0.000315301 -2.34878e-06
1.82731e-05 -2.34878e-06 0.000268001
0.00131807 -6.17439e-06 1.16154e-05
-6.17439e-06 0.000266918 -4.2231e-06
1.16154e-05 -4.2231e-06 0.000217537
0.00192479 -7.23158e-05 5.94704e-06
-7.23158e-05 0.000412776 -1.88874e-06
5.94704e-06 -1.88874e-06 0.000332
0.00121965 -7.23876e-05 5.30643e-06
-7.23876e-05 0.000128037 -2.53239e-06
5.30643e-06 -2.53239e-06 5.00899e-05
0.00122652 4.42525e-05 3.96609e-05
4.42525e-05 0.000255577 -6.56375e-06
3.96609e-05 -6.56375e-06 0.000248464
0.000988509 3.12366e-05 6.45894e-06
3.12366e-05 0.000146668 -2.86499e-06
6.45894e-06 -2.86499e-06 0.000109791
0.001314 -6.72035e-05 2.65291e-06
-6.72035e-05 0.000254502 -8.91585e-07
2.65291e-06 -8.91585e-07 0.000183228
0.00112222 -8.86901e-05 2.43138e-06
-8.86901e-05 6.20008e-05 -6.67638e-07
2.43138e-06 -6.67638e-07 -3.27258e-05
0.00375697 -9.47225e-05 -5.87769e-05
-9.47225e-05 0.00164911 -3.74608e-06
-5.87769e-05 -3.74608e-06 0.00163569
0.00290626 -8.50053e-05 -4.24396e-05
-8.50053e-05 0.00115421 -3.19664e-06
-4.24396e-05 -3.19664e-06 0.0011554
0.00321749 -9.91531e-05 -5.13289e-05
-9.91531e-05 0.00135061 -3.03031e-06
-5.13289e-05 -3.03031e-06 0.00134257
0.000648841 7.24366e-06 -6.14807e-06
7.24366e-06 -4.39836e-05 -4.94945e-06
-6.14807e-06 -4.94945e-06 -8.45847e-05
0.0043467 -4.32511e-05 -2.81467e-06
-4.32511e-05 0.00193848 -1.63944e-07
-2.81467e-06 -1.63944e-07 0.00192918
0.00364083 -8.92902e-05 2.16492e-06
-8.92902e-05 0.00158704 -1.95172e-07
2.16492e-06 -1.95172e-07 0.00157523
0.000640868 6.04819e-05 -4.17025e-07
6.04819e-05 -7.40253e-05 -1.43256e-07
-4.17025e-07 -1.43256e-07 -0.000123698
0.00187822 -6.20738e-05 -1.64223e-05
-6.20738e-05 0.000602964 -7.57432e-07
-1.64223e-05 -7.57432e-07 0.000602708
0.000670212 3.00552e-05 -2.40309e-07
3.00552e-05 -3.66433e-05 -8.12762e-08
-2.40309e-07 -8.12762e-08 -8.08263e-05
0.00115482 -2.7802e-05 9.01861e-06
-2.7802e-05 0.000218682 4.8109e-07
9.01861e-06 4.8109e-07 0.000186383
0.000866222 5.15439e-05 1.52212e-07
5.15439e-05 2.98536e-05 -2.25148e-07
1.52212e-07 -2.25148e-07 -4.24411e-05
0.00263858 -6.73426e-05 3.96279e-05
-6.73426e-05 0.000998912 3.38405e-06
3.96279e-05 3.38405e-06 0.0010064
0.000734192 -4.77589e-05 2.14574e-06
-4.77589e-05 -1.89842e-05 4.20017e-06
2.14574e-06 4.20017e-06 -3.81065e-05
0.000784113 5.54426e-05 1.37255e-05
5.54426e-05 -2.60252e-05 5.8468e-06
1.37255e-05 5.8468e-06 -7.69222e-05
0.00079478 5.17977e-05 1.17833e-05
5.17977e-05 1.72231e-05 6.92198e-06
1.17833e-05 6.92198e-06 -3.10032e-05
0.00104298 7.21458e-05 5.84475e-06
7.21458e-05 2.62118e-05 2.3099e-06
5.84475e-06 2.3099e-06 -5.53036e-05
0.00156193 -5.28806e-05 1.95066e-05
-5.28806e-05 0.000431676 3.66071e-06
1.95066e-05 3.66071e-06 0.000407581
0.000957544 6.72542e-05 3.8409e-06
6.72542e-05 5.79901e-05 1.23559e-06
3.8409e-06 1.23559e-06 -1.55103e-05
0.000888446 3.64005e-05 3.4957e-06
3.64005e-05 5.5976e-05 1.64886e-06
3.4957e-06 1.64886e-06 -1.55244e-05
0.00089143 8.08471e-05 2.04542e-06
8.08471e-05 1.42106e-05 -5.44856e-07
2.04542e-06 -5.44856e-07 -7.39178e-05
0.00236022 -5.42973e-05 3.1883e-05
-5.42973e-05 0.000840672 3.48721e-06
3.1883e-05 3.48721e-06 0.000853068
0.00247181 -6.09211e-05 6.97523e-07
-6.09211e-05 0.000905659 -9.57268e-08
6.97523e-07 -9.57268e-08 0.000915794
0.0045202 2.46715e-06 -8.84125e-05
2.46715e-06 0.00201293 -2.58639e-06
-8.84125e-05 -2.58639e-06 0.00200726
0.0047905 -1.73275e-05 -9.30546e-05
-1.73275e-05 0.00214428 -9.50807e-07
-9.30546e-05 -9.50807e-07 0.00213851
0.0050849 7.4509e-06 3.55268e-06
7.4509e-06 0.00228943 -5.19699e-07
3.55268e-06 -5.19699e-07 0.00228303
0.00303524 -9.3558e-06 -3.84557e-05
-9.3558e-06 0.00122584 -5.32713e-07
-3.84557e-05 -5.32713e-07 0.00120997
0.00161152 7.06453e-06 2.18054e-05
7.06453e-06 0.00036071 1.71933e-07
2.18054e-05 1.71933e-07 0.000311941
0.00285052 -1.8405e-05 -3.863e-05
-1.8405e-05 0.00114278 -9.05507e-07
-3.863e-05 -9.05507e-07 0.00112667
0.00151285 2.30646e-05 1.92338e-05
2.30646e-05 0.000331753 3.29568e-07
1.92338e-05 3.29568e-07 0.000287271
0.00514306 7.25027e-05 9.80297e-05
7.25027e-05 0.00231963 1.29044e-06
9.80297e-05 1.29044e-06 0.00231178
0.000779396 -8.33119e-07 1.26811e-05
-8.33119e-07 -9.31947e-05 2.99519e-07
1.26811e-05 2.99519e-07 -0.00015033
0.00235658 -1.65219e-05 5.20888e-05
-1.65219e-05 0.000764309 1.9558e-06
5.20888e-05 1.9558e-06 0.000723544
0.00124951 1.46493e-05 7.56987e-06
1.46493e-05 1.06534e-05 1.55609e-06
7.56987e-06 1.55609e-06 -7.78297e-05
0.00222953 4.71677e-05 4.68985e-05
4.71677e-05 0.000720118 3.31368e-06
4.68985e-05 3.31368e-06 0.000680227
0.00119466 4.31958e-05 7.51146e-06
4.31958e-05 1.56752e-05 1.38955e-06
7.51146e-06 1.38955e-06 -6.90777e-05
0.00170399 1.75108e-05 -9.34329e-05
1.75108e-05 0.000512993 3.50375e-07
-9.34329e-05 3.50375e-07 0.000491021
0.00132849 -3.21367e-06 -1.59723e-05
-3.21367e-06 0.00033379 1.44112e-06
-1.59723e-05 1.44112e-06 0.000309192
0.000998697 5.84521e-05 -7.89328e-06
5.84521e-05 0.000163413 1.84144e-06
-7.89328e-06 1.84144e-06 0.000147476
0.00135182 3.15269e-05 -9.80988e-06
3.15269e-05 0.000372553 2.36508e-06
-9.80988e-06 2.36508e-06 0.000345961
0.0015494 -2.5222e-05 -4.38872e-05
-2.5222e-05 0.00035681 3.87115e-06
-4.38872e-05 3.87115e-06 0.00031138
0.00136014 -2.98343e-05 -3.75313e-05
-2.98343e-05 0.000301539 4.75748e-06
-3.75313e-05 4.75748e-06 0.000258111
0.00119827 -5.09124e-06 -2.90819e-05
-5.09124e-06 0.000245235 3.98337e-06
-2.90819e-05 3.98337e-06 0.000205134
0.00175798 -9.04262e-05 -8.32504e-06
-9.04262e-05 0.000441565 3.05602e-06
-8.32504e-06 3.05602e-06 0.000365208
0.00501946 1.52027e-05 -3.12973e-06
1.52027e-05 0.00225637 -4.61678e-07
-3.12973e-06 -4.61678e-07 0.00225047
0.00148594 4.86669e-06 3.64821e-05
4.86669e-06 0.000409027 -8.77468e-07
3.64821e-05 -8.77468e-07 0.000385957
0.00115643 8.56745e-06 -2.35407e-05
8.56745e-06 0.00012589 3.0649e-07
-2.35407e-05 3.0649e-07 7.55077e-05
0.0015187 -2.16309e-05 -1.31809e-05
-2.16309e-05 0.000330927 2.03242e-07
-1.31809e-05 2.03242e-07 0.000284876
0.00201291 6.27421e-05 3.11109e-05
6.27421e-05 0.000676276 -1.57309e-06
3.11109e-05 -1.57309e-06 0.000673653
0.00129255 2.97336e-05 -6.19606e-06
2.97336e-05 0.00030293 3.28737e-07
-6.19606e-06 3.28737e-07 0.000267004
0.00140024 -2.50105e-05 -1.29977e-05
-2.50105e-05 0.000304606 2.65423e-07
-1.29977e-05 2.65423e-07 0.000258201
0.00174518 -6.72078e-05 -4.13443e-06
-6.72078e-05 0.000318182 6.7443e-07
-4.13443e-06 6.7443e-07 0.0002363
0.00148141 -7.58301e-05 -1.67244e-06
-7.58301e-05 0.000338089 7.28684e-07
-1.67244e-06 7.28684e-07 0.000265423
0.00148414 -7.93571e-05 -9.62715e-07
-7.93571e-05 0.000265102 1.06693e-07
-9.62715e-07 1.06693e-07 0.00018767
0.00113029 -8.84046e-05 -3.47928e-08
-8.84046e-05 6.58559e-05 4.74803e-08
-3.47928e-08 4.74803e-08 -2.87085e-05
0.000749814 2.73348e-06 1.24254e-05
2.73348e-06 -0.0001003 -1.59872e-06
1.24254e-05 -1.59872e-06 -0.000156309
0.00147106 -1.25741e-05 1.78234e-05
-1.25741e-05 0.000305311 -1.83573e-06
1.78234e-05 -1.83573e-06 0.000258203
0.00161287 -2.80967e-06 6.96582e-06
-2.80967e-06 0.000210936 -1.28692e-06
6.96582e-06 -1.28692e-06 0.000127223
0.00156894 -4.93966e-05 7.19912e-06
-4.93966e-05 0.000207738 -1.18489e-06
7.19912e-06 -1.18489e-06 0.000126417
0.00143808 -7.32287e-05 6.52805e-06
-7.32287e-05 0.000194168 -2.77681e-06
6.52805e-06 -2.77681e-06 0.000112757
0.00182188 -8.15376e-05 2.10694e-06
-8.15376e-05 0.000278251 -5.65995e-07
2.10694e-06 -5.65995e-07 0.000179407
0.00281815 7.6136e-05 4.07763e-05
7.6136e-05 0.00109324 -3.13225e-06
4.07763e-05 -3.13225e-06 0.00109881
0.0011507 -8.50726e-05 2.46393e-06
-8.50726e-05 3.31036e-05 -1.00015e-06
2.46393e-06 -1.00015e-06 -6.25776e-05
0.000691318 6.26337e-05 2.06433e-06
6.26337e-05 -2.21246e-05 -4.40498e-06
2.06433e-06 -4.40498e-06 -5.81356e-05
0.000709028 -4.45324e-05 2.53608e-06
-4.45324e-05 -3.66932e-05 -1.00526e-06
2.53608e-06 -1.00526e-06 -0.000106342
0.00121604 -9.59372e-05 2.32864e-06
-9.59372e-05 0.000154178 -8.38106e-07
2.32864e-06 -8.38106e-07 5.93964e-05
0.0012446 -9.92326e-05 1.06988e-06
-9.92326e-05 8.81309e-05 -9.94818e-08
1.06988e-06 -9.94818e-08 -1.48209e-05
0.000649353 5.03558e-05 2.91944e-06
5.03558e-05 -6.15494e-05 -4.32848e-06
2.91944e-06 -4.32848e-06 -8.56123e-05
0.000827782 2.86257e-05 1.07272e-06
2.86257e-05 1.26428e-05 -2.43398e-06
1.07272e-06 -2.43398e-06 -3.95391e-05
0.00412879 -4.22438e-05 -7.34526e-05
-4.22438e-05 0.00182727 -3.40287e-06
-7.34526e-05 -3.40287e-06 0.00181883
0.00340461 -9.93661e-05 -5.4698e-05
-9.93661e-05 0.001463 -3.23636e-06
-5.4698e-05 -3.23636e-06 0.00145168
0.000585748 5.33619e-05 -9.60357e-06
5.33619e-05 -0.000100765 -5.43936e-06
-9.60357e-06 -5.43936e-06 -0.000150257
0.0027656 -7.60091e-05 -4.00512e-05
-7.60091e-05 0.00107101 -3.16839e-06
-4.00512e-05 -3.16839e-06 0.0010761
0.000624425 -4.56534e-05 -1.85497e-06
-4.56534e-05 -5.60238e-05 -5.14608e-06
-1.85497e-06 -5.14608e-06 -9.26335e-05
0.000607203 2.64903e-05 -7.32989e-06
2.64903e-05 -6.40327e-05 -4.70619e-06
-7.32989e-06 -4.70619e-06 -0.000108804
0.000835155 5.07721e-05 -3.52794e-06
5.07721e-05 1.26877e-05 -1.20083e-06
-3.52794e-06 -1.20083e-06 -5.92437e-05
0.00262909 -6.779e-05 6.21162e-07
-6.779e-05 0.00099386 -1.20791e-07
6.21162e-07 -1.20791e-07 0.0010015
0.000709171 -4.50034e-05 1.36702e-07
-4.50034e-05 -3.34116e-05 6.65528e-08
1.36702e-07 6.65528e-08 -5.17874e-05
0.00139434 5.62803e-05 1.67376e-05
5.62803e-05 0.000298178 1.86593e-07
1.67376e-05 1.86593e-07 0.000252511
0.00123622 4.28573e-05 1.38569e-05
4.28573e-05 0.000255727 2.49005e-07
1.38569e-05 2.49005e-07 0.000212338
0.00102364 7.21533e-05 3.60739e-07
7.21533e-05 1.70781e-05 -6.98042e-08
3.60739e-07 -6.98042e-08 -6.43106e-05
0.000703113 -5.8016e-05 -1.59888e-09
-5.8016e-05 -2.11344e-05 8.26167e-08
-1.59888e-09 8.26167e-08 -5.11562e-05
0.000903877 6.42893e-05 7.00416e-08
6.42893e-05 3.02889e-05 2.77342e-07
7.00416e-08 2.77342e-07 -4.2833e-05
0.000844606 3.06616e-05 2.37575e-07
3.06616e-05 3.36178e-05 -2.79786e-07
2.37575e-07 -2.79786e-07 -3.77695e-05
0.000848927 7.90051e-05 -6.89279e-08
7.90051e-05 -8.70572e-06 -1.70687e-07
-6.89279e-08 -1.70687e-07 -9.70708e-05
0.000704169 -5.44392e-05 1.89825e-06
-5.44392e-05 -2.63924e-05 4.39683e-06
1.89825e-06 4.39683e-06 -5.10675e-05
0.000762529 -4.00051e-05 2.65158e-06
-4.00051e-05 -1.41141e-05 3.87669e-06
2.65158e-06 3.87669e-06 -2.78466e-05
0.000774274 -5.91092e-06 2.51668e-06
-5.91092e-06 -1.04262e-05 2.34876e-06
2.51668e-06 2.34876e-06 -6.15576e-05
0.00109011 6.49267e-05 6.68822e-06
6.49267e-05 7.57129e-06 2.10332e-06
6.68822e-06 2.10332e-06 -7.61495e-05
0.00100515 7.32632e-05 4.71196e-06
7.32632e-05 5.21626e-05 2.07668e-06
4.71196e-06 2.07668e-06 -2.51888e-05
0.00122885 9.15666e-05 3.24785e-06
9.15666e-05 6.48514e-05 1.15615e-06
3.24785e-06 1.15615e-06 -3.45449e-05
0.00086063 2.13708e-05 2.89728e-06
2.13708e-05 3.98669e-05 2.06059e-06
2.89728e-06 2.06059e-06 -2.62704e-05
0.000930717 8.39551e-05 1.63978e-06
8.39551e-05 6.56649e-06 -1.09457e-07
1.63978e-06 -1.09457e-07 -8.17072e-05
0.00105403 8.34646e-05 2.21288e-06
8.34646e-05 0.000122933 1.40309e-07
2.21288e-06 1.40309e-07 3.33102e-05
0.00105951 9.61561e-05 -1.87005e-07
9.61561e-05 9.29037e-05 -1.41774e-06
-1.87005e-07 -1.41774e-06 -3.48032e-06
0.00224602 -4.83306e-05 2.79989e-05
-4.83306e-05 0.000772672 3.54468e-06
2.79989e-05 3.54468e-06 0.000787476
0.00232698 -5.44977e-05 6.11724e-07
-5.44977e-05 0.000822311 -7.82583e-08
6.11724e-07 -7.82583e-08 0.000835
0.00242883 -6.10164e-05 -3.211e-05
-6.10164e-05 0.000882604 -3.29567e-06
-3.211e-05 -3.29567e-06 0.000893041
0.000691552 4.14236e-05 3.06439e-06
4.14236e-05 -4.74239e-05 -3.92062e-06
3.06439e-06 -3.92062e-06 -6.58328e-05
0.00267843 6.86151e-05 3.72541e-05
6.86151e-05 0.00101476 -3.23793e-06
3.72541e-05 -3.23793e-06 0.00102286
0.00437423 -1.0391e-05 -8.31877e-05
-1.0391e-05 0.00194399 -3.11039e-06
-8.31877e-05 -3.11039e-06 0.00193751
0.00462485 7.24555e-06 -9.10499e-05
7.24555e-06 0.00206315 -1.87265e-06
-9.10499e-05 -1.87265e-06 0.0020576
0.000703273 2.99393e-05 -1.16922e-05
2.99393e-05 -9.40588e-05 -2.74056e-06
-1.16922e-05 -2.74056e-06 -0.000143323
0.000733958 1.79138e-05 -1.2248e-05
1.79138e-05 -9.84775e-05 -1.54712e-06
-1.2248e-05 -1.54712e-06 -0.000152752
0.00501401 -2.29525e-05 -9.63081e-05
-2.29525e-05 0.00225388 -1.55903e-07
-9.63081e-05 -1.55903e-07 0.00224791
0.0051475 1.32257e-05 -1.17819e-06
1.32257e-05 0.00231914 4.62349e-07
-1.17819e-06 4.62349e-07 0.00231315
0.000765531 9.67418e-07 -6.30603e-08
9.67418e-07 -9.91677e-05 -3.25517e-07
-6.30603e-08 -3.25517e-07 -0.000156267
0.00156624 6.4425e-06 2.04977e-05
6.4425e-06 0.000350966 3.42322e-07
2.04977e-05 3.42322e-07 0.000305201
0.00124116 1.8287e-05 1.509e-07
1.8287e-05 7.02639e-06 8.67776e-08
1.509e-07 8.67776e-08 -8.15006e-05
0.000664801 4.06116e-05 4.77163e-08
4.06116e-05 -0.000101955 -7.24658e-08
4.77163e-08 -7.24658e-08 -0.00015109
0.00119229 4.4852e-05 2.64546e-08
4.4852e-05 1.52211e-05 -1.74127e-07
2.64546e-08 -1.74127e-07 -6.97566e-05
0.000751567 -6.02469e-06 1.28058e-05
-6.02469e-06 -0.000111052 -8.99098e-07
1.28058e-05 -8.99098e-07 -0.000169037
0.00129316 7.03075e-06 7.90957e-06
7.03075e-06 1.03808e-05 6.26948e-07
7.90957e-06 6.26948e-07 -8.24846e-05
0.00122293 2.86929e-05 7.48315e-06
2.86929e-05 1.61749e-05 1.34105e-06
7.48315e-06 1.34105e-06 -6.91852e-05
0.00149844 1.72797e-05 3.19579e-06
1.72797e-05 6.09829e-05 1.27141e-06
3.19579e-06 1.27141e-06 -4.14921e-05
0.00114761 5.45666e-05 7.20907e-06
5.45666e-05 8.65429e-06 1.84378e-06
7.20907e-06 1.84378e-06 -7.58657e-05
0.00143221 4.95979e-05 3.18639e-06
4.95979e-05 6.22469e-05 1.91555e-07
3.18639e-06 1.91555e-07 -3.57906e-05
0.00507061 2.00955e-05 -0.000106357
2.00955e-05 0.00228101 -7.62103e-07
-0.000106357 -7.62103e-07 0.0022752
0.00131281 -9.30101e-06 -1.42556e-05
-9.30101e-06 0.000323037 1.00593e-06
-1.42556e-05 1.00593e-06 0.000298268
2.20925e-05 5.1358e-07 -1.26835e-05
5.1358e-07 -0.000474432 2.36585e-06
-1.26835e-05 2.36585e-06 -0.000532884
0.00157408 -1.53193e-05 -4.56116e-05
-1.53193e-05 0.000357939 2.68971e-06
-4.56116e-05 2.68971e-06 0.000312985
0.00273872 9.34491e-05 -1.46752e-05
9.34491e-05 0.00106723 1.29208e-06
-1.46752e-05 1.29208e-06 0.00106688
0.00163303 1.68291e-05 -2.33062e-05
1.68291e-05 0.00047446 3.78274e-06
-2.33062e-05 3.78274e-06 0.00044222
0.00146375 -3.05757e-05 -4.08653e-05
-3.05757e-05 0.000334177 4.59453e-06
-4.08653e-05 4.59453e-06 0.000289632
0.0015622 -6.23633e-05 -1.31287e-05
-6.23633e-05 0.000221781 3.08264e-06
-1.31287e-05 3.08264e-06 0.000138823
0.00176825 -8.71764e-05 -8.32359e-06
-8.71764e-05 0.000412727 2.91945e-06
-8.32359e-06 2.91945e-06 0.000335689
0.0016597 -8.40532e-05 -6.8431e-06
-8.40532e-05 0.000427535 2.55928e-06
-6.8431e-06 2.55928e-06 0.000353448
0.00114031 -8.8238e-05 -1.98147e-06
-8.8238e-05 7.07273e-05 6.31812e-07
-1.98147e-06 6.31812e-07 -2.36901e-05
0.000761548 4.55226e-06 -5.54556e-08
4.55226e-06 -9.57397e-05 -2.23274e-07
-5.54556e-08 -2.23274e-07 -0.000151771
0.00151907 -1.03079e-05 -1.42809e-05
-1.03079e-05 0.000328089 9.50545e-08
-1.42809e-05 9.50545e-08 0.000282174
0.00124045 -3.02901e-06 -2.63227e-06
-3.02901e-06 1.56981e-05 7.15823e-08
-2.63227e-06 7.15823e-08 -7.02472e-05
0.00178468 -5.13468e-05 -2.11884e-06
-5.13468e-05 0.000320991 2.63075e-07
-2.11884e-06 2.63075e-07 0.000240623
0.00277959 7.51822e-05 -5.88906e-07
7.51822e-05 0.00107449 -1.36996e-07
-5.88906e-07 -1.36996e-07 0.00107978
0.00112612 4.11751e-05 1.62589e-06
4.11751e-05 0.000203126 1.7883e-07
1.62589e-06 1.7883e-07 0.000172228
0.00109676 -4.55912e-05 1.10405e-07
-4.55912e-05 0.000163667 -8.25179e-08
1.10405e-07 -8.25179e-08 9.39558e-05
0.00144401 -7.25595e-05 -1.8296e-06
-7.25595e-05 0.000198735 2.13196e-07
-1.8296e-06 2.13196e-07 0.000117332
0.00150998 -7.4785e-05 -1.67499e-06
-7.4785e-05 0.000113885 4.70645e-07
-1.67499e-06 4.70645e-07 1.37725e-05
0.00100678 -8.73332e-05 -3.08752e-07
-8.73332e-05 4.758e-05 -1.39335e-07
-3.08752e-07 -1.39335e-07 -4.69102e-05
0.00140029 -9.11085e-05 6.94047e-08
-9.11085e-05 0.000160412 2.30482e-08
6.94047e-08 2.30482e-08 6.521e-05
0.00123408 -9.83529e-05 1.09e-07
-9.83529e-05 8.27928e-05 1.16548e-07
1.09e-07 1.16548e-07 -1.99458e-05
0.000667663 5.28921e-05 -1.95568e-07
5.28921e-05 -4.98838e-05 3.81163e-08
-1.95568e-07 3.81163e-08 -7.47441e-05
0.000802705 2.64799e-05 -3.01598e-07
2.64799e-05 -9.54948e-07 1.06487e-07
-3.01598e-07 1.06487e-07 -5.30201e-05
0.00126666 -2.03018e-06 7.39506e-06
-2.03018e-06 3.20734e-06 -1.65001e-06
7.39506e-06 -1.65001e-06 -8.81632e-05
0.00155632 -2.02434e-05 6.91638e-06
-2.02434e-05 0.000196834 -1.07141e-06
6.91638e-06 -1.07141e-06 0.000116711
0.00185695 -7.0678e-06 2.19142e-06
-7.0678e-06 0.000260775 -5.17063e-07
2.19142e-06 -5.17063e-07 0.000163307
0.00127157 -5.04413e-05 4.04585e-06
-5.04413e-05 -3.57717e-05 -3.96527e-07
4.04585e-06 -3.96527e-07 -0.000134659
0.0014457 -8.8162e-05 2.45733e-06
-8.8162e-05 0.00013434 -1.08848e-06
2.45733e-06 -1.08848e-06 3.66287e-05
0.00177023 -8.01292e-05 1.59337e-07
-8.01292e-05 0.000201393 1.59302e-07
1.59337e-07 1.59302e-07 9.90581e-05
0.000593809 5.73724e-05 2.03781e-06
5.73724e-05 -8.17101e-05 -4.56908e-06
2.03781e-06 -4.56908e-06 -0.0001118
0.00132109 -9.55992e-05 6.6318e-07
-9.55992e-05 7.41706e-05 -6.49041e-07
6.6318e-07 -6.49041e-07 -2.90184e-05
0.000724645 -1.53866e-05 2.02431e-06
-1.53866e-05 -2.62027e-05 -1.00884e-06
2.02431e-06 -1.00884e-06 -9.43314e-05
0.000654415 -7.06714e-05 1.82872e-06
-7.06714e-05 -9.4754e-05 -1.23956e-06
1.82872e-06 -1.23956e-06 -0.000184559
0.00165786 -0.000121917 6.40297e-07
-0.000121917 0.000352925 2.53644e-08
6.40297e-07 2.53644e-08 0.000247821
0.00148282 -0.000110366 -5.45777e-07
-0.000110366 0.000181064 9.41127e-07
-5.45777e-07 9.41127e-07 7.59172e-05
0.000864409 2.6535e-06 1.90184e-06
2.6535e-06 3.61061e-05 -2.2653e-06
1.90184e-06 -2.2653e-06 -2.47163e-05
0.00081727 3.47423e-05 8.8677e-07
3.47423e-05 3.52286e-06 -1.94115e-06
8.8677e-07 -1.94115e-06 -4.09176e-05
0.00088679 -2.77512e-05 6.32982e-07
-2.77512e-05 4.18289e-05 -8.13472e-07
6.32982e-07 -8.13472e-07 -3.44439e-05
0.000623735 5.28293e-05 -1.05931e-05
5.28293e-05 -0.000104468 -4.83968e-06
-1.05931e-05 -4.83968e-06 -0.000154643
0.00260101 -6.80972e-05 -3.63946e-05
-6.80972e-05 0.000979056 -3.21646e-06
-3.63946e-05 -3.21646e-06 0.000986897
0.000689907 -4.20323e-05 -3.15381e-06
-4.20323e-05 -4.46174e-05 -3.93014e-06
-3.15381e-06 -3.93014e-06 -6.22878e-05
0.000578459 3.97661e-05 -7.8889e-06
3.97661e-05 -8.49882e-05 -5.17225e-06
-7.8889e-06 -5.17225e-06 -0.000132534
0.00100007 7.2114e-05 -5.61899e-06
7.2114e-05 5.98556e-06 -2.57721e-06
-5.61899e-06 -2.57721e-06 -7.53079e-05
0.000591081 -5.67155e-05 -2.00216e-06
-5.67155e-05 -7.95653e-05 -4.75055e-06
-2.00216e-06 -4.75055e-06 -0.000109649
0.00076286 2.57093e-05 -2.35108e-06
2.57093e-05 -8.89052e-06 -1.92047e-06
-2.35108e-06 -1.92047e-06 -7.97546e-05
0.000862298 6.13478e-05 -3.62468e-06
6.13478e-05 8.90066e-06 -7.52306e-07
-3.62468e-06 -7.52306e-07 -6.38586e-05
0.000801443 7.69856e-05 -2.50631e-06
7.69856e-05 -3.43116e-05 2.07171e-07
-2.50631e-06 2.07171e-07 -0.000122883
0.00067166 -5.25827e-05 1.75307e-07
-5.25827e-05 -4.47132e-05 6.30174e-08
1.75307e-07 6.30174e-08 -6.87693e-05
0.000739715 -3.7984e-05 1.38547e-08
-3.7984e-05 -2.62336e-05 7.8945e-08
1.38547e-08 7.8945e-08 -3.95682e-05
0.000802666 -2.69912e-05 1.2173e-07
-2.69912e-05 2.73622e-06 1.25097e-07
1.2173e-07 1.25097e-07 -4.71495e-05
0.00109845 6.60901e-05 3.48279e-07
6.60901e-05 1.26411e-05 -1.5552e-07
3.48279e-07 -1.5552e-07 -7.11699e-05
0.000951085 7.10203e-05 2.49202e-07
7.10203e-05 2.53177e-05 1.95887e-07
2.49202e-07 1.95887e-07 -5.16858e-05
0.00121631 9.17506e-05 2.13409e-07
9.17506e-05 5.90787e-05 6.63318e-08
2.13409e-07 6.63318e-08 -4.04087e-05
0.000830506 1.83143e-05 -2.89761e-07
1.83143e-05 2.66096e-05 -3.35411e-10
-2.89761e-07 -3.35411e-10 -3.97113e-05
0.0010492 8.89563e-05 -9.21362e-08
8.89563e-05 6.87232e-05 -9.94292e-08
-9.21362e-08 -9.94292e-08 -1.94509e-05
0.00101534 8.18236e-05 2.30602e-07
8.18236e-05 0.000102925 -3.13686e-07
2.30602e-07 -3.13686e-07 1.34066e-05
0.000943647 9.18815e-05 -6.46045e-07
9.18815e-05 3.30286e-05 3.48806e-07
-6.46045e-07 3.48806e-07 -6.37126e-05
0.000776727 -3.39675e-05 2.7752e-06
-3.39675e-05 -1.5296e-05 3.57333e-06
2.7752e-06 3.57333e-06 -2.50309e-05
0.000797067 -1.88094e-06 2.83025e-06
-1.88094e-06 8.18628e-07 1.89097e-06
2.83025e-06 1.89097e-06 -5.72165e-05
0.000784907 -2.87629e-05 1.23956e-06
-2.87629e-05 -9.73861e-06 2.41654e-06
1.23956e-06 2.41654e-06 -5.20587e-05
0.0009025 1.97186e-05 1.11313e-06
1.97186e-05 5.29009e-05 9.58403e-07
1.11313e-06 9.58403e-07 -1.92023e-05
0.00130242 7.98818e-05 4.07563e-06
7.98818e-05 4.98956e-05 7.20533e-07
4.07563e-06 7.20533e-07 -5.03226e-05
0.00115371 9.43277e-05 2.43797e-06
9.43277e-05 8.45078e-05 1.15615e-06
2.43797e-06 1.15615e-06 -9.47353e-06
0.00131785 0.00010021 1.48696e-06
0.00010021 7.25443e-05 1.09205e-06
1.48696e-06 1.09205e-06 -3.50371e-05
0.00105793 5.71154e-05 2.02338e-06
5.71154e-05 0.000132047 9.96529e-07
2.02338e-06 9.96529e-07 4.7968e-05
0.00115259 9.97953e-05 3.70138e-07
9.97953e-05 0.000101776 -4.16109e-07
3.70138e-07 -4.16109e-07 6.80392e-06
0.00104613 9.53851e-05 1.12213e-06
9.53851e-05 0.000120726 -1.07281e-06
1.12213e-06 -1.07281e-06 1.72865e-05
0.000785763 8.69159e-05 7.05741e-07
8.69159e-05 -6.55223e-05 -1.30648e-06
7.05741e-07 -1.30648e-06 -0.000165669
0.000843404 -1.59295e-05 9.55697e-07
-1.59295e-05 4.21084e-06 1.78248e-06
9.55697e-07 1.78248e-06 -2.43202e-05
0.000784474 -2.5888e-05 1.92896e-06
-2.5888e-05 -2.39545e-05 3.4516e-06
1.92896e-06 3.4516e-06 -2.87705e-05
0.00218629 -4.28044e-05 2.47144e-05
-4.28044e-05 0.0007333 3.65132e-06
2.47144e-05 3.65132e-06 0.000750142
0.00223508 -4.85298e-05 7.71453e-07
-4.85298e-05 0.0007658 -7.68342e-08
7.71453e-07 -7.68342e-08 0.000780836
0.00229846 -5.44211e-05 -2.88012e-05
-5.44211e-05 0.000806373 -3.39595e-06
-2.88012e-05 -3.39595e-06 0.000819395
0.000719312 3.58648e-05 2.99893e-06
3.58648e-05 -4.06867e-05 -3.53663e-06
2.99893e-06 -3.53663e-06 -5.45409e-05
0.002508 6.18871e-05 3.26644e-05
6.18871e-05 0.000919996 -3.31907e-06
3.26644e-05 -3.31907e-06 0.00093051
0.000710763 4.49855e-05 -2.34152e-07
4.49855e-05 -3.60724e-05 4.16673e-08
-2.34152e-07 4.16673e-08 -5.52645e-05
0.00269198 6.81346e-05 -5.34373e-07
6.81346e-05 0.00102206 -1.16221e-07
-5.34373e-07 -1.16221e-07 0.00102998
0.000661368 4.4125e-05 -1.12493e-05
4.4125e-05 -0.000103849 -3.77888e-06
-1.12493e-05 -3.77888e-06 -0.000153248
0.000739193 2.71902e-05 -1.19968e-05
2.71902e-05 -8.36332e-05 -1.97547e-06
-1.19968e-05 -1.97547e-06 -0.000134942
0.0011754 4.52814e-05 -7.38252e-06
4.52814e-05 7.31946e-06 -1.61074e-06
-7.38252e-06 -1.61074e-06 -7.78289e-05
0.00123324 1.98757e-05 -7.3601e-06
1.98757e-05 3.65419e-06 -1.35881e-06
-7.3601e-06 -1.35881e-06 -8.48913e-05
0.000750285 5.08572e-06 -1.27801e-05
5.08572e-06 -0.00010598 -9.99687e-07
-1.27801e-05 -9.99687e-07 -0.000162969
0.00517307 -1.64964e-05 -0.00010339
-1.64964e-05 0.0023318 7.40911e-07
-0.00010339 7.40911e-07 0.00232603
0.000769006 -5.72083e-07 7.60425e-08
-5.72083e-07 -0.000102423 -4.30609e-07
7.60425e-08 -4.30609e-07 -0.000160389
0.00128991 1.09098e-05 7.71417e-08
1.09098e-05 8.94697e-06 -3.62968e-07
7.71417e-08 -3.62968e-07 -8.38389e-05
0.00120634 2.87487e-05 -4.11835e-08
2.87487e-05 8.5101e-06 3.60425e-08
-4.11835e-08 3.60425e-08 -7.69918e-05
0.00151298 1.68508e-05 1.00785e-07
1.68508e-05 6.86194e-05 1.37899e-07
1.00785e-07 1.37899e-07 -3.38449e-05
0.00115239 5.64316e-05 1.9315e-07
5.64316e-05 1.2237e-05 -1.23259e-07
1.9315e-07 -1.23259e-07 -7.25496e-05
0.00144097 5.19818e-05 2.35723e-08
5.19818e-05 6.66967e-05 -6.79373e-08
2.35723e-08 -6.79373e-08 -3.14766e-05
0.00130058 4.26662e-07 7.83517e-06
4.26662e-07 7.43074e-06 -1.0104e-06
7.83517e-06 -1.0104e-06 -8.63741e-05
0.00155453 1.41924e-05 3.53635e-06
1.41924e-05 6.39154e-05 7.3929e-07
3.53635e-06 7.3929e-07 -4.37272e-05
0.00147439 3.27534e-05 3.1999e-06
3.27534e-05 6.7638e-05 6.5819e-07
3.1999e-06 6.5819e-07 -3.10678e-05
0.00163026 1.31614e-05 9.2587e-07
1.31614e-05 9.17938e-05 1.00263e-06
9.2587e-07 1.00263e-06 -1.2369e-05
0.00137088 6.65308e-05 3.17565e-06
6.65308e-05 5.22002e-05 2.08897e-07
3.17565e-06 2.08897e-07 -4.68939e-05
0.00155318 5.3736e-05 7.84421e-07
5.3736e-05 7.80024e-05 -3.05032e-07
7.84421e-07 -3.05032e-07 -2.1698e-05
0.000780279 8.41729e-06 -1.23575e-05
8.41729e-06 -8.74139e-05 1.1e-06
-1.23575e-05 1.1e-06 -0.000143646
0.00158667 4.69379e-07 -4.66591e-05
4.69379e-07 0.000361342 1.72522e-06
-4.66591e-05 1.72522e-06 0.000316529
0.00085276 -1.76241e-06 -8.01141e-06
-1.76241e-06 -0.000187371 1.58727e-06
-8.01141e-06 1.58727e-06 -0.000275606
0.00198653 -5.23097e-05 -1.20953e-05
-5.23097e-05 0.000426847 1.90716e-06
-1.20953e-05 1.90716e-06 0.00034755
0.00276442 7.46095e-05 -4.19146e-05
7.46095e-05 0.00106797 3.29352e-06
-4.19146e-05 3.29352e-06 0.00107288
0.00160891 4.25105e-05 -2.09619e-05
4.25105e-05 0.000458829 3.09311e-06
-2.09619e-05 3.09311e-06 0.000429852
0.00148402 -5.72894e-05 -4.84469e-06
-5.72894e-05 0.000362753 1.625e-06
-4.84469e-06 1.625e-06 0.000293375
0.00145515 -7.22836e-05 -9.99005e-06
-7.22836e-05 0.0002061 3.21601e-06
-9.99005e-06 3.21601e-06 0.000124679
0.00119422 -6.79132e-05 -4.57515e-06
-6.79132e-05 -5.24631e-05 1.18716e-06
-4.57515e-06 1.18716e-06 -0.000153837
0.00164907 -9.71698e-05 -3.1152e-06
-9.71698e-05 0.000287305 1.22358e-06
-3.1152e-06 1.22358e-06 0.000192575
0.000791527 -7.83526e-05 -1.89429e-06
-7.83526e-05 -6.19804e-05 5.49337e-07
-1.89429e-06 5.49337e-07 -0.000156155
0.00122198 -9.74091e-05 -4.29518e-07
-9.74091e-05 7.66554e-05 2.58187e-07
-4.29518e-07 2.58187e-07 -2.58667e-05
0.000695074 5.49522e-05 -1.79521e-06
5.49522e-05 -3.3761e-05 4.386e-06
-1.79521e-06 4.386e-06 -5.93025e-05
0.000773762 1.844e-05 -1.97582e-06
1.844e-05 -1.63765e-05 2.08054e-06
-1.97582e-06 2.08054e-06 -6.85111e-05
0.00109245 1.58887e-06 -3.52088e-07
1.58887e-06 -8.69031e-05 -6.13693e-08
-3.52088e-07 -6.13693e-08 -0.000179163
0.00159165 -2.2646e-05 -2.29034e-06
-2.2646e-05 0.000214259 2.79861e-07
-2.29034e-06 2.79861e-07 0.000134076
0.00176011 -4.56673e-06 -1.70298e-06
-4.56673e-06 0.000208043 3.45814e-07
-1.70298e-06 3.45814e-07 0.000109842
0.0015605 -5.41835e-05 8.55144e-07
-5.41835e-05 0.000117251 -2.64499e-07
8.55144e-07 -2.64499e-07 1.9716e-05
0.000652858 5.81093e-05 -1.89761e-07
5.81093e-05 -5.00059e-05 4.66931e-08
-1.89761e-07 4.66931e-08 -8.04438e-05
0.000834727 -2.62474e-05 -3.74305e-08
-2.62474e-05 2.97982e-05 -1.04757e-07
-3.74305e-08 -1.04757e-07 -3.83624e-05
0.000769317 -7.54809e-05 7.1253e-07
-7.54809e-05 -3.43446e-05 -5.55917e-07
7.1253e-07 -5.55917e-07 -0.000123258
0.00161508 -9.15183e-05 -7.10007e-07
-9.15183e-05 0.000220361 1.08979e-07
-7.10007e-07 1.08979e-07 0.000122463
0.00159096 -7.52213e-05 -5.09712e-07
-7.52213e-05 0.00010631 5.42509e-07
-5.09712e-07 5.42509e-07 4.12402e-06
0.00136585 -0.000110134 -9.31498e-07
-0.000110134 0.000202324 4.24467e-07
-9.31498e-07 4.24467e-07 9.65772e-05
0.00132408 -9.52169e-05 -2.13813e-09
-9.52169e-05 7.54389e-05 1.41362e-07
-2.13813e-09 1.41362e-07 -2.76903e-05
0.001306 -0.000103735 3.55354e-07
-0.000103735 9.16415e-05 5.93237e-07
3.55354e-07 5.93237e-07 -1.3102e-05
0.000821152 -5.52174e-07 -2.56913e-07
-5.52174e-07 1.20581e-05 -6.38377e-08
-2.56913e-07 -6.38377e-08 -4.83845e-05
0.00085862 -1.04757e-05 -3.95787e-07
-1.04757e-05 2.34588e-05 -2.38663e-07
-3.95787e-07 -2.38663e-07 -5.05781e-05
0.00080232 3.29386e-05 -2.13367e-08
3.29386e-05 -4.43625e-06 2.07462e-07
-2.13367e-08 2.07462e-07 -4.88949e-05
0.00188213 4.94342e-06 2.18548e-06
4.94342e-06 0.000249676 -8.58293e-07
2.18548e-06 -8.58293e-07 0.000147081
0.00163661 -2.50908e-05 3.12293e-06
-2.50908e-05 0.0001554 -4.03342e-07
3.12293e-06 -4.03342e-07 6.00912e-05
0.00180255 -2.80529e-06 6.34382e-07
-2.80529e-06 0.000189743 -1.00695e-07
6.34382e-07 -1.00695e-07 8.5629e-05
0.0016147 -4.79007e-05 1.1026e-06
-4.79007e-05 9.3359e-05 -4.2562e-08
1.1026e-06 -4.2562e-08 -6.77759e-06
0.00120708 -8.66083e-05 1.27507e-06
-8.66083e-05 -4.07605e-05 -8.86259e-07
1.27507e-06 -8.86259e-07 -0.000144646
0.00170015 -7.22926e-05 -1.53276e-06
-7.22926e-05 0.00013024 9.28254e-07
-1.53276e-06 9.28254e-07 3.28296e-05
0.000826643 -1.34287e-05 2.51607e-06
-1.34287e-05 2.33609e-05 -1.58157e-06
2.51607e-06 -1.58157e-06 -4.30229e-05
0.00136562 -9.94807e-05 -1.14097e-06
-9.94807e-05 6.8723e-05 -3.84855e-07
-1.14097e-06 -3.84855e-07 -3.52032e-05
0.000932869 -7.6981e-05 1.08325e-06
-7.6981e-05 6.21089e-05 2.26769e-07
1.08325e-06 2.26769e-07 -2.08078e-05
0.000757491 -8.61442e-05 1.50022e-06
-8.61442e-05 -5.57869e-05 -1.71785e-06
1.50022e-06 -1.71785e-06 -0.000158705
0.00149169 -0.00012053 1.26178e-06
-0.00012053 0.000241473 6.84191e-07
1.26178e-06 6.84191e-07 0.000128964
0.00182384 -0.000123449 -2.18526e-06
-0.000123449 0.000338736 2.39343e-06
-2.18526e-06 2.39343e-06 0.000237374
0.000819528 3.03421e-05 1.33373e-06
3.03421e-05 -1.00481e-06 -1.633e-06
1.33373e-06 -1.633e-06 -3.95059e-05
0.000920686 -3.75981e-05 1.28575e-06
-3.75981e-05 5.39557e-05 3.46024e-08
1.28575e-06 3.46024e-08 -2.30093e-05
0.000790866 -5.26235e-06 7.77878e-07
-5.26235e-06 -1.27568e-05 -1.47789e-06
7.77878e-07 -1.47789e-06 -8.20332e-05
0.00100504 -7.24591e-05 -2.32288e-08
-7.24591e-05 0.000108694 9.31887e-07
-2.32288e-08 9.31887e-07 2.29934e-05
0.0011003 6.73589e-05 -6.9082e-06
6.73589e-05 1.44551e-05 -2.50272e-06
-6.9082e-06 -2.50272e-06 -6.9471e-05
0.00071465 -3.63217e-05 -3.05814e-06
-3.63217e-05 -3.94548e-05 -3.63901e-06
-3.05814e-06 -3.63901e-06 -5.24302e-05
0.000646872 -5.00852e-05 -2.93419e-06
-5.00852e-05 -5.93591e-05 -4.29959e-06
-2.93419e-06 -4.29959e-06 -8.26681e-05
0.00081541 -3.32215e-05 -1.14411e-06
-3.32215e-05 9.81444e-06 -2.56117e-06
-1.14411e-06 -2.56117e-06 -4.02702e-05
0.000902427 6.89595e-05 -4.08049e-06
6.89595e-05 1.48683e-06 -1.77466e-06
-4.08049e-06 -1.77466e-06 -7.52157e-05
0.00120834 9.20649e-05 -3.18687e-06
9.20649e-05 5.56489e-05 -1.11988e-06
-3.18687e-06 -1.11988e-06 -4.39367e-05
0.000809682 1.39525e-05 -2.56618e-06
1.39525e-05 1.81479e-05 -1.93114e-06
-2.56618e-06 -1.93114e-06 -4.83818e-05
0.00098188 8.0232e-05 -2.20806e-06
8.0232e-05 8.57323e-05 -1.00363e-06
-2.20806e-06 -1.00363e-06 -3.70629e-06
0.00116026 9.36555e-05 -1.83486e-06
9.36555e-05 0.000127094 -1.59722e-08
-1.83486e-06 -1.59722e-08 3.90413e-05
0.00082228 8.73552e-05 -2.28907e-06
8.73552e-05 -2.96402e-05 9.78812e-07
-2.28907e-06 9.78812e-07 -0.000126723
0.000754921 -3.30298e-05 9.95048e-08
-3.30298e-05 -2.64353e-05 2.98093e-08
9.95048e-08 2.98093e-08 -3.60259e-05
0.000816752 4.90896e-06 2.23674e-08
4.90896e-06 1.36396e-05 -3.10613e-08
2.23674e-08 -3.10613e-08 -4.54477e-05
0.000802381 -3.25059e-05 -7.72183e-08
-3.25059e-05 -6.34331e-07 1.93959e-07
-7.72183e-08 1.93959e-07 -4.29634e-05
0.000916296 1.22563e-05 2.2435e-07
1.22563e-05 5.94578e-05 -2.13497e-07
2.2435e-07 -2.13497e-07 -1.21306e-05
0.00131534 8.08352e-05 7.97649e-07
8.08352e-05 5.66542e-05 2.416e-07
7.97649e-07 2.416e-07 -4.37954e-05
0.00111433 9.34258e-05 9.10277e-08
9.34258e-05 6.57599e-05 4.89762e-08
9.10277e-08 4.89762e-08 -2.81796e-05
0.00131827 0.000100355 -8.99037e-09
0.000100355 7.28578e-05 4.17805e-07
-8.99037e-09 4.17805e-07 -3.46835e-05
0.00099339 5.75197e-05 2.42465e-07
5.75197e-05 9.92718e-05 2.18928e-07
2.42465e-07 2.18928e-07 1.58207e-05
0.00130366 0.000105868 -4.82875e-07
0.000105868 0.000180916 -8.28266e-07
-4.82875e-07 -8.28266e-07 8.60064e-05
0.00106443 9.65845e-05 2.40642e-07
9.65845e-05 0.000129473 -6.53208e-07
2.40642e-07 -6.53208e-07 2.55353e-05
0.000898115 9.16428e-05 -1.66212e-06
9.16428e-05 -3.10736e-06 1.98284e-08
-1.66212e-06 1.98284e-08 -0.000101644
0.00078554 -2.97612e-05 2.37802e-06
-2.97612e-05 -1.7524e-05 3.48761e-06
2.37802e-06 3.48761e-06 -2.44877e-05
0.000806681 -3.0111e-05 1.10923e-06
-3.0111e-05 -3.58025e-06 2.16932e-06
1.10923e-06 2.16932e-06 -4.02759e-05
0.000993306 3.02868e-05 1.57554e-06
3.02868e-05 9.69789e-05 6.34127e-07
1.57554e-06 6.34127e-07 1.98279e-05
0.000879715 2.34823e-06 8.29719e-07
2.34823e-06 3.70877e-05 1.48719e-06
8.29719e-07 1.48719e-06 -2.67246e-05
0.00097277 6.14277e-05 1.2021e-06
6.14277e-05 9.67226e-05 7.33059e-08
1.2021e-06 7.33059e-08 1.16264e-05
0.00141441 8.43899e-05 2.25009e-06
8.43899e-05 6.30965e-05 4.24037e-08
2.25009e-06 4.24037e-08 -4.28686e-05
0.0011907 0.000102461 9.01458e-07
0.000102461 7.57409e-05 1.11622e-06
9.01458e-07 1.11622e-06 -2.6032e-05
0.00142817 0.000107284 -5.12058e-07
0.000107284 0.00010566 7.32025e-07
-5.12058e-07 7.32025e-07 -4.21962e-06
0.001096 9.34926e-05 2.6279e-06
9.34926e-05 0.000160943 2.18863e-06
2.6279e-06 2.18863e-06 6.04753e-05
0.00117236 0.000105253 1.87004e-06
0.000105253 9.62804e-05 -3.21703e-07
1.87004e-06 -3.21703e-07 -2.21611e-06
0.000538641 7.72424e-05 2.05327e-06
7.72424e-05 -0.000159326 -1.66797e-06
2.05327e-06 -1.66797e-06 -0.000272732
0.000837267 -1.98167e-05 1.12164e-06
-1.98167e-05 4.31967e-06 1.88609e-06
1.12164e-06 1.88609e-06 -2.62254e-05
0.000866094 5.90941e-06 3.68183e-07
5.90941e-06 2.46535e-05 8.84612e-07
3.68183e-07 8.84612e-07 -2.21217e-05
0.000854739 -1.10456e-05 7.44665e-07
-1.10456e-05 7.25755e-06 1.80183e-06
7.44665e-07 1.80183e-06 -1.97379e-05
0.000844454 -1.43369e-05 1.28051e-07
-1.43369e-05 5.39395e-06 4.48351e-09
1.28051e-07 4.48351e-09 -2.32518e-05
0.00133479 -2.77976e-05 2.03028e-06
-2.77976e-05 0.000263598 2.07731e-06
2.03028e-06 2.07731e-06 0.000263738
0.00105629 -2.83713e-05 7.94329e-07
-2.83713e-05 0.000120867 -3.15953e-08
7.94329e-07 -3.15953e-08 0.000117652
0.0010256 -2.5509e-05 2.03643e-05
-2.5509e-05 0.000107448 6.37471e-06
2.03643e-05 6.37471e-06 0.000120341
0.00218071 -4.29309e-05 9.25451e-07
-4.29309e-05 0.000729274 -7.11149e-08
9.25451e-07 -7.11149e-08 0.000746321
0.00222278 -4.85721e-05 -2.58106e-05
-4.85721e-05 0.000758216 -3.51225e-06
-2.58106e-05 -3.51225e-06 0.000773508
0.00073575 3.20634e-05 2.61372e-06
3.20634e-05 -3.95536e-05 -3.40738e-06
2.61372e-06 -3.40738e-06 -5.01167e-05
0.00237987 5.55521e-05 2.92e-05
5.55521e-05 0.000845662 -3.42363e-06
2.92e-05 -3.42363e-06 0.000858581
0.00074095 3.74297e-05 -2.31945e-08
3.74297e-05 -2.92372e-05 7.16588e-08
-2.31945e-08 7.16588e-08 -4.3437e-05
0.00254417 6.15061e-05 -7.38656e-07
6.15061e-05 0.000939259 -1.00633e-07
-7.38656e-07 -1.00633e-07 0.000949552
0.000730959 4.79431e-05 -1.93069e-06
4.79431e-05 -2.42158e-05 4.21853e-06
-1.93069e-06 4.21853e-06 -4.41656e-05
0.00270028 6.78139e-05 -3.9963e-05
6.78139e-05 0.00102668 3.37328e-06
-3.9963e-05 3.37328e-06 0.00103439
0.00116223 5.84072e-05 -7.42634e-06
5.84072e-05 1.82554e-05 -2.06688e-06
-7.42634e-06 -2.06688e-06 -6.67766e-05
0.00120067 3.18221e-05 -7.2654e-06
3.18221e-05 6.21575e-06 -1.15976e-06
-7.2654e-06 -1.15976e-06 -7.94584e-05
0.00144262 5.033e-05 -3.2007e-06
5.033e-05 6.76054e-05 -3.28162e-07
-3.2007e-06 -3.28162e-07 -3.05544e-05
0.00152831 1.66809e-05 -3.19881e-06
1.66809e-05 7.66202e-05 -9.65274e-07
-3.19881e-06 -9.65274e-07 -2.583e-05
0.0012817 1.35114e-05 -7.81764e-06
1.35114e-05 5.07839e-06 -1.38403e-06
-7.81764e-06 -1.38403e-06 -8.76704e-05
0.000782821 4.23737e-06 -1.28631e-05
4.23737e-06 -9.54003e-05 4.53037e-08
-1.28631e-05 4.53037e-08 -0.000153466
0.00129908 2.23479e-06 -1.65644e-08
2.23479e-06 6.53522e-06 -4.93234e-07
-1.65644e-08 -4.93234e-07 -8.73614e-05
0.0015629 1.59366e-05 2.7325e-08
1.59366e-05 6.83471e-05 -2.93438e-07
2.7325e-08 -2.93438e-07 -3.92366e-05
0.00147341 2.96763e-05 8.3349e-08
2.96763e-05 6.76012e-05 1.39301e-07
8.3349e-08 1.39301e-07 -3.10338e-05
0.00160273 1.23689e-05 -2.78809e-08
1.23689e-05 7.48539e-05 1.64771e-07
-2.78809e-08 1.64771e-07 -2.99437e-05
0.00138859 6.72373e-05 -8.02105e-08
6.72373e-05 6.08263e-05 -3.3015e-08
-8.02105e-08 -3.3015e-08 -3.83673e-05
0.00156496 5.34305e-05 -2.90819e-08
5.34305e-05 8.42566e-05 5.4246e-08
-2.90819e-08 5.4246e-08 -1.5428e-05
0.00157138 7.09308e-06 3.80606e-06
7.09308e-06 6.45822e-05 -1.18804e-06
3.80606e-06 -1.18804e-06 -4.41639e-05
0.00162504 1.28282e-05 8.02312e-07
1.28282e-05 6.33423e-05 1.44102e-06
8.02312e-07 1.44102e-06 -4.75021e-05
0.0015818 3.24267e-05 9.70851e-07
3.24267e-05 7.70167e-05 3.13807e-07
9.70851e-07 3.13807e-07 -2.36164e-05
0.00180939 7.86004e-06 -8.12532e-08
7.86004e-06 0.000163012 3.83413e-07
-8.12532e-08 3.83413e-07 5.92709e-05
0.00149606 6.69945e-05 5.87646e-07
6.69945e-05 7.11516e-05 -7.1543e-07
5.87646e-07 -7.1543e-07 -3.06863e-05
0.00164394 4.37942e-05 -1.59164e-06
4.37942e-05 9.44694e-05 9.12315e-08
-1.59164e-06 9.12315e-08 1.38989e-06
0.000922545 3.20997e-06 -7.48739e-06
3.20997e-06 -0.000174737 1.325e-06
-7.48739e-06 1.325e-06 -0.000267916
0.00161848 -2.69479e-05 -1.16473e-05
-2.69479e-05 0.00022696 1.41765e-06
-1.16473e-05 1.41765e-06 0.000146803
0.00167002 1.75582e-06 -5.18804e-06
1.75582e-06 0.000158686 1.33242e-06
-5.18804e-06 1.33242e-06 5.98099e-05
0.00185119 -5.8068e-05 -3.47212e-06
-5.8068e-05 0.000271163 1.08574e-07
-3.47212e-06 1.08574e-07 0.000174976
0.000693155 4.4266e-05 -3.72098e-06
4.4266e-05 -3.06517e-05 4.13406e-06
-3.72098e-06 4.13406e-06 -5.97722e-05
0.000893793 -2.90615e-05 -2.82574e-06
-2.90615e-05 6.02223e-05 1.32802e-06
-2.82574e-06 1.32802e-06 -8.32288e-06
0.000893951 -8.09173e-05 -6.97123e-07
-8.09173e-05 3.07294e-05 8.58021e-08
-6.97123e-07 8.58021e-08 -5.73145e-05
0.00178912 -9.50186e-05 -4.19921e-06
-9.50186e-05 0.000308836 1.59913e-06
-4.19921e-06 1.59913e-06 0.000210735
0.0014084 -7.02222e-05 -1.40812e-06
-7.02222e-05 9.52973e-06 4.15247e-07
-1.40812e-06 4.15247e-07 -9.2501e-05
0.00132631 -9.48271e-05 -7.08645e-07
-9.48271e-05 7.63391e-05 9.50846e-07
-7.08645e-07 9.50846e-07 -2.67326e-05
0.001071 -9.82678e-05 -1.39361e-06
-9.82678e-05 5.02338e-05 7.46474e-07
-1.39361e-06 7.46474e-07 -5.61466e-05
0.00112044 -9.67521e-05 1.6871e-06
-9.67521e-05 -2.22168e-06 -4.4219e-07
1.6871e-06 -4.4219e-07 -0.000106538
0.000790308 2.04442e-06 -2.65322e-06
2.04442e-06 -5.63549e-06 1.70643e-06
-2.65322e-06 1.70643e-06 -6.55682e-05
0.000839843 -7.40331e-06 -1.20987e-06
-7.40331e-06 1.29309e-05 3.07852e-07
-1.20987e-06 3.07852e-07 -6.0769e-05
0.000787239 3.21387e-05 -9.79783e-07
3.21387e-05 -1.22281e-05 2.10962e-06
-9.79783e-07 2.10962e-06 -5.68165e-05
0.00174161 5.65144e-06 -1.76625e-06
5.65144e-06 0.000172834 5.08483e-07
-1.76625e-06 5.08483e-07 6.86937e-05
0.00163315 -3.01015e-05 -8.08058e-07
-3.01015e-05 0.000151977 1.04743e-07
-8.08058e-07 1.04743e-07 5.6844e-05
0.00166463 -2.85769e-07 -6.89926e-07
-2.85769e-07 0.00011695 4.81353e-07
-6.89926e-07 4.81353e-07 1.24433e-05
0.00170232 -4.65602e-05 2.37858e-07
-4.65602e-05 0.000139891 -2.38669e-07
2.37858e-07 -2.38669e-07 4.0082e-05
0.000829178 -1.65595e-05 1.69077e-07
-1.65595e-05 2.24689e-05 -1.98386e-07
1.69077e-07 -1.98386e-07 -4.34556e-05
0.00101287 -8.09457e-05 -1.19907e-07
-8.09457e-05 0.00010168 2.61925e-07
-1.19907e-07 2.61925e-07 1.83924e-05
0.000844783 -8.88883e-05 5.33178e-07
-8.88883e-05 -7.49834e-06 -7.94677e-07
5.33178e-07 -7.94677e-07 -0.000109239
0.00144581 -9.20516e-05 1.81577e-07
-9.20516e-05 8.5261e-05 -5.64132e-07
1.81577e-07 -5.64132e-07 -1.84548e-05
0.00161273 -7.03483e-05 3.01929e-07
-7.03483e-05 8.19464e-05 9.55181e-07
3.01929e-07 9.55181e-07 -1.44196e-05
0.00123538 -0.000110639 4.90112e-09
-0.000110639 0.000112434 1.77934e-07
4.90112e-09 1.77934e-07 -8.21225e-07
0.00137228 -9.84893e-05 -1.22822e-07
-9.84893e-05 7.11754e-05 2.96771e-07
-1.22822e-07 2.96771e-07 -3.2488e-05
0.00158027 -0.000115095 8.21151e-07
-0.000115095 0.000214067 5.24897e-07
8.21151e-07 5.24897e-07 0.000113691
0.000958122 -4.32658e-05 -1.48911e-07
-4.32658e-05 7.47297e-05 -2.03211e-07
-1.48911e-07 -2.03211e-07 -2.83346e-06
0.000978506 -7.63235e-05 -2.94239e-07
-7.63235e-05 9.49606e-05 3.50901e-07
-2.94239e-07 3.50901e-07 7.99195e-06
0.000814067 3.15053e-05 8.05373e-08
3.15053e-05 -3.28434e-06 8.55984e-08
8.05373e-08 8.55984e-08 -4.20364e-05
0.000805296 9.91489e-06 -7.36573e-08
9.91489e-06 -8.16503e-06 -5.18734e-07
-7.36573e-08 -5.18734e-07 -7.47698e-05
0.00166814 3.13689e-06 1.15096e-06
3.13689e-06 9.6779e-05 -1.02153e-06
1.15096e-06 -1.02153e-06 -1.27994e-05
0.00171042 -2.29689e-05 1.2509e-06
-2.29689e-05 0.000146502 2.26292e-07
1.2509e-06 2.26292e-07 4.62883e-05
0.00173025 1.85873e-06 3.88413e-08
1.85873e-06 0.000130706 2.30743e-07
3.88413e-08 2.30743e-07 2.60673e-05
0.00162769 -3.88749e-05 -5.36578e-07
-3.88749e-05 7.08302e-05 -7.02067e-07
-5.36578e-07 -7.02067e-07 -2.74683e-05
0.00144304 -9.11468e-05 -1.58066e-06
-9.11468e-05 4.15059e-05 5.02081e-08
-1.58066e-06 5.02081e-08 -5.98489e-05
0.00174589 -6.85349e-05 5.99803e-07
-6.85349e-05 0.000123629 1.81371e-07
5.99803e-07 1.81371e-07 2.96698e-05
0.000934203 -7.35502e-05 1.24796e-06
-7.35502e-05 6.33652e-05 5.40448e-07
1.24796e-06 5.40448e-07 -1.6206e-05
0.00131797 -9.85961e-05 -3.094e-06
-9.85961e-05 2.48355e-05 8.26784e-07
-3.094e-06 8.26784e-07 -6.97056e-05
0.000706068 -7.90443e-05 -4.3432e-10
-7.90443e-05 -5.47123e-05 -5.96487e-07
-4.3432e-10 -5.96487e-07 -0.00014888
0.00110432 -0.000106117 1.72242e-06
-0.000106117 0.00010663 -1.2529e-06
1.72242e-06 -1.2529e-06 -7.84353e-06
0.00131082 -0.000119438 1.23751e-06
-0.000119438 0.000129683 2.2399e-06
1.23751e-06 2.2399e-06 1.1389e-05
0.00196212 -0.00012896 -6.86863e-07
-0.00012896 0.000396053 1.76886e-06
-6.86863e-07 1.76886e-06 0.000294432
0.000829184 2.08775e-05 1.55063e-06
2.08775e-05 6.9111e-07 -1.58244e-06
1.55063e-06 -1.58244e-06 -3.45594e-05
0.000757191 2.75545e-06 5.46333e-07
2.75545e-06 -3.34755e-05 -1.36243e-06
5.46333e-07 -1.36243e-06 -9.52815e-05
0.00097532 -8.61317e-05 3.45488e-07
-8.61317e-05 8.86843e-05 1.24605e-06
3.45488e-07 1.24605e-06 1.35151e-06
0.000979033 -5.95789e-05 8.72408e-07
-5.95789e-05 9.37339e-05 -1.8537e-08
8.72408e-07 -1.8537e-08 1.27255e-05
0.00098481 -8.67268e-05 -3.20337e-07
-8.67268e-05 0.000100445 1.90539e-06
-3.20337e-07 1.90539e-06 9.68715e-06
0.00073348 -3.21909e-05 -2.66021e-06
-3.21909e-05 -3.73954e-05 -3.53802e-06
-2.66021e-06 -3.53802e-06 -4.68482e-05
0.00133599 8.20182e-05 -2.70359e-06
8.20182e-05 6.73507e-05 -2.75308e-07
-2.70359e-06 -2.75308e-07 -3.33432e-05
0.000816719 -3.56112e-05 -1.08271e-06
-3.56112e-05 6.8919e-06 -2.23956e-06
-1.08271e-06 -2.23956e-06 -3.54925e-05
0.000861457 -4.29806e-06 -1.79015e-06
-4.29806e-06 3.76859e-05 -2.27623e-06
-1.79015e-06 -2.27623e-06 -2.10912e-05
0.000926472 5.92639e-06 -5.14625e-07
5.92639e-06 6.41157e-05 -1.24756e-06
-5.14625e-07 -1.24756e-06 -6.96577e-06
0.00107405 9.25746e-05 -2.50505e-06
9.25746e-05 4.66068e-05 -1.16143e-06
-2.50505e-06 -1.16143e-06 -4.73046e-05
0.00131705 0.000100438 -1.43879e-06
0.000100438 7.23726e-05 -2.55702e-07
-1.43879e-06 -2.55702e-07 -3.51321e-05
0.000939546 7.22564e-05 -1.70462e-06
7.22564e-05 7.37456e-05 -5.1137e-07
-1.70462e-06 -5.1137e-07 -1.01103e-05
0.00109505 9.83592e-05 -2.16619e-06
9.83592e-05 0.000144591 -9.65497e-07
-2.16619e-06 -9.65497e-07 4.01003e-05
0.00145588 0.000111991 -1.78902e-06
0.000111991 0.000260639 -8.41959e-07
-1.78902e-06 -8.41959e-07 0.000165789
0.00101795 9.66167e-05 -3.63609e-06
9.66167e-05 6.30467e-05 2.02625e-06
-3.63609e-06 2.02625e-06 -3.38828e-05
0.000764198 -2.9107e-05 1.04995e-07
-2.9107e-05 -2.8518e-05 2.33468e-08
1.04995e-07 2.33468e-08 -3.53788e-05
0.00081494 -3.05301e-05 -6.20826e-08
-3.05301e-05 7.17386e-07 7.22044e-08
-6.20826e-08 7.22044e-08 -3.59026e-05
0.0009572 3.69676e-05 2.7729e-07
3.69676e-05 7.8984e-05 -9.07921e-08
2.7729e-07 -9.07921e-08 1.66032e-06
0.000888378 -6.52216e-06 6.49109e-08
-6.52216e-06 4.08946e-05 4.77944e-08
6.49109e-08 4.77944e-08 -2.22437e-05
0.000925134 5.22029e-05 3.70295e-07
5.22029e-05 7.05152e-05 -2.84727e-07
3.70295e-07 -2.84727e-07 -1.41059e-05
0.0014257 8.50886e-05 9.9326e-07
8.50886e-05 6.88863e-05 5.09087e-07
9.9326e-07 5.09087e-07 -3.73459e-05
0.00119741 0.000103383 1.43716e-07
0.000103383 7.95129e-05 2.43664e-09
1.43716e-07 2.43664e-09 -2.23092e-05
0.00138253 0.000107119 8.97453e-07
0.000107119 8.27941e-05 6.84719e-07
8.97453e-07 6.84719e-07 -2.75274e-05
0.00103061 9.08648e-05 7.40592e-07
9.08648e-05 0.000128626 8.40386e-07
7.40592e-07 8.40386e-07 2.83829e-05
0.00129095 0.000109402 4.17442e-07
0.000109402 0.000158588 -7.29183e-07
4.17442e-07 -7.29183e-07 6.01448e-05
0.000884463 9.27998e-05 -1.34221e-06
9.27998e-05 1.70906e-05 -7.45336e-07
-1.34221e-06 -7.45336e-07 -9.62499e-05
0.000825419 -2.48796e-05 1.13775e-06
-2.48796e-05 2.00746e-06 2.01241e-06
1.13775e-06 2.01241e-06 -3.10809e-05
0.000873056 -1.08662e-05 5.19859e-07
-1.08662e-05 2.80059e-05 1.38428e-06
5.19859e-07 1.38428e-06 -2.71909e-05
0.00104718 8.68355e-05 8.36125e-07
8.68355e-05 0.000132571 -4.83738e-08
8.36125e-07 -4.83738e-08 4.01935e-05
0.000942146 2.07099e-05 7.04199e-07
2.07099e-05 7.65868e-05 7.40766e-07
7.04199e-07 7.40766e-07 1.17664e-07
0.00103098 5.30481e-05 7.88638e-07
5.30481e-05 0.000132267 -6.11764e-07
7.88638e-07 -6.11764e-07 3.99545e-05
0.00147535 8.42351e-05 -1.52428e-06
8.42351e-05 6.24817e-05 -1.44206e-06
-1.52428e-06 -1.44206e-06 -4.27984e-05
0.0012377 0.000111273 1.16831e-06
0.000111273 7.73272e-05 7.56677e-07
1.16831e-06 7.56677e-07 -2.72968e-05
0.00114782 0.000110177 -2.49602e-06
0.000110177 -3.91798e-05 -8.89242e-07
-2.49602e-06 -8.89242e-07 -0.000140438
0.00097269 9.27333e-05 1.13023e-06
9.27333e-05 0.000105363 2.39988e-06
1.13023e-06 2.39988e-06 -9.3224e-06
0.00121767 0.000114743 4.02752e-06
0.000114743 0.000138388 -9.2508e-07
4.02752e-06 -9.2508e-07 2.19578e-05
0.000835439 -1.85433e-05 7.3488e-08
-1.85433e-05 3.71111e-06 2.36491e-09
7.3488e-08 2.36491e-09 -2.68423e-05
0.000718487 -1.85197e-05 4.47585e-07
-1.85197e-05 -5.45622e-05 1.58834e-06
4.47585e-07 1.58834e-06 -0.000102885
0.000807067 -8.93237e-06 -6.34426e-07
-8.93237e-06 -7.23911e-06 -1.8216e-09
-6.34426e-07 -1.8216e-09 -5.41457e-05
0.00108105 1.29651e-05 8.95989e-07
1.29651e-05 0.000144856 1.97732e-07
8.95989e-07 1.97732e-07 8.69244e-05
0.000872621 1.04438e-05 1.46969e-06
1.04438e-05 2.70845e-05 1.01152e-06
1.46969e-06 1.01152e-06 -1.93283e-05
0.000862945 -4.30092e-06 7.0638e-07
-4.30092e-06 8.68915e-06 1.79707e-06
7.0638e-07 1.79707e-06 -1.74198e-05
0.000853773 -1.16039e-05 5.20123e-08
-1.16039e-05 6.93485e-06 2.08488e-08
5.20123e-08 2.08488e-08 -2.01196e-05
0.00132686 -2.26981e-05 1.48216e-06
-2.26981e-05 0.000253925 2.02622e-06
1.48216e-06 2.02622e-06 0.000255958
0.000845503 -1.32622e-05 -9.97411e-07
-1.32622e-05 6.52997e-06 -1.86972e-06
-9.97411e-07 -1.86972e-06 -2.22377e-05
0.0013494 -2.61865e-05 -3.61305e-06
-2.61865e-05 0.000270897 -1.18628e-06
-3.61305e-06 -1.18628e-06 0.000271326
0.00102912 -2.19248e-05 1.73278e-05
-2.19248e-05 0.000102084 6.27688e-06
1.73278e-05 6.27688e-06 0.000116866
0.00133834 -2.90204e-05 -8.86358e-06
-2.90204e-05 0.000271132 -3.23068e-06
-8.86358e-06 -3.23068e-06 0.000269708
0.00156699 -3.16617e-05 1.55917e-05
-3.16617e-05 0.000395905 2.09847e-06
1.55917e-05 2.09847e-06 0.000411733
0.00217719 -4.29831e-05 -2.28303e-05
-4.29831e-05 0.000726346 -3.62217e-06
-2.28303e-05 -3.62217e-06 0.000743601
0.000742525 2.90184e-05 2.20449e-06
2.90184e-05 -4.19125e-05 -3.36361e-06
2.20449e-06 -3.36361e-06 -5.00817e-05
0.000753278 3.26759e-05 -1.37057e-07
3.26759e-05 -3.04441e-05 2.20816e-08
-1.37057e-07 2.20816e-08 -4.11532e-05
0.00231597 4.9946e-05 2.60309e-05
4.9946e-05 0.000804488 -3.54234e-06
2.60309e-05 -3.54234e-06 0.000819439
0.0024086 5.54874e-05 -7.01279e-07
5.54874e-05 0.000861487 -8.23052e-08
-7.01279e-07 -8.23052e-08 0.000874131
0.000759398 3.95074e-05 -2.51482e-06
3.95074e-05 -1.93945e-05 3.80726e-06
-2.51482e-06 3.80726e-06 -3.39934e-05
0.00257852 6.11316e-05 -3.6751e-05
6.11316e-05 0.000957554 3.44223e-06
-3.6751e-05 3.44223e-06 0.000967631
0.00140682 6.80896e-05 -3.42209e-06
6.80896e-05 6.97203e-05 -2.86262e-07
-3.42209e-06 -2.86262e-07 -2.95852e-05
0.00147638 3.02871e-05 -3.16097e-06
3.02871e-05 6.95307e-05 -3.55071e-07
-3.16097e-06 -3.55071e-07 -2.91766e-05
0.00157673 5.42803e-05 -5.56292e-07
5.42803e-05 9.04973e-05 4.59191e-07
-5.56292e-07 4.59191e-07 -9.21171e-06
0.00157094 1.15145e-05 -8.04589e-07
1.15145e-05 5.58384e-05 -7.00603e-07
-8.04589e-07 -7.00603e-07 -4.96057e-05
0.00157426 1.94152e-05 -3.3541e-06
1.94152e-05 7.43096e-05 -1.29805e-06
-3.3541e-06 -1.29805e-06 -3.32546e-05
0.00131168 6.94833e-06 -7.86988e-06
6.94833e-06 1.26133e-05 -3.86026e-08
-7.86988e-06 -3.86026e-08 -8.12969e-05
0.00158289 1.13369e-05 4.68001e-08
1.13369e-05 7.05554e-05 -7.06733e-07
4.68001e-08 -7.06733e-07 -3.83009e-05
0.00159995 4.76876e-06 2.76196e-07
4.76876e-06 4.79004e-05 4.05885e-07
2.76196e-07 4.05885e-07 -6.39082e-05
0.00159992 3.17141e-05 1.71867e-08
3.17141e-05 8.65811e-05 1.50172e-07
1.71867e-08 1.50172e-07 -1.39201e-05
0.00173748 7.2603e-06 -8.49658e-08
7.2603e-06 0.000124537 -3.97227e-07
-8.49658e-08 -3.97227e-07 2.10389e-05
0.00150886 6.83682e-05 -1.36618e-07
6.83682e-05 7.73167e-05 6.17363e-08
-1.36618e-07 6.17363e-08 -2.4794e-05
0.00162079 4.33487e-05 -1.49085e-08
4.33487e-05 7.9752e-05 4.32808e-07
-1.49085e-08 4.32808e-07 -1.35319e-05
0.00163028 8.65783e-07 1.79866e-06
8.65783e-07 5.45134e-05 -1.05293e-06
1.79866e-06 -1.05293e-06 -5.92341e-05
0.00179232 1.36852e-05 -4.09541e-07
1.36852e-05 0.000128417 7.17026e-07
-4.09541e-07 7.17026e-07 1.69522e-05
0.00162193 2.36639e-05 -5.10317e-07
2.36639e-05 6.95002e-05 9.68822e-07
-5.10317e-07 9.68822e-07 -2.86948e-05
0.00175976 3.09932e-06 -3.58191e-07
3.09932e-06 0.000125859 -5.86489e-08
-3.58191e-07 -5.86489e-08 2.29439e-05
0.00148286 6.10079e-05 -1.2131e-06
6.10079e-05 2.78171e-05 -1.27942e-06
-1.2131e-06 -1.27942e-06 -6.90654e-05
0.0018582 3.61468e-05 -6.19121e-07
3.61468e-05 0.000181337 -4.12166e-07
-6.19121e-07 -4.12166e-07 8.97223e-05
0.00157614 5.64902e-06 -4.88487e-06
5.64902e-06 8.34557e-05 1.83705e-06
-4.88487e-06 1.83705e-06 -2.2259e-05
0.00162688 -3.18647e-05 -4.77525e-06
-3.18647e-05 0.000147471 4.76807e-07
-4.77525e-06 4.76807e-07 5.25043e-05
0.00155228 2.11109e-07 -1.76321e-06
2.11109e-07 5.70977e-05 7.63581e-07
-1.76321e-06 7.63581e-07 -4.78116e-05
0.00179376 -4.58495e-05 -1.51305e-06
-4.58495e-05 0.000188277 -3.34589e-07
-1.51305e-06 -3.34589e-07 8.88012e-05
0.000846588 -1.94705e-05 -2.711e-06
-1.94705e-05 2.92785e-05 1.33093e-06
-2.711e-06 1.33093e-06 -3.62448e-05
0.00108807 -8.46287e-05 -1.45616e-06
-8.46287e-05 0.000139034 3.2855e-07
-1.45616e-06 3.2855e-07 5.53623e-05
0.000923655 -9.1079e-05 -3.41992e-07
-9.1079e-05 3.67049e-05 1.17333e-07
-3.41992e-07 1.17333e-07 -6.38344e-05
0.00168834 -9.75196e-05 -1.05569e-06
-9.75196e-05 0.000213234 2.66062e-07
-1.05569e-06 2.66062e-07 0.000109686
0.00153 -6.84808e-05 6.78185e-07
-6.84808e-05 3.60989e-05 1.43787e-07
6.78185e-07 1.43787e-07 -5.92293e-05
0.00138052 -9.75996e-05 1.47916e-06
-9.75996e-05 7.4465e-05 8.41004e-07
1.47916e-06 8.41004e-07 -2.89453e-05
0.0009879 -0.0001011 -8.58699e-07
-0.0001011 -1.21163e-05 -7.13959e-08
-8.58699e-07 -7.13959e-08 -0.000126142
0.00132997 -0.000106531 2.91951e-06
-0.000106531 8.57268e-05 -2.62283e-06
2.91951e-06 -2.62283e-06 -1.36177e-05
0.000978035 -3.57912e-05 -1.3396e-06
-3.57912e-05 8.4534e-05 -3.27878e-07
-1.3396e-06 -3.27878e-07 7.5086e-06
0.000963137 -6.49184e-05 -8.45749e-07
-6.49184e-05 8.34732e-05 -5.5316e-07
-8.45749e-07 -5.5316e-07 -2.63024e-06
0.00080466 3.17905e-05 -9.33768e-07
3.17905e-05 -7.69764e-06 1.83519e-06
-9.33768e-07 1.83519e-06 -4.66293e-05
0.000826787 1.92781e-05 -2.25144e-07
1.92781e-05 1.60775e-06 4.13371e-07
-2.25144e-07 4.13371e-07 -6.34362e-05
0.00167849 4.0712e-06 -1.6048e-07
4.0712e-06 0.000101826 2.90133e-07
-1.6048e-07 2.90133e-07 -7.78116e-06
0.001747 -2.03064e-05 -5.37395e-07
-2.03064e-05 0.00016486 5.09928e-09
-5.37395e-07 5.09928e-09 6.51607e-05
0.00170019 1.13721e-06 -7.36202e-07
1.13721e-06 0.000116363 6.52347e-07
-7.36202e-07 6.52347e-07 1.23038e-05
0.00166975 -3.9873e-05 -1.29757e-07
-3.9873e-05 9.18247e-05 -4.48208e-07
-1.29757e-07 -4.48208e-07 -6.31006e-06
0.000990703 -6.09092e-05 -1.74932e-07
-6.09092e-05 9.02522e-05 7.03596e-08
-1.74932e-07 7.03596e-08 1.14092e-05
0.000786867 -8.16744e-05 4.75775e-07
-8.16744e-05 -1.24654e-05 -4.04354e-07
4.75775e-07 -4.04354e-07 -0.000105399
0.00110395 -0.000105537 1.11224e-07
-0.000105537 0.000108119 -1.56389e-07
1.11224e-07 -1.56389e-07 -6.66625e-06
0.00157181 -9.36659e-05 -7.03005e-07
-9.36659e-05 0.000109868 -5.07642e-07
-7.03005e-07 -5.07642e-07 7.77477e-06
0.00162674 -6.72838e-05 -3.6598e-07
-6.72838e-05 6.72178e-05 6.89252e-07
-3.6598e-07 6.89252e-07 -2.37292e-05
0.00130516 -0.000118038 -2.36497e-07
-0.000118038 0.000127551 5.75124e-07
-2.36497e-07 5.75124e-07 8.55876e-06
0.00138893 -9.9444e-05 -1.0306e-07
-9.9444e-05 6.09616e-05 9.89058e-07
-1.0306e-07 9.89058e-07 -3.35345e-05
0.00159864 -0.000116726 9.54151e-07
-0.000116726 0.000208488 -1.38182e-06
9.54151e-07 -1.38182e-06 0.000109804
0.00102378 -8.83077e-05 6.31512e-08
-8.83077e-05 0.000112911 -3.17744e-08
6.31512e-08 -3.17744e-08 2.55575e-05
0.00100393 -8.50845e-05 4.20293e-08
-8.50845e-05 0.000109007 1.70168e-07
4.20293e-08 1.70168e-07 1.85178e-05
0.000970547 -4.32518e-05 -3.33642e-07
-4.32518e-05 8.7753e-05 -1.5036e-08
-3.33642e-07 -1.5036e-08 7.89289e-06
0.000709978 2.61596e-05 -2.27015e-07
2.61596e-05 -6.18537e-05 4.04611e-09
-2.27015e-07 4.04611e-09 -9.8193e-05
0.000787122 1.82596e-05 6.07279e-08
1.82596e-05 -2.07822e-05 -3.48245e-07
6.07279e-08 -3.48245e-07 -8.03503e-05
0.00170511 6.98513e-06 -1.37057e-07
6.98513e-06 9.00621e-05 -7.55366e-07
-1.37057e-07 -7.55366e-07 -1.91227e-05
0.00167091 -5.24464e-06 1.33697e-06
-5.24464e-06 8.87668e-05 2.29163e-07
1.33697e-06 2.29163e-07 -1.30162e-05
0.00164055 -4.39265e-05 1.21926e-06
-4.39265e-05 5.0371e-05 -1.39324e-06
1.21926e-06 -1.39324e-06 -4.83141e-05
0.00138562 -8.03791e-05 1.11653e-07
-8.03791e-05 -2.35122e-05 -1.49531e-06
1.11653e-07 -1.49531e-06 -0.000116795
0.000948172 -8.64682e-05 -5.83114e-08
-8.64682e-05 7.35972e-05 1.23453e-06
-5.83114e-08 1.23453e-06 -1.42046e-05
0.00195266 -0.000119368 -1.04729e-06
-0.000119368 0.0003157 1.41922e-06
-1.04729e-06 1.41922e-06 0.000225208
0.00039256 -6.75716e-05 -9.90141e-08
-6.75716e-05 -0.000213171 -1.84842e-06
-9.90141e-08 -1.84842e-06 -0.000314821
0.00120297 -0.000117232 2.98134e-06
-0.000117232 0.000136736 -1.05723e-06
2.98134e-06 -1.05723e-06 7.53173e-06
0.00163599 -0.000134076 1.7475e-06
-0.000134076 0.000266014 2.25759e-06
1.7475e-06 2.25759e-06 0.000142148
0.000619875 1.92862e-05 1.21461e-06
1.92862e-05 -0.000112414 -2.26479e-06
1.21461e-06 -2.26479e-06 -0.00014727
0.000979946 6.89337e-07 1.2742e-06
6.89337e-07 8.26533e-05 -6.87035e-07
1.2742e-06 -6.87035e-07 2.74262e-05
0.000998227 -2.7593e-05 1.05775e-07
-2.7593e-05 9.73437e-05 -2.27557e-07
1.05775e-07 -2.27557e-07 2.70067e-05
0.000980688 -8.68792e-05 -3.58195e-07
-8.68792e-05 9.20385e-05 2.0585e-06
-3.58195e-07 2.0585e-06 3.38297e-06
0.00108071 -6.38557e-05 4.18092e-07
-6.38557e-05 0.000149319 1.32841e-06
4.18092e-07 1.32841e-06 6.08575e-05
0.00095049 -8.50266e-05 -1.33235e-07
-8.50266e-05 7.65059e-05 1.82959e-06
-1.33235e-07 1.82959e-06 -1.51234e-05
0.00074423 -2.85184e-05 -2.19652e-06
-2.85184e-05 -3.879e-05 -3.50808e-06
-2.19652e-06 -3.50808e-06 -4.55535e-05
0.000823919 -3.02781e-05 -1.39696e-06
-3.02781e-05 5.38738e-06 -1.96328e-06
-1.39696e-06 -1.96328e-06 -3.11509e-05
0.00144088 8.59525e-05 -6.48457e-07
8.59525e-05 7.65785e-05 8.90886e-07
-6.48457e-07 8.90886e-07 -2.99209e-05
0.000907748 -1.75281e-05 -3.16648e-07
-1.75281e-05 5.01681e-05 -1.46606e-06
-3.16648e-07 -1.46606e-06 -1.22528e-05
0.000901964 2.98521e-05 -1.23176e-06
2.98521e-05 4.93e-05 -5.5212e-07
-1.23176e-06 -5.5212e-07 -2.71263e-05
0.000880515 4.50947e-05 -3.36786e-07
4.50947e-05 4.59318e-05 -3.53957e-07
-3.36786e-07 -3.53957e-07 -3.82841e-05
0.00120236 0.000104196 -1.19094e-06
0.000104196 8.24086e-05 -1.26507e-06
-1.19094e-06 -1.26507e-06 -1.94535e-05
0.00133099 0.000106712 5.6975e-07
0.000106712 5.69712e-05 3.20351e-07
5.6975e-07 3.20351e-07 -5.37789e-05
0.00095932 8.79115e-05 -7.3681e-07
8.79115e-05 9.2875e-05 -3.32456e-07
-7.3681e-07 -3.32456e-07 -7.05625e-06
0.00121792 0.000107684 -2.22374e-06
0.000107684 0.000187124 7.33828e-07
-2.22374e-06 7.33828e-07 7.39121e-05
0.00140678 0.000113484 -2.76158e-06
0.000113484 0.000219595 -6.01871e-07
-2.76158e-06 -6.01871e-07 0.000121196
0.000827421 -2.40748e-05 3.7072e-08
-2.40748e-05 3.23907e-06 2.39264e-08
3.7072e-08 2.39264e-08 -2.98138e-05
0.000876932 -1.71404e-05 -1.05316e-07
-1.71404e-05 2.99771e-05 1.3698e-07
-1.05316e-07 1.3698e-07 -2.51405e-05
0.00101253 8.5388e-05 -3.92964e-07
8.5388e-05 0.000116214 -2.63912e-07
-3.92964e-07 -2.63912e-07 2.4273e-05
0.000930598 1.65141e-05 1.26283e-07
1.65141e-05 6.87792e-05 -3.51967e-09
1.26283e-07 -3.51967e-09 -6.82714e-06
0.000948929 5.85654e-05 1.22073e-07
5.85654e-05 9.09969e-05 -5.74937e-07
1.22073e-07 -5.74937e-07 -3.05331e-06
0.00148394 8.64537e-05 -7.34983e-07
8.64537e-05 6.88628e-05 -1.75605e-07
-7.34983e-07 -1.75605e-07 -3.69445e-05
0.00126286 0.000112096 9.767e-07
0.000112096 8.89157e-05 -8.48447e-08
9.767e-07 -8.48447e-08 -1.59555e-05
0.00126735 0.000112864 4.81877e-07
0.000112864 1.58966e-05 1.0257e-06
4.81877e-07 1.0257e-06 -8.40135e-05
0.000803237 8.52864e-05 5.42851e-07
8.52864e-05 1.81226e-05 1.38804e-06
5.42851e-07 1.38804e-06 -9.66277e-05
0.0012186 0.00011463 -3.39002e-07
0.00011463 0.000140294 -7.49539e-07
-3.39002e-07 -7.49539e-07 2.13683e-05
0.000868741 -1.17752e-05 6.33746e-07
-1.17752e-05 2.52681e-05 1.24479e-06
6.33746e-07 1.24479e-06 -2.48477e-05
0.0008148 -9.25124e-07 2.89812e-07
-9.25124e-07 2.44362e-06 1.50554e-06
2.89812e-07 1.50554e-06 -6.67004e-05
0.00113001 9.67183e-05 5.24541e-07
9.67183e-05 0.00018916 -5.14672e-07
5.24541e-07 -5.14672e-07 8.45187e-05
0.000848519 3.51316e-05 5.25155e-07
3.51316e-05 3.37e-05 6.13267e-07
5.25155e-07 6.13267e-07 -5.55019e-05
0.00102877 6.90866e-05 4.31227e-07
6.90866e-05 0.000128694 -8.59948e-07
4.31227e-07 -8.59948e-07 2.81272e-05
0.00162959 8.68737e-05 -2.49473e-06
8.68737e-05 9.80321e-05 7.96759e-08
-2.49473e-06 7.96759e-08 1.07134e-05
0.00160427 0.000136322 1.16249e-06
0.000136322 0.000257457 -1.46984e-06
1.16249e-06 -1.46984e-06 0.000143202
0.000281925 8.86907e-05 5.44731e-07
8.86907e-05 -0.000519061 -1.88301e-06
5.44731e-07 -1.88301e-06 -0.000613954
0.00158339 0.000123025 4.09739e-06
0.000123025 0.000408474 3.18625e-06
4.09739e-06 3.18625e-06 0.00028415
8.03215e-05 7.3073e-05 9.47526e-07
7.3073e-05 -0.000443171 -8.48723e-07
9.47526e-07 -8.48723e-07 -0.000574672
0.000834269 -1.64535e-05 -1.28593e-06
-1.64535e-05 3.42124e-06 -1.84409e-06
-1.28593e-06 -1.84409e-06 -2.71187e-05
0.000802188 -1.19807e-05 1.34661e-07
-1.19807e-05 -1.03403e-05 5.38713e-07
1.34661e-07 5.38713e-07 -5.83505e-05
0.000800184 -1.67516e-05 2.66348e-07
-1.67516e-05 -7.32476e-06 1.19432e-06
2.66348e-07 1.19432e-06 -6.72859e-05
0.000760743 -2.42866e-05 -6.44961e-07
-2.42866e-05 -3.25917e-05 -8.51846e-07
-6.44961e-07 -8.51846e-07 -7.95542e-05
0.000886148 -8.87664e-07 2.17871e-07
-8.87664e-07 3.28332e-05 -3.6787e-08
2.17871e-07 -3.6787e-08 -1.26602e-05
0.000930627 -1.53062e-05 1.64213e-07
-1.53062e-05 6.29199e-05 -3.9115e-07
1.64213e-07 -3.9115e-07 5.91215e-06
0.00103739 5.52972e-06 3.17315e-07
5.52972e-06 0.000123388 1.8643e-07
3.17315e-07 1.8643e-07 5.87695e-05
0.000817473 -3.06127e-05 8.20655e-08
-3.06127e-05 4.88114e-06 7.69398e-07
8.20655e-08 7.69398e-07 -5.25432e-05
0.000899411 -1.79692e-05 6.21961e-08
-1.79692e-05 3.66127e-05 9.09998e-07
6.21961e-08 9.09998e-07 -7.34449e-06
0.000855346 1.994e-06 7.55982e-07
1.994e-06 3.68772e-06 1.6537e-06
7.55982e-07 1.6537e-06 -2.24602e-05
0.000856927 -8.60648e-06 -1.41791e-07
-8.60648e-06 5.73002e-06 1.98686e-08
-1.41791e-07 1.98686e-08 -2.0423e-05
0.00132299 -1.69911e-05 1.22221e-06
-1.69911e-05 0.000247454 1.96273e-06
1.22221e-06 1.96273e-06 0.000250575
0.000853075 -1.19204e-05 -6.18522e-07
-1.19204e-05 6.75584e-06 -1.85462e-06
-6.18522e-07 -1.85462e-06 -2.03469e-05
0.00133966 -2.12718e-05 -2.98307e-06
-2.12718e-05 0.000260438 -1.1631e-06
-2.98307e-06 -1.1631e-06 0.000262637
0.00101918 -1.82025e-05 1.39178e-05
-1.82025e-05 9.13408e-05 6.19836e-06
1.39178e-05 6.19836e-06 0.000107649
0.00135926 -2.49751e-05 -7.61988e-06
-2.49751e-05 0.000275671 -4.42779e-06
-7.61988e-06 -4.42779e-06 0.000276336
0.000975793 -2.31901e-05 5.69265e-06
-2.31901e-05 7.4041e-05 2.38181e-06
5.69265e-06 2.38181e-06 8.86379e-05
0.00209615 -4.14643e-05 -6.16761e-06
-4.14643e-05 0.000677846 -1.57654e-06
-6.16761e-06 -1.57654e-06 0.000696201
0.000755532 2.60151e-05 1.6997e-06
2.60151e-05 -4.07658e-05 -3.34767e-06
1.6997e-06 -3.34767e-06 -4.67101e-05
0.000760067 2.93516e-05 -1.14439e-07
2.93516e-05 -3.28751e-05 2.46798e-08
-1.14439e-07 2.46798e-08 -4.11236e-05
0.00226527 4.42038e-05 2.29249e-05
4.42038e-05 0.000770857 -3.65194e-06
2.29249e-05 -3.65194e-06 0.000787628
0.000772268 3.34156e-05 -2.83479e-06
3.34156e-05 -2.05641e-05 3.45048e-06
-2.83479e-06 3.45048e-06 -3.14281e-05
0.00232102 4.96951e-05 -9.3146e-07
4.96951e-05 0.000808089 -8.09063e-08
-9.3146e-07 -8.09063e-08 0.000822867
0.0024306 5.49579e-05 -3.23783e-05
5.49579e-05 0.000873719 3.50692e-06
-3.23783e-05 3.50692e-06 0.000886178
0.00152099 6.9655e-05 -1.41373e-06
6.9655e-05 8.31397e-05 7.18682e-07
-1.41373e-06 7.18682e-07 -1.92413e-05
0.00162073 3.00769e-05 -4.2609e-07
3.00769e-05 9.75153e-05 8.66584e-08
-4.2609e-07 8.66584e-08 -2.81868e-06
0.00160211 4.29464e-05 1.84028e-06
4.29464e-05 6.73954e-05 7.66362e-07
1.84028e-06 7.66362e-07 -2.61109e-05
0.00166136 6.59265e-06 -7.75864e-08
6.59265e-06 8.38149e-05 -1.18707e-06
-7.75864e-08 -1.18707e-06 -1.94266e-05
0.00159444 1.17349e-07 -8.05881e-07
1.17349e-07 4.22874e-05 -8.64544e-07
-8.05881e-07 -8.64544e-07 -7.04881e-05
0.00159814 1.47003e-05 -3.53905e-06
1.47003e-05 7.83637e-05 -1.85336e-07
-3.53905e-06 -1.85336e-07 -3.05558e-05
0.00167666 4.50019e-06 2.99958e-07
4.50019e-06 7.76916e-05 -5.93586e-07
2.99958e-07 -5.93586e-07 -3.65122e-05
0.00178485 9.56214e-06 -9.36953e-09
9.56214e-06 0.00012643 -4.22073e-07
-9.36953e-09 -4.22073e-07 1.51318e-05
0.00161021 2.18925e-05 9.87583e-08
2.18925e-05 6.26359e-05 4.58442e-07
9.87583e-08 4.58442e-07 -3.58823e-05
0.00171481 3.00583e-06 4.18334e-08
3.00583e-06 0.000100511 -7.2075e-07
4.18334e-08 -7.2075e-07 -1.6451e-06
0.00154227 6.2746e-05 -5.41448e-07
6.2746e-05 5.79439e-05 1.12082e-07
-5.41448e-07 1.12082e-07 -3.8848e-05
0.00172165 3.55066e-05 1.15862e-06
3.55066e-05 0.000112197 -5.78312e-07
1.15862e-06 -5.78312e-07 2.11238e-05
0.00178081 1.21701e-05 1.15891e-07
1.21701e-05 0.00010447 -3.97169e-07
1.15891e-07 -3.97169e-07 -1.09771e-05
0.0017458 4.09908e-06 -7.06093e-07
4.09908e-06 9.67805e-05 5.73136e-07
-7.06093e-07 5.73136e-07 -9.82517e-06
0.00170256 1.55405e-05 -2.25431e-07
1.55405e-05 8.78428e-05 3.90852e-07
-2.25431e-07 3.90852e-07 -8.57513e-06
0.00187423 5.65078e-05 -1.47233e-06
5.65078e-05 0.000190774 -7.55063e-07
-1.47233e-06 -7.55063e-07 0.000100107
0.00168107 4.93503e-06 -1.19451e-06
4.93503e-06 0.000103033 1.63205e-06
-1.19451e-06 1.63205e-06 -6.6188e-06
0.00177127 -1.94014e-05 -2.75677e-06
-1.94014e-05 0.000176805 9.96792e-08
-2.75677e-06 9.96792e-08 7.7601e-05
0.00159335 9.2104e-08 -1.42887e-06
9.2104e-08 6.34657e-05 6.65809e-07
-1.42887e-06 6.65809e-07 -4.01044e-05
0.00170223 -4.03077e-05 -3.92109e-07
-4.03077e-05 0.000107838 -1.71488e-07
-3.92109e-07 -1.71488e-07 9.88381e-06
0.00104732 -6.09894e-05 -1.37004e-06
-6.09894e-05 0.00011893 -3.9758e-07
-1.37004e-06 -3.9758e-07 3.9781e-05
0.000889889 -8.55091e-05 4.84915e-07
-8.55091e-05 4.09966e-05 -3.19046e-07
4.84915e-07 -3.19046e-07 -5.07911e-05
0.00109666 -0.000104662 -9.72014e-07
-0.000104662 0.000106115 1.38931e-06
-9.72014e-07 1.38931e-06 -8.96476e-06
0.00169438 -9.60194e-05 1.40765e-07
-9.60194e-05 0.000174992 -2.44035e-07
1.40765e-07 -2.44035e-07 7.21799e-05
0.00151114 -6.61736e-05 -4.0302e-07
-6.61736e-05 1.25776e-05 1.53628e-06
-4.0302e-07 1.53628e-06 -7.53683e-05
0.00145244 -0.000100162 2.52607e-06
-0.000100162 9.34631e-05 1.16065e-06
2.52607e-06 1.16065e-06 -9.94917e-07
0.00127176 -0.000115575 -1.13695e-06
-0.000115575 0.000111357 -8.55541e-07
-1.13695e-06 -8.55541e-07 -8.28169e-06
0.00126434 -0.000105368 -2.2097e-07
-0.000105368 3.62744e-05 -5.88203e-06
-2.2097e-07 -5.88203e-06 -5.9616e-05
0.00106951 -9.04238e-05 -2.88201e-07
-9.04238e-05 0.000135912 -1.23061e-06
-2.88201e-07 -1.23061e-06 4.85124e-05
0.0010331 -8.58015e-05 -3.95707e-07
-8.58015e-05 0.000122933 -1.89722e-06
-3.95707e-07 -1.89722e-06 3.24028e-05
0.000953133 -2.83499e-05 -4.37484e-08
-2.83499e-05 7.79533e-05 2.2168e-07
-4.37484e-08 2.2168e-07 -1.09495e-06
0.000596787 2.78074e-05 -1.01434e-06
2.78074e-05 -0.000121541 1.69401e-06
-1.01434e-06 1.69401e-06 -0.000158806
0.000821388 3.06594e-05 -1.11259e-07
3.06594e-05 -4.84879e-06 4.09678e-07
-1.11259e-07 4.09678e-07 -6.28671e-05
0.00165353 6.1929e-06 -4.0827e-07
6.1929e-06 6.79182e-05 5.52009e-07
-4.0827e-07 5.52009e-07 -4.02511e-05
0.00170951 -6.20091e-06 -3.86132e-07
-6.20091e-06 0.000110087 -1.72798e-07
-3.86132e-07 -1.72798e-07 7.90517e-06
0.00176941 -4.58337e-05 -1.29538e-06
-4.58337e-05 0.000118884 -1.59384e-08
-1.29538e-06 -1.59384e-08 2.12591e-05
0.00103502 -9.00247e-05 -1.35067e-09
-9.00247e-05 0.000116616 2.04189e-07
-1.35067e-09 2.04189e-07 2.85943e-05
0.000784764 -8.45055e-05 1.0473e-06
-8.45055e-05 -1.3315e-05 -9.59943e-07
1.0473e-06 -9.59943e-07 -0.000114388
0.00114435 -0.00011398 -8.45583e-08
-0.00011398 0.000109938 -1.45815e-07
-8.45583e-08 -1.45815e-07 -1.97979e-05
0.00155167 -8.34876e-05 5.61035e-07
-8.34876e-05 5.73899e-05 -9.67508e-07
5.61035e-07 -9.67508e-07 -3.67521e-05
0.00151894 -0.000127009 -1.60084e-07
-0.000127009 0.000206647 -2.3438e-07
-1.60084e-07 -2.3438e-07 8.61209e-05
0.0015436 -0.00011087 -1.14101e-06
-0.00011087 0.000114142 -2.84525e-07
-1.14101e-06 -2.84525e-07 2.41491e-05
0.000613979 2.25227e-05 6.11972e-08
2.25227e-05 -0.000115659 -5.85872e-07
6.11972e-08 -5.85872e-07 -0.000150263
0.00102727 -8.90098e-05 4.07042e-08
-8.90098e-05 0.000115665 1.24713e-07
4.07042e-08 1.24713e-07 2.68196e-05
0.000951564 -8.48056e-05 -5.7813e-07
-8.48056e-05 7.738e-05 9.31193e-08
-5.7813e-07 9.31193e-08 -1.36613e-05
0.00106466 -6.5269e-05 -3.1499e-07
-6.5269e-05 0.00014319 8.02447e-07
-3.1499e-07 8.02447e-07 5.31573e-05
0.00102337 -2.55075e-05 9.34166e-09
-2.55075e-05 0.000111175 7.99415e-09
9.34166e-09 7.99415e-09 4.07186e-05
0.000875885 1.19528e-05 -2.02005e-07
1.19528e-05 2.56099e-05 1.8528e-07
-2.02005e-07 1.8528e-07 -2.89139e-05
0.00183302 6.91747e-06 -3.23942e-08
6.91747e-06 0.000147538 -1.12484e-06
-3.23942e-08 -1.12484e-06 4.2267e-05
0.00172708 -7.77404e-06 5.63788e-07
-7.77404e-06 9.04346e-05 5.37078e-07
5.63788e-07 5.37078e-07 -1.02554e-05
0.00141663 -5.35204e-05 2.45545e-06
-5.35204e-05 -7.01365e-05 -1.70152e-06
2.45545e-06 -1.70152e-06 -0.00017025
0.00171683 -0.000101657 4.91116e-07
-0.000101657 8.88416e-05 -1.91184e-06
4.91116e-07 -1.91184e-06 -1.5053e-06
0.000964246 -8.82671e-05 -6.69276e-07
-8.82671e-05 8.34852e-05 1.2502e-06
-6.69276e-07 1.2502e-06 -8.18219e-06
0.00158161 -0.000127443 2.94814e-06
-0.000127443 0.000162094 2.81148e-06
2.94814e-06 2.81148e-06 5.02388e-05
0.00069638 -8.72114e-05 -3.95828e-07
-8.72114e-05 -6.61238e-05 -2.51082e-06
-3.95828e-07 -2.51082e-06 -0.000186968
0.00147934 -0.00013328 1.10997e-06
-0.00013328 0.000261991 1.06095e-06
1.10997e-06 1.06095e-06 0.000120674
0.000628283 1.86578e-05 8.32406e-07
1.86578e-05 -0.000110301 -2.33328e-06
8.32406e-07 -2.33328e-06 -0.000142776
0.000993987 -5.25601e-07 1.05233e-06
-5.25601e-07 8.89086e-05 -7.51457e-07
1.05233e-06 -7.51457e-07 3.76729e-05
0.00106184 -2.55621e-05 2.27926e-07
-2.55621e-05 0.000130663 6.16585e-07
2.27926e-07 6.16585e-07 6.40921e-05
0.000990411 -3.15439e-05 4.21396e-07
-3.15439e-05 9.8769e-05 -8.04468e-07
4.21396e-07 -8.04468e-07 1.69455e-05
0.00105782 -9.03914e-05 -1.99213e-07
-9.03914e-05 0.000131345 2.05943e-06
-1.99213e-07 2.05943e-06 3.99716e-05
0.000972277 -8.7054e-05 -6.21398e-07
-8.7054e-05 8.98821e-05 2.73936e-06
-6.21398e-07 2.73936e-06 -4.85409e-06
0.000827268 -2.29807e-05 -1.41976e-06
-2.29807e-05 3.25219e-06 -1.88311e-06
-1.41976e-06 -1.88311e-06 -2.97115e-05
0.000876707 -2.15187e-05 -4.25262e-07
-2.15187e-05 2.99104e-05 -1.30984e-06
-4.25262e-07 -1.30984e-06 -2.51757e-05
0.00150084 8.89289e-05 4.56656e-07
8.89289e-05 7.94242e-05 1.4011e-06
4.56656e-07 1.4011e-06 -2.69207e-05
0.000927846 9.63354e-06 -4.42286e-07
9.63354e-06 6.55188e-05 -8.04924e-07
-4.42286e-07 -8.04924e-07 -9.16539e-06
0.000969341 8.36268e-05 -6.14286e-07
8.36268e-05 9.57282e-05 -2.76354e-07
-6.14286e-07 -2.76354e-07 4.20843e-06
0.000875034 4.97164e-05 -8.96288e-07
4.97164e-05 5.08402e-05 -3.72234e-07
-8.96288e-07 -3.72234e-07 -4.29494e-05
0.00128738 0.000112898 -1.08507e-06
0.000112898 0.000100163 -1.26658e-06
-1.08507e-06 -1.26658e-06 -4.95164e-06
0.00137644 0.000115188 1.25435e-06
0.000115188 6.54512e-05 1.06671e-06
1.25435e-06 1.06671e-06 -3.3053e-05
0.000640944 7.82678e-05 -6.68122e-07
7.82678e-05 -6.5341e-05 1.57895e-07
-6.68122e-07 1.57895e-07 -0.000180212
0.0012437 0.000115662 -2.18693e-06
0.000115662 0.000154938 5.49908e-07
-2.18693e-06 5.49908e-07 3.33819e-05
0.000868473 -1.68766e-05 -1.21263e-07
-1.68766e-05 2.4883e-05 9.62708e-08
-1.21263e-07 9.62708e-08 -2.52362e-05
0.000864212 3.96917e-06 9.65733e-08
3.96917e-06 2.83035e-05 5.49417e-07
9.65733e-08 5.49417e-07 -4.0696e-05
0.00108767 9.45919e-05 -6.98642e-08
9.45919e-05 0.000170182 -8.58793e-07
-6.98642e-08 -8.58793e-07 6.6501e-05
0.000900958 2.00553e-05 -1.51448e-07
2.00553e-05 5.82382e-05 -1.54071e-08
-1.51448e-07 -1.54071e-08 -2.86593e-05
0.000940802 6.36608e-05 -1.10904e-06
6.36608e-05 8.54939e-05 -8.23729e-07
-1.10904e-06 -8.23729e-07 -1.51583e-05
0.00176629 8.8595e-05 -1.5738e-06
8.8595e-05 0.000161346 -7.07618e-08
-1.5738e-06 -7.07618e-08 7.29786e-05
0.00159764 0.000135359 1.38568e-06
0.000135359 0.000247963 9.54934e-08
1.38568e-06 9.54934e-08 0.000135113
0.000827354 0.000105638 -7.22924e-07
0.000105638 -0.00022993 7.26996e-07
-7.22924e-07 7.26996e-07 -0.000320181
0.00123379 0.000107922 1.25386e-06
0.000107922 0.000229828 1.42515e-06
1.25386e-06 1.42515e-06 0.000105604
0.000635225 9.739e-05 -1.37248e-06
9.739e-05 -0.000159439 -6.22433e-07
-1.37248e-06 -6.22433e-07 -0.000296757
0.000814184 -5.79804e-06 4.25144e-07
-5.79804e-06 -3.52639e-07 1.36027e-06
4.25144e-07 1.36027e-06 -6.30283e-05
0.00081815 3.46729e-05 5.18019e-07
3.46729e-05 1.26707e-05 4.31619e-07
5.18019e-07 4.31619e-07 -7.14148e-05
0.00107812 9.50484e-05 1.2467e-06
9.50484e-05 0.000167783 -1.65832e-07
1.2467e-06 -1.65832e-07 5.45552e-05
0.000654157 4.81849e-05 6.51567e-07
4.81849e-05 -6.50743e-05 8.04699e-07
6.51567e-07 8.04699e-07 -0.00016766
0.00214202 6.21399e-05 -9.79137e-07
6.21399e-05 0.000286472 4.86496e-07
-9.79137e-07 4.86496e-07 0.000200991
0.00132018 0.000105068 2.16119e-06
0.000105068 -0.000101684 -8.36918e-07
2.16119e-06 -8.36918e-07 -0.000177511
0.00134325 0.000136014 2.0257e-06
0.000136014 0.000106311 -3.19695e-06
2.0257e-06 -3.19695e-06 -2.25754e-05
0.00042743 7.89952e-05 1.19888e-06
7.89952e-05 -0.000197149 1.63449e-06
1.19888e-06 1.63449e-06 -0.000346969
0.000878401 4.18537e-06 -5.28944e-07
4.18537e-06 3.20866e-05 -6.23348e-07
-5.28944e-07 -6.23348e-07 -1.69799e-05
0.000888872 -2.41847e-06 -6.70041e-08
-2.41847e-06 4.0486e-05 3.81164e-07
-6.70041e-08 3.81164e-07 -1.98756e-05
0.000966004 -5.15711e-06 3.05477e-07
-5.15711e-06 8.32487e-05 8.53978e-07
3.05477e-07 8.53978e-07 1.55199e-05
0.000881651 -1.15891e-05 -6.18234e-07
-1.15891e-05 2.90664e-05 -9.12678e-07
-6.18234e-07 -9.12678e-07 -1.54685e-05
0.000777113 -2.61549e-05 8.75699e-08
-2.61549e-05 -1.82667e-05 -9.70885e-07
8.75699e-08 -9.70885e-07 -7.59775e-05
0.000889082 -1.12356e-05 1.12984e-07
-1.12356e-05 3.09441e-05 3.29763e-08
1.12984e-07 3.29763e-08 -1.28477e-05
0.00095869 1.53723e-05 -1.22893e-07
1.53723e-05 8.42108e-05 -3.27353e-07
-1.22893e-07 -3.27353e-07 1.69842e-05
0.000841415 -1.30493e-05 1.55914e-07
-1.30493e-05 1.92882e-05 2.98257e-07
1.55914e-07 2.98257e-07 -3.90895e-05
0.000995207 3.5293e-06 4.13664e-07
3.5293e-06 0.000102856 4.35496e-07
4.13664e-07 4.35496e-07 3.12551e-05
0.000818997 -3.14772e-05 -1.98639e-07
-3.14772e-05 9.85692e-06 8.73559e-07
-1.98639e-07 8.73559e-07 -5.5661e-05
0.000788412 2.00531e-05 3.99994e-07
2.00531e-05 -8.42421e-06 9.48826e-07
3.99994e-07 9.48826e-07 -6.65298e-05
0.000902389 -2.12471e-06 1.41213e-07
-2.12471e-06 3.6611e-05 7.98452e-07
1.41213e-07 7.98452e-07 -6.91019e-06
0.000846066 5.71108e-06 6.60106e-07
5.71108e-06 -7.71738e-07 1.59673e-06
6.60106e-07 1.59673e-06 -2.75865e-05
0.000853345 -4.96217e-06 -2.65394e-07
-4.96217e-06 2.76519e-06 9.39175e-09
-2.65394e-07 9.39175e-09 -2.34403e-05
0.00132589 -1.11689e-05 1.00842e-06
-1.11689e-05 0.000246321 1.88324e-06
1.00842e-06 1.88324e-06 0.000249702
0.000848244 -1.36484e-05 -2.60794e-07
-1.36484e-05 1.31588e-06 -1.76315e-06
-2.60794e-07 -1.76315e-06 -2.48683e-05
0.00134067 -1.57638e-05 -2.36335e-06
-1.57638e-05 0.000256873 -1.18911e-06
-2.36335e-06 -1.18911e-06 0.000259959
0.00101845 -1.40767e-05 1.09436e-05
-1.40767e-05 8.69647e-05 6.2393e-06
1.09436e-05 6.2393e-06 0.000103942
0.00135531 -2.02795e-05 -5.7991e-06
-2.02795e-05 0.000268491 -4.34283e-06
-5.7991e-06 -4.34283e-06 0.000270777
0.000973613 -1.91318e-05 4.25158e-06
-1.91318e-05 6.72378e-05 2.36583e-06
4.25158e-06 2.36583e-06 8.34752e-05
0.00092016 -2.3567e-05 -2.32513e-06
-2.3567e-05 4.48506e-05 -1.62844e-06
-2.32513e-06 -1.62844e-06 5.94134e-05
0.000766422 2.25679e-05 1.2533e-06
2.25679e-05 -4.03883e-05 -3.29323e-06
1.2533e-06 -3.29323e-06 -4.40774e-05
0.00076923 2.62044e-05 -1.58223e-07
2.62044e-05 -3.36465e-05 2.09471e-08
-1.58223e-07 2.09471e-08 -3.96608e-05
0.00221399 3.82461e-05 1.95649e-05
3.82461e-05 0.000737445 -3.73392e-06
1.95649e-05 -3.73392e-06 0.000755932
0.000778806 2.97166e-05 -2.44214e-06
2.97166e-05 -2.32355e-05 3.34745e-06
-2.44214e-06 3.34745e-06 -3.15654e-05
0.00227204 4.41521e-05 -1.04055e-06
4.41521e-05 0.00077531 -7.40812e-08
-1.04055e-06 -7.40812e-08 0.000791894
0.00233221 4.93899e-05 -2.84611e-05
4.93899e-05 0.000814891 3.5619e-06
-2.84611e-05 3.5619e-06 0.000829495
0.00159822 6.45126e-05 1.50099e-06
6.45126e-05 8.63108e-05 2.03934e-06
1.50099e-06 2.03934e-06 -1.03943e-05
0.00159409 2.0057e-05 2.71654e-07
2.0057e-05 5.34993e-05 -1.69593e-07
2.71654e-07 -1.69593e-07 -4.53324e-05
0.00157914 3.48294e-05 1.93564e-06
3.48294e-05 3.97979e-05 -1.09446e-06
1.93564e-06 -1.09446e-06 -5.06961e-05
0.0016795 2.92641e-06 5.5597e-07
2.92641e-06 8.00733e-05 -1.09888e-06
5.5597e-07 -1.09888e-06 -2.13221e-05
0.00180046 6.72665e-06 5.87053e-07
6.72665e-06 0.000136148 -1.59134e-06
5.87053e-07 -1.59134e-06 2.49881e-05
0.00170568 3.16e-06 -1.25722e-06
3.16e-06 9.21184e-05 -1.54956e-07
-1.25722e-06 -1.54956e-07 -2.25216e-05
0.00178855 1.37074e-05 -2.72434e-07
1.37074e-05 0.000113483 -8.60341e-09
-2.72434e-07 -8.60341e-09 -4.68749e-07
0.00176161 -4.10522e-08 3.73111e-07
-4.10522e-08 0.000105452 -5.15911e-07
3.73111e-07 -5.15911e-07 -1.16946e-06
0.00168902 1.58844e-05 4.06458e-07
1.58844e-05 8.06459e-05 -9.04904e-08
4.06458e-07 -9.04904e-08 -1.56465e-05
0.00166959 5.13678e-05 -1.48163e-08
5.13678e-05 8.52615e-05 -1.80719e-07
-1.48163e-08 -1.80719e-07 -5.1352e-06
0.00180815 7.19303e-06 -1.34476e-06
7.19303e-06 0.000116931 2.36311e-07
-1.34476e-06 2.36311e-07 7.63828e-06
0.00184524 -3.84643e-06 -6.66226e-07
-3.84643e-06 0.000131857 2.9802e-07
-6.66226e-07 2.9802e-07 3.44959e-05
0.00179605 3.31602e-05 2.47372e-07
3.31602e-05 0.000121719 8.85004e-07
2.47372e-07 8.85004e-07 2.92459e-05
0.00166515 5.81755e-06 -5.85745e-07
5.81755e-06 7.74369e-05 1.75921e-06
-5.85745e-07 1.75921e-06 -2.96312e-05
0.00175336 -7.23651e-06 -1.04302e-06
-7.23651e-06 0.000134359 2.41631e-08
-1.04302e-06 2.41631e-08 3.17448e-05
0.00190666 -4.78939e-05 -1.33346e-06
-4.78939e-05 0.000191706 7.39291e-07
-1.33346e-06 7.39291e-07 9.51396e-05
0.00110911 -9.28704e-05 -3.12028e-07
-9.28704e-05 0.000152987 -5.74872e-07
-3.12028e-07 -5.74872e-07 6.48286e-05
0.00119171 -0.000102161 2.28563e-07
-0.000102161 0.000194059 1.81083e-07
2.28563e-07 1.81083e-07 9.35038e-05
0.0011395 -0.000112817 -1.73772e-06
-0.000112817 0.000111167 1.71855e-06
-1.73772e-06 1.71855e-06 -1.92897e-05
0.00173764 -8.69191e-05 -4.50939e-07
-8.69191e-05 0.000148095 2.295e-07
-4.50939e-07 2.295e-07 5.31278e-05
0.00116099 -0.000102871 -3.08053e-06
-0.000102871 -7.46342e-05 2.21444e-07
-3.08053e-06 2.21444e-07 -0.000164122
0.00146909 -0.000122862 -2.20794e-06
-0.000122862 0.000181299 -3.07168e-06
-2.20794e-06 -3.07168e-06 6.39678e-05
0.0010693 -9.0919e-05 1.75227e-07
-9.0919e-05 0.000136954 -1.65329e-06
1.75227e-07 -1.65329e-06 4.79379e-05
0.000911956 -8.25702e-05 -1.58349e-06
-8.25702e-05 5.79708e-05 -2.11583e-06
-1.58349e-06 -2.11583e-06 -3.23951e-05
0.00103696 -7.16441e-05 2.55933e-07
-7.16441e-05 0.000131643 6.96154e-09
2.55933e-07 6.96154e-09 3.96653e-05
0.000598902 2.38356e-05 -9.51371e-07
2.38356e-05 -0.000123574 1.08774e-06
-9.51371e-07 1.08774e-06 -0.000157935
0.00104795 -1.74046e-05 -3.89006e-08
-1.74046e-05 0.00012305 2.15399e-07
-3.89006e-08 2.15399e-07 5.35222e-05
0.000761946 2.49543e-05 -9.5727e-08
2.49543e-05 -3.60616e-05 1.02086e-06
-9.5727e-08 1.02086e-06 -9.01561e-05
0.00176749 7.094e-06 -6.66752e-08
7.094e-06 0.000113165 -5.89421e-07
-6.66752e-08 -5.89421e-07 6.76589e-06
0.00171783 -9.70647e-06 8.10384e-07
-9.70647e-06 8.59989e-05 -1.51227e-07
8.10384e-07 -1.51227e-07 -1.52415e-05
0.00161706 -5.57163e-05 4.16496e-07
-5.57163e-05 2.73133e-05 -6.74628e-07
4.16496e-07 -6.74628e-07 -7.30642e-05
0.00104198 -9.16938e-05 -6.34332e-09
-9.16938e-05 0.000121648 6.15701e-07
-6.34332e-09 6.15701e-07 2.95164e-05
0.00080319 -9.08986e-05 -1.79403e-07
-9.08986e-05 -5.43099e-06 2.57097e-07
-1.79403e-07 2.57097e-07 -0.000123764
0.00160872 -0.000138332 -1.75455e-06
-0.000138332 0.000325349 1.21118e-06
-1.75455e-06 1.21118e-06 0.000183815
0.00176447 -0.000104438 -1.17346e-06
-0.000104438 0.000121799 9.45144e-07
-1.17346e-06 9.45144e-07 3.15864e-05
0.00147314 -0.000123944 1.55407e-06
-0.000123944 0.000103894 -8.70739e-07
1.55407e-06 -8.70739e-07 -7.56559e-06
0.000731481 1.8681e-05 1.53118e-07
1.8681e-05 -5.60154e-05 -5.68091e-07
1.53118e-07 -5.68091e-07 -8.74594e-05
0.000978945 1.12187e-05 -3.15305e-07
1.12187e-05 8.07504e-05 1.64416e-07
-3.15305e-07 1.64416e-07 2.98932e-05
0.0008839 -8.26143e-05 -8.07932e-07
-8.26143e-05 4.18134e-05 2.21946e-07
-8.07932e-07 2.21946e-07 -4.89971e-05
0.00101203 -8.71298e-05 9.39418e-07
-8.71298e-05 0.000109436 5.93404e-07
9.39418e-07 5.93404e-07 1.62676e-05
0.000947552 -3.16587e-05 -6.66678e-08
-3.16587e-05 7.68122e-05 -2.93247e-07
-6.66678e-08 -2.93247e-07 -5.70849e-06
0.000998393 -2.19859e-05 -5.1848e-07
-2.19859e-05 9.73573e-05 8.52765e-07
-5.1848e-07 8.52765e-07 3.05814e-05
0.00176708 9.35824e-06 -2.57249e-06
9.35824e-06 9.80831e-05 -2.84873e-07
-2.57249e-06 -2.84873e-07 -2.96589e-06
0.00178119 -2.0406e-05 6.96463e-07
-2.0406e-05 9.61206e-05 1.32248e-06
6.96463e-07 1.32248e-06 -3.48421e-06
0.00178152 -7.74207e-05 2.11203e-06
-7.74207e-05 6.89227e-05 -2.81421e-06
2.11203e-06 -2.81421e-06 -2.45659e-05
0.00183735 -0.000130255 1.10057e-06
-0.000130255 0.000153292 -1.22175e-06
1.10057e-06 -1.22175e-06 6.20068e-05
0.000733177 -7.94136e-05 -1.47124e-06
-7.94136e-05 -1.96088e-05 9.02187e-07
-1.47124e-06 9.02187e-07 -0.000119257
0.001412 -0.000135774 -2.55168e-07
-0.000135774 0.000176871 3.24248e-06
-2.55168e-07 3.24248e-06 2.33095e-05
0.00162362 -0.000132583 6.89216e-07
-0.000132583 0.000402726 -2.39831e-06
6.89216e-07 -2.39831e-06 0.000266894
0.000852103 1.49817e-05 6.11859e-07
1.49817e-05 4.94742e-06 -1.65186e-06
6.11859e-07 -1.65186e-06 -2.34798e-05
0.00086369 -4.0438e-05 8.72875e-07
-4.0438e-05 2.57389e-05 -8.45964e-07
8.72875e-07 -8.45964e-07 -2.14238e-05
0.00075158 1.1068e-05 4.27292e-07
1.1068e-05 -3.65651e-05 -1.45214e-06
4.27292e-07 -1.45214e-06 -8.83367e-05
0.000961641 -2.66808e-05 8.21374e-07
-2.66808e-05 7.93016e-05 -1.04054e-07
8.21374e-07 -1.04054e-07 1.47194e-05
0.000963276 7.35048e-06 -1.71853e-07
7.35048e-06 8.07194e-05 -2.24259e-07
-1.71853e-07 -2.24259e-07 6.98611e-06
0.000869843 -8.44432e-05 2.07753e-06
-8.44432e-05 5.20047e-05 1.64063e-06
2.07753e-06 1.64063e-06 -4.63572e-05
0.000794589 -7.84341e-05 -1.65987e-06
-7.84341e-05 -2.09464e-05 2.12895e-06
-1.65987e-06 2.12895e-06 -0.000106344
0.00170398 -0.000122177 -1.18679e-06
-0.000122177 0.000480276 2.70353e-06
-1.18679e-06 2.70353e-06 0.000384187
0.000876249 -2.19159e-05 -4.42808e-07
-2.19159e-05 2.87437e-05 -1.19287e-06
-4.42808e-07 -1.19287e-06 -2.13996e-05
0.000912533 1.00895e-05 -4.47243e-07
1.00895e-05 5.36903e-05 -3.63312e-07
-4.47243e-07 -3.63312e-07 -1.52171e-05
0.00188118 8.98169e-05 5.98438e-07
8.98169e-05 0.000213795 6.29528e-07
5.98438e-07 6.29528e-07 0.000124386
0.000942972 2.30905e-05 -6.89002e-07
2.30905e-05 8.06317e-05 -6.54402e-07
-6.89002e-07 -6.54402e-07 -6.20655e-06
0.00105458 9.28895e-05 -9.27206e-07
9.28895e-05 0.000156069 -2.02547e-06
-9.27206e-07 -2.02547e-06 5.3298e-05
0.000860748 5.91523e-05 -1.92509e-06
5.91523e-05 4.68551e-05 -4.25736e-07
-1.92509e-06 -4.25736e-07 -5.40046e-05
0.00158575 0.000134119 -1.94111e-07
0.000134119 0.000235459 7.10463e-07
-1.94111e-07 7.10463e-07 0.000124078
0.00140983 0.000123875 1.44702e-06
0.000123875 7.74917e-05 4.05436e-06
1.44702e-06 4.05436e-06 -8.14552e-06
0.000896664 9.32833e-05 -3.36282e-07
9.32833e-05 5.79456e-05 4.94453e-07
-3.36282e-07 4.94453e-07 -6.62504e-05
0.0011343 0.00011932 -4.43789e-06
0.00011932 9.45417e-05 -9.93196e-07
-4.43789e-06 -9.93196e-07 -4.82891e-05
0.000816644 4.88047e-06 2.16107e-07
4.88047e-06 2.61823e-06 4.7797e-07
2.16107e-07 4.7797e-07 -6.18468e-05
0.000864185 4.11357e-05 -1.46e-07
4.11357e-05 3.78281e-05 -7.48851e-07
-1.46e-07 -7.48851e-07 -4.63801e-05
0.00108648 9.55459e-05 -5.10421e-07
9.55459e-05 0.000174087 -1.00895e-06
-5.10421e-07 -1.00895e-06 6.12829e-05
0.000881897 5.5974e-05 -2.71386e-07
5.5974e-05 5.27581e-05 -2.25086e-07
-2.71386e-07 -2.25086e-07 -4.96974e-05
0.00204754 5.85187e-05 -1.29959e-07
5.85187e-05 0.000232262 1.17508e-06
-1.29959e-07 1.17508e-06 0.000144613
0.00141432 0.000107086 1.70731e-06
0.000107086 -4.17904e-05 -1.36793e-06
1.70731e-06 -1.36793e-06 -0.000118562
0.00175281 0.000150238 -2.18613e-06
0.000150238 0.000310803 -1.92346e-07
-2.18613e-06 -1.92346e-07 0.000184642
0.000723507 9.48859e-05 9.20849e-07
9.48859e-05 -5.58743e-05 3.91763e-07
9.20849e-07 3.91763e-07 -0.000204502
0.00095994 7.58457e-06 4.05696e-07
7.58457e-06 8.07481e-05 5.41926e-07
4.05696e-07 5.41926e-07 8.53588e-06
0.00159894 2.50805e-05 -2.19439e-06
2.50805e-05 2.10548e-06 -1.3913e-06
-2.19439e-06 -1.3913e-06 -8.00327e-05
0.00112604 8.19174e-05 4.73296e-07
8.19174e-05 0.000188012 1.62281e-06
4.73296e-07 1.62281e-06 8.85377e-05
0.00108745 9.8217e-05 9.76819e-07
9.8217e-05 0.000155637 1.43425e-06
9.76819e-07 1.43425e-06 3.36425e-05
0.00219474 8.83109e-05 9.63104e-07
8.83109e-05 0.000241565 -2.05393e-07
9.63104e-07 -2.05393e-07 0.000171338
0.00159957 0.000148497 4.19512e-06
0.000148497 9.06022e-05 -4.02241e-06
4.19512e-06 -4.02241e-06 -1.88835e-05
0.00170348 0.00014575 8.78013e-07
0.00014575 0.000396009 1.79777e-06
8.78013e-07 1.79777e-06 0.000232459
0.000977197 3.89429e-07 -1.02475e-06
3.89429e-07 8.59418e-05 -4.24251e-07
-1.02475e-06 -4.24251e-07 2.65751e-05
0.000966869 -5.56688e-06 -3.57449e-08
-5.56688e-06 8.37052e-05 5.26574e-08
-3.57449e-08 5.26574e-08 1.59492e-05
0.000964892 6.25138e-07 4.34168e-07
6.25138e-07 8.71113e-05 9.97041e-07
4.34168e-07 9.97041e-07 1.14244e-05
0.000884809 -1.2312e-05 -1.29437e-07
-1.2312e-05 2.93742e-05 -8.87281e-07
-1.29437e-07 -8.87281e-07 -1.48161e-05
0.000882186 -5.0326e-06 7.08159e-08
-5.0326e-06 4.14395e-05 -1.23577e-07
7.08159e-08 -1.23577e-07 -1.72085e-05
0.00087481 7.06054e-06 -3.76441e-07
7.06054e-06 4.02913e-05 -1.116e-06
-3.76441e-07 -1.116e-06 -2.81041e-05
0.000892636 -1.7905e-05 -1.08193e-07
-1.7905e-05 3.29262e-05 2.33245e-08
-1.08193e-07 2.33245e-08 -1.15117e-05
0.000804775 -1.42808e-05 -4.41832e-07
-1.42808e-05 -1.23807e-06 3.70482e-07
-4.41832e-07 3.70482e-07 -5.85244e-05
0.000963811 -9.56374e-06 2.25425e-07
-9.56374e-06 8.54003e-05 -3.85016e-07
2.25425e-07 -3.85016e-07 1.31409e-05
0.00092234 3.49075e-06 7.83857e-08
3.49075e-06 6.64292e-05 4.67721e-07
7.83857e-08 4.67721e-07 7.60074e-08
0.00096034 5.84738e-06 4.76586e-07
5.84738e-06 8.44688e-05 3.06236e-08
4.76586e-07 3.06236e-08 7.63527e-06
0.000851768 -2.65858e-05 8.18511e-08
-2.65858e-05 2.70649e-05 7.62219e-07
8.18511e-08 7.62219e-07 -4.45949e-05
0.000964291 1.09356e-05 3.31441e-07
1.09356e-05 8.59047e-05 2.45161e-07
3.31441e-07 2.45161e-07 2.22661e-05
0.000900213 7.94653e-06 9.48341e-07
7.94653e-06 4.90387e-05 5.71244e-07
9.48341e-07 5.71244e-07 -8.75519e-06
0.000898754 2.35028e-06 2.16473e-07
2.35028e-06 3.49034e-05 7.50174e-07
2.16473e-07 7.50174e-07 -9.17733e-06
0.000843113 9.35112e-06 3.9584e-07
9.35112e-06 -1.35067e-06 1.57413e-06
3.9584e-07 1.57413e-06 -2.88689e-05
0.00084908 -1.29737e-06 -1.61557e-07
-1.29737e-06 8.43672e-07 2.36801e-09
-1.61557e-07 2.36801e-09 -2.59863e-05
0.00133219 -5.47216e-06 7.59295e-07
-5.47216e-06 0.000248379 1.8436e-06
7.59295e-07 1.8436e-06 0.000251537
0.000854047 -1.17253e-05 -2.18504e-07
-1.17253e-05 3.25428e-06 -1.63056e-06
-2.18504e-07 -1.63056e-06 -2.30077e-05
0.0013491 -1.01357e-05 -1.73834e-06
-1.01357e-05 0.000258939 -1.20987e-06
-1.73834e-06 -1.20987e-06 0.000262155
0.00102544 -9.7536e-06 8.05961e-06
-9.7536e-06 8.81232e-05 6.31475e-06
8.05961e-06 6.31475e-06 0.000105274
0.00136223 -1.49369e-05 -4.28704e-06
-1.49369e-05 0.000268312 -4.28322e-06
-4.28704e-06 -4.28322e-06 0.000271303
0.000982598 -1.46873e-05 2.9816e-06
-1.46873e-05 6.75583e-05 2.38569e-06
2.9816e-06 2.38569e-06 8.46173e-05
0.000928088 -1.92566e-05 -1.71594e-06
-1.92566e-05 4.30995e-05 -1.58351e-06
-1.71594e-06 -1.58351e-06 5.93962e-05
0.000847664 1.11788e-05 3.30838e-07
1.11788e-05 1.9773e-07 -1.5988e-06
3.30838e-07 -1.5988e-06 -2.60803e-05
0.000777922 1.84173e-05 1.00282e-06
1.84173e-05 -3.94358e-05 -3.19286e-06
1.00282e-06 -3.19286e-06 -4.10209e-05
0.000781577 2.28347e-05 -1.26895e-07
2.28347e-05 -3.25032e-05 2.61187e-08
-1.26895e-07 2.61187e-08 -3.62797e-05
0.00215967 3.19587e-05 1.62706e-05
3.19587e-05 0.000703066 -3.78213e-06
1.62706e-05 -3.78213e-06 0.000723197
0.000785385 2.64482e-05 -2.02063e-06
2.64482e-05 -2.51932e-05 3.30436e-06
-2.02063e-06 3.30436e-06 -3.12922e-05
0.00222168 3.82985e-05 -1.26058e-06
3.82985e-05 0.000742351 -6.73077e-08
-1.26058e-06 -6.73077e-08 0.000760641
0.00227499 4.39386e-05 -2.49882e-05
4.39386e-05 0.000777747 3.68095e-06
-2.49882e-05 3.68095e-06 0.000794179
0.00146987 4.62547e-05 7.19229e-07
4.62547e-05 -1.76399e-05 -2.72724e-07
7.19229e-07 -2.72724e-07 -0.000107783
0.00167476 1.61689e-05 6.1847e-07
1.61689e-05 7.30918e-05 -4.35174e-07
6.1847e-07 -4.35174e-07 -2.30751e-05
0.00176555 -2.21221e-07 8.79753e-07
-2.21221e-07 0.000107841 -1.5535e-06
8.79753e-07 -1.5535e-06 1.2506e-06
0.00174929 1.52489e-05 2.35237e-07
1.52489e-05 9.89532e-05 1.79061e-07
2.35237e-07 1.79061e-07 -1.35359e-05
0.00181036 7.87077e-06 5.24404e-08
7.87077e-06 0.000116275 3.84299e-07
5.24404e-08 3.84299e-07 6.85716e-06
0.00182233 -3.0715e-06 1.22544e-07
-3.0715e-06 0.000118527 -1.60775e-07
1.22544e-07 -1.60775e-07 2.05149e-05
0.00172601 3.3374e-05 3.51566e-07
3.3374e-05 8.63442e-05 4.01709e-07
3.51566e-07 4.01709e-07 -6.11759e-06
0.00182157 -1.00708e-06 -1.53603e-06
-1.00708e-06 0.000111565 5.24202e-07
-1.53603e-06 5.24202e-07 1.18445e-05
0.00184827 7.56025e-06 -2.56422e-06
7.56025e-06 0.000127305 1.51555e-07
-2.56422e-06 1.51555e-07 3.78679e-05
0.00181476 4.54337e-06 -9.69356e-07
4.54337e-06 8.98727e-05 2.66399e-07
-9.69356e-07 2.66399e-07 1.51873e-05
0.00175844 7.69752e-06 9.15717e-07
7.69752e-06 0.000106852 5.20437e-07
9.15717e-07 5.20437e-07 -5.48744e-07
0.00173443 -1.16464e-05 -7.09027e-07
-1.16464e-05 9.46146e-05 -8.25676e-07
-7.09027e-07 -8.25676e-07 -7.16405e-06
0.00182007 -5.79289e-05 -1.88154e-06
-5.79289e-05 0.000126892 -2.57821e-07
-1.88154e-06 -2.57821e-07 2.612e-05
0.0011128 -9.48142e-05 -9.54079e-08
-9.48142e-05 0.000156288 2.78058e-07
-9.54079e-08 2.78058e-07 6.3712e-05
0.000870872 -9.30113e-05 4.48791e-07
-9.30113e-05 3.46789e-05 2.86707e-06
4.48791e-07 2.86707e-06 -8.09756e-05
0.00162086 -0.000138246 -2.55432e-06
-0.000138246 0.000327994 2.49083e-06
-2.55432e-06 2.49083e-06 0.000187419
0.00181034 -0.000107068 2.61385e-06
-0.000107068 0.000154311 3.01661e-06
2.61385e-06 3.01661e-06 6.42891e-05
0.00128613 -0.000117572 -2.30784e-06
-0.000117572 5.96344e-06 -2.31476e-06
-2.30784e-06 -2.31476e-06 -0.000104917
0.000704056 -7.46656e-05 -1.18214e-06
-7.46656e-05 -5.10368e-05 -9.14919e-07
-1.18214e-06 -9.14919e-07 -0.000141236
0.00108808 -8.9565e-05 2.03222e-06
-8.9565e-05 0.000147612 -2.76476e-06
2.03222e-06 -2.76476e-06 5.5767e-05
0.000908635 6.32454e-07 -2.78698e-08
6.32454e-07 5.1878e-05 -3.70739e-07
-2.78698e-08 -3.70739e-07 -2.78605e-05
0.000838673 1.83319e-05 -7.80339e-07
1.83319e-05 2.02571e-07 1.13399e-06
-7.80339e-07 1.13399e-06 -3.01916e-05
0.000967304 2.5719e-05 -6.09657e-07
2.5719e-05 7.47044e-05 1.01339e-06
-6.09657e-07 1.01339e-06 2.39742e-05
0.000938466 -1.10983e-05 -5.85176e-07
-1.10983e-05 6.6288e-05 1.14096e-06
-5.85176e-07 1.14096e-06 -9.73508e-07
0.00180743 9.76271e-06 2.95357e-07
9.76271e-06 0.000118989 -3.73913e-08
2.95357e-07 -3.73913e-08 1.91685e-05
0.000850925 1.41952e-05 1.06464e-08
1.41952e-05 3.94806e-06 1.21761e-08
1.06464e-08 1.21761e-08 -2.4436e-05
0.000796142 -3.54806e-06 -3.32631e-07
-3.54806e-06 -1.31911e-05 6.67119e-08
-3.32631e-07 6.67119e-08 -5.85757e-05
0.00181478 -2.11608e-05 -1.13406e-07
-2.11608e-05 0.000112225 -5.16675e-07
-1.13406e-07 -5.16675e-07 1.19769e-05
0.00172053 -7.71416e-05 -4.80498e-08
-7.71416e-05 4.38552e-05 -5.52884e-07
-4.80498e-08 -5.52884e-07 -5.2603e-05
0.000776094 -8.07249e-05 1.18118e-07
-8.07249e-05 4.9594e-06 1.67034e-06
1.18118e-07 1.67034e-06 -9.30171e-05
0.00137261 -0.000121473 -7.64067e-07
-0.000121473 0.000273765 3.83298e-07
-7.64067e-07 3.83298e-07 0.000133712
0.00124844 -0.000127074 8.69288e-07
-0.000127074 8.7294e-05 1.01316e-06
8.69288e-07 1.01316e-06 -5.94754e-05
0.00176979 -0.000129368 4.54999e-07
-0.000129368 0.000124592 -1.11649e-07
4.54999e-07 -1.11649e-07 3.37405e-05
0.000931565 -1.07936e-05 9.54367e-07
-1.07936e-05 5.82344e-05 -4.7956e-07
9.54367e-07 -4.7956e-07 8.04163e-06
0.000941061 -1.43586e-05 -4.38762e-07
-1.43586e-05 6.974e-05 4.30967e-07
-4.38762e-07 4.30967e-07 4.51334e-06
0.000921165 -8.41357e-05 3.5271e-07
-8.41357e-05 4.12891e-05 5.03146e-07
3.5271e-07 5.03146e-07 -4.63886e-05
0.00125618 -0.000102124 5.99929e-07
-0.000102124 0.000246837 -9.83199e-07
5.99929e-07 -9.83199e-07 0.000157569
0.000819662 -6.09068e-05 -1.6281e-09
-6.09068e-05 2.4206e-05 2.94308e-07
-1.6281e-09 2.94308e-07 -7.34011e-05
0.000955429 3.50162e-06 4.14373e-08
3.50162e-06 7.74485e-05 -2.34215e-07
4.14373e-08 -2.34215e-07 2.70849e-06
0.00175596 6.94217e-06 -2.82408e-06
6.94217e-06 7.30264e-05 -3.57794e-08
-2.82408e-06 -3.57794e-08 -1.30191e-05
0.00208093 -2.82224e-05 7.03795e-07
-2.82224e-05 0.000227552 2.32385e-06
7.03795e-07 2.32385e-06 0.000127416
0.00172625 -0.000113679 -2.5773e-06
-0.000113679 -1.10064e-05 -4.31049e-06
-2.5773e-06 -4.31049e-06 -8.69686e-05
0.00135458 -0.000138274 7.8941e-07
-0.000138274 5.57411e-06 1.68104e-06
7.8941e-07 1.68104e-06 -0.000110864
0.00111907 -8.5971e-05 -2.32064e-06
-8.5971e-05 0.000175264 -5.93461e-07
-2.32064e-06 -5.93461e-07 7.36597e-05
0.00176152 -0.000153546 -1.56167e-06
-0.000153546 0.000444447 -5.5782e-07
-1.56167e-06 -5.5782e-07 0.000274151
0.000712959 3.33116e-05 -9.40301e-07
3.33116e-05 -5.5919e-05 -1.25787e-06
-9.40301e-07 -1.25787e-06 -0.000100601
0.000863959 -1.67975e-05 5.56721e-07
-1.67975e-05 2.16305e-05 -9.71015e-07
5.56721e-07 -9.71015e-07 -2.51651e-05
0.00107466 -3.02928e-05 4.34724e-07
-3.02928e-05 0.00014652 -3.08146e-07
4.34724e-07 -3.08146e-07 8.77226e-05
0.000793648 1.83185e-05 -6.2904e-07
1.83185e-05 -3.52357e-06 -7.66665e-07
-6.2904e-07 -7.66665e-07 -7.04469e-05
0.00108069 -4.86246e-06 1.35844e-07
-4.86246e-06 0.000145122 -7.26895e-08
1.35844e-07 -7.26895e-08 7.36749e-05
0.000726568 -1.11291e-05 1.63073e-07
-1.11291e-05 -2.75515e-05 6.86967e-07
1.63073e-07 6.86967e-07 -0.000112532
0.00115327 -6.85014e-05 4.29068e-06
-6.85014e-05 0.000211468 3.2078e-07
4.29068e-06 3.2078e-07 0.00010536
0.000856236 -8.85675e-05 -5.18085e-06
-8.85675e-05 2.88277e-05 2.50789e-06
-5.18085e-06 2.50789e-06 -5.6438e-05
0.000814325 1.65627e-05 -3.88457e-07
1.65627e-05 3.0056e-06 -4.36922e-07
-3.88457e-07 -4.36922e-07 -6.32507e-05
0.000907579 4.35864e-05 -1.38925e-06
4.35864e-05 6.12067e-05 -1.70601e-06
-1.38925e-06 -1.70601e-06 -2.28326e-05
0.00194611 5.47722e-05 1.32989e-06
5.47722e-05 0.000174877 8.3253e-07
1.32989e-06 8.3253e-07 8.50116e-05
0.00154974 0.00010992 -2.784e-07
0.00010992 3.94369e-05 8.83987e-07
-2.784e-07 8.83987e-07 -3.82654e-05
0.00110535 6.06534e-05 -1.9695e-06
6.06534e-05 0.000167933 -1.06991e-06
-1.9695e-06 -1.06991e-06 6.58752e-05
0.00106455 9.45091e-05 -2.06739e-06
9.45091e-05 0.000164024 -2.20455e-06
-2.06739e-06 -2.20455e-06 5.1868e-05
0.00218936 0.000165584 -2.17853e-06
0.000165584 0.000530031 2.00166e-06
-2.17853e-06 2.00166e-06 0.000406401
0.00104705 0.000111891 -1.92859e-06
0.000111891 0.000100255 -9.08998e-07
-1.92859e-06 -9.08998e-07 -4.74157e-05
0.000943931 1.95537e-05 4.21078e-08
1.95537e-05 7.49551e-05 -4.93147e-07
4.21078e-08 -4.93147e-07 1.32153e-06
0.00174872 2.44444e-05 -7.76082e-07
2.44444e-05 7.748e-05 5.12657e-08
-7.76082e-07 5.12657e-08 -4.35859e-06
0.000993947 6.88814e-05 1.54101e-07
6.88814e-05 0.000117481 7.47014e-07
1.54101e-07 7.47014e-07 1.98652e-05
0.000908344 8.92027e-05 1.2465e-08
8.92027e-05 6.48022e-05 -1.86281e-07
1.2465e-08 -1.86281e-07 -5.87134e-05
0.00184719 8.23654e-05 1.30061e-06
8.23654e-05 7.166e-05 -2.91998e-07
1.30061e-06 -2.91998e-07 9.6948e-07
0.00189424 0.000159262 7.68831e-07
0.000159262 0.000232191 -4.93479e-07
7.68831e-07 -4.93479e-07 0.000123577
0.00168268 0.000146252 4.20121e-07
0.000146252 0.000392123 8.98164e-07
4.20121e-07 8.98164e-07 0.000230192
0.00101945 3.32579e-05 6.59221e-08
3.32579e-05 0.000123722 9.86408e-07
6.59221e-08 9.86408e-07 3.70514e-05
0.00227763 4.78219e-05 -2.66746e-06
4.78219e-05 0.000297943 -7.31428e-07
-2.66746e-06 -7.31428e-07 0.000233248
0.00152363 9.98326e-05 -9.64982e-07
9.98326e-05 0.000377678 4.29156e-07
-9.64982e-07 4.29156e-07 0.000269971
0.0018321 0.000140036 -1.59684e-06
0.000140036 0.000525377 1.4181e-06
-1.59684e-06 1.4181e-06 0.000382543
0.00200823 0.000157121 4.34662e-06
0.000157121 0.000119347 -1.72848e-06
4.34662e-06 -1.72848e-06 6.06775e-05
0.00101626 0.000127485 -3.55915e-07
0.000127485 -3.93645e-05 -3.98327e-07
-3.55915e-07 -3.98327e-07 -0.000191755
0.000706062 6.0067e-05 1.27232e-05
6.0067e-05 -0.000264263 1.68862e-06
1.27232e-05 1.68862e-06 -0.000345745
0.000972693 -3.93904e-06 -3.12654e-07
-3.93904e-06 8.67044e-05 -7.74967e-07
-3.12654e-07 -7.74967e-07 1.89058e-05
0.000964581 2.11255e-06 4.96425e-08
2.11255e-06 8.7175e-05 -2.25707e-08
4.96425e-08 -2.25707e-08 1.13873e-05
0.000994422 1.82388e-05 2.81034e-07
1.82388e-05 0.00010073 2.40598e-07
2.81034e-07 2.40598e-07 1.90377e-05
0.000881748 -2.63344e-05 2.63246e-08
-2.63344e-05 2.8117e-05 -8.1399e-07
2.63246e-08 -8.1399e-07 -1.69025e-05
0.000810827 -3.94393e-05 -4.15271e-07
-3.94393e-05 2.28955e-06 -2.16862e-07
-4.15271e-07 -2.16862e-07 -5.52526e-05
0.00101811 4.04127e-05 -7.95487e-07
4.04127e-05 0.000119523 -1.08665e-07
-7.95487e-07 -1.08665e-07 5.21097e-05
0.000937074 -1.2018e-05 -2.66069e-08
-1.2018e-05 7.08256e-05 -1.05908e-06
-2.66069e-08 -1.05908e-06 -2.41828e-06
0.000882701 -1.62484e-05 -2.12387e-07
-1.62484e-05 2.92796e-05 3.58385e-08
-2.12387e-07 3.58385e-08 -1.66689e-05
0.000833907 -2.051e-06 1.79796e-07
-2.051e-06 1.07212e-05 1.21634e-08
1.79796e-07 1.21634e-08 -4.52689e-05
0.000939269 2.26755e-06 2.27426e-07
2.26755e-06 7.30914e-05 -5.87834e-07
2.27426e-07 -5.87834e-07 -3.91078e-06
0.000964138 -1.12879e-05 -2.15362e-07
-1.12879e-05 8.53897e-05 -1.5225e-07
-2.15362e-07 -1.5225e-07 2.16731e-05
0.000941341 -1.97593e-05 1.86697e-07
-1.97593e-05 7.43971e-05 -1.66561e-08
1.86697e-07 -1.66561e-08 3.38262e-06
0.000933999 -2.97027e-06 -8.46577e-08
-2.97027e-06 6.89797e-05 4.12224e-07
-8.46577e-08 4.12224e-07 -7.32918e-06
0.000948791 1.97966e-06 4.49822e-07
1.97966e-06 7.87456e-05 -1.69232e-08
4.49822e-07 -1.69232e-08 1.19759e-05
0.00100605 8.46883e-06 5.67799e-07
8.46883e-06 0.000102367 -1.35587e-07
5.67799e-07 -1.35587e-07 4.04536e-05
0.00082708 7.4053e-06 -1.80062e-07
7.4053e-06 6.59399e-06 6.03472e-07
-1.80062e-07 6.03472e-07 -5.24123e-05
0.000756542 6.27236e-06 3.2412e-07
6.27236e-06 -4.03157e-05 1.22734e-06
3.2412e-07 1.22734e-06 -8.6245e-05
0.00103648 -4.84704e-06 2.80588e-07
-4.84704e-06 0.000123887 6.44615e-08
2.80588e-07 6.44615e-08 6.34819e-05
0.000747708 5.48041e-06 -3.9983e-07
5.48041e-06 -4.28439e-05 1.21301e-06
-3.9983e-07 1.21301e-06 -8.94871e-05
0.000844747 1.19298e-05 2.43762e-07
1.19298e-05 7.85373e-08 1.57814e-06
2.43762e-07 1.57814e-06 -2.77971e-05
0.000843267 1.62843e-06 -2.33304e-07
1.62843e-06 -1.28684e-06 3.8187e-09
-2.33304e-07 3.8187e-09 -2.87723e-05
0.0007926 5.01388e-07 2.41735e-07
5.01388e-07 -3.91696e-05 3.06359e-06
2.41735e-07 3.06359e-06 -3.93413e-05
0.000852574 -8.52673e-06 7.74282e-08
-8.52673e-06 2.72669e-06 -1.57072e-06
7.74282e-08 -1.57072e-06 -2.41223e-05
0.00107643 -4.33354e-06 -1.0819e-06
-4.33354e-06 0.000112295 -1.25022e-06
-1.0819e-06 -1.25022e-06 0.000113865
0.00211557 -6.74953e-06 4.92097e-06
-6.74953e-06 0.000667304 3.96832e-06
4.92097e-06 3.96832e-06 0.000690345
0.00137148 -9.47215e-06 -2.69384e-06
-9.47215e-06 0.000271081 -4.26922e-06
-2.69384e-06 -4.26922e-06 0.000274108
0.00099184 -1.00368e-05 1.62269e-06
-1.00368e-05 6.95541e-05 2.4218e-06
1.62269e-06 2.4218e-06 8.69005e-05
0.000943025 -1.45242e-05 -1.22812e-06
-1.45242e-05 4.6259e-05 -1.55486e-06
-1.22812e-06 -1.55486e-06 6.34973e-05
0.000855583 7.50763e-06 2.42635e-07
7.50763e-06 2.95925e-06 -1.58529e-06
2.42635e-07 -1.58529e-06 -2.17168e-05
0.000853212 1.059e-05 -3.64079e-08
1.059e-05 2.8419e-06 1.08082e-08
-3.64079e-08 1.08082e-08 -2.34493e-05
0.000786273 1.39912e-05 5.75722e-07
1.39912e-05 -3.91056e-05 -3.14419e-06
5.75722e-07 -3.14419e-06 -3.90248e-05
0.00107145 2.05169e-05 -4.78724e-07
2.05169e-05 0.000116872 3.10386e-08
-4.78724e-07 3.10386e-08 0.000116602
0.00211818 2.5443e-05 1.33328e-05
2.5443e-05 0.000676255 -3.84638e-06
1.33328e-05 -3.84638e-06 0.000697779
0.000796502 2.31091e-05 -1.49342e-06
2.31091e-05 -2.4726e-05 3.27559e-06
-1.49342e-06 3.27559e-06 -2.859e-05
0.0021674 3.21736e-05 -1.33162e-06
3.21736e-05 0.000707901 -5.98553e-08
-1.33162e-06 -5.98553e-08 0.000727823
0.0022311 3.82903e-05 -2.16531e-05
3.82903e-05 0.000748164 3.76926e-06
-2.16531e-05 3.76926e-06 0.00076626
0.00163939 3.36211e-05 -2.43541e-07
3.36211e-05 4.26363e-05 4.97707e-07
-2.43541e-07 4.97707e-07 -4.98278e-05
0.00178819 -1.42443e-06 1.21437e-06
-1.42443e-06 9.95252e-05 -8.19871e-07
1.21437e-06 -8.19871e-07 8.36443e-07
0.00178853 4.37578e-06 8.37682e-07
4.37578e-06 0.000103853 4.31906e-07
8.37682e-07 4.31906e-07 -5.79898e-06
0.00180411 2.37115e-06 1.89596e-07
2.37115e-06 0.000102184 4.27449e-07
1.89596e-07 4.27449e-07 2.36261e-06
0.00179897 7.64182e-06 -1.60072e-07
7.64182e-06 0.000101527 -1.44758e-08
-1.60072e-07 -1.44758e-08 1.13387e-05
0.00180129 1.97708e-06 1.64952e-06
1.97708e-06 9.88017e-05 2.25846e-08
1.64952e-06 2.25846e-08 2.56043e-05
0.00171747 8.15004e-06 -2.13988e-06
8.15004e-06 4.48678e-05 1.3515e-07
-2.13988e-06 1.3515e-07 -3.72749e-05
0.0037928 -7.53182e-05 4.05287e-06
-7.53182e-05 0.00101901 -1.66527e-06
4.05287e-06 -1.66527e-06 0.000970695
0.00140629 3.2155e-06 -9.4399e-07
3.2155e-06 -0.000150991 8.61452e-08
-9.4399e-07 8.61452e-08 -0.000213014
0.000886475 1.69576e-05 1.02243e-07
1.69576e-05 3.25161e-05 -7.35086e-07
1.02243e-07 -7.35086e-07 -8.51862e-06
0.00179959 9.86102e-06 1.64138e-06
9.86102e-06 0.000115519 -4.41757e-07
1.64138e-06 -4.41757e-07 1.68843e-05
0.00182061 -2.19629e-05 -1.38209e-06
-2.19629e-05 0.000113324 -1.72143e-06
-1.38209e-06 -1.72143e-06 1.25725e-05
0.00166384 -7.64438e-05 1.4899e-06
-7.64438e-05 2.0692e-05 1.12816e-06
1.4899e-06 1.12816e-06 -7.8099e-05
0.000851816 -8.34462e-05 1.55181e-06
-8.34462e-05 4.65112e-05 9.47605e-07
1.55181e-06 9.47605e-07 -4.99204e-05
0.00117388 -0.000112491 3.3852e-07
-0.000112491 0.000173573 2.92453e-06
3.3852e-07 2.92453e-06 2.71375e-05
0.00116587 -0.000122328 1.06242e-06
-0.000122328 4.14956e-05 -1.02566e-06
1.06242e-06 -1.02566e-06 -0.000100512
0.00178818 -0.00013091 -4.9793e-07
-0.00013091 0.000139263 -8.55526e-07
-4.9793e-07 -8.55526e-07 4.85471e-05
0.00106364 -8.94625e-05 3.35523e-06
-8.94625e-05 0.000112001 -2.89521e-06
3.35523e-06 -2.89521e-06 2.21098e-05
0.000738678 -7.93e-05 -2.59951e-06
-7.93e-05 -2.24436e-05 -6.78785e-06
-2.59951e-06 -6.78785e-06 -0.00010468
0.000727646 -5.64652e-05 3.56825e-07
-5.64652e-05 -2.26009e-05 4.30647e-07
3.56825e-07 4.30647e-07 -0.000120982
0.000852023 1.36058e-05 -7.39129e-07
1.36058e-05 4.23609e-06 1.70402e-06
-7.39129e-07 1.70402e-06 -2.41295e-05
0.000949459 -6.67861e-06 -4.38207e-08
-6.67861e-06 7.47662e-05 -5.17361e-07
-4.38207e-08 -5.17361e-07 -8.79909e-07
0.00111391 -3.42923e-05 -4.46739e-07
-3.42923e-05 0.000156417 5.09086e-07
-4.46739e-07 5.09086e-07 0.000106358
0.00092543 -3.34002e-06 -4.69979e-07
-3.34002e-06 6.2227e-05 1.04028e-06
-4.69979e-07 1.04028e-06 -3.33008e-06
0.000723576 5.47322e-06 1.80631e-07
5.47322e-06 -5.3865e-05 7.99898e-07
1.80631e-07 7.99898e-07 -9.80625e-05
0.00176606 6.18401e-06 -5.04991e-07
6.18401e-06 8.10486e-05 -1.66176e-07
-5.04991e-07 -1.66176e-07 -4.58898e-06
0.000799471 1.19813e-05 2.21067e-07
1.19813e-05 -1.05726e-05 -4.92494e-07
2.21067e-07 -4.92494e-07 -5.46989e-05
0.000872431 -2.35025e-05 -4.17173e-07
-2.35025e-05 2.80546e-05 2.33714e-08
-4.17173e-07 2.33714e-08 -2.03117e-05
0.000913034 -1.10349e-05 -7.36497e-07
-1.10349e-05 6.17455e-05 4.70544e-07
-7.36497e-07 4.70544e-07 1.49935e-06
0.00185134 -2.81567e-05 1.42362e-06
-2.81567e-05 0.000103391 6.61289e-08
1.42362e-06 6.61289e-08 4.41427e-06
0.00195529 -0.000118959 -1.74971e-06
-0.000118959 0.000117384 -1.19492e-07
-1.74971e-06 -1.19492e-07 3.85145e-05
0.000905388 -8.1402e-05 -6.07661e-07
-8.1402e-05 5.46094e-05 3.62185e-07
-6.07661e-07 3.62185e-07 -4.39831e-05
0.00112135 -0.000122661 2.20048e-07
-0.000122661 0.000133425 -6.72725e-07
2.20048e-07 -6.72725e-07 -4.10744e-05
0.00147409 -0.000145153 4.88532e-07
-0.000145153 6.59843e-05 5.93024e-07
4.88532e-07 5.93024e-07 -5.16747e-05
0.000896331 9.4977e-06 -1.76405e-07
9.4977e-06 5.06663e-05 4.48565e-08
-1.76405e-07 4.48565e-08 -1.56052e-05
0.000993839 -1.95534e-05 -1.62363e-07
-1.95534e-05 0.000102989 2.28267e-08
-1.62363e-07 2.28267e-08 2.93394e-05
0.000779677 -8.56561e-05 -3.62974e-06
-8.56561e-05 -7.68469e-06 7.54769e-07
-3.62974e-06 7.54769e-07 -9.62449e-05
0.00106639 -5.21986e-05 4.84944e-07
-5.21986e-05 0.000164709 -4.70298e-07
4.84944e-07 -4.70298e-07 6.12544e-05
0.000890848 -2.5725e-05 2.42009e-07
-2.5725e-05 5.83596e-05 6.96278e-07
2.42009e-07 6.96278e-07 -2.67907e-05
0.00199138 -7.89658e-06 -2.36954e-06
-7.89658e-06 0.000168822 6.64081e-07
-2.36954e-06 6.64081e-07 8.71944e-05
0.00238571 -6.53153e-05 -7.00463e-07
-6.53153e-05 0.000312008 2.98845e-07
-7.00463e-07 2.98845e-07 0.000230482
0.00162478 -0.000152725 3.3402e-06
-0.000152725 -1.74835e-05 -2.87876e-06
3.3402e-06 -2.87876e-06 -0.000110655
0.00164301 -0.000154851 -4.7383e-06
-0.000154851 0.000303546 1.79664e-07
-4.7383e-06 1.79664e-07 0.000156153
0.00102636 -9.46941e-05 -5.49164e-07
-9.46941e-05 0.000145092 -1.45968e-06
-5.49164e-07 -1.45968e-06 1.44694e-05
0.00073161 1.00602e-05 6.0661e-08
1.00602e-05 -3.47047e-05 -6.86321e-07
6.0661e-08 -6.86321e-07 -9.39594e-05
0.000835544 3.43073e-05 -3.16012e-08
3.43073e-05 2.18355e-05 -8.54504e-07
-3.16012e-08 -8.54504e-07 -4.26143e-05
0.00108186 1.28491e-05 4.57687e-07
1.28491e-05 0.000149774 4.48307e-07
4.57687e-07 4.48307e-07 8.21053e-05
0.000921653 -3.89625e-05 9.66856e-07
-3.89625e-05 6.94375e-05 -2.91794e-07
9.66856e-07 -2.91794e-07 -4.36312e-06
0.00105783 6.05407e-06 5.87857e-07
6.05407e-06 0.000135127 6.89661e-07
5.87857e-07 6.89661e-07 5.88442e-05
0.000859452 -1.63974e-05 -8.51263e-07
-1.63974e-05 5.07296e-05 -8.8816e-07
-8.51263e-07 -8.8816e-07 -3.99732e-05
0.000814618 -6.13735e-05 6.0063e-06
-6.13735e-05 5.38114e-05 1.39073e-06
6.0063e-06 1.39073e-06 -6.85676e-05
0.000927782 3.40094e-05 -5.87552e-07
3.40094e-05 6.93452e-05 -1.62443e-06
-5.87552e-07 -1.62443e-06 -5.82365e-06
0.000869806 5.715e-05 -2.57371e-07
5.715e-05 5.13319e-05 -3.76817e-07
-2.57371e-07 -3.76817e-07 -4.45747e-05
0.00189659 2.31789e-05 2.15162e-06
2.31789e-05 0.000151713 4.55964e-07
2.15162e-06 4.55964e-07 7.02098e-05
0.00151516 7.6855e-05 1.12784e-06
7.6855e-05 -9.07181e-05 -5.47946e-07
1.12784e-06 -5.47946e-07 -0.000161514
0.00218115 0.000169545 -1.33274e-06
0.000169545 0.000368669 1.40726e-06
-1.33274e-06 1.40726e-06 0.000261086
0.000720239 8.00187e-05 -2.96818e-07
8.00187e-05 -3.08507e-05 -8.78949e-07
-2.96818e-07 -8.78949e-07 -0.000155897
0.00163619 0.000145605 -8.68354e-07
0.000145605 0.00037423 7.69732e-07
-8.68354e-07 7.69732e-07 0.000214917
0.00102162 2.60929e-05 -5.67151e-08
2.60929e-05 0.000124141 5.89629e-08
-5.67151e-08 5.89629e-08 3.97274e-05
0.00177133 4.27161e-05 -1.71603e-06
4.27161e-05 2.39441e-05 -4.13763e-07
-1.71603e-06 -4.13763e-07 -3.53164e-05
0.00120238 8.81483e-05 -6.41747e-07
8.81483e-05 0.000216809 1.52103e-07
-6.41747e-07 1.52103e-07 0.000110278
0.00134254 0.00011555 -6.84687e-07
0.00011555 0.000285111 8.11576e-07
-6.84687e-07 8.11576e-07 0.000143375
0.00189288 0.000145427 1.29569e-06
0.000145427 5.926e-05 -7.66253e-07
1.29569e-06 -7.66253e-07 8.31468e-07
0.0012982 0.000140812 -1.01362e-06
0.000140812 0.000109685 1.33329e-06
-1.01362e-06 1.33329e-06 -4.81662e-05
0.00178476 4.89067e-05 2.66015e-06
4.89067e-05 0.000101338 -3.14135e-07
2.66015e-06 -3.14135e-07 1.96315e-05
0.0010644 4.57246e-05 -3.30353e-07
4.57246e-05 0.000144541 -2.86245e-07
-3.30353e-07 -2.86245e-07 5.16819e-05
0.00221022 0.000105911 -1.93112e-06
0.000105911 0.000189585 -6.53457e-06
-1.93112e-06 -6.53457e-06 0.000186635
0.0012533 0.000105684 -1.6159e-06
0.000105684 0.00025623 -5.30003e-07
-1.6159e-06 -5.30003e-07 0.000144427
0.00106057 0.000108995 -2.22509e-06
0.000108995 0.000151227 -3.72368e-07
-2.22509e-06 -3.72368e-07 -2.01638e-05
0.000256064 0.000144099 -1.60598e-06
0.000144099 -0.000559483 -2.08587e-06
-1.60598e-06 -2.08587e-06 -0.000683419
0.00642941 -8.77337e-05 -3.44296e-05
-8.77337e-05 0.00208032 -9.44526e-06
-3.44296e-05 -9.44526e-06 0.00146948
0.00256333 -1.45462e-05 7.17192e-05
-1.45462e-05 -3.0447e-05 2.49782e-06
7.17192e-05 2.49782e-06 -0.000440011
0.00102123 0.000149213 1.21339e-05
0.000149213 -0.000230064 1.24767e-05
1.21339e-05 1.24767e-05 -0.000219438
-0.00222209 -0.000275654 -1.82474e-05
-0.000275654 -0.00107112 -1.46372e-05
-1.82474e-05 -1.46372e-05 -0.00100665
0.00252032 -0.000404567 -2.26903e-05
-0.000404567 0.000205793 -4.08752e-06
-2.26903e-05 -4.08752e-06 0.0011387
0.000968938 1.87941e-06 -3.43308e-07
1.87941e-06 8.9586e-05 -1.03973e-06
-3.43308e-07 -1.03973e-06 1.37131e-05
0.000991906 1.18916e-05 1.64095e-07
1.18916e-05 0.000100469 -2.82075e-07
1.64095e-07 -2.82075e-07 1.96698e-05
0.00105546 3.8068e-05 -3.10649e-09
3.8068e-05 0.000130115 1.35356e-07
-3.10649e-09 1.35356e-07 4.8139e-05
0.000868488 -3.69953e-05 2.6216e-07
-3.69953e-05 2.44417e-05 -9.00347e-07
2.6216e-07 -9.00347e-07 -2.32602e-05
0.000769415 1.8504e-05 -4.54106e-07
1.8504e-05 -2.2623e-05 -5.53103e-07
-4.54106e-07 -5.53103e-07 -7.94948e-05
0.000962957 -3.39595e-05 -6.4303e-08
-3.39595e-05 8.36302e-05 -5.42124e-07
-6.4303e-08 -5.42124e-07 2.03183e-05
0.00102388 -1.16632e-05 -3.25716e-07
-1.16632e-05 0.000117946 -4.42527e-07
-3.25716e-07 -4.42527e-07 4.77926e-05
0.000910498 -2.52006e-06 2.33172e-07
-2.52006e-06 5.76055e-05 -1.45102e-06
2.33172e-07 -1.45102e-06 -1.9577e-05
0.000935055 1.72051e-05 -4.76817e-07
1.72051e-05 6.67218e-05 -3.33108e-07
-4.76817e-07 -3.33108e-07 3.18041e-06
0.000815057 3.1576e-06 9.2807e-08
3.1576e-06 -6.16507e-06 4.63212e-07
9.2807e-08 4.63212e-07 -5.32615e-05
0.000874495 7.97581e-06 -2.45869e-07
7.97581e-06 3.1688e-05 -4.05438e-08
-2.45869e-07 -4.05438e-08 -2.6893e-05
0.000932819 -1.95399e-06 -3.98117e-08
-1.95399e-06 6.89578e-05 1.87472e-07
-3.98117e-08 1.87472e-07 -7.09575e-06
0.000945332 -2.1194e-06 8.44218e-08
-2.1194e-06 7.59866e-05 -9.91727e-08
8.44218e-08 -9.91727e-08 9.17794e-06
0.000879899 1.53255e-05 5.42624e-07
1.53255e-05 4.01523e-05 -1.88421e-07
5.42624e-07 -1.88421e-07 -2.57086e-05
0.000985241 1.45438e-05 5.54742e-07
1.45438e-05 9.49289e-05 2.1114e-07
5.54742e-07 2.1114e-07 2.43216e-05
0.000852501 5.93562e-06 7.04919e-07
5.93562e-06 1.68153e-05 5.70171e-07
7.04919e-07 5.70171e-07 -4.62168e-05
0.000832169 1.20865e-06 7.82491e-07
1.20865e-06 5.71676e-06 3.08882e-07
7.82491e-07 3.08882e-07 -5.36973e-05
0.000728081 -3.29164e-05 -1.26891e-06
-3.29164e-05 -5.15405e-05 1.3054e-06
-1.26891e-06 1.3054e-06 -9.94942e-05
0.000952749 7.85908e-06 -2.46351e-07
7.85908e-06 7.32085e-05 3.91378e-07
-2.46351e-07 3.91378e-07 1.38159e-05
0.00102306 6.55192e-05 1.0959e-07
6.55192e-05 0.000114718 1.72374e-07
1.0959e-07 1.72374e-07 4.91156e-05
0.000884102 3.25344e-06 -4.93706e-07
3.25344e-06 4.28105e-05 4.60742e-07
-4.93706e-07 4.60742e-07 -1.63277e-05
0.000948604 9.6568e-06 4.41362e-07
9.6568e-06 7.34035e-05 -3.42358e-07
4.41362e-07 -3.42358e-07 1.4857e-05
0.000880542 -2.209e-05 -1.17515e-06
-2.209e-05 2.83723e-05 8.12052e-07
-1.17515e-06 8.12052e-07 -1.76832e-05
0.000756529 4.93068e-06 1.24671e-07
4.93068e-06 -3.57441e-05 3.76191e-07
1.24671e-07 3.76191e-07 -8.40212e-05
0.000848702 1.25755e-05 -8.2477e-08
1.25755e-05 2.20914e-06 1.64516e-06
-8.2477e-08 1.64516e-06 -2.5757e-05
0.000841841 4.01462e-06 -1.70894e-07
4.01462e-06 -1.60882e-06 5.04311e-10
-1.70894e-07 5.04311e-10 -2.93968e-05
0.000806376 4.73957e-06 -2.81907e-07
4.73957e-06 -3.08358e-05 4.33456e-06
-2.81907e-07 4.33456e-06 -3.14586e-05
0.000842977 -6.32905e-06 2.84288e-07
-6.32905e-06 -1.46073e-06 -1.5476e-06
2.84288e-07 -1.5476e-06 -2.89012e-05
0.000795373 5.33354e-07 1.43214e-07
5.33354e-07 -3.7707e-05 -4.09856e-09
1.43214e-07 -4.09856e-09 -3.78997e-05
0.00212768 -9.64955e-07 1.50033e-07
-9.64955e-07 0.000673322 4.0086e-06
1.50033e-07 4.0086e-06 0.000696291
0.000812148 -3.63354e-06 -5.45037e-07
-3.63354e-06 -2.82253e-05 -4.30529e-06
-5.45037e-07 -4.30529e-06 -2.8264e-05
0.00155407 -5.72991e-06 -2.53437e-07
-5.72991e-06 0.000367832 2.2873e-08
-2.53437e-07 2.2873e-08 0.000388016
0.000955187 -9.56144e-06 -7.46773e-07
-9.56144e-06 4.9453e-05 -1.53019e-06
-7.46773e-07 -1.53019e-06 6.70617e-05
0.000858344 3.43722e-06 6.01195e-09
3.43722e-06 3.38491e-06 -1.64031e-06
6.01195e-09 -1.64031e-06 -2.00874e-05
0.000854221 6.87496e-06 2.99909e-08
6.87496e-06 1.98557e-06 1.97593e-09
2.99909e-08 1.97593e-09 -2.26486e-05
0.0007926 9.38899e-06 3.4399e-07
9.38899e-06 -3.85312e-05 -3.10753e-06
3.4399e-07 -3.10753e-06 -3.71248e-05
0.000856229 1.0018e-05 -5.47996e-07
1.0018e-05 4.13016e-06 1.65468e-06
-5.47996e-07 1.65468e-06 -2.21617e-05
0.00106305 1.54503e-05 -2.35189e-07
1.54503e-05 0.000108167 -6.1469e-07
-2.35189e-07 -6.1469e-07 0.00010966
0.00208947 1.90297e-05 9.89054e-06
1.90297e-05 0.000657235 -3.89767e-06
9.89054e-06 -3.89767e-06 0.000679825
0.00079563 1.89374e-05 -1.09161e-06
1.89374e-05 -2.9935e-05 3.21307e-06
-1.09161e-06 3.21307e-06 -3.17846e-05
0.00214684 2.50622e-05 -5.45388e-06
2.50622e-05 0.000692541 1.09899e-06
-5.45388e-06 1.09899e-06 0.000713797
0.00217727 3.23149e-05 -1.80583e-05
3.23149e-05 0.000713889 3.84323e-06
-1.80583e-05 3.84323e-06 0.0007336
0.00176196 7.98585e-06 1.34859e-06
7.98585e-06 8.19239e-05 2.06103e-07
1.34859e-06 2.06103e-07 -8.99301e-06
0.00181296 4.89995e-06 1.64858e-06
4.89995e-06 0.000106157 3.09342e-07
1.64858e-06 3.09342e-07 6.27464e-06
0.0017826 4.15757e-07 4.79082e-06
4.15757e-07 0.000104855 -4.16742e-07
4.79082e-06 -4.16742e-07 3.31517e-05
0.00167697 -3.51337e-05 2.666e-06
-3.51337e-05 -4.44089e-05 1.1226e-06
2.666e-06 1.1226e-06 -0.000100089
0.00182316 6.99398e-06 -2.87648e-07
6.99398e-06 9.74285e-05 3.18034e-07
-2.87648e-07 3.18034e-07 1.6281e-05
0.00177688 8.7976e-06 9.49229e-07
8.7976e-06 4.91143e-05 -3.90927e-07
9.49229e-07 -3.90927e-07 -1.62087e-05
0.00210618 2.14255e-05 2.46701e-07
2.14255e-05 0.000197293 1.60734e-06
2.46701e-07 1.60734e-06 0.000111888
0.00325346 -0.000147426 0.000138548
-0.000147426 0.000624705 2.20774e-05
0.000138548 2.20774e-05 0.000389741
0.00117026 -4.69599e-05 -4.08572e-06
-4.69599e-05 -0.000283516 7.27442e-07
-4.08572e-06 7.27442e-07 -0.00034986
0.000889286 1.92705e-05 -6.48022e-07
1.92705e-05 3.47755e-05 -7.87316e-07
-6.48022e-07 -7.87316e-07 -6.39427e-06
0.000884167 -1.38279e-05 5.81275e-07
-1.38279e-05 3.33275e-05 -3.51475e-08
5.81275e-07 -3.51475e-08 -9.14221e-06
0.000888313 -3.28508e-05 -2.26796e-07
-3.28508e-05 4.37341e-05 1.39217e-08
-2.26796e-07 1.39217e-08 -9.82814e-06
0.000889785 -2.75019e-05 -8.78498e-07
-2.75019e-05 5.40932e-05 7.46656e-08
-8.78498e-07 7.46656e-08 -3.43411e-06
0.00175854 5.12664e-06 3.14902e-06
5.12664e-06 8.05539e-05 -8.51731e-07
3.14902e-06 -8.51731e-07 -4.74191e-06
0.0017305 -2.89886e-05 2.09371e-06
-2.89886e-05 3.63338e-05 -7.75155e-07
2.09371e-06 -7.75155e-07 -6.18676e-05
0.00218335 -0.000124671 -3.42808e-06
-0.000124671 0.000242559 1.6819e-06
-3.42808e-06 1.6819e-06 0.000160112
0.000733647 -7.82668e-05 2.08211e-06
-7.82668e-05 -4.46807e-05 2.39586e-06
2.08211e-06 2.39586e-06 -0.000139328
0.000456373 -9.07461e-05 2.95254e-06
-9.07461e-05 -0.000195631 -9.83679e-07
2.95254e-06 -9.83679e-07 -0.000369817
0.00164779 -0.000154178 3.49168e-07
-0.000154178 0.000154382 -8.57085e-07
3.49168e-07 -8.57085e-07 3.67163e-05
0.000739923 -8.40635e-05 -5.51128e-06
-8.40635e-05 -2.54804e-05 1.48305e-07
-5.51128e-06 1.48305e-07 -0.000117449
0.00102542 -3.84647e-05 -6.03976e-07
-3.84647e-05 0.000141746 -5.846e-07
-6.03976e-07 -5.846e-07 4.0572e-05
0.00106128 -4.11265e-05 -7.81088e-07
-4.11265e-05 0.000147628 8.17476e-07
-7.81088e-07 8.17476e-07 6.22611e-05
0.000883618 -3.25047e-06 -9.83964e-07
-3.25047e-06 3.36502e-05 1.00547e-06
-9.83964e-07 1.00547e-06 -1.48117e-05
0.000909937 -3.37251e-05 -2.64313e-07
-3.37251e-05 6.25064e-05 9.7008e-08
-2.64313e-07 9.7008e-08 -1.34109e-05
0.0009892 7.51617e-06 -6.87548e-07
7.51617e-06 9.80315e-05 7.04257e-07
-6.87548e-07 7.04257e-07 3.36318e-05
0.000887035 -3.95144e-06 -3.65621e-09
-3.95144e-06 3.61523e-05 3.05167e-07
-3.65621e-09 3.05167e-07 -7.93794e-06
0.00074912 1.68482e-05 1.91626e-07
1.68482e-05 -2.39543e-05 9.8144e-07
1.91626e-07 9.8144e-07 -8.5741e-05
0.00174446 -4.89125e-06 -7.78777e-07
-4.89125e-06 5.24248e-05 9.00475e-07
-7.78777e-07 9.00475e-07 -2.9092e-05
0.00089683 8.92049e-06 4.62181e-07
8.92049e-06 5.08663e-05 -4.70499e-07
4.62181e-07 -4.70499e-07 -6.57292e-06
0.000856114 1.80509e-05 5.26034e-07
1.80509e-05 3.21772e-05 1.53746e-08
5.26034e-07 1.53746e-08 -3.12467e-05
0.000967176 4.0383e-05 -2.85913e-07
4.0383e-05 9.03396e-05 7.47754e-07
-2.85913e-07 7.47754e-07 2.18361e-05
0.00203942 -6.20223e-05 -3.63911e-06
-6.20223e-05 0.000132156 6.40459e-07
-3.63911e-06 6.40459e-07 4.701e-05
0.00171493 -0.000149036 8.22672e-07
-0.000149036 3.35206e-05 -6.60655e-07
8.22672e-07 -6.60655e-07 -5.91435e-05
0.000980821 -9.66411e-05 -4.30622e-07
-9.66411e-05 0.00010867 -3.48851e-07
-4.30622e-07 -3.48851e-07 -1.73259e-05
0.00175383 -0.000159695 -5.12211e-07
-0.000159695 0.000365228 -1.01875e-06
-5.12211e-07 -1.01875e-06 0.000212147
0.000975067 -1.27041e-05 -3.87779e-07
-1.27041e-05 9.45634e-05 8.24575e-08
-3.87779e-07 8.24575e-08 2.25733e-05
0.000974675 -6.64925e-06 1.01228e-07
-6.64925e-06 9.66324e-05 5.95643e-07
1.01228e-07 5.95643e-07 1.89314e-05
0.000873371 -6.40811e-05 3.36958e-06
-6.40811e-05 7.81754e-05 -8.75842e-07
3.36958e-06 -8.75842e-07 -3.94869e-05
0.00103313 -4.03158e-05 8.253e-08
-4.03158e-05 0.000143254 -7.52314e-07
8.253e-08 -7.52314e-07 4.76898e-05
0.00170112 -4.36035e-07 -1.22598e-06
-4.36035e-07 -2.23504e-05 2.34637e-06
-1.22598e-06 2.34637e-06 -0.000109418
0.00212733 -0.00013964 6.54257e-06
-0.00013964 0.000123934 -3.73181e-06
6.54257e-06 -3.73181e-06 3.88313e-05
0.00181561 -0.000163331 -1.79691e-06
-0.000163331 0.000268625 -3.06012e-06
-1.79691e-06 -3.06012e-06 0.000138196
0.00110911 -0.000118574 -2.36921e-06
-0.000118574 0.00017907 1.6445e-08
-2.36921e-06 1.6445e-08 4.25714e-05
0.000866749 2.09773e-05 -8.18136e-07
2.09773e-05 4.19678e-05 -1.00285e-08
-8.18136e-07 -1.00285e-08 -3.10667e-05
0.000902756 -3.73935e-05 7.61107e-07
-3.73935e-05 6.25539e-05 -6.12628e-07
7.61107e-07 -6.12628e-07 -1.01744e-05
0.00095676 -2.80524e-05 5.93107e-07
-2.80524e-05 8.65683e-05 -9.62393e-08
5.93107e-07 -9.62393e-08 7.67958e-06
0.000926728 -9.16205e-06 -2.22744e-06
-9.16205e-06 9.81068e-05 5.74353e-07
-2.22744e-06 5.74353e-07 -2.23285e-05
0.000438655 -3.61486e-05 -2.42241e-06
-3.61486e-05 -0.0008178 -7.09757e-06
-2.42241e-06 -7.09757e-06 -0.00127665
0.00100992 1.71526e-05 -3.24259e-08
1.71526e-05 0.000117459 -1.06022e-06
-3.24259e-08 -1.06022e-06 3.53235e-05
0.000876072 7.32992e-05 7.93572e-07
7.32992e-05 5.27714e-05 2.94322e-07
7.93572e-07 2.94322e-07 -5.21774e-05
0.00126544 3.78912e-05 2.62956e-06
3.78912e-05 -0.000252822 8.28462e-07
2.62956e-06 8.28462e-07 -0.000307047
0.00173705 0.00013192 -1.94255e-06
0.00013192 -1.93946e-05 1.21284e-06
-1.94255e-06 1.21284e-06 -7.82259e-05
0.00155291 0.000153457 -1.56641e-06
0.000153457 0.000247336 2.87506e-06
-1.56641e-06 2.87506e-06 8.23785e-05
0.000787466 8.84034e-05 1.27951e-06
8.84034e-05 1.1309e-05 -8.17225e-08
1.27951e-06 -8.17225e-08 -0.00013061
0.0027011 4.01159e-05 -4.41747e-06
4.01159e-05 0.000400782 4.74417e-07
-4.41747e-06 4.74417e-07 0.000308585
0.000997292 4.39841e-05 4.41424e-07
4.39841e-05 0.000113654 -3.082e-07
4.41424e-07 -3.082e-07 2.12224e-05
0.00199477 0.000102475 -3.55962e-06
0.000102475 7.70146e-05 -2.16974e-06
-3.55962e-06 -2.16974e-06 7.83808e-05
0.00105623 9.65348e-05 6.78933e-07
9.65348e-05 0.000156642 -3.67206e-07
6.78933e-07 -3.67206e-07 4.58851e-05
0.00103647 0.00011047 -2.33052e-07
0.00011047 0.000145041 2.51526e-07
-2.33052e-07 2.51526e-07 -2.7272e-05
0.000886881 0.000166413 -2.97782e-06
0.000166413 -0.000269048 3.40558e-07
-2.97782e-06 3.40558e-07 -0.000385304
0.00194479 -0.000168988 -2.76174e-05
-0.000168988 -4.58299e-05 -9.53785e-06
-2.76174e-05 -9.53785e-06 -0.000593495
0.00323756 -8.66858e-05 7.12536e-06
-8.66858e-05 0.000206403 -1.15747e-05
7.12536e-06 -1.15747e-05 -0.000288982
0.000913346 0.000142427 4.52324e-06
0.000142427 -0.000289191 1.20013e-06
4.52324e-06 1.20013e-06 -0.00027615
-0.00152571 -0.000256596 1.46345e-05
-0.000256596 -0.000599181 3.06563e-06
1.46345e-05 3.06563e-06 -0.000752955
0.000483241 -0.000436586 1.04967e-05
-0.000436586 -0.000942367 7.7106e-07
1.04967e-05 7.7106e-07 0.000116682
0.00110843 6.74267e-05 8.61289e-08
6.74267e-05 0.00017258 -4.11554e-07
8.61289e-08 -4.11554e-07 8.16877e-05
0.000502328 5.55049e-05 -8.74492e-05
5.55049e-05 0.000335833 -1.9991e-05
-8.74492e-05 -1.9991e-05 9.84813e-05
0.00162165 -0.00025334 -3.21227e-05
-0.00025334 0.000481874 -1.98316e-05
-3.21227e-05 -1.98316e-05 0.000837576
0.00126142 0.000126255 -3.74908e-06
0.000126255 -0.000222211 -1.43932e-06
-3.74908e-06 -1.43932e-06 -0.000192547
0.00110476 5.31568e-05 -1.38713e-06
5.31568e-05 0.00020152 -9.55125e-07
-1.38713e-06 -9.55125e-07 7.86615e-05
0.00132611 0.000127375 -5.55016e-06
0.000127375 0.000287523 -1.20351e-06
-5.55016e-06 -1.20351e-06 9.09231e-05
0.00162497 0.000183602 5.50465e-06
0.000183602 0.000134668 1.95793e-05
5.50465e-06 1.95793e-05 0.00017459
0.00642213 -0.000272009 -5.56178e-05
-0.000272009 0.00206321 -1.64779e-05
-5.56178e-05 -1.64779e-05 0.0011168
0.00151856 5.21825e-05 1.35121e-05
5.21825e-05 -0.000684181 2.10459e-05
1.35121e-05 2.10459e-05 -0.00138105
-4.93248e-05 -0.00040149 -4.4108e-05
-0.00040149 -0.000314416 -1.58139e-05
-4.4108e-05 -1.58139e-05 -2.07556e-05
0.0001198 -0.000200089 -2.87102e-05
-0.000200089 -0.00167819 2.06022e-07
-2.87102e-05 2.06022e-07 -0.00103406
0.000987248 6.92342e-06 -2.93928e-07
6.92342e-06 9.97035e-05 -9.74053e-07
-2.93928e-07 -9.74053e-07 1.95382e-05
0.0010042 2.98727e-05 -2.88754e-07
2.98727e-05 0.000103753 1.40058e-07
-2.88754e-07 1.40058e-07 2.26384e-05
0.00117567 5.99084e-05 -2.19215e-07
5.99084e-05 0.000196475 -4.1754e-07
-2.19215e-07 -4.1754e-07 0.000118588
0.000872518 1.91049e-06 -5.58768e-08
1.91049e-06 2.83102e-05 -4.46089e-07
-5.58768e-08 -4.46089e-07 -2.05656e-05
0.000922552 -1.55576e-06 -4.41807e-07
-1.55576e-06 5.62553e-05 -5.21467e-07
-4.41807e-07 -5.21467e-07 -1.40236e-06
0.000876544 -1.58216e-05 -2.56262e-07
-1.58216e-05 3.33331e-05 -7.79408e-07
-2.56262e-07 -7.79408e-07 -2.91522e-05
0.000954197 -5.39968e-06 -6.12591e-08
-5.39968e-06 7.95105e-05 -4.60583e-07
-6.12591e-08 -4.60583e-07 1.25945e-05
0.000939283 -4.35148e-06 -4.90559e-08
-4.35148e-06 7.31478e-05 -2.853e-07
-4.90559e-08 -2.853e-07 -2.84251e-06
0.000748222 -5.91945e-06 3.6443e-07
-5.91945e-06 -4.04748e-05 4.05888e-07
3.6443e-07 4.05888e-07 -8.89002e-05
0.000890292 2.02545e-06 -1.45069e-07
2.02545e-06 4.58458e-05 -3.16002e-07
-1.45069e-07 -3.16002e-07 -1.95742e-05
0.000958452 -1.58428e-05 -1.80205e-07
-1.58428e-05 7.41017e-05 3.52607e-07
-1.80205e-07 3.52607e-07 1.04809e-05
0.000911388 1.95427e-05 3.62573e-07
1.95427e-05 4.97323e-05 -2.12283e-07
3.62573e-07 -2.12283e-07 -1.05862e-05
0.000955421 1.6212e-05 2.52266e-08
1.6212e-05 7.9288e-05 5.63587e-08
2.52266e-08 5.63587e-08 8.10349e-06
0.00087193 -1.88495e-06 5.27488e-07
-1.88495e-06 2.72706e-05 2.88061e-07
5.27488e-07 2.88061e-07 -3.98235e-05
0.00103778 3.442e-05 -1.83215e-07
3.442e-05 0.000120552 -4.7169e-07
-1.83215e-07 -4.7169e-07 4.7866e-05
0.000969208 -5.12916e-05 1.19093e-07
-5.12916e-05 7.81526e-05 3.10295e-07
1.19093e-07 3.10295e-07 1.4014e-05
0.000972221 -3.65985e-05 -4.34632e-07
-3.65985e-05 8.24474e-05 1.15041e-07
-4.34632e-07 1.15041e-07 2.18227e-05
0.000965619 -3.22443e-06 -3.70909e-07
-3.22443e-06 7.91047e-05 -7.30477e-08
-3.70909e-07 -7.30477e-08 1.99974e-05
0.000950097 4.50048e-05 -2.65133e-07
4.50048e-05 7.24939e-05 -2.73888e-07
-2.65133e-07 -2.73888e-07 8.72841e-06
0.000948361 2.29562e-05 -1.25572e-08
2.29562e-05 7.11627e-05 1.40148e-07
-1.25572e-08 1.40148e-07 4.5575e-06
0.000915969 3.79867e-05 1.47752e-07
3.79867e-05 5.73713e-05 5.43277e-07
1.47752e-07 5.43277e-07 -6.3681e-06
0.00106334 5.13493e-05 -4.64592e-08
5.13493e-05 0.000128969 9.50404e-08
-4.64592e-08 9.50404e-08 6.17027e-05
0.000870277 1.12783e-05 5.38684e-07
1.12783e-05 3.9866e-05 1.61181e-06
5.38684e-07 1.61181e-06 -3.00464e-05
0.000879751 1.28234e-05 -1.50657e-07
1.28234e-05 3.70776e-05 5.51789e-07
-1.50657e-07 5.51789e-07 -1.99936e-05
0.00088988 6.03824e-07 -3.44807e-08
6.03824e-07 4.40996e-05 -1.54085e-08
-3.44807e-08 -1.54085e-08 -1.394e-05
0.000875351 1.74207e-06 -8.87318e-07
1.74207e-06 2.57254e-05 7.61148e-07
-8.87318e-07 7.61148e-07 -1.96366e-05
0.000859039 1.18867e-05 3.20616e-07
1.18867e-05 2.16126e-05 -7.24552e-07
3.20616e-07 -7.24552e-07 -3.47707e-05
0.000827411 -1.28361e-05 7.56589e-08
-1.28361e-05 5.29395e-08 1.63703e-08
7.56589e-08 1.63703e-08 -4.62533e-05
0.000851784 1.2843e-05 -3.96736e-07
1.2843e-05 4.18004e-06 1.71998e-06
-3.96736e-07 1.71998e-06 -2.39011e-05
0.000769308 5.63602e-06 3.65664e-07
5.63602e-06 -2.78808e-05 -4.80996e-07
3.65664e-07 -4.80996e-07 -7.69803e-05
0.000845989 5.86851e-06 -1.49847e-07
5.86851e-06 5.53534e-07 -3.76321e-09
-1.49847e-07 -3.76321e-09 -2.73169e-05
0.00138139 1.02644e-05 -2.74389e-06
1.02644e-05 0.000277182 4.3027e-06
-2.74389e-06 4.3027e-06 0.000279179
0.000839757 -3.86128e-06 5.14515e-07
-3.86128e-06 -2.8126e-06 -1.58564e-06
5.14515e-07 -1.58564e-06 -3.05466e-05
0.00108941 5.35593e-06 -1.18995e-06
5.35593e-06 0.000119954 6.19215e-07
-1.18995e-06 6.19215e-07 0.000120829
0.00100263 2.85563e-06 -2.51238e-06
2.85563e-06 7.37443e-05 3.9241e-06
-2.51238e-06 3.9241e-06 9.07638e-05
0.000799189 5.59571e-07 -2.66757e-08
5.59571e-07 -3.56701e-05 -3.05388e-06
-2.66757e-08 -3.05388e-06 -3.58924e-05
0.00213076 -5.57941e-07 1.911e-06
-5.57941e-07 0.000674978 1.59831e-10
1.911e-06 1.59831e-10 0.000697912
0.00100937 -3.64514e-06 -1.6558e-06
-3.64514e-06 7.71363e-05 -3.90485e-06
-1.6558e-06 -3.90485e-06 9.45021e-05
0.000876984 3.73462e-05 3.2007e-07
3.73462e-05 3.09685e-05 -1.92467e-07
3.2007e-07 -1.92467e-07 -1.20721e-05
0.000859521 -6.59867e-07 -4.44537e-08
-6.59867e-07 3.97396e-06 -1.61856e-06
-4.44537e-08 -1.61856e-06 -1.89419e-05
0.000858961 2.79354e-06 -5.36431e-08
2.79354e-06 3.61401e-06 2.36949e-10
-5.36431e-08 2.36949e-10 -1.98425e-05
0.00080039 4.54026e-06 6.0572e-08
4.54026e-06 -3.61751e-05 -3.07801e-06
6.0572e-08 -3.07801e-06 -3.37721e-05
0.000853772 6.28469e-06 -2.72456e-07
6.28469e-06 1.49524e-06 1.5709e-06
-2.72456e-07 1.5709e-06 -2.31014e-05
0.0007935 9.54031e-06 5.4129e-08
9.54031e-06 -3.8346e-05 -6.26504e-07
5.4129e-08 -6.26504e-07 -3.68692e-05
0.00205772 1.25006e-05 6.54691e-06
1.25006e-05 0.000637738 -3.92736e-06
6.54691e-06 -3.92736e-06 0.00066119
0.00133081 1.79607e-05 -1.27524e-06
1.79607e-05 0.000251331 1.92439e-06
-1.27524e-06 1.92439e-06 0.000254005
0.00155648 1.64948e-05 3.35909e-07
1.64948e-05 0.000373954 1.2223e-06
3.35909e-07 1.2223e-06 0.000393416
0.00104277 1.86631e-05 -1.38142e-05
1.86631e-05 0.000104317 6.35563e-06
-1.38142e-05 6.35563e-06 0.000119736
-0.000782977 1.91297e-05 4.27691e-06
1.91297e-05 -0.00128133 3.19906e-06
4.27691e-06 3.19906e-06 -0.00133853
0.00194466 5.63015e-06 2.46924e-06
5.63015e-06 0.00015828 2.09385e-08
2.46924e-06 2.09385e-08 7.80852e-05
0.00210468 1.42842e-05 -1.80202e-06
1.42842e-05 0.000227667 -2.25624e-06
-1.80202e-06 -2.25624e-06 0.000159142
0.00106931 -6.90913e-05 2.78499e-05
-6.90913e-05 -0.000267095 7.11002e-07
2.78499e-05 7.11002e-07 -0.000489882
0.00172479 -4.17377e-05 -1.78867e-06
-4.17377e-05 5.28121e-05 -1.76416e-07
-1.78867e-06 -1.76416e-07 -2.68065e-05
0.00172612 1.84755e-05 -3.72015e-06
1.84755e-05 -2.29739e-05 -1.87144e-06
-3.72015e-06 -1.87144e-06 -0.000106151
0.00192877 3.42532e-05 -1.00421e-05
3.42532e-05 0.000204211 1.47182e-06
-1.00421e-05 1.47182e-06 0.000119561
0.00164736 -7.63394e-05 0.000127892
-7.63394e-05 5.14741e-05 -1.10396e-06
0.000127892 -1.10396e-06 -0.000260841
0.00576601 0.000100557 -1.51056e-05
0.000100557 0.00168956 -4.6799e-07
-1.51056e-05 -4.6799e-07 0.000925876
0.00423547 0.000522043 -2.00844e-05
0.000522043 0.00181467 5.27622e-06
-2.00844e-05 5.27622e-06 0.00202526
0.00158573 0.000435749 -1.66791e-05
0.000435749 7.84384e-05 6.71741e-06
-1.66791e-05 6.71741e-06 0.000913659
0.000740071 -3.69199e-05 1.12859e-06
-3.69199e-05 -2.98302e-05 -6.55734e-07
1.12859e-06 -6.55734e-07 -8.51618e-05
0.00088961 -9.39984e-06 1.89759e-07
-9.39984e-06 3.56625e-05 -2.89216e-08
1.89759e-07 -2.89216e-08 -6.00584e-06
0.000883791 -4.31295e-05 -8.22304e-07
-4.31295e-05 3.52461e-05 8.39746e-07
-8.22304e-07 8.39746e-07 -8.73349e-06
0.000851531 -1.06993e-05 -2.92592e-07
-1.06993e-05 2.62126e-05 2.57711e-08
-2.92592e-07 2.57711e-08 -2.8777e-05
0.000891659 3.94012e-05 3.42532e-08
3.94012e-05 5.76813e-05 7.22334e-07
3.42532e-08 7.22334e-07 -7.74259e-06
0.000937044 4.67863e-05 1.23702e-07
4.67863e-05 7.55102e-05 7.0424e-07
1.23702e-07 7.0424e-07 1.36515e-05
0.00092689 -2.61174e-05 6.87641e-07
-2.61174e-05 6.89642e-05 -8.11325e-07
6.87641e-07 -8.11325e-07 1.29561e-05
0.00084022 -4.32095e-05 -5.39792e-07
-4.32095e-05 2.44532e-05 4.81408e-07
-5.39792e-07 4.81408e-07 -3.13741e-05
0.00148357 -1.28156e-06 1.91975e-06
-1.28156e-06 -7.08595e-05 -1.0133e-06
1.91975e-06 -1.0133e-06 -0.000152249
0.00161983 -5.83322e-05 -1.24822e-06
-5.83322e-05 -8.74716e-05 -7.6013e-09
-1.24822e-06 -7.6013e-09 -0.000175425
0.00176003 -0.000145437 -5.14754e-06
-0.000145437 6.32768e-05 2.62165e-06
-5.14754e-06 2.62165e-06 -2.87606e-05
0.00087383 -9.60392e-05 1.23571e-06
-9.60392e-05 4.20684e-05 1.09702e-06
1.23571e-06 1.09702e-06 -8.14425e-05
0.00169511 -0.000157982 1.4142e-06
-0.000157982 0.000341046 8.81174e-08
1.4142e-06 8.81174e-08 0.000179473
0.000911238 -6.4927e-05 7.23718e-07
-6.4927e-05 9.19908e-05 -1.03458e-06
7.23718e-07 -1.03458e-06 -2.11235e-05
0.00120948 -6.3747e-05 1.97172e-07
-6.3747e-05 0.000237111 -5.34322e-07
1.97172e-07 -5.34322e-07 0.000136855
0.000881508 -1.97252e-05 -7.39267e-07
-1.97252e-05 5.27605e-05 2.26708e-07
-7.39267e-07 2.26708e-07 -2.62623e-05
0.000877354 6.81121e-06 4.409e-07
6.81121e-06 4.32164e-05 5.24168e-07
4.409e-07 5.24168e-07 -1.9393e-05
0.00103673 2.92983e-06 -7.67825e-07
2.92983e-06 0.000124302 3.28188e-07
-7.67825e-07 3.28188e-07 5.38223e-05
0.00107069 1.55153e-06 3.45749e-07
1.55153e-06 0.000139994 -3.45029e-09
3.45749e-07 -3.45029e-09 8.48572e-05
0.000843856 6.60525e-05 1.1705e-06
6.60525e-05 2.64271e-05 1.27435e-06
1.1705e-06 1.27435e-06 -4.28922e-05
0.00159812 4.45987e-06 5.04589e-07
4.45987e-06 -8.22117e-05 -3.3397e-06
5.04589e-07 -3.3397e-06 -0.000167504
0.000879185 2.14165e-05 -3.96179e-07
2.14165e-05 4.92385e-05 3.7589e-07
-3.96179e-07 3.7589e-07 -2.25798e-05
0.000890968 -2.50473e-05 -2.90884e-07
-2.50473e-05 5.38306e-05 -3.27089e-07
-2.90884e-07 -3.27089e-07 -1.77622e-05
0.00219462 -0.000140776 -9.20852e-07
-0.000140776 0.000165424 9.018e-07
-9.20852e-07 9.018e-07 8.24775e-05
0.00112352 -0.000136473 4.74017e-07
-0.000136473 -6.87225e-05 8.64661e-07
4.74017e-07 8.64661e-07 -0.000192087
0.00119432 -0.000123233 9.59062e-07
-0.000123233 0.000220292 -9.34255e-07
9.59062e-07 -9.34255e-07 7.89842e-05
0.000971968 -3.05607e-05 1.4854e-07
-3.05607e-05 9.48165e-05 -9.83141e-08
1.4854e-07 -9.83141e-08 1.3939e-05
0.00103574 -2.36044e-05 -1.9757e-07
-2.36044e-05 0.000154749 3.3005e-07
-1.9757e-07 3.3005e-07 3.35298e-05
0.0025463 -8.04637e-05 -7.42716e-06
-8.04637e-05 0.000440532 1.05693e-05
-7.42716e-06 1.05693e-05 0.00036969
0.0024067 -0.000214043 1.9351e-07
-0.000214043 0.00039316 -5.32897e-06
1.9351e-07 -5.32897e-06 0.000280611
0.000478572 -0.000111586 -3.94253e-06
-0.000111586 -0.000194597 -7.82011e-07
-3.94253e-06 -7.82011e-07 -0.000322
0.00131372 -8.40739e-05 -4.06104e-06
-8.40739e-05 0.00030422 2.24822e-06
-4.06104e-06 2.24822e-06 0.000160037
0.000774978 -6.08142e-05 7.6482e-07
-6.08142e-05 -3.49628e-06 -1.71774e-07
7.6482e-07 -1.71774e-07 -7.99994e-05
0.000964885 -4.50878e-05 1.609e-06
-4.50878e-05 9.07794e-05 -1.02006e-07
1.609e-06 -1.02006e-07 1.0452e-05
0.0010563 -1.9217e-05 -1.06043e-06
-1.9217e-05 0.000139294 4.0021e-07
-1.06043e-06 4.0021e-07 4.60945e-05
-0.00261378 -1.66914e-05 -2.03036e-05
-1.66914e-05 -0.00127147 -1.06768e-06
-2.03036e-05 -1.06768e-06 -0.00111318
0.00672356 -2.38043e-05 -2.31195e-05
-2.38043e-05 0.00227628 -1.5631e-06
-2.31195e-05 -1.5631e-06 0.00171179
0.000937483 4.30071e-05 8.16011e-07
4.30071e-05 8.64424e-05 -6.83954e-07
8.16011e-07 -6.83954e-07 -5.64491e-06
0.000910911 8.93495e-05 1.57069e-06
8.93495e-05 8.38786e-05 -1.18255e-06
1.57069e-06 -1.18255e-06 -2.52087e-05
0.00181216 9.87477e-05 -4.77956e-06
9.87477e-05 -2.13428e-05 3.14403e-06
-4.77956e-06 3.14403e-06 -1.44436e-05
0.0016624 0.000194063 -1.34478e-06
0.000194063 9.21787e-05 1.85697e-06
-1.34478e-06 1.85697e-06 -1.56902e-05
0.0010499 0.0001127 1.84713e-06
0.0001127 0.000156231 5.45378e-07
1.84713e-06 5.45378e-07 -1.44959e-05
0.00551386 4.67184e-06 3.13498e-05
4.67184e-06 0.00155698 -7.81839e-06
3.13498e-05 -7.81839e-06 0.000850882
0.00352376 -8.09866e-05 -6.79704e-05
-8.09866e-05 0.000334184 -1.54022e-05
-6.79704e-05 -1.54022e-05 -5.95404e-05
0.000554544 0.000117039 -4.73641e-06
0.000117039 -0.00048593 -1.24383e-05
-4.73641e-06 -1.24383e-05 -0.000456092
0.00314865 -0.000402732 2.88327e-05
-0.000402732 0.00152956 1.56222e-05
2.88327e-05 1.56222e-05 0.00154213
-0.00151226 -0.000476981 1.55114e-05
-0.000476981 -0.0020549 -1.1549e-05
1.55114e-05 -1.1549e-05 -0.000851789
0.00102995 7.80184e-05 -6.36357e-08
7.80184e-05 0.000135907 -2.27672e-07
-6.36357e-08 -2.27672e-07 4.32522e-05
-0.00220628 -0.000101456 6.11479e-08
-0.000101456 -0.00112287 -1.36955e-06
6.11479e-08 -1.36955e-06 -0.000963153
0.000321655 -0.000238227 -1.03148e-05
-0.000238227 -9.29262e-05 -1.91629e-06
-1.03148e-05 -1.91629e-06 0.000104375
0.00212103 0.000149967 -1.3499e-06
0.000149967 0.000197285 -1.40946e-06
-1.3499e-06 -1.40946e-06 0.000225949
0.000968569 6.35377e-05 -7.2732e-08
6.35377e-05 0.000140887 -9.54442e-07
-7.2732e-08 -9.54442e-07 1.86876e-05
0.000748815 0.000104509 2.87639e-08
0.000104509 -3.84554e-06 3.54754e-07
2.87639e-08 3.54754e-07 -0.000199547
-0.000171635 0.000112359 1.54775e-05
0.000112359 -0.000732633 6.98752e-06
1.54775e-05 6.98752e-06 -0.000674642
0.00478929 -0.000194893 1.07283e-06
-0.000194893 0.00115807 7.89317e-07
1.07283e-06 7.89317e-07 0.000154316
0.0038457 0.000113642 -2.56029e-05
0.000113642 0.000571375 -1.59164e-05
-2.56029e-05 -1.59164e-05 0.000127393
0.00365754 -0.0005563 1.15351e-05
-0.0005563 0.00126361 -1.97568e-06
1.15351e-05 -1.97568e-06 0.00137888
0.000626057 -0.000254716 7.6564e-06
-0.000254716 -0.00153156 2.19354e-05
7.6564e-06 2.19354e-05 -0.000709224
0.00112859 4.15751e-05 -2.13108e-06
4.15751e-05 0.00018048 -1.18208e-06
-2.13108e-06 -1.18208e-06 9.64372e-05
-0.000752311 -7.22815e-05 -4.09971e-05
-7.22815e-05 -0.000382138 -5.98386e-06
-4.09971e-05 -5.98386e-06 -0.000548062
0.00154316 -2.25461e-05 -3.0299e-05
-2.25461e-05 -1.74231e-05 -2.80518e-05
-3.0299e-05 -2.80518e-05 -0.000101103
0.000759754 0.000122382 -7.27341e-06
0.000122382 -0.000163911 -7.60187e-06
-7.27341e-06 -7.60187e-06 -0.000207577
0.00167219 0.000103974 -8.98539e-06
0.000103974 0.000556411 -1.60514e-06
-8.98539e-06 -1.60514e-06 0.000406665
0.0010358 2.28346e-05 -5.65902e-06
2.28346e-05 0.000238337 -4.19266e-06
-5.65902e-06 -4.19266e-06 0.000181735
0.0025916 0.000332019 -9.26682e-05
0.000332019 0.000262272 1.39134e-05
-9.26682e-05 1.39134e-05 -0.000126302
0.000244701 -0.000267998 1.97741e-05
-0.000267998 -0.000641945 2.12044e-05
1.97741e-05 2.12044e-05 -0.0019214
0.00605362 -0.000550077 -5.12736e-05
-0.000550077 0.00161303 -4.58472e-06
-5.12736e-05 -4.58472e-06 0.00179819
0.000678867 -0.000114683 -6.03522e-06
-0.000114683 -0.00139953 -1.13948e-05
-6.03522e-06 -1.13948e-05 -0.00089079
0.000950235 3.49002e-05 2.14891e-07
3.49002e-05 7.86956e-05 4.52348e-07
2.14891e-07 4.52348e-07 -3.34805e-06
0.00107898 5.75216e-05 1.00094e-06
5.75216e-05 0.00014564 6.28845e-07
1.00094e-06 6.28845e-07 6.69466e-05
0.000636506 5.50726e-05 1.0622e-06
5.50726e-05 -6.70556e-05 -1.9826e-06
1.0622e-06 -1.9826e-06 -0.000143664
0.000765112 2.21631e-05 2.0701e-07
2.21631e-05 -3.17018e-05 -4.58159e-07
2.0701e-07 -4.58159e-07 -8.01578e-05
0.000982572 2.84522e-05 -4.7426e-07
2.84522e-05 8.94824e-05 -5.82543e-07
-4.7426e-07 -5.82543e-07 2.84548e-05
0.00106124 -3.31238e-05 -9.74518e-08
-3.31238e-05 0.000128874 -4.97392e-08
-9.74518e-08 -4.97392e-08 6.53638e-05
0.000877636 -3.26307e-06 -7.34637e-07
-3.26307e-06 4.00537e-05 -5.19088e-07
-7.34637e-07 -5.19088e-07 -2.51047e-05
0.000941036 1.27926e-05 -5.20241e-07
1.27926e-05 7.08465e-05 1.34127e-07
-5.20241e-07 1.34127e-07 -4.06256e-07
0.000951887 1.42773e-05 3.83885e-07
1.42773e-05 7.23064e-05 -3.99326e-07
3.83885e-07 -3.99326e-07 1.14699e-05
0.000937344 -5.06506e-06 -4.12579e-08
-5.06506e-06 6.37034e-05 -7.40203e-08
-4.12579e-08 -7.40203e-08 -3.37728e-06
0.000950334 -3.54666e-05 1.63575e-07
-3.54666e-05 6.85914e-05 4.33937e-08
1.63575e-07 4.33937e-08 4.04309e-06
0.000984187 1.95468e-05 -1.09016e-08
1.95468e-05 9.43373e-05 2.10854e-07
-1.09016e-08 2.10854e-07 2.27285e-05
0.00124529 -2.36302e-05 7.67816e-07
-2.36302e-05 0.00022497 -3.21621e-07
7.67816e-07 -3.21621e-07 0.000155643
0.00095328 -1.47643e-05 -6.18296e-08
-1.47643e-05 6.59556e-05 1.6063e-07
-6.18296e-08 1.6063e-07 -1.39856e-06
0.000960832 3.75831e-06 1.71137e-07
3.75831e-06 7.72431e-05 2.90702e-07
1.71137e-07 2.90702e-07 9.43439e-06
0.000967883 -2.52182e-05 1.29566e-07
-2.52182e-05 8.21865e-05 -6.03336e-07
1.29566e-07 -6.03336e-07 2.16357e-05
0.000872379 2.17661e-05 -2.45135e-07
2.17661e-05 2.80422e-05 -7.46377e-07
-2.45135e-07 -7.46377e-07 -3.39868e-05
0.000938592 -3.9685e-07 2.65457e-07
-3.9685e-07 6.62702e-05 -1.33089e-07
2.65457e-07 -1.33089e-07 -9.31281e-08
0.000902481 3.72634e-05 -5.51861e-08
3.72634e-05 5.03352e-05 -1.36921e-08
-5.51861e-08 -1.36921e-08 -1.33067e-05
0.000988276 3.64832e-05 -5.40377e-07
3.64832e-05 8.72193e-05 -5.07285e-07
-5.40377e-07 -5.07285e-07 2.1001e-05
0.000871965 2.74567e-05 5.63347e-07
2.74567e-05 3.68663e-05 1.1223e-06
5.63347e-07 1.1223e-06 -2.8407e-05
0.000994242 3.39529e-05 4.00288e-07
3.39529e-05 9.39838e-05 3.07886e-07
4.00288e-07 3.07886e-07 2.48657e-05
0.000931136 2.4518e-05 2.32897e-08
2.4518e-05 5.86238e-05 5.6314e-07
2.32897e-08 5.6314e-07 -9.50357e-06
0.000886935 -7.1544e-07 7.77968e-07
-7.1544e-07 4.92896e-05 6.8116e-07
7.77968e-07 6.8116e-07 -3.15912e-05
0.000807403 -5.08737e-05 -2.49227e-07
-5.08737e-05 3.08886e-05 6.80681e-07
-2.49227e-07 6.80681e-07 -6.58398e-05
0.000762357 -1.13427e-06 -3.86982e-07
-1.13427e-06 -1.25715e-05 5.96555e-07
-3.86982e-07 5.96555e-07 -8.89092e-05
0.00090016 1.11562e-05 1.22014e-07
1.11562e-05 5.64743e-05 3.87983e-07
1.22014e-07 3.87983e-07 -1.38008e-05
0.000888826 1.33035e-05 5.87874e-08
1.33035e-05 4.24533e-05 1.16378e-06
5.87874e-08 1.16378e-06 -1.69411e-05
0.000896309 9.97806e-06 -1.51681e-07
9.97806e-06 4.6705e-05 -6.12555e-08
-1.51681e-07 -6.12555e-08 -1.10266e-05
0.00087428 1.82681e-05 -4.50423e-07
1.82681e-05 2.66759e-05 8.00896e-07
-4.50423e-07 8.00896e-07 -1.92503e-05
0.00090132 1.2651e-05 3.5263e-07
1.2651e-05 4.84038e-05 -3.97063e-07
3.5263e-07 -3.97063e-07 -8.51488e-06
0.000884409 3.66398e-06 -4.44184e-08
3.66398e-06 3.03542e-05 8.1674e-09
-4.44184e-08 8.1674e-09 -1.50841e-05
0.000847531 1.60864e-05 -7.19488e-07
1.60864e-05 3.79187e-06 1.70859e-06
-7.19488e-07 1.70859e-06 -2.47628e-05
0.000771156 4.1185e-06 4.12634e-07
4.1185e-06 -3.1041e-05 -7.77695e-07
4.12634e-07 -7.77695e-07 -7.68282e-05
0.000849822 8.43397e-06 -7.8877e-08
8.43397e-06 2.98576e-06 -4.21233e-09
-7.8877e-08 -4.21233e-09 -2.50242e-05
0.00137684 1.54842e-05 -4.41026e-06
1.54842e-05 0.00027708 4.30426e-06
-4.41026e-06 4.30426e-06 0.000278731
0.000843856 1.34547e-07 6.41784e-07
1.34547e-07 -7.92719e-07 -1.63915e-06
6.41784e-07 -1.63915e-06 -2.85822e-05
0.00108632 1.02288e-05 -1.86856e-06
1.02288e-05 0.000119849 6.08643e-07
-1.86856e-06 6.08643e-07 0.000120469
0.000960079 9.11894e-06 -6.70402e-07
9.11894e-06 5.2512e-05 1.55916e-06
-6.70402e-07 1.55916e-06 6.94015e-05
0.000795184 4.92425e-06 2.75797e-07
4.92425e-06 -3.72197e-05 -3.07223e-06
2.75797e-07 -3.07223e-06 -3.77189e-05
0.00213876 5.85592e-06 1.76825e-06
5.85592e-06 0.000679716 1.29992e-08
1.76825e-06 1.29992e-08 0.000702476
0.00213376 -1.48455e-07 1.03819e-06
-1.48455e-07 0.000676575 -4.02172e-06
1.03819e-06 -4.02172e-06 0.00069947
0.00111892 2.35205e-05 -8.67335e-07
2.35205e-05 0.000157344 -3.63405e-07
-8.67335e-07 -3.63405e-07 0.000115736
0.000859762 -4.14197e-06 -1.99919e-07
-4.14197e-06 5.03111e-06 -1.53831e-06
-1.99919e-07 -1.53831e-06 -1.82325e-05
0.000883501 2.83164e-06 6.49005e-07
2.83164e-06 3.41602e-05 4.4971e-07
6.49005e-07 4.4971e-07 -8.55435e-06
0.000806498 -4.3611e-07 -8.94512e-08
-4.3611e-07 -3.33533e-05 -3.04611e-06
-8.94512e-08 -3.04611e-06 -3.05538e-05
0.000860205 -1.11021e-06 3.33651e-08
-1.11021e-06 4.28111e-06 1.50334e-09
3.33651e-08 1.50334e-09 -1.86329e-05
0.000856544 2.18278e-06 -1.97106e-07
2.18278e-06 2.21381e-06 1.59895e-06
-1.97106e-07 1.59895e-06 -2.12126e-05
0.00080326 4.72442e-06 -1.29132e-07
4.72442e-06 -3.46503e-05 8.80844e-09
-1.29132e-07 8.80844e-09 -3.22832e-05
0.0020305 6.03487e-06 2.86678e-06
6.03487e-06 0.00062177 -3.94005e-06
2.86678e-06 -3.94005e-06 0.000645797
0.00132448 1.21751e-05 -7.7967e-07
1.21751e-05 0.000244905 1.88799e-06
-7.7967e-07 1.88799e-06 0.000249023
0.00151703 1.12194e-05 1.90092e-06
1.12194e-05 0.000349645 3.0349e-08
1.90092e-06 3.0349e-08 0.000370239
0.00103646 1.38036e-05 -1.15145e-05
1.38036e-05 9.63234e-05 6.3374e-06
-1.15145e-05 6.3374e-06 0.000113124
-0.00410371 0.000116897 -1.95167e-05
0.000116897 -0.0020849 6.75606e-06
-1.95167e-05 6.75606e-06 -0.00200941
-0.00112909 0.000213135 -8.55757e-06
0.000213135 -0.000863189 1.28559e-05
-8.55757e-06 1.28559e-05 -0.000655756
0.000496187 -2.4232e-05 -9.04993e-05
-2.4232e-05 -0.000581604 -8.97206e-06
-9.04993e-05 -8.97206e-06 -0.000794426
0.00251907 -4.30044e-05 1.3176e-06
-4.30044e-05 0.000510694 -2.5808e-07
1.3176e-06 -2.5808e-07 0.000419899
0.00143 1.58576e-05 -9.49212e-06
1.58576e-05 -0.000198783 -6.68382e-07
-9.49212e-06 -6.68382e-07 -0.000279843
0.00113575 -2.55597e-05 2.32394e-05
-2.55597e-05 -3.05192e-05 -2.3388e-06
2.32394e-05 -2.3388e-06 -0.000263644
0.00207019 3.95808e-05 2.90968e-07
3.95808e-05 0.000284083 1.57894e-06
2.90968e-07 1.57894e-06 0.000199296
0.00521459 0.000261291 -2.18918e-05
0.000261291 0.00135657 -5.01023e-06
-2.18918e-05 -5.01023e-06 0.00069754
-0.00317559 0.000251608 -9.3285e-06
0.000251608 -0.00136819 -2.40384e-06
-9.3285e-06 -2.40384e-06 -0.00132819
0.000109531 0.000462781 4.48123e-06
0.000462781 -0.000996388 -6.48259e-06
4.48123e-06 -6.48259e-06 3.21277e-05
0.0014087 -5.56696e-07 4.74604e-05
-5.56696e-07 0.000107682 -9.67527e-06
4.74604e-05 -9.67527e-06 -0.000132334
0.00627152 0.000419272 -5.27946e-06
0.000419272 0.00183809 -9.46366e-06
-5.27946e-06 -9.46366e-06 0.000982007
-0.000105783 0.000423234 -4.09576e-05
0.000423234 -0.000308955 1.40675e-05
-4.09576e-05 1.40675e-05 2.66434e-05
0.0028629 0.000249463 -3.86743e-05
0.000249463 -2.05203e-05 2.13453e-05
-3.86743e-05 2.13453e-05 0.000597858
0.000864119 3.12742e-05 -6.39729e-07
3.12742e-05 4.28329e-05 -2.29085e-07
-6.39729e-07 -2.29085e-07 -2.59981e-05
0.000804963 -1.24189e-05 1.21163e-07
-1.24189e-05 3.51278e-06 -3.55184e-07
1.21163e-07 -3.55184e-07 -5.11165e-05
0.000881731 -4.05413e-05 -7.85795e-07
-4.05413e-05 3.33106e-05 8.33715e-07
-7.85795e-07 8.33715e-07 -9.53167e-06
0.000800253 7.01502e-06 1.6398e-07
7.01502e-06 4.89404e-07 2.72671e-07
1.6398e-07 2.72671e-07 -5.53239e-05
0.000899899 4.45779e-05 7.26243e-07
4.45779e-05 6.34108e-05 7.72311e-07
7.26243e-07 7.72311e-07 -1.28099e-06
0.000942738 2.98605e-05 -6.31551e-07
2.98605e-05 8.35192e-05 2.58315e-07
-6.31551e-07 2.58315e-07 1.54774e-05
0.000904432 3.3674e-05 1.10003e-06
3.3674e-05 6.28256e-05 1.00778e-06
1.10003e-06 1.00778e-06 -2.18788e-06
0.000869595 -1.44575e-05 6.6035e-07
-1.44575e-05 3.81689e-05 1.7834e-07
6.6035e-07 1.7834e-07 -2.28012e-05
0.00086358 -2.53162e-05 3.57178e-07
-2.53162e-05 3.69588e-05 -5.49071e-07
3.57178e-07 -5.49071e-07 -2.08461e-05
0.000785414 -3.69216e-05 -2.51177e-07
-3.69216e-05 -3.71952e-06 5.83432e-07
-2.51177e-07 5.83432e-07 -6.05886e-05
0.00152835 1.03141e-05 -7.0769e-07
1.03141e-05 -0.000126401 -9.37035e-07
-7.0769e-07 -9.37035e-07 -0.000210344
0.00194606 -0.000133699 -5.92616e-06
-0.000133699 4.85621e-05 3.60113e-06
-5.92616e-06 3.60113e-06 -3.11067e-05
0.000365009 -0.000106182 3.62802e-06
-0.000106182 -0.000438779 3.16771e-06
3.62802e-06 3.16771e-06 -0.000554918
0.00130573 -0.000129338 2.38444e-06
-0.000129338 0.000274561 -2.62068e-07
2.38444e-06 -2.62068e-07 0.000130263
0.00111368 -3.93326e-05 2.319e-06
-3.93326e-05 0.000194122 -9.17404e-07
2.319e-06 -9.17404e-07 7.2882e-05
0.0010066 -4.16466e-05 -2.66476e-07
-4.16466e-05 0.000111694 -3.92211e-07
-2.66476e-07 -3.92211e-07 2.95294e-05
0.000876683 -2.06774e-05 -8.85225e-07
-2.06774e-05 4.38759e-05 -3.97503e-08
-8.85225e-07 -3.97503e-08 -2.6579e-05
0.000897101 2.25122e-05 -5.20691e-07
2.25122e-05 5.93965e-05 2.19087e-07
-5.20691e-07 2.19087e-07 -1.12561e-05
0.00182115 -6.30907e-05 -5.68239e-06
-6.30907e-05 7.068e-05 2.02033e-06
-5.68239e-06 2.02033e-06 -2.30169e-06
0.000817308 -2.86904e-05 -1.70598e-07
-2.86904e-05 1.79777e-05 8.12074e-08
-1.70598e-07 8.12074e-08 -5.91165e-05
0.000909578 -4.73598e-05 6.08852e-07
-4.73598e-05 6.05345e-05 -3.28279e-07
6.08852e-07 -3.28279e-07 -2.09157e-05
0.00187111 -0.00018998 1.60191e-06
-0.00018998 0.000140578 -8.48751e-07
1.60191e-06 -8.48751e-07 2.97348e-05
0.000560214 -0.00011049 1.68138e-06
-0.00011049 -0.000133365 2.1113e-06
1.68138e-06 2.1113e-06 -0.000258783
0.00117065 -7.95513e-05 1.03861e-06
-7.95513e-05 0.000219138 -3.39944e-07
1.03861e-06 -3.39944e-07 8.23536e-05
0.00107059 -3.22759e-05 -5.56351e-07
-3.22759e-05 0.000147316 -3.06413e-07
-5.56351e-07 -3.06413e-07 4.99763e-05
0.00259129 -0.000187375 4.18554e-07
-0.000187375 0.000564883 3.52373e-07
4.18554e-07 3.52373e-07 0.000502192
0.00205164 -0.000204211 -6.48194e-06
-0.000204211 0.000501678 -2.7682e-06
-6.48194e-06 -2.7682e-06 0.000378678
0.000887263 -1.03362e-05 -3.10758e-06
-1.03362e-05 9.11507e-05 3.39252e-06
-3.10758e-06 3.39252e-06 -3.94407e-05
0.000888299 2.83189e-05 4.1389e-07
2.83189e-05 5.56034e-05 9.69578e-07
4.1389e-07 9.69578e-07 -2.22033e-05
0.000880949 -7.6357e-05 1.13093e-06
-7.6357e-05 4.58764e-05 1.16682e-08
1.13093e-06 1.16682e-08 -3.97482e-05
0.00103693 -3.66342e-05 2.11021e-07
-3.66342e-05 0.000112729 1.41796e-06
2.11021e-07 1.41796e-06 2.58026e-05
0.00111775 -8.69675e-08 -4.09503e-05
-8.69675e-08 0.000723759 1.20818e-06
-4.09503e-05 1.20818e-06 0.000647757
0.00132637 -1.07325e-05 1.26674e-05
-1.07325e-05 0.000635743 2.06334e-06
1.26674e-05 2.06334e-06 0.000581388
0.000263205 0.000149462 -4.48376e-05
0.000149462 -0.000953984 1.49411e-05
-4.48376e-05 1.49411e-05 -0.00150085
0.000980295 7.7046e-05 3.8154e-07
7.7046e-05 0.00011139 3.80502e-07
3.8154e-07 3.80502e-07 1.86441e-05
0.000833017 7.33474e-05 2.57226e-06
7.33474e-05 7.99083e-05 -1.87566e-07
2.57226e-06 -1.87566e-07 -4.24191e-05
0.00301489 0.000173928 9.92501e-07
0.000173928 0.000639593 -5.99223e-07
9.92501e-07 -5.99223e-07 0.000658571
0.000194241 8.34379e-05 4.33685e-06
8.34379e-05 -0.000281164 5.38134e-07
4.33685e-06 5.38134e-07 -0.000478852
0.00319166 -0.000266165 4.67668e-05
-0.000266165 0.00134357 9.03314e-06
4.67668e-05 9.03314e-06 0.00150054
0.00101967 -0.00027072 9.65179e-06
-0.00027072 -0.000586422 1.96506e-05
9.65179e-06 1.96506e-05 -0.00133737
0.00479304 0.000152258 -7.72609e-05
0.000152258 0.000820165 -5.53894e-05
-7.72609e-05 -5.53894e-05 0.000230186
-0.00111194 9.17499e-05 4.50239e-06
9.17499e-05 -0.00114292 2.22692e-06
4.50239e-06 2.22692e-06 -0.00109945
-0.00220579 -0.000330638 5.41628e-05
-0.000330638 -0.00129197 2.57017e-05
5.41628e-05 2.57017e-05 -0.00121089
0.00161159 -0.000236453 3.21144e-05
-0.000236453 0.000533301 1.60073e-05
3.21144e-05 1.60073e-05 0.000721162
0.0032748 -0.000310342 3.79749e-05
-0.000310342 5.61507e-05 2.17612e-05
3.79749e-05 2.17612e-05 0.000977613
0.00101188 5.36385e-05 1.73542e-07
5.36385e-05 0.000124612 -1.56054e-07
1.73542e-07 -1.56054e-07 3.92476e-05
0.000124853 -9.2466e-05 -1.49298e-05
-9.2466e-05 4.44064e-05 -2.91773e-06
-1.49298e-05 -2.91773e-06 -3.27926e-07
0.00181765 -2.17106e-05 -2.94136e-06
-2.17106e-05 0.000137442 -8.18057e-06
-2.94136e-06 -8.18057e-06 5.56048e-05
0.00117676 0.000111816 -2.54082e-06
0.000111816 7.61804e-05 -3.15097e-07
-2.54082e-06 -3.15097e-07 -7.42119e-06
0.000823219 5.71211e-05 -1.36096e-06
5.71211e-05 0.000139666 -4.89587e-07
-1.36096e-06 -4.89587e-07 -1.75617e-05
0.000843806 5.16367e-05 9.81912e-06
5.16367e-05 0.000145662 -9.19198e-06
9.81912e-06 -9.19198e-06 0.000102279
0.00548067 0.00046018 -3.43187e-05
0.00046018 0.0015167 -1.44285e-05
-3.43187e-05 -1.44285e-05 0.000913086
0.0076654 -0.000358063 4.64521e-06
-0.000358063 0.00249027 4.21751e-06
4.64521e-06 4.21751e-06 0.00141429
0.000292833 -0.000317307 5.82412e-06
-0.000317307 -0.00102273 8.71842e-06
5.82412e-06 8.71842e-06 -0.000840948
0.0031732 -0.000155014 1.85862e-06
-0.000155014 0.000170988 1.09659e-06
1.85862e-06 1.09659e-06 0.000719484
0.00142836 0.000100964 -3.53076e-06
0.000100964 0.000374756 -4.94632e-06
-3.53076e-06 -4.94632e-06 0.000302865
0.00189301 -7.09119e-07 -1.89127e-05
-7.09119e-07 0.000358002 -3.43058e-06
-1.89127e-05 -3.43058e-06 0.000248919
0.00142928 -5.49355e-06 -4.22088e-06
-5.49355e-06 8.53324e-05 -1.29938e-05
-4.22088e-06 -1.29938e-05 2.7562e-05
0.000166508 -3.43588e-05 -1.27816e-05
-3.43588e-05 -8.58001e-05 -7.92514e-06
-1.27816e-05 -7.92514e-06 -0.000204285
0.00294292 0.000253036 -1.0838e-05
0.000253036 0.00106432 4.83111e-05
-1.0838e-05 4.83111e-05 0.000691634
0.00827723 -0.000214046 1.3759e-05
-0.000214046 0.0024576 -1.02624e-05
1.3759e-05 -1.02624e-05 0.00116023
-0.00181147 -0.000171973 -4.31049e-05
-0.000171973 -0.0021776 -3.43402e-05
-4.31049e-05 -3.43402e-05 -0.00225571
0.003709 3.07744e-05 -1.90262e-07
3.07744e-05 0.000498834 -1.68275e-05
-1.90262e-07 -1.68275e-05 0.00102519
0.000930611 5.6208e-05 1.03834e-07
5.6208e-05 6.83081e-05 4.59829e-07
1.03834e-07 4.59829e-07 -1.11973e-05
0.000946447 6.81906e-05 -1.80269e-07
6.81906e-05 8.88662e-05 -6.34765e-07
-1.80269e-07 -6.34765e-07 1.35262e-05
0.000598289 4.09288e-05 9.08757e-07
4.09288e-05 -8.80046e-05 -1.83443e-06
9.08757e-07 -1.83443e-06 -0.00015281
0.000949136 4.8997e-05 -8.59595e-07
4.8997e-05 6.88519e-05 -9.44486e-07
-8.59595e-07 -9.44486e-07 9.25691e-06
0.000937562 -2.21903e-05 1.11148e-07
-2.21903e-05 6.34453e-05 -1.52241e-07
1.11148e-07 -1.52241e-07 -2.46713e-06
0.00100166 -7.83681e-06 -7.4949e-07
-7.83681e-06 9.92478e-05 2.24041e-08
-7.4949e-07 2.24041e-08 3.22988e-05
0.00091004 5.25214e-06 -3.37244e-07
5.25214e-06 5.74807e-05 2.7139e-07
-3.37244e-07 2.7139e-07 -1.32917e-05
0.000969279 8.67638e-06 3.3001e-07
8.67638e-06 7.82575e-05 1.09615e-09
3.3001e-07 1.09615e-09 1.27977e-05
0.00095119 -8.60293e-06 -1.9027e-07
-8.60293e-06 6.51814e-05 1.42838e-07
-1.9027e-07 1.42838e-07 -2.03669e-06
0.000999719 -1.46182e-05 2.84157e-07
-1.46182e-05 0.000100425 3.51543e-07
2.84157e-07 3.51543e-07 3.01026e-05
0.0012194 -3.48698e-05 -5.70915e-08
-3.48698e-05 0.000218354 9.3032e-07
-5.70915e-08 9.3032e-07 0.000158689
0.00100906 -4.27919e-05 1.21551e-06
-4.27919e-05 8.33566e-05 3.01504e-08
1.21551e-06 3.01504e-08 1.93331e-05
0.000897848 3.30181e-05 1.00349e-06
3.30181e-05 4.23025e-05 5.0839e-07
1.00349e-06 5.0839e-07 -2.67084e-05
0.00093842 -1.58446e-05 7.97739e-07
-1.58446e-05 6.49183e-05 -4.08508e-07
7.97739e-07 -4.08508e-07 -3.33879e-07
0.000887117 3.79636e-05 -1.83166e-07
3.79636e-05 4.26185e-05 -6.05352e-07
-1.83166e-07 -6.05352e-07 -2.11163e-05
0.000932194 2.86312e-05 -7.37944e-07
2.86312e-05 5.5356e-05 -9.23303e-07
-7.37944e-07 -9.23303e-07 -9.88442e-06
0.000980543 3.29124e-05 -2.23455e-07
3.29124e-05 8.52048e-05 -1.83884e-07
-2.23455e-07 -1.83884e-07 1.72924e-05
0.000889429 3.05735e-05 2.58105e-07
3.05735e-05 4.77713e-05 3.41653e-07
2.58105e-07 3.41653e-07 -1.82729e-05
0.000925089 3.35301e-05 5.72909e-08
3.35301e-05 5.53032e-05 -1.84977e-07
5.72909e-08 -1.84977e-07 -1.28334e-05
0.000887147 1.48192e-05 9.89779e-07
1.48192e-05 4.35577e-05 1.30684e-06
9.89779e-07 1.30684e-06 -2.88672e-05
0.000951569 2.11972e-05 2.29047e-07
2.11972e-05 6.14274e-05 8.06495e-07
2.29047e-07 8.06495e-07 -6.04158e-06
0.000933328 -4.53744e-05 4.18895e-08
-4.53744e-05 8.51241e-05 6.9184e-07
4.18895e-08 6.9184e-07 -1.54664e-06
0.000981644 -7.58974e-06 -2.35702e-07
-7.58974e-06 9.84174e-05 -2.98051e-08
-2.35702e-07 -2.98051e-08 1.75666e-05
0.00078621 -4.12631e-05 -1.69625e-07
-4.12631e-05 1.89861e-05 2.42939e-06
-1.69625e-07 2.42939e-06 -7.46885e-05
0.00102668 -9.11416e-05 -1.93571e-06
-9.11416e-05 0.000131735 3.23716e-06
-1.93571e-06 3.23716e-06 2.23281e-05
0.00107205 -3.44227e-05 3.56478e-07
-3.44227e-05 0.000152592 -1.47512e-07
3.56478e-07 -1.47512e-07 6.92897e-05
0.000814773 -5.38454e-05 3.97409e-07
-5.38454e-05 3.6061e-05 -1.8103e-06
3.97409e-07 -1.8103e-06 -5.84409e-05
0.000921807 -2.08495e-06 -1.87686e-07
-2.08495e-06 7.07207e-05 -5.82343e-07
-1.87686e-07 -5.82343e-07 -4.39218e-06
0.000778757 7.06115e-06 1.68434e-07
7.06115e-06 -1.43623e-05 1.16623e-06
1.68434e-07 1.16623e-06 -7.93337e-05
0.000925662 1.07693e-05 -2.02621e-07
1.07693e-05 7.08328e-05 -7.28044e-07
-2.02621e-07 -7.28044e-07 2.13087e-07
0.00090311 7.11683e-06 2.70058e-08
7.11683e-06 5.02492e-05 3.64332e-07
2.70058e-08 3.64332e-07 -9.37931e-06
0.000872159 1.82615e-05 -5.42535e-07
1.82615e-05 2.66605e-05 9.47429e-07
-5.42535e-07 9.47429e-07 -2.0599e-05
0.000904078 -5.62893e-06 1.94824e-07
-5.62893e-06 5.24684e-05 -6.73572e-07
1.94824e-07 -6.73572e-07 -6.41359e-06
0.000876832 3.70675e-06 -2.62695e-07
3.70675e-06 2.81998e-05 4.55404e-09
-2.62695e-07 4.55404e-09 -1.79523e-05
0.000842597 1.91179e-05 -9.19599e-07
1.91179e-05 4.36515e-06 1.72342e-06
-9.19599e-07 1.72342e-06 -2.50556e-05
0.000895003 -3.99157e-06 9.17016e-07
-3.99157e-06 3.60035e-05 -7.9689e-07
9.17016e-07 -7.9689e-07 -9.65531e-06
0.00084949 1.16027e-05 -1.46491e-07
1.16027e-05 4.43783e-06 1.01636e-09
-1.46491e-07 1.01636e-09 -2.39954e-05
0.00137106 2.07028e-05 -6.06011e-06
2.07028e-05 0.000277498 4.29233e-06
-6.06011e-06 4.29233e-06 0.000278512
0.000846799 3.21784e-06 9.51623e-07
3.21784e-06 1.19813e-06 -1.6789e-06
9.51623e-07 -1.6789e-06 -2.67153e-05
0.00108201 1.51128e-05 -2.50207e-06
1.51128e-05 0.000120137 5.83012e-07
-2.50207e-06 5.83012e-07 0.000120357
0.000955547 1.40902e-05 -1.20249e-06
1.40902e-05 5.33893e-05 1.57135e-06
-1.20249e-06 1.57135e-06 6.97207e-05
0.000792073 9.42257e-06 5.26704e-07
9.42257e-06 -3.73791e-05 -3.11297e-06
5.26704e-07 -3.11297e-06 -3.81275e-05
0.00154966 1.13961e-05 3.84708e-06
1.13961e-05 0.000366922 -1.19085e-06
3.84708e-06 -1.19085e-06 0.000386616
0.00213769 6.55027e-06 4.54881e-06
6.55027e-06 0.000679416 -3.9915e-06
4.54881e-06 -3.9915e-06 0.00070214
0.000937553 -2.37264e-05 6.82613e-07
-2.37264e-05 6.21765e-05 -3.95521e-07
6.82613e-07 -3.95521e-07 1.75258e-05
0.000856349 -7.61919e-06 -2.66216e-07
-7.61919e-06 5.13151e-06 -1.44111e-06
-2.66216e-07 -1.44111e-06 -1.92441e-05
0.000923096 -7.11689e-06 4.43523e-07
-7.11689e-06 5.45954e-05 1.46246e-07
4.43523e-07 1.46246e-07 1.19246e-05
0.000810372 -5.26195e-06 -3.43893e-07
-5.26195e-06 -3.03531e-05 -3.01567e-06
-3.43893e-07 -3.01567e-06 -2.79095e-05
0.000860069 -4.67912e-06 -3.4871e-08
-4.67912e-06 5.14738e-06 -6.01968e-09
-3.4871e-08 -6.01968e-09 -1.81117e-05
0.000893789 -2.54491e-05 -8.77382e-07
-2.54491e-05 3.75415e-05 1.07155e-06
-8.77382e-07 1.07155e-06 -3.70101e-06
0.0020192 -4.13636e-07 -7.34265e-07
-4.13636e-07 0.000615501 -3.9444e-06
-7.34265e-07 -3.9444e-06 0.000639698
0.000804897 -2.08665e-07 -7.37211e-08
-2.08665e-07 -3.42554e-05 3.28143e-10
-7.37211e-08 3.28143e-10 -3.14486e-05
0.000860499 -1.59749e-06 2.78441e-08
-1.59749e-06 4.36657e-06 1.59696e-06
2.78441e-08 1.59696e-06 -1.85381e-05
0.000806713 4.90926e-06 -2.3778e-07
4.90926e-06 -3.2807e-05 3.07173e-06
-2.3778e-07 3.07173e-06 -3.04811e-05
0.00203375 6.3819e-06 -1.88191e-06
6.3819e-06 0.000623675 -1.37756e-08
-1.88191e-06 -1.37756e-08 0.000647631
0.00206217 1.25269e-05 -8.59076e-06
1.25269e-05 0.000640278 3.91436e-06
-8.59076e-06 3.91436e-06 0.000663686
-0.00108307 7.38028e-05 -2.19409e-05
7.38028e-05 -0.000522412 1.68879e-06
-2.19409e-05 1.68879e-06 -0.000659362
-0.00104825 0.000223378 1.04383e-05
0.000223378 -0.000430407 2.07629e-06
1.04383e-05 2.07629e-06 -0.000446048
0.00167223 4.56116e-05 -3.9578e-05
4.56116e-05 -1.30614e-05 2.15969e-05
-3.9578e-05 2.15969e-05 -4.70794e-05
-0.00126084 0.000242784 2.57669e-05
0.000242784 -0.000881134 -8.82518e-06
2.57669e-05 -8.82518e-06 -0.000646538
0.0019025 2.77029e-05 -7.85444e-05
2.77029e-05 0.000226106 -9.42291e-08
-7.85444e-05 -9.42291e-08 -8.29913e-05
0.00183293 3.64568e-05 2.5178e-05
3.64568e-05 0.000177229 -4.00844e-06
2.5178e-05 -4.00844e-06 9.37907e-05
0.00129842 -7.17484e-05 -4.82655e-05
-7.17484e-05 -0.000380782 -3.0506e-06
-4.82655e-05 -3.0506e-06 -0.00092385
0.00510292 0.000397786 8.10817e-05
0.000397786 0.00244789 -2.62481e-05
8.10817e-05 -2.62481e-05 0.00255485
-0.00138612 0.00049248 1.45823e-05
0.00049248 -0.00208572 1.42386e-05
1.45823e-05 1.42386e-05 -0.000862082
0.00133348 7.03985e-05 -1.88597e-06
7.03985e-05 -6.23249e-05 3.04319e-06
-1.88597e-06 3.04319e-06 -0.000273269
0.00267573 0.000284844 7.59761e-06
0.000284844 0.000225411 -1.49786e-05
7.59761e-06 -1.49786e-05 -0.000852513
0.00393745 0.000600843 -4.69197e-06
0.000600843 0.00109859 -4.33568e-06
-4.69197e-06 -4.33568e-06 0.00139976
0.00211335 0.000253392 -2.55921e-06
0.000253392 -0.000496544 4.11673e-06
-2.55921e-06 4.11673e-06 0.000118843
0.00173086 1.18504e-05 -1.66049e-05
1.18504e-05 -0.000215144 -1.67249e-06
-1.66049e-05 -1.67249e-06 -0.000419449
0.00307583 0.000394854 5.31344e-05
0.000394854 0.000581037 -3.54205e-05
5.31344e-05 -3.54205e-05 -0.000601686
-0.00349713 0.000249165 -7.79903e-05
0.000249165 -0.00288488 2.74384e-05
-7.79903e-05 2.74384e-05 -0.00273209
0.00105226 0.000133134 -9.89582e-06
0.000133134 -0.00123563 1.49057e-05
-9.89582e-06 1.49057e-05 -0.000742223
0.000988077 -1.33064e-05 1.0663e-06
-1.33064e-05 0.000108764 2.16488e-07
1.0663e-06 2.16488e-07 3.24352e-05
0.000927626 3.06454e-05 -1.22032e-06
3.06454e-05 7.59099e-05 -3.60292e-07
-1.22032e-06 -3.60292e-07 8.25596e-06
0.000883418 3.98622e-06 7.403e-07
3.98622e-06 4.463e-05 -1.2986e-07
7.403e-07 -1.2986e-07 -9.86325e-06
0.00092302 4.94749e-05 1.6854e-06
4.94749e-05 7.67451e-05 7.82333e-07
1.6854e-06 7.82333e-07 1.27561e-05
0.000853726 1.08849e-05 -1.90749e-07
1.08849e-05 3.65321e-05 5.74977e-07
-1.90749e-07 5.74977e-07 -3.87102e-05
0.000973485 2.99659e-05 1.61889e-07
2.99659e-05 0.000100453 5.20762e-07
1.61889e-07 5.20762e-07 3.25778e-05
0.000875578 -4.33696e-06 -3.10698e-07
-4.33696e-06 4.5014e-05 1.16387e-06
-3.10698e-07 1.16387e-06 -1.83273e-05
0.00098983 5.28371e-05 -7.69613e-07
5.28371e-05 0.000105644 1.563e-07
-7.69613e-07 1.563e-07 3.911e-05
0.000970815 2.05899e-05 -3.37272e-07
2.05899e-05 9.55351e-05 3.60495e-07
-3.37272e-07 3.60495e-07 3.2389e-05
0.000804757 -2.23365e-05 -8.27772e-07
-2.23365e-05 7.13768e-06 -2.91303e-07
-8.27772e-07 -2.91303e-07 -5.2453e-05
0.00123778 -5.34432e-05 4.58959e-06
-5.34432e-05 -0.000221718 -1.48106e-06
4.58959e-06 -1.48106e-06 -0.00029973
0.00170937 -0.000175417 -6.56893e-08
-0.000175417 7.67832e-05 4.24543e-06
-6.56893e-08 4.24543e-06 -3.20813e-05
0.000658266 -0.000110806 1.02125e-05
-0.000110806 -6.50473e-05 9.27509e-07
1.02125e-05 9.27509e-07 -0.000188528
0.00100068 -7.22119e-05 3.87158e-06
-7.22119e-05 0.000122251 -1.34133e-06
3.87158e-06 -1.34133e-06 -9.69241e-06
0.00107027 -2.2614e-05 2.31315e-07
-2.2614e-05 0.000149904 -8.71655e-07
2.31315e-07 -8.71655e-07 4.77205e-05
0.000832825 -4.93313e-05 -5.66603e-07
-4.93313e-05 2.16859e-05 -4.98154e-07
-5.66603e-07 -4.98154e-07 -6.23064e-05
0.00086515 3.65291e-05 -7.30944e-08
3.65291e-05 4.24943e-05 -9.13088e-08
-7.30944e-08 -9.13088e-08 -3.52736e-05
0.000923392 -2.0515e-05 3.35007e-08
-2.0515e-05 7.52492e-05 5.84757e-07
3.35007e-08 5.84757e-07 -3.70802e-06
0.00175591 -0.000163006 8.194e-07
-0.000163006 0.000161757 -2.86019e-07
8.194e-07 -2.86019e-07 0.000107773
0.000981408 -2.90776e-06 -1.89999e-07
-2.90776e-06 9.92013e-05 -3.85787e-07
-1.89999e-07 -3.85787e-07 1.44405e-05
0.00109368 -3.6175e-05 -4.83413e-07
-3.6175e-05 0.000144394 -1.25401e-07
-4.83413e-07 -1.25401e-07 5.5431e-05
0.00154182 -0.000177769 -3.18292e-07
-0.000177769 0.000260317 -2.10731e-06
-3.18292e-07 -2.10731e-06 0.00012942
0.00108699 -2.73069e-05 -7.41414e-07
-2.73069e-05 0.000178443 9.10897e-07
-7.41414e-07 9.10897e-07 5.098e-05
-0.000273835 -0.00017916 -2.00975e-06
-0.00017916 -0.000880713 -6.55536e-06
-2.00975e-06 -6.55536e-06 -0.000817426
0.00179226 -7.87663e-05 -2.43121e-06
-7.87663e-05 0.000554364 8.68978e-06
-2.43121e-06 8.68978e-06 0.000386187
0.000564723 2.05514e-05 -2.09694e-06
2.05514e-05 -0.000125895 4.57837e-06
-2.09694e-06 4.57837e-06 -0.000215208
0.000932138 1.00871e-05 3.18739e-07
1.00871e-05 6.50258e-05 6.94615e-07
3.18739e-07 6.94615e-07 -1.43429e-05
0.000920184 2.11997e-05 -6.33058e-07
2.11997e-05 5.36285e-05 9.82495e-07
-6.33058e-07 9.82495e-07 -3.63233e-05
0.00162831 -4.43259e-06 -5.12418e-06
-4.43259e-06 0.00024386 8.97937e-07
-5.12418e-06 8.97937e-07 0.00014034
2.41147e-05 -4.50035e-06 -3.38527e-06
-4.50035e-06 0.000137471 -8.83693e-07
-3.38527e-06 -8.83693e-07 1.31578e-05
-0.00470987 -4.59875e-05 1.34382e-05
-4.59875e-05 -0.00249318 3.8301e-06
1.34382e-05 3.8301e-06 -0.00239537
0.000932315 6.71733e-05 1.62414e-06
6.71733e-05 8.88257e-05 7.29235e-07
1.62414e-06 7.29235e-07 1.87636e-06
0.000106773 1.81106e-05 2.95859e-06
1.81106e-05 -0.000210539 3.18947e-07
2.95859e-06 3.18947e-07 -0.000373601
0.00132768 8.77058e-05 6.57927e-06
8.77058e-05 0.000167404 -4.52092e-07
6.57927e-06 -4.52092e-07 6.60852e-05
-0.001303 -4.85137e-05 1.53325e-05
-4.85137e-05 -0.000700029 2.28483e-06
1.53325e-05 2.28483e-06 -0.000849435
0.00283413 -0.000382246 1.40021e-05
-0.000382246 0.000421329 7.04181e-06
1.40021e-05 7.04181e-06 -0.000846733
0.00505175 0.000416936 8.43701e-05
0.000416936 0.00135619 -3.24265e-05
8.43701e-05 -3.24265e-05 0.000915319
-0.000285006 4.26847e-05 -1.22683e-05
4.26847e-05 -0.00045566 8.7807e-06
-1.22683e-05 8.7807e-06 -0.000471411
0.00510946 -0.000513109 4.35931e-05
-0.000513109 0.00140762 4.25865e-05
4.35931e-05 4.25865e-05 0.0014735
0.0019606 -2.03056e-05 2.23819e-05
-2.03056e-05 0.0002063 1.06625e-05
2.23819e-05 1.06625e-05 0.00012574
0.00259462 -0.000135116 1.40224e-05
-0.000135116 -9.14991e-05 1.17243e-05
1.40224e-05 1.17243e-05 0.000445584
0.00115015 9.00001e-05 8.2994e-07
9.00001e-05 0.000234967 -7.41356e-07
8.2994e-07 -7.41356e-07 0.000163836
0.00154374 5.8647e-07 -6.68329e-08
5.8647e-07 0.00017614 -2.554e-06
-6.68329e-08 -2.554e-06 8.18656e-05
0.00142453 -6.66848e-06 -3.10197e-06
-6.66848e-06 6.32531e-05 -2.1114e-06
-3.10197e-06 -2.1114e-06 8.6615e-06
-7.66682e-05 1.00877e-05 2.05836e-06
1.00877e-05 -0.000207961 2.15813e-07
2.05836e-06 2.15813e-07 -0.00033004
0.00294696 0.000308953 -2.52593e-05
0.000308953 0.000781411 -2.25269e-05
-2.52593e-05 -2.25269e-05 0.000473479
0.00460055 7.8141e-05 3.33692e-05
7.8141e-05 0.000833642 8.44022e-06
3.33692e-05 8.44022e-06 -0.000598629
0.00226406 1.62927e-05 1.31555e-06
1.62927e-05 -0.000420841 -6.37437e-06
1.31555e-06 -6.37437e-06 0.000119452
0.00109742 -0.000215147 -7.75812e-06
-0.000215147 -0.000619987 2.07503e-05
-7.75812e-06 2.07503e-05 -0.000664772
0.00108853 4.24928e-05 -2.0948e-06
4.24928e-05 0.00026663 -8.51342e-06
-2.0948e-06 -8.51342e-06 0.000223784
0.000822103 5.6449e-06 5.74552e-06
5.6449e-06 4.26081e-06 5.47193e-06
5.74552e-06 5.47193e-06 -5.78732e-05
0.0014358 2.65164e-06 -4.2895e-06
2.65164e-06 0.000125932 -5.41454e-06
-4.2895e-06 -5.41454e-06 4.66476e-05
0.00110954 0.000122654 9.55013e-06
0.000122654 -0.00111188 -1.66094e-05
9.55013e-06 -1.66094e-05 -0.000685968
-0.00124468 6.79645e-05 8.8646e-06
6.79645e-05 -0.000638068 -5.35432e-06
8.8646e-06 -5.35432e-06 -0.000855307
0.0073122 -1.84227e-05 4.27214e-05
-1.84227e-05 0.00207647 8.99747e-06
4.27214e-05 8.99747e-06 0.000895646
-0.000768457 -2.31497e-05 1.19109e-05
-2.31497e-05 -0.00101584 -5.85479e-05
1.19109e-05 -5.85479e-05 -0.000967292
0.00125687 8.87155e-05 1.85074e-06
8.87155e-05 0.000245294 2.71048e-06
1.85074e-06 2.71048e-06 0.000170679
0.000768407 5.73696e-05 -8.87041e-07
5.73696e-05 -7.61375e-06 1.54596e-06
-8.87041e-07 1.54596e-06 -7.59423e-05
0.000810354 2.86656e-05 -1.0571e-06
2.86656e-05 3.59046e-05 -2.7665e-06
-1.0571e-06 -2.7665e-06 -2.49604e-05
0.000969882 5.96635e-05 -2.81545e-07
5.96635e-05 7.97378e-05 -3.21284e-07
-2.81545e-07 -3.21284e-07 1.36163e-05
0.000942537 4.57165e-06 -4.69927e-07
4.57165e-06 6.00953e-05 -3.9428e-07
-4.69927e-07 -3.9428e-07 -6.19108e-06
0.000781122 -2.53333e-05 -1.08931e-06
-2.53333e-05 -1.06885e-05 1.66434e-06
-1.08931e-06 1.66434e-06 -8.27545e-05
0.000960206 3.7055e-05 1.46019e-07
3.7055e-05 7.20133e-05 3.03906e-08
1.46019e-07 3.03906e-08 4.42267e-06
0.00089716 -4.94032e-05 -4.03241e-08
-4.94032e-05 2.7768e-05 -3.07515e-07
-4.03241e-08 -3.07515e-07 -3.8032e-05
0.0010649 -5.41235e-05 2.3204e-06
-5.41235e-05 0.000132803 1.38758e-06
2.3204e-06 1.38758e-06 6.85193e-05
0.000819782 -1.09018e-05 5.74632e-07
-1.09018e-05 2.22162e-05 1.4189e-06
5.74632e-07 1.4189e-06 -2.48134e-05
0.000938651 -1.15331e-05 5.06518e-07
-1.15331e-05 4.28905e-05 1.1929e-07
5.06518e-07 1.1929e-07 -2.17364e-05
0.000959379 3.24445e-05 -6.58933e-07
3.24445e-05 7.2302e-05 -4.86841e-07
-6.58933e-07 -4.86841e-07 5.74935e-06
0.000909882 3.38172e-05 -1.24134e-07
3.38172e-05 6.00868e-05 -5.01889e-07
-1.24134e-07 -5.01889e-07 -6.69681e-06
0.000908256 3.66617e-05 -5.38233e-07
3.66617e-05 4.61227e-05 -1.08059e-06
-5.38233e-07 -1.08059e-06 -2.18282e-05
0.000936556 1.61332e-05 3.33237e-08
1.61332e-05 5.35731e-05 2.65334e-07
3.33237e-08 2.65334e-07 -1.39495e-05
0.000946041 1.61605e-05 5.22919e-07
1.61605e-05 7.30544e-05 3.47398e-07
5.22919e-07 3.47398e-07 1.2641e-06
0.000849787 -3.94853e-05 1.76824e-07
-3.94853e-05 4.26846e-05 1.35106e-06
1.76824e-07 1.35106e-06 -3.45815e-05
0.000876368 -3.01975e-05 -1.14211e-07
-3.01975e-05 5.63737e-05 -6.81827e-07
-1.14211e-07 -6.81827e-07 -2.75647e-05
0.000810003 -4.84783e-05 8.65705e-07
-4.84783e-05 4.08636e-05 1.85675e-06
8.65705e-07 1.85675e-06 -6.7127e-05
0.00108102 -1.36499e-05 -5.34152e-07
-1.36499e-05 0.000149877 -1.16741e-06
-5.34152e-07 -1.16741e-06 6.91737e-05
0.00103671 -5.26178e-05 -2.93006e-07
-5.26178e-05 0.000143176 7.55782e-07
-2.93006e-07 7.55782e-07 4.83959e-05
0.000585152 -7.43096e-05 -1.66958e-06
-7.43096e-05 -9.4539e-05 3.08008e-06
-1.66958e-06 3.08008e-06 -0.000212058
0.000947685 -8.80806e-05 -3.10075e-06
-8.80806e-05 9.36398e-05 7.67389e-07
-3.10075e-06 7.67389e-07 -1.77515e-05
0.000978719 -6.55229e-05 -1.08267e-06
-6.55229e-05 0.000108772 1.43182e-06
-1.08267e-06 1.43182e-06 1.67873e-05
0.000913883 -8.5582e-05 2.60238e-08
-8.5582e-05 7.598e-05 1.77205e-07
2.60238e-08 1.77205e-07 -3.32064e-05
0.00092189 -8.57188e-06 3.98183e-08
-8.57188e-06 6.27259e-05 1.23472e-06
3.98183e-08 1.23472e-06 -7.66836e-06
0.001007 -3.61327e-05 -5.10155e-07
-3.61327e-05 0.000118044 -5.04347e-07
-5.10155e-07 -5.04347e-07 3.35967e-05
0.000817733 -5.61128e-05 9.43688e-07
-5.61128e-05 3.89053e-05 -3.10559e-06
9.43688e-07 -3.10559e-06 -5.33269e-05
0.00108327 -3.24928e-06 -4.26698e-07
-3.24928e-06 0.000155139 -1.59566e-06
-4.26698e-07 -1.59566e-06 8.12364e-05
0.00085544 6.78975e-06 6.42639e-08
6.78975e-06 2.59583e-05 -2.99916e-08
6.42639e-08 -2.99916e-08 -3.79301e-05
0.000872775 2.49814e-05 -3.05145e-07
2.49814e-05 2.86311e-05 1.14832e-06
-3.05145e-07 1.14832e-06 -2.17064e-05
0.000920447 2.03149e-06 2.20841e-07
2.03149e-06 6.02269e-05 -4.97819e-07
2.20841e-07 -4.97819e-07 -8.05153e-08
0.000877326 1.43798e-05 -2.79706e-07
1.43798e-05 2.95442e-05 -5.98644e-08
-2.79706e-07 -5.98644e-08 -1.78524e-05
0.000835181 2.32617e-05 -1.11259e-06
2.32617e-05 4.25794e-06 1.7549e-06
-1.11259e-06 1.7549e-06 -2.64582e-05
0.00088477 -2.00703e-06 7.69446e-07
-2.00703e-06 3.22338e-05 -8.96682e-07
7.69446e-07 -8.96682e-07 -1.39707e-05
0.00084311 1.80372e-05 -8.43677e-08
1.80372e-05 4.17607e-06 1.05711e-09
-8.43677e-08 1.05711e-09 -2.51562e-05
0.00134205 2.582e-05 -6.83112e-06
2.582e-05 0.000267599 3.08787e-06
-6.83112e-06 3.08787e-06 0.000267526
0.000848962 7.82753e-06 1.03797e-06
7.82753e-06 3.75856e-06 -1.67804e-06
1.03797e-06 -1.67804e-06 -2.45542e-05
0.00107852 1.99848e-05 -3.09613e-06
1.99848e-05 0.000122007 5.54314e-07
-3.09613e-06 5.54314e-07 0.000121512
0.000946186 1.88503e-05 -1.75087e-06
1.88503e-05 5.28746e-05 1.57785e-06
-1.75087e-06 1.57785e-06 6.83601e-05
0.000790843 1.40055e-05 8.12141e-07
1.40055e-05 -3.53718e-05 -3.14816e-06
8.12141e-07 -3.14816e-06 -3.6553e-05
0.00154476 1.71507e-05 5.12226e-06
1.71507e-05 0.000367346 -1.14003e-06
5.12226e-06 -1.14003e-06 0.000386527
0.00213369 1.318e-05 7.88076e-06
1.318e-05 0.000679237 -3.92855e-06
7.88076e-06 -3.92855e-06 0.000701645
0.000730792 -1.24861e-06 -2.94363e-07
-1.24861e-06 -4.30714e-05 -1.07025e-06
-2.94363e-07 -1.07025e-06 -9.49074e-05
0.000626603 -1.17131e-05 -2.08164e-07
-1.17131e-05 -0.000112602 -1.8447e-06
-2.08164e-07 -1.8447e-06 -0.000140659
0.000957264 -1.04799e-05 -2.15873e-08
-1.04799e-05 7.38184e-05 2.56264e-08
-2.15873e-08 2.56264e-08 2.81159e-05
0.000811234 -1.00021e-05 -4.71417e-07
-1.00021e-05 -2.75367e-05 -3.00836e-06
-4.71417e-07 -3.00836e-06 -2.62416e-05
0.000737482 -8.09053e-06 3.71242e-08
-8.09053e-06 -5.71915e-05 1.26847e-08
3.71242e-08 1.26847e-08 -8.24488e-05
0.000733584 -3.38696e-05 4.72696e-08
-3.38696e-05 -4.40946e-05 6.52532e-07
4.72696e-08 6.52532e-07 -8.83642e-05
0.00202494 -6.75809e-06 -4.51864e-06
-6.75809e-06 0.000619538 -3.9372e-06
-4.51864e-06 -3.9372e-06 0.000643467
0.000804365 -5.07663e-06 -1.48195e-07
-5.07663e-06 -3.36333e-05 -9.81149e-09
-1.48195e-07 -9.81149e-09 -3.1132e-05
0.000859351 -5.28766e-06 3.37271e-08
-5.28766e-06 4.72082e-06 1.54457e-06
3.37271e-08 1.54457e-06 -1.85298e-05
0.00201797 -5.70198e-08 -1.84042e-06
-5.70198e-08 0.000614829 -8.74928e-10
-1.84042e-06 -8.74928e-10 0.000639031
0.000805198 1.33779e-08 3.11738e-08
1.33779e-08 -3.41416e-05 3.05479e-06
3.11738e-08 3.05479e-06 -3.13381e-05
0.00203663 6.72162e-06 -4.33394e-06
6.72162e-06 0.000625377 3.95919e-06
-4.33394e-06 3.95919e-06 0.000649259
0.00106075 4.26663e-06 -1.92876e-05
4.26663e-06 -0.000109303 5.94199e-06
-1.92876e-05 5.94199e-06 -0.000219725
0.00114569 0.000113919 1.39318e-06
0.000113919 0.000666727 -2.43533e-06
1.39318e-06 -2.43533e-06 0.000686786
0.000558347 1.1945e-05 6.51759e-05
1.1945e-05 0.000315701 -1.34141e-05
6.51759e-05 -1.34141e-05 0.000153016
0.000911752 1.81024e-05 -1.00826e-07
1.81024e-05 5.76415e-05 -1.33712e-09
-1.00826e-07 -1.33712e-09 -9.554e-06
0.00142734 2.56219e-05 -2.22238e-06
2.56219e-05 8.05263e-05 1.10681e-05
-2.22238e-06 1.10681e-05 3.07729e-05
0.00139175 3.72291e-05 -1.27459e-05
3.72291e-05 -0.00017741 4.47503e-06
-1.27459e-05 4.47503e-06 -0.000240571
0.00121645 0.000280857 4.33655e-05
0.000280857 0.000336704 -2.37874e-05
4.33655e-05 -2.37874e-05 0.000742705
0.00329946 7.76182e-05 -3.77357e-05
7.76182e-05 0.000700211 8.32828e-06
-3.77357e-05 8.32828e-06 0.000474083
0.00828136 0.000507485 1.87807e-05
0.000507485 0.00286187 -1.05732e-05
1.87807e-05 -1.05732e-05 0.001912
-0.00240139 0.000386565 4.707e-05
0.000386565 -0.00190109 -1.30414e-05
4.707e-05 -1.30414e-05 -0.00150124
0.00297753 0.000265868 2.6697e-05
0.000265868 7.11856e-05 -2.132e-05
2.6697e-05 -2.132e-05 0.000660637
0.0021918 2.74982e-05 -3.98256e-05
2.74982e-05 -0.000316077 4.31649e-06
-3.98256e-05 4.31649e-06 -0.000632264
0.00686343 0.000381135 3.59983e-05
0.000381135 0.00237034 -1.31334e-05
3.59983e-05 -1.31334e-05 0.00126818
0.00334979 0.000410606 -4.6116e-06
0.000410606 9.67429e-05 4.42714e-06
-4.6116e-06 4.42714e-06 0.00020921
0.00290702 0.000148579 -3.42212e-06
0.000148579 -0.000171456 1.8894e-06
-3.42212e-06 1.8894e-06 0.000360826
0.00486847 -0.000187443 4.75156e-05
-0.000187443 0.000969531 -2.74285e-05
4.75156e-05 -2.74285e-05 0.000569004
0.00689486 0.000400085 2.52401e-05
0.000400085 0.00221831 -6.06999e-06
2.52401e-05 -6.06999e-06 0.000703547
0.00216835 0.000292272 9.2682e-06
0.000292272 -0.000470721 4.84676e-05
9.2682e-06 4.84676e-05 -0.000487601
0.0036327 4.64602e-05 4.42176e-08
4.64602e-05 0.000332491 9.66413e-06
4.42176e-08 9.66413e-06 0.000904716
0.000920668 -1.68003e-05 4.17431e-07
-1.68003e-05 6.70633e-05 3.29779e-07
4.17431e-07 3.29779e-07 -1.25658e-05
0.00095444 -2.7695e-05 4.45261e-07
-2.7695e-05 9.25358e-05 6.44544e-09
4.45261e-07 6.44544e-09 1.50332e-05
0.00098556 3.6546e-05 -8.72518e-07
3.6546e-05 0.000107761 9.38982e-08
-8.72518e-07 9.38982e-08 4.00631e-05
0.000919309 -8.08863e-06 -2.39175e-07
-8.08863e-06 6.2015e-05 -1.37568e-07
-2.39175e-07 -1.37568e-07 -9.56695e-06
0.000947373 3.74837e-05 -4.95018e-07
3.74837e-05 8.60846e-05 3.38946e-07
-4.95018e-07 3.38946e-07 1.20582e-05
0.000999042 1.5711e-05 5.28656e-07
1.5711e-05 0.000114827 9.45474e-07
5.28656e-07 9.45474e-07 4.70015e-05
0.00104265 4.97598e-05 -4.74487e-07
4.97598e-05 0.000132411 1.18742e-07
-4.74487e-07 1.18742e-07 6.64394e-05
0.00107738 5.41673e-05 7.12779e-07
5.41673e-05 0.00015358 8.55254e-07
7.12779e-07 8.55254e-07 8.96989e-05
0.00118565 -0.000150029 1.32921e-05
-0.000150029 -0.000120982 -8.01088e-06
1.32921e-05 -8.01088e-06 -0.000160794
0.00109248 -0.000154526 3.87829e-06
-0.000154526 4.67088e-05 -8.56143e-07
3.87829e-06 -8.56143e-07 -8.99584e-05
0.000938337 -8.84754e-05 -1.91344e-06
-8.84754e-05 8.78864e-05 1.19255e-08
-1.91344e-06 1.19255e-08 5.49679e-06
0.00143535 -4.76786e-05 1.84596e-06
-4.76786e-05 0.000342876 -1.71532e-06
1.84596e-06 -1.71532e-06 0.000219799
0.00112809 -4.5596e-05 -1.2024e-06
-4.5596e-05 0.000161271 -8.72427e-07
-1.2024e-06 -8.72427e-07 7.16345e-05
0.00106945 -1.12018e-05 -8.60356e-07
-1.12018e-05 0.000142204 -4.62357e-07
-8.60356e-07 -4.62357e-07 6.06396e-05
0.000993831 1.27547e-05 2.79716e-08
1.27547e-05 0.000100932 -6.33592e-08
2.79716e-08 -6.33592e-08 1.97709e-05
0.00146606 -0.000248994 -3.90833e-06
-0.000248994 -2.82817e-05 -8.2204e-07
-3.90833e-06 -8.2204e-07 9.98913e-06
0.00101284 1.01824e-05 1.25209e-07
1.01824e-05 0.000107567 -6.35225e-07
1.25209e-07 -6.35225e-07 1.67988e-05
0.00106277 -2.02811e-05 -1.11325e-06
-2.02811e-05 0.000134248 1.02703e-07
-1.11325e-06 1.02703e-07 3.83707e-05
0.00108046 -6.66304e-05 -5.03321e-07
-6.66304e-05 0.000191633 1.41499e-06
-5.03321e-07 1.41499e-06 2.19669e-05
0.00109401 -1.40888e-07 6.98632e-08
-1.40888e-07 0.00014296 9.03177e-07
6.98632e-08 9.03177e-07 6.75103e-05
-0.00179049 -0.000211252 1.90207e-08
-0.000211252 -0.00135146 -9.06291e-06
1.90207e-08 -9.06291e-06 -0.00133793
0.0015456 3.0731e-05 -6.42894e-06
3.0731e-05 0.000563476 1.35256e-05
-6.42894e-06 1.35256e-05 0.000403289
0.000552634 5.73522e-06 -9.90954e-07
5.73522e-06 -0.000146436 3.33868e-06
-9.90954e-07 3.33868e-06 -0.000224348
0.00101336 7.30221e-05 2.06054e-07
7.30221e-05 0.000107796 1.26086e-06
2.06054e-07 1.26086e-06 2.36018e-05
0.00122013 -8.79493e-07 1.19977e-05
-8.79493e-07 0.000280252 2.0452e-06
1.19977e-05 2.0452e-06 0.000204825
0.00142871 -7.05557e-06 9.49586e-06
-7.05557e-06 0.00014503 4.36137e-07
9.49586e-06 4.36137e-07 3.83561e-05
-0.00108865 -5.00835e-06 1.60997e-05
-5.00835e-06 -0.000460158 -4.75283e-07
1.60997e-05 -4.75283e-07 -0.000636291
0.000803502 7.28605e-05 4.46411e-06
7.28605e-05 5.99179e-05 1.8801e-06
4.46411e-06 1.8801e-06 -9.36082e-06
-0.000330589 2.37171e-05 -3.56538e-06
2.37171e-05 -0.000321769 4.89323e-06
-3.56538e-06 4.89323e-06 -0.000447837
0.00121269 7.62656e-07 1.3787e-05
7.62656e-07 1.61826e-06 -1.9164e-06
1.3787e-05 -1.9164e-06 -7.61881e-05
0.00554094 -0.000452927 5.9657e-05
-0.000452927 0.00151971 1.91667e-05
5.9657e-05 1.91667e-05 0.000148436
0.00579611 0.000436713 -2.51497e-05
0.000436713 0.00189675 -6.78957e-05
-2.51497e-05 -6.78957e-05 0.00130762
0.00301509 -0.000324768 9.91506e-06
-0.000324768 -5.81616e-05 7.56341e-05
9.91506e-06 7.56341e-05 -6.93639e-05
0.00150176 -8.72413e-06 -3.45604e-06
-8.72413e-06 0.000101811 8.76907e-06
-3.45604e-06 8.76907e-06 4.89729e-05
0.00103354 1.39713e-05 6.8826e-09
1.39713e-05 -0.00122208 4.10998e-06
6.8826e-09 4.10998e-06 -0.000670966
0.00091952 5.87785e-05 5.26963e-08
5.87785e-05 0.000175076 7.53357e-08
5.26963e-08 7.53357e-08 0.000123324
0.00092715 5.46713e-06 -1.26279e-06
5.46713e-06 7.43949e-05 3.16776e-07
-1.26279e-06 3.16776e-07 1.33763e-05
0.00130118 1.32813e-06 -2.58659e-06
1.32813e-06 0.00011214 9.48325e-08
-2.58659e-06 9.48325e-08 3.62289e-05
-0.000426162 7.39881e-05 3.07843e-06
7.39881e-05 -0.000151291 -1.32186e-06
3.07843e-06 -1.32186e-06 -0.000296138
0.00287525 0.000143195 2.92217e-06
0.000143195 -0.000116129 -2.34234e-06
2.92217e-06 -2.34234e-06 0.000366334
0.00519986 0.00021681 3.6231e-05
0.00021681 0.000841794 5.66825e-08
3.6231e-05 5.66825e-08 -0.000158793
0.00326797 0.000113868 -4.51675e-05
0.000113868 0.000577837 -3.36279e-06
-4.51675e-05 -3.36279e-06 0.000528937
-0.000168481 4.8774e-05 7.5398e-07
4.8774e-05 -0.0002027 -1.13123e-05
7.5398e-07 -1.13123e-05 -0.000281645
0.00100852 -4.8048e-07 -6.28868e-06
-4.8048e-07 0.00015583 1.0482e-05
-6.28868e-06 1.0482e-05 6.9137e-05
0.00139931 1.79892e-05 4.75768e-06
1.79892e-05 6.58568e-05 -1.08169e-05
4.75768e-06 -1.08169e-05 7.72728e-06
0.00291378 0.00025869 3.61728e-05
0.00025869 2.33239e-05 -2.04473e-05
3.61728e-05 -2.04473e-05 0.000641588
0.00177985 0.000334166 -7.8244e-06
0.000334166 -0.000589761 -5.45358e-05
-7.8244e-06 -5.45358e-05 -0.00060843
0.00129192 0.000200246 1.92325e-05
0.000200246 0.000287556 -1.21093e-05
1.92325e-05 -1.21093e-05 0.000313362
0.00285009 -0.000187591 8.87578e-05
-0.000187591 0.000347393 6.34299e-06
8.87578e-05 6.34299e-06 -0.00087252
0.000946497 7.59448e-05 -9.46451e-07
7.59448e-05 7.88901e-05 5.59405e-06
-9.46451e-07 5.59405e-06 6.72293e-06
0.00102885 1.84785e-05 1.26296e-06
1.84785e-05 0.00014239 2.42894e-06
1.26296e-06 2.42894e-06 8.60974e-05
0.000236865 -2.87526e-05 5.02004e-06
-2.87526e-05 -9.95494e-05 -4.92465e-06
5.02004e-06 -4.92465e-06 -0.000203039
0.00102622 1.55416e-05 -5.76355e-07
1.55416e-05 0.00010294 -4.19578e-07
-5.76355e-07 -4.19578e-07 3.73804e-05
0.000831915 -5.14311e-05 -9.28958e-07
-5.14311e-05 -5.00626e-06 6.14023e-08
-9.28958e-07 6.14023e-08 -7.14295e-05
0.000959338 -5.13345e-05 -5.77023e-07
-5.13345e-05 7.29756e-05 9.46398e-07
-5.77023e-07 9.46398e-07 5.76587e-06
0.000972981 -2.36194e-05 2.13049e-08
-2.36194e-05 6.4952e-05 -2.6111e-07
2.13049e-08 -2.6111e-07 -8.65702e-07
0.000807095 -2.00828e-05 -7.92552e-07
-2.00828e-05 1.57602e-06 1.85832e-06
-7.92552e-07 1.85832e-06 -4.35328e-05
0.00068551 -4.02729e-05 1.46932e-06
-4.02729e-05 -1.359e-06 -2.31691e-08
1.46932e-06 -2.31691e-08 -9.9489e-05
0.000928577 7.43888e-06 -3.28141e-07
7.43888e-06 5.02952e-05 -3.42079e-07
-3.28141e-07 -3.42079e-07 -1.76869e-05
0.001015 2.82336e-05 -1.10894e-07
2.82336e-05 0.000107636 -4.1551e-07
-1.10894e-07 -4.1551e-07 3.63741e-05
0.00102546 -3.64904e-05 2.42682e-07
-3.64904e-05 0.000127461 3.2277e-07
2.42682e-07 3.2277e-07 4.8821e-05
0.000675554 -4.89651e-05 2.02726e-06
-4.89651e-05 1.09228e-05 2.14649e-06
2.02726e-06 2.14649e-06 -0.000105519
0.000834049 -1.73272e-05 -1.83831e-06
-1.73272e-05 3.54768e-05 -1.45715e-06
-1.83831e-06 -1.45715e-06 -4.60528e-05
0.000724834 -5.40601e-05 2.1282e-07
-5.40601e-05 1.74303e-06 -9.76621e-08
2.1282e-07 -9.76621e-08 -0.000103122
0.00103856 -0.000100755 6.17458e-07
-0.000100755 0.000150167 1.60481e-06
6.17458e-07 1.60481e-06 1.56336e-05
0.00113313 -0.000104216 -4.02666e-06
-0.000104216 0.000149619 2.79041e-06
-4.02666e-06 2.79041e-06 2.28211e-05
0.0012861 -6.49573e-05 -1.95327e-07
-6.49573e-05 0.000266758 -1.36631e-06
-1.95327e-07 -1.36631e-06 0.00017078
0.00078708 -8.38149e-05 -6.533e-07
-8.38149e-05 3.77129e-06 3.92141e-07
-6.533e-07 3.92141e-07 -0.00011699
0.00134456 -0.000107683 -6.3774e-07
-0.000107683 0.000291977 -2.93558e-07
-6.3774e-07 -2.93558e-07 0.000185281
0.000720816 -6.58534e-05 -1.5364e-06
-6.58534e-05 -1.46105e-05 5.54942e-07
-1.5364e-06 5.54942e-07 -0.000113578
0.000950349 -8.78302e-05 2.70422e-07
-8.78302e-05 9.4603e-05 -3.38571e-07
2.70422e-07 -3.38571e-07 -1.4723e-05
0.000954009 -1.53813e-05 -6.56061e-07
-1.53813e-05 8.18982e-05 9.82636e-07
-6.56061e-07 9.82636e-07 6.64333e-06
0.00103943 -6.6261e-05 -1.0712e-06
-6.6261e-05 0.000138318 8.43101e-07
-1.0712e-06 8.43101e-07 4.62044e-05
0.000798105 -7.991e-05 5.00354e-07
-7.991e-05 1.86794e-05 -1.88421e-06
5.00354e-07 -1.88421e-06 -9.02809e-05
0.000893645 2.19598e-05 -3.20627e-07
2.19598e-05 4.20988e-05 1.32646e-06
-3.20627e-07 1.32646e-06 -1.32812e-05
0.000854092 -6.83824e-06 3.72656e-07
-6.83824e-06 2.71061e-05 7.7161e-08
3.72656e-07 7.7161e-08 -4.34929e-05
0.000945477 -3.77712e-05 1.15672e-06
-3.77712e-05 8.52723e-05 -1.93416e-06
1.15672e-06 -1.93416e-06 -3.26876e-07
0.000933104 6.14073e-06 6.57264e-08
6.14073e-06 6.67854e-05 -1.09314e-06
6.57264e-08 -1.09314e-06 3.97341e-06
0.000876136 2.07984e-05 -1.136e-07
2.07984e-05 3.03245e-05 -1.07104e-07
-1.136e-07 -1.07104e-07 -1.99787e-05
0.000830335 2.85253e-05 -1.15465e-06
2.85253e-05 6.16279e-06 1.80487e-06
-1.15465e-06 1.80487e-06 -2.66429e-05
0.000878041 8.20055e-06 4.83213e-07
8.20055e-06 3.00251e-05 -1.06719e-06
4.83213e-07 -1.06719e-06 -1.74345e-05
0.000836023 2.42313e-05 -9.40053e-10
2.42313e-05 4.45664e-06 -4.05355e-09
-9.40053e-10 -4.05355e-09 -2.62893e-05
0.000758928 2.6436e-05 -1.5754e-06
2.6436e-05 -3.7159e-05 3.29832e-06
-1.5754e-06 3.29832e-06 -4.16943e-05
0.000846058 1.64179e-05 9.65372e-07
1.64179e-05 5.26064e-06 -1.71223e-06
9.65372e-07 -1.71223e-06 -2.39729e-05
0.000777225 2.27101e-05 1.35921e-07
2.27101e-05 -3.35229e-05 1.4037e-08
1.35921e-07 1.4037e-08 -3.65934e-05
0.00207507 3.47234e-05 -4.82691e-06
3.47234e-05 0.000660233 1.54171e-06
-4.82691e-06 1.54171e-06 0.000680166
0.00079001 1.85453e-05 1.09038e-06
1.85453e-05 -3.20599e-05 -3.17641e-06
1.09038e-06 -3.17641e-06 -3.39787e-05
0.00153843 2.27244e-05 6.28307e-06
2.27244e-05 0.00036815 -1.08506e-06
6.28307e-06 -1.08506e-06 0.000386556
0.00212753 1.96285e-05 1.11079e-05
1.96285e-05 0.000679083 -3.84579e-06
1.11079e-05 -3.84579e-06 0.000700957
0.000751287 -2.14686e-05 9.18669e-08
-2.14686e-05 -3.76804e-05 -9.75544e-07
9.18669e-08 -9.75544e-07 -8.94661e-05
0.00059834 -1.47918e-05 -2.90772e-07
-1.47918e-05 -0.000124293 -1.92531e-06
-2.90772e-07 -1.92531e-06 -0.00015557
0.000854513 -3.01807e-06 -2.19434e-07
-3.01807e-06 2.14187e-05 -5.48443e-07
-2.19434e-07 -5.48443e-07 -2.96975e-05
0.000807837 -1.47808e-05 -5.56924e-07
-1.47808e-05 -2.56442e-05 -3.06153e-06
-5.56924e-07 -3.06153e-06 -2.6182e-05
0.000612399 -1.17968e-05 1.77275e-08
-1.17968e-05 -0.000119884 -5.7663e-07
1.77275e-08 -5.7663e-07 -0.00014826
0.000972524 -7.11645e-07 -1.34008e-07
-7.11645e-07 8.35446e-05 5.00558e-07
-1.34008e-07 5.00558e-07 3.64988e-05
0.0020532 -1.32003e-05 -7.92334e-06
-1.32003e-05 0.000636823 -3.93464e-06
-7.92334e-06 -3.93464e-06 0.000660007
0.000800753 -9.8176e-06 -1.13503e-07
-9.8176e-06 -3.31504e-05 -1.93581e-08
-1.13503e-07 -1.93581e-08 -3.17621e-05
0.000612883 -8.38855e-06 1.19515e-07
-8.38855e-06 -0.000122424 1.39398e-06
1.19515e-07 1.39398e-06 -0.000148557
0.00202238 -6.44838e-06 -1.96253e-06
-6.44838e-06 0.00061798 1.30878e-08
-1.96253e-06 1.30878e-08 0.000641978
0.000799058 -4.89717e-06 1.59779e-07
-4.89717e-06 -3.65248e-05 3.02538e-06
1.59779e-07 3.02538e-06 -3.39729e-05
0.00201943 3.04295e-07 -6.20312e-07
3.04295e-07 0.000615588 3.95377e-06
-6.20312e-07 3.95377e-06 0.000639776
0.000991309 -1.37391e-06 6.3551e-06
-1.37391e-06 6.55854e-05 -2.08595e-06
6.3551e-06 -2.08595e-06 -1.03195e-05
0.00115412 1.54525e-06 -1.62545e-06
1.54525e-06 -5.02563e-05 9.13772e-07
-1.62545e-06 9.13772e-07 -0.000157002
0.000989358 8.65902e-05 3.15901e-05
8.65902e-05 0.000644892 -5.58325e-06
3.15901e-05 -5.58325e-06 0.000619568
0.00094013 1.91818e-05 1.21994e-07
1.91818e-05 7.1003e-05 6.48778e-08
1.21994e-07 6.48778e-08 5.57774e-06
0.000863561 -2.36257e-06 2.57671e-08
-2.36257e-06 2.56127e-05 -6.27748e-08
2.57671e-08 -6.27748e-08 -3.98997e-05
0.00100404 3.01421e-05 -3.51725e-07
3.01421e-05 0.000108931 6.37032e-07
-3.51725e-07 6.37032e-07 3.67611e-05
0.00141554 1.39142e-05 4.57072e-06
1.39142e-05 0.00011695 1.19059e-05
4.57072e-06 1.19059e-05 4.1376e-05
0.00127799 2.13451e-05 -3.61763e-06
2.13451e-05 -1.26603e-05 2.97055e-06
-3.61763e-06 2.97055e-06 -6.71956e-05
0.00104428 3.04983e-05 1.49901e-05
3.04983e-05 -0.000374242 -1.60146e-05
1.49901e-05 -1.60146e-05 -0.000478636
0.00256303 6.46391e-06 -4.52769e-05
6.46391e-06 -8.81031e-05 1.34841e-05
-4.52769e-05 1.34841e-05 -0.000310932
0.00115662 0.00031361 -9.5169e-07
0.00031361 -0.000125539 7.69728e-06
-9.5169e-07 7.69728e-06 -0.00135953
0.00463692 0.000498516 5.52957e-05
0.000498516 0.00105575 -2.68144e-05
5.52957e-05 -2.68144e-05 0.00108619
0.00154685 0.000115425 5.79609e-06
0.000115425 -0.00104079 -1.45245e-05
5.79609e-06 -1.45245e-05 -0.000490104
0.00257145 -0.000121738 -3.02817e-06
-0.000121738 8.44413e-06 6.64046e-06
-3.02817e-06 6.64046e-06 -8.5672e-05
0.00547111 0.000194929 3.43759e-05
0.000194929 0.00152653 -3.35515e-05
3.43759e-05 -3.35515e-05 0.000170833
0.000852428 9.15077e-05 -8.82795e-06
9.15077e-05 -0.000719162 8.77156e-06
-8.82795e-06 8.77156e-06 -0.00066184
0.00240773 3.27029e-05 -7.04538e-07
3.27029e-05 -0.000411273 1.39354e-06
-7.04538e-07 1.39354e-06 0.000163951
0.00589724 -0.000448195 6.90596e-06
-0.000448195 0.0015956 -6.02822e-05
6.90596e-06 -6.02822e-05 0.00136148
0.00803139 0.000207214 4.33196e-05
0.000207214 0.00280535 -2.20257e-05
4.33196e-05 -2.20257e-05 0.00141994
-0.000360535 4.9358e-05 1.35698e-05
4.9358e-05 -0.000908466 4.8177e-05
1.35698e-05 4.8177e-05 -0.000933356
0.000660136 -8.9962e-05 5.65964e-06
-8.9962e-05 -0.00137952 6.76576e-06
5.65964e-06 6.76576e-06 -0.000871663
0.00098016 -7.11667e-07 4.60515e-10
-7.11667e-07 8.98281e-05 7.79053e-07
4.60515e-10 7.79053e-07 1.18296e-05
0.000916754 -1.07247e-05 -1.49776e-08
-1.07247e-05 6.68076e-05 -1.55775e-07
-1.49776e-08 -1.55775e-07 -1.40745e-05
0.000934855 -3.59458e-05 -3.15583e-07
-3.59458e-05 8.2486e-05 -1.31209e-07
-3.15583e-07 -1.31209e-07 4.53553e-06
0.000924579 1.05941e-05 -3.31582e-07
1.05941e-05 6.51776e-05 -4.39097e-07
-3.31582e-07 -4.39097e-07 -6.76617e-06
0.00104417 6.98354e-05 1.19068e-06
6.98354e-05 0.000137169 1.52111e-07
1.19068e-06 1.52111e-07 6.44292e-05
0.00109075 5.25108e-05 1.04381e-08
5.25108e-05 0.000158244 2.55218e-07
1.04381e-08 2.55218e-07 9.18039e-05
0.00285107 -0.00030237 4.59061e-06
-0.00030237 0.000669345 -5.534e-06
4.59061e-06 -5.534e-06 0.000661921
-6.48238e-05 -4.39856e-05 4.43058e-06
-4.39856e-05 -0.000372534 -6.72688e-07
4.43058e-06 -6.72688e-07 -0.000555893
0.0010744 3.63078e-05 2.84478e-07
3.63078e-05 0.000147477 -5.00158e-07
2.84478e-07 -5.00158e-07 6.41963e-05
0.0013228 -6.05012e-05 1.54651e-06
-6.05012e-05 0.000268958 -4.36434e-06
1.54651e-06 -4.36434e-06 0.0001665
0.00116635 1.17453e-06 -1.07186e-07
1.17453e-06 0.000189448 -1.85721e-06
-1.07186e-07 -1.85721e-06 0.000100903
0.000985328 -4.52707e-06 4.12626e-07
-4.52707e-06 8.51671e-05 -1.32666e-07
4.12626e-07 -1.32666e-07 8.86861e-06
0.000983601 3.7625e-05 1.79039e-07
3.7625e-05 9.13854e-05 -8.3988e-08
1.79039e-07 -8.3988e-08 9.33605e-06
0.000717315 -0.000250637 -6.52255e-06
-0.000250637 -0.00010141 2.86833e-06
-6.52255e-06 2.86833e-06 -0.000111697
0.000954072 -1.71031e-05 8.89508e-07
-1.71031e-05 6.4754e-05 -1.1621e-06
8.89508e-07 -1.1621e-06 -1.21762e-05
0.000983469 2.38472e-05 -1.65373e-06
2.38472e-05 0.000319961 -1.95541e-06
-1.65373e-06 -1.95541e-06 0.000171503
0.000962026 -1.52212e-07 8.12478e-07
-1.52212e-07 7.7686e-05 7.37485e-07
8.12478e-07 7.37485e-07 5.05561e-06
-0.00181889 -0.000108692 -6.25838e-07
-0.000108692 -0.00090664 -1.13056e-05
-6.25838e-07 -1.13056e-05 -0.001139
0.000677524 -4.55035e-07 -9.15492e-07
-4.55035e-07 0.000113361 1.99011e-05
-9.15492e-07 1.99011e-05 8.12372e-05
0.00100415 -1.82924e-05 3.91662e-07
-1.82924e-05 9.78657e-05 2.48091e-06
3.91662e-07 2.48091e-06 2.05115e-05
0.00111388 1.46624e-06 -3.11347e-07
1.46624e-06 0.000268617 4.46771e-07
-3.11347e-07 4.46771e-07 0.000168727
0.000938018 6.61955e-08 1.79348e-06
6.61955e-08 0.000116315 1.0712e-06
1.79348e-06 1.0712e-06 3.51925e-05
0.00125526 -8.99248e-06 2.49711e-05
-8.99248e-06 6.40353e-05 4.37502e-07
2.49711e-05 4.37502e-07 -4.6389e-05
0.000801065 7.3334e-05 4.79045e-06
7.3334e-05 0.000106053 6.43186e-06
4.79045e-06 6.43186e-06 4.55036e-05
0.000639292 0.000138659 1.0902e-05
0.000138659 0.000206434 -1.50688e-05
1.0902e-05 -1.50688e-05 7.72321e-05
0.00102572 5.40031e-06 -8.9678e-06
5.40031e-06 0.000140313 -4.52452e-06
-8.9678e-06 -4.52452e-06 8.03865e-05
0.0031388 8.08414e-05 -2.70068e-05
8.08414e-05 0.000395064 -2.61628e-06
-2.70068e-05 -2.61628e-06 -0.000573066
-0.0029159 2.77337e-05 -1.68673e-05
2.77337e-05 -0.00244469 6.19803e-05
-1.68673e-05 6.19803e-05 -0.00249539
0.00108277 9.14939e-07 -5.44489e-06
9.14939e-07 4.24613e-05 3.46553e-06
-5.44489e-06 3.46553e-06 -3.22523e-05
0.00160132 0.000107664 -5.15237e-06
0.000107664 -0.000924895 1.48555e-05
-5.15237e-06 1.48555e-05 -0.000438597
0.000464564 4.08315e-05 -4.45811e-06
4.08315e-05 9.64089e-05 -3.01393e-06
-4.45811e-06 -3.01393e-06 2.84959e-05
0.000961542 -8.74347e-07 -3.77845e-06
-8.74347e-07 0.000145593 3.71127e-06
-3.77845e-06 3.71127e-06 5.16074e-05
0.00127596 1.34081e-05 3.98558e-06
1.34081e-05 -8.77556e-06 -2.82785e-06
3.98558e-06 -2.82785e-06 -7.34653e-05
0.00174269 0.000254505 4.51814e-05
0.000254505 0.000221473 1.40833e-06
4.51814e-05 1.40833e-06 0.000116544
0.0020327 0.000256617 2.15673e-06
0.000256617 -0.000551976 -5.1366e-06
2.15673e-06 -5.1366e-06 7.20796e-05
0.000916792 0.000123305 8.96398e-06
0.000123305 -0.000689541 -9.93122e-06
8.96398e-06 -9.93122e-06 -0.000606679
0.00731638 0.000142726 1.27529e-05
0.000142726 0.00255412 -1.9143e-05
1.27529e-05 -1.9143e-05 0.00131527
-0.00057229 -2.4782e-06 -2.3279e-05
-2.4782e-06 -0.000120472 -1.40042e-05
-2.3279e-05 -1.40042e-05 -0.000258329
0.000992283 -4.20996e-06 -5.13141e-06
-4.20996e-06 6.96789e-05 2.46597e-06
-5.13141e-06 2.46597e-06 -7.55191e-06
0.00165588 3.98136e-05 3.92548e-05
3.98136e-05 -7.8067e-06 -1.94523e-05
3.92548e-05 -1.94523e-05 -7.32816e-05
0.00138214 0.00045074 1.77202e-05
0.00045074 -4.64132e-06 -2.74587e-06
1.77202e-05 -2.74587e-06 0.000833567
-0.0040912 0.000282272 6.67715e-05
0.000282272 -0.00302724 -2.59172e-05
6.67715e-05 -2.59172e-05 -0.00285565
0.00803769 0.00025835 1.95143e-05
0.00025835 0.00263919 -4.25936e-05
1.95143e-05 -4.25936e-05 0.00116428
0.0023326 -6.47687e-05 -1.94586e-06
-6.47687e-05 0.000353562 9.7729e-05
-1.94586e-06 9.7729e-05 0.00022455
0.00134549 1.01763e-05 -1.76232e-06
1.01763e-05 0.000299596 8.21265e-06
-1.76232e-06 8.21265e-06 0.000248824
0.000236227 -2.53259e-05 -2.02047e-07
-2.53259e-05 -0.000100441 8.42408e-07
-2.02047e-07 8.42408e-07 -0.00021766
0.000332818 -5.26864e-05 3.24444e-06
-5.26864e-05 3.45469e-05 -3.8165e-06
3.24444e-06 -3.8165e-06 -0.000139923
0.000957232 -3.1428e-05 -1.41547e-07
-3.1428e-05 6.10401e-05 -9.2436e-07
-1.41547e-07 -9.2436e-07 -6.2422e-06
0.000744029 -2.4994e-05 -1.2076e-07
-2.4994e-05 -4.48823e-05 2.8175e-06
-1.2076e-07 2.8175e-06 -8.82305e-05
0.000764245 -1.07775e-05 1.91996e-07
-1.07775e-05 4.02638e-05 8.42079e-08
1.91996e-07 8.42079e-08 -4.85295e-05
0.000946245 -9.44221e-05 4.94377e-06
-9.44221e-05 0.000210688 -1.05129e-07
4.94377e-06 -1.05129e-07 3.3196e-05
0.00122354 -3.79357e-05 -6.49229e-07
-3.79357e-05 0.000222943 -6.41447e-07
-6.49229e-07 -6.41447e-07 0.000143529
0.00116811 -8.42552e-05 5.17901e-07
-8.42552e-05 0.000248298 3.57886e-07
5.17901e-07 3.57886e-07 0.000127493
0.0010337 -0.000103372 1.63723e-06
-0.000103372 0.000188741 2.91092e-06
1.63723e-06 2.91092e-06 1.10568e-05
0.000590997 -5.17416e-05 -2.67747e-07
-5.17416e-05 -6.36885e-05 -1.88198e-06
-2.67747e-07 -1.88198e-06 -0.00016418
0.00110373 -0.000102483 -4.68426e-07
-0.000102483 0.000182968 -2.04046e-08
-4.68426e-07 -2.04046e-08 4.51694e-05
0.00162854 -0.00013726 -1.55371e-06
-0.00013726 0.000403162 2.07947e-06
-1.55371e-06 2.07947e-06 0.000243668
0.00150814 -0.000131726 -3.99365e-06
-0.000131726 0.000305421 2.87745e-06
-3.99365e-06 2.87745e-06 0.000163282
0.000743188 -8.49643e-05 -1.71763e-06
-8.49643e-05 -3.62575e-05 2.22977e-06
-1.71763e-06 2.22977e-06 -0.000146645
0.00105339 -0.000101836 -1.0958e-06
-0.000101836 0.000107948 8.11172e-07
-1.0958e-06 8.11172e-07 -2.04213e-05
0.000983115 -9.30576e-05 -2.77262e-07
-9.30576e-05 9.91732e-05 -1.39534e-06
-2.77262e-07 -1.39534e-06 -2.48343e-05
0.00116414 -9.74191e-05 2.87999e-07
-9.74191e-05 0.000197603 -8.80819e-07
2.87999e-07 -8.80819e-07 9.82316e-05
0.00107953 -9.48205e-05 1.71149e-06
-9.48205e-05 0.000156919 -7.53858e-07
1.71149e-06 -7.53858e-07 5.33544e-05
0.000788076 -3.86072e-05 -4.15703e-07
-3.86072e-05 7.6183e-06 1.40859e-06
-4.15703e-07 1.40859e-06 -7.89334e-05
0.00091035 -7.15454e-05 4.25274e-07
-7.15454e-05 8.22333e-05 -1.34725e-07
4.25274e-07 -1.34725e-07 -1.59209e-05
0.000952231 -8.75003e-05 3.69508e-06
-8.75003e-05 9.51107e-05 -2.26222e-06
3.69508e-06 -2.26222e-06 -1.21315e-05
0.000902416 2.48037e-05 -4.92814e-07
2.48037e-05 4.99686e-05 1.42619e-06
-4.92814e-07 1.42619e-06 -1.25071e-05
0.00096393 -2.36572e-05 -1.45432e-07
-2.36572e-05 8.82772e-05 -3.67072e-08
-1.45432e-07 -3.67072e-08 1.20815e-05
0.00109899 -6.70327e-05 4.05432e-07
-6.70327e-05 0.000167207 -6.90299e-07
4.05432e-07 -6.90299e-07 7.50412e-05
0.000822119 3.23231e-05 -1.08637e-06
3.23231e-05 6.95884e-06 1.94923e-06
-1.08637e-06 1.94923e-06 -2.93495e-05
0.000879752 2.08531e-05 5.53151e-08
2.08531e-05 3.45758e-05 -8.74956e-08
5.53151e-08 -8.74956e-08 -2.05959e-05
0.000788071 -5.94946e-06 6.29393e-07
-5.94946e-06 -7.55165e-06 -1.12124e-06
6.29393e-07 -1.12124e-06 -7.83744e-05
0.000878643 1.90591e-05 3.86879e-07
1.90591e-05 3.16552e-05 -1.31497e-06
3.86879e-07 -1.31497e-06 -1.8658e-05
0.000828255 3.08907e-05 2.90164e-08
3.08907e-05 5.22566e-06 -3.00862e-08
2.90164e-08 -3.00862e-08 -2.77937e-05
0.000746268 3.03929e-05 -1.90832e-06
3.03929e-05 -3.6939e-05 3.33766e-06
-1.90832e-06 3.33766e-06 -4.3445e-05
0.000837229 2.53456e-05 9.01138e-07
2.53456e-05 4.8055e-06 -1.81871e-06
9.01138e-07 -1.81871e-06 -2.59628e-05
0.000773102 2.68397e-05 9.47484e-08
2.68397e-05 -2.99189e-05 -3.93258e-10
9.47484e-08 -3.93258e-10 -3.4491e-05
0.00212982 3.74915e-05 -1.85e-05
3.74915e-05 0.000694433 3.57411e-06
-1.85e-05 3.57411e-06 0.000713379
0.000790239 2.29821e-05 1.40205e-06
2.29821e-05 -2.70457e-05 -3.21759e-06
1.40205e-06 -3.21759e-06 -3.01047e-05
0.00153296 2.83087e-05 7.41566e-06
2.83087e-05 0.000371041 -1.01481e-06
7.41566e-06 -1.01481e-06 0.000388278
0.00212016 2.58758e-05 1.40981e-05
2.58758e-05 0.000679392 -3.74868e-06
1.40981e-05 -3.74868e-06 0.000700492
0.000877511 1.40352e-05 -5.6016e-07
1.40352e-05 2.94641e-05 -6.03264e-07
-5.6016e-07 -6.03264e-07 -2.37504e-05
0.000821961 -1.68964e-05 -6.83798e-07
-1.68964e-05 -5.04256e-06 -1.48251e-06
-6.83798e-07 -1.48251e-06 -3.72444e-05
0.000801923 9.02267e-06 -6.37842e-07
9.02267e-06 -7.63582e-06 -5.06204e-07
-6.37842e-07 -5.06204e-07 -6.06355e-05
0.00080115 -1.94486e-05 -6.44582e-07
-1.94486e-05 -2.41496e-05 -3.17313e-06
-6.44582e-07 -3.17313e-06 -2.70145e-05
0.000720272 -1.5058e-05 -1.23817e-07
-1.5058e-05 -6.02228e-05 -6.03882e-07
-1.23817e-07 -6.03882e-07 -9.09288e-05
0.000981887 -4.3819e-06 1.78541e-08
-4.3819e-06 8.78785e-05 2.38015e-08
1.78541e-08 2.38015e-08 3.74811e-05
0.00209709 -1.96991e-05 -1.11193e-05
-1.96991e-05 0.000663609 -3.92953e-06
-1.11193e-05 -3.92953e-06 0.000685645
0.000794069 -1.45498e-05 -1.20205e-07
-1.45498e-05 -3.28706e-05 -2.10678e-08
-1.20205e-07 -2.10678e-08 -3.33043e-05
0.000603569 -1.1834e-05 5.95844e-08
-1.1834e-05 -0.000124334 7.39837e-07
5.95844e-08 7.39837e-07 -0.000153046
0.00204559 -1.28691e-05 -1.78566e-06
-1.28691e-05 0.000632418 2.75968e-08
-1.78566e-06 2.75968e-08 0.000655749
0.000790372 -9.63942e-06 3.80589e-07
-9.63942e-06 -3.8701e-05 3.01546e-06
3.80589e-07 3.01546e-06 -3.72227e-05
0.00201833 -6.12544e-06 2.9671e-06
-6.12544e-06 0.000615607 3.92875e-06
2.9671e-06 3.92875e-06 0.000639676
0.000923211 8.18723e-07 6.39776e-06
8.18723e-07 0.000102371 -9.93007e-06
6.39776e-06 -9.93007e-06 1.03206e-05
0.00109064 -2.08985e-06 -2.9118e-06
-2.08985e-06 0.000139845 5.21679e-07
-2.9118e-06 5.21679e-07 6.52545e-05
0.00122218 -1.9782e-06 1.63134e-05
-1.9782e-06 -8.54642e-06 2.40841e-06
1.63134e-05 2.40841e-06 -0.00010937
0.000854709 -2.78577e-05 4.34223e-08
-2.78577e-05 1.78166e-05 -3.65313e-07
4.34223e-08 -3.65313e-07 -4.68378e-05
0.000997208 -7.46814e-06 -1.44123e-07
-7.46814e-06 9.86431e-05 -3.43306e-07
-1.44123e-07 -3.43306e-07 2.79777e-05
0.000971347 1.79212e-05 1.06361e-06
1.79212e-05 8.60681e-05 4.66762e-08
1.06361e-06 4.66762e-08 2.22909e-05
0.000862083 -1.354e-05 2.61195e-08
-1.354e-05 2.29223e-05 2.42814e-08
2.61195e-08 2.42814e-08 -4.13632e-05
0.00094508 1.09279e-05 5.01137e-08
1.09279e-05 7.50674e-05 3.27914e-07
5.01137e-08 3.27914e-07 3.64155e-06
0.000969294 6.67858e-06 -6.21387e-07
6.67858e-06 8.55585e-05 2.07137e-07
-6.21387e-07 2.07137e-07 1.49714e-05
0.000941618 8.12369e-05 1.38954e-07
8.12369e-05 8.00625e-05 8.41187e-07
1.38954e-07 8.41187e-07 8.96423e-07
0.00139641 7.29074e-07 2.21331e-06
7.29074e-07 8.56314e-05 2.00155e-05
2.21331e-06 2.00155e-05 2.56408e-05
0.00124732 1.15951e-05 1.75371e-06
1.15951e-05 7.84425e-05 5.29552e-06
1.75371e-06 5.29552e-06 4.1553e-06
0.00114805 1.70039e-05 -4.54869e-06
1.70039e-05 -9.76141e-05 -6.70663e-06
-4.54869e-06 -6.70663e-06 -0.000151703
0.00107205 2.18333e-05 2.59544e-06
2.18333e-05 -0.00124513 -1.0125e-05
2.59544e-06 -1.0125e-05 -0.000669654
-0.000214773 -9.98397e-05 -4.98515e-05
-9.98397e-05 -0.00161742 6.04284e-05
-4.98515e-05 6.04284e-05 -0.00185951
0.00239219 9.74201e-05 4.12766e-05
9.74201e-05 0.000276321 -3.85199e-05
4.12766e-05 -3.85199e-05 -0.00100539
0.00524549 0.000375428 2.80794e-05
0.000375428 0.00147481 -2.31163e-05
2.80794e-05 -2.31163e-05 0.00123797
0.0019738 -0.000292628 -2.29366e-05
-0.000292628 -0.000309261 8.56881e-06
-2.29366e-05 8.56881e-06 -0.000711399
0.00240528 -9.23319e-05 3.45155e-05
-9.23319e-05 -5.43635e-06 -4.11614e-05
3.45155e-05 -4.11614e-05 -0.00133444
0.003601 1.33459e-05 -1.66873e-05
1.33459e-05 0.00060083 1.93394e-06
-1.66873e-05 1.93394e-06 0.000490591
0.00323522 -0.000125035 -1.5046e-06
-0.000125035 0.00018795 -7.91366e-06
-1.5046e-06 -7.91366e-06 0.000733212
0.00369801 -0.000268167 3.8155e-06
-0.000268167 0.000889009 -1.2348e-05
3.8155e-06 -1.2348e-05 0.000802216
0.00302206 -0.000375257 1.22907e-06
-0.000375257 -0.000484006 -9.00742e-05
1.22907e-06 -9.00742e-05 -0.00112107
-0.000856235 -0.000150699 3.81773e-05
-0.000150699 -0.00186182 3.20471e-05
3.81773e-05 3.20471e-05 -0.00200163
0.000131105 -0.000176018 2.36957e-05
-0.000176018 -0.00159046 6.23859e-06
2.36957e-05 6.23859e-06 -0.00100726
0.00107527 -3.44513e-05 -1.30828e-07
-3.44513e-05 0.00013343 1.43021e-06
-1.30828e-07 1.43021e-06 6.06588e-05
0.000892614 1.49257e-06 7.45917e-08
1.49257e-06 4.47919e-05 -6.76666e-08
7.45917e-08 -6.76666e-08 -3.35722e-05
0.000879159 -1.98509e-06 -3.89845e-07
-1.98509e-06 4.90683e-05 -1.07308e-06
-3.89845e-07 -1.07308e-06 -3.28552e-05
0.000929188 2.17713e-05 -5.15107e-08
2.17713e-05 6.83889e-05 -1.12659e-06
-5.15107e-08 -1.12659e-06 -4.14798e-06
0.00407217 -0.00029946 1.12563e-05
-0.00029946 0.00158033 2.08638e-06
1.12563e-05 2.08638e-06 0.00155317
0.000883731 9.73158e-06 4.86603e-06
9.73158e-06 0.000302746 -7.22825e-06
4.86603e-06 -7.22825e-06 0.00017545
0.000867432 -1.95202e-05 1.15409e-07
-1.95202e-05 2.0093e-05 -1.36878e-06
1.15409e-07 -1.36878e-06 -5.56784e-05
0.000935524 3.56881e-05 7.12885e-07
3.56881e-05 6.99383e-05 -1.40275e-06
7.12885e-07 -1.40275e-06 -1.33197e-05
0.00145621 -4.79995e-06 1.30281e-06
-4.79995e-06 0.000332546 -5.20509e-06
1.30281e-06 -5.20509e-06 0.000254473
0.000928383 2.77235e-06 -8.30526e-08
2.77235e-06 5.78321e-05 4.87548e-08
-8.30526e-08 4.87548e-08 -1.46361e-05
0.00091496 -8.32645e-06 -1.48484e-06
-8.32645e-06 5.50614e-05 1.59832e-07
-1.48484e-06 1.59832e-07 -2.48064e-05
0.000407233 -0.000124297 -2.58326e-06
-0.000124297 0.000223495 -4.14661e-06
-2.58326e-06 -4.14661e-06 8.8419e-06
0.000971056 -8.15672e-06 3.76742e-06
-8.15672e-06 0.000267665 6.06152e-06
3.76742e-06 6.06152e-06 0.000241858
0.000935184 -1.10049e-05 8.42148e-07
-1.10049e-05 7.20817e-05 -2.26729e-07
8.42148e-07 -2.26729e-07 -2.21426e-06
-0.000129589 2.80084e-05 -6.79327e-06
2.80084e-05 0.000418198 -2.0042e-05
-6.79327e-06 -2.0042e-05 -0.000205122
0.00152328 -3.9633e-05 3.88025e-06
-3.9633e-05 0.000536679 1.16765e-05
3.88025e-06 1.16765e-05 0.000453063
0.00125051 -2.26541e-07 -1.16454e-05
-2.26541e-07 0.000300658 -2.07301e-06
-1.16454e-05 -2.07301e-06 0.000221447
0.000966323 6.58198e-07 4.68193e-08
6.58198e-07 0.000153169 2.84946e-07
4.68193e-08 2.84946e-07 4.17387e-05
0.000648855 1.09613e-06 -9.0097e-06
1.09613e-06 -5.24835e-05 1.40637e-06
-9.0097e-06 1.40637e-06 -0.000139655
0.0011598 3.71503e-05 1.47527e-06
3.71503e-05 0.000419661 4.56996e-06
1.47527e-06 4.56996e-06 0.000364091
0.00148885 0.000160817 -5.86725e-05
0.000160817 0.000405696 1.19434e-05
-5.86725e-05 1.19434e-05 0.000435899
0.000942815 -1.31141e-06 -4.76741e-06
-1.31141e-06 0.000153579 -5.49275e-06
-4.76741e-06 -5.49275e-06 5.27233e-05
0.00319744 0.000218311 4.46195e-05
0.000218311 0.000456984 -7.73515e-05
4.46195e-05 -7.73515e-05 -0.000752778
0.00503141 0.000388016 -3.33239e-05
0.000388016 0.00138558 2.99124e-05
-3.33239e-05 2.99124e-05 0.00119406
0.00116719 8.80723e-06 3.09369e-06
8.80723e-06 -8.00977e-05 6.99921e-06
3.09369e-06 6.99921e-06 -0.000144375
0.00313769 0.000263255 -2.80767e-05
0.000263255 0.000204073 1.87152e-05
-2.80767e-05 1.87152e-05 0.00076716
-0.00030707 -1.84763e-05 1.92499e-05
-1.84763e-05 -6.4417e-06 -2.5679e-06
1.92499e-05 -2.5679e-06 -0.000145235
0.00107876 -4.08438e-06 3.24308e-06
-4.08438e-06 0.000135567 -6.84263e-07
3.24308e-06 -6.84263e-07 5.98698e-05
0.0013908 3.06416e-05 1.156e-05
3.06416e-05 -0.00016463 -4.5257e-06
1.156e-05 -4.5257e-06 -0.000256236
0.00170578 -3.09107e-05 -1.31248e-05
-3.09107e-05 0.000168692 2.13473e-05
-1.31248e-05 2.13473e-05 0.000184448
-2.02134e-05 0.000474821 -4.14661e-06
0.000474821 -0.00102543 4.79742e-06
-4.14661e-06 4.79742e-06 3.16592e-06
0.00291277 0.000446264 2.76478e-06
0.000446264 1.74649e-05 -1.09022e-06
2.76478e-06 -1.09022e-06 0.00017008
0.00261996 -2.69666e-05 3.49226e-05
-2.69666e-05 0.000258095 -1.64604e-05
3.49226e-05 -1.64604e-05 -0.00130982
0.000582335 -6.52343e-05 2.49553e-05
-6.52343e-05 0.000264502 -7.06634e-06
2.49553e-05 -7.06634e-06 0.000176208
0.00103811 -6.98674e-07 1.77207e-05
-6.98674e-07 -0.00011927 -5.11804e-06
1.77207e-05 -5.11804e-06 -0.00023837
-0.00108745 0.000216497 9.29515e-06
0.000216497 -0.000777685 -1.04262e-05
9.29515e-06 -1.04262e-05 -0.00060621
-8.95322e-05 0.000442656 4.56776e-05
0.000442656 -0.000256237 -5.58148e-06
4.56776e-05 -5.58148e-06 7.42887e-05
0.00863853 0.000535125 2.56484e-05
0.000535125 0.00290477 -5.04445e-05
2.56484e-05 -5.04445e-05 0.00159581
0.00282075 -0.00026959 -6.1564e-05
-0.00026959 0.000287808 8.96264e-05
-6.1564e-05 8.96264e-05 -0.000170786
0.000417836 -3.00517e-05 -2.59037e-06
-3.00517e-05 -1.70876e-05 6.79002e-06
-2.59037e-06 6.79002e-06 -0.000144339
0.00040723 -2.61062e-05 6.31988e-07
-2.61062e-05 7.85246e-05 -7.14043e-07
6.31988e-07 -7.14043e-07 -9.8193e-05
0.00159605 -0.0001577 1.1276e-05
-0.0001577 0.000525106 -3.1326e-06
1.1276e-05 -3.1326e-06 0.000389906
0.000829647 1.08409e-05 -2.22102e-06
1.08409e-05 7.73032e-05 -1.52682e-06
-2.22102e-06 -1.52682e-06 -3.27622e-06
0.00043683 -5.70568e-05 9.18398e-07
-5.70568e-05 -2.45917e-05 -4.34532e-07
9.18398e-07 -4.34532e-07 -0.000207846
0.00115577 -0.000120948 4.03233e-06
-0.000120948 0.000230979 5.33891e-06
4.03233e-06 5.33891e-06 4.10578e-05
0.00163261 -0.000122777 -1.27266e-06
-0.000122777 0.00047195 -8.72151e-07
-1.27266e-06 -8.72151e-07 0.000344742
0.00122716 -0.000111397 1.47129e-07
-0.000111397 0.000273822 9.06812e-07
1.47129e-07 9.06812e-07 9.68246e-05
0.00120949 -0.000131411 -7.96117e-07
-0.000131411 0.000172506 9.88648e-07
-7.96117e-07 9.88648e-07 -8.53327e-06
0.00119947 -0.000105538 -6.08704e-07
-0.000105538 0.000231314 -1.77479e-06
-6.08704e-07 -1.77479e-06 8.99815e-05
0.00157833 -0.000135448 9.93037e-08
-0.000135448 0.000369285 5.27515e-07
9.93037e-08 5.27515e-07 0.000210114
0.00122989 -0.000128959 -1.34138e-06
-0.000128959 0.0001399 -1.04366e-07
-1.34138e-06 -1.04366e-07 -2.35315e-05
0.00141352 -0.000129787 -3.07976e-06
-0.000129787 0.000194091 -1.02929e-06
-3.07976e-06 -1.02929e-06 5.25098e-05
0.00164441 -0.000131465 -4.36544e-06
-0.000131465 0.000380423 3.87237e-06
-4.36544e-06 3.87237e-06 0.000253464
0.00140372 -0.000128468 -7.48744e-07
-0.000128468 0.000247907 6.41837e-07
-7.48744e-07 6.41837e-07 0.00010291
0.00065834 -7.83325e-05 -2.70348e-07
-7.83325e-05 -8.10965e-05 -3.95277e-07
-2.70348e-07 -3.95277e-07 -0.00018115
0.000877972 -9.03949e-05 1.4358e-06
-9.03949e-05 3.3396e-05 -4.28764e-07
1.4358e-06 -4.28764e-07 -7.63238e-05
0.000990158 -0.000100152 1.79386e-06
-0.000100152 7.46217e-05 -1.85475e-06
1.79386e-06 -1.85475e-06 -5.53193e-05
0.00103145 -8.61868e-05 -3.72568e-07
-8.61868e-05 0.000126734 4.82622e-07
-3.72568e-07 4.82622e-07 3.14946e-05
0.00112154 -9.50161e-05 -1.36025e-07
-9.50161e-05 0.000176805 -3.4268e-07
-1.36025e-07 -3.4268e-07 7.71081e-05
0.000822254 -8.23529e-05 3.41267e-06
-8.23529e-05 2.60065e-05 -1.39681e-07
3.41267e-06 -1.39681e-07 -7.44812e-05
0.000864709 1.08192e-05 3.46861e-09
1.08192e-05 3.6246e-05 1.42802e-06
3.46861e-09 1.42802e-06 -3.65615e-05
0.000880674 -4.12129e-05 5.04857e-08
-4.12129e-05 5.53869e-05 4.60394e-07
5.04857e-08 4.60394e-07 -3.04914e-05
0.00109983 -7.72192e-05 1.27779e-06
-7.72192e-05 0.000179162 -1.22024e-06
1.27779e-06 -1.22024e-06 8.17392e-05
0.000806385 4.10356e-05 -1.09531e-06
4.10356e-05 3.59805e-06 2.21688e-06
-1.09531e-06 2.21688e-06 -3.88108e-05
0.000880442 1.47291e-05 -1.52717e-07
1.47291e-05 3.95195e-05 -7.08232e-08
-1.52717e-07 -7.08232e-08 -2.36611e-05
0.000970454 -2.92668e-05 5.10113e-07
-2.92668e-05 9.25978e-05 -1.02472e-06
5.10113e-07 -1.02472e-06 1.56455e-05
0.000759234 3.43194e-05 -3.22946e-06
3.43194e-05 -2.35334e-05 4.6159e-06
-3.22946e-06 4.6159e-06 -3.23745e-05
0.00081542 3.7028e-05 1.67954e-07
3.7028e-05 4.2117e-06 -7.50131e-08
1.67954e-07 -7.50131e-08 -3.26499e-05
0.000865728 1.99128e-05 5.7691e-07
1.99128e-05 2.70601e-05 -1.36557e-06
5.7691e-07 -1.36557e-06 -2.7957e-05
0.000824812 3.32444e-05 7.45654e-07
3.32444e-05 3.5371e-06 -1.97239e-06
7.45654e-07 -1.97239e-06 -2.96692e-05
0.000765005 3.10026e-05 5.34849e-08
3.10026e-05 -2.73151e-05 -2.02363e-08
5.34849e-08 -2.02363e-08 -3.39017e-05
0.00214754 4.33572e-05 -2.0999e-05
4.33572e-05 0.000710848 3.45957e-06
-2.0999e-05 3.45957e-06 0.000728204
0.000788554 2.72765e-05 1.72133e-06
2.72765e-05 -2.20151e-05 -3.26654e-06
1.72133e-06 -3.26654e-06 -2.66278e-05
0.00213033 3.76876e-05 1.01299e-06
3.76876e-05 0.000695594 6.32192e-08
1.01299e-06 6.32192e-08 0.000714387
0.00211973 3.19283e-05 1.69725e-05
3.19283e-05 0.000684503 -3.65529e-06
1.69725e-05 -3.65529e-06 0.000704531
0.000926786 1.12907e-05 -2.11227e-07
1.12907e-05 5.99405e-05 -5.74381e-07
-2.11227e-07 -5.74381e-07 -7.49113e-06
0.000878007 2.25593e-05 -8.78053e-07
2.25593e-05 3.18079e-05 -1.00005e-06
-8.78053e-07 -1.00005e-06 -2.51308e-05
0.000816373 -2.37755e-05 -7.09906e-07
-2.37755e-05 -5.3985e-06 -1.64687e-06
-7.09906e-07 -1.64687e-06 -3.98171e-05
0.000880792 1.08865e-05 -1.36517e-07
1.08865e-05 3.03877e-05 -4.61048e-08
-1.36517e-07 -4.61048e-08 -2.24239e-05
0.000787118 -2.33086e-05 -1.07686e-06
-2.33086e-05 -2.60113e-05 -3.27404e-06
-1.07686e-06 -3.27404e-06 -3.12144e-05
0.000830241 -1.84049e-05 -1.04459e-07
-1.84049e-05 -2.5584e-07 4.81473e-09
-1.04459e-07 4.81473e-09 -3.25806e-05
0.000850139 6.86035e-06 1.50667e-07
6.86035e-06 1.46139e-05 9.60135e-08
1.50667e-07 9.60135e-08 -3.53086e-05
0.00215571 -2.61551e-05 -1.43027e-05
-2.61551e-05 0.00069929 -3.92434e-06
-1.43027e-05 -3.92434e-06 0.000719855
0.000783543 -1.91099e-05 -1.19513e-07
-1.91099e-05 -3.33844e-05 -2.27e-08
-1.19513e-07 -2.27e-08 -3.61277e-05
0.000839814 -1.55394e-05 8.81627e-08
-1.55394e-05 2.49986e-06 8.69805e-07
8.81627e-08 8.69805e-07 -2.76221e-05
0.00208922 -1.94047e-05 -1.65174e-06
-1.94047e-05 0.000658957 4.32975e-08
-1.65174e-06 4.32975e-08 0.000681176
0.000778751 -1.43145e-05 4.57129e-07
-1.43145e-05 -4.08971e-05 3.05859e-06
4.57129e-07 3.05859e-06 -4.12256e-05
0.00203865 -1.25122e-05 6.68299e-06
-1.25122e-05 0.000628349 3.90233e-06
6.68299e-06 3.90233e-06 0.000651824
0.00082093 4.33005e-06 -5.82166e-06
4.33005e-06 1.47236e-05 -5.49425e-06
-5.82166e-06 -5.49425e-06 -5.64038e-05
0.000945394 5.18895e-07 3.83562e-06
5.18895e-07 0.000137396 -3.72955e-06
3.83562e-06 -3.72955e-06 3.8133e-05
0.00118596 -2.85635e-06 -1.15277e-05
-2.85635e-06 0.000211797 7.40325e-06
-1.15277e-05 7.40325e-06 0.000138122
0.000889031 4.69963e-07 -2.32268e-07
4.69963e-07 3.96525e-05 -4.34106e-09
-2.32268e-07 -4.34106e-09 -2.70385e-05
0.000949158 -9.15341e-06 -5.83945e-08
-9.15341e-06 7.31123e-05 2.42126e-07
-5.83945e-08 2.42126e-07 1.93964e-06
0.000886357 -7.14012e-06 1.96581e-08
-7.14012e-06 4.3762e-05 -1.3529e-06
1.96581e-08 -1.3529e-06 -3.18443e-05
0.00085279 -1.59808e-05 -7.99596e-08
-1.59808e-05 2.33171e-05 -5.7807e-07
-7.99596e-08 -5.7807e-07 -4.73585e-05
0.00103665 3.1377e-05 -4.53906e-07
3.1377e-05 0.000126934 -1.17232e-07
-4.53906e-07 -1.17232e-07 4.86723e-05
0.000845954 -1.89934e-05 -9.49823e-08
-1.89934e-05 1.31873e-05 1.98265e-07
-9.49823e-08 1.98265e-07 -5.0367e-05
0.00087722 -7.46633e-06 1.84825e-07
-7.46633e-06 3.64759e-05 -2.46079e-07
1.84825e-07 -2.46079e-07 -3.41099e-05
0.000936154 1.85209e-05 -1.80777e-07
1.85209e-05 7.03562e-05 -4.46671e-08
-1.80777e-07 -4.46671e-08 -8.17849e-07
0.000956981 2.51202e-05 2.78565e-07
2.51202e-05 7.98412e-05 3.91934e-07
2.78565e-07 3.91934e-07 3.92942e-06
0.00101548 1.94763e-05 -2.01744e-07
1.94763e-05 0.000116488 4.35206e-07
-2.01744e-07 4.35206e-07 4.09931e-05
0.00144917 -2.59904e-05 2.68843e-05
-2.59904e-05 -5.3079e-06 2.93918e-05
2.68843e-05 2.93918e-05 -0.000124152
0.00141567 1.72941e-08 2.41613e-06
1.72941e-08 8.36574e-05 9.14258e-06
2.41613e-06 9.14258e-06 2.68696e-05
0.00116445 1.00674e-05 3.8279e-06
1.00674e-05 9.74119e-05 1.61206e-06
3.8279e-06 1.61206e-06 2.59442e-05
0.00269096 -0.000110986 -1.10837e-05
-0.000110986 -5.6862e-05 -2.12763e-05
-1.10837e-05 -2.12763e-05 0.000482921
-0.00250759 8.92886e-05 -8.38061e-06
8.92886e-05 -0.00227492 -5.04293e-05
-8.38061e-06 -5.04293e-05 -0.00239454
0.00147959 -0.000302961 -0.000103326
-0.000302961 -0.000649517 8.28732e-05
-0.000103326 8.28732e-05 -0.00113929
0.00787993 0.000204281 -3.12345e-05
0.000204281 0.00218332 -4.22047e-05
-3.12345e-05 -4.22047e-05 0.00126474
0.00221926 -0.000271808 -3.77047e-05
-0.000271808 2.34141e-06 4.02158e-05
-3.77047e-05 4.02158e-05 -0.000419687
0.00806887 -0.000142066 4.11239e-05
-0.000142066 0.00256233 -8.7173e-07
4.11239e-05 -8.7173e-07 0.00145007
0.000935872 -0.000189779 1.49371e-05
-0.000189779 -0.000804168 -1.56313e-05
1.49371e-05 -1.56313e-05 -0.000868555
0.000611449 -0.000214362 -7.2707e-06
-0.000214362 -0.00142543 -2.12322e-05
-7.2707e-06 -2.12322e-05 -0.000699781
0.00213978 -7.02694e-05 -7.4173e-05
-7.02694e-05 0.000276087 -4.79195e-05
-7.4173e-05 -4.79195e-05 -0.000194849
0.00810564 -0.000422808 -2.73085e-05
-0.000422808 0.00215429 4.85967e-05
-2.73085e-05 4.85967e-05 0.00132454
0.00755488 -0.00058905 3.04807e-05
-0.00058905 0.00222338 1.43486e-05
3.04807e-05 1.43486e-05 0.00244057
0.00244806 -0.000365715 1.24755e-05
-0.000365715 0.000190178 1.4823e-06
1.24755e-05 1.4823e-06 0.00109993
0.000844922 1.74659e-05 5.08308e-07
1.74659e-05 3.88511e-05 1.53839e-06
5.08308e-07 1.53839e-06 -2.86118e-05
0.00101709 -2.48485e-05 -1.24033e-07
-2.48485e-05 0.000107202 2.32388e-07
-1.24033e-07 2.32388e-07 3.29907e-05
0.00084916 1.95433e-06 2.22678e-07
1.95433e-06 2.16202e-05 -9.07981e-07
2.22678e-07 -9.07981e-07 -5.66966e-05
0.0018912 -0.000124728 1.92797e-05
-0.000124728 0.000949709 -1.34217e-06
1.92797e-05 -1.34217e-06 0.000774187
0.00102478 -2.75593e-05 -6.82077e-06
-2.75593e-05 0.000301032 -5.9238e-06
-6.82077e-06 -5.9238e-06 0.000279798
0.000888386 -6.13658e-06 -3.91782e-07
-6.13658e-06 3.57621e-05 -4.4299e-07
-3.91782e-07 -4.4299e-07 -3.72053e-05
0.000890654 -4.05588e-05 -1.28348e-06
-4.05588e-05 4.18735e-05 -1.96571e-06
-1.28348e-06 -1.96571e-06 -3.74164e-05
0.000888065 -1.40926e-05 -4.39244e-07
-1.40926e-05 4.92736e-05 -1.83718e-07
-4.39244e-07 -1.83718e-07 -2.44035e-05
0.000595713 -3.80322e-05 1.15784e-06
-3.80322e-05 6.87871e-05 4.36541e-06
1.15784e-06 4.36541e-06 -1.83629e-05
-0.000414363 -1.0546e-06 1.87296e-05
-1.0546e-06 0.000176615 -2.07367e-05
1.87296e-05 -2.07367e-05 -0.000414908
-3.50789e-05 -8.76495e-06 -1.33233e-06
-8.76495e-06 -0.000266036 5.70486e-06
-1.33233e-06 5.70486e-06 -0.000370338
0.00165827 0.000122847 2.11422e-05
0.000122847 0.000725698 -6.74493e-06
2.11422e-05 -6.74493e-06 0.000440192
0.00157383 -1.90665e-06 1.16658e-05
-1.90665e-06 0.000235092 -4.5692e-07
1.16658e-05 -4.5692e-07 0.000121899
0.000921149 9.41932e-07 -1.63941e-06
9.41932e-07 0.000106876 -1.09716e-06
-1.63941e-06 -1.09716e-06 2.2284e-05
0.000819434 -1.10015e-07 1.44444e-07
-1.10015e-07 3.95573e-05 -2.70419e-07
1.44444e-07 -2.70419e-07 -8.33852e-05
-0.000610468 -1.86248e-05 -1.82073e-05
-1.86248e-05 -0.00013117 1.13609e-05
-1.82073e-05 1.13609e-05 -0.000276907
0.00127537 3.05915e-05 3.01692e-05
3.05915e-05 -0.00021713 -4.36748e-05
3.01692e-05 -4.36748e-05 -0.000491071
0.00117798 -3.98738e-06 1.10588e-05
-3.98738e-06 0.000210431 -7.66849e-06
1.10588e-05 -7.66849e-06 0.000135678
0.0091954 0.000217207 5.55467e-05
0.000217207 0.00292867 6.63023e-06
5.55467e-05 6.63023e-06 0.00148085
0.00520258 0.000601489 -4.83854e-05
0.000601489 0.00137724 3.13445e-05
-4.83854e-05 3.13445e-05 0.00143248
0.00105289 2.17441e-05 -1.7305e-05
2.17441e-05 -0.000360302 1.46349e-05
-1.7305e-05 1.46349e-05 -0.000487626
-0.00146112 0.000501644 -1.55681e-05
0.000501644 -0.00207246 -1.59464e-05
-1.55681e-05 -1.59464e-05 -0.00086168
0.000153357 -3.89216e-05 -7.0393e-06
-3.89216e-05 9.47734e-05 -7.40832e-07
-7.0393e-06 -7.40832e-07 -1.22579e-05
0.00112779 -2.84529e-06 1.07703e-06
-2.84529e-06 -6.21963e-05 -8.80671e-07
1.07703e-06 -8.80671e-07 -0.000178237
-0.00128846 0.00024679 -2.44411e-05
0.00024679 -0.000837148 7.79794e-06
-2.44411e-05 7.79794e-06 -0.000626474
0.00212321 -0.000240017 -6.04769e-06
-0.000240017 0.000112381 2.93391e-05
-6.04769e-06 2.93391e-05 -0.000195911
0.00372937 0.000622684 6.52026e-06
0.000622684 0.0010393 4.93334e-06
6.52026e-06 4.93334e-06 0.00133346
0.00552477 0.000164765 3.40123e-05
0.000164765 0.00135169 -1.86519e-05
3.40123e-05 -1.86519e-05 -0.000121803
0.00240081 -0.000189411 2.47226e-05
-0.000189411 0.000692862 9.80904e-06
2.47226e-05 9.80904e-06 0.000774917
-0.00109568 7.01312e-05 2.11663e-05
7.01312e-05 -0.000523056 -1.41262e-06
2.11663e-05 -1.41262e-06 -0.000656741
0.00298113 0.000462006 2.39729e-05
0.000462006 0.00135048 -6.48568e-06
2.39729e-05 -6.48568e-06 0.00149807
0.00476074 0.000465612 -3.99124e-05
0.000465612 0.00114193 3.70791e-05
-3.99124e-05 3.70791e-05 -9.77265e-05
0.00204925 -0.000327878 -1.56459e-05
-0.000327878 8.85783e-05 2.7338e-05
-1.56459e-05 2.7338e-05 -0.000412632
0.000662882 -2.83906e-06 -3.36322e-06
-2.83906e-06 0.00020259 4.39873e-06
-3.36322e-06 4.39873e-06 3.15367e-05
0.000769677 -0.000122344 1.3723e-06
-0.000122344 0.000132037 -2.71728e-06
1.3723e-06 -2.71728e-06 -3.13294e-05
0.00200107 -0.000167714 7.94042e-06
-0.000167714 0.000405386 7.04953e-07
7.94042e-06 7.04953e-07 0.000337057
-7.15509e-05 -1.85204e-05 -1.20005e-06
-1.85204e-05 -0.000261707 -1.42184e-07
-1.20005e-06 -1.42184e-07 -0.000448682
0.000808296 -0.000103651 2.60916e-06
-0.000103651 6.95412e-05 7.71052e-08
2.60916e-06 7.71052e-08 -0.000118033
0.0011619 -0.000149843 1.64724e-07
-0.000149843 5.10404e-05 9.39235e-07
1.64724e-07 9.39235e-07 -0.000103055
0.0014234 -0.000119186 -1.28921e-06
-0.000119186 0.000360648 -1.01933e-06
-1.28921e-06 -1.01933e-06 0.000185779
0.00117505 -0.000128528 -6.5376e-07
-0.000128528 0.000147015 -6.90374e-07
-6.5376e-07 -6.90374e-07 -2.95573e-05
0.00175187 -0.000159713 -2.13769e-06
-0.000159713 0.000313771 -1.96438e-06
-2.13769e-06 -1.96438e-06 0.000168895
0.0015157 -0.000133175 1.06804e-06
-0.000133175 0.000329767 -1.43003e-06
1.06804e-06 -1.43003e-06 0.000170852
0.00126895 -0.000127921 4.69796e-07
-0.000127921 0.000157531 -8.33326e-07
4.69796e-07 -8.33326e-07 -1.78339e-06
0.00146684 -0.000133152 -2.76048e-06
-0.000133152 0.000160512 -3.17902e-06
-2.76048e-06 -3.17902e-06 2.56645e-05
0.00141805 -0.00012066 -2.53077e-06
-0.00012066 0.000126782 -2.42828e-06
-2.53077e-06 -2.42828e-06 3.78458e-06
0.00113409 -0.000112328 -2.81791e-06
-0.000112328 7.52221e-05 4.05058e-07
-2.81791e-06 4.05058e-07 -5.50974e-05
0.00128828 -0.000123539 3.78927e-07
-0.000123539 0.000127673 -8.38914e-07
3.78927e-07 -8.38914e-07 -1.25141e-05
0.00131124 -0.000111402 -2.14407e-06
-0.000111402 0.000224179 2.40139e-06
-2.14407e-06 2.40139e-06 0.00011163
0.001303 -0.000117505 -2.01859e-07
-0.000117505 0.000205809 7.18154e-07
-2.01859e-07 7.18154e-07 7.70623e-05
0.00128628 -0.000124614 1.88612e-06
-0.000124614 0.000183958 -1.05602e-06
1.88612e-06 -1.05602e-06 3.60881e-05
0.000963796 -8.81301e-05 -7.51755e-07
-8.81301e-05 7.67092e-05 -6.953e-07
-7.51755e-07 -6.953e-07 -1.72338e-05
0.000771687 -8.27382e-05 -2.60086e-07
-8.27382e-05 -2.07521e-05 -1.12048e-06
-2.60086e-07 -1.12048e-06 -0.000119703
0.00100958 -9.57337e-05 4.60044e-06
-9.57337e-05 0.000101285 -3.02196e-06
4.60044e-06 -3.02196e-06 -7.74861e-06
0.000915566 -3.97012e-05 -4.54182e-07
-3.97012e-05 6.14125e-05 1.29424e-06
-4.54182e-07 1.29424e-06 -1.96186e-05
0.00101426 -8.00361e-05 2.53069e-07
-8.00361e-05 0.000117843 4.90514e-07
2.53069e-07 4.90514e-07 2.37944e-05
0.00107379 -9.24002e-05 1.03688e-06
-9.24002e-05 0.000153305 6.91969e-07
1.03688e-06 6.91969e-07 5.33051e-05
0.000817247 5.81824e-05 -6.41994e-07
5.81824e-05 1.54899e-05 2.58025e-06
-6.41994e-07 2.58025e-06 -3.66981e-05
0.000894407 1.91059e-06 -9.21112e-09
1.91059e-06 5.27613e-05 -2.62914e-08
-9.21112e-09 -2.62914e-08 -2.1102e-05
0.0009773 -4.75888e-05 1.50841e-07
-4.75888e-05 0.000105667 -5.20107e-07
1.50841e-07 -5.20107e-07 2.02132e-05
0.00137146 4.46228e-05 -1.25088e-05
4.46228e-05 0.000309977 3.15348e-06
-1.25088e-05 3.15348e-06 0.000300941
0.000796775 3.99864e-05 2.46277e-08
3.99864e-05 -1.60765e-06 -1.55068e-07
2.46277e-08 -1.55068e-07 -4.39248e-05
0.000862431 5.79291e-06 6.60786e-07
5.79291e-06 3.10979e-05 -1.48208e-06
6.60786e-07 -1.48208e-06 -3.27491e-05
0.000925296 2.99128e-05 -1.96392e-05
2.99128e-05 6.91659e-05 3.54627e-06
-1.96392e-05 3.54627e-06 7.86921e-05
0.00108322 3.85172e-05 -5.17537e-06
3.85172e-05 0.000148987 3.75048e-07
-5.17537e-06 3.75048e-07 0.00014134
0.000807505 4.15666e-05 5.97806e-07
4.15666e-05 6.6347e-07 -2.14603e-06
5.97806e-07 -2.14603e-06 -3.66387e-05
0.000784991 3.16945e-05 1.94195e-06
3.16945e-05 -1.70473e-05 -3.33824e-06
1.94195e-06 -3.33824e-06 -2.37203e-05
0.00215402 4.35186e-05 7.9945e-07
4.35186e-05 0.000715281 6.50739e-08
7.9945e-07 6.50739e-08 0.000732422
0.00213129 3.78072e-05 1.97265e-05
3.78072e-05 0.000697027 -3.55267e-06
1.97265e-05 -3.55267e-06 0.000715669
0.000866515 -6.14642e-06 -8.0724e-08
-6.14642e-06 2.88405e-05 -1.19548e-06
-8.0724e-08 -1.19548e-06 -4.1097e-05
0.000885919 1.73447e-06 -4.41547e-07
1.73447e-06 3.50582e-05 -1.31682e-06
-4.41547e-07 -1.31682e-06 -2.38113e-05
0.000919562 -6.38118e-06 -2.54845e-08
-6.38118e-06 5.47192e-05 -1.57673e-08
-2.54845e-08 -1.57673e-08 -1.21861e-05
0.000810712 -3.45487e-05 -5.65064e-07
-3.45487e-05 -3.7919e-06 -1.92658e-06
-5.65064e-07 -1.92658e-06 -4.06726e-05
0.000893874 -6.34372e-07 4.56492e-07
-6.34372e-07 3.85279e-05 -8.79926e-08
4.56492e-07 -8.79926e-08 -1.72202e-05
0.000773745 -2.6779e-05 -1.44489e-06
-2.6779e-05 -2.73254e-05 -3.38812e-06
-1.44489e-06 -3.38812e-06 -3.46276e-05
0.000826172 -2.00659e-05 -2.00702e-07
-2.00659e-05 1.33614e-07 1.17352e-08
-2.00702e-07 1.17352e-08 -3.42739e-05
0.000899252 2.89438e-05 9.64375e-07
2.89438e-05 4.39688e-05 7.90849e-07
9.64375e-07 7.90849e-07 -1.148e-05
0.00221193 -3.22687e-05 -1.7903e-05
-3.22687e-05 0.000734424 -3.86819e-06
-1.7903e-05 -3.86819e-06 0.000753437
0.000772417 -2.29888e-05 -2.37186e-07
-2.29888e-05 -3.36176e-05 -5.44274e-09
-2.37186e-07 -5.44274e-09 -3.87411e-05
0.000844028 -1.81917e-05 3.70357e-07
-1.81917e-05 7.40715e-06 1.49556e-06
3.70357e-07 1.49556e-06 -2.50047e-05
0.00214264 -2.59275e-05 -1.48701e-06
-2.59275e-05 0.000691784 5.61837e-08
-1.48701e-06 5.61837e-08 0.000712571
0.000767206 -1.8801e-05 5.53033e-07
-1.8801e-05 -4.19266e-05 3.16124e-06
5.53033e-07 3.16124e-06 -4.45575e-05
0.00207633 -1.90416e-05 9.89426e-06
-1.90416e-05 0.000651614 3.87725e-06
9.89426e-06 3.87725e-06 0.000674046
0.00139094 -9.37304e-07 1.62509e-05
-9.37304e-07 0.000161927 4.18526e-06
1.62509e-05 4.18526e-06 7.45265e-05
0.000903315 4.8017e-06 1.1583e-06
4.8017e-06 6.79635e-05 -3.45763e-07
1.1583e-06 -3.45763e-07 -2.12692e-06
0.00100483 1.72036e-07 4.82321e-06
1.72036e-07 0.000196549 4.97278e-06
4.82321e-06 4.97278e-06 9.06637e-05
0.000962718 3.51545e-05 -6.97435e-07
3.51545e-05 9.34474e-05 -1.5406e-08
-6.97435e-07 -1.5406e-08 1.26688e-05
0.000955401 -2.99478e-06 1.29207e-07
-2.99478e-06 7.47495e-05 3.62396e-07
1.29207e-07 3.62396e-07 8.41995e-06
0.000931225 -1.25963e-05 1.12072e-07
-1.25963e-05 6.28736e-05 4.71227e-07
1.12072e-07 4.71227e-07 -8.82628e-06
0.000946817 -1.76759e-05 1.0823e-07
-1.76759e-05 7.23806e-05 -1.76569e-07
1.0823e-07 -1.76569e-07 2.07426e-06
0.000953472 9.43314e-06 8.63306e-08
9.43314e-06 7.94873e-05 -3.48402e-07
8.63306e-08 -3.48402e-07 3.43912e-06
0.00096886 2.05511e-05 -4.25468e-08
2.05511e-05 8.94411e-05 4.58115e-07
-4.25468e-08 4.58115e-07 1.20056e-05
0.000975033 2.96091e-05 -4.0292e-07
2.96091e-05 9.53175e-05 -1.13984e-06
-4.0292e-07 -1.13984e-06 1.35931e-05
0.000831169 3.50215e-06 1.20624e-07
3.50215e-06 1.91368e-05 -4.41008e-08
1.20624e-07 -4.41008e-08 -5.67312e-05
0.000906898 3.79796e-05 3.85476e-07
3.79796e-05 5.83402e-05 -1.79294e-07
3.85476e-07 -1.79294e-07 -1.41396e-05
0.000944993 -3.05389e-05 3.48018e-07
-3.05389e-05 6.66801e-05 -3.43602e-07
3.48018e-07 -3.43602e-07 -6.53554e-06
0.000970128 1.20932e-05 -8.81412e-08
1.20932e-05 9.22099e-05 8.5351e-08
-8.81412e-08 8.5351e-08 1.72781e-05
0.00142817 1.56152e-05 2.43508e-06
1.56152e-05 0.0003364 5.24818e-07
2.43508e-06 5.24818e-07 0.00025971
0.00155031 -0.000238118 3.22146e-05
-0.000238118 0.000487295 2.26468e-05
3.22146e-05 2.26468e-05 0.000762926
0.00170569 -2.37198e-05 2.82102e-06
-2.37198e-05 0.000145032 8.16738e-06
2.82102e-06 8.16738e-06 2.81614e-05
0.00141612 -1.2385e-06 2.79983e-06
-1.2385e-06 6.57895e-05 -1.42217e-06
2.79983e-06 -1.42217e-06 1.05941e-05
0.00307056 -0.000268488 -3.07527e-05
-0.000268488 7.6784e-06 -2.61042e-05
-3.07527e-05 -2.61042e-05 0.000835544
0.00403385 -0.00032052 4.15215e-06
-0.00032052 0.00024142 -6.43052e-05
4.15215e-06 -6.43052e-05 0.000171157
0.00294571 1.39884e-05 -8.51931e-05
1.39884e-05 -0.000485502 9.20087e-05
-8.51931e-05 9.20087e-05 -0.00109562
0.00205612 -0.000283104 -5.67766e-05
-0.000283104 0.000164149 8.73002e-05
-5.67766e-05 8.73002e-05 -0.000228002
0.00271587 -0.000138906 -1.11593e-05
-0.000138906 0.000712183 1.56179e-05
-1.11593e-05 1.56179e-05 0.000416161
0.000497116 -0.000392053 -1.26736e-05
-0.000392053 -0.000875682 -3.38711e-06
-1.26736e-05 -3.38711e-06 0.000121126
0.00489408 -0.000128394 1.31643e-05
-0.000128394 0.00097254 4.67036e-05
1.31643e-05 4.67036e-05 -0.000242501
-0.000116228 -0.000306388 -3.25676e-06
-0.000306388 -0.001169 -2.73749e-06
-3.25676e-06 -2.73749e-06 -0.000918029
0.00321096 0.000162242 -6.95292e-05
0.000162242 0.000720636 -4.31976e-05
-6.95292e-05 -4.31976e-05 0.000511139
0.00844105 -0.00040139 2.1381e-06
-0.00040139 0.00279816 3.65169e-05
2.1381e-06 3.65169e-05 0.00169275
-7.19621e-05 -0.000369401 1.37635e-05
-0.000369401 -0.000206371 -6.27827e-06
1.37635e-05 -6.27827e-06 9.17537e-05
0.000685033 9.89846e-05 -1.55433e-06
9.89846e-05 -2.944e-05 -5.45059e-07
-1.55433e-06 -5.45059e-07 -9.51843e-05
0.00107793 1.81437e-05 2.20041e-06
1.81437e-05 0.000154477 1.08083e-07
2.20041e-06 1.08083e-07 8.83683e-05
0.000956475 -6.37289e-06 -4.82337e-07
-6.37289e-06 8.01302e-05 -7.61126e-07
-4.82337e-07 -7.61126e-07 4.30123e-06
-0.00069718 -1.93246e-05 -1.80589e-05
-1.93246e-05 -6.73274e-05 -2.17063e-05
-1.80589e-05 -2.17063e-05 -0.00062177
-3.30491e-05 -2.03355e-05 -9.51378e-07
-2.03355e-05 -0.000255198 -4.58213e-06
-9.51378e-07 -4.58213e-06 -0.000346863
0.000775884 6.14863e-06 1.13012e-06
6.14863e-06 -5.43539e-06 6.83541e-07
1.13012e-06 6.83541e-07 -7.88927e-05
0.000798227 4.27568e-05 1.33026e-06
4.27568e-05 0.00012742 5.62264e-07
1.33026e-06 5.62264e-07 2.17229e-05
0.000754465 7.68135e-05 1.32068e-06
7.68135e-05 0.00022337 -1.15242e-05
1.32068e-06 -1.15242e-05 -4.12077e-06
-0.000677682 8.16973e-05 1.10567e-05
8.16973e-05 -0.000635491 1.21712e-05
1.10567e-05 1.21712e-05 -0.000774243
0.00148266 -9.08108e-06 3.71101e-05
-9.08108e-06 0.000894508 -1.63077e-06
3.71101e-05 -1.63077e-06 0.000784891
0.00115154 -1.82419e-06 -1.37428e-06
-1.82419e-06 3.85818e-05 -6.34334e-07
-1.37428e-06 -6.34334e-07 -6.07601e-05
0.000590881 2.20817e-06 9.22938e-06
2.20817e-06 -8.78568e-05 -1.64751e-06
9.22938e-06 -1.64751e-06 -0.000178168
8.47821e-05 -3.51144e-05 2.77797e-06
-3.51144e-05 7.97677e-05 4.64116e-06
2.77797e-06 4.64116e-06 -3.64125e-05
0.00165999 -0.000222894 2.44157e-05
-0.000222894 -0.000101382 -3.55095e-05
2.44157e-05 -3.55095e-05 -0.000316767
0.00122672 -5.81696e-06 -1.53409e-05
-5.81696e-06 1.19536e-06 -3.10913e-06
-1.53409e-05 -3.10913e-06 -0.000110307
0.00194477 0.000160232 -1.74117e-06
0.000160232 -0.000179075 1.73512e-05
-1.74117e-06 1.73512e-05 -0.00145092
-0.00235038 0.000404259 -4.6971e-05
0.000404259 -0.00181182 9.65514e-06
-4.6971e-05 9.65514e-06 -0.00142619
0.00120896 0.000289644 -4.33065e-05
0.000289644 0.000361838 2.06115e-05
-4.33065e-05 2.06115e-05 0.00077091
0.00160933 -0.000152928 -5.08999e-06
-0.000152928 0.000262164 4.33826e-06
-5.08999e-06 4.33826e-06 0.000392072
0.0011214 0.000111063 -2.25751e-06
0.000111063 0.000652557 2.65274e-06
-2.25751e-06 2.65274e-06 0.000689862
-0.00350347 0.000230304 8.01196e-06
0.000230304 -0.00135702 9.4163e-07
8.01196e-06 9.4163e-07 -0.00141054
0.00304843 -0.000346299 -6.83268e-06
-0.000346299 0.000489536 1.60915e-05
-6.83268e-06 1.60915e-05 -0.000283921
0.00694973 0.000402029 -1.66701e-05
0.000402029 0.00210831 2.3153e-06
-1.66701e-05 2.3153e-06 0.000991578
0.000198874 -0.000158907 -3.20807e-06
-0.000158907 -0.00046028 4.73638e-06
-3.20807e-06 4.73638e-06 -0.000414848
-0.00437458 0.000115496 1.96743e-05
0.000115496 -0.00222674 -1.09586e-05
1.96743e-05 -1.09586e-05 -0.00214137
0.00655058 0.000372259 2.268e-06
0.000372259 0.00211937 2.91316e-06
2.268e-06 2.91316e-06 0.00113351
0.003183 -0.000145619 -2.11688e-05
-0.000145619 -5.33023e-05 2.89223e-05
-2.11688e-05 2.89223e-05 -0.000560235
-0.00016788 -8.12658e-05 -6.82325e-06
-8.12658e-05 -0.000298625 -1.84756e-06
-6.82325e-06 -1.84756e-06 -0.000501935
0.00130774 -0.000142081 -1.15576e-06
-0.000142081 9.85404e-05 -1.82448e-07
-1.15576e-06 -1.82448e-07 4.32067e-05
0.00160985 -0.000158587 3.6896e-06
-0.000158587 2.53317e-05 -3.52815e-06
3.6896e-06 -3.52815e-06 2.64596e-06
0.000443453 -8.57412e-05 -1.23378e-06
-8.57412e-05 -9.86384e-05 -4.12197e-06
-1.23378e-06 -4.12197e-06 -0.000286054
0.00122487 -0.000149706 -8.69766e-07
-0.000149706 7.64449e-05 -1.64641e-06
-8.69766e-07 -1.64641e-06 -7.66108e-05
0.00159308 -0.000167478 -3.80633e-06
-0.000167478 7.2674e-05 -2.81537e-06
-3.80633e-06 -2.81537e-06 -3.74327e-05
0.00113577 -0.000125589 3.33439e-08
-0.000125589 0.000118949 -2.18424e-06
3.33439e-08 -2.18424e-06 -5.33134e-05
0.00136578 -0.000143087 5.39679e-07
-0.000143087 0.000118897 -9.97558e-07
5.39679e-07 -9.97558e-07 -2.59657e-05
0.00175125 -0.000143387 -3.03158e-06
-0.000143387 0.000187537 -3.91073e-06
-3.03158e-06 -3.91073e-06 7.79119e-05
0.00130125 -0.000126567 1.20674e-06
-0.000126567 0.000171405 -9.24285e-07
1.20674e-06 -9.24285e-07 1.63431e-05
0.00135312 -0.000127224 -3.39439e-07
-0.000127224 9.9323e-05 -8.87647e-07
-3.39439e-07 -8.87647e-07 -3.39812e-05
0.00163755 -0.000121878 -2.75587e-06
-0.000121878 0.000156814 -3.92229e-06
-2.75587e-06 -3.92229e-06 5.46529e-05
0.00159424 -0.000112698 -2.2944e-06
-0.000112698 0.000171067 -3.01414e-06
-2.2944e-06 -3.01414e-06 7.2505e-05
0.00133731 -0.000116471 -2.99757e-06
-0.000116471 0.000120155 -1.2905e-06
-2.99757e-06 -1.2905e-06 -4.15876e-07
0.00141215 -0.000117817 8.40275e-07
-0.000117817 0.000124301 9.37362e-08
8.40275e-07 9.37362e-08 3.59983e-06
0.00071072 -8.96372e-05 -2.52666e-06
-8.96372e-05 -0.000120184 1.33758e-06
-2.52666e-06 1.33758e-06 -0.000237474
0.00131113 -0.000118325 1.09678e-06
-0.000118325 0.000166173 -1.06727e-06
1.09678e-06 -1.06727e-06 3.71083e-05
0.00114861 -0.0001167 2.87544e-06
-0.0001167 5.40187e-05 -5.00184e-07
2.87544e-06 -5.00184e-07 -8.47401e-05
0.00101847 -9.43706e-05 -8.81583e-07
-9.43706e-05 9.14644e-05 1.0067e-06
-8.81583e-07 1.0067e-06 -7.66642e-06
0.00101162 -9.81977e-05 4.28609e-07
-9.81977e-05 7.3749e-05 -2.0154e-07
4.28609e-07 -2.0154e-07 -3.81161e-05
0.000958532 -0.000103351 2.3524e-06
-0.000103351 2.96797e-05 -2.01911e-06
2.3524e-06 -2.01911e-06 -0.000100848
0.000979392 -7.3586e-05 -1.80991e-06
-7.3586e-05 8.4454e-05 4.06414e-07
-1.80991e-06 4.06414e-07 9.13923e-07
0.00104419 -9.12026e-05 -2.30657e-07
-9.12026e-05 0.000116813 -4.3558e-07
-2.30657e-07 -4.3558e-07 2.26815e-05
0.000887557 -8.72572e-05 5.91122e-07
-8.72572e-05 4.08605e-05 -1.64042e-06
5.91122e-07 -1.64042e-06 -5.69904e-05
0.000877607 1.60929e-05 -8.40799e-07
1.60929e-05 4.8574e-05 2.79091e-06
-8.40799e-07 2.79091e-06 -1.15218e-05
0.000956314 -3.53158e-05 6.87501e-07
-3.53158e-05 8.19325e-05 3.58414e-07
6.87501e-07 3.58414e-07 1.14979e-06
0.000993001 -7.25148e-05 1.12382e-06
-7.25148e-05 0.000106747 4.97716e-07
1.12382e-06 4.97716e-07 1.39657e-05
0.000694618 4.26125e-05 -3.04791e-06
4.26125e-05 -4.16592e-05 3.83074e-06
-3.04791e-06 3.83074e-06 -5.86976e-05
0.000797313 2.77895e-05 -2.40254e-07
2.77895e-05 2.1044e-06 -2.02612e-07
-2.40254e-07 -2.02612e-07 -4.83296e-05
0.000919574 -7.94371e-06 3.9027e-07
-7.94371e-06 6.68453e-05 -1.59806e-06
3.9027e-07 -1.59806e-06 -8.02379e-06
0.00224461 6.08033e-05 -9.40684e-06
6.08033e-05 0.000779804 1.39487e-06
-9.40684e-06 1.39487e-06 0.00079174
0.000737776 3.88639e-05 1.56583e-07
3.88639e-05 -2.63859e-05 -6.24856e-09
1.56583e-07 -6.24856e-09 -3.93899e-05
0.000786272 3.89725e-05 1.05578e-06
3.89725e-05 -6.84946e-06 -2.31484e-06
1.05578e-06 -2.31484e-06 -4.93631e-05
0.0021957 4.89477e-05 8.29962e-07
4.89477e-05 0.000744511 5.76833e-08
8.29962e-07 5.76833e-08 0.000759872
0.000779879 3.6063e-05 2.30376e-06
3.6063e-05 -1.22305e-05 -3.48144e-06
2.30376e-06 -3.48144e-06 -2.17394e-05
0.0021627 4.35566e-05 2.25081e-05
4.35566e-05 0.000720892 -3.46187e-06
2.25081e-05 -3.46187e-06 0.000737826
0.000993847 3.13861e-05 -4.27509e-07
3.13861e-05 0.000104589 -1.80082e-07
-4.27509e-07 -1.80082e-07 2.97315e-05
0.00088935 1.99742e-06 6.09078e-08
1.99742e-06 4.13019e-05 -3.03602e-07
6.09078e-08 -3.03602e-07 -2.92728e-05
0.000883022 -8.51976e-06 -4.14097e-07
-8.51976e-06 3.76686e-05 -1.52923e-06
-4.14097e-07 -1.52923e-06 -2.58637e-05
0.000802077 -3.91696e-05 -7.93553e-07
-3.91696e-05 -4.4377e-06 -2.18624e-06
-7.93553e-07 -2.18624e-06 -4.35879e-05
0.00087156 -1.03555e-05 4.68709e-07
-1.03555e-05 2.82564e-05 -4.65989e-08
4.68709e-07 -4.65989e-08 -3.07689e-05
0.000877769 5.96816e-06 5.09614e-07
5.96816e-06 3.51843e-05 7.3792e-07
5.09614e-07 7.3792e-07 -3.35771e-05
0.000767888 -2.99444e-05 -2.08592e-06
-2.99444e-05 -2.4771e-05 -3.49079e-06
-2.08592e-06 -3.49079e-06 -3.38936e-05
0.000816485 -2.72706e-05 -2.20738e-07
-2.72706e-05 -1.49432e-06 7.71857e-09
-2.20738e-07 7.71857e-09 -3.78935e-05
0.000880714 -7.99293e-06 9.28877e-07
-7.99293e-06 3.16237e-05 9.91649e-07
9.28877e-07 9.91649e-07 -2.40288e-05
0.00225255 -3.81374e-05 -2.1092e-05
-3.81374e-05 0.000761867 -3.78813e-06
-2.1092e-05 -3.78813e-06 0.000779347
0.000759127 -2.63284e-05 -1.52532e-07
-2.63284e-05 -3.47997e-05 5.88658e-10
-1.52532e-07 5.88658e-10 -4.20491e-05
0.000834765 -1.88173e-05 8.37447e-07
-1.88173e-05 4.78248e-06 1.60336e-06
8.37447e-07 1.60336e-06 -2.95673e-05
0.00220143 -3.21727e-05 -1.54668e-06
-3.21727e-05 0.000728259 6.92078e-08
-1.54668e-06 6.92078e-08 0.000747454
0.000755584 -2.26489e-05 7.47983e-07
-2.26489e-05 -4.23296e-05 3.30144e-06
7.47983e-07 3.30144e-06 -4.73691e-05
0.00213084 -2.56176e-05 1.29122e-05
-2.56176e-05 0.00068494 3.86183e-06
1.29122e-05 3.86183e-06 0.000705951
-0.000710662 -8.97536e-05 2.60858e-05
-8.97536e-05 -0.000352932 7.01031e-06
2.60858e-05 7.01031e-06 -0.000513071
0.00133648 -3.99514e-06 1.81576e-06
-3.99514e-06 0.000115938 2.22339e-06
1.81576e-06 2.22339e-06 3.0135e-05
0.000984781 5.24145e-06 9.00339e-06
5.24145e-06 0.000120178 4.57226e-06
9.00339e-06 4.57226e-06 5.11193e-05
0.000948596 2.06699e-05 -4.80838e-07
2.06699e-05 8.46828e-05 5.37072e-07
-4.80838e-07 5.37072e-07 4.66605e-06
0.00108341 7.93702e-05 -1.94244e-07
7.93702e-05 0.000165032 9.71219e-07
-1.94244e-07 9.71219e-07 7.66858e-05
0.000969117 3.92166e-05 -4.114e-07
3.92166e-05 9.84421e-05 2.79182e-07
-4.114e-07 2.79182e-07 1.3782e-05
0.00103207 -2.21522e-05 9.87269e-08
-2.21522e-05 0.000116797 -3.33936e-07
9.87269e-08 -3.33936e-07 4.69078e-05
0.000988596 1.59286e-05 3.84687e-07
1.59286e-05 9.61141e-05 4.9206e-07
3.84687e-07 4.9206e-07 2.15539e-05
0.000857463 -7.18835e-06 -5.42127e-07
-7.18835e-06 2.84706e-05 1.15948e-06
-5.42127e-07 1.15948e-06 -4.71005e-05
0.00086065 1.33735e-05 -4.05852e-07
1.33735e-05 3.64241e-05 4.18957e-09
-4.05852e-07 4.18957e-09 -4.1571e-05
0.000927214 1.73415e-05 1.97631e-07
1.73415e-05 6.96103e-05 -6.19883e-09
1.97631e-07 -6.19883e-09 -1.12478e-05
0.00102018 4.67954e-05 4.68136e-07
4.67954e-05 0.000134621 -8.85886e-07
4.68136e-07 -8.85886e-07 4.53342e-05
0.000829227 4.51804e-05 1.63152e-06
4.51804e-05 1.40946e-05 -1.76575e-06
1.63152e-06 -1.76575e-06 -6.6358e-05
0.00093839 3.45933e-05 -6.25677e-08
3.45933e-05 7.81503e-05 -5.43403e-07
-6.25677e-08 -5.43403e-07 1.49172e-06
0.00110336 2.95624e-05 4.63287e-07
2.95624e-05 0.000170263 2.23018e-07
4.63287e-07 2.23018e-07 9.33834e-05
-0.00224906 -0.000257424 1.72435e-05
-0.000257424 -0.0011519 2.44978e-05
1.72435e-05 2.44978e-05 -0.00111474
0.000366632 -0.000234432 8.75651e-06
-0.000234432 -9.61684e-05 2.28586e-06
8.75651e-06 2.28586e-06 0.00010344
0.0018171 -2.10912e-05 -1.90754e-05
-2.10912e-05 0.000203154 -1.22356e-05
-1.90754e-05 -1.22356e-05 8.67466e-05
-0.00134476 -0.000413775 -1.03366e-05
-0.000413775 -0.00189819 1.0618e-05
-1.03366e-05 1.0618e-05 -0.000800514
0.00436093 -0.000471943 -2.36549e-05
-0.000471943 0.00118084 -4.32471e-05
-2.36549e-05 -4.32471e-05 0.00127944
0.0042121 -2.76449e-05 5.48035e-05
-2.76449e-05 0.000718032 2.48535e-05
5.48035e-05 2.48535e-05 -0.000409254
0.00175456 -0.000129148 -7.29605e-05
-0.000129148 0.000209247 7.85052e-05
-7.29605e-05 7.85052e-05 -0.000441054
0.00266916 0.000117566 -4.34369e-05
0.000117566 0.000314065 -1.65724e-05
-4.34369e-05 -1.65724e-05 -3.29491e-05
0.00302704 -0.000498162 -7.18443e-06
-0.000498162 0.000976762 7.88274e-06
-7.18443e-06 7.88274e-06 0.00112868
0.00246129 -8.38626e-05 2.27417e-05
-8.38626e-05 1.39581e-05 3.59519e-05
2.27417e-05 3.59519e-05 -0.00116211
0.0015476 0.000215828 -8.38827e-05
0.000215828 -6.31993e-05 -8.83766e-05
-8.38827e-05 -8.83766e-05 -0.000654038
0.00321527 8.61539e-05 -8.75787e-05
8.61539e-05 0.000602437 -2.94224e-05
-8.75787e-05 -2.94224e-05 -0.000586234
0.00238743 0.00023024 1.09852e-05
0.00023024 0.000708949 -6.21994e-06
1.09852e-05 -6.21994e-06 0.000580982
0.000883419 9.79096e-05 -9.89439e-07
9.79096e-05 6.2294e-05 -1.51995e-07
-9.89439e-07 -1.51995e-07 -1.38613e-06
0.0012574 2.22974e-05 6.43985e-08
2.22974e-05 0.000244401 -1.99355e-06
6.43985e-08 -1.99355e-06 0.000178225
-0.000480594 2.45683e-05 -2.00154e-05
2.45683e-05 -0.000433314 -1.39195e-05
-2.00154e-05 -1.39195e-05 -0.000607057
0.0015552 8.20646e-05 -1.53953e-06
8.20646e-05 0.000479756 -5.0981e-06
-1.53953e-06 -5.0981e-06 0.000373615
0.00103373 0.000156736 1.02879e-05
0.000156736 0.000146059 2.40978e-07
1.02879e-05 2.40978e-07 2.91774e-05
0.000636853 0.000180946 3.45188e-05
0.000180946 -0.000338717 2.41019e-05
3.45188e-05 2.41019e-05 -0.000403315
-0.00254404 -1.29077e-05 5.863e-06
-1.29077e-05 -0.00138643 -8.36252e-06
5.863e-06 -8.36252e-06 -0.00112471
0.000147475 4.11953e-08 3.42085e-06
4.11953e-08 0.000186195 1.00651e-06
3.42085e-06 1.00651e-06 4.53292e-05
0.000712391 -2.10615e-06 -1.05133e-05
-2.10615e-06 -0.00016929 -1.56947e-06
-1.05133e-05 -1.56947e-06 -0.000254171
0.000724081 -0.000135236 -3.07828e-05
-0.000135236 -0.000167416 -6.72329e-06
-3.07828e-05 -6.72329e-06 -5.43718e-05
0.00336076 -0.000389224 -4.9633e-05
-0.000389224 0.000632277 -3.00222e-06
-4.9633e-05 -3.00222e-06 5.47328e-05
0.000987901 8.88491e-05 -3.07215e-05
8.88491e-05 0.000622283 6.46712e-06
-3.07215e-05 6.46712e-06 0.000620273
0.00114555 0.000281847 2.24927e-05
0.000281847 -0.000272659 -4.31468e-05
2.24927e-05 -4.31468e-05 -0.001591
0.00607992 0.000423655 -9.31838e-05
0.000423655 0.00300542 1.61802e-05
-9.31838e-05 1.61802e-05 0.00306199
0.00120948 -0.000215917 9.09033e-06
-0.000215917 -1.90623e-05 9.12689e-08
9.09033e-06 9.12689e-08 -6.13839e-06
-0.000923266 0.000198007 -1.88838e-05
0.000198007 -0.000404095 -1.5375e-06
-1.88838e-05 -1.5375e-06 -0.000412982
0.00259073 0.00024861 -6.37983e-06
0.00024861 0.000242894 1.25163e-05
-6.37983e-06 1.25163e-05 -0.000931826
0.00366283 -0.000117407 2.01069e-06
-0.000117407 0.000559759 5.56458e-06
2.01069e-06 5.56458e-06 0.000160247
0.00051 -0.000127897 -3.49271e-06
-0.000127897 -0.00027463 -7.80722e-06
-3.49271e-06 -7.80722e-06 -0.000340382
0.00619881 8.89558e-05 2.83802e-05
8.89558e-05 0.00195796 2.84926e-06
2.83802e-05 2.84926e-06 0.00112469
0.0013741 6.16042e-05 2.05648e-06
6.16042e-05 -0.000504501 -7.47812e-06
2.05648e-06 -7.47812e-06 -0.000762644
0.000704129 -0.000125247 -4.70192e-06
-0.000125247 -0.00016331 -8.85779e-07
-4.70192e-06 -8.85779e-07 -0.000208424
0.00142536 -0.00016007 -2.80847e-07
-0.00016007 -4.5499e-05 -3.09279e-07
-2.80847e-07 -3.09279e-07 -8.14376e-05
0.00201638 -0.000187262 -6.43386e-06
-0.000187262 8.55424e-05 1.94106e-06
-6.43386e-06 1.94106e-06 5.34866e-05
0.0012902 -0.000149511 -2.60322e-06
-0.000149511 0.000103785 -2.96272e-06
-2.60322e-06 -2.96272e-06 -4.76325e-05
0.00157018 -0.000163616 -2.90632e-06
-0.000163616 5.74217e-05 8.80229e-07
-2.90632e-06 8.80229e-07 -5.15418e-05
0.0016784 -0.000143946 -7.38733e-06
-0.000143946 -8.00303e-06 1.07569e-06
-7.38733e-06 1.07569e-06 -7.78021e-05
0.00098919 -0.000126879 2.24595e-06
-0.000126879 -7.05936e-05 2.94681e-07
2.24595e-06 2.94681e-07 -0.000215774
0.00149308 -0.00013263 -8.3646e-07
-0.00013263 5.27805e-05 8.8362e-08
-8.3646e-07 8.8362e-08 -5.54233e-05
0.00166305 -0.000118226 -2.74284e-06
-0.000118226 3.60871e-05 -8.33731e-07
-2.74284e-06 -8.33731e-07 -3.8883e-05
0.00123412 -0.000121376 2.29927e-06
-0.000121376 3.53761e-05 1.37248e-06
2.29927e-06 1.37248e-06 -9.63572e-05
0.00145967 -0.000115752 -3.26264e-07
-0.000115752 6.46388e-05 5.25948e-07
-3.26264e-07 5.25948e-07 -3.69001e-05
0.0015829 -0.000106121 -2.01343e-06
-0.000106121 8.25603e-05 -1.04528e-06
-2.01343e-06 -1.04528e-06 4.86458e-06
0.00185836 -0.00010643 -8.1356e-07
-0.00010643 0.000277466 -1.81418e-06
-8.1356e-07 -1.81418e-06 0.000193296
0.00153711 -0.000108836 -1.05003e-06
-0.000108836 0.000141511 1.41358e-06
-1.05003e-06 1.41358e-06 4.5428e-05
0.00141902 -0.000107439 -1.33279e-06
-0.000107439 0.000116455 -3.40118e-06
-1.33279e-06 -3.40118e-06 1.37286e-05
0.00132102 -0.000110806 -2.85691e-06
-0.000110806 0.000136168 -1.71666e-07
-2.85691e-06 -1.71666e-07 2.21443e-05
0.00144892 -0.00011928 1.01128e-06
-0.00011928 0.000178536 -3.8983e-07
1.01128e-06 -3.8983e-07 5.80075e-05
0.00139758 -0.000114853 3.33157e-06
-0.000114853 0.000117136 2.52566e-06
3.33157e-06 2.52566e-06 -1.22369e-06
0.000791297 -8.81187e-05 -2.64698e-06
-8.81187e-05 -5.89675e-05 2.07669e-06
-2.64698e-06 2.07669e-06 -0.000165619
0.00103508 -0.000101584 1.48248e-07
-0.000101584 4.76484e-05 -5.17708e-08
1.48248e-07 -5.17708e-08 -6.86136e-05
0.00148664 -0.000124241 4.25198e-06
-0.000124241 0.000256359 -2.32199e-06
4.25198e-06 -2.32199e-06 0.000128564
0.000952167 -7.91743e-05 -1.61974e-06
-7.91743e-05 6.18939e-05 6.14373e-07
-1.61974e-06 6.14373e-07 -2.52172e-05
0.0010747 -9.61408e-05 1.30071e-07
-9.61408e-05 0.000118813 -2.05057e-07
1.30071e-07 -2.05057e-07 1.95045e-05
0.000749826 -8.66908e-05 1.36925e-06
-8.66908e-05 -5.75494e-05 -2.72211e-06
1.36925e-06 -2.72211e-06 -0.000168836
0.000834591 -1.38906e-05 -2.52763e-06
-1.38906e-05 2.50394e-05 2.45741e-06
-2.52763e-06 2.45741e-06 -4.15721e-05
0.00101751 -7.57323e-05 -2.18817e-08
-7.57323e-05 0.000102981 -3.7859e-08
-2.18817e-08 -3.7859e-08 1.94495e-05
0.00111735 -9.39135e-05 1.14764e-06
-9.39135e-05 0.000153156 -5.87137e-07
1.14764e-06 -5.87137e-07 5.88752e-05
0.000638904 5.05881e-05 -2.3877e-06
5.05881e-05 -6.28183e-05 4.41681e-06
-2.3877e-06 4.41681e-06 -8.62352e-05
0.000824153 6.29078e-06 -2.76838e-08
6.29078e-06 2.02751e-05 3.26881e-08
-2.76838e-08 3.26881e-08 -4.04353e-05
0.000995342 -4.00262e-05 1.61791e-06
-4.00262e-05 0.000102238 -5.40678e-07
1.61791e-06 -5.40678e-07 2.11428e-05
0.00239476 6.16262e-05 -3.00645e-05
6.16262e-05 0.000863957 3.15053e-06
-3.00645e-05 3.15053e-06 0.000874686
0.000715701 4.52135e-05 -9.83197e-08
4.52135e-05 -2.96963e-05 -1.00923e-07
-9.83197e-08 -1.00923e-07 -4.73877e-05
0.000772401 9.84627e-06 2.29018e-06
9.84627e-06 -1.14858e-05 -2.62836e-06
2.29018e-06 -2.62836e-06 -6.18268e-05
0.00162344 4.77995e-05 1.15732e-05
4.77995e-05 0.000448912 -7.76165e-07
1.15732e-05 -7.76165e-07 0.000458324
0.000767484 4.06216e-05 2.688e-06
4.06216e-05 -1.10134e-05 -3.73073e-06
2.688e-06 -3.73073e-06 -2.42179e-05
0.00222776 4.92562e-05 2.58415e-05
4.92562e-05 0.000762882 -3.39355e-06
2.58415e-05 -3.39355e-06 0.000777767
0.0009734 4.76972e-05 7.40847e-08
4.76972e-05 9.65008e-05 7.37704e-07
7.40847e-08 7.37704e-07 1.60171e-05
0.000957186 1.03935e-05 -1.15563e-07
1.03935e-05 8.27118e-05 5.05503e-07
-1.15563e-07 5.05503e-07 9.19541e-06
0.000899698 -2.21072e-05 -4.69598e-07
-2.21072e-05 5.22804e-05 -1.28154e-06
-4.69598e-07 -1.28154e-06 -1.53238e-05
0.000936251 1.37816e-05 3.06057e-07
1.37816e-05 6.66139e-05 5.92235e-07
3.06057e-07 5.92235e-07 -4.88532e-06
0.000881474 -2.62484e-05 1.39532e-07
-2.62484e-05 3.48473e-05 -3.78842e-08
1.39532e-07 -3.78842e-08 -2.72227e-05
0.000784043 -3.71713e-05 -1.17956e-06
-3.71713e-05 -8.76708e-06 -2.34491e-06
-1.17956e-06 -2.34491e-06 -5.11042e-05
0.00076164 -3.3627e-05 -2.56151e-06
-3.3627e-05 -2.23638e-05 -3.58119e-06
-2.56151e-06 -3.58119e-06 -3.3192e-05
0.000805353 -3.51079e-05 -1.60589e-07
-3.51079e-05 -3.33261e-06 -1.76913e-08
-1.60589e-07 -1.76913e-08 -4.20585e-05
0.000879532 -3.82931e-05 -3.43389e-08
-3.82931e-05 3.09031e-05 1.34834e-06
-3.43389e-08 1.34834e-06 -2.67061e-05
0.00227422 -4.36958e-05 -2.40315e-05
-4.36958e-05 0.000779823 -3.64904e-06
-2.40315e-05 -3.64904e-06 0.000795817
0.000749566 -2.94231e-05 -2.11983e-07
-2.94231e-05 -3.41258e-05 1.90161e-08
-2.11983e-07 1.90161e-08 -4.31925e-05
0.000823726 -1.92454e-05 1.48762e-06
-1.92454e-05 1.65602e-06 1.81608e-06
1.48762e-06 1.81608e-06 -3.42952e-05
0.00225027 -3.814e-05 -1.20766e-06
-3.814e-05 0.000760004 7.73328e-08
-1.20766e-06 7.73328e-08 0.000777608
0.000744678 -2.59249e-05 1.252e-06
-2.59249e-05 -4.21332e-05 3.42052e-06
1.252e-06 3.42052e-06 -4.93422e-05
0.00218832 -3.20361e-05 1.59287e-05
-3.20361e-05 0.000720693 3.83566e-06
1.59287e-05 3.83566e-06 0.000740085
0.00100146 7.9629e-05 9.75319e-05
7.9629e-05 0.000468191 2.44364e-05
9.75319e-05 2.44364e-05 0.000228927
0.000460281 -0.000102733 5.83323e-06
-0.000102733 0.000230552 3.06721e-06
5.83323e-06 3.06721e-06 0.000137616
0.00129448 -6.43884e-06 -1.18456e-05
-6.43884e-06 7.72554e-05 1.2994e-07
-1.18456e-05 1.2994e-07 -7.06493e-06
0.000943162 1.08869e-05 4.32703e-07
1.08869e-05 8.11483e-05 5.61855e-07
4.32703e-07 5.61855e-07 1.45357e-06
0.000939112 2.24637e-05 1.31919e-07
2.24637e-05 8.21311e-05 3.99911e-07
1.31919e-07 3.99911e-07 -2.25682e-06
0.000982007 7.86531e-05 -9.7356e-08
7.86531e-05 0.000115584 4.14448e-08
-9.7356e-08 4.14448e-08 2.75326e-05
0.00109525 9.56095e-05 6.07622e-07
9.56095e-05 0.000167229 9.55488e-07
6.07622e-07 9.55488e-07 7.48504e-05
0.00100269 6.85084e-05 -9.0986e-07
6.85084e-05 0.000128605 5.43352e-07
-9.0986e-07 5.43352e-07 3.68263e-05
0.000894274 2.05455e-05 1.48221e-07
2.05455e-05 5.34921e-05 7.49489e-07
1.48221e-07 7.49489e-07 -2.49872e-05
0.000905813 1.60517e-05 2.65084e-07
1.60517e-05 5.80222e-05 7.65351e-07
2.65084e-07 7.65351e-07 -2.25568e-05
0.000847696 4.95221e-05 -4.81952e-07
4.95221e-05 4.52212e-05 -5.62506e-07
-4.81952e-07 -5.62506e-07 -4.29316e-05
0.000315106 5.98984e-05 -4.39367e-07
5.98984e-05 -0.000224104 1.28659e-06
-4.39367e-07 1.28659e-06 -0.000317262
0.000836521 7.95024e-05 -8.77919e-08
7.95024e-05 1.83843e-05 -1.42792e-06
-8.77919e-08 -1.42792e-06 -7.19441e-05
0.00191716 0.000165189 2.93335e-06
0.000165189 0.000464924 -4.15734e-06
2.93335e-06 -4.15734e-06 0.00035431
0.000931676 5.23131e-05 -1.68978e-06
5.23131e-05 8.21627e-05 -2.47001e-07
-1.68978e-06 -2.47001e-07 -3.335e-08
0.000886102 1.40062e-05 -8.43702e-08
1.40062e-05 5.46582e-05 -2.56817e-07
-8.43702e-08 -2.56817e-07 -2.00356e-05
0.00890716 -0.000141262 -2.81702e-05
-0.000141262 0.00268014 -1.34236e-05
-2.81702e-05 -1.34236e-05 0.00176297
-0.00150085 -0.00026524 -1.45428e-05
-0.00026524 -0.000713885 2.10187e-06
-1.45428e-05 2.10187e-06 -0.00085081
0.00163641 -0.000238788 -3.02949e-05
-0.000238788 0.000579759 -1.81297e-05
-3.02949e-05 -1.81297e-05 0.000771479
-0.00226309 -0.000306936 -2.73654e-05
-0.000306936 -0.00148435 -1.02143e-05
-2.73654e-05 -1.02143e-05 -0.00126111
0.0089719 -0.000363594 5.56671e-05
-0.000363594 0.002992 2.93157e-05
5.56671e-05 2.93157e-05 0.00152111
0.00204813 7.70916e-05 1.77771e-05
7.70916e-05 0.000192343 1.5021e-05
1.77771e-05 1.5021e-05 9.40452e-06
0.00198488 0.000232863 -3.53549e-05
0.000232863 7.72482e-05 -2.35734e-05
-3.53549e-05 -2.35734e-05 -0.000384155
0.00625083 -0.000275559 4.06992e-05
-0.000275559 0.00167486 1.7645e-05
4.06992e-05 1.7645e-05 0.00068244
0.00221517 0.000155669 -1.20937e-05
0.000155669 -4.67424e-05 -4.35944e-05
-1.20937e-05 -4.35944e-05 -0.000448895
0.00223058 0.000261052 1.64278e-05
0.000261052 0.000415276 1.09876e-05
1.64278e-05 1.09876e-05 0.000270532
0.000890539 0.000150662 4.28016e-07
0.000150662 2.44754e-05 -4.5988e-06
4.28016e-07 -4.5988e-06 -0.000117182
0.00094467 7.90086e-05 -2.19849e-06
7.90086e-05 8.63862e-05 1.75703e-06
-2.19849e-06 1.75703e-06 2.70468e-05
0.00197518 0.000203071 -3.52142e-05
0.000203071 0.000585397 -1.89884e-05
-3.52142e-05 -1.89884e-05 0.000477343
0.000439913 0.000185094 -1.11371e-05
0.000185094 -0.000423909 1.33742e-05
-1.11371e-05 1.33742e-05 -0.000499336
0.000169994 -2.09759e-05 7.52406e-07
-2.09759e-05 -0.00104481 -7.13059e-06
7.52406e-07 -7.13059e-06 -0.00151523
0.00161635 1.61632e-05 -4.84169e-06
1.61632e-05 0.00066394 5.11048e-07
-4.84169e-06 5.11048e-07 0.000667783
-0.00116866 6.89362e-06 -1.35336e-05
6.89362e-06 -0.000501956 5.47415e-07
-1.35336e-05 5.47415e-07 -0.000687119
0.00220263 -0.00025749 -3.67261e-05
-0.00025749 0.000409719 1.06332e-05
-3.67261e-05 1.06332e-05 0.000416984
0.00325747 -0.000147442 1.94332e-06
-0.000147442 0.000178109 -2.13935e-05
1.94332e-06 -2.13935e-05 -0.000473073
0.000147844 7.70897e-07 -7.88662e-05
7.70897e-07 0.000111234 2.35338e-05
-7.88662e-05 2.35338e-05 -7.54856e-05
0.00744574 0.000428098 -2.77955e-05
0.000428098 0.0026506 1.69067e-05
-2.77955e-05 1.69067e-05 0.0015454
0.000818359 -0.000137041 1.61757e-06
-0.000137041 -0.000156561 -1.752e-06
1.61757e-06 -1.752e-06 -0.000183599
0.00518525 0.000202196 2.30999e-05
0.000202196 0.00139815 7.77517e-06
2.30999e-05 7.77517e-06 0.000681342
0.0031219 7.16253e-05 3.80645e-05
7.16253e-05 0.000130385 -2.94979e-06
3.80645e-05 -2.94979e-06 -0.000278999
0.003163 -0.000145174 -5.49268e-06
-0.000145174 0.000945733 2.1294e-07
-5.49268e-06 2.1294e-07 0.00087307
0.00139803 3.65886e-05 -5.25278e-05
3.65886e-05 9.24843e-05 -2.94789e-07
-5.25278e-05 -2.94789e-07 -0.000178767
0.00127727 -0.000157008 5.15854e-06
-0.000157008 -0.000108327 -2.45613e-06
5.15854e-06 -2.45613e-06 -0.000148276
0.0017754 -0.000180242 -1.277e-06
-0.000180242 -1.05076e-05 2.6758e-06
-1.277e-06 2.6758e-06 -4.99877e-05
0.00233242 -0.000129737 -1.04827e-05
-0.000129737 0.000193164 7.75148e-07
-1.04827e-05 7.75148e-07 0.0001507
0.00154884 -0.000159656 4.22554e-06
-0.000159656 4.30524e-05 1.52373e-06
4.22554e-06 1.52373e-06 -6.40218e-05
0.00179504 -0.000142167 1.53425e-07
-0.000142167 6.33932e-05 1.31428e-06
1.53425e-07 1.31428e-06 -6.73745e-06
0.00177611 -9.82266e-05 -2.22165e-06
-9.82266e-05 9.04768e-06 2.27254e-06
-2.22165e-06 2.27254e-06 -5.05677e-05
0.00124846 -0.000122519 3.31655e-06
-0.000122519 -7.57845e-05 2.9907e-06
3.31655e-06 2.9907e-06 -0.000182502
0.00163558 -0.000117645 -2.24943e-07
-0.000117645 2.82367e-05 1.65464e-06
-2.24943e-07 1.65464e-06 -4.85476e-05
0.00173689 -9.79085e-05 -6.64512e-07
-9.79085e-05 6.63451e-05 2.17632e-06
-6.64512e-07 2.17632e-06 -4.2022e-06
0.00128994 -0.000110035 3.82914e-06
-0.000110035 -2.31125e-05 3.67029e-06
3.82914e-06 3.67029e-06 -0.00012409
0.00152496 -0.000105528 -4.01244e-08
-0.000105528 5.69606e-05 1.31449e-06
-4.01244e-08 1.31449e-06 -2.19993e-05
0.00170646 -9.64804e-05 1.599e-07
-9.64804e-05 0.000142264 -2.33128e-07
1.599e-07 -2.33128e-07 6.59921e-05
0.00157917 -0.000100346 -2.06528e-06
-0.000100346 0.000137285 1.08801e-06
-2.06528e-06 1.08801e-06 5.56341e-05
0.00174953 -0.000103384 1.42364e-06
-0.000103384 0.000244079 -2.44929e-06
1.42364e-06 -2.44929e-06 0.000152311
0.00149585 -0.000105542 2.22457e-06
-0.000105542 0.000120371 4.69969e-06
2.22457e-06 4.69969e-06 2.66833e-05
0.00141827 -0.000106373 2.2493e-07
-0.000106373 0.000115501 -5.59901e-07
2.2493e-07 -5.59901e-07 1.24318e-05
0.00139844 -0.000103824 -1.45461e-06
-0.000103824 0.000127892 -1.45684e-06
-1.45461e-06 -1.45684e-06 2.32612e-05
0.000923956 -9.20561e-05 -3.09472e-06
-9.20561e-05 -3.98535e-05 9.98973e-07
-3.09472e-06 9.98973e-07 -0.000147395
0.00130752 -0.000109381 7.14553e-08
-0.000109381 0.000129741 -2.01874e-07
7.14553e-08 -2.01874e-07 1.53774e-05
0.00156442 -0.000122298 3.76181e-06
-0.000122298 0.000239009 3.30117e-07
3.76181e-06 3.30117e-07 0.000118491
0.000995867 -8.65708e-05 -2.23281e-06
-8.65708e-05 6.69712e-05 1.17245e-06
-2.23281e-06 1.17245e-06 -2.59525e-05
0.000888987 -9.14718e-05 -6.17049e-07
-9.14718e-05 -6.8046e-06 7.18121e-07
-6.17049e-07 7.18121e-07 -0.000112568
0.00132165 -0.000111866 2.99218e-06
-0.000111866 0.000196406 -1.68376e-06
2.99218e-06 -1.68376e-06 8.12603e-05
0.000753938 -2.60016e-05 -2.46879e-06
-2.60016e-05 -2.01412e-05 1.78021e-06
-2.46879e-06 1.78021e-06 -8.94243e-05
0.00103475 -8.31866e-05 6.04042e-08
-8.31866e-05 0.000102993 -1.95516e-07
6.04042e-08 -1.95516e-07 1.54896e-05
0.00113909 -9.83191e-05 1.5196e-06
-9.83191e-05 0.00015044 -1.47817e-06
1.5196e-06 -1.47817e-06 5.09079e-05
0.00059864 5.73165e-05 -1.53481e-06
5.73165e-05 -7.85097e-05 4.89148e-06
-1.53481e-06 4.89148e-06 -0.000109001
0.000842882 -1.69229e-05 -3.77045e-08
-1.69229e-05 2.7904e-05 2.3116e-07
-3.77045e-08 2.3116e-07 -3.84206e-05
0.0010623 -6.93879e-05 1.81316e-06
-6.93879e-05 0.000124415 -4.46629e-07
1.81316e-06 -4.46629e-07 4.14023e-05
0.00258376 6.98204e-05 -3.31704e-05
6.98204e-05 0.00096884 3.09688e-06
-3.31704e-05 3.09688e-06 0.000976777
0.000673557 5.3118e-05 3.39495e-08
5.3118e-05 -4.32212e-05 -1.27356e-07
3.39495e-08 -1.27356e-07 -6.74262e-05
0.000790259 -1.5724e-05 2.38848e-06
-1.5724e-05 -1.84287e-07 -2.39184e-06
2.38848e-06 -2.39184e-06 -5.97869e-05
0.0024388 6.2072e-05 4.52705e-07
6.2072e-05 0.000887394 8.51948e-08
4.52705e-07 8.51948e-08 0.000897771
0.000741859 4.77247e-05 1.87856e-06
4.77247e-05 -1.50118e-05 -4.18538e-06
1.87856e-06 -4.18538e-06 -3.3383e-05
0.00233026 5.53077e-05 2.94488e-05
5.53077e-05 0.000824236 -3.29544e-06
2.94488e-05 -3.29544e-06 0.000836844
0.00101727 8.45638e-05 5.47308e-08
8.45638e-05 0.00011868 4.56908e-07
5.47308e-08 4.56908e-07 2.97822e-05
0.000928443 5.8451e-05 3.50894e-07
5.8451e-05 7.48342e-05 1.35893e-07
3.50894e-07 1.35893e-07 -6.55195e-06
0.000827679 -1.30506e-05 -8.99089e-07
-1.30506e-05 1.80119e-05 -6.22263e-07
-8.99089e-07 -6.22263e-07 -5.66816e-05
0.000906144 -9.71526e-07 2.264e-07
-9.71526e-07 5.53652e-05 9.42696e-07
2.264e-07 9.42696e-07 -1.83577e-05
0.00086855 -2.97699e-05 -2.26632e-08
-2.97699e-05 3.56127e-05 1.22878e-07
-2.26632e-08 1.22878e-07 -3.24074e-05
0.000776588 -3.31341e-05 -1.38545e-06
-3.31341e-05 -7.83472e-06 -2.27836e-06
-1.38545e-06 -2.27836e-06 -5.59108e-05
0.000864228 -3.54224e-05 2.2287e-07
-3.54224e-05 2.57349e-05 1.50919e-06
2.2287e-07 1.50919e-06 -3.6155e-05
0.000797471 -3.69745e-05 -2.58675e-08
-3.69745e-05 -2.55361e-06 -1.02196e-07
-2.58675e-08 -1.02196e-07 -4.46606e-05
0.000753744 -3.93154e-05 -2.66653e-06
-3.93154e-05 -1.86693e-05 -3.71338e-06
-2.66653e-06 -3.71338e-06 -3.20931e-05
0.00228164 -4.91385e-05 -2.63536e-05
-4.91385e-05 0.00079092 -3.4614e-06
-2.63536e-05 -3.4614e-06 0.000805381
0.000746038 -3.28444e-05 -6.37174e-08
-3.28444e-05 -3.02085e-05 1.92688e-08
-6.37174e-08 1.92688e-08 -4.09645e-05
0.000806251 -3.09355e-05 1.47646e-06
-3.09355e-05 -3.48536e-06 2.01957e-06
1.47646e-06 2.01957e-06 -4.17956e-05
0.00227925 -4.37414e-05 -1.08102e-06
-4.37414e-05 0.000781683 8.53015e-08
-1.08102e-06 8.53015e-08 0.000797771
0.000733848 -2.8914e-05 1.70175e-06
-2.8914e-05 -4.21575e-05 3.54011e-06
1.70175e-06 3.54011e-06 -5.11681e-05
0.00224346 -3.8038e-05 1.94549e-05
-3.8038e-05 0.000755782 3.77949e-06
1.94549e-05 3.77949e-06 0.000773534
0.0070396 1.33065e-05 4.51586e-05
1.33065e-05 0.00208555 6.20012e-06
4.51586e-05 6.20012e-06 0.00137187
-0.00195947 -7.57517e-05 1.69477e-06
-7.57517e-05 -0.00101863 1.30106e-06
1.69477e-06 1.30106e-06 -0.000905618
-0.000768427 -6.72037e-05 -2.44562e-05
-6.72037e-05 -0.000454934 -1.76157e-06
-2.44562e-05 -1.76157e-06 -0.00062639
0.000913939 5.97533e-06 4.56994e-07
5.97533e-06 6.87836e-05 5.89694e-07
4.56994e-07 5.89694e-07 -1.54709e-05
0.000875835 7.45164e-05 -6.28942e-08
7.45164e-05 6.22798e-05 -3.47157e-07
-6.28942e-08 -3.47157e-07 -2.45589e-05
0.00105829 7.23714e-05 3.76754e-07
7.23714e-05 0.000157962 -2.14552e-08
3.76754e-07 -2.14552e-08 6.62349e-05
0.00102641 9.26105e-05 -7.13278e-07
9.26105e-05 0.000132424 -1.89363e-07
-7.13278e-07 -1.89363e-07 4.02469e-05
0.00113736 0.00010014 5.1498e-06
0.00010014 0.000181756 1.77753e-06
5.1498e-06 1.77753e-06 8.3698e-05
0.000691414 7.7502e-05 -9.35089e-07
7.7502e-05 -3.10027e-05 1.44444e-06
-9.35089e-07 1.44444e-06 -0.000123398
0.000657962 5.07849e-05 -4.51849e-08
5.07849e-05 -5.18871e-05 -4.86089e-08
-4.51849e-08 -4.86089e-08 -0.000139838
0.000655481 7.60283e-05 5.06939e-07
7.60283e-05 -5.18177e-05 -2.82302e-08
5.06939e-07 -2.82302e-08 -0.000148397
0.000807889 7.0264e-05 3.34779e-07
7.0264e-05 1.13384e-05 6.08633e-08
3.34779e-07 6.08633e-08 -8.07676e-05
0.000345562 7.7753e-05 1.23459e-06
7.7753e-05 -0.00025734 6.94042e-07
1.23459e-06 6.94042e-07 -0.000352259
0.00283785 0.000193877 1.10414e-06
0.000193877 0.00092577 -3.57157e-07
1.10414e-06 -3.57157e-07 0.000820124
0.00180044 0.000176613 2.76926e-06
0.000176613 0.000239262 -9.72721e-07
2.76926e-06 -9.72721e-07 0.000116661
0.0013264 0.000141119 1.23588e-06
0.000141119 0.000177478 -6.54565e-07
1.23588e-06 -6.54565e-07 7.1019e-05
0.00104204 5.28679e-05 -2.99282e-06
5.28679e-05 0.00015152 1.09553e-06
-2.99282e-06 1.09553e-06 6.86334e-05
0.00216539 -7.45965e-05 -2.04447e-05
-7.45965e-05 -0.00018631 -1.31762e-05
-2.04447e-05 -1.31762e-05 -0.000396841
0.0044004 -0.000152685 3.66702e-06
-0.000152685 0.000865957 1.91571e-07
3.66702e-06 1.91571e-07 3.7713e-06
0.00408157 -0.000408334 -3.67661e-05
-0.000408334 0.00186799 -2.5311e-05
-3.67661e-05 -2.5311e-05 0.00191401
0.00646539 -0.000139006 0.000164345
-0.000139006 0.00183194 5.21512e-05
0.000164345 5.21512e-05 0.000683825
0.00328362 0.000256426 4.66226e-05
0.000256426 0.000744618 4.9039e-05
4.66226e-05 4.9039e-05 0.000530554
0.00184243 0.000105993 -3.92986e-05
0.000105993 7.17281e-06 -1.29803e-05
-3.92986e-05 -1.29803e-05 -0.00022311
0.00164999 0.000171288 2.65865e-05
0.000171288 -3.26074e-06 1.57733e-05
2.65865e-05 1.57733e-05 -2.50433e-05
0.00192994 0.000249843 -1.71444e-06
0.000249843 0.000270004 5.17829e-06
-1.71444e-06 5.17829e-06 0.000144055
0.000229667 0.000111967 -2.5679e-06
0.000111967 -0.000293479 3.08575e-06
-2.5679e-06 3.08575e-06 -0.000431471
0.00185833 0.000258765 -6.6192e-05
0.000258765 0.000231386 -4.87484e-05
-6.6192e-05 -4.87484e-05 0.000172206
0.00316995 -6.22793e-05 -0.000135473
-6.22793e-05 0.000846058 -2.51906e-06
-0.000135473 -2.51906e-06 0.000475809
0.00673632 4.2723e-05 1.06016e-05
4.2723e-05 0.00226065 -3.486e-06
1.06016e-05 -3.486e-06 0.00164899
-0.00452711 -4.74897e-05 -2.08163e-06
-4.74897e-05 -0.002524 5.20514e-06
-2.08163e-06 5.20514e-06 -0.0023358
0.000975421 -0.000145206 1.02186e-08
-0.000145206 -9.71971e-05 1.12159e-05
1.02186e-08 1.12159e-05 -0.000111366
0.00416322 5.52732e-05 6.08793e-05
5.52732e-05 0.000673892 1.77832e-06
6.08793e-05 1.77832e-06 0.000328449
0.000926635 -8.81844e-05 4.62388e-05
-8.81844e-05 -0.000474084 8.9169e-06
4.62388e-05 8.9169e-06 -0.00110616
0.00155879 -0.000109387 3.75252e-06
-0.000109387 0.000149675 9.83652e-07
3.75252e-06 9.83652e-07 0.00010284
0.00148494 9.52287e-05 -1.87185e-06
9.52287e-05 2.20262e-05 -3.41402e-06
-1.87185e-06 -3.41402e-06 -0.000222173
0.00329973 -4.41255e-05 2.0905e-06
-4.41255e-05 0.000852058 -1.00711e-05
2.0905e-06 -1.00711e-05 0.000796649
0.00131262 6.29701e-05 1.70278e-05
6.29701e-05 -9.50306e-05 -2.79488e-06
1.70278e-05 -2.79488e-06 -0.000195871
0.00157031 -0.000176812 5.03592e-06
-0.000176812 -8.26073e-05 -6.48868e-07
5.03592e-06 -6.48868e-07 -0.000137553
0.00204534 -0.000122695 -2.00959e-07
-0.000122695 5.83936e-05 -1.92856e-06
-2.00959e-07 -1.92856e-06 1.28709e-05
0.00238618 -3.24711e-05 9.05142e-07
-3.24711e-05 0.000302454 -2.16252e-06
9.05142e-07 -2.16252e-06 0.000241916
0.00171023 -0.00013794 9.68197e-06
-0.00013794 3.32071e-05 7.21675e-07
9.68197e-06 7.21675e-07 -3.79975e-05
0.00187589 -9.81665e-05 2.73212e-06
-9.81665e-05 7.30029e-05 -2.97051e-07
2.73212e-06 -2.97051e-07 1.06963e-05
0.00193368 -5.76932e-05 3.68017e-08
-5.76932e-05 0.000136573 9.72374e-07
3.68017e-08 9.72374e-07 5.37662e-05
0.00169746 -0.000118394 4.95201e-06
-0.000118394 6.50149e-05 2.92858e-06
4.95201e-06 2.92858e-06 -1.37573e-05
0.0017963 -9.92424e-05 8.6052e-07
-9.92424e-05 0.000106312 7.03643e-07
8.6052e-07 7.03643e-07 3.32767e-05
0.00188655 -7.98408e-05 -5.14649e-07
-7.98408e-05 0.000173318 1.46661e-06
-5.14649e-07 1.46661e-06 8.76452e-05
0.00148856 -0.000105203 3.0218e-06
-0.000105203 4.22743e-05 2.74304e-06
3.0218e-06 2.74304e-06 -3.80046e-05
0.00155147 -9.57881e-05 2.78522e-07
-9.57881e-05 7.30847e-05 -7.1253e-07
2.78522e-07 -7.1253e-07 -3.09124e-06
0.00148912 -8.95167e-05 2.21542e-06
-8.95167e-05 6.65328e-05 3.43408e-08
2.21542e-06 3.43408e-08 -2.41262e-05
0.00131138 -9.44407e-05 -3.6415e-07
-9.44407e-05 2.6946e-06 3.74269e-06
-3.6415e-07 3.74269e-06 -7.6444e-05
0.00157305 -9.82973e-05 -1.16286e-06
-9.82973e-05 0.000153235 -9.80244e-07
-1.16286e-06 -9.80244e-07 6.30273e-05
0.00171146 -0.000101344 -5.00183e-08
-0.000101344 0.000246723 -1.28252e-06
-5.00183e-08 -1.28252e-06 0.000147684
0.00141722 -0.000105298 1.6719e-06
-0.000105298 0.000114269 2.04522e-06
1.6719e-06 2.04522e-06 1.08759e-05
0.00139725 -0.000102871 2.86713e-07
-0.000102871 0.000127463 -3.81613e-07
2.86713e-07 -3.81613e-07 2.24907e-05
0.00145297 -0.000102538 -1.91989e-06
-0.000102538 0.000183053 -4.00396e-07
-1.91989e-06 -4.00396e-07 8.03303e-05
0.000755771 -7.85469e-05 -3.64947e-06
-7.85469e-05 -9.43999e-05 1.46778e-06
-3.64947e-06 1.46778e-06 -0.000190995
0.00101829 -9.45819e-05 -4.86398e-07
-9.45819e-05 1.16259e-05 4.65586e-07
-4.86398e-07 4.65586e-07 -9.51141e-05
0.00129473 -0.000107997 2.69074e-06
-0.000107997 0.000123693 -4.02434e-07
2.69074e-06 -4.02434e-07 8.98637e-06
0.000824206 -5.08244e-05 -3.16114e-06
-5.08244e-05 8.3675e-06 1.74063e-06
-3.16114e-06 1.74063e-06 -6.49783e-05
0.00104752 -8.82709e-05 1.14248e-07
-8.82709e-05 9.22139e-05 2.5062e-08
1.14248e-07 2.5062e-08 -7.37756e-07
0.0010021 -9.54409e-05 1.18047e-06
-9.54409e-05 5.30538e-05 -6.031e-07
1.18047e-06 -6.031e-07 -5.18429e-05
0.000635781 5.0917e-05 -3.03619e-06
5.0917e-05 -5.36462e-05 4.65205e-06
-3.03619e-06 4.65205e-06 -9.02282e-05
0.000859476 -2.93543e-05 1.15618e-07
-2.93543e-05 3.49118e-05 5.02799e-08
1.15618e-07 5.02799e-08 -3.51455e-05
0.00110867 -8.66394e-05 2.16223e-06
-8.66394e-05 0.000139737 -1.15628e-06
2.16223e-06 -1.15628e-06 5.18751e-05
0.00280248 7.84716e-05 -3.74818e-05
7.84716e-05 0.00108768 3.10291e-06
-3.74818e-05 3.10291e-06 0.00109261
0.000663082 4.98828e-05 7.54216e-07
4.98828e-05 -4.59459e-05 -2.67913e-09
7.54216e-07 -2.67913e-09 -7.57442e-05
0.000854332 -1.95773e-05 2.88913e-06
-1.95773e-05 3.22567e-05 -2.04811e-06
2.88913e-06 -2.04811e-06 -3.37802e-05
0.00262637 6.97516e-05 5.03696e-07
6.97516e-05 0.000991013 1.05881e-07
5.03696e-07 1.05881e-07 0.000998626
0.000709157 5.48436e-05 1.25977e-06
5.48436e-05 -2.35536e-05 -4.6071e-06
1.25977e-06 -4.6071e-06 -4.83883e-05
0.00248152 6.20794e-05 3.32928e-05
6.20794e-05 0.000910014 -3.26925e-06
3.32928e-05 -3.26925e-06 0.000920118
0.00108525 9.32453e-05 -4.48347e-07
9.32453e-05 0.000147689 -6.21246e-07
-4.48347e-07 -6.21246e-07 5.31355e-05
0.00106594 8.70091e-05 2.2697e-07
8.70091e-05 0.000143986 1.33774e-07
2.2697e-07 1.33774e-07 5.53446e-05
0.000949597 4.00394e-05 -1.27058e-06
4.00394e-05 8.00745e-05 -2.59827e-07
-1.27058e-06 -2.59827e-07 -3.38844e-07
0.000897966 7.46026e-05 3.41726e-07
7.46026e-05 6.21397e-05 -8.63488e-08
3.41726e-07 -8.63488e-08 -2.11173e-05
0.000831884 -1.38968e-06 -3.99887e-07
-1.38968e-06 2.10298e-05 -6.86252e-08
-3.99887e-07 -6.86252e-08 -5.47719e-05
0.000774521 -7.86987e-06 -2.29679e-06
-7.86987e-06 -5.12567e-06 -1.76354e-06
-2.29679e-06 -1.76354e-06 -6.17711e-05
0.000841974 -3.58663e-05 2.93908e-07
-3.58663e-05 2.22274e-05 1.25203e-06
2.93908e-07 1.25203e-06 -4.6948e-05
0.000790435 -3.48275e-05 9.1504e-08
-3.48275e-05 -5.01275e-07 -2.09274e-07
9.1504e-08 -2.09274e-07 -4.86443e-05
0.000738962 -4.72444e-05 -2.21674e-06
-4.72444e-05 -1.68293e-05 -3.93987e-06
-2.21674e-06 -3.93987e-06 -3.45893e-05
0.00081101 -3.73598e-05 1.19676e-06
-3.73598e-05 3.81906e-06 2.24743e-06
1.19676e-06 2.24743e-06 -3.81115e-05
0.000734622 -3.76479e-05 4.67722e-08
-3.76479e-05 -2.89243e-05 -2.43035e-08
4.67722e-08 -2.43035e-08 -4.20512e-05
0.0023287 -5.49358e-05 -2.8944e-05
-5.49358e-05 0.000823397 -3.27954e-06
-2.8944e-05 -3.27954e-06 0.000835945
0.00229468 -4.92444e-05 -6.25217e-07
-4.92444e-05 0.000796772 8.32911e-08
-6.25217e-07 8.32911e-08 0.000811324
0.000730075 -3.20815e-05 2.41406e-06
-3.20815e-05 -3.83221e-05 3.58395e-06
2.41406e-06 3.58395e-06 -4.8997e-05
0.00228401 -4.38514e-05 2.24961e-05
-4.38514e-05 0.000783505 3.67932e-06
2.24961e-05 3.67932e-06 0.000799666
0.000922512 -6.6927e-05 -5.69879e-05
-6.6927e-05 -0.000450164 -2.28116e-06
-5.69879e-05 -2.28116e-06 -0.000678608
0.00173618 -0.000126421 1.17892e-06
-0.000126421 -0.000400542 -1.38836e-06
1.17892e-06 -1.38836e-06 -0.00101156
0.00277341 -0.000288042 -4.26228e-05
-0.000288042 0.00111165 -9.05629e-06
-4.26228e-05 -9.05629e-06 0.00123855
0.0011956 0.000106436 5.58509e-06
0.000106436 0.000170982 1.68394e-06
5.58509e-06 1.68394e-06 6.84194e-05
0.00112426 7.46963e-05 4.37026e-07
7.46963e-05 0.000192657 -6.91392e-07
4.37026e-07 -6.91392e-07 0.000101059
0.000951307 8.92427e-05 -5.02817e-07
8.92427e-05 9.45362e-05 -5.95017e-07
-5.02817e-07 -5.95017e-07 2.58416e-06
0.000918455 8.81392e-05 1.85881e-07
8.81392e-05 8.67245e-05 2.56638e-07
1.85881e-07 2.56638e-07 -6.90536e-06
0.00103317 9.59072e-05 -1.41747e-07
9.59072e-05 0.000131436 -6.1587e-07
-1.41747e-07 -6.1587e-07 3.27855e-05
0.000667878 8.4905e-05 -2.9923e-07
8.4905e-05 -7.56618e-05 1.73012e-06
-2.9923e-07 1.73012e-06 -0.000161938
0.00105871 9.56167e-05 5.2315e-07
9.56167e-05 0.000153912 -1.62268e-06
5.2315e-07 -1.62268e-06 5.34205e-05
0.00100198 6.91231e-05 -1.05101e-06
6.91231e-05 0.000115576 1.25865e-06
-1.05101e-06 1.25865e-06 2.11624e-05
0.000972492 0.000105042 9.55514e-08
0.000105042 6.01641e-05 -1.4492e-07
9.55514e-08 -1.4492e-07 -3.48914e-05
0.00210924 0.000165044 6.43904e-07
0.000165044 0.00056856 1.97556e-06
6.43904e-07 1.97556e-06 0.000464956
0.00159273 0.00015394 1.40006e-06
0.00015394 0.000180063 -1.24892e-06
1.40006e-06 -1.24892e-06 6.7304e-05
0.00187591 0.000141454 6.1815e-06
0.000141454 9.65529e-05 5.8643e-06
6.1815e-06 5.8643e-06 -2.40985e-05
0.0013498 0.000159017 9.05555e-07
0.000159017 1.35625e-05 3.53387e-07
9.05555e-07 3.53387e-07 -0.000108447
0.000823401 0.000118201 -1.26341e-06
0.000118201 -7.2653e-05 3.2804e-06
-1.26341e-06 3.2804e-06 -0.000174689
0.000541191 2.83906e-05 -8.5443e-06
2.83906e-05 -0.000387267 1.99607e-06
-8.5443e-06 1.99607e-06 -0.000395703
0.003607 -6.76383e-05 -9.65539e-06
-6.76383e-05 0.000334144 1.14185e-06
-9.65539e-06 1.14185e-06 6.07074e-05
0.00150182 -0.000182056 5.74065e-06
-0.000182056 -0.000478185 3.24562e-06
5.74065e-06 3.24562e-06 -0.00124478
0.0027797 0.000186967 4.09396e-05
0.000186967 0.00021242 2.33563e-05
4.09396e-05 2.33563e-05 -0.000153438
0.00125634 0.000147398 -5.93489e-06
0.000147398 -0.000135364 6.1644e-07
-5.93489e-06 6.1644e-07 -0.00016835
0.000378564 0.000178459 -1.67012e-05
0.000178459 -0.000431373 -1.15506e-05
-1.67012e-05 -1.15506e-05 -0.000565844
0.0027696 -7.06022e-05 1.13142e-05
-7.06022e-05 0.000632166 -5.54297e-06
1.13142e-05 -5.54297e-06 0.000541803
0.00117098 -1.09431e-05 -2.22465e-05
-1.09431e-05 1.84926e-05 2.94954e-06
-2.22465e-05 2.94954e-06 -0.000307539
0.000685762 0.000188966 4.83174e-05
0.000188966 -0.000843228 -6.82158e-06
4.83174e-05 -6.82158e-06 -0.00141799
-1.78662e-05 -6.78539e-05 -6.48917e-06
-6.78539e-05 -0.000652034 1.31674e-05
-6.48917e-06 1.31674e-05 -0.000657159
0.00360707 0.0001621 3.9869e-05
0.0001621 0.000914119 -5.39801e-06
3.9869e-05 -5.39801e-06 0.000627809
0.00174077 -2.42995e-05 5.28177e-06
-2.42995e-05 4.46354e-05 -1.91509e-06
5.28177e-06 -1.91509e-06 2.76398e-06
0.00208663 7.87103e-05 1.74193e-06
7.87103e-05 0.000307742 -3.32531e-06
1.74193e-06 -3.32531e-06 0.000216026
0.00105363 3.63302e-05 1.70799e-06
3.63302e-05 -0.000362199 -3.47006e-06
1.70799e-06 -3.47006e-06 -0.000444256
0.00240367 5.2007e-05 -2.30143e-06
5.2007e-05 0.00037121 -3.65925e-06
-2.30143e-06 -3.65925e-06 0.000280459
0.00168558 -0.000113157 3.7899e-06
-0.000113157 -0.000111621 -1.7885e-06
3.7899e-06 -1.7885e-06 -0.000156979
0.0019713 -3.16838e-05 3.89878e-06
-3.16838e-05 8.73211e-05 2.50497e-07
3.89878e-06 2.50497e-07 2.26976e-05
0.00211429 -5.6326e-06 9.85982e-08
-5.6326e-06 0.000258462 -2.77752e-06
9.85982e-08 -2.77752e-06 0.000170987
0.00207626 -0.000101095 2.64501e-06
-0.000101095 0.000184502 7.55475e-07
2.64501e-06 7.55475e-07 0.000119181
0.00190801 -6.01645e-05 -1.58227e-07
-6.01645e-05 0.00012238 -6.68555e-07
-1.58227e-07 -6.68555e-07 3.8625e-05
0.0018098 -4.21931e-05 -7.72998e-07
-4.21931e-05 0.000117087 -2.9504e-07
-7.72998e-07 -2.9504e-07 1.67988e-05
0.00176341 -9.90736e-05 8.6249e-07
-9.90736e-05 0.000100183 5.27493e-08
8.6249e-07 5.27493e-08 2.48375e-05
0.00178833 -8.10694e-05 -8.26846e-08
-8.10694e-05 0.000134831 -1.25104e-06
-8.26846e-08 -1.25104e-06 5.08265e-05
0.00150085 -6.9798e-05 4.46464e-07
-6.9798e-05 2.40662e-05 1.83472e-06
4.46464e-07 1.83472e-06 -7.25761e-05
0.00137527 -9.46292e-05 -3.21073e-07
-9.46292e-05 -6.94758e-06 -1.36386e-06
-3.21073e-07 -1.36386e-06 -8.29704e-05
0.00149198 -8.92181e-05 4.58555e-07
-8.92181e-05 6.80197e-05 -8.42233e-07
4.58555e-07 -8.42233e-07 -2.26713e-05
0.00147078 -8.93224e-05 2.48772e-07
-8.93224e-05 8.11697e-05 2.26652e-08
2.48772e-07 2.26652e-08 -1.86143e-05
0.00139205 -9.31682e-05 -2.28617e-06
-9.31682e-05 6.01199e-05 1.78891e-06
-2.28617e-06 1.78891e-06 -2.85363e-05
0.00153528 -9.56631e-05 -2.57089e-07
-9.56631e-05 0.000155335 -6.60612e-07
-2.57089e-07 -6.60612e-07 5.70905e-05
0.0014308 -9.18132e-05 -1.72509e-06
-9.18132e-05 0.000129968 -3.05972e-07
-1.72509e-06 -3.05972e-07 2.9051e-05
0.00139631 -0.000101925 1.98311e-06
-0.000101925 0.000127105 6.76146e-07
1.98311e-06 6.76146e-07 2.17986e-05
0.00126272 -9.606e-05 3.90437e-07
-9.606e-05 8.58183e-05 -2.26569e-07
3.90437e-07 -2.26569e-07 -1.73347e-05
0.00127009 -9.0999e-05 -3.46238e-06
-9.0999e-05 0.000126119 6.87697e-07
-3.46238e-06 6.87697e-07 3.00034e-05
0.000899016 -6.31131e-05 -3.90073e-06
-6.31131e-05 2.28516e-05 1.78483e-06
-3.90073e-06 1.78483e-06 -5.44146e-05
0.00087876 -8.27009e-05 -7.88109e-07
-8.27009e-05 -2.90555e-05 5.60773e-07
-7.88109e-07 5.60773e-07 -0.000124806
0.00109607 -9.63926e-05 1.88766e-06
-9.63926e-05 5.47233e-05 -1.82195e-07
1.88766e-06 -1.82195e-07 -5.11718e-05
0.000644426 -5.45743e-06 -5.72179e-06
-5.45743e-06 -4.74565e-05 4.66865e-06
-5.72179e-06 4.66865e-06 -8.79648e-05
0.000879351 -5.27834e-05 1.50058e-07
-5.27834e-05 3.68943e-05 -5.32158e-09
1.50058e-07 -5.32158e-09 -3.699e-05
0.00109835 -9.00919e-05 2.57321e-06
-9.00919e-05 0.000116822 -1.17907e-06
2.57321e-06 -1.17907e-06 2.38545e-05
0.00292475 8.59126e-05 -4.1408e-05
8.59126e-05 0.00116063 3.07026e-06
-4.1408e-05 3.07026e-06 0.00116202
0.000677369 1.98966e-05 -1.8075e-07
1.98966e-05 -3.77687e-05 -1.35639e-07
-1.8075e-07 -1.35639e-07 -7.2156e-05
0.000917317 -3.54275e-05 3.39157e-06
-3.54275e-05 6.42592e-05 -2.06246e-06
3.39157e-06 -2.06246e-06 -5.88416e-06
0.00278354 7.69158e-05 8.18273e-07
7.69158e-05 0.00107883 1.37119e-07
8.18273e-07 1.37119e-07 0.00108349
0.00070353 3.71611e-05 4.39369e-06
3.71611e-05 -2.55443e-05 -4.43469e-06
4.39369e-06 -4.43469e-06 -5.48664e-05
0.00265223 6.90258e-05 3.73877e-05
6.90258e-05 0.00100451 -3.37551e-06
3.73877e-05 -3.37551e-06 0.00101189
0.00088567 9.05175e-05 -3.8703e-07
9.05175e-05 2.05491e-05 -5.96969e-07
-3.8703e-07 -5.96969e-07 -7.93663e-05
0.001012 8.96137e-05 -3.81204e-08
8.96137e-05 0.000109753 -4.75095e-07
-3.81204e-08 -4.75095e-07 1.57241e-05
0.00107985 7.89212e-05 -9.85409e-07
7.89212e-05 0.00013954 -1.56368e-07
-9.85409e-07 -1.56368e-07 5.46054e-05
0.00110769 8.92602e-05 -5.83257e-09
8.92602e-05 0.00016561 -5.9343e-07
-5.83257e-09 -5.9343e-07 7.72488e-05
0.000938024 4.26038e-05 -6.60816e-07
4.26038e-05 7.42543e-05 -2.78744e-07
-6.60816e-07 -2.78744e-07 -5.57922e-06
0.000811632 7.63524e-06 -2.30611e-06
7.63524e-06 1.58931e-05 -1.42787e-06
-2.30611e-06 -1.42787e-06 -4.80524e-05
0.000833535 1.1629e-05 2.84521e-07
1.1629e-05 2.19417e-05 9.52782e-08
2.84521e-07 9.52782e-08 -5.43939e-05
0.000795771 -2.7664e-05 -1.41592e-07
-2.7664e-05 6.43248e-06 -1.66412e-09
-1.41592e-07 -1.66412e-09 -4.97951e-05
0.000709599 -5.50559e-05 -1.68124e-06
-5.50559e-05 -2.22613e-05 -4.09323e-06
-1.68124e-06 -4.09323e-06 -4.58991e-05
0.000802742 -3.71848e-05 1.32354e-06
-3.71848e-05 6.23294e-06 2.34595e-06
1.32354e-06 2.34595e-06 -4.20217e-05
0.000715295 -4.46354e-05 3.79425e-08
-4.46354e-05 -3.01538e-05 -6.57477e-08
3.79425e-08 -6.57477e-08 -4.72729e-05
0.00242985 -6.13316e-05 -3.21188e-05
-6.13316e-05 0.000883738 -3.11878e-06
-3.21188e-05 -3.11878e-06 0.000893989
0.000722601 -3.63492e-05 2.91191e-06
-3.63492e-05 -3.54811e-05 3.60587e-06
2.91191e-06 3.60587e-06 -4.83495e-05
0.00232205 -5.49632e-05 -3.90994e-07
-5.49632e-05 0.000818809 7.51893e-08
-3.90994e-07 7.51893e-08 0.000831565
0.00230438 -4.92387e-05 2.54948e-05
-4.92387e-05 0.00080102 3.53264e-06
2.54948e-05 3.53264e-06 0.000815664
0.000560574 -3.98337e-05 -1.47276e-06
-3.98337e-05 -0.000404992 5.44418e-08
-1.47276e-06 5.44418e-08 -0.000437536
0.00306407 -5.39186e-05 1.42517e-06
-5.39186e-05 0.000342797 1.04417e-05
1.42517e-06 1.04417e-05 3.65535e-05
0.00561266 9.75383e-05 -7.38721e-05
9.75383e-05 0.00166243 -9.16302e-06
-7.38721e-05 -9.16302e-06 0.000967477
0.000838739 8.88328e-05 2.96161e-06
8.88328e-05 -3.32448e-05 1.33147e-06
2.96161e-06 1.33147e-06 -0.000126023
0.001394 0.000118561 3.84143e-06
0.000118561 0.000180505 -1.26003e-06
3.84143e-06 -1.26003e-06 7.18672e-05
0.000828749 9.20429e-05 1.46962e-07
9.20429e-05 -8.49371e-06 -6.79271e-07
1.46962e-07 -6.79271e-07 -0.000109674
0.00111792 9.74926e-05 -7.27028e-07
9.74926e-05 0.000189232 -1.92803e-06
-7.27028e-07 -1.92803e-06 9.46263e-05
0.000961059 9.30877e-05 -7.93443e-07
9.30877e-05 9.71931e-05 -1.06459e-06
-7.93443e-07 -1.06459e-06 -2.14254e-06
0.00100546 0.00010092 2.05294e-06
0.00010092 8.75067e-05 1.20871e-06
2.05294e-06 1.20871e-06 -8.39088e-07
0.00172914 0.000146951 -2.18338e-06
0.000146951 0.000258079 -3.07996e-06
-2.18338e-06 -3.07996e-06 0.000151595
0.00147553 0.000126797 1.05284e-06
0.000126797 0.000316687 -4.11459e-07
1.05284e-06 -4.11459e-07 0.000221665
0.000943429 0.000118416 -1.39314e-06
0.000118416 -4.90406e-06 4.96335e-06
-1.39314e-06 4.96335e-06 -0.000105823
0.00156629 0.000152681 -1.18925e-06
0.000152681 0.000169184 -1.61726e-08
-1.18925e-06 -1.61726e-08 5.70419e-05
0.00147877 0.000124607 -1.06753e-06
0.000124607 -4.15067e-05 -6.03293e-07
-1.06753e-06 -6.03293e-07 -0.000165227
0.00161661 3.62472e-05 7.63511e-06
3.62472e-05 -8.46451e-05 4.20266e-06
7.63511e-06 4.20266e-06 -0.000174556
0.00205203 0.000144053 3.73339e-06
0.000144053 0.000190875 1.86354e-06
3.73339e-06 1.86354e-06 7.07475e-05
0.00124811 0.000152644 -3.78203e-06
0.000152644 -3.82502e-05 1.60168e-06
-3.78203e-06 1.60168e-06 -0.000159306
0.00116668 2.2626e-05 6.55388e-07
2.2626e-05 -7.97516e-05 -5.18932e-07
6.55388e-07 -5.18932e-07 -9.22814e-05
0.0045973 -0.000145556 4.76699e-05
-0.000145556 0.000702233 2.22766e-05
4.76699e-05 2.22766e-05 0.000395183
0.00177845 0.000144046 -2.82076e-07
0.000144046 0.00017663 -7.12904e-06
-2.82076e-07 -7.12904e-06 0.000134829
0.0020295 -8.46245e-06 4.35628e-06
-8.46245e-06 0.000246173 -2.09222e-06
4.35628e-06 -2.09222e-06 0.000176203
0.00180042 -4.77295e-05 -6.07689e-07
-4.77295e-05 0.0001852 5.5297e-07
-6.07689e-07 5.5297e-07 7.77415e-05
0.000699203 6.24323e-05 5.64549e-05
6.24323e-05 -0.000411802 1.57202e-06
5.64549e-05 1.57202e-06 -0.000804834
0.000290009 -1.50945e-05 -5.67136e-06
-1.50945e-05 -0.000694597 3.01111e-06
-5.67136e-06 3.01111e-06 -0.000728323
0.00255986 8.23736e-05 -2.61078e-05
8.23736e-05 0.000565892 3.99217e-06
-2.61078e-05 3.99217e-06 0.000486044
0.00118051 3.34425e-05 -3.06483e-07
3.34425e-05 -0.00030605 4.52166e-06
-3.06483e-07 4.52166e-06 -0.000381615
0.00214504 4.42055e-05 1.71964e-06
4.42055e-05 0.00021668 1.05377e-06
1.71964e-06 1.05377e-06 0.00012846
0.00191306 1.44924e-05 -1.16885e-06
1.44924e-05 0.000128441 -8.31126e-08
-1.16885e-06 -8.31126e-08 4.39111e-05
0.00143496 1.98882e-05 1.59592e-06
1.98882e-05 -0.000135253 -1.38925e-06
1.59592e-06 -1.38925e-06 -0.000215688
0.00150017 -3.09865e-05 6.52285e-06
-3.09865e-05 -0.000158588 1.94928e-06
6.52285e-06 1.94928e-06 -0.000226949
0.00176313 -6.21195e-06 -1.9805e-06
-6.21195e-06 7.58802e-05 1.28005e-07
-1.9805e-06 1.28005e-07 -1.06676e-05
0.00166771 -3.37826e-06 5.59527e-07
-3.37826e-06 5.23742e-05 -2.1333e-06
5.59527e-07 -2.1333e-06 -4.22547e-05
0.00200018 -6.31282e-05 -2.64855e-06
-6.31282e-05 0.000169963 -4.25037e-07
-2.64855e-06 -4.25037e-07 8.55637e-05
0.00181997 -4.26465e-05 -3.16479e-07
-4.26465e-05 0.000125717 -2.91966e-07
-3.16479e-07 -2.91966e-07 2.7372e-05
0.00153343 -3.25984e-05 -5.26257e-07
-3.25984e-05 1.06085e-05 -1.00775e-07
-5.26257e-07 -1.00775e-07 -9.11987e-05
0.00167725 -8.19737e-05 -2.0907e-06
-8.19737e-05 9.00931e-05 -3.32529e-06
-2.0907e-06 -3.32529e-06 7.71122e-06
0.00160541 -7.07748e-05 4.85747e-07
-7.07748e-05 7.43909e-05 4.73389e-07
4.85747e-07 4.73389e-07 -2.23935e-05
0.00153979 -7.24435e-05 -3.36196e-07
-7.24435e-05 6.54587e-05 6.71056e-07
-3.36196e-07 6.71056e-07 -3.628e-05
0.00150212 -8.90672e-05 -1.06432e-06
-8.90672e-05 7.31162e-05 -1.69994e-06
-1.06432e-06 -1.69994e-06 -1.75997e-05
0.00147744 -8.8571e-05 1.75098e-07
-8.8571e-05 8.3938e-05 -4.14022e-07
1.75098e-07 -4.14022e-07 -1.57581e-05
0.00141708 -8.69186e-05 -1.44769e-06
-8.69186e-05 8.36371e-05 3.23766e-07
-1.44769e-06 3.23766e-07 -1.89754e-05
0.00135885 -9.00319e-05 -1.52578e-08
-9.00319e-05 6.38409e-05 5.21393e-07
-1.52578e-08 5.21393e-07 -3.36197e-05
0.0012813 -8.74237e-05 -1.7917e-07
-8.74237e-05 5.41024e-05 -2.62678e-07
-1.7917e-07 -2.62678e-07 -4.65381e-05
0.00123114 -8.2964e-05 -3.56278e-06
-8.2964e-05 7.00208e-05 6.18558e-07
-3.56278e-06 6.18558e-07 -2.57941e-05
0.00106791 -8.94733e-05 2.55599e-06
-8.94733e-05 -1.36375e-05 -8.57631e-08
2.55599e-06 -8.57631e-08 -0.000117237
0.00106536 -8.36723e-05 1.99458e-07
-8.36723e-05 2.15343e-05 1.9811e-08
1.99458e-07 1.9811e-08 -7.45348e-05
0.00096186 -6.6473e-05 -4.86198e-06
-6.6473e-05 2.16598e-05 1.84558e-06
-4.86198e-06 1.84558e-06 -5.69758e-05
0.000582732 -2.70759e-05 -6.95914e-06
-2.70759e-05 -8.14704e-05 4.93481e-06
-6.95914e-06 4.93481e-06 -0.000127048
0.000926863 -6.54872e-05 1.66218e-07
-6.54872e-05 3.74396e-05 2.96721e-08
1.66218e-07 2.96721e-08 -4.01333e-05
0.00101001 -8.72455e-05 1.82966e-06
-8.72455e-05 4.0486e-05 -2.91597e-07
1.82966e-06 -2.91597e-07 -5.44501e-05
0.0030435 9.5061e-05 -4.31624e-05
9.5061e-05 0.00123907 2.98271e-06
-4.31624e-05 2.98271e-06 0.00123553
0.000703792 2.12727e-06 -3.23157e-07
2.12727e-06 -1.95567e-05 -6.46876e-08
-3.23157e-07 -6.46876e-08 -6.11161e-05
0.000955292 -5.2032e-05 3.68168e-06
-5.2032e-05 7.68648e-05 -1.84431e-06
3.68168e-06 -1.84431e-06 1.89891e-06
0.00292839 8.5365e-05 8.33336e-07
8.5365e-05 0.00116547 1.56734e-07
8.33336e-07 1.56734e-07 0.00116612
0.000741956 1.87851e-05 5.79596e-06
1.87851e-05 -5.88664e-06 -4.35292e-06
5.79596e-06 -4.35292e-06 -4.04266e-05
0.00280389 7.63599e-05 4.11246e-05
7.63599e-05 0.00109055 -3.3459e-06
4.11246e-05 -3.3459e-06 0.00109475
0.000643878 8.64799e-05 -1.05276e-07
8.64799e-05 -0.000151797 -5.19006e-07
-1.05276e-07 -5.19006e-07 -0.000259386
0.000734369 8.42807e-05 1.26803e-08
8.42807e-05 -5.95298e-05 -1.18024e-07
1.26803e-08 -1.18024e-07 -0.000160013
0.00112387 8.88609e-05 -1.4908e-06
8.88609e-05 0.00014009 -2.44866e-07
-1.4908e-06 -2.44866e-07 4.97805e-05
0.000941253 8.6074e-05 -1.55595e-07
8.6074e-05 7.30092e-05 -5.73786e-07
-1.55595e-07 -5.73786e-07 -2.04856e-05
0.000994278 7.44801e-05 -1.75955e-07
7.44801e-05 9.59275e-05 -1.67266e-07
-1.75955e-07 -1.67266e-07 1.14937e-05
0.000889341 2.45799e-05 -2.6668e-06
2.45799e-05 5.7337e-05 -1.20282e-06
-2.6668e-06 -1.20282e-06 -1.26452e-05
0.000929024 4.46483e-05 3.63467e-07
4.46483e-05 6.98891e-05 -4.90975e-07
3.63467e-07 -4.90975e-07 -9.43182e-06
0.000815162 8.91739e-07 4.74415e-08
8.91739e-07 2.08452e-05 9.1151e-08
4.74415e-08 9.1151e-08 -4.39117e-05
0.000690973 -5.24866e-05 -2.55593e-06
-5.24866e-05 -2.65685e-05 -4.07053e-06
-2.55593e-06 -4.07053e-06 -5.57582e-05
0.000814286 -3.78456e-05 1.45358e-06
-3.78456e-05 1.76888e-05 2.23077e-06
1.45358e-06 2.23077e-06 -3.89049e-05
0.000680949 -5.31109e-05 -2.0373e-08
-5.31109e-05 -3.85343e-05 -9.32018e-08
-2.0373e-08 -9.32018e-08 -6.14959e-05
0.00257351 -6.85129e-05 -3.57111e-05
-6.85129e-05 0.000965282 -3.0457e-06
-3.57111e-05 -3.0457e-06 0.000972888
0.000692645 -4.20899e-05 3.11565e-06
-4.20899e-05 -4.29475e-05 3.67553e-06
3.11565e-06 3.67553e-06 -5.94449e-05
0.00240548 -6.13093e-05 -3.9474e-07
-6.13093e-05 0.000870192 7.70176e-08
-3.9474e-07 7.70176e-08 0.000880716
0.00232576 -5.49183e-05 2.76263e-05
-5.49183e-05 0.00081972 3.3298e-06
2.76263e-05 3.3298e-06 0.000832662
0.00155391 -2.7358e-05 9.65732e-06
-2.7358e-05 -9.50179e-05 1.20412e-06
9.65732e-06 1.20412e-06 -0.000169499
0.00103313 -5.90054e-05 9.64174e-07
-5.90054e-05 -0.000220049 1.68275e-06
9.64174e-07 1.68275e-06 -0.000262504
0.00215759 -0.000102941 6.50224e-05
-0.000102941 -2.25678e-05 1.66045e-05
6.50224e-05 1.66045e-05 -0.00026386
0.00200229 0.000137034 1.97448e-06
0.000137034 0.000416403 -2.65928e-06
1.97448e-06 -2.65928e-06 0.000312073
0.000840402 9.15198e-05 -1.35488e-06
9.15198e-05 -1.90137e-05 5.46755e-07
-1.35488e-06 5.46755e-07 -0.000106631
0.000740503 9.7404e-05 -2.6664e-06
9.7404e-05 -0.000248142 1.20654e-06
-2.6664e-06 1.20654e-06 -0.000360459
0.00140828 0.000119317 4.17922e-07
0.000119317 0.000186804 1.55863e-07
4.17922e-07 1.55863e-07 7.72907e-05
0.000468311 7.77005e-05 -2.7145e-06
7.77005e-05 -0.000183839 5.57246e-07
-2.7145e-06 5.57246e-07 -0.000283736
0.00194177 0.000125374 -2.22209e-06
0.000125374 0.000218681 -4.01774e-06
-2.22209e-06 -4.01774e-06 0.000100534
0.00132669 0.000116067 -1.17975e-06
0.000116067 0.000242661 -8.03171e-07
-1.17975e-06 -8.03171e-07 0.000152361
0.00161938 0.00014114 -1.39055e-07
0.00014114 0.00019843 5.14318e-07
-1.39055e-07 5.14318e-07 9.16305e-05
0.00173749 5.85228e-05 3.81436e-06
5.85228e-05 4.71036e-05 2.07047e-06
3.81436e-06 2.07047e-06 -6.34701e-05
0.0015813 0.000153456 1.18845e-06
0.000153456 0.000177831 2.7512e-06
1.18845e-06 2.7512e-06 6.63404e-05
0.00174209 0.000133242 -1.10738e-06
0.000133242 8.07387e-05 -1.09688e-06
-1.10738e-06 -1.09688e-06 -4.48893e-05
0.00169692 4.37407e-05 -2.5342e-07
4.37407e-05 -3.23182e-05 -3.09948e-07
-2.5342e-07 -3.09948e-07 -0.000124503
0.00180703 0.000131314 -9.72238e-07
0.000131314 8.53747e-05 -1.08535e-06
-9.72238e-07 -1.08535e-06 -3.44958e-05
0.00121663 2.31255e-05 -4.32943e-06
2.31255e-05 -5.73273e-05 -6.82192e-06
-4.32943e-06 -6.82192e-06 -7.11876e-05
0.00160128 -2.13366e-06 4.16965e-06
-2.13366e-06 -1.35002e-05 -4.34728e-07
4.16965e-06 -4.34728e-07 -9.57269e-05
0.00180266 -3.55069e-06 -8.00582e-07
-3.55069e-06 0.000133237 -1.35395e-07
-8.00582e-07 -1.35395e-07 6.1989e-05
0.000564249 -1.42213e-05 -6.91639e-06
-1.42213e-05 -0.000398563 3.32839e-06
-6.91639e-06 3.32839e-06 -0.000521788
0.00129463 3.16425e-05 -3.96621e-07
3.16425e-05 -0.000262284 2.99763e-06
-3.96621e-07 2.99763e-06 -0.000331366
0.00199977 3.7468e-05 9.0741e-06
3.7468e-05 0.000121882 3.30348e-06
9.0741e-06 3.30348e-06 3.5967e-05
0.00176181 1.46394e-05 -3.19868e-06
1.46394e-05 4.89312e-05 -1.00818e-07
-3.19868e-06 -1.00818e-07 -3.49133e-05
0.00168998 1.85792e-05 5.03572e-07
1.85792e-05 1.56146e-06 8.08482e-07
5.03572e-07 8.08482e-07 -7.86171e-05
0.00184994 1.21799e-05 1.35293e-06
1.21799e-05 0.000118347 -4.30928e-07
1.35293e-06 -4.30928e-07 2.74598e-05
0.00144438 -6.5201e-06 -3.19357e-06
-6.5201e-06 -8.92504e-05 1.30919e-06
-3.19357e-06 1.30919e-06 -0.000175122
0.0017348 -2.45467e-06 -1.28605e-08
-2.45467e-06 8.92276e-05 4.60203e-08
-1.28605e-08 4.60203e-08 -6.03902e-06
0.00161059 2.16851e-06 -2.65405e-07
2.16851e-06 4.09831e-05 -1.07322e-06
-2.65405e-07 -1.07322e-06 -5.91832e-05
0.00185852 -4.3582e-05 -1.1116e-06
-4.3582e-05 0.000148607 -2.15217e-07
-1.1116e-06 -2.15217e-07 5.21999e-05
0.00163897 -3.37036e-05 -6.12391e-08
-3.37036e-05 6.28105e-05 8.58077e-07
-6.12391e-08 8.58077e-07 -3.90045e-05
0.00161988 -3.50252e-05 -1.18808e-06
-3.50252e-05 7.55277e-05 -7.23741e-07
-1.18808e-06 -7.23741e-07 -2.67533e-05
0.0017101 -7.16443e-05 7.48272e-07
-7.16443e-05 0.000124816 -8.05774e-07
7.48272e-07 -8.05774e-07 2.78938e-05
0.0015768 -7.20382e-05 2.66105e-07
-7.20382e-05 8.30118e-05 5.1497e-07
2.66105e-07 5.1497e-07 -1.8785e-05
0.00150283 -7.39466e-05 -1.72258e-06
-7.39466e-05 7.94433e-05 4.02307e-07
-1.72258e-06 4.02307e-07 -2.39902e-05
0.00148669 -8.79397e-05 2.42824e-07
-8.79397e-05 8.80123e-05 -8.5933e-07
2.42824e-07 -8.5933e-07 -1.15997e-05
0.00141976 -8.63354e-05 9.09919e-08
-8.63354e-05 8.44822e-05 -1.68706e-07
9.09919e-08 -1.68706e-07 -1.80398e-05
0.00129937 -7.95488e-05 -3.436e-06
-7.95488e-05 6.51228e-05 8.86738e-07
-3.436e-06 8.86738e-07 -3.32115e-05
0.00113728 -8.31632e-05 1.4905e-06
-8.31632e-05 -1.90728e-05 -8.89052e-08
1.4905e-06 -8.89052e-08 -0.000119423
0.00122377 -8.21334e-05 2.66513e-08
-8.21334e-05 6.61821e-05 -1.01787e-07
2.66513e-08 -1.01787e-07 -2.94813e-05
0.00101995 -6.47522e-05 -5.8409e-06
-6.47522e-05 1.80577e-05 2.09431e-06
-5.8409e-06 2.09431e-06 -6.16965e-05
0.000860051 -7.62624e-05 3.04401e-06
-7.62624e-05 -8.33391e-05 -4.8798e-07
3.04401e-06 -4.8798e-07 -0.000179351
0.000975171 -6.73531e-05 2.12239e-07
-6.73531e-05 2.86019e-05 -1.99249e-08
2.12239e-07 -1.99249e-08 -5.02131e-05
0.00168234 -6.26119e-06 -7.78528e-06
-6.26119e-06 0.000496928 3.2801e-06
-7.78528e-06 3.2801e-06 0.000453168
0.00106299 3.72543e-05 -4.63854e-05
3.72543e-05 0.000201667 6.73737e-06
-4.63854e-05 6.73737e-06 0.000183229
0.00123513 -1.36354e-05 -1.35e-06
-1.36354e-05 0.000258817 -6.7036e-08
-1.35e-06 -6.7036e-08 0.000215578
0.000970308 -6.81154e-05 4.21151e-06
-6.81154e-05 6.01831e-05 -1.58157e-06
4.21151e-06 -1.58157e-06 -1.77396e-05
0.00310774 9.34659e-05 1.87694e-06
9.34659e-05 0.00127583 2.27589e-07
1.87694e-06 2.27589e-07 0.00127163
0.000768961 -1.34422e-05 7.0078e-06
-1.34422e-05 7.83414e-06 -4.49132e-06
7.0078e-06 -4.49132e-06 -3.24026e-05
0.00292929 8.26325e-05 4.56949e-05
8.26325e-05 0.00116823 -3.21489e-06
4.56949e-05 -3.21489e-06 0.00116854
0.00124479 0.000102276 -2.65412e-07
0.000102276 -3.40771e-05 3.51635e-07
-2.65412e-07 3.51635e-07 -0.000136242
0.000802 9.50435e-05 2.16399e-06
9.50435e-05 -0.000129188 1.29658e-06
2.16399e-06 1.29658e-06 -0.000239438
0.000819132 9.41927e-05 -1.90386e-07
9.41927e-05 -6.8083e-05 -1.0257e-07
-1.90386e-07 -1.0257e-07 -0.000177048
0.00114162 9.44224e-05 -1.72534e-06
9.44224e-05 0.000119771 -4.67938e-07
-1.72534e-06 -4.67938e-07 2.48544e-05
0.000578279 7.78566e-05 -8.84521e-08
7.78566e-05 -0.000142065 4.24464e-07
-8.84521e-08 4.24464e-07 -0.000243106
0.00102989 8.37022e-05 -2.88823e-07
8.37022e-05 9.32634e-05 -7.35394e-08
-2.88823e-07 -7.35394e-08 3.52133e-06
0.00094725 4.40596e-05 -3.11176e-06
4.40596e-05 7.89416e-05 -9.19877e-07
-3.11176e-06 -9.19877e-07 6.01957e-06
0.000916867 7.03093e-05 9.68835e-07
7.03093e-05 5.66039e-05 1.78389e-08
9.68835e-07 1.78389e-08 -2.7362e-05
0.000833226 2.05011e-05 -3.71543e-08
2.05011e-05 2.91942e-05 1.8888e-07
-3.71543e-08 1.8888e-07 -4.05812e-05
0.000719289 -3.31551e-05 -4.76288e-06
-3.31551e-05 -1.07138e-05 -3.91869e-06
-4.76288e-06 -3.91869e-06 -4.56313e-05
0.000833446 -1.47011e-05 1.5571e-06
-1.47011e-05 3.24063e-05 1.61222e-06
1.5571e-06 1.61222e-06 -3.2402e-05
0.000649262 -5.9505e-05 -7.31685e-08
-5.9505e-05 -4.72505e-05 -1.20122e-07
-7.31685e-08 -1.20122e-07 -7.71429e-05
0.00272199 -7.62274e-05 -3.92211e-05
-7.62274e-05 0.00104992 -3.06039e-06
-3.92211e-05 -3.06039e-06 0.00105434
0.000652017 -5.03259e-05 2.83354e-06
-5.03259e-05 -5.50861e-05 3.88691e-06
2.83354e-06 3.88691e-06 -7.72486e-05
0.00254597 -6.86871e-05 -4.25896e-07
-6.86871e-05 0.000950525 9.13897e-08
-4.25896e-07 9.13897e-08 0.00095841
0.00238651 -6.1175e-05 2.97717e-05
-6.1175e-05 0.000859348 3.11449e-06
2.97717e-05 3.11449e-06 0.000870172
0.00158976 1.78722e-06 5.66788e-06
1.78722e-06 -2.18935e-05 1.90698e-06
5.66788e-06 1.90698e-06 -0.000116811
0.00205912 -2.85123e-05 -1.96397e-06
-2.85123e-05 0.00019353 -9.73516e-07
-1.96397e-06 -9.73516e-07 0.000122056
0.00209982 -9.41081e-05 -1.8725e-07
-9.41081e-05 0.000260968 1.1923e-07
-1.8725e-07 1.1923e-07 0.000205158
0.00161655 0.000111296 -5.23692e-06
0.000111296 8.07775e-05 -2.60697e-06
-5.23692e-06 -2.60697e-06 -3.13398e-05
0.0016679 0.000125646 -3.84906e-07
0.000125646 0.000268572 5.4157e-07
-3.84906e-07 5.4157e-07 0.00016793
0.000774218 9.20353e-05 -7.49559e-06
9.20353e-05 -4.0205e-05 4.6965e-07
-7.49559e-06 4.6965e-07 -0.000122472
0.00143619 0.000119438 1.95602e-06
0.000119438 0.000101124 1.46292e-06
1.95602e-06 1.46292e-06 -9.33868e-06
0.0014454 0.000120885 -2.87787e-06
0.000120885 0.000204818 5.54812e-07
-2.87787e-06 5.54812e-07 9.43751e-05
0.00199439 5.99828e-05 1.91345e-08
5.99828e-05 0.000185823 1.40314e-06
1.91345e-08 1.40314e-06 7.17101e-05
0.00169293 0.000119584 -2.3034e-06
0.000119584 9.24908e-05 -1.73382e-06
-2.3034e-06 -1.73382e-06 -2.86328e-05
0.00152311 0.000136316 1.29043e-06
0.000136316 0.000145882 5.20332e-06
1.29043e-06 5.20332e-06 3.85115e-05
0.00177414 5.92689e-05 -4.73587e-07
5.92689e-05 6.53984e-05 -3.89493e-09
-4.73587e-07 -3.89493e-09 -4.55009e-05
0.00209296 0.000144648 9.08869e-07
0.000144648 0.000245367 -6.55648e-07
9.08869e-07 -6.55648e-07 0.000117909
0.00183886 4.87219e-05 -8.8521e-06
4.87219e-05 4.36881e-05 -4.62872e-06
-8.8521e-06 -4.62872e-06 -5.00364e-05
0.00194182 -2.45647e-06 3.0027e-06
-2.45647e-06 0.000160232 4.98087e-07
3.0027e-06 4.98087e-07 6.62633e-05
0.00180198 -1.2916e-06 -4.55168e-07
-1.2916e-06 8.0471e-05 -7.20959e-07
-4.55168e-07 -7.20959e-07 -1.45663e-06
0.00162694 -6.19971e-07 -5.41857e-06
-6.19971e-07 4.24226e-05 3.08261e-06
-5.41857e-06 3.08261e-06 -2.97001e-05
0.00164191 1.47545e-05 -1.47897e-06
1.47545e-05 -1.39399e-05 1.79721e-06
-1.47897e-06 1.79721e-06 -9.70532e-05
0.0018735 1.69673e-05 2.37394e-06
1.69673e-05 0.000101547 2.77209e-06
2.37394e-06 2.77209e-06 2.17713e-05
0.00182383 1.2812e-05 -5.91895e-07
1.2812e-05 0.000106486 -3.3499e-07
-5.91895e-07 -3.3499e-07 1.64922e-05
0.00173772 1.22435e-05 1.52077e-06
1.22435e-05 9.14395e-05 -2.5304e-07
1.52077e-06 -2.5304e-07 -1.16608e-05
0.001776 -1.65923e-06 3.84742e-07
-1.65923e-06 0.000112143 1.64379e-06
3.84742e-07 1.64379e-06 1.63697e-05
0.00164052 4.61019e-07 -6.86392e-07
4.61019e-07 5.90192e-05 2.81379e-08
-6.86392e-07 2.81379e-08 -4.15457e-05
0.00165086 -4.42925e-06 -1.59026e-06
-4.42925e-06 8.36458e-05 -1.5077e-07
-1.59026e-06 -1.5077e-07 -2.13442e-05
0.00173635 -3.49273e-05 9.46587e-07
-3.49273e-05 0.000110775 1.36939e-06
9.46587e-07 1.36939e-06 8.96176e-06
0.0016378 -3.53603e-05 -4.50125e-09
-3.53603e-05 8.4107e-05 8.21642e-08
-4.50125e-09 8.21642e-08 -1.8144e-05
0.00156408 -4.35184e-05 -2.14713e-06
-4.35184e-05 8.01931e-05 -7.26264e-07
-2.14713e-06 -7.26264e-07 -2.18964e-05
0.0016137 -7.1502e-05 1.39631e-06
-7.1502e-05 0.000100502 3.2083e-07
1.39631e-06 3.2083e-07 -1.34219e-06
0.0015111 -7.35186e-05 1.35739e-07
-7.35186e-05 8.31401e-05 4.7034e-07
1.35739e-07 4.7034e-07 -2.02845e-05
0.00138628 -7.00837e-05 -3.65019e-06
-7.00837e-05 6.75154e-05 7.8267e-07
-3.65019e-06 7.8267e-07 -3.21676e-05
0.00142305 -8.58164e-05 1.68078e-06
-8.58164e-05 8.56493e-05 -6.5148e-07
1.68078e-06 -6.5148e-07 -1.67882e-05
0.00130206 -7.89961e-05 8.40289e-08
-7.89961e-05 6.60246e-05 -5.19505e-08
8.40289e-08 -5.19505e-08 -3.22165e-05
0.0010776 -6.23871e-05 -6.59196e-06
-6.23871e-05 1.49588e-05 2.37194e-06
-6.59196e-06 2.37194e-06 -6.75729e-05
0.00121609 -8.13009e-05 3.18608e-06
-8.13009e-05 6.22158e-05 -7.11678e-07
3.18608e-06 -7.11678e-07 -3.33014e-05
0.00102831 -6.48957e-05 2.73821e-07
-6.48957e-05 2.18576e-05 -1.00877e-07
2.73821e-07 -1.00877e-07 -5.79991e-05
0.00178552 -8.35944e-06 -7.65166e-06
-8.35944e-06 0.000538962 3.47519e-06
-7.65166e-06 3.47519e-06 0.000494246
0.000992715 -6.85056e-05 4.94144e-06
-6.85056e-05 3.79464e-05 -1.70063e-06
4.94144e-06 -1.70063e-06 -4.11016e-05
0.00186677 -2.10774e-05 1.41117e-05
-2.10774e-05 0.000586306 -1.01044e-06
1.41117e-05 -1.01044e-06 0.000543726
0.00119605 6.89981e-06 -6.26315e-05
6.89981e-06 0.000283807 7.34812e-06
-6.26315e-05 7.34812e-06 0.000263659
0.00218742 5.50831e-05 -4.58815e-05
5.50831e-05 0.000801523 1.29595e-06
-4.58815e-05 1.29595e-06 0.000789127
0.00191733 -2.04853e-05 3.14662e-05
-2.04853e-05 0.000612237 -3.75254e-06
3.14662e-05 -3.75254e-06 0.000574135
0.00314927 8.13619e-05 5.56435e-05
8.13619e-05 0.00129953 -3.25421e-06
5.56435e-05 -3.25421e-06 0.00129591
0.00161127 0.000100451 -3.67485e-06
0.000100451 7.5858e-05 -3.34938e-06
-3.67485e-06 -3.34938e-06 -3.09152e-05
0.00152877 0.000112561 3.83036e-06
0.000112561 0.000181151 4.64643e-07
3.83036e-06 4.64643e-07 7.70042e-05
0.00126284 0.000104045 1.46528e-06
0.000104045 -1.46482e-05 9.30755e-07
1.46528e-06 9.30755e-07 -0.000109168
0.00115784 9.90128e-05 -1.89036e-06
9.90128e-05 8.94217e-05 -8.71602e-07
-1.89036e-06 -8.71602e-07 -1.07288e-05
0.0011547 0.000109542 -5.36049e-07
0.000109542 4.78933e-05 2.71189e-07
-5.36049e-07 2.71189e-07 -6.34091e-05
0.000995169 0.000102251 1.32961e-07
0.000102251 1.5876e-05 4.43666e-07
1.32961e-07 4.43666e-07 -9.44787e-05
0.00108899 9.22353e-05 -1.64668e-07
9.22353e-05 9.55119e-05 -1.41452e-07
-1.64668e-07 -1.41452e-07 4.76842e-07
0.000981787 6.3932e-05 -3.25344e-06
6.3932e-05 7.85481e-05 -1.13392e-06
-3.25344e-06 -1.13392e-06 2.50825e-06
0.000932984 7.84798e-05 8.82645e-07
7.84798e-05 4.48093e-05 5.69019e-08
8.82645e-07 5.69019e-08 -4.43484e-05
0.000859143 3.97665e-05 -2.5449e-07
3.97665e-05 3.32808e-05 4.47853e-08
-2.5449e-07 4.47853e-08 -3.9004e-05
0.000750747 -5.63458e-06 -5.94128e-06
-5.63458e-06 3.70194e-06 -3.84119e-06
-5.94128e-06 -3.84119e-06 -3.57389e-05
0.000756656 1.45513e-05 1.85108e-06
1.45513e-05 -9.38669e-06 1.18755e-06
1.85108e-06 1.18755e-06 -7.9078e-05
0.000652772 -4.3137e-05 -1.73728e-07
-4.3137e-05 -4.43199e-05 -8.52416e-08
-1.73728e-07 -8.52416e-08 -7.89086e-05
0.00286734 -8.4152e-05 -4.33629e-05
-8.4152e-05 0.00113721 -2.96481e-06
-4.33629e-05 -2.96481e-06 0.0011376
0.000594131 -5.75838e-05 1.97433e-06
-5.75838e-05 -7.68467e-05 4.25909e-06
1.97433e-06 4.25909e-06 -0.000106156
0.00270777 -7.68474e-05 -5.83574e-07
-7.68474e-05 0.00104172 1.19005e-07
-5.83574e-07 1.19005e-07 0.00104652
0.00251498 -6.84935e-05 3.25653e-05
-6.84935e-05 0.000933772 2.93402e-06
3.25653e-05 2.93402e-06 0.000942019
0.00181438 5.05729e-06 6.42718e-07
5.05729e-06 8.66758e-05 1.10021e-06
6.42718e-07 1.10021e-06 -1.54004e-05
0.00170043 5.96346e-07 6.70538e-07
5.96346e-07 3.13352e-05 2.88334e-07
6.70538e-07 2.88334e-07 -6.34628e-05
0.00233871 -2.87347e-05 -1.72267e-05
-2.87347e-05 0.000371173 -2.69912e-06
-1.72267e-05 -2.69912e-06 0.000302509
0.00175554 5.92207e-05 -6.14281e-07
5.92207e-05 8.16565e-05 7.16273e-07
-6.14281e-07 7.16273e-07 -2.95238e-05
0.00172571 0.000113969 1.64489e-07
0.000113969 0.000139728 -1.08642e-06
1.64489e-07 -1.08642e-06 2.75951e-05
0.00142128 0.000117131 -3.16519e-06
0.000117131 0.000164144 2.07592e-06
-3.16519e-06 2.07592e-06 6.72032e-05
0.0020752 0.000139536 1.66615e-06
0.000139536 0.000421331 3.00499e-07
1.66615e-06 3.00499e-07 0.000312859
0.00194204 6.03077e-05 -5.92056e-07
6.03077e-05 0.00015729 -1.32029e-07
-5.92056e-07 -1.32029e-07 4.31608e-05
0.00146138 0.000113894 9.19201e-07
0.000113894 -2.51301e-05 2.85194e-07
9.19201e-07 2.85194e-07 -0.000149177
0.00177709 6.07913e-05 -3.02946e-06
6.07913e-05 6.80052e-05 -2.08118e-06
-3.02946e-06 -2.08118e-06 -4.34167e-05
0.0017948 9.69626e-07 2.46113e-06
9.69626e-07 8.47739e-05 3.61362e-07
2.46113e-06 3.61362e-07 -1.69675e-05
0.00179776 -1.2323e-06 -4.45865e-07
-1.2323e-06 8.62793e-05 -2.99177e-07
-4.45865e-07 -2.99177e-07 -8.68035e-06
0.00198733 8.27104e-07 -4.45691e-06
8.27104e-07 0.000168657 1.71171e-07
-4.45691e-06 1.71171e-07 8.6897e-05
0.00196446 1.81725e-05 1.17432e-06
1.81725e-05 0.000194448 1.2797e-07
1.17432e-06 1.2797e-07 8.79372e-05
0.0017975 1.36527e-05 -1.91559e-06
1.36527e-05 9.51048e-05 6.67533e-07
-1.91559e-06 6.67533e-07 5.83563e-06
0.0017524 1.30004e-05 -1.27466e-07
1.30004e-05 9.8364e-05 1.89884e-07
-1.27466e-07 1.89884e-07 -4.3204e-06
0.00159875 7.99157e-06 8.24906e-07
7.99157e-06 5.44647e-05 -6.19862e-07
8.24906e-07 -6.19862e-07 -5.44219e-05
0.00170277 -1.00916e-06 -1.51648e-07
-1.00916e-06 9.36834e-05 1.68008e-06
-1.51648e-07 1.68008e-06 -7.31705e-06
0.00166188 -3.9611e-06 -5.39357e-07
-3.9611e-06 9.01114e-05 3.58715e-07
-5.39357e-07 3.58715e-07 -1.4849e-05
0.00158217 -1.02131e-05 -2.84436e-06
-1.02131e-05 7.99204e-05 4.46307e-07
-2.84436e-06 4.46307e-07 -2.41539e-05
0.00165638 -3.51251e-05 1.56989e-06
-3.51251e-05 9.30475e-05 8.78562e-07
1.56989e-06 8.78562e-07 -9.16687e-06
0.00156866 -4.19027e-05 -4.49121e-08
-4.19027e-05 8.23234e-05 -7.51621e-08
-4.49121e-08 -7.51621e-08 -1.97581e-05
0.00144128 -4.94004e-05 -3.9299e-06
-4.94004e-05 6.7792e-05 -1.45771e-07
-3.9299e-06 -1.45771e-07 -3.07379e-05
0.00152145 -7.30463e-05 2.35549e-06
-7.30463e-05 8.78548e-05 5.03676e-07
2.35549e-06 5.03676e-07 -1.55505e-05
0.00138403 -6.9451e-05 9.90616e-08
-6.9451e-05 6.60981e-05 3.88243e-07
9.90616e-08 3.88243e-07 -3.35116e-05
0.00114689 -5.64633e-05 -7.27836e-06
-5.64633e-05 1.86698e-05 2.15188e-06
-7.27836e-06 2.15188e-06 -6.61042e-05
0.00130477 -7.83983e-05 3.55115e-06
-7.83983e-05 6.69511e-05 -9.67786e-07
3.55115e-06 -9.67786e-07 -3.1195e-05
0.00108892 -6.18378e-05 3.5593e-07
-6.18378e-05 1.93626e-05 -2.32251e-08
3.5593e-07 -2.32251e-08 -6.31383e-05
0.0019133 -1.30014e-05 -9.4166e-06
-1.30014e-05 0.000587208 3.16701e-06
-9.4166e-06 3.16701e-06 0.000543543
0.00103307 -6.49062e-05 5.75525e-06
-6.49062e-05 2.39867e-05 -2.13855e-06
5.75525e-06 -2.13855e-06 -5.59886e-05
0.00197384 -2.60347e-05 1.59464e-05
-2.60347e-05 0.000630792 -1.02882e-06
1.59464e-05 -1.02882e-06 0.000587473
0.00126689 -3.34082e-06 -6.76187e-05
-3.34082e-06 0.000324343 7.09388e-06
-6.76187e-05 7.09388e-06 0.000302991
0.00203483 -3.90689e-05 3.79125e-05
-3.90689e-05 0.000666083 -5.84573e-06
3.79125e-05 -5.84573e-06 0.000625212
0.0012135 3.65151e-05 -2.87659e-05
3.65151e-05 0.000300627 2.3393e-06
-2.87659e-05 2.3393e-06 0.000276303
0.00322547 0.000124411 1.24563e-05
0.000124411 0.00136226 -1.48848e-06
1.24563e-05 -1.48848e-06 0.00134875
0.00193835 7.20248e-05 -1.9289e-06
7.20248e-05 0.000213014 -1.43232e-06
-1.9289e-06 -1.43232e-06 0.000101945
0.00157689 9.72354e-05 -6.46635e-07
9.72354e-05 0.000110915 -2.99071e-06
-6.46635e-07 -2.99071e-06 6.30843e-06
0.00169079 0.000104083 -2.76112e-06
0.000104083 0.000127967 1.47496e-06
-2.76112e-06 1.47496e-06 2.22998e-05
0.00157709 0.000108965 -1.31104e-06
0.000108965 0.000252267 -1.7256e-07
-1.31104e-06 -1.7256e-07 0.000152327
0.00136332 0.000109498 5.54837e-07
0.000109498 9.32074e-05 -1.48705e-06
5.54837e-07 -1.48705e-06 -1.02345e-05
0.00133291 0.000107201 2.73923e-06
0.000107201 3.07948e-05 1.58562e-06
2.73923e-06 1.58562e-06 -5.61635e-05
0.00101137 7.53381e-05 -4.11447e-06
7.53381e-05 6.1714e-05 -1.96141e-06
-4.11447e-06 -1.96141e-06 -1.99131e-05
0.00115785 9.94111e-05 -1.34426e-07
9.94111e-05 9.0156e-05 -8.02599e-08
-1.34426e-07 -8.02599e-08 -1.02733e-05
0.00150501 0.000123718 1.68223e-06
0.000123718 0.00022403 7.14643e-07
1.68223e-06 7.14643e-07 0.000111657
0.00102481 8.95497e-05 1.27499e-06
8.95497e-05 6.53315e-05 1.21064e-07
1.27499e-06 1.21064e-07 -2.97793e-05
0.00091279 6.07274e-05 -1.99893e-07
6.07274e-05 4.34841e-05 -1.74196e-07
-1.99893e-07 -1.74196e-07 -3.22022e-05
0.000786065 2.85487e-05 -7.32631e-06
2.85487e-05 2.13342e-05 -4.34694e-06
-7.32631e-06 -4.34694e-06 -2.35029e-05
0.000770041 3.76094e-05 2.22897e-06
3.76094e-05 -1.35193e-05 7.38082e-07
2.22897e-06 7.38082e-07 -8.49133e-05
0.00069001 -1.02627e-05 1.07044e-07
-1.02627e-05 -2.27636e-05 -5.05392e-08
1.07044e-07 -5.05392e-08 -6.31507e-05
0.00304438 -8.71091e-05 -5.15323e-05
-8.71091e-05 0.0012464 -2.78306e-06
-5.15323e-05 -2.78306e-06 0.00124267
0.000591584 -6.22073e-05 1.57588e-06
-6.22073e-05 -7.07999e-05 4.42314e-06
1.57588e-06 4.42314e-06 -0.000107921
0.00285558 -8.56055e-05 -8.61578e-07
-8.56055e-05 0.00112895 1.58847e-07
-8.61578e-07 1.58847e-07 0.00112983
0.00269631 -7.7256e-05 3.57322e-05
-7.7256e-05 0.00103492 2.82947e-06
3.57322e-05 2.82947e-06 0.00104012
0.00182422 1.27872e-05 -4.80892e-07
1.27872e-05 0.000100826 2.78568e-07
-4.80892e-07 2.78568e-07 -2.19903e-06
0.00177668 6.68157e-06 -6.68163e-07
6.68157e-06 6.33936e-05 2.5916e-07
-6.68163e-07 2.5916e-07 -3.92555e-05
0.00192463 -1.14864e-06 -5.02927e-06
-1.14864e-06 0.000139448 -1.46437e-06
-5.02927e-06 -1.46437e-06 4.49853e-05
0.00178452 5.99966e-05 9.6504e-07
5.99966e-05 9.39374e-05 -2.07057e-07
9.6504e-07 -2.07057e-07 -1.5539e-05
0.00181974 0.000116533 1.04012e-06
0.000116533 0.000191554 -2.75056e-08
1.04012e-06 -2.75056e-08 7.93197e-05
0.00184052 5.98939e-05 3.6537e-07
5.98939e-05 0.000104616 -1.57757e-06
3.6537e-07 -1.57757e-06 -9.49512e-06
0.00179518 5.79736e-06 7.14842e-07
5.79736e-06 8.45635e-05 4.90699e-07
7.14842e-07 4.90699e-07 -2.04581e-05
0.00183329 4.01708e-06 1.70263e-07
4.01708e-06 0.000103231 -1.60267e-07
1.70263e-07 -1.60267e-07 7.12837e-07
0.00168137 6.63823e-07 -2.40715e-06
6.63823e-07 2.59386e-05 -6.28585e-07
-2.40715e-06 -6.28585e-07 -6.99794e-05
0.0018372 8.20255e-06 -7.42236e-07
8.20255e-06 0.00012883 -1.89669e-07
-7.42236e-07 -1.89669e-07 2.37188e-05
0.00185694 7.81264e-06 1.5538e-06
7.81264e-06 0.0001547 1.52585e-07
1.5538e-06 1.52585e-07 4.35256e-05
0.00175426 1.37347e-05 -1.35953e-06
1.37347e-05 9.8577e-05 1.52066e-08
-1.35953e-06 1.52066e-08 -3.63391e-06
0.0017047 8.95071e-06 4.31697e-07
8.95071e-06 0.000109379 -3.00959e-07
4.31697e-07 -3.00959e-07 3.4048e-07
0.00150124 3.61822e-06 -1.56669e-07
3.61822e-06 3.15702e-05 4.12701e-08
-1.56669e-07 4.12701e-08 -7.80048e-05
0.00167285 -4.1307e-06 4.7333e-07
-4.1307e-06 9.65758e-05 8.95075e-07
4.7333e-07 8.95075e-07 -8.36606e-06
0.00159433 -1.08633e-05 -8.99431e-07
-1.08633e-05 8.66583e-05 5.26475e-07
-8.99431e-07 5.26475e-07 -1.75512e-05
0.00146808 -1.85457e-05 -4.60567e-06
-1.85457e-05 6.99782e-05 5.17805e-07
-4.60567e-06 5.17805e-07 -2.96235e-05
0.00157351 -4.18211e-05 2.09079e-06
-4.18211e-05 8.45312e-05 5.58469e-07
2.09079e-06 5.58469e-07 -1.75634e-05
0.00144127 -4.83487e-05 3.69263e-08
-4.83487e-05 6.74212e-05 -2.47809e-08
3.69263e-08 -2.47809e-08 -3.10498e-05
0.00117141 -4.15444e-05 -7.65428e-06
-4.15444e-05 9.67953e-06 1.19548e-06
-7.65428e-06 1.19548e-06 -7.46758e-05
0.00138071 -6.87301e-05 3.95165e-06
-6.87301e-05 6.41216e-05 -1.48315e-08
3.95165e-06 -1.48315e-08 -3.54111e-05
0.00114608 -5.50002e-05 2.87559e-07
-5.50002e-05 1.68691e-05 3.04884e-07
2.87559e-07 3.04884e-07 -6.77075e-05
0.00207562 -2.19022e-05 -1.3171e-05
-2.19022e-05 0.00064836 2.37809e-06
-1.3171e-05 2.37809e-06 0.000606482
0.00109403 -6.12672e-05 6.69436e-06
-6.12672e-05 2.0617e-05 -2.35692e-06
6.69436e-06 -2.35692e-06 -6.18591e-05
0.0020839 -3.6791e-05 1.51899e-05
-3.6791e-05 0.000669244 -1.10085e-06
1.51899e-05 -1.10085e-06 0.0006275
0.00137261 -5.16168e-06 -7.14355e-05
-5.16168e-06 0.00037357 6.3668e-06
-7.14355e-05 6.3668e-06 0.000351722
0.00215161 -4.82028e-05 4.15731e-05
-4.82028e-05 0.000715476 -5.74773e-06
4.15731e-05 -5.74773e-06 0.000674296
0.00128523 3.31944e-05 -3.24252e-05
3.31944e-05 0.000341751 2.13285e-06
-3.24252e-05 2.13285e-06 0.000315889
0.00126351 7.25699e-05 5.01779e-06
7.25699e-05 0.000336005 -2.70746e-06
5.01779e-06 -2.70746e-06 0.000306561
0.00166726 2.38888e-05 -1.29181e-06
2.38888e-05 5.32778e-05 2.63062e-07
-1.29181e-06 2.63062e-07 -5.25207e-05
0.00163408 7.25019e-05 -2.92929e-06
7.25019e-05 9.56088e-05 -1.06197e-06
-2.92929e-06 -1.06197e-06 -1.19127e-05
0.00179991 7.00142e-05 -1.81563e-06
7.00142e-05 0.000140716 -9.96299e-07
-1.81563e-06 -9.96299e-07 2.90282e-05
0.00155038 9.63937e-05 -2.72713e-06
9.63937e-05 0.000164813 -1.10435e-06
-2.72713e-06 -1.10435e-06 6.44672e-05
0.00170536 0.000101057 1.20673e-06
0.000101057 0.000181004 7.35481e-07
1.20673e-06 7.35481e-07 7.66259e-05
0.00173147 0.000106611 4.32502e-06
0.000106611 0.000160967 3.12617e-06
4.32502e-06 3.12617e-06 5.64349e-05
0.000978201 7.61601e-05 -5.2781e-06
7.61601e-05 -1.8064e-06 -2.1117e-06
-5.2781e-06 -2.1117e-06 -8.63966e-05
0.00123226 9.93407e-05 1.59195e-06
9.93407e-05 7.09095e-05 8.57673e-07
1.59195e-06 8.57673e-07 -3.01681e-05
0.00119433 0.000106375 7.93862e-07
0.000106375 3.17231e-06 1.15511e-06
7.93862e-07 1.15511e-06 -9.95156e-05
0.00078988 5.45085e-05 -9.70264e-06
5.45085e-05 1.74602e-05 -5.21469e-06
-9.70264e-06 -5.21469e-06 -3.23121e-05
0.000969473 7.25847e-05 -3.5383e-07
7.25847e-05 4.04107e-05 -2.05242e-07
-3.5383e-07 -2.05242e-07 -4.08132e-05
0.0011621 9.99807e-05 2.06847e-06
9.99807e-05 9.31159e-05 8.51986e-07
2.06847e-06 8.51986e-07 -7.61271e-06
0.000857524 5.74212e-05 2.86079e-06
5.74212e-05 1.55989e-05 8.75221e-07
2.86079e-06 8.75221e-07 -5.97522e-05
0.00070398 2.3792e-05 -4.07382e-09
2.3792e-05 -1.5301e-05 -5.35713e-09
-4.07382e-09 -5.35713e-09 -6.03942e-05
0.00332738 -7.12278e-05 -6.26856e-05
-7.12278e-05 0.00141091 -3.62645e-06
-6.26856e-05 -3.62645e-06 0.00140389
0.000646293 -1.66627e-05 3.88335e-06
-1.66627e-05 -4.21019e-05 4.1901e-06
3.88335e-06 4.1901e-06 -8.20632e-05
0.00301851 -9.5165e-05 -1.58092e-06
-9.5165e-05 0.00123032 2.29007e-07
-1.58092e-06 2.29007e-07 0.0012263
0.00286461 -8.65044e-05 3.9152e-05
-8.65044e-05 0.00113119 2.7826e-06
3.9152e-05 2.7826e-06 0.00113268
0.00183265 3.56089e-06 -5.09163e-07
3.56089e-06 0.000113603 -1.39276e-08
-5.09163e-07 -1.39276e-08 9.43166e-06
0.00181501 1.21826e-05 -3.39608e-07
1.21826e-05 9.68254e-05 9.9264e-08
-3.39608e-07 9.9264e-08 -6.35642e-06
0.00175996 8.05577e-06 -3.0279e-07
8.05577e-06 5.08373e-05 -1.06679e-06
-3.0279e-07 -1.06679e-06 -5.23654e-05
0.00182651 6.06173e-05 1.31984e-06
6.06173e-05 0.000112382 -3.38157e-07
1.31984e-06 -3.38157e-07 4.64699e-06
0.00186982 -1.89126e-06 9.64383e-08
-1.89126e-06 0.000136401 -2.16522e-07
9.64383e-08 -2.16522e-07 2.70651e-05
0.00184132 4.29916e-06 2.02195e-07
4.29916e-06 0.000108327 -3.96636e-08
2.02195e-07 -3.96636e-08 3.34305e-06
0.00184945 6.73671e-06 -2.1899e-06
6.73671e-06 0.000110593 -2.76305e-07
-2.1899e-06 -2.76305e-07 7.20447e-06
0.00175311 2.34586e-06 -2.91034e-06
2.34586e-06 8.56871e-05 -6.86254e-07
-2.91034e-06 -6.86254e-07 -1.81167e-05
0.00182382 1.3125e-05 -1.46348e-07
1.3125e-05 0.000137074 -3.16599e-07
-1.46348e-07 -3.16599e-07 2.61633e-05
0.00178767 8.92561e-06 -5.11627e-07
8.92561e-06 0.000143613 6.27722e-07
-5.11627e-07 6.27722e-07 3.07716e-05
0.00181731 9.9704e-06 1.73218e-07
9.9704e-06 0.000167792 -3.62538e-07
1.73218e-07 -3.62538e-07 5.85887e-05
0.00166016 5.16302e-06 6.50244e-07
5.16302e-06 0.000114553 -3.46194e-07
6.50244e-07 -3.46194e-07 5.72182e-06
0.00129142 2.05783e-06 -3.2595e-06
2.05783e-06 -3.38393e-05 9.44281e-07
-3.2595e-06 9.44281e-07 -0.000138651
0.00159684 -9.96996e-06 8.02461e-07
-9.96996e-06 8.86501e-05 6.23275e-07
8.02461e-07 6.23275e-07 -1.56876e-05
0.0014688 -1.6127e-05 -5.95113e-07
-1.6127e-05 7.02823e-05 1.96552e-07
-5.95113e-07 1.96552e-07 -2.93011e-05
0.0011768 -1.94787e-05 -7.51248e-06
-1.94787e-05 1.35452e-06 9.16006e-07
-7.51248e-06 9.16006e-07 -8.33596e-05
0.00143733 -4.5116e-05 3.82784e-06
-4.5116e-05 6.51223e-05 1.12294e-07
3.82784e-06 1.12294e-07 -3.3215e-05
0.00118243 -4.17853e-05 3.88334e-08
-4.17853e-05 1.4364e-05 1.70178e-07
3.88334e-08 1.70178e-07 -6.98679e-05
0.000685327 -2.45157e-05 -1.15036e-05
-2.45157e-05 -9.91621e-05 2.54073e-06
-1.15036e-05 2.54073e-06 -0.00014747
0.00114644 -5.37526e-05 7.43542e-06
-5.37526e-05 1.55907e-05 -1.57876e-06
7.43542e-06 -1.57876e-06 -6.87919e-05
0.0014344 -4.05551e-05 1.83679e-05
-4.05551e-05 0.000306548 -6.74302e-07
1.83679e-05 -6.74302e-07 0.000262202
0.00442652 2.1928e-05 -8.3743e-05
2.1928e-05 0.00197232 2.87351e-06
-8.3743e-05 2.87351e-06 0.00196536
0.0022494 -4.74347e-05 4.47403e-05
-4.74347e-05 0.000750333 -5.18498e-06
4.47403e-05 -5.18498e-06 0.000709327
0.0013576 2.72621e-05 -3.37541e-05
2.72621e-05 0.000372653 2.03861e-06
-3.37541e-05 2.03861e-06 0.00034726
0.00133147 7.78789e-05 2.74404e-06
7.78789e-05 0.000376624 -2.8423e-06
2.74404e-06 -2.8423e-06 0.000344769
0.00172052 1.12613e-05 -3.42138e-07
1.12613e-05 8.03879e-05 1.76578e-07
-3.42138e-07 1.76578e-07 -2.4249e-05
0.00147094 3.5063e-05 -1.78949e-06
3.5063e-05 -2.90595e-06 -7.42261e-08
-1.78949e-06 -7.42261e-08 -0.000108613
0.00173927 2.42136e-05 -2.88125e-07
2.42136e-05 9.33287e-05 -1.20985e-07
-2.88125e-07 -1.20985e-07 -1.23562e-05
0.00115132 6.78539e-05 -4.12978e-06
6.78539e-05 -9.36314e-05 -1.60586e-06
-4.12978e-06 -1.60586e-06 -0.000196157
0.00166255 7.31363e-05 1.46411e-07
7.31363e-05 0.000112817 -2.05387e-08
1.46411e-07 -2.05387e-08 5.67134e-06
0.00167201 6.83476e-05 2.6797e-07
6.83476e-05 7.39883e-05 -1.83188e-07
2.6797e-07 -1.83188e-07 -3.83735e-05
0.000659388 6.06204e-05 -7.82848e-06
6.06204e-05 -0.000222922 -2.81687e-06
-7.82848e-06 -2.81687e-06 -0.00031012
0.00156059 9.81102e-05 8.76908e-07
9.81102e-05 0.000169627 5.94707e-08
8.76908e-07 5.94707e-08 6.90701e-05
0.00184213 0.000105217 2.92481e-06
0.000105217 0.00025551 1.95176e-06
2.92481e-06 1.95176e-06 0.000151316
0.000745697 6.7817e-05 -1.13832e-05
6.7817e-05 -2.26816e-05 -5.31707e-06
-1.13832e-05 -5.31707e-06 -7.49529e-05
0.00078088 6.97813e-05 -1.22826e-07
6.97813e-05 -0.000107145 1.2987e-07
-1.22826e-07 1.2987e-07 -0.000192752
0.00088707 8.97545e-05 3.85769e-06
8.97545e-05 -0.000110659 1.98563e-06
3.85769e-06 1.98563e-06 -0.000212873
0.00377651 -6.62958e-05 -6.99328e-05
-6.62958e-05 0.00165507 -4.49051e-06
-6.99328e-05 -4.49051e-06 0.00164384
0.000683029 4.73358e-05 -8.50409e-08
4.73358e-05 -3.26444e-05 2.49321e-08
-8.50409e-08 2.49321e-08 -8.2369e-05
0.000932365 7.00134e-05 3.74736e-06
7.00134e-05 2.19216e-05 1.77204e-06
3.74736e-06 1.77204e-06 -5.8961e-05
0.00062018 1.93644e-05 6.05154e-06
1.93644e-05 -5.3216e-05 4.3553e-06
6.05154e-06 4.3553e-06 -9.84983e-05
0.00323744 -9.6878e-05 -3.83368e-06
-9.6878e-05 0.00136294 1.84787e-07
-3.83368e-06 1.84787e-07 0.00135471
0.00297948 -9.57174e-05 4.18703e-05
-9.57174e-05 0.0012062 2.71503e-06
4.18703e-05 2.71503e-06 0.00120295
0.00180782 -2.96723e-06 -1.19078e-06
-2.96723e-06 0.000108001 -7.74539e-07
-1.19078e-06 -7.74539e-07 7.64135e-07
0.00185004 3.41739e-06 -2.44986e-07
3.41739e-06 0.000120079 -7.67882e-08
-2.44986e-07 -7.67882e-08 1.58487e-05
0.00181397 1.17859e-05 2.96672e-07
1.17859e-05 9.75777e-05 -4.63398e-07
2.96672e-07 -4.63398e-07 -5.78772e-06
0.00191187 1.01638e-05 -8.39563e-07
1.01638e-05 0.000182427 -1.16563e-07
-8.39563e-07 -1.16563e-07 6.95474e-05
0.00181986 2.15977e-06 -4.26129e-07
2.15977e-06 0.000110209 -1.77138e-07
-4.26129e-07 -1.77138e-07 1.06663e-06
0.0018655 -5.47549e-07 -1.70588e-06
-5.47549e-07 0.000120386 -3.24441e-07
-1.70588e-06 -3.24441e-07 1.55724e-05
0.00175354 1.64058e-05 -8.45869e-07
1.64058e-05 0.000100253 -4.86084e-07
-8.45869e-07 -4.86084e-07 -1.03335e-05
0.00178581 1.11121e-05 6.69036e-07
1.11121e-05 0.000143831 -1.63813e-07
6.69036e-07 -1.63813e-07 3.06088e-05
0.00175507 6.34159e-06 -2.7061e-06
6.34159e-06 0.000167924 1.04195e-06
-2.7061e-06 1.04195e-06 5.97867e-05
0.00182242 6.69698e-06 1.96369e-06
6.69698e-06 0.000199076 -9.39201e-07
1.96369e-06 -9.39201e-07 9.10107e-05
0.00157085 5.00382e-06 -5.78955e-08
5.00382e-06 0.000113012 3.86061e-08
-5.78955e-08 3.86061e-08 1.01399e-05
0.000830783 -1.37804e-06 -8.62054e-06
-1.37804e-06 -0.000199124 2.00952e-06
-8.62054e-06 2.00952e-06 -0.000290886
0.00145815 -1.61618e-05 3.02544e-06
-1.61618e-05 6.49234e-05 -1.22284e-07
3.02544e-06 -1.22284e-07 -3.4757e-05
0.00119192 -1.71587e-05 -6.80398e-08
-1.71587e-05 8.40487e-06 -1.40736e-07
-6.80398e-08 -1.40736e-07 -7.6187e-05
0.000708952 -1.36652e-05 -1.15394e-05
-1.36652e-05 -9.39272e-05 1.59791e-06
-1.15394e-05 1.59791e-06 -0.000143123
0.00118644 -4.04148e-05 7.81841e-06
-4.04148e-05 1.54461e-05 -9.86927e-07
7.81841e-06 -9.86927e-07 -6.85854e-05
0.00068877 -2.1417e-05 -3.34102e-08
-2.1417e-05 -9.73684e-05 1.58263e-07
-3.34102e-08 1.58263e-07 -0.00014563
0.0044558 1.5688e-05 -8.58118e-05
1.5688e-05 0.00198212 2.07974e-06
-8.58118e-05 2.07974e-06 0.00197606
0.000772312 -4.1082e-05 1.35017e-05
-4.1082e-05 -4.42321e-05 -4.42028e-06
1.35017e-05 -4.42028e-06 -9.36443e-05
0.0029626 2.78305e-05 3.22993e-05
2.78305e-05 0.00120245 7.13804e-07
3.22993e-05 7.13804e-07 0.00118603
0.0013589 3.37864e-05 1.00855e-05
3.37864e-05 0.000376632 -2.13992e-06
1.00855e-05 -2.13992e-06 0.000350124
0.00181866 1.32031e-06 -3.60222e-07
1.32031e-06 0.000135832 -2.08272e-07
-3.60222e-07 -2.08272e-07 3.09525e-05
0.00165081 1.7416e-05 -9.41476e-07
1.7416e-05 8.28244e-05 -2.73856e-07
-9.41476e-07 -2.73856e-07 -2.06488e-05
0.00170875 1.03753e-05 3.13361e-07
1.03753e-05 7.43203e-05 2.46455e-07
3.13361e-07 2.46455e-07 -3.01901e-05
0.00144931 4.41778e-05 -3.34832e-06
4.41778e-05 4.29213e-05 -7.37399e-07
-3.34832e-06 -7.37399e-07 -5.70766e-05
0.00154132 3.51092e-05 4.3513e-07
3.51092e-05 3.23198e-05 -1.29459e-07
4.3513e-07 -1.29459e-07 -7.26809e-05
0.00179577 2.44436e-05 7.61375e-07
2.44436e-05 0.00012533 -4.5783e-07
7.61375e-07 -4.5783e-07 1.97827e-05
0.000750365 5.13321e-05 -8.62701e-06
5.13321e-05 -0.000215132 -2.70817e-06
-8.62701e-06 -2.70817e-06 -0.000302735
0.00154209 7.72706e-05 -1.24081e-06
7.72706e-05 0.000111324 -3.58515e-07
-1.24081e-06 -3.58515e-07 1.02926e-05
0.00169415 7.37053e-05 3.17663e-06
7.37053e-05 0.000131415 4.01383e-07
3.17663e-06 4.01383e-07 2.46802e-05
0.000710757 6.52712e-05 -1.2353e-05
6.52712e-05 -6.49774e-05 -4.71457e-06
-1.2353e-05 -4.71457e-06 -0.000116157
0.000702689 6.2416e-05 -2.07787e-06
6.2416e-05 -0.000203258 -6.75797e-07
-2.07787e-06 -6.75797e-07 -0.000291108
0.00157031 9.98213e-05 4.40454e-06
9.98213e-05 0.000174159 1.37884e-06
4.40454e-06 1.37884e-06 7.33978e-05
0.00422117 -7.43982e-05 -7.32479e-05
-7.43982e-05 0.00188674 -4.73063e-06
-7.32479e-05 -4.73063e-06 0.00187245
0.000676946 6.20863e-05 4.48903e-07
6.20863e-05 -5.59247e-05 1.94294e-07
4.48903e-07 1.94294e-07 -0.000107767
0.000577514 6.31251e-05 5.12281e-06
6.31251e-05 -0.000215431 2.55929e-06
5.12281e-06 2.55929e-06 -0.000302061
0.00357436 -8.49568e-05 -3.99886e-06
-8.49568e-05 0.00155074 2.57623e-07
-3.99886e-06 2.57623e-07 0.00153935
0.000584366 4.04407e-05 7.39827e-06
4.04407e-05 -7.93153e-05 4.9755e-06
7.39827e-06 4.9755e-06 -0.000128958
0.00311584 -0.000105633 4.4246e-05
-0.000105633 0.0012975 2.61882e-06
4.4246e-05 2.61882e-06 0.00128894
0.00178821 6.97604e-06 -1.02154e-06
6.97604e-06 0.000124234 -1.00564e-06
-1.02154e-06 -1.00564e-06 1.45124e-05
0.00180569 -1.95397e-06 8.75213e-10
-1.95397e-06 0.000109828 3.51379e-07
8.75213e-10 3.51379e-07 2.78823e-06
0.00186149 3.42359e-06 -2.35099e-07
3.42359e-06 0.000123476 1.07449e-07
-2.35099e-07 1.07449e-07 1.91664e-05
0.00184051 -2.37115e-06 -3.34029e-06
-2.37115e-06 0.000187732 2.6181e-08
-3.34029e-06 2.6181e-08 7.86505e-05
0.00187772 9.82408e-06 5.43787e-07
9.82408e-06 0.000165352 -1.24455e-07
5.43787e-07 -1.24455e-07 5.30051e-05
0.00178636 9.04592e-06 5.97594e-07
9.04592e-06 9.25919e-05 -8.46076e-08
5.97594e-07 -8.46076e-08 -1.64767e-05
0.00181272 1.2173e-05 1.35983e-06
1.2173e-05 0.0001587 -9.29615e-07
1.35983e-06 -9.29615e-07 4.51209e-05
0.00176472 6.30282e-06 9.90879e-07
6.30282e-06 0.000173985 -8.50682e-08
9.90879e-07 -8.50682e-08 6.56484e-05
0.000927887 7.78398e-07 -8.81704e-06
7.78398e-07 -0.00018558 1.89082e-06
-8.81704e-06 1.89082e-06 -0.000283531
0.00186763 7.89388e-06 4.06549e-06
7.89388e-06 0.000268513 -1.00338e-06
4.06549e-06 -1.00338e-06 0.000167621
0.0010235 1.05097e-06 -1.68569e-06
1.05097e-06 -9.54711e-05 4.56505e-07
-1.68569e-06 4.56505e-07 -0.000185293
0.000708281 -4.91948e-06 -1.18461e-05
-4.91948e-06 -0.000106115 1.3989e-06
-1.18461e-05 1.3989e-06 -0.000159384
0.00121597 -1.66063e-05 7.43716e-06
-1.66063e-05 1.98178e-05 -1.31537e-06
7.43716e-06 -1.31537e-06 -6.46891e-05
0.0007119 -4.66693e-06 2.24645e-07
-4.66693e-06 -9.25849e-05 -9.88003e-08
2.24645e-07 -9.88003e-08 -0.000141974
0.00452817 1.67175e-05 -8.77852e-05
1.67175e-05 0.00201584 1.26083e-06
-8.77852e-05 1.26083e-06 0.00201019
0.00068123 -1.62316e-05 1.10768e-05
-1.62316e-05 -0.000101192 -2.15864e-06
1.10768e-05 -2.15864e-06 -0.000149195
0.0044918 2.33741e-05 5.74338e-07
2.33741e-05 0.00200002 3.30477e-07
5.74338e-07 3.30477e-07 0.00199401
0.00155413 -6.21424e-06 7.66735e-05
-6.21424e-06 0.000457952 -3.08008e-06
7.66735e-05 -3.08008e-06 0.000436953
0.00188723 6.16166e-06 -5.37091e-07
6.16166e-06 0.000199099 -7.03005e-07
-5.37091e-07 -7.03005e-07 9.526e-05
0.00174327 7.06998e-07 6.28464e-07
7.06998e-07 9.76861e-05 6.46004e-07
6.28464e-07 6.46004e-07 -5.97549e-06
0.00149079 1.69124e-05 -3.00808e-06
1.69124e-05 4.92328e-05 -9.36049e-07
-3.00808e-06 -9.36049e-07 -5.10325e-05
0.00166642 1.68713e-05 2.68389e-07
1.68713e-05 8.97026e-05 -7.2465e-08
2.68389e-07 -7.2465e-08 -1.38166e-05
0.001699 9.48173e-06 1.22278e-06
9.48173e-06 6.92276e-05 2.42005e-07
1.22278e-06 2.42005e-07 -3.51511e-05
0.0012165 3.92187e-05 -7.60918e-06
3.92187e-05 9.15006e-06 -1.97433e-06
-7.60918e-06 -1.97433e-06 -7.64301e-05
0.00148337 4.47622e-05 -4.89563e-08
4.47622e-05 5.91479e-05 8.24839e-08
-4.89563e-08 8.24839e-08 -4.08285e-05
0.00160566 3.50925e-05 1.78967e-06
3.50925e-05 6.46068e-05 1.29714e-07
1.78967e-06 1.29714e-07 -3.9711e-05
0.000704164 4.7794e-05 -1.24392e-05
4.7794e-05 -8.81227e-05 -3.90784e-06
-1.24392e-05 -3.90784e-06 -0.000138151
0.000979447 5.7248e-05 -2.3967e-06
5.7248e-05 -9.47246e-05 -5.20719e-07
-2.3967e-06 -5.20719e-07 -0.00018168
0.00193537 8.6671e-05 3.5067e-06
8.6671e-05 0.000317664 8.70514e-07
3.5067e-06 8.70514e-07 0.000218118
0.00449384 -4.16517e-05 -8.31837e-05
-4.16517e-05 0.00201302 -3.9152e-06
-8.31837e-05 -3.9152e-06 0.00200359
0.000669937 5.9183e-05 2.016e-07
5.9183e-05 -8.42827e-05 1.86759e-07
2.016e-07 1.86759e-07 -0.00013581
0.000744496 6.43485e-05 4.69887e-06
6.43485e-05 -0.00018432 1.81031e-06
4.69887e-06 1.81031e-06 -0.000272847
0.00399972 -6.01655e-05 5.24127e-07
-6.01655e-05 0.00176927 1.46434e-07
5.24127e-07 1.46434e-07 0.00175802
0.000584052 5.55387e-05 9.627e-06
5.55387e-05 -0.00010107 5.35387e-06
9.627e-06 5.35387e-06 -0.000152719
0.00337684 -0.000105519 5.14448e-05
-0.000105519 0.00144913 2.9689e-06
5.14448e-05 2.9689e-06 0.00143697
0.00180257 1.09917e-05 -2.69026e-06
1.09917e-05 0.000178165 -1.07128e-06
-2.69026e-06 -1.07128e-06 7.28757e-05
0.00183061 4.82648e-06 3.59491e-07
4.82648e-06 0.000147896 2.31214e-07
3.59491e-07 2.31214e-07 3.83773e-05
0.00180556 -1.3258e-06 1.50578e-06
-1.3258e-06 0.000112799 9.86392e-07
1.50578e-06 9.86392e-07 5.97738e-06
0.000950957 -1.31507e-05 -9.59584e-06
-1.31507e-05 -0.000191132 2.12403e-07
-9.59584e-06 2.12403e-07 -0.000290381
0.00183892 4.73673e-06 1.07158e-06
4.73673e-06 0.000187293 -3.5607e-08
1.07158e-06 -3.5607e-08 7.80645e-05
0.00184269 9.76612e-06 2.15089e-06
9.76612e-06 0.000147701 -3.1223e-08
2.15089e-06 -3.1223e-08 3.5929e-05
0.00178381 6.00658e-06 4.4485e-06
6.00658e-06 0.000185046 -1.1025e-06
4.4485e-06 -1.1025e-06 7.64836e-05
0.000906135 9.02844e-08 -1.26986e-06
9.02844e-08 -0.000192704 5.68289e-07
-1.26986e-06 5.68289e-07 -0.000289992
0.000747368 3.85058e-06 -1.25351e-05
3.85058e-06 -0.000106789 9.91897e-07
-1.25351e-05 9.91897e-07 -0.000164412
0.00120678 4.28996e-06 5.7023e-06
4.28996e-06 3.28511e-06 -1.18516e-06
5.7023e-06 -1.18516e-06 -8.45851e-05
0.000746027 4.55633e-06 2.90862e-07
4.55633e-06 -8.83551e-05 -8.15816e-08
2.90862e-07 -8.15816e-08 -0.000141675
0.00468757 1.74799e-05 -9.04568e-05
1.74799e-05 0.00209376 4.71897e-07
-9.04568e-05 4.71897e-07 0.00208787
0.000724455 4.58077e-06 1.12286e-05
4.58077e-06 -8.66382e-05 -1.54638e-06
1.12286e-05 -1.54638e-06 -0.000135964
0.00457222 4.23987e-05 3.33085e-06
4.23987e-05 0.0020388 2.11199e-07
3.33085e-06 2.11199e-07 0.00203227
0.00453585 2.79567e-05 9.06765e-05
2.79567e-05 0.00202154 -1.39201e-06
9.06765e-05 -1.39201e-06 0.00201578
0.00156252 7.30195e-06 -3.15801e-06
7.30195e-06 7.25373e-05 -1.31388e-06
-3.15801e-06 -1.31388e-06 -2.98243e-05
0.00175693 4.96446e-06 4.61897e-07
4.96446e-06 0.000129704 6.72408e-09
4.61897e-07 6.72408e-09 2.57252e-05
0.00165997 2.44301e-07 1.42873e-06
2.44301e-07 5.56904e-05 1.18914e-06
1.42873e-06 1.18914e-06 -4.67776e-05
0.00124066 1.40927e-05 -7.4066e-06
1.40927e-05 5.54306e-06 -1.93063e-06
-7.4066e-06 -1.93063e-06 -8.15262e-05
0.00152227 1.70428e-05 1.37695e-07
1.70428e-05 6.46629e-05 -6.06725e-08
1.37695e-07 -6.06725e-08 -3.5648e-05
0.00168119 1.62992e-05 1.29045e-06
1.62992e-05 9.61206e-05 2.19582e-07
1.29045e-06 2.19582e-07 -7.43966e-06
0.000722626 2.86148e-05 -1.22313e-05
2.86148e-05 -9.40391e-05 -3.19688e-06
-1.22313e-05 -3.19688e-06 -0.000144073
0.0012178 4.0016e-05 -4.72678e-08
4.0016e-05 1.04143e-05 1.19834e-07
-4.72678e-08 1.19834e-07 -7.53614e-05
0.00151856 4.53183e-05 3.6775e-06
4.53183e-05 7.59033e-05 9.72866e-07
3.6775e-06 9.72866e-07 -2.40491e-05
0.00462749 -9.77905e-06 -9.37762e-05
-9.77905e-06 0.00206866 -3.09924e-06
-9.37762e-05 -3.09924e-06 0.00206278
0.000685655 4.63194e-05 1.4801e-08
4.63194e-05 -9.71209e-05 1.17127e-07
1.4801e-08 1.17127e-07 -0.000147233
0.001203 6.32566e-05 5.50855e-06
6.32566e-05 2.28258e-05 1.83285e-06
5.50855e-06 1.83285e-06 -6.34868e-05
0.00433813 -3.44031e-05 4.54874e-06
-3.44031e-05 0.00193473 1.75137e-07
4.54874e-06 1.75137e-07 0.00192513
0.000626549 5.38746e-05 1.07596e-05
5.38746e-05 -0.000105431 4.82633e-06
1.07596e-05 4.82633e-06 -0.000156977
0.0037871 -8.10385e-05 6.12436e-05
-8.10385e-05 0.00166282 3.793e-06
6.12436e-05 3.793e-06 0.00165064
0.00132734 3.3427e-06 -8.06574e-06
3.3427e-06 1.36533e-05 -9.0363e-07
-8.06574e-06 -9.0363e-07 -8.0779e-05
0.00162758 5.7178e-06 1.0635e-06
5.7178e-06 8.41504e-05 -3.05619e-08
1.0635e-06 -3.05619e-08 -2.2766e-05
0.00186626 1.51201e-06 2.07829e-06
1.51201e-06 0.0001681 1.21828e-06
2.07829e-06 1.21828e-06 5.87568e-05
0.000769942 1.35927e-05 -1.33692e-05
1.35927e-05 -0.000110978 -2.49746e-07
-1.33692e-05 -2.49746e-07 -0.000169413
0.000944915 -6.02663e-06 -1.59311e-06
-6.02663e-06 -0.000193691 2.65862e-07
-1.59311e-06 2.65862e-07 -0.000292844
0.00183104 1.14352e-05 5.38006e-06
1.14352e-05 0.00018357 -2.16918e-07
5.38006e-06 -2.16918e-07 7.41987e-05
0.00088555 -1.15616e-07 5.70087e-06
-1.15616e-07 -0.000199369 -6.15537e-07
5.70087e-06 -6.15537e-07 -0.000295974
0.000761957 7.0458e-06 1.5754e-07
7.0458e-06 -0.000100457 3.55945e-07
1.5754e-07 3.55945e-07 -0.000158198
0.00500461 1.83653e-05 -9.47751e-05
1.83653e-05 0.00224945 -3.52322e-07
-9.47751e-05 -3.52322e-07 0.00224298
0.000772671 1.33679e-05 1.18348e-05
1.33679e-05 -7.58403e-05 -1.30856e-06
1.18348e-05 -1.30856e-06 -0.000129407
0.00478707 2.16647e-05 1.72219e-06
2.16647e-05 0.00214235 3.37281e-07
1.72219e-06 3.37281e-07 0.00213649
0.00461369 2.74261e-05 9.51086e-05
2.74261e-05 0.00205731 -6.21398e-07
9.51086e-05 -6.21398e-07 0.00205191
0.00128794 4.32203e-06 -7.80612e-06
4.32203e-06 1.06634e-05 -1.86509e-06
-7.80612e-06 -1.86509e-06 -8.00331e-05
0.00148995 5.76011e-06 -5.14412e-08
5.76011e-06 3.21361e-05 -1.18691e-07
-5.14412e-08 -1.18691e-07 -7.09184e-05
0.00162572 3.71436e-06 1.49121e-06
3.71436e-06 5.98857e-05 1.12647e-06
1.49121e-06 1.12647e-06 -4.42392e-05
0.00243968 6.42905e-06 -5.33597e-05
6.42905e-06 0.000795475 -1.95953e-06
-5.33597e-05 -1.95953e-06 0.000753925
0.00124535 1.50307e-05 1.16656e-07
1.50307e-05 8.1818e-06 2.56406e-08
1.16656e-07 2.56406e-08 -7.90868e-05
0.00155647 1.7008e-05 3.37646e-06
1.7008e-05 8.14685e-05 8.41047e-07
3.37646e-06 8.41047e-07 -1.88879e-05
0.00473556 -2.70217e-06 -0.000100998
-2.70217e-06 0.00211588 -2.25072e-06
-0.000100998 -2.25072e-06 0.00211094
0.000717816 2.99456e-05 -1.88512e-08
2.99456e-05 -9.60893e-05 3.90083e-08
-1.88512e-08 3.90083e-08 -0.000146165
0.00121717 4.06394e-05 7.76394e-06
4.06394e-05 1.06852e-05 2.14965e-06
7.76394e-06 2.14965e-06 -7.52939e-05
0.00454179 -4.16782e-06 1.96419e-06
-4.16782e-06 0.0020271 3.85129e-07
1.96419e-06 3.85129e-07 0.00202077
0.000670399 4.53773e-05 1.16088e-05
4.53773e-05 -0.000104352 4.04205e-06
1.16088e-05 4.04205e-06 -0.000154512
0.0041956 -2.37905e-05 7.8285e-05
-2.37905e-05 0.00186028 3.75939e-06
7.8285e-05 3.75939e-06 0.00185249
0.000804031 6.74827e-06 -1.50971e-05
6.74827e-06 -9.32653e-05 -1.9043e-06
-1.50971e-05 -1.9043e-06 -0.000152936
0.00113228 2.95461e-07 2.61073e-07
2.95461e-07 -8.94218e-05 3.44788e-07
2.61073e-07 3.44788e-07 -0.000185022
0.00144553 4.42754e-07 4.57246e-06
4.42754e-07 -1.36678e-05 9.92154e-07
4.57246e-06 9.92154e-07 -0.000122153
0.00526282 -4.62425e-05 -9.67535e-05
-4.62425e-05 0.00238235 -1.59346e-06
-9.67535e-05 -1.59346e-06 0.00237156
0.000780702 9.61607e-06 -2.21633e-08
9.61607e-06 -0.000104413 3.50879e-07
-2.21633e-08 3.50879e-07 -0.000163752
0.000940841 8.02113e-07 6.22466e-06
8.02113e-07 -0.000195094 1.85665e-07
6.22466e-06 1.85665e-07 -0.00029418
0.000786211 1.44677e-05 1.2582e-05
1.44677e-05 -8.89574e-05 -1.59282e-07
1.2582e-05 -1.59282e-07 -0.000147024
0.00511083 5.49013e-05 4.06433e-06
5.49013e-05 0.00230316 4.51657e-07
4.06433e-06 4.51657e-07 0.00229562
0.0048981 6.8868e-05 9.98715e-05
6.8868e-05 0.00219906 2.64508e-07
9.98715e-05 2.64508e-07 0.00219146
0.00256093 -1.40144e-05 -5.80511e-05
-1.40144e-05 0.000842326 -2.06205e-06
-5.80511e-05 -2.06205e-06 0.000797035
0.00128887 6.04091e-06 -9.72173e-08
6.04091e-06 1.09929e-05 2.88371e-08
-9.72173e-08 2.88371e-08 -7.96951e-05
0.00141855 4.37301e-06 3.16271e-06
4.37301e-06 -7.67573e-06 1.10358e-06
3.16271e-06 1.10358e-06 -0.00011142
0.00463191 1.70637e-05 -2.88234e-05
1.70637e-05 0.00206489 -1.05706e-06
-2.88234e-05 -1.05706e-06 0.00205522
0.000768634 1.07236e-05 -1.39353e-07
1.07236e-05 -8.1369e-05 8.37096e-08
-1.39353e-07 8.37096e-08 -0.000133773
0.00125746 1.68727e-05 7.59021e-06
1.68727e-05 1.42987e-05 1.96389e-06
7.59021e-06 1.96389e-06 -7.31117e-05
0.00467378 3.85296e-06 -6.86135e-07
3.85296e-06 0.0020867 3.95567e-07
-6.86135e-07 3.95567e-07 0.00208146
0.000709283 3.18153e-05 1.23567e-05
3.18153e-05 -9.97138e-05 3.37723e-06
1.23567e-05 3.37723e-06 -0.000149867
0.00445369 4.59758e-06 8.86069e-05
4.59758e-06 0.00198326 3.57056e-06
8.86069e-05 3.57056e-06 0.00197699
0.00180497 -1.34152e-05 -0.000100292
-1.34152e-05 0.000550021 -1.50017e-07
-0.000100292 -1.50017e-07 0.000524192
0.00170601 6.21637e-06 -2.35229e-05
6.21637e-06 0.000383353 5.23507e-07
-2.35229e-05 5.23507e-07 0.000331046
0.000945107 6.99686e-07 7.91342e-06
6.99686e-07 -0.000188417 1.57126e-06
7.91342e-06 1.57126e-06 -0.000285178
0.00527136 -4.73229e-05 4.27443e-06
-4.73229e-05 0.0023852 -9.28264e-07
4.27443e-06 -9.28264e-07 0.0023752
0.000779859 7.7154e-06 1.34011e-05
7.7154e-06 -0.000104358 9.7204e-07
1.34011e-05 9.7204e-07 -0.000164087
0.0051888 2.42227e-05 0.000106687
2.42227e-05 0.00233921 1.01347e-06
0.000106687 1.01347e-06 0.0023329
0.00149625 -5.42118e-05 -9.19641e-06
-5.42118e-05 0.000406735 -8.13527e-07
-9.19641e-06 -8.13527e-07 0.000375736
0.00168756 4.04512e-06 -2.23803e-05
4.04512e-06 0.000386755 1.89676e-07
-2.23803e-05 1.89676e-07 0.000336292
0.00128924 5.49528e-06 7.49451e-06
5.49528e-06 1.11754e-05 1.97099e-06
7.49451e-06 1.97099e-06 -7.95414e-05
0.00312884 4.82775e-06 4.02908e-05
4.82775e-06 0.00126811 4.48679e-07
4.02908e-05 4.48679e-07 0.00125182
0.000760087 1.77183e-05 1.27247e-05
1.77183e-05 -8.56924e-05 2.97548e-06
1.27247e-05 2.97548e-06 -0.000138386
0.00462773 1.28668e-05 9.474e-05
1.28668e-05 0.00206505 3.03325e-06
9.474e-05 3.03325e-06 0.00205956
0.00527039 -5.50261e-05 -4.75886e-06
-5.50261e-05 0.00238159 4.67808e-07
-4.75886e-06 4.67808e-07 0.00237334
0.00077479 1.30675e-05 1.34333e-05
1.30675e-05 -0.000105488 2.00899e-06
1.34333e-05 2.00899e-06 -0.000163708
0.00529476 3.25382e-05 0.000103073
3.25382e-05 0.00239463 -1.0486e-06
0.000103073 -1.0486e-06 0.00238582
0.00329688 1.35183e-06 4.33981e-05
1.35183e-06 0.00134767 6.08415e-08
4.33981e-05 6.08415e-08 0.00132983
0.000779626 9.28593e-06 1.28507e-05
9.28593e-06 -8.91075e-05 2.64486e-06
1.28507e-05 2.64486e-06 -0.000145532
0.00478669 9.28718e-06 9.68244e-05
9.28718e-06 0.00214105 2.17446e-06
9.68244e-05 2.17446e-06 0.0021356
0.00519562 -0.000121188 9.56397e-05
-0.000121188 0.00235253 -7.02594e-08
9.56397e-05 -7.02594e-08 0.00233881
0.00499895 -6.42736e-05 9.49552e-05
-6.42736e-05 0.00224782 8.37754e-07
9.49552e-05 8.37754e-07 0.00223984
