# vtk DataFile Version 2.0
Wound Healing Simulation
ASCII
DATASET UNSTRUCTURED_GRID
POINTS 3012 float
69.9759 18.75 4
67.2507 60.3285 4
69.976 18.75 2
73.0099 25.446 4
71.1327 20.9142 4
68.6801 16.6661 4
67.8271 19.9185 3.99074
67.2507 60.3286 2
71.1327 54.0858 4
68.6801 58.3339 4
65.6939 62.2254 4
65.3135 59.0081 3.99214
74.6784 42.3946 4
73.7221 47.2057 4
69.9759 18.75 0
73.0099 25.446 2
68.6801 16.6661 2
71.1327 20.9142 2
67.8271 19.9185 2
74.6792 32.6053 4
73.7222 27.7943 4
72.1454 23.1494 4
70.6167 26.2179 3.98913
68.8877 21.9517 3.99014
67.2507 14.6715 4
66.6384 17.964 3.99151
65.8046 21.0132 3.98662
67.2507 60.3285 0
71.1327 54.0858 2
68.6801 58.3339 2
65.694 62.2255 2
65.3135 59.0083 2
72.1454 51.8506 4
69.9759 56.25 4
68.8387 53.1194 3.99019
64.0165 64.0165 4
66.612 57.1413 3.99165
63.8869 60.7717 3.99262
63.5054 57.7863 3.98737
60.3285 67.2507 4
74.6792 42.3947 2
73.7222 47.2057 2
74.9194 39.9526 4
74.2788 44.8158 4
72.1709 42.0863 3.98902
73.0099 49.554 4
71.2522 46.6001 3.98941
73.0099 25.446 0
71.1327 20.9142 0
68.6801 16.6661 0
67.8271 19.9185 0.00926435
74.6792 32.6053 2
73.7222 27.7943 2
67.2508 14.6715 2
72.1455 23.1494 2
70.6167 26.218 2
66.6384 17.964 2
68.8877 21.9517 2
65.8046 21.0133 2
74.9197 35.0474 4
74.2794 30.1841 4
72.1873 32.942 3.98904
71.2808 28.4292 3.98895
69.818 24.0549 3.98961
68.3555 26.9452 3.98492
66.7708 22.9233 3.98624
65.694 12.7746 4
65.3248 16.0963 3.99219
64.7201 19.1807 3.98706
63.9005 22.0176 3.98477
71.1327 54.0858 0
65.6939 62.2254 0
68.6801 58.3339 0
65.3135 59.0081 0.00785521
72.1455 51.8506 2
69.9759 56.25 2
68.8387 53.1194 2
64.0165 64.0165 2
66.6121 57.1414 2
63.8869 60.7718 2
63.5054 57.7864 2
62.2254 65.694 4
58.8938 65.4177 3.99294
69.7716 50.9936 3.98968
67.7855 55.1747 3.99097
66.6585 52.2194 3.98645
62.3369 62.4321 3.99285
64.6673 56.0452 3.98741
62.2061 59.4189 3.9878
61.8322 56.7016 3.98573
58.3339 68.6801 4
60.3285 67.2508 2
73.7221 47.2057 0
74.6784 42.3946 0
74.9197 39.9526 2
74.2794 44.8159 2
72.1708 42.086 2
73.0099 49.554 2
71.2522 46.5999 2
75 37.5 4
72.4079 39.8023 3.98884
71.7854 44.3541 3.98929
69.813 41.7918 3.98438
70.578 48.8167 3.98946
68.9218 46.0198 3.98495
74.6792 32.6053 0
73.7222 27.7943 0
67.2507 14.6715 0
72.1454 23.1494 0
70.6167 26.2179 0.0108715
68.8877 21.9517 0.00986429
66.6384 17.964 0.00849256
65.8046 21.0132 0.01338
74.9197 35.0474 2
74.2794 30.1841 2
72.1872 32.9423 2
71.2807 28.4295 2
65.694 12.7745 2
65.3249 16.0962 2
69.818 24.055 2
68.3554 26.9452 2
64.7202 19.1808 2
66.7708 22.9233 2
63.9003 22.0178 2
72.4157 35.2233 3.98884
71.8065 30.6747 3.98912
69.8484 33.266 3.98419
68.9747 29.0334 3.98428
67.62 24.904 3.9857
66.2097 27.6244 3.98309
64.0165 10.9835 4
64.7712 23.8147 3.98448
63.891 14.3214 3.99254
63.5179 17.4316 3.98756
62.9186 20.3006 3.98509
62.1119 22.9207 3.9839
60.6842 11.0935 3.99271
57.6125 11.4376 3.98807
72.1454 51.8506 0
69.9759 56.25 0
68.8387 53.1194 0.00980874
64.0165 64.0165 0
63.8869 60.7717 0.00738273
66.612 57.1413 0.00835005
63.5054 57.7863 0.0126276
62.2255 65.694 2
58.8939 65.4179 2
69.7717 50.9935 2
67.7855 55.1748 2
66.6586 52.2193 2
62.337 62.4323 2
64.6674 56.0452 2
62.2062 59.4191 2
61.8323 56.7016 2
60.6688 63.9811 3.99288
57.0242 66.738 3.99307
57.5577 63.6999 3.98841
67.517 50.1851 3.98587
65.71 54.1854 3.98713
64.5536 51.4014 3.98438
60.7749 60.9508 3.98828
62.8318 55.0876 3.98592
60.6649 58.1792 3.98574
60.3405 55.8107 3.98494
56.25 69.9759 4
58.3339 68.6801 2
60.3285 67.2507 0
58.9211 9.65215 3.9928
62.2254 9.30607 4
73.0099 49.554 0
74.2788 44.8158 0
71.2522 46.6001 0.0105887
72.1709 42.0863 0.0109769
74.9194 39.9526 0
75 37.5 2
72.4078 39.8021 2
71.7853 44.3539 2
69.8128 41.7916 2
70.5781 48.8165 2
68.9217 46.0195 2
72.4912 37.5117 3.9888
70.0495 39.6582 3.98377
69.4397 43.911 3.98474
67.6132 41.5018 3.98235
68.2755 48.1138 3.98536
66.7265 45.4486 3.98323
74.9197 35.0474 0
74.2794 30.1841 0
72.1873 32.942 0.0109575
71.2808 28.4292 0.0110492
65.694 12.7746 0
65.3248 16.0963 0.00780992
69.818 24.0549 0.0103892
68.3555 26.9452 0.0150821
66.7708 22.9233 0.0137558
64.7201 19.1807 0.0129415
63.9005 22.0176 0.0152346
72.4156 35.2236 2
71.8064 30.6749 2
69.8482 33.2661 2
68.9746 29.0335 2
64.0165 10.9835 2
63.8911 14.3213 2
63.5179 17.4316 2
67.6199 24.904 2
66.2094 27.6244 2
62.9185 20.3008 2
64.7711 23.8149 2
62.1117 22.921 2
60.6843 11.0934 2
57.6126 11.4374 2
70.0662 35.3906 3.98403
69.4756 31.146 3.98421
67.6704 33.5866 3.98211
66.7872 29.6148 3.98239
65.5392 25.6865 3.98389
64.1678 28.2414 3.98244
62.3423 12.6502 3.99266
62.8777 24.6171 3.98379
62.2017 15.7701 3.98791
61.8224 18.6643 3.98567
61.234 21.3174 3.98388
60.45 23.7013 3.98373
59.247 12.7674 3.98804
55.874 10.2253 3.98835
56.4065 13.1 3.98532
69.7716 50.9936 0.0103236
62.2254 65.694 0
58.8938 65.4177 0.0070568
67.7855 55.1747 0.00902898
66.6585 52.2194 0.0135467
62.3369 62.4321 0.00714564
62.2061 59.4189 0.0122002
64.6673 56.0452 0.0125908
61.8322 56.7016 0.0142702
60.6689 63.9812 2
57.0243 66.7381 2
57.5578 63.7002 2
67.517 50.1849 2
65.7101 54.1854 2
64.5536 51.4013 2
60.7749 60.951 2
62.832 55.0876 2
60.6651 58.1793 2
60.3407 55.8106 2
55.0697 67.9344 3.99322
59.2201 62.3768 3.98836
55.8035 64.916 3.98855
56.3281 62.1009 3.98585
65.3485 49.4219 3.98391
63.7203 53.3107 3.98534
62.4645 50.6731 3.98331
59.3373 59.5741 3.98608
61.093 54.3335 3.98518
59.2984 57.0365 3.98444
59.2569 55.2105 3.9851
48.1017 68.5813 3.98954
50.9477 69.9333 3.99351
54.0858 71.1327 4
56.25 69.976 2
58.3339 68.6801 0
57.0581 8.33245 3.99301
60.3285 7.74928 4
58.9212 9.65208 2
62.2255 9.30602 2
70.578 48.8167 0.0105398
71.7854 44.3541 0.0107116
68.9218 46.0198 0.0150472
69.813 41.7918 0.0156187
72.4079 39.8023 0.011157
75 37.5 0
72.4911 37.5118 2
70.0493 39.658 2
69.4395 43.9107 2
67.6128 41.5017 2
68.2756 48.1135 2
66.7263 45.4485 2
70.1375 37.5212 3.98368
67.8495 39.5142 3.98183
67.24 43.4764 3.98282
65.5787 41.2159 3.9817
66.0856 47.4291 3.98359
64.676 44.8605 3.98259
72.4157 35.2233 0.0111568
71.8065 30.6747 0.0108827
69.8484 33.266 0.015814
68.9747 29.0334 0.0157222
64.0165 10.9835 0
63.891 14.3214 0.00745685
63.5179 17.4316 0.0124367
67.62 24.904 0.0143034
66.2097 27.6244 0.0169084
64.7712 23.8147 0.0155205
62.9186 20.3006 0.0149055
62.1119 22.9207 0.0160988
60.6842 11.0935 0.00729132
57.6125 11.4376 0.0119322
70.0659 35.3906 2
69.4755 31.1461 2
67.6701 33.5865 2
66.7869 29.6147 2
62.3424 12.6502 2
62.2017 15.77 2
61.8225 18.6644 2
65.539 25.6866 2
64.1674 28.2414 2
61.2339 21.3177 2
62.8774 24.6174 2
60.4496 23.7017 2
59.2471 12.7673 2
56.4066 13.0999 2
55.8741 10.225 2
67.8855 35.5451 3.98211
67.2804 31.6161 3.98226
65.719 33.9215 3.98146
64.6843 30.181 3.98136
63.5597 26.397 3.98323
62.285 28.7604 3.98276
60.7767 14.2104 3.98803
61.0717 25.3139 3.98369
60.6182 17.1088 3.98604
60.2348 19.7921 3.98446
59.682 22.2308 3.98306
59.007 24.2916 3.98399
54.037 9.12923 3.98883
57.9124 14.3168 3.98568
54.7873 12.001 3.98523
55.3147 14.631 3.98422
67.517 50.1851 0.014134
57.0242 66.738 0.00692819
60.6688 63.9811 0.00712366
57.5577 63.6999 0.0115909
65.71 54.1854 0.012872
64.5536 51.4014 0.0156159
60.7749 60.9508 0.0117181
60.6649 58.1792 0.0142606
62.8318 55.0876 0.0140751
60.3405 55.8107 0.0150551
55.0698 67.9346 2
59.2201 62.3771 2
55.8036 64.9163 2
56.3282 62.1011 2
65.3484 49.4218 2
63.7204 53.3106 2
62.4644 50.6729 2
59.3374 59.5743 2
61.0931 54.3334 2
59.2985 57.0366 2
59.2571 55.2104 2
53.0416 69.0018 3.99337
53.9655 66.0174 3.98875
57.8831 60.8841 3.98599
54.6838 63.2149 3.98591
55.2137 60.6287 3.98462
63.2183 48.6795 3.98308
61.7616 52.5984 3.98439
60.3031 50.0444 3.98269
58.0239 58.2814 3.98487
59.3458 53.9751 3.98448
58.1387 55.8403 3.98328
50.108 67.8596 3.98925
47.462 66.5845 3.98661
46.0557 69.1605 3.98979
48.1018 68.5817 2
48.8021 70.7243 3.99365
50.9478 69.9335 2
51.8506 72.1454 4
54.0858 71.1327 2
56.25 69.9759 0
55.1024 7.13734 3.99323
58.3339 6.31992 4
57.0582 8.33234 2
60.3286 7.74926 2
58.9211 9.65215 0.00720176
62.2254 9.30607 0
68.2755 48.1138 0.0146396
69.4397 43.911 0.0152557
66.7265 45.4486 0.0167719
67.6132 41.5018 0.0176491
70.0495 39.6582 0.0162294
72.4912 37.5117 0.0111996
70.1372 37.5211 2
67.8491 39.5142 2
67.2397 43.4763 2
65.5782 41.2159 2
66.0855 47.429 2
64.6756 44.8604 2
67.9456 37.5217 3.98162
65.8096 39.3732 3.9814
65.1993 43.0345 3.98202
63.7849 40.9372 3.98176
63.9897 46.7319 3.98288
62.8377 44.2311 3.98287
70.0662 35.3906 0.0159677
69.4756 31.146 0.0157945
67.6704 33.5866 0.0178941
66.7872 29.6148 0.0176106
62.3423 12.6502 0.0073355
62.2017 15.7701 0.0120887
61.8224 18.6643 0.0143302
65.5392 25.6865 0.0161124
64.1678 28.2414 0.0175577
62.8777 24.6171 0.0162108
61.234 21.3174 0.0161234
60.45 23.7013 0.0162749
59.247 12.7674 0.0119593
56.4065 13.1 0.0146762
55.874 10.2253 0.0116532
67.8851 35.545 2
67.2801 31.6161 2
65.7186 33.9213 2
64.6839 30.1809 2
60.7767 14.2103 2
60.6183 17.1088 2
60.2349 19.7923 2
63.5593 26.3971 2
62.2844 28.7605 2
59.6818 22.2313 2
61.0712 25.3142 2
59.0064 24.2922 2
57.9124 14.3167 2
55.3148 14.631 2
54.037 9.12889 2
54.7873 12.0007 2
65.898 35.6637 3.98135
65.2078 32.1459 3.98117
64.3105 34.2436 3.98059
62.623 30.6217 3.98151
61.6791 27.0514 3.98314
60.8829 29.1211 3.9841
59.3137 15.652 3.98596
59.363 25.7699 3.98452
59.1311 18.3333 3.98516
58.7558 20.827 3.98331
58.3098 23.0625 3.98241
57.9995 24.6351 3.98477
52.1117 8.14802 3.98933
53.058 11.0081 3.98563
56.6794 15.7251 3.98488
53.8109 13.6683 3.98359
54.379 15.9823 3.98396
55.0697 67.9344 0.00678152
65.3485 49.4219 0.0160942
55.8035 64.916 0.0114482
59.2201 62.3768 0.0116397
56.3281 62.1009 0.0141483
63.7203 53.3107 0.0146607
62.4645 50.6731 0.0166934
59.3373 59.5741 0.0139208
59.2984 57.0365 0.0155599
61.093 54.3335 0.0148191
59.2569 55.2105 0.0148963
53.0418 69.002 2
53.9655 66.0176 2
57.8832 60.8844 2
54.6839 63.2152 2
55.2138 60.6289 2
63.2181 48.6793 2
61.7617 52.5983 2
60.3029 50.0441 2
58.0241 58.2815 2
59.3459 53.9749 2
58.1389 55.8402 2
52.0689 67.0032 3.98898
52.9526 64.2239 3.98597
56.6519 59.5051 3.98499
53.6821 61.6311 3.98458
54.2631 59.3354 3.98398
61.0255 47.9032 3.98258
59.7349 52.1324 3.984
58.0611 49.646 3.98316
56.7846 57.0115 3.98341
57.1391 54.1529 3.98286
50.1081 67.86 2
49.3357 65.9248 3.98629
47.4621 66.5849 2
46.8915 64.74 3.98476
45.5573 67.1019 3.98697
43.9731 69.5931 3.98992
46.0558 69.1609 2
46.609 71.3687 3.99376
48.1017 68.5813 0.0104587
48.8022 70.7246 2
49.554 73.0099 4
50.9477 69.9333 0.00649367
51.8506 72.1455 2
54.0858 71.1327 0
53.0636 6.06902 3.99352
55.1026 7.13717 2
56.25 5.02411 4
58.3339 6.3199 2
57.0581 8.33245 0.00699415
60.3285 7.74928 0
66.0856 47.4291 0.0164074
67.24 43.4764 0.0171827
64.676 44.8605 0.0174052
65.5787 41.2159 0.0182951
67.8495 39.5142 0.0181659
70.1375 37.5212 0.0163188
67.9451 37.5216 2
65.809 39.3732 2
65.1989 43.0344 2
63.7844 40.9371 2
63.9894 46.7318 2
62.8373 44.2309 2
65.9121 37.5017 3.98105
63.9288 39.2708 3.98145
63.359 42.5612 3.98191
62.4662 40.7064 3.98124
61.9992 45.9378 3.98292
61.488 43.6997 3.98426
67.8855 35.5451 0.0178863
67.2804 31.6161 0.0177394
65.719 33.9215 0.0185439
64.6843 30.181 0.0186441
60.7767 14.2104 0.0119688
60.6182 17.1088 0.0139613
60.2348 19.7921 0.0155406
63.5597 26.397 0.0167662
62.285 28.7604 0.0172447
61.0717 25.3139 0.016309
59.682 22.2308 0.016937
59.007 24.2916 0.0160058
57.9124 14.3168 0.0143193
55.3147 14.631 0.0157768
54.037 9.12923 0.011171
54.7873 12.001 0.0147743
65.8975 35.6636 2
65.2073 32.1457 2
64.3099 34.2434 2
62.6223 30.6216 2
59.3138 15.652 2
59.1313 18.3334 2
58.7558 20.8273 2
61.6786 27.0516 2
60.8822 29.1212 2
58.3093 23.0632 2
59.3623 25.7704 2
57.9988 24.6358 2
56.6794 15.7251 2
54.379 15.9824 2
53.811 13.6682 2
52.1118 8.14768 2
53.058 11.0077 2
64.1186 35.6289 3.9807
62.96 33.0365 3.98032
60.6497 30.5949 3.98225
59.608 27.8869 3.98392
57.9436 16.9638 3.98522
57.7753 25.697 3.9856
57.7247 19.4517 3.98429
57.3901 21.8116 3.98191
57.2151 23.9166 3.98237
50.1119 7.28029 3.98983
51.2322 10.1168 3.98609
52.1728 12.7867 3.98359
55.5408 16.9538 3.98454
52.9796 15.2502 3.9827
53.7612 16.964 3.98402
53.0416 69.0018 0.00663053
53.9655 66.0174 0.0112549
63.2183 48.6795 0.0169206
54.6838 63.2149 0.0140869
57.8831 60.8841 0.0140059
55.2137 60.6287 0.0153766
61.7616 52.5984 0.0156074
60.3031 50.0444 0.017306
58.0239 58.2814 0.0151256
58.1387 55.8403 0.0167244
59.3458 53.9751 0.0155246
52.069 67.0035 2
52.9526 64.2242 2
56.6521 59.5053 2
53.6821 61.6314 2
54.2632 59.3356 2
61.0252 47.9028 2
59.735 52.1321 2
58.0609 49.6454 2
56.7848 57.0116 2
57.1393 54.1526 2
51.1668 65.1321 3.98606
52.0461 62.5445 3.98435
55.485 58.2679 3.98434
52.8363 60.1453 3.98397
53.6435 58.4861 3.98391
58.349 46.8744 3.98428
57.5891 51.8171 3.98281
56.2866 49.5843 3.98431
55.4823 55.82 3.98217
55.3786 53.413 3.9807
50.108 67.8596 0.0107492
49.3358 65.9252 2
48.6174 64.1262 3.98457
47.462 66.5845 0.0133854
45.5573 67.1024 2
46.8915 64.7403 2
46.3812 63.057 3.98351
45.1317 65.2018 3.98498
43.6306 67.473 3.98723
41.8606 69.8808 3.99002
43.9731 69.5935 2
44.3765 71.8636 3.99386
46.0557 69.1605 0.010215
46.609 71.3689 2
47.2057 73.7222 4
48.8021 70.7243 0.0063506
49.554 73.0099 2
51.8506 72.1454 0
50.9534 5.12955 3.99373
53.0637 6.06881 2
54.0858 3.86728 4
55.1024 7.13734 0.00677275
56.25 5.02406 2
58.3339 6.31992 0
63.9897 46.7319 0.0171249
65.1993 43.0345 0.0179822
62.8377 44.2311 0.017134
63.7849 40.9372 0.0182388
65.8096 39.3732 0.0185954
67.9456 37.5217 0.018382
65.9116 37.5016 2
63.9282 39.2707 2
63.3585 42.5611 2
62.4655 40.7063 2
61.9988 45.9376 2
61.4874 43.6995 2
63.9888 37.4572 3.98142
62.1953 39.3602 3.98136
61.2577 41.9718 3.9822
60.2901 44.7902 3.98469
65.898 35.6637 0.0186544
65.2078 32.1459 0.0188278
64.3105 34.2436 0.0194115
62.623 30.6217 0.018491
59.3137 15.652 0.0140421
59.1311 18.3333 0.0148379
58.7558 20.827 0.016686
61.6791 27.0514 0.0168577
60.8829 29.1211 0.0158971
59.363 25.7699 0.015479
58.3098 23.0625 0.0175946
57.9995 24.6351 0.0152272
56.6794 15.7251 0.0151216
54.379 15.9823 0.0160406
53.8109 13.6683 0.0164146
52.1117 8.14802 0.0106695
53.058 11.0081 0.0143688
64.118 35.6287 2
62.9593 33.0364 2
60.6489 30.5948 2
57.9437 16.9639 2
57.7248 19.4519 2
57.3899 21.8121 2
59.6071 27.8871 2
57.2145 23.9174 2
57.7745 25.6976 2
50.112 7.27997 2
55.5409 16.9539 2
53.7613 16.9642 2
52.9797 15.2502 2
52.1729 12.7864 2
51.2323 10.1165 2
62.226 35.3544 3.98057
60.3306 32.7329 3.97982
58.6651 30.0543 3.98324
57.3347 27.3537 3.985
56.6413 18.1351 3.98477
56.3281 25.0718 3.98348
56.3697 20.4962 3.98289
56.1328 22.8396 3.98056
48.0559 6.52377 3.99006
49.3241 9.32482 3.98681
50.4335 11.9852 3.98411
51.3792 14.4875 3.98194
54.4189 17.9028 3.98388
52.3637 17.0221 3.98245
52.0689 67.0032 0.0110183
52.9526 64.2239 0.0140285
61.0255 47.9032 0.0174215
53.6821 61.6311 0.0154209
56.6519 59.5051 0.0150113
54.2631 59.3354 0.0160186
59.7349 52.1324 0.0160007
58.0611 49.646 0.0168424
56.7846 57.0115 0.0165868
57.1391 54.1529 0.0171408
51.1668 65.1324 2
52.0462 62.5447 2
55.4852 58.2681 2
52.8363 60.1455 2
53.6437 58.4864 2
58.3484 46.8738 2
57.5891 51.8166 2
56.2864 49.5835 2
55.4826 55.82 2
55.3789 53.4127 2
50.3457 63.3848 3.98436
51.2449 60.9414 3.98316
54.2245 57.283 3.98335
52.3152 58.6459 3.98325
56.7761 44.2064 3.98598
55.5419 47.9238 3.98372
55.1016 51.4203 3.98045
54.019 54.5724 3.98001
49.3357 65.9248 0.0137075
48.6174 64.1266 2
47.9617 62.4779 3.98349
45.5573 67.1019 0.013025
46.8915 64.74 0.0152365
43.6307 67.4734 2
46.3813 63.0573 2
45.1318 65.2022 2
45.987 61.589 3.98266
44.7664 63.4584 3.98357
43.3557 65.5117 3.98517
41.6631 67.6924 3.98744
39.7025 70.0282 3.99006
41.8606 69.8812 2
42.1111 72.2085 3.99391
43.9731 69.5931 0.0100786
44.3766 71.8638 2
44.8159 74.2794 4
46.609 71.3687 0.00623817
47.2057 73.7222 2
49.554 73.0099 0
48.784 4.32074 3.99388
50.9535 5.12934 2
51.8506 2.85458 4
53.0636 6.06902 0.00648338
54.0858 3.86728 2
56.25 5.02411 0
61.9992 45.9378 0.0170812
63.359 42.5612 0.0180864
61.488 43.6997 0.0157414
62.4662 40.7064 0.0187623
63.9288 39.2708 0.0185453
65.9121 37.5017 0.0189533
63.9882 37.4571 2
62.1946 39.3602 2
61.257 41.9716 2
60.2895 44.7898 2
62.0346 37.4448 3.98203
60.2968 39.8557 3.9811
59.045 42.9371 3.9843
64.1186 35.6289 0.0192995
62.96 33.0365 0.0196787
60.6497 30.5949 0.0177546
57.9436 16.9638 0.0147764
57.7247 19.4517 0.0157074
57.3901 21.8116 0.0180869
59.608 27.8869 0.0160793
57.7753 25.697 0.0143999
57.2151 23.9166 0.0176253
55.5408 16.9538 0.0154626
53.7612 16.964 0.0159778
52.9796 15.2502 0.0173038
50.1119 7.28029 0.0101693
52.1728 12.7867 0.0164122
51.2322 10.1168 0.0139054
62.2253 35.3543 2
60.3296 32.7328 2
58.664 30.0544 2
56.6414 18.1352 2
56.3698 20.4966 2
56.1324 22.8403 2
57.3337 27.3542 2
56.3272 25.0728 2
48.0559 6.52344 2
49.3241 9.32448 2
54.419 17.903 2
52.3638 17.0223 2
51.3793 14.4874 2
50.4335 11.9849 2
59.9425 35.1134 3.9807
58.0449 32.2525 3.98064
56.5974 29.3139 3.98479
55.4935 26.5698 3.98588
55.3487 19.1692 3.98397
54.961 24.0263 3.98031
55.0178 21.5371 3.98109
45.962 5.87906 3.99027
43.3735 7.4685 3.98812
47.3546 8.61887 3.98743
48.6001 11.2866 3.98445
49.715 13.7345 3.98291
50.6352 16.1225 3.98085
53.1292 18.6439 3.98329
51.306 18.0369 3.98265
51.1668 65.1321 0.0139356
52.0461 62.5445 0.0156498
58.349 46.8744 0.0157165
52.8363 60.1453 0.0160319
55.485 58.2679 0.0156622
53.6435 58.4861 0.0160866
57.5891 51.8171 0.017191
56.2866 49.5843 0.0156923
55.4823 55.82 0.0178338
55.3786 53.413 0.0192953
50.3457 63.3851 2
51.2449 60.9416 2
54.2248 57.2832 2
52.3153 58.6462 2
56.7751 44.2059 2
55.5414 47.9229 2
55.1016 51.4196 2
54.0193 54.5724 2
49.5918 61.7481 3.98323
55.7155 41.7254 3.98221
50.5683 59.3349 3.98205
52.1906 56.5051 3.98193
54.2536 45.587 3.98514
53.3898 49.3574 3.98109
52.6915 52.8799 3.97803
48.6174 64.1262 0.0154261
47.9617 62.4782 2
47.3291 61.012 3.98271
43.6306 67.473 0.0127688
45.1317 65.2018 0.0150196
46.3812 63.057 0.0164909
41.6631 67.6928 2
43.3557 65.5121 2
45.9869 61.5893 2
44.7664 63.4588 2
45.7658 60.6329 3.98185
44.4827 61.8386 3.98252
43.1456 63.7313 3.98374
41.5453 65.6499 3.98516
39.6325 67.7726 3.98749
37.5262 70.0535 3.99002
39.7025 70.0286 2
39.8179 72.4056 3.99389
41.8606 69.8808 0.00998436
42.1111 72.2087 2
42.3947 74.6792 4
44.3765 71.8636 0.0061354
44.8159 74.2794 2
47.2057 73.7222 0
43.8515 5.3562 3.99045
46.5701 3.64541 3.99406
48.784 4.32053 2
49.554 1.99015 4
50.9534 5.12955 0.0062744
51.8506 2.85453 2
54.0858 3.86728 0
60.2901 44.7902 0.0153055
61.2577 41.9718 0.0177981
62.1953 39.3602 0.0186386
63.9888 37.4572 0.0185777
62.0339 37.4448 2
60.2959 39.8557 2
59.0441 42.9368 2
59.8186 37.5675 3.98306
58.0647 40.6719 3.98194
55.2024 39.7314 3.98324
62.226 35.3544 0.0194303
60.3306 32.7329 0.0201759
58.6651 30.0543 0.016763
56.6413 18.1351 0.015225
56.3697 20.4962 0.0171105
56.1328 22.8396 0.0194398
57.3347 27.3537 0.0149957
56.3281 25.0718 0.0165168
54.4189 17.9028 0.0161166
52.3637 17.0221 0.0175488
51.3792 14.4875 0.01806
48.0559 6.52377 0.0099437
49.3241 9.32482 0.0131851
50.4335 11.9852 0.0158931
59.9417 35.1132 2
45.962 5.87872 2
43.3735 7.46818 2
58.0437 32.2523 2
56.596 29.3142 2
55.3488 19.1694 2
55.0177 21.5377 2
54.9604 24.0273 2
55.4923 26.5709 2
47.3547 8.61849 2
48.6001 11.2863 2
53.1293 18.6442 2
51.3061 18.0371 2
50.6353 16.1225 2
49.715 13.7343 2
57.4624 34.7514 3.98044
55.79 31.495 3.98227
54.5727 28.3754 3.98778
53.8137 25.4668 3.98199
53.9767 20.1173 3.98319
53.6026 22.6827 3.97848
41.3987 7.07382 3.98822
45.3595 7.9904 3.98781
42.8654 9.40974 3.98624
46.6663 10.6473 3.98529
47.7458 13.095 3.98284
48.9327 15.3926 3.98172
50.0082 17.692 3.97971
51.6577 19.3148 3.98275
50.3457 63.3848 0.0156351
51.2449 60.9414 0.0168403
56.7761 44.2064 0.0140166
55.5419 47.9238 0.0162785
52.3152 58.6459 0.0167544
54.2245 57.283 0.0166533
55.1016 51.4203 0.0195524
54.019 54.5724 0.0199918
49.5918 61.7484 2
55.714 41.7252 2
50.5683 59.3351 2
52.1909 56.5054 2
54.2525 45.5861 2
53.3895 49.356 2
52.6919 52.8796 2
48.8493 60.2051 3.9825
52.6288 42.6595 3.98478
49.7917 57.6347 3.98179
50.6084 54.4389 3.97955
51.8924 47.2928 3.98092
51.2541 50.9723 3.9766
48.3361 43.7264 3.97486
47.9617 62.4779 0.0165124
47.3291 61.0122 2
46.6186 59.7979 3.98186
41.6631 67.6924 0.012563
43.3557 65.5117 0.0148334
44.7664 63.4584 0.0164326
45.987 61.589 0.0173394
39.6325 67.7731 2
41.5453 65.6504 2
45.7658 60.6331 2
43.1456 63.7317 2
44.4827 61.8389 2
44.6229 60.2948 3.98152
42.9498 62.0876 3.98217
41.599 63.8249 3.98359
39.647 65.6188 3.98517
37.5634 67.7553 3.98738
31.6981 65.1375 3.98526
33.3929 67.4927 3.98733
35.3337 69.9636 3.98997
37.5262 70.054 2
37.5097 72.4603 3.99385
39.7025 70.0282 0.00994182
39.8179 72.4059 2
39.9526 74.9197 4
42.1111 72.2085 0.00609149
42.3947 74.6792 2
44.8159 74.2794 0
41.7362 4.96537 3.9906
43.8515 5.35588 2
44.3255 3.10877 3.99418
46.5701 3.64519 2
47.2057 1.27793 4
48.784 4.32074 0.00611862
49.554 1.99013 2
51.8506 2.85458 0
59.045 42.9371 0.0156984
60.2968 39.8557 0.018902
62.0346 37.4448 0.0179672
59.8178 37.5674 2
58.0636 40.6719 2
55.2011 39.7312 2
56.9086 37.9005 3.98334
49.7939 41.2936 3.98219
53.2506 39.3152 3.98774
39.4421 6.79737 3.98844
59.9425 35.1134 0.019303
58.0449 32.2525 0.0193632
56.5974 29.3139 0.0152127
55.3487 19.1692 0.0160276
55.0178 21.5371 0.0189127
54.961 24.0263 0.0196888
55.4935 26.5698 0.014117
53.1292 18.6439 0.0167148
51.306 18.0369 0.0173475
50.6352 16.1225 0.0191533
45.962 5.87906 0.00973051
49.715 13.7345 0.0170932
47.3546 8.61887 0.0125724
48.6001 11.2866 0.0155453
43.3735 7.4685 0.0118772
57.4613 34.7512 2
41.3987 7.07346 2
45.3595 7.99007 2
42.8654 9.40941 2
55.7884 31.4949 2
54.5709 28.3761 2
53.9769 20.1177 2
53.6023 22.6836 2
53.8126 25.4682 2
46.6663 10.6469 2
47.7458 13.0947 2
51.6579 19.3151 2
50.0083 17.6921 2
48.9328 15.3923 2
54.9714 33.9552 3.98016
53.5715 30.4575 3.98785
52.649 27.1695 3.98451
52.1759 24.0581 3.97971
52.4033 21.0548 3.98131
41.0135 9.04302 3.9865
44.7235 9.98993 3.98583
42.4681 10.8962 3.98464
46.0052 12.7223 3.98322
47.6823 14.577 3.98223
48.1148 16.9803 3.97988
49.8206 19.589 3.979
49.5918 61.7481 0.016768
50.5683 59.3349 0.0179518
55.7155 41.7254 0.017793
54.2536 45.587 0.0148635
53.3898 49.3574 0.0189095
52.1906 56.5051 0.0180654
52.6915 52.8799 0.021972
48.8493 60.2054 2
52.627 42.6591 2
49.7918 57.6349 2
50.6089 54.4392 2
51.8914 47.2909 2
51.2544 50.9707 2
48.3324 43.7266 2
47.9874 58.7467 3.98168
50.2185 45.2827 3.97957
48.6041 55.9247 3.98113
49.1543 52.6151 3.97899
49.7318 49.0687 3.97592
46.2009 39.9111 3.91934
46.5836 42.7739 3.99241
46.6347 45.7215 3.97603
44.0531 41.2539 3.97945
42.0984 41.991 3.97933
47.3291 61.012 0.0172911
46.6185 59.7981 2
45.468 58.7932 3.98036
39.6325 67.7726 0.012505
41.5453 65.6499 0.014841
43.1456 63.7313 0.0162606
44.4827 61.8386 0.0174788
45.7658 60.6329 0.0181543
41.599 63.8253 2
37.5634 67.7557 2
39.6471 65.6192 2
44.6229 60.295 2
42.9498 62.0879 2
41.7527 62.4988 3.98234
42.4802 59.9857 3.98097
39.8926 63.56 3.98304
37.6421 65.5181 3.98524
35.4638 67.6646 3.98736
33.576 65.3512 3.98534
31.9603 63.3092 3.98362
29.8843 64.728 3.98493
31.698 65.1379 2
31.3777 67.2023 3.98726
33.3928 67.4932 2
33.1567 69.7569 3.98989
35.3336 69.9641 2
35.1951 72.3747 3.9938
37.5262 70.0535 0.00998485
37.5097 72.4605 2
37.5 75 4
39.8179 72.4056 0.00610969
39.9526 74.9197 2
42.3947 74.6792 0
39.6238 4.7126 3.99068
41.7362 4.96504 2
42.0619 2.71642 3.99434
43.8515 5.3562 0.0095454
44.3255 3.10854 2
44.8158 0.721173 4
46.5701 3.64541 0.00594182
47.2057 1.27779 2
49.554 1.99015 0
58.0647 40.6719 0.018058
59.8186 37.5675 0.0169429
55.2024 39.7314 0.0167638
49.792 41.2935 2
56.9076 37.9004 2
53.2492 39.3148 2
54.1036 36.6237 3.98305
47.7154 40.4584 3.99769
50.7457 38.4813 3.98555
37.516 6.66856 3.98849
39.4421 6.79698 2
39.2111 8.68553 3.98657
35.9415 8.48528 3.98676
57.4624 34.7514 0.0195558
55.79 31.495 0.0177251
54.5727 28.3754 0.0122159
53.9767 20.1173 0.0168101
53.6026 22.6827 0.0215162
53.8137 25.4668 0.0180094
51.6577 19.3148 0.0172535
50.0082 17.692 0.0202863
48.9327 15.3926 0.0182776
45.3595 7.9904 0.0121899
47.7458 13.095 0.0171554
46.6663 10.6473 0.0147118
41.3987 7.07382 0.0117768
42.8654 9.40974 0.0137552
54.97 33.9549 2
41.0134 9.04264 2
44.7235 9.98962 2
42.4681 10.8958 2
53.5694 30.4567 2
52.6473 27.1712 2
52.4034 21.0553 2
52.1753 24.0596 2
46.0052 12.7221 2
47.6824 14.5768 2
49.8208 19.5893 2
48.1149 16.9802 2
52.5206 32.8471 3.98258
51.4254 29.1298 3.98885
50.8412 25.6965 3.97791
49.9528 22.1634 3.98024
40.569 11.5997 3.98417
43.8579 11.9113 3.98392
45.803 15.4127 3.98151
47.5063 19.2145 3.97924
46.5279 37.5053 3.91957
48.8493 60.2051 0.0174964
49.7917 57.6347 0.0182064
52.6288 42.6595 0.0152157
51.8924 47.2928 0.0190752
51.2541 50.9723 0.0234011
50.6084 54.4389 0.0204464
48.3361 43.7264 0.0251414
47.9874 58.7469 2
50.2164 45.2812 2
48.6043 55.9248 2
49.1547 52.6159 2
49.7314 49.0666 2
46.2013 39.9136 2
46.5913 42.7774 2
46.6316 45.7176 2
44.0572 41.2511 2
42.1039 41.994 2
46.8399 57.3482 3.98206
44.8146 39.5094 3.96972
42.4663 40.8665 3.9898
48.1835 47.2615 3.98118
47.1803 54.2562 3.98169
47.6284 50.7763 3.97834
44.9028 47.3365 3.97426
45.2693 42.0309 3.92556
45.0414 44.6628 3.98788
42.8439 42.7479 3.97406
40.9492 42.3583 3.97598
46.6186 59.7979 0.0181419
45.4679 58.7932 2
43.8756 57.7153 3.97973
37.5634 67.7553 0.0126201
39.647 65.6188 0.0148292
41.599 63.8249 0.0164105
42.9498 62.0876 0.0178313
44.6229 60.2948 0.0184759
35.4638 67.6651 2
41.7527 62.4991 2
39.8926 63.5604 2
37.6421 65.5185 2
42.4802 59.986 2
40.6224 61.6562 3.98234
40.4436 58.2134 3.97877
37.8363 63.2217 3.98327
35.5733 65.4404 3.98523
33.576 65.3516 2
31.9603 63.3096 2
33.6296 63.3492 3.98376
30.3793 62.8671 3.98331
32.1235 62.0145 3.98223
26.8682 61.5092 3.98244
28.0631 64.1553 3.98449
29.8843 64.7284 2
29.4075 66.7657 3.98696
31.6981 65.1375 0.0147424
31.3777 67.2027 2
31.0141 69.4218 3.9898
33.3929 67.4927 0.0126749
33.1566 69.7573 2
32.8923 72.1489 3.99378
35.3337 69.9636 0.0100302
35.1951 72.3749 2
35.0474 74.9194 4
37.5097 72.4603 0.00615024
37.5 75 2
39.9526 74.9197 0
35.6206 6.71955 3.98845
37.523 4.61218 3.99067
39.6238 4.71226 2
39.7885 2.47293 3.99441
41.7362 4.96537 0.00940374
42.062 2.71618 2
42.3946 0.32156 4
44.3255 3.10877 0.00581557
44.8159 0.72056 2
47.2057 1.27793 0
49.7939 41.2936 0.0178132
56.9086 37.9005 0.0166622
53.2506 39.3152 0.012257
47.7133 40.4544 2
50.7438 38.4816 2
54.1024 36.6237 2
51.5274 35.5658 3.97214
48.379 37.7586 4.00185
46.1922 35.1014 3.92214
44.0444 33.7595 3.97929
42.0859 33.0327 3.9822
37.4578 8.52717 3.98669
37.516 6.66819 2
39.4421 6.79737 0.0115598
39.2111 8.68511 2
38.976 10.1179 3.9858
35.8979 9.76463 3.98584
34.1498 8.81464 3.9866
35.9414 8.48491 2
54.9714 33.9552 0.0198446
53.5715 30.4575 0.0121527
52.649 27.1695 0.015492
52.4033 21.0548 0.0186912
52.1759 24.0581 0.0202935
49.8206 19.589 0.0210002
48.1148 16.9803 0.0201154
47.6823 14.577 0.0177666
44.7235 9.98993 0.0141651
46.0052 12.7223 0.0167819
41.0135 9.04302 0.0135034
42.4681 10.8962 0.0153585
52.5188 32.8461 2
40.5689 11.5994 2
43.8579 11.911 2
51.4229 29.1319 2
50.84 25.6986 2
49.953 22.1644 2
45.8031 15.4126 2
47.5064 19.2144 2
50.1329 31.3788 3.97737
49.3633 27.4542 3.97746
49.4395 24.3788 3.97766
47.1948 21.9173 3.97741
38.3014 12.7248 3.98315
42.1009 14.2961 3.98208
44.8018 18.4507 3.97958
45.0867 37.507 3.96508
46.5318 37.5065 2
47.9874 58.7467 0.0183159
48.6041 55.9247 0.0188742
50.2185 45.2827 0.0204273
49.7318 49.0687 0.024079
49.1543 52.6151 0.0210078
46.2009 39.9111 0.080663
46.5836 42.7739 0.00759305
46.6347 45.7215 0.0239737
44.0531 41.2539 0.0205455
42.0984 41.991 0.0206694
46.84 57.3484 2
44.8172 39.5057 2
42.4676 40.8665 2
48.1819 47.2596 2
47.1805 54.2562 2
47.6285 50.7759 2
44.9022 47.3272 2
45.2714 42.0329 2
45.054 44.6682 2
42.8538 42.7416 2
40.9544 42.3565 2
45.4006 55.9325 3.97926
42.7976 39.2619 3.98841
40.8971 40.8148 3.94895
46.1588 48.9378 3.98046
45.5681 52.5541 3.98433
43.5313 48.477 3.94688
43.4236 46.2117 4.00532
43.8055 43.8325 3.92359
41.3069 43.9014 3.9877
39.3144 42.6562 3.96643
45.468 58.7932 0.0196411
43.8755 57.7153 2
42.1062 56.336 3.97916
35.4638 67.6646 0.0126429
37.6421 65.5181 0.0147562
39.8926 63.56 0.0169638
41.7527 62.4988 0.0176553
42.4802 59.9857 0.0190327
35.5733 65.4408 2
40.6224 61.6565 2
37.8363 63.2221 2
40.4437 58.2135 2
38.925 56.5003 3.9788
38.25 60.3389 3.98146
35.6071 63.2155 3.9835
33.576 65.3512 0.0146567
31.9603 63.3092 0.0163756
33.6296 63.3495 2
30.3793 62.8675 2
32.1235 62.0148 2
28.6815 62.2115 3.98285
33.346 61.5269 3.98194
31.0661 61.2306 3.98191
27.566 59.6052 3.98216
23.7874 59.0994 3.98487
25.0327 60.8835 3.98316
26.8682 61.5094 2
26.2294 63.487 3.98405
28.063 64.1557 2
27.4642 66.1892 3.98656
29.8843 64.728 0.0150743
29.4074 66.7661 2
28.9067 68.9472 3.98967
31.3777 67.2023 0.0127365
31.014 69.4221 2
30.6147 71.7799 3.99374
33.1567 69.7569 0.0101142
32.8922 72.1491 2
32.6054 74.6784 4
35.1951 72.3747 0.00619935
35.0474 74.9197 2
37.5 75 0
33.7232 6.97404 3.98818
35.4345 4.68256 3.99062
35.6205 6.71915 2
37.5141 2.3856 3.99443
37.523 4.61184 2
39.6238 4.7126 0.00932457
39.7885 2.47269 2
39.9526 0.0806499 4
42.0619 2.71642 0.00566385
42.3947 0.320817 2
44.8158 0.721173 0
44.8133 35.5047 3.96948
42.4574 34.155 3.99181
47.7154 40.4584 0.00231364
50.7457 38.4813 0.0144468
54.1036 36.6237 0.0169465
48.3773 37.7583 2
51.5259 35.5656 2
46.189 35.0996 2
44.0504 33.7608 2
42.0907 33.0315 2
48.5461 34.2392 4.00618
45.2566 32.9827 3.92353
42.8352 32.2697 3.97613
40.9355 32.6743 3.97636
37.3099 10.621 3.98506
37.4577 8.52677 2
37.516 6.66856 0.01151
39.2111 8.68553 0.0134339
38.9759 10.1176 2
34.7531 10.3702 3.9851
35.8979 9.76432 2
32.3765 9.36106 3.98607
34.1498 8.81432 2
35.9415 8.48528 0.0132433
52.5206 32.8471 0.0174249
51.4254 29.1298 0.0111482
50.8412 25.6965 0.0220865
49.9528 22.1634 0.0197568
47.5063 19.2145 0.0207617
45.803 15.4127 0.018485
43.8579 11.9113 0.0160839
40.569 11.5997 0.015828
50.1302 31.3787 2
38.3014 12.7246 2
42.1008 14.2958 2
49.3612 27.4563 2
49.4389 24.38 2
47.1949 21.919 2
44.8018 18.4506 2
47.918 29.5893 3.97229
47.1422 25.1046 3.97937
44.2938 21.3068 3.97803
36.581 12.9211 3.98345
38.6802 14.7956 3.98215
41.7502 17.8268 3.9803
42.9232 37.5006 3.99139
45.0926 37.5067 2
46.5279 37.5053 0.0804307
46.8399 57.3482 0.0179357
47.1803 54.2562 0.0183067
48.1835 47.2615 0.0188161
47.6284 50.7763 0.0216559
44.8146 39.5094 0.0302811
45.2693 42.0309 0.0744378
45.0414 44.6628 0.0121232
44.9028 47.3365 0.0257364
42.8439 42.7479 0.0259449
42.4663 40.8665 0.0102042
40.9492 42.3583 0.0240156
45.4009 55.9326 2
42.7996 39.2614 2
40.8971 40.8147 2
46.1586 48.9351 2
45.5685 52.553 2
43.5308 48.4754 2
43.4553 46.2201 2
43.8071 43.8347 2
41.3103 43.8926 2
39.3165 42.6583 2
43.7412 54.4392 3.98283
40.9756 39.1876 3.94077
39.2354 40.8812 3.94253
43.7521 50.5292 3.99008
42.0329 47.7362 4.029
41.9451 45.2174 3.92314
39.5188 44.6547 3.97735
37.5038 42.7689 3.964
43.8756 57.7153 0.0202653
42.1062 56.3357 2
40.4203 54.9345 3.97869
35.5733 65.4404 0.0147746
37.8363 63.2217 0.0167285
40.6224 61.6562 0.0176572
40.4436 58.2134 0.0212276
35.607 63.2159 2
38.25 60.3392 2
38.9249 56.5014 2
37.9995 55.2528 3.97761
36.9343 57.6373 3.97886
35.3635 60.925 3.98206
33.6296 63.3492 0.0162447
30.3793 62.8671 0.0166865
32.1235 62.0145 0.0177731
33.346 61.5271 2
28.6814 62.2119 2
31.0662 61.2308 2
29.4017 60.2988 3.9812
32.3553 59.7566 3.98114
28.0177 58.3839 3.98352
27.5659 59.6054 2
25.3745 58.6086 3.98288
22.7495 58.2607 3.98244
23.3974 60.3653 3.98392
23.7873 59.0996 2
25.0326 60.8837 2
24.4313 62.78 3.98437
26.8682 61.5092 0.017561
26.2293 63.4874 2
25.5482 65.4989 3.98609
28.0631 64.1553 0.0155136
27.4641 66.1896 2
26.8366 68.3355 3.98947
29.4075 66.7657 0.0130387
28.9066 68.9475 2
28.37 71.2651 3.99368
31.0141 69.4218 0.0102035
30.6147 71.7802 2
30.1842 74.2788 4
32.8923 72.1489 0.00622096
32.6053 74.6792 2
35.0474 74.9194 0
31.7876 7.41345 3.98789
33.3465 4.92164 3.99048
33.7231 6.97368 2
35.2444 2.46175 3.99436
35.4344 4.68219 2
35.6206 6.71955 0.0115539
37.5 0 4
37.5141 2.38536 2
37.523 4.61218 0.00933182
39.7885 2.47293 0.00559467
39.9526 0.0802889 2
42.3946 0.32156 0
42.7962 35.7456 3.99028
44.8125 35.5069 2
40.8889 34.2173 3.95018
42.4605 34.1527 2
48.379 37.7586 -0.00184528
51.5274 35.5658 0.0278608
46.1922 35.1014 0.0778602
44.0444 33.7595 0.0207119
42.0859 33.0327 0.0178035
48.5446 34.2401 2
45.2578 32.9773 2
42.8425 32.2721 2
40.9397 32.6709 2
46.4794 31.4821 4.00088
43.792 31.1815 3.92425
41.2972 31.1273 3.98304
39.2968 32.3929 3.97433
35.6914 11.7655 3.98388
37.3099 10.6206 2
37.4578 8.52717 0.0133081
38.976 10.1179 0.0141969
33.0969 11.2067 3.98441
34.753 10.37 2
35.8979 9.76463 0.0141588
30.4812 10.0089 3.98562
32.3764 9.36081 2
34.1498 8.81464 0.0134016
50.1329 31.3788 0.0226267
49.3633 27.4542 0.0225417
49.4395 24.3788 0.0223433
47.1948 21.9173 0.0225939
44.8018 18.4507 0.0204198
42.1009 14.2961 0.0179246
38.3014 12.7248 0.0168474
36.581 12.921 2
47.9145 29.5914 2
38.6802 14.7957 2
41.75 17.8264 2
47.1413 25.1059 2
44.2938 21.3067 2
45.6595 27.8103 3.9745
43.8257 24.0408 3.98074
41.3449 20.7057 3.97911
35.7704 14.7462 3.98235
38.6809 17.5823 3.98122
41.0188 37.4983 3.93976
42.9275 37.5003 2
45.0867 37.507 0.0349168
45.4006 55.9325 0.0207447
45.5681 52.5541 0.0156709
46.1588 48.9378 0.019536
42.7976 39.2619 0.011586
43.8055 43.8325 0.0764061
43.4236 46.2117 -0.00532057
43.5313 48.477 0.0531234
41.3069 43.9014 0.0122983
40.8971 40.8148 0.0510542
39.3144 42.6562 0.0335697
43.7417 54.4392 2
40.9765 39.1869 2
39.235 40.8836 2
43.7515 50.5311 2
42.034 47.7373 2
41.951 45.218 2
37.5049 42.7721 2
39.5235 44.6578 2
41.8898 53.0024 3.98112
39.2309 39.1811 3.94206
37.5067 40.928 3.95298
35.6949 42.677 3.97069
40.9925 49.7486 3.99935
39.8298 46.0934 3.92942
37.4969 44.9349 3.97029
42.1062 56.336 0.0208414
40.4201 54.9343 2
38.7304 53.86 3.97982
35.6071 63.2155 0.0164965
38.25 60.3389 0.018544
38.925 56.5003 0.0212037
35.3635 60.9253 2
36.9342 57.6375 2
37.9993 55.2526 2
36.3185 55.3917 3.97882
34.4867 58.5332 3.98055
33.346 61.5269 0.0180601
28.6815 62.2115 0.0171513
31.0661 61.2306 0.0180887
32.3553 59.7567 2
29.4017 60.2991 2
30.2936 57.826 3.98124
28.0176 58.3841 2
26.9355 56.8364 3.98166
27.566 59.6052 0.0178376
25.3744 58.6088 2
23.8279 56.8261 3.98128
21.3239 57.424 3.98375
21.9886 59.6406 3.98454
22.7493 58.261 2
22.7343 62.0327 3.98452
23.3973 60.3655 2
23.7874 59.0994 0.0151259
25.0327 60.8835 0.0168376
24.4313 62.7803 2
23.6818 64.7174 3.98591
26.2294 63.487 0.0159452
25.5481 65.4993 2
24.8092 67.5967 3.9892
27.4642 66.1892 0.0134406
26.8365 68.3358 2
26.1654 70.6059 3.99359
28.9067 68.9472 0.0103297
28.3699 71.2653 2
27.7943 73.7221 4
30.6147 71.7799 0.00626163
30.1841 74.2794 2
32.6054 74.6784 0
29.8102 7.98643 3.98748
31.2516 5.32851 3.9903
31.7876 7.41313 2
32.9803 2.69981 3.99425
33.3464 4.92127 2
33.7232 6.97404 0.0118225
35.0474 0.080333 4
35.2444 2.4615 2
35.4345 4.68256 0.00937539
37.5 0 2
37.5141 2.3856 0.00557279
39.9526 0.0806499 0
40.9773 35.8209 3.94338
42.7956 35.7451 2
44.8133 35.5047 0.0305209
28.5421 10.6842 3.98504
39.2256 34.1647 3.94769
40.8899 34.2144 2
42.4574 34.155 0.00819422
48.5461 34.2392 -0.00617699
45.2566 32.9827 0.0764666
42.8352 32.2697 0.0238667
40.9355 32.6743 0.0236365
46.4843 31.4792 2
43.7917 31.1781 2
41.3041 31.1281 2
39.2996 32.3882 2
44.4725 29.6603 3.99467
41.9298 29.8096 3.92696
39.504 30.4042 3.97561
37.4833 32.2974 3.96399
34.091 12.9231 3.98315
35.6914 11.7653 2
37.3099 10.621 0.0149397
31.1849 11.9748 3.9841
33.0969 11.2065 2
34.7531 10.3702 0.0149008
30.4811 10.0086 2
32.3765 9.36106 0.013933
47.918 29.5893 0.0277063
47.1422 25.1046 0.0206305
36.581 12.9211 0.0165547
44.2938 21.3068 0.021975
41.7502 17.8268 0.0196971
38.6802 14.7956 0.0178526
35.7704 14.7463 2
45.6565 27.8162 2
38.6807 17.5832 2
41.3445 20.7049 2
43.825 24.0458 2
33.6058 15.8634 3.98242
43.1287 26.533 3.97864
40.9286 23.2792 3.98076
38.4228 20.3109 3.98074
35.8467 17.4961 3.98116
39.2386 37.5038 3.93997
41.0209 37.4971 2
42.9232 37.5006 0.00861293
43.7412 54.4392 0.0171664
43.7521 50.5292 0.00992055
40.9756 39.1876 0.0592324
41.9451 45.2174 0.0768567
42.0329 47.7362 -0.028997
39.5188 44.6547 0.0226454
39.2354 40.8812 0.0574653
37.5038 42.7689 0.0359956
41.8897 53.0033 2
39.2315 39.1821 2
37.506 40.931 2
40.9911 49.748 2
35.6937 42.678 2
39.8355 46.0979 2
37.4988 44.9365 2
39.8288 51.9119 3.98547
37.5028 39.2004 3.94101
35.7809 40.9051 3.93972
34.0602 42.3851 3.97689
35.471 44.6616 3.97261
38.7762 48.826 4.04114
37.5029 46.4022 3.92118
40.4203 54.9345 0.0213136
38.7302 53.8583 2
36.7169 53.2139 3.98251
35.3635 60.925 0.017942
36.9343 57.6373 0.0211355
37.9995 55.2528 0.0223929
34.4867 58.5332 2
36.3184 55.3915 2
33.2218 55.512 3.98056
32.3553 59.7566 0.018857
29.4017 60.2988 0.0187951
30.2936 57.8263 2
28.6732 55.3186 3.97908
28.0177 58.3839 0.0164796
26.9352 56.8367 2
25.2916 55.1634 3.98045
21.7899 55.375 3.98146
25.3745 58.6086 0.017119
23.8275 56.8262 2
20.2068 57.0564 3.98484
20.6383 58.8017 3.98489
21.3236 57.4242 2
21.1633 61.1852 3.98533
21.9885 59.6408 2
22.7495 58.2607 0.0175629
21.8946 63.8462 3.98597
22.7343 62.033 2
23.3974 60.3653 0.0160827
24.4313 62.78 0.0156328
23.6818 64.7177 2
22.8376 66.7407 3.98892
25.5482 65.4989 0.0139059
24.809 67.597 2
24.0098 69.8072 3.99347
26.8366 68.3355 0.0105268
26.1653 70.6062 2
25.446 73.0099 4
28.37 71.2651 0.00632044
27.7943 73.7222 2
30.1842 74.2788 0
27.8201 8.64578 3.98718
29.1537 5.874 3.99003
29.8101 7.98606 2
30.7256 3.09683 3.99412
31.2516 5.32817 2
31.7876 7.41345 0.0121147
32.6053 0.320823 4
32.9802 2.69957 2
33.3465 4.92164 0.0095191
35.0474 0.0802903 2
35.2444 2.46175 0.00563555
37.5 0 0
39.2338 35.839 3.94396
40.9764 35.8189 2
42.7962 35.7456 0.00971955
28.5421 10.6839 2
26.6211 11.3798 3.9846
29.2238 12.6319 3.9835
37.4952 34.1365 3.96092
39.2263 34.1605 2
40.8889 34.2173 0.0498242
46.4794 31.4821 -0.000882764
43.792 31.1815 0.0757509
41.2972 31.1273 0.0169619
39.2968 32.3929 0.0256719
44.4823 29.6537 2
41.9383 29.8068 2
39.5088 30.4001 2
37.4854 32.2912 2
42.3713 28.3521 3.99975
39.819 28.9523 3.92593
37.4736 30.1235 3.96004
35.6738 32.3915 3.97519
31.9124 14.4691 3.98251
34.091 12.9231 2
35.6914 11.7655 0.0161223
31.1849 11.9746 2
33.0969 11.2067 0.0155886
30.4812 10.0089 0.014378
45.6595 27.8103 0.0254975
43.8257 24.0408 0.0192603
35.7704 14.7462 0.0176496
41.3449 20.7057 0.0208861
38.6809 17.5823 0.0187786
33.6059 15.8636 2
35.8467 17.4963 2
43.1268 26.5405 2
38.4225 20.3131 2
40.9284 23.2789 2
33.5478 17.3727 3.98196
40.4924 25.6267 3.98223
38.085 22.8414 3.98712
35.5826 20.0648 3.98142
37.503 37.5192 3.9403
39.2402 37.5032 2
41.0188 37.4983 0.0602364
41.8898 53.0024 0.0188756
40.9925 49.7486 0.000647862
39.2309 39.1811 0.057944
39.8298 46.0934 0.0705768
37.4969 44.9349 0.0297122
37.5067 40.928 0.047023
35.6949 42.677 0.0293069
39.8292 51.9109 2
37.5036 39.2018 2
35.7798 40.9071 2
38.771 48.828 2
34.056 42.3856 2
35.4706 44.6611 2
37.4983 46.4107 2
37.666 51.0031 3.97395
35.7792 39.2082 3.93884
34.1252 40.8445 3.94678
32.9107 42.0198 3.98174
33.6834 43.9307 3.98281
35.1726 46.1084 3.92523
36.903 48.4343 4.03337
38.7304 53.86 0.0201763
36.7167 53.2134 2
34.3469 52.4814 3.98301
34.4867 58.5332 0.0194487
36.3185 55.3917 0.0211831
33.2216 55.5116 2
30.4972 53.4131 3.9799
30.2936 57.826 0.0187615
28.6728 55.3189 2
26.8527 53.4646 3.97805
26.9355 56.8364 0.0183372
25.291 55.1635 2
23.542 53.5118 3.97822
20.4358 53.2625 3.98091
19.9157 55.862 3.984
21.7894 55.375 2
23.8279 56.8261 0.018719
19.4289 57.9168 3.98471
20.2065 57.0565 2
19.7017 60.2215 3.98528
20.6381 58.8018 2
21.3239 57.424 0.0162464
20.2061 62.8691 3.9864
21.1633 61.1854 2
21.9886 59.6406 0.0154563
20.9388 65.7704 3.9888
21.8946 63.8464 2
22.7343 62.0327 0.0154757
23.6818 64.7174 0.0140929
22.8374 66.741 2
21.9125 68.8745 3.99332
24.8092 67.5967 0.0107951
24.0097 69.8074 2
23.1494 72.1454 4
26.1654 70.6059 0.00641288
25.446 73.0099 2
27.7943 73.7221 0
25.8595 9.37402 3.98655
27.0686 6.53781 3.9898
27.8201 8.64547 2
28.4878 3.64262 3.99395
29.1536 5.87365 2
29.8102 7.98643 0.0125159
30.1841 0.720592 4
30.7255 3.09661 2
31.2516 5.32851 0.00970212
32.6053 0.320817 2
32.9803 2.69981 0.00574705
35.0474 0.080333 0
37.5032 35.8455 3.94531
39.2331 35.8366 2
40.9773 35.8209 0.0566182
24.776 12.0632 3.98433
23.7494 14.3483 3.98349
28.5421 10.6842 0.0149634
26.6211 11.3796 2
29.2239 12.6317 2
27.2899 13.3654 3.98314
29.7784 14.1916 3.98261
35.7699 34.1597 3.94763
37.4958 34.1316 2
39.2256 34.1647 0.0523137
37.4833 32.2974 0.0360086
44.4725 29.6603 0.00533333
41.9298 29.8096 0.0730351
39.504 30.4042 0.0243912
42.3783 28.3429 2
39.8225 28.947 2
37.4759 30.1165 2
35.6753 32.3865 2
40.0491 27.5389 4.01469
37.4816 28.6662 3.92341
35.4447 30.4047 3.9742
34.0444 32.6751 3.97744
30.9236 16.8275 3.98183
31.9125 14.4692 2
34.091 12.9231 0.0168527
31.1849 11.9748 0.0158977
43.1287 26.533 0.0213645
40.9286 23.2792 0.0192363
33.6058 15.8634 0.0175831
35.8467 17.4961 0.0188373
38.4228 20.3109 0.0192562
33.5478 17.373 2
35.5826 20.065 2
40.4903 25.6328 2
38.0851 22.8458 2
32.8597 19.7819 3.97943
37.7887 25.1399 3.9951
35.2046 22.6247 3.97818
35.7703 37.5272 3.93747
37.5044 37.5185 2
39.2386 37.5038 0.0600295
39.8288 51.9119 0.0145306
38.7762 48.826 -0.0411382
37.5028 39.2004 0.0589886
37.5029 46.4022 0.0788235
35.471 44.6616 0.0273903
35.7809 40.9051 0.0602842
34.0602 42.3851 0.0231073
37.6663 51.0084 2
35.7801 39.209 2
34.1234 40.8457 2
36.8992 48.4364 2
32.9058 42.0211 2
33.6808 43.9262 2
35.1656 46.1134 2
35.4126 50.1536 3.97627
34.0425 39.222 3.93835
32.5467 40.8967 3.99119
32.1553 42.7799 3.97246
33.0652 45.2466 3.92566
34.2789 47.5355 4.01163
36.7169 53.2139 0.0174899
34.3466 52.4827 2
31.9608 51.2127 3.97987
33.2218 55.512 0.0194419
30.4968 53.415 2
28.3857 51.6459 3.9787
28.6732 55.3186 0.0209222
26.8521 53.4653 2
25.0339 51.8046 3.97654
25.2916 55.1634 0.019545
23.5414 53.5114 2
21.9202 51.8507 3.97987
19.1605 51.6755 3.9814
18.8975 54.3417 3.98241
20.4356 53.2619 2
18.4345 56.751 3.98508
19.9153 55.8619 2
21.7899 55.375 0.0185357
18.3622 59.1318 3.98502
19.4287 57.9169 2
20.2068 57.0564 0.015156
18.6159 61.7788 3.98636
19.7016 60.2217 2
20.6383 58.8017 0.0151139
19.1273 64.6822 3.98885
20.206 62.8694 2
21.1633 61.1852 0.0146701
19.8866 67.8115 3.99322
20.9387 65.7706 2
21.8946 63.8462 0.0140311
22.8376 66.7407 0.0110763
21.9124 68.8747 2
20.9142 71.1327 4
24.0098 69.8072 0.00653374
23.1494 72.1455 2
25.446 73.0099 0
23.0952 12.778 3.98417
23.9722 10.1608 3.98601
25.0227 7.30776 3.98947
25.8595 9.37373 2
26.2796 4.32671 3.99373
27.0685 6.53749 2
27.8201 8.64578 0.012823
27.7943 1.27781 4
28.4877 3.64239 2
29.1537 5.874 0.00997309
30.1841 0.720551 2
30.7256 3.09683 0.00588407
32.6053 0.320823 0
35.7747 35.8489 3.94155
37.5029 35.8426 2
39.2338 35.839 0.0560384
24.776 12.0631 2
23.7495 14.3483 2
22.4775 15.0242 3.98374
25.3559 13.8976 3.98332
24.0219 15.6102 3.98342
26.6211 11.3798 0.015396
29.2238 12.6319 0.0164988
27.29 13.3653 2
29.7786 14.1916 2
28.3541 15.9672 3.98229
34.118 34.219 3.94904
35.7704 34.1559 2
37.4952 34.1365 0.0390796
35.6738 32.3915 0.0248129
37.4736 30.1235 0.0399626
42.3713 28.3521 0.000246629
39.819 28.9523 0.0740669
40.0506 27.5392 2
37.482 28.6515 2
35.4459 30.3974 2
34.0453 32.6727 2
37.6038 27.2404 4.014
35.1233 28.951 3.92528
33.6575 31.1347 3.98203
32.901 33.048 3.98393
30.2031 19.332 3.9825
30.9237 16.828 2
31.9124 14.4691 0.0174948
40.4924 25.6267 0.0177676
38.085 22.8414 0.012876
33.5478 17.3727 0.018041
35.5826 20.0648 0.0185771
32.8597 19.7826 2
35.2055 22.6252 2
37.7879 25.1485 2
32.3052 22.3997 3.97994
34.9343 25.1556 3.97817
33.9965 37.5321 3.93864
35.7717 37.5264 2
37.503 37.5192 0.0596977
37.666 51.0031 0.026047
36.903 48.4343 -0.0333672
35.7792 39.2082 0.0611556
35.1726 46.1084 0.0747686
33.6834 43.9307 0.0171943
34.1252 40.8445 0.0532214
32.9107 42.0198 0.0182601
35.4127 50.1575 2
34.0434 39.2226 2
32.543 40.8979 2
34.2711 47.5431 2
32.148 42.7743 2
33.0561 45.2498 2
33.1637 49.1323 3.97718
32.2113 39.2994 3.98828
30.951 41.2827 3.97957
31.1994 43.864 3.92434
32.2124 46.4787 3.99628
34.3469 52.4814 0.0169894
31.9606 51.2159 2
29.7842 49.7383 3.97879
30.4972 53.4131 0.0201038
28.3852 51.6443 2
26.4386 50.0403 3.97537
26.8527 53.4646 0.0219526
25.0333 51.8028 2
23.2791 50.2469 3.98111
23.542 53.5118 0.0217774
21.9202 51.8496 2
20.4126 50.3605 3.9822
17.9451 50.3682 3.98304
17.803 52.827 3.98235
19.1607 51.6746 2
17.4194 55.3696 3.98389
18.8973 54.3414 2
20.4358 53.2625 0.0190892
17.1262 57.8963 3.98556
18.4341 56.751 2
19.9157 55.862 0.0159961
17.1323 60.5645 3.98606
18.3621 59.1319 2
19.4289 57.9168 0.0152859
17.407 63.4763 3.98886
18.6159 61.779 2
19.7017 60.2215 0.0147181
17.9427 66.6204 3.99319
19.1272 64.6825 2
20.2061 62.8691 0.0136019
18.75 69.9759 4
19.8865 67.8116 2
20.9388 65.7704 0.0111965
21.9125 68.8745 0.00667548
20.9142 71.1327 2
23.1494 72.1454 0
21.5856 13.5977 3.98427
22.1903 11.0201 3.98565
23.0952 12.7779 2
23.0409 8.17302 3.98911
23.9722 10.1605 2
24.1173 5.14129 3.99354
25.0226 7.30745 2
25.8595 9.37402 0.0134494
25.446 1.99014 4
26.2795 4.32651 2
27.0686 6.53781 0.0102026
27.7943 1.27778 2
28.4878 3.64262 0.0060481
30.1841 0.720592 0
34.0368 35.842 3.93917
35.7748 35.8465 2
37.5032 35.8455 0.0546925
21.3019 15.8186 3.9839
24.776 12.0632 0.015674
23.7494 14.3483 0.0165147
25.356 13.8976 2
22.4777 15.0243 2
24.0221 15.6103 2
23.2606 16.2413 3.98312
25.3772 16.0785 3.98305
27.2899 13.3654 0.0168585
29.7784 14.1916 0.0173863
28.3544 15.9671 2
27.4346 18.7901 3.98275
32.5486 34.1792 3.99467
34.1177 34.2173 2
35.7699 34.1597 0.05237
34.0444 32.6751 0.0225631
35.4447 30.4047 0.0258016
37.4816 28.6662 0.0765893
40.0491 27.5389 -0.0146912
37.6048 27.2189 2
32.9007 33.0494 2
35.121 28.9438 2
33.6556 31.1352 2
35.0266 27.3466 4.01378
33.0084 29.8209 3.92761
32.1365 32.2874 3.97944
29.5647 21.9294 3.98467
30.2033 19.3334 2
30.9236 16.8275 0.0181746
37.7887 25.1399 0.00490424
35.2046 22.6247 0.0218168
32.8597 19.7819 0.0205658
32.3061 22.401 2
34.936 25.1669 2
31.6201 25.611 3.97961
32.0859 37.5382 3.99019
33.9977 37.5317 2
35.7703 37.5272 0.0625347
35.4126 50.1536 0.0237301
34.2789 47.5355 -0.0116326
34.0425 39.222 0.0616453
33.0652 45.2466 0.0743396
32.1553 42.7799 0.0275385
32.5467 40.8967 0.00880607
33.1643 49.119 2
32.2113 39.2995 2
30.9445 41.2809 2
32.1959 46.4879 2
31.1961 43.8654 2
31.0276 47.8871 3.97826
30.1847 39.5359 3.96906
29.7386 42.0561 3.92421
30.31 45.0694 3.99412
31.9608 51.2127 0.0201341
29.7846 49.736 2
27.7698 48.2254 3.97857
28.3857 51.6459 0.0213017
26.4386 50.0376 2
24.5619 48.5253 3.98372
25.0339 51.8046 0.0234647
23.2793 50.2449 2
21.5807 48.8411 3.98448
21.9202 51.8507 0.0201279
20.4132 50.3591 2
18.979 49.1334 3.98473
16.8518 49.3657 3.98481
16.7402 51.4411 3.98302
17.9456 50.3674 2
16.3673 53.9006 3.98339
17.8031 52.8264 2
19.1605 51.6755 0.0186017
15.9651 56.4998 3.98511
17.4191 55.3694 2
18.8975 54.3417 0.0175897
15.7446 59.2274 3.98622
17.1259 57.8964 2
18.4345 56.751 0.0149244
15.7868 62.1484 3.98861
17.1322 60.5647 2
18.3622 59.1318 0.0149844
16.0891 65.3035 3.99322
17.4069 63.4765 2
18.6159 61.7788 0.0136387
16.6661 68.6801 4
17.9426 66.6205 2
19.1273 64.6822 0.0111498
18.75 69.9759 2
19.8866 67.8115 0.00678058
20.9142 71.1327 0
20.2168 14.5853 3.98431
21.5856 13.5976 2
20.5294 11.9896 3.98554
21.1442 9.14271 3.98871
22.1903 11.0199 2
23.0952 12.778 0.0158262
22.0164 6.08021 3.99335
23.0408 8.17273 2
23.9722 10.1608 0.0139884
23.1494 2.85457 4
24.1172 5.14111 2
25.0227 7.30776 0.0105335
25.446 1.99012 2
26.2796 4.32671 0.00627242
27.7943 1.27781 0
32.2141 35.7765 3.99099
34.0368 35.8407 2
35.7747 35.8489 0.0584512
21.3021 15.8186 2
20.2979 16.9502 3.98465
22.0932 16.6242 3.98364
25.3559 13.8976 0.0166755
22.4775 15.0242 0.0162629
24.0219 15.6102 0.0165758
25.3774 16.0786 2
23.2608 16.2414 2
24.1989 18.4404 3.98244
27.0007 21.4505 3.98102
28.3541 15.9672 0.0177144
27.435 18.7902 2
30.9579 33.7916 3.97444
32.5454 34.1781 2
34.118 34.219 0.0509614
32.901 33.048 0.0160735
33.6575 31.1347 0.0179693
35.1233 28.951 0.0747209
37.6038 27.2404 -0.0139966
35.0225 27.3374 2
32.1377 32.2914 2
33.0113 29.8201 2
32.4365 28.0639 4.01382
31.1639 31.2105 3.93023
28.7417 24.3963 3.98563
29.5653 21.932 2
30.2031 19.332 0.0174963
34.9343 25.1556 0.0218279
32.3052 22.3997 0.0200553
31.6213 25.6035 2
29.5363 27.2353 3.98671
29.915 37.5361 3.96631
32.0857 37.5379 2
33.9965 37.5321 0.0613615
33.1637 49.1323 0.0228223
32.2124 46.4787 0.00371771
32.2113 39.2994 0.0117157
31.1994 43.864 0.0756558
30.951 41.2827 0.0204298
31.0308 47.8777 2
30.1842 39.5347 2
29.7361 42.0601 2
30.2949 45.0769 2
29.0297 46.4572 3.97475
28.8019 39.9339 3.92019
28.4867 43.2866 3.9996
29.7842 49.7383 0.021205
27.7711 48.222 2
25.8197 46.7097 3.98535
26.4386 50.0403 0.0246327
24.563 48.5228 2
22.707 47.1376 3.98955
23.2791 50.2469 0.0188888
21.5818 48.8391 2
19.9168 47.6624 3.98757
20.4126 50.3605 0.0177975
18.9797 49.1326 2
17.6218 48.2138 3.98605
16.1032 48.7144 3.98595
16.8524 49.3651 2
15.8164 50.2014 3.98416
15.3539 52.4447 3.98351
16.7404 51.4405 2
17.9451 50.3682 0.0169606
14.854 55.0018 3.98441
16.3673 53.9002 2
17.803 52.827 0.0176521
14.4525 57.7576 3.98613
15.9649 56.4998 2
17.4194 55.3696 0.0161079
14.2642 60.7041 3.98829
15.7444 59.2276 2
17.1262 57.8963 0.0144356
14.333 63.8631 3.99313
15.7867 62.1487 2
17.1323 60.5645 0.0139363
14.6715 67.2507 4
16.089 65.3036 2
17.407 63.4763 0.0111428
16.6661 68.6801 2
17.9427 66.6204 0.00680999
18.75 69.9759 0
18.9295 15.77 3.9847
20.2169 14.5852 2
18.9786 13.0993 3.98549
21.5856 13.5977 0.0157284
20.5294 11.9894 2
19.3435 10.2302 3.98841
19.9912 7.14479 3.99314
21.1441 9.14243 2
22.1903 11.0201 0.0143483
20.9142 3.86727 4
22.0163 6.08005 2
23.0409 8.17302 0.0108903
23.1494 2.85451 2
24.1173 5.14129 0.00646127
25.446 1.99014 0
30.1942 35.5389 3.9735
32.213 35.7753 2
34.0368 35.842 0.0608259
21.3019 15.8186 0.0161043
22.0935 16.6242 2
20.2981 16.9502 2
19.2353 18.3946 3.98455
21.7765 17.8383 3.98386
25.3772 16.0785 0.0169501
23.2606 16.2413 0.0168805
24.1993 18.4408 2
22.2671 19.878 3.98355
24.5763 21.3097 3.98314
26.3724 23.714 3.98435
27.0019 21.4509 2
27.4346 18.7901 0.017251
29.7362 33.0148 3.9265
30.9512 33.7934 2
32.5486 34.1792 0.00532874
32.1365 32.2874 0.0205589
33.0084 29.8209 0.0723914
35.0266 27.3466 -0.0137826
32.4297 28.0605 2
31.1705 31.2138 2
29.9537 29.4999 4.00348
27.7846 26.5414 3.97303
28.7421 24.4012 2
29.5647 21.9294 0.0153261
31.6201 25.611 0.020387
29.534 27.2265 2
28.4721 37.5322 3.92352
29.9136 37.5372 2
32.0859 37.5382 0.00981348
31.0276 47.8871 0.0217409
30.31 45.0694 0.00587747
30.1847 39.5359 0.0309412
29.7386 42.0561 0.075792
29.0336 46.4539 2
28.8027 39.9342 2
28.4773 43.2895 2
27.0956 44.8267 3.97309
26.5758 40.6776 4.00865
27.7698 48.2254 0.0214257
25.8221 46.7066 2
23.8467 45.2656 3.98762
24.5619 48.5253 0.0162774
22.7088 47.1349 2
20.8374 45.9439 3.9894
21.5807 48.8411 0.0155213
19.9179 47.6615 2
18.2613 46.7735 3.98725
18.979 49.1334 0.0152693
17.6226 48.2132 2
16.2905 47.7438 3.98576
16.1038 48.7139 2
15.1617 49.044 3.98499
16.8518 49.3657 0.0151882
15.8168 50.2009 2
14.4659 51.0116 3.98395
13.8138 53.4578 3.98418
15.354 52.4443 2
16.7402 51.4411 0.0169844
13.246 56.1861 3.98564
14.8539 55.0016 2
16.3673 53.9006 0.0166148
12.8461 59.1385 3.98799
14.4524 57.7577 2
15.9651 56.4998 0.0148873
12.6781 62.3059 3.99289
14.2642 60.7044 2
15.7446 59.2274 0.0137767
12.7746 65.6939 4
14.3329 63.8632 2
15.7868 62.1484 0.0113879
14.6714 67.2507 2
16.0891 65.3035 0.00678493
16.6661 68.6801 0
17.6627 17.1434 3.98478
18.9296 15.77 2
17.5091 14.3617 3.98559
20.2168 14.5853 0.0156888
18.9786 13.0992 2
17.6389 11.4482 3.98821
20.5294 11.9896 0.0144624
19.3435 10.2299 2
18.0514 8.33741 3.99298
18.75 5.0241 4
19.9911 7.14466 2
21.1442 9.14271 0.0112943
20.9142 3.86727 2
22.0164 6.08021 0.00665222
23.1494 2.85457 0
28.8036 35.1336 3.9244
30.1924 35.5429 2
32.2141 35.7765 0.00900533
22.0932 16.6242 0.0163575
20.2979 16.9502 0.0153547
21.7767 17.8383 2
19.2354 18.3946 2
17.9681 19.9239 3.98466
20.8666 19.363 3.9843
24.1989 18.4404 0.0175587
22.2676 19.8779 2
24.5772 21.3101 2
22.3384 21.7007 3.98423
24.6591 23.1546 3.98348
25.3799 25.9398 3.97641
26.3733 23.7132 2
27.0007 21.4505 0.0189847
28.1274 32.2777 3.99603
29.7344 33.0139 2
30.9579 33.7916 0.0255558
31.1639 31.2105 0.0697671
32.4365 28.0639 -0.0138177
29.9413 29.499 2
26.8827 29.1408 3.96768
27.7819 26.536 2
28.7417 24.3963 0.0143655
29.5363 27.2353 0.0132874
26.6944 37.3785 3.99959
28.4725 37.5305 2
29.915 37.5361 0.0336884
29.0297 46.4572 0.0252516
28.4867 43.2866 0.000398278
28.8019 39.9339 0.0798133
27.0997 44.8254 2
26.5777 40.6775 2
25.0673 43.2226 3.97808
23.8248 39.4492 3.97049
25.8197 46.7097 0.0146469
23.8489 45.2657 2
21.8049 43.9951 3.98882
22.707 47.1376 0.0104509
20.8392 45.9436 2
18.9148 45.0051 3.98598
19.9168 47.6624 0.0124296
18.2624 46.773 2
16.5764 46.2414 3.98479
17.6218 48.2138 0.0139493
16.2912 47.7435 2
14.8891 47.6966 3.98476
16.1032 48.7144 0.01405
15.1622 49.0436 2
13.7625 49.5705 3.9843
15.8164 50.2014 0.015843
14.4661 51.0112 2
12.8791 51.8955 3.98418
12.132 54.5444 3.98527
13.8138 53.4575 2
15.3539 52.4447 0.0164945
11.5298 57.4709 3.98747
13.2458 56.1861 2
14.854 55.0018 0.0155885
11.1327 60.6326 3.99268
12.846 59.1387 2
14.4525 57.7576 0.0138748
10.9835 64.0165 4
12.6781 62.306 2
14.2642 60.7041 0.0117104
12.7745 65.694 2
14.333 63.8631 0.0068696
14.6715 67.2507 0
16.3933 18.6349 3.98501
17.6628 17.1433 2
16.0993 15.7691 3.98564
18.9295 15.77 0.0152977
17.5092 14.3615 2
16.0201 12.8004 3.98803
18.9786 13.0993 0.0145062
17.6389 11.448 2
16.2025 9.66011 3.99287
19.3435 10.2302 0.0115926
18.0513 8.33731 2
16.6661 6.31991 4
18.75 5.02404 2
19.9912 7.14479 0.00686107
20.9142 3.86727 0
27.202 34.7488 3.99518
28.8019 35.1321 2
30.1942 35.5389 0.0264959
16.6645 21.3563 3.98365
21.7765 17.8383 0.0161403
19.2353 18.3946 0.0154492
20.867 19.3629 2
17.9683 19.9239 2
19.7061 21.5526 3.98563
22.2671 19.878 0.016451
24.5763 21.3097 0.0168591
22.3391 21.7001 2
24.6594 23.1547 2
22.795 24.5841 3.98064
24.4338 28.5197 3.97471
25.3778 25.939 2
26.3724 23.714 0.0156474
25.9666 31.7206 3.97428
28.1221 32.2763 2
29.7362 33.0148 0.073499
29.9537 29.4999 -0.00347891
26.8854 29.1402 2
27.7846 26.5414 0.0269667
24.5092 36.8846 3.97935
26.6953 37.3802 2
28.4721 37.5322 0.0764801
27.0956 44.8267 0.0269069
26.5758 40.6776 -0.00864538
25.0687 43.2246 2
23.8265 39.451 2
22.8484 41.8362 3.98298
21.5839 38.5117 3.98151
23.8467 45.2656 0.0123794
21.8066 43.9962 2
19.6593 42.9191 3.98343
20.8374 45.9439 0.0105991
18.9161 45.0051 2
16.9008 44.4059 3.98316
18.2613 46.7735 0.0127518
16.5772 46.2412 2
14.8069 46.1145 3.98346
16.2905 47.7438 0.0142369
14.8896 47.6963 2
13.2678 48.0307 3.98394
15.1617 49.044 0.0150053
13.7628 49.5702 2
12.0969 50.2721 3.98419
14.4659 51.0116 0.0160488
12.8792 51.8952 2
11.1266 52.8523 3.98502
10.3195 55.7225 3.98705
12.132 54.5443 2
13.8138 53.4578 0.0158224
9.69928 58.8559 3.99225
11.5297 57.471 2
13.246 56.1861 0.0143572
9.30605 62.2254 4
11.1326 60.6327 2
12.8461 59.1385 0.0120126
10.9835 64.0165 2
12.6781 62.3059 0.00711268
12.7746 65.6939 0
15.1356 20.1671 3.98448
16.3935 18.6348 2
14.7439 17.2902 3.98551
17.6627 17.1434 0.0152229
16.0994 15.7689 2
14.482 14.2809 3.9878
17.5091 14.3617 0.014411
16.0201 12.8002 2
14.4451 11.1109 3.99273
17.6389 11.4482 0.0117898
16.2025 9.66002 2
14.6715 7.74927 4
18.0514 8.33741 0.00702437
16.6661 6.31988 2
18.75 5.0241 0
25.1475 34.2931 3.98319
27.2022 34.7501 2
28.8036 35.1336 0.0755985
17.8332 22.3012 3.98616
15.5056 22.8983 3.98262
16.6647 21.3562 2
20.8666 19.363 0.015696
17.9681 19.9239 0.0153417
19.7065 21.5524 2
19.6228 24.3581 3.98329
22.3384 21.7007 0.0157664
24.6591 23.1546 0.0165183
22.7938 24.5832 2
21.8238 27.8062 3.97593
23.5945 31.1789 3.97885
24.4355 28.5222 2
25.3799 25.9398 0.0235928
25.9686 31.7205 2
28.1274 32.2777 0.00396889
26.8827 29.1408 0.0323185
22.2924 36.2737 3.98651
24.5105 36.8856 2
26.6944 37.3785 0.000413832
25.0673 43.2226 0.021918
23.8248 39.4492 0.0295115
22.8495 41.837 2
21.5852 38.5122 2
20.5739 40.6517 3.98022
19.9507 37.7881 3.98376
21.8049 43.9951 0.0111776
19.6606 42.9192 2
17.2914 42.1214 3.9814
18.9148 45.0051 0.0140195
16.9018 44.406 2
14.8054 44.2212 3.98166
16.5764 46.2414 0.015205
14.8076 46.1144 2
12.9381 46.3151 3.98276
14.8891 47.6966 0.0152391
13.2682 48.0306 2
11.4672 48.5671 3.98381
13.7625 49.5705 0.0156987
12.0971 50.2719 2
10.2515 51.0943 3.98478
12.8791 51.8955 0.0158217
11.1266 52.8521 2
9.22767 53.8997 3.98682
8.38287 56.9893 3.99157
10.3194 55.7225 2
12.132 54.5444 0.0147278
7.74927 60.3285 4
9.69923 58.856 2
11.5298 57.4709 0.0125294
9.306 62.2255 2
11.1327 60.6326 0.00731678
10.9835 64.0165 0
13.9453 21.7324 3.98391
15.1358 20.1669 2
13.4433 18.8858 3.98535
16.3933 18.6349 0.0149899
14.7441 17.29 2
13.0269 15.8724 3.98749
16.0993 15.7691 0.0143634
14.4821 14.2806 2
12.7822 12.6838 3.99255
16.0201 12.8004 0.0119723
14.445 11.1108 2
12.7746 9.30605 4
16.2025 9.66011 0.00712693
14.6715 7.74924 2
16.6661 6.31991 0
22.8866 33.7941 3.98562
25.1478 34.2939 2
27.202 34.7488 0.00481852
17.5941 24.0197 3.98383
17.8332 22.301 2
14.2856 24.4305 3.98138
15.5054 22.8979 2
16.6645 21.3563 0.0163451
18.9689 27.181 3.97695
19.7061 21.5526 0.0143687
19.622 24.3582 2
21.0508 30.6482 3.97838
22.795 24.5841 0.0193564
21.8249 27.8072 2
23.5959 31.1804 2
24.4338 28.5197 0.0252857
25.9666 31.7206 0.0257222
20.0641 35.9194 3.98559
22.2933 36.2747 2
24.5092 36.8846 0.020648
22.8484 41.8362 0.0170227
21.5839 38.5117 0.0184896
20.5749 40.6518 2
19.9516 37.7885 2
17.9545 39.0111 3.98217
19.6593 42.9191 0.0165729
17.2924 42.1216 2
14.7498 41.9338 3.98065
16.9008 44.4059 0.016844
14.8062 44.2212 2
12.6764 44.4084 3.98139
14.8069 46.1145 0.0165414
12.9386 46.3151 2
10.9679 46.7487 3.98283
13.2678 48.0307 0.0160613
11.4674 48.567 2
9.51402 49.2525 3.98436
12.0969 50.2721 0.0158079
10.2515 51.0942 2
8.26012 52.0114 3.98657
11.1266 52.8523 0.0149837
9.22763 53.8996 2
7.19175 55.0396 3.99087
6.31991 58.3339 4
8.38283 56.9894 2
10.3195 55.7225 0.0129484
7.74924 60.3285 2
9.69928 58.8559 0.00775179
9.30605 62.2254 0
13.2061 25.3455 3.98455
12.8105 23.2619 3.98311
13.9452 21.732 2
12.2271 20.5341 3.98516
15.1356 20.1671 0.0155208
13.4434 18.8855 2
11.656 17.5527 3.98727
14.7439 17.2902 0.0144855
13.027 15.8721 2
11.2194 14.3681 3.99231
14.482 14.2809 0.0121972
12.7821 12.6837 2
10.9835 10.9835 4
14.4451 11.1109 0.00726607
12.7745 9.306 2
14.6715 7.74927 0
20.4548 33.3835 3.98357
22.8869 33.7948 2
25.1475 34.2931 0.0168137
15.8621 26.3812 3.9796
17.5936 24.0194 2
17.8332 22.3012 0.0138365
14.2855 24.4307 2
15.5056 22.8983 0.0173771
18.3015 30.1556 3.97783
18.9697 27.1816 2
19.6228 24.3581 0.0167087
21.052 30.6488 2
21.8238 27.8062 0.0240662
23.5945 31.1789 0.0211521
17.5751 35.962 3.9855
20.0648 35.92 2
22.2924 36.2737 0.0134938
20.5739 40.6517 0.0197793
19.9507 37.7881 0.0162353
17.9552 39.0113 2
14.2514 39.1845 3.98263
17.2914 42.1214 0.0186022
14.7505 41.9339 2
12.362 42.2895 3.98127
14.8054 44.2212 0.0183373
12.677 44.4085 2
10.544 44.8152 3.98195
12.9381 46.3151 0.0172424
10.9682 46.7488 2
8.89598 47.3298 3.98357
11.4672 48.5671 0.0161945
9.51416 49.2525 2
7.42671 50.0434 3.98611
10.2515 51.0943 0.0152161
8.26011 52.0113 2
6.1321 53.0137 3.99031
9.22767 53.8997 0.013177
7.19173 55.0397 2
5.0241 56.25 4
6.31988 58.3339 2
8.38287 56.9893 0.00843361
7.74927 60.3285 0
13.4396 26.7982 3.98082
11.923 24.7725 3.98241
13.2062 25.3456 2
11.1287 22.2193 3.98453
12.8104 23.2618 2
13.9453 21.7324 0.016085
12.227 20.5337 2
10.3853 19.3074 3.98713
13.4433 18.8858 0.0146515
11.6561 17.5524 2
9.76023 16.1507 3.992
13.0269 15.8724 0.012513
11.2194 14.368 2
9.30607 12.7746 4
12.7822 12.6838 0.00744599
10.9835 10.9835 2
12.7746 9.30605 0
17.7608 33.1005 3.98188
20.4551 33.3838 2
22.8866 33.7941 0.0143775
15.444 29.6219 3.97916
15.8625 26.3817 2
17.5941 24.0197 0.0161724
14.2856 24.4305 0.0186229
18.3023 30.156 2
18.9689 27.181 0.0230472
21.0508 30.6482 0.0216239
14.8403 36.0175 3.98402
17.5757 35.9623 2
20.0641 35.9194 0.0144081
12.5528 37.8333 3.98226
17.9545 39.0111 0.0178311
14.2519 39.1847 2
11.8735 40.1502 3.98275
14.7498 41.9338 0.0193541
12.3626 42.2897 2
10.1424 42.7881 3.98141
12.6764 44.4084 0.0186064
10.5444 44.8153 2
8.37342 45.3301 3.98293
10.9679 46.7487 0.0171682
8.89618 47.3299 2
6.71785 48.0074 3.9854
9.51402 49.2525 0.0156413
7.42673 50.0434 2
5.20857 50.9157 3.98987
8.26012 52.0114 0.013434
6.13208 53.0137 2
3.86727 54.0858 4
7.19175 55.0396 0.00912916
5.02404 56.25 2
6.31991 58.3339 0
12.8926 29.0203 3.97889
11.3517 26.4745 3.98174
13.44 26.7982 2
10.1873 23.955 3.98335
11.9231 24.7725 2
13.2061 25.3455 0.0154514
9.23666 21.1271 3.98663
11.1287 22.2191 2
12.8105 23.2619 0.0168867
12.2271 20.5341 0.0148365
10.3853 19.307 2
8.41604 18.021 3.99155
11.656 17.5527 0.0127341
9.76027 16.1505 2
7.74928 14.6715 4
11.2194 14.3681 0.00769383
9.30602 12.7745 2
10.9835 10.9835 0
14.4319 32.8533 3.98147
17.7611 33.1008 2
20.4548 33.3835 0.0164325
15.4445 29.6222 2
15.8621 26.3812 0.0203969
18.3015 30.1556 0.0221668
12.8396 36.209 3.98244
14.8408 36.0178 2
17.5751 35.962 0.0144984
12.5532 37.8336 2
11.2317 38.3153 3.98179
14.2514 39.1845 0.0173708
11.8739 40.1505 2
9.72704 40.7621 3.98238
12.362 42.2895 0.0187303
10.1428 42.7883 2
7.92232 43.2773 3.98241
10.544 44.8152 0.0180528
8.3737 45.3302 2
6.12387 45.9113 3.98482
8.89598 47.3298 0.0164333
6.71791 48.0073 2
4.41994 48.7552 3.98955
7.42671 50.0434 0.0138882
5.20857 50.9157 2
2.85457 51.8506 4
6.1321 53.0137 0.00968757
3.86727 54.0858 2
5.0241 56.25 0
12.0319 31.2467 3.9817
10.7632 28.4046 3.98042
12.8929 29.0203 2
9.40169 25.7876 3.98268
11.3518 26.4745 2
13.4396 26.7982 0.01918
8.22347 23.014 3.98552
10.1873 23.9549 2
11.923 24.7725 0.0175936
7.19799 19.971 3.99077
9.23663 21.1268 2
11.1287 22.2193 0.0154743
10.3853 19.3074 0.0128664
8.41604 18.0207 2
6.31992 16.6661 4
9.76023 16.1507 0.00799563
7.74926 14.6714 2
9.30607 12.7746 0
12.0466 34.2904 3.981
14.4321 32.8534 2
17.7608 33.1005 0.0181157
15.444 29.6219 0.0208386
10.7966 36.6123 3.98149
12.84 36.2092 2
14.8403 36.0175 0.015982
12.5528 37.8333 0.0177429
11.2321 38.3155 2
9.32207 38.8286 3.98235
11.8735 40.1502 0.0172528
9.72739 40.7623 2
7.53339 41.2169 3.98266
10.1424 42.7881 0.0185918
7.92255 43.2775 2
5.63575 43.7731 3.98459
8.37342 45.3301 0.0170726
6.12401 45.9112 2
3.76548 46.5401 3.98947
6.71785 48.0074 0.0146039
4.41995 48.7552 2
1.99014 49.554 4
5.20857 50.9157 0.0101329
2.85451 51.8506 2
3.86727 54.0858 0
10.8956 32.9126 3.98163
10.0754 30.374 3.9814
12.0321 31.2466 2
8.70937 27.7237 3.98188
10.7634 28.4045 2
12.8926 29.0203 0.0211097
7.34875 24.975 3.98482
9.40174 25.7876 2
11.3517 26.4745 0.0182646
6.11472 21.9958 3.98971
8.22341 23.0138 2
10.1873 23.955 0.0166465
5.02411 18.75 4
7.19798 19.9708 2
9.23666 21.1271 0.0133655
8.41604 18.021 0.00844944
6.3199 16.6661 2
7.74928 14.6715 0
10.4097 34.9981 3.98161
12.0468 34.2905 2
14.4319 32.8533 0.0185343
8.99599 36.9869 3.98128
10.797 36.6125 2
12.8396 36.209 0.0175562
11.2317 38.3153 0.0182114
9.32239 38.8288 2
7.21412 39.1858 3.98283
9.72704 40.7621 0.0176184
7.53362 41.2171 2
5.25112 41.6176 3.98446
7.92232 43.2773 0.0175924
5.63584 43.773 2
3.24318 44.2846 3.98939
6.12387 45.9113 0.0151791
3.76554 46.5401 2
1.27781 47.2057 4
4.41994 48.7552 0.0104463
1.99012 49.554 2
2.85457 51.8506 0
10.0641 33.8775 3.98144
9.36848 32.1485 3.98201
10.8958 32.9125 2
8.05833 29.6893 3.98201
10.0755 30.3739 2
12.0319 31.2467 0.0183004
6.59228 27.0027 3.98416
8.70946 27.7236 2
10.7632 28.4046 0.0195782
5.16974 24.0903 3.98903
7.34873 24.9749 2
9.40169 25.7876 0.0173155
3.86728 20.9142 4
6.11468 21.9956 2
8.22347 23.014 0.014479
5.02406 18.75 2
7.19799 19.971 0.00923315
6.31992 16.6661 0
8.82311 35.2785 3.98168
10.41 34.9982 2
12.0466 34.2904 0.0190047
6.99921 37.2074 3.982
8.99634 36.987 2
10.7966 36.6123 0.018508
9.32207 38.8286 0.0176461
7.21437 39.186 2
4.97907 39.4698 3.98436
7.53339 41.2169 0.0173428
5.25123 41.6176 2
2.85373 42.0044 3.98913
5.63575 43.7731 0.0154083
3.24321 44.2846 2
0.720592 44.8159 4
3.76548 46.5401 0.0105321
1.27778 47.2057 2
1.99014 49.554 0
8.86536 33.6942 3.98189
10.0644 33.8775 2
7.49557 31.6047 3.98251
9.36862 32.1484 2
10.8956 32.9126 0.0183702
5.93737 29.0653 3.98394
8.05839 29.6892 2
10.0754 30.374 0.0185977
4.35717 26.2445 3.98875
6.59229 27.0027 2
8.70937 27.7237 0.0181249
2.85458 23.1494 4
5.16969 24.0904 2
7.34875 24.975 0.0151813
3.86728 20.9142 2
6.11472 21.9958 0.0102905
5.02411 18.75 0
6.94994 35.3055 3.98204
8.82338 35.2785 2
10.4097 34.9981 0.0183857
4.82984 37.3409 3.98396
6.99952 37.2076 2
8.99599 36.9869 0.0187226
7.21412 39.1858 0.0171682
4.97922 39.4699 2
2.60187 39.7155 3.98884
5.25112 41.6176 0.015537
2.85376 42.0045 2
0.320823 42.3947 4
3.24318 44.2846 0.0106068
0.720551 44.8159 2
1.27781 47.2057 0
7.10974 33.4583 3.98239
8.86556 33.6942 2
10.0641 33.8775 0.0185636
5.40805 31.1306 3.9842
7.49564 31.6046 2
9.36848 32.1485 0.0179899
3.67883 28.4415 3.98883
5.93737 29.0654 2
8.05833 29.6893 0.0179874
1.99015 25.446 4
4.35712 26.2447 2
6.59228 27.0027 0.0158408
2.85453 23.1494 2
5.16974 24.0903 0.010969
3.86728 20.9142 0
4.84441 35.2513 3.98388
6.95018 35.3056 2
8.82311 35.2785 0.0183179
2.49344 37.4292 3.98881
4.83007 37.3411 2
6.99921 37.2074 0.0179995
4.97907 39.4698 0.0156357
2.60192 39.7155 2
0.080333 39.9526 4
2.85373 42.0044 0.0108683
0.320817 42.3947 2
0.720592 44.8159 0
5.03767 33.1886 3.98416
7.10989 33.4584 2
8.86536 33.6942 0.0181079
3.1431 30.6648 3.98907
5.40806 31.1308 2
7.49557 31.6047 0.0174949
1.27793 27.7943 4
3.67879 28.4418 2
5.93737 29.0653 0.0160645
1.99013 25.446 2
4.35717 26.2445 0.0112461
2.85458 23.1494 0
2.54567 35.159 3.9888
4.84459 35.2516 2
6.94994 35.3055 0.0179648
0 37.5 4
2.49355 37.4294 2
4.82984 37.3409 0.0160369
2.60187 39.7155 0.0111562
0.0802903 39.9526 2
0.320823 42.3947 0
2.76321 32.905 3.98893
5.03776 33.1889 2
7.10974 33.4583 0.017608
0.721173 30.1842 4
3.14307 30.6652 2
5.40805 31.1306 0.0157986
1.27779 27.7943 2
3.67883 28.4415 0.011172
1.99015 25.446 0
0.0806499 35.0474 4
2.54574 35.1593 2
4.84441 35.2513 0.0161154
0 37.5 2
2.49344 37.4292 0.0111887
0.080333 39.9526 0
0.32156 32.6054 4
2.76324 32.9055 2
5.03767 33.1886 0.0158433
0.72056 30.1841 2
3.1431 30.6648 0.0109346
1.27793 27.7943 0
0.0802889 35.0474 2
2.54567 35.159 0.0112013
0 37.5 0
0.320817 32.6053 2
2.76321 32.905 0.0110733
0.721173 30.1842 0
0.0806499 35.0474 0
0.32156 32.6054 0
CELLS 1910 17190
8 18 6 25 56 2 0 5 16
8 57 23 6 18 17 4 0 2
8 78 36 9 29 31 11 1 7
8 31 11 1 7 79 37 10 30
8 110 57 18 50 48 17 2 14
8 50 18 56 111 14 2 16 49
8 116 62 22 55 52 20 3 15
8 56 25 67 118 16 5 24 53
8 119 63 23 57 54 21 4 17
8 55 22 63 119 15 3 21 54
8 58 26 68 121 18 6 25 56
8 122 65 26 58 57 23 6 18
8 73 31 7 27 142 79 30 71
8 143 78 29 72 73 31 7 27
8 83 147 76 34 32 74 28 8
8 84 148 78 36 33 75 29 9
8 76 34 8 28 148 84 33 75
8 37 79 150 86 10 30 77 35
8 151 87 36 78 80 38 11 31
8 80 38 11 31 152 88 37 79
8 175 100 42 94 96 44 12 40
8 44 96 176 101 12 40 95 43
8 101 176 98 46 43 95 41 13
8 46 98 178 103 13 41 97 45
8 178 103 45 97 147 83 32 74
8 189 116 55 109 106 52 15 47
8 111 56 118 191 49 16 53 107
8 192 119 57 110 108 54 17 48
8 109 55 119 192 47 15 54 108
8 194 122 58 112 110 57 18 50
8 112 58 121 195 50 18 56 111
8 115 61 19 51 197 124 59 113
8 115 61 125 198 51 19 60 114
8 198 125 62 116 114 60 20 52
8 200 127 64 120 116 62 22 55
8 118 67 132 202 53 24 66 117
8 121 68 133 203 56 25 67 118
8 120 64 128 204 55 22 63 119
8 204 128 65 122 119 63 23 57
8 206 134 68 121 123 69 26 58
8 123 69 26 58 207 131 65 122
8 226 147 74 138 140 76 28 70
8 229 148 75 139 143 78 29 72
8 140 76 28 70 229 148 75 139
8 142 79 30 71 231 150 77 141
8 144 80 31 73 232 152 79 142
8 233 151 78 143 144 80 31 73
8 150 86 35 77 235 154 81 145
8 235 154 81 145 146 82 39 91
8 146 82 39 91 236 155 90 165
8 238 157 83 147 149 85 34 76
8 239 158 84 148 151 87 36 78
8 149 85 34 76 239 158 84 148
8 152 88 37 79 241 160 86 150
8 242 161 87 151 153 89 38 80
8 153 89 38 80 243 162 88 152
8 171 98 41 92 265 178 97 169
8 265 178 97 169 226 147 74 138
8 172 96 40 93 266 176 95 170
8 266 176 95 170 171 98 41 92
8 269 175 94 173 172 96 40 93
8 271 180 99 174 175 100 42 94
8 197 124 59 113 271 180 99 174
8 272 181 100 175 177 102 44 96
8 273 182 101 176 179 104 46 98
8 177 102 44 96 273 182 101 176
8 179 104 46 98 275 184 103 178
8 275 184 103 178 238 157 83 147
8 188 115 51 105 283 197 113 186
8 188 115 198 284 105 51 114 187
8 284 198 116 189 187 114 52 106
8 286 200 120 193 189 116 55 109
8 191 118 202 288 107 53 117 190
8 195 121 203 289 111 56 118 191
8 193 120 204 290 109 55 119 192
8 290 204 122 194 192 119 57 110
8 196 123 58 112 292 207 122 194
8 293 206 121 195 196 123 58 112
8 199 126 61 115 297 211 124 197
8 298 212 127 200 198 125 62 116
8 199 126 212 298 115 61 125 198
8 205 129 64 120 300 214 127 200
8 301 217 130 201 202 132 66 117
8 209 136 168 264 301 217 130 201
8 302 219 132 202 203 133 67 118
8 303 220 133 203 206 134 68 121
8 205 129 215 304 120 64 128 204
8 304 215 131 207 204 128 65 122
8 306 221 134 206 208 135 69 123
8 208 135 69 123 307 218 131 207
8 210 137 167 263 309 223 136 209
8 328 238 147 226 230 149 76 140
8 228 146 91 166 329 236 165 260
8 231 150 77 141 330 235 145 227
8 330 235 145 227 228 146 91 166
8 332 239 148 229 233 151 78 143
8 230 149 76 140 332 239 148 229
8 232 152 79 142 334 241 150 231
8 234 153 80 144 335 243 152 232
8 336 242 151 233 234 153 80 144
8 236 155 90 165 338 245 164 259
8 241 160 86 150 339 246 154 235
8 339 246 154 235 237 156 82 146
8 237 156 82 146 340 247 155 236
8 342 249 157 238 240 159 85 149
8 343 250 158 239 242 161 87 151
8 240 159 85 149 343 250 158 239
8 243 162 88 152 345 252 160 241
8 244 163 253 346 153 89 161 242
8 244 163 89 153 347 254 162 243
8 311 224 261 371 210 137 167 263
8 263 167 262 372 209 136 168 264
8 267 179 98 171 375 275 178 265
8 375 275 178 265 328 238 147 226
8 376 273 176 266 267 179 98 171
8 268 177 96 172 376 273 176 266
8 379 272 175 269 268 177 96 172
8 380 271 174 270 269 175 94 173
8 283 197 113 186 380 271 174 270
8 381 277 180 271 272 181 100 175
8 297 211 124 197 381 277 180 271
8 382 278 181 272 274 183 102 177
8 274 183 102 177 383 279 182 273
8 383 279 182 273 276 185 104 179
8 385 281 184 275 342 249 157 238
8 276 185 104 179 385 281 184 275
8 285 199 115 188 393 297 197 283
8 394 298 200 286 284 198 116 189
8 285 199 298 394 188 115 198 284
8 291 205 120 193 396 300 200 286
8 397 301 201 287 288 202 117 190
8 295 209 264 374 397 301 201 287
8 398 302 202 288 289 203 118 191
8 399 303 203 289 293 206 121 195
8 291 205 304 400 193 120 204 290
8 400 304 207 292 290 204 122 194
8 294 208 123 196 402 307 207 292
8 403 306 206 293 294 208 123 196
8 296 210 263 373 405 309 209 295
8 408 312 213 299 297 211 126 199
8 299 213 313 409 199 126 212 298
8 409 313 214 300 298 212 127 200
8 305 216 129 205 411 315 214 300
8 412 318 217 301 302 219 132 202
8 309 223 136 209 412 318 217 301
8 413 320 219 302 303 220 133 203
8 306 221 321 414 206 134 220 303
8 307 218 131 207 415 316 215 304
8 305 216 316 415 205 129 215 304
8 417 322 221 306 308 222 135 208
8 308 222 135 208 418 319 218 307
8 310 225 137 210 420 325 223 309
8 423 326 224 311 310 225 137 210
8 329 236 165 260 441 338 259 368
8 442 342 238 328 333 240 149 230
8 331 237 146 228 443 340 236 329
8 334 241 150 231 444 339 235 330
8 444 339 235 330 331 237 146 228
8 446 343 239 332 336 242 151 233
8 333 240 149 230 446 343 239 332
8 335 243 152 232 448 345 241 334
8 337 244 153 234 449 347 243 335
8 337 244 346 450 234 153 242 336
8 338 245 164 259 452 349 258 367
8 340 247 155 236 453 350 245 338
8 345 252 160 241 454 351 246 339
8 454 351 246 339 341 248 156 237
8 341 248 156 237 455 352 247 340
8 240 159 251 344 342 249 354 457
8 242 161 253 346 343 250 355 458
8 343 250 355 458 240 159 251 344
8 347 254 162 243 460 357 252 345
8 348 255 358 461 244 163 253 346
8 348 255 163 244 462 359 254 347
8 473 360 257 365 363 256 364 482
8 452 349 258 367 365 257 366 485
8 422 324 369 488 311 224 261 371
8 371 261 370 490 263 167 262 372
8 407 311 371 491 296 210 263 373
8 373 263 372 492 295 209 264 374
8 493 385 275 375 442 342 238 328
8 377 276 179 267 493 385 275 375
8 378 274 177 268 494 383 273 376
8 494 383 273 376 377 276 179 267
8 497 382 272 379 378 274 177 268
8 498 381 271 380 379 272 175 269
8 393 297 197 283 498 381 271 380
8 499 387 277 381 382 278 181 272
8 408 312 211 297 499 387 277 381
8 500 388 278 382 384 280 183 274
8 501 389 279 383 386 282 185 276
8 384 280 183 274 501 389 279 383
8 386 282 185 276 503 391 281 385
8 503 391 281 385 457 354 249 342
8 511 408 299 395 393 297 199 285
8 395 299 409 512 285 199 298 394
8 512 409 300 396 394 298 200 286
8 401 305 205 291 514 411 300 396
8 515 412 301 397 398 302 202 288
8 405 309 209 295 515 412 301 397
8 516 413 302 398 399 303 203 289
8 403 306 414 517 293 206 303 399
8 402 307 207 292 518 415 304 400
8 401 305 415 518 291 205 304 400
8 404 308 208 294 520 418 307 402
8 521 417 306 403 404 308 208 294
8 406 310 210 296 523 420 309 405
8 526 423 311 407 406 310 210 296
8 410 314 213 299 527 424 312 408
8 528 425 315 411 409 313 214 300
8 410 314 425 528 299 213 313 409
8 416 317 216 305 530 427 315 411
8 531 430 318 412 413 320 219 302
8 420 325 223 309 531 430 318 412
8 532 432 320 413 414 321 220 303
8 417 322 433 533 306 221 321 414
8 418 319 218 307 534 428 316 415
8 416 317 428 534 305 216 316 415
8 419 323 434 536 308 222 322 417
8 419 323 222 308 537 431 319 418
8 421 327 225 310 539 438 325 420
8 421 327 439 541 310 225 326 423
8 543 437 324 422 423 326 224 311
8 441 338 259 368 559 452 367 486
8 443 340 236 329 560 453 338 441
8 333 240 344 447 442 342 457 561
8 445 341 237 331 562 455 340 443
8 448 345 241 334 563 454 339 444
8 563 454 339 444 445 341 237 331
8 336 242 346 450 446 343 458 565
8 446 343 458 565 333 240 344 447
8 449 347 243 335 567 460 345 448
8 451 348 244 337 568 462 347 449
8 451 348 461 569 337 244 346 450
8 570 463 349 452 473 360 257 365
8 453 350 245 338 570 463 349 452
8 455 352 247 340 571 464 350 453
8 460 357 252 345 572 465 351 454
8 572 465 351 454 456 353 248 341
8 456 353 248 341 573 466 352 455
8 344 251 356 459 457 354 468 575
8 458 355 469 576 344 251 356 459
8 346 253 358 461 458 355 469 576
8 462 359 254 347 578 471 357 460
8 348 255 359 462 461 358 472 579
8 591 474 360 473 475 361 256 363
8 475 361 256 363 594 477 362 479
8 363 256 364 482 479 362 480 603
8 590 473 365 484 481 363 482 605
8 482 364 257 365 606 483 366 485
8 559 452 367 486 484 365 485 607
8 542 436 487 609 422 324 369 488
8 525 422 488 611 407 311 371 491
8 488 369 489 612 371 261 370 490
8 491 371 490 613 373 263 372 492
8 495 386 276 377 614 503 385 493
8 614 503 385 493 561 457 342 442
8 615 501 383 494 495 386 276 377
8 496 384 274 378 615 501 383 494
8 618 500 382 497 496 384 274 378
8 619 499 381 498 497 382 272 379
8 511 408 297 393 619 499 381 498
8 620 505 387 499 500 388 278 382
8 527 424 312 408 620 505 387 499
8 502 390 506 621 384 280 388 500
8 622 507 389 501 504 392 282 386
8 502 390 280 384 622 507 389 501
8 504 392 282 386 624 509 391 503
8 624 509 391 503 575 468 354 457
8 513 410 299 395 630 527 408 511
8 631 528 411 514 512 409 300 396
8 513 410 528 631 395 299 409 512
8 519 416 305 401 633 530 411 514
8 634 531 412 515 516 413 302 398
8 523 420 309 405 634 531 412 515
8 635 532 413 516 517 414 303 399
8 521 417 533 636 403 306 414 517
8 520 418 307 402 637 534 415 518
8 519 416 534 637 401 305 415 518
8 522 419 308 404 639 537 418 520
8 522 419 536 640 404 308 417 521
8 524 421 310 406 642 539 420 523
8 524 421 541 644 406 310 423 526
8 646 543 422 525 526 423 311 407
8 529 426 314 410 647 544 424 527
8 528 425 545 648 411 315 427 530
8 529 426 545 648 410 314 425 528
8 535 429 317 416 649 546 427 530
8 650 548 430 531 532 432 320 413
8 539 438 325 420 650 548 430 531
8 533 433 550 651 414 321 432 532
8 536 434 551 652 417 322 433 533
8 537 431 319 418 653 547 428 534
8 535 429 547 653 416 317 428 534
8 538 435 552 654 419 323 434 536
8 538 435 323 419 655 549 431 537
8 540 440 327 421 657 556 438 539
8 540 440 557 659 421 327 439 541
8 541 439 555 660 423 326 437 543
8 661 554 436 542 543 437 324 422
8 676 570 452 559 590 473 365 484
8 560 453 338 441 676 570 452 559
8 562 455 340 443 677 571 453 560
8 447 344 459 566 561 457 575 678
8 564 456 341 445 679 573 455 562
8 567 460 345 448 680 572 454 563
8 680 572 454 563 564 456 341 445
8 565 458 576 682 447 344 459 566
8 450 346 461 569 565 458 576 682
8 568 462 347 449 684 578 460 567
8 451 348 462 568 569 461 579 685
8 686 580 463 570 591 474 360 473
8 571 464 350 453 686 580 463 570
8 573 466 352 455 687 581 464 571
8 572 465 582 688 460 357 471 578
8 574 467 582 688 456 353 465 572
8 574 467 353 456 689 583 466 573
8 459 356 470 577 575 468 585 691
8 576 469 586 692 459 356 470 577
8 461 358 472 579 576 469 586 692
8 462 359 471 578 579 472 588 694
8 704 591 473 590 593 475 363 481
8 595 476 592 705 475 361 474 591
8 593 475 363 481 707 594 479 602
8 594 477 362 479 709 598 478 600
8 595 476 361 475 711 597 477 594
8 479 362 480 603 600 478 601 720
8 481 363 482 605 602 479 603 722
8 603 480 364 482 723 604 483 606
8 605 482 365 484 724 606 485 607
8 656 553 608 726 542 436 487 609
8 645 542 609 728 525 422 488 611
8 609 487 610 729 488 369 489 612
8 611 488 612 730 491 371 490 613
8 616 504 386 495 731 624 503 614
8 731 624 503 614 678 575 457 561
8 732 622 501 615 616 504 386 495
8 617 502 384 496 732 622 501 615
8 617 502 621 735 496 384 500 618
8 736 620 499 619 618 500 382 497
8 630 527 408 511 736 620 499 619
8 621 506 626 737 500 388 505 620
8 647 544 424 527 737 626 505 620
8 623 508 627 738 502 390 506 621
8 623 508 390 502 739 628 507 622
8 625 510 628 739 504 392 507 622
8 740 629 509 624 691 585 468 575
8 625 510 392 504 740 629 509 624
8 632 529 410 513 744 647 527 630
8 631 528 648 745 514 411 530 633
8 632 529 648 745 513 410 528 631
8 638 535 416 519 746 649 530 633
8 747 650 531 634 635 532 413 516
8 642 539 420 523 747 650 531 634
8 636 533 651 748 517 414 532 635
8 640 536 652 749 521 417 533 636
8 639 537 418 520 750 653 534 637
8 638 535 653 750 519 416 534 637
8 641 538 419 522 751 655 537 639
8 641 538 654 752 522 419 536 640
8 643 540 421 524 753 657 539 642
8 643 540 659 755 524 421 541 644
8 644 541 660 757 526 423 543 646
8 758 661 542 645 646 543 422 525
8 529 426 544 647 648 545 662 759
8 530 427 545 648 649 546 663 760
8 535 429 546 649 653 547 664 761
8 762 666 548 650 651 550 432 532
8 657 556 438 539 762 666 548 650
8 652 551 668 763 533 433 550 651
8 654 552 669 764 536 434 551 652
8 655 549 431 537 765 665 547 653
8 538 435 549 655 654 552 667 766
8 661 554 671 768 542 436 553 656
8 658 558 440 540 769 674 556 657
8 658 558 675 770 540 440 557 659
8 659 557 673 771 541 439 555 660
8 660 555 672 772 543 437 554 661
8 788 686 570 676 704 591 473 590
8 677 571 453 560 788 686 570 676
8 679 573 455 562 789 687 571 677
8 566 459 577 683 678 575 691 790
8 681 574 456 564 791 689 573 679
8 680 572 688 792 567 460 578 684
8 681 574 688 792 564 456 572 680
8 682 576 692 794 566 459 577 683
8 569 461 579 685 682 576 692 794
8 568 462 578 684 685 579 694 796
8 687 581 464 571 798 696 580 686
8 798 696 580 686 705 592 474 591
8 689 583 466 573 799 697 581 687
8 688 582 698 800 578 471 588 694
8 690 584 698 800 574 467 582 688
8 690 584 467 574 801 699 583 689
8 693 587 701 803 577 470 585 691
8 693 587 470 577 804 702 586 692
8 695 589 702 804 579 472 586 692
8 695 589 472 579 805 703 588 694
8 708 595 705 813 593 475 591 704
8 710 596 706 814 595 476 592 705
8 707 594 479 602 816 709 600 719
8 708 595 475 593 817 711 594 707
8 709 598 478 600 819 715 599 717
8 711 597 477 594 820 714 598 709
8 710 596 476 595 822 713 597 711
8 600 478 601 720 717 599 718 832
8 602 479 603 722 719 600 720 834
8 720 601 480 603 835 721 604 723
8 722 603 482 605 836 723 606 724
8 767 670 725 839 656 553 608 726
8 756 656 726 841 645 542 609 728
8 726 608 727 842 609 487 610 729
8 728 609 729 843 611 488 612 730
8 844 740 624 731 790 691 575 678
8 733 625 504 616 844 740 624 731
8 734 623 502 617 845 739 622 732
8 733 625 739 845 616 504 622 732
8 734 623 738 846 617 502 621 735
8 735 621 737 847 618 500 620 736
8 744 647 527 630 847 737 620 736
8 621 506 627 738 737 626 741 848
8 647 544 626 737 759 662 741 848
8 623 508 628 739 738 627 742 849
8 740 629 585 691 850 743 700 802
8 625 510 629 740 739 628 743 850
8 632 529 647 744 745 648 759 854
8 633 530 648 745 746 649 760 855
8 638 535 649 746 750 653 761 856
8 857 762 650 747 748 651 532 635
8 753 657 539 642 857 762 650 747
8 749 652 763 858 636 533 651 748
8 752 654 764 859 640 536 652 749
8 751 655 537 639 860 765 653 750
8 641 538 655 751 752 654 766 861
8 754 658 540 643 862 769 657 753
8 754 658 770 863 643 540 659 755
8 755 659 771 864 644 541 660 757
8 758 661 768 866 645 542 656 756
8 757 660 772 867 646 543 661 758
8 759 662 773 868 648 545 663 760
8 649 546 663 760 761 664 774 871
8 765 665 547 653 872 775 664 761
8 873 777 666 762 763 668 550 651
8 769 674 556 657 873 777 666 762
8 764 669 779 874 652 551 668 763
8 654 552 667 766 764 669 778 875
8 655 549 665 765 766 667 776 876
8 768 671 782 877 656 553 670 767
8 772 672 783 878 661 554 671 768
8 658 558 674 769 770 675 786 879
8 659 557 675 770 771 673 785 881
8 882 784 672 772 771 673 555 660
8 789 687 571 677 897 798 686 788
8 897 798 686 788 813 705 591 704
8 791 689 573 679 898 799 687 789
8 795 693 803 900 683 577 691 790
8 793 690 574 681 901 801 689 791
8 792 688 800 902 684 578 694 796
8 793 690 800 902 681 574 688 792
8 795 693 577 683 903 804 692 794
8 797 695 804 903 685 579 692 794
8 797 695 579 685 904 805 694 796
8 905 806 697 799 798 696 581 687
8 814 706 806 905 705 592 696 798
8 689 583 697 799 801 699 808 907
8 800 698 809 908 694 588 703 805
8 690 584 699 801 800 698 809 908
8 803 701 810 909 691 585 700 802
8 693 587 702 804 803 701 811 910
8 695 589 703 805 804 702 812 911
8 818 710 814 919 708 595 705 813
8 821 712 815 920 710 596 706 814
8 816 709 600 719 922 819 717 831
8 817 711 594 707 923 820 709 816
8 818 710 595 708 924 822 711 817
8 819 715 599 717 926 827 716 829
8 820 714 598 709 927 826 715 819
8 929 825 713 822 820 714 597 711
8 821 712 596 710 930 824 713 822
8 717 599 718 832 829 716 830 942
8 719 600 720 834 831 717 832 944
8 832 718 601 720 945 833 721 835
8 834 720 603 722 946 835 723 836
8 869 780 838 950 767 670 725 839
8 865 767 839 952 756 656 726 841
8 839 725 840 953 726 608 727 842
8 841 726 842 954 728 609 729 843
8 844 740 691 790 955 850 802 899
8 733 625 740 844 845 739 850 955
8 734 623 739 845 846 738 849 956
8 735 621 738 846 847 737 848 957
8 744 647 737 847 854 759 848 957
8 738 627 742 849 848 741 851 958
8 848 741 851 958 759 662 773 868
8 850 743 700 802 959 852 807 906
8 849 742 628 739 959 852 743 850
8 854 759 868 965 745 648 760 855
8 746 649 760 855 856 761 871 966
8 860 765 653 750 967 872 761 856
8 968 873 762 857 858 763 651 748
8 862 769 657 753 968 873 762 857
8 859 764 874 969 749 652 763 858
8 752 654 766 861 859 764 875 970
8 751 655 765 860 861 766 876 971
8 754 658 769 862 863 770 879 972
8 755 659 770 863 864 771 881 974
8 976 882 772 867 864 771 660 757
8 866 768 877 977 756 656 767 865
8 867 772 878 978 758 661 768 866
8 760 663 773 868 871 774 883 980
8 870 781 837 948 982 890 780 869
8 982 890 780 869 877 782 670 767
8 761 664 774 871 872 775 884 984
8 876 776 665 765 985 885 775 872
8 873 777 668 763 986 887 779 874
8 769 674 777 873 879 786 887 986
8 764 669 778 875 874 779 888 987
8 766 667 776 876 875 778 886 988
8 878 783 892 989 768 671 782 877
8 878 783 672 772 990 893 784 882
8 880 787 675 770 991 896 786 879
8 880 787 895 992 770 675 785 881
8 881 785 894 993 771 673 784 882
8 1006 905 799 898 897 798 687 789
8 919 814 905 1006 813 705 798 897
8 791 689 799 898 901 801 907 1007
8 900 803 909 1009 790 691 802 899
8 795 693 804 903 900 803 910 1010
8 902 800 908 1011 796 694 805 904
8 793 690 801 901 902 800 908 1011
8 797 695 805 904 903 804 911 1012
8 799 697 806 905 907 808 912 1013
8 920 815 912 1013 814 706 806 905
8 802 700 810 909 906 807 913 1014
8 801 699 808 907 908 809 914 1015
8 805 703 809 908 911 812 915 1016
8 803 701 811 910 909 810 916 1017
8 911 812 917 1018 804 702 811 910
8 925 821 920 1030 818 710 814 919
8 928 823 921 1031 821 712 815 920
8 922 819 717 831 1033 926 829 941
8 923 820 709 816 1034 927 819 922
8 1035 929 822 924 923 820 711 817
8 925 821 710 818 1036 930 822 924
8 1038 933 825 929 927 826 714 820
8 926 827 716 829 1039 935 828 939
8 927 826 715 819 1040 934 827 926
8 928 823 712 821 1041 931 824 930
8 1042 932 824 930 929 825 713 822
8 829 716 830 942 939 828 940 1058
8 831 717 832 944 941 829 942 1060
8 942 830 718 832 1061 943 833 945
8 944 832 720 834 1062 945 835 946
8 981 889 947 1064 870 781 837 948
8 948 837 949 1067 869 780 838 950
8 975 869 950 1069 865 767 839 952
8 950 838 951 1070 839 725 840 953
8 952 839 953 1071 841 726 842 954
8 955 850 802 899 1072 959 906 1008
8 956 849 739 845 1072 959 850 955
8 846 738 849 956 957 848 958 1073
8 957 848 958 1073 854 759 868 965
8 849 742 852 959 958 851 961 1076
8 960 853 961 1076 906 807 852 959
8 958 851 961 1076 868 773 883 980
8 960 853 807 906 1077 963 913 1014
8 855 760 868 965 966 871 980 1085
8 856 761 871 966 967 872 984 1086
8 971 876 765 860 1087 985 872 967
8 968 873 763 858 1088 986 874 969
8 862 769 873 968 972 879 986 1088
8 859 764 875 970 969 874 987 1089
8 861 766 876 971 970 875 988 1090
8 973 880 770 863 1091 991 879 972
8 973 880 992 1092 863 770 881 974
8 974 881 993 1093 864 771 882 976
8 979 870 948 1066 1094 982 869 975
8 1094 982 869 975 977 877 767 865
8 978 878 772 867 1095 990 882 976
8 978 878 989 1096 866 768 877 977
8 871 774 883 980 984 884 994 1099
8 983 891 999 1100 870 781 889 981
8 1101 1000 890 982 989 892 782 877
8 983 891 781 870 1101 1000 890 982
8 872 775 884 984 985 885 995 1103
8 876 776 885 985 988 886 996 1104
8 986 887 779 874 1105 998 888 987
8 879 786 887 986 991 896 998 1105
8 875 778 886 988 987 888 997 1106
8 990 893 1002 1107 878 783 892 989
8 1108 1003 893 990 993 894 784 882
8 880 787 896 991 992 895 1005 1109
8 993 894 785 881 1110 1004 895 992
8 898 799 905 1006 1007 907 1013 1120
8 1030 920 1013 1120 919 814 905 1006
8 901 801 907 1007 1011 908 1015 1121
8 899 802 909 1009 1008 906 1014 1122
8 900 803 910 1010 1009 909 1017 1123
8 1012 911 1018 1124 903 804 910 1010
8 904 805 908 1011 1012 911 1016 1125
8 1013 912 1020 1127 907 808 914 1015
8 1031 921 1020 1127 920 815 912 1013
8 1019 918 962 1075 1128 1021 913 1014
8 1128 1021 913 1014 1017 916 810 909
8 1015 914 1022 1129 908 809 915 1016
8 1016 915 1023 1130 911 812 917 1018
8 1018 917 1024 1131 910 811 916 1017
8 1037 928 1031 1148 925 821 920 1030
8 928 823 931 1041 1031 921 1032 1149
8 1033 926 829 941 1151 1039 939 1057
8 1034 927 819 922 1152 1040 926 1033
8 1153 1038 929 1035 1034 927 820 923
8 1154 1042 930 1036 1035 929 822 924
8 1037 928 821 925 1155 1041 930 1036
8 1039 935 828 939 1156 1047 938 1055
8 1157 1043 932 1042 1038 933 825 929
8 1038 933 826 927 1158 1045 934 1040
8 1040 934 827 926 1159 1046 935 1039
8 930 824 932 1042 1041 931 1044 1160
8 1051 936 1048 1165 1175 1052 937 1053
8 1156 1047 938 1055 1053 937 1054 1178
8 939 828 940 1058 1055 938 1056 1181
8 941 829 942 1060 1057 939 1058 1183
8 942 830 943 1061 1058 940 1059 1184
8 1060 942 832 944 1185 1061 945 1062
8 1082 964 1063 1188 981 889 947 1064
8 1097 981 1064 1190 979 870 948 1066
8 1064 947 1065 1191 948 837 949 1067
8 1066 948 1067 1193 975 869 950 1069
8 1067 949 1068 1194 950 838 951 1070
8 1069 950 1070 1195 952 839 953 1071
8 956 849 959 1072 1073 958 1076 1197
8 1074 960 1076 1197 1008 906 959 1072
8 1073 958 1076 1197 965 868 980 1085
8 1074 960 906 1008 1198 1077 1014 1122
8 1133 1026 1079 1199 1019 918 962 1075
8 1077 963 913 1014 1200 1080 962 1075
8 960 853 963 1077 1076 961 1078 1201
8 980 883 961 1076 1099 994 1078 1201
8 1210 1083 964 1082 1100 999 889 981
8 966 871 980 1085 1086 984 1099 1215
8 967 872 984 1086 1087 985 1103 1216
8 971 876 985 1087 1090 988 1104 1217
8 1088 986 874 969 1218 1105 987 1089
8 972 879 986 1088 1091 991 1105 1218
8 970 875 988 1090 1089 987 1106 1219
8 973 880 991 1091 1092 992 1109 1220
8 1093 993 881 974 1221 1110 992 1092
8 1222 1108 990 1095 1093 993 882 976
8 1223 1101 982 1094 1096 989 877 977
8 1098 983 870 979 1223 1101 982 1094
8 1095 990 1107 1224 978 878 989 1096
8 1098 983 1100 1225 979 870 981 1097
8 984 884 994 1099 1103 995 1111 1227
8 1102 1001 1115 1228 983 891 999 1100
8 1101 1000 892 989 1229 1116 1002 1107
8 1102 1001 891 983 1229 1116 1000 1101
8 985 885 995 1103 1104 996 1112 1230
8 988 886 996 1104 1106 997 1113 1231
8 1105 998 888 987 1232 1114 997 1106
8 991 896 998 1105 1109 1005 1114 1232
8 1108 1003 1117 1233 990 893 1002 1107
8 1108 1003 894 993 1233 1117 1004 1110
8 992 895 1005 1109 1110 1004 1118 1234
8 1120 1013 1127 1244 1007 907 1015 1121
8 1148 1031 1127 1244 1030 920 1013 1120
8 1121 1015 1129 1245 1011 908 1016 1125
8 1126 1019 1075 1196 1246 1128 1014 1122
8 1246 1128 1014 1122 1123 1017 909 1009
8 1124 1018 1131 1247 1010 910 1017 1123
8 1125 1016 1130 1248 1012 911 1018 1124
8 1127 1020 1137 1254 1015 914 1022 1129
8 1031 921 1032 1149 1127 1020 1137 1254
8 1134 1027 918 1019 1257 1140 1021 1128
8 1257 1140 1021 1128 1131 1024 916 1017
8 1129 1022 1141 1258 1016 915 1023 1130
8 1130 1023 1142 1259 1018 917 1024 1131
8 1261 1144 1025 1132 1133 1026 1079 1199
8 1255 1138 1025 1132 1135 1028 1144 1261
8 1133 1026 918 1019 1262 1145 1027 1134
8 1136 1029 1139 1256 1263 1146 1028 1135
8 1037 928 1041 1155 1148 1031 1149 1275
8 1041 931 1044 1160 1149 1032 1150 1276
8 1151 1039 939 1057 1278 1156 1055 1180
8 1152 1040 926 1033 1279 1159 1039 1151
8 1153 1038 927 1034 1280 1158 1040 1152
8 1281 1157 1042 1154 1153 1038 929 1035
8 1036 930 1042 1154 1155 1041 1160 1282
8 1283 1164 1046 1159 1156 1047 935 1039
8 1165 1048 1164 1283 1053 937 1047 1156
8 1157 1043 933 1038 1284 1161 1045 1158
8 1157 1043 1161 1284 1042 932 1044 1160
8 1040 934 1046 1159 1158 1045 1163 1285
8 1166 1049 1167 1292 1051 936 1048 1165
8 1166 1049 936 1051 1293 1168 1050 1172
8 1051 936 1052 1175 1172 1050 1173 1306
8 1174 1051 1165 1290 1308 1175 1053 1177
8 1053 937 1054 1178 1175 1052 1176 1309
8 1278 1156 1055 1180 1177 1053 1178 1311
8 1055 938 1056 1181 1178 1054 1179 1312
8 1057 939 1058 1183 1180 1055 1181 1314
8 1058 940 1059 1184 1181 1056 1182 1315
8 1060 942 1061 1185 1183 1058 1184 1316
8 1208 1081 1187 1321 1082 964 1063 1188
8 1209 1082 1188 1322 1097 981 1064 1190
8 1188 1063 1189 1323 1064 947 1065 1191
8 1190 1064 1191 1325 1066 948 1067 1193
8 1191 1065 1192 1326 1067 949 1068 1194
8 1067 1193 1069 950 1194 1327 1195 1070
8 1250 1133 1199 1330 1126 1019 1075 1196
8 1198 1077 1014 1122 1331 1200 1075 1196
8 1074 960 1077 1198 1197 1076 1201 1332
8 1085 980 1076 1197 1215 1099 1201 1332
8 1199 1079 1203 1333 1075 962 1080 1200
8 1132 1025 1119 1243 1199 1079 1203 1333
8 1201 1078 963 1077 1334 1202 1080 1200
8 1099 994 1078 1201 1227 1111 1202 1334
8 1343 1207 1081 1208 1210 1083 964 1082
8 1214 1084 1186 1319 1343 1207 1081 1208
8 1345 1210 1082 1209 1225 1100 981 1097
8 1346 1211 1083 1210 1228 1115 999 1100
8 1086 984 1099 1215 1216 1103 1227 1352
8 1087 985 1103 1216 1217 1104 1230 1353
8 1090 988 1104 1217 1219 1106 1231 1354
8 1218 1105 987 1089 1355 1232 1106 1219
8 1091 991 1105 1218 1220 1109 1232 1355
8 1092 992 1109 1220 1221 1110 1234 1356
8 1222 1108 1233 1357 1095 990 1107 1224
8 1222 1108 993 1093 1357 1233 1110 1221
8 1223 1101 989 1096 1358 1229 1107 1224
8 1226 1102 983 1098 1358 1229 1101 1223
8 1226 1102 1228 1359 1098 983 1100 1225
8 1103 995 1111 1227 1230 1112 1235 1360
8 1107 1002 1117 1233 1229 1116 1240 1362
8 1102 1001 1116 1229 1228 1115 1240 1362
8 1104 996 1112 1230 1231 1113 1236 1363
8 1364 1237 1114 1232 1231 1113 997 1106
8 1109 1005 1114 1232 1234 1118 1238 1365
8 1110 1004 1118 1234 1233 1117 1241 1366
8 1242 1374 1255 1138 1119 1243 1132 1025
8 1244 1127 1254 1376 1121 1015 1129 1245
8 1148 1031 1149 1275 1244 1127 1254 1376
8 1245 1129 1258 1377 1125 1016 1130 1248
8 1251 1134 1019 1126 1378 1257 1128 1246
8 1378 1257 1128 1246 1247 1131 1017 1123
8 1248 1130 1259 1379 1124 1018 1131 1247
8 1261 1381 1250 1133 1132 1249 1330 1199
8 1255 1380 1252 1135 1132 1249 1381 1261
8 1250 1133 1019 1126 1382 1262 1134 1251
8 1253 1136 1256 1385 1384 1263 1135 1252
8 1254 1137 1265 1387 1129 1022 1141 1258
8 1149 1032 1150 1276 1254 1137 1265 1387
8 1028 1135 1255 1138 1139 1256 1388 1266
8 1136 1029 1147 1264 1256 1139 1267 1389
8 1390 1268 1140 1257 1259 1142 1024 1131
8 1260 1143 1027 1134 1390 1268 1140 1257
8 1258 1141 1269 1391 1130 1023 1142 1259
8 1262 1145 1027 1134 1393 1271 1143 1260
8 1261 1144 1026 1133 1394 1272 1145 1262
8 1135 1028 1144 1261 1263 1146 1272 1394
8 1136 1029 1146 1263 1264 1147 1273 1395
8 1155 1041 1160 1282 1275 1149 1276 1405
8 1276 1150 1044 1160 1406 1277 1162 1286
8 1408 1283 1159 1279 1278 1156 1039 1151
8 1290 1165 1283 1408 1177 1053 1156 1278
8 1152 1040 1159 1279 1280 1158 1285 1409
8 1281 1157 1038 1153 1410 1284 1158 1280
8 1281 1157 1284 1410 1154 1042 1160 1282
8 1159 1046 1164 1283 1285 1163 1289 1412
8 1292 1167 1289 1412 1165 1048 1164 1283
8 1158 1045 1163 1285 1284 1161 1288 1413
8 1284 1161 1288 1413 1160 1044 1162 1286
8 1291 1166 1292 1418 1174 1051 1165 1290
8 1291 1166 1051 1174 1419 1293 1172 1305
8 1294 1169 1296 1421 1166 1049 1167 1292
8 1293 1168 1050 1172 1422 1295 1171 1303
8 1294 1169 1049 1166 1423 1297 1168 1293
8 1422 1295 1171 1303 1301 1170 1302 1435
8 1172 1050 1173 1306 1303 1171 1304 1438
8 1174 1051 1175 1308 1305 1172 1306 1440
8 1175 1052 1176 1309 1306 1173 1307 1441
8 1177 1053 1178 1311 1308 1175 1309 1443
8 1178 1054 1179 1312 1309 1176 1310 1444
8 1180 1055 1181 1314 1311 1178 1312 1446
8 1056 1181 1312 1179 1182 1315 1447 1313
8 1183 1058 1184 1316 1314 1181 1315 1448
8 1319 1186 1084 1214 1451 1317 1213 1350
8 1319 1186 1318 1453 1208 1081 1187 1321
8 1321 1187 1320 1456 1188 1063 1189 1323
8 1344 1208 1321 1457 1209 1082 1188 1322
8 1322 1188 1323 1458 1190 1064 1191 1325
8 1323 1189 1324 1459 1191 1065 1192 1326
8 1191 1325 1193 1067 1326 1460 1327 1194
8 1242 1374 1243 1119 1328 1462 1335 1204
8 1330 1199 1333 1465 1196 1075 1200 1331
8 1132 1249 1330 1199 1243 1375 1465 1333
8 1332 1201 1077 1198 1466 1334 1200 1331
8 1215 1099 1201 1332 1352 1227 1334 1466
8 1119 1243 1333 1203 1204 1335 1470 1338
8 1333 1203 1338 1470 1200 1080 1202 1334
8 1227 1111 1202 1334 1360 1235 1338 1470
8 1328 1462 1335 1204 1205 1336 1471 1339
8 1337 1206 1340 1472 1464 1329 1205 1336
8 1346 1211 1342 1479 1210 1083 1207 1343
8 1346 1211 1115 1228 1479 1342 1239 1361
8 1348 1212 1084 1214 1479 1342 1207 1343
8 1480 1343 1208 1344 1345 1210 1082 1209
8 1351 1214 1319 1454 1480 1343 1208 1344
8 1481 1346 1210 1345 1359 1228 1100 1225
8 1348 1212 1347 1483 1214 1084 1213 1350
8 1216 1103 1227 1352 1353 1230 1360 1488
8 1217 1104 1230 1353 1354 1231 1363 1489
8 1490 1364 1232 1355 1354 1231 1106 1219
8 1220 1109 1232 1355 1356 1234 1365 1491
8 1221 1110 1234 1356 1357 1233 1366 1492
8 1224 1107 1233 1357 1358 1229 1362 1493
8 1226 1102 1229 1358 1359 1228 1362 1493
8 1230 1112 1235 1360 1363 1236 1367 1496
8 1361 1239 1115 1228 1497 1371 1240 1362
8 1366 1241 1372 1498 1233 1117 1240 1362
8 1364 1237 1113 1231 1499 1368 1236 1363
8 1364 1237 1368 1499 1232 1114 1238 1365
8 1234 1118 1238 1365 1366 1241 1369 1500
8 1507 1373 1242 1374 1388 1266 1138 1255
8 1508 1374 1243 1375 1380 1255 1132 1249
8 1376 1254 1387 1509 1245 1129 1258 1377
8 1275 1149 1276 1405 1376 1254 1387 1509
8 1377 1258 1391 1510 1248 1130 1259 1379
8 1511 1390 1257 1378 1379 1259 1131 1247
8 1383 1260 1134 1251 1511 1390 1257 1378
8 1252 1135 1256 1385 1380 1255 1388 1512
8 1261 1381 1513 1394 1133 1250 1382 1262
8 1135 1252 1384 1263 1261 1381 1513 1394
8 1382 1262 1134 1251 1514 1393 1260 1383
8 1253 1136 1263 1384 1386 1264 1395 1516
8 1253 1136 1264 1386 1385 1256 1389 1517
8 1387 1265 1397 1519 1258 1141 1269 1391
8 1276 1150 1277 1406 1387 1265 1397 1519
8 1256 1139 1267 1389 1388 1266 1398 1520
8 1264 1147 1274 1396 1389 1267 1399 1521
8 1392 1270 1143 1260 1522 1400 1268 1390
8 1390 1268 1142 1259 1522 1400 1269 1391
8 1392 1270 1401 1523 1260 1143 1271 1393
8 1272 1394 1524 1402 1145 1262 1393 1271
8 1395 1273 1146 1263 1524 1402 1272 1394
8 1273 1395 1264 1147 1403 1526 1396 1274
8 1405 1276 1160 1282 1534 1406 1286 1411
8 1414 1287 1407 1535 1286 1162 1277 1406
8 1279 1159 1283 1408 1409 1285 1412 1537
8 1418 1292 1412 1537 1290 1165 1283 1408
8 1280 1158 1285 1409 1410 1284 1413 1538
8 1410 1284 1413 1538 1282 1160 1286 1411
8 1285 1163 1289 1412 1413 1288 1417 1540
8 1421 1296 1417 1540 1292 1167 1289 1412
8 1414 1287 1162 1286 1541 1416 1288 1413
8 1420 1294 1421 1545 1291 1166 1292 1418
8 1419 1293 1172 1305 1546 1422 1303 1437
8 1420 1294 1166 1291 1547 1423 1293 1419
8 1294 1169 1297 1423 1421 1296 1425 1548
8 1423 1297 1168 1293 1549 1424 1295 1422
8 1301 1170 1298 1427 1422 1295 1424 1549
8 1432 1300 1428 1554 1301 1170 1298 1427
8 1431 1299 1428 1554 1560 1430 1300 1432
8 1563 1433 1300 1432 1435 1302 1170 1301
8 1546 1422 1303 1437 1434 1301 1435 1565
8 1303 1171 1304 1438 1435 1302 1436 1566
8 1305 1172 1306 1440 1437 1303 1438 1568
8 1306 1173 1307 1441 1438 1304 1439 1569
8 1308 1175 1309 1443 1440 1306 1441 1571
8 1309 1176 1310 1444 1441 1307 1442 1572
8 1311 1178 1312 1446 1443 1309 1444 1574
8 1179 1312 1444 1310 1313 1447 1575 1445
8 1314 1181 1315 1448 1446 1312 1447 1576
8 1350 1213 1349 1486 1451 1317 1449 1579
8 1451 1317 1450 1581 1319 1186 1318 1453
8 1454 1319 1214 1351 1582 1451 1350 1487
8 1453 1318 1452 1584 1321 1187 1320 1456
8 1454 1319 1453 1585 1344 1208 1321 1457
8 1456 1320 1455 1586 1323 1189 1324 1459
8 1457 1321 1456 1587 1322 1188 1323 1458
8 1458 1323 1459 1588 1325 1191 1326 1460
8 1205 1336 1464 1329 1328 1462 1590 1461
8 1507 1373 1461 1590 1374 1242 1328 1462
8 1508 1374 1462 1591 1375 1243 1335 1467
8 1337 1206 1329 1464 1473 1341 1463 1594
8 1375 1243 1335 1467 1465 1333 1470 1596
8 1465 1333 1470 1596 1331 1200 1334 1466
8 1352 1227 1334 1466 1488 1360 1470 1596
8 1591 1462 1336 1468 1467 1335 1471 1597
8 1469 1337 1472 1598 1595 1464 1336 1468
8 1471 1339 1474 1600 1335 1204 1338 1470
8 1600 1474 1367 1496 1470 1338 1235 1360
8 1336 1205 1340 1472 1471 1339 1475 1601
8 1337 1206 1341 1473 1472 1340 1476 1602
8 1495 1370 1478 1609 1361 1239 1342 1479
8 1348 1212 1342 1479 1483 1347 1478 1609
8 1481 1346 1479 1610 1345 1210 1343 1480
8 1481 1346 1228 1359 1610 1479 1361 1494
8 1484 1348 1214 1351 1610 1479 1343 1480
8 1483 1347 1482 1612 1350 1213 1349 1486
8 1484 1348 1483 1613 1351 1214 1350 1487
8 1353 1230 1360 1488 1489 1363 1496 1616
8 1490 1364 1231 1354 1617 1499 1363 1489
8 1490 1364 1499 1617 1355 1232 1365 1491
8 1356 1234 1365 1491 1492 1366 1500 1619
8 1492 1366 1498 1620 1357 1233 1362 1493
8 1494 1361 1228 1359 1621 1497 1362 1493
8 1495 1370 1239 1361 1622 1504 1371 1497
8 1363 1236 1367 1496 1499 1368 1501 1623
8 1497 1371 1240 1362 1624 1505 1372 1498
8 1625 1503 1372 1498 1500 1369 1241 1366
8 1365 1238 1368 1499 1500 1369 1502 1626
8 1520 1398 1506 1633 1388 1266 1373 1507
8 1634 1507 1374 1508 1512 1388 1255 1380
8 1509 1387 1519 1635 1377 1258 1391 1510
8 1405 1276 1406 1534 1509 1387 1519 1635
8 1515 1392 1260 1383 1636 1522 1390 1511
8 1511 1390 1259 1379 1636 1522 1391 1510
8 1385 1256 1389 1517 1512 1388 1520 1637
8 1513 1394 1262 1382 1638 1524 1393 1514
8 1395 1516 1638 1524 1263 1384 1513 1394
8 1515 1392 1523 1639 1383 1260 1393 1514
8 1516 1395 1526 1640 1386 1264 1396 1518
8 1386 1264 1396 1518 1517 1389 1521 1641
8 1519 1397 1527 1643 1391 1269 1400 1522
8 1535 1407 1527 1643 1406 1277 1397 1519
8 1389 1267 1399 1521 1520 1398 1528 1644
8 1645 1529 1399 1521 1525 1404 1274 1396
8 1392 1270 1400 1522 1523 1401 1531 1646
8 1524 1402 1271 1393 1648 1532 1401 1523
8 1403 1526 1648 1532 1273 1395 1524 1402
8 1525 1404 1274 1396 1649 1533 1403 1526
8 1539 1414 1535 1657 1411 1286 1406 1534
8 1542 1415 1536 1658 1414 1287 1407 1535
8 1409 1285 1412 1537 1538 1413 1540 1660
8 1545 1421 1540 1660 1418 1292 1412 1537
8 1539 1414 1286 1411 1661 1541 1413 1538
8 1540 1417 1544 1663 1413 1288 1416 1541
8 1421 1296 1425 1548 1540 1417 1544 1663
8 1542 1415 1287 1414 1664 1543 1416 1541
8 1420 1294 1423 1547 1545 1421 1548 1666
8 1547 1423 1293 1419 1667 1549 1422 1546
8 1434 1301 1427 1553 1546 1422 1549 1667
8 1423 1297 1424 1549 1548 1425 1550 1668
8 1551 1426 1550 1668 1427 1298 1424 1549
8 1551 1426 1298 1427 1671 1552 1428 1554
8 1562 1432 1554 1674 1434 1301 1427 1553
8 1431 1299 1429 1558 1554 1428 1555 1675
8 1431 1299 1430 1560 1558 1429 1557 1680
8 1560 1430 1300 1432 1683 1559 1433 1563
8 1561 1431 1554 1674 1684 1560 1432 1562
8 1685 1563 1432 1562 1565 1435 1301 1434
8 1435 1302 1436 1566 1563 1433 1564 1686
8 1437 1303 1438 1568 1565 1435 1566 1688
8 1438 1304 1439 1569 1566 1436 1567 1689
8 1440 1306 1441 1571 1568 1438 1569 1691
8 1441 1307 1442 1572 1569 1439 1570 1692
8 1443 1309 1444 1574 1571 1441 1572 1694
8 1310 1444 1572 1442 1445 1575 1695 1573
8 1446 1312 1447 1576 1574 1444 1575 1696
8 1486 1349 1485 1614 1579 1449 1577 1699
8 1451 1317 1449 1579 1581 1450 1578 1701
8 1487 1350 1486 1615 1582 1451 1579 1702
8 1581 1450 1580 1704 1453 1318 1452 1584
8 1582 1451 1581 1705 1454 1319 1453 1585
8 1584 1452 1583 1706 1456 1320 1455 1586
8 1585 1453 1584 1707 1457 1321 1456 1587
8 1587 1456 1586 1708 1458 1323 1459 1588
8 1633 1506 1589 1710 1507 1373 1461 1590
8 1464 1329 1461 1590 1594 1463 1589 1710
8 1468 1336 1462 1591 1595 1464 1590 1711
8 1634 1507 1590 1711 1508 1374 1462 1591
8 1473 1341 1463 1594 1603 1477 1593 1716
8 1469 1337 1464 1595 1599 1473 1594 1717
8 1471 1597 1467 1335 1600 1718 1596 1470
8 1718 1600 1496 1616 1596 1470 1360 1488
8 1336 1468 1597 1471 1472 1598 1719 1601
8 1469 1337 1473 1599 1598 1472 1602 1720
8 1722 1604 1501 1623 1600 1474 1367 1496
8 1475 1601 1471 1339 1604 1722 1600 1474
8 1602 1476 1605 1723 1472 1340 1475 1601
8 1476 1602 1724 1606 1341 1473 1603 1477
8 1483 1347 1478 1609 1612 1482 1608 1731
8 1495 1370 1504 1622 1609 1478 1608 1731
8 1618 1495 1609 1732 1494 1361 1479 1610
8 1484 1348 1479 1610 1613 1483 1609 1732
8 1486 1349 1482 1612 1614 1485 1611 1733
8 1613 1483 1612 1734 1487 1350 1486 1615
8 1489 1363 1496 1616 1617 1499 1623 1736
8 1491 1365 1499 1617 1619 1500 1626 1737
8 1618 1495 1361 1494 1738 1622 1497 1621
8 1739 1625 1498 1620 1619 1500 1366 1492
8 1621 1497 1362 1493 1740 1624 1498 1620
8 1742 1631 1504 1622 1624 1505 1371 1497
8 1743 1628 1502 1626 1623 1501 1368 1499
8 1744 1630 1505 1624 1625 1503 1372 1498
8 1745 1629 1503 1625 1626 1502 1369 1500
8 1520 1398 1528 1644 1633 1506 1632 1751
8 1637 1520 1633 1752 1512 1388 1507 1634
8 1635 1519 1643 1753 1510 1391 1522 1636
8 1657 1535 1643 1753 1534 1406 1519 1635
8 1515 1392 1522 1636 1639 1523 1646 1754
8 1517 1389 1521 1641 1637 1520 1644 1755
8 1524 1638 1756 1648 1393 1514 1639 1523
8 1640 1526 1395 1516 1756 1648 1524 1638
8 1642 1525 1396 1518 1757 1649 1526 1640
8 1758 1645 1521 1641 1642 1525 1396 1518
8 1646 1531 1400 1522 1760 1650 1527 1643
8 1535 1407 1536 1658 1643 1527 1650 1760
8 1521 1399 1529 1645 1644 1528 1651 1761
8 1647 1530 1652 1762 1525 1404 1529 1645
8 1401 1523 1648 1532 1531 1646 1763 1655
8 1525 1404 1533 1649 1647 1530 1654 1765
8 1533 1649 1766 1656 1403 1526 1648 1532
8 1662 1542 1658 1774 1539 1414 1535 1657
8 1542 1415 1543 1664 1658 1536 1659 1775
8 1660 1540 1663 1777 1538 1413 1541 1661
8 1545 1421 1548 1666 1660 1540 1663 1777
8 1662 1542 1414 1539 1778 1664 1541 1661
8 1664 1543 1416 1541 1779 1665 1544 1663
8 1548 1425 1550 1668 1663 1544 1665 1779
8 1547 1423 1549 1667 1666 1548 1668 1781
8 1670 1551 1668 1781 1553 1427 1549 1667
8 1551 1426 1552 1671 1668 1550 1669 1782
8 1670 1551 1427 1553 1784 1671 1554 1674
8 1675 1555 1672 1785 1554 1428 1552 1671
8 1678 1556 1673 1789 1558 1429 1555 1675
8 1561 1431 1558 1681 1674 1554 1675 1790
8 1794 1677 1556 1678 1680 1557 1429 1558
8 1560 1430 1559 1683 1680 1557 1679 1797
8 1561 1431 1560 1684 1681 1558 1680 1798
8 1563 1433 1564 1686 1683 1559 1682 1800
8 1684 1560 1432 1562 1801 1683 1563 1685
8 1565 1435 1566 1688 1685 1563 1686 1802
8 1566 1436 1567 1689 1686 1564 1687 1803
8 1568 1438 1569 1691 1688 1566 1689 1805
8 1569 1439 1570 1692 1689 1567 1690 1806
8 1571 1441 1572 1694 1691 1569 1692 1808
8 1442 1572 1692 1570 1573 1695 1809 1693
8 1574 1444 1575 1696 1694 1572 1695 1810
8 1614 1485 1592 1712 1699 1577 1697 1813
8 1579 1449 1577 1699 1701 1578 1698 1815
8 1615 1486 1614 1735 1702 1579 1699 1816
8 1701 1578 1700 1818 1581 1450 1580 1704
8 1582 1451 1579 1702 1705 1581 1701 1819
8 1704 1580 1703 1820 1584 1452 1583 1706
8 1705 1581 1704 1821 1585 1453 1584 1707
8 1707 1584 1706 1822 1587 1456 1586 1708
8 1710 1589 1506 1633 1824 1709 1632 1751
8 1594 1463 1589 1710 1716 1593 1709 1824
8 1752 1633 1710 1825 1634 1507 1590 1711
8 1595 1464 1590 1711 1717 1594 1710 1825
8 1830 1714 1592 1712 1733 1611 1485 1614
8 1603 1477 1593 1716 1725 1607 1715 1834
8 1599 1473 1594 1717 1721 1603 1716 1835
8 1837 1722 1623 1736 1718 1600 1496 1616
8 1719 1601 1722 1837 1597 1471 1600 1718
8 1602 1720 1598 1472 1723 1838 1719 1601
8 1720 1602 1473 1599 1839 1724 1603 1721
8 1723 1605 1726 1840 1601 1475 1604 1722
8 1840 1726 1628 1743 1722 1604 1501 1623
8 1724 1606 1727 1841 1602 1476 1605 1723
8 1725 1607 1728 1842 1603 1477 1606 1724
8 1612 1482 1608 1731 1733 1611 1730 1849
8 1741 1627 1730 1849 1622 1504 1608 1731
8 1613 1483 1609 1732 1734 1612 1731 1850
8 1618 1495 1622 1738 1732 1609 1731 1850
8 1615 1486 1612 1734 1735 1614 1733 1851
8 1852 1743 1626 1737 1736 1623 1499 1617
8 1853 1745 1625 1739 1737 1626 1500 1619
8 1855 1742 1622 1738 1740 1624 1497 1621
8 1856 1744 1624 1740 1739 1625 1498 1620
8 1741 1627 1504 1622 1857 1746 1631 1742
8 1742 1631 1505 1624 1858 1749 1630 1744
8 1859 1747 1629 1745 1743 1628 1502 1626
8 1860 1748 1630 1744 1745 1629 1503 1625
8 1644 1528 1651 1761 1751 1632 1750 1865
8 1637 1520 1644 1755 1752 1633 1751 1866
8 1754 1646 1522 1636 1867 1760 1643 1753
8 1657 1535 1658 1774 1753 1643 1760 1867
8 1639 1523 1646 1754 1756 1648 1763 1868
8 1641 1521 1645 1758 1755 1644 1761 1869
8 1757 1649 1526 1640 1870 1766 1648 1756
8 1642 1525 1649 1757 1759 1647 1765 1871
8 1759 1647 1762 1872 1642 1525 1645 1758
8 1760 1650 1767 1874 1646 1531 1655 1763
8 1658 1536 1659 1775 1760 1650 1767 1874
8 1762 1652 1768 1875 1645 1529 1651 1761
8 1764 1653 1769 1876 1647 1530 1652 1762
8 1656 1766 1877 1773 1532 1648 1763 1655
8 1771 1879 1765 1654 1653 1764 1647 1530
8 1533 1649 1765 1654 1656 1766 1880 1772
8 1662 1542 1664 1778 1774 1658 1775 1887
8 1664 1543 1665 1779 1775 1659 1776 1888
8 1778 1664 1541 1661 1890 1779 1663 1777
8 1666 1548 1668 1781 1777 1663 1779 1890
8 1782 1669 1780 1891 1668 1550 1665 1779
8 1670 1551 1671 1784 1781 1668 1782 1893
8 1671 1552 1672 1785 1782 1669 1783 1894
8 1790 1675 1785 1896 1674 1554 1671 1784
8 1675 1555 1673 1789 1785 1672 1786 1897
8 1792 1676 1788 1903 1678 1556 1673 1789
8 1795 1678 1789 1904 1681 1558 1675 1790
8 1792 1676 1556 1678 1906 1791 1677 1794
8 1680 1557 1679 1797 1794 1677 1793 1909
8 1910 1794 1678 1795 1798 1680 1558 1681
8 1683 1559 1682 1800 1797 1679 1796 1912
8 1684 1560 1683 1801 1798 1680 1797 1913
8 1686 1564 1687 1803 1800 1682 1799 1915
8 1685 1563 1686 1802 1801 1683 1800 1916
8 1688 1566 1689 1805 1802 1686 1803 1917
8 1689 1567 1690 1806 1803 1687 1804 1918
8 1691 1569 1692 1808 1805 1689 1806 1920
8 1692 1570 1693 1809 1806 1690 1807 1921
8 1694 1572 1695 1810 1808 1692 1809 1922
8 1829 1713 1811 1926 1712 1592 1697 1813
8 1813 1697 1812 1928 1699 1577 1698 1815
8 1735 1614 1712 1828 1816 1699 1813 1929
8 1815 1698 1814 1931 1701 1578 1700 1818
8 1702 1579 1699 1816 1819 1701 1815 1932
8 1818 1700 1817 1933 1704 1580 1703 1820
8 1819 1701 1818 1934 1705 1581 1704 1821
8 1821 1704 1820 1935 1707 1584 1706 1822
8 1824 1709 1632 1751 1937 1823 1750 1865
8 1716 1593 1709 1824 1834 1715 1823 1937
8 1825 1710 1633 1752 1938 1824 1751 1866
8 1717 1594 1710 1825 1835 1716 1824 1938
8 1945 1830 1712 1828 1851 1733 1614 1735
8 1830 1714 1831 1946 1712 1592 1713 1829
8 1947 1832 1714 1830 1849 1730 1611 1733
8 1843 1729 1607 1725 1950 1833 1715 1834
8 1721 1603 1716 1835 1836 1725 1834 1951
8 1836 1725 1842 1953 1721 1603 1724 1839
8 1723 1838 1719 1601 1840 1954 1837 1722
8 1954 1840 1743 1852 1837 1722 1623 1736
8 1724 1839 1720 1602 1841 1955 1838 1723
8 1841 1727 1844 1956 1723 1605 1726 1840
8 1956 1844 1747 1859 1840 1726 1628 1743
8 1728 1842 1724 1606 1845 1957 1841 1727
8 1725 1607 1729 1843 1842 1728 1846 1958
8 1741 1627 1746 1857 1849 1730 1848 1965
8 1734 1612 1731 1850 1851 1733 1849 1966
8 1854 1741 1849 1966 1738 1622 1731 1850
8 1967 1859 1745 1853 1852 1743 1626 1737
8 1968 1860 1744 1856 1853 1745 1625 1739
8 1854 1741 1622 1738 1969 1857 1742 1855
8 1855 1742 1624 1740 1970 1858 1744 1856
8 1857 1746 1631 1742 1971 1861 1749 1858
8 1858 1749 1630 1744 1972 1863 1748 1860
8 1859 1747 1862 1973 1745 1629 1748 1860
8 1875 1768 1864 1977 1761 1651 1750 1865
8 1755 1644 1761 1869 1866 1751 1865 1978
8 1867 1760 1874 1979 1754 1646 1763 1868
8 1774 1658 1775 1887 1867 1760 1874 1979
8 1870 1766 1648 1756 1980 1877 1763 1868
8 1872 1762 1875 1981 1758 1645 1761 1869
8 1757 1649 1766 1870 1871 1765 1880 1982
8 1983 1879 1764 1873 1871 1765 1647 1759
8 1873 1764 1876 1984 1759 1647 1762 1872
8 1877 1773 1655 1763 1986 1881 1767 1874
8 1775 1659 1776 1888 1874 1767 1881 1986
8 1876 1769 1882 1987 1762 1652 1768 1875
8 1878 1770 1883 1988 1764 1653 1769 1876
8 1880 1772 1656 1766 1989 1886 1773 1877
8 1878 1770 1653 1764 1990 1884 1771 1879
8 1765 1654 1772 1880 1879 1771 1885 1991
8 1778 1664 1779 1890 1887 1775 1888 1997
8 1998 1889 1776 1888 1891 1780 1665 1779
8 1893 1782 1891 2000 1781 1668 1779 1890
8 1894 1783 1892 2001 1782 1669 1780 1891
8 1784 1671 1785 1896 1893 1782 1894 2003
8 1897 1786 1895 2004 1785 1672 1783 1894
8 1790 1675 1789 1904 1896 1785 1897 2006
8 1901 1787 1898 2007 1789 1673 1786 1897
8 1903 1788 1900 2013 1789 1673 1787 1901
8 1792 1676 1791 1906 1903 1788 1902 2016
8 1907 1792 1903 2017 1795 1678 1789 1904
8 1906 1791 1677 1794 2019 1905 1793 1909
8 1907 1792 1678 1795 2020 1906 1794 1910
8 1797 1679 1796 1912 1909 1793 1908 2022
8 1798 1680 1797 1913 1910 1794 1909 2023
8 1800 1682 1799 1915 1912 1796 1911 2025
8 1801 1683 1800 1916 1913 1797 1912 2026
8 1803 1687 1804 1918 1915 1799 1914 2028
8 1802 1686 1803 1917 1916 1800 1915 2029
8 1805 1689 1806 1920 1917 1803 1918 2030
8 1806 1690 1807 1921 1918 1804 1919 2031
8 1808 1692 1809 1922 1920 1806 1921 2032
8 1939 1826 1924 2037 1829 1713 1811 1926
8 1926 1811 1925 2039 1813 1697 1812 1928
8 1944 1829 1926 2040 1828 1712 1813 1929
8 1928 1812 1927 2042 1815 1698 1814 1931
8 1929 1813 1928 2043 1816 1699 1815 1932
8 1931 1814 1930 2044 1818 1700 1817 1933
8 1932 1815 1931 2045 1819 1701 1818 1934
8 1934 1818 1933 2046 1821 1704 1820 1935
8 2048 1936 1823 1937 1977 1864 1750 1865
8 1950 1833 1715 1834 2048 1936 1823 1937
8 1938 1824 1751 1866 2049 1937 1865 1978
8 1835 1716 1824 1938 1951 1834 1937 2049
8 1939 1826 1713 1829 2053 1942 1831 1946
8 1940 1827 1923 2035 2053 1942 1826 1939
8 1945 1830 1946 2058 1828 1712 1829 1944
8 2059 1947 1830 1945 1966 1849 1733 1851
8 1947 1832 1730 1849 2060 1948 1848 1965
8 1947 1832 1948 2060 1830 1714 1831 1946
8 1959 1847 1729 1843 2063 1949 1833 1950
8 1952 1843 1725 1836 2064 1950 1834 1951
8 1836 1725 1843 1952 1953 1842 1958 2066
8 1953 1842 1957 2067 1839 1724 1841 1955
8 1841 1955 1838 1723 1956 2068 1954 1840
8 2068 1956 1859 1967 1954 1840 1743 1852
8 1956 1844 1960 2069 1859 1747 1862 1973
8 1845 1957 1841 1727 1960 2069 1956 1844
8 1728 1842 1957 1845 1846 1958 2071 1961
8 1962 2072 1959 1847 1846 1958 1843 1729
8 1971 1861 1964 2077 1857 1746 1848 1965
8 1854 1741 1857 1969 1966 1849 1965 2078
8 1967 1859 1973 2079 1853 1745 1860 1968
8 1970 1858 1744 1856 2080 1972 1860 1968
8 1969 1857 1742 1855 2081 1971 1858 1970
8 1971 1861 1749 1858 2082 1974 1863 1972
8 1973 1862 1975 2083 1860 1748 1863 1972
8 1987 1882 1976 2086 1875 1768 1864 1977
8 1981 1875 1977 2087 1869 1761 1865 1978
8 1980 1877 1763 1868 2088 1986 1874 1979
8 1887 1775 1888 1997 1979 1874 1986 2088
8 1880 1982 2089 1989 1766 1870 1980 1877
8 1984 1876 1987 2090 1872 1762 1875 1981
8 1765 1871 1983 1879 1880 1982 2091 1991
8 1985 1878 1764 1873 2092 1990 1879 1983
8 1985 1878 1988 2093 1873 1764 1876 1984
8 2094 1992 1881 1986 1998 1889 1776 1888
8 1986 1881 1992 2094 1877 1773 1886 1989
8 1988 1883 1993 2095 1876 1769 1882 1987
8 1878 1770 1884 1990 1988 1883 1994 2096
8 1991 1885 1772 1880 2097 1996 1886 1989
8 1879 1771 1885 1991 1990 1884 1995 2098
8 2103 1998 1888 1997 2000 1891 1779 1890
8 2104 1999 1889 1998 2001 1892 1780 1891
8 2003 1894 2001 2106 1893 1782 1891 2000
8 2004 1895 2002 2107 1894 1783 1892 2001
8 2006 1897 2004 2109 1896 1785 1894 2003
8 2007 1898 2005 2110 1897 1786 1895 2004
8 2014 1901 2007 2112 1904 1789 1897 2006
8 2011 1899 2008 2113 1901 1787 1898 2007
8 2119 2010 1899 2011 2013 1900 1787 1901
8 2016 1902 2012 2122 1903 1788 1900 2013
8 2017 1903 2013 2123 1904 1789 1901 2014
8 1906 1791 1905 2019 2016 1902 2015 2125
8 1907 1792 1906 2020 2017 1903 2016 2126
8 1909 1793 1908 2022 2019 1905 2018 2128
8 2020 1906 1794 1910 2129 2019 1909 2023
8 1912 1796 1911 2025 2022 1908 2021 2131
8 1913 1797 1912 2026 2023 1909 2022 2132
8 1915 1799 1914 2028 2025 1911 2024 2134
8 1916 1800 1915 2029 2026 1912 2025 2135
8 1918 1804 1919 2031 2028 1914 2027 2136
8 1917 1803 1918 2030 2029 1915 2028 2137
8 1920 1806 1921 2032 2030 1918 2031 2138
8 1940 1827 1941 2054 2035 1923 2033 2140
8 2035 1923 2034 2143 1939 1826 1924 2037
8 2037 1924 2036 2146 1926 1811 1925 2039
8 2051 1939 2037 2147 1944 1829 1926 2040
8 2039 1925 2038 2149 1928 1812 1927 2042
8 2040 1926 2039 2150 1929 1813 1928 2043
8 2042 1927 2041 2151 1931 1814 1930 2044
8 2043 1928 2042 2152 1932 1815 1931 2045
8 2045 1931 2044 2153 1934 1818 1933 2046
8 2155 2047 1936 2048 2086 1976 1864 1977
8 2063 1949 1833 1950 2155 2047 1936 2048
8 2156 2048 1937 2049 2087 1977 1865 1978
8 2064 1950 1834 1951 2156 2048 1937 2049
8 2051 1939 1829 1944 2160 2053 1946 2058
8 2052 1940 2035 2144 2160 2053 1939 2051
8 2053 1942 1831 1946 2163 2057 1948 2060
8 2055 1943 1827 1940 2163 2057 1942 2053
8 2055 1943 2056 2164 1940 1827 1941 2054
8 2059 1947 1849 1966 2167 2060 1965 2078
8 2059 1947 2060 2167 1945 1830 1946 2058
8 2077 1964 2061 2168 1965 1848 1948 2060
8 2070 1963 1847 1959 2170 2062 1949 2063
8 2065 1959 1843 1952 2171 2063 1950 2064
8 2173 2072 1958 2066 2065 1959 1843 1952
8 1953 1842 1958 2066 2067 1957 2071 2174
8 2068 1956 2069 2175 1967 1859 1973 2079
8 2067 1957 2069 2175 1955 1841 1956 2068
8 1845 1957 2069 1960 1961 2071 2176 2073
8 2069 1960 2073 2176 1973 1862 1975 2083
8 2070 1963 2075 2177 1959 1847 1962 2072
8 1846 1958 2071 1961 1962 2072 2178 2074
8 2077 1964 1861 1971 2182 2076 1974 2082
8 2081 1971 2077 2183 1969 1857 1965 2078
8 2079 1973 2083 2184 1968 1860 1972 2080
8 2081 1971 1858 1970 2185 2082 1972 2080
8 2083 1975 2084 2186 1972 1863 1974 2082
8 2086 1976 1882 1987 2189 2085 1993 2095
8 2090 1987 2086 2190 1981 1875 1977 2087
8 2191 2094 1986 2088 2103 1998 1888 1997
8 2088 1986 2094 2191 1980 1877 1989 2089
8 1991 2091 2192 2097 1880 1982 2089 1989
8 2093 1988 2095 2193 1984 1876 1987 2090
8 1879 1983 2092 1990 1991 2091 2194 2098
8 1985 1878 1990 2092 2093 1988 2096 2195
8 2097 1996 1886 1989 2196 2099 1992 2094
8 2196 2099 1992 2094 2104 1999 1889 1998
8 1994 2096 1988 1883 2100 2197 2095 1993
8 2096 1994 1884 1990 2198 2101 1995 2098
8 1995 2098 2199 2102 1885 1991 2097 1996
8 2203 2104 1998 2103 2106 2001 1891 2000
8 2107 2002 2105 2204 2001 1892 1999 2104
8 2109 2004 2107 2206 2003 1894 2001 2106
8 2110 2005 2108 2207 2004 1895 2002 2107
8 2112 2007 2110 2209 2006 1897 2004 2109
8 2113 2008 2111 2210 2007 1898 2005 2110
8 2120 2011 2113 2212 2014 1901 2007 2112
8 2117 2009 2114 2213 2011 1899 2008 2113
8 2219 2116 2009 2117 2119 2010 1899 2011
8 2222 2118 2010 2119 2122 2012 1900 2013
8 2223 2119 2011 2120 2123 2013 1901 2014
8 2016 1902 2015 2125 2122 2012 2121 2225
8 2126 2016 2122 2226 2017 1903 2013 2123
8 2019 1905 2018 2128 2125 2015 2124 2228
8 2020 1906 2019 2129 2126 2016 2125 2229
8 2022 1908 2021 2131 2128 2018 2127 2231
8 2023 1909 2022 2132 2129 2019 2128 2232
8 2025 1911 2024 2134 2131 2021 2130 2234
8 2026 1912 2025 2135 2132 2022 2131 2235
8 1914 2028 2134 2024 2027 2136 2236 2133
8 2029 1915 2028 2137 2135 2025 2134 2237
8 2030 1918 2031 2138 2137 2028 2136 2238
8 2157 2050 2139 2240 2054 1941 2033 2140
8 2052 1940 2054 2161 2144 2035 2140 2242
8 2140 2033 2141 2243 2035 1923 2034 2143
8 2143 2034 2142 2246 2037 1924 2036 2146
8 2144 2035 2143 2247 2051 1939 2037 2147
8 2146 2036 2145 2249 2039 1925 2038 2149
8 2147 2037 2146 2250 2040 1926 2039 2150
8 2149 2038 2148 2251 2042 1927 2041 2151
8 2150 2039 2149 2252 2043 1928 2042 2152
8 2152 2042 2151 2253 2045 1931 2044 2153
8 2255 2154 2047 2155 2189 2085 1976 2086
8 2170 2062 1949 2063 2255 2154 2047 2155
8 2256 2155 2048 2156 2190 2086 1977 2087
8 2171 2063 1950 2064 2256 2155 2048 2156
8 2258 2159 2050 2157 2164 2056 1941 2054
8 2160 2053 1946 2058 2262 2163 2060 2167
8 2162 2055 1940 2052 2262 2163 2053 2160
8 2162 2055 2164 2263 2052 1940 2054 2161
8 2163 2057 1948 2060 2264 2165 2061 2168
8 2055 1943 2057 2163 2164 2056 2165 2264
8 2182 2076 2166 2268 2077 1964 2061 2168
8 2183 2077 2168 2269 2078 1965 2060 2167
8 2070 1963 2062 2170 2177 2075 2169 2271
8 2172 2070 1959 2065 2272 2170 2063 2171
8 2172 2070 2177 2273 2065 1959 2072 2173
8 2066 1958 2072 2173 2174 2071 2178 2274
8 2067 1957 2071 2174 2175 2069 2176 2275
8 2175 2069 2176 2275 2079 1973 2083 2184
8 2071 1961 2074 2178 2176 2073 2179 2276
8 2176 2073 2179 2276 2083 1975 2084 2186
8 2072 1962 2075 2177 2178 2074 2180 2277
8 2182 2076 1974 2082 2280 2181 2084 2186
8 2183 2077 1971 2081 2281 2182 2082 2185
8 2184 2083 2186 2282 2080 1972 2082 2185
8 2189 2085 1993 2095 2285 2188 2100 2197
8 2190 2086 1987 2090 2286 2189 2095 2193
8 2192 2097 1989 2089 2287 2196 2094 2191
8 2287 2196 2094 2191 2203 2104 1998 2103
8 2194 2098 1991 2091 2288 2199 2097 2192
8 2195 2096 2197 2289 2093 1988 2095 2193
8 2096 2195 2290 2198 1990 2092 2194 2098
8 2097 1996 2099 2196 2199 2102 2200 2291
8 2196 2099 1999 2104 2291 2200 2105 2204
8 2100 2197 2292 2201 1994 2096 2198 2101
8 1995 2098 2198 2101 2102 2199 2293 2202
8 2206 2107 2204 2296 2106 2001 2104 2203
8 2207 2108 2205 2297 2107 2002 2105 2204
8 2209 2110 2207 2299 2109 2004 2107 2206
8 2210 2111 2208 2300 2110 2005 2108 2207
8 2212 2113 2210 2302 2112 2007 2110 2209
8 2213 2114 2211 2303 2113 2008 2111 2210
8 2220 2117 2213 2305 2120 2011 2113 2212
8 2216 2115 2214 2306 2117 2009 2114 2213
8 2216 2115 2009 2117 2311 2217 2116 2219
8 2219 2116 2010 2119 2314 2218 2118 2222
8 2315 2219 2117 2220 2223 2119 2011 2120
8 2122 2012 2121 2225 2222 2118 2221 2317
8 2318 2222 2119 2223 2226 2122 2013 2123
8 2125 2015 2124 2228 2225 2121 2224 2320
8 2126 2016 2125 2229 2226 2122 2225 2321
8 2128 2018 2127 2231 2228 2124 2227 2323
8 2129 2019 2128 2232 2229 2125 2228 2324
8 2131 2021 2130 2234 2231 2127 2230 2326
8 2132 2022 2131 2235 2232 2128 2231 2327
8 2134 2024 2133 2236 2234 2130 2233 2328
8 2135 2025 2134 2237 2235 2131 2234 2329
8 2137 2028 2136 2238 2237 2134 2236 2330
8 2157 2050 2158 2259 2240 2139 2239 2332
8 2257 2157 2240 2334 2161 2054 2140 2242
8 2240 2139 2241 2335 2140 2033 2141 2243
8 2242 2140 2243 2337 2144 2035 2143 2247
8 2243 2141 2244 2338 2143 2034 2142 2246
8 2246 2142 2245 2341 2146 2036 2145 2249
8 2247 2143 2246 2342 2147 2037 2146 2250
8 2249 2145 2248 2343 2149 2038 2148 2251
8 2250 2146 2249 2344 2150 2039 2149 2252
8 2252 2149 2251 2345 2152 2042 2151 2253
8 2169 2271 2347 2254 2062 2170 2255 2154
8 2189 2085 2188 2285 2255 2154 2254 2347
8 2348 2255 2155 2256 2286 2189 2086 2190
8 2272 2170 2063 2171 2348 2255 2155 2256
8 2349 2258 2157 2257 2263 2164 2054 2161
8 2258 2159 2261 2351 2157 2050 2158 2259
8 2258 2159 2056 2164 2351 2261 2165 2264
8 2262 2163 2060 2167 2355 2264 2168 2269
8 2162 2055 2163 2262 2263 2164 2264 2355
8 2357 2266 2165 2264 2268 2166 2061 2168
8 2268 2166 2076 2182 2361 2267 2181 2280
8 2281 2182 2268 2362 2183 2077 2168 2269
8 2271 2169 2270 2364 2177 2075 2180 2277
8 2172 2070 2170 2272 2273 2177 2271 2365
8 2072 2173 2274 2178 2177 2273 2366 2277
8 2071 2174 2275 2176 2178 2274 2367 2276
8 2275 2176 2276 2367 2184 2083 2186 2282
8 2283 2187 2084 2186 2368 2278 2179 2276
8 2178 2074 2180 2277 2276 2179 2278 2368
8 2283 2187 2279 2370 2186 2084 2181 2280
8 2281 2182 2082 2185 2371 2280 2186 2282
8 2188 2285 2374 2284 2100 2197 2292 2201
8 2286 2189 2095 2193 2375 2285 2197 2289
8 2192 2097 2196 2287 2288 2199 2291 2376
8 2287 2196 2104 2203 2376 2291 2204 2296
8 2194 2098 2199 2288 2290 2198 2293 2377
8 2289 2197 2096 2195 2378 2292 2198 2290
8 2291 2200 2105 2204 2379 2294 2205 2297
8 2199 2102 2200 2291 2293 2202 2294 2379
8 2198 2101 2202 2293 2292 2201 2295 2380
8 2299 2207 2297 2383 2206 2107 2204 2296
8 2300 2208 2298 2384 2207 2108 2205 2297
8 2302 2210 2300 2386 2209 2110 2207 2299
8 2303 2211 2301 2387 2210 2111 2208 2300
8 2305 2213 2303 2389 2212 2113 2210 2302
8 2306 2214 2304 2390 2213 2114 2211 2303
8 2310 2216 2306 2392 2220 2117 2213 2305
8 2308 2215 2307 2393 2216 2115 2214 2306
8 2308 2215 2115 2216 2396 2309 2217 2311
8 2310 2216 2117 2220 2398 2311 2219 2315
8 2311 2217 2116 2219 2399 2312 2218 2314
8 2314 2218 2118 2222 2402 2313 2221 2317
8 2315 2219 2119 2223 2403 2314 2222 2318
8 2225 2121 2224 2320 2317 2221 2316 2405
8 2226 2122 2225 2321 2318 2222 2317 2406
8 2228 2124 2227 2323 2320 2224 2319 2408
8 2229 2125 2228 2324 2321 2225 2320 2409
8 2231 2127 2230 2326 2323 2227 2322 2411
8 2232 2128 2231 2327 2324 2228 2323 2412
8 2234 2130 2233 2328 2326 2230 2325 2413
8 2235 2131 2234 2329 2327 2231 2326 2414
8 2237 2134 2236 2330 2329 2234 2328 2415
8 2259 2158 2260 2352 2332 2239 2331 2417
8 2257 2157 2259 2350 2334 2240 2332 2419
8 2240 2139 2239 2332 2335 2241 2333 2420
8 2334 2240 2335 2422 2242 2140 2243 2337
8 2335 2241 2336 2423 2243 2141 2244 2338
8 2337 2243 2338 2425 2247 2143 2246 2342
8 2338 2244 2339 2426 2246 2142 2245 2341
8 2341 2245 2340 2428 2249 2145 2248 2343
8 2342 2246 2341 2429 2250 2146 2249 2344
8 2344 2249 2343 2430 2252 2149 2251 2345
8 2188 2285 2347 2254 2284 2374 2432 2346
8 2347 2254 2346 2432 2271 2169 2270 2364
8 2365 2271 2170 2272 2433 2347 2255 2348
8 2286 2189 2285 2375 2348 2255 2347 2433
8 2349 2258 2351 2435 2257 2157 2259 2350
8 2349 2258 2164 2263 2435 2351 2264 2355
8 2259 2158 2261 2351 2352 2260 2354 2437
8 2356 2265 2354 2437 2264 2165 2261 2351
8 2441 2357 2264 2355 2362 2268 2168 2269
8 2356 2265 2165 2264 2442 2358 2266 2357
8 2443 2359 2266 2357 2361 2267 2166 2268
8 2370 2279 2360 2446 2280 2181 2267 2361
8 2362 2268 2182 2281 2447 2361 2280 2371
8 2180 2277 2368 2278 2270 2364 2449 2363
8 2271 2365 2273 2177 2364 2450 2366 2277
8 2372 2283 2186 2282 2451 2368 2276 2367
8 2178 2274 2367 2276 2277 2366 2451 2368
8 2283 2187 2278 2368 2370 2279 2369 2452
8 2372 2283 2370 2453 2282 2186 2280 2371
8 2284 2374 2455 2373 2201 2292 2380 2295
8 2375 2285 2197 2289 2456 2374 2292 2378
8 2376 2291 2204 2296 2457 2379 2297 2383
8 2288 2199 2291 2376 2377 2293 2379 2457
8 2198 2290 2378 2292 2293 2377 2458 2380
8 2293 2202 2294 2379 2380 2295 2381 2459
8 2384 2298 2381 2459 2297 2205 2294 2379
8 2386 2300 2384 2463 2299 2207 2297 2383
8 2387 2301 2385 2464 2300 2208 2298 2384
8 2389 2303 2387 2466 2302 2210 2300 2386
8 2390 2304 2388 2467 2303 2211 2301 2387
8 2392 2306 2390 2469 2305 2213 2303 2389
8 2393 2307 2391 2470 2306 2214 2304 2390
8 2395 2308 2393 2472 2310 2216 2306 2392
8 2308 2215 2309 2396 2393 2307 2394 2473
8 2395 2308 2216 2310 2475 2396 2311 2398
8 2396 2309 2217 2311 2476 2397 2312 2399
8 2398 2311 2219 2315 2478 2399 2314 2403
8 2399 2312 2218 2314 2479 2400 2313 2402
8 2317 2221 2316 2405 2402 2313 2401 2482
8 2403 2314 2222 2318 2483 2402 2317 2406
8 2320 2224 2319 2408 2405 2316 2404 2485
8 2321 2225 2320 2409 2406 2317 2405 2486
8 2323 2227 2322 2411 2408 2319 2407 2488
8 2324 2228 2323 2412 2409 2320 2408 2489
8 2326 2230 2325 2413 2411 2322 2410 2490
8 2327 2231 2326 2414 2412 2323 2411 2491
8 2329 2234 2328 2415 2414 2326 2413 2492
8 2417 2331 2260 2352 2494 2416 2353 2438
8 2350 2259 2352 2436 2419 2332 2417 2496
8 2332 2239 2331 2417 2420 2333 2418 2497
8 2334 2240 2332 2419 2422 2335 2420 2499
8 2420 2333 2421 2500 2335 2241 2336 2423
8 2422 2335 2423 2502 2337 2243 2338 2425
8 2423 2336 2424 2503 2338 2244 2339 2426
8 2425 2338 2426 2505 2342 2246 2341 2429
8 2426 2339 2427 2506 2341 2245 2340 2428
8 2429 2341 2428 2507 2344 2249 2343 2430
8 2432 2346 2284 2374 2509 2431 2373 2455
8 2432 2346 2431 2509 2364 2270 2363 2449
8 2375 2285 2374 2456 2433 2347 2432 2510
8 2347 2433 2365 2271 2432 2510 2450 2364
8 2350 2259 2351 2435 2436 2352 2437 2514
8 2440 2356 2437 2514 2355 2264 2351 2435
8 2352 2260 2354 2437 2438 2353 2439 2516
8 2356 2265 2358 2442 2437 2354 2439 2516
8 2440 2356 2264 2355 2518 2442 2357 2441
8 2519 2443 2357 2441 2447 2361 2268 2362
8 2443 2359 2444 2520 2357 2266 2358 2442
8 2443 2359 2267 2361 2520 2444 2360 2446
8 2446 2360 2279 2370 2523 2445 2369 2452
8 2453 2370 2446 2524 2371 2280 2361 2447
8 2449 2363 2448 2525 2368 2278 2369 2452
8 2366 2277 2364 2450 2451 2368 2449 2526
8 2372 2283 2368 2451 2453 2370 2452 2527
8 2455 2373 2295 2380 2529 2454 2382 2460
8 2456 2374 2292 2378 2530 2455 2380 2458
8 2377 2293 2379 2457 2458 2380 2459 2531
8 2463 2384 2459 2531 2383 2297 2379 2457
8 2533 2461 2382 2460 2459 2381 2295 2380
8 2464 2385 2461 2533 2384 2298 2381 2459
8 2466 2387 2464 2537 2386 2300 2384 2463
8 2467 2388 2465 2538 2387 2301 2385 2464
8 2469 2390 2467 2540 2389 2303 2387 2466
8 2470 2391 2468 2541 2390 2304 2388 2467
8 2472 2393 2470 2543 2392 2306 2390 2469
8 2393 2307 2394 2473 2470 2391 2471 2544
8 2395 2308 2396 2475 2472 2393 2473 2546
8 2396 2309 2397 2476 2473 2394 2474 2547
8 2475 2396 2311 2398 2549 2476 2399 2478
8 2476 2397 2312 2399 2550 2477 2400 2479
8 2478 2399 2314 2403 2552 2479 2402 2483
8 2479 2400 2313 2402 2553 2480 2401 2482
8 2405 2316 2404 2485 2482 2401 2481 2556
8 2406 2317 2405 2486 2483 2402 2482 2557
8 2408 2319 2407 2488 2485 2404 2484 2559
8 2409 2320 2408 2489 2486 2405 2485 2560
8 2411 2322 2410 2490 2488 2407 2487 2561
8 2412 2323 2411 2491 2489 2408 2488 2562
8 2414 2326 2413 2492 2491 2411 2490 2563
8 2513 2434 2493 2565 2438 2353 2416 2494
8 2496 2417 2352 2436 2567 2494 2438 2515
8 2494 2416 2495 2568 2417 2331 2418 2497
8 2419 2332 2417 2496 2499 2420 2497 2570
8 2497 2418 2498 2571 2420 2333 2421 2500
8 2499 2420 2500 2573 2422 2335 2423 2502
8 2500 2421 2501 2574 2423 2336 2424 2503
8 2502 2423 2503 2576 2425 2338 2426 2505
8 2503 2424 2504 2577 2426 2339 2427 2506
8 2505 2426 2506 2578 2429 2341 2428 2507
8 2509 2431 2373 2455 2580 2508 2454 2529
8 2509 2431 2508 2580 2449 2363 2448 2525
8 2432 2510 2581 2509 2374 2456 2530 2455
8 2432 2510 2450 2364 2509 2581 2526 2449
8 2583 2511 2434 2513 2516 2439 2353 2438
8 2436 2352 2437 2514 2515 2438 2516 2588
8 2440 2356 2442 2518 2514 2437 2516 2588
8 2442 2358 2444 2520 2516 2439 2517 2589
8 2519 2443 2520 2591 2441 2357 2442 2518
8 2519 2443 2361 2447 2591 2520 2446 2524
8 2446 2360 2445 2523 2520 2444 2521 2592
8 2525 2448 2522 2593 2452 2369 2445 2523
8 2524 2446 2370 2453 2594 2523 2452 2527
8 2526 2449 2525 2595 2451 2368 2452 2527
8 2534 2462 2528 2597 2460 2382 2454 2529
8 2530 2455 2380 2458 2598 2529 2460 2532
8 2599 2533 2460 2532 2531 2459 2380 2458
8 2537 2464 2533 2599 2463 2384 2459 2531
8 2534 2462 2382 2460 2601 2535 2461 2533
8 2538 2465 2535 2601 2464 2385 2461 2533
8 2540 2467 2538 2604 2466 2387 2464 2537
8 2541 2468 2539 2605 2467 2388 2465 2538
8 2543 2470 2541 2607 2469 2390 2467 2540
8 2470 2391 2471 2544 2541 2468 2542 2608
8 2472 2393 2473 2546 2543 2470 2544 2610
8 2473 2394 2474 2547 2544 2471 2545 2611
8 2475 2396 2476 2549 2546 2473 2547 2613
8 2476 2397 2477 2550 2547 2474 2548 2614
8 2549 2476 2399 2478 2616 2550 2479 2552
8 2479 2400 2480 2553 2550 2477 2551 2617
8 2552 2479 2402 2483 2619 2553 2482 2557
8 2482 2401 2481 2556 2553 2480 2554 2620
8 2485 2404 2484 2559 2556 2481 2555 2623
8 2486 2405 2485 2560 2557 2482 2556 2624
8 2488 2407 2487 2561 2559 2484 2558 2625
8 2489 2408 2488 2562 2560 2485 2559 2626
8 2491 2411 2490 2563 2562 2488 2561 2627
8 2513 2434 2512 2585 2565 2493 2564 2630
8 2586 2513 2565 2632 2515 2438 2494 2567
8 2565 2493 2566 2633 2494 2416 2495 2568
8 2567 2494 2568 2635 2496 2417 2497 2570
8 2568 2495 2569 2636 2497 2418 2498 2571
8 2570 2497 2571 2638 2499 2420 2500 2573
8 2571 2498 2572 2639 2500 2421 2501 2574
8 2573 2500 2574 2641 2502 2423 2503 2576
8 2574 2501 2575 2642 2503 2424 2504 2577
8 2576 2503 2577 2643 2505 2426 2506 2578
8 2597 2528 2579 2645 2529 2454 2508 2580
8 2580 2508 2579 2645 2525 2448 2522 2593
8 2581 2509 2455 2530 2646 2580 2529 2598
8 2581 2509 2580 2646 2526 2449 2525 2595
8 2583 2511 2582 2648 2513 2434 2512 2585
8 2583 2511 2439 2516 2648 2582 2517 2589
8 2649 2583 2513 2586 2588 2516 2438 2515
8 2589 2517 2444 2520 2653 2587 2521 2592
8 2518 2442 2520 2591 2588 2516 2589 2654
8 2593 2522 2590 2655 2523 2445 2521 2592
8 2524 2446 2523 2594 2591 2520 2592 2656
8 2595 2525 2593 2657 2527 2452 2523 2594
8 2602 2536 2596 2659 2534 2462 2528 2597
8 2600 2534 2597 2660 2532 2460 2529 2598
8 2600 2534 2460 2532 2661 2601 2533 2599
8 2604 2538 2601 2661 2537 2464 2533 2599
8 2602 2536 2462 2534 2663 2603 2535 2601
8 2601 2535 2465 2538 2663 2603 2539 2605
8 2607 2541 2605 2665 2540 2467 2538 2604
8 2608 2542 2606 2666 2541 2468 2539 2605
8 2543 2470 2544 2610 2607 2541 2608 2668
8 2544 2471 2545 2611 2608 2542 2609 2669
8 2546 2473 2547 2613 2610 2544 2611 2671
8 2547 2474 2548 2614 2611 2545 2612 2672
8 2549 2476 2550 2616 2613 2547 2614 2674
8 2550 2477 2551 2617 2614 2548 2615 2675
8 2552 2479 2553 2619 2616 2550 2617 2677
8 2553 2480 2554 2620 2617 2551 2618 2678
8 2557 2482 2556 2624 2619 2553 2620 2680
8 2556 2481 2555 2623 2620 2554 2621 2681
8 2559 2484 2558 2625 2623 2555 2622 2683
8 2560 2485 2559 2626 2624 2556 2623 2684
8 2562 2488 2561 2627 2626 2559 2625 2685
8 2690 2629 2564 2630 2650 2584 2512 2585
8 2586 2513 2585 2651 2632 2565 2630 2691
8 2630 2564 2631 2692 2565 2493 2566 2633
8 2632 2565 2633 2694 2567 2494 2568 2635
8 2633 2566 2634 2695 2568 2495 2569 2636
8 2635 2568 2636 2697 2570 2497 2571 2638
8 2636 2569 2637 2698 2571 2498 2572 2639
8 2638 2571 2639 2700 2573 2500 2574 2641
8 2639 2572 2640 2701 2574 2501 2575 2642
8 2641 2574 2642 2702 2576 2503 2577 2643
8 2597 2528 2596 2659 2645 2579 2644 2704
8 2645 2579 2644 2704 2593 2522 2590 2655
8 2660 2597 2645 2705 2598 2529 2580 2646
8 2646 2580 2645 2705 2595 2525 2593 2657
8 2650 2584 2512 2585 2707 2647 2582 2648
8 2648 2582 2517 2589 2707 2647 2587 2653
8 2649 2583 2648 2708 2586 2513 2585 2651
8 2649 2583 2516 2588 2708 2648 2589 2654
8 2655 2590 2652 2710 2592 2521 2587 2653
8 2654 2589 2520 2591 2711 2653 2592 2656
8 2657 2593 2655 2712 2594 2523 2592 2656
8 2602 2536 2603 2663 2659 2596 2658 2714
8 2662 2602 2659 2715 2600 2534 2597 2660
8 2662 2602 2534 2600 2717 2663 2601 2661
8 2661 2601 2538 2604 2717 2663 2605 2665
8 2666 2606 2664 2718 2605 2539 2603 2663
8 2668 2608 2666 2720 2607 2541 2605 2665
8 2608 2542 2609 2669 2666 2606 2667 2721
8 2610 2544 2611 2671 2668 2608 2669 2723
8 2611 2545 2612 2672 2669 2609 2670 2724
8 2613 2547 2614 2674 2671 2611 2672 2726
8 2614 2548 2615 2675 2672 2612 2673 2727
8 2616 2550 2617 2677 2674 2614 2675 2729
8 2617 2551 2618 2678 2675 2615 2676 2730
8 2619 2553 2620 2680 2677 2617 2678 2732
8 2620 2554 2621 2681 2678 2618 2679 2733
8 2624 2556 2623 2684 2680 2620 2681 2735
8 2681 2621 2555 2623 2736 2682 2622 2683
8 2626 2559 2625 2685 2684 2623 2683 2737
8 2688 2628 2584 2650 2740 2686 2647 2707
8 2688 2628 2687 2742 2650 2584 2629 2690
8 2690 2629 2689 2745 2630 2564 2631 2692
8 2746 2690 2630 2691 2709 2650 2585 2651
8 2691 2630 2692 2747 2632 2565 2633 2694
8 2692 2631 2693 2748 2633 2566 2634 2695
8 2694 2633 2695 2750 2635 2568 2636 2697
8 2695 2634 2696 2751 2636 2569 2637 2698
8 2697 2636 2698 2753 2638 2571 2639 2700
8 2698 2637 2699 2754 2639 2572 2640 2701
8 2700 2639 2701 2755 2641 2574 2642 2702
8 2659 2596 2658 2714 2704 2644 2703 2757
8 2704 2644 2703 2757 2655 2590 2652 2710
8 2660 2597 2659 2715 2705 2645 2704 2758
8 2705 2645 2704 2758 2657 2593 2655 2712
8 2759 2706 2647 2707 2710 2652 2587 2653
8 2709 2650 2585 2651 2760 2707 2648 2708
8 2708 2648 2589 2654 2760 2707 2653 2711
8 2712 2655 2710 2761 2656 2592 2653 2711
8 2763 2713 2658 2714 2718 2664 2603 2663
8 2662 2602 2663 2717 2715 2659 2714 2764
8 2720 2666 2718 2767 2665 2605 2663 2717
8 2768 2719 2664 2718 2721 2667 2606 2666
8 2668 2608 2669 2723 2720 2666 2721 2770
8 2669 2609 2670 2724 2721 2667 2722 2771
8 2671 2611 2672 2726 2723 2669 2724 2773
8 2672 2612 2673 2727 2724 2670 2725 2774
8 2674 2614 2675 2729 2726 2672 2727 2776
8 2675 2615 2676 2730 2727 2673 2728 2777
8 2677 2617 2678 2732 2729 2675 2730 2779
8 2678 2618 2679 2733 2730 2676 2731 2780
8 2680 2620 2681 2735 2732 2678 2733 2782
8 2733 2679 2621 2681 2783 2734 2682 2736
8 2735 2681 2623 2684 2784 2736 2683 2737
8 2740 2686 2647 2707 2787 2738 2706 2759
8 2688 2628 2686 2740 2742 2687 2739 2789
8 2743 2688 2650 2709 2790 2740 2707 2760
8 2742 2687 2741 2792 2690 2629 2689 2745
8 2743 2688 2742 2793 2709 2650 2690 2746
8 2745 2689 2744 2795 2692 2631 2693 2748
8 2746 2690 2745 2796 2691 2630 2692 2747
8 2747 2692 2748 2797 2694 2633 2695 2750
8 2748 2693 2749 2798 2695 2634 2696 2751
8 2750 2695 2751 2800 2697 2636 2698 2753
8 2751 2696 2752 2801 2698 2637 2699 2754
8 2753 2698 2754 2802 2700 2639 2701 2755
8 2763 2713 2756 2804 2714 2658 2703 2757
8 2759 2706 2652 2710 2804 2756 2703 2757
8 2715 2659 2714 2764 2758 2704 2757 2805
8 2758 2704 2757 2805 2712 2655 2710 2761
8 2806 2759 2707 2760 2761 2710 2653 2711
8 2765 2716 2762 2808 2718 2664 2713 2763
8 2809 2763 2714 2764 2767 2718 2663 2717
8 2765 2716 2664 2718 2811 2766 2719 2768
8 2813 2768 2718 2767 2770 2721 2666 2720
8 2814 2769 2719 2768 2771 2722 2667 2721
8 2723 2669 2724 2773 2770 2721 2771 2816
8 2724 2670 2725 2774 2771 2722 2772 2817
8 2726 2672 2727 2776 2773 2724 2774 2819
8 2727 2673 2728 2777 2774 2725 2775 2820
8 2729 2675 2730 2779 2776 2727 2777 2822
8 2730 2676 2731 2780 2777 2728 2778 2823
8 2732 2678 2733 2782 2779 2730 2780 2825
8 2780 2731 2679 2733 2826 2781 2734 2783
8 2782 2733 2681 2735 2827 2783 2736 2784
8 2830 2785 2738 2787 2804 2756 2706 2759
8 2789 2739 2686 2740 2832 2786 2738 2787
8 2790 2740 2707 2760 2833 2787 2759 2806
8 2742 2687 2739 2789 2792 2741 2788 2835
8 2743 2688 2740 2790 2793 2742 2789 2836
8 2792 2741 2791 2838 2745 2689 2744 2795
8 2793 2742 2792 2839 2746 2690 2745 2796
8 2795 2744 2794 2841 2748 2693 2749 2798
8 2796 2745 2795 2842 2747 2692 2748 2797
8 2797 2748 2798 2843 2750 2695 2751 2800
8 2798 2749 2799 2844 2751 2696 2752 2801
8 2800 2751 2801 2845 2753 2698 2754 2802
8 2808 2762 2803 2847 2763 2713 2756 2804
8 2809 2763 2804 2848 2764 2714 2757 2805
8 2806 2759 2710 2761 2848 2804 2757 2805
8 2765 2716 2766 2811 2808 2762 2807 2850
8 2810 2765 2808 2851 2767 2718 2763 2809
8 2810 2765 2718 2767 2852 2811 2768 2813
8 2811 2766 2719 2768 2853 2812 2769 2814
8 2855 2814 2768 2813 2816 2771 2721 2770
8 2856 2815 2769 2814 2817 2772 2722 2771
8 2773 2724 2774 2819 2816 2771 2817 2858
8 2774 2725 2775 2820 2817 2772 2818 2859
8 2776 2727 2777 2822 2819 2774 2820 2861
8 2777 2728 2778 2823 2820 2775 2821 2862
8 2779 2730 2780 2825 2822 2777 2823 2864
8 2823 2778 2731 2780 2865 2824 2781 2826
8 2825 2780 2733 2782 2866 2826 2783 2827
8 2869 2828 2785 2830 2847 2803 2756 2804
8 2871 2829 2786 2832 2830 2785 2738 2787
8 2872 2830 2787 2833 2848 2804 2759 2806
8 2789 2739 2786 2832 2835 2788 2831 2874
8 2836 2789 2740 2790 2875 2832 2787 2833
8 2792 2741 2788 2835 2838 2791 2834 2877
8 2793 2742 2789 2836 2839 2792 2835 2878
8 2838 2791 2837 2880 2795 2744 2794 2841
8 2839 2792 2838 2881 2796 2745 2795 2842
8 2841 2794 2840 2882 2798 2749 2799 2844
8 2842 2795 2841 2883 2797 2748 2798 2843
8 2843 2798 2844 2884 2800 2751 2801 2845
8 2886 2846 2803 2847 2850 2807 2762 2808
8 2851 2808 2847 2887 2809 2763 2804 2848
8 2850 2807 2766 2811 2889 2849 2812 2853
8 2810 2765 2811 2852 2851 2808 2850 2890
8 2852 2811 2768 2813 2891 2853 2814 2855
8 2853 2812 2769 2814 2892 2854 2815 2856
8 2894 2856 2814 2855 2858 2817 2771 2816
8 2817 2772 2818 2859 2856 2815 2857 2895
8 2819 2774 2820 2861 2858 2817 2859 2897
8 2820 2775 2821 2862 2859 2818 2860 2898
8 2822 2777 2823 2864 2861 2820 2862 2900
8 2823 2778 2824 2865 2862 2821 2863 2901
8 2864 2823 2780 2825 2902 2865 2826 2866
8 2904 2867 2828 2869 2886 2846 2803 2847
8 2869 2828 2868 2906 2830 2785 2829 2871
8 2907 2869 2830 2872 2887 2847 2804 2848
8 2871 2829 2870 2909 2832 2786 2831 2874
8 2910 2871 2832 2875 2872 2830 2787 2833
8 2835 2788 2831 2874 2877 2834 2873 2912
8 2836 2789 2832 2875 2878 2835 2874 2913
8 2877 2834 2876 2915 2838 2791 2837 2880
8 2839 2792 2835 2878 2881 2838 2877 2916
8 2880 2837 2879 2917 2841 2794 2840 2882
8 2881 2838 2880 2918 2842 2795 2841 2883
8 2883 2841 2882 2919 2843 2798 2844 2884
8 2921 2885 2846 2886 2889 2849 2807 2850
8 2922 2886 2847 2887 2890 2850 2808 2851
8 2889 2849 2812 2853 2924 2888 2854 2892
8 2890 2850 2811 2852 2925 2889 2853 2891
8 2891 2853 2814 2855 2926 2892 2856 2894
8 2892 2854 2815 2856 2927 2893 2857 2895
8 2858 2817 2859 2897 2894 2856 2895 2929
8 2859 2818 2860 2898 2895 2857 2896 2930
8 2861 2820 2862 2900 2897 2859 2898 2932
8 2862 2821 2863 2901 2898 2860 2899 2933
8 2864 2823 2865 2902 2900 2862 2901 2934
8 2904 2867 2846 2886 2936 2903 2885 2921
8 2904 2867 2903 2936 2869 2828 2868 2906
8 2937 2904 2869 2907 2922 2886 2847 2887
8 2906 2868 2905 2939 2871 2829 2870 2909
8 2907 2869 2906 2940 2872 2830 2871 2910
8 2909 2870 2908 2942 2874 2831 2873 2912
8 2910 2871 2909 2943 2875 2832 2874 2913
8 2912 2873 2911 2945 2877 2834 2876 2915
8 2878 2835 2874 2913 2916 2877 2912 2946
8 2915 2876 2914 2947 2880 2837 2879 2917
8 2916 2877 2915 2948 2881 2838 2880 2918
8 2918 2880 2917 2949 2883 2841 2882 2919
8 2921 2885 2849 2889 2951 2920 2888 2924
8 2952 2921 2886 2922 2925 2889 2850 2890
8 2924 2888 2854 2892 2954 2923 2893 2927
8 2925 2889 2853 2891 2955 2924 2892 2926
8 2926 2892 2856 2894 2956 2927 2895 2929
8 2895 2857 2896 2930 2927 2893 2928 2957
8 2897 2859 2898 2932 2929 2895 2930 2959
8 2898 2860 2899 2933 2930 2896 2931 2960
8 2900 2862 2901 2934 2932 2898 2933 2961
8 2936 2903 2885 2921 2963 2935 2920 2951
8 2936 2903 2935 2963 2906 2868 2905 2939
8 2937 2904 2886 2922 2964 2936 2921 2952
8 2937 2904 2936 2964 2907 2869 2906 2940
8 2939 2905 2938 2966 2909 2870 2908 2942
8 2940 2906 2939 2967 2910 2871 2909 2943
8 2942 2908 2941 2969 2912 2873 2911 2945
8 2943 2909 2942 2970 2913 2874 2912 2946
8 2945 2911 2944 2971 2915 2876 2914 2947
8 2946 2912 2945 2972 2916 2877 2915 2948
8 2948 2915 2947 2973 2918 2880 2917 2949
8 2951 2920 2888 2924 2975 2950 2923 2954
8 2952 2921 2889 2925 2976 2951 2924 2955
8 2927 2893 2928 2957 2954 2923 2953 2978
8 2955 2924 2892 2926 2979 2954 2927 2956
8 2929 2895 2930 2959 2956 2927 2957 2980
8 2930 2896 2931 2960 2957 2928 2958 2981
8 2932 2898 2933 2961 2959 2930 2960 2982
8 2951 2920 2950 2975 2963 2935 2962 2984
8 2963 2935 2962 2984 2939 2905 2938 2966
8 2964 2936 2921 2952 2985 2963 2951 2976
8 2964 2936 2963 2985 2940 2906 2939 2967
8 2966 2938 2965 2987 2942 2908 2941 2969
8 2967 2939 2966 2988 2943 2909 2942 2970
8 2969 2941 2968 2989 2945 2911 2944 2971
8 2970 2942 2969 2990 2946 2912 2945 2972
8 2972 2945 2971 2991 2948 2915 2947 2973
8 2954 2923 2953 2978 2975 2950 2974 2993
8 2976 2951 2924 2955 2994 2975 2954 2979
8 2957 2928 2958 2981 2978 2953 2977 2995
8 2956 2927 2957 2980 2979 2954 2978 2996
8 2959 2930 2960 2982 2980 2957 2981 2997
8 2984 2962 2983 2999 2966 2938 2965 2987
8 2975 2950 2974 2993 2984 2962 2983 2999
8 2976 2951 2975 2994 2985 2963 2984 3000
8 2985 2963 2984 3000 2967 2939 2966 2988
8 2987 2965 2986 3001 2969 2941 2968 2989
8 2988 2966 2987 3002 2970 2942 2969 2990
8 2990 2969 2989 3003 2972 2945 2971 2991
8 2978 2953 2977 2995 2993 2974 2992 3004
8 2979 2954 2978 2996 2994 2975 2993 3005
8 2980 2957 2981 2997 2996 2978 2995 3006
8 2974 2993 2999 2983 2992 3004 3007 2998
8 2983 2999 2987 2965 2998 3007 3001 2986
8 3000 2984 2999 3008 2988 2966 2987 3002
8 2994 2975 2993 3005 3000 2984 2999 3008
8 3002 2987 3001 3009 2990 2969 2989 3003
8 2996 2978 2995 3006 3005 2993 3004 3010
8 3005 2993 3004 3010 3008 2999 3007 3011
8 3008 2999 3007 3011 3002 2987 3001 3009

CELL_TYPES 1910
12
12
12
12
12
12
12
12
12
12
12
12
12
12
12
12
12
12
12
12
12
12
12
12
12
12
12
12
12
12
12
12
12
12
12
12
12
12
12
12
12
12
12
12
12
12
12
12
12
12
12
12
12
12
12
12
12
12
12
12
12
12
12
12
12
12
12
12
12
12
12
12
12
12
12
12
12
12
12
12
12
12
12
12
12
12
12
12
12
12
12
12
12
12
12
12
12
12
12
12
12
12
12
12
12
12
12
12
12
12
12
12
12
12
12
12
12
12
12
12
12
12
12
12
12
12
12
12
12
12
12
12
12
12
12
12
12
12
12
12
12
12
12
12
12
12
12
12
12
12
12
12
12
12
12
12
12
12
12
12
12
12
12
12
12
12
12
12
12
12
12
12
12
12
12
12
12
12
12
12
12
12
12
12
12
12
12
12
12
12
12
12
12
12
12
12
12
12
12
12
12
12
12
12
12
12
12
12
12
12
12
12
12
12
12
12
12
12
12
12
12
12
12
12
12
12
12
12
12
12
12
12
12
12
12
12
12
12
12
12
12
12
12
12
12
12
12
12
12
12
12
12
12
12
12
12
12
12
12
12
12
12
12
12
12
12
12
12
12
12
12
12
12
12
12
12
12
12
12
12
12
12
12
12
12
12
12
12
12
12
12
12
12
12
12
12
12
12
12
12
12
12
12
12
12
12
12
12
12
12
12
12
12
12
12
12
12
12
12
12
12
12
12
12
12
12
12
12
12
12
12
12
12
12
12
12
12
12
12
12
12
12
12
12
12
12
12
12
12
12
12
12
12
12
12
12
12
12
12
12
12
12
12
12
12
12
12
12
12
12
12
12
12
12
12
12
12
12
12
12
12
12
12
12
12
12
12
12
12
12
12
12
12
12
12
12
12
12
12
12
12
12
12
12
12
12
12
12
12
12
12
12
12
12
12
12
12
12
12
12
12
12
12
12
12
12
12
12
12
12
12
12
12
12
12
12
12
12
12
12
12
12
12
12
12
12
12
12
12
12
12
12
12
12
12
12
12
12
12
12
12
12
12
12
12
12
12
12
12
12
12
12
12
12
12
12
12
12
12
12
12
12
12
12
12
12
12
12
12
12
12
12
12
12
12
12
12
12
12
12
12
12
12
12
12
12
12
12
12
12
12
12
12
12
12
12
12
12
12
12
12
12
12
12
12
12
12
12
12
12
12
12
12
12
12
12
12
12
12
12
12
12
12
12
12
12
12
12
12
12
12
12
12
12
12
12
12
12
12
12
12
12
12
12
12
12
12
12
12
12
12
12
12
12
12
12
12
12
12
12
12
12
12
12
12
12
12
12
12
12
12
12
12
12
12
12
12
12
12
12
12
12
12
12
12
12
12
12
12
12
12
12
12
12
12
12
12
12
12
12
12
12
12
12
12
12
12
12
12
12
12
12
12
12
12
12
12
12
12
12
12
12
12
12
12
12
12
12
12
12
12
12
12
12
12
12
12
12
12
12
12
12
12
12
12
12
12
12
12
12
12
12
12
12
12
12
12
12
12
12
12
12
12
12
12
12
12
12
12
12
12
12
12
12
12
12
12
12
12
12
12
12
12
12
12
12
12
12
12
12
12
12
12
12
12
12
12
12
12
12
12
12
12
12
12
12
12
12
12
12
12
12
12
12
12
12
12
12
12
12
12
12
12
12
12
12
12
12
12
12
12
12
12
12
12
12
12
12
12
12
12
12
12
12
12
12
12
12
12
12
12
12
12
12
12
12
12
12
12
12
12
12
12
12
12
12
12
12
12
12
12
12
12
12
12
12
12
12
12
12
12
12
12
12
12
12
12
12
12
12
12
12
12
12
12
12
12
12
12
12
12
12
12
12
12
12
12
12
12
12
12
12
12
12
12
12
12
12
12
12
12
12
12
12
12
12
12
12
12
12
12
12
12
12
12
12
12
12
12
12
12
12
12
12
12
12
12
12
12
12
12
12
12
12
12
12
12
12
12
12
12
12
12
12
12
12
12
12
12
12
12
12
12
12
12
12
12
12
12
12
12
12
12
12
12
12
12
12
12
12
12
12
12
12
12
12
12
12
12
12
12
12
12
12
12
12
12
12
12
12
12
12
12
12
12
12
12
12
12
12
12
12
12
12
12
12
12
12
12
12
12
12
12
12
12
12
12
12
12
12
12
12
12
12
12
12
12
12
12
12
12
12
12
12
12
12
12
12
12
12
12
12
12
12
12
12
12
12
12
12
12
12
12
12
12
12
12
12
12
12
12
12
12
12
12
12
12
12
12
12
12
12
12
12
12
12
12
12
12
12
12
12
12
12
12
12
12
12
12
12
12
12
12
12
12
12
12
12
12
12
12
12
12
12
12
12
12
12
12
12
12
12
12
12
12
12
12
12
12
12
12
12
12
12
12
12
12
12
12
12
12
12
12
12
12
12
12
12
12
12
12
12
12
12
12
12
12
12
12
12
12
12
12
12
12
12
12
12
12
12
12
12
12
12
12
12
12
12
12
12
12
12
12
12
12
12
12
12
12
12
12
12
12
12
12
12
12
12
12
12
12
12
12
12
12
12
12
12
12
12
12
12
12
12
12
12
12
12
12
12
12
12
12
12
12
12
12
12
12
12
12
12
12
12
12
12
12
12
12
12
12
12
12
12
12
12
12
12
12
12
12
12
12
12
12
12
12
12
12
12
12
12
12
12
12
12
12
12
12
12
12
12
12
12
12
12
12
12
12
12
12
12
12
12
12
12
12
12
12
12
12
12
12
12
12
12
12
12
12
12
12
12
12
12
12
12
12
12
12
12
12
12
12
12
12
12
12
12
12
12
12
12
12
12
12
12
12
12
12
12
12
12
12
12
12
12
12
12
12
12
12
12
12
12
12
12
12
12
12
12
12
12
12
12
12
12
12
12
12
12
12
12
12
12
12
12
12
12
12
12
12
12
12
12
12
12
12
12
12
12
12
12
12
12
12
12
12
12
12
12
12
12
12
12
12
12
12
12
12
12
12
12
12
12
12
12
12
12
12
12
12
12
12
12
12
12
12
12
12
12
12
12
12
12
12
12
12
12
12
12
12
12
12
12
12
12
12
12
12
12
12
12
12
12
12
12
12
12
12
12
12
12
12
12
12
12
12
12
12
12
12
12
12
12
12
12
12
12
12
12
12
12
12
12
12
12
12
12
12
12
12
12
12
12
12
12
12
12
12
12
12
12
12
12
12
12
12
12
12
12
12
12
12
12
12
12
12
12
12
12
12
12
12
12
12
12
12
12
12
12
12
12
12
12
12
12
12
12
12
12
12
12
12
12
12
12
12
12
12
12
12
12
12
12
12
12
12
12
12
12
12
12
12
12
12
12
12
12
12
12
12
12
12
12
12
12
12
12
12
12
12
12
12
12
12
12
12
12
12
12
12
12
12
12
12
12
12
12
12
12
12
12
12
12
12
12
12
12
12
12
12
12
12
12
12
12
12
12
12
12
12
12
12
12
12
12
12
12
12
12
12
12
12
12
12
12
12
12
12
12
12
12
12
12
12
12
12
12
12
12
12
12
12
12
12
12
12
12
12
12
12
12
12
12
12
12
12
12
12
12
12
12
12
12
12
12
12
12
12
12
12
12
12
12
12
12
12
12
12
12
12
12
12
12
12
12
12
12
12
12
12
12
12
12
12
12
12
12
12
12
12
12
12
12
12
12
12
12
12
12
12
12
12
12
12
12
12
12
12
12
12
12
12
12
12
12
12
12
12
12
12
12
12
12
12
12
12
12
12
12
12
12
12
12
12
12
12
12
12
12
12
12
12
12
12
12
12
12
12
12
12
12
12
12
12
12
12
12
12
12
12
12
12
12
12
12
12
12
12
12
12
12
12
12
12
12
12
12
12
12
12
12
12
12
12
12
12
12
12
12
12
12
12
12
12
12
12
12
12
12
12
12
12
12
12
12
12
12
12
12
12
12
12
12
12
12
12
12
12
12
12
12
12
12
12
12
12
12
12
12
12
12
12
12
12
12
12
12
12
12
12
12
12
12
12
12
12
12
12
12
12
12
12
12
12
12
12
12
12
12
12
12
12
12
12
12
12
12
12
12
12
12
12
12
12
12
12
12
12
12
12
12
12
12
12
12
12
12
12
12
12
12
12
12
12
12
12
12
12
12
12
12
12
12
12
12
12
12
12
12
12
12
12
12
12
12
12
12
12
12
12
12
12
12
12
12
12
12
12
12
12
12
12
12
12
12
12
12
12
12
12
12
12
12
12
12
12
12
12
12
12
12
12
12
12
12
12
12
12
12
12
12
12
12
12
12
12
12
12
12

POINT_DATA 3012
SCALARS Jp_lamdaP float 4
LOOKUP_TABLE default
1 1 1 1
1 1 1 1
1 1 1 1
1 1 1 1
1 1 1 1
1 1 1 1
0.999991 1 1 0.999991
1 1 1 1
1 1 1 1
1 1 1 1
1 1 1 1
1 1 1 1
1 1 1 1
1 1 1 1
1 1 1 1
1 1 1 1
1 1 1 1
1 1 1 1
0.999992 1 1 0.999992
1 1 1 1
1 1 1 1
1 1 1 1
0.999977 1 1 0.999977
0.999988 1 1 0.999988
1 1 1 1
0.999994 1 1 0.999994
0.999959 1 1 0.999959
1 1 1 1
1 1 1 1
1 1 1 1
1 1 1 1
1 1 1 1
1 1 1 1
1 1 1 1
0.999998 1 1 0.999998
1 1 1 1
1 1 1 1
1 1 1 1
0.999971 1 1 0.999971
1 1 1 1
1 1 1 1
1 1 1 1
1 1 1 1
1 1 1 1
0.999985 1 1 0.999985
1 1 1 1
0.999992 1 1 0.999992
1 1 1 1
1 1 1 1
1 1 1 1
0.999992 1 1 0.999992
1 1 1 1
1 1 1 1
1 1 1 1
1 1 1 1
0.999978 1 1 0.999978
0.999994 1 1 0.999994
0.999988 1 1 0.999988
0.999958 1 1 0.999958
1 1 1 1
1 1 1 1
0.999986 1 1 0.999986
0.999972 1 1 0.999972
0.999983 1 1 0.999983
0.999923 1 1 0.999923
0.999943 1 1 0.999943
1 1 1 1
0.999996 1 1 0.999996
0.999968 1 1 0.999968
0.999892 1 1 0.999892
1 1 1 1
1 1 1 1
1 1 1 1
1 1 1 1
1 1 1 1
1 1 1 1
0.999999 1 1 0.999999
1 1 1 1
1 1 1 1
1 1 1 1
0.999972 1 1 0.999972
1 1 1 1
1 1 1 1
0.999996 1 1 0.999996
1 1 1 1
0.999937 1 1 0.999937
1 1 1 1
0.999964 1 1 0.999964
0.999978 1 1 0.999978
0.999918 1 1 0.999918
1 1 1 1
1 1 1 1
1 1 1 1
1 1 1 1
1 1 1 1
1 1 1 1
0.999986 1 1 0.999986
1 1 1 1
0.999992 1 1 0.999992
1 1 1 1
0.999983 1 1 0.999983
0.999989 1 1 0.999989
0.999897 1 1 0.999897
0.999994 1 1 0.999994
0.999909 1 1 0.999909
1 1 1 1
1 1 1 1
1 1 1 1
1 1 1 1
0.999978 1 1 0.999978
0.999989 1 1 0.999989
0.999995 1 1 0.999995
0.999956 1 1 0.999956
1 1 1 1
1 1 1 1
0.999977 1 1 0.999977
0.999973 1 1 0.999973
1 1 1 1
0.999998 1 1 0.999998
0.999984 1 1 0.999984
0.999919 1 1 0.999919
0.999967 1 1 0.999967
0.999946 1 1 0.999946
0.999893 1 1 0.999893
0.999984 1 1 0.999984
0.999971 1 1 0.999971
0.9999 1 1 0.9999
0.999906 1 1 0.999906
0.99993 1 1 0.99993
0.999861 1 1 0.999861
1 1 1 1
0.999885 1 1 0.999885
1 1 1 1
0.999974 1 1 0.999974
0.9999 1 1 0.9999
0.999865 1 1 0.999865
1 1 1 1
0.999982 1 1 0.999982
1 1 1 1
1 1 1 1
0.999999 1 1 0.999999
1 1 1 1
1 1 1 1
1 1 1 1
0.999972 1 1 0.999972
1 1 1 1
1 1 1 1
0.999997 1 1 0.999997
1 1 1 1
0.999937 1 1 0.999937
1 1 1 1
0.999964 1 1 0.999964
0.999979 1 1 0.999979
0.999915 1 1 0.999915
1 1 1 1
1 1 1 1
0.999987 1 1 0.999987
0.999925 1 1 0.999925
0.999952 1 1 0.999952
0.999879 1 1 0.999879
0.999984 1 1 0.999984
0.999907 1 1 0.999907
0.999922 1 1 0.999922
0.999891 1 1 0.999891
1 1 1 1
1 1 1 1
1 1 1 1
1 1 1 1
1 1 1 1
1 1 1 1
1 1 1 1
0.999993 1 1 0.999993
0.999987 1 1 0.999987
1 1 1 1
1 1 1 1
0.999984 1 1 0.999984
0.99999 1 1 0.99999
0.999897 1 1 0.999897
0.999995 1 1 0.999995
0.999909 1 1 0.999909
0.999983 1 1 0.999983
0.999894 1 1 0.999894
0.999902 1 1 0.999902
0.99985 1 1 0.99985
0.999916 1 1 0.999916
0.999859 1 1 0.999859
1 1 1 1
1 1 1 1
0.999969 1 1 0.999969
0.999973 1 1 0.999973
1 1 1 1
1 1 1 1
0.999984 1 1 0.999984
0.999915 1 1 0.999915
0.999949 1 1 0.999949
0.999965 1 1 0.999965
0.999893 1 1 0.999893
0.999984 1 1 0.999984
0.999971 1 1 0.999971
0.999891 1 1 0.999891
0.999909 1 1 0.999909
1 1 1 1
1 1 1 1
0.999974 1 1 0.999974
0.999931 1 1 0.999931
0.999856 1 1 0.999856
0.999899 1 1 0.999899
0.999888 1 1 0.999888
0.999866 1 1 0.999866
1 1 1 1
0.999982 1 1 0.999982
0.999892 1 1 0.999892
0.999901 1 1 0.999901
0.999846 1 1 0.999846
0.99984 1 1 0.99984
0.999878 1 1 0.999878
0.999835 1 1 0.999835
1 1 1 1
0.999861 1 1 0.999861
0.999979 1 1 0.999979
0.999909 1 1 0.999909
0.999872 1 1 0.999872
0.999858 1 1 0.999858
0.999982 1 1 0.999982
0.999984 1 1 0.999984
0.999922 1 1 0.999922
0.999997 1 1 0.999997
1 1 1 1
1 1 1 1
1 1 1 1
0.999937 1 1 0.999937
1 1 1 1
0.999979 1 1 0.999979
0.999965 1 1 0.999965
0.999913 1 1 0.999913
1 1 1 1
1 1 1 1
0.999987 1 1 0.999987
0.999924 1 1 0.999924
0.999952 1 1 0.999952
0.999879 1 1 0.999879
0.999984 1 1 0.999984
0.999909 1 1 0.999909
0.999922 1 1 0.999922
0.999888 1 1 0.999888
1 1 1 1
0.999986 1 1 0.999986
0.999987 1 1 0.999987
0.999931 1 1 0.999931
0.99987 1 1 0.99987
0.999895 1 1 0.999895
0.999851 1 1 0.999851
0.999928 1 1 0.999928
0.999881 1 1 0.999881
0.999885 1 1 0.999885
0.99987 1 1 0.99987
0.999992 1 1 0.999992
1 1 1 1
1 1 1 1
1 1 1 1
1 1 1 1
1 1 1 1
1 1 1 1
1 1 1 1
1 1 1 1
0.999995 1 1 0.999995
0.999991 1 1 0.999991
0.999909 1 1 0.999909
0.999897 1 1 0.999897
0.999984 1 1 0.999984
1 1 1 1
0.999983 1 1 0.999983
0.999894 1 1 0.999894
0.999902 1 1 0.999902
0.99985 1 1 0.99985
0.999916 1 1 0.999916
0.999859 1 1 0.999859
0.999893 1 1 0.999893
0.99985 1 1 0.99985
0.999853 1 1 0.999853
0.999834 1 1 0.999834
0.999865 1 1 0.999865
0.999842 1 1 0.999842
0.999984 1 1 0.999984
0.999971 1 1 0.999971
0.999883 1 1 0.999883
0.999912 1 1 0.999912
1 1 1 1
1 1 1 1
0.999975 1 1 0.999975
0.999931 1 1 0.999931
0.999851 1 1 0.999851
0.999891 1 1 0.999891
0.999898 1 1 0.999898
0.999866 1 1 0.999866
1 1 1 1
0.999982 1 1 0.999982
0.999889 1 1 0.999889
0.999901 1 1 0.999901
0.999845 1 1 0.999845
0.999845 1 1 0.999845
1 1 1 1
0.999979 1 1 0.999979
0.999912 1 1 0.999912
0.999879 1 1 0.999879
0.999834 1 1 0.999834
0.999869 1 1 0.999869
0.999861 1 1 0.999861
0.999857 1 1 0.999857
0.999982 1 1 0.999982
0.99992 1 1 0.99992
0.999984 1 1 0.999984
0.999851 1 1 0.999851
0.999841 1 1 0.999841
0.999822 1 1 0.999822
0.999819 1 1 0.999819
0.999853 1 1 0.999853
0.999834 1 1 0.999834
0.999982 1 1 0.999982
0.999856 1 1 0.999856
0.999923 1 1 0.999923
0.999875 1 1 0.999875
0.999852 1 1 0.999852
0.999865 1 1 0.999865
0.999987 1 1 0.999987
0.999925 1 1 0.999925
0.999914 1 1 0.999914
0.999891 1 1 0.999891
0.999924 1 1 0.999924
1 1 1 1
1 1 1 1
0.999987 1 1 0.999987
0.999953 1 1 0.999953
0.999879 1 1 0.999879
0.999985 1 1 0.999985
0.999922 1 1 0.999922
0.99991 1 1 0.99991
0.999886 1 1 0.999886
1 1 1 1
0.999986 1 1 0.999986
0.999987 1 1 0.999987
0.999931 1 1 0.999931
0.999869 1 1 0.999869
0.999896 1 1 0.999896
0.999851 1 1 0.999851
0.999928 1 1 0.999928
0.999884 1 1 0.999884
0.999884 1 1 0.999884
0.999875 1 1 0.999875
1 1 1 1
0.999988 1 1 0.999988
0.999931 1 1 0.999931
0.999931 1 1 0.999931
0.999889 1 1 0.999889
0.999848 1 1 0.999848
0.999867 1 1 0.999867
0.999842 1 1 0.999842
0.999887 1 1 0.999887
0.999866 1 1 0.999866
0.99985 1 1 0.99985
0.999991 1 1 0.999991
0.999939 1 1 0.999939
0.999993 1 1 0.999993
0.999992 1 1 0.999992
1 1 1 1
1 1 1 1
1 1 1 1
1 1 1 1
1 1 1 1
1 1 1 1
1 1 1 1
1 1 1 1
1 1 1 1
1 1 1 1
1 1 1 1
0.999916 1 1 0.999916
0.999902 1 1 0.999902
0.999859 1 1 0.999859
0.99985 1 1 0.99985
0.999894 1 1 0.999894
0.999983 1 1 0.999983
0.999893 1 1 0.999893
0.99985 1 1 0.99985
0.999853 1 1 0.999853
0.999834 1 1 0.999834
0.999865 1 1 0.999865
0.999842 1 1 0.999842
0.999849 1 1 0.999849
0.999838 1 1 0.999838
0.999835 1 1 0.999835
0.999828 1 1 0.999828
0.999848 1 1 0.999848
0.999846 1 1 0.999846
0.999886 1 1 0.999886
0.9999 1 1 0.9999
0.999844 1 1 0.999844
0.999851 1 1 0.999851
1 1 1 1
0.999978 1 1 0.999978
0.999916 1 1 0.999916
0.999879 1 1 0.999879
0.999832 1 1 0.999832
0.999861 1 1 0.999861
0.999865 1 1 0.999865
0.999857 1 1 0.999857
0.999982 1 1 0.999982
0.999917 1 1 0.999917
0.999984 1 1 0.999984
0.999848 1 1 0.999848
0.999841 1 1 0.999841
0.999819 1 1 0.999819
0.99982 1 1 0.99982
0.999982 1 1 0.999982
0.999923 1 1 0.999923
0.999878 1 1 0.999878
0.999854 1 1 0.999854
0.999835 1 1 0.999835
0.999849 1 1 0.999849
0.999856 1 1 0.999856
0.999867 1 1 0.999867
0.999925 1 1 0.999925
0.999887 1 1 0.999887
0.999987 1 1 0.999987
0.999914 1 1 0.999914
0.999826 1 1 0.999826
0.999813 1 1 0.999813
0.999805 1 1 0.999805
0.999817 1 1 0.999817
0.999852 1 1 0.999852
0.999843 1 1 0.999843
0.999927 1 1 0.999927
0.999869 1 1 0.999869
0.999887 1 1 0.999887
0.999852 1 1 0.999852
0.999841 1 1 0.999841
0.99987 1 1 0.99987
0.99999 1 1 0.99999
0.999915 1 1 0.999915
0.999892 1 1 0.999892
0.999878 1 1 0.999878
0.999871 1 1 0.999871
1 1 1 1
0.999869 1 1 0.999869
0.999987 1 1 0.999987
0.999986 1 1 0.999986
0.99993 1 1 0.99993
0.999896 1 1 0.999896
0.999851 1 1 0.999851
0.999928 1 1 0.999928
0.999883 1 1 0.999883
0.999886 1 1 0.999886
0.999879 1 1 0.999879
1 1 1 1
0.999988 1 1 0.999988
0.999931 1 1 0.999931
0.999931 1 1 0.999931
0.999888 1 1 0.999888
0.999847 1 1 0.999847
0.999867 1 1 0.999867
0.999841 1 1 0.999841
0.999887 1 1 0.999887
0.999868 1 1 0.999868
0.999852 1 1 0.999852
0.999989 1 1 0.999989
0.999931 1 1 0.999931
0.999888 1 1 0.999888
0.999887 1 1 0.999887
0.99987 1 1 0.99987
0.999845 1 1 0.999845
0.999853 1 1 0.999853
0.999855 1 1 0.999855
0.999854 1 1 0.999854
0.999834 1 1 0.999834
0.999991 1 1 0.999991
0.999928 1 1 0.999928
0.999935 1 1 0.999935
0.999897 1 1 0.999897
0.999941 1 1 0.999941
0.999994 1 1 0.999994
0.999993 1 1 0.999993
1 1 1 1
0.999993 1 1 0.999993
1 1 1 1
1 1 1 1
1 1 1 1
1 1 1 1
1 1 1 1
1 1 1 1
1 1 1 1
1 1 1 1
1 1 1 1
1 1 1 1
1 1 1 1
0.999865 1 1 0.999865
0.999853 1 1 0.999853
0.999842 1 1 0.999842
0.999834 1 1 0.999834
0.99985 1 1 0.99985
0.999893 1 1 0.999893
0.999849 1 1 0.999849
0.999839 1 1 0.999839
0.999835 1 1 0.999835
0.999827 1 1 0.999827
0.999847 1 1 0.999847
0.999845 1 1 0.999845
0.999836 1 1 0.999836
0.999837 1 1 0.999837
0.99983 1 1 0.99983
0.999821 1 1 0.999821
0.999851 1 1 0.999851
0.999852 1 1 0.999852
0.999846 1 1 0.999846
0.999841 1 1 0.999841
0.999816 1 1 0.999816
0.999822 1 1 0.999822
0.999982 1 1 0.999982
0.999923 1 1 0.999923
0.999882 1 1 0.999882
0.999856 1 1 0.999856
0.999836 1 1 0.999836
0.999856 1 1 0.999856
0.999846 1 1 0.999846
0.999869 1 1 0.999869
0.999926 1 1 0.999926
0.999883 1 1 0.999883
0.999987 1 1 0.999987
0.999914 1 1 0.999914
0.999826 1 1 0.999826
0.999814 1 1 0.999814
0.999803 1 1 0.999803
0.999818 1 1 0.999818
0.999927 1 1 0.999927
0.99989 1 1 0.99989
0.999852 1 1 0.999852
0.999851 1 1 0.999851
0.999846 1 1 0.999846
0.99984 1 1 0.99984
0.999869 1 1 0.999869
0.999875 1 1 0.999875
0.999892 1 1 0.999892
0.999869 1 1 0.999869
0.999877 1 1 0.999877
0.999985 1 1 0.999985
0.999916 1 1 0.999916
0.999816 1 1 0.999816
0.999796 1 1 0.999796
0.999827 1 1 0.999827
0.999862 1 1 0.999862
0.999895 1 1 0.999895
0.999888 1 1 0.999888
0.999865 1 1 0.999865
0.999826 1 1 0.999826
0.999835 1 1 0.999835
0.999983 1 1 0.999983
0.999929 1 1 0.999929
0.999874 1 1 0.999874
0.999875 1 1 0.999875
0.999849 1 1 0.999849
0.999855 1 1 0.999855
1 1 1 1
0.999988 1 1 0.999988
0.999847 1 1 0.999847
0.999931 1 1 0.999931
0.999931 1 1 0.999931
0.999887 1 1 0.999887
0.999867 1 1 0.999867
0.99984 1 1 0.99984
0.999887 1 1 0.999887
0.999855 1 1 0.999855
0.99987 1 1 0.99987
0.99999 1 1 0.99999
0.999931 1 1 0.999931
0.99989 1 1 0.99989
0.999887 1 1 0.999887
0.999867 1 1 0.999867
0.999845 1 1 0.999845
0.999852 1 1 0.999852
0.999856 1 1 0.999856
0.999852 1 1 0.999852
0.999831 1 1 0.999831
0.999932 1 1 0.999932
0.999879 1 1 0.999879
0.999862 1 1 0.999862
0.999858 1 1 0.999858
0.999853 1 1 0.999853
0.999879 1 1 0.999879
0.999834 1 1 0.999834
0.999851 1 1 0.999851
0.999831 1 1 0.999831
0.999799 1 1 0.999799
0.999991 1 1 0.999991
0.999931 1 1 0.999931
0.999881 1 1 0.999881
0.999931 1 1 0.999931
0.999941 1 1 0.999941
0.999891 1 1 0.999891
0.999861 1 1 0.999861
0.999887 1 1 0.999887
0.999944 1 1 0.999944
0.999994 1 1 0.999994
0.999994 1 1 0.999994
1 1 1 1
0.999994 1 1 0.999994
1 1 1 1
1 1 1 1
1 1 1 1
1 1 1 1
1 1 1 1
1 1 1 1
1 1 1 1
1 1 1 1
1 1 1 1
1 1 1 1
1 1 1 1
0.999847 1 1 0.999847
0.999835 1 1 0.999835
0.999845 1 1 0.999845
0.999825 1 1 0.999825
0.999839 1 1 0.999839
0.999849 1 1 0.999849
0.999836 1 1 0.999836
0.999837 1 1 0.999837
0.999829 1 1 0.999829
0.999816 1 1 0.999816
0.999851 1 1 0.999851
0.999853 1 1 0.999853
0.999842 1 1 0.999842
0.999833 1 1 0.999833
0.999825 1 1 0.999825
0.999878 1 1 0.999878
0.999827 1 1 0.999827
0.999815 1 1 0.999815
0.9998 1 1 0.9998
0.999818 1 1 0.999818
0.999927 1 1 0.999927
0.999892 1 1 0.999892
0.999851 1 1 0.999851
0.99985 1 1 0.99985
0.99985 1 1 0.99985
0.99987 1 1 0.99987
0.999839 1 1 0.999839
0.99988 1 1 0.99988
0.999892 1 1 0.999892
0.999867 1 1 0.999867
0.999877 1 1 0.999877
0.99998 1 1 0.99998
0.999916 1 1 0.999916
0.999813 1 1 0.999813
0.999799 1 1 0.999799
0.999829 1 1 0.999829
0.999895 1 1 0.999895
0.999869 1 1 0.999869
0.999826 1 1 0.999826
0.99986 1 1 0.99986
0.999841 1 1 0.999841
0.999887 1 1 0.999887
0.999983 1 1 0.999983
0.999875 1 1 0.999875
0.999856 1 1 0.999856
0.999851 1 1 0.999851
0.999876 1 1 0.999876
0.999925 1 1 0.999925
0.999808 1 1 0.999808
0.999797 1 1 0.999797
0.999848 1 1 0.999848
0.999886 1 1 0.999886
0.999875 1 1 0.999875
0.999861 1 1 0.999861
0.999836 1 1 0.999836
0.999808 1 1 0.999808
0.999987 1 1 0.999987
0.999934 1 1 0.999934
0.999883 1 1 0.999883
0.999835 1 1 0.999835
0.999856 1 1 0.999856
0.999835 1 1 0.999835
0.99999 1 1 0.99999
0.999931 1 1 0.999931
0.999844 1 1 0.999844
0.999887 1 1 0.999887
0.999892 1 1 0.999892
0.999865 1 1 0.999865
0.999851 1 1 0.999851
0.999858 1 1 0.999858
0.99985 1 1 0.99985
0.999827 1 1 0.999827
0.999932 1 1 0.999932
0.999882 1 1 0.999882
0.999865 1 1 0.999865
0.999861 1 1 0.999861
0.999854 1 1 0.999854
0.999881 1 1 0.999881
0.999836 1 1 0.999836
0.999861 1 1 0.999861
0.999829 1 1 0.999829
0.999795 1 1 0.999795
0.999878 1 1 0.999878
0.999845 1 1 0.999845
0.999839 1 1 0.999839
0.999839 1 1 0.999839
0.999887 1 1 0.999887
0.999883 1 1 0.999883
0.999801 1 1 0.999801
0.999783 1 1 0.999783
0.999934 1 1 0.999934
0.999885 1 1 0.999885
0.999855 1 1 0.999855
0.999941 1 1 0.999941
0.999885 1 1 0.999885
0.999943 1 1 0.999943
0.999857 1 1 0.999857
0.999889 1 1 0.999889
0.999835 1 1 0.999835
0.999853 1 1 0.999853
0.999888 1 1 0.999888
0.999944 1 1 0.999944
0.999994 1 1 0.999994
0.999994 1 1 0.999994
1 1 1 1
0.999994 1 1 0.999994
1 1 1 1
1 1 1 1
1 1 1 1
1 1 1 1
1 1 1 1
1 1 1 1
1 1 1 1
1 1 1 1
1 1 1 1
1 1 1 1
1 1 1 1
0.999851 1 1 0.999851
0.999828 1 1 0.999828
0.999855 1 1 0.999855
0.999812 1 1 0.999812
0.999837 1 1 0.999837
0.999836 1 1 0.999836
0.999839 1 1 0.999839
0.999832 1 1 0.999832
0.999829 1 1 0.999829
0.999876 1 1 0.999876
0.999838 1 1 0.999838
0.999833 1 1 0.999833
0.999857 1 1 0.999857
0.999809 1 1 0.999809
0.999802 1 1 0.999802
0.99983 1 1 0.99983
0.999895 1 1 0.999895
0.999872 1 1 0.999872
0.999825 1 1 0.999825
0.999858 1 1 0.999858
0.999886 1 1 0.999886
0.999847 1 1 0.999847
0.999874 1 1 0.999874
0.999858 1 1 0.999858
0.999853 1 1 0.999853
0.999983 1 1 0.999983
0.999878 1 1 0.999878
0.99992 1 1 0.99992
0.999814 1 1 0.999814
0.999796 1 1 0.999796
0.999844 1 1 0.999844
0.999875 1 1 0.999875
0.999839 1 1 0.999839
0.999811 1 1 0.999811
0.999889 1 1 0.999889
0.999861 1 1 0.999861
0.999991 1 1 0.999991
0.999934 1 1 0.999934
0.999856 1 1 0.999856
0.999836 1 1 0.999836
0.999838 1 1 0.999838
0.99988 1 1 0.99988
0.999823 1 1 0.999823
0.999803 1 1 0.999803
0.999891 1 1 0.999891
0.999897 1 1 0.999897
0.999852 1 1 0.999852
0.99981 1 1 0.99981
0.999813 1 1 0.999813
0.999998 1 1 0.999998
0.999955 1 1 0.999955
0.999936 1 1 0.999936
0.999878 1 1 0.999878
0.999838 1 1 0.999838
0.999815 1 1 0.999815
0.999842 1 1 0.999842
0.999819 1 1 0.999819
0.999932 1 1 0.999932
0.999884 1 1 0.999884
0.999884 1 1 0.999884
0.999863 1 1 0.999863
0.999869 1 1 0.999869
0.999855 1 1 0.999855
0.999837 1 1 0.999837
0.99987 1 1 0.99987
0.999826 1 1 0.999826
0.999792 1 1 0.999792
0.999878 1 1 0.999878
0.999849 1 1 0.999849
0.999842 1 1 0.999842
0.999841 1 1 0.999841
0.999887 1 1 0.999887
0.99988 1 1 0.99988
0.999805 1 1 0.999805
0.999782 1 1 0.999782
0.999851 1 1 0.999851
0.999868 1 1 0.999868
0.999826 1 1 0.999826
0.999814 1 1 0.999814
0.999906 1 1 0.999906
0.999794 1 1 0.999794
0.999822 1 1.00006 0.999763
0.999888 1 1 0.999888
0.999855 1 1 0.999855
0.999832 1 1 0.999832
0.999943 1 1 0.999943
0.999892 1 1 0.999892
0.999853 1 1 0.999853
0.999944 1 1 0.999944
0.999888 1 1 0.999888
0.999832 1 1 0.999832
0.999858 1 1 0.999858
0.999817 1 1 0.999817
0.999827 1 1 0.999827
0.999858 1 1 0.999858
0.999891 1 1 0.999891
0.999943 1 1 0.999943
0.999994 1 1 0.999994
0.999994 1 1 0.999994
1 1 1 1
0.999995 1 1 0.999995
1 1 1 1
1 1 1 1
1 1 1 1
1 1 1 1
1 1 1 1
0.999999 1 1 0.999999
1 1 1 1
1 1 1 1
1 1 1 1
1 1 1 1
1 1 1 1
1 1 1 1
0.999873 1 1 0.999873
0.999833 1 1 0.999833
0.999831 1 1 0.999831
0.999835 1 1 0.999835
0.999842 1 1 0.999842
0.99983 1 1 0.99983
0.999864 1 1 0.999864
0.999842 1 1 0.999842
0.999842 1 1 0.999842
0.999898 1 1 0.999898
0.999819 1 1 0.999819
0.999794 1 1 0.999794
0.999841 1 1 0.999841
0.999875 1 1 0.999875
0.999842 1 1 0.999842
0.999814 1 1 0.999814
0.999892 1 1 0.999892
0.99986 1 1 0.99986
0.999856 1 1 0.999856
0.999837 1 1 0.999837
0.99984 1 1 0.99984
0.999995 1 1 0.999995
0.999934 1 1 0.999934
0.999877 1 1 0.999877
0.999819 1 1 0.999819
0.999997 1 1 0.999997
0.999952 1 1 0.999952
0.999805 1 1 0.999805
0.999883 1 1 0.999883
0.999853 1 1 0.999853
0.99981 1 1 0.99981
0.999811 1 1 0.999811
0.999896 1 1 0.999896
0.999944 1 1 0.999944
0.999878 1 1 0.999878
0.999843 1 1 0.999843
0.999822 1 1 0.999822
0.99981 1 1 0.99981
0.99984 1 1 0.99984
0.999799 1 1 0.999799
0.999848 1 1 0.999848
0.999937 1 1 0.999937
0.999844 1 1 0.999844
0.999835 1 1 0.999835
0.999788 1 1 0.999788
0.999954 1 1 0.999954
0.99995 1 1 0.99995
0.99991 1 1 0.99991
0.999877 1 1 0.999877
0.999843 1 1 0.999843
0.9998 1 1 0.9998
0.999789 1 1 0.999789
0.999822 1 1 0.999822
0.999878 1 1 0.999878
0.999852 1 1 0.999852
0.999887 1 1 0.999887
0.999877 1 1 0.999877
0.999843 1 1 0.999843
0.999845 1 1 0.999845
0.999809 1 1 0.999809
0.999781 1 1 0.999781
0.999851 1 1 0.999851
0.999882 1 1 0.999882
0.999825 1 1 0.999825
0.999809 1 1 0.999809
0.999903 1 1 0.999903
0.999795 1 1 0.999795
0.999828 1 1.00007 0.99976
0.999826 1 1 0.999826
0.999903 1 1 0.999903
0.999809 1 1 0.999809
0.999908 1 1.00014 0.999772
0.999799 1 1 0.999799
1.00044 1 1.0007 0.999738
0.984548 1.00295 0.981895 0.999749
0.999855 1 1 0.999855
0.999832 1 1 0.999832
0.999817 1 1 0.999817
0.999944 1 1 0.999944
0.999888 1 1 0.999888
0.999862 1 1 0.999862
0.999829 1 1 0.999829
0.999942 1 1 0.999942
0.999888 1 1 0.999888
0.999816 1 1 0.999816
0.999858 1 1 0.999858
0.99983 1 1 0.99983
0.999805 1 1 0.999805
0.999831 1 1 0.999831
0.999858 1 1 0.999858
0.999882 1 1 0.999882
0.999934 1 1 0.999934
0.999896 1 1 0.999896
0.999934 1 1 0.999934
0.999994 1 1 0.999994
0.999994 1 1 0.999994
1 1 1 1
0.999994 1 1 0.999994
1 1 1 1
1 1 1 1
1 1 1 1
1 1 1 1
1 1 1 1
1 1 1 1
0.999999 1 1 0.999999
1 1 1 1
1 1 1 1
1 1 1 1
1 1 1 1
1 1 1 1
1 1 1 1
0.99987 1 1 0.99987
0.999827 1 1 0.999827
0.999846 1 1 0.999846
0.999842 1 1 0.999842
0.999843 1 1 0.999843
0.99991 1 1 0.99991
0.999848 1 1 0.999848
0.99615 1.00031 0.995896 0.999948
0.999678 1 0.999705 0.999973
0.999966 1 1 0.999966
0.999815 1 1 0.999815
0.999806 1 1 0.999806
0.999876 1 1 0.999876
0.999854 1 1 0.999854
0.999807 1 1 0.999807
0.999813 1 1 0.999813
0.999895 1 1 0.999895
0.999844 1 1 0.999844
0.999826 1 1 0.999826
0.999806 1 1 0.999806
0.999997 1 1 0.999997
0.999841 1 1 0.999841
0.999952 1 1 0.999952
0.999877 1 1 0.999877
0.999948 1 1 0.999948
0.999792 1 1 0.999792
0.999958 1 1 0.999958
0.99995 1 1 0.99995
0.999904 1 1 0.999904
0.999849 1 1 0.999849
0.999878 1 0.999952 0.999926
0.999835 1 1 0.999835
0.999787 1 1 0.999787
0.999845 1 1 0.999845
0.999882 1 1 0.999882
0.999842 1 1 0.999842
0.999822 1 1 0.999822
0.999794 1 1 0.999794
0.999803 1 1 0.999803
0.999822 1 1.00004 0.999778
0.997858 1 0.997932 0.999927
0.999882 1 1 0.999882
0.999794 1 1 0.999794
0.999813 1 1 0.999813
0.999904 1 1 0.999904
0.999888 1 1 0.999888
0.999867 1 1 0.999867
0.999837 1 1 0.999837
0.999812 1 1 0.999812
0.999776 1 1 0.999776
1.00118 1 1.0014 0.999783
0.99985 1 1 0.99985
0.999825 1 1 0.999825
0.999895 1 1 0.999895
0.9999 1 1 0.9999
0.999797 1 1 0.999797
0.999805 1 1 0.999805
0.999758 1 1 0.999758
0.999827 1 1 0.999827
0.99988 1 0.99997 0.99991
0.999808 1 1 0.999808
0.999801 1 1.00003 0.999771
0.99981 1 1 0.99981
1.00093 1 1.0012 0.999736
0.98884 1.00546 0.983696 0.99977
0.999809 1 1 0.999809
0.999774 1 1 0.999774
0.999791 1 1 0.999791
1.00201 1 1.00227 0.999737
1.00056 1 1.00084 0.999717
0.964344 0.965139 1.00004 0.999137
0.988116 1.00173 0.986562 0.999846
0.984821 1.00805 0.977252 0.999695
0.972951 0.97928 0.993616 0.999921
0.978253 1.00189 0.97642 0.999989
0.999832 1 1 0.999832
0.999817 1 1 0.999817
0.999801 1 1 0.999801
0.999942 1 1 0.999942
0.999886 1 1 0.999886
0.999858 1 1 0.999858
0.999834 1 1 0.999834
0.999816 1 1 0.999816
0.999853 1 1 0.999853
0.999937 1 1 0.999937
0.999885 1 1 0.999885
0.999808 1 1 0.999808
0.999829 1 1 0.999829
0.999832 1 1 0.999832
0.999805 1 1 0.999805
0.999844 1 1 0.999844
0.999879 1 1 0.999879
0.999933 1 1 0.999933
0.999891 1 1 0.999891
0.999856 1 1 0.999856
0.999885 1 1 0.999885
0.999889 1 1 0.999889
0.99994 1 1 0.99994
0.999934 1 1 0.999934
0.999994 1 1 0.999994
0.999994 1 1 0.999994
1 1 1 1
0.999994 1 1 0.999994
1 1 1 1
1 1 1 1
1 1 1 1
1 1 1 1
1 1 1 1
1 1 1 1
1 1 1 1
1 1 1 1
0.999998 1 1 0.999998
1 1 1 1
1 1 1 1
1 1 1 1
1 1 1 1
1 1 1 1
0.999844 1 1 0.999844
0.999843 1 1 0.999843
0.999921 1 1 0.999921
0.995625 1 0.995675 0.999946
0.999848 1 1 0.999848
0.999813 1 0.999863 0.99995
0.999861 1 1.00004 0.999823
0.982336 0.985694 0.99692 0.999673
0.999707 1 0.999727 0.999981
0.999969 1 1 0.999969
0.999966 1 1 0.999966
0.999917 1 1 0.999917
0.999926 1 1 0.999926
0.999786 1 1 0.999786
0.99985 1 1 0.99985
0.999915 1 1 0.999915
0.999836 1 1 0.999836
0.999786 1 1 0.999786
0.999847 1 1 0.999847
0.999822 1 1 0.999822
0.999799 1 1 0.999799
0.999806 1 1 0.999806
0.99995 1 1 0.99995
0.99984 1 1 0.99984
0.999886 1 1 0.999886
0.999962 1 1 0.999962
0.999897 1 1 0.999897
0.999819 1 1.00003 0.999784
0.999911 1 1 0.999911
0.999892 1 1 0.999892
0.999869 1 1 0.999869
0.998754 1 0.998828 0.999925
0.999883 1 1 0.999883
0.999813 1 1 0.999813
0.999796 1 1 0.999796
0.999838 1 1 0.999838
0.999815 1 1 0.999815
1.00054 1 1.00076 0.999783
0.999776 1 1 0.999776
0.999867 1 1.00003 0.999837
0.99812 1 0.998193 0.999927
0.999787 1 1 0.999787
0.999928 1 1.00014 0.999788
0.999856 1 1 0.999856
0.999845 1 1 0.999845
0.999789 1 1 0.999789
1.00164 1 1.00189 0.999745
0.963406 0.966097 0.998058 0.999154
0.999829 1 1 0.999829
0.999807 1 1 0.999807
0.999871 1 0.999953 0.999918
0.99982 1 1 0.99982
1.00148 1 1.00175 0.999734
0.999771 1 1 0.999771
0.993505 1.00797 0.985851 0.999792
0.999811 1 1 0.999811
0.999775 1 1 0.999775
0.999792 1 1 0.999792
1.00168 1 1.00195 0.999738
1.00029 1 1.00056 0.999727
0.965631 0.965369 1.00105 0.999226
0.984724 0.998783 0.986318 0.999601
0.987423 1.00998 0.977968 0.999695
0.974882 0.981123 0.993843 0.999794
0.978943 1.00057 0.978393 0.999991
0.999803 1 1 0.999803
0.976972 0.97953 0.997714 0.999674
0.993616 1.00243 0.991219 0.99999
0.999702 1 1 0.999702
1.00122 1 1.00144 0.999777
1.00712 1 1.0074 0.999716
1.00145 1.01017 0.991723 0.999643
0.977252 0.973533 1.00478 0.999044
0.987167 1.0074 0.980333 0.999577
0.969028 0.982611 0.986262 0.999914
0.990936 1.00444 0.986569 0.99999
0.999817 1 1 0.999817
0.999801 1 1 0.999801
0.999787 1 1 0.999787
0.999941 1 1 0.999941
0.999888 1 1 0.999888
0.999849 1 1 0.999849
0.999828 1 1 0.999828
0.99981 1 1 0.99981
0.999933 1 1 0.999933
0.999831 1 1 0.999831
0.999848 1 1 0.999848
0.999883 1 1 0.999883
0.999802 1 1 0.999802
0.999817 1 1 0.999817
0.999984 1 1.0002 0.999786
0.999842 1 1 0.999842
0.999889 1 1 0.999889
0.999891 1 1 0.999891
0.999851 1 1 0.999851
0.99985 1 1 0.99985
0.999847 1 1 0.999847
0.999827 1 1 0.999827
0.99984 1 1 0.99984
0.99988 1 1 0.99988
0.999885 1 1 0.999885
0.999937 1 1 0.999937
0.999883 1 1 0.999883
0.999936 1 1 0.999936
0.999994 1 1 0.999994
0.999934 1 1 0.999934
0.999994 1 1 0.999994
1 1 1 1
0.999994 1 1 0.999994
1 1 1 1
1 1 1 1
1 1 1 1
1 1 1 1
1 1 1 1
0.999968 1 1 0.999968
1 1 1 1
1 1 1 1
1 1 1 1
1 1 1 1
1 1 1 1
1 1 1 1
1 1 1 1
1 1 1 1
1 1 1 1
0.995082 1 0.995139 0.999944
0.999847 1 1 0.999847
0.999927 1 1 0.999927
0.983618 0.985745 0.998029 0.999813
0.999861 1 0.999883 0.999978
0.999844 1 1.00003 0.999811
1.0014 1 1.00159 0.999807
0.989646 0.988337 1.00163 0.999698
0.967928 0.968877 1.00011 0.998907
0.972186 0.979021 0.993364 0.999652
0.984926 1.00014 0.9848 0.99999
0.999917 1 1 0.999917
0.999969 1 1 0.999969
0.999965 1 1 0.999965
0.999915 1 1 0.999915
0.999885 1 1 0.999885
0.999895 1 1 0.999895
0.999921 1 1 0.999921
0.999923 1 1 0.999923
0.999817 1 1.00003 0.99979
0.999469 1 0.999545 0.999924
0.999787 1 0.999904 0.999883
0.999812 1 1 0.999812
0.999799 1 1 0.999799
0.999936 1 1.00015 0.999784
0.999777 1 1 0.999777
0.999817 1 1 0.999817
0.999896 1 1 0.999896
0.99984 1 1 0.99984
0.999918 1 1 0.999918
0.999871 1 1 0.999871
0.999309 1 0.999476 0.999833
0.999858 1 1 0.999858
0.999847 1 1 0.999847
0.997697 1 0.997771 0.999925
0.999792 1 1 0.999792
1.00034 1 1.00056 0.99978
0.99979 1 1 0.99979
1.00156 1 1.00181 0.999747
0.98862 1.00255 0.986234 0.999871
1.00187 1 1.00206 0.999811
0.999756 1 1 0.999756
1.00403 1 1.0043 0.999731
0.999827 1 1 0.999827
0.999806 1 1 0.999806
1.00029 1 1.00054 0.999748
0.974724 0.980813 0.993909 0.999883
0.966617 0.967522 0.99988 0.999184
0.999812 1 1 0.999812
0.999792 1 1 0.999792
0.999777 1 1 0.999777
1 1 1.00026 0.999737
1.00127 1 1.00153 0.999739
0.965406 0.966627 0.999863 0.998873
0.987931 0.998552 0.989468 0.999895
0.990545 1.01227 0.978839 0.999694
0.97222 0.980513 0.991877 0.999662
0.979187 0.999002 0.980172 0.999993
0.999803 1 1 0.999803
0.975468 0.980324 0.995156 0.999889
0.993645 1.00212 0.991553 0.999993
0.999704 1 1 0.999701
1.00048 1 1.0007 0.999779
1.00633 1 1.00661 0.999726
0.999277 1.0076 0.992104 0.999632
0.975989 0.974126 1.00302 0.998898
0.980787 1.00269 0.978272 0.999877
0.969125 0.982586 0.986655 0.999641
0.986857 1.00484 0.98211 0.999991
0.999791 1 1 0.999791
1.00147 1.00264 0.998837 0.999991
1.00085 1.00251 0.998342 0.999995
1.00947 1 1.00978 0.999698
1.00515 1 1.00536 0.999793
1.00444 1.00361 1.00103 0.999803
0.991741 1.00217 0.989656 0.999942
0.979817 0.977007 1.00391 0.99897
0.976422 0.991904 0.98478 0.999606
0.998595 1.00485 0.993787 0.99999
0.999801 1 1 0.999801
0.999786 1 1 0.999786
1.0002 1 1.00042 0.999779
0.999933 1 1 0.999933
0.999887 1 1 0.999887
0.999853 1 1 0.999853
0.99983 1 1 0.99983
0.999799 1 1 0.999799
0.999888 1 1 0.999888
0.99982 1 1 0.99982
0.999842 1 1 0.999842
1.00003 1 1.00024 0.999784
1.00032 1 1.00055 0.999768
0.99989 1 1.00009 0.999804
0.999845 1 1 0.999845
0.999891 1 1 0.999891
0.999846 1 1 0.999846
0.99985 1 1 0.99985
0.999846 1 1 0.999846
0.999827 1 1 0.999827
0.99984 1 1 0.99984
0.99982 1 1 0.99982
0.999814 1 1 0.999814
0.999827 1 1 0.999827
0.999851 1 1 0.999851
0.999849 1 1 0.999849
0.99984 1 1 0.99984
0.999877 1 1 0.999877
0.999879 1 1 0.999879
0.999933 1 1 0.999933
0.999885 1 1 0.999885
0.999937 1 1 0.999937
0.999993 1 1 0.999993
0.999933 1 1 0.999933
0.999993 1 1 0.999993
1 1 1 1
0.999994 1 1 0.999994
1 1 1 1
1 1 1 1
1 1 1 1
1 1 1 1
1 1 1 1
0.999971 1 1 0.999971
1 1 1 1
0.999968 1 1 0.999968
1 1 1 1
1 1 1 1
1 1 1 1
1 1 1 1
1 1 1 1
1 1 1 1
1 1 1 1
1 1 1 1
0.974985 0.979149 0.99584 0.999907
0.996768 1.00211 0.994672 0.999995
0.985355 0.98609 0.999328 0.999926
0.999959 1 0.999984 0.999975
0.999826 1 1.00003 0.999798
0.989032 0.987129 1.00196 0.999972
1.00061 1 1.0008 0.999815
0.971391 0.970904 1.00136 0.999146
0.973436 0.979157 0.994241 0.999916
0.984187 0.99983 0.984362 0.999992
0.999768 0.995229 1.00466 0.999896
0.977336 0.975599 1.00269 0.999092
0.969633 0.981616 0.987878 0.999914
0.986962 1.00447 0.982586 0.999988
0.999874 1 1 0.999874
0.999921 1 1 0.999921
0.999968 1 1 0.999968
0.999914 1 1 0.999914
0.999888 1 1 0.999888
0.999883 1 1 0.999883
0.999897 1 1 0.999897
0.999906 1 1 0.999906
0.999917 1 1 0.999917
0.999921 1 1 0.999921
0.998855 1 0.999025 0.99983
0.997545 1 0.997621 0.999924
0.999798 1 1 0.999798
1.00072 1 1.00095 0.999771
1.0014 1 1.00165 0.999748
0.99979 1 1 0.99979
0.999849 1 1 0.999849
0.99986 1 1 0.99986
0.990891 1.00127 0.989772 0.999859
0.999825 1 1 0.999825
0.999802 1 1 0.999802
1.00029 1 1.00048 0.999816
0.999817 1 1.00007 0.999751
1.00308 1 1.00336 0.999725
1.00084 1 1.0011 0.999744
0.98297 1.00994 0.973502 0.99979
1.0076 1 1.00787 0.999735
1.00426 1 1.00456 0.999707
0.999824 1 1 0.999824
0.999798 1 1 0.999798
0.999766 1 1 0.999766
0.99874 1.00091 0.997849 0.999982
0.975554 0.980085 0.995705 0.999671
0.964623 0.967281 0.998115 0.999135
0.999802 1 1 0.999802
0.999781 1 1 0.999781
0.9997 1 1 0.9997
1.00567 1 1.00593 0.999736
0.974037 0.980077 0.994176 0.999659
0.973249 0.973018 1.00092 0.999322
0.981076 1.00377 0.977761 0.999617
0.997841 1.00518 0.993072 0.999624
0.969381 0.981814 0.987417 0.999919
0.994004 1.00267 0.991364 0.99999
0.987385 1.00559 0.981909 0.99999
0.99979 1 1 0.99979
1.00018 1.0021 0.998097 0.999988
1.00144 1.00327 0.998187 0.999995
1.00977 1 1.01007 0.999698
1.00524 1 1.00545 0.999793
1.0074 1.00315 1.00461 0.999623
0.988424 1.00203 0.986811 0.999603
0.979793 0.978432 1.00243 0.998968
0.980156 0.990975 0.98917 0.999911
0.995046 1.0035 0.991594 0.999986
0.999806 1 1 0.999806
1.00109 1.00112 0.999972 0.999998
0.999492 0.999985 0.999507 1
1.00675 1 1.00688 0.999872
0.998193 0.995553 1.00269 0.999959
0.988954 0.984951 1.00501 0.999055
0.985345 1.00183 0.983658 0.999882
0.998704 1.00183 0.996902 0.999977
0.999786 1 1 0.999786
1.00014 1 1.00036 0.999781
1.00107 1 1.0013 0.999773
0.999888 1 1 0.999888
0.999842 1 1 0.999842
0.999822 1 1 0.999822
1.00006 1 1.00028 0.999781
0.999845 1 1 0.999845
0.999835 1 1.00003 0.999804
1.0007 1 1.00093 0.999767
1.00063 1 1.00085 0.999773
0.999983 1 1.00021 0.99977
0.999813 1 1 0.999813
0.999849 1 1 0.999849
0.999846 1 1 0.999846
0.999827 1 1 0.999827
0.999822 1 1 0.999822
0.99984 1 1 0.99984
0.999816 1 1 0.999816
0.999811 1 1 0.999811
0.999801 1 1 0.999801
0.999814 1 1 0.999814
0.999827 1 1 0.999827
0.999835 1 1 0.999835
0.999845 1 1 0.999845
0.999875 1 1 0.999875
0.999858 1 1 0.999858
0.999851 1 1 0.999851
0.999878 1 1 0.999878
0.99984 1 1 0.99984
0.999877 1 1 0.999877
0.99993 1 1 0.99993
0.999879 1 1 0.999879
0.999933 1 1 0.999933
0.999992 1 1 0.999992
0.999937 1 1 0.999937
0.999992 1 1 0.999992
1 1 1 1
0.999993 1 1 0.999993
1 1 1 1
1 1 1 1
1 1 1 1
1 1 1 1
1 1 1 1
0.999958 1 1 0.999958
1 1 1 1
0.999965 1 1 0.999965
1 1 1 1
1 1 1 1
0.999968 1 1 0.999968
1 1 1 1
1 1 1 1
1 1 1 1
1 1 1 1
1 1 1 1
1 1 1 1
1.00038 1.0014 0.998984 0.999994
0.974487 0.978666 0.99594 0.999788
1.00112 1.00299 0.998132 0.999996
0.995823 1.00107 0.994766 0.999995
0.985934 0.985688 1.00054 0.999711
0.999865 1 1.00004 0.999822
0.971655 0.970506 1.00178 0.999401
0.972618 0.979068 0.993746 0.999664
0.983812 0.999615 0.984197 0.999994
0.996766 0.996582 1.00037 0.999812
0.976155 0.973083 1.00412 0.999041
0.971551 0.982962 0.98875 0.999638
0.986184 1.00456 0.981713 0.99999
0.996988 1.00471 0.992407 0.999907
0.978365 0.974904 1.00461 0.998946
0.977745 0.991581 0.986138 0.999907
0.996897 1.00474 0.992202 0.999991
0.99985 1 1 0.99985
0.999878 1 1 0.999878
0.999924 1 1 0.999924
0.999892 1 1 0.999892
0.999862 1 1 0.999862
0.999886 1 1 0.999886
0.999898 1 1 0.999898
0.999902 1 1 0.999902
0.99991 1 1 0.99991
0.999913 1 1 0.999913
0.993324 1.00017 0.993312 0.999846
0.998729 1 0.998908 0.999821
0.999801 1 1.00006 0.999746
1.00237 1 1.00266 0.999719
1.00145 1 1.00171 0.999739
0.999798 1 1 0.999798
0.999823 1 1 0.999823
0.999825 1 1 0.999825
0.984698 1.00691 0.97815 0.999786
0.9998 1 1 0.9998
0.999854 1 1.00009 0.999763
1.00692 1 1.00719 0.999734
1.00403 1 1.00432 0.999708
0.987382 1.01029 0.977576 0.999742
1.01686 1 1.01714 0.999729
1.00051 1 1.00078 0.999725
0.999803 1 1 0.999803
0.99977 1 1 0.99977
0.999793 0.999801 0.999992 1
0.999565 1.00095 0.998627 0.999988
0.975851 0.980813 0.995046 0.999895
0.999789 1 1 0.999789
1.00517 1 1.00538 0.999792
1.0099 1 1.0102 0.999698
1.00102 1.00219 0.998842 0.999993
0.979748 0.977038 1.00385 0.998924
0.98432 1.0008 0.983587 0.999941
1.00822 1.002 1.00677 0.999439
0.973984 0.988862 0.985326 0.999623
1.00207 1.00409 0.997992 0.999994
0.996441 1.00282 0.993657 0.999984
0.999809 1 1 0.999809
1.00061 1.00063 0.999983 0.999999
0.99934 0.999736 0.999604 1
1.00704 0.999985 1.00724 0.999817
0.997741 0.996905 1.00098 0.999858
0.99199 0.98797 1.00511 0.998967
1.0012 1.00301 0.998215 0.999983
0.988512 0.998024 0.990683 0.999784
0.999826 1 1 0.999826
0.999399 0.999235 1.00016 1
0.998387 0.997901 1.00048 1
0.996421 1.00449 0.991976 0.999992
1.00216 0.997759 1.00448 0.999931
0.988235 0.98468 1.00442 0.999189
0.988121 1.00116 0.987159 0.999814
1.00005 1 1.00027 0.999783
1.00086 1 1.00109 0.999771
1.00321 1 1.00343 0.999782
0.999845 1 1 0.999845
0.999805 1 1 0.999805
1.00114 1 1.00137 0.999766
0.999814 1 1 0.999814
1.0001 1 1.00033 0.99977
1.00103 1 1.00126 0.99977
1.00013 1 1.00035 0.999777
0.999783 1 1 0.999783
0.999823 1 1 0.999823
0.999841 1 1 0.999841
0.999817 1 1 0.999817
0.999801 1 1 0.999801
0.999811 1 1 0.999811
0.999796 1 1 0.999796
0.999824 1 1 0.999824
0.999794 1 1 0.999794
0.999826 1 1 0.999826
0.999835 1 1 0.999835
0.999815 1 1 0.999815
0.999852 1 1 0.999852
0.999878 1 1 0.999878
0.999845 1 1 0.999845
0.999893 1 1 0.999893
0.999873 1 1 0.999873
0.999865 1 1 0.999865
0.999854 1 1 0.999854
0.99988 1 1 0.99988
0.99993 1 1 0.99993
0.999877 1 1 0.999877
0.99993 1 1 0.99993
0.99999 1 1 0.99999
0.999933 1 1 0.999933
0.999991 1 1 0.999991
1 1 1 1
0.999992 1 1 0.999992
1 1 1 1
1 1 1 1
1 1 1 1
1 1 1 1
1 1 1 1
0.999941 1 1 0.999941
0.999992 1 1 0.999992
0.999957 1 1 0.999957
1 1 1 1
0.999997 1 1 0.999997
0.999959 1 1 0.999959
1 1 1 1
1 1 1 1
1 1 1 1
1 1 1 1
1 1 1 1
1 1 1 1
1.00092 1.00094 0.999986 0.999999
0.998675 1.00106 0.997634 0.999985
0.976253 0.979066 0.997441 0.999685
0.999885 1 1 0.999885
0.99984 0.999647 1.00019 1
1.00159 1.00293 0.998672 0.999996
0.994357 1.0008 0.993572 0.999988
0.993986 0.997577 0.99669 0.999709
0.977724 0.97263 1.0062 0.999041
0.973396 0.983322 0.989988 0.999916
0.989295 1.00491 0.984472 0.999987
0.994814 1.00733 0.987937 0.99963
0.980896 0.977325 1.00467 0.998987
0.976375 0.990938 0.985539 0.999761
0.99663 1.00568 0.99101 0.999986
0.979735 1.00167 0.978478 0.999615
0.984984 0.981744 1.00459 0.998712
0.988739 0.995751 0.993321 0.999634
0.999436 1.00235 0.997122 0.99997
0.999825 1 1 0.999825
0.999847 1 1 0.999847
0.999883 1 1 0.999883
0.999855 1 1 0.999855
0.999866 1 1 0.999866
0.999889 1 1 0.999889
0.999903 1 1 0.999903
0.999914 1 1 0.999914
0.986419 1.00386 0.982843 0.999782
1.00611 1 1.00638 0.999733
0.999825 1 1 0.999825
1.00371 1 1.004 0.999708
0.999928 1 1.00017 0.999761
0.999802 1 1 0.999802
0.999803 1 1 0.999803
0.988101 1.00917 0.979377 0.999739
0.999769 1 1 0.999769
1.00133 1 1.0016 0.999724
1.01709 1 1.01736 0.999728
0.999797 1 1 0.999797
1.00346 1.00288 1.0008 0.999776
1.01312 1 1.01338 0.999744
0.999748 1 1 0.999748
0.999772 1 1 0.999772
0.999153 0.999132 1.00002 1
1.00001 1.00002 0.99999 1
1.0002 1.00099 0.999215 0.999994
0.999813 1 1 0.999813
1.00767 0.999979 1.00793 0.999763
1.00014 1.00015 0.999995 0.999999
0.988516 0.982354 1.00733 0.998955
1.00123 1.00072 1.00089 0.999623
0.983767 0.995076 0.988936 0.999696
0.999134 0.999373 0.99976 1
1.00366 1.00414 0.999536 0.999988
0.999826 1 1 0.999826
0.999316 0.999113 1.0002 1
0.998659 0.997953 1.00071 1
0.999719 0.996643 1.00314 0.999951
0.99658 1.00542 0.991224 0.999987
0.988243 0.988559 1.00041 0.999272
0.984966 0.996511 0.988772 0.999638
1.00159 0.999151 1.0026 0.999849
0.999755 0.999518 1.00024 1
0.999911 0.999567 1.00034 1
0.987659 1.00439 0.983352 0.999989
0.98605 0.993048 0.993303 0.999648
0.995425 0.993582 1.00177 1.00009
0.981508 0.984869 0.997336 0.999249
1.00066 1 1.00089 0.999768
1.00234 1 1.00256 0.999779
1.01127 1 1.0115 0.999774
0.999816 1 1 0.999816
1.00014 1 1.00037 0.999769
1.0013 1 1.00154 0.999766
0.999784 1 1 0.999784
1.00021 1 1.00043 0.999777
1.00293 1 1.00316 0.999769
0.999802 1 1 0.999802
0.99981 1 1 0.99981
0.999973 1 1.00018 0.999794
1.0009 1 1.00113 0.999771
0.999834 1 1 0.999834
0.999798 1 1 0.999798
0.999779 1 1 0.999779
0.999816 1 1 0.999816
0.999836 1 1 0.999836
0.999813 1 1 0.999813
0.999865 1 1 0.999865
0.999878 1 1 0.999878
0.999855 1 1 0.999855
0.9999 1 1 0.9999
0.999878 1 1 0.999878
0.999845 1 1 0.999845
0.999934 1 1 0.999934
0.999891 1 1 0.999891
0.999871 1 1 0.999871
0.999882 1 1 0.999882
0.99993 1 1 0.99993
0.999989 1 1 0.999989
0.99993 1 1 0.99993
0.99999 1 1 0.99999
1 1 1 1
0.999991 1 1 0.999991
1 1 1 1
1 1 1 1
1 1 1 1
1 1 1 1
1 1 1 1
0.999932 1 1 0.999932
0.999988 1 1 0.999988
0.999945 1 1 0.999945
1 1 1 1
0.999992 1 1 0.999992
0.999957 1 1 0.999957
1 1 1 1
1 1 1 1
0.999994 1 1 0.999994
1 1 1 1
1 1 1 1
1 1 1 1
0.999482 0.999429 1.00005 1
1.00085 1.00082 1.00003 0.999999
0.99918 1.00136 0.997836 0.999983
0.999887 1 1 0.999887
0.999877 1 1 0.999877
0.999855 1 1 0.999855
0.99831 0.998011 1.0003 1
0.999564 0.999268 1.0003 1
1.00226 1.00286 0.999407 0.999996
0.998076 1.0113 0.987022 0.9999
0.979103 0.975322 1.00491 0.998976
0.976272 0.991592 0.984929 0.999616
1.0008 1.00673 0.994126 0.999987
0.978276 1.00021 0.978172 0.999892
0.989385 0.984059 1.0064 0.999014
0.992057 1.00201 0.990216 0.99985
1.00169 1.00336 0.998354 0.999978
0.978222 0.995813 0.982383 0.999952
0.986668 0.985399 1.0022 0.999089
0.988432 1.00271 0.985994 0.999766
0.997952 1.00474 0.99325 0.999991
0.999819 1 1 0.999819
0.999826 1 1 0.999826
0.999844 1 1 0.999844
0.999854 1 1 0.999854
0.999871 1 1 0.999871
0.999905 1 1 0.999905
0.988626 1.00785 0.981184 0.999735
1.01715 1 1.01743 0.999728
0.999803 1 1 0.999803
1.00204 1 1.00231 0.999724
0.999767 1 1 0.999767
0.999795 1 1 0.999795
0.99977 1 1 0.99977
1.00034 1.00385 0.996734 0.999768
0.999749 1 1 0.999749
1.01354 1 1.0138 0.999743
0.999767 1 1 0.999767
1.02032 1 1.02051 0.999818
1.0002 1 1.00044 0.999768
0.999746 1 1 0.999746
1.00002 1.00003 0.999986 1
0.999378 0.999364 1.00001 1
1.00022 1.00023 0.999993 1
0.999826 1 1 0.999826
0.999949 0.995815 1.00417 0.999983
0.999227 0.998991 1.00023 1
0.99227 0.991207 1.00149 0.999588
0.987359 1.00264 0.984924 0.999836
0.998903 0.99803 1.00087 1
1.00056 1.00657 0.994034 0.999988
1.00109 0.999539 1.0017 0.999855
0.999845 0.999705 1.00014 1
0.999575 0.999167 1.00041 1
0.996457 0.994121 1.00246 0.999888
0.986729 1.00438 0.982432 0.99999
0.989168 0.999356 0.989935 0.999869
0.978936 0.983646 0.995975 0.999234
1.00924 1 1.00932 0.99992
0.999407 0.999372 1.00003 1
1.00132 1.00326 0.998066 0.999996
0.983886 0.999762 0.98413 0.999989
0.977172 0.989373 0.987754 0.999913
0.992426 0.986443 1.00694 0.999127
0.983891 0.992173 0.991806 0.999845
1.00145 1 1.00167 0.999776
1.01203 1 1.01226 0.999775
1.0186 1 1.01884 0.999767
0.999784 1 1 0.999784
1.00033 1 1.00055 0.999777
1.00241 1 1.00264 0.999769
1.00901 1 1.00928 0.999733
1.00011 1 1.00032 0.999793
1.00134 1 1.00157 0.999767
1.00233 1 1.00259 0.999738
0.999802 1 1 0.999802
0.999822 1 1.00004 0.999777
0.999772 1 1 0.999772
0.999805 1 1 0.999805
0.999847 1 1 0.999847
0.999812 1 1 0.999812
0.999811 1 1 0.999811
0.999883 1 1 0.999883
0.999867 1 1 0.999867
0.999899 1 1 0.999899
0.999881 1 1 0.999881
0.999859 1 1 0.999859
0.999939 1 1 0.999939
0.9999 1 1 0.9999
0.999877 1 1 0.999877
0.999989 1 1 0.999989
0.999934 1 1 0.999934
0.999889 1 1 0.999889
0.99993 1 1 0.99993
0.999989 1 1 0.999989
1 1 1 1
0.99999 1 1 0.99999
1 1 1 1
1 1 1 1
1 1 1 1
1 1 1 1
1 1 1 1
0.999935 1 1 0.999935
0.999993 1 1 0.999993
0.999936 1 1 0.999936
1 1 1 1
0.999992 1 1 0.999992
0.999948 1 1 0.999948
1 1 1 1
1 1 1 1
0.999992 1 1 0.999992
1 1 1 1
1 1 1 1
1 1 1 1
0.999826 0.999561 1.00026 1
0.999413 0.999337 1.00007 1
1.00072 1.0007 1.00002 0.999999
0.999881 1 1 0.999881
0.999868 1 1 0.999868
0.999889 1 1 0.999889
0.999878 1 1 0.999878
0.999851 1 1 0.999851
0.999851 1 1 0.999851
0.999831 1 1 0.999831
0.999298 0.999894 0.999403 1
0.998652 0.998107 1.00054 1
0.999293 0.998882 1.00041 1
1.00399 1.0044 0.999603 0.999987
0.984184 1.00672 0.978012 0.999591
0.989725 0.983626 1.00693 0.999279
0.980418 0.999429 0.981377 0.999594
0.981417 0.995132 0.986433 0.999782
0.9907 0.989833 1.00177 0.999109
0.988445 0.999787 0.989061 0.99959
0.994588 1.00397 0.990669 0.999982
0.993351 0.993299 1.00009 0.999962
0.984213 0.989813 0.995212 0.999126
0.986207 1.00357 0.98285 0.999845
0.99168 1.00376 0.987972 0.99999
0.999806 1 1 0.999806
0.999818 1 1 0.999818
0.999826 1 1 0.999826
0.999854 1 1 0.999854
0.996311 1.00481 0.991784 0.99976
1.01426 1 1.01452 0.999743
0.999794 1 1 0.999794
0.999767 1 1 0.999767
0.99975 1 1 0.99975
0.999771 1 1 0.999771
0.999745 1 1 0.999745
1.01201 0.998775 1.01343 0.999824
1.00021 1 1.00044 0.999776
0.999743 1 1 0.999743
1.02512 0.99613 1.0292 0.999902
1.00353 1 1.00382 0.999705
0.999146 0.999138 1.00001 1
1.00007 1.0001 0.999976 1
0.999596 0.999596 0.999999 1
1.00083 1 1.00097 0.99986
0.996318 0.993296 1.00298 1.00007
0.999947 0.999895 1.00005 1
0.982251 0.98462 0.99838 0.999214
0.979697 0.997583 0.982453 0.999611
0.99926 0.998756 1.0005 1
0.989339 1.00445 0.984966 0.999989
1.00995 0.999857 1.01018 0.999911
0.999333 0.999282 1.00005 1
1.00201 1.0032 0.998822 0.999996
0.988031 0.994549 0.993371 1.00008
0.983271 0.999401 0.983869 0.999991
0.974586 0.987896 0.986759 0.999766
0.992503 0.985818 1.00757 0.99922
1.003 1 1.00308 0.999923
1.00112 1.00105 1.00007 0.999999
0.996581 1.00235 0.994248 0.999994
0.968092 0.979783 0.988154 0.999913
0.985056 0.979209 1.00698 0.999001
0.977721 0.997271 0.980699 0.999691
1.0129 1 1.01313 0.999776
1.01904 1 1.01927 0.999766
1.01929 1 1.01957 0.999732
1.00195 1 1.00218 0.999769
1.00921 1 1.00947 0.999738
1.00695 1 1.00726 0.9997
1.00191 1 1.00215 0.999762
1.00252 1 1.00279 0.999732
1.0015 1 1.00177 0.999731
0.999972 1 1.0002 0.999775
0.999818 1 1.00005 0.999768
0.999782 1 1 0.999782
0.999813 1 1 0.999813
0.999831 1 1 0.999831
0.999802 1 1 0.999802
0.999871 1 1 0.999871
0.99985 1 1 0.99985
0.999808 1 1 0.999808
0.999898 1 1 0.999898
0.999881 1 1 0.999881
0.99987 1 1 0.99987
0.999939 1 1 0.999939
0.999901 1 1 0.999901
0.999884 1 1 0.999884
0.999991 1 1 0.999991
0.999939 1 1 0.999939
0.999901 1 1 0.999901
1 1 1 1
0.99999 1 1 0.99999
0.999935 1 1 0.999935
0.999989 1 1 0.999989
1 1 1 1
1 1 1 1
1 1 1 1
1 1 1 1
1 1 1 1
0.999887 1 1 0.999887
0.999931 1 1 0.999931
0.999991 1 1 0.999991
0.999934 1 1 0.999934
1 1 1 1
0.999994 1 1 0.999994
0.999939 1 1 0.999939
1 1 1 1
1 1 1 1
0.999997 1 1 0.999997
1 1 1 1
1 1 1 1
1 1 1 1
0.999395 0.999305 1.00009 1
0.999894 0.999729 1.00016 1
0.999339 0.999247 1.00009 1
0.999883 1 1 0.999883
0.999866 1 1 0.999866
0.999868 1 1 0.999868
0.999858 1 1 0.999858
0.999856 1 1 0.999856
0.999878 1 1 0.999878
0.999847 1 1 0.999847
0.999851 1 1 0.999851
0.999832 1 1 0.999832
0.999834 1 1 0.999834
1.0011 1.00174 0.999366 0.999995
0.999124 0.999653 0.99947 1
0.998947 0.998177 1.00077 1
0.995676 1.00308 0.992641 0.999979
0.987258 1.00396 0.983559 0.999798
0.986574 0.995333 0.991553 0.999644
0.985631 0.98543 1.00104 0.999165
0.997422 0.992298 1.00544 0.999727
0.978413 0.986577 0.992583 0.999135
0.990546 1.00043 0.990377 0.999742
0.989006 1.00431 0.984766 0.999991
1.01922 0.989403 1.03038 0.999762
0.989667 0.987307 1.00326 0.999137
0.977017 0.992383 0.984891 0.999619
0.984067 1.00111 0.982987 0.999992
0.999824 1 1 0.999824
0.999809 1 1 0.999809
0.999817 1 1 0.999817
1.00457 0.997529 1.00723 0.999831
1.00019 1 1.00041 0.999783
0.999776 1 1 0.999776
0.999744 1 1 0.999744
0.999778 1 1.00003 0.999745
1.00404 1 1.00434 0.999704
1.02491 0.997273 1.02781 0.999901
1.0036 1 1.00388 0.999725
1.01268 0.999036 1.01386 0.999799
0.999838 0.999837 1 1
0.999375 0.999371 1 1
1.00014 1.00017 0.999973 1
1.01054 0.999638 1.01101 0.999902
0.99095 0.994128 0.996967 0.999835
0.999257 0.999192 1.00006 1
0.985756 0.9825 1.0044 0.998914
0.976107 0.989358 0.986984 0.999619
1.0027 1.00313 0.999571 0.999995
0.983175 0.999237 0.983932 0.999994
1.00399 1 1.00406 0.999924
1.00098 1.00091 1.00007 0.999999
0.995791 1.00141 0.994395 0.999994
0.974105 0.994499 0.979636 0.999854
0.970596 0.981666 0.989084 0.999636
0.988188 0.981411 1.00811 0.998807
0.98504 1.00028 0.984914 0.999846
1.00052 1.00159 0.998936 0.999993
0.97244 0.979457 0.993186 0.999648
0.977612 0.974294 1.00448 0.998934
0.972682 1.00072 0.972095 0.999888
1.01912 1 1.01936 0.999764
1.02045 1 1.02072 0.999732
1.01157 1 1.01187 0.999705
1.00922 1 1.00948 0.999742
1.00663 1 1.00693 0.999703
1.00184 1 1.00212 0.999722
1.00252 1 1.00279 0.999726
1.00102 1 1.00129 0.999733
0.999792 1 1 0.999792
0.999787 1 1.00002 0.999764
0.999784 1 1 0.999784
0.999829 1 1 0.999829
0.999842 1 1 0.999842
0.999825 1 1 0.999825
0.999815 1 1 0.999815
0.999856 1 1 0.999856
0.999827 1 1 0.999827
0.9998 1 1 0.9998
0.999897 1 1 0.999897
0.999875 1 1 0.999875
0.999853 1 1 0.999853
0.999934 1 1 0.999934
0.999897 1 1 0.999897
0.999879 1 1 0.999879
0.999991 1 1 0.999991
0.999939 1 1 0.999939
0.999903 1 1 0.999903
1 1 1 1
0.999991 1 1 0.999991
0.999939 1 1 0.999939
1 1 1 1
1 1 1 1
0.99999 1 1 0.99999
1 1 1 1
1 1 1 1
1 1 1 1
0.999886 1 1 0.999886
0.999929 1 1 0.999929
0.999885 1 1 0.999885
0.999989 1 1 0.999989
0.999931 1 1 0.999931
1 1 1 1
0.999992 1 1 0.999992
0.999934 1 1 0.999934
1 1 1 1
1 1 1 1
0.999995 1 1 0.999995
1 1 1 1
1 1 1 1
1 1 1 1
0.99995 0.999951 1 0.999999
0.999313 0.999187 1.00013 1
0.999977 0.999898 1.00008 1
0.999874 1 1 0.999874
0.999885 1 1 0.999885
0.999864 1 1 0.999864
0.999861 1 1 0.999861
0.999871 1 1 0.999871
0.999856 1 1 0.999856
0.999854 1 1 0.999854
0.999846 1 1 0.999846
0.999851 1 1 0.999851
0.999833 1 1 0.999833
0.999834 1 1 0.999834
0.999834 1 1 0.999834
0.995429 1.00137 0.994078 0.999991
1.00173 1.00249 0.999248 0.999995
0.998949 0.999419 0.999528 1
0.990875 1.00521 0.985753 0.999986
0.988105 0.998887 0.989569 0.999634
0.982486 0.988207 0.995078 0.999128
1.00056 0.990087 1.01057 1
1.02208 0.990118 1.03227 1.00001
0.985335 0.999953 0.985387 0.999993
0.990144 0.990141 1.00101 0.998992
0.977279 0.990175 0.987071 0.999905
1.00856 0.995314 1.01336 0.99995
0.989574 0.983909 1.00673 0.999034
0.970451 0.980322 0.99 0.99993
1.00022 1 1.00037 0.999847
0.999825 1 1 0.999825
0.999812 1 1 0.999812
1.02478 0.998563 1.02636 0.9999
1.00469 1 1.00499 0.999703
0.999797 1 1.00005 0.999746
1.00387 1 1.00415 0.999728
1.01168 0.999584 1.01231 0.9998
1.00419 1 1.00437 0.99982
0.999056 1.00154 0.99754 0.999982
0.999631 0.99963 1 1
0.999598 0.999603 0.999994 1
1.00484 1 1.00491 0.999927
0.973564 0.996137 0.97738 0.999959
1.0008 1.00077 1.00004 0.999999
0.992125 0.982628 1.01036 0.999312
0.972284 0.982222 0.989965 0.999915
0.99443 1.00115 0.993299 0.999987
0.983479 1.00103 0.982611 0.999851
0.998639 1.00128 0.997382 0.999984
0.973105 0.979106 0.993953 0.999917
0.973491 1.00139 0.972533 0.999593
0.980881 0.977305 1.00469 0.998974
0.977515 1.00817 0.969851 0.999733
0.975417 0.97995 0.995466 0.999908
0.976416 0.97479 1.00259 0.99908
0.977493 1.00538 0.97265 0.999605
1.02211 1 1.02239 0.999733
1.01121 1 1.01151 0.999701
1.00281 1 1.00305 0.999756
1.00648 1 1.00678 0.999706
1.00171 1 1.00199 0.999724
0.99984 1 1 0.99984
1.00062 1 1.00088 0.999735
0.999796 1 1 0.999796
0.99988 1 1 0.99988
0.999787 1 1 0.999787
0.999831 1 1 0.999831
0.999879 1 1 0.999879
0.999874 1 1 0.999874
0.999842 1 1 0.999842
0.999844 1 1 0.999844
0.999846 1 1 0.999846
0.999828 1 1 0.999828
0.999816 1 1 0.999816
0.999888 1 1 0.999888
0.999856 1 1 0.999856
0.999822 1 1 0.999822
0.99993 1 1 0.99993
0.999897 1 1 0.999897
0.999878 1 1 0.999878
0.999989 1 1 0.999989
0.999934 1 1 0.999934
0.999897 1 1 0.999897
1 1 1 1
0.999991 1 1 0.999991
0.999939 1 1 0.999939
1 1 1 1
1 1 1 1
0.999991 1 1 0.999991
1 1 1 1
1 1 1 1
1 1 1 1
0.999894 1 1 0.999894
0.999888 1 1 0.999888
0.999928 1 1 0.999928
0.999987 1 1 0.999987
0.999929 1 1 0.999929
0.999884 1 1 0.999884
1 1 1 1
0.999989 1 1 0.999989
0.999931 1 1 0.999931
1 1 1 1
1 1 1 1
0.999992 1 1 0.999992
1 1 1 1
1 1 1 1
1 1 1 1
1.00042 1.002 0.998432 0.999994
0.999958 0.999959 1 1
0.999223 0.999072 1.00015 1
0.999872 1 1 0.999872
0.999877 1 1 0.999877
0.999862 1 1 0.999862
0.999864 1 1 0.999864
0.999873 1 1 0.999873
0.999857 1 1 0.999857
0.999847 1 1 0.999847
0.999855 1 1 0.999855
0.999843 1 1 0.999843
0.999845 1 1 0.999845
0.999834 1 1 0.999834
0.999833 1 1 0.999833
0.975169 0.979276 0.995881 0.999925
0.995524 1.001 0.994535 0.999995
1.00241 1.00325 0.999163 0.999994
0.986984 0.999024 0.987954 0.999994
0.972323 0.988663 0.983829 0.999637
0.99463 0.992134 1.00318 0.999334
1.02603 0.990483 1.03614 0.999757
1.00946 0.995338 1.0145 0.999692
0.970829 0.981518 0.989439 0.999667
0.992514 0.986994 1.0064 0.999194
1.00231 0.996322 1.00637 0.999641
0.98298 0.979855 1.00413 0.999066
1.00327 1 1.00345 0.999824
1.0001 1 1.00025 0.999848
0.999825 1 1 0.999825
1.0105 1 1.0107 0.999801
1.00414 1 1.00441 0.999732
1.00353 1 1.00371 0.999827
0.999714 1 0.999901 0.999813
0.974514 0.981479 0.993015 0.999888
0.999776 1.00134 0.998454 0.999988
0.999447 0.999446 1 1
0.981255 1.00122 0.980202 0.999855
0.972623 1.00006 0.972638 0.999927
0.99889 1.00149 0.99742 0.999982
0.978774 0.975186 1.00472 0.998963
0.972288 0.979106 0.993376 0.999659
0.977236 1.00739 0.970316 0.999744
0.974563 0.979215 0.995463 0.999784
0.976654 0.97337 1.00435 0.999028
0.975718 1.00456 0.971388 0.999894
0.977637 1.01242 0.96592 0.999716
0.968121 0.968939 1.00026 0.998898
0.991546 1.00274 0.988919 0.999913
1.01091 1 1.01122 0.999697
1.00254 1 1.00279 0.999754
0.99935 1 0.999472 0.999878
1.00154 1 1.00181 0.999727
0.99978 1 0.999937 0.999842
0.999753 1 0.999797 0.999956
0.999801 1 1 0.999801
0.999881 1 1 0.999881
0.999931 1 1 0.999931
0.999832 1 1 0.999832
0.999879 1 1 0.999879
0.9999 1 1 0.9999
0.999885 1 1 0.999885
0.999877 1 1 0.999877
0.999868 1 1 0.999868
0.999853 1 1 0.999853
0.999842 1 1 0.999842
0.999847 1 1 0.999847
0.999872 1 1 0.999872
0.999849 1 1 0.999849
0.999831 1 1 0.999831
0.999923 1 1 0.999923
0.999888 1 1 0.999888
0.999855 1 1 0.999855
0.999986 1 1 0.999986
0.99993 1 1 0.99993
0.999896 1 1 0.999896
1 1 1 1
0.999989 1 1 0.999989
0.999934 1 1 0.999934
1 1 1 1
1 1 1 1
0.999991 1 1 0.999991
1 1 1 1
1 1 1 1
1 1 1 1
0.999894 1 1 0.999894
0.999891 1 1 0.999891
0.999927 1 1 0.999927
0.999889 1 1 0.999889
0.999928 1 1 0.999928
0.999986 1 1 0.999986
1 1 1 1
0.999987 1 1 0.999987
0.999929 1 1 0.999929
1 1 1 1
1 1 1 1
0.99999 1 1 0.99999
1 1 1 1
1 1 1 1
1 1 1 1
0.97778 0.980755 0.997277 0.999688
0.999678 1.00199 0.997702 0.999991
0.999926 0.999927 1 1
0.99987 1 1 0.99987
0.999862 1 1 0.999862
0.999878 1 1 0.999878
0.999878 1 1 0.999878
0.999863 1 1 0.999863
0.999849 1 1 0.999849
0.999857 1 1 0.999857
0.999843 1 1 0.999843
0.999856 1 1 0.999856
0.999838 1 1 0.999838
0.999893 1 1.00005 0.999841
0.999841 1 1 0.999841
0.999833 1 1 0.999833
0.977271 0.977547 1.00086 0.998855
0.976456 0.980808 0.99576 0.999803
0.994884 1.00107 0.993829 0.999991
0.970854 0.981584 0.989138 0.999931
0.988907 0.983541 1.00673 0.998734
1.0119 0.996212 1.0158 0.999951
1.00299 0.996835 1.0064 0.999782
0.982515 0.979684 1.00381 0.999084
0.998184 0.997747 1.00072 0.999715
1.00168 1 1.00196 0.99972
1.00315 1 1.00333 0.999819
0.999849 1 1 0.999849
1.00304 1 1.0032 0.999835
0.999158 1 0.999283 0.999875
0.96473 0.967571 0.997893 0.999169
0.975851 0.980944 0.995122 0.999684
1.00028 1.0011 0.999187 0.999994
0.976986 1.00691 0.970524 0.999755
0.979826 1.00989 0.970625 0.99959
0.976481 0.979727 0.997005 0.99968
0.977912 0.972609 1.00642 0.999035
0.9774 1.01097 0.967073 0.99971
0.970999 0.970383 1.00149 0.999142
0.988114 1.00477 0.983784 0.999631
0.974908 1.00903 0.966381 0.999794
0.999191 0.993779 1.00554 0.999905
1.00205 1 1.00229 0.999753
0.998134 1 0.998256 0.999878
0.99715 1 0.997184 0.999965
0.999605 1 0.999761 0.999844
0.99952 1 0.999564 0.999955
0.999572 1 0.999602 0.999971
0.999882 1 1 0.999882
0.999928 1 1 0.999928
0.99992 1 1 0.99992
0.999878 1 1 0.999878
0.999898 1 1 0.999898
0.999889 1 1 0.999889
0.999888 1 1 0.999888
0.999874 1 1 0.999874
0.999879 1 1 0.999879
0.999867 1 1 0.999867
0.999863 1 1 0.999863
0.999866 1 1 0.999866
0.999852 1 1 0.999852
0.999843 1 1 0.999843
0.999912 1 1 0.999912
0.999874 1 1 0.999874
0.999853 1 1 0.999853
0.99998 1 1 0.99998
0.999923 1 1 0.999923
0.999888 1 1 0.999888
1 1 1 1
0.999985 1 1 0.999985
0.99993 1 1 0.99993
1 1 1 1
1 1 1 1
0.999988 1 1 0.999988
1 1 1 1
1 1 1 1
1 1 1 1
0.999889 1 1 0.999889
0.999894 1 1 0.999894
0.999921 1 1 0.999921
0.999887 1 1 0.999887
0.999925 1 1 0.999925
0.999984 1 1 0.999984
0.999928 1 1 0.999928
0.999986 1 1 0.999986
1 1 1 1
1 1 1 1
1 1 1 1
0.999987 1 1 0.999987
1 1 1 1
1 1 1 1
1 1 1 1
0.971116 0.971621 1.00031 0.999172
0.977037 0.982361 0.994678 0.999901
1.0009 1.00258 0.998332 0.999994
0.999862 1 1 0.999862
0.999879 1 1 0.999879
0.999864 1 1 0.999864
0.999879 1 1 0.999879
0.999875 1 1 0.999875
0.999867 1 1 0.999867
0.999843 1 1 0.999843
0.999855 1 1 0.999855
0.99984 1 1 0.99984
0.999854 1 1 0.999854
0.999842 1 1 0.999842
0.999743 1 1 0.999743
0.999838 1 1 0.999838
0.999837 1 1 0.999837
0.990446 0.99293 0.997549 0.999949
0.973675 0.974445 1.0001 0.999113
0.973639 0.979538 0.994303 0.999674
0.981389 0.978714 1.00371 0.999027
1.00326 0.996851 1.00649 0.999939
0.997991 0.996976 1.0011 0.999916
0.999979 1.00153 0.998765 0.99969
1.0023 1 1.00257 0.999729
1.00292 1 1.00311 0.999814
0.99761 1 0.997672 0.999938
0.990301 0.988191 1.00245 0.999689
0.968306 0.968734 1.00035 0.999206
0.97592 0.981479 0.994434 0.999902
0.977162 1.00933 0.968412 0.999705
0.990665 1.00845 0.982456 0.999906
0.971918 0.969894 1.00269 0.999397
0.977176 1.00629 0.971272 0.999791
0.994838 0.994815 1.00021 0.999814
0.983409 1.00192 0.981635 0.999883
1.00226 1 1.00249 0.999776
0.996944 1 0.997066 0.999878
0.996746 1 0.996781 0.999965
0.997623 1 0.997681 0.999943
0.999439 1 0.999484 0.999954
0.999671 1 0.999703 0.999968
0.999913 1 1 0.999913
0.999925 1 1 0.999925
0.999918 1 1 0.999918
0.999878 1 1 0.999878
0.999896 1 1 0.999896
0.99989 1 1 0.99989
0.999866 1 1 0.999866
0.999891 1 1 0.999891
0.999876 1 1 0.999876
0.999864 1 1 0.999864
0.999867 1 1 0.999867
0.999863 1 1 0.999863
0.999872 1 1 0.999872
0.999897 1 1 0.999897
0.999869 1 1 0.999869
0.999851 1 1 0.999851
0.999971 1 1 0.999971
0.999912 1 1 0.999912
0.999877 1 1 0.999877
1 1 1 1
0.99998 1 1 0.99998
0.999923 1 1 0.999923
1 1 1 1
1 1 1 1
0.999985 1 1 0.999985
1 1 1 1
1 1 1 1
1 1 1 1
0.999888 1 1 0.999888
0.999892 1 1 0.999892
0.999918 1 1 0.999918
0.999894 1 1 0.999894
0.99992 1 1 0.99992
0.999982 1 1 0.999982
0.999922 1 1 0.999922
0.999984 1 1 0.999984
1 1 1 1
0.999986 1 1 0.999986
1 1 1 1
1 1 1 1
1 1 1 1
1 1 1 1
1 1 1 1
0.985961 0.98741 0.998582 0.99995
0.967196 0.969088 0.998896 0.999151
0.975332 0.981821 0.99371 0.999678
0.999868 1 1 0.999868
0.999865 1 1 0.999865
0.999879 1 1 0.999879
0.999867 1 1 0.999867
0.999875 1 1 0.999875
0.999874 1 1 0.999874
0.999855 1 1 0.999855
0.999841 1 1 0.999841
0.999855 1 1 0.999855
0.999851 1 1 0.999851
0.999798 1 1 0.999798
0.999659 1 1 0.999659
0.999778 1 1.00003 0.999752
0.999836 1 1 0.999836
0.997543 1.00007 0.99777 0.999705
0.991359 0.994614 0.996917 0.99981
0.975157 0.975075 1.00072 0.999367
0.998736 0.998233 1.00085 0.999654
1.00073 1.00155 0.999554 0.999627
1.00356 1 1.00382 0.999738
0.99994 1 1.00002 0.99992
0.991378 0.987506 1.00397 0.999946
0.965885 0.968703 0.997922 0.999168
0.979253 1.00332 0.976221 0.999787
0.991246 0.995277 0.996243 0.999705
0.986805 1.00075 0.986193 0.999873
1.00121 1 1.00141 0.999806
0.999416 1 0.999596 0.99982
0.999788 1 1 0.999788
0.996325 1 0.99636 0.999965
0.998458 1 0.998516 0.999941
0.999867 1 1 0.999867
0.999732 1 0.999766 0.999965
0.999911 1 1 0.999911
0.999856 1 1 0.999856
0.999915 1 1 0.999915
0.999881 1 1 0.999881
0.999844 1 1 0.999844
0.999891 1 1 0.999891
0.999866 1 1 0.999866
0.999854 1 1 0.999854
0.999878 1 1 0.999878
0.999865 1 1 0.999865
0.999866 1 1 0.999866
0.999862 1 1 0.999862
0.99987 1 1 0.99987
0.999894 1 1 0.999894
0.99996 1 1 0.99996
0.9999 1 1 0.9999
0.999871 1 1 0.999871
1 1 1 1
0.999971 1 1 0.999971
0.999912 1 1 0.999912
1 1 1 1
1 1 1 1
0.999979 1 1 0.999979
1 1 1 1
1 1 1 1
1 1 1 1
0.999881 1 1 0.999881
0.999888 1 1 0.999888
0.999917 1 1 0.999917
0.999895 1 1 0.999895
0.99992 1 1 0.99992
0.999979 1 1 0.999979
0.99992 1 1 0.99992
0.999982 1 1 0.999982
1 1 1 1
0.999984 1 1 0.999984
1 1 1 1
1 1 1 1
1 1 1 1
1 1 1 1
1 1 1 1
0.9981 1 0.998211 0.999888
0.986439 0.988707 0.998008 0.999698
0.968814 0.969923 0.999659 0.999197
0.999869 1 1 0.999869
0.999847 1 1 0.999847
0.999869 1 1 0.999869
0.999867 1 1 0.999867
0.999874 1 1 0.999874
0.999873 1 1 0.999873
0.999811 1 1 0.999811
0.999857 1 1 0.999857
0.99986 1 1 0.99986
0.999796 1 1 0.999796
0.999707 1 1 0.999707
0.999775 1 1 0.999775
0.999668 1 1 0.999668
0.99976 1 1 0.99976
0.998635 1.00082 0.998105 0.999712
0.990394 0.994257 0.996435 0.999679
1.00096 1.0014 1 0.999564
0.999926 1 1 0.999926
1.00108 1 1.00116 0.999923
0.989678 0.987031 1.00298 0.999703
0.990656 1 0.990793 0.999862
1.00018 1 1.00034 0.999836
0.999017 1 0.999191 0.999826
0.999803 1 1 0.999803
0.999805 1 1 0.999805
0.999883 1 1 0.999883
0.999284 1 0.999344 0.99994
0.999869 1 1 0.999869
0.999819 1 1 0.999819
0.99991 1 1 0.99991
0.999856 1 1 0.999856
0.999824 1 1 0.999824
0.999884 1 1 0.999884
0.999844 1 1 0.999844
0.999834 1 1 0.999834
0.999866 1 1 0.999866
0.999854 1 1 0.999854
0.999856 1 1 0.999856
0.999865 1 1 0.999865
0.999866 1 1 0.999866
0.999887 1 1 0.999887
0.999868 1 1 0.999868
0.999892 1 1 0.999892
0.99995 1 1 0.99995
1 1 1 1
0.99996 1 1 0.99996
0.999903 1 1 0.999903
1 1 1 1
1 1 1 1
0.99997 1 1 0.99997
1 1 1 1
1 1 1 1
1 1 1 1
0.999863 1 1 0.999863
0.999878 1 1 0.999878
0.99991 1 1 0.99991
0.999888 1 1 0.999888
0.999917 1 1 0.999917
0.999974 1 1 0.999974
0.999921 1 1 0.999921
0.999979 1 1 0.999979
1 1 1 1
0.999982 1 1 0.999982
1 1 1 1
1 1 1 1
1 1 1 1
1 1 1 1
1 1 1 1
0.999912 1 1 0.999912
0.998221 1 0.998327 0.999894
0.985702 0.987399 0.998319 0.999962
0.999831 1 1 0.999831
0.999877 1 1 0.999877
0.999809 1 1 0.999809
0.999846 1 1 0.999846
0.999869 1 1 0.999869
0.999748 1 1 0.999748
0.999871 1 1 0.999871
0.999812 1 1 0.999812
0.999756 1 1 0.999756
0.999794 1 1 0.999794
0.999696 1 1 0.999696
0.999771 1 1 0.999771
0.999677 1 1 0.999677
0.999575 1.00148 0.998376 0.99972
0.999938 1 1 0.999938
0.999925 1 1 0.999925
1.00217 1 1.00224 0.999926
0.998745 1 0.998911 0.999833
0.999818 1 1 0.999818
0.999801 1 1 0.999801
0.999885 1 1 0.999885
0.999865 1 1 0.999865
0.999872 1 1 0.999872
0.999822 1 1 0.999822
0.999818 1 1 0.999818
0.999856 1 1 0.999856
0.999822 1 1 0.999822
0.999818 1 1 0.999818
0.999844 1 1 0.999844
0.999834 1 1 0.999834
0.99984 1 1 0.99984
0.999854 1 1 0.999854
0.999856 1 1 0.999856
0.999876 1 1 0.999876
0.999866 1 1 0.999866
0.999887 1 1 0.999887
0.999941 1 1 0.999941
0.999891 1 1 0.999891
0.99995 1 1 0.99995
1 1 1 1
1 1 1 1
1 1 1 1
0.99996 1 1 0.99996
1 1 1 1
1 1 1 1
1 1 1 1
0.999815 1 1 0.999815
0.999844 1 1 0.999844
0.99986 1 1 0.99986
0.999901 1 1 0.999901
0.999876 1 1 0.999876
0.99991 1 1 0.99991
0.999968 1 1 0.999968
0.999917 1 1 0.999917
0.999974 1 1 0.999974
1 1 1 1
0.999979 1 1 0.999979
1 1 1 1
1 1 1 1
1 1 1 1
1 1 1 1
1 1 1 1
0.999874 1 1 0.999874
0.999906 1 1 0.999906
0.998581 1.00023 0.998452 0.999899
0.999775 1 1 0.999775
0.999841 1 1 0.999841
0.999884 1 1 0.999884
0.999813 1 1 0.999813
0.999844 1 1 0.999844
0.999746 1 1 0.999746
0.999743 1 1 0.999743
0.999814 1 1 0.999814
0.999752 1 1 0.999752
0.999685 1 1 0.999685
0.999766 1 1 0.999766
0.999924 1 1 0.999924
0.999936 1 1 0.999936
0.999923 1 1 0.999923
0.999798 1 1 0.999798
0.999887 1 1 0.999887
0.999864 1 1 0.999864
0.999862 1 1 0.999862
0.999825 1 1 0.999825
0.999815 1 1 0.999815
0.999827 1 1 0.999827
0.99982 1 1 0.99982
0.999817 1 1 0.999817
0.999825 1 1 0.999825
0.999833 1 1 0.999833
0.999839 1 1 0.999839
0.999862 1 1 0.999862
0.999856 1 1 0.999856
0.999876 1 1 0.999876
0.99993 1 1 0.99993
0.999888 1 1 0.999888
0.999941 1 1 0.999941
1 1 1 1
0.99995 1 1 0.99995
1 1 1 1
1 1 1 1
1 1 1 1
1 1 1 1
1 1 1 1
0.999783 1 1 0.999783
0.99984 1 1 0.99984
0.999828 1 1 0.999828
0.999885 1 1 0.999885
0.999844 1 1 0.999844
0.999858 1 1 0.999858
0.999901 1 1 0.999901
0.99996 1 1 0.99996
0.99991 1 1 0.99991
0.999968 1 1 0.999968
1 1 1 1
0.999974 1 1 0.999974
1 1 1 1
1 1 1 1
1 1 1 1
1 1 1 1
1 1 1 1
0.999842 1 1 0.999842
0.999875 1 1 0.999875
0.9999 1 1 0.9999
0.999762 1 1 0.999762
0.999775 1 1 0.999775
0.99985 1 1 0.99985
0.999818 1 1 0.999818
0.999746 1 1 0.999746
0.999739 1 1 0.999739
0.999749 1 1 0.999749
0.999899 1 1 0.999899
0.999914 1 1 0.999914
0.999933 1 1 0.999933
0.999865 1 1 0.999865
0.999863 1 1 0.999863
0.999861 1 1 0.999861
0.999852 1 1 0.999852
0.999812 1 1 0.999812
0.999827 1 1 0.999827
0.999827 1 1 0.999827
0.999817 1 1 0.999817
0.999825 1 1 0.999825
0.999849 1 1 0.999849
0.999839 1 1 0.999839
0.999862 1 1 0.999862
0.999916 1 1 0.999916
0.999876 1 1 0.999876
0.99993 1 1 0.99993
0.999998 1 1 0.999998
0.999941 1 1 0.999941
0.999999 1 1 0.999999
1 1 1 1
1 1 1 1
1 1 1 1
1 1 1 1
0.999769 1 1 0.999769
0.999805 1 1 0.999805
0.999789 1 1 0.999789
0.999873 1 1 0.999873
0.999838 1 1 0.999838
0.999841 1 1 0.999841
0.999946 1 1 0.999946
0.999885 1 1 0.999885
0.999845 1 1 0.999845
0.999901 1 1 0.999901
0.999961 1 1 0.999961
1 1 1 1
0.999969 1 1 0.999969
1 1 1 1
1 1 1 1
1 1 1 1
1 1 1 1
1 1 1 1
0.999828 1 1 0.999828
0.999835 1 1 0.999835
0.999876 1 1 0.999876
0.999756 1 1 0.999756
0.999775 1 1 0.999775
0.999747 1 1 0.999747
0.999868 1 1 0.999868
0.999902 1 1 0.999902
0.999904 1 1 0.999904
0.999861 1 1 0.999861
0.999853 1 1 0.999853
0.999861 1 1 0.999861
0.999852 1 1 0.999852
0.999848 1 1 0.999848
0.999828 1 1 0.999828
0.999828 1 1 0.999828
0.999845 1 1 0.999845
0.999825 1 1 0.999825
0.999849 1 1 0.999849
0.999903 1 1 0.999903
0.999861 1 1 0.999861
0.999916 1 1 0.999916
0.999996 1 1 0.999996
0.99993 1 1 0.99993
0.999998 1 1 0.999998
1 1 1 1
0.999999 1 1 0.999999
1 1 1 1
1 1 1 1
0.999823 1 1 0.999823
0.999783 1 1 0.999783
0.999767 1 1 0.999767
0.999843 1 1 0.999843
0.999808 1 1 0.999808
0.999794 1 1 0.999794
0.999928 1 1 0.999928
0.999867 1 1 0.999867
0.999837 1 1 0.999837
0.999999 1 1 0.999999
0.999946 1 1 0.999946
0.999884 1 1 0.999884
0.999961 1 1 0.999961
1 1 1 1
1 1 1 1
1 1 1 1
1 1 1 1
1 1 1 1
0.999821 1 1 0.999821
0.999825 1 1 0.999825
0.999828 1 1 0.999828
0.999749 1 1 0.999749
0.999847 1 1 0.999847
0.999871 1 1 0.999871
0.999905 1 1 0.999905
0.999858 1 1 0.999858
0.999854 1 1 0.999854
0.999859 1 1 0.999859
0.999852 1 1 0.999852
0.999847 1 1 0.999847
0.999854 1 1 0.999854
0.999829 1 1 0.999829
0.999846 1 1 0.999846
0.999897 1 1 0.999897
0.999848 1 1 0.999848
0.999903 1 1 0.999903
0.999993 1 1 0.999993
0.999916 1 1 0.999916
0.999995 1 1 0.999995
1 1 1 1
0.999997 1 1 0.999997
1 1 1 1
1 1 1 1
0.999824 1 1 0.999824
0.999815 1 1 0.999815
0.999822 1 1 0.999822
0.999815 1 1 0.999815
0.999789 1 1 0.999789
0.999765 1 1 0.999765
0.999897 1 1 0.999897
0.999843 1 1 0.999843
0.999811 1 1 0.999811
0.999995 1 1 0.999995
0.999922 1 1 0.999922
0.99986 1 1 0.99986
1 1 1 1
0.999999 1 1 0.999999
0.999947 1 1 0.999947
1 1 1 1
1 1 1 1
1 1 1 1
0.999829 1 1 0.999829
0.999828 1 1 0.999828
0.999822 1 1 0.999822
0.999855 1 1 0.999855
0.999847 1 1 0.999847
0.999874 1 1 0.999874
0.999856 1 1 0.999856
0.999859 1 1 0.999859
0.999874 1 1 0.999874
0.999847 1 1 0.999847
0.999857 1 1 0.999857
0.999894 1 1 0.999894
0.999846 1 1 0.999846
0.999897 1 1 0.999897
0.99999 1 1 0.99999
0.999903 1 1 0.999903
0.999992 1 1 0.999992
1 1 1 1
0.999994 1 1 0.999994
1 1 1 1
1 1 1 1
0.999824 1 1 0.999824
0.999831 1 1 0.999831
0.999823 1 1 0.999823
0.999829 1 1 0.999829
0.999816 1 1 0.999816
0.999821 1 1 0.999821
0.999877 1 1 0.999877
0.999821 1 1 0.999821
0.999795 1 1 0.999795
0.99999 1 1 0.99999
0.999894 1 1 0.999894
0.999843 1 1 0.999843
1 1 1 1
0.999997 1 1 0.999997
0.999917 1 1 0.999917
1 1 1 1
1 1 1 1
1 1 1 1
0.999842 1 1 0.999842
0.99983 1 1 0.99983
0.999836 1 1 0.999836
0.99987 1 1 0.99987
0.999854 1 1 0.999854
0.999847 1 1 0.999847
0.99986 1 1 0.99986
0.999874 1 1 0.999874
0.999903 1 1 0.999903
0.99986 1 1 0.99986
0.999897 1 1 0.999897
0.999988 1 1 0.999988
0.999898 1 1 0.999898
0.999989 1 1 0.999989
1 1 1 1
0.999991 1 1 0.999991
1 1 1 1
1 1 1 1
0.999837 1 1 0.999837
0.99982 1 1 0.99982
0.999844 1 1 0.999844
0.999832 1 1 0.999832
0.999822 1 1 0.999822
0.999883 1 1 0.999883
0.999828 1 1 0.999828
0.999818 1 1 0.999818
0.999986 1 1 0.999986
0.999879 1 1 0.999879
0.999827 1 1 0.999827
1 1 1 1
0.999992 1 1 0.999992
0.999891 1 1 0.999891
1 1 1 1
0.999998 1 1 0.999998
1 1 1 1
0.999861 1 1 0.999861
0.999842 1 1 0.999842
0.99983 1 1 0.99983
0.9999 1 1 0.9999
0.99987 1 1 0.99987
0.999853 1 1 0.999853
0.999874 1 1 0.999874
0.999902 1 1 0.999902
0.999987 1 1 0.999987
0.999899 1 1 0.999899
0.999988 1 1 0.999988
1 1 1 1
0.999989 1 1 0.999989
1 1 1 1
1 1 1 1
0.999853 1 1 0.999853
0.999834 1 1 0.999834
0.999816 1 1 0.999816
0.999891 1 1 0.999891
0.999845 1 1 0.999845
0.999833 1 1 0.999833
0.999986 1 1 0.999986
0.999882 1 1 0.999882
0.999827 1 1 0.999827
1 1 1 1
0.999987 1 1 0.999987
0.999882 1 1 0.999882
1 1 1 1
0.999993 1 1 0.999993
1 1 1 1
0.999902 1 1 0.999902
0.999859 1 1 0.999859
0.999842 1 1 0.999842
0.999986 1 1 0.999986
0.999901 1 1 0.999901
0.99987 1 1 0.99987
0.999902 1 1 0.999902
0.999987 1 1 0.999987
1 1 1 1
0.999987 1 1 0.999987
1 1 1 1
1 1 1 1
0.999898 1 1 0.999898
0.999852 1 1 0.999852
0.999832 1 1 0.999832
0.999987 1 1 0.999987
0.999891 1 1 0.999891
0.999845 1 1 0.999845
1 1 1 1
0.999985 1 1 0.999985
0.999882 1 1 0.999882
1 1 1 1
0.999989 1 1 0.999989
1 1 1 1
0.999985 1 1 0.999985
0.999899 1 1 0.999899
0.999857 1 1 0.999857
1 1 1 1
0.999986 1 1 0.999986
0.999901 1 1 0.999901
0.999987 1 1 0.999987
1 1 1 1
1 1 1 1
0.999986 1 1 0.999986
0.999898 1 1 0.999898
0.999851 1 1 0.999851
1 1 1 1
0.999986 1 1 0.999986
0.99989 1 1 0.99989
1 1 1 1
0.999985 1 1 0.999985
1 1 1 1
1 1 1 1
0.999985 1 1 0.999985
0.999896 1 1 0.999896
1 1 1 1
0.999985 1 1 0.999985
1 1 1 1
1 1 1 1
0.999986 1 1 0.999986
0.999898 1 1 0.999898
1 1 1 1
0.999986 1 1 0.999986
1 1 1 1
1 1 1 1
0.999986 1 1 0.999986
1 1 1 1
1 1 1 1
0.999987 1 1 0.999987
1 1 1 1
1 1 1 1
1 1 1 1

VECTORS lamdaE float
0.999188 0.998708 0.997646
0.999349 0.997887 0.99914
0.999178 0.998693 0.997677
0.998927 0.999709 0.99725
0.999082 0.999102 0.997494
0.999278 0.998308 0.997834
0.999477 0.99969 0.996018
0.999365 0.99786 0.999156
0.999028 0.998954 0.998964
0.999262 0.998149 0.999114
0.999444 0.997632 0.998132
0.99952 0.99917 0.996233
0.998796 1.00014 0.997223
0.998774 0.999948 0.997352
0.999167 0.998676 0.997708
0.998916 0.999729 0.997274
0.999269 0.998286 0.997864
0.999073 0.999094 0.997523
0.999481 0.999702 0.996019
0.998822 0.999959 0.998808
0.998891 0.999852 0.997213
0.998984 0.999454 0.997361
0.999608 1.00009 0.995416
0.999503 0.999859 0.995817
0.999367 0.997939 0.998007
0.99945 0.999481 0.996256
1.0001 1.00075 0.993806
0.999382 0.997835 0.999172
0.999043 0.999039 0.998245
0.999273 0.998211 0.998492
0.999437 0.997602 0.999198
0.99951 0.999151 0.996236
0.998936 0.999548 0.997409
0.99915 0.998697 0.997721
0.999528 0.999854 0.996141
0.999515 0.997336 0.999241
0.999494 0.999382 0.996623
0.999565 0.998918 0.996397
0.999902 1.00072 0.993937
0.999679 0.99699 0.999243
0.998789 1.00003 0.998805
0.998779 0.999885 0.998099
0.998835 1.00004 0.998783
0.998741 1.00007 0.997323
0.999635 1.00026 0.994839
0.998836 0.999617 0.998885
0.999567 1.00018 0.995776
0.998904 0.999751 0.997298
0.999063 0.999083 0.997551
0.999259 0.998263 0.997895
0.999486 0.999718 0.99602
0.998818 0.999996 0.998027
0.998878 0.999878 0.997229
0.999359 0.997919 0.99803
0.998976 0.999457 0.997389
0.999617 1.00009 0.99542
0.999456 0.999493 0.996258
0.999511 0.999862 0.995819
1.00012 1.00076 0.993775
0.998833 0.999994 0.998796
0.998839 0.999945 0.997239
0.999679 1.00012 0.995629
0.999667 1.0001 0.995309
0.999539 1.00001 0.995617
1.00069 1.00045 0.992968
1.00026 1.00061 0.993464
0.999489 0.997623 0.998111
0.999468 0.999175 0.996504
0.999912 1.00085 0.994057
1.00059 1.00076 0.992539
0.999067 0.998894 0.998973
0.999459 0.997575 0.999213
0.999294 0.998136 0.999117
0.999501 0.99913 0.996239
0.998933 0.99936 0.998888
0.999144 0.998581 0.999016
0.999495 0.99996 0.995455
0.99953 0.997359 0.998714
0.999486 0.999415 0.996036
0.999562 0.998872 0.996681
0.999888 1.00076 0.993928
0.999599 0.997164 0.999237
0.999812 0.998199 0.996608
0.999549 1.00012 0.995172
0.999494 0.999724 0.995692
1.00023 1.0006 0.993394
0.999644 0.998607 0.997046
0.99996 1.00069 0.993848
0.999874 1.00064 0.994076
1.00019 1.00107 0.993008
0.999743 0.996837 0.999256
0.999692 0.996986 0.999247
0.998803 0.999772 0.998858
0.998768 1 0.99882
0.998823 1.00003 0.998787
0.998754 1.00001 0.998071
0.999626 1.00023 0.995249
0.998851 0.999674 0.998117
0.999554 1.0002 0.995408
0.998848 1.00002 0.998783
0.999691 1.00019 0.994773
0.999588 1.00021 0.995714
1.00085 1.00032 0.992402
0.999565 1.00011 0.995837
1.00067 1.00039 0.992724
0.998832 1.00004 0.99722
0.998864 0.999909 0.997245
0.999351 0.997899 0.998053
0.998967 0.999459 0.997417
0.999627 1.00009 0.995424
0.999519 0.999867 0.99582
0.999462 0.999509 0.996261
1.00015 1.00076 0.993743
0.998841 1 0.998789
0.998829 0.999958 0.997253
0.999685 1.00014 0.995057
0.999676 1.0001 0.995306
0.99946 0.997609 0.998656
0.999478 0.999173 0.996659
0.99955 1 0.995621
1.00069 1.00043 0.992888
0.999945 1.00086 0.994021
1.00028 1.00062 0.993511
1.00059 1.00076 0.992545
0.999707 1.00014 0.994786
0.999662 1.0001 0.995325
1.00095 1.00021 0.992525
1.00084 1.0003 0.992647
1.00046 1.00051 0.993169
1.00126 1.00032 0.991831
0.999558 0.997373 0.999215
1.00077 1.00053 0.992412
0.999571 0.998855 0.996416
0.999808 1.00084 0.993968
1.00039 1.00108 0.992674
1.00085 1.00071 0.992089
0.999754 0.998399 0.996496
1.00004 1.00021 0.99418
0.998963 0.999264 0.998909
0.999182 0.998497 0.99905
0.999448 1.00003 0.99545
0.999545 0.997347 0.999233
0.999557 0.998842 0.996426
0.999456 0.999437 0.996018
0.999874 1.0008 0.993919
0.999616 0.997158 0.999238
0.999814 0.998182 0.99661
0.999524 1.00009 0.995576
0.999466 0.99971 0.996058
1.00023 1.00059 0.993395
0.999653 0.998586 0.996541
0.999949 1.00071 0.993842
0.999856 1.00068 0.994073
1.0002 1.00106 0.992982
0.99974 0.99838 0.996576
0.999867 0.998035 0.996661
1.00003 1.00008 0.994337
1.00041 1.0005 0.993119
1.00005 1.00068 0.993675
1.00072 1.00062 0.992424
0.999917 1.0004 0.994233
1.00033 1.00082 0.992943
1.00009 1.00128 0.99304
1.0003 1.00131 0.992634
0.999793 0.996706 0.999272
0.999753 0.996836 0.999261
0.999705 0.996983 0.99925
0.999814 0.998234 0.996545
0.999637 0.997202 0.999223
0.998873 0.999559 0.998873
0.998763 0.999919 0.998844
0.999536 1.00026 0.995032
0.999611 1.00025 0.994869
0.998809 1.00003 0.998794
0.998847 1.00002 0.99878
0.999689 1.00018 0.994778
0.999571 1.00023 0.995347
1.00085 1.00032 0.992406
0.999544 1.00019 0.995091
1.00067 1.00039 0.992729
0.999721 1.00013 0.994753
1.00096 1.00029 0.992209
1.00075 1.00035 0.992585
1.00138 1.00031 0.991391
1.00056 1.00043 0.992894
1.0012 1.00028 0.991804
0.998849 1.00001 0.998783
0.998818 0.999971 0.997269
0.999683 1.00015 0.994496
0.999685 1.0001 0.995304
0.999431 0.997589 0.999208
0.999488 0.99917 0.996814
0.999561 0.999999 0.995625
1.00069 1.00041 0.992808
1.0003 1.00063 0.993557
0.999979 1.00087 0.993984
1.00058 1.00077 0.99255
0.999707 1.00015 0.994783
0.999674 1.0001 0.995318
1.00095 1.0002 0.992363
1.00085 1.0003 0.992695
0.999539 0.997382 0.999212
0.999568 0.998876 0.996674
0.999842 1.00081 0.994114
1.00046 1.00051 0.993171
1.00124 1.00029 0.991743
1.00036 1.00108 0.992655
1.00079 1.00054 0.992454
1.00084 1.00071 0.992098
0.999749 0.998422 0.996495
1.00004 1.0002 0.994186
1.00098 1.00022 0.992245
1.00092 1.00022 0.992567
1.00153 1.00017 0.991433
1.00141 1.00014 0.991411
1.00095 1.00041 0.992239
1.00154 1.00013 0.991393
0.999663 0.998606 0.996464
1.00105 1.00038 0.992007
0.999831 1.0007 0.994089
1.00013 1.00124 0.992856
1.00064 1.00122 0.992202
1.00099 1.00058 0.991988
0.999987 1.00032 0.994155
1.00005 1.00006 0.994296
1.00017 1.00129 0.992858
0.99949 1.00017 0.99522
0.999633 0.997152 0.99924
0.999817 0.998164 0.996612
0.999429 0.999763 0.995748
1.00023 1.00058 0.993396
0.999647 0.998565 0.996538
0.999837 1.00072 0.99407
0.999938 1.00074 0.993835
1.0002 1.00105 0.992955
0.999741 0.998361 0.996577
0.99987 0.998018 0.996664
1.00002 1.00009 0.994334
1.00042 1.00049 0.99312
1.00005 1.00068 0.993675
1.00072 1.00062 0.992424
0.999902 1.00043 0.994233
1.00034 1.00082 0.992978
1.00009 1.00129 0.993033
1.0003 1.0013 0.992594
0.999907 0.997887 0.996728
0.999981 1.0002 0.994306
1.00006 0.999954 0.994394
1.00015 1.0011 0.993095
1.00093 1.00045 0.992165
1.00049 1.00075 0.992765
1.00095 1.00066 0.991932
1.0001 1.0012 0.993112
1.00048 1.00096 0.992575
1.00016 1.00171 0.99248
1.00038 1.00137 0.992311
1.00009 0.999456 0.994833
0.999962 0.99764 0.996859
0.999833 0.996591 0.999289
0.999799 0.996706 0.999277
0.999761 0.996835 0.999265
0.999849 0.998077 0.996635
0.999693 0.997055 0.999238
0.999808 0.998257 0.996543
0.999622 0.997203 0.999221
0.999518 1.00023 0.995096
0.999558 1.00028 0.994964
1.00067 1.00038 0.992733
1.00086 1.00032 0.992411
0.999686 1.00017 0.994783
0.998849 1.00002 0.99878
0.999724 1.00013 0.99475
1.00097 1.00029 0.992213
1.00075 1.00035 0.992589
1.00139 1.00032 0.991389
1.00056 1.00043 0.992898
1.0012 1.00028 0.991805
1.00101 1.00025 0.992164
1.00148 1.00032 0.991181
1.0013 1.00028 0.991607
1.00162 1.00019 0.991078
1.00108 1.00034 0.991984
1.00146 1.00012 0.991458
0.999708 1.00015 0.994779
0.999688 1.0001 0.99531
1.00095 1.00019 0.992201
1.00087 1.00031 0.992742
0.99952 0.997389 0.999209
0.999566 0.998898 0.996929
0.999876 1.00078 0.99426
1.00047 1.00051 0.993174
1.00122 1.00027 0.991655
1.0008 1.00054 0.992496
1.00032 1.00109 0.992636
1.00083 1.00071 0.992107
0.999743 0.998445 0.996495
1.00004 1.00019 0.994191
1.00098 1.00022 0.99218
1.00092 1.0002 0.992569
1.00151 1.00014 0.991406
1.00143 1.00017 0.991509
0.999662 0.998629 0.996463
0.999852 1.00067 0.994091
1.00013 1.00124 0.992914
1.00097 1.00042 0.992242
1.00152 1.00009 0.991375
1.0006 1.00122 0.992137
1.00105 1.00038 0.992009
1.00097 1.00057 0.991977
0.999994 1.00031 0.994161
1.00018 1.00127 0.992821
1.00005 1.00006 0.994297
1.00152 1.00025 0.991351
1.00153 1.0001 0.991402
1.00178 1.00007 0.990924
1.00173 0.99999 0.991042
1.0012 1.00019 0.991822
1.00168 0.999765 0.991444
0.999905 1.00049 0.99415
1.00117 1.00017 0.991961
1.00009 1.00122 0.993095
1.00028 1.00154 0.992287
1.00074 1.00131 0.991803
1.00106 1.00042 0.992125
1.00005 0.99987 0.994497
1.00016 1.00119 0.992977
1.00016 1.00138 0.992693
1.00023 1.00177 0.992393
1.00043 1.00048 0.99312
0.999872 0.998 0.996667
0.999743 0.998342 0.996579
1.00001 1.0001 0.994332
1.00004 1.00068 0.993675
1.00071 1.00063 0.992425
0.999885 1.00045 0.994232
1.00009 1.00129 0.993026
1.00034 1.00082 0.993013
1.00029 1.00129 0.992554
0.99991 0.99787 0.996731
0.999973 1.00021 0.994304
1.00005 0.99996 0.994393
1.00014 1.00112 0.99309
1.00094 1.00045 0.99216
1.00048 1.00076 0.992772
1.00095 1.00066 0.991932
1.00009 1.00121 0.993112
1.00048 1.00097 0.992617
1.00017 1.00172 0.992465
1.00036 1.00132 0.992408
0.999939 0.997754 0.996797
1.00008 0.999823 0.99448
1.00015 1.00108 0.993128
1.00014 1.00111 0.993097
1.00018 1.00166 0.992468
1.00117 1.00039 0.991726
1.00066 1.00087 0.992311
1.00103 1.00073 0.991721
1.00016 1.00171 0.992503
1.00055 1.00112 0.992297
1.00024 1.00198 0.99189
1.00009 0.999575 0.994705
1.00012 1.0008 0.993451
1.00008 0.999349 0.994946
1.00009 0.999451 0.994836
0.99998 0.997513 0.997389
0.999961 0.997628 0.997101
0.999878 0.996515 0.998372
0.999836 0.99659 0.999294
0.999804 0.996707 0.999282
0.999872 0.997919 0.996753
0.999732 0.996912 0.999261
0.999846 0.998098 0.996629
0.999684 0.997055 0.999233
0.999803 0.998279 0.99654
0.999607 0.997204 0.999218
1.00056 1.00043 0.992901
1.00076 1.00035 0.992593
1.0012 1.00028 0.991807
1.0014 1.00032 0.991386
1.00097 1.00029 0.992217
0.999723 1.00014 0.994749
1.00101 1.00025 0.992162
1.00149 1.00033 0.991181
1.0013 1.00028 0.99161
1.00163 1.00018 0.991065
1.00108 1.00034 0.991981
1.00145 1.00013 0.99146
1.00153 1.0003 0.99112
1.00165 1.00024 0.990917
1.00156 1.00011 0.991243
1.00178 0.999971 0.991029
1.00133 1.00021 0.991623
1.0016 0.999722 0.991604
1.00098 1.00022 0.992115
1.00093 1.00019 0.992572
1.0015 1.00012 0.991379
1.00144 1.00019 0.991607
0.999661 0.998652 0.996462
0.999873 1.00064 0.994093
1.00013 1.00125 0.992972
1.00099 1.00043 0.992244
1.0015 1.00005 0.991357
1.00105 1.00038 0.992011
1.00057 1.00121 0.992073
1.00095 1.00056 0.991965
1 1.00029 0.994166
1.00019 1.00124 0.992784
1.00005 1.00006 0.994298
1.00151 1.00024 0.991283
1.00153 1.00009 0.991401
1.00178 1.00006 0.99087
1.00175 0.99999 0.99106
0.99992 1.00047 0.994154
1.0001 1.00121 0.993092
1.00027 1.00155 0.99235
1.00122 1.00022 0.991844
1.00166 0.999689 0.99149
1.00071 1.00135 0.991742
1.00118 1.00017 0.991966
1.00104 1.00035 0.992155
1.00017 1.00117 0.992985
1.00023 1.00175 0.99234
1.00005 0.999874 0.994494
1.00016 1.00137 0.992701
1.00173 1.00023 0.990825
1.0019 0.999935 0.990856
1.00191 1.00005 0.990603
1.00188 0.999645 0.991034
1.00133 0.999884 0.991879
1.00182 0.999239 0.991708
1.00011 1.00117 0.993093
1.00122 0.999772 0.992261
1.00016 1.00151 0.99256
1.00038 1.00193 0.991818
1.00079 1.00141 0.991516
1.00115 1.00027 0.992146
1.00004 0.999687 0.994694
1.00013 1.0013 0.992795
1.00024 1.00149 0.992533
1.00017 1.00214 0.992055
1.00029 1.00186 0.992158
0.999913 0.997854 0.996734
1.00094 1.00045 0.992155
1.00005 0.999966 0.994392
0.999964 1.00023 0.994301
1.00014 1.00113 0.993086
1.00047 1.00076 0.992779
1.00094 1.00067 0.991932
1.00008 1.00122 0.993112
1.00018 1.00173 0.992451
1.00049 1.00097 0.99266
1.00034 1.00127 0.992505
0.99994 0.997742 0.996801
1.00008 0.999824 0.994478
1.00014 1.0011 0.993125
1.00014 1.00112 0.993092
1.00018 1.00165 0.992457
1.00119 1.00039 0.991719
1.00065 1.00088 0.992313
1.00102 1.00074 0.9917
1.00015 1.00172 0.992509
1.00055 1.00111 0.99233
1.00028 1.00194 0.991941
1.00009 0.999695 0.994583
1.00015 1.00107 0.993127
1.0002 1.00156 0.992506
1.00017 1.00175 0.992418
1.00021 1.00192 0.992204
1.00128 1.00028 0.99161
1.00073 1.00101 0.99204
1.00095 1.00071 0.991774
1.00018 1.00218 0.991958
1.0005 1.00193 0.991586
1.00009 0.999569 0.994706
1.00015 1.00093 0.993168
1.00012 1.00082 0.993377
1.0001 1.00175 0.992667
1.00009 1.00073 0.993576
1.00008 0.999272 0.995025
1.00008 0.99935 0.994949
1 0.997406 0.997441
1.00009 0.999447 0.994839
0.999981 0.997516 0.997398
0.999914 0.996405 0.998412
0.99996 0.997617 0.997341
0.999871 0.996487 0.998841
0.999839 0.996591 0.999299
0.999898 0.997746 0.996879
0.999873 0.997934 0.996745
0.999767 0.996752 0.999288
0.999728 0.996914 0.999254
0.999843 0.998119 0.996623
0.999675 0.997055 0.999228
1.00108 1.00034 0.991978
1.0013 1.00028 0.991612
1.00145 1.00013 0.991461
1.00164 1.00017 0.991052
1.00149 1.00033 0.99118
1.00101 1.00025 0.99216
1.00153 1.0003 0.991122
1.00167 1.00025 0.990895
1.00156 1.00012 0.991245
1.00178 0.999964 0.991022
1.00133 1.00022 0.991616
1.0016 0.99969 0.991616
1.0017 1.00028 0.990815
1.0017 1.0002 0.990882
1.00172 0.999703 0.991264
1.00187 0.999929 0.990996
1.00146 0.999872 0.991652
1.00175 0.999262 0.99184
1.0015 1.00024 0.991214
1.00153 1.00008 0.9914
1.00178 1.00004 0.990815
1.00176 0.999987 0.991078
0.999934 1.00044 0.994158
1.00011 1.0012 0.99309
1.00026 1.00157 0.992413
1.00124 1.00026 0.991867
1.00164 0.999613 0.991535
1.00118 1.00017 0.99197
1.00068 1.00138 0.991681
1.00101 1.00028 0.992184
1.00018 1.00115 0.992993
1.00023 1.00172 0.992287
1.00004 0.999879 0.994492
1.00017 1.00136 0.992708
1.00172 1.00022 0.990834
1.00189 0.99994 0.990869
1.00191 1.00007 0.990572
1.00189 0.999654 0.991046
1.00013 1.00115 0.993096
1.00016 1.00151 0.992609
1.00037 1.00196 0.991812
1.00136 0.999938 0.991847
1.00173 0.999194 0.991844
1.00079 1.00146 0.991489
1.00121 0.999786 0.992267
1.0011 1.0001 0.992246
1.00024 1.00149 0.992535
1.0003 1.00182 0.99214
1.00017 1.00216 0.992038
1.00004 0.999687 0.994598
1.00014 1.00128 0.992824
1.00184 1.00023 0.990629
1.0021 0.999847 0.990452
1.002 0.999135 0.991342
1.00153 0.999216 0.992143
1.00021 1.00141 0.992683
1.0014 0.999294 0.992534
1.00013 1.00187 0.992171
1.00047 1.00236 0.991233
1.00094 1.00137 0.991307
1.00005 0.99946 0.994714
1.00011 1.00108 0.993245
1.00011 1.00223 0.992055
1.0003 1.00157 0.99235
1.00024 1.00253 0.991552
1.00035 1.00187 0.991915
0.999942 0.997729 0.996805
1.00008 0.999825 0.994477
1.00121 1.00039 0.991712
1.00013 1.00113 0.993088
1.00013 1.00111 0.993122
1.00018 1.00164 0.992445
1.00065 1.00088 0.992315
1.00102 1.00074 0.99168
1.00014 1.00171 0.992515
1.00031 1.0019 0.991992
1.00055 1.00111 0.992362
1.00009 0.999693 0.994583
1.00015 1.00108 0.993122
1.0002 1.00155 0.992547
1.00016 1.00177 0.992411
1.0002 1.00193 0.992169
1.00128 1.00032 0.991595
1.00074 1.001 0.992024
1.00098 1.00069 0.991792
1.00017 1.00218 0.991922
1.00051 1.00201 0.991505
1.00016 1.001 0.993182
1.00016 1.00182 0.992275
1.00024 1.00194 0.992101
1.0002 1.00204 0.991985
1.00028 1.00204 0.991932
1.00146 0.99936 0.992149
1.00077 1.00155 0.991463
1.00104 1.00046 0.991548
1.00032 1.00252 0.991508
1.00049 1.00248 0.99071
1.00009 0.999565 0.994708
1.00014 1.00094 0.993216
1.00012 1.00183 0.992355
1.00012 1.00083 0.993303
1.00009 1.00073 0.993577
1.0001 1.00176 0.99256
1.0001 1.00237 0.99201
1.00009 1.0017 0.992531
1.00006 1.00066 0.993697
1.00009 0.999225 0.995073
1.00008 0.999275 0.995027
1.00003 0.997308 0.997482
1.00008 0.99935 0.994952
1 0.997411 0.997448
0.999949 0.996297 0.998441
0.999982 0.997519 0.997407
0.99991 0.996374 0.99841
0.999863 0.996455 0.999314
0.999932 0.997572 0.996985
0.999901 0.997757 0.996871
0.999808 0.996577 0.999316
0.999874 0.997948 0.996737
0.999765 0.996765 0.99928
0.999725 0.996919 0.999246
1.00133 1.00022 0.991608
1.00157 1.00013 0.991247
1.00161 0.999655 0.991628
1.00178 0.999957 0.991015
1.00168 1.00026 0.990873
1.00153 1.0003 0.991124
1.0017 1.00029 0.990801
1.0017 1.0002 0.990887
1.00175 0.99972 0.99122
1.00183 0.999936 0.990948
1.00145 0.999915 0.991648
1.00171 0.999136 0.99196
1.00169 1.00026 0.990843
1.00168 1.0002 0.990947
1.00184 0.999465 0.991342
1.00165 0.998929 0.992288
1.00172 1.00022 0.990844
1.00187 0.999945 0.990881
1.00191 1.00009 0.990541
1.0019 0.999664 0.991057
1.00014 1.00113 0.993099
1.00016 1.00151 0.992659
1.00036 1.00199 0.991807
1.00138 0.999992 0.991815
1.00164 0.99915 0.991979
1.00121 0.9998 0.992273
1.00078 1.00151 0.991461
1.00106 0.999946 0.992346
1.00025 1.00149 0.992536
1.0003 1.00177 0.992121
1.00017 1.00219 0.992021
1.00004 0.999688 0.994502
1.00015 1.00125 0.992853
1.00184 1.00021 0.990605
1.00208 0.999857 0.990513
1.00197 0.999193 0.991378
1.00022 1.00141 0.992679
1.00017 1.00187 0.992244
1.00045 1.0024 0.991215
1.00156 0.999258 0.9921
1.00092 1.00125 0.991444
1.00134 0.999312 0.992504
1.00005 0.999438 0.994742
1.0003 1.00158 0.992342
1.00034 1.00181 0.991978
1.00024 1.00251 0.99158
1.00011 1.00225 0.992082
1.00012 1.00108 0.993149
1.00194 1.00015 0.990535
1.00221 0.999634 0.990454
1.00199 0.998589 0.991805
1.0018 0.998364 0.992594
1.00025 1.00161 0.99241
1.00125 1.00023 0.991797
1.00021 1.00246 0.991474
1.00058 1.00274 0.990749
1.00006 0.999251 0.99491
1.00011 1.00079 0.993552
1.00009 1.00209 0.992349
1.00013 1.00298 0.991251
1.00033 1.00176 0.992052
1.00033 1.00241 0.99143
1.00009 0.99969 0.994584
1.00014 1.00108 0.993117
1.00129 1.00036 0.991581
1.00016 1.00178 0.992404
1.0002 1.00153 0.992587
1.0002 1.00194 0.992134
1.00075 1.00099 0.992008
1.00101 1.00067 0.991811
1.00016 1.00217 0.991886
1.00051 1.00211 0.991425
1.00015 1.00101 0.99318
1.00017 1.00183 0.992308
1.00023 1.00192 0.992157
1.0002 1.00205 0.992031
1.00025 1.00203 0.991978
1.00149 0.999397 0.992207
1.0008 1.00149 0.991501
1.00101 1.00053 0.991742
1.0003 1.00254 0.991454
1.00053 1.00261 0.990671
1.00015 1.00186 0.992277
1.00019 1.00235 0.991711
1.00028 1.00229 0.991678
1.00025 1.00224 0.991654
1.00219 0.997923 0.992354
1.00158 0.999087 0.992073
1.00087 1.00215 0.990596
1.00029 1.00343 0.990349
1.00014 1.00095 0.993264
1.00012 1.00184 0.992408
1.00011 1.00239 0.991914
1.00009 1.00073 0.993577
1.0001 1.00177 0.992454
1.00006 1.00066 0.993697
1.0001 1.00237 0.991937
1.00009 1.00171 0.99257
1.00015 1.00272 0.991543
1.0001 1.00236 0.991867
1.00008 1.00163 0.992615
1.00004 1.00063 0.993776
1.00009 0.999207 0.995091
1.00009 0.999225 0.995075
1.00005 0.997235 0.997504
1.00008 0.999278 0.995029
1.00003 0.997316 0.997486
0.999984 0.996193 0.998465
1 0.997416 0.997455
0.999946 0.996265 0.998439
0.999906 0.996343 0.998407
0.999969 0.997416 0.997067
0.999937 0.997579 0.996979
0.999855 0.996412 0.999338
0.999905 0.997769 0.996863
0.999805 0.996598 0.999308
0.999763 0.996776 0.999271
1.00145 0.999957 0.991644
1.00178 0.999739 0.991175
1.00167 0.999016 0.992079
1.0018 0.999947 0.9909
1.0017 1.0002 0.990892
1.00171 1.0003 0.990788
1.0017 1.00026 0.990829
1.00168 1.00018 0.990944
1.00183 0.999448 0.991378
1.00165 0.998897 0.992264
1.00166 1.00026 0.990893
1.0017 0.999968 0.991199
1.00192 0.998706 0.991893
1.00184 1.00019 0.990581
1.00205 0.999868 0.990574
1.00194 0.999247 0.991415
1.00022 1.00141 0.992674
1.00021 1.00187 0.992316
1.00042 1.00245 0.991196
1.00158 0.999299 0.992057
1.00128 0.999331 0.992474
1.0009 1.00112 0.991582
1.0003 1.0016 0.992334
1.00034 1.00175 0.992042
1.00023 1.00249 0.991607
1.00005 0.999414 0.99477
1.00012 1.00229 0.992109
1.00013 1.00107 0.993053
1.00189 1.00015 0.990596
1.00224 0.999592 0.99043
1.00201 0.998685 0.991723
1.00026 1.00162 0.992401
1.0002 1.00244 0.99156
1.00057 1.00267 0.990807
1.00175 0.998423 0.992641
1.00126 1.00016 0.991789
1.00006 0.999237 0.99501
1.0001 1.00079 0.993555
1.00032 1.00177 0.992042
1.00033 1.00241 0.99145
1.00012 1.00295 0.991328
1.00009 1.00211 0.992281
1.0019 0.999966 0.990747
1.00233 0.999181 0.990706
1.00214 0.997455 0.992701
1.00179 0.998537 0.992593
1.00023 1.00204 0.991929
1.00082 1.00236 0.990594
1.00037 1.00307 0.990893
1.00009 0.999092 0.995206
1.00009 1.00021 0.994099
1.00009 1.00051 0.993665
1.00008 1.00192 0.992467
1.00006 1.00284 0.991519
1.00015 1.00337 0.990857
1.00032 1.00204 0.991706
1.0003 1.00314 0.991033
1.00015 1.00102 0.993178
1.00017 1.00185 0.992341
1.00152 0.999436 0.992265
1.0002 1.00206 0.992078
1.00023 1.00191 0.992214
1.00021 1.00202 0.992024
1.00082 1.00142 0.991539
1.00099 1.00058 0.991936
1.00027 1.00255 0.991401
1.00056 1.00273 0.990631
1.00014 1.00187 0.992268
1.0002 1.00232 0.991774
1.00027 1.00226 0.991737
1.00027 1.00225 0.991697
1.00216 0.99785 0.992412
1.0015 0.999365 0.992033
1.00089 1.00213 0.990695
1.00035 1.00334 0.990327
1.00013 1.00246 0.991822
1.00217 0.99826 0.991848
1.00023 1.00273 0.99139
1.00025 1.00287 0.99115
1.00245 0.997234 0.992332
1.00132 1.00148 0.990312
1.0005 1.00398 0.989818
1.00012 1.00185 0.992462
1.00011 1.0024 0.991916
1.00013 1.00276 0.991498
1.00007 1.00067 0.993696
1.00009 1.00172 0.992609
1.00011 1.00237 0.991864
1.00004 1.00063 0.993775
1.00008 1.00164 0.992608
1.00015 1.00273 0.991484
1.0001 1.00237 0.991953
1.00025 1.00292 0.991162
1.00017 1.00277 0.991363
1.00011 1.00231 0.991986
1.00006 1.00165 0.992725
1.00004 1.00062 0.993799
1.00008 0.999224 0.995078
1.00009 0.999209 0.995091
1.00007 0.997197 0.997503
1.00009 0.999225 0.995077
1.00005 0.997248 0.997505
1.00001 0.996114 0.998475
1.00003 0.997324 0.997491
0.999982 0.996161 0.998464
0.999943 0.996233 0.998437
1.0001 0.998964 0.995296
1.00001 0.997272 0.99714
0.999973 0.997424 0.997063
0.999902 0.996265 0.999357
0.999942 0.997589 0.996974
0.99985 0.996432 0.999332
0.999802 0.996617 0.9993
1.00166 0.998861 0.992239
1.00181 0.999431 0.991414
1.00169 1.00017 0.990941
1.00171 1.00027 0.990815
1.00164 1.00027 0.990949
1.0017 1.00002 0.991125
1.00188 0.998663 0.99202
1.0016 1.00019 0.99113
1.00185 0.999412 0.991393
1.00195 0.998486 0.992119
1.00184 1.00014 0.990658
1.00227 0.999553 0.990405
1.00203 0.998781 0.991641
1.00026 1.00162 0.992391
1.00019 1.00241 0.991646
1.00056 1.00259 0.990865
1.00168 0.998477 0.992688
1.00126 1.0001 0.99178
1.00031 1.00179 0.992031
1.00033 1.00241 0.99147
1.00011 1.00292 0.991404
1.00007 0.999221 0.995109
1.0001 1.00079 0.993559
1.0001 1.00213 0.992213
1.0019 0.999951 0.990733
1.00009 0.999091 0.995203
1.00009 1.00021 0.994038
1.00234 0.999131 0.990728
1.0021 0.997632 0.992544
1.00023 1.00199 0.991967
1.00035 1.0031 0.990811
1.00083 1.00218 0.990629
1.00173 0.998539 0.992552
1.00009 1.00051 0.993831
1.00008 1.00192 0.99246
1.00034 1.00205 0.991753
1.00029 1.00287 0.991163
1.00014 1.00346 0.990754
1.00008 1.0028 0.991543
1.00197 0.999776 0.990766
1.00241 0.997998 0.991734
1.0023 0.996659 0.993373
1.00131 1.00067 0.99129
1.00021 1.00252 0.99151
1.00048 1.00367 0.990145
1.00008 1.00012 0.994074
1.00009 1.00034 0.993975
1.00006 1.00122 0.993317
1.00007 1.00165 0.992616
1.0001 1.00261 0.991768
1.00007 1.0034 0.99089
1.00009 1.00402 0.99036
1.00025 1.00284 0.991093
1.00014 1.00189 0.992258
1.00021 1.00228 0.991838
1.00213 0.997776 0.99247
1.00143 0.999643 0.991993
1.00029 1.00226 0.991741
1.00026 1.00224 0.991797
1.00092 1.00214 0.990795
1.0004 1.00326 0.990305
1.00013 1.00245 0.991819
1.00215 0.998106 0.991966
1.00023 1.00269 0.991386
1.00027 1.00285 0.991042
1.00241 0.997316 0.992306
1.0014 1.00145 0.990311
1.00047 1.00398 0.989795
1.00013 1.00291 0.991387
1.00285 0.996583 0.991906
1.0003 1.00296 0.991091
1.00033 1.00388 0.990221
1.00227 0.999471 0.990231
1.00062 1.00371 0.98944
1.00417 0.997209 0.989558
1.0001 1.0024 0.991918
1.00012 1.00277 0.991499
1.00022 1.00299 0.99116
1.00004 1.00063 0.993774
1.00008 1.00165 0.992601
1.0001 1.00238 0.992039
1.00015 1.00273 0.991424
1.00004 1.00062 0.9938
1.00007 1.00166 0.992666
1.00025 1.00288 0.991148
1.00011 1.00232 0.991989
1.00016 1.00277 0.991436
1.00032 1.00302 0.990855
1.00018 1.00284 0.991408
1.00011 1.00236 0.992015
1.00007 1.00166 0.992577
1.00005 1.00063 0.993635
1.00006 1.00166 0.99286
1.00006 1.00063 0.993608
1.00009 0.999248 0.995051
1.00008 0.999224 0.995078
1.00009 0.997213 0.997047
1.00009 0.99921 0.995091
1.00007 0.997214 0.997282
1.00001 0.996037 0.999354
1.00005 0.99726 0.997507
1.00001 0.996083 0.998475
0.99998 0.996129 0.998462
1.00012 0.998869 0.995365
1.00011 0.99896 0.995296
1.00004 0.997146 0.997207
1 0.997279 0.997351
0.999942 0.996135 0.999374
0.999977 0.997431 0.99706
0.999896 0.996283 0.999351
0.999845 0.996451 0.999326
1.00185 0.99862 0.992147
1.0017 1.00006 0.991052
1.00163 1.00027 0.991006
1.0016 1.00018 0.991135
1.00179 0.999428 0.991455
1.00185 0.998797 0.992007
1.00169 0.999623 0.991545
1.00377 0.995899 0.993243
1.00197 0.997297 0.992963
1.00009 1.00005 0.994257
1.0019 0.999935 0.99072
1.00236 0.999079 0.990749
1.00207 0.997777 0.992387
1.00022 1.00195 0.992005
1.00032 1.00312 0.990728
1.00084 1.00201 0.990665
1.00169 0.99856 0.99251
1.00037 1.00207 0.9918
1.00027 1.0026 0.991294
1.00013 1.00354 0.990652
1.00009 0.999092 0.995201
1.00009 1.00277 0.991566
1.00008 1.00051 0.993997
1.00008 1.00193 0.992452
1.00008 1.00021 0.993977
1.00204 0.999726 0.990686
1.00009 1.00012 0.994137
1.00008 1.00035 0.993971
1.00006 1.00122 0.99319
1.0024 0.99801 0.991751
1.00228 0.996729 0.993167
1.00024 1.00247 0.991534
1.00041 1.00359 0.990106
1.00128 1.00056 0.991326
1.00006 1.00163 0.992706
1.00011 1.00262 0.99173
1.00026 1.00286 0.991099
1.00009 1.00393 0.990445
1.00008 1.00336 0.990946
1.00226 0.999283 0.990601
1.00273 0.99607 0.993062
1.0021 0.998506 0.991966
1.0007 1.00322 0.990208
1.00006 1.00337 0.990877
1.00005 1.00108 0.993189
1.00006 1.0014 0.992883
1.00007 1.00194 0.992511
1.00009 1.00248 0.991898
1.00013 1.00303 0.991215
1.00004 1.004 0.9905
1.00003 1.00417 0.99022
1.00013 1.00244 0.991816
1.00022 1.00265 0.991381
1.00214 0.997946 0.992085
1.00235 0.997402 0.992281
1.00147 1.00142 0.99031
1.00028 1.00283 0.990934
1.00044 1.00399 0.989772
1.00013 1.00288 0.991424
1.00284 0.996481 0.991986
1.00028 1.00291 0.991086
1.00022 1.00393 0.990222
1.0024 0.999199 0.99036
1.00064 1.00378 0.989429
1.00416 0.997308 0.990169
1.00019 1.00312 0.991082
1.00308 0.997848 0.989892
1.00021 1.00348 0.990702
1.00002 1.00473 0.98979
1.00103 1.00246 0.989396
0.996331 1.00301 0.973283
0.9998 0.99935 0.990293
1.00373 0.998693 0.989566
0.994281 0.998989 0.987014
0.99845 0.996182 0.989277
1.00011 1.00278 0.9915
1.00021 1.00298 0.991161
1.00035 1.00311 0.990702
1.00004 1.00062 0.9938
1.00007 1.00167 0.992607
1.0001 1.00232 0.991991
1.00015 1.00277 0.991509
1.00025 1.00284 0.991134
1.00012 1.00237 0.991916
1.00004 1.00062 0.99371
1.00006 1.00168 0.992644
1.0003 1.00301 0.99091
1.00017 1.00283 0.991385
1.00017 1.00283 0.991477
1.0002 1.00336 0.990803
1.00012 1.00244 0.991742
1.00006 1.00165 0.992608
1.00005 1.00063 0.993616
1.00006 1.00159 0.99282
1.0001 1.00237 0.99205
1.00007 1.00178 0.992586
1.00006 1.00166 0.992736
1.00007 1.00066 0.993689
1.00006 1.00063 0.993611
1.00009 0.999268 0.995018
1.00009 0.999244 0.995052
1.00008 0.99725 0.99703
1.00008 0.999224 0.995077
1.00009 0.997216 0.997046
1.00002 0.996026 0.999351
1.00008 0.997232 0.997061
1.00002 0.996036 0.998913
1.00001 0.996051 0.998475
1.00013 0.998805 0.995407
1.00012 0.998863 0.995365
1.00006 0.997049 0.997262
1.00011 0.998956 0.995295
1.00003 0.997143 0.997417
0.999975 0.996028 0.99939
1.00001 0.997295 0.997127
0.999935 0.996172 0.999367
0.99989 0.996302 0.999346
1.00172 0.999446 0.991517
1.0016 1.00018 0.99114
1.00176 0.999108 0.991895
1.0037 0.995818 0.993257
1.00168 0.999641 0.991489
1.0019 0.99758 0.99264
1.00204 0.998907 0.990961
0.999574 0.999492 0.987246
1.00239 0.997623 0.994466
1.00009 1.00002 0.994287
1.00009 1.00006 0.994257
1.00006 1.00098 0.993405
1.00007 1.00089 0.99347
1.0021 0.999688 0.990606
1.0024 0.998058 0.991768
1.00226 0.996777 0.99296
1.00028 1.00241 0.991558
1.00034 1.00351 0.990066
1.00126 1.00044 0.991361
1.00026 1.00288 0.991105
1.0001 1.00382 0.99053
1.00009 1.00333 0.991002
1.00008 1.00036 0.993967
1.00012 1.00264 0.991693
1.00006 1.0016 0.992797
1.00009 1.00011 0.994201
1.00006 1.00122 0.993064
1.00229 0.999183 0.990736
1.00005 1.00109 0.993313
1.00006 1.00138 0.992964
1.00007 1.00188 0.992493
1.00263 0.996159 0.993083
1.00205 0.998298 0.991998
1.0001 1.00344 0.990855
1.00065 1.0031 0.990256
1.00008 1.0025 0.991923
1.00014 1.00297 0.991237
1.00003 1.00423 0.990228
1.00004 1.00406 0.990447
1.00289 0.997101 0.991086
1.00299 0.996421 0.992395
1.00136 1.0019 0.990003
1.00004 1.00428 0.990205
1.00005 1.00208 0.992286
1.00007 1.00221 0.992125
1.00009 1.00337 0.990949
0.999942 1.00478 0.989854
0.996116 1.00275 0.97091
1.00013 1.00284 0.991462
1.00026 1.00286 0.991082
1.00282 0.996354 0.992065
1.00254 0.998925 0.99049
1.00065 1.00386 0.989419
1.00011 1.00396 0.990223
1.00408 0.997322 0.99078
1.00018 1.00311 0.991106
1.00326 0.997727 0.989868
1.00017 1.00348 0.990705
1 1.00466 0.989829
1.00106 1.00249 0.989449
0.996003 1.00235 0.974132
0.999791 0.999539 0.986401
1.00371 0.998514 0.989651
0.99478 0.999321 0.985089
0.997567 0.996922 0.989445
1.00014 1.00339 0.990856
0.995771 0.999318 0.981763
1.0005 0.99536 0.990652
1.00206 1.00064 0.989595
1.0001 1.00362 0.990548
0.999858 1.00497 0.990189
1.00353 0.999569 0.988719
0.99608 1.00214 0.973889
0.999834 0.999344 0.987427
0.994281 1.00125 0.985557
1.00605 0.994165 0.984389
1.0002 1.00297 0.991161
1.00035 1.00314 0.990713
1.00046 1.00346 0.990197
1.00004 1.00062 0.993785
1.00005 1.00169 0.992711
1.00012 1.00237 0.991818
1.00017 1.00281 0.991361
1.00028 1.003 0.990965
1.00005 1.00063 0.993617
1.00017 1.00278 0.991441
1.00012 1.00244 0.991847
1.00006 1.00164 0.992677
1.00021 1.00335 0.990699
1.00014 1.00309 0.991159
1.00004 1.00435 0.990151
1.00011 1.00246 0.991828
1.00006 1.00163 0.992783
1.00006 1.00159 0.992818
1.00011 1.00237 0.991942
1.00012 1.0023 0.991992
1.00009 1.00253 0.9918
1.00016 1.00283 0.991416
1.0001 1.00274 0.991554
1.00007 1.00197 0.992386
1.00006 1.00179 0.992585
1.00008 1.00075 0.99357
1.00006 1.00166 0.992611
1.00007 1.00067 0.993621
1.0001 0.999302 0.994974
1.00006 1.00063 0.993614
1.00009 0.999264 0.995018
1.00006 0.997287 0.997463
1.00009 0.999242 0.995052
1.00008 0.997246 0.997251
1.00005 0.99604 0.998451
1.00009 0.997219 0.997046
1.00002 0.996026 0.99935
1.00004 0.996035 0.998472
1.0001 1.00005 0.994255
1.00013 0.998789 0.995412
1.00013 0.998803 0.995405
1.00007 0.996991 0.997296
1.00012 0.998857 0.995364
1.00006 0.997044 0.997265
0.999998 0.995949 0.999403
1.00003 0.997154 0.997615
0.999981 0.996063 0.998962
0.999957 0.996197 0.99851
1.00351 0.995764 0.993271
1.00166 0.999661 0.991433
1.00183 0.997842 0.992317
0.999471 0.999264 0.989885
1.00229 0.997581 0.994556
1.0021 0.998903 0.990865
1.00251 0.999469 0.992207
0.998696 1.00055 0.988685
0.995647 1.00339 0.968895
0.995188 0.998763 0.982216
0.997326 0.996355 0.989911
1.00006 1.0009 0.993346
1.00009 1.00003 0.994286
1.00009 1.00007 0.994256
1.00005 1.00099 0.993366
1.00004 1.00169 0.992808
1.00007 1.00146 0.992947
1.00007 1.00098 0.993398
1.00007 1.0009 0.993423
1.00233 0.999081 0.99087
1.00253 0.996278 0.993103
1.00201 0.99813 0.992029
1.00015 1.00349 0.990834
1.0006 1.003 0.990303
1.00003 1.00428 0.990237
1.00004 1.00412 0.990394
1.00015 1.00291 0.991258
1.00006 1.00135 0.993045
1.00007 1.00252 0.991949
1.00005 1.0011 0.993437
1.00007 1.00183 0.992476
1.00301 0.997409 0.990962
1.00005 1.00206 0.992325
1.00007 1.00223 0.992137
1.00289 0.996295 0.992398
1.00122 1.00169 0.990064
1.00009 1.0043 0.990063
1.0001 1.00338 0.990941
0.999943 1.00477 0.989882
1.00391 0.995344 0.990566
1.00196 1.00099 0.990186
1.00032 1.00375 0.98962
1.00004 1.00503 0.989599
1.00003 1.00256 0.991829
1.00008 1.00299 0.991351
1.00003 1.00432 0.990222
0.99695 0.998526 0.981879
0.996443 1.00326 0.973203
1.00018 1.0031 0.99113
1.00013 1.00348 0.990708
1.00347 0.997727 0.989844
1.00112 1.00257 0.989502
0.999979 1.00462 0.989868
0.9964 1.00303 0.967744
0.99983 0.999358 0.991763
1.00369 0.99826 0.989724
0.994608 0.999524 0.983166
0.996573 0.997795 0.989615
1.00018 1.00332 0.990841
0.996431 0.998337 0.983414
0.999888 0.995658 0.991199
1.00204 1.00071 0.989582
1.00005 1.00389 0.990561
0.999764 1.00497 0.990246
1.00338 1.0002 0.988469
0.995286 1.00241 0.97154
0.99988 0.999964 0.991381
0.99414 1.00034 0.98321
1.00529 0.995131 0.985343
1.00047 1.00305 0.99043
1.00227 0.995007 0.990958
1.01432 0.995033 0.978055
1.00052 1.00319 0.98982
0.999846 1.00379 0.99148
1.00258 0.99974 0.994575
0.999799 0.997462 0.997615
0.995259 1.00199 0.973095
0.994964 0.999717 0.983551
1.01364 0.989416 0.981422
1.00034 1.00316 0.990725
1.00044 1.00346 0.990172
1.00017 1.00414 0.989933
1.00005 1.00063 0.993619
1.00006 1.00164 0.992746
1.00011 1.00245 0.991951
1.00016 1.00274 0.991406
1.00023 1.00334 0.990595
1.00006 1.00163 0.992779
1.00014 1.00302 0.991214
1.00011 1.00246 0.99183
1.00003 1.00437 0.990074
0.999966 1.00498 0.989649
1.00009 1.00359 0.990823
1.00011 1.00238 0.991935
1.00006 1.00159 0.992817
1.00012 1.00237 0.991835
1.00012 1.0023 0.991991
1.00009 1.00254 0.991798
1.00018 1.00278 0.991378
1.00006 1.00276 0.991602
1.00019 1.00284 0.991341
1.00015 1.00308 0.991071
1.00015 1.00285 0.991364
1.00002 1.00251 0.991829
1.00011 1.00248 0.991734
1.00011 1.00272 0.991567
1.0001 1.00205 0.992257
1.00007 1.00197 0.992386
1.0001 1.0009 0.993387
1.00006 1.00179 0.992585
1.00008 1.00076 0.993567
1.0001 0.999367 0.994906
1.00007 1.00067 0.993553
1.0001 0.999298 0.994972
1.00004 0.997343 0.997445
1.00009 0.999259 0.995018
1.00007 0.997285 0.997235
1.00003 0.996056 0.998443
1.00008 0.997238 0.997027
1.00002 0.996041 0.999346
1.00002 0.996027 0.999349
1.00011 1.0001 0.994338
1.00014 0.998818 0.99538
1.00009 1.00005 0.994254
1.00008 0.996981 0.9973
1.00013 0.99879 0.995412
1.00013 0.9988 0.995404
1.00007 0.996994 0.997295
1.00001 0.995906 0.999409
1.00005 0.997045 0.99767
1.00001 0.995959 0.998988
0.999996 0.996071 0.99855
0.996174 0.997331 0.985469
1.00143 0.994741 0.989297
0.999549 0.998941 0.992398
1.00219 0.997687 0.994646
1.00217 0.998916 0.990768
0.998672 1.00064 0.994052
1.00259 0.999092 0.992079
0.996266 1.00261 0.973244
0.994523 0.998923 0.986852
0.997125 0.996433 0.990318
1.00003 0.999831 0.995051
0.995537 1.00262 0.974938
0.994089 1.00096 0.986195
1.00424 0.993126 0.987709
1.00003 1.00178 0.992611
1.00007 1.00091 0.993392
1.00009 1.00004 0.994284
1.00004 1.001 0.993326
1.00003 1.00161 0.99286
1.00007 1.00167 0.992743
1.00007 1.00141 0.992966
1.00008 1.00124 0.993125
1.00007 1.001 0.993331
1.00007 1.00091 0.993375
1.0031 0.997658 0.990841
1.00281 0.996075 0.992396
1.00108 1.0015 0.990125
1.00013 1.00431 0.98992
0.999943 1.00475 0.989911
1.00011 1.00339 0.990934
1.00007 1.00226 0.992149
1.00005 1.00204 0.992364
1.00408 0.995572 0.990281
1.00003 1.00259 0.991803
1.00009 1.00301 0.991279
1.0019 1.00067 0.990098
1.00036 1.00399 0.989482
1.00006 1.00503 0.989482
1.00005 1.00434 0.990137
1.00369 0.997933 0.988993
1.00015 1.00468 0.989715
1.00002 1.00486 0.989564
1.00006 1.00256 0.991791
1.00012 1.003 0.991291
1.00018 1.00355 0.990615
1.00365 0.995939 0.985924
0.996762 0.998907 0.980028
0.996113 1.00284 0.97063
1.00023 1.00325 0.990826
1.00002 1.00411 0.990575
1.00203 1.00077 0.989569
0.999652 1.00496 0.990302
0.996528 0.998899 0.980403
0.995327 1.00188 0.977651
0.999888 0.999325 0.987594
1.00323 1.00068 0.988305
0.99391 0.999913 0.98676
1.00007 0.99593 0.990649
1.00275 0.996554 0.986432
1.00043 1.0033 0.990397
1.0025 0.995327 0.988867
1.01413 0.995029 0.97831
1.0005 1.00335 0.989897
0.999719 1.00361 0.991484
1.00347 1.00178 0.98898
0.99989 0.998202 0.991355
0.995482 1.00205 0.974071
0.996255 0.998631 0.987777
1.01215 0.989736 0.982414
1.00014 1.003 0.991207
1.01643 0.995716 0.977182
1.02238 0.988049 0.974797
0.999066 1.00336 0.9928
0.999256 0.997357 1.00198
0.995373 0.99974 0.976789
0.998249 0.999088 0.985279
1.01502 0.985981 0.983016
1.00042 1.00346 0.990147
1.00023 1.00402 0.990052
1.0002 1.00429 0.990121
1.00006 1.00162 0.992775
1.00011 1.00246 0.991832
1.00013 1.00294 0.991268
1.00002 1.00441 0.989997
1.00011 1.00238 0.991933
1.00009 1.00354 0.990843
0.999957 1.00498 0.98961
0.999979 1.00499 0.989742
1.00011 1.00437 0.989936
1.00018 1.003 0.991225
1.00011 1.0023 0.99199
1.00009 1.00255 0.991797
1.0002 1.00274 0.99134
1.0002 1.00282 0.991354
1.00006 1.00277 0.99161
1.00016 1.00304 0.991102
1.00012 1.00323 0.991031
1.00022 1.00322 0.990825
1.00015 1.00309 0.991129
1.00016 1.00287 0.99136
1.00003 1.00277 0.991545
1.00021 1.00243 0.991668
1.00015 1.00205 0.99224
0.999997 1.0024 0.99203
1.00013 1.00248 0.991774
1.00012 1.00196 0.992221
1.00011 1.00271 0.99158
1.0001 1.00205 0.992264
1.00012 1.00104 0.993208
1.00007 1.00198 0.992387
1.0001 1.0009 0.993384
1.00009 0.999477 0.994805
1.00008 1.00077 0.993563
1.0001 0.99937 0.994902
1.00002 0.997419 0.99742
1.0001 0.999295 0.99497
1.00005 0.997344 0.997214
1 0.996124 0.998433
1.00007 0.997276 0.997009
1.00002 0.996067 0.998894
1.00001 0.996048 0.999345
1.00012 1.00025 0.99406
1.00013 0.99888 0.995326
1.00011 1.00011 0.994201
1.00007 0.997015 0.997275
1.00013 0.998821 0.995381
1.00009 1.00005 0.994253
1.00001 0.9959 0.999408
1.00008 0.99698 0.997301
1.00014 0.99879 0.995411
1.00007 0.996997 0.997295
1.00001 0.995909 0.999408
0.999996 0.995953 0.9994
1.00301 0.995419 0.98827
0.996182 0.998259 0.982998
1.01435 0.993163 0.980358
1.00073 0.994774 0.989549
0.998681 1.00117 0.98831
1.0027 0.9987 0.991937
0.995901 1.00196 0.977966
0.994742 0.999587 0.982946
0.99687 0.99647 0.990726
1.00007 0.999837 0.992575
0.995336 1.00225 0.973383
0.994339 1.00067 0.983236
1.00441 0.993021 0.988011
1.00002 0.998645 0.995296
0.994899 1.00184 0.973751
0.996081 0.998582 0.986994
1.01349 0.986157 0.985146
1.00007 1.00218 0.992219
1.00004 1.00176 0.992683
1.00008 1.00092 0.993439
1.00002 1.00153 0.992912
1.00009 1.00195 0.992353
1.00008 1.00163 0.99279
1.00007 1.00135 0.992985
1.0001 1.00139 0.993016
1.00008 1.00122 0.993193
1.00007 1.00102 0.993263
1.00425 0.995846 0.989996
1.00184 1.00035 0.990013
1.00042 1.00431 0.989345
1.00008 1.00503 0.989365
1.00007 1.00436 0.990052
1.00011 1.00302 0.991208
1.00003 1.00261 0.991777
1.00006 1.00256 0.991817
1.00376 0.997837 0.989019
1.0001 1.00301 0.991331
1.00017 1.00368 0.990557
1.00015 1.00485 0.989572
1.00009 1.00484 0.989561
1.00272 1.00014 0.989117
0.999619 1.0051 0.990298
1.00026 1.00383 0.990155
1.00015 1.00281 0.991394
1.00026 1.00316 0.990817
1.01671 0.99711 0.976477
1.00366 0.995598 0.986878
0.99691 0.997885 0.983899
1.00038 1.00359 0.990364
0.999586 1.00353 0.991488
1.0005 1.00338 0.989968
1.00311 0.995811 0.987762
0.995118 1.00151 0.97303
0.999836 0.997812 0.995854
1.00434 1.00414 0.983277
0.995254 0.998887 0.984039
1.01399 0.995063 0.978566
1.0124 0.989713 0.981902
1.00015 1.00283 0.991307
1.01709 0.99619 0.975469
1.0227 0.987823 0.974703
0.999302 1.00312 0.992207
0.999358 0.998213 0.998171
0.995108 1.00108 0.974928
1.01552 0.986659 0.982133
0.998135 0.998703 0.98392
1.00001 1.00233 0.992082
1.02308 0.991926 0.970962
1.02567 0.984074 0.975834
1.01313 0.98822 0.983778
0.997014 1.00123 0.998087
0.995072 0.998669 0.979298
0.998317 1.00048 0.982915
1.00029 1.00388 0.99017
1.0002 1.0043 0.989974
0.999792 1.00448 0.990489
1.00011 1.00238 0.99193
1.0001 1.0035 0.990863
0.999955 1.00498 0.989572
1.00018 1.00298 0.991255
1.00011 1.00436 0.989934
1.00001 1.005 0.989544
0.999896 1.00455 0.990218
1.00029 1.0035 0.990424
1.0002 1.00281 0.991368
1.00006 1.00278 0.991618
1.00017 1.003 0.991133
1.00023 1.00321 0.990829
1.00013 1.00321 0.991015
1.00003 1.00364 0.990806
1.0001 1.00296 0.991347
1.00005 1.00373 0.990707
1.00016 1.0029 0.991355
1.00009 1.00281 0.991538
1.00022 1.00285 0.99107
1.00018 1.00225 0.991886
1.00013 1.00193 0.992347
1.00017 1.00245 0.991683
1.00016 1.00171 0.992494
1.00014 1.00207 0.992216
0.999971 1.0023 0.99223
1.00014 1.00246 0.991814
1.00013 1.00195 0.99226
1.00014 1.00109 0.993119
1.0001 1.00204 0.992271
1.00012 1.00103 0.993211
1.00009 0.999613 0.994678
1.0001 1.00091 0.993381
1.00009 0.999482 0.9948
0.999989 0.997512 0.997375
1.0001 0.999371 0.994899
1.00002 0.997425 0.997184
0.999967 0.99621 0.998417
1.00005 0.997336 0.996988
0.999994 0.996133 0.998887
1 0.996094 0.999341
1.00012 1.00041 0.993706
1.00012 0.998988 0.995067
1.00012 1.00025 0.994057
1.00007 0.997084 0.997225
1.00013 0.998889 0.99524
1.0001 1.00011 0.994065
1.00001 0.995926 0.9994
1.00007 0.99701 0.997276
1.00013 0.998824 0.995382
1.00001 0.995898 0.999409
1.00008 0.996979 0.997301
1.00001 0.995912 0.999406
1.01575 0.995709 0.977686
1.00288 0.995687 0.986993
0.996369 0.99833 0.981716
1.00014 1.00156 0.992671
1.02226 0.987223 0.976616
1.01451 0.992819 0.980652
1.00073 0.995168 0.988542
1.00009 0.999321 0.990187
0.995522 1.00267 0.975245
0.994571 1.00106 0.98674
1.00342 0.993026 0.988489
1.00007 0.998747 0.989567
0.994857 1.00204 0.97496
0.996804 0.998474 0.985088
1.012 0.988769 0.985211
0.999957 0.998124 0.988765
0.994815 1.00131 0.970927
0.999473 0.997451 0.98092
1.01544 0.984946 0.98316
1.00016 1.00239 0.991748
1.00007 1.00221 0.99217
1.00005 1.00173 0.992755
1.00012 1.00207 0.992174
1.0001 1.00191 0.992434
1.00008 1.00159 0.992837
1.0001 1.00136 0.993048
1.00008 1.0012 0.99326
1.00384 0.997714 0.989041
1.00014 1.00499 0.989429
1.00006 1.00255 0.991843
1.00017 1.00483 0.989558
1.00017 1.00377 0.9905
1.00008 1.00304 0.991371
1.00015 1.00281 0.991409
1.00277 1.0002 0.989158
1.00026 1.00317 0.990808
1.00027 1.00389 0.990119
0.999591 1.00509 0.990252
1.00022 1.00279 0.99133
1.00204 1.00048 0.990954
0.99955 1.00461 0.990927
1.00037 1.00298 0.99077
1.00025 1.00311 0.990986
1.02229 0.994595 0.970415
1.01646 0.996706 0.976538
1.00363 0.995322 0.987833
1.00016 1.00261 0.991407
0.999529 1.00281 0.99161
1.01774 0.996633 0.973757
0.994963 1.00004 0.976503
1.00018 0.998826 0.991114
0.998891 0.998463 0.981697
1.02292 0.987532 0.974609
1.01608 0.98728 0.98125
1.00002 1.00268 0.991927
1.02302 0.991868 0.970989
1.02567 0.983502 0.974926
0.996989 1.00204 0.99854
1.01163 0.990096 0.984248
0.994865 0.998793 0.978754
0.999124 0.999813 0.979781
0.998646 1.00296 0.994304
1.02436 0.990244 0.971266
1.02289 0.989113 0.973587
1.00381 0.994205 0.987123
0.999312 0.99806 0.981067
0.996621 0.998629 1.00549
0.994848 1.00031 0.974405
1.00017 1.00433 0.989828
0.999907 1.00437 0.990461
0.999463 1.00489 0.989987
1.00019 1.00294 0.991285
1.00012 1.00435 0.989932
1.00004 1.00501 0.989346
1.00027 1.00351 0.990438
0.999937 1.00453 0.990119
0.999764 1.0044 0.990619
1.00023 1.0032 0.990832
1.00014 1.0032 0.990999
1.00008 1.00362 0.99079
0.999841 1.00451 0.990308
1.00003 1.00283 0.991565
0.999985 1.00365 0.990798
1.00009 1.00401 0.990327
1.00045 1.00256 0.991084
1.00015 1.00284 0.991531
1.00025 1.00293 0.991003
1.0002 1.00199 0.992241
1.00002 1.002 0.9924
1.00019 1.00217 0.991963
1.00012 1.0016 0.99268
1.00013 1.00193 0.992334
1.00013 1.00246 0.991698
1.00016 1.00102 0.993162
1.00016 1.00171 0.992466
1.00013 1.00209 0.992192
1.00012 1.00194 0.992299
1.00015 1.00107 0.993126
1.00008 0.999735 0.994564
1.00013 1.00103 0.993214
1.00008 0.999617 0.994675
0.999967 0.997632 0.996855
1.00009 0.999487 0.994796
0.999998 0.997522 0.996908
0.999912 0.99631 0.999322
1.00003 0.99742 0.996955
0.999963 0.996218 0.998876
0.999976 0.996161 0.999335
1.00014 1.00057 0.993496
1.00011 0.99915 0.994919
1.00013 1.00042 0.993781
1.00005 0.997185 0.99716
1.00012 0.999006 0.99505
1.00012 1.00026 0.994053
0.999998 0.995979 0.999388
1.00006 0.997077 0.997228
1.00012 0.998899 0.995154
1.00001 0.995922 0.999403
1.00007 0.997005 0.997278
1.00001 0.995897 0.99941
1.02208 0.99255 0.972174
1.01586 0.995187 0.977742
1.00303 0.995637 0.986847
1.00014 1.00156 0.992693
1.00017 1.0017 0.992387
1.00014 1.00224 0.99209
1.02482 0.982202 0.978784
1.0227 0.986605 0.976506
1.01467 0.99247 0.980947
1.00008 0.99872 0.99449
0.995198 1.00235 0.973528
0.995488 0.998221 0.984006
1.01181 0.989973 0.984865
0.99988 0.998375 0.993335
0.99477 1.00056 0.975759
0.998317 0.998958 0.98435
1.01572 0.985713 0.982754
0.999201 0.996365 0.995711
0.994847 1.0007 0.977193
1.00002 1.00023 0.979908
1.01311 0.98707 0.984156
1.00019 1.00262 0.991527
1.00015 1.00242 0.991745
1.00007 1.00224 0.99212
1.00012 1.00208 0.992171
1.0001 1.00187 0.992515
1.00011 1.00134 0.99308
1.00283 1.0003 0.989199
0.999584 1.00505 0.990206
1.00014 1.0028 0.991425
1.00028 1.00393 0.990084
1.00025 1.00321 0.990799
1.00021 1.00275 0.991355
1.00026 1.00307 0.990936
1.00205 1.0001 0.990825
1.0004 1.00292 0.990873
0.999505 1.00452 0.991205
1.00023 1.00298 0.990951
0.99985 1.00283 0.992844
0.999854 1.00163 0.992843
1.00028 1.00326 0.990668
1.02337 0.992461 0.970472
1.02211 0.99408 0.970443
1.01618 0.996248 0.976598
1 1.00303 0.991772
0.997085 0.999605 0.999824
1.02298 0.991817 0.971015
0.995325 0.999117 0.988267
0.99971 1.00032 0.982603
1.02572 0.983026 0.974018
1.0114 0.991193 0.984005
0.998962 1.00269 0.993934
1.02413 0.990393 0.970966
1.02337 0.988525 0.973468
0.996592 0.999254 0.997658
1.00403 0.994053 0.98756
0.998169 0.999512 0.98402
0.994881 1.00019 0.978465
0.998946 1.00361 0.996405
1.02261 0.993933 0.969847
1.01475 0.99424 0.978576
0.997304 0.997397 0.989363
0.99598 0.998798 0.986494
0.995073 1.0003 0.977104
0.998436 0.996183 0.995834
1.00002 1.00426 0.990434
0.99949 1.00488 0.990079
0.999246 1.00504 0.990457
1.00025 1.00352 0.990453
0.999976 1.00452 0.99002
0.999731 1.00443 0.990601
0.999649 1.00508 0.990079
1.00013 1.00359 0.990774
0.999939 1.00452 0.990208
1.00001 1.00502 0.98954
0.999923 1.00356 0.990889
1.00011 1.00408 0.990261
1.00048 1.00372 0.990043
1.00057 1.00262 0.990886
1.00026 1.00196 0.991879
1.00042 1.00265 0.990996
1.00028 1.00302 0.990935
1.00018 1.0017 0.992564
1.00017 1.00187 0.992327
1.00002 1.00169 0.992715
1.00004 1.00197 0.992452
1.00019 1.00209 0.99204
1.00012 1.00098 0.993269
1.00013 1.00158 0.992685
1.00014 1.00194 0.99232
1.00007 0.999803 0.994513
1.00016 1.001 0.99317
1.00016 1.00171 0.992437
1.00015 1.00105 0.993132
1.00008 0.999733 0.994565
0.999938 0.997752 0.99679
1.00008 0.999621 0.994672
0.999969 0.997639 0.99685
0.999884 0.996444 0.99931
1 0.997525 0.996907
0.999924 0.996326 0.998859
0.999947 0.996247 0.999327
1.00015 1.00077 0.993402
1.0001 0.99931 0.994957
1.00014 1.00058 0.993559
1.00002 0.997315 0.997079
1.00011 0.999159 0.994997
1.00014 1.00042 0.993855
0.999976 0.996061 0.999372
1.00005 0.997175 0.997163
1.00012 0.999022 0.995033
1 0.995974 0.999392
1.00006 0.99707 0.99723
1.00001 0.995916 0.999406
1.0237 0.989136 0.97354
1.0222 0.992239 0.972251
1.01597 0.994726 0.977797
1.00019 1.0018 0.992262
1.00022 1.00215 0.991949
1.00014 1.00156 0.992715
1.00017 1.00173 0.992362
1.00015 1.00225 0.992002
1.00018 1.00236 0.991817
1.00016 1.00266 0.991558
1.0212 0.987875 0.976939
1.02482 0.981801 0.977907
1.02314 0.9859 0.976396
1.01602 0.986374 0.982348
0.999815 0.99843 0.988825
0.994747 1.00029 0.980017
0.998494 0.999423 0.980968
0.998855 0.99697 0.992893
0.994834 0.999496 0.974374
0.999576 0.999658 0.978767
1.01228 0.988025 0.984044
0.9971 0.99748 0.997301
0.99547 1.00015 0.972747
0.999903 0.998128 0.98418
1.00571 0.993529 0.985552
1.00026 1.00279 0.991236
1.00019 1.00264 0.991506
1.00015 1.00244 0.991742
1.00012 1.00209 0.992168
1.00206 1.00017 0.990694
0.9994 1.00451 0.991484
1.0002 1.00271 0.99138
1.00027 1.00305 0.990885
1.00044 1.00286 0.990976
1.00023 1.00302 0.990969
1.00031 1.00323 0.990609
0.999426 1.00298 0.993893
0.999824 1.00153 0.993175
1.00026 1.00363 0.990468
0.997654 1.00354 0.998003
1.0002 1.0039 0.990385
1.022 0.995988 0.969504
1.02316 0.992326 0.970379
1.02193 0.993595 0.970471
0.999302 1.00243 0.993574
0.996535 0.998308 1.00483
1.02386 0.990528 0.970665
0.994808 1.00032 0.974116
0.997627 0.999996 0.981301
1.02386 0.987819 0.973349
1.00307 0.994202 0.987858
0.998773 1.0037 0.996182
1.02273 0.993739 0.969881
1.01487 0.994001 0.97887
0.998356 0.996004 1.00299
0.996956 0.997311 0.989857
0.996717 0.999075 0.984536
0.995006 1.00025 0.976721
1.00053 1.00136 0.995645
1.01627 0.996782 0.975758
1.00164 0.995279 0.988534
0.994274 1.00159 0.985035
0.994989 1.00146 0.975521
0.999173 0.995493 0.991008
0.999537 1.00487 0.99017
0.999251 1.00504 0.990442
0.999785 1.00493 0.989948
0.9997 1.00446 0.990582
0.999532 1.00511 0.99017
1.00013 1.005 0.989318
1.00005 1.00454 0.990109
1.00007 1.00504 0.989411
1.00052 1.00424 0.989325
1.00013 1.00411 0.990194
1.00049 1.00377 0.989913
1.00066 1.00301 0.990277
1.00078 1.00191 0.99107
1.00053 1.00208 0.991534
1.00056 1.00263 0.990842
1.00019 1.00159 0.992395
1.00027 1.00197 0.991942
1.0004 1.00274 0.990909
1.00012 1.00158 0.992722
1.00016 1.00171 0.992539
1.00014 1.00175 0.992413
1.00006 1.00107 0.993285
1.00003 1.00167 0.992739
1.00005 1.00195 0.992504
1.00004 0.999857 0.994521
1.00013 1.00096 0.993275
1.00014 1.00155 0.992689
0.999918 0.997864 0.996745
1.00007 0.9998 0.994517
1.00017 1.00098 0.993177
1.00008 0.999731 0.994566
0.999937 0.997761 0.996787
0.999847 0.996568 0.999295
0.99997 0.997647 0.996846
0.99988 0.996454 0.999305
0.999913 0.996349 0.999315
1.0002 1.00183 0.992267
1.00017 1.00096 0.99317
1.00008 0.9995 0.994796
1.00015 1.00077 0.993402
0.999995 0.997467 0.996985
1.0001 0.999309 0.99496
1.00014 1.00059 0.993621
0.999947 0.996172 0.999351
1.00002 0.997306 0.997083
1.00011 0.99917 0.995075
0.99998 0.996051 0.999377
1.00005 0.997166 0.997167
1 0.995967 0.999396
1.02209 0.993203 0.97123
1.02354 0.989277 0.972974
1.02232 0.991945 0.972329
1.00018 1.00182 0.992284
1.00022 1.00216 0.991917
1.00021 1.00208 0.991976
1.00021 1.00222 0.991825
1.00022 1.00236 0.991765
1.00017 1.00176 0.992336
1.00015 1.00225 0.991914
1.00017 1.00235 0.991825
1.00017 1.00263 0.991532
1.00018 1.00273 0.991457
1.01324 0.996562 0.97847
1.02149 0.987789 0.976789
1.02485 0.981457 0.977029
1.01244 0.987699 0.983664
1.00094 0.999844 0.981162
0.998614 0.996789 0.990889
0.994873 0.999593 0.976918
0.996686 0.997769 0.992256
0.994867 1.00011 0.976202
0.999144 0.998065 0.983013
1.00499 0.994709 0.986255
0.995412 1.00006 0.993196
0.994941 0.999569 0.977238
0.99574 0.999332 0.983484
0.998539 0.995029 0.990661
1.00011 1.00283 0.99143
1.00022 1.00286 0.991231
1.00019 1.00264 0.991484
0.999144 1.00267 0.994942
0.999769 1.00137 0.993508
1.00023 1.00304 0.990987
1.00034 1.00321 0.99055
1.00022 1.00361 0.99051
0.999996 1.00407 0.99028
0.997493 1.00298 0.998016
0.999654 1.00452 0.990296
0.998717 1.00497 0.994296
1.01635 0.998485 0.975753
1.02181 0.995459 0.969606
1.02299 0.992229 0.970287
0.998586 1.00367 0.995987
0.998249 0.996011 0.994231
1.02285 0.993555 0.969916
0.995078 1.00019 0.970745
0.995487 0.998545 0.983588
1.015 0.993775 0.979164
0.996578 0.997205 0.99035
1.00044 1.00149 0.995839
1.01639 0.996348 0.975768
1.00085 0.995284 0.98888
0.999396 0.995382 0.994414
0.9943 1.00146 0.982701
0.994964 1.00103 0.972507
1.00174 0.999989 0.993175
1.0034 0.995925 0.98716
0.995179 0.998752 0.981892
0.995089 1.00209 0.973352
0.999868 0.997419 0.992318
0.999271 1.00504 0.990427
0.999693 1.00498 0.989918
1.00049 1.00429 0.989586
0.999425 1.00514 0.99026
1.00005 1.00498 0.989369
1.00092 1.00323 0.989489
1.00013 1.00506 0.989282
1.0005 1.00414 0.989365
1.00102 1.00206 0.990613
1.00051 1.00383 0.989783
1.00069 1.0028 0.990335
1.001 1.0012 0.991347
1.00107 1.00073 0.991634
1.00068 1.00174 0.991389
1.0008 1.0018 0.991101
1.00038 1.00173 0.992071
1.00049 1.00213 0.991434
1.00054 1.00264 0.990797
1.00017 1.00137 0.992778
1.0002 1.00157 0.99246
1.00028 1.00199 0.992004
1.00004 1.00118 0.993225
1.0001 1.00157 0.992722
1.00014 1.00172 0.992514
0.999975 0.999983 0.994508
1.00007 1.00107 0.993284
1.00004 1.00164 0.992764
0.999862 0.997949 0.997217
1.00004 0.999857 0.994524
1.00014 1.00094 0.99328
0.999825 0.996685 0.998303
0.999905 0.99787 0.996986
1.00007 0.999797 0.994522
0.999937 0.99777 0.996784
0.999844 0.996574 0.999291
0.999877 0.996463 0.999301
1.00021 1.00181 0.992244
1.00019 1.00111 0.993013
1.0002 1.00185 0.992243
1.00007 0.999699 0.994619
1.00017 1.00097 0.993168
0.999964 0.997623 0.996889
1.00008 0.999492 0.994801
1.00015 1.00078 0.993402
0.999911 0.996306 0.999329
0.999992 0.997456 0.996989
1.0001 0.999308 0.994963
0.999951 0.996159 0.999358
1.00002 0.997296 0.997086
0.999983 0.996043 0.999381
1.01634 0.998627 0.973392
1.02209 0.993133 0.971308
1.02335 0.989388 0.972408
1.00023 1.00193 0.992121
1.00018 1.00184 0.992306
1.00022 1.00216 0.991885
1.0002 1.00224 0.991872
1.00022 1.00209 0.992009
1.00021 1.0023 0.99179
1.00024 1.00229 0.991747
1.00017 1.0025 0.991621
1.00017 1.00234 0.991834
1.00018 1.00261 0.991507
1.00017 1.00274 0.991464
1.00025 1.00288 0.991366
1.00022 0.995042 0.991611
1.01294 0.996698 0.978781
1.02182 0.98771 0.976639
1.00325 0.996261 0.986963
0.999271 0.997618 0.981273
0.995416 1.00012 0.972792
0.996042 0.997623 1.00019
0.995152 0.999967 0.999448
0.997524 0.995682 0.991135
0.994982 1.00039 0.972372
0.996418 0.998069 0.987201
0.996227 1.00027 0.997879
0.994845 0.999809 0.978103
0.994077 0.999755 0.987297
0.999814 1.00284 0.991971
1.00019 1.00276 0.991434
1.00018 1.00295 0.991226
0.997366 1.00241 0.998041
0.99988 1.00417 0.990173
1.00017 1.00361 0.990552
0.99974 1.00456 0.990342
0.998614 1.00493 0.994347
0.999391 1.00243 0.993752
1.00261 0.995675 0.98964
1.01646 0.998594 0.973901
1.02161 0.994935 0.969708
1.00032 1.00165 0.996048
0.999408 0.995744 0.996531
1.01652 0.995958 0.975777
0.994977 0.999987 0.979372
0.99459 1.00178 0.986001
1.00078 0.995503 0.987952
1.00174 0.999965 0.993439
1.00325 0.996122 0.98602
0.994629 0.999104 0.986568
0.999854 0.997354 0.988599
0.994963 1.00214 0.974629
1.00279 0.999531 0.990118
0.996408 0.996804 0.985368
0.995391 1.00273 0.97481
0.999884 0.99848 0.988267
0.999622 1.00503 0.989888
1.0003 1.00414 0.989556
1.00109 1.002 0.990105
0.999947 1.00496 0.98942
1.00096 1.00306 0.989513
1.0018 0.999531 0.991635
1.00046 1.00403 0.989406
1.00101 1.00178 0.990687
1.00144 0.999309 0.992397
1.00072 1.0026 0.990393
1.00103 1.00104 0.991378
1.00134 0.999425 0.992389
1.00121 0.999723 0.992366
1.00095 1.00092 0.991706
1.00107 1.00065 0.991701
1.00053 1.00147 0.991841
1.00068 1.00171 0.991458
1.00082 1.00169 0.991132
1.00024 1.00139 0.992644
1.00033 1.00173 0.992063
1.00044 1.00218 0.991334
1.00006 1.00116 0.993211
1.00018 1.00137 0.992771
1.0002 1.00156 0.992525
0.999911 1.00022 0.994415
1.00005 1.00116 0.993231
1.00008 1.00157 0.992722
0.999809 0.998074 0.996722
0.999981 0.999991 0.994506
1.00008 1.00107 0.993284
0.999747 0.996775 0.99928
0.999864 0.997957 0.996728
1.00004 0.999856 0.994527
0.999809 0.996687 0.99928
0.999903 0.997876 0.996742
0.99984 0.996579 0.999286
1.0002 1.00176 0.992399
1.0002 1.00183 0.992264
1.00018 1.00119 0.992937
1.00006 0.999874 0.994451
1.00018 1.00112 0.993008
1.0002 1.00187 0.992219
0.99993 0.997784 0.996792
1.00007 0.999688 0.994623
1.00017 1.00098 0.993165
0.999871 0.996447 0.999307
0.999961 0.997612 0.996894
1.00008 0.999482 0.994806
0.999916 0.99629 0.999336
0.999989 0.997446 0.996994
0.999955 0.996145 0.999364
1.00184 0.994908 0.991921
1.01645 0.998669 0.973435
1.02209 0.993075 0.971385
1.00023 1.00194 0.992094
1.00019 1.00188 0.99233
1.00028 1.002 0.99195
1.0002 1.00226 0.99192
1.00023 1.00209 0.992041
1.00021 1.00225 0.991814
1.00018 1.00249 0.991641
1.00024 1.00227 0.991775
1.00013 1.00268 0.991576
1.00017 1.00268 0.991482
1.00016 1.00274 0.991472
1.00019 1.00286 0.991383
0.994231 0.998615 0.987419
0.999557 0.994709 0.992506
1.01273 0.996808 0.979092
0.996613 0.996198 0.991611
0.995851 0.998271 0.983904
0.994866 1.00014 0.980682
0.994895 1.00014 0.99326
0.996188 1.00029 0.991896
0.994012 0.999214 0.98418
0.994809 1.00004 0.978717
0.997929 0.997427 0.991883
0.994859 1.00108 0.975487
0.999773 1.00402 0.991302
0.999931 1.00262 0.991981
1.00027 1.00268 0.99144
0.998363 1.00493 0.994413
0.999813 1.00459 0.990387
1.00003 1.00243 0.993724
1.00154 0.999945 0.993283
0.997034 0.997765 0.982546
1.00301 0.995751 0.988562
1.01655 0.998648 0.972048
1.00192 0.999942 0.993664
0.999857 0.997398 0.993968
1.00345 0.996185 0.98582
0.995106 1.00235 0.973203
0.994926 0.999794 0.982609
1.00277 0.999544 0.990808
0.99657 0.997899 0.982712
0.995423 1.00221 0.973309
0.999779 0.998457 0.992919
1.00295 0.999597 0.989269
0.995871 1.00272 0.968981
0.999898 0.998477 0.995248
1.00009 1.00392 0.989526
1.00095 1.00237 0.990027
1.00228 0.997851 0.991748
1.00099 1.00291 0.989537
1.00177 0.999299 0.991641
1.00215 0.996515 0.993865
1.00099 1.00152 0.99076
1.00147 0.999111 0.992402
1.00179 0.997457 0.993462
1.00105 1.00087 0.991409
1.00134 0.999391 0.992384
1.00146 0.998542 0.992971
1.00131 0.999225 0.992756
1.00121 0.999639 0.992447
1.00109 1.00007 0.992264
1.00084 1.00089 0.991955
1.00094 1.00094 0.991722
1.00106 1.00058 0.991767
1.00041 1.00124 0.992327
1.00054 1.00149 0.99191
1.00068 1.00167 0.991527
1.00011 1.00114 0.993142
1.00024 1.00139 0.992636
1.00029 1.00174 0.992055
0.999873 1.00043 0.994287
1.00008 1.00113 0.993217
1.00019 1.00138 0.992765
0.999728 0.998278 0.996675
0.999921 1.0002 0.994417
1.00006 1.00115 0.993237
0.999706 0.996917 0.999273
0.999807 0.99809 0.99672
0.999986 0.999997 0.994504
0.999758 0.99678 0.998787
0.999864 0.99797 0.996729
0.999798 0.996684 0.999277
1.00016 1.0017 0.992536
1.0002 1.00175 0.992348
1.00016 1.00125 0.992914
1.0002 1.00185 0.992283
1.00018 1.0012 0.992932
1.00006 1.00002 0.99432
0.999898 0.997936 0.996697
1.00007 0.999866 0.994452
1.00018 1.00113 0.993004
0.999831 0.996593 0.999285
0.999928 0.997771 0.996798
1.00008 0.999678 0.994626
0.999876 0.996433 0.999314
0.999957 0.997602 0.9969
0.999921 0.996275 0.999342
0.995778 0.998516 0.982565
1.00161 0.995096 0.991514
1.01652 0.99871 0.973478
1.00024 1.00194 0.992067
1.00026 1.00202 0.991952
1.00017 1.00186 0.992354
1.00012 1.00189 0.992436
1.00019 1.00208 0.992089
1.00019 1.00248 0.99166
1.00024 1.00224 0.991803
1.00011 1.00265 0.991595
1.00004 1.0022 0.99201
1.00007 1.00274 0.9915
1.00029 1.00334 0.991148
1.00013 1.00287 0.991421
1.00013 1.00284 0.991398
0.995766 1.00166 0.970726
0.994467 0.999504 0.985492
0.999552 0.994913 0.991764
0.993953 0.998576 0.987936
0.994869 1.00007 0.972286
0.9962 1.00033 0.998148
0.99821 0.997746 0.994602
0.994889 1.00033 0.977281
1.0008 0.997096 0.991888
1.00151 1.003 0.988915
0.99969 1.00396 0.991224
1.00003 1.00242 0.99199
1.00064 1.00223 0.993678
1.00164 0.998858 0.993244
0.996311 1.00146 0.971676
0.996857 0.997951 0.980832
1.00341 0.995913 0.987482
1.00277 0.999514 0.991521
0.999696 0.998665 0.988387
0.996753 0.997926 0.981343
0.99543 1.00241 0.975268
1.00306 0.9997 0.989252
0.99656 1.00201 0.973263
0.999909 0.998621 0.989615
1.00364 0.997703 0.989385
1.00007 0.999578 0.995256
1.00084 1.00281 0.989947
1.00234 0.99803 0.991668
1.00299 0.995319 0.993225
1.00171 0.999063 0.991648
1.00204 0.996498 0.993843
1.00223 0.99578 0.994201
1.00151 0.998883 0.992408
1.00177 0.997498 0.993408
1.0018 0.997439 0.993405
1.00134 0.999363 0.99238
1.00147 0.998602 0.992929
1.00148 0.998648 0.992894
1.00126 0.999136 0.992845
1.00123 0.999602 0.992519
1.00121 0.999555 0.992528
1.0011 1.00007 0.992249
1.00103 1.00029 0.992174
1.00067 1.00085 0.992214
1.00084 1.00091 0.99194
1.00093 1.00096 0.991738
1.00024 1.00107 0.992959
1.0004 1.00127 0.992369
1.00055 1.00151 0.991979
0.99985 1.00063 0.994133
1.00012 1.00113 0.99314
1.00025 1.0014 0.992628
0.999651 0.998516 0.996583
0.99989 1.0004 0.994292
1.00009 1.00111 0.993222
0.999628 0.997082 0.999267
0.99973 0.998297 0.996671
0.99993 1.00019 0.994419
0.999691 0.996916 0.999272
0.999807 0.998106 0.996718
0.999746 0.996784 0.999274
1.0001 1.00177 0.99254
1.00014 1.0017 0.99254
1.0001 1.00133 0.99288
1.0002 1.00175 0.992298
1.00015 1.00126 0.992875
1.00003 1.00017 0.994228
1.00017 1.00121 0.992927
1.00006 1.00001 0.994319
0.999865 0.998076 0.996619
0.99979 0.996732 0.999264
0.999898 0.997921 0.996702
1.00007 0.999858 0.994453
0.999835 0.996582 0.999292
0.999925 0.997759 0.996804
0.999881 0.996419 0.99932
0.996059 1.00226 0.974668
0.995826 0.998422 0.984689
1.0017 0.994771 0.992181
1.00024 1.00205 0.991954
1.00015 1.00185 0.992378
1.00019 1.00208 0.992102
1.00012 1.00188 0.992433
1.00007 1.00201 0.992409
1.00006 1.00204 0.992268
1.0001 1.00262 0.991615
1.00007 1.00229 0.991981
1.00001 1.00288 0.99151
1.00008 1.00211 0.991999
1.00064 1.00265 0.991398
1.0011 1.00309 0.989371
1.00025 1.00294 0.991114
1.0001 1.00305 0.991359
1.00001 0.999103 0.993577
0.995145 1.00203 0.974622
0.994689 0.999232 0.982685
0.994827 1.00112 0.97555
0.998579 0.997889 0.997596
1.00066 0.997432 0.994935
1.00398 0.99816 0.989593
1.00109 1.00257 0.989288
0.999599 1.00388 0.991142
1.00168 0.998332 0.993212
0.998645 1.00166 0.988233
0.996561 1.00205 0.974062
0.996862 0.997128 0.984606
1.00314 0.999828 0.98924
0.99986 0.998595 0.994253
0.996228 1.00118 0.977837
1.00375 0.99749 0.989439
1.0001 0.999659 0.992649
1.00385 0.995519 0.990875
1.00272 0.999456 0.991212
1.00233 0.998239 0.991589
1.0029 0.995349 0.993255
1.00257 0.996053 0.993352
1.00195 0.99652 0.99382
1.00218 0.995973 0.99415
1.00215 0.997016 0.99312
1.00173 0.997565 0.993354
1.00177 0.997578 0.993352
1.00179 0.998351 0.992595
1.00147 0.998667 0.992888
1.00142 0.998719 0.99291
1.00136 0.999386 0.992394
1.00122 0.999056 0.992935
1.00121 0.999523 0.992572
1.00118 0.999985 0.992249
1.00111 1.00008 0.992233
1.00103 1.0003 0.992159
1.0009 1.00044 0.992299
1.00043 1.0008 0.992713
1.00066 1.00088 0.992253
1.00084 1.00093 0.991925
0.999879 1.00078 0.993925
1.00024 1.00107 0.992959
1.00039 1.0013 0.99241
0.999574 0.998781 0.996458
0.999876 1.00058 0.994134
1.00013 1.00112 0.993137
0.999548 0.997295 0.999247
0.999653 0.998539 0.996578
0.999905 1.00036 0.994296
0.999613 0.997095 0.999261
0.999732 0.998314 0.996666
0.999677 0.996917 0.999271
1.00008 1.00184 0.992529
1.00011 1.00176 0.992574
1.00004 1.00146 0.992897
1.00013 1.00171 0.992543
1.00009 1.00135 0.992884
0.999973 1.00037 0.994149
1.00015 1.00127 0.992837
1.00003 1.00017 0.994226
0.999815 0.998237 0.996558
1.00006 1 0.994318
0.999868 0.998058 0.996623
0.999743 0.996862 0.999248
0.999795 0.996727 0.99927
0.999898 0.997906 0.996708
0.999839 0.99657 0.999298
0.999296 0.9999 0.992153
0.995784 1.00183 0.972824
0.995963 0.998922 0.981304
1.00021 1.00191 0.992248
1.00019 1.00208 0.992115
1.00011 1.00187 0.99243
1.00009 1.00207 0.992266
1.00005 1.00204 0.992393
0.999999 1.00181 0.992569
1.0001 1.00241 0.991952
0.999992 1.00305 0.99152
1.00015 1.00214 0.992057
1.00042 1.00255 0.991542
1.00106 1.00196 0.990534
1.00257 1.00131 0.98807
1.00107 1.00291 0.989396
1.00025 1.00261 0.99108
1.00414 0.997185 0.989019
0.999921 0.999257 0.991397
0.995168 1.00179 0.978551
1.00052 0.997592 0.989859
1.00393 0.998601 0.988485
1.00075 1.00194 0.989668
1.00224 1.00021 0.992865
0.998674 1.0014 0.993114
0.996287 1.00143 0.97189
1.00403 0.99732 0.989486
1.00013 0.999192 0.990158
1.00397 0.995656 0.990636
1.0027 0.999129 0.991714
1.003 0.997071 0.990606
1.00203 0.99922 0.990156
1.00285 0.995308 0.993285
1.0025 0.996083 0.993397
1.00222 0.997985 0.992172
1.00216 0.996159 0.9941
1.00213 0.997179 0.993085
1.00203 0.998494 0.991975
1.00175 0.997719 0.993299
1.00171 0.998423 0.992671
1.00163 0.999359 0.991858
1.00137 0.998787 0.992927
1.00135 0.999396 0.992396
1.00128 0.999881 0.99205
1.00119 0.999441 0.992625
1.00116 0.999922 0.992272
1.00104 1.00022 0.992216
1.00103 1.00031 0.992145
1.00089 1.00044 0.992264
1.00066 1.00054 0.992648
0.999994 1.00074 0.993724
1.00042 1.00082 0.992758
1.00065 1.00092 0.992291
0.999513 0.999082 0.996263
0.9999 1.00073 0.993928
1.00024 1.00107 0.992958
0.999466 0.997532 0.99922
0.999581 0.998805 0.996452
0.9999 1.00054 0.994135
0.999533 0.997312 0.99924
0.999655 0.998561 0.996573
0.999599 0.997106 0.999256
1.00014 1.00179 0.992392
1.00008 1.00182 0.992534
1.00004 1.00153 0.992906
1.00012 1.00176 0.992607
1.00004 1.00148 0.992922
0.999905 1.00061 0.994049
1.00008 1.00138 0.992887
0.999966 1.00038 0.994146
0.999743 0.998452 0.996492
1.00003 1.00017 0.994224
0.999819 0.998216 0.996561
0.99968 0.997009 0.999234
0.999871 0.998039 0.996627
0.999751 0.996862 0.999252
0.9998 0.996722 0.999276
1.00309 0.996946 0.991559
0.999261 1.0005 0.988017
0.996109 1.00183 0.974368
1.00021 1.00161 0.992394
1.00062 1.00157 0.991781
1.00011 1.00193 0.992287
1.00011 1.00208 0.992264
1.00004 1.00207 0.992377
1.00008 1.00181 0.992528
1.00098 1.00146 0.991102
1.0002 1.00218 0.992115
1.00011 1.00246 0.991686
1.001 1.00197 0.990547
1.00222 1.00082 0.98905
1.00307 0.99851 0.989765
1.00261 1.00115 0.988187
1.00108 1.00264 0.989422
1.00405 0.997183 0.989153
0.999764 0.999799 0.988719
1.00391 0.999272 0.987365
1.00169 0.99891 0.992062
1.00218 0.999569 0.993007
0.998753 1.00135 0.987692
1.00397 0.995798 0.990397
1.00271 0.998748 0.992201
1.00309 0.997112 0.990766
1.00213 0.999366 0.990458
1.00216 0.999325 0.990884
1.00173 0.999278 0.991799
1.00242 0.996059 0.993442
1.00219 0.997939 0.992211
1.00213 0.999214 0.991084
1.0021 0.997295 0.993051
1.00199 0.998544 0.99199
1.00191 0.999343 0.991273
1.00163 0.998484 0.992746
1.00163 0.999365 0.991858
1.00153 0.999861 0.99157
1.00134 0.999405 0.992399
1.00129 0.999878 0.992048
1.00116 1.00017 0.992011
1.00115 0.999858 0.992296
1.00103 1.0002 0.992219
1.00079 1.00038 0.992537
1.00088 1.00044 0.99223
1.00064 1.00053 0.992629
1.00015 1.00058 0.993572
0.999504 0.999364 0.996033
1 1.00072 0.99373
1.00042 1.00085 0.992803
0.999388 0.997793 0.99918
0.999527 0.999102 0.996256
0.999922 1.0007 0.993931
0.999452 0.997552 0.99921
0.999587 0.998829 0.996446
0.999518 0.99733 0.999232
1.00031 1.00168 0.992027
1.00014 1.00176 0.99235
1.00013 1.00146 0.992812
1.00008 1.0018 0.992538
1.00003 1.00153 0.992904
0.999857 1.00083 0.99393
1.00004 1.00149 0.992947
0.999891 1.00063 0.994047
0.999653 0.998725 0.996405
0.999959 1.00039 0.994142
0.999745 0.99843 0.996495
0.999599 0.997199 0.999217
0.999824 0.998195 0.996564
0.999694 0.997007 0.999238
0.99976 0.996864 0.999257
1.00247 0.997648 0.991862
1.0031 0.997329 0.991986
0.999286 1.00088 0.993199
1.00105 1.00116 0.991508
1.00012 1.00158 0.992616
1.00102 1.00114 0.991008
1.00062 1.00158 0.991743
1 1.00196 0.992326
1.00206 1.00056 0.989857
1.00016 1.00181 0.992488
1.00102 1.00136 0.991106
1.00282 0.998945 0.989819
1.00096 1.00196 0.99056
1.00234 1.00085 0.98892
1.00308 0.998505 0.98971
1.00259 1.001 0.988303
1.00393 0.997201 0.989287
1.00163 0.998933 0.992499
1.00163 0.998678 0.992045
1.00212 0.998956 0.993156
1.00317 0.997164 0.990926
1.00223 0.999551 0.990757
1.00229 0.999181 0.990859
1.00172 0.999324 0.991843
1.00173 0.999562 0.991507
1.00217 0.99794 0.992249
1.00214 0.999116 0.991132
1.00204 0.999555 0.990895
1.00195 0.998605 0.992006
1.00191 0.999397 0.991255
1.0018 0.999827 0.991069
1.00163 0.999371 0.991857
1.00154 0.999857 0.991561
1.00137 1.00013 0.991627
1.00129 0.999875 0.992047
1.00116 1.00017 0.992008
1.00092 1.00033 0.992319
1.00101 1.00018 0.992222
1.00078 1.00038 0.992539
1.00029 1.00045 0.993421
1.00062 1.00053 0.992609
1.00014 1.00058 0.993578
0.999505 0.999581 0.996399
0.999338 0.998172 0.997874
0.999519 0.999353 0.996318
1.00001 1.00069 0.993736
0.999376 0.99782 0.999162
0.99954 0.999122 0.996248
0.999438 0.99757 0.999199
1.00133 1.00052 0.991198
1.00056 1.00153 0.991665
1.00036 1.00167 0.991977
1.00026 1.00134 0.99266
1.00014 1.00173 0.992308
1.00011 1.00145 0.992818
0.999847 1.00096 0.993823
1.00002 1.00154 0.992903
0.999838 1.00086 0.993927
0.999563 0.999023 0.996294
0.999878 1.00065 0.994044
0.999653 0.9987 0.996409
0.999503 0.997437 0.999194
0.999748 0.998408 0.996499
0.999618 0.997188 0.999222
0.999708 0.997005 0.999242
1.00231 0.99838 0.991532
1.00242 0.997744 0.991755
1.00314 0.997713 0.992411
1.00188 1.00039 0.990329
1.00088 1.00117 0.991719
1.00001 1.00155 0.992838
1.00114 1.00108 0.99111
1.00063 1.00159 0.991705
1.00263 0.999465 0.989739
1.00208 1.00061 0.989736
1.00105 1.00129 0.99111
1.00287 0.998951 0.989777
1.00249 1.00085 0.988791
1.00309 0.998498 0.989654
1.00137 0.999404 0.992202
1.00158 0.998931 0.992453
1.00156 0.998398 0.992028
1.00242 0.999038 0.990836
1.00169 0.999353 0.991887
1.00175 0.999534 0.991517
1.00164 0.999824 0.991404
1.00215 0.999015 0.991181
1.00207 0.999504 0.990875
1.00188 0.999702 0.990994
1.00191 0.999449 0.991236
1.0018 0.999826 0.991059
1.0016 1.00006 0.991224
1.00154 0.999854 0.991552
1.00138 1.00012 0.991618
1.0011 1.00028 0.992001
1.00116 1.00017 0.992006
1.00092 1.00033 0.992318
1.00043 1.00039 0.993206
1.00078 1.00038 0.992542
1.00028 1.00046 0.993424
0.999513 0.999781 0.996199
1.00014 1.00058 0.993584
0.999528 0.999576 0.996365
0.999239 0.998581 0.997682
0.999317 0.998143 0.998486
0.999534 0.999346 0.996598
0.999363 0.997848 0.999144
1.0019 1.00011 0.990571
1.00099 1.001 0.991617
1.00124 1.00041 0.991529
1.00041 1.00133 0.992355
1.00063 1.00153 0.991663
1.00041 1.00166 0.991927
1.00024 1.00137 0.992666
0.99988 1.00103 0.993692
1.0001 1.00145 0.992824
0.999828 1.00099 0.99382
0.999487 0.999318 0.996155
0.99982 1.00089 0.993925
0.999558 0.999 0.996298
0.999397 0.99771 0.999165
0.999653 0.998675 0.996413
0.999525 0.997414 0.999201
0.999636 0.997177 0.999227
1.00213 0.999164 0.991055
1.00228 0.998424 0.991531
1.00237 0.99786 0.991649
1.00238 0.999557 0.99001
1.00188 1.00041 0.990344
1.00073 1.00119 0.99193
1.00127 1.00101 0.991212
1.00265 0.999479 0.989731
1.00211 1.00065 0.989615
1.00291 0.998957 0.989735
1.00146 0.999776 0.991758
1.00146 0.999456 0.992051
1.00155 0.998941 0.992408
1.00154 1.00013 0.991314
1.00179 0.999508 0.991527
1.00164 0.99984 0.991379
1.00171 0.999846 0.991261
1.0021 0.999458 0.990856
1.00189 0.999699 0.990997
1.00169 1.00001 0.991088
1.00181 0.999826 0.991048
1.0016 1.00006 0.991222
1.00129 1.00022 0.991688
1.00138 1.00012 0.99161
1.0011 1.00028 0.991996
1.00058 1.00037 0.992931
1.00092 1.00032 0.992317
1.00042 1.0004 0.993202
0.999526 0.999933 0.996032
1.00027 1.00046 0.993427
0.99954 0.999767 0.996168
0.999126 0.998973 0.997543
0.99955 0.999574 0.99633
0.999228 0.998558 0.99771
0.999293 0.99811 0.999107
1.00222 0.999925 0.990207
1.0016 1.00033 0.990998
1.00183 1.00018 0.990688
1.00074 1.00104 0.99213
1.00097 1.00095 0.991606
1.00114 1.0003 0.99186
0.999993 1.00109 0.993407
1.00041 1.00133 0.992355
1.0007 1.00154 0.991661
1.00021 1.00139 0.992671
0.999859 1.00106 0.993688
0.999447 0.999615 0.995943
0.99981 1.00101 0.993816
0.999474 0.999306 0.996158
0.999285 0.998019 0.999126
0.999553 0.998977 0.996302
0.999421 0.997679 0.999174
0.999547 0.997393 0.999208
1.00208 0.999444 0.990891
1.00222 0.999144 0.990945
1.00224 0.998464 0.991531
1.00247 0.999509 0.989956
1.00187 1.00044 0.990358
1.00269 0.999493 0.989723
1.00153 1.00011 0.991314
1.00143 0.999832 0.991774
1.00155 0.999509 0.991901
1.00153 1.00015 0.9913
1.00153 1.00032 0.991146
1.00164 0.999855 0.991353
1.00169 0.999854 0.991262
1.00164 1.00004 0.991254
1.0019 0.999696 0.991001
1.0017 0.999994 0.9911
1.00138 1.0002 0.991511
1.0016 1.00006 0.991219
1.00129 1.00022 0.991683
1.00071 1.00033 0.992695
1.00111 1.00028 0.991992
1.00058 1.00037 0.992923
0.999551 1.00003 0.995895
1.00042 1.00041 0.993199
0.999554 0.999924 0.996002
0.999013 0.999328 0.997433
0.999566 0.999754 0.996136
0.999117 0.998954 0.997568
0.999216 0.998533 0.997739
1.00213 0.999398 0.99085
1.00194 1.00006 0.990549
1.00225 0.999877 0.990167
1.00118 1.00056 0.991639
1.00158 1.00037 0.991052
1.00175 1.00024 0.990805
1.00024 1.00092 0.99304
1.00073 1.00102 0.992021
1.00096 1.0009 0.991594
0.999467 0.999918 0.995603
0.999984 1.00109 0.993406
1.00041 1.00133 0.992354
0.999836 1.00109 0.993685
0.999418 0.999631 0.995948
0.999173 0.998382 0.999064
0.999462 0.999294 0.99616
0.999308 0.997978 0.999139
0.999445 0.997648 0.999183
1.00185 0.999939 0.990867
1.00211 0.99943 0.99085
1.00229 0.999122 0.990835
1.00257 0.999459 0.989903
1.00159 1.00031 0.990977
1.00153 1.0001 0.991348
1.0014 0.999884 0.99179
1.00152 1.00017 0.991286
1.00152 1.00031 0.991151
1.00147 1.00032 0.991269
1.00168 0.99986 0.991263
1.00161 1.00004 0.991269
1.00138 1.00021 0.991494
1.0017 0.99998 0.991112
1.00138 1.0002 0.991516
1.00079 1.0003 0.992553
1.00129 1.00023 0.991678
1.00072 1.00033 0.992687
0.999587 1.00012 0.995059
1.00058 1.00037 0.992915
0.999578 1.00005 0.995496
0.998921 0.999473 0.998877
0.999582 0.999914 0.995971
0.999005 0.999322 0.997456
0.999107 0.998935 0.997595
1.00192 0.999781 0.990927
1.00194 0.999695 0.990872
1.00209 0.999447 0.99085
1.00147 1.00022 0.991145
1.00192 1.00004 0.990632
1.00227 0.999829 0.990127
1.00056 1.00059 0.992519
1.00119 1.00056 0.991634
1.00155 1.00041 0.991107
0.999562 1.0001 0.995206
1.00025 1.0009 0.992943
1.00071 1.00099 0.991912
0.999087 0.9988 0.99897
0.999423 0.999951 0.995615
0.999974 1.00109 0.993405
0.999387 0.999647 0.995953
0.999194 0.99833 0.999084
0.999334 0.997938 0.999151
1.00169 1.00014 0.99096
1.00182 0.999925 0.990928
1.00215 0.999419 0.990809
1.0016 1.00038 0.990949
1.00161 1.00033 0.990957
1.00153 1.0001 0.991381
1.00151 1.0003 0.991156
1.00147 1.0003 0.991273
1.0013 1.00034 0.991624
1.00159 1.00005 0.991284
1.00137 1.00022 0.991573
1.00082 1.00031 0.992355
1.00138 1.00019 0.991522
1.00079 1.0003 0.992553
0.999596 1.00016 0.994994
1.00072 1.00033 0.992679
0.999602 1.0001 0.995054
0.998872 0.999636 0.998867
0.999603 1.00008 0.995104
0.998916 0.999557 0.998133
0.998997 0.999316 0.99748
1.00177 1.00007 0.990995
1.00179 0.999812 0.991092
1.00191 0.999748 0.990928
1.00156 1.00003 0.991293
1.00191 0.999718 0.990907
1.00205 0.999497 0.99085
1.00084 1.00033 0.992217
1.0015 1.00024 0.99126
1.0019 1.00003 0.990714
0.999671 1.00015 0.994907
1.0006 1.00057 0.992475
1.00119 1.00056 0.991629
0.999032 0.999194 0.998873
0.999513 1.00015 0.995219
1.00025 1.00089 0.992847
0.999095 0.998732 0.999001
0.999377 0.999987 0.995627
0.999214 0.998274 0.999104
1.00163 1.00026 0.991
1.00171 1.00014 0.990951
1.0018 0.999907 0.99099
1.00142 1.00038 0.991329
1.00159 1.0004 0.990963
1.00163 1.00034 0.990938
1.00148 1.00028 0.991278
1.0013 1.00032 0.991628
1.00083 1.00036 0.992276
1.00135 1.00024 0.991653
1.00082 1.00031 0.992425
0.999607 1.00024 0.994901
1.00079 1.0003 0.992554
0.999606 1.00015 0.994993
0.998821 0.999795 0.998855
0.999615 1.00009 0.995049
0.998862 0.999663 0.998863
0.998916 0.999648 0.997375
1.00166 1.00012 0.991149
1.00176 1.00005 0.990972
1.0015 1.00006 0.991399
1.00179 0.999809 0.991096
1.00188 0.999717 0.990928
1.00096 1.0002 0.992297
1.00157 1.00003 0.991282
1.00188 0.999738 0.990941
0.999737 1.00012 0.99477
1.00087 1.00033 0.992274
1.00153 1.00027 0.991374
0.998992 0.999497 0.99881
0.999634 1.00019 0.994916
1.00065 1.00056 0.992432
0.999034 0.999127 0.998902
0.999464 1.0002 0.995232
0.999106 0.998662 0.999031
1.00143 1.00033 0.991381
1.00162 1.00027 0.991016
1.00172 1.00014 0.990941
1.0009 1.00038 0.992106
1.00142 1.00039 0.991331
1.00158 1.00041 0.990978
1.0013 1.00031 0.991632
1.00083 1.00035 0.992295
0.999629 1.00028 0.994809
1.00082 1.00031 0.992495
0.999612 1.00023 0.9949
0.998794 0.999921 0.998832
0.999616 1.00014 0.994991
0.998819 0.999813 0.998848
0.998855 0.999692 0.998859
1.00143 1.00024 0.991404
1.00166 1.00009 0.991122
1.00174 1.00002 0.99095
1.00094 1.00022 0.992334
1.00151 1.00006 0.991397
1.00179 0.999807 0.9911
0.999738 1.00009 0.994777
1.00097 1.00021 0.992296
1.00159 1.00004 0.991271
0.998949 0.999696 0.998788
0.999715 1.00015 0.994776
1.00089 1.00034 0.992332
0.998993 0.999444 0.998827
0.999598 1.00024 0.994925
0.999033 0.999058 0.998932
1.00092 1.00037 0.992236
1.00143 1.00034 0.991301
1.00161 1.00027 0.991032
0.999648 1.00028 0.994763
1.0009 1.00038 0.992122
1.00141 1.00041 0.991332
1.00083 1.00034 0.992313
0.99963 1.00028 0.994806
0.998793 1.00001 0.998802
0.999617 1.00022 0.994898
0.998798 0.999935 0.998821
0.998816 0.99983 0.99884
1.0009 1.00032 0.992311
1.00143 1.00023 0.991376
1.00166 1.00007 0.991095
0.999701 1.0001 0.995603
1.00094 1.00022 0.992332
1.00151 1.00007 0.991394
0.998892 0.999818 0.998797
0.999732 1.00011 0.994777
1.00097 1.00022 0.992294
0.998954 0.999661 0.998793
0.999694 1.00018 0.994782
0.998993 0.999392 0.998844
0.999661 1.00027 0.994752
1.00092 1.00036 0.992175
1.00143 1.00035 0.991222
0.9988 1.00005 0.998785
0.999653 1.00028 0.994759
1.0009 1.00038 0.992138
0.999633 1.00028 0.994803
0.998801 1.00002 0.998794
0.998802 0.999949 0.998809
0.99968 1.00018 0.995579
1.00091 1.00031 0.992312
1.00143 1.00022 0.991348
0.998812 0.999907 0.998837
0.999696 1.00014 0.994825
1.00095 1.00023 0.99233
0.998903 0.999797 0.998794
0.999726 1.00012 0.994777
0.998957 0.999627 0.998798
0.998806 1.00014 0.997169
0.999669 1.00024 0.995157
1.00092 1.00037 0.992114
0.998804 1.00005 0.998782
0.999654 1.00028 0.994757
0.998805 1.00003 0.998788
0.998788 1.00007 0.997234
0.999674 1.00019 0.995198
1.00091 1.00031 0.992314
0.998834 0.99994 0.998027
0.999697 1.00015 0.994819
0.998914 0.999778 0.99879
0.998808 1.00005 0.998781
0.999663 1.00026 0.994763
0.998811 1.00005 0.99878
0.998802 1.00004 0.99801
0.999667 1.00022 0.994806
0.998857 0.999886 0.998803
0.998808 1.00003 0.998788
0.998819 0.999974 0.998803

TENSORS stress float
0.00117309 2.85366e-05 2.06358e-05
2.85366e-05 0.000181574 -5.24584e-06
2.06358e-05 -5.24584e-06 0.000173225
0.00265984 -4.16381e-05 1.84769e-05
-4.16381e-05 0.000902369 3.20872e-06
1.84769e-05 3.20872e-06 0.000910147
0.00116494 3.06333e-05 7.72721e-06
3.06333e-05 0.000178375 -1.95622e-06
7.72721e-06 -1.95622e-06 0.000170147
0.00124497 2.60784e-05 2.57897e-05
2.60784e-05 0.000247334 -3.73674e-06
2.57897e-05 -3.73674e-06 0.000229478
0.00119637 2.82314e-05 2.21645e-05
2.82314e-05 0.000205299 -4.85083e-06
2.21645e-05 -4.85083e-06 0.000193162
0.00114423 2.82805e-05 1.9008e-05
2.82805e-05 0.000156476 -5.50261e-06
1.9008e-05 -5.50261e-06 0.00015228
0.00114013 1.77532e-05 5.7781e-06
1.77532e-05 0.00014577 -2.24743e-06
5.7781e-06 -2.24743e-06 0.000118733
0.0026951 -4.2053e-05 2.36444e-07
-4.2053e-05 0.000918301 -1.01954e-07
2.36444e-07 -1.01954e-07 0.000926343
0.00296575 -5.31174e-05 8.83746e-06
-5.31174e-05 0.00109002 1.07567e-06
8.83746e-06 1.07567e-06 0.00108869
0.00273368 -4.7574e-05 8.03331e-06
-4.7574e-05 0.000948662 1.23567e-06
8.03331e-06 1.23567e-06 0.000953976
0.00110921 -2.6728e-05 1.51192e-05
-2.6728e-05 0.000119569 3.44098e-06
1.51192e-05 3.44098e-06 0.00012245
0.000830369 -2.48433e-05 4.7764e-06
-2.48433e-05 -1.59608e-05 2.8657e-06
4.7764e-06 2.8657e-06 -3.71546e-05
0.00143242 -1.70979e-05 3.07608e-05
-1.70979e-05 0.000356065 7.28666e-07
3.07608e-05 7.28666e-07 0.000336011
0.00126815 -3.44365e-05 6.38738e-06
-3.44365e-05 0.000274527 8.51887e-07
6.38738e-06 8.51887e-07 0.000255085
0.00115188 3.28797e-05 -5.59772e-06
3.28797e-05 0.00017283 1.38649e-06
-5.59772e-06 1.38649e-06 0.000164717
0.00127523 3.00568e-05 9.92851e-06
3.00568e-05 0.000263665 -1.34997e-06
9.92851e-06 -1.34997e-06 0.000245506
0.00112797 3.00491e-05 7.12095e-06
3.00491e-05 0.0001491 -2.01659e-06
7.12095e-06 -2.01659e-06 0.000145103
0.00119836 3.07877e-05 8.31549e-06
3.07877e-05 0.000207088 -1.77669e-06
8.31549e-06 -1.77669e-06 0.000194974
0.00117342 1.81043e-05 -2.71063e-06
1.81043e-05 0.000161978 4.05679e-07
-2.71063e-06 4.05679e-07 0.000134991
0.0035727 6.13962e-05 3.04143e-05
6.13962e-05 0.00141847 -6.16383e-07
3.04143e-05 -6.16383e-07 0.00140987
0.00128612 2.48947e-05 2.78767e-05
2.48947e-05 0.000272051 -2.88474e-06
2.78767e-05 -2.88474e-06 0.000253124
0.00121364 2.734e-05 2.37429e-05
2.734e-05 0.000224916 -4.38985e-06
2.37429e-05 -4.38985e-06 0.000209481
0.00125973 1.02353e-05 6.70314e-06
1.02353e-05 0.000196655 -1.81026e-06
6.70314e-06 -1.81026e-06 0.000161884
0.00117799 1.45005e-05 6.05265e-06
1.45005e-05 0.00016351 -2.02964e-06
6.05265e-06 -2.02964e-06 0.00013369
0.00113459 2.75088e-05 1.78726e-05
2.75088e-05 0.000141222 -5.58034e-06
1.78726e-05 -5.58034e-06 0.000140925
0.00109841 2.44381e-05 5.08156e-06
2.44381e-05 0.000126087 -2.51081e-06
5.08156e-06 -2.51081e-06 0.00010222
0.00140367 -1.22337e-05 2.00988e-06
-1.22337e-05 0.00022929 -1.08211e-06
2.00988e-06 -1.08211e-06 0.000178315
0.00273528 -4.25637e-05 -1.80309e-05
-4.25637e-05 0.000936601 -3.20198e-06
-1.80309e-05 -3.20198e-06 0.000944894
0.00208229 -4.08749e-05 -7.71255e-06
-4.08749e-05 0.000649448 -7.65011e-07
-7.71255e-06 -7.65011e-07 0.000642729
0.00194899 -3.80303e-05 -6.7781e-06
-3.80303e-05 0.000557145 -9.0774e-07
-6.7781e-06 -9.0774e-07 0.000557956
0.00260427 -3.92464e-05 1.54657e-07
-3.92464e-05 0.000865031 -7.76128e-08
1.54657e-07 -7.76128e-08 0.00087525
0.000776265 -2.64829e-05 1.15021e-07
-2.64829e-05 -4.19938e-05 -3.59179e-08
1.15021e-07 -3.59179e-08 -6.31474e-05
0.00127111 -2.84477e-05 2.06693e-05
-2.84477e-05 0.000258549 2.33729e-06
2.06693e-05 2.33729e-06 0.000242885
0.00114874 -2.89875e-05 1.766e-05
-2.89875e-05 0.000172774 2.95095e-06
1.766e-05 2.95095e-06 0.000165101
0.00172762 -1.11975e-05 1.15056e-05
-1.11975e-05 0.000434576 2.11424e-06
1.15056e-05 2.11424e-06 0.000407991
0.00251974 -3.89325e-05 7.08691e-06
-3.89325e-05 0.000814417 1.44745e-06
7.08691e-06 1.44745e-06 0.000826616
0.00163243 -2.78917e-05 1.0224e-05
-2.78917e-05 0.000387177 2.40513e-06
1.0224e-05 2.40513e-06 0.000367276
0.000839502 -2.58319e-05 5.83996e-06
-2.58319e-05 -1.72099e-05 4.31122e-06
5.83996e-06 4.31122e-06 -3.54689e-05
0.000931478 6.21227e-06 2.55003e-06
6.21227e-06 1.16742e-05 1.40286e-06
2.55003e-06 1.40286e-06 -3.81965e-05
0.00252696 -3.07178e-05 1.63255e-05
-3.07178e-05 0.000801072 3.90121e-06
1.63255e-05 3.90121e-06 0.000816252
0.00356631 -5.93335e-05 1.08376e-06
-5.93335e-05 0.00141895 -1.52196e-07
1.08376e-06 -1.52196e-07 0.00141
0.00228728 -4.45129e-05 -9.57428e-06
-4.45129e-05 0.000780952 -3.1782e-07
-9.57428e-06 -3.1782e-07 0.000767539
0.00369965 -4.63789e-05 3.31388e-05
-4.63789e-05 0.00148193 1.57413e-07
3.31388e-05 1.57413e-07 0.00147317
0.00129282 -3.55146e-05 6.30577e-06
-3.55146e-05 0.000290922 7.1626e-07
6.30577e-06 7.1626e-07 0.000270423
0.000744191 -1.62258e-05 8.48039e-06
-1.62258e-05 -6.12253e-05 1.63421e-06
8.48039e-06 1.63421e-06 -0.000100836
0.00322483 -5.95071e-05 9.65333e-06
-5.95071e-05 0.00124047 7.7819e-07
9.65333e-06 7.7819e-07 0.00123404
0.00178875 -2.6766e-05 1.50813e-05
-2.6766e-05 0.000464225 2.0515e-06
1.50813e-05 2.0515e-06 0.00043247
0.0013061 3.46329e-05 -6.70155e-06
3.46329e-05 0.000280401 1.12136e-06
-6.70155e-06 1.12136e-06 0.000261876
0.00119667 3.35526e-05 -5.96521e-06
3.35526e-05 0.000207121 1.29938e-06
-5.96521e-06 1.29938e-06 0.000195016
0.00110809 3.19357e-05 -5.15878e-06
3.19357e-05 0.000140027 1.42618e-06
-5.15878e-06 1.42618e-06 0.000136223
0.00121279 1.82044e-05 -1.14072e-05
1.82044e-05 0.000181162 3.07999e-06
-1.14072e-05 3.07999e-06 0.000154222
0.00246627 4.99894e-05 -1.02284e-05
4.99894e-05 0.000868296 -5.15009e-07
-1.02284e-05 -5.15009e-07 0.00085351
0.00130862 2.9791e-05 1.07773e-05
2.9791e-05 0.000284783 -1.03272e-06
1.07773e-05 -1.03272e-06 0.000265354
0.00111289 2.91421e-05 6.66948e-06
2.91421e-05 0.00013104 -2.01018e-06
6.66948e-06 -2.01018e-06 0.000130892
0.00123223 3.05155e-05 9.01361e-06
3.05155e-05 0.00023505 -1.57234e-06
9.01361e-06 -1.57234e-06 0.000219518
0.0012922 9.57276e-06 -3.5866e-06
9.57276e-06 0.000211888 2.43099e-07
-3.5866e-06 2.43099e-07 0.000177338
0.00113842 2.53397e-05 -2.5235e-06
2.53397e-05 0.000145593 3.53754e-07
-2.5235e-06 3.53754e-07 0.000121728
0.00120934 1.45707e-05 -2.99457e-06
1.45707e-05 0.00017833 4.12532e-07
-2.99457e-06 4.12532e-07 0.000148646
0.00144209 -1.43195e-05 -1.02759e-06
-1.43195e-05 0.000246312 5.43616e-07
-1.02759e-06 5.43616e-07 0.000195042
0.00363972 6.55789e-05 3.03158e-05
6.55789e-05 0.00145184 -1.55351e-07
3.03158e-05 -1.55351e-07 0.00144272
0.00129904 2.40449e-05 2.92839e-05
2.40449e-05 0.000283845 -2.17477e-06
2.92839e-05 -2.17477e-06 0.000264615
0.00184457 3.23395e-05 5.96744e-06
3.23395e-05 0.000482025 -8.21733e-07
5.96744e-06 -8.21733e-07 0.000448953
0.00130262 1.04725e-05 7.26942e-06
1.04725e-05 0.000212945 -1.45081e-06
7.26942e-06 -1.45081e-06 0.000177147
0.0012122 1.22166e-05 6.25162e-06
1.22166e-05 0.000178449 -1.94446e-06
6.25162e-06 -1.94446e-06 0.00014597
0.00159214 -2.16401e-05 2.14862e-06
-2.16401e-05 0.000268216 -1.00927e-06
2.14862e-06 -1.00927e-06 0.000211909
0.0011961 -1.37232e-05 2.53369e-06
-1.37232e-05 0.000110605 -1.2982e-06
2.53369e-06 -1.2982e-06 5.74396e-05
0.00120421 2.65549e-05 1.77327e-05
2.65549e-05 0.000162866 -5.65411e-06
1.77327e-05 -5.65411e-06 0.000165637
0.00106655 2.74502e-05 4.9354e-06
2.74502e-05 0.000106784 -2.63082e-06
4.9354e-06 -2.63082e-06 8.67774e-05
0.00133632 -1.65813e-06 1.73544e-06
-1.65813e-06 0.00021282 -1.16887e-06
1.73544e-06 -1.16887e-06 0.000163164
0.00112715 -3.33437e-05 1.73161e-06
-3.33437e-05 4.80151e-05 -1.20233e-06
1.73161e-06 -1.20233e-06 -1.50542e-05
0.00301552 -5.02931e-05 -2.0475e-05
-5.02931e-05 0.0011107 -2.63432e-06
-2.0475e-05 -2.63432e-06 0.00111022
0.0026528 -3.9637e-05 -1.7388e-05
-3.9637e-05 0.00088713 -3.36069e-06
-1.7388e-05 -3.36069e-06 0.000897619
0.0028215 -4.5312e-05 -1.88957e-05
-4.5312e-05 0.000989215 -3.02995e-06
-1.88957e-05 -3.02995e-06 0.00099497
0.000719635 -2.58448e-05 -4.62745e-06
-2.58448e-05 -6.94011e-05 -3.13211e-06
-4.62745e-06 -3.13211e-06 -9.04061e-05
0.00315597 -5.17977e-05 2.30857e-07
-5.17977e-05 0.00119557 -1.35525e-07
2.30857e-07 -1.35525e-07 0.00119149
0.00285681 -4.70049e-05 1.91199e-07
-4.70049e-05 0.00102299 -1.05406e-07
1.91199e-07 -1.05406e-07 0.00102501
0.000772857 -4.65691e-06 4.36888e-08
-4.65691e-06 -3.69837e-05 -1.0516e-07
4.36888e-08 -1.0516e-07 -6.92578e-05
0.00182812 -3.17996e-05 -6.15634e-06
-3.17996e-05 0.000468487 -1.04995e-06
-6.15634e-06 -1.04995e-06 0.000477141
0.000795592 -2.21604e-05 4.84269e-08
-2.21604e-05 -2.85812e-05 -2.62038e-08
4.84269e-08 -2.62038e-08 -5.2889e-05
0.00118021 -2.76591e-05 3.13149e-06
-2.76591e-05 0.000152489 4.98264e-07
3.13149e-06 4.98264e-07 0.000136518
0.000932394 4.40749e-06 -9.41132e-10
4.40749e-06 1.35937e-05 -1.84274e-07
-9.41132e-10 -1.84274e-07 -3.65675e-05
0.00252206 -3.35599e-05 1.66751e-05
-3.35599e-05 0.000806878 3.68247e-06
1.66751e-05 3.68247e-06 0.000820674
0.00087334 -1.96617e-05 4.23227e-06
-1.96617e-05 -2.80608e-05 3.40582e-06
4.23227e-06 3.40582e-06 -3.95427e-05
0.000752255 3.32608e-06 7.57647e-06
3.32608e-06 -5.06964e-05 3.17182e-06
7.57647e-06 3.17182e-06 -8.6288e-05
0.000769377 -1.08793e-05 6.92892e-06
-1.08793e-05 -4.02786e-05 3.70892e-06
6.92892e-06 3.70892e-06 -6.9125e-05
0.000988096 1.8725e-05 2.54837e-06
1.8725e-05 1.05138e-05 1.60225e-06
2.54837e-06 1.60225e-06 -4.34572e-05
0.00158442 -2.84434e-05 9.48103e-06
-2.84434e-05 0.000344461 2.98522e-06
9.48103e-06 2.98522e-06 0.000332985
0.00094321 1.11099e-05 2.4702e-06
1.11099e-05 1.25443e-05 1.42814e-06
2.4702e-06 1.42814e-06 -3.80782e-05
0.00094131 1.64002e-06 2.47195e-06
1.64002e-06 1.81433e-05 1.76809e-06
2.47195e-06 1.76809e-06 -2.98595e-05
0.00100341 2.834e-05 1.22064e-06
2.834e-05 2.42929e-05 4.42415e-07
1.22064e-06 4.42415e-07 -3.63519e-05
0.00252293 -2.78168e-05 1.57235e-05
-2.78168e-05 0.000792331 4.05601e-06
1.57235e-05 4.05601e-06 0.000808772
0.00256894 -3.08424e-05 2.49307e-07
-3.08424e-05 0.00082078 -7.46152e-08
2.49307e-07 -7.46152e-08 0.000835992
0.00331038 -5.65548e-05 -2.468e-05
-5.65548e-05 0.00128702 -1.50672e-06
-2.468e-05 -1.50672e-06 0.00127992
0.00348302 -6.12353e-05 -2.78283e-05
-6.12353e-05 0.00137892 -6.48592e-07
-2.78283e-05 -6.48592e-07 0.00137001
0.00365472 -3.77985e-05 1.3084e-06
-3.77985e-05 0.00145944 -1.69187e-07
1.3084e-06 -1.69187e-07 0.00145131
0.00235162 -4.63106e-05 -1.03754e-05
-4.63106e-05 0.000816498 -1.76639e-07
-1.03754e-05 -1.76639e-07 0.000802019
0.0012709 -1.0258e-05 6.34185e-06
-1.0258e-05 0.00020122 -8.00793e-08
6.34185e-06 -8.00793e-08 0.000165323
0.00222669 -4.29573e-05 -8.95268e-06
-4.29573e-05 0.000742716 -4.72708e-07
-8.95268e-06 -4.72708e-07 0.000730844
0.00123222 -9.85384e-06 4.84655e-06
-9.85384e-06 0.000188595 7.24632e-08
4.84655e-06 7.24632e-08 0.000153915
0.003707 2.03252e-05 3.07292e-05
2.03252e-05 0.0014826 2.95049e-07
3.07292e-05 2.95049e-07 0.00147485
0.000723441 -4.28711e-06 6.65821e-06
-4.28711e-06 -7.78022e-05 5.53074e-07
6.65821e-06 5.53074e-07 -0.000116987
0.00181198 -3.97721e-05 1.64152e-05
-3.97721e-05 0.000475055 1.70761e-06
1.64152e-05 1.70761e-06 0.000442012
0.00108883 -3.43483e-06 3.61144e-06
-3.43483e-06 1.52368e-06 1.18172e-06
3.61144e-06 1.18172e-06 -5.90484e-05
0.00177145 -6.72232e-06 1.27407e-05
-6.72232e-06 0.000455025 1.65685e-06
1.27407e-05 1.65685e-06 0.000424345
0.00107588 1.23336e-05 3.03545e-06
1.23336e-05 1.28267e-05 1.34533e-06
3.03545e-06 1.34533e-06 -4.53478e-05
0.00138561 2.34396e-05 -2.92509e-05
2.34396e-05 0.000329087 6.64225e-07
-2.92509e-05 6.64225e-07 0.000309354
0.00133578 3.52259e-05 -7.02863e-06
3.52259e-05 0.000299965 9.4848e-07
-7.02863e-06 9.4848e-07 0.000279952
0.00109236 3.08729e-05 -4.8246e-06
3.08729e-05 0.000121509 1.42836e-06
-4.8246e-06 1.42836e-06 0.00012149
0.00124822 3.40653e-05 -6.30421e-06
3.40653e-05 0.000243957 1.21625e-06
-6.30421e-06 1.21625e-06 0.000228296
0.00132148 8.42672e-06 -1.41618e-05
8.42672e-06 0.00022548 2.32122e-06
-1.41618e-05 2.32122e-06 0.000191189
0.00124379 1.44471e-05 -1.21737e-05
1.44471e-05 0.000194656 2.82319e-06
-1.21737e-05 2.82319e-06 0.000165111
0.00118547 2.56581e-05 -1.04688e-05
2.56581e-05 0.000168476 3.22091e-06
-1.04688e-05 3.22091e-06 0.000144651
0.00148002 -1.63152e-05 -4.10249e-06
-1.63152e-05 0.000263028 2.13668e-06
-4.10249e-06 2.13668e-06 0.000211466
0.00366656 6.39201e-05 -1.5153e-06
6.39201e-05 0.00146476 -1.85079e-07
-1.5153e-06 -1.85079e-07 0.00145574
0.00131022 2.97313e-05 1.13948e-05
2.97313e-05 0.000290646 -6.70837e-07
1.13948e-05 -6.70837e-07 0.000270914
0.00104428 2.04063e-05 -7.14907e-06
2.04063e-05 8.30856e-05 1.42526e-07
-7.14907e-06 1.42526e-07 4.57332e-05
0.00132915 9.52267e-06 -3.88474e-06
9.52267e-06 0.000225285 1.57266e-07
-3.88474e-06 1.57266e-07 0.000189672
0.0018931 3.29008e-05 1.12273e-05
3.29008e-05 0.000508582 -1.88803e-06
1.12273e-05 -1.88803e-06 0.000515097
0.00132557 3.04837e-05 -2.40752e-06
3.04837e-05 0.000234746 3.39023e-07
-2.40752e-06 3.39023e-07 0.000216122
0.00124587 1.20047e-05 -3.27988e-06
1.20047e-05 0.000194123 3.49207e-07
-3.27988e-06 3.49207e-07 0.000161861
0.00144804 -2.05656e-05 -1.26568e-06
-2.05656e-05 0.000196245 3.87491e-07
-1.26568e-06 3.87491e-07 0.000139239
0.00140429 -5.42034e-06 -8.46969e-07
-5.42034e-06 0.000243719 6.14062e-07
-8.46969e-07 6.14062e-07 0.000193766
0.00134481 -1.62865e-05 -4.88529e-07
-1.62865e-05 0.000182848 2.1489e-07
-4.88529e-07 2.1489e-07 0.00013013
0.00111873 -3.28795e-05 1.17611e-08
-3.28795e-05 4.43433e-05 -3.57872e-08
1.17611e-08 -3.57872e-08 -1.86718e-05
0.000718892 8.45729e-06 6.59705e-06
8.45729e-06 -8.15342e-05 -9.72958e-07
6.59705e-06 -9.72958e-07 -0.000120369
0.00131303 1.74351e-05 7.30291e-06
1.74351e-05 0.000218663 -1.12929e-06
7.30291e-06 -1.12929e-06 0.000182964
0.00141573 1.64067e-05 3.30174e-06
1.64067e-05 0.000155158 -4.97968e-07
3.30174e-06 -4.97968e-07 9.61096e-05
0.00136581 -1.6943e-05 2.98258e-06
-1.6943e-05 0.000141162 -9.67566e-07
2.98258e-06 -9.67566e-07 8.27901e-05
0.00126417 -1.7094e-05 2.56712e-06
-1.7094e-05 0.000125853 -1.32541e-06
2.56712e-06 -1.32541e-06 7.06645e-05
0.00151505 -3.19411e-05 1.22485e-06
-3.19411e-05 0.000178498 -6.8218e-07
1.22485e-06 -6.8218e-07 0.000112215
0.00267067 3.67624e-05 1.73472e-05
3.67624e-05 0.000885834 -3.58976e-06
1.73472e-05 -3.58976e-06 0.000897869
0.0011434 -3.16185e-05 1.64031e-06
-3.16185e-05 3.91347e-05 -1.02609e-06
1.64031e-06 -1.02609e-06 -2.35509e-05
0.000793961 2.48591e-05 4.63836e-06
2.48591e-05 -4.09285e-05 -3.10515e-06
4.63836e-06 -3.10515e-06 -5.86327e-05
0.000869925 -1.90753e-06 2.30898e-06
-1.90753e-06 -1.01663e-05 -1.84239e-06
2.30898e-06 -1.84239e-06 -6.04332e-05
0.00115452 -3.45008e-05 1.61932e-06
-3.45008e-05 8.17295e-05 -1.49582e-06
1.61932e-06 -1.49582e-06 1.78952e-05
0.0011998 -4.05111e-05 1.37301e-06
-4.05111e-05 6.0677e-05 -8.5835e-07
1.37301e-06 -8.5835e-07 -6.58885e-06
0.000818135 2.0274e-05 4.42139e-06
2.0274e-05 -4.87155e-05 -3.49743e-06
4.42139e-06 -3.49743e-06 -6.24794e-05
0.000959499 -2.42451e-06 2.72974e-06
-2.42451e-06 9.80637e-06 -2.39859e-06
2.72974e-06 -2.39859e-06 -3.43525e-05
0.0031398 -5.24124e-05 -2.19888e-05
-5.24124e-05 0.00118413 -2.3387e-06
-2.19888e-05 -2.3387e-06 0.00118075
0.00290417 -4.7923e-05 -1.94785e-05
-4.7923e-05 0.00104259 -2.84093e-06
-1.94785e-05 -2.84093e-06 0.00104534
0.000713999 -6.4068e-06 -5.13817e-06
-6.4068e-06 -6.1672e-05 -2.65913e-06
-5.13817e-06 -2.65913e-06 -9.43689e-05
0.00261767 -3.6706e-05 -1.72223e-05
-3.6706e-05 0.000860441 -3.56363e-06
-1.72223e-05 -3.56363e-06 0.000872786
0.000748122 -2.436e-05 -4.61543e-06
-2.436e-05 -6.25825e-05 -3.1749e-06
-4.61543e-06 -3.1749e-06 -8.01297e-05
0.000707595 -2.47408e-05 -4.71343e-06
-2.47408e-05 -6.92443e-05 -2.89423e-06
-4.71343e-06 -2.89423e-06 -9.39805e-05
0.000934389 2.61007e-06 -2.41944e-06
2.61007e-06 1.60522e-05 -1.75325e-06
-2.41944e-06 -1.75325e-06 -3.44035e-05
0.00256881 -3.37045e-05 2.20721e-07
-3.37045e-05 0.000828622 -8.07681e-08
2.20721e-07 -8.07681e-08 0.000842462
0.000856381 -1.9398e-05 1.10464e-07
-1.9398e-05 -3.67788e-05 -3.4866e-08
1.10464e-07 -3.4866e-08 -4.813e-05
0.00122912 -2.63497e-06 4.12212e-06
-2.63497e-06 0.000188596 1.93114e-07
4.12212e-06 1.93114e-07 0.000156199
0.00119724 -1.75439e-05 3.54022e-06
-1.75439e-05 0.000175105 4.17972e-07
3.54022e-06 4.17972e-07 0.000148978
0.000980953 1.93905e-05 2.62874e-08
1.93905e-05 6.7039e-06 -6.32005e-08
2.62874e-08 -6.32005e-08 -4.71914e-05
0.000840296 -2.33561e-05 -2.77497e-08
-2.33561e-05 -2.7285e-05 -3.09549e-08
-2.77497e-08 -3.09549e-08 -4.21158e-05
0.000935451 9.72174e-06 -1.10538e-07
9.72174e-06 9.69333e-06 -4.08602e-08
-1.10538e-07 -4.08602e-08 -4.10907e-05
0.000933466 -4.25995e-07 1.74534e-08
-4.25995e-07 1.60833e-05 -4.77927e-08
1.74534e-08 -4.77927e-08 -3.21484e-05
0.000967965 2.80846e-05 -3.17326e-08
2.80846e-05 6.01292e-06 -1.20049e-07
-3.17326e-08 -1.20049e-07 -5.48352e-05
0.000863688 -2.15748e-05 4.60331e-06
-2.15748e-05 -2.50178e-05 3.23181e-06
4.60331e-06 3.23181e-06 -3.80695e-05
0.000881482 -1.77304e-05 3.78331e-06
-1.77304e-05 -3.01084e-05 3.53638e-06
3.78331e-06 3.53638e-06 -3.99904e-05
0.000963175 -6.69307e-07 2.61367e-06
-6.69307e-07 1.16106e-05 1.93921e-06
2.61367e-06 1.93921e-06 -3.03278e-05
0.00101122 1.77742e-05 2.61931e-06
1.77742e-05 4.70581e-06 1.51216e-06
2.61931e-06 1.51216e-06 -5.08948e-05
0.000968278 1.60785e-05 2.45561e-06
1.60785e-05 1.65144e-05 1.64735e-06
2.45561e-06 1.64735e-06 -3.55683e-05
0.00114835 3.35467e-05 1.48459e-06
3.35467e-05 4.62924e-05 1.31515e-06
1.48459e-06 1.31515e-06 -1.69973e-05
0.000951039 -1.82974e-06 2.48651e-06
-1.82974e-06 1.74448e-05 1.84587e-06
2.48651e-06 1.84587e-06 -2.75428e-05
0.000981547 3.09564e-05 1.08057e-06
3.09564e-05 -6.5704e-07 6.99623e-07
1.08057e-06 6.99623e-07 -6.05435e-05
0.00105009 2.43981e-05 1.25195e-06
2.43981e-05 5.74855e-05 7.53481e-07
1.25195e-06 7.53481e-07 -4.03087e-06
0.00115124 4.05457e-05 -3.06037e-08
4.05457e-05 8.96103e-05 2.38509e-08
-3.06037e-08 2.38509e-08 2.35552e-05
0.00250991 -2.4918e-05 1.48682e-05
-2.4918e-05 0.000780561 4.15041e-06
1.48682e-05 4.15041e-06 0.000798125
0.00255767 -2.79335e-05 2.79918e-07
-2.79335e-05 0.000808829 -6.63498e-08
2.79918e-07 -6.63498e-08 0.00082529
0.00261107 -3.09916e-05 -1.63708e-05
-3.09916e-05 0.000840582 -3.93354e-06
-1.63708e-05 -3.93354e-06 0.000855822
0.00083528 1.84363e-05 3.91832e-06
1.84363e-05 -4.67566e-05 -3.66798e-06
3.91832e-06 -3.66798e-06 -5.89327e-05
0.00268023 3.38805e-05 1.71244e-05
3.38805e-05 0.000882451 -3.80593e-06
1.71244e-05 -3.80593e-06 0.000895855
0.00323762 -5.44338e-05 -2.34023e-05
-5.44338e-05 0.00124289 -1.94731e-06
-2.34023e-05 -1.94731e-06 0.00123732
0.00338055 -5.8916e-05 -2.60163e-05
-5.8916e-05 0.00132699 -1.07279e-06
-2.60163e-05 -1.07279e-06 0.00131881
0.00071441 1.89281e-06 -5.66435e-06
1.89281e-06 -6.75352e-05 -1.88322e-06
-5.66435e-06 -1.88322e-06 -0.000105113
0.000709514 2.81747e-06 -6.12632e-06
2.81747e-06 -7.71401e-05 -1.42523e-06
-6.12632e-06 -1.42523e-06 -0.000115951
0.0036116 -5.51624e-05 -2.97835e-05
-5.51624e-05 0.00143959 -2.20533e-07
-2.97835e-05 -2.20533e-07 0.00143089
0.00370263 1.101e-05 -9.07353e-07
1.101e-05 0.00148227 1.02262e-07
-9.07353e-07 1.02262e-07 0.00147361
0.000712638 -3.22111e-06 3.84015e-09
-3.22111e-06 -8.30513e-05 -1.45216e-07
3.84015e-09 -1.45216e-07 -0.00012215
0.00124629 -1.72738e-05 5.57597e-06
-1.72738e-05 0.000194324 2.16832e-08
5.57597e-06 2.16832e-08 0.000158918
0.00110107 -1.04828e-06 1.20006e-07
-1.04828e-06 7.39922e-06 7.17411e-09
1.20006e-07 7.17411e-09 -5.30833e-05
0.000732443 5.34777e-07 2.07868e-08
5.34777e-07 -5.96002e-05 -1.18382e-07
2.07868e-08 -1.18382e-07 -9.63555e-05
0.0010823 1.26684e-05 1.8884e-08
1.26684e-05 1.60201e-05 -5.56526e-08
1.8884e-08 -5.56526e-08 -4.21262e-05
0.000697572 -1.43219e-06 6.71449e-06
-1.43219e-06 -9.36576e-05 -2.56882e-07
6.71449e-06 -2.56882e-07 -0.000132671
0.00111184 -3.09543e-06 3.86385e-06
-3.09543e-06 2.66054e-06 6.2504e-07
3.86385e-06 6.2504e-07 -5.94546e-05
0.00108328 5.20567e-06 3.28076e-06
5.20567e-06 8.14964e-06 1.26159e-06
3.28076e-06 1.26159e-06 -5.0945e-05
0.00125626 -4.83652e-06 2.1229e-06
-4.83652e-06 3.73425e-05 7.5387e-07
2.1229e-06 7.5387e-07 -3.24387e-05
0.00104551 1.52504e-05 2.76875e-06
1.52504e-05 7.94444e-06 1.46556e-06
2.76875e-06 1.46556e-06 -4.90766e-05
0.00123705 1.3509e-05 1.68744e-06
1.3509e-05 4.49058e-05 8.40993e-07
1.68744e-06 8.40993e-07 -2.10694e-05
0.00369441 6.0965e-05 -3.42308e-05
6.0965e-05 0.00147821 -1.50575e-07
-3.42308e-05 -1.50575e-07 0.00146932
0.00131861 3.58236e-05 -7.02839e-06
3.58236e-05 0.000296231 7.26611e-07
-7.02839e-06 7.26611e-07 0.000275936
0.000227861 8.98389e-06 -8.50875e-06
8.98389e-06 -0.000323417 1.55546e-06
-8.50875e-06 1.55546e-06 -0.000365286
0.00135 8.37316e-06 -1.52734e-05
8.37316e-06 0.000234717 1.89151e-06
-1.52734e-05 1.89151e-06 0.000199343
0.00257919 4.17803e-05 -7.21832e-06
4.17803e-05 0.000853116 1.37364e-06
-7.21832e-06 1.37364e-06 0.000863188
0.00158179 3.35253e-05 -9.97452e-06
3.35253e-05 0.00036124 3.20774e-06
-9.97452e-06 3.20774e-06 0.000344014
0.00128015 1.14198e-05 -1.30151e-05
1.14198e-05 0.000210078 2.58679e-06
-1.30151e-05 2.58679e-06 0.000178047
0.00130346 -1.93313e-05 -4.59807e-06
-1.93313e-05 0.000124058 1.78287e-06
-4.59807e-06 1.78287e-06 6.63541e-05
0.00149791 -1.881e-05 -3.49409e-06
-1.881e-05 0.000257173 1.62459e-06
-3.49409e-06 1.62459e-06 0.000204899
0.00146782 -8.61878e-06 -3.73233e-06
-8.61878e-06 0.000272465 2.48315e-06
-3.73233e-06 2.48315e-06 0.000222185
0.0011098 -3.24618e-05 -1.55072e-06
-3.24618e-05 4.04136e-05 1.07441e-06
-1.55072e-06 1.07441e-06 -2.25479e-05
0.000722086 9.05248e-06 -6.13988e-08
9.05248e-06 -7.98731e-05 -1.28976e-07
-6.13988e-08 -1.28976e-07 -0.000118797
0.0013365 1.73919e-05 -4.21053e-06
1.73919e-05 0.000229066 1.27378e-07
-4.21053e-06 1.27378e-07 0.000193575
0.00115268 1.47548e-05 -6.57487e-07
1.47548e-05 2.44286e-05 7.14589e-08
-6.57487e-07 7.14589e-08 -3.60574e-05
0.00148701 -1.73648e-05 -7.05782e-07
-1.73648e-05 0.000200288 6.43858e-08
-7.05782e-07 6.43858e-08 0.000142435
0.00261814 3.65827e-05 -1.82939e-07
3.65827e-05 0.000861442 -8.13833e-08
-1.82939e-07 -8.13833e-08 0.000873409
0.00119507 2.8741e-05 6.73691e-07
2.8741e-05 0.000159308 -3.0387e-09
6.73691e-07 -3.0387e-09 0.00014319
0.00114289 -8.19576e-07 1.24916e-07
-8.19576e-07 0.000122488 -1.57098e-08
1.24916e-07 -1.57098e-08 7.36106e-05
0.00127394 -1.77189e-05 -5.56462e-07
-1.77189e-05 0.000130307 1.36327e-07
-5.56462e-07 1.36327e-07 7.51898e-05
0.00129674 -2.97203e-05 -5.7863e-07
-2.97203e-05 7.1118e-05 3.14965e-07
-5.7863e-07 3.14965e-07 4.02663e-06
0.00102676 -3.21505e-05 -9.53507e-08
-3.21505e-05 2.11295e-05 -9.50017e-08
-9.53507e-08 -9.50017e-08 -4.29438e-05
0.0012717 -3.26644e-05 2.82034e-08
-3.26644e-05 0.000101392 7.42937e-08
2.82034e-08 7.42937e-08 3.91465e-05
0.00119104 -4.02969e-05 9.42941e-08
-4.02969e-05 5.69127e-05 4.98992e-09
9.42941e-08 4.98992e-09 -1.02623e-05
0.000833949 2.06711e-05 -7.24954e-08
2.06711e-05 -4.02133e-05 -5.49587e-08
-7.24954e-08 -5.49587e-08 -5.4141e-05
0.000959313 -1.93494e-06 -1.29007e-07
-1.93494e-06 9.43754e-06 -7.04135e-08
-1.29007e-07 -7.04135e-08 -3.45939e-05
0.0011113 8.27311e-06 3.88645e-06
8.27311e-06 4.45575e-07 -4.2769e-07
3.88645e-06 -4.2769e-07 -6.09476e-05
0.00138567 3.08928e-06 3.12327e-06
3.08928e-06 0.000143031 -7.0001e-07
3.12327e-06 -7.0001e-07 8.45388e-05
0.0015681 1.25488e-05 1.69293e-06
1.25488e-05 0.000178761 -1.16602e-08
1.69293e-06 -1.16602e-08 0.000110264
0.00113379 -2.00009e-05 2.46913e-06
-2.00009e-05 -2.69927e-05 -9.00013e-07
2.46913e-06 -9.00013e-07 -9.60794e-05
0.00128092 -3.18179e-05 1.31664e-06
-3.18179e-05 9.04681e-05 -1.02639e-06
1.31664e-06 -1.02639e-06 2.70908e-05
0.00148682 -3.22817e-05 7.75543e-07
-3.22817e-05 0.000137345 -5.51157e-07
7.75543e-07 -5.51157e-07 6.80595e-05
0.000790223 2.24245e-05 4.63916e-06
2.24245e-05 -5.29068e-05 -3.27204e-06
4.63916e-06 -3.27204e-06 -6.84332e-05
0.00122681 -3.76076e-05 1.09528e-06
-3.76076e-05 5.35317e-05 -7.64119e-07
1.09528e-06 -7.64119e-07 -1.21785e-05
0.000910471 1.47965e-06 2.51786e-06
1.47965e-06 6.94781e-06 -1.7702e-06
2.51786e-06 -1.7702e-06 -4.12607e-05
0.000827333 -2.66133e-05 1.54967e-06
-2.66133e-05 -5.66979e-05 -1.64517e-06
1.54967e-06 -1.64517e-06 -0.000119894
0.00145454 -4.76949e-05 9.53826e-07
-4.76949e-05 0.000209674 -1.08597e-06
9.53826e-07 -1.08597e-06 0.000140223
0.00130086 -4.41856e-05 1.00304e-06
-4.41856e-05 9.65847e-05 -2.25425e-07
1.00304e-06 -2.25425e-07 2.91428e-05
0.000942972 -7.80795e-07 2.93276e-06
-7.80795e-07 6.73684e-06 -2.09245e-06
2.93276e-06 -2.09245e-06 -3.84212e-05
0.00096496 -3.11604e-06 2.3119e-06
-3.11604e-06 1.01392e-05 -2.50899e-06
2.3119e-06 -2.50899e-06 -3.20854e-05
0.00105418 -2.36648e-05 1.66079e-06
-2.36648e-05 5.2507e-05 -1.14182e-06
1.66079e-06 -1.14182e-06 -1.05277e-05
0.000722239 1.0827e-06 -5.50226e-06
1.0827e-06 -6.008e-05 -2.42427e-06
-5.50226e-06 -2.42427e-06 -9.5619e-05
0.00261679 -3.38676e-05 -1.695e-05
-3.38676e-05 0.000850961 -3.77432e-06
-1.695e-05 -3.77432e-06 0.00086484
0.000839733 -1.91404e-05 -3.99422e-06
-1.91404e-05 -4.53754e-05 -3.52536e-06
-3.99422e-06 -3.52536e-06 -5.65921e-05
0.000704183 -1.62705e-05 -4.88044e-06
-1.62705e-05 -6.65625e-05 -2.75388e-06
-4.88044e-06 -2.75388e-06 -9.52952e-05
0.000975392 2.01231e-05 -2.45857e-06
2.01231e-05 3.63663e-06 -1.72498e-06
-2.45857e-06 -1.72498e-06 -5.01865e-05
0.000788535 -2.26581e-05 -4.66378e-06
-2.26581e-05 -5.2669e-05 -3.18942e-06
-4.66378e-06 -3.18942e-06 -6.73823e-05
0.000926844 -2.34847e-06 -2.36604e-06
-2.34847e-06 1.46875e-05 -1.95693e-06
-2.36604e-06 -1.95693e-06 -3.37812e-05
0.000923918 8.20166e-06 -2.33891e-06
8.20166e-06 4.96722e-06 -1.35468e-06
-2.33891e-06 -1.35468e-06 -4.59563e-05
0.000932893 2.78257e-05 -1.30855e-06
2.78257e-05 -1.21094e-05 -7.2744e-07
-1.30855e-06 -7.2744e-07 -7.31596e-05
0.000842189 -2.12369e-05 7.43738e-08
-2.12369e-05 -3.59422e-05 -5.23788e-08
7.43738e-08 -5.23788e-08 -4.88613e-05
0.000867577 -1.75253e-05 1.15836e-07
-1.75253e-05 -3.73706e-05 -1.34174e-08
1.15836e-07 -1.34174e-08 -4.71101e-05
0.000957735 -3.65804e-07 8.23414e-08
-3.65804e-07 9.51262e-06 -4.44028e-08
8.23414e-08 -4.44028e-08 -3.25271e-05
0.00101984 1.85765e-05 4.00183e-08
1.85765e-05 8.37096e-06 -3.28272e-08
4.00183e-08 -3.28272e-08 -4.71764e-05
0.000949149 1.5936e-05 -4.75408e-08
1.5936e-05 7.51181e-06 7.62808e-09
-4.75408e-08 7.62808e-09 -4.45255e-05
0.00114102 3.37083e-05 7.46634e-08
3.37083e-05 4.30639e-05 3.55211e-08
7.46634e-08 3.55211e-08 -2.02638e-05
0.000939394 -2.86163e-06 -1.00216e-07
-2.86163e-06 1.31922e-05 4.81831e-08
-1.00216e-07 4.81831e-08 -3.19533e-05
0.00104297 3.23532e-05 -1.99791e-08
3.23532e-05 2.9754e-05 -3.84499e-08
-1.99791e-08 -3.84499e-08 -2.98248e-05
0.00104386 2.48484e-05 5.60384e-08
2.48484e-05 5.44646e-05 -1.52392e-07
5.60384e-08 -1.52392e-07 -7.11844e-06
0.00106762 3.93322e-05 -4.9033e-07
3.93322e-05 4.82301e-05 1.63282e-07
-4.9033e-07 1.63282e-07 -1.81776e-05
0.0008871 -1.5804e-05 3.32941e-06
-1.5804e-05 -3.20485e-05 3.59637e-06
3.32941e-06 3.59637e-06 -4.03392e-05
0.000954952 -1.922e-06 2.68281e-06
-1.922e-06 1.23385e-05 1.77633e-06
2.68281e-06 1.77633e-06 -3.06586e-05
0.000971629 5.34664e-07 2.39609e-06
5.34664e-07 1.2052e-05 2.12224e-06
2.39609e-06 2.12224e-06 -2.86023e-05
0.00104017 1.58156e-05 1.47858e-06
1.58156e-05 4.6234e-05 8.13996e-07
1.47858e-06 8.13996e-07 -1.3191e-05
0.0011555 2.71079e-05 1.76435e-06
2.71079e-05 3.02714e-05 1.11531e-06
1.76435e-06 1.11531e-06 -3.39474e-05
0.00112181 3.52172e-05 1.27558e-06
3.52172e-05 5.4691e-05 1.28694e-06
1.27558e-06 1.28694e-06 -6.47264e-06
0.00120886 3.8089e-05 8.71811e-07
3.8089e-05 5.55154e-05 1.40613e-06
8.71811e-07 1.40613e-06 -1.277e-05
0.00105791 2.10048e-05 1.24753e-06
2.10048e-05 5.99843e-05 1.00323e-06
1.24753e-06 1.00323e-06 -2.014e-07
0.00111117 3.99598e-05 2.59191e-07
3.99598e-05 5.15089e-05 7.33257e-07
2.59191e-07 7.33257e-07 -1.30371e-05
0.00108924 3.91434e-05 6.88771e-07
3.91434e-05 7.31657e-05 9.88775e-08
6.88771e-07 9.88775e-08 3.31329e-06
0.00102598 4.08044e-05 2.22359e-07
4.08044e-05 1.94244e-05 2.00201e-07
2.22359e-07 2.00201e-07 -5.0169e-05
0.000971448 1.1713e-06 1.29756e-06
1.1713e-06 6.05411e-06 2.20296e-06
1.29756e-06 2.20296e-06 -2.76672e-05
0.000890833 -1.21369e-05 2.43709e-06
-1.21369e-05 -3.69755e-05 3.55935e-06
2.43709e-06 3.55935e-06 -4.24617e-05
0.002489 -2.20464e-05 1.37707e-05
-2.20464e-05 0.0007659 4.20478e-06
1.37707e-05 4.20478e-06 0.000784465
0.00253556 -2.50205e-05 3.23396e-07
-2.50205e-05 0.000792847 -5.88612e-08
3.23396e-07 -5.88612e-08 0.000810424
0.00259174 -2.80664e-05 -1.55349e-05
-2.80664e-05 0.000825008 -4.03952e-06
-1.55349e-05 -4.03952e-06 0.000841486
0.00084644 1.69777e-05 3.34821e-06
1.69777e-05 -4.5525e-05 -3.64379e-06
3.34821e-06 -3.64379e-06 -5.58953e-05
0.00265929 3.09831e-05 1.63902e-05
3.09831e-05 0.000866201 -3.93799e-06
1.63902e-05 -3.93799e-06 0.000880839
0.000846674 1.87083e-05 -1.54922e-07
1.87083e-05 -4.04218e-05 -3.99809e-08
-1.54922e-07 -3.99809e-08 -5.27746e-05
0.00262971 3.37235e-05 -2.07202e-07
3.37235e-05 0.000858632 -7.90357e-08
-2.07202e-07 -7.90357e-08 0.000872029
0.000715962 4.49322e-06 -5.6473e-06
4.49322e-06 -6.52375e-05 -2.1438e-06
-5.6473e-06 -2.1438e-06 -0.000102196
0.00071272 6.08868e-06 -5.79329e-06
6.08868e-06 -7.03546e-05 -1.68822e-06
-5.79329e-06 -1.68822e-06 -0.000108595
0.00108314 1.17283e-05 -2.97622e-06
1.17283e-05 1.65112e-05 -1.48505e-06
-2.97622e-06 -1.48505e-06 -4.16076e-05
0.00111788 -3.99583e-07 -3.49897e-06
-3.99583e-07 1.55058e-05 -1.17613e-06
-3.49897e-06 -1.17613e-06 -4.49089e-05
0.000698559 6.35801e-07 -6.5492e-06
6.35801e-07 -8.98235e-05 -8.54559e-07
-6.5492e-06 -8.54559e-07 -0.000128828
0.00370984 2.56728e-05 -3.28246e-05
2.56728e-05 0.00148609 1.76159e-07
-3.28246e-05 1.76159e-07 0.00147709
0.000708669 1.39031e-06 5.67627e-09
1.39031e-06 -8.84487e-05 -1.41193e-07
5.67627e-09 -1.41193e-07 -0.000127461
0.00112463 -3.65196e-07 3.80541e-08
-3.65196e-07 8.72258e-06 -1.75649e-07
3.80541e-08 -1.75649e-07 -5.33011e-05
0.00108988 3.83117e-06 1.55107e-08
3.83117e-06 1.14875e-05 -4.35945e-09
1.55107e-08 -4.35945e-09 -4.75944e-05
0.00128209 -5.92284e-06 4.54682e-08
-5.92284e-06 4.96129e-05 -6.21686e-09
4.54682e-08 -6.21686e-09 -2.02068e-05
0.00105546 1.62226e-05 4.94351e-08
1.62226e-05 1.27547e-05 -2.28998e-08
4.94351e-08 -2.28998e-08 -4.42509e-05
0.00124449 1.53266e-05 1.45431e-09
1.53266e-05 4.84706e-05 8.38635e-09
1.45431e-09 8.38635e-09 -1.75227e-05
0.0011295 1.35248e-06 3.99823e-06
1.35248e-06 7.13438e-06 -1.2319e-07
3.99823e-06 -1.2319e-07 -5.50846e-05
0.00128564 3.59693e-07 2.20021e-06
3.59693e-07 4.26576e-05 4.72826e-07
2.20021e-06 4.72826e-07 -2.91397e-05
0.00125579 4.96113e-06 1.94431e-06
4.96113e-06 4.4758e-05 8.06124e-07
1.94431e-06 8.06124e-07 -2.28632e-05
0.00136695 -1.11088e-05 1.44293e-06
-1.11088e-05 7.00659e-05 4.21701e-07
1.44293e-06 4.21701e-07 -1.9073e-06
0.00120744 2.16644e-05 1.51312e-06
2.16644e-05 4.16131e-05 8.52058e-07
1.51312e-06 8.52058e-07 -2.32766e-05
0.00130939 1.56831e-05 9.84121e-07
1.56831e-05 5.59162e-05 7.58125e-07
9.84121e-07 7.58125e-07 -1.22194e-05
0.000729029 1.2444e-05 -6.62345e-06
1.2444e-05 -7.62408e-05 6.95982e-07
-6.62345e-06 6.95982e-07 -0.000115432
0.00136438 1.78282e-05 -1.59698e-05
1.78282e-05 0.000241687 1.39695e-06
-1.59698e-05 1.39695e-06 0.000206378
0.000893121 1.37729e-05 -4.27324e-06
1.37729e-05 -0.000104754 6.74626e-07
-4.27324e-06 6.74626e-07 -0.000166701
0.00161533 -1.78046e-05 -4.38941e-06
-1.78046e-05 0.000262958 1.23791e-06
-4.38941e-06 1.23791e-06 0.000205603
0.00256541 3.63615e-05 -1.68916e-05
3.63615e-05 0.000836929 3.47808e-06
-1.68916e-05 3.47808e-06 0.000848834
0.00159551 3.12906e-05 -9.26403e-06
3.12906e-05 0.000359113 2.82501e-06
-9.26403e-06 2.82501e-06 0.000344682
0.0014154 2.18501e-07 -2.54097e-06
2.18501e-07 0.000255037 1.84592e-06
-2.54097e-06 1.84592e-06 0.000207545
0.0012845 -1.8188e-05 -3.58263e-06
-1.8188e-05 0.000135165 1.57149e-06
-3.58263e-06 1.57149e-06 8.01168e-05
0.00107829 -2.7502e-05 -2.52162e-06
-2.7502e-05 -3.63161e-05 1.34394e-06
-2.52162e-06 1.34394e-06 -0.000104219
0.00139529 -3.37182e-05 -1.61342e-06
-3.37182e-05 0.000161374 1.06569e-06
-1.61342e-06 1.06569e-06 9.95734e-05
0.000889147 -2.95511e-05 -1.53127e-06
-2.95511e-05 -4.40859e-05 1.29467e-06
-1.53127e-06 1.29467e-06 -0.000108399
0.0011811 -4.0061e-05 -1.06838e-06
-4.0061e-05 5.25987e-05 8.24738e-07
-1.06838e-06 8.24738e-07 -1.44861e-05
0.000850623 2.10743e-05 -4.51375e-06
2.10743e-05 -3.13131e-05 3.33881e-06
-4.51375e-06 3.33881e-06 -4.54029e-05
0.000958505 -1.44464e-06 -2.74483e-06
-1.44464e-06 8.76054e-06 2.10863e-06
-2.74483e-06 2.10863e-06 -3.51408e-05
0.00100809 1.20686e-05 -4.56392e-08
1.20686e-05 -5.05813e-05 2.02388e-08
-4.56392e-08 2.02388e-08 -0.000112721
0.00138363 2.54189e-07 -7.01889e-07
2.54189e-07 0.000141562 7.9465e-08
-7.01889e-07 7.9465e-08 8.31699e-05
0.00144721 1.40052e-05 -6.61002e-07
1.40052e-05 0.000119734 1.10107e-07
-6.61002e-07 1.10107e-07 5.10317e-05
0.00135548 -2.19499e-05 3.14564e-07
-2.19499e-05 8.2356e-05 -2.8723e-07
3.14564e-07 -2.8723e-07 1.42031e-05
0.000818888 2.29733e-05 1.78933e-09
2.29733e-05 -3.83896e-05 -4.60407e-08
1.78933e-09 -4.60407e-08 -5.40817e-05
0.000931994 -1.20975e-07 8.24766e-08
-1.20975e-07 1.56067e-05 -3.22035e-09
8.24766e-08 -3.22035e-09 -3.23971e-05
0.000916372 -2.7895e-05 3.92116e-07
-2.7895e-05 -1.21771e-05 -2.60663e-07
3.92116e-07 -2.60663e-07 -7.48495e-05
0.00136751 -3.26136e-05 -3.61067e-07
-3.26136e-05 0.0001316 1.03407e-07
-3.61067e-07 1.03407e-07 6.82685e-05
0.001342 -2.9853e-05 -1.8432e-07
-2.9853e-05 6.64288e-05 3.82802e-07
-1.8432e-07 3.82802e-07 -2.81774e-06
0.0012443 -4.41238e-05 -3.90118e-07
-4.41238e-05 0.000108038 1.13782e-07
-3.90118e-07 1.13782e-07 3.79394e-05
0.00122758 -3.75181e-05 6.85451e-08
-3.75181e-05 5.39179e-05 1.01354e-07
6.85451e-08 1.01354e-07 -1.17572e-05
0.00121927 -4.27674e-05 2.84348e-07
-4.27674e-05 5.72542e-05 2.57131e-07
2.84348e-07 2.57131e-07 -1.02479e-05
0.000950279 -5.77701e-07 -6.74059e-09
-5.77701e-07 9.60441e-06 -5.60848e-08
-6.74059e-09 -5.60848e-08 -3.53854e-05
0.000991589 -2.2614e-05 1.53192e-08
-2.2614e-05 2.02508e-05 -1.23112e-07
1.53192e-08 -1.23112e-07 -4.29661e-05
0.000963871 -2.58447e-06 -1.58664e-07
-2.58447e-06 9.67197e-06 -1.71558e-08
-1.58664e-07 -1.71558e-08 -3.25354e-05
0.00154774 1.81719e-05 1.83233e-06
1.81719e-05 0.000169402 -3.12688e-09
1.83233e-06 -3.12688e-09 9.96762e-05
0.00142312 -1.7405e-06 2.25325e-06
-1.7405e-06 0.00010597 -1.51733e-07
2.25325e-06 -1.51733e-07 3.7506e-05
0.00147828 1.71449e-05 1.9726e-06
1.71449e-05 0.000110288 2.45884e-07
1.9726e-06 2.45884e-07 3.74449e-05
0.0013653 -1.65732e-05 1.33634e-06
-1.65732e-05 5.81438e-05 -9.14627e-07
1.33634e-06 -9.14627e-07 -1.32652e-05
0.00112372 -3.3989e-05 1.09118e-06
-3.3989e-05 -1.2093e-05 -1.05939e-06
1.09118e-06 -1.05939e-06 -7.82243e-05
0.00146983 -2.95159e-05 1.8535e-07
-2.95159e-05 0.000112766 -2.49696e-07
1.8535e-07 -2.49696e-07 4.64084e-05
0.000924133 1.33048e-06 2.78221e-06
1.33048e-06 5.79004e-06 -1.85497e-06
2.78221e-06 -1.85497e-06 -4.0513e-05
0.00123513 -3.93941e-05 6.653e-07
-3.93941e-05 4.44096e-05 -6.424e-07
6.653e-07 -6.424e-07 -2.04619e-05
0.00102156 -2.58157e-05 1.13127e-06
-2.58157e-05 4.34994e-05 -8.57579e-07
1.13127e-06 -8.57579e-07 -1.7185e-05
0.000898237 -3.86845e-05 1.37837e-06
-3.86845e-05 -3.2681e-05 -1.90885e-06
1.37837e-06 -1.90885e-06 -0.000103527
0.00132255 -4.84204e-05 1.64039e-06
-4.84204e-05 0.000134273 -6.22053e-07
1.64039e-06 -6.22053e-07 6.04064e-05
0.00150688 -4.83057e-05 3.40842e-07
-4.83057e-05 0.000189881 4.37818e-07
3.40842e-07 4.37818e-07 0.000124843
0.000971427 -1.97356e-06 1.82564e-06
-1.97356e-06 1.23116e-05 -2.41165e-06
1.82564e-06 -2.41165e-06 -2.69715e-05
0.0010395 -2.28951e-05 1.6775e-06
-2.28951e-05 4.57434e-05 -8.37578e-07
1.6775e-06 -8.37578e-07 -1.56302e-05
0.000880305 -1.82704e-05 1.88744e-06
-1.82704e-05 -3.21285e-05 -1.86946e-06
1.88744e-06 -1.86946e-06 -9.71826e-05
0.00125337 -4.06421e-05 5.43584e-07
-4.06421e-05 0.000150156 8.91933e-09
5.43584e-07 8.91933e-09 7.93479e-05
0.00103035 1.95866e-05 -2.73098e-06
1.95866e-05 1.29631e-05 -1.66121e-06
-2.73098e-06 -1.66121e-06 -4.25413e-05
0.000854101 -1.73242e-05 -3.53834e-06
-1.73242e-05 -4.44418e-05 -3.61651e-06
-3.53834e-06 -3.61651e-06 -5.40373e-05
0.000821034 -2.09042e-05 -4.41527e-06
-2.09042e-05 -4.67216e-05 -3.35776e-06
-4.41527e-06 -3.35776e-06 -5.95053e-05
0.000952884 3.05775e-08 -2.56337e-06
3.05775e-08 7.71416e-06 -2.08781e-06
-2.56337e-06 -2.08781e-06 -3.44302e-05
0.000930589 1.58679e-05 -2.22043e-06
1.58679e-05 -1.2725e-06 -1.50463e-06
-2.22043e-06 -1.50463e-06 -5.326e-05
0.00113079 3.3737e-05 -1.45009e-06
3.3737e-05 3.84477e-05 -1.28905e-06
-1.45009e-06 -1.28905e-06 -2.49127e-05
0.000927066 -4.11261e-06 -2.66723e-06
-4.11261e-06 8.67448e-06 -1.8374e-06
-2.66723e-06 -1.8374e-06 -3.66416e-05
0.00103962 2.52096e-05 -1.18289e-06
2.52096e-05 5.24003e-05 -1.02778e-06
-1.18289e-06 -1.02778e-06 -9.25661e-06
0.00111505 3.39081e-05 -1.09878e-06
3.39081e-05 6.5201e-05 -7.76199e-07
-1.09878e-06 -7.76199e-07 5.93046e-06
0.000984689 3.81243e-05 -1.31875e-06
3.81243e-05 7.24464e-06 -3.37083e-07
-1.31875e-06 -3.37083e-07 -5.95245e-05
0.000876583 -1.56317e-05 1.16946e-07
-1.56317e-05 -3.76424e-05 -2.63099e-09
1.16946e-07 -2.63099e-09 -4.57926e-05
0.000949493 -1.79029e-06 2.69357e-08
-1.79029e-06 1.04729e-05 -2.93047e-08
2.69357e-08 -2.93047e-08 -3.26599e-05
0.000964998 8.66814e-07 8.03126e-08
8.66814e-07 9.21642e-06 -2.18612e-08
8.03126e-08 -2.18612e-08 -3.15029e-05
0.00103485 1.57445e-05 6.08539e-08
1.57445e-05 4.41926e-05 -7.90281e-08
6.08539e-08 -7.90281e-08 -1.5347e-05
0.00118361 2.77384e-05 2.75551e-07
2.77384e-05 4.33843e-05 1.40827e-07
2.75551e-07 1.40827e-07 -2.08917e-05
0.00109997 3.52025e-05 4.8004e-08
3.52025e-05 4.48282e-05 1.44321e-08
4.8004e-08 1.44321e-08 -1.63115e-05
0.00120307 3.80011e-05 -5.50279e-09
3.80011e-05 5.29423e-05 2.15332e-07
-5.50279e-09 2.15332e-07 -1.53661e-05
0.00104314 2.03493e-05 -9.44131e-08
2.03493e-05 5.36248e-05 2.83639e-08
-9.44131e-08 2.83639e-08 -6.59445e-06
0.00120319 4.14706e-05 -2.95207e-07
4.14706e-05 9.67797e-05 -3.06647e-07
-2.95207e-07 -3.06647e-07 3.26178e-05
0.00110063 3.97563e-05 1.43739e-07
3.97563e-05 7.83715e-05 -2.74563e-07
1.43739e-07 -2.74563e-07 8.30011e-06
0.00103729 4.0808e-05 -9.77736e-07
4.0808e-05 2.66791e-05 -1.64941e-08
-9.77736e-07 -1.64941e-08 -4.17323e-05
0.000892877 -1.3917e-05 2.88618e-06
-1.3917e-05 -3.29811e-05 3.59437e-06
2.88618e-06 3.59437e-06 -3.97702e-05
0.000976057 1.93477e-06 2.15606e-06
1.93477e-06 1.13265e-05 2.22222e-06
2.15606e-06 2.22222e-06 -2.77561e-05
0.00104903 1.94843e-05 1.47145e-06
1.94843e-05 5.08529e-05 7.6814e-07
1.47145e-06 7.6814e-07 -8.31171e-06
0.00103782 1.35242e-05 1.35398e-06
1.35242e-05 4.53108e-05 1.0443e-06
1.35398e-06 1.0443e-06 -1.40437e-05
0.0010493 2.96856e-05 8.61936e-07
2.96856e-05 5.11318e-05 1.62047e-07
8.61936e-07 1.62047e-07 -1.79689e-05
0.00120481 2.7869e-05 1.28288e-06
2.7869e-05 3.15619e-05 9.18266e-07
1.28288e-06 9.18266e-07 -3.63651e-05
0.0011639 4.11257e-05 6.59947e-07
4.11257e-05 6.06667e-05 1.28278e-06
6.59947e-07 1.28278e-06 -5.73512e-06
0.0012494 4.01581e-05 2.55769e-07
4.01581e-05 6.7813e-05 1.4228e-06
2.55769e-07 1.4228e-06 -2.88981e-06
0.00110249 3.6863e-05 1.27596e-06
3.6863e-05 8.04168e-05 1.27064e-06
1.27596e-06 1.27064e-06 1.09248e-05
0.0011669 4.36132e-05 9.49707e-07
4.36132e-05 7.23297e-05 8.7815e-07
9.49707e-07 8.7815e-07 4.16469e-06
0.00087349 3.93523e-05 9.28771e-07
3.93523e-05 -4.05131e-05 -5.1425e-08
9.28771e-07 -5.1425e-08 -0.000117796
0.000973467 2.68967e-06 1.64801e-06
2.68967e-06 7.42753e-06 2.25967e-06
1.64801e-06 2.25967e-06 -2.81528e-05
0.00103931 1.31157e-05 7.20986e-07
1.31157e-05 4.63234e-05 1.35271e-06
7.20986e-07 1.35271e-06 -8.18231e-06
0.000969277 1.86224e-06 9.48763e-07
1.86224e-06 4.50552e-06 2.11431e-06
9.48763e-07 2.11431e-06 -2.75766e-05
0.000971718 2.32408e-06 1.3009e-07
2.32408e-06 6.10977e-06 2.96966e-08
1.3009e-07 2.96966e-08 -2.75639e-05
0.00153519 -1.30341e-05 2.16982e-06
-1.30341e-05 0.000281861 2.16401e-06
2.16982e-06 2.16401e-06 0.00028088
0.00122032 -1.33718e-05 5.47857e-07
-1.33718e-05 0.00012744 -2.20822e-09
5.47857e-07 -2.20822e-09 0.000123645
0.00117961 -1.40216e-05 1.20359e-05
-1.40216e-05 0.000108226 6.9226e-06
1.20359e-05 6.9226e-06 0.000121316
0.0025062 -2.21399e-05 3.89196e-07
-2.21399e-05 0.000774181 -5.23198e-08
3.89196e-07 -5.23198e-08 0.000792763
0.00256225 -2.51428e-05 -1.44606e-05
-2.51428e-05 0.000805672 -4.10734e-06
-1.44606e-05 -4.10734e-06 0.000823254
0.000859325 1.58926e-05 2.77769e-06
1.58926e-05 -4.23771e-05 -3.52916e-06
2.77769e-06 -3.52916e-06 -5.07364e-05
0.00260391 2.80816e-05 1.52896e-05
2.80816e-05 0.000834242 -3.98623e-06
1.52896e-05 -3.98623e-06 0.000850132
0.000858838 1.71602e-05 -1.48677e-07
1.71602e-05 -3.89175e-05 -3.01177e-09
-1.48677e-07 -3.01177e-09 -4.94769e-05
0.00262439 3.0821e-05 -2.46683e-07
3.0821e-05 0.000849539 -7.53624e-08
-2.46683e-07 -7.53624e-08 0.000864167
0.00085902 1.90037e-05 -4.1775e-06
1.90037e-05 -3.36546e-05 3.53392e-06
-4.1775e-06 3.53392e-06 -4.61814e-05
0.00258103 3.35926e-05 -1.67528e-05
3.35926e-05 0.000835724 3.71131e-06
-1.67528e-05 3.71131e-06 0.000849106
0.00106879 1.7162e-05 -2.86584e-06
1.7162e-05 1.91749e-05 -1.59575e-06
-2.86584e-06 -1.59575e-06 -3.78133e-05
0.00109988 5.26699e-06 -3.13877e-06
5.26699e-06 1.63556e-05 -1.27311e-06
-3.13877e-06 -1.27311e-06 -4.26751e-05
0.00124906 1.3154e-05 -1.6731e-06
1.3154e-05 5.08128e-05 -8.43198e-07
-1.6731e-06 -8.43198e-07 -1.51925e-05
0.00130788 -6.65401e-06 -2.182e-06
-6.65401e-06 6.18487e-05 -7.65546e-07
-2.182e-06 -7.65546e-07 -8.00363e-06
0.00113215 1.86145e-06 -3.93247e-06
1.86145e-06 1.23664e-05 -9.46141e-07
-3.93247e-06 -9.46141e-07 -4.96097e-05
0.000712885 2.44195e-06 -6.69696e-06
2.44195e-06 -8.62663e-05 -4.07225e-08
-6.69696e-06 -4.07225e-08 -0.000125328
0.00113134 3.25502e-06 -3.35139e-09
3.25502e-06 7.85244e-06 -1.83788e-07
-3.35139e-09 -1.83788e-07 -5.4421e-05
0.00130125 1.42298e-06 -1.95121e-08
1.42298e-06 5.01707e-05 -1.03056e-07
-1.95121e-08 -1.03056e-07 -2.16428e-05
0.00126378 1.25012e-06 6.54145e-08
1.25012e-06 4.88026e-05 -3.8712e-09
6.54145e-08 -3.8712e-09 -1.88112e-05
0.00136793 -1.18693e-05 -4.86256e-09
-1.18693e-05 6.9597e-05 1.99872e-09
-4.86256e-09 1.99872e-09 -2.46191e-06
0.00121473 2.17375e-05 -4.80948e-08
2.17375e-05 4.50098e-05 -6.78142e-10
-4.80948e-08 -6.78142e-10 -1.99202e-05
0.00131693 1.49659e-05 -5.28585e-09
1.49659e-05 5.98597e-05 1.04329e-07
-5.28585e-09 1.04329e-07 -8.29289e-06
0.0013101 7.87867e-06 2.54771e-06
7.87867e-06 5.05535e-05 -1.52062e-07
2.54771e-06 -1.52062e-07 -2.1668e-05
0.00131053 -3.55136e-06 1.39762e-06
-3.55136e-06 3.92643e-05 5.14741e-07
1.39762e-06 5.14741e-07 -3.45695e-05
0.00132233 3.34178e-06 1.30073e-06
3.34178e-06 5.24992e-05 5.3215e-07
1.30073e-06 5.3215e-07 -1.75363e-05
0.00147585 -1.65697e-05 1.83189e-06
-1.65697e-05 0.000108282 3.14639e-07
1.83189e-06 3.14639e-07 3.71682e-05
0.00127608 1.97051e-05 7.74095e-07
1.97051e-05 5.1797e-05 5.65921e-07
7.74095e-07 5.65921e-07 -1.55299e-05
0.00137986 7.09599e-06 -3.76643e-07
7.09599e-06 7.48134e-05 9.80749e-07
-3.76643e-07 9.80749e-07 1.07456e-05
0.000906412 1.37795e-05 -3.91248e-06
1.37795e-05 -0.000100745 3.92216e-07
-3.91248e-06 3.92216e-07 -0.000163655
0.00137569 -4.70715e-06 -4.537e-06
-4.70715e-06 0.000136973 9.13429e-07
-4.537e-06 9.13429e-07 7.87811e-05
0.0013328 1.89211e-05 -3.10877e-06
1.89211e-05 6.4001e-05 1.56446e-07
-3.10877e-06 1.56446e-07 -4.98161e-06
0.00157568 -2.39032e-05 -1.92072e-06
-2.39032e-05 0.000190965 3.92984e-07
-1.92072e-06 3.92984e-07 0.000123749
0.00084711 2.35104e-05 -4.58851e-06
2.35104e-05 -2.40952e-05 3.14142e-06
-4.58851e-06 3.14142e-06 -3.99512e-05
0.000953111 -1.62445e-06 -2.47978e-06
-1.62445e-06 2.41348e-05 1.75884e-06
-2.47978e-06 1.75884e-06 -2.36731e-05
0.00101981 -2.94825e-05 -8.37499e-07
-2.94825e-05 3.91245e-05 1.02662e-06
-8.37499e-07 1.02662e-06 -2.30275e-05
0.00145785 -3.34246e-05 -1.97226e-06
-3.34246e-05 0.000174543 1.16175e-06
-1.97226e-06 1.16175e-06 0.000111253
0.00119778 -2.74753e-05 -1.3099e-06
-2.74753e-05 -4.22264e-06 1.2577e-06
-1.3099e-06 1.2577e-06 -7.34314e-05
0.00122747 -3.74194e-05 -9.8438e-07
-3.74194e-05 5.38866e-05 9.70096e-07
-9.8438e-07 9.70096e-07 -1.1753e-05
0.00103574 -4.06001e-05 -1.5922e-06
-4.06001e-05 7.19062e-06 1.36634e-06
-1.5922e-06 1.36634e-06 -6.35563e-05
0.0011292 -4.12226e-05 -6.24398e-07
-4.12226e-05 1.38848e-05 5.18719e-07
-6.24398e-07 5.18719e-07 -5.36727e-05
0.000957075 -4.14626e-07 -2.77556e-06
-4.14626e-07 1.22477e-05 1.87534e-06
-2.77556e-06 1.87534e-06 -3.25773e-05
0.00092806 -2.14318e-05 -1.76991e-06
-2.14318e-05 -1.24519e-05 9.0878e-07
-1.76991e-06 9.0878e-07 -7.58483e-05
0.000961738 -2.09127e-06 -2.41516e-06
-2.09127e-06 8.68074e-06 2.3189e-06
-2.41516e-06 2.3189e-06 -3.35052e-05
0.00140755 1.84164e-05 -6.53052e-07
1.84164e-05 0.000100756 1.8376e-07
-6.53052e-07 1.8376e-07 3.02546e-05
0.00141713 -7.33476e-06 -2.71987e-07
-7.33476e-06 0.000102542 1.75459e-08
-2.71987e-07 1.75459e-08 3.42019e-05
0.00138015 1.92977e-05 -3.42577e-07
1.92977e-05 6.12746e-05 1.46648e-08
-3.42577e-07 1.46648e-08 -1.21217e-05
0.00144891 -1.54254e-05 -4.34367e-08
-1.54254e-05 9.80509e-05 -3.10541e-07
-4.34367e-08 -3.10541e-07 2.6905e-05
0.000939948 7.50394e-07 5.14111e-08
7.50394e-07 1.21693e-05 -3.36079e-08
5.14111e-08 -3.36079e-08 -3.39317e-05
0.00104567 -2.61866e-05 6.98728e-08
-2.61866e-05 5.43981e-05 5.43348e-08
6.98728e-08 5.43348e-08 -6.27002e-06
0.000994146 -4.01097e-05 2.23139e-07
-4.01097e-05 1.58057e-05 -3.28683e-07
2.23139e-07 -3.28683e-07 -5.45205e-05
0.00128236 -3.57849e-05 -5.23902e-08
-3.57849e-05 6.51022e-05 -1.40596e-07
-5.23902e-08 -1.40596e-07 -9.48143e-07
0.00135811 -2.86095e-05 2.96041e-07
-2.86095e-05 5.85088e-05 6.3665e-07
2.96041e-07 6.3665e-07 -7.01596e-06
0.00118722 -4.64378e-05 7.10692e-08
-4.64378e-05 6.99454e-05 9.77993e-08
7.10692e-08 9.77993e-08 -4.79234e-06
0.00124496 -3.90308e-05 4.67195e-08
-3.90308e-05 4.9109e-05 1.67466e-07
4.67195e-08 1.67466e-07 -1.56782e-05
0.00137293 -4.59962e-05 4.59527e-07
-4.59962e-05 0.000125023 3.19508e-07
4.59527e-07 3.19508e-07 6.06358e-05
0.00104938 -2.35202e-05 9.9916e-08
-2.35202e-05 4.96955e-05 -7.86064e-08
9.9916e-08 -7.86064e-08 -1.14892e-05
0.00114305 -3.86791e-05 -3.5407e-07
-3.86791e-05 9.47575e-05 1.75318e-07
-3.5407e-07 1.75318e-07 2.35915e-05
0.000961584 -1.69962e-06 -1.26476e-07
-1.69962e-06 7.74861e-06 3.62741e-08
-1.26476e-07 3.62741e-08 -3.15815e-05
0.000894455 -1.74734e-05 3.71285e-07
-1.74734e-05 -2.56344e-05 -4.35603e-07
3.71285e-07 -4.35603e-07 -9.05451e-05
0.00140654 1.99241e-05 2.3144e-06
1.99241e-05 8.00339e-05 1.44033e-07
2.3144e-06 1.44033e-07 5.22476e-06
0.00157045 6.11035e-07 1.75469e-06
6.11035e-07 0.000143515 6.63667e-08
1.75469e-06 6.63667e-08 7.10841e-05
0.00137802 2.15322e-05 1.67296e-06
2.15322e-05 4.8296e-05 3.95172e-07
1.67296e-06 3.95172e-07 -2.76818e-05
0.00133436 -1.13908e-05 6.29889e-07
-1.13908e-05 2.57866e-05 -1.41949e-06
6.29889e-07 -1.41949e-06 -4.34346e-05
0.00119425 -3.51085e-05 3.27046e-07
-3.51085e-05 7.65551e-06 -5.63266e-07
3.27046e-07 -5.63266e-07 -5.59497e-05
0.00153716 -2.7812e-05 1.33359e-06
-2.7812e-05 0.000128713 -5.39205e-07
1.33359e-06 -5.39205e-07 6.84087e-05
0.00102826 -2.28572e-05 1.34984e-06
-2.28572e-05 4.4228e-05 -7.12786e-07
1.34984e-06 -7.12786e-07 -1.60256e-05
0.00123035 -3.91294e-05 -6.97583e-08
-3.91294e-05 3.42055e-05 -2.57187e-07
-6.97583e-08 -2.57187e-07 -2.52704e-05
0.000889176 -3.69259e-05 7.786e-07
-3.69259e-05 -2.67409e-05 -1.33735e-06
7.786e-07 -1.33735e-06 -9.48315e-05
0.0011277 -4.59164e-05 1.55297e-06
-4.59164e-05 7.35218e-05 -1.82646e-06
1.55297e-06 -1.82646e-06 -4.147e-06
0.0012369 -4.98508e-05 2.01354e-06
-4.98508e-05 8.58502e-05 4.15429e-07
2.01354e-06 4.15429e-07 8.58525e-06
0.00159259 -4.96454e-05 1.16171e-06
-4.96454e-05 0.000222159 -2.3246e-07
1.16171e-06 -2.3246e-07 0.000158372
0.000956748 4.31825e-06 1.09535e-06
4.31825e-06 4.6664e-06 -2.31684e-06
1.09535e-06 -2.31684e-06 -3.17437e-05
0.000835569 -1.29098e-05 1.4765e-06
-1.29098e-05 -5.24365e-05 -2.18129e-06
1.4765e-06 -2.18129e-06 -0.00011618
0.00108198 -3.79167e-05 8.64976e-07
-3.79167e-05 6.22128e-05 -1.01019e-07
8.64976e-07 -1.01019e-07 -5.7658e-06
0.00111108 -3.72309e-05 1.15997e-06
-3.72309e-05 8.64644e-05 -4.22303e-07
1.15997e-06 -4.22303e-07 1.04336e-05
0.00123907 -4.36806e-05 5.97554e-07
-4.36806e-05 0.00013742 2.48641e-07
5.97554e-07 2.48641e-07 6.36747e-05
0.000866932 -1.54615e-05 -3.08959e-06
-1.54615e-05 -4.28215e-05 -3.64408e-06
-3.08959e-06 -3.64408e-06 -5.0831e-05
0.00120371 2.82801e-05 -1.24764e-06
2.82801e-05 5.27543e-05 -8.64344e-07
-1.24764e-06 -8.64344e-07 -1.15871e-05
0.000958071 1.1745e-06 -2.34012e-06
1.1745e-06 6.23913e-06 -2.23172e-06
-2.34012e-06 -2.23172e-06 -3.45449e-05
0.000942435 -1.76998e-06 -2.74771e-06
-1.76998e-06 7.85091e-06 -1.91102e-06
-2.74771e-06 -1.91102e-06 -3.54176e-05
0.0010309 1.58918e-05 -1.38985e-06
1.58918e-05 4.2831e-05 -9.91551e-07
-1.38985e-06 -9.91551e-07 -1.68309e-05
0.00107832 3.52081e-05 -1.24478e-06
3.52081e-05 3.50327e-05 -1.29444e-06
-1.24478e-06 -1.29444e-06 -2.60813e-05
0.00119702 3.78916e-05 -8.08756e-07
3.78916e-05 5.02493e-05 -9.61605e-07
-8.08756e-07 -9.61605e-07 -1.80829e-05
0.00102663 1.98167e-05 -1.24438e-06
1.98167e-05 4.64125e-05 -8.07442e-07
-1.24438e-06 -8.07442e-07 -1.38292e-05
0.00111557 4.04039e-05 -9.77031e-07
4.04039e-05 8.52793e-05 -9.80843e-07
-9.77031e-07 -9.80843e-07 1.49881e-05
0.00129361 4.2971e-05 -1.08744e-06
4.2971e-05 0.000141224 -1.05788e-06
-1.08744e-06 -1.05788e-06 7.74532e-05
0.00104538 4.07487e-05 -2.02103e-06
4.07487e-05 3.229e-05 1.05712e-07
-2.02103e-06 1.05712e-07 -3.49231e-05
0.000885381 -1.37917e-05 1.23777e-07
-1.37917e-05 -3.6921e-05 2.72362e-09
1.23777e-07 2.72362e-09 -4.35966e-05
0.000970063 2.37688e-06 6.31345e-08
2.37688e-06 8.56489e-06 -8.64905e-09
6.31345e-08 -8.64905e-09 -3.05531e-05
0.00104194 1.83369e-05 -4.31895e-08
1.83369e-05 4.81059e-05 -3.85348e-08
-4.31895e-08 -3.85348e-08 -1.11384e-05
0.00103287 1.32521e-05 3.60502e-08
1.32521e-05 4.33783e-05 -3.32372e-08
3.60502e-08 -3.32372e-08 -1.60919e-05
0.00101772 2.86522e-05 6.02419e-08
2.86522e-05 3.53636e-05 -1.12233e-07
6.02419e-08 -1.12233e-07 -3.37716e-05
0.00124501 2.87296e-05 4.0418e-07
2.87296e-05 5.00539e-05 2.19699e-07
4.0418e-07 2.19699e-07 -1.79228e-05
0.00115365 4.11595e-05 1.01274e-07
4.11595e-05 5.61937e-05 -5.67751e-08
1.01274e-07 -5.67751e-08 -1.02443e-05
0.00121966 4.06823e-05 4.20098e-07
4.06823e-05 5.33465e-05 3.49392e-07
4.20098e-07 3.49392e-07 -1.76584e-05
0.00108948 3.73198e-05 4.12568e-07
3.73198e-05 7.47413e-05 3.71133e-07
4.12568e-07 3.71133e-07 5.24458e-06
0.00121349 4.40411e-05 9.10871e-08
4.40411e-05 9.55413e-05 -2.771e-07
9.10871e-08 -2.771e-07 2.77258e-05
0.00100734 4.17126e-05 -6.7415e-07
4.17126e-05 2.25821e-05 -3.86864e-07
-6.7415e-07 -3.86864e-07 -5.39425e-05
0.000976022 3.37249e-06 1.95879e-06
3.37249e-06 9.43397e-06 2.26943e-06
1.95879e-06 2.26943e-06 -2.79584e-05
0.00103956 1.32615e-05 1.29165e-06
1.32615e-05 4.5349e-05 1.16126e-06
1.29165e-06 1.16126e-06 -1.34808e-05
0.00103308 3.32691e-05 6.74501e-07
3.32691e-05 4.08077e-05 2.63391e-07
6.74501e-07 2.63391e-07 -2.76338e-05
0.00106527 2.6565e-05 7.13399e-07
2.6565e-05 6.09182e-05 3.69689e-07
7.13399e-07 3.69689e-07 -8.99169e-06
0.00114973 3.86246e-05 5.6615e-08
3.86246e-05 0.000100296 -2.59621e-07
5.6615e-08 -2.59621e-07 2.67287e-05
0.00121368 2.68844e-05 -2.2366e-07
2.68844e-05 2.45374e-05 1.68724e-07
-2.2366e-07 1.68724e-07 -4.36753e-05
0.00118432 4.52065e-05 9.14939e-07
4.52065e-05 6.39138e-05 1.2644e-06
9.14939e-07 1.2644e-06 -5.99693e-06
0.00106718 4.40464e-05 -5.67938e-09
4.40464e-05 -1.80891e-05 6.64865e-07
-5.67938e-09 6.64865e-07 -8.84293e-05
0.00108932 4.29356e-05 7.22901e-07
4.29356e-05 7.36061e-05 1.47563e-06
7.22901e-07 1.47563e-06 -4.13436e-06
0.00118584 4.71788e-05 1.82607e-06
4.71788e-05 9.00481e-05 5.45065e-07
1.82607e-06 5.45065e-07 1.02505e-05
0.000971543 3.42195e-06 1.03745e-07
3.42195e-06 6.39111e-06 1.86158e-08
1.03745e-07 1.86158e-08 -2.91559e-05
0.0008751 1.08245e-05 1.25439e-06
1.08245e-05 -3.68333e-05 1.81405e-06
1.25439e-06 1.81405e-06 -9.4621e-05
0.000947833 1.10058e-05 6.95667e-09
1.10058e-05 9.66734e-07 1.69742e-08
6.95667e-09 1.69742e-08 -5.432e-05
0.00123113 2.81779e-05 3.13781e-07
2.81779e-05 0.000149345 2.82285e-07
3.13781e-07 2.82285e-07 8.16805e-05
0.00102274 1.05844e-05 4.87305e-07
1.05844e-05 3.99959e-05 1.33198e-06
4.87305e-07 1.33198e-06 -1.29092e-05
0.000974637 4.02918e-06 7.65083e-07
4.02918e-06 6.60744e-06 2.01721e-06
7.65083e-07 2.01721e-06 -2.43396e-05
0.000975244 7.67974e-07 9.78356e-08
7.67974e-07 7.48373e-06 2.48235e-08
9.78356e-08 2.48235e-08 -2.45829e-05
0.00153013 -1.08854e-05 1.72426e-06
-1.08854e-05 0.000276327 2.10464e-06
1.72426e-06 2.10464e-06 0.000276529
0.000973688 3.37345e-06 -1.14378e-06
3.37345e-06 7.01611e-06 -2.17824e-06
-1.14378e-06 -2.17824e-06 -2.66284e-05
0.00155587 -1.23626e-05 -2.02132e-06
-1.23626e-05 0.000292126 -1.30298e-06
-2.02132e-06 -1.30298e-06 0.000291206
0.00118925 -1.21372e-05 1.04378e-05
-1.21372e-05 0.000109049 6.82255e-06
1.04378e-05 6.82255e-06 0.00012325
0.00155504 -1.37319e-05 -5.88058e-06
-1.37319e-05 0.000294426 -3.43132e-06
-5.88058e-06 -3.43132e-06 0.000292356
0.00180552 -1.67412e-05 8.37368e-06
-1.67412e-05 0.000420844 2.48086e-06
8.37368e-06 2.48086e-06 0.000437228
0.00252327 -2.22435e-05 -1.31386e-05
-2.22435e-05 0.000782429 -4.14727e-06
-1.31386e-05 -4.14727e-06 0.000801021
0.000872413 1.49855e-05 2.25099e-06
1.49855e-05 -3.95055e-05 -3.36175e-06
2.25099e-06 -3.36175e-06 -4.56896e-05
0.000872793 1.59827e-05 -1.64026e-07
1.59827e-05 -3.56419e-05 1.62847e-08
-1.64026e-07 1.62847e-08 -4.41522e-05
0.00251799 2.52401e-05 1.3784e-05
2.52401e-05 0.000787296 -3.96901e-06
1.3784e-05 -3.96901e-06 0.000804589
0.00258657 2.79444e-05 -2.74003e-07
2.79444e-05 0.000825894 -6.65063e-08
-2.74003e-07 -6.65063e-08 0.000841739
0.000871514 1.73617e-05 -3.65261e-06
1.73617e-05 -3.22232e-05 3.62628e-06
-3.65261e-06 3.62628e-06 -4.29649e-05
0.00259032 3.07285e-05 -1.64655e-05
3.07285e-05 0.000833342 3.92748e-06
-1.64655e-05 3.92748e-06 0.000847944
0.00122451 2.19462e-05 -1.58707e-06
2.19462e-05 4.95927e-05 -8.79166e-07
-1.58707e-06 -8.79166e-07 -1.53807e-05
0.00127271 1.08361e-06 -1.87955e-06
1.08361e-06 5.32038e-05 -8.18783e-07
-1.87955e-06 -8.18783e-07 -1.4416e-05
0.00132372 1.51911e-05 -9.30472e-07
1.51911e-05 6.34047e-05 -5.65691e-07
-9.30472e-07 -5.65691e-07 -4.76135e-06
0.00136321 -1.27033e-05 -1.51195e-06
-1.27033e-05 6.64047e-05 -4.49407e-07
-1.51195e-06 -4.49407e-07 -5.7411e-06
0.00132097 4.43105e-06 -2.30274e-06
4.43105e-06 5.96535e-05 -6.60881e-07
-2.30274e-06 -6.60881e-07 -1.22036e-05
0.00112852 7.55422e-06 -3.95442e-06
7.55422e-06 6.30822e-06 -1.92701e-07
-3.95442e-06 -1.92701e-07 -5.59715e-05
0.00131599 1.20224e-05 5.19339e-08
1.20224e-05 5.35029e-05 -2.23483e-07
5.19339e-08 -2.23483e-07 -1.87528e-05
0.00134295 -1.04232e-05 1.69043e-08
-1.04232e-05 5.41436e-05 4.69917e-08
1.69043e-08 4.69917e-08 -1.99592e-05
0.00133766 2.02161e-06 5.60732e-08
2.02161e-06 6.00747e-05 -8.14763e-08
5.60732e-08 -8.14763e-08 -9.94906e-06
0.00145893 -1.73161e-05 8.75418e-08
-1.73161e-05 9.96637e-05 -2.02003e-07
8.75418e-08 -2.02003e-07 2.84778e-05
0.00128255 2.03965e-05 -3.93852e-08
2.03965e-05 5.48294e-05 2.55646e-08
-3.93852e-08 2.55646e-08 -1.26132e-05
0.00136811 6.99687e-06 -5.38944e-08
6.99687e-06 6.81815e-05 6.13017e-07
-5.38944e-08 6.13017e-07 4.42099e-06
0.00138848 3.11207e-06 1.95068e-06
3.11207e-06 7.36653e-05 9.74098e-08
1.95068e-06 9.74098e-08 -1.4162e-06
0.00135483 -3.73779e-06 1.58448e-06
-3.73779e-06 5.68051e-05 1.22273e-07
1.58448e-06 1.22273e-07 -1.72499e-05
0.00123212 -4.14649e-06 9.99049e-07
-4.14649e-06 -9.54581e-06 1.41905e-06
9.99049e-07 1.41905e-06 -7.68591e-05
0.0016502 -2.27162e-05 1.72603e-06
-2.27162e-05 0.0001863 2.95717e-07
1.72603e-06 2.95717e-07 0.0001151
0.00125353 1.61181e-05 -2.76232e-07
1.61181e-05 2.47408e-05 9.47232e-08
-2.76232e-07 9.47232e-08 -4.00516e-05
0.0015569 8.73888e-07 4.91905e-07
8.73888e-07 0.000144284 7.29013e-07
4.91905e-07 7.29013e-07 8.55949e-05
0.0012582 1.77831e-05 -3.10327e-06
1.77831e-05 2.76723e-05 2.73403e-07
-3.10327e-06 2.73403e-07 -4.3582e-05
0.00141134 -9.53988e-06 -2.78638e-06
-9.53988e-06 9.94214e-05 3.09412e-07
-2.78638e-06 3.09412e-07 3.11329e-05
0.00128679 1.94479e-05 -2.43591e-06
1.94479e-05 1.45023e-05 -2.11011e-07
-2.43591e-06 -2.11011e-07 -5.94273e-05
0.00152747 -1.46002e-05 -1.57452e-06
-1.46002e-05 0.000135486 2.80279e-07
-1.57452e-06 2.80279e-07 6.46239e-05
0.00095437 1.43125e-07 -2.62501e-06
1.43125e-07 1.79246e-05 1.72049e-06
-2.62501e-06 1.72049e-06 -2.79822e-05
0.00106944 -2.6765e-05 -1.21463e-06
-2.6765e-05 6.51401e-05 1.09083e-06
-1.21463e-06 1.09083e-06 4.47751e-06
0.00107877 -4.12979e-05 -7.04843e-07
-4.12979e-05 5.90189e-05 1.19418e-06
-7.04843e-07 1.19418e-06 -1.07921e-05
0.00144124 -3.75237e-05 -9.80313e-07
-3.75237e-05 0.00014242 7.83397e-07
-9.80313e-07 7.83397e-07 7.64534e-05
0.00124662 -2.76532e-05 -4.20561e-07
-2.76532e-05 4.33664e-06 1.12511e-06
-4.20561e-07 1.12511e-06 -6.03496e-05
0.00125627 -3.87128e-05 -4.50275e-07
-3.87128e-05 5.45305e-05 9.29448e-07
-4.50275e-07 9.29448e-07 -1.01753e-05
0.00105899 -4.45705e-05 -1.58973e-06
-4.45705e-05 8.99156e-06 1.09626e-06
-1.58973e-06 1.09626e-06 -6.66208e-05
0.00123807 -4.3683e-05 -1.85855e-07
-4.3683e-05 5.96396e-05 -7.14712e-07
-1.85855e-07 -7.14712e-07 -4.08589e-06
0.00105771 -2.4124e-05 -1.53487e-06
-2.4124e-05 5.28791e-05 7.33411e-07
-1.53487e-06 7.33411e-07 -8.11052e-06
0.00103427 -3.67539e-05 -1.56917e-06
-3.67539e-05 4.00934e-05 3.26422e-07
-1.56917e-06 3.26422e-07 -3.14317e-05
0.000953257 -5.22169e-07 -2.0116e-06
-5.22169e-07 3.91015e-06 2.3607e-06
-2.0116e-06 2.3607e-06 -3.54541e-05
0.000911111 -1.67875e-05 -1.14205e-06
-1.67875e-05 -1.78595e-05 1.00221e-06
-1.14205e-06 1.00221e-06 -8.26559e-05
0.00139808 2.02271e-05 -7.12531e-08
2.02271e-05 7.63789e-05 2.20247e-08
-7.12531e-08 2.20247e-08 1.66028e-06
0.00154307 2.63972e-06 -2.01065e-07
2.63972e-06 0.000131519 1.14201e-07
-2.01065e-07 1.14201e-07 5.91528e-05
0.00138066 2.1874e-05 -5.60021e-07
2.1874e-05 4.93174e-05 -7.36239e-08
-5.60021e-07 -7.36239e-08 -2.71125e-05
0.00139655 -1.21003e-05 -2.10582e-07
-1.21003e-05 5.59268e-05 -1.6776e-07
-2.10582e-07 -1.6776e-07 -1.31864e-05
0.00104577 -2.37473e-05 9.68494e-08
-2.37473e-05 5.18061e-05 -3.11428e-08
9.68494e-08 -3.11428e-08 -8.34952e-06
0.000960078 -3.75439e-05 2.57126e-07
-3.75439e-05 8.5214e-06 -1.32631e-07
2.57126e-07 -1.32631e-07 -5.90412e-05
0.00113312 -4.59679e-05 2.60469e-08
-4.59679e-05 7.72392e-05 -1.0448e-07
2.60469e-08 -1.0448e-07 -6.50124e-07
0.00130832 -3.60919e-05 -3.80902e-07
-3.60919e-05 6.25482e-05 -6.77446e-08
-3.80902e-07 -6.77446e-08 -1.61824e-06
0.0013837 -2.7581e-05 4.28335e-07
-2.7581e-05 6.02772e-05 4.91345e-07
4.28335e-07 4.91345e-07 1.38501e-06
0.00124224 -4.97981e-05 -7.77838e-08
-4.97981e-05 8.94674e-05 3.4856e-07
-7.77838e-08 3.4856e-07 1.16395e-05
0.00125383 -3.909e-05 2.84998e-08
-3.909e-05 4.61437e-05 3.6031e-07
2.84998e-08 3.6031e-07 -1.33485e-05
0.00134154 -4.59861e-05 4.21413e-07
-4.59861e-05 0.000100733 -1.35863e-06
4.21413e-07 -1.35863e-06 3.88359e-05
0.00109482 -3.80095e-05 1.08387e-07
-3.80095e-05 6.81957e-05 -8.08137e-10
1.08387e-07 -8.08137e-10 2.5362e-07
0.00116718 -4.24141e-05 -6.89717e-08
-4.24141e-05 0.000100909 6.36024e-08
-6.89717e-08 6.36024e-08 2.71974e-05
0.00111954 -3.75926e-05 -7.39873e-08
-3.75926e-05 9.08485e-05 2.20877e-07
-7.39873e-08 2.20877e-07 1.45136e-05
0.000813533 7.37193e-06 -4.31437e-07
7.37193e-06 -6.64437e-05 2.35426e-08
-4.31437e-07 2.35426e-08 -0.000103869
0.000868769 -1.19857e-05 3.45451e-07
-1.19857e-05 -3.69123e-05 -5.2794e-07
3.45451e-07 -5.2794e-07 -0.00010022
0.00145648 2.65859e-05 1.87924e-06
2.65859e-05 9.52491e-05 5.69115e-07
1.87924e-06 5.69115e-07 1.83546e-05
0.00146574 1.59844e-05 1.9091e-06
1.59844e-05 7.28882e-05 2.93507e-07
1.9091e-06 2.93507e-07 -3.09139e-06
0.00142839 -1.44853e-05 1.4347e-06
-1.44853e-05 5.68695e-05 -2.09414e-06
1.4347e-06 -2.09414e-06 -5.94375e-06
0.00123825 -3.1395e-05 8.96927e-07
-3.1395e-05 5.27061e-06 -1.07738e-06
8.96927e-07 -1.07738e-06 -5.12197e-05
0.0010772 -3.8642e-05 6.18903e-07
-3.8642e-05 6.23713e-05 -3.41504e-07
6.18903e-07 -3.41504e-07 -3.84483e-06
0.00150624 -4.37595e-05 1.04117e-06
-4.37595e-05 0.000149367 -4.21916e-07
1.04117e-06 -4.21916e-07 9.57312e-05
0.00078069 -3.76069e-05 9.01794e-07
-3.76069e-05 -7.68264e-05 -2.11367e-06
9.01794e-07 -2.11367e-06 -0.000150933
0.00119345 -5.03147e-05 2.18325e-06
-5.03147e-05 9.92979e-05 -1.73091e-06
2.18325e-06 -1.73091e-06 1.3518e-05
0.00133603 -5.26436e-05 2.31085e-06
-5.26436e-05 0.000120258 4.63979e-07
2.31085e-06 4.63979e-07 4.1361e-05
0.000696117 1.00685e-05 8.76492e-07
1.00685e-05 -0.000127712 -2.87543e-06
8.76492e-07 -2.87543e-06 -0.000162822
0.00110493 -5.95973e-06 8.55184e-07
-5.95973e-06 8.23364e-05 -1.46026e-06
8.55184e-07 -1.46026e-06 2.39785e-05
0.00104572 -3.49678e-05 8.13015e-07
-3.49678e-05 5.96854e-05 -8.90348e-07
8.13015e-07 -8.90348e-07 -1.68632e-05
0.00111166 -4.12182e-05 5.56048e-07
-4.12182e-05 7.18012e-05 -7.69811e-08
5.56048e-07 -7.69811e-08 1.44561e-06
0.00116943 -4.27366e-05 9.93304e-07
-4.27366e-05 0.000111201 9.37585e-08
9.93304e-07 9.37585e-08 2.7927e-05
0.00108907 -4.23363e-05 3.08178e-07
-4.23363e-05 5.74208e-05 -2.25062e-07
3.08178e-07 -2.25062e-07 -1.88675e-05
0.000878151 -1.36697e-05 -2.63271e-06
-1.36697e-05 -4.07493e-05 -3.60762e-06
-2.63271e-06 -3.60762e-06 -4.73091e-05
0.000964492 2.5042e-06 -2.14936e-06
2.5042e-06 5.98644e-06 -2.33203e-06
-2.14936e-06 -2.33203e-06 -3.3157e-05
0.00128582 2.96843e-05 -5.95407e-07
2.96843e-05 6.87998e-05 -5.17854e-07
-5.95407e-07 -5.17854e-07 7.74892e-07
0.00102589 1.27887e-05 -1.3371e-06
1.27887e-05 4.04253e-05 -1.15869e-06
-1.3371e-06 -1.15869e-06 -1.91487e-05
0.00103261 1.71723e-05 -1.43969e-06
1.71723e-05 4.42696e-05 -7.79248e-07
-1.43969e-06 -7.79248e-07 -1.50489e-05
0.000985497 2.75012e-05 -5.87833e-07
2.75012e-05 1.92397e-05 -2.81157e-07
-5.87833e-07 -2.81157e-07 -4.99146e-05
0.00114274 4.1136e-05 -6.28897e-07
4.1136e-05 5.14195e-05 -1.44768e-06
-6.28897e-07 -1.44768e-06 -1.50528e-05
0.00119022 4.1104e-05 -1.92846e-07
4.1104e-05 3.90146e-05 -8.70693e-07
-1.92846e-07 -8.70693e-07 -3.22851e-05
0.00107141 3.76731e-05 -3.50916e-07
3.76731e-05 6.65359e-05 -4.6449e-07
-3.50916e-07 -4.6449e-07 -2.94904e-06
0.00113541 4.39288e-05 -1.16305e-06
4.39288e-05 8.29423e-05 -5.53767e-07
-1.16305e-06 -5.53767e-07 7.17732e-06
0.00125987 4.44778e-05 -1.4288e-06
4.44778e-05 0.000118752 -9.83739e-07
-1.4288e-06 -9.83739e-07 5.12741e-05
0.000972658 3.42456e-06 9.61587e-08
3.42456e-06 7.79917e-06 2.64909e-09
9.61587e-08 2.64909e-09 -2.95853e-05
0.00103533 1.32346e-05 -1.72761e-08
1.32346e-05 4.35793e-05 -4.88389e-08
-1.72761e-08 -4.88389e-08 -1.5362e-05
0.00106129 3.41013e-05 -1.2189e-07
3.41013e-05 5.5114e-05 -1.19145e-07
-1.2189e-07 -1.19145e-07 -1.28824e-05
0.00107125 2.75853e-05 -8.18645e-08
2.75853e-05 6.41375e-05 -2.0789e-08
-8.18645e-08 -2.0789e-08 -5.97805e-06
0.00108356 3.77622e-05 -3.07043e-07
3.77622e-05 6.8037e-05 -4.21513e-08
-3.07043e-07 -4.21513e-08 -5.92976e-06
0.00125995 2.86615e-05 -2.96475e-07
2.86615e-05 4.73721e-05 -1.48182e-07
-2.96475e-07 -1.48182e-07 -2.12327e-05
0.0011824 4.49712e-05 4.394e-07
4.49712e-05 6.20866e-05 -9.11447e-08
4.394e-07 -9.11447e-08 -7.91939e-06
0.00115883 4.44366e-05 1.91561e-07
4.44366e-05 2.45931e-05 4.13877e-07
1.91561e-07 4.13877e-07 -4.53433e-05
0.000997808 4.13432e-05 3.80081e-07
4.13432e-05 2.90205e-05 5.3625e-07
3.80081e-07 5.3625e-07 -4.90907e-05
0.00120662 4.7708e-05 -6.20578e-09
4.7708e-05 0.000100486 -1.35528e-07
-6.20578e-09 -1.35528e-07 1.94187e-05
0.00104386 1.41905e-05 1.26914e-06
1.41905e-05 4.67197e-05 1.28733e-06
1.26914e-06 1.28733e-06 -1.12916e-05
0.000937606 2.73156e-05 1.22267e-06
2.73156e-05 -1.77079e-06 7.97567e-07
1.22267e-06 7.97567e-07 -7.36017e-05
0.00110768 4.26924e-05 2.61999e-08
4.26924e-05 7.70023e-05 3.24857e-07
2.61999e-08 3.24857e-07 2.03941e-06
0.000980611 3.58743e-05 4.314e-07
3.58743e-05 1.74582e-05 -3.73193e-08
4.314e-07 -3.73193e-08 -5.89398e-05
0.00113132 4.15491e-05 -1.40472e-07
4.15491e-05 8.58022e-05 -2.24407e-07
-1.40472e-07 -2.24407e-07 8.79419e-06
0.00122867 3.04522e-05 2.44975e-07
3.04522e-05 6.737e-06 2.36341e-07
2.44975e-07 2.36341e-07 -5.0401e-05
0.00128704 5.13841e-05 1.15595e-06
5.13841e-05 0.000112847 6.60056e-07
1.15595e-06 6.60056e-07 3.41277e-05
0.000655589 4.21545e-05 9.96092e-07
4.21545e-05 -0.000233318 9.1141e-07
9.96092e-07 9.1141e-07 -0.000304584
0.0013768 5.00997e-05 1.83741e-06
5.00997e-05 0.00020534 2.19157e-06
1.83741e-06 2.19157e-06 0.000121412
0.000677136 4.22058e-05 5.39542e-07
4.22058e-05 -0.000158913 7.79182e-07
5.39542e-07 7.79182e-07 -0.000250841
0.000970897 3.81374e-06 -1.47308e-06
3.81374e-06 5.96631e-06 -2.29573e-06
-1.47308e-06 -2.29573e-06 -2.95443e-05
0.000949429 1.15519e-05 4.06296e-07
1.15519e-05 6.75691e-07 4.59782e-07
4.06296e-07 4.59782e-07 -5.67245e-05
0.00094271 2.67168e-05 8.9246e-07
2.67168e-05 4.44379e-06 1.04789e-06
8.9246e-07 1.04789e-06 -6.66715e-05
0.000856622 7.39608e-06 -5.73563e-07
7.39608e-06 -4.43279e-05 -1.43101e-06
-5.73563e-07 -1.43101e-06 -0.000100354
0.00102133 1.22082e-05 5.92089e-08
1.22082e-05 3.94421e-05 3.8416e-08
5.92089e-08 3.8416e-08 -1.35451e-05
0.00108507 2.55314e-05 -2.51504e-07
2.55314e-05 7.64885e-05 -5.22101e-07
-2.51504e-07 -5.22101e-07 7.84031e-06
0.00118806 3.51586e-05 2.46123e-07
3.51586e-05 0.000131046 1.29005e-07
2.46123e-07 1.29005e-07 5.33713e-05
0.00091998 1.30581e-05 4.07948e-07
1.30581e-05 -5.67097e-06 1.30009e-06
4.07948e-07 1.30009e-06 -7.39841e-05
0.00100678 2.07224e-06 3.41256e-07
2.07224e-06 3.43591e-05 1.29397e-06
3.41256e-07 1.29397e-06 -1.70241e-05
0.00098493 5.74535e-06 6.28285e-07
5.74535e-06 1.11588e-05 1.91995e-06
6.28285e-07 1.91995e-06 -1.90923e-05
0.000980093 -8.2356e-07 -4.77579e-08
-8.2356e-07 9.42642e-06 1.44766e-08
-4.77579e-08 1.44766e-08 -2.15276e-05
0.00152333 -8.56768e-06 1.29113e-06
-8.56768e-06 0.000269987 2.05732e-06
1.29113e-06 2.05732e-06 0.000271222
0.0009799 9.58502e-07 -7.09955e-07
9.58502e-07 9.77481e-06 -2.04797e-06
-7.09955e-07 -2.04797e-06 -2.22574e-05
0.00154592 -1.03034e-05 -1.67311e-06
-1.03034e-05 0.00028433 -1.29205e-06
-1.67311e-06 -1.29205e-06 0.000284555
0.00118421 -1.02114e-05 8.56768e-06
-1.02114e-05 0.000102583 6.78062e-06
8.56768e-06 6.78062e-06 0.000117809
0.00157551 -1.18598e-05 -5.45136e-06
-1.18598e-05 0.000301899 -4.68717e-06
-5.45136e-06 -4.68717e-06 0.000301028
0.00112894 -1.27294e-05 3.4109e-06
-1.27294e-05 7.90608e-05 2.5936e-06
3.4109e-06 2.5936e-06 9.34106e-05
0.0024201 -2.12078e-05 -4.41857e-06
-2.12078e-05 0.000727893 -1.72562e-06
-4.41857e-06 -1.72562e-06 0.000747503
0.000881503 1.36503e-05 1.91029e-06
1.36503e-05 -3.94823e-05 -3.2704e-06
1.91029e-06 -3.2704e-06 -4.36094e-05
0.000887922 1.49949e-05 -1.49409e-07
1.49949e-05 -3.20401e-05 3.60147e-08
-1.49409e-07 3.60147e-08 -3.83403e-05
0.00243058 2.2426e-05 1.20926e-05
2.2426e-05 0.000738919 -3.94485e-06
1.20926e-05 -3.94485e-06 0.000757723
0.000885296 1.60655e-05 -3.13464e-06
1.60655e-05 -2.94187e-05 3.55649e-06
-3.13464e-06 3.55649e-06 -3.80731e-05
0.00252099 2.51133e-05 -3.55004e-07
2.51133e-05 0.000788979 -5.8903e-08
-3.55004e-07 -5.8903e-08 0.00080614
0.00256977 2.78465e-05 -1.57891e-05
2.78465e-05 0.000817886 4.06127e-06
-1.57891e-05 4.06127e-06 0.00083367
0.00128879 2.10375e-05 -1.04732e-06
2.10375e-05 5.77653e-05 -5.92881e-07
-1.04732e-06 -5.92881e-07 -9.79457e-06
0.00135704 -1.06608e-07 -1.0987e-06
-1.06608e-07 6.96238e-05 -6.88044e-07
-1.0987e-06 -6.88044e-07 -3.90534e-07
0.00135215 6.91631e-06 3.37785e-07
6.91631e-06 5.94028e-05 -3.80573e-07
3.37785e-07 -3.80573e-07 -4.029e-06
0.00143842 -1.81165e-05 -1.54463e-06
-1.81165e-05 8.93339e-05 -4.30507e-07
-1.54463e-06 -4.30507e-07 1.80762e-05
0.00137558 -1.47324e-05 -1.52049e-06
-1.47324e-05 6.9153e-05 -3.37634e-07
-1.52049e-06 -3.37634e-07 -5.22832e-06
0.00131779 1.50726e-05 -2.30857e-06
1.50726e-05 5.45107e-05 -2.58868e-07
-2.30857e-06 -2.58868e-07 -1.777e-05
0.00138294 6.47416e-06 1.75509e-08
6.47416e-06 7.08637e-05 -5.93569e-08
1.75509e-08 -5.93569e-08 -4.36873e-06
0.00135674 -7.36488e-06 2.27182e-07
-7.36488e-06 5.77941e-05 -3.31445e-08
2.27182e-07 -3.31445e-08 -1.61689e-05
0.00129869 -5.50972e-06 -1.1145e-07
-5.50972e-06 2.06359e-05 5.67019e-08
-1.1145e-07 5.67019e-08 -4.7148e-05
0.00147546 -2.18863e-05 -2.64858e-07
-2.18863e-05 0.000102707 -2.37126e-07
-2.64858e-07 -2.37126e-07 3.0828e-05
0.00128372 1.64886e-05 -2.42472e-07
1.64886e-05 4.08197e-05 5.94053e-08
-2.42472e-07 5.94053e-08 -2.42531e-05
0.00140404 1.62683e-06 1.27143e-06
1.62683e-06 7.14171e-05 -3.72865e-07
1.27143e-06 -3.72865e-07 1.45422e-05
0.00135994 1.32857e-05 1.15454e-06
1.32857e-05 6.04091e-05 4.62872e-07
1.15454e-06 4.62872e-07 -1.44531e-05
0.00137222 -1.47401e-05 1.79499e-06
-1.47401e-05 6.72713e-05 -1.00871e-08
1.79499e-06 -1.00871e-08 -6.20023e-06
0.00139504 -1.31385e-05 8.37399e-07
-1.31385e-05 5.76516e-05 1.56593e-06
8.37399e-07 1.56593e-06 -7.35648e-06
0.00138389 1.37563e-05 5.21082e-08
1.37563e-05 6.47267e-05 4.34568e-07
5.21082e-08 4.34568e-07 1.22643e-05
0.00138985 2.04773e-05 -1.84193e-06
2.04773e-05 7.28204e-05 -9.92824e-08
-1.84193e-06 -9.92824e-08 -1.80455e-06
0.00151948 3.01117e-06 -2.41582e-06
3.01117e-06 0.000121262 1.85601e-07
-2.41582e-06 1.85601e-07 4.89788e-05
0.00136546 2.20355e-05 -2.91897e-06
2.20355e-05 4.18996e-05 -3.53669e-07
-2.91897e-06 -3.53669e-07 -3.49894e-05
0.0014603 -1.25054e-05 -1.07755e-06
-1.25054e-05 8.68041e-05 7.40912e-07
-1.07755e-06 7.40912e-07 1.77926e-05
0.00106095 -2.43416e-05 -1.29738e-06
-2.43416e-05 5.82485e-05 7.59693e-07
-1.29738e-06 7.59693e-07 -1.78817e-06
0.00104627 -3.84363e-05 -2.61705e-07
-3.84363e-05 5.09576e-05 8.63047e-07
-2.61705e-07 8.63047e-07 -1.60713e-05
0.00113676 -4.59926e-05 -1.22293e-06
-4.59926e-05 8.0131e-05 1.97346e-06
-1.22293e-06 1.97346e-06 2.0195e-06
0.00142168 -3.70364e-05 -7.86955e-07
-3.70364e-05 0.000117088 7.32067e-07
-7.86955e-07 7.32067e-07 5.23649e-05
0.00123629 -2.7396e-05 -4.66837e-07
-2.7396e-05 -5.24197e-06 1.64832e-06
-4.66837e-07 1.64832e-06 -6.27301e-05
0.00126654 -3.89414e-05 -1.49515e-07
-3.89414e-05 5.30416e-05 1.02506e-06
-1.49515e-07 1.02506e-06 -6.47152e-06
0.00124888 -4.97482e-05 -1.90813e-06
-4.97482e-05 9.36944e-05 6.33184e-07
-1.90813e-06 6.33184e-07 1.53041e-05
0.00111992 -4.26925e-05 -1.82039e-06
-4.26925e-05 -6.39609e-06 -2.97382e-06
-1.82039e-06 -2.97382e-06 -6.64562e-05
0.00110682 -3.81992e-05 -7.75264e-07
-3.81992e-05 7.37798e-05 2.06976e-07
-7.75264e-07 2.06976e-07 5.86832e-06
0.00109491 -4.11394e-05 -1.3749e-06
-4.11394e-05 6.41598e-05 -1.03935e-07
-1.3749e-06 -1.03935e-07 -9.51115e-06
0.00112686 -3.78161e-05 -1.2253e-06
-3.78161e-05 9.47047e-05 9.07266e-07
-1.2253e-06 9.07266e-07 1.80728e-05
0.000673059 6.12991e-06 -1.57616e-06
6.12991e-06 -0.000136268 2.31339e-06
-1.57616e-06 2.31339e-06 -0.000174669
0.00090738 -1.11858e-05 -6.75731e-07
-1.11858e-05 -1.88111e-05 1.11374e-06
-6.75731e-07 1.11374e-06 -8.1651e-05
0.0013976 2.53946e-05 1.61271e-07
2.53946e-05 6.57045e-05 -2.58402e-07
1.61271e-07 -2.58402e-07 -1.13466e-05
0.00150016 1.53479e-05 -2.00274e-07
1.53479e-05 9.21187e-05 2.99518e-07
-2.00274e-07 2.99518e-07 1.67046e-05
0.00146581 -1.43705e-05 -5.18405e-07
-1.43705e-05 7.88491e-05 2.00017e-07
-5.18405e-07 2.00017e-07 1.59994e-05
0.00109857 -3.84991e-05 6.35355e-08
-3.84991e-05 7.20822e-05 8.14087e-08
6.35355e-08 8.14087e-08 5.87988e-06
0.00100828 -4.15523e-05 3.97689e-07
-4.15523e-05 3.27892e-05 -3.13904e-07
3.97689e-07 -3.13904e-07 -4.05193e-05
0.00116386 -4.97506e-05 -4.79453e-08
-4.97506e-05 8.68244e-05 4.13011e-08
-4.79453e-08 4.13011e-08 5.89546e-07
0.00130666 -3.18357e-05 1.66404e-07
-3.18357e-05 3.76602e-05 -2.89188e-07
1.66404e-07 -2.89188e-07 -1.94672e-05
0.00128943 -5.07111e-05 -5.07052e-08
-5.07111e-05 9.84084e-05 -4.39431e-07
-5.07052e-08 -4.39431e-07 2.15833e-05
0.00129838 -4.29473e-05 -4.74306e-07
-4.29473e-05 5.16948e-05 -5.09018e-07
-4.74306e-07 -5.09018e-07 -2.48905e-06
0.000692993 1.43406e-05 -2.38723e-10
1.43406e-05 -0.000128987 -6.69268e-07
-2.38723e-10 -6.69268e-07 -0.000163795
0.00112143 -4.14235e-05 4.8364e-08
-4.14235e-05 7.67205e-05 6.34589e-08
4.8364e-08 6.34589e-08 6.21083e-06
0.00107586 -4.20271e-05 -9.14058e-07
-4.20271e-05 5.07908e-05 -5.57746e-08
-9.14058e-07 -5.57746e-08 -2.45418e-05
0.0011805 -4.27426e-05 -4.44736e-07
-4.27426e-05 0.000116709 2.71344e-07
-4.44736e-07 2.71344e-07 3.38176e-05
0.00115011 -3.69232e-05 -1.31499e-07
-3.69232e-05 0.000111196 7.75489e-08
-1.31499e-07 7.75489e-08 3.47908e-05
0.000985917 -8.05836e-06 8.25114e-08
-8.05836e-06 2.20831e-05 2.27765e-07
8.25114e-08 2.27765e-07 -3.70185e-05
0.0015311 2.882e-05 1.84899e-06
2.882e-05 0.000122341 1.47389e-06
1.84899e-06 1.47389e-06 4.4966e-05
0.00150897 1.57035e-05 2.21157e-06
1.57035e-05 8.21754e-05 -2.49891e-07
2.21157e-06 -2.49891e-07 7.5783e-06
0.00126981 -1.91239e-05 1.75376e-06
-1.91239e-05 -2.60764e-05 -2.53453e-06
1.75376e-06 -2.53453e-06 -8.10275e-05
0.0015199 -3.81759e-05 1.49323e-06
-3.81759e-05 0.000111534 -1.37665e-06
1.49323e-06 -1.37665e-06 6.50787e-05
0.00110434 -4.18051e-05 5.99294e-07
-4.18051e-05 7.26603e-05 -6.78739e-07
5.99294e-07 -6.78739e-07 2.55673e-06
0.00135928 -5.0786e-05 2.91115e-06
-5.0786e-05 9.42885e-05 8.40394e-07
2.91115e-06 8.40394e-07 2.74265e-05
0.000891961 -4.3058e-05 1.17701e-06
-4.3058e-05 -2.62658e-05 -2.57709e-06
1.17701e-06 -2.57709e-06 -0.000110482
0.00141626 -5.69523e-05 1.89185e-06
-5.69523e-05 0.000200509 -9.12638e-07
1.89185e-06 -9.12638e-07 0.000108005
0.000708742 1.10528e-05 6.03049e-07
1.10528e-05 -0.00012389 -2.57139e-06
6.03049e-07 -2.57139e-06 -0.000155977
0.0011231 -9.76309e-07 7.67557e-07
-9.76309e-07 8.95361e-05 -1.53742e-06
7.67557e-07 -1.53742e-06 3.56998e-05
0.00122304 -3.52048e-05 -6.30169e-08
-3.52048e-05 0.000148631 -1.34865e-07
-6.30169e-08 -1.34865e-07 7.57966e-05
0.00107959 -3.92339e-05 6.82238e-07
-3.92339e-05 7.77251e-05 -1.28899e-06
6.82238e-07 -1.28899e-06 -1.08425e-05
0.00105058 -4.22017e-05 3.23158e-07
-4.22017e-05 3.9453e-05 -6.78918e-07
3.23158e-07 -6.78918e-07 -3.4969e-05
0.00111654 -4.34933e-05 1.19719e-06
-4.34933e-05 7.532e-05 1.57949e-07
1.19719e-06 1.57949e-07 -8.60511e-06
0.00096778 3.66205e-06 -1.84571e-06
3.66205e-06 5.41014e-06 -2.35707e-06
-1.84571e-06 -2.35707e-06 -3.19647e-05
0.00103299 1.31948e-05 -1.32418e-06
1.31948e-05 4.27522e-05 -1.28421e-06
-1.32418e-06 -1.28421e-06 -1.63022e-05
0.0013061 3.05389e-05 -4.32515e-07
3.05389e-05 7.02087e-05 -5.27389e-07
-4.32515e-07 -5.27389e-07 1.20085e-06
0.00107732 2.79253e-05 -9.50419e-07
2.79253e-05 6.73673e-05 -4.606e-07
-9.50419e-07 -4.606e-07 -2.91525e-06
0.0010913 3.50135e-05 -6.35389e-07
3.50135e-05 7.04046e-05 -3.3562e-07
-6.35389e-07 -3.3562e-07 2.83531e-06
0.00102081 3.70382e-05 -6.05709e-07
3.70382e-05 3.74992e-05 -2.09913e-07
-6.05709e-07 -2.09913e-07 -3.68854e-05
0.00118318 4.47894e-05 -7.34552e-07
4.47894e-05 6.15235e-05 -1.54881e-06
-7.34552e-07 -1.54881e-06 -8.57825e-06
0.00126082 4.5059e-05 -3.1479e-07
4.5059e-05 7.21985e-05 -6.15248e-07
-3.1479e-07 -6.15248e-07 2.65319e-06
0.000910462 3.98596e-05 -2.79036e-07
3.98596e-05 -1.35613e-05 -5.00784e-07
-2.79036e-07 -5.00784e-07 -9.20491e-05
0.00124078 4.84942e-05 -1.19337e-06
4.84942e-05 0.000117662 -8.61457e-07
-1.19337e-06 -8.61457e-07 3.52796e-05
0.00103736 1.39156e-05 5.26916e-08
1.39156e-05 4.39698e-05 -4.60841e-08
5.26916e-08 -4.60841e-08 -1.41261e-05
0.0010216 2.92217e-05 4.00541e-07
2.92217e-05 3.98869e-05 2.40372e-07
4.00541e-07 2.40372e-07 -3.1745e-05
0.00115257 4.34333e-05 -1.82737e-07
4.34333e-05 9.98265e-05 -3.68691e-07
-1.82737e-07 -3.68691e-07 2.54866e-05
0.00104587 3.6387e-05 -2.86564e-07
3.6387e-05 5.0445e-05 1.42976e-08
-2.86564e-07 1.42976e-08 -2.54966e-05
0.00109113 4.08861e-05 -6.86884e-07
4.08861e-05 6.853e-05 -3.64427e-07
-6.86884e-07 -3.64427e-07 -8.03469e-06
0.00146335 3.15716e-05 -3.59252e-07
3.15716e-05 0.000120806 -4.10923e-07
-3.59252e-07 -4.10923e-07 6.40913e-05
0.00134353 5.21843e-05 6.85097e-07
5.21843e-05 0.000137985 9.53891e-09
6.85097e-07 9.53891e-09 6.00174e-05
0.000956851 4.54842e-05 -6.03532e-07
4.54842e-05 -8.08513e-05 6.63319e-07
-6.03532e-07 6.63319e-07 -0.000150469
0.0012408 4.77466e-05 8.47203e-07
4.77466e-05 0.00014005 7.08293e-07
8.47203e-07 7.08293e-07 5.54604e-05
0.000948015 4.67718e-05 -1.32195e-06
4.67718e-05 -2.73368e-05 -3.22736e-07
-1.32195e-06 -3.22736e-07 -0.000120223
0.000948365 3.00348e-05 1.11304e-06
3.00348e-05 5.57016e-06 1.03102e-06
1.11304e-06 1.03102e-06 -6.66432e-05
0.00099128 3.94178e-05 6.99538e-07
3.94178e-05 2.57712e-05 1.62828e-07
6.99538e-07 1.62828e-07 -5.51775e-05
0.00115752 4.50032e-05 2.03499e-07
4.50032e-05 9.91675e-05 6.25705e-07
2.03499e-07 6.25705e-07 1.81284e-05
0.000941847 3.96106e-05 9.13692e-07
3.96106e-05 -5.42253e-06 3.71856e-08
9.13692e-07 3.71856e-08 -8.63846e-05
0.00173298 2.30114e-05 1.67607e-06
2.30114e-05 0.000178243 9.04411e-07
1.67607e-06 9.04411e-07 0.00013342
0.00111671 4.40473e-05 2.67991e-06
4.40473e-05 -6.4961e-05 1.05311e-06
2.67991e-06 1.05311e-06 -0.000121473
0.00123782 5.56753e-05 1.89463e-06
5.56753e-05 8.12123e-05 3.01979e-08
1.89463e-06 3.01979e-08 -9.53392e-06
0.000938818 4.59733e-05 8.35874e-07
4.59733e-05 -6.06012e-06 1.59703e-06
8.35874e-07 1.59703e-06 -0.000106579
0.00102374 1.23921e-05 -4.22752e-07
1.23921e-05 3.81848e-05 -9.15157e-07
-4.22752e-07 -9.15157e-07 -1.88303e-05
0.00103098 2.82439e-05 2.47058e-07
2.82439e-05 4.87347e-05 3.24421e-07
2.47058e-07 3.24421e-07 -2.19384e-05
0.00110666 3.7303e-05 4.33173e-07
3.7303e-05 9.01246e-05 3.7842e-07
4.33173e-07 3.7842e-07 1.11735e-05
0.00102102 1.26852e-05 -4.12578e-07
1.26852e-05 3.93454e-05 -1.37204e-06
-4.12578e-07 -1.37204e-06 -1.36724e-05
0.000937507 2.31552e-05 -7.20481e-07
2.31552e-05 2.98083e-06 -1.36286e-06
-7.20481e-07 -1.36286e-06 -6.66919e-05
0.00101127 4.32968e-06 2.26517e-07
4.32968e-06 3.64587e-05 4.50107e-08
2.26517e-07 4.50107e-08 -1.49128e-05
0.00108689 3.20704e-05 -1.93823e-07
3.20704e-05 8.0574e-05 -3.86439e-07
-1.93823e-07 -3.86439e-07 2.20445e-06
0.000988888 1.65903e-05 2.32466e-07
1.65903e-05 2.91026e-05 3.94861e-07
2.32466e-07 3.94861e-07 -3.90433e-05
0.00117426 3.74168e-05 4.69119e-07
3.74168e-05 0.000121775 3.50906e-07
4.69119e-07 3.50906e-07 3.75598e-05
0.000955735 1.27513e-05 5.73664e-07
1.27513e-05 1.47326e-05 9.60201e-07
5.73664e-07 9.60201e-07 -6.36768e-05
0.000913835 2.79629e-05 6.18626e-07
2.79629e-05 -7.5178e-06 1.35799e-06
6.18626e-07 1.35799e-06 -7.52412e-05
0.00100173 -9.8795e-06 -7.94588e-08
-9.8795e-06 3.35156e-05 1.24635e-06
-7.94588e-08 1.24635e-06 -1.68738e-05
0.000983154 7.53921e-06 4.61466e-07
7.53921e-06 1.02517e-05 1.82104e-06
4.61466e-07 1.82104e-06 -1.9765e-05
0.000984919 -2.02675e-06 -2.34221e-07
-2.02675e-06 1.12601e-05 2.24802e-08
-2.34221e-07 2.24802e-08 -1.89951e-05
0.00151753 -6.01427e-06 8.86898e-07
-6.01427e-06 0.000264578 2.026e-06
8.86898e-07 2.026e-06 0.000266525
0.000985524 -6.49704e-06 -1.15199e-07
-6.49704e-06 1.22016e-05 -1.94756e-06
-1.15199e-07 -1.94756e-06 -1.87415e-05
0.00153752 -8.08487e-06 -1.29212e-06
-8.08487e-06 0.000277304 -1.27633e-06
-1.29212e-06 -1.27633e-06 0.000278512
0.00117708 -8.11198e-06 6.5384e-06
-8.11198e-06 9.50831e-05 6.70977e-06
6.5384e-06 6.70977e-06 0.000111274
0.00156089 -9.91085e-06 -4.18623e-06
-9.91085e-06 0.00029197 -4.63528e-06
-4.18623e-06 -4.63528e-06 0.000292202
0.00112526 -1.06558e-05 2.57574e-06
-1.06558e-05 7.31734e-05 2.57777e-06
2.57574e-06 2.57777e-06 8.8578e-05
0.00106916 -1.2985e-05 -2.0589e-06
-1.2985e-05 4.93224e-05 -1.66686e-06
-2.0589e-06 -1.66686e-06 6.38446e-05
0.000889142 1.1904e-05 1.58108e-06
1.1904e-05 -4.02162e-05 -3.25282e-06
1.58108e-06 -3.25282e-06 -4.25868e-05
0.000900143 1.36614e-05 -8.31132e-08
1.36614e-05 -3.05904e-05 2.49881e-08
-8.31132e-08 2.49881e-08 -3.47998e-05
0.0023706 1.94604e-05 1.0586e-05
1.94604e-05 0.00070365 -3.94725e-06
1.0586e-05 -3.94725e-06 0.000723859
0.000904896 1.50135e-05 -2.58726e-06
1.50135e-05 -2.38276e-05 3.4278e-06
-2.58726e-06 3.4278e-06 -3.02526e-05
0.00244078 2.23274e-05 -4.47331e-07
2.23274e-05 0.000744395 -4.51462e-08
-4.47331e-07 -4.51462e-08 0.000763009
0.00251949 2.50156e-05 -1.47084e-05
2.50156e-05 0.000788466 4.09207e-06
-1.47084e-05 4.09207e-06 0.000805507
0.00131388 1.69115e-05 -2.36477e-08
1.69115e-05 5.68678e-05 -1.37398e-08
-2.36477e-08 -1.37398e-08 -8.48405e-06
0.00136927 -6.97106e-06 -1.01871e-06
-6.97106e-06 5.27921e-05 -7.1484e-07
-1.01871e-06 -7.1484e-07 -1.54738e-05
0.00127294 2.23185e-06 1.45689e-06
2.23185e-06 9.10218e-06 -2.0243e-06
1.45689e-06 -2.0243e-06 -4.59904e-05
0.00131336 -2.11202e-05 -2.06995e-06
-2.11202e-05 2.52267e-05 -9.10954e-07
-2.06995e-06 -9.10954e-07 -4.73455e-05
0.00135381 -9.60049e-06 -1.34948e-06
-9.60049e-06 5.66193e-05 -2.32688e-07
-1.34948e-06 -2.32688e-07 -1.73076e-05
0.00137879 5.91485e-06 -1.49162e-06
5.91485e-06 6.87276e-05 -3.25739e-07
-1.49162e-06 -3.25739e-07 -6.65778e-06
0.00137182 1.57201e-05 2.32696e-07
1.57201e-05 6.55168e-05 -4.93683e-08
2.32696e-07 -4.93683e-08 -9.49146e-06
0.00136688 -1.83683e-05 -2.29966e-07
-1.83683e-05 6.41502e-05 2.98598e-07
-2.29966e-07 2.98598e-07 -9.31262e-06
0.00137869 -1.24834e-05 5.0398e-07
-1.24834e-05 5.07019e-05 -2.03407e-07
5.0398e-07 -2.03407e-07 -1.38742e-05
0.00132535 1.16046e-05 1.97361e-07
1.16046e-05 3.47617e-05 -2.47761e-07
1.97361e-07 -2.47761e-07 -1.77611e-05
0.00133855 1.00261e-05 1.35565e-06
1.00261e-05 5.23898e-05 1.31058e-07
1.35565e-06 1.31058e-07 -2.21816e-05
0.00148313 -2.82097e-05 1.8675e-06
-2.82097e-05 0.000118026 4.17334e-07
1.8675e-06 4.17334e-07 4.81379e-05
0.00134713 2.09692e-07 6.12289e-07
2.09692e-07 1.97004e-05 1.88697e-06
6.12289e-07 1.88697e-06 -3.49737e-05
0.00134464 2.43781e-05 -2.19007e-06
2.43781e-05 3.89534e-05 -1.02379e-06
-2.19007e-06 -1.02379e-06 -3.82571e-05
0.00153262 1.48782e-05 -2.0418e-06
1.48782e-05 0.000110494 5.42078e-07
-2.0418e-06 5.42078e-07 3.56374e-05
0.00149809 -1.43309e-05 -1.27968e-06
-1.43309e-05 9.82482e-05 1.70667e-06
-1.27968e-06 1.70667e-06 3.53837e-05
0.00111631 -3.81974e-05 -6.26315e-07
-3.81974e-05 8.00603e-05 6.01745e-07
-6.26315e-07 6.01745e-07 1.38798e-05
0.00124148 -4.55923e-05 -3.93712e-07
-4.55923e-05 0.00014505 1.26294e-06
-3.93712e-07 1.26294e-06 7.25411e-05
0.00113229 -4.91606e-05 -1.82983e-06
-4.91606e-05 7.34367e-05 2.26248e-06
-1.82983e-06 2.26248e-06 -1.32563e-05
0.00137341 -3.23168e-05 -8.59117e-07
-3.23168e-05 6.91892e-05 9.45192e-07
-8.59117e-07 9.45192e-07 1.14348e-05
0.00110172 -4.21265e-05 -2.09624e-06
-4.21265e-05 -4.06911e-05 1.66735e-07
-2.09624e-06 1.66735e-07 -9.54257e-05
0.00123758 -4.88002e-05 -2.59279e-06
-4.88002e-05 7.3983e-05 -1.1503e-06
-2.59279e-06 -1.1503e-06 -7.52367e-07
0.00113067 -4.16193e-05 -6.52088e-07
-4.16193e-05 8.14089e-05 3.66928e-07
-6.52088e-07 3.66928e-07 1.07436e-05
0.00106355 -4.17303e-05 -2.21642e-06
-4.17303e-05 4.4727e-05 2.72107e-07
-2.21642e-06 2.72107e-07 -2.96654e-05
0.00118904 -4.27057e-05 -1.54285e-06
-4.27057e-05 0.000120955 3.44094e-07
-1.54285e-06 3.44094e-07 3.84538e-05
0.000685578 1.69994e-05 -5.92619e-07
1.69994e-05 -0.000132329 1.44929e-06
-5.92619e-07 1.44929e-06 -0.000166848
0.00125496 -3.92085e-05 -9.25856e-07
-3.92085e-05 0.000163019 1.27424e-06
-9.25856e-07 1.27424e-06 8.67308e-05
0.000864079 -7.72963e-06 -4.12219e-07
-7.72963e-06 -3.93673e-05 1.92846e-06
-4.12219e-07 1.92846e-06 -9.93567e-05
0.00146354 2.8417e-05 -5.03362e-08
2.8417e-05 9.30168e-05 2.83661e-07
-5.03362e-08 2.83661e-07 1.62248e-05
0.00150001 1.43798e-05 3.72806e-07
1.43798e-05 7.47516e-05 1.47751e-07
3.72806e-07 1.47751e-07 2.0079e-07
0.00134168 -1.91439e-05 -2.46526e-07
-1.91439e-05 9.04812e-06 -1.80086e-07
-2.46526e-07 -1.80086e-07 -4.72648e-05
0.00112563 -4.2196e-05 5.66982e-08
-4.2196e-05 8.25801e-05 2.15279e-07
5.66982e-08 2.15279e-07 1.2356e-05
0.000952465 -4.39869e-05 -1.04615e-07
-4.39869e-05 4.49222e-06 1.11753e-07
-1.04615e-07 1.11753e-07 -7.87312e-05
0.00136152 -5.53729e-05 -8.22417e-07
-5.53729e-05 0.000174034 7.56843e-07
-8.22417e-07 7.56843e-07 8.24907e-05
0.00150831 -3.90588e-05 1.73888e-07
-3.90588e-05 0.000110926 2.35139e-08
1.73888e-07 2.35139e-08 6.44366e-05
0.00126627 -4.94108e-05 1.65507e-07
-4.94108e-05 4.73514e-05 -5.14265e-07
1.65507e-07 -5.14265e-07 -1.92323e-05
0.000836513 1.19949e-05 2.31743e-08
1.19949e-05 -6.03931e-05 -6.07083e-07
2.31743e-08 -6.07083e-07 -9.14782e-05
0.0011089 7.75278e-07 -3.93577e-08
7.75278e-07 8.30773e-05 9.6344e-08
-3.93577e-08 9.6344e-08 2.92161e-05
0.00103217 -4.18664e-05 -4.4814e-07
-4.18664e-05 3.09515e-05 2.54976e-07
-4.4814e-07 2.54976e-07 -4.3644e-05
0.00114012 -4.38901e-05 1.07981e-07
-4.38901e-05 8.71259e-05 5.97538e-09
1.07981e-07 5.97538e-09 3.38806e-06
0.00110355 -3.89922e-05 -3.70187e-08
-3.89922e-05 9.07122e-05 -2.54735e-07
-3.70187e-08 -2.54735e-07 3.07571e-06
0.00117473 -3.49169e-05 -5.34501e-07
-3.49169e-05 0.000124149 9.1441e-07
-5.34501e-07 9.1441e-07 5.05204e-05
0.00146171 3.14218e-05 2.28913e-06
3.14218e-05 8.92353e-05 1.78719e-06
2.28913e-06 1.78719e-06 1.49296e-05
0.0015815 8.12718e-06 2.22974e-06
8.12718e-06 0.000103559 -1.11346e-06
2.22974e-06 -1.11346e-06 3.44924e-05
0.00141966 -2.86893e-05 9.52123e-07
-2.86893e-05 2.29488e-05 -2.1857e-06
9.52123e-07 -2.1857e-06 -1.5764e-05
0.00174674 -5.11442e-05 2.24404e-06
-5.11442e-05 0.000223366 -1.00463e-06
2.24404e-06 -1.00463e-06 0.000175383
0.000982923 -4.23574e-05 3.44089e-07
-4.23574e-05 1.55091e-05 -1.16009e-06
3.44089e-07 -1.16009e-06 -6.17956e-05
0.00137552 -5.74812e-05 2.48426e-06
-5.74812e-05 0.000155099 8.84139e-07
2.48426e-06 8.84139e-07 6.34514e-05
0.00143953 -5.65184e-05 1.91448e-06
-5.65184e-05 0.000233996 -3.04449e-06
1.91448e-06 -3.04449e-06 0.000140953
0.000978905 8.94844e-06 6.05102e-07
8.94844e-06 7.32442e-06 -1.86794e-06
6.05102e-07 -1.86794e-06 -2.10163e-05
0.00101978 -1.41392e-05 5.33911e-07
-1.41392e-05 3.56696e-05 -1.22992e-06
5.33911e-07 -1.22992e-06 -9.65969e-06
0.000834187 7.05902e-06 1.46376e-07
7.05902e-06 -5.45983e-05 -1.94986e-06
1.46376e-07 -1.94986e-06 -0.000105902
0.00112522 -2.61286e-05 6.4972e-08
-2.61286e-05 9.8554e-05 -6.76293e-07
6.4972e-08 -6.76293e-07 2.81048e-05
0.001024 -3.54612e-05 2.48783e-07
-3.54612e-05 5.5806e-05 -1.15682e-06
2.48783e-07 -1.15682e-06 -2.93832e-05
0.00112393 -4.13782e-05 1.7672e-06
-4.13782e-05 0.000100096 -4.59244e-08
1.7672e-06 -4.59244e-08 5.54268e-06
0.000942977 -4.2204e-05 7.72088e-07
-4.2204e-05 -1.25955e-05 -7.54988e-07
7.72088e-07 -7.54988e-07 -9.20489e-05
0.00151847 -5.25851e-05 5.26414e-07
-5.25851e-05 0.000281116 -2.52871e-07
5.26414e-07 -2.52871e-07 0.00018947
0.00102974 1.3641e-05 -1.07204e-06
1.3641e-05 4.06717e-05 -1.36143e-06
-1.07204e-06 -1.36143e-06 -1.75087e-05
0.00110583 3.18577e-05 -5.79574e-07
3.18577e-05 8.16629e-05 -4.01737e-07
-5.79574e-07 -4.01737e-07 1.01909e-05
0.00170405 3.27126e-05 -4.04778e-07
3.27126e-05 0.000237725 -7.40913e-07
-4.04778e-07 -7.40913e-07 0.000181434
0.00112004 3.80393e-05 -9.53802e-07
3.80393e-05 8.76602e-05 -6.89039e-09
-9.53802e-07 -6.89039e-09 1.21143e-05
0.00119875 4.41983e-05 -7.94243e-07
4.41983e-05 0.000123178 -1.05702e-06
-7.94243e-07 -1.05702e-06 4.94711e-05
0.00103433 3.9714e-05 -9.05927e-07
3.9714e-05 4.32506e-05 -4.6701e-07
-9.05927e-07 -4.6701e-07 -3.2837e-05
0.00138018 5.26593e-05 -4.12295e-07
5.26593e-05 0.000153379 -8.68503e-07
-4.12295e-07 -8.68503e-07 7.62041e-05
0.00123035 4.85051e-05 -1.1399e-06
4.85051e-05 5.80967e-05 7.68179e-07
-1.1399e-06 7.68179e-07 -9.82373e-06
0.0010985 4.52427e-05 8.26368e-08
4.52427e-05 7.17469e-05 -4.19272e-07
8.26368e-08 -4.19272e-07 -1.35017e-05
0.00114634 5.00458e-05 -2.89649e-06
5.00458e-05 6.92531e-05 -1.25616e-06
-2.89649e-06 -1.25616e-06 -2.45258e-05
0.000953503 2.96871e-05 3.2917e-07
2.96871e-05 8.24028e-06 3.14946e-07
3.2917e-07 3.14946e-07 -6.41169e-05
0.00106489 4.06525e-05 -3.45542e-07
4.06525e-05 6.13505e-05 -4.08577e-07
-3.45542e-07 -4.08577e-07 -1.87667e-05
0.00116361 4.50093e-05 -2.35386e-07
4.50093e-05 0.000103202 -5.37302e-07
-2.35386e-07 -5.37302e-07 2.28824e-05
0.00107924 4.1592e-05 -2.63929e-08
4.1592e-05 6.14139e-05 -2.40415e-07
-2.63929e-08 -2.40415e-07 -1.91128e-05
0.00161791 2.15231e-05 -9.85614e-08
2.15231e-05 0.000123438 -1.04399e-06
-9.85614e-08 -1.04399e-06 7.95647e-05
0.00123341 4.44148e-05 1.33436e-07
4.44148e-05 2.22861e-06 1.42277e-07
1.33436e-07 1.42277e-07 -5.64758e-05
0.00141193 5.82085e-05 -4.29208e-07
5.82085e-05 0.000165526 -1.57284e-07
-4.29208e-07 -1.57284e-07 7.59913e-05
0.000932364 4.6443e-05 2.06301e-07
4.6443e-05 -1.4392e-05 2.08788e-07
2.06301e-07 2.08788e-07 -0.000114686
0.00113222 4.05967e-05 1.75792e-07
4.05967e-05 0.000101542 1.08829e-07
1.75792e-07 1.08829e-07 2.11819e-05
0.00141952 2.87439e-07 2.33597e-06
2.87439e-07 2.84419e-05 2.27264e-06
2.33597e-06 2.27264e-06 -2.33216e-05
0.00122206 4.51596e-05 8.89778e-07
4.51596e-05 0.000138285 5.29531e-07
8.89778e-07 5.29531e-07 5.2122e-05
0.00114796 4.63951e-05 6.01069e-07
4.63951e-05 9.94023e-05 9.01695e-07
6.01069e-07 9.01695e-07 1.00012e-05
0.00151735 4.52551e-05 5.04494e-06
4.52551e-05 3.79385e-05 2.65261e-07
5.04494e-06 2.65261e-07 -2.48014e-06
0.00126666 5.9668e-05 3.90052e-06
5.9668e-05 4.68974e-05 3.41208e-07
3.90052e-06 3.41208e-07 -4.27419e-05
0.00163753 6.24897e-05 7.43907e-07
6.24897e-05 0.000323633 2.18919e-06
7.43907e-07 2.18919e-06 0.000214908
0.00111878 2.94697e-05 -4.12176e-07
2.94697e-05 9.27247e-05 -4.21323e-07
-4.12176e-07 -4.21323e-07 2.25169e-05
0.00109908 3.71118e-05 -5.36322e-08
3.71118e-05 8.6906e-05 -7.18455e-08
-5.36322e-08 -7.18455e-08 7.94465e-06
0.00111171 4.05574e-05 6.49353e-07
4.05574e-05 9.2715e-05 5.21724e-07
6.49353e-07 5.21724e-07 7.52313e-06
0.00101627 1.12223e-05 -2.82246e-07
1.12223e-05 3.90144e-05 -1.3359e-06
-2.82246e-07 -1.3359e-06 -1.24758e-05
0.00105652 2.07748e-05 2.30822e-08
2.07748e-05 6.31996e-05 -4.8675e-07
2.30822e-08 -4.8675e-07 -4.72752e-06
0.000986077 2.84209e-05 -6.38288e-07
2.84209e-05 3.02242e-05 -9.42697e-07
-6.38288e-07 -9.42697e-07 -4.88111e-05
0.00100587 -5.81639e-06 2.22562e-07
-5.81639e-06 3.57336e-05 3.34504e-08
2.22562e-07 3.34504e-08 -1.48229e-05
0.000911604 1.72952e-05 -1.65855e-08
1.72952e-05 -8.9477e-06 4.01174e-07
-1.65855e-08 4.01174e-07 -7.64345e-05
0.00109586 3.33614e-05 -1.10684e-07
3.33614e-05 8.25096e-05 -3.26431e-07
-1.10684e-07 -3.26431e-07 -2.24869e-06
0.00108833 2.28442e-05 2.28293e-07
2.28442e-05 8.13576e-05 3.14364e-07
2.28293e-07 3.14364e-07 3.50418e-06
0.00122775 4.35241e-05 2.5467e-07
4.35241e-05 0.000140401 1.76227e-07
2.5467e-07 1.76227e-07 5.11704e-05
0.00103183 1.83931e-05 5.92811e-07
1.83931e-05 4.83015e-05 7.28809e-07
5.92811e-07 7.28809e-07 -3.71566e-05
0.00109292 3.27779e-05 4.27179e-07
3.27779e-05 8.27161e-05 9.04833e-07
4.27179e-07 9.04833e-07 5.12336e-06
0.00103939 1.56764e-05 5.17465e-07
1.56764e-05 5.66601e-05 1.0082e-06
5.17465e-07 1.0082e-06 -1.00388e-05
0.00101358 -1.01693e-05 -1.34312e-07
-1.01693e-05 3.98713e-05 1.21889e-06
-1.34312e-07 1.21889e-06 -1.04303e-05
0.000978462 9.64222e-06 4.01467e-07
9.64222e-06 8.39984e-06 1.77184e-06
4.01467e-07 1.77184e-06 -2.18676e-05
0.000983669 -8.09584e-07 -2.63213e-07
-8.09584e-07 1.05789e-05 1.56607e-08
-2.63213e-07 1.56607e-08 -1.94475e-05
0.00150933 -3.2144e-06 5.07803e-07
-3.2144e-06 0.000258763 1.99061e-06
5.07803e-07 1.99061e-06 0.000261002
0.000985773 -9.83398e-06 6.63267e-08
-9.83398e-06 1.1794e-05 -1.86115e-06
6.63267e-08 -1.86115e-06 -1.84636e-05
0.00153281 -5.62216e-06 -8.97694e-07
-5.62216e-06 0.000272473 -1.26493e-06
-8.97694e-07 -1.26493e-06 0.000274336
0.00117279 -5.81233e-06 4.47445e-06
-5.81233e-06 8.95997e-05 6.65961e-06
4.47445e-06 6.65961e-06 0.000106456
0.00155077 -7.79659e-06 -2.89807e-06
-7.79659e-06 0.000284173 -4.57447e-06
-2.89807e-06 -4.57447e-06 0.000285344
0.00112194 -8.40325e-06 1.69886e-06
-8.40325e-06 6.74966e-05 2.55297e-06
1.69886e-06 2.55297e-06 8.3888e-05
0.00106797 -1.07236e-05 -1.60173e-06
-1.07236e-05 4.45276e-05 -1.64659e-06
-1.60173e-06 -1.64659e-06 6.01365e-05
0.000984779 6.59468e-06 4.78477e-07
6.59468e-06 7.44721e-06 -1.88132e-06
4.78477e-07 -1.88132e-06 -1.92703e-05
0.000898787 9.96809e-06 1.23676e-06
9.96809e-06 -3.9815e-05 -3.23157e-06
1.23676e-06 -3.23157e-06 -4.05716e-05
0.000908883 1.1936e-05 -9.36962e-08
1.1936e-05 -3.07129e-05 1.39352e-08
-9.36962e-08 1.39352e-08 -3.31523e-05
0.00232585 1.63462e-05 9.07447e-06
1.63462e-05 0.000676216 -3.94979e-06
9.07447e-06 -3.94979e-06 0.00069769
0.000919458 1.36854e-05 -2.12539e-06
1.36854e-05 -2.12974e-05 3.31377e-06
-2.12539e-06 3.31377e-06 -2.5601e-05
0.00237421 1.94495e-05 -4.51156e-07
1.94495e-05 0.000706047 -3.6923e-08
-4.51156e-07 -3.6923e-08 0.000726086
0.00244844 2.22155e-05 -1.32536e-05
2.22155e-05 0.000748567 4.07431e-06
-1.32536e-05 4.07431e-06 0.000767008
0.00126086 9.52674e-06 2.43253e-07
9.52674e-06 1.83345e-06 -5.64089e-07
2.43253e-07 -5.64089e-07 -5.07291e-05
0.00134946 -1.17424e-05 -9.85379e-07
-1.17424e-05 3.77036e-05 -1.78228e-06
-9.85379e-07 -1.78228e-06 -2.64492e-05
0.00135619 -1.83445e-05 -1.73322e-06
-1.83445e-05 5.82326e-05 3.13186e-07
-1.73322e-06 3.13186e-07 -1.51046e-05
0.0013935 1.81333e-05 -1.30389e-06
1.81333e-05 7.51601e-05 -8.28508e-07
-1.30389e-06 -8.28508e-07 7.36237e-08
0.00137766 1.00532e-05 4.36778e-08
1.00532e-05 7.33668e-05 -2.4014e-07
4.36778e-08 -2.4014e-07 -6.06171e-07
0.00143974 -2.67928e-05 -5.91478e-09
-2.67928e-05 9.69787e-05 1.88532e-07
-5.91478e-09 1.88532e-07 2.61068e-05
0.00135451 3.58705e-07 -6.67034e-07
3.58705e-07 2.64568e-05 2.81765e-07
-6.67034e-07 2.81765e-07 -2.67265e-05
0.00139874 2.40109e-06 2.30115e-06
2.40109e-06 8.69011e-05 -5.53476e-07
2.30115e-06 -5.53476e-07 1.4683e-05
0.00144009 -2.00101e-05 1.72365e-06
-2.00101e-05 7.71988e-05 1.38884e-06
1.72365e-06 1.38884e-06 1.29188e-05
0.00133925 -1.77451e-05 1.92381e-06
-1.77451e-05 1.69177e-05 7.53085e-08
1.92381e-06 7.53085e-08 -3.39532e-05
0.00139564 2.79907e-05 -1.53192e-06
2.79907e-05 6.35042e-05 -6.60766e-07
-1.53192e-06 -6.60766e-07 -1.27034e-05
0.00150139 1.28172e-05 -2.0254e-06
1.28172e-05 7.23544e-05 6.66597e-07
-2.0254e-06 6.66597e-07 -2.16153e-06
0.00142167 -1.9195e-05 -1.81552e-06
-1.9195e-05 4.79181e-05 1.58234e-06
-1.81552e-06 1.58234e-06 -9.74597e-06
0.00114371 -4.25317e-05 -5.87952e-07
-4.25317e-05 9.09983e-05 1.15066e-06
-5.87952e-07 1.15066e-06 2.0651e-05
0.00100701 -4.47953e-05 -9.24992e-07
-4.47953e-05 3.22716e-05 2.7982e-06
-9.24992e-07 2.7982e-06 -4.994e-05
0.00129647 -5.35724e-05 -2.41511e-06
-5.35724e-05 0.000142543 1.99676e-06
-2.41511e-06 1.99676e-06 5.19789e-05
0.00144469 -3.96495e-05 4.47391e-07
-3.96495e-05 8.57765e-05 1.03289e-06
4.47391e-07 1.03289e-06 3.9263e-05
0.00118076 -4.81731e-05 -3.37104e-06
-4.81731e-05 4.03632e-06 -1.06472e-06
-3.37104e-06 -1.06472e-06 -6.2276e-05
0.00101343 -4.15262e-05 -1.08546e-06
-4.15262e-05 2.22844e-05 6.0842e-07
-1.08546e-06 6.0842e-07 -5.2485e-05
0.00116264 -4.4257e-05 -1.5388e-06
-4.4257e-05 9.8324e-05 -5.25401e-08
-1.5388e-06 -5.25401e-08 1.47853e-05
0.00112365 -3.81987e-05 -3.46571e-07
-3.81987e-05 0.000101846 5.56198e-07
-3.46571e-07 5.56198e-07 1.51685e-05
0.000964844 1.23565e-05 -6.37885e-07
1.23565e-05 3.21963e-06 1.32382e-06
-6.37885e-07 1.32382e-06 -2.68323e-05
0.00109624 5.51669e-06 -1.41444e-07
5.51669e-06 7.74226e-05 1.79277e-06
-1.41444e-07 1.79277e-06 2.3447e-05
0.00112044 -3.35814e-05 -1.22219e-06
-3.35814e-05 9.66954e-05 2.0471e-06
-1.22219e-06 2.0471e-06 2.23317e-05
0.00140994 3.07863e-05 1.60753e-07
3.07863e-05 6.36848e-05 3.39197e-07
1.60753e-07 3.39197e-07 -1.07139e-05
0.000977436 8.8866e-06 -3.03018e-08
8.8866e-06 6.45643e-06 9.50583e-10
-3.03018e-08 9.50583e-10 -2.18867e-05
0.000914576 -1.09339e-07 -3.10004e-07
-1.09339e-07 -1.63835e-05 1.1004e-08
-3.10004e-07 1.1004e-08 -6.22135e-05
0.00159396 7.80045e-06 1.55576e-07
7.80045e-06 0.000107722 3.588e-07
1.55576e-07 3.588e-07 3.92114e-05
0.00131273 -2.92369e-05 -2.53597e-07
-2.92369e-05 -2.45686e-05 -3.24558e-07
-2.53597e-07 -3.24558e-07 -6.61252e-05
0.000952245 -4.16609e-05 -1.91282e-07
-4.16609e-05 4.19503e-07 6.46436e-07
-1.91282e-07 6.46436e-07 -7.62525e-05
0.00128117 -5.38842e-05 -2.93089e-07
-5.38842e-05 0.000157454 1.99844e-07
-2.93089e-07 1.99844e-07 6.33847e-05
0.00119686 -5.3806e-05 3.91865e-07
-5.3806e-05 6.48861e-05 4.67725e-07
3.91865e-07 4.67725e-07 -2.55203e-05
0.00150408 -4.95992e-05 -1.4978e-08
-4.95992e-05 0.00010847 -9.2773e-07
-1.4978e-08 -9.2773e-07 6.00544e-05
0.00105923 3.28106e-06 4.17658e-07
3.28106e-06 5.74641e-05 -5.06736e-07
4.17658e-07 -5.06736e-07 7.92971e-06
0.00110836 -2.05809e-05 -4.8054e-07
-2.05809e-05 9.08878e-05 5.36212e-07
-4.8054e-07 5.36212e-07 2.01326e-05
0.00109924 -4.48367e-05 4.18577e-07
-4.48367e-05 6.3165e-05 3.06508e-07
4.18577e-07 3.06508e-07 -1.58393e-05
0.00126227 -4.78765e-05 -1.17621e-06
-4.78765e-05 0.0001536 -1.27394e-07
-1.17621e-06 -1.27394e-07 6.45304e-05
0.00106526 -3.94443e-05 5.11949e-07
-3.94443e-05 7.22333e-05 3.49389e-07
5.11949e-07 3.49389e-07 -2.37464e-05
0.00105758 -3.55249e-05 2.72158e-07
-3.55249e-05 7.08709e-05 -2.69306e-07
2.72158e-07 -2.69306e-07 -1.38278e-05
0.00145422 3.29336e-05 3.011e-06
3.29336e-05 7.62465e-05 1.38855e-06
3.011e-06 1.38855e-06 3.00442e-06
0.00160725 -3.5194e-06 1.98214e-06
-3.5194e-06 9.85683e-05 -1.82657e-06
1.98214e-06 -1.82657e-06 4.74088e-05
0.00173506 -4.65678e-05 2.88001e-07
-4.65678e-05 0.000154888 -1.5438e-06
2.88001e-07 -1.5438e-06 0.000127741
0.00146506 -6.04735e-05 3.6166e-06
-6.04735e-05 0.000141008 8.41337e-07
3.6166e-06 8.41337e-07 6.63915e-05
0.00101123 -4.5445e-05 4.33515e-07
-4.5445e-05 3.36047e-05 -2.26747e-06
4.33515e-07 -2.26747e-06 -5.05573e-05
0.00159001 -6.43441e-05 1.72165e-06
-6.43441e-05 0.000299761 -2.11014e-06
1.72165e-06 -2.11014e-06 0.000196198
0.000815218 7.70576e-06 -1.74327e-08
7.70576e-06 -6.60545e-05 -1.66834e-06
-1.74327e-08 -1.66834e-06 -0.000110908
0.00100667 -5.34126e-06 5.94978e-07
-5.34126e-06 3.04126e-05 -1.28582e-06
5.94978e-07 -1.28582e-06 -1.66639e-05
0.00126338 -4.93522e-06 -6.47282e-08
-4.93522e-06 0.000166549 -6.833e-07
-6.47282e-08 -6.833e-07 0.000107641
0.000899158 3.96123e-06 -2.05043e-07
3.96123e-06 -1.34648e-05 -1.28665e-06
-2.05043e-07 -1.28665e-06 -8.15253e-05
0.00118311 -3.1937e-05 1.68573e-07
-3.1937e-05 0.000129231 -6.47833e-07
1.68573e-07 -6.47833e-07 4.80993e-05
0.000971506 -3.25918e-05 2.76488e-08
-3.25918e-05 3.06725e-05 -6.45608e-07
2.76488e-08 -6.45608e-07 -6.35394e-05
0.00118557 -4.24033e-05 1.85806e-06
-4.24033e-05 0.000138163 -8.21093e-07
1.85806e-06 -8.21093e-07 3.53585e-05
0.00100284 -4.69961e-05 8.71269e-07
-4.69961e-05 2.69165e-05 -1.24896e-06
8.71269e-07 -1.24896e-06 -6.30234e-05
0.000962672 2.97715e-05 -4.35481e-07
2.97715e-05 1.29598e-05 -4.43174e-07
-4.35481e-07 -4.43174e-07 -5.95823e-05
0.00113294 4.08405e-05 -1.43563e-06
4.08405e-05 9.42651e-05 -6.93507e-07
-1.43563e-06 -6.93507e-07 1.5041e-05
0.0014949 1.99965e-05 -3.09584e-06
1.99965e-05 6.47633e-05 -2.54947e-06
-3.09584e-06 -2.54947e-06 2.18445e-05
0.00136169 4.49162e-05 -1.80935e-06
4.49162e-05 7.48326e-05 -6.84262e-08
-1.80935e-06 -6.84262e-08 1.39558e-05
0.0012249 4.39418e-05 -1.04714e-06
4.39418e-05 0.000132226 -2.9024e-07
-1.04714e-06 -2.9024e-07 5.21118e-05
0.00117861 4.51033e-05 -8.83341e-07
4.51033e-05 0.000111522 -1.46099e-06
-8.83341e-07 -1.46099e-06 3.19186e-05
0.00164951 6.17666e-05 -1.42787e-06
6.17666e-05 0.000280776 -5.56678e-07
-1.42787e-06 -5.56678e-07 0.000192374
0.000970478 4.76837e-05 -9.32841e-07
4.76837e-05 -1.06892e-06 -1.52743e-06
-9.32841e-07 -1.52743e-06 -0.000101181
0.00110769 4.057e-05 -3.36459e-07
4.057e-05 8.94206e-05 -3.20077e-07
-3.36459e-07 -3.20077e-07 9.04963e-06
0.00128802 4.48437e-07 7.50796e-07
4.48437e-07 -3.55092e-05 5.93804e-07
7.50796e-07 5.93804e-07 -8.51045e-05
0.00114521 4.38091e-05 2.86337e-07
4.38091e-05 0.000100096 3.48223e-07
2.86337e-07 3.48223e-07 1.40781e-05
0.00100607 4.37861e-05 2.68189e-07
4.37861e-05 2.77526e-05 -1.1684e-07
2.68189e-07 -1.1684e-07 -6.27058e-05
0.00146373 4.20416e-05 4.85824e-07
4.20416e-05 1.63614e-05 -3.59979e-07
4.85824e-07 -3.59979e-07 -2.49456e-05
0.00146952 6.43749e-05 7.95386e-07
6.43749e-05 0.000139555 -4.33569e-07
7.95386e-07 -4.33569e-07 5.03309e-05
0.00150889 6.04921e-05 2.25613e-07
6.04921e-05 0.000262624 5.82399e-07
2.25613e-07 5.82399e-07 0.000153453
0.00116731 4.24903e-05 3.64839e-07
4.24903e-05 0.000120793 3.5736e-07
3.64839e-07 3.5736e-07 3.36928e-05
0.00143299 3.2869e-05 5.06323e-06
3.2869e-05 -5.8067e-05 -5.04674e-07
5.06323e-06 -5.04674e-07 -9.72824e-05
0.00135595 4.85225e-05 4.90843e-07
4.85225e-05 0.000198967 2.09848e-07
4.90843e-07 2.09848e-07 0.000108672
0.00153167 5.63063e-05 -7.22309e-07
5.63063e-05 0.000287398 1.67824e-06
-7.22309e-07 1.67824e-06 0.000182737
0.00122101 6.85985e-05 5.89314e-06
6.85985e-05 -8.24807e-05 1.63922e-06
5.89314e-06 1.63922e-06 -0.000159888
0.00109369 5.99696e-05 -2.20424e-09
5.99696e-05 4.14263e-05 2.66929e-06
-2.20424e-09 2.66929e-06 -7.51343e-05
0.00215907 -4.98578e-05 -1.08911e-06
-4.98578e-05 0.000100891 -5.79799e-06
-1.08911e-06 -5.79799e-06 0.000122531
0.00109294 3.71416e-05 -4.75072e-07
3.71416e-05 8.43803e-05 -5.37681e-07
-4.75072e-07 -5.37681e-07 5.39638e-06
0.00109588 4.02042e-05 3.89862e-08
4.02042e-05 8.58236e-05 3.75625e-08
3.89862e-08 3.75625e-08 5.74122e-07
0.00124518 4.39889e-05 5.64509e-07
4.39889e-05 0.000151982 3.70112e-07
5.64509e-07 3.70112e-07 6.23085e-05
0.00100849 -5.73767e-06 1.73338e-07
-5.73767e-06 3.70843e-05 -1.27201e-06
1.73338e-07 -1.27201e-06 -1.35677e-05
0.000908571 6.80692e-06 -1.90815e-07
6.80692e-06 -1.0733e-05 -5.10554e-07
-1.90815e-07 -5.10554e-07 -7.79991e-05
0.00122134 3.22769e-05 -1.89452e-07
3.22769e-05 0.000148201 -3.02164e-07
-1.89452e-07 -3.02164e-07 7.08825e-05
0.00101579 3.04817e-05 -7.98401e-07
3.04817e-05 4.25083e-05 -9.08466e-07
-7.98401e-07 -9.08466e-07 -4.28526e-05
0.00100881 -1.30316e-05 -2.65716e-08
-1.30316e-05 3.77589e-05 8.33944e-09
-2.65716e-08 8.33944e-09 -1.27295e-05
0.000978165 1.71079e-05 2.16322e-07
1.71079e-05 2.5906e-05 -4.5339e-09
2.16322e-07 -4.5339e-09 -4.13415e-05
0.00114757 4.18224e-05 -6.57731e-07
4.18224e-05 0.000100395 -7.69783e-07
-6.57731e-07 -7.69783e-07 1.12198e-05
0.0010875 2.49535e-05 5.30779e-08
2.49535e-05 7.9974e-05 4.85733e-08
5.30779e-08 4.85733e-08 2.67632e-06
0.00111617 2.18282e-05 1.25215e-08
2.18282e-05 9.13028e-05 -4.48701e-08
1.25215e-08 -4.48701e-08 6.42432e-06
0.00113167 3.21438e-05 4.43595e-07
3.21438e-05 8.66399e-05 9.39264e-07
4.43595e-07 9.39264e-07 -5.61525e-06
0.00123643 3.59775e-05 1.00804e-07
3.59775e-05 0.000150692 1.90527e-07
1.00804e-07 1.90527e-07 6.47288e-05
0.00120306 3.71497e-05 2.86807e-07
3.71497e-05 0.000138083 4.75718e-07
2.86807e-07 4.75718e-07 6.03966e-05
0.000858172 5.49042e-06 -5.18256e-08
5.49042e-06 -3.41125e-05 1.01525e-06
-5.18256e-08 1.01525e-06 -0.000102129
0.00080728 -1.3713e-06 7.90303e-08
-1.3713e-06 -6.32329e-05 1.65951e-06
7.90303e-08 1.65951e-06 -0.000115392
0.00123812 -1.76458e-06 2.13586e-07
-1.76458e-06 0.000156335 4.11363e-07
2.13586e-07 4.11363e-07 9.06774e-05
0.000813844 -9.43841e-06 -4.99925e-07
-9.43841e-06 -6.15017e-05 1.57431e-06
-4.99925e-07 1.57431e-06 -0.000113639
0.000980572 9.60983e-06 2.62354e-07
9.60983e-06 9.44517e-06 1.77158e-06
2.62354e-07 1.77158e-06 -2.11788e-05
0.000977962 2.30833e-07 -2.71675e-07
2.30833e-07 8.1409e-06 5.80426e-09
-2.71675e-07 5.80426e-09 -2.21178e-05
0.000927901 -1.68414e-07 1.35701e-07
-1.68414e-07 -3.30301e-05 3.2206e-06
1.35701e-07 3.2206e-06 -3.39144e-05
0.000982969 -9.48258e-06 2.17978e-07
-9.48258e-06 1.03208e-05 -1.80739e-06
2.17978e-07 -1.80739e-06 -1.97242e-05
0.00123027 -2.79172e-06 -5.20843e-07
-2.79172e-06 0.000119157 -1.28318e-06
-5.20843e-07 -1.28318e-06 0.000119808
0.00232795 -3.95131e-06 2.40714e-06
-3.95131e-06 0.000665949 4.12639e-06
2.40714e-06 4.12639e-06 0.000689176
0.00154781 -5.42041e-06 -1.66222e-06
-5.42041e-06 0.000280241 -4.51263e-06
-1.66222e-06 -4.51263e-06 0.000282013
0.00112305 -5.94054e-06 8.5252e-07
-5.94054e-06 6.46105e-05 2.5317e-06
8.5252e-07 2.5317e-06 8.1695e-05
0.00106811 -8.30828e-06 -1.13594e-06
-8.30828e-06 4.0515e-05 -1.62475e-06
-1.13594e-06 -1.62475e-06 5.71278e-05
0.000991026 4.51085e-06 3.26734e-07
4.51085e-06 8.48186e-06 -1.88041e-06
3.26734e-07 -1.88041e-06 -1.70102e-05
0.000984645 6.45592e-06 -2.57766e-08
6.45592e-06 7.16474e-06 -8.11528e-09
-2.57766e-08 -8.11528e-09 -1.95258e-05
0.000909803 7.7361e-06 8.94001e-07
7.7361e-06 -3.81257e-05 -3.23711e-06
8.94001e-07 -3.23711e-06 -3.74576e-05
0.00120692 1.07055e-05 -3.4407e-07
1.07055e-05 0.000114286 2.83211e-08
-3.4407e-07 2.83211e-08 0.000114861
0.00228835 1.31502e-05 7.40935e-06
1.31502e-05 0.000652998 -3.95992e-06
7.40935e-06 -3.95992e-06 0.000675588
0.000926888 1.19604e-05 -1.79155e-06
1.19604e-05 -2.20633e-05 3.23241e-06
-1.79155e-06 3.23241e-06 -2.45654e-05
0.00232642 1.63951e-05 -5.21883e-07
1.63951e-05 0.00067713 -3.27377e-08
-5.21883e-07 -3.27377e-08 0.000698446
0.00237857 1.93908e-05 -1.15255e-05
1.93908e-05 0.000708776 4.02767e-06
-1.15255e-05 4.02767e-06 0.000728651
0.00138054 2.88181e-07 -1.5831e-06
2.88181e-07 4.19341e-05 -1.78835e-06
-1.5831e-06 -1.78835e-06 -9.74728e-06
0.00139614 -2.48085e-05 -1.31128e-06
-2.48085e-05 7.56861e-05 2.5621e-07
-1.31128e-06 2.5621e-07 3.86499e-06
0.00142122 6.49511e-06 -1.49836e-06
6.49511e-06 9.65751e-05 -6.83819e-07
-1.49836e-06 -6.83819e-07 2.3104e-05
0.00139758 2.17107e-06 -3.21755e-07
2.17107e-06 8.63621e-05 -8.74998e-07
-3.21755e-07 -8.74998e-07 1.42794e-05
0.00136191 -1.94186e-05 -1.56963e-07
-1.94186e-05 4.40842e-05 5.42494e-07
-1.56963e-07 5.42494e-07 -1.98021e-05
0.00133327 -1.95665e-05 1.23051e-06
-1.95665e-05 2.49021e-05 4.44615e-07
1.23051e-06 4.44615e-07 -2.90635e-05
0.0014814 2.63481e-06 1.2362e-06
2.63481e-06 0.000114532 2.80876e-07
1.2362e-06 2.80876e-07 4.99481e-05
0.0017892 -4.5697e-05 -4.58715e-06
-4.5697e-05 0.000190761 -5.63992e-06
-4.58715e-06 -5.63992e-06 0.000171554
0.00139596 1.0101e-05 1.81193e-06
1.0101e-05 3.64861e-06 8.86576e-08
1.81193e-06 8.86576e-08 -2.79687e-05
0.00101115 -4.25236e-06 2.28194e-07
-4.25236e-06 3.02076e-05 -1.16691e-06
2.28194e-07 -1.16691e-06 -1.2337e-05
0.00135232 3.01035e-05 -2.41261e-06
3.01035e-05 3.54176e-05 -9.08385e-07
-2.41261e-06 -9.08385e-07 -3.90822e-05
0.00159967 7.24967e-06 -1.81695e-06
7.24967e-06 0.000108636 1.23678e-06
-1.81695e-06 1.23678e-06 4.06911e-05
0.00118499 -2.9724e-05 -1.06878e-06
-2.9724e-05 -8.34343e-05 1.98797e-06
-1.06878e-06 1.98797e-06 -0.000127583
0.000927759 -4.10847e-05 -6.25975e-07
-4.10847e-05 -1.16065e-05 1.9918e-06
-6.25975e-07 1.9918e-06 -8.76614e-05
0.00112077 -5.12187e-05 -1.52639e-06
-5.12187e-05 7.98408e-05 3.69113e-06
-1.52639e-06 3.69113e-06 -1.52503e-05
0.00101765 -5.01957e-05 -2.57802e-06
-5.01957e-05 -2.55262e-05 5.84623e-07
-2.57802e-06 5.84623e-07 -0.000114691
0.00132815 -4.83909e-05 -2.52544e-06
-4.83909e-05 2.56061e-05 -1.28339e-06
-2.52544e-06 -1.28339e-06 -2.336e-05
0.00126215 -4.75991e-05 -3.04639e-07
-4.75991e-05 0.000142259 7.63557e-07
-3.04639e-07 7.63557e-07 6.36823e-05
0.00101183 -4.33017e-05 -3.58182e-06
-4.33017e-05 2.90234e-05 -5.13021e-07
-3.58182e-06 -5.13021e-07 -5.74862e-05
0.00100414 -3.8334e-05 -3.33812e-07
-3.8334e-05 4.31588e-05 1.11315e-06
-3.33812e-07 1.11315e-06 -5.42948e-05
0.000979852 8.96191e-06 -6.60398e-07
8.96191e-06 7.59189e-06 1.90786e-06
-6.60398e-07 1.90786e-06 -2.07783e-05
0.00109507 -3.62205e-05 1.50597e-07
-3.62205e-05 8.78141e-05 5.18457e-07
1.50597e-07 5.18457e-07 3.57556e-06
0.00128285 -6.79502e-06 -8.36589e-08
-6.79502e-06 0.000169326 8.32259e-07
-8.36589e-08 8.32259e-07 0.000121353
0.00109526 -1.40508e-05 -4.80879e-07
-1.40508e-05 8.47557e-05 1.8353e-06
-4.80879e-07 1.8353e-06 1.38424e-05
0.000806736 9.01049e-06 -1.72457e-07
9.01049e-06 -6.99965e-05 1.23857e-06
-1.72457e-07 1.23857e-06 -0.000116159
0.00146076 3.20163e-05 2.29511e-07
3.20163e-05 7.33671e-05 -8.66199e-09
2.29511e-07 -8.66199e-09 -2.90946e-07
0.000922767 -2.1426e-09 2.07314e-07
-2.1426e-09 -1.30501e-05 -4.52987e-07
2.07314e-07 -4.52987e-07 -5.72697e-05
0.00100896 -6.96433e-06 -1.46096e-07
-6.96433e-06 3.18658e-05 3.4257e-08
-1.46096e-07 3.4257e-08 -1.53603e-05
0.00106704 3.89913e-07 -4.1606e-07
3.89913e-07 6.88725e-05 4.85425e-07
-4.1606e-07 4.85425e-07 8.76935e-06
0.00164769 -3.79378e-06 6.7375e-07
-3.79378e-06 0.000118398 7.81363e-07
6.7375e-07 7.81363e-07 6.72816e-05
0.00148708 -4.61428e-05 -6.87431e-07
-4.61428e-05 3.34612e-05 -1.29197e-06
-6.87431e-07 -1.29197e-06 4.34192e-06
0.00107421 -4.66035e-05 -1.17141e-07
-4.66035e-05 6.15908e-05 3.31014e-07
-1.17141e-07 3.31014e-07 -2.20042e-05
0.00118582 -5.75663e-05 8.21093e-07
-5.75663e-05 0.000105545 -2.04678e-07
8.21093e-07 -2.04678e-07 1.64652e-06
0.00128351 -5.76079e-05 -4.01762e-08
-5.76079e-05 5.25379e-05 6.11084e-07
-4.01762e-08 6.11084e-07 -2.10738e-05
0.000988179 1.6567e-06 -8.87035e-08
1.6567e-06 3.06487e-05 3.6428e-08
-8.87035e-08 3.6428e-08 -3.61674e-05
0.00117712 -3.10325e-05 1.07079e-07
-3.10325e-05 0.000125561 1.37601e-08
1.07079e-07 1.37601e-08 4.39226e-05
0.00105862 -4.7879e-05 -9.28466e-07
-4.7879e-05 5.41984e-05 1.23532e-08
-9.28466e-07 1.23532e-08 -3.57483e-05
0.00117735 -4.24723e-05 1.73925e-07
-4.24723e-05 0.000133424 -4.25287e-07
1.73925e-07 -4.25287e-07 3.19545e-05
0.00102282 -3.57274e-05 -2.84309e-07
-3.57274e-05 5.549e-05 6.13511e-07
-2.84309e-07 6.13511e-07 -3.80886e-05
0.00139571 3.05676e-05 3.04431e-06
3.05676e-05 1.61453e-05 5.59798e-07
3.04431e-06 5.59798e-07 -5.59605e-05
0.00183267 -2.50849e-05 1.76703e-06
-2.50849e-05 0.000142674 -3.79659e-06
1.76703e-06 -3.79659e-06 0.000133177
0.00176373 -6.70191e-05 4.3865e-06
-6.70191e-05 0.000197612 4.69541e-07
4.3865e-06 4.69541e-07 0.000144037
0.00172705 -7.16173e-05 2.66345e-06
-7.16173e-05 0.00034202 -2.08036e-06
2.66345e-06 -2.08036e-06 0.000241619
0.000872918 -4.90498e-05 8.84237e-07
-4.90498e-05 -1.84321e-05 -3.12637e-06
8.84237e-07 -3.12637e-06 -0.000113744
0.000819488 1.75283e-05 2.10073e-08
1.75283e-05 -5.40561e-05 -1.27557e-06
2.10073e-08 -1.27557e-06 -0.000113382
0.000910539 6.64545e-06 3.13578e-07
6.64545e-06 -8.70017e-06 -1.24242e-06
3.13578e-07 -1.24242e-06 -7.28286e-05
0.0011813 1.76798e-05 2.21709e-07
1.76798e-05 0.000128531 -1.04155e-07
2.21709e-07 -1.04155e-07 5.76122e-05
0.00113906 -3.0231e-05 4.2852e-07
-3.0231e-05 0.000108102 -1.01679e-06
4.2852e-07 -1.01679e-06 2.85534e-05
0.00108768 -3.4893e-05 -1.79913e-07
-3.4893e-05 8.14167e-05 -1.4243e-07
-1.79913e-07 -1.4243e-07 -7.63293e-06
0.00117432 -3.85692e-05 4.34938e-07
-3.85692e-05 0.000137178 -1.51525e-06
4.34938e-07 -1.51525e-06 3.59465e-05
0.00102969 -4.46876e-05 2.58188e-06
-4.46876e-05 7.58497e-05 -9.60016e-07
2.58188e-06 -9.60016e-07 -4.05238e-05
0.00107896 4.00803e-05 -7.23253e-07
4.00803e-05 7.52859e-05 -8.00433e-07
-7.23253e-07 -8.00433e-07 -5.06872e-06
0.00106502 4.24162e-05 -2.832e-07
4.24162e-05 6.03279e-05 1.10967e-08
-2.832e-07 1.10967e-08 -2.55463e-05
0.00115074 2.37918e-07 -1.72641e-06
2.37918e-07 -0.000102235 -2.79798e-07
-1.72641e-06 -2.79798e-07 -0.000149619
0.00135463 3.87343e-05 -1.79102e-06
3.87343e-05 -3.05344e-05 -1.21709e-06
-1.79102e-06 -1.21709e-06 -7.27847e-05
0.00164157 6.87006e-05 -2.51898e-06
6.87006e-05 0.00021703 -1.55781e-06
-2.51898e-06 -1.55781e-06 0.000128275
0.000853528 4.10382e-05 -8.74922e-08
4.10382e-05 -4.92096e-05 -1.21636e-06
-8.74922e-08 -1.21636e-06 -0.0001407
0.00137238 5.82874e-05 -3.68976e-07
5.82874e-05 0.000197717 -5.61835e-07
-3.68976e-07 -5.61835e-07 8.85989e-05
0.00117375 4.2622e-05 5.62696e-08
4.2622e-05 0.000123897 8.50988e-08
5.62696e-08 8.50988e-08 3.73339e-05
0.00135346 3.22796e-05 -1.53892e-06
3.22796e-05 -9.70749e-05 1.1295e-07
-1.53892e-06 1.1295e-07 -0.000134565
0.00120128 4.56554e-05 -8.58041e-08
4.56554e-05 0.000123977 -1.45281e-07
-8.58041e-08 -1.45281e-07 3.38244e-05
0.0012623 5.06194e-05 -1.06222e-07
5.06194e-05 0.000163151 3.06012e-07
-1.06222e-07 3.06012e-07 5.88114e-05
0.00140863 6.94154e-05 2.20633e-06
6.94154e-05 -3.60385e-06 -1.04893e-06
2.20633e-06 -1.04893e-06 -7.76867e-05
0.00123382 6.31973e-05 -9.41181e-07
6.31973e-05 0.000112923 8.37668e-07
-9.41181e-07 8.37668e-07 -8.06938e-06
0.00202844 -3.4255e-05 -2.34039e-06
-3.4255e-05 0.000112919 -1.0426e-07
-2.34039e-06 -1.0426e-07 0.000120051
0.00119642 4.35873e-05 -6.60124e-08
4.35873e-05 0.00013144 -2.25716e-07
-6.60124e-08 -2.25716e-07 4.02467e-05
0.00111732 7.92288e-05 9.91129e-06
7.92288e-05 -0.000235583 3.74415e-06
9.91129e-06 3.74415e-06 -0.000306319
0.00126444 4.74637e-05 -9.4775e-07
4.74637e-05 0.000163409 7.74771e-08
-9.4775e-07 7.74771e-08 6.65181e-05
0.0011948 5.54844e-05 -1.64478e-06
5.54844e-05 0.000162388 1.51539e-06
-1.64478e-06 1.51539e-06 3.33154e-05
0.000476656 7.49614e-05 9.34453e-08
7.49614e-05 -0.000312744 8.03233e-07
9.34453e-08 8.03233e-07 -0.00042751
0.00494048 -5.72381e-05 -7.35668e-06
-5.72381e-05 0.00171402 2.26312e-06
-7.35668e-06 2.26312e-06 0.00125879
0.0008829 -9.89749e-05 3.90323e-05
-9.89749e-05 -0.000117533 1.59591e-05
3.90323e-05 1.59591e-05 -0.000304388
0.00276845 3.2398e-05 -4.77038e-06
3.2398e-05 0.000439853 -5.54886e-07
-4.77038e-06 -5.54886e-07 0.000472104
-0.00248958 -8.07744e-05 -5.41708e-05
-8.07744e-05 -0.00143503 -1.58682e-05
-5.41708e-05 -1.58682e-05 -0.0014341
0.00149268 -0.000101454 -3.15377e-06
-0.000101454 9.56415e-05 2.54262e-06
-3.15377e-06 2.54262e-06 0.000459898
0.00108537 3.99544e-05 -5.14164e-07
3.99544e-05 8.14166e-05 -4.64564e-07
-5.14164e-07 -4.64564e-07 -3.88612e-06
0.00120236 4.30806e-05 -1.43906e-07
4.30806e-05 0.000131514 -9.50977e-08
-1.43906e-07 -9.50977e-08 4.18766e-05
0.00116307 4.07404e-05 6.24999e-07
4.07404e-05 9.98117e-05 9.53678e-07
6.24999e-07 9.53678e-07 5.19402e-06
0.00100628 -1.47009e-05 1.09935e-07
-1.47009e-05 3.67503e-05 -1.145e-06
1.09935e-07 -1.145e-06 -1.39169e-05
0.000918159 2.14925e-05 -2.34846e-07
2.14925e-05 -4.26095e-06 -1.11337e-06
-2.34846e-07 -1.11337e-06 -7.20457e-05
0.00108171 1.75899e-05 -2.21831e-07
1.75899e-05 7.69788e-05 -7.8615e-07
-2.21831e-07 -7.8615e-07 3.84648e-08
0.0012006 2.7422e-05 -5.51103e-07
2.7422e-05 0.000134375 -6.4612e-07
-5.51103e-07 -6.4612e-07 5.00528e-05
0.00107678 3.87214e-05 -1.32984e-06
3.87214e-05 6.47794e-05 -1.49148e-06
-1.32984e-06 -1.49148e-06 -2.42351e-05
0.00108726 3.32773e-05 -2.42617e-07
3.32773e-05 7.96777e-05 -4.80273e-07
-2.42617e-07 -4.80273e-07 1.10853e-06
0.000909608 -5.02047e-07 1.16102e-07
-5.02047e-07 -1.22715e-05 5.01477e-07
1.16102e-07 5.01477e-07 -6.36524e-05
0.000954273 4.93837e-06 1.15864e-07
4.93837e-06 1.44894e-05 5.51412e-08
1.15864e-07 5.51412e-08 -5.30095e-05
0.00113522 3.37739e-05 1.28304e-07
3.37739e-05 9.01595e-05 -1.35765e-08
1.28304e-07 -1.35765e-08 -1.53099e-06
0.00116341 3.417e-05 -3.2864e-07
3.417e-05 0.000114612 -5.34052e-07
-3.2864e-07 -5.34052e-07 2.85099e-05
0.00130067 4.37522e-05 -1.38235e-07
4.37522e-05 0.00018371 -1.69343e-07
-1.38235e-07 -1.69343e-07 9.80713e-05
0.00119256 3.79176e-05 2.63003e-07
3.79176e-05 0.000129342 9.08463e-07
2.63003e-07 9.08463e-07 3.45599e-05
0.000957904 2.80601e-05 2.93995e-07
2.80601e-05 1.47582e-05 1.40145e-06
2.93995e-07 1.40145e-06 -6.5789e-05
0.000868282 -3.44031e-06 9.81651e-08
-3.44031e-06 -2.83602e-05 4.0033e-07
9.81651e-08 4.0033e-07 -9.63547e-05
0.00079357 -2.03847e-05 -7.67424e-07
-2.03847e-05 -7.02969e-05 1.60021e-06
-7.67424e-07 1.60021e-06 -0.000122687
0.00109704 2.52749e-07 -1.4621e-08
2.52749e-07 8.50252e-05 7.47806e-07
-1.4621e-08 7.47806e-07 1.94623e-05
0.00123547 1.31125e-05 1.64124e-07
1.31125e-05 0.000154285 5.99396e-07
1.64124e-07 5.99396e-07 7.7251e-05
0.00104483 -1.42956e-05 -9.3051e-08
-1.42956e-05 6.002e-05 9.78454e-07
-9.3051e-08 9.78454e-07 -8.88099e-06
0.00106521 -6.08488e-06 2.30688e-07
-6.08488e-06 6.97499e-05 -5.08885e-07
2.30688e-07 -5.08885e-07 3.05264e-06
0.00100278 -1.54163e-05 -5.81847e-07
-1.54163e-05 3.2469e-05 1.14816e-06
-5.81847e-07 1.14816e-06 -1.92734e-05
0.000816195 -1.07329e-06 8.98556e-08
-1.07329e-06 -6.00075e-05 4.86883e-07
8.98556e-08 4.86883e-07 -0.000112289
0.000982697 7.32075e-06 1.42708e-08
7.32075e-06 9.93658e-06 1.80233e-06
1.42708e-08 1.80233e-06 -2.10226e-05
0.000976702 4.09982e-07 -2.40672e-07
4.09982e-07 7.43474e-06 -3.1851e-09
-2.40672e-07 -3.1851e-09 -2.31573e-05
0.000948424 2.08113e-06 -3.81883e-07
2.08113e-06 -2.2271e-05 4.51738e-06
-3.81883e-07 4.51738e-06 -2.35622e-05
0.000977133 -9.36386e-06 3.81426e-07
-9.36386e-06 7.75187e-06 -1.77095e-06
3.81426e-07 -1.77095e-06 -2.25139e-05
0.00093165 -2.2343e-07 9.43066e-08
-2.2343e-07 -3.11388e-05 -2.5133e-09
9.43066e-08 -2.5133e-09 -3.2051e-05
0.00233385 -8.57242e-07 -8.50093e-09
-8.57242e-07 0.000668037 4.13461e-06
-8.50093e-09 4.13461e-06 0.000691333
0.000949418 -2.55955e-06 -4.28749e-07
-2.55955e-06 -2.13524e-05 -4.52291e-06
-4.28749e-07 -4.52291e-06 -2.22954e-05
0.001722 -3.50718e-06 -8.88374e-08
-3.50718e-06 0.000362348 3.88343e-08
-8.88374e-08 3.88343e-08 0.000382677
0.00107425 -5.69165e-06 -6.83208e-07
-5.69165e-06 4.00489e-05 -1.60947e-06
-6.83208e-07 -1.60947e-06 5.73757e-05
0.000993112 2.43882e-06 1.68391e-07
2.43882e-06 7.95547e-06 -1.87827e-06
1.68391e-07 -1.87827e-06 -1.67597e-05
0.000988588 4.30397e-06 -3.31627e-08
4.30397e-06 7.02424e-06 -1.56586e-08
-3.31627e-08 -1.56586e-08 -1.84278e-05
0.000918377 5.3437e-06 5.5859e-07
5.3437e-06 -3.66159e-05 -3.23371e-06
5.5859e-07 -3.23371e-06 -3.48111e-05
0.000983412 6.35302e-06 -5.57013e-07
6.35302e-06 6.34794e-06 1.87875e-06
-5.57013e-07 1.87875e-06 -2.03131e-05
0.00120065 8.25627e-06 -9.212e-08
8.25627e-06 0.000107286 -6.11273e-07
-9.212e-08 -6.11273e-07 0.000109363
0.00225635 9.8636e-06 5.6705e-06
9.8636e-06 0.000633381 -3.95933e-06
5.6705e-06 -3.95933e-06 0.000656909
0.000923947 1.00366e-05 -1.43468e-06
1.00366e-05 -2.74065e-05 3.21813e-06
-1.43468e-06 3.21813e-06 -2.84106e-05
0.00230851 1.28615e-05 -2.77015e-06
1.28615e-05 0.000663997 1.15528e-06
-2.77015e-06 1.15528e-06 0.000686295
0.00232908 1.64183e-05 -9.91498e-06
1.64183e-05 0.000679079 4.01423e-06
-9.91498e-06 4.01423e-06 0.000700231
0.00126863 -1.85278e-05 -2.09875e-06
-1.85278e-05 3.94548e-06 -1.76606e-07
-2.09875e-06 -1.76606e-07 -5.9556e-05
0.00139717 1.38115e-06 -2.22155e-06
1.38115e-06 8.61605e-05 -1.332e-06
-2.22155e-06 -1.332e-06 1.41994e-05
0.00134008 -2.03644e-05 3.02475e-06
-2.03644e-05 3.84462e-05 1.05779e-06
3.02475e-06 1.05779e-06 -1.85816e-05
0.00149325 -4.0653e-05 -1.71104e-06
-4.0653e-05 4.21664e-05 -2.17669e-06
-1.71104e-06 -2.17669e-06 3.00554e-05
0.00133184 8.53194e-07 -6.93925e-07
8.53194e-07 4.38664e-05 -6.21422e-07
-6.93925e-07 -6.21422e-07 -2.14233e-05
0.00119525 9.07344e-06 -7.06137e-07
9.07344e-06 -8.95415e-05 -5.75037e-07
-7.06137e-07 -5.75037e-07 -0.00012808
0.00132108 2.90323e-05 8.74628e-07
2.90323e-05 -3.69718e-05 2.83585e-06
8.74628e-07 2.83585e-06 -0.000104255
0.00203956 -9.64223e-05 0.000121537
-9.64223e-05 0.000409793 3.74765e-05
0.000121537 3.74765e-05 0.000216111
0.00118646 2.82886e-06 -5.41353e-06
2.82886e-06 8.01693e-05 9.12036e-07
-5.41353e-06 9.12036e-07 5.75956e-05
0.00101337 -3.35282e-07 -1.00983e-07
-3.35282e-07 3.1192e-05 -1.1487e-06
-1.00983e-07 -1.1487e-06 -1.10152e-05
0.00101942 -9.68185e-06 7.47331e-08
-9.68185e-06 3.45664e-05 1.1732e-08
7.47331e-08 1.1732e-08 -8.18738e-06
0.00104128 1.55525e-05 -1.91298e-07
1.55525e-05 5.41947e-05 -7.06578e-07
-1.91298e-07 -7.06578e-07 -2.15644e-06
0.001038 -7.13079e-06 -1.97757e-07
-7.13079e-06 5.11365e-05 -3.97202e-07
-1.97757e-07 -3.97202e-07 -4.19306e-06
0.00148806 3.14508e-05 -2.85629e-06
3.14508e-05 8.07203e-05 -7.35469e-07
-2.85629e-06 -7.35469e-07 6.58484e-06
0.0017369 -4.20893e-06 6.33489e-07
-4.20893e-06 0.000162732 1.94178e-06
6.33489e-07 1.94178e-06 0.000111405
0.00119396 -4.56057e-05 -3.46838e-06
-4.56057e-05 -0.000109409 -2.72317e-07
-3.46838e-06 -2.72317e-07 -0.000141227
0.00113835 -4.77814e-05 -8.78463e-07
-4.77814e-05 9.01378e-05 2.84923e-06
-8.78463e-07 2.84923e-06 7.1104e-06
0.000777826 -5.07107e-05 -8.0063e-07
-5.07107e-05 -9.06013e-05 2.15327e-06
-8.0063e-07 2.15327e-06 -0.000194807
0.00108841 -5.47398e-05 -2.97533e-06
-5.47398e-05 -4.27225e-05 -2.25273e-07
-2.97533e-06 -2.25273e-07 -0.00011525
0.00111959 -4.88241e-05 -2.59012e-06
-4.88241e-05 8.403e-05 1.45728e-06
-2.59012e-06 1.45728e-06 -5.93412e-06
0.00115968 -4.12217e-05 -1.17497e-06
-4.12217e-05 0.000123715 6.67466e-07
-1.17497e-06 6.67466e-07 2.3695e-05
0.00107693 -3.78907e-05 -3.01611e-07
-3.78907e-05 8.17257e-05 1.85514e-06
-3.01611e-07 1.85514e-06 -1.11766e-05
0.00100927 1.19504e-06 -5.03764e-07
1.19504e-06 3.20988e-05 1.3145e-06
-5.03764e-07 1.3145e-06 -1.51383e-05
0.00117573 -3.24105e-05 -1.52045e-07
-3.24105e-05 0.000124228 8.49459e-07
-1.52045e-07 8.49459e-07 4.20552e-05
0.00107595 -2.58273e-06 -2.74854e-07
-2.58273e-06 7.41591e-05 1.29027e-06
-2.74854e-07 1.29027e-06 8.57214e-06
0.00103277 -6.17564e-06 -1.49711e-07
-6.17564e-06 4.11371e-05 6.68652e-07
-1.49711e-07 6.68652e-07 -2.44729e-06
0.000875757 7.8612e-06 -2.12953e-07
7.8612e-06 -2.63052e-05 1.67038e-06
-2.12953e-07 1.67038e-06 -8.76994e-05
0.00150746 3.05479e-05 1.63698e-07
3.05479e-05 7.01618e-05 1.31721e-06
1.63698e-07 1.31721e-06 2.877e-07
0.0010223 1.49818e-05 -2.7946e-08
1.49818e-05 4.6291e-05 -5.01823e-07
-2.7946e-08 -5.01823e-07 -1.151e-05
0.000977872 -2.63151e-06 3.0145e-07
-2.63151e-06 2.50153e-05 3.25243e-08
3.0145e-07 3.25243e-08 -3.81959e-05
0.00107828 1.739e-05 6.27032e-08
1.739e-05 7.62063e-05 9.61345e-07
6.27032e-08 9.61345e-07 5.85502e-06
0.00160653 -2.57931e-05 -2.21432e-06
-2.57931e-05 4.95063e-05 4.01155e-07
-2.21432e-06 4.01155e-07 3.35491e-05
0.00136571 -6.20562e-05 -6.78033e-07
-6.20562e-05 3.42429e-06 -4.39273e-07
-6.78033e-07 -4.39273e-07 -4.85138e-05
0.00108351 -5.24967e-05 2.11365e-07
-5.24967e-05 8.21335e-05 -3.6533e-07
2.11365e-07 -3.6533e-07 -1.35187e-05
0.00147249 -6.76039e-05 2.92873e-07
-6.76039e-05 0.000219246 5.03822e-07
2.92873e-07 5.03822e-07 0.000119762
0.00117893 -2.80045e-05 -8.37345e-08
-2.80045e-05 0.000128465 4.30444e-08
-8.37345e-08 4.30444e-08 4.92562e-05
0.00106521 -3.588e-05 -3.22933e-07
-3.588e-05 6.92396e-05 7.82647e-07
-3.22933e-07 7.82647e-07 -1.93846e-05
0.00111246 -4.6092e-05 9.11941e-07
-4.6092e-05 0.000112718 -6.36868e-08
9.11941e-07 -6.36868e-08 1.21167e-06
0.00119423 -3.8829e-05 1.93295e-07
-3.8829e-05 0.00014722 -5.32059e-07
1.93295e-07 -5.32059e-07 4.51983e-05
0.000860721 2.30802e-05 3.36267e-06
2.30802e-05 -0.000324189 -1.19047e-06
3.36267e-06 -1.19047e-06 -0.000375715
0.00223894 -7.21777e-05 8.28239e-06
-7.21777e-05 0.000309071 -4.20952e-06
8.28239e-06 -4.20952e-06 0.000288554
0.00152095 -7.67224e-05 6.2446e-06
-7.67224e-05 0.000168407 -8.72841e-07
6.2446e-06 -8.72841e-07 7.32572e-05
0.00118901 -6.55929e-05 1.19569e-06
-6.55929e-05 0.000141722 -2.79117e-06
1.19569e-06 -2.79117e-06 3.3632e-05
0.000993543 1.41571e-05 -2.54865e-07
1.41571e-05 3.70667e-05 -7.43141e-07
-2.54865e-07 -7.43141e-07 -3.64156e-05
0.00100776 -2.53529e-05 4.07282e-07
-2.53529e-05 4.30424e-05 -1.57007e-06
4.07282e-07 -1.57007e-06 -3.29329e-05
0.00107305 -3.82654e-05 1.60615e-07
-3.82654e-05 7.9318e-05 -1.16074e-06
1.60615e-07 -1.16074e-06 -1.44507e-05
0.00110993 -3.31982e-05 -3.5068e-08
-3.31982e-05 0.00012958 -8.93997e-07
-3.5068e-08 -8.93997e-07 3.30699e-06
0.00103524 1.19521e-06 6.94872e-06
1.19521e-06 -0.000189972 -8.17052e-07
6.94872e-06 -8.17052e-07 -0.000610337
0.00117452 4.26375e-05 -2.48762e-07
4.26375e-05 0.000124345 -3.50964e-07
-2.48762e-07 -3.50964e-07 3.83174e-05
0.00104352 4.27159e-05 1.23294e-07
4.27159e-05 4.74295e-05 -7.07513e-08
1.23294e-07 -7.07513e-08 -4.25699e-05
0.00128485 3.19578e-05 -5.85659e-06
3.19578e-05 -0.000133422 1.40835e-07
-5.85659e-06 1.40835e-07 -0.000169152
0.00162705 7.03176e-05 -4.21776e-06
7.03176e-05 8.94786e-05 -2.60717e-06
-4.21776e-06 -2.60717e-06 1.8741e-05
0.00137335 6.64829e-05 -1.65913e-06
6.64829e-05 0.000185522 -7.39965e-07
-1.65913e-06 -7.39965e-07 5.94316e-05
0.000963681 4.45115e-05 1.04492e-06
4.45115e-05 2.50955e-05 -5.48048e-07
1.04492e-06 -5.48048e-07 -7.94371e-05
0.00177168 -1.88465e-05 1.32009e-07
-1.88465e-05 5.42951e-05 3.52695e-06
1.32009e-07 3.52695e-06 4.71529e-05
0.00119584 4.36091e-05 -2.00133e-08
4.36091e-05 0.000131779 -1.37207e-07
-2.00133e-08 -1.37207e-07 4.08573e-05
0.00150752 8.20218e-05 1.77708e-06
8.20218e-05 -6.28404e-05 1.10346e-07
1.77708e-06 1.10346e-07 -0.000132336
0.00115264 4.51836e-05 3.423e-07
4.51836e-05 0.000111667 1.09278e-07
3.423e-07 1.09278e-07 1.46955e-05
0.00110901 5.35361e-05 -3.10909e-07
5.35361e-05 0.000119848 -1.87153e-07
-3.10909e-07 -1.87153e-07 -7.01018e-06
0.00070791 7.62305e-05 -1.53005e-06
7.62305e-05 -0.00020464 1.31559e-07
-1.53005e-06 1.31559e-07 -0.000315606
0.00127727 -4.53114e-05 -1.30585e-05
-4.53114e-05 0.000134963 -6.84521e-06
-1.30585e-05 -6.84521e-06 -0.000327217
0.00186485 -9.50336e-05 3.33047e-06
-9.50336e-05 0.000190378 -2.48551e-06
3.33047e-06 -2.48551e-06 -0.000102235
0.00249921 4.00487e-05 -2.57711e-06
4.00487e-05 0.000316864 -3.6698e-07
-2.57711e-06 -3.6698e-07 0.000343279
-0.000225703 -9.14819e-05 -1.05223e-05
-9.14819e-05 -0.000491362 -3.43056e-06
-1.05223e-05 -3.43056e-06 -0.000541385
0.000720503 -0.000101994 -4.4932e-06
-0.000101994 -0.000293297 -2.94214e-06
-4.4932e-06 -2.94214e-06 2.08352e-05
0.00112058 4.24838e-05 1.30527e-06
4.24838e-05 9.89826e-05 1.03373e-07
1.30527e-06 1.03373e-07 4.12977e-06
0.000136466 2.00744e-05 -8.90585e-05
2.00744e-05 -0.000252561 -7.9326e-06
-8.90585e-05 -7.9326e-06 -0.000428597
0.00237482 -4.79964e-05 5.85348e-06
-4.79964e-05 0.00094574 1.51709e-06
5.85348e-06 1.51709e-06 0.00105431
0.00156618 0.000106728 8.57497e-06
0.000106728 9.16728e-05 7.21463e-06
8.57497e-06 7.21463e-06 -2.18163e-06
0.000895092 3.39073e-05 7.00184e-08
3.39073e-05 -2.52516e-06 -8.29854e-07
7.00184e-08 -8.29854e-07 -0.000111348
0.00155698 5.13261e-05 -3.75619e-06
5.13261e-05 0.000389864 1.78522e-06
-3.75619e-06 1.78522e-06 0.000224862
0.00200741 3.34333e-05 -1.8386e-05
3.34333e-05 0.000182207 -1.65076e-05
-1.8386e-05 -1.65076e-05 0.000107432
0.00545726 -0.00013576 -6.30837e-05
-0.00013576 0.00168173 -1.51883e-05
-6.30837e-05 -1.51883e-05 0.00108294
0.00136819 -2.81185e-05 2.73304e-05
-2.81185e-05 0.000121731 2.59335e-05
2.73304e-05 2.59335e-05 -0.000295123
0.000281686 -0.000156942 -5.36033e-05
-0.000156942 -0.000137763 -2.59242e-05
-5.36033e-05 -2.59242e-05 -4.08422e-05
-0.00100543 -4.89769e-05 2.20664e-06
-4.89769e-05 -0.00122234 8.29913e-06
2.20664e-06 8.29913e-06 -0.00106796
0.00113697 4.16949e-05 -1.10565e-06
4.16949e-05 0.000100319 -8.73759e-07
-1.10565e-06 -8.73759e-07 1.07228e-05
0.0011901 4.16607e-05 -4.85177e-07
4.16607e-05 0.000114066 2.81153e-07
-4.85177e-07 2.81153e-07 1.94167e-05
0.00127758 4.34109e-05 -1.00319e-07
4.34109e-05 0.000148842 3.92903e-07
-1.00319e-07 3.92903e-07 4.75654e-05
0.00101031 1.21756e-06 1.4779e-10
1.21756e-06 3.80269e-05 -5.82929e-07
1.4779e-10 -5.82929e-07 -1.26765e-05
0.00104997 1.43462e-06 2.07281e-07
1.43462e-06 6.28093e-05 -1.07558e-06
2.07281e-07 -1.07558e-06 -4.14055e-06
0.000968875 2.86602e-05 -7.34669e-07
2.86602e-05 1.99703e-05 -1.12461e-06
-7.34669e-07 -1.12461e-06 -5.94367e-05
0.00109098 3.34212e-05 -7.48984e-07
3.34212e-05 7.88727e-05 -1.14181e-06
-7.48984e-07 -1.14181e-06 -7.47365e-06
0.0011352 3.29542e-05 -6.32781e-07
3.29542e-05 9.1972e-05 -1.16136e-06
-6.32781e-07 -1.16136e-06 8.7101e-07
0.000803596 -6.94101e-06 1.6015e-07
-6.94101e-06 -6.5502e-05 5.06405e-07
1.6015e-07 5.06405e-07 -0.000117849
0.0011648 3.80452e-05 -3.12389e-07
3.80452e-05 0.000115962 -6.52137e-07
-3.12389e-07 -6.52137e-07 3.03859e-05
0.00110336 1.64906e-05 1.13711e-08
1.64906e-05 8.75784e-05 4.55444e-07
1.13711e-08 4.55444e-07 8.12931e-06
0.000965984 3.7647e-06 1.97723e-07
3.7647e-06 2.0136e-05 -4.1961e-07
1.97723e-07 -4.1961e-07 -4.71474e-05
0.0010682 3.5816e-05 -3.5886e-08
3.5816e-05 6.62628e-05 1.78983e-07
-3.5886e-08 1.78983e-07 -2.95283e-05
0.00114496 3.56896e-05 5.16998e-08
3.56896e-05 0.00010926 3.39883e-07
5.16998e-08 3.39883e-07 1.93865e-05
0.0011886 3.63328e-05 2.622e-07
3.63328e-05 0.000147706 8.46211e-07
2.622e-07 8.46211e-07 4.00955e-05
0.00108639 -2.21366e-05 -4.7587e-07
-2.21366e-05 7.89052e-05 7.55277e-07
-4.7587e-07 7.55277e-07 -5.84327e-07
0.00109687 -1.84349e-05 -2.05162e-07
-1.84349e-05 8.49118e-05 3.05172e-07
-2.05162e-07 3.05172e-07 1.89481e-05
0.0010957 -8.88495e-06 -6.38683e-08
-8.88495e-06 8.42498e-05 -6.31978e-08
-6.38683e-08 -6.31978e-08 1.87894e-05
0.00110326 -2.92453e-06 -4.51963e-08
-2.92453e-06 8.7562e-05 -4.29731e-07
-4.51963e-08 -4.29731e-07 9.58042e-06
0.00109211 5.69069e-06 1.22765e-07
5.69069e-06 8.18629e-05 1.02121e-06
1.22765e-07 1.02121e-06 4.11072e-06
0.00107432 -1.50269e-05 -1.29742e-07
-1.50269e-05 7.55437e-05 1.01268e-06
-1.29742e-07 1.01268e-06 -4.61181e-06
0.00119293 -6.41403e-06 -6.27675e-10
-6.41403e-06 0.000128861 4.5285e-08
-6.27675e-10 4.5285e-08 4.36179e-05
0.00105653 -3.69763e-05 -9.47789e-07
-3.69763e-05 6.77544e-05 5.5798e-07
-9.47789e-07 5.5798e-07 -1.65391e-05
0.00104918 -2.33259e-05 -2.41138e-07
-2.33259e-05 6.24867e-05 9.83117e-07
-2.41138e-07 9.83117e-07 -9.15608e-06
0.00104525 -1.73738e-05 3.41441e-08
-1.73738e-05 6.03224e-05 -6.69222e-09
3.41441e-08 -6.69222e-09 -8.53529e-06
0.0010122 -1.2405e-05 -3.65518e-07
-1.2405e-05 3.63677e-05 1.2514e-06
-3.65518e-07 1.2514e-06 -1.70738e-05
0.000890639 -1.1269e-05 3.59851e-07
-1.1269e-05 -1.77103e-05 -1.44195e-06
3.59851e-07 -1.44195e-06 -8.53497e-05
0.000915518 -1.06172e-05 7.45004e-08
-1.06172e-05 -1.11923e-05 -2.94164e-08
7.45004e-08 -2.94164e-08 -6.35058e-05
0.000985847 3.88286e-06 -3.55963e-07
3.88286e-06 1.11696e-05 1.84403e-06
-3.55963e-07 1.84403e-06 -2.03361e-05
0.000821107 -6.5197e-08 9.80202e-08
-6.5197e-08 -5.7712e-05 -5.82196e-07
9.80202e-08 -5.82196e-07 -0.000109827
0.000980875 -4.26266e-07 -1.30937e-07
-4.26266e-07 8.91223e-06 -8.72274e-09
-1.30937e-07 -8.72274e-09 -2.20459e-05
0.00155737 4.67709e-06 -2.02911e-06
4.67709e-06 0.000284197 4.47917e-06
-2.02911e-06 4.47917e-06 0.000285469
0.000974963 -8.53849e-06 4.935e-07
-8.53849e-06 6.52842e-06 -1.75881e-06
4.935e-07 -1.75881e-06 -2.40616e-05
0.00124561 2.23363e-06 -6.52639e-07
2.23363e-06 0.000126619 6.29765e-07
-6.52639e-07 6.29765e-07 0.000126826
0.00112611 1.5166e-06 -1.56027e-06
1.5166e-06 6.29519e-05 4.04538e-06
-1.56027e-06 4.04538e-06 8.02119e-05
0.000935244 -2.78384e-07 5.65532e-08
-2.78384e-07 -2.93259e-05 -3.2074e-06
5.65532e-08 -3.2074e-06 -3.02654e-05
0.00233254 -7.0671e-07 8.61972e-07
-7.0671e-07 0.000667387 -1.07531e-10
8.61972e-07 -1.07531e-10 0.000690672
0.00112026 -2.61632e-06 -7.01286e-07
-2.61632e-06 6.08553e-05 -4.04429e-06
-7.01286e-07 -4.04429e-06 7.82932e-05
0.00102575 1.19177e-05 1.09749e-07
1.19177e-05 3.71242e-05 -6.52463e-07
1.09749e-07 -6.52463e-07 -5.59126e-06
0.000992262 4.44103e-07 7.59928e-09
4.44103e-07 6.93483e-06 -1.8893e-06
7.59928e-09 -1.8893e-06 -1.7619e-05
0.000992551 2.20827e-06 -3.29874e-08
2.20827e-06 7.54993e-06 -1.39232e-08
-3.29874e-08 -1.39232e-08 -1.71597e-05
0.000925467 2.75626e-06 2.77851e-07
2.75626e-06 -3.47808e-05 -3.25085e-06
2.77851e-07 -3.25085e-06 -3.2292e-05
0.000986141 4.09763e-06 -4.2053e-07
4.09763e-06 5.56582e-06 1.88086e-06
-4.2053e-07 1.88086e-06 -1.9847e-05
0.000922302 5.36375e-06 3.79212e-08
5.36375e-06 -3.49114e-05 -6.27526e-07
3.79212e-08 -6.27526e-07 -3.30424e-05
0.00223078 6.59565e-06 3.66303e-06
6.59565e-06 0.000618039 -3.97084e-06
3.66303e-06 -3.97084e-06 0.000642265
0.00148208 9.22806e-06 -1.21129e-06
9.22806e-06 0.000248531 1.98748e-06
-1.21129e-06 1.98748e-06 0.000251822
0.00170183 8.87005e-06 1.09542e-07
8.87005e-06 0.000356331 1.21891e-06
1.09542e-07 1.21891e-06 0.000376784
0.00116315 1.04415e-05 -8.02677e-06
1.04415e-05 9.05726e-05 6.48546e-06
-8.02677e-06 6.48546e-06 0.000107056
0.000815039 -3.21771e-05 -4.03326e-06
-3.21771e-05 -0.000284562 1.03541e-06
-4.03326e-06 1.03541e-06 -0.000284099
0.00117071 -1.67842e-06 -1.96319e-06
-1.67842e-06 -3.20161e-05 -9.63467e-07
-1.96319e-06 -9.63467e-07 -9.80441e-05
0.000929217 7.38518e-06 -4.94221e-06
7.38518e-06 -0.000214045 -3.8804e-06
-4.94221e-06 -3.8804e-06 -0.00025926
0.000879378 -8.41941e-05 3.84074e-05
-8.41941e-05 4.29391e-05 5.78933e-06
3.84074e-05 5.78933e-06 -0.000129922
0.000982084 -4.09835e-06 -1.73553e-06
-4.09835e-06 -2.12204e-05 -1.99103e-07
-1.73553e-06 -1.99103e-07 -3.66216e-05
0.00126116 3.11717e-05 -1.43734e-06
3.11717e-05 -6.67364e-05 -1.57236e-06
-1.43734e-06 -1.57236e-06 -0.000134954
0.00128856 4.91345e-05 4.2396e-07
4.91345e-05 0.000107385 3.53411e-06
4.2396e-07 3.53411e-06 5.78763e-05
0.000722266 -1.49125e-05 0.000101281
-1.49125e-05 -6.17284e-05 8.34547e-06
0.000101281 8.34547e-06 -0.000268005
0.00456956 3.33566e-05 -1.30171e-05
3.33566e-05 0.0013036 4.52772e-07
-1.30171e-05 4.52772e-07 0.000741222
0.00285033 0.000144226 -3.14602e-05
0.000144226 0.0010245 1.56333e-05
-3.14602e-05 1.56333e-05 0.000941748
0.000801418 7.48462e-05 -4.98265e-06
7.48462e-05 -0.000177442 8.16913e-07
-4.98265e-06 8.16913e-07 6.17048e-05
0.000839289 5.51491e-07 4.2112e-07
5.51491e-07 -4.65467e-05 -1.24707e-06
4.2112e-07 -1.24707e-06 -0.000103294
0.00101775 -2.9149e-06 -7.36084e-08
-2.9149e-06 3.34465e-05 2.8763e-09
-7.36084e-08 2.8763e-09 -8.77149e-06
0.00102814 -1.44852e-05 -4.60628e-07
-1.44852e-05 3.91394e-05 1.12404e-06
-4.60628e-07 1.12404e-06 -3.8108e-06
0.000961288 1.7013e-05 -1.04893e-07
1.7013e-05 1.5224e-05 -3.38929e-08
-1.04893e-07 -3.38929e-08 -4.15522e-05
0.00116034 3.406e-05 1.9998e-07
3.406e-05 0.000118949 4.83991e-08
1.9998e-07 4.83991e-08 5.24467e-05
0.00111664 3.27747e-05 1.53528e-07
3.27747e-05 9.36152e-05 -6.98378e-08
1.53528e-07 -6.98378e-08 2.9815e-05
0.00106461 2.72607e-06 2.35008e-07
2.72607e-06 6.52537e-05 -1.64112e-06
2.35008e-07 -1.64112e-06 8.44054e-06
0.000980025 -1.04643e-05 -1.10317e-07
-1.04643e-05 2.24407e-05 4.75867e-07
-1.10317e-07 4.75867e-07 -3.33032e-05
0.00162236 3.05213e-05 -2.55534e-06
3.05213e-05 0.000125738 7.07135e-07
-2.55534e-06 7.07135e-07 5.81034e-05
0.00142496 -2.64402e-05 -2.47753e-06
-2.64402e-05 -2.22508e-05 1.4775e-06
-2.47753e-06 1.4775e-06 -4.40083e-05
0.00102312 -5.73826e-05 -6.89124e-06
-5.73826e-05 -0.000163696 -8.46294e-07
-6.89124e-06 -8.46294e-07 -0.000213427
0.00128382 -5.57741e-05 -4.99356e-07
-5.57741e-05 0.000177627 2.23757e-06
-4.99356e-07 2.23757e-06 8.16405e-05
0.00123625 -6.38374e-05 -1.72751e-06
-6.38374e-05 0.000105815 2.2968e-06
-1.72751e-06 2.2968e-06 7.15629e-06
0.00119497 -4.76173e-05 -5.66935e-07
-4.76173e-05 0.000149647 8.01481e-07
-5.66935e-07 8.01481e-07 4.27979e-05
0.00122176 -4.01031e-05 3.47649e-07
-4.01031e-05 0.000161178 6.33895e-07
3.47649e-07 6.33895e-07 5.82875e-05
0.00103325 -3.69701e-05 -6.13342e-07
-3.69701e-05 5.25084e-05 1.37192e-06
-6.13342e-07 1.37192e-06 -3.56935e-05
0.0010478 -9.73667e-06 -2.39484e-07
-9.73667e-06 6.01407e-05 1.22203e-06
-2.39484e-07 1.22203e-06 -2.25086e-06
0.0012162 -2.44285e-05 -9.05994e-08
-2.44285e-05 0.000147485 1.0379e-06
-9.05994e-08 1.0379e-06 6.85961e-05
0.00121985 1.24072e-05 -2.63347e-07
1.24072e-05 0.000144311 4.51749e-07
-2.63347e-07 4.51749e-07 8.79053e-05
0.000965525 1.62942e-05 1.51564e-07
1.62942e-05 1.93059e-05 2.07521e-06
1.51564e-07 2.07521e-06 -5.0483e-05
0.0017645 3.22039e-05 5.95547e-07
3.22039e-05 9.75954e-05 -2.38071e-06
5.95547e-07 -2.38071e-06 4.69244e-05
0.00102777 1.43419e-05 -1.7864e-07
1.43419e-05 5.38624e-05 2.81367e-07
-1.7864e-07 2.81367e-07 -1.91689e-05
0.00106737 -2.59657e-05 1.35504e-07
-2.59657e-05 7.29016e-05 -4.85555e-07
1.35504e-07 -4.85555e-07 -3.11524e-06
0.00166772 -6.67784e-05 -3.24228e-06
-6.67784e-05 3.59693e-05 -1.23779e-06
-3.24228e-06 -1.23779e-06 2.21968e-05
0.000867435 -6.81748e-05 1.52927e-06
-6.81748e-05 -0.000142525 9.63267e-07
1.52927e-06 9.63267e-07 -0.000236309
0.00115879 -6.553e-05 -3.0064e-07
-6.553e-05 0.000126334 -3.63039e-07
-3.0064e-07 -3.63039e-07 1.28549e-05
0.00110894 -3.6343e-05 -3.15046e-08
-3.6343e-05 9.59293e-05 -9.46371e-08
-3.15046e-08 -9.46371e-08 2.19031e-06
0.00113473 -3.43299e-05 2.24228e-08
-3.43299e-05 0.000140965 2.52823e-07
2.24228e-08 2.52823e-07 1.59449e-05
0.00114097 -2.334e-05 -1.14096e-06
-2.334e-05 -0.000428926 1.00014e-05
-1.14096e-06 1.00014e-05 -0.000369464
0.00241935 -0.000119374 1.14792e-05
-0.000119374 0.000540424 -1.54114e-06
1.14792e-05 -1.54114e-06 0.000439424
0.000378908 -6.85661e-05 1.67259e-06
-6.85661e-05 -0.000290053 -3.10041e-06
1.67259e-06 -3.10041e-06 -0.000401539
0.00139768 -5.07524e-05 6.30822e-07
-5.07524e-05 0.000279709 -1.54132e-06
6.30822e-07 -1.54132e-06 0.000129864
0.000996182 -2.33751e-05 -2.747e-08
-2.33751e-05 4.13806e-05 -1.13437e-06
-2.747e-08 -1.13437e-06 -3.9009e-05
0.00107561 -2.13274e-05 3.27504e-07
-2.13274e-05 7.83434e-05 -1.12076e-06
3.27504e-07 -1.12076e-06 -8.81681e-06
0.00125133 -2.15611e-05 -1.43387e-07
-2.15611e-05 0.000179219 -7.83674e-07
-1.43387e-07 -7.83674e-07 6.99558e-05
-0.0007493 -4.4765e-06 -8.11275e-05
-4.4765e-06 -0.000554935 5.10805e-08
-8.11275e-05 5.10805e-08 -0.000554954
0.00476573 -1.54787e-05 -2.29397e-05
-1.54787e-05 0.00155421 -2.1858e-06
-2.29397e-05 -2.1858e-06 0.00111725
0.00121331 4.40133e-05 -2.34319e-07
4.40133e-05 0.000140618 -1.917e-07
-2.34319e-07 -1.917e-07 4.99729e-05
0.00102072 4.24774e-05 6.97287e-07
4.24774e-05 5.00283e-05 -8.80445e-07
6.97287e-07 -8.80445e-07 -4.69828e-05
0.00213262 8.59231e-05 -9.50937e-06
8.59231e-05 0.000224895 -1.44368e-06
-9.50937e-06 -1.44368e-06 0.000155956
0.00110248 7.96892e-05 -2.12574e-06
7.96892e-05 -1.89876e-05 -2.34228e-06
-2.12574e-06 -2.34228e-06 -0.000125962
0.00102404 5.13919e-05 1.35564e-06
5.13919e-05 7.80811e-05 -1.64786e-06
1.35564e-06 -1.64786e-06 -4.60231e-05
0.00473554 -1.13525e-05 5.08874e-06
-1.13525e-05 0.00139615 -1.15945e-05
5.08874e-06 -1.15945e-05 0.000827721
0.000479812 -9.67481e-05 -3.30716e-05
-9.67481e-05 -0.000129646 -1.44334e-05
-3.30716e-05 -1.44334e-05 -0.000355123
0.00209339 4.89586e-05 1.16451e-05
4.89586e-05 0.000124192 5.32856e-07
1.16451e-05 5.32856e-07 0.000145294
0.00275474 -0.000139478 3.074e-05
-0.000139478 0.00103844 9.61441e-06
3.074e-05 9.61441e-06 0.000980097
-8.11164e-05 -0.000102991 2.25112e-06
-0.000102991 -0.000701809 7.00293e-06
2.25112e-06 7.00293e-06 -0.000429776
0.00113553 4.29368e-05 3.56588e-07
4.29368e-05 0.000102348 -2.03749e-07
3.56588e-07 -2.03749e-07 7.69203e-06
-0.000642985 -1.06213e-05 -1.66392e-05
-1.06213e-05 -0.000388964 -5.41967e-07
-1.66392e-05 -5.41967e-07 -0.00042017
0.00138732 -4.70849e-05 -1.16755e-06
-4.70849e-05 0.000379062 9.68933e-07
-1.16755e-06 9.68933e-07 0.000480703
0.00158787 0.000108411 1.65322e-06
0.000108411 0.000103992 1.8476e-06
1.65322e-06 1.8476e-06 1.00844e-05
0.00117288 3.88333e-05 4.19513e-08
3.88333e-05 0.000136937 -1.06837e-06
4.19513e-08 -1.06837e-06 3.19048e-05
0.00137593 5.43211e-05 4.90553e-07
5.43211e-05 0.000302736 2.8033e-08
4.90553e-07 2.8033e-08 0.000141189
0.00202207 3.09464e-05 -2.43572e-05
3.09464e-05 0.000216689 -1.81183e-05
-2.43572e-05 -1.81183e-05 0.000139841
0.00379388 -6.26228e-05 9.40983e-06
-6.26228e-05 0.000841863 7.38998e-06
9.40983e-06 7.38998e-06 0.000178886
0.000525828 -4.12399e-05 -7.16704e-06
-4.12399e-05 -5.18243e-05 -1.34876e-05
-7.16704e-06 -1.34876e-05 -0.00023632
0.00226743 -0.000217845 5.045e-06
-0.000217845 0.000418502 -1.27661e-06
5.045e-06 -1.27661e-06 0.000434893
0.000110256 -5.38763e-05 -9.7855e-07
-5.38763e-05 -0.000557967 -4.37768e-06
-9.7855e-07 -4.37768e-06 -0.000376799
0.00103414 2.81294e-05 -5.7473e-07
2.81294e-05 2.41214e-05 -5.81522e-07
-5.7473e-07 -5.81522e-07 -7.24343e-05
0.000402229 -1.04989e-05 9.27585e-06
-1.04989e-05 -8.15369e-05 2.21857e-06
9.27585e-06 2.21857e-06 -7.91048e-05
0.000673932 -8.4425e-06 7.9555e-06
-8.4425e-06 1.92568e-05 1.29835e-05
7.9555e-06 1.29835e-05 -4.00991e-05
0.000898812 4.51658e-05 1.35327e-05
4.51658e-05 -3.69974e-06 7.64305e-06
1.35327e-05 7.64305e-06 -0.00019927
0.0016744 2.96007e-05 -4.52739e-06
2.96007e-05 0.0004358 -9.89374e-07
-4.52739e-06 -9.89374e-07 0.000306938
0.00242202 -3.137e-05 -8.87298e-06
-3.137e-05 0.000783279 -3.99964e-06
-8.87298e-06 -3.99964e-06 0.000754917
2.08115e-05 8.60927e-05 -4.31227e-05
8.60927e-05 -8.90624e-05 -3.93706e-06
-4.31227e-05 -3.93706e-06 -0.000309433
0.00269217 -0.000173436 2.49491e-05
-0.000173436 0.000232892 3.03007e-05
2.49491e-05 3.03007e-05 -0.000432686
0.00305367 -0.000242808 -2.47258e-05
-0.000242808 0.000693955 -1.58522e-05
-2.47258e-05 -1.58522e-05 0.000713085
-0.000273144 -6.49682e-06 -1.93696e-06
-6.49682e-06 -0.000698443 5.98021e-06
-1.93696e-06 5.98021e-06 -0.000677309
0.00122831 4.31348e-05 -8.40868e-07
4.31348e-05 0.000133865 2.7444e-07
-8.40868e-07 2.7444e-07 3.91377e-05
0.00117304 4.09069e-05 2.41998e-07
4.09069e-05 9.86102e-05 3.73883e-07
2.41998e-07 3.73883e-07 -2.93184e-06
0.000997976 4.08043e-05 1.22243e-06
4.08043e-05 4.15023e-05 -3.27955e-07
1.22243e-06 -3.27955e-07 -6.96462e-05
0.000812203 6.93305e-06 7.45564e-08
6.93305e-06 -6.13544e-05 -5.79138e-07
7.45564e-08 -5.79138e-07 -0.000113681
0.00106338 8.88906e-06 1.0183e-07
8.88906e-06 6.84858e-05 -1.30559e-06
1.0183e-07 -1.30559e-06 1.94135e-06
0.00124802 3.5355e-06 5.82345e-08
3.5355e-06 0.000160068 -2.23542e-08
5.82345e-08 -2.23542e-08 8.17035e-05
0.00103364 3.29812e-05 -1.20179e-07
3.29812e-05 5.05956e-05 -1.31373e-06
-1.20179e-07 -1.31373e-06 -3.49562e-05
0.000937252 3.42856e-05 -3.48954e-07
3.42856e-05 -1.26421e-07 -5.49562e-07
-3.48954e-07 -5.49562e-07 -9.69491e-05
0.00108362 2.92019e-06 2.29064e-07
2.92019e-06 7.86979e-05 -5.09574e-07
2.29064e-07 -5.09574e-07 1.25124e-05
0.0010975 3.0818e-05 -8.32836e-08
3.0818e-05 8.55402e-05 -9.15886e-08
-8.32836e-08 -9.15886e-08 -3.3005e-06
0.00108603 -7.88778e-06 -2.42882e-08
-7.88778e-06 7.91375e-05 1.41952e-07
-2.42882e-08 1.41952e-07 -4.60474e-07
0.00109243 3.37524e-05 3.67574e-07
3.37524e-05 0.000100917 2.42345e-07
3.67574e-07 2.42345e-07 -8.03956e-06
0.00117348 1.29619e-05 4.58418e-07
1.29619e-05 0.000150456 -4.86201e-07
4.58418e-07 -4.86201e-07 3.27027e-05
0.0011964 1.5607e-05 -4.22716e-07
1.5607e-05 0.000142218 1.16081e-06
-4.22716e-07 1.16081e-06 4.63849e-05
0.00111401 6.93584e-06 1.53499e-07
6.93584e-06 9.28524e-05 6.66372e-07
1.53499e-07 6.66372e-07 1.45714e-05
0.00109233 -1.18782e-05 4.76471e-08
-1.18782e-05 8.28167e-05 -8.79381e-07
4.76471e-08 -8.79381e-07 1.72513e-05
0.000974596 -2.25362e-05 2.6638e-07
-2.25362e-05 2.26973e-05 -1.4403e-06
2.6638e-07 -1.4403e-06 -5.6323e-05
0.00109537 -6.02044e-07 1.8495e-07
-6.02044e-07 8.31071e-05 6.88613e-08
1.8495e-07 6.88613e-08 5.64389e-06
0.00107927 -1.7177e-05 -2.44209e-08
-1.7177e-05 7.83714e-05 9.45098e-09
-2.44209e-08 9.45098e-09 -1.90004e-06
0.00112477 -1.59723e-05 7.34399e-08
-1.59723e-05 9.33586e-05 -8.09479e-07
7.34399e-08 -8.09479e-07 7.85077e-06
0.00104544 -2.84779e-05 -5.08578e-07
-2.84779e-05 6.49047e-05 1.21562e-06
-5.08578e-07 1.21562e-06 -1.86138e-05
0.00118606 9.16888e-07 2.67077e-08
9.16888e-07 0.000123333 3.06078e-07
2.67077e-08 3.06078e-07 3.69915e-05
0.000993583 -2.78436e-05 -2.28478e-07
-2.78436e-05 3.32057e-05 4.04993e-07
-2.28478e-07 4.04993e-07 -5.71606e-05
0.00111688 -3.86785e-05 -1.08828e-07
-3.86785e-05 9.33575e-05 -1.09597e-06
-1.08828e-07 -1.09597e-06 6.57338e-06
0.000880424 -3.8291e-05 2.45747e-07
-3.8291e-05 -1.41515e-05 2.00264e-07
2.45747e-07 2.00264e-07 -9.49875e-05
0.000975488 -3.72939e-05 -9.10248e-07
-3.72939e-05 2.55334e-05 -4.1723e-07
-9.10248e-07 -4.1723e-07 -5.5805e-05
0.00107946 -3.66601e-05 -3.14634e-07
-3.66601e-05 7.83921e-05 2.00843e-07
-3.14634e-07 2.00843e-07 -5.65218e-06
0.00106255 -3.1913e-05 -1.03729e-06
-3.1913e-05 6.74386e-05 1.25822e-06
-1.03729e-06 1.25822e-06 -6.0328e-06
0.00105529 -2.52004e-05 3.20301e-08
-2.52004e-05 6.55163e-05 6.89417e-09
3.20301e-08 6.89417e-09 -6.16402e-06
0.0010163 -1.22828e-05 -4.6605e-07
-1.22828e-05 3.77407e-05 1.35677e-06
-4.6605e-07 1.35677e-06 -1.82097e-05
0.00104624 -1.95548e-05 3.53187e-07
-1.95548e-05 6.10934e-05 -9.43867e-07
3.53187e-07 -9.43867e-07 -7.85998e-06
0.00101561 -1.02723e-05 1.13775e-07
-1.02723e-05 3.80532e-05 -4.84434e-08
1.13775e-07 -4.84434e-08 -1.53677e-05
0.000978755 4.40768e-06 -5.76264e-07
4.40768e-06 8.20305e-06 1.90974e-06
-5.76264e-07 1.90974e-06 -2.4297e-05
0.00082444 -4.41564e-06 2.15084e-07
-4.41564e-06 -5.66883e-05 -1.1612e-06
2.15084e-07 -1.1612e-06 -0.000109596
0.00098181 -6.49716e-07 -1.14131e-07
-6.49716e-07 9.08186e-06 -8.6211e-09
-1.14131e-07 -8.6211e-09 -2.24702e-05
0.0015599 7.12217e-06 -3.18859e-06
7.12217e-06 0.000287412 4.5007e-06
-3.18859e-06 4.5007e-06 0.00028814
0.000977186 -6.98276e-06 6.52916e-07
-6.98276e-06 6.95609e-06 -1.7958e-06
6.52916e-07 -1.7958e-06 -2.40015e-05
0.00124359 4.67538e-06 -1.02521e-06
4.67538e-06 0.000126925 6.28419e-07
-1.02521e-06 6.28419e-07 0.000126711
0.00108297 4.89509e-06 -7.30759e-07
4.89509e-06 4.3034e-05 1.61021e-06
-7.30759e-07 1.61021e-06 6.01015e-05
0.00093202 2.0545e-06 4.01066e-07
2.0545e-06 -3.07146e-05 -3.22129e-06
4.01066e-07 -3.22129e-06 -3.19294e-05
0.00234409 2.62838e-06 8.05091e-07
2.62838e-06 0.000673347 4.8847e-09
8.05091e-07 4.8847e-09 0.000696497
0.00233169 -5.56266e-07 9.71551e-07
-5.56266e-07 0.000666964 -4.13935e-06
9.71551e-07 -4.13935e-06 0.000690235
0.00126828 1.35859e-05 -5.19209e-07
1.35859e-05 0.000156946 -1.01807e-06
-5.19209e-07 -1.01807e-06 0.000114602
0.000989968 -9.26005e-07 -1.97605e-07
-9.26005e-07 5.99812e-06 -1.8931e-06
-1.97605e-07 -1.8931e-06 -1.90061e-05
0.00101628 5.71923e-06 2.16975e-07
5.71923e-06 3.23812e-05 4.62621e-07
2.16975e-07 4.62621e-07 -1.02478e-05
0.000930577 1.74786e-07 -5.27632e-08
1.74786e-07 -3.26802e-05 -3.25547e-06
-5.27632e-08 -3.25547e-06 -3.00827e-05
0.000993572 2.30469e-07 -3.60753e-08
2.30469e-07 7.58613e-06 -5.38663e-09
-3.60753e-08 -5.38663e-09 -1.69769e-05
0.000990392 1.98167e-06 -2.6536e-07
1.98167e-06 6.33616e-06 1.9027e-06
-2.6536e-07 1.9027e-06 -1.8361e-05
0.000930069 2.82093e-06 -7.30214e-08
2.82093e-06 -3.24993e-05 -2.35357e-09
-7.30214e-08 -2.35357e-09 -3.00337e-05
0.0022187 3.30245e-06 1.64523e-06
3.30245e-06 0.000610558 -3.99497e-06
1.64523e-06 -3.99497e-06 0.00063516
0.00147555 6.3555e-06 -8.49819e-07
6.3555e-06 0.000242364 1.98871e-06
-8.49819e-07 1.98871e-06 0.000246872
0.00167017 6.12112e-06 1.02061e-06
6.12112e-06 0.000337378 3.18138e-08
1.02061e-06 3.18138e-08 0.000358822
0.00116136 7.85191e-06 -6.49169e-06
7.85191e-06 8.52088e-05 6.43101e-06
-6.49169e-06 6.43101e-06 0.000102934
-0.00281474 2.67802e-05 -4.99693e-05
2.67802e-05 -0.00163829 1.05371e-05
-4.99693e-05 1.05371e-05 -0.00166277
-0.00100932 3.31827e-05 -3.60401e-06
3.31827e-05 -0.00102888 5.04208e-06
-3.60401e-06 5.04208e-06 -0.000981791
0.000628515 -6.91277e-05 -4.63723e-05
-6.91277e-05 2.14196e-05 -1.36056e-05
-4.63723e-05 -1.36056e-05 -0.000144045
0.000981254 -1.04998e-05 -1.64416e-06
-1.04998e-05 -1.9909e-05 -1.37836e-07
-1.64416e-06 -1.37836e-07 -2.9272e-05
0.00123218 3.45536e-05 -1.02219e-05
3.45536e-05 -8.13124e-05 -1.98094e-06
-1.02219e-05 -1.98094e-06 -0.000150485
0.00058543 -2.58549e-05 1.84388e-05
-2.58549e-05 9.15881e-05 -2.41578e-07
1.84388e-05 -2.41578e-07 -2.49211e-06
0.00142041 5.2946e-05 2.44489e-06
5.2946e-05 0.000137986 1.97297e-06
2.44489e-06 1.97297e-06 8.3903e-05
0.0039681 5.62822e-05 -2.21929e-05
5.62822e-05 0.00109569 -4.1796e-07
-2.21929e-05 -4.1796e-07 0.00059701
-0.00144115 7.49113e-05 1.07953e-05
7.49113e-05 -0.000791779 -3.56521e-06
1.07953e-05 -3.56521e-06 -0.000799361
0.000465882 8.16534e-05 -1.7407e-07
8.16534e-05 -0.000350466 1.31998e-06
-1.7407e-07 1.31998e-06 -0.000123717
0.000931804 4.247e-05 2.29699e-05
4.247e-05 0.000299046 -1.28492e-05
2.29699e-05 -1.28492e-05 0.000149091
0.00441413 0.000164791 -2.11394e-05
0.000164791 0.00123332 1.79512e-05
-2.11394e-05 1.79512e-05 0.000714758
0.000465173 0.000139441 -4.93287e-05
0.000139441 -2.00331e-05 3.26374e-05
-4.93287e-05 3.26374e-05 7.74085e-05
0.00123839 5.07284e-05 1.81938e-06
5.07284e-05 4.39945e-05 -4.44917e-06
1.81938e-06 -4.44917e-06 0.00027321
0.000962242 1.75988e-05 -2.53572e-07
1.75988e-05 2.21162e-05 -1.09045e-06
-2.53572e-07 -1.09045e-06 -4.68878e-05
0.000939392 8.67784e-06 -1.77676e-08
8.67784e-06 2.51901e-06 -3.86902e-07
-1.77676e-08 -3.86902e-07 -5.36352e-05
0.00101895 -1.00875e-05 -3.34055e-07
-1.00875e-05 3.4233e-05 1.16256e-06
-3.34055e-07 1.16256e-06 -8.06302e-06
0.000880539 1.6821e-05 -1.38357e-07
1.6821e-05 -2.42388e-05 8.68614e-07
-1.38357e-07 8.68614e-07 -8.13123e-05
0.00108242 3.3526e-05 4.71356e-07
3.3526e-05 8.0969e-05 9.01275e-07
4.71356e-07 9.01275e-07 1.53516e-05
0.00112251 2.12479e-05 -1.37143e-07
2.12479e-05 9.83134e-05 -7.91425e-07
-1.37143e-07 -7.91425e-07 3.10852e-05
0.00105789 1.68783e-05 4.89455e-07
1.68783e-05 6.41908e-05 8.9729e-07
4.89455e-07 8.9729e-07 9.78088e-07
0.00106037 5.28459e-06 2.44069e-07
5.28459e-06 6.38865e-05 -6.77395e-07
2.44069e-07 -6.77395e-07 3.15484e-06
0.000998558 -1.236e-06 7.53927e-08
-1.236e-06 3.2505e-05 -4.98091e-07
7.53927e-08 -4.98091e-07 -2.50633e-05
0.000914495 -1.04355e-05 -1.07094e-07
-1.04355e-05 -1.00253e-05 1.37356e-06
-1.07094e-07 1.37356e-06 -6.60883e-05
0.00252681 4.0291e-05 -4.36125e-06
4.0291e-05 0.000450297 2.66502e-06
-4.36125e-06 2.66502e-06 0.00040044
0.00104128 -6.18915e-05 -1.29263e-05
-6.18915e-05 -0.000267272 1.52697e-06
-1.29263e-05 1.52697e-06 -0.000275262
0.000191996 -5.92007e-05 -3.62697e-06
-5.92007e-05 -0.000462838 3.03647e-06
-3.62697e-06 3.03647e-06 -0.000555315
0.00110697 -6.50057e-05 -1.46208e-06
-6.50057e-05 0.000100452 2.89484e-06
-1.46208e-06 2.89484e-06 -1.82196e-05
0.00114263 -3.50608e-05 1.64741e-07
-3.50608e-05 0.00014357 1.08634e-06
1.64741e-07 1.08634e-06 2.02926e-05
0.00115316 -3.50447e-05 -1.40078e-08
-3.50447e-05 0.000116607 6.71483e-07
-1.40078e-08 6.71483e-07 2.2893e-05
0.00112899 -2.84886e-05 -1.74703e-07
-2.84886e-05 0.000103696 5.2918e-07
-1.74703e-07 5.2918e-07 2.77174e-05
0.00105921 1.48034e-05 1.39616e-07
1.48034e-05 6.92806e-05 1.1064e-06
1.39616e-07 1.1064e-06 -3.29392e-06
0.00196446 -2.98189e-05 -3.4899e-06
-2.98189e-05 -2.47242e-05 7.16845e-07
-3.4899e-06 7.16845e-07 4.26237e-07
0.000977348 -1.06763e-05 -9.16161e-08
-1.06763e-05 3.24983e-05 -1.13874e-07
-9.16161e-08 -1.13874e-07 -4.82761e-05
0.00103617 -2.37552e-05 2.27563e-07
-2.37552e-05 5.79082e-05 -4.77301e-07
2.27563e-07 -4.77301e-07 -3.02547e-05
0.00167371 -0.000104684 2.823e-06
-0.000104684 0.00016521 4.92647e-07
2.823e-06 4.92647e-07 7.85779e-05
0.000681077 -7.28478e-05 -5.57491e-07
-7.28478e-05 -0.000143087 6.42346e-07
-5.57491e-07 6.42346e-07 -0.000257306
0.00127142 -4.78226e-05 6.76465e-07
-4.78226e-05 0.000209728 -9.55147e-08
6.76465e-07 -9.55147e-08 6.53393e-05
0.00121865 -1.90297e-05 -7.77788e-08
-1.90297e-05 0.000164801 -4.32257e-07
-7.77788e-08 -4.32257e-07 5.05667e-05
0.00205797 -9.68796e-05 -3.40989e-07
-9.68796e-05 -4.39709e-05 2.93019e-06
-3.40989e-07 2.93019e-06 4.64012e-05
0.00144188 -0.000102085 2.32804e-06
-0.000102085 0.000288837 -5.72113e-06
2.32804e-06 -5.72113e-06 0.000120084
0.000999554 -4.00765e-06 -7.22157e-07
-4.00765e-06 8.895e-05 -5.26861e-07
-7.22157e-07 -5.26861e-07 -6.18823e-05
0.00102462 2.35523e-05 2.00063e-08
2.35523e-05 5.31848e-05 -2.83735e-07
2.00063e-08 -2.83735e-07 -2.76183e-05
0.00111135 -2.78406e-05 -1.61579e-08
-2.78406e-05 9.30298e-05 -1.31083e-06
-1.61579e-08 -1.31083e-06 5.01246e-06
0.00114977 3.06393e-06 -2.90156e-07
3.06393e-06 0.000107113 -6.43752e-07
-2.90156e-07 -6.43752e-07 1.05549e-05
0.000936258 -4.26227e-06 1.32284e-05
-4.26227e-06 0.000152771 3.59113e-07
1.32284e-05 3.59113e-07 0.000147007
0.00141671 -3.63757e-07 3.48064e-06
-3.63757e-07 0.000324707 -2.95838e-06
3.48064e-06 -2.95838e-06 0.00020089
0.000703902 6.62241e-05 -5.95968e-05
6.62241e-05 -0.000411032 4.6778e-06
-5.95968e-05 4.6778e-06 -0.000846529
0.00115586 4.3493e-05 -4.1434e-07
4.3493e-05 0.000107916 -5.70401e-07
-4.1434e-07 -5.70401e-07 1.34966e-05
0.00143822 4.37263e-05 1.91803e-06
4.37263e-05 0.000268257 -1.00229e-07
1.91803e-06 -1.00229e-07 0.000167227
0.0016131 0.000110123 -2.52882e-06
0.000110123 0.000116997 -3.66913e-06
-2.52882e-06 -3.66913e-06 2.30485e-05
0.00111121 5.70229e-05 2.82703e-06
5.70229e-05 0.000177266 -2.8131e-06
2.82703e-06 -2.8131e-06 1.75756e-05
0.00337817 -7.95806e-05 3.18945e-05
-7.95806e-05 0.00128164 3.68252e-06
3.18945e-05 3.68252e-06 0.00118907
0.00060119 -0.00014116 5.82239e-05
-0.00014116 -0.000366686 3.24572e-05
5.82239e-05 3.24572e-05 -0.000753756
0.00211484 -3.67584e-05 -6.07168e-05
-3.67584e-05 0.000326524 -6.23118e-05
-6.07168e-05 -6.23118e-05 5.56308e-05
0.00193053 1.99194e-05 7.48212e-06
1.99194e-05 0.000213516 -2.92922e-06
7.48212e-06 -2.92922e-06 0.000128923
-0.0022113 -0.000148104 5.26703e-05
-0.000148104 -0.00160075 2.35826e-05
5.26703e-05 2.35826e-05 -0.00149243
0.00264371 -4.81475e-05 -4.31925e-07
-4.81475e-05 0.0010954 8.79872e-07
-4.31925e-07 8.79872e-07 0.00119714
0.0014193 -6.54752e-05 -9.0523e-06
-6.54752e-05 0.000169206 -1.37935e-05
-9.0523e-06 -1.37935e-05 0.000383302
0.00123381 3.50384e-05 -9.57868e-08
3.50384e-05 0.000128019 5.00367e-07
-9.57868e-08 5.00367e-07 2.98598e-05
0.000701069 -1.60145e-05 4.94296e-06
-1.60145e-05 4.85793e-05 1.05418e-06
4.94296e-06 1.05418e-06 5.52655e-05
0.000588476 -4.13337e-06 1.46497e-06
-4.13337e-06 -3.01721e-05 2.76736e-06
1.46497e-06 2.76736e-06 -8.84409e-05
0.00119458 5.59749e-05 2.28335e-06
5.59749e-05 0.000146947 3.32975e-06
2.28335e-06 3.32975e-06 -5.18291e-05
0.00101566 2.13024e-05 1.57197e-07
2.13024e-05 0.000123955 -6.95172e-07
1.57197e-07 -6.95172e-07 -8.14647e-06
0.00232883 -1.9256e-05 7.27417e-06
-1.9256e-05 0.00059042 1.07722e-05
7.27417e-06 1.07722e-05 0.000453099
0.00223877 0.000114075 -2.06718e-05
0.000114075 0.000565708 -3.02751e-05
-2.06718e-05 -3.02751e-05 0.000182882
0.00521555 -0.000205126 7.65978e-06
-0.000205126 0.00126505 5.56508e-06
7.65978e-06 5.56508e-06 0.000693214
0.000127393 -0.00018315 7.42546e-06
-0.00018315 -0.000393369 1.72786e-05
7.42546e-06 1.72786e-05 -0.00037965
0.00138075 -1.73923e-05 -1.22288e-06
-1.73923e-05 0.000245768 -7.28587e-07
-1.22288e-06 -7.28587e-07 0.000301237
0.00106623 3.77562e-05 4.4681e-07
3.77562e-05 6.80148e-05 -1.64326e-06
4.4681e-07 -1.64326e-06 -2.12721e-05
0.00183982 -1.84377e-06 1.15838e-05
-1.84377e-06 0.000762956 4.75832e-06
1.15838e-05 4.75832e-06 0.000690579
0.000858209 1.10607e-05 2.07214e-06
1.10607e-05 3.8685e-05 5.40163e-06
2.07214e-06 5.40163e-06 -1.64132e-05
0.000602339 -9.67692e-06 1.67211e-06
-9.67692e-06 -1.89698e-05 7.72609e-06
1.67211e-06 7.72609e-06 -0.000150557
0.000713582 8.78444e-05 1.92459e-06
8.78444e-05 0.000386404 2.86401e-05
1.92459e-06 2.86401e-05 0.000270393
0.00525859 -0.000146048 -3.21342e-05
-0.000146048 0.00109578 -1.69294e-05
-3.21342e-05 -1.69294e-05 0.000448991
-0.00128248 -0.000114387 -1.93262e-05
-0.000114387 -0.00164276 -4.54562e-05
-1.93262e-05 -4.54562e-05 -0.0014119
0.00184457 -8.31619e-06 -1.21001e-06
-8.31619e-06 0.000548352 4.67994e-06
-1.21001e-06 4.67994e-06 0.000562254
0.00105943 3.90853e-05 -7.11973e-07
3.90853e-05 4.40958e-05 -8.70737e-07
-7.11973e-07 -8.70737e-07 -5.77682e-05
0.00117579 4.16374e-05 7.7509e-08
4.16374e-05 0.00012332 1.24325e-07
7.7509e-08 1.24325e-07 1.48525e-05
0.00159257 4.35159e-05 2.48538e-07
4.35159e-05 0.000340158 -8.59716e-07
2.48538e-07 -8.59716e-07 0.000224354
0.00107537 2.01575e-05 -1.60961e-07
2.01575e-05 7.45365e-05 -1.32294e-06
-1.60961e-07 -1.32294e-06 8.33063e-06
0.00109171 5.33502e-06 2.09369e-08
5.33502e-06 8.21868e-05 -4.83236e-07
2.09369e-08 -4.83236e-07 2.49333e-06
0.0010471 2.6127e-05 1.08619e-07
2.6127e-05 6.0413e-05 -6.65891e-07
1.08619e-07 -6.65891e-07 -2.73706e-05
0.00100493 2.99277e-05 2.91697e-08
2.99277e-05 5.85957e-05 -3.94646e-07
2.91697e-08 -3.94646e-07 -5.15702e-05
0.00110618 1.10198e-05 1.06439e-07
1.10198e-05 8.87074e-05 2.13109e-08
1.06439e-07 2.13109e-08 1.06766e-05
0.00118112 1.9833e-05 -1.08316e-08
1.9833e-05 0.000133373 4.34831e-07
-1.08316e-08 4.34831e-07 3.83783e-05
0.00108162 1.26447e-05 2.74835e-07
1.26447e-05 0.000108629 -5.05023e-07
2.74835e-07 -5.05023e-07 -1.27952e-05
0.00136127 -1.06108e-06 -5.94321e-08
-1.06108e-06 0.000243477 7.45818e-10
-5.94321e-08 7.45818e-10 0.000124719
0.00113347 -1.16354e-05 -1.60422e-07
-1.16354e-05 0.000112149 1.02633e-06
-1.60422e-07 1.02633e-06 3.009e-06
0.00122289 1.99097e-05 2.76486e-07
1.99097e-05 0.000143291 6.46773e-07
2.76486e-07 6.46773e-07 5.50029e-05
0.00109793 -7.04543e-06 3.16351e-07
-7.04543e-06 8.41572e-05 -8.55056e-07
3.16351e-07 -8.55056e-07 6.87747e-06
0.00108377 -1.75174e-05 1.56128e-07
-1.75174e-05 8.0863e-05 -9.04147e-07
1.56128e-07 -9.04147e-07 5.05921e-07
0.00105833 -2.4087e-05 5.2761e-07
-2.4087e-05 5.85065e-05 -1.84864e-06
5.2761e-07 -1.84864e-06 -2.71547e-05
0.00118793 -3.44518e-06 -2.01418e-07
-3.44518e-06 0.000123908 -5.45492e-07
-2.01418e-07 -5.45492e-07 3.78335e-05
0.00106949 -2.51121e-05 -8.56264e-09
-2.51121e-05 7.6897e-05 2.76611e-07
-8.56264e-09 2.76611e-07 -6.60585e-06
0.00101972 -2.37513e-05 1.06464e-07
-2.37513e-05 4.46062e-05 -1.32073e-07
1.06464e-07 -1.32073e-07 -4.50342e-05
0.00108854 -3.40837e-05 -8.68642e-07
-3.40837e-05 8.34255e-05 -1.1068e-07
-8.68642e-07 -1.1068e-07 -8.37085e-06
0.00110007 -3.58808e-05 -1.87883e-07
-3.58808e-05 8.00152e-05 3.75678e-07
-1.87883e-07 3.75678e-07 -1.38395e-05
0.00112311 -4.23468e-05 2.2309e-07
-4.23468e-05 9.76947e-05 -1.93262e-07
2.2309e-07 -1.93262e-07 7.06963e-06
0.00114925 -3.9442e-05 -4.0219e-07
-3.9442e-05 0.00010932 -1.19738e-07
-4.0219e-07 -1.19738e-07 2.23664e-05
0.000888786 -3.84128e-05 -1.4453e-07
-3.84128e-05 -9.92465e-06 6.24326e-07
-1.4453e-07 6.24326e-07 -9.4946e-05
0.00111449 -4.49894e-05 -9.70237e-07
-4.49894e-05 8.4758e-05 1.52529e-06
-9.70237e-07 1.52529e-06 2.85637e-06
0.00118989 -4.12097e-05 -1.19155e-07
-4.12097e-05 0.00012694 -8.06286e-07
-1.19155e-07 -8.06286e-07 5.28866e-05
0.000931339 -3.91323e-05 4.54786e-07
-3.91323e-05 1.2977e-05 -9.03696e-07
4.54786e-07 -9.03696e-07 -6.53842e-05
0.00106656 -3.88855e-05 3.87688e-07
-3.88855e-05 6.95333e-05 -2.60513e-07
3.87688e-07 -2.60513e-07 -1.13351e-05
0.000952765 -3.17583e-05 -1.02185e-06
-3.17583e-05 1.02516e-05 5.17681e-07
-1.02185e-06 5.17681e-07 -6.31307e-05
0.00109981 -3.62589e-05 1.49668e-07
-3.62589e-05 8.7803e-05 4.71707e-08
1.49668e-07 4.71707e-08 4.00781e-06
0.0010626 -3.12993e-05 -2.28942e-07
-3.12993e-05 6.7479e-05 4.33465e-07
-2.28942e-07 4.33465e-07 -5.8774e-06
0.00102968 -1.40448e-05 -6.93814e-07
-1.40448e-05 4.32561e-05 1.42763e-06
-6.93814e-07 1.42763e-06 -1.50145e-05
0.00105967 -2.61423e-05 4.1458e-07
-2.61423e-05 6.75874e-05 -9.49036e-07
4.1458e-07 -9.49036e-07 -4.0711e-06
0.00102233 -1.28465e-05 6.22211e-08
-1.28465e-05 4.06442e-05 -4.58163e-08
6.22211e-08 -4.58163e-08 -1.53211e-05
0.000973441 2.66973e-06 -8.26854e-07
2.66973e-06 6.81469e-06 2.02577e-06
-8.26854e-07 2.02577e-06 -2.724e-05
0.00102109 -8.86663e-06 4.11181e-07
-8.86663e-06 4.07814e-05 -1.26417e-06
4.11181e-07 -1.26417e-06 -1.26365e-05
0.000978819 -2.09349e-07 -9.51705e-08
-2.09349e-07 8.23116e-06 -1.32284e-08
-9.51705e-08 -1.32284e-08 -2.43487e-05
0.00156369 9.46687e-06 -4.30227e-06
9.46687e-06 0.000291889 4.52081e-06
-4.30227e-06 4.52081e-06 0.000291864
0.000979157 -5.94738e-06 8.56733e-07
-5.94738e-06 7.66076e-06 -1.88475e-06
8.56733e-07 -1.88475e-06 -2.39254e-05
0.00124249 6.98739e-06 -1.38093e-06
6.98739e-06 0.000128496 6.23401e-07
-1.38093e-06 6.23401e-07 0.000127689
0.00108216 7.59398e-06 -1.17221e-06
7.59398e-06 4.55816e-05 1.6125e-06
-1.17221e-06 1.6125e-06 6.20268e-05
0.000927631 4.34145e-06 7.59075e-07
4.34145e-06 -3.16076e-05 -3.24497e-06
7.59075e-07 -3.24497e-06 -3.3239e-05
0.0017263 5.7134e-06 2.12605e-06
5.7134e-06 0.000365051 -1.25127e-06
2.12605e-06 -1.25127e-06 0.000385018
0.0023446 2.89372e-06 3.00875e-06
2.89372e-06 0.000673883 -4.13573e-06
3.00875e-06 -4.13573e-06 0.000696972
0.00108989 -1.51588e-06 -1.01479e-07
-1.51588e-06 6.86996e-05 -1.18426e-06
-1.01479e-07 -1.18426e-06 2.28898e-05
0.000992002 -2.47462e-06 -4.0468e-07
-2.47462e-06 7.79278e-06 -1.88756e-06
-4.0468e-07 -1.88756e-06 -1.80661e-05
0.00106132 5.33313e-06 7.83225e-08
5.33313e-06 5.4411e-05 7.59502e-08
7.83225e-08 7.59502e-08 1.07969e-05
0.00093388 -2.24708e-06 -4.2359e-07
-2.24708e-06 -3.05319e-05 -3.25476e-06
-4.2359e-07 -3.25476e-06 -2.83641e-05
0.000991862 -1.15388e-06 -5.3338e-08
-1.15388e-06 7.07446e-06 4.4632e-09
-5.3338e-08 4.4632e-09 -1.7944e-05
0.00101254 5.71708e-06 9.84174e-08
5.71708e-06 3.05185e-05 1.64893e-06
9.84174e-08 1.64893e-06 -1.2054e-05
0.00222034 9.05245e-08 -6.45397e-07
9.05245e-08 0.000610999 -4.02574e-06
-6.45397e-07 -4.02574e-06 0.000635648
0.000929933 2.41681e-07 -9.90942e-08
2.41681e-07 -3.30357e-05 -8.34381e-09
-9.90942e-08 -8.34381e-09 -3.04259e-05
0.000993825 1.19753e-09 -1.11146e-07
1.19753e-09 7.69803e-06 1.88835e-06
-1.11146e-07 1.88835e-06 -1.6868e-05
0.00093475 2.88332e-06 -4.13393e-07
2.88332e-06 -3.01803e-05 3.22039e-06
-4.13393e-07 3.22039e-06 -2.77388e-05
0.00221682 3.40818e-06 -7.98083e-07
3.40818e-06 0.000609754 -6.55385e-09
-7.98083e-07 -6.55385e-09 0.000634329
0.00222787 6.51632e-06 -4.91339e-06
6.51632e-06 0.000616756 3.96303e-06
-4.91339e-06 3.96303e-06 0.000640956
-0.000956158 4.29465e-06 9.85256e-06
4.29465e-06 -0.000914572 -6.00984e-07
9.85256e-06 -6.00984e-07 -0.000926963
-0.000195106 4.34195e-05 2.25571e-05
4.34195e-05 -0.000270003 -4.43193e-06
2.25571e-05 -4.43193e-06 -0.000347113
0.00108392 2.13688e-06 1.74137e-05
2.13688e-06 0.000267016 -2.81983e-06
1.74137e-05 -2.81983e-06 0.000221468
-0.00117745 3.74734e-05 -8.61313e-06
3.74734e-05 -0.00112884 2.18514e-06
-8.61313e-06 2.18514e-06 -0.00106763
0.00148581 9.39518e-06 -6.04195e-05
9.39518e-06 0.000305106 -4.11189e-06
-6.04195e-05 -4.11189e-06 0.000135618
0.00135153 5.40144e-05 2.11177e-06
5.40144e-05 7.83907e-05 -1.94647e-06
2.11177e-06 -1.94647e-06 2.0266e-05
0.000685857 -2.14859e-05 -2.17075e-05
-2.14859e-05 -0.00021315 6.99211e-07
-2.17075e-05 6.99211e-07 -0.000607015
0.00287974 9.03316e-05 8.39467e-05
9.03316e-05 0.00122641 -2.72138e-05
8.39467e-05 -2.72138e-05 0.00113345
5.44816e-05 8.8565e-05 8.57727e-07
8.8565e-05 -0.000571833 -8.14354e-06
8.57727e-07 -8.14354e-06 -0.000356603
0.00108094 3.86793e-05 -3.98848e-06
3.86793e-05 0.000206467 3.33027e-06
-3.98848e-06 3.33027e-06 4.09389e-05
0.00253269 6.67958e-05 9.75981e-06
6.67958e-05 0.00040011 -5.17281e-06
9.75981e-06 -5.17281e-06 -0.000271724
0.00264156 0.000200723 1.43742e-06
0.000200723 0.000768933 1.05231e-06
1.43742e-06 1.05231e-06 0.000750866
0.000986909 4.18397e-05 -6.72105e-07
4.18397e-05 -7.04297e-05 2.69068e-06
-6.72105e-07 2.69068e-06 0.000150341
0.00063739 3.9154e-05 8.15044e-06
3.9154e-05 0.000218781 6.89901e-07
8.15044e-06 6.89901e-07 -3.46351e-05
0.00287884 0.000148983 4.08801e-05
0.000148983 0.000449408 -1.84147e-05
4.08801e-05 -1.84147e-05 -0.000260313
-0.00177119 0.000162056 -3.26423e-05
0.000162056 -0.0015095 4.49654e-05
-3.26423e-05 4.49654e-05 -0.00141883
0.000103653 -5.17139e-06 1.49237e-06
-5.17139e-06 -0.000503517 -1.16301e-06
1.49237e-06 -1.16301e-06 -0.000435768
0.00111135 -2.3224e-06 4.27561e-07
-2.3224e-06 9.47047e-05 -9.96033e-07
4.27561e-07 -9.96033e-07 1.96913e-05
0.00105918 2.31761e-05 -4.82508e-07
2.31761e-05 6.9516e-05 -2.22212e-07
-4.82508e-07 -2.22212e-07 1.40989e-06
0.0010426 1.40458e-05 1.14247e-07
1.40458e-05 5.31933e-05 4.71327e-07
1.14247e-07 4.71327e-07 -2.45015e-06
0.00101519 3.29239e-05 6.47989e-07
3.29239e-05 4.80595e-05 1.58668e-06
6.47989e-07 1.58668e-06 -1.66655e-05
0.00102764 8.00931e-06 -2.19072e-07
8.00931e-06 4.99348e-05 -7.11094e-07
-2.19072e-07 -7.11094e-07 -2.23152e-05
0.00115042 1.85473e-05 9.78236e-08
1.85473e-05 0.000111344 4.67062e-07
9.78236e-08 4.67062e-07 4.49044e-05
0.00100884 3.71336e-06 -1.61161e-07
3.71336e-06 3.93997e-05 1.86708e-06
-1.61161e-07 1.86708e-06 -2.32393e-05
0.0011798 2.32477e-05 -4.44783e-07
2.32477e-05 0.000123096 -9.44066e-07
-4.44783e-07 -9.44066e-07 6.0153e-05
0.0011381 1.29433e-05 3.4208e-08
1.29433e-05 0.000102771 4.49493e-07
3.4208e-08 4.49493e-07 4.25192e-05
0.000934321 -6.66204e-06 -3.08146e-07
-6.66204e-06 6.05812e-07 6.14958e-07
-3.08146e-07 6.14958e-07 -5.7699e-05
0.00280777 -3.59781e-05 -7.73285e-06
-3.59781e-05 0.000394161 5.82589e-07
-7.73285e-06 5.82589e-07 0.000383019
0.000904894 -8.97994e-05 -7.85639e-06
-8.97994e-05 -0.00022061 4.95814e-06
-7.85639e-06 4.95814e-06 -0.00029248
0.00113895 -7.96075e-05 -1.43506e-06
-7.96075e-05 7.92784e-05 3.74201e-06
-1.43506e-06 3.74201e-06 -3.74517e-05
0.00115364 -4.51814e-05 -6.19733e-08
-4.51814e-05 0.000145132 1.87077e-06
-6.19733e-08 1.87077e-06 4.69872e-06
0.00117968 -1.59691e-05 1.91631e-07
-1.59691e-05 0.00014768 6.08397e-07
1.91631e-07 6.08397e-07 2.81615e-05
0.000989946 -2.92566e-05 1.18447e-07
-2.92566e-05 3.44004e-05 1.92872e-07
1.18447e-07 1.92872e-07 -5.48301e-05
0.000970545 9.74781e-06 8.4507e-08
9.74781e-06 2.90918e-05 7.8523e-07
8.4507e-08 7.8523e-07 -5.1827e-05
0.00104979 -2.98062e-06 8.69153e-08
-2.98062e-06 6.57467e-05 6.7938e-07
8.69153e-08 6.7938e-07 -1.47678e-05
0.00209649 -0.000100693 7.46295e-07
-0.000100693 1.48361e-05 9.70354e-08
7.46295e-07 9.70354e-08 6.93805e-05
0.00112129 -7.04794e-06 7.58045e-08
-7.04794e-06 9.97001e-05 -2.24344e-07
7.58045e-08 -2.24344e-07 1.22491e-05
0.00124468 -5.47279e-06 -8.44275e-08
-5.47279e-06 0.000156265 1.57433e-07
-8.44275e-08 1.57433e-07 5.76397e-05
0.00150425 -9.98328e-05 5.03003e-07
-9.98328e-05 0.000319996 -8.00579e-07
5.03003e-07 -8.00579e-07 0.000150205
0.00118269 -6.63759e-06 -2.96735e-07
-6.63759e-06 0.000170631 9.83505e-08
-2.96735e-07 9.83505e-08 2.3173e-05
0.00177318 -0.00013587 -8.51064e-06
-0.00013587 9.89565e-06 -1.26191e-06
-8.51064e-06 -1.26191e-06 1.45134e-05
0.00128518 -2.47775e-05 2.80201e-07
-2.47775e-05 0.000335376 -4.2519e-06
2.80201e-07 -4.2519e-06 9.96245e-05
0.00110341 8.98395e-06 -1.04476e-06
8.98395e-06 8.55892e-05 4.98568e-07
-1.04476e-06 4.98568e-07 -2.31854e-05
0.00107993 2.49719e-05 -3.29265e-07
2.49719e-05 7.40889e-05 -8.51582e-07
-3.29265e-07 -8.51582e-07 -1.17706e-05
0.00113348 1.85351e-05 -2.4744e-07
1.85351e-05 9.02825e-05 -1.91018e-06
-2.4744e-07 -1.91018e-06 -2.93618e-06
0.00209912 -4.13778e-06 3.00843e-06
-4.13778e-06 0.000948426 8.91386e-07
3.00843e-06 8.91386e-07 0.000869711
-7.7563e-05 -4.51755e-06 1.0772e-05
-4.51755e-06 -0.000416784 -4.72671e-08
1.0772e-05 -4.72671e-08 -0.000430016
-0.00269337 -4.87889e-06 7.88497e-05
-4.87889e-06 -0.00164872 -9.48446e-07
7.88497e-05 -9.48446e-07 -0.00165845
0.00148189 4.23435e-05 3.61499e-07
4.23435e-05 0.000256356 1.43924e-06
3.61499e-07 1.43924e-06 0.000156426
0.000462785 1.62655e-05 1.89476e-06
1.62655e-05 -0.000135901 -1.16777e-06
1.89476e-06 -1.16777e-06 -0.000270095
0.00135374 6.44517e-05 7.38157e-07
6.44517e-05 0.000224886 -8.32146e-06
7.38157e-07 -8.32146e-06 2.72553e-05
-0.000678378 -1.16945e-05 -4.9554e-07
-1.16945e-05 -0.000753262 -1.04783e-06
-4.9554e-07 -1.04783e-06 -0.000768275
0.00223203 -0.000191109 1.49943e-05
-0.000191109 -7.93372e-06 9.79201e-06
1.49943e-05 9.79201e-06 -0.000696981
0.000604163 7.89935e-05 1.63181e-05
7.89935e-05 7.87809e-05 -3.45477e-05
1.63181e-05 -3.45477e-05 -0.000128068
0.00269057 -9.25322e-06 7.00683e-05
-9.25322e-06 0.000581199 1.35274e-05
7.00683e-05 1.35274e-05 0.00034643
0.00329058 -0.000256683 3.98693e-05
-0.000256683 0.000837235 5.27462e-05
3.98693e-05 5.27462e-05 0.000839999
0.000567919 -5.50686e-07 -1.35171e-05
-5.50686e-07 -3.78578e-05 -7.59139e-06
-1.35171e-05 -7.59139e-06 -9.51925e-05
0.00105964 -1.09452e-05 -2.74667e-06
-1.09452e-05 7.73957e-05 -8.01471e-06
-2.74667e-06 -8.01471e-06 0.000109694
0.000996484 4.01356e-05 8.02086e-07
4.01356e-05 3.19579e-05 4.01147e-07
8.02086e-07 4.01147e-07 -5.56056e-05
0.00138379 -9.00705e-07 1.86155e-06
-9.00705e-07 0.000482043 1.40167e-06
1.86155e-06 1.40167e-06 0.000400856
0.000926202 1.10249e-05 1.08216e-06
1.10249e-05 8.0478e-05 -1.56139e-07
1.08216e-06 -1.56139e-07 2.36137e-05
4.78159e-05 7.16735e-08 1.02697e-05
7.16735e-08 -0.000300817 1.30245e-06
1.02697e-05 1.30245e-06 -0.000455318
0.00124287 0.000106919 -3.01672e-05
0.000106919 0.000416581 -1.19153e-05
-3.01672e-05 -1.19153e-05 0.000229004
0.00525198 -5.42555e-05 1.12809e-05
-5.42555e-05 0.000845023 9.25352e-06
1.12809e-05 9.25352e-06 0.000171984
0.000944692 -9.54927e-06 -1.32701e-06
-9.54927e-06 3.74491e-05 2.95667e-06
-1.32701e-06 2.95667e-06 3.26265e-05
0.00120405 -0.000176873 2.07383e-06
-0.000176873 -0.000339544 1.76404e-05
2.07383e-06 1.76404e-05 -0.000287934
0.00108289 2.39303e-05 5.34306e-07
2.39303e-05 7.76322e-05 -6.97375e-06
5.34306e-07 -6.97375e-06 4.18747e-07
0.000922993 4.70949e-06 1.50784e-07
4.70949e-06 0.000113827 6.61072e-07
1.50784e-07 6.61072e-07 2.47894e-05
0.0020227 -6.29419e-06 4.44972e-06
-6.29419e-06 0.000705568 7.91682e-06
4.44972e-06 7.91682e-06 0.000670339
0.000173002 -1.47873e-05 -3.49563e-06
-1.47873e-05 -0.000448089 6.86954e-06
-3.49563e-06 6.86954e-06 -0.00038982
-0.000763412 4.87322e-05 -8.97513e-06
4.87322e-05 -0.000544231 1.3866e-06
-8.97513e-06 1.3866e-06 -0.00062142
0.00580483 -5.75754e-05 7.94729e-06
-5.75754e-05 0.00127127 1.34671e-05
7.94729e-06 1.34671e-05 0.000761235
-0.000209634 1.64226e-06 1.80072e-06
1.64226e-06 -0.00110375 -7.21067e-05
1.80072e-06 -7.21067e-05 -0.000855697
0.00133257 4.40863e-05 3.13712e-07
4.40863e-05 0.000194083 1.14633e-06
3.13712e-07 1.14633e-06 8.84403e-05
0.00136596 3.98232e-05 -1.76953e-07
3.98232e-05 0.000226633 6.86762e-07
-1.76953e-07 6.86762e-07 0.000110863
0.0011672 2.82352e-05 5.76301e-07
2.82352e-05 0.000176674 -3.35117e-07
5.76301e-07 -3.35117e-07 4.6158e-05
0.00109434 2.18508e-05 2.6808e-08
2.18508e-05 8.30643e-05 -6.41244e-07
2.6808e-08 -6.41244e-07 5.00594e-06
0.00116528 2.60823e-05 5.43933e-08
2.60823e-05 0.000124522 -6.03441e-07
5.43933e-08 -6.03441e-07 3.01705e-05
0.00101912 9.24662e-06 -2.78262e-07
9.24662e-06 8.0966e-05 4.00393e-07
-2.78262e-07 4.00393e-07 -4.44969e-05
0.00123631 1.28453e-05 -5.35077e-08
1.28453e-05 0.000149393 -1.64024e-07
-5.35077e-08 -1.64024e-07 6.1737e-05
0.00114028 -1.22974e-05 -2.65284e-08
-1.22974e-05 0.000115949 3.01952e-07
-2.65284e-08 3.01952e-07 5.79163e-06
0.00117406 -4.59927e-06 4.69002e-07
-4.59927e-06 0.00015144 4.74774e-07
4.69002e-07 4.74774e-07 2.71785e-05
0.00104838 -2.40065e-06 -5.55669e-07
-2.40065e-06 9.51505e-05 -7.03531e-08
-5.55669e-07 -7.03531e-08 -1.32021e-05
0.0011219 -3.06231e-05 -6.89901e-07
-3.06231e-05 8.55614e-05 6.21626e-07
-6.89901e-07 6.21626e-07 -1.33108e-05
0.00119697 -7.64118e-06 -4.75663e-07
-7.64118e-06 0.000127927 -1.22088e-06
-4.75663e-07 -1.22088e-06 4.21312e-05
0.00109313 -2.2132e-05 1.27048e-07
-2.2132e-05 8.87993e-05 -3.61219e-07
1.27048e-07 -3.61219e-07 5.28978e-06
0.00104136 -2.01022e-05 1.05456e-07
-2.01022e-05 5.38227e-05 -9.29764e-07
1.05456e-07 -9.29764e-07 -3.50991e-05
0.00109583 -3.42545e-05 1.12566e-07
-3.42545e-05 7.72094e-05 8.56504e-08
1.12566e-07 8.56504e-08 -1.64037e-05
0.0010614 -3.13778e-05 -3.99121e-07
-3.13778e-05 6.91774e-05 2.57033e-07
-3.99121e-07 2.57033e-07 -2.26093e-05
0.00108529 -4.01079e-05 -3.26865e-07
-4.01079e-05 9.19558e-05 6.92003e-07
-3.26865e-07 6.92003e-07 -4.65564e-06
0.00107161 -4.1209e-05 4.00329e-07
-4.1209e-05 7.65887e-05 -4.58685e-07
4.00329e-07 -4.58685e-07 -1.12607e-05
0.00113466 -4.50027e-05 5.87687e-07
-4.50027e-05 0.000114698 8.92722e-07
5.87687e-07 8.92722e-07 1.64337e-05
0.00120396 -4.04953e-05 6.32993e-07
-4.04953e-05 0.000135907 1.26511e-07
6.32993e-07 1.26511e-07 4.87865e-05
0.00111683 -4.26873e-05 7.73928e-08
-4.26873e-05 9.83513e-05 8.31382e-07
7.73928e-08 8.31382e-07 1.31782e-05
0.000890363 -4.34889e-05 8.93224e-08
-4.34889e-05 -2.57597e-05 1.83099e-06
8.93224e-08 1.83099e-06 -0.000116062
0.00108038 -4.39333e-05 -1.15396e-06
-4.39333e-05 6.95485e-05 5.69885e-07
-1.15396e-06 5.69885e-07 -9.32988e-06
0.00109575 -4.00862e-05 -1.18915e-06
-4.00862e-05 8.10253e-05 2.78295e-07
-1.18915e-06 2.78295e-07 8.62392e-06
0.0010295 -4.32355e-05 -4.73563e-07
-4.32355e-05 4.62143e-05 -3.52527e-08
-4.73563e-07 -3.52527e-08 -3.56709e-05
0.00109014 -3.43824e-05 -8.5194e-07
-3.43824e-05 7.46085e-05 3.34502e-07
-8.5194e-07 3.34502e-07 5.23389e-06
0.00116749 -4.107e-05 -1.61966e-07
-4.107e-05 0.000116245 -2.13035e-07
-1.61966e-07 -2.13035e-07 4.18263e-05
0.000989705 -4.00296e-05 2.33585e-07
-4.00296e-05 4.37644e-05 -1.35159e-06
2.33585e-07 -1.35159e-06 -3.2136e-05
0.00116386 -4.05799e-05 1.23394e-06
-4.05799e-05 0.000116398 -3.07883e-07
1.23394e-06 -3.07883e-07 3.60102e-05
0.000999172 -3.27911e-05 5.37874e-08
-3.27911e-05 3.32804e-05 -4.25291e-10
5.37874e-08 -4.25291e-10 -3.96814e-05
0.00103893 -1.62975e-05 -1.10043e-06
-1.62975e-05 4.612e-05 1.32354e-06
-1.10043e-06 1.32354e-06 -1.31305e-05
0.00106058 -2.97952e-05 5.50303e-07
-2.97952e-05 6.64824e-05 -4.1276e-07
5.50303e-07 -4.1276e-07 -6.74382e-06
0.00102907 -1.39611e-05 1.21988e-07
-1.39611e-05 4.26444e-05 1.44742e-08
1.21988e-07 1.44742e-08 -1.55278e-05
0.000972745 7.60439e-07 -1.17268e-06
7.60439e-07 7.83912e-06 2.16376e-06
-1.17268e-06 2.16376e-06 -2.81696e-05
0.00102773 -1.29638e-05 5.69396e-07
-1.29638e-05 4.32614e-05 -1.34899e-06
5.69396e-07 -1.34899e-06 -1.27493e-05
0.000972813 1.54806e-06 1.44161e-08
1.54806e-06 6.58209e-06 -2.31365e-08
1.44161e-08 -2.31365e-08 -2.7556e-05
0.00154066 1.17092e-05 -4.73633e-06
1.17092e-05 0.000283817 3.25685e-06
-4.73633e-06 3.25685e-06 0.000282779
0.00097752 -3.80449e-06 9.47579e-07
-3.80449e-06 7.57514e-06 -1.98956e-06
9.47579e-07 -1.98956e-06 -2.50766e-05
0.0012411 9.17758e-06 -1.70846e-06
9.17758e-06 0.000130568 6.16524e-07
-1.70846e-06 6.16524e-07 0.000128938
0.00107866 1.01613e-05 -1.60344e-06
1.01613e-05 4.75326e-05 1.62221e-06
-1.60344e-06 1.62221e-06 6.31762e-05
0.000924424 6.51768e-06 1.1311e-06
6.51768e-06 -3.10252e-05 -3.27079e-06
1.1311e-06 -3.27079e-06 -3.32693e-05
0.00173686 8.75967e-06 2.84592e-06
8.75967e-06 0.000372962 -1.24027e-06
2.84592e-06 -1.24027e-06 0.000392364
0.00236031 6.2805e-06 5.03023e-06
6.2805e-06 0.000683365 -4.12796e-06
5.03023e-06 -4.12796e-06 0.000706078
0.000836507 -8.79488e-07 -3.4807e-07
-8.79488e-07 -5.69221e-05 -1.73661e-06
-3.4807e-07 -1.73661e-06 -0.000107103
0.000728934 -4.35545e-06 -5.61046e-07
-4.35545e-06 -0.000121086 -2.52812e-06
-5.61046e-07 -2.52812e-06 -0.000149948
0.0010991 -2.66694e-07 2.52038e-08
-2.66694e-07 7.30551e-05 1.07306e-07
2.52038e-08 1.07306e-07 2.72099e-05
0.000935763 -4.6234e-06 -7.75866e-07
-4.6234e-06 -2.82955e-05 -3.25694e-06
-7.75866e-07 -3.25694e-06 -2.69983e-05
0.000863918 -2.66919e-06 -7.03723e-09
-2.66919e-06 -5.54704e-05 -5.81015e-09
-7.03723e-09 -5.81015e-09 -8.21668e-05
0.000853201 -3.94636e-06 1.80614e-08
-3.94636e-06 -4.87962e-05 1.30761e-06
1.80614e-08 1.30761e-06 -9.36601e-05
0.00223276 -3.09823e-06 -2.93554e-06
-3.09823e-06 0.000617766 -4.05043e-06
-2.93554e-06 -4.05043e-06 0.000642168
0.000928636 -2.19476e-06 -1.11132e-07
-2.19476e-06 -3.31728e-05 -1.14594e-08
-1.11132e-07 -1.14594e-08 -3.09611e-05
0.00099391 -1.39106e-06 5.54947e-08
-1.39106e-06 8.2331e-06 1.86771e-06
5.54947e-08 1.86771e-06 -1.68018e-05
0.00221818 1.60116e-07 -9.165e-07
1.60116e-07 0.000609909 2.99014e-10
-9.165e-07 2.99014e-10 0.000634579
0.000929912 3.07253e-07 -1.30562e-07
3.07253e-07 -3.30724e-05 3.2469e-06
-1.30562e-07 3.2469e-06 -3.04538e-05
0.00221438 3.51107e-06 -2.61709e-06
3.51107e-06 0.000608671 3.98728e-06
-2.61709e-06 3.98728e-06 0.000633222
0.00126186 -5.7755e-06 1.09169e-05
-5.7755e-06 0.000426277 -1.15773e-06
1.09169e-05 -1.15773e-06 0.000354626
0.000995373 1.05294e-05 1.51679e-06
1.05294e-05 0.000189482 6.20361e-07
1.51679e-06 6.20361e-07 0.000194127
0.000584942 -3.32384e-06 0.000103201
-3.32384e-06 -6.3168e-05 -1.4831e-05
0.000103201 -1.4831e-05 -0.000226131
0.00105662 1.74056e-05 -3.6778e-07
1.74056e-05 5.85891e-05 -1.14882e-06
-3.6778e-07 -1.14882e-06 -8.34868e-06
0.00110745 -1.59328e-05 -5.97925e-07
-1.59328e-05 0.00020572 -5.70102e-06
-5.97925e-07 -5.70102e-06 0.000162715
0.00117195 5.47595e-07 5.96384e-06
5.47595e-07 0.000321895 -6.106e-07
5.96384e-06 -6.106e-07 0.000278476
0.000947241 4.59935e-05 -1.25664e-05
4.59935e-05 8.02158e-05 5.61849e-06
-1.25664e-05 5.61849e-06 0.000169501
0.000942017 4.5747e-05 -4.08326e-05
4.5747e-05 -4.91451e-05 1.46095e-05
-4.08326e-05 1.46095e-05 -0.000259797
0.0054469 0.000165504 5.61989e-06
0.000165504 0.00190203 -9.42175e-06
5.61989e-06 -9.42175e-06 0.00126802
-0.000444451 0.000138753 5.18123e-05
0.000138753 -0.000456744 -3.41285e-05
5.18123e-05 -3.41285e-05 -0.000431312
0.00138062 3.86178e-05 1.76753e-06
3.86178e-05 0.000161515 5.57455e-06
1.76753e-06 5.57455e-06 0.000372907
0.00146029 2.07582e-05 -2.45354e-05
2.07582e-05 0.000317446 9.54211e-06
-2.45354e-05 9.54211e-06 -7.39611e-05
0.00405933 0.000170922 1.52073e-05
0.000170922 0.000912595 -2.05269e-05
1.52073e-05 -2.05269e-05 0.00027133
0.000587574 0.000177682 -4.51866e-06
0.000177682 -0.000544315 9.60575e-06
-4.51866e-06 9.60575e-06 -0.000471984
0.00172596 -1.23853e-06 9.58761e-07
-1.23853e-06 0.000479692 -1.51274e-06
9.58761e-07 -1.51274e-06 0.000550909
0.00140517 -6.16689e-05 2.75636e-05
-6.16689e-05 0.000233796 -3.15486e-05
2.75636e-05 -3.15486e-05 -0.000190526
0.00713698 0.000143895 2.50639e-05
0.000143895 0.0018435 -1.58128e-05
2.50639e-05 -1.58128e-05 0.00104883
0.00182788 0.000176119 6.23155e-06
0.000176119 -0.000250662 6.56879e-05
6.23155e-06 6.56879e-05 -0.000278421
0.00175144 1.19236e-05 -1.77219e-06
1.19236e-05 0.000477297 4.47178e-06
-1.77219e-06 4.47178e-06 0.000488134
0.00100814 -1.87671e-06 6.7983e-08
-1.87671e-06 3.6058e-05 -1.2269e-06
6.7983e-08 -1.2269e-06 -4.4333e-05
0.00108131 -9.80593e-06 1.56149e-07
-9.80593e-06 8.00145e-05 -4.43213e-08
1.56149e-07 -4.43213e-08 4.28399e-06
0.0011485 2.45188e-05 -1.77558e-07
2.45188e-05 0.000113606 8.07357e-07
-1.77558e-07 8.07357e-07 4.61542e-05
0.00103261 8.4027e-06 -1.23978e-07
8.4027e-06 4.94757e-05 -1.7189e-06
-1.23978e-07 -1.7189e-06 -2.44172e-05
0.00110614 2.06685e-05 -1.26799e-07
2.06685e-05 8.81849e-05 4.31149e-07
-1.26799e-07 4.31149e-07 1.69989e-05
0.00117491 1.31947e-05 3.25962e-07
1.31947e-05 0.000122646 1.65403e-06
3.25962e-07 1.65403e-06 5.70464e-05
0.00121813 2.30503e-05 -1.87994e-07
2.30503e-05 0.000141356 3.89898e-08
-1.87994e-07 3.89898e-08 7.8865e-05
0.00122117 2.33152e-05 4.34289e-07
2.33152e-05 0.00014386 1.61339e-06
4.34289e-07 1.61339e-06 8.42889e-05
0.00213492 -0.000103945 1.27741e-06
-0.000103945 6.9604e-05 -2.93231e-06
1.27741e-06 -2.93231e-06 8.93506e-05
0.00150414 -9.62867e-05 -2.42517e-06
-9.62867e-05 0.000321202 3.9473e-06
-2.42517e-06 3.9473e-06 0.000150912
0.00107649 -3.88298e-05 -2.81247e-07
-3.88298e-05 8.00141e-05 1.38291e-06
-2.81247e-07 1.38291e-06 -8.70786e-07
0.00140222 -9.58165e-06 1.13146e-08
-9.58165e-06 0.000269033 6.90977e-07
1.13146e-08 6.90977e-07 0.000125835
0.00127806 -8.31177e-06 6.64195e-08
-8.31177e-06 0.000173993 5.53763e-07
6.64195e-08 5.53763e-07 7.36812e-05
0.00115781 7.55685e-07 -1.51515e-08
7.55685e-07 0.000119731 6.35741e-07
-1.51515e-08 6.35741e-07 3.26244e-05
0.00110032 1.82976e-05 5.21239e-08
1.82976e-05 8.44776e-05 1.24751e-07
5.21239e-08 1.24751e-07 -1.46718e-06
0.00194403 -0.000138233 9.41825e-07
-0.000138233 9.06788e-05 -7.56513e-07
9.41825e-07 -7.56513e-07 9.91437e-05
0.00110231 1.131e-05 1.21982e-07
1.131e-05 7.6267e-05 8.5975e-08
1.21982e-07 8.5975e-08 -1.71861e-05
0.00117115 4.3167e-06 -2.33628e-07
4.3167e-06 0.000124083 4.07467e-08
-2.33628e-07 4.07467e-08 8.98277e-06
0.00111852 -2.20516e-05 -2.46584e-07
-2.20516e-05 0.000262667 4.57275e-07
-2.46584e-07 4.57275e-07 1.97956e-05
0.00118484 2.52206e-05 -5.76933e-08
2.52206e-05 0.000119257 -5.37977e-07
-5.76933e-08 -5.37977e-07 3.31547e-05
0.00230351 -0.000119757 -2.593e-05
-0.000119757 0.000566282 1.32524e-06
-2.593e-05 1.32524e-06 0.000406352
0.00132035 3.75796e-05 -3.5473e-06
3.75796e-05 0.000338732 -2.12896e-06
-3.5473e-06 -2.12896e-06 0.000137215
0.0010848 1.20491e-05 -2.52792e-07
1.20491e-05 5.71541e-05 -1.80752e-06
-2.52792e-07 -1.80752e-06 -3.53527e-05
0.00125881 2.86991e-05 -2.93748e-07
2.86991e-05 0.000154453 -1.14238e-06
-2.93748e-07 -1.14238e-06 6.3075e-05
0.00141786 -3.86279e-06 -1.51171e-06
-3.86279e-06 0.000449408 3.72749e-07
-1.51171e-06 3.72749e-07 0.000350814
0.00162027 -3.93467e-06 -6.93107e-06
-3.93467e-06 0.000651675 2.30212e-07
-6.93107e-06 2.30212e-07 0.000572835
-0.00109159 -3.92892e-06 7.91281e-06
-3.92892e-06 -0.000987682 -1.67513e-09
7.91281e-06 -1.67513e-09 -0.00100565
0.000854783 3.88222e-05 4.08171e-07
3.88222e-05 -4.03896e-05 1.77093e-06
4.08171e-07 1.77093e-06 -0.000125742
-0.000671362 -1.1206e-06 -4.99346e-06
-1.1206e-06 -0.000652493 4.02737e-06
-4.99346e-06 4.02737e-06 -0.000836054
0.000911168 4.4174e-08 -1.24267e-05
4.4174e-08 0.000190661 -2.25521e-06
-1.24267e-05 -2.25521e-06 0.000100598
0.00391306 -0.000220571 2.54337e-05
-0.000220571 0.00074745 7.29672e-06
2.54337e-05 7.29672e-06 2.23185e-06
0.00312034 0.000135688 -2.5977e-05
0.000135688 0.000838837 -5.99629e-05
-2.5977e-05 -5.99629e-05 0.000487037
0.00245963 -0.00020583 -5.78274e-07
-0.00020583 1.00149e-05 8.67439e-05
-5.78274e-07 8.67439e-05 0.000124586
0.000848764 1.12908e-05 1.40657e-06
1.12908e-05 3.11315e-05 -5.58052e-06
1.40657e-06 -5.58052e-06 -2.65062e-05
8.34259e-05 -1.07664e-05 1.51867e-06
-1.07664e-05 -0.000450063 -2.19555e-06
1.51867e-06 -2.19555e-06 -0.000473132
0.00131403 3.15779e-05 -1.42603e-06
3.15779e-05 0.000197265 -7.3159e-07
-1.42603e-06 -7.3159e-07 0.000116749
0.000818551 3.64697e-06 -8.41379e-07
3.64697e-06 5.01993e-05 9.5314e-08
-8.41379e-07 9.5314e-08 -3.8732e-05
0.00100937 -7.92535e-06 2.32809e-06
-7.92535e-06 7.18089e-05 -7.06104e-07
2.32809e-06 -7.06104e-07 3.403e-05
-3.30958e-05 3.73126e-05 5.36231e-06
3.73126e-05 -0.000147509 -4.30564e-06
5.36231e-06 -4.30564e-06 -0.000198025
0.00157915 -1.03004e-05 -1.39688e-06
-1.03004e-05 0.000398105 1.9823e-06
-1.39688e-06 1.9823e-06 0.000462061
0.00402609 2.64702e-05 1.72264e-05
2.64702e-05 0.000237321 1.2049e-06
1.72264e-05 1.2049e-06 -0.00010952
0.00325437 3.44552e-06 -1.14496e-05
3.44552e-06 0.000323932 -1.26566e-07
-1.14496e-05 -1.26566e-07 0.000535156
0.000437509 3.54347e-05 3.18497e-06
3.54347e-05 -7.3392e-05 -6.90651e-06
3.18497e-06 -6.90651e-06 -0.000157543
0.00135477 -4.61575e-06 -6.27749e-07
-4.61575e-06 0.000353471 1.8335e-06
-6.27749e-07 1.8335e-06 0.000272345
0.00109284 -2.08604e-05 -1.09816e-06
-2.08604e-05 0.000188616 8.57507e-06
-1.09816e-06 8.57507e-06 0.000123044
0.00111931 4.60064e-05 -3.54219e-06
4.60064e-05 -1.50562e-05 8.27255e-06
-3.54219e-06 8.27255e-06 0.000204929
0.002018 0.000199511 -3.6279e-06
0.000199511 -1.06426e-05 -5.85534e-05
-3.6279e-06 -5.85534e-05 -5.22712e-05
0.00100305 6.89918e-05 1.62675e-05
6.89918e-05 0.00062062 -6.81248e-06
1.62675e-05 -6.81248e-06 0.000579511
0.0030712 -7.62906e-05 3.84301e-05
-7.62906e-05 -5.3421e-05 3.19359e-05
3.84301e-05 3.19359e-05 -0.000494107
0.00112185 3.49013e-05 -9.47567e-07
3.49013e-05 0.000106078 1.46066e-06
-9.47567e-07 1.46066e-06 -9.86812e-06
0.00125478 2.49788e-05 -1.78901e-06
2.49788e-05 0.000207402 -1.54999e-07
-1.78901e-06 -1.54999e-07 8.39715e-05
0.000529112 -9.39474e-06 -1.18043e-06
-9.39474e-06 -4.52518e-05 -3.26451e-06
-1.18043e-06 -3.26451e-06 -0.000278202
0.00123388 3.17421e-06 -5.04261e-08
3.17421e-06 0.000147514 -7.50973e-07
-5.04261e-08 -7.50973e-07 6.05922e-05
0.00113088 -1.1096e-05 4.66672e-07
-1.1096e-05 0.000111228 5.95525e-08
4.66672e-07 5.95525e-08 7.05059e-07
0.000987316 -5.03252e-06 -1.77314e-08
-5.03252e-06 5.87275e-05 1.1694e-06
-1.77314e-08 1.1694e-06 -7.01363e-05
0.00110619 -3.15492e-05 -1.86421e-07
-3.15492e-05 7.95611e-05 5.13062e-08
-1.86421e-07 5.13062e-08 -1.9344e-05
0.00100161 -1.11303e-05 3.30835e-07
-1.11303e-05 6.85692e-05 1.11614e-06
3.30835e-07 1.11614e-06 -4.13826e-05
0.00102202 -2.3479e-05 6.56289e-07
-2.3479e-05 0.000114071 -8.95876e-07
6.56289e-07 -8.95876e-07 -1.37934e-05
0.00109655 -3.39987e-05 1.09871e-07
-3.39987e-05 7.71905e-05 -3.92609e-07
1.09871e-07 -3.92609e-07 -1.6304e-05
0.00103561 -2.82159e-05 9.13587e-08
-2.82159e-05 5.56492e-05 2.67135e-07
9.13587e-08 2.67135e-07 -3.61152e-05
0.00117792 -4.25829e-05 1.43806e-07
-4.25829e-05 0.000134613 4.86456e-07
1.43806e-07 4.86456e-07 3.66573e-05
0.00105956 -4.54308e-05 -1.37134e-07
-4.54308e-05 0.000107602 1.28193e-06
-1.37134e-07 1.28193e-06 -8.17626e-06
0.0009975 -3.95994e-05 2.98448e-07
-3.95994e-05 4.49766e-05 1.33147e-07
2.98448e-07 1.33147e-07 -4.01185e-05
0.000949905 -4.12204e-05 7.59233e-07
-4.12204e-05 2.84999e-05 -5.42261e-07
7.59233e-07 -5.42261e-07 -6.8581e-05
0.00111881 -4.97319e-05 7.90047e-07
-4.97319e-05 0.000103991 1.66263e-06
7.90047e-07 1.66263e-06 3.10624e-07
0.00121961 -5.1574e-05 -1.76515e-06
-5.1574e-05 0.00011466 1.97215e-06
-1.76515e-06 1.97215e-06 2.6245e-05
0.00132124 -4.6543e-05 2.82381e-07
-4.6543e-05 0.000195319 -6.78602e-08
2.82381e-07 -6.78602e-08 0.00011001
0.001004 -4.58493e-05 -2.82903e-07
-4.58493e-05 2.83339e-05 -1.27388e-07
-2.82903e-07 -1.27388e-07 -6.2983e-05
0.00126794 -4.64448e-05 1.97109e-07
-4.64448e-05 0.00016028 3.1994e-07
1.97109e-07 3.1994e-07 8.62856e-05
0.000950511 -3.62781e-05 -7.81215e-07
-3.62781e-05 1.82579e-05 2.07205e-07
-7.81215e-07 2.07205e-07 -5.40828e-05
0.00108547 -4.38659e-05 4.64674e-07
-4.38659e-05 7.13125e-05 9.18794e-08
4.64674e-07 9.18794e-08 -6.38059e-06
0.00107995 -3.12199e-05 -1.09735e-06
-3.12199e-05 7.18287e-05 1.19772e-07
-1.09735e-06 1.19772e-07 4.98386e-06
0.00111544 -4.04435e-05 -7.60411e-07
-4.04435e-05 9.01011e-05 4.65688e-07
-7.60411e-07 4.65688e-07 1.75286e-05
0.000941566 -4.14634e-05 -1.31754e-07
-4.14634e-05 6.22915e-06 -7.94963e-07
-1.31754e-07 -7.94963e-07 -7.56355e-05
0.0010473 -1.59185e-05 -1.41407e-06
-1.59185e-05 4.87164e-05 1.09862e-06
-1.41407e-06 1.09862e-06 -9.75577e-06
0.00105148 -3.38107e-05 8.53129e-08
-3.38107e-05 5.5139e-05 1.12866e-07
8.53129e-08 1.12866e-07 -1.45012e-05
0.00113981 -4.08503e-05 1.49889e-06
-4.08503e-05 0.000103073 -3.39712e-07
1.49889e-06 -3.39712e-07 2.82848e-05
0.00104291 -3.37138e-05 9.93763e-07
-3.37138e-05 5.51135e-05 -5.51059e-07
9.93763e-07 -5.51059e-07 -1.74332e-05
0.00103657 -1.62081e-05 8.78307e-08
-1.62081e-05 4.43562e-05 5.01957e-08
8.78307e-08 5.01957e-08 -1.47029e-05
0.000975702 -2.22417e-06 -1.6664e-06
-2.22417e-06 1.04939e-05 2.26456e-06
-1.6664e-06 2.26456e-06 -2.73078e-05
0.00103018 -1.42882e-05 9.06724e-07
-1.42882e-05 4.28677e-05 -1.24737e-06
9.06724e-07 -1.24737e-06 -1.51944e-05
0.000969258 9.51323e-07 1.31678e-07
9.51323e-07 6.25382e-06 -2.2619e-08
1.31678e-07 -2.2619e-08 -2.98045e-05
0.000887628 1.22029e-05 -2.03854e-06
1.22029e-05 -3.91488e-05 3.39496e-06
-2.03854e-06 3.39496e-06 -4.46038e-05
0.000972529 -8.10289e-07 1.10259e-06
-8.10289e-07 6.50695e-06 -2.10504e-06
1.10259e-06 -2.10504e-06 -2.77101e-05
0.000903184 1.04665e-05 1.12635e-07
1.04665e-05 -3.5054e-05 2.28663e-09
1.12635e-07 2.28663e-09 -3.92882e-05
0.00237508 1.7376e-05 -3.62843e-06
1.7376e-05 0.000699924 1.67411e-06
-3.62843e-06 1.67411e-06 0.000720746
0.000921805 8.57441e-06 1.51218e-06
8.57441e-06 -2.94438e-05 -3.30437e-06
1.51218e-06 -3.30437e-06 -3.25617e-05
0.00174738 1.16903e-05 3.50881e-06
1.16903e-05 0.000381613 -1.22516e-06
3.50881e-06 -1.22516e-06 0.000400279
0.00237673 9.57333e-06 6.95619e-06
9.57333e-06 0.00069412 -4.11832e-06
6.95619e-06 -4.11832e-06 0.000716285
0.000819975 -1.89801e-06 -3.01653e-07
-1.89801e-06 -6.55489e-05 -1.97467e-06
-3.01653e-07 -1.97467e-06 -0.000118618
0.00071201 -5.9249e-06 -7.68273e-07
-5.9249e-06 -0.000127147 -2.55394e-06
-7.68273e-07 -2.55394e-06 -0.000158334
0.000978956 -1.88383e-06 -7.81494e-08
-1.88383e-06 1.339e-05 -4.99983e-07
-7.81494e-08 -4.99983e-07 -3.61116e-05
0.000935433 -6.98973e-06 -1.08173e-06
-6.98973e-06 -2.61837e-05 -3.27149e-06
-1.08173e-06 -3.27149e-06 -2.61084e-05
0.000726616 -4.45204e-06 -1.07507e-07
-4.45204e-06 -0.000121996 -5.9354e-07
-1.07507e-07 -5.9354e-07 -0.000151124
0.00110656 -5.55041e-07 2.19581e-07
-5.55041e-07 7.68173e-05 1.39003e-06
2.19581e-07 1.39003e-06 3.07898e-05
0.0022525 -6.33432e-06 -4.97845e-06
-6.33432e-06 0.000629097 -4.05908e-06
-4.97845e-06 -4.05908e-06 0.000653009
0.000925874 -4.57811e-06 -9.99468e-08
-4.57811e-06 -3.31738e-05 -6.59871e-09
-9.99468e-08 -6.59871e-09 -3.18112e-05
0.000736217 -2.81792e-06 2.35994e-07
-2.81792e-06 -0.000118467 1.88614e-06
2.35994e-07 1.88614e-06 -0.000146012
0.00223371 -3.03238e-06 -8.98021e-07
-3.03238e-06 0.000618105 8.14023e-09
-8.98021e-07 8.14023e-09 0.000642555
0.000922897 -2.14142e-06 2.15444e-07
-2.14142e-06 -3.60533e-05 3.26997e-06
2.15444e-07 3.26997e-06 -3.37973e-05
0.00221724 2.33867e-07 -5.71879e-07
2.33867e-07 0.00060942 3.99964e-06
-5.71879e-07 3.99964e-06 0.000634105
0.00107251 -1.27527e-05 -1.40112e-07
-1.27527e-05 0.000228439 -6.05461e-07
-1.40112e-07 -6.05461e-07 0.00014426
0.00105122 -6.06061e-06 1.91185e-07
-6.06061e-06 0.000291322 4.69608e-07
1.91185e-07 4.69608e-07 0.000221203
0.000966797 6.43328e-06 -5.84933e-06
6.43328e-06 0.000170045 2.25346e-06
-5.84933e-06 2.25346e-06 0.000169353
0.00108808 2.37127e-05 -1.53381e-07
2.37127e-05 7.40683e-05 3.74281e-08
-1.53381e-07 3.74281e-08 7.49393e-06
0.000965753 2.33017e-05 -4.51164e-07
2.33017e-05 1.04624e-05 -1.14885e-06
-4.51164e-07 -1.14885e-06 -5.95044e-05
0.00122663 2.22335e-05 -3.96307e-08
2.22335e-05 0.000145814 -3.93084e-07
-3.96307e-08 -3.93084e-07 6.99703e-05
0.00178004 9.29923e-06 -5.94202e-06
9.29923e-06 0.000563823 -6.32525e-06
-5.94202e-06 -6.32525e-06 0.000550546
0.00106238 -1.65063e-05 2.10562e-06
-1.65063e-05 0.000168214 8.07501e-07
2.10562e-06 8.07501e-07 0.000128313
0.00126009 -1.29852e-06 -4.77797e-06
-1.29852e-06 0.000377892 7.2649e-06
-4.77797e-06 7.2649e-06 0.000336105
0.000366038 3.74881e-05 -2.84147e-05
3.74881e-05 7.18811e-05 1.20368e-05
-2.84147e-05 1.20368e-05 -0.000205454
0.00348619 0.000134645 7.56525e-06
0.000134645 0.000767827 -1.57262e-05
7.56525e-06 -1.57262e-05 4.42996e-05
0.00276975 0.00023138 2.6139e-05
0.00023138 0.000510873 -2.233e-05
2.6139e-05 -2.233e-05 0.000563238
0.000911218 -9.92766e-06 3.89071e-07
-9.92766e-06 5.94997e-05 1.25092e-06
3.89071e-07 1.25092e-06 9.05395e-05
8.69532e-05 -1.60999e-05 -1.55658e-05
-1.60999e-05 -5.1036e-05 1.03874e-05
-1.55658e-05 1.03874e-05 -0.000315906
0.00478961 8.36814e-05 3.31771e-05
8.36814e-05 0.000912192 -4.64962e-05
3.31771e-05 -4.64962e-05 0.000171196
7.84189e-05 0.000107073 1.71307e-06
0.000107073 -0.000743651 1.24319e-05
1.71307e-06 1.24319e-05 -0.000679854
0.000965592 1.18641e-05 2.11951e-06
1.18641e-05 4.41358e-05 -2.00042e-06
2.11951e-06 -2.00042e-06 4.09835e-05
0.000724023 -0.000152336 2.47348e-05
-0.000152336 -6.01654e-05 -4.77501e-05
2.47348e-05 -4.77501e-05 -0.000258316
0.00847827 8.51714e-05 2.85763e-05
8.51714e-05 0.00229961 -3.63195e-05
2.85763e-05 -3.63195e-05 0.00184506
0.000456171 -2.80574e-07 -5.72451e-06
-2.80574e-07 -0.000994416 7.47375e-05
-5.72451e-06 7.47375e-05 -0.000740785
-0.000578917 2.71884e-05 -1.96885e-06
2.71884e-05 -0.00090551 2.27847e-06
-1.96885e-06 2.27847e-06 -0.000850771
0.00112679 1.35974e-05 6.00479e-08
1.35974e-05 9.25615e-05 -1.10117e-06
6.00479e-08 -1.10117e-06 9.40977e-06
0.00102381 -1.17684e-06 -1.80434e-08
-1.17684e-06 4.46979e-05 -2.63727e-07
-1.80434e-08 -2.63727e-07 -3.59741e-05
0.00105269 -1.20288e-05 6.85951e-08
-1.20288e-05 6.565e-05 1.13823e-06
6.85951e-08 1.13823e-06 -1.05133e-05
0.00105718 1.34411e-05 -1.96723e-07
1.34411e-05 6.17115e-05 -7.59538e-07
-1.96723e-07 -7.59538e-07 -1.23632e-05
0.00118604 3.6568e-05 7.42743e-07
3.6568e-05 0.00012758 1.483e-06
7.42743e-07 1.483e-06 5.72373e-05
0.00125828 2.31098e-05 3.78756e-08
2.31098e-05 0.0001606 1.10275e-06
3.78756e-08 1.10275e-06 9.85415e-05
0.00219952 -0.000140195 6.53533e-06
-0.000140195 0.000211106 -9.486e-07
6.53533e-06 -9.486e-07 0.000225917
0.00100017 -1.0781e-05 -1.16478e-06
-1.0781e-05 0.000206819 6.17914e-06
-1.16478e-06 6.17914e-06 -3.839e-05
0.00109444 2.00461e-05 3.8418e-07
2.00461e-05 8.14842e-05 1.03133e-06
3.8418e-07 1.03133e-06 -4.1869e-06
0.00119819 -9.56457e-07 5.48977e-07
-9.56457e-07 0.000142351 3.37981e-07
5.48977e-07 3.37981e-07 2.13543e-05
0.00113358 5.01589e-06 2.97631e-07
5.01589e-06 9.30297e-05 1.42863e-06
2.97631e-07 1.42863e-06 -7.99171e-07
0.00112759 2.18695e-05 2.1627e-07
2.18695e-05 9.13267e-05 3.16986e-07
2.1627e-07 3.16986e-07 5.66194e-06
0.00115732 2.2667e-05 8.04763e-08
2.2667e-05 0.00010251 8.86993e-08
8.04763e-08 8.86993e-08 1.09239e-05
0.00150687 -0.000112686 5.16602e-07
-0.000112686 0.000130632 1.04647e-06
5.16602e-07 1.04647e-06 9.09077e-06
0.00126508 5.13812e-06 3.65853e-07
5.13812e-06 0.000142578 -1.25041e-06
3.65853e-07 -1.25041e-06 5.15316e-05
0.00144809 4.34969e-05 -1.73761e-06
4.34969e-05 0.00040403 -9.94627e-07
-1.73761e-06 -9.94627e-07 0.000205172
0.000951854 1.048e-05 -1.45274e-07
1.048e-05 2.09612e-06 -1.71896e-06
-1.45274e-07 -1.71896e-06 -8.86891e-05
0.00136607 -2.91556e-05 -7.4212e-06
-2.91556e-05 0.000453198 3.728e-06
-7.4212e-06 3.728e-06 0.000195309
0.000693242 2.72994e-05 -1.17671e-06
2.72994e-05 -0.000112196 -1.30132e-06
-1.17671e-06 -1.30132e-06 -0.000183174
0.00109147 -2.25174e-06 -4.904e-08
-2.25174e-06 6.86752e-05 -1.47798e-06
-4.904e-08 -1.47798e-06 -2.628e-05
0.00127529 -4.25024e-06 5.67735e-07
-4.25024e-06 0.000331254 -9.12494e-07
5.67735e-07 -9.12494e-07 0.000238318
0.000931771 -4.80909e-06 6.8961e-08
-4.80909e-06 0.000147141 2.85277e-07
6.8961e-08 2.85277e-07 4.87746e-05
0.00109211 -3.84677e-06 -1.70286e-05
-3.84677e-06 0.000324038 9.37687e-07
-1.70286e-05 9.37687e-07 0.000245175
0.00149121 4.73292e-05 9.56826e-07
4.73292e-05 0.000291666 4.24817e-06
9.56826e-07 4.24817e-06 0.000207397
-4.01789e-06 4.44277e-05 5.28686e-06
4.44277e-05 -0.00019076 -7.69834e-06
5.28686e-06 -7.69834e-06 -0.000235521
0.000740802 2.57526e-06 1.02612e-06
2.57526e-06 2.79674e-06 -3.44042e-07
1.02612e-06 -3.44042e-07 -8.59842e-05
0.00427121 -1.72425e-05 -1.84171e-05
-1.72425e-05 0.000781459 -1.17796e-05
-1.84171e-05 -1.17796e-05 0.000624887
-0.0011769 1.22939e-05 -4.57688e-08
1.22939e-05 -0.00169062 7.27548e-05
-4.57688e-08 7.27548e-05 -0.00141206
9.35819e-05 -9.48603e-06 6.61865e-07
-9.48603e-06 -0.000501432 -4.6203e-06
6.61865e-07 -4.6203e-06 -0.000542233
0.000716364 -1.83449e-05 1.06132e-06
-1.83449e-05 -5.56078e-05 -6.45192e-06
1.06132e-06 -6.45192e-06 -2.9209e-05
0.000867825 2.92344e-05 4.20647e-06
2.92344e-05 8.39491e-05 2.60836e-07
4.20647e-06 2.60836e-07 6.57771e-06
0.00105492 -5.71692e-06 4.2008e-07
-5.71692e-06 0.000169505 2.33521e-06
4.2008e-07 2.33521e-06 8.58214e-05
0.00110003 -2.23782e-05 -3.04902e-06
-2.23782e-05 0.000183384 -3.7667e-07
-3.04902e-06 -3.7667e-07 0.000120569
0.000663701 0.000118897 9.86921e-06
0.000118897 0.000105082 7.48442e-07
9.86921e-06 7.48442e-07 -9.44987e-05
0.000964892 3.74413e-05 1.03667e-06
3.74413e-05 -6.05594e-05 -2.87994e-06
1.03667e-06 -2.87994e-06 0.000144292
5.17972e-05 0.00012007 1.00899e-06
0.00012007 -0.000696351 -1.23664e-05
1.00899e-06 -1.23664e-05 -0.000630544
0.00719354 -1.21878e-05 6.1235e-06
-1.21878e-05 0.00169251 -2.09331e-05
6.1235e-06 -2.09331e-05 0.0016034
-0.000189117 9.97623e-07 -1.01343e-05
9.97623e-07 1.04913e-05 -1.14061e-05
-1.01343e-05 -1.14061e-05 -0.000211763
0.00106924 -1.22418e-05 -5.31807e-07
-1.22418e-05 0.000218996 1.21775e-06
-5.31807e-07 1.21775e-06 0.000117869
0.00107245 -7.66713e-07 -1.8555e-05
-7.66713e-07 0.000253151 5.40249e-06
-1.8555e-05 5.40249e-06 0.000195543
0.00108859 7.3065e-05 5.34265e-06
7.3065e-05 8.59467e-06 1.25577e-06
5.34265e-06 1.25577e-06 0.000247102
-0.00225174 0.000179384 2.9799e-05
0.000179384 -0.00165831 -4.09955e-05
2.9799e-05 -4.09955e-05 -0.00160951
0.00764461 0.000125465 -4.36945e-06
0.000125465 0.0021447 -7.47606e-06
-4.36945e-06 -7.47606e-06 0.00148188
0.00126374 -7.97478e-06 -1.31815e-05
-7.97478e-06 0.000445704 8.84093e-05
-1.31815e-05 8.84093e-05 3.84328e-05
0.00135741 2.22879e-05 -7.7173e-08
2.22879e-05 0.000245791 2.22577e-06
-7.7173e-08 2.22577e-06 0.000129674
0.000695197 -7.59725e-06 8.68124e-07
-7.59725e-06 3.72823e-05 -1.93772e-06
8.68124e-07 -1.93772e-06 -0.000195045
0.000706597 -2.16292e-05 -6.22562e-07
-2.16292e-05 0.000118415 -3.40408e-07
-6.22562e-07 -3.40408e-07 -0.000167362
0.00109435 -3.2882e-05 2.96135e-07
-3.2882e-05 7.51584e-05 -7.86051e-07
2.96135e-07 -7.86051e-07 -2.37193e-05
0.000973742 -1.58908e-05 1.02296e-06
-1.58908e-05 5.17768e-05 1.7501e-06
1.02296e-06 1.7501e-06 -6.00737e-05
0.000936868 -1.81395e-05 -1.22572e-07
-1.81395e-05 7.05969e-05 5.44212e-07
-1.22572e-07 5.44212e-07 -5.30982e-05
0.000902102 -5.18305e-05 1.81081e-06
-5.18305e-05 0.000113426 -1.64848e-06
1.81081e-06 -1.64848e-06 -7.43922e-05
0.00127667 -4.5352e-05 1.63348e-07
-4.5352e-05 0.000179811 2.49574e-07
1.63348e-07 2.49574e-07 8.08206e-05
0.00123872 -5.11487e-05 -2.77575e-07
-5.11487e-05 0.00018972 4.82441e-07
-2.77575e-07 4.82441e-07 7.0232e-05
0.00122742 -6.01682e-05 7.45922e-07
-6.01682e-05 0.000186485 2.06095e-06
7.45922e-07 2.06095e-06 4.84926e-05
0.000748508 -3.72287e-05 2.3665e-07
-3.72287e-05 -6.63583e-05 -1.33173e-06
2.3665e-07 -1.33173e-06 -0.000162187
0.0011924 -5.08721e-05 -1.13443e-07
-5.08721e-05 0.000139028 -1.03798e-08
-1.13443e-07 -1.03798e-08 3.40601e-05
0.00150911 -6.21438e-05 -1.59007e-06
-6.21438e-05 0.000260494 1.5339e-06
-1.59007e-06 1.5339e-06 0.000155485
0.00139094 -5.63293e-05 -1.59117e-06
-5.63293e-05 0.000189214 2.01362e-06
-1.59117e-06 2.01362e-06 9.85377e-05
0.00089081 -4.19015e-05 -3.48644e-07
-4.19015e-05 -3.37406e-05 1.76144e-06
-3.48644e-07 1.76144e-06 -0.000111219
0.0011314 -5.01984e-05 -3.30544e-07
-5.01984e-05 7.42841e-05 2.64717e-07
-3.30544e-07 2.64717e-07 -1.56082e-05
0.00112609 -4.83095e-05 -3.14428e-07
-4.83095e-05 8.67728e-05 -9.83112e-07
-3.14428e-07 -9.83112e-07 -5.59745e-06
0.00123125 -4.3401e-05 3.11865e-07
-4.3401e-05 0.000142817 -2.77259e-08
3.11865e-07 -2.77259e-08 7.36801e-05
0.00112593 -4.37146e-05 9.12232e-07
-4.37146e-05 9.16034e-05 -5.91265e-07
9.12232e-07 -5.91265e-07 1.90443e-05
0.000948134 -2.61382e-05 -4.87039e-07
-2.61382e-05 1.53544e-05 5.83311e-07
-4.87039e-07 5.83311e-07 -5.16233e-05
0.00103888 -3.76933e-05 1.73843e-07
-3.76933e-05 6.07678e-05 -9.802e-08
1.73843e-07 -9.802e-08 -1.09096e-05
0.00109173 -4.38004e-05 2.41045e-06
-4.38004e-05 7.36528e-05 -1.35374e-06
2.41045e-06 -1.35374e-06 -2.86021e-06
0.00102771 -8.55233e-06 -1.5965e-06
-8.55233e-06 4.20394e-05 8.7285e-07
-1.5965e-06 8.7285e-07 -1.52669e-05
0.0010915 -3.18308e-05 -2.65789e-07
-3.18308e-05 7.647e-05 -4.85122e-08
-2.65789e-07 -4.85122e-08 9.76533e-06
0.00113334 -4.07691e-05 3.86032e-07
-4.07691e-05 9.83786e-05 -1.09314e-07
3.86032e-07 -1.09314e-07 2.56282e-05
0.000968306 -1.72399e-06 -2.17516e-06
-1.72399e-06 8.18022e-06 2.19553e-06
-2.17516e-06 2.19553e-06 -3.05076e-05
0.00104358 -1.73501e-05 7.57954e-08
-1.73501e-05 4.62358e-05 1.1689e-07
7.57954e-08 1.1689e-07 -1.19959e-05
0.00102091 -3.35689e-05 1.2921e-06
-3.35689e-05 3.95349e-05 -1.60097e-07
1.2921e-06 -1.60097e-07 -3.03856e-05
0.00103522 -1.66012e-05 1.30113e-06
-1.66012e-05 4.30822e-05 -1.1463e-06
1.30113e-06 -1.1463e-06 -1.57728e-05
0.000968519 3.14444e-07 2.09807e-07
3.14444e-07 6.96967e-06 7.40748e-09
2.09807e-07 7.40748e-09 -3.07725e-05
0.0008775 1.38177e-05 -2.46107e-06
1.38177e-05 -4.06346e-05 3.47248e-06
-2.46107e-06 3.47248e-06 -4.74533e-05
0.000966384 1.32284e-06 1.34463e-06
1.32284e-06 4.9303e-06 -2.16767e-06
1.34463e-06 -2.16767e-06 -3.11619e-05
0.000897265 1.22762e-05 1.08863e-07
1.22762e-05 -3.44333e-05 -9.36265e-09
1.08863e-07 -9.36265e-09 -3.99667e-05
0.00246427 1.89186e-05 -1.11346e-05
1.89186e-05 0.000747948 4.03802e-06
-1.11346e-05 4.03802e-06 0.000767742
0.00091661 1.04955e-05 1.89385e-06
1.04955e-05 -2.86435e-05 -3.35315e-06
1.89385e-06 -3.35315e-06 -3.28989e-05
0.00175905 1.45677e-05 4.11837e-06
1.45677e-05 0.000391679 -1.20526e-06
4.11837e-06 -1.20526e-06 0.000409374
0.00239681 1.27667e-05 8.766e-06
1.27667e-05 0.00070738 -4.10925e-06
8.766e-06 -4.10925e-06 0.000728835
0.0010127 1.03335e-05 -4.96405e-07
1.03335e-05 3.05359e-05 -1.5101e-06
-4.96405e-07 -1.5101e-06 -2.44839e-05
0.000965512 -9.38791e-06 -6.95619e-07
-9.38791e-06 1.3943e-06 -2.04702e-06
-6.95619e-07 -2.04702e-06 -3.04068e-05
0.000917137 5.04519e-06 -3.70847e-07
5.04519e-06 -1.67081e-05 -5.78333e-07
-3.70847e-07 -5.78333e-07 -6.9325e-05
0.000931167 -9.25137e-06 -1.37023e-06
-9.25137e-06 -2.5089e-05 -3.28274e-06
-1.37023e-06 -3.28274e-06 -2.65684e-05
0.000847648 -6.20399e-06 -2.13763e-07
-6.20399e-06 -5.97495e-05 -5.82195e-07
-2.13763e-07 -5.82195e-07 -9.02692e-05
0.00112155 -2.91052e-06 2.05946e-07
-2.91052e-06 8.37777e-05 7.77389e-07
2.05946e-07 7.77389e-07 3.49614e-05
0.00228142 -9.60234e-06 -6.77231e-06
-9.60234e-06 0.00064599 -4.0562e-06
-6.77231e-06 -4.0562e-06 0.000669169
0.000921876 -6.94427e-06 -8.14184e-08
-6.94427e-06 -3.28833e-05 -6.96233e-09
-8.14184e-08 -6.96233e-09 -3.27183e-05
0.000722664 -4.51056e-06 3.09074e-07
-4.51056e-06 -0.000123759 1.36054e-06
3.09074e-07 1.36054e-06 -0.000153139
0.00225721 -6.25578e-06 -7.89489e-07
-6.25578e-06 0.000631198 1.73301e-08
-7.89489e-07 1.73301e-08 0.000655171
0.000915989 -4.5292e-06 5.8215e-07
-4.5292e-06 -3.80464e-05 3.27989e-06
5.8215e-07 3.27989e-06 -3.66197e-05
0.00223317 -2.96519e-06 1.75047e-06
-2.96519e-06 0.000617678 4.01131e-06
1.75047e-06 4.01131e-06 0.000642186
0.00135733 8.70945e-08 1.46114e-06
8.70945e-08 0.000365953 -3.1209e-06
1.46114e-06 -3.1209e-06 0.00030049
0.00103189 -1.25919e-05 3.98932e-07
-1.25919e-05 0.000199291 2.00526e-07
3.98932e-07 2.00526e-07 0.000117179
0.00087722 -6.25507e-06 -1.09195e-05
-6.25507e-06 0.000179087 1.20841e-06
-1.09195e-05 1.20841e-06 0.000110843
0.000986889 2.75078e-05 -6.33065e-07
2.75078e-05 2.03876e-05 -9.43505e-07
-6.33065e-07 -9.43505e-07 -5.1405e-05
0.00114139 3.90664e-05 -3.78795e-07
3.90664e-05 9.69969e-05 -2.18657e-07
-3.78795e-07 -2.18657e-07 1.98148e-05
0.00111781 2.858e-05 6.67648e-07
2.858e-05 8.88388e-05 1.13991e-06
6.67648e-07 1.13991e-06 2.25503e-05
0.000958113 2.41418e-05 -7.85339e-09
2.41418e-05 7.26394e-06 9.77177e-09
-7.85339e-09 9.77177e-09 -6.31582e-05
0.00112833 1.9275e-05 -3.96024e-08
1.9275e-05 9.5973e-05 4.3348e-07
-3.96024e-08 4.3348e-07 1.94119e-05
0.00111169 3.29909e-05 -4.87303e-07
3.29909e-05 8.65014e-05 -6.94148e-07
-4.87303e-07 -6.94148e-07 7.13014e-06
0.00112236 3.275e-05 -6.01835e-08
3.275e-05 9.46313e-05 -2.9161e-07
-6.01835e-08 -2.9161e-07 1.10521e-05
0.000811173 3.12878e-05 3.80405e-07
3.12878e-05 3.22425e-05 -8.98148e-06
3.80405e-07 -8.98148e-06 -1.14235e-05
0.000882185 7.92384e-06 -1.32305e-06
7.92384e-06 3.62934e-06 -4.13833e-07
-1.32305e-06 -4.13833e-07 -1.24004e-05
0.00096816 -1.70155e-05 4.93213e-06
-1.70155e-05 9.95275e-05 1.42499e-06
4.93213e-06 1.42499e-06 6.30275e-05
0.000131501 1.16932e-05 -3.69323e-07
1.16932e-05 -0.000419548 -3.98084e-06
-3.69323e-07 -3.98084e-06 -0.000437206
0.00176783 -4.48569e-05 -6.79297e-05
-4.48569e-05 0.000404165 6.05288e-05
-6.79297e-05 6.05288e-05 -2.46469e-05
0.00194089 7.59159e-05 4.84448e-05
7.59159e-05 -6.58273e-05 -6.30098e-05
4.84448e-05 -6.30098e-05 -0.000684888
0.00582591 0.000163876 7.82207e-06
0.000163876 0.00154899 -3.04139e-05
7.82207e-06 -3.04139e-05 0.00173184
0.000659263 -0.000134368 -2.69023e-05
-0.000134368 -0.000207914 2.60049e-05
-2.69023e-05 2.60049e-05 -0.000507326
0.0023709 -4.2849e-05 1.23393e-05
-4.2849e-05 -0.00059631 -5.1317e-05
1.23393e-05 -5.1317e-05 -0.00119069
0.0030099 1.20486e-05 -8.10629e-06
1.20486e-05 2.16043e-05 -2.97133e-07
-8.10629e-06 -2.97133e-07 0.000249705
0.00149461 1.70768e-05 3.94347e-07
1.70768e-05 0.000291012 3.78073e-06
3.94347e-07 3.78073e-06 0.000372276
0.00103964 -0.000133851 3.13933e-05
-0.000133851 0.000158326 -2.14684e-05
3.13933e-05 -2.14684e-05 -2.2719e-05
0.0036697 -0.000148668 -2.04551e-05
-0.000148668 -0.000235474 -0.000105868
-2.04551e-05 -0.000105868 -0.000621406
-0.000406148 -6.70215e-05 8.81226e-06
-6.70215e-05 -0.00123149 5.49406e-05
8.81226e-06 5.49406e-05 -0.00103557
-0.00107437 -2.46276e-05 -4.80462e-06
-2.46276e-05 -0.00124096 -8.58218e-07
-4.80462e-06 -8.58218e-07 -0.00109202
0.00115903 2.21099e-05 -9.03979e-07
2.21099e-05 0.000102845 -1.42329e-06
-9.03979e-07 -1.42329e-06 1.60826e-05
0.00111385 1.27277e-05 6.44114e-08
1.27277e-05 8.64926e-05 -2.35456e-07
6.44114e-08 -2.35456e-07 2.88497e-06
0.00104052 3.31327e-07 5.2515e-09
3.31327e-07 5.36231e-05 7.25369e-07
5.2515e-09 7.25369e-07 -2.73017e-05
0.00107615 1.37402e-05 -7.06046e-11
1.37402e-05 7.08885e-05 2.19942e-07
-7.06046e-11 2.19942e-07 -3.1836e-06
0.00138702 -0.000112819 9.91423e-06
-0.000112819 2.95836e-05 1.27743e-06
9.91423e-06 1.27743e-06 -5.58881e-05
0.00145849 4.01167e-05 9.24859e-07
4.01167e-05 0.000427325 5.44273e-06
9.24859e-07 5.44273e-06 0.000223622
0.00108772 2.29325e-05 3.49628e-07
2.29325e-05 7.20385e-05 1.04902e-06
3.49628e-07 1.04902e-06 -1.33456e-05
0.00106337 1.14719e-05 -3.07979e-07
1.14719e-05 5.50588e-05 1.01249e-06
-3.07979e-07 1.01249e-06 -3.67948e-05
0.00146309 1.38246e-06 -4.15876e-07
1.38246e-06 0.000236502 1.04578e-06
-4.15876e-07 1.04578e-06 0.000146911
0.0010437 1.74495e-05 -7.76377e-07
1.74495e-05 4.76968e-05 -1.68958e-07
-7.76377e-07 -1.68958e-07 -4.32505e-05
0.00105614 -2.99007e-06 -9.01859e-07
-2.99007e-06 4.88085e-05 2.98568e-07
-9.01859e-07 2.98568e-07 -4.66708e-05
0.000932622 -1.8514e-05 1.41579e-05
-1.8514e-05 0.000271928 -8.64439e-07
1.41579e-05 -8.64439e-07 6.71363e-05
0.000949849 1.23129e-05 2.18795e-06
1.23129e-05 1.91763e-05 9.66207e-07
2.18795e-06 9.66207e-07 -4.773e-05
0.00124092 4.88062e-06 -2.09918e-07
4.88062e-06 0.000149188 -2.07653e-06
-2.09918e-07 -2.07653e-06 5.00803e-05
0.00122028 1.62738e-05 9.38219e-06
1.62738e-05 0.000555724 8.04322e-06
9.38219e-06 8.04322e-06 0.000461633
0.00161483 -2.83413e-05 5.14832e-06
-2.83413e-05 0.000350834 -5.53528e-06
5.14832e-06 -5.53528e-06 0.000219311
0.00142338 -2.80405e-06 5.8904e-08
-2.80405e-06 0.000463138 -8.15284e-07
5.8904e-08 -8.15284e-07 0.000355728
0.000951851 -4.81445e-06 1.94627e-07
-4.81445e-06 0.000130453 -7.58649e-07
1.94627e-07 -7.58649e-07 3.6626e-05
0.000466457 -5.64635e-06 1.32447e-06
-5.64635e-06 -0.000141961 7.03634e-07
1.32447e-06 7.03634e-07 -0.000240151
0.00139114 2.34369e-05 -4.26191e-06
2.34369e-05 0.000286198 7.37316e-06
-4.26191e-06 7.37316e-06 0.000214356
0.000914208 6.94759e-05 -1.67718e-05
6.94759e-05 0.000464683 1.27733e-05
-1.67718e-05 1.27733e-05 0.000456838
0.000701332 -6.79984e-06 5.31054e-07
-6.79984e-06 -4.71217e-05 -6.07056e-07
5.31054e-07 -6.07056e-07 -0.000133479
0.00267411 0.000135663 7.73423e-06
0.000135663 -0.000199133 -9.28476e-05
7.73423e-06 -9.28476e-05 -0.000709187
0.00477414 0.000166903 -8.70358e-06
0.000166903 0.00117096 2.45821e-05
-8.70358e-06 2.45821e-05 0.00133676
0.00104244 -2.38696e-05 -4.84425e-06
-2.38696e-05 0.000137198 -5.23772e-06
-4.84425e-06 -5.23772e-06 7.74649e-05
0.00136019 3.38861e-05 5.23262e-07
3.38861e-05 0.000177672 -9.19412e-06
5.23262e-07 -9.19412e-06 0.000371231
8.01508e-05 -2.61471e-06 1.11858e-06
-2.61471e-06 7.64016e-05 -9.41811e-07
1.11858e-06 -9.41811e-07 -0.000119457
0.00106979 -1.23327e-05 -6.88498e-07
-1.23327e-05 0.000216235 -1.08826e-07
-6.88498e-07 -1.08826e-07 0.000116603
0.0011913 -2.99935e-06 -5.65122e-06
-2.99935e-06 0.000329454 1.06891e-06
-5.65122e-06 1.06891e-06 0.000272628
0.00185734 -2.26675e-05 -7.26344e-06
-2.26675e-05 0.00081164 1.47886e-05
-7.26344e-06 1.47886e-05 0.000679975
0.000563442 7.93004e-05 -3.25995e-07
7.93004e-05 -0.00028067 -2.07542e-06
-3.25995e-07 -2.07542e-06 -5.31366e-05
0.000522495 0.00019679 2.76297e-06
0.00019679 -0.000460983 -8.30294e-06
2.76297e-06 -8.30294e-06 -0.000428883
0.0025052 2.19719e-05 1.61783e-05
2.19719e-05 6.96859e-05 -1.46876e-05
1.61783e-05 -1.46876e-05 -0.000705304
0.000496317 -4.79882e-05 4.12051e-06
-4.79882e-05 0.00027261 -2.0927e-05
4.12051e-06 -2.0927e-05 -3.09798e-05
0.00127779 -7.18685e-06 -1.19172e-05
-7.18685e-06 0.000428689 2.43396e-06
-1.19172e-05 2.43396e-06 0.000344131
-0.000937424 3.34654e-05 3.56174e-06
3.34654e-05 -0.000992871 -3.6598e-06
3.56174e-06 -3.6598e-06 -0.000944553
0.000217838 0.000146923 5.11086e-05
0.000146923 -8.5453e-05 -2.68274e-05
5.11086e-05 -2.68274e-05 -1.1522e-05
0.00598399 0.000257787 2.56944e-05
0.000257787 0.00172232 -4.15323e-05
2.56944e-05 -4.15323e-05 0.00103743
0.00172676 -0.00012907 -4.12535e-05
-0.00012907 0.000126286 9.99001e-05
-4.12535e-05 9.99001e-05 -0.000394292
0.000898338 -7.75603e-06 -1.10841e-06
-7.75603e-06 0.000135615 -2.70592e-06
-1.10841e-06 -2.70592e-06 -9.55188e-05
0.000708642 -1.38937e-05 -1.31875e-07
-1.38937e-05 0.000121829 -8.2959e-07
-1.31875e-07 -8.2959e-07 -0.000167072
0.00120624 -6.91193e-05 -7.55445e-07
-6.91193e-05 0.000304193 4.5624e-06
-7.55445e-07 4.5624e-06 3.65834e-05
0.000860228 -1.73651e-05 -2.17213e-07
-1.73651e-05 3.20777e-05 8.59455e-07
-2.17213e-07 8.59455e-07 -8.79503e-05
0.000703781 -3.98432e-05 3.31775e-07
-3.98432e-05 2.8403e-05 3.66861e-09
3.31775e-07 3.66861e-09 -0.000161227
0.00116501 -7.62832e-05 2.15978e-06
-7.62832e-05 0.000175495 3.8442e-06
2.15978e-06 3.8442e-06 -3.96366e-07
0.0014612 -5.80996e-05 -9.86428e-07
-5.80996e-05 0.000293363 -7.61222e-08
-9.86428e-07 -7.61222e-08 0.000169241
0.00125066 -6.07761e-05 -4.23804e-07
-6.07761e-05 0.000192727 8.23544e-07
-4.23804e-07 8.23544e-07 5.27113e-05
0.00138497 -7.18172e-05 -1.63922e-06
-7.18172e-05 0.00020448 6.92829e-07
-1.63922e-06 6.92829e-07 7.50815e-05
0.00121654 -5.13433e-05 -3.35503e-07
-5.13433e-05 0.000149485 -1.37216e-06
-3.35503e-07 -1.37216e-06 4.26298e-05
0.00143556 -6.14709e-05 -4.53076e-07
-6.14709e-05 0.000222939 4.35978e-08
-4.53076e-07 4.35978e-08 0.000116027
0.00138087 -6.09217e-05 -9.93487e-07
-6.09217e-05 0.000175923 3.47232e-07
-9.93487e-07 3.47232e-07 7.70874e-05
0.00127466 -5.20877e-05 -1.30665e-06
-5.20877e-05 0.000108426 3.4423e-07
-1.30665e-06 3.4423e-07 2.37682e-05
0.001419 -5.28678e-05 -1.49034e-06
-5.28678e-05 0.000204882 2.29827e-06
-1.49034e-06 2.29827e-06 0.000123634
0.00131865 -5.52353e-05 -1.32025e-07
-5.52353e-05 0.000153925 2.02615e-08
-1.32025e-07 2.02615e-08 6.27116e-05
0.000880466 -3.92361e-05 -6.4171e-09
-3.92361e-05 -3.42145e-05 4.33115e-07
-6.4171e-09 4.33115e-07 -0.000104546
0.00102727 -4.41682e-05 6.66642e-07
-4.41682e-05 3.34843e-05 -1.83555e-07
6.66642e-07 -1.83555e-07 -4.34146e-05
0.00106969 -4.93606e-05 4.33131e-07
-4.93606e-05 4.59828e-05 -1.78996e-06
4.33131e-07 -1.78996e-06 -4.53364e-05
0.00111566 -3.43567e-05 -1.4926e-07
-3.43567e-05 8.92173e-05 3.66005e-07
-1.4926e-07 3.66005e-07 2.27076e-05
0.00115295 -4.19682e-05 4.03775e-08
-4.19682e-05 0.000105462 -1.55367e-07
4.03775e-08 -1.55367e-07 3.60066e-05
0.00098095 -4.09587e-05 1.43115e-06
-4.09587e-05 2.15455e-05 -9.57345e-07
1.43115e-06 -9.57345e-07 -4.95792e-05
0.000982301 -2.69083e-08 -8.50656e-07
-2.69083e-08 2.58196e-05 9.61106e-07
-8.50656e-07 9.61106e-07 -3.20087e-05
0.000984673 -2.59221e-05 -1.62938e-07
-2.59221e-05 3.23334e-05 1.00926e-07
-1.62938e-07 1.00926e-07 -3.42321e-05
0.00113076 -3.91534e-05 6.82906e-07
-3.91534e-05 0.000104918 -4.63795e-07
6.82906e-07 -4.63795e-07 3.3907e-05
0.000943514 4.0092e-06 -2.44526e-06
4.0092e-06 -5.35962e-07 2.00983e-06
-2.44526e-06 2.00983e-06 -3.95051e-05
0.00103334 -9.42719e-06 -3.18016e-07
-9.42719e-06 4.39334e-05 -7.66033e-09
-3.18016e-07 -7.66033e-09 -1.32035e-05
0.00110036 -3.2316e-05 5.74231e-07
-3.2316e-05 7.97889e-05 -2.38482e-07
5.74231e-07 -2.38482e-07 1.32363e-05
0.000910341 1.55043e-05 -4.03665e-06
1.55043e-05 -2.16385e-05 4.7502e-06
-4.03665e-06 4.7502e-06 -2.96278e-05
0.00096614 1.15459e-06 1.50454e-07
1.15459e-06 7.1549e-06 4.32378e-08
1.50454e-07 4.32378e-08 -3.14499e-05
0.00103902 -1.84535e-05 1.67746e-06
-1.84535e-05 4.3351e-05 -8.80025e-07
1.67746e-06 -8.80025e-07 -1.46618e-05
0.000962411 1.38113e-06 1.82789e-06
1.38113e-06 3.99257e-06 -2.15672e-06
1.82789e-06 -2.15672e-06 -3.37149e-05
0.000885132 1.39367e-05 1.52715e-07
1.39367e-05 -3.67444e-05 3.25138e-09
1.52715e-07 3.25138e-09 -4.36474e-05
0.00251119 2.19447e-05 -1.2556e-05
2.19447e-05 0.000775437 4.01728e-06
-1.2556e-05 4.01728e-06 0.000794168
0.000906876 1.23542e-05 2.27102e-06
1.23542e-05 -2.97164e-05 -3.41749e-06
2.27102e-06 -3.41749e-06 -3.53309e-05
0.00246168 1.89142e-05 4.3646e-07
1.89142e-05 0.00074704 3.91624e-08
4.3646e-07 3.91624e-08 0.000766744
0.00242328 1.58661e-05 1.04162e-05
1.58661e-05 0.000724299 -4.10039e-06
1.04162e-05 -4.10039e-06 0.000744896
0.00106527 3.17239e-05 -8.53547e-07
3.17239e-05 5.89959e-05 -7.4257e-07
-8.53547e-07 -7.4257e-07 -1.29836e-05
0.00102795 7.97025e-06 -7.01268e-07
7.97025e-06 3.74729e-05 -1.52731e-06
-7.01268e-07 -1.52731e-06 -2.07529e-05
0.000955854 -1.27782e-05 -9.8343e-07
-1.27782e-05 -4.57116e-07 -2.19516e-06
-9.8343e-07 -2.19516e-06 -3.49099e-05
0.00102192 9.29137e-06 5.26902e-09
9.29137e-06 3.51034e-05 -4.8016e-08
5.26902e-09 -4.8016e-08 -1.99198e-05
0.000924837 -1.1242e-05 -1.75523e-06
-1.1242e-05 -2.44184e-05 -3.32985e-06
-1.75523e-06 -3.32985e-06 -2.77026e-05
0.000970765 -1.0349e-05 1.03023e-09
-1.0349e-05 4.02954e-06 -1.015e-08
1.03023e-09 -1.015e-08 -2.77756e-05
0.00101396 1.06912e-05 1.37658e-07
1.06912e-05 3.15664e-05 9.07772e-07
1.37658e-07 9.07772e-07 -2.03597e-05
0.0023225 -1.28336e-05 -8.45279e-06
-1.28336e-05 0.000669865 -4.07332e-06
-8.45279e-06 -4.07332e-06 0.000692052
0.000915428 -9.22777e-06 -8.24643e-08
-9.22777e-06 -3.2774e-05 -1.61493e-08
-8.24643e-08 -1.61493e-08 -3.41669e-05
0.00098537 -6.46789e-06 4.47409e-07
-6.46789e-06 8.66667e-06 1.35328e-06
4.47409e-07 1.35328e-06 -2.11923e-05
0.00228548 -9.52746e-06 -6.74003e-07
-9.52746e-06 0.000647625 2.36989e-08
-6.74003e-07 2.36989e-08 0.000670899
0.000909184 -6.89597e-06 9.13409e-07
-6.89597e-06 -3.91524e-05 3.29181e-06
9.13409e-07 3.29181e-06 -3.89002e-05
0.00226059 -6.17366e-06 4.00865e-06
-6.17366e-06 0.000632634 4.02405e-06
4.00865e-06 4.02405e-06 0.000656674
0.000840759 1.00599e-05 9.87619e-07
1.00599e-05 8.76336e-05 -1.79768e-06
9.87619e-07 -1.79768e-06 -4.00033e-06
0.000968259 -1.38509e-06 -4.43395e-07
-1.38509e-06 0.00012419 -2.98331e-06
-4.43395e-07 -2.98331e-06 5.47919e-05
0.00100131 -1.24991e-05 9.44173e-07
-1.24991e-05 0.000176426 2.27443e-06
9.44173e-07 2.27443e-06 9.63549e-05
0.00102796 2.78801e-05 2.33871e-08
2.78801e-05 4.15475e-05 5.27311e-08
2.33871e-08 5.27311e-08 -3.01381e-05
0.00109487 3.80402e-05 2.96204e-07
3.80402e-05 7.41068e-05 1.44374e-07
2.96204e-07 1.44374e-07 -3.41895e-06
0.00105374 3.47726e-05 -9.44926e-07
3.47726e-05 5.35425e-05 -6.29549e-07
-9.44926e-07 -6.29549e-07 -2.28692e-05
0.00101732 3.55677e-05 -8.57226e-07
3.55677e-05 3.6507e-05 -7.91052e-07
-8.57226e-07 -7.91052e-07 -4.22043e-05
0.00116805 4.00375e-05 -3.07287e-07
4.00375e-05 0.00011152 -3.21223e-07
-3.07287e-07 -3.21223e-07 3.13838e-05
0.000948857 2.51964e-05 5.14462e-07
2.51964e-05 3.27068e-06 1.14603e-06
5.14462e-07 1.14603e-06 -6.76148e-05
0.00102315 1.65444e-05 1.46673e-07
1.65444e-05 4.27661e-05 1.35951e-06
1.46673e-07 1.35951e-06 -3.45141e-05
0.00110132 3.57788e-05 -2.82782e-08
3.57788e-05 8.1731e-05 -1.19295e-08
-2.82782e-08 -1.19295e-08 2.31118e-06
0.00108168 2.44702e-05 1.07358e-07
2.44702e-05 7.25062e-05 5.31018e-07
1.07358e-07 5.31018e-07 -1.07115e-05
0.00114054 3.4326e-05 -5.6906e-07
3.4326e-05 0.000102481 -3.4073e-07
-5.6906e-07 -3.4073e-07 1.75999e-05
0.000708319 -2.69951e-06 -9.07302e-06
-2.69951e-06 7.75166e-05 -1.1804e-05
-9.07302e-06 -1.1804e-05 1.00367e-05
0.000898464 2.99637e-05 -1.41008e-06
2.99637e-05 8.71505e-05 -2.99672e-06
-1.41008e-06 -2.99672e-06 4.08457e-05
5.0595e-05 6.47347e-06 -1.7378e-07
6.47347e-06 -0.000516219 1.8554e-07
-1.7378e-07 1.8554e-07 -0.000534829
0.000989227 2.0095e-05 7.15695e-06
2.0095e-05 1.90602e-06 5.52538e-06
7.15695e-06 5.52538e-06 6.50075e-05
-0.000228599 1.13449e-05 5.08947e-07
1.13449e-05 -0.00139315 -7.31764e-05
5.08947e-07 -7.31764e-05 -0.00109596
0.00136841 -0.000177502 -5.38074e-05
-0.000177502 -1.18674e-05 9.2886e-05
-5.38074e-05 9.2886e-05 -0.000423919
0.00706418 8.39611e-05 -1.00603e-05
8.39611e-05 0.00168186 -4.29097e-05
-1.00603e-05 -4.29097e-05 0.00128785
0.00036941 -0.000167649 -2.41069e-05
-0.000167649 -0.000351093 2.65806e-05
-2.41069e-05 2.65806e-05 -0.000755593
0.006954 -5.14293e-05 5.25909e-06
-5.14293e-05 0.00111565 4.43166e-06
5.25909e-06 4.43166e-06 0.00114539
0.00144334 -0.000130801 3.88231e-06
-0.000130801 -0.000249352 -1.79748e-05
3.88231e-06 -1.79748e-05 -0.000236494
4.40498e-05 -2.44528e-05 1.13673e-06
-2.44528e-05 -0.000557374 4.88596e-06
1.13673e-06 4.88596e-06 -0.000400727
0.00157523 -7.77901e-05 -7.40838e-06
-7.77901e-05 0.000410743 -5.37378e-05
-7.40838e-06 -5.37378e-05 2.64131e-05
0.00683998 -0.000178329 -1.88172e-05
-0.000178329 0.0016212 5.15024e-05
-1.88172e-05 5.15024e-05 0.00112295
0.00397596 -0.000199052 6.53131e-06
-0.000199052 0.00114732 2.3592e-05
6.53131e-06 2.3592e-05 0.00119407
0.00161572 -7.6858e-05 -1.86173e-06
-7.6858e-05 0.000296223 -5.87386e-07
-1.86173e-06 -5.87386e-07 0.000556186
0.00103918 3.13205e-05 -7.94152e-07
3.13205e-05 5.70078e-05 -1.91104e-06
-7.94152e-07 -1.91104e-06 -2.87048e-05
0.0011315 2.25113e-05 -6.54627e-08
2.25113e-05 9.32311e-05 -1.51249e-07
-6.54627e-08 -1.51249e-07 6.00459e-06
0.00109524 8.25952e-06 1.56667e-07
8.25952e-06 7.72111e-05 7.97214e-07
1.56667e-07 7.97214e-07 -6.6634e-06
0.000637875 -9.3449e-06 1.25211e-05
-9.3449e-06 0.000123537 -4.51936e-06
1.25211e-05 -4.51936e-06 -2.33425e-05
0.00106031 -1.14008e-06 9.13482e-07
-1.14008e-06 7.91873e-05 5.81709e-06
9.13482e-07 5.81709e-06 1.63074e-05
0.00110638 1.93939e-05 1.55089e-07
1.93939e-05 7.88022e-05 1.79675e-06
1.55089e-07 1.79675e-06 -1.2011e-05
0.00101248 5.81753e-07 2.96794e-08
5.81753e-07 2.53765e-05 2.08163e-06
2.96794e-08 2.08163e-06 -7.05509e-05
0.00114973 4.43287e-06 3.944e-07
4.43287e-06 0.000107752 -4.70172e-08
3.944e-07 -4.70172e-08 8.79383e-06
0.00106484 -2.15258e-05 6.18269e-07
-2.15258e-05 0.000106812 1.27737e-07
6.18269e-07 1.27737e-07 -3.52466e-05
-3.14463e-06 1.3527e-05 -2.14475e-06
1.3527e-05 2.99325e-06 2.24987e-06
-2.14475e-06 2.24987e-06 -0.00012743
0.000790804 2.01994e-05 -3.43972e-06
2.01994e-05 5.27287e-07 -2.12987e-07
-3.43972e-06 -2.12987e-07 -0.000145079
0.000907028 1.67839e-05 -6.67288e-06
1.67839e-05 0.000326686 1.22058e-05
-6.67288e-06 1.22058e-05 0.000193029
0.00215796 -8.37923e-06 -1.37758e-05
-8.37923e-06 0.000993247 -2.62119e-07
-1.37758e-05 -2.62119e-07 0.000907334
0.000961677 -2.81667e-06 -1.45556e-07
-2.81667e-06 0.000176577 -6.34912e-07
-1.45556e-07 -6.34912e-07 6.96733e-05
0.000685019 -5.29579e-06 9.83183e-07
-5.29579e-06 -3.50739e-05 -2.28643e-07
9.83183e-07 -2.28643e-07 -0.000129956
-0.000257279 1.56023e-05 6.11783e-06
1.56023e-05 -0.000122684 1.65349e-05
6.11783e-06 1.65349e-05 -0.000293739
-0.000187687 2.5983e-05 2.20012e-05
2.5983e-05 -0.000359916 -4.87066e-05
2.20012e-05 -4.87066e-05 -0.000811713
0.0010763 -1.2459e-05 -8.2834e-07
-1.2459e-05 0.000217098 -1.94288e-06
-8.2834e-07 -1.94288e-06 0.000118989
0.00741524 0.000140957 2.80037e-05
0.000140957 0.00188483 -1.89536e-05
2.80037e-05 -1.89536e-05 0.001079
0.00264138 0.000257771 -2.23071e-05
0.000257771 0.000568292 1.82638e-05
-2.23071e-05 1.82638e-05 0.00054684
0.00132034 -5.51857e-06 6.66631e-06
-5.51857e-06 0.000412536 -1.05797e-05
6.66631e-06 -1.05797e-05 0.000356775
-4.2364e-06 8.58002e-05 -2.92395e-06
8.58002e-05 -0.000597039 8.5845e-06
-2.92395e-06 8.5845e-06 -0.000382506
0.000106202 -1.55048e-05 -4.31268e-06
-1.55048e-05 0.000103622 5.85558e-07
-4.31268e-06 5.85558e-07 -0.000176143
0.00109798 -7.07722e-06 -1.12679e-07
-7.07722e-06 0.00031342 1.38215e-07
-1.12679e-07 1.38215e-07 0.000229799
-0.00115287 3.77322e-05 9.28878e-06
3.77322e-05 -0.00112144 -2.54813e-06
9.28878e-06 -2.54813e-06 -0.00105919
0.00176412 -8.43552e-05 5.8359e-06
-8.43552e-05 0.000494607 3.61255e-05
5.8359e-06 3.61255e-05 6.01296e-05
0.00280785 0.000215208 -8.38899e-07
0.000215208 0.000901659 -1.1686e-07
-8.38899e-07 -1.1686e-07 0.000857762
0.00521258 0.00012331 1.39222e-05
0.00012331 0.00118851 -1.29253e-05
1.39222e-05 -1.29253e-05 0.000247149
0.00120941 -4.29812e-05 6.74011e-06
-4.29812e-05 0.000210521 -4.46364e-06
6.74011e-06 -4.46364e-06 8.40494e-05
-0.000952631 4.86374e-06 -1.06329e-05
4.86374e-06 -0.000919254 6.51466e-07
-1.06329e-05 6.51466e-07 -0.000936696
0.0024269 0.000147333 3.47031e-05
0.000147333 0.000794345 -1.4633e-05
3.47031e-05 -1.4633e-05 0.000715503
0.00334427 0.000215787 -3.77869e-05
0.000215787 0.000637307 2.65291e-05
-3.77869e-05 2.65291e-05 -7.44514e-05
0.000959881 -4.85761e-05 7.33166e-07
-4.85761e-05 -2.09541e-05 4.27299e-05
7.33166e-07 4.27299e-05 -0.000244335
0.00081428 -6.00686e-06 5.69807e-07
-6.00686e-06 0.000166679 1.05581e-06
5.69807e-07 1.05581e-06 -0.000119933
0.00095424 -6.68027e-05 -4.83188e-07
-6.68027e-05 0.000205149 1.93393e-07
-4.83188e-07 1.93393e-07 -8.28423e-05
0.00191134 -0.000119632 -1.09021e-06
-0.000119632 0.000508205 5.10428e-06
-1.09021e-06 5.10428e-06 0.000305457
0.000536693 -2.77206e-05 -1.08081e-06
-2.77206e-05 -4.43849e-05 1.9365e-06
-1.08081e-06 1.9365e-06 -0.000233491
0.000990016 -7.20994e-05 6.53861e-07
-7.20994e-05 9.49421e-05 -2.85677e-07
6.53861e-07 -2.85677e-07 -8.0458e-05
0.00134303 -9.2292e-05 -2.91436e-06
-9.2292e-05 0.000138265 6.00668e-07
-2.91436e-06 6.00668e-07 1.22844e-05
0.00129812 -6.12949e-05 -1.14986e-06
-6.12949e-05 0.000209314 -8.62686e-07
-1.14986e-06 -8.62686e-07 6.88168e-05
0.00121467 -6.77333e-05 -8.1708e-07
-6.77333e-05 0.000118453 -1.11817e-06
-8.1708e-07 -1.11817e-06 -6.12362e-06
0.00161794 -7.19916e-05 -1.65583e-06
-7.19916e-05 0.000250008 2.25584e-07
-1.65583e-06 2.25584e-07 0.000159914
0.00136747 -6.05766e-05 -6.76627e-08
-6.05766e-05 0.000188305 -2.00356e-06
-6.76627e-08 -2.00356e-06 7.99354e-05
0.00123472 -5.78139e-05 4.43478e-07
-5.78139e-05 0.000100273 -5.07795e-07
4.43478e-07 -5.07795e-07 3.03654e-06
0.0013344 -5.33274e-05 -1.28747e-06
-5.33274e-05 0.000112178 -6.10316e-07
-1.28747e-06 -6.10316e-07 3.46116e-05
0.00127106 -4.68091e-05 -1.12073e-06
-4.68091e-05 7.27136e-05 -1.60061e-07
-1.12073e-06 -1.60061e-07 9.99081e-07
0.00117346 -4.83631e-05 -1.08538e-06
-4.83631e-05 6.70278e-05 1.11259e-06
-1.08538e-06 1.11259e-06 -1.36139e-05
0.00121516 -5.06072e-05 2.34469e-07
-5.06072e-05 7.66466e-05 -5.20723e-07
2.34469e-07 -5.20723e-07 -7.08243e-06
0.00121602 -4.63459e-05 -6.8914e-07
-4.63459e-05 0.000115862 1.75085e-06
-6.8914e-07 1.75085e-06 4.17948e-05
0.00120424 -4.94758e-05 -3.08169e-07
-4.94758e-05 0.00010227 2.69866e-07
-3.08169e-07 2.69866e-07 1.96635e-05
0.00120919 -5.34218e-05 8.03983e-07
-5.34218e-05 0.000101231 -1.63181e-06
8.03983e-07 -1.63181e-06 9.45787e-06
0.00105536 -3.79192e-05 -3.79325e-07
-3.79192e-05 5.39555e-05 7.36896e-08
-3.79325e-07 7.36896e-08 -1.11779e-05
0.000960258 -4.04747e-05 -1.18442e-07
-4.04747e-05 5.05167e-06 -4.92525e-07
-1.18442e-07 -4.92525e-07 -6.45303e-05
0.00117206 -4.65758e-05 1.42204e-06
-4.65758e-05 0.000104703 -2.00085e-06
1.42204e-06 -2.00085e-06 2.83764e-05
0.000999293 -7.7565e-06 -7.07155e-07
-7.7565e-06 3.63735e-05 9.45104e-07
-7.07155e-07 9.45104e-07 -2.26308e-05
0.00104688 -3.22509e-05 1.61394e-07
-3.22509e-05 5.67146e-05 2.05507e-07
1.61394e-07 2.05507e-07 -9.75984e-06
0.00107155 -4.0508e-05 4.30174e-07
-4.0508e-05 6.65666e-05 -1.71153e-07
4.30174e-07 -1.71153e-07 -3.20085e-06
0.000919115 1.52581e-05 -2.24473e-06
1.52581e-05 -6.11347e-06 1.88379e-06
-2.24473e-06 1.88379e-06 -4.62715e-05
0.00101542 -1.73142e-06 -8.1194e-08
-1.73142e-06 4.13053e-05 -2.83109e-08
-8.1194e-08 -2.83109e-08 -1.65296e-05
0.0010194 -2.60342e-05 7.68517e-08
-2.60342e-05 4.84778e-05 -2.69438e-07
7.68517e-08 -2.69438e-07 -1.7688e-05
0.00155289 2.0139e-05 -7.96678e-06
2.0139e-05 0.000304479 3.24923e-06
-7.96678e-06 3.24923e-06 0.000299045
0.000956039 4.04123e-06 3.90041e-09
4.04123e-06 5.38175e-06 2.20683e-08
3.90041e-09 2.20683e-08 -3.35249e-05
0.00103924 -1.05604e-05 1.05258e-06
-1.05604e-05 4.59453e-05 -8.83909e-07
1.05258e-06 -8.83909e-07 -1.09882e-05
0.00116412 1.7044e-05 -1.16599e-05
1.7044e-05 0.000106368 3.99564e-06
-1.16599e-05 3.99564e-06 0.0001176
0.00123296 1.70023e-05 -2.64197e-06
1.70023e-05 0.000140484 5.91983e-07
-2.64197e-06 5.91983e-07 0.000134098
0.000963254 3.07177e-06 2.12487e-06
3.07177e-06 5.72065e-06 -1.99598e-06
2.12487e-06 -1.99598e-06 -3.27726e-05
0.00089288 1.40623e-05 2.76227e-06
1.40623e-05 -3.28063e-05 -3.45011e-06
2.76227e-06 -3.45011e-06 -3.9793e-05
0.00250161 2.1894e-05 3.88961e-07
2.1894e-05 0.000771007 4.82201e-08
3.88961e-07 4.82201e-08 0.000789688
0.00245768 1.88933e-05 1.18937e-05
1.88933e-05 0.000745427 -4.09402e-06
1.18937e-05 -4.09402e-06 0.000765048
0.0010321 2.91984e-05 -1.11931e-06
2.91984e-05 4.16705e-05 -6.96422e-07
-1.11931e-06 -6.96422e-07 -3.03649e-05
0.00104045 4.72168e-06 -9.94512e-07
4.72168e-06 4.34624e-05 -1.37209e-06
-9.94512e-07 -1.37209e-06 -1.69157e-05
0.0010515 2.99123e-05 -8.92361e-08
2.99123e-05 5.22995e-05 7.74309e-08
-8.92361e-08 7.74309e-08 -1.99556e-05
0.000948816 -9.78566e-06 -1.50523e-06
-9.78566e-06 -1.50475e-06 -2.28941e-06
-1.50523e-06 -2.28941e-06 -3.86859e-05
0.00103229 7.37069e-06 -5.83913e-08
7.37069e-06 3.97979e-05 -6.21659e-09
-5.83913e-08 -6.21659e-09 -1.84872e-05
0.000915571 -1.28871e-05 -2.19609e-06
-1.28871e-05 -2.49999e-05 -3.39807e-06
-2.19609e-06 -3.39807e-06 -3.01388e-05
0.000959955 -1.14042e-05 -1.80247e-07
-1.14042e-05 1.27735e-06 -2.36447e-08
-1.80247e-07 -2.36447e-08 -3.30463e-05
0.00103304 9.98249e-06 5.12772e-07
9.98249e-06 4.07848e-05 1.61403e-06
5.12772e-07 1.61403e-06 -1.43503e-05
0.00237469 -1.59637e-05 -1.01314e-05
-1.59637e-05 0.000699973 -4.08289e-06
-1.01314e-05 -4.08289e-06 0.00072098
0.000906462 -1.1206e-05 -1.12457e-07
-1.1206e-05 -3.3366e-05 -1.56743e-08
-1.12457e-07 -1.56743e-08 -3.65564e-05
0.000975357 -9.20089e-06 7.64154e-07
-9.20089e-06 6.24088e-06 1.96913e-06
7.64154e-07 1.96913e-06 -2.54999e-05
0.00232635 -1.28002e-05 -5.88921e-07
-1.28002e-05 0.000671305 2.9636e-08
-5.88921e-07 2.9636e-08 0.000693617
0.000899186 -9.20008e-06 1.20061e-06
-9.20008e-06 -4.07126e-05 3.3083e-06
1.20061e-06 3.3083e-06 -4.20176e-05
0.00229149 -9.43899e-06 5.97827e-06
-9.43899e-06 0.000650245 4.02413e-06
5.97827e-06 4.02413e-06 0.000673604
0.000505391 -6.53486e-06 -1.40634e-05
-6.53486e-06 -3.43677e-05 -4.30061e-06
-1.40634e-05 -4.30061e-06 -0.000132646
0.0008248 8.90846e-06 8.10084e-07
8.90846e-06 7.82846e-05 -6.37881e-07
8.10084e-07 -6.37881e-07 -1.29019e-05
0.000517779 -2.78523e-06 -5.75002e-07
-2.78523e-06 -0.000155173 6.67327e-07
-5.75002e-07 6.67327e-07 -0.000228581
0.00109147 3.56494e-05 -7.23182e-07
3.56494e-05 7.03103e-05 6.7695e-08
-7.23182e-07 6.7695e-08 -3.911e-06
0.00106849 2.74533e-05 5.26149e-07
2.74533e-05 6.23496e-05 1.04861e-06
5.26149e-07 1.04861e-06 -9.18284e-06
0.00104655 3.67215e-05 8.38449e-07
3.67215e-05 5.03682e-05 6.53795e-07
8.38449e-07 6.53795e-07 -2.74878e-05
0.00110114 3.7078e-05 -1.2958e-07
3.7078e-05 7.89737e-05 -2.20735e-07
-1.2958e-07 -2.20735e-07 6.01948e-07
0.00112721 3.65321e-05 -2.47717e-07
3.65321e-05 8.97052e-05 -9.47723e-08
-2.47717e-07 -9.47723e-08 1.35724e-05
0.00110298 3.85907e-05 2.96866e-07
3.85907e-05 7.93572e-05 1.85571e-07
2.96866e-07 1.85571e-07 -2.45478e-07
0.00109302 3.95705e-05 -9.43726e-07
3.95705e-05 7.23709e-05 -7.17875e-07
-9.43726e-07 -7.17875e-07 -7.65142e-06
0.00103275 3.72656e-05 -7.74329e-07
3.72656e-05 4.88326e-05 -5.32182e-07
-7.74329e-07 -5.32182e-07 -3.35621e-05
0.00109406 3.79869e-05 5.52659e-07
3.79869e-05 7.84741e-05 6.77842e-07
5.52659e-07 6.77842e-07 -9.68814e-07
0.00105614 1.9118e-05 3.98156e-07
1.9118e-05 5.84035e-05 1.10002e-06
3.98156e-07 1.10002e-06 -2.46993e-05
0.00113542 3.49582e-05 -4.37265e-08
3.49582e-05 0.000101032 2.43243e-08
-4.37265e-08 2.43243e-08 1.60805e-05
0.001462 4.41705e-05 -6.13017e-08
4.41705e-05 0.000256909 -6.41074e-07
-6.13017e-08 -6.41074e-07 0.000170289
0.00238599 -4.05534e-05 -5.32068e-06
-4.05534e-05 0.00100544 -3.79445e-07
-5.32068e-06 -3.79445e-07 0.00107932
0.000627215 8.05689e-07 -9.33762e-07
8.05689e-07 3.29063e-05 -2.41581e-06
-9.33762e-07 -2.41581e-06 -3.37012e-05
0.00102885 2.85326e-05 -1.65812e-06
2.85326e-05 0.000168487 2.9365e-06
-1.65812e-06 2.9365e-06 0.000119534
0.00200339 -3.19034e-05 1.22809e-05
-3.19034e-05 0.000611529 1.06415e-05
1.22809e-05 1.06415e-05 0.000756645
0.00200742 -0.00014276 5.33756e-06
-0.00014276 -0.000317274 -9.56048e-05
5.33756e-06 -9.56048e-05 -0.000269997
0.00344538 2.14175e-05 -7.87718e-06
2.14175e-05 -0.000272173 0.00010684
-7.87718e-06 0.00010684 -0.000646379
0.000279543 -0.000146928 -5.36625e-05
-0.000146928 -5.90461e-05 5.05744e-05
-5.36625e-05 5.05744e-05 -0.000228121
0.00133301 -3.75585e-05 -8.25428e-06
-3.75585e-05 0.000555136 -2.85067e-06
-8.25428e-06 -2.85067e-06 0.000340041
0.000834977 -7.51749e-05 4.05375e-06
-7.51749e-05 -0.000100288 7.12433e-07
4.05375e-06 7.12433e-07 0.000111785
0.00551739 -6.58225e-05 1.18436e-05
-6.58225e-05 0.000681289 5.34124e-05
1.18436e-05 5.34124e-05 8.47222e-05
-0.000794693 -0.000133256 -6.75686e-06
-0.000133256 -0.000875153 -1.35258e-05
-6.75686e-06 -1.35258e-05 -0.000790974
0.00157568 8.28289e-05 -4.99186e-05
8.28289e-05 0.000516134 -4.51591e-05
-4.99186e-05 -4.51591e-05 0.00032004
0.00611382 -0.000179869 3.90186e-06
-0.000179869 0.00164832 3.29099e-05
3.90186e-06 3.29099e-05 0.000988492
0.000247783 -0.000113281 3.81244e-05
-0.000113281 -4.32354e-05 2.25323e-05
3.81244e-05 2.25323e-05 2.93543e-05
0.000952942 5.07082e-05 -2.46592e-06
5.07082e-05 3.48453e-05 -3.28769e-06
-2.46592e-06 -3.28769e-06 -4.88638e-05
0.00119768 3.49828e-05 1.48179e-06
3.49828e-05 0.000128699 2.07479e-07
1.48179e-06 2.07479e-07 4.33887e-05
0.00113557 2.90156e-05 7.33301e-08
2.90156e-05 9.98449e-05 1.16201e-06
7.33301e-08 1.16201e-06 1.17041e-05
-0.00109506 1.04529e-05 7.88873e-07
1.04529e-05 -0.000505223 -3.59283e-06
7.88873e-07 -3.59283e-06 -0.000658879
0.000709626 -1.21045e-05 5.16445e-07
-1.21045e-05 -4.8479e-05 5.06349e-06
5.16445e-07 5.06349e-06 -0.000201761
0.00104594 5.50239e-06 2.17747e-06
5.50239e-06 6.15071e-05 2.44036e-06
2.17747e-06 2.44036e-06 -3.74692e-05
0.00115879 2.97942e-05 -7.64106e-09
2.97942e-05 0.000173243 2.28957e-07
-7.64106e-09 2.28957e-07 3.03129e-05
0.000639547 9.36684e-06 3.5269e-06
9.36684e-06 0.000210549 5.01089e-06
3.5269e-06 5.01089e-06 6.50435e-05
-0.00107487 5.66375e-05 -8.6907e-06
5.66375e-05 -0.000763545 1.40228e-05
-8.6907e-06 1.40228e-05 -0.000878827
0.00260261 -8.98523e-06 -1.36349e-05
-8.98523e-06 0.00118707 -5.08279e-07
-1.36349e-05 -5.08279e-07 0.00120529
0.000862499 -6.64824e-06 -1.19655e-06
-6.64824e-06 0.000193924 -3.22577e-07
-1.19655e-06 -3.22577e-07 9.72183e-05
0.000496804 -2.80829e-06 3.0657e-07
-2.80829e-06 -0.000111769 -7.58821e-07
3.0657e-07 -7.58821e-07 -0.000218184
0.000297503 -2.34198e-05 3.08036e-06
-2.34198e-05 0.000185192 1.9583e-05
3.08036e-06 1.9583e-05 -7.83147e-05
0.00140957 -7.46427e-05 -4.0803e-06
-7.46427e-05 0.000392392 -3.96619e-05
-4.0803e-06 -3.96619e-05 8.07957e-05
0.000952636 -7.04877e-06 1.20039e-05
-7.04877e-06 0.000219272 -1.09316e-06
1.20039e-05 -1.09316e-06 0.000137017
0.00114548 0.000137641 -3.39161e-05
0.000137641 -0.000271855 3.63348e-05
-3.39161e-05 3.63348e-05 -0.00108358
-0.000396461 0.00014753 -4.95694e-05
0.00014753 -0.000394558 3.02774e-05
-4.95694e-05 3.02774e-05 -0.000387899
0.000849784 4.62551e-05 1.29717e-05
4.62551e-05 9.36765e-06 -7.77437e-06
1.29717e-05 -7.77437e-06 0.000103179
0.00146756 -5.40226e-05 4.41261e-06
-5.40226e-05 0.000379165 1.12165e-06
4.41261e-06 1.12165e-06 0.00021216
0.00102574 1.10809e-05 -1.37106e-06
1.10809e-05 0.000196904 -6.45489e-07
-1.37106e-06 -6.45489e-07 0.00020104
-0.00137566 7.98261e-05 -1.11846e-05
7.98261e-05 -0.000766279 2.81151e-06
-1.11846e-05 2.81151e-06 -0.000770145
0.00262094 -9.66831e-05 -1.26248e-05
-9.66831e-05 0.000633644 2.82109e-05
-1.26248e-05 2.82109e-05 0.000118337
0.00426805 0.000209266 -2.9394e-06
0.000209266 0.00100795 5.29848e-06
-2.9394e-06 5.29848e-06 0.000349918
0.00173136 -8.55726e-05 1.08852e-05
-8.55726e-05 -4.06576e-07 -2.81169e-08
1.08852e-05 -2.81169e-08 7.18898e-05
-0.00287068 3.20069e-05 4.97536e-05
3.20069e-05 -0.00174451 -1.13164e-05
4.97536e-05 -1.13164e-05 -0.00175336
0.00423728 0.000181187 2.11779e-05
0.000181187 0.0011823 -1.20116e-05
2.11779e-05 -1.20116e-05 0.000653511
0.00159197 8.98127e-06 -1.67286e-05
8.98127e-06 0.000285077 3.02456e-05
-1.67286e-05 3.02456e-05 -0.000157918
0.000766095 -6.18499e-05 -8.2803e-07
-6.18499e-05 0.000141084 -2.95302e-06
-8.2803e-07 -2.95302e-06 -0.00017272
0.00104737 -0.00010407 -3.19201e-07
-0.00010407 0.00010949 1.17034e-06
-3.19201e-07 1.17034e-06 -0.000103305
0.00126306 -0.000127418 -6.31384e-06
-0.000127418 4.47868e-05 4.79809e-06
-6.31384e-06 4.79809e-06 -7.38852e-05
0.000733608 -6.66305e-05 -1.13322e-06
-6.66305e-05 -2.14872e-05 -2.12162e-06
-1.13322e-06 -2.12162e-06 -0.000199026
0.001234 -9.03019e-05 -1.80873e-06
-9.03019e-05 8.00348e-05 -1.66617e-06
-1.80873e-06 -1.66617e-06 -4.393e-05
0.00183412 -8.70551e-05 -4.69084e-06
-8.70551e-05 0.000261078 3.36293e-07
-4.69084e-06 3.36293e-07 0.000196536
0.000997627 -6.29896e-05 2.60498e-07
-6.29896e-05 1.15626e-05 -3.17524e-06
2.60498e-07 -3.17524e-06 -0.000109073
0.00128399 -6.55893e-05 9.15593e-07
-6.55893e-05 8.45414e-05 -5.21941e-07
9.15593e-07 -5.21941e-07 -3.49962e-06
0.00150101 -5.52936e-05 -1.56567e-06
-5.52936e-05 0.000138092 -8.57999e-07
-1.56567e-06 -8.57999e-07 8.27364e-05
0.0011154 -5.51971e-05 1.70308e-06
-5.51971e-05 3.76064e-05 -1.20515e-06
1.70308e-06 -1.20515e-06 -5.80404e-05
0.00122194 -5.08645e-05 6.74283e-08
-5.08645e-05 5.28951e-05 -3.43312e-07
6.74283e-08 -3.43312e-07 -2.33932e-05
0.00131207 -4.3927e-05 -9.43084e-07
-4.3927e-05 5.82539e-05 -1.00661e-06
-9.43084e-07 -1.00661e-06 2.2564e-06
0.00130678 -4.11253e-05 -1.12837e-06
-4.11253e-05 7.14031e-05 -3.4648e-07
-1.12837e-06 -3.4648e-07 1.32326e-05
0.00128147 -4.6763e-05 -1.32674e-06
-4.6763e-05 9.09524e-05 3.0238e-07
-1.32674e-06 3.0238e-07 1.86472e-05
0.00124491 -4.53005e-05 3.30294e-07
-4.53005e-05 5.99354e-05 2.93635e-07
3.30294e-07 2.93635e-07 -1.06859e-05
0.000967625 -4.22347e-05 -1.09195e-06
-4.22347e-05 -2.29458e-05 1.31218e-06
-1.09195e-06 1.31218e-06 -9.76663e-05
0.00123568 -4.90086e-05 5.67809e-07
-4.90086e-05 9.75831e-05 -3.80546e-07
5.67809e-07 -3.80546e-07 1.78311e-05
0.00114887 -4.89944e-05 1.34564e-06
-4.89944e-05 4.14814e-05 -1.08275e-06
1.34564e-06 -1.08275e-06 -4.12882e-05
0.00108172 -4.08021e-05 -3.31323e-07
-4.08021e-05 6.15026e-05 9.94747e-07
-3.31323e-07 9.94747e-07 -5.11499e-06
0.00105426 -4.35563e-05 1.68435e-07
-4.35563e-05 3.99491e-05 -1.19086e-07
1.68435e-07 -1.19086e-07 -3.43052e-05
0.000986037 -4.603e-05 7.19497e-07
-4.603e-05 -2.09223e-06 -1.74288e-06
7.19497e-07 -1.74288e-06 -8.60439e-05
0.00102155 -1.95254e-05 -1.05463e-06
-1.95254e-05 4.50534e-05 5.67756e-07
-1.05463e-06 5.67756e-07 -1.39567e-05
0.00108362 -3.78989e-05 -1.42938e-07
-3.78989e-05 6.6922e-05 -1.90687e-07
-1.42938e-07 -1.90687e-07 1.7714e-06
0.00105007 -4.19149e-05 3.6348e-08
-4.19149e-05 4.93077e-05 -1.25924e-06
3.6348e-08 -1.25924e-06 -1.95574e-05
0.000933947 1.01185e-05 -2.1441e-06
1.01185e-05 8.21938e-06 1.87477e-06
-2.1441e-06 1.87477e-06 -3.40309e-05
0.00101814 -8.816e-06 2.01454e-07
-8.816e-06 4.47375e-05 1.45678e-07
2.01454e-07 1.45678e-07 -1.41452e-05
0.000978889 -2.99379e-05 5.68058e-07
-2.99379e-05 2.45531e-05 -6.5654e-08
5.68058e-07 -6.5654e-08 -4.18784e-05
0.000844325 1.94362e-05 -3.86654e-06
1.94362e-05 -4.31312e-05 3.23491e-06
-3.86654e-06 3.23491e-06 -5.29178e-05
0.000945868 8.9598e-06 -1.00245e-07
8.9598e-06 6.33866e-06 -1.59653e-08
-1.00245e-07 -1.59653e-08 -3.36171e-05
0.00104347 -3.30181e-06 7.80569e-07
-3.30181e-06 5.43414e-05 -1.0142e-06
7.80569e-07 -1.0142e-06 -3.4905e-06
0.00248034 3.0003e-05 -5.92624e-06
3.0003e-05 0.000770279 1.59299e-06
-5.92624e-06 1.59299e-06 0.000787097
0.000855509 1.74302e-05 1.10748e-07
1.74302e-05 -4.34263e-05 5.10079e-08
1.10748e-07 5.10079e-08 -5.22647e-05
0.000969378 7.2558e-06 2.24319e-06
7.2558e-06 1.16807e-05 -1.9037e-06
2.24319e-06 -1.9037e-06 -2.7175e-05
0.00254354 2.48854e-05 2.83659e-07
2.48854e-05 0.000795745 5.1445e-08
2.83659e-07 5.1445e-08 0.000813468
0.000880209 1.5768e-05 3.2679e-06
1.5768e-05 -3.52456e-05 -3.39671e-06
3.2679e-06 -3.39671e-06 -4.33471e-05
0.00249006 2.18682e-05 1.32119e-05
2.18682e-05 0.000765626 -4.06132e-06
1.32119e-05 -4.06132e-06 0.000784259
0.00115074 2.89088e-05 -6.23374e-07
2.89088e-05 0.000100958 -3.52182e-08
-6.23374e-07 -3.52182e-08 3.08224e-05
0.00106725 2.82601e-05 -1.5155e-07
2.82601e-05 5.96284e-05 -8.47435e-08
-1.5155e-07 -8.47435e-08 -1.22143e-05
0.00104672 2.33046e-06 -1.14779e-06
2.33046e-06 4.72317e-05 -1.19719e-06
-1.14779e-06 -1.19719e-06 -1.43119e-05
0.000953008 -3.77127e-06 -2.05101e-06
-3.77127e-06 1.7765e-06 -2.26448e-06
-2.05101e-06 -2.26448e-06 -3.7839e-05
0.00103595 5.548e-06 -7.43477e-08
5.548e-06 4.18184e-05 5.75117e-08
-7.43477e-08 5.75117e-08 -1.87506e-05
0.00103592 2.84621e-05 7.39734e-07
2.84621e-05 4.47702e-05 9.19138e-07
7.39734e-07 9.19138e-07 -2.77768e-05
0.000901635 -1.43092e-05 -2.68292e-06
-1.43092e-05 -2.76555e-05 -3.48034e-06
-2.68292e-06 -3.48034e-06 -3.4681e-05
0.000955697 -6.6356e-06 -2.43963e-07
-6.6356e-06 1.23613e-06 -3.24408e-08
-2.43963e-07 -3.24408e-08 -3.57617e-05
0.00103243 7.85352e-06 6.46715e-07
7.85352e-06 4.01429e-05 1.64725e-06
6.46715e-07 1.64725e-06 -1.82501e-05
0.00242624 -1.89604e-05 -1.17552e-05
-1.89604e-05 0.000730127 -4.08415e-06
-1.17552e-05 -4.08415e-06 0.000749915
0.000897125 -1.28276e-05 -1.17264e-07
-1.28276e-05 -3.39615e-05 -1.57817e-08
-1.17264e-07 -1.57817e-08 -3.89948e-05
0.000963009 -1.0084e-05 8.52148e-07
-1.0084e-05 2.44672e-06 2.09784e-06
8.52148e-07 2.09784e-06 -3.17315e-05
0.00237588 -1.5971e-05 -5.46122e-07
-1.5971e-05 0.000700023 3.7059e-08
-5.46122e-07 3.7059e-08 0.00072118
0.000887438 -1.11674e-05 1.51209e-06
-1.11674e-05 -4.26322e-05 3.35107e-06
1.51209e-06 3.35107e-06 -4.57254e-05
0.00232772 -1.27332e-05 7.66769e-06
-1.27332e-05 0.000671496 4.01069e-06
7.66769e-06 4.01069e-06 0.000693948
0.000376031 -1.37407e-05 -5.20107e-06
-1.37407e-05 -8.8106e-05 -2.51245e-06
-5.20107e-06 -2.51245e-06 -7.6551e-05
0.000621786 -3.16817e-06 -2.17521e-07
-3.16817e-06 4.05549e-05 -1.54241e-06
-2.17521e-07 -1.54241e-06 -5.73217e-05
0.00080958 7.80602e-06 -9.23835e-07
7.80602e-06 6.95547e-05 3.82481e-07
-9.23835e-07 3.82481e-07 -2.12233e-05
0.00107518 3.53776e-05 1.36084e-07
3.53776e-05 6.18847e-05 8.76886e-08
1.36084e-07 8.76886e-08 -1.26394e-05
0.00119453 3.94618e-05 -6.99186e-07
3.94618e-05 0.000124659 1.44562e-07
-6.99186e-07 1.44562e-07 5.25662e-05
0.00109601 4.07957e-05 -6.71816e-07
4.07957e-05 6.88412e-05 -8.14321e-08
-6.71816e-07 -8.14321e-08 -7.73338e-06
0.00118655 3.91618e-05 2.79802e-07
3.91618e-05 0.000122212 2.69143e-07
2.79802e-07 2.69143e-07 4.41458e-05
0.00120508 3.83901e-05 6.00391e-07
3.83901e-05 0.000128052 3.39558e-07
6.00391e-07 3.39558e-07 5.2185e-05
0.00104507 3.73016e-05 7.61318e-07
3.73016e-05 5.05709e-05 8.06358e-07
7.61318e-07 8.06358e-07 -2.84978e-05
0.00108146 3.81897e-05 -6.72831e-08
3.81897e-05 7.19989e-05 8.89577e-08
-6.72831e-08 8.89577e-08 -1.01308e-05
0.00111782 4.0034e-05 2.79945e-08
4.0034e-05 8.42077e-05 3.78124e-08
2.79945e-08 3.78124e-08 4.57972e-06
0.00108901 4.04219e-05 -1.33314e-06
4.04219e-05 8.13502e-05 -6.47633e-07
-1.33314e-06 -6.47633e-07 -2.56913e-06
0.00106767 4.20597e-05 -1.78982e-06
4.20597e-05 6.77398e-05 -6.20434e-07
-1.78982e-06 -6.20434e-07 -1.72323e-05
0.0011274 3.54494e-05 3.13743e-07
3.54494e-05 9.77702e-05 2.40523e-07
3.13743e-07 2.40523e-07 1.28256e-05
0.00124963 4.04864e-05 7.16673e-08
4.04864e-05 0.000156875 -1.54727e-07
7.16673e-08 -1.54727e-07 7.03913e-05
-0.00253027 -6.31668e-05 5.02371e-05
-6.31668e-05 -0.00142812 2.07509e-05
5.02371e-05 2.07509e-05 -0.00146317
0.00117214 -4.01326e-05 -6.93284e-07
-4.01326e-05 0.000302068 -1.44224e-06
-6.93284e-07 -1.44224e-06 0.000370608
0.000613735 4.97241e-06 1.45853e-05
4.97241e-06 3.04961e-05 6.52471e-06
1.45853e-05 6.52471e-06 -3.51311e-05
7.62292e-05 -7.26248e-05 4.67315e-06
-7.26248e-05 -0.000481448 -5.49377e-06
4.67315e-06 -5.49377e-06 -0.000321107
0.00362829 -0.000206323 -1.32398e-05
-0.000206323 0.000956021 -5.61274e-05
-1.32398e-05 -5.61274e-05 0.00103037
0.00346386 -6.77682e-05 3.29879e-05
-6.77682e-05 0.000159054 2.89138e-05
3.29879e-05 2.89138e-05 -0.000265538
-0.000134197 -1.74442e-05 -1.35024e-05
-1.74442e-05 -0.000251413 5.42969e-05
-1.35024e-05 5.42969e-05 -0.000765853
0.00122994 8.35654e-05 -2.51869e-05
8.35654e-05 0.000146673 -3.46959e-05
-2.51869e-05 -3.46959e-05 -0.000289147
0.00187058 -0.000168718 -3.98473e-07
-0.000168718 0.00030243 -2.60817e-06
-3.98473e-07 -2.60817e-06 0.000316765
0.00363037 -8.22084e-05 3.14665e-05
-8.22084e-05 0.000414028 4.54862e-05
3.14665e-05 4.54862e-05 -0.000231769
0.000734856 0.000107439 -6.57726e-05
0.000107439 -0.000302937 -8.39856e-05
-6.57726e-05 -8.39856e-05 -0.000678879
0.0030967 -1.18131e-05 -9.57192e-06
-1.18131e-05 0.000366478 3.86493e-06
-9.57192e-06 3.86493e-06 -0.000266655
0.00163153 7.89265e-05 3.43866e-06
7.89265e-05 0.000392387 -4.42248e-06
3.43866e-06 -4.42248e-06 0.000273789
0.000977384 4.83198e-05 1.24802e-07
4.83198e-05 3.84939e-05 -4.31045e-07
1.24802e-07 -4.31045e-07 -4.29619e-05
0.0013462 3.5917e-05 1.47213e-06
3.5917e-05 0.000195012 1.79268e-06
1.47213e-06 1.79268e-06 0.000110319
-4.66835e-05 -6.84881e-06 -4.31506e-06
-6.84881e-06 -8.82997e-05 5.19269e-07
-4.31506e-06 5.19269e-07 -0.000248135
0.00150152 3.80895e-05 3.39544e-06
3.80895e-05 0.000333385 -9.72732e-08
3.39544e-06 -9.72732e-08 0.000192203
0.00103628 8.59152e-05 5.11159e-06
8.59152e-05 0.000198051 1.13992e-06
5.11159e-06 1.13992e-06 9.56491e-05
-0.000282582 7.82525e-05 9.65911e-06
7.82525e-05 -0.000519235 1.06178e-05
9.65911e-06 1.06178e-05 -0.000598345
-0.000698712 -4.03551e-06 6.95022e-05
-4.03551e-06 -0.000582058 -4.38429e-06
6.95022e-05 -4.38429e-06 -0.000545016
0.000726499 -7.81586e-06 -1.11058e-05
-7.81586e-06 8.3926e-05 1.51004e-08
-1.11058e-05 1.51004e-08 8.11231e-05
-0.000486004 -4.95379e-06 1.45057e-05
-4.95379e-06 -0.000638403 -8.92027e-07
1.45057e-05 -8.92027e-07 -0.000746086
0.00175065 -5.10333e-05 -1.71316e-05
-5.10333e-05 0.000587175 2.40832e-06
-1.71316e-05 2.40832e-06 0.000357968
0.000660806 -6.82523e-05 -2.91028e-05
-6.82523e-05 0.000147739 2.10032e-06
-2.91028e-05 2.10032e-06 -0.000243239
0.00108585 7.0833e-06 7.17475e-06
7.0833e-06 0.000232003 -2.80411e-06
7.17475e-06 -2.80411e-06 0.000232135
0.00287164 0.000174513 2.61908e-05
0.000174513 0.000438527 -3.41111e-05
2.61908e-05 -3.41111e-05 -0.000277655
0.00322561 0.000104667 -8.70587e-05
0.000104667 0.00135832 2.2678e-05
-8.70587e-05 2.2678e-05 0.00126729
0.0015221 -9.07399e-05 2.96554e-06
-9.07399e-05 5.40691e-05 -1.23979e-06
2.96554e-06 -1.23979e-06 3.19505e-05
-8.04186e-05 4.86935e-05 -2.61112e-05
4.86935e-05 -0.000277744 4.1491e-06
-2.61112e-05 4.1491e-06 -0.000342937
0.00277504 7.8657e-05 -1.15978e-05
7.8657e-05 0.000494731 5.0485e-06
-1.15978e-05 5.0485e-06 -0.000191635
0.000259255 3.54182e-05 3.38654e-06
3.54182e-05 -5.82105e-05 2.7712e-06
3.38654e-06 2.7712e-06 -0.000328364
0.0014121 -7.4171e-05 7.37153e-06
-7.4171e-05 -0.000235702 1.33454e-07
7.37153e-06 1.33454e-07 -0.000145275
0.0045176 6.55184e-05 1.12365e-05
6.55184e-05 0.00124533 5.86319e-06
1.12365e-05 5.86319e-06 0.000681046
0.000746789 5.53368e-05 -2.44454e-06
5.53368e-05 0.00026749 -1.09813e-06
-2.44454e-06 -1.09813e-06 -1.42083e-05
-4.3773e-06 -8.74299e-05 2.61275e-06
-8.74299e-05 -0.000374105 -8.73944e-06
2.61275e-06 -8.73944e-06 -0.000601956
0.00127328 -0.000125115 -5.97338e-08
-0.000125115 6.53295e-05 -4.98599e-07
-5.97338e-08 -4.98599e-07 -5.62575e-05
0.00124605 -0.000109183 -1.57938e-05
-0.000109183 -0.000114954 7.29112e-06
-1.57938e-05 7.29112e-06 -0.000162191
0.00115615 -8.86931e-05 -2.11058e-07
-8.86931e-05 3.68848e-05 -3.83825e-06
-2.11058e-07 -3.83825e-06 -8.46826e-05
0.00137657 -8.05047e-05 -1.53487e-07
-8.05047e-05 3.79695e-05 7.74785e-07
-1.53487e-07 7.74785e-07 -2.4549e-05
0.00176544 -5.90698e-05 -3.65038e-06
-5.90698e-05 0.000177579 2.3235e-06
-3.65038e-06 2.3235e-06 0.000156922
0.000949143 -5.91754e-05 2.9581e-06
-5.91754e-05 -8.07072e-05 -7.17142e-07
2.9581e-06 -7.17142e-07 -0.000166774
0.0013104 -5.25436e-05 -7.0157e-08
-5.25436e-05 3.94073e-05 7.90692e-08
-7.0157e-08 7.90692e-08 -1.45548e-05
0.00142362 -4.18458e-05 -5.3304e-07
-4.18458e-05 5.52739e-05 2.14972e-07
-5.3304e-07 2.14972e-07 2.28515e-05
0.00109073 -4.82696e-05 1.77264e-06
-4.82696e-05 -1.51787e-05 -1.22782e-07
1.77264e-06 -1.22782e-07 -9.0176e-05
0.00125579 -4.30245e-05 9.55662e-08
-4.30245e-05 3.01239e-05 2.3604e-07
9.55662e-08 2.3604e-07 -2.56922e-05
0.00125176 -3.70718e-05 -5.41438e-07
-3.70718e-05 1.14114e-05 2.87409e-07
-5.41438e-07 2.87409e-07 -3.3143e-05
0.00144105 -3.72932e-05 -7.65137e-07
-3.72932e-05 0.000126604 3.48422e-07
-7.65137e-07 3.48422e-07 7.5505e-05
0.00129843 -4.01753e-05 -4.20927e-07
-4.01753e-05 6.68071e-05 9.45235e-07
-4.20927e-07 9.45235e-07 9.94518e-06
0.00127273 -4.09759e-05 -8.1261e-07
-4.09759e-05 6.90327e-05 -8.42125e-07
-8.1261e-07 -8.42125e-07 7.60997e-06
0.0012478 -4.3954e-05 -1.20279e-06
-4.3954e-05 8.5068e-05 5.61214e-07
-1.20279e-06 5.61214e-07 1.53358e-05
0.00129997 -4.66924e-05 4.65591e-07
-4.66924e-05 0.000101265 -9.72022e-08
4.65591e-07 -9.72022e-08 2.90033e-05
0.00121597 -4.38237e-05 1.69279e-06
-4.38237e-05 4.58755e-05 6.63445e-07
1.69279e-06 6.63445e-07 -2.366e-05
0.0009456 -3.92477e-05 -1.27016e-06
-3.92477e-05 -2.30254e-05 1.57751e-06
-1.27016e-06 1.57751e-06 -9.17166e-05
0.00113077 -4.47128e-05 1.00744e-07
-4.47128e-05 5.74807e-05 -6.40495e-08
1.00744e-07 -6.40495e-08 -1.6639e-05
0.00127947 -4.934e-05 1.80819e-06
-4.934e-05 0.000119157 -1.65047e-06
1.80819e-06 -1.65047e-06 4.03284e-05
0.00102687 -2.59844e-05 -8.22424e-07
-2.59844e-05 4.40157e-05 7.37232e-07
-8.22424e-07 7.37232e-07 -1.57654e-05
0.00109982 -4.06686e-05 6.23077e-08
-4.06686e-05 6.97e-05 -6.95384e-08
6.23077e-08 -6.95384e-08 3.03545e-06
0.000913577 -4.11405e-05 4.91554e-07
-4.11405e-05 -2.61937e-05 -1.89699e-06
4.91554e-07 -1.89699e-06 -0.000100612
0.000934321 5.68206e-06 -2.34832e-06
5.68206e-06 1.31596e-05 1.74968e-06
-2.34832e-06 1.74968e-06 -3.15234e-05
0.00103628 -2.0249e-05 -6.21828e-08
-2.0249e-05 5.12454e-05 2.49039e-08
-6.21828e-08 2.49039e-08 -7.64897e-06
0.00110775 -3.77471e-05 4.04975e-07
-3.77471e-05 7.79233e-05 -6.49564e-07
4.04975e-07 -6.49564e-07 1.27601e-05
0.000824351 2.15462e-05 -4.03566e-06
2.15462e-05 -4.43367e-05 3.1473e-06
-4.03566e-06 3.1473e-06 -5.5989e-05
0.00094135 1.13527e-05 3.48396e-08
1.13527e-05 1.10443e-05 1.35265e-08
3.48396e-08 1.35265e-08 -3.11805e-05
0.00103783 -1.03307e-05 1.11245e-06
-1.03307e-05 5.34856e-05 -6.57405e-07
1.11245e-06 -6.57405e-07 -5.2699e-06
0.00255007 3.09143e-05 -1.53461e-05
3.09143e-05 0.000809645 3.70775e-06
-1.53461e-05 3.70775e-06 0.000825499
0.000860799 1.96797e-05 -1.31127e-09
1.96797e-05 -3.47376e-05 2.68915e-08
-1.31127e-09 2.68915e-08 -4.46479e-05
0.00096971 7.65822e-06 2.22494e-06
7.65822e-06 1.7687e-05 -1.90821e-06
2.22494e-06 -1.90821e-06 -2.22907e-05
0.00180123 2.49058e-05 5.71342e-06
2.49058e-05 0.000430705 -1.07939e-06
5.71342e-06 -1.07939e-06 0.000444311
0.000876405 1.7666e-05 3.73283e-06
1.7666e-05 -3.297e-05 -3.28256e-06
3.73283e-06 -3.28256e-06 -4.18953e-05
0.00250165 2.48467e-05 1.41592e-05
2.48467e-05 0.000775762 -3.96414e-06
1.41592e-05 -3.96414e-06 0.000793508
0.00112964 2.7177e-05 -6.19442e-07
2.7177e-05 9.37738e-05 2.26171e-07
-6.19442e-07 2.26171e-07 2.52739e-05
0.00106822 2.57451e-05 2.37704e-07
2.57451e-05 5.97162e-05 3.25228e-07
2.37704e-07 3.25228e-07 -1.07831e-05
0.00102742 -6.84579e-08 -1.29452e-06
-6.84579e-08 3.99362e-05 -9.66463e-07
-1.29452e-06 -9.66463e-07 -2.22001e-05
0.00110646 2.73615e-05 6.76919e-07
2.73615e-05 7.95513e-05 4.826e-07
6.76919e-07 4.826e-07 7.89776e-06
0.00103353 2.41031e-06 9.50784e-09
2.41031e-06 4.13195e-05 6.56948e-08
9.50784e-09 6.56948e-08 -2.03637e-05
0.000961348 -1.98297e-06 -2.39155e-06
-1.98297e-06 7.07647e-06 -2.15762e-06
-2.39155e-06 -2.15762e-06 -3.45632e-05
0.000885799 -1.57016e-05 -3.22495e-06
-1.57016e-05 -3.15497e-05 -3.52121e-06
-3.22495e-06 -3.52121e-06 -4.03989e-05
0.000957854 -1.68312e-06 -2.07101e-07
-1.68312e-06 3.72493e-06 -5.8915e-09
-2.07101e-07 -5.8915e-09 -3.58379e-05
0.00103344 6.06783e-06 8.9615e-07
6.06783e-06 4.11612e-05 1.54233e-06
8.9615e-07 1.54233e-06 -1.95893e-05
0.00248205 -2.1903e-05 -1.32337e-05
-2.1903e-05 0.000762519 -4.08211e-06
-1.32337e-05 -4.08211e-06 0.00078104
0.000885175 -1.42204e-05 -1.28229e-07
-1.42204e-05 -3.57295e-05 -1.66446e-08
-1.28229e-07 -1.66446e-08 -4.26335e-05
0.00096574 -5.0141e-06 1.28086e-06
-5.0141e-06 5.62885e-06 2.26423e-06
1.28086e-06 2.26423e-06 -3.12566e-05
0.00243049 -1.90128e-05 -4.73938e-07
-1.90128e-05 0.000731728 4.21128e-08
-4.73938e-07 4.21128e-08 0.00075164
0.000878573 -1.2775e-05 1.91661e-06
-1.2775e-05 -4.2937e-05 3.38137e-06
1.91661e-06 3.38137e-06 -4.78696e-05
0.00237926 -1.59675e-05 9.25004e-06
-1.59675e-05 0.000701164 4.00644e-06
9.25004e-06 4.00644e-06 0.000722463
0.000365155 3.14507e-05 8.83137e-05
3.14507e-05 -0.000239995 6.59062e-06
8.83137e-05 6.59062e-06 -0.000390353
0.00151641 -1.87336e-05 1.23787e-06
-1.87336e-05 0.000563578 -1.08555e-06
1.23787e-06 -1.08555e-06 0.000584731
0.000707166 1.16391e-07 1.36303e-05
1.16391e-07 9.66417e-05 9.20883e-07
1.36303e-05 9.20883e-07 -8.2542e-07
0.00105053 3.48363e-05 1.24906e-06
3.48363e-05 4.91955e-05 1.79997e-07
1.24906e-06 1.79997e-07 -2.55859e-05
0.00106999 4.00612e-05 7.15091e-07
4.00612e-05 5.75127e-05 3.49358e-08
7.15091e-07 3.49358e-08 -1.91283e-05
0.00114126 3.89457e-05 3.19624e-08
3.89457e-05 9.99261e-05 -3.56253e-08
3.19624e-08 -3.56253e-08 2.80989e-05
0.00115104 4.16085e-05 -3.65126e-07
4.16085e-05 0.000109203 1.5645e-09
-3.65126e-07 1.5645e-09 3.77635e-05
0.00113022 4.19155e-05 -1.44504e-06
4.19155e-05 9.40523e-05 6.59337e-08
-1.44504e-06 6.59337e-08 1.82726e-05
0.0011204 3.89021e-05 6.53347e-07
3.89021e-05 9.05002e-05 6.54738e-07
6.53347e-07 6.54738e-07 8.64142e-06
0.00112641 4.01583e-05 1.19109e-06
4.01583e-05 8.81225e-05 5.38923e-07
1.19109e-06 5.38923e-07 8.9215e-06
0.00103117 3.94216e-05 -3.12649e-07
3.94216e-05 5.38263e-05 -1.54597e-07
-3.12649e-07 -1.54597e-07 -2.98114e-05
0.000734853 3.70144e-05 -1.16851e-06
3.70144e-05 -8.95613e-05 3.19637e-07
-1.16851e-06 3.19637e-07 -0.000167128
0.000893248 4.31373e-05 -1.79988e-06
4.31373e-05 -1.24742e-05 -4.06169e-07
-1.79988e-06 -4.06169e-07 -9.79743e-05
0.00194361 7.23513e-05 5.04025e-07
7.23513e-05 0.000489635 -6.63063e-07
5.04025e-07 -6.63063e-07 0.000397666
0.00115483 4.30513e-05 -8.67447e-07
4.30513e-05 0.000114267 1.27378e-07
-8.67447e-07 1.27378e-07 2.7817e-05
0.00107971 3.51375e-05 7.02648e-07
3.51375e-05 7.68676e-05 4.41176e-07
7.02648e-07 4.41176e-07 -9.34614e-06
0.00666883 -3.94968e-05 -1.3024e-05
-3.94968e-05 0.00176685 -8.45635e-06
-1.3024e-05 -8.45635e-06 0.00121012
-0.000117616 -7.75686e-05 9.85386e-06
-7.75686e-05 -0.000415215 4.29642e-06
9.85386e-06 4.29642e-06 -0.000497346
0.0020768 -4.39285e-05 -9.98893e-07
-4.39285e-05 0.00080415 -4.69369e-08
-9.98893e-07 -4.69369e-08 0.000878569
-0.00225748 -0.000112034 -3.13926e-05
-0.000112034 -0.00158674 -2.79798e-05
-3.13926e-05 -2.79798e-05 -0.00147466
0.00688595 -0.000169988 5.82395e-05
-0.000169988 0.00170114 5.42427e-05
5.82395e-05 5.42427e-05 0.000833586
0.00138358 6.43618e-05 2.68287e-05
6.43618e-05 0.000505162 1.00666e-06
2.68287e-05 1.00666e-06 0.000279988
0.0011284 9.62951e-05 -2.17918e-05
9.62951e-05 1.54372e-05 -2.47186e-05
-2.17918e-05 -2.47186e-05 -0.000250238
0.00424932 -0.000129683 1.58476e-05
-0.000129683 0.000936829 1.50281e-05
1.58476e-05 1.50281e-05 0.000407538
0.00119994 4.90762e-05 -4.42197e-05
4.90762e-05 2.52338e-05 -4.49868e-05
-4.42197e-05 -4.49868e-05 -0.000228309
0.00225216 0.000100127 1.51218e-05
0.000100127 0.000516973 5.62648e-06
1.51218e-05 5.62648e-06 0.000390822
0.00110374 6.92122e-05 -1.20228e-06
6.92122e-05 0.000147393 -2.85174e-06
-1.20228e-06 -2.85174e-06 2.44571e-05
0.00097087 4.43007e-05 1.46454e-06
4.43007e-05 2.77635e-05 3.20075e-06
1.46454e-06 3.20075e-06 -5.05384e-05
0.00231247 0.000106297 -1.11605e-05
0.000106297 0.00078029 -1.3139e-05
-1.11605e-05 -1.3139e-05 0.000685441
0.00027849 9.63517e-05 -5.51559e-06
9.63517e-05 -0.000373411 8.49929e-07
-5.51559e-06 8.49929e-07 -0.000431236
0.00101854 5.07791e-05 -1.41314e-05
5.07791e-05 -0.000317823 -3.15712e-06
-1.41314e-05 -3.15712e-06 -0.00070803
0.0015158 1.29207e-05 4.35827e-07
1.29207e-05 0.000293784 4.085e-06
4.35827e-07 4.085e-06 0.00020565
-0.00111276 -7.12462e-06 -3.92962e-06
-7.12462e-06 -0.000997639 5.72508e-07
-3.92962e-06 5.72508e-07 -0.00101874
0.00162294 -9.89132e-05 -2.03688e-05
-9.89132e-05 0.000256017 3.57616e-07
-2.03688e-05 3.57616e-07 0.000132339
0.00159817 2.28812e-05 2.27456e-05
2.28812e-05 0.000265262 -2.32132e-05
2.27456e-05 -2.32132e-05 -0.000176827
0.000445152 5.92719e-06 -0.000107089
5.92719e-06 -0.000183664 1.7193e-05
-0.000107089 1.7193e-05 -0.000338308
0.00505038 0.0001785 -1.29637e-05
0.0001785 0.00170771 4.81989e-06
-1.29637e-05 4.81989e-06 0.00106927
0.00181651 -7.66209e-05 1.10182e-06
-7.66209e-05 -4.32482e-05 -9.03115e-07
1.10182e-06 -9.03115e-07 4.54328e-05
0.00419044 9.88772e-05 2.29151e-05
9.88772e-05 0.00117288 2.76973e-06
2.29151e-05 2.76973e-06 0.000675318
0.00155321 4.98236e-05 2.54731e-05
4.98236e-05 0.000336793 -1.05022e-05
2.54731e-05 -1.05022e-05 -6.50848e-05
0.00179773 -4.73568e-05 -2.5773e-06
-4.73568e-05 -0.000176633 -3.30326e-06
-2.5773e-06 -3.30326e-06 -4.20705e-05
0.00101783 6.03648e-05 -2.19708e-05
6.03648e-05 0.000377865 1.32529e-05
-2.19708e-05 1.32529e-05 0.000201617
0.0014707 -0.000124748 9.52998e-06
-0.000124748 0.000173639 -7.14371e-06
9.52998e-06 -7.14371e-06 5.04577e-05
0.00162219 -0.000110675 -3.14423e-06
-0.000110675 5.37358e-05 1.70602e-06
-3.14423e-06 1.70602e-06 1.63378e-05
0.00187079 -5.74453e-05 -8.65643e-06
-5.74453e-05 0.000110679 4.01177e-06
-8.65643e-06 4.01177e-06 0.00011455
0.000856097 -7.31595e-05 6.71837e-06
-7.31595e-05 -0.000215201 -7.41868e-07
6.71837e-06 -7.41868e-07 -0.00027454
0.00137378 -5.55237e-05 1.14012e-06
-5.55237e-05 -7.68201e-06 7.91445e-07
1.14012e-06 7.91445e-07 -2.61683e-05
0.0014322 -3.33837e-05 -4.34132e-07
-3.33837e-05 2.30164e-06 2.74907e-06
-4.34132e-07 2.74907e-06 -7.83284e-06
0.00111525 -5.00415e-05 2.2759e-06
-5.00415e-05 -6.29295e-05 6.52365e-07
2.2759e-06 6.52365e-07 -0.000115245
0.00133361 -4.12995e-05 2.08088e-07
-4.12995e-05 1.32446e-05 1.10253e-06
2.08088e-07 1.10253e-06 -1.99085e-05
0.00134318 -3.17122e-05 5.25207e-07
-3.17122e-05 1.64464e-05 1.93641e-06
5.25207e-07 1.93641e-06 -1.61015e-05
0.00122087 -4.24127e-05 1.65511e-06
-4.24127e-05 1.22146e-05 1.22752e-06
1.65511e-06 1.22752e-06 -4.34448e-05
0.00129926 -3.8078e-05 6.82317e-08
-3.8078e-05 3.48823e-05 7.43731e-07
6.82317e-08 7.43731e-07 -1.04485e-05
0.00132648 -3.28303e-05 -4.18059e-07
-3.28303e-05 4.96106e-05 9.83018e-07
-4.18059e-07 9.83018e-07 3.77656e-06
0.00129964 -3.62631e-05 -7.99022e-07
-3.62631e-05 5.96966e-05 7.13582e-07
-7.99022e-07 7.13582e-07 9.89889e-06
0.00141259 -3.73272e-05 1.48477e-07
-3.73272e-05 0.000122891 -2.66286e-07
1.48477e-07 -2.66286e-07 6.70755e-05
0.00129317 -3.9306e-05 1.30931e-06
-3.9306e-05 6.36551e-05 1.55106e-06
1.30931e-06 1.55106e-06 8.10605e-06
0.00128376 -4.08503e-05 4.91733e-08
-4.08503e-05 7.38049e-05 -2.97961e-07
4.91733e-08 -2.97961e-07 1.22117e-05
0.00127469 -3.97404e-05 -6.53525e-07
-3.97404e-05 7.78998e-05 2.26412e-08
-6.53525e-07 2.26412e-08 1.42513e-05
0.0010188 -3.84157e-05 -1.39975e-06
-3.84157e-05 -1.23639e-05 1.08532e-06
-1.39975e-06 1.08532e-06 -7.94917e-05
0.00124457 -4.3856e-05 3.9624e-08
-4.3856e-05 8.40245e-05 -1.2457e-07
3.9624e-08 -1.2457e-07 1.4003e-05
0.00133033 -4.68252e-05 1.57698e-06
-4.68252e-05 0.000117489 -4.70604e-07
1.57698e-06 -4.70604e-07 4.52331e-05
0.00106241 -3.17515e-05 -1.04909e-06
-3.17515e-05 4.992e-05 1.14081e-06
-1.04909e-06 1.14081e-06 -1.12985e-05
0.00101453 -4.03249e-05 -2.78709e-07
-4.03249e-05 1.25387e-05 2.77848e-07
-2.78709e-07 2.77848e-07 -5.5925e-05
0.00126752 -4.66956e-05 1.04321e-06
-4.66956e-05 0.000125491 -1.38142e-06
1.04321e-06 -1.38142e-06 5.1967e-05
0.00092307 2.81217e-06 -2.28715e-06
2.81217e-06 1.10404e-05 1.65495e-06
-2.28715e-06 1.65495e-06 -3.62841e-05
0.00104786 -2.64385e-05 -4.75774e-08
-2.64385e-05 5.3341e-05 -3.18317e-08
-4.75774e-08 -3.18317e-08 -6.42748e-06
0.00112125 -4.05923e-05 5.03091e-07
-4.05923e-05 7.95197e-05 -1.14731e-06
5.03091e-07 -1.14731e-06 1.28024e-05
0.000795036 2.30168e-05 -4.2604e-06
2.30168e-05 -5.01561e-05 3.08233e-06
-4.2604e-06 3.08233e-06 -6.4219e-05
0.000943708 4.74785e-06 4.82746e-08
4.74785e-06 1.61783e-05 3.12057e-08
4.82746e-08 3.12057e-08 -2.82665e-05
0.00104933 -2.05667e-05 1.06527e-06
-2.05667e-05 5.6677e-05 -6.30018e-07
1.06527e-06 -6.30018e-07 -2.10509e-06
0.00253738 3.39386e-05 -1.54957e-05
3.39386e-05 0.000811325 3.52102e-06
-1.54957e-05 3.52102e-06 0.000825853
0.000849324 2.18321e-05 1.66387e-08
2.18321e-05 -3.19072e-05 7.93252e-09
1.66387e-08 7.93252e-09 -4.37131e-05
0.00095215 6.97417e-06 2.29581e-06
6.97417e-06 1.53101e-05 -1.73185e-06
2.29581e-06 -1.73185e-06 -2.66777e-05
0.00249976 3.08416e-05 1.82277e-07
3.08416e-05 0.000785901 6.20516e-08
1.82277e-07 6.20516e-08 0.000801766
0.000879747 1.99288e-05 3.97735e-06
1.99288e-05 -2.51354e-05 -3.18828e-06
3.97735e-06 -3.18828e-06 -3.5174e-05
0.00247863 2.78028e-05 1.46796e-05
2.78028e-05 0.000769654 -3.79756e-06
1.46796e-05 -3.79756e-06 0.000786588
0.00105729 3.08137e-05 -6.45943e-07
3.08137e-05 6.32107e-05 -1.34033e-07
-6.45943e-07 -1.34033e-07 -5.98047e-06
0.00110509 2.74776e-05 1.89828e-07
2.74776e-05 8.255e-05 1.37652e-07
1.89828e-07 1.37652e-07 1.40222e-05
0.000920504 1.53543e-06 -1.65688e-06
1.53543e-06 -8.12552e-06 -8.29951e-07
-1.65688e-06 -8.29951e-07 -7.10048e-05
0.000982505 2.27815e-05 1.27776e-06
2.27815e-05 1.68946e-05 6.16815e-07
1.27776e-06 6.16815e-07 -5.3972e-05
0.000972809 3.01962e-07 -7.43602e-08
3.01962e-07 1.32324e-05 1.24812e-07
-7.43602e-08 1.24812e-07 -4.9294e-05
0.000959777 -3.88807e-06 -2.50762e-06
-3.88807e-06 9.87502e-06 -1.96108e-06
-2.50762e-06 -1.96108e-06 -3.35316e-05
0.00102233 2.44451e-06 1.16045e-06
2.44451e-06 3.64064e-05 1.3317e-06
1.16045e-06 1.3317e-06 -2.54243e-05
0.000957146 -1.20953e-06 -8.4946e-08
-1.20953e-06 4.83469e-06 2.24778e-08
-8.4946e-08 2.24778e-08 -3.67926e-05
0.000873483 -1.7404e-05 -3.72241e-06
-1.7404e-05 -3.36638e-05 -3.4709e-06
-3.72241e-06 -3.4709e-06 -4.4128e-05
0.0025276 -2.4873e-05 -1.43727e-05
-2.4873e-05 0.000789763 -4.03761e-06
-1.43727e-05 -4.03761e-06 0.00080707
0.000871983 -1.55387e-05 -1.41812e-07
-1.55387e-05 -3.85147e-05 2.65885e-09
-1.41812e-07 2.65885e-09 -4.72237e-05
0.000963173 -2.68826e-07 1.89885e-06
-2.68826e-07 5.93243e-06 2.37122e-06
1.89885e-06 2.37122e-06 -3.35899e-05
0.00248822 -2.19631e-05 -3.98635e-07
-2.19631e-05 0.000765146 4.98439e-08
-3.98635e-07 4.98439e-08 0.000783776
0.000869948 -1.41373e-05 2.37561e-06
-1.41373e-05 -4.31873e-05 3.45589e-06
2.37561e-06 3.45589e-06 -4.99748e-05
0.00243375 -1.90512e-05 1.08745e-05
-1.90512e-05 0.000732831 4.01065e-06
1.08745e-05 4.01065e-06 0.000752873
0.00517088 3.42164e-05 1.2769e-05
3.42164e-05 0.00154265 -5.62283e-07
1.2769e-05 -5.62283e-07 0.00112016
-0.000496887 -1.52621e-06 1.64142e-05
-1.52621e-06 -0.000359657 4.87182e-07
1.64142e-05 4.87182e-07 -0.000368444
0.000568818 -1.5177e-05 7.56286e-06
-1.5177e-05 2.35986e-05 9.05766e-07
7.56286e-06 9.05766e-07 3.52212e-05
0.00106959 3.98213e-05 1.76627e-06
3.98213e-05 5.88912e-05 -1.58834e-08
1.76627e-06 -1.58834e-08 -1.78908e-05
0.00109396 3.85133e-05 7.99852e-07
3.85133e-05 7.8103e-05 1.14119e-08
7.99852e-07 1.14119e-08 6.53002e-06
0.00116561 4.26494e-05 8.5071e-09
4.26494e-05 0.000111181 -2.4297e-08
8.5071e-09 -2.4297e-08 3.55342e-05
0.00113098 4.15641e-05 -1.15943e-07
4.15641e-05 9.9487e-05 -1.32938e-07
-1.15943e-07 -1.32938e-07 2.80256e-05
0.00112988 4.23029e-05 8.42546e-07
4.23029e-05 0.000103846 3.92303e-07
8.42546e-07 3.92303e-07 3.1334e-05
0.000946793 3.97841e-05 -1.34936e-06
3.97841e-05 1.32085e-05 4.53876e-07
-1.34936e-06 4.53876e-07 -6.08565e-05
0.00096345 3.81967e-05 1.14168e-06
3.81967e-05 2.12426e-05 4.60567e-07
1.14168e-06 4.60567e-07 -6.2063e-05
0.000911658 3.97445e-05 6.40969e-07
3.97445e-05 -3.64596e-06 -1.96803e-07
6.40969e-07 -1.96803e-07 -8.18708e-05
0.000925873 4.42365e-05 6.89341e-07
4.42365e-05 9.75507e-06 1.9826e-07
6.89341e-07 1.9826e-07 -7.63911e-05
0.00071493 4.32197e-05 -5.80319e-07
4.32197e-05 -0.000105154 1.09045e-07
-5.80319e-07 1.09045e-07 -0.000182705
0.00241225 7.91197e-05 2.56911e-07
7.91197e-05 0.000686547 2.62954e-07
2.56911e-07 2.62954e-07 0.000601064
0.0016341 8.24323e-05 2.70619e-07
8.24323e-05 0.000250137 -2.84807e-06
2.70619e-07 -2.84807e-06 0.00014105
0.00117338 5.87467e-05 3.09118e-07
5.87467e-05 0.000110228 -1.2044e-07
3.09118e-07 -1.2044e-07 1.96739e-05
0.00122281 4.54423e-05 3.22904e-07
4.54423e-05 0.000151723 -3.15439e-07
3.22904e-07 -3.15439e-07 6.36649e-05
0.000132677 -2.43056e-05 -2.65311e-05
-2.43056e-05 -0.000234501 -1.56796e-05
-2.65311e-05 -1.56796e-05 -0.000326705
0.00318819 -4.18113e-05 -2.00174e-05
-4.18113e-05 0.000537488 -2.88334e-06
-2.00174e-05 -2.88334e-06 0.000102105
0.00245452 -0.000103253 -3.22554e-05
-0.000103253 0.000914962 -1.02545e-05
-3.22554e-05 -1.02545e-05 0.00082116
0.00397668 -6.79516e-05 6.14471e-05
-6.79516e-05 0.000717577 2.13604e-05
6.14471e-05 2.13604e-05 0.000104039
0.0029205 0.000115379 2.19251e-05
0.000115379 0.00101164 3.6407e-05
2.19251e-05 3.6407e-05 0.000850585
0.000794473 3.84806e-05 -1.00563e-05
3.84806e-05 -9.06755e-06 -2.84317e-06
-1.00563e-05 -2.84317e-06 -0.000127876
0.00123299 3.53316e-05 1.93008e-05
3.53316e-05 -0.000116237 1.01104e-05
1.93008e-05 1.01104e-05 -0.000193531
0.000814046 8.69247e-05 -5.61663e-07
8.69247e-05 -0.000151001 3.18624e-06
-5.61663e-07 3.18624e-06 -0.000278662
0.000536029 5.82525e-05 -2.72744e-07
5.82525e-05 -0.000120694 3.17212e-06
-2.72744e-07 3.17212e-06 -0.000244453
0.00170366 0.000127885 -3.02095e-05
0.000127885 0.000175113 -3.13486e-05
-3.02095e-05 -3.13486e-05 0.000152822
0.0015835 1.9574e-05 -0.000103907
1.9574e-05 0.000367532 -6.72647e-06
-0.000103907 -6.72647e-06 0.000140458
0.00470541 4.62199e-05 1.53658e-05
4.62199e-05 0.00145079 -2.04653e-07
1.53658e-05 -2.04653e-07 0.00103471
-0.00276701 -5.53671e-06 -6.87999e-05
-5.53671e-06 -0.00174702 5.19594e-06
-6.87999e-05 5.19594e-06 -0.00172405
0.00220216 -7.79555e-05 -3.54296e-06
-7.79555e-05 0.000140785 1.73267e-06
-3.54296e-06 1.73267e-06 0.000229319
0.000335598 6.75754e-05 2.41619e-05
6.75754e-05 2.52247e-06 -1.17308e-05
2.41619e-05 -1.17308e-05 -0.000282412
0.000486764 2.21459e-06 2.27321e-05
2.21459e-06 -0.000299029 -3.17163e-06
2.27321e-05 -3.17163e-06 -0.00071524
0.00178133 -5.48416e-05 -1.89928e-06
-5.48416e-05 -0.000152232 2.12776e-06
-1.89928e-06 2.12776e-06 -5.05826e-05
0.00108058 7.4937e-05 4.19167e-06
7.4937e-05 0.000233604 -4.11928e-06
4.19167e-06 -4.11928e-06 5.41872e-05
0.00147457 4.2472e-06 2.98624e-06
4.2472e-06 -0.000268432 -1.33199e-05
2.98624e-06 -1.33199e-05 -0.000182827
0.000849948 5.82287e-05 1.43407e-06
5.82287e-05 -0.000160933 -3.1487e-06
1.43407e-06 -3.1487e-06 -0.000214147
0.00185367 -0.000109949 9.09252e-06
-0.000109949 0.000158112 -2.94337e-06
9.09252e-06 -2.94337e-06 0.000130038
0.00162618 -5.56319e-05 2.32675e-06
-5.56319e-05 -3.50789e-06 -4.19865e-07
2.32675e-06 -4.19865e-07 6.3223e-06
0.00173461 -2.94586e-06 -1.23487e-06
-2.94586e-06 0.000106337 2.98611e-06
-1.23487e-06 2.98611e-06 0.000102593
0.00107534 -5.32237e-05 5.95284e-06
-5.32237e-05 -0.000147115 -7.22565e-07
5.95284e-06 -7.22565e-07 -0.000164928
0.00150023 -3.42836e-05 1.30027e-06
-3.42836e-05 4.21176e-05 5.03923e-07
1.30027e-06 5.03923e-07 2.96114e-05
0.00141767 -1.57009e-05 4.75848e-08
-1.57009e-05 1.79109e-05 2.39539e-06
4.75848e-08 2.39539e-06 -1.35805e-05
0.00124653 -4.06881e-05 2.19385e-06
-4.06881e-05 -2.61087e-05 9.74774e-07
2.19385e-06 9.74774e-07 -6.02119e-05
0.00137076 -3.22816e-05 3.33791e-07
-3.22816e-05 3.42367e-05 5.98696e-07
3.33791e-07 5.98696e-07 2.13682e-07
0.00143863 -2.44192e-05 -5.71928e-07
-2.44192e-05 7.43543e-05 1.50369e-06
-5.71928e-07 1.50369e-06 2.82689e-05
0.00134854 -3.9046e-05 9.25569e-07
-3.9046e-05 5.94651e-05 7.96527e-07
9.25569e-07 7.96527e-07 1.33163e-05
0.00129271 -3.38106e-05 -1.7117e-07
-3.38106e-05 3.80246e-05 1.29695e-08
-1.7117e-07 1.29695e-08 -8.22528e-06
0.00129218 -3.26582e-05 4.67919e-07
-3.26582e-05 5.04664e-05 8.58387e-07
4.67919e-07 8.58387e-07 -4.99956e-06
0.00118255 -3.54139e-05 1.69538e-07
-3.54139e-05 4.61005e-06 8.28562e-07
1.69538e-07 8.28562e-07 -4.3933e-05
0.0013078 -3.57832e-05 -5.70428e-07
-3.57832e-05 7.19841e-05 -3.92814e-07
-5.70428e-07 -3.92814e-07 1.71356e-05
0.00138847 -3.68904e-05 -1.81977e-07
-3.68904e-05 0.000120019 1.66314e-07
-1.81977e-07 1.66314e-07 5.92356e-05
0.00129536 -4.07224e-05 9.12351e-07
-4.07224e-05 7.88421e-05 1.46531e-07
9.12351e-07 1.46531e-07 1.70792e-05
0.00127385 -3.95808e-05 1.12668e-07
-3.95808e-05 7.75209e-05 -2.31242e-07
1.12668e-07 -2.31242e-07 1.36577e-05
0.00127889 -3.80547e-05 -7.9832e-07
-3.80547e-05 9.36514e-05 4.9416e-07
-7.9832e-07 4.9416e-07 3.02367e-05
0.00092152 -3.08214e-05 -1.81927e-06
-3.08214e-05 -3.94732e-05 1.36149e-06
-1.81927e-06 1.36149e-06 -0.000101339
0.00109445 -3.9612e-05 -2.39049e-07
-3.9612e-05 2.64838e-05 1.18475e-07
-2.39049e-07 1.18475e-07 -4.04858e-05
0.00123963 -4.37367e-05 1.15154e-06
-4.37367e-05 8.21342e-05 -9.41853e-07
1.15154e-06 -9.41853e-07 1.18282e-05
0.000930785 -1.84823e-06 -2.11943e-06
-1.84823e-06 1.36053e-05 1.7735e-06
-2.11943e-06 1.7735e-06 -3.66278e-05
0.00106459 -3.1071e-05 4.28734e-08
-3.1071e-05 5.09724e-05 5.07298e-08
4.28734e-08 5.07298e-08 -1.02278e-05
0.00109734 -4.16404e-05 4.94006e-07
-4.16404e-05 5.46528e-05 -9.14347e-07
4.94006e-07 -9.14347e-07 -1.3583e-05
0.000757745 2.43015e-05 -4.48513e-06
2.43015e-05 -5.97436e-05 2.96007e-06
-4.48513e-06 2.96007e-06 -7.66352e-05
0.000941432 7.92657e-07 -5.64699e-08
7.92657e-07 1.77212e-05 -8.1994e-09
-5.64699e-08 -8.1994e-09 -2.9359e-05
0.0010689 -2.68041e-05 1.00274e-06
-2.68041e-05 6.26939e-05 -9.51854e-07
1.00274e-06 -9.51854e-07 2.93467e-06
0.00256995 3.69092e-05 -1.58978e-05
3.69092e-05 0.000836085 3.35792e-06
-1.58978e-05 3.35792e-06 0.000848859
0.00082883 2.34529e-05 7.74513e-08
2.34529e-05 -3.33733e-05 3.88108e-08
7.74513e-08 3.88108e-08 -4.76227e-05
0.000949245 3.77691e-06 2.35587e-06
3.77691e-06 1.73874e-05 -1.55317e-06
2.35587e-06 -1.55317e-06 -2.68192e-05
0.0025017 3.38141e-05 1.82873e-07
3.38141e-05 0.000794959 6.62463e-08
1.82873e-07 6.62463e-08 0.000809373
0.000874885 2.21347e-05 4.14611e-06
2.21347e-05 -1.92662e-05 -3.10414e-06
4.14611e-06 -3.10414e-06 -3.12182e-05
0.00245297 3.07288e-05 1.50041e-05
3.07288e-05 0.000763885 -3.62584e-06
1.50041e-05 -3.62584e-06 0.000779752
0.00108402 3.5524e-05 -7.93496e-07
3.5524e-05 7.86188e-05 -4.99631e-07
-7.93496e-07 -4.99631e-07 8.68573e-06
0.00113617 3.24177e-05 8.76594e-08
3.24177e-05 0.000101589 6.75071e-08
8.76594e-08 6.75071e-08 3.2741e-05
0.000942777 1.04701e-05 -1.43609e-06
1.04701e-05 9.09531e-06 -6.86891e-07
-1.43609e-06 -6.86891e-07 -5.43698e-05
0.00108146 2.77953e-05 8.58211e-07
2.77953e-05 7.1791e-05 2.52853e-07
8.58211e-07 2.52853e-07 3.23183e-06
0.000932244 2.25452e-06 -3.06391e-07
2.25452e-06 -1.34477e-06 -8.3329e-08
-3.06391e-07 -8.3329e-08 -6.43269e-05
0.000952237 -5.23009e-06 -2.52046e-06
-5.23009e-06 1.25146e-05 -1.72613e-06
-2.52046e-06 -1.72613e-06 -3.2859e-05
0.000917524 -2.65533e-06 1.25479e-06
-2.65533e-06 -1.36251e-05 1.11601e-06
1.25479e-06 1.11601e-06 -7.66845e-05
0.000951532 -3.68617e-06 -1.50909e-08
-3.68617e-06 5.95104e-06 3.44063e-08
-1.50909e-08 3.44063e-08 -3.74871e-05
0.000865109 -1.96619e-05 -4.03423e-06
-1.96619e-05 -3.21805e-05 -3.34287e-06
-4.03423e-06 -3.34287e-06 -4.43016e-05
0.000951304 -4.82128e-07 2.40041e-06
-4.82128e-07 1.77727e-06 2.31744e-06
2.40041e-06 2.31744e-06 -3.98343e-05
0.00086126 -1.71626e-05 -1.10217e-07
-1.71626e-05 -4.01072e-05 2.88814e-08
-1.10217e-07 2.88814e-08 -5.04147e-05
0.00254573 -2.78943e-05 -1.50787e-05
-2.78943e-05 0.000803867 -3.9175e-06
-1.50787e-05 -3.9175e-06 0.000820051
0.00254495 -2.49127e-05 -3.20083e-07
-2.49127e-05 0.000797928 5.9607e-08
-3.20083e-07 5.9607e-08 0.000815299
0.000858221 -1.53791e-05 2.89694e-06
-1.53791e-05 -4.54948e-05 3.53551e-06
2.89694e-06 3.53551e-06 -5.40583e-05
0.00249314 -2.20341e-05 1.24289e-05
-2.20341e-05 0.000767165 3.99879e-06
1.24289e-05 3.99879e-06 0.000785909
0.000294561 -2.39344e-05 -4.69382e-05
-2.39344e-05 -0.000181886 -8.83961e-06
-4.69382e-05 -8.83961e-06 -0.000280433
0.00172412 2.86689e-06 -1.22288e-05
2.86689e-06 1.83736e-05 -5.27167e-06
-1.22288e-05 -5.27167e-06 -0.000387678
0.00302255 -7.55168e-05 -2.98539e-05
-7.55168e-05 0.00106445 -3.2596e-06
-2.98539e-05 -3.2596e-06 0.000996699
0.00119589 4.5625e-05 1.56574e-06
4.5625e-05 0.000122881 2.4294e-07
1.56574e-06 2.4294e-07 4.93924e-05
0.00118784 4.3154e-05 1.18448e-06
4.3154e-05 0.000122396 -1.52884e-07
1.18448e-06 -1.52884e-07 4.68464e-05
0.00110307 4.1272e-05 6.08849e-07
4.1272e-05 8.59215e-05 -3.40676e-08
6.08849e-07 -3.40676e-08 1.44632e-05
0.00106522 4.19793e-05 -6.60982e-09
4.19793e-05 7.04018e-05 4.45201e-08
-6.60982e-09 4.45201e-08 -3.86558e-06
0.00109662 4.21337e-05 -1.5776e-07
4.21337e-05 8.88821e-05 -1.71727e-07
-1.5776e-07 -1.71727e-07 1.60251e-05
0.000855224 4.17651e-05 -1.24701e-06
4.17651e-05 -2.90618e-05 5.24375e-07
-1.24701e-06 5.24375e-07 -9.93202e-05
0.00115452 4.38162e-05 2.18646e-06
4.38162e-05 0.000114927 -8.92547e-07
2.18646e-06 -8.92547e-07 3.58625e-05
0.00114073 4.84848e-05 1.6521e-06
4.84848e-05 0.000119026 -5.41721e-07
1.6521e-06 -5.41721e-07 3.21377e-05
0.00108492 4.97759e-05 -1.46252e-07
4.97759e-05 7.20772e-05 -9.9054e-08
-1.46252e-07 -9.9054e-08 -4.94995e-06
0.00179472 6.90153e-05 2.16459e-07
6.90153e-05 0.000399245 3.4425e-07
2.16459e-07 3.4425e-07 0.000315311
0.00145828 6.95765e-05 1.57329e-07
6.95765e-05 0.000168788 -1.90491e-06
1.57329e-07 -1.90491e-06 7.80379e-05
0.00173594 7.54327e-05 -8.8615e-06
7.54327e-05 0.0001572 -2.78758e-06
-8.8615e-06 -2.78758e-06 4.59055e-05
0.00129857 7.59179e-05 2.90849e-06
7.59179e-05 8.78468e-05 1.35934e-06
2.90849e-06 1.35934e-06 -2.03942e-05
0.000642609 4.95226e-05 -6.1321e-07
4.95226e-05 -0.000154569 2.62051e-06
-6.1321e-07 2.62051e-06 -0.000244073
0.00200896 -2.91529e-05 2.48386e-06
-2.91529e-05 0.000103315 6.94555e-06
2.48386e-06 6.94555e-06 3.93369e-05
0.00103055 -2.47472e-06 2.63018e-06
-2.47472e-06 -1.63593e-05 1.31004e-06
2.63018e-06 1.31004e-06 -0.000157598
0.000674228 -4.53213e-05 -3.20765e-05
-4.53213e-05 -0.000406587 -1.21951e-05
-3.20765e-05 -1.21951e-05 -0.000765349
0.00282124 9.1691e-05 1.66158e-05
9.1691e-05 0.000492718 2.67376e-05
1.66158e-05 2.67376e-05 0.00028434
0.00161213 4.48433e-05 5.36966e-06
4.48433e-05 -4.06962e-06 1.59546e-06
5.36966e-06 1.59546e-06 -9.45612e-05
-0.000609197 7.2587e-05 -1.35328e-06
7.2587e-05 -0.00081325 2.39607e-06
-1.35328e-06 2.39607e-06 -0.000949107
0.00204647 1.14553e-05 6.97203e-06
1.14553e-05 0.000546989 -4.2992e-06
6.97203e-06 -4.2992e-06 0.00049153
0.000432045 6.10028e-06 -1.97585e-05
6.10028e-06 3.92129e-05 2.18331e-07
-1.97585e-05 2.18331e-07 -9.2792e-05
0.00118494 0.000106505 6.44848e-05
0.000106505 -0.000318017 -2.52866e-06
6.44848e-05 -2.52866e-06 -0.000707796
0.00236497 -6.79846e-05 -1.63039e-06
-6.79846e-05 0.000155337 6.58066e-06
-1.63039e-06 6.58066e-06 0.000218535
0.000957182 7.53732e-05 4.12808e-05
7.53732e-05 -4.22398e-06 -1.76495e-05
4.12808e-05 -1.76495e-05 -0.000243582
0.00207863 -5.49217e-06 3.69801e-06
-5.49217e-06 3.35485e-05 -8.27326e-07
3.69801e-06 -8.27326e-07 8.20468e-05
0.00115917 6.47571e-05 8.57807e-07
6.47571e-05 -2.71725e-06 -3.25349e-06
8.57807e-07 -3.25349e-06 -5.87434e-05
0.000983213 4.71797e-05 -5.97126e-06
4.71797e-05 -0.000306487 2.39708e-07
-5.97126e-06 2.39708e-07 -0.000360136
0.000423612 3.83349e-05 -4.67481e-06
3.83349e-05 -0.000472786 -4.13737e-06
-4.67481e-06 -4.13737e-06 -0.000550997
0.00141982 -5.37052e-05 9.87812e-06
-5.37052e-05 -0.000102753 -3.00706e-06
9.87812e-06 -3.00706e-06 -8.66417e-05
0.00157772 -4.94128e-06 2.25622e-06
-4.94128e-06 4.37007e-05 1.28641e-07
2.25622e-06 1.28641e-07 3.37416e-05
0.00163652 1.68104e-05 -1.33422e-06
1.68104e-05 0.000130135 1.17678e-06
-1.33422e-06 1.17678e-06 8.28893e-05
0.00162217 -3.49593e-05 1.11444e-06
-3.49593e-05 0.000106868 -5.13632e-07
1.11444e-06 -5.13632e-07 9.21246e-05
0.00154115 -1.62236e-05 -2.24836e-07
-1.62236e-05 8.25621e-05 3.03954e-08
-2.24836e-07 3.03954e-08 4.95072e-05
0.00150914 -6.88259e-06 -4.49728e-07
-6.88259e-06 8.85706e-05 1.80193e-06
-4.49728e-07 1.80193e-06 3.61793e-05
0.0014305 -3.30314e-05 -1.47506e-07
-3.30314e-05 6.71626e-05 -4.85349e-07
-1.47506e-07 -4.85349e-07 3.16576e-05
0.00140481 -2.57872e-05 -7.94488e-07
-2.57872e-05 6.54043e-05 -5.48637e-07
-7.94488e-07 -5.48637e-07 1.94153e-05
0.00132583 -2.5255e-05 -3.08828e-07
-2.5255e-05 4.21931e-05 1.74263e-06
-3.08828e-07 1.74263e-06 -1.77148e-05
0.0012559 -3.47112e-05 -3.69722e-07
-3.47112e-05 2.48887e-05 -1.23752e-06
-3.69722e-07 -1.23752e-06 -2.17569e-05
0.00128071 -3.23494e-05 8.50359e-08
-3.23494e-05 4.56742e-05 -3.88119e-07
8.50359e-08 -3.88119e-07 -9.82211e-06
0.00128476 -3.35559e-05 -1.75441e-07
-3.35559e-05 5.78907e-05 7.47169e-07
-1.75441e-07 7.47169e-07 -4.02938e-06
0.00119939 -3.42736e-05 -5.47214e-07
-3.42736e-05 1.92895e-05 3.57838e-08
-5.47214e-07 3.57838e-08 -3.45828e-05
0.00128761 -3.50408e-05 -1.66519e-07
-3.50408e-05 7.04776e-05 -2.4941e-07
-1.66519e-07 -2.4941e-07 1.02985e-05
0.00123802 -3.37788e-05 -7.90375e-07
-3.37788e-05 5.99049e-05 4.9075e-07
-7.90375e-07 4.9075e-07 -2.66052e-06
0.00127366 -3.94283e-05 9.03768e-07
-3.94283e-05 7.74395e-05 -4.58018e-07
9.03768e-07 -4.58018e-07 1.33621e-05
0.00118447 -3.6749e-05 1.64455e-07
-3.6749e-05 4.77495e-05 -1.33557e-07
1.64455e-07 -1.33557e-07 -1.6022e-05
0.00116063 -3.21826e-05 -1.5255e-06
-3.21826e-05 5.76876e-05 1.03268e-06
-1.5255e-06 1.03268e-06 -2.91511e-06
0.000946065 -8.75664e-06 -2.24857e-06
-8.75664e-06 1.10359e-05 1.70715e-06
-2.24857e-06 1.70715e-06 -4.08604e-05
0.00099491 -3.15729e-05 -3.76202e-07
-3.15729e-05 -1.88284e-06 2.25026e-07
-3.76202e-07 2.25026e-07 -6.3448e-05
0.00115834 -4.05974e-05 8.04507e-07
-4.05974e-05 5.97657e-05 -8.5366e-07
8.04507e-07 -8.5366e-07 -7.04438e-06
0.000723661 2.58835e-05 -4.3907e-06
2.58835e-05 -6.89068e-05 2.98747e-06
-4.3907e-06 2.98747e-06 -8.94164e-05
0.000940826 -4.60205e-06 -3.79596e-08
-4.60205e-06 1.6564e-05 6.81278e-08
-3.79596e-08 6.81278e-08 -3.34576e-05
0.00107054 -3.05566e-05 1.18466e-06
-3.05566e-05 5.37977e-05 -1.06405e-06
1.18466e-06 -1.06405e-06 -7.38822e-06
0.00262433 3.97749e-05 -1.65044e-05
3.97749e-05 0.000871945 3.19406e-06
-1.65044e-05 3.19406e-06 0.000882757
0.000806227 2.50643e-05 -2.86382e-08
2.50643e-05 -3.60571e-05 -6.21361e-09
-2.86382e-08 -6.21361e-09 -5.3157e-05
0.000958353 -1.34236e-06 2.30685e-06
-1.34236e-06 2.37759e-05 -1.64172e-06
2.30685e-06 -1.64172e-06 -2.30747e-05
0.00253696 3.66788e-05 2.12779e-07
3.66788e-05 0.000821114 8.05139e-08
2.12779e-07 8.05139e-08 0.000833734
0.000860626 2.38873e-05 4.41568e-06
2.38873e-05 -1.75904e-05 -2.96161e-06
4.41568e-06 -2.96161e-06 -3.2018e-05
0.00246359 3.36152e-05 1.55007e-05
3.36152e-05 0.000777383 -3.49157e-06
1.55007e-05 -3.49157e-06 0.000791696
0.000996281 3.86215e-05 -6.98337e-07
3.86215e-05 2.92937e-05 -6.11336e-07
-6.98337e-07 -6.11336e-07 -4.19159e-05
0.00106748 3.53482e-05 -7.67952e-08
3.53482e-05 7.0176e-05 -1.57445e-07
-7.67952e-08 -1.57445e-07 3.83395e-07
0.00106087 1.99585e-05 -1.18868e-06
1.99585e-05 6.82675e-05 -5.1097e-07
-1.18868e-06 -5.1097e-07 4.33159e-06
0.00121992 3.42358e-05 6.58809e-07
3.42358e-05 0.000142336 6.30088e-08
6.58809e-07 6.30088e-08 7.38133e-05
0.000994257 1.18785e-05 -2.24034e-07
1.18785e-05 3.49702e-05 -9.15044e-08
-2.24034e-07 -9.15044e-08 -2.82992e-05
0.000949352 -4.84063e-06 -2.47218e-06
-4.84063e-06 1.87889e-05 -1.5635e-06
-2.47218e-06 -1.5635e-06 -2.90392e-05
0.000941399 6.26984e-06 1.0677e-06
6.26984e-06 3.96055e-06 5.85167e-07
1.0677e-06 5.85167e-07 -5.897e-05
0.000943521 -5.60243e-06 6.58377e-09
-5.60243e-06 8.96144e-06 3.14116e-08
6.58377e-09 3.14116e-08 -3.65371e-05
0.00085648 -2.22401e-05 -4.23198e-06
-2.22401e-05 -2.83489e-05 -3.17047e-06
-4.23198e-06 -3.17047e-06 -4.25525e-05
0.000942422 -3.62325e-06 2.58667e-06
-3.62325e-06 1.62024e-06 2.13889e-06
2.58667e-06 2.13889e-06 -4.18497e-05
0.000851231 -1.93452e-05 -4.51895e-08
-1.93452e-05 -3.95755e-05 3.07292e-08
-4.51895e-08 3.07292e-08 -5.1526e-05
0.002545 -3.09318e-05 -1.55075e-05
-3.09318e-05 0.000810038 -3.7541e-06
-1.55075e-05 -3.7541e-06 0.000824984
0.000848979 -1.69262e-05 3.46286e-06
-1.69262e-05 -4.66154e-05 3.53903e-06
3.46286e-06 3.53903e-06 -5.67602e-05
0.00258004 -2.79384e-05 -2.5431e-07
-2.79384e-05 0.00082018 6.71969e-08
-2.5431e-07 6.71969e-08 0.000836381
0.00256031 -2.49913e-05 1.38718e-05
-2.49913e-05 0.000805156 3.98079e-06
1.38718e-05 3.98079e-06 0.000822589
0.00142058 -4.72546e-05 3.98895e-06
-4.72546e-05 -5.73673e-05 4.33199e-07
3.98895e-06 4.33199e-07 -9.64637e-05
0.00127216 4.47863e-06 -5.02656e-06
4.47863e-06 0.00011819 6.17272e-06
-5.02656e-06 6.17272e-06 -7.02185e-05
0.00395685 3.63084e-05 -5.57842e-05
3.63084e-05 0.00107777 -1.39027e-05
-5.57842e-05 -1.39027e-05 0.000668239
0.000976407 4.27228e-05 7.43071e-07
4.27228e-05 1.08818e-05 2.13029e-07
7.43071e-07 2.13029e-07 -5.96349e-05
0.00130808 5.04907e-05 1.26691e-06
5.04907e-05 0.000138816 -9.33954e-07
1.26691e-06 -9.33954e-07 6.29148e-05
0.000956489 4.20507e-05 2.95308e-07
4.20507e-05 1.28161e-05 -2.21455e-07
2.95308e-07 -2.21455e-07 -6.0542e-05
0.00116201 4.37966e-05 1.03868e-06
4.37966e-05 0.000116264 -6.17965e-07
1.03868e-06 -6.17965e-07 4.19277e-05
0.00108818 4.24896e-05 1.49605e-07
4.24896e-05 8.56902e-05 1.66248e-08
1.49605e-07 1.66248e-08 1.24748e-05
0.00105728 4.58103e-05 4.14481e-07
4.58103e-05 6.41518e-05 4.74705e-07
4.14481e-07 4.74705e-07 -6.47328e-06
0.00130172 6.02467e-05 -1.21658e-06
6.02467e-05 9.8068e-05 -2.27638e-06
-1.21658e-06 -2.27638e-06 1.57204e-05
0.00136496 5.47354e-05 1.73467e-06
5.47354e-05 0.000207604 7.03961e-08
1.73467e-06 7.03961e-08 0.000131001
0.00089787 5.4352e-05 -1.49978e-06
5.4352e-05 -1.83326e-05 1.35275e-06
-1.49978e-06 1.35275e-06 -0.000100957
0.00131041 6.71568e-05 -4.31107e-07
6.71568e-05 0.000101205 -1.49633e-07
-4.31107e-07 -1.49633e-07 1.02228e-05
0.00122106 6.00171e-05 -2.75665e-06
6.00171e-05 -5.87876e-05 -2.33624e-06
-2.75665e-06 -2.33624e-06 -0.000157231
0.00171496 2.23244e-05 -7.18796e-06
2.23244e-05 8.33871e-05 1.48844e-06
-7.18796e-06 1.48844e-06 8.84383e-06
0.00178917 7.41464e-05 -9.48234e-07
7.41464e-05 0.000178951 1.21293e-06
-9.48234e-07 1.21293e-06 7.00649e-05
0.000920817 6.78755e-05 2.1816e-07
6.78755e-05 -9.87051e-05 4.1552e-06
2.1816e-07 4.1552e-06 -0.000205292
0.00187506 -2.27458e-05 1.08291e-06
-2.27458e-05 4.31988e-05 6.34498e-07
1.08291e-06 6.34498e-07 -1.99619e-05
0.00168171 -5.4917e-06 6.29413e-05
-5.4917e-06 0.000181939 2.38174e-05
6.29413e-05 2.38174e-05 -1.97739e-05
0.00227004 6.15148e-05 -4.54011e-06
6.15148e-05 0.000258794 -3.38248e-06
-4.54011e-06 -3.38248e-06 0.000152586
0.00167848 2.47836e-05 -3.74719e-06
2.47836e-05 0.000177346 -3.42179e-06
-3.74719e-06 -3.42179e-06 0.000122247
0.00121552 1.87777e-06 1.99963e-06
1.87777e-06 0.000124269 -5.21605e-07
1.99963e-06 -5.21605e-07 7.96675e-05
0.00097693 4.1571e-05 5.0235e-05
4.1571e-05 1.79939e-05 2.35993e-06
5.0235e-05 2.35993e-06 -0.000163281
0.00224077 -1.48175e-05 7.19666e-06
-1.48175e-05 0.000127375 -2.53779e-07
7.19666e-06 -2.53779e-07 0.000142975
0.00118783 6.8332e-05 -2.25284e-06
6.8332e-05 2.62782e-05 1.05693e-06
-2.25284e-06 1.05693e-06 -3.0518e-05
0.00160056 5.25526e-05 -1.25868e-06
5.25526e-05 -1.44701e-05 4.11317e-06
-1.25868e-06 4.11317e-06 -6.31423e-05
0.00122503 4.89486e-05 1.77704e-07
4.89486e-05 -7.49386e-05 1.34312e-06
1.77704e-07 1.34312e-06 -0.00015015
0.00144024 4.18285e-05 -3.64667e-06
4.18285e-05 5.22026e-05 -7.01842e-07
-3.64667e-06 -7.01842e-07 -1.72451e-05
0.00131303 3.88462e-05 -2.88497e-06
3.88462e-05 3.20238e-05 -2.04218e-06
-2.88497e-06 -2.04218e-06 -2.81775e-05
0.00129389 -6.72637e-06 4.30765e-06
-6.72637e-06 -8.11639e-05 -1.85466e-06
4.30765e-06 -1.85466e-06 -9.67104e-05
0.00156206 1.51156e-05 -9.30207e-07
1.51156e-05 9.41208e-05 -1.31212e-06
-9.30207e-07 -1.31212e-06 4.74997e-05
0.00156351 2.43412e-05 -1.35532e-06
2.43412e-05 0.000112151 7.78349e-07
-1.35532e-06 7.78349e-07 4.61411e-05
0.00156226 -1.64234e-05 -1.4862e-06
-1.64234e-05 9.69403e-05 -1.82472e-06
-1.4862e-06 -1.82472e-06 6.26764e-05
0.00147844 -6.85197e-06 -2.49261e-07
-6.85197e-06 7.7397e-05 -2.91764e-07
-2.49261e-07 -2.91764e-07 2.47469e-05
0.00131746 -5.06481e-06 -8.86959e-07
-5.06481e-06 1.26199e-05 1.57717e-06
-8.86959e-07 1.57717e-06 -5.23405e-05
0.00135093 -2.6922e-05 -1.58952e-06
-2.6922e-05 4.65006e-05 -2.21301e-06
-1.58952e-06 -2.21301e-06 6.84989e-07
0.00133336 -2.4776e-05 1.62581e-07
-2.4776e-05 4.6002e-05 -1.05243e-07
1.62581e-07 -1.05243e-07 -1.39227e-05
0.00132105 -2.73257e-05 -5.77952e-07
-2.73257e-05 5.35375e-05 1.31458e-06
-5.77952e-07 1.31458e-06 -1.24085e-05
0.00127057 -3.20324e-05 -2.37403e-07
-3.20324e-05 4.15034e-05 -1.64255e-06
-2.37403e-07 -1.64255e-06 -1.40214e-05
0.0012826 -3.30603e-05 2.05479e-08
-3.30603e-05 5.66796e-05 -2.76773e-07
2.05479e-08 -2.76773e-07 -5.21075e-06
0.00125652 -3.29623e-05 -7.63224e-07
-3.29623e-05 5.7881e-05 7.38686e-07
-7.63224e-07 7.38686e-07 -6.24661e-06
0.00118597 -3.32567e-05 1.7699e-07
-3.32567e-05 2.05485e-05 -4.48827e-07
1.7699e-07 -4.48827e-07 -3.9028e-05
0.00118212 -3.29799e-05 -1.25763e-07
-3.29799e-05 3.28126e-05 -1.07922e-07
-1.25763e-07 -1.07922e-07 -2.96208e-05
0.00116634 -2.96992e-05 -1.54445e-06
-2.96992e-05 4.81083e-05 8.97474e-07
-1.54445e-06 8.97474e-07 -1.23977e-05
0.00109646 -3.5541e-05 1.2068e-06
-3.5541e-05 4.90827e-06 -8.21325e-07
1.2068e-06 -8.21325e-07 -5.9225e-05
0.00105831 -3.03869e-05 1.87304e-08
-3.03869e-05 8.50473e-06 1.29758e-08
1.87304e-08 1.29758e-08 -5.2275e-05
0.000971312 -1.39615e-05 -2.50121e-06
-1.39615e-05 9.033e-06 1.50018e-06
-2.50121e-06 1.50018e-06 -4.31381e-05
0.00077238 2.56592e-05 -4.38844e-06
2.56592e-05 -4.18542e-05 2.96311e-06
-4.38844e-06 2.96311e-06 -6.59896e-05
0.000949016 -1.03245e-05 -3.3012e-09
-1.03245e-05 1.16492e-05 1.21618e-07
-3.3012e-09 1.21618e-07 -4.01081e-05
0.00107925 -3.25291e-05 9.36462e-07
-3.25291e-05 4.08716e-05 -8.44525e-07
9.36462e-07 -8.44525e-07 -2.03936e-05
0.00270354 4.27354e-05 -1.70245e-05
4.27354e-05 0.000920011 3.04353e-06
-1.70245e-05 3.04353e-06 0.000928619
0.000786374 2.69138e-05 1.14428e-08
2.69138e-05 -3.8786e-05 -3.02568e-08
1.14428e-08 -3.02568e-08 -5.94896e-05
0.000954197 -7.11529e-06 2.35063e-06
-7.11529e-06 2.11406e-05 -1.68721e-06
2.35063e-06 -1.68721e-06 -2.86673e-05
0.00259433 3.95388e-05 1.70553e-07
3.95388e-05 0.000858372 7.80055e-08
1.70553e-07 7.80055e-08 0.000868994
0.000853154 2.58004e-05 4.33179e-06
2.58004e-05 -1.31133e-05 -2.91882e-06
4.33179e-06 -2.91882e-06 -3.04203e-05
0.00250607 3.64759e-05 1.60833e-05
3.64759e-05 0.000807156 -3.31683e-06
1.60833e-05 -3.31683e-06 0.000819618
0.000836641 3.9598e-05 -4.95793e-07
3.9598e-05 -6.59986e-05 -7.43436e-07
-4.95793e-07 -7.43436e-07 -0.00014027
0.000905479 3.7376e-05 -2.92732e-08
3.7376e-05 -1.60918e-05 -9.6575e-08
-2.92732e-08 -9.6575e-08 -8.76241e-05
0.00109189 2.76611e-05 -1.26826e-06
2.76611e-05 7.57896e-05 -4.59703e-07
-1.26826e-06 -4.59703e-07 1.11451e-05
0.00104821 3.50933e-05 4.5583e-07
3.50933e-05 6.03735e-05 7.98417e-08
4.5583e-07 7.98417e-08 -9.26889e-06
0.00102707 1.86938e-05 -3.59977e-09
1.86938e-05 5.23667e-05 6.68868e-09
-3.59977e-09 6.68868e-09 -1.15509e-05
0.000952169 -2.45314e-06 -2.51302e-06
-2.45314e-06 2.59768e-05 -1.38528e-06
-2.51302e-06 -1.38528e-06 -2.4355e-05
0.0010465 1.33348e-05 1.03898e-06
1.33348e-05 6.1243e-05 4.18884e-07
1.03898e-06 4.18884e-07 -1.83505e-06
0.000936272 -5.71788e-06 2.97616e-08
-5.71788e-06 1.36456e-05 1.8412e-08
2.97616e-08 1.8412e-08 -3.43574e-05
0.000848093 -2.48466e-05 -4.3118e-06
-2.48466e-05 -2.24353e-05 -3.00219e-06
-4.3118e-06 -3.00219e-06 -3.92777e-05
0.00093758 -5.93213e-06 2.61702e-06
-5.93213e-06 6.7823e-06 1.90308e-06
2.61702e-06 1.90308e-06 -3.88499e-05
0.000836988 -2.18302e-05 -2.39436e-08
-2.18302e-05 -3.84069e-05 3.08355e-08
-2.39436e-08 3.08355e-08 -5.2436e-05
0.00254624 -3.3926e-05 -1.58812e-05
-3.3926e-05 0.000819106 -3.56989e-06
-1.58812e-05 -3.56989e-06 0.000832482
0.000838359 -1.90421e-05 3.92024e-06
-1.90421e-05 -4.64917e-05 3.43492e-06
3.92024e-06 3.43492e-06 -5.82719e-05
0.0025909 -3.10414e-05 -2.08509e-07
-3.10414e-05 0.000831653 6.92956e-08
-2.08509e-07 6.92956e-08 0.000846631
0.00261528 -2.8021e-05 1.50329e-05
-2.8021e-05 0.00083701 3.92859e-06
1.50329e-05 3.92859e-06 0.000853215
0.00166707 -1.15133e-05 -1.48371e-06
-1.15133e-05 0.000106547 -3.56951e-07
-1.48371e-06 -3.56951e-07 5.92921e-05
0.00115397 -4.10355e-05 -9.15854e-07
-4.10355e-05 -0.000109628 -1.7812e-06
-9.15854e-07 -1.7812e-06 -0.000146987
-0.000320677 -1.10197e-05 3.92743e-05
-1.10197e-05 -0.000284383 1.36084e-05
3.92743e-05 1.36084e-05 -0.00038451
0.00166392 5.68095e-05 7.58639e-07
5.68095e-05 0.000273172 -1.73872e-06
7.58639e-07 -1.73872e-06 0.000197307
0.000963028 4.31601e-05 -4.90783e-07
4.31601e-05 1.26981e-05 1.89926e-07
-4.90783e-07 1.89926e-07 -5.57249e-05
0.000796278 4.46883e-05 -1.8559e-06
4.46883e-05 -0.00015531 -5.17342e-07
-1.8559e-06 -5.17342e-07 -0.000236297
0.00127124 4.9943e-05 9.85028e-08
4.9943e-05 0.000120566 4.83164e-08
9.85028e-08 4.83164e-08 4.42232e-05
0.000725066 3.84633e-05 -5.15109e-07
3.84633e-05 -9.2632e-05 7.02308e-07
-5.15109e-07 7.02308e-07 -0.000165959
0.00156305 5.73135e-05 -2.58198e-06
5.73135e-05 0.000123844 -3.85727e-06
-2.58198e-06 -3.85727e-06 3.56161e-05
0.00125876 4.97308e-05 3.06521e-07
4.97308e-05 0.000156876 -4.57867e-08
3.06521e-07 -4.57867e-08 8.59274e-05
0.00129533 5.92423e-05 8.77122e-08
5.92423e-05 9.07773e-05 5.67541e-07
8.77122e-08 5.67541e-07 9.12936e-06
0.00151106 1.92575e-05 -2.1154e-06
1.92575e-05 1.75887e-05 2.02549e-06
-2.1154e-06 2.02549e-06 -5.95063e-05
0.00118768 6.50237e-05 1.06159e-06
6.50237e-05 4.46209e-05 2.43842e-06
1.06159e-06 2.43842e-06 -4.64893e-05
0.00148139 6.4686e-05 -7.60487e-07
6.4686e-05 5.78177e-05 -5.59532e-07
-7.60487e-07 -5.59532e-07 -4.19525e-05
0.0016887 2.09185e-05 -2.4269e-07
2.09185e-05 6.81726e-05 7.68819e-07
-2.4269e-07 7.68819e-07 -6.90805e-06
0.00168632 6.98852e-05 3.21713e-06
6.98852e-05 0.000128962 2.50109e-06
3.21713e-06 2.50109e-06 2.22729e-05
0.00173266 -1.60496e-05 -8.77188e-06
-1.60496e-05 -2.15922e-05 -8.03458e-06
-8.77188e-06 -8.03458e-06 -8.31944e-05
0.00160594 2.09207e-06 -1.83835e-06
2.09207e-06 0.000177554 -1.64553e-06
-1.83835e-06 -1.64553e-06 0.000126791
0.00116692 1.95631e-05 1.94702e-06
1.95631e-05 -7.42635e-05 5.35503e-07
1.94702e-06 5.35503e-07 -0.000128496
0.000375483 -5.62838e-06 2.76e-07
-5.62838e-06 -0.000298346 2.5e-06
2.76e-07 2.5e-06 -0.000333532
0.00222862 5.72405e-05 2.98867e-06
5.72405e-05 0.000283596 -2.54094e-06
2.98867e-06 -2.54094e-06 0.000238437
0.00206456 5.9525e-05 1.25519e-05
5.9525e-05 0.000343139 5.45212e-06
1.25519e-05 5.45212e-06 0.000270737
0.00164462 4.47545e-05 -2.4066e-06
4.47545e-05 0.000138081 -1.09438e-06
-2.4066e-06 -1.09438e-06 6.94059e-05
0.00144352 3.91233e-05 8.5695e-07
3.91233e-05 9.67929e-05 1.65183e-06
8.5695e-07 1.65183e-06 3.6839e-05
0.00143555 3.74369e-05 -3.39453e-06
3.74369e-05 8.75657e-05 -2.4643e-06
-3.39453e-06 -2.4643e-06 2.28501e-05
0.00154719 1.32415e-05 -1.49212e-06
1.32415e-05 8.82177e-05 -2.40215e-06
-1.49212e-06 -2.40215e-06 4.1876e-05
0.00153347 2.31684e-05 8.17958e-09
2.31684e-05 9.51896e-05 -2.83034e-07
8.17958e-09 -2.83034e-07 3.02873e-05
0.00149785 2.51284e-05 -2.45363e-06
2.51284e-05 9.12865e-05 -5.26629e-07
-2.45363e-06 -5.26629e-07 2.12111e-05
0.00146093 -6.99164e-06 -4.32534e-07
-6.99164e-06 7.29408e-05 -1.99162e-06
-4.32534e-07 -1.99162e-06 1.99573e-05
0.00137415 -4.74311e-06 2.49479e-07
-4.74311e-06 4.11484e-05 1.81048e-07
2.49479e-07 1.81048e-07 -2.4292e-05
0.0013882 -5.4759e-06 -1.20447e-06
-5.4759e-06 6.19138e-05 9.9596e-07
-1.20447e-06 9.9596e-07 -8.09338e-06
0.00133867 -2.42313e-05 2.73756e-07
-2.42313e-05 4.87731e-05 -1.9132e-06
2.73756e-07 -1.9132e-06 -1.11693e-05
0.00132911 -2.66297e-05 1.2355e-07
-2.66297e-05 5.67635e-05 -5.0235e-08
1.2355e-07 -5.0235e-08 -9.21649e-06
0.00128952 -2.85437e-05 -1.04972e-06
-2.85437e-05 5.47568e-05 1.01094e-06
-1.04972e-06 1.01094e-06 -1.2417e-05
0.00128059 -3.26136e-05 2.36637e-07
-3.26136e-05 5.55402e-05 -1.28935e-06
2.36637e-07 -1.28935e-06 -6.32152e-06
0.00125515 -3.26799e-05 -9.15458e-09
-3.26799e-05 5.69641e-05 -1.66532e-07
-9.15458e-09 -1.66532e-07 -7.15025e-06
0.00118262 -2.8818e-05 -1.49357e-06
-2.8818e-05 4.39842e-05 8.9858e-07
-1.49357e-06 8.9858e-07 -1.81178e-05
0.00112037 -3.20714e-05 7.45878e-07
-3.20714e-05 2.91317e-06 -7.24465e-07
7.45878e-07 -7.24465e-07 -5.93821e-05
0.00115456 -2.91524e-05 -2.04665e-08
-2.91524e-05 4.25416e-05 -3.41173e-08
-2.04665e-08 -3.41173e-08 -1.79122e-05
0.000998954 -1.55253e-05 -2.58026e-06
-1.55253e-05 9.24732e-06 1.37324e-06
-2.58026e-06 1.37324e-06 -4.33297e-05
0.000946206 -2.84072e-05 1.42393e-06
-2.84072e-05 -4.53117e-05 -9.50569e-07
1.42393e-06 -9.50569e-07 -0.000106266
0.000965351 -1.39227e-05 -3.30589e-08
-1.39227e-05 6.43107e-06 7.98607e-08
-3.30589e-08 7.98607e-08 -4.5722e-05
0.00163264 2.59322e-05 -4.775e-06
2.59322e-05 0.000387633 1.58036e-06
-4.775e-06 1.58036e-06 0.000364603
0.00118837 2.9213e-05 -1.84743e-05
2.9213e-05 0.000172216 5.18429e-06
-1.84743e-05 5.18429e-06 0.000169208
0.00121869 2.66264e-05 -5.48223e-07
2.66264e-05 0.000178881 5.32697e-09
-5.48223e-07 5.32697e-09 0.000156892
0.000950116 -1.18301e-05 2.50371e-06
-1.18301e-05 1.13027e-05 -1.57484e-06
2.50371e-06 -1.57484e-06 -4.03e-05
0.00267798 4.23688e-05 1.8045e-07
4.23688e-05 0.000908558 8.47809e-08
1.8045e-07 8.47809e-08 0.000916885
0.000845912 2.56685e-05 4.35118e-06
2.56685e-05 -1.03556e-05 -2.89691e-06
4.35118e-06 -2.89691e-06 -3.11381e-05
0.00256138 3.92157e-05 1.67371e-05
3.92157e-05 0.000843356 -3.18865e-06
1.67371e-05 -3.18865e-06 0.0008538
0.00115267 4.68893e-05 -5.77876e-07
4.68893e-05 -1.01128e-05 -4.96514e-07
-5.77876e-07 -4.96514e-07 -8.50506e-05
0.000874562 4.22062e-05 3.2051e-07
4.22062e-05 -7.10063e-05 -2.67486e-07
3.2051e-07 -2.67486e-07 -0.000147869
0.00090286 4.10178e-05 -5.8971e-08
4.10178e-05 -3.76162e-05 -5.85212e-08
-5.8971e-08 -5.85212e-08 -0.000112271
0.00111364 3.31322e-05 -1.21444e-06
3.31322e-05 7.43045e-05 -7.07136e-07
-1.21444e-06 -7.07136e-07 8.73949e-06
0.000803844 3.59055e-05 4.31748e-07
3.59055e-05 -6.68366e-05 4.85351e-07
4.31748e-07 4.85351e-07 -0.000138658
0.00104943 2.60016e-05 -5.86259e-08
2.60016e-05 5.57782e-05 -5.77216e-10
-5.86259e-08 -5.77216e-10 -8.73877e-06
0.000957039 1.46309e-06 -2.5026e-06
1.46309e-06 3.03017e-05 -1.15596e-06
-2.5026e-06 -1.15596e-06 -2.18729e-05
0.000995719 1.74693e-05 1.16167e-06
1.74693e-05 3.76127e-05 4.92975e-07
1.16167e-06 4.92975e-07 -2.62858e-05
0.000929258 -3.87396e-06 6.37361e-10
-3.87396e-06 1.63831e-05 4.96508e-08
6.37361e-10 4.96508e-08 -3.41382e-05
0.00084003 -2.71115e-05 -4.37901e-06
-2.71115e-05 -1.60872e-05 -2.79878e-06
-4.37901e-06 -2.79878e-06 -3.59057e-05
0.000921178 -6.53068e-06 2.56158e-06
-6.53068e-06 7.5522e-06 1.68506e-06
2.56158e-06 1.68506e-06 -4.06272e-05
0.000817111 -2.42669e-05 7.37439e-09
-2.42669e-05 -3.7991e-05 2.32897e-08
7.37439e-09 2.32897e-08 -5.46361e-05
0.00256167 -3.68044e-05 -1.6338e-05
-3.68044e-05 0.000836904 -3.38271e-06
-1.6338e-05 -3.38271e-06 0.000848345
0.000817229 -2.14238e-05 4.19173e-06
-2.14238e-05 -4.86282e-05 3.28431e-06
4.19173e-06 3.28431e-06 -6.24783e-05
0.00259588 -3.41213e-05 -1.96958e-07
-3.41213e-05 0.000842092 7.4104e-08
-1.96958e-07 7.4104e-08 0.00085557
0.00263836 -3.11408e-05 1.57315e-05
-3.11408e-05 0.000854052 3.80711e-06
1.57315e-05 3.80711e-06 0.000869055
0.00156558 -2.36591e-05 -3.38443e-07
-2.36591e-05 8.70994e-05 1.19195e-06
-3.38443e-07 1.19195e-06 3.11531e-05
0.00159514 -1.08815e-05 2.1958e-06
-1.08815e-05 7.0892e-05 -1.24841e-06
2.1958e-06 -1.24841e-06 2.18007e-05
0.00122976 -3.79354e-05 -5.79576e-06
-3.79354e-05 -8.45652e-06 -5.44819e-06
-5.79576e-06 -5.44819e-06 -4.44775e-05
0.00143106 5.10544e-05 -2.63698e-06
5.10544e-05 7.57704e-05 -2.5918e-06
-2.63698e-06 -2.5918e-06 -6.4945e-06
0.00144397 5.32843e-05 -7.51697e-08
5.32843e-05 0.000179976 3.38589e-07
-7.51697e-08 3.38589e-07 0.000105875
0.000884695 4.27638e-05 -2.29834e-06
4.27638e-05 -1.67917e-05 1.97894e-07
-2.29834e-06 1.97894e-07 -8.30549e-05
0.00126094 5.10167e-05 6.35435e-07
5.10167e-05 6.39068e-05 7.67872e-07
6.35435e-07 7.67872e-07 -1.54244e-05
0.00124634 4.95645e-05 -9.7076e-07
4.95645e-05 0.000107868 8.83646e-07
-9.7076e-07 8.83646e-07 3.1098e-05
0.00157319 1.71616e-05 -2.1483e-06
1.71616e-05 7.0562e-05 8.2855e-07
-2.1483e-06 8.2855e-07 -1.07276e-05
0.00154457 5.81447e-05 -1.17829e-06
5.81447e-05 0.000112431 -1.16687e-06
-1.17829e-06 -1.16687e-06 2.26119e-05
0.0012886 5.84477e-05 1.11621e-06
5.84477e-05 8.45416e-05 3.93267e-06
1.11621e-06 3.93267e-06 3.42723e-06
0.00161158 1.85882e-05 -1.3134e-07
1.85882e-05 6.2825e-05 6.09587e-07
-1.3134e-07 6.09587e-07 -1.46219e-05
0.00179336 7.00405e-05 2.15343e-06
7.00405e-05 0.00019679 1.96266e-06
2.15343e-06 1.96266e-06 9.59328e-05
0.00163466 1.96028e-05 7.02101e-06
1.96028e-05 3.97035e-05 -1.28514e-07
7.02101e-06 -1.28514e-07 -3.59334e-05
0.00110772 2.34973e-06 -1.63818e-06
2.34973e-06 -4.46126e-05 -5.05297e-07
-1.63818e-06 -5.05297e-07 -0.000101558
0.00138156 3.18674e-06 -3.17453e-07
3.18674e-06 7.09747e-05 -5.27649e-07
-3.17453e-07 -5.27649e-07 1.96645e-05
0.000552351 1.38058e-05 6.96251e-06
1.38058e-05 -0.000376419 5.572e-06
6.96251e-06 5.572e-06 -0.000429519
0.00186681 4.80627e-05 4.3487e-06
4.80627e-05 0.000232487 -1.23907e-06
4.3487e-06 -1.23907e-06 0.000164622
0.00149113 3.86618e-05 5.88799e-06
3.86618e-05 0.000121725 4.94254e-06
5.88799e-06 4.94254e-06 6.20792e-05
0.00149603 3.79071e-05 -9.94511e-07
3.79071e-05 0.000115053 -2.20317e-07
-9.94511e-07 -2.20317e-07 5.06383e-05
0.00137335 3.17201e-05 -1.44608e-06
3.17201e-05 6.86751e-05 -1.14876e-06
-1.44608e-06 -1.14876e-06 1.55847e-06
0.00149945 2.1855e-05 1.32952e-06
2.1855e-05 7.617e-05 -6.8975e-07
1.32952e-06 -6.8975e-07 1.24093e-05
0.00148919 2.34174e-05 -4.09298e-07
2.34174e-05 8.38414e-05 -1.28361e-07
-4.09298e-07 -1.28361e-07 1.39436e-05
0.00136795 1.76277e-05 -2.27814e-06
1.76277e-05 4.26286e-05 -1.10177e-06
-2.27814e-06 -1.10177e-06 -2.72675e-05
0.00142783 -4.56798e-06 7.93815e-07
-4.56798e-06 6.81661e-05 -1.01717e-06
7.93815e-07 -1.01717e-06 2.25527e-06
0.00138487 -5.91544e-06 4.36055e-08
-5.91544e-06 5.98783e-05 3.20488e-07
4.36055e-08 3.20488e-07 -1.02134e-05
0.00134117 -1.20484e-05 -1.51216e-06
-1.20484e-05 5.83687e-05 7.14252e-07
-1.51216e-06 7.14252e-07 -1.16945e-05
0.00133681 -2.58626e-05 8.76115e-07
-2.58626e-05 5.98246e-05 -1.39724e-06
8.76115e-07 -1.39724e-06 -6.18745e-06
0.00129687 -2.8326e-05 6.48961e-08
-2.8326e-05 5.77187e-05 1.68115e-08
6.48961e-08 1.68115e-08 -9.499e-06
0.00121539 -2.64457e-05 -1.66425e-06
-2.64457e-05 4.36523e-05 9.77671e-07
-1.66425e-06 9.77671e-07 -2.09682e-05
0.00125385 -3.24376e-05 8.03498e-07
-3.24376e-05 5.60826e-05 -1.06914e-06
8.03498e-07 -1.06914e-06 -8.02031e-06
0.00118331 -2.85064e-05 -1.35785e-08
-2.85064e-05 4.40923e-05 -8.46226e-08
-1.35785e-08 -8.46226e-08 -1.79885e-05
0.00102506 -1.70304e-05 -2.62575e-06
-1.70304e-05 9.7683e-06 1.36539e-06
-2.62575e-06 1.36539e-06 -4.43429e-05
0.00114209 -2.86178e-05 1.40473e-06
-2.86178e-05 3.66419e-05 -9.19779e-07
1.40473e-06 -9.19779e-07 -2.37595e-05
0.000988896 -1.52078e-05 -3.07743e-08
-1.52078e-05 4.98131e-06 1.43142e-08
-3.07743e-08 1.43142e-08 -4.76355e-05
0.00165773 1.95257e-05 -5.07631e-06
1.95257e-05 0.000400686 1.36598e-06
-5.07631e-06 1.36598e-06 0.000374844
0.000960452 -1.40702e-05 2.57783e-06
-1.40702e-05 4.27461e-06 -1.42725e-06
2.57783e-06 -1.42725e-06 -4.7856e-05
0.00164372 2.29462e-05 3.69004e-06
2.29462e-05 0.000391096 -8.93651e-07
3.69004e-06 -8.93651e-07 0.000367957
0.00119926 2.94419e-05 -2.02259e-05
2.94419e-05 0.000189103 5.02131e-06
-2.02259e-05 5.02131e-06 0.000181858
0.00197845 3.70145e-05 -1.21159e-05
3.70145e-05 0.000567389 1.70918e-06
-1.21159e-05 1.70918e-06 0.000568769
0.00166793 2.84079e-05 1.00978e-05
2.84079e-05 0.000401154 -2.46158e-06
1.00978e-05 -2.46158e-06 0.000381271
0.00265426 4.19299e-05 1.77536e-05
4.19299e-05 0.000898006 -3.12134e-06
1.77536e-05 -3.12134e-06 0.00090605
0.00140693 4.62334e-05 -2.19186e-06
4.62334e-05 6.2023e-05 -2.18015e-06
-2.19186e-06 -2.18015e-06 -1.58986e-05
0.00136789 4.85247e-05 1.17579e-06
4.85247e-05 0.000132574 -4.31331e-07
1.17579e-06 -4.31331e-07 5.88865e-05
0.00115985 4.68626e-05 8.56329e-07
4.68626e-05 1.43942e-06 5.09116e-07
8.56329e-07 5.09116e-07 -6.96308e-05
0.00111992 3.76696e-05 -1.15564e-06
3.76696e-05 6.36451e-05 -1.17468e-06
-1.15564e-06 -1.17468e-06 -4.83699e-06
0.0011063 4.64555e-05 -2.57883e-07
4.64555e-05 3.75913e-05 1.27516e-07
-2.57883e-07 1.27516e-07 -3.91952e-05
0.000992245 4.28938e-05 4.85625e-07
4.28938e-05 1.66721e-06 8.02153e-07
4.85625e-07 8.02153e-07 -7.33681e-05
0.00108812 3.25158e-05 -2.52677e-08
3.25158e-05 6.3756e-05 -9.52958e-08
-2.52677e-08 -9.52958e-08 -1.90556e-06
0.000966299 7.69274e-06 -2.36769e-06
7.69274e-06 3.25048e-05 -1.1864e-06
-2.36769e-06 -1.1864e-06 -2.1327e-05
0.00100946 2.44455e-05 9.83726e-07
2.44455e-05 3.69536e-05 3.71471e-07
9.83726e-07 3.71471e-07 -2.74385e-05
0.000930765 -4.47629e-07 1.69147e-08
-4.47629e-07 1.90347e-05 6.77774e-08
1.69147e-08 6.77774e-08 -3.33312e-05
0.000830431 -2.85845e-05 -4.37196e-06
-2.85845e-05 -1.18445e-05 -2.57306e-06
-4.37196e-06 -2.57306e-06 -3.48047e-05
0.000907864 -5.16315e-06 2.47069e-06
-5.16315e-06 7.54348e-06 1.51022e-06
2.47069e-06 1.51022e-06 -4.31721e-05
0.000795421 -2.63747e-05 -1.06988e-08
-2.63747e-05 -3.79582e-05 1.98075e-08
-1.06988e-08 1.98075e-08 -5.75965e-05
0.00258873 -3.94753e-05 -1.69421e-05
-3.94753e-05 0.000861639 -3.19417e-06
-1.69421e-05 -3.19417e-06 0.000870867
0.000785398 -2.36678e-05 4.36842e-06
-2.36678e-05 -5.39385e-05 3.10593e-06
4.36842e-06 3.10593e-06 -7.0379e-05
0.00260755 -3.70836e-05 -1.767e-07
-3.70836e-05 0.000857642 7.71476e-08
-1.767e-07 7.71476e-08 0.000869271
0.00264381 -3.42768e-05 1.60752e-05
-3.42768e-05 0.000864268 3.63151e-06
1.60752e-05 3.63151e-06 0.000877849
0.00147848 -2.09888e-05 -2.0228e-06
-2.09888e-05 6.74983e-05 2.23591e-06
-2.0228e-06 2.23591e-06 1.68593e-06
0.0015202 -2.24942e-05 3.13845e-07
-2.24942e-05 6.80735e-05 -6.65249e-07
3.13845e-07 -6.65249e-07 1.18399e-05
0.0015942 -1.06388e-05 6.01729e-06
-1.06388e-05 6.88891e-05 -9.8364e-07
6.01729e-06 -9.8364e-07 1.78211e-05
0.001286 2.03252e-05 -2.00883e-06
2.03252e-05 -4.63435e-05 2.84015e-07
-2.00883e-06 2.84015e-07 -0.000125606
0.00147443 5.14458e-05 1.01493e-07
5.14458e-05 9.79607e-05 -5.59901e-07
1.01493e-07 -5.59901e-07 1.56919e-05
0.00129499 5.07972e-05 -9.39144e-07
5.07972e-05 0.000119955 1.72343e-06
-9.39144e-07 1.72343e-06 4.76778e-05
0.00169122 5.69117e-05 1.01827e-06
5.69117e-05 0.000266411 1.03359e-06
1.01827e-06 1.03359e-06 0.000188782
0.00165559 1.88771e-05 2.79791e-10
1.88771e-05 0.000109416 -9.81864e-08
2.79791e-10 -9.81864e-08 2.80448e-05
0.00151939 5.875e-05 1.39368e-06
5.875e-05 9.74718e-05 1.67805e-06
1.39368e-06 1.67805e-06 6.1261e-06
0.00169408 1.76437e-05 2.25108e-06
1.76437e-05 9.97309e-05 -5.79913e-07
2.25108e-06 -5.79913e-07 2.19003e-05
0.00128058 1.72642e-06 3.10264e-08
1.72642e-06 3.71879e-05 1.01944e-07
3.10264e-08 1.01944e-07 -2.60988e-05
0.00124961 3.77298e-06 -4.31832e-09
3.77298e-06 1.82324e-05 -1.25291e-07
-4.31832e-09 -1.25291e-07 -4.03655e-05
0.00120225 5.11421e-06 1.3898e-06
5.11421e-06 -1.38567e-05 1.34751e-06
1.3898e-06 1.34751e-06 -6.57752e-05
0.00139798 3.19074e-05 -6.89433e-07
3.19074e-05 9.24811e-05 -4.15245e-07
-6.89433e-07 -4.15245e-07 2.25982e-05
0.00158947 3.88399e-05 3.164e-06
3.88399e-05 0.000158172 1.58533e-06
3.164e-06 1.58533e-06 9.40589e-05
0.00137034 3.18926e-05 3.31545e-07
3.18926e-05 6.68657e-05 1.38602e-07
3.31545e-07 1.38602e-07 -6.14063e-07
0.00141693 2.91189e-05 -1.06548e-06
2.91189e-05 8.41593e-05 -4.30119e-07
-1.06548e-06 -4.30119e-07 1.56701e-05
0.00149856 2.19393e-05 1.56609e-06
2.19393e-05 8.50736e-05 2.73454e-07
1.56609e-06 2.73454e-07 1.5334e-05
0.00139883 1.75757e-05 -6.00102e-07
1.75757e-05 5.71878e-05 -2.66252e-07
-6.00102e-07 -2.66252e-07 -1.26231e-05
0.00134927 1.34069e-05 -2.24165e-06
1.34069e-05 5.35647e-05 -5.34757e-07
-2.24165e-06 -5.34757e-07 -1.73739e-05
0.0013825 -5.74968e-06 1.80636e-06
-5.74968e-06 5.83044e-05 -3.83854e-07
1.80636e-06 -3.83854e-07 -1.18767e-05
0.00133686 -1.084e-05 3.77529e-08
-1.084e-05 5.6356e-05 1.15707e-07
3.77529e-08 1.15707e-07 -1.37737e-05
0.00125968 -1.781e-05 -1.99141e-06
-1.781e-05 4.77245e-05 7.12327e-07
-1.99141e-06 7.12327e-07 -1.90618e-05
0.00130471 -2.80516e-05 1.3166e-06
-2.80516e-05 6.09108e-05 -9.82119e-07
1.3166e-06 -9.82119e-07 -6.34767e-06
0.0012206 -2.62077e-05 1.97191e-08
-2.62077e-05 4.58388e-05 4.58561e-08
1.97191e-08 4.58561e-08 -1.87962e-05
0.00106213 -1.76566e-05 -2.86659e-06
-1.76566e-05 1.45644e-05 1.40309e-06
-2.86659e-06 1.40309e-06 -4.18295e-05
0.00118379 -2.81347e-05 1.50669e-06
-2.81347e-05 4.4107e-05 -1.05549e-06
1.50669e-06 -1.05549e-06 -1.7951e-05
0.00101903 -1.63222e-05 3.77938e-08
-1.63222e-05 7.09486e-06 -3.74005e-08
3.77938e-08 -3.74005e-08 -4.7088e-05
0.00167414 1.46745e-05 -5.09827e-06
1.46745e-05 0.000408897 1.20236e-06
-5.09827e-06 1.20236e-06 0.000380695
0.000980321 -1.49085e-05 2.57523e-06
-1.49085e-05 1.40853e-06 -1.34853e-06
2.57523e-06 -1.34853e-06 -5.12461e-05
0.00167258 1.71753e-05 3.90543e-06
1.71753e-05 0.000405643 -8.12671e-07
3.90543e-06 -8.12671e-07 0.000379747
0.00121519 2.94623e-05 -2.15043e-05
2.94623e-05 0.00020978 4.57863e-06
-2.15043e-05 4.57863e-06 0.000198825
0.00165817 2.00931e-05 1.2442e-05
2.00931e-05 0.00039619 -3.3486e-06
1.2442e-05 -3.3486e-06 0.000372954
0.00117206 3.12501e-05 -7.5174e-06
3.12501e-05 0.00017648 1.89718e-06
-7.5174e-06 1.89718e-06 0.000169407
0.002764 4.78953e-05 7.83254e-06
4.78953e-05 0.000960665 -1.22333e-06
7.83254e-06 -1.22333e-06 0.000966195
0.00160882 2.64552e-05 -2.02906e-06
2.64552e-05 0.000132051 -6.8272e-07
-2.02906e-06 -6.8272e-07 5.27324e-05
0.00141489 4.47101e-05 -7.08514e-07
4.47101e-05 9.597e-05 -1.95106e-06
-7.08514e-07 -1.95106e-06 2.08198e-05
0.00145332 4.7251e-05 -1.00809e-06
4.7251e-05 9.21528e-05 8.55633e-07
-1.00809e-06 8.55633e-07 1.49026e-05
0.00141286 4.33078e-05 -7.52782e-07
4.33078e-05 0.000178102 -6.066e-07
-7.52782e-07 -6.066e-07 0.000109323
0.00124446 4.72554e-05 4.25822e-07
4.72554e-05 7.18554e-05 -6.67876e-07
4.25822e-07 -6.67876e-07 -1.75483e-06
0.00119442 4.71494e-05 1.92274e-06
4.71494e-05 2.62797e-05 1.3984e-06
1.92274e-06 1.3984e-06 -4.09787e-05
0.000987604 1.69158e-05 -2.37356e-06
1.69158e-05 3.33785e-05 -1.53334e-06
-2.37356e-06 -1.53334e-06 -2.3459e-05
0.00111704 3.78865e-05 -4.69689e-08
3.78865e-05 6.22922e-05 -1.06138e-07
-4.69689e-08 -1.06138e-07 -6.21745e-06
0.00132289 5.04203e-05 1.10061e-06
5.04203e-05 0.000139477 1.22884e-06
1.10061e-06 1.22884e-06 6.27109e-05
0.0010516 3.1673e-05 1.02696e-06
3.1673e-05 4.79513e-05 4.49052e-07
1.02696e-06 4.49052e-07 -1.77993e-05
0.000941371 5.83959e-06 2.22674e-08
5.83959e-06 2.20582e-05 -2.83986e-09
2.22674e-08 -2.83986e-09 -3.19638e-05
0.000831838 -2.27914e-05 -4.72795e-06
-2.27914e-05 -5.76876e-06 -2.49588e-06
-4.72795e-06 -2.49588e-06 -3.21613e-05
0.000907209 -2.24527e-06 2.39765e-06
-2.24527e-06 9.05449e-06 1.24125e-06
2.39765e-06 1.24125e-06 -4.35009e-05
0.000777523 -2.79993e-05 -1.50881e-08
-2.79993e-05 -3.71138e-05 -5.5699e-09
-1.50881e-08 -5.5699e-09 -5.99942e-05
0.00263365 -4.19315e-05 -1.77692e-05
-4.19315e-05 0.000896044 -3.02866e-06
-1.77692e-05 -3.02866e-06 0.000902776
0.000752619 -2.56374e-05 4.44798e-06
-2.56374e-05 -5.89788e-05 2.92605e-06
4.44798e-06 2.92605e-06 -7.84345e-05
0.0026303 -3.98431e-05 -1.77795e-07
-3.98431e-05 0.000880004 8.00805e-08
-1.77795e-07 8.00805e-08 0.000889489
0.00265392 -3.7313e-05 1.63858e-05
-3.7313e-05 0.000878654 3.43839e-06
1.63858e-05 3.43839e-06 0.000890468
0.00146836 -1.33188e-05 -7.73241e-07
-1.33188e-05 7.14371e-05 1.14195e-06
-7.73241e-07 1.14195e-06 2.48642e-06
0.00157059 -2.0603e-05 -1.1155e-07
-2.0603e-05 0.000104775 5.99031e-07
-1.1155e-07 5.99031e-07 3.81446e-05
0.00145734 -2.13012e-05 1.15795e-06
-2.13012e-05 4.07639e-05 -2.43833e-06
1.15795e-06 -2.43833e-06 -1.57479e-05
0.00144584 2.06444e-05 7.48319e-08
2.06444e-05 2.36244e-05 -1.81261e-07
7.48319e-08 -1.81261e-07 -5.56879e-05
0.00151737 5.18472e-05 1.3489e-06
5.18472e-05 0.000120263 1.12866e-06
1.3489e-06 1.12866e-06 3.79441e-05
0.00179394 2.04795e-05 2.24484e-06
2.04795e-05 0.000174435 -6.87783e-07
2.24484e-06 -6.87783e-07 9.30472e-05
0.00132163 3.39774e-07 -5.52129e-07
3.39774e-07 5.43334e-05 2.05874e-07
-5.52129e-07 2.05874e-07 -1.52223e-05
0.00127285 3.204e-06 5.58367e-07
3.204e-06 3.72113e-05 -1.37417e-07
5.58367e-07 -1.37417e-07 -2.62803e-05
0.00138136 4.79027e-06 1.66802e-06
4.79027e-06 7.63445e-05 3.91095e-07
1.66802e-06 3.91095e-07 1.60788e-05
0.00136681 2.44812e-05 -5.17891e-07
2.44812e-05 7.79275e-05 -8.58307e-09
-5.17891e-07 -8.58307e-09 7.97883e-06
0.00138849 2.28028e-05 -4.13899e-07
2.28028e-05 8.94881e-05 -9.17618e-08
-4.13899e-07 -9.17618e-08 1.70583e-05
0.00135761 3.20919e-05 1.75111e-06
3.20919e-05 6.05395e-05 9.16617e-07
1.75111e-06 9.16617e-07 -7.31887e-06
0.00138147 2.86258e-05 3.36057e-07
2.86258e-05 6.8066e-05 3.62282e-07
3.36057e-07 3.62282e-07 -4.81822e-07
0.00146068 2.68309e-05 -8.00331e-07
2.68309e-05 0.000114141 -3.20046e-07
-8.00331e-07 -3.20046e-07 4.44833e-05
0.00142761 1.69088e-05 1.61446e-06
1.69088e-05 7.07687e-05 5.1531e-07
1.61446e-06 5.1531e-07 1.04706e-06
0.00135641 1.21152e-05 -4.70491e-07
1.21152e-05 5.66615e-05 -8.09148e-08
-4.70491e-07 -8.09148e-08 -1.40713e-05
0.00127626 5.60417e-06 -2.65717e-06
5.60417e-06 4.70557e-05 2.41978e-07
-2.65717e-06 2.41978e-07 -2.12046e-05
0.00133285 -1.10993e-05 1.5214e-06
-1.10993e-05 5.44062e-05 -4.64073e-07
1.5214e-06 -4.64073e-07 -1.57657e-05
0.00125896 -1.71185e-05 4.27038e-08
-1.71185e-05 4.72622e-05 4.46671e-08
4.27038e-08 4.46671e-08 -1.95687e-05
0.00108648 -1.26088e-05 -3.19295e-06
-1.26088e-05 1.37594e-05 1.16759e-06
-3.19295e-06 1.16759e-06 -4.43553e-05
0.00122658 -2.59239e-05 1.82298e-06
-2.59239e-05 4.83848e-05 -8.83538e-07
1.82298e-06 -8.83538e-07 -1.62627e-05
0.00105686 -1.68935e-05 9.80515e-08
-1.68935e-05 1.17359e-05 4.0216e-08
9.80515e-08 4.0216e-08 -4.4718e-05
0.00169733 9.73367e-06 -5.20263e-06
9.73367e-06 0.000418963 1.04658e-06
-5.20263e-06 1.04658e-06 0.000388955
0.00101373 -1.57322e-05 2.6691e-06
-1.57322e-05 4.77503e-06 -1.38839e-06
2.6691e-06 -1.38839e-06 -4.94826e-05
0.00170389 1.21985e-05 4.13986e-06
1.21985e-05 0.000421155 -7.0234e-07
4.13986e-06 -7.0234e-07 0.000392867
0.00122349 2.88766e-05 -2.27232e-05
2.88766e-05 0.000226351 4.00831e-06
-2.27232e-05 4.00831e-06 0.000212219
0.00168893 1.46083e-05 1.30315e-05
1.46083e-05 0.000411308 -3.02763e-06
1.30315e-05 -3.02763e-06 0.000385371
0.00119827 3.16379e-05 -7.98882e-06
3.16379e-05 0.000202118 1.72544e-06
-7.98882e-06 1.72544e-06 0.000191251
0.0011414 3.31571e-05 5.48719e-06
3.31571e-05 0.000162223 -1.2816e-06
5.48719e-06 -1.2816e-06 0.000155315
0.00149978 -4.20408e-06 -9.13278e-07
-4.20408e-06 8.19831e-05 9.8311e-07
-9.13278e-07 9.8311e-07 1.30804e-05
0.00143758 2.8868e-05 -2.02395e-06
2.8868e-05 7.39432e-05 -5.18521e-07
-2.02395e-06 -5.18521e-07 -3.10559e-06
0.0015713 2.60967e-05 -7.1849e-07
2.60967e-05 0.000110216 -5.8597e-07
-7.1849e-07 -5.8597e-07 3.07384e-05
0.00136504 4.10063e-05 -1.44613e-06
4.10063e-05 0.000111742 -9.82748e-07
-1.44613e-06 -9.82748e-07 4.13676e-05
0.00146964 4.53114e-05 5.83807e-07
4.53114e-05 0.000125865 4.44028e-07
5.83807e-07 4.44028e-07 5.10538e-05
0.00147565 4.79323e-05 2.49824e-06
4.79323e-05 0.00011089 2.26345e-06
2.49824e-06 2.26345e-06 3.43233e-05
0.00097379 2.3615e-05 -2.64174e-06
2.3615e-05 3.7083e-06 -1.36037e-06
-2.64174e-06 -1.36037e-06 -5.54536e-05
0.00116357 4.02712e-05 6.55586e-07
4.02712e-05 5.52533e-05 4.89016e-07
6.55586e-07 4.89016e-07 -1.45379e-05
0.00111396 4.59054e-05 9.91712e-07
4.59054e-05 7.40795e-06 1.46872e-06
9.91712e-07 1.46872e-06 -6.6074e-05
0.000840847 -1.10065e-05 -5.19322e-06
-1.10065e-05 -1.17906e-06 -2.63278e-06
-5.19322e-06 -2.63278e-06 -3.19834e-05
0.000959753 1.58038e-05 -4.37491e-08
1.58038e-05 2.02652e-05 -7.49612e-08
-4.37491e-08 -7.49612e-08 -3.65061e-05
0.00111754 3.81357e-05 1.15822e-06
3.81357e-05 6.25774e-05 9.84718e-07
1.15822e-06 9.84718e-07 -5.96294e-06
0.000907505 3.76238e-06 2.21649e-06
3.76238e-06 7.29943e-06 1.06617e-06
2.21649e-06 1.06617e-06 -4.68915e-05
0.000769412 -2.42891e-05 -1.20672e-07
-2.42891e-05 -3.40042e-05 -5.70934e-08
-1.20672e-07 -5.70934e-08 -6.05273e-05
0.00272539 -4.42002e-05 -1.91485e-05
-4.42002e-05 0.000954014 -2.94013e-06
-1.91485e-05 -2.94013e-06 0.000957789
0.000724 -2.71447e-05 4.49361e-06
-2.71447e-05 -6.26641e-05 2.72406e-06
4.49361e-06 2.72406e-06 -8.54492e-05
0.00266298 -4.23605e-05 -1.88169e-07
-4.23605e-05 0.000908333 8.17058e-08
-1.88169e-07 8.17058e-08 0.000915403
0.00267335 -4.0181e-05 1.67608e-05
-4.0181e-05 0.00089909 3.23806e-06
1.67608e-05 3.23806e-06 0.000908831
0.00143036 -1.90203e-05 -2.13946e-07
-1.90203e-05 7.76649e-05 -3.84143e-07
-2.13946e-07 -3.84143e-07 5.07201e-06
0.00149429 -1.34831e-05 -2.97747e-07
-1.34831e-05 8.09378e-05 2.85117e-07
-2.97747e-07 2.85117e-07 1.16627e-05
0.00159714 -1.9989e-05 1.02956e-06
-1.9989e-05 0.000111278 -1.33805e-06
1.02956e-06 -1.33805e-06 4.37729e-05
0.00159149 2.08486e-05 2.40969e-06
2.08486e-05 8.68874e-05 -9.25923e-08
2.40969e-06 -9.25923e-08 7.51804e-06
0.00132691 -1.85728e-06 -6.90184e-07
-1.85728e-06 5.24459e-05 -2.25481e-07
-6.90184e-07 -2.25481e-07 -2.12908e-05
0.00135497 4.21102e-07 -2.45574e-07
4.21102e-07 7.108e-05 -9.37769e-08
-2.45574e-07 -9.37769e-08 1.93862e-06
0.00126483 4.67203e-06 6.05715e-07
4.67203e-06 3.68696e-05 1.18516e-07
6.05715e-07 1.18516e-07 -2.67942e-05
0.00132413 2.01814e-05 -2.21265e-07
2.01814e-05 5.79957e-05 4.93527e-07
-2.21265e-07 4.93527e-07 -1.21562e-05
0.00135125 2.67626e-05 1.10416e-07
2.67626e-05 7.19004e-05 -7.54203e-08
1.10416e-07 -7.54203e-08 -5.60353e-07
0.00135688 2.41e-05 -1.28268e-06
2.41e-05 7.98372e-05 3.64563e-08
-1.28268e-06 3.64563e-08 8.5832e-06
0.00134723 2.81084e-05 1.80172e-06
2.81084e-05 5.2471e-05 1.24113e-06
1.80172e-06 1.24113e-06 -1.61249e-05
0.00141497 2.66503e-05 3.70281e-07
2.66503e-05 9.35837e-05 2.34808e-07
3.70281e-07 2.34808e-07 2.39859e-05
0.00126024 2.44633e-05 -2.02139e-06
2.44633e-05 3.91115e-05 -2.80839e-07
-2.02139e-06 -2.80839e-07 -2.9532e-05
0.00135866 1.22705e-05 1.21665e-06
1.22705e-05 5.7547e-05 3.90065e-07
1.21665e-06 3.90065e-07 -1.30077e-05
0.00127201 7.02314e-06 -2.37056e-07
7.02314e-06 4.49616e-05 1.34953e-07
-2.37056e-07 1.34953e-07 -2.31923e-05
0.00109819 2.90804e-06 -3.38859e-06
2.90804e-06 1.19739e-05 7.90183e-07
-3.38859e-06 7.90183e-07 -4.72817e-05
0.00125686 -1.4291e-05 2.0211e-06
-1.4291e-05 4.61906e-05 -5.97642e-07
2.0211e-06 -5.97642e-07 -2.06743e-05
0.0010875 -1.406e-05 6.90077e-08
-1.406e-05 1.39647e-05 8.57508e-08
6.90077e-08 8.57508e-08 -4.42378e-05
0.000707938 1.82091e-06 -5.61524e-06
1.82091e-06 -7.60245e-05 1.53392e-06
-5.61524e-06 1.53392e-06 -0.000112554
0.00105344 -1.62132e-05 2.95764e-06
-1.62132e-05 9.80571e-06 -1.2573e-06
2.95764e-06 -1.2573e-06 -4.67135e-05
0.00123231 3.01884e-06 5.27917e-06
3.01884e-06 0.000185257 -5.09467e-07
5.27917e-06 -5.09467e-07 0.00015242
0.00326836 5.51592e-05 -2.35949e-05
5.51592e-05 0.00125329 1.88333e-06
-2.35949e-05 1.88333e-06 0.00124827
0.00173296 9.84414e-06 1.37171e-05
9.84414e-06 0.000433042 -2.69999e-06
1.37171e-05 -2.69999e-06 0.000404694
0.00122473 3.15684e-05 -8.52156e-06
3.15684e-05 0.000227712 1.50345e-06
-8.52156e-06 1.50345e-06 0.000213529
0.00117905 3.39517e-05 5.81765e-06
3.39517e-05 0.000193373 -1.17501e-06
5.81765e-06 -1.17501e-06 0.000182582
0.00151824 -1.3522e-05 -1.5969e-07
-1.3522e-05 0.000113491 -2.90543e-07
-1.5969e-07 -2.90543e-07 4.27124e-05
0.00135609 3.05856e-06 -1.31337e-06
3.05856e-06 3.09552e-05 6.48976e-07
-1.31337e-06 6.48976e-07 -3.99286e-05
0.00144475 -4.03153e-06 1.22946e-07
-4.03153e-06 5.87766e-05 -4.47219e-08
1.22946e-07 -4.47219e-08 -1.05023e-05
0.00104429 2.86741e-05 -2.32908e-06
2.86741e-05 -7.65332e-05 -7.91733e-07
-2.32908e-06 -7.91733e-07 -0.000149227
0.00146729 2.8977e-05 1.44198e-07
2.8977e-05 9.05222e-05 -6.34327e-11
1.44198e-07 -6.34327e-11 1.44128e-05
0.0015302 2.58303e-05 1.54825e-06
2.58303e-05 8.66987e-05 -3.07088e-07
1.54825e-06 -3.07088e-07 7.06102e-06
0.000736832 2.22884e-05 -3.72583e-06
2.22884e-05 -0.00014515 -1.67932e-06
-3.72583e-06 -1.67932e-06 -0.000207188
0.00136857 4.13625e-05 3.79662e-07
4.13625e-05 0.000112979 1.55982e-08
3.79662e-07 1.55982e-08 4.25733e-05
0.00153045 4.60498e-05 1.69974e-06
4.60498e-05 0.000158883 1.69885e-06
1.69974e-06 1.69885e-06 8.43735e-05
0.000829638 1.03746e-06 -5.8383e-06
1.03746e-06 -1.36719e-05 -2.54249e-06
-5.8383e-06 -2.54249e-06 -4.88374e-05
0.000832373 2.15693e-05 -7.6506e-08
2.15693e-05 -6.74743e-05 9.74604e-08
-7.6506e-08 9.74604e-08 -0.000127483
0.000916341 3.72387e-05 2.04669e-06
3.72387e-05 -6.66359e-05 1.74711e-06
2.04669e-06 1.74711e-06 -0.000137437
0.00293215 -4.65569e-05 -2.16462e-05
-4.65569e-05 0.00106726 -2.88799e-06
-2.16462e-05 -2.88799e-06 0.00106759
0.000767648 -1.35381e-05 -1.44848e-07
-1.35381e-05 -3.33357e-05 -7.39573e-08
-1.44848e-07 -7.39573e-08 -6.43291e-05
0.000932 1.45812e-05 2.13994e-06
1.45812e-05 7.18566e-06 1.31415e-06
2.13994e-06 1.31415e-06 -4.95221e-05
0.000703115 -2.6909e-05 4.41773e-06
-2.6909e-05 -6.38819e-05 2.59835e-06
4.41773e-06 2.59835e-06 -9.06409e-05
0.00274253 -4.48836e-05 -1.78868e-07
-4.48836e-05 0.000960393 8.7878e-08
-1.78868e-07 8.7878e-08 0.000964604
0.00270352 -4.28178e-05 1.73047e-05
-4.28178e-05 0.000925903 3.03927e-06
1.73047e-05 3.03927e-06 0.000933309
0.00137 -1.82223e-05 -9.29183e-07
-1.82223e-05 6.33566e-05 -1.05968e-07
-9.29183e-07 -1.05968e-07 -9.62304e-06
0.00141385 -1.87353e-05 -2.63309e-07
-1.87353e-05 7.17589e-05 -3.93557e-07
-2.63309e-07 -3.93557e-07 -1.33635e-07
0.00153112 -1.36013e-05 8.31295e-07
-1.36013e-05 9.56847e-05 -8.07622e-07
8.31295e-07 -8.07622e-07 2.60827e-05
0.00139194 1.22259e-05 -9.16262e-07
1.22259e-05 8.49934e-05 -1.60496e-08
-9.16262e-07 -1.60496e-08 1.07885e-05
0.00137325 1.36371e-06 -2.10328e-07
1.36371e-06 7.40435e-05 -1.22509e-07
-2.10328e-07 -1.22509e-07 4.93961e-08
0.00140224 -2.19095e-06 -2.40812e-07
-2.19095e-06 9.44124e-05 8.79154e-08
-2.40812e-07 8.79154e-08 2.57789e-05
0.00131674 2.93936e-05 6.52399e-07
2.93936e-05 5.55211e-05 -3.54989e-07
6.52399e-07 -3.54989e-07 -1.68872e-05
0.00135451 2.6018e-05 2.07954e-07
2.6018e-05 7.80047e-05 1.61206e-07
2.07954e-07 1.61206e-07 6.84698e-06
0.00137438 2.00795e-05 -1.49193e-06
2.00795e-05 0.000103989 1.94857e-07
-1.49193e-06 1.94857e-07 3.60099e-05
0.00137419 2.65023e-05 1.82003e-06
2.65023e-05 7.53687e-05 1.06652e-06
1.82003e-06 1.06652e-06 5.83049e-06
0.0013507 2.61e-05 8.73866e-08
2.61e-05 8.5622e-05 5.83454e-08
8.73866e-08 5.83454e-08 1.76647e-05
0.000908123 1.91085e-05 -4.02939e-06
1.91085e-05 -8.51281e-05 4.28044e-07
-4.02939e-06 4.28044e-07 -0.000146562
0.0012648 6.1872e-06 1.91935e-06
6.1872e-06 4.1453e-05 6.73707e-08
1.91935e-06 6.73707e-08 -2.66154e-05
0.00109103 4.03021e-06 -2.18979e-08
4.03021e-06 8.45549e-06 7.03358e-08
-2.18979e-08 7.03358e-08 -5.07805e-05
0.000709111 7.07054e-06 -5.58555e-06
7.07054e-06 -7.6126e-05 1.2187e-06
-5.58555e-06 1.2187e-06 -0.000113419
0.00108555 -1.35978e-05 3.31914e-06
-1.35978e-05 1.27058e-05 -9.70436e-07
3.31914e-06 -9.70436e-07 -4.5557e-05
0.000726581 4.52993e-06 -8.96488e-08
4.52993e-06 -6.79855e-05 1.00279e-07
-8.96488e-08 1.00279e-07 -0.000104565
0.00334053 5.78842e-05 -2.44133e-05
5.78842e-05 0.00129475 1.41324e-06
-2.44133e-05 1.41324e-06 0.00128852
0.000762246 -4.58933e-06 7.70074e-06
-4.58933e-06 -5.06728e-05 -2.51407e-06
7.70074e-06 -2.51407e-06 -8.65767e-05
0.00228151 4.51843e-05 6.73596e-06
4.51843e-05 0.000763303 4.17662e-07
6.73596e-06 4.17662e-07 0.000752259
0.0012257 3.45197e-05 6.1275e-06
3.45197e-05 0.000228994 -1.04478e-06
6.1275e-06 -1.04478e-06 0.00021473
0.00155749 -2.07914e-05 -5.84407e-07
-2.07914e-05 0.000149642 -9.55739e-08
-5.84407e-07 -9.55739e-08 7.75004e-05
0.00138982 -9.2804e-06 -9.0008e-07
-9.2804e-06 6.21717e-05 -9.00636e-08
-9.0008e-07 -9.00636e-08 -7.27066e-06
0.00141054 -1.31354e-05 -2.46458e-07
-1.31354e-05 6.14069e-05 3.22973e-08
-2.46458e-07 3.22973e-08 -9.25913e-06
0.00126151 1.03488e-05 -1.88433e-06
1.03488e-05 2.1955e-05 2.04626e-07
-1.88433e-06 2.04626e-07 -4.73231e-05
0.0013451 2.53733e-06 4.21528e-07
2.53733e-06 2.84722e-05 -2.1022e-07
4.21528e-07 -2.1022e-07 -4.22162e-05
0.0013998 -3.96791e-06 1.13551e-06
-3.96791e-06 4.03742e-05 -6.93184e-07
1.13551e-06 -6.93184e-07 -2.9286e-05
0.000787023 1.99543e-05 -4.11751e-06
1.99543e-05 -0.000146864 -1.40754e-06
-4.11751e-06 -1.40754e-06 -0.000209944
0.00134158 3.22738e-05 -5.03038e-07
3.22738e-05 6.88384e-05 -4.99464e-08
-5.03038e-07 -4.99464e-08 -2.70381e-06
0.00149125 2.90323e-05 2.12506e-06
2.90323e-05 0.000104379 -1.2216e-07
2.12506e-06 -1.2216e-07 2.9205e-05
0.000797929 8.31913e-06 -6.46857e-06
8.31913e-06 -3.83174e-05 -2.37601e-06
-6.46857e-06 -2.37601e-06 -7.63106e-05
0.000784191 2.34613e-05 -9.07978e-07
2.34613e-05 -0.000125418 -3.90064e-07
-9.07978e-07 -3.90064e-07 -0.000187773
0.00137464 4.17889e-05 2.16541e-06
4.17889e-05 0.000115461 1.1629e-06
2.16541e-06 1.1629e-06 4.50183e-05
0.00319961 -4.88919e-05 -2.47116e-05
-4.88919e-05 0.00120764 -2.66613e-06
-2.47116e-05 -2.66613e-06 0.00120475
0.000765823 -9.69724e-07 -2.16589e-07
-9.69724e-07 -4.08231e-05 7.45445e-08
-2.16589e-07 7.45445e-08 -7.61699e-05
0.000694527 1.95998e-05 2.39793e-06
1.95998e-05 -0.000137044 1.66122e-06
2.39793e-06 1.66122e-06 -0.000197894
0.00290357 -4.74879e-05 -1.81948e-07
-4.74879e-05 0.00105184 1.07941e-07
-1.81948e-07 1.07941e-07 0.00105273
0.000695466 -1.54124e-05 4.59038e-06
-1.54124e-05 -6.49508e-05 2.68691e-06
4.59038e-06 2.68691e-06 -9.60932e-05
0.0027525 -4.52742e-05 1.79599e-05
-4.52742e-05 0.000963179 2.8669e-06
1.79599e-05 2.8669e-06 0.000967872
0.00139186 -4.27912e-06 -9.76044e-07
-4.27912e-06 8.18116e-05 -1.79076e-07
-9.76044e-07 -1.79076e-07 8.59187e-06
0.00139293 -1.74184e-05 3.12556e-07
-1.74184e-05 7.3733e-05 -1.42801e-08
3.12556e-07 -1.42801e-08 7.05956e-07
0.00139036 -1.82421e-05 -1.97326e-08
-1.82421e-05 6.23487e-05 -6.11731e-07
-1.97326e-08 -6.11731e-07 -8.8128e-06
0.0013907 1.03298e-06 -1.74705e-06
1.03298e-06 0.000100595 1.72744e-08
-1.74705e-06 1.72744e-08 2.99158e-05
0.00141025 1.22453e-05 1.56461e-07
1.22453e-05 9.52388e-05 -7.18482e-08
1.56461e-07 -7.18482e-08 2.10353e-05
0.00141853 6.82008e-06 9.23397e-07
6.82008e-06 9.53388e-05 1.05696e-07
9.23397e-07 1.05696e-07 2.09519e-05
0.00135531 2.68278e-05 1.2732e-06
2.68278e-05 7.76911e-05 -1.57278e-07
1.2732e-06 -1.57278e-07 6.66416e-06
0.00136875 2.06176e-05 3.66144e-07
2.06176e-05 0.000100679 -4.24156e-08
3.66144e-07 -4.24156e-08 3.28589e-05
0.000892721 1.31863e-05 -3.83309e-06
1.31863e-05 -9.37288e-05 4.49962e-07
-3.83309e-06 4.49962e-07 -0.000156051
0.00144784 2.7744e-05 2.11224e-06
2.7744e-05 0.000135368 2.98172e-07
2.11224e-06 2.98172e-07 6.80935e-05
0.0010081 2.04544e-05 -6.04604e-07
2.04544e-05 -3.51914e-05 1.42004e-07
-6.04604e-07 1.42004e-07 -9.5938e-05
0.000718565 1.06625e-05 -5.95674e-06
1.06625e-05 -7.17522e-05 9.92702e-07
-5.95674e-06 9.92702e-07 -0.000110514
0.00108461 2.84684e-06 3.28369e-06
2.84684e-06 5.25929e-06 -6.36844e-07
3.28369e-06 -6.36844e-07 -5.39586e-05
0.000717952 1.39933e-05 1.16977e-07
1.39933e-05 -7.22258e-05 4.76044e-08
1.16977e-07 4.76044e-08 -0.000109772
0.00339611 6.03032e-05 -2.58097e-05
6.03032e-05 0.00132845 9.4773e-07
-2.58097e-05 9.4773e-07 0.00132104
0.000742229 8.67629e-06 5.48875e-06
8.67629e-06 -6.15084e-05 -1.36128e-06
5.48875e-06 -1.36128e-06 -9.80243e-05
0.00334166 5.72692e-05 1.47455e-07
5.72692e-05 0.00129662 1.21618e-07
1.47455e-07 1.21618e-07 0.00129025
0.00130439 2.93626e-05 2.13667e-05
2.93626e-05 0.000277628 -1.76713e-06
2.13667e-05 -1.76713e-06 0.000261013
0.00151324 -1.5653e-05 -1.00434e-06
-1.5653e-05 0.000137909 -1.46361e-07
-1.00434e-06 -1.46361e-07 6.71036e-05
0.00145059 -2.06313e-05 3.53863e-07
-2.06313e-05 9.74424e-05 9.80741e-08
3.53863e-07 9.80741e-08 2.51024e-05
0.00127884 -8.68287e-06 -1.58004e-06
-8.68287e-06 3.58789e-05 -1.54427e-07
-1.58004e-06 -1.54427e-07 -3.23114e-05
0.00137931 -9.79648e-06 1.84371e-07
-9.79648e-06 5.72616e-05 -1.75678e-07
1.84371e-07 -1.75678e-07 -1.21313e-05
0.00130053 -1.27695e-05 8.4994e-07
-1.27695e-05 8.33269e-06 3.50393e-07
8.4994e-07 3.50393e-07 -6.22335e-05
0.00110047 9.46984e-06 -3.56253e-06
9.46984e-06 -2.51382e-06 -6.48717e-07
-3.56253e-06 -6.48717e-07 -6.35038e-05
0.00129825 1.03819e-05 -5.36486e-09
1.03819e-05 3.88399e-05 1.06014e-07
-5.36486e-09 1.06014e-07 -3.05315e-05
0.00133747 2.06826e-06 1.10694e-06
2.06826e-06 2.74325e-05 -8.73222e-07
1.10694e-06 -8.73222e-07 -4.30426e-05
0.000765742 1.02353e-05 -6.84732e-06
1.02353e-05 -6.02056e-05 -2.12499e-06
-6.84732e-06 -2.12499e-06 -9.91616e-05
0.000964651 2.23331e-05 -1.05602e-06
2.23331e-05 -6.0772e-05 -2.53648e-07
-1.05602e-06 -2.53648e-07 -0.000123245
0.00163715 3.57436e-05 1.80273e-06
3.57436e-05 0.000213313 5.48809e-07
1.80273e-06 5.48809e-07 0.000142938
0.00342772 -5.09602e-05 -2.74391e-05
-5.09602e-05 0.00132659 -2.29485e-06
-2.74391e-05 -2.29485e-06 0.00132136
0.000759101 7.42338e-06 -1.03679e-07
7.42338e-06 -5.41387e-05 1.22896e-07
-1.03679e-07 1.22896e-07 -9.23103e-05
0.000829143 2.46842e-05 2.19098e-06
2.46842e-05 -0.000106875 1.07197e-06
2.19098e-06 1.07197e-06 -0.000169541
0.00314769 -5.00105e-05 -2.70033e-07
-5.00105e-05 0.00118128 1.50151e-07
-2.70033e-07 1.50151e-07 0.0011789
0.000702994 -2.88793e-06 5.14731e-06
-2.88793e-06 -6.7485e-05 2.82173e-06
5.14731e-06 2.82173e-06 -0.000103009
0.00287748 -4.79381e-05 1.90071e-05
-4.79381e-05 0.00103746 2.76043e-06
1.90071e-05 2.76043e-06 0.00103896
0.00140909 5.65116e-08 -1.42323e-06
5.65116e-08 0.000109088 -4.21015e-07
-1.42323e-06 -4.21015e-07 3.91797e-05
0.00139207 -6.67774e-06 1.00398e-07
-6.67774e-06 8.2884e-05 7.61589e-08
1.00398e-07 7.61589e-08 9.83944e-06
0.00142053 -1.71269e-05 1.29279e-06
-1.71269e-05 8.64989e-05 1.93983e-07
1.29279e-06 1.93983e-07 1.33948e-05
0.000901729 -1.08803e-05 -4.13964e-06
-1.08803e-05 -9.56415e-05 1.00799e-07
-4.13964e-06 1.00799e-07 -0.000159685
0.00140218 7.70448e-06 3.77616e-07
7.70448e-06 0.00010673 9.34146e-08
3.77616e-07 9.34146e-08 3.60016e-05
0.00142029 1.24907e-05 1.40497e-06
1.24907e-05 0.000101526 -1.48019e-07
1.40497e-06 -1.48019e-07 2.73357e-05
0.00136462 2.08298e-05 2.12624e-06
2.08298e-05 9.81172e-05 -1.02409e-08
2.12624e-06 -1.02409e-08 3.04514e-05
0.000909269 1.33278e-05 -4.6481e-07
1.33278e-05 -8.55454e-05 8.71804e-08
-4.6481e-07 8.71804e-08 -0.00014764
0.000713104 1.35769e-05 -6.14157e-06
1.35769e-05 -7.66191e-05 5.91395e-07
-6.14157e-06 5.91395e-07 -0.000116299
0.00110423 2.27679e-05 2.7574e-06
2.27679e-05 1.28723e-05 -3.18052e-07
2.7574e-06 -3.18052e-07 -4.72125e-05
0.000721119 1.90767e-05 1.67174e-07
1.90767e-05 -7.06677e-05 7.61898e-08
1.67174e-07 7.61898e-08 -0.000109631
0.00346182 6.33552e-05 -2.73726e-05
6.33552e-05 0.00136521 5.06016e-07
-2.73726e-05 5.06016e-07 0.00135675
0.000729216 2.18154e-05 5.58279e-06
2.18154e-05 -6.7386e-05 -1.09145e-06
5.58279e-06 -1.09145e-06 -0.000105029
0.00340585 5.97795e-05 3.11994e-07
5.97795e-05 0.00133386 1.20173e-07
3.11994e-07 1.20173e-07 0.00132636
0.00335788 5.66254e-05 2.64389e-05
5.66254e-05 0.00130559 -1.12351e-06
2.64389e-05 -1.12351e-06 0.0012991
0.00132592 -1.24265e-05 -1.72772e-06
-1.24265e-05 6.72063e-05 -4.5528e-07
-1.72772e-06 -4.5528e-07 -2.03851e-06
0.00142683 -1.64975e-05 1.24124e-07
-1.64975e-05 9.48922e-05 2.26097e-07
1.24124e-07 2.26097e-07 2.3878e-05
0.00133243 -2.02439e-05 9.10546e-07
-2.02439e-05 3.96685e-05 2.26562e-07
9.10546e-07 2.26562e-07 -3.28376e-05
0.00109665 -8.90592e-06 -3.34217e-06
-8.90592e-06 -2.15623e-06 -8.26373e-07
-3.34217e-06 -8.26373e-07 -6.28224e-05
0.00129327 -9.06051e-06 1.5735e-07
-9.06051e-06 4.26973e-05 -1.38748e-07
1.5735e-07 -1.38748e-07 -2.55295e-05
0.00136799 -1.02886e-05 7.56942e-07
-1.02886e-05 5.19922e-05 -3.88118e-07
7.56942e-07 -3.88118e-07 -1.73552e-05
0.000731054 4.35537e-06 -6.78119e-06
4.35537e-06 -7.78554e-05 -1.80738e-06
-6.78119e-06 -1.80738e-06 -0.000116457
0.00112372 8.98036e-06 -5.00785e-08
8.98036e-06 8.7029e-06 1.39612e-07
-5.00785e-08 1.39612e-07 -5.23797e-05
0.00133327 1.03476e-05 2.02125e-06
1.03476e-05 5.49135e-05 7.33141e-08
2.02125e-06 7.33141e-08 -1.45542e-05
0.00355501 -5.29075e-05 -2.92693e-05
-5.29075e-05 0.00139501 -1.8308e-06
-2.92693e-05 -1.8308e-06 0.00138836
0.000748446 9.93728e-06 -1.54151e-08
9.93728e-06 -6.6675e-05 1.63528e-07
-1.54151e-08 1.63528e-07 -0.000105763
0.00114794 2.48783e-05 2.62215e-06
2.48783e-05 2.81982e-05 1.00391e-06
2.62215e-06 1.00391e-06 -3.37004e-05
0.0033775 -5.21515e-05 -2.30596e-07
-5.21515e-05 0.00130118 1.59562e-07
-2.30596e-07 1.59562e-07 0.00129628
0.000722824 6.20273e-06 5.90627e-06
6.20273e-06 -6.88332e-05 2.63934e-06
5.90627e-06 2.63934e-06 -0.00010716
0.00308799 -5.07126e-05 2.10324e-05
-5.07126e-05 0.00115117 2.67209e-06
2.10324e-05 2.67209e-06 0.00114934
0.00112027 -6.12284e-06 -3.53759e-06
-6.12284e-06 1.16033e-05 -5.56621e-07
-3.53759e-06 -5.56621e-07 -5.09051e-05
0.00131635 -4.45189e-06 3.3297e-07
-4.45189e-06 6.29757e-05 -4.66396e-08
3.3297e-07 -4.66396e-08 -7.8285e-06
0.00139402 -1.00006e-05 1.44833e-06
-1.00006e-05 8.46149e-05 5.81244e-07
1.44833e-06 5.81244e-07 1.17512e-05
0.0007009 6.59943e-06 -6.26209e-06
6.59943e-06 -8.48779e-05 -5.35869e-08
-6.26209e-06 -5.35869e-08 -0.000124694
0.000922442 -3.63292e-06 -5.35324e-07
-3.63292e-06 -8.55786e-05 2.38146e-07
-5.35324e-07 2.38146e-07 -0.000149319
0.0014154 1.37198e-05 2.42708e-06
1.37198e-05 0.000113759 -1.56004e-07
2.42708e-06 -1.56004e-07 4.29666e-05
0.000924764 1.37876e-05 2.68298e-06
1.37876e-05 -7.79633e-05 -1.38043e-07
2.68298e-06 -1.38043e-07 -0.000139809
0.000715645 1.5815e-05 8.91059e-08
1.5815e-05 -7.53136e-05 1.28409e-07
8.91059e-08 1.28409e-07 -0.000115146
0.0035419 6.67004e-05 -2.86153e-05
6.67004e-05 0.00140673 6.24083e-08
-2.86153e-05 6.24083e-08 0.00139741
0.000724503 2.60875e-05 5.91922e-06
2.60875e-05 -6.91242e-05 -7.88358e-07
5.91922e-06 -7.88358e-07 -0.000108348
0.00347909 6.25852e-05 7.28883e-07
6.25852e-05 0.00137382 1.45112e-07
7.28883e-07 1.45112e-07 0.00136531
0.00340943 5.85282e-05 2.85388e-05
5.85282e-05 0.00133626 -6.84695e-07
2.85388e-05 -6.84695e-07 0.00132874
0.00110971 -1.23777e-05 -3.52025e-06
-1.23777e-05 7.57062e-06 -9.68852e-07
-3.52025e-06 -9.68852e-07 -5.39345e-05
0.00128101 -1.36907e-05 -5.01423e-08
-1.36907e-05 4.45186e-05 -2.51663e-08
-5.01423e-08 -2.51663e-08 -2.50028e-05
0.00134674 -1.74326e-05 1.1659e-06
-1.74326e-05 5.5012e-05 3.09001e-07
1.1659e-06 3.09001e-07 -1.62297e-05
0.00183633 -1.54844e-05 -1.57765e-05
-1.54844e-05 0.000475269 -1.28614e-06
-1.57765e-05 -1.28614e-06 0.000442974
0.00112041 -9.85871e-06 1.47778e-07
-9.85871e-06 9.26406e-06 -2.85519e-08
1.47778e-07 -2.85519e-08 -5.15185e-05
0.00131183 -9.67104e-06 1.7853e-06
-9.67104e-06 5.15104e-05 -1.05884e-07
1.7853e-06 -1.05884e-07 -1.67615e-05
0.00356946 -5.50511e-05 -3.00918e-05
-5.50511e-05 0.00140842 -1.32838e-06
-3.00918e-05 -1.32838e-06 0.00140099
0.00073748 5.20878e-06 1.18958e-08
5.20878e-06 -7.40745e-05 1.60618e-07
1.18958e-08 1.60618e-07 -0.000112778
0.00114788 7.70955e-06 3.72758e-06
7.70955e-06 2.04141e-05 1.00855e-06
3.72758e-06 1.00855e-06 -4.08014e-05
0.00352476 -5.3822e-05 -1.76831e-07
-5.3822e-05 0.00137931 1.60199e-07
-1.76831e-07 1.60199e-07 0.00137282
0.00073378 9.92709e-06 6.46958e-06
9.92709e-06 -7.19751e-05 2.39314e-06
6.46958e-06 2.39314e-06 -0.000111195
0.00332651 -5.31017e-05 2.4063e-05
-5.31017e-05 0.00127545 2.45507e-06
2.4063e-05 2.45507e-06 0.00127089
0.000719705 8.37838e-07 -8.82616e-06
8.37838e-07 -7.67782e-05 -9.81778e-07
-8.82616e-06 -9.81778e-07 -0.00011664
0.00102573 -8.473e-06 7.38752e-08
-8.473e-06 -3.55336e-05 1.85782e-07
7.38752e-08 1.85782e-07 -9.85996e-05
0.00121491 -8.62136e-06 2.32944e-06
-8.62136e-06 1.24663e-05 4.58063e-07
2.32944e-06 4.58063e-07 -5.91652e-05
0.0036074 -2.72439e-06 -2.83084e-05
-2.72439e-06 0.00143872 -3.76416e-07
-2.83084e-05 -3.76416e-07 0.00142983
0.000713148 6.4906e-06 6.89716e-08
6.4906e-06 -7.91359e-05 1.27282e-07
6.89716e-08 1.27282e-07 -0.000119056
0.000936331 3.39787e-06 2.90004e-06
3.39787e-06 -7.87439e-05 1.4353e-07
2.90004e-06 1.4353e-07 -0.000142195
0.000721065 2.1879e-05 6.16161e-06
2.1879e-05 -7.24268e-05 -3.07266e-07
6.16161e-06 -3.07266e-07 -0.000112621
0.00356944 6.51495e-05 1.63058e-06
6.51495e-05 0.00142009 1.91685e-07
1.63058e-06 1.91685e-07 0.00141085
0.00349543 6.07753e-05 3.12169e-05
6.07753e-05 0.00138191 -2.26296e-07
3.12169e-05 -2.26296e-07 0.00137344
0.00185197 -2.49596e-05 -1.88565e-05
-2.49596e-05 0.000485611 -1.39903e-06
-1.88565e-05 -1.39903e-06 0.000452386
0.00112053 -1.13702e-05 -3.14658e-08
-1.13702e-05 1.25434e-05 1.67199e-08
-3.14658e-08 1.67199e-08 -4.88856e-05
0.00123601 -1.48358e-05 1.66454e-06
-1.48358e-05 2.181e-05 3.96309e-07
1.66454e-06 3.96309e-07 -4.79857e-05
0.00350778 -6.85946e-05 -1.07074e-05
-6.85946e-05 0.00138628 -4.78657e-07
-1.07074e-05 -4.78657e-07 0.00137728
0.00073333 -5.64177e-06 3.16285e-08
-5.64177e-06 -7.28254e-05 5.14755e-08
3.16285e-08 5.14755e-08 -0.000111405
0.00114493 -9.49109e-06 3.58376e-06
-9.49109e-06 2.09514e-05 7.68892e-07
3.58376e-06 7.68892e-07 -3.98881e-05
0.00356836 -5.55048e-05 -1.76511e-07
-5.55048e-05 0.0014066 1.56275e-07
-1.76511e-07 1.56275e-07 0.00139922
0.000739872 6.6061e-06 6.88251e-06
6.6061e-06 -7.22383e-05 2.07027e-06
6.88251e-06 2.07027e-06 -0.000111043
0.00349451 -5.48888e-05 2.67296e-05
-5.48888e-05 0.0013637 2.09183e-06
2.67296e-05 2.09183e-06 0.00135735
0.00137324 -1.22626e-05 -3.01528e-05
-1.22626e-05 0.000325855 -3.68378e-07
-3.01528e-05 -3.68378e-07 0.000305536
0.00129136 -6.78636e-06 -6.52561e-06
-6.78636e-06 0.000207209 2.17546e-07
-6.52561e-06 2.17546e-07 0.000170704
0.000939444 -7.18891e-06 3.64997e-06
-7.18891e-06 -7.86357e-05 7.94418e-07
3.64997e-06 7.94418e-07 -0.000142203
0.00361159 4.5941e-06 1.2979e-06
4.5941e-06 0.00144134 -1.50934e-07
1.2979e-06 -1.50934e-07 0.00143211
0.000716933 5.81611e-06 6.41583e-06
5.81611e-06 -7.73119e-05 3.16983e-07
6.41583e-06 3.16983e-07 -0.00011727
0.00358762 6.1397e-05 3.17911e-05
6.1397e-05 0.00142907 2.20641e-07
3.17911e-05 2.20641e-07 0.00141994
0.00131411 -3.70935e-05 -6.47541e-06
-3.70935e-05 0.00029781 -6.95883e-07
-6.47541e-06 -6.95883e-07 0.000276512
0.00130104 -9.96015e-06 -6.11424e-06
-9.96015e-06 0.000211474 1.07572e-07
-6.11424e-06 1.07572e-07 0.000175537
0.00113099 -1.28762e-05 3.36996e-06
-1.28762e-05 1.74387e-05 9.73502e-07
3.36996e-06 9.73502e-07 -4.40026e-05
0.00243552 -4.59754e-05 1.11781e-05
-4.59754e-05 0.000850432 1.44033e-07
1.11781e-05 1.44033e-07 0.000836179
0.000743221 -3.70915e-07 6.89387e-06
-3.70915e-07 -6.81695e-05 1.76779e-06
6.89387e-06 1.76779e-06 -0.000106683
0.00356832 -5.62963e-05 2.8686e-05
-5.62963e-05 0.00140539 1.63543e-06
2.8686e-05 1.63543e-06 0.00139802
0.00361839 -5.57696e-05 -1.32398e-06
-5.57696e-05 0.00144353 1.87589e-07
-1.32398e-06 1.87589e-07 0.00143464
0.000721418 -2.34299e-06 6.63999e-06
-2.34299e-06 -7.60766e-05 1.06109e-06
6.63999e-06 1.06109e-06 -0.000115718
0.00362885 1.95533e-05 3.12999e-05
1.95533e-05 0.00144943 -2.04894e-07
3.12999e-05 -2.04894e-07 0.00144003
0.00245207 -4.86059e-05 1.15792e-05
-4.86059e-05 0.000862885 3.1767e-08
1.15792e-05 3.1767e-08 0.000847743
0.000738972 -4.12672e-06 6.61404e-06
-4.12672e-06 -6.74762e-05 1.59676e-06
6.61404e-06 1.59676e-06 -0.000106569
0.00356656 -5.83321e-05 2.94338e-05
-5.83321e-05 0.00141071 1.1577e-06
2.94338e-05 1.1577e-06 0.00140266
0.00360419 -6.41219e-05 2.97136e-05
-6.41219e-05 0.00143663 2.31958e-07
2.97136e-05 2.31958e-07 0.00142729
0.00357618 -6.1708e-05 2.95292e-05
-6.1708e-05 0.00142034 7.05175e-07
2.95292e-05 7.05175e-07 0.00141156
