# vtk DataFile Version 2.0
Wound Healing Simulation
ASCII
DATASET UNSTRUCTURED_GRID
POINTS 3012 float
69.9759 18.75 4
67.2507 60.3285 4
69.976 18.75 2
73.0099 25.446 4
71.1327 20.9142 4
68.6801 16.6661 4
67.8226 19.9265 3.9758
67.2507 60.3286 2
71.1327 54.0858 4
68.6801 58.3339 4
65.6939 62.2254 4
65.3095 58.9997 3.97496
74.6784 42.3946 4
73.7221 47.2057 4
69.9759 18.75 0
73.0099 25.446 2
68.6801 16.6661 2
71.1327 20.9142 2
67.8232 19.93 2
74.6792 32.6053 4
73.7222 27.7943 4
72.1454 23.1494 4
70.6119 26.2216 3.97564
68.883 21.9581 3.97616
67.2507 14.6715 4
66.634 17.9731 3.97454
65.7889 21.0288 3.96439
67.2507 60.3285 0
71.1327 54.0858 2
68.6801 58.3339 2
65.694 62.2255 2
65.3107 58.9948 2
72.1454 51.8506 4
69.9759 56.25 4
68.8335 53.1133 3.97558
64.0165 64.0165 4
66.6078 57.1327 3.97539
63.8826 60.7636 3.97461
63.4933 57.7644 3.96602
60.3285 67.2507 4
74.6792 42.3947 2
73.7222 47.2057 2
74.9194 39.9526 4
74.2788 44.8158 4
72.1666 42.0857 3.97692
73.0099 49.554 4
71.2471 46.598 3.97547
73.0099 25.446 0
71.1327 20.9142 0
68.6801 16.6661 0
67.8226 19.9265 0.0241977
74.6792 32.6053 2
73.7222 27.7943 2
67.2508 14.6715 2
72.1455 23.1494 2
70.6116 26.2222 2
66.6349 17.9776 2
68.8831 21.9605 2
65.7867 21.0304 2
74.9197 35.0474 4
74.2794 30.1841 4
72.1833 32.9442 3.97715
71.2763 28.4322 3.97583
69.8131 24.0598 3.97606
68.3405 26.9543 3.96468
66.7545 22.9361 3.96426
65.694 12.7746 4
65.3202 16.1056 3.97345
64.7053 19.2005 3.96474
63.8087 22.066 3.96439
71.1327 54.0858 0
65.6939 62.2254 0
68.6801 58.3339 0
65.3095 58.9997 0.0250384
72.1455 51.8506 2
69.9759 56.25 2
68.8336 53.1109 2
64.0165 64.0165 2
66.6087 57.1284 2
63.8843 60.7584 2
63.4918 57.764 2
62.2254 65.694 4
58.8919 65.4131 3.98401
69.7663 50.9892 3.9753
67.7807 55.1671 3.9757
66.6398 52.207 3.96439
62.3327 62.4244 3.9776
64.6528 56.0271 3.96549
62.1962 59.3919 3.96603
61.7799 56.6558 3.96202
58.3339 68.6801 4
60.3285 67.2508 2
73.7221 47.2057 0
74.6784 42.3946 0
74.9197 39.9526 2
74.2794 44.8159 2
72.1659 42.0854 2
73.0099 49.554 2
71.2468 46.5976 2
75 37.5 4
72.404 39.8025 3.97784
71.7807 44.3529 3.97655
69.7992 41.79 3.96712
70.5727 48.8136 3.97504
68.906 46.0141 3.96557
74.6792 32.6053 0
73.7222 27.7943 0
67.2507 14.6715 0
72.1454 23.1494 0
70.6119 26.2216 0.0243573
68.883 21.9581 0.0238401
66.634 17.9731 0.0254632
65.7889 21.0288 0.0356064
74.9197 35.0474 2
74.2794 30.1841 2
72.1826 32.9445 2
71.2759 28.4327 2
65.694 12.7745 2
65.3216 16.1109 2
69.813 24.0611 2
68.3401 26.9554 2
64.7037 19.2015 2
66.7542 22.9374 2
63.808 22.0668 2
72.4119 35.2249 3.97789
71.8023 30.6772 3.9768
69.8353 33.271 3.96702
68.9604 29.0411 3.96546
67.6045 24.9146 3.96438
66.1012 27.6588 3.96806
64.0165 10.9835 4
64.6694 23.8592 3.96571
63.8862 14.3303 3.97412
63.5046 17.4565 3.96534
62.8342 20.3534 3.96256
61.9289 23.0051 3.96818
60.6812 11.1014 3.97894
57.6062 11.4717 3.96986
72.1454 51.8506 0
69.9759 56.25 0
68.8335 53.1133 0.024421
64.0165 64.0165 0
63.8826 60.7636 0.0253888
66.6078 57.1327 0.024607
63.4933 57.7644 0.0339781
62.2255 65.694 2
58.8942 65.4096 2
69.766 50.9878 2
67.7812 55.1637 2
66.6389 52.2058 2
62.3352 62.4199 2
64.6516 56.0265 2
62.1939 59.3916 2
61.7803 56.6562 2
60.6661 63.9737 3.98022
57.0231 66.7339 3.98729
57.5531 63.677 3.97136
67.4978 50.1748 3.96444
65.694 54.1706 3.96471
64.4369 51.3559 3.96583
60.7676 60.9185 3.9687
62.7564 55.0413 3.96356
60.6306 58.1324 3.9609
60.233 55.7376 3.96462
56.25 69.9759 4
58.3339 68.6801 2
60.3285 67.2507 0
58.9185 9.65915 3.98037
62.2254 9.30607 4
73.0099 49.554 0
74.2788 44.8158 0
71.2471 46.598 0.0245347
72.1666 42.0857 0.023078
74.9194 39.9526 0
75 37.5 2
72.4038 39.8024 2
71.7805 44.3523 2
69.7984 41.7896 2
70.5722 48.813 2
68.9057 46.0133 2
72.4874 37.5126 3.97747
70.0368 39.6583 3.9675
69.425 43.9072 3.96649
67.5055 41.4897 3.97166
68.2581 48.1057 3.96485
66.6016 45.4208 3.96994
74.9197 35.0474 0
74.2794 30.1841 0
72.1833 32.9442 0.022855
71.2763 28.4322 0.0241727
65.694 12.7746 0
65.3202 16.1056 0.0265518
69.8131 24.0598 0.0239447
68.3405 26.9543 0.0353191
66.7545 22.9361 0.0357433
64.7053 19.2005 0.0352589
63.8087 22.066 0.035606
72.4117 35.2249 2
71.8021 30.6778 2
69.8346 33.2716 2
68.9602 29.042 2
64.0165 10.9835 2
63.8883 14.3355 2
63.5031 17.4576 2
67.6041 24.9159 2
66.1004 27.6595 2
62.8338 20.3539 2
64.6691 23.86 2
61.9278 23.0061 2
60.6837 11.1056 2
57.6072 11.4644 2
70.0536 35.394 3.96749
69.4621 31.1523 3.9662
67.5719 33.6021 3.97093
66.6776 29.6435 3.96882
65.4317 25.7263 3.96681
63.9412 28.3043 3.97453
62.3381 12.6588 3.97686
62.6757 24.6963 3.97041
62.191 15.8004 3.96646
61.7556 18.7193 3.96122
61.0646 21.4074 3.96534
60.1792 23.8187 3.9722
59.2399 12.809 3.9677
55.8692 10.2534 3.97317
56.3943 13.1689 3.96873
69.7663 50.9892 0.0246956
62.2254 65.694 0
58.8919 65.4131 0.0159912
67.7807 55.1671 0.0242994
66.6398 52.207 0.0356139
62.3327 62.4244 0.0223985
62.1962 59.3919 0.0339675
64.6528 56.0271 0.0345146
61.7799 56.6558 0.0379774
60.6684 63.9707 2
57.0254 66.7323 2
57.5542 63.6806 2
67.4983 50.1739 2
65.6923 54.1696 2
64.4368 51.3555 2
60.7666 60.9201 2
62.7567 55.0415 2
60.6344 58.134 2
60.2322 55.7375 2
55.0689 67.9312 3.98841
59.2132 62.3379 3.96931
55.8015 64.902 3.976
56.3165 62.046 3.97005
65.2208 49.3804 3.96715
63.62 53.2634 3.96449
62.2317 50.593 3.96947
59.3186 59.5277 3.96299
60.939 54.2558 3.96685
59.2059 56.9605 3.96193
59.101 55.1189 3.96756
48.0999 68.5748 3.98464
50.9467 69.9313 3.99009
54.0858 71.1327 4
56.25 69.976 2
58.3339 68.6801 0
57.0557 8.33853 3.98236
60.3285 7.74928 4
58.9212 9.66335 2
62.2255 9.30602 2
70.5727 48.8136 0.0249557
71.7807 44.3529 0.0234547
68.906 46.0141 0.0344254
69.7992 41.79 0.0328812
72.404 39.8025 0.0221557
75 37.5 0
72.4867 37.5125 2
70.0365 39.6582 2
69.4247 43.9068 2
67.5039 41.4895 2
68.2587 48.105 2
66.5992 45.4203 2
70.1249 37.523 3.96754
67.7512 39.5096 3.97209
67.1206 43.4564 3.97062
65.3397 41.1898 3.9769
65.9557 47.3938 3.96874
64.4138 44.8078 3.97535
72.4119 35.2249 0.0221078
71.8023 30.6772 0.0232
69.8353 33.271 0.032975
68.9604 29.0411 0.0345424
64.0165 10.9835 0
63.8862 14.3303 0.025882
63.5046 17.4565 0.0346586
67.6045 24.9146 0.035617
66.1012 27.6588 0.0319441
64.6694 23.8592 0.0342903
62.8342 20.3534 0.0374399
61.9289 23.0051 0.031823
60.6812 11.1014 0.0210632
57.6062 11.4717 0.0301359
70.0533 35.3944 2
69.4618 31.153 2
67.5703 33.6025 2
66.6762 29.6441 2
62.3407 12.6637 2
62.1894 15.8012 2
61.7556 18.7193 2
65.431 25.7272 2
63.939 28.3054 2
61.0635 21.4083 2
62.6746 24.6973 2
60.178 23.8198 2
59.2405 12.8089 2
56.3958 13.1662 2
55.8711 10.2514 2
67.7902 35.5542 3.97165
67.1784 31.6383 3.96987
65.4959 33.949 3.97703
64.455 30.2335 3.97582
63.3429 26.469 3.97253
61.9491 28.8541 3.97622
60.7685 14.246 3.96764
60.7758 25.4253 3.97471
60.5776 17.163 3.96088
60.0807 19.8863 3.96211
59.4249 22.3554 3.96795
58.6645 24.4379 3.9745
54.0343 9.14697 3.97372
57.8976 14.3761 3.96634
54.7765 12.0634 3.96914
55.2944 14.7142 3.96659
67.4978 50.1748 0.035562
57.0231 66.7339 0.0127094
60.6661 63.9737 0.0197803
57.5531 63.677 0.028637
65.694 54.1706 0.0352912
64.4369 51.3559 0.0341685
60.7676 60.9185 0.0313004
60.6306 58.1324 0.0391045
62.7564 55.0413 0.0364385
60.233 55.7376 0.0353803
55.0708 67.9298 2
59.2134 62.3399 2
55.8018 64.9013 2
56.3153 62.046 2
65.2204 49.3798 2
63.6198 53.2632 2
62.2314 50.5924 2
59.3186 59.5299 2
60.9395 54.2557 2
59.211 56.9617 2
59.1044 55.1192 2
53.0409 68.9993 3.98984
53.9637 66.0056 3.97894
57.8681 60.8337 3.9689
54.6753 63.1813 3.97108
55.1934 60.564 3.97106
62.9684 48.6057 3.97159
61.5645 52.5175 3.96814
59.9616 49.932 3.97195
57.9762 58.2185 3.96155
59.1331 53.8733 3.96894
57.9623 55.737 3.96301
50.1066 67.8528 3.98378
47.4609 66.5719 3.97974
46.0538 69.1541 3.98541
48.1005 68.5751 2
48.8006 70.7226 3.99053
50.9481 69.9306 2
51.8506 72.1454 4
54.0858 71.1327 2
56.25 69.9759 0
55.1008 7.14281 3.98606
58.3339 6.31992 4
57.0589 8.34191 2
60.3286 7.74926 2
58.9185 9.65915 0.0196254
62.2254 9.30607 0
68.2581 48.1057 0.0351511
69.425 43.9072 0.033511
66.6016 45.4208 0.0300575
67.5055 41.4897 0.0283381
70.0368 39.6583 0.032499
72.4874 37.5126 0.0225303
70.1241 37.5231 2
67.7492 39.5095 2
67.1198 43.4561 2
65.3366 41.1891 2
65.9555 47.3934 2
64.4116 44.8069 2
67.8519 37.5241 3.97205
65.5787 39.3617 3.97677
64.9545 42.9949 3.97677
63.4402 40.9022 3.97671
63.7244 46.6671 3.97351
62.4617 44.1534 3.97653
70.0536 35.394 0.0325069
69.4621 31.1523 0.033801
67.5719 33.6021 0.0290698
66.6776 29.6435 0.0311836
62.3381 12.6588 0.0231441
62.191 15.8004 0.0335428
61.7556 18.7193 0.0387819
65.4317 25.7263 0.0331854
63.9412 28.3043 0.0254747
62.6757 24.6963 0.0295891
61.0646 21.4074 0.0346593
60.1792 23.8187 0.0278041
59.2399 12.809 0.0322976
56.3943 13.1689 0.031269
55.8692 10.2534 0.0268344
67.7881 35.5544 2
67.1778 31.6388 2
65.4923 33.95 2
64.4525 30.2345 2
60.7682 14.2466 2
60.5767 17.1627 2
60.0792 19.8871 2
63.341 26.4701 2
61.9466 28.855 2
59.4268 22.356 2
60.7741 25.4265 2
58.6639 24.4391 2
57.8964 14.3762 2
55.2951 14.7117 2
54.0363 9.14701 2
54.7773 12.0591 2
65.6772 35.6793 3.97687
64.9747 32.1864 3.97674
64.0044 34.2775 3.97677
62.2659 30.6987 3.97626
61.3591 27.1553 3.97582
60.4725 29.2331 3.9764
59.2934 15.7061 3.96165
58.9806 25.9151 3.97618
59.0272 18.4221 3.96067
58.5284 20.9544 3.96349
57.9833 23.216 3.96948
57.6219 24.7998 3.97515
52.1096 8.16234 3.97738
53.0497 11.0515 3.97056
56.6517 15.8028 3.96196
53.7907 13.7522 3.96551
54.3385 16.0803 3.96121
55.0689 67.9312 0.0115878
65.2208 49.3804 0.0328477
55.8015 64.902 0.0240034
59.2132 62.3379 0.0306926
56.3165 62.046 0.0299539
63.62 53.2634 0.0355063
62.2317 50.593 0.0305257
59.3186 59.5277 0.0370149
59.2059 56.9605 0.0380747
60.939 54.2558 0.0331471
59.101 55.1189 0.0324408
53.0427 68.9986 2
53.9645 66.0056 2
57.8667 60.8346 2
54.675 63.1831 2
55.1909 60.5641 2
62.9672 48.6049 2
61.5645 52.5172 2
59.9627 49.9315 2
57.9732 58.2193 2
59.1369 53.8735 2
57.959 55.7354 2
52.0677 66.9951 3.98235
52.9483 64.204 3.97593
56.6251 59.446 3.96756
53.6645 61.5719 3.97041
54.2303 59.2686 3.97428
60.6378 47.795 3.97329
59.4465 52.0212 3.96996
57.6308 49.5027 3.97355
56.6907 56.9242 3.96402
56.8781 54.0258 3.96669
50.107 67.8527 2
49.3346 65.9122 3.97965
47.4611 66.572 2
46.889 64.7217 3.97859
45.5563 67.0891 3.98013
43.9714 69.5861 3.98633
46.0544 69.1542 2
46.607 71.367 3.99089
48.0999 68.5748 0.0153611
48.8019 70.7223 2
49.554 73.0099 4
50.9467 69.9313 0.00991064
51.8506 72.1455 2
54.0858 71.1327 0
53.0631 6.07314 3.98893
55.1039 7.14417 2
56.25 5.02411 4
58.3339 6.3199 2
57.0557 8.33853 0.0176394
60.3285 7.74928 0
65.9557 47.3938 0.0312622
67.1206 43.4564 0.0293798
64.4138 44.8078 0.0246516
65.3397 41.1898 0.0231018
67.7512 39.5096 0.0279094
70.1249 37.523 0.0324577
67.8504 37.5241 2
65.5754 39.3614 2
64.9512 42.9939 2
63.4389 40.902 2
63.723 46.6663 2
62.4599 44.1526 2
65.6874 37.5043 3.97675
63.5896 39.2547 3.97676
62.9947 42.5076 3.97653
62.0403 40.663 3.9766
61.6059 45.8439 3.9754
61.0198 43.6118 3.97625
67.7902 35.5542 0.0283497
67.1784 31.6383 0.030127
65.4959 33.949 0.0229667
64.455 30.2335 0.0241771
60.7685 14.246 0.0323575
60.5776 17.163 0.0391156
60.0807 19.8863 0.0378887
63.3429 26.469 0.0274669
61.9491 28.8541 0.0237822
60.7758 25.4253 0.0252859
59.4249 22.3554 0.032054
58.6645 24.4379 0.0255018
57.8976 14.3761 0.0336605
55.2944 14.7142 0.0334092
54.0343 9.14697 0.0262848
54.7765 12.0634 0.0308607
65.6738 35.6797 2
64.9713 32.1873 2
64.0026 34.2782 2
62.2641 30.6991 2
59.2918 15.7052 2
59.0345 18.4201 2
58.5286 20.9552 2
61.3573 27.1564 2
60.4716 29.2336 2
57.977 23.2185 2
58.9798 25.9164 2
57.6275 24.8018 2
56.6498 15.8022 2
54.3424 16.0763 2
53.7902 13.7418 2
52.1115 8.16221 2
53.0507 11.0498 2
63.7987 35.6488 3.97662
62.5889 33.0911 3.97642
60.1884 30.6998 3.97612
59.1739 28.025 3.97617
57.8915 17.0439 3.95981
57.3397 25.8727 3.9761
57.5515 19.5732 3.96009
57.086 21.971 3.96376
56.8135 24.0964 3.97044
50.1107 7.29158 3.98249
51.2269 10.1451 3.97399
52.1558 12.8523 3.97136
55.4877 17.052 3.95922
52.9462 15.35 3.96357
53.7044 17.0772 3.95911
53.0409 68.9993 0.010163
53.9637 66.0056 0.0210563
62.9684 48.6057 0.0284147
54.6753 63.1813 0.0289184
57.8681 60.8337 0.0311032
55.1934 60.564 0.0289363
61.5645 52.5175 0.0318627
59.9616 49.932 0.0280491
57.9762 58.2185 0.038451
57.9623 55.737 0.0369917
59.1331 53.8733 0.0310625
52.0684 66.9955 2
52.9478 64.2047 2
56.6232 59.4465 2
53.6629 61.5746 2
54.2277 59.2694 2
60.6374 47.7941 2
59.4473 52.0207 2
57.6289 49.5015 2
56.6873 56.9273 2
56.875 54.0243 2
51.1649 65.1172 3.97819
52.0345 62.5155 3.97247
55.4331 58.1971 3.96279
52.8028 60.0657 3.96953
53.5968 58.4138 3.9676
57.816 46.7255 3.97589
57.2352 51.6789 3.97025
55.781 49.4197 3.97278
55.3384 55.7117 3.96473
55.0672 53.2741 3.96316
50.1066 67.8528 0.0162157
49.3345 65.9119 2
48.6135 64.109 3.97874
47.4609 66.5719 0.0202645
45.5565 67.0895 2
46.8895 64.7215 2
46.3756 63.0348 3.98232
45.1304 65.1824 3.9779
43.6299 67.4608 3.98187
41.8592 69.8731 3.98599
43.9718 69.5866 2
44.3743 71.8615 3.9912
46.0538 69.1541 0.0145864
46.6081 71.3668 2
47.2057 73.7222 4
48.8006 70.7226 0.00947358
49.554 73.0099 2
51.8506 72.1454 0
50.9538 5.13377 3.99055
53.0655 6.07414 2
54.0858 3.86728 4
55.1008 7.14281 0.0139397
56.25 5.02406 2
58.3339 6.31992 0
63.7244 46.6671 0.0264856
64.9545 42.9949 0.0232328
62.4617 44.1534 0.0234658
63.4402 40.9022 0.0232878
65.5787 39.3617 0.0232313
67.8519 37.5241 0.0279484
65.6838 37.5044 2
63.5886 39.2546 2
62.9935 42.5072 2
62.0407 40.6629 2
61.6045 45.8429 2
61.0188 43.6116 2
63.6536 37.4584 3.97667
61.7497 39.3353 3.97677
60.7652 41.9005 3.97662
59.783 44.6706 3.97644
65.6772 35.6793 0.0231336
64.9747 32.1864 0.0232646
64.0044 34.2775 0.0232263
62.2659 30.6987 0.0237373
59.2934 15.7061 0.0383494
59.0272 18.4221 0.0393263
58.5284 20.9544 0.036507
61.3591 27.1553 0.0241833
60.4725 29.2331 0.0235993
58.9806 25.9151 0.0238153
57.9833 23.216 0.0305158
57.6219 24.7998 0.0248451
56.6517 15.8028 0.0380388
54.3385 16.0803 0.0387922
53.7907 13.7522 0.0344865
52.1096 8.16234 0.0226223
53.0497 11.0515 0.0294367
63.7974 35.6488 2
62.5886 33.0916 2
60.1888 30.7001 2
57.8892 17.044 2
57.5656 19.5692 2
57.0815 21.9735 2
59.1726 28.0259 2
56.8307 24.0975 2
57.3412 25.8762 2
50.1125 7.28984 2
55.4887 17.0501 2
53.7105 17.0683 2
52.9465 15.3409 2
52.1568 12.8565 2
51.2284 10.1428 2
61.7922 35.3824 3.97646
59.8104 32.8132 3.97618
58.1146 30.1905 3.97596
56.8231 27.5372 3.97658
56.5464 18.2416 3.96067
55.8672 25.2725 3.97525
56.146 20.6454 3.96085
55.7615 23.0265 3.96394
48.0559 6.53123 3.98668
49.3217 9.34472 3.97662
50.4213 12.0336 3.97341
51.3494 14.5666 3.96504
54.3314 18.0218 3.95959
52.3145 17.1484 3.95905
52.0677 66.9951 0.0176504
52.9483 64.204 0.0240728
60.6378 47.795 0.0267107
53.6645 61.5719 0.029595
56.6251 59.446 0.03244
54.2303 59.2686 0.0257193
59.4465 52.0212 0.0300362
57.6308 49.5027 0.0264534
56.6907 56.9242 0.0359835
56.8781 54.0258 0.0333147
51.1648 65.1178 2
52.0332 62.5169 2
55.432 58.1976 2
52.8014 60.0695 2
53.5951 58.4159 2
57.8151 46.7245 2
57.2317 51.6775 2
55.7747 49.4177 2
55.3361 55.7115 2
55.0681 53.2741 2
50.3395 63.3661 3.97966
51.2211 60.8862 3.97507
54.1476 57.2048 3.96809
52.2517 58.5631 3.97081
56.0507 44.0416 3.97661
54.9362 47.7443 3.97468
54.6578 51.2581 3.96581
53.8072 54.4501 3.96569
49.3346 65.9122 0.0203473
48.6137 64.108 2
47.9522 62.4571 3.98068
45.5563 67.0891 0.0198696
46.889 64.7217 0.0214053
43.6299 67.4617 2
46.376 63.0345 2
45.1308 65.1825 2
45.9779 61.5645 3.98926
44.763 63.4327 3.97737
43.3558 65.4939 3.97849
41.6623 67.6793 3.98154
39.7016 70.0188 3.98545
41.8595 69.8736 2
42.1089 72.2059 3.99161
43.9714 69.5861 0.0136714
44.3752 71.8615 2
44.8159 74.2794 4
46.607 71.367 0.00911007
47.2057 73.7222 2
49.554 73.0099 0
48.7851 4.324 3.99162
50.9556 5.13356 2
51.8506 2.85458 4
53.0631 6.07314 0.011073
54.0858 3.86728 2
56.25 5.02411 0
61.6059 45.8439 0.0246041
62.9947 42.5076 0.0234677
61.0198 43.6118 0.023745
62.0403 40.663 0.0234025
63.5896 39.2547 0.023245
65.6874 37.5043 0.0232486
63.6525 37.4583 2
61.7505 39.3355 2
60.7661 41.9005 2
59.7828 44.6699 2
61.5793 37.4446 3.9769
59.7245 39.8101 3.97682
58.4124 42.8286 3.97615
63.7987 35.6488 0.0233813
62.5889 33.0911 0.0235793
60.1884 30.6998 0.023882
57.8915 17.0439 0.0401879
57.5515 19.5732 0.0399093
57.086 21.971 0.036237
59.1739 28.025 0.0238347
57.3397 25.8727 0.0238969
56.8135 24.0964 0.0295579
55.4877 17.052 0.0407766
53.7044 17.0772 0.0408906
52.9462 15.35 0.0364321
50.1107 7.29158 0.017514
52.1558 12.8523 0.0286372
51.2269 10.1451 0.0260116
61.793 35.3825 2
59.8107 32.8131 2
58.1157 30.1898 2
56.5491 18.2402 2
56.1629 20.6395 2
55.7684 23.0318 2
56.8226 27.5385 2
55.8714 25.2777 2
48.057 6.53021 2
49.3232 9.3432 2
54.344 18.0195 2
52.3072 17.1385 2
51.3467 14.5663 2
50.423 12.0335 2
59.361 35.1534 3.97658
57.3901 32.363 3.97565
55.9821 29.4913 3.97626
54.9257 26.8012 3.97565
55.2169 19.2961 3.96212
54.5394 24.2427 3.9706
54.7379 21.7116 3.96016
45.9625 5.88535 3.98836
43.3743 7.47875 3.98429
47.3542 8.63191 3.98131
48.5922 11.3182 3.97409
49.6887 13.7901 3.96972
50.5899 16.2175 3.96355
53.024 18.7869 3.96213
51.2346 18.1974 3.96407
51.1649 65.1172 0.0218083
52.0345 62.5155 0.0275274
57.816 46.7255 0.0241135
52.8028 60.0657 0.0304738
55.4331 58.1971 0.0372123
53.5968 58.4138 0.0323957
57.2352 51.6789 0.0297492
55.781 49.4197 0.0272197
55.3384 55.7117 0.0352655
55.0672 53.2741 0.0368447
50.3389 63.3652 2
51.2191 60.8849 2
54.1464 57.2062 2
52.2498 58.5647 2
56.0512 44.041 2
54.9326 47.7427 2
54.6554 51.2568 2
53.8072 54.4517 2
49.5772 61.7279 3.9758
54.8026 41.6358 3.97407
50.5201 59.2753 3.96982
52.0706 56.417 3.96814
53.464 45.3828 3.97413
52.8031 49.1736 3.96967
52.3541 52.7367 3.96046
48.6135 64.109 0.0212625
47.9516 62.4549 2
47.3124 60.9884 3.99124
43.6299 67.4608 0.0181278
45.1304 65.1824 0.0220977
46.3756 63.0348 0.0176796
41.6627 67.679 2
43.3565 65.4948 2
45.9766 61.565 2
44.7636 63.4328 2
45.7473 60.6101 3.98867
44.4771 61.8079 3.97946
43.1442 63.7079 3.97818
41.5455 65.632 3.97724
39.6319 67.7564 3.98078
37.5259 70.0431 3.98432
39.7017 70.0191 2
39.8162 72.4025 3.99147
41.8592 69.8731 0.014015
42.1096 72.2062 2
42.3947 74.6792 4
44.3743 71.8615 0.00879946
44.8159 74.2794 2
47.2057 73.7222 0
43.8519 5.36218 3.98764
46.5713 3.64844 3.99204
48.7861 4.32379 2
49.554 1.99015 4
50.9538 5.13377 0.0094539
51.8506 2.85453 2
54.0858 3.86728 0
59.783 44.6706 0.0235643
60.7652 41.9005 0.0233842
61.7497 39.3353 0.0232255
63.6536 37.4584 0.0233344
61.5799 37.4445 2
59.7256 39.8099 2
58.4126 42.8285 2
59.2154 37.5656 3.97726
57.3414 40.5953 3.97717
54.203 39.6489 3.97525
61.7922 35.3824 0.0235417
59.8104 32.8132 0.0238169
58.1146 30.1905 0.0240396
56.5464 18.2416 0.0393314
56.146 20.6454 0.0391458
55.7615 23.0265 0.0360562
56.8231 27.5372 0.023415
55.8672 25.2725 0.0247468
54.3314 18.0218 0.0404059
52.3145 17.1484 0.0409522
51.3494 14.5666 0.0349559
48.0559 6.53123 0.0133229
49.3217 9.34472 0.0233803
50.4213 12.0336 0.0265936
59.3618 35.153 2
45.9632 5.88391 2
43.3747 7.47673 2
57.3913 32.3634 2
55.9819 29.4907 2
55.2078 19.3008 2
54.7661 21.7139 2
54.5369 24.2478 2
54.9232 26.8037 2
47.3556 8.62944 2
48.5938 11.3174 2
53.0344 18.7637 2
51.2412 18.1948 2
50.5873 16.2174 2
49.6879 13.7926 2
56.7175 34.8077 3.97713
55.0468 31.6437 3.97567
53.9008 28.5997 3.97702
53.3029 25.7188 3.97493
53.8085 20.2649 3.96097
53.2785 22.9009 3.95643
41.3999 7.08342 3.98368
45.3601 7.99871 3.9868
42.8664 9.4245 3.97863
46.664 10.6667 3.97921
47.7252 13.1315 3.97478
48.8943 15.4646 3.96947
49.9391 17.7823 3.9594
51.5373 19.4814 3.97137
50.3395 63.3661 0.0203411
51.2211 60.8862 0.0249283
56.0507 44.0416 0.0233875
54.9362 47.7443 0.025317
52.2517 58.5631 0.0291921
54.1476 57.2048 0.0319085
54.6578 51.2581 0.0341948
53.8072 54.4501 0.0343144
49.5756 61.7266 2
54.7921 41.6314 2
50.5182 59.2763 2
52.0729 56.4197 2
53.4595 45.3802 2
52.802 49.1717 2
52.3555 52.7365 2
48.8174 60.1795 3.97691
51.5663 42.503 3.9833
49.7085 57.572 3.96565
50.3878 54.3452 3.96194
51.1376 47.0894 3.97516
50.7975 50.8123 3.95493
47.2499 43.5704 3.9747
47.9522 62.4571 0.0193197
47.3103 60.9863 2
46.5901 59.7796 3.99464
41.6623 67.6793 0.0184643
43.3558 65.4939 0.0215055
44.763 63.4327 0.0226332
45.9779 61.5645 0.0107385
39.6325 67.7571 2
41.5461 65.6303 2
45.7465 60.6103 2
43.1444 63.7071 2
44.4753 61.8094 2
44.604 60.2659 3.99558
42.9454 62.0596 3.97482
41.5995 63.8015 3.97721
39.6469 65.5959 3.9763
37.5632 67.7367 3.97881
31.698 65.1133 3.97624
33.3929 67.4749 3.97869
35.334 69.9535 3.98449
37.5257 70.0445 2
37.509 72.4567 3.99198
39.7016 70.0188 0.0145511
39.8167 72.4026 2
39.9526 74.9197 4
42.1089 72.2059 0.00838886
42.3947 74.6792 2
44.8159 74.2794 0
41.7366 4.97035 3.98818
43.8522 5.3606 2
44.3268 3.11147 3.99253
46.572 3.64795 2
47.2057 1.27793 4
48.7851 4.324 0.0083782
49.554 1.99013 2
51.8506 2.85458 0
58.4124 42.8286 0.0238467
59.7245 39.8101 0.0231803
61.5793 37.4446 0.0230988
59.2166 37.5664 2
57.3412 40.5969 2
54.1931 39.6559 2
56.0751 37.8768 3.97678
48.5933 41.2251 3.97247
52.1577 39.2877 3.98279
39.4437 6.80653 3.9847
59.361 35.1534 0.0234166
57.3901 32.363 0.0243492
55.9821 29.4913 0.0237418
55.2169 19.2961 0.0378784
54.7379 21.7116 0.0398434
54.5394 24.2427 0.029405
54.9257 26.8012 0.0243471
53.024 18.7869 0.0378684
51.2346 18.1974 0.0359258
50.5899 16.2175 0.0364533
45.9625 5.88535 0.0116386
49.6887 13.7901 0.0302768
47.3542 8.63191 0.0186899
48.5922 11.3182 0.0259141
43.3743 7.47875 0.0157119
56.7171 34.8085 2
41.4002 7.08337 2
45.3607 7.99655 2
42.8672 9.42251 2
55.0491 31.6419 2
53.8995 28.6009 2
53.8128 20.2815 2
53.2667 22.9017 2
53.2998 25.7186 2
46.6656 10.6625 2
47.7254 13.1286 2
51.5571 19.4823 2
49.9384 17.784 2
48.8883 15.4754 2
54.0243 34.0067 3.97489
52.7545 30.6951 3.97561
52.0087 27.4496 3.97476
51.7865 24.3407 3.97867
52.2034 21.2254 3.97387
41.0134 9.05746 3.97762
44.7261 9.99974 3.98545
42.4619 10.9086 4.00067
45.9878 12.743 3.97072
47.6498 14.6395 3.96734
48.0469 17.0406 3.96567
49.7413 19.8709 3.97638
49.5772 61.7279 0.024203
50.5201 59.2753 0.030179
54.8026 41.6358 0.0259295
53.464 45.3828 0.02587
52.8031 49.1736 0.0303315
52.0706 56.417 0.031856
52.3541 52.7367 0.039538
48.8144 60.1773 2
51.58 42.5155 2
49.7068 57.5721 2
50.3879 54.3466 2
51.1395 47.0876 2
50.7998 50.812 2
47.2621 43.6037 2
47.9331 58.6999 3.98299
49.2363 45.1095 3.98084
48.4656 55.8595 3.95962
48.846 52.4982 3.97615
49.1585 48.8914 3.97049
44.9916 39.7871 3.85334
45.4832 42.489 3.8925
45.7508 45.5701 3.98326
42.8208 41.0071 3.67369
41.5543 41.7968 3.47513
47.3124 60.9884 0.00876022
46.588 59.7754 2
45.4282 58.778 3.99457
39.6319 67.7564 0.0192249
41.5455 65.632 0.0227601
43.1442 63.7079 0.0218193
44.4771 61.8079 0.0205407
45.7473 60.6101 0.0113273
41.5995 63.8 2
37.5634 67.7383 2
39.6476 65.5968 2
44.6041 60.267 2
42.9434 62.0597 2
41.7486 62.4666 3.97685
42.4661 59.9527 3.98126
39.8942 63.5325 3.97595
37.6418 65.4916 3.97563
35.4637 67.6463 3.97859
33.576 65.325 3.97484
31.9604 63.2758 3.97646
29.8859 64.704 3.98015
31.6976 65.1137 2
31.3779 67.1857 3.9792
33.3925 67.4757 2
33.1576 69.7472 3.98454
35.3335 69.9548 2
35.1957 72.3713 3.992
37.5259 70.0431 0.0156823
37.5091 72.4573 2
37.5 75 4
39.8162 72.4025 0.00853395
39.9526 74.9197 2
42.3947 74.6792 0
39.6246 4.71808 3.98929
41.7368 4.97005 2
42.0633 2.71849 3.99295
43.8519 5.36218 0.0123575
44.3271 3.11066 2
44.8158 0.721173 4
46.5713 3.64844 0.00796041
47.2057 1.27779 2
49.554 1.99015 0
57.3414 40.5953 0.0228276
59.2154 37.5656 0.0227438
54.203 39.6489 0.0247508
48.6173 41.2344 2
56.0754 37.8739 2
52.1526 39.2525 2
53.0174 36.6156 3.97792
46.5233 40.304 3.8964
49.5373 38.5066 3.98433
37.5176 6.67637 3.98545
39.4444 6.80493 2
39.2112 8.69842 3.982
35.9436 8.49696 3.98379
56.7175 34.8077 0.0228712
55.0468 31.6437 0.0243262
53.9008 28.5997 0.0229843
53.8085 20.2649 0.0390259
53.2785 22.9009 0.0435657
53.3029 25.7188 0.0250693
51.5373 19.4814 0.0286284
49.9391 17.7823 0.0405985
48.8943 15.4646 0.0305316
45.3601 7.99871 0.013199
47.7252 13.1315 0.0252223
46.664 10.6667 0.020794
41.3999 7.08342 0.0163248
42.8664 9.4245 0.0213718
54.0236 34.0051 2
41.0148 9.05932 2
44.7269 9.99752 2
42.4634 10.9089 2
52.7491 30.6928 2
52.0159 27.4507 2
52.2024 21.2332 2
51.7762 24.3459 2
45.9881 12.7367 2
47.6429 14.61 2
49.7588 19.8573 2
48.0432 17.0478 2
51.5288 32.9204 3.98236
50.5846 29.4103 3.97751
50.308 25.9507 3.97048
49.7654 22.4669 3.98522
40.5642 11.6196 3.98315
43.8441 11.9136 3.97927
45.7664 15.4796 3.98827
47.4446 19.4823 3.97869
45.4525 37.4825 3.85053
48.8174 60.1795 0.0230911
49.7085 57.572 0.0343456
51.5663 42.503 0.0167013
51.1376 47.0894 0.0248444
50.7975 50.8123 0.0450658
50.3878 54.3452 0.0380595
47.2499 43.5704 0.0253031
47.9309 58.7037 2
49.2527 45.1244 2
48.4615 55.8618 2
48.8453 52.5012 2
49.1609 48.8927 2
45.0808 39.8094 2
45.5122 42.5118 2
45.7574 45.5864 2
42.8699 41.057 2
41.591 41.8219 2
46.7598 57.3061 3.97889
43.5443 39.3495 3.67334
41.9283 40.7276 3.48983
47.4216 47.1398 3.98392
46.9834 54.1673 3.96021
47.2249 50.6425 3.9783
44.283 47.1967 3.98236
44.1325 41.8265 3.85152
44.2435 44.3045 3.89022
41.853 42.4264 3.71546
40.5774 42.0906 3.45939
46.5901 59.7796 0.00535706
45.4286 58.776 2
43.8359 57.6639 3.9825
37.5632 67.7367 0.0211895
39.6469 65.5959 0.0236955
41.5995 63.8015 0.022786
42.9454 62.0596 0.0251777
44.604 60.2659 0.00441576
35.4636 67.6479 2
41.7472 62.4697 2
39.8936 63.5329 2
37.6422 65.4932 2
42.4683 59.9502 2
40.6192 61.6087 3.98089
40.4301 58.1303 3.98315
37.8373 63.1879 3.97295
35.573 65.414 3.97623
33.576 65.3257 2
31.9612 63.2782 2
33.6293 63.3161 3.97464
30.3802 62.8378 3.98067
32.1286 61.9787 3.98731
26.8811 61.4599 3.9791
28.0667 64.1334 3.97893
29.8848 64.7054 2
29.4079 66.7489 3.97983
31.698 65.1133 0.0237619
31.3775 67.1861 2
31.0155 69.4128 3.98451
33.3929 67.4749 0.0213123
33.1569 69.7479 2
32.8938 72.1457 3.9914
35.334 69.9535 0.0155067
35.1953 72.372 2
35.0474 74.9194 4
37.509 72.4567 0.00802079
37.5 75 2
39.9526 74.9197 0
35.6221 6.72792 3.98476
37.5244 4.61712 3.98961
39.6248 4.71661 2
39.7898 2.47521 3.99303
41.7366 4.97035 0.0118214
42.0633 2.7182 2
42.3946 0.32156 4
44.3268 3.11147 0.0074665
44.8159 0.72056 2
47.2057 1.27793 0
48.5933 41.2251 0.0275347
56.0751 37.8768 0.0232219
52.1577 39.2877 0.0172131
46.5444 40.3088 2
49.5361 38.5058 2
53.0165 36.6414 2
50.3419 35.5646 3.97396
47.1871 37.7613 3.90534
45.0151 35.1844 3.85242
42.8642 33.9487 3.67153
41.589 33.1645 3.47371
37.4589 8.53695 3.98472
37.5183 6.67578 2
39.4437 6.80653 0.0153008
39.2133 8.69633 2
38.976 10.1349 3.98441
35.9 9.77965 3.97984
34.1535 8.8291 3.98182
35.9446 8.4943 2
54.0243 34.0067 0.0251092
52.7545 30.6951 0.0243867
52.0087 27.4496 0.0252359
52.2034 21.2254 0.0261277
51.7865 24.3407 0.0213255
49.7413 19.8709 0.0236197
48.0469 17.0406 0.0343288
47.6498 14.6395 0.0326597
44.7261 9.99974 0.014546
45.9878 12.743 0.0292845
41.0134 9.05746 0.0223762
42.4619 10.9086 -0.000673338
51.54 32.9173 2
40.5669 11.6241 2
43.843 11.9105 2
50.6029 29.4093 2
50.3032 25.9548 2
49.7544 22.4603 2
45.7558 15.4286 2
47.4469 19.5115 2
49.1134 31.5475 3.98648
48.6824 27.7199 3.97675
49.0522 24.599 3.97953
47.078 22.2478 3.98993
38.2995 12.7503 3.9769
42.0834 14.3181 3.97905
44.7567 18.6069 3.97553
43.9678 37.4858 3.68569
45.549 37.4871 2
47.9331 58.6999 0.0170055
48.4656 55.8595 0.0403828
49.2363 45.1095 0.0191637
49.1585 48.8914 0.0295132
48.846 52.4982 0.0238482
44.9916 39.7871 0.146657
45.4832 42.489 0.107498
45.7508 45.5701 0.0167397
42.8208 41.0071 0.32631
41.5543 41.7968 0.524871
46.757 57.3104 2
43.612 39.376 2
41.9348 40.7415 2
47.4288 47.135 2
46.9784 54.1708 2
47.2251 50.6489 2
44.318 47.1911 2
44.187 41.8596 2
44.2956 44.3348 2
41.9101 42.4809 2
40.6094 42.1048 2
45.2928 55.8871 3.9995
42.2728 39.2041 3.50019
40.466 40.6063 3.60475
45.6369 48.7821 4.00226
45.2739 52.4308 3.98415
43.0309 48.1916 3.99422
42.9276 45.8353 3.88307
43.0175 43.5902 3.83277
40.6879 43.4295 3.69406
39.1702 42.3483 3.50579
45.4282 58.778 0.00542504
43.834 57.6711 2
42.0594 56.2493 3.98694
35.4637 67.6463 0.0214072
37.6418 65.4916 0.0243683
39.8942 63.5325 0.0240524
41.7486 62.4666 0.0231538
42.4661 59.9527 0.0187422
35.5734 65.4161 2
40.6193 61.6079 2
37.8375 63.1883 2
40.4302 58.1345 2
38.9075 56.3946 3.99348
38.2473 60.2917 3.98037
35.6072 63.1821 3.97287
33.576 65.325 0.0251617
31.9604 63.2758 0.0235389
33.6303 63.3171 2
30.3806 62.8399 2
32.1299 61.9808 2
28.6881 62.1755 3.98009
33.348 61.4844 3.97857
31.078 61.2028 3.98168
27.5936 59.5522 3.98008
23.8285 59.0331 3.99262
25.0508 60.8293 3.97697
26.8817 61.4604 2
26.2359 63.4626 3.97633
28.0658 64.1318 2
27.465 66.1731 3.97951
29.8859 64.704 0.0198494
29.4072 66.749 2
28.9082 68.9382 3.98379
31.3779 67.1857 0.0208012
31.0146 69.4129 2
30.6168 71.7773 3.9909
33.1576 69.7472 0.0154636
32.8929 72.1461 2
32.6054 74.6784 4
35.1957 72.3713 0.00800142
35.0474 74.9197 2
37.5 75 0
33.7253 6.98418 3.98346
35.4365 4.68732 3.98925
35.6227 6.72654 2
37.5156 2.38758 3.99316
37.5246 4.61647 2
39.6246 4.71808 0.0107117
39.7896 2.47442 2
39.9526 0.0806499 4
42.0633 2.71849 0.00705315
42.3947 0.320817 2
44.8158 0.721173 0
43.561 35.6217 3.67721
41.9504 34.2292 3.47826
46.5233 40.304 0.103596
49.5373 38.5066 0.0156677
53.0174 36.6156 0.0220761
47.1817 37.7375 2
50.3518 35.5601 2
45.0921 35.1637 2
42.9065 33.9026 2
41.6171 33.1389 2
47.3857 34.3476 3.9432
44.1854 33.1379 3.83583
41.9037 32.5375 3.71418
40.6068 32.8808 3.45846
37.3119 10.6341 3.98136
37.4606 8.53661 2
37.5176 6.67637 0.0145498
39.2112 8.69842 0.0180043
38.9797 10.1329 2
34.7566 10.3893 3.9803
35.902 9.77433 2
32.3805 9.37528 3.97805
34.1529 8.8246 2
35.9436 8.49696 0.0162072
51.5288 32.9204 0.0176434
50.5846 29.4103 0.0224947
50.308 25.9507 0.0295245
49.7654 22.4669 0.0147796
47.4446 19.4823 0.0213085
45.7664 15.4796 0.011728
43.8441 11.9136 0.0207338
40.5642 11.6196 0.0168511
49.1336 31.5349 2
38.3009 12.7451 2
42.0888 14.3297 2
48.6849 27.7224 2
49.0451 24.6012 2
47.0631 22.2463 2
44.7596 18.6714 2
47.0272 29.7112 3.98402
46.7346 25.3222 3.97123
44.211 21.6121 3.97975
36.5861 12.9635 3.97412
38.6788 14.8651 3.97431
41.7259 17.9462 3.97906
42.4352 37.4676 3.53688
44.0265 37.4869 2
45.4525 37.4825 0.14947
46.7598 57.3061 0.0211115
46.9834 54.1673 0.0397873
47.4216 47.1398 0.0160818
47.2249 50.6425 0.021704
43.5443 39.3495 0.326659
44.1325 41.8265 0.148477
44.2435 44.3045 0.109784
44.283 47.1967 0.0176432
41.853 42.4264 0.284538
41.9283 40.7276 0.510171
40.5774 42.0906 0.540607
45.2894 55.8894 2
42.2756 39.2108 2
40.4997 40.592 2
45.6359 48.7992 2
45.2688 52.4331 2
43.0673 48.208 2
42.9851 45.8833 2
43.0704 43.622 2
40.732 43.4959 2
39.168 42.3639 2
43.6166 54.3478 3.99421
40.5692 39.0512 3.62392
39.0656 40.6812 3.57382
43.3581 50.2784 4.00381
41.6697 47.342 3.926
41.5824 44.9288 3.84451
39.3416 44.0817 3.65974
37.499 42.4623 3.54731
43.8359 57.6639 0.0175025
42.063 56.2409 2
40.3731 54.8087 3.99503
35.573 65.414 0.0237696
37.8373 63.1879 0.0270465
40.6192 61.6087 0.0191056
40.4301 58.1303 0.0168491
35.6077 63.1812 2
38.2463 60.2934 2
38.9095 56.3801 2
37.9824 55.074 3.99496
36.9303 57.5806 3.9916
35.3645 60.8846 3.97905
33.6293 63.3161 0.025364
30.3802 62.8378 0.0193276
32.1286 61.9787 0.0126851
33.3489 61.4846 2
28.6885 62.1787 2
31.0791 61.2069 2
29.4216 60.2569 3.97619
32.3691 59.7026 3.99344
28.0646 58.3379 4.01129
27.5953 59.5519 2
25.4167 58.5521 3.98037
22.8144 58.1879 3.9678
23.4208 60.298 3.97797
23.8303 59.0333 2
25.0519 60.8284 2
24.4417 62.7449 3.9769
26.8811 61.4599 0.0208971
26.2361 63.4629 2
25.5502 65.4813 3.97818
28.0667 64.1334 0.021073
27.4644 66.1732 2
26.838 68.3265 3.98379
29.4079 66.7489 0.0201685
28.9071 68.9379 2
28.372 71.2626 3.99018
31.0155 69.4128 0.0154851
30.6156 71.7771 2
30.1842 74.2788 4
32.8938 72.1457 0.00860216
32.6053 74.6792 2
35.0474 74.9194 0
31.7897 7.42341 3.98203
33.3491 4.92719 3.98822
33.7251 6.98146 2
35.246 2.4635 3.99319
35.4365 4.68661 2
35.6221 6.72792 0.0152427
37.5 0 4
37.5151 2.38719 2
37.5244 4.61712 0.0103911
39.7898 2.47521 0.00696539
39.9526 0.0802889 2
42.3946 0.32156 0
42.2672 35.7291 3.48712
43.6393 35.5909 2
40.5056 34.3549 3.60488
41.9494 34.2119 2
47.1871 37.7613 0.0946648
50.3419 35.5646 0.0260369
45.0151 35.1844 0.147579
42.8642 33.9487 0.328469
41.589 33.1645 0.526288
47.4135 34.367 2
44.2271 33.1064 2
41.9563 32.4807 2
40.6359 32.8663 2
45.4963 31.7613 3.90368
43.0647 31.374 3.82659
40.7306 31.5388 3.69349
39.1912 32.6399 3.50105
35.6959 11.787 3.97613
37.3159 10.6323 2
37.4589 8.53695 0.0152811
38.976 10.1349 0.0155893
33.1015 11.2275 3.9728
34.7559 10.3815 2
35.9 9.77965 0.0201605
30.4861 10.0274 3.9773
32.3801 9.37425 2
34.1535 8.8291 0.0181765
49.1134 31.5475 0.0135196
48.6824 27.7199 0.0232524
49.0522 24.599 0.0204679
47.078 22.2478 0.0100722
44.7567 18.6069 0.0244715
42.0834 14.3181 0.0209485
38.2995 12.7503 0.0230992
36.5829 12.9419 2
47.0358 29.6576 2
38.677 14.843 2
41.7176 17.9469 2
46.7355 25.3223 2
44.196 21.5865 2
44.9977 27.8521 4.00004
43.5778 24.2525 4.02766
41.2858 20.9608 3.988
35.7715 14.8041 3.97723
38.666 17.6756 3.98311
40.6259 37.4518 3.6398
42.4463 37.472 2
43.9678 37.4858 0.314306
45.2928 55.8871 0.000500211
45.2739 52.4308 0.0158519
45.6369 48.7821 -0.00226497
42.2728 39.2041 0.499811
43.0175 43.5902 0.167234
42.9276 45.8353 0.116932
43.0309 48.1916 0.00577944
40.6879 43.4295 0.305939
40.466 40.6063 0.395248
39.1702 42.3483 0.494213
43.6143 54.3444 2
40.5778 39.051 2
39.066 40.6758 2
43.3496 50.2913 2
41.6746 47.3778 2
41.6032 44.9738 2
37.4948 42.4836 2
39.3575 44.1469 2
41.7684 52.8188 3.99928
39.0755 39.0874 3.58325
37.5029 40.7367 3.60575
35.8355 42.3581 3.50411
40.8047 49.4215 3.99436
39.7198 45.6688 3.81431
37.4986 44.3465 3.69296
42.0594 56.2493 0.0130635
40.3718 54.8171 2
38.7227 53.6212 3.9965
35.6072 63.1821 0.0271329
38.2473 60.2917 0.019634
38.9075 56.3946 0.00652485
35.3645 60.8791 2
36.9312 57.5839 2
37.9833 55.0733 2
36.3194 55.1503 3.9975
34.4964 58.4878 3.9943
33.348 61.4844 0.0214344
28.6881 62.1755 0.0199092
31.078 61.2028 0.0183245
32.3695 59.7061 2
29.4229 60.2558 2
30.3366 57.7796 3.98485
28.0675 58.3368 2
27.0306 56.7873 3.9679
27.5936 59.5522 0.0199165
25.4193 58.5517 2
23.9396 56.745 3.95916
21.4276 57.3312 3.95882
22.0226 59.5695 3.97793
22.816 58.1895 2
22.7483 61.9909 3.97322
23.4218 60.2975 2
23.8285 59.0331 0.00738457
25.0508 60.8293 0.0230263
24.4423 62.7481 2
23.686 64.6971 3.97563
26.2359 63.4626 0.0236671
25.5494 65.4827 2
24.8105 67.5875 3.98257
27.465 66.1731 0.0204943
26.8368 68.3273 2
26.1673 70.6035 3.99005
28.9082 68.9382 0.0162134
28.3707 71.2623 2
27.7943 73.7221 4
30.6168 71.7773 0.00909734
30.1841 74.2794 2
32.6054 74.6784 0
29.8126 7.99953 3.98008
31.2545 5.33379 3.98727
31.7894 7.42203 2
32.9821 2.70176 3.99277
33.3487 4.92558 2
33.7253 6.98418 0.0165361
35.0474 0.080333 4
35.2455 2.46324 2
35.4365 4.68732 0.010754
37.5 0 2
37.5156 2.38758 0.00684411
39.9526 0.0806499 0
40.6151 35.8769 3.62718
42.2725 35.7301 2
43.561 35.6217 0.322792
28.5466 10.7024 3.9772
39.0777 34.3057 3.57131
40.5155 34.364 2
41.9504 34.2292 0.521739
47.3857 34.3476 0.0568023
44.1854 33.1379 0.164165
41.9037 32.5375 0.285821
40.6068 32.8808 0.541538
45.5309 31.7438 2
43.1099 31.339 2
40.773 31.4726 2
39.1947 32.6246 2
43.8687 29.9812 3.89674
41.6017 30.0317 3.84575
39.3712 30.8954 3.65836
37.5306 32.5344 3.5454
34.0987 12.9519 3.97397
35.6958 11.7735 2
37.3119 10.6341 0.0186395
31.1917 11.9997 3.97744
33.1021 11.2271 2
34.7566 10.3893 0.0197023
30.4845 10.0229 2
32.3805 9.37528 0.0219499
47.0272 29.7112 0.015979
46.7346 25.3222 0.0287719
36.5861 12.9635 0.0258806
44.211 21.6121 0.0202547
41.7259 17.9462 0.0209431
38.6788 14.8651 0.0256912
35.7749 14.8125 2
44.9938 27.8494 2
38.6645 17.6809 2
41.2688 20.9504 2
43.5656 24.2355 2
33.6149 15.9094 3.98474
42.7371 26.6882 3.98528
40.7803 23.5591 3.99516
38.3924 20.4495 3.99343
35.8456 17.5702 3.98096
39.0947 37.4876 3.59644
40.6273 37.4555 2
42.4352 37.4676 0.463124
43.6166 54.3478 0.00578933
43.3581 50.2784 -0.00380739
40.5692 39.0512 0.376077
41.5824 44.9288 0.15549
41.6697 47.342 0.0740042
39.3416 44.0817 0.340258
39.0656 40.6812 0.426183
37.499 42.4623 0.452687
41.7599 52.8193 2
39.0687 39.0744 2
37.4997 40.7264 2
40.7882 49.4399 2
35.8333 42.3722 2
39.7373 45.7268 2
37.4918 44.4088 2
39.7232 51.6153 4.00302
37.5075 39.0909 3.62094
35.9478 40.6962 3.57466
34.423 42.1075 3.46079
35.6558 44.0995 3.64882
38.6617 48.3176 3.93797
37.5286 45.9595 3.84586
40.3731 54.8087 0.00496591
38.7228 53.6123 2
36.7584 52.9308 3.99651
35.3645 60.8846 0.0209515
36.9303 57.5806 0.0084039
37.9824 55.074 0.00503594
34.4948 58.4843 2
36.3224 55.139 2
33.2684 55.3492 3.99302
32.3691 59.7026 0.00656384
29.4216 60.2569 0.023808
30.3389 57.7754 2
28.8231 55.2839 3.98755
28.0646 58.3379 -0.0112916
27.034 56.7863 2
25.4663 55.0742 3.9572
21.9768 55.2631 3.95979
25.4167 58.5521 0.0196284
23.9416 56.7466 2
20.2994 56.9632 3.9628
20.6827 58.7252 3.96689
21.4297 57.3328 2
21.1834 61.1211 3.97372
22.0234 59.5707 2
22.8144 58.1879 0.0321971
21.9015 63.8183 3.97514
22.7494 61.9927 2
23.4208 60.298 0.0220261
24.4417 62.7449 0.0231005
23.6853 64.6966 2
22.839 66.7297 3.97976
25.5502 65.4813 0.0218176
24.8091 67.588 2
24.0115 69.805 3.98993
26.838 68.3265 0.0162071
26.1655 70.6034 2
25.446 73.0099 4
28.372 71.2626 0.00981611
27.7943 73.7222 2
30.1842 74.2788 0
27.8225 8.65957 3.98019
29.1567 5.88069 3.98543
29.8115 7.99615 2
30.7276 3.09853 3.99251
31.254 5.33243 2
31.7897 7.42341 0.0179661
32.6053 0.320823 4
32.9812 2.70116 2
33.3491 4.92719 0.0117824
35.0474 0.0802903 2
35.246 2.4635 0.00681267
37.5 0 0
39.0623 35.897 3.5926
40.5972 35.8766 2
42.2672 35.7291 0.512879
28.545 10.6994 2
26.6252 11.3989 3.97778
29.2326 12.652 3.98117
37.5235 34.266 3.60478
39.0932 34.3222 2
40.5056 34.3549 0.395121
45.4963 31.7613 0.0963169
43.0647 31.374 0.173414
40.7306 31.5388 0.306509
39.1912 32.6399 0.498947
43.9003 29.9476 2
41.6308 29.9896 2
39.3796 30.8314 2
37.5319 32.5132 2
42.0276 28.6714 3.86657
39.7197 29.2988 3.83678
37.525 30.6522 3.69476
35.8562 32.6419 3.50783
31.9269 14.4995 3.97996
34.0997 12.9581 2
35.6959 11.787 0.0238718
31.1903 11.9928 2
33.1015 11.2275 0.0272043
30.4861 10.0274 0.0227006
44.9977 27.8521 -3.59506e-05
43.5778 24.2525 -0.0276629
35.7715 14.8041 0.0227742
41.2858 20.9608 0.0120005
38.666 17.6756 0.0168851
33.6102 15.8972 2
35.84 17.571 2
42.7722 26.6683 2
38.3762 20.5126 2
40.7742 23.5364 2
33.551 17.4502 3.98098
40.2092 25.9734 3.95515
38.032 23.2996 3.99818
35.5655 20.205 3.99706
37.5136 37.4897 3.6365
39.0834 37.48 2
40.6259 37.4518 0.360197
41.7684 52.8188 0.000718069
40.8047 49.4215 0.00564433
39.0755 39.0874 0.416752
39.7198 45.6688 0.185689
37.4986 44.3465 0.307038
37.5029 40.7367 0.394247
35.8355 42.3581 0.495893
39.7057 51.6212 2
37.5092 39.0867 2
35.9453 40.6853 2
38.679 48.3759 2
34.3954 42.1217 2
35.6347 44.1618 2
37.5229 46.018 2
37.6809 50.62 3.99535
35.9561 39.0992 3.59178
34.5424 40.6319 3.6076
33.4404 41.8163 3.47782
34.3142 43.4425 3.68883
35.2446 45.6891 3.83244
36.9233 47.9258 3.90282
38.7227 53.6212 0.00349749
36.7613 52.91 2
34.4529 52.2589 3.99851
34.4964 58.4878 0.00570487
36.3194 55.1503 0.00249975
33.274 55.3585 2
30.663 53.2568 3.99309
30.3366 57.7796 0.0151467
28.8252 55.2792 2
27.1016 53.3629 3.95729
27.0306 56.7873 0.0321049
25.4698 55.0763 2
23.8259 53.3786 3.95502
20.7755 53.1048 3.95829
20.0715 55.7523 3.96185
21.9753 55.2653 2
23.9396 56.745 0.0408433
19.4904 57.8316 3.96343
20.2963 56.9655 2
19.7257 60.1489 3.97389
20.6811 58.7272 2
21.4276 57.3312 0.0411773
20.2162 62.8301 3.97158
21.1841 61.1226 2
22.0226 59.5695 0.0220711
20.9411 65.7556 3.97697
21.9013 63.8218 2
22.7483 61.9909 0.0267829
23.686 64.6971 0.0243692
22.8376 66.7294 2
21.9142 68.8721 3.98918
24.8105 67.5875 0.0174296
24.0093 69.8043 2
23.1494 72.1454 4
26.1673 70.6035 0.00994694
25.446 73.0099 2
27.7943 73.7221 0
25.8618 9.38874 3.97935
27.0714 6.54516 3.98399
27.8208 8.65739 2
28.4901 3.64451 3.99162
29.1558 5.87858 2
29.8126 7.99953 0.0199185
30.1841 0.720592 4
30.7263 3.09816 2
31.2545 5.33379 0.0127293
32.6053 0.320817 2
32.9821 2.70176 0.00723345
35.0474 0.080333 0
37.5104 35.8945 3.6166
39.0469 35.8925 2
40.6151 35.8769 0.372825
24.7825 12.0879 3.97593
23.7648 14.3884 3.97572
28.5466 10.7024 0.0228048
26.6237 11.3961 2
29.2303 12.6497 2
27.3003 13.3847 3.97861
29.7939 14.2123 3.9817
35.956 34.3076 3.57488
37.5309 34.2749 2
39.0777 34.3057 0.428693
37.5306 32.5344 0.4546
43.8687 29.9812 0.103258
41.6017 30.0317 0.154255
39.3712 30.8954 0.341638
42.0592 28.6116 2
39.7441 29.2435 2
37.5277 30.5903 2
35.8562 32.6283 2
39.8836 27.9343 3.88023
37.487 29.0307 3.83759
35.6845 30.912 3.66149
34.4442 32.8934 3.46283
30.9417 16.8565 3.988
31.9232 14.4876 2
34.0987 12.9519 0.0260273
31.1917 11.9997 0.0225623
42.7371 26.6882 0.0147162
40.7803 23.5591 0.00483977
33.6149 15.9094 0.0152558
35.8456 17.5702 0.0190407
38.3924 20.4495 0.00657256
33.5461 17.4648 2
35.5784 20.196 2
40.2819 25.9581 2
38.0169 23.258 2
32.8837 19.847 3.99725
37.6572 25.6131 3.9678
35.2383 22.9513 4.00333
35.9356 37.4876 3.59877
37.5063 37.4894 2
39.0947 37.4876 0.403564
39.7232 51.6153 -0.00301508
38.6617 48.3176 0.0620344
37.5075 39.0909 0.379059
37.5286 45.9595 0.154143
35.6558 44.0995 0.351179
35.9478 40.6962 0.425338
34.423 42.1075 0.539213
37.6634 50.6555 2
35.9735 39.0871 2
34.5094 40.6245 2
36.9079 47.9866 2
33.4055 41.8428 2
34.2728 43.5059 2
35.2237 45.742 2
35.5656 49.8089 3.98633
34.4365 39.0931 3.62571
33.076 40.7528 3.48374
33.1372 42.4419 3.71928
33.4463 44.9362 3.83534
34.4714 47.0728 3.87503
36.7584 52.9308 0.00349328
34.4461 52.27 2
32.2321 51.0565 4.01108
33.2684 55.3492 0.00698374
30.6672 53.2598 2
28.6979 51.472 3.98522
28.8231 55.2839 0.0124544
27.1036 53.3618 2
25.4 51.6152 3.9533
25.4663 55.0742 0.0427965
23.8266 53.3834 2
22.3407 51.6688 3.95146
19.6258 51.4965 3.96112
19.1637 54.2074 3.9612
20.7771 53.1039 2
18.5471 56.6543 3.96328
20.0689 55.7542 2
21.9768 55.2631 0.0402117
18.3946 59.0614 3.96602
19.4877 57.8335 2
20.2994 56.9632 0.0371985
18.6309 61.7193 3.97177
19.7256 60.1516 2
20.6827 58.7252 0.0331067
19.1303 64.6662 3.97605
20.2164 62.8335 2
21.1834 61.1211 0.0262755
19.8885 67.8084 3.98697
20.9397 65.7544 2
21.9015 63.8183 0.0248578
22.839 66.7297 0.0202387
21.9116 68.8707 2
20.9142 71.1327 4
24.0115 69.805 0.0100659
23.1494 72.1455 2
25.446 73.0099 0
23.1049 12.8069 3.97729
23.9751 10.1782 3.97703
25.025 7.31613 3.98268
25.8597 9.3869 2
26.2819 4.32863 3.99071
27.0701 6.54379 2
27.8225 8.65957 0.0198126
27.7943 1.27781 4
28.4881 3.64423 2
29.1567 5.88069 0.0145713
30.1841 0.720551 2
30.7276 3.09853 0.00749462
32.6053 0.320823 0
35.9425 35.8851 3.58243
37.5283 35.9032 2
39.0623 35.897 0.407399
24.7792 12.0828 2
23.7652 14.3931 2
22.4979 15.0777 3.97909
25.3686 13.9314 3.97179
24.0515 15.6485 3.98558
26.6252 11.3989 0.022223
29.2326 12.652 0.0188307
27.3001 13.383 2
29.7887 14.2093 2
28.378 15.9814 3.9841
34.56 34.3746 3.60356
35.9533 34.3126 2
37.5235 34.266 0.395216
35.8562 32.6419 0.49217
37.525 30.6522 0.305237
42.0276 28.6714 0.133432
39.7197 29.2988 0.163218
39.9153 27.8922 2
37.4832 28.9729 2
35.6701 30.8429 2
34.4117 32.8818 2
37.6242 27.6639 3.87479
35.2955 29.3147 3.83458
34.3219 31.556 3.68952
33.4599 33.1815 3.47536
30.2303 19.4344 3.98317
30.9364 16.8445 2
31.9269 14.4995 0.0200393
40.2092 25.9734 0.0448451
38.032 23.2996 0.00182286
33.551 17.4502 0.0190215
35.5655 20.205 0.00293543
32.8827 19.8723 2
35.2399 22.9374 2
37.715 25.5902 2
32.4224 22.5812 3.99755
35.1174 25.5281 3.99065
34.3924 37.5072 3.64298
35.9367 37.4959 2
37.5136 37.4897 0.363501
37.6809 50.62 0.00464622
36.9233 47.9258 0.0971844
35.9561 39.0992 0.408219
35.2446 45.6891 0.167565
34.3142 43.4425 0.311166
34.5424 40.6319 0.392405
33.4404 41.8163 0.522184
35.5453 49.8216 2
34.4339 39.0904 2
33.071 40.7662 2
34.4524 47.1244 2
33.0947 42.498 2
33.4199 44.9809 2
33.4108 48.8947 3.97437
32.7476 39.2441 3.49106
32.1609 41.0312 3.67375
31.9711 43.6053 3.83181
32.6416 46.0582 3.87723
34.4529 52.2589 0.00148564
32.2379 51.0661 2
30.2315 49.6275 4.00107
30.663 53.2568 0.00691384
28.6996 51.4665 2
26.9112 49.839 3.97319
27.1016 53.3629 0.0427141
25.4004 51.6175 2
23.7875 50.0258 3.96328
23.8259 53.3786 0.0449803
22.3415 51.6668 2
20.9502 50.1568 3.9643
18.4125 50.1979 3.96963
18.181 52.6739 3.96373
19.6251 51.4956 2
17.6262 55.2545 3.96233
19.1616 54.2074 2
20.7755 53.1048 0.0417105
17.1907 57.8198 3.96095
18.5426 56.656 2
20.0715 55.7523 0.038153
17.1478 60.505 3.96702
18.3939 59.0626 2
19.4904 57.8316 0.0365746
17.413 63.4466 3.96979
18.6315 61.7208 2
19.7257 60.1489 0.0261122
17.9446 66.6157 3.98539
19.1294 64.6633 2
20.2162 62.8301 0.028421
18.75 69.9759 4
19.8858 67.8059 2
20.9411 65.7556 0.0230336
21.9142 68.8721 0.0108179
20.9142 71.1327 2
23.1494 72.1454 0
21.5999 13.6358 3.97488
22.1949 11.0428 3.97351
23.1027 12.8122 2
23.0427 8.18295 3.98046
23.9721 10.1766 2
24.1196 5.14347 3.99002
25.0232 7.31512 2
25.8618 9.38874 0.0206459
25.446 1.99014 4
26.2794 4.329 2
27.0714 6.54516 0.0160063
27.7943 1.27778 2
28.4901 3.64451 0.00837928
30.1841 0.720592 0
34.4582 35.9158 3.62267
35.953 35.9008 2
37.5104 35.8945 0.383402
21.3326 15.8846 3.98118
24.7825 12.0879 0.0240652
23.7648 14.3884 0.0242767
25.3677 13.919 2
22.4996 15.0728 2
24.0551 15.6548 2
23.3001 16.2848 3.96875
25.4083 16.1185 3.98392
27.3003 13.3847 0.0213893
29.7939 14.2123 0.0182999
28.3725 15.9898 2
27.4729 18.8564 3.98324
33.0888 34.2526 3.49167
34.5263 34.3885 2
35.956 34.3076 0.425123
34.4442 32.8934 0.537175
35.6845 30.912 0.338507
37.487 29.0307 0.162408
39.8836 27.9343 0.119773
37.5974 27.625 2
33.4281 33.1576 2
35.2961 29.2518 2
34.2805 31.4901 2
35.1947 27.7615 3.88985
33.4443 30.0546 3.83648
33.1625 32.5546 3.71606
29.7344 22.0367 4.00546
30.2324 19.439 2
30.9417 16.8565 0.0120027
37.6572 25.6131 0.0322013
35.2383 22.9513 -0.00332977
32.8837 19.847 0.00274916
32.4281 22.5741 2
35.1485 25.5176 2
31.9949 25.8468 4.00498
32.5768 37.5054 3.53629
34.4038 37.5018 2
35.9356 37.4876 0.401228
35.5656 49.8089 0.013669
34.4714 47.0728 0.124971
34.4365 39.0931 0.374288
33.4463 44.9362 0.164664
33.1372 42.4419 0.280724
33.076 40.7528 0.516256
33.3975 48.896 2
32.7563 39.2509 2
32.1209 41.0738 2
32.6093 46.1077 2
31.9235 43.638 2
31.5757 47.7425 3.98015
31.462 39.3658 3.67747
30.846 41.8506 3.84191
31.0354 44.6934 3.88946
32.2321 51.0565 -0.0110761
30.2385 49.6555 2
28.3838 48.014 3.96422
28.6979 51.472 0.0147763
26.9105 49.8403 2
25.1933 48.2828 3.96586
25.4 51.6152 0.0467027
23.789 50.0248 2
22.2338 48.6047 3.97086
22.3407 51.6688 0.0485439
20.9489 50.156 2
19.5276 48.9417 3.97339
17.2909 49.2118 3.97482
17.1278 51.2939 3.96864
18.4152 50.1964 2
16.6356 53.7775 3.96509
18.1796 52.6735 2
19.6258 51.4965 0.0388754
16.0853 56.4137 3.9623
17.6248 55.2551 2
19.1637 54.2074 0.0388028
15.7649 59.1742 3.96422
17.1863 57.8218 2
18.5471 56.6543 0.0367213
15.7934 62.1039 3.96831
17.149 60.5071 2
18.3946 59.0614 0.0339768
16.0914 65.2983 3.98341
17.4117 63.4533 2
18.6309 61.7193 0.0282324
16.6661 68.6801 4
17.9419 66.6133 2
19.1303 64.6662 0.0239532
18.75 69.9759 2
19.8885 67.8084 0.0130284
20.9142 71.1327 0
20.2348 14.6477 3.96844
21.5982 13.6478 2
20.5362 12.0218 3.97436
21.1461 9.1557 3.97804
22.1917 11.0409 2
23.1049 12.8069 0.0227093
22.0188 6.08225 3.98959
23.0403 8.18195 2
23.9751 10.1782 0.0229714
23.1494 2.85457 4
24.1165 5.14431 2
25.025 7.31613 0.0173206
25.446 1.99012 2
26.2819 4.32863 0.00928937
27.7943 1.27781 0
32.7388 35.771 3.50003
34.4475 35.916 2
35.9425 35.8851 0.417569
21.3356 15.8772 2
20.3451 17.0111 3.96864
22.1326 16.6831 3.96683
25.3686 13.9314 0.0282139
22.4979 15.0777 0.0209146
24.0515 15.6485 0.0144209
25.411 16.1099 2
23.3043 16.2822 2
24.2512 18.5569 3.96866
27.1683 21.647 3.99403
28.378 15.9814 0.0158987
27.4687 18.9033 2
32.2005 33.9723 3.66829
33.0867 34.2354 2
34.56 34.3746 0.39644
33.4599 33.1815 0.524644
34.3219 31.556 0.31048
35.2955 29.3147 0.165416
37.6242 27.6639 0.125211
35.1952 27.7114 2
33.0885 32.5001 2
33.4144 30.0147 2
32.8918 28.4103 3.89904
31.9811 31.3945 3.82279
29.1243 24.5299 4.00343
29.7293 22.0514 2
30.2303 19.4344 0.0168311
35.1174 25.5281 0.0093511
32.4224 22.5812 0.00244561
31.986 25.8187 2
30.1153 27.5015 3.97749
31.0473 37.4968 3.68246
32.582 37.5044 2
34.3924 37.5072 0.357017
33.4108 48.8947 0.0256345
32.6416 46.0582 0.122773
32.7476 39.2441 0.508943
31.9711 43.6053 0.168194
32.1609 41.0312 0.32625
31.5288 47.766 2
31.3872 39.3892 2
30.8054 41.8826 2
30.991 44.7333 2
29.8064 46.351 3.99122
30.0027 39.8078 3.85537
29.5294 42.9616 3.89811
30.2315 49.6275 -0.00106734
28.38 48.0125 2
26.603 46.4512 3.98194
26.9112 49.839 0.0268061
25.1941 48.2809 2
23.4813 46.8694 3.97363
23.7875 50.0258 0.0367153
22.2329 48.605 2
20.5313 47.4509 3.97653
20.9502 50.1568 0.0357031
19.528 48.9403 2
18.1226 48.0446 3.97694
16.5234 48.5723 3.97651
17.292 49.2107 2
16.1951 50.0655 3.97295
15.6479 52.3246 3.96863
17.1295 51.2929 2
18.4125 50.1979 0.0303687
15.0346 54.9082 3.96375
16.6373 53.7771 2
18.181 52.6739 0.0362724
14.4954 57.7048 3.96203
16.0855 56.4142 2
17.6262 55.2545 0.0376662
14.2712 60.669 3.96794
15.7672 59.1753 2
17.1907 57.8198 0.039047
14.3361 63.8552 3.97911
15.7942 62.1063 2
17.1478 60.505 0.0329796
14.6715 67.2507 4
16.0888 65.2946 2
17.413 63.4466 0.0302072
16.6661 68.6801 2
17.9446 66.6157 0.0146137
18.75 69.9759 0
18.9547 15.8305 3.97622
20.2359 14.6444 2
18.9897 13.1446 3.97371
21.5999 13.6358 0.0251206
20.5346 12.0243 2
19.3463 10.2464 3.97562
19.9937 7.14747 3.98793
21.1428 9.15526 2
22.1949 11.0428 0.0264906
20.9142 3.86727 4
22.015 6.08376 2
23.0427 8.18295 0.01954
23.1494 2.85451 2
24.1196 5.14347 0.00997748
25.446 1.99014 0
31.4871 35.6383 3.67306
32.7431 35.7631 2
34.4582 35.9158 0.377333
21.3326 15.8846 0.0188233
22.1356 16.6759 2
20.3474 17.0065 2
19.3397 18.4773 3.95666
21.8269 17.9338 3.97826
25.4083 16.1185 0.0160794
23.3001 16.2848 0.0312468
24.2423 18.5805 2
22.4213 20.002 3.97042
24.7498 21.5166 3.98642
26.7446 23.8155 3.9814
27.1774 21.5705 2
27.4729 18.8564 0.0167576
30.9022 33.1586 3.84722
32.1595 33.9207 2
33.0888 34.2526 0.508332
33.1625 32.5546 0.283941
33.4443 30.0546 0.163517
35.1947 27.7615 0.110146
32.8515 28.3787 2
31.9248 31.3533 2
30.7272 29.7931 3.92551
28.3794 26.6882 3.99659
29.1083 24.5364 2
29.7344 22.0367 -0.00546317
31.9949 25.8468 -0.00498102
30.1065 27.4791 2
29.5543 37.4955 3.85156
30.9853 37.4951 2
32.5768 37.5054 0.463709
31.5757 47.7425 0.0198533
31.0354 44.6934 0.110538
31.462 39.3658 0.322528
30.846 41.8506 0.15809
29.8106 46.3519 2
29.9297 39.8206 2
29.4978 42.9956 2
28.0757 44.6767 3.96976
27.7619 40.5305 3.93249
28.3838 48.014 0.0357829
26.6011 46.4507 2
24.7873 44.984 3.97853
25.1933 48.2828 0.0341433
23.4796 46.8688 2
21.5547 45.7278 3.97776
22.2338 48.6047 0.029141
20.5316 47.45 2
18.8536 46.5954 3.97666
19.5276 48.9417 0.0266085
18.1232 48.0435 2
16.7612 47.5954 3.97641
16.5248 48.5713 2
15.5406 48.917 3.97563
17.2909 49.2118 0.0251848
16.197 50.0646 2
14.762 50.9007 3.972
14.0077 53.369 3.9665
15.6494 52.324 2
17.1278 51.2939 0.0313565
13.3256 56.1307 3.96195
15.0351 54.9082 2
16.6356 53.7775 0.0349089
12.8576 59.1082 3.96635
14.4991 57.7047 2
16.0853 56.4137 0.037697
12.682 62.2971 3.97648
14.2729 60.6694 2
15.7649 59.1742 0.0357753
12.7746 65.6939 4
14.3338 63.8513 2
15.7934 62.1039 0.0316905
14.6714 67.2507 2
16.0914 65.2983 0.016591
16.6661 68.6801 0
17.7124 17.2078 3.96319
18.9546 15.8283 2
17.5258 14.4151 3.96888
20.2348 14.6477 0.031563
18.9888 13.149 2
17.643 11.4666 3.97342
20.5362 12.0218 0.0256439
19.3428 10.2473 2
18.0541 8.34051 3.98592
18.75 5.0241 4
19.9892 7.14975 2
21.1461 9.1557 0.021957
20.9142 3.86727 2
22.0188 6.08225 0.0104099
23.1494 2.85457 0
30.0316 35.2022 3.854
31.4148 35.6142 2
32.7388 35.771 0.499967
22.1326 16.6831 0.033169
20.3451 17.0111 0.0313565
21.8256 17.9331 2
19.3342 18.4713 2
18.1725 20.0321 3.96163
21.003 19.4728 3.96596
24.2512 18.5569 0.0313423
22.4131 20.0089 2
24.7576 21.4991 2
22.5916 21.8473 3.98153
25.0198 23.2542 3.97185
25.9828 26.0641 3.97901
26.7415 23.8087 2
27.1683 21.647 0.00596841
29.2926 32.5049 3.89861
30.8358 33.1233 2
32.2005 33.9723 0.331707
31.9811 31.3945 0.177211
32.8918 28.4103 0.100964
30.7051 29.7825 2
27.7352 29.2664 4.01463
28.3653 26.6988 2
29.1243 24.5299 -0.00342895
30.1153 27.5015 0.0225146
27.9009 37.3608 3.90085
29.4816 37.4875 2
31.0473 37.4968 0.317536
29.8064 46.351 0.00878177
29.5294 42.9616 0.101886
30.0027 39.8078 0.144625
28.0703 44.7331 2
27.7305 40.5271 2
26.1609 43.0346 3.98837
25.0304 39.442 3.97202
26.603 46.4512 0.0180585
24.7769 44.9859 2
22.7008 43.7674 3.97641
23.4813 46.8694 0.0263745
21.5512 45.7294 2
19.6207 44.8332 3.97631
20.5313 47.4509 0.0234745
18.8534 46.5958 2
17.1177 46.0933 3.9763
18.1226 48.0446 0.0230564
16.7623 47.5946 2
15.3049 47.5707 3.97619
16.5234 48.5723 0.0234888
15.5426 48.9161 2
14.0714 49.4672 3.97439
16.1951 50.0655 0.0270476
14.7633 50.9001 2
13.0787 51.8141 3.96883
12.2304 54.4912 3.96343
14.0086 53.3686 2
15.6479 52.3246 0.0313723
11.5445 57.4464 3.96561
13.3259 56.1308 2
15.0346 54.9082 0.0362466
11.137 60.6226 3.97378
12.8596 59.1078 2
14.4954 57.7048 0.0379739
10.9835 64.0165 4
12.6804 62.2924 2
14.2712 60.669 0.0320607
12.7745 65.694 2
14.3361 63.8552 0.0208935
14.6715 67.2507 0
16.5164 18.7161 3.96183
17.7118 17.2056 2
16.1204 15.8209 3.96649
18.9547 15.8305 0.0237769
17.525 14.4115 2
16.0272 12.8357 3.97135
18.9897 13.1446 0.0262922
17.641 11.4725 2
16.2051 9.66476 3.98327
19.3463 10.2464 0.0243843
18.0491 8.34477 2
16.6661 6.31991 4
18.75 5.02404 2
19.9937 7.14747 0.0120664
20.9142 3.86727 0
28.4252 34.8463 3.89916
29.949 35.1686 2
31.4871 35.6383 0.326936
16.9098 21.4688 3.96711
21.8269 17.9338 0.0217426
19.3397 18.4773 0.0433401
20.9956 19.4691 2
18.1706 20.0294 2
19.9901 21.6873 3.97102
22.4213 20.002 0.0295832
24.7498 21.5166 0.0135765
22.5865 21.8532 2
25.0125 23.2558 2
23.2985 24.7288 3.97189
25.2843 28.6646 3.98384
25.9745 26.0694 2
26.7446 23.8155 0.0186015
27.1456 31.8644 3.98224
29.2571 32.4836 2
30.9022 33.1586 0.152776
30.7272 29.7931 0.0744903
27.7469 29.2454 2
28.3794 26.6882 0.00341202
25.7256 36.8499 3.9702
27.8819 37.3647 2
29.5543 37.4955 0.148443
28.0757 44.6767 0.0302417
27.7619 40.5305 0.0675068
26.1376 43.0564 2
25.0061 39.446 2
23.9138 41.7829 3.98237
22.7499 38.5236 3.97951
24.7873 44.984 0.021467
22.6985 43.7678 2
20.4989 42.7839 3.9754
21.5547 45.7278 0.0222417
19.621 44.8338 2
17.525 44.2729 3.97571
18.8536 46.5954 0.023338
17.1183 46.0935 2
15.2674 45.9947 3.97595
16.7612 47.5954 0.0235887
15.3064 47.57 2
13.6016 47.9329 3.97561
15.5406 48.917 0.0243672
14.0731 49.4665 2
12.3094 50.197 3.97087
14.762 50.9007 0.0279956
13.0795 51.8135 2
11.2282 52.8046 3.965
10.3361 55.7036 3.96464
12.2312 54.4908 2
14.0077 53.369 0.0334977
9.70388 58.8456 3.97349
11.5456 57.4461 2
13.3256 56.1307 0.0380537
9.30605 62.2254 4
11.1358 60.6185 2
12.8576 59.1082 0.0336515
10.9835 64.0165 2
12.682 62.2971 0.0235236
12.7746 65.6939 0
15.3045 20.2549 3.96363
16.5162 18.7155 2
14.7815 17.3419 3.96344
17.7124 17.2078 0.0368062
16.1218 15.8193 2
14.4906 14.3212 3.96697
17.5258 14.4151 0.0311203
16.0262 12.8315 2
14.4474 11.1167 3.98096
17.643 11.4666 0.0265784
16.2008 9.6704 2
14.6715 7.74927 4
18.0541 8.34051 0.0140818
16.6661 6.31988 2
18.75 5.0241 0
26.3856 34.355 3.9758
28.4077 34.8542 2
30.0316 35.2022 0.146004
18.1631 22.4335 3.97396
15.812 23.0128 3.97089
16.9118 21.4684 2
21.003 19.4728 0.0340446
18.1725 20.0321 0.0383749
19.9879 21.6851 2
20.1045 24.5254 3.97197
22.5916 21.8473 0.0184657
25.0198 23.2542 0.0281477
23.2948 24.7303 2
22.648 27.9937 3.97178
24.7107 31.3548 3.9821
25.2897 28.6562 2
25.9828 26.0641 0.0209863
27.1202 31.8261 2
29.2926 32.5049 0.101392
27.7352 29.2664 -0.0146315
23.4783 36.2922 3.9823
25.7072 36.8479 2
27.9009 37.3608 0.099154
26.1609 43.0346 0.0116251
25.0304 39.442 0.0279818
23.8932 41.7816 2
22.7368 38.5194 2
21.5991 40.6024 3.97487
20.9534 37.8019 3.97705
22.7008 43.7674 0.023586
20.4981 42.7846 2
18.0034 42.0223 3.97572
19.6207 44.8332 0.023686
17.525 44.2733 2
15.3164 44.115 3.97559
17.1177 46.0933 0.0237001
15.2681 45.9945 2
13.3002 46.2228 3.9759
15.3049 47.5707 0.0238057
13.6031 47.9322 2
11.6999 48.4976 3.97267
14.0714 49.4672 0.0256092
12.3109 50.1963 2
10.3593 51.0514 3.96619
13.0787 51.8141 0.0311674
11.2289 52.8039 2
9.24624 53.8846 3.96454
8.38754 56.9799 3.97477
10.3386 55.7024 2
12.2304 54.4912 0.0365737
7.74927 60.3285 4
9.70289 58.8415 2
11.5445 57.4464 0.0343861
9.306 62.2255 2
11.137 60.6226 0.0262207
10.9835 64.0165 0
14.1377 21.8182 3.96697
15.3023 20.254 2
13.5093 18.9389 3.96308
16.5164 18.7161 0.0381729
14.7831 17.3409 2
13.0352 15.9072 3.96947
16.1204 15.8209 0.0335077
14.4915 14.3196 2
12.7852 12.6926 3.97793
16.0272 12.8357 0.0286462
14.4444 11.1234 2
12.7746 9.30605 4
16.2051 9.66476 0.0167314
14.6715 7.74924 2
16.6661 6.31991 0
24.06 33.8803 3.98129
26.3652 34.3527 2
28.4252 34.8463 0.100837
18.0357 24.1661 3.97233
18.1698 22.4337 2
14.6474 24.5427 3.97297
15.8143 23.0128 2
16.9098 21.4688 0.0328877
19.6329 27.3638 3.97424
19.9901 21.6873 0.0289816
20.0992 24.5245 2
22.0199 30.8217 3.97458
23.2985 24.7288 0.0281134
22.6474 27.9962 2
24.6785 31.3501 2
25.2843 28.6646 0.0161558
27.1456 31.8644 0.0177583
21.0764 35.9662 3.97645
23.4782 36.2935 2
25.7256 36.8499 0.0298046
23.9138 41.7829 0.0176267
22.7499 38.5236 0.0204913
21.603 40.6039 2
20.9532 37.7998 2
18.7639 38.9874 3.97702
20.4989 42.7839 0.0246003
18.0028 42.0227 2
15.3017 41.8637 3.97604
17.525 44.2729 0.0242866
15.3161 44.1151 2
13.0657 44.3288 3.97596
15.2674 45.9947 0.024051
13.3017 46.2222 2
11.2146 46.6867 3.97443
13.6016 47.9329 0.0243901
11.7017 48.4968 2
9.62961 49.2137 3.96726
12.3094 50.197 0.0291342
10.3597 51.0507 2
8.27855 51.9992 3.96444
11.2282 52.8046 0.0349981
9.24801 53.8832 2
7.19654 55.0317 3.97577
6.31991 58.3339 4
8.38659 56.9761 2
10.3361 55.7036 0.0353614
7.74924 60.3285 2
9.70388 58.8456 0.0265116
9.30605 62.2254 0
13.5121 25.4381 3.97584
13.0402 23.3454 3.97001
14.1365 21.8178 2
12.3211 20.587 3.96378
15.3045 20.2549 0.0363705
13.5107 18.9383 2
11.6681 17.5808 3.96766
14.7815 17.3419 0.0365581
13.038 15.9066 2
11.2235 14.3783 3.97446
14.4906 14.3212 0.0330329
12.7829 12.698 2
10.9835 10.9835 4
14.4474 11.1167 0.0190392
12.7745 9.306 2
14.6715 7.74927 0
21.4251 33.4931 3.97625
24.0634 33.8666 2
26.3856 34.355 0.0241985
16.3656 26.5197 3.97394
18.0394 24.1663 2
18.1631 22.4335 0.0260427
14.647 24.5428 2
15.812 23.0128 0.0291067
19.0348 30.3167 3.9747
19.6329 27.3641 2
20.1045 24.5254 0.0280312
22.0364 30.8229 2
22.648 27.9937 0.0282227
24.7107 31.3548 0.0178984
18.3713 35.9984 3.97759
21.0786 35.9659 2
23.4783 36.2922 0.0176964
21.5991 40.6024 0.025132
20.9534 37.8019 0.0229532
18.7619 38.9868 2
14.7983 39.1601 3.977
18.0034 42.0223 0.0242839
15.301 41.8635 2
12.7619 42.2354 3.97632
15.3164 44.115 0.024412
13.0667 44.3283 2
10.8018 44.7622 3.97605
13.3002 46.2228 0.0241008
11.217 46.6858 2
9.01621 47.2958 3.96837
11.6999 48.4976 0.0273303
9.63017 49.2131 2
7.44358 50.0333 3.96444
10.3593 51.0514 0.0338103
8.27867 51.9979 2
6.13715 53.0074 3.97604
9.24624 53.8846 0.0354596
7.19597 55.0285 2
5.0241 56.25 4
6.31988 58.3339 2
8.38754 56.9799 0.0252298
7.74927 60.3285 0
13.7913 26.8949 3.97546
12.1505 24.8449 3.97272
13.5113 25.4382 2
11.2493 22.2705 3.96571
13.0407 23.3456 2
14.1377 21.8182 0.03303
12.3223 20.5868 2
10.4008 19.3293 3.96589
13.5093 18.9389 0.0369203
11.6707 17.5807 2
9.76418 16.1614 3.97386
13.0352 15.9072 0.0305263
11.2218 14.384 2
9.30607 12.7746 4
12.7852 12.6926 0.0220685
10.9835 10.9835 2
12.7746 9.30605 0
18.5295 33.1869 3.97612
21.4242 33.4965 2
24.06 33.8803 0.0187062
15.9881 29.7482 3.97557
16.3648 26.5197 2
18.0357 24.1661 0.0276682
14.6474 24.5427 0.0270346
19.0331 30.3169 2
19.6329 27.3638 0.025758
22.0199 30.8217 0.0254196
15.432 36.0367 3.97724
18.3706 35.9989 2
21.0764 35.9662 0.0235514
12.992 37.8289 3.97702
18.7639 38.9874 0.0229792
14.7977 39.1599 2
12.2629 40.1189 3.97668
15.3017 41.8637 0.0239593
12.7625 42.235 2
10.4048 42.7472 3.97649
13.0657 44.3288 0.0240434
10.8041 44.7614 2
8.49561 45.3017 3.96921
11.2146 46.6867 0.0255679
9.01697 47.2953 2
6.73392 47.9987 3.96457
9.62961 49.2137 0.0327404
7.4435 50.0322 2
5.21378 50.9109 3.97575
8.27855 51.9992 0.0355612
6.13699 53.0051 2
3.86727 54.0858 4
7.19654 55.0317 0.0242291
5.02404 56.25 2
6.31991 58.3339 0
13.2747 29.1057 3.97512
11.5969 26.5402 3.97362
13.7906 26.895 2
10.3049 23.9979 3.96746
12.1527 24.8455 2
13.5121 25.4381 0.0241591
9.25627 21.1438 3.96532
11.2508 22.2706 2
13.0402 23.3454 0.029989
12.3211 20.587 0.0362229
10.404 19.3294 2
8.42026 18.0318 3.97408
11.6681 17.5808 0.0323391
9.76315 16.1666 2
7.74928 14.6715 4
11.2235 14.3783 0.025542
9.30602 12.7745 2
10.9835 10.9835 0
14.9766 32.9211 3.97636
18.5282 33.1861 2
21.4251 33.4931 0.0237474
15.9888 29.7485 2
16.3656 26.5197 0.0260575
19.0348 30.3167 0.0252969
13.2925 36.2213 3.97675
15.4313 36.0366 2
18.3713 35.9984 0.0224112
12.992 37.8288 2
11.5908 38.3049 3.97704
14.7983 39.1601 0.0230008
12.264 40.1188 2
9.98316 40.7361 3.9767
12.7619 42.2354 0.0236759
10.4083 42.7462 2
8.04156 43.2554 3.97006
10.8018 44.7622 0.0239498
8.4979 45.301 2
6.13941 45.9038 3.96513
9.01621 47.2958 0.0316283
6.73436 47.9976 2
4.42508 48.7514 3.97534
7.44358 50.0333 0.0355649
5.21389 50.9095 2
2.85457 51.8506 4
6.13715 53.0074 0.0239614
3.86727 54.0858 2
5.0241 56.25 0
12.4051 31.3069 3.97609
11.0082 28.4598 3.97475
13.275 29.1059 2
9.52071 25.824 3.96841
11.599 26.5408 2
13.7913 26.8949 0.0245357
8.2433 23.0261 3.96515
10.306 23.9983 2
12.1505 24.8449 0.0272794
7.20251 19.9801 3.97556
9.2626 21.1454 2
11.2493 22.2705 0.0342862
10.4008 19.3293 0.0341103
8.41975 18.036 2
6.31992 16.6661 4
9.76418 16.1614 0.0261405
7.74926 14.6714 2
9.30607 12.7746 0
12.4433 34.3237 3.97648
14.9762 32.9218 2
18.5295 33.1869 0.0238777
15.9881 29.7482 0.0244332
11.1275 36.6191 3.97678
13.2924 36.2213 2
15.432 36.0367 0.0227581
12.992 37.8289 0.0229843
11.5924 38.3045 2
9.56389 38.817 3.97691
12.2629 40.1189 0.0233161
9.98623 40.7355 2
7.6469 41.2021 3.9709
10.4048 42.7472 0.0235073
8.04215 43.255 2
5.65054 43.7669 3.96597
8.49561 45.3017 0.0307861
6.1397 45.903 2
3.77037 46.5368 3.9755
6.73392 47.9987 0.0354348
4.42538 48.7506 2
1.99014 49.554 4
5.21378 50.9109 0.0242511
2.85451 51.8506 2
3.86727 54.0858 0
11.2162 32.953 3.97666
10.3128 30.417 3.97548
12.4059 31.3075 2
8.82886 27.7539 3.96869
11.0104 28.4605 2
13.2747 29.1057 0.0248829
7.36562 24.9837 3.96499
9.52142 25.8244 2
11.5969 26.5402 0.0263753
6.1194 22.0023 3.97632
8.24483 23.0272 2
10.3049 23.9979 0.0325362
5.02411 18.75 4
7.20194 19.9834 2
9.25627 21.1438 0.0346756
8.42026 18.0318 0.0259178
6.3199 16.6661 2
7.74928 14.6715 0
10.7142 35.0162 3.97668
12.4433 34.324 2
14.9766 32.9211 0.0236443
9.22163 36.9876 3.97698
11.1294 36.6191 2
13.2925 36.2213 0.023247
11.5908 38.3049 0.022962
9.56715 38.8168 2
7.32152 39.178 3.97124
9.98316 40.7361 0.0233009
7.64833 41.2018 2
5.26536 41.613 3.96641
8.04156 43.2554 0.0299366
5.65086 43.7663 2
3.24779 44.2815 3.97619
6.13941 45.9038 0.0348744
3.77075 46.5362 2
1.27781 47.2057 4
4.42508 48.7514 0.0246596
1.99012 49.554 2
2.85457 51.8506 0
10.3491 33.9033 3.97655
9.59117 32.1792 3.97626
11.2183 32.9536 2
8.16979 29.7127 3.96923
10.3154 30.4177 2
12.4051 31.3069 0.0239071
6.60717 27.0093 3.96495
8.83001 27.7543 2
11.0082 28.4598 0.0252518
5.17458 24.0946 3.97617
7.36531 24.9845 2
9.52071 25.824 0.0315865
3.86728 20.9142 4
6.11932 22.0046 2
8.2433 23.0261 0.0348541
5.02406 18.75 2
7.20251 19.9801 0.0244427
6.31992 16.6661 0
9.03558 35.2894 3.97717
10.7163 35.0164 2
12.4433 34.3237 0.023523
7.0979 37.2063 3.97108
9.22497 36.9877 2
11.1275 36.6191 0.023216
9.56389 38.817 0.0230915
7.32334 39.1777 2
4.9926 39.4669 3.96696
7.6469 41.2021 0.0290994
5.2661 41.6125 2
2.85808 42.0017 3.97652
5.65054 43.7669 0.0340325
3.24802 44.281 2
0.720592 44.8159 4
3.77037 46.5368 0.0244983
1.27778 47.2057 2
1.99014 49.554 0
9.07577 33.7142 3.97712
10.352 33.9037 2
7.59933 31.6215 3.9699
9.59432 32.1798 2
11.2162 32.953 0.0233426
5.95147 29.0704 3.96547
8.17074 29.713 2
10.3128 30.417 0.024518
4.36197 26.2472 3.9758
6.60745 27.0099 2
8.82886 27.7539 0.0313069
2.85458 23.1494 4
5.17483 24.0958 2
7.36562 24.9837 0.035007
3.86728 20.9142 2
6.1194 22.0023 0.0236794
5.02411 18.75 0
7.04542 35.3104 3.97077
9.03915 35.2898 2
10.7142 35.0162 0.0233238
4.84272 37.3398 3.96729
7.10012 37.2062 2
9.22163 36.9876 0.0230234
7.32152 39.178 0.0287588
4.99334 39.4667 2
2.60596 39.7134 3.9769
5.26536 41.613 0.0335901
2.85864 42.0015 2
0.320823 42.3947 4
3.24779 44.2815 0.0238103
0.720551 44.8159 2
1.27781 47.2057 0
7.20873 33.4691 3.97034
9.07928 33.7148 2
10.3491 33.9033 0.0234483
5.4217 31.1344 3.96619
7.60076 31.6218 2
9.59117 32.1792 0.0237417
3.68332 28.4433 3.97592
5.95183 29.071 2
8.16979 29.7127 0.0307734
1.99015 25.446 4
4.36232 26.2476 2
6.60717 27.0093 0.0350457
2.85453 23.1494 2
5.17458 24.0946 0.0238346
3.86728 20.9142 0
4.85707 35.252 3.96711
7.04695 35.3104 2
9.03558 35.2894 0.0228342
2.4974 37.4281 3.97773
4.84292 37.3399 2
7.0979 37.2063 0.0289218
4.9926 39.4669 0.0330367
2.60665 39.7137 2
0.080333 39.9526 4
2.85808 42.0017 0.0234777
0.320817 42.3947 2
0.720592 44.8159 0
5.05058 33.1909 3.96682
7.21036 33.4693 2
9.07577 33.7142 0.0228841
3.14735 30.6662 3.97642
5.42206 31.135 2
7.59933 31.6215 0.0300971
1.27793 27.7943 4
3.68372 28.4437 2
5.95147 29.0704 0.0345337
1.99013 25.446 2
4.36197 26.2472 0.0242015
2.85458 23.1494 0
2.54951 35.1588 3.97742
4.85788 35.2524 2
7.04542 35.3104 0.0292275
0 37.5 4
2.49757 37.4286 2
4.84272 37.3398 0.032709
2.60596 39.7134 0.0231014
0.0802903 39.9526 2
0.320823 42.3947 0
2.76721 32.9057 3.97744
5.0509 33.1914 2
7.20873 33.4691 0.0296606
0.721173 30.1842 4
3.1478 30.6667 2
5.4217 31.1344 0.0338133
1.27779 27.7943 2
3.68332 28.4433 0.0240804
1.99015 25.446 0
0.0806499 35.0474 4
2.55026 35.1594 2
4.85707 35.252 0.0328937
0 37.5 2
2.4974 37.4281 0.0222689
0.080333 39.9526 0
0.32156 32.6054 4
2.76745 32.9064 2
5.05058 33.1909 0.0331836
0.72056 30.1841 2
3.14735 30.6662 0.0235799
1.27793 27.7943 0
0.0802889 35.0474 2
2.54951 35.1588 0.0225819
0 37.5 0
0.320817 32.6053 2
2.76721 32.9057 0.0225625
0.721173 30.1842 0
0.0806499 35.0474 0
0.32156 32.6054 0
CELLS 1910 17190
8 18 6 25 56 2 0 5 16
8 57 23 6 18 17 4 0 2
8 78 36 9 29 31 11 1 7
8 31 11 1 7 79 37 10 30
8 110 57 18 50 48 17 2 14
8 50 18 56 111 14 2 16 49
8 116 62 22 55 52 20 3 15
8 56 25 67 118 16 5 24 53
8 119 63 23 57 54 21 4 17
8 55 22 63 119 15 3 21 54
8 58 26 68 121 18 6 25 56
8 122 65 26 58 57 23 6 18
8 73 31 7 27 142 79 30 71
8 143 78 29 72 73 31 7 27
8 83 147 76 34 32 74 28 8
8 84 148 78 36 33 75 29 9
8 76 34 8 28 148 84 33 75
8 37 79 150 86 10 30 77 35
8 151 87 36 78 80 38 11 31
8 80 38 11 31 152 88 37 79
8 175 100 42 94 96 44 12 40
8 44 96 176 101 12 40 95 43
8 101 176 98 46 43 95 41 13
8 46 98 178 103 13 41 97 45
8 178 103 45 97 147 83 32 74
8 189 116 55 109 106 52 15 47
8 111 56 118 191 49 16 53 107
8 192 119 57 110 108 54 17 48
8 109 55 119 192 47 15 54 108
8 194 122 58 112 110 57 18 50
8 112 58 121 195 50 18 56 111
8 115 61 19 51 197 124 59 113
8 115 61 125 198 51 19 60 114
8 198 125 62 116 114 60 20 52
8 200 127 64 120 116 62 22 55
8 118 67 132 202 53 24 66 117
8 121 68 133 203 56 25 67 118
8 120 64 128 204 55 22 63 119
8 204 128 65 122 119 63 23 57
8 206 134 68 121 123 69 26 58
8 123 69 26 58 207 131 65 122
8 226 147 74 138 140 76 28 70
8 229 148 75 139 143 78 29 72
8 140 76 28 70 229 148 75 139
8 142 79 30 71 231 150 77 141
8 144 80 31 73 232 152 79 142
8 233 151 78 143 144 80 31 73
8 150 86 35 77 235 154 81 145
8 235 154 81 145 146 82 39 91
8 146 82 39 91 236 155 90 165
8 238 157 83 147 149 85 34 76
8 239 158 84 148 151 87 36 78
8 149 85 34 76 239 158 84 148
8 152 88 37 79 241 160 86 150
8 242 161 87 151 153 89 38 80
8 153 89 38 80 243 162 88 152
8 171 98 41 92 265 178 97 169
8 265 178 97 169 226 147 74 138
8 172 96 40 93 266 176 95 170
8 266 176 95 170 171 98 41 92
8 269 175 94 173 172 96 40 93
8 271 180 99 174 175 100 42 94
8 197 124 59 113 271 180 99 174
8 272 181 100 175 177 102 44 96
8 273 182 101 176 179 104 46 98
8 177 102 44 96 273 182 101 176
8 179 104 46 98 275 184 103 178
8 275 184 103 178 238 157 83 147
8 188 115 51 105 283 197 113 186
8 188 115 198 284 105 51 114 187
8 284 198 116 189 187 114 52 106
8 286 200 120 193 189 116 55 109
8 191 118 202 288 107 53 117 190
8 195 121 203 289 111 56 118 191
8 193 120 204 290 109 55 119 192
8 290 204 122 194 192 119 57 110
8 196 123 58 112 292 207 122 194
8 293 206 121 195 196 123 58 112
8 199 126 61 115 297 211 124 197
8 298 212 127 200 198 125 62 116
8 199 126 212 298 115 61 125 198
8 205 129 64 120 300 214 127 200
8 301 217 130 201 202 132 66 117
8 209 136 168 264 301 217 130 201
8 302 219 132 202 203 133 67 118
8 303 220 133 203 206 134 68 121
8 205 129 215 304 120 64 128 204
8 304 215 131 207 204 128 65 122
8 306 221 134 206 208 135 69 123
8 208 135 69 123 307 218 131 207
8 210 137 167 263 309 223 136 209
8 328 238 147 226 230 149 76 140
8 228 146 91 166 329 236 165 260
8 231 150 77 141 330 235 145 227
8 330 235 145 227 228 146 91 166
8 332 239 148 229 233 151 78 143
8 230 149 76 140 332 239 148 229
8 232 152 79 142 334 241 150 231
8 234 153 80 144 335 243 152 232
8 336 242 151 233 234 153 80 144
8 236 155 90 165 338 245 164 259
8 241 160 86 150 339 246 154 235
8 339 246 154 235 237 156 82 146
8 237 156 82 146 340 247 155 236
8 342 249 157 238 240 159 85 149
8 343 250 158 239 242 161 87 151
8 240 159 85 149 343 250 158 239
8 243 162 88 152 345 252 160 241
8 244 163 253 346 153 89 161 242
8 244 163 89 153 347 254 162 243
8 311 224 261 371 210 137 167 263
8 263 167 262 372 209 136 168 264
8 267 179 98 171 375 275 178 265
8 375 275 178 265 328 238 147 226
8 376 273 176 266 267 179 98 171
8 268 177 96 172 376 273 176 266
8 379 272 175 269 268 177 96 172
8 380 271 174 270 269 175 94 173
8 283 197 113 186 380 271 174 270
8 381 277 180 271 272 181 100 175
8 297 211 124 197 381 277 180 271
8 382 278 181 272 274 183 102 177
8 274 183 102 177 383 279 182 273
8 383 279 182 273 276 185 104 179
8 385 281 184 275 342 249 157 238
8 276 185 104 179 385 281 184 275
8 285 199 115 188 393 297 197 283
8 394 298 200 286 284 198 116 189
8 285 199 298 394 188 115 198 284
8 291 205 120 193 396 300 200 286
8 397 301 201 287 288 202 117 190
8 295 209 264 374 397 301 201 287
8 398 302 202 288 289 203 118 191
8 399 303 203 289 293 206 121 195
8 291 205 304 400 193 120 204 290
8 400 304 207 292 290 204 122 194
8 294 208 123 196 402 307 207 292
8 403 306 206 293 294 208 123 196
8 296 210 263 373 405 309 209 295
8 408 312 213 299 297 211 126 199
8 299 213 313 409 199 126 212 298
8 409 313 214 300 298 212 127 200
8 305 216 129 205 411 315 214 300
8 412 318 217 301 302 219 132 202
8 309 223 136 209 412 318 217 301
8 413 320 219 302 303 220 133 203
8 306 221 321 414 206 134 220 303
8 307 218 131 207 415 316 215 304
8 305 216 316 415 205 129 215 304
8 417 322 221 306 308 222 135 208
8 308 222 135 208 418 319 218 307
8 310 225 137 210 420 325 223 309
8 423 326 224 311 310 225 137 210
8 329 236 165 260 441 338 259 368
8 442 342 238 328 333 240 149 230
8 331 237 146 228 443 340 236 329
8 334 241 150 231 444 339 235 330
8 444 339 235 330 331 237 146 228
8 446 343 239 332 336 242 151 233
8 333 240 149 230 446 343 239 332
8 335 243 152 232 448 345 241 334
8 337 244 153 234 449 347 243 335
8 337 244 346 450 234 153 242 336
8 338 245 164 259 452 349 258 367
8 340 247 155 236 453 350 245 338
8 345 252 160 241 454 351 246 339
8 454 351 246 339 341 248 156 237
8 341 248 156 237 455 352 247 340
8 240 159 251 344 342 249 354 457
8 242 161 253 346 343 250 355 458
8 343 250 355 458 240 159 251 344
8 347 254 162 243 460 357 252 345
8 348 255 358 461 244 163 253 346
8 348 255 163 244 462 359 254 347
8 473 360 257 365 363 256 364 482
8 452 349 258 367 365 257 366 485
8 422 324 369 488 311 224 261 371
8 371 261 370 490 263 167 262 372
8 407 311 371 491 296 210 263 373
8 373 263 372 492 295 209 264 374
8 493 385 275 375 442 342 238 328
8 377 276 179 267 493 385 275 375
8 378 274 177 268 494 383 273 376
8 494 383 273 376 377 276 179 267
8 497 382 272 379 378 274 177 268
8 498 381 271 380 379 272 175 269
8 393 297 197 283 498 381 271 380
8 499 387 277 381 382 278 181 272
8 408 312 211 297 499 387 277 381
8 500 388 278 382 384 280 183 274
8 501 389 279 383 386 282 185 276
8 384 280 183 274 501 389 279 383
8 386 282 185 276 503 391 281 385
8 503 391 281 385 457 354 249 342
8 511 408 299 395 393 297 199 285
8 395 299 409 512 285 199 298 394
8 512 409 300 396 394 298 200 286
8 401 305 205 291 514 411 300 396
8 515 412 301 397 398 302 202 288
8 405 309 209 295 515 412 301 397
8 516 413 302 398 399 303 203 289
8 403 306 414 517 293 206 303 399
8 402 307 207 292 518 415 304 400
8 401 305 415 518 291 205 304 400
8 404 308 208 294 520 418 307 402
8 521 417 306 403 404 308 208 294
8 406 310 210 296 523 420 309 405
8 526 423 311 407 406 310 210 296
8 410 314 213 299 527 424 312 408
8 528 425 315 411 409 313 214 300
8 410 314 425 528 299 213 313 409
8 416 317 216 305 530 427 315 411
8 531 430 318 412 413 320 219 302
8 420 325 223 309 531 430 318 412
8 532 432 320 413 414 321 220 303
8 417 322 433 533 306 221 321 414
8 418 319 218 307 534 428 316 415
8 416 317 428 534 305 216 316 415
8 419 323 434 536 308 222 322 417
8 419 323 222 308 537 431 319 418
8 421 327 225 310 539 438 325 420
8 421 327 439 541 310 225 326 423
8 543 437 324 422 423 326 224 311
8 441 338 259 368 559 452 367 486
8 443 340 236 329 560 453 338 441
8 333 240 344 447 442 342 457 561
8 445 341 237 331 562 455 340 443
8 448 345 241 334 563 454 339 444
8 563 454 339 444 445 341 237 331
8 336 242 346 450 446 343 458 565
8 446 343 458 565 333 240 344 447
8 449 347 243 335 567 460 345 448
8 451 348 244 337 568 462 347 449
8 451 348 461 569 337 244 346 450
8 570 463 349 452 473 360 257 365
8 453 350 245 338 570 463 349 452
8 455 352 247 340 571 464 350 453
8 460 357 252 345 572 465 351 454
8 572 465 351 454 456 353 248 341
8 456 353 248 341 573 466 352 455
8 344 251 356 459 457 354 468 575
8 458 355 469 576 344 251 356 459
8 346 253 358 461 458 355 469 576
8 462 359 254 347 578 471 357 460
8 348 255 359 462 461 358 472 579
8 591 474 360 473 475 361 256 363
8 475 361 256 363 594 477 362 479
8 363 256 364 482 479 362 480 603
8 590 473 365 484 481 363 482 605
8 482 364 257 365 606 483 366 485
8 559 452 367 486 484 365 485 607
8 542 436 487 609 422 324 369 488
8 525 422 488 611 407 311 371 491
8 488 369 489 612 371 261 370 490
8 491 371 490 613 373 263 372 492
8 495 386 276 377 614 503 385 493
8 614 503 385 493 561 457 342 442
8 615 501 383 494 495 386 276 377
8 496 384 274 378 615 501 383 494
8 618 500 382 497 496 384 274 378
8 619 499 381 498 497 382 272 379
8 511 408 297 393 619 499 381 498
8 620 505 387 499 500 388 278 382
8 527 424 312 408 620 505 387 499
8 502 390 506 621 384 280 388 500
8 622 507 389 501 504 392 282 386
8 502 390 280 384 622 507 389 501
8 504 392 282 386 624 509 391 503
8 624 509 391 503 575 468 354 457
8 513 410 299 395 630 527 408 511
8 631 528 411 514 512 409 300 396
8 513 410 528 631 395 299 409 512
8 519 416 305 401 633 530 411 514
8 634 531 412 515 516 413 302 398
8 523 420 309 405 634 531 412 515
8 635 532 413 516 517 414 303 399
8 521 417 533 636 403 306 414 517
8 520 418 307 402 637 534 415 518
8 519 416 534 637 401 305 415 518
8 522 419 308 404 639 537 418 520
8 522 419 536 640 404 308 417 521
8 524 421 310 406 642 539 420 523
8 524 421 541 644 406 310 423 526
8 646 543 422 525 526 423 311 407
8 529 426 314 410 647 544 424 527
8 528 425 545 648 411 315 427 530
8 529 426 545 648 410 314 425 528
8 535 429 317 416 649 546 427 530
8 650 548 430 531 532 432 320 413
8 539 438 325 420 650 548 430 531
8 533 433 550 651 414 321 432 532
8 536 434 551 652 417 322 433 533
8 537 431 319 418 653 547 428 534
8 535 429 547 653 416 317 428 534
8 538 435 552 654 419 323 434 536
8 538 435 323 419 655 549 431 537
8 540 440 327 421 657 556 438 539
8 540 440 557 659 421 327 439 541
8 541 439 555 660 423 326 437 543
8 661 554 436 542 543 437 324 422
8 676 570 452 559 590 473 365 484
8 560 453 338 441 676 570 452 559
8 562 455 340 443 677 571 453 560
8 447 344 459 566 561 457 575 678
8 564 456 341 445 679 573 455 562
8 567 460 345 448 680 572 454 563
8 680 572 454 563 564 456 341 445
8 565 458 576 682 447 344 459 566
8 450 346 461 569 565 458 576 682
8 568 462 347 449 684 578 460 567
8 451 348 462 568 569 461 579 685
8 686 580 463 570 591 474 360 473
8 571 464 350 453 686 580 463 570
8 573 466 352 455 687 581 464 571
8 572 465 582 688 460 357 471 578
8 574 467 582 688 456 353 465 572
8 574 467 353 456 689 583 466 573
8 459 356 470 577 575 468 585 691
8 576 469 586 692 459 356 470 577
8 461 358 472 579 576 469 586 692
8 462 359 471 578 579 472 588 694
8 704 591 473 590 593 475 363 481
8 595 476 592 705 475 361 474 591
8 593 475 363 481 707 594 479 602
8 594 477 362 479 709 598 478 600
8 595 476 361 475 711 597 477 594
8 479 362 480 603 600 478 601 720
8 481 363 482 605 602 479 603 722
8 603 480 364 482 723 604 483 606
8 605 482 365 484 724 606 485 607
8 656 553 608 726 542 436 487 609
8 645 542 609 728 525 422 488 611
8 609 487 610 729 488 369 489 612
8 611 488 612 730 491 371 490 613
8 616 504 386 495 731 624 503 614
8 731 624 503 614 678 575 457 561
8 732 622 501 615 616 504 386 495
8 617 502 384 496 732 622 501 615
8 617 502 621 735 496 384 500 618
8 736 620 499 619 618 500 382 497
8 630 527 408 511 736 620 499 619
8 621 506 626 737 500 388 505 620
8 647 544 424 527 737 626 505 620
8 623 508 627 738 502 390 506 621
8 623 508 390 502 739 628 507 622
8 625 510 628 739 504 392 507 622
8 740 629 509 624 691 585 468 575
8 625 510 392 504 740 629 509 624
8 632 529 410 513 744 647 527 630
8 631 528 648 745 514 411 530 633
8 632 529 648 745 513 410 528 631
8 638 535 416 519 746 649 530 633
8 747 650 531 634 635 532 413 516
8 642 539 420 523 747 650 531 634
8 636 533 651 748 517 414 532 635
8 640 536 652 749 521 417 533 636
8 639 537 418 520 750 653 534 637
8 638 535 653 750 519 416 534 637
8 641 538 419 522 751 655 537 639
8 641 538 654 752 522 419 536 640
8 643 540 421 524 753 657 539 642
8 643 540 659 755 524 421 541 644
8 644 541 660 757 526 423 543 646
8 758 661 542 645 646 543 422 525
8 529 426 544 647 648 545 662 759
8 530 427 545 648 649 546 663 760
8 535 429 546 649 653 547 664 761
8 762 666 548 650 651 550 432 532
8 657 556 438 539 762 666 548 650
8 652 551 668 763 533 433 550 651
8 654 552 669 764 536 434 551 652
8 655 549 431 537 765 665 547 653
8 538 435 549 655 654 552 667 766
8 661 554 671 768 542 436 553 656
8 658 558 440 540 769 674 556 657
8 658 558 675 770 540 440 557 659
8 659 557 673 771 541 439 555 660
8 660 555 672 772 543 437 554 661
8 788 686 570 676 704 591 473 590
8 677 571 453 560 788 686 570 676
8 679 573 455 562 789 687 571 677
8 566 459 577 683 678 575 691 790
8 681 574 456 564 791 689 573 679
8 680 572 688 792 567 460 578 684
8 681 574 688 792 564 456 572 680
8 682 576 692 794 566 459 577 683
8 569 461 579 685 682 576 692 794
8 568 462 578 684 685 579 694 796
8 687 581 464 571 798 696 580 686
8 798 696 580 686 705 592 474 591
8 689 583 466 573 799 697 581 687
8 688 582 698 800 578 471 588 694
8 690 584 698 800 574 467 582 688
8 690 584 467 574 801 699 583 689
8 693 587 701 803 577 470 585 691
8 693 587 470 577 804 702 586 692
8 695 589 702 804 579 472 586 692
8 695 589 472 579 805 703 588 694
8 708 595 705 813 593 475 591 704
8 710 596 706 814 595 476 592 705
8 707 594 479 602 816 709 600 719
8 708 595 475 593 817 711 594 707
8 709 598 478 600 819 715 599 717
8 711 597 477 594 820 714 598 709
8 710 596 476 595 822 713 597 711
8 600 478 601 720 717 599 718 832
8 602 479 603 722 719 600 720 834
8 720 601 480 603 835 721 604 723
8 722 603 482 605 836 723 606 724
8 767 670 725 839 656 553 608 726
8 756 656 726 841 645 542 609 728
8 726 608 727 842 609 487 610 729
8 728 609 729 843 611 488 612 730
8 844 740 624 731 790 691 575 678
8 733 625 504 616 844 740 624 731
8 734 623 502 617 845 739 622 732
8 733 625 739 845 616 504 622 732
8 734 623 738 846 617 502 621 735
8 735 621 737 847 618 500 620 736
8 744 647 527 630 847 737 620 736
8 621 506 627 738 737 626 741 848
8 647 544 626 737 759 662 741 848
8 623 508 628 739 738 627 742 849
8 740 629 585 691 850 743 700 802
8 625 510 629 740 739 628 743 850
8 632 529 647 744 745 648 759 854
8 633 530 648 745 746 649 760 855
8 638 535 649 746 750 653 761 856
8 857 762 650 747 748 651 532 635
8 753 657 539 642 857 762 650 747
8 749 652 763 858 636 533 651 748
8 752 654 764 859 640 536 652 749
8 751 655 537 639 860 765 653 750
8 641 538 655 751 752 654 766 861
8 754 658 540 643 862 769 657 753
8 754 658 770 863 643 540 659 755
8 755 659 771 864 644 541 660 757
8 758 661 768 866 645 542 656 756
8 757 660 772 867 646 543 661 758
8 759 662 773 868 648 545 663 760
8 649 546 663 760 761 664 774 871
8 765 665 547 653 872 775 664 761
8 873 777 666 762 763 668 550 651
8 769 674 556 657 873 777 666 762
8 764 669 779 874 652 551 668 763
8 654 552 667 766 764 669 778 875
8 655 549 665 765 766 667 776 876
8 768 671 782 877 656 553 670 767
8 772 672 783 878 661 554 671 768
8 658 558 674 769 770 675 786 879
8 659 557 675 770 771 673 785 881
8 882 784 672 772 771 673 555 660
8 789 687 571 677 897 798 686 788
8 897 798 686 788 813 705 591 704
8 791 689 573 679 898 799 687 789
8 795 693 803 900 683 577 691 790
8 793 690 574 681 901 801 689 791
8 792 688 800 902 684 578 694 796
8 793 690 800 902 681 574 688 792
8 795 693 577 683 903 804 692 794
8 797 695 804 903 685 579 692 794
8 797 695 579 685 904 805 694 796
8 905 806 697 799 798 696 581 687
8 814 706 806 905 705 592 696 798
8 689 583 697 799 801 699 808 907
8 800 698 809 908 694 588 703 805
8 690 584 699 801 800 698 809 908
8 803 701 810 909 691 585 700 802
8 693 587 702 804 803 701 811 910
8 695 589 703 805 804 702 812 911
8 818 710 814 919 708 595 705 813
8 821 712 815 920 710 596 706 814
8 816 709 600 719 922 819 717 831
8 817 711 594 707 923 820 709 816
8 818 710 595 708 924 822 711 817
8 819 715 599 717 926 827 716 829
8 820 714 598 709 927 826 715 819
8 929 825 713 822 820 714 597 711
8 821 712 596 710 930 824 713 822
8 717 599 718 832 829 716 830 942
8 719 600 720 834 831 717 832 944
8 832 718 601 720 945 833 721 835
8 834 720 603 722 946 835 723 836
8 869 780 838 950 767 670 725 839
8 865 767 839 952 756 656 726 841
8 839 725 840 953 726 608 727 842
8 841 726 842 954 728 609 729 843
8 844 740 691 790 955 850 802 899
8 733 625 740 844 845 739 850 955
8 734 623 739 845 846 738 849 956
8 735 621 738 846 847 737 848 957
8 744 647 737 847 854 759 848 957
8 738 627 742 849 848 741 851 958
8 848 741 851 958 759 662 773 868
8 850 743 700 802 959 852 807 906
8 849 742 628 739 959 852 743 850
8 854 759 868 965 745 648 760 855
8 746 649 760 855 856 761 871 966
8 860 765 653 750 967 872 761 856
8 968 873 762 857 858 763 651 748
8 862 769 657 753 968 873 762 857
8 859 764 874 969 749 652 763 858
8 752 654 766 861 859 764 875 970
8 751 655 765 860 861 766 876 971
8 754 658 769 862 863 770 879 972
8 755 659 770 863 864 771 881 974
8 976 882 772 867 864 771 660 757
8 866 768 877 977 756 656 767 865
8 867 772 878 978 758 661 768 866
8 760 663 773 868 871 774 883 980
8 870 781 837 948 982 890 780 869
8 982 890 780 869 877 782 670 767
8 761 664 774 871 872 775 884 984
8 876 776 665 765 985 885 775 872
8 873 777 668 763 986 887 779 874
8 769 674 777 873 879 786 887 986
8 764 669 778 875 874 779 888 987
8 766 667 776 876 875 778 886 988
8 878 783 892 989 768 671 782 877
8 878 783 672 772 990 893 784 882
8 880 787 675 770 991 896 786 879
8 880 787 895 992 770 675 785 881
8 881 785 894 993 771 673 784 882
8 1006 905 799 898 897 798 687 789
8 919 814 905 1006 813 705 798 897
8 791 689 799 898 901 801 907 1007
8 900 803 909 1009 790 691 802 899
8 795 693 804 903 900 803 910 1010
8 902 800 908 1011 796 694 805 904
8 793 690 801 901 902 800 908 1011
8 797 695 805 904 903 804 911 1012
8 799 697 806 905 907 808 912 1013
8 920 815 912 1013 814 706 806 905
8 802 700 810 909 906 807 913 1014
8 801 699 808 907 908 809 914 1015
8 805 703 809 908 911 812 915 1016
8 803 701 811 910 909 810 916 1017
8 911 812 917 1018 804 702 811 910
8 925 821 920 1030 818 710 814 919
8 928 823 921 1031 821 712 815 920
8 922 819 717 831 1033 926 829 941
8 923 820 709 816 1034 927 819 922
8 1035 929 822 924 923 820 711 817
8 925 821 710 818 1036 930 822 924
8 1038 933 825 929 927 826 714 820
8 926 827 716 829 1039 935 828 939
8 927 826 715 819 1040 934 827 926
8 928 823 712 821 1041 931 824 930
8 1042 932 824 930 929 825 713 822
8 829 716 830 942 939 828 940 1058
8 831 717 832 944 941 829 942 1060
8 942 830 718 832 1061 943 833 945
8 944 832 720 834 1062 945 835 946
8 981 889 947 1064 870 781 837 948
8 948 837 949 1067 869 780 838 950
8 975 869 950 1069 865 767 839 952
8 950 838 951 1070 839 725 840 953
8 952 839 953 1071 841 726 842 954
8 955 850 802 899 1072 959 906 1008
8 956 849 739 845 1072 959 850 955
8 846 738 849 956 957 848 958 1073
8 957 848 958 1073 854 759 868 965
8 849 742 852 959 958 851 961 1076
8 960 853 961 1076 906 807 852 959
8 958 851 961 1076 868 773 883 980
8 960 853 807 906 1077 963 913 1014
8 855 760 868 965 966 871 980 1085
8 856 761 871 966 967 872 984 1086
8 971 876 765 860 1087 985 872 967
8 968 873 763 858 1088 986 874 969
8 862 769 873 968 972 879 986 1088
8 859 764 875 970 969 874 987 1089
8 861 766 876 971 970 875 988 1090
8 973 880 770 863 1091 991 879 972
8 973 880 992 1092 863 770 881 974
8 974 881 993 1093 864 771 882 976
8 979 870 948 1066 1094 982 869 975
8 1094 982 869 975 977 877 767 865
8 978 878 772 867 1095 990 882 976
8 978 878 989 1096 866 768 877 977
8 871 774 883 980 984 884 994 1099
8 983 891 999 1100 870 781 889 981
8 1101 1000 890 982 989 892 782 877
8 983 891 781 870 1101 1000 890 982
8 872 775 884 984 985 885 995 1103
8 876 776 885 985 988 886 996 1104
8 986 887 779 874 1105 998 888 987
8 879 786 887 986 991 896 998 1105
8 875 778 886 988 987 888 997 1106
8 990 893 1002 1107 878 783 892 989
8 1108 1003 893 990 993 894 784 882
8 880 787 896 991 992 895 1005 1109
8 993 894 785 881 1110 1004 895 992
8 898 799 905 1006 1007 907 1013 1120
8 1030 920 1013 1120 919 814 905 1006
8 901 801 907 1007 1011 908 1015 1121
8 899 802 909 1009 1008 906 1014 1122
8 900 803 910 1010 1009 909 1017 1123
8 1012 911 1018 1124 903 804 910 1010
8 904 805 908 1011 1012 911 1016 1125
8 1013 912 1020 1127 907 808 914 1015
8 1031 921 1020 1127 920 815 912 1013
8 1019 918 962 1075 1128 1021 913 1014
8 1128 1021 913 1014 1017 916 810 909
8 1015 914 1022 1129 908 809 915 1016
8 1016 915 1023 1130 911 812 917 1018
8 1018 917 1024 1131 910 811 916 1017
8 1037 928 1031 1148 925 821 920 1030
8 928 823 931 1041 1031 921 1032 1149
8 1033 926 829 941 1151 1039 939 1057
8 1034 927 819 922 1152 1040 926 1033
8 1153 1038 929 1035 1034 927 820 923
8 1154 1042 930 1036 1035 929 822 924
8 1037 928 821 925 1155 1041 930 1036
8 1039 935 828 939 1156 1047 938 1055
8 1157 1043 932 1042 1038 933 825 929
8 1038 933 826 927 1158 1045 934 1040
8 1040 934 827 926 1159 1046 935 1039
8 930 824 932 1042 1041 931 1044 1160
8 1051 936 1048 1165 1175 1052 937 1053
8 1156 1047 938 1055 1053 937 1054 1178
8 939 828 940 1058 1055 938 1056 1181
8 941 829 942 1060 1057 939 1058 1183
8 942 830 943 1061 1058 940 1059 1184
8 1060 942 832 944 1185 1061 945 1062
8 1082 964 1063 1188 981 889 947 1064
8 1097 981 1064 1190 979 870 948 1066
8 1064 947 1065 1191 948 837 949 1067
8 1066 948 1067 1193 975 869 950 1069
8 1067 949 1068 1194 950 838 951 1070
8 1069 950 1070 1195 952 839 953 1071
8 956 849 959 1072 1073 958 1076 1197
8 1074 960 1076 1197 1008 906 959 1072
8 1073 958 1076 1197 965 868 980 1085
8 1074 960 906 1008 1198 1077 1014 1122
8 1133 1026 1079 1199 1019 918 962 1075
8 1077 963 913 1014 1200 1080 962 1075
8 960 853 963 1077 1076 961 1078 1201
8 980 883 961 1076 1099 994 1078 1201
8 1210 1083 964 1082 1100 999 889 981
8 966 871 980 1085 1086 984 1099 1215
8 967 872 984 1086 1087 985 1103 1216
8 971 876 985 1087 1090 988 1104 1217
8 1088 986 874 969 1218 1105 987 1089
8 972 879 986 1088 1091 991 1105 1218
8 970 875 988 1090 1089 987 1106 1219
8 973 880 991 1091 1092 992 1109 1220
8 1093 993 881 974 1221 1110 992 1092
8 1222 1108 990 1095 1093 993 882 976
8 1223 1101 982 1094 1096 989 877 977
8 1098 983 870 979 1223 1101 982 1094
8 1095 990 1107 1224 978 878 989 1096
8 1098 983 1100 1225 979 870 981 1097
8 984 884 994 1099 1103 995 1111 1227
8 1102 1001 1115 1228 983 891 999 1100
8 1101 1000 892 989 1229 1116 1002 1107
8 1102 1001 891 983 1229 1116 1000 1101
8 985 885 995 1103 1104 996 1112 1230
8 988 886 996 1104 1106 997 1113 1231
8 1105 998 888 987 1232 1114 997 1106
8 991 896 998 1105 1109 1005 1114 1232
8 1108 1003 1117 1233 990 893 1002 1107
8 1108 1003 894 993 1233 1117 1004 1110
8 992 895 1005 1109 1110 1004 1118 1234
8 1120 1013 1127 1244 1007 907 1015 1121
8 1148 1031 1127 1244 1030 920 1013 1120
8 1121 1015 1129 1245 1011 908 1016 1125
8 1126 1019 1075 1196 1246 1128 1014 1122
8 1246 1128 1014 1122 1123 1017 909 1009
8 1124 1018 1131 1247 1010 910 1017 1123
8 1125 1016 1130 1248 1012 911 1018 1124
8 1127 1020 1137 1254 1015 914 1022 1129
8 1031 921 1032 1149 1127 1020 1137 1254
8 1134 1027 918 1019 1257 1140 1021 1128
8 1257 1140 1021 1128 1131 1024 916 1017
8 1129 1022 1141 1258 1016 915 1023 1130
8 1130 1023 1142 1259 1018 917 1024 1131
8 1261 1144 1025 1132 1133 1026 1079 1199
8 1255 1138 1025 1132 1135 1028 1144 1261
8 1133 1026 918 1019 1262 1145 1027 1134
8 1136 1029 1139 1256 1263 1146 1028 1135
8 1037 928 1041 1155 1148 1031 1149 1275
8 1041 931 1044 1160 1149 1032 1150 1276
8 1151 1039 939 1057 1278 1156 1055 1180
8 1152 1040 926 1033 1279 1159 1039 1151
8 1153 1038 927 1034 1280 1158 1040 1152
8 1281 1157 1042 1154 1153 1038 929 1035
8 1036 930 1042 1154 1155 1041 1160 1282
8 1283 1164 1046 1159 1156 1047 935 1039
8 1165 1048 1164 1283 1053 937 1047 1156
8 1157 1043 933 1038 1284 1161 1045 1158
8 1157 1043 1161 1284 1042 932 1044 1160
8 1040 934 1046 1159 1158 1045 1163 1285
8 1166 1049 1167 1292 1051 936 1048 1165
8 1166 1049 936 1051 1293 1168 1050 1172
8 1051 936 1052 1175 1172 1050 1173 1306
8 1174 1051 1165 1290 1308 1175 1053 1177
8 1053 937 1054 1178 1175 1052 1176 1309
8 1278 1156 1055 1180 1177 1053 1178 1311
8 1055 938 1056 1181 1178 1054 1179 1312
8 1057 939 1058 1183 1180 1055 1181 1314
8 1058 940 1059 1184 1181 1056 1182 1315
8 1060 942 1061 1185 1183 1058 1184 1316
8 1208 1081 1187 1321 1082 964 1063 1188
8 1209 1082 1188 1322 1097 981 1064 1190
8 1188 1063 1189 1323 1064 947 1065 1191
8 1190 1064 1191 1325 1066 948 1067 1193
8 1191 1065 1192 1326 1067 949 1068 1194
8 1067 1193 1069 950 1194 1327 1195 1070
8 1250 1133 1199 1330 1126 1019 1075 1196
8 1198 1077 1014 1122 1331 1200 1075 1196
8 1074 960 1077 1198 1197 1076 1201 1332
8 1085 980 1076 1197 1215 1099 1201 1332
8 1199 1079 1203 1333 1075 962 1080 1200
8 1132 1025 1119 1243 1199 1079 1203 1333
8 1201 1078 963 1077 1334 1202 1080 1200
8 1099 994 1078 1201 1227 1111 1202 1334
8 1343 1207 1081 1208 1210 1083 964 1082
8 1214 1084 1186 1319 1343 1207 1081 1208
8 1345 1210 1082 1209 1225 1100 981 1097
8 1346 1211 1083 1210 1228 1115 999 1100
8 1086 984 1099 1215 1216 1103 1227 1352
8 1087 985 1103 1216 1217 1104 1230 1353
8 1090 988 1104 1217 1219 1106 1231 1354
8 1218 1105 987 1089 1355 1232 1106 1219
8 1091 991 1105 1218 1220 1109 1232 1355
8 1092 992 1109 1220 1221 1110 1234 1356
8 1222 1108 1233 1357 1095 990 1107 1224
8 1222 1108 993 1093 1357 1233 1110 1221
8 1223 1101 989 1096 1358 1229 1107 1224
8 1226 1102 983 1098 1358 1229 1101 1223
8 1226 1102 1228 1359 1098 983 1100 1225
8 1103 995 1111 1227 1230 1112 1235 1360
8 1107 1002 1117 1233 1229 1116 1240 1362
8 1102 1001 1116 1229 1228 1115 1240 1362
8 1104 996 1112 1230 1231 1113 1236 1363
8 1364 1237 1114 1232 1231 1113 997 1106
8 1109 1005 1114 1232 1234 1118 1238 1365
8 1110 1004 1118 1234 1233 1117 1241 1366
8 1242 1374 1255 1138 1119 1243 1132 1025
8 1244 1127 1254 1376 1121 1015 1129 1245
8 1148 1031 1149 1275 1244 1127 1254 1376
8 1245 1129 1258 1377 1125 1016 1130 1248
8 1251 1134 1019 1126 1378 1257 1128 1246
8 1378 1257 1128 1246 1247 1131 1017 1123
8 1248 1130 1259 1379 1124 1018 1131 1247
8 1261 1381 1250 1133 1132 1249 1330 1199
8 1255 1380 1252 1135 1132 1249 1381 1261
8 1250 1133 1019 1126 1382 1262 1134 1251
8 1253 1136 1256 1385 1384 1263 1135 1252
8 1254 1137 1265 1387 1129 1022 1141 1258
8 1149 1032 1150 1276 1254 1137 1265 1387
8 1028 1135 1255 1138 1139 1256 1388 1266
8 1136 1029 1147 1264 1256 1139 1267 1389
8 1390 1268 1140 1257 1259 1142 1024 1131
8 1260 1143 1027 1134 1390 1268 1140 1257
8 1258 1141 1269 1391 1130 1023 1142 1259
8 1262 1145 1027 1134 1393 1271 1143 1260
8 1261 1144 1026 1133 1394 1272 1145 1262
8 1135 1028 1144 1261 1263 1146 1272 1394
8 1136 1029 1146 1263 1264 1147 1273 1395
8 1155 1041 1160 1282 1275 1149 1276 1405
8 1276 1150 1044 1160 1406 1277 1162 1286
8 1408 1283 1159 1279 1278 1156 1039 1151
8 1290 1165 1283 1408 1177 1053 1156 1278
8 1152 1040 1159 1279 1280 1158 1285 1409
8 1281 1157 1038 1153 1410 1284 1158 1280
8 1281 1157 1284 1410 1154 1042 1160 1282
8 1159 1046 1164 1283 1285 1163 1289 1412
8 1292 1167 1289 1412 1165 1048 1164 1283
8 1158 1045 1163 1285 1284 1161 1288 1413
8 1284 1161 1288 1413 1160 1044 1162 1286
8 1291 1166 1292 1418 1174 1051 1165 1290
8 1291 1166 1051 1174 1419 1293 1172 1305
8 1294 1169 1296 1421 1166 1049 1167 1292
8 1293 1168 1050 1172 1422 1295 1171 1303
8 1294 1169 1049 1166 1423 1297 1168 1293
8 1422 1295 1171 1303 1301 1170 1302 1435
8 1172 1050 1173 1306 1303 1171 1304 1438
8 1174 1051 1175 1308 1305 1172 1306 1440
8 1175 1052 1176 1309 1306 1173 1307 1441
8 1177 1053 1178 1311 1308 1175 1309 1443
8 1178 1054 1179 1312 1309 1176 1310 1444
8 1180 1055 1181 1314 1311 1178 1312 1446
8 1056 1181 1312 1179 1182 1315 1447 1313
8 1183 1058 1184 1316 1314 1181 1315 1448
8 1319 1186 1084 1214 1451 1317 1213 1350
8 1319 1186 1318 1453 1208 1081 1187 1321
8 1321 1187 1320 1456 1188 1063 1189 1323
8 1344 1208 1321 1457 1209 1082 1188 1322
8 1322 1188 1323 1458 1190 1064 1191 1325
8 1323 1189 1324 1459 1191 1065 1192 1326
8 1191 1325 1193 1067 1326 1460 1327 1194
8 1242 1374 1243 1119 1328 1462 1335 1204
8 1330 1199 1333 1465 1196 1075 1200 1331
8 1132 1249 1330 1199 1243 1375 1465 1333
8 1332 1201 1077 1198 1466 1334 1200 1331
8 1215 1099 1201 1332 1352 1227 1334 1466
8 1119 1243 1333 1203 1204 1335 1470 1338
8 1333 1203 1338 1470 1200 1080 1202 1334
8 1227 1111 1202 1334 1360 1235 1338 1470
8 1328 1462 1335 1204 1205 1336 1471 1339
8 1337 1206 1340 1472 1464 1329 1205 1336
8 1346 1211 1342 1479 1210 1083 1207 1343
8 1346 1211 1115 1228 1479 1342 1239 1361
8 1348 1212 1084 1214 1479 1342 1207 1343
8 1480 1343 1208 1344 1345 1210 1082 1209
8 1351 1214 1319 1454 1480 1343 1208 1344
8 1481 1346 1210 1345 1359 1228 1100 1225
8 1348 1212 1347 1483 1214 1084 1213 1350
8 1216 1103 1227 1352 1353 1230 1360 1488
8 1217 1104 1230 1353 1354 1231 1363 1489
8 1490 1364 1232 1355 1354 1231 1106 1219
8 1220 1109 1232 1355 1356 1234 1365 1491
8 1221 1110 1234 1356 1357 1233 1366 1492
8 1224 1107 1233 1357 1358 1229 1362 1493
8 1226 1102 1229 1358 1359 1228 1362 1493
8 1230 1112 1235 1360 1363 1236 1367 1496
8 1361 1239 1115 1228 1497 1371 1240 1362
8 1366 1241 1372 1498 1233 1117 1240 1362
8 1364 1237 1113 1231 1499 1368 1236 1363
8 1364 1237 1368 1499 1232 1114 1238 1365
8 1234 1118 1238 1365 1366 1241 1369 1500
8 1507 1373 1242 1374 1388 1266 1138 1255
8 1508 1374 1243 1375 1380 1255 1132 1249
8 1376 1254 1387 1509 1245 1129 1258 1377
8 1275 1149 1276 1405 1376 1254 1387 1509
8 1377 1258 1391 1510 1248 1130 1259 1379
8 1511 1390 1257 1378 1379 1259 1131 1247
8 1383 1260 1134 1251 1511 1390 1257 1378
8 1252 1135 1256 1385 1380 1255 1388 1512
8 1261 1381 1513 1394 1133 1250 1382 1262
8 1135 1252 1384 1263 1261 1381 1513 1394
8 1382 1262 1134 1251 1514 1393 1260 1383
8 1253 1136 1263 1384 1386 1264 1395 1516
8 1253 1136 1264 1386 1385 1256 1389 1517
8 1387 1265 1397 1519 1258 1141 1269 1391
8 1276 1150 1277 1406 1387 1265 1397 1519
8 1256 1139 1267 1389 1388 1266 1398 1520
8 1264 1147 1274 1396 1389 1267 1399 1521
8 1392 1270 1143 1260 1522 1400 1268 1390
8 1390 1268 1142 1259 1522 1400 1269 1391
8 1392 1270 1401 1523 1260 1143 1271 1393
8 1272 1394 1524 1402 1145 1262 1393 1271
8 1395 1273 1146 1263 1524 1402 1272 1394
8 1273 1395 1264 1147 1403 1526 1396 1274
8 1405 1276 1160 1282 1534 1406 1286 1411
8 1414 1287 1407 1535 1286 1162 1277 1406
8 1279 1159 1283 1408 1409 1285 1412 1537
8 1418 1292 1412 1537 1290 1165 1283 1408
8 1280 1158 1285 1409 1410 1284 1413 1538
8 1410 1284 1413 1538 1282 1160 1286 1411
8 1285 1163 1289 1412 1413 1288 1417 1540
8 1421 1296 1417 1540 1292 1167 1289 1412
8 1414 1287 1162 1286 1541 1416 1288 1413
8 1420 1294 1421 1545 1291 1166 1292 1418
8 1419 1293 1172 1305 1546 1422 1303 1437
8 1420 1294 1166 1291 1547 1423 1293 1419
8 1294 1169 1297 1423 1421 1296 1425 1548
8 1423 1297 1168 1293 1549 1424 1295 1422
8 1301 1170 1298 1427 1422 1295 1424 1549
8 1432 1300 1428 1554 1301 1170 1298 1427
8 1431 1299 1428 1554 1560 1430 1300 1432
8 1563 1433 1300 1432 1435 1302 1170 1301
8 1546 1422 1303 1437 1434 1301 1435 1565
8 1303 1171 1304 1438 1435 1302 1436 1566
8 1305 1172 1306 1440 1437 1303 1438 1568
8 1306 1173 1307 1441 1438 1304 1439 1569
8 1308 1175 1309 1443 1440 1306 1441 1571
8 1309 1176 1310 1444 1441 1307 1442 1572
8 1311 1178 1312 1446 1443 1309 1444 1574
8 1179 1312 1444 1310 1313 1447 1575 1445
8 1314 1181 1315 1448 1446 1312 1447 1576
8 1350 1213 1349 1486 1451 1317 1449 1579
8 1451 1317 1450 1581 1319 1186 1318 1453
8 1454 1319 1214 1351 1582 1451 1350 1487
8 1453 1318 1452 1584 1321 1187 1320 1456
8 1454 1319 1453 1585 1344 1208 1321 1457
8 1456 1320 1455 1586 1323 1189 1324 1459
8 1457 1321 1456 1587 1322 1188 1323 1458
8 1458 1323 1459 1588 1325 1191 1326 1460
8 1205 1336 1464 1329 1328 1462 1590 1461
8 1507 1373 1461 1590 1374 1242 1328 1462
8 1508 1374 1462 1591 1375 1243 1335 1467
8 1337 1206 1329 1464 1473 1341 1463 1594
8 1375 1243 1335 1467 1465 1333 1470 1596
8 1465 1333 1470 1596 1331 1200 1334 1466
8 1352 1227 1334 1466 1488 1360 1470 1596
8 1591 1462 1336 1468 1467 1335 1471 1597
8 1469 1337 1472 1598 1595 1464 1336 1468
8 1471 1339 1474 1600 1335 1204 1338 1470
8 1600 1474 1367 1496 1470 1338 1235 1360
8 1336 1205 1340 1472 1471 1339 1475 1601
8 1337 1206 1341 1473 1472 1340 1476 1602
8 1495 1370 1478 1609 1361 1239 1342 1479
8 1348 1212 1342 1479 1483 1347 1478 1609
8 1481 1346 1479 1610 1345 1210 1343 1480
8 1481 1346 1228 1359 1610 1479 1361 1494
8 1484 1348 1214 1351 1610 1479 1343 1480
8 1483 1347 1482 1612 1350 1213 1349 1486
8 1484 1348 1483 1613 1351 1214 1350 1487
8 1353 1230 1360 1488 1489 1363 1496 1616
8 1490 1364 1231 1354 1617 1499 1363 1489
8 1490 1364 1499 1617 1355 1232 1365 1491
8 1356 1234 1365 1491 1492 1366 1500 1619
8 1492 1366 1498 1620 1357 1233 1362 1493
8 1494 1361 1228 1359 1621 1497 1362 1493
8 1495 1370 1239 1361 1622 1504 1371 1497
8 1363 1236 1367 1496 1499 1368 1501 1623
8 1497 1371 1240 1362 1624 1505 1372 1498
8 1625 1503 1372 1498 1500 1369 1241 1366
8 1365 1238 1368 1499 1500 1369 1502 1626
8 1520 1398 1506 1633 1388 1266 1373 1507
8 1634 1507 1374 1508 1512 1388 1255 1380
8 1509 1387 1519 1635 1377 1258 1391 1510
8 1405 1276 1406 1534 1509 1387 1519 1635
8 1515 1392 1260 1383 1636 1522 1390 1511
8 1511 1390 1259 1379 1636 1522 1391 1510
8 1385 1256 1389 1517 1512 1388 1520 1637
8 1513 1394 1262 1382 1638 1524 1393 1514
8 1395 1516 1638 1524 1263 1384 1513 1394
8 1515 1392 1523 1639 1383 1260 1393 1514
8 1516 1395 1526 1640 1386 1264 1396 1518
8 1386 1264 1396 1518 1517 1389 1521 1641
8 1519 1397 1527 1643 1391 1269 1400 1522
8 1535 1407 1527 1643 1406 1277 1397 1519
8 1389 1267 1399 1521 1520 1398 1528 1644
8 1645 1529 1399 1521 1525 1404 1274 1396
8 1392 1270 1400 1522 1523 1401 1531 1646
8 1524 1402 1271 1393 1648 1532 1401 1523
8 1403 1526 1648 1532 1273 1395 1524 1402
8 1525 1404 1274 1396 1649 1533 1403 1526
8 1539 1414 1535 1657 1411 1286 1406 1534
8 1542 1415 1536 1658 1414 1287 1407 1535
8 1409 1285 1412 1537 1538 1413 1540 1660
8 1545 1421 1540 1660 1418 1292 1412 1537
8 1539 1414 1286 1411 1661 1541 1413 1538
8 1540 1417 1544 1663 1413 1288 1416 1541
8 1421 1296 1425 1548 1540 1417 1544 1663
8 1542 1415 1287 1414 1664 1543 1416 1541
8 1420 1294 1423 1547 1545 1421 1548 1666
8 1547 1423 1293 1419 1667 1549 1422 1546
8 1434 1301 1427 1553 1546 1422 1549 1667
8 1423 1297 1424 1549 1548 1425 1550 1668
8 1551 1426 1550 1668 1427 1298 1424 1549
8 1551 1426 1298 1427 1671 1552 1428 1554
8 1562 1432 1554 1674 1434 1301 1427 1553
8 1431 1299 1429 1558 1554 1428 1555 1675
8 1431 1299 1430 1560 1558 1429 1557 1680
8 1560 1430 1300 1432 1683 1559 1433 1563
8 1561 1431 1554 1674 1684 1560 1432 1562
8 1685 1563 1432 1562 1565 1435 1301 1434
8 1435 1302 1436 1566 1563 1433 1564 1686
8 1437 1303 1438 1568 1565 1435 1566 1688
8 1438 1304 1439 1569 1566 1436 1567 1689
8 1440 1306 1441 1571 1568 1438 1569 1691
8 1441 1307 1442 1572 1569 1439 1570 1692
8 1443 1309 1444 1574 1571 1441 1572 1694
8 1310 1444 1572 1442 1445 1575 1695 1573
8 1446 1312 1447 1576 1574 1444 1575 1696
8 1486 1349 1485 1614 1579 1449 1577 1699
8 1451 1317 1449 1579 1581 1450 1578 1701
8 1487 1350 1486 1615 1582 1451 1579 1702
8 1581 1450 1580 1704 1453 1318 1452 1584
8 1582 1451 1581 1705 1454 1319 1453 1585
8 1584 1452 1583 1706 1456 1320 1455 1586
8 1585 1453 1584 1707 1457 1321 1456 1587
8 1587 1456 1586 1708 1458 1323 1459 1588
8 1633 1506 1589 1710 1507 1373 1461 1590
8 1464 1329 1461 1590 1594 1463 1589 1710
8 1468 1336 1462 1591 1595 1464 1590 1711
8 1634 1507 1590 1711 1508 1374 1462 1591
8 1473 1341 1463 1594 1603 1477 1593 1716
8 1469 1337 1464 1595 1599 1473 1594 1717
8 1471 1597 1467 1335 1600 1718 1596 1470
8 1718 1600 1496 1616 1596 1470 1360 1488
8 1336 1468 1597 1471 1472 1598 1719 1601
8 1469 1337 1473 1599 1598 1472 1602 1720
8 1722 1604 1501 1623 1600 1474 1367 1496
8 1475 1601 1471 1339 1604 1722 1600 1474
8 1602 1476 1605 1723 1472 1340 1475 1601
8 1476 1602 1724 1606 1341 1473 1603 1477
8 1483 1347 1478 1609 1612 1482 1608 1731
8 1495 1370 1504 1622 1609 1478 1608 1731
8 1618 1495 1609 1732 1494 1361 1479 1610
8 1484 1348 1479 1610 1613 1483 1609 1732
8 1486 1349 1482 1612 1614 1485 1611 1733
8 1613 1483 1612 1734 1487 1350 1486 1615
8 1489 1363 1496 1616 1617 1499 1623 1736
8 1491 1365 1499 1617 1619 1500 1626 1737
8 1618 1495 1361 1494 1738 1622 1497 1621
8 1739 1625 1498 1620 1619 1500 1366 1492
8 1621 1497 1362 1493 1740 1624 1498 1620
8 1742 1631 1504 1622 1624 1505 1371 1497
8 1743 1628 1502 1626 1623 1501 1368 1499
8 1744 1630 1505 1624 1625 1503 1372 1498
8 1745 1629 1503 1625 1626 1502 1369 1500
8 1520 1398 1528 1644 1633 1506 1632 1751
8 1637 1520 1633 1752 1512 1388 1507 1634
8 1635 1519 1643 1753 1510 1391 1522 1636
8 1657 1535 1643 1753 1534 1406 1519 1635
8 1515 1392 1522 1636 1639 1523 1646 1754
8 1517 1389 1521 1641 1637 1520 1644 1755
8 1524 1638 1756 1648 1393 1514 1639 1523
8 1640 1526 1395 1516 1756 1648 1524 1638
8 1642 1525 1396 1518 1757 1649 1526 1640
8 1758 1645 1521 1641 1642 1525 1396 1518
8 1646 1531 1400 1522 1760 1650 1527 1643
8 1535 1407 1536 1658 1643 1527 1650 1760
8 1521 1399 1529 1645 1644 1528 1651 1761
8 1647 1530 1652 1762 1525 1404 1529 1645
8 1401 1523 1648 1532 1531 1646 1763 1655
8 1525 1404 1533 1649 1647 1530 1654 1765
8 1533 1649 1766 1656 1403 1526 1648 1532
8 1662 1542 1658 1774 1539 1414 1535 1657
8 1542 1415 1543 1664 1658 1536 1659 1775
8 1660 1540 1663 1777 1538 1413 1541 1661
8 1545 1421 1548 1666 1660 1540 1663 1777
8 1662 1542 1414 1539 1778 1664 1541 1661
8 1664 1543 1416 1541 1779 1665 1544 1663
8 1548 1425 1550 1668 1663 1544 1665 1779
8 1547 1423 1549 1667 1666 1548 1668 1781
8 1670 1551 1668 1781 1553 1427 1549 1667
8 1551 1426 1552 1671 1668 1550 1669 1782
8 1670 1551 1427 1553 1784 1671 1554 1674
8 1675 1555 1672 1785 1554 1428 1552 1671
8 1678 1556 1673 1789 1558 1429 1555 1675
8 1561 1431 1558 1681 1674 1554 1675 1790
8 1794 1677 1556 1678 1680 1557 1429 1558
8 1560 1430 1559 1683 1680 1557 1679 1797
8 1561 1431 1560 1684 1681 1558 1680 1798
8 1563 1433 1564 1686 1683 1559 1682 1800
8 1684 1560 1432 1562 1801 1683 1563 1685
8 1565 1435 1566 1688 1685 1563 1686 1802
8 1566 1436 1567 1689 1686 1564 1687 1803
8 1568 1438 1569 1691 1688 1566 1689 1805
8 1569 1439 1570 1692 1689 1567 1690 1806
8 1571 1441 1572 1694 1691 1569 1692 1808
8 1442 1572 1692 1570 1573 1695 1809 1693
8 1574 1444 1575 1696 1694 1572 1695 1810
8 1614 1485 1592 1712 1699 1577 1697 1813
8 1579 1449 1577 1699 1701 1578 1698 1815
8 1615 1486 1614 1735 1702 1579 1699 1816
8 1701 1578 1700 1818 1581 1450 1580 1704
8 1582 1451 1579 1702 1705 1581 1701 1819
8 1704 1580 1703 1820 1584 1452 1583 1706
8 1705 1581 1704 1821 1585 1453 1584 1707
8 1707 1584 1706 1822 1587 1456 1586 1708
8 1710 1589 1506 1633 1824 1709 1632 1751
8 1594 1463 1589 1710 1716 1593 1709 1824
8 1752 1633 1710 1825 1634 1507 1590 1711
8 1595 1464 1590 1711 1717 1594 1710 1825
8 1830 1714 1592 1712 1733 1611 1485 1614
8 1603 1477 1593 1716 1725 1607 1715 1834
8 1599 1473 1594 1717 1721 1603 1716 1835
8 1837 1722 1623 1736 1718 1600 1496 1616
8 1719 1601 1722 1837 1597 1471 1600 1718
8 1602 1720 1598 1472 1723 1838 1719 1601
8 1720 1602 1473 1599 1839 1724 1603 1721
8 1723 1605 1726 1840 1601 1475 1604 1722
8 1840 1726 1628 1743 1722 1604 1501 1623
8 1724 1606 1727 1841 1602 1476 1605 1723
8 1725 1607 1728 1842 1603 1477 1606 1724
8 1612 1482 1608 1731 1733 1611 1730 1849
8 1741 1627 1730 1849 1622 1504 1608 1731
8 1613 1483 1609 1732 1734 1612 1731 1850
8 1618 1495 1622 1738 1732 1609 1731 1850
8 1615 1486 1612 1734 1735 1614 1733 1851
8 1852 1743 1626 1737 1736 1623 1499 1617
8 1853 1745 1625 1739 1737 1626 1500 1619
8 1855 1742 1622 1738 1740 1624 1497 1621
8 1856 1744 1624 1740 1739 1625 1498 1620
8 1741 1627 1504 1622 1857 1746 1631 1742
8 1742 1631 1505 1624 1858 1749 1630 1744
8 1859 1747 1629 1745 1743 1628 1502 1626
8 1860 1748 1630 1744 1745 1629 1503 1625
8 1644 1528 1651 1761 1751 1632 1750 1865
8 1637 1520 1644 1755 1752 1633 1751 1866
8 1754 1646 1522 1636 1867 1760 1643 1753
8 1657 1535 1658 1774 1753 1643 1760 1867
8 1639 1523 1646 1754 1756 1648 1763 1868
8 1641 1521 1645 1758 1755 1644 1761 1869
8 1757 1649 1526 1640 1870 1766 1648 1756
8 1642 1525 1649 1757 1759 1647 1765 1871
8 1759 1647 1762 1872 1642 1525 1645 1758
8 1760 1650 1767 1874 1646 1531 1655 1763
8 1658 1536 1659 1775 1760 1650 1767 1874
8 1762 1652 1768 1875 1645 1529 1651 1761
8 1764 1653 1769 1876 1647 1530 1652 1762
8 1656 1766 1877 1773 1532 1648 1763 1655
8 1771 1879 1765 1654 1653 1764 1647 1530
8 1533 1649 1765 1654 1656 1766 1880 1772
8 1662 1542 1664 1778 1774 1658 1775 1887
8 1664 1543 1665 1779 1775 1659 1776 1888
8 1778 1664 1541 1661 1890 1779 1663 1777
8 1666 1548 1668 1781 1777 1663 1779 1890
8 1782 1669 1780 1891 1668 1550 1665 1779
8 1670 1551 1671 1784 1781 1668 1782 1893
8 1671 1552 1672 1785 1782 1669 1783 1894
8 1790 1675 1785 1896 1674 1554 1671 1784
8 1675 1555 1673 1789 1785 1672 1786 1897
8 1792 1676 1788 1903 1678 1556 1673 1789
8 1795 1678 1789 1904 1681 1558 1675 1790
8 1792 1676 1556 1678 1906 1791 1677 1794
8 1680 1557 1679 1797 1794 1677 1793 1909
8 1910 1794 1678 1795 1798 1680 1558 1681
8 1683 1559 1682 1800 1797 1679 1796 1912
8 1684 1560 1683 1801 1798 1680 1797 1913
8 1686 1564 1687 1803 1800 1682 1799 1915
8 1685 1563 1686 1802 1801 1683 1800 1916
8 1688 1566 1689 1805 1802 1686 1803 1917
8 1689 1567 1690 1806 1803 1687 1804 1918
8 1691 1569 1692 1808 1805 1689 1806 1920
8 1692 1570 1693 1809 1806 1690 1807 1921
8 1694 1572 1695 1810 1808 1692 1809 1922
8 1829 1713 1811 1926 1712 1592 1697 1813
8 1813 1697 1812 1928 1699 1577 1698 1815
8 1735 1614 1712 1828 1816 1699 1813 1929
8 1815 1698 1814 1931 1701 1578 1700 1818
8 1702 1579 1699 1816 1819 1701 1815 1932
8 1818 1700 1817 1933 1704 1580 1703 1820
8 1819 1701 1818 1934 1705 1581 1704 1821
8 1821 1704 1820 1935 1707 1584 1706 1822
8 1824 1709 1632 1751 1937 1823 1750 1865
8 1716 1593 1709 1824 1834 1715 1823 1937
8 1825 1710 1633 1752 1938 1824 1751 1866
8 1717 1594 1710 1825 1835 1716 1824 1938
8 1945 1830 1712 1828 1851 1733 1614 1735
8 1830 1714 1831 1946 1712 1592 1713 1829
8 1947 1832 1714 1830 1849 1730 1611 1733
8 1843 1729 1607 1725 1950 1833 1715 1834
8 1721 1603 1716 1835 1836 1725 1834 1951
8 1836 1725 1842 1953 1721 1603 1724 1839
8 1723 1838 1719 1601 1840 1954 1837 1722
8 1954 1840 1743 1852 1837 1722 1623 1736
8 1724 1839 1720 1602 1841 1955 1838 1723
8 1841 1727 1844 1956 1723 1605 1726 1840
8 1956 1844 1747 1859 1840 1726 1628 1743
8 1728 1842 1724 1606 1845 1957 1841 1727
8 1725 1607 1729 1843 1842 1728 1846 1958
8 1741 1627 1746 1857 1849 1730 1848 1965
8 1734 1612 1731 1850 1851 1733 1849 1966
8 1854 1741 1849 1966 1738 1622 1731 1850
8 1967 1859 1745 1853 1852 1743 1626 1737
8 1968 1860 1744 1856 1853 1745 1625 1739
8 1854 1741 1622 1738 1969 1857 1742 1855
8 1855 1742 1624 1740 1970 1858 1744 1856
8 1857 1746 1631 1742 1971 1861 1749 1858
8 1858 1749 1630 1744 1972 1863 1748 1860
8 1859 1747 1862 1973 1745 1629 1748 1860
8 1875 1768 1864 1977 1761 1651 1750 1865
8 1755 1644 1761 1869 1866 1751 1865 1978
8 1867 1760 1874 1979 1754 1646 1763 1868
8 1774 1658 1775 1887 1867 1760 1874 1979
8 1870 1766 1648 1756 1980 1877 1763 1868
8 1872 1762 1875 1981 1758 1645 1761 1869
8 1757 1649 1766 1870 1871 1765 1880 1982
8 1983 1879 1764 1873 1871 1765 1647 1759
8 1873 1764 1876 1984 1759 1647 1762 1872
8 1877 1773 1655 1763 1986 1881 1767 1874
8 1775 1659 1776 1888 1874 1767 1881 1986
8 1876 1769 1882 1987 1762 1652 1768 1875
8 1878 1770 1883 1988 1764 1653 1769 1876
8 1880 1772 1656 1766 1989 1886 1773 1877
8 1878 1770 1653 1764 1990 1884 1771 1879
8 1765 1654 1772 1880 1879 1771 1885 1991
8 1778 1664 1779 1890 1887 1775 1888 1997
8 1998 1889 1776 1888 1891 1780 1665 1779
8 1893 1782 1891 2000 1781 1668 1779 1890
8 1894 1783 1892 2001 1782 1669 1780 1891
8 1784 1671 1785 1896 1893 1782 1894 2003
8 1897 1786 1895 2004 1785 1672 1783 1894
8 1790 1675 1789 1904 1896 1785 1897 2006
8 1901 1787 1898 2007 1789 1673 1786 1897
8 1903 1788 1900 2013 1789 1673 1787 1901
8 1792 1676 1791 1906 1903 1788 1902 2016
8 1907 1792 1903 2017 1795 1678 1789 1904
8 1906 1791 1677 1794 2019 1905 1793 1909
8 1907 1792 1678 1795 2020 1906 1794 1910
8 1797 1679 1796 1912 1909 1793 1908 2022
8 1798 1680 1797 1913 1910 1794 1909 2023
8 1800 1682 1799 1915 1912 1796 1911 2025
8 1801 1683 1800 1916 1913 1797 1912 2026
8 1803 1687 1804 1918 1915 1799 1914 2028
8 1802 1686 1803 1917 1916 1800 1915 2029
8 1805 1689 1806 1920 1917 1803 1918 2030
8 1806 1690 1807 1921 1918 1804 1919 2031
8 1808 1692 1809 1922 1920 1806 1921 2032
8 1939 1826 1924 2037 1829 1713 1811 1926
8 1926 1811 1925 2039 1813 1697 1812 1928
8 1944 1829 1926 2040 1828 1712 1813 1929
8 1928 1812 1927 2042 1815 1698 1814 1931
8 1929 1813 1928 2043 1816 1699 1815 1932
8 1931 1814 1930 2044 1818 1700 1817 1933
8 1932 1815 1931 2045 1819 1701 1818 1934
8 1934 1818 1933 2046 1821 1704 1820 1935
8 2048 1936 1823 1937 1977 1864 1750 1865
8 1950 1833 1715 1834 2048 1936 1823 1937
8 1938 1824 1751 1866 2049 1937 1865 1978
8 1835 1716 1824 1938 1951 1834 1937 2049
8 1939 1826 1713 1829 2053 1942 1831 1946
8 1940 1827 1923 2035 2053 1942 1826 1939
8 1945 1830 1946 2058 1828 1712 1829 1944
8 2059 1947 1830 1945 1966 1849 1733 1851
8 1947 1832 1730 1849 2060 1948 1848 1965
8 1947 1832 1948 2060 1830 1714 1831 1946
8 1959 1847 1729 1843 2063 1949 1833 1950
8 1952 1843 1725 1836 2064 1950 1834 1951
8 1836 1725 1843 1952 1953 1842 1958 2066
8 1953 1842 1957 2067 1839 1724 1841 1955
8 1841 1955 1838 1723 1956 2068 1954 1840
8 2068 1956 1859 1967 1954 1840 1743 1852
8 1956 1844 1960 2069 1859 1747 1862 1973
8 1845 1957 1841 1727 1960 2069 1956 1844
8 1728 1842 1957 1845 1846 1958 2071 1961
8 1962 2072 1959 1847 1846 1958 1843 1729
8 1971 1861 1964 2077 1857 1746 1848 1965
8 1854 1741 1857 1969 1966 1849 1965 2078
8 1967 1859 1973 2079 1853 1745 1860 1968
8 1970 1858 1744 1856 2080 1972 1860 1968
8 1969 1857 1742 1855 2081 1971 1858 1970
8 1971 1861 1749 1858 2082 1974 1863 1972
8 1973 1862 1975 2083 1860 1748 1863 1972
8 1987 1882 1976 2086 1875 1768 1864 1977
8 1981 1875 1977 2087 1869 1761 1865 1978
8 1980 1877 1763 1868 2088 1986 1874 1979
8 1887 1775 1888 1997 1979 1874 1986 2088
8 1880 1982 2089 1989 1766 1870 1980 1877
8 1984 1876 1987 2090 1872 1762 1875 1981
8 1765 1871 1983 1879 1880 1982 2091 1991
8 1985 1878 1764 1873 2092 1990 1879 1983
8 1985 1878 1988 2093 1873 1764 1876 1984
8 2094 1992 1881 1986 1998 1889 1776 1888
8 1986 1881 1992 2094 1877 1773 1886 1989
8 1988 1883 1993 2095 1876 1769 1882 1987
8 1878 1770 1884 1990 1988 1883 1994 2096
8 1991 1885 1772 1880 2097 1996 1886 1989
8 1879 1771 1885 1991 1990 1884 1995 2098
8 2103 1998 1888 1997 2000 1891 1779 1890
8 2104 1999 1889 1998 2001 1892 1780 1891
8 2003 1894 2001 2106 1893 1782 1891 2000
8 2004 1895 2002 2107 1894 1783 1892 2001
8 2006 1897 2004 2109 1896 1785 1894 2003
8 2007 1898 2005 2110 1897 1786 1895 2004
8 2014 1901 2007 2112 1904 1789 1897 2006
8 2011 1899 2008 2113 1901 1787 1898 2007
8 2119 2010 1899 2011 2013 1900 1787 1901
8 2016 1902 2012 2122 1903 1788 1900 2013
8 2017 1903 2013 2123 1904 1789 1901 2014
8 1906 1791 1905 2019 2016 1902 2015 2125
8 1907 1792 1906 2020 2017 1903 2016 2126
8 1909 1793 1908 2022 2019 1905 2018 2128
8 2020 1906 1794 1910 2129 2019 1909 2023
8 1912 1796 1911 2025 2022 1908 2021 2131
8 1913 1797 1912 2026 2023 1909 2022 2132
8 1915 1799 1914 2028 2025 1911 2024 2134
8 1916 1800 1915 2029 2026 1912 2025 2135
8 1918 1804 1919 2031 2028 1914 2027 2136
8 1917 1803 1918 2030 2029 1915 2028 2137
8 1920 1806 1921 2032 2030 1918 2031 2138
8 1940 1827 1941 2054 2035 1923 2033 2140
8 2035 1923 2034 2143 1939 1826 1924 2037
8 2037 1924 2036 2146 1926 1811 1925 2039
8 2051 1939 2037 2147 1944 1829 1926 2040
8 2039 1925 2038 2149 1928 1812 1927 2042
8 2040 1926 2039 2150 1929 1813 1928 2043
8 2042 1927 2041 2151 1931 1814 1930 2044
8 2043 1928 2042 2152 1932 1815 1931 2045
8 2045 1931 2044 2153 1934 1818 1933 2046
8 2155 2047 1936 2048 2086 1976 1864 1977
8 2063 1949 1833 1950 2155 2047 1936 2048
8 2156 2048 1937 2049 2087 1977 1865 1978
8 2064 1950 1834 1951 2156 2048 1937 2049
8 2051 1939 1829 1944 2160 2053 1946 2058
8 2052 1940 2035 2144 2160 2053 1939 2051
8 2053 1942 1831 1946 2163 2057 1948 2060
8 2055 1943 1827 1940 2163 2057 1942 2053
8 2055 1943 2056 2164 1940 1827 1941 2054
8 2059 1947 1849 1966 2167 2060 1965 2078
8 2059 1947 2060 2167 1945 1830 1946 2058
8 2077 1964 2061 2168 1965 1848 1948 2060
8 2070 1963 1847 1959 2170 2062 1949 2063
8 2065 1959 1843 1952 2171 2063 1950 2064
8 2173 2072 1958 2066 2065 1959 1843 1952
8 1953 1842 1958 2066 2067 1957 2071 2174
8 2068 1956 2069 2175 1967 1859 1973 2079
8 2067 1957 2069 2175 1955 1841 1956 2068
8 1845 1957 2069 1960 1961 2071 2176 2073
8 2069 1960 2073 2176 1973 1862 1975 2083
8 2070 1963 2075 2177 1959 1847 1962 2072
8 1846 1958 2071 1961 1962 2072 2178 2074
8 2077 1964 1861 1971 2182 2076 1974 2082
8 2081 1971 2077 2183 1969 1857 1965 2078
8 2079 1973 2083 2184 1968 1860 1972 2080
8 2081 1971 1858 1970 2185 2082 1972 2080
8 2083 1975 2084 2186 1972 1863 1974 2082
8 2086 1976 1882 1987 2189 2085 1993 2095
8 2090 1987 2086 2190 1981 1875 1977 2087
8 2191 2094 1986 2088 2103 1998 1888 1997
8 2088 1986 2094 2191 1980 1877 1989 2089
8 1991 2091 2192 2097 1880 1982 2089 1989
8 2093 1988 2095 2193 1984 1876 1987 2090
8 1879 1983 2092 1990 1991 2091 2194 2098
8 1985 1878 1990 2092 2093 1988 2096 2195
8 2097 1996 1886 1989 2196 2099 1992 2094
8 2196 2099 1992 2094 2104 1999 1889 1998
8 1994 2096 1988 1883 2100 2197 2095 1993
8 2096 1994 1884 1990 2198 2101 1995 2098
8 1995 2098 2199 2102 1885 1991 2097 1996
8 2203 2104 1998 2103 2106 2001 1891 2000
8 2107 2002 2105 2204 2001 1892 1999 2104
8 2109 2004 2107 2206 2003 1894 2001 2106
8 2110 2005 2108 2207 2004 1895 2002 2107
8 2112 2007 2110 2209 2006 1897 2004 2109
8 2113 2008 2111 2210 2007 1898 2005 2110
8 2120 2011 2113 2212 2014 1901 2007 2112
8 2117 2009 2114 2213 2011 1899 2008 2113
8 2219 2116 2009 2117 2119 2010 1899 2011
8 2222 2118 2010 2119 2122 2012 1900 2013
8 2223 2119 2011 2120 2123 2013 1901 2014
8 2016 1902 2015 2125 2122 2012 2121 2225
8 2126 2016 2122 2226 2017 1903 2013 2123
8 2019 1905 2018 2128 2125 2015 2124 2228
8 2020 1906 2019 2129 2126 2016 2125 2229
8 2022 1908 2021 2131 2128 2018 2127 2231
8 2023 1909 2022 2132 2129 2019 2128 2232
8 2025 1911 2024 2134 2131 2021 2130 2234
8 2026 1912 2025 2135 2132 2022 2131 2235
8 1914 2028 2134 2024 2027 2136 2236 2133
8 2029 1915 2028 2137 2135 2025 2134 2237
8 2030 1918 2031 2138 2137 2028 2136 2238
8 2157 2050 2139 2240 2054 1941 2033 2140
8 2052 1940 2054 2161 2144 2035 2140 2242
8 2140 2033 2141 2243 2035 1923 2034 2143
8 2143 2034 2142 2246 2037 1924 2036 2146
8 2144 2035 2143 2247 2051 1939 2037 2147
8 2146 2036 2145 2249 2039 1925 2038 2149
8 2147 2037 2146 2250 2040 1926 2039 2150
8 2149 2038 2148 2251 2042 1927 2041 2151
8 2150 2039 2149 2252 2043 1928 2042 2152
8 2152 2042 2151 2253 2045 1931 2044 2153
8 2255 2154 2047 2155 2189 2085 1976 2086
8 2170 2062 1949 2063 2255 2154 2047 2155
8 2256 2155 2048 2156 2190 2086 1977 2087
8 2171 2063 1950 2064 2256 2155 2048 2156
8 2258 2159 2050 2157 2164 2056 1941 2054
8 2160 2053 1946 2058 2262 2163 2060 2167
8 2162 2055 1940 2052 2262 2163 2053 2160
8 2162 2055 2164 2263 2052 1940 2054 2161
8 2163 2057 1948 2060 2264 2165 2061 2168
8 2055 1943 2057 2163 2164 2056 2165 2264
8 2182 2076 2166 2268 2077 1964 2061 2168
8 2183 2077 2168 2269 2078 1965 2060 2167
8 2070 1963 2062 2170 2177 2075 2169 2271
8 2172 2070 1959 2065 2272 2170 2063 2171
8 2172 2070 2177 2273 2065 1959 2072 2173
8 2066 1958 2072 2173 2174 2071 2178 2274
8 2067 1957 2071 2174 2175 2069 2176 2275
8 2175 2069 2176 2275 2079 1973 2083 2184
8 2071 1961 2074 2178 2176 2073 2179 2276
8 2176 2073 2179 2276 2083 1975 2084 2186
8 2072 1962 2075 2177 2178 2074 2180 2277
8 2182 2076 1974 2082 2280 2181 2084 2186
8 2183 2077 1971 2081 2281 2182 2082 2185
8 2184 2083 2186 2282 2080 1972 2082 2185
8 2189 2085 1993 2095 2285 2188 2100 2197
8 2190 2086 1987 2090 2286 2189 2095 2193
8 2192 2097 1989 2089 2287 2196 2094 2191
8 2287 2196 2094 2191 2203 2104 1998 2103
8 2194 2098 1991 2091 2288 2199 2097 2192
8 2195 2096 2197 2289 2093 1988 2095 2193
8 2096 2195 2290 2198 1990 2092 2194 2098
8 2097 1996 2099 2196 2199 2102 2200 2291
8 2196 2099 1999 2104 2291 2200 2105 2204
8 2100 2197 2292 2201 1994 2096 2198 2101
8 1995 2098 2198 2101 2102 2199 2293 2202
8 2206 2107 2204 2296 2106 2001 2104 2203
8 2207 2108 2205 2297 2107 2002 2105 2204
8 2209 2110 2207 2299 2109 2004 2107 2206
8 2210 2111 2208 2300 2110 2005 2108 2207
8 2212 2113 2210 2302 2112 2007 2110 2209
8 2213 2114 2211 2303 2113 2008 2111 2210
8 2220 2117 2213 2305 2120 2011 2113 2212
8 2216 2115 2214 2306 2117 2009 2114 2213
8 2216 2115 2009 2117 2311 2217 2116 2219
8 2219 2116 2010 2119 2314 2218 2118 2222
8 2315 2219 2117 2220 2223 2119 2011 2120
8 2122 2012 2121 2225 2222 2118 2221 2317
8 2318 2222 2119 2223 2226 2122 2013 2123
8 2125 2015 2124 2228 2225 2121 2224 2320
8 2126 2016 2125 2229 2226 2122 2225 2321
8 2128 2018 2127 2231 2228 2124 2227 2323
8 2129 2019 2128 2232 2229 2125 2228 2324
8 2131 2021 2130 2234 2231 2127 2230 2326
8 2132 2022 2131 2235 2232 2128 2231 2327
8 2134 2024 2133 2236 2234 2130 2233 2328
8 2135 2025 2134 2237 2235 2131 2234 2329
8 2137 2028 2136 2238 2237 2134 2236 2330
8 2157 2050 2158 2259 2240 2139 2239 2332
8 2257 2157 2240 2334 2161 2054 2140 2242
8 2240 2139 2241 2335 2140 2033 2141 2243
8 2242 2140 2243 2337 2144 2035 2143 2247
8 2243 2141 2244 2338 2143 2034 2142 2246
8 2246 2142 2245 2341 2146 2036 2145 2249
8 2247 2143 2246 2342 2147 2037 2146 2250
8 2249 2145 2248 2343 2149 2038 2148 2251
8 2250 2146 2249 2344 2150 2039 2149 2252
8 2252 2149 2251 2345 2152 2042 2151 2253
8 2169 2271 2347 2254 2062 2170 2255 2154
8 2189 2085 2188 2285 2255 2154 2254 2347
8 2348 2255 2155 2256 2286 2189 2086 2190
8 2272 2170 2063 2171 2348 2255 2155 2256
8 2349 2258 2157 2257 2263 2164 2054 2161
8 2258 2159 2261 2351 2157 2050 2158 2259
8 2258 2159 2056 2164 2351 2261 2165 2264
8 2262 2163 2060 2167 2355 2264 2168 2269
8 2162 2055 2163 2262 2263 2164 2264 2355
8 2357 2266 2165 2264 2268 2166 2061 2168
8 2268 2166 2076 2182 2361 2267 2181 2280
8 2281 2182 2268 2362 2183 2077 2168 2269
8 2271 2169 2270 2364 2177 2075 2180 2277
8 2172 2070 2170 2272 2273 2177 2271 2365
8 2072 2173 2274 2178 2177 2273 2366 2277
8 2071 2174 2275 2176 2178 2274 2367 2276
8 2275 2176 2276 2367 2184 2083 2186 2282
8 2283 2187 2084 2186 2368 2278 2179 2276
8 2178 2074 2180 2277 2276 2179 2278 2368
8 2283 2187 2279 2370 2186 2084 2181 2280
8 2281 2182 2082 2185 2371 2280 2186 2282
8 2188 2285 2374 2284 2100 2197 2292 2201
8 2286 2189 2095 2193 2375 2285 2197 2289
8 2192 2097 2196 2287 2288 2199 2291 2376
8 2287 2196 2104 2203 2376 2291 2204 2296
8 2194 2098 2199 2288 2290 2198 2293 2377
8 2289 2197 2096 2195 2378 2292 2198 2290
8 2291 2200 2105 2204 2379 2294 2205 2297
8 2199 2102 2200 2291 2293 2202 2294 2379
8 2198 2101 2202 2293 2292 2201 2295 2380
8 2299 2207 2297 2383 2206 2107 2204 2296
8 2300 2208 2298 2384 2207 2108 2205 2297
8 2302 2210 2300 2386 2209 2110 2207 2299
8 2303 2211 2301 2387 2210 2111 2208 2300
8 2305 2213 2303 2389 2212 2113 2210 2302
8 2306 2214 2304 2390 2213 2114 2211 2303
8 2310 2216 2306 2392 2220 2117 2213 2305
8 2308 2215 2307 2393 2216 2115 2214 2306
8 2308 2215 2115 2216 2396 2309 2217 2311
8 2310 2216 2117 2220 2398 2311 2219 2315
8 2311 2217 2116 2219 2399 2312 2218 2314
8 2314 2218 2118 2222 2402 2313 2221 2317
8 2315 2219 2119 2223 2403 2314 2222 2318
8 2225 2121 2224 2320 2317 2221 2316 2405
8 2226 2122 2225 2321 2318 2222 2317 2406
8 2228 2124 2227 2323 2320 2224 2319 2408
8 2229 2125 2228 2324 2321 2225 2320 2409
8 2231 2127 2230 2326 2323 2227 2322 2411
8 2232 2128 2231 2327 2324 2228 2323 2412
8 2234 2130 2233 2328 2326 2230 2325 2413
8 2235 2131 2234 2329 2327 2231 2326 2414
8 2237 2134 2236 2330 2329 2234 2328 2415
8 2259 2158 2260 2352 2332 2239 2331 2417
8 2257 2157 2259 2350 2334 2240 2332 2419
8 2240 2139 2239 2332 2335 2241 2333 2420
8 2334 2240 2335 2422 2242 2140 2243 2337
8 2335 2241 2336 2423 2243 2141 2244 2338
8 2337 2243 2338 2425 2247 2143 2246 2342
8 2338 2244 2339 2426 2246 2142 2245 2341
8 2341 2245 2340 2428 2249 2145 2248 2343
8 2342 2246 2341 2429 2250 2146 2249 2344
8 2344 2249 2343 2430 2252 2149 2251 2345
8 2188 2285 2347 2254 2284 2374 2432 2346
8 2347 2254 2346 2432 2271 2169 2270 2364
8 2365 2271 2170 2272 2433 2347 2255 2348
8 2286 2189 2285 2375 2348 2255 2347 2433
8 2349 2258 2351 2435 2257 2157 2259 2350
8 2349 2258 2164 2263 2435 2351 2264 2355
8 2259 2158 2261 2351 2352 2260 2354 2437
8 2356 2265 2354 2437 2264 2165 2261 2351
8 2441 2357 2264 2355 2362 2268 2168 2269
8 2356 2265 2165 2264 2442 2358 2266 2357
8 2443 2359 2266 2357 2361 2267 2166 2268
8 2370 2279 2360 2446 2280 2181 2267 2361
8 2362 2268 2182 2281 2447 2361 2280 2371
8 2180 2277 2368 2278 2270 2364 2449 2363
8 2271 2365 2273 2177 2364 2450 2366 2277
8 2372 2283 2186 2282 2451 2368 2276 2367
8 2178 2274 2367 2276 2277 2366 2451 2368
8 2283 2187 2278 2368 2370 2279 2369 2452
8 2372 2283 2370 2453 2282 2186 2280 2371
8 2284 2374 2455 2373 2201 2292 2380 2295
8 2375 2285 2197 2289 2456 2374 2292 2378
8 2376 2291 2204 2296 2457 2379 2297 2383
8 2288 2199 2291 2376 2377 2293 2379 2457
8 2198 2290 2378 2292 2293 2377 2458 2380
8 2293 2202 2294 2379 2380 2295 2381 2459
8 2384 2298 2381 2459 2297 2205 2294 2379
8 2386 2300 2384 2463 2299 2207 2297 2383
8 2387 2301 2385 2464 2300 2208 2298 2384
8 2389 2303 2387 2466 2302 2210 2300 2386
8 2390 2304 2388 2467 2303 2211 2301 2387
8 2392 2306 2390 2469 2305 2213 2303 2389
8 2393 2307 2391 2470 2306 2214 2304 2390
8 2395 2308 2393 2472 2310 2216 2306 2392
8 2308 2215 2309 2396 2393 2307 2394 2473
8 2395 2308 2216 2310 2475 2396 2311 2398
8 2396 2309 2217 2311 2476 2397 2312 2399
8 2398 2311 2219 2315 2478 2399 2314 2403
8 2399 2312 2218 2314 2479 2400 2313 2402
8 2317 2221 2316 2405 2402 2313 2401 2482
8 2403 2314 2222 2318 2483 2402 2317 2406
8 2320 2224 2319 2408 2405 2316 2404 2485
8 2321 2225 2320 2409 2406 2317 2405 2486
8 2323 2227 2322 2411 2408 2319 2407 2488
8 2324 2228 2323 2412 2409 2320 2408 2489
8 2326 2230 2325 2413 2411 2322 2410 2490
8 2327 2231 2326 2414 2412 2323 2411 2491
8 2329 2234 2328 2415 2414 2326 2413 2492
8 2417 2331 2260 2352 2494 2416 2353 2438
8 2350 2259 2352 2436 2419 2332 2417 2496
8 2332 2239 2331 2417 2420 2333 2418 2497
8 2334 2240 2332 2419 2422 2335 2420 2499
8 2420 2333 2421 2500 2335 2241 2336 2423
8 2422 2335 2423 2502 2337 2243 2338 2425
8 2423 2336 2424 2503 2338 2244 2339 2426
8 2425 2338 2426 2505 2342 2246 2341 2429
8 2426 2339 2427 2506 2341 2245 2340 2428
8 2429 2341 2428 2507 2344 2249 2343 2430
8 2432 2346 2284 2374 2509 2431 2373 2455
8 2432 2346 2431 2509 2364 2270 2363 2449
8 2375 2285 2374 2456 2433 2347 2432 2510
8 2347 2433 2365 2271 2432 2510 2450 2364
8 2350 2259 2351 2435 2436 2352 2437 2514
8 2440 2356 2437 2514 2355 2264 2351 2435
8 2352 2260 2354 2437 2438 2353 2439 2516
8 2356 2265 2358 2442 2437 2354 2439 2516
8 2440 2356 2264 2355 2518 2442 2357 2441
8 2519 2443 2357 2441 2447 2361 2268 2362
8 2443 2359 2444 2520 2357 2266 2358 2442
8 2443 2359 2267 2361 2520 2444 2360 2446
8 2446 2360 2279 2370 2523 2445 2369 2452
8 2453 2370 2446 2524 2371 2280 2361 2447
8 2449 2363 2448 2525 2368 2278 2369 2452
8 2366 2277 2364 2450 2451 2368 2449 2526
8 2372 2283 2368 2451 2453 2370 2452 2527
8 2455 2373 2295 2380 2529 2454 2382 2460
8 2456 2374 2292 2378 2530 2455 2380 2458
8 2377 2293 2379 2457 2458 2380 2459 2531
8 2463 2384 2459 2531 2383 2297 2379 2457
8 2533 2461 2382 2460 2459 2381 2295 2380
8 2464 2385 2461 2533 2384 2298 2381 2459
8 2466 2387 2464 2537 2386 2300 2384 2463
8 2467 2388 2465 2538 2387 2301 2385 2464
8 2469 2390 2467 2540 2389 2303 2387 2466
8 2470 2391 2468 2541 2390 2304 2388 2467
8 2472 2393 2470 2543 2392 2306 2390 2469
8 2393 2307 2394 2473 2470 2391 2471 2544
8 2395 2308 2396 2475 2472 2393 2473 2546
8 2396 2309 2397 2476 2473 2394 2474 2547
8 2475 2396 2311 2398 2549 2476 2399 2478
8 2476 2397 2312 2399 2550 2477 2400 2479
8 2478 2399 2314 2403 2552 2479 2402 2483
8 2479 2400 2313 2402 2553 2480 2401 2482
8 2405 2316 2404 2485 2482 2401 2481 2556
8 2406 2317 2405 2486 2483 2402 2482 2557
8 2408 2319 2407 2488 2485 2404 2484 2559
8 2409 2320 2408 2489 2486 2405 2485 2560
8 2411 2322 2410 2490 2488 2407 2487 2561
8 2412 2323 2411 2491 2489 2408 2488 2562
8 2414 2326 2413 2492 2491 2411 2490 2563
8 2513 2434 2493 2565 2438 2353 2416 2494
8 2496 2417 2352 2436 2567 2494 2438 2515
8 2494 2416 2495 2568 2417 2331 2418 2497
8 2419 2332 2417 2496 2499 2420 2497 2570
8 2497 2418 2498 2571 2420 2333 2421 2500
8 2499 2420 2500 2573 2422 2335 2423 2502
8 2500 2421 2501 2574 2423 2336 2424 2503
8 2502 2423 2503 2576 2425 2338 2426 2505
8 2503 2424 2504 2577 2426 2339 2427 2506
8 2505 2426 2506 2578 2429 2341 2428 2507
8 2509 2431 2373 2455 2580 2508 2454 2529
8 2509 2431 2508 2580 2449 2363 2448 2525
8 2432 2510 2581 2509 2374 2456 2530 2455
8 2432 2510 2450 2364 2509 2581 2526 2449
8 2583 2511 2434 2513 2516 2439 2353 2438
8 2436 2352 2437 2514 2515 2438 2516 2588
8 2440 2356 2442 2518 2514 2437 2516 2588
8 2442 2358 2444 2520 2516 2439 2517 2589
8 2519 2443 2520 2591 2441 2357 2442 2518
8 2519 2443 2361 2447 2591 2520 2446 2524
8 2446 2360 2445 2523 2520 2444 2521 2592
8 2525 2448 2522 2593 2452 2369 2445 2523
8 2524 2446 2370 2453 2594 2523 2452 2527
8 2526 2449 2525 2595 2451 2368 2452 2527
8 2534 2462 2528 2597 2460 2382 2454 2529
8 2530 2455 2380 2458 2598 2529 2460 2532
8 2599 2533 2460 2532 2531 2459 2380 2458
8 2537 2464 2533 2599 2463 2384 2459 2531
8 2534 2462 2382 2460 2601 2535 2461 2533
8 2538 2465 2535 2601 2464 2385 2461 2533
8 2540 2467 2538 2604 2466 2387 2464 2537
8 2541 2468 2539 2605 2467 2388 2465 2538
8 2543 2470 2541 2607 2469 2390 2467 2540
8 2470 2391 2471 2544 2541 2468 2542 2608
8 2472 2393 2473 2546 2543 2470 2544 2610
8 2473 2394 2474 2547 2544 2471 2545 2611
8 2475 2396 2476 2549 2546 2473 2547 2613
8 2476 2397 2477 2550 2547 2474 2548 2614
8 2549 2476 2399 2478 2616 2550 2479 2552
8 2479 2400 2480 2553 2550 2477 2551 2617
8 2552 2479 2402 2483 2619 2553 2482 2557
8 2482 2401 2481 2556 2553 2480 2554 2620
8 2485 2404 2484 2559 2556 2481 2555 2623
8 2486 2405 2485 2560 2557 2482 2556 2624
8 2488 2407 2487 2561 2559 2484 2558 2625
8 2489 2408 2488 2562 2560 2485 2559 2626
8 2491 2411 2490 2563 2562 2488 2561 2627
8 2513 2434 2512 2585 2565 2493 2564 2630
8 2586 2513 2565 2632 2515 2438 2494 2567
8 2565 2493 2566 2633 2494 2416 2495 2568
8 2567 2494 2568 2635 2496 2417 2497 2570
8 2568 2495 2569 2636 2497 2418 2498 2571
8 2570 2497 2571 2638 2499 2420 2500 2573
8 2571 2498 2572 2639 2500 2421 2501 2574
8 2573 2500 2574 2641 2502 2423 2503 2576
8 2574 2501 2575 2642 2503 2424 2504 2577
8 2576 2503 2577 2643 2505 2426 2506 2578
8 2597 2528 2579 2645 2529 2454 2508 2580
8 2580 2508 2579 2645 2525 2448 2522 2593
8 2581 2509 2455 2530 2646 2580 2529 2598
8 2581 2509 2580 2646 2526 2449 2525 2595
8 2583 2511 2582 2648 2513 2434 2512 2585
8 2583 2511 2439 2516 2648 2582 2517 2589
8 2649 2583 2513 2586 2588 2516 2438 2515
8 2589 2517 2444 2520 2653 2587 2521 2592
8 2518 2442 2520 2591 2588 2516 2589 2654
8 2593 2522 2590 2655 2523 2445 2521 2592
8 2524 2446 2523 2594 2591 2520 2592 2656
8 2595 2525 2593 2657 2527 2452 2523 2594
8 2602 2536 2596 2659 2534 2462 2528 2597
8 2600 2534 2597 2660 2532 2460 2529 2598
8 2600 2534 2460 2532 2661 2601 2533 2599
8 2604 2538 2601 2661 2537 2464 2533 2599
8 2602 2536 2462 2534 2663 2603 2535 2601
8 2601 2535 2465 2538 2663 2603 2539 2605
8 2607 2541 2605 2665 2540 2467 2538 2604
8 2608 2542 2606 2666 2541 2468 2539 2605
8 2543 2470 2544 2610 2607 2541 2608 2668
8 2544 2471 2545 2611 2608 2542 2609 2669
8 2546 2473 2547 2613 2610 2544 2611 2671
8 2547 2474 2548 2614 2611 2545 2612 2672
8 2549 2476 2550 2616 2613 2547 2614 2674
8 2550 2477 2551 2617 2614 2548 2615 2675
8 2552 2479 2553 2619 2616 2550 2617 2677
8 2553 2480 2554 2620 2617 2551 2618 2678
8 2557 2482 2556 2624 2619 2553 2620 2680
8 2556 2481 2555 2623 2620 2554 2621 2681
8 2559 2484 2558 2625 2623 2555 2622 2683
8 2560 2485 2559 2626 2624 2556 2623 2684
8 2562 2488 2561 2627 2626 2559 2625 2685
8 2690 2629 2564 2630 2650 2584 2512 2585
8 2586 2513 2585 2651 2632 2565 2630 2691
8 2630 2564 2631 2692 2565 2493 2566 2633
8 2632 2565 2633 2694 2567 2494 2568 2635
8 2633 2566 2634 2695 2568 2495 2569 2636
8 2635 2568 2636 2697 2570 2497 2571 2638
8 2636 2569 2637 2698 2571 2498 2572 2639
8 2638 2571 2639 2700 2573 2500 2574 2641
8 2639 2572 2640 2701 2574 2501 2575 2642
8 2641 2574 2642 2702 2576 2503 2577 2643
8 2597 2528 2596 2659 2645 2579 2644 2704
8 2645 2579 2644 2704 2593 2522 2590 2655
8 2660 2597 2645 2705 2598 2529 2580 2646
8 2646 2580 2645 2705 2595 2525 2593 2657
8 2650 2584 2512 2585 2707 2647 2582 2648
8 2648 2582 2517 2589 2707 2647 2587 2653
8 2649 2583 2648 2708 2586 2513 2585 2651
8 2649 2583 2516 2588 2708 2648 2589 2654
8 2655 2590 2652 2710 2592 2521 2587 2653
8 2654 2589 2520 2591 2711 2653 2592 2656
8 2657 2593 2655 2712 2594 2523 2592 2656
8 2602 2536 2603 2663 2659 2596 2658 2714
8 2662 2602 2659 2715 2600 2534 2597 2660
8 2662 2602 2534 2600 2717 2663 2601 2661
8 2661 2601 2538 2604 2717 2663 2605 2665
8 2666 2606 2664 2718 2605 2539 2603 2663
8 2668 2608 2666 2720 2607 2541 2605 2665
8 2608 2542 2609 2669 2666 2606 2667 2721
8 2610 2544 2611 2671 2668 2608 2669 2723
8 2611 2545 2612 2672 2669 2609 2670 2724
8 2613 2547 2614 2674 2671 2611 2672 2726
8 2614 2548 2615 2675 2672 2612 2673 2727
8 2616 2550 2617 2677 2674 2614 2675 2729
8 2617 2551 2618 2678 2675 2615 2676 2730
8 2619 2553 2620 2680 2677 2617 2678 2732
8 2620 2554 2621 2681 2678 2618 2679 2733
8 2624 2556 2623 2684 2680 2620 2681 2735
8 2681 2621 2555 2623 2736 2682 2622 2683
8 2626 2559 2625 2685 2684 2623 2683 2737
8 2688 2628 2584 2650 2740 2686 2647 2707
8 2688 2628 2687 2742 2650 2584 2629 2690
8 2690 2629 2689 2745 2630 2564 2631 2692
8 2746 2690 2630 2691 2709 2650 2585 2651
8 2691 2630 2692 2747 2632 2565 2633 2694
8 2692 2631 2693 2748 2633 2566 2634 2695
8 2694 2633 2695 2750 2635 2568 2636 2697
8 2695 2634 2696 2751 2636 2569 2637 2698
8 2697 2636 2698 2753 2638 2571 2639 2700
8 2698 2637 2699 2754 2639 2572 2640 2701
8 2700 2639 2701 2755 2641 2574 2642 2702
8 2659 2596 2658 2714 2704 2644 2703 2757
8 2704 2644 2703 2757 2655 2590 2652 2710
8 2660 2597 2659 2715 2705 2645 2704 2758
8 2705 2645 2704 2758 2657 2593 2655 2712
8 2759 2706 2647 2707 2710 2652 2587 2653
8 2709 2650 2585 2651 2760 2707 2648 2708
8 2708 2648 2589 2654 2760 2707 2653 2711
8 2712 2655 2710 2761 2656 2592 2653 2711
8 2763 2713 2658 2714 2718 2664 2603 2663
8 2662 2602 2663 2717 2715 2659 2714 2764
8 2720 2666 2718 2767 2665 2605 2663 2717
8 2768 2719 2664 2718 2721 2667 2606 2666
8 2668 2608 2669 2723 2720 2666 2721 2770
8 2669 2609 2670 2724 2721 2667 2722 2771
8 2671 2611 2672 2726 2723 2669 2724 2773
8 2672 2612 2673 2727 2724 2670 2725 2774
8 2674 2614 2675 2729 2726 2672 2727 2776
8 2675 2615 2676 2730 2727 2673 2728 2777
8 2677 2617 2678 2732 2729 2675 2730 2779
8 2678 2618 2679 2733 2730 2676 2731 2780
8 2680 2620 2681 2735 2732 2678 2733 2782
8 2733 2679 2621 2681 2783 2734 2682 2736
8 2735 2681 2623 2684 2784 2736 2683 2737
8 2740 2686 2647 2707 2787 2738 2706 2759
8 2688 2628 2686 2740 2742 2687 2739 2789
8 2743 2688 2650 2709 2790 2740 2707 2760
8 2742 2687 2741 2792 2690 2629 2689 2745
8 2743 2688 2742 2793 2709 2650 2690 2746
8 2745 2689 2744 2795 2692 2631 2693 2748
8 2746 2690 2745 2796 2691 2630 2692 2747
8 2747 2692 2748 2797 2694 2633 2695 2750
8 2748 2693 2749 2798 2695 2634 2696 2751
8 2750 2695 2751 2800 2697 2636 2698 2753
8 2751 2696 2752 2801 2698 2637 2699 2754
8 2753 2698 2754 2802 2700 2639 2701 2755
8 2763 2713 2756 2804 2714 2658 2703 2757
8 2759 2706 2652 2710 2804 2756 2703 2757
8 2715 2659 2714 2764 2758 2704 2757 2805
8 2758 2704 2757 2805 2712 2655 2710 2761
8 2806 2759 2707 2760 2761 2710 2653 2711
8 2765 2716 2762 2808 2718 2664 2713 2763
8 2809 2763 2714 2764 2767 2718 2663 2717
8 2765 2716 2664 2718 2811 2766 2719 2768
8 2813 2768 2718 2767 2770 2721 2666 2720
8 2814 2769 2719 2768 2771 2722 2667 2721
8 2723 2669 2724 2773 2770 2721 2771 2816
8 2724 2670 2725 2774 2771 2722 2772 2817
8 2726 2672 2727 2776 2773 2724 2774 2819
8 2727 2673 2728 2777 2774 2725 2775 2820
8 2729 2675 2730 2779 2776 2727 2777 2822
8 2730 2676 2731 2780 2777 2728 2778 2823
8 2732 2678 2733 2782 2779 2730 2780 2825
8 2780 2731 2679 2733 2826 2781 2734 2783
8 2782 2733 2681 2735 2827 2783 2736 2784
8 2830 2785 2738 2787 2804 2756 2706 2759
8 2789 2739 2686 2740 2832 2786 2738 2787
8 2790 2740 2707 2760 2833 2787 2759 2806
8 2742 2687 2739 2789 2792 2741 2788 2835
8 2743 2688 2740 2790 2793 2742 2789 2836
8 2792 2741 2791 2838 2745 2689 2744 2795
8 2793 2742 2792 2839 2746 2690 2745 2796
8 2795 2744 2794 2841 2748 2693 2749 2798
8 2796 2745 2795 2842 2747 2692 2748 2797
8 2797 2748 2798 2843 2750 2695 2751 2800
8 2798 2749 2799 2844 2751 2696 2752 2801
8 2800 2751 2801 2845 2753 2698 2754 2802
8 2808 2762 2803 2847 2763 2713 2756 2804
8 2809 2763 2804 2848 2764 2714 2757 2805
8 2806 2759 2710 2761 2848 2804 2757 2805
8 2765 2716 2766 2811 2808 2762 2807 2850
8 2810 2765 2808 2851 2767 2718 2763 2809
8 2810 2765 2718 2767 2852 2811 2768 2813
8 2811 2766 2719 2768 2853 2812 2769 2814
8 2855 2814 2768 2813 2816 2771 2721 2770
8 2856 2815 2769 2814 2817 2772 2722 2771
8 2773 2724 2774 2819 2816 2771 2817 2858
8 2774 2725 2775 2820 2817 2772 2818 2859
8 2776 2727 2777 2822 2819 2774 2820 2861
8 2777 2728 2778 2823 2820 2775 2821 2862
8 2779 2730 2780 2825 2822 2777 2823 2864
8 2823 2778 2731 2780 2865 2824 2781 2826
8 2825 2780 2733 2782 2866 2826 2783 2827
8 2869 2828 2785 2830 2847 2803 2756 2804
8 2871 2829 2786 2832 2830 2785 2738 2787
8 2872 2830 2787 2833 2848 2804 2759 2806
8 2789 2739 2786 2832 2835 2788 2831 2874
8 2836 2789 2740 2790 2875 2832 2787 2833
8 2792 2741 2788 2835 2838 2791 2834 2877
8 2793 2742 2789 2836 2839 2792 2835 2878
8 2838 2791 2837 2880 2795 2744 2794 2841
8 2839 2792 2838 2881 2796 2745 2795 2842
8 2841 2794 2840 2882 2798 2749 2799 2844
8 2842 2795 2841 2883 2797 2748 2798 2843
8 2843 2798 2844 2884 2800 2751 2801 2845
8 2886 2846 2803 2847 2850 2807 2762 2808
8 2851 2808 2847 2887 2809 2763 2804 2848
8 2850 2807 2766 2811 2889 2849 2812 2853
8 2810 2765 2811 2852 2851 2808 2850 2890
8 2852 2811 2768 2813 2891 2853 2814 2855
8 2853 2812 2769 2814 2892 2854 2815 2856
8 2894 2856 2814 2855 2858 2817 2771 2816
8 2817 2772 2818 2859 2856 2815 2857 2895
8 2819 2774 2820 2861 2858 2817 2859 2897
8 2820 2775 2821 2862 2859 2818 2860 2898
8 2822 2777 2823 2864 2861 2820 2862 2900
8 2823 2778 2824 2865 2862 2821 2863 2901
8 2864 2823 2780 2825 2902 2865 2826 2866
8 2904 2867 2828 2869 2886 2846 2803 2847
8 2869 2828 2868 2906 2830 2785 2829 2871
8 2907 2869 2830 2872 2887 2847 2804 2848
8 2871 2829 2870 2909 2832 2786 2831 2874
8 2910 2871 2832 2875 2872 2830 2787 2833
8 2835 2788 2831 2874 2877 2834 2873 2912
8 2836 2789 2832 2875 2878 2835 2874 2913
8 2877 2834 2876 2915 2838 2791 2837 2880
8 2839 2792 2835 2878 2881 2838 2877 2916
8 2880 2837 2879 2917 2841 2794 2840 2882
8 2881 2838 2880 2918 2842 2795 2841 2883
8 2883 2841 2882 2919 2843 2798 2844 2884
8 2921 2885 2846 2886 2889 2849 2807 2850
8 2922 2886 2847 2887 2890 2850 2808 2851
8 2889 2849 2812 2853 2924 2888 2854 2892
8 2890 2850 2811 2852 2925 2889 2853 2891
8 2891 2853 2814 2855 2926 2892 2856 2894
8 2892 2854 2815 2856 2927 2893 2857 2895
8 2858 2817 2859 2897 2894 2856 2895 2929
8 2859 2818 2860 2898 2895 2857 2896 2930
8 2861 2820 2862 2900 2897 2859 2898 2932
8 2862 2821 2863 2901 2898 2860 2899 2933
8 2864 2823 2865 2902 2900 2862 2901 2934
8 2904 2867 2846 2886 2936 2903 2885 2921
8 2904 2867 2903 2936 2869 2828 2868 2906
8 2937 2904 2869 2907 2922 2886 2847 2887
8 2906 2868 2905 2939 2871 2829 2870 2909
8 2907 2869 2906 2940 2872 2830 2871 2910
8 2909 2870 2908 2942 2874 2831 2873 2912
8 2910 2871 2909 2943 2875 2832 2874 2913
8 2912 2873 2911 2945 2877 2834 2876 2915
8 2878 2835 2874 2913 2916 2877 2912 2946
8 2915 2876 2914 2947 2880 2837 2879 2917
8 2916 2877 2915 2948 2881 2838 2880 2918
8 2918 2880 2917 2949 2883 2841 2882 2919
8 2921 2885 2849 2889 2951 2920 2888 2924
8 2952 2921 2886 2922 2925 2889 2850 2890
8 2924 2888 2854 2892 2954 2923 2893 2927
8 2925 2889 2853 2891 2955 2924 2892 2926
8 2926 2892 2856 2894 2956 2927 2895 2929
8 2895 2857 2896 2930 2927 2893 2928 2957
8 2897 2859 2898 2932 2929 2895 2930 2959
8 2898 2860 2899 2933 2930 2896 2931 2960
8 2900 2862 2901 2934 2932 2898 2933 2961
8 2936 2903 2885 2921 2963 2935 2920 2951
8 2936 2903 2935 2963 2906 2868 2905 2939
8 2937 2904 2886 2922 2964 2936 2921 2952
8 2937 2904 2936 2964 2907 2869 2906 2940
8 2939 2905 2938 2966 2909 2870 2908 2942
8 2940 2906 2939 2967 2910 2871 2909 2943
8 2942 2908 2941 2969 2912 2873 2911 2945
8 2943 2909 2942 2970 2913 2874 2912 2946
8 2945 2911 2944 2971 2915 2876 2914 2947
8 2946 2912 2945 2972 2916 2877 2915 2948
8 2948 2915 2947 2973 2918 2880 2917 2949
8 2951 2920 2888 2924 2975 2950 2923 2954
8 2952 2921 2889 2925 2976 2951 2924 2955
8 2927 2893 2928 2957 2954 2923 2953 2978
8 2955 2924 2892 2926 2979 2954 2927 2956
8 2929 2895 2930 2959 2956 2927 2957 2980
8 2930 2896 2931 2960 2957 2928 2958 2981
8 2932 2898 2933 2961 2959 2930 2960 2982
8 2951 2920 2950 2975 2963 2935 2962 2984
8 2963 2935 2962 2984 2939 2905 2938 2966
8 2964 2936 2921 2952 2985 2963 2951 2976
8 2964 2936 2963 2985 2940 2906 2939 2967
8 2966 2938 2965 2987 2942 2908 2941 2969
8 2967 2939 2966 2988 2943 2909 2942 2970
8 2969 2941 2968 2989 2945 2911 2944 2971
8 2970 2942 2969 2990 2946 2912 2945 2972
8 2972 2945 2971 2991 2948 2915 2947 2973
8 2954 2923 2953 2978 2975 2950 2974 2993
8 2976 2951 2924 2955 2994 2975 2954 2979
8 2957 2928 2958 2981 2978 2953 2977 2995
8 2956 2927 2957 2980 2979 2954 2978 2996
8 2959 2930 2960 2982 2980 2957 2981 2997
8 2984 2962 2983 2999 2966 2938 2965 2987
8 2975 2950 2974 2993 2984 2962 2983 2999
8 2976 2951 2975 2994 2985 2963 2984 3000
8 2985 2963 2984 3000 2967 2939 2966 2988
8 2987 2965 2986 3001 2969 2941 2968 2989
8 2988 2966 2987 3002 2970 2942 2969 2990
8 2990 2969 2989 3003 2972 2945 2971 2991
8 2978 2953 2977 2995 2993 2974 2992 3004
8 2979 2954 2978 2996 2994 2975 2993 3005
8 2980 2957 2981 2997 2996 2978 2995 3006
8 2974 2993 2999 2983 2992 3004 3007 2998
8 2983 2999 2987 2965 2998 3007 3001 2986
8 3000 2984 2999 3008 2988 2966 2987 3002
8 2994 2975 2993 3005 3000 2984 2999 3008
8 3002 2987 3001 3009 2990 2969 2989 3003
8 2996 2978 2995 3006 3005 2993 3004 3010
8 3005 2993 3004 3010 3008 2999 3007 3011
8 3008 2999 3007 3011 3002 2987 3001 3009

CELL_TYPES 1910
12
12
12
12
12
12
12
12
12
12
12
12
12
12
12
12
12
12
12
12
12
12
12
12
12
12
12
12
12
12
12
12
12
12
12
12
12
12
12
12
12
12
12
12
12
12
12
12
12
12
12
12
12
12
12
12
12
12
12
12
12
12
12
12
12
12
12
12
12
12
12
12
12
12
12
12
12
12
12
12
12
12
12
12
12
12
12
12
12
12
12
12
12
12
12
12
12
12
12
12
12
12
12
12
12
12
12
12
12
12
12
12
12
12
12
12
12
12
12
12
12
12
12
12
12
12
12
12
12
12
12
12
12
12
12
12
12
12
12
12
12
12
12
12
12
12
12
12
12
12
12
12
12
12
12
12
12
12
12
12
12
12
12
12
12
12
12
12
12
12
12
12
12
12
12
12
12
12
12
12
12
12
12
12
12
12
12
12
12
12
12
12
12
12
12
12
12
12
12
12
12
12
12
12
12
12
12
12
12
12
12
12
12
12
12
12
12
12
12
12
12
12
12
12
12
12
12
12
12
12
12
12
12
12
12
12
12
12
12
12
12
12
12
12
12
12
12
12
12
12
12
12
12
12
12
12
12
12
12
12
12
12
12
12
12
12
12
12
12
12
12
12
12
12
12
12
12
12
12
12
12
12
12
12
12
12
12
12
12
12
12
12
12
12
12
12
12
12
12
12
12
12
12
12
12
12
12
12
12
12
12
12
12
12
12
12
12
12
12
12
12
12
12
12
12
12
12
12
12
12
12
12
12
12
12
12
12
12
12
12
12
12
12
12
12
12
12
12
12
12
12
12
12
12
12
12
12
12
12
12
12
12
12
12
12
12
12
12
12
12
12
12
12
12
12
12
12
12
12
12
12
12
12
12
12
12
12
12
12
12
12
12
12
12
12
12
12
12
12
12
12
12
12
12
12
12
12
12
12
12
12
12
12
12
12
12
12
12
12
12
12
12
12
12
12
12
12
12
12
12
12
12
12
12
12
12
12
12
12
12
12
12
12
12
12
12
12
12
12
12
12
12
12
12
12
12
12
12
12
12
12
12
12
12
12
12
12
12
12
12
12
12
12
12
12
12
12
12
12
12
12
12
12
12
12
12
12
12
12
12
12
12
12
12
12
12
12
12
12
12
12
12
12
12
12
12
12
12
12
12
12
12
12
12
12
12
12
12
12
12
12
12
12
12
12
12
12
12
12
12
12
12
12
12
12
12
12
12
12
12
12
12
12
12
12
12
12
12
12
12
12
12
12
12
12
12
12
12
12
12
12
12
12
12
12
12
12
12
12
12
12
12
12
12
12
12
12
12
12
12
12
12
12
12
12
12
12
12
12
12
12
12
12
12
12
12
12
12
12
12
12
12
12
12
12
12
12
12
12
12
12
12
12
12
12
12
12
12
12
12
12
12
12
12
12
12
12
12
12
12
12
12
12
12
12
12
12
12
12
12
12
12
12
12
12
12
12
12
12
12
12
12
12
12
12
12
12
12
12
12
12
12
12
12
12
12
12
12
12
12
12
12
12
12
12
12
12
12
12
12
12
12
12
12
12
12
12
12
12
12
12
12
12
12
12
12
12
12
12
12
12
12
12
12
12
12
12
12
12
12
12
12
12
12
12
12
12
12
12
12
12
12
12
12
12
12
12
12
12
12
12
12
12
12
12
12
12
12
12
12
12
12
12
12
12
12
12
12
12
12
12
12
12
12
12
12
12
12
12
12
12
12
12
12
12
12
12
12
12
12
12
12
12
12
12
12
12
12
12
12
12
12
12
12
12
12
12
12
12
12
12
12
12
12
12
12
12
12
12
12
12
12
12
12
12
12
12
12
12
12
12
12
12
12
12
12
12
12
12
12
12
12
12
12
12
12
12
12
12
12
12
12
12
12
12
12
12
12
12
12
12
12
12
12
12
12
12
12
12
12
12
12
12
12
12
12
12
12
12
12
12
12
12
12
12
12
12
12
12
12
12
12
12
12
12
12
12
12
12
12
12
12
12
12
12
12
12
12
12
12
12
12
12
12
12
12
12
12
12
12
12
12
12
12
12
12
12
12
12
12
12
12
12
12
12
12
12
12
12
12
12
12
12
12
12
12
12
12
12
12
12
12
12
12
12
12
12
12
12
12
12
12
12
12
12
12
12
12
12
12
12
12
12
12
12
12
12
12
12
12
12
12
12
12
12
12
12
12
12
12
12
12
12
12
12
12
12
12
12
12
12
12
12
12
12
12
12
12
12
12
12
12
12
12
12
12
12
12
12
12
12
12
12
12
12
12
12
12
12
12
12
12
12
12
12
12
12
12
12
12
12
12
12
12
12
12
12
12
12
12
12
12
12
12
12
12
12
12
12
12
12
12
12
12
12
12
12
12
12
12
12
12
12
12
12
12
12
12
12
12
12
12
12
12
12
12
12
12
12
12
12
12
12
12
12
12
12
12
12
12
12
12
12
12
12
12
12
12
12
12
12
12
12
12
12
12
12
12
12
12
12
12
12
12
12
12
12
12
12
12
12
12
12
12
12
12
12
12
12
12
12
12
12
12
12
12
12
12
12
12
12
12
12
12
12
12
12
12
12
12
12
12
12
12
12
12
12
12
12
12
12
12
12
12
12
12
12
12
12
12
12
12
12
12
12
12
12
12
12
12
12
12
12
12
12
12
12
12
12
12
12
12
12
12
12
12
12
12
12
12
12
12
12
12
12
12
12
12
12
12
12
12
12
12
12
12
12
12
12
12
12
12
12
12
12
12
12
12
12
12
12
12
12
12
12
12
12
12
12
12
12
12
12
12
12
12
12
12
12
12
12
12
12
12
12
12
12
12
12
12
12
12
12
12
12
12
12
12
12
12
12
12
12
12
12
12
12
12
12
12
12
12
12
12
12
12
12
12
12
12
12
12
12
12
12
12
12
12
12
12
12
12
12
12
12
12
12
12
12
12
12
12
12
12
12
12
12
12
12
12
12
12
12
12
12
12
12
12
12
12
12
12
12
12
12
12
12
12
12
12
12
12
12
12
12
12
12
12
12
12
12
12
12
12
12
12
12
12
12
12
12
12
12
12
12
12
12
12
12
12
12
12
12
12
12
12
12
12
12
12
12
12
12
12
12
12
12
12
12
12
12
12
12
12
12
12
12
12
12
12
12
12
12
12
12
12
12
12
12
12
12
12
12
12
12
12
12
12
12
12
12
12
12
12
12
12
12
12
12
12
12
12
12
12
12
12
12
12
12
12
12
12
12
12
12
12
12
12
12
12
12
12
12
12
12
12
12
12
12
12
12
12
12
12
12
12
12
12
12
12
12
12
12
12
12
12
12
12
12
12
12
12
12
12
12
12
12
12
12
12
12
12
12
12
12
12
12
12
12
12
12
12
12
12
12
12
12
12
12
12
12
12
12
12
12
12
12
12
12
12
12
12
12
12
12
12
12
12
12
12
12
12
12
12
12
12
12
12
12
12
12
12
12
12
12
12
12
12
12
12
12
12
12
12
12
12
12
12
12
12
12
12
12
12
12
12
12
12
12
12
12
12
12
12
12
12
12
12
12
12
12
12
12
12
12
12
12
12
12
12
12
12
12
12
12
12
12
12
12
12
12
12
12
12
12
12
12
12
12
12
12
12
12
12
12
12
12
12
12
12
12
12
12
12
12
12
12
12
12
12
12
12
12
12
12
12
12
12
12
12
12
12
12
12
12
12
12
12
12
12
12
12
12
12
12
12
12
12
12
12
12
12
12
12
12
12
12
12
12
12
12
12
12
12
12
12
12
12
12
12
12
12
12
12
12
12
12
12
12
12
12
12
12
12
12
12
12
12
12
12
12
12
12
12
12
12
12
12
12
12
12
12
12
12
12
12
12
12
12
12
12
12
12
12
12
12
12
12
12
12
12
12
12
12
12
12
12
12
12
12
12
12
12
12
12
12
12
12
12
12
12
12
12
12
12
12
12
12
12
12
12
12
12
12
12
12
12
12
12
12
12
12
12
12
12
12
12
12
12
12
12
12
12
12
12
12
12
12
12
12
12
12
12
12
12
12
12
12
12
12
12
12
12
12
12
12
12
12
12
12
12
12
12
12
12
12
12
12
12
12
12
12
12
12
12
12
12
12
12
12
12
12
12
12
12
12
12
12
12
12
12
12
12
12
12
12
12
12
12
12
12
12
12
12
12
12
12
12
12
12
12
12
12
12
12
12
12
12
12
12
12
12
12
12
12
12
12
12
12
12
12
12
12
12
12
12
12
12
12
12
12
12
12
12
12
12
12
12
12
12
12
12
12
12
12
12
12
12
12
12
12
12
12
12
12
12
12
12
12
12

POINT_DATA 3012
SCALARS Jp_lamdaP float 4
LOOKUP_TABLE default
0.999672 1 1 0.999672
1 1 1 1
0.999682 1 1 0.999682
0.999618 1 1 0.999618
0.999675 1 1 0.999675
0.999654 1 1 0.999654
0.998952 1.00011 1 0.998847
1 1 1 1
1 1 1 1
1 1 1 1
0.999748 1 1 0.999748
0.998958 1 1 0.998958
0.999614 1 1 0.999614
0.999622 1 1 0.999622
0.999684 1 1 0.999684
0.999645 1 1 0.999645
0.999661 1 1 0.999661
0.999691 1 1 0.999691
0.999035 1.00019 1 0.998849
1 1 1 1
0.9996 1 1 0.9996
0.999651 1 1 0.999651
0.998723 1 1 0.998723
0.998927 1.0001 1 0.998825
0.99966 1 1 0.99966
0.998862 1 1 0.998862
1.01283 1.01528 1 0.997588
1 1 1 1
0.999828 1 1 0.999828
0.999841 1 1 0.999841
1 1 1 1
0.998967 1 1 0.998967
0.999648 1 1 0.999648
0.999675 1 1 0.999675
0.999397 1.0004 1 0.998994
1 1 1 1
0.999081 1 1 0.999078
0.999058 1 1 0.999058
1.00596 1.00841 1 0.99757
1 1 1 1
1 1 1 1
0.999811 1 1 0.999811
1 1 1 1
0.999628 1 1 0.999628
0.998653 1 1 0.998653
1 1 1 1
0.998897 1 1 0.998897
0.999668 1 1 0.999668
0.999703 1 1 0.999703
0.999662 1 1 0.999662
0.999089 1.00024 1 0.998854
0.999795 1 1 0.999795
0.999624 1 1 0.999624
0.999674 1 1 0.999674
0.999675 1 1 0.999675
0.99872 1 1 0.99872
0.998906 1.00004 1 0.998865
0.998919 1.00009 1 0.998826
1.01313 1.0156 1 0.997574
1 1 1 1
0.9996 1 1 0.9996
0.998923 1 1 0.998923
0.998693 1 1 0.998693
0.998779 1 1 0.998777
1.01612 1.01885 1 0.997322
1.01419 1.0168 1 0.997435
0.999724 1 1 0.999724
0.998965 1 1 0.998965
1.01014 1.01249 1 0.997679
1.03234 1.03576 1 0.996701
1 1 1 1
1 1 1 1
1 1 1 1
0.998975 1 1 0.998975
1 1 1 1
1 1 1 1
0.999144 1.00033 1 0.998818
0.999907 1 1 0.999907
0.998946 1.00002 1 0.998922
0.999203 1 1.00003 0.999173
1.00468 1.00713 1 0.997567
1 1 1 1
1.00119 1 1.00143 0.999767
0.999016 1.00028 1 0.998741
0.999064 1.00021 1 0.998852
1.01724 1.02015 1 0.997145
0.999764 1 1.00034 0.999424
1.01069 1.01326 1 0.997469
1.00173 1.00402 1 0.99772
1.01395 1.01716 1 0.996851
1 1 1 1
1 1 1 1
1 1 1 1
1 1 1 1
1 1 1 1
0.999812 1 1 0.999812
0.99878 1 1 0.99878
0.999813 1 1 0.999813
0.998804 1 1 0.998804
1 1 1 1
0.998666 1 1 0.998666
0.998889 1 1 0.998889
1.01563 1.01873 1 0.996958
0.998966 1.00004 1 0.998931
1.01874 1.02181 1 0.996992
0.999635 1 1 0.999635
0.999646 1 1 0.999646
0.999684 1 1 0.999684
0.999695 1 1 0.999695
0.998719 1 1 0.998719
0.998935 1.00011 1 0.998829
0.998948 1.00008 1 0.998871
1.01341 1.01589 1 0.997559
1 1 1 1
0.999623 1 1 0.999623
0.998694 1 1 0.998694
0.998687 1 1 0.998687
0.999863 1 1 0.999863
0.999042 1 1 0.999042
0.998779 1 1 0.998776
1.01611 1.01888 1 0.997285
1.01077 1.01314 1 0.997662
1.0145 1.01708 1 0.997463
1.03223 1.03564 1 0.996708
0.998689 1 1 0.998689
0.998689 1 1 0.998689
1.01456 1.01741 1 0.997199
1.01615 1.01897 1 0.997231
1.01585 1.01857 1 0.997334
1.04134 1.04486 1 0.996636
1 1 1 1
1.0354 1.03886 1 0.996676
0.999425 1 1.00025 0.999172
1.00562 1.00798 1 0.997659
1.02884 1.03222 1 0.996725
1.03859 1.04215 1 0.996577
1.00135 1 1.00185 0.9995
1.00648 1 1.00807 0.998423
1 1 1 1
1 1 1 1
0.999098 1.00027 1 0.998824
1 1 1 1
0.999288 1 1.00016 0.999128
0.998936 1.00001 1 0.998928
1.00354 1.00599 1 0.997563
1 1 1 1
1.00084 1 1.00105 0.999791
0.999189 1.00034 1 0.998853
0.999081 1.00013 1 0.998955
1.01669 1.0196 1 0.997146
1.00005 1 1.00068 0.999369
1.00936 1.01192 1 0.997472
1.00091 1.00318 1.00002 0.997719
1.01517 1.01839 1 0.996839
1.00121 1 1.00164 0.999574
1.00006 1 1.00017 0.999892
1.00362 1 1.00491 0.998715
1.01905 1.02207 1 0.997043
1.01452 1.01726 1 0.997306
1.0388 1.0424 1 0.996545
0.999986 1.00139 1.0006 0.998001
1.02417 1.02746 1 0.996798
1.00965 1.01217 1.00057 0.996941
1.02389 1.0273 1 0.996684
1 1 1 1
1 1 1 1
1 1 1 1
1.0008 1 1.00116 0.999643
1 1 1 1
1 1 1 1
1 1 1 1
0.998774 1.00006 1 0.998711
0.998686 1 1 0.998686
1 1 1 1
1 1 1 1
0.998667 1 1 0.998667
0.998796 1 1 0.998796
1.01623 1.01933 1 0.996958
0.998877 1.00015 1 0.998727
1.01894 1.02202 1 0.996991
0.998664 1 1 0.998664
1.01424 1.01737 1 0.996925
1.01744 1.02052 1 0.996986
1.04664 1.05025 1 0.996568
1.0193 1.02237 1 0.997
1.04797 1.05158 1 0.996569
1 1 1 1
0.999647 1 1 0.999647
0.998442 1 1 0.998442
0.998683 1 1 0.998683
1 1 1 1
0.999121 1 1 0.999121
0.998778 1 1 0.998778
1.01608 1.01889 1 0.997248
1.01483 1.01739 1 0.99749
1.01143 1.01382 1 0.997644
1.03214 1.03554 1 0.996716
0.998686 1 1 0.998686
0.998684 1 1 0.998684
1.01447 1.01745 1 0.997073
1.01622 1.01901 1 0.997253
1 1 1 1
0.999327 1 1.00011 0.999216
1.00699 1.00928 1 0.997737
1.01581 1.01853 1 0.997329
1.04114 1.04467 1 0.996621
1.02832 1.0317 1 0.996718
1.03566 1.03907 1 0.996712
1.03816 1.04171 1 0.996585
1.00122 1 1.00173 0.999488
1.00495 1 1.00653 0.998425
1.01397 1.01708 1 0.996946
1.015 1.01782 1 0.997222
1.04374 1.04727 1 0.996633
1.04175 1.04531 1 0.996599
1.03876 1.04219 1 0.996711
1.04875 1.05232 0.999893 0.996714
1.00049 1 1.00115 0.999337
1.04101 1.0445 1 0.996658
1.00121 1.00327 1.00011 0.997846
1.02154 1.02481 1 0.996804
1.03606 1.03968 1 0.996519
1.03891 1.04228 1 0.996765
1.00307 1.00017 1.00471 0.998194
1.0041 1 1.0054 0.998711
1.00326 1.00007 1.00546 0.997743
0.999116 1.00035 1 0.998769
1 1 1 1
1.00022 1 1.00041 0.999814
0.998987 1.0001 1 0.998885
1.01608 1.01899 1 0.997146
1.00023 1 1.00086 0.999373
0.99975 1.002 1.00004 0.997717
1.00807 1.01063 1 0.997475
1.01638 1.01961 1 0.996827
1.00108 1 1.00148 0.999596
0.999909 1 1 0.999909
1.0042 1 1.00549 0.998715
1.01853 1.02155 1 0.997041
1.01363 1.01636 1 0.99731
1.0389 1.04251 1 0.99654
0.999271 1.00078 1.00049 0.998005
1.02539 1.02868 1 0.996802
1.00896 1.01158 1.00047 0.996935
1.02464 1.02805 1 0.996678
0.999952 1 1 0.999952
1.00156 1.00024 1.003 0.99833
1.00232 1 1.00322 0.999109
1.00408 1.00011 1.00595 0.998034
1.0432 1.04685 1 0.996511
1.03291 1.03636 1 0.996666
1.04299 1.04667 1 0.996481
1.00424 1.0065 1.00049 0.997271
1.03076 1.03418 1 0.996697
1.01978 1.02163 1.00158 0.996618
1.03223 1.03576 1 0.996594
0.999678 1 1 0.999678
0.999991 1 1 0.999991
1 1 1 1
1 1 1 1
1 1 1 1
1 1 1.00023 0.999773
1 1 1 1
1.00123 1 1.00161 0.999628
1 1 1 1
0.998931 1.0002 1 0.998728
0.998702 1 1 0.998702
1.01919 1.02227 1 0.99699
1.0168 1.0199 1 0.996958
0.998669 1 1 0.998669
1 1 1 1
0.998663 1 1 0.998663
1.0146 1.01773 1 0.996925
1.01792 1.021 1 0.996986
1.04583 1.04943 1 0.996566
1.01924 1.02231 1 0.996997
1.04807 1.05168 1 0.996566
1.01374 1.01687 1 0.996922
1.04508 1.04871 1 0.99654
1.04747 1.05107 1 0.996581
1.05198 1.0572 0.998209 0.996846
1.04735 1.05099 1 0.996536
1.05441 1.05833 0.99954 0.99675
0.998684 1 1 0.998684
0.998678 1 1 0.998678
1.01438 1.01749 1 0.996948
1.0163 1.01908 1 0.997275
1 1 1 1
0.999261 1 1 0.999261
1.00833 1.01054 1 0.997814
1.01578 1.0185 1 0.997325
1.04099 1.04453 1 0.996606
1.03586 1.03924 1 0.996747
1.0278 1.0312 1 0.996711
1.03788 1.04142 1 0.996594
1.00129 1 1.00181 0.999477
1.00412 1 1.0057 0.998427
1.01386 1.01699 1 0.996927
1.01504 1.01788 1 0.997217
1.04362 1.04715 0.999973 0.996654
1.0418 1.04534 1 0.99661
1.00019 1 1.00087 0.999327
1.00251 1.00459 1.00008 0.997844
1.02099 1.02423 1 0.996837
1.03904 1.04249 1 0.996695
1.04892 1.05248 0.999864 0.996755
1.03572 1.03936 1 0.996499
1.04084 1.04432 1 0.996662
1.03913 1.04251 1 0.996763
1.00278 1.00025 1.00434 0.998196
1.00396 1.00029 1.00594 0.997746
1.00451 1 1.00581 0.998709
1.04336 1.04692 1 0.996601
1.04308 1.04657 1 0.996668
1.05184 1.05661 0.998693 0.996786
1.04994 1.05383 0.99956 0.996748
1.04402 1.04746 0.999979 0.996737
1.0447 1.05076 0.997183 0.99704
0.999376 1.00074 1.0006 0.998033
1.04111 1.04449 0.999873 0.996895
1.00967 1.01259 1 0.997113
1.02737 1.03108 1 0.996402
1.03528 1.03895 1 0.996473
1.0338 1.0369 0.999996 0.997015
1.00202 1 1.00304 0.998983
0.99928 1.00097 1.00067 0.99764
1.00836 1 1.01048 0.997904
1.00226 1.00211 1.00266 0.997493
1.01813 1.02116 1 0.997039
0.999926 1 1 0.999926
1.00111 1 1.00149 0.999618
1.00558 1 1.00687 0.998716
1.01267 1.0154 1 0.997313
1.03904 1.04265 1 0.996535
0.998669 1.00026 1.00041 0.998009
1.00835 1.01112 1.00033 0.996929
1.02657 1.02986 1 0.996806
1.02463 1.02806 1 0.996672
0.999962 1 1 0.999962
1.00241 1.00012 1.00397 0.998331
1.002 1 1.00289 0.999118
1.00472 1.00008 1.00662 0.998028
1.04311 1.04677 1 0.996505
1.03311 1.03657 1 0.996664
1.04256 1.04624 1 0.996478
1.0027 1.00499 1.00045 0.997277
1.03045 1.03386 1 0.996698
1.01923 1.02094 1.00173 0.996606
1.03197 1.03541 1 0.996674
0.99998 1 1 0.99998
1.00021 1 1.00082 0.999391
1.00147 1.00187 1.00191 0.997688
1.00526 1 1.00688 0.998393
1.00134 1.0004 1.00322 0.997727
1.04773 1.05137 1 0.996533
1.03675 1.04033 1 0.996559
1.03825 1.04179 1 0.996603
1.00788 1.00902 1.00199 0.996886
1.02926 1.03267 1 0.996692
1.01834 1.02116 1.00086 0.99638
0.999634 1 1 0.999634
0.999121 1 1 0.999121
0.999711 1 1 0.999711
0.99968 1 1 0.99968
0.999996 1 1 0.999996
0.999993 1 1 0.999993
1 1 1 1
1 1 1 1
1 1 1 1
0.99989 1 1 0.99989
1 1 1 1
1.00041 1 1.00065 0.999757
1 1 1 1
1.00126 1 1.00165 0.999614
1 1 1 1
1.01918 1.02225 1 0.996994
1.01834 1.02142 1 0.996985
1.04788 1.05149 1 0.996564
1.045 1.04861 1 0.996565
1.01502 1.01815 1 0.996926
0.998662 1 1 0.998662
1.01385 1.01698 1 0.996922
1.04473 1.04836 1 0.99654
1.04695 1.05055 1 0.996579
1.05229 1.0578 0.99792 0.996864
1.04664 1.05028 1 0.996532
1.05414 1.05799 0.999616 0.996748
1.04368 1.04731 1 0.996532
1.0514 1.05745 0.997403 0.996869
1.05362 1.05822 0.998831 0.996817
1.04844 1.05675 0.995041 0.997082
1.05102 1.05456 1 0.996648
1.05005 1.05768 0.995677 0.997094
1.01379 1.01694 1 0.996909
1.01511 1.01795 1 0.997212
1.04351 1.04704 0.99995 0.996675
1.04182 1.04535 1 0.996621
0.999883 1 1.00057 0.999316
1.00375 1.00588 1.00004 0.997842
1.02085 1.02405 1 0.996869
1.03934 1.0428 1 0.996678
1.0491 1.05266 0.999818 0.996795
1.04072 1.0442 1 0.996667
1.03523 1.03889 1 0.996478
1.03934 1.04272 1 0.99676
1.00217 1.00036 1.00362 0.998198
1.00454 1.00051 1.00629 0.997748
1.0047 1 1.006 0.998707
1.04343 1.04702 1 0.996576
1.04325 1.04674 0.999997 0.996666
1.0514 1.05634 0.998486 0.996828
1.04995 1.05392 0.999493 0.996732
1.00019 1.00142 1.00075 0.998031
1.01074 1.01367 1 0.997108
1.02609 1.02972 1.00003 0.996445
1.04412 1.04759 0.999981 0.996707
1.04441 1.05077 0.996846 0.99709
1.0359 1.0396 1 0.996436
1.04116 1.04453 0.999878 0.996898
1.03461 1.03768 0.999991 0.99705
1.00065 1.00184 1.00117 0.997641
1.00238 1.00216 1.00277 0.997461
1.00254 1 1.00357 0.998979
1.00772 1 1.0098 0.997944
1.05137 1.0565 0.998319 0.996818
1.05225 1.05676 0.998947 0.996781
1.04443 1.05266 0.99517 0.996996
1.04408 1.05325 0.994166 0.997115
1.04268 1.0468 0.999037 0.997025
1.04117 1.04972 0.994571 0.997273
1.00196 1.00455 1 0.997424
1.03561 1.04019 0.998343 0.997255
1.01469 1.01808 1 0.99667
1.02529 1.02901 1.00018 0.996203
1.03682 1.04051 1 0.996455
1.03543 1.03846 1 0.997084
0.999947 1 1.00074 0.999207
1.00776 1 1.00959 0.99819
1.00103 1.00368 1 0.997361
1.00421 1.00014 1.00645 0.997631
1.00282 1.00329 1.00217 0.997372
0.999971 1 1 0.999971
1.04292 1.04659 1 0.9965
1.00105 1 1.00192 0.999127
1.00315 1.00009 1.00473 0.998332
1.00507 1.00004 1.00702 0.998021
1.03335 1.03681 1 0.996663
1.04218 1.04587 1 0.996476
1.00139 1.00361 1.00051 0.997284
1.02001 1.02152 1.00193 0.996594
1.03027 1.03368 1 0.996699
1.0323 1.03566 1 0.996753
0.999984 1 1 0.999984
0.999876 1 1.00048 0.9994
1.00035 1.00132 1.00134 0.997691
1.00628 1 1.0079 0.998392
1.0016 1.00026 1.00363 0.997712
1.04761 1.05126 1 0.996527
1.03665 1.04024 1 0.996557
1.0383 1.04185 1 0.996591
1.00803 1.00903 1.00213 0.99689
1.03167 1.0351 1 0.996686
1.01864 1.02134 1.00096 0.996402
0.999552 1 1 0.999552
1.00165 1 1.0029 0.998747
1.00096 1.00315 1.00048 0.997347
1.00686 1.00027 1.00859 0.998021
1.00164 1.00194 1.00203 0.99767
1.04421 1.04764 1 0.996727
1.03267 1.03618 1 0.996616
1.03768 1.041 1 0.996812
1.00327 1.00278 1.00379 0.996708
1.01696 1.02071 1 0.996334
0.999637 1 1 0.999637
0.999042 1 1 0.999042
0.999096 1 1 0.999096
0.998844 1 1 0.998844
0.999142 1 1 0.999142
0.99973 1 1 0.99973
0.999713 1 1 0.999713
0.999999 1 1 0.999999
0.999682 1 1 0.999682
0.999997 1 1 0.999997
1 1 1 1
0.999994 1 1 0.999994
1 1 1 1
1 1 1 1
0.999967 1 1 0.999967
1 1 1.00013 0.999871
1 1 1 1
1 1 1 1
1.0008 1 1.00106 0.99974
1 1 1 1
1.04606 1.04971 1 0.996528
1.04666 1.05025 1 0.996577
1.0541 1.05787 0.999693 0.996746
1.05267 1.05846 0.99764 0.996882
1.04429 1.04792 1 0.99654
1.01389 1.01702 1 0.996922
1.04368 1.04731 1 0.996533
1.05129 1.05728 0.997465 0.996863
1.05393 1.05845 0.998904 0.996817
1.04763 1.05648 0.994496 0.997112
1.0518 1.05534 1 0.996641
1.05005 1.05754 0.995794 0.997116
1.05139 1.057 0.997845 0.996838
1.04636 1.0552 0.994544 0.997056
1.04859 1.05774 0.994174 0.997156
1.04718 1.05864 0.991919 0.997236
1.04951 1.05378 0.999009 0.996937
1.04701 1.05833 0.99196 0.997324
1.04341 1.04702 1 0.99655
1.04338 1.04687 1 0.996664
1.05092 1.05605 0.998267 0.99687
1.04983 1.0539 0.999422 0.996717
1.00104 1.00212 1.0009 0.998029
1.01113 1.01407 1 0.997103
1.02441 1.02784 1.00018 0.996488
1.04419 1.04767 1 0.996677
1.04412 1.05078 0.996512 0.99714
1.04112 1.04448 0.999883 0.9969
1.03643 1.04018 1 0.996398
1.0347 1.03772 1 0.997085
1.00192 1.0025 1.00179 0.997642
1.00236 1.00203 1.0029 0.99743
1.00296 1 1.00398 0.998975
1.00676 1 1.00879 0.997984
1.05121 1.05634 0.998318 0.996817
1.05173 1.05612 0.999087 0.99676
1.04458 1.0529 0.99505 0.997028
1.04474 1.05339 0.994676 0.997097
1.00279 1.00539 1 0.997416
1.01317 1.01648 1.00003 0.996713
1.02546 1.02898 1.00039 0.996192
1.0427 1.04659 0.999311 0.996977
1.04006 1.04898 0.994152 0.99733
1.03334 1.03703 1 0.99644
1.0365 1.04098 0.99844 0.997256
1.03609 1.03906 1 0.997143
1.00094 1.00359 1 0.99736
1.00254 1.00366 1.00152 0.997369
1.00516 1.00042 1.00713 0.997625
1.00039 1 1.00122 0.99917
1.00731 1 1.0091 0.998229
1.04497 1.05421 0.994182 0.997043
1.04521 1.05478 0.993837 0.997073
1.04078 1.05351 0.990574 0.997316
1.0368 1.04572 0.994123 0.997338
1.00512 1.00805 1 0.997094
1.04049 1.04517 0.998089 0.997433
1.00803 1.01136 1.00029 0.996418
1.02189 1.02547 1.00051 0.995999
1.0303 1.03398 1 0.996439
0.999394 1 1.00002 0.999376
1.00395 1 1.00542 0.998546
1.00598 1 1.00806 0.997938
1.00234 1.00511 1 0.997247
1.00386 1.00013 1.0064 0.997348
1.00339 1.00461 1.00157 0.997222
0.999988 1 1 0.999988
0.999573 1 1.00016 0.99941
1.04748 1.05114 1 0.996521
1.00755 1 1.00918 0.99839
0.998995 1.00056 1.00074 0.997694
1.00167 1.00007 1.0039 0.997696
1.0364 1.03998 1 0.996555
1.03824 1.04181 1 0.996579
1.00746 1.00829 1.00229 0.996894
1.01784 1.0207 1.00077 0.996424
1.03404 1.03748 1 0.996681
0.999558 1 1 0.999558
1.00157 1 1.00283 0.998751
1.00097 1.00322 1.00041 0.997344
1.00799 1.00009 1.0099 0.998014
1.00155 1.00215 1.00174 0.997671
1.04416 1.0476 1 0.996721
1.03318 1.0367 1 0.996604
1.03765 1.04094 1 0.996838
1.00424 1.00433 1.00324 0.996669
1.01579 1.0195 1.00006 0.996305
0.999147 1 1.00017 0.99898
1.00767 1 1.00937 0.998312
1.00236 1.00316 1.002 0.997215
1.00683 1.00216 1.00689 0.997791
1.00638 1.00785 1.001 0.997543
1.04265 1.04779 0.997875 0.997214
1.03256 1.03618 1 0.996512
1.03481 1.0381 1 0.996832
1.00639 1.00553 1.00433 0.996544
1.00684 1.01076 1 0.996115
0.99964 1 1 0.99964
0.999061 1 1 0.999061
0.998767 1 1 0.998767
0.999071 1 1 0.999071
0.999141 1 1 0.999141
0.998814 1 1 0.998814
0.998718 1 1 0.998718
0.998839 1 1.00008 0.998757
0.999159 1 1 0.999159
0.999723 1 1 0.999723
0.99973 1 1 0.99973
1 1 1 1
0.999715 1 1 0.999715
0.999999 1 1 0.999999
1 1 1 1
0.999998 1 1 0.999998
1 1 1 1
1 1 1 1
0.999995 1 1 0.999995
0.999951 1 1 0.999951
1 1 1 1
1.0003 1 1.00045 0.999851
1 1 1 1
1 1 1 1
1.05253 1.05608 1 0.996634
1.054 1.05845 0.998975 0.996816
1.05003 1.05735 0.995932 0.997138
1.04677 1.05618 0.993936 0.997143
1.05122 1.05714 0.997537 0.996858
1.04381 1.04744 1 0.996533
1.05132 1.05682 0.997969 0.996818
1.04691 1.05535 0.994942 0.997049
1.048 1.05721 0.994131 0.99714
1.04613 1.05821 0.991321 0.997248
1.0491 1.05314 0.999222 0.996938
1.04509 1.05718 0.99118 0.997364
1.04701 1.05513 0.995255 0.997031
1.0474 1.05976 0.991079 0.997232
1.04736 1.06041 0.990337 0.997336
1.04241 1.05431 0.991308 0.99739
1.05111 1.05624 0.998317 0.996817
1.05133 1.05559 0.999225 0.99674
1.04477 1.05315 0.994961 0.997061
1.04549 1.05364 0.995169 0.99708
1.00413 1.00673 1 0.997408
1.01236 1.01566 1 0.996756
1.02566 1.02899 1.00058 0.996182
1.04275 1.04641 0.999579 0.996927
1.03888 1.04819 0.993708 0.997387
1.0377 1.04211 0.998509 0.997257
1.03075 1.03445 1 0.996425
1.03838 1.04129 1 0.997202
1.00113 1.00378 1 0.997358
1.00295 1.0049 1.00069 0.997367
1.00655 1.00062 1.00833 0.997618
1.00075 1 1.00161 0.999135
1.00707 1 1.00882 0.998268
1.0454 1.05458 0.994233 0.997045
1.04573 1.05531 0.993839 0.997068
1.0406 1.05274 0.991137 0.997307
1.00517 1.00811 1 0.997088
1.00862 1.01194 1.00026 0.996461
1.02052 1.02385 1.00076 0.995987
1.03732 1.04591 0.994448 0.997324
1.03327 1.03685 1 0.996547
1.037 1.0419 0.997888 0.9974
0.999416 1 1.00001 0.999409
1.00281 1.00559 1 0.997238
1.00175 1.00371 1.0007 0.997349
1.00589 1.00118 1.00739 0.997338
1.00624 1 1.00829 0.997962
1.00398 1 1.00547 0.998511
1.04579 1.05785 0.991461 0.997122
1.0441 1.06005 0.98768 0.997241
1.03443 1.05112 0.986685 0.997399
1.03527 1.04848 0.98983 0.99754
1.00553 1.00866 1 0.996895
1.0323 1.03581 0.999615 0.997003
1.00411 1.00648 1.00165 0.996006
1.01181 1.01498 1.00104 0.995835
0.999641 1 1 0.999641
1.00027 1 1.00143 0.998841
1.0045 1 1.0063 0.998208
1.0062 1 1.0087 0.99752
1.00306 1.00468 1.00132 0.997066
1.0076 1.00219 1.00838 0.997045
0.999563 1 1 0.999563
1.00141 1 1.00266 0.998755
1.04434 1.04778 1 0.996714
1.00917 1 1.01118 0.998008
1.00099 1.00339 1.00027 0.997342
1.00102 1.00183 1.00152 0.997672
1.03391 1.03745 1 0.996592
1.03787 1.04113 1 0.996863
1.00564 1.00629 1.00273 0.996631
1.01467 1.01819 1.00027 0.996276
0.999032 1 1.00005 0.998983
1.00785 1 1.00956 0.998304
1.00297 1.00377 1.00198 0.997223
1.0059 1.00164 1.00647 0.997799
1.00663 1.00855 1.00048 0.99762
1.04378 1.04906 0.997699 0.99726
1.03214 1.03573 1 0.996533
1.03628 1.0395 1 0.996905
1.00637 1.00529 1.00458 0.996509
1.00714 1.01111 1.00003 0.996046
0.999736 1 1.00108 0.998653
1.00787 1 1.00996 0.997926
1.0077 1.00682 1.00378 0.997103
1.00564 1.00662 1.00161 0.997425
1.04044 1.06272 0.981474 0.997515
1.03709 1.04119 0.998767 0.997293
1.02022 1.02409 1 0.996223
1.00947 1.0091 1.00426 0.996127
0.999079 1 1 0.999079
0.99878 1 1 0.99878
0.998714 1 1 0.998714
0.999139 1 1 0.999139
0.998785 1 1 0.998785
0.999158 1 1 0.999158
0.998721 1 1 0.998721
0.998835 1 1.00007 0.998768
0.998746 1 1 0.998746
0.998881 1 1.00028 0.9986
0.998719 1 1 0.998719
0.999139 1 1 0.999139
0.999696 1 1 0.999696
0.999722 1 1 0.999722
1 1 1 1
0.99973 1 1 0.99973
1 1 1 1
1 1 1 1
1 1 1 1
1 1 1 1
1 1 1 1
1 1 1 1
0.999989 1 1 0.999989
1 1 1 1
0.999935 1 1 0.999935
1 1 1 1
1 1 1 1
1.04859 1.0524 0.999443 0.996939
1.04749 1.05679 0.994064 0.997124
1.04327 1.05612 0.990398 0.997404
1.04515 1.05785 0.990713 0.997259
1.04749 1.05552 0.995335 0.997042
1.05117 1.05658 0.998074 0.996799
1.04677 1.05502 0.995136 0.997031
1.04729 1.05944 0.991281 0.997223
1.04614 1.05959 0.989947 0.997335
1.04371 1.05524 0.991646 0.9974
1.04848 1.05981 0.992107 0.997177
1.04912 1.06626 0.986503 0.997386
1.04772 1.0655 0.985825 0.997456
1.04581 1.05496 0.994265 0.997047
1.04618 1.05577 0.993838 0.997063
1.04054 1.05198 0.991806 0.997299
1.00481 1.00775 1 0.997083
1.00862 1.01198 1.00018 0.996503
1.01879 1.02204 1.00085 0.995975
1.03786 1.04611 0.99479 0.99731
1.03289 1.03805 0.997657 0.997368
1.0347 1.03818 1 0.996654
1.00179 1.00445 1.00012 0.997228
0.998523 1.00105 1 0.997476
1.00712 1.00171 1.00809 0.997329
0.99945 1 1.00001 0.999444
1.00565 1 1.00768 0.997986
1.0041 1 1.00563 0.998476
1.04657 1.05838 0.991689 0.99713
1.04352 1.05978 0.987369 0.997248
1.03463 1.05072 0.987261 0.997391
1.00304 1.00617 1 0.996887
1.00419 1.00673 1.0014 0.996085
1.01203 1.01527 1.0009 0.995912
1.03547 1.04821 0.99028 0.997544
1.02971 1.03382 0.999046 0.996983
0.999702 1 1 0.999702
1.00031 1 1.00147 0.998839
1.00035 1.00303 1.00021 0.997114
1.00936 1.00166 1.01052 0.997194
1.00573 1.00002 1.00817 0.997565
1.00446 1 1.0063 0.998174
1.0467 1.06374 0.986634 0.997307
1.03588 1.06045 0.979426 0.997354
1.03151 1.05084 0.983974 0.997588
1.02568 1.03679 0.991711 0.997551
1.00238 1.0045 1.00131 0.996578
1.01183 1.01432 1.0014 0.996153
1.00455 1.00614 1.00264 0.995795
0.99985 1 1 0.99985
0.999362 1 1 0.999362
0.999092 1 1 0.999092
1.00103 1 1.00265 0.99838
1.00589 1 1.00807 0.997842
1.00864 1 1.01132 0.997349
0.999263 1.00192 1.00016 0.997187
1.03158 1.00089 1.03332 0.997431
0.999009 1 1.00002 0.998986
1.00834 1 1.01006 0.998295
1.0449 1.05029 0.997554 0.997307
1.00578 1.00174 1.00624 0.997806
1.00377 1.0044 1.00215 0.997233
1.00675 1.00904 1.00004 0.997696
1.0314 1.03497 1 0.996555
1.0376 1.04075 1 0.996978
1.00631 1.00503 1.00482 0.996475
1.0073 1.01137 1 0.995976
1.00017 1 1.00155 0.99862
1.00731 1 1.00939 0.997938
1.00935 1.00807 1.00415 0.997131
1.00502 1.00615 1.00142 0.997461
1.04266 1.06485 0.981583 0.997534
1.03784 1.04164 0.999113 0.997242
1.02046 1.02428 1 0.996271
1.01064 1.01081 1.00377 0.996075
1.00134 1 1.00294 0.998408
1.04323 1.06892 0.978376 0.99754
1.00201 1 1.00443 0.997585
1.00843 1.0089 1.00268 0.996869
1.03571 1.0518 0.987037 0.997635
1.01783 1.02154 1 0.996364
1.00777 1.00868 1.00323 0.995877
0.998792 1 1 0.998792
0.998703 1 1 0.998703
0.998757 1 1 0.998757
0.999156 1 1 0.999156
0.998788 1 1.00001 0.99878
0.998724 1 1 0.998724
0.999136 1 1 0.999136
0.998836 1 1.00011 0.998724
0.998755 1 1 0.998755
0.998712 1 1.00009 0.998618
0.998815 1 1 0.998815
0.998716 1 1.00007 0.998648
0.999003 1 1.00051 0.998493
0.998666 1 1 0.998666
0.999076 1 1 0.999076
0.99966 1 1 0.99966
0.999693 1 1 0.999693
1 1 1 1
0.999721 1 1 0.999721
1 1 1 1
1 1 1 1
1 1 1 1
1 1 1 1
1 1 1 1
0.999876 1 1 0.999876
1 1 1 1
0.999999 1 1 0.999999
1 1 1 1
0.999983 1 1 0.999983
1 1 1 1
1 1 1 1
1.04495 1.05617 0.991946 0.99741
1.04489 1.05866 0.989627 0.997334
1.04712 1.05906 0.99149 0.997214
1.04655 1.0549 0.995037 0.99703
1.04812 1.05971 0.991842 0.997196
1.04895 1.06569 0.986887 0.997377
1.04575 1.06353 0.985779 0.997465
1.04882 1.06612 0.986367 0.997366
1.05782 1.07665 0.984997 0.997479
1.04872 1.07136 0.98109 0.997741
1.04732 1.05888 0.991929 0.997138
1.0429 1.05953 0.987009 0.997255
1.03471 1.05034 0.987704 0.997384
1.0025 1.00558 1.00006 0.99688
1.00484 1.00743 1.00126 0.996164
1.01429 1.01758 1.00078 0.995989
1.03562 1.04783 0.990784 0.997549
1.02745 1.03205 0.998576 0.996964
1.00063 1.00328 1.0002 0.997163
1.01246 1.00222 1.01291 0.997341
1.00657 1.00026 1.00872 0.99761
0.999762 1 1 0.999762
1.00023 1 1.0014 0.998837
1.00459 1 1.00646 0.99814
1.04658 1.06403 0.986254 0.997318
0.999845 1 1 0.999845
0.999329 1 1 0.999329
1.03638 1.05965 0.980628 0.997356
1.03011 1.04996 0.9835 0.997557
1.00282 1.00442 1.00175 0.996665
1.00489 1.0058 1.00332 0.995785
1.01265 1.01572 1.00084 0.996145
1.02445 1.03625 0.991062 0.997526
0.99922 1 1.00005 0.999172
1.00092 1 1.00256 0.998372
1.00108 1.0018 1.00221 0.997085
1.02721 1.00098 1.02868 0.997596
1.00703 1.00009 1.0096 0.997367
1.0055 1 1.00765 0.997859
1.05551 1.07563 0.983819 0.997436
1.0177 1.05783 0.964491 0.997493
1.02065 1.04286 0.980921 0.99774
1.00638 1.01811 0.991207 0.997244
1.00409 1.00205 1.00532 0.996739
1.00454 1.0033 1.0055 0.995753
0.9993 1 1 0.9993
0.999322 1 1 0.999322
0.99903 1 1 0.99903
0.998583 1 1.00003 0.998553
1.00324 1 1.00512 0.998127
1.00519 1.00016 1.00753 0.997514
1.04506 1 1.04782 0.997373
1.00183 1.00049 1.00365 0.997691
1.0005 1 1.00191 0.998587
1.00637 1 1.00844 0.99795
1.04412 1.06594 0.981933 0.997554
1.03825 1.04181 0.999395 0.997191
1.00441 1.00577 1.00115 0.997498
1.01108 1.0095 1.00441 0.997159
1.02103 1.02477 1.00004 0.996318
1.01198 1.01263 1.00335 0.996022
1.00157 1 1.00318 0.998392
1.04573 1.07207 0.977784 0.997593
1.00262 1 1.00502 0.997611
1.00718 1.00769 1.00269 0.996811
1.03436 1.05085 0.98667 0.997609
1.01717 1.0208 1 0.996443
1.00867 1.00932 1.00348 0.995894
1.00386 1 1.00579 0.998074
1.01517 1.04469 0.973667 0.998019
1.00351 1.00301 1.00319 0.997316
1.00418 1.00401 1.00379 0.996393
1.01702 1.02697 0.993106 0.997191
1.00213 1.00385 1.00221 0.996087
0.981212 1.0038 0.979928 0.997518
0.998692 1 1 0.998692
0.999187 0.999831 1.0006 0.998756
0.999128 1 1.00046 0.998669
0.999134 1 1 0.999134
0.999041 1 1.00031 0.998729
0.998636 1 1 0.998636
0.998764 1 1 0.998764
0.999075 1 1 0.999075
0.998664 1 1.00001 0.998658
0.998781 1 1 0.998781
0.998802 1 1.00031 0.998494
0.998709 1 1.00007 0.998635
0.99877 1 1 0.99877
0.998793 1 1.00048 0.998314
0.999667 1 1.0012 0.998471
0.998561 1 1.00001 0.99855
0.998944 1 1 0.998944
0.998997 1 1.00027 0.998724
0.998918 1 1 0.998918
0.999641 1 1 0.999641
0.999657 1 1 0.999657
1 1 1 1
0.99969 1 1 0.99969
1 1 1 1
1 1 1 1
1 1 1 1
1 1 1 1
1 1 1 1
0.9999 1 1 0.9999
0.999875 1 1 0.999875
1 1 1 1
1 1 1 1
1 1 1 1
0.999999 1 1 0.999999
1 1 1 1
1 1 1 1
1.04404 1.06194 0.98563 0.997474
1.04868 1.06514 0.987149 0.997367
1.04781 1.05966 0.991579 0.997214
1.04885 1.06609 0.986426 0.997364
1.05546 1.07446 0.984801 0.997477
1.04818 1.0698 0.982078 0.99767
1.05913 1.08145 0.981778 0.997545
0.976678 1.01605 0.965169 0.995936
1.01237 1.04223 0.97288 0.998424
0.999429 1 1 0.999429
1.04648 1.06432 0.985873 0.997329
1.03701 1.0589 0.981927 0.997357
1.02873 1.04915 0.982967 0.997526
1.00017 1.00261 1.00082 0.99675
1.00422 1.00444 1.00402 0.995775
1.01248 1.01598 1.00042 0.996137
1.02341 1.03582 0.990487 0.997501
0.998938 1.0019 1.00006 0.996984
1.02014 1 1.02243 0.997764
1.00505 1 1.00768 0.997385
0.999841 1 1 0.999841
1.00641 1 1.00856 0.997876
0.999347 1 1.0001 0.999251
1.00088 1 1.00252 0.998365
0.999297 1 1 0.999297
1.05235 1.0759 0.980626 0.997443
0.999342 1 1 0.999342
0.999321 1 1 0.999321
0.998995 1 1 0.998995
1.0218 1.05808 0.968134 0.997492
1.02117 1.04328 0.981068 0.997694
1.00116 1.00174 1.00266 0.996766
1.007 1.00558 1.00556 0.995867
1.00583 1.01603 0.992711 0.997228
0.998694 1 1.00009 0.998604
1.0035 1 1.00543 0.998081
1.00719 1.00031 1.00931 0.997589
1.03566 1 1.03836 0.997404
1.00406 1.00001 1.00651 0.99756
1.03536 1.06486 0.974687 0.997546
1.00276 1.04954 0.95769 0.99764
1.01347 1.02734 0.989066 0.997404
0.992823 1.00637 0.989526 0.996985
1.00352 1 1.00623 0.997303
0.998878 1 1 0.998878
0.998815 1 1 0.998815
0.99973 1 1.00101 0.998722
1.00284 1 1.00451 0.998335
1.00625 1 1.00832 0.997948
1.0339 1 1.03642 0.997568
1.0285 1.00122 1.02975 0.997574
1.00155 1 1.00318 0.998375
1.00315 1 1.00553 0.997636
1.04742 1.07609 0.975654 0.997644
1.03349 1.05063 0.986073 0.997582
1.0167 1.02025 1 0.996522
1.00573 1.00632 1.00268 0.996754
1.00928 1.00978 1.0036 0.995911
1.00356 1 1.00546 0.998115
1.01408 1.04486 0.972434 0.998053
1.00129 1.00196 1.002 0.99733
1.00349 1.00303 1.00408 0.996397
1.01644 1.0273 0.992102 0.997302
1.00241 1.00362 1.00273 0.996078
0.981029 1.0038 0.980641 0.996606
1.00391 1.00065 1.00533 0.997944
1.00475 1.02318 0.983951 0.997998
1.00063 1.00137 1.00204 0.99723
1.00442 1.00139 1.00644 0.996605
0.992863 1.00605 0.989815 0.997043
0.924224 0.979037 0.966126 0.977112
0.924133 0.972366 0.961688 0.988259
0.972602 0.986014 0.988757 0.997614
0.75362 0.849679 0.92644 0.957371
0.678105 0.818492 0.876718 0.94498
0.999343 0.999644 1.00094 0.998755
0.999986 0.999822 1.00144 0.998721
0.999291 1 1.00058 0.998708
0.999075 1 1 0.999075
0.998649 1 1 0.998649
0.998556 1 1.00006 0.998495
0.998651 1 1.00003 0.998621
0.998747 1 1 0.998747
1.00036 1 1.00192 0.998447
0.998978 1 1 0.998978
0.998575 1 1.00001 0.99857
0.998771 1 1.00004 0.998733
0.999116 1 1.00077 0.99835
1.00141 1 1.00305 0.998361
1.00206 1 1.00362 0.99844
1.00081 1 1.00244 0.998376
0.99873 1 1.00025 0.998486
0.998912 1 1 0.998912
0.998581 1 1.00001 0.99857
0.998737 1 1.00019 0.998552
0.998751 1 1.00001 0.998737
0.998943 1 1.00026 0.998684
0.999029 1 1 0.999029
0.998919 1 1 0.998915
0.999636 1 1 0.999636
0.999641 1 1 0.999641
1 1 1 1
0.999655 1 1 0.999655
1 1 1 1
1 1 1 1
1 1 1 1
1 1 1 1
1 1 1 1
0.999924 1 1 0.999924
0.999896 1 1 0.999896
1 1 1 1
0.999875 1 1 0.999875
1 1 1 1
1 1 1 1
1 1 1 1
1 1 1 1
1 1 1 1
1.05275 1.07196 0.98457 0.997474
1.0489 1.06605 0.986521 0.997362
1.04824 1.06861 0.983294 0.9976
0.978335 1.01587 0.966914 0.996007
1.05605 1.07874 0.981377 0.997544
1.02411 1.04557 0.981141 0.998298
1.04164 1.05622 0.988495 0.997667
0.93415 0.981119 0.9643 0.987376
0.994273 1.01935 0.978566 0.996763
0.999445 1 1 0.999445
0.999425 1 1 0.999425
0.99899 1 1 0.99899
0.999069 1 1 0.999069
1.0501 1.07619 0.978253 0.99745
1.02545 1.05786 0.9718 0.99749
1.02156 1.04346 0.981322 0.997647
1.00032 1.00082 1.00272 0.996793
1.00993 1.0086 1.00536 0.99598
1.00487 1.01406 0.993703 0.997212
1.01612 1 1.01868 0.997487
1.02846 1.00003 1.03107 0.997433
1.00215 1 1.00455 0.997605
0.99932 1 1 0.99932
1.00199 1 1.00396 0.998035
0.998751 1 1.00009 0.998657
0.999384 1 1 0.999384
0.998959 1 1 0.998959
1.033 1.06469 0.972614 0.997561
0.99892 1 1 0.99892
0.998871 1 1 0.998871
0.999086 1 1.00022 0.998862
1.00752 1.05211 0.959894 0.997633
1.01274 1.02717 0.988523 0.997402
1.00364 1.00035 1.00602 0.997285
0.99519 1.00654 0.991647 0.997053
1.00142 1 1.00314 0.998288
1.00514 1 1.0073 0.997854
1.03429 1.00123 1.03554 0.997556
1.0342 1.00019 1.03659 0.9975
0.997353 1.04223 0.959112 0.997737
0.995511 1.03236 0.966607 0.997623
1.00459 1.0106 0.996969 0.997076
0.986175 1.00089 0.987367 0.997905
0.999064 1 1.00049 0.998575
1.00069 1 1.0022 0.998491
1.01234 1 1.0141 0.99827
1.05296 1 1.05552 0.997575
0.90042 0.968774 0.953793 0.974471
1.00388 1 1.00574 0.998156
0.999312 1.00088 1.00109 0.997344
1.01435 1.04469 0.972817 0.998089
1.01603 1.02722 0.991669 0.997414
1.00274 1.00339 1.0033 0.996068
1.00318 1.00232 1.00447 0.9964
0.981737 1.00494 0.981154 0.995671
1.00272 1.00031 1.00442 0.998002
1.00468 1.02439 0.982741 0.997984
1.00031 1.0014 1.00168 0.997246
1.00453 1.00183 1.00611 0.996607
0.996317 1.00697 0.992355 0.997043
0.922998 0.985531 0.961041 0.974515
0.917918 0.969586 0.960532 0.985611
0.976263 0.986546 0.991921 0.997637
0.751794 0.845852 0.927554 0.95822
0.663736 0.807815 0.873361 0.940784
1.00108 1.00012 1.00277 0.998197
0.782589 0.867532 0.93933 0.960352
0.717094 0.824242 0.919417 0.946257
0.988809 1.00642 0.984517 0.997952
1.0074 1.00143 1.00831 0.997669
1.01282 1.00479 1.01065 0.997368
0.96747 0.979543 0.989767 0.997886
0.909556 0.96224 0.969122 0.975365
0.892316 0.943373 0.961135 0.984126
0.741147 0.847074 0.910935 0.960496
0.737419 0.870164 0.897238 0.944507
1.00119 0.999661 1.00276 0.998773
1.00058 0.999891 1.00201 0.998684
1.00265 1 1.00381 0.998849
0.999011 1 1 0.999011
0.99859 1 1 0.99859
1.00075 1 1.00233 0.998422
0.999664 1 1.00128 0.998385
0.998697 1 1 0.998697
0.998913 1 1 0.998913
1.00159 1 1.00324 0.998351
1.0012 1 1.00281 0.998388
0.998578 1 1.00006 0.998522
1.00203 1 1.00357 0.998462
1.00386 1 1.00546 0.998403
1.00894 1 1.0104 0.998556
0.999544 1 1.00122 0.998323
0.998722 1 1.00019 0.998534
0.998579 1 1.00001 0.998566
0.998892 1 1.00034 0.998556
0.999012 1 1.00062 0.998389
0.999124 1 1.00054 0.998582
0.999845 1 1.00129 0.998558
1.00368 1 1.00532 0.998374
0.99954 1 1.00084 0.998697
0.99887 1 1.00013 0.998738
0.999064 1 1 0.999064
0.998812 1 1.00017 0.998645
0.999001 1 1 0.999001
0.999625 1 1 0.999625
0.998912 1 1 0.998912
0.999637 1 1 0.999637
1 1 1 1
0.999641 1 1 0.999641
1 1 1 1
1 1 1 1
1 1 1 1
1 1 1 1
1 1 1 1
0.999402 1 1 0.999402
0.999928 1 1 0.999928
0.999921 1 1 0.999921
1 1 1 1
0.999893 1 1 0.999893
1 1 1 1
1 1 1 1
1 1 1 1
1 1 1 1
1 1 1 1
0.980545 1.01572 0.969161 0.996083
1.05364 1.07574 0.981865 0.997543
1.03078 1.04865 0.984766 0.99817
0.927658 0.974684 0.962844 0.988481
0.994114 1.01907 0.97852 0.996926
1.04162 1.05991 0.98509 0.997622
1.00652 1.02718 0.982886 0.996952
0.941855 0.975523 0.97547 0.989766
0.922135 0.977915 0.967122 0.975016
0.7498 0.846925 0.92196 0.960259
0.646973 0.779988 0.878503 0.944181
0.999014 1 1 0.999014
0.999443 1 1 0.999443
0.999421 1 1 0.999421
0.998981 1 1 0.998981
0.998748 1 1 0.998748
0.99877 1 1 0.99877
0.998953 1 1 0.998953
0.99903 1 1 0.99903
1.02926 1.06481 0.968958 0.997575
1.0128 1.05576 0.961591 0.997626
1.01225 1.02708 0.988124 0.997402
1.00287 1.00115 1.00446 0.997268
0.997597 1.00641 0.994103 0.997121
1.03719 1.00071 1.03901 0.997536
1.03368 1.00031 1.03602 0.997434
1.0059 1 1.00816 0.997761
0.998928 1 1 0.998928
1.0014 1 1.00317 0.99824
0.998963 1 1 0.998963
0.999002 1 1 0.999002
0.996542 1.04295 0.957658 0.997748
0.999292 1 1.0007 0.998597
1.00063 1 1.00209 0.998537
0.99427 1.031 0.966697 0.997598
1.00193 1.01093 0.993863 0.99721
0.988342 1.00118 0.989363 0.997789
1.02039 1.00011 1.02222 0.998092
1.04894 1.00096 1.05045 0.997604
0.982857 1.02714 0.959089 0.997709
0.985929 1.00999 0.978503 0.997627
0.979729 1.00166 0.980406 0.997654
0.989583 1.00118 0.990349 0.998053
1.00425 1 1.00605 0.998209
1.00956 1 1.01131 0.998265
1.04849 1 1.05069 0.997909
0.782107 0.876884 0.927178 0.961969
0.918082 0.975894 0.961862 0.978061
1.00102 1 1.00296 0.998061
0.99986 1.00122 1.00138 0.997262
1.00471 1.02592 0.981315 0.997972
0.999173 1.00828 0.993905 0.997044
1.00476 1.00246 1.00571 0.996611
0.918853 0.975279 0.9659 0.975405
0.922429 0.976295 0.958019 0.986229
0.977136 0.985192 0.994156 0.997654
0.754756 0.847568 0.926402 0.961242
0.650944 0.797282 0.871848 0.936464
1.00051 0.999898 1.00242 0.998197
0.781091 0.873679 0.930236 0.961074
0.704334 0.812264 0.91858 0.943984
0.98858 1.00731 0.983426 0.997949
1.00748 1.00184 1.00795 0.997691
1.01105 1.00313 1.01041 0.997519
0.960248 0.973859 0.987954 0.998046
0.918859 0.973342 0.970258 0.972963
0.889856 0.942876 0.956632 0.986552
0.746468 0.844425 0.922131 0.958645
0.736156 0.875675 0.890951 0.943567
1.00295 1 1.0043 0.998655
0.749168 0.836258 0.945529 0.947467
0.821747 0.90784 0.947952 0.954865
0.988679 0.996967 0.993004 0.998673
1.01462 1.00248 1.01351 0.998611
0.969585 0.96532 1.00666 0.997776
0.895747 0.930733 0.974361 0.987735
0.879379 0.932058 0.970936 0.971724
0.7501 0.840125 0.930551 0.959479
0.782443 0.914487 0.902883 0.947641
1.00142 0.999644 1.00312 0.998661
1.00197 1 1.00316 0.998812
1.00559 0.999795 1.00673 0.999078
0.998914 1 1 0.998914
0.998559 1 1 0.998559
1.00188 1 1.00348 0.9984
1.00207 1 1.00373 0.99834
1.00174 1 1.00326 0.998484
0.998661 1 1.00013 0.998533
1.00246 1 1.00408 0.998387
0.999557 1 1.00123 0.998325
1.00912 0.999908 1.01062 0.998613
1.02751 0.998999 1.02946 0.999097
1.00456 1 1.00615 0.998413
0.998943 1 1.00066 0.998284
0.998575 1 1.00001 0.998562
0.999192 1 1.00063 0.998559
0.999295 1 1.00092 0.998382
0.99945 1 1.00088 0.998571
0.99934 1 1.00071 0.998635
1.00234 1 1.00384 0.998508
1.00033 1 1.00187 0.99846
1.00163 1 1.00299 0.998644
0.999105 1 1.0007 0.998403
0.998747 1 1.00093 0.997821
1.00301 1 1.00475 0.998271
1.00317 1 1.00481 0.998374
1.00275 1 1.00416 0.998592
1.00029 1 1.0016 0.998694
0.999045 1 1 0.999045
0.99918 1 1.00044 0.998738
0.999065 1 1 0.999065
0.999618 1 1 0.999618
0.998974 1 1 0.998974
0.999628 1 1 0.999628
0.999997 1 1 0.999997
0.999638 1 1 0.999638
0.999999 1 1 0.999999
1 1 1 1
1 1 1 1
1 1 1 1
1 1 1 1
0.999412 1 1 0.999412
0.999908 1 1 0.999908
0.999404 1 1 0.999404
1 1 1 1
0.999928 1 1 0.999928
0.999917 1 1 0.999917
1 1 1 1
1 1 1 1
1 1 1 1
1 1 1 1
1 1 1 1
0.77571 0.864608 0.936198 0.958324
0.710681 0.820464 0.915835 0.945797
0.92887 0.978468 0.959871 0.988999
0.995589 1.01882 0.980042 0.997094
1.04469 1.06387 0.984357 0.997577
0.923552 0.959411 0.971206 0.991163
1.00691 1.02655 0.983725 0.997089
0.933804 0.989681 0.966606 0.976137
0.750241 0.849365 0.921984 0.958039
0.646841 0.788101 0.873201 0.939943
0.956713 0.996238 0.96672 0.993386
0.920796 0.970624 0.972141 0.975851
0.738657 0.845659 0.910043 0.95981
0.721734 0.860282 0.889274 0.943411
0.999938 1 1.00134 0.998602
0.999048 1 1 0.999048
0.999442 1 1 0.999442
0.998973 1 1 0.998973
0.998801 1 1 0.998801
0.999656 1 1.00109 0.998571
0.99875 1 1 0.99875
0.998657 1 1 0.998657
0.998914 1 1 0.998914
0.998992 1 1 0.998992
0.996867 1.04312 0.957803 0.99776
0.991427 1.02843 0.96636 0.997576
0.999586 1.01155 0.990807 0.997344
0.990443 1.0013 0.991462 0.997672
1.0439 1.00247 1.0438 0.997633
1.02889 1.00018 1.03085 0.997915
0.999255 1 1.00067 0.998584
0.999461 1 1.00084 0.998619
0.983703 1.02744 0.959568 0.997771
1.0052 1 1.00704 0.998175
1.00914 1 1.01093 0.998221
0.983612 1.00821 0.977986 0.997562
0.977817 1.00128 0.978773 0.997747
0.991299 1.002 0.991321 0.997982
1.04228 1 1.04451 0.997867
0.981469 1.00389 0.979582 0.998044
0.972211 0.999549 0.974172 0.998438
1.01368 1.00091 1.01459 0.998196
1.00861 1 1.0105 0.998128
1.00906 1 1.01106 0.998017
1.0267 1 1.02875 0.99801
0.773281 0.851574 0.951008 0.95484
0.790305 0.875742 0.938002 0.962089
0.906645 0.972452 0.956652 0.974575
1.00038 0.999795 1.0024 0.998195
1.00717 1.00182 1.00765 0.997712
0.991123 1.00838 0.984908 0.997948
1.00947 1.00173 1.01008 0.997666
0.776295 0.868677 0.928656 0.962307
0.91369 0.969608 0.966914 0.974573
0.886425 0.939526 0.958598 0.984231
0.957338 0.969938 0.988788 0.998202
0.741247 0.844363 0.917994 0.956299
0.704652 0.813695 0.916695 0.944688
0.727112 0.866559 0.887165 0.945799
1.00319 0.999846 1.0047 0.998649
0.750939 0.838963 0.942202 0.949988
0.83288 0.917952 0.950441 0.954635
0.988541 0.994763 0.994977 0.998762
1.01452 1.0015 1.01446 0.998568
0.966932 0.964097 1.00478 0.99817
0.889597 0.934289 0.966221 0.985452
0.894213 0.939862 0.976341 0.974485
0.77007 0.862189 0.932959 0.957337
0.770149 0.902867 0.898322 0.949553
1.00725 0.998989 1.00885 0.999431
0.847144 0.922973 0.955427 0.960663
0.818342 0.91328 0.934384 0.958972
0.988172 0.97388 1.01496 0.999715
0.917071 0.93042 0.993934 0.991667
0.900662 0.930132 0.994913 0.973267
0.813117 0.891796 0.954116 0.955622
0.805753 0.9392 0.904083 0.948933
1.00191 1 1.00314 0.998774
1.00563 0.999485 1.00708 0.999073
1.02297 0.997802 1.02588 0.999354
0.998765 1 1.00023 0.998531
0.99948 1 1.00116 0.998327
1.00069 1 1.00232 0.99837
1.00928 0.999794 1.01083 0.99867
0.999205 1 1.00092 0.998284
1.00454 1 1.00614 0.998404
1.03212 0.999653 1.03333 0.999174
1.04276 0.996577 1.04692 0.999446
1.03308 0.999398 1.03467 0.999068
0.999187 1 1.00083 0.99836
0.999543 1 1.00117 0.998374
0.999366 1 1.00081 0.998561
0.99871 1 1 0.99871
0.999973 1 1.0015 0.998477
1.00161 1 1.00311 0.998509
1.00213 1 1.00348 0.99866
1.00098 1 1.00248 0.998509
1.0065 0.999542 1.00801 0.998967
0.997464 1.00021 0.998748 0.998501
0.999705 1.00046 1.00082 0.998424
0.998724 1 1.00069 0.998031
1.00083 1.00226 1.00153 0.997045
1.00216 1 1.004 0.998168
0.998821 1 1.00079 0.998031
1.0027 1 1.00442 0.998288
1.00487 1 1.00644 0.998435
1.00239 1 1.00402 0.998374
1.00242 1 1.00384 0.998591
0.99917 1 1.00022 0.998952
1.00056 1 1.00187 0.998692
0.999043 1 1 0.999043
0.999604 1 1 0.999604
0.999066 1 1 0.999066
0.999619 1 1 0.999619
0.999991 1 1 0.999991
0.99963 1 1 0.99963
0.999995 1 1 0.999995
1 1 1 1
0.999999 1 1 0.999999
1 1 1 1
1 1 1 1
0.999185 1 1 0.999185
0.99987 1 1 0.99987
0.999341 1 1 0.999341
1 1 1 1
0.999912 1 1 0.999912
0.999405 1 1 0.999405
1 1 1 1
1 1 1 1
0.999929 1 1 0.999929
1 1 1 1
1 1 1 1
1 1 1 1
0.744833 0.835696 0.937875 0.950311
0.781781 0.871843 0.934145 0.959915
0.827526 0.917006 0.945725 0.954211
0.706308 0.817152 0.915176 0.944466
0.924567 0.968762 0.965238 0.988752
1.00484 1.02608 0.982013 0.997236
0.939106 0.987238 0.973578 0.977061
0.759358 0.852823 0.927067 0.960454
0.650719 0.799618 0.869776 0.935628
0.955055 0.991156 0.970824 0.992536
0.915211 0.970521 0.970386 0.971789
0.752032 0.854083 0.919032 0.958088
0.723292 0.86487 0.888461 0.941293
0.932164 0.977452 0.96307 0.990236
0.895113 0.936366 0.984331 0.971159
0.773178 0.872331 0.927592 0.955523
0.776396 0.912309 0.900611 0.944939
1.00165 1 1.00332 0.998336
0.999273 1 1.00063 0.998647
0.999081 1 1 0.999081
0.998854 1 1 0.998854
0.998641 1 1.0004 0.99824
0.998964 1 1.00035 0.998614
0.998729 1 1 0.998729
0.998624 1 1 0.998624
0.998702 1 1.00001 0.998694
0.998875 1 1 0.998875
0.985012 1.02863 0.959677 0.997832
0.983646 1.00725 0.97901 0.9975
0.975824 1.00129 0.976679 0.997839
0.99525 1.00326 0.994092 0.997913
1.035 1 1.03725 0.997825
1.0083 1 1.01014 0.998178
1.00562 1 1.0075 0.998141
1.00771 1 1.00964 0.998091
0.979045 1.00414 0.976907 0.998052
1.00756 1 1.00957 0.998008
1.02731 1 1.02937 0.997996
0.970773 0.999959 0.972356 0.998414
1.01051 1.00196 1.0104 0.998154
0.953766 0.98316 0.971593 0.998465
0.985969 0.991529 0.995155 0.999233
1.03847 0.999668 1.04047 0.998406
1.00473 1 1.00673 0.998019
1.0172 1 1.01917 0.998071
0.856594 0.928319 0.957291 0.963904
0.774913 0.851037 0.954166 0.95429
0.779078 0.870001 0.932876 0.959924
1.00344 0.99989 1.00492 0.998643
1.01493 1.0005 1.01592 0.998524
0.985194 0.992488 0.993793 0.998851
0.754591 0.841428 0.9432 0.950804
0.893361 0.936123 0.982391 0.971426
0.892601 0.932124 0.970274 0.986937
0.958767 0.960509 0.999633 0.998553
0.769927 0.864494 0.927899 0.959814
0.839847 0.923344 0.952954 0.954476
0.77489 0.906237 0.900337 0.949714
1.00581 0.998919 1.00752 0.999385
0.844079 0.921735 0.951815 0.962109
0.818537 0.913378 0.934453 0.959027
0.990795 0.977759 1.01379 0.99955
0.928532 0.940074 0.996268 0.991421
0.876638 0.923133 0.978795 0.970207
0.806609 0.939124 0.904464 0.949618
0.827844 0.899411 0.962035 0.956752
1.0035 0.981855 1.02234 0.999711
0.827591 0.908082 0.94103 0.968472
0.84113 0.934869 0.936669 0.960564
0.775994 0.9112 0.901037 0.945153
0.965964 0.954536 1.01419 0.997812
0.925929 0.943465 1.00713 0.974464
0.869018 0.931821 0.973213 0.958272
1.00613 0.999145 1.00793 0.999067
1.02273 0.997541 1.026 0.99927
1.02256 0.985844 1.0377 0.999566
0.999255 1 1.00097 0.998283
1.00415 1 1.00576 0.998395
1.03711 0.999817 1.03808 0.999251
0.999494 1 1.00113 0.998365
1.03235 0.999478 1.03384 0.999079
1.0441 0.996411 1.04847 0.999421
1.03268 0.992841 1.04065 0.999489
1.02133 0.999067 1.02325 0.999058
0.999853 1 1.00136 0.998495
1.00129 1 1.00278 0.99851
1.00271 1 1.00404 0.998678
1.00589 0.999835 1.00712 0.99894
1.00045 1 1.00194 0.998508
1.00221 1 1.00336 0.998857
0.998146 1.00007 0.999312 0.998765
1.00184 1.00018 1.00405 0.99762
1.00018 1.00089 1.00084 0.998448
0.99914 1.00063 1.00057 0.997948
0.998535 1.00073 1.00101 0.9968
1.01183 1.0138 1.00129 0.996768
1.00192 1.00133 1.00276 0.997828
0.999948 1.00148 1.00138 0.997093
1.00729 1 1.00907 0.998242
1.00312 1.00031 1.00466 0.998158
0.998884 1 1.00065 0.998239
1.00255 1 1.00425 0.998305
1.00426 1 1.0058 0.998469
0.99973 1 1.0009 0.998827
1.0023 1 1.00372 0.99859
0.999251 1 1.0003 0.998952
0.99955 1 1 0.99955
0.99904 1 1 0.99904
0.999601 1 1 0.999601
0.999987 1 1 0.999987
0.999619 1 1 0.999619
0.99999 1 1 0.99999
1 1 1 1
0.999994 1 1 0.999994
1 1 1 1
1 1 1 1
0.998949 1 1 0.998949
0.999689 1 1 0.999689
0.999183 1 1 0.999183
1 1 1 1
0.999822 1 1 0.999822
0.99927 1 1 0.99927
1 1 1 1
1 1 1 1
0.999917 1 1 0.999917
1 1 1 1
1 1 1 1
1 1 1 1
0.843273 0.925431 0.94794 0.961266
0.742031 0.835301 0.932982 0.95215
0.778418 0.86788 0.934766 0.959512
0.998503 1 1 0.998503
0.824381 0.911073 0.94132 0.961252
0.826243 0.91657 0.944843 0.954074
0.709626 0.823799 0.91028 0.946309
0.962582 0.993909 0.976828 0.991455
0.912868 0.963841 0.971166 0.975234
0.755955 0.86608 0.913359 0.955645
0.718408 0.853635 0.892953 0.942476
0.929975 0.974181 0.966839 0.987365
0.893247 0.936746 0.9788 0.974217
0.782807 0.873985 0.936982 0.955915
0.772447 0.906535 0.901195 0.945509
0.892125 0.937331 0.966781 0.984476
0.889784 0.92221 0.992974 0.971665
0.841394 0.911686 0.964296 0.95707
0.806678 0.938521 0.905834 0.948871
1.00117 1 1.00307 0.998107
1.00288 1 1.00459 0.998292
0.998825 1 1.00013 0.998691
0.99832 1 1.00002 0.998304
0.998869 1 1.00056 0.998306
0.998655 1 1 0.998655
0.99863 1 1 0.99863
0.998756 1 1.00003 0.998731
0.97548 1.0048 0.972714 0.998055
0.968844 1.00073 0.969694 0.998396
1.0072 1 1.00916 0.998054
1.00766 1.00297 1.00658 0.99811
1.02913 1 1.03121 0.997981
1.00695 1 1.00897 0.998
1.00497 1 1.00696 0.99803
0.958285 0.983747 0.975521 0.998561
1.01561 1 1.01754 0.9981
1.02789 1.00032 1.02917 0.998437
0.982865 0.992412 0.991087 0.999286
1.00693 1 1.00879 0.998151
0.951802 0.970338 0.982555 0.998312
1.00197 0.988213 1.01445 0.999473
1.04808 0.997261 1.0525 0.998538
1.00921 1 1.01097 0.998259
0.838148 0.911131 0.947376 0.970996
0.855973 0.928231 0.956739 0.963853
0.778135 0.85041 0.959401 0.953732
1.00375 0.998648 1.00577 0.999343
0.994012 0.980905 1.01398 0.99939
0.843179 0.922457 0.948661 0.963523
0.90198 0.925675 1.00042 0.97399
0.91812 0.937534 0.990932 0.988253
0.827494 0.900084 0.962208 0.955461
0.819313 0.914409 0.934248 0.959063
0.808432 0.939936 0.90507 0.950305
1.00727 0.987935 1.01991 0.999669
0.829191 0.90938 0.941533 0.968442
0.840136 0.932705 0.935763 0.962586
0.97473 0.95996 1.01593 0.999461
0.771468 0.905149 0.901312 0.945633
0.904707 0.927618 1.00295 0.972428
0.875862 0.939329 0.973509 0.957806
1.0028 0.977282 1.02636 0.999754
0.851323 0.928815 0.944365 0.970566
0.8221 0.908395 0.941276 0.961463
0.719598 0.85871 0.888079 0.943607
0.840418 0.911448 0.963895 0.956607
0.953383 0.95257 1.00563 0.995249
0.932958 0.941011 1.02317 0.968988
1.01989 0.997956 1.02281 0.999188
1.02487 0.987148 1.03869 0.999534
1.01112 0.975425 1.03703 0.999582
0.999744 1 1.00137 0.998371
1.03419 0.999536 1.03561 0.999091
1.04565 0.997574 1.04883 0.999396
1.01623 0.999238 1.01798 0.999045
1.03267 0.9945 1.03891 0.999488
1.0116 0.990252 1.02234 0.999235
1.00474 1 1.00583 0.998912
1.00005 1 1.00154 0.998507
1.00445 1 1.00562 0.998837
1.00967 1 1.01152 0.998166
0.999028 1 1 0.999028
1.00012 1.00018 1.00214 0.997804
1.00172 1.00083 1.00437 0.996524
1.00539 1.00742 1.00188 0.996114
0.999619 1.00136 1.0004 0.997861
0.998923 1.00121 1.00109 0.996622
1.01297 1.01563 1.00053 0.99686
1.00714 1.00718 1.00261 0.997356
1.01095 1.01287 1.00125 0.996856
1.00692 1 1.0089 0.998042
1.00389 1.00279 1.00331 0.997806
0.998788 1.00037 1.00128 0.997142
1.00278 1 1.00414 0.998643
1.00672 1 1.00848 0.998256
1.00405 1.00053 1.00537 0.998149
1.00393 1 1.00544 0.998504
1.00022 1 1.0014 0.998826
0.999454 1 1.00001 0.999448
0.999451 1 1.0005 0.998953
0.999546 1 1 0.999546
0.999982 1 1 0.999982
0.999599 1 1 0.999599
0.999986 1 1 0.999986
1 1 1 1
0.999989 1 1 0.999989
1 1 1 1
1 1 1 1
0.998862 1 1 0.998862
0.999549 1 1 0.999549
0.998992 1 1 0.998992
1 1 1 1
0.999674 1 1 0.999674
0.99918 1 1 0.99918
1 1 1 1
1 1 1 1
0.999775 1 1 0.999775
1 1 1 1
1 1 1 1
1 1 1 1
0.833574 0.910823 0.944178 0.969296
0.846023 0.925069 0.951418 0.961251
0.742421 0.835413 0.933186 0.952314
0.998536 1 1 0.998536
0.998465 1 1 0.998465
0.998402 1 1 0.998402
0.840272 0.936241 0.934547 0.960354
0.820985 0.910552 0.937924 0.961307
0.825606 0.915996 0.944834 0.953946
0.934911 0.978416 0.965827 0.989344
0.8805 0.931926 0.972988 0.971047
0.77289 0.857552 0.939281 0.959536
0.784647 0.915786 0.907378 0.944261
0.894709 0.941357 0.962836 0.987132
0.895435 0.926181 0.994562 0.972089
0.820162 0.888475 0.963611 0.957971
0.806136 0.939288 0.903889 0.949499
0.890418 0.930566 0.971432 0.984995
0.910019 0.93169 1.00371 0.973125
0.868721 0.929958 0.974608 0.958488
0.786269 0.917203 0.904656 0.947594
0.998809 1 1.00064 0.998169
1.00183 1 1.00376 0.998079
1.0028 1 1.00456 0.998248
0.998305 1 1.00001 0.998294
0.99871 1 1.00034 0.998372
0.998636 1 1 0.998636
0.961259 0.981457 0.980755 0.99864
0.978122 0.991519 0.987157 0.999323
1.00515 1 1.00712 0.998041
1.01957 1.00052 1.0206 0.998468
1.01626 1 1.01816 0.99813
1.00884 1 1.01073 0.998137
1.00926 0.999756 1.01124 0.998285
0.958546 0.970476 0.989284 0.998406
1.04664 0.996907 1.05128 0.998679
1.00608 0.984253 1.0228 0.999389
1.00831 0.999856 1.01004 0.998439
0.977658 0.963076 1.01699 0.998187
1.00641 0.978754 1.02888 0.999403
1.03491 0.991175 1.04538 0.998794
0.863981 0.933672 0.951099 0.972935
0.839551 0.911631 0.947951 0.971499
0.855402 0.928074 0.956315 0.963799
1.01239 0.994087 1.01879 0.999627
0.96366 0.956976 1.00868 0.998322
0.830748 0.910432 0.94224 0.968412
0.900096 0.916102 1.00622 0.97645
0.870486 0.936512 0.972 0.956274
0.84019 0.931113 0.935459 0.964606
0.785548 0.915056 0.908924 0.944489
0.998532 0.974575 1.02481 0.999782
0.852412 0.928597 0.945067 0.971314
0.822489 0.910611 0.939374 0.961522
0.949627 0.948145 1.01005 0.991596
0.721617 0.863143 0.887892 0.941594
0.815227 0.886895 0.960217 0.957275
0.942543 0.946848 1.02273 0.973329
1.00179 0.961336 1.04317 0.99896
0.834375 0.910158 0.945639 0.969436
0.834382 0.921824 0.948232 0.954558
0.645793 0.777498 0.87921 0.944716
0.767381 0.866832 0.926523 0.955477
0.908715 0.928507 1.00642 0.972438
0.928295 0.943613 0.994738 0.98897
1.0281 0.988359 1.04073 0.999501
1.01523 0.98205 1.03421 0.999586
1.01255 0.986915 1.02647 0.999518
1.01089 0.999558 1.01232 0.999032
1.03085 0.9957 1.03584 0.999487
1.01512 0.988387 1.02775 0.999319
1.00862 1 1.00982 0.998814
1.00676 1 1.00796 0.998816
1.00809 1.00003 1.01009 0.997994
1.019 1.00082 1.02155 0.996683
0.998277 1.00005 1.00023 0.997991
1.00321 1.00118 1.00553 0.996514
1.00426 1.00251 1.00612 0.995653
1.00551 1.00793 1.00191 0.995698
1.0076 1.01008 1.00108 0.996468
1.00523 1.00728 1.0019 0.996064
0.999165 1.00149 1.00124 0.996445
1.00579 1.00755 1.0011 0.997156
1.01314 1.01575 1.00048 0.996944
1.0024 1.00012 1.00464 0.997649
1.00841 1.00826 1.00274 0.99742
1.01067 1.01259 1.00117 0.996944
1.00742 1 1.00909 0.998346
1.00624 1.00017 1.00804 0.998041
1.00603 1.00445 1.0038 0.997783
0.99955 1 1.00024 0.999311
1.00237 1 1.00373 0.998641
1.00584 1 1.00759 0.99827
1.00014 1 1.00132 0.998825
0.999486 1 1.00004 0.999443
0.999968 1 1 0.999968
0.999541 1 1 0.999541
0.999979 1 1 0.999979
1 1 1 1
0.999985 1 1 0.999985
1 1 1 1
1 1 1 1
0.998829 1 1 0.998829
0.999532 1 1 0.999532
0.998889 1 1 0.998889
0.999999 1 1 0.999999
0.999591 1 1 0.999591
0.999036 1 1 0.999036
1 1 1 1
1 1 1 1
0.99966 1 1 0.99966
1 1 1 1
1 1 1 1
1 1 1 1
0.850784 0.928775 0.943965 0.970404
0.835638 0.91156 0.945774 0.969272
0.847497 0.924167 0.953991 0.961265
0.99942 1 1.00106 0.998365
0.999551 1 1.00133 0.998226
0.99857 1 1 0.99857
0.998454 1 1 0.998454
0.998392 1 1 0.998392
0.998383 1 1 0.998383
0.998347 1 1 0.998347
0.818946 0.915907 0.932603 0.958754
0.841946 0.934194 0.936465 0.9624
0.819194 0.909147 0.937267 0.961367
0.806275 0.940186 0.902571 0.950142
0.888584 0.936798 0.963184 0.984788
0.895158 0.922649 0.997638 0.972501
0.828755 0.899436 0.960787 0.959022
0.882056 0.931594 0.962153 0.984068
0.907628 0.924563 1.01203 0.970011
0.874708 0.938449 0.972497 0.958437
0.77191 0.904687 0.898603 0.949512
0.904709 0.934987 0.98074 0.98662
0.919949 0.933688 1.01611 0.969667
0.818004 0.895632 0.955392 0.955969
0.738465 0.872486 0.896376 0.944237
1.01288 1 1.01448 0.998421
1.00026 1 1.00207 0.998184
1.0029 1 1.00486 0.998051
0.998284 1 1 0.998284
0.965457 0.970851 0.995909 0.998528
1.00837 0.982301 1.02726 0.999301
1.00793 1 1.00983 0.998123
1.0088 1 1.01051 0.998311
1.03943 0.995172 1.0457 0.998821
1.00662 1 1.0082 0.998436
1.03578 0.991113 1.04634 0.998781
0.976031 0.962531 1.01712 0.996958
1.00456 0.97007 1.03602 0.999546
1.01242 0.991637 1.02207 0.998909
0.955307 0.933801 1.0265 0.996617
1.01502 0.969979 1.04717 0.999296
0.839171 0.910728 0.948868 0.971082
0.861957 0.932923 0.94859 0.974006
0.84063 0.911874 0.948428 0.971998
0.993243 0.970044 1.02412 0.999805
0.955699 0.952561 1.00776 0.99557
0.85165 0.92745 0.944656 0.97207
0.940777 0.950024 1.0213 0.969612
0.81988 0.893778 0.957156 0.95838
0.822344 0.91223 0.937487 0.961577
0.717765 0.852122 0.893473 0.942756
1.00328 0.9638 1.04187 0.99913
0.83514 0.912332 0.94427 0.969415
0.829094 0.917885 0.946399 0.954424
0.93088 0.943763 0.994847 0.991458
0.646798 0.787019 0.873792 0.940535
0.774931 0.867427 0.934855 0.955622
0.907766 0.925411 1.01092 0.97034
0.99595 0.969267 1.03006 0.997544
0.844409 0.926766 0.947575 0.961544
0.710771 0.819419 0.916572 0.946362
0.740712 0.847314 0.910311 0.960319
0.880187 0.911854 0.992046 0.973012
0.895939 0.92596 0.981889 0.985426
1.01927 0.986036 1.03413 0.99959
1.01324 0.983874 1.03034 0.999516
0.986389 0.981451 1.00571 0.999323
1.01934 0.98679 1.0336 0.999402
1.00624 0.993189 1.01426 0.998899
1.00191 1.0008 1.00331 0.99781
1.0068 1.00003 1.00897 0.997823
1.01686 1.00075 1.01958 0.996584
1.00961 1.00044 1.01347 0.995754
1.00486 1.00184 1.00653 0.996504
1.00484 1.00228 1.00702 0.995564
1.002 1.0022 1.00448 0.995342
1.01877 1.02301 1 0.995846
1.01246 1.01577 1.00077 0.995976
1.00585 1.00805 1.00218 0.995642
1.00453 1.00766 1.00013 0.996765
1.00643 1.00919 1.00074 0.996531
1.00499 1.0071 1.0019 0.996014
1.0025 1.00419 1.00112 0.997207
1.00581 1.00761 1.00108 0.997133
1.01304 1.01562 1.00043 0.997029
1.00557 1.00003 1.0076 0.997958
1.00292 1.0006 1.00462 0.99771
1.00946 1.0091 1.00288 0.997486
1.00129 1 1.00223 0.999061
1.00608 1 1.00774 0.99835
1.00552 1.00032 1.00718 0.998039
0.999943 1 1 0.999943
0.999961 1 1.00066 0.999304
1.00234 1 1.0037 0.99864
0.999677 1 1.00024 0.999439
0.999962 1 1 0.999962
1 1 1 1
0.999975 1 1 0.999975
1 1 1 1
1 1 1 1
1.00138 1 1.00303 0.998353
0.998732 1 1.00003 0.998698
0.99942 1 1 0.99942
0.998826 1 1 0.998826
0.999989 1 1 0.999989
0.999535 1 1 0.999535
0.998915 1 1 0.998915
1 1 1 1
0.999999 1 1 0.999999
0.999632 1 1 0.999632
1 1 1 1
1 1 1 1
1 1 1 1
0.826995 0.908172 0.94038 0.968347
0.849289 0.926937 0.943434 0.971167
0.836521 0.913572 0.944716 0.969243
0.99944 1 1.00107 0.998376
1.00043 1 1.00221 0.998226
1.00023 1 1.00197 0.998262
0.99934 1 1.00111 0.998236
1.00527 1 1.00709 0.998187
0.998443 1 1 0.998443
0.998382 1 1 0.998382
0.998385 1 1 0.998385
0.998352 1 1 0.998352
1.00746 1 1.00907 0.998407
0.822109 0.909381 0.947052 0.954575
0.819762 0.915429 0.933939 0.958836
0.843264 0.933313 0.936833 0.964437
0.774395 0.907261 0.898773 0.949686
0.871289 0.935375 0.973762 0.956585
0.876217 0.926706 0.962135 0.982729
0.916741 0.933326 1.00972 0.972777
0.901933 0.938036 0.977465 0.983679
0.929718 0.944087 1.01229 0.972825
0.831159 0.900181 0.964231 0.957576
0.737811 0.878301 0.890624 0.943208
0.915763 0.9306 0.998112 0.985917
0.912697 0.927056 1.01138 0.973436
0.752508 0.84252 0.931238 0.959113
0.677542 0.817967 0.877324 0.944148
1.01214 1 1.01317 0.998982
1.01411 1 1.01571 0.998429
1.00296 1 1.00477 0.9982
0.977379 0.964869 1.01736 0.995681
1.00711 0.964201 1.04482 0.999698
1.00643 1 1.00801 0.998432
1.03827 0.990816 1.04919 0.998768
1.01366 0.994547 1.02033 0.998916
1.02033 0.976518 1.04561 0.999285
0.961342 0.944069 1.0218 0.996575
1.01766 0.993344 1.02515 0.999345
0.973677 0.960082 1.01725 0.996964
0.855142 0.927898 0.956444 0.963559
0.841415 0.911998 0.949598 0.971576
0.859851 0.931953 0.946214 0.975079
1.00539 0.9696 1.03766 0.999278
0.927308 0.941572 0.997449 0.987369
0.838232 0.914513 0.945533 0.969388
0.911607 0.933518 1.00654 0.970187
0.763894 0.849216 0.937779 0.959212
0.823964 0.913901 0.944756 0.95431
0.650396 0.798493 0.869971 0.936273
0.99486 0.968032 1.03003 0.997752
0.845666 0.924642 0.951189 0.961521
0.706577 0.817054 0.915065 0.945055
0.903348 0.933779 0.980315 0.986837
0.75327 0.854835 0.919317 0.958524
0.874447 0.91694 0.982247 0.970894
0.956973 0.956656 1.00418 0.996163
0.745131 0.836507 0.936881 0.950777
0.749734 0.846694 0.921615 0.960796
0.891465 0.935964 0.980648 0.971252
0.874195 0.923029 0.958944 0.987642
1.01209 0.98113 1.03206 0.999515
0.990175 0.980092 1.011 0.999298
0.99593 0.993786 1.00369 0.998469
1.00354 0.985704 1.01914 0.998979
1.00145 1.00084 1.00272 0.997893
0.998018 1.00199 0.999119 0.99692
1.01453 1.00067 1.01742 0.996483
1.00819 1.00072 1.01175 0.99576
0.999152 1.00182 1.00137 0.995968
1.00513 1.00195 1.00773 0.995475
1.00214 1.00309 1.0037 0.995374
1.01696 1.02098 1 0.996062
1.03904 1.04278 1 0.996414
1.0285 1.03269 1.00002 0.995925
1.01877 1.02299 1 0.995874
1.01402 1.01783 1 0.996259
1.01099 1.01404 1.00107 0.995923
1.00632 1.00832 1.00244 0.995586
1.00606 1.00916 1 0.996924
1.00304 1.0062 1.00002 0.996839
1.00504 1.00816 1.00032 0.996595
1.00076 1.00111 1.00208 0.997572
1.00239 1.00387 1.0013 0.997241
1.00599 1.0078 1.0011 0.99711
1.00646 1 1.00783 0.998637
1.00593 1.00028 1.0077 0.997961
1.00343 1.00093 1.00474 0.997772
0.999894 1 1 0.999894
1.00214 1 1.00309 0.999053
1.00542 1 1.00707 0.998355
0.999999 1 1 0.999999
0.999933 1 1 0.999933
1.00025 1 1.00095 0.999297
0.999955 1 1 0.999955
1 1 1 1
1 1 1 1
1.00453 1 1.00628 0.998261
0.999931 1 1.00138 0.998558
1.00187 1 1.00354 0.998334
0.999305 1 1 0.999305
0.998968 1 1.00027 0.998696
0.999968 1 1 0.999968
0.999424 1 1 0.999424
0.998823 1 1 0.998823
1 1 1 1
0.999993 1 1 0.999993
0.999537 1 1 0.999537
1 1 1 1
1 1 1 1
1 1 1 1
0.843032 0.92334 0.947258 0.96386
0.830147 0.910416 0.941662 0.968323
0.849447 0.924816 0.945028 0.971933
0.998864 1.0002 1.00039 0.99827
0.999946 1 1.00156 0.998387
1.00077 1 1.00255 0.998227
0.999057 1 1.00083 0.998232
1.0001 1 1.00182 0.998284
1.0033 1 1.00504 0.998269
1.0113 1 1.01339 0.997932
1.01355 1 1.01535 0.998226
0.998387 1 1 0.998387
0.998356 1 1 0.998356
1.00709 1 1.00872 0.998392
1.02025 0.999648 1.02203 0.998604
0.717474 0.823678 0.921016 0.945762
0.83266 0.91932 0.949059 0.954351
0.820703 0.915287 0.935095 0.958899
0.729767 0.870243 0.887001 0.945409
0.832684 0.904118 0.962664 0.95671
0.923596 0.937204 1.01624 0.969734
0.90254 0.930842 0.98497 0.984391
0.914186 0.930114 0.994927 0.987888
0.664477 0.80909 0.873629 0.940061
0.906909 0.925204 1.00997 0.970553
0.77112 0.863043 0.933796 0.956837
0.913991 0.938475 0.984777 0.988967
0.898354 0.926593 0.994867 0.974526
0.741414 0.848213 0.911523 0.958933
0.998534 1 0.998993 0.999541
1.01167 1 1.01269 0.998988
1.01399 1 1.01558 0.998435
0.960084 0.944974 1.01945 0.996602
1.02566 0.982884 1.04428 0.999273
1.01402 0.997054 1.01812 0.998923
1.0175 0.994345 1.02396 0.999344
0.970633 0.959024 1.01514 0.997009
0.993422 0.986907 1.00865 0.997972
0.774335 0.851353 0.955583 0.951811
0.852461 0.927121 0.952442 0.965383
0.84133 0.912591 0.948409 0.972063
0.996077 0.967156 1.03207 0.997897
0.893489 0.929176 0.973567 0.9877
0.844601 0.922597 0.952085 0.961532
0.879905 0.909383 0.995409 0.972047
0.759206 0.868914 0.913787 0.956176
0.710491 0.824094 0.910529 0.946865
0.957694 0.954322 1.00733 0.996235
0.742411 0.835828 0.93245 0.952582
0.751303 0.849517 0.922582 0.958601
0.874803 0.923968 0.961698 0.984498
0.891545 0.939084 0.97445 0.974271
0.949402 0.965519 0.985144 0.998136
0.772501 0.861729 0.935098 0.958674
0.922782 0.973073 0.971891 0.975745
0.885185 0.937178 0.959626 0.98426
0.993336 0.978418 1.01598 0.999277
0.98776 0.993563 0.99559 0.998563
0.994222 1.00127 0.99532 0.997627
1.00174 1.00095 1.00282 0.997976
1.00133 1.00244 1.002 0.996901
1.00027 1.00394 0.999428 0.996908
1.00688 1.00097 1.01019 0.995766
0.99902 1.00138 1.00167 0.995978
1.02184 1.02596 0.999125 0.996854
1.00255 1.00398 1.00319 0.995407
1.01593 1.01994 1 0.996073
1.03958 1.04308 0.999645 0.997
1.04243 1.04552 1 0.997043
1.04169 1.04552 1 0.99633
1.03923 1.04293 1 0.996457
1.02976 1.03374 1 0.996146
1.02699 1.03113 1 0.995983
1.01857 1.02276 1 0.995902
1.01836 1.02183 1 0.996608
1.01422 1.01786 1.00014 0.996286
1.00964 1.01234 1.00148 0.99587
1.00236 1.00513 1 0.997249
1.00624 1.00935 1 0.996919
1.00164 1.00474 1 0.996913
1.00332 1.00014 1.00499 0.998203
1.00202 1.00212 1.00234 0.997569
1.00205 1.00333 1.00145 0.997277
1.00042 1 1.00065 0.999771
1.00452 1 1.0059 0.998634
1.00531 1.00056 1.0068 0.997964
1 1 1 1
0.999909 1 1.00003 0.999875
1.00224 1 1.0032 0.999045
1 1 1 1
0.999924 1 1 0.999924
1 1 1 1
0.999845 1.00007 1.00163 0.998156
1.00316 1 1.00492 0.998248
1.00317 1 1.00475 0.998419
0.9998 1 1.00062 0.999184
1.00026 1 1.00171 0.998555
1.00139 1 1.00308 0.998315
0.999939 1 1 0.999939
0.99931 1 1 0.99931
0.998798 1 1.0001 0.998694
1 1 1 1
0.999975 1 1 0.999975
0.999428 1 1 0.999428
1 1 1 1
0.999996 1 1 0.999996
1 1 1 1
0.748981 0.836324 0.944736 0.947951
0.843765 0.923961 0.947431 0.963873
0.833561 0.912913 0.942971 0.9683
1.00126 1.00003 1.00298 0.99825
1.00471 1.00184 1.00492 0.997959
1.00904 1 1.01097 0.998098
1 1 1.00178 0.998228
0.999845 1 1.00154 0.998306
1.00348 1 1.00514 0.99835
1.01204 1 1.01387 0.998194
1.01076 1 1.01281 0.997977
1.01264 1.00027 1.01454 0.997856
0.988742 1.00073 0.989038 0.998973
1.00562 1 1.00726 0.998377
1.01635 0.999737 1.01807 0.998577
0.751137 0.845727 0.928522 0.956526
0.703653 0.811172 0.919416 0.943483
0.839824 0.925203 0.951284 0.954204
0.652392 0.7992 0.872246 0.935867
0.772605 0.864134 0.932016 0.959296
0.895974 0.920449 1.0009 0.972531
0.920634 0.935992 0.998233 0.985334
0.904296 0.931618 0.983673 0.986783
0.742894 0.842104 0.921189 0.957662
0.881013 0.916181 0.989307 0.972009
0.893726 0.937288 0.965121 0.987983
0.880435 0.938128 0.965791 0.971745
1.00344 1 1.00443 0.999021
0.998102 1 0.998617 0.999485
1.01137 1 1.01239 0.998993
0.968217 0.958754 1.01285 0.997055
1.01722 0.995 1.023 0.999344
0.994144 0.988033 1.00829 0.997907
0.980567 0.991844 0.991605 0.997001
0.782996 0.878766 0.926283 0.961928
0.77462 0.850055 0.956676 0.952525
0.853409 0.928349 0.950475 0.967175
0.960589 0.960958 1.00324 0.996387
0.877279 0.92394 0.963921 0.985038
0.743237 0.836506 0.932598 0.952718
0.876594 0.930946 0.969384 0.971355
0.761843 0.855285 0.926874 0.961022
0.953054 0.968003 0.987375 0.997147
0.781754 0.871394 0.934251 0.960268
0.918506 0.9735 0.970692 0.971996
0.88959 0.939516 0.959562 0.986764
0.959885 0.985054 0.976382 0.998022
0.926424 0.98008 0.969402 0.975089
0.929335 0.977444 0.961435 0.988918
0.978849 0.992344 0.987741 0.998643
0.99081 1.00171 0.991502 0.9976
0.981706 1.00756 0.976789 0.997491
1.00322 1.00278 1.00356 0.996882
0.999629 1.00409 0.998648 0.996904
1.02254 1.03375 0.991596 0.997544
0.998762 1.00092 1.00186 0.995988
1.021 1.02578 0.998509 0.996835
1.03629 1.04524 0.993854 0.997571
1.01493 1.01892 1 0.996084
1.03869 1.04265 0.999206 0.996994
1.04146 1.04649 0.997662 0.997532
1.03954 1.04249 0.999766 0.997409
1.04332 1.04643 0.999915 0.997112
1.04178 1.04503 1 0.996894
1.04312 1.0469 1 0.996394
1.04172 1.04555 1 0.996346
1.03963 1.04328 1 0.9965
1.03073 1.03446 1 0.996394
1.03142 1.03537 1 0.996177
1.02547 1.02954 1 0.996041
1.01194 1.01503 1 0.996958
1.01745 1.02091 1 0.996604
1.01436 1.01793 1.00017 0.996312
0.998898 1.00073 1.00026 0.997909
1.00398 1.00675 1 0.997246
1.00692 1.01004 1 0.996913
1.00144 1 1.0019 0.999542
1.00294 1.0003 1.00444 0.998204
1.00381 1.00324 1.003 0.997567
1 1 1 1
1.00122 1 1.00147 0.999747
1.00382 1 1.0052 0.99863
0.999998 1 1 0.999998
1.00038 1 1.00052 0.999861
1 1 1 1
0.998639 1.00058 1 0.998055
1.0011 1.0001 1.00283 0.998172
1.00375 1 1.00547 0.998283
1.00128 1 1.00305 0.998235
1.00329 1 1.00488 0.998419
1.00121 1 1.00218 0.999032
0.999901 1 1 0.999901
0.999654 1 1.00047 0.999187
1.00118 1 1.00263 0.998553
1 1 1 1
0.999948 1 1 0.999948
0.999314 1 1 0.999314
1 1 1 1
0.999981 1 1 0.999981
1 1 1 1
0.781176 0.867026 0.938362 0.960166
0.751749 0.838825 0.944886 0.948466
0.843477 0.924029 0.947032 0.963879
1.00399 1 1.00577 0.99823
1.01129 1 1.01336 0.997953
1.00274 1.00112 1.00359 0.998033
1.00157 1.00355 1.00084 0.997191
1.01124 1.0011 1.0122 0.997948
1.01082 1 1.01268 0.998164
1.00885 1 1.01085 0.998022
1.01582 1.00049 1.01743 0.99793
0.999336 1.00171 0.999995 0.99764
0.978782 1.00144 0.978763 0.998582
0.978356 1.00035 0.980246 0.997721
0.988949 1.00069 0.989242 0.999013
1.01074 1 1.01221 0.998551
0.907898 0.964666 0.966341 0.973935
0.748044 0.841736 0.927993 0.957648
0.702946 0.812089 0.916798 0.944158
0.740977 0.844782 0.91828 0.95518
0.892121 0.92733 0.989999 0.97175
0.908212 0.928108 0.989391 0.989055
0.894875 0.936338 0.965755 0.989607
0.896949 0.94203 0.976323 0.975236
0.921345 0.970458 0.960218 0.988725
0.994207 1.00132 0.994671 0.998218
1.00326 1 1.00426 0.998999
0.997926 1 0.998497 0.999428
0.995914 0.990519 1.00758 0.99788
0.986608 0.995326 0.994038 0.997186
0.902411 0.967122 0.957513 0.974492
0.790953 0.877189 0.937147 0.962166
0.774237 0.847356 0.9585 0.95327
0.958717 0.973212 0.988961 0.996102
0.893088 0.943483 0.961559 0.984429
0.780086 0.868297 0.935986 0.959854
0.912569 0.963954 0.970788 0.975181
0.967556 0.984806 0.984356 0.998098
0.935578 0.989632 0.968631 0.975995
0.925889 0.973453 0.964182 0.986472
0.980322 1.00409 0.978782 0.997491
0.953382 0.993659 0.966892 0.992319
0.991687 1.00424 0.989881 0.997594
0.981008 1.00726 0.976435 0.997442
0.996916 1.0341 0.966187 0.997777
0.999087 1.00408 0.998123 0.996899
1.02337 1.03421 0.991975 0.997518
1.03387 1.05304 0.983913 0.99785
1.02006 1.02557 0.997807 0.996816
1.03578 1.04538 0.993257 0.997548
1.0318 1.04531 0.989273 0.997774
1.03762 1.04208 0.998727 0.996989
1.04142 1.04693 0.997214 0.997511
1.03901 1.04536 0.996306 0.997607
1.03989 1.04296 0.999592 0.997463
1.03816 1.04122 0.999846 0.99722
1.04406 1.04721 0.999807 0.997181
1.04168 1.04494 1 0.996886
1.04385 1.04731 1 0.996695
1.04022 1.04394 1 0.996439
1.04293 1.04672 1 0.996383
1.04176 1.04556 1 0.996362
1.02462 1.02797 1 0.996743
1.03031 1.03403 1 0.996404
1.03314 1.03707 1 0.996208
1.00116 1.00348 1 0.997689
1.01229 1.01538 1 0.996956
1.01636 1.01983 1 0.9966
1.00025 1 1.00098 0.999277
0.999825 1.00143 1.00049 0.997909
1.00535 1.00813 1 0.997242
1 1 1 1
1.00131 1 1.00179 0.999517
1.0021 1.00046 1.00344 0.998205
1 1 1 1
1.0014 1 1.00167 0.999722
1 1 1 1
1.00265 1.00535 1 0.997312
0.998867 1.00083 1 0.998043
1.00027 1 1.0022 0.998078
1.00279 1 1.00461 0.998188
1.00319 1 1.00495 0.998253
1.0028 1 1.00399 0.99881
1.00367 1 1.00526 0.998419
1.00074 1 1.00171 0.999033
0.999849 1 1 0.999849
1 1 1 1
0.999911 1 1 0.999911
0.999427 1 1.00024 0.999189
1 1 1 1
0.999956 1 1 0.999956
1 1 1 1
0.92638 0.981063 0.966454 0.977038
0.780626 0.873173 0.930332 0.96096
0.757176 0.842354 0.948925 0.947262
1.01268 1 1.01491 0.997807
1.00066 1.00066 1.0019 0.998108
1.00926 1.00101 1.01036 0.997909
1.00299 1.00464 1.00109 0.997269
1.01185 1.01494 1.00016 0.996794
0.999545 1.00201 1 0.997535
1.02024 1.00081 1.02146 0.998002
0.999746 1.00231 1 0.997438
0.984775 1.00171 0.984504 0.998565
0.995483 1.00139 0.996439 0.997653
0.975418 1.00331 0.974325 0.997821
0.995225 1.00129 0.996621 0.997314
0.979988 1.00082 0.981295 0.997851
0.992893 1.00058 0.993256 0.999055
0.927637 0.976567 0.960698 0.988756
0.913407 0.969829 0.966824 0.974141
0.751987 0.843084 0.928571 0.960559
0.899321 0.944708 0.980122 0.971263
0.899827 0.93563 0.970878 0.990581
0.92413 0.967235 0.963119 0.992021
0.986352 1.00377 0.985118 0.997495
0.992155 1.00067 0.993284 0.998195
1.00308 1 1.00411 0.998978
0.988412 0.997683 0.993337 0.997352
0.939256 0.973885 0.975119 0.989051
0.917837 0.973993 0.963526 0.978017
0.778861 0.87114 0.931373 0.959948
0.967219 0.980819 0.987943 0.998169
0.929292 0.977987 0.961627 0.988127
0.940025 0.987805 0.974194 0.976838
0.972644 1.0023 0.972807 0.997536
0.952028 0.9897 0.970129 0.991555
0.97368 1.02441 0.952866 0.997498
0.995065 1.01678 0.982134 0.996449
0.979482 1.00697 0.975249 0.997387
0.995025 1.03254 0.965819 0.997771
1.00435 1.05438 0.954664 0.997788
1.02481 1.03526 0.992392 0.997491
1.03362 1.05282 0.983904 0.99783
1.029 1.04929 0.982894 0.997725
1.0357 1.04574 0.992856 0.997525
1.0316 1.04466 0.989715 0.997755
1.03843 1.05066 0.990767 0.997577
1.04156 1.04747 0.996856 0.99749
1.03702 1.04335 0.996331 0.997599
1.03923 1.04437 0.99774 0.997327
1.04031 1.04347 0.999455 0.997517
1.03855 1.04155 0.999853 0.997266
1.04229 1.04553 1 0.996899
1.04164 1.04491 1 0.996877
1.04387 1.04735 1 0.996684
1.04246 1.046 1 0.996617
1.03262 1.03609 1 0.996645
1.04026 1.04397 1 0.996443
1.04268 1.04648 1 0.996371
1.00667 1.0092 1 0.997493
1.02372 1.02706 1 0.996747
1.02986 1.03356 1 0.996415
0.999201 1 1.00014 0.999061
1.00267 1.00499 1 0.997686
1.01252 1.01562 1 0.996953
1 1 1 1
0.999999 1 1.00074 0.999261
1.00064 1.00208 1.00065 0.99791
1 1 1 1
1.00135 1 1.00186 0.999493
1 1 1 1
1.01296 1.01612 1 0.996892
1.0045 1.00718 1 0.997339
1.00413 1.00587 1.00066 0.997612
0.998877 1.00085 1 0.998031
1.00011 1 1.00208 0.998035
1.0019 1.00003 1.00336 0.998514
1.00267 1 1.00445 0.998222
1.00277 1 1.00396 0.998812
1.0007 1 1.00093 0.999772
1.00052 1 1.00149 0.999034
0.99986 1 1 0.99986
1 1 1 1
1 1 1 1
0.999922 1 1 0.999922
1 1 1 1
0.930171 0.976755 0.962483 0.989427
0.918052 0.980416 0.961421 0.973965
0.773488 0.866077 0.928237 0.96214
1.02694 1.03038 1.00007 0.996597
1.00742 1.00071 1.00885 0.997871
1.00439 1.0057 1.00135 0.997348
0.9994 1.00189 1 0.997516
1.01103 1.01388 1.00042 0.996776
1.00288 1.00556 0.999884 0.997451
0.999674 1.00244 1 0.997237
0.986702 1.00139 0.98677 0.998547
0.993351 1.00165 0.994038 0.997665
0.969082 1.00224 0.969125 0.997719
1.00296 1.01002 0.995994 0.997003
1.00033 1.00687 0.996146 0.997339
0.996038 1.00195 0.996808 0.997278
0.980666 1.00134 0.981338 0.997981
0.984604 1.00613 0.98058 0.997989
0.923073 0.97463 0.959094 0.987495
0.914862 0.971411 0.966166 0.974767
0.917954 0.961154 0.96484 0.989857
0.989038 1.00535 0.985564 0.998181
0.992155 1.0002 0.993781 0.998164
0.985676 1.00668 0.98295 0.996117
0.925101 0.959677 0.97323 0.990487
0.905258 0.97078 0.956797 0.974613
0.969096 1.00023 0.971224 0.997581
0.959358 0.991687 0.97663 0.990549
0.977301 1.0255 0.955288 0.997601
0.996986 1.01643 0.984112 0.996702
0.993012 1.03951 0.957543 0.997623
1.04267 1.05537 0.990464 0.997476
0.99227 1.03042 0.965131 0.997765
1.00838 1.05573 0.957287 0.997774
1.01783 1.06015 0.962407 0.997582
1.03258 1.05209 0.983612 0.997811
1.02727 1.04817 0.9823 0.997721
1.03757 1.05654 0.984543 0.997461
1.03108 1.04385 0.99001 0.997736
1.03715 1.04951 0.99062 0.99759
1.04119 1.04994 0.994371 0.997276
1.03499 1.04133 0.996307 0.997592
1.03975 1.04485 0.997781 0.997326
1.04451 1.04796 0.999711 0.997
1.03889 1.04184 0.999857 0.997312
1.04265 1.04585 1 0.996941
1.04447 1.04796 1 0.996676
1.04388 1.04737 1 0.996673
1.04223 1.04579 1 0.9966
1.0355 1.03896 1 0.996671
1.01205 1.01472 1 0.997371
1.03191 1.03536 1 0.996662
1.04031 1.04402 1 0.996447
0.998922 1.00001 1 0.998913
1.00827 1.0108 1 0.997493
1.02301 1.02635 1 0.99675
1 1 1 1
0.999059 1 1.00001 0.999048
1.00431 1.00664 1 0.997685
1 1 1 1
0.999615 1 1.00037 0.999244
1 1 1 1
1.02614 1.02966 1 0.99659
1.01444 1.0176 1 0.99689
1.01221 1.01504 1 0.997214
1.00632 1.00897 1.00001 0.997365
1.00292 1.00477 1.00056 0.997606
1.0016 1.00146 1.00195 0.998197
0.999838 1 1.00185 0.997992
1.00284 1 1.00433 0.998516
1.00125 1 1.00161 0.999643
1.00221 1 1.0034 0.998813
1.00017 1 1.00038 0.999783
1 1 1 1
0.99987 1 1 0.99987
1 1 1 1
1 1 1 1
0.980362 1.01057 0.972287 0.997763
0.924645 0.973872 0.961942 0.987016
0.915488 0.970777 0.964862 0.97739
1.01844 1.02148 1.00001 0.997008
1.03709 1.04057 1 0.996652
1.0249 1.0282 1.00013 0.996665
0.999508 1.00202 1 0.997497
1.01039 1.01294 1.00073 0.996756
1.00378 1.00738 0.998997 0.997423
1.01975 1.02447 0.998433 0.996954
0.992377 1.00251 0.992198 0.997677
0.965462 1.00175 0.96608 0.997615
1.0042 1.01173 0.995448 0.99709
1.02232 1.03038 0.995341 0.996815
1.0056 1.02474 0.983704 0.997575
1.00293 1.0087 0.996975 0.997299
0.99745 1.00262 0.997591 0.997241
0.989118 1.00796 0.983056 0.998224
0.926639 0.976938 0.961856 0.986128
0.988965 1.00577 0.984385 0.998888
1.02249 1.04288 0.982325 0.998089
0.983454 1.00539 0.981872 0.99624
0.929051 0.970505 0.968607 0.988313
0.980265 1.02689 0.956795 0.997699
0.998807 1.01655 0.985531 0.996969
0.991184 1.04008 0.955133 0.997755
1.04232 1.05681 0.988771 0.997492
1.03699 1.06644 0.974842 0.997481
1.06944 1.08484 0.988156 0.997615
1.01256 1.05782 0.959363 0.99776
1.02312 1.0612 0.966452 0.997583
1.04091 1.06587 0.979158 0.997365
1.02586 1.0472 0.981859 0.997717
1.03736 1.05569 0.985138 0.99746
1.04159 1.05544 0.989612 0.997242
1.03593 1.04837 0.990508 0.997603
1.04168 1.05042 0.994394 0.997273
1.04681 1.05202 0.99804 0.997004
1.04023 1.0453 0.997823 0.997324
1.04483 1.04826 0.999725 0.996999
1.0475 1.05097 1 0.996699
1.043 1.04616 1 0.996982
1.04398 1.04745 1 0.996689
1.03816 1.04165 1 0.996653
1.04205 1.04562 1 0.996582
1.03541 1.03887 1 0.996668
1.0143 1.01704 1 0.997304
0.999077 1.00023 1 0.998851
1.01258 1.01525 1 0.997371
1.03125 1.03468 1 0.996678
1 1 1 1
0.998968 1.00007 1 0.998902
1.00987 1.01241 1 0.997493
1 1 1 1
0.999035 1 1 0.999035
1 1 1 1
1.03469 1.0383 1 0.99652
1.02586 1.02938 1 0.996579
1.01941 1.02256 1 0.996911
1.01556 1.01873 1 0.996889
1.01097 1.01378 1 0.997222
1.00325 1.005 1.00035 0.99791
1.00157 1.00352 1.00046 0.9976
1.0016 1.00094 1.00247 0.998199
1.00053 1 1.00109 0.999434
1.00441 1 1.0059 0.998517
1.00112 1 1.00146 0.99966
1 1 1 1
0.999925 1 1.00013 0.999794
1 1 1 1
1 1 1 1
1.00585 1.03785 0.971066 0.998045
0.97741 1.00952 0.971087 0.997019
0.924906 0.975703 0.959714 0.98773
1.03205 1.03533 1 0.996835
1.01986 1.02272 1 0.997202
1.05205 1.05552 1 0.996713
1.03771 1.04121 1 0.996636
1.02296 1.02613 1.00018 0.996733
1.04355 1.04934 0.997768 0.996712
1.00452 1.00923 0.997932 0.997397
1.01962 1.02378 0.999041 0.996891
1.04097 1.05984 0.985162 0.996988
1.00426 1.0132 0.993982 0.997178
1.02274 1.03102 0.995198 0.996759
1.0069 1.02654 0.983212 0.997609
1.00329 1.00897 0.997107 0.997258
0.994094 1.00976 0.986019 0.998446
1.05479 1.07613 0.982469 0.997661
1.02401 1.04245 0.984169 0.998112
0.981954 1.00409 0.981528 0.996358
0.990096 1.03993 0.954099 0.997887
1.04093 1.05714 0.98712 0.997509
1.03262 1.06554 0.971528 0.997504
1.07045 1.08681 0.987306 0.997609
1.05857 1.07912 0.983418 0.997498
1.02805 1.06189 0.970472 0.997584
1.04163 1.06525 0.980395 0.997375
1.04303 1.0607 0.986033 0.997266
1.03711 1.05482 0.985719 0.997459
1.04155 1.05519 0.98982 0.997223
1.04611 1.05483 0.994723 0.996989
1.04221 1.05093 0.994419 0.99727
1.04697 1.05215 0.998069 0.997
1.05053 1.05409 0.999914 0.996708
1.04517 1.04859 0.999739 0.996998
1.04734 1.05081 1 0.996702
1.04177 1.04532 1 0.996609
1.04349 1.04694 1 0.996703
1.03827 1.04175 1 0.996658
1.0153 1.01812 1 0.997232
1.0353 1.03876 1 0.996664
1.01453 1.01727 1 0.997302
0.999457 1.00041 1 0.999044
0.999636 1 1 0.999636
0.999157 1.00022 1 0.998935
1.01296 1.01563 1 0.99737
1 1 1 1
0.998932 1.00004 1 0.99889
1 1 1 1
1.058 1.0614 1 0.996801
1.04377 1.0473 1 0.996626
1.03567 1.03928 1 0.996523
1.02722 1.03055 1 0.996764
1.02596 1.02949 1 0.996569
1.02046 1.02363 1 0.99691
1.00763 1.00998 1 0.99767
1.00987 1.01268 1 0.997229
1.00217 1.0038 1.00047 0.997912
0.999297 1 1.00012 0.999175
1.00147 1.00045 1.00282 0.998201
1.00068 1 1.00122 0.999454
1 1 1 1
1.00057 1 1.0009 0.999676
1 1 1 1
1 1 1 1
1.0484 1.07463 0.978131 0.997409
1.01016 1.04357 0.969829 0.9981
0.974504 1.00962 0.96882 0.996286
1.04905 1.05315 0.999374 0.996736
1.02947 1.03268 1 0.996887
1.02097 1.02364 1 0.997392
1.05071 1.05416 1 0.99673
1.03836 1.04188 1 0.99662
1.05145 1.06863 0.986915 0.996968
1.04013 1.04627 0.997452 0.996672
1.01939 1.02277 0.999867 0.996828
1.03958 1.05826 0.985315 0.996983
1.02587 1.03381 0.995604 0.996703
1.01197 1.03247 0.982452 0.99765
1.05867 1.07683 0.985509 0.997597
1.05791 1.07831 0.983346 0.997695
1.02485 1.04228 0.98511 0.998136
1.02968 1.06587 0.968443 0.997524
1.07236 1.08966 0.98649 0.997603
1.05853 1.08007 0.982512 0.997506
1.04923 1.06264 0.99 0.997361
1.04229 1.06456 0.981649 0.997384
1.04331 1.06041 0.986589 0.997254
1.04704 1.05705 0.993493 0.997024
1.04153 1.05498 0.990023 0.997204
1.0467 1.05541 0.994741 0.996988
1.05279 1.05687 0.999422 0.996712
1.0471 1.05225 0.998099 0.996997
1.05083 1.0544 0.999911 0.996709
1.04445 1.04806 1 0.996558
1.04719 1.05065 1 0.996705
1.04197 1.04551 1 0.996613
1.01659 1.01951 1 0.997138
1.03836 1.04184 1 0.996664
1.01576 1.01858 1 0.997232
0.999426 1.00037 1 0.999055
1.0147 1.01745 1 0.997301
0.999461 1.00042 1 0.999039
0.999659 1 1 0.999659
0.999826 1 1 0.999826
0.999353 1.00033 1 0.999026
1 1 1 1
1.05291 1.05686 0.999467 0.996795
1.04898 1.05247 1 0.996692
1.05695 1.06021 1 0.996924
1.03737 1.04081 1 0.996695
1.04579 1.04935 1 0.996614
1.03657 1.04018 1 0.996527
1.02818 1.03152 1 0.996757
1.01289 1.01546 1 0.997474
1.0214 1.02457 1 0.996909
1.00608 1.00843 1 0.997671
0.998972 1 1 0.998972
1.00098 1.00255 1.00052 0.997915
0.999575 1 1.00038 0.999194
1 1 1 1
1.001 1 1.00153 0.999474
1 1 1 1
1 1 1 1
1.04978 1.071 0.982844 0.997297
1.04597 1.07202 0.97824 0.997405
1.01281 1.04662 0.969486 0.998147
1.05171 1.06209 0.99332 0.996883
1.0464 1.05072 0.999145 0.996737
1.02722 1.03037 1 0.99694
1.04919 1.05261 1 0.996748
1.04997 1.06684 0.987202 0.996944
1.03661 1.04309 0.997146 0.996632
1.03398 1.05225 0.98561 0.996979
1.05297 1.06635 0.990005 0.997422
1.05716 1.07513 0.985692 0.997557
1.06083 1.0801 0.984393 0.997729
1.04786 1.05779 0.993331 0.997259
1.05803 1.08065 0.98151 0.997513
1.04915 1.06273 0.989846 0.997347
1.04882 1.05789 0.994279 0.997126
1.04364 1.06012 0.987185 0.997241
1.0472 1.05724 0.993459 0.997026
1.0533 1.05816 0.998682 0.996728
1.04724 1.05594 0.994763 0.996986
1.05255 1.05666 0.999391 0.996713
1.04549 1.04914 1 0.996523
1.05105 1.05462 0.999907 0.99671
1.04454 1.04815 1 0.996561
1.01752 1.02053 1 0.997047
1.04213 1.04567 1 0.996617
1.01692 1.01984 1 0.997138
0.999194 1.00016 1 0.99903
1.01632 1.01914 1 0.997231
0.999385 1.00034 1 0.999044
0.999664 1 1 0.999664
0.999501 1.00047 1 0.999036
0.999667 1 1 0.999667
1 1 1 1
1.05205 1.0578 0.997863 0.996698
1.05129 1.05483 1 0.996641
1.05461 1.0586 0.999442 0.996793
1.04369 1.04712 1 0.996722
1.05028 1.05373 1 0.996724
1.05604 1.05917 1 0.997046
1.01673 1.01947 1 0.997317
1.03728 1.04073 1 0.996685
1.04804 1.05162 1 0.996602
1.02904 1.0324 1 0.99675
1.01141 1.01397 1 0.997476
0.999226 1.00036 1 0.998868
1.00454 1.00689 1 0.997672
0.999004 1.00002 1 0.998986
1 1 1 1
0.999797 1 1.00059 0.999212
1 1 1 1
1 1 1 1
1.04803 1.06203 0.989621 0.997168
1.04968 1.07118 0.982608 0.99728
1.04574 1.07187 0.978169 0.9974
1.05103 1.0615 0.993222 0.9969
1.04343 1.04799 0.998911 0.996738
1.04947 1.06607 0.987472 0.996919
1.0495 1.05994 0.992867 0.997259
1.05328 1.0665 0.990163 0.997416
1.05573 1.07359 0.985813 0.997518
1.04826 1.05807 0.993431 0.99728
1.0485 1.05631 0.995517 0.997074
1.04906 1.06285 0.989661 0.997333
1.04909 1.05789 0.994579 0.997085
1.0528 1.05839 0.9979 0.996816
1.04736 1.05744 0.993423 0.997028
1.05298 1.05788 0.998635 0.996731
1.04574 1.04942 1 0.9965
1.05251 1.05666 0.999358 0.996715
1.04597 1.04962 1 0.996524
1.01784 1.02092 1 0.996986
1.04478 1.04839 1 0.996564
1.01764 1.02065 1 0.997048
0.999005 1.00003 1 0.998975
1.0173 1.02022 1 0.997138
0.999129 1.00012 1 0.999014
0.999643 1 1 0.999643
0.999291 1.00025 1 0.999037
0.999681 1 1 0.999681
0.99967 1 1 0.99967
1.05135 1.05981 0.995051 0.996954
1.05305 1.05683 0.99987 0.996551
1.05243 1.0591 0.996973 0.996726
1.04601 1.04953 1 0.996648
1.05045 1.054 1 0.996629
1.05629 1.06031 0.999417 0.996793
1.01881 1.02166 1 0.99721
1.04352 1.04698 1 0.996692
1.05137 1.05479 1 0.996757
0.999852 1.00101 1 0.99884
1.01655 1.01928 1 0.997319
1.03741 1.04087 1 0.996676
1.01017 1.01272 1 0.997477
0.999217 1.00034 1 0.99888
1 1 1 1
0.999001 1 1 0.999001
1 1 1 1
1 1 1 1
1.04664 1.05705 0.992981 0.997153
1.04822 1.06211 0.989736 0.99716
1.04911 1.0708 0.98243 0.997263
1.0504 1.06094 0.993127 0.996916
1.04895 1.05542 0.99683 0.997031
1.04972 1.06 0.993009 0.99727
1.05364 1.06664 0.990383 0.997409
1.0487 1.05836 0.993554 0.9973
1.04856 1.05648 0.995405 0.997083
1.05296 1.05808 0.998347 0.996803
1.04944 1.05793 0.994916 0.997045
1.05297 1.05824 0.998248 0.996767
1.04571 1.0495 0.99984 0.996548
1.05257 1.05751 0.99859 0.996733
1.04625 1.04992 1 0.996503
1.01733 1.02046 1 0.99694
1.04615 1.0498 1 0.996526
1.01767 1.02075 1 0.996986
0.998735 1 1 0.998735
1.01766 1.02068 1 0.997048
0.998873 1 1 0.998872
1 1 1 1
0.999033 1.00003 1 0.998999
0.999665 1 1 0.999665
0.999691 1 1 0.999691
1.04935 1.05665 0.99603 0.997046
1.05232 1.05695 0.998937 0.99668
1.05179 1.05959 0.995684 0.996944
1.04568 1.04934 1 0.996511
1.05193 1.05603 0.999551 0.996566
1.05286 1.06043 0.996088 0.996755
1.01872 1.02175 1 0.997037
1.04618 1.0497 1 0.996648
1.04965 1.05321 1 0.996617
0.99959 1.00075 1 0.998841
1.0184 1.02129 1 0.997169
1.04328 1.04678 1 0.996662
1 1 1 1
0.999625 1.00078 1 0.998851
1.01581 1.01854 1 0.997321
0.999122 1.00023 1 0.998892
1 1 1 1
1 1 1 1
1.04769 1.05409 0.996877 0.997044
1.04697 1.05723 0.993114 0.99716
1.04834 1.06216 0.989806 0.997152
1.05306 1.05742 0.999133 0.996742
1.04833 1.05512 0.996505 0.997044
1.04993 1.06006 0.993146 0.99728
1.04856 1.05664 0.995243 0.997094
1.05259 1.05784 0.998225 0.996804
1.04483 1.04845 0.999941 0.996609
1.053 1.05801 0.998542 0.996718
1.04584 1.04957 0.999907 0.996546
1.01644 1.01965 1 0.99685
1.0469 1.05057 1 0.996505
1.01712 1.02024 1 0.996941
0.998696 1 1 0.998696
1.01762 1.02069 1 0.996987
0.998733 1 1 0.998733
1 1 1 1
0.998753 1 1 0.998753
0.999812 1 1 0.999812
0.999685 1 1 0.999685
1.0486 1.05467 0.997231 0.997
1.05294 1.05692 0.999481 0.996748
1.04932 1.05656 0.996086 0.997053
1.04539 1.04906 1 0.996506
1.05322 1.05751 0.999271 0.996664
1.05222 1.05936 0.996315 0.996934
1.01782 1.02093 1 0.996947
1.04548 1.04912 1 0.996533
1.05079 1.05521 0.999224 0.996582
0.999017 1.0002 1 0.998818
1.01855 1.02159 1 0.997024
1.04633 1.04985 1 0.996648
1 1 1 1
0.999709 1.00086 1 0.99885
1.01823 1.02117 1 0.997128
1 1 1 1
0.999688 1.00083 1 0.998862
1 1 1 1
1.05282 1.05718 0.999085 0.996788
1.04719 1.05357 0.996915 0.997028
1.04725 1.05735 0.993257 0.997167
1.04426 1.04783 0.999986 0.996605
1.05255 1.05721 0.998825 0.996763
1.04772 1.05484 0.996182 0.997057
1.05226 1.0576 0.998141 0.996805
1.04476 1.04848 0.999843 0.996609
1.0155 1.01872 1 0.996838
1.04603 1.04966 1 0.996544
1.01634 1.01953 1 0.996875
0.998649 1 1 0.998649
1.01683 1.01995 1 0.996942
0.998694 1 1 0.998694
1 1 1 1
0.99873 1 1 0.99873
1 1 1 1
0.999659 1 1 0.999659
1.05404 1.05816 0.999339 0.996765
1.04783 1.05443 0.996709 0.997022
1.04494 1.04856 1 0.996544
1.0535 1.05739 0.999572 0.996747
1.04934 1.05653 0.996126 0.99706
1.01672 1.0198 1 0.996974
1.04486 1.04852 1 0.996503
1.0541 1.05805 0.999615 0.996648
0.998766 1 1 0.998766
1.0181 1.0212 1 0.99697
1.04526 1.04887 1 0.996554
1 1 1 1
0.999191 1.00037 1 0.998824
1.01847 1.02152 1 0.997011
1 1 1 1
0.999727 1.00087 1 0.998859
1 1 1 1
1.04414 1.04767 1 0.996633
1.05277 1.05703 0.999198 0.996775
1.04671 1.05305 0.996952 0.997013
1.01463 1.01784 1 0.996851
1.04416 1.0478 0.999923 0.996605
1.05203 1.05699 0.998519 0.996785
1.04468 1.04851 0.999741 0.996609
1.01556 1.01878 1 0.996837
0.998622 1 1 0.998622
1.01626 1.01942 1 0.9969
0.998647 1 1 0.998647
1 1 1 1
0.998692 1 1 0.998692
1 1 1 1
1 1 1 1
1.04484 1.04844 1 0.996562
1.05379 1.05799 0.999215 0.996808
1.04705 1.05415 0.996202 0.997044
1.01587 1.01895 1 0.996972
1.04454 1.04817 1 0.99654
1.05406 1.05786 0.999667 0.996746
0.998718 1 1 0.998718
1.01713 1.02022 1 0.996972
1.04436 1.04803 1 0.996499
1 1 1 1
0.998814 1.00004 1 0.998769
1.01838 1.02145 1 0.996993
1 1 1 1
0.999274 1.00044 1 0.99883
1 1 1 1
1.01465 1.01778 1 0.996922
1.044 1.04759 0.999972 0.996605
1.05277 1.05689 0.999335 0.996762
0.998638 1 1 0.998638
1.01476 1.01797 1 0.996848
1.04407 1.04778 0.999856 0.996606
1.01562 1.01885 1 0.996836
0.998622 1 1 0.998622
1 1 1 1
0.998644 1 1 0.998644
1 1 1 1
1 1 1 1
1.01519 1.01829 1 0.996956
1.04454 1.04812 1 0.996583
1.05354 1.05783 0.999089 0.99685
0.998908 1 1 0.998908
1.01613 1.01922 1 0.996971
1.04413 1.04776 1 0.996537
1 1 1 1
0.998719 1 1 0.998719
1.01751 1.02061 1 0.996969
1 1 1 1
0.998888 1.00012 1 0.998773
1 1 1 1
0.998628 1 1 0.998628
1.01479 1.01794 1 0.996899
1.04386 1.04752 0.999923 0.996578
1 1 1 1
0.998637 1 1 0.998637
1.01488 1.0181 1 0.996846
0.998621 1 1 0.998621
1 1 1 1
1 1 1 1
0.998868 1 1 0.998868
1.01541 1.01851 1 0.996956
1.04422 1.04778 0.999994 0.996603
1 1 1 1
0.998693 1 1 0.998693
1.01641 1.0195 1 0.996969
1 1 1 1
0.99872 1 1 0.99872
1 1 1 1
0.999606 1 1 0.999606
0.998758 1 1 0.998758
1.0149 1.01808 1 0.996875
1 1 1 1
0.998638 1 1 0.998638
1 1 1 1
0.999621 1 1 0.999621
0.998775 1 1 0.998775
1.01566 1.01876 1 0.996956
0.999809 1 1 0.999809
0.998693 1 1 0.998693
1 1 1 1
1 1 1 1
0.99866 1 1 0.99866
1 1 1 1
0.999809 1 1 0.999809
0.998679 1 1 0.998679
1 1 1 1
1 1 1 1
1 1 1 1

VECTORS lamdaE float
1.00144 1.0001 0.993587
1.00099 1.00077 0.996854
1.00097 1.0003 0.993894
1.00153 1.00004 0.993498
1.00151 0.999956 0.993626
1.0014 1.00034 0.99337
1.00281 1.00041 0.990543
1.001 1.00071 0.99685
1.00094 1.00015 0.997333
1.00043 1.00093 0.997356
1.00083 1.00092 0.993563
1.00249 1.00129 0.98928
1.00105 0.99998 0.994081
1.00084 1.00001 0.994178
1.00056 1.00051 0.994173
1.00118 1.00003 0.993841
1.00089 1.0007 0.993651
1.00113 1.00001 0.993949
1.00304 1.00024 0.990404
1.00108 1.00002 0.996993
1.00144 1.00008 0.993567
1.00154 0.999969 0.99358
1.00288 1.00016 0.990703
1.00292 1.00015 0.990643
1.00137 1.00052 0.993183
1.00267 1.00091 0.9903
1.00522 1.00077 0.98596
1.001 1.00067 0.99686
1.00116 1.00003 0.995513
1.00076 1.00065 0.995505
1.00091 1.00074 0.996909
1.00239 1.00144 0.989291
1.00145 0.999814 0.993615
1.00121 1.00019 0.99371
1.00321 1.00005 0.990943
0.999973 1.00102 0.997626
1.00294 1.00072 0.990848
1.00215 1.00189 0.989238
1.00459 1.00145 0.985615
1.00019 0.999554 0.997949
1.00109 0.999989 0.996988
1.00106 1.00002 0.995539
1.001 0.999973 0.997042
1.00066 1.00005 0.994413
1.00275 0.999934 0.990278
1.00104 0.999961 0.997257
1.00317 1.00007 0.991022
1.00085 0.999972 0.994183
1.00076 1.00005 0.994259
1.00039 1.00108 0.993912
1.00324 1.00007 0.99028
1.00089 1.00004 0.995695
1.00108 1.00011 0.993908
1.00082 1.001 0.993442
1.00119 0.999941 0.993913
1.00303 1.00013 0.990536
1.00293 1.00065 0.990166
1.0031 1.00005 0.990497
1.00521 1.00077 0.985979
1.00098 1 0.997039
1.00129 1.00007 0.993785
1.0025 0.999998 0.991969
1.00276 1.00016 0.990887
1.00292 1.00011 0.99068
1.00511 1.00028 0.98656
1.0052 1.00031 0.986325
1.00111 1.00049 0.993479
1.00215 1.00188 0.990119
1.0052 1.00106 0.985761
1.00529 1.0003 0.985549
1.00144 1.00006 0.996862
1.00082 1.00066 0.997067
1.00109 1.00054 0.996861
1.00231 1.00155 0.989297
1.0015 0.999938 0.996804
1.00131 1.00024 0.996883
1.00308 1 0.989516
1.00024 1.0008 0.99589
1.00268 1.00076 0.989423
1.00202 1.00212 0.990134
1.00467 1.00129 0.985602
1.00046 1.00015 0.99752
1.00029 1.00205 0.99235
1.00324 0.999968 0.989354
1.00309 1.00013 0.989462
1.00522 1.00034 0.985711
1.00147 1.00257 0.991466
1.00497 1.0008 0.985616
1.00371 1.00275 0.985787
1.00528 1.00138 0.984405
1 0.998667 0.9984
1.00003 0.999298 0.998138
1.00138 0.999992 0.996808
1.00114 0.999988 0.996963
1.00104 0.999978 0.997038
1.00092 1 0.995695
1.00279 0.999925 0.990958
1.00122 0.999971 0.995441
1.0031 1.00009 0.990316
1.00101 0.999985 0.997056
1.00259 0.999843 0.990572
1.00299 1.00004 0.991336
1.00494 0.999345 0.987276
1.00325 1 0.990923
1.00517 0.999729 0.986513
1.00103 0.999996 0.994111
1.00071 1.00012 0.994253
1.00027 1.00152 0.993701
1.00086 0.999882 0.994244
1.00317 1.00014 0.990369
1.00327 0.999969 0.990358
1.0032 1.00035 0.990041
1.00519 1.00075 0.985999
1.00103 0.999986 0.997047
1.00093 1.00007 0.994123
1.00268 0.999956 0.990819
1.0029 1.00014 0.99071
1.00087 1.00092 0.995165
1.00252 1.00167 0.990188
1.00308 1.00006 0.990527
1.00513 1.00013 0.986707
1.00515 1.00104 0.985785
1.0052 1.00046 0.986223
1.00529 1.00029 0.985585
1.00258 0.999888 0.990571
1.0026 1.00006 0.991194
1.00486 0.9992 0.988067
1.00504 0.999773 0.98714
1.00514 1.00011 0.986607
1.00532 0.998746 0.987318
1.00047 1.00072 0.997306
1.00531 0.999637 0.986189
1.00159 1.00282 0.989082
1.00481 1.00139 0.985264
1.00529 1.00102 0.984884
1.00524 0.998424 0.987365
1.0008 1.00294 0.990467
1.00182 1.00464 0.987074
1.00151 0.999958 0.996824
1.00128 1.00028 0.99687
1.00309 0.999978 0.989505
1.00043 1.00048 0.997414
1.00167 1.00243 0.989425
1.00268 1.00075 0.989443
1.00476 1.00116 0.985591
1.00029 1.00008 0.997674
1.00017 1.00216 0.992378
1.00326 0.999997 0.990129
1.00311 1.00019 0.990185
1.00522 1.00035 0.985686
1.00109 1.00277 0.990152
1.00501 1.00076 0.985599
1.00395 1.00238 0.985779
1.0053 1.00128 0.984537
1.00066 1.00254 0.991104
1.00009 1.00128 0.993534
1.00159 1.00476 0.987842
1.00524 1.00015 0.9859
1.00517 1.00049 0.985614
1.0053 0.999436 0.986485
1.00312 1.00323 0.986304
1.00531 1.0005 0.9854
1.00506 1.00194 0.984211
1.0053 1.00047 0.98519
0.999951 0.998205 0.998677
0.999929 0.998635 0.998518
0.999931 0.999155 0.99831
1.00054 1.00274 0.991142
1.00024 1.00043 0.997566
1.0015 0.999959 0.996786
1.00123 0.999995 0.996883
1.00295 1.00011 0.989675
1.00267 0.999924 0.990339
1.00102 0.999978 0.997028
1.00098 0.999979 0.997053
1.00257 0.999854 0.990565
1.00291 1.00003 0.990644
1.00493 0.999347 0.987275
1.0031 1.00005 0.989456
1.00514 0.999736 0.986512
1.00253 0.999851 0.990634
1.00487 0.999235 0.987497
1.00506 0.99951 0.986918
1.00535 0.99693 0.989189
1.00524 0.999924 0.986166
1.00535 0.997693 0.988375
1.00099 0.999985 0.997046
1.00056 1.00013 0.994461
1.0027 0.999953 0.989811
1.00306 1.00014 0.990533
1.00018 1.00145 0.997276
1.003 1.00128 0.990259
1.00324 1.00003 0.990375
1.00515 0.999976 0.986855
1.00521 1.0006 0.986119
1.0051 1.00107 0.985809
1.00529 1.00029 0.98562
1.00255 0.999881 0.990575
1.00275 1.00008 0.991018
1.00489 0.999181 0.987776
1.00507 0.999922 0.986998
1.00061 1.00075 0.997192
1.00184 1.00256 0.989936
1.00465 1.00175 0.985496
1.00516 1.00016 0.986564
1.00532 0.998385 0.987682
1.0053 1.00093 0.984968
1.00531 0.999759 0.98616
1.00523 0.998443 0.987384
1.00087 1.00285 0.990453
1.0019 1.00457 0.987077
1.00484 0.999304 0.987481
1.00495 0.999502 0.987627
1.00534 0.997514 0.988613
1.00534 0.997592 0.988414
1.00533 0.998896 0.987003
1.00525 0.996189 0.98986
1.00112 1.00305 0.989736
1.00525 0.997375 0.988447
1.00399 1.00244 0.985476
1.00532 1.00153 0.984191
1.00523 0.999837 0.986097
1.0052 0.996675 0.989291
1.00276 1.00375 0.986349
1.00113 1.00508 0.987867
1.00357 1.00269 0.986262
1.00314 0.99998 0.989447
1.00009 0.999907 0.997852
1.00005 1.00218 0.992404
1.00295 1.00021 0.989518
1.00522 1.00035 0.98566
1.00102 1.00296 0.990086
1.00411 1.00199 0.98577
1.00504 1.00073 0.985583
1.00531 1.00117 0.984667
1.00062 1.00266 0.99111
1.00001 1.00117 0.993576
1.00125 1.005 0.987801
1.00523 1.00017 0.985875
1.00518 1.00049 0.985594
1.0053 0.99944 0.986461
1.00323 1.00302 0.986319
1.00531 1.0006 0.985305
1.00519 1.00189 0.984174
1.0053 1.00023 0.98537
1.00008 1.00037 0.994353
1.00247 1.00398 0.986941
1.00092 1.00452 0.989063
1.00266 1.00357 0.987084
1.00531 0.9988 0.987169
1.00531 1.00006 0.985814
1.00525 0.997592 0.988226
1.00474 1.00192 0.984825
1.00525 0.999098 0.98683
1.0053 1.0013 0.984675
1.0053 0.999415 0.98626
1.00023 1.0018 0.992689
1.00027 0.999162 0.995211
0.999981 0.997738 0.998832
0.999928 0.998082 0.998737
0.999882 0.998487 0.998611
1.00015 1.00251 0.992017
1.00012 1.00006 0.997814
1.0006 1.00268 0.99111
1.00035 1.00051 0.997475
1.00309 1.00009 0.989461
1.00281 1.00002 0.990015
1.00512 0.999742 0.98651
1.00491 0.999353 0.987274
1.00259 0.999869 0.990565
1.00103 0.999968 0.99705
1.00255 0.999845 0.990636
1.00485 0.999245 0.987498
1.00503 0.99953 0.986917
1.00533 0.996941 0.989198
1.00521 0.999957 0.986149
1.00534 0.997682 0.988366
1.00483 0.999235 0.987546
1.00532 0.996745 0.989422
1.00536 0.997268 0.988813
1.00525 0.994939 0.99125
1.00533 0.998188 0.987825
1.00524 0.995493 0.990602
1.00256 0.999879 0.990584
1.00291 1.00005 0.990843
1.00492 0.999142 0.987487
1.0051 1.00006 0.986854
1.00074 1.00081 0.997064
1.00219 1.00237 0.990587
1.00461 1.00205 0.985724
1.00518 1.00019 0.986522
1.00532 0.998023 0.988046
1.00531 0.999884 0.986131
1.00531 1.00082 0.985052
1.00523 0.99846 0.987403
1.00091 1.00277 0.990439
1.00195 1.00448 0.987078
1.00485 0.999123 0.987635
1.00498 0.99948 0.987603
1.00534 0.997304 0.988836
1.00534 0.997983 0.988031
1.0012 1.00296 0.989735
1.00393 1.00264 0.985498
1.0053 1.00164 0.984098
1.00533 0.999114 0.98684
1.00525 0.995893 0.990116
1.00524 0.999627 0.986307
1.00524 0.997394 0.988451
1.0052 0.99663 0.989224
1.00273 1.00387 0.986318
1.00335 1.00281 0.986188
1.00119 1.00499 0.987898
1.00532 0.997261 0.988916
1.00537 0.997466 0.988619
1.00522 0.995355 0.990891
1.00524 0.995313 0.9907
1.00525 0.996324 0.989433
1.00523 0.995109 0.990817
1.00337 1.00321 0.985862
1.0052 0.995574 0.990139
1.00524 1.00233 0.983642
1.00525 1.00083 0.984831
1.0052 0.998258 0.987624
1.00517 0.996 0.98993
1.00069 1.00492 0.988658
1.00449 1.00227 0.985204
1.00252 1.00408 0.986415
1.00486 1.00196 0.985226
1.00522 1.00019 0.98585
0.999985 1.00115 0.993617
1.00046 1.00286 0.991123
1.00093 1.00505 0.98776
1.00519 1.00049 0.985573
1.0053 0.999445 0.986437
1.00335 1.00278 0.986338
1.00526 1.00189 0.984137
1.00531 1.00069 0.985211
1.00529 0.999997 0.98555
1.00008 1.00031 0.994393
1.00238 1.00388 0.986954
1.00073 1.00455 0.989065
1.00253 1.00359 0.987062
1.00531 0.998797 0.987147
1.0053 1.00007 0.985787
1.00524 0.99758 0.988224
1.00484 1.00187 0.984836
1.00525 0.99925 0.986633
1.00527 1.00117 0.984653
1.00529 0.999289 0.986424
1.00019 0.999651 0.994901
1.00063 1.00361 0.990397
1.00382 1.00223 0.986146
1.00172 1.00483 0.987791
1.00377 1.0012 0.987607
1.00526 0.99678 0.989078
1.00524 0.998366 0.987401
1.00522 0.996407 0.98924
1.00485 1.00165 0.984763
1.00524 0.998134 0.9876
1.00502 1.00038 0.985729
1.00033 1.00206 0.992291
1.00035 1.00335 0.990982
1.00011 1.00169 0.993024
1.0002 1.00183 0.992685
1.00024 0.998913 0.996105
1.00026 0.999113 0.995595
1.00016 0.997367 0.997506
0.99998 0.997686 0.998865
0.999916 0.998 0.998786
0.999886 1.00172 0.993214
0.999937 0.999576 0.998173
1.00024 1.00239 0.992005
1.0002 1.00013 0.997717
1.00067 1.00259 0.991081
1.00047 1.00055 0.997382
1.00518 0.999989 0.986132
1.00501 0.999545 0.986915
1.00534 0.997701 0.988357
1.00532 0.996952 0.989207
1.00484 0.999256 0.987499
1.00255 0.999834 0.990635
1.00483 0.999236 0.98755
1.00532 0.996752 0.989426
1.00535 0.997281 0.988815
1.00525 0.994939 0.991233
1.00533 0.998193 0.987809
1.00525 0.995463 0.99061
1.00531 0.996751 0.989435
1.00526 0.994958 0.991239
1.00523 0.995083 0.99107
1.00519 0.994958 0.991244
1.00526 0.996066 0.9899
1.00524 0.994894 0.990931
1.00485 0.998945 0.987789
1.005 0.999473 0.987579
1.00534 0.997122 0.98906
1.00534 0.998377 0.987649
1.00128 1.0029 0.989738
1.00373 1.00297 0.985523
1.0053 1.00177 0.984004
1.00533 0.999328 0.986678
1.00524 0.995602 0.990372
1.00524 0.997413 0.988456
1.00525 0.999427 0.986517
1.0052 0.996572 0.989158
1.00272 1.00408 0.986284
1.0033 1.00285 0.986115
1.00124 1.00485 0.987929
1.00532 0.997087 0.989109
1.00537 0.997445 0.988626
1.00523 0.995164 0.991059
1.00523 0.995568 0.990483
1.0033 1.00339 0.985856
1.00522 1.00236 0.983684
1.00525 1.001 0.984674
1.00525 0.996643 0.989144
1.00524 0.995012 0.990837
1.00521 0.998173 0.987587
1.00521 0.9956 0.990116
1.00517 0.995893 0.989984
1.00428 1.00257 0.985168
1.00482 1.00194 0.985003
1.00085 1.00481 0.988676
1.00231 1.00409 0.986478
1.00523 0.994962 0.991312
1.00525 0.995477 0.990579
1.00515 0.994947 0.991329
1.00519 0.99491 0.990978
1.00522 0.99506 0.990633
1.00524 0.994927 0.990792
1.00512 1.00241 0.983988
1.00521 0.99501 0.990554
1.00521 1.00212 0.983691
1.00523 1.00012 0.985468
1.0052 0.997483 0.988146
1.00517 0.996047 0.989852
1.00045 1.00433 0.989702
1.00126 1.00509 0.987256
1.0051 1.00259 0.983874
1.00418 1.00346 0.985477
1.00501 1.0033 0.983497
1.00006 1.0002 0.99443
1.00532 0.998792 0.987126
1.0005 1.00471 0.989068
1.00228 1.00387 0.986965
1.00245 1.00357 0.987039
1.00531 1.00007 0.98576
1.00524 0.997569 0.988221
1.00515 1.00162 0.984846
1.00525 1.00108 0.984633
1.00525 0.999398 0.986437
1.0053 0.999181 0.986588
1.00018 0.999584 0.994934
1.00043 1.00373 0.990423
1.00405 1.00191 0.986194
1.00129 1.00498 0.987743
1.00362 1.00115 0.987524
1.00526 0.996754 0.989079
1.00524 0.99835 0.987397
1.00522 0.99636 0.989235
1.00498 1.00171 0.984696
1.00525 0.998219 0.987438
1.00509 1.00039 0.985835
1.0004 1.00269 0.991559
1.0009 1.00494 0.988976
1.00461 1.00117 0.985826
1.00223 1.0038 0.987643
1.00455 1.00013 0.987854
1.00527 0.995697 0.989973
1.00522 0.997172 0.988371
1.00523 0.995776 0.989515
1.00488 1.0011 0.985152
1.00508 0.998992 0.986658
1.00033 1.00203 0.992294
1.00039 1.00329 0.990769
1.00014 1.00354 0.990946
1.00052 1.00361 0.990687
1.00019 1.0034 0.991242
1.00003 1.00151 0.993301
1.00009 1.00167 0.993034
1.0002 0.998795 0.996267
1.00019 1.00186 0.992681
1.00025 0.998895 0.996129
1.00022 0.997121 0.997623
1.00025 0.999089 0.995969
1.00009 0.99739 0.99822
0.999985 0.997587 0.998893
0.99981 1.00061 0.994427
0.999933 1.0017 0.993203
0.999772 0.998834 0.998589
1.00006 0.99963 0.998024
1.00034 1.00231 0.991991
1.00029 1.00025 0.997624
1.00532 0.998195 0.987793
1.00534 0.997269 0.988818
1.00526 0.995426 0.990618
1.00525 0.994939 0.991217
1.00532 0.996758 0.98943
1.00483 0.999237 0.987554
1.00532 0.996755 0.989433
1.00526 0.994957 0.991244
1.00524 0.995064 0.991082
1.0052 0.994959 0.991207
1.00526 0.996027 0.989903
1.00524 0.994906 0.990928
1.00526 0.99496 0.991264
1.00521 0.994949 0.991289
1.00521 0.994939 0.991089
1.00526 0.994945 0.991081
1.00527 0.995151 0.990556
1.00529 0.994885 0.990851
1.00532 0.996906 0.989302
1.00536 0.997425 0.988633
1.00524 0.994959 0.991228
1.00521 0.99582 0.990267
1.00324 1.0035 0.985851
1.00519 1.00234 0.983723
1.00524 1.00109 0.984516
1.00525 0.996961 0.988854
1.00524 0.994911 0.990857
1.00522 0.995628 0.990093
1.00521 0.998086 0.987551
1.00517 0.995756 0.990043
1.00394 1.00302 0.985133
1.00468 1.00196 0.98478
1.00102 1.00469 0.988693
1.0022 1.00406 0.986543
1.00524 0.99496 0.991303
1.00524 0.995459 0.990645
1.00515 0.99495 0.991307
1.00521 0.994917 0.990977
1.00492 1.00262 0.983995
1.00521 1.00218 0.983607
1.00521 1.0001 0.985449
1.00523 0.99516 0.990547
1.00524 0.994926 0.990767
1.00516 0.997523 0.988146
1.00521 0.994999 0.990536
1.00519 0.995836 0.989959
1.005 1.00263 0.983925
1.00499 1.00347 0.983276
1.00376 1.00321 0.985497
1.00045 1.00415 0.989746
1.00113 1.0051 0.987411
1.00519 0.994953 0.991251
1.00519 0.994945 0.991122
1.00525 0.994916 0.990715
1.00524 0.994905 0.990713
1.00516 1.00301 0.983179
1.00521 0.995043 0.990467
1.00505 1.00164 0.983958
1.00516 0.999558 0.985961
1.00512 0.997184 0.988348
0.99991 1.0034 0.991245
1.0008 1.00511 0.988559
1.00183 1.00502 0.986972
1.00498 1.00388 0.9828
1.0047 1.00317 0.984363
1.00503 1.00322 0.982779
1.00017 0.999534 0.994967
1.0003 1.00388 0.990447
1.00526 0.996729 0.989081
1.00091 1.0051 0.987693
1.00413 1.00184 0.986243
1.00354 1.00124 0.987445
1.00523 0.998335 0.987392
1.00523 0.996315 0.989229
1.00516 1.00171 0.984629
1.00512 1.00043 0.985943
1.00526 0.998289 0.987277
1.00034 1.00274 0.991569
1.00056 1.00502 0.988993
1.00484 1.00103 0.985777
1.00208 1.00394 0.98761
1.00427 0.999551 0.987793
1.00526 0.995659 0.989988
1.00523 0.997188 0.98835
1.00524 0.995817 0.989497
1.00488 1.00112 0.985196
1.00509 0.999089 0.986644
1.00055 1.00408 0.99018
1.00023 1.00515 0.988728
1.00497 1.00116 0.985386
1.00245 1.00163 0.988055
1.00523 0.999606 0.987317
1.00524 0.995075 0.990313
1.00526 0.997191 0.988109
1.00529 0.996088 0.988974
1.00487 1.00004 0.986146
1.00514 0.999127 0.986544
1.00033 1.00201 0.992298
1.0004 1.00341 0.990758
1.00001 1.0037 0.990916
0.999989 1.00366 0.990912
1.00007 1.00353 0.99123
1.00011 1.00389 0.990757
0.99997 1.00328 0.991742
1.00001 1.00411 0.990505
1.00004 1.00329 0.991591
1.00001 1.00156 0.993307
1.00002 1.00151 0.993304
1.00013 0.998754 0.996413
1.00006 1.00164 0.993042
1.00022 0.998776 0.996291
1.00021 0.997001 0.997719
1.00027 0.998868 0.996157
1.00019 0.99714 0.997624
0.999996 0.997398 0.998955
0.999837 0.999641 0.995353
0.999841 1.00067 0.994381
0.999726 0.99825 0.998859
1.00002 1.00162 0.993193
0.999874 0.999033 0.998437
1.00016 0.999754 0.997889
1.00526 0.995992 0.989906
1.00525 0.995049 0.991094
1.00523 0.994918 0.990925
1.0052 0.994959 0.991169
1.00526 0.994956 0.991248
1.00532 0.996759 0.989431
1.00526 0.994961 0.991281
1.00521 0.994948 0.9913
1.00521 0.994933 0.991116
1.00526 0.994938 0.991058
1.00527 0.995165 0.990581
1.00528 0.994886 0.990796
1.00521 0.994949 0.991292
1.00527 0.994936 0.991145
1.00527 0.994935 0.990927
1.00529 0.994862 0.990635
1.00525 0.994959 0.991293
1.00523 0.995444 0.99071
1.00514 0.994952 0.991285
1.00522 0.994923 0.990976
1.00477 1.00271 0.984002
1.00522 1.00226 0.983528
1.00519 1.00017 0.98543
1.00523 0.995261 0.99046
1.00523 0.994922 0.990743
1.0052 0.995004 0.990518
1.00514 0.99752 0.988141
1.00521 0.995641 0.990064
1.00476 1.00271 0.983975
1.00501 1.0034 0.983057
1.0032 1.00336 0.985518
1.00046 1.00395 0.989798
1.00113 1.0051 0.987568
1.00518 0.994951 0.99125
1.0052 0.994943 0.991133
1.00525 0.994921 0.99074
1.0051 1.00302 0.983235
1.00512 1.00183 0.983875
1.00513 0.999631 0.985955
1.00524 0.994909 0.990714
1.00517 0.997015 0.988604
1.00521 0.995077 0.990415
0.999933 1.00316 0.991477
1.00489 1.00371 0.982887
1.00483 1.0042 0.982507
1.00439 1.00331 0.984436
1.00191 1.00497 0.987074
1.00063 1.00511 0.988553
1.00526 0.994944 0.991122
1.00528 0.99491 0.99085
1.00526 0.994907 0.990624
1.00523 0.994873 0.990607
1.0051 1.00297 0.983191
1.0052 0.995377 0.99004
1.00504 1.00132 0.984502
1.00506 0.999722 0.986072
1.00001 1.00139 0.993092
1.00011 1.00482 0.990006
1.00133 1.00505 0.988322
1.00264 1.00504 0.985341
1.00474 1.00417 0.983177
1.00501 1.00341 0.983114
1.00027 1.00281 0.991579
1.00016 1.00511 0.989013
1.00525 0.995625 0.990003
1.00182 1.004 0.987576
1.00509 1.00086 0.985727
1.00384 0.999299 0.987722
1.00524 0.997205 0.988329
1.00525 0.995851 0.989477
1.00488 1.00118 0.985235
1.00513 0.999199 0.986629
1.00037 1.00419 0.990188
1.00066 1.00516 0.988474
1.005 1.00104 0.985365
1.00288 1.00163 0.987898
1.00497 0.999777 0.986978
1.00526 0.995101 0.990359
1.00526 0.997103 0.988311
1.00528 0.996161 0.989049
1.00486 1.00003 0.98622
1.0051 0.999344 0.986307
0.999625 1.00427 0.990341
1.00052 1.00459 0.988761
1.00496 1.00013 0.986311
1.00402 0.9997 0.987392
1.00533 0.994855 0.990338
1.00525 0.995728 0.989876
1.00522 0.99826 0.986907
1.00516 0.99936 0.986203
1.00051 1.0034 0.990747
1.00015 1.00367 0.990895
0.999422 1.00374 0.992498
0.999965 1.00368 0.991219
0.999656 1.00421 0.990827
1 1.00331 0.991583
0.999679 1.00326 0.992073
1.00004 1.00428 0.99044
0.999705 1.00137 0.993997
0.999797 1.00429 0.990989
0.999872 1.00435 0.990485
1.00013 1.00312 0.991598
0.999973 1.0018 0.993054
0.999972 1.00156 0.993298
1.00001 0.998814 0.996521
1 1.00149 0.99331
1.00013 0.99877 0.996431
1.00015 0.997028 0.997805
1.00022 0.99877 0.996317
1.0002 0.997017 0.997717
1.00016 0.997168 0.997617
0.999968 0.998888 0.995938
0.99984 0.999765 0.995287
0.999726 0.997779 0.999022
0.999837 1.00076 0.994333
0.999767 0.998337 0.998789
1 0.999098 0.99827
1.00527 0.995173 0.990605
1.0052 0.994926 0.991143
1.00527 0.994886 0.990741
1.00526 0.994931 0.991035
1.00521 0.994947 0.99131
1.00525 0.994963 0.991299
1.0052 0.994951 0.991301
1.00527 0.994936 0.991143
1.00527 0.994925 0.990919
1.00528 0.99486 0.990657
1.00526 0.994943 0.991173
1.00528 0.994927 0.991036
1.00531 0.994876 0.990731
1.00518 0.994949 0.991248
1.00521 0.994941 0.991144
1.00525 0.994927 0.990764
1.00507 1.003 0.983292
1.00512 1.00193 0.983789
1.00509 0.999591 0.985947
1.00523 0.994915 0.990715
1.00521 0.995116 0.990364
1.0052 0.996799 0.988852
1.00484 1.00364 0.982972
1.00498 1.0042 0.98225
1.0043 1.00327 0.984505
0.99998 1.00297 0.991716
1.00203 1.00483 0.987173
1.00038 1.00512 0.988538
1.00526 0.994944 0.991132
1.00528 0.994907 0.990818
1.00526 0.994906 0.990617
1.005 1.00307 0.983225
1.00492 1.00124 0.984422
1.00506 0.999378 0.986425
1.00523 0.994877 0.990568
1.00513 0.995501 0.989986
1.00001 1.00135 0.993321
1.00004 1.00483 0.989977
1.00478 1.00322 0.983068
1.0047 1.00367 0.983377
1.00305 1.0048 0.985521
1.00111 1.00505 0.988138
1.00529 0.99491 0.991032
1.00532 0.994862 0.990551
1.00528 0.99489 0.990556
1.00521 0.994908 0.990335
1.00444 1.00248 0.983972
1.00516 0.997409 0.988247
1.00491 1.0016 0.984552
1.00017 1.00048 0.994116
1.0003 1.00156 0.992927
0.999713 1.00319 0.991998
1.00048 1.00504 0.989122
1.00123 1.00506 0.987258
1.00346 1.00434 0.984038
1.00382 1.004 0.9843
1.00389 1.00478 0.984557
1.00015 1.00437 0.990195
1.00096 1.00517 0.988219
1.00527 0.99513 0.990403
1.00335 1.00122 0.987747
1.00501 1.0009 0.98535
1.00484 1.00007 0.986651
1.00527 0.996989 0.988517
1.00527 0.996224 0.989128
1.0049 0.999993 0.986294
1.00507 0.999501 0.986072
1.00001 1.00411 0.990172
1.00072 1.00463 0.988533
1.00508 1.00009 0.98622
1.00454 1.00013 0.987343
1.00534 0.994841 0.990352
1.00527 0.995643 0.989803
1.00518 0.998219 0.987021
1.00517 0.999452 0.986166
0.999759 1.00425 0.990316
1.00536 0.994899 0.990342
1.00259 1.00374 0.988055
1.00485 0.999445 0.986912
1.00529 0.995021 0.990575
1.00519 0.997347 0.986914
1.00504 1.00065 0.985549
1.00026 1.00369 0.990875
0.999359 1.00355 0.992407
0.998612 1.00241 0.995251
0.999995 1.00325 0.991574
1.00005 1.00449 0.990375
0.998861 1.00384 0.9924
1.00012 1.00307 0.991591
0.999855 1.00444 0.990483
0.998915 1.00196 0.994365
0.99991 1.00427 0.990882
0.999241 0.999926 0.996993
0.999079 1.00286 0.993414
0.99966 1.00502 0.990203
1.00034 1.00417 0.99011
1.00018 1.00337 0.99119
0.999906 1.00219 0.992777
0.999904 1.00195 0.993034
0.999887 0.999044 0.99655
0.999935 1.00164 0.99329
1.00002 0.998861 0.996519
1.00004 0.997119 0.997888
1.00014 0.998769 0.99645
1.00016 0.99702 0.997801
1.00019 0.997032 0.99771
1.00017 1.00051 0.994143
1.00005 0.998477 0.996229
0.999961 0.998971 0.995894
0.999802 0.997415 0.999114
0.999843 0.999881 0.995224
0.999757 0.997891 0.998982
0.999828 0.998494 0.998689
1.00527 0.994859 0.99068
1.00527 0.994914 0.990911
1.00527 0.994937 0.991142
1.0052 0.994952 0.991311
1.00526 0.994944 0.991174
1.00528 0.994925 0.99105
1.00529 0.994882 0.9907
1.00528 0.994924 0.99109
1.00534 0.99492 0.990858
1.00545 0.995039 0.991101
1.00526 0.994944 0.991142
1.00528 0.994902 0.990787
1.00527 0.994905 0.99061
1.00489 1.00321 0.983261
1.00491 1.00167 0.984362
1.00488 0.999142 0.986775
1.00522 0.994887 0.99053
1.005 0.995699 0.989934
1.0045 1.0035 0.982961
1.00423 1.00439 0.983609
1.00294 1.00451 0.985702
0.999994 1.00127 0.993548
1.00006 1.00484 0.989947
1.001 1.00505 0.987951
1.00529 0.994909 0.991014
1.00015 1.00049 0.994103
1.00021 1.00164 0.992785
1.00532 0.994873 0.990563
1.00526 0.994892 0.990569
1.00478 1.00271 0.983877
1.00469 1.00156 0.984759
1.00511 0.997136 0.988151
1.00521 0.994909 0.990273
0.999758 1.00319 0.992168
1.0005 1.00504 0.989081
1.00401 1.00383 0.984144
1.00364 1.00421 0.984329
1.00375 1.00457 0.984045
1.0014 1.00503 0.987181
1.00537 0.994872 0.990762
1.00533 0.994828 0.990468
1.00523 0.994864 0.990386
1.00519 0.994926 0.990338
1.00407 1.00239 0.985039
1.00449 1.00114 0.986058
1.00006 1.00224 0.992271
1.00003 1.00176 0.993076
1.00136 1.00048 0.992613
1.00043 1.00373 0.990345
1.0007 1.00506 0.988679
1.00234 1.0045 0.986478
1.00233 1.00512 0.984544
1.00293 1.00095 0.987813
1.00046 1.00396 0.990004
1.00114 1.00469 0.988302
1.00535 0.994828 0.990365
1.00529 0.995602 0.989732
1.00501 1.00048 0.987289
1.00516 1.0001 0.986123
1.00513 0.998191 0.987132
1.00518 0.999558 0.986132
1.00031 1.00398 0.990214
1.00538 0.994919 0.990574
1.00197 1.00376 0.988221
1.005 0.999629 0.986676
1.00528 0.995015 0.990598
1.00517 0.997541 0.987118
1.00494 1.00046 0.985536
0.999797 1.00491 0.990664
1.00494 0.994813 0.990859
1.0027 1.00259 0.987915
1.00474 1.00128 0.985061
1.00509 0.995673 0.989816
1.00369 1.00113 0.986163
0.998779 0.995468 0.986399
0.999142 1.00354 0.992323
0.998089 1.00275 0.995253
0.998649 1.0017 0.99637
1.00002 1.00315 0.991584
0.999809 1.00456 0.990483
1.00032 1.00385 0.990778
0.998473 1.00216 0.994749
1.00011 1.00347 0.991191
1.00025 1.00423 0.99015
0.999298 0.999786 0.996656
0.999798 1.0049 0.990216
0.999475 1.0028 0.992986
0.998351 1.00117 0.997157
1.00035 1.0043 0.990101
1.00016 1.00478 0.990023
1.00068 1.00421 0.989743
1.00012 1.00389 0.990555
1.00036 1.00448 0.99013
1.00012 1.00408 0.990319
0.999901 1.0023 0.992667
0.999923 1.00218 0.992758
0.999762 0.999174 0.995984
0.999901 1.00194 0.993012
0.999875 0.999097 0.996225
1 0.997288 0.999103
1.00003 0.998911 0.996518
1.00006 0.997091 0.997887
1.00017 0.997013 0.997791
1.00006 1.00046 0.994276
1.00018 1.00041 0.994175
1.0001 0.998271 0.99641
1.00004 0.998486 0.996505
0.999868 0.997156 0.999172
0.999948 0.999076 0.995848
0.999803 0.997492 0.999093
0.999787 0.997924 0.998945
1.00528 0.994888 0.990668
1.00527 0.994923 0.991064
1.00526 0.994945 0.991175
1.00528 0.994925 0.99109
1.00534 0.994918 0.99084
1.00544 0.994981 0.990818
1.00541 0.994889 0.990869
1.00135 0.994879 0.982018
1.00473 0.994944 0.992299
1.00009 1.0017 0.992999
1.00529 0.994907 0.990997
1.00532 0.994882 0.990576
1.00525 0.99489 0.990582
1.00477 1.00237 0.983762
1.00489 1.00116 0.98495
1.00507 0.997007 0.988055
1.00522 0.99489 0.990211
1.00445 1.00331 0.984025
1.00409 1.00384 0.984149
1.00364 1.00459 0.984054
1.00014 1.00051 0.994093
1.00189 1.00502 0.987102
0.999781 1.00316 0.992323
1.00049 1.00503 0.989037
1.00019 1.00162 0.992642
1.00537 0.994861 0.990763
1.00003 1.00228 0.992409
1.00002 1.00178 0.993089
1.00103 1.00044 0.992944
1.00534 0.994838 0.990436
1.00522 0.994865 0.990355
1.00332 1.00325 0.985128
1.00474 0.999927 0.986571
1.00518 0.994913 0.99026
1.00021 1.00376 0.990542
1.00095 1.00504 0.988486
1.00306 1.00238 0.987289
1.00292 1.00498 0.984349
1.0027 1.00408 0.986629
1.00533 0.994813 0.990942
1.00523 0.994776 0.990757
1.00517 0.995002 0.989914
1.00499 0.996977 0.990152
1.0019 1.00213 0.988715
0.999481 1.00358 0.991803
1.00113 1.00097 0.99214
1.00001 1.00013 0.99317
1.00049 1.00444 0.990574
1.00039 1.00507 0.989272
1.00091 1.00432 0.987886
1.00222 1.00023 0.990107
1.00107 1.00363 0.990109
1.00109 1.00375 0.988394
1.0054 0.994935 0.990796
1.00528 0.994968 0.990612
1.00516 0.997687 0.98732
1.00506 0.999767 0.986439
1.00488 1.0003 0.985527
1.00024 1.00469 0.990643
1.00467 0.994836 0.991066
1.00284 1.00233 0.987772
1.0048 1.00135 0.984944
1.00506 0.995563 0.990076
1.00399 1.00096 0.986245
0.998545 0.996568 0.984534
0.999297 1.00439 0.9915
1.00299 0.996218 0.991093
1.00341 1.00239 0.985946
1.00307 1.00108 0.98694
1.00334 0.997581 0.990726
0.999956 0.994868 0.944631
0.995256 0.994804 0.96566
0.995613 0.999659 0.988296
0.999323 0.994787 0.862223
0.994715 0.994832 0.82478
0.997689 1.00304 0.995253
0.997796 1.00212 0.996655
0.997824 1.00295 0.996634
1.00007 1.00351 0.991193
1.00029 1.00402 0.99019
0.999973 1.00477 0.990231
0.999702 1.00291 0.992541
0.999263 0.999517 0.996311
1.00013 1.00467 0.990046
1.00015 1.00386 0.990641
1.00059 1.00417 0.989783
0.998607 1.00045 0.996588
0.999967 1.00447 0.990449
1.00041 1.00459 0.990446
0.99881 1.00453 0.992106
1.00014 1.00467 0.990169
1.00051 1.00462 0.989216
1.00021 1.00398 0.990375
1.00035 1.00495 0.989393
1.00043 1.00404 0.990557
0.999655 1.00481 0.99073
1.00018 1.00459 0.990087
1.00027 1.00376 0.990725
1.00016 1.00409 0.990308
0.999924 1.00228 0.992672
0.999913 1.0023 0.992671
0.999731 0.999257 0.995995
0.999891 1.00227 0.99274
0.999749 0.999216 0.995977
0.999948 0.997293 0.999131
0.999855 0.999164 0.995902
0.999976 0.997286 0.9985
1.00009 0.997066 0.997884
0.999932 1.00031 0.994606
1.00005 1.0005 0.994281
1.00009 0.998121 0.996582
1.00019 1.00031 0.994205
1.00009 0.998223 0.996692
0.999924 0.996891 0.999221
1.00006 0.998527 0.996186
0.999867 0.99727 0.999149
0.999814 0.99759 0.999073
1.00533 0.994915 0.990822
1.00528 0.994925 0.991089
1.00541 0.994935 0.990543
1.00075 0.994836 0.982167
1.00541 0.994889 0.99088
1.00459 0.994948 0.992068
1.00515 0.996132 0.991215
0.996262 0.994885 0.964976
1.00132 0.995568 0.984276
1.00013 1.00142 0.993273
1.00005 1.00186 0.992961
0.999384 1.00382 0.991911
0.999882 1.00229 0.992689
1.00537 0.994857 0.990763
1.00534 0.994854 0.990405
1.00521 0.994873 0.990324
1.00424 1.00358 0.985221
1.00465 0.998057 0.987104
1.00519 0.994915 0.990181
1.00265 1.00311 0.98674
1.00433 1.00496 0.984143
1.0029 1.00268 0.986773
0.999973 1.00188 0.993106
1.0009 1.00501 0.988305
1.00012 1.0038 0.990741
0.999926 1.0025 0.992544
1.00052 1.00075 0.99325
1.00534 0.994812 0.990949
0.999805 1.0035 0.991637
1.00128 1.00055 0.992365
0.99853 1.00122 0.995334
1.00524 0.994801 0.990666
1.00517 0.995053 0.989929
1.00313 1.00095 0.988704
1.00467 0.996041 0.990482
1.0006 1.00447 0.989959
1.00074 1.00484 0.988446
1.00192 1.00183 0.990005
1.00234 1.00367 0.987315
1.00432 0.995091 0.991647
1.00512 0.994973 0.99107
1.00501 0.995955 0.989628
1.00335 0.996869 0.992857
0.998168 1.0046 0.992995
1.00088 1.0013 0.991986
0.998212 1.00478 0.992916
0.999301 1.00457 0.990923
0.999984 0.994893 0.931617
1.00049 1.00455 0.990617
1.00286 1.00249 0.987626
1.00432 0.994872 0.991304
1.00509 0.995513 0.990332
1.00417 1.00081 0.98631
1.00463 1.00149 0.984822
0.998436 0.997287 0.982531
0.999586 1.00429 0.991788
1.00294 0.996404 0.990999
1.00334 1.00264 0.985989
1.00358 1.00108 0.987038
1.00376 0.997632 0.990455
0.999989 0.994868 0.932049
0.995647 0.994799 0.962147
0.995566 1.00018 0.988498
0.998306 0.99476 0.86702
0.994724 0.994832 0.815234
0.999447 1.00424 0.991402
0.999786 0.99482 0.873304
0.99472 0.994808 0.817387
1.0003 0.999695 0.992658
1.00161 1.00206 0.989415
1.00144 0.999483 0.992572
0.995043 0.998779 0.990868
0.997831 0.994824 0.943414
0.994919 0.994773 0.958203
0.996506 0.994855 0.884223
0.994731 0.994808 0.807935
0.997215 1.00249 0.99695
0.997561 1.00227 0.996479
0.997797 1.00444 0.995166
1.00022 1.00379 0.990725
1.00054 1.00415 0.989825
0.999658 1.00495 0.990069
0.999706 1.00462 0.990797
0.999095 0.999608 0.996025
1.00022 1.00396 0.990381
1.00016 1.00468 0.990339
1 1.0048 0.99003
1.00067 1.00453 0.989345
0.998749 1.00439 0.992389
0.999495 1.00463 0.991625
0.997626 1.00511 0.993144
1.00014 1.00505 0.989467
1.00054 1.00466 0.989429
1.00046 1.00484 0.989374
1.00023 1.00372 0.990826
1.00034 1.005 0.989655
0.99987 1.00386 0.991333
0.999291 1.00282 0.991921
0.999265 1.00501 0.990902
0.999546 1.00474 0.990693
0.999836 1.00446 0.990756
1.00011 1.00374 0.99089
1.00005 1.00459 0.990045
1.00026 1.00375 0.99066
1 1.00225 0.992597
1.00022 1.00407 0.990298
0.999934 1.00225 0.992683
0.999913 0.999221 0.996441
0.999895 1.00231 0.992675
0.999776 0.999225 0.996256
0.999896 0.997288 0.997974
0.999739 0.999233 0.99597
0.999943 0.997313 0.999139
0.999971 0.997313 0.997894
1.00023 1.00141 0.993065
0.999924 1.00019 0.994756
0.999938 1.00034 0.994597
1.00005 0.998049 0.996691
1.00003 1.00055 0.994285
1.0001 0.998085 0.996581
0.999967 0.996782 0.999253
1.00007 0.998223 0.996936
0.999929 0.997046 0.998656
0.999898 0.997323 0.99801
1.00022 0.994811 0.982299
1.00541 0.994891 0.990889
1.00436 0.995571 0.991824
0.996464 0.99487 0.965573
1.00141 0.995262 0.984646
1.00518 0.995592 0.991189
1.00347 0.996326 0.986576
0.99723 0.994948 0.968315
0.999982 0.994866 0.942617
0.998218 0.99482 0.885602
0.994655 0.994798 0.823561
0.99972 1.00241 0.992651
1.00016 1.00137 0.993259
1.00015 1.00178 0.992922
0.999732 1.00325 0.992045
0.999231 1.00406 0.992315
1.00057 1.00196 0.991892
1.00018 1.00287 0.991978
1.00011 1.00211 0.992547
1.00535 0.994807 0.990947
1.00525 0.994819 0.990579
1.00518 0.995062 0.98994
1.00309 1.0012 0.988691
1.0045 0.995604 0.990811
1.00177 1.00259 0.989883
1.00378 1.00396 0.986753
1.0014 1.00505 0.987628
1.0013 1.0001 0.992585
1.00065 1.00457 0.989314
1.00038 1.00309 0.991486
0.997661 1.00145 0.997465
1.00428 0.994818 0.991919
0.998646 1.00415 0.992908
1.00069 1.00172 0.992394
1.00485 0.994913 0.991039
1.00473 0.995798 0.989954
1.00272 0.996887 0.992537
0.999495 1.0051 0.991302
1.00054 1.00338 0.991147
1.00328 0.994817 0.991403
1.00393 0.998516 0.990531
1.00464 0.995499 0.990992
1.0009 0.99816 0.993894
0.999441 1.00492 0.990695
0.998884 1.00434 0.992247
0.999399 1.00501 0.991895
0.99979 0.994911 0.875964
1.00027 0.994866 0.94525
1.00002 1.00386 0.992077
1.00351 1.00276 0.986042
1.00286 0.996952 0.990901
1.00409 0.997697 0.990195
1.00403 1.00118 0.987158
0.999992 0.994898 0.94299
0.995907 0.994774 0.961653
0.995571 1.00067 0.98874
0.997771 0.994814 0.884471
0.994728 0.994824 0.805143
0.999715 1.00419 0.991363
0.99981 0.994854 0.872583
0.994684 0.99479 0.810631
1.00041 0.999671 0.992629
1.00161 1.00219 0.989408
1.00136 0.999605 0.992962
0.994884 0.999934 0.991581
0.998603 0.995276 0.937299
0.994853 0.994788 0.959814
0.996035 0.995524 0.883767
0.994747 0.994804 0.806432
0.998639 1.00409 0.994177
0.994715 0.994806 0.808486
0.994745 0.994779 0.818066
0.996976 1.00213 0.996853
0.999827 1.00197 0.994434
0.9949 0.999611 0.988711
0.994985 0.994898 0.961065
0.995549 0.994781 0.932174
0.994764 0.996571 0.888486
0.99483 0.994835 0.812378
0.997559 1.00186 0.996331
0.998217 1.00373 0.994934
0.996985 1.00394 0.995428
1.00022 1.00395 0.990386
1.0008 1.00435 0.989474
1.00002 1.0049 0.989888
0.999883 1.00473 0.990234
0.998324 1.00432 0.992674
1.0005 1.00474 0.989419
0.999548 1.00439 0.9913
1.00035 1.00496 0.989478
0.997238 1.00503 0.993527
0.995939 1.00521 0.996327
0.998898 1.00497 0.991768
1.00051 1.00507 0.989352
1.00056 1.00472 0.989357
1.00013 1.00329 0.991089
1.00025 1.00497 0.9896
0.999988 1.00371 0.99124
0.999115 1.00297 0.992688
0.999007 1.00483 0.991306
0.998858 1.00499 0.991446
0.998796 1.0034 0.993077
1.00042 1.00169 0.992667
1.00224 0.999819 0.990949
0.999081 1.00485 0.991087
0.999453 1.00483 0.99095
0.999596 1.005 0.99008
0.999599 1.00487 0.990695
1.00004 1.00393 0.990782
0.99983 1.0045 0.990779
1.00015 1.00375 0.990915
1.00003 1.00226 0.992461
1.00026 1.00379 0.990595
0.999983 1.00225 0.992614
1.00004 0.999174 0.99626
0.999923 1.00225 0.992695
0.999891 0.999192 0.996098
1 0.997233 0.997835
0.99977 0.999209 0.995966
0.999951 0.997278 0.999147
0.99994 0.997309 0.999148
1.00029 1.00182 0.992907
0.999945 1.00035 0.994595
1.00013 1.00159 0.993075
1.00005 0.99801 0.996734
0.999917 1.0002 0.994756
0.999937 1.00039 0.99459
1.00006 0.998047 0.99668
0.999993 0.996696 0.999268
1.00007 0.998102 0.997072
0.999978 0.99678 0.998731
0.999948 0.997061 0.998142
0.99981 0.994828 0.860715
0.994689 0.994767 0.808659
0.99653 0.994867 0.96599
1.00126 0.994907 0.985109
1.00524 0.994822 0.991172
0.996877 0.995219 0.967992
1.00354 0.995476 0.987093
1.00084 0.99488 0.939327
0.998613 0.994779 0.867196
0.9947 0.994812 0.814246
0.998025 0.994843 0.973807
0.998733 0.994868 0.942741
0.996626 0.994853 0.884249
0.994746 0.9948 0.814289
1.00015 1.00327 0.99162
0.999875 1.00215 0.992786
1.00012 1.00145 0.993248
0.999898 1.00293 0.992177
0.999074 1.00402 0.992587
1.00024 1.00357 0.990808
1.00032 1.00275 0.991713
1.00046 1.00355 0.990449
1.00014 1.00287 0.99186
0.999996 1.00242 0.992398
1.0041 0.994774 0.992178
1.00471 0.994843 0.991009
1.00442 0.995684 0.990281
1.00228 0.997402 0.992213
1.00103 1.00311 0.991371
0.999564 1.00517 0.98971
1.00029 1.00213 0.992867
0.998821 1.00407 0.992808
1.00249 0.994922 0.991836
0.999519 1.00503 0.990469
0.998587 1.00471 0.992014
1.0037 0.997373 0.990713
1.0044 0.995526 0.991157
1.00107 0.998239 0.99421
0.999198 1.005 0.991667
1.00025 0.995201 0.990992
1.00136 0.998629 0.993645
0.999072 1.00142 0.994986
0.998743 1.00485 0.989996
0.998728 1.00516 0.990768
0.998636 1.00497 0.992195
0.994725 0.994842 0.831598
0.99979 0.99488 0.881034
0.999993 0.994873 0.931945
0.999518 1.00403 0.991305
1.00184 1.00238 0.989376
1.0005 0.999444 0.992594
1.00124 0.999766 0.993359
0.999815 0.994874 0.884774
0.998119 0.994833 0.932264
0.994838 0.99484 0.958274
0.994887 1.00094 0.992195
0.996828 0.994823 0.869127
0.994662 0.99479 0.816065
0.994791 0.994817 0.820466
0.998468 1.00349 0.993887
0.994706 0.994815 0.818358
0.994772 0.994784 0.817511
0.997116 1.00063 0.997501
0.999418 1.00197 0.994313
0.994987 0.998459 0.991121
0.99546 0.99486 0.959831
0.99642 0.997199 0.943147
0.994714 0.997346 0.872046
0.994948 0.994832 0.822605
0.99709 1.00401 0.99644
0.994785 0.99483 0.826369
0.994815 0.994791 0.81471
0.995011 1.00234 1.00002
0.995329 0.997044 0.968438
0.994839 0.998628 0.942221
0.995226 0.996064 0.864093
0.995204 0.994875 0.829842
0.998634 1.00272 0.994663
0.997316 1.00427 0.995601
0.995704 1.00422 0.997887
1.0004 1.00478 0.989407
1.00046 1.00498 0.98949
0.999689 1.00409 0.990975
0.997037 1.00489 0.99391
1.00028 1.00506 0.989359
0.998852 1.00498 0.991751
0.995766 1.00519 0.996692
0.995008 1.00503 0.998277
0.995799 1.00514 0.996813
0.99939 1.00502 0.99123
1.00024 1.00498 0.989541
1.00005 1.00345 0.991145
0.998794 1.00327 0.993435
0.998865 1.00499 0.991527
0.999212 1.00481 0.991322
0.998786 1.00359 0.993201
0.998867 1.00454 0.992024
0.996552 1.00496 0.995715
1.0023 0.997386 0.993411
1.00006 1.00145 0.993202
1.00111 1.00091 0.991717
1.00462 1.0005 0.986965
1.00157 1.00211 0.990831
1.00109 0.999706 0.99283
0.999612 1.0046 0.990818
0.999701 1.00512 0.989649
0.9997 1.0046 0.990998
0.999886 1.00503 0.990085
1.00008 1.00453 0.990149
0.999986 1.00471 0.990697
1.00027 1.00372 0.990766
1.00011 1.00237 0.992271
1.00034 1.00347 0.990941
1.00011 1.00223 0.99247
1.00015 0.999199 0.996056
1.00002 1.0022 0.99263
1.00002 0.999179 0.995886
1.00009 0.997251 0.997701
0.999894 0.99917 0.995803
0.999989 0.99724 0.998488
0.999963 0.997254 0.999129
1.00022 1.00246 0.992008
1.00008 1.00048 0.994296
1.00019 1.00186 0.99273
1.00004 0.998069 0.996681
0.999963 1.0003 0.994602
1.00013 1.00156 0.993086
1.00002 0.996657 0.999277
1.00004 0.99801 0.996734
0.999919 1.00022 0.994756
1.00007 0.998033 0.996669
0.999994 0.996733 0.999265
0.999963 0.996774 0.99925
0.994687 0.994778 0.812083
0.999796 0.994842 0.872476
0.994755 0.994768 0.815321
0.994707 0.99477 0.807712
0.996897 0.994885 0.966014
1.00343 0.99486 0.987617
0.999917 0.994861 0.93537
0.999118 0.994814 0.885487
0.994736 0.994825 0.804637
0.998491 0.99487 0.972966
0.999666 0.995913 0.928961
0.996243 0.996462 0.882411
0.99472 0.994795 0.807088
0.995252 0.994827 0.965725
0.996378 0.996501 0.930625
0.994824 0.997392 0.864613
0.994821 0.994859 0.810888
1.00085 1.00451 0.990238
0.999827 1.00326 0.991726
1.00002 1.00188 0.992918
0.998775 1.00375 0.992862
1.00083 1.00394 0.989405
1.00019 1.00343 0.991017
0.999908 1.00324 0.991541
1.00093 1.0031 0.990455
1.00054 1.00364 0.990557
1.00018 1.00269 0.991746
1.0021 0.994786 0.992265
1.00355 0.996484 0.99091
1.00403 0.995615 0.991325
1.00092 0.997282 0.994549
1.00018 1.005 0.991424
0.998983 1.00513 0.991792
0.999661 1.005 0.990238
1.00016 1.00489 0.989747
0.999871 0.995393 0.991443
0.999613 1.00513 0.990509
0.999348 1.00495 0.992062
1.0013 0.998221 0.994334
0.999841 1.00035 0.994807
0.996543 0.999002 0.99106
0.996739 0.999004 1.00077
0.997126 1.00336 0.995537
0.999548 1.00497 0.99069
0.997909 1.00511 0.993328
0.994813 0.994815 0.832315
0.994717 0.994823 0.827657
0.999798 0.99489 0.864394
0.99844 1.00304 0.993655
0.999131 1.00169 0.994183
0.997269 0.999904 0.998152
0.99468 0.994799 0.817024
0.996541 0.996498 0.931903
0.995617 0.994884 0.959662
0.994868 0.99699 0.993813
0.994791 0.997258 0.890184
0.994774 0.994786 0.817556
0.995072 0.994841 0.823666
0.997413 1.004 0.996274
0.994791 0.994826 0.829255
0.994804 0.994791 0.815526
0.995214 1.00164 0.999124
0.995299 0.996253 0.970413
0.994861 0.99628 0.930764
0.995056 0.994865 0.826125
0.995002 0.998695 0.872186
0.994946 1.00476 0.999874
0.994794 0.994825 0.821989
0.994868 0.994825 0.822609
0.994814 0.994849 0.811486
0.994815 0.998837 0.990334
0.994871 0.998644 0.945691
0.997117 0.996755 0.880045
0.997753 1.00485 0.995802
0.995852 1.00472 0.997692
0.995137 1.00476 0.999231
1.00022 1.00507 0.989367
0.99882 1.00504 0.991731
0.995592 1.00517 0.997052
0.99908 1.00506 0.991211
0.995969 1.00509 0.996813
0.995202 1.00485 0.998243
0.994964 1.00515 0.998459
0.99579 1.00497 0.996919
0.998778 1.00488 0.99162
0.999362 1.00488 0.991338
0.998817 1.00397 0.99335
0.996758 1.00488 0.995572
0.998881 1.00475 0.991909
0.999139 1.00202 0.994201
0.999888 0.997836 0.996851
1.00243 1.00026 0.989249
0.999698 1.00123 0.993697
1.00168 1.00096 0.991217
1.00435 1.00186 0.985913
1.005 1.00229 0.984158
1.00339 0.999768 0.989738
1.00383 1.00047 0.98735
1.00077 1.00511 0.988826
1.00091 1.00243 0.991229
0.99996 0.999678 0.994687
1.00015 1.00439 0.99055
0.999882 1.00511 0.989687
1.00021 1.00497 0.989391
1.00015 1.00506 0.990093
1.00023 1.00435 0.990163
1.00014 1.00282 0.99173
1.00036 1.00367 0.990748
1.00015 1.00231 0.992262
1.00018 0.999259 0.995939
1.00013 1.0022 0.992477
1.00014 0.999209 0.995682
1.00017 0.997289 0.997548
1.00003 0.999189 0.995565
1.00007 0.997243 0.998391
1.00002 0.997224 0.999075
1.00055 1.00271 0.991092
1.00011 1.00084 0.993588
1.00035 1.00233 0.991999
1.0001 0.998125 0.996527
1.00005 1.00049 0.994146
1.00015 1.00188 0.992555
1.00004 0.99668 0.999261
1.00006 0.998036 0.996692
0.999979 1.00023 0.99461
1.00002 0.996675 0.999275
1.00003 0.998024 0.996734
0.999995 0.996706 0.999262
0.994822 0.99482 0.822881
0.994697 0.994811 0.824544
0.999799 0.994817 0.871627
1.00112 1.00268 0.990435
0.994818 0.994795 0.821523
0.994756 0.994768 0.815284
0.994738 0.994779 0.819957
0.999078 0.994881 0.972112
0.998322 0.994841 0.941673
0.996361 0.994859 0.866618
0.9947 0.994803 0.815546
0.996449 0.99485 0.963168
0.996517 0.998348 0.941428
0.99474 0.996725 0.86778
0.994829 0.994844 0.815069
0.994836 0.994969 0.957727
0.994827 0.996466 0.939981
0.995401 0.999956 0.875522
0.995095 0.994885 0.829709
0.999722 1.00489 0.990248
1.00029 1.00433 0.990155
0.999999 1.00328 0.991832
1.00061 1.00328 0.990457
1.0006 1.00432 0.989679
1.00017 1.0037 0.991223
1.00093 1.00323 0.990416
1.00053 1.00367 0.990658
0.998766 0.996804 0.991729
1.00089 0.997718 0.994938
1.00038 1.00496 0.989496
1.00067 0.999757 0.994635
0.999569 1.00489 0.991931
1.00004 1.00514 0.99026
0.999262 1.00485 0.990783
0.996 0.998427 0.99175
0.998232 1.0051 0.993299
0.997759 1.00306 0.995812
0.996233 0.999856 1.00094
0.998853 1.00481 0.992113
0.994811 1.00078 0.988055
0.995395 1.00258 0.999081
0.996079 1.00491 0.996685
0.99797 1.00545 0.993957
0.994782 0.994806 0.827567
0.994818 0.994817 0.830065
0.994706 0.994811 0.823623
0.997708 1.00407 0.996087
0.995431 1.00065 0.998211
0.994806 0.994826 0.831963
0.994789 0.998227 0.942749
0.99562 0.996113 0.967763
0.995032 0.998578 0.870583
0.994805 0.994791 0.816147
0.994882 0.994854 0.822435
0.995409 1.00455 0.999519
0.994798 0.994822 0.822019
0.994863 0.994834 0.823803
0.994788 0.999431 0.994073
0.994823 0.994838 0.815386
0.994852 0.996299 0.938022
0.99603 0.997446 0.882112
0.994782 1.0033 0.998589
0.994835 0.994842 0.828112
0.994801 0.9948 0.822557
0.994744 0.994806 0.81457
0.995483 0.99995 0.874541
0.994874 1.00068 0.975377
0.995495 0.997906 0.931072
0.996142 1.00505 0.997507
0.995065 1.00506 0.999204
0.994889 1.00518 0.998471
0.998727 1.00511 0.991192
0.995875 1.00513 0.996817
0.995038 1.0052 0.998206
0.99585 1.00489 0.996843
0.994957 1.00514 0.998494
0.997741 1.00215 0.99757
0.996958 1.00474 0.995415
0.998864 1.00484 0.991808
0.998961 1.00225 0.994863
0.998877 1.00203 0.992733
0.997606 0.998254 1.00014
1.00219 0.999887 0.990454
1.00426 1.00427 0.982753
1.00469 1.00289 0.983674
1.0022 1.00095 0.990673
1.00428 1.00219 0.985188
1.0051 1.00223 0.984055
1.00477 1.00002 0.986637
1.00475 1.00206 0.984527
1.00157 1.00326 0.988836
1.00307 1.00033 0.989504
1.00312 1.00038 0.987753
1.00039 1.00512 0.98868
1.00032 1.00506 0.989084
1.00031 1.00262 0.991624
0.999991 1.0051 0.989725
1.00033 1.00496 0.989409
1.00018 1.00384 0.990715
1.00039 1.00431 0.990176
1.00018 1.00285 0.991712
1.00014 0.999473 0.995073
1.00023 1.00232 0.992256
1.0002 0.999258 0.995216
1.00008 0.997285 0.998949
1.00014 0.999244 0.995347
1.00013 0.997281 0.998275
1.00008 0.997234 0.999008
1.00052 1.0028 0.990997
1.00027 1.00132 0.992889
1.00048 1.00277 0.99124
1.00017 0.998288 0.996278
1.00019 1.00082 0.993509
1.00039 1.00232 0.991987
1.00007 0.996674 0.999227
1.00011 0.998102 0.996541
1.00006 1.00049 0.993996
1.00004 0.996658 0.999268
1.00007 0.998 0.996702
1.00001 0.996714 0.999273
0.994799 0.994828 0.82851
0.994819 0.99482 0.823143
0.994689 0.994825 0.824469
1.00099 1.00273 0.990611
1.00074 1.00298 0.990489
1.00109 1.0021 0.991279
0.994872 0.994829 0.821756
0.994817 0.994793 0.822193
0.994755 0.99476 0.815327
0.996771 0.994851 0.964022
0.996131 0.994792 0.929801
0.994774 0.998854 0.888755
0.994822 0.994835 0.809565
0.994995 0.994987 0.960472
0.994907 0.997897 0.936273
0.995325 0.99797 0.871827
0.995072 0.994874 0.825745
0.995779 0.995164 0.957356
0.994845 0.997299 0.94084
0.996502 0.996852 0.880599
0.994838 0.994831 0.813293
0.999828 1.00327 0.991651
1.00033 1.00431 0.990059
1.00042 1.00393 0.99007
1.00081 1.00314 0.990396
1.00028 1.00452 0.989955
1.0009 1.00341 0.990379
0.995905 0.997169 0.992565
0.996077 1.00074 1.00124
0.999675 1.00411 0.990871
0.998636 1.00245 0.996011
0.998443 1.00508 0.993262
0.998384 1.00448 0.992681
0.997364 1.00538 0.994017
0.994887 1.0012 0.987923
0.995871 1.0051 0.997131
0.9958 1.00283 0.998363
0.997262 1.00519 0.994428
0.994943 1.00274 0.984875
0.995553 1.00455 0.995565
0.995421 1.00464 0.998285
0.994842 0.994831 0.827038
0.994785 0.994815 0.826949
0.994821 0.994813 0.827851
0.99575 1.00394 0.999129
0.994792 0.999778 0.990064
0.994794 0.99482 0.82206
0.994851 0.997907 0.937663
0.996576 0.996764 0.867119
0.994863 0.994836 0.824977
0.994816 0.994831 0.810285
0.994787 1.00311 0.999049
0.994826 0.994843 0.828486
0.994818 0.994802 0.823268
0.994875 0.999581 0.972784
0.994714 0.994801 0.807751
0.995835 0.999525 0.869234
0.995047 0.995545 0.944414
0.994867 1.00518 0.990885
0.994791 0.994838 0.828758
0.994776 0.994785 0.816527
0.994654 0.994806 0.824975
0.994785 0.997394 0.863849
0.994854 0.998886 0.939406
0.99488 1.00098 0.967108
0.995075 1.00495 0.999154
0.994928 1.00519 0.998418
0.996336 1.00365 0.997596
0.996016 1.00477 0.996771
0.994974 1.00507 0.998505
0.996381 1.00382 0.997635
0.999401 0.998653 0.998029
0.998744 1.0027 0.995513
1.00121 1.00157 0.991855
1.00226 1.00481 0.98576
1.00179 0.999576 0.991865
1.00423 1.00412 0.98338
1.00429 1.00495 0.982208
1.00503 1.00163 0.983994
1.00506 1.00189 0.984205
1.00465 1.00299 0.983579
1.00448 1.00244 0.98448
1.00509 1.00144 0.984911
1.00511 1.00214 0.984075
1.00362 1.00092 0.987666
1.00454 1.00014 0.986961
1.0044 1.00186 0.984898
1.00075 1.0051 0.988008
1.00167 1.0035 0.988779
1.00261 1.00103 0.98926
1.00037 1.00454 0.989751
1.00069 1.00511 0.988686
1.00005 1.005 0.989343
1.00051 1.00489 0.98943
1.0003 1.00366 0.990721
1.00005 1.00007 0.994594
1.00029 1.00275 0.991694
1.00016 0.999517 0.995047
1.00009 0.997414 0.998914
1.00021 0.999274 0.995212
1.00014 0.99731 0.998223
1.00012 0.997276 0.998954
1.00062 1.00321 0.990759
1.00039 1.00158 0.992625
1.00064 1.00269 0.991053
1.00024 0.998539 0.995906
1.00026 1.00131 0.992974
1.00048 1.00276 0.99139
1.0001 0.996748 0.99917
1.00017 0.998236 0.996297
1.00022 1.00079 0.993431
1.00007 0.996693 0.999238
1.00011 0.998077 0.996556
1.00004 0.99667 0.999274
0.994834 0.994837 0.827316
0.994802 0.994842 0.82855
0.994815 0.99483 0.823457
1.00023 1.00447 0.989666
1.00113 1.00416 0.989856
1.00079 1.00286 0.990792
1.00064 1.00328 0.990379
1.00062 1.00227 0.991452
1.0003 1.00298 0.991286
1.00022 1.00189 0.992468
0.994833 0.994801 0.81504
0.994876 0.994839 0.823063
0.994811 0.994814 0.822879
0.994888 0.994867 0.821866
0.995155 0.994916 0.95804
0.994854 0.999086 0.931267
0.99544 0.995762 0.885844
0.995353 0.994969 0.956424
0.994837 0.998656 0.928467
0.995508 0.997705 0.88246
0.994886 0.994826 0.823324
0.996086 0.996412 0.96033
0.995024 0.999428 0.929728
0.995237 0.996369 0.864238
0.994733 0.994814 0.808874
0.997945 1.00476 0.993693
0.999605 1.00373 0.991935
1.0004 1.00456 0.989871
1.00091 1.00331 0.990341
0.995001 1.00136 0.987979
0.995892 1.00337 0.997494
0.998079 1.00506 0.993251
0.997129 1.00531 0.994083
0.995686 1.00512 0.997641
0.997233 1.00488 0.994517
0.995463 1.00464 0.998299
0.9958 1.00261 0.981502
0.995078 1.00509 0.995832
0.995706 1.00389 0.997659
0.994803 1.00489 0.980538
0.995183 1.00289 0.999342
0.99478 0.994815 0.82801
0.994838 0.994831 0.830099
0.99479 0.994829 0.826312
0.994794 1.00304 0.999488
0.994852 0.999493 0.976139
0.994818 0.994838 0.828908
0.995253 0.997481 0.93203
0.996083 0.996794 0.884166
0.994828 0.994823 0.823914
0.994698 0.994809 0.81601
0.994869 1.00453 0.99177
0.994808 0.994837 0.828823
0.994759 0.994782 0.816543
0.994883 0.999821 0.967047
0.994706 0.994816 0.815783
0.994715 0.997319 0.866189
0.995137 0.998819 0.927644
0.994948 1.00481 0.985703
0.994834 0.994819 0.823072
0.99468 0.994775 0.810217
0.996405 0.994855 0.885679
0.994778 0.998131 0.93931
0.994807 0.999988 0.960086
0.99496 1.00527 0.998764
0.995643 1.00417 0.99767
0.996869 1.00015 0.99897
0.995301 1.00501 0.997691
0.997707 1.00041 0.998353
1.00198 0.999489 0.993181
1.00361 1.001 0.990987
1.00315 1.00493 0.985019
1.00375 1.00399 0.983486
1.00393 1.00413 0.984005
1.00444 1.00478 0.98214
1.00438 1.0042 0.982812
1.00519 0.999957 0.985392
1.00512 1.00101 0.98492
1.00503 1.00185 0.98396
1.00509 1.00165 0.98452
1.00505 1.00176 0.984211
1.00453 1.0032 0.983482
1.00511 1.0011 0.985497
1.00499 1.00167 0.984759
1.00513 1.00206 0.984098
1.0024 1.00372 0.987378
1.00333 1.00114 0.988001
1.00432 1.00017 0.987285
1.00052 1.00486 0.988728
1.00113 1.00496 0.988064
1.00162 1.00376 0.988721
1.00012 1.00063 0.99391
1.00048 1.00434 0.989757
1.00091 1.0051 0.988692
1.00038 1.00355 0.990725
1.00007 1.00013 0.99456
1.00004 0.997675 0.998841
1.00017 0.999548 0.995021
1.00009 0.997426 0.9989
1.00012 0.997277 0.998929
1.00007 1.00509 0.989839
1.00071 1.00406 0.98988
1.0005 1.00204 0.992006
1.00061 1.00313 0.990745
1.00027 0.998876 0.995505
1.00038 1.00162 0.992615
1.00066 1.00268 0.991109
1.00013 0.996906 0.999078
1.00023 0.998519 0.995928
1.00027 1.00132 0.993056
1.0001 0.996736 0.999188
1.00018 0.998208 0.996318
1.00007 0.996671 0.999249
0.994798 0.994833 0.822113
0.994818 0.994832 0.827724
0.994811 0.994832 0.828585
1.0004 1.00468 0.98964
1.00057 1.00362 0.990036
1.00015 1.00293 0.990123
0.999751 1.0045 0.990006
1.00147 1.00343 0.990409
1.00076 1.00348 0.990268
1.00044 1.00239 0.991625
1.0004 1.00299 0.991312
1.00036 1.00204 0.992472
0.99896 1.00397 0.992844
0.994753 0.994776 0.818379
0.994815 0.9948 0.815908
0.994878 0.994835 0.8243
0.995043 0.994836 0.824319
0.995928 0.996856 0.867859
0.995012 0.995137 0.955162
0.994859 0.997533 0.940416
0.995387 0.996595 0.956616
0.994893 0.996154 0.941487
0.994975 0.999044 0.872807
0.994751 0.994801 0.807401
0.994839 0.998878 0.959999
0.994834 1.00075 0.941323
0.994771 0.997895 0.888077
0.994707 0.994838 0.825964
0.998355 1.00203 0.996018
0.99758 1.00464 0.993974
0.999546 1.00359 0.992229
0.996318 1.00232 0.977851
0.99495 1.00514 0.996132
0.997074 1.00475 0.994605
0.99503 1.00471 0.99831
0.996066 1.00389 0.997625
0.99515 1.0025 0.999622
0.994867 1.00257 0.979841
0.995867 1.00117 1.0001
0.995687 1.00036 0.986282
0.994816 0.99482 0.831313
0.994791 0.994826 0.827408
0.994831 0.99483 0.8332
0.994898 1.0039 0.992086
0.994845 0.999537 0.964586
0.994823 0.994844 0.828875
0.994854 0.999269 0.939351
0.994747 0.998866 0.886693
0.994742 0.994763 0.816705
0.994732 0.994829 0.806258
0.995319 1.00466 0.986451
0.994816 0.994825 0.823236
0.994702 0.994777 0.809358
0.995038 0.999303 0.961118
0.996072 0.99592 0.883381
0.994874 0.997837 0.934145
0.995153 1.00308 0.983442
0.994687 0.994783 0.812873
0.998186 0.994829 0.886843
0.996233 0.996612 0.930828
0.994844 0.996516 0.962453
0.995524 1.00499 0.997747
0.996401 1.00116 0.998919
0.998989 1.00215 0.995561
0.996009 1.00236 0.998649
1.00086 0.999867 0.993912
1.00365 0.99928 0.989676
1.00396 1.00497 0.98426
1.00368 1.00413 0.983374
1.00428 1.00105 0.985373
1.00472 1.0046 0.982075
1.00447 1.00375 0.982901
1.00496 1.00003 0.985877
1.00527 0.997387 0.987709
1.00524 0.999455 0.985763
1.0052 0.999863 0.985474
1.00518 1.00085 0.985144
1.00513 1.00105 0.98483
1.00505 1.002 0.983924
1.00517 1.002 0.9844
1.005 1.00157 0.984548
1.00504 1.00166 0.984215
1.00434 1.00162 0.986251
1.0046 1.00151 0.985612
1.00491 1.00194 0.984609
1.00101 1.00506 0.987429
1.00227 1.00366 0.987377
1.00322 1.00135 0.988333
1.00008 1.00157 0.994015
1.00078 1.00486 0.988736
1.00146 1.00475 0.988122
1.00007 0.998201 0.996733
1.00012 1.00084 0.994267
1.0006 1.00423 0.989763
1.0001 1.00021 0.994524
1.00005 0.997754 0.99879
1.00009 0.997439 0.998884
1.0005 1.00506 0.98917
1.00083 1.00493 0.989031
0.999755 1.00511 0.989724
1.00052 1.00293 0.991139
1.00053 1.00427 0.989855
1.00023 0.999265 0.99517
1.00048 1.00206 0.992018
1.00071 1.00307 0.990728
1.00012 0.99716 0.998984
1.00026 0.998857 0.995522
1.00037 1.00166 0.992605
1.00012 0.996897 0.999107
1.00022 0.998483 0.99595
1.0001 0.996737 0.999205
0.994787 0.994821 0.83269
0.994807 0.994835 0.822161
0.994805 0.994846 0.828154
1.00155 1.00168 0.98977
1 1.00506 0.989613
1.00038 1.00344 0.99023
1.0004 1.00485 0.989727
1.00105 1.00252 0.990197
1.00064 1.00322 0.991505
1.00296 1.00232 0.987719
0.998338 1.00496 0.99162
1.00041 1.00295 0.991334
1.0001 1.00188 0.992474
0.998704 1.00387 0.992756
0.998114 1.00486 0.993424
0.994718 0.994805 0.817612
0.994775 0.994781 0.817867
0.994815 0.994799 0.816608
0.994781 0.994813 0.820967
0.994899 0.998912 0.871648
0.99527 0.998565 0.9299
0.994873 0.996005 0.956758
0.994871 0.999287 0.95921
0.994716 0.99484 0.816273
0.99487 0.996541 0.933635
0.994759 0.998222 0.871568
0.99492 0.996552 0.964831
0.994863 0.999356 0.942426
0.996049 0.994853 0.885136
0.99963 0.995686 0.99965
0.998274 1.00187 0.995943
0.997526 1.00447 0.994239
0.994887 1.00173 0.979599
0.994986 1.00193 0.999864
0.996723 1.00388 0.997583
0.996939 1.00067 1.00029
0.995219 0.999176 0.986454
0.996468 0.998408 0.991961
0.994716 0.994844 0.826241
0.994814 0.994812 0.832738
0.994799 0.994826 0.826731
0.994972 1.00441 0.986713
0.994861 0.999971 0.960815
0.9948 0.994832 0.823581
0.99484 0.999222 0.929656
0.99622 0.994861 0.867987
0.994742 0.994791 0.821284
0.994772 1.00469 0.983402
0.994697 0.994818 0.825131
0.998261 0.994788 0.868339
0.99486 0.995849 0.958207
0.996267 0.997968 0.941867
0.994877 1.00268 0.989474
0.999803 0.99484 0.860913
0.998554 0.994877 0.943809
0.994841 0.994846 0.957308
0.995901 1.00199 0.998924
0.998317 1.00132 0.995312
1.00139 1.00303 0.991264
0.999789 0.999912 0.994648
1.00291 0.999885 0.98949
1.00432 0.999423 0.9879
1.00374 1.00424 0.98326
1.00429 1.00121 0.985292
1.00505 0.996901 0.98813
1.00447 1.00321 0.982991
1.00482 0.999897 0.98588
1.00529 0.996054 0.989027
1.00526 0.995805 0.989701
1.00527 0.997572 0.987648
1.00528 0.997326 0.987831
1.00526 0.999268 0.985982
1.00523 0.999422 0.985951
1.00519 0.999805 0.985556
1.00526 1.00121 0.984535
1.00519 1.00077 0.985099
1.00513 1.00107 0.984739
1.00515 1.00128 0.984984
1.00502 1.00193 0.984435
1.0049 1.00146 0.984576
1.00254 1.00379 0.986606
1.00404 1.00198 0.986165
1.00399 1.00189 0.98573
1.00016 1.00244 0.991984
1.00152 1.00496 0.987451
1.0022 1.00378 0.987371
0.999822 0.999032 0.998451
1.00013 1.00166 0.992943
1.00102 1.00479 0.988745
1.00005 0.998157 0.998612
1.00011 1.00088 0.99378
1.00007 0.997801 0.998733
1.00267 1.00337 0.988042
1.00057 1.00502 0.989002
1.00098 1.00507 0.988601
1.00055 1.00382 0.99017
1.00059 1.00499 0.989004
0.999962 1.00512 0.989612
1.00015 0.999835 0.994767
1.00049 1.0029 0.991164
1.00032 1.00435 0.989827
1.0001 0.997383 0.998911
1.00024 0.99921 0.995186
1.00046 1.00205 0.992029
1.00012 0.997119 0.999012
1.00026 0.99884 0.995537
1.00011 0.996853 0.999136
0.994718 0.994806 0.810799
0.994807 0.994824 0.832982
0.994814 0.994837 0.82223
1.00142 1.00244 0.989712
1.00465 1.00158 0.987007
1.00193 1.0033 0.988814
1.00039 1.00474 0.989446
1.0022 1.00222 0.990268
0.999368 1.00252 0.992572
0.99918 1.00471 0.991206
1.00202 1.00288 0.988535
1.00217 1.00276 0.98898
0.999249 0.999902 0.995757
0.999426 1.00379 0.99266
0.998442 1.00482 0.993347
0.99889 0.994814 0.86176
0.994687 0.994796 0.811157
0.994782 0.994785 0.81794
0.99473 0.994824 0.806043
0.994799 0.99738 0.889566
0.994845 0.998485 0.929136
0.994955 0.996987 0.957779
0.994869 0.996885 0.962703
0.996312 0.997378 0.883087
0.994848 0.997438 0.930596
0.994861 0.997441 0.965831
0.996071 0.994954 0.930873
1.00023 0.995652 1.00082
0.999399 0.996998 0.999634
0.998069 1.00177 0.995901
0.994953 0.998835 0.986767
0.997669 0.999991 1.00048
0.996935 0.99856 0.991659
0.996802 0.996057 0.99053
0.999792 0.994923 0.874889
0.994706 0.994829 0.823805
0.994821 0.994813 0.834007
0.994783 1.00492 0.983724
0.994856 0.9949 0.956613
0.994693 0.994831 0.824902
0.995997 0.994788 0.931129
0.998885 0.994827 0.886927
0.99488 1.00072 0.986257
0.99978 0.994856 0.872798
0.998891 0.995442 0.930458
0.994856 0.994807 0.959246
0.996879 0.99816 0.98772
0.999945 0.994888 0.943438
0.995268 0.994815 0.96409
0.997869 1.00038 0.995038
1.00039 1.00126 0.991327
1.0037 0.999655 0.990607
1.0022 1.00085 0.98932
1.0041 0.999325 0.98788
1.00516 0.996272 0.989133
1.0043 1.00142 0.985215
1.00495 0.997389 0.988071
1.00527 0.995068 0.98995
1.00473 0.999751 0.985879
1.00528 0.996116 0.988973
1.00525 0.995041 0.990388
1.00525 0.995197 0.990429
1.00526 0.995744 0.989853
1.00523 0.996216 0.989572
1.00527 0.99792 0.987624
1.00526 0.997627 0.987777
1.0053 0.997255 0.987954
1.00529 1.00001 0.985636
1.00526 0.999315 0.985944
1.00522 0.999364 0.986137
1.00528 1.00153 0.984426
1.00527 1.00122 0.98457
1.00519 1.00072 0.985054
1.00348 1.00273 0.986163
1.00505 1.00139 0.984973
1.00483 1.00188 0.984471
1.00064 1.00294 0.990747
1.00259 1.00384 0.98659
1.00389 1.00209 0.986084
1.00003 0.999286 0.998178
1.00033 1.0023 0.991951
1.00193 1.00481 0.987473
0.999974 0.99895 0.997364
1.00021 1.0016 0.992946
1.00007 0.998417 0.998506
1.00405 1.00088 0.987789
1.00184 1.00335 0.988209
1.00087 1.00505 0.988233
1.00054 1.00499 0.988826
1.00067 1.00508 0.98864
1.00076 1.00454 0.989273
1.00012 1.00058 0.994113
1.00047 1.00397 0.99016
1.00021 1.00507 0.98898
1.00007 0.997691 0.998796
1.00014 0.99976 0.994793
1.00044 1.00292 0.991188
1.00009 0.997363 0.998932
1.00025 0.999169 0.995207
1.00012 0.997091 0.999039
0.99979 0.994831 0.872583
0.994705 0.994816 0.816411
0.994817 0.994823 0.833285
1.00116 1.00263 0.989658
1.00186 1.00361 0.988013
1.00403 1.00219 0.987064
1.00507 1.00354 0.983163
1.0018 1.003 0.988512
0.999584 1.00488 0.990828
1.00144 1.0033 0.989345
1.00127 1.00295 0.989578
1.00433 0.997342 0.988775
1.00199 0.999389 0.992726
1.00279 0.996002 0.993883
1.00018 0.999244 0.99559
0.99936 1.0036 0.99328
0.99801 0.994869 0.941079
0.99902 0.994783 0.86643
0.994661 0.994792 0.816399
0.996396 0.995 0.869372
0.994859 0.99919 0.939709
0.99487 0.995628 0.964059
0.99487 0.996944 0.967518
0.996717 0.998615 0.942853
0.99573 0.99482 0.966999
0.99958 0.996198 0.999534
0.99957 0.996028 1.00086
0.999109 0.998335 0.999587
0.997457 0.998085 0.991478
0.997594 0.99671 0.990759
0.999982 0.994896 0.931473
0.999793 0.994892 0.880452
0.994691 0.994812 0.821483
0.994884 0.999568 0.982755
0.995084 0.994801 0.957538
0.9998 0.994825 0.872087
0.998263 0.994845 0.942789
0.996608 0.998071 0.987957
1.00048 0.994891 0.939591
0.996211 0.994846 0.96184
1.00049 0.994861 0.987833
0.998311 0.99487 0.971869
0.999256 0.999425 0.991448
1.00301 0.997995 0.990646
1.00498 0.995241 0.991446
1.00392 0.999043 0.98785
1.0051 0.996157 0.989016
1.00526 0.994877 0.990333
1.00478 0.997848 0.988012
1.00526 0.99513 0.989898
1.00524 0.994874 0.990479
1.00527 0.996169 0.988919
1.00524 0.995076 0.990355
1.00526 0.994907 0.9906
1.00525 0.995147 0.990487
1.00522 0.995426 0.990413
1.00526 0.995688 0.990007
1.00523 0.996196 0.989572
1.00523 0.996774 0.988962
1.00529 0.998888 0.986867
1.00527 0.99798 0.987604
1.00526 0.997683 0.987907
1.00532 1.00117 0.984587
1.0053 1.00009 0.985503
1.00527 0.999362 0.985905
1.00416 1.00197 0.985742
1.00518 1.00158 0.984469
1.00528 1.00125 0.984603
1.00117 1.00304 0.989725
1.00332 1.00296 0.986163
1.00478 1.00166 0.984962
1.00015 1.00003 0.99777
1.00076 1.00276 0.99074
1.00277 1.00392 0.986575
1.00011 0.999437 0.998036
1.00049 1.00224 0.991916
1.0001 0.998877 0.998261
1.0051 1.0026 0.984161
1.0037 1.00095 0.987671
1.00215 1.00345 0.987474
1.0012 1.00344 0.988394
1.00096 1.005 0.988048
1.001 1.005 0.98838
1.00051 1.00508 0.988674
1.00052 1.00471 0.989235
1.00018 1.00137 0.993218
1.00005 0.998135 0.998588
1.00008 1.00052 0.994136
1.00034 1.00407 0.99015
1.00005 0.997644 0.998838
1.00015 0.999674 0.994809
1.00009 0.997333 0.998953
0.999969 0.99488 0.944459
0.999814 0.994857 0.872147
0.994683 0.994806 0.810701
1.00159 1.00461 0.987207
1.00328 1.00268 0.987124
1.00292 1.00284 0.987943
1.00463 1.0033 0.983713
1.00521 1.00104 0.984596
1.00355 1.00035 0.986916
1.00045 1.00327 0.990148
1.00446 0.997399 0.988575
1.00208 0.998991 0.992811
1.00394 0.995958 0.990336
1.00401 0.996906 0.991869
1.00265 0.996727 0.993265
1.00237 0.996225 0.99388
0.999678 0.999806 0.995423
0.995865 0.994852 0.965172
0.998946 0.996073 0.936749
0.997902 0.994841 0.883032
0.996107 0.996789 0.930518
0.994949 0.99688 0.967995
0.995484 0.995714 0.972832
0.999249 0.994861 0.992707
1.00029 0.995623 0.999058
0.998944 0.99618 1.00093
0.998747 0.998569 0.991028
0.997321 0.9956 0.966397
1.00009 0.994876 0.945012
0.999799 0.994899 0.863688
0.996142 0.998094 0.988276
0.996675 0.994856 0.962443
0.999863 0.994869 0.935394
0.999974 0.995391 0.988149
0.998523 0.994877 0.971096
1.00288 0.995055 0.990219
1.00328 0.996881 0.984944
1.00208 0.996533 0.990669
1.00449 0.995187 0.991465
1.00521 0.994789 0.990897
1.00501 0.996159 0.988901
1.00526 0.994876 0.990284
1.00528 0.994912 0.990479
1.00526 0.995211 0.989844
1.00524 0.994885 0.990459
1.00528 0.994913 0.990521
1.00524 0.995113 0.990321
1.00525 0.994913 0.990596
1.00525 0.994934 0.990648
1.00525 0.995093 0.990543
1.00523 0.995353 0.99044
1.00523 0.99598 0.989932
1.00523 0.99618 0.989571
1.00523 0.99681 0.988952
1.00527 0.998065 0.987806
1.00532 1.00035 0.985447
1.00529 0.999059 0.986642
1.00527 0.998043 0.987584
1.00495 1.00092 0.985495
1.00532 1.00117 0.98463
1.0053 1.00017 0.985371
1.00171 1.0027 0.989045
1.00401 1.00225 0.985747
1.00506 1.00162 0.98451
1.00051 1.0006 0.997304
1.00123 1.0029 0.989719
1.00316 1.00322 0.986162
1.00034 1.0002 0.997581
1.00081 1.00263 0.990743
1.00024 0.999623 0.997864
1.00506 1.00169 0.98451
1.00508 1.00226 0.984355
1.00425 1.00206 0.98546
1.00342 1.00157 0.987552
1.00215 1.00352 0.987276
1.00202 1.00452 0.987303
1.00094 1.00489 0.987865
1.00086 1.00506 0.988386
1.00033 1.00219 0.992231
1.00039 1.00493 0.9892
1.00008 1.00147 0.993244
1.00003 0.998839 0.998304
1.00002 0.998102 0.998667
1.00003 1.00051 0.994164
1.00004 0.997592 0.998874
0.996855 0.994878 0.966851
0.999944 0.994873 0.930947
0.999813 0.994873 0.884083
1.00526 0.998918 0.986408
1.00415 1.00271 0.987389
1.00418 1.00304 0.984263
1.00432 1.00016 0.987214
1.00518 1.00125 0.984556
1.0049 0.997865 0.988177
1.00481 0.998761 0.988379
1.00189 0.998225 0.992904
1.00454 0.996611 0.990228
1.00386 0.997105 0.990905
1.00477 0.996235 0.989635
1.00327 0.994921 0.994314
1.00265 0.996367 0.993347
1.00225 0.996448 0.993867
0.998764 0.994845 0.991141
0.995821 0.994861 0.963565
0.998658 0.994846 0.931743
0.995144 0.996228 0.971891
0.998872 0.994857 0.995403
1.0004 0.995182 0.998528
1.002 0.995342 0.981932
0.997371 0.99511 0.966488
0.999991 0.994891 0.931543
0.999198 0.995395 0.988481
0.998864 0.994884 0.970374
1.00201 0.994878 0.990726
1.00313 0.996098 0.985809
1.00393 0.995028 0.991146
1.00479 0.9969 0.99093
1.00408 0.995051 0.991471
1.00515 0.994823 0.990792
1.00534 0.994863 0.990408
1.00526 0.994875 0.990236
1.00527 0.994902 0.990478
1.00532 0.994899 0.990451
1.00524 0.994895 0.990439
1.00527 0.994908 0.990532
1.00527 0.994906 0.990676
1.00524 0.99492 0.990591
1.00525 0.994932 0.990636
1.00525 0.995164 0.990575
1.00523 0.995283 0.990467
1.00523 0.995852 0.990049
1.00528 0.997188 0.988762
1.00523 0.996842 0.988942
1.00527 0.997994 0.987879
1.0053 0.99993 0.98601
1.00521 1.00058 0.985435
1.00532 1.00049 0.985297
1.00529 0.999225 0.986418
1.00255 1.00152 0.988916
1.00484 1.00105 0.985498
1.00531 1.00116 0.984673
1.00084 1.00083 0.996962
1.00196 1.00241 0.989035
1.00387 1.00244 0.985754
1.00064 1.00067 0.997164
1.00137 1.00279 0.989714
1.00048 1.00034 0.997411
1.00528 1.00033 0.985294
1.00519 1.00171 0.984405
1.00511 1.00128 0.984941
1.00517 1.00188 0.984549
1.00446 1.00192 0.985429
1.00302 1.00368 0.986479
1.0023 1.00323 0.987077
1.00177 1.00465 0.987315
1.0006 1.00265 0.991188
1.00071 1.00508 0.988385
1.00018 1.0022 0.992255
1.00002 0.999576 0.99798
0.999975 1.00143 0.993269
0.99999 0.998713 0.998412
0.999988 0.997997 0.998737
1.00043 0.994972 0.986904
0.996673 0.994889 0.963285
0.999982 0.994874 0.944246
1.00519 0.997388 0.988186
1.00528 0.996972 0.988489
1.00527 0.998682 0.986667
1.00505 0.999525 0.987506
1.00515 1.00153 0.984519
1.00494 0.997739 0.988449
1.00518 0.995594 0.989396
1.00495 0.996526 0.990128
1.00369 0.997709 0.989947
1.00456 0.996761 0.99006
1.00507 0.995048 0.990789
1.00368 0.994963 0.993067
1.00292 0.995061 0.993995
1.00291 0.995897 0.993442
0.999453 0.994857 0.991217
0.995777 0.994856 0.962141
0.998824 0.994854 0.998224
1.00465 0.994901 0.990726
1.00189 0.995908 0.982056
0.997502 0.99486 0.964934
1.00172 0.994785 0.991191
1.00299 0.995215 0.986694
1.00394 0.994965 0.991816
1.00482 0.996022 0.991039
1.00532 0.994797 0.990941
1.00541 0.994868 0.991181
1.00512 0.994841 0.990689
1.00536 0.994864 0.990381
1.00536 0.994871 0.990493
1.00525 0.994892 0.990478
1.00532 0.9949 0.990476
1.00528 0.994902 0.990654
1.00527 0.994902 0.990543
1.00527 0.994904 0.990671
1.00525 0.994934 0.990848
1.00525 0.994931 0.990624
1.00525 0.995177 0.990551
1.00528 0.996405 0.98946
1.00523 0.995723 0.990165
1.00527 0.997124 0.988807
1.00533 0.999377 0.98651
1.00527 0.997925 0.987953
1.0053 0.999841 0.986118
1.00523 1.00052 0.985491
1.00288 1.00064 0.989174
1.00516 1.00064 0.985442
1.00532 1.00064 0.985148
1.0011 1.00082 0.99676
1.00257 1.00146 0.988906
1.00472 1.00127 0.985503
1.00094 1.0009 0.996859
1.00211 1.00219 0.989024
1.00076 1.00082 0.997025
1.00528 0.99854 0.98702
1.00527 1.00018 0.98549
1.00528 1.00088 0.985042
1.0052 1.00168 0.9843
1.00516 1.00123 0.984937
1.00358 1.00251 0.986384
1.00466 1.00182 0.985403
1.0029 1.00341 0.986476
1.00094 1.00299 0.990153
1.00143 1.00474 0.987329
1.0005 1.00277 0.991223
1.00012 1.0004 0.997624
1.00009 1.00231 0.992278
0.99998 0.999431 0.998104
0.99994 0.998608 0.998509
1.00434 0.994961 0.992087
1.00061 0.994958 0.984696
0.99655 0.99491 0.962782
1.00524 0.996302 0.989364
1.00516 0.996958 0.988488
1.00526 0.995838 0.98974
1.00528 0.997009 0.988457
1.00527 0.998407 0.986922
1.00531 0.994908 0.990083
1.00505 0.997792 0.98871
1.00521 0.995893 0.989408
1.00528 0.994826 0.99055
1.00445 0.997161 0.990482
1.00506 0.995162 0.990476
1.00339 0.995012 0.993332
1.00231 0.995527 0.993681
0.999908 0.994874 0.9911
1.00538 0.994895 0.990862
1.00465 0.995693 0.990921
1.0017 0.996322 0.982246
1.00383 0.994805 0.992469
1.0048 0.995247 0.991156
1.00531 0.994791 0.990994
1.00542 0.994889 0.991101
1.00539 0.994861 0.990923
1.00538 0.994873 0.990356
1.00536 0.994875 0.990506
1.00529 0.994898 0.990797
1.00531 0.994902 0.990501
1.00529 0.994905 0.990652
1.00522 0.994899 0.990989
1.00528 0.994903 0.990666
1.00526 0.994931 0.990821
1.00528 0.995704 0.990225
1.00525 0.995191 0.990527
1.00529 0.996436 0.989452
1.00536 0.998824 0.987095
1.00527 0.997058 0.988852
1.00532 0.999388 0.986535
1.00522 1.00042 0.985613
1.00531 0.99975 0.986227
1.00523 1.00051 0.985506
1.00291 1.00029 0.991152
1.00148 1.00024 0.993402
1.00293 1.00063 0.989999
1.0051 1.0007 0.985448
1.00113 1.00082 0.996749
1.00271 1.00125 0.98889
1.00101 1.00095 0.996777
1.00524 0.995751 0.990104
1.00526 0.997301 0.988483
1.00528 0.998523 0.987214
1.0053 1.00028 0.985556
1.00526 1.00005 0.985686
1.0053 1.00091 0.984975
1.00426 1.00132 0.986231
1.0052 1.0012 0.984931
1.00374 1.00206 0.986375
1.00159 1.00277 0.989345
1.0029 1.00315 0.986469
1.00092 1.0031 0.990143
1.00039 1.00099 0.997199
1.00037 1.00281 0.991257
1.00002 1.00014 0.997766
0.999929 0.999297 0.998221
1.00538 0.994833 0.990805
1.00437 0.994873 0.991818
1.00108 0.994888 0.982552
1.0053 0.995219 0.990186
1.00519 0.996276 0.98924
1.00519 0.996552 0.988794
1.00526 0.996007 0.989698
1.00528 0.997049 0.988424
1.00536 0.994827 0.990529
1.00531 0.994909 0.990103
1.00522 0.996157 0.989419
1.00524 0.994825 0.990591
1.00506 0.995195 0.990161
1.00321 0.99481 0.993597
1.00535 0.99491 0.990985
1.0054 0.994888 0.991029
1.00469 0.996351 0.991114
1.00531 0.994787 0.991028
1.00544 0.99491 0.991025
1.00539 0.994867 0.990887
1.00528 0.994925 0.991075
1.00536 0.99488 0.990518
1.00529 0.994903 0.990764
1.0052 0.994935 0.991103
1.00529 0.994909 0.990649
1.00523 0.9949 0.990975
1.00528 0.995206 0.990815
1.00527 0.99493 0.990794
1.00528 0.995729 0.990212
1.00537 0.998296 0.987664
1.00529 0.996467 0.989444
1.00535 0.998825 0.987117
1.0052 1.00034 0.985756
1.00532 0.999399 0.98656
1.00524 1.0004 0.985632
1.00299 1.00007 0.991249
1.00523 1.0005 0.985519
1.00312 1.00018 0.991021
1.00153 0.999947 0.993608
1.0012 1.00053 0.995172
1.00313 1.00059 0.990653
1.00114 1.00085 0.996755
1.00526 0.995102 0.990742
1.00525 0.996953 0.988862
1.00523 0.995619 0.99026
1.00532 0.999489 0.986354
1.00526 0.997363 0.988473
1.00528 0.998499 0.987409
1.0053 1.00031 0.985496
1.00497 1.00045 0.985888
1.0053 1.00096 0.984909
1.00442 1.00104 0.986224
1.00227 1.00189 0.989007
1.00383 1.00167 0.986372
1.0014 1.00294 0.989334
1.00066 1.00132 0.996872
1.00076 1.00326 0.990151
1.00023 1.00085 0.997369
0.999973 0.999973 0.997897
1.00532 0.994897 0.990754
1.00533 0.994834 0.990832
1.00427 0.99487 0.991548
1.0053 0.994855 0.990685
1.00529 0.995277 0.99016
1.00511 0.996258 0.989122
1.00525 0.996177 0.989655
1.00535 0.994832 0.990534
1.00533 0.994915 0.990122
1.00519 0.994824 0.990633
1.00529 0.994952 0.991076
1.00533 0.994911 0.990967
1.00541 0.994888 0.991192
1.00526 0.994946 0.991186
1.00538 0.994866 0.99085
1.00528 0.994925 0.991063
1.0052 0.99495 0.991185
1.00529 0.994906 0.990732
1.0052 0.994934 0.991106
1.00527 0.994982 0.991125
1.00524 0.9949 0.990961
1.00526 0.99522 0.990804
1.00536 0.997833 0.988174
1.00528 0.995755 0.990199
1.00536 0.998302 0.987681
1.00517 1.00019 0.985975
1.00535 0.998825 0.98714
1.00523 1.0003 0.985778
1.003 1.00009 0.991213
1.00525 1.00037 0.985651
1.00316 1.00001 0.991092
1.00159 0.999849 0.993613
1.00331 1.00007 0.990899
1.0011 1.00011 0.993906
1.00059 1.00086 0.997284
1.00525 0.994913 0.990855
1.00527 0.996094 0.989786
1.00526 0.995156 0.990666
1.00533 0.999115 0.986797
1.00525 0.996642 0.989113
1.00522 0.995489 0.990416
1.00522 1.00012 0.985871
1.00531 0.999488 0.986314
1.00525 0.997422 0.988464
1.00531 1.00032 0.985436
1.00504 1.00038 0.985879
1.00271 1.00097 0.989135
1.00461 1.00075 0.986218
1.00212 1.00208 0.989033
1.00084 1.00133 0.996761
1.00137 1.00307 0.989313
1.00056 1.0012 0.996989
1.00007 1.00064 0.997531
1.00527 0.994913 0.990961
1.00532 0.994898 0.990717
1.00531 0.994834 0.990862
1.0053 0.994859 0.990716
1.00527 0.995335 0.990135
1.00535 0.994839 0.990539
1.00526 0.994958 0.991123
1.00529 0.994946 0.991086
1.00532 0.994912 0.990948
1.00525 0.994949 0.991177
1.00517 0.994944 0.991376
1.00528 0.994926 0.99105
1.0052 0.994949 0.991222
1.00527 0.994938 0.99118
1.0052 0.994933 0.99111
1.00526 0.994979 0.991115
1.00537 0.997439 0.988611
1.00524 0.995225 0.990793
1.00538 0.997832 0.988177
1.00511 0.99999 0.986309
1.00536 0.998308 0.987699
1.00519 1.00017 0.985991
1.00292 1.0002 0.991188
1.00525 1.00026 0.9858
1.00315 1.00004 0.991045
1.00161 0.999899 0.993527
1.00333 0.999952 0.990944
1.00121 0.999892 0.993936
1.00069 1.0003 0.994188
1.00524 0.994915 0.991048
1.00526 0.995477 0.990483
1.00525 0.994905 0.990853
1.00535 0.998212 0.987712
1.00527 0.996174 0.989699
1.00526 0.995208 0.99059
1.00527 0.999965 0.985999
1.00533 0.998759 0.987088
1.00526 0.996334 0.989365
1.0029 1.00028 0.989489
1.00523 1.0001 0.985859
1.00531 0.999496 0.986273
1.00507 1.00033 0.985873
1.00265 1.00106 0.989154
1.00099 1.00105 0.996813
1.00196 1.00227 0.989059
1.00081 1.00125 0.996793
1.00043 1.00113 0.997123
1.00525 0.99495 0.991095
1.00528 0.994918 0.990935
1.00532 0.994898 0.99068
1.00531 0.994863 0.990747
1.00517 0.994952 0.991374
1.00526 0.994952 0.991132
1.00529 0.99494 0.991097
1.00525 0.994952 0.991167
1.00518 0.994943 0.991361
1.00526 0.995254 0.990911
1.00519 0.994948 0.991259
1.00527 0.995118 0.991015
1.00536 0.996823 0.989282
1.00525 0.994984 0.991104
1.00538 0.997437 0.988604
1.00503 0.99976 0.986691
1.00539 0.997846 0.98818
1.00513 0.999965 0.986315
1.00289 1.00025 0.989633
1.00522 1.00015 0.986006
1.00308 1.00016 0.990224
1.0014 0.999969 0.996825
1.00332 1 0.990878
1.00127 0.99988 0.993858
1.00086 0.999929 0.994242
1.00521 0.994953 0.99115
1.00524 0.995328 0.990777
1.00523 0.994923 0.991055
1.00535 0.997595 0.988396
1.00526 0.995637 0.990265
1.00526 0.994898 0.990852
1.00525 0.999593 0.986413
1.00534 0.998212 0.987731
1.00527 0.99625 0.989611
1.003 0.999873 0.98973
1.00526 0.999808 0.986117
1.00533 0.998399 0.98738
1.00113 1.00058 0.996915
1.00291 1.00025 0.989493
1.00525 1.00007 0.985842
1.00256 1.00114 0.989175
1.00099 1.00102 0.996781
1.00075 1.00121 0.996844
1.00515 0.994964 0.991293
1.00525 0.994952 0.991096
1.00529 0.994923 0.990909
1.00524 0.995284 0.990979
1.00517 0.994952 0.991343
1.00526 0.994947 0.99114
1.00519 0.994943 0.991346
1.00526 0.995294 0.99091
1.00536 0.997005 0.989125
1.00528 0.995312 0.99085
1.00537 0.997183 0.988912
1.00494 0.999222 0.98739
1.0054 0.997419 0.988597
1.00504 0.999748 0.986695
1.0028 1.00016 0.989892
1.00516 0.999944 0.986321
1.0029 1.00023 0.989646
1.00132 1.00002 0.996831
1.00311 1.00015 0.989403
1.00125 0.999977 0.995374
1.00093 0.999837 0.994187
1.00513 0.994962 0.991344
1.00522 0.995217 0.991029
1.00519 0.994954 0.991167
1.00535 0.997776 0.988218
1.00525 0.995259 0.990798
1.00523 0.994931 0.991061
1.00522 0.999502 0.986578
1.00534 0.997947 0.988028
1.00526 0.995798 0.990048
1.00306 0.999784 0.989737
1.00524 0.999564 0.986424
1.00533 0.998207 0.98775
1.00129 1.00017 0.996937
1.00304 0.999827 0.989731
1.00525 0.999649 0.986235
1.00116 1.0006 0.996875
1.00293 1.00023 0.989501
1.00096 1.00102 0.996777
1.00521 0.995339 0.990892
1.00515 0.994962 0.991321
1.00524 0.994956 0.991097
1.00536 0.996989 0.989153
1.00523 0.995323 0.990951
1.00518 0.994952 0.991313
1.00526 0.995332 0.990909
1.00535 0.997033 0.989132
1.00488 0.999048 0.98766
1.00537 0.997533 0.988543
1.00496 0.999383 0.987188
1.00273 1.00003 0.990139
1.00504 0.999732 0.9867
1.00277 1.00018 0.989904
1.00122 1.00003 0.996868
1.00289 1.00022 0.989656
1.00128 1.00003 0.996839
1.00134 0.999943 0.993638
1.0052 0.995487 0.990805
1.00513 0.994961 0.991299
1.00535 0.997548 0.988486
1.00524 0.995142 0.991035
1.00518 0.994955 0.991184
1.00513 0.999785 0.98648
1.00534 0.997787 0.98822
1.00526 0.995191 0.990819
1.00304 0.999884 0.98971
1.00519 0.99969 0.986414
1.00533 0.998308 0.98766
1.00141 0.999962 0.996885
1.00308 0.999773 0.989738
1.00523 0.999536 0.986437
1.00129 1.00021 0.996934
1.00307 0.999787 0.989732
1.00117 1.00061 0.996828
1.00536 0.997088 0.989024
1.00521 0.995376 0.99092
1.00516 0.994961 0.99135
1.00488 0.998995 0.987715
1.00535 0.997019 0.989153
1.00523 0.99536 0.990923
1.00535 0.997065 0.989138
1.00491 0.999031 0.987629
1.00262 0.999968 0.990377
1.00497 0.999543 0.986985
1.00271 1.00004 0.990148
1.00116 1.00002 0.996918
1.00276 1.00019 0.989918
1.00118 1.00006 0.996892
1.00125 1.00004 0.996855
1.00536 0.997369 0.9887
1.00521 0.995246 0.990989
1.00512 0.99496 0.991254
1.00505 0.999651 0.986789
1.00535 0.997558 0.988488
1.00525 0.995068 0.991041
1.00292 1.00002 0.989816
1.0051 0.999812 0.986478
1.00534 0.997798 0.988222
1.00139 0.999925 0.99684
1.00303 0.999914 0.989707
1.00517 0.999865 0.986248
1.00139 0.999997 0.996907
1.00309 0.999777 0.989737
1.00132 1.00022 0.996922
1.00491 0.999373 0.987288
1.00535 0.996932 0.989195
1.00521 0.995403 0.990948
1.00258 0.999887 0.990558
1.00489 0.998969 0.987713
1.00535 0.997047 0.989154
1.00493 0.99901 0.9876
1.00264 0.999941 0.990385
1.0011 1.00002 0.996951
1.00269 1.00006 0.990156
1.00113 1.00003 0.996924
1.00113 1.00007 0.996909
1.00497 0.999494 0.987089
1.00536 0.997149 0.988935
1.00522 0.994998 0.991173
1.0029 1.00003 0.991423
1.00501 0.999665 0.986793
1.00535 0.99757 0.98849
1.00129 0.999965 0.996851
1.00292 1.00004 0.989811
1.00507 0.999839 0.986476
1.0014 0.999949 0.996856
1.00302 0.999951 0.989703
1.0014 1.00001 0.996925
1.00269 0.999883 0.990442
1.0049 0.9992 0.987449
1.00535 0.996784 0.989365
1.00102 0.999981 0.997016
1.00257 0.999883 0.990552
1.0049 0.998948 0.98771
1.00263 0.999915 0.99039
1.00107 1.00001 0.996974
1.0011 1.00005 0.996938
1.00287 0.999953 0.99161
1.00495 0.999499 0.98709
1.00536 0.996936 0.98917
1.0007 1.00001 0.99742
1.00279 1.00003 0.990052
1.00499 0.999675 0.986798
1.00132 0.999971 0.996851
1.00292 1.00006 0.989804
1.00142 0.999963 0.996872
1.00101 0.999941 0.994196
1.00271 0.999887 0.991127
1.0049 0.999027 0.987609
1.00104 0.999984 0.997023
1.00258 0.999884 0.990553
1.00108 0.999996 0.996992
1.00053 0.99999 0.994638
1.00277 0.999937 0.990965
1.00493 0.999509 0.987091
1.00093 0.999994 0.995689
1.00278 1.00003 0.990071
1.00135 0.999975 0.996853
1.00104 0.999968 0.997013
1.00259 0.999877 0.990538
1.00101 0.999985 0.99702
1.00081 0.999964 0.99583
1.00267 0.999928 0.990367
1.00122 0.999987 0.996888
1.00106 0.999968 0.997018
1.0011 0.999975 0.996963

TENSORS stress float
0.00220871 -0.000150917 0.000255685
-0.000150917 0.00104991 -4.28894e-05
0.000255685 -4.28894e-05 0.0010239
0.00684066 5.09116e-05 0.000291112
5.09116e-05 0.00396252 3.29309e-05
0.000291112 3.29309e-05 0.00396689
0.00184604 -8.1404e-05 0.00010762
-8.1404e-05 0.000821302 -1.69779e-05
0.00010762 -1.69779e-05 0.000783917
0.00220829 -8.57998e-05 0.00024755
-8.57998e-05 0.00102557 -2.48014e-05
0.00024755 -2.48014e-05 0.00100895
0.00223429 -0.000132588 0.000249784
-0.000132588 0.00105576 -3.77302e-05
0.000249784 -3.77302e-05 0.00103313
0.00216116 -0.00015381 0.000265021
-0.00015381 0.00102132 -4.44305e-05
0.000265021 -4.44305e-05 0.000995412
0.00183134 -0.000138497 4.98108e-05
-0.000138497 0.000722765 -1.35286e-05
4.98108e-05 -1.35286e-05 0.000611154
0.00678036 4.07886e-05 -7.46023e-06
4.07886e-05 0.00391573 -1.37536e-06
-7.46023e-06 -1.37536e-06 0.00392461
0.00651325 0.000208098 0.000145545
0.000208098 0.00374523 1.40022e-05
0.000145545 1.40022e-05 0.0037196
0.00652011 -3.54181e-05 8.02713e-05
-3.54181e-05 0.0037366 4.00387e-06
8.02713e-05 4.00387e-06 0.00371639
0.00191368 0.000194702 0.000268863
0.000194702 0.000870429 3.46332e-05
0.000268863 3.46332e-05 0.000861645
0.000442945 0.000254119 2.62868e-05
0.000254119 -0.000111986 2.01511e-05
2.62868e-05 2.01511e-05 -0.000247056
0.00180395 -3.32655e-05 0.00024293
-3.32655e-05 0.000771907 3.98342e-06
0.00024293 3.98342e-06 0.000772656
0.00146945 2.13017e-06 6.23575e-05
2.13017e-06 0.000584029 1.76942e-06
6.23575e-05 1.76942e-06 0.000537899
0.00156972 -8.04593e-05 -5.63738e-05
-8.04593e-05 0.000657079 9.92408e-06
-5.63738e-05 9.92408e-06 0.000603676
0.00184584 -8.55135e-05 8.13933e-05
-8.55135e-05 0.000816318 -5.01491e-06
8.13933e-05 -5.01491e-06 0.000782127
0.00189009 -6.92239e-05 0.00011688
-6.92239e-05 0.00085385 -1.83013e-05
0.00011688 -1.83013e-05 0.000812579
0.00186553 -8.94274e-05 9.57187e-05
-8.94274e-05 0.00082653 -1.31524e-05
9.57187e-05 -1.31524e-05 0.000792155
0.00190933 -0.000174615 -4.07741e-05
-0.000174615 0.000769012 5.85841e-06
-4.07741e-05 5.85841e-06 0.000666679
0.00613483 -0.000143186 0.000314699
-0.000143186 0.00351879 -1.34059e-05
0.000314699 -1.34059e-05 0.00353621
0.00214558 -6.30351e-05 0.000245229
-6.30351e-05 0.000986573 -1.84461e-05
0.000245229 -1.84461e-05 0.000972966
0.00225069 -0.000110264 0.000248215
-0.000110264 0.00105738 -3.14741e-05
0.000248215 -3.14741e-05 0.00103822
0.00179792 -0.000137894 7.01717e-05
-0.000137894 0.000694582 -1.07573e-05
7.01717e-05 -1.07573e-05 0.000596493
0.00183779 -0.000144502 5.90548e-05
-0.000144502 0.000717152 -1.31096e-05
5.90548e-05 -1.31096e-05 0.000613075
0.00208349 -0.00013088 0.000264318
-0.00013088 0.000965263 -4.12331e-05
0.000264318 -4.12331e-05 0.000942585
0.00187548 -0.000136172 4.22387e-05
-0.000136172 0.000766102 -1.38948e-05
4.22387e-05 -1.38948e-05 0.000642899
0.00206528 -0.000321548 1.7798e-05
-0.000321548 0.000645516 -7.45155e-06
1.7798e-05 -7.45155e-06 0.000434446
0.00673429 2.60257e-05 -0.000288634
2.60257e-05 0.0038769 -2.32898e-05
-0.000288634 -2.32898e-05 0.00389058
0.00423505 0.000154762 -0.00014483
0.000154762 0.00231383 -1.62422e-05
-0.00014483 -1.62422e-05 0.00229144
0.00417787 6.70632e-05 -0.000143718
6.70632e-05 0.00228776 -1.38016e-05
-0.000143718 -1.38016e-05 0.00226634
0.00667759 -3.084e-05 -3.85424e-06
-3.084e-05 0.00386257 -4.32378e-07
-3.85424e-06 -4.32378e-07 0.00386728
0.00044581 0.000237271 -1.31057e-06
0.000237271 -0.000107932 -1.11338e-06
-1.31057e-06 -1.11338e-06 -0.000242988
0.00186537 6.90492e-05 0.000252872
6.90492e-05 0.000810367 2.32925e-05
0.000252872 2.32925e-05 0.000797668
0.0019724 0.000158743 0.000258833
0.000158743 0.000910269 3.61031e-05
0.000258833 3.61031e-05 0.000885795
0.00282904 0.000209623 0.000155091
0.000209623 0.00132932 2.23539e-05
0.000155091 2.23539e-05 0.0012471
0.00585989 -0.000302055 9.79334e-06
-0.000302055 0.00341851 5.17898e-06
9.79334e-06 5.17898e-06 0.00336104
0.00297854 0.000288079 0.000160994
0.000288079 0.00146384 2.78786e-05
0.000160994 2.78786e-05 0.00136581
0.000445022 0.000222126 2.66409e-05
0.000222126 -0.000105636 2.67498e-05
2.66409e-05 2.67498e-05 -0.000239659
0.000919681 0.000257238 1.33561e-05
0.000257238 3.5503e-05 6.28768e-06
1.33561e-05 6.28768e-06 -0.000183408
0.00467466 -0.000107486 0.000178192
-0.000107486 0.00265819 1.59341e-05
0.000178192 1.59341e-05 0.00265699
0.00611503 8.22515e-05 3.38721e-06
8.22515e-05 0.00349336 -1.83876e-06
3.38721e-06 -1.83876e-06 0.00351806
0.00399343 9.05779e-05 -0.000121206
9.05779e-05 0.00216059 -5.46817e-06
-0.000121206 -5.46817e-06 0.00214903
0.00596836 5.8091e-05 0.000305773
5.8091e-05 0.00340448 4.27907e-06
0.000305773 4.27907e-06 0.00342982
0.00142828 8.768e-05 6.46556e-05
8.768e-05 0.000562023 4.27024e-06
6.46556e-05 4.27024e-06 0.000520832
0.000516788 1.15079e-05 1.52401e-05
1.15079e-05 -0.000134405 1.86635e-06
1.52401e-05 1.86635e-06 -0.000219907
0.00634785 0.000234041 0.000176853
0.000234041 0.00366562 1.70147e-05
0.000176853 1.70147e-05 0.00364003
0.00282049 7.63379e-05 0.000145751
7.63379e-05 0.00129714 9.25914e-06
0.000145751 9.25914e-06 0.00123827
0.00143676 -8.659e-05 -7.686e-05
-8.659e-05 0.000578603 9.7676e-06
-7.686e-05 9.7676e-06 0.000526211
0.00148912 -0.000109722 -6.97151e-05
-0.000109722 0.000613576 1.20273e-05
-6.97151e-05 1.20273e-05 0.000557622
0.00164106 -3.93169e-05 -4.49499e-05
-3.93169e-05 0.000698883 8.62484e-06
-4.49499e-05 8.62484e-06 0.000644959
0.00195459 -0.000177665 -0.000138029
-0.000177665 0.00078993 2.51558e-05
-0.000138029 2.51558e-05 0.000698714
0.00384396 -1.93549e-05 -0.000122932
-1.93549e-05 0.00207746 -1.73597e-06
-0.000122932 -1.73597e-06 0.00206563
0.00180598 -6.66898e-05 8.6092e-05
-6.66898e-05 0.000788278 -3.97693e-06
8.6092e-05 -3.97693e-06 0.000758319
0.00184301 -4.69596e-05 0.000121606
-4.69596e-05 0.000827635 -1.69335e-05
0.000121606 -1.69335e-05 0.000784967
0.0018616 -8.81888e-05 8.70431e-05
-8.81888e-05 0.00082347 -8.58633e-06
8.70431e-05 -8.58633e-06 0.000789861
0.00187353 -0.000115915 -3.27675e-05
-0.000115915 0.000731228 2.25149e-06
-3.27675e-05 2.25149e-06 0.000644611
0.00189892 -0.000177685 -4.74473e-05
-0.000177685 0.000773697 6.71193e-06
-4.74473e-05 6.71193e-06 0.00066374
0.00190324 -0.000161871 -3.50954e-05
-0.000161871 0.000757691 4.1567e-06
-3.50954e-05 4.1567e-06 0.000661476
0.00207662 -0.000323429 -9.73558e-06
-0.000323429 0.000648751 2.57315e-06
-9.73558e-06 2.57315e-06 0.000437809
0.00595429 6.5719e-06 0.000301762
6.5719e-06 0.00339362 -2.21449e-06
0.000301762 -2.21449e-06 0.00342024
0.00207025 -3.85657e-05 0.000240215
-3.85657e-05 0.000943647 -1.27318e-05
0.000240215 -1.27318e-05 0.000933696
0.00244823 -8.17629e-06 5.15663e-05
-8.17629e-06 0.001091 -1.02403e-06
5.15663e-05 -1.02403e-06 0.0010228
0.00175937 -0.000111907 6.2517e-05
-0.000111907 0.000665394 -7.11681e-06
6.2517e-05 -7.11681e-06 0.000576047
0.00181558 -0.000142728 6.62758e-05
-0.000142728 0.000704041 -1.23771e-05
6.62758e-05 -1.23771e-05 0.000603274
0.00190557 -0.000209054 1.09651e-05
-0.000209054 0.00047248 -2.92122e-06
1.09651e-05 -2.92122e-06 0.000305834
0.00191328 -0.000283275 1.65186e-05
-0.000283275 0.000510764 -5.60696e-06
1.65186e-05 -5.60696e-06 0.000318014
0.00183867 -8.7273e-05 0.000238998
-8.7273e-05 0.00081426 -3.2778e-05
0.000238998 -3.2778e-05 0.00079615
0.001786 -0.000103543 3.26287e-05
-0.000103543 0.000727899 -1.34967e-05
3.26287e-05 -1.34967e-05 0.000602285
0.00211835 -0.000351542 1.78695e-05
-0.000351542 0.000723447 -8.32372e-06
1.78695e-05 -8.32372e-06 0.000496503
0.00168392 -0.000419181 6.72356e-06
-0.000419181 0.000183895 -5.94023e-07
6.72356e-06 -5.94023e-07 -7.49228e-05
0.00689473 0.000264882 -0.000342871
0.000264882 0.00398342 -3.81274e-05
-0.000342871 -3.81274e-05 0.00398891
0.00657683 -5.75046e-05 -0.000258993
-5.75046e-05 0.00380132 -1.85995e-05
-0.000258993 -1.85995e-05 0.00380777
0.00677404 0.000104054 -0.000305068
0.000104054 0.00389492 -2.8053e-05
-0.000305068 -2.8053e-05 0.00391077
0.00041729 0.000227894 -2.51163e-05
0.000227894 -0.000120043 -2.0451e-05
-2.51163e-05 -2.0451e-05 -0.000257491
0.00678816 0.0002398 -2.40794e-06
0.0002398 0.00391248 -2.38271e-06
-2.40794e-06 -2.38271e-06 0.00392226
0.00690711 0.000214104 -8.88894e-06
0.000214104 0.00398365 -2.92865e-06
-8.88894e-06 -2.92865e-06 0.0039922
0.000361825 0.000131414 2.14112e-07
0.000131414 -0.000218174 -2.84479e-07
2.14112e-07 -2.84479e-07 -0.00033188
0.00366699 -9.6211e-05 -0.000118087
-9.6211e-05 0.00201662 -4.59036e-06
-0.000118087 -4.59036e-06 0.00198308
0.000350737 0.000209646 3.24712e-07
0.000209646 -0.000178111 -4.85161e-07
3.24712e-07 -4.85161e-07 -0.000310138
0.00175113 0.000229137 5.74051e-05
0.000229137 0.000715711 3.26484e-06
5.74051e-05 3.26484e-06 0.000604197
0.000848767 0.000249755 3.10757e-07
0.000249755 -2.63563e-06 1.76041e-08
3.10757e-07 1.76041e-08 -0.000219269
0.00557885 -0.000133722 0.000206798
-0.000133722 0.00323525 2.27751e-05
0.000206798 2.27751e-05 0.0032219
0.000619109 5.55384e-05 1.51597e-05
5.55384e-05 6.34891e-05 1.35007e-05
1.51597e-05 1.35007e-05 -1.13314e-05
0.000468374 0.000101601 1.51886e-05
0.000101601 -0.000170401 1.03233e-05
1.51886e-05 1.03233e-05 -0.000278151
0.000477491 0.000160133 1.97648e-05
0.000160133 -0.000133167 1.80302e-05
1.97648e-05 1.80302e-05 -0.000254283
0.00114662 0.000245192 1.51967e-05
0.000245192 5.34384e-06 5.53363e-06
1.51967e-05 5.53363e-06 -0.000193909
0.00300595 0.000208715 0.000143671
0.000208715 0.00151379 2.0157e-05
0.000143671 2.0157e-05 0.00143425
0.000985289 0.000267692 1.49407e-05
0.000267692 7.55424e-06 6.64925e-06
1.49407e-05 6.64925e-06 -0.000208442
0.000828971 0.000252781 1.24146e-05
0.000252781 7.19179e-05 6.0792e-06
1.24146e-05 6.0792e-06 -0.000151978
0.00124559 0.000408898 2.03885e-06
0.000408898 0.000133872 -1.51601e-06
2.03885e-06 -1.51601e-06 -0.000161988
0.00359567 -0.000122734 0.000110436
-0.000122734 0.00196981 7.04669e-06
0.000110436 7.04669e-06 0.00196865
0.00420603 -0.000163934 2.39175e-05
-0.000163934 0.00237304 -5.96083e-07
2.39175e-05 -5.96083e-07 0.00235896
0.00657252 6.18469e-05 -0.000324443
6.18469e-05 0.00376344 -1.62048e-05
-0.000324443 -1.62048e-05 0.00378679
0.00620478 7.34153e-05 -0.000316046
7.34153e-05 0.0035454 -9.86775e-06
-0.000316046 -9.86775e-06 0.00357119
0.00605829 8.37875e-05 -7.38762e-08
8.37875e-05 0.00346565 -3.79961e-06
-7.38762e-08 -3.79961e-06 0.00348778
0.00385729 3.2876e-05 -0.000132062
3.2876e-05 0.00207576 -6.92324e-06
-0.000132062 -6.92324e-06 0.00206949
0.00159267 3.85394e-05 6.2846e-05
3.85394e-05 0.000539737 1.73629e-06
6.2846e-05 1.73629e-06 0.000471426
0.00417884 0.000149545 -0.000123902
0.000149545 0.00228064 -7.37768e-06
-0.000123902 -7.37768e-06 0.00226111
0.00166702 9.30742e-05 6.4389e-05
9.30742e-05 0.000579155 3.19755e-06
6.4389e-05 3.19755e-06 0.000499682
0.00601052 0.000121887 0.000308535
0.000121887 0.0034448 7.2582e-06
0.000308535 7.2582e-06 0.0034619
0.000417992 1.0477e-05 1.843e-05
1.0477e-05 -0.000190861 9.00529e-07
1.843e-05 9.00529e-07 -0.000273103
0.00280175 3.97281e-05 0.000143063
3.97281e-05 0.00128908 6.21683e-06
0.000143063 6.21683e-06 0.00123624
0.00111477 6.43031e-05 1.17567e-05
6.43031e-05 -3.70282e-05 7.90244e-07
1.17567e-05 7.90244e-07 -0.000170192
0.00279089 0.000121991 0.000151444
0.000121991 0.00128115 1.24312e-05
0.000151444 1.24312e-05 0.00121553
0.00121081 0.000146421 1.17975e-05
0.000146421 8.24904e-07 1.85531e-06
1.17975e-05 1.85531e-06 -0.000155944
0.00182218 4.2233e-05 -0.000242047
4.2233e-05 0.000781525 3.0687e-06
-0.000242047 3.0687e-06 0.000784178
0.00143033 -1.72572e-05 -6.3147e-05
-1.72572e-05 0.000566446 2.89175e-06
-6.3147e-05 2.89175e-06 0.000520199
0.00167724 -2.43009e-06 -3.70365e-05
-2.43009e-06 0.000725713 8.29996e-06
-3.70365e-05 8.29996e-06 0.000669948
0.00142836 -0.000101986 -7.78576e-05
-0.000101986 0.000575443 1.18436e-05
-7.78576e-05 1.18436e-05 0.000521537
0.00199853 -9.48747e-05 -0.000131335
-9.48747e-05 0.000799013 1.24099e-05
-0.000131335 1.24099e-05 0.000723877
0.00199182 -0.000148671 -0.000134158
-0.000148671 0.000801827 2.12518e-05
-0.000134158 2.12518e-05 0.00071808
0.00191257 -0.000192608 -0.000141621
-0.000192608 0.000774509 2.6861e-05
-0.000141621 2.6861e-05 0.000676345
0.00205532 -0.000322295 -3.40052e-05
-0.000322295 0.000631435 1.16234e-05
-3.40052e-05 1.16234e-05 0.000421383
0.00605022 -0.000105634 2.32483e-06
-0.000105634 0.00346552 -1.87447e-06
2.32483e-06 -1.87447e-06 0.00348457
0.00170995 2.95503e-05 9.3004e-05
2.95503e-05 0.000722341 -4.55287e-06
9.3004e-05 -4.55287e-06 0.000700993
0.00115686 -1.07226e-05 -6.59229e-05
-1.07226e-05 0.000272858 1.97738e-06
-6.59229e-05 1.97738e-06 0.000203454
0.00183484 -7.60133e-05 -3.58877e-05
-7.60133e-05 0.000704837 2.90744e-06
-3.58877e-05 2.90744e-06 0.000625107
0.00433217 -3.67874e-05 0.000246241
-3.67874e-05 0.00239274 -1.62249e-05
0.000246241 -1.62249e-05 0.00238534
0.00244426 -0.000183071 -4.27261e-05
-0.000183071 0.00112739 3.70695e-06
-4.27261e-05 3.70695e-06 0.00101437
0.00188909 -0.000140058 -3.24235e-05
-0.000140058 0.000744239 2.93393e-06
-3.24235e-05 2.93393e-06 0.000653331
0.00197184 -0.000209415 -1.00631e-05
-0.000209415 0.000509813 1.83599e-06
-1.00631e-05 1.83599e-06 0.000346436
0.00205915 -0.000350613 -8.39152e-06
-0.000350613 0.000680109 2.4352e-06
-8.39152e-06 2.4352e-06 0.000453021
0.00198557 -0.000285999 -8.46917e-06
-0.000285999 0.000556424 2.23502e-06
-8.46917e-06 2.23502e-06 0.000362475
0.00171593 -0.000421222 7.85861e-07
-0.000421222 0.000205523 -1.49631e-07
7.85861e-07 -1.49631e-07 -5.2919e-05
0.000456809 9.70215e-06 1.92638e-05
9.70215e-06 -0.000170442 -7.07977e-07
1.92638e-05 -7.07977e-07 -0.000249291
0.00167143 -3.62031e-06 5.29557e-05
-3.62031e-06 0.00060153 -2.76613e-06
5.29557e-05 -2.76613e-06 0.000525095
0.00182645 -6.82913e-05 1.05811e-05
-6.82913e-05 0.000413158 -4.03881e-07
1.05811e-05 -4.03881e-07 0.00029361
0.00181365 -0.000164321 1.06874e-05
-0.000164321 0.000402726 -1.60352e-06
1.06874e-05 -1.60352e-06 0.000254642
0.0018779 -0.000244989 1.36462e-05
-0.000244989 0.000461624 -3.77919e-06
1.36462e-05 -3.77919e-06 0.000285366
0.00189016 -0.00029325 4.13144e-07
-0.00029325 0.00018966 -1.39182e-07
4.13144e-07 -1.39182e-07 1.40351e-05
0.00614021 0.000107447 0.000216168
0.000107447 0.00355319 -1.66362e-05
0.000216168 -1.66362e-05 0.00354796
0.00168232 -0.000386479 4.45113e-06
-0.000386479 0.00013278 -4.91817e-07
4.45113e-06 -4.91817e-07 -9.86507e-05
0.000251953 -0.000177513 2.03926e-05
-0.000177513 -0.000234215 -2.06533e-05
2.03926e-05 -2.06533e-05 -0.000351997
0.000896816 -0.000268249 1.40166e-05
-0.000268249 1.68551e-05 -8.67595e-06
1.40166e-05 -8.67595e-06 -0.000210196
0.00175875 -0.000465425 8.64503e-06
-0.000465425 0.000293075 -1.37369e-06
8.64503e-06 -1.37369e-06 -5.60692e-07
0.00191246 -0.000491031 2.35328e-06
-0.000491031 0.000218765 2.16486e-06
2.35328e-06 2.16486e-06 -2.88959e-05
0.000463456 -0.000142323 2.22572e-05
-0.000142323 -6.48858e-05 -1.64231e-05
2.22572e-05 -1.64231e-05 -0.000164536
0.000580548 -0.000125579 -3.08682e-07
-0.000125579 6.39463e-05 -5.6156e-08
-3.08682e-07 -5.6156e-08 -0.000174964
0.00686016 0.000263445 -0.000350842
0.000263445 0.00396329 -3.61749e-05
-0.000350842 -3.61749e-05 0.00396982
0.00686183 0.000200432 -0.000326583
0.000200432 0.00395358 -3.44743e-05
-0.000326583 -3.44743e-05 0.00396565
0.000346123 0.000128634 -1.83319e-05
0.000128634 -0.00022972 -1.27694e-05
-1.83319e-05 -1.27694e-05 -0.000343681
0.00586269 -0.000131299 -0.000204143
-0.000131299 0.00339029 -1.48139e-05
-0.000204143 -1.48139e-05 0.00338358
0.000340054 0.000199517 -2.3142e-05
0.000199517 -0.000171313 -2.04127e-05
-2.3142e-05 -2.04127e-05 -0.000290133
0.000365112 0.000197831 -2.08588e-05
0.000197831 -0.000167828 -1.85866e-05
-2.08588e-05 -1.85866e-05 -0.00030111
0.000849462 0.00024647 -1.43099e-05
0.00024647 2.17512e-06 -6.92297e-06
-1.43099e-05 -6.92297e-06 -0.000212752
0.00528932 -0.000127632 2.95017e-07
-0.000127632 0.00304327 6.69627e-07
2.95017e-07 6.69627e-07 0.00303635
0.00052527 4.28102e-05 1.5639e-06
4.28102e-05 8.87961e-06 4.81158e-07
1.5639e-06 4.81158e-07 -6.21444e-05
0.00167448 0.000142897 6.62727e-05
0.000142897 0.000588645 5.75496e-06
6.62727e-05 5.75496e-06 0.000496124
0.00166955 0.000206014 6.72372e-05
0.000206014 0.000620072 6.43552e-06
6.72372e-05 6.43552e-06 0.00051258
0.00112187 0.000244227 9.48793e-08
0.000244227 -4.6545e-06 -2.84625e-07
9.48793e-08 -2.84625e-07 -0.000204681
0.00045121 0.000173252 -5.93584e-08
0.000173252 -8.53394e-05 -4.69161e-07
-5.93584e-08 -4.69161e-07 -0.000189584
0.000969735 0.00026282 8.22231e-07
0.00026282 7.07659e-06 1.05224e-07
8.22231e-07 1.05224e-07 -0.000207627
0.00083127 0.000243032 3.07759e-07
0.000243032 6.57311e-05 -8.20537e-07
3.07759e-07 -8.20537e-07 -0.000153633
0.00137782 0.000429832 -2.91229e-07
0.000429832 0.0002032 -3.93056e-07
-2.91229e-07 -3.93056e-07 -9.61373e-05
0.00042808 0.00012323 1.8409e-05
0.00012323 -7.1391e-05 1.62941e-05
1.8409e-05 1.62941e-05 -0.000168379
0.000696316 6.41182e-06 8.34891e-06
6.41182e-06 0.000120049 1.16938e-05
8.34891e-06 1.16938e-05 6.6806e-05
0.00127064 0.000189004 5.28743e-06
0.000189004 0.000510553 4.27989e-06
5.28743e-06 4.27989e-06 0.000294385
0.00118629 0.000215767 1.27252e-05
0.000215767 -2.07891e-06 4.07593e-06
1.27252e-05 4.07593e-06 -0.000187517
0.00108589 0.000265244 1.61947e-05
0.000265244 1.14417e-05 6.42287e-06
1.61947e-05 6.42287e-06 -0.000198785
0.0018786 0.000414604 3.74662e-06
0.000414604 0.000230584 -2.92091e-08
3.74662e-06 -2.92091e-08 -4.77464e-06
0.000714206 0.00021679 9.34073e-06
0.00021679 5.62595e-05 5.94262e-06
9.34073e-06 5.94262e-06 -0.00015872
0.00174433 0.000472497 3.7715e-06
0.000472497 0.000317635 -7.98857e-07
3.7715e-06 -7.98857e-07 3.03857e-05
0.00105847 0.000375315 7.24357e-07
0.000375315 0.000102643 -1.64821e-06
7.24357e-07 -1.64821e-06 -0.000200417
0.00153381 0.000518815 -6.24241e-06
0.000518815 0.000199988 -4.34668e-06
-6.24241e-06 -4.34668e-06 -0.000121146
0.00320387 -0.00013207 6.98771e-05
-0.00013207 0.00171833 3.87141e-06
6.98771e-05 3.87141e-06 0.00171499
0.00354344 -0.00015995 1.35949e-05
-0.00015995 0.00194433 -8.35826e-07
1.35949e-05 -8.35826e-07 0.00193314
0.00399784 -0.000201241 -8.18572e-05
-0.000201241 0.00224772 -6.20888e-06
-8.18572e-05 -6.20888e-06 0.00222416
0.000480069 -0.000125211 2.10007e-05
-0.000125211 -3.75277e-05 -1.47589e-05
2.10007e-05 -1.47589e-05 -0.000122811
0.00553598 0.000153237 0.000176703
0.000153237 0.00320718 -1.71594e-05
0.000176703 -1.71594e-05 0.00318982
0.00678469 0.000221911 -0.000349789
0.000221911 0.00391048 -2.9995e-05
-0.000349789 -2.9995e-05 0.00392333
0.00633121 9.59285e-05 -0.000319856
9.59285e-05 0.00362032 -1.39329e-05
-0.000319856 -1.39329e-05 0.00364466
0.000414178 9.74763e-05 -1.91699e-05
9.74763e-05 -0.000202639 -5.56456e-06
-1.91699e-05 -5.56456e-06 -0.000298892
0.000417621 4.3538e-05 -1.90623e-05
4.3538e-05 -0.000191942 -2.7525e-06
-1.90623e-05 -2.7525e-06 -0.000278232
0.00600568 -5.97192e-06 -0.00030339
-5.97192e-06 0.00342377 -2.62723e-06
-0.00030339 -2.62723e-06 0.0034506
0.00594755 5.86891e-06 -1.30749e-07
5.86891e-06 0.00338893 -1.00695e-06
-1.30749e-07 -1.00695e-06 0.00341583
0.000399034 8.35937e-07 -8.58525e-08
8.35937e-07 -0.000205487 1.42848e-07
-8.58525e-08 1.42848e-07 -0.000285918
0.00159324 4.03451e-05 6.34589e-05
4.03451e-05 0.000534 2.87546e-06
6.34589e-05 2.87546e-06 0.000463042
0.00108672 6.79429e-05 -7.57814e-08
6.79429e-05 -5.85993e-05 -5.83318e-08
-7.57814e-08 -5.83318e-08 -0.000192662
0.000379903 8.40921e-05 -7.24345e-07
8.40921e-05 -0.000224775 -4.52187e-07
-7.24345e-07 -4.52187e-07 -0.000327658
0.00113834 0.000146494 -1.98146e-07
0.000146494 -4.49715e-05 -1.70485e-07
-1.98146e-07 -1.70485e-07 -0.000202877
0.000392909 -3.15972e-05 1.90448e-05
-3.15972e-05 -0.000210627 -7.91729e-07
1.90448e-05 -7.91729e-07 -0.000288414
0.0010678 2.7827e-05 1.14795e-05
2.7827e-05 -5.52e-05 4.14295e-07
1.14795e-05 4.14295e-07 -0.000182966
0.00115023 0.000105197 1.17715e-05
0.000105197 -2.84794e-05 1.32715e-06
1.17715e-05 1.32715e-06 -0.000171865
0.00184561 0.00010886 4.7335e-07
0.00010886 7.78425e-05 -4.32347e-07
4.7335e-07 -4.32347e-07 -2.77145e-05
0.00120174 0.000181379 1.15471e-05
0.000181379 -5.57039e-06 2.72855e-06
1.15471e-05 2.72855e-06 -0.000176253
0.00194415 0.000248674 9.0949e-07
0.000248674 0.000148687 -7.35682e-07
9.0949e-07 -7.35682e-07 4.14072e-06
0.00596712 -6.70715e-05 -0.000307542
-6.70715e-05 0.00340787 3.10534e-06
-0.000307542 3.10534e-06 0.00343092
0.00136462 -0.000156307 -6.39849e-05
-0.000156307 0.000542021 7.77651e-06
-6.39849e-05 7.77651e-06 0.000491473
-0.000252725 -6.3876e-06 -1.19944e-05
-6.3876e-06 -0.000604603 1.80519e-06
-1.19944e-05 1.80519e-06 -0.000699569
0.00194798 -6.76349e-05 -0.00012909
-6.76349e-05 0.000768555 8.70237e-06
-0.00012909 8.70237e-06 0.000698275
0.00650886 0.000265257 -2.90015e-05
0.000265257 0.00378616 3.82734e-06
-2.90015e-05 3.82734e-06 0.00373568
0.00310086 -0.000270343 -0.000146127
-0.000270343 0.00153481 2.81956e-05
-0.000146127 2.81956e-05 0.00142687
0.00201461 -0.000121575 -0.000132497
-0.000121575 0.000810713 1.66569e-05
-0.000132497 1.66569e-05 0.000732122
0.00201782 -0.000208531 -3.05373e-05
-0.000208531 0.000534388 5.59351e-06
-3.05373e-05 5.59351e-06 0.000374542
0.00204417 -0.000288025 -3.19183e-05
-0.000288025 0.000593187 1.00267e-05
-3.19183e-05 1.00267e-05 0.000398315
0.00200863 -0.000349859 -3.15964e-05
-0.000349859 0.000643683 1.20427e-05
-3.15964e-05 1.20427e-05 0.000416303
0.00177105 -0.000425097 -5.07689e-06
-0.000425097 0.00024161 4.01391e-07
-5.07689e-06 4.01391e-07 -1.67315e-05
0.000396646 4.58362e-06 -3.49047e-08
4.58362e-06 -0.000205906 3.10992e-07
-3.49047e-08 3.10992e-07 -0.000285752
0.00180497 -8.64471e-05 -3.45297e-05
-8.64471e-05 0.000691118 4.92255e-07
-3.45297e-05 4.92255e-07 0.000616249
0.00146886 -6.39073e-05 -1.06037e-05
-6.39073e-05 0.00018945 7.08766e-07
-1.06037e-05 7.08766e-07 6.55289e-05
0.00190127 -0.000165202 -9.03089e-06
-0.000165202 0.000456843 1.43558e-06
-9.03089e-06 1.43558e-06 0.000307521
0.00637061 0.0001062 5.29978e-06
0.0001062 0.00369979 6.01202e-07
5.29978e-06 6.01202e-07 0.00369244
0.00170815 -0.000181132 4.62445e-06
-0.000181132 0.000689063 6.29384e-07
4.62445e-06 6.29384e-07 0.00056179
0.00137927 -0.000304333 1.44298e-06
-0.000304333 0.000319718 -1.05238e-06
1.44298e-06 -1.05238e-06 8.89411e-05
0.00193917 -0.000248772 -9.06359e-06
-0.000248772 0.00049895 2.29557e-06
-9.06359e-06 2.29557e-06 0.000322013
0.00192022 -0.00029723 -5.08312e-07
-0.00029723 0.000204365 6.87997e-09
-5.08312e-07 6.87997e-09 3.43021e-05
0.00176499 -0.0004648 1.08211e-06
-0.0004648 0.000300033 -3.38444e-07
1.08211e-06 -3.38444e-07 8.09326e-06
0.00181146 -0.000391541 6.56659e-07
-0.000391541 0.000216267 -2.06719e-07
6.56659e-07 -2.06719e-07 -1.55335e-05
0.00194885 -0.000492408 8.17193e-07
-0.000492408 0.00024628 1.19914e-07
8.17193e-07 1.19914e-07 -1.24619e-06
0.000468417 -0.000152957 1.9517e-06
-0.000152957 -6.64247e-05 5.62478e-07
1.9517e-06 5.62478e-07 -0.000166519
0.000697991 -0.000164348 8.53484e-07
-0.000164348 0.000123208 1.45406e-07
8.53484e-07 1.45406e-07 -0.00010476
0.00106691 -3.14819e-05 1.17057e-05
-3.14819e-05 -5.07674e-05 -5.45761e-07
1.17057e-05 -5.45761e-07 -0.000178888
0.00187918 -0.000113202 9.6821e-06
-0.000113202 0.000445134 -8.23193e-07
9.6821e-06 -8.23193e-07 0.000314239
0.00183629 -0.000114554 3.65039e-07
-0.000114554 0.000100516 2.42731e-07
3.65039e-07 2.42731e-07 -1.44462e-05
0.00181188 -0.000240523 -3.9243e-07
-0.000240523 0.000110296 8.70668e-07
-3.9243e-07 8.70668e-07 -3.19966e-05
0.00180239 -0.000347851 7.85591e-07
-0.000347851 0.000161795 4.1421e-07
7.85591e-07 4.1421e-07 -3.7304e-05
0.00208744 -0.000341529 2.26649e-06
-0.000341529 0.000194612 -3.2371e-07
2.26649e-06 -3.2371e-07 5.5394e-05
0.00035772 -0.000163449 2.0111e-05
-0.000163449 -0.000145758 -1.96252e-05
2.0111e-05 -1.96252e-05 -0.000258477
0.00196296 -0.000453664 7.11709e-07
-0.000453664 0.000202785 1.64394e-06
7.11709e-07 1.64394e-06 -5.20468e-06
0.000592348 -0.000234567 9.99964e-06
-0.000234567 -8.15502e-05 -8.44857e-06
9.99964e-06 -8.44857e-06 -0.000305163
0.00145546 -0.000473823 1.06897e-05
-0.000473823 0.0001991 -1.77306e-06
1.06897e-05 -1.77306e-06 -0.000124215
0.00211416 -0.000552939 2.84692e-06
-0.000552939 0.000410903 1.30524e-06
2.84692e-06 1.30524e-06 0.000110438
0.00223061 -0.000528888 -1.52846e-06
-0.000528888 0.00037741 4.28849e-06
-1.52846e-06 4.28849e-06 0.000159053
0.000609846 -0.000207659 1.78143e-06
-0.000207659 4.90232e-05 -3.45528e-06
1.78143e-06 -3.45528e-06 -0.000198902
0.000637426 -0.000117659 4.88018e-07
-0.000117659 0.000107633 -1.33776e-06
4.88018e-07 -1.33776e-06 -8.97794e-05
0.000941505 -0.000273578 -1.4557e-06
-0.000273578 0.000267447 2.76493e-06
-1.4557e-06 2.76493e-06 -2.36119e-05
0.000373793 0.0001074 -1.77031e-05
0.0001074 -0.000224492 -9.79709e-06
-1.77031e-05 -9.79709e-06 -0.000333359
0.0048171 -0.000186037 -0.000137471
-0.000186037 0.00276559 -1.13718e-05
-0.000137471 -1.13718e-05 0.00274457
0.000273183 3.31706e-05 -1.01133e-05
3.31706e-05 -0.000144867 -1.33055e-05
-1.01133e-05 -1.33055e-05 -0.000210443
0.000338446 0.000161456 -1.96053e-05
0.000161456 -0.000211779 -1.59086e-05
-1.96053e-05 -1.59086e-05 -0.0003345
0.00109859 0.000243333 -1.61606e-05
0.000243333 -1.3454e-05 -6.13722e-06
-1.61606e-05 -6.13722e-06 -0.000214201
0.000475152 0.000162287 -2.30116e-05
0.000162287 -7.13936e-05 -1.84768e-05
-2.30116e-05 -1.84768e-05 -0.000174517
0.000623632 0.00022409 -1.09502e-05
0.00022409 -6.39567e-05 -7.66778e-06
-1.09502e-05 -7.66778e-06 -0.000278137
0.000964772 0.000258894 -1.51936e-05
0.000258894 1.29119e-05 -7.07963e-06
-1.51936e-05 -7.07963e-06 -0.000200647
0.00148151 0.000447666 -3.61966e-06
0.000447666 0.000254404 5.71114e-07
-3.61966e-06 5.71114e-07 -4.76785e-05
0.000510316 0.000118239 -2.4532e-07
0.000118239 -2.64499e-05 1.20579e-06
-2.4532e-07 1.20579e-06 -0.000116564
0.000402645 -1.36465e-05 3.25922e-07
-1.36465e-05 -5.42079e-05 6.57561e-07
3.25922e-07 6.57561e-07 -0.000108385
0.00074247 0.000115633 3.452e-06
0.000115633 0.000168758 -8.74549e-07
3.452e-06 -8.74549e-07 -3.13423e-05
0.0011605 0.00021597 -1.14119e-07
0.00021597 -1.29473e-05 -3.11457e-07
-1.14119e-07 -3.11457e-07 -0.000199518
0.00105862 0.000261677 4.2437e-07
0.000261677 2.2635e-06 -2.20702e-07
4.2437e-07 -2.20702e-07 -0.00020771
0.00184905 0.000412545 -2.55399e-07
0.000412545 0.00021076 -1.37907e-07
-2.55399e-07 -1.37907e-07 -2.47273e-05
0.000669305 0.000218757 -3.10769e-07
0.000218757 3.05108e-05 5.92946e-08
-3.10769e-07 5.92946e-08 -0.000183023
0.00174299 0.000470539 -3.08713e-07
0.000470539 0.000311296 -3.40045e-07
-3.08713e-07 -3.40045e-07 2.31379e-05
0.00124991 0.000395571 4.08984e-07
0.000395571 0.000224837 -1.0118e-06
4.08984e-07 -1.0118e-06 -8.19645e-05
0.00152487 0.000529101 -4.98952e-07
0.000529101 0.000177978 1.65977e-06
-4.98952e-07 1.65977e-06 -0.000143576
0.000517397 -2.36173e-05 2.37983e-06
-2.36173e-05 1.23484e-05 9.68456e-06
2.37983e-06 9.68456e-06 -3.12036e-05
0.00103321 0.000186653 5.34002e-06
0.000186653 0.000311652 3.38763e-06
5.34002e-06 3.38763e-06 9.30248e-05
0.00102165 6.42616e-05 2.16443e-07
6.42616e-05 0.000334185 6.583e-06
2.16443e-07 6.583e-06 0.00018057
0.00112144 0.000199893 1.57601e-06
0.000199893 0.000424908 1.77836e-07
1.57601e-06 1.77836e-07 0.000148552
0.00192225 0.000367549 9.04952e-07
0.000367549 0.000197043 -1.50587e-06
9.04952e-07 -1.50587e-06 -5.87008e-06
0.00180111 0.000450477 4.51192e-06
0.000450477 0.000258312 4.76645e-08
4.51192e-06 4.76645e-08 -7.67747e-06
0.00206938 0.000482699 1.3e-07
0.000482699 0.000252561 -9.09135e-07
1.3e-07 -9.09135e-07 2.85358e-05
0.000906932 0.000301732 2.65698e-06
0.000301732 6.56918e-05 1.19136e-06
2.65698e-06 1.19136e-06 -0.000201064
0.00220596 0.000598834 -3.78986e-06
0.000598834 0.000486059 -1.90721e-06
-3.78986e-06 -1.90721e-06 0.000184162
0.00181408 0.000559846 -4.04063e-06
0.000559846 0.000485351 -5.89612e-06
-4.04063e-06 -5.89612e-06 0.000115177
0.00184756 0.000576154 -1.15105e-06
0.000576154 0.000282372 -1.42333e-06
-1.15105e-06 -1.42333e-06 -3.16127e-05
0.000559457 4.54508e-05 2.35247e-06
4.54508e-05 4.94452e-05 4.3485e-06
2.35247e-06 4.3485e-06 -2.45885e-05
0.000475611 -1.96977e-05 1.84896e-06
-1.96977e-05 -2.96242e-05 7.03123e-06
1.84896e-06 7.03123e-06 -5.84356e-05
0.00282352 -0.000121559 4.4625e-05
-0.000121559 0.00147092 4.0984e-06
4.4625e-05 4.0984e-06 0.00147003
0.00305723 -0.000144967 8.54845e-06
-0.000144967 0.00162867 -8.49789e-07
8.54845e-06 -8.49789e-07 0.00162139
0.00335123 -0.000173512 -5.60202e-05
-0.000173512 0.00182631 -4.02884e-06
-5.60202e-05 -4.02884e-06 0.0018106
0.00043672 -0.000105254 1.7094e-05
-0.000105254 -4.2626e-05 -1.43604e-05
1.7094e-05 -1.43604e-05 -0.000115024
0.00504067 0.00018072 0.000141612
0.00018072 0.0029124 -1.63893e-05
0.000141612 -1.63893e-05 0.00288787
0.000503564 -0.000123536 5.04935e-07
-0.000123536 -2.30512e-05 3.57357e-07
5.04935e-07 3.57357e-07 -0.000113487
0.0057755 0.000135454 4.90166e-06
0.000135454 0.00335144 9.17038e-07
4.90166e-06 9.17038e-07 0.00333672
0.000416342 0.000110259 -1.89372e-05
0.000110259 -0.000199612 -7.67838e-06
-1.89372e-05 -7.67838e-06 -0.00030462
0.000425639 3.46843e-05 -1.80202e-05
3.46843e-05 -0.000194058 -3.41698e-06
-1.80202e-05 -3.41698e-06 -0.000282948
0.00110603 0.00014703 -1.19276e-05
0.00014703 -6.75942e-05 -2.15011e-06
-1.19276e-05 -2.15011e-06 -0.000226397
0.00105963 7.03653e-05 -1.18285e-05
7.03653e-05 -7.93552e-05 -8.34471e-07
-1.18285e-05 -8.34471e-07 -0.000214141
0.000451608 -7.65311e-06 -1.911e-05
-7.65311e-06 -0.000175873 -8.60833e-07
-1.911e-05 -8.60833e-07 -0.000254529
0.00604036 -9.99748e-05 -0.000314445
-9.99748e-05 0.00345838 5.45327e-06
-0.000314445 5.45327e-06 0.0034793
0.000440347 -2.32394e-06 8.67504e-08
-2.32394e-06 -0.000181929 -6.67661e-07
8.67504e-08 -6.67661e-07 -0.000259634
0.00105139 3.31491e-05 -8.02923e-08
3.31491e-05 -6.72722e-05 4.93063e-08
-8.02923e-08 4.93063e-08 -0.000195522
0.00112377 0.000107021 -1.2476e-07
0.000107021 -4.79104e-05 -4.91958e-08
-1.2476e-07 -4.91958e-08 -0.000192286
0.00184117 0.000107043 -1.20809e-07
0.000107043 8.195e-05 2.37e-07
-1.20809e-07 2.37e-07 -2.34599e-05
0.00117198 0.000183201 -2.47287e-07
0.000183201 -2.23914e-05 -2.57404e-07
-2.47287e-07 -2.57404e-07 -0.000194636
0.00190316 0.000246356 -1.73237e-07
0.000246356 0.000121578 1.32121e-07
-1.73237e-07 1.32121e-07 -2.30927e-05
0.00104549 -3.56103e-06 1.15215e-05
-3.56103e-06 -6.36154e-05 -2.60086e-07
1.15215e-05 -2.60086e-07 -0.000190375
0.00180316 5.09761e-05 1.06073e-06
5.09761e-05 5.87048e-05 -4.25111e-08
1.06073e-06 -4.25111e-08 -3.82591e-05
0.00188356 0.000175917 3.54396e-07
0.000175917 0.000105276 -7.84377e-07
3.54396e-07 -7.84377e-07 -1.65021e-05
0.00199713 0.000135187 3.7643e-06
0.000135187 5.99189e-05 1.03332e-06
3.7643e-06 1.03332e-06 5.45102e-06
0.00195775 0.000313674 8.74352e-07
0.000313674 0.000171299 -9.66394e-07
8.74352e-07 -9.66394e-07 -8.04786e-07
0.00204754 0.000277011 2.57417e-06
0.000277011 0.000104871 -3.44507e-07
2.57417e-06 -3.44507e-07 -7.00621e-07
0.000425036 -2.66841e-06 -1.82819e-05
-2.66841e-06 -0.000184907 8.94503e-07
-1.82819e-05 8.94503e-07 -0.000266969
0.0019008 -4.22099e-05 -0.000126597
-4.22099e-05 0.000741449 5.83625e-06
-0.000126597 5.83625e-06 0.000676975
0.0010729 -5.86988e-05 -1.80372e-05
-5.86988e-05 -5.79616e-05 1.61549e-06
-1.80372e-05 1.61549e-06 -0.000186645
0.00196747 -0.000165125 -2.82907e-05
-0.000165125 0.000496933 4.24836e-06
-2.82907e-05 4.24836e-06 0.000346502
0.00657757 8.53482e-05 -0.000248857
8.53482e-05 0.00382314 2.42508e-05
-0.000248857 2.42508e-05 0.00381773
0.00320861 -0.000255458 -0.000153356
-0.000255458 0.00161972 2.34292e-05
-0.000153356 2.34292e-05 0.00152151
0.00206598 -0.000361497 -2.63046e-05
-0.000361497 0.000747101 1.096e-05
-2.63046e-05 1.096e-05 0.000508364
0.00197105 -0.000250512 -3.12541e-05
-0.000250512 0.000517455 7.96197e-06
-3.12541e-05 7.96197e-06 0.000340278
0.00194611 -0.000301094 -2.48455e-06
-0.000301094 0.000215801 -3.52789e-07
-2.48455e-06 -3.52789e-07 5.12783e-05
0.00193598 -0.000396231 -3.80481e-06
-0.000396231 0.000297643 8.03705e-07
-3.80481e-06 8.03705e-07 6.54951e-05
0.00175108 -0.000462521 -7.12704e-06
-0.000462521 0.000293014 4.32565e-07
-7.12704e-06 4.32565e-07 3.17496e-06
0.00198676 -0.000494403 -5.67594e-07
-0.000494403 0.000273258 -1.98593e-06
-5.67594e-07 -1.98593e-06 2.57027e-05
0.000443729 -0.000159393 -2.03806e-05
-0.000159393 -7.61999e-05 1.7823e-05
-2.03806e-05 1.7823e-05 -0.000182598
0.000702781 -0.000188438 -6.30319e-07
-0.000188438 0.000126574 -2.45922e-07
-6.30319e-07 -2.45922e-07 -0.000100951
0.00105371 -2.63781e-05 3.18364e-07
-2.63781e-05 -6.12426e-05 6.91478e-08
3.18364e-07 6.91478e-08 -0.000186543
0.00187684 -0.000113675 -9.15846e-06
-0.000113675 0.000441561 1.09446e-06
-9.15846e-06 1.09446e-06 0.000310866
0.00185775 -0.000111497 1.47231e-07
-0.000111497 0.000111522 -2.28094e-07
1.47231e-07 -2.28094e-07 1.48073e-06
0.00180481 -0.000239625 -2.5438e-06
-0.000239625 0.000112033 7.80376e-07
-2.5438e-06 7.80376e-07 -3.67806e-05
0.000434751 -0.000184347 1.75837e-07
-0.000184347 -9.95791e-05 1.45848e-07
1.75837e-07 1.45848e-07 -0.000213254
0.000806857 -0.000250179 -4.65025e-07
-0.000250179 4.33369e-05 -1.58834e-07
-4.65025e-07 -1.58834e-07 -0.000183455
0.00143166 -0.000469443 1.92218e-06
-0.000469443 0.000191157 -3.558e-07
1.92218e-06 -3.558e-07 -0.000132385
0.00186117 -0.000349784 -2.94538e-06
-0.000349784 0.000201317 8.61952e-07
-2.94538e-06 8.61952e-07 -9.4274e-07
0.00204684 -0.000342279 2.21589e-06
-0.000342279 0.000159194 -9.9558e-07
2.21589e-06 -9.9558e-07 2.50288e-05
0.00216152 -0.000561566 -6.65067e-07
-0.000561566 0.000436148 -5.90274e-07
-6.65067e-07 -5.90274e-07 0.000136736
0.00197856 -0.000454373 5.97285e-07
-0.000454373 0.000214153 1.88594e-08
5.97285e-07 1.88594e-08 6.02476e-06
0.00209075 -0.000522673 6.6781e-07
-0.000522673 0.000283265 8.72516e-07
6.6781e-07 8.72516e-07 6.43377e-05
0.000633866 -0.000199546 3.98319e-07
-0.000199546 6.50315e-05 -3.91281e-07
3.98319e-07 -3.91281e-07 -0.000179684
0.000487491 -0.000185734 8.61803e-07
-0.000185734 -4.35735e-05 5.88068e-07
8.61803e-07 5.88068e-07 -0.000310249
0.000715569 -0.000138697 6.50459e-07
-0.000138697 0.000158195 9.52339e-08
6.50459e-07 9.52339e-08 -4.51618e-05
0.00180755 -5.11765e-05 4.48841e-07
-5.11765e-05 8.17851e-05 6.92333e-08
4.48841e-07 6.92333e-08 -2.31589e-05
0.00192542 -0.00017405 -2.23642e-06
-0.00017405 0.00016343 7.87708e-07
-2.23642e-06 7.87708e-07 4.10565e-05
0.00198884 -0.000128803 5.63624e-06
-0.000128803 6.90677e-05 -1.08798e-06
5.63624e-06 -1.08798e-06 4.01711e-06
0.00196416 -0.000280424 7.88396e-07
-0.000280424 8.03988e-05 3.33617e-07
7.88396e-07 3.33617e-07 -2.3656e-05
0.00185087 -0.000402501 -8.89721e-07
-0.000402501 8.19598e-05 1.77572e-06
-8.89721e-07 1.77572e-06 -8.73362e-05
0.00219658 -0.000371979 3.85404e-06
-0.000371979 0.000195795 -1.18433e-06
3.85404e-06 -1.18433e-06 9.66316e-05
0.000647991 -0.000236055 6.38315e-06
-0.000236055 2.15943e-05 -7.01714e-06
6.38315e-06 -7.01714e-06 -0.000205605
0.00194745 -0.000480317 -5.49059e-07
-0.000480317 0.000140005 1.51178e-06
-5.49059e-07 1.51178e-06 -4.06405e-05
0.0012926 -0.000431397 7.88608e-06
-0.000431397 0.000247882 -2.9896e-06
7.88608e-06 -2.9896e-06 -7.81147e-05
0.00182983 -0.000618777 6.49856e-06
-0.000618777 0.000326995 1.90705e-06
6.49856e-06 1.90705e-06 -4.17747e-05
0.00223257 -0.00059176 3.76332e-06
-0.00059176 0.000434374 4.23627e-06
3.76332e-06 4.23627e-06 0.000150663
0.00227971 -0.000552502 -3.0678e-06
-0.000552502 0.000410596 2.41099e-06
-3.0678e-06 2.41099e-06 0.000200243
0.000439953 -0.000110135 -1.52748e-07
-0.000110135 -2.49601e-06 -6.06399e-06
-1.52748e-07 -6.06399e-06 -0.000170657
0.00118462 -0.000297034 8.0597e-07
-0.000297034 0.000310529 -2.05504e-06
8.0597e-07 -2.05504e-06 5.62437e-05
0.000515679 -0.000192537 2.69858e-07
-0.000192537 7.77152e-05 5.36764e-06
2.69858e-07 5.36764e-06 -0.000239182
0.00169841 -0.000379441 -2.54377e-06
-0.000379441 0.000656037 2.93725e-06
-2.54377e-06 2.93725e-06 0.000355772
0.00112063 0.000215945 -1.37273e-05
0.000215945 -3.33357e-05 -4.65385e-06
-1.37273e-05 -4.65385e-06 -0.000221094
0.000347919 -4.0414e-05 2.26451e-06
-4.0414e-05 -7.30347e-05 -1.22275e-05
2.26451e-06 -1.22275e-05 -0.000134153
0.000427505 9.79389e-05 -1.98841e-05
9.79389e-05 -7.74195e-05 -1.43877e-05
-1.98841e-05 -1.43877e-05 -0.000161526
-5.76299e-05 9.6335e-05 -2.34989e-06
9.6335e-05 -0.000318232 -4.145e-06
-2.34989e-06 -4.145e-06 -0.000521353
0.00102984 0.000257986 -1.65887e-05
0.000257986 -7.56676e-06 -7.07202e-06
-1.65887e-05 -7.07202e-06 -0.000217262
0.00181827 0.000410327 -3.65691e-06
0.000410327 0.00018986 4.29209e-08
-3.65691e-06 4.29209e-08 -4.57245e-05
0.000640269 0.000219614 -6.18281e-06
0.000219614 1.2294e-05 -4.16655e-06
-6.18281e-06 -4.16655e-06 -0.000199562
0.00137076 0.000408557 -3.41443e-06
0.000408557 0.000303368 -1.70821e-06
-3.41443e-06 -1.70821e-06 -5.61698e-06
0.00173752 0.000468465 -3.91578e-06
0.000468465 0.000302678 3.83975e-07
-3.91578e-06 3.83975e-07 1.3579e-05
0.00148032 0.000533572 3.21492e-06
0.000533572 0.000139684 5.81065e-06
3.21492e-06 5.81065e-06 -0.000180741
0.000473489 -3.93654e-05 -3.64148e-06
-3.93654e-05 -7.02844e-06 8.1475e-07
-3.64148e-06 8.1475e-07 -5.42068e-05
0.000664903 0.000203016 -1.45817e-06
0.000203016 9.73793e-05 -6.62465e-07
-1.45817e-06 -6.62465e-07 -0.000130931
0.000605854 6.55637e-05 3.51277e-07
6.55637e-05 7.21736e-05 2.25855e-07
3.51277e-07 2.25855e-07 -7.22947e-05
0.000810479 0.000172659 4.78546e-07
0.000172659 0.000217686 -7.72911e-07
4.78546e-07 -7.72911e-07 -4.87232e-05
0.00190335 0.000365923 -1.19999e-06
0.000365923 0.000185109 -1.01206e-06
-1.19999e-06 -1.01206e-06 -1.78846e-05
0.00176182 0.000448529 -2.63547e-07
0.000448529 0.000232609 -2.26337e-07
-2.63547e-07 -2.26337e-07 -3.39238e-05
0.00203673 0.00047849 2.57539e-07
0.00047849 0.000236001 2.08272e-07
2.57539e-07 2.08272e-07 1.28594e-05
0.001074 0.000316751 2.85322e-06
0.000316751 0.000186202 2.22863e-07
2.85322e-06 2.22863e-07 -8.19887e-05
0.00209558 0.000580297 -6.40187e-08
0.000580297 0.000426721 3.78442e-07
-6.40187e-08 3.78442e-07 0.000126559
0.00155794 0.000536695 -1.1173e-06
0.000536695 0.000326474 -1.78549e-06
-1.1173e-06 -1.78549e-06 -4.17597e-05
0.00186585 0.000568879 -4.15677e-06
0.000568879 0.000298619 1.92253e-06
-4.15677e-06 1.92253e-06 -7.96016e-06
0.000534175 -2.65881e-05 1.52264e-06
-2.65881e-05 1.48844e-05 8.17382e-06
1.52264e-06 8.17382e-06 -2.00381e-05
0.000851863 5.5733e-05 2.23946e-06
5.5733e-05 0.000225331 6.55546e-06
2.23946e-06 6.55546e-06 0.000113023
0.000774341 0.000235088 1.12448e-06
0.000235088 7.35315e-05 2.27866e-06
1.12448e-06 2.27866e-06 -0.000164377
0.00161226 0.000172734 4.15868e-07
0.000172734 0.000777715 1.34644e-06
4.15868e-07 1.34644e-06 0.000511284
0.00126902 0.000366741 -1.25452e-06
0.000366741 0.000448393 -1.10068e-06
-1.25452e-06 -1.10068e-06 0.000184435
0.00212266 0.000431233 -5.27073e-07
0.000431233 0.000219587 -2.81042e-06
-5.27073e-07 -2.81042e-06 3.57838e-05
0.0020319 0.000538489 -7.30532e-07
0.000538489 0.000300277 -1.20816e-06
-7.30532e-07 -1.20816e-06 3.43903e-05
0.00206353 0.000523746 -1.99025e-06
0.000523746 0.000231295 -9.54121e-07
-1.99025e-06 -9.54121e-07 1.42461e-05
0.00109177 0.000446048 4.99446e-06
0.000446048 0.00017331 1.01006e-06
4.99446e-06 1.01006e-06 -0.000175477
0.0022787 0.000645847 -2.30847e-06
0.000645847 0.000481497 -1.24714e-06
-2.30847e-06 -1.24714e-06 0.000179755
0.00161055 0.000594105 6.08426e-06
0.000594105 0.000292048 -3.43099e-06
6.08426e-06 -3.43099e-06 -7.34219e-05
0.000598606 4.23162e-05 2.2473e-06
4.23162e-05 7.21744e-05 4.68313e-06
2.2473e-06 4.68313e-06 -7.6769e-06
0.000626167 9.08194e-05 -2.11785e-07
9.08194e-05 0.00012898 2.42513e-06
-2.11785e-07 2.42513e-06 2.80527e-06
0.000587174 5.48627e-05 2.32727e-06
5.48627e-05 7.33746e-05 4.14158e-06
2.32727e-06 4.14158e-06 1.70177e-06
0.000529574 9.21034e-06 -6.66765e-07
9.21034e-06 3.19729e-05 -4.20784e-08
-6.66765e-07 -4.20784e-08 -4.21613e-05
0.00131497 -3.64764e-05 1.40395e-06
-3.64764e-05 0.000497568 4.03059e-06
1.40395e-06 4.03059e-06 0.000475506
0.000900441 -3.18674e-05 3.15248e-07
-3.18674e-05 0.00023871 -1.85068e-07
3.15248e-07 -1.85068e-07 0.000211912
0.000846075 -4.99903e-05 3.32914e-05
-4.99903e-05 0.00020938 9.24505e-06
3.32914e-05 9.24505e-06 0.000207546
0.00279306 -0.000123944 7.07078e-06
-0.000123944 0.00145179 -6.77223e-07
7.07078e-06 -6.77223e-07 0.00145026
0.00297873 -0.000146889 -4.46038e-05
-0.000146889 0.00157975 -3.9429e-06
-4.46038e-05 -3.9429e-06 0.00157184
0.000383061 -5.71949e-05 8.40099e-06
-5.71949e-05 -6.16662e-05 -1.17764e-05
8.40099e-06 -1.17764e-05 -0.000119651
0.00443235 0.000169165 0.000104092
0.000169165 0.00251751 -9.91198e-06
0.000104092 -9.91198e-06 0.00249861
0.000478681 -0.000100918 -1.61724e-06
-0.000100918 -1.72844e-05 6.05146e-07
-1.61724e-06 6.05146e-07 -9.37418e-05
0.00520632 0.00014536 -9.17859e-06
0.00014536 0.00300379 -9.35683e-07
-9.17859e-06 -9.35683e-07 0.00298775
0.000497567 -0.000127929 -2.01609e-05
-0.000127929 -3.04042e-05 1.55202e-05
-2.01609e-05 1.55202e-05 -0.000122555
0.00598668 0.00013617 -0.000209567
0.00013617 0.0034877 2.3639e-05
-0.000209567 2.3639e-05 0.00347084
0.0011135 0.000183897 -1.20694e-05
0.000183897 -5.62175e-05 -3.20793e-06
-1.20694e-05 -3.20793e-06 -0.000229988
0.00109395 0.000110734 -1.19528e-05
0.000110734 -6.87118e-05 -1.35218e-06
-1.19528e-05 -1.35218e-06 -0.000214367
0.00189993 0.000241517 -2.09882e-06
0.000241517 0.000119856 9.42528e-07
-2.09882e-06 9.42528e-07 -2.41658e-05
0.00183882 0.000105493 -4.74215e-07
0.000105493 8.75556e-05 9.98298e-07
-4.74215e-07 9.98298e-07 -1.77241e-05
0.00103959 3.80317e-05 -1.15656e-05
3.80317e-05 -7.70257e-05 -3.42555e-07
-1.15656e-05 -3.42555e-07 -0.000205766
0.000404219 2.89237e-05 -1.90444e-05
2.89237e-05 -0.000206345 -6.28177e-07
-1.90444e-05 -6.28177e-07 -0.000282697
0.00103757 1.9786e-07 -6.31073e-08
1.9786e-07 -6.88764e-05 -6.23592e-08
-6.31073e-08 -6.23592e-08 -0.000195678
0.00181476 5.17656e-05 -1.084e-07
5.17656e-05 6.97712e-05 2.09347e-07
-1.084e-07 2.09347e-07 -2.72144e-05
0.00188277 0.000172962 -7.43269e-08
0.000172962 0.000107202 1.62616e-08
-7.43269e-08 1.62616e-08 -1.41919e-05
0.00199333 0.000133429 -9.17402e-08
0.000133429 4.77099e-05 7.06788e-08
-9.17402e-08 7.06788e-08 -3.84439e-06
0.00193051 0.000310774 -4.37726e-07
0.000310774 0.00015878 -2.54672e-08
-4.37726e-07 -2.54672e-08 -1.31583e-05
0.00204043 0.00027588 -4.97478e-07
0.00027588 0.000103604 1.36874e-07
-4.97478e-07 1.36874e-07 -2.09772e-06
0.00179426 -6.81467e-07 1.16141e-06
-6.81467e-07 6.37124e-05 1.73284e-07
1.16141e-06 1.73284e-07 -3.16338e-05
0.00198012 6.38199e-05 3.10103e-06
6.38199e-05 3.95045e-05 4.14608e-07
3.10103e-06 4.14608e-07 -1.69746e-07
0.0019841 0.000200716 3.47769e-06
0.000200716 5.45016e-05 6.96052e-07
3.47769e-06 6.96052e-07 -1.9662e-05
0.00202207 0.000123987 6.49482e-06
0.000123987 3.46686e-05 8.88443e-07
6.49482e-06 8.88443e-07 1.30969e-05
0.00214069 0.000367104 8.06903e-07
0.000367104 0.000192336 -1.04971e-06
8.06903e-07 -1.04971e-06 4.67799e-05
0.00205212 0.000290446 3.07727e-06
0.000290446 2.45877e-05 1.09172e-06
3.07727e-06 1.09172e-06 -3.69698e-05
0.00103893 -2.24047e-05 -1.20731e-05
-2.24047e-05 -7.25556e-05 6.45286e-07
-1.20731e-05 6.45286e-07 -0.000195145
0.00189699 -0.000114848 -2.77108e-05
-0.000114848 0.000452211 3.03558e-06
-2.77108e-05 3.03558e-06 0.00032163
0.00192335 -0.000107053 -2.298e-06
-0.000107053 0.000150267 -4.07151e-07
-2.298e-06 -4.07151e-07 4.55032e-05
0.00180446 -0.00023846 -2.76686e-06
-0.00023846 0.000118528 6.7022e-07
-2.76686e-06 6.7022e-07 -3.67259e-05
0.00055591 -0.000212092 -2.56801e-05
-0.000212092 -2.57e-05 1.9637e-05
-2.56801e-05 1.9637e-05 -0.000140912
0.000856828 -0.000255936 -1.18507e-05
-0.000255936 7.35813e-05 8.11461e-06
-1.18507e-05 8.11461e-06 -0.000155764
0.00144647 -0.000470588 -6.41238e-06
-0.000470588 0.000205399 1.54657e-06
-6.41238e-06 1.54657e-06 -0.000119944
0.0019129 -0.00035121 -5.25482e-06
-0.00035121 0.000236209 1.16427e-06
-5.25482e-06 1.16427e-06 3.08735e-05
0.00201511 -0.000343506 9.39624e-08
-0.000343506 0.000129224 -1.1226e-06
9.39624e-08 -1.1226e-06 2.11725e-07
0.00199242 -0.000455052 -4.01075e-07
-0.000455052 0.000224109 -1.30169e-06
-4.01075e-07 -1.30169e-06 1.58233e-05
0.00221704 -0.000569805 -2.66869e-06
-0.000569805 0.000468626 -3.71166e-06
-2.66869e-06 -3.71166e-06 0.0001705
0.0019331 -0.000512083 2.5827e-06
-0.000512083 0.000178587 -2.82837e-06
2.5827e-06 -2.82837e-06 -3.95431e-05
0.000872751 -0.000203726 -5.47463e-06
-0.000203726 0.000205231 4.40718e-06
-5.47463e-06 4.40718e-06 -3.11485e-05
0.000301232 -0.000155422 7.79803e-07
-0.000155422 -0.000167644 -2.14127e-06
7.79803e-07 -2.14127e-06 -0.000430496
0.000698149 -0.000163341 -6.73271e-07
-0.000163341 0.000144522 1.14763e-06
-6.73271e-07 1.14763e-06 -6.03781e-05
0.00183544 -4.81872e-05 2.34093e-07
-4.81872e-05 9.71874e-05 5.83089e-09
2.34093e-07 5.83089e-09 -4.45059e-06
0.00189552 -0.000180782 -2.85811e-06
-0.000180782 0.000144076 4.12635e-07
-2.85811e-06 4.12635e-07 2.0349e-05
0.00199735 -0.000126015 2.65316e-06
-0.000126015 6.86768e-05 -4.30721e-07
2.65316e-06 -4.30721e-07 9.80122e-06
0.00195195 -0.000272662 -1.09225e-06
-0.000272662 7.53116e-05 4.90012e-07
-1.09225e-06 4.90012e-07 -3.08772e-05
0.000745532 -0.000240621 7.93502e-07
-0.000240621 8.1141e-05 -3.1357e-07
7.93502e-07 -3.1357e-07 -0.000148992
0.00135752 -0.000441027 -8.84628e-07
-0.000441027 0.00027988 -2.84649e-07
-8.84628e-07 -2.84649e-07 -4.7794e-05
0.00179158 -0.000611461 7.50178e-07
-0.000611461 0.000318832 8.38422e-07
7.50178e-07 8.38422e-07 -5.1495e-05
0.0018563 -0.00040021 -1.35053e-06
-0.00040021 9.12014e-05 1.02694e-06
-1.35053e-06 1.02694e-06 -8.3407e-05
0.00212885 -0.000372384 9.38653e-07
-0.000372384 0.000144521 -4.20475e-07
9.38653e-07 -4.20475e-07 4.95283e-05
0.00211372 -0.000588982 -3.02911e-07
-0.000588982 0.000349502 5.28332e-07
-3.02911e-07 5.28332e-07 6.41018e-05
0.00197712 -0.000481482 -1.88705e-07
-0.000481482 0.000157206 6.49504e-07
-1.88705e-07 6.49504e-07 -2.38121e-05
0.00221094 -0.000537261 6.8135e-07
-0.000537261 0.000358324 -6.27728e-07
6.8135e-07 -6.27728e-07 0.000154426
0.00105308 -0.000291507 -4.53897e-07
-0.000291507 0.000238448 1.02479e-06
-4.53897e-07 1.02479e-06 -2.4666e-05
0.00124156 -0.000339167 -7.88621e-07
-0.000339167 0.000367011 2.00696e-06
-7.88621e-07 2.00696e-06 6.87117e-05
0.000678154 -0.000122676 -3.31805e-07
-0.000122676 0.000146042 -6.00325e-07
-3.31805e-07 -6.00325e-07 -2.85713e-05
0.000101745 -0.000109132 9.7249e-07
-0.000109132 -0.000201186 -2.35251e-06
9.7249e-07 -2.35251e-06 -0.000491736
0.0020033 -6.54341e-05 4.67799e-06
-6.54341e-05 7.27841e-05 -7.59045e-07
4.67799e-06 -7.59045e-07 2.46477e-05
0.00191935 -0.000205808 3.49111e-06
-0.000205808 1.97893e-05 -9.86526e-07
3.49111e-06 -9.86526e-07 -6.38872e-05
0.00198459 -0.000118875 6.76623e-06
-0.000118875 4.76934e-05 -1.27558e-06
6.76623e-06 -1.27558e-06 2.58457e-05
0.00206047 -0.000301654 1.38162e-06
-0.000301654 4.70364e-05 -6.87117e-07
1.38162e-06 -6.87117e-07 -2.24459e-06
0.00191807 -0.00043043 -7.73079e-07
-0.00043043 7.35071e-05 8.28868e-08
-7.73079e-07 8.28868e-08 -6.80006e-05
0.00209341 -0.000384204 4.35775e-06
-0.000384204 8.61353e-05 -1.51635e-06
4.35775e-06 -1.51635e-06 1.18329e-05
0.00131944 -0.00037671 5.72518e-06
-0.00037671 0.000358042 -5.27979e-06
5.72518e-06 -5.27979e-06 5.96256e-05
0.00198492 -0.000510357 -3.20419e-06
-0.000510357 0.00013897 -1.46178e-08
-3.20419e-06 -1.46178e-08 -2.31494e-05
0.00157084 -0.000607363 -2.76252e-06
-0.000607363 0.000343013 3.10783e-06
-2.76252e-06 3.10783e-06 -6.05743e-05
0.00202132 -0.000681601 4.85279e-06
-0.000681601 0.000399061 2.96146e-06
4.85279e-06 2.96146e-06 1.9536e-05
0.00206673 -0.000597781 -1.03725e-06
-0.000597781 0.000275709 4.52349e-06
-1.03725e-06 4.52349e-06 -6.46894e-07
0.00229401 -0.000571226 -1.1155e-05
-0.000571226 0.000381133 -1.93962e-06
-1.1155e-05 -1.93962e-06 0.000167264
0.000486732 -0.000108302 -1.21353e-06
-0.000108302 2.44402e-05 -6.92872e-06
-1.21353e-06 -6.92872e-06 -0.000111917
3.97113e-05 -0.000135716 -4.04834e-06
-0.000135716 -0.000164149 -1.18052e-06
-4.04834e-06 -1.18052e-06 -0.000458957
0.0014067 -0.00041225 -7.43176e-09
-0.00041225 0.000436944 -3.53426e-06
-7.43176e-09 -3.53426e-06 0.000116352
0.00246218 -0.000408849 -3.85827e-06
-0.000408849 0.00121744 1.011e-05
-3.85827e-06 1.011e-05 0.000890039
0.00169036 -0.000430536 -1.07429e-05
-0.000430536 0.000646915 7.11703e-06
-1.07429e-05 7.11703e-06 0.000296862
0.000322596 -4.48281e-05 -4.99277e-07
-4.48281e-05 -0.000100049 -9.1808e-06
-4.99277e-07 -9.1808e-06 -0.000146171
0.00187545 0.000363376 -2.9201e-06
0.000363376 0.000168282 -3.2226e-07
-2.9201e-06 -3.2226e-07 -3.46482e-05
0.000263689 3.3409e-05 -1.22412e-06
3.3409e-05 -0.000134356 -6.19588e-06
-1.22412e-06 -6.19588e-06 -0.00027225
0.00043377 0.000198548 -6.71475e-06
0.000198548 -6.87215e-05 -1.25582e-06
-6.71475e-06 -1.25582e-06 -0.000283368
0.000550665 0.000156412 -6.2924e-07
0.000156412 3.98991e-05 7.23599e-07
-6.2924e-07 7.23599e-07 -0.00021515
0.00174408 0.00044845 -4.55841e-06
0.00044845 0.000220078 -1.5717e-07
-4.55841e-06 -1.5717e-07 -4.72847e-05
0.00200685 0.000474632 1.09351e-06
0.000474632 0.000220824 1.48648e-06
1.09351e-06 1.48648e-06 -1.51145e-06
0.00142804 0.000362749 -2.35501e-06
0.000362749 0.000427146 -3.39636e-06
-2.35501e-06 -3.39636e-06 0.000146748
0.001401 0.00053063 5.57549e-07
0.00053063 0.000220786 2.76665e-06
5.57549e-07 2.76665e-06 -0.000150721
0.00198823 0.000561571 1.99886e-06
0.000561571 0.000368052 3.06887e-06
1.99886e-06 3.06887e-06 6.97846e-05
0.00194247 0.000571818 3.40862e-06
0.000571818 0.000348839 8.83714e-06
3.40862e-06 8.83714e-06 4.64762e-05
0.000460144 -2.28731e-05 -9.3046e-07
-2.28731e-05 -3.09781e-05 2.92937e-07
-9.3046e-07 2.92937e-07 -6.50934e-05
0.000597491 4.06942e-05 3.45504e-07
4.06942e-05 7.14165e-05 3.40066e-07
3.45504e-07 3.40066e-07 -3.7419e-05
0.00094986 0.000267597 7.30717e-07
0.000267597 0.000185438 1.63154e-06
7.30717e-07 1.63154e-06 -5.488e-05
0.000700469 0.000112229 2.85201e-07
0.000112229 0.000200974 -9.45617e-07
2.85201e-07 -9.45617e-07 -5.09035e-05
0.000717503 0.000266096 -1.7432e-06
0.000266096 6.22928e-05 2.34212e-06
-1.7432e-06 2.34212e-06 -0.000167499
0.00209283 0.000429795 -1.6306e-06
0.000429795 0.000201024 -1.7819e-06
-1.6306e-06 -1.7819e-06 1.73944e-05
0.00199918 0.000535489 5.73754e-07
0.000535489 0.000281902 1.5757e-07
5.73754e-07 1.5757e-07 1.65651e-05
0.00200097 0.000519975 1.68165e-06
0.000519975 0.000194223 1.58493e-07
1.68165e-06 1.58493e-07 -2.26405e-05
0.00137243 0.000474548 2.36456e-06
0.000474548 0.000356996 4.36408e-07
2.36456e-06 4.36408e-07 -7.482e-07
0.00216422 0.000632337 2.2745e-06
0.000632337 0.000397901 3.53834e-07
2.2745e-06 3.53834e-07 9.69648e-05
0.00194909 0.000627739 -3.2838e-06
0.000627739 0.000503845 -4.22429e-08
-3.2838e-06 -4.22429e-08 0.000133625
0.00064245 3.91445e-05 7.16767e-07
3.91445e-05 9.96768e-05 5.2107e-06
7.16767e-07 5.2107e-06 8.80168e-06
0.00143633 0.000176501 2.6884e-07
0.000176501 0.000654865 2.8212e-06
2.6884e-07 2.8212e-06 0.000455866
0.000982852 0.000347704 -2.46322e-06
0.000347704 0.000170598 5.02622e-06
-2.46322e-06 5.02622e-06 -0.000105615
0.0012101 0.000183379 3.53758e-06
0.000183379 0.000493051 -4.19426e-06
3.53758e-06 -4.19426e-06 0.000213873
0.00216029 0.000327824 -4.80532e-06
0.000327824 0.000870902 2.27079e-07
-4.80532e-06 2.27079e-07 0.000645456
0.00207157 0.000451486 -4.01689e-06
0.000451486 0.000166055 -2.18411e-06
-4.01689e-06 -2.18411e-06 -3.76447e-06
0.0020522 0.000588316 -1.30105e-06
0.000588316 0.000277725 -4.85185e-07
-1.30105e-06 -4.85185e-07 1.38244e-05
0.00191248 0.000564854 5.88138e-06
0.000564854 9.83028e-05 1.4802e-07
5.88138e-06 1.4802e-07 -0.000125716
0.00125618 0.000544385 8.98431e-06
0.000544385 0.000299762 -2.65401e-06
8.98431e-06 -2.65401e-06 -0.000102999
0.00159942 0.000620365 1.11283e-05
0.000620365 0.000179754 -1.01219e-06
1.11283e-05 -1.01219e-06 -0.000156416
0.000571614 3.58049e-05 -3.66929e-07
3.58049e-05 5.23809e-05 2.1581e-07
-3.66929e-07 2.1581e-07 -2.55215e-05
0.000339698 5.79961e-05 3.74092e-07
5.79961e-05 -6.97347e-05 2.67192e-06
3.74092e-07 2.67192e-06 -0.000187555
0.00036115 5.66708e-05 -5.91139e-07
5.66708e-05 -5.31634e-05 -2.54453e-07
-5.91139e-07 -2.54453e-07 -0.000164863
0.00102956 0.000155703 -1.54619e-06
0.000155703 0.000385257 -1.13579e-06
-1.54619e-06 -1.13579e-06 0.000241288
0.000692481 0.000115373 1.68057e-06
0.000115373 0.00017483 2.67129e-06
1.68057e-06 2.67129e-06 5.21736e-05
0.000544366 6.34721e-05 2.53409e-06
6.34721e-05 5.206e-05 3.70583e-06
2.53409e-06 3.70583e-06 -1.82824e-05
0.00052937 1.5162e-05 -6.70786e-07
1.5162e-05 3.7082e-05 -5.47593e-08
-6.70786e-07 -5.47593e-08 -3.39634e-05
0.00128734 -2.1542e-05 1.28728e-06
-2.1542e-05 0.000479235 3.63821e-06
1.28728e-06 3.63821e-06 0.000460246
0.00055032 2.50977e-05 -1.60067e-06
2.50977e-05 3.95795e-05 -4.44045e-06
-1.60067e-06 -4.44045e-06 -3.11422e-05
0.00134704 -3.11824e-05 -8.14333e-06
-3.11824e-05 0.000517105 -1.57915e-06
-8.14333e-06 -1.57915e-06 0.000496458
0.000797948 -3.62775e-05 3.29756e-05
-3.62775e-05 0.000171573 9.10409e-06
3.29756e-05 9.10409e-06 0.000174216
0.00137614 -3.85975e-05 -1.45225e-05
-3.85975e-05 0.00053959 -5.43543e-06
-1.45225e-05 -5.43543e-06 0.000516001
0.00171934 -7.55212e-05 3.22376e-05
-7.55212e-05 0.000763078 1.51061e-06
3.22376e-05 1.51061e-06 0.00076391
0.00270063 -0.000119616 -3.85204e-05
-0.000119616 0.00139216 -4.26625e-06
-3.85204e-05 -4.26625e-06 0.00139164
0.000304233 8.08428e-05 -6.73073e-06
8.08428e-05 -8.19153e-05 -9.71318e-06
-6.73073e-06 -9.71318e-06 -0.00014045
0.000439387 -3.99926e-05 -4.70457e-07
-3.99926e-05 -2.18346e-05 6.97242e-07
-4.70457e-07 6.97242e-07 -8.55265e-05
0.00356728 0.000184985 1.37726e-05
0.000184985 0.00196665 -7.17239e-06
1.37726e-05 -7.17239e-06 0.00194394
0.00459468 0.000132532 -1.55791e-05
0.000132532 0.00261403 -1.43078e-06
-1.55791e-05 -1.43078e-06 0.00260344
0.000595502 -0.000103469 -1.6177e-05
-0.000103469 5.15003e-05 1.36623e-05
-1.6177e-05 1.36623e-05 -2.79595e-05
0.00545084 0.000133138 -0.000182217
0.000133138 0.00315605 2.1339e-05
-0.000182217 2.1339e-05 0.00314114
0.00190145 0.00030829 -1.93222e-06
0.00030829 0.000144055 9.92986e-07
-1.93222e-06 9.92986e-07 -2.78432e-05
0.00184522 0.000172174 -1.01111e-06
0.000172174 8.48971e-05 8.50293e-07
-1.01111e-06 8.50293e-07 -3.68166e-05
0.00203134 0.000276115 -2.35778e-06
0.000276115 9.96359e-05 9.01134e-07
-2.35778e-06 9.01134e-07 -6.47325e-06
0.00199001 0.000131529 -3.48641e-06
0.000131529 3.54711e-05 -4.3554e-07
-3.48641e-06 -4.3554e-07 -1.32234e-05
0.00182441 5.37627e-05 -9.64688e-07
5.37627e-05 8.03851e-05 4.95725e-07
-9.64688e-07 4.95725e-07 -1.66433e-05
0.00103971 4.98839e-06 -1.12056e-05
4.98839e-06 -6.75847e-05 3.33959e-08
-1.12056e-05 3.33959e-08 -0.000194322
0.00180595 2.73447e-06 7.7316e-08
2.73447e-06 7.22569e-05 1.83716e-07
7.7316e-08 1.83716e-07 -2.31443e-05
0.00197394 5.50502e-05 -6.5056e-07
5.50502e-05 3.75092e-05 2.83757e-09
-6.5056e-07 2.83757e-09 -2.28803e-06
0.00200779 0.000201345 -3.61042e-07
0.000201345 6.77859e-05 3.64563e-07
-3.61042e-07 3.64563e-07 -6.552e-06
0.00199266 0.000122167 2.99277e-07
0.000122167 9.96549e-06 -6.45776e-08
2.99277e-07 -6.45776e-08 -6.26297e-06
0.00210546 0.00036747 -4.2544e-07
0.00036747 0.000163443 -3.05559e-08
-4.2544e-07 -3.05559e-08 1.76524e-05
0.00204159 0.000284047 1.49647e-07
0.000284047 1.98879e-05 2.29049e-07
1.49647e-07 2.29049e-07 -4.07419e-05
0.00196822 -5.28729e-06 3.9896e-06
-5.28729e-06 4.10254e-05 -1.07267e-07
3.9896e-06 -1.07267e-07 -8.17808e-07
0.0019933 5.2907e-05 5.67437e-06
5.2907e-05 2.95722e-05 1.61877e-07
5.67437e-06 1.61877e-07 1.93535e-05
0.00204801 0.000198156 3.14002e-06
0.000198156 2.10123e-05 6.41567e-07
3.14002e-06 6.41567e-07 -5.32151e-06
0.0020802 0.00012487 2.82074e-06
0.00012487 1.09695e-05 3.02855e-07
2.82074e-06 3.02855e-07 1.80309e-05
0.00199737 0.000358656 1.24962e-06
0.000358656 5.2498e-05 7.83469e-08
1.24962e-06 7.83469e-08 -6.49098e-05
0.00223088 0.000291512 3.40089e-06
0.000291512 7.36177e-05 1.07171e-06
3.40089e-06 1.07171e-06 4.82923e-05
0.00185554 -4.51675e-05 -1.72224e-06
-4.51675e-05 0.000108402 -3.53194e-07
-1.72224e-06 -3.53194e-07 1.01004e-05
0.0018763 -0.000185985 -3.42111e-06
-0.000185985 0.000130243 -1.61677e-08
-3.42111e-06 -1.61677e-08 5.49652e-06
0.00198654 -0.00012403 -8.25679e-07
-0.00012403 5.60685e-05 4.07262e-07
-8.25679e-07 4.07262e-07 3.26176e-06
0.00193324 -0.000265306 -2.5707e-06
-0.000265306 6.72507e-05 4.7676e-07
-2.5707e-06 4.7676e-07 -4.11808e-05
0.000758352 -0.000239334 -9.33537e-06
-0.000239334 8.54787e-05 8.12799e-06
-9.33537e-06 8.12799e-06 -0.000145961
0.00132063 -0.00043743 -8.18245e-06
-0.00043743 0.000252047 2.04459e-06
-8.18245e-06 2.04459e-06 -7.38173e-05
0.0016086 -0.000589148 1.62505e-06
-0.000589148 0.000224545 -1.8707e-06
1.62505e-06 -1.8707e-06 -0.00014485
0.00185795 -0.000397593 -1.37717e-06
-0.000397593 9.84195e-05 4.79392e-08
-1.37717e-06 4.79392e-08 -8.15954e-05
0.00205156 -0.000371589 -1.23441e-06
-0.000371589 8.74055e-05 4.88905e-07
-1.23441e-06 4.88905e-07 -3.20887e-06
0.0019995 -0.000482098 1.378e-07
-0.000482098 0.000170569 -2.21278e-07
1.378e-07 -2.21278e-07 -1.0777e-05
0.00198704 -0.000589465 -2.36093e-06
-0.000589465 0.000259717 -3.74756e-06
-2.36093e-06 -3.74756e-06 -2.87318e-05
0.00208988 -0.000524404 8.8336e-06
-0.000524404 0.000280276 -4.3823e-06
8.8336e-06 -4.3823e-06 8.11915e-05
0.000842849 -0.0002697 -8.82761e-07
-0.0002697 0.000117996 2.46787e-06
-8.82761e-07 2.46787e-06 -0.000148722
0.000657346 -0.000257975 2.30829e-06
-0.000257975 -2.5383e-05 -6.79057e-07
2.30829e-06 -6.79057e-07 -0.000303822
0.000966599 -0.000132037 -6.51392e-07
-0.000132037 0.00032168 5.47447e-06
-6.51392e-07 5.47447e-06 0.000143177
-0.00011869 -7.1367e-05 2.11812e-06
-7.1367e-05 -0.000358758 -6.36697e-06
2.11812e-06 -6.36697e-06 -0.000625529
0.00200307 -6.52526e-05 -2.32746e-07
-6.52526e-05 7.36459e-05 1.08296e-07
-2.32746e-07 1.08296e-07 2.54527e-05
0.00196222 -0.000206475 3.03262e-06
-0.000206475 5.4443e-05 -9.14615e-07
3.03262e-06 -9.14615e-07 -2.98549e-05
0.00195942 -0.00011754 9.19565e-07
-0.00011754 2.65271e-05 -1.42972e-07
9.19565e-07 -1.42972e-07 6.0886e-06
0.00206544 -0.000300693 -9.43494e-07
-0.000300693 5.68892e-05 2.54082e-07
-9.43494e-07 2.54082e-07 2.8974e-06
0.00115337 -0.000348277 -2.69189e-06
-0.000348277 0.000239728 2.959e-08
-2.69189e-06 2.959e-08 -4.91773e-05
0.00148473 -0.000585749 1.88628e-06
-0.000585749 0.000303245 -4.6409e-07
1.88628e-06 -4.6409e-07 -9.39136e-05
0.00192739 -0.000684059 -3.10027e-07
-0.000684059 0.000338576 3.78955e-07
-3.10027e-07 3.78955e-07 -4.64659e-05
0.00193446 -0.000427234 -1.2409e-06
-0.000427234 9.12096e-05 6.03981e-07
-1.2409e-06 6.03981e-07 -5.41533e-05
0.00205847 -0.000384333 1.17127e-06
-0.000384333 6.50033e-05 -1.90386e-07
1.17127e-06 -1.90386e-07 -5.37649e-06
0.00203961 -0.000598694 -2.75919e-07
-0.000598694 0.000284165 3.7624e-07
-2.75919e-07 3.7624e-07 5.96755e-06
0.00193715 -0.000508854 -9.16858e-07
-0.000508854 0.000103552 9.78335e-07
-9.16858e-07 9.78335e-07 -5.95671e-05
0.00217412 -0.000556526 3.52978e-06
-0.000556526 0.000301807 -4.79094e-06
3.52978e-06 -4.79094e-06 9.52709e-05
0.00130742 -0.000399943 -1.0941e-06
-0.000399943 0.000375055 -4.22569e-07
-1.0941e-06 -4.22569e-07 5.81284e-05
0.00158202 -0.00041538 -1.01092e-06
-0.00041538 0.000558995 1.63479e-06
-1.01092e-06 1.63479e-06 0.000217367
0.00109849 -0.000283807 9.39379e-07
-0.000283807 0.000355289 -2.13192e-07
9.39379e-07 -2.13192e-07 4.7781e-05
0.000288225 -7.96084e-05 -2.22839e-06
-7.96084e-05 -0.000101367 9.67083e-07
-2.22839e-06 9.67083e-07 -0.000238175
-1.48084e-05 -8.30034e-05 -8.16002e-07
-8.30034e-05 -0.000218313 -9.96238e-07
-8.16002e-07 -9.96238e-07 -0.000492294
0.00192989 -6.41757e-05 4.92606e-06
-6.41757e-05 -9.35737e-06 -3.92803e-07
4.92606e-06 -3.92803e-07 -1.72484e-05
0.00199264 -0.000181821 3.88217e-06
-0.000181821 4.93797e-06 -1.06889e-06
3.88217e-06 -1.06889e-06 -1.49695e-05
0.00211522 -0.000352433 7.93341e-07
-0.000352433 1.5538e-05 -4.70954e-07
7.93341e-07 -4.70954e-07 -1.25267e-05
0.00207434 -0.000448534 2.12872e-06
-0.000448534 9.88426e-05 -1.93007e-06
2.12872e-06 -1.93007e-06 6.92113e-06
0.0014566 -0.000493597 2.81879e-07
-0.000493597 0.000416917 -1.27985e-06
2.81879e-07 -1.27985e-06 4.8052e-05
0.00223329 -0.000613711 -5.42242e-06
-0.000613711 0.000195561 -5.24926e-06
-5.42242e-06 -5.24926e-06 9.71011e-06
0.00121437 -0.000642959 -1.5741e-05
-0.000642959 0.000123815 6.48227e-06
-1.5741e-05 6.48227e-06 -0.000304159
0.00205285 -0.000747651 1.85453e-06
-0.000747651 0.00037605 6.40483e-07
1.85453e-06 6.40483e-07 -2.22477e-05
0.00184779 -0.000562909 -1.54167e-05
-0.000562909 0.000162768 8.20895e-07
-1.54167e-05 8.20895e-07 -9.87068e-05
2.65373e-05 -9.18293e-06 -2.97557e-06
-9.18293e-06 -0.000251276 -6.31514e-06
-2.97557e-06 -6.31514e-06 -0.000358805
0.00081785 -0.000153589 -2.35896e-06
-0.000153589 0.000311808 -9.49715e-07
-2.35896e-06 -9.49715e-07 7.25268e-05
0.000983699 -0.000214366 -1.89902e-06
-0.000214366 0.000390174 -4.14499e-06
-1.89902e-06 -4.14499e-06 9.8957e-05
0.00165901 -0.000490418 -9.8414e-06
-0.000490418 0.000582115 3.23859e-06
-9.8414e-06 3.23859e-06 0.000211122
0.00191106 -0.000348503 -3.11499e-06
-0.000348503 0.000806018 1.18235e-05
-3.11499e-06 1.18235e-05 0.000481052
0.000879203 -0.000386227 -1.13396e-05
-0.000386227 8.97518e-05 1.62704e-05
-1.13396e-05 1.62704e-05 -0.000262114
0.000404813 -2.08012e-05 -2.24036e-06
-2.08012e-05 -6.53194e-05 -7.42113e-06
-2.24036e-06 -7.42113e-06 -9.87527e-05
0.000528788 2.96839e-05 -5.22234e-07
2.96839e-05 3.39305e-05 -6.58748e-06
-5.22234e-07 -6.58748e-06 -7.35604e-05
0.00206496 0.000428409 -2.06102e-06
0.000428409 0.000183944 -5.22717e-07
-2.06102e-06 -5.22717e-07 4.94444e-07
-0.000139066 2.15647e-05 4.06499e-07
2.15647e-05 -0.00032338 -2.05826e-06
4.06499e-07 -2.05826e-06 -0.000567956
0.00108835 0.000279015 -1.50107e-06
0.000279015 0.000270988 -1.74005e-08
-1.50107e-06 -1.74005e-08 3.64829e-05
0.000570674 0.000210996 -1.74541e-06
0.000210996 -6.69825e-05 2.25536e-06
-1.74541e-06 2.25536e-06 -0.000270141
0.00195969 0.000531492 1.66224e-06
0.000531492 0.000260569 1.41556e-06
1.66224e-06 1.41556e-06 -3.98511e-06
0.00194996 0.000516808 2.23793e-06
0.000516808 0.000164797 6.36206e-07
2.23793e-06 6.36206e-07 -5.19013e-05
0.00168984 0.000504047 -9.01687e-07
0.000504047 0.00056826 -8.38017e-07
-9.01687e-07 -8.38017e-07 0.000201263
0.00221075 0.000646983 -4.05621e-06
0.000646983 0.00067283 2.62573e-06
-4.05621e-06 2.62573e-06 0.00030405
0.00203543 0.000618284 8.59215e-07
0.000618284 0.000305127 2.14601e-06
8.59215e-07 2.14601e-06 4.97294e-06
0.000583232 3.59085e-05 -4.65861e-07
3.59085e-05 6.57389e-05 5.8296e-07
-4.65861e-07 5.8296e-07 -2.53899e-05
0.000749561 8.73202e-05 -1.07813e-06
8.73202e-05 0.000215881 2.44407e-07
-1.07813e-06 2.44407e-07 3.41364e-05
0.00124529 0.000375962 6.58412e-07
0.000375962 0.000329706 1.29076e-06
6.58412e-07 1.29076e-06 4.87765e-05
0.00100227 0.000155266 2.27265e-06
0.000155266 0.000351752 -9.75257e-07
2.27265e-06 -9.75257e-07 7.96263e-05
0.000535509 0.000203891 2.7256e-06
0.000203891 -0.000144198 -3.00438e-07
2.7256e-06 -3.00438e-07 -0.000345542
0.00202566 0.000451348 -2.37236e-06
0.000451348 0.000140949 -1.57171e-06
-2.37236e-06 -1.57171e-06 -2.96035e-05
0.0020721 0.000589787 1.92566e-06
0.000589787 0.000287751 6.03412e-07
1.92566e-06 6.03412e-07 2.34991e-05
0.00197716 0.000565579 1.01262e-06
0.000565579 0.000135358 1.87244e-07
1.01262e-06 1.87244e-07 -8.76434e-05
0.00136244 0.000566993 2.2159e-06
0.000566993 0.000346499 1.00818e-06
2.2159e-06 1.00818e-06 -5.75567e-05
0.00176272 0.000641106 -2.19299e-06
0.000641106 0.000292774 -1.99077e-06
-2.19299e-06 -1.99077e-06 -5.10562e-05
0.00104037 0.000121919 1.28865e-06
0.000121919 0.000386556 3.1408e-06
1.28865e-06 3.1408e-06 0.000241791
-0.000210952 -1.14579e-05 -2.71643e-06
-1.14579e-05 -0.000322716 9.84846e-07
-2.71643e-06 9.84846e-07 -0.000570727
0.00149958 0.000456754 -2.10146e-06
0.000456754 0.000477935 -2.11206e-06
-2.10146e-06 -2.11206e-06 0.000145459
-0.000665205 0.000110821 4.97712e-06
0.000110821 -0.000780189 -1.72182e-06
4.97712e-06 -1.72182e-06 -0.00100516
0.0025427 0.00048295 -3.14732e-06
0.00048295 0.00104053 -2.88557e-06
-3.14732e-06 -2.88557e-06 0.000773192
0.00198276 0.000486812 1.19056e-06
0.000486812 2.95184e-05 -1.16728e-07
1.19056e-06 -1.16728e-07 -0.000116373
0.00213235 0.000650486 9.09444e-06
0.000650486 0.000291519 -1.58578e-06
9.09444e-06 -1.58578e-06 6.57006e-07
0.00200886 0.000598242 9.99147e-06
0.000598242 0.00012469 1.97488e-06
9.99147e-06 1.97488e-06 -0.000115567
0.00133853 0.000589311 9.88335e-06
0.000589311 0.000279969 1.29498e-06
9.88335e-06 1.29498e-06 -0.000122248
0.00202689 0.000731246 2.85162e-06
0.000731246 0.000459516 3.80116e-08
2.85162e-06 3.80116e-08 8.27203e-05
0.000523565 2.78553e-05 -1.83869e-06
2.78553e-05 2.04878e-05 -4.61578e-06
-1.83869e-06 -4.61578e-06 -5.59531e-05
0.00053106 7.31102e-05 1.32517e-06
7.31102e-05 5.43948e-05 4.00974e-07
1.32517e-06 4.00974e-07 -6.66521e-05
0.00028448 5.88032e-05 -4.25548e-07
5.88032e-05 -0.000106724 1.30485e-06
-4.25548e-07 1.30485e-06 -0.000219837
0.000120562 -2.0427e-05 -8.35257e-08
-2.0427e-05 -0.000196845 -3.16713e-06
-8.35257e-08 -3.16713e-06 -0.000309687
0.00059411 6.42678e-05 -3.06778e-07
6.42678e-05 0.000112509 4.40741e-08
-3.06778e-07 4.40741e-08 -7.11109e-06
0.000560575 9.39886e-05 -6.89199e-07
9.39886e-05 7.96664e-05 -5.78125e-08
-6.89199e-07 -5.78125e-08 -4.53993e-05
0.000752236 0.000137603 -3.34428e-06
0.000137603 0.00021648 -4.43545e-06
-3.34428e-06 -4.43545e-06 8.89424e-05
0.000255355 1.74984e-05 -7.75519e-07
1.74984e-05 -9.51301e-05 -3.45052e-07
-7.75519e-07 -3.45052e-07 -0.00023098
0.000685645 9.89221e-05 5.95533e-07
9.89221e-05 0.000161531 2.70451e-06
5.95533e-07 2.70451e-06 5.15716e-05
0.0005648 7.12618e-05 3.32279e-06
7.12618e-05 6.79822e-05 3.57726e-06
3.32279e-06 3.57726e-06 -4.17291e-06
0.000523965 2.31404e-05 -2.49626e-06
2.31404e-05 3.76078e-05 2.26128e-08
-2.49626e-06 2.26128e-08 -3.1422e-05
0.00124849 -5.94096e-06 1.75312e-06
-5.94096e-06 0.000457599 3.22229e-06
1.75312e-06 3.22229e-06 0.000440423
0.000423979 -6.49333e-05 2.43795e-06
-6.49333e-05 -2.10025e-05 -4.05394e-06
2.43795e-06 -4.05394e-06 -9.60058e-05
0.00131465 -1.62978e-05 -7.04804e-06
-1.62978e-05 0.000495991 -1.65333e-06
-7.04804e-06 -1.65333e-06 0.000478091
0.000747255 -2.61488e-05 2.86451e-05
-2.61488e-05 0.000137507 9.25532e-06
2.86451e-05 9.25532e-06 0.000142338
0.00137261 -2.76831e-05 -1.28627e-05
-2.76831e-05 0.000532628 -7.18448e-06
-1.28627e-05 -7.18448e-06 0.000512761
0.000763572 -4.06481e-05 1.14951e-05
-4.06481e-05 0.000149726 3.42485e-06
1.14951e-05 3.42485e-06 0.000150306
0.00255333 -0.000113292 -1.83135e-06
-0.000113292 0.00129108 -2.84356e-06
-1.83135e-06 -2.84356e-06 0.00129147
0.000308514 6.19459e-05 -4.29615e-06
6.19459e-05 -9.6899e-05 -6.18944e-06
-4.29615e-06 -6.18944e-06 -0.000136019
0.000422089 1.33096e-05 -3.45454e-06
1.33096e-05 -2.84935e-05 1.70965e-07
-3.45454e-06 1.70965e-07 -7.75219e-05
0.00299968 0.000152706 4.75193e-06
0.000152706 0.00160143 -6.34071e-06
4.75193e-06 -6.34071e-06 0.001589
0.000534604 -7.15142e-05 -1.07868e-05
-7.15142e-05 2.92229e-05 1.18549e-05
-1.07868e-05 1.18549e-05 -3.3883e-05
0.00388263 0.000140195 -3.44894e-05
0.000140195 0.00215709 -2.36625e-07
-3.44894e-05 -2.36625e-07 0.00214618
0.00481374 0.000106245 -0.000162785
0.000106245 0.00274483 1.71742e-05
-0.000162785 1.71742e-05 0.00273974
0.00206889 0.000367644 -2.13603e-06
0.000367644 0.000134124 1.0405e-06
-2.13603e-06 1.0405e-06 -1.18969e-05
0.00203274 0.000200723 -2.83835e-06
0.000200723 8.32691e-05 2.29816e-07
-2.83835e-06 2.29816e-07 9.04523e-06
0.0020275 0.000276914 -1.60506e-06
0.000276914 1.35039e-05 1.174e-07
-1.60506e-06 1.174e-07 -4.62369e-05
0.00196265 0.000120528 -3.20665e-06
0.000120528 -1.50118e-05 -4.62517e-07
-3.20665e-06 -4.62517e-07 -2.58104e-05
0.00196611 4.78838e-05 -4.79761e-06
4.78838e-05 3.45037e-05 -1.57783e-07
-4.79761e-06 -1.57783e-07 -5.58469e-06
0.0018171 5.47985e-06 -1.09016e-06
5.47985e-06 7.91708e-05 2.03079e-07
-1.09016e-06 2.03079e-07 -1.62407e-05
0.0019798 -5.94769e-06 -2.4434e-07
-5.94769e-06 5.25086e-05 -1.5623e-08
-2.4434e-07 -1.5623e-08 9.52236e-06
0.00199865 5.34242e-05 1.26987e-06
5.34242e-05 3.68447e-05 4.04744e-08
1.26987e-06 4.04744e-08 2.28895e-05
0.00205272 0.000195542 -3.69168e-08
0.000195542 2.75971e-05 4.56539e-08
-3.69168e-08 4.56539e-08 2.33575e-06
0.00205347 0.000126087 6.44747e-07
0.000126087 -1.10276e-05 1.61953e-07
6.44747e-07 1.61953e-07 1.62208e-06
0.00202801 0.000359559 -5.67086e-07
0.000359559 8.19338e-05 1.67361e-07
-5.67086e-07 1.67361e-07 -3.70635e-05
0.00215283 0.000291692 2.92306e-06
0.000291692 2.22174e-05 3.62659e-07
2.92306e-06 3.62659e-07 3.81377e-06
0.00194994 -1.16438e-05 4.98409e-06
-1.16438e-05 1.20932e-05 1.1762e-07
4.98409e-06 1.1762e-07 -3.71729e-06
0.00205641 6.01198e-05 1.04954e-06
6.01198e-05 -1.2994e-05 -2.29423e-07
1.04954e-06 -2.29423e-07 8.06887e-06
0.00212478 0.000194034 6.76804e-07
0.000194034 -8.61171e-06 1.40534e-07
6.76804e-07 1.40534e-07 2.29764e-06
0.00214406 0.000392118 3.47785e-08
0.000392118 2.53302e-05 8.32427e-07
3.47785e-08 8.32427e-07 -2.13827e-05
0.00200233 -6.50347e-05 -4.99402e-06
-6.50347e-05 7.36809e-05 9.15342e-07
-4.99402e-06 9.15342e-07 2.54113e-05
0.00200084 -0.000207767 1.29994e-08
-0.000207767 8.63561e-05 -5.75599e-07
1.29994e-08 -5.75599e-07 1.2656e-06
0.00193143 -0.00011623 -5.00018e-06
-0.00011623 3.99273e-06 1.31224e-06
-5.00018e-06 1.31224e-06 -1.53676e-05
0.00207525 -0.000300106 -5.25566e-06
-0.000300106 6.81283e-05 1.20656e-06
-5.25566e-06 1.20656e-06 9.55768e-06
0.000956595 -0.000335043 -6.58286e-06
-0.000335043 0.000108619 2.97738e-06
-6.58286e-06 2.97738e-06 -0.000179504
0.00149092 -0.000575569 7.65041e-06
-0.000575569 0.000314884 -3.23766e-06
7.65041e-06 -3.23766e-06 -7.80379e-05
0.00195534 -0.000699127 -2.90755e-06
-0.000699127 0.000351866 -2.44148e-06
-2.90755e-06 -2.44148e-06 -4.15497e-05
0.00196126 -0.000425123 -2.85078e-06
-0.000425123 0.000114952 8.37434e-07
-2.85078e-06 8.37434e-07 -3.43876e-05
0.0020216 -0.000384958 -1.05769e-06
-0.000384958 4.29301e-05 1.04994e-06
-1.05769e-06 1.04994e-06 -2.34549e-05
0.00191464 -0.000510329 1.0782e-06
-0.000510329 8.00317e-05 1.80622e-06
1.0782e-06 1.80622e-06 -8.44282e-05
0.00198326 -0.000586289 6.59499e-07
-0.000586289 0.000269392 -3.08038e-06
6.59499e-07 -3.08038e-06 -5.96797e-06
0.00209744 -0.000542382 1.57142e-05
-0.000542382 0.000237811 -6.04379e-06
1.57142e-05 -6.04379e-06 3.89312e-05
0.000923292 -0.000356712 -9.68593e-07
-0.000356712 0.000133709 1.38378e-06
-9.68593e-07 1.38378e-06 -0.000172952
0.0012875 -0.00039103 1.01785e-05
-0.00039103 0.000345788 -4.93138e-06
1.01785e-05 -4.93138e-06 1.43593e-05
-6.35983e-05 -0.000157636 2.43529e-06
-0.000157636 -0.000356989 -1.06675e-05
2.43529e-06 -1.06675e-05 -0.000656159
9.85389e-05 -6.43075e-05 3.83014e-07
-6.43075e-05 -0.000219797 5.72458e-06
3.83014e-07 5.72458e-06 -0.000358457
0.000210692 -3.9694e-05 4.23932e-06
-3.9694e-05 -9.02747e-05 4.07982e-07
4.23932e-06 4.07982e-07 -0.000352379
0.00191813 -7.23061e-05 4.44809e-09
-7.23061e-05 -1.97568e-05 -1.82589e-07
4.44809e-09 -1.82589e-07 -2.87285e-05
0.00203494 -0.000183488 1.24292e-06
-0.000183488 2.83149e-05 -5.98386e-08
1.24292e-06 -5.98386e-08 7.86263e-06
0.00210973 -0.000346359 -6.40244e-07
-0.000346359 2.78227e-05 9.61161e-08
-6.40244e-07 9.61161e-08 -4.2989e-06
0.00141102 -0.000491656 -1.5127e-06
-0.000491656 0.000385247 -7.85859e-07
-1.5127e-06 -7.85859e-07 1.70855e-05
0.00150161 -0.000659429 3.21755e-06
-0.000659429 0.00029291 -8.83795e-07
3.21755e-06 -8.83795e-07 -0.000135385
0.00208555 -0.000755944 -3.22598e-08
-0.000755944 0.000403088 -1.87836e-07
-3.22598e-08 -1.87836e-07 -1.29406e-06
0.00205299 -0.000445207 2.15198e-07
-0.000445207 8.79065e-05 2.22565e-07
2.15198e-07 2.22565e-07 -6.26719e-06
0.00208726 -0.000604503 1.40244e-06
-0.000604503 0.000278287 -3.57261e-06
1.40244e-06 -3.57261e-06 1.29304e-05
0.00214266 -0.000593308 -1.66397e-06
-0.000593308 0.000173236 -3.25151e-07
-1.66397e-06 -3.25151e-07 -7.77085e-06
7.96637e-05 4.40865e-05 -1.95932e-06
4.40865e-05 -0.000229269 -8.93274e-07
-1.95932e-06 -8.93274e-07 -0.000327488
0.00131136 -0.00045079 -2.43374e-07
-0.00045079 0.000355443 -1.92424e-06
-2.43374e-07 -1.92424e-06 -3.47625e-06
0.00139594 -0.000449157 -1.81084e-06
-0.000449157 0.00042439 1.08129e-06
-1.81084e-06 1.08129e-06 5.49682e-05
0.00141186 -0.000339976 -1.11786e-06
-0.000339976 0.000526768 2.51188e-06
-1.11786e-06 2.51188e-06 0.000182748
0.00125619 -0.00022514 1.70698e-06
-0.00022514 0.000555793 -2.95557e-06
1.70698e-06 -2.95557e-06 0.00026521
0.000410461 -7.40664e-05 -8.78911e-07
-7.40664e-05 4.67946e-05 1.33671e-06
-8.78911e-07 1.33671e-06 -0.000181279
0.00203658 -9.3994e-05 1.9468e-06
-9.3994e-05 -8.08996e-06 -9.20108e-08
1.9468e-06 -9.20108e-08 5.63984e-06
0.00218369 -0.000241579 2.94182e-07
-0.000241579 -8.58481e-06 -9.09696e-08
2.94182e-07 -9.09696e-08 1.70775e-05
0.00218199 -0.000425224 9.9083e-07
-0.000425224 2.5978e-05 -4.11759e-07
9.9083e-07 -4.11759e-07 1.40073e-05
0.00222697 -0.000531342 2.14003e-06
-0.000531342 9.44798e-05 -2.54736e-06
2.14003e-06 -2.54736e-06 1.88996e-05
0.00161357 -0.00059385 -1.00519e-05
-0.00059385 0.000467665 5.00594e-06
-1.00519e-05 5.00594e-06 5.69905e-05
0.00217295 -0.000678107 -4.47336e-06
-0.000678107 0.0002366 -5.66833e-06
-4.47336e-06 -5.66833e-06 -5.58445e-06
0.0019036 -0.000779668 -3.22335e-05
-0.000779668 0.000500524 5.19776e-06
-3.22335e-05 5.19776e-06 2.82941e-05
0.00237462 -0.00082315 -1.98238e-05
-0.00082315 0.000588385 -5.41664e-07
-1.98238e-05 -5.41664e-07 0.000162063
-1.12125e-06 5.50331e-05 -5.94955e-06
5.50331e-05 -0.000284704 -3.0889e-06
-5.94955e-06 -3.0889e-06 -0.000359686
0.000814746 -1.95628e-06 -2.59692e-06
-1.95628e-06 0.000285563 -1.28627e-06
-2.59692e-06 -1.28627e-06 0.000116173
0.00171709 -0.000250862 -5.35224e-06
-0.000250862 0.000880756 -1.6541e-07
-5.35224e-06 -1.6541e-07 0.000608214
0.000705143 -0.000125266 -5.20271e-07
-0.000125266 0.000159899 -4.63767e-06
-5.20271e-07 -4.63767e-06 -0.000145528
0.00236807 -0.000616474 -1.59897e-05
-0.000616474 0.000981979 1.17361e-05
-1.59897e-05 1.17361e-05 0.000567549
0.00156446 -0.000454436 -3.61937e-06
-0.000454436 0.000576006 2.32685e-05
-3.61937e-06 2.32685e-05 0.000153418
0.000521507 2.55129e-05 -1.36437e-06
2.55129e-05 2.83798e-05 -5.10389e-06
-1.36437e-06 -5.10389e-06 -6.1548e-05
-7.49703e-05 2.19965e-05 1.46496e-06
2.19965e-05 -0.000309604 -1.56519e-06
1.46496e-06 -1.56519e-06 -0.000471054
0.00198186 0.000451955 -1.77562e-06
0.000451955 0.000115418 -1.06438e-06
-1.77562e-06 -1.06438e-06 -5.60797e-05
0.000389599 8.91422e-05 -5.12836e-08
8.91422e-05 -4.49119e-05 2.39124e-06
-5.12836e-08 2.39124e-06 -0.000302424
0.0015382 0.000408017 -3.51735e-06
0.000408017 0.000506715 -3.83573e-06
-3.51735e-06 -3.83573e-06 0.000221198
-0.000986341 6.01124e-05 -2.42345e-06
6.01124e-05 -0.00110397 2.85961e-06
-2.42345e-06 2.85961e-06 -0.0012668
0.00208655 0.000591206 2.28084e-06
0.000591206 0.00029291 1.08171e-06
2.28084e-06 1.08171e-06 2.82415e-05
0.00202048 0.000564398 -7.02836e-06
0.000564398 0.000157599 -2.11518e-07
-7.02836e-06 -2.11518e-07 -6.40848e-05
0.00152414 0.000595797 -4.02373e-06
0.000595797 0.000426954 3.1659e-06
-4.02373e-06 3.1659e-06 1.94032e-05
0.00201141 0.000670849 -6.55961e-06
0.000670849 0.000458877 2.62333e-07
-6.55961e-06 2.62333e-07 0.000104319
0.000778586 7.92489e-05 -7.12987e-07
7.92489e-05 0.000215387 1.1918e-07
-7.12987e-07 1.1918e-07 8.13469e-05
0.000496706 6.87282e-05 1.11355e-06
6.87282e-05 0.000115141 3.76719e-07
1.11355e-06 3.76719e-07 -0.000147492
0.00130935 0.0004312 -3.04915e-06
0.0004312 0.000355649 -1.50462e-06
-3.04915e-06 -1.50462e-06 3.04654e-05
0.000169428 0.000136638 6.30069e-07
0.000136638 -0.000288752 -2.04898e-06
6.30069e-07 -2.04898e-06 -0.000508925
0.00167144 0.000381406 3.34793e-06
0.000381406 0.000483688 -2.19627e-06
3.34793e-06 -2.19627e-06 0.000240709
0.00213543 0.000500485 -2.68425e-06
0.000500485 0.000110327 -9.94821e-07
-2.68425e-06 -9.94821e-07 -3.51415e-05
0.00227582 0.000651962 2.81912e-06
0.000651962 0.000381948 -5.12049e-07
2.81912e-06 -5.12049e-07 9.69883e-05
0.00220107 0.000622376 2.43374e-06
0.000622376 0.000231052 2.8357e-06
2.43374e-06 2.8357e-06 -1.35535e-05
0.00144456 0.000605638 4.05443e-06
0.000605638 0.000347706 1.50873e-06
4.05443e-06 1.50873e-06 -6.02467e-05
0.00191446 0.000740755 -4.84201e-06
0.000740755 0.000393311 1.66958e-07
-4.84201e-06 1.66958e-07 4.70462e-06
-0.000654503 7.36009e-06 -3.27165e-06
7.36009e-06 -0.000666045 5.79307e-06
-3.27165e-06 5.79307e-06 -0.000796889
-0.000269252 0.000218717 8.5097e-07
0.000218717 -0.000289279 1.55086e-06
8.5097e-07 1.55086e-06 -0.000605765
0.00144428 0.000478123 2.78064e-06
0.000478123 0.000409288 -1.80255e-06
2.78064e-06 -1.80255e-06 6.51117e-05
-0.000237834 0.000177293 9.22937e-07
0.000177293 -0.000670405 -2.83484e-06
9.22937e-07 -2.83484e-06 -0.000874941
0.00235148 0.000505013 5.36627e-06
0.000505013 -4.74003e-05 2.59556e-06
5.36627e-06 2.59556e-06 -3.57091e-05
0.00273922 0.0006294 8.95249e-06
0.0006294 0.000484307 1.77893e-06
8.95249e-06 1.77893e-06 0.000284741
0.00214564 0.000738898 5.73735e-06
0.000738898 0.0003288 -2.86327e-06
5.73735e-06 -2.86327e-06 -2.13972e-05
0.00167807 0.000713271 1.53076e-06
0.000713271 0.000361523 6.96099e-07
1.53076e-06 6.96099e-07 -7.37004e-05
0.000728591 0.000115445 -7.54768e-07
0.000115445 0.000187071 -2.17003e-06
-7.54768e-07 -2.17003e-06 5.80869e-05
0.00053813 0.000101891 -9.83846e-07
0.000101891 6.62933e-05 -6.14744e-07
-9.83846e-07 -6.14744e-07 -5.93169e-05
0.00122138 0.000102609 -7.4413e-06
0.000102609 0.000494084 -3.74632e-06
-7.4413e-06 -3.74632e-06 0.000390702
0.000550207 4.41673e-05 -8.74447e-07
4.41673e-05 6.17189e-05 -3.1008e-06
-8.74447e-07 -3.1008e-06 -4.12317e-05
2.11904e-05 4.13011e-05 -1.62893e-07
4.13011e-05 -0.000253888 -7.42142e-07
-1.62893e-07 -7.42142e-07 -0.000368887
0.000603433 5.15217e-05 -6.33154e-07
5.15217e-05 0.000112228 2.01611e-07
-6.33154e-07 2.01611e-07 1.8478e-06
0.000498603 0.000127429 -1.45991e-07
0.000127429 7.61164e-05 7.18094e-07
-1.45991e-07 7.18094e-07 -5.11668e-05
0.000483384 5.6306e-05 1.12751e-06
5.6306e-05 5.60649e-05 -2.475e-08
1.12751e-06 -2.475e-08 -8.72325e-05
0.000629214 0.000105166 4.63241e-06
0.000105166 0.000108404 -3.13832e-06
4.63241e-06 -3.13832e-06 2.45933e-05
0.000734028 1.47533e-05 3.17971e-06
1.47533e-05 0.000209976 -5.02558e-06
3.17971e-06 -5.02558e-06 7.31628e-05
0.000249618 6.75637e-05 -1.17715e-07
6.75637e-05 -9.21852e-05 2.21678e-06
-1.17715e-07 2.21678e-06 -0.000229372
0.000671624 0.00011109 2.35752e-06
0.00011109 0.000155067 3.49821e-06
2.35752e-06 3.49821e-06 4.12935e-05
0.000466925 7.70637e-05 3.31707e-06
7.70637e-05 1.3788e-05 3.56176e-06
3.31707e-06 3.56176e-06 -6.49159e-05
0.000462125 1.5218e-05 -1.54665e-06
1.5218e-05 2.43704e-06 -3.02775e-07
-1.54665e-06 -3.02775e-07 -6.80527e-05
0.00121507 8.02835e-06 1.67305e-06
8.02835e-06 0.000442691 2.88777e-06
1.67305e-06 2.88777e-06 0.00042567
0.000454051 -4.29981e-05 2.17626e-07
-4.29981e-05 -7.55885e-06 -3.13646e-06
2.17626e-07 -3.13646e-06 -7.51786e-05
0.00130726 -5.4568e-06 -6.76014e-06
-5.4568e-06 0.000494545 -1.69793e-06
-6.76014e-06 -1.69793e-06 0.000477958
0.00074652 -1.64032e-05 2.61611e-05
-1.64032e-05 0.000139101 9.1207e-06
2.61611e-05 9.1207e-06 0.000144845
0.00135352 -1.96907e-05 -1.05659e-05
-1.96907e-05 0.000520484 -6.80913e-06
-1.05659e-05 -6.80913e-06 0.000503069
0.000749219 -2.99903e-05 9.99239e-06
-2.99903e-05 0.000137287 3.48049e-06
9.99239e-06 3.48049e-06 0.000140594
0.000725191 -4.16196e-05 2.37549e-07
-4.16196e-05 0.000125202 -3.12682e-06
2.37549e-07 -3.12682e-06 0.000124981
0.000389753 4.23272e-05 -1.77381e-06
4.23272e-05 -6.80719e-05 -4.18063e-06
-1.77381e-06 -4.18063e-06 -9.28168e-05
0.000403571 7.30482e-05 -2.17992e-07
7.30482e-05 -3.32933e-05 3.73871e-07
-2.17992e-07 3.73871e-07 -7.62165e-05
0.00255028 0.000117977 8.26898e-06
0.000117977 0.00130823 -5.13668e-06
8.26898e-06 -5.13668e-06 0.00130551
0.000474345 1.54975e-05 -5.15803e-06
1.54975e-05 7.4683e-06 1.01842e-05
-5.15803e-06 1.01842e-05 -4.48948e-05
0.00312032 0.000154778 -1.3285e-05
0.000154778 0.00167653 -1.41112e-06
-1.3285e-05 -1.41112e-06 0.00166331
0.00404219 8.44286e-05 -0.000134729
8.44286e-05 0.00225162 1.27138e-05
-0.000134729 1.27138e-05 0.00225396
0.00205433 0.000360019 -9.38691e-07
0.000360019 0.000109451 5.99209e-07
-9.38691e-07 5.99209e-07 -1.11128e-05
0.00206201 0.000193566 -4.91457e-06
0.000193566 3.60741e-05 -8.49499e-07
-4.91457e-06 -8.49499e-07 1.19852e-05
0.00208091 0.000292236 -6.01409e-07
0.000292236 -2.6103e-05 -1.05712e-07
-6.01409e-07 -1.05712e-07 -3.76104e-05
0.00202559 0.000127484 -1.02369e-06
0.000127484 -3.43748e-05 -1.36857e-07
-1.02369e-06 -1.36857e-07 -1.60473e-05
0.00200521 5.42154e-05 -4.64386e-06
5.42154e-05 4.47074e-05 -3.67043e-07
-4.64386e-06 -3.67043e-07 2.70734e-05
0.0019945 -8.72499e-06 -5.95523e-06
-8.72499e-06 6.61291e-05 3.41224e-07
-5.95523e-06 3.41224e-07 2.22182e-05
0.00195987 -9.6965e-06 -4.66725e-08
-9.6965e-06 1.91482e-05 -6.05502e-08
-4.66725e-08 -6.05502e-08 4.38556e-06
0.00205147 6.28335e-05 1.14184e-06
6.28335e-05 -1.12045e-05 1.62026e-07
1.14184e-06 1.62026e-07 7.70178e-06
0.00212675 0.000200704 1.05511e-06
0.000200704 -7.00863e-06 2.11653e-07
1.05511e-06 2.11653e-07 6.00445e-06
0.00215357 0.000382813 6.33743e-07
0.000382813 2.47131e-05 1.90951e-07
6.33743e-07 1.90951e-07 -2.14919e-05
0.00202384 -1.57728e-05 3.57587e-07
-1.57728e-05 -1.79593e-05 -1.17063e-07
3.57587e-07 -1.17063e-07 -4.65817e-06
0.00218377 0.000113428 -6.4843e-07
0.000113428 -4.40849e-05 -6.63841e-07
-6.4843e-07 -6.63841e-07 1.42818e-05
0.00234387 0.000304651 2.53224e-06
0.000304651 1.2594e-05 3.57192e-07
2.53224e-06 3.57192e-07 3.96899e-05
0.00190626 -8.04434e-05 -4.55922e-06
-8.04434e-05 -3.04395e-05 4.86617e-07
-4.55922e-06 4.86617e-07 -4.03196e-05
0.00207798 -0.000184753 -3.38184e-06
-0.000184753 5.28434e-05 7.15705e-07
-3.38184e-06 7.15705e-07 3.19392e-05
0.00210055 -0.000339707 -2.44254e-06
-0.000339707 3.86656e-05 6.24529e-07
-2.44254e-06 6.24529e-07 1.67173e-06
0.00141485 -0.000493291 -1.97255e-06
-0.000493291 0.000385885 -2.01715e-07
-1.97255e-06 -2.01715e-07 1.83307e-05
0.0014883 -0.000636836 1.8784e-05
-0.000636836 0.000288938 -6.76409e-06
1.8784e-05 -6.76409e-06 -0.000129496
0.00190718 -0.000742256 -1.30089e-06
-0.000742256 0.000313263 6.41604e-07
-1.30089e-06 6.41604e-07 -9.17613e-05
0.00204266 -0.000442188 -1.80668e-06
-0.000442188 8.35161e-05 1.49728e-06
-1.80668e-06 1.49728e-06 -1.30432e-05
0.00208591 -0.000574233 7.14611e-06
-0.000574233 0.000173768 3.14612e-06
7.14611e-06 3.14612e-06 -2.38747e-06
0.00222649 -0.000638972 1.59536e-05
-0.000638972 0.000344807 -6.94118e-06
1.59536e-05 -6.94118e-06 7.63661e-05
0.00123172 -0.000433293 3.20776e-06
-0.000433293 0.0003097 -4.04925e-06
3.20776e-06 -4.04925e-06 -4.21672e-05
0.00141492 -0.000464326 7.57709e-06
-0.000464326 0.000446983 -1.38027e-05
7.57709e-06 -1.38027e-05 7.48167e-05
0.0012008 -0.000380711 -4.79196e-07
-0.000380711 0.000424983 -1.16347e-05
-4.79196e-07 -1.16347e-05 6.06353e-05
0.000262102 4.13625e-05 3.5347e-06
4.13625e-05 -0.000119576 2.42767e-06
3.5347e-06 2.42767e-06 -0.000213565
0.00150433 -0.000243613 3.3627e-06
-0.000243613 0.000683826 3.74928e-06
3.3627e-06 3.74928e-06 0.000409113
-0.000200693 4.17299e-06 5.67228e-06
4.17299e-06 -0.000346091 9.84584e-07
5.67228e-06 9.84584e-07 -0.000560413
0.00204667 -9.21785e-05 -5.20574e-07
-9.21785e-05 -2.82592e-06 1.28968e-07
-5.20574e-07 1.28968e-07 9.12749e-06
0.00214964 -0.000248743 9.57405e-08
-0.000248743 -3.24616e-05 -7.97318e-08
9.57405e-08 -7.97318e-08 -5.5022e-06
0.00216996 -0.000417657 -7.27938e-07
-0.000417657 2.55326e-05 2.89613e-07
-7.27938e-07 2.89613e-07 1.01558e-05
0.00155233 -0.000580764 -5.41156e-07
-0.000580764 0.000449971 7.05054e-07
-5.41156e-07 7.05054e-07 4.2848e-05
0.00130666 -0.00070261 4.21305e-06
-0.00070261 0.000157045 -1.92923e-06
4.21305e-06 -1.92923e-06 -0.000296591
0.00235087 -0.000805 -4.69903e-06
-0.000805 0.000571428 3.42474e-09
-4.69903e-06 3.42474e-09 0.000161435
0.00218992 -0.000539165 2.55999e-07
-0.000539165 7.42372e-05 -6.85191e-07
2.55999e-07 -6.85191e-07 -8.38144e-06
0.0020614 -0.00065867 2.2352e-06
-0.00065867 0.000185632 -1.86841e-06
2.2352e-06 -1.86841e-06 -4.85361e-05
0.000280232 6.07315e-05 -1.58235e-06
6.07315e-05 -0.000110892 -1.27737e-06
-1.58235e-06 -1.27737e-06 -0.000181823
0.000625363 -2.61865e-05 -6.58981e-07
-2.61865e-05 0.000159046 8.19023e-07
-6.58981e-07 8.19023e-07 -3.42406e-06
0.000933589 -0.000458164 -3.17205e-06
-0.000458164 9.84775e-05 2.06369e-06
-3.17205e-06 2.06369e-06 -0.000270986
0.00149272 -0.000419775 -4.26629e-06
-0.000419775 0.000548601 -2.873e-07
-4.26629e-06 -2.873e-07 0.000133821
0.00165431 -0.00021567 -6.01039e-07
-0.00021567 0.00074472 -1.32552e-06
-6.01039e-07 -1.32552e-06 0.000431184
0.000929657 -0.000186429 -7.7481e-07
-0.000186429 0.000380858 1.48159e-06
-7.7481e-07 1.48159e-06 0.000118087
0.00214048 -0.000128315 -1.65528e-06
-0.000128315 -4.86455e-05 4.68091e-07
-1.65528e-06 4.68091e-07 7.06484e-06
0.0022827 -0.000356187 -2.16996e-06
-0.000356187 -6.89332e-05 1.09815e-06
-2.16996e-06 1.09815e-06 6.13552e-06
0.00225719 -0.000504464 2.77365e-06
-0.000504464 2.54294e-05 -7.85689e-07
2.77365e-06 -7.85689e-07 1.9973e-05
0.00235912 -0.000698778 7.40003e-06
-0.000698778 0.000181072 -3.63149e-06
7.40003e-06 -3.63149e-06 2.76486e-05
0.000744746 -0.000534128 -6.65112e-06
-0.000534128 -4.87156e-05 -7.22603e-06
-6.65112e-06 -7.22603e-06 -0.000459114
0.00264535 -0.000881773 -2.50452e-06
-0.000881773 0.000652419 3.94425e-06
-2.50452e-06 3.94425e-06 0.000264464
0.00230214 -0.000891929 -3.50691e-05
-0.000891929 0.000671704 -4.34902e-06
-3.50691e-05 -4.34902e-06 0.000155305
0.000545273 4.58346e-05 -3.82384e-07
4.58346e-05 3.78457e-05 -1.81954e-07
-3.82384e-07 -1.81954e-07 -1.50577e-05
0.000671002 -0.000141869 3.84659e-06
-0.000141869 0.000172938 -1.15155e-06
3.84659e-06 -1.15155e-06 6.37423e-05
0.000339272 8.43063e-05 -7.98816e-06
8.43063e-05 -3.05644e-05 -7.68843e-07
-7.98816e-06 -7.68843e-07 -0.000146064
0.000795335 -6.44828e-05 -3.67353e-06
-6.44828e-05 0.000289342 1.56745e-06
-3.67353e-06 1.56745e-06 7.63857e-05
1.87093e-05 -0.000127517 2.07772e-06
-0.000127517 -0.000230033 -7.50803e-06
2.07772e-06 -7.50803e-06 -0.000489912
-0.000133552 -0.000124884 6.11543e-06
-0.000124884 -0.000312539 -9.28629e-07
6.11543e-06 -9.28629e-07 -0.000701724
0.00143137 -0.000543931 -3.34309e-05
-0.000543931 0.000416872 2.39511e-05
-3.34309e-05 2.39511e-05 4.14127e-05
0.00297693 -0.000547209 -2.84323e-05
-0.000547209 0.00163339 1.62083e-05
-2.84323e-05 1.62083e-05 0.00100212
0.000530409 3.89968e-05 -3.37398e-07
3.89968e-05 4.92489e-05 -1.81436e-06
-3.37398e-07 -1.81436e-06 -7.17867e-05
0.000888902 0.000207652 -5.71916e-07
0.000207652 0.000345742 3.61049e-07
-5.71916e-07 3.61049e-07 7.62666e-05
0.0022916 0.000514498 -3.45057e-06
0.000514498 0.0001941 -1.93994e-06
-3.45057e-06 -1.93994e-06 4.88001e-05
0.000490619 0.000221805 -4.14396e-06
0.000221805 -6.20435e-05 3.02475e-06
-4.14396e-06 3.02475e-06 -0.000316023
0.00109469 0.000405021 -2.09534e-06
0.000405021 0.000216696 2.52223e-07
-2.09534e-06 2.52223e-07 -0.000102865
0.00133336 0.000321661 -4.05236e-06
0.000321661 0.00025675 -5.10929e-06
-4.05236e-06 -5.10929e-06 2.92628e-05
0.00239378 0.00064885 -7.53525e-06
0.00064885 0.000459818 -7.67441e-07
-7.53525e-06 -7.67441e-07 0.000182213
0.00238775 0.000645513 -1.22655e-05
0.000645513 0.000335969 4.14004e-06
-1.22655e-05 4.14004e-06 8.74608e-05
0.00165418 0.000637891 -3.73123e-06
0.000637891 0.000473119 1.05659e-06
-3.73123e-06 1.05659e-06 5.73084e-05
0.0017404 0.000744429 -5.11168e-06
0.000744429 0.00028836 -8.29313e-07
-5.11168e-06 -8.29313e-07 -0.000109886
-0.000202985 6.65105e-05 8.55066e-07
6.65105e-05 -0.000380037 1.50752e-06
8.55066e-07 1.50752e-06 -0.000528944
-4.84844e-05 0.000233607 -3.5545e-07
0.000233607 -0.000161157 -2.77631e-06
-3.5545e-07 -2.77631e-06 -0.000473734
0.00162436 0.000509416 1.58034e-06
0.000509416 0.000502796 1.11752e-07
1.58034e-06 1.11752e-07 0.000148162
0.00158201 0.00034708 -2.87451e-06
0.00034708 0.000474629 1.15539e-06
-2.87451e-06 1.15539e-06 0.00023733
0.00234918 0.000486007 7.03015e-07
0.000486007 -6.64518e-05 -7.65084e-07
7.03015e-07 -7.65084e-07 -4.66964e-05
0.00258397 0.000627783 3.44255e-06
0.000627783 0.000393067 9.85072e-08
3.44255e-06 9.85072e-08 0.000187334
0.00209577 0.000720876 -1.88228e-06
0.000720876 0.000312287 5.83382e-08
-1.88228e-06 5.83382e-08 -3.04316e-05
0.00181336 0.000723612 9.53201e-07
0.000723612 0.000423544 2.81403e-07
9.53201e-07 2.81403e-07 -7.27985e-06
-0.00037737 3.98473e-05 -2.7072e-06
3.98473e-05 -0.000482154 4.6517e-06
-2.7072e-06 4.6517e-06 -0.000636497
0.00224237 0.00037416 1.24449e-05
0.00037416 -0.000178699 3.55951e-06
1.24449e-05 3.55951e-06 -0.000103405
0.00270345 0.000515461 6.69783e-06
0.000515461 0.0014744 8.74712e-06
6.69783e-06 8.74712e-06 0.00113473
0.00136796 0.000492045 2.62683e-06
0.000492045 0.000280596 -5.40174e-07
2.62683e-06 -5.40174e-07 -4.64181e-05
0.00258719 0.000607412 -1.35426e-05
0.000607412 0.000224361 -7.23652e-06
-1.35426e-05 -7.23652e-06 0.000147711
0.00119483 0.000669403 3.22048e-06
0.000669403 -0.000307007 -7.86568e-06
3.22048e-06 -7.86568e-06 -0.000629341
0.00269569 0.000844078 1.34624e-06
0.000844078 0.000875648 4.41371e-06
1.34624e-06 4.41371e-06 0.000414817
0.000786098 0.000117625 -1.19424e-06
0.000117625 0.000221239 -2.18548e-06
-1.19424e-06 -2.18548e-06 9.33465e-05
0.000638643 0.000110092 -3.61998e-06
0.000110092 0.000149409 -1.45937e-06
-3.61998e-06 -1.45937e-06 3.95744e-05
0.00129055 0.000110101 -3.33032e-06
0.000110101 0.000557587 6.52746e-07
-3.33032e-06 6.52746e-07 0.000483128
0.000497245 7.28794e-06 6.77082e-07
7.28794e-06 4.78285e-05 -3.48411e-06
6.77082e-07 -3.48411e-06 -6.33247e-05
0.000712443 8.69225e-05 2.14449e-06
8.69225e-05 0.000205649 -7.88632e-07
2.14449e-06 -7.88632e-07 5.69785e-05
-0.000180122 7.70991e-05 -2.27931e-06
7.70991e-05 -0.000321827 5.05951e-06
-2.27931e-06 5.05951e-06 -0.000438877
0.000553464 2.28825e-05 -1.46391e-06
2.28825e-05 8.72138e-05 1.47187e-08
-1.46391e-06 1.47187e-08 -2.97885e-05
0.000323403 -1.08361e-05 -1.00225e-06
-1.08361e-05 -3.0834e-05 -7.22959e-08
-1.00225e-06 -7.22959e-08 -0.000177685
0.000101785 5.31361e-05 -3.39466e-07
5.31361e-05 -0.000195105 1.56245e-06
-3.39466e-07 1.56245e-06 -0.000267778
0.000809551 9.66274e-05 1.04762e-06
9.66274e-05 0.000272291 -1.31184e-06
1.04762e-06 -1.31184e-06 0.000122863
0.00175266 0.000137268 -1.13131e-07
0.000137268 0.000798424 -2.21294e-06
-1.13131e-07 -2.21294e-06 0.000751866
0.0004354 2.38523e-05 1.03848e-05
2.38523e-05 8.99337e-06 -7.58749e-06
1.03848e-05 -7.58749e-06 -7.84974e-05
0.000311752 0.000109852 6.09247e-07
0.000109852 -2.64827e-05 2.31186e-06
6.09247e-07 2.31186e-06 -0.000185608
0.000549785 4.73875e-05 1.55996e-06
4.73875e-05 0.000105948 3.54434e-06
1.55996e-06 3.54434e-06 -5.3617e-05
0.000573372 3.3556e-05 2.7524e-06
3.3556e-05 9.0857e-05 3.08079e-06
2.7524e-06 3.08079e-06 -2.75344e-05
0.000476175 -5.73797e-05 -3.68959e-07
-5.73797e-05 1.71562e-05 3.06788e-06
-3.68959e-07 3.06788e-06 -6.24121e-05
0.000490131 1.06924e-05 2.54398e-07
1.06924e-05 2.01448e-05 -3.61163e-07
2.54398e-07 -3.61163e-07 -5.26111e-05
0.00129501 2.82987e-05 3.34777e-06
2.82987e-05 0.000501391 3.09715e-06
3.34777e-06 3.09715e-06 0.000481728
0.000493354 2.24085e-06 1.12361e-07
2.24085e-06 1.27719e-05 -3.26351e-06
1.12361e-07 -3.26351e-06 -5.15691e-05
0.00130794 1.10969e-05 -6.22493e-06
1.10969e-05 0.000501153 -1.70913e-06
-6.22493e-06 -1.70913e-06 0.000483923
0.000743376 -8.76958e-06 2.1212e-05
-8.76958e-06 0.000141792 8.86285e-06
2.1212e-05 8.86285e-06 0.000147403
0.00134854 -9.35797e-06 -8.25836e-06
-9.35797e-06 0.0005203 -6.57759e-06
-8.25836e-06 -6.57759e-06 0.0005041
0.000772481 -2.04053e-05 7.74302e-06
-2.04053e-05 0.000152314 3.508e-06
7.74302e-06 3.508e-06 0.000156909
0.000756501 -3.15258e-05 1.73101e-07
-3.15258e-05 0.000139738 -2.92102e-06
1.73101e-07 -2.92102e-06 0.000142486
0.000641215 -1.03814e-05 1.39967e-06
-1.03814e-05 9.23514e-05 -1.48529e-06
1.39967e-06 -1.48529e-06 4.28853e-05
0.000418966 2.80275e-05 -2.97899e-07
2.80275e-05 -6.15545e-05 -3.64518e-06
-2.97899e-07 -3.64518e-06 -7.91125e-05
0.00042984 4.71923e-05 3.99381e-07
4.71923e-05 -4.01367e-05 2.65059e-07
3.99381e-07 2.65059e-07 -6.66655e-05
0.00233498 9.19576e-05 1.21629e-05
9.19576e-05 0.00116196 -4.56019e-06
1.21629e-05 -4.56019e-06 0.00116639
0.000492971 6.53856e-05 5.53626e-06
6.53856e-05 1.67288e-05 7.79226e-06
5.53626e-06 7.79226e-06 -2.42068e-05
0.00273001 0.000127411 -5.12753e-06
0.000127411 0.00142276 -5.74764e-07
-5.12753e-06 -5.74764e-07 0.00141779
0.00335619 0.000119771 -4.98151e-05
0.000119771 0.00181512 5.86592e-06
-4.98151e-05 5.86592e-06 0.00180939
0.00215774 0.00037384 -2.27203e-07
0.00037384 2.05682e-05 -3.76799e-07
-2.27203e-07 -3.76799e-07 -2.49259e-05
0.00212791 0.000207218 -1.51324e-06
0.000207218 -4.51153e-06 -9.92482e-08
-1.51324e-06 -9.92482e-08 9.94234e-06
0.00204608 6.66384e-05 -1.08516e-06
6.66384e-05 -8.90109e-06 5.63888e-08
-1.08516e-06 5.63888e-08 7.75977e-06
0.00196793 -7.64605e-06 -4.76171e-06
-7.64605e-06 2.53132e-05 -1.33183e-07
-4.76171e-06 -1.33183e-07 1.14439e-05
0.00202758 -1.06348e-05 -9.23283e-07
-1.06348e-05 -1.71498e-05 -3.19716e-08
-9.23283e-07 -3.19716e-08 -1.25797e-06
0.00216381 0.000106551 -1.03858e-07
0.000106551 -4.67309e-05 2.82496e-07
-1.03858e-07 2.82496e-07 8.965e-06
0.00227862 0.0003114 -1.1982e-06
0.0003114 -1.55524e-05 -8.23716e-09
-1.1982e-06 -8.23716e-09 1.07646e-05
0.00214267 -1.08962e-05 -1.70487e-06
-1.08962e-05 -6.29198e-05 -3.67907e-07
-1.70487e-06 -3.67907e-07 2.79162e-06
0.00236523 0.000160826 5.3304e-06
0.000160826 -5.0678e-05 -1.39179e-06
5.3304e-06 -1.39179e-06 1.67327e-05
0.00254023 0.000114526 1.23093e-05
0.000114526 0.000134903 1.19667e-05
1.23093e-05 1.19667e-05 0.00021416
0.00205614 -9.08208e-05 -1.75751e-06
-9.08208e-05 2.40033e-06 1.92599e-07
-1.75751e-06 1.92599e-07 1.24608e-05
0.00212036 -0.000257378 -6.13076e-07
-0.000257378 -5.43389e-05 -4.38369e-08
-6.13076e-07 -4.38369e-08 -2.59927e-05
0.0021568 -0.000409476 -4.49651e-07
-0.000409476 2.40164e-05 -9.34858e-08
-4.49651e-07 -9.34858e-08 6.48611e-06
0.00153973 -0.000583934 6.5253e-06
-0.000583934 0.000442525 -3.073e-06
6.5253e-06 -3.073e-06 3.27365e-05
0.00177678 -0.00075217 2.26678e-05
-0.00075217 0.000430011 -8.62159e-07
2.26678e-05 -8.62159e-07 -3.40885e-05
0.00196146 -0.000742323 9.63025e-06
-0.000742323 0.000352977 -4.53894e-07
9.63025e-06 -4.53894e-07 -3.37564e-05
0.00211758 -0.00054284 2.67762e-07
-0.00054284 3.56853e-05 3.2434e-06
2.67762e-07 3.2434e-06 -5.34711e-05
0.00189972 -0.000633515 5.14762e-06
-0.000633515 0.000111278 2.61141e-06
5.14762e-06 2.61141e-06 -0.000115125
0.000484406 -0.000402099 1.02059e-05
-0.000402099 -0.000173529 -1.75084e-05
1.02059e-05 -1.75084e-05 -0.00053277
0.00159534 -0.000400915 1.73591e-05
-0.000400915 0.000667067 -1.84999e-05
1.73591e-05 -1.84999e-05 0.000232248
0.00122346 -0.000125901 -1.43513e-06
-0.000125901 0.000446693 2.31946e-06
-1.43513e-06 2.31946e-06 0.000158719
0.000457406 1.96745e-05 3.00665e-06
1.96745e-05 -1.84249e-06 1.0651e-06
3.00665e-06 1.0651e-06 -6.82101e-05
0.000655903 2.93735e-05 6.45993e-06
2.93735e-05 0.00017214 2.23256e-06
6.45993e-06 2.23256e-06 1.24747e-05
0.000401178 -0.000129096 1.00922e-06
-0.000129096 3.80654e-05 6.76273e-06
1.00922e-06 6.76273e-06 -0.000216421
0.00215062 -0.000131239 5.76348e-07
-0.000131239 -5.10204e-05 -9.43003e-08
5.76348e-07 -9.43003e-08 7.09978e-06
0.000488721 1.03153e-05 1.7367e-06
1.03153e-05 2.46324e-06 3.22726e-07
1.7367e-06 3.22726e-07 -5.01932e-05
0.000391304 -7.25895e-05 -2.19833e-06
-7.25895e-05 -3.36371e-05 -5.37501e-07
-2.19833e-06 -5.37501e-07 -0.000122985
0.00226099 -0.00034602 -1.9538e-07
-0.00034602 -6.00807e-05 1.49155e-07
-1.9538e-07 1.49155e-07 5.75489e-06
0.00221117 -0.000492885 -1.80193e-06
-0.000492885 6.35697e-06 3.47276e-07
-1.80193e-06 3.47276e-07 7.82389e-06
0.0018265 -0.000669056 -1.53964e-06
-0.000669056 0.000582606 2.03223e-06
-1.53964e-06 2.03223e-06 0.000138062
0.001909 -0.000840101 7.15581e-06
-0.000840101 0.000471627 8.4648e-07
7.15581e-06 8.4648e-07 -3.97593e-05
0.0019969 -0.000814387 3.42737e-06
-0.000814387 0.000273012 -5.04315e-06
3.42737e-06 -5.04315e-06 -9.76001e-05
0.00228847 -0.000690831 3.04668e-06
-0.000690831 0.000143275 -1.08095e-06
3.04668e-06 -1.08095e-06 -4.47813e-06
0.000685858 1.41729e-05 -8.50657e-07
1.41729e-05 0.00019542 -1.20043e-06
-8.50657e-07 -1.20043e-06 7.58436e-05
0.0007853 -5.8138e-05 9.62619e-07
-5.8138e-05 0.000283861 1.93559e-06
9.62619e-07 1.93559e-06 7.02307e-05
0.00145138 -0.0005277 3.75419e-06
-0.0005277 0.00044715 5.03996e-06
3.75419e-06 5.03996e-06 5.74692e-05
0.00108515 -0.000368099 1.07396e-05
-0.000368099 0.000458395 -8.88826e-06
1.07396e-05 -8.88826e-06 -8.18982e-05
0.000949819 -0.00014676 -6.67731e-07
-0.00014676 0.000287817 -7.91603e-07
-6.67731e-07 -7.91603e-07 -5.72956e-05
0.000262271 -9.88403e-05 4.66755e-07
-9.88403e-05 -7.29761e-05 -1.69621e-06
4.66755e-07 -1.69621e-06 -0.000340747
0.00215744 -0.000152244 1.10007e-06
-0.000152244 -0.000186358 -6.31344e-07
1.10007e-06 -6.31344e-07 -0.000106484
0.00225468 -0.000444143 -1.13126e-06
-0.000444143 -0.000213683 3.20032e-06
-1.13126e-06 3.20032e-06 -1.4827e-05
0.00244833 -0.000679672 -3.46279e-06
-0.000679672 8.30678e-05 -1.46659e-06
-3.46279e-06 -1.46659e-06 4.54128e-05
0.0024957 -0.000899961 1.1351e-05
-0.000899961 0.000345524 -4.14324e-06
1.1351e-05 -4.14324e-06 0.000109377
0.00119322 -0.000631148 -3.27853e-06
-0.000631148 0.000254922 -1.91014e-05
-3.27853e-06 -1.91014e-05 -0.000202613
0.00300645 -0.00105174 -9.16959e-06
-0.00105174 0.000991392 8.08716e-06
-9.16959e-06 8.08716e-06 0.00043868
0.000167762 5.13245e-05 -2.65967e-06
5.13245e-05 -0.000166148 -4.71357e-06
-2.65967e-06 -4.71357e-06 -0.000262993
0.000560087 -4.56651e-05 3.92657e-06
-4.56651e-05 7.85704e-05 7.80416e-07
3.92657e-06 7.80416e-07 -8.05167e-06
0.00125157 -0.000157139 -2.60912e-06
-0.000157139 0.000481306 1.28466e-05
-2.60912e-06 1.28466e-05 0.000367109
0.000504224 1.63383e-05 -4.06956e-06
1.63383e-05 7.83461e-05 3.73481e-06
-4.06956e-06 3.73481e-06 -8.62106e-05
0.000737348 -9.39479e-05 -3.76445e-06
-9.39479e-05 0.000230387 6.9471e-06
-3.76445e-06 6.9471e-06 6.73753e-06
0.000784783 -7.27081e-05 1.09304e-05
-7.27081e-05 0.000176287 -1.0004e-05
1.09304e-05 -1.0004e-05 -7.88705e-05
-0.00094331 -0.000289601 8.17381e-07
-0.000289601 -0.000445328 -1.53504e-06
8.17381e-07 -1.53504e-06 -0.00122919
2.04056e-05 -0.000513131 -5.45657e-05
-0.000513131 -0.000456987 2.12039e-05
-5.45657e-05 2.12039e-05 -0.000805703
0.000414354 7.37571e-05 -9.40209e-07
7.37571e-05 2.50798e-05 -1.67117e-06
-9.40209e-07 -1.67117e-06 -0.000152938
0.000731569 0.000257044 -1.03346e-05
0.000257044 0.000296864 -5.46167e-06
-1.03346e-05 -5.46167e-06 -5.69817e-06
0.00234814 0.000466914 -9.37693e-06
0.000466914 -7.63363e-05 -3.5689e-06
-9.37693e-06 -3.5689e-06 -5.13133e-05
0.00247494 0.000629032 -9.35108e-06
0.000629032 0.000331887 -1.29331e-06
-9.35108e-06 -1.29331e-06 0.000119629
0.00320653 0.000461192 -6.10428e-06
0.000461192 0.00146139 -6.19762e-07
-6.10428e-06 -6.19762e-07 0.00121505
0.00171462 0.000527591 -3.92306e-06
0.000527591 0.000546836 -3.47955e-06
-3.92306e-06 -3.47955e-06 0.000184248
0.00203498 0.000702285 -5.54232e-06
0.000702285 0.000289217 1.24317e-06
-5.54232e-06 1.24317e-06 -4.6493e-05
0.00197177 0.000733921 -3.59705e-06
0.000733921 0.000500761 -1.70185e-06
-3.59705e-06 -1.70185e-06 7.377e-05
0.000417406 0.000107466 1.18545e-06
0.000107466 3.34855e-05 -1.37892e-06
1.18545e-06 -1.37892e-06 -0.0001556
0.00241013 0.000358697 -2.48553e-06
0.000358697 -7.30007e-05 -1.99665e-06
-2.48553e-06 -1.99665e-06 7.00781e-06
0.00145241 0.000337628 1.04447e-06
0.000337628 0.000676909 1.55611e-06
1.04447e-06 1.55611e-06 0.000383691
0.0016 0.00051302 2.40908e-06
0.00051302 0.000451293 1.04806e-06
2.40908e-06 1.04806e-06 0.00011351
0.00259324 0.000602761 1.79608e-06
0.000602761 0.000243736 3.30421e-07
1.79608e-06 3.30421e-07 0.00016644
0.00168242 0.000711967 -1.70519e-06
0.000711967 -1.8181e-05 -4.61313e-06
-1.70519e-06 -4.61313e-06 -0.000345139
0.00214742 0.000773076 1.31e-07
0.000773076 0.000575352 5.74355e-07
1.31e-07 5.74355e-07 0.000127427
0.00120925 0.000273664 -4.22031e-06
0.000273664 0.000603474 2.64247e-06
-4.22031e-06 2.64247e-06 0.000348883
0.00347983 0.000513951 -7.75246e-05
0.000513951 0.000564435 -2.05938e-05
-7.75246e-05 -2.05938e-05 0.000700321
0.00142454 0.000482397 -6.57382e-06
0.000482397 0.000575895 4.75607e-06
-6.57382e-06 4.75607e-06 0.000243482
0.00160098 0.000599382 -2.28914e-06
0.000599382 0.000379684 -4.98512e-06
-2.28914e-06 -4.98512e-06 -2.5371e-05
0.00226078 0.00079242 -3.06882e-05
0.00079242 0.000155065 -1.84354e-05
-3.06882e-05 -1.84354e-05 -6.77938e-05
0.00109628 0.00067175 -2.05642e-05
0.00067175 -6.54157e-05 -1.92282e-06
-2.05642e-05 -1.92282e-06 -0.000476194
0.000376433 0.000791249 3.05609e-05
0.000791249 -0.00173208 -3.64625e-05
3.05609e-05 -3.64625e-05 -0.00141145
-6.16603e-05 0.000121001 3.58137e-06
0.000121001 -0.000254786 -9.68543e-07
3.58137e-06 -9.68543e-07 -0.000373449
0.000469711 0.000108647 7.4743e-07
0.000108647 9.69015e-05 1.94245e-06
7.4743e-07 1.94245e-06 1.10869e-05
0.00197039 0.000171291 1.7458e-06
0.000171291 0.00097899 6.33543e-07
1.7458e-06 6.33543e-07 0.000902398
0.00041755 -6.39234e-05 5.54198e-07
-6.39234e-05 1.08684e-05 -3.96316e-06
5.54198e-07 -3.96316e-06 -0.000109335
0.000390464 -3.86246e-05 -6.04682e-07
-3.86246e-05 6.5739e-06 -1.29733e-06
-6.04682e-07 -1.29733e-06 -0.000136956
0.00104628 0.00018704 3.04487e-07
0.00018704 0.000422268 1.11115e-06
3.04487e-07 1.11115e-06 0.000260314
-0.000146971 2.98197e-05 -6.61217e-06
2.98197e-05 -0.000327541 1.38427e-05
-6.61217e-06 1.38427e-05 -0.0003977
0.000525953 -1.40467e-05 -3.25626e-07
-1.40467e-05 7.82713e-05 -1.2627e-07
-3.25626e-07 -1.2627e-07 -4.90084e-05
0.000494036 6.87282e-05 1.34889e-07
6.87282e-05 5.19693e-05 -6.77188e-07
1.34889e-07 -6.77188e-07 -9.27256e-05
0.00119268 0.000116993 2.49873e-06
0.000116993 0.000447104 4.4879e-06
2.49873e-06 4.4879e-06 0.000400434
0.000517446 6.79551e-05 1.6213e-06
6.79551e-05 7.94947e-05 7.21815e-07
1.6213e-06 7.21815e-07 -6.9013e-05
0.000684886 5.26498e-05 -1.34678e-06
5.26498e-05 0.00015655 -2.05994e-06
-1.34678e-06 -2.05994e-06 5.88154e-05
0.00159815 0.000132944 -2.20927e-06
0.000132944 0.000733048 -1.27697e-05
-2.20927e-06 -1.27697e-05 0.000681663
0.000859867 0.00013882 -2.03219e-06
0.00013882 0.000251668 -2.51417e-06
-2.03219e-06 -2.51417e-06 0.000105641
0.000943664 0.000133543 1.74638e-06
0.000133543 0.000336327 1.47207e-06
1.74638e-06 1.47207e-06 0.000177058
0.000897521 9.14237e-05 2.44723e-07
9.14237e-05 0.000324941 1.76938e-06
2.44723e-07 1.76938e-06 0.000150517
0.00026548 -2.34809e-05 -1.68969e-07
-2.34809e-05 -0.000103481 2.41661e-06
-1.68969e-07 2.41661e-06 -0.000227295
0.00107107 -7.89429e-05 5.44807e-07
-7.89429e-05 0.000470938 -1.83677e-06
5.44807e-07 -1.83677e-06 0.000284514
0.000196966 -3.96957e-05 -1.20247e-06
-3.96957e-05 -0.000143337 3.57006e-06
-1.20247e-06 3.57006e-06 -0.000272234
0.000456763 3.93719e-06 -1.72269e-06
3.93719e-06 1.09063e-05 3.17744e-06
-1.72269e-06 3.17744e-06 -7.37318e-05
0.000475404 3.8498e-05 2.48477e-06
3.8498e-05 1.98701e-05 -1.47951e-07
2.48477e-06 -1.47951e-07 -6.22896e-05
0.000381901 2.15692e-05 1.45318e-07
2.15692e-05 -6.56231e-05 4.4793e-06
1.45318e-07 4.4793e-06 -8.93496e-05
0.000433123 6.92795e-06 -2.86558e-06
6.92795e-06 -6.9541e-06 -3.6405e-06
-2.86558e-06 -3.6405e-06 -8.51571e-05
0.000882292 1.63064e-05 -3.47587e-06
1.63064e-05 0.000242035 -1.5424e-06
-3.47587e-06 -1.5424e-06 0.000221362
0.00261968 -4.68818e-06 1.9264e-05
-4.68818e-06 0.00132035 5.53229e-06
1.9264e-05 5.53229e-06 0.00133317
0.00139509 2.2965e-05 -1.01138e-05
2.2965e-05 0.000556843 -6.67051e-06
-1.01138e-05 -6.67051e-06 0.000539009
0.00076693 -1.06738e-05 6.73042e-06
-1.06738e-05 0.000153004 3.41794e-06
6.73042e-06 3.41794e-06 0.00015815
0.000789467 -2.14529e-05 5.91713e-07
-2.14529e-05 0.000159597 -2.65365e-06
5.91713e-07 -2.65365e-06 0.000163976
0.000495986 1.38283e-05 -2.24806e-06
1.38283e-05 9.14007e-06 -2.441e-06
-2.24806e-06 -2.441e-06 -4.0875e-05
0.000551743 -2.41686e-05 8.35522e-07
-2.41686e-05 3.96064e-05 -3.21346e-07
8.35522e-07 -3.21346e-07 -1.13477e-05
0.000495771 2.29477e-05 2.98587e-08
2.29477e-05 -1.88507e-05 -3.5676e-06
2.98587e-08 -3.5676e-06 -3.29981e-05
0.000801761 3.80476e-05 -1.22706e-07
3.80476e-05 0.00018054 1.28218e-07
-1.22706e-07 1.28218e-07 0.000164184
0.00220195 7.16762e-05 9.4567e-06
7.16762e-05 0.00107 -4.52154e-06
9.4567e-06 -4.52154e-06 0.00107921
0.000482727 5.50838e-05 5.05943e-06
5.50838e-05 -2.38137e-06 5.65531e-06
5.05943e-06 5.65531e-06 -3.18737e-05
0.002421 9.80528e-05 -2.87124e-06
9.80528e-05 0.00121748 -2.8403e-07
-2.87124e-06 -2.8403e-07 0.00122039
0.00279487 0.000133573 4.68186e-06
0.000133573 0.0014646 7.3209e-06
4.68186e-06 7.3209e-06 0.00145816
0.0022172 0.000318035 -2.49302e-06
0.000318035 -4.45542e-05 -4.72056e-07
-2.49302e-06 -4.72056e-07 -1.79421e-05
0.00214002 0.000101318 2.01722e-06
0.000101318 -5.30675e-05 6.20259e-07
2.01722e-06 6.20259e-07 1.09796e-06
0.00203322 -6.24563e-06 -5.80012e-07
-6.24563e-06 -1.56835e-05 -1.20601e-07
-5.80012e-07 -1.20601e-07 2.82025e-06
0.00213043 -7.18484e-06 1.31452e-07
-7.18484e-06 -6.95884e-05 -2.36548e-07
1.31452e-07 -2.36548e-07 -4.04496e-06
0.00233871 0.000166304 -3.76263e-07
0.000166304 -5.20057e-05 4.63933e-07
-3.76263e-07 4.63933e-07 1.45968e-05
0.00227161 9.10914e-05 8.2876e-06
9.10914e-05 -4.74834e-05 -5.73041e-06
8.2876e-06 -5.73041e-06 2.66563e-05
0.00238404 -2.54397e-06 1.55287e-06
-2.54397e-06 -9.38939e-05 -1.86224e-06
1.55287e-06 -1.86224e-06 1.23638e-05
0.00454166 0.000819451 5.96094e-05
0.000819451 -0.000439545 1.17948e-05
5.96094e-05 1.17948e-05 0.00020782
0.00280667 7.03976e-05 -2.38463e-05
7.03976e-05 0.000441374 2.85878e-05
-2.38463e-05 2.85878e-05 0.000646836
0.000486469 0.000109486 -2.93379e-06
0.000109486 4.32292e-05 -1.17343e-06
-2.93379e-06 -1.17343e-06 -5.12391e-05
0.00215712 -0.000132248 9.13104e-07
-0.000132248 -5.55319e-05 -4.28107e-07
9.13104e-07 -4.28107e-07 5.1901e-06
0.00223359 -0.000335322 2.223e-06
-0.000335322 -5.51255e-05 -8.50603e-07
2.223e-06 -8.50603e-07 1.05777e-06
0.00217088 -0.000483954 -4.57834e-07
-0.000483954 -1.17466e-05 4.57068e-07
-4.57834e-07 4.57068e-07 -3.43391e-06
0.00107678 -0.000588412 -7.82988e-07
-0.000588412 0.000147673 9.52007e-06
-7.82988e-07 9.52007e-06 -0.000275258
0.0021765 -0.000863313 2.11568e-05
-0.000863313 0.000620321 9.86156e-06
2.11568e-05 9.86156e-06 0.000109783
0.00155882 -0.000767097 -5.61129e-06
-0.000767097 2.06766e-05 -4.45278e-06
-5.61129e-06 -4.45278e-06 -0.000336899
0.00221092 -0.000684728 -5.71265e-06
-0.000684728 0.000100416 1.50613e-06
-5.71265e-06 1.50613e-06 -4.29135e-05
0.00169518 -0.000525715 4.01332e-05
-0.000525715 0.00052344 -3.26551e-05
4.01332e-05 -3.26551e-05 0.000166285
0.00141387 -0.000421759 2.96085e-05
-0.000421759 0.000609177 -2.75007e-05
2.96085e-05 -2.75007e-05 0.000133257
0.000713912 -6.20588e-05 2.26221e-07
-6.20588e-05 0.000101815 5.10273e-06
2.26221e-07 5.10273e-06 -0.000205811
0.000488156 1.00653e-05 2.3314e-06
1.00653e-05 2.64475e-06 9.802e-07
2.3314e-06 9.802e-07 -5.05769e-05
0.00136474 -0.000111572 1.20587e-06
-0.000111572 0.000617065 6.8814e-06
1.20587e-06 6.8814e-06 0.000327435
0.000918471 -2.33511e-05 7.45922e-06
-2.33511e-05 0.000354473 -1.07218e-06
7.45922e-06 -1.07218e-06 0.000229389
0.000676393 -5.1341e-05 2.5632e-06
-5.1341e-05 0.000205707 -7.00117e-07
2.5632e-06 -7.00117e-07 -1.84053e-06
0.000124067 -4.34401e-05 -3.22929e-06
-4.34401e-05 -0.000209414 -3.2392e-07
-3.22929e-06 -3.2392e-07 -0.00029463
0.00223072 -0.000170013 -4.9033e-07
-0.000170013 -0.000173384 1.92414e-08
-4.9033e-07 1.92414e-08 -6.71541e-05
0.000342551 2.64621e-05 4.15786e-07
2.64621e-05 -4.35308e-05 -2.45374e-06
4.15786e-07 -2.45374e-06 -0.000146187
0.000586372 -5.71899e-05 2.59602e-06
-5.71899e-05 0.000109937 9.80474e-07
2.59602e-06 9.80474e-07 1.40214e-05
0.000895852 -0.000126345 3.53354e-06
-0.000126345 0.000256456 1.95244e-07
3.53354e-06 1.95244e-07 0.000153438
0.00227653 -0.000456632 2.05712e-06
-0.000456632 -0.000180256 -7.87702e-07
2.05712e-06 -7.87702e-07 -1.95281e-05
0.00235854 -0.000673997 5.30642e-07
-0.000673997 3.40455e-05 -6.12646e-07
5.30642e-07 -6.12646e-07 -3.35427e-06
0.000509515 -0.00048559 7.10276e-06
-0.00048559 -0.000141069 -1.16261e-07
7.10276e-06 -1.16261e-07 -0.000534075
0.00265781 -0.00102174 1.74842e-05
-0.00102174 0.000775855 3.20591e-07
1.74842e-05 3.20591e-07 0.000244513
0.00234683 -0.000888979 -8.25543e-07
-0.000888979 0.000280906 2.19114e-06
-8.25543e-07 2.19114e-06 3.34885e-05
0.000295473 -2.91329e-05 -7.81569e-07
-2.91329e-05 -5.17807e-05 2.07321e-07
-7.81569e-07 2.07321e-07 -0.000207916
0.00104414 -0.000122757 -9.19172e-07
-0.000122757 0.000441418 3.9284e-06
-9.19172e-07 3.9284e-06 0.000192497
0.00167739 -0.000714124 -1.46022e-06
-0.000714124 0.000516196 1.8476e-06
-1.46022e-06 1.8476e-06 8.05496e-05
0.000145576 -0.000212619 -1.15055e-06
-0.000212619 -6.02011e-06 1.58944e-06
-1.15055e-06 1.58944e-06 -0.000613654
0.00125647 -0.00012421 1.4963e-06
-0.00012421 0.000474922 5.95734e-06
1.4963e-06 5.95734e-06 0.000214089
0.00268389 -0.000321923 -7.32334e-06
-0.000321923 9.54607e-05 1.05845e-06
-7.32334e-06 1.05845e-06 0.000210071
0.00204469 -0.000506811 -1.59833e-05
-0.000506811 -0.000297213 7.47372e-06
-1.59833e-05 7.47372e-06 -6.50023e-05
0.00218189 -0.000807525 -6.50752e-06
-0.000807525 5.39202e-05 -1.18992e-06
-6.50752e-06 -1.18992e-06 -0.000124313
0.00439526 -0.00119194 -8.37103e-06
-0.00119194 0.00155528 -2.34324e-06
-8.37103e-06 -2.34324e-06 0.00120248
0.000174319 -0.000607651 -2.04291e-05
-0.000607651 -0.000364125 -7.52271e-06
-2.04291e-05 -7.52271e-06 -0.000794651
6.9569e-05 -2.7961e-05 4.1353e-07
-2.7961e-05 -0.000208291 3.88507e-07
4.1353e-07 3.88507e-07 -0.000317278
0.00076214 1.37945e-05 -3.86344e-06
1.37945e-05 0.00015679 1.11236e-05
-3.86344e-06 1.11236e-05 5.29959e-05
-0.00166554 -0.000119468 -6.15732e-06
-0.000119468 -0.00133199 9.7341e-08
-6.15732e-06 9.7341e-08 -0.00140848
0.00205068 -0.000284873 -2.16482e-05
-0.000284873 0.00106065 2.31562e-05
-2.16482e-05 2.31562e-05 0.000847799
0.000865621 -9.59136e-05 -5.14757e-06
-9.59136e-05 0.000310539 2.60434e-05
-5.14757e-06 2.60434e-05 7.87141e-05
-0.00146816 -0.000116034 6.17862e-06
-0.000116034 -0.000546706 1.27012e-07
6.17862e-06 1.27012e-07 -0.00130078
0.00037919 -0.000782298 -2.01624e-05
-0.000782298 6.28368e-05 8.608e-06
-2.01624e-05 8.608e-06 -0.000587425
0.00162001 0.000233922 -3.60931e-06
0.000233922 0.000787555 -6.61055e-06
-3.60931e-06 -6.61055e-06 0.000566546
-0.000480224 8.81714e-05 -4.57637e-06
8.81714e-05 -0.000542634 -2.18797e-06
-4.57637e-06 -2.18797e-06 -0.000773695
0.0025478 0.000334062 1.17146e-06
0.000334062 4.35942e-06 1.30164e-06
1.17146e-06 1.30164e-06 9.995e-05
0.00255133 0.000595566 1.17578e-05
0.000595566 0.000227524 5.67167e-06
1.17578e-05 5.67167e-06 0.00015453
0.00214277 0.000752017 5.8709e-06
0.000752017 0.000253019 2.63117e-06
5.8709e-06 2.63117e-06 -7.76579e-05
0.00158333 0.000506449 -1.69088e-06
0.000506449 0.000466518 3.55194e-07
-1.69088e-06 3.55194e-07 0.000124941
0.00170864 0.000716319 1.16577e-06
0.000716319 0.000336704 2.18956e-06
1.16577e-06 2.18956e-06 -9.99451e-05
0.00197134 0.000299478 7.13664e-07
0.000299478 0.00101356 -4.96538e-07
7.13664e-07 -4.96538e-07 0.000783481
0.002759 0.000416786 5.53685e-06
0.000416786 0.00018574 2.74295e-06
5.53685e-06 2.74295e-06 0.00035308
0.00119476 0.000403854 -3.76114e-06
0.000403854 0.000405264 3.14843e-06
-3.76114e-06 3.14843e-06 0.000108418
0.00168315 0.000613956 3.38733e-06
0.000613956 0.000466495 -2.11105e-07
3.38733e-06 -2.11105e-07 4.48718e-05
0.00227759 0.000775162 -3.18679e-06
0.000775162 0.000180813 -3.5548e-06
-3.18679e-06 -3.5548e-06 -2.25958e-05
0.00182852 0.000764969 -4.41312e-06
0.000764969 0.000346511 5.23292e-06
-4.41312e-06 5.23292e-06 -8.52514e-05
0.00307636 0.00109881 4.10737e-05
0.00109881 -0.000572126 7.92051e-06
4.10737e-05 7.92051e-06 -0.000426982
0.000434873 0.00027031 -3.83273e-06
0.00027031 0.000147796 2.32717e-06
-3.83273e-06 2.32717e-06 -0.000106067
0.00281844 0.000764021 -8.22821e-05
0.000764021 0.00033777 -3.71259e-05
-8.22821e-05 -3.71259e-05 0.0002983
0.00071069 0.000406781 -7.56087e-06
0.000406781 -5.93374e-05 3.30915e-06
-7.56087e-06 3.30915e-06 -0.000378905
-3.09581e-05 0.000460997 4.56593e-07
0.000460997 -0.000547994 -1.42513e-05
4.56593e-07 -1.42513e-05 -0.000941136
0.00127557 0.000817995 -3.58398e-05
0.000817995 -0.000163507 -1.10262e-05
-3.58398e-05 -1.10262e-05 -0.00043086
0.0146208 0.000395974 -0.000490345
0.000395974 0.00226563 -7.70311e-05
-0.000490345 -7.70311e-05 0.0017712
0.00366965 0.00169771 -5.34024e-05
0.00169771 -0.00191377 -7.03476e-05
-5.34024e-05 -7.03476e-05 -0.000691992
0.000307612 0.00125118 1.08633e-05
0.00125118 -0.000882797 1.95155e-06
1.08633e-05 1.95155e-06 -0.00112848
0.00213269 -0.00218988 0.0014811
-0.00218988 0.00185091 0.000305998
0.0014811 0.000305998 -0.00144663
0.0215937 -0.00840279 -3.9531e-05
-0.00840279 0.00827659 8.0113e-05
-3.9531e-05 8.0113e-05 0.0058509
-0.000118125 0.000104658 7.81755e-06
0.000104658 -0.000229181 2.22237e-06
7.81755e-06 2.22237e-06 -0.000323529
0.000864156 0.000112709 -5.86922e-07
0.000112709 0.000347117 -2.72346e-06
-5.86922e-07 -2.72346e-06 0.000269779
0.00205906 0.00027696 1.38555e-06
0.00027696 0.0011077 -2.01299e-07
1.38555e-06 -2.01299e-07 0.000983653
0.000494535 -5.56797e-05 -6.87069e-07
-5.56797e-05 6.84129e-05 -2.73999e-06
-6.87069e-07 -2.73999e-06 -6.39511e-05
0.00033735 6.53036e-05 -1.1215e-06
6.53036e-05 -4.64284e-05 -3.12944e-06
-1.1215e-06 -3.12944e-06 -0.000190878
0.000769786 -2.16668e-05 -6.80047e-08
-2.16668e-05 0.000234906 -1.29707e-06
-6.80047e-08 -1.29707e-06 8.37069e-05
0.000759771 7.70346e-05 -4.15947e-06
7.70346e-05 0.000197207 1.06095e-05
-4.15947e-06 1.06095e-05 9.36641e-05
0.000203267 8.06866e-05 2.22202e-06
8.06866e-05 -0.000165329 9.59672e-06
2.22202e-06 9.59672e-06 -0.000209836
0.000733134 0.000143835 -1.39893e-06
0.000143835 0.000232266 -4.30879e-07
-1.39893e-06 -4.30879e-07 5.47706e-05
0.000404778 -9.9677e-06 4.07381e-07
-9.9677e-06 -7.43885e-06 9.99291e-07
4.07381e-07 9.99291e-07 -0.000136377
0.000705842 5.30111e-05 -6.56405e-07
5.30111e-05 0.000197201 1.82136e-08
-6.56405e-07 1.82136e-08 3.10469e-05
0.000333354 8.92304e-05 -1.17126e-06
8.92304e-05 -5.25224e-05 -1.85996e-06
-1.17126e-06 -1.85996e-06 -0.000102536
0.000664054 0.000116853 -1.5021e-06
0.000116853 0.000147676 -1.69986e-07
-1.5021e-06 -1.69986e-07 4.23202e-06
0.00191693 0.000228594 -1.26024e-06
0.000228594 0.000959653 -1.046e-06
-1.26024e-06 -1.046e-06 0.000770352
0.000246334 0.000102634 3.50223e-07
0.000102634 -3.248e-05 -3.55946e-06
3.50223e-07 -3.55946e-06 -0.00019249
0.000928008 0.000109023 3.18993e-06
0.000109023 0.000338724 7.46931e-09
3.18993e-06 7.46931e-09 0.000170347
0.00035443 -1.19009e-05 1.18534e-06
-1.19009e-05 -4.07069e-05 -1.6994e-07
1.18534e-06 -1.6994e-07 -0.00020103
0.000348681 -7.2701e-05 -7.39851e-07
-7.2701e-05 -4.33527e-05 1.81047e-06
-7.39851e-07 1.81047e-06 -0.000176897
0.000708632 -3.36044e-05 -7.64719e-07
-3.36044e-05 0.000197847 -5.8692e-07
-7.64719e-07 -5.8692e-07 3.30098e-05
0.00127535 -9.08612e-06 8.12192e-07
-9.08612e-06 0.000543912 -1.03137e-05
8.12192e-07 -1.03137e-05 0.000387306
0.000745163 -5.10704e-05 -9.92914e-07
-5.10704e-05 0.00026222 -1.29141e-06
-9.92914e-07 -1.29141e-06 0.000102538
0.00076275 -7.33874e-05 1.91199e-06
-7.33874e-05 0.000248901 -7.10066e-07
1.91199e-06 -7.10066e-07 8.47153e-05
0.000663085 -0.000124945 -1.78986e-06
-0.000124945 0.000158659 2.95094e-06
-1.78986e-06 2.95094e-06 2.49455e-05
0.000290831 -2.43551e-05 1.64328e-07
-2.43551e-05 -8.08863e-05 1.09593e-06
1.64328e-07 1.09593e-06 -0.000213283
0.000502631 -5.63747e-05 -1.7444e-06
-5.63747e-05 2.9582e-05 3.91086e-06
-1.7444e-06 3.91086e-06 -4.94768e-05
0.000499564 -3.80225e-05 1.95228e-06
-3.80225e-05 3.50501e-05 1.03146e-07
1.95228e-06 1.03146e-07 -4.82952e-05
0.000440798 2.90241e-06 2.92058e-06
2.90241e-06 -2.54804e-05 6.43151e-06
2.92058e-06 6.43151e-06 -5.0716e-05
0.000513552 5.16908e-05 -1.97083e-06
5.16908e-05 3.77262e-05 -3.37743e-06
-1.97083e-06 -3.37743e-06 -4.04717e-05
0.000404121 3.19172e-05 3.52612e-07
3.19172e-05 -4.97273e-05 7.24852e-08
3.52612e-07 7.24852e-08 -7.45292e-05
0.00254183 4.99333e-06 5.57803e-06
4.99333e-06 0.00127368 5.39116e-06
5.57803e-06 5.39116e-06 0.00128611
0.000466251 3.98299e-05 -3.68976e-06
3.98299e-05 -1.54517e-05 -7.26553e-06
-3.68976e-06 -7.26553e-06 -4.08129e-05
0.00170937 -5.12139e-06 -3.58114e-06
-5.12139e-06 0.000748482 1.68636e-07
-3.58114e-06 1.68636e-07 0.000756512
0.000809831 -1.12409e-05 4.93317e-07
-1.12409e-05 0.000175277 -2.32968e-06
4.93317e-07 -2.32968e-06 0.000180496
0.000441509 5.32726e-06 -4.10342e-07
5.32726e-06 -2.87347e-05 -1.7356e-06
-4.10342e-07 -1.7356e-06 -7.03648e-05
0.000535105 -3.79038e-05 8.31344e-08
-3.79038e-05 3.69579e-05 1.23914e-08
8.31344e-08 1.23914e-08 -1.51386e-05
0.000522465 1.22497e-05 8.63697e-07
1.22497e-05 -4.56103e-06 -3.34469e-06
8.63697e-07 -3.34469e-06 -1.5617e-05
0.000476578 -3.75124e-05 -1.32453e-06
-3.75124e-05 -6.54461e-06 4.32126e-07
-1.32453e-06 4.32126e-07 -5.78984e-05
0.000798419 2.76422e-05 -1.74355e-07
2.76422e-05 0.000172084 -7.19912e-07
-1.74355e-07 -7.19912e-07 0.000160066
0.00202115 5.27379e-05 6.07225e-06
5.27379e-05 0.000949672 -4.58826e-06
6.07225e-06 -4.58826e-06 0.000963007
0.000459443 3.38169e-05 1.10294e-06
3.38169e-05 -3.47565e-05 3.79694e-06
1.10294e-06 3.79694e-06 -5.35572e-05
0.00233153 7.7496e-05 -5.79263e-06
7.7496e-05 0.00115448 1.1651e-06
-5.79263e-06 1.1651e-06 0.00116222
0.00255853 0.000106467 -1.09608e-06
0.000106467 0.00130616 5.76617e-06
-1.09608e-06 5.76617e-06 0.00130712
0.00230533 0.000173868 -3.07316e-06
0.000173868 -5.58281e-05 -7.28236e-07
-3.07316e-06 -7.28236e-07 1.02816e-05
0.00212196 -6.28806e-06 1.87651e-06
-6.28806e-06 -7.34631e-05 -9.48461e-08
1.87651e-06 -9.48461e-08 -8.44673e-06
0.00204204 6.58552e-05 -7.29346e-06
6.58552e-05 -0.00021409 3.43551e-06
-7.29346e-06 3.43551e-06 -0.000142877
0.00257336 0.000612122 9.29628e-05
0.000612122 -0.00144305 1.97944e-05
9.29628e-05 1.97944e-05 -0.000717163
0.00237235 -3.04567e-05 -3.1473e-07
-3.04567e-05 -7.80281e-05 -2.75384e-06
-3.1473e-07 -2.75384e-06 2.73734e-05
0.00220961 6.47849e-05 4.73382e-07
6.47849e-05 8.67515e-05 -9.30215e-06
4.73382e-07 -9.30215e-06 0.000230376
0.00323972 -4.14271e-05 -2.46576e-05
-4.14271e-05 0.000822112 -6.59167e-07
-2.46576e-05 -6.59167e-07 0.00085102
0.00326601 0.000120408 -1.48407e-05
0.000120408 -0.00186755 -3.84534e-05
-1.48407e-05 -3.84534e-05 -0.000800551
0.0025779 0.000210456 0.000126771
0.000210456 -0.000818404 4.90573e-05
0.000126771 4.90573e-05 -0.000295294
0.000592183 8.78325e-05 -2.29929e-07
8.78325e-05 0.000111432 -7.83888e-07
-2.29929e-07 -7.83888e-07 1.78998e-05
0.000575641 -2.81299e-06 4.3205e-07
-2.81299e-06 0.000112231 -1.08387e-07
4.3205e-07 -1.08387e-07 9.76896e-06
0.000342306 -9.02394e-05 -6.30508e-06
-9.02394e-05 -2.11846e-05 1.00855e-06
-6.30508e-06 1.00855e-06 -0.00013682
0.000424184 -4.98462e-05 -3.96361e-06
-4.98462e-05 3.36255e-05 2.07008e-06
-3.96361e-06 2.07008e-06 -8.43351e-05
0.002313 -0.000190064 -3.25779e-06
-0.000190064 -0.000147153 -1.30132e-07
-3.25779e-06 -1.30132e-07 -2.31861e-05
0.00227824 -0.000463712 8.72556e-07
-0.000463712 -0.000152169 -2.4438e-06
8.72556e-07 -2.4438e-06 -2.83231e-05
0.00227128 -0.000665266 -3.56455e-06
-0.000665266 -1.07019e-05 1.47435e-06
-3.56455e-06 1.47435e-06 -4.79077e-05
0.00363105 -0.000840086 1.85257e-05
-0.000840086 0.00165099 1.39033e-05
1.85257e-05 1.39033e-05 0.00119224
0.000389462 -0.000777715 -1.8873e-06
-0.000777715 -0.000497529 9.74799e-07
-1.8873e-06 9.74799e-07 -0.000980409
0.00226871 -0.000882848 -3.13079e-07
-0.000882848 0.000253577 -2.37687e-06
-3.13079e-07 -2.37687e-06 -2.41493e-06
0.000919998 -0.000688227 2.01966e-05
-0.000688227 5.57694e-05 -1.88874e-05
2.01966e-05 -1.88874e-05 -0.000419716
0.00361021 -0.000314859 9.80982e-06
-0.000314859 0.00177728 -4.54529e-06
9.80982e-06 -4.54529e-06 0.00138259
-2.55017e-05 -1.76434e-05 -6.32769e-06
-1.76434e-05 -0.000392227 4.24218e-06
-6.32769e-06 4.24218e-06 -0.00059818
0.00064023 -5.52064e-05 3.86088e-06
-5.52064e-05 0.000142862 -6.66929e-07
3.86088e-06 -6.66929e-07 4.77718e-05
0.00061057 -0.000136541 -3.57288e-06
-0.000136541 0.000185138 -1.26902e-05
-3.57288e-06 -1.26902e-05 -6.61444e-05
0.000437734 -2.76838e-05 5.56354e-06
-2.76838e-05 3.59995e-05 -8.4867e-07
5.56354e-06 -8.4867e-07 -0.000115206
0.000598537 1.40978e-06 6.19988e-07
1.40978e-06 0.000143169 1.84914e-06
6.19988e-07 1.84914e-06 2.76536e-05
0.000574164 -7.35559e-05 -7.53658e-06
-7.35559e-05 5.66574e-05 -7.17312e-07
-7.53658e-06 -7.17312e-07 -3.31711e-05
0.00262445 -0.00030401 2.02263e-06
-0.00030401 7.09381e-05 1.39155e-06
2.02263e-06 1.39155e-06 0.000201997
0.000490204 -2.44631e-05 -7.3445e-07
-2.44631e-05 7.34517e-05 1.8961e-06
-7.3445e-07 1.8961e-06 -5.61389e-05
0.000847076 -4.55257e-05 6.59087e-06
-4.55257e-05 0.000222836 -1.45042e-07
6.59087e-06 -1.45042e-07 0.000108341
-0.000560908 -3.88286e-05 4.01557e-06
-3.88286e-05 -0.0005882 -8.84572e-08
4.01557e-06 -8.84572e-08 -0.00064872
0.002042 -0.000519451 6.84378e-07
-0.000519451 -0.000321546 -1.26038e-06
6.84378e-07 -1.26038e-06 -0.000104945
0.0022731 -0.000815726 2.15391e-06
-0.000815726 9.95976e-05 -1.28567e-06
2.15391e-06 -1.28567e-06 -7.27013e-05
0.00190917 -0.000842971 -4.42678e-06
-0.000842971 0.000600366 3.93505e-07
-4.42678e-06 3.93505e-07 0.000127707
0.00260595 -0.00101514 -6.09622e-06
-0.00101514 0.000579351 1.60468e-06
-6.09622e-06 1.60468e-06 0.000247486
0.00146936 -0.000158721 3.27433e-06
-0.000158721 0.000682718 -2.56912e-06
3.27433e-06 -2.56912e-06 0.000480178
0.000214222 -3.62598e-05 7.50327e-06
-3.62598e-05 -0.000123502 9.54769e-06
7.50327e-06 9.54769e-06 -0.000348783
0.00176503 -0.00101288 2.03686e-06
-0.00101288 0.000918264 -2.8279e-06
2.03686e-06 -2.8279e-06 0.000187663
0.00104455 -0.000389089 -7.23808e-06
-0.000389089 0.000445337 -9.90137e-07
-7.23808e-06 -9.90137e-07 -5.46081e-05
0.00338493 -0.00044561 -4.33812e-05
-0.00044561 0.000427558 4.67582e-06
-4.33812e-05 4.67582e-06 0.000686214
0.00264921 -0.000678311 -4.15214e-05
-0.000678311 0.00023227 1.32094e-05
-4.15214e-05 1.32094e-05 0.000291457
0.00255548 -0.000949746 3.15577e-06
-0.000949746 0.000446354 -9.13967e-06
3.15577e-06 -9.13967e-06 0.000123652
0.00301404 -0.00101673 4.24326e-06
-0.00101673 0.00102059 5.38683e-06
4.24326e-06 5.38683e-06 0.00067586
0.000107288 -5.86674e-05 -2.35907e-06
-5.86674e-05 -0.000101547 -7.63376e-06
-2.35907e-06 -7.63376e-06 -0.000227608
0.00044793 -0.000124495 -1.17826e-05
-0.000124495 5.15931e-05 -4.50225e-06
-1.17826e-05 -4.50225e-06 -0.00012928
0.000138878 -0.000185085 -6.53059e-06
-0.000185085 0.000130637 5.00978e-05
-6.53059e-06 5.00978e-05 -0.00019731
-0.000493964 -0.000844435 -3.52855e-06
-0.000844435 0.000270894 -2.7186e-05
-3.52855e-06 -2.7186e-05 -0.000790963
0.00260074 -0.000463009 5.76153e-05
-0.000463009 -0.00523325 -2.00584e-05
5.76153e-05 -2.00584e-05 -0.0052818
0.00233176 0.000286402 5.89481e-07
0.000286402 0.00121173 -3.72749e-06
5.89481e-07 -3.72749e-06 0.000985161
0.00122594 0.000351349 -6.4813e-07
0.000351349 0.000410771 -6.83959e-07
-6.4813e-07 -6.83959e-07 0.000137586
0.00191145 0.000340471 5.71202e-05
0.000340471 -0.000284695 1.77354e-05
5.71202e-05 1.77354e-05 -9.31298e-05
0.00255987 0.000783833 2.33614e-05
0.000783833 0.000348293 9.5274e-06
2.33614e-05 9.5274e-06 0.000155889
0.00218201 0.000810091 7.45105e-06
0.000810091 0.000555668 1.06952e-05
7.45105e-06 1.06952e-05 0.000110653
0.00123583 0.000564796 6.22316e-06
0.000564796 0.000237345 6.43846e-06
6.22316e-06 6.43846e-06 -0.000187514
0.00546369 0.00142487 0.000114911
0.00142487 0.000348172 3.38971e-05
0.000114911 3.38971e-05 0.000289381
0.00145924 0.00031391 5.4092e-06
0.00031391 0.000744386 1.77756e-07
5.4092e-06 1.77756e-07 0.000501868
0.00263677 0.000724594 -2.36579e-05
0.000724594 0.000227385 7.39553e-07
-2.36579e-05 7.39553e-07 0.000219758
0.000916391 0.000432652 -4.8097e-06
0.000432652 0.000105848 3.60376e-06
-4.8097e-06 3.60376e-06 -0.000226474
0.00144955 0.000655838 7.37867e-07
0.000655838 0.00030953 -6.53974e-06
7.37867e-07 -6.53974e-06 -0.000122986
0.00225205 0.000901743 -1.131e-05
0.000901743 0.000360017 -4.659e-07
-1.131e-05 -4.659e-07 6.35145e-05
0.00464194 -0.000653015 -0.000162939
-0.000653015 -0.00475465 -8.60465e-05
-0.000162939 -8.60465e-05 -0.00561195
0.00700238 0.00176209 -0.000141353
0.00176209 -0.000330733 -5.97922e-05
-0.000141353 -5.97922e-05 0.000662921
0.00107559 0.00124593 -1.40098e-06
0.00124593 -0.00044344 5.95562e-06
-1.40098e-06 5.95562e-06 -0.000798466
0.000799136 -0.00197209 0.000533818
-0.00197209 0.00284835 0.000209228
0.000533818 0.000209228 -6.94506e-05
0.0134619 -0.0085307 -0.000480751
-0.0085307 0.00643563 -0.00043771
-0.000480751 -0.00043771 0.00384334
0.00074109 0.00025858 -1.56288e-05
0.00025858 0.000207733 -4.14726e-07
-1.56288e-05 -4.14726e-07 -8.23881e-06
0.00122107 0.000543659 0.000748755
0.000543659 0.00410608 7.00662e-05
0.000748755 7.00662e-05 0.00212686
0.00364839 -0.00305521 -0.000180615
-0.00305521 0.00566473 -0.000230539
-0.000180615 -0.000230539 0.000548402
0.00307602 0.00115192 -5.47445e-05
0.00115192 0.000598583 -1.25654e-05
-5.47445e-05 -1.25654e-05 0.000411899
0.000713772 0.000341662 -2.68942e-05
0.000341662 -1.01556e-05 -4.4726e-06
-2.68942e-05 -4.4726e-06 -0.000301715
0.000811338 0.000674606 -3.09869e-05
0.000674606 1.49548e-05 -2.63863e-05
-3.09869e-05 -2.63863e-05 -0.000350689
-0.000142577 0.00113508 5.4553e-05
0.00113508 -0.000841387 9.71684e-05
5.4553e-05 9.71684e-05 -0.00121319
0.0124748 0.00242307 5.52526e-05
0.00242307 0.00140089 -2.19947e-05
5.52526e-05 -2.19947e-05 0.000509913
0.0048396 0.00260331 -4.41297e-05
0.00260331 -0.000153333 -5.09483e-05
-4.41297e-05 -5.09483e-05 0.000412118
0.0151572 -0.00649098 0.000997615
-0.00649098 0.00479905 0.000522929
0.000997615 0.000522929 0.00120371
0.0129455 -0.0029834 -9.22643e-05
-0.0029834 0.00359708 0.000616268
-9.22643e-05 0.000616268 0.00199348
0.000390432 9.16504e-05 5.05718e-06
9.16504e-05 9.26905e-05 -4.07508e-06
5.05718e-06 -4.07508e-06 7.70485e-06
0.000162457 0.000128845 8.41036e-06
0.000128845 -4.73306e-05 1.27236e-06
8.41036e-06 1.27236e-06 -0.000154775
0.0019203 0.000300247 2.64582e-06
0.000300247 0.00103634 -1.48127e-06
2.64582e-06 -1.48127e-06 0.000856268
0.000578355 8.1681e-06 9.03869e-07
8.1681e-06 0.000126015 -1.26514e-07
9.03869e-07 -1.26514e-07 -1.90811e-05
0.000611191 7.04261e-05 -7.21865e-07
7.04261e-05 0.000130117 -2.09467e-06
-7.21865e-07 -2.09467e-06 -2.90406e-05
3.29237e-05 3.61529e-05 -1.84263e-06
3.61529e-05 -0.000222182 8.56955e-07
-1.84263e-06 8.56955e-07 -0.000376134
0.00074107 0.000116666 -7.77857e-06
0.000116666 0.000215593 2.13124e-06
-7.77857e-06 2.13124e-06 6.78852e-05
-0.000510895 5.87124e-05 -4.00626e-06
5.87124e-05 -0.000590991 1.49265e-07
-4.00626e-06 1.49265e-07 -0.000639151
0.000348398 -1.34811e-05 1.25622e-07
-1.34811e-05 -3.76936e-05 8.4364e-07
1.25622e-07 8.4364e-07 -0.000175024
0.00128399 0.000143812 1.86888e-06
0.000143812 0.000546891 1.12136e-07
1.86888e-06 1.12136e-07 0.000374909
0.000579175 5.80658e-05 6.88723e-08
5.80658e-05 0.000132016 1.35032e-07
6.88723e-08 1.35032e-07 -4.20671e-05
0.000765623 3.6332e-05 1.29176e-06
3.6332e-05 0.000244979 -4.14441e-07
1.29176e-06 -4.14441e-07 6.48237e-05
0.000313203 0.0001037 -5.38124e-07
0.0001037 9.02642e-06 -2.77555e-06
-5.38124e-07 -2.77555e-06 -0.000148589
0.00145063 0.000135285 -1.92098e-06
0.000135285 0.000677839 -3.17084e-06
-1.92098e-06 -3.17084e-06 0.000508478
-0.00037466 5.4433e-05 -6.08613e-06
5.4433e-05 -0.000282412 -5.58804e-06
-6.08613e-06 -5.58804e-06 -0.000505042
0.000451476 -8.02147e-05 1.92462e-07
-8.02147e-05 4.49355e-05 -4.35728e-07
1.92462e-07 -4.35728e-07 -0.000127004
0.000785769 -8.3549e-05 -1.18416e-06
-8.3549e-05 0.000264338 -7.33201e-07
-1.18416e-06 -7.33201e-07 8.34557e-05
0.000779311 -4.95321e-05 -2.50416e-07
-4.95321e-05 0.000257485 -6.55335e-07
-2.50416e-07 -6.55335e-07 8.00667e-05
0.000711369 -2.83213e-05 -3.79961e-06
-2.83213e-05 0.000177817 3.83273e-07
-3.79961e-06 3.83273e-07 3.91772e-05
0.00110573 3.05184e-06 -6.4548e-06
3.05184e-06 0.000495512 -5.17158e-06
-6.4548e-06 -5.17158e-06 0.00029463
0.000793309 -6.13719e-05 2.88136e-06
-6.13719e-05 0.000243539 -9.73635e-06
2.88136e-06 -9.73635e-06 0.000108286
-0.00130417 -1.95495e-06 -3.20741e-06
-1.95495e-06 -0.00105187 -6.83038e-06
-3.20741e-06 -6.83038e-06 -0.00116634
0.000381973 -4.43278e-05 2.21899e-06
-4.43278e-05 2.59752e-05 -2.0437e-06
2.21899e-06 -2.0437e-06 -0.000150199
0.00034335 -7.83903e-05 2.1657e-06
-7.83903e-05 -3.03486e-05 2.31915e-07
2.1657e-06 2.31915e-07 -0.000166148
0.000717911 -0.000105554 -1.24916e-06
-0.000105554 0.000224815 1.98983e-08
-1.24916e-06 1.98983e-08 7.25492e-05
0.000513367 -8.4425e-05 -1.04748e-06
-8.4425e-05 4.7222e-05 2.04882e-06
-1.04748e-06 2.04882e-06 -6.94813e-05
0.000400963 -8.41755e-05 3.37344e-06
-8.41755e-05 -1.18015e-05 7.90713e-07
3.37344e-06 7.90713e-07 -0.000151018
0.00054177 -0.000114322 1.09308e-08
-0.000114322 7.94519e-05 2.04747e-07
1.09308e-08 2.04747e-07 -5.29063e-05
0.00053821 -5.53249e-05 -1.91563e-06
-5.53249e-05 4.87351e-05 4.62783e-06
-1.91563e-06 4.62783e-06 -3.09058e-05
0.000380164 -9.43837e-06 8.1068e-07
-9.43837e-06 -8.73839e-06 -1.0585e-06
8.1068e-07 -1.0585e-06 -0.000152879
0.000491148 8.66033e-07 2.22555e-06
8.66033e-07 3.00705e-05 1.28989e-07
2.22555e-06 1.28989e-07 -5.37626e-05
0.00145188 -2.97042e-05 -9.15396e-06
-2.97042e-05 0.000600486 6.85986e-06
-9.15396e-06 6.85986e-06 0.000579351
0.000480885 6.6914e-05 -2.07125e-06
6.6914e-05 2.33533e-05 -3.31419e-06
-2.07125e-06 -3.31419e-06 -5.95224e-05
0.000870899 -1.62993e-05 -3.88299e-06
-1.62993e-05 0.000243264 7.30101e-07
-3.88299e-06 7.30101e-07 0.000220099
0.000782967 3.48992e-06 -2.7743e-06
3.48992e-06 0.000173371 4.82184e-06
-2.7743e-06 4.82184e-06 0.000177829
0.000394076 -1.80007e-05 3.2828e-06
-1.80007e-05 -5.68107e-05 -4.92285e-06
3.2828e-06 -4.92285e-06 -8.08416e-05
0.00257141 3.74938e-06 6.93649e-06
3.74938e-06 0.00129258 -1.21121e-08
6.93649e-06 -1.21121e-08 0.00130491
0.000888818 2.78099e-06 -9.01081e-06
2.78099e-06 0.000235777 -5.38062e-06
-9.01081e-06 -5.38062e-06 0.000239607
0.000500229 6.47673e-05 2.09929e-06
6.47673e-05 5.63583e-05 9.51146e-07
2.09929e-06 9.51146e-07 -4.35132e-05
0.000459576 5.21808e-05 -2.58762e-06
5.21808e-05 -6.5088e-06 -2.2439e-06
-2.58762e-06 -2.2439e-06 -5.32812e-05
0.000479803 -3.87197e-06 1.60019e-06
-3.87197e-06 6.93096e-06 1.3966e-07
1.60019e-06 1.3966e-07 -4.21519e-05
0.000482067 9.10558e-06 7.85455e-07
9.10558e-06 -2.90167e-05 -3.09757e-06
7.85455e-07 -3.09757e-06 -3.85762e-05
0.000552688 -6.21036e-05 -1.72106e-06
-6.21036e-05 5.59578e-05 2.17001e-06
-1.72106e-06 2.17001e-06 -5.93731e-07
0.000478227 1.32009e-05 9.23141e-08
1.32009e-05 -3.26108e-05 -7.16866e-07
9.23141e-08 -7.16866e-07 -4.34592e-05
0.00201194 3.66121e-05 4.10708e-06
3.66121e-05 0.000939589 -4.64459e-06
4.10708e-06 -4.64459e-06 0.000955223
0.00110045 3.57128e-05 -5.34307e-08
3.57128e-05 0.000363682 1.6584e-06
-5.34307e-08 1.6584e-06 0.000352782
0.00146518 4.54442e-05 -3.0989e-07
4.54442e-05 0.000600658 1.42939e-06
-3.0989e-07 1.42939e-06 0.000609182
0.000878363 4.91902e-05 -6.57926e-06
4.91902e-05 0.000237337 8.08644e-06
-6.57926e-06 8.08644e-06 0.000238258
0.000861042 0.000420717 7.73783e-05
0.000420717 -0.00226443 1.65188e-05
7.73783e-05 1.65188e-05 -0.00151415
0.00234482 -5.0675e-05 -4.6116e-06
-5.0675e-05 -6.14218e-05 6.13411e-06
-4.6116e-06 6.13411e-06 3.58734e-05
0.00219779 7.01054e-05 3.12363e-05
7.01054e-05 0.00010579 -1.23869e-05
3.12363e-05 -1.23869e-05 0.000226992
0.0027181 0.000376444 -5.24922e-05
0.000376444 -0.00179148 -3.55542e-05
-5.24922e-05 -3.55542e-05 -0.000480453
0.00244856 0.000116117 4.42004e-05
0.000116117 -0.000683312 -1.70293e-06
4.42004e-05 -1.70293e-06 -0.000268279
0.00259432 -5.11744e-05 2.98833e-06
-5.11744e-05 0.000346328 -9.48029e-06
2.98833e-06 -9.48029e-06 0.00040532
0.00475069 -0.000350479 -5.76749e-05
-0.000350479 0.00108653 -1.86117e-05
-5.76749e-05 -1.86117e-05 0.00122598
0.00302571 -0.00023924 2.79918e-05
-0.00023924 -0.000456589 3.62629e-06
2.79918e-05 3.62629e-06 0.000146179
0.016036 -0.000843602 4.69352e-05
-0.000843602 0.00277207 -1.49213e-05
4.69352e-05 -1.49213e-05 0.0017046
0.0152188 0.00549433 0.00141902
0.00549433 0.00595435 -0.000458894
0.00141902 -0.000458894 0.00301509
0.0187315 0.00638072 4.23077e-05
0.00638072 0.0120826 1.09558e-05
4.23077e-05 1.09558e-05 0.00919709
0.000155628 -9.85248e-05 -2.74404e-07
-9.85248e-05 -0.000142421 -6.28226e-07
-2.74404e-07 -6.28226e-07 -0.000252841
0.000546611 -7.07428e-06 1.57844e-06
-7.07428e-06 8.21246e-05 -1.0617e-07
1.57844e-06 -1.0617e-07 -1.14792e-05
0.000622743 -8.75063e-05 -9.97698e-08
-8.75063e-05 0.000148181 3.31893e-06
-9.97698e-08 3.31893e-06 3.91922e-05
0.000540283 -3.19797e-05 7.29656e-07
-3.19797e-05 9.15876e-05 4.54274e-07
7.29656e-07 4.54274e-07 -2.38965e-05
0.000922239 0.000110494 -5.17752e-06
0.000110494 0.000374109 8.40377e-07
-5.17752e-06 8.40377e-07 0.000237472
0.000460187 0.000128721 4.65297e-07
0.000128721 1.36386e-05 7.69822e-06
4.65297e-07 7.69822e-06 -0.000106624
0.000966879 -5.83523e-06 2.3324e-06
-5.83523e-06 0.000375037 3.9098e-06
2.3324e-06 3.9098e-06 0.000236703
0.0005121 -2.79625e-05 -1.56376e-06
-2.79625e-05 6.94921e-05 1.34224e-06
-1.56376e-06 1.34224e-06 -4.45816e-05
0.00257238 -0.000287747 1.15842e-05
-0.000287747 3.32995e-05 -1.13162e-06
1.15842e-05 -1.13162e-06 0.000195487
0.00208468 -0.00054309 1.47484e-05
-0.00054309 -0.000332421 -6.9527e-06
1.47484e-05 -6.9527e-06 -0.000131309
0.00229661 -0.000819277 1.70617e-07
-0.000819277 0.000107791 3.35939e-06
1.70617e-07 3.35939e-06 -5.88339e-05
0.00219503 -0.00084634 1.74125e-05
-0.00084634 0.00072792 8.03479e-06
1.74125e-05 8.03479e-06 0.000282481
0.00199103 -0.000972851 -1.64636e-05
-0.000972851 0.000238856 4.69578e-06
-1.64636e-05 4.69578e-06 -9.59461e-05
0.00220195 -0.00109705 3.50665e-05
-0.00109705 0.00124161 -1.08786e-05
3.50665e-05 -1.08786e-05 0.000430073
0.00469544 -0.000744334 6.10056e-06
-0.000744334 0.00237189 3.46184e-06
6.10056e-06 3.46184e-06 0.00196695
0.000918803 -0.000216575 6.80569e-06
-0.000216575 0.000376317 -4.60598e-05
6.80569e-06 -4.60598e-05 7.69971e-05
0.00058128 -7.86663e-05 3.54314e-06
-7.86663e-05 3.67005e-05 3.23049e-07
3.54314e-06 3.23049e-07 -6.30849e-05
0.000830263 -8.06627e-05 9.8332e-06
-8.06627e-05 0.000249203 -1.82121e-05
9.8332e-06 -1.82121e-05 6.66277e-05
0.00107591 -4.97959e-05 3.69705e-06
-4.97959e-05 0.000429889 1.89074e-06
3.69705e-06 1.89074e-06 0.000289513
0.000789837 2.25942e-05 7.00268e-06
2.25942e-05 0.000265101 -5.53905e-06
7.00268e-06 -5.53905e-06 0.000230879
0.00242129 -0.000396963 -5.85334e-07
-0.000396963 -7.42232e-05 3.15953e-06
-5.85334e-07 3.15953e-06 0.000205918
0.000480134 -8.11978e-05 -3.24089e-06
-8.11978e-05 0.000116921 -1.89323e-07
-3.24089e-06 -1.89323e-07 -1.6791e-05
0.00118947 -0.000173651 -7.5068e-06
-0.000173651 0.000491479 5.10321e-06
-7.5068e-06 5.10321e-06 0.000330789
0.00173507 -0.000625507 7.60545e-06
-0.000625507 -0.000301502 -3.59169e-06
7.60545e-06 -3.59169e-06 -0.000192592
0.00182571 -0.000841292 1.17046e-06
-0.000841292 3.89869e-05 2.77653e-07
1.17046e-06 2.77653e-07 -0.00021164
0.00088727 -0.000766501 -1.16016e-06
-0.000766501 -0.000194642 -4.69323e-06
-1.16016e-06 -4.69323e-06 -0.000482856
0.00167462 -0.000348709 8.12927e-07
-0.000348709 0.000950595 -2.45781e-05
8.12927e-07 -2.45781e-05 0.000570922
0.00156799 -0.000653143 5.05783e-06
-0.000653143 0.00123309 3.51314e-06
5.05783e-06 3.51314e-06 0.000394634
0.00506286 -0.000808759 -5.21364e-05
-0.000808759 0.0012122 2.25787e-05
-5.21364e-05 2.25787e-05 0.00140914
0.00419007 -0.000972481 -4.86582e-05
-0.000972481 0.00135394 1.35056e-05
-4.86582e-05 1.35056e-05 0.00116046
0.00210022 -0.000967439 9.46585e-06
-0.000967439 0.000293151 -2.82703e-06
9.46585e-06 -2.82703e-06 3.195e-05
-0.00079197 -0.000446914 -5.00068e-06
-0.000446914 -0.000849303 1.5114e-05
-5.00068e-06 1.5114e-05 -0.00098437
0.000335493 -0.000142781 7.85494e-07
-0.000142781 6.9713e-05 9.10974e-06
7.85494e-07 9.10974e-06 -0.000160807
0.000336905 -0.000168087 4.85217e-06
-0.000168087 0.000130415 5.35333e-07
4.85217e-06 5.35333e-07 -0.000133796
0.00197463 -0.000258355 -6.92447e-06
-0.000258355 0.00143973 -2.34695e-05
-6.92447e-06 -2.34695e-05 0.000766381
-0.00672819 -0.000370594 0.000554444
-0.000370594 -0.00428751 -3.02444e-05
0.000554444 -3.02444e-05 -0.00390777
0.0116766 -0.000344903 6.60447e-05
-0.000344903 0.00123542 2.01967e-05
6.60447e-05 2.01967e-05 0.00129811
0.00237838 0.000343675 1.0566e-05
0.000343675 0.00125119 -9.40485e-06
1.0566e-05 -9.40485e-06 0.00103776
0.00154091 0.000508515 -3.13144e-06
0.000508515 0.000519859 4.59624e-06
-3.13144e-06 4.59624e-06 0.000163626
0.00287094 0.000685238 9.84288e-05
0.000685238 0.000375485 4.22941e-05
9.84288e-05 4.22941e-05 0.000386998
0.00295334 0.000968113 2.33293e-05
0.000968113 0.000735285 8.81495e-06
2.33293e-05 8.81495e-06 0.000420061
0.00293517 0.000847438 1.6939e-05
0.000847438 0.00116337 4.53239e-06
1.6939e-05 4.53239e-06 0.000694639
0.0157862 0.000725894 8.19839e-05
0.000725894 0.00302567 -3.83695e-05
8.19839e-05 -3.83695e-05 0.00227501
0.00859783 0.00228324 -0.000215946
0.00228324 -0.000510678 -2.17424e-05
-0.000215946 -2.17424e-05 0.000755338
0.00187624 0.00124679 7.352e-06
0.00124679 0.000118261 -3.28315e-05
7.352e-06 -3.28315e-05 -0.000350418
0.013302 -0.00424026 -0.000480645
-0.00424026 0.00565963 -1.70852e-06
-0.000480645 -1.70852e-06 0.00296057
0.00357006 -0.00889513 -0.00239494
-0.00889513 0.00443827 -0.00149833
-0.00239494 -0.00149833 0.00137149
0.00112922 0.000332377 1.85429e-06
0.000332377 0.000508373 -1.16848e-06
1.85429e-06 -1.16848e-06 0.000256822
-0.00168827 -0.00249387 0.000472811
-0.00249387 -0.00264527 7.83093e-05
0.000472811 7.83093e-05 -0.00451835
-0.00249391 -0.00233099 -0.000504894
-0.00233099 0.00548324 -0.000200824
-0.000504894 -0.000200824 0.000173171
0.00341441 0.00108899 -1.59046e-05
0.00108899 0.00074164 1.96023e-06
-1.59046e-05 1.96023e-06 0.0006061
0.000823517 0.000421055 -8.504e-06
0.000421055 0.000109767 8.17746e-06
-8.504e-06 8.17746e-06 -0.000230199
0.00125608 0.000778939 5.87504e-06
0.000778939 0.000250121 1.77585e-06
5.87504e-06 1.77585e-06 -0.00015481
0.00107432 0.00112475 5.30144e-05
0.00112475 5.65668e-05 3.60001e-05
5.30144e-05 3.60001e-05 -0.000228293
0.014083 0.00255755 -0.000148561
0.00255755 0.00114143 -8.88238e-05
-0.000148561 -8.88238e-05 -0.000599926
0.00446713 0.00290387 -4.23207e-05
0.00290387 -0.000506806 -4.25407e-05
-4.23207e-05 -4.25407e-05 0.000330659
0.0171835 -0.00502177 0.000551981
-0.00502177 0.00701557 -1.28769e-05
0.000551981 -1.28769e-05 0.00321603
0.0156869 -0.00422192 0.000153366
-0.00422192 0.0028563 0.000717941
0.000153366 0.000717941 0.000897537
0.0021728 0.000394329 -2.06608e-05
0.000394329 0.00110127 -1.38314e-05
-2.06608e-05 -1.38314e-05 0.000882513
-0.0104644 0.00123746 -0.000144762
0.00123746 0.00362859 -0.00014142
-0.000144762 -0.00014142 -0.00288265
0.00496979 0.000870493 -0.000372265
0.000870493 0.00398164 -0.000491289
-0.000372265 -0.000491289 -0.000766202
0.00259498 0.000816275 -2.94767e-05
0.000816275 0.000645436 -2.06764e-06
-2.94767e-05 -2.06764e-06 0.000601532
0.00229837 0.000800688 -7.05586e-05
0.000800688 0.000965596 -2.66336e-05
-7.05586e-05 -2.66336e-05 0.000580775
0.000565241 0.000774555 -0.00010297
0.000774555 0.000610835 -2.44623e-05
-0.00010297 -2.44623e-05 -8.56381e-05
-0.00267505 0.00167884 -3.18998e-05
0.00167884 -0.00123927 -3.76265e-05
-3.18998e-05 -3.76265e-05 -0.00144639
0.000564874 0.00308427 0.000371699
0.00308427 -0.00206094 0.000137056
0.000371699 0.000137056 -0.00440697
0.018607 -0.00618191 0.000209389
-0.00618191 0.00951507 0.000702954
0.000209389 0.000702954 0.00516935
0.00879013 -0.000922479 -0.000177345
-0.000922479 -0.00203398 -0.000148348
-0.000177345 -0.000148348 -0.00100826
-0.000701418 0.000125658 3.4069e-06
0.000125658 -0.000526748 -6.88142e-06
3.4069e-06 -6.88142e-06 -0.000662458
0.00161894 0.000291477 1.07392e-05
0.000291477 0.000836821 2.47187e-06
1.07392e-05 2.47187e-06 0.000660932
-0.00065826 6.41123e-05 -1.99659e-06
6.41123e-05 -0.000462727 -1.06345e-06
-1.99659e-06 -1.06345e-06 -0.000625297
0.000333083 5.26159e-05 1.67614e-06
5.26159e-05 -4.78863e-05 2.69026e-07
1.67614e-06 2.69026e-07 -0.000184603
0.00100906 9.19746e-05 -9.89156e-07
9.19746e-05 0.000405794 -1.43428e-06
-9.89156e-07 -1.43428e-06 0.00021877
0.000562267 1.39435e-05 -2.13818e-06
1.39435e-05 0.000129198 1.92231e-06
-2.13818e-06 1.92231e-06 -5.40171e-05
0.000514795 9.33307e-05 4.90473e-06
9.33307e-05 8.06529e-05 5.41106e-06
4.90473e-06 5.41106e-06 -9.30113e-05
-0.000456257 5.3059e-05 -4.07827e-06
5.3059e-05 -0.000447602 8.39227e-07
-4.07827e-06 8.39227e-07 -0.000595411
0.000776929 4.50151e-05 1.91091e-07
4.50151e-05 0.000261441 -9.36839e-07
1.91091e-07 -9.36839e-07 7.99137e-05
0.000748571 8.77085e-05 7.63643e-07
8.77085e-05 0.000235047 -1.4977e-07
7.63643e-07 -1.4977e-07 7.41267e-05
0.000855412 -4.61246e-05 -1.05e-06
-4.61246e-05 0.00030309 2.04362e-06
-1.05e-06 2.04362e-06 0.000121465
-0.000923615 2.35619e-05 2.35248e-06
2.35619e-05 -0.000601876 3.78686e-07
2.35248e-06 3.78686e-07 -0.000818422
1.70812e-05 4.78013e-05 -2.77754e-06
4.78013e-05 0.000176635 4.97275e-06
-2.77754e-06 4.97275e-06 -0.000170849
0.000632168 -3.59274e-05 -1.728e-06
-3.59274e-05 0.000242864 -8.71046e-06
-1.728e-06 -8.71046e-06 5.20674e-05
0.00119225 -1.40761e-05 -5.67164e-07
-1.40761e-05 0.000548843 2.33392e-07
-5.67164e-07 2.33392e-07 0.000341033
0.000799499 -8.12461e-05 -5.74976e-07
-8.12461e-05 0.00027505 -1.40936e-06
-5.74976e-07 -1.40936e-06 9.20535e-05
0.000238863 -8.20064e-05 3.91183e-06
-8.20064e-05 -0.000127535 7.51133e-06
3.91183e-06 7.51133e-06 -0.00025472
0.000794079 -9.02669e-05 5.48754e-07
-9.02669e-05 0.000282551 -1.34134e-06
5.48754e-07 -1.34134e-06 9.44497e-05
0.000724281 -6.96618e-05 -1.76377e-06
-6.96618e-05 0.000188804 -4.31156e-08
-1.76377e-06 -4.31156e-08 5.53816e-05
-0.000400539 -5.91563e-05 1.96666e-06
-5.91563e-05 -0.000483026 3.97365e-06
1.96666e-06 3.97365e-06 -0.000593558
5.70321e-05 -5.18422e-05 2.89549e-07
-5.18422e-05 -0.000169991 -2.5536e-06
2.89549e-07 -2.5536e-06 -0.00032584
9.23299e-05 -3.32192e-05 -7.36564e-06
-3.32192e-05 -0.000101058 -3.89853e-06
-7.36564e-06 -3.89853e-06 -0.000272052
-2.71231e-05 -8.3889e-05 3.64729e-06
-8.3889e-05 -0.000219276 -5.37872e-06
3.64729e-06 -5.37872e-06 -0.00035184
0.00101302 -0.000114173 9.46685e-06
-0.000114173 0.000294829 -1.5938e-05
9.46685e-06 -1.5938e-05 0.000193188
0.000477683 -0.000166452 5.43085e-07
-0.000166452 -7.34608e-05 3.98003e-06
5.43085e-07 3.98003e-06 -0.000231201
-3.2709e-05 -5.54959e-05 -6.21135e-06
-5.54959e-05 -0.00022826 -2.85311e-06
-6.21135e-06 -2.85311e-06 -0.000398302
0.000655776 -5.71752e-05 1.39441e-06
-5.71752e-05 0.000187175 -1.01826e-06
1.39441e-06 -1.01826e-06 1.2302e-05
-3.95642e-05 -3.54064e-05 2.02448e-06
-3.54064e-05 -0.000251282 -1.39279e-06
2.02448e-06 -1.39279e-06 -0.000419555
0.000672211 -0.000108599 -1.32033e-07
-0.000108599 0.000199659 -2.63795e-07
-1.32033e-07 -2.63795e-07 4.19662e-05
0.000467594 -2.58977e-05 1.46358e-06
-2.58977e-05 2.38232e-05 1.27967e-06
1.46358e-06 1.27967e-06 -9.6956e-05
0.00080304 -0.000104529 -1.61995e-06
-0.000104529 0.00026919 1.24525e-06
-1.61995e-06 1.24525e-06 0.000120713
0.000635005 -8.31336e-05 -8.2139e-07
-8.31336e-05 0.000137868 1.4305e-07
-8.2139e-07 1.4305e-07 1.10929e-05
0.00041998 3.1867e-05 2.7086e-07
3.1867e-05 -2.61176e-05 4.14596e-06
2.7086e-07 4.14596e-06 -0.000106879
0.000523641 -0.000107608 1.05587e-06
-0.000107608 6.22789e-05 -1.57381e-06
1.05587e-06 -1.57381e-06 -6.75051e-05
0.000517123 -3.84446e-05 -4.44934e-07
-3.84446e-05 3.23516e-05 1.04217e-07
-4.44934e-07 1.04217e-07 -4.46103e-05
0.00141938 1.13008e-05 -7.3229e-06
1.13008e-05 0.000572287 7.21346e-06
-7.3229e-06 7.21346e-06 0.000551667
0.000488458 -6.05235e-05 1.15211e-06
-6.05235e-05 2.35832e-05 -3.60258e-06
1.15211e-06 -3.60258e-06 -5.68929e-05
0.000869406 -1.68421e-05 -6.89168e-06
-1.68421e-05 0.000235418 8.21906e-07
-6.89168e-06 8.21906e-07 0.000212543
0.000765143 1.24758e-05 1.12296e-06
1.24758e-05 0.000153248 2.27069e-06
1.12296e-06 2.27069e-06 0.000156827
0.000429285 -1.6233e-05 2.45099e-06
-1.6233e-05 -3.72751e-05 -4.65983e-06
2.45099e-06 -4.65983e-06 -6.08074e-05
0.00255108 1.28483e-05 6.98131e-06
1.28483e-05 0.00127943 3.22762e-08
6.98131e-06 3.22762e-08 0.00129204
0.00257185 1.90962e-06 9.79601e-07
1.90962e-06 0.00129284 -5.0748e-06
9.79601e-07 -5.0748e-06 0.00130519
0.00102469 8.00215e-05 -9.83358e-07
8.00215e-05 0.00038404 1.03079e-06
-9.83358e-07 1.03079e-06 0.000280027
0.00051324 6.11092e-05 -1.93142e-06
6.11092e-05 3.10154e-05 -2.36897e-06
-1.93142e-06 -2.36897e-06 -2.09215e-05
0.000540813 -1.46156e-05 -1.75571e-07
-1.46156e-05 8.53413e-05 7.80752e-07
-1.75571e-07 7.80752e-07 -1.47483e-05
0.000483855 7.01518e-06 8.35216e-07
7.01518e-06 -2.81817e-05 -3.33119e-06
8.35216e-07 -3.33119e-06 -3.7032e-05
0.000461387 -1.24647e-05 9.72979e-07
-1.24647e-05 -6.49967e-06 -1.75088e-07
9.72979e-07 -1.75088e-07 -5.24859e-05
0.000538049 -5.88298e-05 -1.30385e-06
-5.88298e-05 4.68014e-05 2.16822e-06
-1.30385e-06 2.16822e-06 -4.71254e-06
0.000484508 7.25152e-06 -4.5608e-07
7.25152e-06 -2.79151e-05 -3.88046e-09
-4.5608e-07 -3.88046e-09 -3.74521e-05
0.00197119 2.23988e-05 -1.14747e-06
2.23988e-05 0.000911227 -4.71517e-06
-1.14747e-06 -4.71517e-06 0.000928379
0.00113047 2.3851e-05 -5.05725e-07
2.3851e-05 0.000379473 2.07156e-06
-5.05725e-07 2.07156e-06 0.000371433
0.00130703 2.94813e-05 -1.40788e-06
2.94813e-05 0.000494452 1.37132e-08
-1.40788e-06 1.37132e-08 0.000506748
0.000811932 3.53408e-05 -8.54531e-06
3.53408e-05 0.000188475 7.41084e-06
-8.54531e-06 7.41084e-06 0.000194019
-0.00868022 0.00122553 0.00052361
0.00122553 -0.00303786 -4.54617e-05
0.00052361 -4.54617e-05 -0.00580538
-0.000956629 0.000235249 0.00112178
0.000235249 0.00622538 -0.00028408
0.00112178 -0.00028408 0.00251978
0.00224089 0.000343592 -0.000162522
0.000343592 -0.00231497 -2.83053e-05
-0.000162522 -2.83053e-05 -0.000712484
0.00175452 1.27035e-05 1.38689e-05
1.27035e-05 -0.00101644 -2.86175e-05
1.38689e-05 -2.86175e-05 -0.000563515
0.00171952 -7.42609e-05 7.15099e-06
-7.42609e-05 -0.000270418 1.90123e-05
7.15099e-06 1.90123e-05 -0.000207188
-0.00132971 3.10642e-05 -9.65217e-05
3.10642e-05 -0.00165171 -2.63218e-05
-9.65217e-05 -2.63218e-05 -0.000576451
0.00388637 -0.000400901 3.66395e-06
-0.000400901 0.000431756 5.72305e-06
3.66395e-06 5.72305e-06 0.000580799
0.0121016 -9.26294e-05 0.000186063
-9.26294e-05 -0.000642704 -7.61248e-05
0.000186063 -7.61248e-05 -0.00137883
0.00139431 0.00363656 -6.42693e-07
0.00363656 0.000852976 -6.45862e-05
-6.42693e-07 -6.45862e-05 -0.00253512
0.0125875 0.0072871 -0.00051275
0.0072871 0.0086112 0.000255398
-0.00051275 0.000255398 0.0058606
0.0018034 -0.000769045 2.82936e-05
-0.000769045 -0.0022631 -4.04018e-05
2.82936e-05 -4.04018e-05 -0.00112386
0.0153219 -0.00232576 0.000220841
-0.00232576 0.00178333 -7.53811e-05
0.000220841 -7.53811e-05 0.000333738
0.0162342 0.00623565 0.000379917
0.00623565 0.00506897 -0.000536277
0.000379917 -0.000536277 0.00154917
0.0194198 0.00426124 -0.000318611
0.00426124 0.00583699 0.000270875
-0.000318611 0.000270875 0.0037822
0.000988465 0.000166481 -3.18859e-06
0.000166481 0.000419157 4.0364e-06
-3.18859e-06 4.0364e-06 0.000242828
0.000355745 3.87785e-05 4.10447e-07
3.87785e-05 -3.25776e-05 -1.06121e-06
4.10447e-07 -1.06121e-06 -0.000135743
0.000552324 -9.49397e-05 1.77913e-06
-9.49397e-05 9.59739e-05 1.42071e-06
1.77913e-06 1.42071e-06 -3.34088e-06
0.000667048 1.36582e-05 7.06009e-06
1.36582e-05 0.000176265 -5.0799e-07
7.06009e-06 -5.0799e-07 5.52321e-05
0.000867693 8.87127e-05 2.52872e-06
8.87127e-05 0.000354426 1.38881e-06
2.52872e-06 1.38881e-06 0.000215977
0.000477864 1.34198e-05 -4.09992e-07
1.34198e-05 7.28961e-05 7.64871e-06
-4.09992e-07 7.64871e-06 -9.16183e-05
0.000751575 9.41166e-05 9.47707e-07
9.41166e-05 0.000224236 3.35837e-06
9.47707e-07 3.35837e-06 8.82987e-05
0.000457894 6.32848e-05 4.59729e-06
6.32848e-05 1.89406e-05 1.346e-06
4.59729e-06 1.346e-06 -0.000120863
0.000704554 -3.2732e-05 2.72315e-06
-3.2732e-05 0.000210563 -1.27378e-06
2.72315e-06 -1.27378e-06 7.323e-05
0.000482525 -1.67115e-05 2.13499e-06
-1.67115e-05 4.11657e-05 -2.85755e-06
2.13499e-06 -2.85755e-06 -6.61989e-05
0.00139762 -0.000337669 3.41456e-05
-0.000337669 -0.000593213 -5.77985e-06
3.41456e-05 -5.77985e-06 -0.000306226
0.00109363 -0.000576726 3.02837e-05
-0.000576726 -0.000653552 -1.00252e-05
3.02837e-05 -1.00252e-05 -0.000510213
0.00105095 -0.000728503 1.96118e-06
-0.000728503 -0.000396724 3.69804e-06
1.96118e-06 3.69804e-06 -0.000572636
-4.77512e-06 -0.000664439 -1.34024e-05
-0.000664439 -0.00067332 3.18492e-06
-1.34024e-05 3.18492e-06 -0.00094377
0.00292596 -0.000495687 8.8898e-06
-0.000495687 0.0018257 3.46841e-05
8.8898e-06 3.46841e-05 0.00116883
-0.000223495 -0.000500472 -3.47144e-06
-0.000500472 -0.000187261 -6.60765e-06
-3.47144e-06 -6.60765e-06 -0.000688948
0.00150101 -0.000242804 5.54818e-06
-0.000242804 0.000679822 -2.76071e-06
5.54818e-06 -2.76071e-06 0.000542335
0.000643661 -5.01274e-05 -8.9285e-08
-5.01274e-05 0.000209671 3.07262e-06
-8.9285e-08 3.07262e-06 7.35883e-05
0.0023985 -0.00058398 1.08953e-05
-0.00058398 -0.00020303 -8.64179e-06
1.08953e-05 -8.64179e-06 6.2161e-05
0.000363621 -5.38238e-05 7.02432e-07
-5.38238e-05 8.98464e-05 1.69665e-06
7.02432e-07 1.69665e-06 -0.000152052
-0.000206582 -0.000182612 -9.572e-07
-0.000182612 -0.000189164 -5.6931e-06
-9.572e-07 -5.6931e-06 -0.000455399
0.00185891 -0.000766729 1.96009e-05
-0.000766729 3.389e-05 -2.31099e-06
1.96009e-05 -2.31099e-06 -3.26612e-05
0.00191208 -0.00095413 -6.96696e-07
-0.00095413 0.000119991 3.16193e-06
-6.96696e-07 3.16193e-06 -7.31375e-05
0.000298518 -0.000702607 1.98677e-05
-0.000702607 -0.000208382 -1.5011e-05
1.98677e-05 -1.5011e-05 -0.000464838
0.00113606 -0.000354458 5.21871e-06
-0.000354458 0.000968284 -1.89058e-05
5.21871e-06 -1.89058e-05 0.000282065
0.00245618 -0.000927664 -6.37883e-05
-0.000927664 0.000265579 3.84071e-05
-6.37883e-05 3.84071e-05 7.55888e-06
0.00101364 -0.000691844 -3.23014e-05
-0.000691844 -0.000187563 6.17542e-06
-3.23014e-05 6.17542e-06 -0.0002087
0.000371871 -0.000645406 -7.22853e-05
-0.000645406 0.000227673 4.66113e-05
-7.22853e-05 4.66113e-05 -0.000198924
-0.00252005 -0.000232806 -7.4715e-06
-0.000232806 -0.0016819 1.14914e-05
-7.4715e-06 1.14914e-05 -0.00192889
-0.000998579 -5.16883e-05 2.17994e-06
-5.16883e-05 -0.000662313 9.45627e-06
2.17994e-06 9.45627e-06 -0.000954194
0.000585636 -7.33712e-05 8.45029e-06
-7.33712e-05 0.000377589 -1.34792e-05
8.45029e-06 -1.34792e-05 -4.14199e-06
-0.0023899 0.00125297 -0.000407599
0.00125297 0.00701028 1.93752e-05
-0.000407599 1.93752e-05 0.00219217
0.000279755 -0.00149097 -1.10384e-05
-0.00149097 0.00233282 1.30728e-05
-1.10384e-05 1.30728e-05 0.00144366
0.00251083 0.00102265 -0.000124337
0.00102265 -0.0053035 -2.54417e-05
-0.000124337 -2.54417e-05 -0.00552505
0.000215276 0.000250812 1.28022e-05
0.000250812 -2.17836e-05 -3.7359e-06
1.28022e-05 -3.7359e-06 -0.000264821
0.00161075 0.000584702 1.18744e-05
0.000584702 0.000618984 1.93399e-05
1.18744e-05 1.93399e-05 0.000214389
0.00346959 0.000964694 6.70413e-05
0.000964694 0.000757746 1.97262e-05
6.70413e-05 1.97262e-05 0.000662797
0.00159084 0.000848054 1.47583e-05
0.000848054 0.000449705 2.08697e-05
1.47583e-05 2.08697e-05 1.13981e-05
0.0126753 -0.00288112 0.000223877
-0.00288112 0.00474045 7.53166e-05
0.000223877 7.53166e-05 0.00364841
0.00359817 0.00137674 -0.00036633
0.00137674 -0.00433571 -7.29731e-05
-0.00036633 -7.29731e-05 -0.00595731
0.00518411 0.00277052 2.61482e-05
0.00277052 0.000243291 2.87531e-05
2.61482e-05 2.87531e-05 0.000735927
0.00265773 0.00114306 5.50572e-05
0.00114306 0.00106551 -1.37567e-05
5.50572e-05 -1.37567e-05 0.000828027
0.00774872 -0.00318072 -0.000381953
-0.00318072 0.00350658 -0.000367542
-0.000381953 -0.000367542 0.000114729
-0.000251605 -0.00338246 -0.00068302
-0.00338246 0.00602264 -0.000215447
-0.00068302 -0.000215447 0.000586244
0.0237947 -0.00541565 0.000717782
-0.00541565 0.00663839 0.000375602
0.000717782 0.000375602 0.00438947
0.000400157 0.000243591 1.70608e-05
0.000243591 6.33655e-05 -4.21358e-06
1.70608e-05 -4.21358e-06 -0.000146292
-0.00414441 0.000457017 -0.000182419
0.000457017 0.00553371 -3.53019e-05
-0.000182419 -3.53019e-05 1.48258e-05
0.00565352 0.00119266 -0.000128066
0.00119266 0.00327829 -0.000171491
-0.000128066 -0.000171491 -0.0019452
0.00177083 0.000835426 1.07513e-05
0.000835426 0.000304495 3.42646e-06
1.07513e-05 3.42646e-06 0.000193746
0.000768304 0.000619835 1.27082e-05
0.000619835 0.00023149 4.50919e-06
1.27082e-05 4.50919e-06 -0.000162821
0.000770052 0.000940752 -5.66056e-05
0.000940752 0.000511366 -6.18343e-05
-5.66056e-05 -6.18343e-05 -5.6756e-05
0.00417463 0.00312863 3.028e-05
0.00312863 0.00124296 2.98909e-05
3.028e-05 2.98909e-05 0.00104491
0.0166247 0.00414295 4.00029e-05
0.00414295 0.00375019 1.25712e-05
4.00029e-05 1.25712e-05 0.00158788
0.00797074 -0.00367489 8.49296e-05
-0.00367489 0.00343348 -8.77777e-05
8.49296e-05 -8.77777e-05 -0.00142239
0.0152179 -0.00220826 -9.80238e-06
-0.00220826 0.00215634 -6.87742e-05
-9.80238e-06 -6.87742e-05 0.00334002
0.00072637 0.00045767 -1.46397e-05
0.00045767 0.000272359 -8.07297e-06
-1.46397e-05 -8.07297e-06 -1.41187e-05
0.00192121 0.000217218 -0.000342607
0.000217218 0.00216192 -8.10992e-05
-0.000342607 -8.10992e-05 -0.00248489
0.000937448 0.000767977 -0.00012972
0.000767977 -0.000187824 -0.000171735
-0.00012972 -0.000171735 -0.00176434
-0.000642509 0.00029874 -5.45976e-06
0.00029874 -0.000138182 -1.97651e-05
-5.45976e-06 -1.97651e-05 -0.000395766
-0.000835534 0.00064206 -0.000191621
0.00064206 0.000983612 -1.1499e-05
-0.000191621 -1.1499e-05 0.00019399
0.0137066 0.00479929 0.000109669
0.00479929 0.00440517 -4.10712e-05
0.000109669 -4.10712e-05 9.20014e-05
-0.00192958 -0.0051559 -1.76055e-06
-0.0051559 -0.000209661 0.000230251
-1.76055e-06 0.000230251 -0.00504729
0.0117839 0.000266439 6.37418e-05
0.000266439 -0.00161276 -0.000325691
6.37418e-05 -0.000325691 0.000939663
0.000829719 0.00018465 -4.13194e-06
0.00018465 0.000311889 1.55274e-05
-4.13194e-06 1.55274e-05 0.000173322
0.00094124 0.000230336 -9.54103e-06
0.000230336 0.000519039 -5.57921e-06
-9.54103e-06 -5.57921e-06 0.000318388
-0.000322914 0.000112217 6.61214e-07
0.000112217 -5.1422e-05 -4.04339e-07
6.61214e-07 -4.04339e-07 -0.000354892
0.000588304 8.67058e-05 -1.71419e-06
8.67058e-05 0.000124727 -1.40687e-06
-1.71419e-06 -1.40687e-06 -4.28248e-05
0.00115769 -3.77704e-05 -2.19523e-06
-3.77704e-05 0.000503796 4.77957e-06
-2.19523e-06 4.77957e-06 0.000311924
0.000174235 7.31089e-05 2.55023e-06
7.31089e-05 -0.000132314 2.61216e-06
2.55023e-06 2.61216e-06 -0.000285122
-0.00108531 3.11358e-05 1.92506e-06
3.11358e-05 -0.000684453 2.55486e-06
1.92506e-06 2.55486e-06 -0.000901052
0.000655936 -2.63878e-05 1.22385e-06
-2.63878e-05 0.000179776 2.58596e-07
1.22385e-06 2.58596e-07 -1.10344e-06
0.000520814 2.84092e-05 3.87493e-07
2.84092e-05 0.000167853 -2.31978e-06
3.87493e-07 -2.31978e-06 -1.82937e-05
5.73584e-05 3.19093e-05 2.06232e-06
3.19093e-05 0.000238536 2.91554e-06
2.06232e-06 2.91554e-06 -0.000135525
-0.000382737 5.92356e-05 -3.71607e-06
5.92356e-05 0.000153848 1.25394e-05
-3.71607e-06 1.25394e-05 -0.000336032
0.000381408 1.5758e-06 -2.86579e-06
1.5758e-06 0.000450916 -2.21787e-06
-2.86579e-06 -2.21787e-06 6.39453e-05
0.00113243 2.17053e-05 -1.60763e-06
2.17053e-05 0.000523195 -4.30613e-06
-1.60763e-06 -4.30613e-06 0.000352865
0.000702302 -0.000147681 2.56525e-06
-0.000147681 0.000209998 1.50124e-06
2.56525e-06 1.50124e-06 3.09753e-05
0.000366175 -4.74544e-05 8.93552e-07
-4.74544e-05 -4.96476e-05 3.63538e-06
8.93552e-07 3.63538e-06 -0.000174488
0.000342237 -9.17995e-05 1.32784e-06
-9.17995e-05 -1.7643e-05 1.28872e-05
1.32784e-06 1.28872e-05 -0.000116838
0.000233642 -4.18217e-05 2.38203e-06
-4.18217e-05 -3.54561e-05 3.23473e-06
2.38203e-06 3.23473e-06 -0.000190454
0.000558222 -4.87609e-05 -8.31024e-08
-4.87609e-05 0.000129052 6.9915e-07
-8.31024e-08 6.9915e-07 -2.28086e-05
0.00043659 -5.21161e-05 -1.34247e-07
-5.21161e-05 6.15455e-05 -2.05698e-06
-1.34247e-07 -2.05698e-06 -6.81084e-05
0.000338524 -5.74723e-05 -8.335e-06
-5.74723e-05 -8.94531e-06 -4.94062e-06
-8.335e-06 -4.94062e-06 -0.000142177
0.000524227 -7.78178e-05 9.94626e-06
-7.78178e-05 0.000278801 -7.36219e-06
9.94626e-06 -7.36219e-06 0.000115057
0.000659584 -0.000204938 1.05891e-06
-0.000204938 -1.79736e-05 3.96184e-06
1.05891e-06 3.96184e-06 -0.000105771
0.000578127 -0.000135357 -1.15508e-05
-0.000135357 5.09763e-05 -5.94835e-07
-1.15508e-05 -5.94835e-07 -5.87385e-05
0.000341657 -0.000184258 8.09936e-06
-0.000184258 -0.000114379 7.10071e-06
8.09936e-06 7.10071e-06 -0.000268501
0.00197462 -0.000521018 8.62931e-07
-0.000521018 0.000781682 2.04407e-05
8.62931e-07 2.04407e-05 0.000453885
0.00181737 -0.000248043 4.21053e-06
-0.000248043 0.000827868 -9.16048e-06
4.21053e-06 -9.16048e-06 0.000632783
0.000124847 -0.000136326 -8.81933e-06
-0.000136326 -0.000249654 -6.15742e-06
-8.81933e-06 -6.15742e-06 -0.000379711
0.00053092 -7.9505e-05 -1.15973e-07
-7.9505e-05 9.06679e-05 -8.3691e-07
-1.15973e-07 -8.3691e-07 -7.76187e-05
-0.000229642 -4.68986e-05 -3.45756e-07
-4.68986e-05 -0.000350883 -2.8855e-06
-3.45756e-07 -2.8855e-06 -0.000549621
0.00100429 -6.88546e-05 -3.57563e-07
-6.88546e-05 0.00039318 1.60658e-06
-3.57563e-07 1.60658e-06 0.000220371
0.000731354 -0.000125299 -3.03011e-07
-0.000125299 0.000234134 4.0759e-07
-3.03011e-07 4.0759e-07 5.30064e-05
0.00052515 -6.25711e-05 1.26851e-06
-6.25711e-05 4.68309e-05 1.65601e-06
1.26851e-06 1.65601e-06 -7.66731e-05
0.00137263 -0.000188342 -2.5229e-06
-0.000188342 0.000655823 -1.77204e-07
-2.5229e-06 -1.77204e-07 0.000472558
0.000673756 -0.000104984 -5.22448e-07
-0.000104984 0.000153398 4.02284e-08
-5.22448e-07 4.02284e-08 2.61686e-05
0.000505475 6.87559e-06 -1.02703e-06
6.87559e-06 2.17587e-05 3.4894e-06
-1.02703e-06 3.4894e-06 -5.95568e-05
0.000720024 -0.000130517 6.33077e-07
-0.000130517 0.000190951 -1.88241e-06
6.33077e-07 -1.88241e-06 6.00611e-05
0.000587123 -5.47247e-05 -1.38259e-07
-5.47247e-05 7.45648e-05 1.61151e-07
-1.38259e-07 1.61151e-07 -5.66216e-06
0.00143542 1.14623e-05 -1.20217e-05
1.14623e-05 0.000577787 7.47406e-06
-1.20217e-05 7.47406e-06 0.000555595
0.000537421 -6.74609e-05 1.59689e-06
-6.74609e-05 5.33417e-05 -4.20866e-06
1.59689e-06 -4.20866e-06 -2.91848e-05
0.00086836 -1.12077e-05 -8.18998e-06
-1.12077e-05 0.000227934 6.90694e-07
-8.18998e-06 6.90694e-07 0.000204287
0.00080922 2.18826e-05 1.16871e-06
2.18826e-05 0.000177696 2.85251e-06
1.16871e-06 2.85251e-06 0.000179639
0.000433767 -2.95763e-05 2.28444e-06
-2.95763e-05 -3.94493e-05 -5.09455e-06
2.28444e-06 -5.09455e-06 -6.44394e-05
0.00166127 2.12631e-05 1.07522e-05
2.12631e-05 0.000718844 -1.47072e-06
1.07522e-05 -1.47072e-06 0.000726964
0.00251858 1.2195e-05 1.11044e-05
1.2195e-05 0.00125837 -5.18201e-06
1.11044e-05 -5.18201e-06 0.00127111
0.000494859 5.05287e-05 1.31129e-06
5.05287e-05 3.12193e-05 -1.084e-06
1.31129e-06 -1.084e-06 -6.98077e-05
0.00060053 6.20495e-05 -1.37456e-06
6.20495e-05 7.96652e-05 -1.77265e-06
-1.37456e-06 -1.77265e-06 2.47467e-05
0.000589942 1.68672e-06 8.97521e-07
1.68672e-06 0.000104865 7.77871e-07
8.97521e-07 7.77871e-07 5.50902e-06
0.000472287 3.83518e-06 1.52411e-06
3.83518e-06 -3.4267e-05 -3.60187e-06
1.52411e-06 -3.60187e-06 -4.38391e-05
0.000494815 5.17521e-05 5.10455e-08
5.17521e-05 1.4743e-05 -1.7035e-07
5.10455e-08 -1.7035e-07 -3.43423e-05
0.000527089 -0.000112875 -2.66086e-06
-0.000112875 6.69457e-05 6.40632e-07
-2.66086e-06 6.40632e-07 -2.70621e-05
0.00199325 8.65718e-06 -6.29078e-06
8.65718e-06 0.000923041 -4.75952e-06
-6.29078e-06 -4.75952e-06 0.000941028
0.000461311 5.41073e-06 -2.44805e-07
5.41073e-06 -4.18611e-05 2.81227e-08
-2.44805e-07 2.81227e-08 -5.06943e-05
0.000497873 -1.17286e-05 -1.41621e-06
-1.17286e-05 1.2981e-05 2.09065e-06
-1.41621e-06 2.09065e-06 -3.09282e-05
0.000472139 5.63297e-06 -1.28486e-06
5.63297e-06 -3.63281e-05 3.36632e-06
-1.28486e-06 3.36632e-06 -4.58442e-05
0.00202377 2.39858e-05 -5.30003e-06
2.39858e-05 0.000944527 -1.08493e-07
-5.30003e-06 -1.08493e-07 0.000961338
0.00198752 3.77193e-05 -5.09059e-06
3.77193e-05 0.000924403 4.65483e-06
-5.09059e-06 4.65483e-06 0.000940058
-0.00645172 -0.00172015 -0.000182223
-0.00172015 0.00554345 5.63208e-05
-0.000182223 5.63208e-05 0.00137172
0.00192828 0.00139125 -0.000262309
0.00139125 0.000643062 8.15695e-05
-0.000262309 8.15695e-05 -0.00145107
0.00293529 -0.000997387 -0.000608404
-0.000997387 0.00123511 0.000262051
-0.000608404 0.000262051 -0.00337842
-0.000309162 0.000682574 0.00109113
0.000682574 0.00614789 -0.000333632
0.00109113 -0.000333632 0.00197204
0.00247238 0.000589496 -4.36171e-05
0.000589496 -0.00107662 2.74721e-06
-4.36171e-05 2.74721e-06 -0.00019079
0.00275799 -0.000468775 9.04032e-05
-0.000468775 -0.000288239 7.64451e-06
9.04032e-05 7.64451e-06 -0.000161188
0.000810825 -0.000369895 0.000279987
-0.000369895 -0.0048732 -6.09779e-05
0.000279987 -6.09779e-05 -0.00652897
0.0213722 0.00324197 -0.000819566
0.00324197 0.00949063 6.59978e-05
-0.000819566 6.59978e-05 0.0065625
0.00486823 0.00844339 -0.00229824
0.00844339 0.00434403 0.00148543
-0.00229824 0.00148543 0.00138987
0.00469672 -0.000634552 2.8694e-05
-0.000634552 -0.000430667 6.40917e-06
2.8694e-05 6.40917e-06 0.000286578
0.00889201 -0.00220133 0.000161107
-0.00220133 -0.00159666 -0.000136866
0.000161107 -0.000136866 -0.00383589
0.0200889 0.00548353 -0.000325266
0.00548353 0.00639366 -0.000111593
-0.000325266 -0.000111593 0.00287794
0.0145521 0.00436334 -1.40698e-05
0.00436334 0.00285305 0.000400232
-1.40698e-05 0.000400232 0.000576894
0.00179034 -0.0017249 -0.00011593
-0.0017249 -0.00308114 2.57089e-05
-0.00011593 2.57089e-05 -0.00193023
0.00624613 -0.00361163 0.000423801
-0.00361163 -0.000156172 -0.000224009
0.000423801 -0.000224009 -0.00391942
0.00661941 0.00338311 9.9842e-05
0.00338311 0.00127149 -0.000806625
9.9842e-05 -0.000806625 -0.00258646
0.00861468 0.000811064 -0.000283908
0.000811064 -0.00228136 7.29548e-06
-0.000283908 7.29548e-06 -0.00139738
0.00251 -9.04638e-05 1.08137e-06
-9.04638e-05 0.00142532 1.65784e-05
1.08137e-06 1.65784e-05 0.00115444
0.00034521 0.000100792 -1.55686e-06
0.000100792 -1.00617e-05 -2.31873e-06
-1.55686e-06 -2.31873e-06 -0.00015324
0.000511421 0.000100769 3.02215e-06
0.000100769 5.27123e-05 -1.11786e-06
3.02215e-06 -1.11786e-06 -4.47477e-05
0.000163971 4.59567e-06 7.05003e-06
4.59567e-06 -0.000104222 -1.95658e-06
7.05003e-06 -1.95658e-06 -0.000215912
0.000446719 9.86573e-05 3.17931e-06
9.86573e-05 3.13865e-05 3.67008e-06
3.17931e-06 3.67008e-06 -0.000152934
0.000446155 3.96343e-05 -3.52507e-08
3.96343e-05 4.07454e-05 2.34892e-06
-3.52507e-08 2.34892e-06 -0.000109582
0.00023817 2.81302e-05 1.46288e-06
2.81302e-05 -9.41737e-05 -3.62506e-06
1.46288e-06 -3.62506e-06 -0.000224004
0.000920523 0.00018017 3.76319e-06
0.00018017 0.000345102 7.57963e-06
3.76319e-06 7.57963e-06 0.000169719
0.000910194 0.000130518 -2.45481e-07
0.000130518 0.000346265 -2.60001e-07
-2.45481e-07 -2.60001e-07 0.000175742
0.000382259 -1.79437e-05 -3.74743e-06
-1.79437e-05 -4.42959e-06 -6.52766e-06
-3.74743e-06 -6.52766e-06 -0.000135391
0.000498553 -0.000459108 8.36583e-05
-0.000459108 -0.00121751 -4.23682e-05
8.36583e-05 -4.23682e-05 -0.000909839
0.000182406 -0.000630314 1.41079e-05
-0.000630314 -0.00091438 -8.78666e-06
1.41079e-05 -8.78666e-06 -0.000906509
0.00137808 -0.00089567 -1.25514e-05
-0.00089567 -0.000224616 1.6235e-05
-1.25514e-05 1.6235e-05 -0.000331149
-0.000994055 -0.000686146 4.44702e-06
-0.000686146 -0.000895578 -5.55951e-06
4.44702e-06 -5.55951e-06 -0.00124479
0.00345295 -0.000456672 -2.52979e-05
-0.000456672 0.00213702 6.62902e-05
-2.52979e-05 6.62902e-05 0.00162276
0.00108379 -0.000217997 -3.49697e-06
-0.000217997 0.000619149 6.12529e-06
-3.49697e-06 6.12529e-06 0.000327196
0.000334456 0.000127476 -2.7881e-06
0.000127476 5.62161e-05 -1.59096e-05
-2.7881e-06 -1.59096e-05 -0.000182007
0.00071461 -7.41253e-05 -2.82594e-06
-7.41253e-05 0.000299982 9.59974e-06
-2.82594e-06 9.59974e-06 2.11016e-05
0.00176447 -0.000803348 -7.79629e-06
-0.000803348 -0.000200812 -3.96168e-06
-7.79629e-06 -3.96168e-06 -0.000249801
0.000817402 -6.41373e-05 1.24574e-06
-6.41373e-05 0.0003928 4.91594e-06
1.24574e-06 4.91594e-06 0.000118485
0.00217454 -0.000295057 2.16052e-06
-0.000295057 0.00132065 -1.61892e-06
2.16052e-06 -1.61892e-06 0.000921897
0.00141171 -0.000735119 7.46054e-06
-0.000735119 2.16472e-05 3.29829e-06
7.46054e-06 3.29829e-06 -1.30171e-05
0.000585634 -0.000647965 -3.08482e-05
-0.000647965 0.000273145 7.84904e-06
-3.08482e-05 7.84904e-06 -0.000112133
0.00204208 -0.00137639 3.95749e-05
-0.00137639 -6.17823e-06 -1.79802e-05
3.95749e-05 -1.79802e-05 -3.05458e-05
-0.000299765 -0.000469404 -5.93792e-06
-0.000469404 -0.000447242 2.34252e-05
-5.93792e-06 2.34252e-05 -0.000489961
-0.00131732 -7.60229e-05 1.88788e-05
-7.60229e-05 -0.000570414 -9.91028e-07
1.88788e-05 -9.91028e-07 -0.00104815
0.000684377 1.96333e-05 -4.69535e-06
1.96333e-05 0.000264834 -6.53924e-07
-4.69535e-06 -6.53924e-07 3.55978e-05
0.000642064 -2.99372e-05 6.92819e-06
-2.99372e-05 0.0004057 -7.30759e-06
6.92819e-06 -7.30759e-06 8.92754e-05
0.00131094 0.000125985 -4.32644e-05
0.000125985 0.00186403 -1.6837e-05
-4.32644e-05 -1.6837e-05 -0.00210525
-0.00652709 0.000426582 -0.000357108
0.000426582 0.0063803 -1.87967e-05
-0.000357108 -1.87967e-05 0.00131133
-0.0132251 -0.00243747 -0.000704422
-0.00243747 -0.00534232 -8.54178e-06
-0.000704422 -8.54178e-06 -0.00612496
-0.000724163 0.000178665 1.06877e-05
0.000178665 -0.000553227 -5.57895e-06
1.06877e-05 -5.57895e-06 -0.000785254
-0.000780317 0.00046497 -3.51132e-06
0.00046497 -0.000547257 8.78625e-06
-3.51132e-06 8.78625e-06 -0.000952173
0.00211574 0.000958505 3.09453e-05
0.000958505 0.000509999 2.53398e-05
3.09453e-05 2.53398e-05 0.000362996
-0.00556042 0.00191713 7.41545e-05
0.00191713 0.00603122 5.72111e-05
7.41545e-05 5.72111e-05 0.00141502
0.00687063 0.00355405 -0.000285895
0.00355405 0.000125158 -0.00016513
-0.000285895 -0.00016513 -0.00327137
0.00194422 0.00213943 0.000419722
0.00213943 0.000407348 0.000152285
0.000419722 0.000152285 0.000250355
7.98305e-05 0.000897994 2.37429e-05
0.000897994 4.44863e-06 -4.47564e-05
2.37429e-05 -4.47564e-05 -0.000273248
0.0264374 -0.00367399 -0.000159347
-0.00367399 0.00857408 -0.000360319
-0.000159347 -0.000360319 0.00531405
0.00622806 0.00154151 0.000533653
0.00154151 0.00312636 0.000193497
0.000533653 0.000193497 -0.0025339
0.013813 -0.00192355 0.000173878
-0.00192355 0.00239601 3.05468e-05
0.000173878 3.05468e-05 0.00369452
0.0012469 0.000509437 2.55515e-06
0.000509437 0.000644942 -2.10167e-06
2.55515e-06 -2.10167e-06 0.000343304
0.00380758 0.00056186 -9.24352e-06
0.00056186 0.00308371 1.42246e-05
-9.24352e-06 1.42246e-05 -0.000398052
0.00161539 0.000699962 6.73296e-05
0.000699962 8.38315e-05 1.27487e-06
6.73296e-05 1.27487e-06 -0.00152132
-0.000446037 0.000473399 -2.86516e-06
0.000473399 -0.000144531 -5.36794e-06
-2.86516e-06 -5.36794e-06 -0.000468878
0.000249506 0.00124213 -0.000122039
0.00124213 0.000842721 -5.92421e-05
-0.000122039 -5.92421e-05 -0.000364634
0.000987093 0.00446353 0.000203599
0.00446353 0.000573402 0.000109159
0.000203599 0.000109159 -0.0038388
0.00949612 -8.7314e-06 -4.22143e-06
-8.7314e-06 -0.00343535 -0.000210409
-4.22143e-06 -0.000210409 -0.00061878
0.00533435 -0.00260605 -7.48214e-05
-0.00260605 0.00335291 -0.000163942
-7.48214e-05 -0.000163942 -0.00147343
0.000961429 0.000405309 -7.31139e-06
0.000405309 0.000773316 -1.41696e-05
-7.31139e-06 -1.41696e-05 0.000423934
-0.00289156 0.000214624 1.3082e-05
0.000214624 1.04095e-05 2.38913e-05
1.3082e-05 2.38913e-05 -0.000375683
0.004889 -0.000165726 0.000111993
-0.000165726 -0.000223873 -0.000155779
0.000111993 -0.000155779 -0.00144303
0.00849201 0.000981354 0.000287147
0.000981354 -0.00201301 -2.05834e-05
0.000287147 -2.05834e-05 -0.00121791
-0.00250108 0.000139741 3.31003e-05
0.000139741 -0.000124685 -3.01691e-05
3.31003e-05 -3.01691e-05 -0.000938084
0.0132188 0.00340525 0.000313021
0.00340525 0.00625196 7.45493e-05
0.000313021 7.45493e-05 0.00103067
0.00142892 -0.000540633 4.35951e-05
-0.000540633 0.00266989 0.000386007
4.35951e-05 0.000386007 -0.000946117
0.00319226 0.000460219 2.67236e-05
0.000460219 0.00191166 1.04033e-05
2.67236e-05 1.04033e-05 0.00165422
0.000409299 0.000206256 -5.65009e-06
0.000206256 0.000420551 -1.6586e-06
-5.65009e-06 -1.6586e-06 7.21179e-05
0.000212571 0.000182344 2.34296e-06
0.000182344 0.000475448 4.81433e-07
2.34296e-06 4.81433e-07 3.63304e-05
0.000520477 0.0001467 1.24378e-06
0.0001467 0.000107876 -2.35891e-07
1.24378e-06 -2.35891e-07 -7.89568e-05
0.000501699 7.24581e-05 9.10688e-07
7.24581e-05 0.000137009 3.23394e-06
9.10688e-07 3.23394e-06 -3.54546e-05
0.000155279 -1.45656e-05 6.51443e-06
-1.45656e-05 0.000327413 -2.85691e-06
6.51443e-06 -2.85691e-06 -6.61928e-05
0.000413256 2.72879e-05 7.655e-08
2.72879e-05 6.27299e-05 -6.14451e-07
7.655e-08 -6.14451e-07 -9.13738e-05
0.000703704 -3.7518e-05 -1.1564e-06
-3.7518e-05 0.000646393 -2.45376e-06
-1.1564e-06 -2.45376e-06 0.00025992
8.10824e-06 4.93493e-05 9.29152e-09
4.93493e-05 0.000382342 -1.67607e-06
9.29152e-09 -1.67607e-06 -0.000103011
-2.99524e-05 -1.33432e-05 -6.47398e-06
-1.33432e-05 0.000311848 9.18758e-06
-6.47398e-06 9.18758e-06 -9.3977e-05
0.000330109 -2.83119e-05 -1.991e-07
-2.83119e-05 0.000358589 -5.04179e-06
-1.991e-07 -5.04179e-06 5.07345e-05
1.49819e-05 -6.06443e-05 3.91746e-06
-6.06443e-05 -0.000197747 8.91828e-06
3.91746e-06 8.91828e-06 -0.000332743
0.00105883 -5.27057e-05 -8.7618e-07
-5.27057e-05 0.000431398 3.12198e-06
-8.7618e-07 3.12198e-06 0.0002808
0.00129352 -6.35989e-05 -1.45457e-05
-6.35989e-05 0.000588715 1.18902e-05
-1.45457e-05 1.18902e-05 0.000457475
0.000718485 -8.4051e-05 4.28965e-06
-8.4051e-05 0.000377492 -7.97923e-07
4.28965e-06 -7.97923e-07 0.000221658
0.000511906 -5.50434e-05 -8.71253e-07
-5.50434e-05 9.5037e-05 -9.112e-07
-8.71253e-07 -9.112e-07 -3.65947e-05
0.000446892 -0.000179463 -1.60686e-07
-0.000179463 5.19196e-05 3.09383e-06
-1.60686e-07 3.09383e-06 -8.49558e-05
0.000164765 -0.000157945 -1.19255e-05
-0.000157945 -0.000210679 -1.3548e-06
-1.19255e-05 -1.3548e-06 -0.000265523
-0.000803226 -0.000297331 1.08319e-05
-0.000297331 -0.000737606 1.91768e-05
1.08319e-05 1.91768e-05 -0.00103
9.92338e-05 -0.000166332 5.60448e-06
-0.000166332 -0.000218775 -6.42283e-07
5.60448e-06 -6.42283e-07 -0.000333993
0.00116628 -0.000284215 -3.71987e-06
-0.000284215 0.000377246 1.12962e-05
-3.71987e-06 1.12962e-05 0.000193771
0.00201341 -0.000555577 -6.56122e-06
-0.000555577 0.000821004 1.39514e-05
-6.56122e-06 1.39514e-05 0.000458487
0.00161767 -0.000518759 -5.73016e-06
-0.000518759 0.000458643 -7.28928e-07
-5.73016e-06 -7.28928e-07 8.39093e-05
0.00140701 -0.000354379 2.06205e-06
-0.000354379 0.000524706 2.01076e-06
2.06205e-06 2.01076e-06 0.000283306
0.000491379 -0.000333078 9.47399e-06
-0.000333078 -0.0001252 -4.11221e-06
9.47399e-06 -4.11221e-06 -0.00040097
0.00123711 -0.00016862 3.13773e-06
-0.00016862 0.00054472 -4.24153e-06
3.13773e-06 -4.24153e-06 0.000296463
0.00120536 -0.000221159 -8.08331e-06
-0.000221159 0.000493573 1.047e-06
-8.08331e-06 1.047e-06 0.000287827
-0.000103657 -0.000122116 1.16101e-05
-0.000122116 -0.000354676 -1.65381e-05
1.16101e-05 -1.65381e-05 -0.000460455
0.00117339 -0.000108225 -1.70523e-06
-0.000108225 0.000458758 2.51255e-06
-1.70523e-06 2.51255e-06 0.000290345
0.000266969 -8.36069e-05 8.1645e-07
-8.36069e-05 -4.94312e-05 -4.2972e-07
8.1645e-07 -4.2972e-07 -0.000246812
0.000424187 -5.36405e-05 2.11662e-06
-5.36405e-05 -1.88711e-05 6.72229e-07
2.11662e-06 6.72229e-07 -0.000157625
0.00143641 -0.000216848 -1.9348e-06
-0.000216848 0.000681246 8.50255e-07
-1.9348e-06 8.50255e-07 0.000485034
0.000653207 -9.57119e-05 -3.94849e-07
-9.57119e-05 0.000141037 -1.38471e-07
-3.94849e-07 -1.38471e-07 3.9449e-06
0.000429986 1.26919e-05 3.25665e-06
1.26919e-05 -1.39835e-05 4.59459e-06
3.25665e-06 4.59459e-06 -0.000109695
0.000797349 -0.000133806 -7.44075e-07
-0.000133806 0.000243493 -2.19874e-06
-7.44075e-07 -2.19874e-06 0.00010518
0.000489134 7.31296e-06 -2.12328e-06
7.31296e-06 1.99845e-05 -2.06094e-07
-2.12328e-06 -2.06094e-07 -6.74395e-05
0.00141864 1.13551e-05 -1.60749e-05
1.13551e-05 0.000567504 5.29526e-06
-1.60749e-05 5.29526e-06 0.000543884
0.000583991 -6.31814e-05 1.90719e-06
-6.31814e-05 7.66449e-05 -4.17743e-06
1.90719e-06 -4.17743e-06 -6.20093e-06
0.000883275 -6.79018e-06 -8.19378e-06
-6.79018e-06 0.000232005 5.71793e-07
-8.19378e-06 5.71793e-07 0.000207209
0.000839633 3.20041e-05 4.62416e-07
3.20041e-05 0.000194679 3.06896e-06
4.62416e-07 3.06896e-06 0.000194385
0.000449176 -2.17165e-05 2.26682e-06
-2.17165e-05 -3.6993e-05 -5.86718e-06
2.26682e-06 -5.86718e-06 -6.31784e-05
0.00171706 3.33384e-05 1.37677e-05
3.33384e-05 0.000751282 -1.25106e-06
1.37677e-05 -1.25106e-06 0.000758235
0.00254015 2.63912e-05 1.59156e-05
2.63912e-05 0.00126975 -5.4326e-06
1.59156e-05 -5.4326e-06 0.00128213
0.000314436 1.71997e-05 1.1576e-06
1.71997e-05 -6.44431e-05 1.25008e-06
1.1576e-06 1.25008e-06 -0.000196348
0.000154233 1.92674e-05 -9.26881e-08
1.92674e-05 -0.000202935 -3.59763e-06
-9.26881e-08 -3.59763e-06 -0.000265436
0.00062606 5.02819e-05 1.22954e-07
5.02819e-05 0.000124139 1.44118e-07
1.22954e-07 1.44118e-07 1.28054e-05
0.000471925 3.49169e-06 1.33036e-06
3.49169e-06 -3.63403e-05 -3.72498e-06
1.33036e-06 -3.72498e-06 -4.74417e-05
0.000331164 6.1497e-06 1.5878e-06
6.1497e-06 -9.41971e-05 1.08628e-08
1.5878e-06 1.08628e-08 -0.000146761
0.000261767 -9.38763e-05 -9.62927e-07
-9.38763e-05 -0.000102318 -8.56675e-07
-9.62927e-07 -8.56675e-07 -0.000201706
0.00205228 -5.28359e-06 -1.10128e-05
-5.28359e-06 0.000959395 -4.77682e-06
-1.10128e-05 -4.77682e-06 0.000977287
0.000466694 2.96535e-06 2.01884e-09
2.96535e-06 -3.86712e-05 -6.98904e-08
2.01884e-09 -6.98904e-08 -4.79469e-05
0.000439573 -1.54396e-05 -2.46811e-06
-1.54396e-05 -2.48588e-05 2.19341e-06
-2.46811e-06 2.19341e-06 -7.07807e-05
0.0020087 1.00232e-05 -4.61317e-06
1.00232e-05 0.000933113 7.7862e-09
-4.61317e-06 7.7862e-09 0.000950899
0.000457582 4.60699e-06 -1.1619e-06
4.60699e-06 -4.3612e-05 3.25096e-06
-1.1619e-06 3.25096e-06 -5.25087e-05
0.00198255 2.49544e-05 1.22986e-06
2.49544e-05 0.000918514 4.79541e-06
1.22986e-06 4.79541e-06 0.000935392
-0.000262149 -0.000753157 -0.000238335
-0.000753157 -0.000142844 8.86629e-05
-0.000238335 8.86629e-05 -0.00324773
0.00175888 0.000603043 -0.000109038
0.000603043 0.00738709 1.99252e-05
-0.000109038 1.99252e-05 0.00334838
0.00216517 -4.32e-05 -0.000831602
-4.32e-05 0.00376257 0.000167371
-0.000831602 0.000167371 0.00190666
0.000717869 0.00012389 4.59789e-06
0.00012389 0.000182538 6.56684e-06
4.59789e-06 6.56684e-06 2.53868e-05
0.00493501 -0.000873415 -8.33228e-05
-0.000873415 0.00317402 0.000232013
-8.33228e-05 0.000232013 0.00109014
0.00408045 -0.00124497 -0.000268988
-0.00124497 0.0016903 2.44527e-05
-0.000268988 2.44527e-05 -0.00290492
0.0106008 0.0031715 0.000345401
0.0031715 0.00756016 -0.00033438
0.000345401 -0.00033438 0.00348192
0.00712319 -0.00100299 0.000117051
-0.00100299 0.000791425 -2.26286e-05
0.000117051 -2.26286e-05 0.0010677
0.0130127 -0.00221745 0.000261493
-0.00221745 0.00101729 -0.000129635
0.000261493 -0.000129635 -0.000162423
0.00802758 0.0046473 -0.000626322
0.0046473 0.000300356 0.00041543
-0.000626322 0.00041543 -0.00292003
0.0135554 0.00421003 9.9882e-05
0.00421003 0.0047163 0.000223634
9.9882e-05 0.000223634 0.00213593
0.00727718 -0.00215956 -0.000122705
-0.00215956 0.000163234 -5.84883e-06
-0.000122705 -5.84883e-06 0.000593017
0.017285 -0.00391935 3.74308e-05
-0.00391935 0.00416925 -3.27295e-05
3.74308e-05 -3.27295e-05 0.00169375
0.00813711 0.00278282 0.000151268
0.00278282 0.00274113 -0.000344866
0.000151268 -0.000344866 -0.00135739
0.0117858 0.00125077 1.19096e-05
0.00125077 -0.000434695 4.05028e-05
1.19096e-05 4.05028e-05 -0.000160467
0.00299966 -0.00238443 -5.74729e-05
-0.00238443 -1.18298e-06 7.76493e-05
-5.74729e-05 7.76493e-05 -9.44445e-05
0.0109717 -0.00421859 0.000148729
-0.00421859 0.00461264 -0.000105244
0.000148729 -0.000105244 0.000266572
0.00968554 -0.000265 0.000132879
-0.000265 0.00451926 -0.000443465
0.000132879 -0.000443465 0.00173957
0.0118075 0.000466031 -0.000131257
0.000466031 -0.00134996 0.000240807
-0.000131257 0.000240807 0.000856454
0.000339843 6.74544e-05 3.59557e-06
6.74544e-05 4.92615e-05 8.66783e-06
3.59557e-06 8.66783e-06 -0.000169658
0.000752257 -0.000132324 6.07847e-07
-0.000132324 0.000320411 -3.82655e-07
6.07847e-07 -3.82655e-07 7.37746e-05
0.000934831 0.000140442 1.77818e-06
0.000140442 0.000377544 -5.08397e-06
1.77818e-06 -5.08397e-06 0.000220292
0.000479035 0.000125583 1.14403e-06
0.000125583 2.07193e-05 1.01954e-05
1.14403e-06 1.01954e-05 -0.000124297
0.0008245 0.000186896 4.28193e-07
0.000186896 0.000296171 8.6714e-07
4.28193e-07 8.6714e-07 0.000100554
0.00109008 0.000102689 -4.66077e-06
0.000102689 0.000459706 -4.58755e-06
-4.66077e-06 -4.58755e-06 0.000301679
0.00103644 0.000169659 -1.49275e-06
0.000169659 0.000419498 -1.2773e-07
-1.49275e-06 -1.2773e-07 0.000242398
0.00105956 0.000180281 1.54644e-06
0.000180281 0.000457321 2.54083e-06
1.54644e-06 2.54083e-06 0.000277226
0.000408944 -0.000581928 0.000113304
-0.000581928 -0.000980151 -6.4457e-05
0.000113304 -6.4457e-05 -0.000830856
0.000584185 -0.000681268 -2.41354e-05
-0.000681268 -0.000520042 -5.05131e-06
-2.41354e-05 -5.05131e-06 -0.000472119
0.000980875 -0.000230568 2.29499e-06
-0.000230568 0.000482814 -2.79226e-05
2.29499e-06 -2.79226e-05 0.000186439
0.00167455 -0.000689026 1.8996e-05
-0.000689026 0.000837603 -2.52836e-05
1.8996e-05 -2.52836e-05 0.0004931
0.00254744 -0.00045878 -2.04281e-05
-0.00045878 0.0014834 1.99235e-05
-2.04281e-05 1.99235e-05 0.00109501
0.00153297 -0.000152215 3.06724e-06
-0.000152215 0.000818923 -2.24209e-05
3.06724e-06 -2.24209e-05 0.000532564
-4.4699e-05 -3.94235e-05 3.55349e-06
-3.94235e-05 -0.000194826 7.47248e-06
3.55349e-06 7.47248e-06 -0.000410966
0.000397963 -0.00113402 -5.83595e-06
-0.00113402 -0.000731429 -3.9477e-06
-5.83595e-06 -3.9477e-06 -0.00076729
0.0013247 8.57157e-07 -8.78681e-07
8.57157e-07 0.000824133 -1.05306e-06
-8.78681e-07 -1.05306e-06 0.000500102
0.000386009 -0.000235693 8.14239e-07
-0.000235693 0.000341103 4.24365e-06
8.14239e-07 4.24365e-06 -8.90972e-05
-0.000283882 -0.000378863 2.38529e-05
-0.000378863 -0.00045067 9.1667e-07
2.38529e-05 9.1667e-07 -0.000425925
0.000811711 0.000107736 1.12794e-07
0.000107736 0.000348905 3.20787e-07
1.12794e-07 3.20787e-07 0.000145669
-0.000319095 -0.000992515 -5.25413e-05
-0.000992515 -0.000541351 -2.50943e-05
-5.25413e-05 -2.50943e-05 -0.000738519
-0.000971366 -0.000393354 -1.52782e-05
-0.000393354 -0.000535823 3.08064e-05
-1.52782e-05 3.08064e-05 -0.000786317
9.65621e-06 0.000144111 1.9028e-05
0.000144111 0.000371924 -2.72584e-05
1.9028e-05 -2.72584e-05 -0.000165221
0.00214666 0.000326585 -4.98642e-06
0.000326585 0.00130995 -2.57972e-06
-4.98642e-06 -2.57972e-06 0.00103724
-0.00115697 9.78262e-05 0.000106208
9.78262e-05 0.0014436 2.02901e-05
0.000106208 2.02901e-05 0.000561428
0.000479754 -1.72667e-05 0.000152924
-1.72667e-05 0.0012542 -3.31127e-05
0.000152924 -3.31127e-05 -0.00272364
-0.0112483 -0.000338289 -0.000262242
-0.000338289 0.00587211 2.63659e-05
-0.000262242 2.63659e-05 0.000377963
0.00174461 0.000546071 2.04623e-05
0.000546071 0.00101594 3.19024e-06
2.04623e-05 3.19024e-06 0.000704945
-0.000713094 0.000659616 1.27571e-05
0.000659616 -0.000324602 1.06448e-05
1.27571e-05 1.06448e-05 -0.000762509
0.00546048 0.000742469 0.000302993
0.000742469 0.00368296 5.74608e-05
0.000302993 5.74608e-05 0.00129203
0.00993999 0.00367101 0.00026869
0.00367101 0.0034033 0.000194876
0.00026869 0.000194876 -0.000701108
0.00425919 0.00232944 -8.3676e-05
0.00232944 0.00243425 -9.51804e-05
-8.3676e-05 -9.51804e-05 0.00106603
0.00481179 -0.00221831 -0.000178025
-0.00221831 0.00413161 -0.000444849
-0.000178025 -0.000444849 0.000393903
0.00266038 0.000585748 0.000132338
0.000585748 0.000341978 0.000183681
0.000132338 0.000183681 -0.00123944
0.00740684 -0.000206092 -5.04007e-05
-0.000206092 -0.00537206 -0.000233855
-5.04007e-05 -0.000233855 -0.00213337
0.00101366 0.000481804 6.04502e-06
0.000481804 0.000766724 1.74226e-06
6.04502e-06 1.74226e-06 0.000391038
-0.00245653 9.29449e-05 -2.67357e-06
9.29449e-05 7.47574e-05 1.92929e-06
-2.67357e-06 1.92929e-06 -0.00044268
0.00432413 -6.74904e-05 0.000109241
-6.74904e-05 -0.000258119 2.32639e-05
0.000109241 2.32639e-05 -0.000830122
-0.00174544 0.000411195 -1.31067e-05
0.000411195 -0.000294737 -1.06659e-05
-1.31067e-05 -1.06659e-05 -0.0010121
0.0114985 0.00137682 -5.05778e-06
0.00137682 -0.000367884 -4.14703e-05
-5.05778e-06 -4.14703e-05 -0.000173452
0.00255063 0.00185726 0.000213218
0.00185726 0.00373433 0.000133141
0.000213218 0.000133141 -0.00191744
0.00695289 0.000665753 -0.000168332
0.000665753 0.00316953 4.07647e-06
-0.000168332 4.07647e-06 -0.000444298
0.000391421 0.000415097 3.34543e-06
0.000415097 0.000537161 -2.35341e-05
3.34543e-06 -2.35341e-05 2.21335e-05
0.00143785 -1.41924e-05 6.40381e-06
-1.41924e-05 0.000196979 -1.73595e-05
6.40381e-06 -1.73595e-05 -0.000136246
0.00389436 -0.00108806 6.78696e-05
-0.00108806 0.00314711 -0.000232838
6.78696e-05 -0.000232838 0.00129718
0.0192308 0.00464255 0.000303654
0.00464255 0.00571051 -0.000273275
0.000303654 -0.000273275 0.00363992
0.00874915 -0.000125395 -0.000110314
-0.000125395 0.00453384 0.000449234
-0.000110314 0.000449234 0.00145906
0.000281096 0.000415771 -1.87195e-05
0.000415771 0.000670718 -0.000131904
-1.87195e-05 -0.000131904 3.6529e-05
0.0042307 0.00147989 0.000260103
0.00147989 0.00601407 2.87852e-05
0.000260103 2.87852e-05 -0.0021352
0.00130458 0.000329874 8.82208e-06
0.000329874 0.000937692 1.05331e-05
8.82208e-06 1.05331e-05 0.000575837
0.00062099 0.000234565 4.07665e-06
0.000234565 0.000705982 1.48769e-06
4.07665e-06 1.48769e-06 0.000283142
0.000408437 -2.61507e-05 -1.79943e-05
-2.61507e-05 0.00071306 3.98544e-07
-1.79943e-05 3.98544e-07 0.00035019
-0.000397507 -4.58435e-05 1.29963e-06
-4.58435e-05 -0.000454186 3.50225e-06
1.29963e-06 3.50225e-06 -0.000591522
0.000506102 -1.33448e-05 4.59383e-06
-1.33448e-05 0.000536451 -2.19356e-06
4.59383e-06 -2.19356e-06 0.000139723
0.000152572 4.96e-05 5.06243e-06
4.96e-05 0.000465067 -4.45514e-06
5.06243e-06 -4.45514e-06 -1.27006e-05
0.000266503 -3.35988e-05 4.17165e-07
-3.35988e-05 0.000260428 3.46338e-07
4.17165e-07 3.46338e-07 7.1238e-06
-7.39876e-06 -3.45736e-05 4.28661e-06
-3.45736e-05 0.000319647 6.396e-07
4.28661e-06 6.396e-07 -8.8703e-05
0.00142192 -0.000350733 4.02838e-06
-0.000350733 0.000949632 -1.11567e-05
4.02838e-06 -1.11567e-05 0.000623101
0.000801644 -9.05557e-05 -6.64197e-06
-9.05557e-05 0.000404597 6.9834e-06
-6.64197e-06 6.9834e-06 0.000261003
0.000447354 -1.09362e-05 -1.26155e-06
-1.09362e-05 5.43414e-05 1.86119e-06
-1.26155e-06 1.86119e-06 -7.54535e-05
0.00133785 -0.000271586 1.11554e-06
-0.000271586 0.000589806 5.40383e-06
1.11554e-06 5.40383e-06 0.000419957
-0.00271724 -0.000130553 1.8308e-05
-0.000130553 -0.00167123 1.91494e-05
1.8308e-05 1.91494e-05 -0.00199862
-0.000230792 -0.000113084 9.74634e-06
-0.000113084 -0.000362334 -2.18932e-06
9.74634e-06 -2.18932e-06 -0.000385379
-8.84216e-05 -0.000334903 -9.21346e-07
-0.000334903 -0.000356042 -4.8339e-06
-9.21346e-07 -4.8339e-06 -0.000612054
0.00124888 -0.000526775 -1.61787e-07
-0.000526775 0.000313653 -1.19923e-06
-1.61787e-07 -1.19923e-06 -0.000133099
0.0016783 -0.000629281 -6.12109e-06
-0.000629281 0.000453435 -3.72703e-07
-6.12109e-06 -3.72703e-07 1.88462e-05
0.00171635 -0.000360005 4.92209e-06
-0.000360005 0.00069962 -3.47548e-06
4.92209e-06 -3.47548e-06 0.000491664
0.0012826 -0.000471665 1.08353e-06
-0.000471665 0.000359493 7.13514e-07
1.08353e-06 7.13514e-07 5.30329e-06
0.00164039 -0.000530751 4.90286e-06
-0.000530751 0.000447881 -4.19024e-06
4.90286e-06 -4.19024e-06 7.94483e-05
0.00092919 -0.000348768 -1.53353e-06
-0.000348768 0.000106471 6.44049e-06
-1.53353e-06 6.44049e-06 -0.000176954
0.00113219 -0.000455863 2.17532e-06
-0.000455863 0.0001739 -5.00528e-06
2.17532e-06 -5.00528e-06 -0.000179348
0.000515042 -0.000154447 1.15931e-06
-0.000154447 6.68001e-05 -5.89469e-06
1.15931e-06 -5.89469e-06 -0.000184874
0.00110406 -0.000343576 -6.11101e-06
-0.000343576 0.000350223 3.71015e-06
-6.11101e-06 3.71015e-06 9.43829e-05
-0.000868937 -0.000158731 -7.89957e-07
-0.000158731 -0.000953367 -9.68857e-06
-7.89957e-07 -9.68857e-06 -0.00117944
6.09844e-05 -5.50072e-05 1.37747e-06
-5.50072e-05 -0.000224485 -2.31909e-06
1.37747e-06 -2.31909e-06 -0.000404773
0.000403759 -0.000136017 2.55829e-07
-0.000136017 5.34765e-05 4.41463e-07
2.55829e-07 4.41463e-07 -0.000192002
0.000588617 -0.000206549 9.80523e-06
-0.000206549 0.000160603 -2.51545e-07
9.80523e-06 -2.51545e-07 -6.07628e-05
0.00058556 -0.000122443 -1.67163e-07
-0.000122443 0.000142636 3.13849e-06
-1.67163e-07 3.13849e-06 -5.28579e-05
0.000712875 -0.000110326 -1.68355e-08
-0.000110326 0.000177905 3.56432e-07
-1.68355e-08 3.56432e-07 2.25522e-05
0.000577945 -4.59674e-06 2.33457e-06
-4.59674e-06 6.94678e-05 6.40803e-06
2.33457e-06 6.40803e-06 -3.48477e-05
0.000991392 -0.000137106 -2.17429e-06
-0.000137106 0.000367189 -1.09345e-06
-2.17429e-06 -1.09345e-06 0.00021505
0.000574803 -6.47609e-06 -1.1878e-06
-6.47609e-06 6.57816e-05 -3.50862e-07
-1.1878e-06 -3.50862e-07 -2.48881e-05
0.000406337 4.54232e-05 2.21165e-06
4.54232e-05 -5.9429e-05 7.02434e-06
2.21165e-06 7.02434e-06 -9.49541e-05
0.000684853 -6.2598e-05 8.03112e-07
-6.2598e-05 0.000134343 -3.77395e-06
8.03112e-07 -3.77395e-06 4.96336e-05
0.000454971 4.02652e-06 -1.17986e-06
4.02652e-06 -3.96503e-05 -4.30326e-08
-1.17986e-06 -4.30326e-08 -6.89072e-05
0.00258124 9.0549e-05 -2.20057e-06
9.0549e-05 0.00129816 2.59691e-06
-2.20057e-06 2.59691e-06 0.00130301
0.000470136 -1.28828e-05 2.34744e-06
-1.28828e-05 -2.88705e-05 -6.0549e-06
2.34744e-06 -6.0549e-06 -5.65518e-05
0.0017506 4.6868e-05 1.66234e-05
4.6868e-05 0.00077176 -1.0351e-06
1.66234e-05 -1.0351e-06 0.000776755
0.00260193 4.22918e-05 2.27385e-05
4.22918e-05 0.00130741 -5.5983e-06
2.27385e-05 -5.5983e-06 0.00131883
0.000273935 2.11737e-05 1.04617e-06
2.11737e-05 -0.000108765 1.03893e-06
1.04617e-06 1.03893e-06 -0.000230095
0.000224512 1.06993e-05 1.17146e-06
1.06993e-05 -0.000160138 -2.73945e-06
1.17146e-06 -2.73945e-06 -0.000234274
0.000462886 3.71083e-05 -5.93604e-07
3.71083e-05 2.39977e-05 -1.21449e-06
-5.93604e-07 -1.21449e-06 -0.000101578
0.000495444 3.03414e-06 1.51532e-06
3.03414e-06 -2.1991e-05 -4.21671e-06
1.51532e-06 -4.21671e-06 -3.60843e-05
0.000198532 1.56016e-05 -5.82984e-07
1.56016e-05 -0.000175799 -1.75683e-06
-5.82984e-07 -1.75683e-06 -0.000240447
0.000669559 5.6403e-05 4.28841e-08
5.6403e-05 0.000164021 1.54051e-06
4.28841e-08 1.54051e-06 4.38538e-05
0.00207373 -1.86916e-05 -1.63073e-05
-1.86916e-05 0.000971737 -4.68152e-06
-1.63073e-05 -4.68152e-06 0.000989406
0.000473794 1.5092e-06 -6.36753e-07
1.5092e-06 -3.55592e-05 -6.82337e-08
-6.36753e-07 -6.82337e-08 -4.63448e-05
0.000118079 1.47945e-05 1.55478e-06
1.47945e-05 -0.000224541 1.62303e-06
1.55478e-06 1.62303e-06 -0.000280871
0.00203144 -4.05804e-06 -4.0431e-06
-4.05804e-06 0.000946112 4.54148e-08
-4.0431e-06 4.54148e-08 0.000964167
0.000455464 2.48999e-06 -1.42088e-06
2.48999e-06 -4.63741e-05 3.42922e-06
-1.42088e-06 3.42922e-06 -5.52882e-05
0.00205426 1.15742e-05 6.73083e-06
1.15742e-05 0.000962196 4.85178e-06
6.73083e-06 4.85178e-06 0.000979568
0.000436379 -3.90922e-05 0.00012436
-3.90922e-05 0.00207956 4.73143e-05
0.00012436 4.73143e-05 0.00147834
-0.000224323 -0.000372303 -4.87627e-05
-0.000372303 0.000377601 -1.11416e-05
-4.87627e-05 -1.11416e-05 -0.00335874
0.000205767 0.000585328 -2.83853e-05
0.000585328 0.00703668 -4.45869e-05
-2.83853e-05 -4.45869e-05 0.0028872
0.000756145 0.000132051 5.45076e-07
0.000132051 0.00019702 6.84279e-08
5.45076e-07 6.84279e-08 5.06524e-05
0.000338562 9.08493e-05 5.63989e-06
9.08493e-05 -7.67763e-05 4.71465e-06
5.63989e-06 4.71465e-06 -0.000210585
0.00106249 0.000190009 7.95289e-06
0.000190009 0.000389341 8.18735e-06
7.95289e-06 8.18735e-06 0.000241111
0.00576519 -0.000307825 -8.47441e-05
-0.000307825 -0.000404246 0.000226661
-8.47441e-05 0.000226661 -0.00141752
0.00488302 -0.00100456 8.99992e-05
-0.00100456 0.00285779 4.43956e-06
8.99992e-05 4.43956e-06 0.00140189
0.00460946 -0.00169719 0.000185937
-0.00169719 0.00193697 -0.000249277
0.000185937 -0.000249277 -0.00274438
0.00854152 -0.00259196 -2.2112e-05
-0.00259196 0.000267977 -3.27016e-05
-2.2112e-05 -3.27016e-05 0.000908689
0.000961699 -0.00311036 -0.000395453
-0.00311036 -0.00198608 9.85872e-05
-0.000395453 9.85872e-05 -0.00473193
0.025799 0.00405959 0.000212778
0.00405959 0.0105001 0.000167559
0.000212778 0.000167559 0.00598257
0.007111 -0.000108779 0.00028449
-0.000108779 -0.00276917 -0.00022847
0.00028449 -0.00022847 -0.00291461
0.00445222 -0.00274336 -3.08212e-05
-0.00274336 6.90134e-05 1.74108e-05
-3.08212e-05 1.74108e-05 0.000396365
0.00730284 -0.00402702 -0.000113522
-0.00402702 0.00273982 2.04969e-05
-0.000113522 2.04969e-05 -0.00195706
-0.00234539 0.00363739 -8.80521e-05
0.00363739 0.00370978 -0.000304992
-8.80521e-05 -0.000304992 -0.00107629
0.00978429 0.000121516 -7.39795e-05
0.000121516 -0.00352977 0.000139577
-7.39795e-05 0.000139577 -0.000626994
0.00196938 -0.00196283 -0.00011159
-0.00196283 0.00115558 4.85972e-05
-0.00011159 4.85972e-05 0.00072514
0.0106691 -0.00298396 -0.000294833
-0.00298396 0.00571648 0.00017237
-0.000294833 0.00017237 0.00065004
-0.000430561 -7.3073e-05 4.29947e-05
-7.3073e-05 0.00237978 -0.000341663
4.29947e-05 -0.000341663 -0.00134474
0.00891417 -0.000918138 0.000120397
-0.000918138 -0.00197241 5.88828e-05
0.000120397 5.88828e-05 -0.001181
0.000270684 9.76126e-05 5.94916e-06
9.76126e-05 -6.11096e-05 1.81685e-05
5.94916e-06 1.81685e-05 -0.000211009
0.000710308 -5.22551e-06 2.52422e-06
-5.22551e-06 0.000258362 -3.27809e-06
2.52422e-06 -3.27809e-06 2.95056e-05
0.000433524 -0.00015665 1.77168e-06
-0.00015665 4.46814e-05 -1.07637e-05
1.77168e-06 -1.07637e-05 -0.000164572
0.00065956 0.000133261 -2.03033e-06
0.000133261 0.000136284 1.36946e-06
-2.03033e-06 1.36946e-06 -1.64524e-05
0.000740821 0.000137454 2.4309e-06
0.000137454 0.000245534 -4.73371e-06
2.4309e-06 -4.73371e-06 6.25391e-05
0.00117364 0.000196287 -3.56482e-06
0.000196287 0.000509325 -4.12256e-06
-3.56482e-06 -4.12256e-06 0.000329395
-0.000602715 -0.000970774 3.25938e-05
-0.000970774 -0.00118289 -1.4437e-05
3.25938e-05 -1.4437e-05 -0.00121643
0.00105531 -0.000363752 2.37204e-05
-0.000363752 0.000306225 -2.53214e-05
2.37204e-05 -2.53214e-05 0.000347488
1.20338e-05 4.38585e-05 -1.10011e-06
4.38585e-05 -0.000153475 -1.3577e-05
-1.10011e-06 -1.3577e-05 -0.0003798
0.00218565 -0.000463289 5.86939e-05
-0.000463289 0.00131831 -2.51009e-05
5.86939e-05 -2.51009e-05 0.000922446
0.00177075 -0.000115783 -1.78879e-06
-0.000115783 0.0010558 6.27635e-06
-1.78879e-06 6.27635e-06 0.000755651
-3.69823e-05 9.4245e-05 3.90484e-06
9.4245e-05 -0.000119589 4.39231e-06
3.90484e-06 4.39231e-06 -0.000341968
0.000677087 0.000131285 8.12382e-07
0.000131285 0.00039837 -2.64331e-06
8.12382e-07 -2.64331e-06 0.000160581
0.000342466 -0.00112116 -2.28547e-05
-0.00112116 -0.000262321 -2.11902e-06
-2.28547e-05 -2.11902e-06 -0.000560126
0.000258403 -3.61677e-05 -6.19146e-06
-3.61677e-05 0.000519415 4.92765e-06
-6.19146e-06 4.92765e-06 -2.70004e-06
0.00130669 -0.000344497 -6.91515e-07
-0.000344497 0.000744297 -9.27207e-06
-6.91515e-07 -9.27207e-06 0.000423949
0.000765988 0.00015925 9.2465e-07
0.00015925 0.000437872 -1.4281e-05
9.2465e-07 -1.4281e-05 0.000219454
-0.00219134 -0.000254489 -6.64568e-05
-0.000254489 -0.000318036 -1.54154e-05
-6.64568e-05 -1.54154e-05 -0.0011881
0.000501609 -0.000193525 -2.77851e-05
-0.000193525 0.000682958 8.17605e-06
-2.77851e-05 8.17605e-06 0.000306161
2.94061e-05 0.000106061 -1.1655e-05
0.000106061 0.000435341 1.16396e-05
-1.1655e-05 1.16396e-05 -1.55355e-05
-0.000215532 0.000173738 -1.00961e-05
0.000173738 -0.000613556 2.60179e-06
-1.00961e-05 2.60179e-06 -0.00168061
-0.00174141 0.000174409 4.98548e-05
0.000174409 0.00116698 -1.38706e-05
4.98548e-05 -1.38706e-05 0.000293452
-0.000352187 -0.000153662 0.000325194
-0.000153662 0.000674755 2.5196e-05
0.000325194 2.5196e-05 -0.00330323
7.43778e-05 0.000443566 1.33806e-06
0.000443566 0.000202257 1.58335e-05
1.33806e-06 1.58335e-05 -0.000194098
0.000508672 0.000793935 -1.83626e-05
0.000793935 0.000457797 -8.23555e-06
-1.83626e-05 -8.23555e-06 -0.000164999
-0.00223557 4.87908e-05 -3.34026e-05
4.87908e-05 0.000120957 -1.89751e-05
-3.34026e-05 -1.89751e-05 -0.000533459
-0.00467021 0.000715063 6.39032e-05
0.000715063 0.00244012 0.000181266
6.39032e-05 0.000181266 -0.00290754
-0.00137772 0.00128484 -0.000189583
0.00128484 -0.00179225 -0.000464593
-0.000189583 -0.000464593 -0.00624999
0.00359809 2.18403e-05 8.29855e-05
2.18403e-05 -0.000345276 9.80239e-05
8.29855e-05 9.80239e-05 -0.0003832
0.0066507 4.64086e-05 -0.000284531
4.64086e-05 -0.00253313 0.000232495
-0.000284531 0.000232495 -0.00291143
0.000226127 0.000338102 1.66328e-07
0.000338102 0.00048848 -8.41287e-07
1.66328e-07 -8.41287e-07 4.13459e-05
0.00102674 3.72696e-06 3.08528e-05
3.72696e-06 0.000115667 -1.67059e-05
3.08528e-05 -1.67059e-05 -0.000194712
0.00409964 -0.000791348 -8.81169e-05
-0.000791348 0.00282161 2.14012e-06
-8.81169e-05 2.14012e-06 0.0013263
-0.000303508 0.000652937 -0.000131508
0.000652937 0.00107076 -6.02582e-06
-0.000131508 -6.02582e-06 -0.000287703
0.0139314 0.00473513 2.32213e-05
0.00473513 0.00283582 -0.000394412
2.32213e-05 -0.000394412 0.000581118
2.32528e-05 0.0029711 7.61154e-05
0.0029711 0.0041091 0.000315619
7.61154e-05 0.000315619 -0.000725411
0.00525657 0.000617081 5.8641e-05
0.000617081 0.00584152 -2.25314e-05
5.8641e-05 -2.25314e-05 -0.00137599
0.000744069 -2.2743e-05 4.34406e-05
-2.2743e-05 0.0014351 -2.79856e-05
4.34406e-05 -2.79856e-05 0.000440714
3.55016e-05 -0.00013592 -0.000109055
-0.00013592 0.00214045 3.59434e-06
-0.000109055 3.59434e-06 0.00139683
0.00205801 -0.000897268 0.000687297
-0.000897268 0.000718791 -0.000253813
0.000687297 -0.000253813 -0.00410679
0.0180064 0.00686544 -6.60976e-05
0.00686544 0.0122062 -5.21126e-07
-6.60976e-05 -5.21126e-07 0.00917766
0.00551518 0.00361517 -0.000152432
0.00361517 0.00132182 0.000774557
-0.000152432 0.000774557 -0.00248073
0.0118923 -0.00325897 0.000266021
-0.00325897 0.00588117 -0.000220838
0.000266021 -0.000220838 0.000272923
0.00364405 -0.000735905 -7.04282e-05
-0.000735905 0.00311809 3.7641e-05
-7.04282e-05 3.7641e-05 0.00224397
0.000615645 0.000233275 -2.2341e-06
0.000233275 0.000726024 2.53442e-06
-2.2341e-06 2.53442e-06 0.000294884
2.48247e-05 -5.28486e-05 -8.30791e-06
-5.28486e-05 0.000418184 -3.03288e-06
-8.30791e-06 -3.03288e-06 3.04202e-05
0.00128967 -0.000495561 3.78373e-05
-0.000495561 0.000932816 -1.35254e-05
3.78373e-05 -1.35254e-05 0.000437554
0.000394442 -7.60454e-05 -1.34203e-06
-7.60454e-05 0.000293876 3.35191e-06
-1.34203e-06 3.35191e-06 8.39414e-05
-8.95436e-06 -4.44893e-05 7.23006e-07
-4.44893e-05 0.000292051 -1.19429e-05
7.23006e-07 -1.19429e-05 -9.67095e-05
0.000453755 -0.000285601 -4.1337e-06
-0.000285601 0.000502601 3.88992e-07
-4.1337e-06 3.88992e-07 0.000160731
0.000898829 -0.000561013 2.21514e-05
-0.000561013 0.000329555 -2.06291e-05
2.21514e-05 -2.06291e-05 6.13015e-05
0.00242895 -0.000377013 -1.76046e-06
-0.000377013 0.00126739 1.23537e-06
-1.76046e-06 1.23537e-06 0.00105169
0.00182119 -0.000635962 1.46944e-05
-0.000635962 0.000822412 -3.19544e-06
1.46944e-05 -3.19544e-06 0.000432457
0.00106233 -0.000547782 8.46589e-06
-0.000547782 0.000377411 6.18609e-07
8.46589e-06 6.18609e-07 -0.000225614
0.000575961 -0.000343804 -5.59869e-06
-0.000343804 3.214e-06 -5.07298e-06
-5.59869e-06 -5.07298e-06 -0.000204547
0.00192872 -0.00060679 -2.31663e-06
-0.00060679 0.000671253 -5.34145e-07
-2.31663e-06 -5.34145e-07 0.000219525
0.0022052 -0.000769499 -5.90518e-06
-0.000769499 0.000736295 1.83568e-07
-5.90518e-06 1.83568e-07 0.000185385
0.00191228 -0.000805372 -1.08312e-05
-0.000805372 0.000421123 1.80783e-06
-1.08312e-05 1.80783e-06 -6.24328e-05
0.00175407 -0.000671518 -1.65457e-06
-0.000671518 0.00047812 -7.93917e-07
-1.65457e-06 -7.93917e-07 4.89193e-05
0.00160638 -0.000624052 -4.8113e-06
-0.000624052 0.000401196 1.38021e-06
-4.8113e-06 1.38021e-06 -3.43823e-05
0.00118981 -0.0004661 -1.91081e-06
-0.0004661 0.000274752 -5.45981e-06
-1.91081e-06 -5.45981e-06 -8.8449e-05
0.00152353 -0.000482163 9.33787e-06
-0.000482163 0.000449424 -1.74005e-06
9.33787e-06 -1.74005e-06 0.000109793
0.00156768 -0.000529735 5.72923e-06
-0.000529735 0.000404915 -2.30299e-06
5.72923e-06 -2.30299e-06 3.66121e-05
0.000617799 -0.000227692 2.70007e-06
-0.000227692 1.22592e-05 -5.0976e-07
2.70007e-06 -5.0976e-07 -0.000231432
0.00100117 -0.000367293 3.95727e-06
-0.000367293 0.000160937 -3.01111e-06
3.95727e-06 -3.01111e-06 -0.000126104
0.00046268 -0.000372824 -1.91604e-06
-0.000372824 -0.000227555 -8.27781e-06
-1.91604e-06 -8.27781e-06 -0.000555471
-5.93577e-05 -5.4628e-05 7.76686e-07
-5.4628e-05 -0.000269963 -2.78714e-06
7.76686e-07 -2.78714e-06 -0.000510518
0.00105519 -0.000220423 -4.01183e-07
-0.000220423 0.000414393 2.00428e-07
-4.01183e-07 2.00428e-07 0.000151578
0.000678259 -0.000315999 -3.38933e-06
-0.000315999 9.86762e-05 -1.59005e-06
-3.38933e-06 -1.59005e-06 -0.000167284
0.000654429 -4.17391e-05 5.18126e-07
-4.17391e-05 0.00011213 7.79428e-06
5.18126e-07 7.79428e-06 -7.41033e-06
0.000788565 -0.000111745 -3.567e-07
-0.000111745 0.00022451 -1.28644e-07
-3.567e-07 -1.28644e-07 3.87888e-05
2.50473e-05 -0.000107528 3.09591e-07
-0.000107528 -0.000174573 4.2218e-06
3.09591e-07 4.2218e-06 -0.000408756
0.0010636 -0.000132863 -5.34878e-07
-0.000132863 0.000406888 -6.00577e-07
-5.34878e-07 -6.00577e-07 0.00024065
0.000610163 -4.79049e-05 -1.69918e-07
-4.79049e-05 8.6928e-05 -3.68986e-07
-1.69918e-07 -3.68986e-07 -1.87628e-05
0.000363701 2.62296e-05 2.06667e-06
2.62296e-05 -7.93727e-05 9.24514e-06
2.06667e-06 9.24514e-06 -0.000121351
0.000654455 -5.36055e-05 -4.98387e-07
-5.36055e-05 0.000112202 -4.71682e-06
-4.98387e-07 -4.71682e-06 2.0776e-05
0.000481308 1.68781e-05 -2.66022e-06
1.68781e-05 -1.76055e-05 -2.4133e-07
-2.66022e-06 -2.4133e-07 -5.10215e-05
0.00273432 9.71045e-05 -3.6924e-05
9.71045e-05 0.00140123 4.6576e-06
-3.6924e-05 4.6576e-06 0.00140565
0.000499477 -4.09709e-06 2.17867e-06
-4.09709e-06 -1.38647e-05 -6.26997e-06
2.17867e-06 -6.26997e-06 -4.2505e-05
0.00174787 6.31624e-05 1.93406e-05
6.31624e-05 0.000772534 -7.25417e-07
1.93406e-05 -7.25417e-07 0.000775212
0.00266887 6.12592e-05 2.80224e-05
6.12592e-05 0.00135045 -5.25652e-06
2.80224e-05 -5.25652e-06 0.00136009
0.000757054 9.94719e-05 4.07784e-06
9.94719e-05 0.000207161 1.17249e-06
4.07784e-06 1.17249e-06 7.03116e-05
0.000518328 4.79741e-05 1.60665e-06
4.79741e-05 2.43141e-05 -2.00889e-06
1.60665e-06 -2.00889e-06 -5.57119e-05
0.000460517 5.30067e-05 -1.00617e-06
5.30067e-05 2.29164e-05 -1.26469e-06
-1.00617e-06 -1.26469e-06 -0.000109749
0.000490962 3.90988e-06 8.34674e-07
3.90988e-06 -2.45272e-05 -5.12606e-06
8.34674e-07 -5.12606e-06 -4.34026e-05
0.000329651 3.83754e-05 -2.2494e-06
3.83754e-05 -9.28726e-05 -1.83191e-06
-2.2494e-06 -1.83191e-06 -0.0001664
0.000661939 7.7686e-05 -7.94411e-07
7.7686e-05 0.000152397 -2.72558e-06
-7.94411e-07 -2.72558e-06 2.62983e-05
0.00217237 -3.40577e-05 -2.02997e-05
-3.40577e-05 0.00103385 -4.77594e-06
-2.02997e-05 -4.77594e-06 0.00105013
0.00046715 -2.99481e-06 3.20774e-08
-2.99481e-06 -4.05096e-05 -1.36292e-07
3.20774e-08 -1.36292e-07 -5.40953e-05
0.000131819 1.41676e-05 -1.38132e-06
1.41676e-05 -0.000217911 3.33353e-07
-1.38132e-06 3.33353e-07 -0.000283778
0.00211238 -1.80986e-05 -5.38384e-06
-1.80986e-05 0.00099622 1.25851e-07
-5.38384e-06 1.25851e-07 0.00101376
0.000462882 -1.64335e-06 -2.30859e-06
-1.64335e-06 -4.27133e-05 3.52902e-06
-2.30859e-06 3.52902e-06 -5.32319e-05
0.00206388 -2.61599e-06 1.15728e-05
-2.61599e-06 0.0009665 4.8309e-06
1.15728e-05 4.8309e-06 0.000984417
0.00139973 -0.000234082 -5.67968e-05
-0.000234082 9.2488e-05 3.41761e-05
-5.67968e-05 3.41761e-05 -0.00026802
-0.000611096 -0.000206379 6.16223e-05
-0.000206379 0.00174399 -3.42037e-06
6.16223e-05 -3.42037e-06 0.000989995
-0.000805911 -0.000372877 0.000154632
-0.000372877 0.000608829 -0.00013922
0.000154632 -0.00013922 -0.00354988
0.000131557 4.95824e-05 2.84349e-06
4.95824e-05 -0.000201136 4.49228e-06
2.84349e-06 4.49228e-06 -0.000342387
0.00217986 0.000104254 1.48629e-06
0.000104254 0.00106531 2.53386e-06
1.48629e-06 2.53386e-06 0.000895553
0.000742318 0.000147904 -2.72422e-06
0.000147904 0.000194344 -5.07302e-06
-2.72422e-06 -5.07302e-06 5.08991e-05
0.000392059 7.7449e-05 8.4874e-07
7.7449e-05 -5.61543e-05 9.18616e-07
8.4874e-07 9.18616e-07 -0.000181194
0.00044251 9.47744e-05 3.88022e-07
9.47744e-05 -1.01056e-05 -7.10193e-07
3.88022e-07 -7.10193e-07 -0.000136164
0.000482295 8.91249e-05 6.22172e-06
8.91249e-05 1.30911e-05 2.6152e-06
6.22172e-06 2.6152e-06 -0.000107192
0.000386836 0.000147915 1.11248e-05
0.000147915 -1.84324e-06 7.61531e-06
1.11248e-05 7.61531e-06 -0.000135733
0.00161163 0.000880686 0.000200936
0.000880686 -0.000459863 0.000243075
0.000200936 0.000243075 -0.00177374
0.00475728 -0.00020237 -4.76869e-05
-0.00020237 -0.000215173 5.61872e-05
-4.76869e-05 5.61872e-05 -0.00103711
0.00398647 -0.000681527 0.000193291
-0.000681527 0.00271279 -0.000107242
0.000193291 -0.000107242 0.00147369
0.00770349 -0.000124601 -2.96878e-08
-0.000124601 -0.00578696 0.000174695
-2.96878e-08 0.000174695 -0.00211775
0.00433374 -0.00270941 -0.000116609
-0.00270941 0.000500438 4.11528e-05
-0.000116609 4.11528e-05 0.000629859
0.00137376 -0.00381088 -0.000254845
-0.00381088 0.00153861 7.87385e-05
-0.000254845 7.87385e-05 -0.00405227
0.0150779 0.00412252 0.000120008
0.00412252 0.00710478 -0.000147599
0.000120008 -0.000147599 0.00273287
0.00242015 -0.00226236 -6.01633e-05
-0.00226236 0.000172325 2.36038e-05
-6.01633e-05 2.36038e-05 0.000391118
-0.0013066 -0.000783889 -5.49017e-05
-0.000783889 0.00372335 5.22316e-05
-5.49017e-05 5.22316e-05 -0.0031565
0.0079333 0.000569378 0.000191551
0.000569378 0.00322527 -2.61178e-05
0.000191551 -2.61178e-05 -0.000155924
0.0150592 -0.00206012 -7.29995e-05
-0.00206012 0.00197509 -1.87829e-05
-7.29995e-05 -1.87829e-05 0.00323931
-0.00114413 -0.000535705 -0.000192476
-0.000535705 0.000270722 0.000144091
-0.000192476 0.000144091 0.000233399
0.00347032 0.00203706 -0.000185685
0.00203706 0.0052517 -9.13771e-05
-0.000185685 -9.13771e-05 -0.00176151
-0.00196694 -0.00489934 5.89179e-06
-0.00489934 -0.000476183 -0.000244059
5.89179e-06 -0.000244059 -0.00529194
0.0132586 -0.0028311 0.00012168
-0.0028311 0.00342945 -0.000610962
0.00012168 -0.000610962 0.00203876
0.000782536 2.22076e-05 1.24503e-05
2.22076e-05 0.000401232 2.49306e-06
1.24503e-05 2.49306e-06 0.000178722
0.000817031 0.000181107 -1.15326e-06
0.000181107 0.000302339 -3.33609e-06
-1.15326e-06 -3.33609e-06 0.000136734
0.000995616 -2.09359e-05 6.48788e-07
-2.09359e-05 0.000456532 -2.72713e-06
6.48788e-07 -2.72713e-06 0.000200817
0.00106601 0.000159522 -4.07034e-06
0.000159522 0.000417368 -9.57264e-06
-4.07034e-06 -9.57264e-06 0.000241967
0.000865371 -0.000997817 3.34063e-05
-0.000997817 5.89883e-05 3.21799e-05
3.34063e-05 3.21799e-05 -0.000303376
0.00276402 -0.000329747 1.06718e-06
-0.000329747 0.00164177 -2.77977e-05
1.06718e-06 -2.77977e-05 0.0012366
0.000899395 0.000100236 -8.97868e-06
0.000100236 0.000441686 -1.37423e-05
-8.97868e-06 -1.37423e-05 0.000243641
9.62284e-05 7.37788e-05 -1.29484e-06
7.37788e-05 3.15806e-05 -5.52952e-06
-1.29484e-06 -5.52952e-06 -0.000195723
0.000461022 1.66312e-06 -1.58327e-06
1.66312e-06 0.000618784 1.66522e-05
-1.58327e-06 1.66522e-05 0.000168979
0.000403327 5.83819e-05 2.98094e-06
5.83819e-05 0.000166408 4.45087e-06
2.98094e-06 4.45087e-06 -1.34505e-05
0.000163669 0.000108648 3.90404e-06
0.000108648 0.000510538 1.91832e-06
3.90404e-06 1.91832e-06 4.82006e-05
0.00113528 -0.000415595 7.79674e-07
-0.000415595 0.0013217 4.43098e-06
7.79674e-07 4.43098e-06 0.000203733
0.00013015 -0.000119327 1.02627e-05
-0.000119327 0.000660008 1.26284e-06
1.02627e-05 1.26284e-06 0.000252036
-0.000864418 8.50965e-05 1.87944e-06
8.50965e-05 -0.000387694 -1.19151e-05
1.87944e-06 -1.19151e-05 -0.000620376
0.00205399 -1.38466e-05 -8.5885e-05
-1.38466e-05 0.00348876 -3.06332e-05
-8.5885e-05 -3.06332e-05 0.00174362
0.000815121 0.000309969 -3.16415e-05
0.000309969 0.0010419 1.70944e-05
-3.16415e-05 1.70944e-05 0.000511692
-0.00173144 6.03193e-05 -7.43631e-05
6.03193e-05 0.00150234 -1.10844e-05
-7.43631e-05 -1.10844e-05 0.000505563
0.000906654 4.67258e-05 1.33295e-05
4.67258e-05 -0.000107145 4.91959e-06
1.33295e-05 4.91959e-06 -0.000515675
-0.00251476 0.000225695 -1.29332e-05
0.000225695 0.000791468 -5.69566e-05
-1.29332e-05 -5.69566e-05 -5.50333e-05
0.000214886 0.000250695 -2.18309e-05
0.000250695 0.000577253 7.01311e-06
-2.18309e-05 7.01311e-06 0.000216949
-0.00148247 0.000789233 0.000136483
0.000789233 -0.000209596 0.000103372
0.000136483 0.000103372 -0.000927724
0.000684683 2.07645e-05 5.77582e-05
2.07645e-05 3.27941e-05 -6.23299e-06
5.77582e-05 -6.23299e-06 -8.05493e-05
0.00542267 -0.00201415 0.000222345
-0.00201415 0.00555149 -0.000176281
0.000222345 -0.000176281 -0.00251072
0.0173963 0.00360123 -0.000162728
0.00360123 0.00768938 0.000146725
-0.000162728 0.000146725 0.00343721
0.0033373 -0.000595888 -0.000177374
-0.000595888 0.00220541 0.000113223
-0.000177374 0.000113223 0.00110535
0.0127515 0.00444437 -6.61933e-05
0.00444437 0.00478778 -0.000208878
-6.61933e-05 -0.000208878 0.00206409
0.000416949 0.000203508 -5.6428e-05
0.000203508 0.00112457 1.43037e-05
-5.6428e-05 1.43037e-05 0.000168305
5.78012e-05 -0.000185574 -7.12457e-05
-0.000185574 0.0017373 1.11784e-06
-7.12457e-05 1.11784e-06 0.0012247
0.00330014 -0.00133931 0.000264402
-0.00133931 0.00152783 -3.38775e-05
0.000264402 -3.38775e-05 -0.00312963
-0.00239075 -0.000128968 4.23774e-05
-0.000128968 -0.000476757 3.03989e-05
4.23774e-05 3.03989e-05 -0.000894848
0.0118409 0.00770107 0.000557286
0.00770107 0.00863456 -0.00025403
0.000557286 -0.00025403 0.0057978
0.00732861 0.00291928 -0.000161735
0.00291928 0.00271128 0.000349013
-0.000161735 0.000349013 -0.00132721
-0.00276512 -0.00120706 0.000162642
-0.00120706 0.00267488 -0.000133678
0.000162642 -0.000133678 -0.00464375
-0.00056209 -0.000381089 2.47249e-05
-0.000381089 0.000574841 -2.71183e-05
2.47249e-05 -2.71183e-05 -0.000379429
0.000231156 -0.000702762 0.000268894
-0.000702762 -0.000205726 -6.51003e-05
0.000268894 -6.51003e-05 -0.00326773
-0.00106674 0.00042139 -0.0010686
0.00042139 0.00641841 0.000292845
-0.0010686 0.000292845 0.00269325
0.0163622 0.00656949 -0.000551703
0.00656949 0.00501195 0.000536688
-0.000551703 0.000536688 0.00148763
0.00843055 -0.00323653 -0.000144228
-0.00323653 0.0034634 5.11806e-05
-0.000144228 5.11806e-05 -0.000158556
0.0028002 -0.00138635 1.10989e-05
-0.00138635 0.00243546 8.75156e-06
1.10989e-05 8.75156e-06 0.00165205
0.000407583 -5.74277e-05 5.92075e-06
-5.74277e-05 0.00057953 1.40239e-07
5.92075e-06 1.40239e-07 0.000183913
9.45648e-05 -0.000357127 5.78833e-08
-0.000357127 0.000357845 -8.07432e-07
5.78833e-08 -8.07432e-07 -0.000150183
0.000403685 -0.000640937 3.53877e-06
-0.000640937 0.000232536 -2.93816e-06
3.53877e-06 -2.93816e-06 -3.48208e-05
-0.000499466 -0.000213588 1.22514e-06
-0.000213588 5.15433e-05 7.72674e-06
1.22514e-06 7.72674e-06 -0.000301365
-0.000572103 -0.000371801 6.41509e-07
-0.000371801 -0.0003428 -7.33442e-07
6.41509e-07 -7.33442e-07 -0.000611429
0.00291012 -0.000835805 3.88431e-05
-0.000835805 0.00119971 -1.04041e-05
3.88431e-05 -1.04041e-05 0.000839969
0.00640039 -0.00116981 -1.35165e-05
-0.00116981 0.00333663 -2.62775e-07
-1.35165e-05 -2.62775e-07 0.00287373
0.00276652 -0.000767295 9.66809e-06
-0.000767295 0.00123657 -2.05087e-06
9.66809e-06 -2.05087e-06 0.000637431
0.0015683 -0.000762032 7.41419e-06
-0.000762032 0.000355402 -1.42206e-05
7.41419e-06 -1.42206e-05 -0.000248415
0.00213136 -0.000624859 -9.85797e-06
-0.000624859 0.000759097 -6.49775e-06
-9.85797e-06 -6.49775e-06 0.000314778
0.00230342 -0.000790751 2.28633e-06
-0.000790751 0.000770989 -1.19548e-06
2.28633e-06 -1.19548e-06 0.000210829
0.00249593 -0.00087682 -8.66209e-07
-0.00087682 0.000787734 -1.04889e-05
-8.66209e-07 -1.04889e-05 0.000233152
0.00212829 -0.00072414 -6.08655e-06
-0.00072414 0.000383193 -5.0362e-06
-6.08655e-06 -5.0362e-06 -3.00992e-06
0.00241544 -0.000861475 -7.31669e-06
-0.000861475 0.000679828 1.45867e-06
-7.31669e-06 1.45867e-06 0.000213718
0.00224346 -0.000845365 -2.77715e-06
-0.000845365 0.000602893 -1.27653e-07
-2.77715e-06 -1.27653e-07 0.000107746
0.00173471 -0.000642348 9.03313e-06
-0.000642348 0.00049999 -3.12211e-06
9.03313e-06 -3.12211e-06 9.89373e-05
0.00149962 -0.000631592 2.5683e-06
-0.000631592 0.000332283 -6.80815e-07
2.5683e-06 -6.80815e-07 -8.10977e-05
0.00146818 -0.000608396 3.05602e-06
-0.000608396 0.000309492 -4.37265e-08
3.05602e-06 -4.37265e-08 -0.000123916
0.00174066 -0.000446641 7.86483e-06
-0.000446641 0.000619563 3.37598e-06
7.86483e-06 3.37598e-06 0.000309161
0.00140004 -0.000466251 -1.19283e-06
-0.000466251 0.000376302 -1.82931e-06
-1.19283e-06 -1.82931e-06 3.77697e-05
0.00151881 -0.000530477 5.99413e-06
-0.000530477 0.000377255 1.51239e-06
5.99413e-06 1.51239e-06 9.19856e-06
0.00112629 -0.000213607 2.5676e-06
-0.000213607 0.000425853 -4.87365e-06
2.5676e-06 -4.87365e-06 0.000149863
0.000694894 -0.00024354 -2.5597e-06
-0.00024354 7.91281e-05 1.80792e-06
-2.5597e-06 1.80792e-06 -0.000164806
0.000960162 -0.000369373 3.51069e-07
-0.000369373 0.000142154 -9.61114e-06
3.51069e-07 -9.61114e-06 -0.000143933
3.05496e-05 -6.09936e-05 -9.43743e-07
-6.09936e-05 -0.000277756 5.18819e-06
-9.43743e-07 5.18819e-06 -0.000423981
0.0007486 -0.000108402 -1.05018e-07
-0.000108402 0.000228197 8.79322e-07
-1.05018e-07 8.79322e-07 -1.58687e-05
0.00120823 -0.000293978 2.33871e-06
-0.000293978 0.000534793 1.98523e-06
2.33871e-06 1.98523e-06 0.000256446
0.000354866 -4.52645e-06 -4.95814e-06
-4.52645e-06 -9.35715e-05 1.40107e-05
-4.95814e-06 1.40107e-05 -0.000139668
0.000650325 -6.18719e-05 7.23505e-07
-6.18719e-05 0.000102303 9.68032e-08
7.23505e-07 9.68032e-08 -1.69473e-05
0.00133185 -0.000186727 -1.80487e-06
-0.000186727 0.000561383 1.8329e-06
-1.80487e-06 1.8329e-06 0.000368276
0.000631108 -5.40355e-05 -8.41012e-07
-5.40355e-05 9.75376e-05 -5.76329e-06
-8.41012e-07 -5.76329e-06 -9.10833e-06
0.000449055 1.52128e-05 -4.14641e-07
1.52128e-05 -3.1271e-05 -4.1888e-07
-4.14641e-07 -4.1888e-07 -7.15171e-05
0.00287691 0.000122176 -3.76948e-05
0.000122176 0.00150044 4.57017e-06
-3.76948e-05 4.57017e-06 0.00149892
0.000523438 7.65638e-06 1.254e-06
7.65638e-06 4.91856e-06 -7.55363e-06
1.254e-06 -7.55363e-06 -2.70959e-05
0.00273082 9.9979e-05 4.5903e-06
9.9979e-05 0.00139942 5.28955e-07
4.5903e-06 5.28955e-07 0.00140332
0.00263886 7.97487e-05 3.1164e-05
7.97487e-05 0.00133491 -4.79687e-06
3.1164e-05 -4.79687e-06 0.00134261
0.000898736 9.0313e-05 3.54533e-06
9.0313e-05 0.000362289 -4.98417e-06
3.54533e-06 -4.98417e-06 0.000162008
0.000946396 0.00014273 6.59591e-06
0.00014273 0.000353624 6.94552e-07
6.59591e-06 6.94552e-07 0.00018404
0.000576932 4.10389e-05 2.93754e-06
4.10389e-05 5.8159e-05 -3.19057e-06
2.93754e-06 -3.19057e-06 -3.08894e-05
0.000611116 0.000104576 2.52189e-07
0.000104576 0.000111157 -2.43491e-07
2.52189e-07 -2.43491e-07 -2.21342e-05
0.000473227 1.063e-06 4.00607e-07
1.063e-06 -3.31405e-05 -6.28676e-06
4.00607e-07 -6.28676e-06 -5.74351e-05
0.000534231 5.0596e-05 2.01949e-07
5.0596e-05 3.47514e-05 -1.39297e-07
2.01949e-07 -1.39297e-07 -4.53833e-05
0.000574583 5.55322e-05 -3.99528e-06
5.55322e-05 8.00679e-05 -2.17889e-06
-3.99528e-06 -2.17889e-06 -4.3432e-05
0.00231945 -5.0152e-05 -2.64172e-05
-5.0152e-05 0.00112797 -4.94318e-06
-2.64172e-05 -4.94318e-06 0.00114188
0.000475235 -1.2419e-06 -7.61052e-07
-1.2419e-06 -3.40392e-05 -1.63363e-07
-7.61052e-07 -1.63363e-07 -5.2411e-05
0.000477226 5.57555e-05 -3.19847e-06
5.57555e-05 9.36779e-07 1.27409e-07
-3.19847e-06 1.27409e-07 -7.21355e-05
0.00217212 -3.3361e-05 -4.73289e-06
-3.3361e-05 0.00103364 2.29161e-07
-4.73289e-06 2.29161e-07 0.00105003
0.000471799 -2.46828e-06 -2.37428e-06
-2.46828e-06 -3.81056e-05 3.89616e-06
-2.37428e-06 3.89616e-06 -5.13274e-05
0.00209713 -1.7432e-05 1.56e-05
-1.7432e-05 0.000986461 4.68969e-06
1.56e-05 4.68969e-06 0.00100408
-0.00224476 0.000172985 -1.42327e-05
0.000172985 0.000218774 -3.60009e-05
-1.42327e-05 -3.60009e-05 -0.00010558
0.00141658 -0.000193025 -1.55411e-05
-0.000193025 0.000251283 9.89628e-06
-1.55411e-05 9.89628e-06 6.22092e-05
-1.23032e-06 -0.000198466 8.0814e-06
-0.000198466 0.00161944 -3.65542e-05
8.0814e-06 -3.65542e-05 0.00100747
0.000805437 0.000101171 -1.76141e-07
0.000101171 0.000261689 8.87028e-07
-1.76141e-07 8.87028e-07 8.78178e-05
0.000300972 8.65848e-05 5.29552e-06
8.65848e-05 -9.87725e-05 -1.47628e-06
5.29552e-06 -1.47628e-06 -0.000255386
-0.00160842 -1.32516e-05 -3.63655e-06
-1.32516e-05 -0.0012677 -7.32289e-06
-3.63655e-06 -7.32289e-06 -0.00141184
-0.000491986 2.74308e-05 5.18449e-07
2.74308e-05 -0.000565412 1.34245e-05
5.18449e-07 1.34245e-05 -0.00070854
0.00288533 0.000398759 -2.69277e-06
0.000398759 0.00153471 -3.64275e-07
-2.69277e-06 -3.64275e-07 0.00127873
0.000827459 4.61306e-05 -5.70916e-06
4.61306e-05 0.000204728 -4.8013e-06
-5.70916e-06 -4.8013e-06 8.11615e-05
0.00044442 0.000100739 -7.51967e-06
0.000100739 -1.13207e-05 -1.01987e-05
-7.51967e-06 -1.01987e-05 -0.000130612
0.000755773 6.7121e-05 3.58061e-07
6.7121e-05 0.000183727 -4.44208e-07
3.58061e-07 -4.44208e-07 6.19855e-05
0.000969475 0.000163454 -6.70471e-07
0.000163454 0.000342609 -2.15891e-06
-6.70471e-07 -2.15891e-06 0.000213119
0.000856243 0.000123213 7.46963e-06
0.000123213 0.000411513 -1.49018e-05
7.46963e-06 -1.49018e-05 0.000195853
0.00536399 0.000910936 0.000384881
0.000910936 0.00385693 0.000475173
0.000384881 0.000475173 -0.000801706
0.00219094 0.000718244 2.02611e-05
0.000718244 4.8797e-05 8.8268e-05
2.02611e-05 8.8268e-05 -0.00150069
0.00415967 -0.000146835 3.57801e-05
-0.000146835 -0.000207206 -1.91699e-05
3.57801e-05 -1.91699e-05 -0.000601758
0.0139584 -0.00179398 -0.000266851
-0.00179398 0.00214682 -0.000126124
-0.000266851 -0.000126124 0.00376854
-0.00339255 0.00150613 7.42246e-05
0.00150613 -0.00220916 0.000424315
7.42246e-05 0.000424315 -0.00669245
0.00206421 -0.00223 -5.49415e-05
-0.00223 0.000541998 -3.30969e-05
-5.49415e-05 -3.30969e-05 0.000579007
0.00864728 -0.00208014 -0.000126543
-0.00208014 0.00518649 3.24103e-05
-0.000126543 3.24103e-05 9.12807e-05
0.00100189 -0.000902853 -8.91779e-05
-0.000902853 0.000831133 0.000108099
-8.91779e-05 0.000108099 0.000508026
0.00946955 -9.54543e-05 -0.000150354
-9.54543e-05 0.00632732 1.96831e-06
-0.000150354 1.96831e-06 -6.63995e-05
0.00517809 -0.00260075 0.000100106
-0.00260075 0.00347251 0.0001814
0.000100106 0.0001814 -0.00125418
0.0158422 -0.0040332 -0.000150205
-0.0040332 0.00267596 -0.000708221
-0.000150205 -0.000708221 0.000859623
0.00293898 -1.02682e-05 -0.000131031
-1.02682e-05 0.00293422 0.000112095
-0.000131031 0.000112095 0.00186605
0.0131403 0.00255123 -0.000184226
0.00255123 0.00727186 1.20882e-05
-0.000184226 1.20882e-05 0.00220493
0.019403 -0.00623042 -0.000165281
-0.00623042 0.00948927 -0.000694639
-0.000165281 -0.000694639 0.00522226
0.0217888 -0.00802794 8.32304e-05
-0.00802794 0.00845357 -7.0446e-05
8.32304e-05 -7.0446e-05 0.00604251
0.000980973 0.000297963 1.37004e-05
0.000297963 0.00056237 -5.89161e-07
1.37004e-05 -5.89161e-07 0.00027079
4.57967e-05 4.83789e-05 3.11799e-06
4.83789e-05 2.01684e-05 2.72196e-06
3.11799e-06 2.72196e-06 -0.000245185
0.000887988 0.000178868 -1.05551e-05
0.000178868 0.000362408 -1.38128e-05
-1.05551e-05 -1.38128e-05 0.000183339
0.00321752 -0.000597685 2.84407e-05
-0.000597685 0.00196854 2.59789e-05
2.84407e-05 2.59789e-05 0.000677226
2.97558e-05 -9.88674e-05 1.25713e-05
-9.88674e-05 0.000755472 -3.92956e-05
1.25713e-05 -3.92956e-05 0.000297685
-3.3977e-05 4.46723e-05 -4.927e-06
4.46723e-05 -0.000102334 1.77269e-06
-4.927e-06 1.77269e-06 -0.000277022
-0.00069589 5.08478e-06 1.40055e-05
5.08478e-06 1.93646e-05 -7.77056e-06
1.40055e-05 -7.77056e-06 -0.000459079
7.20877e-06 0.000108888 -2.217e-07
0.000108888 0.000105802 -8.56408e-07
-2.217e-07 -8.56408e-07 -0.000138195
0.000422036 0.000335101 1.3422e-05
0.000335101 0.000677281 3.02303e-07
1.3422e-05 3.02303e-07 0.00014234
-0.00205175 -7.87939e-05 0.000262723
-7.87939e-05 0.000877748 -2.09558e-05
0.000262723 -2.09558e-05 -0.000964082
-0.00116793 0.000334219 -8.39467e-06
0.000334219 -0.000604797 1.20707e-05
-8.39467e-06 1.20707e-05 -0.000971947
0.00294654 0.00091017 -0.000143963
0.00091017 0.00225819 -7.57707e-05
-0.000143963 -7.57707e-05 0.000874598
0.00130498 0.000196836 0.000176297
0.000196836 0.00169945 5.90813e-05
0.000176297 5.90813e-05 -0.002285
-0.00206231 0.000169145 -5.35521e-05
0.000169145 0.0012277 1.5738e-05
-5.35521e-05 1.5738e-05 0.000177015
0.002262 -0.000228503 -2.43713e-05
-0.000228503 0.000571994 -2.30879e-06
-2.43713e-05 -2.30879e-06 0.000743929
-0.000654583 0.000501539 0.000124737
0.000501539 0.000396244 1.27541e-05
0.000124737 1.27541e-05 -0.000633942
0.00129755 0.000309637 -9.55092e-05
0.000309637 0.00220145 9.25541e-05
-9.55092e-05 9.25541e-05 0.000853193
-0.00018864 -0.000249878 -1.0451e-05
-0.000249878 0.00153283 -4.95476e-06
-1.0451e-05 -4.95476e-06 0.000857281
0.0164504 -0.00390497 0.000221216
-0.00390497 0.0081919 -0.000105011
0.000221216 -0.000105011 0.00219765
0.0230384 0.00448418 -0.000124839
0.00448418 0.0102001 -0.000150099
-0.000124839 -0.000150099 0.00567353
0.00491893 -0.00151608 -0.0002478
-0.00151608 0.00246367 0.000242932
-0.0002478 0.000242932 -0.00202602
0.00434687 0.00881718 0.00239032
0.00881718 0.00434279 -0.00151625
0.00239032 -0.00151625 0.00143372
0.00113501 -0.000478226 3.75542e-05
-0.000478226 0.00143711 -1.12969e-05
3.75542e-05 -1.12969e-05 0.00040069
-0.000275823 -0.000509705 4.20153e-05
-0.000509705 0.000360857 1.3746e-05
4.20153e-05 1.3746e-05 -0.00327911
-0.000342559 0.000832655 -0.00111375
0.000832655 0.00614163 0.000333834
-0.00111375 0.000333834 0.00208026
0.000749783 -0.000797697 8.84944e-06
-0.000797697 0.00122919 3.20407e-05
8.84944e-06 3.20407e-05 0.000538
0.0192712 0.00590819 0.000337639
0.00590819 0.00601358 9.39295e-05
0.000337639 9.39295e-05 0.00246237
0.00742797 -0.0046227 0.000187293
-0.0046227 0.0024428 -7.47356e-05
0.000187293 -7.47356e-05 -0.00145055
0.00127584 -0.00119299 -1.04292e-05
-0.00119299 0.000825888 2.94597e-05
-1.04292e-05 2.94597e-05 5.78282e-05
-0.00635545 -0.00168476 0.000138001
-0.00168476 0.00533101 -7.50358e-05
0.000138001 -7.50358e-05 0.00139065
0.0155711 0.00566936 -0.00147601
0.00566936 0.00610459 0.00051438
-0.00147601 0.00051438 0.00326083
0.00622669 -0.00341982 -0.000426312
-0.00341982 -0.000394714 0.000186021
-0.000426312 0.000186021 -0.00373118
0.0012486 -0.00191694 0.000189282
-0.00191694 6.21899e-05 -0.000118389
0.000189282 -0.000118389 0.00095775
0.00100647 -0.000489678 -9.44988e-05
-0.000489678 0.000762122 3.23048e-05
-9.44988e-05 3.23048e-05 0.0003071
0.000695445 -0.000576387 -5.92063e-06
-0.000576387 0.000429426 1.17996e-05
-5.92063e-06 1.17996e-05 9.85029e-05
0.00320521 -0.000881249 2.05672e-05
-0.000881249 0.00146323 -1.09851e-05
2.05672e-05 -1.09851e-05 0.00109488
-0.00177641 -0.000186212 7.56355e-06
-0.000186212 -0.000851247 1.07191e-05
7.56355e-06 1.07191e-05 -0.00111903
0.00123912 -0.00062553 4.67738e-06
-0.00062553 0.00033218 -2.46345e-06
4.67738e-06 -2.46345e-06 -1.0731e-05
0.00299023 -0.000946225 9.67336e-06
-0.000946225 0.000935635 -1.24278e-06
9.67336e-06 -1.24278e-06 0.000548972
0.00410288 -0.000936249 -2.8502e-05
-0.000936249 0.00190582 2.89859e-06
-2.8502e-05 2.89859e-06 0.00131485
0.0013864 -0.000713158 -5.68614e-07
-0.000713158 0.00024352 -1.21312e-06
-5.68614e-07 -1.21312e-06 -0.000338123
0.00178793 -0.000877452 1.78734e-06
-0.000877452 0.000222535 -1.19887e-05
1.78734e-06 -1.19887e-05 -0.00024202
0.00278736 -0.000860836 6.25875e-07
-0.000860836 0.00101447 4.44548e-06
6.25875e-07 4.44548e-06 0.000439959
0.00219338 -0.000845414 1.07996e-06
-0.000845414 0.000595432 -4.61623e-06
1.07996e-06 -4.61623e-06 6.04008e-05
0.00259507 -0.000783185 -1.85737e-07
-0.000783185 0.000597513 -9.78119e-06
-1.85737e-07 -9.78119e-06 0.000215118
0.00172819 -0.000506898 -5.68211e-06
-0.000506898 -1.4923e-06 -3.00402e-06
-5.68211e-06 -3.00402e-06 -0.000248046
0.00188854 -0.000724168 -1.85203e-06
-0.000724168 0.000193499 -1.48544e-06
-1.85203e-06 -1.48544e-06 -0.000191115
0.00212858 -0.000725651 2.95023e-06
-0.000725651 0.000374928 -2.91135e-06
2.95023e-06 -2.91135e-06 -9.34651e-06
0.00225237 -0.000756486 -3.11101e-06
-0.000756486 0.000648428 -7.87891e-07
-3.11101e-06 -7.87891e-07 0.000230649
0.002365 -0.00085498 -2.96585e-06
-0.00085498 0.000661206 4.16952e-08
-2.96585e-06 4.16952e-08 0.000190889
0.00249946 -0.000877633 7.05711e-06
-0.000877633 0.000739624 -3.70362e-06
7.05711e-06 -3.70362e-06 0.000234282
0.00191336 -0.000562572 7.16807e-06
-0.000562572 0.00066472 5.13165e-07
7.16807e-06 5.13165e-07 0.000299405
0.00139605 -0.000594673 2.39376e-06
-0.000594673 0.000310287 -2.92684e-07
2.39376e-06 -2.92684e-07 -7.6532e-05
0.00127543 -0.00059788 2.14355e-06
-0.00059788 0.000203652 1.87244e-06
2.14355e-06 1.87244e-06 -0.000195216
0.00136877 -0.000348244 -2.22886e-07
-0.000348244 0.000455063 -4.6215e-07
-2.22886e-07 -4.6215e-07 0.000187663
0.00120912 -0.000378712 9.16834e-07
-0.000378712 0.000303811 -4.35312e-07
9.16834e-07 -4.35312e-07 8.81204e-06
0.00138296 -0.000460858 -6.63804e-06
-0.000460858 0.000370454 -4.60971e-08
-6.63804e-06 -4.60971e-08 3.04168e-05
-0.000323653 -9.26992e-05 -2.1811e-06
-9.26992e-05 -0.000487232 1.58712e-06
-2.1811e-06 1.58712e-06 -0.000698501
0.000717887 -0.000225556 3.66981e-07
-0.000225556 0.000181058 -3.66583e-07
3.66981e-07 -3.66583e-07 -9.81603e-05
0.00120391 -0.000291272 -4.8015e-06
-0.000291272 0.0004151 1.87229e-06
-4.8015e-06 1.87229e-06 0.000161361
0.00177483 2.68041e-05 -4.48976e-05
2.68041e-05 0.000807724 8.80149e-06
-4.48976e-05 8.80149e-06 0.000758731
0.000716606 -0.000107748 1.62851e-07
-0.000107748 0.000141915 -4.99203e-07
1.62851e-07 -4.99203e-07 -1.22229e-05
0.00136199 -0.000163698 -1.41347e-06
-0.000163698 0.000608913 3.33069e-06
-1.41347e-06 3.33069e-06 0.000357555
0.000716817 3.56555e-05 -4.98479e-05
3.56555e-05 0.000139506 6.09416e-06
-4.98479e-05 6.09416e-06 0.000129264
0.00115916 1.77789e-05 -1.65611e-05
1.77789e-05 0.000415014 -5.8546e-07
-1.65611e-05 -5.8546e-07 0.000369939
0.000797445 -7.5485e-05 2.19712e-06
-7.5485e-05 0.000188455 -7.08679e-06
2.19712e-06 -7.08679e-06 6.83462e-05
0.000595259 9.09385e-06 2.03254e-06
9.09385e-06 5.63809e-05 -9.62402e-06
2.03254e-06 -9.62402e-06 1.65949e-05
0.00295596 0.000123083 7.99831e-06
0.000123083 0.00155024 7.25999e-07
7.99831e-06 7.25999e-07 0.00154861
0.00273302 0.00010038 3.5223e-05
0.00010038 0.00140103 -4.63969e-06
3.5223e-05 -4.63969e-06 0.00140499
0.000953769 0.000141809 1.10264e-05
0.000141809 0.000377497 -1.43968e-06
1.10264e-05 -1.43968e-06 0.000156052
0.00131588 0.000167912 4.57136e-06
0.000167912 0.000600308 -1.86473e-06
4.57136e-06 -1.86473e-06 0.000397475
-6.8743e-06 5.512e-05 4.42459e-07
5.512e-05 -0.000230253 6.13397e-07
4.42459e-07 6.13397e-07 -0.000406873
0.000661638 4.18517e-05 3.10773e-06
4.18517e-05 0.000112838 -4.59712e-06
3.10773e-06 -4.59712e-06 1.07636e-05
0.000790334 0.000111748 6.88141e-07
0.000111748 0.00024067 1.18825e-07
6.88141e-07 1.18825e-07 8.34874e-05
0.000465916 9.97596e-06 -1.74622e-06
9.97596e-06 -3.23617e-05 -7.80766e-06
-1.74622e-06 -7.80766e-06 -6.21945e-05
0.000546776 4.35326e-05 -1.03111e-07
4.35326e-05 4.27683e-05 -4.01103e-07
-1.03111e-07 -4.01103e-07 -4.73382e-05
0.000713812 6.62142e-05 -3.40236e-06
6.62142e-05 0.000199183 -4.91489e-07
-3.40236e-06 -4.91489e-07 4.89637e-05
0.00255155 -6.85666e-05 -3.48197e-05
-6.85666e-05 0.00127799 -4.90655e-06
-3.48197e-05 -4.90655e-06 0.0012886
0.000453382 3.09472e-06 -6.14734e-07
3.09472e-06 -4.47531e-05 -1.40815e-07
-6.14734e-07 -1.40815e-07 -6.88702e-05
0.000550689 5.47341e-05 -8.12361e-07
5.47341e-05 4.64212e-05 2.46141e-06
-8.12361e-07 2.46141e-06 -3.42465e-05
0.0023359 -5.05492e-05 -5.99937e-06
-5.05492e-05 0.00113837 3.56814e-07
-5.99937e-06 3.56814e-07 0.00115222
0.00043799 -1.06565e-05 -4.02711e-06
-1.06565e-05 -5.70793e-05 4.81987e-06
-4.02711e-06 4.81987e-06 -7.51495e-05
0.00219846 -3.21819e-05 2.11666e-05
-3.21819e-05 0.00105017 4.65111e-06
2.11666e-05 4.65111e-06 0.00106666
0.00648862 0.000621575 0.000317695
0.000621575 0.003698 6.9293e-05
0.000317695 6.9293e-05 0.00147738
-0.00195237 0.000115103 -2.58722e-06
0.000115103 0.00018327 -6.95893e-06
-2.58722e-06 -6.95893e-06 -0.000372437
0.000628584 8.88611e-05 -1.35907e-05
8.88611e-05 0.000332305 -7.92422e-06
-1.35907e-05 -7.92422e-06 8.18406e-05
-0.000469612 0.00010173 -7.8718e-06
0.00010173 -0.000618755 2.71911e-06
-7.8718e-06 2.71911e-06 -0.000769574
0.000364344 6.09172e-05 -6.19908e-06
6.09172e-05 -3.09716e-05 -3.48301e-06
-6.19908e-06 -3.48301e-06 -0.000185284
-0.00013086 5.57273e-05 -5.9699e-07
5.57273e-05 -0.000361723 -3.72179e-06
-5.9699e-07 -3.72179e-06 -0.000515243
0.00122554 7.28539e-05 1.45646e-06
7.28539e-05 0.000482308 -2.04331e-07
1.45646e-06 -2.04331e-07 0.000327619
0.000118778 9.19752e-05 -2.5676e-06
9.19752e-05 -0.000228986 -2.54157e-06
-2.5676e-06 -2.54157e-06 -0.000376723
0.00209396 0.000295707 -3.70564e-06
0.000295707 0.00105276 -3.92636e-06
-3.70564e-06 -3.92636e-06 0.000850741
0.0010098 0.00024695 -7.16421e-06
0.00024695 0.000338296 -1.41783e-05
-7.16421e-06 -1.41783e-05 3.62863e-05
-0.00107084 9.40789e-05 4.78981e-07
9.40789e-05 -0.000651531 9.37821e-07
4.78981e-07 9.37821e-07 -0.000983316
0.000735276 0.000144014 -5.92859e-06
0.000144014 0.000197953 -4.24291e-06
-5.92859e-06 -4.24291e-06 5.88466e-05
0.000110834 5.56369e-05 -8.8109e-06
5.56369e-05 -0.000236784 -8.51076e-06
-8.8109e-06 -8.51076e-06 -0.000329097
-4.05843e-05 4.48588e-05 4.72669e-08
4.48588e-05 -0.000151526 1.17471e-06
4.72669e-08 1.17471e-06 -0.000354522
0.000927539 0.000287404 1.63372e-05
0.000287404 0.000596038 -1.93171e-06
1.63372e-05 -1.93171e-06 0.000214384
0.00317357 -0.00295687 0.000129502
-0.00295687 0.0057062 0.000252181
0.000129502 0.000252181 0.000351156
0.00615958 0.00127039 0.000130228
0.00127039 0.00316464 0.000168172
0.000130228 0.000168172 -0.00189827
0.00298653 0.000472345 -3.43249e-05
0.000472345 0.000576859 -7.83684e-05
-3.43249e-05 -7.83684e-05 -0.00120046
0.0237232 -0.00511461 -0.000713109
-0.00511461 0.00635907 -0.00036692
-0.000713109 -0.00036692 0.00425666
0.00581852 -0.00171015 0.000269756
-0.00171015 0.00372462 0.000484349
0.000269756 0.000484349 0.000265695
0.00364684 -0.0015785 -0.000242096
-0.0015785 0.00503196 9.68421e-05
-0.000242096 9.68421e-05 -0.00206486
-0.0010775 -0.000508046 0.000130402
-0.000508046 0.00101963 1.54804e-05
0.000130402 1.54804e-05 8.84755e-05
-0.000432386 -0.000151754 9.09379e-05
-0.000151754 0.000980163 5.41984e-05
9.09379e-05 5.41984e-05 0.000304691
0.0138852 -0.00835836 0.000447756
-0.00835836 0.00645854 0.000421657
0.000447756 0.000421657 0.00379534
0.00163702 0.00144316 -9.46512e-05
0.00144316 0.00404436 -8.20476e-05
-9.46512e-05 -8.20476e-05 -0.00234716
0.00791493 -0.00364963 -0.000128187
-0.00364963 0.00352976 0.000102258
-0.000128187 0.000102258 -0.00133244
0.000537982 0.000694966 -1.66435e-05
0.000694966 0.00108425 6.949e-05
-1.66435e-05 6.949e-05 0.000745858
0.0117213 0.00382883 -0.000109015
0.00382883 0.0039806 5.44852e-06
-0.000109015 5.44852e-06 0.000231774
0.0142705 -0.00648585 -0.000806978
-0.00648585 0.00432323 -0.000505174
-0.000806978 -0.000505174 0.000487052
-0.000203131 0.000453145 1.72043e-06
0.000453145 -0.000510177 -5.02587e-06
1.72043e-06 -5.02587e-06 -0.000653454
0.000487813 0.000162769 7.91139e-06
0.000162769 0.000231724 3.78517e-06
7.91139e-06 3.78517e-06 7.08734e-07
3.43779e-05 5.96607e-05 -8.94077e-06
5.96607e-05 -7.65256e-06 -5.13833e-06
-8.94077e-06 -5.13833e-06 -0.000258157
-0.00399147 -0.000358828 -0.000124639
-0.000358828 -0.000318762 -6.64486e-05
-0.000124639 -6.64486e-05 -0.00209298
-0.000780006 0.000247868 1.84852e-05
0.000247868 -0.000152264 -2.14009e-05
1.84852e-05 -2.14009e-05 -0.000669783
0.00157699 0.000194767 -4.98667e-06
0.000194767 0.00099587 1.23233e-05
-4.98667e-06 1.23233e-05 0.000747894
0.00111331 0.000637309 1.45543e-05
0.000637309 0.00057961 3.38499e-06
1.45543e-05 3.38499e-06 0.000187938
-0.00041484 0.000495042 4.13472e-05
0.000495042 0.000648038 -2.97285e-05
4.13472e-05 -2.97285e-05 -0.000539484
0.000682471 0.00125215 6.18642e-05
0.00125215 -3.44249e-05 7.16856e-06
6.18642e-05 7.16856e-06 -0.000838362
-0.00584965 0.00109833 0.000342959
0.00109833 0.00535398 6.7054e-06
0.000342959 6.7054e-06 -0.00130029
0.00228011 -0.000144369 -8.54344e-06
-0.000144369 0.00196425 6.37485e-05
-8.54344e-06 6.37485e-05 -0.000778875
-0.00244066 -5.12322e-05 -1.18927e-05
-5.12322e-05 0.000750544 5.00314e-05
-1.18927e-05 5.00314e-05 -5.84246e-05
-0.000464804 -0.000269162 -6.40825e-05
-0.000269162 0.000682714 1.61804e-05
-6.40825e-05 1.61804e-05 -0.000407401
-0.00151144 -0.000403757 -5.96468e-05
-0.000403757 -0.000425546 4.7918e-05
-5.96468e-05 4.7918e-05 -0.000185395
-0.000209993 -0.00042188 -0.000181772
-0.00042188 0.000743467 0.00011328
-0.000181772 0.00011328 -0.00314493
9.62253e-05 -0.00370958 0.000264071
-0.00370958 0.00210462 -8.69394e-05
0.000264071 -8.69394e-05 -0.00351715
0.0089133 0.00499061 0.000669401
0.00499061 0.000341494 -0.000436938
0.000669401 -0.000436938 -0.0028822
0.00993457 0.00320437 -0.000393491
0.00320437 0.00737758 0.000312694
-0.000393491 0.000312694 0.0032992
0.00122367 -0.000775302 -1.06625e-05
-0.000775302 0.00123597 -1.93296e-06
-1.06625e-05 -1.93296e-06 0.000506789
0.00181462 0.000527314 0.00012071
0.000527314 0.00716425 -1.96461e-05
0.00012071 -1.96461e-05 0.00324353
0.000562668 0.00387652 9.48422e-06
0.00387652 0.000653815 6.81044e-05
9.48422e-06 6.81044e-05 -0.00280051
0.00245696 -0.00249023 8.56044e-05
-0.00249023 0.000709182 -4.04947e-05
8.56044e-05 -4.04947e-05 0.000899185
0.0169116 -0.00375248 1.87056e-05
-0.00375248 0.00343964 -3.39066e-06
1.87056e-05 -3.39066e-06 0.0015403
0.00310243 -0.00154274 7.00267e-06
-0.00154274 0.00123358 1.98405e-05
7.00267e-06 1.98405e-05 0.000902952
-0.00842165 0.0011739 -0.000559872
0.0011739 -0.00263688 8.67302e-05
-0.000559872 8.67302e-05 -0.00527984
0.0159333 -0.00241236 -0.000225911
-0.00241236 0.00220859 6.90175e-05
-0.000225911 6.90175e-05 0.000797479
0.00385673 -0.00263398 0.000104804
-0.00263398 -9.6388e-05 -7.23965e-05
0.000104804 -7.23965e-05 0.000377769
0.000698414 -0.000501301 -1.48839e-05
-0.000501301 0.000507801 1.69608e-05
-1.48839e-05 1.69608e-05 0.000106977
0.00100223 -0.000763226 -8.57319e-07
-0.000763226 0.000161036 -1.7242e-06
-8.57319e-07 -1.7242e-06 -8.05946e-05
0.00563342 -0.0010639 2.41842e-05
-0.0010639 0.00240091 -1.22002e-05
2.41842e-05 -1.22002e-05 0.0020217
-0.00078645 -0.000388412 -7.13655e-06
-0.000388412 -0.000722315 7.3443e-06
-7.13655e-06 7.3443e-06 -0.0010509
0.00137428 -0.000764439 -3.73656e-06
-0.000764439 0.000111674 -4.75888e-07
-3.73656e-06 -4.75888e-07 -0.000274232
0.0029793 -0.00100025 5.0349e-06
-0.00100025 0.000738393 -7.64838e-06
5.0349e-06 -7.64838e-06 0.000343894
0.00155815 -0.000710648 -1.21294e-05
-0.000710648 0.000305165 8.25893e-06
-1.21294e-05 8.25893e-06 -0.000258953
0.0019173 -0.00088155 -1.20392e-06
-0.00088155 0.000294974 1.01551e-06
-1.20392e-06 1.01551e-06 -0.000177841
0.00176532 -0.000714829 -5.4155e-07
-0.000714829 -2.49729e-05 -6.83097e-06
-5.4155e-07 -6.83097e-06 -0.000318233
0.00153079 -0.00077144 -2.46376e-06
-0.00077144 0.000208948 2.9679e-06
-2.46376e-06 2.9679e-06 -0.000302205
0.00197246 -0.00070364 -1.17958e-06
-0.00070364 0.000262013 1.46724e-06
-1.17958e-06 1.46724e-06 -0.000102974
0.00200812 -0.000532845 -1.1586e-06
-0.000532845 9.30388e-05 -4.38283e-06
-1.1586e-06 -4.38283e-06 -0.000117603
0.00186474 -0.000439883 -5.15083e-06
-0.000439883 6.62121e-05 -9.08736e-07
-5.15083e-06 -9.08736e-07 -0.000107501
0.00169822 -0.000522715 -6.09225e-06
-0.000522715 -2.32628e-06 -2.02753e-06
-6.09225e-06 -2.02753e-06 -0.000260712
0.00180952 -0.000507614 1.54477e-06
-0.000507614 4.9839e-05 2.74003e-06
1.54477e-06 2.74003e-06 -0.000193314
0.00166864 -0.000625593 -5.99057e-06
-0.000625593 0.00012139 -2.55008e-06
-5.99057e-06 -2.55008e-06 -0.000223884
0.00205687 -0.000731022 2.78354e-06
-0.000731022 0.000312324 -3.32892e-07
2.78354e-06 -3.32892e-07 -6.83907e-05
0.00214456 -0.000727327 6.20046e-06
-0.000727327 0.000378379 1.43679e-06
6.20046e-06 1.43679e-06 -3.93494e-06
0.00164066 -0.000619407 -1.26436e-06
-0.000619407 0.000327452 -2.24244e-06
-1.26436e-06 -2.24244e-06 -5.63143e-05
0.00208332 -0.000743267 1.99096e-06
-0.000743267 0.000544212 -6.89237e-07
1.99096e-06 -6.89237e-07 0.000126373
0.00227259 -0.000842041 1.4054e-06
-0.000842041 0.000618467 -1.63005e-06
1.4054e-06 -1.63005e-06 0.00014504
0.00127577 -0.000368397 -6.03646e-06
-0.000368397 0.000293977 2.10056e-06
-6.03646e-06 2.10056e-06 1.82398e-05
0.00149918 -0.000513001 1.98753e-06
-0.000513001 0.000399926 1.14489e-06
1.98753e-06 1.14489e-06 4.83695e-05
0.000974556 -0.00053613 -5.3392e-06
-0.00053613 7.05648e-05 1.95781e-06
-5.3392e-06 1.95781e-06 -0.000299702
0.000499241 -0.000205906 -7.10649e-06
-0.000205906 -4.90743e-05 -9.33544e-07
-7.10649e-06 -9.33544e-07 -0.000267659
0.00107362 -0.00033566 4.49883e-07
-0.00033566 0.000262486 -6.43728e-07
4.49883e-07 -6.43728e-07 1.72232e-06
0.000398409 -0.000289364 -9.37885e-06
-0.000289364 -0.00018078 2.62854e-07
-9.37885e-06 2.62854e-07 -0.00045699
0.00032671 -4.6559e-05 -1.07304e-05
-4.6559e-05 -0.00011728 1.33543e-05
-1.07304e-05 1.33543e-05 -0.000188676
0.00084293 -0.000167937 2.66381e-06
-0.000167937 0.000236247 1.12674e-06
2.66381e-06 1.12674e-06 1.68778e-05
0.000714907 -0.000242136 1.36028e-07
-0.000242136 0.000181569 2.18092e-06
1.36028e-07 2.18092e-06 -9.48903e-05
0.00378092 0.000225882 3.37552e-06
0.000225882 0.00210658 4.96873e-06
3.37552e-06 4.96873e-06 0.00207285
0.000481069 -2.19448e-05 2.74877e-07
-2.19448e-05 -1.52385e-05 -3.85819e-07
2.74877e-07 -3.85819e-07 -7.3665e-05
0.00120758 -0.000108316 -2.96053e-07
-0.000108316 0.000451129 -6.43324e-06
-2.96053e-07 -6.43324e-06 0.000287543
0.00328421 0.000141443 8.68681e-06
0.000141443 0.00176421 6.98727e-07
8.68681e-06 6.98727e-07 0.00175792
0.000519098 -3.6418e-06 4.06863e-06
-3.6418e-06 1.02339e-05 -1.12319e-05
4.06863e-06 -1.12319e-05 -3.89515e-05
0.00297905 0.000117492 5.08613e-05
0.000117492 0.00156356 -4.85327e-06
5.08613e-05 -4.85327e-06 0.00156335
0.00219166 0.000324177 7.17959e-06
0.000324177 0.00106488 3.47302e-06
7.17959e-06 3.47302e-06 0.000832555
0.000802936 0.000155412 5.9373e-07
0.000155412 0.000289831 -4.09083e-06
5.9373e-07 -4.09083e-06 6.40933e-05
0.00127079 0.000168626 9.33949e-07
0.000168626 0.000587879 -6.84868e-06
9.33949e-07 -6.84868e-06 0.000349362
0.000671458 5.76281e-05 2.7739e-06
5.76281e-05 0.000121221 -5.52143e-06
2.7739e-06 -5.52143e-06 3.18221e-07
0.000762875 0.000103161 2.62599e-07
0.000103161 0.000242414 1.47484e-06
2.62599e-07 1.47484e-06 5.33305e-05
0.000343303 0.000113458 -1.14509e-06
0.000113458 8.43682e-06 5.01102e-06
-1.14509e-06 5.01102e-06 -0.000185957
0.000511958 -5.86811e-07 -1.75559e-06
-5.86811e-07 3.36083e-06 -9.46753e-06
-1.75559e-06 -9.46753e-06 -3.36817e-05
0.000583161 4.27821e-05 -5.11052e-08
4.27821e-05 6.82152e-05 -3.60897e-07
-5.11052e-08 -3.60897e-07 -3.55182e-05
0.000375508 8.44396e-05 -4.94323e-06
8.44396e-05 -3.62211e-05 -2.7622e-07
-4.94323e-06 -2.7622e-07 -0.000176155
0.00271038 -8.58345e-05 -4.3421e-05
-8.58345e-05 0.0013835 -4.70178e-06
-4.3421e-05 -4.70178e-06 0.00139112
0.000423334 -1.84319e-05 2.75609e-06
-1.84319e-05 -5.7151e-05 -1.2627e-07
2.75609e-06 -1.2627e-07 -8.7696e-05
0.000500556 4.69449e-05 -2.14535e-06
4.69449e-05 1.58526e-05 3.21803e-06
-2.14535e-06 3.21803e-06 -7.47198e-05
0.00252073 -6.87368e-05 -6.56528e-06
-6.87368e-05 0.0012584 4.85132e-07
-6.56528e-06 4.85132e-07 0.00126893
0.000438495 -2.05593e-06 -2.02527e-06
-2.05593e-06 -5.40383e-05 6.00684e-06
-2.02527e-06 6.00684e-06 -7.76764e-05
0.00230034 -4.97529e-05 2.34977e-05
-4.97529e-05 0.00111582 4.6689e-06
2.34977e-05 4.6689e-06 0.00112996
-0.00963201 0.00105618 -0.000103014
0.00105618 0.00374525 8.07673e-05
-0.000103014 8.07673e-05 -0.00249974
0.00610145 0.000439512 2.86941e-06
0.000439512 0.0035604 -1.83345e-06
2.86941e-06 -1.83345e-06 0.00144561
-0.00157415 5.09819e-05 4.1873e-05
5.09819e-05 0.000206375 1.93445e-05
4.1873e-05 1.93445e-05 -0.000582839
0.000215184 0.0001344 -7.01115e-07
0.0001344 -0.000154988 2.17083e-06
-7.01115e-07 2.17083e-06 -0.000343583
0.00337675 0.000658803 1.38013e-05
0.000658803 0.00172379 1.07044e-05
1.38013e-05 1.07044e-05 0.00137182
0.00134116 0.000191824 -8.83803e-06
0.000191824 0.000634775 1.95579e-06
-8.83803e-06 1.95579e-06 0.000329588
0.00061268 7.2665e-05 -7.37788e-06
7.2665e-05 0.000101866 -1.40138e-05
-7.37788e-06 -1.40138e-05 -5.59989e-05
0.00261564 0.000283404 3.60653e-06
0.000283404 0.00128691 -1.85592e-06
3.60653e-06 -1.85592e-06 0.00111874
-0.000603656 3.73237e-05 -9.78133e-06
3.73237e-05 -0.000596779 9.18819e-06
-9.78133e-06 9.18819e-06 -0.000743692
0.000121735 0.000101938 -1.23211e-06
0.000101938 -2.29121e-05 5.64081e-06
-1.23211e-06 5.64081e-06 -0.000298642
0.000604857 0.000157823 -2.95269e-06
0.000157823 0.000145424 -5.61857e-06
-2.95269e-06 -5.61857e-06 -0.000158517
0.00185288 0.000498426 7.62474e-06
0.000498426 0.000918827 -2.71973e-05
7.62474e-06 -2.71973e-05 0.000482991
0.000135644 0.000459752 -1.50138e-05
0.000459752 -0.000249684 4.89972e-05
-1.50138e-05 4.89972e-05 -0.000406196
0.00149823 4.23873e-05 -1.31373e-05
4.23873e-05 0.000754177 1.46562e-05
-1.31373e-05 1.46562e-05 0.000563198
0.00143724 0.000257499 5.07111e-06
0.000257499 0.000905699 -1.05438e-05
5.07111e-06 -1.05438e-05 0.000544379
-0.000435279 -0.00230333 -0.00149834
-0.00230333 0.00138967 -0.00025669
-0.00149834 -0.00025669 -0.00231574
-0.00252852 -0.00224564 0.000508286
-0.00224564 0.00559026 0.000196635
0.000508286 0.000196635 9.92023e-05
0.00690182 0.00160393 -0.000534177
0.00160393 0.00296185 -0.00018482
-0.000534177 -0.00018482 -0.00248676
0.00378883 -0.00881725 0.00235822
-0.00881725 0.00432305 0.00148369
0.00235822 0.00148369 0.00107536
0.0248251 -0.00378658 6.44216e-05
-0.00378658 0.0084536 0.000352659
6.44216e-05 0.000352659 0.00510222
-0.00299959 0.001439 -1.49685e-05
0.001439 0.00224618 -0.000186301
-1.49685e-05 -0.000186301 -0.00337979
-0.00261525 0.00014878 -0.000388366
0.00014878 0.000680033 -6.5736e-05
-0.000388366 -6.5736e-05 -0.000976164
0.00110885 0.000723595 7.54221e-05
0.000723595 0.00159056 5.15872e-05
7.54221e-05 5.15872e-05 0.00126606
0.0193665 -0.00480956 -0.000624071
-0.00480956 0.00794795 6.0648e-06
-0.000624071 6.0648e-06 0.00423152
-0.00255718 0.002856 -0.000111109
0.002856 0.000322229 -4.60669e-05
-0.000111109 -4.60669e-05 -0.00435752
0.00318475 0.00208886 1.40001e-05
0.00208886 0.000981428 -7.10573e-05
1.40001e-05 -7.10573e-05 0.00162041
0.00250601 0.00449561 -0.000388918
0.00449561 -0.00208444 -0.000107639
-0.000388918 -0.000107639 -0.00475646
0.00327986 0.00115649 2.40933e-05
0.00115649 0.00122162 -1.40041e-05
2.40933e-05 -1.40041e-05 0.000874017
0.00100842 0.00056007 -5.52148e-06
0.00056007 0.000281434 -1.50606e-06
-5.52148e-06 -1.50606e-06 0.000117099
-0.000200581 0.000151417 -6.63661e-06
0.000151417 -0.000176938 7.17407e-07
-6.63661e-06 7.17407e-07 -0.000413415
-0.00162903 0.000347918 -7.88838e-05
0.000347918 2.89375e-05 -7.53132e-05
-7.88838e-05 -7.53132e-05 -0.001
0.00216897 0.000768903 -3.33579e-05
0.000768903 0.00109337 -2.01972e-05
-3.33579e-05 -2.01972e-05 0.000686293
0.001896 0.00140493 1.10143e-05
0.00140493 0.000499996 -8.61505e-06
1.10143e-05 -8.61505e-06 -0.000295437
-0.000711179 0.00152058 0.000100411
0.00152058 -0.00167416 4.53809e-05
0.000100411 4.53809e-05 -0.00197825
-0.00618425 -0.000448811 -0.000576863
-0.000448811 -0.00439666 4.49454e-05
-0.000576863 4.49454e-05 -0.00406621
-0.00837076 0.000488757 0.00037661
0.000488757 0.00553936 1.64406e-05
0.00037661 1.64406e-05 -0.000614892
0.00292821 -9.81262e-05 -0.000120902
-9.81262e-05 0.00205689 3.36793e-05
-0.000120902 3.36793e-05 0.000286564
0.00228 -0.000937047 -5.02656e-05
-0.000937047 0.00137415 -4.68885e-05
-5.02656e-05 -4.68885e-05 0.000670434
-0.000572273 -0.00189317 3.3747e-05
-0.00189317 -0.000668615 4.5377e-05
3.3747e-05 4.5377e-05 -0.000421523
0.000647605 0.000604997 5.32494e-05
0.000604997 0.00686979 4.28296e-05
5.32494e-05 4.28296e-05 0.00283404
0.00232321 -0.00319386 0.000459187
-0.00319386 -0.00164184 -0.000117438
0.000459187 -0.000117438 -0.00391714
0.0215736 0.00337988 0.000823393
0.00337988 0.00949263 -9.83804e-05
0.000823393 -9.83804e-05 0.00659288
0.00159391 -0.00160092 -1.70886e-05
-0.00160092 0.000339657 4.75654e-06
-1.70886e-05 4.75654e-06 -0.000240223
0.00194041 0.00142132 0.000254164
0.00142132 0.000637599 -7.73376e-05
0.000254164 -7.73376e-05 -0.00145666
0.00768323 -0.00211049 -0.000161129
-0.00211049 -0.00230683 0.000140344
-0.000161129 0.000140344 -0.00448394
0.00388581 -0.00263975 -1.14232e-05
-0.00263975 -0.000366957 2.66621e-05
-1.14232e-05 2.66621e-05 0.000323432
0.00248083 -0.0013584 7.08537e-05
-0.0013584 0.000194451 -1.89258e-05
7.08537e-05 -1.89258e-05 5.68797e-05
0.0165031 -0.000830914 -6.61022e-05
-0.000830914 0.00326615 4.56068e-05
-6.61022e-05 4.56068e-05 0.00203726
0.00244497 -0.00172059 0.000126422
-0.00172059 -0.00310312 -9.17244e-05
0.000126422 -9.17244e-05 -0.00179013
-0.000718392 -0.000627653 -2.86651e-05
-0.000627653 -0.000859927 3.03684e-05
-2.86651e-05 3.03684e-05 -0.000968652
0.000171971 -0.000560574 -4.00203e-05
-0.000560574 -0.000589062 3.5659e-06
-4.00203e-05 3.5659e-06 -0.000728393
0.00610789 -0.00112064 6.26621e-05
-0.00112064 0.00230263 -2.35987e-05
6.26621e-05 -2.35987e-05 0.00208603
0.000374059 -0.00063838 -1.47517e-05
-0.00063838 -0.000377995 -9.32225e-07
-1.47517e-05 -9.32225e-07 -0.000766764
0.00212357 -0.000896253 -2.30069e-06
-0.000896253 0.000297153 -3.24937e-06
-2.30069e-06 -3.24937e-06 -7.07512e-05
0.00271838 -0.00081815 1.32276e-06
-0.00081815 0.000316256 -4.81529e-06
1.32276e-06 -4.81529e-06 0.000110229
0.00216045 -0.000898536 -3.66093e-08
-0.000898536 0.000427433 9.33809e-06
-3.66093e-08 9.33809e-06 -5.42968e-05
0.00215078 -0.00074745 -1.00591e-06
-0.00074745 0.000188257 9.20774e-07
-1.00591e-06 9.20774e-07 -0.000109374
0.00212333 -0.000556446 2.2015e-07
-0.000556446 3.45262e-05 -1.57281e-06
2.2015e-07 -1.57281e-06 -9.68946e-05
0.00145922 -0.000636525 5.84664e-06
-0.000636525 -1.5821e-05 7.76012e-06
5.84664e-06 7.76012e-06 -0.000365609
0.00198374 -0.00052358 -4.19085e-07
-0.00052358 8.15309e-05 2.27711e-06
-4.19085e-07 2.27711e-06 -0.000123293
0.00205209 -0.000488801 -2.5258e-06
-0.000488801 8.52506e-05 1.23465e-06
-2.5258e-06 1.23465e-06 -5.56718e-05
0.00199871 -0.000457647 -4.62033e-06
-0.000457647 0.000144673 9.94156e-07
-4.62033e-06 9.94156e-07 -9.76492e-06
0.00198991 -0.000449039 -3.02008e-06
-0.000449039 0.00013651 3.30943e-06
-3.02008e-06 3.30943e-06 -3.41138e-05
0.00207226 -0.000462362 -2.72445e-06
-0.000462362 0.000232685 -4.01303e-06
-2.72445e-06 -4.01303e-06 4.59184e-05
0.0019988 -0.000551679 -7.10096e-06
-0.000551679 0.000206421 -2.72979e-06
-7.10096e-06 -2.72979e-06 -6.01922e-05
0.00192516 -0.00053948 1.83037e-06
-0.00053948 0.000142797 8.90278e-07
1.83037e-06 8.90278e-07 -0.000116325
0.00188983 -0.000508486 7.08608e-06
-0.000508486 9.85877e-05 7.59042e-06
7.08608e-06 7.59042e-06 -0.000141135
0.00189726 -0.000616483 -7.77265e-06
-0.000616483 0.000324369 -2.28941e-06
-7.77265e-06 -2.28941e-06 -2.15333e-05
0.00168747 -0.000634311 -5.0485e-07
-0.000634311 0.000119399 1.06522e-07
-5.0485e-07 1.06522e-07 -0.000229252
0.00219611 -0.000736119 8.34575e-06
-0.000736119 0.000412573 1.07906e-06
8.34575e-06 1.07906e-06 3.59426e-05
0.00142459 -0.000453709 -1.03053e-05
-0.000453709 0.000287626 3.49645e-06
-1.03053e-05 3.49645e-06 -2.80851e-05
0.00173816 -0.000627559 -7.15865e-07
-0.000627559 0.000390088 7.35892e-07
-7.15865e-07 7.35892e-07 5.66224e-06
0.00197289 -0.000738074 2.69204e-06
-0.000738074 0.000473392 7.02805e-07
2.69204e-06 7.02805e-07 5.39896e-05
0.000701039 -0.000217601 -8.27559e-06
-0.000217601 2.59306e-05 4.26178e-06
-8.27559e-06 4.26178e-06 -0.000185021
0.00119564 -0.000368119 1.04945e-06
-0.000368119 0.000236036 -1.84596e-07
1.04945e-06 -1.84596e-07 -4.24654e-05
0.00101748 -0.000458014 -1.69263e-06
-0.000458014 8.98021e-05 1.74284e-06
-1.69263e-06 1.74284e-06 -0.000247392
0.00046114 -0.000123799 -2.18913e-05
-0.000123799 -6.52423e-05 1.52166e-05
-2.18913e-05 1.52166e-05 -0.000157581
0.000652951 -0.000198568 -1.79396e-06
-0.000198568 6.89984e-05 1.09112e-06
-1.79396e-06 1.09112e-06 -0.000164008
0.000752929 -0.000349804 1.52165e-06
-0.000349804 6.0637e-05 1.71802e-07
1.52165e-06 1.71802e-07 -0.000205855
0.00423977 0.000206705 -8.62029e-05
0.000206705 0.00239533 6.52372e-06
-8.62029e-05 6.52372e-06 0.00237024
0.000484179 -6.40592e-05 1.28813e-06
-6.40592e-05 -2.3648e-05 -4.05653e-07
1.28813e-06 -4.05653e-07 -0.000101459
0.0016818 -0.000246745 5.23028e-06
-0.000246745 0.000752115 -2.19623e-06
5.23028e-06 -2.19623e-06 0.00052499
0.00246875 0.000129629 5.03061e-05
0.000129629 0.00126384 1.36947e-06
5.03061e-05 1.36947e-06 0.00124157
0.000621322 -3.08635e-05 9.7705e-06
-3.08635e-05 6.8636e-05 -1.28318e-05
9.7705e-06 -1.28318e-05 7.49097e-06
0.00354566 0.000134699 7.98641e-05
0.000134699 0.00192859 -4.77938e-06
7.98641e-05 -4.77938e-06 0.00192425
0.00173828 0.000334554 4.36356e-06
0.000334554 0.000672576 -2.90665e-06
4.36356e-06 -2.90665e-06 0.000459223
0.0004035 0.000135872 -3.47651e-06
0.000135872 -6.78205e-05 -7.65019e-08
-3.47651e-06 -7.65019e-08 -0.000259009
0.000484591 0.000157403 1.81117e-06
0.000157403 6.3742e-05 -7.93266e-06
1.81117e-06 -7.93266e-06 -0.00016408
0.000439418 0.000127336 -2.60167e-06
0.000127336 4.28411e-05 1.09788e-05
-2.60167e-06 1.09788e-05 -0.00016232
0.000592989 9.64597e-05 8.19859e-07
9.64597e-05 0.000137237 1.7939e-07
8.19859e-07 1.7939e-07 -7.51996e-05
0.000948558 0.000105619 7.83198e-07
0.000105619 0.000285587 -8.5472e-06
7.83198e-07 -8.5472e-06 0.000143424
0.000582966 2.85821e-05 -4.80535e-06
2.85821e-05 4.98087e-05 -1.17198e-05
-4.80535e-06 -1.17198e-05 3.67284e-06
0.00065932 5.50717e-05 4.35237e-07
5.50717e-05 0.000120026 -1.6917e-09
4.35237e-07 -1.6917e-09 -2.15624e-06
-4.18527e-05 3.71742e-05 -6.19668e-06
3.71742e-05 -0.000286411 1.47623e-06
-6.19668e-06 1.47623e-06 -0.000452706
0.00292042 -9.98594e-05 -6.01832e-05
-9.98594e-05 0.001523 -4.83263e-06
-6.01832e-05 -4.83263e-06 0.00152809
0.000424001 1.2939e-05 9.43026e-07
1.2939e-05 -5.00706e-05 -2.80647e-07
9.43026e-07 -2.80647e-07 -8.69482e-05
0.000531 4.47119e-05 -3.3208e-06
4.47119e-05 4.16452e-05 4.49895e-06
-3.3208e-06 4.49895e-06 -6.42459e-05
0.00269653 -8.67802e-05 -7.19286e-06
-8.67802e-05 0.00137498 5.85115e-07
-7.19286e-06 5.85115e-07 0.00138208
0.000404028 -9.94404e-06 3.78253e-07
-9.94404e-06 -6.84851e-05 7.36142e-06
3.78253e-07 7.36142e-06 -9.87321e-05
0.0025109 -6.84306e-05 2.96542e-05
-6.84306e-05 0.00125197 4.84748e-06
2.96542e-05 4.84748e-06 0.00126248
0.00110466 9.4884e-05 -0.000818416
9.4884e-05 0.00370047 -5.79795e-05
-0.000818416 -5.79795e-05 0.00160584
-0.00578738 0.000170932 3.66262e-05
0.000170932 0.00473143 -2.23117e-06
3.66262e-05 -2.23117e-06 -0.00173485
0.00577862 0.000204782 -0.000239189
0.000204782 0.00345056 -6.37062e-05
-0.000239189 -6.37062e-05 0.0014879
-0.000230403 4.13385e-05 2.52384e-06
4.13385e-05 -0.000428 -9.78652e-06
2.52384e-06 -9.78652e-06 -0.00061743
0.000494194 8.15311e-05 5.92895e-06
8.15311e-05 6.63924e-05 7.73443e-06
5.92895e-06 7.73443e-06 -0.000221392
0.00272104 0.000567693 -3.3455e-06
0.000567693 0.0013537 4.12454e-06
-3.3455e-06 4.12454e-06 0.00101785
0.00222703 0.000668215 1.5258e-05
0.000668215 0.000912453 6.82713e-06
1.5258e-05 6.82713e-06 0.0004705
0.000462875 0.000364088 5.89622e-06
0.000364088 0.000102186 2.02373e-06
5.89622e-06 2.02373e-06 -0.000265518
0.000829763 0.000148784 -6.81416e-06
0.000148784 0.000404781 8.71358e-06
-6.81416e-06 8.71358e-06 0.0001234
0.000911182 0.000165741 1.07616e-05
0.000165741 0.000363072 1.05196e-05
1.07616e-05 1.05196e-05 7.78222e-05
0.000604862 0.000410974 -5.35506e-06
0.000410974 0.00023521 -1.17051e-06
-5.35506e-06 -1.17051e-06 -0.000207808
-0.000412378 0.000516634 1.34536e-05
0.000516634 -0.000739672 -1.19061e-05
1.34536e-05 -1.19061e-05 -0.0010626
0.00244534 0.000810343 -1.00788e-05
0.000810343 0.000899914 2.5995e-05
-1.00788e-05 2.5995e-05 0.000674693
0.00143566 0.000860113 2.87633e-05
0.000860113 3.69826e-05 1.06731e-05
2.87633e-05 1.06731e-05 -0.000110798
0.00137982 0.000621423 -7.02903e-06
0.000621423 0.000501328 -3.39765e-06
-7.02903e-06 -3.39765e-06 0.00026657
0.00199613 0.000348339 -8.54945e-06
0.000348339 0.0011118 3.49446e-05
-8.54945e-06 3.49446e-05 0.000799346
0.0137831 0.00246757 -0.000120203
0.00246757 0.00176788 6.44705e-05
-0.000120203 6.44705e-05 0.000508186
0.00228806 -0.0019429 -0.000548517
-0.0019429 0.00371415 -0.000201278
-0.000548517 -0.000201278 0.000674847
-0.000164626 -0.00340482 0.000737687
-0.00340482 0.00613709 0.000202344
0.000737687 0.000202344 0.000560479
0.00680524 -0.00293609 0.000295244
-0.00293609 0.00305333 0.000321644
0.000295244 0.000321644 -0.000425919
0.0140975 0.00460816 -0.000109309
0.00460816 0.00465704 -4.75084e-05
-0.000109309 -4.75084e-05 0.000706735
-0.00304377 0.000230526 -5.50204e-05
0.000230526 -0.000214257 -5.88294e-05
-5.50204e-05 -5.88294e-05 -0.000596219
0.00218331 0.00184339 -5.15094e-05
0.00184339 0.000552771 -2.04719e-05
-5.15094e-05 -2.04719e-05 0.00127605
0.0173212 0.00439925 1.73847e-05
0.00439925 0.00393571 3.80705e-05
1.73847e-05 3.80705e-05 0.00155792
0.00642746 0.00348639 -7.56858e-05
0.00348639 -0.000110391 -0.000102624
-7.56858e-05 -0.000102624 0.000270616
0.00160161 0.00116796 1.1484e-05
0.00116796 0.000101551 -6.14903e-06
1.1484e-05 -6.14903e-06 -0.000143697
0.00157425 0.00090373 9.53307e-06
0.00090373 0.00042723 -3.73994e-06
9.53307e-06 -3.73994e-06 0.00012423
0.00208974 0.000620462 -2.49445e-05
0.000620462 0.000989209 1.4672e-06
-2.49445e-05 1.4672e-06 0.000811283
0.00268956 0.0015772 -6.87859e-05
0.0015772 0.000770622 -2.61055e-05
-6.87859e-05 -2.61055e-05 -4.6545e-06
0.00136917 0.00175413 7.19402e-05
0.00175413 -0.000808742 3.66961e-05
7.19402e-05 3.66961e-05 -0.00119946
0.00227687 -0.000310204 -0.000120309
-0.000310204 -0.00488802 5.66077e-05
-0.000120309 5.66077e-05 -0.00512527
0.000805724 -0.00162017 1.00742e-05
-0.00162017 0.0021272 1.88272e-06
1.00742e-05 1.88272e-06 0.00124162
-0.0114351 -0.000257764 0.000304798
-0.000257764 0.00595023 -2.40869e-05
0.000304798 -2.40869e-05 0.000372631
0.00043505 -0.00174615 -5.70072e-05
-0.00174615 -0.000542241 1.79805e-05
-5.70072e-05 1.79805e-05 -0.00132774
0.00544629 -0.00305704 2.76559e-05
-0.00305704 0.000348197 4.50167e-05
2.76559e-05 4.50167e-05 0.00059772
0.0023028 -3.06676e-05 0.000882425
-3.06676e-05 0.00388684 -0.000207493
0.000882425 -0.000207493 0.00199009
0.0138859 -0.00235427 -0.00027191
-0.00235427 0.00157487 0.000145057
-0.00027191 0.000145057 0.000506139
0.0017123 -0.00135348 -3.03304e-05
-0.00135348 -0.000128877 1.50728e-07
-3.03304e-05 1.50728e-07 -0.000416053
0.0114241 -9.99777e-05 -0.000191329
-9.99777e-05 -0.000838712 6.43139e-05
-0.000191329 6.43139e-05 -0.00169008
0.00714541 -0.00201928 0.00010153
-0.00201928 -0.000265193 1.22295e-05
0.00010153 1.22295e-05 0.000448069
0.00358181 -0.00116287 6.1862e-05
-0.00116287 0.000380935 -4.36764e-05
6.1862e-05 -4.36764e-05 0.000173244
0.00266329 -0.000768075 -1.27775e-05
-0.000768075 -0.00188078 9.62774e-06
-1.27775e-05 9.62774e-06 -0.000768596
-0.00570649 -3.36625e-05 1.21675e-05
-3.36625e-05 -0.00377393 1.02568e-05
1.21675e-05 1.02568e-05 -0.0037352
0.0015509 -0.000719193 -1.70756e-05
-0.000719193 -0.00020519 1.80347e-06
-1.70756e-05 1.80347e-06 -0.000224356
0.00360135 -0.000752274 3.56857e-05
-0.000752274 0.00068501 -1.42268e-05
3.56857e-05 -1.42268e-05 0.000737614
0.00109158 -0.000777732 -1.01814e-05
-0.000777732 -0.000238545 7.01329e-06
-1.01814e-05 7.01329e-06 -0.000578344
0.00216878 -0.000765588 -3.61387e-06
-0.000765588 2.66542e-05 3.16689e-06
-3.61387e-06 3.16689e-06 -0.00017384
0.00238644 -0.000621839 5.65053e-06
-0.000621839 -5.74041e-06 -1.52236e-06
5.65053e-06 -1.52236e-06 -3.87536e-05
0.00225786 -0.000748292 -4.10769e-06
-0.000748292 0.000255063 1.08143e-05
-4.10769e-06 1.08143e-05 -4.01596e-05
0.00210974 -0.000553043 4.10382e-07
-0.000553043 2.52564e-05 1.46955e-06
4.10382e-07 1.46955e-06 -0.000101584
0.00225162 -0.000545211 -5.27854e-07
-0.000545211 8.76402e-05 2.52166e-07
-5.27854e-07 2.52166e-07 1.71082e-05
0.0019263 -0.000511057 3.83126e-06
-0.000511057 5.16727e-05 6.70139e-06
3.83126e-06 6.70139e-06 -0.000146522
0.00203406 -0.00048849 -3.45125e-08
-0.00048849 7.13478e-05 1.32829e-06
-3.45125e-08 1.32829e-06 -6.70709e-05
0.00218005 -0.000522744 -2.41214e-06
-0.000522744 0.00014935 1.48893e-06
-2.41214e-06 1.48893e-06 1.86054e-05
0.00201741 -0.000465347 -4.21502e-06
-0.000465347 0.000148354 2.52641e-06
-4.21502e-06 2.52641e-06 -4.92389e-06
0.00215308 -0.0004668 -1.36996e-06
-0.0004668 0.000275439 -1.22343e-06
-1.36996e-06 -1.22343e-06 0.000113072
0.00210868 -0.000458041 3.69544e-06
-0.000458041 0.000204212 6.03316e-06
3.69544e-06 6.03316e-06 3.67189e-05
0.00205084 -0.000461278 6.24226e-07
-0.000461278 0.000217808 -6.95476e-07
6.24226e-07 -6.95476e-07 3.12502e-05
0.00194556 -0.000477673 -3.21548e-06
-0.000477673 0.000156239 -3.01248e-06
-3.21548e-06 -3.01248e-06 -5.12201e-05
0.00203498 -0.000532767 -5.10336e-06
-0.000532767 0.000302341 -3.88544e-06
-5.10336e-06 -3.88544e-06 2.65581e-05
0.00206434 -0.000559696 -4.26876e-07
-0.000559696 0.000249226 -1.754e-08
-4.26876e-07 -1.754e-08 -2.01412e-05
0.00215638 -0.000556284 8.57924e-06
-0.000556284 0.000291591 4.18151e-06
8.57924e-06 4.18151e-06 3.17609e-05
0.00154479 -0.000492236 -1.01794e-05
-0.000492236 0.000217243 2.03698e-06
-1.01794e-05 2.03698e-06 -0.000101963
0.00182268 -0.000606523 -1.68815e-06
-0.000606523 0.000281453 -2.1331e-07
-1.68815e-06 -2.1331e-07 -6.43826e-05
0.00170448 -0.000641934 6.27465e-06
-0.000641934 0.000116552 2.00416e-06
6.27465e-06 2.00416e-06 -0.000235189
0.000731561 -0.000240557 -1.09166e-05
-0.000240557 -1.49176e-05 6.72075e-06
-1.09166e-05 6.72075e-06 -0.000232457
0.0013165 -0.000446221 1.0917e-06
-0.000446221 0.000219419 3.13586e-07
1.0917e-06 3.13586e-07 -9.53107e-05
0.00183549 -0.000634501 3.13256e-06
-0.000634501 0.000454735 2.15095e-06
3.13256e-06 2.15095e-06 7.01118e-05
0.000431863 -0.000181858 -2.2396e-05
-0.000181858 -9.64588e-05 1.87963e-05
-2.2396e-05 1.87963e-05 -0.000212569
0.000638745 -0.000220935 -5.6995e-07
-0.000220935 -5.43466e-06 2.69232e-07
-5.6995e-07 2.69232e-07 -0.00022163
0.000920873 -0.000338794 5.98807e-06
-0.000338794 5.65053e-05 -1.19803e-06
5.98807e-06 -1.19803e-06 -0.000216468
0.00502926 0.000178968 -0.000137978
0.000178968 0.00288484 9.35839e-06
-0.000137978 9.35839e-06 0.00286624
0.000501093 -0.000140604 -2.46092e-06
-0.000140604 -3.71385e-05 -7.97285e-07
-2.46092e-06 -7.97285e-07 -0.000136267
0.00119111 -0.000240539 5.6858e-06
-0.000240539 0.00041721 -1.36557e-06
5.6858e-06 -1.36557e-06 0.000171869
0.00444156 0.000178062 2.20173e-05
0.000178062 0.0025183 8.34522e-07
2.20173e-05 8.34522e-07 0.00250028
0.000756209 -8.48734e-05 1.8395e-05
-8.48734e-05 0.000140504 -1.43382e-05
1.8395e-05 -1.43382e-05 5.87353e-05
0.00393575 0.000138148 0.000109995
0.000138148 0.00218041 -6.6234e-06
0.000109995 -6.6234e-06 0.00217522
0.00200801 0.000545689 2.12973e-06
0.000545689 0.000793915 -3.27077e-06
2.12973e-06 -3.27077e-06 0.000430461
0.00079182 0.000258284 -5.54839e-07
0.000258284 9.67491e-05 -3.2115e-06
-5.54839e-07 -3.2115e-06 -0.000109929
0.000254776 0.000156276 4.53082e-06
0.000156276 -0.000171531 4.12587e-06
4.53082e-06 4.12587e-06 -0.000376157
-0.000775345 3.24208e-05 -2.30958e-06
3.24208e-05 -0.00077552 1.25456e-07
-2.30958e-06 1.25456e-07 -0.000968514
0.000371437 0.000107087 -3.68574e-07
0.000107087 -3.51671e-05 2.37922e-06
-3.68574e-07 2.37922e-06 -0.000246176
0.0009642 0.000104093 5.34907e-07
0.000104093 0.000300835 -9.52112e-06
5.34907e-07 -9.52112e-06 0.0001258
0.000285343 5.79037e-05 -3.1739e-06
5.79037e-05 -7.38012e-05 4.64562e-06
-3.1739e-06 4.64562e-06 -0.000270442
0.000569614 8.05225e-05 1.72637e-08
8.05225e-05 5.96132e-05 2.38103e-07
1.72637e-08 2.38103e-07 -8.08429e-05
0.000603312 3.36928e-05 -6.50491e-06
3.36928e-05 6.01308e-05 -1.49062e-05
-6.50491e-06 -1.49062e-05 2.75053e-06
0.00320813 -0.000109023 -8.34625e-05
-0.000109023 0.00171259 -6.17576e-06
-8.34625e-05 -6.17576e-06 0.00171545
0.000436561 1.1738e-05 1.36775e-06
1.1738e-05 -3.67858e-05 -3.60166e-07
1.36775e-06 -3.60166e-07 -8.35996e-05
0.000487219 4.34405e-05 -3.81851e-06
4.34405e-05 1.91524e-05 6.22928e-06
-3.81851e-06 6.22928e-06 -0.000102939
0.00286475 -0.000105967 -8.07507e-06
-0.000105967 0.00148894 7.223e-07
-8.07507e-06 7.223e-07 0.0014919
0.000328405 -5.02809e-05 -6.16732e-06
-5.02809e-05 -0.000102567 8.95002e-06
-6.16732e-06 8.95002e-06 -0.000142965
0.00268313 -8.75122e-05 3.69454e-05
-8.75122e-05 0.0013662 4.88968e-06
3.69454e-05 4.88968e-06 0.00137289
0.0147994 0.000587272 0.000473746
0.000587272 0.00200298 0.000115678
0.000473746 0.000115678 0.00164871
-0.00128164 -0.0027885 -0.000490789
-0.0027885 -0.0025067 -8.13627e-05
-0.000490789 -8.13627e-05 -0.00458549
-0.009385 0.00144212 -0.000201784
0.00144212 0.00413233 -0.000124006
-0.000201784 -0.000124006 -0.00267118
0.000147104 2.74971e-05 1.75697e-05
2.74971e-05 -0.000137724 -6.22035e-06
1.75697e-05 -6.22035e-06 -0.000443833
0.00157999 0.000425771 -9.40729e-06
0.000425771 0.000671945 -3.2296e-07
-9.40729e-06 -3.2296e-07 0.000366713
0.00230579 0.000569376 -1.02242e-05
0.000569376 0.00117612 -2.42031e-06
-1.02242e-05 -2.42031e-06 0.000760908
0.00152434 0.000584542 9.67442e-07
0.000584542 0.00048913 -7.37362e-07
9.67442e-07 -7.37362e-07 7.02983e-05
0.00143432 0.0006281 1.16877e-05
0.0006281 0.000251976 1.83942e-05
1.16877e-05 1.83942e-05 -0.000149453
-0.00076218 0.000403873 2.62116e-05
0.000403873 -0.000912907 5.4794e-06
2.62116e-05 5.4794e-06 -0.00124159
-0.00031756 0.00029179 -1.15227e-05
0.00029179 -0.000225757 1.17163e-05
-1.15227e-05 1.17163e-05 -0.000703499
-0.000246963 0.000524572 1.1055e-05
0.000524572 -0.000653592 -6.86001e-07
1.1055e-05 -6.86001e-07 -0.000980324
0.00221599 0.000775454 5.15458e-06
0.000775454 0.000821441 7.29117e-06
5.15458e-06 7.29117e-06 0.000550391
-0.000619885 0.000511225 5.65078e-06
0.000511225 -0.000991041 -3.66012e-06
5.65078e-06 -3.66012e-06 -0.00122689
0.00354499 0.000998698 3.23338e-06
0.000998698 0.00117074 1.51685e-05
3.23338e-06 1.51685e-05 0.000990019
0.00132152 0.000856366 2.09742e-05
0.000856366 -6.20648e-06 6.16974e-06
2.09742e-05 6.16974e-06 -0.000288979
0.000582384 0.000754576 2.99781e-06
0.000754576 -0.000463501 1.969e-07
2.99781e-06 1.969e-07 -0.000540578
0.000616072 0.000506284 3.0584e-06
0.000506284 6.078e-05 -5.01439e-05
3.0584e-06 -5.01439e-05 -0.000147555
0.00517695 0.00168854 1.94162e-05
0.00168854 -0.00135441 2.56891e-05
1.94162e-05 2.56891e-05 3.55721e-05
0.013683 0.00285472 0.000272979
0.00285472 0.00101913 0.00014635
0.000272979 0.00014635 -0.000555555
0.0113836 -0.00410292 0.000500667
-0.00410292 0.00543316 -4.00389e-05
0.000500667 -4.00389e-05 0.00233668
0.00568424 0.00466129 0.000535853
0.00466129 -0.000954464 0.000310646
0.000535853 0.000310646 -0.00507005
0.000219453 0.00125714 -5.83223e-05
0.00125714 0.000168273 -1.90867e-06
-5.83223e-05 -1.90867e-06 0.00079066
0.00396483 0.00247325 -0.000110771
0.00247325 -0.000551908 -5.37374e-05
-0.000110771 -5.37374e-05 0.00015525
0.00598231 0.00211102 7.45085e-05
0.00211102 0.00116382 3.06093e-05
7.45085e-05 3.06093e-05 0.000905973
0.00423228 0.00153056 1.9061e-05
0.00153056 0.00127749 8.57899e-06
1.9061e-05 8.57899e-06 0.000960419
-0.000176217 0.000667552 -2.87815e-05
0.000667552 -0.000478402 1.13844e-05
-2.87815e-05 1.13844e-05 -0.000719673
0.00664684 0.00239011 -0.000178919
0.00239011 0.00164149 -1.79681e-05
-0.000178919 -1.79681e-05 0.00109401
0.00301664 -0.000499699 1.70779e-05
-0.000499699 -0.000506366 1.2656e-05
1.70779e-05 1.2656e-05 0.000112448
0.0113813 -0.000544887 -4.46013e-05
-0.000544887 0.00128146 -8.40052e-06
-4.46013e-05 -8.40052e-06 0.00120564
-0.012552 -0.00261428 0.000744959
-0.00261428 -0.00535747 2.6945e-06
0.000744959 2.6945e-06 -0.00618017
0.00067649 -0.00115753 -0.000108081
-0.00115753 -0.000550555 3.19514e-05
-0.000108081 3.19514e-05 -0.00080709
0.00890535 -0.00251459 1.53768e-06
-0.00251459 -1.27053e-05 9.27888e-05
1.53768e-06 9.27888e-05 0.0009878
0.00103664 -0.000281317 -0.000275868
-0.000281317 -0.00469417 3.39602e-05
-0.000275868 3.39602e-05 -0.00643873
0.00273599 -0.000992292 3.31059e-05
-0.000992292 -0.000111213 9.51444e-07
3.31059e-05 9.51444e-07 -3.19263e-05
0.00500718 -0.000695024 -4.57934e-05
-0.000695024 -0.000472658 -2.70465e-06
-4.57934e-05 -2.70465e-06 0.000283905
0.00568157 -0.000856743 4.24972e-05
-0.000856743 0.00126156 -3.2443e-05
4.24972e-05 -3.2443e-05 0.00159182
0.00559694 -0.000436022 0.000105254
-0.000436022 0.00136676 2.59397e-06
0.000105254 2.59397e-06 0.00153291
-0.00336094 -0.000328357 8.39064e-06
-0.000328357 -0.00299551 1.08775e-05
8.39064e-06 1.08775e-05 -0.00273773
0.00203145 -0.00064076 -6.47776e-06
-0.00064076 -0.000228629 1.43546e-06
-6.47776e-06 1.43546e-06 -6.99574e-05
0.00234396 -0.000490161 2.49376e-05
-0.000490161 -0.000203044 -5.9353e-06
2.49376e-05 -5.9353e-06 5.93836e-05
0.00171333 -0.000726252 -8.62376e-08
-0.000726252 -0.000216019 6.53644e-06
-8.62376e-08 6.53644e-06 -0.000414978
0.00232697 -0.000617954 1.43009e-06
-0.000617954 -3.29617e-05 1.41738e-06
1.43009e-06 1.41738e-06 -6.7813e-05
0.00235639 -0.000540012 2.10306e-06
-0.000540012 1.58636e-05 -7.28579e-07
2.10306e-06 -7.28579e-07 2.10703e-05
0.00213411 -0.00055443 2.12798e-06
-0.00055443 3.73868e-05 5.57614e-06
2.12798e-06 5.57614e-06 -8.75103e-05
0.00219898 -0.000536407 3.50294e-07
-0.000536407 6.96512e-05 4.27516e-07
3.50294e-07 4.27516e-07 -2.97411e-06
0.00219096 -0.000479562 -2.19874e-06
-0.000479562 5.35871e-05 1.39647e-07
-2.19874e-06 1.39647e-07 -1.01241e-05
0.00203454 -0.000489976 3.60942e-06
-0.000489976 6.77308e-05 1.8059e-06
3.60942e-06 1.8059e-06 -6.91193e-05
0.00212324 -0.000515003 -1.68952e-07
-0.000515003 0.000136748 6.66685e-08
-1.68952e-07 6.66685e-08 6.47822e-06
0.00203376 -0.000464017 -8.39472e-08
-0.000464017 0.000121155 2.82309e-07
-8.39472e-08 2.82309e-07 -1.19425e-05
0.00203815 -0.000473169 -3.87561e-07
-0.000473169 0.000153396 2.16605e-06
-3.87561e-07 2.16605e-06 9.8436e-07
0.00209078 -0.000457574 -1.811e-06
-0.000457574 0.000231415 3.40795e-07
-1.811e-06 3.40795e-07 7.2634e-05
0.00214635 -0.000462503 -1.54788e-06
-0.000462503 0.000273367 -1.0671e-06
-1.54788e-06 -1.0671e-06 9.68928e-05
0.00203327 -0.000459519 4.85062e-06
-0.000459519 0.000205658 2.99442e-06
4.85062e-06 2.99442e-06 1.95797e-05
0.00199677 -0.000481799 -2.36176e-07
-0.000481799 0.000187912 -1.87313e-07
-2.36176e-07 -1.87313e-07 -2.06759e-05
0.00203385 -0.000474351 -1.30276e-06
-0.000474351 0.000262065 -2.73722e-06
-1.30276e-06 -2.73722e-06 3.32732e-05
0.00170523 -0.000459997 -8.98464e-06
-0.000459997 0.000211814 -3.65135e-07
-8.98464e-06 -3.65135e-07 -6.81539e-05
0.00196571 -0.000532527 -7.66546e-07
-0.000532527 0.000258974 -1.08113e-06
-7.66546e-07 -1.08113e-06 -2.21993e-05
0.00212939 -0.000568072 5.67306e-06
-0.000568072 0.00029231 2.55354e-06
5.67306e-06 2.55354e-06 2.00426e-05
0.000899791 -0.000266861 -1.4447e-05
-0.000266861 -5.87995e-06 7.0981e-06
-1.4447e-05 7.0981e-06 -0.000226937
0.00158592 -0.000490257 -1.72374e-07
-0.000490257 0.000249295 6.81942e-07
-1.72374e-07 6.81942e-07 -6.73715e-05
0.00174472 -0.000596167 3.54785e-06
-0.000596167 0.000236641 1.90325e-06
3.54785e-06 1.90325e-06 -0.000109035
0.000285002 -0.00018485 -1.96085e-05
-0.00018485 -0.00020535 1.93008e-05
-1.96085e-05 1.93008e-05 -0.000330807
0.000802862 -0.000250602 7.44525e-07
-0.000250602 2.60155e-05 3.22734e-07
7.44525e-07 3.22734e-07 -0.000195579
0.00116723 -0.000433965 1.06234e-05
-0.000433965 0.000126956 -1.79716e-06
1.06234e-05 -1.79716e-06 -0.000185747
0.00608696 0.000107237 -0.000211568
0.000107237 0.0035141 1.30591e-05
-0.000211568 1.30591e-05 0.0035107
0.000388316 -0.000186613 -9.49075e-07
-0.000186613 -0.000122761 -2.21389e-08
-9.49075e-07 -2.21389e-08 -0.000239763
0.000633239 -0.000224118 9.78125e-06
-0.000224118 -3.27103e-06 -5.53961e-06
9.78125e-06 -5.53961e-06 -0.000223292
0.00546048 0.000125928 -2.29906e-06
0.000125928 0.00314196 -1.29158e-06
-2.29906e-06 -1.29158e-06 0.00313359
0.000424915 -0.000140214 1.89822e-05
-0.000140214 -7.84144e-05 -1.69876e-05
1.89822e-05 -1.69876e-05 -0.000183547
0.00478627 0.000114532 0.000171002
0.000114532 0.00272226 -1.48078e-05
0.000171002 -1.48078e-05 0.00271806
0.00149674 0.000557782 -4.25729e-06
0.000557782 0.000336795 2.50944e-06
-4.25729e-06 2.50944e-06 -3.24726e-05
0.00172108 0.00051108 -1.12631e-06
0.00051108 0.00060074 -1.50165e-06
-1.12631e-06 -1.50165e-06 0.000250801
0.000721548 0.000295857 -1.75517e-06
0.000295857 -7.09332e-06 -3.20926e-06
-1.75517e-06 -3.20926e-06 -0.000267082
0.000836872 0.000279771 -8.16441e-06
0.000279771 0.000159565 -3.73079e-06
-8.16441e-06 -3.73079e-06 -6.44236e-05
7.23261e-05 0.00015095 2.09588e-06
0.00015095 -0.0002778 -3.96432e-07
2.09588e-06 -3.96432e-07 -0.000487028
0.00118053 0.000263267 -1.85181e-06
0.000263267 0.000445955 -5.68922e-06
-1.85181e-06 -5.68922e-06 0.000218742
-7.43666e-05 5.86434e-05 -1.29461e-06
5.86434e-05 -0.000328582 3.17398e-06
-1.29461e-06 3.17398e-06 -0.000527689
0.00069642 0.000118871 6.1623e-07
0.000118871 0.000145571 -2.24002e-07
6.1623e-07 -2.24002e-07 -3.35636e-05
0.00074118 6.48111e-05 -1.33079e-05
6.48111e-05 0.000137512 -1.67885e-05
-1.33079e-05 -1.67885e-05 6.51204e-05
0.000493195 5.41356e-05 -2.83609e-06
5.41356e-05 2.45297e-05 9.68057e-06
-2.83609e-06 9.68057e-06 -0.00011938
0.000527445 4.11451e-05 3.65774e-07
4.11451e-05 1.77392e-05 -3.20074e-07
3.65774e-07 -3.20074e-07 -3.91044e-05
0.00376517 -0.000126558 -0.000109395
-0.000126558 0.00207494 -8.25595e-06
-0.000109395 -8.25595e-06 0.00207229
0.00319925 -0.000125905 -9.94043e-06
-0.000125905 0.00170991 8.94842e-07
-9.94043e-06 8.94842e-07 0.00170799
0.000340404 3.68995e-05 5.14756e-06
3.68995e-05 -9.53867e-05 1.15424e-05
5.14756e-06 1.15424e-05 -0.000140859
0.00281643 -0.000105865 4.51729e-05
-0.000105865 0.00145854 4.82222e-06
4.51729e-05 4.82222e-06 0.00146121
0.00401592 0.000158442 8.91051e-05
0.000158442 -0.00119719 2.69798e-05
8.91051e-05 2.69798e-05 0.000219209
0.00506059 -0.000928353 0.000168738
-0.000928353 -0.00425569 7.89529e-05
0.000168738 7.89529e-05 -0.0051898
0.0123805 -0.00299901 -0.000217714
-0.00299901 0.00490692 -9.71262e-05
-0.000217714 -9.71262e-05 0.00377199
0.00139995 0.000607361 8.53898e-06
0.000607361 3.98074e-05 8.82222e-06
8.53898e-06 8.82222e-06 -0.000300701
0.00450895 0.000806399 -1.15771e-05
0.000806399 0.00245551 1.6477e-06
-1.15771e-05 1.6477e-06 0.00200028
0.000757025 0.000490438 -7.09021e-06
0.000490438 3.07429e-05 -5.77108e-06
-7.09021e-06 -5.77108e-06 -0.000362764
0.00143073 0.000663174 2.00231e-06
0.000663174 0.000398324 -1.3566e-06
2.00231e-06 -1.3566e-06 1.17296e-05
0.00160922 0.000646457 -1.62209e-06
0.000646457 0.000380661 3.83459e-06
-1.62209e-06 3.83459e-06 -3.0735e-05
0.00167501 0.000736709 2.43957e-05
0.000736709 0.000353273 1.38556e-05
2.43957e-05 1.38556e-05 -5.75077e-06
0.00242934 0.000809929 -3.79213e-05
0.000809929 0.000949599 -7.73362e-07
-3.79213e-05 -7.73362e-07 0.00054498
0.000722814 0.000623855 1.95104e-05
0.000623855 3.77816e-06 -3.43184e-05
1.95104e-05 -3.43184e-05 -0.00027022
0.00178461 0.000808279 1.25085e-06
0.000808279 0.000376845 -2.34281e-06
1.25085e-06 -2.34281e-06 7.82527e-05
0.00204197 0.000854817 8.63946e-06
0.000854817 0.000248798 -1.37757e-07
8.63946e-06 -1.37757e-07 0.000198899
0.00205812 0.000873167 1.46018e-05
0.000873167 0.000244226 -2.65634e-06
1.46018e-05 -2.65634e-06 -5.68121e-05
0.00179563 0.0007579 2.31772e-05
0.0007579 0.000195972 1.93746e-05
2.31772e-05 1.93746e-05 4.7686e-06
0.00086955 0.000809082 -5.59763e-06
0.000809082 -0.000246952 -5.7527e-06
-5.59763e-06 -5.7527e-06 -0.000511956
0.000522546 0.000739688 -1.50132e-05
0.000739688 -0.000489204 -2.53392e-05
-1.50132e-05 -2.53392e-05 -0.000550554
0.00112884 0.000745457 5.12782e-05
0.000745457 -0.00111857 3.59976e-05
5.12782e-05 3.59976e-05 -0.000789597
0.00611803 0.00174575 -9.0982e-05
0.00174575 -0.0011427 -2.70985e-05
-9.0982e-05 -2.70985e-05 0.000213113
0.00415261 0.00188905 0.000543634
0.00188905 -0.00430995 0.000109297
0.000543634 0.000109297 -0.00605114
0.00186935 0.00192984 -0.000158642
0.00192984 -0.000874803 -6.14257e-05
-0.000158642 -6.14257e-05 -0.000206767
0.0045086 0.00172136 -3.04811e-05
0.00172136 0.00080557 -9.18958e-06
-3.04811e-05 -9.18958e-06 0.000631037
0.00498672 0.00162922 -0.000145226
0.00162922 0.00157973 -3.47658e-05
-0.000145226 -3.47658e-05 0.00124332
0.00234563 -0.000246414 -6.25401e-05
-0.000246414 -0.000730254 -2.10985e-05
-6.25401e-05 -2.10985e-05 -0.000387381
-0.000445917 -0.000280671 8.18126e-05
-0.000280671 -0.00111661 1.74672e-05
8.18126e-05 1.74672e-05 -0.000300307
0.00306069 0.000824065 0.000208105
0.000824065 -0.00498046 -1.60839e-05
0.000208105 -1.60839e-05 -0.00518293
0.000330688 -0.000748702 -4.75143e-05
-0.000748702 -0.00133358 7.30399e-05
-4.75143e-05 7.30399e-05 -0.00106613
0.00665258 -0.000774166 -0.000160517
-0.000774166 0.000483092 4.5585e-05
-0.000160517 4.5585e-05 0.000775282
0.00251235 -0.000627527 -1.75954e-05
-0.000627527 -0.000439653 1.18601e-05
-1.75954e-05 1.18601e-05 -4.533e-05
0.0043032 -0.000445476 -7.30088e-06
-0.000445476 0.000601856 -3.11626e-06
-7.30088e-06 -3.11626e-06 0.000736548
0.00270204 -0.000364117 6.13261e-05
-0.000364117 -0.000102159 -7.39193e-06
6.13261e-05 -7.39193e-06 0.00024097
0.00370383 -0.0001073 4.65263e-05
-0.0001073 0.00110419 8.37796e-07
4.65263e-05 8.37796e-07 0.00110816
0.00049993 -0.000520013 -2.41558e-05
-0.000520013 -0.00109258 1.26029e-05
-2.41558e-05 1.26029e-05 -0.000837589
0.00213948 -0.000504914 -2.3916e-06
-0.000504914 -0.000352677 1.89725e-06
-2.3916e-06 1.89725e-06 -9.3372e-05
0.00240376 -0.000432346 5.1337e-06
-0.000432346 -0.000177404 -1.52543e-06
5.1337e-06 -1.52543e-06 3.43571e-05
0.00225486 -0.000608234 -2.47422e-06
-0.000608234 -6.21089e-05 4.01155e-06
-2.47422e-06 4.01155e-06 -9.54014e-05
0.00233917 -0.000529609 5.11679e-08
-0.000529609 2.20295e-05 -2.98854e-07
5.11679e-08 -2.98854e-07 3.1113e-05
0.00226304 -0.000421212 -4.70769e-07
-0.000421212 -1.2064e-05 -4.08929e-07
-4.70769e-07 -4.08929e-07 -1.68463e-06
0.00213756 -0.0005257 -1.3266e-07
-0.0005257 4.77536e-05 1.09693e-06
-1.3266e-07 1.09693e-06 -2.54342e-05
0.00218274 -0.000485134 -8.99527e-07
-0.000485134 5.89403e-05 9.72325e-08
-8.99527e-07 9.72325e-08 -5.93199e-06
0.0020955 -0.000413528 -1.60618e-06
-0.000413528 7.70741e-05 9.3787e-07
-1.60618e-06 9.3787e-07 -6.44093e-06
0.00205718 -0.000506518 7.58964e-07
-0.000506518 0.000118551 -8.87535e-07
7.58964e-07 -8.87535e-07 -1.07178e-05
0.00201774 -0.000463969 1.03514e-06
-0.000463969 0.000107799 -5.68128e-07
1.03514e-06 -5.68128e-07 -2.5828e-05
0.00200295 -0.000429685 -4.14715e-07
-0.000429685 0.000133844 -6.79214e-07
-4.14715e-07 -6.79214e-07 -1.46827e-05
0.00202884 -0.000448409 -1.50332e-06
-0.000448409 0.00018804 2.13436e-06
-1.50332e-06 2.13436e-06 3.28275e-05
0.0021358 -0.00045976 -1.82902e-06
-0.00045976 0.000260242 6.83862e-07
-1.82902e-06 6.83862e-07 8.74915e-05
0.00213986 -0.000451686 -8.61484e-07
-0.000451686 0.0002895 -2.1067e-06
-8.61484e-07 -2.1067e-06 9.20839e-05
0.00204632 -0.000486186 2.99749e-06
-0.000486186 0.000218145 2.89016e-06
2.99749e-06 2.89016e-06 8.34512e-06
0.00204728 -0.00047721 4.23051e-07
-0.00047721 0.000270554 -4.50007e-07
4.23051e-07 -4.50007e-07 4.1933e-05
0.00180022 -0.000412197 -6.37248e-06
-0.000412197 0.000226966 2.3114e-07
-6.37248e-06 2.3114e-07 -1.77302e-05
0.00104213 -0.000274658 -1.68545e-05
-0.000274658 1.3652e-05 7.75328e-06
-1.68545e-05 7.75328e-06 -0.000204397
0.00167299 -0.000455069 -1.07428e-06
-0.000455069 0.000199988 -3.77303e-07
-1.07428e-06 -3.77303e-07 -8.13722e-05
0.00189603 -0.000532464 3.32508e-06
-0.000532464 0.000214792 1.40973e-06
3.32508e-06 1.40973e-06 -7.18303e-05
0.000426646 -0.000233077 -2.28067e-05
-0.000233077 -0.000127876 1.88855e-05
-2.28067e-05 1.88855e-05 -0.000269438
0.000867527 -0.000269302 1.01813e-06
-0.000269302 -3.43915e-05 -1.74174e-07
1.01813e-06 -1.74174e-07 -0.000257488
0.0016117 -0.000487776 9.19779e-06
-0.000487776 0.000269922 -5.95775e-07
9.19779e-06 -5.95775e-07 -4.42373e-05
0.00672496 6.17402e-05 -0.000255181
6.17402e-05 0.00389002 1.74226e-05
-0.000255181 1.74226e-05 0.00389293
0.000459392 -0.000237984 -1.27412e-06
-0.000237984 -9.05463e-05 6.96022e-07
-1.27412e-06 6.96022e-07 -0.000226375
0.000759763 -0.000257704 1.28047e-05
-0.000257704 -3.76682e-06 -6.46612e-06
1.28047e-05 -6.46612e-06 -0.000229682
0.00627831 8.9506e-05 -5.26022e-06
8.9506e-05 0.00363643 -3.55938e-07
-5.26022e-06 -3.55938e-07 0.00363214
0.000568554 -0.000226688 2.56404e-05
-0.000226688 -1.12685e-05 -1.92818e-05
2.56404e-05 -1.92818e-05 -0.00013153
0.00575094 0.000136006 0.000201763
0.000136006 0.00334239 -2.35407e-05
0.000201763 -2.35407e-05 0.00332415
0.00155522 0.000560514 1.71064e-07
0.000560514 0.000196772 5.11512e-06
1.71064e-07 5.11512e-06 -0.000144768
0.00169642 0.000585788 -2.16399e-06
0.000585788 0.000451125 2.26956e-07
-2.16399e-06 2.26956e-07 7.28715e-05
0.00122663 0.000412854 -7.6633e-06
0.000412854 0.000190133 -7.34219e-07
-7.6633e-06 -7.34219e-07 -0.000105478
0.00165368 0.00050322 1.23849e-07
0.00050322 0.00053863 6.2951e-07
1.23849e-07 6.2951e-07 0.000196275
0.000952791 0.000305224 -3.48862e-06
0.000305224 0.000139337 -2.15284e-06
-3.48862e-06 -2.15284e-06 -0.000118352
0.00129539 0.000254048 -8.1907e-06
0.000254048 0.000448096 -2.11346e-06
-8.1907e-06 -2.11346e-06 0.000220151
-0.00025832 0.0001075 -3.73807e-06
0.0001075 -0.000498582 -2.21111e-06
-3.73807e-06 -2.21111e-06 -0.00070033
0.00081014 0.000155377 -9.02164e-07
0.000155377 0.00019911 -7.35648e-07
-9.02164e-07 -7.35648e-07 -1.25104e-05
0.000579129 0.00010838 -2.08403e-05
0.00010838 1.70238e-05 -1.76625e-05
-2.08403e-05 -1.76625e-05 -6.95912e-05
0.000356305 8.52496e-05 2.13879e-07
8.52496e-05 -7.47178e-05 9.30814e-06
2.13879e-07 9.30814e-06 -0.000240943
0.000412229 5.85539e-05 -6.16647e-07
5.85539e-05 -6.17748e-05 -3.5545e-07
-6.16647e-07 -3.5545e-07 -0.000130452
0.00434812 -0.000148974 -0.000130364
-0.000148974 0.00245563 -1.11902e-05
-0.000130364 -1.11902e-05 0.00244447
0.000241519 4.47382e-05 7.1192e-06
4.47382e-05 -0.000155166 1.45682e-05
7.1192e-06 1.45682e-05 -0.000211311
0.00365257 -0.000146019 -1.02545e-05
-0.000146019 0.00200812 1.03279e-06
-1.02545e-05 1.03279e-06 0.0020003
0.00308035 -0.000130398 5.35913e-05
-0.000130398 0.00163569 5.02227e-06
5.35913e-05 5.02227e-06 0.00163198
0.000445396 0.000143901 -1.43642e-06
0.000143901 -0.00181922 1.0097e-05
-1.43642e-06 1.0097e-05 -0.00115153
0.00512027 3.63493e-05 6.61125e-05
3.63493e-05 -0.000599347 1.72331e-05
6.61125e-05 1.72331e-05 0.000690111
0.014002 0.000820985 -2.63417e-05
0.000820985 0.00230088 1.09277e-05
-2.63417e-05 1.09277e-05 0.00200914
0.0019215 0.00072915 1.51595e-06
0.00072915 0.000324369 5.19584e-06
1.51595e-06 5.19584e-06 -1.25314e-05
0.00215526 0.00070773 9.23394e-08
0.00070773 0.000301424 3.60839e-06
9.23394e-08 3.60839e-06 -3.67073e-06
0.00150381 0.000622073 -3.38695e-07
0.000622073 0.000114888 -3.53347e-06
-3.38695e-07 -3.53347e-06 -0.000225191
0.00285264 0.000835394 -1.1343e-05
0.000835394 0.00123755 3.92213e-06
-1.1343e-05 3.92213e-06 0.000817162
0.00189451 0.000676965 -7.12477e-06
0.000676965 0.000576958 -9.85966e-06
-7.12477e-06 -9.85966e-06 0.000152092
0.00197697 0.000785584 7.46964e-06
0.000785584 0.000490589 3.10813e-06
7.46964e-06 3.10813e-06 0.000132312
0.0018822 0.000792733 -1.30351e-06
0.000792733 9.62389e-05 -3.72399e-06
-1.30351e-06 -3.72399e-06 -0.000200554
0.0026044 0.000920031 -1.94741e-05
0.000920031 0.000798734 5.65143e-06
-1.94741e-05 5.65143e-06 0.000482035
0.00108711 0.000758489 -9.44005e-06
0.000758489 -0.000362384 1.08492e-05
-9.44005e-06 1.08492e-05 -0.000298701
0.00270759 0.000942214 4.84967e-07
0.000942214 0.000621903 3.75327e-06
4.84967e-07 3.75327e-06 0.000306058
0.00265508 0.00081198 -4.09501e-06
0.00081198 0.000406298 2.94471e-06
-4.09501e-06 2.94471e-06 0.000173722
0.00126449 0.000399723 3.64594e-05
0.000399723 -0.000288768 1.78909e-05
3.64594e-05 1.78909e-05 -0.000241044
0.000451833 0.000634781 9.30335e-06
0.000634781 -0.000506811 -3.63195e-06
9.30335e-06 -3.63195e-06 -0.000683186
0.000989164 0.000820013 -3.49148e-05
0.000820013 -0.000183505 -4.92595e-06
-3.49148e-05 -4.92595e-06 -0.000453125
0.00293041 0.000887083 4.72281e-06
0.000887083 -0.000148345 7.87569e-06
4.72281e-06 7.87569e-06 5.15036e-05
0.006901 0.0013445 -2.23414e-05
0.0013445 -0.000727066 -4.03024e-05
-2.23414e-05 -4.03024e-05 0.000271016
0.00418386 0.00143798 -4.13315e-05
0.00143798 0.00103115 -5.28159e-05
-4.13315e-05 -5.28159e-05 0.000929665
0.00166741 -7.55547e-05 3.34606e-05
-7.55547e-05 -0.000274344 2.84638e-06
3.34606e-05 2.84638e-06 -0.000118987
0.00271831 -0.000232683 -5.50667e-05
-0.000232683 -0.000439435 3.3824e-06
-5.50667e-05 3.3824e-06 -9.29884e-05
0.00358298 0.000356544 2.0273e-05
0.000356544 -0.000341146 -1.45185e-05
2.0273e-05 -1.45185e-05 0.000227338
0.000968144 -0.0005357 -6.80475e-05
-0.0005357 -0.00122654 5.03967e-05
-6.80475e-05 5.03967e-05 -0.000827642
0.00280188 -0.000498706 -9.91656e-05
-0.000498706 -0.000259255 -3.3249e-06
-9.91656e-05 -3.3249e-06 -0.000163724
0.00264255 -0.000366525 8.48513e-06
-0.000366525 -4.47515e-05 -3.52379e-06
8.48513e-06 -3.52379e-06 0.00029009
0.00249946 -0.000102249 -1.51289e-05
-0.000102249 0.000311697 6.75979e-07
-1.51289e-05 6.75979e-07 0.000336339
0.00240667 -0.000241384 1.44358e-05
-0.000241384 -3.86836e-05 -1.4471e-07
1.44358e-05 -1.4471e-07 9.29255e-05
0.00235553 2.11708e-06 1.06819e-05
2.11708e-06 -2.9383e-05 2.55186e-06
1.06819e-05 2.55186e-06 2.43407e-05
0.00201818 -0.000527414 -1.74028e-05
-0.000527414 -0.00045986 5.26828e-06
-1.74028e-05 5.26828e-06 -0.0002069
0.00241946 -0.000446324 -2.67341e-06
-0.000446324 -0.00016253 6.25078e-07
-2.67341e-06 6.25078e-07 1.32434e-05
0.00233817 -0.000310706 7.181e-07
-0.000310706 -8.5021e-05 -1.24839e-06
7.181e-07 -1.24839e-06 3.16517e-06
0.00231895 -0.000520293 -3.88974e-06
-0.000520293 2.36805e-05 1.15441e-06
-3.88974e-06 1.15441e-06 3.58031e-05
0.00226579 -0.000418165 -9.62699e-08
-0.000418165 2.52699e-06 -1.08303e-07
-9.62699e-08 -1.08303e-07 8.13532e-06
0.00216671 -0.000348377 -6.74113e-07
-0.000348377 1.547e-05 3.75299e-07
-6.74113e-07 3.75299e-07 -4.43835e-06
0.00217937 -0.00049116 -3.2281e-07
-0.00049116 6.66993e-05 -6.71625e-07
-3.2281e-07 -6.71625e-07 3.53661e-07
0.00209355 -0.000412654 5.26938e-07
-0.000412654 7.19173e-05 -1.46509e-07
5.26938e-07 -1.46509e-07 -1.14155e-05
0.00205991 -0.000378386 -1.92668e-06
-0.000378386 0.000108177 6.24794e-07
-1.92668e-06 6.24794e-07 -1.69832e-06
0.00200366 -0.000463975 2.15604e-06
-0.000463975 9.57103e-05 -1.29446e-06
2.15604e-06 -1.29446e-06 -3.84415e-05
0.00199784 -0.000429003 5.5932e-07
-0.000429003 0.000127031 -5.47491e-07
5.5932e-07 -5.47491e-07 -2.17658e-05
0.00199972 -0.000404121 -6.7256e-07
-0.000404121 0.000160604 -1.50306e-06
-6.7256e-07 -1.50306e-06 -7.87809e-06
0.0021225 -0.000456878 -1.01344e-06
-0.000456878 0.000245211 2.82023e-06
-1.01344e-06 2.82023e-06 7.6203e-05
0.00210437 -0.000450133 -5.66072e-07
-0.000450133 0.00026895 -1.98348e-07
-5.66072e-07 -1.98348e-07 7.24804e-05
0.00177495 -0.000379108 -4.42161e-06
-0.000379108 0.000167267 1.43656e-07
-4.42161e-06 1.43656e-07 -5.35444e-05
0.00206442 -0.000480301 2.82257e-06
-0.000480301 0.000281381 2.21541e-06
2.82257e-06 2.21541e-06 5.2896e-05
0.00184504 -0.000417368 -7.77524e-07
-0.000417368 0.00025498 2.78678e-09
-7.77524e-07 2.78678e-09 1.09197e-05
0.00106574 -0.000252347 -1.68653e-05
-0.000252347 -6.10453e-06 7.15547e-06
-1.68653e-05 7.15547e-06 -0.000212753
0.000317651 -0.000198686 -1.97259e-05
-0.000198686 -0.000214722 1.71991e-05
-1.97259e-05 1.71991e-05 -0.000348263
0.00102193 -0.000274751 7.77644e-07
-0.000274751 -1.88712e-06 5.91747e-08
7.77644e-07 5.91747e-08 -0.000220491
0.00166086 -0.000451818 6.60597e-06
-0.000451818 0.000200602 -7.25386e-07
6.60597e-06 -7.25386e-07 -8.2412e-05
0.00707141 -2.08374e-05 -0.000291338
-2.08374e-05 0.00408168 2.12446e-05
-0.000291338 2.12446e-05 0.00409331
0.000363371 -0.00022462 -1.10174e-06
-0.00022462 -0.000175317 1.25827e-06
-1.10174e-06 1.25827e-06 -0.000311281
0.000911643 -0.000274907 1.38518e-05
-0.000274907 -1.49855e-05 -6.39688e-06
1.38518e-05 -6.39688e-06 -0.000240406
0.00691336 3.30009e-05 -1.10013e-06
3.30009e-05 0.00400545 5.18478e-07
-1.10013e-06 5.18478e-07 0.00400933
0.000479114 -0.000239461 2.45478e-05
-0.000239461 -8.39579e-05 -1.97239e-05
2.45478e-05 -1.97239e-05 -0.000219707
0.00659374 5.7186e-05 0.000257761
5.7186e-05 0.00382523 -2.31006e-05
0.000257761 -2.31006e-05 0.00382478
0.00181749 0.000619197 3.01686e-08
0.000619197 0.000211572 5.61344e-06
3.01686e-08 5.61344e-06 -0.000104271
0.00160301 0.000571443 1.46715e-08
0.000571443 0.000229418 8.45158e-07
1.46715e-08 8.45158e-07 -0.000112593
0.00146971 0.000463753 -8.11465e-06
0.000463753 0.000237854 1.67396e-07
-8.11465e-06 1.67396e-07 -6.5979e-05
0.00152839 0.000571954 5.262e-07
0.000571954 0.000340169 -1.56467e-06
5.262e-07 -1.56467e-06 -3.72591e-05
0.00125186 0.000408842 -1.66241e-06
0.000408842 0.000213292 -3.00193e-08
-1.66241e-06 -3.00193e-08 -7.96873e-05
0.000972279 0.000239096 -1.14521e-05
0.000239096 0.000160369 -4.53425e-06
-1.14521e-05 -4.53425e-06 -5.28249e-05
0.00122206 0.000320391 7.01175e-07
0.000320391 0.000313386 -1.3932e-06
7.01175e-07 -1.3932e-06 5.5918e-05
0.00060082 0.000205307 5.86897e-07
0.000205307 1.79879e-05 1.72504e-06
5.86897e-07 1.72504e-06 -0.000204832
0.000431547 0.000181076 -2.69622e-05
0.000181076 -9.09495e-05 -1.83524e-05
-2.69622e-05 -1.83524e-05 -0.000194989
0.000110418 9.70255e-05 3.25443e-07
9.70255e-05 -0.000225858 4.47657e-06
3.25443e-07 4.47657e-06 -0.000439651
0.000553682 9.38087e-05 -1.18309e-06
9.38087e-05 5.75366e-06 -4.23993e-07
-1.18309e-06 -4.23993e-07 -7.84699e-05
0.00529098 -0.000163312 -0.000173317
-0.000163312 0.00306145 -1.58657e-05
-0.000173317 -1.58657e-05 0.00304256
0.000386137 5.71947e-05 1.12864e-05
5.71947e-05 -7.38797e-05 1.73185e-05
1.12864e-05 1.73185e-05 -0.000141032
0.00422444 -0.000170623 -9.68682e-06
-0.000170623 0.00238315 1.13383e-06
-9.68682e-06 1.13383e-06 0.0023669
0.00351996 -0.000156336 7.27243e-05
-0.000156336 0.00192701 5.88532e-06
7.27243e-05 5.88532e-06 0.00191581
0.00138704 0.000161105 2.94753e-05
0.000161105 -0.000365403 1.90468e-05
2.94753e-05 1.90468e-05 -0.000148949
0.00269216 0.000190513 -1.71411e-05
0.000190513 -0.00090035 -2.62834e-06
-1.71411e-05 -2.62834e-06 -0.000179265
0.00410261 0.000276276 0.000212943
0.000276276 -0.00164496 6.32722e-05
0.000212943 6.32722e-05 0.000136585
0.00264356 0.000766897 -7.63777e-06
0.000766897 0.000549805 1.64494e-08
-7.63777e-06 1.64494e-08 0.00025583
0.00173219 0.000730591 -6.18731e-06
0.000730591 0.000195078 -4.62639e-06
-6.18731e-06 -4.62639e-06 -0.000136892
0.00215963 0.000572528 9.30992e-07
0.000572528 0.000174464 4.47162e-06
9.30992e-07 4.47162e-06 -4.9549e-05
0.00213892 0.000696229 1.3388e-06
0.000696229 0.000293176 4.31527e-07
1.3388e-06 4.31527e-07 -8.73949e-06
0.00153859 0.000629511 9.37198e-07
0.000629511 0.000146342 -1.12079e-05
9.37198e-07 -1.12079e-05 -0.000191735
0.00203682 0.000616491 -2.2181e-06
0.000616491 1.36077e-05 8.34553e-07
-2.2181e-06 8.34553e-07 -0.00018953
0.00274741 0.000890442 -9.98246e-06
0.000890442 0.000904212 -3.55383e-06
-9.98246e-06 -3.55383e-06 0.000533215
0.00238918 0.00082661 2.826e-07
0.00082661 0.000400103 1.27238e-08
2.826e-07 1.27238e-08 9.17218e-05
0.00207214 0.000423209 -1.22337e-05
0.000423209 -0.00013387 -6.30692e-07
-1.22337e-05 -6.30692e-07 -0.000144898
0.0034647 0.00103371 -5.15159e-06
0.00103371 0.00104171 6.24805e-06
-5.15159e-06 6.24805e-06 0.000712591
0.00247162 0.000798401 3.56312e-07
0.000798401 0.000301806 -4.10613e-07
3.56312e-07 -4.10613e-07 6.74957e-05
0.000678161 0.0003856 3.4347e-07
0.0003856 -0.000601214 1.71143e-06
3.4347e-07 1.71143e-06 -0.0005477
-0.00113629 0.000491544 -2.44808e-05
0.000491544 -0.00133156 -9.04249e-06
-2.44808e-05 -9.04249e-06 -0.00148143
0.00383179 0.00100506 -0.00012245
0.00100506 0.000302444 -3.99387e-05
-0.00012245 -3.99387e-05 0.000394647
0.00212351 9.37294e-05 -9.68613e-07
9.37294e-05 -0.00019672 -2.29495e-07
-9.68613e-07 -2.29495e-07 -0.000103312
0.00263347 -7.97805e-05 8.46339e-06
-7.97805e-05 0.000406102 -6.1229e-07
8.46339e-06 -6.1229e-07 0.000511405
0.00278806 -0.000247978 -9.244e-05
-0.000247978 -0.000348992 6.65461e-06
-9.244e-05 6.65461e-06 2.18957e-06
0.00214538 -0.000357942 -7.13832e-05
-0.000357942 -0.000251964 6.47232e-06
-7.13832e-05 6.47232e-06 7.34979e-05
0.00133835 -0.000110431 -1.4306e-05
-0.000110431 -0.000448809 1.29354e-06
-1.4306e-05 1.29354e-06 -0.000404714
0.00241076 -0.0002446 1.3315e-06
-0.0002446 -5.41061e-05 -1.77059e-06
1.3315e-06 -1.77059e-06 0.000100212
0.00238939 4.28602e-06 -3.09991e-06
4.28602e-06 -3.83258e-05 1.1907e-06
-3.09991e-06 1.1907e-06 2.08067e-05
0.00237766 -7.68244e-05 1.07223e-06
-7.68244e-05 -6.76012e-05 -6.71706e-07
1.07223e-06 -6.71706e-07 2.20261e-05
0.00243819 -0.000457135 -6.56905e-06
-0.000457135 -0.000139047 1.14439e-06
-6.56905e-06 1.14439e-06 6.27819e-07
0.00229616 -0.000299744 3.74651e-07
-0.000299744 -9.19229e-05 -2.53078e-07
3.74651e-07 -2.53078e-07 -1.26811e-05
0.00221622 -0.000230898 4.95439e-07
-0.000230898 -2.30064e-05 -3.42543e-07
4.95439e-07 -3.42543e-07 1.86864e-05
0.00227003 -0.000415332 -3.10294e-07
-0.000415332 1.86187e-05 2.66021e-07
-3.10294e-07 2.66021e-07 1.93417e-05
0.00216429 -0.000345334 9.99638e-08
-0.000345334 1.84726e-05 1.87656e-07
9.99638e-08 1.87656e-07 -2.72584e-06
0.00207801 -0.000296467 -2.84e-06
-0.000296467 5.65879e-05 8.07939e-07
-2.84e-06 8.07939e-07 2.17646e-06
0.00209172 -0.000411753 2.09835e-06
-0.000411753 6.65784e-05 -1.06291e-06
2.09835e-06 -1.06291e-06 -1.65636e-05
0.0020423 -0.000376279 6.65522e-07
-0.000376279 9.47435e-05 -2.32821e-07
6.65522e-07 -2.32821e-07 -1.52032e-05
0.0020181 -0.000345434 -1.22549e-06
-0.000345434 0.000132688 -9.38231e-07
-1.22549e-06 -9.38231e-07 -1.74463e-06
0.0019909 -0.00042838 1.38804e-06
-0.00042838 0.000118828 -3.21928e-07
1.38804e-06 -3.21928e-07 -3.02738e-05
0.00204592 -0.000406734 -3.11498e-07
-0.000406734 0.000190767 -9.35034e-08
-3.11498e-07 -9.35034e-08 2.18123e-05
0.00183749 -0.000343991 -2.61056e-06
-0.000343991 0.000163292 -2.03273e-07
-2.61056e-06 -2.03273e-07 -3.31473e-05
0.002067 -0.000448329 4.71373e-07
-0.000448329 0.000247112 1.76979e-06
4.71373e-07 1.76979e-06 5.16693e-05
0.00181258 -0.000381462 -5.64892e-07
-0.000381462 0.000191398 9.56007e-08
-5.64892e-07 9.56007e-08 -2.93029e-05
0.00107177 -0.000225281 -1.50087e-05
-0.000225281 -2.43426e-05 6.24385e-06
-1.50087e-05 6.24385e-06 -0.000218765
0.00188593 -0.000422229 5.41503e-06
-0.000422229 0.000280295 -4.61485e-08
5.41503e-06 -4.61485e-08 3.69257e-05
0.00108083 -0.00025263 2.21847e-07
-0.00025263 -2.37113e-07 7.34389e-08
2.21847e-07 7.34389e-08 -0.000206267
0.00273684 -0.00018017 -4.89761e-05
-0.00018017 0.00128018 1.19338e-05
-4.89761e-05 1.19338e-05 0.00117664
0.00225757 -0.000102393 -0.00025944
-0.000102393 0.00106337 3.4967e-05
-0.00025944 3.4967e-05 0.0010443
0.00161158 -0.000207643 -1.32772e-05
-0.000207643 0.000588355 -1.33576e-08
-1.32772e-05 -1.33576e-08 0.000465192
0.000977626 -0.00027277 1.60025e-05
-0.00027277 -3.1543e-05 -6.62087e-06
1.60025e-05 -6.62087e-06 -0.000250352
0.00712501 -3.95069e-05 -7.78903e-06
-3.95069e-05 0.00412248 1.21623e-06
-7.78903e-06 1.21623e-06 0.00413091
0.000364502 -0.000251818 2.50514e-05
-0.000251818 -0.000173881 -1.86192e-05
2.50514e-05 -1.86192e-05 -0.000312591
0.007038 9.53151e-06 0.000285899
9.53151e-06 0.00408791 -2.73703e-05
0.000285899 -2.73703e-05 0.00408927
0.00214391 0.000440907 4.18086e-07
0.000440907 0.000158626 7.78895e-07
4.18086e-07 7.78895e-07 -8.80015e-06
0.00211387 0.000576826 3.30539e-06
0.000576826 0.000287739 5.33992e-06
3.30539e-06 5.33992e-06 2.92217e-05
0.0021002 0.000642225 2.22881e-07
0.000642225 0.000379715 2.08199e-07
2.22881e-07 2.08199e-07 6.34484e-05
0.00170648 0.000497411 -7.62525e-06
0.000497411 0.000271586 1.41788e-06
-7.62525e-06 1.41788e-06 -2.45438e-05
0.00170207 0.000589131 2.88654e-06
0.000589131 0.000291326 -3.31482e-06
2.88654e-06 -3.31482e-06 -5.30042e-05
0.00147546 0.000468164 -9.49062e-08
0.000468164 0.000232416 5.48595e-07
-9.49062e-08 5.48595e-07 -7.39518e-05
0.000851577 0.000262687 -1.35222e-05
0.000262687 -5.03452e-06 -5.62338e-06
-1.35222e-05 -5.62338e-06 -0.000219033
0.00127514 0.000404862 8.14749e-06
0.000404862 0.000235405 2.51768e-06
8.14749e-06 2.51768e-06 -5.50939e-05
0.000658604 0.000216857 1.22668e-06
0.000216857 -3.69578e-05 -2.54567e-08
1.22668e-06 -2.54567e-08 -0.000244108
0.000550073 0.000254847 -2.87268e-05
0.000254847 -3.11585e-05 -1.93797e-05
-2.87268e-05 -1.93797e-05 -0.000155085
0.000194508 0.000166972 3.81483e-06
0.000166972 -0.000246352 3.07105e-06
3.81483e-06 3.07105e-06 -0.000459558
0.000522171 0.00016523 9.74664e-07
0.00016523 -3.94714e-05 -8.29117e-07
9.74664e-07 -8.29117e-07 -0.000139171
0.00619345 -0.000139269 -0.000219893
-0.000139269 0.0036191 -2.22515e-05
-0.000219893 -2.22515e-05 0.00359841
0.000325659 8.45391e-05 1.70601e-05
8.45391e-05 -0.00013238 1.74122e-05
1.70601e-05 1.74122e-05 -0.00021112
0.00485943 -0.000185599 -7.7108e-06
-0.000185599 0.00278999 1.79002e-07
-7.7108e-06 1.79002e-07 0.00276745
0.00407593 -0.000186667 9.39689e-05
-0.000186667 0.00229371 7.97463e-06
9.39689e-05 7.97463e-06 0.0022732
0.00223273 0.000217499 -5.53267e-06
0.000217499 -0.000169177 -1.02721e-06
-5.53267e-06 -1.02721e-06 -5.20239e-05
0.00210415 0.000112526 2.22644e-05
0.000112526 -7.34374e-05 -2.97411e-06
2.22644e-05 -2.97411e-06 0.00017624
0.00571603 0.000290093 -0.00011387
0.000290093 0.000477613 -1.83201e-06
-0.00011387 -1.83201e-06 0.00123172
0.0021824 0.000525682 -3.06967e-06
0.000525682 0.000137461 1.28994e-06
-3.06967e-06 1.28994e-06 -4.72827e-05
0.00222864 0.000716289 -3.52084e-06
0.000716289 0.000340488 -2.66951e-07
-3.52084e-06 -2.66951e-07 5.48195e-05
0.00173832 0.000751631 -6.54438e-06
0.000751631 0.000178137 -1.05754e-05
-6.54438e-06 -1.05754e-05 -0.000152189
0.00228112 0.000567285 3.03395e-06
0.000567285 0.000266292 1.5152e-06
3.03395e-06 1.5152e-06 4.48256e-05
0.00212864 0.000685487 4.31412e-07
0.000685487 0.000289349 -4.6296e-06
4.31412e-07 -4.6296e-06 -9.62156e-06
0.00240549 0.000419593 -2.76871e-07
0.000419593 3.14964e-05 1.63706e-07
-2.76871e-07 1.63706e-07 1.25262e-05
0.002102 0.000627397 -6.58616e-07
0.000627397 6.86539e-05 3.17158e-07
-6.58616e-07 3.17158e-07 -0.000134574
0.00280871 0.000851031 -5.86138e-06
0.000851031 0.000658839 -1.80192e-06
-5.86138e-06 -1.80192e-06 0.000338729
0.0020306 0.000412829 -4.44374e-08
0.000412829 -0.000138852 -3.6822e-07
-4.44374e-08 -3.6822e-07 -0.000148276
0.00219041 0.000772164 1.21427e-05
0.000772164 0.000133026 3.09157e-06
1.21427e-05 3.09157e-06 -0.000100753
3.46466e-05 0.000345675 -3.8858e-05
0.000345675 -0.000958608 -1.93595e-05
-3.8858e-05 -1.93595e-05 -0.000894306
0.00237444 8.82354e-05 1.06111e-06
8.82354e-05 -2.45546e-05 3.27965e-07
1.06111e-06 3.27965e-07 4.53106e-05
0.00227959 0.000103218 -1.84937e-06
0.000103218 -8.30055e-05 2.54705e-07
-1.84937e-06 2.54705e-07 2.63335e-06
0.00353182 -8.23226e-05 -4.8361e-05
-8.23226e-05 0.00103693 1.94489e-06
-4.8361e-05 1.94489e-06 0.00110094
0.00240743 -0.000243781 -2.27436e-05
-0.000243781 -7.89196e-05 1.93164e-06
-2.27436e-05 1.93164e-06 9.70867e-05
0.00244201 1.04033e-05 -7.23915e-06
1.04033e-05 -4.05013e-05 -4.5745e-06
-7.23915e-06 -4.5745e-06 2.35255e-05
0.00234859 -8.48009e-05 -2.94798e-07
-8.48009e-05 -0.000100972 9.14669e-08
-2.94798e-07 9.14669e-08 -4.33518e-06
0.00210093 -7.05729e-05 4.65285e-07
-7.05729e-05 -2.96436e-05 9.8366e-08
4.65285e-07 9.8366e-08 5.29455e-07
0.00225132 -0.000287895 -5.52536e-07
-0.000287895 -9.94007e-05 5.07658e-07
-5.52536e-07 5.07658e-07 -2.90479e-05
0.00217127 -0.000235645 -1.97626e-07
-0.000235645 -4.3524e-05 2.60228e-08
-1.97626e-07 2.60228e-08 -8.21308e-06
0.00205358 -0.000197698 -2.09283e-06
-0.000197698 1.83355e-05 1.97876e-07
-2.09283e-06 1.97876e-07 -2.15855e-06
0.00216131 -0.000342303 8.66479e-07
-0.000342303 2.10237e-05 1.85e-08
8.66479e-07 1.85e-08 -1.42328e-06
0.00208831 -0.000297291 3.41023e-07
-0.000297291 5.87087e-05 -5.36187e-09
3.41023e-07 -5.36187e-09 3.93408e-06
0.00207717 -0.000282155 -2.33597e-06
-0.000282155 0.000126568 -2.31795e-07
-2.33597e-06 -2.31795e-07 2.55699e-05
0.0020267 -0.000374097 2.68899e-06
-0.000374097 8.27386e-05 -9.18807e-07
2.68899e-06 -9.18807e-07 -2.72264e-05
0.00203189 -0.000346982 -2.64876e-07
-0.000346982 0.000138168 -8.95567e-08
-2.64876e-07 -8.95567e-08 3.1823e-06
0.00185459 -0.00029578 -2.12492e-06
-0.00029578 0.000138178 -4.21337e-07
-2.12492e-06 -4.21337e-07 -3.28004e-05
0.00209069 -0.000409307 9.36089e-07
-0.000409307 0.000220055 1.02242e-06
9.36089e-07 1.02242e-06 5.06163e-05
0.00186291 -0.000345838 -3.97081e-07
-0.000345838 0.000178691 7.25972e-08
-3.97081e-07 7.25972e-08 -1.75883e-05
0.00107966 -0.000201133 -1.37122e-05
-0.000201133 -3.87753e-05 5.01304e-06
-1.37122e-05 5.01304e-06 -0.000223365
0.00184664 -0.000383563 3.3623e-06
-0.000383563 0.000213373 -5.85413e-08
3.3623e-06 -5.85413e-08 -7.19236e-06
0.00111272 -0.000226332 1.06557e-08
-0.000226332 -4.6935e-06 1.9856e-07
1.06557e-08 1.9856e-07 -0.000198239
0.00275606 -0.000175599 -5.73098e-05
-0.000175599 0.00128326 1.16129e-05
-5.73098e-05 1.16129e-05 0.00118804
0.00110026 -0.000253305 1.63964e-05
-0.000253305 8.7691e-06 -6.71948e-06
1.63964e-05 -6.71948e-06 -0.000196685
0.00288783 -0.000219651 4.89635e-05
-0.000219651 0.00137513 -7.66456e-06
4.89635e-05 -7.66456e-06 0.00127929
0.00223263 -0.000136992 -0.000256166
-0.000136992 0.00105478 3.96905e-05
-0.000256166 3.96905e-05 0.00103328
0.00456518 -0.00011479 -0.000252605
-0.00011479 0.00252438 2.5999e-05
-0.000252605 2.5999e-05 0.00251827
0.0029621 -0.000278578 0.000161548
-0.000278578 0.00143674 -2.58376e-05
0.000161548 -2.58376e-05 0.00134014
0.00718564 -5.333e-05 0.000298772
-5.333e-05 0.00416877 -3.16322e-05
0.000298772 -3.16322e-05 0.004173
0.00231021 0.000435865 -1.81281e-06
0.000435865 0.000250311 -4.71035e-07
-1.81281e-06 -4.71035e-07 0.00010618
0.00190939 0.000444962 1.98477e-06
0.000444962 0.000118366 1.64053e-06
1.98477e-06 1.64053e-06 -8.05756e-05
0.00213528 0.000431053 2.8262e-07
0.000431053 0.000160914 -1.55076e-06
2.8262e-07 -1.55076e-06 4.05148e-07
0.00185339 0.000475914 -6.10228e-06
0.000475914 0.000249389 1.69095e-06
-6.10228e-06 1.69095e-06 -1.53388e-05
0.00218919 0.000584042 6.80901e-07
0.000584042 0.000320421 2.86094e-07
6.80901e-07 2.86094e-07 6.0864e-05
0.00237074 0.000665187 2.32882e-07
0.000665187 0.00054078 -4.76678e-06
2.32882e-07 -4.76678e-06 0.000224003
0.00167241 0.000498705 1.9287e-07
0.000498705 0.000243688 6.51709e-07
1.9287e-07 6.51709e-07 -5.47378e-05
0.00094086 0.00028674 -1.77638e-05
0.00028674 -4.30388e-05 -5.75013e-06
-1.77638e-05 -5.75013e-06 -0.000261742
0.00146855 0.000470915 9.48497e-06
0.000470915 0.000220236 1.40446e-06
9.48497e-06 1.40446e-06 -8.83623e-05
0.000781007 0.000253087 -8.36753e-07
0.000253087 -4.48951e-05 -1.68192e-07
-8.36753e-07 -1.68192e-07 -0.000254882
0.000433267 0.000254865 -2.58244e-05
0.000254865 -0.000113433 -1.9902e-05
-2.58244e-05 -1.9902e-05 -0.000251288
0.000302514 0.00019162 8.88814e-06
0.00019162 -0.000256049 2.17345e-06
8.88814e-06 2.17345e-06 -0.000457292
0.000322524 0.000208858 3.12171e-06
0.000208858 -0.000172593 3.70733e-07
3.12171e-06 3.70733e-07 -0.000291445
0.00686387 -5.55054e-05 -0.000262823
-5.55054e-05 0.00400641 -2.73836e-05
-0.000262823 -2.73836e-05 0.00399607
0.00038418 0.000125202 2.22804e-05
0.000125202 -0.000122637 1.72585e-05
2.22804e-05 1.72585e-05 -0.000217992
0.00585228 -0.000162411 4.01969e-06
-0.000162411 0.00340142 -2.08772e-06
4.01969e-06 -2.08772e-06 0.00338199
0.00469229 -0.000220328 0.00011467
-0.000220328 0.00269831 1.06802e-05
0.00011467 1.06802e-05 0.00266623
0.00238202 0.000253936 1.70154e-07
0.000253936 -3.04467e-05 5.88878e-07
1.70154e-07 5.88878e-07 3.56458e-05
0.0021678 0.000224149 1.71556e-06
0.000224149 -0.000187419 -1.80955e-08
1.71556e-06 -1.80955e-08 -7.1514e-05
0.00259708 7.14946e-05 -7.82383e-05
7.14946e-05 0.00010536 -9.31249e-06
-7.82383e-05 -9.31249e-06 0.000388936
0.00214499 0.000373768 6.68141e-07
0.000373768 6.59159e-06 2.33704e-07
6.68141e-07 2.33704e-07 -6.02898e-05
0.00216919 0.000521047 -8.48981e-07
0.000521047 0.000153017 3.05401e-07
-8.48981e-07 3.05401e-07 -2.94443e-05
0.00173396 0.000656444 5.58164e-06
0.000656444 8.5701e-05 -2.59874e-06
5.58164e-06 -2.59874e-06 -0.00018982
0.00240112 0.000561724 -6.81032e-07
0.000561724 0.000357528 -2.78159e-06
-6.81032e-07 -2.78159e-06 0.000138724
0.00235333 0.00040345 -8.99685e-07
0.00040345 1.70812e-05 2.80127e-08
-8.99685e-07 2.80127e-08 -6.90698e-07
0.00218422 0.000640404 -2.6818e-06
0.000640404 0.000132765 -1.7536e-08
-2.6818e-06 -1.7536e-08 -7.10169e-05
0.00194557 0.000400816 1.17551e-05
0.000400816 -0.000137672 3.51483e-07
1.17551e-05 3.51483e-07 -0.000146291
0.00217299 6.85197e-05 1.99714e-06
6.85197e-05 -1.17269e-05 3.84538e-07
1.99714e-06 3.84538e-07 1.84276e-05
0.00229123 8.27867e-05 7.03766e-08
8.27867e-05 -6.35909e-05 2.28152e-09
7.03766e-08 2.28152e-09 4.92028e-06
0.00241818 0.000118619 -8.91981e-06
0.000118619 2.3704e-05 -1.13273e-06
-8.91981e-06 -1.13273e-06 0.000100467
0.00203243 -1.26671e-05 -3.0084e-06
-1.26671e-05 1.2338e-05 3.62951e-07
-3.0084e-06 3.62951e-07 1.51209e-05
0.00230688 -9.89843e-05 -5.6905e-07
-9.89843e-05 -0.000142 -5.60056e-07
-5.6905e-07 -5.60056e-07 -3.75557e-05
0.00211527 -7.36532e-05 -7.2485e-07
-7.36532e-05 -2.53578e-05 2.54821e-07
-7.2485e-07 2.54821e-07 5.00431e-06
0.00197838 -0.000108207 -3.45259e-06
-0.000108207 -1.65209e-05 3.98897e-07
-3.45259e-06 3.98897e-07 -2.95802e-05
0.00212365 -0.000240113 6.3679e-08
-0.000240113 -6.56545e-05 2.97922e-07
6.3679e-08 2.97922e-07 -3.69951e-05
0.00205445 -0.000196448 1.0784e-06
-0.000196448 1.77779e-05 -3.00649e-07
1.0784e-06 -3.00649e-07 -2.24798e-06
0.00208795 -0.000200538 -7.89675e-07
-0.000200538 0.000107579 1.15591e-07
-7.89675e-07 1.15591e-07 3.6422e-05
0.00210141 -0.000297725 3.07384e-06
-0.000297725 6.26671e-05 -7.75475e-07
3.07384e-06 -7.75475e-07 7.60905e-06
0.00202844 -0.000277395 -1.87006e-07
-0.000277395 9.63215e-05 -3.0109e-07
-1.87006e-07 -3.0109e-07 -4.10965e-06
0.00182965 -0.000233693 -1.62018e-06
-0.000233693 9.93949e-05 -3.8228e-07
-1.62018e-06 -3.8228e-07 -4.65479e-05
0.00204469 -0.000348302 1.96607e-06
-0.000348302 0.000143631 4.68963e-07
1.96607e-06 4.68963e-07 8.14318e-06
0.00186968 -0.000295981 -3.25192e-07
-0.000295981 0.00014844 -3.10926e-08
-3.25192e-07 -3.10926e-08 -2.21685e-05
0.00108939 -0.000174084 -1.31506e-05
-0.000174084 -4.97804e-05 3.85837e-06
-1.31506e-05 3.85837e-06 -0.000223495
0.00188504 -0.000347355 1.69345e-06
-0.000347355 0.00019223 2.59205e-07
1.69345e-06 2.59205e-07 -3.83681e-06
0.00113026 -0.000201442 -1.83485e-07
-0.000201442 -1.25223e-05 2.35973e-07
-1.83485e-07 2.35973e-07 -0.000195797
0.00272226 -0.000168997 -6.45049e-05
-0.000168997 0.00126239 1.11778e-05
-6.45049e-05 1.11778e-05 0.00117085
0.00114359 -0.000227071 1.46646e-05
-0.000227071 7.96335e-06 -5.85854e-06
1.46646e-05 -5.85854e-06 -0.000184675
0.00283896 -0.00019794 4.474e-05
-0.00019794 0.0013355 -6.04128e-06
4.474e-05 -6.04128e-06 0.0012476
0.00225499 -0.000116719 -0.000250128
-0.000116719 0.00106007 3.47558e-05
-0.000250128 3.47558e-05 0.00104113
0.00300251 -0.000227514 0.000154957
-0.000227514 0.00144181 -2.68875e-05
0.000154957 -2.68875e-05 0.00135588
0.0018767 -7.42008e-05 -0.00010408
-7.42008e-05 0.000833403 1.51991e-05
-0.00010408 1.51991e-05 0.000799074
0.00667618 1.22318e-05 9.10671e-05
1.22318e-05 0.00383045 -4.36612e-06
9.10671e-05 -4.36612e-06 0.00381125
0.00211658 0.00037195 -5.49929e-07
0.00037195 9.18771e-05 -6.96803e-08
-5.49929e-07 -6.96803e-08 -1.68565e-05
0.00215477 0.00041153 -1.18043e-06
0.00041153 0.000210757 -5.36239e-07
-1.18043e-06 -5.36239e-07 4.66523e-05
0.00226896 0.000436374 -3.70823e-06
0.000436374 0.000214634 -1.54207e-07
-3.70823e-06 -1.54207e-07 6.87632e-05
0.00190092 0.000410544 -2.84701e-06
0.000410544 0.00021172 3.98087e-07
-2.84701e-06 3.98087e-07 -1.46072e-05
0.00190255 0.000451814 -9.06645e-07
0.000451814 9.51866e-05 -2.24439e-06
-9.06645e-07 -2.24439e-06 -0.000100623
0.00212764 0.000421532 -4.32532e-06
0.000421532 0.000163964 -4.2448e-06
-4.32532e-06 -4.2448e-06 1.03213e-05
0.00111876 0.000286436 -2.05446e-05
0.000286436 7.04035e-06 -6.1994e-06
-2.05446e-05 -6.1994e-06 -0.000204918
0.00176619 0.000468687 1.05422e-06
0.000468687 0.000194491 3.50504e-07
1.05422e-06 3.50504e-07 -6.98086e-05
0.00226284 0.000590667 1.73691e-06
0.000590667 0.000350934 -4.21352e-06
1.73691e-06 -4.21352e-06 9.04967e-05
0.00162085 0.000498359 8.9169e-06
0.000498359 0.000204914 2.08984e-08
8.9169e-06 2.08984e-08 -9.54243e-05
0.000972515 0.000284016 -1.33592e-06
0.000284016 -1.32013e-05 3.5069e-08
-1.33592e-06 3.5069e-08 -0.000230161
0.000338179 0.000247494 -2.55487e-05
0.000247494 -0.000186482 -1.81004e-05
-2.55487e-05 -1.81004e-05 -0.000324365
0.00078191 0.000247673 1.35559e-05
0.000247673 -4.15341e-05 6.17583e-06
1.35559e-05 6.17583e-06 -0.000247839
0.000376614 0.000243412 2.08981e-06
0.000243412 -0.000143022 8.89324e-07
2.08981e-06 8.89324e-07 -0.000280936
0.00717402 3.46804e-05 -0.000286486
3.46804e-05 0.0041832 -3.43843e-05
-0.000286486 -3.43843e-05 0.00417535
0.000393258 0.000190518 2.45601e-05
0.000190518 -0.000133629 1.96255e-05
2.45601e-05 1.96255e-05 -0.00024981
0.00663503 -9.68415e-05 4.15963e-06
-9.68415e-05 0.00386087 -8.14139e-07
4.15963e-06 -8.14139e-07 0.00385165
0.00539631 -0.000195051 0.00015383
-0.000195051 0.00312122 1.03862e-05
0.00015383 1.03862e-05 0.00309653
0.00214371 0.0002026 -2.20809e-07
0.0002026 -1.34084e-05 -2.68368e-07
-2.20809e-07 -2.68368e-07 5.37566e-07
0.00234739 0.000257335 -9.93605e-08
0.000257335 -5.84418e-05 5.34596e-07
-9.93605e-08 5.34596e-07 9.74075e-06
0.00216688 0.000229168 3.40997e-06
0.000229168 -0.000187753 -5.39339e-08
3.40997e-06 -5.39339e-08 -7.20437e-05
0.00218768 0.000370837 -2.67648e-07
0.000370837 3.79257e-05 9.80092e-08
-2.67648e-07 9.80092e-08 -2.59092e-05
0.00214336 0.000514792 3.56689e-07
0.000514792 0.00016394 -6.8221e-07
3.56689e-07 -6.8221e-07 -1.59399e-05
0.00232681 0.000389382 1.76873e-06
0.000389382 1.15735e-05 -1.23802e-07
1.76873e-06 -1.23802e-07 -5.28745e-06
0.00204685 6.31029e-05 -1.02507e-06
6.31029e-05 -5.81496e-06 2.49497e-07
-1.02507e-06 2.49497e-07 -1.49551e-06
0.00215628 6.33253e-05 2.97589e-07
6.33253e-05 -1.98371e-05 -1.26412e-07
2.97589e-07 -1.26412e-07 9.68775e-06
0.0022173 7.72812e-05 -1.1953e-06
7.72812e-05 -9.78787e-05 -2.38577e-07
-1.1953e-06 -2.38577e-07 -3.01428e-05
0.00201854 -1.1147e-05 -8.98962e-07
-1.1147e-05 1.11473e-06 4.93562e-08
-8.98962e-07 4.93562e-08 3.33068e-06
0.00201239 -3.71028e-05 -6.30922e-06
-3.71028e-05 4.42104e-05 5.69347e-07
-6.30922e-06 5.69347e-07 2.66545e-05
0.00213199 -7.65156e-05 -2.36997e-07
-7.65156e-05 -1.99673e-05 2.66296e-07
-2.36997e-07 2.66296e-07 1.08042e-05
0.00200566 -0.000108113 -1.47992e-06
-0.000108113 6.61053e-06 2.21221e-07
-1.47992e-06 2.21221e-07 -9.211e-06
0.00197424 -0.000124142 -5.56861e-06
-0.000124142 2.63203e-05 8.14198e-07
-5.56861e-06 8.14198e-07 -2.44133e-05
0.00205472 -0.00019561 4.22543e-06
-0.00019561 1.71954e-05 -8.27919e-07
4.22543e-06 -8.27919e-07 -2.46954e-06
0.00202851 -0.000198584 2.89976e-06
-0.000198584 7.21063e-05 -6.68372e-07
2.89976e-06 -6.68372e-07 1.0144e-06
0.0018614 -0.000170857 1.45256e-06
-0.000170857 0.00010144 -1.06217e-06
1.45256e-06 -1.06217e-06 -2.35282e-05
0.00196476 -0.000273732 2.60624e-06
-0.000273732 5.53811e-05 -4.96121e-07
2.60624e-06 -4.96121e-07 -4.48117e-05
0.00187278 -0.000236569 -1.73129e-07
-0.000236569 0.000123265 -2.48147e-08
-1.73129e-07 -2.48147e-08 -2.27475e-05
0.00111094 -0.00014061 -1.25903e-05
-0.00014061 -4.74733e-05 2.66095e-06
-1.25903e-05 2.66095e-06 -0.000208163
0.00188952 -0.000296662 1.11133e-06
-0.000296662 0.000160525 3.25862e-07
1.11133e-06 3.25862e-07 -9.78635e-06
0.00113591 -0.000173299 -3.3085e-07
-0.000173299 -2.29697e-05 2.89812e-07
-3.3085e-07 2.89812e-07 -0.000195408
0.00264766 -0.000170015 -6.66918e-05
-0.000170015 0.0012177 9.69237e-06
-6.66918e-05 9.69237e-06 0.00112876
0.00116701 -0.000201326 1.33624e-05
-0.000201326 5.06042e-06 -4.63114e-06
1.33624e-05 -4.63114e-06 -0.000176908
0.00278218 -0.000169711 4.27421e-05
-0.000169711 0.0012949 -4.62132e-06
4.27421e-05 -4.62132e-06 0.00121234
0.002252 -9.70159e-05 -0.000247702
-9.70159e-05 0.00105162 2.91189e-05
-0.000247702 2.91189e-05 0.00103418
0.00293097 -0.000190996 0.000151502
-0.000190996 0.00138543 -2.29128e-05
0.000151502 -2.29128e-05 0.00130843
0.00187655 -7.72108e-05 -9.44051e-05
-7.72108e-05 0.000827939 1.21644e-05
-9.44051e-05 1.21644e-05 0.000796073
0.00158229 -7.17335e-05 6.06139e-05
-7.17335e-05 0.000660335 -9.41549e-06
6.06139e-05 -9.41549e-06 0.000609415
0.00209525 0.000242119 -1.70433e-06
0.000242119 3.58401e-05 -4.43528e-07
-1.70433e-06 -4.43528e-07 -7.9996e-06
0.00211998 0.000338746 -2.34997e-06
0.000338746 0.000157385 4.6641e-07
-2.34997e-06 4.6641e-07 2.95408e-05
0.00213664 0.000375827 -3.84259e-07
0.000375827 8.42681e-05 -4.84252e-08
-3.84259e-07 -4.84252e-08 -1.6636e-05
0.00199625 0.000374438 1.06297e-07
0.000374438 0.000216157 7.08342e-07
1.06297e-07 7.08342e-07 2.31244e-05
0.00211734 0.000405919 -1.17279e-06
0.000405919 0.000196112 -5.64091e-07
-1.17279e-06 -5.64091e-07 3.15762e-05
0.0022294 0.000437415 1.26872e-06
0.000437415 0.000179728 7.63093e-08
1.26872e-06 7.63093e-08 3.19539e-05
0.00120391 0.000255124 -1.83872e-05
0.000255124 2.25489e-05 -5.92622e-06
-1.83872e-05 -5.92622e-06 -0.000173295
0.0018511 0.000412654 2.23555e-06
0.000412654 0.000172952 -8.65181e-08
2.23555e-06 -8.65181e-08 -4.94957e-05
0.00190408 0.000459151 -2.0977e-06
0.000459151 7.78013e-05 -4.46988e-06
-2.0977e-06 -4.46988e-06 -0.000114925
0.000314062 0.000187776 -2.26259e-05
0.000187776 -0.000225955 -1.51331e-05
-2.26259e-05 -1.51331e-05 -0.000351172
0.00109245 0.000282335 -7.26303e-07
0.000282335 -7.76862e-06 8.97107e-09
-7.26303e-07 8.97107e-09 -0.000218912
0.00171671 0.000465189 8.12562e-06
0.000465189 0.000161868 -1.06083e-06
8.12562e-06 -1.06083e-06 -0.000102725
0.000951048 0.000278626 1.79927e-05
0.000278626 -1.67905e-05 6.97637e-06
1.79927e-05 6.97637e-06 -0.000232113
0.000362991 0.000231898 6.78163e-07
0.000231898 -0.00016867 1.13871e-06
6.78163e-07 1.13871e-06 -0.000307931
0.00721898 0.000135006 -0.000296841
0.000135006 0.00419335 -3.85812e-05
-0.000296841 -3.85812e-05 0.00418824
0.000313879 0.000226216 2.21599e-05
0.000226216 -0.000179895 1.88152e-05
2.21599e-05 1.88152e-05 -0.000315619
0.00703759 4.52681e-06 7.35529e-06
4.52681e-06 0.00408564 1.10241e-07
7.35529e-06 1.10241e-07 0.00408546
0.00640603 -0.000128359 0.000215411
-0.000128359 0.00371559 1.26862e-05
0.000215411 1.26862e-05 0.00370622
0.00206603 0.000127213 -3.55253e-06
0.000127213 2.4102e-05 -8.61113e-07
-3.55253e-06 -8.61113e-07 2.05148e-05
0.00214939 0.000207003 7.77641e-07
0.000207003 -1.18252e-05 3.34859e-07
7.77641e-07 3.34859e-07 6.72138e-09
0.00230147 0.000261112 -4.13453e-07
0.000261112 -8.95575e-05 -7.64449e-07
-4.13453e-07 -7.64449e-07 -1.97996e-05
0.00222802 0.000366754 2.18432e-06
0.000366754 6.76069e-05 6.3662e-08
2.18432e-06 6.3662e-08 7.12015e-06
0.00197974 1.79187e-05 -6.21186e-06
1.79187e-05 4.42484e-05 2.61417e-07
-6.21186e-06 2.61417e-07 1.46064e-05
0.00203064 5.35871e-05 -1.14385e-08
5.35871e-05 -1.45977e-05 3.91776e-08
-1.14385e-08 3.91776e-08 -1.07185e-05
0.00213852 5.80206e-05 -1.16462e-06
5.80206e-05 -2.78857e-05 -2.14309e-07
-1.16462e-06 -2.14309e-07 4.17466e-07
0.00200284 -8.58377e-06 3.43282e-07
-8.58377e-06 -1.087e-05 -5.50579e-07
3.43282e-07 -5.50579e-07 -9.47615e-06
0.00200992 -3.13176e-05 -6.96386e-07
-3.13176e-05 3.92934e-05 -1.69016e-07
-6.96386e-07 -1.69016e-07 2.28896e-05
0.00188402 -5.29532e-05 -4.33917e-06
-5.29532e-05 -1.53978e-05 2.98126e-07
-4.33917e-06 2.98126e-07 -6.97022e-05
0.00203199 -0.00010816 3.67013e-06
-0.00010816 2.90943e-05 -2.49029e-07
3.67013e-06 -2.49029e-07 1.0179e-05
0.00198442 -0.000124879 -2.10192e-06
-0.000124879 4.14991e-05 4.5994e-07
-2.10192e-06 4.5994e-07 -1.61112e-05
0.00190493 -0.000111988 -1.17431e-06
-0.000111988 0.00011225 -3.5146e-07
-1.17431e-06 -3.5146e-07 1.01882e-05
0.00198392 -0.000195767 6.68254e-06
-0.000195767 4.61488e-05 -1.41244e-06
6.68254e-06 -1.41244e-06 -2.45944e-05
0.00188705 -0.000170018 1.96391e-06
-0.000170018 0.000112718 -5.61435e-07
1.96391e-06 -5.61435e-07 -1.17404e-05
0.00111451 -0.000104063 -1.22261e-05
-0.000104063 -4.81307e-05 1.73798e-06
-1.22261e-05 1.73798e-06 -0.000196317
0.00193361 -0.000237593 1.27291e-06
-0.000237593 0.000160227 2.6299e-07
1.27291e-06 2.6299e-07 1.46658e-05
0.00112283 -0.000139579 -1.69398e-07
-0.000139579 -3.90572e-05 2.0404e-07
-1.69398e-07 2.0404e-07 -0.000198913
0.000405239 -8.97827e-05 -1.98453e-05
-8.97827e-05 -0.000203368 5.81231e-06
-1.98453e-05 5.81231e-06 -0.000299914
0.00118332 -0.000172378 1.30039e-05
-0.000172378 4.86332e-06 -3.39133e-06
1.30039e-05 -3.39133e-06 -0.000166213
0.00158565 -0.000111605 6.33232e-05
-0.000111605 0.000537942 -4.8329e-06
6.33232e-05 -4.8329e-06 0.00045273
0.00660647 -0.000164833 -0.0003297
-0.000164833 0.00379311 2.45196e-05
-0.0003297 2.45196e-05 0.00381111
0.00288478 -0.000153876 0.000148784
-0.000153876 0.00134833 -1.8077e-05
0.000148784 -1.8077e-05 0.00127716
0.00188095 -7.58529e-05 -8.55101e-05
-7.58529e-05 0.000829638 7.91439e-06
-8.55101e-05 7.91439e-06 0.000797768
0.00150849 -9.73209e-05 7.27422e-05
-9.73209e-05 0.000618497 -1.12086e-05
7.27422e-05 -1.12086e-05 0.000566327
0.0020327 0.000171009 -3.94944e-06
0.000171009 3.87872e-05 -9.90679e-07
-3.94944e-06 -9.90679e-07 9.88459e-07
0.00214263 0.000261436 -1.40205e-06
0.000261436 0.000154007 6.49144e-07
-1.40205e-06 6.49144e-07 6.18745e-05
0.00208328 0.000235342 9.32481e-08
0.000235342 3.70424e-05 1.28288e-07
9.32481e-08 1.28288e-07 -1.16953e-05
0.00199165 0.000301644 1.22113e-07
0.000301644 0.000194638 1.38121e-06
1.22113e-07 1.38121e-06 3.58828e-05
0.00203818 0.00033322 1.06876e-06
0.00033322 0.000108695 1.69515e-07
1.06876e-06 1.69515e-07 -1.88848e-05
0.00215611 0.000380128 7.71933e-07
0.000380128 7.61417e-05 2.79486e-07
7.71933e-07 2.79486e-07 -1.7138e-05
0.00119494 0.000223584 -1.51662e-05
0.000223584 -2.86929e-06 -4.05594e-06
-1.51662e-05 -4.05594e-06 -0.000181705
0.00199922 0.000371601 2.25631e-06
0.000371601 0.000218074 6.30766e-07
2.25631e-06 6.30766e-07 2.6152e-05
0.00206869 0.00039945 -5.01182e-07
0.00039945 0.000175042 -1.63817e-06
-5.01182e-07 -1.63817e-06 1.01699e-05
0.000309698 0.000134096 -1.94577e-05
0.000134096 -0.00025001 -1.16704e-05
-1.94577e-05 -1.16704e-05 -0.000361062
0.0011185 0.000251313 3.88279e-07
0.000251313 -2.97566e-05 4.37127e-07
3.88279e-07 4.37127e-07 -0.000223914
0.00178152 0.000412856 6.92397e-06
0.000412856 0.000121738 -1.2641e-06
6.92397e-06 -1.2641e-06 -9.64561e-05
0.00701413 0.000210578 -0.000303793
0.000210578 0.00405306 -3.8172e-05
-0.000303793 -3.8172e-05 0.00405293
0.000293391 0.000180602 3.44844e-07
0.000180602 -0.000238454 8.09956e-07
3.44844e-07 8.09956e-07 -0.000364356
0.00105317 0.000275706 2.1299e-05
0.000275706 -2.70998e-05 6.95087e-06
2.1299e-05 6.95087e-06 -0.000236697
0.000281889 0.00021232 2.10586e-05
0.00021232 -0.000214692 1.77988e-05
2.10586e-05 1.77988e-05 -0.00035461
0.00712128 0.000126461 1.00493e-05
0.000126461 0.00412671 1.21207e-06
1.00493e-05 1.21207e-06 0.00412842
0.00691122 -3.02365e-05 0.000267529
-3.02365e-05 0.00399763 1.82154e-05
0.000267529 1.82154e-05 0.00400223
0.00194458 7.02793e-05 -8.10144e-06
7.02793e-05 2.03928e-05 -4.03975e-07
-8.10144e-06 -4.03975e-07 -1.29724e-05
0.0020557 0.000123844 1.2881e-07
0.000123844 1.78007e-05 -5.26496e-09
1.2881e-07 -5.26496e-09 1.34274e-05
0.00215741 0.000211518 6.79407e-07
0.000211518 -9.0182e-06 3.09082e-07
6.79407e-07 3.09082e-07 1.05662e-06
0.00192946 6.30542e-06 -5.23187e-06
6.30542e-06 3.19237e-05 -2.88769e-07
-5.23187e-06 -2.88769e-07 -2.82305e-05
0.00196392 2.28983e-05 2.90712e-07
2.28983e-05 3.13342e-05 7.2232e-08
2.90712e-07 7.2232e-08 4.32815e-06
0.00201735 4.30437e-05 3.45449e-07
4.30437e-05 -2.17766e-05 -2.60014e-07
3.45449e-07 -2.60014e-07 -1.82693e-05
0.00200919 -2.62641e-05 3.92989e-06
-2.62641e-05 3.50004e-05 -3.78477e-07
3.92989e-06 -3.78477e-07 2.02357e-05
0.00193772 -5.15491e-05 -1.4461e-06
-5.15491e-05 2.19549e-05 2.59787e-07
-1.4461e-06 2.59787e-07 -3.1087e-05
0.00185657 -5.23239e-05 7.45811e-07
-5.23239e-05 9.42086e-05 -5.36808e-07
7.45811e-07 -5.36808e-07 -5.82367e-06
0.00201326 -0.000125707 9.72066e-07
-0.000125707 6.95403e-05 -1.35137e-08
9.72066e-07 -1.35137e-08 5.57015e-06
0.00188995 -0.0001133 4.80421e-07
-0.0001133 0.000107534 1.95517e-08
4.80421e-07 1.95517e-08 -1.62174e-06
0.00112617 -6.28155e-05 -1.2503e-05
-6.28155e-05 -4.17932e-05 8.2626e-07
-1.2503e-05 8.2626e-07 -0.000173993
0.00189098 -0.000170861 2.75386e-06
-0.000170861 0.000109682 -1.75598e-07
2.75386e-06 -1.75598e-07 -1.47575e-05
0.00111227 -9.98199e-05 -6.73655e-08
-9.98199e-05 -4.80841e-05 4.40623e-08
-6.73655e-08 4.40623e-08 -0.000195289
0.000415522 -2.40003e-05 -1.84357e-05
-2.40003e-05 -0.000199612 3.36993e-06
-1.84357e-05 3.36993e-06 -0.000289461
0.00116819 -0.000138495 1.24636e-05
-0.000138495 -1.17001e-05 -2.32157e-06
1.24636e-05 -2.32157e-06 -0.000170483
0.000413734 -7.4786e-05 -1.40682e-07
-7.4786e-05 -0.000196836 4.66075e-07
-1.40682e-07 4.66075e-07 -0.00029392
0.00651528 -5.56948e-05 -0.000318675
-5.56948e-05 0.00373073 1.51802e-05
-0.000318675 1.51802e-05 0.00375376
0.000455169 -7.6867e-05 1.4558e-05
-7.6867e-05 -0.000174239 -7.74581e-06
1.4558e-05 -7.74581e-06 -0.00027677
0.0041455 -0.000107439 0.000141182
-0.000107439 0.00225428 -7.39645e-06
0.000141182 -7.39645e-06 0.00223813
0.00146919 -9.0078e-05 7.85705e-05
-9.0078e-05 0.000593467 -1.0914e-05
7.85705e-05 -1.0914e-05 0.000542016
0.00204269 0.000131465 -8.09473e-06
0.000131465 8.10634e-05 -9.87497e-07
-8.09473e-06 -9.87497e-07 3.853e-05
0.0021089 0.000193496 -2.21864e-06
0.000193496 0.000142667 6.71776e-07
-2.21864e-06 6.71776e-07 6.42759e-05
0.00201072 0.000165145 -6.14442e-07
0.000165145 2.63826e-05 -1.23883e-07
-6.14442e-07 -1.23883e-07 -1.07095e-05
0.00188776 0.000230388 -4.5077e-08
0.000230388 0.000120794 1.06809e-06
-4.5077e-08 1.06809e-06 -2.25786e-05
0.00209066 0.000258789 2.34094e-07
0.000258789 0.000117164 8.92364e-08
2.34094e-07 8.92364e-08 2.28971e-05
0.00206554 0.000228297 2.98515e-06
0.000228297 3.45395e-05 7.41108e-07
2.98515e-06 7.41108e-07 -1.90143e-05
0.00118333 0.000183317 -1.39784e-05
0.000183317 -1.42767e-05 -2.7525e-06
-1.39784e-05 -2.7525e-06 -0.000179051
0.00192989 0.000297342 1.91205e-06
0.000297342 0.000162089 7.15814e-07
1.91205e-06 7.15814e-07 -2.47583e-06
0.00195862 0.000327662 1.03854e-06
0.000327662 6.14153e-05 -5.66974e-07
1.03854e-06 -5.66974e-07 -6.57761e-05
0.000346076 9.53316e-05 -1.83221e-05
9.53316e-05 -0.000242028 -8.47171e-06
-1.83221e-05 -8.47171e-06 -0.000343963
0.00114122 0.000219491 -8.2751e-07
0.000219491 -3.45327e-05 3.1863e-07
-8.2751e-07 3.1863e-07 -0.000212704
0.00199375 0.000368665 4.61056e-06
0.000368665 0.000214488 5.56534e-07
4.61056e-06 5.56534e-07 2.36107e-05
0.00684027 0.000265813 -0.000319752
0.000265813 0.00394623 -3.67556e-05
-0.000319752 -3.67556e-05 0.00394775
0.000340254 0.000133142 -7.4531e-08
0.000133142 -0.000234176 4.0824e-07
-7.4531e-08 4.0824e-07 -0.000345683
0.00104642 0.000249463 1.77988e-05
0.000249463 -7.52973e-05 5.76563e-06
1.77988e-05 5.76563e-06 -0.000268143
0.00704945 0.000228785 1.37309e-05
0.000228785 0.00408216 3.77876e-06
1.37309e-05 3.77876e-06 0.00407995
0.000340241 0.000174498 2.00593e-05
0.000174498 -0.000211492 1.48239e-05
2.00593e-05 1.48239e-05 -0.000338314
0.00704328 8.9236e-05 0.000294939
8.9236e-05 0.00406377 2.63868e-05
0.000294939 2.63868e-05 0.00407363
0.00188303 5.2923e-05 -5.68515e-06
5.2923e-05 -2.83839e-06 -3.27178e-07
-5.68515e-06 -3.27178e-07 -6.47391e-05
0.00197712 7.57675e-05 -8.5148e-07
7.57675e-05 4.86288e-05 -2.02912e-07
-8.5148e-07 -2.02912e-07 1.45453e-05
0.00204235 0.0001207 3.01989e-06
0.0001207 1.03177e-05 5.15123e-07
3.01989e-06 5.15123e-07 5.06092e-06
0.00185053 -5.82e-06 1.38725e-06
-5.82e-06 9.60381e-05 -5.34983e-07
1.38725e-06 -5.34983e-07 -2.46728e-06
0.00194316 7.27509e-06 -1.92723e-06
7.27509e-06 3.98425e-05 2.33352e-07
-1.92723e-06 2.33352e-07 -1.76188e-05
0.0019461 2.90975e-05 6.99844e-06
2.90975e-05 1.71148e-05 -5.63348e-08
6.99844e-06 -5.63348e-08 -7.32118e-06
0.00198661 -5.01458e-05 1.186e-06
-5.01458e-05 5.64612e-05 2.51675e-07
1.186e-06 2.51675e-07 4.3262e-06
0.00189285 -5.19133e-05 2.51045e-06
-5.19133e-05 0.000117851 -1.10607e-07
2.51045e-06 -1.10607e-07 1.88701e-05
0.00109641 -2.65747e-05 -1.20566e-05
-2.65747e-05 -5.27051e-05 1.11461e-07
-1.20566e-05 1.11461e-07 -0.000178197
0.00186294 -0.000114627 2.5285e-07
-0.000114627 9.45447e-05 4.19542e-07
2.5285e-07 4.19542e-07 -2.19559e-05
0.00110214 -6.24377e-05 1.34695e-08
-6.24377e-05 -5.51535e-05 -6.54447e-08
1.34695e-08 -6.54447e-08 -0.000190209
0.000417997 -8.70758e-06 -1.86338e-05
-8.70758e-06 -0.00019785 2.11076e-06
-1.86338e-05 2.11076e-06 -0.000284079
0.00110787 -9.68271e-05 1.14741e-05
-9.68271e-05 -4.85367e-05 -1.66443e-06
1.14741e-05 -1.66443e-06 -0.000194936
0.000392316 -3.62451e-05 8.74535e-07
-3.62451e-05 -0.000213817 -2.96302e-07
8.74535e-07 -2.96302e-07 -0.000303002
0.00631211 -0.000150315 -0.000319661
-0.000150315 0.00362071 1.6448e-05
-0.000319661 1.6448e-05 0.00363766
0.000375002 -5.81216e-05 1.7767e-05
-5.81216e-05 -0.000220706 -4.35897e-06
1.7767e-05 -4.35897e-06 -0.000317195
0.00644677 -9.18237e-05 7.49843e-06
-9.18237e-05 0.00369148 8.53703e-09
7.49843e-06 8.53703e-09 0.00371373
0.00180448 -3.56512e-05 0.000248237
-3.56512e-05 0.000772574 -1.64342e-05
0.000248237 -1.64342e-05 0.000762575
0.00200569 0.000128446 -5.11508e-06
0.000128446 7.37323e-05 -4.16817e-07
-5.11508e-06 -4.16817e-07 7.73902e-07
0.00199833 0.00013255 -1.99406e-06
0.00013255 4.48122e-05 -2.27644e-07
-1.99406e-06 -2.27644e-07 6.6603e-06
0.00186489 0.000165253 7.97449e-07
0.000165253 9.96016e-05 1.03234e-06
7.97449e-07 1.03234e-06 -2.51311e-05
0.00205326 0.000192141 8.79694e-07
0.000192141 0.000100808 8.18452e-08
8.79694e-07 8.18452e-08 2.21361e-05
0.00199058 0.000159177 4.8496e-06
0.000159177 1.44193e-05 6.8819e-07
4.8496e-06 6.8819e-07 -2.18056e-05
0.00116024 0.000136886 -1.2568e-05
0.000136886 -1.9071e-05 -1.99616e-06
-1.2568e-05 -1.99616e-06 -0.000175079
0.0018839 0.000228756 1.74499e-07
0.000228756 0.000122943 7.18049e-08
1.74499e-07 7.18049e-08 -2.02942e-05
0.00204228 0.000256159 2.43739e-06
0.000256159 8.29534e-05 -5.06624e-07
2.43739e-06 -5.06624e-07 -1.35188e-05
0.000379779 7.04205e-05 -1.79466e-05
7.04205e-05 -0.000227028 -5.88555e-06
-1.79466e-05 -5.88555e-06 -0.000324242
0.00114785 0.000182244 -6.72153e-07
0.000182244 -3.38111e-05 3.90366e-07
-6.72153e-07 3.90366e-07 -0.00020162
0.00187788 0.000293307 2.51568e-06
0.000293307 0.000136407 3.62879e-07
2.51568e-06 3.62879e-07 -3.39713e-05
0.00671016 0.000279426 -0.00033687
0.000279426 0.00387495 -3.42077e-05
-0.00033687 -3.42077e-05 0.00387608
0.000371445 9.80453e-05 1.97148e-07
9.80453e-05 -0.000228524 1.98194e-07
1.97148e-07 1.98194e-07 -0.000331062
0.00109933 0.000215725 1.17482e-05
0.000215725 -5.96653e-05 4.28762e-06
1.17482e-05 4.28762e-06 -0.000237055
0.00685524 0.000289899 1.11501e-05
0.000289899 0.00396796 4.89049e-06
1.11501e-05 4.89049e-06 0.00396371
0.000365686 0.000131103 1.87474e-05
0.000131103 -0.000221464 1.19603e-05
1.87474e-05 1.19603e-05 -0.000333117
0.00702048 0.000230969 0.00032222
0.000230969 0.00405622 3.6621e-05
0.00032222 3.6621e-05 0.00406033
0.00182597 4.83936e-05 2.91927e-06
4.83936e-05 8.26734e-05 -2.01641e-07
2.91927e-06 -2.01641e-07 -1.90991e-05
0.00194903 5.37541e-05 -3.40165e-06
5.37541e-05 4.66724e-05 -1.23717e-07
-3.40165e-06 -1.23717e-07 -1.61265e-05
0.00201211 8.07149e-05 7.33982e-06
8.07149e-05 7.83553e-05 4.62504e-07
7.33982e-06 4.62504e-07 4.36441e-05
0.00107663 -1.03274e-05 -1.24652e-05
-1.03274e-05 -5.76186e-05 -1.82969e-07
-1.24652e-05 -1.82969e-07 -0.00018146
0.00188213 -1.22875e-06 2.94001e-06
-1.22875e-06 0.0001177 -9.93419e-08
2.94001e-06 -9.93419e-08 1.97129e-05
0.00195443 7.75465e-06 1.06261e-06
7.75465e-06 4.62517e-05 5.26724e-07
1.06261e-06 5.26724e-07 -8.5065e-06
0.00193509 -5.20203e-05 3.96778e-06
-5.20203e-05 0.000145555 2.21679e-07
3.96778e-06 2.21679e-07 4.76528e-05
0.00108648 -2.78913e-05 8.15373e-08
-2.78913e-05 -6.13639e-05 -4.35718e-08
8.15373e-08 -4.35718e-08 -0.000187117
0.00042125 -3.24026e-05 -1.91641e-05
-3.24026e-05 -0.000194332 8.62043e-07
-1.91641e-05 8.62043e-07 -0.000277092
0.0010536 -6.10291e-05 1.1803e-05
-6.10291e-05 -8.36573e-05 -1.25754e-06
1.1803e-05 -1.25754e-06 -0.000221601
0.000396557 2.73668e-06 3.92869e-07
2.73668e-06 -0.000212103 7.76274e-08
3.92869e-07 7.76274e-08 -0.000297169
0.00622737 -0.000121027 -0.000319908
-0.000121027 0.00356681 1.22348e-05
-0.000319908 1.22348e-05 0.0035868
0.000406152 -4.38241e-05 1.85773e-05
-4.38241e-05 -0.000202589 -3.09841e-06
1.85773e-05 -3.09841e-06 -0.000292916
0.00630417 -4.51467e-05 -3.10076e-06
-4.51467e-05 0.00360347 2.79115e-06
-3.10076e-06 2.79115e-06 0.00362799
0.00640086 -0.000105843 0.000318266
-0.000105843 0.00366425 -1.4623e-05
0.000318266 -1.4623e-05 0.00368658
0.00182575 0.000103769 7.71994e-07
0.000103769 7.74902e-05 4.76463e-07
7.71994e-07 4.76463e-07 -3.52206e-05
0.00198568 0.000126387 -3.50582e-06
0.000126387 5.30274e-05 -7.10676e-07
-3.50582e-06 -7.10676e-07 -1.43649e-05
0.00195471 0.000134168 6.2061e-06
0.000134168 9.47852e-06 7.22272e-07
6.2061e-06 7.22272e-07 -2.45385e-05
0.00115855 9.07634e-05 -1.21284e-05
9.07634e-05 -1.5457e-05 -1.37808e-06
-1.21284e-05 -1.37808e-06 -0.000158814
0.00187327 0.000163926 2.63503e-07
0.000163926 0.000108644 -1.16536e-07
2.63503e-07 -1.16536e-07 -1.60682e-05
0.00199649 0.000190712 2.46542e-06
0.000190712 5.83486e-05 -8.75388e-07
2.46542e-06 -8.75388e-07 -2.06342e-05
0.000402843 4.77021e-05 -1.74175e-05
4.77021e-05 -0.000211009 -4.18446e-06
-1.74175e-05 -4.18446e-06 -0.000304223
0.00114133 0.000139052 3.62028e-07
0.000139052 -3.21082e-05 2.69673e-07
3.62028e-07 2.69673e-07 -0.000189334
0.00188501 0.000227339 6.78572e-07
0.000227339 0.000127934 -8.82011e-07
6.78572e-07 -8.82011e-07 -1.51848e-05
0.00652898 0.000234281 -0.000344433
0.000234281 0.00376166 -2.79606e-05
-0.000344433 -2.79606e-05 0.00377012
0.000400915 7.60086e-05 6.21137e-07
7.60086e-05 -0.000213303 2.38397e-07
6.21137e-07 2.38397e-07 -0.000311809
0.00109902 0.000180371 1.1796e-05
0.000180371 -6.22298e-05 3.45449e-06
1.1796e-05 3.45449e-06 -0.000232939
0.00674795 0.000295262 5.68223e-06
0.000295262 0.00390392 3.41972e-06
5.68223e-06 3.41972e-06 0.00390273
0.000401699 0.00010301 1.78784e-05
0.00010301 -0.00021046 9.19139e-06
1.78784e-05 9.19139e-06 -0.000314195
0.00692896 0.000324389 0.000335928
0.000324389 0.00402156 4.30898e-05
0.000335928 4.30898e-05 0.00401319
0.00106931 2.58055e-05 -1.23877e-05
2.58055e-05 -5.71945e-05 -6.37481e-07
-1.23877e-05 -6.37481e-07 -0.000188015
0.00184391 4.59292e-05 3.21965e-06
4.59292e-05 9.25902e-05 3.1229e-08
3.21965e-06 3.1229e-08 -6.14039e-06
0.00200125 5.46825e-05 -3.67834e-07
5.46825e-05 8.66707e-05 5.18362e-07
-3.67834e-07 5.18362e-07 2.27113e-05
0.000459034 3.20405e-05 -1.97093e-05
3.20405e-05 -0.000178793 -9.04781e-07
-1.97093e-05 -9.04781e-07 -0.000253256
0.00105368 -4.76593e-06 -8.54201e-08
-4.76593e-06 -7.43194e-05 3.86261e-08
-8.54201e-08 3.86261e-08 -0.000198183
0.00191167 4.69744e-06 4.3514e-06
4.69744e-06 0.000137909 1.75043e-07
4.3514e-06 1.75043e-07 4.04575e-05
0.00107323 -2.8757e-05 1.22555e-05
-2.8757e-05 -7.2381e-05 -4.90315e-07
1.22555e-05 -4.90315e-07 -0.000198375
0.000418397 -5.79229e-06 4.39528e-07
-5.79229e-06 -0.00019627 3.77762e-07
4.39528e-07 3.77762e-07 -0.000279024
0.00613171 1.46698e-05 -0.000322448
1.46698e-05 0.00349978 1.55893e-06
-0.000322448 1.55893e-06 0.0035269
0.000376785 1.43363e-05 1.80998e-05
1.43363e-05 -0.000226066 -1.07509e-06
1.80998e-05 -1.07509e-06 -0.000309724
0.0061899 -0.000118762 -7.84462e-06
-0.000118762 0.0035451 2.00042e-06
-7.84462e-06 2.00042e-06 0.00356464
0.00623651 -2.71382e-05 0.000305536
-2.71382e-05 0.00356156 -7.71505e-06
0.000305536 -7.71505e-06 0.00358623
0.00112141 5.36784e-05 -1.22653e-05
5.36784e-05 -3.06675e-05 -1.18965e-06
-1.22653e-05 -1.18965e-06 -0.000165488
0.00185629 0.000100713 -3.44928e-07
0.000100713 9.59645e-05 -3.89996e-07
-3.44928e-07 -3.89996e-07 -1.22135e-05
0.00195465 0.000123722 -1.44161e-06
0.000123722 2.48715e-05 -9.6665e-07
-1.44161e-06 -9.6665e-07 -3.68877e-05
0.00269634 6.44458e-05 -0.000148769
6.44458e-05 0.00122652 -5.41448e-06
-0.000148769 -5.41448e-06 0.00117346
0.00110849 9.21311e-05 3.21169e-07
9.21311e-05 -4.72846e-05 1.4183e-07
3.21169e-07 1.4183e-07 -0.000191598
0.00188141 0.000162497 6.26867e-07
0.000162497 0.00011762 -1.15905e-06
6.26867e-07 -1.15905e-06 -7.07723e-06
0.00635906 0.000170207 -0.000341932
0.000170207 0.00365025 -1.99667e-05
-0.000341932 -1.99667e-05 0.00366772
0.000423193 6.68102e-05 9.2305e-07
6.68102e-05 -0.000195878 4.48051e-07
9.2305e-07 4.48051e-07 -0.000291216
0.00110889 0.000140477 1.26087e-05
0.000140477 -5.324e-05 2.39962e-06
1.26087e-05 2.39962e-06 -0.000211657
0.00662876 0.000250428 1.02512e-06
0.000250428 0.00382515 1.60195e-06
1.02512e-06 1.60195e-06 0.00383223
0.000423846 8.41373e-05 1.81485e-05
8.41373e-05 -0.000197127 7.06118e-06
1.81485e-05 7.06118e-06 -0.000297632
0.00680656 0.000330633 0.000345111
0.000330633 0.00395374 4.26389e-05
0.000345111 4.26389e-05 0.0039455
0.000537873 1.20575e-05 -1.56606e-05
1.20575e-05 -0.000119282 -2.06329e-06
-1.56606e-05 -2.06329e-06 -0.0002031
0.00105019 2.53161e-05 1.77479e-07
2.53161e-05 -7.36617e-05 2.14828e-07
1.77479e-07 2.14828e-07 -0.000202112
0.00187191 4.23696e-05 4.06268e-06
4.23696e-05 0.000109071 -4.63784e-08
4.06268e-06 -4.63784e-08 1.36163e-05
0.00596668 -0.000102166 -0.000304767
-0.000102166 0.00341536 3.97238e-06
-0.000304767 3.97238e-06 0.00343139
0.000415923 9.58898e-06 -5.85899e-07
9.58898e-06 -0.000201318 -1.09382e-07
-5.85899e-07 -1.09382e-07 -0.000278444
0.00104982 -4.49955e-07 1.22002e-05
-4.49955e-07 -7.91925e-05 1.6735e-08
1.22002e-05 1.6735e-08 -0.000203014
0.000374426 2.08558e-05 1.83958e-05
2.08558e-05 -0.000225246 3.96232e-07
1.83958e-05 3.96232e-07 -0.000306794
0.00607105 -2.08444e-05 1.95833e-06
-2.08444e-05 0.00346827 -1.62933e-06
1.95833e-06 -1.62933e-06 0.00349069
0.0061783 -4.10764e-05 0.000311167
-4.10764e-05 0.00352585 -5.38825e-06
0.000311167 -5.38825e-06 0.00355148
0.00278071 1.6994e-05 -0.000142768
1.6994e-05 0.00127851 -3.09908e-06
-0.000142768 -3.09908e-06 0.00122923
0.00109562 5.68041e-05 8.31039e-08
5.68041e-05 -4.83018e-05 -3.16118e-08
8.31039e-08 -3.16118e-08 -0.000183854
0.00189334 9.79915e-05 1.06258e-06
9.79915e-05 0.000119146 -7.9067e-07
1.06258e-06 -7.9067e-07 1.55307e-05
0.00584404 -3.3061e-05 -0.000134388
-3.3061e-05 0.00334126 2.57891e-07
-0.000134388 2.57891e-07 0.00333002
0.000435393 5.90761e-05 1.63646e-07
5.90761e-05 -0.000186641 2.58251e-07
1.63646e-07 2.58251e-07 -0.000275937
0.00107838 9.42599e-05 1.21351e-05
9.42599e-05 -6.73527e-05 1.60571e-06
1.21351e-05 1.60571e-06 -0.000212563
0.00644784 0.000146712 -1.05569e-05
0.000146712 0.00369984 -1.79556e-06
-1.05569e-05 -1.79556e-06 0.00371858
0.000454596 9.0001e-05 1.96709e-05
9.0001e-05 -0.00017571 5.87199e-06
1.96709e-05 5.87199e-06 -0.000272173
0.00669466 0.000274456 0.000351913
0.000274456 0.00387245 3.61319e-05
0.000351913 3.61319e-05 0.00387683
0.00180427 -5.38236e-05 -0.00024185
-5.38236e-05 0.000775811 1.31933e-06
-0.00024185 1.31933e-06 0.000775515
0.00159665 3.16525e-05 -6.13452e-05
3.16525e-05 0.00053608 9.57551e-08
-6.13452e-05 9.57551e-08 0.000474845
0.00102859 2.74368e-05 1.26882e-05
2.74368e-05 -9.11571e-05 7.09664e-07
1.26882e-05 7.09664e-07 -0.000217308
0.00604532 -4.88663e-05 6.83345e-06
-4.88663e-05 0.00345772 2.66472e-06
6.83345e-06 2.66472e-06 0.00347931
0.000433352 -1.15642e-05 1.90338e-05
-1.15642e-05 -0.000183965 8.9139e-07
1.90338e-05 8.9139e-07 -0.000265044
0.00611055 -8.38384e-05 0.000323439
-8.38384e-05 0.00349677 -5.04087e-06
0.000323439 -5.04087e-06 0.00351884
0.00136762 2.2778e-05 -6.31215e-05
2.2778e-05 0.000530256 -1.17442e-06
-6.31215e-05 -1.17442e-06 0.00049129
0.00158849 1.93587e-05 -6.22645e-05
1.93587e-05 0.000533173 -1.43733e-06
-6.22645e-05 -1.43733e-06 0.000467308
0.00106059 5.84394e-05 1.22063e-05
5.84394e-05 -7.14906e-05 1.12006e-06
1.22063e-05 1.12006e-06 -0.000207793
0.00385392 6.9494e-05 0.000121077
6.9494e-05 0.00207576 3.65851e-06
0.000121077 3.65851e-06 0.0020684
0.000446091 6.93812e-05 1.98769e-05
6.93812e-05 -0.000179978 4.53784e-06
1.98769e-05 4.53784e-06 -0.000269222
0.00653223 0.000134428 0.000335552
0.000134428 0.00374429 2.16677e-05
0.000335552 2.16677e-05 0.00376689
0.00600174 -1.98236e-05 -8.84467e-06
-1.98236e-05 0.00343373 -3.23059e-06
-8.84467e-06 -3.23059e-06 0.00345405
0.000428208 5.06265e-05 2.06619e-05
5.06265e-05 -0.00019869 2.61477e-06
2.06619e-05 2.61477e-06 -0.000272805
0.00595864 3.6407e-05 0.000311615
3.6407e-05 0.00339913 2.30546e-07
0.000311615 2.30546e-07 0.00342448
0.00372829 3.27745e-05 0.000132569
3.27745e-05 0.00200249 5.22341e-06
0.000132569 5.22341e-06 0.00199731
0.000459021 9.39443e-06 1.9048e-05
9.39443e-06 -0.000171172 2.75031e-06
1.9048e-05 2.75031e-06 -0.00025425
0.00630103 2.95384e-06 0.000321452
2.95384e-06 0.00360184 9.66029e-06
0.000321452 9.66029e-06 0.00362632
0.00605721 -0.000117867 0.000309981
-0.000117867 0.0034723 -4.26708e-06
0.000309981 -4.26708e-06 0.00348829
0.00608967 1.04303e-05 0.00031329
1.04303e-05 0.00347102 5.60401e-06
0.00031329 5.60401e-06 0.00349851
