# vtk DataFile Version 2.0
Wound Healing Simulation
ASCII
DATASET UNSTRUCTURED_GRID
POINTS 3012 float
69.9759 18.75 4
67.2507 60.3285 4
69.976 18.75 2
73.0099 25.446 4
71.1327 20.9142 4
68.6801 16.6661 4
67.8276 19.9222 3.98901
67.2507 60.3286 2
71.1327 54.0858 4
68.6801 58.3339 4
65.6939 62.2254 4
65.314 59.0059 3.99051
74.6784 42.3946 4
73.7221 47.2057 4
69.9759 18.75 0
73.0099 25.446 2
68.6801 16.6661 2
71.1327 20.9142 2
67.8278 19.9226 2
74.6792 32.6053 4
73.7222 27.7943 4
72.1454 23.1494 4
70.6166 26.2215 3.98794
68.8881 21.9558 3.98861
67.2507 14.6715 4
66.6389 17.9669 3.98976
65.8043 21.0178 3.9849
67.2507 60.3285 0
71.1327 54.0858 2
68.6801 58.3339 2
65.694 62.2255 2
65.3141 59.006 2
72.1454 51.8506 4
69.9759 56.25 4
68.8391 53.1149 3.98863
64.0165 64.0165 4
66.6127 57.1381 3.98997
63.8872 60.7702 3.9914
63.5059 57.782 3.98597
60.3285 67.2507 4
74.6792 42.3947 2
73.7222 47.2057 2
74.9194 39.9526 4
74.2788 44.8158 4
72.1699 42.0852 3.98704
73.0099 49.554 4
71.2517 46.5971 3.98801
73.0099 25.446 0
71.1327 20.9142 0
68.6801 16.6661 0
67.8276 19.9222 0.0109932
74.6792 32.6053 2
73.7222 27.7943 2
67.2508 14.6715 2
72.1455 23.1494 2
70.6167 26.2226 2
66.6391 17.967 2
68.8884 21.9565 2
65.8045 21.0176 2
74.9197 35.0474 4
74.2794 30.1841 4
72.1866 32.9435 3.98738
71.2804 28.4322 3.98785
69.8181 24.059 3.9883
68.3538 26.9495 3.98224
66.7701 22.9279 3.9843
65.694 12.7746 4
65.3253 16.0982 3.99073
64.7203 19.1851 3.98563
63.8991 22.0233 3.98266
71.1327 54.0858 0
65.6939 62.2254 0
68.6801 58.3339 0
65.314 59.0059 0.00949139
72.1455 51.8506 2
69.9759 56.25 2
68.8394 53.1143 2
64.0165 64.0165 2
66.6129 57.1381 2
63.8873 60.7703 2
63.506 57.7822 2
62.2254 65.694 4
58.8941 65.4169 3.99253
69.7718 50.9891 3.98825
67.7861 55.1707 3.98936
66.6578 52.2141 3.98438
62.3372 62.431 3.99205
64.6678 56.0405 3.9861
62.2068 59.4151 3.98621
61.8325 56.696 3.98406
58.3339 68.6801 4
60.3285 67.2508 2
73.7221 47.2057 0
74.6784 42.3946 0
74.9197 39.9526 2
74.2794 44.8159 2
72.1699 42.085 2
73.0099 49.554 2
71.2517 46.5964 2
75 37.5 4
72.4068 39.802 3.98636
71.7846 44.3521 3.98768
69.8097 41.7894 3.98084
70.5778 48.8127 3.98813
68.9194 46.0155 3.98169
74.6792 32.6053 0
73.7222 27.7943 0
67.2507 14.6715 0
72.1454 23.1494 0
70.6166 26.2215 0.0120562
68.8881 21.9558 0.011389
66.6389 17.9669 0.0102445
65.8043 21.0178 0.0150967
74.9197 35.0474 2
74.2794 30.1841 2
72.1865 32.9438 2
71.2804 28.433 2
65.694 12.7745 2
65.3254 16.0982 2
69.8183 24.06 2
68.3537 26.9495 2
64.7204 19.1848 2
66.7702 22.9277 2
63.8993 22.0231 2
72.4147 35.2242 3.98652
71.8059 30.6768 3.98786
69.8458 33.2683 3.9812
68.9728 29.0372 3.98156
67.6188 24.9086 3.98338
66.206 27.6297 3.97997
64.0165 10.9835 4
64.7692 23.8205 3.98214
63.8913 14.3227 3.99149
63.5183 17.4356 3.98635
62.9179 20.306 3.98321
62.1093 22.9272 3.98158
60.6845 11.0944 3.9922
57.6129 11.4387 3.98735
72.1454 51.8506 0
69.9759 56.25 0
68.8391 53.1149 0.0113669
64.0165 64.0165 0
63.8872 60.7702 0.00859632
66.6127 57.1381 0.0100281
63.5059 57.782 0.0140308
62.2255 65.694 2
58.8943 65.417 2
69.772 50.9883 2
67.7864 55.1705 2
66.658 52.2143 2
62.3373 62.431 2
64.6679 56.0408 2
62.2068 59.4154 2
61.8326 56.6963 2
60.6691 63.9801 3.99229
57.0245 66.7374 3.99284
57.5581 63.6983 3.98747
67.5157 50.1798 3.98335
65.71 54.1803 3.98548
64.5516 51.3945 3.98181
60.7755 60.9477 3.9868
62.8318 55.0816 3.98437
60.6653 58.1743 3.98402
60.3405 55.8041 3.98327
56.25 69.9759 4
58.3339 68.6801 2
60.3285 67.2507 0
58.9214 9.65282 3.99254
62.2254 9.30607 4
73.0099 49.554 0
74.2788 44.8158 0
71.2517 46.5971 0.011988
72.1699 42.0852 0.0129602
74.9194 39.9526 0
75 37.5 2
72.4068 39.802 2
71.7846 44.3517 2
69.8096 41.7892 2
70.578 48.8118 2
68.9193 46.0152 2
72.4901 37.512 3.98606
70.0459 39.6571 3.97995
69.4368 43.9075 3.98136
67.607 41.4988 3.97827
68.2736 48.1088 3.98243
66.7215 45.4431 3.97948
74.9197 35.0474 0
74.2794 30.1841 0
72.1866 32.9435 0.0126227
71.2804 28.4322 0.0121469
65.694 12.7746 0
65.3253 16.0982 0.00927367
69.8181 24.059 0.0117042
68.3538 26.9495 0.017763
66.7701 22.9279 0.0157049
64.7203 19.1851 0.0143676
63.8991 22.0233 0.0173386
72.4147 35.2244 2
71.8059 30.6773 2
69.8457 33.2684 2
68.9726 29.0374 2
64.0165 10.9835 2
63.8914 14.3227 2
63.5184 17.4353 2
67.6188 24.9084 2
66.2059 27.6294 2
62.9181 20.3058 2
64.7692 23.8202 2
62.1093 22.9272 2
60.6846 11.0943 2
57.6129 11.4383 2
70.0629 35.3919 3.98055
69.4734 31.1491 3.98148
67.6653 33.5892 3.97859
66.7831 29.6192 3.97918
65.5364 25.6921 3.98112
64.162 28.2472 3.97924
62.3425 12.6513 3.99192
62.8741 24.6236 3.98129
62.2022 15.7736 3.98661
61.8224 18.6691 3.98413
61.2324 21.3236 3.98165
60.446 23.7083 3.98139
59.2474 12.7695 3.98683
55.8745 10.2256 3.98837
56.4067 13.1011 3.98449
69.7718 50.9891 0.0117505
62.2254 65.694 0
58.8941 65.4169 0.00747142
67.7861 55.1707 0.010643
66.6578 52.2141 0.0156236
62.3372 62.431 0.00794979
62.2068 59.4151 0.0137908
64.6678 56.0405 0.0138974
61.8325 56.696 0.0159393
60.6693 63.9802 2
57.0247 66.7375 2
57.5581 63.6987 2
67.5158 50.1799 2
65.7103 54.1806 2
64.5517 51.3948 2
60.7755 60.9482 2
62.8321 55.0819 2
60.6654 58.1747 2
60.3407 55.8043 2
55.07 67.9341 3.99316
59.2205 62.3745 3.98703
55.8039 64.9151 3.98819
56.3283 62.099 3.98471
65.3454 49.4151 3.98083
63.7194 53.3041 3.98327
62.4608 50.6651 3.9805
59.3378 59.5703 3.98472
61.0924 54.3265 3.9836
59.2986 57.0307 3.98255
59.2566 55.2034 3.98347
48.1021 68.5818 3.99
50.9479 69.9333 3.9937
54.0858 71.1327 4
56.25 69.976 2
58.3339 68.6801 0
57.0584 8.33282 3.993
60.3285 7.74928 4
58.9216 9.65276 2
62.2255 9.30602 2
70.5778 48.8127 0.0118669
71.7846 44.3521 0.01232
68.9194 46.0155 0.0183137
69.8097 41.7894 0.0191602
72.4068 39.802 0.0136363
75 37.5 0
72.49 37.5121 2
70.0458 39.6569 2
69.4367 43.9073 2
67.6069 41.4988 2
68.2736 48.1087 2
66.7213 45.4432 2
70.1338 37.5214 3.97973
67.8428 39.5128 3.9774
67.2344 43.4721 3.97894
65.5695 41.2126 3.97751
66.0814 47.4228 3.98013
64.6682 44.8542 3.9787
72.4147 35.2242 0.0134777
71.8059 30.6768 0.0121422
69.8458 33.2683 0.0188029
68.9728 29.0372 0.0184375
64.0165 10.9835 0
63.8913 14.3227 0.00851414
63.5183 17.4356 0.0136471
67.6188 24.9086 0.0166205
66.206 27.6297 0.0200266
64.7692 23.8205 0.0178555
62.9179 20.306 0.0167865
62.1093 22.9272 0.018417
60.6845 11.0944 0.00779937
57.6129 11.4387 0.0126513
70.0628 35.392 2
69.4732 31.1493 2
67.6651 33.589 2
66.7828 29.6191 2
62.3426 12.6513 2
62.2023 15.7733 2
61.8226 18.6689 2
65.5363 25.6919 2
64.1617 28.247 2
61.2325 21.3235 2
62.8741 24.6235 2
60.4459 23.7084 2
59.2474 12.7691 2
56.4067 13.1007 2
55.8745 10.2252 2
67.8794 35.5467 3.97809
67.2759 31.6197 3.97909
65.7114 33.9242 3.97763
64.6779 30.1858 3.97809
63.5549 26.4033 3.98026
62.2769 28.7664 3.97964
60.7772 14.2133 3.98665
61.0664 25.3208 3.98119
60.6184 17.1129 3.98476
60.2341 19.7975 3.98272
59.6791 22.2376 3.98058
59.0016 24.2988 3.9818
54.0374 9.12921 3.98917
57.9126 14.319 3.98466
54.7875 12.0008 3.98502
55.3148 14.6318 3.98336
67.5157 50.1798 0.0166465
57.0245 66.7374 0.00715827
60.6691 63.9801 0.00770607
57.5581 63.6983 0.0125284
65.71 54.1803 0.0145232
64.5516 51.3945 0.018189
60.7755 60.9477 0.0131994
60.6653 58.1743 0.0159797
62.8318 55.0816 0.0156318
60.3405 55.8041 0.0167335
55.0702 67.9342 2
59.2205 62.375 2
55.8039 64.9154 2
56.3283 62.0994 2
65.3454 49.4154 2
63.7197 53.3045 2
62.4608 50.6653 2
59.3379 59.5708 2
61.0927 54.3267 2
59.2988 57.031 2
59.2568 55.2035 2
53.0419 69.0017 3.99347
53.9659 66.0169 3.98884
57.8835 60.8813 3.98478
54.6839 63.2141 3.9852
55.214 60.6266 3.98347
63.2129 48.6715 3.97973
61.7596 52.5908 3.98216
60.2974 50.0357 3.97983
58.0245 58.2769 3.98335
59.3448 53.9674 3.98281
58.1386 55.8335 3.98114
50.1085 67.8599 3.98972
47.4623 66.586 3.98753
46.056 69.1612 3.99023
48.1022 68.5822 2
48.8022 70.7244 3.9939
50.9481 69.9334 2
51.8506 72.1454 4
54.0858 71.1327 2
56.25 69.9759 0
55.1027 7.13749 3.99334
58.3339 6.31992 4
57.0586 8.33273 2
60.3286 7.74926 2
58.9214 9.65282 0.00745675
62.2254 9.30607 0
68.2736 48.1088 0.0175729
69.4368 43.9075 0.0186446
66.7215 45.4431 0.0205185
67.607 41.4988 0.0217275
70.0459 39.6571 0.0200508
72.4901 37.512 0.0139383
70.1336 37.5213 2
67.8427 39.5127 2
67.2342 43.4721 2
65.5693 41.2127 2
66.0814 47.423 2
64.668 44.8543 2
67.9387 37.5218 3.97697
65.7996 39.3716 3.97675
65.1907 43.0296 3.97804
63.7728 40.9338 3.97755
63.9829 46.7246 3.97916
62.827 44.2243 3.97925
70.0629 35.3919 0.0194548
69.4734 31.1491 0.0185208
67.6653 33.5892 0.0214082
66.7831 29.6192 0.0208171
62.3425 12.6513 0.00807772
62.2022 15.7736 0.0133925
61.8224 18.6691 0.0158653
65.5364 25.6921 0.0188756
64.162 28.2472 0.0207627
62.8741 24.6236 0.0187097
61.2324 21.3236 0.0183456
60.446 23.7083 0.0186057
59.2474 12.7695 0.013171
56.4067 13.1011 0.0155133
55.8745 10.2256 0.0116301
67.8793 35.5465 2
67.2757 31.6196 2
65.7112 33.9239 2
64.6775 30.1855 2
60.7772 14.2129 2
60.6185 17.1125 2
60.2343 19.7974 2
63.5547 26.4031 2
62.2765 28.7663 2
59.6792 22.2377 2
61.0663 25.3208 2
59.0014 24.2991 2
57.9126 14.3186 2
55.3148 14.6315 2
54.0374 9.12878 2
54.7875 12.0003 2
65.8891 35.6653 3.97717
65.2008 32.1494 3.97788
64.3008 34.2462 3.97717
62.614 30.6266 3.97807
61.6722 27.058 3.98002
60.8731 29.1268 3.98135
59.314 15.6552 3.9848
59.3561 25.7769 3.9824
59.131 18.3378 3.98383
58.7542 20.8327 3.98126
58.3054 23.0696 3.97967
57.9932 24.6424 3.98268
52.1121 8.14799 3.98968
53.0581 11.0073 3.98596
56.6796 15.7272 3.98391
53.811 13.6675 3.98323
54.3792 15.9828 3.98326
55.07 67.9341 0.00683555
65.3454 49.4151 0.01917
55.8039 64.9151 0.0118062
59.2205 62.3745 0.0129683
56.3283 62.099 0.015286
63.7194 53.3041 0.0167273
62.4608 50.6651 0.0195043
59.3378 59.5703 0.0152823
59.2986 57.0307 0.0174516
61.0924 54.3265 0.0164021
59.2566 55.2034 0.016527
53.0421 69.0018 2
53.966 66.0173 2
57.8835 60.8818 2
54.6839 63.2146 2
55.214 60.6271 2
63.2129 48.6718 2
61.7599 52.591 2
60.2974 50.0358 2
58.0247 58.2774 2
59.3451 53.9675 2
58.1388 55.8336 2
52.0695 67.0032 3.98937
52.9527 64.2241 3.98583
56.6525 59.502 3.98382
53.6822 61.6305 3.98379
54.2636 59.3333 3.98281
61.0173 47.8944 3.97901
59.7318 52.124 3.98185
58.0537 49.6364 3.98035
56.785 57.0064 3.98149
57.138 54.1448 3.98075
50.1086 67.8603 2
49.3359 65.9261 3.98708
47.4623 66.5864 2
46.8914 64.7426 3.98568
45.5575 67.1035 3.98774
43.9732 69.5939 3.99047
46.0561 69.1617 2
46.609 71.3689 3.9941
48.1021 68.5818 0.010003
48.8024 70.7246 2
49.554 73.0099 4
50.9479 69.9333 0.00630327
51.8506 72.1455 2
54.0858 71.1327 0
53.0638 6.06912 3.99362
55.1029 7.13736 2
56.25 5.02411 4
58.3339 6.3199 2
57.0584 8.33282 0.00700346
60.3285 7.74928 0
66.0814 47.4228 0.0198738
67.2344 43.4721 0.0210622
64.6682 44.8542 0.0212979
65.5695 41.2126 0.0224915
67.8428 39.5128 0.0226016
70.1338 37.5214 0.0202697
67.9385 37.5217 2
65.7995 39.3715 2
65.1906 43.0297 2
63.7727 40.9338 2
63.9828 46.7248 2
62.8269 44.2244 2
65.902 37.5017 3.97599
63.9158 39.269 3.9767
63.3475 42.5562 3.97797
62.4518 40.703 3.97722
61.9894 45.9297 3.9791
61.475 43.693 3.98095
67.8794 35.5467 0.0219117
67.2759 31.6197 0.0209079
65.7114 33.9242 0.0223676
64.6779 30.1858 0.021911
60.7772 14.2133 0.0133505
60.6184 17.1129 0.01524
60.2341 19.7975 0.0172813
63.5549 26.4033 0.0197441
62.2769 28.7664 0.0203591
61.0664 25.3208 0.018815
59.6791 22.2376 0.0194195
59.0016 24.2988 0.0182024
57.9126 14.319 0.0153362
55.3148 14.6318 0.0166359
54.0374 9.12921 0.0108319
54.7875 12.0008 0.0149798
65.8889 35.665 2
65.2005 32.1491 2
64.3005 34.2459 2
62.6135 30.6264 2
59.3141 15.6549 2
59.1313 18.3375 2
58.7544 20.8328 2
61.6719 27.058 2
60.8726 29.1267 2
58.3054 23.0699 2
59.3558 25.777 2
57.9929 24.6427 2
56.6796 15.727 2
54.3792 15.9825 2
53.811 13.6671 2
52.1121 8.14755 2
53.0581 11.0068 2
64.1072 35.6303 3.97665
62.9501 33.04 3.97691
60.6384 30.5996 3.97851
59.5982 27.8932 3.98097
57.9437 16.9672 3.98413
57.7675 25.704 3.98382
57.724 19.4563 3.98278
57.3872 21.8175 3.97942
57.2093 23.924 3.97961
50.1122 7.28035 3.98996
51.2324 10.116 3.9867
52.1729 12.7849 3.98416
55.541 16.9556 3.98377
52.9798 15.2489 3.98203
53.7614 16.9642 3.98347
53.0419 69.0017 0.00652797
53.9659 66.0169 0.0111578
63.2129 48.6715 0.0202748
54.6839 63.2141 0.0148047
57.8835 60.8813 0.015223
55.214 60.6266 0.0165288
61.7596 52.5908 0.0178438
60.2974 50.0357 0.0201737
58.0245 58.2769 0.0166514
58.1386 55.8335 0.0188621
59.3448 53.9674 0.017192
52.0695 67.0035 2
52.9526 64.2245 2
56.6526 59.5024 2
53.6822 61.631 2
54.2637 59.3337 2
61.0173 47.8945 2
59.732 52.1241 2
58.0536 49.6364 2
56.7853 57.0068 2
57.1383 54.1449 2
51.1669 65.133 3.98647
52.0461 62.5453 3.98412
55.4857 58.2645 3.98335
52.8366 60.1448 3.98299
53.6443 58.484 3.98285
58.3371 46.8647 3.98132
57.5849 51.8081 3.98049
56.2782 49.5748 3.98226
55.4823 55.8142 3.97994
55.3763 53.4054 3.97778
50.1085 67.8599 0.0102822
49.3359 65.9266 2
48.6172 64.1287 3.98525
47.4623 66.586 0.0124651
45.5575 67.104 2
46.8914 64.7431 2
46.381 63.0606 3.98428
45.1316 65.2043 3.98598
43.6308 67.4747 3.98791
41.8605 69.8815 3.99055
43.9733 69.5944 2
44.3765 71.8638 3.99426
46.056 69.1612 0.00976962
46.6091 71.3691 2
47.2057 73.7222 4
48.8022 70.7244 0.00609775
49.554 73.0099 2
51.8506 72.1454 0
50.9535 5.12967 3.99379
53.0639 6.06896 2
54.0858 3.86728 4
55.1027 7.13749 0.00665924
56.25 5.02406 2
58.3339 6.31992 0
63.9829 46.7246 0.0208426
65.1907 43.0296 0.021961
62.827 44.2243 0.0207494
63.7728 40.9338 0.0224503
65.7996 39.3716 0.0232523
67.9387 37.5218 0.0230285
65.9017 37.5015 2
63.9157 39.2689 2
63.3473 42.5562 2
62.4517 40.7029 2
61.9893 45.9298 2
61.4748 43.6931 2
63.9754 37.4571 3.97601
62.1795 39.3583 3.9769
61.2426 41.9666 3.97823
60.2768 44.7819 3.98134
65.8891 35.6653 0.0228285
65.2008 32.1494 0.0221156
64.3008 34.2462 0.022833
62.614 30.6266 0.021927
59.314 15.6552 0.0152035
59.131 18.3378 0.0161684
58.7542 20.8327 0.018737
61.6722 27.058 0.0199788
60.8731 29.1268 0.0186483
59.3561 25.7769 0.0176019
58.3054 23.0696 0.0203303
57.9932 24.6424 0.0173183
56.6796 15.7272 0.0160853
54.3792 15.9828 0.0167411
53.811 13.6675 0.0167701
52.1121 8.14799 0.0103158
53.0581 11.0073 0.014038
64.107 35.6301 2
62.9497 33.0397 2
60.6378 30.5994 2
57.9439 16.9669 2
57.7244 19.4561 2
57.3874 21.8178 2
59.5977 27.8933 2
57.2091 23.9244 2
57.7672 25.7044 2
50.1122 7.27994 2
55.5411 16.9553 2
53.7615 16.9639 2
52.9798 15.2486 2
52.1729 12.7844 2
51.2323 10.1155 2
62.2122 35.3561 3.97626
60.3178 32.7365 3.97635
58.6518 30.0593 3.97921
57.3238 27.3595 3.98321
56.6412 18.1384 3.98381
56.3202 25.0794 3.98084
56.3682 20.5008 3.98099
56.1282 22.8457 3.9768
48.0561 6.52369 3.99018
49.3242 9.32426 3.98737
50.4334 11.9833 3.98462
51.3794 14.4846 3.98243
54.419 17.9039 3.98345
52.364 17.0207 3.98218
52.0695 67.0032 0.0106305
52.9527 64.2241 0.0141737
61.0173 47.8944 0.0209938
53.6822 61.6305 0.0162059
56.6525 59.502 0.0161784
54.2636 59.3333 0.0171926
59.7318 52.124 0.0181528
58.0537 49.6364 0.0196497
56.785 57.0064 0.0185096
57.138 54.1448 0.0192466
51.1669 65.1334 2
52.0461 62.5457 2
55.4859 58.265 2
52.8366 60.1453 2
53.6444 58.4845 2
58.337 46.8648 2
57.5851 51.8081 2
56.2781 49.5747 2
55.4827 55.8145 2
55.3766 53.4055 2
50.3456 63.3867 3.98465
51.245 60.9428 3.98273
54.2255 57.2797 3.98236
52.316 58.6453 3.98215
56.757 44.1999 3.98162
55.5298 47.9152 3.98143
55.0962 51.411 3.97792
54.018 54.5667 3.97749
49.3359 65.9261 0.0129184
48.6172 64.1291 2
47.9614 62.4813 3.98388
45.5575 67.1035 0.012261
46.8914 64.7426 0.0143184
43.6309 67.4752 2
46.3808 63.0611 2
45.1316 65.2049 2
45.9867 61.5935 3.9831
44.7661 63.4621 3.98471
43.3555 65.5144 3.98602
41.6631 67.694 3.98806
39.7023 70.0288 3.99052
41.8606 69.882 2
42.111 72.2086 3.99424
43.9732 69.5939 0.00953339
44.3766 71.864 2
44.8159 74.2794 4
46.609 71.3689 0.00589715
47.2057 73.7222 2
49.554 73.0099 0
48.7841 4.3208 3.99399
50.9537 5.12948 2
51.8506 2.85458 4
53.0638 6.06912 0.0063818
54.0858 3.86728 2
56.25 5.02411 0
61.9894 45.9297 0.0209005
63.3475 42.5562 0.0220309
61.475 43.693 0.0190457
62.4518 40.703 0.0227789
63.9158 39.269 0.0232997
65.902 37.5017 0.0240097
63.975 37.4569 2
62.1794 39.3581 2
61.2424 41.9667 2
60.2767 44.782 2
62.0177 37.4447 3.97647
60.2782 39.853 3.97713
59.0274 42.9302 3.97959
64.1072 35.6303 0.0233494
62.9501 33.04 0.0230888
60.6384 30.5996 0.0214908
57.9437 16.9672 0.0158738
57.724 19.4563 0.01722
57.3872 21.8175 0.0205768
59.5982 27.8932 0.0190304
57.7675 25.704 0.0161774
57.2093 23.924 0.0203901
55.541 16.9556 0.0162339
53.7614 16.9642 0.0165331
52.9798 15.2489 0.0179655
50.1122 7.28035 0.0100359
52.1729 12.7849 0.015842
51.2324 10.116 0.0133041
62.2119 35.3558 2
60.3172 32.7362 2
58.651 30.0591 2
56.6415 18.138 2
56.3686 20.5006 2
56.1282 22.8463 2
57.3232 27.3597 2
56.3199 25.0801 2
48.0561 6.52333 2
49.3242 9.32381 2
54.4192 17.9037 2
52.3641 17.0204 2
51.3794 14.484 2
50.4334 11.9828 2
59.9257 35.1152 3.97633
58.0298 32.2567 3.97678
56.5823 29.318 3.98024
55.4825 26.577 3.98416
55.3482 19.1719 3.98316
54.9541 24.0333 3.97568
55.015 21.5411 3.97952
45.962 5.87892 3.99045
43.3734 7.46792 3.98848
47.3547 8.61836 3.98769
48.5999 11.285 3.98532
49.7149 13.7319 3.98333
50.6357 16.1189 3.98099
53.1292 18.6438 3.98242
51.3062 18.0343 3.9833
51.1669 65.133 0.013527
52.0461 62.5453 0.0158795
58.3371 46.8647 0.0186826
52.8366 60.1448 0.0170095
55.4857 58.2645 0.0166462
53.6443 58.484 0.0171486
57.5849 51.8081 0.0195114
56.2782 49.5748 0.0177361
55.4823 55.8142 0.0200587
55.3763 53.4054 0.0222188
50.3456 63.3871 2
51.245 60.9433 2
54.2258 57.2803 2
52.3161 58.6459 2
56.7569 44.1999 2
55.5296 47.9151 2
55.0963 51.4109 2
54.0184 54.5669 2
49.5917 61.7509 3.9833
55.6916 41.7213 3.97777
50.5689 59.3367 3.98136
52.1917 56.5034 3.98057
54.234 45.582 3.9825
53.3793 49.3489 3.97877
52.6886 52.8733 3.97629
48.6172 64.1287 0.0147522
47.9613 62.4818 2
47.3291 61.0161 3.98274
43.6308 67.4747 0.0120854
45.1316 65.2043 0.0140184
46.381 63.0606 0.0157214
41.6631 67.6945 2
43.3556 65.5149 2
45.9866 61.5939 2
44.766 63.4626 2
45.7659 60.6377 3.9822
44.4823 61.8434 3.98339
43.1453 63.7349 3.98473
41.5452 65.6528 3.98633
39.6323 67.7741 3.98817
37.5259 70.0542 3.99056
39.7023 70.0292 2
39.8178 72.4057 3.99415
41.8605 69.8815 0.00945456
42.1111 72.2089 2
42.3947 74.6792 4
44.3765 71.8638 0.00574074
44.8159 74.2794 2
47.2057 73.7222 0
43.8515 5.35601 3.99069
46.5701 3.64546 3.99418
48.7842 4.32062 2
49.554 1.99015 4
50.9535 5.12967 0.00621493
51.8506 2.85453 2
54.0858 3.86728 0
60.2768 44.7819 0.0186555
61.2426 41.9666 0.0217688
62.1795 39.3583 0.0230973
63.9754 37.4571 0.0239854
62.0172 37.4445 2
60.2781 39.8527 2
59.0272 42.9302 2
59.7975 37.5675 3.97748
58.043 40.6666 3.97725
55.1746 39.7295 3.97733
62.2122 35.3561 0.023742
60.3178 32.7365 0.0236514
58.6518 30.0593 0.0207909
56.6412 18.1384 0.0161927
56.3682 20.5008 0.0190103
56.1282 22.8457 0.0231965
57.3238 27.3595 0.0167877
56.3202 25.0794 0.0191602
54.419 17.9039 0.0165491
52.364 17.0207 0.0178226
51.3794 14.4846 0.0175727
48.0561 6.52369 0.00981552
49.3242 9.32426 0.0126285
50.4334 11.9833 0.0153818
59.9253 35.1149 2
45.9621 5.87855 2
43.3735 7.46757 2
58.029 32.2565 2
56.5813 29.3179 2
55.3486 19.1715 2
55.0155 21.5411 2
54.9539 24.0343 2
55.4819 26.5778 2
47.3546 8.61799 2
48.5999 11.2846 2
53.1295 18.6435 2
51.3063 18.0339 2
50.6357 16.1183 2
49.7148 13.7314 2
57.4426 34.7534 3.97723
55.7726 31.4994 3.97719
54.5562 28.3799 3.98589
53.8037 25.475 3.97879
53.976 20.1191 3.98304
53.5983 22.6856 3.9751
41.3986 7.07312 3.98863
45.3594 7.98988 3.98809
42.8651 9.40851 3.98678
46.6661 10.6461 3.98573
47.7456 13.0923 3.98355
48.9329 15.3892 3.98231
50.0087 17.688 3.97939
51.6574 19.3121 3.98465
50.3456 63.3867 0.0153495
51.245 60.9428 0.0172732
56.757 44.1999 0.0183819
55.5298 47.9152 0.0185655
52.316 58.6453 0.0178476
54.2255 57.2797 0.017638
55.0962 51.411 0.022084
54.018 54.5667 0.0225058
49.5916 61.7514 2
55.6916 41.7203 2
50.5689 59.3371 2
52.1921 56.5041 2
54.2338 45.582 2
53.3791 49.3483 2
52.689 52.8723 2
48.8496 60.2086 3.98228
52.6008 42.6587 3.97633
49.7929 57.6367 3.98117
50.6076 54.4386 3.97743
51.8751 47.2876 3.98008
51.2469 50.9667 3.97434
48.2887 43.7481 3.97583
47.9614 62.4813 0.0161151
47.329 61.0165 2
46.619 59.8026 3.9821
41.6631 67.694 0.0119392
43.3555 65.5144 0.0139767
44.7661 63.4621 0.0152864
45.9867 61.5935 0.0169021
39.6323 67.7746 2
41.5452 65.6532 2
45.7658 60.638 2
43.1452 63.7354 2
44.4822 61.8438 2
44.6231 60.3002 3.9823
42.9494 62.0924 3.98392
41.5987 63.8289 3.98482
39.6469 65.6217 3.98658
37.563 67.7569 3.98804
31.6975 65.1404 3.98642
33.3921 67.4945 3.98805
35.3333 69.9643 3.99054
37.5259 70.0546 2
37.5096 72.4603 3.99417
39.7023 70.0288 0.00947799
39.8179 72.406 2
39.9526 74.9197 4
42.111 72.2086 0.00576051
42.3947 74.6792 2
44.8159 74.2794 0
41.7361 4.96511 3.99093
43.8515 5.35565 2
44.3255 3.1088 3.99431
46.5703 3.64526 2
47.2057 1.27793 4
48.7841 4.3208 0.00601126
49.554 1.99013 2
51.8506 2.85458 0
59.0274 42.9302 0.0204058
60.2782 39.853 0.02287
62.0177 37.4447 0.0235273
59.7969 37.5673 2
58.0429 40.6661 2
55.1738 39.7288 2
56.8819 37.8985 3.97904
49.7495 41.3121 3.97733
53.2189 39.3146 3.98013
39.442 6.79667 3.98886
59.9257 35.1152 0.0236658
58.0298 32.2567 0.0232171
56.5823 29.318 0.0197617
55.3482 19.1719 0.0168386
55.015 21.5411 0.0204785
54.9541 24.0333 0.0243159
55.4825 26.577 0.0158447
53.1292 18.6438 0.0175775
51.3062 18.0343 0.0167024
50.6357 16.1189 0.0190098
45.962 5.87892 0.00955301
49.7149 13.7319 0.016671
47.3547 8.61836 0.0123072
48.5999 11.285 0.0146779
43.3734 7.46792 0.011518
57.4421 34.7533 2
41.3986 7.07268 2
45.3594 7.98954 2
42.8651 9.40818 2
55.7715 31.4991 2
54.555 28.3805 2
53.9766 20.1188 2
53.5987 22.6857 2
53.8033 25.4765 2
46.6661 10.6458 2
47.7455 13.0919 2
51.6576 19.3116 2
50.0088 17.6875 2
48.9329 15.3888 2
54.95 33.9578 3.97821
53.5519 30.4593 3.98088
52.6339 27.1777 3.98254
52.169 24.0658 3.97587
52.4013 21.0519 3.98079
41.0132 9.04175 3.98697
44.7233 9.98878 3.98629
42.4678 10.8944 3.98516
46.005 12.7203 3.98421
47.6824 14.5739 3.9829
48.1154 16.9763 3.98075
49.8214 19.5864 3.97802
49.5917 61.7509 0.0166981
50.5689 59.3367 0.0186384
55.6916 41.7213 0.0222346
54.234 45.582 0.0174987
53.3793 49.3489 0.0212258
52.1917 56.5034 0.0194276
52.6886 52.8733 0.0237111
48.8495 60.2091 2
52.6014 42.6578 2
49.793 57.6372 2
50.608 54.4397 2
51.8745 47.2875 2
51.2469 50.9647 2
48.2803 43.7501 2
47.9883 58.7507 3.98154
50.1919 45.2869 3.97911
48.6047 55.9283 3.98133
49.1504 52.6159 3.97808
49.7188 49.0663 3.97433
46.1645 39.8967 3.91648
46.5433 42.7346 3.97448
46.5993 45.7746 3.98357
44.007 41.2226 3.95955
42.1099 41.9878 3.95541
47.3291 61.0161 0.0172602
46.6189 59.8028 2
45.4688 58.7988 3.9813
39.6323 67.7741 0.0118345
41.5452 65.6528 0.0136749
43.1453 63.7349 0.0152729
44.4823 61.8434 0.0166051
45.7659 60.6377 0.017799
41.5986 63.8294 2
37.563 67.7573 2
39.6469 65.6222 2
44.623 60.3005 2
42.9494 62.0929 2
41.7524 62.5038 3.98416
42.4805 59.9926 3.98274
39.8922 63.5648 3.98471
37.6418 65.521 3.9863
35.4632 67.6663 3.98811
33.5755 65.3541 3.9864
31.9597 63.3133 3.98491
29.8837 64.731 3.9862
31.6975 65.1409 2
31.3768 67.2039 3.98808
33.3921 67.495 2
33.1561 69.7576 3.99052
35.3332 69.9648 2
35.195 72.3748 3.99415
37.5259 70.0542 0.00944338
37.5096 72.4606 2
37.5 75 4
39.8178 72.4057 0.00584941
39.9526 74.9197 2
42.3947 74.6792 0
39.6237 4.71233 3.99102
41.7361 4.96471 2
42.062 2.71643 3.99449
43.8515 5.35601 0.00930562
44.3256 3.10857 2
44.8158 0.721173 4
46.5701 3.64546 0.00582413
47.2057 1.27779 2
49.554 1.99015 0
58.043 40.6666 0.022751
59.7975 37.5675 0.0225226
55.1746 39.7295 0.0226735
49.7483 41.3123 2
56.8811 37.8984 2
53.2174 39.3137 2
54.0741 36.6223 3.9771
47.6771 40.4468 3.99015
50.7103 38.4924 3.97893
37.5158 6.66775 3.98886
39.442 6.79622 2
39.2108 8.68426 3.9872
35.9413 8.48416 3.98727
57.4426 34.7534 0.022774
55.7726 31.4994 0.0228088
54.5562 28.3799 0.0141103
53.976 20.1191 0.0169602
53.5983 22.6856 0.0249003
53.8037 25.475 0.0212106
51.6574 19.3121 0.0153494
50.0087 17.688 0.0206148
48.9329 15.3892 0.0176945
45.3594 7.98988 0.0119109
47.7456 13.0923 0.0164517
46.6661 10.6461 0.014273
41.3986 7.07312 0.0113674
42.8651 9.40851 0.013219
54.9493 33.9575 2
41.0132 9.04127 2
44.7232 9.98851 2
42.4677 10.8941 2
53.5503 30.4579 2
52.6329 27.1804 2
52.4018 21.051 2
52.1692 24.0676 2
46.0048 12.72 2
47.6823 14.5735 2
49.8215 19.5862 2
48.1154 16.976 2
52.4987 32.8528 3.97917
51.4032 29.134 3.98168
50.8286 25.7034 3.97249
49.9505 22.1649 3.97918
40.5686 11.5977 3.98462
43.8576 11.9093 3.98464
45.8034 15.4091 3.98258
47.5071 19.2093 3.97929
46.4967 37.4999 3.91588
48.8496 60.2086 0.0177189
49.7929 57.6367 0.018825
52.6008 42.6587 0.0236683
51.8751 47.2876 0.0199196
51.2469 50.9667 0.0256597
50.6076 54.4386 0.0225729
48.2887 43.7481 0.0241664
47.9883 58.7511 2
50.1919 45.2884 2
48.6048 55.9289 2
49.1506 52.6172 2
49.7177 49.0641 2
46.1703 39.8998 2
46.5483 42.7371 2
46.5927 45.7763 2
44.0136 41.2241 2
42.119 41.9921 2
46.841 57.3534 3.98273
44.776 39.494 3.95392
42.4858 40.8654 3.96563
48.1634 47.263 3.98198
47.18 54.2617 3.98163
47.6208 50.7765 3.9776
44.8796 47.3514 3.99346
45.2248 42.0064 3.92287
45.0101 44.6404 3.96336
42.8051 42.7309 3.95401
40.9611 42.3506 3.95552
46.619 59.8026 0.0179042
45.4686 58.799 2
43.8766 57.7233 3.98138
37.563 67.7569 0.0119634
39.6469 65.6217 0.0134172
41.5987 63.8289 0.0151755
42.9494 62.0924 0.0160826
44.6231 60.3002 0.017698
35.4633 67.6668 2
41.7523 62.5042 2
39.8922 63.5652 2
37.6418 65.5215 2
42.4805 59.9929 2
40.6221 61.6625 3.98368
40.4443 58.2241 3.9812
37.8359 63.2266 3.9852
35.5728 65.4435 3.98638
33.5755 65.3546 2
31.9598 63.3139 2
33.6291 63.3535 3.98502
30.3787 62.8715 3.9847
32.123 62.0197 3.98389
26.8677 61.514 3.98348
28.0625 64.1586 3.98587
29.8837 64.7315 2
29.4065 66.7672 3.98796
31.6975 65.1404 0.0135813
31.3769 67.2044 2
31.0135 69.4225 3.9904
33.3921 67.4945 0.0119463
33.1561 69.7581 2
32.8921 72.149 3.99417
35.3333 69.9643 0.00945708
35.1949 72.3751 2
35.0474 74.9194 4
37.5096 72.4603 0.00583225
37.5 75 2
39.9526 74.9197 0
35.6203 6.71884 3.98888
37.5229 4.6118 3.99109
39.6237 4.71194 2
39.7885 2.47292 3.99456
41.7361 4.96511 0.00907245
42.062 2.71618 2
42.3946 0.32156 4
44.3255 3.1088 0.00568613
44.8159 0.72056 2
47.2057 1.27793 0
49.7495 41.3121 0.0226669
56.8819 37.8985 0.0209642
53.2189 39.3146 0.0198746
47.6768 40.4442 2
50.708 38.492 2
54.0734 36.6223 2
51.4952 35.5673 3.96696
48.3424 37.7609 3.98837
46.1637 35.1032 3.91594
44.0034 33.7753 3.95775
42.1009 33.0244 3.95656
37.4576 8.52597 3.98727
37.5157 6.66733 2
39.442 6.79667 0.0111415
39.2108 8.68376 2
38.9757 10.1163 3.98639
35.8977 9.76329 3.98623
34.1497 8.81361 3.98699
35.9412 8.48366 2
54.95 33.9578 0.0217909
53.5519 30.4593 0.0191236
52.6339 27.1777 0.0174607
52.4013 21.0519 0.0192092
52.169 24.0658 0.0241276
49.8214 19.5864 0.0219786
48.1154 16.9763 0.0192536
47.6824 14.5739 0.0170993
44.7233 9.98878 0.0137093
46.005 12.7203 0.015789
41.0132 9.04175 0.0130289
42.4678 10.8944 0.0148387
52.498 32.8516 2
40.5686 11.5973 2
43.8575 11.9091 2
51.4015 29.1361 2
50.8284 25.7053 2
49.951 22.1646 2
45.8033 15.4089 2
47.5071 19.2089 2
50.1109 31.389 3.97194
49.3431 27.4599 3.97258
49.4317 24.3783 3.9801
47.1932 21.9114 3.97773
38.3012 12.7225 3.98384
42.1009 14.2931 3.98259
44.8026 18.4449 3.98057
45.0521 37.5 3.94946
46.5087 37.5012 2
47.9883 58.7507 0.0184593
48.6047 55.9283 0.0186671
50.1919 45.2869 0.020889
49.7188 49.0663 0.0256732
49.1504 52.6159 0.021924
46.1645 39.8967 0.0835165
46.5433 42.7346 0.0255178
46.5993 45.7746 0.0164254
44.007 41.2226 0.040447
42.1099 41.9878 0.0445873
46.841 57.354 2
44.7849 39.4927 2
42.4875 40.8668 2
48.1613 47.2601 2
47.1801 54.262 2
47.6207 50.7759 2
44.8774 47.3428 2
45.2276 42.0093 2
45.0177 44.6474 2
42.8159 42.7286 2
40.9701 42.3506 2
45.4015 55.9401 3.98045
42.8147 39.2577 3.96873
40.9235 40.8064 3.9696
46.1458 48.9389 3.98003
45.5646 52.5633 3.98408
43.516 48.4796 3.95946
43.4044 46.2054 3.97631
43.7729 43.8176 3.91596
41.2753 43.8927 3.96165
39.3247 42.666 3.95373
45.4688 58.7988 0.0187021
43.8764 57.7234 2
42.1072 56.3479 3.98167
35.4632 67.6663 0.0118866
37.6418 65.521 0.0137032
39.8922 63.5648 0.0152891
41.7524 62.5038 0.0158369
42.4805 59.9926 0.0172604
35.5728 65.4439 2
40.6221 61.6629 2
37.8359 63.227 2
40.4443 58.2244 2
38.9256 56.5148 3.98205
38.2498 60.3471 3.98348
35.6066 63.2204 3.985
33.5755 65.3541 0.0135966
31.9597 63.3133 0.0150852
33.6291 63.3539 2
30.3788 62.872 2
32.1231 62.0202 2
28.6809 62.2165 3.98444
33.3456 61.5327 3.98365
31.0658 61.2364 3.98319
27.5653 59.6113 3.98231
23.7869 59.1001 3.98418
25.0323 60.8864 3.9831
26.8678 61.5144 2
26.2288 63.4903 3.98531
28.0626 64.159 2
27.4632 66.1908 3.98778
29.8837 64.731 0.0138014
29.4065 66.7678 2
28.9059 68.9478 3.99028
31.3768 67.2039 0.0119237
31.0134 69.4229 2
30.6145 71.78 3.99413
33.1561 69.7576 0.00947571
32.892 72.1493 2
32.6054 74.6784 4
35.195 72.3748 0.00585099
35.0474 74.9197 2
37.5 75 0
33.7229 6.97344 3.98859
35.4343 4.68224 3.99099
35.6202 6.71837 2
37.5141 2.38555 3.99463
37.5229 4.61143 2
39.6237 4.71233 0.00898317
39.7885 2.47267 2
39.9526 0.0806499 4
42.062 2.71643 0.00550738
42.3947 0.320817 2
44.8158 0.721173 0
44.7821 35.5036 3.95284
42.4815 34.1392 3.96479
47.6771 40.4468 0.00985107
50.7103 38.4924 0.0210733
54.0741 36.6223 0.0228998
48.3405 37.7594 2
51.4943 35.567 2
46.1655 35.1017 2
44.0152 33.7726 2
42.1066 33.0231 2
48.5111 34.2527 4.00417
45.216 32.9913 3.91613
42.7976 32.2785 3.95493
40.9503 32.6672 3.9596
37.3097 10.6193 3.98559
37.4575 8.52546 2
37.5158 6.66775 0.0111427
39.2108 8.68426 0.0128
38.9757 10.1157 2
34.7529 10.3689 3.98551
35.8976 9.7628 2
32.3763 9.36026 3.98628
34.1496 8.81308 2
35.9413 8.48416 0.0127311
52.4987 32.8528 0.0208275
51.4032 29.134 0.0183163
50.8286 25.7034 0.0275131
49.9505 22.1649 0.0208187
47.5071 19.2093 0.0207133
45.8034 15.4091 0.0174219
43.8576 11.9093 0.0153571
40.5686 11.5977 0.015381
50.109 31.3895 2
38.301 12.7217 2
42.1007 14.2931 2
49.3417 27.4613 2
49.4321 24.3781 2
47.1936 21.9129 2
44.8024 18.4446 2
47.8863 29.5913 3.96865
47.1343 25.1046 3.97806
44.2929 21.2986 3.97884
36.5809 12.9189 3.98373
38.6803 14.7925 3.98245
41.7507 17.8223 3.98047
42.9455 37.4917 3.97026
45.0667 37.5006 2
46.4967 37.4999 0.084121
46.841 57.3534 0.0172719
47.18 54.2617 0.0183692
48.1634 47.263 0.0180239
47.6208 50.7765 0.0223963
44.776 39.494 0.0460754
45.2248 42.0064 0.077128
45.0101 44.6404 0.0366407
44.8796 47.3514 0.00653836
42.8051 42.7309 0.045988
42.4858 40.8654 0.0343666
40.9611 42.3506 0.0444776
45.4017 55.9405 2
42.8155 39.258 2
40.9239 40.8074 2
46.1458 48.9338 2
45.5649 52.5627 2
43.5143 48.4799 2
43.4318 46.2159 2
43.7787 43.8217 2
41.2815 43.8864 2
39.3292 42.6699 2
43.7412 54.4512 3.98667
40.99 39.1773 3.96132
39.2433 40.8653 3.93856
43.7445 50.5372 3.98842
42.0155 47.7342 4.01496
41.9255 45.2111 3.91139
39.4928 44.6534 3.96518
37.4982 42.7881 3.95301
43.8766 57.7233 0.0186177
42.1071 56.3478 2
40.421 54.95 3.9791
35.5728 65.4435 0.0136212
37.8359 63.2266 0.0147965
40.6221 61.6625 0.0163249
40.4443 58.2241 0.018802
35.6066 63.2208 2
38.2497 60.3474 2
38.9255 56.5163 2
38 55.2697 3.98108
36.9346 57.6487 3.98115
35.3631 60.9319 3.98367
33.6291 63.3535 0.0149759
30.3787 62.8715 0.0153019
32.123 62.0197 0.0161109
33.3456 61.5331 2
28.681 62.2169 2
31.0658 61.2367 2
29.4011 60.3056 3.98268
32.3551 59.7638 3.98297
28.017 58.3906 3.98298
27.5654 59.6116 2
25.3738 58.6115 3.98226
22.7491 58.2596 3.98105
23.3971 60.3663 3.98294
23.7868 59.1005 2
25.0324 60.8869 2
24.4309 62.7824 3.98472
26.8677 61.514 0.0165238
26.2289 63.4908 2
25.5473 65.5005 3.98735
28.0625 64.1586 0.0141334
27.4632 66.1912 2
26.8357 68.3359 3.99014
29.4065 66.7672 0.0120371
28.9058 68.9482 2
28.3697 71.2652 3.99406
31.0135 69.4225 0.0096049
30.6144 71.7803 2
30.1842 74.2788 4
32.8921 72.149 0.00583293
32.6053 74.6792 2
35.0474 74.9194 0
31.7873 7.41309 3.9882
33.3462 4.92139 3.99082
33.7228 6.97291 2
35.2444 2.46171 3.99455
35.4343 4.68182 2
35.6203 6.71884 0.0111229
37.5 0 4
37.5141 2.3853 2
37.5229 4.6118 0.00890629
39.7885 2.47292 0.00544023
39.9526 0.0802889 2
42.3946 0.32156 0
42.819 35.7331 3.96832
44.7867 35.5068 2
40.9193 34.2083 3.97072
42.4825 34.1388 2
48.3424 37.7609 0.0116322
51.4952 35.5673 0.0330359
46.1637 35.1032 0.0840648
44.0034 33.7753 0.0422477
42.1009 33.0244 0.0434361
48.5109 34.2527 2
45.2223 32.9857 2
42.8083 32.2759 2
40.9562 32.6648 2
46.4292 31.5002 3.98765
43.7596 31.1873 3.91601
41.2701 31.1269 3.95491
39.3117 32.3552 3.95091
35.6912 11.7637 3.98408
37.3096 10.6187 2
37.4576 8.52597 0.0127309
38.9757 10.1163 0.0136119
33.0967 11.2055 3.98455
34.7528 10.3684 2
35.8977 9.76329 0.0137703
30.481 10.0083 3.98582
32.3763 9.35981 2
34.1497 8.81361 0.0130116
50.1109 31.389 0.0280569
49.3431 27.4599 0.0274194
49.4317 24.3783 0.019904
47.1932 21.9114 0.0222744
44.8026 18.4449 0.0194344
42.1009 14.2931 0.0174057
38.3012 12.7225 0.0161621
36.5807 12.9186 2
47.8823 29.5927 2
38.6801 14.7917 2
41.7503 17.8223 2
47.1345 25.1054 2
44.2931 21.2982 2
45.6345 27.8002 3.97463
43.8216 24.0319 3.9813
41.3442 20.6997 3.98021
35.7705 14.7437 3.98272
38.6811 17.5792 3.98075
41.033 37.4888 3.9555
42.9484 37.4928 2
45.0521 37.5 0.0505417
45.4015 55.9401 0.0195495
45.5646 52.5633 0.0159163
46.1458 48.9389 0.0199687
42.8147 39.2577 0.0312668
43.7729 43.8176 0.0840413
43.4044 46.2054 0.0236917
43.516 48.4796 0.0405412
41.2753 43.8927 0.0383508
40.9235 40.8064 0.0303998
39.3247 42.666 0.0462739
43.7417 54.4516 2
40.9894 39.1779 2
39.2428 40.8693 2
43.7442 50.5382 2
42.0156 47.7374 2
41.9377 45.2123 2
37.4989 42.7984 2
39.5038 44.6586 2
41.8912 53.018 3.98723
39.2351 39.1658 3.92835
37.5022 40.9119 3.91755
35.6771 42.6819 3.95357
40.9848 49.759 3.99598
39.8161 46.091 3.91379
37.4966 44.9216 3.96456
42.1072 56.3479 0.0183272
40.4209 54.95 2
38.7298 53.8793 3.9841
35.6066 63.2204 0.0149975
38.2498 60.3471 0.0165209
38.9256 56.5148 0.01795
35.3631 60.9322 2
36.9343 57.6489 2
37.9995 55.27 2
36.3188 55.4063 3.98205
34.4867 58.542 3.98219
33.3456 61.5327 0.016353
28.6809 62.2165 0.01556
31.0658 61.2364 0.0168085
32.3551 59.7641 2
29.4012 60.3059 2
30.2932 57.8357 3.98245
28.017 58.3909 2
26.9349 56.8409 3.98074
27.5653 59.6113 0.0176899
25.3737 58.612 2
23.8278 56.8252 3.97932
21.3238 57.4204 3.98195
21.9883 59.6395 3.98344
22.7489 58.2601 2
22.7339 62.0335 3.98412
23.3971 60.3668 2
23.7869 59.1001 0.0158233
25.0323 60.8864 0.016901
24.431 62.7828 2
23.681 64.7186 3.98664
26.2288 63.4903 0.0146925
25.5473 65.501 2
24.8081 67.597 3.98997
27.4632 66.1908 0.0122241
26.8356 68.3363 2
26.165 70.606 3.99395
28.9059 68.9478 0.00971846
28.3696 71.2654 2
27.7943 73.7221 4
30.6145 71.78 0.00586701
30.1841 74.2794 2
32.6054 74.6784 0
29.8099 7.98628 3.98769
31.2514 5.32843 3.99052
31.7873 7.4126 2
32.9802 2.69981 3.99443
33.3462 4.92091 2
33.7229 6.97344 0.0114084
35.0474 0.080333 4
35.2443 2.46145 2
35.4343 4.68224 0.009006
37.5 0 2
37.5141 2.38555 0.00537171
39.9526 0.0806499 0
40.9953 35.8126 3.96176
42.8183 35.7342 2
44.7821 35.5036 0.0471615
28.5419 10.6837 3.98545
39.2379 34.1552 3.9399
40.9181 34.2072 2
42.4815 34.1392 0.0352079
48.5111 34.2527 -0.00416683
45.216 32.9913 0.08387
42.7976 32.2785 0.045071
40.9503 32.6672 0.040402
46.4393 31.4964 2
43.7621 31.1815 2
41.2793 31.124 2
39.3173 32.3493 2
44.4481 29.6706 3.97719
41.9156 29.8095 3.91875
39.4855 30.3808 3.9644
37.4811 32.2372 3.94905
34.0908 12.9217 3.9834
35.6911 11.7633 2
37.3097 10.6193 0.0144135
31.1848 11.9738 3.98446
33.0967 11.2052 2
34.7529 10.3689 0.014487
30.481 10.0079 2
32.3763 9.36026 0.0137236
47.8863 29.5913 0.0313528
47.1343 25.1046 0.0219388
36.5809 12.9189 0.0162685
44.2929 21.2986 0.0211621
41.7507 17.8223 0.0195319
38.6803 14.7925 0.0175543
35.7702 14.7439 2
45.6318 27.8035 2
38.6807 17.5785 2
41.3439 20.6993 2
43.8217 24.0362 2
33.6057 15.8609 3.98276
43.111 26.5228 3.98713
40.9263 23.2724 3.98046
38.4222 20.3075 3.98145
35.8467 17.4922 3.98154
39.2438 37.4916 3.92816
41.0328 37.4886 2
42.9455 37.4917 0.0297351
43.7412 54.4512 0.0133276
43.7445 50.5372 0.0115758
40.99 39.1773 0.0386813
41.9255 45.2111 0.0886116
42.0155 47.7342 -0.0149595
39.4928 44.6534 0.0348155
39.2433 40.8653 0.0614354
37.4982 42.7881 0.0469949
41.8916 53.0192 2
39.2345 39.1678 2
37.5026 40.9196 2
40.9834 49.7597 2
35.6727 42.686 2
39.8293 46.0988 2
37.4987 44.9042 2
39.8309 51.9393 3.99064
37.5009 39.1818 3.92272
35.7635 40.8828 3.93627
34.0413 42.3646 3.95787
35.4913 44.6603 3.96337
38.7705 48.7845 4.02822
37.5048 46.4029 3.90874
40.421 54.95 0.0208971
38.7295 53.8788 2
36.7176 53.2339 3.98843
35.3631 60.9319 0.0163256
36.9346 57.6487 0.0188457
38 55.2697 0.0189237
34.4865 58.5421 2
36.3185 55.4059 2
33.2217 55.5234 3.98201
32.3551 59.7638 0.0170307
29.4011 60.3056 0.0173201
30.2932 57.8359 2
28.6742 55.3282 3.97904
28.017 58.3906 0.0170237
26.9347 56.8415 2
25.2924 55.1631 3.9786
21.7908 55.37 3.97931
25.3738 58.6115 0.0177353
23.8275 56.8257 2
20.2069 57.0515 3.98356
20.638 58.7985 3.98328
21.3235 57.4208 2
21.163 61.1841 3.98439
21.9882 59.64 2
22.7491 58.2596 0.0189543
21.894 63.8464 3.98603
22.734 62.034 2
23.3971 60.3663 0.0170622
24.4309 62.7824 0.0152817
23.6811 64.7191 2
22.8365 66.7408 3.98967
25.5473 65.5005 0.0126521
24.808 67.5974 2
24.0094 69.8071 3.99383
26.8357 68.3359 0.00986282
26.1648 70.6062 2
25.446 73.0099 4
28.3697 71.2652 0.00593793
27.7943 73.7222 2
30.1842 74.2788 0
27.8199 8.64588 3.9874
29.1534 5.87411 3.99014
29.8098 7.98582 2
30.7254 3.09689 3.99424
31.2513 5.32798 2
31.7873 7.41309 0.0118036
32.6053 0.320823 4
32.9801 2.69953 2
33.3462 4.92139 0.00917691
35.0474 0.0802903 2
35.2444 2.46171 0.00544882
37.5 0 0
39.2404 35.8298 3.92826
40.9939 35.8117 2
42.819 35.7331 0.0316815
28.5419 10.6834 2
26.6209 11.3791 3.98514
29.2237 12.6306 3.98421
37.4953 34.1111 3.9214
39.2362 34.1503 2
40.9193 34.2083 0.0292806
46.4292 31.5002 0.0123511
43.7596 31.1873 0.0839942
41.2701 31.1269 0.0450941
39.3117 32.3552 0.0490866
44.4594 29.6621 2
41.9293 29.8028 2
39.4932 30.3757 2
37.4834 32.2253 2
42.3598 28.3527 3.98009
39.8176 28.9332 3.91731
37.4814 30.1128 3.96256
35.6575 32.3473 3.95202
31.9122 14.4674 3.98306
34.0909 12.9214 2
35.6912 11.7637 0.0159151
31.1848 11.9733 2
33.0967 11.2055 0.0154547
30.481 10.0083 0.0141761
45.6345 27.8002 0.0253651
43.8216 24.0319 0.0186951
35.7705 14.7437 0.0172823
41.3442 20.6997 0.0197876
38.6811 17.5792 0.019253
33.6055 15.8612 2
35.8464 17.4927 2
43.1093 26.527 2
38.4221 20.3077 2
40.9264 23.2717 2
33.5476 17.3692 3.98306
40.4822 25.6181 3.99995
38.0828 22.8363 3.98819
35.5823 20.0596 3.98279
37.5018 37.5013 3.92598
39.2435 37.4915 2
41.033 37.4888 0.044503
41.8912 53.018 0.0127735
40.9848 49.759 0.00401632
39.2351 39.1658 0.0716511
39.8161 46.091 0.0862096
37.4966 44.9216 0.0354399
37.5022 40.9119 0.0824518
35.6771 42.6819 0.0464323
39.8318 51.9396 2
37.5013 39.1853 2
35.7652 40.8871 2
38.7662 48.7926 2
34.034 42.3665 2
35.4886 44.6617 2
37.5014 46.4149 2
37.669 51.0212 3.98444
35.7714 39.1867 3.92576
34.0897 40.826 3.96849
32.8909 42.003 3.95681
33.7101 43.9092 3.95649
35.1797 46.1032 3.917
36.8983 48.4223 4.01317
38.7298 53.8793 0.0159035
36.7171 53.2332 2
34.3504 52.4942 3.982
34.4867 58.542 0.0178076
36.3188 55.4063 0.0179474
33.2216 55.523 2
30.5 53.4235 3.98006
30.2932 57.8357 0.017546
28.6738 55.3285 2
26.8559 53.4659 3.97755
26.9349 56.8409 0.0192565
25.292 55.1635 2
23.545 53.5075 3.97676
20.4392 53.2545 3.9776
19.9163 55.8562 3.98251
21.7902 55.3705 2
23.8278 56.8252 0.0206813
19.4288 57.912 3.98311
20.2065 57.0519 2
19.7014 60.2187 3.98388
20.6378 58.7989 2
21.3238 57.4204 0.0180496
20.2056 62.8679 3.98567
21.163 61.1845 2
21.9883 59.6395 0.0165579
20.9379 65.7699 3.98918
21.894 63.8469 2
22.7339 62.0335 0.0158786
23.681 64.7186 0.0133581
22.8364 66.7412 2
21.912 68.8743 3.99368
24.8081 67.597 0.0100334
24.0092 69.8073 2
23.1494 72.1454 4
26.165 70.606 0.00604749
25.446 73.0099 2
27.7943 73.7221 0
25.8592 9.37397 3.98684
27.0683 6.53814 3.98978
27.8198 8.64549 2
28.4877 3.64275 3.994
29.1533 5.8737 2
29.8099 7.98628 0.0123108
30.1841 0.720592 4
30.7253 3.09665 2
31.2514 5.32843 0.00947666
32.6053 0.320817 2
32.9802 2.69981 0.00556621
35.0474 0.080333 0
37.503 35.8268 3.9225
39.2391 35.8275 2
40.9953 35.8126 0.0382414
24.7756 12.0621 3.98495
23.7491 14.3464 3.98373
28.5419 10.6837 0.014552
26.6209 11.3789 2
29.2237 12.6304 2
27.2897 13.3637 3.98412
29.7782 14.1896 3.98344
35.7579 34.1438 3.94023
37.4951 34.1026 2
39.2379 34.1552 0.0600975
37.4811 32.2372 0.0509528
44.4481 29.6706 0.0228064
41.9156 29.8095 0.0812454
39.4855 30.3808 0.0356023
42.3681 28.3411 2
39.8308 28.9272 2
37.4814 30.1266 2
35.6558 32.3408 2
40.0414 27.5306 3.99237
37.4902 28.6242 3.91294
35.4723 30.376 3.96198
34.0268 32.658 3.95685
30.9232 16.8246 3.98256
31.9124 14.467 2
34.0908 12.9217 0.0166026
31.1848 11.9738 0.015539
43.111 26.5228 0.0128669
40.9263 23.2724 0.0195376
33.6057 15.8609 0.0172355
35.8467 17.4922 0.0184603
38.4222 20.3075 0.018548
33.5473 17.3699 2
35.5823 20.0601 2
40.4793 25.6236 2
38.083 22.8384 2
32.8597 19.776 3.98156
37.7879 25.131 4.01632
35.203 22.618 3.97851
35.7627 37.5092 3.92578
37.5025 37.5012 2
39.2438 37.4916 0.0718368
39.8309 51.9393 0.00936123
38.7705 48.7845 -0.0282202
37.5009 39.1818 0.0772822
37.5048 46.4029 0.0912566
35.4913 44.6603 0.0366304
35.7635 40.8828 0.063734
34.0413 42.3646 0.0421304
37.6699 51.0318 2
35.773 39.1885 2
34.091 40.8273 2
36.8949 48.4267 2
32.8848 42.0049 2
33.7059 43.9078 2
35.1667 46.1095 2
35.4224 50.1623 3.98648
34.0243 39.2018 3.95729
32.5186 40.883 3.96637
32.1882 42.7428 3.9564
33.0811 45.2235 3.9182
34.2816 47.5227 3.98977
36.7176 53.2339 0.0115652
34.35 52.4948 2
31.9675 51.2168 3.97806
33.2217 55.5234 0.0179863
30.4996 53.4257 2
28.3916 51.648 3.97914
28.6742 55.3282 0.0209631
26.8554 53.4671 2
25.0396 51.7961 3.97411
25.2924 55.1631 0.0213951
23.5443 53.5083 2
21.9265 51.842 3.97525
19.1665 51.665 3.97715
18.8995 54.3344 3.97993
20.4388 53.2545 2
18.4346 56.7452 3.98371
19.9158 55.8565 2
21.7908 55.37 0.0206938
18.362 59.1275 3.98328
19.4286 57.9124 2
20.2069 57.0515 0.0164379
18.6156 61.7764 3.9852
19.7014 60.2191 2
20.638 58.7985 0.0167238
19.1265 64.6809 3.98858
20.2057 62.8684 2
21.163 61.1841 0.0156107
19.8861 67.811 3.99337
20.9379 65.7703 2
21.894 63.8464 0.0139731
22.8365 66.7408 0.0103298
21.9118 68.8745 2
20.9142 71.1327 4
24.0094 69.8071 0.00617235
23.1494 72.1455 2
25.446 73.0099 0
23.0947 12.7768 3.98457
23.9718 10.1605 3.98648
25.0222 7.30809 3.98953
25.8592 9.37362 2
26.2795 4.32691 3.99371
27.0681 6.53776 2
27.8199 8.64588 0.0126008
27.7943 1.27781 4
28.4875 3.64254 2
29.1534 5.87411 0.00985671
30.1841 0.720551 2
30.7254 3.09689 0.00576282
32.6053 0.320823 0
35.7681 35.8341 3.92642
37.5029 35.8229 2
39.2404 35.8298 0.0717448
24.7757 12.0619 2
23.7493 14.3465 2
22.4772 15.0228 3.98353
25.3557 13.8958 3.98387
24.0216 15.6082 3.9832
26.6209 11.3791 0.0148561
29.2237 12.6306 0.0157916
27.2898 13.3636 2
29.7783 14.1894 2
28.3538 15.9639 3.98316
34.0892 34.2014 3.96855
35.7591 34.1384 2
37.4953 34.1111 0.0786024
35.6575 32.3473 0.0479782
37.4814 30.1128 0.037436
42.3598 28.3527 0.0199096
39.8176 28.9332 0.0826931
40.0436 27.5278 2
37.4901 28.612 2
35.467 30.3717 2
34.0263 32.6546 2
37.6231 27.225 3.99529
35.1448 28.9251 3.91657
33.6896 31.1214 3.95775
32.8822 33.0223 3.95556
30.2029 19.3279 3.98346
30.9232 16.8243 2
31.9122 14.4674 0.0169421
40.4822 25.6181 4.84769e-05
38.0828 22.8363 0.0118101
33.5476 17.3692 0.0169418
35.5823 20.0596 0.0172136
32.8595 19.7773 2
35.2034 22.6178 2
37.787 25.1368 2
32.3039 22.3909 3.98087
34.939 25.1481 3.99207
33.9798 37.5121 3.95238
35.7645 37.5088 2
37.5018 37.5013 0.0740219
37.669 51.0212 0.0155565
36.8983 48.4223 -0.0131723
35.7714 39.1867 0.0742436
35.1797 46.1032 0.0830022
33.7101 43.9092 0.0435114
34.0897 40.826 0.0315058
32.8909 42.003 0.0431897
35.4224 50.1688 2
34.026 39.2025 2
32.518 40.8825 2
34.2741 47.5334 2
32.1785 42.7406 2
33.0683 45.2296 2
33.1805 49.1417 3.98508
32.189 39.2809 3.9687
30.9882 41.2384 3.95739
31.2289 43.8266 3.9184
32.2212 46.4482 3.97747
34.3504 52.4942 0.0179988
31.967 51.2205 2
29.7944 49.7437 3.97664
30.5 53.4235 0.0199377
28.391 51.6466 2
26.4493 50.0347 3.97407
26.8559 53.4659 0.0224486
25.0389 51.7953 2
23.2888 50.2362 3.97661
23.545 53.5075 0.0232449
21.9259 51.8415 2
20.4216 50.3483 3.97697
17.9529 50.3564 3.97901
17.8069 52.8177 3.97888
19.1664 51.6645 2
17.4203 55.3625 3.98194
18.8991 54.3344 2
20.4392 53.2545 0.0223964
17.126 57.8909 3.9841
18.4342 56.7455 2
19.9163 55.8562 0.01749
17.132 60.561 3.98454
18.3619 59.1279 2
19.4288 57.912 0.0168902
17.4064 63.4742 3.988
18.6156 61.7768 2
19.7014 60.2187 0.0161207
17.9422 66.6196 3.99305
19.1265 64.6813 2
20.2056 62.8679 0.0143274
18.75 69.9759 4
19.8859 67.8111 2
20.9379 65.7699 0.0108172
21.912 68.8743 0.00632487
20.9142 71.1327 2
23.1494 72.1454 0
21.5852 13.5968 3.98425
22.1898 11.0196 3.98591
23.0949 12.7768 2
23.0404 8.17337 3.9893
23.9718 10.1603 2
24.1171 5.14151 3.99355
25.0221 7.30776 2
25.8592 9.37397 0.0131568
25.446 1.99014 4
26.2792 4.32675 2
27.0683 6.53814 0.010217
27.7943 1.27778 2
28.4877 3.64275 0.00599945
30.1841 0.720592 0
34.019 35.8232 3.95804
35.7692 35.8314 2
37.503 35.8268 0.0775015
21.3016 15.8181 3.98334
24.7756 12.0621 0.0150515
23.7491 14.3464 0.0162697
25.3558 13.8958 2
22.4774 15.023 2
24.0218 15.6084 2
23.2602 16.2394 3.98298
25.3769 16.0761 3.98345
27.2897 13.3637 0.0158765
29.7782 14.1896 0.0165597
28.3539 15.9639 2
27.4344 18.7857 3.98333
32.5273 34.1433 3.96579
34.0899 34.1993 2
35.7579 34.1438 0.0597705
34.0268 32.658 0.0431521
35.4723 30.376 0.0380218
37.4902 28.6242 0.087058
40.0414 27.5306 0.00762961
37.6196 27.1968 2
32.8817 33.0228 2
35.1279 28.9178 2
33.6808 31.1157 2
35.0493 27.3357 3.99656
33.0406 29.8081 3.92068
32.1729 32.2762 3.95698
29.5642 21.923 3.98826
30.2032 19.3283 2
30.9232 16.8246 0.0174434
37.7879 25.131 -0.0163159
35.203 22.618 0.021494
32.8597 19.776 0.0184394
32.3043 22.3933 2
34.9406 25.157 2
31.6322 25.6076 3.98663
32.0622 37.5144 3.96958
33.9818 37.5118 2
35.7627 37.5092 0.0742218
35.4224 50.1623 0.0135232
34.2816 47.5227 0.0102349
34.0243 39.2018 0.0427111
33.0811 45.2235 0.0818006
32.1882 42.7428 0.0436017
32.5186 40.883 0.0336349
33.1814 49.1294 2
32.1889 39.2801 2
30.9776 41.2385 2
32.2056 46.4589 2
31.2224 43.8303 2
31.0504 47.9028 3.98668
30.216 39.5042 3.95258
29.7736 42.018 3.91551
30.3303 45.0229 3.97858
31.9675 51.2168 0.02194
29.7945 49.7417 2
27.7855 48.2242 3.98001
28.3916 51.648 0.0208556
26.4489 50.0332 2
24.5776 48.5122 3.9759
25.0396 51.7961 0.0258931
23.2885 50.2352 2
21.594 48.8269 3.97899
21.9265 51.842 0.0247501
20.4217 50.3472 2
18.9895 49.1205 3.98093
16.8605 49.3541 3.98171
16.7458 51.4306 3.97935
17.9531 50.3559 2
16.3695 53.8922 3.98065
17.8067 52.8175 2
19.1665 51.665 0.0228549
15.9653 56.4934 3.9834
17.4199 55.3627 2
18.8995 54.3344 0.0200731
15.7443 59.2228 3.98466
17.1258 57.8913 2
18.4346 56.7452 0.0162948
15.7862 62.1456 3.98725
17.132 60.5615 2
18.362 59.1275 0.0167248
16.0886 65.3024 3.99285
17.4064 63.4747 2
18.6156 61.7764 0.0148021
16.6661 68.6801 4
17.942 66.6197 2
19.1265 64.6809 0.0114228
18.75 69.9759 2
19.8861 67.811 0.00663478
20.9142 71.1327 0
20.2165 14.5854 3.98387
21.5854 13.5969 2
20.5288 11.9894 3.98545
21.1435 9.14281 3.98907
22.1899 11.0194 2
23.0947 12.7768 0.0154315
22.0162 6.08043 3.99336
23.0403 8.17307 2
23.9718 10.1605 0.0135205
23.1494 2.85457 4
24.1169 5.14139 2
25.0222 7.30809 0.0104742
25.446 1.99012 2
26.2795 4.32691 0.00628703
27.7943 1.27781 0
32.1943 35.7458 3.96804
34.0204 35.822 2
35.7681 35.8341 0.0735752
21.3019 15.8183 2
20.2977 16.951 3.98412
22.0929 16.6234 3.98291
25.3557 13.8958 0.0161284
22.4772 15.0228 0.0164687
24.0216 15.6082 0.0167977
25.3771 16.0763 2
23.2605 16.2397 2
24.1984 18.438 3.98192
27.0005 21.4448 3.98208
28.3538 15.9639 0.0168412
27.4347 18.7862 2
30.9954 33.7843 3.95385
32.5252 34.1449 2
34.0892 34.2014 0.0314545
32.8822 33.0223 0.0444438
33.6896 31.1214 0.042246
35.1448 28.9251 0.0834317
37.6231 27.225 0.00471498
35.0386 27.3244 2
32.1738 32.279 2
33.0348 29.7993 2
32.4685 28.0563 4.0024
31.1968 31.1989 3.92219
28.7515 24.3878 3.98683
29.5645 21.9246 2
30.2029 19.3279 0.0165385
34.939 25.1481 0.00792553
32.3039 22.3909 0.0191258
31.6327 25.5984 2
29.5611 27.2958 3.98136
29.9474 37.5118 3.95078
32.063 37.514 2
33.9798 37.5121 0.0476171
33.1805 49.1417 0.0149197
32.2212 46.4482 0.022528
32.189 39.2809 0.031297
31.2289 43.8266 0.081598
30.9882 41.2384 0.0426052
31.0537 47.8951 2
30.2094 39.505 2
29.7679 42.0223 2
30.3161 45.0321 2
29.0577 46.4749 3.97932
28.8306 39.9041 3.91356
28.5217 43.2436 3.98374
29.7944 49.7437 0.0233568
27.7859 48.2217 2
25.8448 46.6948 3.97629
26.4493 50.0347 0.025933
24.5779 48.5109 2
22.726 47.1216 3.98522
23.2888 50.2362 0.023386
21.5946 48.8254 2
19.9313 47.6492 3.98424
20.4216 50.3483 0.0230256
18.9899 49.1198 2
17.6329 48.2019 3.98328
16.1122 48.7036 3.98348
16.8608 49.3539 2
15.8232 50.1907 3.98088
15.3576 52.4353 3.98031
16.7458 51.4303 2
17.9529 50.3564 0.020992
14.855 54.9945 3.98212
16.3693 53.8922 2
17.8069 52.8177 0.0211192
14.4524 57.7523 3.98447
15.965 56.4937 2
17.4203 55.3625 0.0180598
14.2637 60.7005 3.98664
15.7442 59.2233 2
17.126 57.8909 0.0158968
14.3326 63.8618 3.99255
15.7862 62.1461 2
17.132 60.561 0.0154606
14.6715 67.2507 4
16.0885 65.3025 2
17.4064 63.4742 0.012004
16.6661 68.6801 2
17.9422 66.6196 0.00695175
18.75 69.9759 0
18.9293 15.7715 3.98398
20.2167 14.5854 2
18.9781 13.1001 3.98498
21.5852 13.5968 0.0157502
20.529 11.9893 2
19.3429 10.2305 3.98858
19.9908 7.14497 3.99329
21.1435 9.14259 2
22.1898 11.0196 0.0140856
20.9142 3.86727 4
22.0159 6.08038 2
23.0404 8.17337 0.0106966
23.1494 2.85451 2
24.1171 5.14151 0.00645079
25.446 1.99014 0
30.2312 35.5255 3.95622
32.1932 35.7459 2
34.019 35.8232 0.0419589
21.3016 15.8181 0.0166565
22.0932 16.6236 2
20.2978 16.9509 2
19.2351 18.3966 3.98383
21.776 17.8384 3.98322
25.3769 16.0761 0.016552
23.2602 16.2394 0.0170199
24.1989 18.4386 2
22.2671 19.8784 3.98238
24.5764 21.3081 3.98276
26.3791 23.7102 3.98259
27.0016 21.4461 2
27.4344 18.7857 0.0166715
29.7715 33.0015 3.91969
30.9844 33.7793 2
32.5273 34.1433 0.034209
32.1729 32.2762 0.0430198
33.0406 29.8081 0.079315
35.0493 27.3357 0.00343963
32.4544 28.0533 2
31.2052 31.2018 2
30.0061 29.4991 3.9965
27.8044 26.5354 3.96982
28.752 24.3932 2
29.5642 21.923 0.0117408
31.6322 25.6076 0.0133732
29.5534 27.2587 2
28.501 37.5093 3.91855
29.9409 37.5136 2
32.0622 37.5144 0.0304185
31.0504 47.9028 0.0133227
30.3303 45.0229 0.0214209
30.216 39.5042 0.0474234
29.7736 42.018 0.0844946
29.0615 46.4747 2
28.8256 39.9046 2
28.5118 43.2479 2
27.1308 44.8107 3.9662
26.6102 40.6494 4.00653
27.7855 48.2242 0.019994
25.8465 46.6932 2
23.8728 45.2511 3.97599
24.5776 48.5122 0.0240988
22.7272 47.1194 2
20.8574 45.9316 3.98505
21.594 48.8269 0.0210117
19.932 47.6484 2
18.2759 46.7623 3.98478
18.9895 49.1205 0.0190676
17.6333 48.2017 2
16.3012 47.7334 3.98324
16.1125 48.7035 2
15.1696 49.0337 3.98219
16.8605 49.3541 0.0182909
15.8234 50.1906 2
14.4709 51.0019 3.98077
13.8159 53.4496 3.9814
15.3575 52.4353 2
16.7458 51.4306 0.0206535
13.2461 56.18 3.98366
14.8548 54.9946 2
16.3695 53.8922 0.0193482
12.8455 59.1343 3.98642
14.4522 57.7526 2
15.9653 56.4934 0.0166023
12.6778 62.3045 3.99199
14.2637 60.7009 2
15.7443 59.2228 0.0153358
12.7746 65.6939 4
14.3324 63.8619 2
15.7862 62.1456 0.0127524
14.6714 67.2507 2
16.0886 65.3024 0.0071544
16.6661 68.6801 0
17.6624 17.146 3.98391
18.9294 15.7713 2
17.5088 14.3636 3.98482
20.2165 14.5854 0.0161251
18.9783 13.1 2
17.6383 11.4493 3.9878
20.5288 11.9894 0.014551
19.343 10.2303 2
18.051 8.33775 3.99307
18.75 5.0241 4
19.9906 7.14499 2
21.1435 9.14281 0.0109295
20.9142 3.86727 2
22.0162 6.08043 0.00663728
23.1494 2.85457 0
28.8381 35.1162 3.91869
30.2236 35.5273 2
32.1943 35.7458 0.0319648
22.0929 16.6234 0.0170851
20.2977 16.951 0.0158822
21.7763 17.8383 2
19.2353 18.3964 2
17.9685 19.9273 3.98359
20.8665 19.3646 3.98362
24.1984 18.438 0.0180811
22.2677 19.8781 2
24.5775 21.309 2
22.3394 21.7021 3.98343
24.6642 23.1532 3.98273
25.3953 25.9386 3.9737
26.3803 23.7105 2
27.0005 21.4448 0.0179197
28.1613 32.2705 3.97816
29.7662 33.0007 2
30.9954 33.7843 0.0461453
31.1968 31.1989 0.0778131
32.4685 28.0563 -0.00240007
29.9809 29.4947 2
26.9038 29.1314 3.97752
27.7999 26.5341 2
28.7515 24.3878 0.0131711
29.5611 27.2958 0.0186424
26.7297 37.3618 3.98586
28.4966 37.5077 2
29.9474 37.5118 0.0492187
29.0577 46.4749 0.0206848
28.5217 43.2436 0.0162556
28.8306 39.9041 0.0864406
27.1361 44.8106 2
26.6102 40.652 2
25.0966 43.2021 3.97305
23.8568 39.436 3.9672
25.8448 46.6948 0.0237146
23.8743 45.2506 2
21.8285 43.9837 3.98214
22.726 47.1216 0.0147764
20.8587 45.9313 2
18.9333 44.9953 3.98155
19.9313 47.6492 0.0157649
18.2765 46.7623 2
16.59 46.232 3.98158
17.6329 48.2019 0.0167222
16.3015 47.7334 2
14.8985 47.6869 3.98189
16.1122 48.7036 0.0165176
15.1698 49.0337 2
13.7686 49.561 3.98131
15.8232 50.1907 0.0191173
14.471 51.0018 2
12.8823 51.8869 3.98119
12.1329 54.5377 3.9829
13.8157 53.4497 2
15.3576 52.4353 0.0196946
11.5294 57.4663 3.98593
13.2459 56.1802 2
14.855 54.9945 0.0178761
11.1323 60.6309 3.99147
12.8454 59.1346 2
14.4524 57.7523 0.0155318
10.9835 64.0165 4
12.6777 62.3045 2
14.2637 60.7005 0.0133624
12.7745 65.694 2
14.3326 63.8618 0.00744763
14.6715 67.2507 0
16.3932 18.6387 3.98401
17.6625 17.1457 2
16.0989 15.7719 3.98483
18.9293 15.7715 0.0160168
17.5089 14.3633 2
16.0196 12.8023 3.98705
18.9781 13.1001 0.0150173
17.6384 11.449 2
16.2021 9.66077 3.99272
19.3429 10.2305 0.0114213
18.0508 8.33782 2
16.6661 6.31991 4
18.75 5.02404 2
19.9908 7.14497 0.00670761
20.9142 3.86727 0
27.236 34.7383 3.97499
28.8313 35.1146 2
30.2312 35.5255 0.0437808
16.666 21.3616 3.98183
21.776 17.8384 0.0167798
19.2351 18.3966 0.0161689
20.8669 19.3643 2
17.9688 19.9272 2
19.7072 21.5558 3.98531
22.2671 19.8784 0.0176196
24.5764 21.3081 0.0172399
22.3403 21.7012 2
24.6647 23.1536 2
22.8045 24.586 3.97781
24.4532 28.5153 3.97264
25.3927 25.9376 2
26.3791 23.7102 0.0174094
25.9989 31.703 3.98201
28.1533 32.2658 2
29.7715 33.0015 0.0803116
30.0061 29.4991 0.00349986
26.9081 29.134 2
27.8044 26.5354 0.0301777
24.5445 36.866 3.97939
26.7299 37.366 2
28.501 37.5093 0.0814467
27.1308 44.8107 0.0337976
26.6102 40.6494 -0.00653031
25.0975 43.2031 2
23.8574 39.4366 2
22.8749 41.8223 3.97726
21.6133 38.5041 3.97651
23.8728 45.2511 0.0240095
21.8294 43.985 2
19.6803 42.909 3.97805
20.8574 45.9316 0.0149502
18.9342 44.9958 2
16.9171 44.3976 3.97883
18.2759 46.7623 0.0152209
16.5905 46.2321 2
14.8186 46.1057 3.97992
16.3012 47.7334 0.0167607
14.8988 47.687 2
13.2753 48.0218 3.98079
15.1696 49.0337 0.0178078
13.7688 49.5611 2
12.1012 50.2637 3.98117
14.4709 51.0019 0.0192309
12.8822 51.887 2
11.1282 52.8451 3.98235
10.3194 55.7174 3.98524
12.1327 54.5379 2
13.8159 53.4496 0.0185986
9.69883 58.8536 3.9906
11.5292 57.4666 2
13.2461 56.18 0.0163429
9.30605 62.2254 4
11.1322 60.631 2
12.8455 59.1343 0.0135766
10.9835 64.0165 2
12.6778 62.3045 0.0080119
12.7746 65.6939 0
15.1362 20.1721 3.98291
16.3934 18.6385 2
14.7436 17.2939 3.98443
17.6624 17.146 0.0160918
16.0991 15.7715 2
14.4815 14.2835 3.98662
17.5088 14.3636 0.0151845
16.0197 12.8019 2
14.4447 11.1118 3.99239
17.6383 11.4493 0.0121976
16.202 9.66079 2
14.6715 7.74927 4
18.051 8.33775 0.00693193
16.6661 6.31988 2
18.75 5.0241 0
25.1818 34.2693 3.98444
27.2344 34.74 2
28.8381 35.1162 0.0813136
17.8359 22.3062 3.98587
15.5087 22.9048 3.98029
16.6662 21.3613 2
20.8665 19.3646 0.0163782
17.9685 19.9273 0.0164088
19.7077 21.5553 2
19.6302 24.3614 3.98088
22.3394 21.7021 0.0165656
24.6642 23.1532 0.0172744
22.803 24.5845 2
21.8398 27.807 3.97384
23.6205 31.1755 3.97275
24.4557 28.518 2
25.3953 25.9386 0.0263018
26.0036 31.6997 2
28.1613 32.2705 0.0218367
26.9038 29.1314 0.0224763
22.3243 36.2683 3.98217
24.5458 36.8664 2
26.7297 37.3618 0.0141354
25.0966 43.2021 0.0269464
23.8568 39.436 0.0328013
22.8747 41.823 2
21.6137 38.5042 2
20.5985 40.6425 3.97701
19.9779 37.7829 3.97963
21.8285 43.9837 0.017859
19.6808 42.9093 2
17.3094 42.1142 3.97732
18.9333 44.9953 0.0184485
16.9178 44.398 2
14.819 44.2137 3.97758
16.59 46.232 0.0184165
14.819 46.1059 2
12.9475 46.307 3.97901
14.8985 47.6869 0.0181134
13.2755 48.022 2
11.4726 48.5591 3.98055
13.7686 49.561 0.0186931
12.1012 50.2638 2
10.2539 51.0872 3.98192
12.8823 51.8869 0.0188056
11.1281 52.8453 2
9.22809 53.8943 3.98466
8.38233 56.9861 3.9896
10.3192 55.7177 2
12.1329 54.5377 0.0170977
7.74927 60.3285 4
9.69869 58.8537 2
11.5294 57.4663 0.0140713
9.306 62.2255 2
11.1323 60.6309 0.00852968
10.9835 64.0165 0
13.9469 21.7384 3.98181
15.1364 20.1717 2
13.4432 18.8903 3.9839
16.3932 18.6387 0.0159854
14.7438 17.2935 2
13.0263 15.8758 3.98623
16.0989 15.7719 0.0151651
14.4816 14.2831 2
12.7819 12.6849 3.99198
16.0196 12.8023 0.0129456
14.4446 11.1118 2
12.7746 9.30605 4
16.2021 9.66077 0.00727506
14.6715 7.74924 2
16.6661 6.31991 0
22.9168 33.79 3.98204
25.181 34.2684 2
27.236 34.7383 0.0250123
17.5998 24.025 3.98173
17.8359 22.3057 2
14.29 24.4373 3.97883
15.5082 22.904 2
16.666 21.3616 0.0181724
18.9814 27.1842 3.97338
19.7072 21.5558 0.014687
19.6291 24.3613 2
21.0725 30.648 3.97478
22.8045 24.586 0.0221897
21.8416 27.8078 2
23.6209 31.1756 2
24.4532 28.5153 0.0273593
25.9989 31.703 0.0179861
20.0929 35.9162 3.98199
22.3249 36.2691 2
24.5445 36.866 0.0206057
22.8749 41.8223 0.0227438
21.6133 38.5041 0.023489
20.5986 40.6424 2
19.9781 37.7831 2
17.9773 39.0065 3.97814
19.6803 42.909 0.0219463
17.3097 42.1145 2
14.7645 41.9281 3.97684
16.9171 44.3976 0.0211741
14.8195 44.214 2
12.687 44.4015 3.97745
14.8186 46.1057 0.0200792
12.9477 46.3073 2
10.9746 46.7413 3.97908
13.2753 48.0218 0.0192055
11.4727 48.5593 2
9.51732 49.2456 3.98122
12.1012 50.2637 0.0188273
10.2539 51.0874 2
8.26104 52.0058 3.98413
11.1282 52.8451 0.0176548
9.22792 53.8945 2
7.19124 55.0355 3.98885
6.31991 58.3339 4
8.38214 56.986 2
10.3194 55.7174 0.0147633
7.74924 60.3285 2
9.69883 58.8536 0.00939608
9.30605 62.2254 0
13.2111 25.352 3.98276
12.8131 23.2683 3.98074
13.9466 21.7376 2
12.2275 20.5393 3.9834
15.1362 20.1721 0.0170875
13.4433 18.8899 2
11.6554 17.5566 3.98607
14.7436 17.2939 0.0155744
13.0264 15.8755 2
11.2191 14.3695 3.99139
14.4815 14.2835 0.013379
12.7818 12.6849 2
10.9835 10.9835 4
14.4447 11.1118 0.00761291
12.7745 9.306 2
14.6715 7.74927 0
20.4812 33.3822 3.9794
22.9169 33.7899 2
25.1818 34.2693 0.0155647
15.8704 26.3872 3.97658
17.5991 24.0244 2
17.8359 22.3062 0.014127
14.29 24.4374 2
15.5087 22.9048 0.0197134
18.3188 30.1582 3.97396
18.9826 27.1847 2
19.6302 24.3614 0.0191191
21.0726 30.6478 2
21.8398 27.807 0.0261635
23.6205 31.1755 0.0272469
17.5999 35.9605 3.9805
20.0935 35.9165 2
22.3243 36.2683 0.017833
20.5985 40.6425 0.0229949
19.9779 37.7829 0.020365
17.9773 39.0065 2
14.2683 39.181 3.97811
17.3094 42.1142 0.0226846
14.7647 41.9284 2
12.3732 42.2841 3.97724
14.819 44.2137 0.0224218
12.6874 44.4018 2
10.5516 44.8088 3.97807
12.9475 46.307 0.0209857
10.9748 46.7416 2
8.9002 47.3234 3.98001
11.4726 48.5591 0.019446
9.51732 49.2459 2
7.42814 50.0379 3.98335
10.2539 51.0872 0.018084
8.26091 52.0061 2
6.13173 53.0091 3.9884
9.22809 53.8943 0.0153384
7.191 55.0352 2
5.0241 56.25 4
6.31988 58.3339 2
8.38233 56.9861 0.0103988
7.74927 60.3285 0
13.4465 26.8042 3.97792
11.9267 24.779 3.97998
13.2113 25.3518 2
11.1299 22.225 3.9824
12.813 23.268 2
13.9469 21.7384 0.0181851
12.2274 20.5386 2
10.385 19.3117 3.98584
13.4432 18.8903 0.0161029
11.6555 17.5562 2
9.75981 16.1526 3.99069
13.0263 15.8758 0.013765
11.2191 14.3694 2
9.30607 12.7746 4
12.7819 12.6849 0.00802393
10.9835 10.9835 2
12.7746 9.30605 0
17.7827 33.1015 3.97698
20.4815 33.3823 2
22.9168 33.79 0.0179634
15.457 29.6262 3.97565
15.8711 26.3874 2
17.5998 24.025 0.0182676
14.29 24.4373 0.021173
18.3188 30.158 2
18.9814 27.1842 0.0266233
21.0725 30.648 0.0252246
14.8602 36.0166 3.97873
17.6003 35.9606 2
20.0929 35.9162 0.0180144
12.5679 37.8312 3.97779
17.9773 39.0065 0.0218573
14.2683 39.1812 2
11.8859 40.1461 3.97807
14.7645 41.9281 0.0231617
12.3734 42.2845 2
10.1505 42.783 3.97762
12.687 44.4015 0.0225538
10.5519 44.8091 2
8.3783 45.3244 3.97922
10.9746 46.7413 0.0209168
8.90029 47.3237 2
6.7198 48.0021 3.98228
9.51732 49.2456 0.0187794
7.42807 50.0381 2
5.20845 50.911 3.98812
8.26104 52.0058 0.0158746
6.13148 53.0085 2
3.86727 54.0858 4
7.19124 55.0355 0.0111536
5.02404 56.25 2
6.31991 58.3339 0
12.9018 29.0255 3.97491
11.3565 26.4805 3.97898
13.4469 26.8038 2
10.1894 23.9609 3.98092
11.9267 24.7786 2
13.2111 25.352 0.0172422
9.23686 21.1318 3.98494
11.1298 22.2246 2
12.8131 23.2683 0.0192621
12.2275 20.5393 0.0165999
10.3849 19.3111 2
8.41552 18.0237 3.98994
11.6554 17.5566 0.0139311
9.75977 16.1524 2
7.74928 14.6715 4
11.2191 14.3695 0.00861335
9.30602 12.7745 2
10.9835 10.9835 0
14.4481 32.8556 3.97689
17.7829 33.1015 2
20.4812 33.3822 0.0206045
15.457 29.6259 2
15.8704 26.3872 0.0234152
18.3188 30.1582 0.0260368
12.8559 36.2082 3.97715
14.8606 36.0166 2
17.5999 35.9605 0.0195035
12.568 37.8312 2
11.2445 38.3126 3.97723
14.2683 39.181 0.0218934
11.8859 40.1464 2
9.73594 40.7583 3.97805
12.3732 42.2841 0.0227634
10.1506 42.7834 2
7.92751 43.2727 3.97878
10.5516 44.8088 0.021929
8.37852 45.3247 2
6.12624 45.9065 3.98158
8.9002 47.3234 0.0199936
6.71981 48.0021 2
4.42012 48.7509 3.98793
7.42814 50.0379 0.0166488
5.20823 50.9102 2
2.85457 51.8506 4
6.13173 53.0091 0.0116049
3.86727 54.0858 2
5.0241 56.25 0
12.0425 31.251 3.97719
10.7694 28.4098 3.97707
12.9017 29.025 2
9.40453 25.7932 3.98003
11.3567 26.4801 2
13.4465 26.8042 0.0220842
8.2242 23.0189 3.98343
10.1894 23.9605 2
11.9267 24.779 0.0200198
7.1975 19.9745 3.98909
9.23673 21.1313 2
11.1299 22.225 0.0176037
10.385 19.3117 0.0141636
8.41537 18.0236 2
6.31992 16.6661 4
9.75981 16.1526 0.00931182
7.74926 14.6714 2
9.30607 12.7746 0
12.0602 34.2916 3.97673
14.4484 32.8556 2
17.7827 33.1015 0.0230188
15.457 29.6262 0.0243461
10.8094 36.6111 3.97642
12.8563 36.2081 2
14.8602 36.0166 0.0212697
12.5679 37.8312 0.0222136
11.2446 38.3126 2
9.33172 38.826 3.9777
11.8859 40.1461 0.02193
9.73602 40.7586 2
7.53912 41.2134 3.97871
10.1505 42.783 0.0223797
7.92763 43.2729 2
5.63835 43.769 3.98151
8.3783 45.3244 0.0207794
6.12638 45.9064 2
3.76593 46.5365 3.98786
6.7198 48.0021 0.0177201
4.41996 48.7499 2
1.99014 49.554 4
5.20845 50.911 0.0118755
2.85451 51.8506 2
3.86727 54.0858 0
10.9063 32.9156 3.97786
10.0827 30.3782 3.97748
12.0427 31.2508 2
8.71308 27.7286 3.97889
10.7694 28.4094 2
12.9018 29.0255 0.0250923
7.34991 24.9797 3.98251
9.40469 25.7929 2
11.3565 26.4805 0.0210237
6.11441 21.9997 3.98812
8.22412 23.0185 2
10.1894 23.9609 0.0190788
5.02411 18.75 4
7.19726 19.9747 2
9.23686 21.1318 0.0150614
8.41552 18.0237 0.0100645
6.3199 16.6661 2
7.74928 14.6715 0
10.4213 34.9986 3.97741
12.0605 34.2915 2
14.4481 32.8556 0.023107
9.00575 36.9857 3.97634
10.8097 36.611 2
12.8559 36.2082 0.0228458
11.2445 38.3126 0.0227697
9.33183 38.8261 2
7.22054 39.1834 3.97849
9.73594 40.7583 0.0219461
7.53921 41.2136 2
5.25404 41.6145 3.98119
7.92751 43.2727 0.0212221
5.63843 43.769 2
3.24382 44.2817 3.98782
6.12624 45.9065 0.0184186
3.7659 46.5355 2
1.27781 47.2057 4
4.42012 48.7509 0.0120669
1.99012 49.554 2
2.85457 51.8506 0
10.0743 33.8793 3.97776
9.37655 32.1517 3.978
10.9065 32.9154 2
8.06281 29.6933 3.97859
10.0828 30.378 2
12.0425 31.251 0.0228106
6.59393 27.007 3.98164
8.71309 27.7282 2
10.7694 28.4098 0.0229282
5.16962 24.0942 3.98769
7.34999 24.9794 2
9.40453 25.7932 0.019974
3.86728 20.9142 4
6.11415 22.0003 2
8.2242 23.0189 0.0165672
5.02406 18.75 2
7.1975 19.9745 0.0109068
6.31992 16.6661 0
8.8323 35.2789 3.97728
10.4215 34.9985 2
12.0602 34.2916 0.0232678
7.00581 37.2064 3.97743
9.00598 36.9857 2
10.8094 36.6111 0.0235755
9.33172 38.826 0.0222993
7.22068 39.1835 2
4.98247 39.4677 3.98067
7.53912 41.2134 0.0212935
5.25412 41.6145 2
2.85453 42.0024 3.98744
5.63835 43.769 0.0184927
3.2438 44.281 2
0.720592 44.8159 4
3.76593 46.5365 0.0121381
1.27778 47.2057 2
1.99014 49.554 0
8.87373 33.6961 3.97792
10.0745 33.8791 2
7.50088 31.6077 3.97872
9.37666 32.1515 2
10.9063 32.9156 0.0221367
5.93949 29.0689 3.98112
8.06289 29.6931 2
10.0827 30.3782 0.0225174
4.35732 26.2478 3.9876
6.59396 27.0068 2
8.71308 27.7286 0.0211053
2.85458 23.1494 4
5.16946 24.0951 2
7.34991 24.9797 0.0174935
3.86728 20.9142 2
6.11441 21.9997 0.0118751
5.02411 18.75 0
6.9563 35.306 3.97768
8.83251 35.2788 2
10.4213 34.9986 0.0225932
4.8334 37.3401 3.98011
7.00604 37.2065 2
9.00575 36.9857 0.0236609
7.22054 39.1834 0.0215087
4.9826 39.4677 2
2.60288 39.7142 3.98672
5.25404 41.6145 0.0188086
2.85454 42.0019 2
0.320823 42.3947 4
3.24382 44.2817 0.0121764
0.720551 44.8159 2
1.27781 47.2057 0
7.11555 33.4602 3.97842
8.87389 33.6959 2
10.0743 33.8793 0.0222445
5.41077 31.1334 3.98101
7.50096 31.6076 2
9.37655 32.1517 0.021996
3.67924 28.4441 3.98756
5.93956 29.0689 2
8.06281 29.6933 0.0214092
1.99015 25.446 4
4.3572 26.2488 2
6.59393 27.007 0.0183603
2.85453 23.1494 2
5.16962 24.0942 0.012308
3.86728 20.9142 0
4.84789 35.2518 3.98016
6.9565 35.3059 2
8.8323 35.2789 0.0227246
2.49452 37.4288 3.98646
4.83359 37.3401 2
7.00581 37.2064 0.0225687
4.98247 39.4677 0.0193311
2.60294 39.714 2
0.080333 39.9526 4
2.85453 42.0024 0.0125619
0.320817 42.3947 2
0.720592 44.8159 0
5.04079 33.1904 3.98075
7.11568 33.4601 2
8.87373 33.6961 0.0220769
3.14382 30.6667 3.98734
5.41082 31.1336 2
7.50088 31.6077 0.0212782
1.27793 27.7943 4
3.6792 28.445 2
5.93949 29.0689 0.0188837
1.99013 25.446 2
4.35732 26.2478 0.0124024
2.85458 23.1494 0
2.54673 35.1593 3.9864
4.84804 35.252 2
6.9563 35.306 0.0223165
0 37.5 4
2.49462 37.4289 2
4.8334 37.3401 0.0198883
2.60288 39.7142 0.0132815
0.0802903 39.9526 2
0.320823 42.3947 0
2.76413 32.9061 3.98684
5.04088 33.1906 2
7.11555 33.4602 0.0215821
0.721173 30.1842 4
3.1438 30.6674 2
5.41077 31.1334 0.0189852
1.27779 27.7943 2
3.67924 28.4441 0.0124415
1.99015 25.446 0
0.0806499 35.0474 4
2.5468 35.1597 2
4.84789 35.2518 0.0198423
0 37.5 2
2.49452 37.4288 0.0135445
0.080333 39.9526 0
0.32156 32.6054 4
2.76416 32.9066 2
5.04079 33.1904 0.0192549
0.72056 30.1841 2
3.14382 30.6667 0.0126641
1.27793 27.7943 0
0.0802889 35.0474 2
2.54673 35.1593 0.0135961
0 37.5 0
0.320817 32.6053 2
2.76413 32.9061 0.0131592
0.721173 30.1842 0
0.0806499 35.0474 0
0.32156 32.6054 0
CELLS 1910 17190
8 18 6 25 56 2 0 5 16
8 57 23 6 18 17 4 0 2
8 78 36 9 29 31 11 1 7
8 31 11 1 7 79 37 10 30
8 110 57 18 50 48 17 2 14
8 50 18 56 111 14 2 16 49
8 116 62 22 55 52 20 3 15
8 56 25 67 118 16 5 24 53
8 119 63 23 57 54 21 4 17
8 55 22 63 119 15 3 21 54
8 58 26 68 121 18 6 25 56
8 122 65 26 58 57 23 6 18
8 73 31 7 27 142 79 30 71
8 143 78 29 72 73 31 7 27
8 83 147 76 34 32 74 28 8
8 84 148 78 36 33 75 29 9
8 76 34 8 28 148 84 33 75
8 37 79 150 86 10 30 77 35
8 151 87 36 78 80 38 11 31
8 80 38 11 31 152 88 37 79
8 175 100 42 94 96 44 12 40
8 44 96 176 101 12 40 95 43
8 101 176 98 46 43 95 41 13
8 46 98 178 103 13 41 97 45
8 178 103 45 97 147 83 32 74
8 189 116 55 109 106 52 15 47
8 111 56 118 191 49 16 53 107
8 192 119 57 110 108 54 17 48
8 109 55 119 192 47 15 54 108
8 194 122 58 112 110 57 18 50
8 112 58 121 195 50 18 56 111
8 115 61 19 51 197 124 59 113
8 115 61 125 198 51 19 60 114
8 198 125 62 116 114 60 20 52
8 200 127 64 120 116 62 22 55
8 118 67 132 202 53 24 66 117
8 121 68 133 203 56 25 67 118
8 120 64 128 204 55 22 63 119
8 204 128 65 122 119 63 23 57
8 206 134 68 121 123 69 26 58
8 123 69 26 58 207 131 65 122
8 226 147 74 138 140 76 28 70
8 229 148 75 139 143 78 29 72
8 140 76 28 70 229 148 75 139
8 142 79 30 71 231 150 77 141
8 144 80 31 73 232 152 79 142
8 233 151 78 143 144 80 31 73
8 150 86 35 77 235 154 81 145
8 235 154 81 145 146 82 39 91
8 146 82 39 91 236 155 90 165
8 238 157 83 147 149 85 34 76
8 239 158 84 148 151 87 36 78
8 149 85 34 76 239 158 84 148
8 152 88 37 79 241 160 86 150
8 242 161 87 151 153 89 38 80
8 153 89 38 80 243 162 88 152
8 171 98 41 92 265 178 97 169
8 265 178 97 169 226 147 74 138
8 172 96 40 93 266 176 95 170
8 266 176 95 170 171 98 41 92
8 269 175 94 173 172 96 40 93
8 271 180 99 174 175 100 42 94
8 197 124 59 113 271 180 99 174
8 272 181 100 175 177 102 44 96
8 273 182 101 176 179 104 46 98
8 177 102 44 96 273 182 101 176
8 179 104 46 98 275 184 103 178
8 275 184 103 178 238 157 83 147
8 188 115 51 105 283 197 113 186
8 188 115 198 284 105 51 114 187
8 284 198 116 189 187 114 52 106
8 286 200 120 193 189 116 55 109
8 191 118 202 288 107 53 117 190
8 195 121 203 289 111 56 118 191
8 193 120 204 290 109 55 119 192
8 290 204 122 194 192 119 57 110
8 196 123 58 112 292 207 122 194
8 293 206 121 195 196 123 58 112
8 199 126 61 115 297 211 124 197
8 298 212 127 200 198 125 62 116
8 199 126 212 298 115 61 125 198
8 205 129 64 120 300 214 127 200
8 301 217 130 201 202 132 66 117
8 209 136 168 264 301 217 130 201
8 302 219 132 202 203 133 67 118
8 303 220 133 203 206 134 68 121
8 205 129 215 304 120 64 128 204
8 304 215 131 207 204 128 65 122
8 306 221 134 206 208 135 69 123
8 208 135 69 123 307 218 131 207
8 210 137 167 263 309 223 136 209
8 328 238 147 226 230 149 76 140
8 228 146 91 166 329 236 165 260
8 231 150 77 141 330 235 145 227
8 330 235 145 227 228 146 91 166
8 332 239 148 229 233 151 78 143
8 230 149 76 140 332 239 148 229
8 232 152 79 142 334 241 150 231
8 234 153 80 144 335 243 152 232
8 336 242 151 233 234 153 80 144
8 236 155 90 165 338 245 164 259
8 241 160 86 150 339 246 154 235
8 339 246 154 235 237 156 82 146
8 237 156 82 146 340 247 155 236
8 342 249 157 238 240 159 85 149
8 343 250 158 239 242 161 87 151
8 240 159 85 149 343 250 158 239
8 243 162 88 152 345 252 160 241
8 244 163 253 346 153 89 161 242
8 244 163 89 153 347 254 162 243
8 311 224 261 371 210 137 167 263
8 263 167 262 372 209 136 168 264
8 267 179 98 171 375 275 178 265
8 375 275 178 265 328 238 147 226
8 376 273 176 266 267 179 98 171
8 268 177 96 172 376 273 176 266
8 379 272 175 269 268 177 96 172
8 380 271 174 270 269 175 94 173
8 283 197 113 186 380 271 174 270
8 381 277 180 271 272 181 100 175
8 297 211 124 197 381 277 180 271
8 382 278 181 272 274 183 102 177
8 274 183 102 177 383 279 182 273
8 383 279 182 273 276 185 104 179
8 385 281 184 275 342 249 157 238
8 276 185 104 179 385 281 184 275
8 285 199 115 188 393 297 197 283
8 394 298 200 286 284 198 116 189
8 285 199 298 394 188 115 198 284
8 291 205 120 193 396 300 200 286
8 397 301 201 287 288 202 117 190
8 295 209 264 374 397 301 201 287
8 398 302 202 288 289 203 118 191
8 399 303 203 289 293 206 121 195
8 291 205 304 400 193 120 204 290
8 400 304 207 292 290 204 122 194
8 294 208 123 196 402 307 207 292
8 403 306 206 293 294 208 123 196
8 296 210 263 373 405 309 209 295
8 408 312 213 299 297 211 126 199
8 299 213 313 409 199 126 212 298
8 409 313 214 300 298 212 127 200
8 305 216 129 205 411 315 214 300
8 412 318 217 301 302 219 132 202
8 309 223 136 209 412 318 217 301
8 413 320 219 302 303 220 133 203
8 306 221 321 414 206 134 220 303
8 307 218 131 207 415 316 215 304
8 305 216 316 415 205 129 215 304
8 417 322 221 306 308 222 135 208
8 308 222 135 208 418 319 218 307
8 310 225 137 210 420 325 223 309
8 423 326 224 311 310 225 137 210
8 329 236 165 260 441 338 259 368
8 442 342 238 328 333 240 149 230
8 331 237 146 228 443 340 236 329
8 334 241 150 231 444 339 235 330
8 444 339 235 330 331 237 146 228
8 446 343 239 332 336 242 151 233
8 333 240 149 230 446 343 239 332
8 335 243 152 232 448 345 241 334
8 337 244 153 234 449 347 243 335
8 337 244 346 450 234 153 242 336
8 338 245 164 259 452 349 258 367
8 340 247 155 236 453 350 245 338
8 345 252 160 241 454 351 246 339
8 454 351 246 339 341 248 156 237
8 341 248 156 237 455 352 247 340
8 240 159 251 344 342 249 354 457
8 242 161 253 346 343 250 355 458
8 343 250 355 458 240 159 251 344
8 347 254 162 243 460 357 252 345
8 348 255 358 461 244 163 253 346
8 348 255 163 244 462 359 254 347
8 473 360 257 365 363 256 364 482
8 452 349 258 367 365 257 366 485
8 422 324 369 488 311 224 261 371
8 371 261 370 490 263 167 262 372
8 407 311 371 491 296 210 263 373
8 373 263 372 492 295 209 264 374
8 493 385 275 375 442 342 238 328
8 377 276 179 267 493 385 275 375
8 378 274 177 268 494 383 273 376
8 494 383 273 376 377 276 179 267
8 497 382 272 379 378 274 177 268
8 498 381 271 380 379 272 175 269
8 393 297 197 283 498 381 271 380
8 499 387 277 381 382 278 181 272
8 408 312 211 297 499 387 277 381
8 500 388 278 382 384 280 183 274
8 501 389 279 383 386 282 185 276
8 384 280 183 274 501 389 279 383
8 386 282 185 276 503 391 281 385
8 503 391 281 385 457 354 249 342
8 511 408 299 395 393 297 199 285
8 395 299 409 512 285 199 298 394
8 512 409 300 396 394 298 200 286
8 401 305 205 291 514 411 300 396
8 515 412 301 397 398 302 202 288
8 405 309 209 295 515 412 301 397
8 516 413 302 398 399 303 203 289
8 403 306 414 517 293 206 303 399
8 402 307 207 292 518 415 304 400
8 401 305 415 518 291 205 304 400
8 404 308 208 294 520 418 307 402
8 521 417 306 403 404 308 208 294
8 406 310 210 296 523 420 309 405
8 526 423 311 407 406 310 210 296
8 410 314 213 299 527 424 312 408
8 528 425 315 411 409 313 214 300
8 410 314 425 528 299 213 313 409
8 416 317 216 305 530 427 315 411
8 531 430 318 412 413 320 219 302
8 420 325 223 309 531 430 318 412
8 532 432 320 413 414 321 220 303
8 417 322 433 533 306 221 321 414
8 418 319 218 307 534 428 316 415
8 416 317 428 534 305 216 316 415
8 419 323 434 536 308 222 322 417
8 419 323 222 308 537 431 319 418
8 421 327 225 310 539 438 325 420
8 421 327 439 541 310 225 326 423
8 543 437 324 422 423 326 224 311
8 441 338 259 368 559 452 367 486
8 443 340 236 329 560 453 338 441
8 333 240 344 447 442 342 457 561
8 445 341 237 331 562 455 340 443
8 448 345 241 334 563 454 339 444
8 563 454 339 444 445 341 237 331
8 336 242 346 450 446 343 458 565
8 446 343 458 565 333 240 344 447
8 449 347 243 335 567 460 345 448
8 451 348 244 337 568 462 347 449
8 451 348 461 569 337 244 346 450
8 570 463 349 452 473 360 257 365
8 453 350 245 338 570 463 349 452
8 455 352 247 340 571 464 350 453
8 460 357 252 345 572 465 351 454
8 572 465 351 454 456 353 248 341
8 456 353 248 341 573 466 352 455
8 344 251 356 459 457 354 468 575
8 458 355 469 576 344 251 356 459
8 346 253 358 461 458 355 469 576
8 462 359 254 347 578 471 357 460
8 348 255 359 462 461 358 472 579
8 591 474 360 473 475 361 256 363
8 475 361 256 363 594 477 362 479
8 363 256 364 482 479 362 480 603
8 590 473 365 484 481 363 482 605
8 482 364 257 365 606 483 366 485
8 559 452 367 486 484 365 485 607
8 542 436 487 609 422 324 369 488
8 525 422 488 611 407 311 371 491
8 488 369 489 612 371 261 370 490
8 491 371 490 613 373 263 372 492
8 495 386 276 377 614 503 385 493
8 614 503 385 493 561 457 342 442
8 615 501 383 494 495 386 276 377
8 496 384 274 378 615 501 383 494
8 618 500 382 497 496 384 274 378
8 619 499 381 498 497 382 272 379
8 511 408 297 393 619 499 381 498
8 620 505 387 499 500 388 278 382
8 527 424 312 408 620 505 387 499
8 502 390 506 621 384 280 388 500
8 622 507 389 501 504 392 282 386
8 502 390 280 384 622 507 389 501
8 504 392 282 386 624 509 391 503
8 624 509 391 503 575 468 354 457
8 513 410 299 395 630 527 408 511
8 631 528 411 514 512 409 300 396
8 513 410 528 631 395 299 409 512
8 519 416 305 401 633 530 411 514
8 634 531 412 515 516 413 302 398
8 523 420 309 405 634 531 412 515
8 635 532 413 516 517 414 303 399
8 521 417 533 636 403 306 414 517
8 520 418 307 402 637 534 415 518
8 519 416 534 637 401 305 415 518
8 522 419 308 404 639 537 418 520
8 522 419 536 640 404 308 417 521
8 524 421 310 406 642 539 420 523
8 524 421 541 644 406 310 423 526
8 646 543 422 525 526 423 311 407
8 529 426 314 410 647 544 424 527
8 528 425 545 648 411 315 427 530
8 529 426 545 648 410 314 425 528
8 535 429 317 416 649 546 427 530
8 650 548 430 531 532 432 320 413
8 539 438 325 420 650 548 430 531
8 533 433 550 651 414 321 432 532
8 536 434 551 652 417 322 433 533
8 537 431 319 418 653 547 428 534
8 535 429 547 653 416 317 428 534
8 538 435 552 654 419 323 434 536
8 538 435 323 419 655 549 431 537
8 540 440 327 421 657 556 438 539
8 540 440 557 659 421 327 439 541
8 541 439 555 660 423 326 437 543
8 661 554 436 542 543 437 324 422
8 676 570 452 559 590 473 365 484
8 560 453 338 441 676 570 452 559
8 562 455 340 443 677 571 453 560
8 447 344 459 566 561 457 575 678
8 564 456 341 445 679 573 455 562
8 567 460 345 448 680 572 454 563
8 680 572 454 563 564 456 341 445
8 565 458 576 682 447 344 459 566
8 450 346 461 569 565 458 576 682
8 568 462 347 449 684 578 460 567
8 451 348 462 568 569 461 579 685
8 686 580 463 570 591 474 360 473
8 571 464 350 453 686 580 463 570
8 573 466 352 455 687 581 464 571
8 572 465 582 688 460 357 471 578
8 574 467 582 688 456 353 465 572
8 574 467 353 456 689 583 466 573
8 459 356 470 577 575 468 585 691
8 576 469 586 692 459 356 470 577
8 461 358 472 579 576 469 586 692
8 462 359 471 578 579 472 588 694
8 704 591 473 590 593 475 363 481
8 595 476 592 705 475 361 474 591
8 593 475 363 481 707 594 479 602
8 594 477 362 479 709 598 478 600
8 595 476 361 475 711 597 477 594
8 479 362 480 603 600 478 601 720
8 481 363 482 605 602 479 603 722
8 603 480 364 482 723 604 483 606
8 605 482 365 484 724 606 485 607
8 656 553 608 726 542 436 487 609
8 645 542 609 728 525 422 488 611
8 609 487 610 729 488 369 489 612
8 611 488 612 730 491 371 490 613
8 616 504 386 495 731 624 503 614
8 731 624 503 614 678 575 457 561
8 732 622 501 615 616 504 386 495
8 617 502 384 496 732 622 501 615
8 617 502 621 735 496 384 500 618
8 736 620 499 619 618 500 382 497
8 630 527 408 511 736 620 499 619
8 621 506 626 737 500 388 505 620
8 647 544 424 527 737 626 505 620
8 623 508 627 738 502 390 506 621
8 623 508 390 502 739 628 507 622
8 625 510 628 739 504 392 507 622
8 740 629 509 624 691 585 468 575
8 625 510 392 504 740 629 509 624
8 632 529 410 513 744 647 527 630
8 631 528 648 745 514 411 530 633
8 632 529 648 745 513 410 528 631
8 638 535 416 519 746 649 530 633
8 747 650 531 634 635 532 413 516
8 642 539 420 523 747 650 531 634
8 636 533 651 748 517 414 532 635
8 640 536 652 749 521 417 533 636
8 639 537 418 520 750 653 534 637
8 638 535 653 750 519 416 534 637
8 641 538 419 522 751 655 537 639
8 641 538 654 752 522 419 536 640
8 643 540 421 524 753 657 539 642
8 643 540 659 755 524 421 541 644
8 644 541 660 757 526 423 543 646
8 758 661 542 645 646 543 422 525
8 529 426 544 647 648 545 662 759
8 530 427 545 648 649 546 663 760
8 535 429 546 649 653 547 664 761
8 762 666 548 650 651 550 432 532
8 657 556 438 539 762 666 548 650
8 652 551 668 763 533 433 550 651
8 654 552 669 764 536 434 551 652
8 655 549 431 537 765 665 547 653
8 538 435 549 655 654 552 667 766
8 661 554 671 768 542 436 553 656
8 658 558 440 540 769 674 556 657
8 658 558 675 770 540 440 557 659
8 659 557 673 771 541 439 555 660
8 660 555 672 772 543 437 554 661
8 788 686 570 676 704 591 473 590
8 677 571 453 560 788 686 570 676
8 679 573 455 562 789 687 571 677
8 566 459 577 683 678 575 691 790
8 681 574 456 564 791 689 573 679
8 680 572 688 792 567 460 578 684
8 681 574 688 792 564 456 572 680
8 682 576 692 794 566 459 577 683
8 569 461 579 685 682 576 692 794
8 568 462 578 684 685 579 694 796
8 687 581 464 571 798 696 580 686
8 798 696 580 686 705 592 474 591
8 689 583 466 573 799 697 581 687
8 688 582 698 800 578 471 588 694
8 690 584 698 800 574 467 582 688
8 690 584 467 574 801 699 583 689
8 693 587 701 803 577 470 585 691
8 693 587 470 577 804 702 586 692
8 695 589 702 804 579 472 586 692
8 695 589 472 579 805 703 588 694
8 708 595 705 813 593 475 591 704
8 710 596 706 814 595 476 592 705
8 707 594 479 602 816 709 600 719
8 708 595 475 593 817 711 594 707
8 709 598 478 600 819 715 599 717
8 711 597 477 594 820 714 598 709
8 710 596 476 595 822 713 597 711
8 600 478 601 720 717 599 718 832
8 602 479 603 722 719 600 720 834
8 720 601 480 603 835 721 604 723
8 722 603 482 605 836 723 606 724
8 767 670 725 839 656 553 608 726
8 756 656 726 841 645 542 609 728
8 726 608 727 842 609 487 610 729
8 728 609 729 843 611 488 612 730
8 844 740 624 731 790 691 575 678
8 733 625 504 616 844 740 624 731
8 734 623 502 617 845 739 622 732
8 733 625 739 845 616 504 622 732
8 734 623 738 846 617 502 621 735
8 735 621 737 847 618 500 620 736
8 744 647 527 630 847 737 620 736
8 621 506 627 738 737 626 741 848
8 647 544 626 737 759 662 741 848
8 623 508 628 739 738 627 742 849
8 740 629 585 691 850 743 700 802
8 625 510 629 740 739 628 743 850
8 632 529 647 744 745 648 759 854
8 633 530 648 745 746 649 760 855
8 638 535 649 746 750 653 761 856
8 857 762 650 747 748 651 532 635
8 753 657 539 642 857 762 650 747
8 749 652 763 858 636 533 651 748
8 752 654 764 859 640 536 652 749
8 751 655 537 639 860 765 653 750
8 641 538 655 751 752 654 766 861
8 754 658 540 643 862 769 657 753
8 754 658 770 863 643 540 659 755
8 755 659 771 864 644 541 660 757
8 758 661 768 866 645 542 656 756
8 757 660 772 867 646 543 661 758
8 759 662 773 868 648 545 663 760
8 649 546 663 760 761 664 774 871
8 765 665 547 653 872 775 664 761
8 873 777 666 762 763 668 550 651
8 769 674 556 657 873 777 666 762
8 764 669 779 874 652 551 668 763
8 654 552 667 766 764 669 778 875
8 655 549 665 765 766 667 776 876
8 768 671 782 877 656 553 670 767
8 772 672 783 878 661 554 671 768
8 658 558 674 769 770 675 786 879
8 659 557 675 770 771 673 785 881
8 882 784 672 772 771 673 555 660
8 789 687 571 677 897 798 686 788
8 897 798 686 788 813 705 591 704
8 791 689 573 679 898 799 687 789
8 795 693 803 900 683 577 691 790
8 793 690 574 681 901 801 689 791
8 792 688 800 902 684 578 694 796
8 793 690 800 902 681 574 688 792
8 795 693 577 683 903 804 692 794
8 797 695 804 903 685 579 692 794
8 797 695 579 685 904 805 694 796
8 905 806 697 799 798 696 581 687
8 814 706 806 905 705 592 696 798
8 689 583 697 799 801 699 808 907
8 800 698 809 908 694 588 703 805
8 690 584 699 801 800 698 809 908
8 803 701 810 909 691 585 700 802
8 693 587 702 804 803 701 811 910
8 695 589 703 805 804 702 812 911
8 818 710 814 919 708 595 705 813
8 821 712 815 920 710 596 706 814
8 816 709 600 719 922 819 717 831
8 817 711 594 707 923 820 709 816
8 818 710 595 708 924 822 711 817
8 819 715 599 717 926 827 716 829
8 820 714 598 709 927 826 715 819
8 929 825 713 822 820 714 597 711
8 821 712 596 710 930 824 713 822
8 717 599 718 832 829 716 830 942
8 719 600 720 834 831 717 832 944
8 832 718 601 720 945 833 721 835
8 834 720 603 722 946 835 723 836
8 869 780 838 950 767 670 725 839
8 865 767 839 952 756 656 726 841
8 839 725 840 953 726 608 727 842
8 841 726 842 954 728 609 729 843
8 844 740 691 790 955 850 802 899
8 733 625 740 844 845 739 850 955
8 734 623 739 845 846 738 849 956
8 735 621 738 846 847 737 848 957
8 744 647 737 847 854 759 848 957
8 738 627 742 849 848 741 851 958
8 848 741 851 958 759 662 773 868
8 850 743 700 802 959 852 807 906
8 849 742 628 739 959 852 743 850
8 854 759 868 965 745 648 760 855
8 746 649 760 855 856 761 871 966
8 860 765 653 750 967 872 761 856
8 968 873 762 857 858 763 651 748
8 862 769 657 753 968 873 762 857
8 859 764 874 969 749 652 763 858
8 752 654 766 861 859 764 875 970
8 751 655 765 860 861 766 876 971
8 754 658 769 862 863 770 879 972
8 755 659 770 863 864 771 881 974
8 976 882 772 867 864 771 660 757
8 866 768 877 977 756 656 767 865
8 867 772 878 978 758 661 768 866
8 760 663 773 868 871 774 883 980
8 870 781 837 948 982 890 780 869
8 982 890 780 869 877 782 670 767
8 761 664 774 871 872 775 884 984
8 876 776 665 765 985 885 775 872
8 873 777 668 763 986 887 779 874
8 769 674 777 873 879 786 887 986
8 764 669 778 875 874 779 888 987
8 766 667 776 876 875 778 886 988
8 878 783 892 989 768 671 782 877
8 878 783 672 772 990 893 784 882
8 880 787 675 770 991 896 786 879
8 880 787 895 992 770 675 785 881
8 881 785 894 993 771 673 784 882
8 1006 905 799 898 897 798 687 789
8 919 814 905 1006 813 705 798 897
8 791 689 799 898 901 801 907 1007
8 900 803 909 1009 790 691 802 899
8 795 693 804 903 900 803 910 1010
8 902 800 908 1011 796 694 805 904
8 793 690 801 901 902 800 908 1011
8 797 695 805 904 903 804 911 1012
8 799 697 806 905 907 808 912 1013
8 920 815 912 1013 814 706 806 905
8 802 700 810 909 906 807 913 1014
8 801 699 808 907 908 809 914 1015
8 805 703 809 908 911 812 915 1016
8 803 701 811 910 909 810 916 1017
8 911 812 917 1018 804 702 811 910
8 925 821 920 1030 818 710 814 919
8 928 823 921 1031 821 712 815 920
8 922 819 717 831 1033 926 829 941
8 923 820 709 816 1034 927 819 922
8 1035 929 822 924 923 820 711 817
8 925 821 710 818 1036 930 822 924
8 1038 933 825 929 927 826 714 820
8 926 827 716 829 1039 935 828 939
8 927 826 715 819 1040 934 827 926
8 928 823 712 821 1041 931 824 930
8 1042 932 824 930 929 825 713 822
8 829 716 830 942 939 828 940 1058
8 831 717 832 944 941 829 942 1060
8 942 830 718 832 1061 943 833 945
8 944 832 720 834 1062 945 835 946
8 981 889 947 1064 870 781 837 948
8 948 837 949 1067 869 780 838 950
8 975 869 950 1069 865 767 839 952
8 950 838 951 1070 839 725 840 953
8 952 839 953 1071 841 726 842 954
8 955 850 802 899 1072 959 906 1008
8 956 849 739 845 1072 959 850 955
8 846 738 849 956 957 848 958 1073
8 957 848 958 1073 854 759 868 965
8 849 742 852 959 958 851 961 1076
8 960 853 961 1076 906 807 852 959
8 958 851 961 1076 868 773 883 980
8 960 853 807 906 1077 963 913 1014
8 855 760 868 965 966 871 980 1085
8 856 761 871 966 967 872 984 1086
8 971 876 765 860 1087 985 872 967
8 968 873 763 858 1088 986 874 969
8 862 769 873 968 972 879 986 1088
8 859 764 875 970 969 874 987 1089
8 861 766 876 971 970 875 988 1090
8 973 880 770 863 1091 991 879 972
8 973 880 992 1092 863 770 881 974
8 974 881 993 1093 864 771 882 976
8 979 870 948 1066 1094 982 869 975
8 1094 982 869 975 977 877 767 865
8 978 878 772 867 1095 990 882 976
8 978 878 989 1096 866 768 877 977
8 871 774 883 980 984 884 994 1099
8 983 891 999 1100 870 781 889 981
8 1101 1000 890 982 989 892 782 877
8 983 891 781 870 1101 1000 890 982
8 872 775 884 984 985 885 995 1103
8 876 776 885 985 988 886 996 1104
8 986 887 779 874 1105 998 888 987
8 879 786 887 986 991 896 998 1105
8 875 778 886 988 987 888 997 1106
8 990 893 1002 1107 878 783 892 989
8 1108 1003 893 990 993 894 784 882
8 880 787 896 991 992 895 1005 1109
8 993 894 785 881 1110 1004 895 992
8 898 799 905 1006 1007 907 1013 1120
8 1030 920 1013 1120 919 814 905 1006
8 901 801 907 1007 1011 908 1015 1121
8 899 802 909 1009 1008 906 1014 1122
8 900 803 910 1010 1009 909 1017 1123
8 1012 911 1018 1124 903 804 910 1010
8 904 805 908 1011 1012 911 1016 1125
8 1013 912 1020 1127 907 808 914 1015
8 1031 921 1020 1127 920 815 912 1013
8 1019 918 962 1075 1128 1021 913 1014
8 1128 1021 913 1014 1017 916 810 909
8 1015 914 1022 1129 908 809 915 1016
8 1016 915 1023 1130 911 812 917 1018
8 1018 917 1024 1131 910 811 916 1017
8 1037 928 1031 1148 925 821 920 1030
8 928 823 931 1041 1031 921 1032 1149
8 1033 926 829 941 1151 1039 939 1057
8 1034 927 819 922 1152 1040 926 1033
8 1153 1038 929 1035 1034 927 820 923
8 1154 1042 930 1036 1035 929 822 924
8 1037 928 821 925 1155 1041 930 1036
8 1039 935 828 939 1156 1047 938 1055
8 1157 1043 932 1042 1038 933 825 929
8 1038 933 826 927 1158 1045 934 1040
8 1040 934 827 926 1159 1046 935 1039
8 930 824 932 1042 1041 931 1044 1160
8 1051 936 1048 1165 1175 1052 937 1053
8 1156 1047 938 1055 1053 937 1054 1178
8 939 828 940 1058 1055 938 1056 1181
8 941 829 942 1060 1057 939 1058 1183
8 942 830 943 1061 1058 940 1059 1184
8 1060 942 832 944 1185 1061 945 1062
8 1082 964 1063 1188 981 889 947 1064
8 1097 981 1064 1190 979 870 948 1066
8 1064 947 1065 1191 948 837 949 1067
8 1066 948 1067 1193 975 869 950 1069
8 1067 949 1068 1194 950 838 951 1070
8 1069 950 1070 1195 952 839 953 1071
8 956 849 959 1072 1073 958 1076 1197
8 1074 960 1076 1197 1008 906 959 1072
8 1073 958 1076 1197 965 868 980 1085
8 1074 960 906 1008 1198 1077 1014 1122
8 1133 1026 1079 1199 1019 918 962 1075
8 1077 963 913 1014 1200 1080 962 1075
8 960 853 963 1077 1076 961 1078 1201
8 980 883 961 1076 1099 994 1078 1201
8 1210 1083 964 1082 1100 999 889 981
8 966 871 980 1085 1086 984 1099 1215
8 967 872 984 1086 1087 985 1103 1216
8 971 876 985 1087 1090 988 1104 1217
8 1088 986 874 969 1218 1105 987 1089
8 972 879 986 1088 1091 991 1105 1218
8 970 875 988 1090 1089 987 1106 1219
8 973 880 991 1091 1092 992 1109 1220
8 1093 993 881 974 1221 1110 992 1092
8 1222 1108 990 1095 1093 993 882 976
8 1223 1101 982 1094 1096 989 877 977
8 1098 983 870 979 1223 1101 982 1094
8 1095 990 1107 1224 978 878 989 1096
8 1098 983 1100 1225 979 870 981 1097
8 984 884 994 1099 1103 995 1111 1227
8 1102 1001 1115 1228 983 891 999 1100
8 1101 1000 892 989 1229 1116 1002 1107
8 1102 1001 891 983 1229 1116 1000 1101
8 985 885 995 1103 1104 996 1112 1230
8 988 886 996 1104 1106 997 1113 1231
8 1105 998 888 987 1232 1114 997 1106
8 991 896 998 1105 1109 1005 1114 1232
8 1108 1003 1117 1233 990 893 1002 1107
8 1108 1003 894 993 1233 1117 1004 1110
8 992 895 1005 1109 1110 1004 1118 1234
8 1120 1013 1127 1244 1007 907 1015 1121
8 1148 1031 1127 1244 1030 920 1013 1120
8 1121 1015 1129 1245 1011 908 1016 1125
8 1126 1019 1075 1196 1246 1128 1014 1122
8 1246 1128 1014 1122 1123 1017 909 1009
8 1124 1018 1131 1247 1010 910 1017 1123
8 1125 1016 1130 1248 1012 911 1018 1124
8 1127 1020 1137 1254 1015 914 1022 1129
8 1031 921 1032 1149 1127 1020 1137 1254
8 1134 1027 918 1019 1257 1140 1021 1128
8 1257 1140 1021 1128 1131 1024 916 1017
8 1129 1022 1141 1258 1016 915 1023 1130
8 1130 1023 1142 1259 1018 917 1024 1131
8 1261 1144 1025 1132 1133 1026 1079 1199
8 1255 1138 1025 1132 1135 1028 1144 1261
8 1133 1026 918 1019 1262 1145 1027 1134
8 1136 1029 1139 1256 1263 1146 1028 1135
8 1037 928 1041 1155 1148 1031 1149 1275
8 1041 931 1044 1160 1149 1032 1150 1276
8 1151 1039 939 1057 1278 1156 1055 1180
8 1152 1040 926 1033 1279 1159 1039 1151
8 1153 1038 927 1034 1280 1158 1040 1152
8 1281 1157 1042 1154 1153 1038 929 1035
8 1036 930 1042 1154 1155 1041 1160 1282
8 1283 1164 1046 1159 1156 1047 935 1039
8 1165 1048 1164 1283 1053 937 1047 1156
8 1157 1043 933 1038 1284 1161 1045 1158
8 1157 1043 1161 1284 1042 932 1044 1160
8 1040 934 1046 1159 1158 1045 1163 1285
8 1166 1049 1167 1292 1051 936 1048 1165
8 1166 1049 936 1051 1293 1168 1050 1172
8 1051 936 1052 1175 1172 1050 1173 1306
8 1174 1051 1165 1290 1308 1175 1053 1177
8 1053 937 1054 1178 1175 1052 1176 1309
8 1278 1156 1055 1180 1177 1053 1178 1311
8 1055 938 1056 1181 1178 1054 1179 1312
8 1057 939 1058 1183 1180 1055 1181 1314
8 1058 940 1059 1184 1181 1056 1182 1315
8 1060 942 1061 1185 1183 1058 1184 1316
8 1208 1081 1187 1321 1082 964 1063 1188
8 1209 1082 1188 1322 1097 981 1064 1190
8 1188 1063 1189 1323 1064 947 1065 1191
8 1190 1064 1191 1325 1066 948 1067 1193
8 1191 1065 1192 1326 1067 949 1068 1194
8 1067 1193 1069 950 1194 1327 1195 1070
8 1250 1133 1199 1330 1126 1019 1075 1196
8 1198 1077 1014 1122 1331 1200 1075 1196
8 1074 960 1077 1198 1197 1076 1201 1332
8 1085 980 1076 1197 1215 1099 1201 1332
8 1199 1079 1203 1333 1075 962 1080 1200
8 1132 1025 1119 1243 1199 1079 1203 1333
8 1201 1078 963 1077 1334 1202 1080 1200
8 1099 994 1078 1201 1227 1111 1202 1334
8 1343 1207 1081 1208 1210 1083 964 1082
8 1214 1084 1186 1319 1343 1207 1081 1208
8 1345 1210 1082 1209 1225 1100 981 1097
8 1346 1211 1083 1210 1228 1115 999 1100
8 1086 984 1099 1215 1216 1103 1227 1352
8 1087 985 1103 1216 1217 1104 1230 1353
8 1090 988 1104 1217 1219 1106 1231 1354
8 1218 1105 987 1089 1355 1232 1106 1219
8 1091 991 1105 1218 1220 1109 1232 1355
8 1092 992 1109 1220 1221 1110 1234 1356
8 1222 1108 1233 1357 1095 990 1107 1224
8 1222 1108 993 1093 1357 1233 1110 1221
8 1223 1101 989 1096 1358 1229 1107 1224
8 1226 1102 983 1098 1358 1229 1101 1223
8 1226 1102 1228 1359 1098 983 1100 1225
8 1103 995 1111 1227 1230 1112 1235 1360
8 1107 1002 1117 1233 1229 1116 1240 1362
8 1102 1001 1116 1229 1228 1115 1240 1362
8 1104 996 1112 1230 1231 1113 1236 1363
8 1364 1237 1114 1232 1231 1113 997 1106
8 1109 1005 1114 1232 1234 1118 1238 1365
8 1110 1004 1118 1234 1233 1117 1241 1366
8 1242 1374 1255 1138 1119 1243 1132 1025
8 1244 1127 1254 1376 1121 1015 1129 1245
8 1148 1031 1149 1275 1244 1127 1254 1376
8 1245 1129 1258 1377 1125 1016 1130 1248
8 1251 1134 1019 1126 1378 1257 1128 1246
8 1378 1257 1128 1246 1247 1131 1017 1123
8 1248 1130 1259 1379 1124 1018 1131 1247
8 1261 1381 1250 1133 1132 1249 1330 1199
8 1255 1380 1252 1135 1132 1249 1381 1261
8 1250 1133 1019 1126 1382 1262 1134 1251
8 1253 1136 1256 1385 1384 1263 1135 1252
8 1254 1137 1265 1387 1129 1022 1141 1258
8 1149 1032 1150 1276 1254 1137 1265 1387
8 1028 1135 1255 1138 1139 1256 1388 1266
8 1136 1029 1147 1264 1256 1139 1267 1389
8 1390 1268 1140 1257 1259 1142 1024 1131
8 1260 1143 1027 1134 1390 1268 1140 1257
8 1258 1141 1269 1391 1130 1023 1142 1259
8 1262 1145 1027 1134 1393 1271 1143 1260
8 1261 1144 1026 1133 1394 1272 1145 1262
8 1135 1028 1144 1261 1263 1146 1272 1394
8 1136 1029 1146 1263 1264 1147 1273 1395
8 1155 1041 1160 1282 1275 1149 1276 1405
8 1276 1150 1044 1160 1406 1277 1162 1286
8 1408 1283 1159 1279 1278 1156 1039 1151
8 1290 1165 1283 1408 1177 1053 1156 1278
8 1152 1040 1159 1279 1280 1158 1285 1409
8 1281 1157 1038 1153 1410 1284 1158 1280
8 1281 1157 1284 1410 1154 1042 1160 1282
8 1159 1046 1164 1283 1285 1163 1289 1412
8 1292 1167 1289 1412 1165 1048 1164 1283
8 1158 1045 1163 1285 1284 1161 1288 1413
8 1284 1161 1288 1413 1160 1044 1162 1286
8 1291 1166 1292 1418 1174 1051 1165 1290
8 1291 1166 1051 1174 1419 1293 1172 1305
8 1294 1169 1296 1421 1166 1049 1167 1292
8 1293 1168 1050 1172 1422 1295 1171 1303
8 1294 1169 1049 1166 1423 1297 1168 1293
8 1422 1295 1171 1303 1301 1170 1302 1435
8 1172 1050 1173 1306 1303 1171 1304 1438
8 1174 1051 1175 1308 1305 1172 1306 1440
8 1175 1052 1176 1309 1306 1173 1307 1441
8 1177 1053 1178 1311 1308 1175 1309 1443
8 1178 1054 1179 1312 1309 1176 1310 1444
8 1180 1055 1181 1314 1311 1178 1312 1446
8 1056 1181 1312 1179 1182 1315 1447 1313
8 1183 1058 1184 1316 1314 1181 1315 1448
8 1319 1186 1084 1214 1451 1317 1213 1350
8 1319 1186 1318 1453 1208 1081 1187 1321
8 1321 1187 1320 1456 1188 1063 1189 1323
8 1344 1208 1321 1457 1209 1082 1188 1322
8 1322 1188 1323 1458 1190 1064 1191 1325
8 1323 1189 1324 1459 1191 1065 1192 1326
8 1191 1325 1193 1067 1326 1460 1327 1194
8 1242 1374 1243 1119 1328 1462 1335 1204
8 1330 1199 1333 1465 1196 1075 1200 1331
8 1132 1249 1330 1199 1243 1375 1465 1333
8 1332 1201 1077 1198 1466 1334 1200 1331
8 1215 1099 1201 1332 1352 1227 1334 1466
8 1119 1243 1333 1203 1204 1335 1470 1338
8 1333 1203 1338 1470 1200 1080 1202 1334
8 1227 1111 1202 1334 1360 1235 1338 1470
8 1328 1462 1335 1204 1205 1336 1471 1339
8 1337 1206 1340 1472 1464 1329 1205 1336
8 1346 1211 1342 1479 1210 1083 1207 1343
8 1346 1211 1115 1228 1479 1342 1239 1361
8 1348 1212 1084 1214 1479 1342 1207 1343
8 1480 1343 1208 1344 1345 1210 1082 1209
8 1351 1214 1319 1454 1480 1343 1208 1344
8 1481 1346 1210 1345 1359 1228 1100 1225
8 1348 1212 1347 1483 1214 1084 1213 1350
8 1216 1103 1227 1352 1353 1230 1360 1488
8 1217 1104 1230 1353 1354 1231 1363 1489
8 1490 1364 1232 1355 1354 1231 1106 1219
8 1220 1109 1232 1355 1356 1234 1365 1491
8 1221 1110 1234 1356 1357 1233 1366 1492
8 1224 1107 1233 1357 1358 1229 1362 1493
8 1226 1102 1229 1358 1359 1228 1362 1493
8 1230 1112 1235 1360 1363 1236 1367 1496
8 1361 1239 1115 1228 1497 1371 1240 1362
8 1366 1241 1372 1498 1233 1117 1240 1362
8 1364 1237 1113 1231 1499 1368 1236 1363
8 1364 1237 1368 1499 1232 1114 1238 1365
8 1234 1118 1238 1365 1366 1241 1369 1500
8 1507 1373 1242 1374 1388 1266 1138 1255
8 1508 1374 1243 1375 1380 1255 1132 1249
8 1376 1254 1387 1509 1245 1129 1258 1377
8 1275 1149 1276 1405 1376 1254 1387 1509
8 1377 1258 1391 1510 1248 1130 1259 1379
8 1511 1390 1257 1378 1379 1259 1131 1247
8 1383 1260 1134 1251 1511 1390 1257 1378
8 1252 1135 1256 1385 1380 1255 1388 1512
8 1261 1381 1513 1394 1133 1250 1382 1262
8 1135 1252 1384 1263 1261 1381 1513 1394
8 1382 1262 1134 1251 1514 1393 1260 1383
8 1253 1136 1263 1384 1386 1264 1395 1516
8 1253 1136 1264 1386 1385 1256 1389 1517
8 1387 1265 1397 1519 1258 1141 1269 1391
8 1276 1150 1277 1406 1387 1265 1397 1519
8 1256 1139 1267 1389 1388 1266 1398 1520
8 1264 1147 1274 1396 1389 1267 1399 1521
8 1392 1270 1143 1260 1522 1400 1268 1390
8 1390 1268 1142 1259 1522 1400 1269 1391
8 1392 1270 1401 1523 1260 1143 1271 1393
8 1272 1394 1524 1402 1145 1262 1393 1271
8 1395 1273 1146 1263 1524 1402 1272 1394
8 1273 1395 1264 1147 1403 1526 1396 1274
8 1405 1276 1160 1282 1534 1406 1286 1411
8 1414 1287 1407 1535 1286 1162 1277 1406
8 1279 1159 1283 1408 1409 1285 1412 1537
8 1418 1292 1412 1537 1290 1165 1283 1408
8 1280 1158 1285 1409 1410 1284 1413 1538
8 1410 1284 1413 1538 1282 1160 1286 1411
8 1285 1163 1289 1412 1413 1288 1417 1540
8 1421 1296 1417 1540 1292 1167 1289 1412
8 1414 1287 1162 1286 1541 1416 1288 1413
8 1420 1294 1421 1545 1291 1166 1292 1418
8 1419 1293 1172 1305 1546 1422 1303 1437
8 1420 1294 1166 1291 1547 1423 1293 1419
8 1294 1169 1297 1423 1421 1296 1425 1548
8 1423 1297 1168 1293 1549 1424 1295 1422
8 1301 1170 1298 1427 1422 1295 1424 1549
8 1432 1300 1428 1554 1301 1170 1298 1427
8 1431 1299 1428 1554 1560 1430 1300 1432
8 1563 1433 1300 1432 1435 1302 1170 1301
8 1546 1422 1303 1437 1434 1301 1435 1565
8 1303 1171 1304 1438 1435 1302 1436 1566
8 1305 1172 1306 1440 1437 1303 1438 1568
8 1306 1173 1307 1441 1438 1304 1439 1569
8 1308 1175 1309 1443 1440 1306 1441 1571
8 1309 1176 1310 1444 1441 1307 1442 1572
8 1311 1178 1312 1446 1443 1309 1444 1574
8 1179 1312 1444 1310 1313 1447 1575 1445
8 1314 1181 1315 1448 1446 1312 1447 1576
8 1350 1213 1349 1486 1451 1317 1449 1579
8 1451 1317 1450 1581 1319 1186 1318 1453
8 1454 1319 1214 1351 1582 1451 1350 1487
8 1453 1318 1452 1584 1321 1187 1320 1456
8 1454 1319 1453 1585 1344 1208 1321 1457
8 1456 1320 1455 1586 1323 1189 1324 1459
8 1457 1321 1456 1587 1322 1188 1323 1458
8 1458 1323 1459 1588 1325 1191 1326 1460
8 1205 1336 1464 1329 1328 1462 1590 1461
8 1507 1373 1461 1590 1374 1242 1328 1462
8 1508 1374 1462 1591 1375 1243 1335 1467
8 1337 1206 1329 1464 1473 1341 1463 1594
8 1375 1243 1335 1467 1465 1333 1470 1596
8 1465 1333 1470 1596 1331 1200 1334 1466
8 1352 1227 1334 1466 1488 1360 1470 1596
8 1591 1462 1336 1468 1467 1335 1471 1597
8 1469 1337 1472 1598 1595 1464 1336 1468
8 1471 1339 1474 1600 1335 1204 1338 1470
8 1600 1474 1367 1496 1470 1338 1235 1360
8 1336 1205 1340 1472 1471 1339 1475 1601
8 1337 1206 1341 1473 1472 1340 1476 1602
8 1495 1370 1478 1609 1361 1239 1342 1479
8 1348 1212 1342 1479 1483 1347 1478 1609
8 1481 1346 1479 1610 1345 1210 1343 1480
8 1481 1346 1228 1359 1610 1479 1361 1494
8 1484 1348 1214 1351 1610 1479 1343 1480
8 1483 1347 1482 1612 1350 1213 1349 1486
8 1484 1348 1483 1613 1351 1214 1350 1487
8 1353 1230 1360 1488 1489 1363 1496 1616
8 1490 1364 1231 1354 1617 1499 1363 1489
8 1490 1364 1499 1617 1355 1232 1365 1491
8 1356 1234 1365 1491 1492 1366 1500 1619
8 1492 1366 1498 1620 1357 1233 1362 1493
8 1494 1361 1228 1359 1621 1497 1362 1493
8 1495 1370 1239 1361 1622 1504 1371 1497
8 1363 1236 1367 1496 1499 1368 1501 1623
8 1497 1371 1240 1362 1624 1505 1372 1498
8 1625 1503 1372 1498 1500 1369 1241 1366
8 1365 1238 1368 1499 1500 1369 1502 1626
8 1520 1398 1506 1633 1388 1266 1373 1507
8 1634 1507 1374 1508 1512 1388 1255 1380
8 1509 1387 1519 1635 1377 1258 1391 1510
8 1405 1276 1406 1534 1509 1387 1519 1635
8 1515 1392 1260 1383 1636 1522 1390 1511
8 1511 1390 1259 1379 1636 1522 1391 1510
8 1385 1256 1389 1517 1512 1388 1520 1637
8 1513 1394 1262 1382 1638 1524 1393 1514
8 1395 1516 1638 1524 1263 1384 1513 1394
8 1515 1392 1523 1639 1383 1260 1393 1514
8 1516 1395 1526 1640 1386 1264 1396 1518
8 1386 1264 1396 1518 1517 1389 1521 1641
8 1519 1397 1527 1643 1391 1269 1400 1522
8 1535 1407 1527 1643 1406 1277 1397 1519
8 1389 1267 1399 1521 1520 1398 1528 1644
8 1645 1529 1399 1521 1525 1404 1274 1396
8 1392 1270 1400 1522 1523 1401 1531 1646
8 1524 1402 1271 1393 1648 1532 1401 1523
8 1403 1526 1648 1532 1273 1395 1524 1402
8 1525 1404 1274 1396 1649 1533 1403 1526
8 1539 1414 1535 1657 1411 1286 1406 1534
8 1542 1415 1536 1658 1414 1287 1407 1535
8 1409 1285 1412 1537 1538 1413 1540 1660
8 1545 1421 1540 1660 1418 1292 1412 1537
8 1539 1414 1286 1411 1661 1541 1413 1538
8 1540 1417 1544 1663 1413 1288 1416 1541
8 1421 1296 1425 1548 1540 1417 1544 1663
8 1542 1415 1287 1414 1664 1543 1416 1541
8 1420 1294 1423 1547 1545 1421 1548 1666
8 1547 1423 1293 1419 1667 1549 1422 1546
8 1434 1301 1427 1553 1546 1422 1549 1667
8 1423 1297 1424 1549 1548 1425 1550 1668
8 1551 1426 1550 1668 1427 1298 1424 1549
8 1551 1426 1298 1427 1671 1552 1428 1554
8 1562 1432 1554 1674 1434 1301 1427 1553
8 1431 1299 1429 1558 1554 1428 1555 1675
8 1431 1299 1430 1560 1558 1429 1557 1680
8 1560 1430 1300 1432 1683 1559 1433 1563
8 1561 1431 1554 1674 1684 1560 1432 1562
8 1685 1563 1432 1562 1565 1435 1301 1434
8 1435 1302 1436 1566 1563 1433 1564 1686
8 1437 1303 1438 1568 1565 1435 1566 1688
8 1438 1304 1439 1569 1566 1436 1567 1689
8 1440 1306 1441 1571 1568 1438 1569 1691
8 1441 1307 1442 1572 1569 1439 1570 1692
8 1443 1309 1444 1574 1571 1441 1572 1694
8 1310 1444 1572 1442 1445 1575 1695 1573
8 1446 1312 1447 1576 1574 1444 1575 1696
8 1486 1349 1485 1614 1579 1449 1577 1699
8 1451 1317 1449 1579 1581 1450 1578 1701
8 1487 1350 1486 1615 1582 1451 1579 1702
8 1581 1450 1580 1704 1453 1318 1452 1584
8 1582 1451 1581 1705 1454 1319 1453 1585
8 1584 1452 1583 1706 1456 1320 1455 1586
8 1585 1453 1584 1707 1457 1321 1456 1587
8 1587 1456 1586 1708 1458 1323 1459 1588
8 1633 1506 1589 1710 1507 1373 1461 1590
8 1464 1329 1461 1590 1594 1463 1589 1710
8 1468 1336 1462 1591 1595 1464 1590 1711
8 1634 1507 1590 1711 1508 1374 1462 1591
8 1473 1341 1463 1594 1603 1477 1593 1716
8 1469 1337 1464 1595 1599 1473 1594 1717
8 1471 1597 1467 1335 1600 1718 1596 1470
8 1718 1600 1496 1616 1596 1470 1360 1488
8 1336 1468 1597 1471 1472 1598 1719 1601
8 1469 1337 1473 1599 1598 1472 1602 1720
8 1722 1604 1501 1623 1600 1474 1367 1496
8 1475 1601 1471 1339 1604 1722 1600 1474
8 1602 1476 1605 1723 1472 1340 1475 1601
8 1476 1602 1724 1606 1341 1473 1603 1477
8 1483 1347 1478 1609 1612 1482 1608 1731
8 1495 1370 1504 1622 1609 1478 1608 1731
8 1618 1495 1609 1732 1494 1361 1479 1610
8 1484 1348 1479 1610 1613 1483 1609 1732
8 1486 1349 1482 1612 1614 1485 1611 1733
8 1613 1483 1612 1734 1487 1350 1486 1615
8 1489 1363 1496 1616 1617 1499 1623 1736
8 1491 1365 1499 1617 1619 1500 1626 1737
8 1618 1495 1361 1494 1738 1622 1497 1621
8 1739 1625 1498 1620 1619 1500 1366 1492
8 1621 1497 1362 1493 1740 1624 1498 1620
8 1742 1631 1504 1622 1624 1505 1371 1497
8 1743 1628 1502 1626 1623 1501 1368 1499
8 1744 1630 1505 1624 1625 1503 1372 1498
8 1745 1629 1503 1625 1626 1502 1369 1500
8 1520 1398 1528 1644 1633 1506 1632 1751
8 1637 1520 1633 1752 1512 1388 1507 1634
8 1635 1519 1643 1753 1510 1391 1522 1636
8 1657 1535 1643 1753 1534 1406 1519 1635
8 1515 1392 1522 1636 1639 1523 1646 1754
8 1517 1389 1521 1641 1637 1520 1644 1755
8 1524 1638 1756 1648 1393 1514 1639 1523
8 1640 1526 1395 1516 1756 1648 1524 1638
8 1642 1525 1396 1518 1757 1649 1526 1640
8 1758 1645 1521 1641 1642 1525 1396 1518
8 1646 1531 1400 1522 1760 1650 1527 1643
8 1535 1407 1536 1658 1643 1527 1650 1760
8 1521 1399 1529 1645 1644 1528 1651 1761
8 1647 1530 1652 1762 1525 1404 1529 1645
8 1401 1523 1648 1532 1531 1646 1763 1655
8 1525 1404 1533 1649 1647 1530 1654 1765
8 1533 1649 1766 1656 1403 1526 1648 1532
8 1662 1542 1658 1774 1539 1414 1535 1657
8 1542 1415 1543 1664 1658 1536 1659 1775
8 1660 1540 1663 1777 1538 1413 1541 1661
8 1545 1421 1548 1666 1660 1540 1663 1777
8 1662 1542 1414 1539 1778 1664 1541 1661
8 1664 1543 1416 1541 1779 1665 1544 1663
8 1548 1425 1550 1668 1663 1544 1665 1779
8 1547 1423 1549 1667 1666 1548 1668 1781
8 1670 1551 1668 1781 1553 1427 1549 1667
8 1551 1426 1552 1671 1668 1550 1669 1782
8 1670 1551 1427 1553 1784 1671 1554 1674
8 1675 1555 1672 1785 1554 1428 1552 1671
8 1678 1556 1673 1789 1558 1429 1555 1675
8 1561 1431 1558 1681 1674 1554 1675 1790
8 1794 1677 1556 1678 1680 1557 1429 1558
8 1560 1430 1559 1683 1680 1557 1679 1797
8 1561 1431 1560 1684 1681 1558 1680 1798
8 1563 1433 1564 1686 1683 1559 1682 1800
8 1684 1560 1432 1562 1801 1683 1563 1685
8 1565 1435 1566 1688 1685 1563 1686 1802
8 1566 1436 1567 1689 1686 1564 1687 1803
8 1568 1438 1569 1691 1688 1566 1689 1805
8 1569 1439 1570 1692 1689 1567 1690 1806
8 1571 1441 1572 1694 1691 1569 1692 1808
8 1442 1572 1692 1570 1573 1695 1809 1693
8 1574 1444 1575 1696 1694 1572 1695 1810
8 1614 1485 1592 1712 1699 1577 1697 1813
8 1579 1449 1577 1699 1701 1578 1698 1815
8 1615 1486 1614 1735 1702 1579 1699 1816
8 1701 1578 1700 1818 1581 1450 1580 1704
8 1582 1451 1579 1702 1705 1581 1701 1819
8 1704 1580 1703 1820 1584 1452 1583 1706
8 1705 1581 1704 1821 1585 1453 1584 1707
8 1707 1584 1706 1822 1587 1456 1586 1708
8 1710 1589 1506 1633 1824 1709 1632 1751
8 1594 1463 1589 1710 1716 1593 1709 1824
8 1752 1633 1710 1825 1634 1507 1590 1711
8 1595 1464 1590 1711 1717 1594 1710 1825
8 1830 1714 1592 1712 1733 1611 1485 1614
8 1603 1477 1593 1716 1725 1607 1715 1834
8 1599 1473 1594 1717 1721 1603 1716 1835
8 1837 1722 1623 1736 1718 1600 1496 1616
8 1719 1601 1722 1837 1597 1471 1600 1718
8 1602 1720 1598 1472 1723 1838 1719 1601
8 1720 1602 1473 1599 1839 1724 1603 1721
8 1723 1605 1726 1840 1601 1475 1604 1722
8 1840 1726 1628 1743 1722 1604 1501 1623
8 1724 1606 1727 1841 1602 1476 1605 1723
8 1725 1607 1728 1842 1603 1477 1606 1724
8 1612 1482 1608 1731 1733 1611 1730 1849
8 1741 1627 1730 1849 1622 1504 1608 1731
8 1613 1483 1609 1732 1734 1612 1731 1850
8 1618 1495 1622 1738 1732 1609 1731 1850
8 1615 1486 1612 1734 1735 1614 1733 1851
8 1852 1743 1626 1737 1736 1623 1499 1617
8 1853 1745 1625 1739 1737 1626 1500 1619
8 1855 1742 1622 1738 1740 1624 1497 1621
8 1856 1744 1624 1740 1739 1625 1498 1620
8 1741 1627 1504 1622 1857 1746 1631 1742
8 1742 1631 1505 1624 1858 1749 1630 1744
8 1859 1747 1629 1745 1743 1628 1502 1626
8 1860 1748 1630 1744 1745 1629 1503 1625
8 1644 1528 1651 1761 1751 1632 1750 1865
8 1637 1520 1644 1755 1752 1633 1751 1866
8 1754 1646 1522 1636 1867 1760 1643 1753
8 1657 1535 1658 1774 1753 1643 1760 1867
8 1639 1523 1646 1754 1756 1648 1763 1868
8 1641 1521 1645 1758 1755 1644 1761 1869
8 1757 1649 1526 1640 1870 1766 1648 1756
8 1642 1525 1649 1757 1759 1647 1765 1871
8 1759 1647 1762 1872 1642 1525 1645 1758
8 1760 1650 1767 1874 1646 1531 1655 1763
8 1658 1536 1659 1775 1760 1650 1767 1874
8 1762 1652 1768 1875 1645 1529 1651 1761
8 1764 1653 1769 1876 1647 1530 1652 1762
8 1656 1766 1877 1773 1532 1648 1763 1655
8 1771 1879 1765 1654 1653 1764 1647 1530
8 1533 1649 1765 1654 1656 1766 1880 1772
8 1662 1542 1664 1778 1774 1658 1775 1887
8 1664 1543 1665 1779 1775 1659 1776 1888
8 1778 1664 1541 1661 1890 1779 1663 1777
8 1666 1548 1668 1781 1777 1663 1779 1890
8 1782 1669 1780 1891 1668 1550 1665 1779
8 1670 1551 1671 1784 1781 1668 1782 1893
8 1671 1552 1672 1785 1782 1669 1783 1894
8 1790 1675 1785 1896 1674 1554 1671 1784
8 1675 1555 1673 1789 1785 1672 1786 1897
8 1792 1676 1788 1903 1678 1556 1673 1789
8 1795 1678 1789 1904 1681 1558 1675 1790
8 1792 1676 1556 1678 1906 1791 1677 1794
8 1680 1557 1679 1797 1794 1677 1793 1909
8 1910 1794 1678 1795 1798 1680 1558 1681
8 1683 1559 1682 1800 1797 1679 1796 1912
8 1684 1560 1683 1801 1798 1680 1797 1913
8 1686 1564 1687 1803 1800 1682 1799 1915
8 1685 1563 1686 1802 1801 1683 1800 1916
8 1688 1566 1689 1805 1802 1686 1803 1917
8 1689 1567 1690 1806 1803 1687 1804 1918
8 1691 1569 1692 1808 1805 1689 1806 1920
8 1692 1570 1693 1809 1806 1690 1807 1921
8 1694 1572 1695 1810 1808 1692 1809 1922
8 1829 1713 1811 1926 1712 1592 1697 1813
8 1813 1697 1812 1928 1699 1577 1698 1815
8 1735 1614 1712 1828 1816 1699 1813 1929
8 1815 1698 1814 1931 1701 1578 1700 1818
8 1702 1579 1699 1816 1819 1701 1815 1932
8 1818 1700 1817 1933 1704 1580 1703 1820
8 1819 1701 1818 1934 1705 1581 1704 1821
8 1821 1704 1820 1935 1707 1584 1706 1822
8 1824 1709 1632 1751 1937 1823 1750 1865
8 1716 1593 1709 1824 1834 1715 1823 1937
8 1825 1710 1633 1752 1938 1824 1751 1866
8 1717 1594 1710 1825 1835 1716 1824 1938
8 1945 1830 1712 1828 1851 1733 1614 1735
8 1830 1714 1831 1946 1712 1592 1713 1829
8 1947 1832 1714 1830 1849 1730 1611 1733
8 1843 1729 1607 1725 1950 1833 1715 1834
8 1721 1603 1716 1835 1836 1725 1834 1951
8 1836 1725 1842 1953 1721 1603 1724 1839
8 1723 1838 1719 1601 1840 1954 1837 1722
8 1954 1840 1743 1852 1837 1722 1623 1736
8 1724 1839 1720 1602 1841 1955 1838 1723
8 1841 1727 1844 1956 1723 1605 1726 1840
8 1956 1844 1747 1859 1840 1726 1628 1743
8 1728 1842 1724 1606 1845 1957 1841 1727
8 1725 1607 1729 1843 1842 1728 1846 1958
8 1741 1627 1746 1857 1849 1730 1848 1965
8 1734 1612 1731 1850 1851 1733 1849 1966
8 1854 1741 1849 1966 1738 1622 1731 1850
8 1967 1859 1745 1853 1852 1743 1626 1737
8 1968 1860 1744 1856 1853 1745 1625 1739
8 1854 1741 1622 1738 1969 1857 1742 1855
8 1855 1742 1624 1740 1970 1858 1744 1856
8 1857 1746 1631 1742 1971 1861 1749 1858
8 1858 1749 1630 1744 1972 1863 1748 1860
8 1859 1747 1862 1973 1745 1629 1748 1860
8 1875 1768 1864 1977 1761 1651 1750 1865
8 1755 1644 1761 1869 1866 1751 1865 1978
8 1867 1760 1874 1979 1754 1646 1763 1868
8 1774 1658 1775 1887 1867 1760 1874 1979
8 1870 1766 1648 1756 1980 1877 1763 1868
8 1872 1762 1875 1981 1758 1645 1761 1869
8 1757 1649 1766 1870 1871 1765 1880 1982
8 1983 1879 1764 1873 1871 1765 1647 1759
8 1873 1764 1876 1984 1759 1647 1762 1872
8 1877 1773 1655 1763 1986 1881 1767 1874
8 1775 1659 1776 1888 1874 1767 1881 1986
8 1876 1769 1882 1987 1762 1652 1768 1875
8 1878 1770 1883 1988 1764 1653 1769 1876
8 1880 1772 1656 1766 1989 1886 1773 1877
8 1878 1770 1653 1764 1990 1884 1771 1879
8 1765 1654 1772 1880 1879 1771 1885 1991
8 1778 1664 1779 1890 1887 1775 1888 1997
8 1998 1889 1776 1888 1891 1780 1665 1779
8 1893 1782 1891 2000 1781 1668 1779 1890
8 1894 1783 1892 2001 1782 1669 1780 1891
8 1784 1671 1785 1896 1893 1782 1894 2003
8 1897 1786 1895 2004 1785 1672 1783 1894
8 1790 1675 1789 1904 1896 1785 1897 2006
8 1901 1787 1898 2007 1789 1673 1786 1897
8 1903 1788 1900 2013 1789 1673 1787 1901
8 1792 1676 1791 1906 1903 1788 1902 2016
8 1907 1792 1903 2017 1795 1678 1789 1904
8 1906 1791 1677 1794 2019 1905 1793 1909
8 1907 1792 1678 1795 2020 1906 1794 1910
8 1797 1679 1796 1912 1909 1793 1908 2022
8 1798 1680 1797 1913 1910 1794 1909 2023
8 1800 1682 1799 1915 1912 1796 1911 2025
8 1801 1683 1800 1916 1913 1797 1912 2026
8 1803 1687 1804 1918 1915 1799 1914 2028
8 1802 1686 1803 1917 1916 1800 1915 2029
8 1805 1689 1806 1920 1917 1803 1918 2030
8 1806 1690 1807 1921 1918 1804 1919 2031
8 1808 1692 1809 1922 1920 1806 1921 2032
8 1939 1826 1924 2037 1829 1713 1811 1926
8 1926 1811 1925 2039 1813 1697 1812 1928
8 1944 1829 1926 2040 1828 1712 1813 1929
8 1928 1812 1927 2042 1815 1698 1814 1931
8 1929 1813 1928 2043 1816 1699 1815 1932
8 1931 1814 1930 2044 1818 1700 1817 1933
8 1932 1815 1931 2045 1819 1701 1818 1934
8 1934 1818 1933 2046 1821 1704 1820 1935
8 2048 1936 1823 1937 1977 1864 1750 1865
8 1950 1833 1715 1834 2048 1936 1823 1937
8 1938 1824 1751 1866 2049 1937 1865 1978
8 1835 1716 1824 1938 1951 1834 1937 2049
8 1939 1826 1713 1829 2053 1942 1831 1946
8 1940 1827 1923 2035 2053 1942 1826 1939
8 1945 1830 1946 2058 1828 1712 1829 1944
8 2059 1947 1830 1945 1966 1849 1733 1851
8 1947 1832 1730 1849 2060 1948 1848 1965
8 1947 1832 1948 2060 1830 1714 1831 1946
8 1959 1847 1729 1843 2063 1949 1833 1950
8 1952 1843 1725 1836 2064 1950 1834 1951
8 1836 1725 1843 1952 1953 1842 1958 2066
8 1953 1842 1957 2067 1839 1724 1841 1955
8 1841 1955 1838 1723 1956 2068 1954 1840
8 2068 1956 1859 1967 1954 1840 1743 1852
8 1956 1844 1960 2069 1859 1747 1862 1973
8 1845 1957 1841 1727 1960 2069 1956 1844
8 1728 1842 1957 1845 1846 1958 2071 1961
8 1962 2072 1959 1847 1846 1958 1843 1729
8 1971 1861 1964 2077 1857 1746 1848 1965
8 1854 1741 1857 1969 1966 1849 1965 2078
8 1967 1859 1973 2079 1853 1745 1860 1968
8 1970 1858 1744 1856 2080 1972 1860 1968
8 1969 1857 1742 1855 2081 1971 1858 1970
8 1971 1861 1749 1858 2082 1974 1863 1972
8 1973 1862 1975 2083 1860 1748 1863 1972
8 1987 1882 1976 2086 1875 1768 1864 1977
8 1981 1875 1977 2087 1869 1761 1865 1978
8 1980 1877 1763 1868 2088 1986 1874 1979
8 1887 1775 1888 1997 1979 1874 1986 2088
8 1880 1982 2089 1989 1766 1870 1980 1877
8 1984 1876 1987 2090 1872 1762 1875 1981
8 1765 1871 1983 1879 1880 1982 2091 1991
8 1985 1878 1764 1873 2092 1990 1879 1983
8 1985 1878 1988 2093 1873 1764 1876 1984
8 2094 1992 1881 1986 1998 1889 1776 1888
8 1986 1881 1992 2094 1877 1773 1886 1989
8 1988 1883 1993 2095 1876 1769 1882 1987
8 1878 1770 1884 1990 1988 1883 1994 2096
8 1991 1885 1772 1880 2097 1996 1886 1989
8 1879 1771 1885 1991 1990 1884 1995 2098
8 2103 1998 1888 1997 2000 1891 1779 1890
8 2104 1999 1889 1998 2001 1892 1780 1891
8 2003 1894 2001 2106 1893 1782 1891 2000
8 2004 1895 2002 2107 1894 1783 1892 2001
8 2006 1897 2004 2109 1896 1785 1894 2003
8 2007 1898 2005 2110 1897 1786 1895 2004
8 2014 1901 2007 2112 1904 1789 1897 2006
8 2011 1899 2008 2113 1901 1787 1898 2007
8 2119 2010 1899 2011 2013 1900 1787 1901
8 2016 1902 2012 2122 1903 1788 1900 2013
8 2017 1903 2013 2123 1904 1789 1901 2014
8 1906 1791 1905 2019 2016 1902 2015 2125
8 1907 1792 1906 2020 2017 1903 2016 2126
8 1909 1793 1908 2022 2019 1905 2018 2128
8 2020 1906 1794 1910 2129 2019 1909 2023
8 1912 1796 1911 2025 2022 1908 2021 2131
8 1913 1797 1912 2026 2023 1909 2022 2132
8 1915 1799 1914 2028 2025 1911 2024 2134
8 1916 1800 1915 2029 2026 1912 2025 2135
8 1918 1804 1919 2031 2028 1914 2027 2136
8 1917 1803 1918 2030 2029 1915 2028 2137
8 1920 1806 1921 2032 2030 1918 2031 2138
8 1940 1827 1941 2054 2035 1923 2033 2140
8 2035 1923 2034 2143 1939 1826 1924 2037
8 2037 1924 2036 2146 1926 1811 1925 2039
8 2051 1939 2037 2147 1944 1829 1926 2040
8 2039 1925 2038 2149 1928 1812 1927 2042
8 2040 1926 2039 2150 1929 1813 1928 2043
8 2042 1927 2041 2151 1931 1814 1930 2044
8 2043 1928 2042 2152 1932 1815 1931 2045
8 2045 1931 2044 2153 1934 1818 1933 2046
8 2155 2047 1936 2048 2086 1976 1864 1977
8 2063 1949 1833 1950 2155 2047 1936 2048
8 2156 2048 1937 2049 2087 1977 1865 1978
8 2064 1950 1834 1951 2156 2048 1937 2049
8 2051 1939 1829 1944 2160 2053 1946 2058
8 2052 1940 2035 2144 2160 2053 1939 2051
8 2053 1942 1831 1946 2163 2057 1948 2060
8 2055 1943 1827 1940 2163 2057 1942 2053
8 2055 1943 2056 2164 1940 1827 1941 2054
8 2059 1947 1849 1966 2167 2060 1965 2078
8 2059 1947 2060 2167 1945 1830 1946 2058
8 2077 1964 2061 2168 1965 1848 1948 2060
8 2070 1963 1847 1959 2170 2062 1949 2063
8 2065 1959 1843 1952 2171 2063 1950 2064
8 2173 2072 1958 2066 2065 1959 1843 1952
8 1953 1842 1958 2066 2067 1957 2071 2174
8 2068 1956 2069 2175 1967 1859 1973 2079
8 2067 1957 2069 2175 1955 1841 1956 2068
8 1845 1957 2069 1960 1961 2071 2176 2073
8 2069 1960 2073 2176 1973 1862 1975 2083
8 2070 1963 2075 2177 1959 1847 1962 2072
8 1846 1958 2071 1961 1962 2072 2178 2074
8 2077 1964 1861 1971 2182 2076 1974 2082
8 2081 1971 2077 2183 1969 1857 1965 2078
8 2079 1973 2083 2184 1968 1860 1972 2080
8 2081 1971 1858 1970 2185 2082 1972 2080
8 2083 1975 2084 2186 1972 1863 1974 2082
8 2086 1976 1882 1987 2189 2085 1993 2095
8 2090 1987 2086 2190 1981 1875 1977 2087
8 2191 2094 1986 2088 2103 1998 1888 1997
8 2088 1986 2094 2191 1980 1877 1989 2089
8 1991 2091 2192 2097 1880 1982 2089 1989
8 2093 1988 2095 2193 1984 1876 1987 2090
8 1879 1983 2092 1990 1991 2091 2194 2098
8 1985 1878 1990 2092 2093 1988 2096 2195
8 2097 1996 1886 1989 2196 2099 1992 2094
8 2196 2099 1992 2094 2104 1999 1889 1998
8 1994 2096 1988 1883 2100 2197 2095 1993
8 2096 1994 1884 1990 2198 2101 1995 2098
8 1995 2098 2199 2102 1885 1991 2097 1996
8 2203 2104 1998 2103 2106 2001 1891 2000
8 2107 2002 2105 2204 2001 1892 1999 2104
8 2109 2004 2107 2206 2003 1894 2001 2106
8 2110 2005 2108 2207 2004 1895 2002 2107
8 2112 2007 2110 2209 2006 1897 2004 2109
8 2113 2008 2111 2210 2007 1898 2005 2110
8 2120 2011 2113 2212 2014 1901 2007 2112
8 2117 2009 2114 2213 2011 1899 2008 2113
8 2219 2116 2009 2117 2119 2010 1899 2011
8 2222 2118 2010 2119 2122 2012 1900 2013
8 2223 2119 2011 2120 2123 2013 1901 2014
8 2016 1902 2015 2125 2122 2012 2121 2225
8 2126 2016 2122 2226 2017 1903 2013 2123
8 2019 1905 2018 2128 2125 2015 2124 2228
8 2020 1906 2019 2129 2126 2016 2125 2229
8 2022 1908 2021 2131 2128 2018 2127 2231
8 2023 1909 2022 2132 2129 2019 2128 2232
8 2025 1911 2024 2134 2131 2021 2130 2234
8 2026 1912 2025 2135 2132 2022 2131 2235
8 1914 2028 2134 2024 2027 2136 2236 2133
8 2029 1915 2028 2137 2135 2025 2134 2237
8 2030 1918 2031 2138 2137 2028 2136 2238
8 2157 2050 2139 2240 2054 1941 2033 2140
8 2052 1940 2054 2161 2144 2035 2140 2242
8 2140 2033 2141 2243 2035 1923 2034 2143
8 2143 2034 2142 2246 2037 1924 2036 2146
8 2144 2035 2143 2247 2051 1939 2037 2147
8 2146 2036 2145 2249 2039 1925 2038 2149
8 2147 2037 2146 2250 2040 1926 2039 2150
8 2149 2038 2148 2251 2042 1927 2041 2151
8 2150 2039 2149 2252 2043 1928 2042 2152
8 2152 2042 2151 2253 2045 1931 2044 2153
8 2255 2154 2047 2155 2189 2085 1976 2086
8 2170 2062 1949 2063 2255 2154 2047 2155
8 2256 2155 2048 2156 2190 2086 1977 2087
8 2171 2063 1950 2064 2256 2155 2048 2156
8 2258 2159 2050 2157 2164 2056 1941 2054
8 2160 2053 1946 2058 2262 2163 2060 2167
8 2162 2055 1940 2052 2262 2163 2053 2160
8 2162 2055 2164 2263 2052 1940 2054 2161
8 2163 2057 1948 2060 2264 2165 2061 2168
8 2055 1943 2057 2163 2164 2056 2165 2264
8 2182 2076 2166 2268 2077 1964 2061 2168
8 2183 2077 2168 2269 2078 1965 2060 2167
8 2070 1963 2062 2170 2177 2075 2169 2271
8 2172 2070 1959 2065 2272 2170 2063 2171
8 2172 2070 2177 2273 2065 1959 2072 2173
8 2066 1958 2072 2173 2174 2071 2178 2274
8 2067 1957 2071 2174 2175 2069 2176 2275
8 2175 2069 2176 2275 2079 1973 2083 2184
8 2071 1961 2074 2178 2176 2073 2179 2276
8 2176 2073 2179 2276 2083 1975 2084 2186
8 2072 1962 2075 2177 2178 2074 2180 2277
8 2182 2076 1974 2082 2280 2181 2084 2186
8 2183 2077 1971 2081 2281 2182 2082 2185
8 2184 2083 2186 2282 2080 1972 2082 2185
8 2189 2085 1993 2095 2285 2188 2100 2197
8 2190 2086 1987 2090 2286 2189 2095 2193
8 2192 2097 1989 2089 2287 2196 2094 2191
8 2287 2196 2094 2191 2203 2104 1998 2103
8 2194 2098 1991 2091 2288 2199 2097 2192
8 2195 2096 2197 2289 2093 1988 2095 2193
8 2096 2195 2290 2198 1990 2092 2194 2098
8 2097 1996 2099 2196 2199 2102 2200 2291
8 2196 2099 1999 2104 2291 2200 2105 2204
8 2100 2197 2292 2201 1994 2096 2198 2101
8 1995 2098 2198 2101 2102 2199 2293 2202
8 2206 2107 2204 2296 2106 2001 2104 2203
8 2207 2108 2205 2297 2107 2002 2105 2204
8 2209 2110 2207 2299 2109 2004 2107 2206
8 2210 2111 2208 2300 2110 2005 2108 2207
8 2212 2113 2210 2302 2112 2007 2110 2209
8 2213 2114 2211 2303 2113 2008 2111 2210
8 2220 2117 2213 2305 2120 2011 2113 2212
8 2216 2115 2214 2306 2117 2009 2114 2213
8 2216 2115 2009 2117 2311 2217 2116 2219
8 2219 2116 2010 2119 2314 2218 2118 2222
8 2315 2219 2117 2220 2223 2119 2011 2120
8 2122 2012 2121 2225 2222 2118 2221 2317
8 2318 2222 2119 2223 2226 2122 2013 2123
8 2125 2015 2124 2228 2225 2121 2224 2320
8 2126 2016 2125 2229 2226 2122 2225 2321
8 2128 2018 2127 2231 2228 2124 2227 2323
8 2129 2019 2128 2232 2229 2125 2228 2324
8 2131 2021 2130 2234 2231 2127 2230 2326
8 2132 2022 2131 2235 2232 2128 2231 2327
8 2134 2024 2133 2236 2234 2130 2233 2328
8 2135 2025 2134 2237 2235 2131 2234 2329
8 2137 2028 2136 2238 2237 2134 2236 2330
8 2157 2050 2158 2259 2240 2139 2239 2332
8 2257 2157 2240 2334 2161 2054 2140 2242
8 2240 2139 2241 2335 2140 2033 2141 2243
8 2242 2140 2243 2337 2144 2035 2143 2247
8 2243 2141 2244 2338 2143 2034 2142 2246
8 2246 2142 2245 2341 2146 2036 2145 2249
8 2247 2143 2246 2342 2147 2037 2146 2250
8 2249 2145 2248 2343 2149 2038 2148 2251
8 2250 2146 2249 2344 2150 2039 2149 2252
8 2252 2149 2251 2345 2152 2042 2151 2253
8 2169 2271 2347 2254 2062 2170 2255 2154
8 2189 2085 2188 2285 2255 2154 2254 2347
8 2348 2255 2155 2256 2286 2189 2086 2190
8 2272 2170 2063 2171 2348 2255 2155 2256
8 2349 2258 2157 2257 2263 2164 2054 2161
8 2258 2159 2261 2351 2157 2050 2158 2259
8 2258 2159 2056 2164 2351 2261 2165 2264
8 2262 2163 2060 2167 2355 2264 2168 2269
8 2162 2055 2163 2262 2263 2164 2264 2355
8 2357 2266 2165 2264 2268 2166 2061 2168
8 2268 2166 2076 2182 2361 2267 2181 2280
8 2281 2182 2268 2362 2183 2077 2168 2269
8 2271 2169 2270 2364 2177 2075 2180 2277
8 2172 2070 2170 2272 2273 2177 2271 2365
8 2072 2173 2274 2178 2177 2273 2366 2277
8 2071 2174 2275 2176 2178 2274 2367 2276
8 2275 2176 2276 2367 2184 2083 2186 2282
8 2283 2187 2084 2186 2368 2278 2179 2276
8 2178 2074 2180 2277 2276 2179 2278 2368
8 2283 2187 2279 2370 2186 2084 2181 2280
8 2281 2182 2082 2185 2371 2280 2186 2282
8 2188 2285 2374 2284 2100 2197 2292 2201
8 2286 2189 2095 2193 2375 2285 2197 2289
8 2192 2097 2196 2287 2288 2199 2291 2376
8 2287 2196 2104 2203 2376 2291 2204 2296
8 2194 2098 2199 2288 2290 2198 2293 2377
8 2289 2197 2096 2195 2378 2292 2198 2290
8 2291 2200 2105 2204 2379 2294 2205 2297
8 2199 2102 2200 2291 2293 2202 2294 2379
8 2198 2101 2202 2293 2292 2201 2295 2380
8 2299 2207 2297 2383 2206 2107 2204 2296
8 2300 2208 2298 2384 2207 2108 2205 2297
8 2302 2210 2300 2386 2209 2110 2207 2299
8 2303 2211 2301 2387 2210 2111 2208 2300
8 2305 2213 2303 2389 2212 2113 2210 2302
8 2306 2214 2304 2390 2213 2114 2211 2303
8 2310 2216 2306 2392 2220 2117 2213 2305
8 2308 2215 2307 2393 2216 2115 2214 2306
8 2308 2215 2115 2216 2396 2309 2217 2311
8 2310 2216 2117 2220 2398 2311 2219 2315
8 2311 2217 2116 2219 2399 2312 2218 2314
8 2314 2218 2118 2222 2402 2313 2221 2317
8 2315 2219 2119 2223 2403 2314 2222 2318
8 2225 2121 2224 2320 2317 2221 2316 2405
8 2226 2122 2225 2321 2318 2222 2317 2406
8 2228 2124 2227 2323 2320 2224 2319 2408
8 2229 2125 2228 2324 2321 2225 2320 2409
8 2231 2127 2230 2326 2323 2227 2322 2411
8 2232 2128 2231 2327 2324 2228 2323 2412
8 2234 2130 2233 2328 2326 2230 2325 2413
8 2235 2131 2234 2329 2327 2231 2326 2414
8 2237 2134 2236 2330 2329 2234 2328 2415
8 2259 2158 2260 2352 2332 2239 2331 2417
8 2257 2157 2259 2350 2334 2240 2332 2419
8 2240 2139 2239 2332 2335 2241 2333 2420
8 2334 2240 2335 2422 2242 2140 2243 2337
8 2335 2241 2336 2423 2243 2141 2244 2338
8 2337 2243 2338 2425 2247 2143 2246 2342
8 2338 2244 2339 2426 2246 2142 2245 2341
8 2341 2245 2340 2428 2249 2145 2248 2343
8 2342 2246 2341 2429 2250 2146 2249 2344
8 2344 2249 2343 2430 2252 2149 2251 2345
8 2188 2285 2347 2254 2284 2374 2432 2346
8 2347 2254 2346 2432 2271 2169 2270 2364
8 2365 2271 2170 2272 2433 2347 2255 2348
8 2286 2189 2285 2375 2348 2255 2347 2433
8 2349 2258 2351 2435 2257 2157 2259 2350
8 2349 2258 2164 2263 2435 2351 2264 2355
8 2259 2158 2261 2351 2352 2260 2354 2437
8 2356 2265 2354 2437 2264 2165 2261 2351
8 2441 2357 2264 2355 2362 2268 2168 2269
8 2356 2265 2165 2264 2442 2358 2266 2357
8 2443 2359 2266 2357 2361 2267 2166 2268
8 2370 2279 2360 2446 2280 2181 2267 2361
8 2362 2268 2182 2281 2447 2361 2280 2371
8 2180 2277 2368 2278 2270 2364 2449 2363
8 2271 2365 2273 2177 2364 2450 2366 2277
8 2372 2283 2186 2282 2451 2368 2276 2367
8 2178 2274 2367 2276 2277 2366 2451 2368
8 2283 2187 2278 2368 2370 2279 2369 2452
8 2372 2283 2370 2453 2282 2186 2280 2371
8 2284 2374 2455 2373 2201 2292 2380 2295
8 2375 2285 2197 2289 2456 2374 2292 2378
8 2376 2291 2204 2296 2457 2379 2297 2383
8 2288 2199 2291 2376 2377 2293 2379 2457
8 2198 2290 2378 2292 2293 2377 2458 2380
8 2293 2202 2294 2379 2380 2295 2381 2459
8 2384 2298 2381 2459 2297 2205 2294 2379
8 2386 2300 2384 2463 2299 2207 2297 2383
8 2387 2301 2385 2464 2300 2208 2298 2384
8 2389 2303 2387 2466 2302 2210 2300 2386
8 2390 2304 2388 2467 2303 2211 2301 2387
8 2392 2306 2390 2469 2305 2213 2303 2389
8 2393 2307 2391 2470 2306 2214 2304 2390
8 2395 2308 2393 2472 2310 2216 2306 2392
8 2308 2215 2309 2396 2393 2307 2394 2473
8 2395 2308 2216 2310 2475 2396 2311 2398
8 2396 2309 2217 2311 2476 2397 2312 2399
8 2398 2311 2219 2315 2478 2399 2314 2403
8 2399 2312 2218 2314 2479 2400 2313 2402
8 2317 2221 2316 2405 2402 2313 2401 2482
8 2403 2314 2222 2318 2483 2402 2317 2406
8 2320 2224 2319 2408 2405 2316 2404 2485
8 2321 2225 2320 2409 2406 2317 2405 2486
8 2323 2227 2322 2411 2408 2319 2407 2488
8 2324 2228 2323 2412 2409 2320 2408 2489
8 2326 2230 2325 2413 2411 2322 2410 2490
8 2327 2231 2326 2414 2412 2323 2411 2491
8 2329 2234 2328 2415 2414 2326 2413 2492
8 2417 2331 2260 2352 2494 2416 2353 2438
8 2350 2259 2352 2436 2419 2332 2417 2496
8 2332 2239 2331 2417 2420 2333 2418 2497
8 2334 2240 2332 2419 2422 2335 2420 2499
8 2420 2333 2421 2500 2335 2241 2336 2423
8 2422 2335 2423 2502 2337 2243 2338 2425
8 2423 2336 2424 2503 2338 2244 2339 2426
8 2425 2338 2426 2505 2342 2246 2341 2429
8 2426 2339 2427 2506 2341 2245 2340 2428
8 2429 2341 2428 2507 2344 2249 2343 2430
8 2432 2346 2284 2374 2509 2431 2373 2455
8 2432 2346 2431 2509 2364 2270 2363 2449
8 2375 2285 2374 2456 2433 2347 2432 2510
8 2347 2433 2365 2271 2432 2510 2450 2364
8 2350 2259 2351 2435 2436 2352 2437 2514
8 2440 2356 2437 2514 2355 2264 2351 2435
8 2352 2260 2354 2437 2438 2353 2439 2516
8 2356 2265 2358 2442 2437 2354 2439 2516
8 2440 2356 2264 2355 2518 2442 2357 2441
8 2519 2443 2357 2441 2447 2361 2268 2362
8 2443 2359 2444 2520 2357 2266 2358 2442
8 2443 2359 2267 2361 2520 2444 2360 2446
8 2446 2360 2279 2370 2523 2445 2369 2452
8 2453 2370 2446 2524 2371 2280 2361 2447
8 2449 2363 2448 2525 2368 2278 2369 2452
8 2366 2277 2364 2450 2451 2368 2449 2526
8 2372 2283 2368 2451 2453 2370 2452 2527
8 2455 2373 2295 2380 2529 2454 2382 2460
8 2456 2374 2292 2378 2530 2455 2380 2458
8 2377 2293 2379 2457 2458 2380 2459 2531
8 2463 2384 2459 2531 2383 2297 2379 2457
8 2533 2461 2382 2460 2459 2381 2295 2380
8 2464 2385 2461 2533 2384 2298 2381 2459
8 2466 2387 2464 2537 2386 2300 2384 2463
8 2467 2388 2465 2538 2387 2301 2385 2464
8 2469 2390 2467 2540 2389 2303 2387 2466
8 2470 2391 2468 2541 2390 2304 2388 2467
8 2472 2393 2470 2543 2392 2306 2390 2469
8 2393 2307 2394 2473 2470 2391 2471 2544
8 2395 2308 2396 2475 2472 2393 2473 2546
8 2396 2309 2397 2476 2473 2394 2474 2547
8 2475 2396 2311 2398 2549 2476 2399 2478
8 2476 2397 2312 2399 2550 2477 2400 2479
8 2478 2399 2314 2403 2552 2479 2402 2483
8 2479 2400 2313 2402 2553 2480 2401 2482
8 2405 2316 2404 2485 2482 2401 2481 2556
8 2406 2317 2405 2486 2483 2402 2482 2557
8 2408 2319 2407 2488 2485 2404 2484 2559
8 2409 2320 2408 2489 2486 2405 2485 2560
8 2411 2322 2410 2490 2488 2407 2487 2561
8 2412 2323 2411 2491 2489 2408 2488 2562
8 2414 2326 2413 2492 2491 2411 2490 2563
8 2513 2434 2493 2565 2438 2353 2416 2494
8 2496 2417 2352 2436 2567 2494 2438 2515
8 2494 2416 2495 2568 2417 2331 2418 2497
8 2419 2332 2417 2496 2499 2420 2497 2570
8 2497 2418 2498 2571 2420 2333 2421 2500
8 2499 2420 2500 2573 2422 2335 2423 2502
8 2500 2421 2501 2574 2423 2336 2424 2503
8 2502 2423 2503 2576 2425 2338 2426 2505
8 2503 2424 2504 2577 2426 2339 2427 2506
8 2505 2426 2506 2578 2429 2341 2428 2507
8 2509 2431 2373 2455 2580 2508 2454 2529
8 2509 2431 2508 2580 2449 2363 2448 2525
8 2432 2510 2581 2509 2374 2456 2530 2455
8 2432 2510 2450 2364 2509 2581 2526 2449
8 2583 2511 2434 2513 2516 2439 2353 2438
8 2436 2352 2437 2514 2515 2438 2516 2588
8 2440 2356 2442 2518 2514 2437 2516 2588
8 2442 2358 2444 2520 2516 2439 2517 2589
8 2519 2443 2520 2591 2441 2357 2442 2518
8 2519 2443 2361 2447 2591 2520 2446 2524
8 2446 2360 2445 2523 2520 2444 2521 2592
8 2525 2448 2522 2593 2452 2369 2445 2523
8 2524 2446 2370 2453 2594 2523 2452 2527
8 2526 2449 2525 2595 2451 2368 2452 2527
8 2534 2462 2528 2597 2460 2382 2454 2529
8 2530 2455 2380 2458 2598 2529 2460 2532
8 2599 2533 2460 2532 2531 2459 2380 2458
8 2537 2464 2533 2599 2463 2384 2459 2531
8 2534 2462 2382 2460 2601 2535 2461 2533
8 2538 2465 2535 2601 2464 2385 2461 2533
8 2540 2467 2538 2604 2466 2387 2464 2537
8 2541 2468 2539 2605 2467 2388 2465 2538
8 2543 2470 2541 2607 2469 2390 2467 2540
8 2470 2391 2471 2544 2541 2468 2542 2608
8 2472 2393 2473 2546 2543 2470 2544 2610
8 2473 2394 2474 2547 2544 2471 2545 2611
8 2475 2396 2476 2549 2546 2473 2547 2613
8 2476 2397 2477 2550 2547 2474 2548 2614
8 2549 2476 2399 2478 2616 2550 2479 2552
8 2479 2400 2480 2553 2550 2477 2551 2617
8 2552 2479 2402 2483 2619 2553 2482 2557
8 2482 2401 2481 2556 2553 2480 2554 2620
8 2485 2404 2484 2559 2556 2481 2555 2623
8 2486 2405 2485 2560 2557 2482 2556 2624
8 2488 2407 2487 2561 2559 2484 2558 2625
8 2489 2408 2488 2562 2560 2485 2559 2626
8 2491 2411 2490 2563 2562 2488 2561 2627
8 2513 2434 2512 2585 2565 2493 2564 2630
8 2586 2513 2565 2632 2515 2438 2494 2567
8 2565 2493 2566 2633 2494 2416 2495 2568
8 2567 2494 2568 2635 2496 2417 2497 2570
8 2568 2495 2569 2636 2497 2418 2498 2571
8 2570 2497 2571 2638 2499 2420 2500 2573
8 2571 2498 2572 2639 2500 2421 2501 2574
8 2573 2500 2574 2641 2502 2423 2503 2576
8 2574 2501 2575 2642 2503 2424 2504 2577
8 2576 2503 2577 2643 2505 2426 2506 2578
8 2597 2528 2579 2645 2529 2454 2508 2580
8 2580 2508 2579 2645 2525 2448 2522 2593
8 2581 2509 2455 2530 2646 2580 2529 2598
8 2581 2509 2580 2646 2526 2449 2525 2595
8 2583 2511 2582 2648 2513 2434 2512 2585
8 2583 2511 2439 2516 2648 2582 2517 2589
8 2649 2583 2513 2586 2588 2516 2438 2515
8 2589 2517 2444 2520 2653 2587 2521 2592
8 2518 2442 2520 2591 2588 2516 2589 2654
8 2593 2522 2590 2655 2523 2445 2521 2592
8 2524 2446 2523 2594 2591 2520 2592 2656
8 2595 2525 2593 2657 2527 2452 2523 2594
8 2602 2536 2596 2659 2534 2462 2528 2597
8 2600 2534 2597 2660 2532 2460 2529 2598
8 2600 2534 2460 2532 2661 2601 2533 2599
8 2604 2538 2601 2661 2537 2464 2533 2599
8 2602 2536 2462 2534 2663 2603 2535 2601
8 2601 2535 2465 2538 2663 2603 2539 2605
8 2607 2541 2605 2665 2540 2467 2538 2604
8 2608 2542 2606 2666 2541 2468 2539 2605
8 2543 2470 2544 2610 2607 2541 2608 2668
8 2544 2471 2545 2611 2608 2542 2609 2669
8 2546 2473 2547 2613 2610 2544 2611 2671
8 2547 2474 2548 2614 2611 2545 2612 2672
8 2549 2476 2550 2616 2613 2547 2614 2674
8 2550 2477 2551 2617 2614 2548 2615 2675
8 2552 2479 2553 2619 2616 2550 2617 2677
8 2553 2480 2554 2620 2617 2551 2618 2678
8 2557 2482 2556 2624 2619 2553 2620 2680
8 2556 2481 2555 2623 2620 2554 2621 2681
8 2559 2484 2558 2625 2623 2555 2622 2683
8 2560 2485 2559 2626 2624 2556 2623 2684
8 2562 2488 2561 2627 2626 2559 2625 2685
8 2690 2629 2564 2630 2650 2584 2512 2585
8 2586 2513 2585 2651 2632 2565 2630 2691
8 2630 2564 2631 2692 2565 2493 2566 2633
8 2632 2565 2633 2694 2567 2494 2568 2635
8 2633 2566 2634 2695 2568 2495 2569 2636
8 2635 2568 2636 2697 2570 2497 2571 2638
8 2636 2569 2637 2698 2571 2498 2572 2639
8 2638 2571 2639 2700 2573 2500 2574 2641
8 2639 2572 2640 2701 2574 2501 2575 2642
8 2641 2574 2642 2702 2576 2503 2577 2643
8 2597 2528 2596 2659 2645 2579 2644 2704
8 2645 2579 2644 2704 2593 2522 2590 2655
8 2660 2597 2645 2705 2598 2529 2580 2646
8 2646 2580 2645 2705 2595 2525 2593 2657
8 2650 2584 2512 2585 2707 2647 2582 2648
8 2648 2582 2517 2589 2707 2647 2587 2653
8 2649 2583 2648 2708 2586 2513 2585 2651
8 2649 2583 2516 2588 2708 2648 2589 2654
8 2655 2590 2652 2710 2592 2521 2587 2653
8 2654 2589 2520 2591 2711 2653 2592 2656
8 2657 2593 2655 2712 2594 2523 2592 2656
8 2602 2536 2603 2663 2659 2596 2658 2714
8 2662 2602 2659 2715 2600 2534 2597 2660
8 2662 2602 2534 2600 2717 2663 2601 2661
8 2661 2601 2538 2604 2717 2663 2605 2665
8 2666 2606 2664 2718 2605 2539 2603 2663
8 2668 2608 2666 2720 2607 2541 2605 2665
8 2608 2542 2609 2669 2666 2606 2667 2721
8 2610 2544 2611 2671 2668 2608 2669 2723
8 2611 2545 2612 2672 2669 2609 2670 2724
8 2613 2547 2614 2674 2671 2611 2672 2726
8 2614 2548 2615 2675 2672 2612 2673 2727
8 2616 2550 2617 2677 2674 2614 2675 2729
8 2617 2551 2618 2678 2675 2615 2676 2730
8 2619 2553 2620 2680 2677 2617 2678 2732
8 2620 2554 2621 2681 2678 2618 2679 2733
8 2624 2556 2623 2684 2680 2620 2681 2735
8 2681 2621 2555 2623 2736 2682 2622 2683
8 2626 2559 2625 2685 2684 2623 2683 2737
8 2688 2628 2584 2650 2740 2686 2647 2707
8 2688 2628 2687 2742 2650 2584 2629 2690
8 2690 2629 2689 2745 2630 2564 2631 2692
8 2746 2690 2630 2691 2709 2650 2585 2651
8 2691 2630 2692 2747 2632 2565 2633 2694
8 2692 2631 2693 2748 2633 2566 2634 2695
8 2694 2633 2695 2750 2635 2568 2636 2697
8 2695 2634 2696 2751 2636 2569 2637 2698
8 2697 2636 2698 2753 2638 2571 2639 2700
8 2698 2637 2699 2754 2639 2572 2640 2701
8 2700 2639 2701 2755 2641 2574 2642 2702
8 2659 2596 2658 2714 2704 2644 2703 2757
8 2704 2644 2703 2757 2655 2590 2652 2710
8 2660 2597 2659 2715 2705 2645 2704 2758
8 2705 2645 2704 2758 2657 2593 2655 2712
8 2759 2706 2647 2707 2710 2652 2587 2653
8 2709 2650 2585 2651 2760 2707 2648 2708
8 2708 2648 2589 2654 2760 2707 2653 2711
8 2712 2655 2710 2761 2656 2592 2653 2711
8 2763 2713 2658 2714 2718 2664 2603 2663
8 2662 2602 2663 2717 2715 2659 2714 2764
8 2720 2666 2718 2767 2665 2605 2663 2717
8 2768 2719 2664 2718 2721 2667 2606 2666
8 2668 2608 2669 2723 2720 2666 2721 2770
8 2669 2609 2670 2724 2721 2667 2722 2771
8 2671 2611 2672 2726 2723 2669 2724 2773
8 2672 2612 2673 2727 2724 2670 2725 2774
8 2674 2614 2675 2729 2726 2672 2727 2776
8 2675 2615 2676 2730 2727 2673 2728 2777
8 2677 2617 2678 2732 2729 2675 2730 2779
8 2678 2618 2679 2733 2730 2676 2731 2780
8 2680 2620 2681 2735 2732 2678 2733 2782
8 2733 2679 2621 2681 2783 2734 2682 2736
8 2735 2681 2623 2684 2784 2736 2683 2737
8 2740 2686 2647 2707 2787 2738 2706 2759
8 2688 2628 2686 2740 2742 2687 2739 2789
8 2743 2688 2650 2709 2790 2740 2707 2760
8 2742 2687 2741 2792 2690 2629 2689 2745
8 2743 2688 2742 2793 2709 2650 2690 2746
8 2745 2689 2744 2795 2692 2631 2693 2748
8 2746 2690 2745 2796 2691 2630 2692 2747
8 2747 2692 2748 2797 2694 2633 2695 2750
8 2748 2693 2749 2798 2695 2634 2696 2751
8 2750 2695 2751 2800 2697 2636 2698 2753
8 2751 2696 2752 2801 2698 2637 2699 2754
8 2753 2698 2754 2802 2700 2639 2701 2755
8 2763 2713 2756 2804 2714 2658 2703 2757
8 2759 2706 2652 2710 2804 2756 2703 2757
8 2715 2659 2714 2764 2758 2704 2757 2805
8 2758 2704 2757 2805 2712 2655 2710 2761
8 2806 2759 2707 2760 2761 2710 2653 2711
8 2765 2716 2762 2808 2718 2664 2713 2763
8 2809 2763 2714 2764 2767 2718 2663 2717
8 2765 2716 2664 2718 2811 2766 2719 2768
8 2813 2768 2718 2767 2770 2721 2666 2720
8 2814 2769 2719 2768 2771 2722 2667 2721
8 2723 2669 2724 2773 2770 2721 2771 2816
8 2724 2670 2725 2774 2771 2722 2772 2817
8 2726 2672 2727 2776 2773 2724 2774 2819
8 2727 2673 2728 2777 2774 2725 2775 2820
8 2729 2675 2730 2779 2776 2727 2777 2822
8 2730 2676 2731 2780 2777 2728 2778 2823
8 2732 2678 2733 2782 2779 2730 2780 2825
8 2780 2731 2679 2733 2826 2781 2734 2783
8 2782 2733 2681 2735 2827 2783 2736 2784
8 2830 2785 2738 2787 2804 2756 2706 2759
8 2789 2739 2686 2740 2832 2786 2738 2787
8 2790 2740 2707 2760 2833 2787 2759 2806
8 2742 2687 2739 2789 2792 2741 2788 2835
8 2743 2688 2740 2790 2793 2742 2789 2836
8 2792 2741 2791 2838 2745 2689 2744 2795
8 2793 2742 2792 2839 2746 2690 2745 2796
8 2795 2744 2794 2841 2748 2693 2749 2798
8 2796 2745 2795 2842 2747 2692 2748 2797
8 2797 2748 2798 2843 2750 2695 2751 2800
8 2798 2749 2799 2844 2751 2696 2752 2801
8 2800 2751 2801 2845 2753 2698 2754 2802
8 2808 2762 2803 2847 2763 2713 2756 2804
8 2809 2763 2804 2848 2764 2714 2757 2805
8 2806 2759 2710 2761 2848 2804 2757 2805
8 2765 2716 2766 2811 2808 2762 2807 2850
8 2810 2765 2808 2851 2767 2718 2763 2809
8 2810 2765 2718 2767 2852 2811 2768 2813
8 2811 2766 2719 2768 2853 2812 2769 2814
8 2855 2814 2768 2813 2816 2771 2721 2770
8 2856 2815 2769 2814 2817 2772 2722 2771
8 2773 2724 2774 2819 2816 2771 2817 2858
8 2774 2725 2775 2820 2817 2772 2818 2859
8 2776 2727 2777 2822 2819 2774 2820 2861
8 2777 2728 2778 2823 2820 2775 2821 2862
8 2779 2730 2780 2825 2822 2777 2823 2864
8 2823 2778 2731 2780 2865 2824 2781 2826
8 2825 2780 2733 2782 2866 2826 2783 2827
8 2869 2828 2785 2830 2847 2803 2756 2804
8 2871 2829 2786 2832 2830 2785 2738 2787
8 2872 2830 2787 2833 2848 2804 2759 2806
8 2789 2739 2786 2832 2835 2788 2831 2874
8 2836 2789 2740 2790 2875 2832 2787 2833
8 2792 2741 2788 2835 2838 2791 2834 2877
8 2793 2742 2789 2836 2839 2792 2835 2878
8 2838 2791 2837 2880 2795 2744 2794 2841
8 2839 2792 2838 2881 2796 2745 2795 2842
8 2841 2794 2840 2882 2798 2749 2799 2844
8 2842 2795 2841 2883 2797 2748 2798 2843
8 2843 2798 2844 2884 2800 2751 2801 2845
8 2886 2846 2803 2847 2850 2807 2762 2808
8 2851 2808 2847 2887 2809 2763 2804 2848
8 2850 2807 2766 2811 2889 2849 2812 2853
8 2810 2765 2811 2852 2851 2808 2850 2890
8 2852 2811 2768 2813 2891 2853 2814 2855
8 2853 2812 2769 2814 2892 2854 2815 2856
8 2894 2856 2814 2855 2858 2817 2771 2816
8 2817 2772 2818 2859 2856 2815 2857 2895
8 2819 2774 2820 2861 2858 2817 2859 2897
8 2820 2775 2821 2862 2859 2818 2860 2898
8 2822 2777 2823 2864 2861 2820 2862 2900
8 2823 2778 2824 2865 2862 2821 2863 2901
8 2864 2823 2780 2825 2902 2865 2826 2866
8 2904 2867 2828 2869 2886 2846 2803 2847
8 2869 2828 2868 2906 2830 2785 2829 2871
8 2907 2869 2830 2872 2887 2847 2804 2848
8 2871 2829 2870 2909 2832 2786 2831 2874
8 2910 2871 2832 2875 2872 2830 2787 2833
8 2835 2788 2831 2874 2877 2834 2873 2912
8 2836 2789 2832 2875 2878 2835 2874 2913
8 2877 2834 2876 2915 2838 2791 2837 2880
8 2839 2792 2835 2878 2881 2838 2877 2916
8 2880 2837 2879 2917 2841 2794 2840 2882
8 2881 2838 2880 2918 2842 2795 2841 2883
8 2883 2841 2882 2919 2843 2798 2844 2884
8 2921 2885 2846 2886 2889 2849 2807 2850
8 2922 2886 2847 2887 2890 2850 2808 2851
8 2889 2849 2812 2853 2924 2888 2854 2892
8 2890 2850 2811 2852 2925 2889 2853 2891
8 2891 2853 2814 2855 2926 2892 2856 2894
8 2892 2854 2815 2856 2927 2893 2857 2895
8 2858 2817 2859 2897 2894 2856 2895 2929
8 2859 2818 2860 2898 2895 2857 2896 2930
8 2861 2820 2862 2900 2897 2859 2898 2932
8 2862 2821 2863 2901 2898 2860 2899 2933
8 2864 2823 2865 2902 2900 2862 2901 2934
8 2904 2867 2846 2886 2936 2903 2885 2921
8 2904 2867 2903 2936 2869 2828 2868 2906
8 2937 2904 2869 2907 2922 2886 2847 2887
8 2906 2868 2905 2939 2871 2829 2870 2909
8 2907 2869 2906 2940 2872 2830 2871 2910
8 2909 2870 2908 2942 2874 2831 2873 2912
8 2910 2871 2909 2943 2875 2832 2874 2913
8 2912 2873 2911 2945 2877 2834 2876 2915
8 2878 2835 2874 2913 2916 2877 2912 2946
8 2915 2876 2914 2947 2880 2837 2879 2917
8 2916 2877 2915 2948 2881 2838 2880 2918
8 2918 2880 2917 2949 2883 2841 2882 2919
8 2921 2885 2849 2889 2951 2920 2888 2924
8 2952 2921 2886 2922 2925 2889 2850 2890
8 2924 2888 2854 2892 2954 2923 2893 2927
8 2925 2889 2853 2891 2955 2924 2892 2926
8 2926 2892 2856 2894 2956 2927 2895 2929
8 2895 2857 2896 2930 2927 2893 2928 2957
8 2897 2859 2898 2932 2929 2895 2930 2959
8 2898 2860 2899 2933 2930 2896 2931 2960
8 2900 2862 2901 2934 2932 2898 2933 2961
8 2936 2903 2885 2921 2963 2935 2920 2951
8 2936 2903 2935 2963 2906 2868 2905 2939
8 2937 2904 2886 2922 2964 2936 2921 2952
8 2937 2904 2936 2964 2907 2869 2906 2940
8 2939 2905 2938 2966 2909 2870 2908 2942
8 2940 2906 2939 2967 2910 2871 2909 2943
8 2942 2908 2941 2969 2912 2873 2911 2945
8 2943 2909 2942 2970 2913 2874 2912 2946
8 2945 2911 2944 2971 2915 2876 2914 2947
8 2946 2912 2945 2972 2916 2877 2915 2948
8 2948 2915 2947 2973 2918 2880 2917 2949
8 2951 2920 2888 2924 2975 2950 2923 2954
8 2952 2921 2889 2925 2976 2951 2924 2955
8 2927 2893 2928 2957 2954 2923 2953 2978
8 2955 2924 2892 2926 2979 2954 2927 2956
8 2929 2895 2930 2959 2956 2927 2957 2980
8 2930 2896 2931 2960 2957 2928 2958 2981
8 2932 2898 2933 2961 2959 2930 2960 2982
8 2951 2920 2950 2975 2963 2935 2962 2984
8 2963 2935 2962 2984 2939 2905 2938 2966
8 2964 2936 2921 2952 2985 2963 2951 2976
8 2964 2936 2963 2985 2940 2906 2939 2967
8 2966 2938 2965 2987 2942 2908 2941 2969
8 2967 2939 2966 2988 2943 2909 2942 2970
8 2969 2941 2968 2989 2945 2911 2944 2971
8 2970 2942 2969 2990 2946 2912 2945 2972
8 2972 2945 2971 2991 2948 2915 2947 2973
8 2954 2923 2953 2978 2975 2950 2974 2993
8 2976 2951 2924 2955 2994 2975 2954 2979
8 2957 2928 2958 2981 2978 2953 2977 2995
8 2956 2927 2957 2980 2979 2954 2978 2996
8 2959 2930 2960 2982 2980 2957 2981 2997
8 2984 2962 2983 2999 2966 2938 2965 2987
8 2975 2950 2974 2993 2984 2962 2983 2999
8 2976 2951 2975 2994 2985 2963 2984 3000
8 2985 2963 2984 3000 2967 2939 2966 2988
8 2987 2965 2986 3001 2969 2941 2968 2989
8 2988 2966 2987 3002 2970 2942 2969 2990
8 2990 2969 2989 3003 2972 2945 2971 2991
8 2978 2953 2977 2995 2993 2974 2992 3004
8 2979 2954 2978 2996 2994 2975 2993 3005
8 2980 2957 2981 2997 2996 2978 2995 3006
8 2974 2993 2999 2983 2992 3004 3007 2998
8 2983 2999 2987 2965 2998 3007 3001 2986
8 3000 2984 2999 3008 2988 2966 2987 3002
8 2994 2975 2993 3005 3000 2984 2999 3008
8 3002 2987 3001 3009 2990 2969 2989 3003
8 2996 2978 2995 3006 3005 2993 3004 3010
8 3005 2993 3004 3010 3008 2999 3007 3011
8 3008 2999 3007 3011 3002 2987 3001 3009

CELL_TYPES 1910
12
12
12
12
12
12
12
12
12
12
12
12
12
12
12
12
12
12
12
12
12
12
12
12
12
12
12
12
12
12
12
12
12
12
12
12
12
12
12
12
12
12
12
12
12
12
12
12
12
12
12
12
12
12
12
12
12
12
12
12
12
12
12
12
12
12
12
12
12
12
12
12
12
12
12
12
12
12
12
12
12
12
12
12
12
12
12
12
12
12
12
12
12
12
12
12
12
12
12
12
12
12
12
12
12
12
12
12
12
12
12
12
12
12
12
12
12
12
12
12
12
12
12
12
12
12
12
12
12
12
12
12
12
12
12
12
12
12
12
12
12
12
12
12
12
12
12
12
12
12
12
12
12
12
12
12
12
12
12
12
12
12
12
12
12
12
12
12
12
12
12
12
12
12
12
12
12
12
12
12
12
12
12
12
12
12
12
12
12
12
12
12
12
12
12
12
12
12
12
12
12
12
12
12
12
12
12
12
12
12
12
12
12
12
12
12
12
12
12
12
12
12
12
12
12
12
12
12
12
12
12
12
12
12
12
12
12
12
12
12
12
12
12
12
12
12
12
12
12
12
12
12
12
12
12
12
12
12
12
12
12
12
12
12
12
12
12
12
12
12
12
12
12
12
12
12
12
12
12
12
12
12
12
12
12
12
12
12
12
12
12
12
12
12
12
12
12
12
12
12
12
12
12
12
12
12
12
12
12
12
12
12
12
12
12
12
12
12
12
12
12
12
12
12
12
12
12
12
12
12
12
12
12
12
12
12
12
12
12
12
12
12
12
12
12
12
12
12
12
12
12
12
12
12
12
12
12
12
12
12
12
12
12
12
12
12
12
12
12
12
12
12
12
12
12
12
12
12
12
12
12
12
12
12
12
12
12
12
12
12
12
12
12
12
12
12
12
12
12
12
12
12
12
12
12
12
12
12
12
12
12
12
12
12
12
12
12
12
12
12
12
12
12
12
12
12
12
12
12
12
12
12
12
12
12
12
12
12
12
12
12
12
12
12
12
12
12
12
12
12
12
12
12
12
12
12
12
12
12
12
12
12
12
12
12
12
12
12
12
12
12
12
12
12
12
12
12
12
12
12
12
12
12
12
12
12
12
12
12
12
12
12
12
12
12
12
12
12
12
12
12
12
12
12
12
12
12
12
12
12
12
12
12
12
12
12
12
12
12
12
12
12
12
12
12
12
12
12
12
12
12
12
12
12
12
12
12
12
12
12
12
12
12
12
12
12
12
12
12
12
12
12
12
12
12
12
12
12
12
12
12
12
12
12
12
12
12
12
12
12
12
12
12
12
12
12
12
12
12
12
12
12
12
12
12
12
12
12
12
12
12
12
12
12
12
12
12
12
12
12
12
12
12
12
12
12
12
12
12
12
12
12
12
12
12
12
12
12
12
12
12
12
12
12
12
12
12
12
12
12
12
12
12
12
12
12
12
12
12
12
12
12
12
12
12
12
12
12
12
12
12
12
12
12
12
12
12
12
12
12
12
12
12
12
12
12
12
12
12
12
12
12
12
12
12
12
12
12
12
12
12
12
12
12
12
12
12
12
12
12
12
12
12
12
12
12
12
12
12
12
12
12
12
12
12
12
12
12
12
12
12
12
12
12
12
12
12
12
12
12
12
12
12
12
12
12
12
12
12
12
12
12
12
12
12
12
12
12
12
12
12
12
12
12
12
12
12
12
12
12
12
12
12
12
12
12
12
12
12
12
12
12
12
12
12
12
12
12
12
12
12
12
12
12
12
12
12
12
12
12
12
12
12
12
12
12
12
12
12
12
12
12
12
12
12
12
12
12
12
12
12
12
12
12
12
12
12
12
12
12
12
12
12
12
12
12
12
12
12
12
12
12
12
12
12
12
12
12
12
12
12
12
12
12
12
12
12
12
12
12
12
12
12
12
12
12
12
12
12
12
12
12
12
12
12
12
12
12
12
12
12
12
12
12
12
12
12
12
12
12
12
12
12
12
12
12
12
12
12
12
12
12
12
12
12
12
12
12
12
12
12
12
12
12
12
12
12
12
12
12
12
12
12
12
12
12
12
12
12
12
12
12
12
12
12
12
12
12
12
12
12
12
12
12
12
12
12
12
12
12
12
12
12
12
12
12
12
12
12
12
12
12
12
12
12
12
12
12
12
12
12
12
12
12
12
12
12
12
12
12
12
12
12
12
12
12
12
12
12
12
12
12
12
12
12
12
12
12
12
12
12
12
12
12
12
12
12
12
12
12
12
12
12
12
12
12
12
12
12
12
12
12
12
12
12
12
12
12
12
12
12
12
12
12
12
12
12
12
12
12
12
12
12
12
12
12
12
12
12
12
12
12
12
12
12
12
12
12
12
12
12
12
12
12
12
12
12
12
12
12
12
12
12
12
12
12
12
12
12
12
12
12
12
12
12
12
12
12
12
12
12
12
12
12
12
12
12
12
12
12
12
12
12
12
12
12
12
12
12
12
12
12
12
12
12
12
12
12
12
12
12
12
12
12
12
12
12
12
12
12
12
12
12
12
12
12
12
12
12
12
12
12
12
12
12
12
12
12
12
12
12
12
12
12
12
12
12
12
12
12
12
12
12
12
12
12
12
12
12
12
12
12
12
12
12
12
12
12
12
12
12
12
12
12
12
12
12
12
12
12
12
12
12
12
12
12
12
12
12
12
12
12
12
12
12
12
12
12
12
12
12
12
12
12
12
12
12
12
12
12
12
12
12
12
12
12
12
12
12
12
12
12
12
12
12
12
12
12
12
12
12
12
12
12
12
12
12
12
12
12
12
12
12
12
12
12
12
12
12
12
12
12
12
12
12
12
12
12
12
12
12
12
12
12
12
12
12
12
12
12
12
12
12
12
12
12
12
12
12
12
12
12
12
12
12
12
12
12
12
12
12
12
12
12
12
12
12
12
12
12
12
12
12
12
12
12
12
12
12
12
12
12
12
12
12
12
12
12
12
12
12
12
12
12
12
12
12
12
12
12
12
12
12
12
12
12
12
12
12
12
12
12
12
12
12
12
12
12
12
12
12
12
12
12
12
12
12
12
12
12
12
12
12
12
12
12
12
12
12
12
12
12
12
12
12
12
12
12
12
12
12
12
12
12
12
12
12
12
12
12
12
12
12
12
12
12
12
12
12
12
12
12
12
12
12
12
12
12
12
12
12
12
12
12
12
12
12
12
12
12
12
12
12
12
12
12
12
12
12
12
12
12
12
12
12
12
12
12
12
12
12
12
12
12
12
12
12
12
12
12
12
12
12
12
12
12
12
12
12
12
12
12
12
12
12
12
12
12
12
12
12
12
12
12
12
12
12
12
12
12
12
12
12
12
12
12
12
12
12
12
12
12
12
12
12
12
12
12
12
12
12
12
12
12
12
12
12
12
12
12
12
12
12
12
12
12
12
12
12
12
12
12
12
12
12
12
12
12
12
12
12
12
12
12
12
12
12
12
12
12
12
12
12
12
12
12
12
12
12
12
12
12
12
12
12
12
12
12
12
12
12
12
12
12
12
12
12
12
12
12
12
12
12
12
12
12
12
12
12
12
12
12
12
12
12
12
12
12
12
12
12
12
12
12
12
12
12
12
12
12
12
12
12
12
12
12
12
12
12
12
12
12
12
12
12
12
12
12
12
12
12
12
12
12
12
12
12
12
12
12
12
12
12
12
12
12
12
12
12
12
12
12
12
12
12
12
12
12
12
12
12
12
12
12
12
12
12
12
12
12
12
12
12
12
12
12
12
12
12
12
12
12
12
12
12
12
12
12
12
12
12
12
12
12
12
12
12
12
12
12
12
12
12
12
12
12
12
12
12
12
12
12
12
12
12
12
12
12
12
12
12
12
12
12
12
12
12
12
12
12
12
12
12
12
12
12
12
12
12
12
12
12
12
12
12
12
12
12
12
12
12
12
12
12
12
12
12
12
12
12
12
12
12
12
12
12
12
12
12
12
12
12
12
12
12
12
12
12
12
12
12
12
12
12
12
12
12
12
12
12
12
12
12
12
12
12
12
12
12
12
12
12
12
12
12
12
12
12
12
12
12
12
12
12
12
12
12
12
12
12
12
12
12
12
12
12
12
12
12
12
12
12
12
12
12
12
12
12
12
12
12
12
12
12
12
12
12
12
12
12
12
12
12
12
12
12
12
12
12
12
12
12
12
12
12
12
12
12
12
12
12
12
12
12
12
12
12
12
12
12
12
12
12
12
12
12
12
12
12
12
12
12
12
12
12
12
12
12
12
12
12
12
12
12
12
12
12
12
12
12
12
12
12
12
12
12
12
12
12
12
12
12
12
12
12
12
12
12
12
12

POINT_DATA 3012
SCALARS Jp_lamdaP float 4
LOOKUP_TABLE default
1 1 1 1
1 1 1 1
1 1 1 1
1 1 1 1
1 1 1 1
1 1 1 1
0.999968 1 1 0.999968
1 1 1 1
1 1 1 1
1 1 1 1
1 1 1 1
0.999999 1 1 0.999999
1 1 1 1
1 1 1 1
1 1 1 1
1 1 1 1
1 1 1 1
1 1 1 1
0.999969 1 1 0.999969
1 1 1 1
1 1 1 1
1 1 1 1
0.999937 1 1 0.999937
0.99996 1 1 0.99996
1 1 1 1
0.999977 1 1 0.999977
0.99989 1 1 0.99989
1 1 1 1
1 1 1 1
1 1 1 1
1 1 1 1
0.999999 1 1 0.999999
1 1 1 1
1 1 1 1
0.999981 1 1 0.999981
1 1 1 1
0.999996 1 1 0.999996
1 1 1 1
0.999911 1 1 0.999911
1 1 1 1
1 1 1 1
1 1 1 1
1 1 1 1
1 1 1 1
0.999952 1 1 0.999952
1 1 1 1
0.999966 1 1 0.999966
1 1 1 1
1 1 1 1
1 1 1 1
0.999969 1 1 0.999969
1 1 1 1
1 1 1 1
1 1 1 1
1 1 1 1
0.999938 1 1 0.999938
0.999978 1 1 0.999978
0.99996 1 1 0.99996
0.999888 1 1 0.999888
1 1 1 1
1 1 1 1
0.999956 1 1 0.999956
0.999929 1 1 0.999929
0.999949 1 1 0.999949
0.999815 1 1 0.999815
0.999858 1 1 0.999858
1 1 1 1
0.999984 1 1 0.999984
0.999911 1 1 0.999911
0.999768 1 1 0.999768
1 1 1 1
1 1 1 1
1 1 1 1
0.999999 1 1 0.999999
1 1 1 1
1 1 1 1
0.999984 1 1 0.999984
1 1 1 1
0.999997 1 1 0.999997
1 1 1 1
0.999911 1 1 0.999911
1 1 1 1
1 1 1 1
0.999974 1 1 0.999974
0.99999 1 1 0.99999
0.999848 1 1 0.999848
1 1 1 1
0.9999 1 1 0.9999
0.999923 1 1 0.999923
0.999817 1 1 0.999817
1 1 1 1
1 1 1 1
1 1 1 1
1 1 1 1
1 1 1 1
1 1 1 1
0.999954 1 1 0.999954
1 1 1 1
0.999967 1 1 0.999967
1 1 1 1
0.999947 1 1 0.999947
0.99996 1 1 0.99996
0.999753 1 1 0.999753
0.99997 1 1 0.99997
0.999782 1 1 0.999782
1 1 1 1
1 1 1 1
1 1 1 1
1 1 1 1
0.999939 1 1 0.999939
0.999961 1 1 0.999961
0.999978 1 1 0.999978
0.999885 1 1 0.999885
1 1 1 1
1 1 1 1
0.99994 1 1 0.99994
0.99993 1 1 0.99993
1 1 1 1
0.999992 1 1 0.999992
0.99995 1 1 0.99995
0.999807 1 1 0.999807
0.999908 1 1 0.999908
0.999864 1 1 0.999864
0.999769 1 1 0.999769
0.999952 1 1 0.999952
0.999928 1 1 0.999928
0.99977 1 1 0.99977
0.999785 1 1 0.999785
0.999831 1 1 0.999831
0.9997 1 1 0.9997
1 1 1 1
0.999754 1 1 0.999754
1 1 1 1
0.999916 1 1 0.999916
0.999783 1 1 0.999783
0.999721 1 1 0.999721
1 1 1 1
0.99994 1 1 0.99994
1 1 1 1
1 1 1 1
0.999986 1 1 0.999986
1 1 1 1
1 1 1 1
0.999998 1 1 0.999998
0.999911 1 1 0.999911
1 1 1 1
1 1 1 1
0.999976 1 1 0.999976
0.999992 1 1 0.999992
0.999849 1 1 0.999849
1 1 1 1
0.9999 1 1 0.9999
0.999924 1 1 0.999924
0.999814 1 1 0.999814
1 1 1 1
1 1 1 1
0.999948 1 1 0.999948
0.99982 1 1 0.99982
0.999879 1 1 0.999879
0.999746 1 1 0.999746
0.999936 1 1 0.999936
0.999804 1 1 0.999804
0.999823 1 1 0.999823
0.999775 1 1 0.999775
1 1 1 1
1 1 1 1
1 1 1 1
1 1 1 1
1 1 1 1
1 1 1 1
1 1 1 1
0.999968 1 1 0.999968
0.999956 1 1 0.999956
1 1 1 1
1 1 1 1
0.999948 1 1 0.999948
0.999962 1 1 0.999962
0.999753 1 1 0.999753
0.999971 1 1 0.999971
0.999782 1 1 0.999782
0.999946 1 1 0.999946
0.999741 1 1 0.999741
0.999768 1 1 0.999768
0.999658 1 1 0.999658
0.999799 1 1 0.999799
0.999688 1 1 0.999688
1 1 1 1
1 1 1 1
0.999923 1 1 0.999923
0.99993 1 1 0.99993
1 1 1 1
1 1 1 1
0.999951 1 1 0.999951
0.9998 1 1 0.9998
0.999869 1 1 0.999869
0.999905 1 1 0.999905
0.999769 1 1 0.999769
0.99995 1 1 0.99995
0.999928 1 1 0.999928
0.999754 1 1 0.999754
0.99979 1 1 0.99979
1 1 1 1
1 1 1 1
0.999921 1 1 0.999921
0.999832 1 1 0.999832
0.999691 1 1 0.999691
0.999781 1 1 0.999781
0.999759 1 1 0.999759
0.999721 1 1 0.999721
1 1 1 1
0.99994 1 1 0.99994
0.999744 1 1 0.999744
0.999776 1 1 0.999776
0.999665 1 1 0.999665
0.999661 1 1 0.999661
0.999737 1 1 0.999737
0.999655 1 1 0.999655
1 1 1 1
0.999711 1 1 0.999711
0.999927 1 1 0.999927
0.999803 1 1 0.999803
0.999734 1 1 0.999734
0.999709 1 1 0.999709
0.999935 1 1 0.999935
0.999953 1 1 0.999953
0.999823 1 1 0.999823
0.999978 1 1 0.999978
1 1 1 1
1 1 1 1
0.999994 1 1 0.999994
0.999849 1 1 0.999849
1 1 1 1
0.999924 1 1 0.999924
0.999901 1 1 0.999901
0.999811 1 1 0.999811
1 1 1 1
1 1 1 1
0.999948 1 1 0.999948
0.99982 1 1 0.99982
0.999879 1 1 0.999879
0.999746 1 1 0.999746
0.999936 1 1 0.999936
0.999807 1 1 0.999807
0.999823 1 1 0.999823
0.999771 1 1 0.999771
1 1 1 1
0.999943 1 1 0.999943
0.999955 1 1 0.999955
0.999839 1 1 0.999839
0.99972 1 1 0.99972
0.999782 1 1 0.999782
0.999695 1 1 0.999695
0.999834 1 1 0.999834
0.999762 1 1 0.999762
0.999761 1 1 0.999761
0.99974 1 1 0.99974
0.999983 1 1 0.999983
1 1 1 1
1 1 1 1
1 1 1 1
1 1 1 1
1 1 1 1
1 1 1 1
1 1 1 1
1 1 1 1
0.999972 1 1 0.999972
0.999964 1 1 0.999964
0.999782 1 1 0.999782
0.999753 1 1 0.999753
0.999949 1 1 0.999949
1 1 1 1
0.999946 1 1 0.999946
0.999741 1 1 0.999741
0.999768 1 1 0.999768
0.999657 1 1 0.999657
0.999799 1 1 0.999799
0.999688 1 1 0.999688
0.999738 1 1 0.999738
0.999647 1 1 0.999647
0.999671 1 1 0.999671
0.999627 1 1 0.999627
0.999704 1 1 0.999704
0.999655 1 1 0.999655
0.999949 1 1 0.999949
0.999928 1 1 0.999928
0.999739 1 1 0.999739
0.999795 1 1 0.999795
1 1 1 1
1 1 1 1
0.999927 1 1 0.999927
0.999833 1 1 0.999833
0.999682 1 1 0.999682
0.999763 1 1 0.999763
0.999779 1 1 0.999779
0.999722 1 1 0.999722
1 1 1 1
0.999941 1 1 0.999941
0.999738 1 1 0.999738
0.999776 1 1 0.999776
0.999662 1 1 0.999662
0.99967 1 1 0.99967
1 1 1 1
0.999926 1 1 0.999926
0.999809 1 1 0.999809
0.999738 1 1 0.999738
0.999652 1 1 0.999652
0.999727 1 1 0.999727
0.999711 1 1 0.999711
0.999708 1 1 0.999708
0.999935 1 1 0.999935
0.99982 1 1 0.99982
0.999952 1 1 0.999952
0.999661 1 1 0.999661
0.999662 1 1 0.999662
0.999616 1 1 0.999616
0.999624 1 1 0.999624
0.999692 1 1 0.999692
0.999655 1 1 0.999655
0.999932 1 1 0.999932
0.999704 1 1 0.999704
0.999829 1 1 0.999829
0.999743 1 1 0.999743
0.999694 1 1 0.999694
0.999723 1 1 0.999723
0.999968 1 1 0.999968
0.999829 1 1 0.999829
0.999813 1 1 0.999813
0.999772 1 1 0.999772
0.99982 1 1 0.99982
1 1 1 1
1 1 1 1
0.999948 1 1 0.999948
0.99988 1 1 0.99988
0.999746 1 1 0.999746
0.999937 1 1 0.999937
0.999822 1 1 0.999822
0.999811 1 1 0.999811
0.999766 1 1 0.999766
1 1 1 1
0.999943 1 1 0.999943
0.999955 1 1 0.999955
0.999839 1 1 0.999839
0.99972 1 1 0.99972
0.999782 1 1 0.999782
0.999695 1 1 0.999695
0.999834 1 1 0.999834
0.999767 1 1 0.999767
0.99976 1 1 0.99976
0.999749 1 1 0.999749
1 1 1 1
0.999964 1 1 0.999964
0.999839 1 1 0.999839
0.999842 1 1 0.999842
0.999772 1 1 0.999772
0.999677 1 1 0.999677
0.999733 1 1 0.999733
0.999677 1 1 0.999677
0.999767 1 1 0.999767
0.999735 1 1 0.999735
0.9997 1 1 0.9997
0.999978 1 1 0.999978
0.999884 1 1 0.999884
0.999987 1 1 0.999987
0.999984 1 1 0.999984
1 1 1 1
1 1 1 1
1 1 1 1
1 1 1 1
1 1 1 1
1 1 1 1
1 1 1 1
1 1 1 1
1 1 1 1
1 1 1 1
1 1 1 1
0.999799 1 1 0.999799
0.999768 1 1 0.999768
0.999688 1 1 0.999688
0.999657 1 1 0.999657
0.999741 1 1 0.999741
0.999945 1 1 0.999945
0.999738 1 1 0.999738
0.999647 1 1 0.999647
0.999672 1 1 0.999672
0.999626 1 1 0.999626
0.999704 1 1 0.999704
0.999655 1 1 0.999655
0.999643 1 1 0.999643
0.999621 1 1 0.999621
0.999637 1 1 0.999637
0.99962 1 1 0.99962
0.999669 1 1 0.999669
0.999667 1 1 0.999667
0.999732 1 1 0.999732
0.999776 1 1 0.999776
0.99966 1 1 0.99966
0.99968 1 1 0.99968
1 1 1 1
0.999926 1 1 0.999926
0.999815 1 1 0.999815
0.999738 1 1 0.999738
0.99965 1 1 0.99965
0.999711 1 1 0.999711
0.99972 1 1 0.99972
0.999707 1 1 0.999707
0.999935 1 1 0.999935
0.999816 1 1 0.999816
0.999952 1 1 0.999952
0.999655 1 1 0.999655
0.999662 1 1 0.999662
0.999611 1 1 0.999611
0.999626 1 1 0.999626
0.999932 1 1 0.999932
0.999829 1 1 0.999829
0.999749 1 1 0.999749
0.999695 1 1 0.999695
0.999659 1 1 0.999659
0.999688 1 1 0.999688
0.999704 1 1 0.999704
0.999726 1 1 0.999726
0.99983 1 1 0.99983
0.999767 1 1 0.999767
0.999967 1 1 0.999967
0.999814 1 1 0.999814
0.99961 1 1 0.99961
0.99961 1 1 0.99961
0.999587 1 1 0.999587
0.99962 1 1 0.99962
0.999694 1 1 0.999694
0.999675 1 1 0.999675
0.999834 1 1 0.999834
0.999732 1 1 0.999732
0.99977 1 1 0.99977
0.999697 1 1 0.999697
0.99967 1 1 0.99967
0.999729 1 1 0.999729
0.999978 1 1 0.999978
0.999825 1 1 0.999825
0.999778 1 1 0.999778
0.99975 1 1 0.99975
0.999744 1 1 0.999744
1 1 1 1
0.999719 1 1 0.999719
0.999955 1 1 0.999955
0.999943 1 1 0.999943
0.999838 1 1 0.999838
0.999783 1 1 0.999783
0.999695 1 1 0.999695
0.999834 1 1 0.999834
0.999758 1 1 0.999758
0.999771 1 1 0.999771
0.999758 1 1 0.999758
1 1 1 1
0.999964 1 1 0.999964
0.999839 1 1 0.999839
0.999842 1 1 0.999842
0.99977 1 1 0.99977
0.999677 1 1 0.999677
0.999733 1 1 0.999733
0.999675 1 1 0.999675
0.999767 1 1 0.999767
0.999738 1 1 0.999738
0.999704 1 1 0.999704
0.999972 1 1 0.999972
0.999849 1 1 0.999849
0.999771 1 1 0.999771
0.99977 1 1 0.99977
0.999742 1 1 0.999742
0.999669 1 1 0.999669
0.999708 1 1 0.999708
0.999692 1 1 0.999692
0.99971 1 1 0.99971
0.99967 1 1 0.99967
0.99998 1 1 0.99998
0.999857 1 1 0.999857
0.999877 1 1 0.999877
0.999809 1 1 0.999809
0.999892 1 1 0.999892
0.99999 1 1 0.99999
0.999988 1 1 0.999988
1 1 1 1
0.999986 1 1 0.999986
1 1 1 1
1 1 1 1
1 1 1 1
1 1 1 1
1 1 1 1
1 1 1 1
1 1 1 1
1 1 1 1
1 1 1 1
1 1 1 1
1 1 1 1
0.999703 1 1 0.999703
0.999672 1 1 0.999672
0.999655 1 1 0.999655
0.999626 1 1 0.999626
0.999646 1 1 0.999646
0.999738 1 1 0.999738
0.999644 1 1 0.999644
0.99962 1 1 0.99962
0.999637 1 1 0.999637
0.999618 1 1 0.999618
0.999669 1 1 0.999669
0.999667 1 1 0.999667
0.999615 1 1 0.999615
0.999616 1 1 0.999616
0.999634 1 1 0.999634
0.999611 1 1 0.999611
0.999674 1 1 0.999674
0.999684 1 1 0.999684
0.999648 1 1 0.999648
0.999662 1 1 0.999662
0.999606 1 1 0.999606
0.999628 1 1 0.999628
0.999932 1 1 0.999932
0.999829 1 1 0.999829
0.999756 1 1 0.999756
0.999698 1 1 0.999698
0.999662 1 1 0.999662
0.999705 1 1 0.999705
0.999683 1 1 0.999683
0.99973 1 1 0.99973
0.99983 1 1 0.99983
0.999761 1 1 0.999761
0.999966 1 1 0.999966
0.999816 1 1 0.999816
0.999611 1 1 0.999611
0.999611 1 1 0.999611
0.999584 1 1 0.999584
0.999621 1 1 0.999621
0.999834 1 1 0.999834
0.999775 1 1 0.999775
0.999697 1 1 0.999697
0.999692 1 1 0.999692
0.999685 1 1 0.999685
0.999667 1 1 0.999667
0.999733 1 1 0.999733
0.999739 1 1 0.999739
0.999778 1 1 0.999778
0.999742 1 1 0.999742
0.999749 1 1 0.999749
0.999968 1 1 0.999968
0.999828 1 1 0.999828
0.999591 1 1 0.999591
0.999574 1 1 0.999574
0.99964 1 1 0.99964
0.999716 1 1 0.999716
0.999786 1 1 0.999786
0.999766 1 1 0.999766
0.99973 1 1 0.99973
0.999642 1 1 0.999642
0.999652 1 1 0.999652
0.999968 1 1 0.999968
0.999861 1 1 0.999861
0.999755 1 1 0.999755
0.999755 1 1 0.999755
0.999701 1 1 0.999701
0.99972 1 1 0.99972
1 1 1 1
0.999965 1 1 0.999965
0.999676 1 1 0.999676
0.999842 1 1 0.999842
0.999838 1 1 0.999838
0.999768 1 1 0.999768
0.999733 1 1 0.999733
0.999673 1 1 0.999673
0.999768 1 1 0.999768
0.999709 1 1 0.999709
0.999741 1 1 0.999741
0.999973 1 1 0.999973
0.999849 1 1 0.999849
0.999775 1 1 0.999775
0.99977 1 1 0.99977
0.999738 1 1 0.999738
0.999668 1 1 0.999668
0.999706 1 1 0.999706
0.999694 1 1 0.999694
0.999706 1 1 0.999706
0.999662 1 1 0.999662
0.999858 1 1 0.999858
0.999761 1 1 0.999761
0.999728 1 1 0.999728
0.999723 1 1 0.999723
0.999714 1 1 0.999714
0.999727 1 1 0.999727
0.999662 1 1 0.999662
0.999679 1 1 0.999679
0.999666 1 1 0.999666
0.999595 1 1 0.999595
0.999981 1 1 0.999981
0.999862 1 1 0.999862
0.999775 1 1 0.999775
0.99987 1 1 0.99987
0.999892 1 1 0.999892
0.999798 1 1 0.999798
0.999744 1 1 0.999744
0.999795 1 1 0.999795
0.999898 1 1 0.999898
0.999992 1 1 0.999992
0.999991 1 1 0.999991
1 1 1 1
0.999989 1 1 0.999989
1 1 1 1
1 1 1 1
1 1 1 1
1 1 1 1
1 1 1 1
1 1 1 1
1 1 1 1
1 1 1 1
1 1 1 1
1 1 1 1
1 1 1 1
0.999668 1 1 0.999668
0.999637 1 1 0.999637
0.999668 1 1 0.999668
0.999617 1 1 0.999617
0.999619 1 1 0.999619
0.999644 1 1 0.999644
0.999614 1 1 0.999614
0.999617 1 1 0.999617
0.999631 1 1 0.999631
0.999605 1 1 0.999605
0.999674 1 1 0.999674
0.999692 1 1 0.999692
0.999618 1 1 0.999618
0.999615 1 1 0.999615
0.999633 1 1 0.999633
0.99973 1 1 0.99973
0.999612 1 1 0.999612
0.999612 1 1 0.999612
0.999581 1 1 0.999581
0.999622 1 1 0.999622
0.999834 1 1 0.999834
0.99978 1 1 0.99978
0.999696 1 1 0.999696
0.999689 1 1 0.999689
0.999696 1 1 0.999696
0.999733 1 1 0.999733
0.999664 1 1 0.999664
0.999749 1 1 0.999749
0.999778 1 1 0.999778
0.999739 1 1 0.999739
0.999748 1 1 0.999748
0.999958 1 1 0.999958
0.99983 1 1 0.99983
0.999588 1 1 0.999588
0.999579 1 1 0.999579
0.999644 1 1 0.999644
0.999785 1 1 0.999785
0.999737 1 1 0.999737
0.999641 1 1 0.999641
0.999711 1 1 0.999711
0.999666 1 1 0.999666
0.999763 1 1 0.999763
0.999968 1 1 0.999968
0.999754 1 1 0.999754
0.999725 1 1 0.999725
0.999703 1 1 0.999703
0.999758 1 1 0.999758
0.999853 1 1 0.999853
0.999582 1 1 0.999582
0.999573 1 1 0.999573
0.999679 1 1 0.999679
0.999761 1 1 0.999761
0.999755 1 1 0.999755
0.999702 1 1 0.999702
0.999668 1 1 0.999668
0.9996 1 1 0.9996
0.999976 1 1 0.999976
0.999879 1 1 0.999879
0.999778 1 1 0.999778
0.999682 1 1 0.999682
0.999726 1 1 0.999726
0.999683 1 1 0.999683
0.999974 1 1 0.999974
0.999848 1 1 0.999848
0.999667 1 1 0.999667
0.999769 1 1 0.999769
0.999779 1 1 0.999779
0.999734 1 1 0.999734
0.999704 1 1 0.999704
0.999696 1 1 0.999696
0.999703 1 1 0.999703
0.999655 1 1 0.999655
0.999858 1 1 0.999858
0.999764 1 1 0.999764
0.999734 1 1 0.999734
0.999727 1 1 0.999727
0.999717 1 1 0.999717
0.999732 1 1 0.999732
0.999665 1 1 0.999665
0.999696 1 1 0.999696
0.999661 1 1 0.999661
0.999589 1 1 0.999589
0.999765 1 1 0.999765
0.999702 1 1 0.999702
0.999687 1 1 0.999687
0.999689 1 1 0.999689
0.999736 1 1 0.999736
0.999729 1 1 0.999729
0.999592 1 1 0.999592
0.999909 1 1.00034 0.999567
0.999868 1 1 0.999868
0.999781 1 1 0.999781
0.999728 1 1 0.999728
0.999892 1 1 0.999892
0.999788 1 1 0.999788
0.999898 1 1 0.999898
0.999736 1 1 0.999736
0.999799 1 1 0.999799
0.999695 1 1 0.999695
0.999732 1 1 0.999732
0.9998 1 1 0.9998
0.999902 1 1 0.999902
0.999993 1 1 0.999993
0.999992 1 1 0.999992
1 1 1 1
0.999991 1 1 0.999991
1 1 1 1
1 1 1 1
1 1 1 1
1 1 1 1
1 1 1 1
1 1 1 1
1 1 1 1
1 1 1 1
1 1 1 1
1 1 1 1
1 1 1 1
0.999674 1 1 0.999674
0.999628 1 1 0.999628
0.999701 1 1 0.999701
0.999599 1 1 0.999599
0.999617 1 1 0.999617
0.999614 1 1 0.999614
0.999615 1 1 0.999615
0.999614 1 1 0.999614
0.999638 1 1 0.999638
0.999727 1 1 0.999727
0.999617 1 1 0.999617
0.999627 1 1 0.999627
0.999686 1 1 0.999686
0.999585 1 1 0.999585
0.999584 1 1 0.999584
0.999648 1 1 0.999648
0.999785 1 1 0.999785
0.999744 1 1 0.999744
0.999639 1 1 0.999639
0.999707 1 1 0.999707
0.999761 1 1 0.999761
0.999679 1 1 0.999679
0.999754 1 1 0.999754
0.999729 1 1 0.999729
0.999705 1 1 0.999705
0.999969 1 1 0.999969
0.999761 1 1 0.999761
0.999845 1 1 0.999845
0.999588 1 1 0.999588
0.999571 1 1 0.999571
0.999671 1 1 0.999671
0.999754 1 1 0.999754
0.999677 1 1 0.999677
0.999605 1 1 0.999605
0.999767 1 1 0.999767
0.999701 1 1 0.999701
0.999984 1 1 0.999984
0.99988 1 1 0.99988
0.999725 1 1 0.999725
0.999685 1 1 0.999685
0.999687 1 1 0.999687
0.999772 1 1 0.999772
0.999602 1 1 0.999602
0.999588 1 1 0.999588
0.99971 1 0.999949 0.999761
0.999776 1 1 0.999776
0.999711 1 1 0.999711
0.999975 1 1.00039 0.999589
0.99962 1 1 0.99962
0.999997 1 1 0.999997
0.999921 1 1 0.999921
0.999884 1 1 0.999884
0.99978 1 1 0.99978
0.999699 1 1 0.999699
0.999642 1 1 0.999642
0.999703 1 1 0.999703
0.999656 1 1 0.999656
0.999858 1 1 0.999858
0.999767 1 1 0.999767
0.999736 1 1 0.999736
0.999732 1 1 0.999732
0.999739 1 1 0.999739
0.999721 1 1 0.999721
0.999667 1 1 0.999667
0.999714 1 1 0.999714
0.999657 1 1 0.999657
0.999582 1 1 0.999582
0.999764 1 1 0.999764
0.999708 1 1 0.999708
0.999693 1 1 0.999693
0.999693 1 1 0.999693
0.999738 1 1 0.999738
0.999725 1 1 0.999725
0.9996 1 1 0.9996
0.999739 1 1.00017 0.999564
0.999716 1 1 0.999716
0.999687 1 1 0.999687
0.999669 1 1 0.999669
0.99964 1 1 0.99964
0.999726 1 0.999973 0.999753
0.999575 1 1 0.999575
1.00008 1 1.00055 0.999524
0.999786 1 1 0.999786
0.999728 1 1 0.999728
0.999686 1 1 0.999686
0.999898 1 1 0.999898
0.999803 1 1 0.999803
0.999729 1 1 0.999729
0.999902 1 1 0.999902
0.9998 1 1 0.9998
0.999689 1 1 0.999689
0.999741 1 1 0.999741
0.99966 1 1 0.99966
0.999683 1 1 0.999683
0.999746 1 1 0.999746
0.99981 1 1 0.99981
0.999902 1 1 0.999902
0.999992 1 1 0.999992
0.999993 1 1 0.999993
1 1 1 1
0.999993 1 1 0.999993
1 1 1 1
1 1 1 1
1 1 1 1
1 1 1 1
1 1 1 1
0.999999 1 1 0.999999
1 1 1 1
1 1 1 1
1 1 1 1
1 1 1 1
1 1 1 1
1 1 1 1
0.999724 1 1 0.999724
0.999643 1 1 0.999643
0.999614 1 1 0.999614
0.999612 1 1 0.999612
0.999622 1 1 0.999622
0.999622 1 1 0.999622
0.999698 1 1 0.999698
0.999632 1 1 0.999632
0.999642 1 1 0.999642
0.999722 1 1 0.999722
0.999594 1 1 0.999594
0.999569 1 1 0.999569
0.999664 1 1 0.999664
0.999753 1 1 0.999753
0.999685 1 1 0.999685
0.99961 1 1 0.99961
0.999772 1 1 0.999772
0.999699 1 1 0.999699
0.999725 1 1 0.999725
0.999687 1 1 0.999687
0.999692 1 1 0.999692
0.999991 1 1 0.999991
0.99988 1 1 0.99988
0.999766 1 1 0.999766
0.9996 1 1 0.9996
0.999996 1 1 0.999996
0.999915 1 1 0.999915
0.99959 1 1 0.99959
0.999746 1 1 0.999746
0.999715 1 1 0.999715
0.999625 1 1.00001 0.999612
0.999731 1 1.00014 0.999592
0.999773 1 1 0.999773
0.999899 1 1 0.999899
0.99978 1 1 0.99978
0.999704 1 1 0.999704
0.999664 1 1 0.999664
0.999634 1 1 0.999634
0.9997 1 1 0.9997
0.99959 1 1 0.99959
0.999666 1 1 0.999666
0.999453 1 0.999607 0.999846
0.999659 1 1 0.999659
0.999679 1 1 0.999679
1.00064 1 1.00109 0.999551
0.99992 1 1 0.99992
0.999911 1 1 0.999911
0.999845 1 1 0.999845
0.999784 1 1 0.999784
0.999716 1 1 0.999716
0.999635 1 1 0.999635
0.999596 1 1 0.999596
0.999664 1 1 0.999664
0.999762 1 1 0.999762
0.999714 1 1 0.999714
0.99974 1 1 0.99974
0.999721 1 1 0.999721
0.999697 1 1 0.999697
0.999698 1 1 0.999698
0.999609 1 1 0.999609
0.999611 1 1.00005 0.999562
0.999716 1 1 0.999716
0.999704 1 1 0.999704
0.999668 1 1 0.999668
0.999661 1 1.00003 0.99963
0.999749 1 1 0.999749
0.999577 1 1 0.999577
1.00003 1 1.00051 0.999521
0.999672 1 1 0.999672
1.00036 1.00112 0.999532 0.999717
0.999639 1 1 0.999639
0.999998 1 1.00044 0.999558
0.999559 1 0.999981 0.999578
1.00052 1 1.00104 0.999488
0.992961 1.00527 0.988238 0.999509
0.999729 1 1 0.999729
0.999686 1 1 0.999686
0.999657 1 1 0.999657
0.999902 1 1 0.999902
0.9998 1 1 0.9998
0.999749 1 1 0.999749
0.999684 1 1 0.999684
0.999902 1 1 0.999902
0.999805 1 1 0.999805
0.999658 1 1 0.999658
0.999746 1 1 0.999746
0.99969 1 1 0.99969
0.999639 1 1 0.999639
0.999697 1 1 0.999697
0.999749 1 1 0.999749
0.999796 1 1 0.999796
0.999886 1 1 0.999886
0.999818 1 1 0.999818
0.999885 1 1 0.999885
0.999992 1 1 0.999992
0.999992 1 1 0.999992
1 1 1 1
0.999992 1 1 0.999992
1 1 1 1
1 1 1 1
1 1 1 1
1 1 1 1
1 1 1 1
1 1 1 1
0.999999 1 1 0.999999
1 1 1 1
1 1 1 1
1 1 1 1
1 1 1 1
1 1 1 1
1 1 1 1
0.999711 1 1 0.999711
0.999616 1 1 0.999616
0.999627 1 1 0.999627
0.999632 1 1 0.999632
0.999647 1 1 0.999647
0.99973 1 1 0.99973
0.999658 1 1 0.999658
0.996997 1.00191 0.995308 0.99979
0.999594 1.00007 0.999705 0.999821
0.999939 1 1 0.999939
0.999597 1 1 0.999597
0.999592 1 1 0.999592
0.999731 1 1 0.999731
0.999719 1 1 0.999719
0.999603 1 1 0.999603
0.999596 1 1 0.999596
0.99977 1 1 0.99977
0.999706 1 1 0.999706
0.999673 1 1 0.999673
0.999625 1 1 0.999625
0.999994 1 1 0.999994
0.999702 1 1 0.999702
0.999914 1 1 0.999914
0.999779 1 1 0.999779
0.99991 1 1 0.99991
0.999583 1 1 0.999583
0.999926 1 1 0.999926
0.999911 1 1 0.999911
0.999833 1 1 0.999833
0.999668 1 1 0.999668
0.99934 1 0.999515 0.999825
0.999682 1 1 0.999682
1.00044 1 1.0009 0.999547
0.999663 1 1 0.999663
0.999793 1 1 0.999793
0.999713 1 1 0.999713
0.999662 1 1 0.999662
0.999638 1 1.00003 0.999604
0.999641 1 1 0.999641
0.999616 1 1.00004 0.999572
0.997225 1 0.997433 0.999792
0.999464 1 0.999737 0.999728
1.00025 1 1.00069 0.999563
1.00042 1 1.00079 0.99963
0.999834 1 1 0.999834
0.999805 1 1 0.999805
0.999769 1 1 0.999769
0.999717 1 1 0.999717
0.999662 1 1 0.999662
0.999596 1 1 0.999596
1.00118 1 1.0016 0.999581
0.999716 1 1 0.999716
0.999668 1 1 0.999668
0.999722 1 1 0.999722
0.999744 1 1 0.999744
0.999578 1 1 0.999578
0.999634 1 1.00001 0.999621
0.999914 1 1.0004 0.999518
0.999675 1 1 0.999675
1.0005 1.00117 0.999606 0.999726
0.999639 1 1 0.999639
0.999865 1 1.00031 0.999557
0.999599 1.00009 0.999915 0.999592
1.00114 1 1.00165 0.999485
0.997005 1.00785 0.989691 0.999545
0.999644 1 1 0.999644
1.00093 1.00164 0.999741 0.999546
0.999608 1 1 0.999608
1.00247 1 1.00296 0.999509
1.00039 1 1.00091 0.999478
0.962087 0.963823 1.00004 0.998159
0.992541 1.00115 0.991889 0.999505
0.985311 1.00872 0.977277 0.999505
0.953315 0.96233 0.99097 0.999659
0.961903 0.985644 0.976061 0.999849
0.999686 1 1 0.999686
0.999657 1 1 0.999657
0.999628 1 1 0.999628
0.999902 1 1 0.999902
0.9998 1 1 0.9998
0.999746 1 1 0.999746
0.999696 1 1 0.999696
0.999657 1 1 0.999657
0.99974 1 1 0.99974
0.999893 1 1 0.999893
0.999802 1 1 0.999802
0.999644 1 1 0.999644
0.999694 1 1 0.999694
0.999701 1 1 0.999701
0.999645 1 1 0.999645
0.999725 1 1 0.999725
0.999795 1 1 0.999795
0.999885 1 1 0.999885
0.999811 1 1 0.999811
0.999746 1 1 0.999746
0.999797 1 1 0.999797
0.999807 1 1 0.999807
0.999895 1 1 0.999895
0.999885 1 1 0.999885
0.999991 1 1 0.999991
0.999991 1 1 0.999991
1 1 1 1
0.999992 1 1 0.999992
1 1 1 1
1 1 1 1
1 1 1 1
1 1 1 1
1 1 1 1
1 1 1 1
1 1 1 1
1 1 1 1
0.999998 1 1 0.999998
1 1 1 1
1 1 1 1
1 1 1 1
1 1 1 1
1 1 1 1
0.999652 1 1 0.999652
0.999633 1 1 0.999633
0.999737 1 1 0.999737
0.996457 1.00142 0.995255 0.999788
0.999655 1 1 0.999655
0.999671 1.00002 0.999863 0.999788
0.999643 1 1.00004 0.999605
0.981123 0.984914 0.99692 0.999229
0.999632 1.00004 0.999727 0.999864
0.999944 1 1 0.999944
0.999939 1 1 0.999939
0.999856 1 1 0.999856
0.999867 1 1 0.999867
0.999575 1 1 0.999575
0.99967 1 1 0.99967
0.999311 1 0.999506 0.999804
0.999684 1 1 0.999684
1.00014 1 1.00059 0.999544
0.999666 1 1 0.999666
0.999659 1 1 0.999659
0.999665 1 1.00005 0.999612
0.999646 1 1 0.999646
0.99991 1 1 0.99991
0.99971 1 1 0.99971
0.999801 1 1 0.999801
0.999933 1 1 0.999933
0.999821 1 1 0.999821
0.999618 1 1.00003 0.999583
0.999846 1 1 0.999846
0.999812 1 1 0.999812
0.99977 1 1 0.99977
0.99813 1.00001 0.998331 0.999792
0.999286 1 0.999557 0.999729
1.00041 1 1.00078 0.999629
1.00026 1 1.00069 0.999565
0.999719 1 1 0.999719
0.999665 1 1 0.999665
1.00057 1 1.00099 0.999582
0.999619 1 1.00003 0.999593
0.999618 1 0.999976 0.999642
0.997921 1.00041 0.997745 0.999769
0.999709 1 1.00017 0.999541
1.00046 1 1.00088 0.999576
0.999747 1 1 0.999747
0.999732 1 1 0.999732
0.999631 1 1 0.999631
1.0016 1 1.00207 0.999531
0.960034 0.963719 0.998058 0.998115
0.999679 1 1 0.999679
0.999639 1 1 0.999639
1.00064 1.00115 0.999757 0.999735
0.999776 1.00017 1 0.999607
1.00182 1 1.00234 0.999483
0.99982 1 1.00026 0.999556
1.00107 1.01024 0.991338 0.999581
0.999647 1 1 0.999647
1.00135 1.00238 0.999434 0.999544
0.999609 1 1 0.999609
1.00207 1 1.00256 0.999511
1.0001 1 1.00062 0.999488
0.962933 0.964303 1.00025 0.998333
0.988632 0.997886 0.991628 0.99909
0.989189 1.01038 0.979502 0.999514
0.957369 0.964839 0.992811 0.999443
0.960531 0.982519 0.977763 0.999854
0.999635 1 1 0.999635
0.963853 0.967295 0.997243 0.999197
0.975432 0.987524 0.987863 0.999891
0.993308 1.00037 0.993436 0.999505
1.00131 1 1.00172 0.999591
1.00782 1 1.00832 0.99951
1.00138 1.01017 0.991847 0.999453
0.973871 0.971801 1.00409 0.998045
0.992076 1.00571 0.987383 0.999049
0.953712 0.966513 0.987147 0.999603
0.991064 1.00632 0.984934 0.999901
0.999658 1 1 0.999658
0.999629 1 1 0.999629
0.999602 1 1 0.999602
0.999899 1 1 0.999899
0.999808 1 1 0.999808
0.999732 1 1 0.999732
0.999692 1 1 0.999692
0.999648 1 1 0.999648
0.999885 1 1 0.999885
0.999699 1 1 0.999699
0.999734 1 1 0.999734
0.999801 1 1 0.999801
0.999638 1 1 0.999638
0.999672 1 1 0.999672
0.9998 1 1.0002 0.999603
0.999728 1 1 0.999728
0.999808 1 1 0.999808
0.999811 1 1 0.999811
0.999737 1 1 0.999737
0.999738 1 1 0.999738
0.999727 1 1 0.999727
0.999692 1 1 0.999692
0.999703 1 1 0.999703
0.999784 1 1 0.999784
0.999797 1 1 0.999797
0.999888 1 1 0.999888
0.999795 1 1 0.999795
0.999888 1 1 0.999888
0.99999 1 1 0.99999
0.999885 1 1 0.999885
0.999991 1 1 0.999991
1 1 1 1
0.999991 1 1 0.999991
1 1 1 1
1 1 1 1
1 1 1 1
1 1 1 1
1 1 1 1
0.999941 1 1 0.999941
1 1 1 1
1 1 1 1
1 1 1 1
1 1 1 1
1 1 1 1
1 1 1 1
1 1 1 1
1 1 1 1
1 1 1 1
0.995952 1.00133 0.994841 0.999786
0.999652 1 1 0.999652
0.999754 1 1 0.999754
0.981345 0.98446 0.997355 0.999479
0.99978 1.00003 0.999883 0.999863
0.999622 1 1.00003 0.999589
1.00121 1 1.00159 0.999613
0.987459 0.986526 1.00163 0.99932
0.96497 0.967083 1.00011 0.997702
0.951225 0.96203 0.989602 0.999157
0.962552 0.980481 0.981847 0.999865
0.999854 1 1 0.999854
0.999943 1 1 0.999943
0.999939 1 1 0.999939
0.999853 1 1 0.999853
0.999798 1 1 0.999798
0.999813 1 1 0.999813
0.999858 1 1 0.999858
0.999862 1 1 0.999862
0.99962 1 1.00003 0.999594
0.99894 1 0.999147 0.999793
0.999075 1 0.999345 0.99973
1.00042 1 1.0008 0.999628
1.00029 1 1.00072 0.999568
1.00003 1 1.00045 0.999583
0.999659 1 1.00007 0.99959
0.999669 1 1 0.999669
0.99982 1 1 0.99982
0.999722 1 1 0.999722
0.999857 1 1 0.999857
0.999771 1 1 0.999771
0.999099 1 0.999466 0.999633
0.999751 1 1 0.999751
0.999735 1 1 0.999735
0.997252 1.00016 0.997323 0.999768
0.999599 1 1.00004 0.999554
1.00091 1 1.00135 0.999562
0.99963 1 1 0.99963
1.00162 1 1.00208 0.999533
0.990779 1.00499 0.986214 0.999638
1.00205 1.00032 1.00215 0.999573
0.99963 1 1.00012 0.99951
1.0046 1 1.0051 0.999503
0.999698 1 1 0.999698
0.999659 1 1 0.999659
1.0001 1 1.00054 0.999556
0.963454 0.969914 0.993805 0.999531
0.963708 0.965575 0.99988 0.998186
0.999649 1 1 0.999649
0.999611 1 1 0.999611
1.00185 1.00332 0.998997 0.999542
0.999763 1 1.00026 0.999499
1.00157 1 1.00206 0.999514
0.962599 0.964993 0.999863 0.997656
0.990476 0.998094 0.992763 0.999601
0.993416 1.01248 0.98164 0.999522
0.953317 0.963797 0.989921 0.999198
0.95897 0.97948 0.979198 0.99986
0.999634 1 1 0.999634
0.961462 0.968862 0.992781 0.999579
0.97659 0.986304 0.990247 0.999902
0.994345 1.00044 0.994406 0.999501
1.00045 1 1.00086 0.999594
1.00707 1 1.00755 0.999521
0.997569 1.0076 0.990602 0.999435
0.974553 0.973156 1.00361 0.99783
0.987184 1.0011 0.986588 0.999504
0.953409 0.966592 0.987194 0.999157
0.986064 1.00504 0.98122 0.999896
0.99961 1 1 0.99961
0.992393 0.994125 0.998322 0.999936
1.01054 1.01238 0.998236 0.999942
1.00822 1 1.00871 0.999519
1.00573 1 1.00608 0.999652
1.00433 1.00361 1.00103 0.999692
0.990735 0.999822 0.991121 0.999789
0.978205 0.97549 1.00485 0.997942
0.967078 0.983219 0.984434 0.999137
1.00344 1.01442 0.989251 0.999918
0.99963 1 1 0.99963
0.9996 1 1 0.9996
1.00001 1 1.00042 0.999586
0.999885 1 1 0.999885
0.999808 1 1 0.999808
0.999743 1 1 0.999743
0.999697 1 1 0.999697
0.999631 1 1 0.999631
0.999808 1 1 0.999808
0.999678 1 1 0.999678
0.999728 1 1 0.999728
0.999842 1 1.00024 0.999597
1.00012 1 1.00055 0.999568
0.999736 1 1.00009 0.999649
0.999733 1 1 0.999733
0.999811 1 1 0.999811
0.999728 1 1 0.999728
0.999738 1 1 0.999738
0.999727 1 1 0.999727
0.999691 1 1 0.999691
0.999711 1 1 0.999711
0.999684 1 1 0.999684
0.999665 1 1 0.999665
0.999674 1 1 0.999674
0.999709 1 1 0.999709
0.99971 1 1 0.99971
0.999704 1 1 0.999704
0.999772 1 1 0.999772
0.999783 1 1 0.999783
0.999878 1 1 0.999878
0.999797 1 1 0.999797
0.999888 1 1 0.999888
0.999988 1 1 0.999988
0.999882 1 1 0.999882
0.999989 1 1 0.999989
1 1 1 1
0.99999 1 1 0.99999
1 1 1 1
1 1 1 1
1 1 1 1
1 1 1 1
1 1 1 1
0.999946 1 1 0.999946
1 1 1 1
0.999941 1 1 0.999941
1 1 1 1
1 1 1 1
1 1 1 1
1 1 1 1
1 1 1 1
1 1 1 1
1 1 1 1
1 1 1 1
0.958743 0.96618 0.992673 0.999627
0.97985 0.988949 0.990871 0.999928
0.982711 0.98512 0.99786 0.999694
0.999846 1 0.999984 0.999862
0.999601 1 1.00003 0.999572
0.986759 0.985026 1.00196 0.999805
1.00043 1.00001 1.0008 0.999624
0.96885 0.96931 1.00136 0.998171
0.955346 0.963322 0.99207 0.999649
0.960895 0.980136 0.980495 0.999872
0.999929 0.995519 1.00465 0.999781
0.97366 0.972805 1.00275 0.998136
0.952986 0.965345 0.987571 0.999622
0.983491 1.00328 0.980385 0.999884
0.999778 1 1 0.999778
0.999859 1 1 0.999859
0.999943 1 1 0.999943
0.999849 1 1 0.999849
0.999804 1 1 0.999804
0.999792 1 1 0.999792
0.999816 1 1 0.999816
0.99983 1 1 0.99983
0.999851 1 1 0.999851
0.999857 1 1 0.999857
0.998649 1 0.999025 0.999624
0.996853 1.00001 0.997074 0.999766
0.999566 1 1 0.999566
1.0013 1 1.00175 0.999548
1.00151 1 1.00198 0.999536
0.999629 1 1 0.999629
0.999737 1 1 0.999737
0.999755 1 1 0.999755
0.993029 1.00375 0.989697 0.999616
0.999695 1 1 0.999695
0.999652 1 1 0.999652
1.00034 1.0002 1.00056 0.999571
1.00013 1 1.00062 0.999512
1.00365 1 1.00416 0.999494
1.00067 1 1.00112 0.999548
0.985164 1.01247 0.973527 0.999493
1.00817 1 1.00867 0.999503
1.00424 1 1.00476 0.999487
0.999693 1 1 0.999693
0.999643 1 1 0.999643
0.999584 1 1 0.999584
0.992466 0.995183 0.997381 0.999889
0.963922 0.969187 0.995412 0.999151
0.961745 0.965399 0.998115 0.998096
0.999634 1 1 0.999634
0.999614 1 1.00002 0.999596
0.995602 1.00044 0.995664 0.999498
1.0065 1 1.00697 0.999533
0.958105 0.967051 0.991593 0.999149
0.972159 0.97207 1.00156 0.998535
0.988597 1.00232 0.987204 0.999097
0.994654 1.00518 0.990101 0.999422
0.954096 0.96592 0.988107 0.999647
0.979094 0.988373 0.990726 0.999885
0.983128 1.00161 0.981659 0.999884
0.999608 1 1 0.999608
0.989493 0.993032 0.996519 0.999916
1.01137 1.01334 0.998114 0.999941
1.00775 1 1.00823 0.999521
1.00602 1 1.00636 0.999653
1.00745 1.00315 1.00492 0.999367
0.988715 0.999904 0.989623 0.999179
0.977477 0.976873 1.00271 0.997909
0.97252 0.984322 0.988324 0.999683
0.999774 1.01263 0.9874 0.999903
0.999675 1 1 0.999675
1.01048 1.01073 0.999791 0.999965
1.00937 1.01129 0.998131 0.99997
1.0073 1 1.00751 0.999792
0.997378 0.994785 1.00269 0.999914
0.98663 0.983612 1.00501 0.998064
0.984201 0.998666 0.985847 0.999664
1.00044 1.01567 0.985113 0.999892
0.999597 1 1 0.999597
0.999949 1 1.00036 0.999594
1.0009 1 1.0013 0.999602
0.999808 1 1 0.999808
0.999729 1 1 0.999729
0.999683 1 1 0.999683
0.999873 1 1.00028 0.999592
0.999732 1 1 0.999732
0.999681 1 1.00003 0.99965
1.0005 1 1.00093 0.999566
1.00044 1 1.00086 0.999585
0.999792 1 1.00021 0.999579
0.999673 1 1 0.999673
0.999737 1 1 0.999737
0.999727 1 1 0.999727
0.99969 1 1 0.99969
0.999686 1 1 0.999686
0.999712 1 1 0.999712
0.999668 1 1 0.999668
0.999656 1 1 0.999656
0.999643 1 1 0.999643
0.999651 1 1 0.999651
0.999674 1 1 0.999674
0.999683 1 1 0.999683
0.99969 1 1 0.99969
0.999751 1 1 0.999751
0.999725 1 1 0.999725
0.999715 1 1 0.999715
0.999762 1 1 0.999762
0.999704 1 1 0.999704
0.999772 1 1 0.999772
0.999865 1 1 0.999865
0.999783 1 1 0.999783
0.999877 1 1 0.999877
0.999985 1 1 0.999985
0.999888 1 1 0.999888
0.999987 1 1 0.999987
1 1 1 1
0.999989 1 1 0.999989
1 1 1 1
1 1 1 1
1 1 1 1
1 1 1 1
1 1 1 1
0.99992 1 1 0.99992
1 1 1 1
0.999935 1 1 0.999935
1 1 1 1
1 1 1 1
0.999941 1 1 0.999941
1 1 1 1
1 1 1 1
1 1 1 1
1 1 1 1
1 1 1 1
1 1 1 1
0.992354 0.994278 0.998123 0.999943
0.96074 0.967183 0.993944 0.999391
1.0086 1.01226 0.996431 0.999951
0.976881 0.985614 0.991218 0.999921
0.983522 0.983685 1.00054 0.999296
0.999728 1.00005 1.00004 0.999635
0.969356 0.969125 1.00158 0.998663
0.953447 0.963588 0.99029 0.999177
0.959752 0.980333 0.979126 0.999878
0.997027 0.997058 1.00037 0.999603
0.973139 0.970836 1.00432 0.998056
0.955322 0.968281 0.987444 0.999162
0.981544 1.00299 0.978728 0.99989
0.996361 1.00424 0.992388 0.999768
0.975083 0.972392 1.00482 0.997954
0.970814 0.986313 0.984613 0.999668
0.998197 1.01589 0.982666 0.999916
0.999736 1 1 0.999736
0.999786 1 1 0.999786
0.999864 1 1 0.999864
0.999809 1 1 0.999809
0.999753 1 1 0.999753
0.999797 1 1 0.999797
0.999818 1 1 0.999818
0.999821 1 1 0.999821
0.999836 1 1 0.999836
0.999844 1 1 0.999844
0.995519 1.00276 0.993186 0.999594
0.998479 1 0.998908 0.99957
1.00052 1 1.00101 0.999513
1.00297 1 1.00349 0.999485
1.0013 1 1.00176 0.99954
0.999644 1 1 0.999644
0.999692 1 1 0.999692
0.999694 1 1 0.999694
0.987433 1.01003 0.978122 0.999493
0.999647 1 1 0.999647
0.999671 1 1.00009 0.999581
1.00761 1 1.00812 0.999496
1.0041 1 1.00462 0.999487
0.987513 1.01062 0.977642 0.999483
1.01747 1 1.01794 0.999541
1.00031 1 1.00078 0.999532
0.999654 1 1 0.999654
0.99959 1 1 0.99959
1.00959 1.00985 0.999768 0.999974
0.992947 0.994967 0.998052 0.999918
0.964256 0.969984 0.994498 0.999594
0.999606 1 1 0.999606
1.00612 1 1.00647 0.999654
1.00688 1 1.00736 0.999523
0.992985 0.994677 0.998361 0.999938
0.977294 0.974925 1.00457 0.997871
0.986924 0.999004 0.98816 0.999745
1.00868 1.002 1.00765 0.999024
0.966033 0.981408 0.985175 0.999146
1.01242 1.01452 0.997988 0.99994
1.00187 1.01291 0.989199 0.9999
0.999683 1 1 0.999683
1.01172 1.01183 0.999921 0.999965
1.01045 1.01256 0.997947 0.999971
1.00752 0.999985 1.00784 0.9997
0.996664 0.996225 1.00072 0.999724
0.988727 0.985723 1.00511 0.997951
1.00327 1.01619 0.98737 0.99991
0.982572 0.995115 0.987938 0.999451
0.999743 1 1 0.999743
1.00319 1.00366 0.999534 0.999994
1.00742 1.00929 0.998172 0.999982
1.00115 1.01483 0.986601 0.999915
1.00575 0.996571 1.0093 0.999909
0.982896 0.982433 1.00226 0.998218
0.979528 0.996269 0.983629 0.99956
0.999869 1 1.00027 0.999601
1.00068 1 1.00109 0.999586
1.0032 1 1.00355 0.999646
0.999732 1 1 0.999732
0.999651 1 1 0.999651
1.00094 1 1.00138 0.999564
0.999675 1 1 0.999675
0.999904 1 1.00033 0.999579
1.00084 1 1.00126 0.999572
0.999952 1 1.00035 0.999598
0.99961 1 1 0.99961
0.999687 1 1 0.999687
0.999712 1 1 0.999712
0.99967 1 1 0.99967
0.999644 1 1 0.999644
0.999656 1 1 0.999656
0.999632 1 1 0.999632
0.999668 1 1 0.999668
0.999794 1 1.00019 0.999603
0.999674 1 1 0.999674
0.999683 1 1 0.999683
0.999634 1 1 0.999634
0.999704 1 1 0.999704
0.999755 1 1 0.999755
0.999691 1 1 0.999691
0.999781 1 1 0.999781
0.999748 1 1 0.999748
0.999742 1 1 0.999742
0.99972 1 1 0.99972
0.999767 1 1 0.999767
0.999856 1 1 0.999856
0.999773 1 1 0.999773
0.999865 1 1 0.999865
0.99998 1 1 0.99998
0.999877 1 1 0.999877
0.999983 1 1 0.999983
1 1 1 1
0.999986 1 1 0.999986
1 1 1 1
1 1 1 1
1 1 1 1
1 1 1 1
1 1 1 1
0.999889 1 1 0.999889
0.999984 1 1 0.999984
0.99992 1 1 0.99992
1 1 1 1
0.999994 1 1 0.999994
0.999923 1 1 0.999923
1 1 1 1
1 1 1 1
1 1 1 1
1 1 1 1
1 1 1 1
1 1 1 1
1.00933 1.00954 0.999813 0.999971
0.988822 0.992848 0.996049 0.999895
0.962805 0.967372 0.996083 0.999193
0.999792 1 1 0.999792
1.01046 1.01158 0.998917 0.999976
1.01043 1.01307 0.997442 0.999951
0.974799 0.985171 0.989587 0.999884
0.994283 0.998177 0.99669 0.999407
0.975884 0.971501 1.00643 0.998093
0.959 0.970162 0.988843 0.999649
0.981102 1.00115 0.980094 0.999878
0.99487 1.00777 0.987928 0.999258
0.97654 0.973815 1.0048 0.998006
0.968805 0.985769 0.983355 0.999427
0.997643 1.01581 0.982215 0.999903
0.977908 1.00022 0.978478 0.999197
0.980488 0.978423 1.00459 0.997527
0.98003 0.994764 0.986004 0.999172
0.997297 1.01696 0.980783 0.99988
0.999692 1 1 0.999692
0.999731 1 1 0.999731
0.999793 1 1 0.999793
0.99974 1 1 0.99974
0.999761 1 1 0.999761
0.999802 1 1 0.999802
0.999824 1 1 0.999824
0.999843 1 1 0.999843
0.989536 1.00742 0.982747 0.999492
1.00695 1 1.00747 0.99949
0.999695 1 1 0.999695
1.00386 1 1.00438 0.999487
0.999744 1 1.00017 0.999577
0.999651 1 1 0.999651
0.999654 1 1 0.999654
0.988554 1.00979 0.979482 0.999482
0.999591 1 1 0.999591
1.00113 1 1.0016 0.999529
1.0176 1 1.01807 0.999536
0.999648 1 1 0.999648
1.00371 1.00289 1.00118 0.999641
1.01322 1 1.01363 0.999595
0.999577 1 1 0.999577
0.999606 1 1 0.999606
1.00226 1.00228 0.999978 0.999996
1.00891 1.00914 0.999794 0.999975
0.993195 0.994684 0.998555 0.999948
0.999691 1 1 0.999691
1.00792 0.999979 1.00833 0.999608
1.01293 1.01297 0.999995 0.999966
0.985129 0.979953 1.00733 0.997972
1.00059 1.00001 1.00134 0.999244
0.978189 0.99316 0.985674 0.999241
1.01113 1.01338 0.997814 0.999972
1.00666 1.01651 0.990386 0.999927
0.999733 1 1 0.999733
1.00276 1.00319 0.999579 0.999995
1.00613 1.00755 0.998606 0.999986
1.00378 0.996103 1.00776 0.999939
1.00029 1.01466 0.985933 0.999901
0.981517 0.985429 0.997651 0.998375
0.977314 0.994064 0.983991 0.999145
1.00547 0.998723 1.00696 0.999791
0.99933 0.999101 1.00023 1
1.01143 1.01183 0.999634 0.999974
0.985385 1.00284 0.982716 0.999881
0.980782 0.992568 0.988935 0.999182
0.997745 0.992867 1.00477 1.00014
0.97635 0.980251 0.997794 0.998224
1.00046 1 1.00089 0.99957
1.00231 1 1.00268 0.999636
1.01222 1 1.01262 0.999606
0.999677 1 1 0.999677
0.999944 1 1.00037 0.999578
1.0011 1 1.00154 0.999559
0.999611 1 1 0.999611
1.00003 1 1.00043 0.999595
1.00297 1 1.00337 0.999597
0.999644 1 1 0.999644
0.999655 1 1 0.999655
0.999807 1 1.00018 0.999629
1.0014 1 1.00182 0.999575
0.999686 1 1 0.999686
0.999726 1 1.00011 0.999613
0.999861 1 1.0003 0.999564
0.99963 1 1 0.99963
0.999682 1 1 0.999682
0.999627 1 1 0.999627
0.999733 1 1 0.999733
0.999754 1 1 0.999754
0.999711 1 1 0.999711
0.999793 1 1 0.999793
0.999754 1 1 0.999754
0.999692 1 1 0.999692
0.999854 1 1 0.999854
0.999778 1 1 0.999778
0.999744 1 1 0.999744
0.999771 1 1 0.999771
0.999856 1 1 0.999856
0.999975 1 1 0.999975
0.999865 1 1 0.999865
0.999979 1 1 0.999979
1 1 1 1
0.999982 1 1 0.999982
1 1 1 1
1 1 1 1
1 1 1 1
1 1 1 1
1 1 1 1
0.999872 1 1 0.999872
0.999975 1 1 0.999975
0.999895 1 1 0.999895
1 1 1 1
0.999983 1 1 0.999983
0.999919 1 1 0.999919
1 1 1 1
1 1 1 1
0.999987 1 1 0.999987
1 1 1 1
1 1 1 1
1 1 1 1
1.00379 1.00382 0.99998 0.999994
1.00911 1.00945 0.999688 0.999971
0.990639 0.993638 0.99709 0.999892
0.999795 1 1 0.999795
0.999775 1 1 0.999775
0.99974 1 1 0.99974
1.00588 1.00874 0.99718 0.999984
1.011 1.01233 0.99871 0.999977
1.01245 1.01391 0.998614 0.99995
0.998182 1.01157 0.987022 0.999743
0.976029 0.97254 1.00562 0.99798
0.966753 0.983835 0.983456 0.999168
0.999759 1.01674 0.983389 0.999909
0.976065 0.998163 0.978172 0.999683
0.984005 0.980104 1.00593 0.998063
0.982294 0.998913 0.98375 0.999606
0.99987 1.01724 0.983018 0.999903
0.974551 0.993554 0.98106 0.999811
0.98022 0.981087 1.00097 0.998148
0.98164 0.999269 0.982863 0.999487
0.997312 1.01343 0.984171 0.999921
0.999678 1 1 0.999678
0.999692 1 1 0.999692
0.999726 1 1 0.999726
0.999739 1 1 0.999739
0.999769 1 1 0.999769
0.999826 1 1 0.999826
0.989493 1.00883 0.981345 0.999481
1.01746 1 1.01794 0.999531
0.999655 1 1 0.999655
1.00184 1 1.00231 0.999526
0.999593 1 1 0.999593
0.999647 1 1 0.999647
0.999602 1 1 0.999602
1.00058 1.0039 0.997063 0.999633
0.999583 1 1 0.999583
1.01372 1 1.01412 0.999611
0.999608 1 1 0.999608
1.02047 0.999256 1.02147 0.999761
1.00012 1 1.00044 0.999684
0.999571 1 1 0.999571
0.99876 0.998657 1.0001 1
1.00139 1.00143 0.999962 0.999998
1.00824 1.00843 0.999836 0.999975
0.999722 1 1 0.999722
1.00176 0.995452 1.00635 0.999986
1.0023 1.00268 0.999626 0.999996
0.986755 0.988798 0.998886 0.999047
0.982969 0.999832 0.983528 0.9996
1.00506 1.00599 0.999088 0.99999
1.00236 1.01569 0.986965 0.999908
1.00459 0.99937 1.00542 0.999802
0.999151 0.998889 1.00026 1
1.01206 1.01262 0.999469 0.999974
0.99953 0.992754 1.00712 0.999706
0.984037 1.00279 0.98141 0.999886
0.982444 0.996665 0.986105 0.999621
0.97664 0.980517 0.997784 0.998257
1.01816 1 1.01828 0.999882
1.00376 1.00375 1.00002 0.999993
1.01004 1.01269 0.997435 0.999948
0.962867 0.980238 0.982416 0.99986
0.972607 0.984608 0.988145 0.999664
0.989684 0.985381 1.0062 0.998175
0.978916 0.99146 0.9878 0.999542
1.0013 1 1.00167 0.999627
1.01338 1 1.01377 0.99961
1.01941 1 1.01982 0.999603
0.999612 1 1 0.999612
1.00014 1 1.00055 0.999592
1.0024 1 1.00281 0.999597
1.0102 1 1.01067 0.999528
0.999943 1 1.00032 0.999625
1.00169 1 1.00212 0.999565
1.00399 1 1.0045 0.999498
0.999622 1 1 0.999622
1.0002 1 1.00064 0.999561
0.999988 1 1.00045 0.999539
0.9996 1 1 0.9996
0.999699 1 1 0.999699
0.999623 1 1 0.999623
0.999621 1 1 0.999621
0.999766 1 1 0.999766
0.99974 1 1 0.99974
0.999789 1 1 0.999789
0.99976 1 1 0.99976
0.999719 1 1 0.999719
0.999858 1 1 0.999858
0.999793 1 1 0.999793
0.999753 1 1 0.999753
0.99997 1 1 0.99997
0.999855 1 1 0.999855
0.999775 1 1 0.999775
0.999857 1 1 0.999857
0.999974 1 1 0.999974
1 1 1 1
0.999978 1 1 0.999978
1 1 1 1
1 1 1 1
1 1 1 1
1 1 1 1
1 1 1 1
0.999871 1 1 0.999871
0.999985 1 1 0.999985
0.999878 1 1 0.999878
1 1 1 1
0.999984 1 1 0.999984
0.999901 1 1 0.999901
1 1 1 1
1 1 1 1
0.999983 1 1 0.999983
1 1 1 1
1 1 1 1
1 1 1 1
0.99942 0.999082 1.00034 1
1.00352 1.00355 0.999977 0.999994
1.00878 1.00935 0.999463 0.999971
0.999772 1 1 0.999772
0.999741 1 1 0.999741
0.999798 1 1 0.999798
0.999774 1 1 0.999774
0.999732 1 1 0.999732
0.999727 1 1 0.999727
0.999695 1 1 0.999695
1.00824 1.01026 0.998026 0.999973
1.0051 1.00735 0.997771 0.999987
1.01142 1.01308 0.998388 0.999977
1.00295 1.01743 0.985841 0.999927
0.980453 1.00332 0.978012 0.999177
0.985342 0.979984 1.00693 0.99855
0.97792 0.996153 0.982563 0.999117
0.979397 0.993353 0.986433 0.99951
0.985438 0.985143 1.00219 0.998111
0.979984 0.997457 0.983372 0.999095
0.995642 1.01309 0.982887 0.999892
0.9865 0.989045 0.997537 0.999889
0.977996 0.985192 0.994613 0.998072
0.985466 1.00235 0.983544 0.999601
0.988848 1.00513 0.983892 0.999904
0.999658 1 1 0.999658
0.999677 1 1 0.999677
0.999692 1 1 0.999692
0.999739 1 1 0.999739
0.996662 1.00489 0.992182 0.999625
1.01459 1 1.01497 0.999626
0.999646 1 1 0.999646
0.999599 1 1 0.999599
0.999589 1 1 0.999589
0.999613 1 1 0.999613
0.999567 1 1 0.999567
1.01129 0.997309 1.01424 0.999778
1.00015 1 1.00044 0.999708
0.999567 1 1 0.999567
1.02385 0.993705 1.03044 0.999897
1.0035 1 1.00395 0.999547
1.00218 1.00218 1 0.999996
0.998824 0.998752 1.00007 1
1.00054 1.00057 0.999969 0.999999
1.00398 1 1.00417 0.999812
0.999724 0.992069 1.00761 1.0001
0.998956 0.998696 1.00026 1
0.977269 0.98041 0.998604 0.99819
0.977466 0.99397 0.984249 0.999134
1.01254 1.01341 0.999164 0.999975
0.984578 1.00087 0.983849 0.999876
1.02 0.999601 1.02054 0.999867
1.00347 1.00347 1 0.999994
1.01183 1.01348 0.99842 0.999947
0.983394 0.99392 0.989324 1.00009
0.961317 0.979621 0.981446 0.999868
0.96956 0.983253 0.986648 0.999418
0.991474 0.984437 1.00883 0.998332
1.00542 1 1.00557 0.999847
1.00972 1.00968 1.00006 0.999968
0.981424 0.989219 0.992195 0.999924
0.952537 0.964146 0.988344 0.999611
0.983037 0.978177 1.00698 0.998005
0.97641 0.99666 0.980327 0.999343
1.01474 1 1.01513 0.999614
1.02001 1 1.02041 0.999601
1.02007 1 1.02054 0.999539
1.00189 1 1.0023 0.999598
1.01066 1 1.01112 0.999538
1.0078 1 1.00835 0.999455
1.00216 1 1.0026 0.999555
1.00406 1 1.00457 0.999487
1.00246 1 1.00299 0.999469
1.00063 1 1.00107 0.999559
1.00012 1 1.00059 0.99953
0.999975 1 1.00043 0.999544
0.999608 1 1 0.999608
0.999659 1 1 0.999659
0.999594 1 1 0.999594
0.999747 1 1 0.999747
0.999705 1 1 0.999705
0.999615 1 1 0.999615
0.999786 1 1 0.999786
0.999763 1 1 0.999763
0.999748 1 1 0.999748
0.999854 1 1 0.999854
0.999792 1 1 0.999792
0.999765 1 1 0.999765
0.999965 1 1 0.999965
0.999858 1 1 0.999858
0.999793 1 1 0.999793
1 1 1 1
0.99997 1 1 0.99997
0.999856 1 1 0.999856
0.999974 1 1 0.999974
1 1 1 1
1 1 1 1
1 1 1 1
1 1 1 1
1 1 1 1
0.999775 1 1 0.999775
0.999858 1 1 0.999858
0.999979 1 1 0.999979
0.999871 1 1 0.999871
1 1 1 1
0.999986 1 1 0.999986
0.999884 1 1 0.999884
1 1 1 1
1 1 1 1
0.999992 1 1 0.999992
1 1 1 1
1 1 1 1
1 1 1 1
1.00311 1.0033 0.999819 0.999995
0.999256 0.998881 1.00037 1
1.00328 1.00328 1.00001 0.999995
0.999774 1 1 0.999774
0.999737 1 1 0.999737
0.999737 1 1 0.999737
0.999729 1 1 0.999729
0.999718 1 1 0.999718
0.999773 1 1 0.999773
0.999725 1 1 0.999725
0.999727 1 1 0.999727
0.999696 1 1 0.999696
0.999694 1 1 0.999694
1.00983 1.01056 0.999334 0.999943
1.00903 1.01131 0.997774 0.999973
1.00407 1.00574 0.998347 0.999991
0.996903 1.01312 0.984104 0.999889
0.984529 1.00208 0.982929 0.999547
0.983934 0.99305 0.991553 0.999261
0.979519 0.983122 0.998141 0.998191
0.990654 0.98841 1.0029 0.999376
0.977629 0.982403 0.997001 0.998134
0.982824 0.998653 0.984758 0.999383
0.985903 1.00388 0.982192 0.999902
1.0106 0.986106 1.02543 0.999423
0.982975 0.984523 1.00023 0.998195
0.965018 0.983157 0.982371 0.999165
0.964377 0.985222 0.978969 0.99987
0.999693 1 1 0.999693
0.999661 1 1 0.999661
0.999675 1 1 0.999675
1.00321 0.995619 1.00784 0.999794
1.00014 1 1.00041 0.999732
0.999618 1 1 0.999618
0.999563 1 1 0.999563
0.999605 1 1.00003 0.999572
1.00398 1 1.00444 0.999541
1.02395 0.995365 1.02882 0.999897
1.00391 1 1.00435 0.99956
1.01277 0.999006 1.01406 0.999727
1.00906 1.00909 1 0.999971
1.00135 1.00134 1 0.999998
0.998892 0.99885 1.00004 1
1.02151 0.999191 1.02249 0.999852
0.985277 0.992882 0.992805 0.999531
1.00323 1.00318 1.00005 0.999994
0.982884 0.981984 1.00325 0.997669
0.9684 0.98223 0.986755 0.999154
1.01357 1.0143 0.999335 0.999947
0.9606 0.979838 0.980488 0.999875
1.00587 1 1.00602 0.999854
1.00957 1.00959 1.00001 0.999968
0.977925 0.985765 0.992128 0.999918
0.97238 0.994068 0.978546 0.999628
0.955414 0.967523 0.98832 0.999156
0.985962 0.979893 1.00851 0.997698
0.986183 1.00028 0.986167 0.999735
0.993241 0.994765 0.99853 0.999938
0.951558 0.962366 0.989609 0.999152
0.976279 0.973759 1.00467 0.997927
0.978443 0.999914 0.978889 0.99963
1.02013 1 1.02054 0.999599
1.02144 1 1.02191 0.999538
1.01168 1 1.01222 0.999469
1.01091 1 1.01137 0.999548
1.00736 1 1.0079 0.99946
1.00177 1 1.00231 0.999464
1.00389 1 1.00442 0.999477
1.00181 1 1.00234 0.999472
0.999567 1 1 0.999567
1.00016 1 1.00064 0.999521
0.99976 1 1.00021 0.999549
0.99963 1 1 0.99963
0.999662 1 1 0.999662
0.99964 1 1 0.99964
0.999612 1 1 0.999612
0.999712 1 1 0.999712
0.99965 1 1 0.99965
0.999588 1 1 0.999588
0.999788 1 1 0.999788
0.999753 1 1 0.999753
0.99971 1 1 0.99971
0.999844 1 1 0.999844
0.999786 1 1 0.999786
0.99976 1 1 0.99976
0.99996 1 1 0.99996
0.999854 1 1 0.999854
0.999795 1 1 0.999795
1 1 1 1
0.999966 1 1 0.999966
0.999859 1 1 0.999859
1 1 1 1
1 1 1 1
0.99997 1 1 0.99997
1 1 1 1
1 1 1 1
1 1 1 1
0.999768 1 1 0.999768
0.999848 1 1 0.999848
0.999772 1 1 0.999772
0.999974 1 1 0.999974
0.999858 1 1 0.999858
1 1 1 1
0.999981 1 1 0.999981
0.999871 1 1 0.999871
1 1 1 1
1 1 1 1
0.999988 1 1 0.999988
1 1 1 1
1 1 1 1
1 1 1 1
1.00919 1.00922 1 0.999966
1.00276 1.00292 0.99985 0.999995
0.999079 0.998696 1.00038 1
0.999747 1 1 0.999747
0.999777 1 1 0.999777
0.999733 1 1 0.999733
0.999734 1 1 0.999734
0.99974 1 1 0.99974
0.999718 1 1 0.999718
0.999713 1 1 0.999713
0.999704 1 1 0.999704
0.999728 1 1 0.999728
0.999696 1 1 0.999696
0.999694 1 1 0.999694
0.999686 1 1 0.999686
0.977735 0.987568 0.99015 0.999892
1.0104 1.01123 0.999236 0.999942
1.01013 1.01265 0.997535 0.999974
0.985119 1.00168 0.983587 0.999883
0.979926 0.997298 0.983406 0.999161
0.976777 0.984177 0.994393 0.998077
0.992619 0.984969 1.00784 0.999931
1.01162 0.985912 1.02612 0.999953
0.96213 0.981563 0.980321 0.999879
0.984908 0.985979 1.00104 0.997877
0.966208 0.981881 0.984364 0.999669
1.0033 0.993886 1.00957 0.999907
0.982926 0.979636 1.00519 0.998182
0.950759 0.962963 0.987657 0.999664
1.00016 1 1.00041 0.999749
0.999694 1 1 0.999694
0.999664 1 1 0.999664
1.02411 0.997181 1.02711 0.999897
1.0046 1 1.00506 0.999535
0.999626 1 1.00005 0.999576
1.00421 1 1.00465 0.999564
1.01181 0.999584 1.01251 0.999728
1.00911 1 1.00939 0.999729
0.991813 0.994499 0.997409 0.99989
1.00834 1.00837 1 0.999973
1.00053 1.00051 1.00002 0.999999
1.00641 1 1.00654 0.999862
0.972149 0.995723 0.976495 0.999826
1.00932 1.00949 0.999863 0.999969
0.990113 0.981409 1.01036 0.998525
0.958719 0.969439 0.989297 0.999641
0.975047 0.985109 0.989903 0.999881
0.984168 1.00103 0.983413 0.999734
0.989372 0.993315 0.996139 0.999891
0.955497 0.963284 0.992267 0.999646
0.9786 1.00028 0.979163 0.999148
0.978953 0.976026 1.00504 0.997971
0.982259 1.00817 0.974752 0.999532
0.959633 0.967086 0.99266 0.99963
0.97394 0.973214 1.00264 0.998112
0.982122 1.00468 0.978392 0.999138
1.02336 1 1.02383 0.999538
1.01119 1 1.01173 0.999468
1.00257 1 1.00305 0.999516
1.00715 1 1.00769 0.999464
1.00175 1 1.00228 0.999467
0.99965 1 1 0.99965
1.00134 1 1.00187 0.999476
0.999628 1 1.00005 0.999575
0.999726 1 1 0.999726
0.99957 1 1.00002 0.999555
0.999633 1 1 0.999633
0.999732 1 1 0.999732
0.999733 1 1 0.999733
0.999669 1 1 0.999669
0.999669 1 1 0.999669
0.999686 1 1 0.999686
0.999647 1 1 0.999647
0.999615 1 1 0.999615
0.999772 1 1 0.999772
0.999711 1 1 0.999711
0.99964 1 1 0.99964
0.999839 1 1 0.999839
0.999787 1 1 0.999787
0.999759 1 1 0.999759
0.99995 1 1 0.99995
0.999845 1 1 0.999845
0.999786 1 1 0.999786
1 1 1 1
0.99996 1 1 0.99996
0.999854 1 1 0.999854
1 1 1 1
1 1 1 1
0.999966 1 1 0.999966
1 1 1 1
1 1 1 1
1 1 1 1
0.999779 1 1 0.999779
0.99977 1 1 0.99977
0.999839 1 1 0.999839
0.999966 1 1 0.999966
0.999847 1 1 0.999847
0.999769 1 1 0.999769
1 1 1 1
0.999975 1 1 0.999975
0.999858 1 1 0.999858
1 1 1 1
1 1 1 1
0.999982 1 1 0.999982
1 1 1 1
1 1 1 1
1 1 1 1
0.991142 0.993039 0.998147 0.999941
1.01038 1.01041 1 0.999966
1.00238 1.00251 0.999875 0.999996
0.999744 1 1 0.999744
0.999758 1 1 0.999758
0.999728 1 1 0.999728
0.999739 1 1 0.999739
0.999744 1 1 0.999744
0.999719 1 1 0.999719
0.999706 1 1 0.999706
0.999715 1 1 0.999715
0.999694 1 1 0.999694
0.999697 1 1 0.999697
0.999694 1 1 0.999694
0.999686 1 1 0.999686
0.955229 0.963229 0.992024 0.999667
0.977208 0.986322 0.99085 0.999909
1.01105 1.01195 0.999163 0.999941
0.960256 0.978547 0.981419 0.999888
0.961976 0.980177 0.982234 0.999183
0.989055 0.989356 1.00106 0.998636
1.01697 0.986188 1.03182 0.999408
1.00361 0.99369 1.01062 0.999373
0.951266 0.964587 0.986959 0.999221
0.986655 0.983322 1.00499 0.998405
0.998648 0.993514 1.00582 0.999348
0.978761 0.976535 1.00413 0.99816
1.00786 1 1.00819 0.999675
1.00002 1 1.00027 0.999749
0.999694 1 1 0.999694
1.01062 1 1.0109 0.999729
1.00451 1 1.00494 0.999567
1.00886 1 1.00914 0.999729
1.00172 1.00058 1.00148 0.999663
0.962648 0.970378 0.992479 0.999552
0.992476 0.994337 0.998212 0.999917
1.00758 1.00761 0.999994 0.999975
0.981426 1.00122 0.980491 0.999734
0.977793 0.998963 0.979116 0.999686
0.991101 0.994138 0.997056 0.999888
0.978106 0.974568 1.00568 0.997962
0.953427 0.963501 0.990367 0.999169
0.983011 1.00739 0.976233 0.999556
0.96126 0.967985 0.993665 0.999383
0.974759 0.972148 1.00466 0.998039
0.980887 1.0036 0.977727 0.999634
0.985654 1.01242 0.974097 0.999452
0.965209 0.967187 1.00026 0.997697
0.991451 1.00177 0.989944 0.99975
1.01077 1 1.0113 0.999467
1.0023 1 1.00279 0.99951
0.999208 1.00028 0.999258 0.999674
1.00164 1 1.00217 0.99947
0.999558 1 0.999906 0.999652
0.999262 1 0.999403 0.999859
0.999618 1 1.00004 0.999582
0.999727 1 1 0.999727
0.999831 1 1 0.999831
0.999636 1 1 0.999636
0.999732 1 1 0.999732
0.999787 1 1 0.999787
0.999765 1 1 0.999765
0.99974 1 1 0.99974
0.999723 1 1 0.999723
0.999694 1 1 0.999694
0.99967 1 1 0.99967
0.999675 1 1 0.999675
0.999736 1 1 0.999736
0.999693 1 1 0.999693
0.999654 1 1 0.999654
0.999828 1 1 0.999828
0.999771 1 1 0.999771
0.999711 1 1 0.999711
0.99994 1 1 0.99994
0.999839 1 1 0.999839
0.999787 1 1 0.999787
1 1 1 1
0.99995 1 1 0.99995
0.999845 1 1 0.999845
1 1 1 1
1 1 1 1
0.999959 1 1 0.999959
1 1 1 1
1 1 1 1
1 1 1 1
0.999783 1 1 0.999783
0.999774 1 1 0.999774
0.999834 1 1 0.999834
0.999772 1 1 0.999772
0.999839 1 1 0.999839
0.999956 1 1 0.999956
1 1 1 1
0.999966 1 1 0.999966
0.999847 1 1 0.999847
1 1 1 1
1 1 1 1
0.999975 1 1 0.999975
1 1 1 1
1 1 1 1
1 1 1 1
0.964414 0.968436 0.996614 0.99923
0.989531 0.992384 0.997205 0.99992
1.01161 1.01165 1 0.999966
0.999741 1 1 0.999741
0.999727 1 1 0.999727
0.999761 1 1 0.999761
0.999763 1 1 0.999763
0.999734 1 1 0.999734
0.999708 1 1 0.999708
0.999717 1 1 0.999717
0.999695 1 1 0.999695
0.999722 1 1 0.999722
0.999686 1 1 0.999686
0.999918 1 1.00026 0.999661
0.999692 1 1 0.999692
0.999687 1 1 0.999687
0.97546 0.97684 1.00086 0.997726
0.958497 0.965693 0.993096 0.999449
0.977891 0.987141 0.990738 0.999891
0.951519 0.964908 0.98643 0.999689
0.983084 0.97937 1.00619 0.997621
1.00649 0.994484 1.01215 0.999917
0.999453 0.99464 1.00522 0.999624
0.979539 0.977575 1.0038 0.998218
0.992973 0.99913 0.994395 0.999439
1.0063 1.0012 1.00565 0.999443
1.0063 1 1.00664 0.999668
0.999749 1 1 0.999749
1.0075 1 1.00777 0.999731
1.00075 1.0008 1.00021 0.999735
0.961461 0.965271 0.997893 0.998157
0.963712 0.969787 0.994543 0.999188
0.993041 0.994181 0.998909 0.999944
0.983785 1.00691 0.977449 0.99958
0.984738 1.00832 0.977457 0.999133
0.963801 0.968176 0.996294 0.999185
0.976402 0.971796 1.00667 0.998084
0.984582 1.01103 0.974379 0.999448
0.968556 0.968887 1.00149 0.998167
0.989308 1.0042 0.985919 0.999242
0.980766 1.00992 0.971626 0.999489
0.998296 0.993011 1.00554 0.999782
1.00181 1 1.00231 0.999504
0.998129 1.00028 0.998181 0.999669
0.996917 1.00043 0.996675 0.999812
0.999391 1 0.999738 0.999653
0.999008 1 0.999151 0.999858
0.998988 1 0.999093 0.999895
0.999728 1 1 0.999728
0.999826 1 1 0.999826
0.999825 1 1 0.999825
0.999732 1 1 0.999732
0.999784 1 1 0.999784
0.999775 1 1 0.999775
0.999773 1 1 0.999773
0.999742 1 1 0.999742
0.999747 1 1 0.999747
0.999721 1 1 0.999721
0.999715 1 1 0.999715
0.999722 1 1 0.999722
0.999692 1 1 0.999692
0.999672 1 1 0.999672
0.999806 1 1 0.999806
0.999741 1 1 0.999741
0.9997 1 1 0.9997
0.999927 1 1 0.999927
0.999828 1 1 0.999828
0.99977 1 1 0.99977
1 1 1 1
0.999939 1 1 0.999939
0.99984 1 1 0.99984
1 1 1 1
1 1 1 1
0.99995 1 1 0.99995
1 1 1 1
1 1 1 1
1 1 1 1
0.999777 1 1 0.999777
0.999784 1 1 0.999784
0.999824 1 1 0.999824
0.999768 1 1 0.999768
0.999829 1 1 0.999829
0.999945 1 1 0.999945
0.999839 1 1 0.999839
0.999956 1 1 0.999956
1 1 1 1
1 1 1 1
1 1 1 1
0.999967 1 1 0.999967
1 1 1 1
1 1 1 1
1 1 1 1
0.969245 0.970669 1.00031 0.998225
0.963743 0.970373 0.99356 0.999606
0.991464 0.99349 0.998021 0.999939
0.999727 1 1 0.999727
0.999763 1 1 0.999763
0.999736 1 1 0.999736
0.999763 1 1 0.999763
0.999756 1 1 0.999756
0.999746 1 1 0.999746
0.999696 1 1 0.999696
0.999719 1 1 0.999719
0.999687 1 1 0.999687
0.999715 1 1 0.999715
0.999674 1 1 0.999674
0.999603 1 1.00011 0.999489
0.999718 1 1.00006 0.99966
0.999686 1 1 0.999686
0.991192 0.994079 0.997342 0.999753
0.972373 0.973864 1.0003 0.998165
0.955521 0.964639 0.991345 0.999196
0.977077 0.975305 1.00371 0.998114
0.997992 0.994345 1.00376 0.99991
0.993365 0.997082 0.996436 0.999835
0.996959 1.00419 0.993324 0.999474
1.00333 1.00049 1.00337 0.999476
1.00529 1 1.00563 0.99966
0.998457 1.00072 0.997932 0.999804
0.988111 0.986386 1.00245 0.999304
0.965512 0.966874 1.00035 0.998241
0.963638 0.970283 0.993533 0.999615
0.983559 1.00946 0.974885 0.999443
0.993111 1.00773 0.98577 0.999717
0.969493 0.96849 1.00238 0.998654
0.982079 1.00763 0.975137 0.999492
0.993778 0.993981 1.0002 0.999597
0.98425 1.00303 0.981634 0.999636
1.00202 1 1.00249 0.99954
0.996911 1.00018 0.997066 0.999665
0.996347 1.00024 0.99629 0.999813
0.997116 1 0.997308 0.999807
0.998894 1 0.999038 0.999856
0.999104 1 0.999214 0.99989
0.999591 1 0.999799 0.999792
0.99982 1 1 0.99982
0.99982 1 1 0.99982
0.999746 1 1 0.999746
0.99978 1 1 0.99978
0.999777 1 1 0.999777
0.999728 1 1 0.999728
0.99978 1 1 0.99978
0.999747 1 1 0.999747
0.999719 1 1 0.999719
0.99972 1 1 0.99972
0.999713 1 1 0.999713
0.999729 1 1 0.999729
0.999777 1 1 0.999777
0.999726 1 1 0.999726
0.999691 1 1 0.999691
0.999909 1 1 0.999909
0.999806 1 1 0.999806
0.999746 1 1 0.999746
1 1 1 1
0.999927 1 1 0.999927
0.999828 1 1 0.999828
1 1 1 1
1 1 1 1
0.999939 1 1 0.999939
1 1 1 1
1 1 1 1
1 1 1 1
0.999773 1 1 0.999773
0.999781 1 1 0.999781
0.99982 1 1 0.99982
0.999784 1 1 0.999784
0.999823 1 1 0.999823
0.999936 1 1 0.999936
0.999824 1 1 0.999824
0.999945 1 1 0.999945
1 1 1 1
0.999956 1 1 0.999956
1 1 1 1
1 1 1 1
1 1 1 1
1 1 1 1
1 1 1 1
0.984582 0.986272 0.998582 0.999704
0.965025 0.967849 0.998896 0.998185
0.961132 0.969008 0.992677 0.999188
0.999739 1 1 0.999739
0.999738 1 1 0.999738
0.999764 1 1 0.999764
0.999745 1 1 0.999745
0.999755 1 1 0.999755
0.999766 1 1 0.999766
0.999717 1 1 0.999717
0.999689 1 1 0.999689
0.999721 1 1 0.999721
0.999691 1 1 0.999691
0.999584 1 1 0.999584
0.999352 1 1 0.999352
0.999624 1 1.00013 0.999496
0.999659 1 1 0.999659
0.996585 1.00041 0.996682 0.999494
0.991873 0.995444 0.996885 0.999526
0.974173 0.974818 1.00072 0.998622
0.99649 0.998573 0.998552 0.999361
1.00063 1.00433 0.996923 0.99939
1.00211 1 1.0026 0.999509
0.999795 1 1.00002 0.999776
0.989013 0.985341 1.00397 0.999753
0.962924 0.966694 0.997922 0.998175
0.983353 1.00526 0.978706 0.999493
0.99016 0.994541 0.996199 0.999394
0.987975 1.00224 0.986147 0.999617
1.00098 1 1.00138 0.999597
0.999145 1.00005 0.999515 0.999583
0.999545 1 1 0.999545
0.995946 1.00018 0.995951 0.999814
0.997975 1.00003 0.998138 0.999808
0.999695 1 1 0.999695
0.999269 1 0.999384 0.999885
0.999746 1 0.999957 0.999789
0.999688 1 1 0.999688
0.999815 1 1 0.999815
0.999753 1 1 0.999753
0.999678 1 1 0.999678
0.999779 1 1 0.999779
0.999728 1 1 0.999728
0.999699 1 1 0.999699
0.999752 1 1 0.999752
0.999721 1 1 0.999721
0.999719 1 1 0.999719
0.999712 1 1 0.999712
0.999726 1 1 0.999726
0.999768 1 1 0.999768
0.999887 1 1 0.999887
0.999782 1 1 0.999782
0.999731 1 1 0.999731
0.999999 1 1 0.999999
0.999908 1 1 0.999908
0.999806 1 1 0.999806
1 1 1 1
1 1 1 1
0.999926 1 1 0.999926
1 1 1 1
1 1 1 1
1 1 1 1
0.999756 1 1 0.999756
0.999773 1 1 0.999773
0.999817 1 1 0.999817
0.999786 1 1 0.999786
0.999823 1 1 0.999823
0.999927 1 1 0.999927
0.999823 1 1 0.999823
0.999936 1 1 0.999936
1 1 1 1
0.999945 1 1 0.999945
1 1 1 1
1 1 1 1
1 1 1 1
1 1 1 1
1 1 1 1
0.997899 1.00039 0.997768 0.99974
0.984888 0.987573 0.998008 0.999272
0.966065 0.968098 0.999659 0.99824
0.999747 1 1 0.999747
0.999692 1 1 0.999692
0.999741 1 1 0.999741
0.999745 1 1 0.999745
0.999754 1 1 0.999754
0.999761 1 1 0.999761
0.999626 1 1 0.999626
0.999726 1 1 0.999726
0.999708 1 1 0.999708
0.999586 1 1 0.999586
0.999433 1 1 0.999433
0.999545 1.0001 0.999926 0.99952
0.999412 1.00005 1 0.999362
0.999503 1 1 0.999503
0.998492 1.00202 0.996964 0.999509
0.990653 0.994916 0.996435 0.999278
1.00253 1.00412 0.999111 0.999308
0.999773 1 1 0.999773
1.00094 1 1.00116 0.999784
0.987337 0.98512 1.00298 0.999272
0.992117 1.00177 0.990765 0.999598
0.999973 1 1.00032 0.999656
0.998938 1.00016 0.999187 0.999594
0.999573 1 1 0.999573
0.999593 1 1 0.999593
0.999708 1 1 0.999708
0.998789 1.00003 0.998947 0.99981
0.9997 1 1 0.9997
0.999612 1 1 0.999612
0.999787 1 1 0.999787
0.99969 1 1 0.99969
0.999629 1 1 0.999629
0.999761 1 1 0.999761
0.999678 1 1 0.999678
0.999655 1 1 0.999655
0.999728 1 1 0.999728
0.999698 1 1 0.999698
0.999698 1 1 0.999698
0.999723 1 1 0.999723
0.999719 1 1 0.999719
0.999755 1 1 0.999755
0.999722 1 1 0.999722
0.999766 1 1 0.999766
0.999868 1 1 0.999868
0.999996 1 1 0.999996
0.999887 1 1 0.999887
0.999788 1 1 0.999788
1 1 1 1
0.999999 1 1 0.999999
0.999908 1 1 0.999908
1 1 1 1
1 1 1 1
1 1 1 1
0.999718 1 1 0.999718
0.999752 1 1 0.999752
0.999803 1 1 0.999803
0.999774 1 1 0.999774
0.999817 1 1 0.999817
0.999916 1 1 0.999916
0.999825 1 1 0.999825
0.999927 1 1 0.999927
1 1 1 1
0.999936 1 1 0.999936
1 1 1 1
1 1 1 1
1 1 1 1
1 1 1 1
1 1 1 1
0.999667 1 0.999924 0.999743
0.997595 1.00009 0.997755 0.999752
0.984281 0.986214 0.998319 0.999721
0.999664 1 1 0.999664
0.999767 1 1 0.999767
0.999618 1 1 0.999618
0.999688 1 1 0.999688
0.999744 1 1 0.999744
0.999504 1 1 0.999504
0.999757 1 1 0.999757
0.999626 1 1 0.999626
0.999505 1 1 0.999505
0.999589 1 1 0.999589
0.999419 1 1 0.999419
0.99953 1.00005 0.999962 0.999514
0.999373 1 1 0.999373
1.00019 1.00337 0.997313 0.999524
0.999792 1 1 0.999792
0.999769 1 1 0.999769
1.00203 1 1.00224 0.999793
0.998738 1.00022 0.998911 0.999604
0.9996 1 1 0.9996
0.999587 1 1 0.999587
0.999712 1 1 0.999712
0.999676 1 1 0.999676
0.999705 1 1 0.999705
0.999617 1 1 0.999617
0.999605 1 1 0.999605
0.999692 1 1 0.999692
0.999626 1 1 0.999626
0.999614 1 1 0.999614
0.999678 1 1 0.999678
0.999654 1 1 0.999654
0.999662 1 1 0.999662
0.999698 1 1 0.999698
0.999698 1 1 0.999698
0.999732 1 1 0.999732
0.999719 1 1 0.999719
0.999755 1 1 0.999755
0.99985 1 1 0.99985
0.999764 1 1 0.999764
0.999868 1 1 0.999868
0.999991 1 1 0.999991
1 1 1 1
0.999995 1 1 0.999995
0.999887 1 1 0.999887
1 1 1 1
0.999998 1 1 0.999998
1 1 1 1
0.999633 1 1 0.999633
0.999682 1 1 0.999682
0.999713 1 1 0.999713
0.999785 1 1 0.999785
0.999747 1 1 0.999747
0.999804 1 1 0.999804
0.999905 1 1 0.999905
0.999817 1 1 0.999817
0.999916 1 1 0.999916
1 1 1 1
0.999927 1 1 0.999927
1 1 1 1
1 1 1 1
1 1 1 1
1 1 1 1
1 1 1 1
0.999688 1 1 0.999688
0.999846 1.00015 0.999963 0.999737
0.997865 1.00038 0.997726 0.999764
0.999552 1 1 0.999552
0.999683 1 1 0.999683
0.999787 1 1 0.999787
0.999627 1 1 0.999627
0.999685 1 1 0.999685
0.999488 1 1 0.999488
0.999494 1 1 0.999494
0.999626 1 1 0.999626
0.9995 1 1 0.9995
0.999405 1 1 0.999405
0.999801 1.00029 1 0.999508
0.999758 1 1 0.999758
0.999787 1 1 0.999787
0.999765 1 1 0.999765
0.999582 1 1 0.999582
0.999717 1 1 0.999717
0.999676 1 1 0.999676
0.999667 1 1 0.999667
0.999621 1 1 0.999621
0.999602 1 1 0.999602
0.999618 1 1 0.999618
0.999624 1 1 0.999624
0.999613 1 1 0.999613
0.999629 1 1 0.999629
0.999653 1 1 0.999653
0.999662 1 1 0.999662
0.999701 1 1 0.999701
0.999698 1 1 0.999698
0.999732 1 1 0.999732
0.999826 1 1 0.999826
0.999756 1 1 0.999756
0.99985 1 1 0.99985
0.999985 1 1 0.999985
0.999868 1 1 0.999868
0.999989 1 1 0.999989
1 1 1 1
1 1 1 1
0.999993 1 1 0.999993
1 1 1 1
0.99957 1 1 0.99957
0.999676 1 1 0.999676
0.999661 1 1 0.999661
0.999753 1 1 0.999753
0.999682 1 1 0.999682
0.999709 1 1 0.999709
0.999785 1 1 0.999785
0.999891 1 1 0.999891
0.999804 1 1 0.999804
0.999905 1 1 0.999905
0.999999 1 1 0.999999
0.999916 1 1 0.999916
1 1 1 1
1 1 1 1
1 1 1 1
1 1 1 1
1 1 1 1
0.999632 1 1 0.999632
0.999688 1 1 0.999688
0.999839 1.00011 1 0.999731
0.999518 1 1 0.999518
0.999553 1 1 0.999553
0.999703 1 1 0.999703
0.999636 1 1 0.999636
0.999489 1 1 0.999489
0.999484 1 1 0.999484
0.999495 1 1 0.999495
0.999712 1 1 0.999712
0.999742 1 1 0.999742
0.999783 1 1 0.999783
0.999663 1 1 0.999663
0.999676 1 1 0.999676
0.999665 1 1 0.999665
0.999651 1 1 0.999651
0.999598 1 1 0.999598
0.999619 1 1 0.999619
0.999625 1 1 0.999625
0.999612 1 1 0.999612
0.999629 1 1 0.999629
0.999673 1 1 0.999673
0.999661 1 1 0.999661
0.999701 1 1 0.999701
0.999798 1 1 0.999798
0.999732 1 1 0.999732
0.999826 1 1 0.999826
0.999979 1 1 0.999979
0.99985 1 1 0.99985
0.999983 1 1 0.999983
1 1 1 1
0.999987 1 1 0.999987
1 1 1 1
1 1 1 1
0.999535 1 1 0.999535
0.999611 1 1 0.999611
0.999581 1 1 0.999581
0.999731 1 1 0.999731
0.999674 1 1 0.999674
0.99969 1 1 0.99969
0.999861 1 1 0.999861
0.999753 1 1 0.999753
0.999682 1 1 0.999682
0.999786 1 1 0.999786
0.999891 1 1 0.999891
0.999994 1 1 0.999994
0.999906 1 1 0.999906
0.999999 1 1 0.999999
1 1 1 1
1 1 1 1
1 1 1 1
1 1 1 1
0.999612 1 1 0.999612
0.99962 1 1 0.99962
0.999688 1 1 0.999688
0.99951 1 1 0.99951
0.999553 1 1 0.999553
0.99949 1 1 0.99949
0.999664 1 1 0.999664
0.999715 1 1 0.999715
0.999726 1 1 0.999726
0.999659 1 1 0.999659
0.999645 1 1 0.999645
0.999663 1 1 0.999663
0.999651 1 1 0.999651
0.999649 1 1 0.999649
0.999619 1 1 0.999619
0.999626 1 1 0.999626
0.999662 1 1 0.999662
0.999629 1 1 0.999629
0.999673 1 1 0.999673
0.999775 1 1 0.999775
0.999701 1 1 0.999701
0.999798 1 1 0.999798
0.999973 1 1 0.999973
0.999826 1 1 0.999826
0.999977 1 1 0.999977
1 1 1 1
0.999981 1 1 0.999981
1 1 1 1
1 1 1 1
0.999607 1 1 0.999607
0.999566 1 1 0.999566
0.999531 1 1 0.999531
0.999678 1 1 0.999678
0.999617 1 1 0.999617
0.999592 1 1 0.999592
0.999825 1 1 0.999825
0.99972 1 1 0.99972
0.999672 1 1 0.999672
0.999985 1 1 0.999985
0.999862 1 1 0.999862
0.999753 1 1 0.999753
0.999891 1 1 0.999891
0.999996 1 1 0.999996
1 1 1 1
1 1 1 1
1 1 1 1
1 1 1 1
0.999606 1 1 0.999606
0.999607 1 1 0.999607
0.999608 1 1 0.999608
0.999502 1 1 0.999502
0.999631 1 1 0.999631
0.999668 1 1 0.999668
0.999718 1 1 0.999718
0.999656 1 1 0.999656
0.999647 1 1 0.999647
0.999657 1 1 0.999657
0.999652 1 1 0.999652
0.99965 1 1 0.99965
0.999668 1 1 0.999668
0.999627 1 1 0.999627
0.999663 1 1 0.999663
0.999763 1 1 0.999763
0.999673 1 1 0.999673
0.999775 1 1 0.999775
0.999967 1 1 0.999967
0.999797 1 1 0.999797
0.999971 1 1 0.999971
1 1 1 1
0.999975 1 1 0.999975
1 1 1 1
1 1 1 1
0.999615 1 1 0.999615
0.999605 1 1 0.999605
0.999607 1 1 0.999607
0.999625 1 1 0.999625
0.999575 1 1 0.999575
0.999528 1 1 0.999528
0.999771 1 1 0.999771
0.999678 1 1 0.999678
0.999623 1 1 0.999623
0.999972 1 1 0.999972
0.999815 1 1 0.999815
0.999708 1 1 0.999708
1 1 1 1
0.999988 1 1 0.999988
0.999862 1 1 0.999862
0.999997 1 1 0.999997
1 1 1 1
1 1 1 1
0.999617 1 1 0.999617
0.999615 1 1 0.999615
0.999603 1 1 0.999603
0.999638 1 1 0.999638
0.99963 1 1 0.99963
0.999672 1 1 0.999672
0.999648 1 1 0.999648
0.999658 1 1 0.999658
0.999691 1 1 0.999691
0.99965 1 1 0.99965
0.999676 1 1 0.999676
0.999751 1 1 0.999751
0.999664 1 1 0.999664
0.999764 1 1 0.999764
0.999963 1 1 0.999963
0.999775 1 1 0.999775
0.999966 1 1 0.999966
1 1 1 1
0.999969 1 1 0.999969
1 1 1 1
1 1 1 1
0.999618 1 1 0.999618
0.99963 1 1 0.99963
0.999614 1 1 0.999614
0.999642 1 1 0.999642
0.999608 1 1 0.999608
0.999606 1 1 0.999606
0.999736 1 1 0.999736
0.999637 1 1 0.999637
0.999584 1 1 0.999584
0.999962 1 1 0.999962
0.999766 1 1 0.999766
0.999677 1 1 0.999677
1 1 1 1
0.999976 1 1 0.999976
0.999806 1 1 0.999806
1 1 1 1
0.999991 1 1 0.999991
1 1 1 1
0.999631 1 1 0.999631
0.999617 1 1 0.999617
0.999624 1 1 0.999624
0.999672 1 1 0.999672
0.999638 1 1 0.999638
0.999629 1 1 0.999629
0.999658 1 1 0.999658
0.999691 1 1 0.999691
0.999753 1 1 0.999753
0.999683 1 1 0.999683
0.999757 1 1 0.999757
0.999959 1 1 0.999959
0.999764 1 1 0.999764
0.999962 1 1 0.999962
1 1 1 1
0.999965 1 1 0.999965
1 1 1 1
1 1 1 1
0.999637 1 1 0.999637
0.999614 1 1 0.999614
0.999658 1 1 0.999658
0.99963 1 1 0.99963
0.999613 1 1 0.999613
0.999744 1 1 0.999744
0.999641 1 1 0.999641
0.999611 1 1 0.999611
0.999956 1 1 0.999956
0.999742 1 1 0.999742
0.999648 1 1 0.999648
1 1 1 1
0.999965 1 1 0.999965
0.999761 1 1 0.999761
1 1 1 1
0.99998 1 1 0.99998
1 1 1 1
0.999669 1 1 0.999669
0.999632 1 1 0.999632
0.999618 1 1 0.999618
0.999742 1 1 0.999742
0.999673 1 1 0.999673
0.999638 1 1 0.999638
0.999691 1 1 0.999691
0.999754 1 1 0.999754
0.999955 1 1 0.999955
0.999762 1 1 0.999762
0.999958 1 1 0.999958
1 1 1 1
0.999961 1 1 0.999961
1 1 1 1
1 1 1 1
0.999664 1 1 0.999664
0.999634 1 1 0.999634
0.999609 1 1 0.999609
0.999751 1 1 0.999751
0.999658 1 1 0.999658
0.999631 1 1 0.999631
0.999956 1 1 0.999956
0.999744 1 1 0.999744
0.99964 1 1 0.99964
1 1 1 1
0.999958 1 1 0.999958
0.999747 1 1 0.999747
1 1 1 1
0.999968 1 1 0.999968
1 1 1 1
0.999752 1 1 0.999752
0.999663 1 1 0.999663
0.999633 1 1 0.999633
0.999951 1 1 0.999951
0.999743 1 1 0.999743
0.999673 1 1 0.999673
0.999754 1 1 0.999754
0.999954 1 1 0.999954
1 1 1 1
0.999957 1 1 0.999957
1 1 1 1
1 1 1 1
0.999754 1 1 0.999754
0.999662 1 1 0.999662
0.99963 1 1 0.99963
0.999956 1 1 0.999956
0.99975 1 1 0.99975
0.999658 1 1 0.999658
1 1 1 1
0.999956 1 1 0.999956
0.999743 1 1 0.999743
1 1 1 1
0.999959 1 1 0.999959
1 1 1 1
0.99995 1 1 0.99995
0.999746 1 1 0.999746
0.999656 1 1 0.999656
1 1 1 1
0.999951 1 1 0.999951
0.999745 1 1 0.999745
0.999953 1 1 0.999953
1 1 1 1
1 1 1 1
0.999953 1 1 0.999953
0.999754 1 1 0.999754
0.99966 1 1 0.99966
1 1 1 1
0.999956 1 1 0.999956
0.99975 1 1 0.99975
1 1 1 1
0.999955 1 1 0.999955
1 1 1 1
0.999999 1 1 0.999999
0.999951 1 1 0.999951
0.99974 1 1 0.99974
1 1 1 1
0.99995 1 1 0.99995
1 1 1 1
1 1 1 1
0.999954 1 1 0.999954
0.999754 1 1 0.999754
1 1 1 1
0.999956 1 1 0.999956
1 1 1 1
1 1 1 1
0.999951 1 1 0.999951
1 1 1 1
1 1 1 1
0.999955 1 1 0.999955
1 1 1 1
1 1 1 1
1 1 1 1

VECTORS lamdaE float
0.999014 0.999561 0.997198
0.999197 0.998579 0.998952
0.998977 0.9996 0.997236
0.998948 1.00009 0.996921
0.998922 0.999887 0.997092
0.999138 0.999098 0.99738
0.999497 1.00032 0.995394
0.999227 0.998495 0.998977
0.998787 0.999864 0.998799
0.999026 0.99896 0.998936
0.999357 0.998177 0.997813
0.999497 0.99992 0.995551
0.99921 0.999977 0.996678
0.998895 1.00012 0.997002
0.998938 0.999637 0.997276
0.9989 1.00015 0.99696
0.999112 0.999099 0.997423
0.998878 0.999948 0.997126
0.999521 1.0003 0.995394
0.999133 0.999994 0.99859
0.999021 1.00002 0.996891
0.998893 1.00006 0.997006
0.99988 1.00022 0.994823
0.999582 1.00036 0.995213
0.999285 0.998558 0.997617
0.99942 1.00017 0.995658
1.0004 1.00102 0.993012
0.999259 0.998403 0.999002
0.998822 0.999919 0.997958
0.99906 0.999063 0.998188
0.999348 0.998083 0.99905
0.999464 0.99995 0.995552
0.998866 1.00027 0.997019
0.998938 0.999728 0.997291
0.999642 1.00039 0.99553
0.999446 0.997698 0.999153
0.999494 1.0001 0.996009
0.999515 0.999612 0.995811
0.999953 1.00134 0.993269
0.999617 0.997287 0.999186
0.999196 1.00001 0.998545
0.99895 1.00008 0.997825
0.999304 0.999988 0.998468
0.998991 1.00002 0.996924
1.0003 0.999961 0.993853
0.998825 1.00016 0.998744
1.00004 1.00011 0.995142
0.99885 1.00023 0.996998
0.998833 1.00001 0.997164
0.999084 0.999091 0.997469
0.999545 1.00029 0.995392
0.999124 0.999981 0.9977
0.998976 1.00006 0.996929
0.999267 0.998523 0.997658
0.998848 1.00013 0.997042
0.999908 1.00021 0.994822
0.999439 1.00017 0.99566
0.999614 1.00033 0.995212
1.00044 1.00103 0.992969
0.99921 0.999993 0.998532
0.999065 0.99998 0.996866
1.00021 0.999965 0.994906
1.00002 1.00007 0.994728
0.999703 1.00034 0.995023
1.00139 1.00029 0.991906
1.00068 1.00071 0.992581
0.999455 0.998037 0.99783
0.999392 0.999851 0.996018
1.00008 1.00127 0.993353
1.00099 1.00098 0.991616
0.998849 0.999742 0.998784
0.999384 0.997997 0.999086
0.9991 0.998874 0.998924
0.999429 0.999992 0.995553
0.998858 1.00008 0.998708
0.998912 0.999501 0.998824
0.999572 1.00051 0.994748
0.999466 0.99774 0.998554
0.999454 1.00022 0.995309
0.999502 0.99956 0.996158
0.999945 1.00135 0.993257
0.99954 0.997498 0.999158
0.999773 0.998523 0.996392
0.999773 1.0004 0.994495
0.999528 1.00043 0.994972
1.00065 1.00079 0.992435
0.99958 0.999154 0.99669
1.00009 1.00118 0.993171
0.999887 1.00135 0.993388
1.00032 1.00158 0.992282
0.999681 0.997079 0.999219
0.999627 0.997264 0.999196
0.998946 1.00008 0.998677
0.99914 1.00001 0.998581
0.999279 0.99999 0.998486
0.999046 1.00002 0.997752
1.00028 0.999959 0.99435
0.998856 1.00013 0.997859
0.999998 1.00008 0.994741
0.999303 0.999982 0.998469
1.00042 0.999907 0.993644
1.00016 1.00002 0.994996
1.00195 0.999828 0.990812
0.999899 1.00024 0.995239
1.00156 1.00013 0.991308
0.999171 0.999951 0.996751
0.99893 1.0001 0.996965
0.999246 0.998478 0.9977
0.998799 1.00021 0.997082
0.999936 1.00018 0.994821
0.999648 1.0003 0.99521
0.999461 1.00017 0.995661
1.00048 1.00104 0.992926
0.999247 0.999992 0.998506
0.999028 0.999979 0.996911
1.00023 0.999949 0.994221
1.00005 1.00006 0.994717
0.999415 0.998004 0.998454
0.999426 0.999835 0.996148
0.999737 1.00031 0.995026
1.00138 1.00027 0.991815
1.00013 1.00129 0.993301
1.00071 1.00073 0.992638
1.00098 1.00098 0.991623
1.00034 0.999946 0.993743
1.00009 0.999974 0.994697
1.00188 0.999813 0.99121
1.00159 1.00001 0.991553
1.00103 1.00048 0.992169
1.00211 1.00014 0.990489
0.999514 0.997673 0.999133
1.00127 1.00063 0.991391
0.999525 0.999435 0.995942
0.999859 1.00134 0.993376
1.00068 1.00144 0.991845
1.00134 1.00085 0.991068
0.999717 0.998744 0.996242
1.00006 1.00048 0.993914
0.998833 0.999996 0.998725
0.99894 0.999345 0.998858
0.999523 1.00059 0.994752
0.999486 0.997691 0.999143
0.999487 0.999549 0.995865
0.999393 1.00031 0.995294
0.999938 1.00136 0.993243
0.999555 0.997478 0.999166
0.99978 0.99849 0.996401
0.999735 1.00038 0.994941
0.999475 1.00041 0.995392
1.00065 1.00077 0.992445
0.999595 0.999123 0.996138
1.00008 1.00118 0.993168
0.999867 1.00138 0.99338
1.00032 1.00157 0.99226
0.999686 0.998815 0.99627
0.999838 0.998251 0.996541
1.00007 1.00041 0.993945
1.00101 1.00052 0.991986
1.00031 1.00104 0.992884
1.00124 1.00082 0.991281
0.999945 1.00104 0.993583
1.00053 1.00124 0.992197
1.00016 1.00194 0.992326
1.00043 1.00182 0.991893
0.999739 0.996871 0.999255
0.999689 0.997052 0.99923
0.999637 0.99724 0.999206
0.99978 0.998458 0.996418
0.999583 0.997457 0.99917
0.998871 1.00009 0.998696
0.999035 1.00004 0.998642
0.999984 1.00008 0.994322
1.00026 0.999948 0.993913
0.999251 0.999991 0.998508
0.999311 0.999985 0.998462
1.00041 0.999907 0.993652
1.00012 1.00001 0.994598
1.00195 0.999832 0.990814
0.999849 1.00025 0.99442
1.00155 1.00014 0.991314
1.00045 0.999903 0.993571
1.00215 0.999738 0.990508
1.00176 0.999956 0.991086
1.00271 0.999653 0.989542
1.00132 1.00031 0.991602
1.00228 0.999931 0.990137
0.999281 0.999992 0.99848
0.998988 0.999974 0.996956
1.00023 0.999947 0.993563
1.00007 1.00004 0.994707
0.999365 0.997964 0.999094
0.999458 0.999833 0.996278
0.999773 1.00026 0.995027
1.00138 1.00026 0.991725
1.00074 1.00075 0.992695
1.00018 1.00132 0.993249
1.00098 1.00098 0.99163
1.00035 0.999943 0.993734
1.00011 0.999963 0.994683
1.00187 0.999815 0.991025
1.00161 1.00004 0.991612
0.999493 0.997699 0.999121
0.999524 0.999445 0.996231
0.99991 1.00134 0.993499
1.00103 1.00048 0.992179
1.00209 1.00009 0.990385
1.00063 1.00145 0.991829
1.00131 1.00064 0.991431
1.00133 1.00085 0.99108
0.999703 0.998792 0.996236
1.00007 1.00046 0.993917
1.00208 0.999739 0.990648
1.00172 0.999875 0.991442
1.00264 0.999685 0.989896
1.00235 0.999774 0.990014
1.00161 1.00038 0.991064
1.0025 0.999797 0.989989
0.999618 0.999068 0.996094
1.00167 1.00038 0.990877
0.999863 1.00124 0.9935
1.00027 1.00166 0.992176
1.00101 1.00156 0.991267
1.00157 1.0006 0.990949
1.00003 1.00079 0.993675
1.00007 1.00008 0.994287
1.00021 1.00158 0.992548
0.999686 1.00046 0.994547
0.999569 0.997456 0.999175
0.999787 0.998457 0.99641
0.999406 1.00054 0.995033
1.00065 1.00076 0.992455
0.99959 0.999092 0.996126
0.999846 1.00141 0.993374
1.00007 1.00118 0.993165
1.00033 1.00156 0.992237
0.999695 0.998777 0.996275
0.99984 0.998227 0.996551
1.00006 1.00043 0.993945
1.00101 1.00052 0.991995
1.0003 1.00102 0.992893
1.00124 1.00082 0.991283
0.999919 1.00109 0.993581
1.00053 1.00125 0.992237
1.00015 1.00194 0.992321
1.00042 1.00182 0.991852
0.999887 0.998001 0.996701
1.00003 1.00068 0.993753
1.00008 1.00012 0.994219
1.00021 1.00147 0.992672
1.00166 1.00048 0.990802
1.00081 1.00111 0.991854
1.00156 1.00078 0.990691
1.00014 1.00183 0.992486
1.00072 1.00135 0.991812
1.00019 1.00247 0.991729
1.00053 1.00184 0.99154
1.00014 0.999161 0.995082
0.999962 0.9976 0.996951
0.999794 0.996676 0.99929
0.999747 0.996845 0.999266
0.999698 0.997026 0.999241
0.999824 0.998179 0.996622
0.999632 0.99724 0.999213
0.999772 0.998497 0.996406
0.999572 0.997477 0.999159
0.999843 1.00025 0.994429
1.00011 0.999988 0.994158
1.00154 1.00015 0.991319
1.00195 0.999836 0.990816
1.0004 0.999908 0.993659
0.999317 0.999987 0.998461
1.00045 0.999906 0.993566
1.00215 0.999736 0.99051
1.00175 0.999967 0.991088
1.00272 0.999658 0.989542
1.00131 1.00032 0.99161
1.00228 0.999928 0.990137
1.0022 0.999702 0.990447
1.00292 0.999586 0.989198
1.00251 0.999741 0.989858
1.00305 0.999377 0.989193
1.00199 1.00019 0.990441
1.00266 0.999589 0.989725
1.00036 0.999941 0.993724
1.00014 0.99996 0.994668
1.00185 0.999806 0.99084
1.00162 1.00008 0.991671
0.999474 0.997724 0.999109
0.999527 0.999457 0.996512
0.999961 1.00133 0.993623
1.00102 1.0005 0.992189
1.00208 1.00005 0.990281
1.00134 1.00064 0.99147
1.00057 1.00145 0.991812
1.00132 1.00085 0.991092
0.999691 0.998838 0.996231
1.00007 1.00044 0.993919
1.00207 0.999736 0.990584
1.00173 0.999881 0.991441
1.00264 0.999664 0.989844
1.00236 0.999821 0.990127
0.999613 0.999109 0.996092
0.999888 1.00122 0.993504
1.00027 1.00166 0.992247
1.00164 1.0004 0.991057
1.00248 0.999736 0.989967
1.00096 1.00157 0.991187
1.00168 1.00037 0.990878
1.00154 1.00058 0.990938
1.00004 1.00075 0.993682
1.00022 1.00155 0.992537
1.00007 1.00009 0.994281
1.00282 0.999635 0.98957
1.00251 0.999688 0.990013
1.003 0.999524 0.989248
1.00278 0.999476 0.989608
1.00196 1.00003 0.99054
1.00271 0.99928 0.990036
0.999935 1.00105 0.993576
1.00186 1.00004 0.990821
1.00018 1.00164 0.992535
1.00044 1.002 0.991518
1.00118 1.0016 0.990763
1.00169 1.00032 0.991141
1.00008 0.999698 0.994643
1.00022 1.00155 0.992561
1.00019 1.00143 0.992635
1.00022 1.0021 0.992104
1.00101 1.00051 0.992004
0.999842 0.998202 0.996562
0.999704 0.998736 0.99628
1.00006 1.00044 0.993944
1.00029 1.00101 0.992901
1.00123 1.00082 0.991286
0.999891 1.00113 0.99358
1.00015 1.00195 0.992316
1.00054 1.00125 0.992278
1.00041 1.00182 0.99181
0.999885 0.997984 0.99671
1.00002 1.00072 0.993749
1.00008 1.00012 0.994223
1.0002 1.00148 0.992663
1.00166 1.00048 0.990798
1.0008 1.00111 0.991864
1.00156 1.00078 0.990694
1.00012 1.00184 0.992489
1.00073 1.00136 0.991855
1.0002 1.00248 0.99171
1.00051 1.00181 0.991656
0.999927 0.997781 0.996846
1.00009 0.999814 0.994508
1.00021 1.00156 0.992601
1.0002 1.00129 0.992858
1.0002 1.00209 0.992054
1.00201 1.00034 0.990245
1.00104 1.00115 0.991342
1.00168 1.00078 0.990466
1.00014 1.00249 0.991848
1.00081 1.00145 0.991519
1.00029 1.00272 0.991035
1.00013 0.999321 0.994938
1.00016 1.00032 0.993919
1.00014 0.999037 0.9952
1.00013 0.999169 0.995082
0.999983 0.997422 0.997493
0.999956 0.997584 0.997188
0.999871 0.99653 0.998415
0.999801 0.996652 0.9993
0.999754 0.996819 0.999277
0.999863 0.99793 0.9968
0.999682 0.997014 0.999258
0.999823 0.998204 0.996608
0.999627 0.997267 0.999199
0.999764 0.998537 0.996394
0.99956 0.997498 0.999148
1.0013 1.00033 0.991618
1.00175 0.999974 0.99109
1.00228 0.999932 0.990137
1.00272 0.999663 0.989541
1.00215 0.999733 0.990512
1.00046 0.999909 0.993562
1.00221 0.999697 0.990443
1.00292 0.999587 0.989202
1.00251 0.999748 0.989861
1.00307 0.999363 0.989164
1.00199 1.00019 0.990436
1.00266 0.999599 0.989725
1.00297 0.99957 0.989122
1.00321 0.999373 0.988839
1.00291 0.999387 0.989442
1.00326 0.999066 0.989146
1.00235 0.999941 0.989979
1.00287 0.998984 0.989941
1.00205 0.999735 0.99052
1.00173 0.999879 0.99144
1.00264 0.999647 0.989792
1.00237 0.99987 0.99024
0.999609 0.999148 0.996091
0.999913 1.00119 0.993508
1.00027 1.00165 0.992318
1.00168 1.00042 0.991051
1.00247 0.999674 0.989945
1.00168 1.00037 0.990879
1.00092 1.00158 0.991107
1.00151 1.00057 0.990927
1.00005 1.00071 0.993689
1.00023 1.00152 0.992526
1.00006 1.00009 0.994276
1.00282 0.999629 0.989465
1.00252 0.999666 0.990014
1.00299 0.999504 0.989196
1.0028 0.999495 0.989626
0.999959 1.001 0.993582
1.00021 1.00163 0.992526
1.00043 1.00202 0.991601
1.00199 1.00008 0.99057
1.00269 0.999181 0.990086
1.00112 1.00166 0.990687
1.00187 1.00004 0.990824
1.00166 1.00023 0.991177
1.00023 1.00153 0.992571
1.00023 1.00209 0.992055
1.00008 0.999712 0.994636
1.0002 1.00139 0.992684
1.00313 0.999509 0.988907
1.00296 0.999439 0.989397
1.00318 0.999393 0.988953
1.003 0.999081 0.989542
1.00219 0.999573 0.990587
1.00292 0.998645 0.990262
1.00018 1.00159 0.992603
1.00194 0.999466 0.991225
1.00022 1.002 0.991975
1.0006 1.00243 0.990936
1.00128 1.00168 0.990385
1.00181 1.0001 0.991154
1.00009 0.999455 0.994869
1.00019 1.00103 0.99302
1.00025 1.00189 0.992167
1.00016 1.00224 0.992009
1.00026 1.00219 0.991926
0.999883 0.997967 0.99672
1.00166 1.00049 0.990794
1.00008 1.00011 0.994227
1 1.00076 0.993746
1.0002 1.00149 0.992655
1.00078 1.00111 0.991874
1.00156 1.00078 0.990697
1.0001 1.00186 0.992493
1.00021 1.00249 0.991692
1.00074 1.00137 0.991898
1.00049 1.00179 0.991772
0.999925 0.997767 0.996853
1.00009 0.999804 0.994513
1.00019 1.00158 0.992597
1.00019 1.00131 0.992853
1.0002 1.0021 0.992041
1.00202 1.00034 0.990239
1.00104 1.00116 0.991345
1.00168 1.00079 0.990443
1.00012 1.00249 0.991859
1.00082 1.00146 0.99155
1.00035 1.0027 0.991093
1.00011 0.999542 0.994751
1.0002 1.001 0.993137
1.00022 1.00214 0.992003
1.00018 1.00205 0.992162
1.00018 1.00242 0.991785
1.00216 1.00017 0.990089
1.00116 1.00119 0.991073
1.00158 1.00068 0.990616
1.00012 1.00307 0.991242
1.00074 1.00246 0.990669
1.00012 0.999322 0.994941
1.00019 1.00049 0.993571
1.00016 1.00033 0.993845
1.00014 1.0012 0.993201
1.00013 1.00025 0.994011
1.00015 0.998943 0.995289
1.00014 0.999048 0.995199
1.00002 0.997269 0.99757
1.00013 0.999178 0.995083
0.999987 0.997415 0.997505
0.999922 0.996363 0.998476
0.99995 0.997569 0.997422
0.999858 0.996497 0.998872
0.999807 0.996631 0.999309
0.999902 0.997728 0.99693
0.999867 0.997943 0.99679
0.999737 0.996801 0.999295
0.999678 0.997045 0.999244
0.999823 0.998229 0.996594
0.999621 0.997295 0.999185
1.002 1.00019 0.990432
1.00251 0.99975 0.989864
1.00266 0.999608 0.989724
1.00309 0.99935 0.989135
1.00293 0.999586 0.989205
1.00221 0.999692 0.990439
1.00298 0.999566 0.989123
1.00323 0.999394 0.988786
1.00291 0.999395 0.989445
1.00327 0.999035 0.989145
1.00236 0.999949 0.989967
1.00288 0.998946 0.989949
1.00327 0.999449 0.988653
1.00334 0.999278 0.988712
1.00314 0.99879 0.989495
1.00338 0.998957 0.989112
1.00256 0.999452 0.990001
1.00311 0.998407 0.990169
1.00283 0.99962 0.98936
1.00253 0.999647 0.990014
1.00299 0.999484 0.989143
1.00281 0.99951 0.989644
0.999982 1.00096 0.993588
1.00023 1.00162 0.992518
1.00041 1.00203 0.991683
1.00201 1.00014 0.9906
1.00268 0.999081 0.990135
1.00187 1.00003 0.990828
1.00107 1.00172 0.990612
1.00163 1.00015 0.991213
1.00024 1.00152 0.992582
1.00024 1.00208 0.992005
1.00007 0.999725 0.994629
1.0002 1.00134 0.992734
1.00313 0.999509 0.98891
1.00296 0.999435 0.989411
1.00315 0.999399 0.988966
1.00301 0.999082 0.989555
1.0002 1.00157 0.992604
1.00022 1.00198 0.99204
1.00059 1.00247 0.99093
1.00222 0.999647 0.99055
1.00281 0.998576 0.990457
1.00126 1.00175 0.990344
1.00193 0.999481 0.991239
1.00175 0.999898 0.991274
1.00026 1.00189 0.992169
1.00027 1.00216 0.991919
1.00016 1.00227 0.991993
1.00009 0.999456 0.99478
1.0002 1.00097 0.993073
1.00331 0.999425 0.988662
1.00326 0.999223 0.988927
1.00318 0.998588 0.989698
1.00248 0.998712 0.990877
1.00022 1.00188 0.992236
1.00218 0.998816 0.991626
1.00016 1.00239 0.991559
1.00077 1.00293 0.990117
1.00152 1.00161 0.990032
1.0001 0.999283 0.994863
1.00019 1.00066 0.993546
1.00013 1.00193 0.992366
1.00028 1.00196 0.992071
1.00017 1.00271 0.991568
1.00031 1.00216 0.991782
0.999922 0.997755 0.996859
1.0001 0.999795 0.994518
1.00203 1.00033 0.990232
1.00019 1.00132 0.992848
1.00018 1.00159 0.992593
1.00019 1.0021 0.992028
1.00103 1.00116 0.991348
1.00168 1.00079 0.99042
1.0001 1.00248 0.991869
1.0004 1.00267 0.991151
1.00083 1.00146 0.991581
1.00011 0.999534 0.994756
1.0002 1.00101 0.993135
1.00021 1.00213 0.992041
1.00018 1.00207 0.992154
1.00017 1.00245 0.991752
1.00216 1.00021 0.990072
1.00117 1.00118 0.991054
1.00163 1.00063 0.990642
1.0001 1.00307 0.991197
1.00074 1.00257 0.990566
1.0002 1.00072 0.993427
1.0002 1.00186 0.992253
1.00019 1.00264 0.991605
1.00018 1.00249 0.99167
1.00023 1.00255 0.991527
1.00244 0.998854 0.990814
1.00124 1.0018 0.990434
1.00169 1.00019 0.99049
1.00034 1.00341 0.990726
1.00067 1.00301 0.989698
1.00012 0.999324 0.994944
1.00018 1.00049 0.993619
1.00017 1.00137 0.992764
1.00017 1.00034 0.99377
1.00013 1.00026 0.99401
1.00014 1.0012 0.993096
1.00013 1.00185 0.992536
1.00012 1.00114 0.993097
1.00012 1.0002 0.994092
1.00015 0.998896 0.99533
1.00014 0.998945 0.99529
1.00005 0.997137 0.997628
1.00013 0.999058 0.995199
1.00002 0.997265 0.99758
0.999962 0.996223 0.998527
0.999991 0.997407 0.997516
0.999916 0.996337 0.998473
0.999841 0.996458 0.999333
0.999941 0.997557 0.997025
0.999906 0.997735 0.996923
0.999793 0.996612 0.999323
0.999871 0.997955 0.99678
0.999731 0.996828 0.999285
0.999673 0.997075 0.99923
1.00236 0.999957 0.989956
1.00291 0.999406 0.989449
1.0029 0.998909 0.989957
1.00328 0.999007 0.989143
1.00325 0.999415 0.988734
1.00298 0.999563 0.989124
1.00329 0.999456 0.988632
1.00333 0.999289 0.988731
1.00317 0.998818 0.98944
1.00336 0.99892 0.989089
1.00255 0.999507 0.989996
1.00306 0.998238 0.990336
1.00341 0.999387 0.988475
1.00335 0.999182 0.988819
1.00333 0.998462 0.989541
1.00289 0.998284 0.990617
1.00313 0.999509 0.988913
1.00296 0.99943 0.989425
1.00312 0.999403 0.988979
1.00302 0.999085 0.989567
1.00022 1.00155 0.992605
1.00023 1.00196 0.992105
1.00057 1.00251 0.990924
1.00224 0.999721 0.990513
1.0027 0.998509 0.990652
1.00192 0.999496 0.991253
1.00125 1.00182 0.990303
1.00171 0.999708 0.991394
1.00027 1.00189 0.992171
1.00027 1.00213 0.991912
1.00015 1.0023 0.991977
1.00009 0.999459 0.994691
1.00022 1.00092 0.993126
1.00328 0.999407 0.988705
1.00325 0.999239 0.988958
1.00315 0.998624 0.989772
1.00025 1.00187 0.992228
1.00022 1.00238 0.991643
1.00073 1.003 0.990101
1.00251 0.998772 0.990799
1.00148 1.00146 0.990221
1.00211 0.998812 0.991589
1.0001 0.99926 0.994884
1.00028 1.00197 0.992064
1.0003 1.00211 0.991842
1.00018 1.00272 0.991546
1.00014 1.00193 0.992399
1.0002 1.00066 0.993472
1.00335 0.999373 0.988673
1.00345 0.998978 0.98881
1.00311 0.998228 0.990092
1.00284 0.99752 0.991469
1.00023 1.00209 0.992011
1.00199 1.00011 0.990542
1.00027 1.00313 0.990744
1.00092 1.00342 0.98946
1.00011 0.999129 0.995011
1.00018 1.0004 0.993855
1.00016 1.00161 0.992727
1.00013 1.00273 0.991577
1.00029 1.00212 0.991872
1.00026 1.00258 0.991457
1.00011 0.999524 0.99476
1.0002 1.00102 0.993133
1.00215 1.00025 0.990056
1.00017 1.00208 0.992145
1.00019 1.00212 0.99208
1.00016 1.00248 0.991719
1.00119 1.00117 0.991035
1.00168 1.00058 0.990668
1.00008 1.00308 0.991152
1.00074 1.00268 0.990463
1.0002 1.00071 0.993429
1.00019 1.00187 0.992273
1.00018 1.00262 0.99166
1.00017 1.00251 0.991698
1.0002 1.00258 0.991574
1.00251 0.998891 0.990818
1.00128 1.0017 0.990464
1.00168 1.00023 0.990732
1.00029 1.00343 0.990668
1.00075 1.00323 0.989591
1.00019 1.00159 0.992532
1.00019 1.00251 0.991613
1.00021 1.00305 0.991162
1.00018 1.00279 0.99126
1.00357 0.997303 0.990541
1.00253 0.998329 0.990977
1.00134 1.00233 0.989584
1.0003 1.00419 0.98951
1.00018 1.0005 0.993667
1.00017 1.00139 0.992804
1.00016 1.00203 0.992229
1.00014 1.00027 0.994009
1.00015 1.0012 0.992991
1.00012 1.0002 0.994092
1.00014 1.00186 0.992451
1.00012 1.00113 0.993138
1.00015 1.00235 0.991972
1.00012 1.00176 0.992485
1.0001 1.0011 0.993175
1.00012 1.00015 0.994158
1.00014 0.998893 0.995339
1.00015 0.99889 0.995333
1.00007 0.997072 0.997641
1.00014 0.998946 0.995291
1.00005 0.997144 0.997633
0.999998 0.996108 0.99856
1.00002 0.997261 0.997591
0.999958 0.996195 0.998523
0.99991 0.996311 0.998469
0.99998 0.997393 0.997113
0.999945 0.997563 0.997021
0.999847 0.996443 0.999345
0.999912 0.997742 0.996917
0.999787 0.996635 0.999315
0.999725 0.996855 0.999274
1.00255 0.999561 0.989991
1.00321 0.998845 0.989384
1.003 0.998069 0.990502
1.00334 0.998879 0.989065
1.00332 0.999298 0.98875
1.0033 0.999463 0.988611
1.00338 0.999391 0.988537
1.00333 0.999179 0.988825
1.00331 0.998456 0.989571
1.00291 0.998204 0.990589
1.00335 0.99936 0.988637
1.0034 0.998825 0.989153
1.00335 0.997942 0.989973
1.00324 0.99939 0.988748
1.00324 0.999255 0.98899
1.00311 0.998657 0.989847
1.00026 1.00186 0.99222
1.00029 1.00236 0.991728
1.0007 1.00308 0.990086
1.00254 0.998829 0.990721
1.00204 0.998811 0.991552
1.00145 1.00132 0.990411
1.00028 1.00198 0.992056
1.00028 1.00206 0.991902
1.00018 1.00274 0.991524
1.0001 0.999237 0.994904
1.00015 1.00191 0.992432
1.0002 1.00065 0.993398
1.00334 0.999366 0.988657
1.00346 0.998958 0.988803
1.00315 0.998288 0.989988
1.00025 1.00209 0.991993
1.00025 1.00306 0.99089
1.00093 1.00338 0.989491
1.00278 0.997598 0.991522
1.00201 1.00001 0.990532
1.00011 0.999115 0.995101
1.00017 1.0004 0.993859
1.00026 1.00212 0.991868
1.00027 1.00255 0.991491
1.00013 1.0027 0.991609
1.00016 1.00163 0.99266
1.00337 0.999214 0.988733
1.00354 0.998638 0.988954
1.00332 0.996843 0.991076
1.00288 0.997697 0.99158
1.00013 1.00259 0.991619
1.00123 1.00323 0.988966
1.00044 1.00377 0.990138
1.00012 0.99897 0.995301
1.00013 0.999981 0.994308
1.00015 1.00025 0.993882
1.00015 1.00139 0.992908
1.00011 1.00237 0.99193
1.00012 1.00326 0.991062
1.0003 1.002 0.991799
1.00021 1.00324 0.991346
1.0002 1.00071 0.993432
1.00019 1.00189 0.992293
1.00259 0.998924 0.990822
1.00016 1.00254 0.991725
1.00017 1.00259 0.991715
1.00015 1.0026 0.991622
1.00132 1.00159 0.990494
1.00168 1.00027 0.990974
1.00023 1.00344 0.99061
1.00083 1.00343 0.989485
1.00019 1.00162 0.992491
1.00019 1.00249 0.991663
1.00019 1.00301 0.99122
1.00022 1.0028 0.991306
1.00353 0.997215 0.990538
1.00247 0.998595 0.99095
1.00139 1.00225 0.989705
1.00038 1.00416 0.989446
1.00016 1.00229 0.99197
1.00376 0.9976 0.989565
1.00018 1.00304 0.991236
1.00022 1.00352 0.990641
1.0038 0.996448 0.990617
1.00211 1.00086 0.98944
1.00078 1.00432 0.988983
1.00017 1.00141 0.992844
1.00015 1.00204 0.992231
1.00014 1.00256 0.99173
1.00012 1.0002 0.994092
1.00012 1.00113 0.993179
1.00015 1.00187 0.992366
1.00013 1.00013 0.994162
1.0001 1.0011 0.993165
1.00016 1.00235 0.991903
1.00011 1.00177 0.992567
1.00022 1.00261 0.99156
1.00017 1.00225 0.991935
1.00011 1.00169 0.992682
1.00009 1.001 0.993377
1.00013 1.0001 0.994192
1.00013 0.998903 0.995342
1.00014 0.998892 0.99534
1.00008 0.997064 0.997625
1.00015 0.998885 0.995335
1.00007 0.997092 0.997639
1.00003 0.996055 0.998555
1.00005 0.997152 0.997638
0.999996 0.996078 0.99856
0.999954 0.996167 0.998519
1.00014 0.998827 0.99542
1.00002 0.997236 0.997197
0.999983 0.997403 0.99711
0.999896 0.996287 0.999367
0.999949 0.99757 0.997017
0.99984 0.996465 0.999339
0.99978 0.996657 0.999307
1.00293 0.998126 0.99056
1.0033 0.998449 0.989602
1.00332 0.999177 0.988832
1.00335 0.999397 0.9886
1.00334 0.999367 0.988649
1.0034 0.99884 0.989094
1.00331 0.997923 0.990074
1.00329 0.999183 0.988945
1.00351 0.998467 0.989294
1.00345 0.997992 0.989452
1.00333 0.999358 0.988642
1.00347 0.998943 0.988797
1.00321 0.998348 0.989883
1.00027 1.00209 0.991976
1.00022 1.00299 0.991035
1.00094 1.00332 0.989521
1.00271 0.997672 0.991576
1.00202 0.999921 0.990522
1.00023 1.00212 0.991863
1.00027 1.00252 0.991526
1.00013 1.00267 0.991641
1.00011 0.9991 0.99519
1.00017 1.00039 0.993864
1.00016 1.00166 0.992594
1.00336 0.999189 0.988781
1.00013 0.998967 0.995298
1.00012 0.99998 0.994257
1.00357 0.998623 0.988951
1.00327 0.997056 0.990896
1.00011 1.00254 0.991696
1.00044 1.00391 0.98995
1.00123 1.00305 0.989024
1.00278 0.997654 0.991546
1.00014 1.00026 0.994027
1.00014 1.00139 0.992907
1.00035 1.00207 0.99176
1.00016 1.00287 0.991526
1.00009 1.00334 0.990971
1.00013 1.00235 0.991936
1.00336 0.998796 0.989164
1.0036 0.998142 0.989489
1.00362 0.995363 0.992136
1.00204 1.00053 0.989921
1.00019 1.00288 0.99136
1.00067 1.00467 0.988847
1.00011 0.999881 0.994316
1.00013 1.00011 0.994165
1.00007 1.00093 0.993618
1.00012 1.00124 0.992994
1.00013 1.00214 0.992251
1.00006 1.00298 0.991342
0.999999 1.00407 0.990595
1.00006 1.00281 0.991588
1.00019 1.00165 0.992451
1.00018 1.00248 0.991714
1.00349 0.997141 0.990534
1.00241 0.998881 0.990923
1.00025 1.00282 0.991353
1.00018 1.00298 0.991277
1.00145 1.00219 0.989826
1.00046 1.00414 0.989382
1.00015 1.00229 0.991969
1.00372 0.997541 0.989559
1.00017 1.003 0.99125
1.00024 1.00349 0.990522
1.00373 0.996483 0.990533
1.00222 1.00079 0.989471
1.00072 1.0044 0.988991
1.00012 1.00293 0.991432
1.00467 0.996097 0.98937
1.00034 1.00318 0.990924
1.00044 1.00427 0.989759
1.00341 0.997607 0.989764
1.00111 1.00344 0.988756
1.00273 1.00129 0.989087
1.00015 1.00205 0.992232
1.00013 1.00257 0.991733
1.00022 1.00277 0.991412
1.00013 1.00012 0.994166
1.0001 1.00111 0.993155
1.00011 1.00178 0.992648
1.00017 1.00236 0.991833
1.00013 1.00009 0.994192
1.00009 1.00101 0.993318
1.00022 1.0026 0.991528
1.00011 1.00169 0.992679
1.00015 1.00225 0.992009
1.0003 1.00252 0.991456
1.00012 1.00208 0.992298
1.00012 1.00159 0.992795
1.0001 1.00094 0.993303
1.00013 1.0001 0.994073
1.00009 1.00099 0.993492
1.00012 1.00012 0.994068
1.00013 0.998914 0.99534
1.00013 0.998905 0.995341
1.0001 0.997081 0.997197
1.00014 0.998891 0.99534
1.00009 0.997084 0.997412
1.00002 0.996001 0.999383
1.00007 0.997111 0.997637
1.00003 0.996021 0.998558
0.999994 0.996048 0.998558
1.00015 0.998713 0.995517
1.00014 0.998823 0.995419
1.00005 0.997099 0.997274
1.00001 0.997244 0.997402
0.999939 0.99615 0.999386
0.999985 0.997413 0.997106
0.99989 0.996308 0.999361
0.999834 0.996486 0.999332
1.00326 0.997901 0.990175
1.0034 0.99886 0.989035
1.00333 0.999376 0.988661
1.00329 0.999176 0.98894
1.00341 0.998476 0.989377
1.00351 0.99823 0.98932
1.0033 0.998665 0.989453
1.00393 0.99684 0.990107
1.00393 0.997296 0.989627
1.00012 0.999818 0.994492
1.00334 0.999162 0.98883
1.0036 0.998603 0.988948
1.00322 0.997262 0.990716
1.0001 1.00249 0.991773
1.00044 1.00407 0.989761
1.00124 1.0028 0.989083
1.0027 0.997647 0.991512
1.00039 1.00212 0.991721
1.00012 1.00253 0.991705
1.00006 1.00344 0.990879
1.00013 0.998966 0.995296
1.00015 1.00233 0.991943
1.00014 1.00026 0.994172
1.00014 1.00138 0.992907
1.00011 0.999976 0.994206
1.00339 0.998753 0.989158
1.00012 0.999875 0.994375
1.00012 1.00013 0.994161
1.00008 1.00091 0.993503
1.00364 0.99792 0.989523
1.00348 0.995728 0.991894
1.00022 1.00266 0.991412
1.00052 1.00476 0.98876
1.00202 1.00056 0.989975
1.00011 1.00123 0.993077
1.00013 1.00215 0.992211
1.00006 1.00287 0.991485
0.999995 1.00397 0.99068
1.00007 1.00297 0.991405
1.00351 0.998275 0.989225
1.00392 0.996732 0.990243
1.00335 0.997638 0.990536
1.0011 1.00354 0.989002
1.00008 1.0037 0.990686
1.00006 1.00079 0.993511
1.00009 1.00108 0.993225
1.00007 1.00162 0.992883
1.00008 1.00201 0.992407
1.0001 1.00264 0.991744
0.999977 1.0036 0.991012
0.99984 1.00443 0.990403
1.00014 1.0023 0.991967
1.00015 1.00295 0.991263
1.0037 0.997461 0.989553
1.00366 0.996497 0.990449
1.00233 1.00071 0.989501
1.00025 1.00349 0.990404
1.00065 1.00445 0.989
1.00012 1.00289 0.991482
1.00466 0.995921 0.989341
1.00028 1.00314 0.990958
1.00028 1.00437 0.989745
1.00354 0.997471 0.989888
1.00111 1.00359 0.988743
1.00279 1.0002 0.989242
1.0002 1.00306 0.991172
1.00469 0.995771 0.989905
1.0002 1.00358 0.990738
1.00007 1.00488 0.98949
1.00164 1.00146 0.989196
0.998097 0.998507 0.971307
0.998606 1.00225 0.984366
1.00219 0.999921 0.991013
0.995074 0.997237 0.977759
0.996376 0.995311 0.979535
1.00012 1.00258 0.991735
1.0002 1.00278 0.991429
1.00036 1.00259 0.991292
1.00013 1.00009 0.994192
1.00009 1.00102 0.993259
1.00011 1.00169 0.992676
1.00014 1.00226 0.992083
1.00023 1.0026 0.991497
1.00012 1.0016 0.992721
1.00013 1.0001 0.994125
1.0001 1.00094 0.993367
1.00027 1.00253 0.991496
1.00013 1.00206 0.992268
1.00011 1.00199 0.992361
1.00021 1.0024 0.991795
1.00014 1.00156 0.992626
1.00011 1.00092 0.993316
1.00012 1.0001 0.994074
1.00011 1.00094 0.993422
1.00012 1.0016 0.992815
1.00009 1.00107 0.993304
1.00009 1.00099 0.99339
1.00012 1.00014 0.994163
1.00012 1.00012 0.994069
1.00013 0.998933 0.995323
1.00013 0.998913 0.99534
1.0001 0.997106 0.997196
1.00013 0.998907 0.995341
1.0001 0.997082 0.997197
1.00002 0.995987 0.999383
1.0001 0.997104 0.997199
1.00003 0.995998 0.998963
1.00003 0.995987 0.99856
1.00015 0.998637 0.995578
1.00015 0.998707 0.995517
1.00007 0.99699 0.997338
1.00014 0.998819 0.995418
1.00005 0.997095 0.997478
0.999974 0.996035 0.999404
1.00002 0.997263 0.997182
0.999932 0.996189 0.999378
0.999884 0.996331 0.999354
1.0033 0.998486 0.989461
1.00329 0.999167 0.988935
1.00352 0.998484 0.989188
1.00385 0.996976 0.990208
1.00331 0.99865 0.989353
1.00372 0.997613 0.989432
1.00373 0.998694 0.988439
0.999232 0.998081 0.984255
1.00368 0.99779 0.99059
1.00011 0.999802 0.994519
1.00012 0.999816 0.994492
1.00005 1.0007 0.993749
1.00006 1.00066 0.993775
1.00342 0.998723 0.989152
1.00368 0.997763 0.989557
1.00334 0.996065 0.991652
1.00026 1.00247 0.991463
1.00036 1.0049 0.988673
1.00198 1.00049 0.990031
1.00006 1.00294 0.991382
0.999991 1.00384 0.990765
1.00008 1.00295 0.991468
1.00012 1.00013 0.994158
1.00013 1.00215 0.992171
1.00011 1.00121 0.99316
1.00013 0.99987 0.994433
1.00007 1.0009 0.993389
1.00349 0.998331 0.989337
1.00006 1.0008 0.993627
1.00009 1.00105 0.993294
1.00008 1.00155 0.992862
1.00395 0.996517 0.990307
1.00321 0.997531 0.990534
1.00012 1.00364 0.990681
1.00103 1.00368 0.988929
1.00008 1.00201 0.992444
1.00011 1.00259 0.991752
0.999853 1.00441 0.990407
0.999998 1.00372 0.990914
1.00415 0.996679 0.989336
1.00437 0.996163 0.989605
1.0021 1.0024 0.98835
1.00005 1.00446 0.990023
1.00006 1.00175 0.992638
1.00005 1.00184 0.99258
1.00008 1.00282 0.991581
0.999987 1.00449 0.990117
0.997409 0.999268 0.967865
1.0001 1.00286 0.991532
1.00021 1.00309 0.990991
1.00465 0.995697 0.989311
1.00364 0.997262 0.990011
1.00109 1.00373 0.98873
1.00012 1.00445 0.989731
1.00272 0.999239 0.989398
1.00017 1.00307 0.991204
1.0047 0.99562 0.989796
1.00014 1.00357 0.990748
1.00006 1.0049 0.989524
1.00169 1.0014 0.989235
0.997803 0.997929 0.97113
0.998218 1.00154 0.98139
1.00224 0.999346 0.991397
0.995021 0.997846 0.976869
0.996254 0.99487 0.979034
1.00011 1.00308 0.991303
0.995938 0.996274 0.974959
0.997544 0.995253 0.981808
1.00339 0.99687 0.990897
1.00004 1.00356 0.990754
0.999985 1.00493 0.990053
1.0021 0.999486 0.992508
0.997086 0.999901 0.970343
0.997604 1.00353 0.980029
0.994724 1.00039 0.976069
1.00131 0.995814 0.979155
1.00017 1.00278 0.991445
1.00034 1.00263 0.991303
1.00048 1.00244 0.991261
1.00013 1.00011 0.994177
1.0001 1.00094 0.99343
1.00013 1.00161 0.992646
1.00014 1.00205 0.992238
1.00024 1.00254 0.991536
1.00012 1.0001 0.994073
1.00012 1.00195 0.992368
1.00014 1.00158 0.992715
1.00012 1.00091 0.993377
1.00022 1.0024 0.991711
1.00018 1.00209 0.992093
1.00014 1.00294 0.991438
1.00014 1.00149 0.992786
1.00012 1.00091 0.993423
1.00011 1.00094 0.993423
1.00012 1.00161 0.992727
1.00014 1.00152 0.992774
1.00011 1.00172 0.992621
1.00016 1.00199 0.992288
1.00004 1.00233 0.992124
1.00009 1.00121 0.993144
1.00009 1.00107 0.993302
1.00012 1.00019 0.994115
1.00009 1.001 0.993287
1.00012 1.00015 0.994109
1.00013 0.99898 0.995282
1.00012 1.00013 0.994071
1.00013 0.998931 0.995323
1.00007 0.997135 0.997617
1.00013 0.998913 0.995341
1.00009 0.9971 0.997408
1.00005 0.995992 0.998539
1.0001 0.997084 0.997197
1.00002 0.995985 0.999383
1.00005 0.995995 0.998542
1.00011 0.999831 0.994489
1.00015 0.998618 0.995597
1.00016 0.998634 0.995577
1.00009 0.996919 0.997381
1.00015 0.9987 0.995516
1.00008 0.996984 0.997341
0.999999 0.995946 0.999419
1.00004 0.99711 0.997669
0.999982 0.996074 0.998984
0.999958 0.996214 0.998539
1.00364 0.997318 0.990312
1.00336 0.998638 0.989254
1.0035 0.997928 0.989238
0.999021 0.998202 0.986428
1.00355 0.997941 0.990704
1.00376 0.998493 0.988349
1.00407 0.998576 0.98991
0.999235 0.99912 0.98539
0.997259 0.999879 0.966333
0.995657 0.997016 0.973977
0.99631 0.994363 0.979869
1.00004 1.00066 0.993678
1.00011 0.999805 0.994518
1.00012 0.999817 0.994491
1.00005 1.00071 0.993707
1.00003 1.00136 0.993169
1.00006 1.00122 0.993255
1.00007 1.00078 0.993663
1.00006 1.00067 0.993725
1.00348 0.998387 0.98945
1.004 0.996233 0.990372
1.00308 0.997498 0.990531
1.00015 1.00354 0.990677
1.00099 1.00393 0.988856
0.999867 1.00439 0.990411
1.00002 1.00384 0.990817
1.00011 1.00255 0.991761
1.00008 1.00103 0.993363
1.00007 1.00201 0.992481
1.00006 1.00082 0.993743
1.00008 1.0015 0.992842
1.00418 0.997066 0.989171
1.00005 1.00174 0.992687
1.00005 1.00186 0.99258
1.00437 0.996232 0.989584
1.00183 1.00199 0.988612
1.00013 1.00449 0.989868
1.0001 1.00284 0.991535
1.00001 1.00443 0.990141
1.00482 0.997265 0.988306
1.00321 1.00028 0.988352
1.00023 1.00464 0.988968
1.00004 1.0047 0.989801
1.00003 1.00221 0.992211
1.0001 1.00257 0.991783
1.00011 1.0037 0.990734
0.996853 0.995705 0.974628
0.997876 0.999823 0.970593
1.00014 1.00309 0.991236
1.00007 1.00355 0.990757
1.00473 0.995416 0.989689
1.00183 1.00141 0.989274
1.00004 1.0049 0.989557
0.99813 0.998703 0.966256
0.99823 1.00101 0.985051
1.00231 0.99887 0.991779
0.994877 0.997571 0.975681
0.995984 0.994522 0.978533
1.00015 1.00298 0.991295
0.996541 0.995262 0.976069
0.99708 0.995387 0.981762
1.00345 0.997184 0.990746
0.99997 1.00387 0.99078
0.999862 1.00485 0.990086
1.00217 0.999423 0.992409
0.996643 0.999866 0.968622
0.997542 1.00509 0.982336
0.994689 1.00005 0.974383
1.00044 0.996271 0.97934
1.0005 1.0024 0.991149
0.998262 0.996311 0.983203
1.00668 0.996781 0.980481
1.0009 1.00053 0.991912
0.999707 1.00391 0.991875
1.00141 1.00249 0.995212
0.998475 1.00196 0.98822
0.995089 1.00303 0.968149
0.994976 0.999117 0.97491
1.0069 0.997895 0.975426
1.00032 1.00267 0.991315
1.00046 1.00248 0.991194
1.00015 1.00282 0.991215
1.00013 1.0001 0.994072
1.00012 1.00089 0.993439
1.00014 1.0016 0.992804
1.00012 1.00192 0.992375
1.00023 1.00239 0.991626
1.00012 1.00091 0.993424
1.00016 1.00208 0.992161
1.00014 1.00149 0.992784
1.00012 1.00297 0.991392
1.00012 1.00326 0.991209
1.00016 1.0023 0.992
1.00014 1.00152 0.992775
1.00011 1.00095 0.993423
1.00012 1.00161 0.992639
1.00014 1.00152 0.992773
1.0001 1.00173 0.992617
1.00018 1.00194 0.992276
1.00007 1.00196 0.992418
1.00019 1.00196 0.99227
1.0002 1.00213 0.991955
1.00013 1.00271 0.991568
0.9999 1.00312 0.991494
1.00002 1.00256 0.991892
1.00004 1.00233 0.992129
1.00009 1.00148 0.992894
1.00009 1.00123 0.993139
1.00013 1.00028 0.994011
1.00008 1.00108 0.993301
1.00012 1.00019 0.994113
1.00012 0.999058 0.995227
1.00011 1.00015 0.994055
1.00013 0.998976 0.995283
1.00004 0.997194 0.997604
1.00013 0.998929 0.995323
1.00007 0.997133 0.997404
1.00003 0.995999 0.99854
1.0001 0.997091 0.997196
1.00002 0.995992 0.999382
1.00002 0.995983 0.999383
1.00012 0.999909 0.994556
1.00015 0.998657 0.995561
1.00011 0.999836 0.994489
1.00009 0.996902 0.997394
1.00015 0.998617 0.995596
1.00016 0.99863 0.995577
1.00009 0.996923 0.99738
1.00001 0.995892 0.999427
1.00006 0.996984 0.997734
1.00001 0.995959 0.999015
1 0.996081 0.998583
0.996526 0.995551 0.976842
0.997445 0.994889 0.982418
0.999193 0.998354 0.988353
1.00346 0.998172 0.990814
1.00378 0.9983 0.988257
0.999323 0.999036 0.989311
1.00417 0.99848 0.989807
0.997961 0.998945 0.970273
0.995009 0.997524 0.977047
0.996226 0.994165 0.979455
1.00085 0.997792 0.992293
0.996427 1.00125 0.970955
0.994887 0.999713 0.976075
0.999171 0.997614 0.978592
1.00003 1.0015 0.992942
1.00005 1.00066 0.993724
1.00011 0.999803 0.994518
1.00004 1.00071 0.993664
1.00002 1.00131 0.993223
1.00004 1.00151 0.993002
1.00006 1.00118 0.993265
1.00008 1.00107 0.993322
1.00007 1.0008 0.993594
1.00005 1.00069 0.993674
1.00417 0.997384 0.989009
1.0043 0.996243 0.989556
1.00152 1.0015 0.988877
1.0002 1.00451 0.989712
1.00003 1.00437 0.990166
1.00012 1.00285 0.991488
1.00005 1.00187 0.99258
1.00004 1.00173 0.992736
1.0049 0.996846 0.988109
1.00003 1.00224 0.992179
1.00012 1.00259 0.991691
1.00299 1.00034 0.988087
1.0002 1.00445 0.989404
1.0001 1.00468 0.989747
1.00015 1.00367 0.990666
1.00352 1.0019 0.987036
1.00054 1.00407 0.989674
1.00005 1.00428 0.990111
1.00004 1.00234 0.992116
1.00015 1.00266 0.991578
1.00027 1.00311 0.990941
0.999566 0.996418 0.980935
0.996514 0.996526 0.973568
0.997482 0.999334 0.967829
1.0002 1.00287 0.991287
0.999917 1.00417 0.990807
1.00349 0.997477 0.990596
0.999719 1.00474 0.990115
0.99701 0.995929 0.973965
0.99632 0.999789 0.973018
0.997504 1.00449 0.979755
1.00213 0.999168 0.992396
0.994786 0.999906 0.976652
0.997144 0.995467 0.981262
0.998977 0.996176 0.980008
1.00042 1.00265 0.991134
0.998245 0.996479 0.982374
1.0063 0.996866 0.980777
1.00101 1.00061 0.991995
0.999463 1.00372 0.991911
1.00213 1.00314 0.99144
0.998407 1.00276 0.983547
0.995438 1.0039 0.968573
0.995875 0.999197 0.977637
1.00417 0.998275 0.97663
0.999828 1.00258 0.99261
1.00952 0.996936 0.98023
1.01725 0.996465 0.970296
0.998386 1.00427 0.993319
0.998713 1.00016 0.995278
0.995534 1.00181 0.969198
0.997484 0.999006 0.978306
1.00414 0.999836 0.976472
1.00044 1.00251 0.991127
1.00026 1.00273 0.991344
1.00027 1.00226 0.991821
1.00012 1.0009 0.993426
1.00014 1.00149 0.992783
1.00014 1.00206 0.992229
1.00009 1.003 0.991347
1.00014 1.00151 0.992775
1.00016 1.00228 0.992001
1.00008 1.00322 0.991216
0.999978 1.00317 0.991654
1.00023 1.00279 0.991326
1.0002 1.002 0.992219
1.00014 1.00152 0.992772
1.0001 1.00173 0.992612
1.0002 1.00189 0.992264
1.00019 1.00194 0.99228
1.00007 1.00199 0.992418
1.00022 1.0021 0.991991
1.0002 1.00241 0.991731
1.00025 1.00226 0.991789
1.00018 1.00283 0.991317
1.00015 1.00271 0.991589
0.999911 1.0032 0.99141
1.00015 1.0032 0.991095
1.00007 1.00253 0.991973
0.999865 1.00301 0.99172
1.00003 1.00254 0.99196
1.00009 1.00178 0.992498
1.00005 1.00234 0.992134
1.00009 1.00148 0.992892
1.00014 1.00045 0.993814
1.00009 1.00124 0.993135
1.00012 1.00029 0.994007
1.0001 0.999159 0.995158
1.00012 1.00019 0.994111
1.00012 0.999049 0.995227
1.00001 0.99729 0.997575
1.00013 0.99897 0.995283
1.00005 0.9972 0.997386
0.999999 0.996072 0.998531
1.00008 0.997124 0.997191
1.00002 0.996011 0.998961
1.00001 0.995996 0.999383
1.00013 1.0001 0.994231
1.00015 0.998739 0.99549
1.00012 0.999916 0.994427
1.00009 0.99694 0.997369
1.00015 0.998657 0.995562
1.00011 0.999843 0.994489
1.00002 0.99588 0.999428
1.00009 0.9969 0.997395
1.00016 0.998615 0.995596
1.00009 0.996926 0.997379
1.00001 0.995899 0.999425
0.999998 0.995952 0.999416
0.998801 0.996345 0.982409
0.996345 0.995845 0.975183
1.008 0.995085 0.979953
0.997362 0.994924 0.982119
0.999402 0.99941 0.984743
1.00427 0.998407 0.989672
0.99745 0.998056 0.974301
0.995533 0.998521 0.974324
0.99612 0.993978 0.979044
1.00073 0.998274 0.989931
0.996649 1.00038 0.968747
0.994827 0.999606 0.974032
0.999794 0.996931 0.978852
0.999292 0.999377 0.990549
0.995689 1.00182 0.968436
0.995057 1.00013 0.976707
1.00461 1.00046 0.975579
1.00006 1.00199 0.992485
1.00003 1.00149 0.993011
1.00006 1.00066 0.99377
1 1.00126 0.993278
1.00008 1.00179 0.992579
1.00005 1.00146 0.993057
1.00006 1.00114 0.993275
1.00011 1.00117 0.99323
1.00008 1.00106 0.993387
1.00007 1.00082 0.993526
1.00503 0.996503 0.987912
1.00281 1.00042 0.987826
1.00019 1.0043 0.98984
1.00016 1.00467 0.989692
1.00018 1.00364 0.990598
1.00013 1.00262 0.991599
1.00004 1.00228 0.992147
1.00005 1.00233 0.992128
1.00358 1.00109 0.987217
1.00013 1.00269 0.991632
1.00027 1.00319 0.990922
1.00054 1.0041 0.989481
1.00015 1.00426 0.990102
1.00159 1.00295 0.988805
0.99989 1.00386 0.991065
1.0003 1.00312 0.990753
1.00017 1.00249 0.991717
1.00034 1.00293 0.990931
1.01131 0.997336 0.978536
0.999435 0.996622 0.981623
0.996599 0.996032 0.97622
1.00034 1.00294 0.991117
0.999211 1.00356 0.99195
1.00113 1.00068 0.992063
0.998112 0.996784 0.982529
0.995425 1.00261 0.96744
0.998291 1.00318 0.985798
1.00304 1.00377 0.987515
0.995372 0.999472 0.974556
1.00584 0.996956 0.981073
1.00354 0.998252 0.977028
0.999785 1.00228 0.992739
1.00947 0.997076 0.980174
1.01701 0.996424 0.97057
0.998529 1.00406 0.99305
0.998911 1.0008 0.992965
0.995568 1.00295 0.96788
1.00655 0.998812 0.975064
0.996271 0.998811 0.97726
0.999238 1.00214 0.993831
1.02448 0.991982 0.966792
1.02151 0.995949 0.965978
1.00442 1.00008 0.976357
0.996283 1.00252 0.996612
0.995568 0.999124 0.973229
0.995009 0.999713 0.979229
1.00037 1.0026 0.991472
1.0004 1.00242 0.991419
1.00015 1.00173 0.992827
1.00014 1.00151 0.992775
1.00016 1.00227 0.992001
1.00005 1.00312 0.991223
1.0002 1.002 0.992233
1.00024 1.00276 0.991315
1.00004 1.00305 0.991473
0.999802 1.00287 0.992
1.00033 1.00239 0.991528
1.0002 1.00193 0.992289
1.00006 1.00202 0.992417
1.00024 1.00207 0.992026
1.00026 1.00223 0.991792
1.00021 1.00236 0.991759
1.00007 1.00291 0.991501
1.00013 1.00281 0.991445
1.00007 1.00398 0.990474
1.00017 1.00271 0.99161
0.999997 1.00322 0.991384
1.00013 1.00358 0.990484
1.00015 1.00304 0.991194
1.00006 1.0026 0.991879
1.0001 1.0032 0.991117
1.00011 1.00198 0.992368
1.00007 1.00256 0.991934
0.999831 1.00289 0.991946
1.00004 1.00253 0.992029
1.00009 1.00176 0.992573
1.00014 1.00073 0.993532
1.00009 1.00149 0.99289
1.00013 1.00046 0.993809
1.00008 0.999292 0.995058
1.00012 1.0003 0.994003
1.0001 0.999151 0.995156
0.999965 0.997415 0.997528
1.00013 0.99904 0.995227
1.00001 0.997302 0.997353
0.999957 0.996175 0.998512
1.00006 0.997194 0.997174
0.999989 0.996079 0.998956
0.999996 0.996037 0.999381
1.00014 1.00028 0.99386
1.00013 0.998895 0.995201
1.00013 1.0001 0.994228
1.00008 0.997028 0.997307
1.00014 0.998751 0.995406
1.00011 0.999923 0.994298
1.00001 0.995912 0.99942
1.00009 0.996932 0.997371
1.00015 0.998656 0.995562
1.00002 0.995879 0.999429
1.0001 0.9969 0.997395
1.00001 0.995905 0.999423
1.01163 0.996067 0.977612
0.998951 0.996054 0.981455
0.996477 0.995873 0.974313
1.00017 1.00124 0.992971
1.01815 0.994594 0.971394
1.00745 0.995863 0.980214
0.997686 0.994924 0.981338
1.00063 0.998353 0.987592
0.996603 1.00115 0.971113
0.994948 0.999613 0.976482
1.00005 0.995839 0.978718
0.998864 0.999832 0.985217
0.995287 1.00224 0.970048
0.995781 1.00006 0.975934
1.00357 0.999686 0.976723
0.998276 1.00165 0.982624
0.995254 1.00097 0.966724
0.996164 1.00001 0.974606
1.00495 1.00063 0.975376
1.00016 1.00215 0.992046
1.00006 1.00201 0.992443
1.00003 1.00147 0.993081
1.00013 1.00179 0.992487
1.00008 1.00176 0.992664
1.00005 1.00141 0.993111
1.00012 1.00116 0.993254
1.00009 1.00105 0.993453
1.00364 1.00028 0.987397
1.00055 1.00417 0.989289
1.00005 1.00229 0.992139
1.00025 1.00427 0.990093
1.00028 1.00323 0.990903
1.00011 1.00272 0.991687
1.00017 1.0025 0.991729
1.00187 1.00309 0.98893
1.00032 1.00289 0.991031
1.00032 1.00329 0.990704
0.999892 1.00369 0.990896
1.00026 1.00235 0.991769
1.0006 1.0007 0.993433
0.999531 1.00355 0.992053
1.0004 1.00243 0.99124
1.00031 1.00265 0.991398
1.02366 0.993433 0.967621
1.01194 0.996878 0.977675
0.999268 0.996831 0.982315
0.999728 1.00196 0.99287
0.998674 1.0039 0.992784
1.00944 0.997187 0.980119
0.995581 1.00092 0.969487
0.998977 1.00145 0.986544
0.996487 0.998905 0.975336
1.01679 0.996324 0.970845
1.00916 0.997868 0.973655
0.999352 1.00242 0.993503
1.02461 0.991922 0.96662
1.02269 0.995254 0.964937
0.996471 1.00437 0.997576
1.00336 0.999388 0.977229
0.995227 0.998995 0.972453
0.996204 0.999504 0.975351
0.998645 1.00222 0.995671
1.0291 0.990438 0.962173
1.01845 0.99519 0.97005
0.999171 0.997992 0.978501
0.996338 0.999131 0.974941
0.996227 1.00026 1.00161
0.995069 1.0002 0.96924
1.0005 1.00265 0.991017
1.00018 1.00168 0.992659
0.999005 1.00281 0.993087
1.00021 1.00199 0.992247
1.00024 1.00273 0.991304
1.00009 1.00303 0.991292
1.00031 1.0024 0.991528
0.999871 1.0027 0.991999
0.999716 1.0038 0.991235
1.00027 1.00221 0.991795
1.00022 1.00232 0.991787
1.00015 1.00294 0.991417
0.999861 1.00433 0.9905
1.00007 1.00279 0.991573
0.999978 1.00385 0.990616
1.00009 1.00466 0.989734
1.00054 1.00328 0.990246
1.00008 1.00324 0.991359
1.00018 1.00371 0.990359
1.00025 1.00265 0.991577
0.999951 1.00277 0.991774
1.00015 1.00294 0.991293
1.00008 1.00209 0.992322
1.00007 1.0026 0.991865
1.00004 1.00321 0.991139
1.00014 1.00102 0.993254
1.00012 1.00196 0.992352
1.00007 1.00259 0.991894
1.00009 1.00173 0.992648
1.00014 1.00073 0.993529
1.00005 0.99951 0.994898
1.00013 1.00048 0.993804
1.00008 0.999295 0.995053
0.999931 0.997567 0.997035
1.00011 0.999145 0.995154
0.999979 0.997426 0.997089
0.999879 0.996297 0.99936
1.00002 0.997297 0.997139
0.999949 0.996177 0.998944
0.999966 0.996112 0.999376
1.00018 1.00038 0.993686
1.00012 0.9991 0.994997
1.00015 1.00028 0.993931
1.00006 0.997163 0.997217
1.00013 0.998917 0.995177
1.00013 1.00011 0.994225
0.999996 0.99598 0.999404
1.00008 0.997019 0.997311
1.00013 0.998764 0.995322
1.00001 0.995903 0.999423
1.00009 0.996926 0.997373
1.00002 0.995879 0.999429
1.02314 0.992852 0.968126
1.01172 0.995865 0.977743
0.998949 0.995831 0.981572
1.00017 1.00124 0.992994
1.00022 1.00129 0.992784
1.00015 1.00183 0.992497
1.02091 0.995948 0.966713
1.01759 0.995306 0.971614
1.00688 0.996698 0.980476
0.998475 1.00027 0.988937
0.995593 1.00243 0.968229
0.995037 0.999904 0.97427
1.00416 0.998358 0.976802
0.997795 1.00167 0.986432
0.995254 1.00091 0.969978
0.995118 0.999994 0.978887
1.00686 0.999253 0.974142
0.99781 0.999453 0.987934
0.994932 1.00035 0.97206
0.995569 0.999845 0.978584
1.00618 0.99899 0.975013
1.00022 1.00223 0.99192
1.00014 1.0022 0.99204
1.00006 1.00205 0.992401
1.00013 1.0018 0.992481
1.00008 1.00173 0.992748
1.00013 1.00116 0.993277
1.00215 1.0032 0.989054
0.999893 1.00351 0.990727
1.00017 1.00253 0.99174
1.00033 1.0034 0.990656
1.0003 1.0029 0.991131
1.00027 1.00229 0.991763
1.00031 1.00262 0.991378
1.00067 1.00098 0.993347
1.00042 1.00241 0.991366
0.999281 1.00334 0.992947
1.00026 1.00228 0.991692
0.998453 1.00114 0.996663
0.999183 1.0005 0.995702
1.00029 1.00258 0.991302
1.02838 0.99154 0.962693
1.02446 0.99307 0.966411
1.01257 0.996371 0.976814
0.999455 1.00268 0.993176
0.996546 1.0017 0.998159
1.02472 0.991859 0.966448
0.995103 0.999716 0.981636
0.997239 0.999531 0.978295
1.02391 0.994539 0.963896
1.004 0.998232 0.977403
0.998681 1.00196 0.995418
1.02891 0.990642 0.962189
1.01787 0.996161 0.970277
0.996021 1.00162 0.99409
0.999717 0.997456 0.978705
0.995209 0.999486 0.978872
0.995014 1.00007 0.972697
0.997838 1.0044 0.997833
1.02323 0.993888 0.96697
1.00792 0.995863 0.97912
0.996109 0.995067 0.980011
0.994998 0.999595 0.976976
0.995102 0.999961 0.972071
0.996525 1.00018 0.991326
1.00019 1.00161 0.992492
0.999104 1.00265 0.993121
0.998844 1.00475 0.99197
1.00029 1.0024 0.991529
0.999928 1.00252 0.991996
0.999609 1.00386 0.991331
0.99976 1.0047 0.990179
1.00023 1.00296 0.991334
1.00002 1.00433 0.990353
1.00013 1.00501 0.989269
0.999891 1.00372 0.990758
1.00013 1.00457 0.989738
1.00064 1.00456 0.989069
1.00082 1.00355 0.989533
1.00033 1.00259 0.991158
1.00052 1.00338 0.990143
1.00024 1.00383 0.990235
1.00021 1.00236 0.99191
1.00019 1.00253 0.991701
0.999989 1.00237 0.992132
0.999981 1.00273 0.991832
1.00016 1.00284 0.991391
1.00012 1.00126 0.993034
1.0001 1.00207 0.992331
1.00009 1.00259 0.991851
1.00003 0.99979 0.99467
1.00014 1.001 0.993259
1.00013 1.00193 0.992337
1.00014 1.00073 0.993525
1.00005 0.999516 0.994892
0.999877 0.997757 0.996947
1.00008 0.999298 0.995048
0.999935 0.997574 0.997031
0.999839 0.996447 0.999347
0.999984 0.997427 0.997089
0.999897 0.996313 0.998923
0.999927 0.996213 0.999366
1.0002 1.00051 0.993622
1.00013 0.999261 0.994994
1.00017 1.0004 0.993739
1.00002 0.997338 0.997103
1.00013 0.999116 0.995064
1.00016 1.00029 0.994001
0.99997 0.996088 0.999382
1.00005 0.997152 0.997222
1.00013 0.998938 0.995152
0.999999 0.99597 0.999409
1.00008 0.99701 0.997314
1.00002 0.995895 0.999426
1.02871 0.990397 0.962757
1.02348 0.992644 0.967975
1.01182 0.995695 0.977873
1.00023 1.00141 0.992633
1.00023 1.00195 0.992209
1.00017 1.00125 0.993017
1.00021 1.00132 0.992765
1.00017 1.00183 0.992427
1.00019 1.00185 0.99234
1.00017 1.00217 0.992057
1.0166 0.997417 0.970322
1.02214 0.995194 0.965788
1.01703 0.995997 0.971833
1.0092 0.998135 0.972907
0.997194 1.00149 0.983034
0.995251 1.00083 0.973133
0.994732 1.00045 0.97561
0.997377 0.999005 0.985864
0.994964 0.999563 0.969888
0.996447 0.999728 0.975132
1.00397 0.99938 0.976123
0.996214 0.997855 0.992187
0.994898 0.999846 0.969352
0.997355 1.00048 0.977384
1.00097 0.996251 0.979052
1.00028 1.00224 0.991812
1.00021 1.00221 0.991911
1.00013 1.00223 0.992034
1.00013 1.00182 0.992475
1.00076 1.00183 0.993259
0.998961 1.00321 0.993845
1.00028 1.0022 0.991757
1.0003 1.00259 0.991359
1.00045 1.00241 0.991492
1.00027 1.00231 0.991673
1.00031 1.00259 0.991232
0.998046 1.00189 0.99694
0.999263 1.00034 0.996022
1.00024 1.00275 0.991366
0.996559 1 1.00074
0.999732 1.00315 0.992688
1.02358 0.994836 0.966475
1.02798 0.991897 0.962755
1.02527 0.992687 0.965201
0.9988 1.00167 0.995188
0.996107 1.00036 1.00132
1.0287 0.990888 0.962204
0.994985 1.00011 0.96945
0.994864 1.0001 0.975706
1.01729 0.997114 0.970504
0.999905 0.995984 0.978852
0.997815 1.00423 0.997744
1.02357 0.993692 0.966783
1.00734 0.996761 0.979422
0.996564 1.00028 0.997218
0.996038 0.994502 0.979599
0.995766 0.999852 0.976037
0.995173 0.999952 0.971735
0.998159 1.00497 0.995712
1.01166 0.997436 0.976342
0.997217 0.995369 0.982445
0.994689 0.999617 0.976689
0.995356 1.00105 0.970865
0.996371 1.00064 0.986025
0.999306 1.00248 0.993155
0.998802 1.00482 0.991953
1.00039 1.00354 0.990761
0.999505 1.00393 0.991426
0.999527 1.00478 0.990308
1.00026 1.00478 0.989396
1.00018 1.00432 0.990205
1.00023 1.00501 0.989163
1.00076 1.00456 0.988398
1.00017 1.00448 0.989741
1.00065 1.00457 0.988953
1.00095 1.0042 0.988551
1.00121 1.00294 0.989273
1.00077 1.00288 0.990412
1.00082 1.00363 0.98941
1.00025 1.00218 0.991719
1.00033 1.00259 0.991232
1.0005 1.0035 0.990039
1.00015 1.0023 0.992025
1.00018 1.00239 0.991892
1.00013 1.0024 0.991825
1.00009 1.00153 0.992799
1.00001 1.00232 0.992172
1.00001 1.00269 0.99189
1.00001 1.00006 0.99441
1.00013 1.00124 0.993041
1.00011 1.00204 0.992339
0.999837 0.997971 0.996834
1.00002 0.999796 0.994667
1.00015 1.00098 0.993264
1.00005 0.999521 0.994887
0.999881 0.997768 0.996941
0.999778 0.996617 0.999328
0.999939 0.997581 0.997027
0.999831 0.996468 0.999342
0.999879 0.99634 0.999352
1.00024 1.00152 0.992567
1.00023 1.00064 0.993426
1.00011 0.999416 0.994856
1.0002 1.00051 0.993623
0.99999 0.997515 0.996989
1.00012 0.999268 0.994995
1.00017 1.00041 0.993792
0.999935 0.996231 0.999354
1.00002 0.997326 0.997108
1.00013 0.999129 0.995131
0.999973 0.996071 0.999389
1.00005 0.997141 0.997227
1 0.995956 0.999414
1.02391 0.993411 0.966232
1.02859 0.990658 0.962652
1.02384 0.992428 0.967824
1.00023 1.00142 0.992657
1.00023 1.00195 0.992164
1.0002 1.00214 0.991986
1.00021 1.00189 0.992189
1.00021 1.00227 0.991934
1.0002 1.00134 0.992746
1.00018 1.00182 0.992356
1.00018 1.00185 0.992344
1.00019 1.00214 0.992045
1.00016 1.00228 0.991991
1.0067 0.997332 0.980076
1.01634 0.997546 0.970533
1.0233 0.994452 0.964862
1.00298 0.999267 0.976417
0.997162 0.999594 0.977738
0.997024 0.998257 0.984356
0.99496 0.999492 0.97168
0.995992 0.997497 0.987064
0.994938 0.99988 0.97161
0.995962 0.999946 0.97652
1.00018 0.996529 0.97939
0.995057 0.997552 0.990156
0.995004 0.99941 0.972499
0.994949 1.00014 0.975261
0.996455 0.994489 0.97972
1.00005 1.00211 0.992295
1.00024 1.00232 0.991794
1.00022 1.0022 0.991902
0.997693 1.00207 0.99721
0.999348 1.0001 0.996346
1.00028 1.00234 0.991654
1.00032 1.00262 0.991163
1.0002 1.0027 0.991429
0.999524 1.00322 0.992473
0.996753 0.999414 1.00077
0.999209 1.00383 0.991972
0.998243 1.00309 0.995741
1.01093 0.998748 0.977604
1.02432 0.994338 0.965389
1.02759 0.992397 0.962817
0.997743 1.00405 0.99764
0.996613 1.00006 0.989195
1.02392 0.993468 0.966595
0.995261 0.999991 0.966676
0.995061 1.00001 0.974612
1.00675 0.997717 0.979725
0.995962 0.994061 0.979188
0.99828 1.00497 0.995893
1.01176 0.997116 0.976446
0.997099 0.995325 0.982209
0.996726 1.00082 0.988786
0.994748 0.999491 0.974483
0.995353 1.00091 0.967954
0.999581 1.00373 0.992485
0.998781 0.996905 0.982035
0.995724 0.996988 0.974022
0.995824 1.0013 0.969045
0.996961 1.00204 0.987322
0.998778 1.0049 0.991936
1.00023 1.00356 0.990738
1.00177 1.0018 0.989924
0.999311 1.00486 0.990436
1.00011 1.00472 0.989395
1.00108 1.00386 0.988542
1.00033 1.00499 0.989057
1.00077 1.0046 0.988395
1.00147 1.00311 0.988671
1.00066 1.00456 0.988837
1.00095 1.00409 0.9886
1.00158 1.0023 0.98921
1.00173 1.00131 0.989823
1.001 1.0026 0.989946
1.00122 1.00284 0.989318
1.00056 1.0024 0.991159
1.00071 1.00296 0.990271
1.00083 1.0037 0.989286
1.00023 1.00201 0.992092
1.00025 1.00215 0.991803
1.00035 1.00259 0.991306
1.00008 1.00178 0.992587
1.00012 1.00229 0.992042
1.00016 1.00242 0.991874
0.999985 1.00039 0.994131
1.0001 1.00154 0.992801
1.00003 1.00226 0.992212
0.999779 0.998195 0.997167
1.00001 1.00007 0.994408
1.00014 1.00122 0.993048
0.99973 0.996838 0.998333
0.99983 0.997997 0.997048
1.00002 0.999801 0.994665
0.999886 0.997778 0.996935
0.999771 0.996646 0.99932
0.999824 0.99649 0.999336
1.00021 1.00178 0.992326
1.00025 1.00084 0.993212
1.00024 1.00155 0.992525
1.0001 0.99956 0.994736
1.00023 1.00065 0.993427
0.999953 0.997676 0.996897
1.00011 0.999418 0.994859
1.0002 1.00052 0.993623
0.999893 0.996383 0.999327
0.999987 0.997505 0.996994
1.00012 0.999277 0.994997
0.999939 0.996209 0.999362
1.00002 0.997314 0.997114
0.999977 0.996054 0.999395
1.0097 0.998668 0.978414
1.02405 0.993399 0.966074
1.02845 0.990968 0.962547
1.00018 1.00219 0.992018
1.00022 1.00144 0.992681
1.00024 1.00195 0.992118
1.00021 1.00191 0.992241
1.0002 1.00213 0.992026
1.00022 1.00222 0.991921
1.00021 1.00238 0.99177
1.00017 1.0023 0.991867
1.00018 1.00186 0.992347
1.0002 1.00211 0.992034
1.00016 1.00227 0.991987
1.00023 1.00259 0.99183
0.997736 0.995182 0.9812
1.00614 0.997554 0.980368
1.01618 0.997663 0.970745
0.998881 0.996393 0.979738
0.996452 0.999991 0.974882
0.994878 0.999894 0.969393
0.995661 0.997109 0.992172
0.995001 0.997426 0.995381
0.996342 0.994295 0.979214
0.994922 0.999663 0.968619
0.995358 0.999858 0.977259
0.996107 0.998809 0.993644
0.995266 0.998881 0.974063
0.994817 0.999065 0.976833
0.999573 1.00207 0.9932
1.00016 1.00203 0.992302
1.0002 1.0024 0.991776
0.996925 0.99874 1.00081
0.99944 1.00322 0.992251
1.00015 1.00266 0.99149
0.999419 1.00383 0.991923
0.997945 1.00322 0.99585
0.998989 1.00175 0.994419
0.999061 0.996787 0.98167
1.01189 0.998555 0.976044
1.02505 0.993819 0.964303
0.998354 1.00487 0.996118
0.996776 1.00074 0.990531
1.01187 0.996952 0.976549
0.995273 1.00043 0.973008
0.994738 0.999462 0.976893
0.997422 0.995225 0.981306
0.999529 1.00386 0.99273
0.998902 0.996634 0.981067
0.995028 0.99756 0.977125
0.996791 1.00208 0.983578
0.995501 1.00138 0.970468
1.00109 1.0015 0.991471
0.996612 0.995346 0.976913
0.996764 1.00082 0.970374
0.997563 1.00201 0.982553
1.00005 1.00363 0.990714
1.00146 1.00132 0.99016
1.00186 1.0011 0.989581
0.999944 1.00464 0.989393
1.00115 1.00369 0.988543
1.00252 1.00065 0.989204
1.00079 1.00459 0.988393
1.00141 1.00298 0.988746
1.00227 1.00008 0.99015
1.00095 1.004 0.988649
1.00161 1.00208 0.989254
1.00222 0.999607 0.990585
1.00205 0.999672 0.990874
1.00151 1.00149 0.990108
1.00172 1.0012 0.989942
1.00077 1.00217 0.990646
1.00102 1.00256 0.990031
1.00122 1.00273 0.989362
1.00034 1.00201 0.991863
1.00049 1.00241 0.99115
1.00064 1.00304 0.990129
1.00014 1.00177 0.992513
1.00025 1.00201 0.992085
1.00025 1.00213 0.991888
0.999928 1.00083 0.993828
1.0001 1.00176 0.992598
1.0001 1.00228 0.992058
0.999732 0.998437 0.996541
0.999987 1.00039 0.994126
1.00011 1.00154 0.992802
0.999636 0.997047 0.999265
0.999783 0.998232 0.996656
1 1.00008 0.994405
0.999713 0.996837 0.999294
0.999833 0.998013 0.9968
0.999763 0.996675 0.999312
1.00019 1.00191 0.992318
1.00021 1.00179 0.992336
1.00021 1.00114 0.992986
1.00008 0.999745 0.994593
1.00024 1.00085 0.993212
1.00024 1.00158 0.992483
0.999918 0.997815 0.996824
1.0001 0.999552 0.99474
1.00023 1.00065 0.993428
0.999847 0.996531 0.999306
0.99995 0.997668 0.9969
1.00012 0.999417 0.994861
0.999898 0.996363 0.999335
0.999984 0.997494 0.996999
0.999943 0.996187 0.999371
0.998397 0.996834 0.982874
1.00957 0.998704 0.978553
1.02416 0.993393 0.965915
1.00019 1.00221 0.991985
1.00015 1.00222 0.992125
1.00021 1.00232 0.991839
1.00021 1.00192 0.992293
1.0002 1.00213 0.992067
1.00022 1.00217 0.991908
1.00017 1.0023 0.991873
1.00021 1.00238 0.991775
1.00009 1.00284 0.991569
1.00012 1.00245 0.991785
1.00016 1.00227 0.991984
1.00016 1.00252 0.991845
0.995056 0.997521 0.977051
0.997403 0.995411 0.981346
1.0056 0.997745 0.980659
0.996315 0.994098 0.978709
0.994738 1 0.97497
0.995227 0.999873 0.975579
0.99499 0.997441 0.989948
0.995933 0.998776 0.98881
0.994926 0.998613 0.974743
0.995125 0.999247 0.97345
0.997869 0.996131 0.988962
0.995746 1.00016 0.9706
1.00017 1.00309 0.991762
0.999748 1.00183 0.993156
1.00026 1.00194 0.99231
0.997417 1.00342 0.995984
0.999613 1.00384 0.991875
0.999685 1.00188 0.994165
1.00184 0.99936 0.992593
0.996942 0.994988 0.975215
0.998999 0.997161 0.981724
1.01282 0.99824 0.974485
0.999745 1.00392 0.992927
0.996649 1.00211 0.986885
0.998912 0.99632 0.981171
0.995702 1.00146 0.968802
0.995523 0.998466 0.97441
1.00118 1.0017 0.991524
0.99654 0.995732 0.975023
0.997116 0.999966 0.968494
0.997066 1.00171 0.986613
1.00098 1.0035 0.989541
0.99745 0.999697 0.966042
0.999084 0.998868 0.989836
1.00115 1.00076 0.990396
1.00159 1.00165 0.989455
1.00337 0.998388 0.988737
1.00123 1.00353 0.988544
1.00251 1.00042 0.989132
1.00347 0.996875 0.991132
1.00135 1.00292 0.988822
1.00227 0.999845 0.990175
1.00298 0.996998 0.991701
1.00163 1.00188 0.989298
1.00222 0.999511 0.990595
1.0025 0.997961 0.991604
1.00223 0.998835 0.991485
1.00204 0.999553 0.990999
1.00183 1.00016 0.990815
1.00134 1.00141 0.990538
1.00151 1.00152 0.990123
1.00172 1.00108 0.99006
1.00062 1.00189 0.991294
1.0008 1.00218 0.990749
1.00103 1.00253 0.990115
1.00022 1.00172 0.992389
1.00036 1.00202 0.991848
1.00042 1.00242 0.991142
0.999899 1.00112 0.993585
1.00016 1.00174 0.99252
1.00026 1.002 0.992077
0.999656 0.998741 0.996372
0.999944 1.00079 0.993831
1.00011 1.00174 0.992609
0.999596 0.997238 0.999236
0.999729 0.998466 0.996531
0.999992 1.0004 0.994121
0.99965 0.99706 0.998765
0.999786 0.998245 0.996655
0.999703 0.996885 0.999278
1.00016 1.00196 0.992306
1.00019 1.00192 0.99227
1.00017 1.00139 0.992801
1.00021 1.0018 0.992346
1.0002 1.00115 0.992982
1.00004 1.00005 0.994372
0.999877 0.997967 0.996752
1.00008 0.999734 0.994599
1.00023 1.00087 0.993212
0.999795 0.996674 0.999289
0.999914 0.99781 0.996828
1.00011 0.999546 0.994744
0.999852 0.996516 0.999312
0.999947 0.99766 0.996904
0.999903 0.996343 0.999343
0.995753 0.997134 0.974864
0.99822 0.996836 0.982406
1.00949 0.998747 0.978693
1.00019 1.00221 0.991953
1.00019 1.00237 0.991809
1.00012 1.0022 0.99216
1.0001 1.00227 0.992166
1.00012 1.00249 0.991889
1.00018 1.00231 0.99188
1.0002 1.00237 0.991779
1.00006 1.00279 0.991603
0.99994 1.00257 0.991785
1.00003 1.0028 0.991546
1.00067 1.00313 0.990591
1.00003 1.00275 0.991774
1.00012 1.00247 0.99186
0.997042 0.999877 0.967365
0.995099 0.998451 0.976074
0.997281 0.995635 0.980834
0.995041 0.998357 0.976998
0.995085 0.999683 0.968691
0.995881 0.998731 0.994273
0.998045 0.996304 0.991652
0.995849 0.998819 0.973265
1.00087 0.995926 0.988275
1.00221 1.00189 0.988554
0.999797 1.00302 0.991705
0.999895 1.00157 0.99311
1.0002 1.00204 0.9939
1.00231 0.998788 0.99204
0.997655 0.998419 0.96811
0.9967 0.99586 0.974088
0.99897 0.99769 0.981777
1.0013 1.00186 0.991588
0.996523 1.00231 0.982906
0.996695 0.995632 0.974158
0.996971 0.999934 0.970917
1.00148 1.00334 0.989592
0.998237 0.998602 0.969986
0.9987 0.999589 0.984985
1.00293 1.00322 0.987056
1.00077 0.997292 0.992322
1.00131 1.00219 0.989327
1.00323 0.999073 0.988613
1.0047 0.99607 0.98897
1.00245 1.00022 0.989064
1.00324 0.996933 0.991121
1.00369 0.995306 0.991935
1.00228 0.999577 0.9902
1.00295 0.997 0.99163
1.00308 0.996453 0.991988
1.00223 0.999418 0.990604
1.0025 0.998041 0.991553
1.00254 0.997927 0.991631
1.00217 0.998695 0.991613
1.00211 0.999334 0.991211
1.00204 0.999445 0.991125
1.00184 1.00018 0.990789
1.00171 1.00047 0.99076
1.00106 1.00138 0.990956
1.00133 1.00146 0.990517
1.00151 1.00156 0.990138
1.00042 1.00165 0.992076
1.0006 1.00191 0.991362
1.00082 1.00219 0.990851
0.999892 1.00128 0.993404
1.00024 1.00171 0.99238
1.00038 1.00202 0.991833
0.999586 0.999081 0.996148
0.999922 1.00107 0.993593
1.00017 1.00172 0.992526
0.999531 0.997453 0.999204
0.99965 0.998784 0.996362
0.999957 1.00075 0.993833
0.999587 0.997261 0.999227
0.999725 0.998499 0.996521
0.999642 0.997086 0.999247
1.00013 1.00212 0.992226
1.00015 1.00196 0.992311
1.00014 1.00159 0.992622
1.00019 1.00192 0.992222
1.00017 1.00143 0.992754
1.00001 1.00039 0.994073
1.0002 1.00116 0.992978
1.00004 1.00003 0.994375
0.999819 0.998195 0.996636
0.999735 0.996831 0.999272
0.999873 0.99796 0.996758
1.00009 0.99972 0.994604
0.999802 0.996664 0.999294
0.99991 0.997805 0.996832
0.999858 0.996501 0.999318
0.997556 1.00006 0.970386
0.995964 0.996279 0.976612
0.99781 0.996909 0.982915
1.00017 1.00243 0.991778
1.00009 1.00218 0.992195
1.00012 1.00248 0.99191
1.00009 1.00226 0.99216
1.00007 1.0025 0.991993
0.999978 1.00243 0.992047
1.00004 1.00271 0.991637
1 1.00271 0.991695
0.999945 1.00302 0.991521
1.00012 1.00234 0.991579
1.00098 1.00271 0.99088
1.00184 1.0024 0.988727
1.00051 1.00296 0.99069
0.999936 1.00306 0.991762
1.00036 0.997721 0.987597
0.996439 1.00059 0.969911
0.995353 0.997804 0.974242
0.995872 0.999827 0.970618
0.998272 0.996441 0.994178
1.00087 0.995874 0.991985
1.00419 0.996801 0.990464
1.0022 1.00135 0.989181
0.999612 1.00303 0.991644
1.00334 0.998392 0.991483
0.998993 1.00022 0.98507
0.998095 0.999174 0.970693
0.996671 0.995318 0.976756
1.002 1.00342 0.989649
0.9983 0.999967 0.98816
0.997789 0.997712 0.973984
1.00314 1.00218 0.987303
1.00051 0.998147 0.989924
1.00484 0.998118 0.987979
1.00408 0.998431 0.989577
1.00314 0.999866 0.988487
1.00469 0.99607 0.988981
1.00417 0.996435 0.989986
1.00304 0.996959 0.991105
1.00359 0.995551 0.991911
1.00358 0.996468 0.991055
1.00292 0.997036 0.991559
1.00302 0.996649 0.991928
1.00305 0.997516 0.99108
1.0025 0.998128 0.991503
1.00246 0.998009 0.991663
1.00236 0.998875 0.991024
1.00212 0.998562 0.991742
1.00209 0.999227 0.991278
1.00201 0.999871 0.990875
1.00185 1.00019 0.990764
1.00171 1.0005 0.990737
1.00151 1.00071 0.990971
1.00072 1.00132 0.991638
1.00104 1.00142 0.991021
1.00132 1.0015 0.990496
0.999967 1.00138 0.993159
1.00043 1.00165 0.99207
1.00059 1.00193 0.991431
0.999515 0.999478 0.995883
0.999922 1.00125 0.993407
1.00027 1.0017 0.99237
0.999473 0.997695 0.999154
0.999584 0.999124 0.996142
0.999945 1.00102 0.9936
0.999525 0.997482 0.999189
0.999645 0.998823 0.996352
0.999579 0.997283 0.999219
1.00012 1.00227 0.992083
1.00014 1.0021 0.992254
1.00009 1.0018 0.992543
1.00014 1.00196 0.992315
1.00014 1.00162 0.992611
0.999993 1.00072 0.993791
1.00017 1.00147 0.992707
1.00002 1.00039 0.994073
0.999757 0.998477 0.996474
1.00005 1.00002 0.994378
0.99982 0.998172 0.996646
0.999671 0.997031 0.999243
0.999745 0.996818 0.999277
0.99987 0.997952 0.996763
0.999808 0.996653 0.999299
0.99952 0.999751 0.986204
0.99737 0.999249 0.968674
0.996394 0.996536 0.974058
1.00036 1.0023 0.991628
1.00011 1.00249 0.991931
1.00008 1.00225 0.992154
1.00001 1.00249 0.992039
1.00004 1.00254 0.991971
0.999999 1.00205 0.992324
1.00007 1.0029 0.991604
0.999921 1.00326 0.991496
1.00024 1.00236 0.991683
1.0007 1.0026 0.991094
1.00175 1.00165 0.989535
1.00367 0.999758 0.987416
1.00189 1.00207 0.988659
1.00043 1.00268 0.990788
1.00452 0.995575 0.9907
1.00012 0.99816 0.985784
0.996354 1.00041 0.972989
1.00078 0.995887 0.987312
1.00425 0.996606 0.990304
1.00181 1.00059 0.989823
1.00301 0.999733 0.99064
0.999032 0.999756 0.988627
0.997754 0.998614 0.968342
1.00338 1.00104 0.987544
1.0004 0.998387 0.987522
1.00491 0.997443 0.987826
1.00404 0.998269 0.990033
1.00455 0.9967 0.988495
1.00357 0.998481 0.988371
1.00461 0.996018 0.988996
1.00415 0.996282 0.990042
1.00365 0.997735 0.989762
1.00351 0.995764 0.991887
1.00357 0.996511 0.991041
1.0034 0.99794 0.990026
1.00295 0.996839 0.991868
1.00294 0.997593 0.991211
1.00281 0.99871 0.990278
1.00239 0.998085 0.991695
1.00235 0.998885 0.991027
1.00225 0.999552 0.990584
1.00206 0.999118 0.991344
1.00199 0.999792 0.990903
1.00179 1.00024 0.990833
1.0017 1.00053 0.990715
1.00148 1.00072 0.990925
1.00115 1.0009 0.991438
1.0002 1.00126 0.992851
1.00071 1.00134 0.991704
1.00101 1.00146 0.991087
0.999458 0.999941 0.995541
0.999987 1.00137 0.993162
1.00044 1.00165 0.992064
0.999394 0.997978 0.99909
0.999531 0.999493 0.995878
0.999951 1.00122 0.993411
0.99946 0.997727 0.999135
0.999582 0.999163 0.996135
0.999517 0.997509 0.999175
1.00025 1.00222 0.991765
1.00012 1.00224 0.992091
1.00012 1.00191 0.99244
1.00015 1.00209 0.992282
1.00009 1.00181 0.992567
0.999934 1.00106 0.993573
1.00012 1.00166 0.992599
0.99998 1.00075 0.993786
0.999676 0.998803 0.996299
1.00001 1.0004 0.994073
0.999761 0.998443 0.996485
0.999605 0.997251 0.999205
0.999822 0.99815 0.996656
0.999682 0.997004 0.999252
0.999753 0.996807 0.999283
1.00364 0.996774 0.991196
0.999512 0.999882 0.982697
0.997545 0.999854 0.970227
1.00041 1.00178 0.991858
1.00106 1.0017 0.990863
1.00021 1.00233 0.991696
1.00005 1.00252 0.99203
1.00002 1.00259 0.991948
1.00014 1.00203 0.99223
1.00163 1.0012 0.990193
1.00032 1.00239 0.991788
1.00029 1.00251 0.991306
1.00169 1.00159 0.989671
1.00325 0.999903 0.987912
1.00457 0.99687 0.988383
1.00374 0.999671 0.987414
1.002 1.00177 0.98859
1.0045 0.995638 0.99092
1.00005 0.998815 0.983102
1.00449 0.996424 0.990131
1.00311 0.998089 0.990712
1.0029 0.999159 0.99092
0.999236 0.999696 0.983751
1.00495 0.996766 0.987672
1.00407 0.998142 0.990454
1.00452 0.996862 0.988467
1.00367 0.998409 0.988628
1.00362 0.998393 0.989023
1.00324 0.998169 0.989876
1.00416 0.996024 0.990097
1.00367 0.997545 0.989812
1.00351 0.998519 0.989156
1.00357 0.996595 0.991027
1.00334 0.997917 0.9901
1.0032 0.998683 0.989505
1.00282 0.997664 0.991342
1.00282 0.998718 0.99027
1.00267 0.999354 0.989937
1.00234 0.998895 0.99103
1.00225 0.999547 0.990583
1.00205 1.00001 0.990519
1.00197 0.999711 0.99093
1.00177 1.00021 0.990839
1.00141 1.00054 0.991235
1.00145 1.00072 0.990879
1.00111 1.00089 0.99142
1.00051 1.00094 0.992567
0.999488 1.00023 0.995197
1.0002 1.00126 0.992854
1.0007 1.00136 0.991771
0.999279 0.998354 0.999008
0.999501 0.999903 0.995532
1.00001 1.00135 0.993164
0.999372 0.99803 0.999067
0.999546 0.999507 0.995872
0.999448 0.997762 0.999117
1.00056 1.00204 0.991155
1.00026 1.00219 0.991701
1.00029 1.00184 0.992195
1.00012 1.00222 0.992098
1.0001 1.00191 0.992443
0.999888 1.00135 0.993399
1.00008 1.00181 0.99259
0.999912 1.00111 0.993568
0.999585 0.99918 0.996103
0.999966 1.00079 0.993782
0.999684 0.998763 0.996308
0.999532 0.997489 0.999164
0.999767 0.998408 0.996497
0.999617 0.997222 0.999217
0.999692 0.996983 0.999262
1.00387 0.996308 0.990227
1.00364 0.99701 0.991107
0.999752 0.99979 0.985606
1.0017 1.00099 0.990563
1.00025 1.00174 0.992211
1.00167 1.00096 0.989931
1.00107 1.00171 0.990813
1.00005 1.00238 0.991765
1.00306 1.00005 0.988522
1.00028 1.00201 0.992136
1.00171 1.0011 0.990128
1.00403 0.998241 0.988287
1.00165 1.00153 0.989807
1.00337 0.999959 0.987825
1.00442 0.997134 0.988379
1.00366 0.999655 0.987412
1.00444 0.995685 0.991129
1.00309 0.997976 0.990658
1.00305 0.997866 0.99063
1.0028 0.998558 0.991203
1.00449 0.997007 0.98844
1.00377 0.998389 0.988882
1.00372 0.998319 0.988951
1.00326 0.998237 0.989926
1.00324 0.998641 0.989567
1.00369 0.997432 0.989861
1.00352 0.998476 0.98919
1.00338 0.998836 0.989071
1.00329 0.997905 0.990174
1.00322 0.998715 0.989482
1.00307 0.999185 0.98932
1.00283 0.998727 0.990262
1.00268 0.999352 0.989923
1.00243 0.999783 0.989985
1.00225 0.999543 0.990582
1.00205 1 0.990516
1.0017 1.00032 0.990888
1.00174 1.00018 0.990844
1.00141 1.00054 0.99124
1.0008 1.00064 0.992298
1.00107 1.00088 0.991402
1.0005 1.00095 0.992569
0.999534 1.00034 0.995656
0.999198 0.998971 0.997376
0.999531 1.00016 0.995548
1.00021 1.00126 0.992858
0.999257 0.998442 0.998977
0.99954 0.999875 0.995524
0.999353 0.998084 0.999043
1.0021 1.00016 0.990126
1.001 1.00167 0.990672
1.00065 1.00202 0.99108
1.00051 1.00169 0.991892
1.00026 1.00216 0.991638
1.00026 1.00183 0.992208
0.999904 1.00147 0.993254
1.00009 1.00191 0.992447
0.999863 1.00137 0.993396
0.999512 0.999575 0.995861
0.999888 1.00116 0.993564
0.999589 0.99914 0.996109
0.999442 0.997766 0.999111
0.999692 0.998722 0.996317
0.999546 0.997459 0.999177
0.999629 0.997193 0.999229
1.0036 0.997712 0.989726
1.00382 0.996575 0.990321
1.00361 0.997344 0.991019
1.00282 0.999894 0.989092
1.00146 1.00102 0.990851
1.00008 1.00168 0.992563
1.00182 1.00091 0.990046
1.00109 1.00173 0.990762
1.00389 0.998867 0.987995
1.00307 1.0001 0.988395
1.00177 1.00103 0.990063
1.00406 0.998297 0.988248
1.00354 0.99998 0.987737
1.00425 0.997352 0.988374
1.00302 0.998509 0.990017
1.00306 0.997961 0.990585
1.00297 0.997603 0.990549
1.00385 0.998229 0.988882
1.00328 0.998277 0.989976
1.00326 0.998626 0.98959
1.00313 0.999073 0.989346
1.00354 0.99842 0.989224
1.0034 0.998812 0.989064
1.00321 0.999093 0.989132
1.00323 0.99875 0.989459
1.00308 0.999187 0.989308
1.0028 0.99954 0.989512
1.0027 0.99935 0.98991
1.00244 0.99978 0.989975
1.00204 1.0001 0.990429
1.00206 0.999998 0.990514
1.0017 1.00032 0.990886
1.00106 1.00045 0.991962
1.0014 1.00054 0.991245
1.00079 1.00065 0.992295
0.99962 1.00039 0.995469
1.00049 1.00097 0.99257
0.999597 1.00031 0.995614
0.999064 0.999518 0.997156
0.999159 0.99895 0.998126
0.999583 1.00009 0.995887
0.999238 0.998521 0.998945
1.00288 0.999618 0.989261
1.00163 1.00086 0.990586
1.00197 1.00002 0.99054
1.00078 1.00158 0.991443
1.00111 1.00167 0.990659
1.00074 1.002 0.991005
1.00048 1.00173 0.991899
1.00001 1.00148 0.993041
1.00024 1.00182 0.992221
0.999888 1.00147 0.993251
0.999468 0.999954 0.99558
0.99984 1.0014 0.993393
0.999502 0.999553 0.995865
0.999324 0.998117 0.999043
0.999593 0.999098 0.996115
0.999462 0.997727 0.999128
0.99956 0.997427 0.99919
1.0036 0.99841 0.989007
1.00362 0.997729 0.989704
1.00382 0.996861 0.990415
1.00362 0.998961 0.988341
1.00282 0.999928 0.989094
1.00125 1.00104 0.991139
1.00197 1.00084 0.990161
1.00392 0.998871 0.988018
1.0031 1.00015 0.988268
1.00409 0.998347 0.988209
1.00314 0.9989 0.989461
1.00309 0.99855 0.989876
1.00304 0.99797 0.990511
1.00309 0.999383 0.989127
1.00326 0.998618 0.989615
1.00313 0.999083 0.989325
1.00309 0.999264 0.989242
1.00342 0.99879 0.989057
1.00321 0.999098 0.989136
1.00295 0.999447 0.989319
1.00309 0.999189 0.989297
1.0028 0.999546 0.989508
1.00236 0.999862 0.990052
1.00245 0.999777 0.989966
1.00205 1.0001 0.990424
1.00134 1.0003 0.991574
1.00171 1.00031 0.990885
1.00107 1.00045 0.991951
0.999723 1.00034 0.995338
1.00078 1.00067 0.992292
0.999684 1.00036 0.995433
0.998973 0.999849 0.997041
0.99966 1.00028 0.99557
0.999029 0.999544 0.997195
0.999099 0.998909 0.9989
1.00335 0.999449 0.98864
1.00249 0.999964 0.989759
1.00279 0.999701 0.989406
1.00128 1.00109 0.991124
1.00161 1.0008 0.990584
1.00185 0.999906 0.990951
1.00026 1.00141 0.992618
1.00078 1.00158 0.991439
1.0012 1.00167 0.990645
1.00044 1.00176 0.991907
0.999994 1.00149 0.99304
0.999463 1.00029 0.995258
0.999873 1.00147 0.993248
0.999436 0.999976 0.995583
0.999174 0.998569 0.998963
0.999492 0.999529 0.99587
0.999351 0.998054 0.999065
0.999481 0.997687 0.999145
1.00361 0.998586 0.988858
1.00369 0.998391 0.988889
1.00364 0.997737 0.989682
1.0037 0.998891 0.988332
1.00282 0.999977 0.989095
1.00393 0.998875 0.98804
1.00321 0.999199 0.989042
1.00313 0.998946 0.989445
1.00316 0.998592 0.989734
1.00308 0.999364 0.989155
1.00303 0.999606 0.989041
1.00314 0.999091 0.989304
1.00309 0.999272 0.989246
1.00292 0.999517 0.989323
1.00321 0.999102 0.989139
1.00294 0.999445 0.989327
1.00252 0.999761 0.989848
1.0028 0.99955 0.989504
1.00236 0.999867 0.990047
1.00158 1.0001 0.991293
1.00205 1.0001 0.990418
1.00135 1.00029 0.991561
0.999874 1.00022 0.995228
1.00107 1.00046 0.99194
0.999787 1.00033 0.995302
0.998931 1.00003 0.99697
0.99975 1.00032 0.995396
0.998932 0.999898 0.997075
0.998992 0.999567 0.997235
1.00348 0.998768 0.988903
1.00297 0.999645 0.989078
1.00336 0.999396 0.988592
1.00191 1.00038 0.990501
1.00245 1.00001 0.989832
1.00269 0.999771 0.989553
1.00066 1.00104 0.992134
1.00126 1.00105 0.991004
1.0016 1.00072 0.990581
0.999526 1.00055 0.994875
1.00025 1.00139 0.992623
1.00078 1.00158 0.991435
0.999974 1.00149 0.993039
0.999404 1.00037 0.995265
0.999021 0.999098 0.998873
0.999403 1.00001 0.995586
0.999205 0.998481 0.998989
0.999381 0.997994 0.999086
1.00346 0.998841 0.988943
1.00364 0.998591 0.98883
1.00377 0.998373 0.988771
1.00378 0.998811 0.988323
1.00323 0.999399 0.988827
1.00322 0.999192 0.989068
1.00311 0.99899 0.989428
1.00307 0.999345 0.989184
1.00304 0.999579 0.989027
1.00291 0.999695 0.989189
1.00308 0.999282 0.98925
1.00291 0.999526 0.989357
1.00256 0.999742 0.989715
1.00293 0.999445 0.989334
1.00251 0.999759 0.98985
1.00171 0.999973 0.991152
1.00235 0.999874 0.990042
1.00159 1.0001 0.991285
1.00001 1.00007 0.994283
1.00136 1.00028 0.991548
0.999916 1.00023 0.994762
0.998938 1.00007 0.998673
0.999853 1.0003 0.995266
0.998887 1.0001 0.997003
0.998889 0.99995 0.997112
1.00339 0.998815 0.989114
1.00307 0.999284 0.989145
1.00346 0.998815 0.988937
1.00238 0.999876 0.989785
1.00294 0.999643 0.989151
1.00337 0.999351 0.988543
1.00113 1.0005 0.991503
1.00192 1.00037 0.990493
1.00241 1.00007 0.989906
0.999682 1.00058 0.994506
1.00067 1.00101 0.992028
1.00124 1.00101 0.990884
0.998925 0.999618 0.998767
0.999455 1.00063 0.994891
1.00025 1.00138 0.992628
0.999342 1.00044 0.995272
0.999044 0.998993 0.998903
0.999242 0.998388 0.999013
1.00333 0.999056 0.988971
1.00345 0.998832 0.988955
1.00366 0.998601 0.988803
1.00319 0.999576 0.988777
1.00324 0.99941 0.988789
1.00323 0.999186 0.989094
1.00304 0.999551 0.989014
1.00292 0.999677 0.989191
1.00265 0.999761 0.989684
1.0029 0.999534 0.989391
1.00255 0.999763 0.989825
1.00181 0.999913 0.990831
1.00251 0.999755 0.989852
1.00172 0.999966 0.991151
1.00009 0.999983 0.994215
1.00159 1.00009 0.991277
1.00001 1.00008 0.994278
0.998975 1.00004 0.998664
0.999946 1.00022 0.994318
0.998929 1.00012 0.997825
0.998839 1.00017 0.997038
1.00326 0.999048 0.989212
1.00308 0.999161 0.989329
1.00336 0.998785 0.989134
1.00258 0.999653 0.989786
1.00307 0.99928 0.989172
1.00344 0.998857 0.988971
1.00156 1.00009 0.991089
1.00241 0.999925 0.989924
1.00292 0.999637 0.989225
0.999863 1.00042 0.994273
1.00119 1.00048 0.991452
1.00193 1.00037 0.990485
0.998913 0.999981 0.998681
0.999621 1.00065 0.994522
1.00068 1.00098 0.991922
0.998924 0.999505 0.998805
0.999385 1.0007 0.994906
0.999068 0.998878 0.998931
1.00319 0.999347 0.988995
1.00332 0.99907 0.988976
1.00345 0.998821 0.988967
1.00289 0.999655 0.989312
1.00316 0.999597 0.988807
1.00325 0.999422 0.988751
1.00292 0.999662 0.989194
1.00265 0.999752 0.989688
1.00197 0.999855 0.990577
1.00254 0.999786 0.989935
1.0018 0.999922 0.990936
1.00017 0.999977 0.994056
1.00172 0.999955 0.991151
1.00009 0.999986 0.994213
0.999026 1.00002 0.998651
1.00001 1.00009 0.994273
0.998991 1.00005 0.99866
0.998951 1.00019 0.996932
1.00307 0.999278 0.989354
1.00324 0.998991 0.989231
1.00267 0.999533 0.989735
1.00309 0.99916 0.989323
1.00334 0.998755 0.989153
1.00178 0.999917 0.991061
1.0026 0.999643 0.989775
1.00308 0.999278 0.989199
1.00002 1.00018 0.994172
1.00158 1.00012 0.991158
1.00244 0.999972 0.990062
0.998956 1.00014 0.998639
0.99983 1.00045 0.994285
1.00124 1.00046 0.991401
0.998893 0.999896 0.998708
0.999564 1.00071 0.994537
0.998923 0.999392 0.99884
1.00284 0.999568 0.989501
1.00317 0.999368 0.989021
1.00332 0.999086 0.988981
1.00212 0.999777 0.990347
1.00288 0.999679 0.98931
1.00313 0.999616 0.988837
1.00265 0.999745 0.989692
1.00195 0.999857 0.990616
1.00029 0.999963 0.99383
1.00179 0.999926 0.99104
1.00017 0.999982 0.99405
0.999087 1 0.998617
1.00009 0.99999 0.994212
0.999047 1.00002 0.998642
0.999014 1.00006 0.998656
1.00273 0.999558 0.989636
1.00307 0.999226 0.989335
1.00322 0.998933 0.989251
1.00189 0.999817 0.990943
1.00268 0.999534 0.989729
1.0031 0.999159 0.989316
1.00014 0.999996 0.994111
1.00178 0.999926 0.991061
1.00262 0.999634 0.989764
0.99902 1.00013 0.998624
1.00001 1.00019 0.994182
1.0016 1.00015 0.991227
0.998927 1.00009 0.99865
0.999798 1.00047 0.994298
0.998867 0.999811 0.998739
1.0021 0.999771 0.99059
1.00285 0.999576 0.989386
1.00315 0.999387 0.989047
1.00038 0.999934 0.993683
1.00211 0.999777 0.990366
1.00287 0.999705 0.989309
1.00193 0.999856 0.990656
1.00029 0.999969 0.993824
0.999179 0.999995 0.998553
1.00018 0.999986 0.994044
0.999118 1.00001 0.998595
0.999068 1.00002 0.998631
1.00199 0.99979 0.990776
1.00274 0.999535 0.989594
1.00307 0.999176 0.989316
1.00025 0.999938 0.994898
1.00189 0.999827 0.990939
1.00269 0.999536 0.989723
0.999091 1.00006 0.998606
1.00013 0.999991 0.994117
1.00178 0.999936 0.991061
0.998994 1.00011 0.998628
0.999987 1.0002 0.994193
0.998899 1.00005 0.998663
1.0004 0.999945 0.993651
1.0021 0.999757 0.990506
1.00286 0.999578 0.989272
0.999258 0.999988 0.998503
1.00038 0.999933 0.993678
1.0021 0.999777 0.990384
1.0003 0.999976 0.993816
0.999208 0.999998 0.998532
0.99915 1.00001 0.998572
1.00036 0.999941 0.994714
1.002 0.999787 0.990777
1.00275 0.999511 0.989552
0.999063 1.00002 0.998654
1.00022 0.999926 0.99402
1.0019 0.999835 0.990935
0.999065 1.00006 0.998613
1.00013 0.999986 0.994122
0.998962 1.0001 0.998633
0.999268 0.999974 0.99654
1.0004 0.999939 0.994154
1.0021 0.999749 0.990422
0.999265 0.999989 0.998493
1.00038 0.999933 0.993677
0.999235 1 0.998513
0.99913 0.999962 0.996723
1.00033 0.999942 0.994295
1.002 0.999784 0.990778
0.999097 0.999999 0.997696
1.00023 0.999922 0.994009
0.999043 1.00006 0.998619
0.999273 0.999989 0.998487
1.00038 0.999925 0.99369
0.999276 0.999988 0.998486
0.999181 0.999985 0.997608
1.00031 0.999937 0.993836
0.999114 1.00002 0.998597
0.99925 0.999987 0.998505
0.999186 0.999997 0.998553

TENSORS stress float
0.00117543 3.1174e-05 3.49691e-05
3.1174e-05 0.000232663 -6.00233e-06
3.49691e-05 -6.00233e-06 0.000215505
0.00285722 -6.12994e-05 3.21252e-05
-6.12994e-05 0.00107115 3.37763e-06
3.21252e-05 3.37763e-06 0.00107233
0.00117754 3.77257e-05 1.46591e-05
3.77257e-05 0.000237283 -2.05898e-06
1.46591e-05 -2.05898e-06 0.000219293
0.00134375 1.21744e-05 4.84442e-05
1.21744e-05 0.000326361 -4.59811e-06
4.84442e-05 -4.59811e-06 0.000305351
0.00121913 2.4643e-05 3.99941e-05
2.4643e-05 0.00026433 -5.63193e-06
3.99941e-05 -5.63193e-06 0.000244873
0.00114096 3.4144e-05 3.06889e-05
3.4144e-05 0.000201799 -6.31742e-06
3.06889e-05 -6.31742e-06 0.000188746
0.00112655 8.85482e-06 7.59378e-06
8.85482e-06 0.000172185 -2.64891e-06
7.59378e-06 -2.64891e-06 0.000135101
0.00286107 -6.23652e-05 4.81792e-07
-6.23652e-05 0.00107008 -1.49493e-07
4.81792e-07 -1.49493e-07 0.00107186
0.0032793 -9.14977e-05 1.05522e-05
-9.14977e-05 0.00133015 1.23583e-06
1.05522e-05 1.23583e-06 0.0013191
0.00287487 -7.41734e-05 1.19371e-05
-7.41734e-05 0.0010971 1.30468e-06
1.19371e-05 1.30468e-06 0.00109399
0.0010921 -3.33541e-05 2.55577e-05
-3.33541e-05 0.00015223 3.90169e-06
2.55577e-05 3.90169e-06 0.000148865
0.000780738 -1.36164e-05 5.81418e-06
-1.36164e-05 -8.87771e-06 3.30031e-06
5.81418e-06 3.30031e-06 -4.02381e-05
0.0016216 -8.61004e-06 5.97777e-05
-8.61004e-06 0.00044787 8.50517e-07
5.97777e-05 8.50517e-07 0.000426774
0.0013502 -3.41501e-05 7.95528e-06
-3.41501e-05 0.000334886 1.39791e-06
7.95528e-06 1.39791e-06 0.000311689
0.00117626 4.63986e-05 -7.16566e-06
4.63986e-05 0.000240389 1.83552e-06
-7.16566e-06 1.83552e-06 0.000221341
0.00134746 3.21841e-05 2.19358e-05
3.21841e-05 0.000333906 -1.36624e-06
2.19358e-05 -1.36624e-06 0.000310761
0.00112762 3.88006e-05 1.2423e-05
3.88006e-05 0.000197244 -2.25504e-06
1.2423e-05 -2.25504e-06 0.000183874
0.00122798 3.52022e-05 1.70848e-05
3.52022e-05 0.00027337 -1.79167e-06
1.70848e-05 -1.79167e-06 0.000252515
0.00117994 8.14173e-06 -5.4996e-06
8.14173e-06 0.000197213 4.3807e-07
-5.4996e-06 4.3807e-07 0.000160643
0.00422329 4.69773e-05 5.87442e-05
4.69773e-05 0.00178235 -5.61759e-07
5.87442e-05 -5.61759e-07 0.00177458
0.00142538 1.15841e-05 5.16165e-05
1.15841e-05 0.000361761 -3.60364e-06
5.16165e-05 -3.60364e-06 0.000341159
0.00126557 1.64752e-05 4.44494e-05
1.64752e-05 0.000291011 -5.27375e-06
4.44494e-05 -5.27375e-06 0.000270422
0.00131838 6.98732e-06 8.81489e-06
6.98732e-06 0.000239289 -2.95728e-06
8.81489e-06 -2.95728e-06 0.000197254
0.00118404 5.86808e-06 7.9079e-06
5.86808e-06 0.000195474 -2.79568e-06
7.9079e-06 -2.79568e-06 0.000156293
0.00114253 3.51223e-05 2.79888e-05
3.51223e-05 0.000186643 -6.37922e-06
2.79888e-05 -6.37922e-06 0.00017895
0.00106593 1.58133e-05 6.82648e-06
1.58133e-05 0.000145922 -2.65637e-06
6.82648e-06 -2.65637e-06 0.000112312
0.00143819 -4.17503e-05 2.56736e-06
-4.17503e-05 0.000261385 -1.07816e-06
2.56736e-06 -1.07816e-06 0.000200405
0.00286268 -6.32681e-05 -2.98883e-05
-6.32681e-05 0.00106762 -3.38734e-06
-2.98883e-05 -3.38734e-06 0.00107005
0.00223613 -5.74413e-05 -1.58116e-05
-5.74413e-05 0.000793627 -5.12566e-07
-1.58116e-05 -5.12566e-07 0.000778165
0.00203623 -5.44114e-05 -1.24045e-05
-5.44114e-05 0.000665948 -8.33497e-07
-1.24045e-05 -8.33497e-07 0.000657855
0.00273255 -5.78857e-05 3.42269e-07
-5.78857e-05 0.000991702 -8.87127e-08
3.42269e-07 -8.87127e-08 0.000996929
0.000726156 -1.67274e-05 5.62875e-08
-1.67274e-05 -3.33967e-05 -5.64135e-08
5.62875e-08 -5.64135e-08 -6.5181e-05
0.00150662 -1.52484e-05 4.32363e-05
-1.52484e-05 0.000417648 3.04503e-06
4.32363e-05 3.04503e-06 0.000396069
0.00132972 -2.86155e-05 3.52385e-05
-2.86155e-05 0.000318528 3.30124e-06
3.52385e-05 3.30124e-06 0.000301464
0.00188363 1.33528e-05 2.20951e-05
1.33528e-05 0.000547911 2.92126e-06
2.20951e-05 2.92126e-06 0.000512693
0.0026172 -5.88555e-05 1.06533e-05
-5.88555e-05 0.000922136 1.48752e-06
1.06533e-05 1.48752e-06 0.000930054
0.00170338 -1.15048e-05 1.70829e-05
-1.15048e-05 0.000464476 2.64523e-06
1.70829e-05 2.64523e-06 0.000435305
0.000763061 -2.72818e-05 6.49908e-06
-2.72818e-05 -2.06265e-05 5.14923e-06
6.49908e-06 5.14923e-06 -4.84302e-05
0.000904487 2.47485e-05 2.93524e-06
2.47485e-05 2.88853e-05 1.10537e-06
2.93524e-06 1.10537e-06 -3.21313e-05
0.00257971 -4.42244e-05 2.58803e-05
-4.42244e-05 0.000885863 3.90757e-06
2.58803e-05 3.90757e-06 0.000898237
0.00436973 -4.68913e-05 1.51741e-06
-4.68913e-05 0.00185262 -2.1904e-07
1.51741e-06 -2.1904e-07 0.00184459
0.00266645 -4.72011e-05 -2.23265e-05
-4.72011e-05 0.00100288 -1.29062e-07
-2.23265e-05 -1.29062e-07 0.000986671
0.00455607 -3.533e-05 6.54299e-05
-3.533e-05 0.00193965 1.46236e-07
6.54299e-05 1.46236e-07 0.00193187
0.00137773 -2.77132e-05 8.85961e-06
-2.77132e-05 0.000340112 1.04843e-06
8.85961e-06 1.04843e-06 0.000317381
0.000779773 -1.09737e-05 1.17361e-05
-1.09737e-05 -7.44773e-05 2.21771e-06
1.17361e-05 2.21771e-06 -0.000120101
0.00374701 -0.00010677 8.16874e-06
-0.00010677 0.00156897 1.05005e-06
8.16874e-06 1.05005e-06 0.0015548
0.00210412 -1.40809e-05 3.00142e-05
-1.40809e-05 0.000624411 2.91424e-06
3.00142e-05 2.91424e-06 0.000589138
0.00137111 5.04636e-05 -5.92275e-06
5.04636e-05 0.000351742 1.9353e-06
-5.92275e-06 1.9353e-06 0.00032643
0.0012437 4.88153e-05 -6.69846e-06
4.88153e-05 0.000286324 1.9346e-06
-6.69846e-06 1.9346e-06 0.000263742
0.00109941 4.42546e-05 -7.04096e-06
4.42546e-05 0.000185262 1.73053e-06
-7.04096e-06 1.73053e-06 0.000171499
0.00123642 6.03525e-06 -1.92796e-05
6.03525e-06 0.000223749 3.52657e-06
-1.92796e-05 3.52657e-06 0.00018779
0.00286713 4.08649e-05 -2.30689e-05
4.08649e-05 0.00109038 -8.38001e-07
-2.30689e-05 -8.38001e-07 0.0010748
0.00139672 2.94018e-05 2.2837e-05
2.94018e-05 0.000351911 -1.06375e-06
2.2837e-05 -1.06375e-06 0.000329526
0.00109738 3.85473e-05 1.09234e-05
3.85473e-05 0.000164941 -2.29402e-06
1.09234e-05 -2.29402e-06 0.000157263
0.00128167 3.26956e-05 1.94815e-05
3.26956e-05 0.000304409 -1.57502e-06
1.94815e-05 -1.57502e-06 0.000281932
0.0013771 6.95788e-08 -8.50284e-06
6.95788e-08 0.000266072 1.06796e-07
-8.50284e-06 1.06796e-07 0.000225249
0.00111876 1.5837e-05 -4.60173e-06
1.5837e-05 0.000171151 4.7053e-07
-4.60173e-06 4.7053e-07 0.000137924
0.00124046 3.48528e-06 -6.74269e-06
3.48528e-06 0.000221114 3.71366e-07
-6.74269e-06 3.71366e-07 0.000182716
0.00150752 -4.48093e-05 -1.44061e-06
-4.48093e-05 0.000293973 5.56824e-07
-1.44061e-06 5.56824e-07 0.00023246
0.004371 4.97398e-05 5.90551e-05
4.97398e-05 0.00185211 4.2487e-08
5.90551e-05 4.2487e-08 0.001844
0.00146339 1.37619e-05 5.39542e-05
1.37619e-05 0.000377608 -2.68772e-06
5.39542e-05 -2.68772e-06 0.000357162
0.00207565 2.64055e-05 9.72697e-06
2.64055e-05 0.000594789 -1.13354e-06
9.72697e-06 -1.13354e-06 0.000557137
0.0013799 8.40712e-06 1.02227e-05
8.40712e-06 0.000257267 -2.35671e-06
1.02227e-05 -2.35671e-06 0.000215875
0.00123952 5.0177e-06 8.21532e-06
5.0177e-06 0.000214165 -3.05032e-06
8.21532e-06 -3.05032e-06 0.000173287
0.00174077 -4.44123e-05 3.6579e-06
-4.44123e-05 0.000329852 -1.64328e-06
3.6579e-06 -1.64328e-06 0.0002636
0.00120531 -3.97517e-05 3.37289e-06
-3.97517e-05 0.000117535 -1.62121e-06
3.37289e-06 -1.62121e-06 5.43222e-05
0.00120749 3.45499e-05 2.71527e-05
3.45499e-05 0.000202053 -6.27055e-06
2.71527e-05 -6.27055e-06 0.000199621
0.00103762 3.86309e-05 4.82734e-06
3.86309e-05 0.000132712 -2.78484e-06
4.82734e-06 -2.78484e-06 0.000103365
0.00131783 -3.10247e-05 2.19769e-06
-3.10247e-05 0.000227575 -1.0448e-06
2.19769e-06 -1.0448e-06 0.000168332
0.00112746 -5.73706e-05 2.07343e-06
-5.73706e-05 5.48354e-05 -9.43341e-07
2.07343e-06 -9.43341e-07 -2.06313e-05
0.00326657 -7.63126e-05 -3.54983e-05
-7.63126e-05 0.00131699 -2.65191e-06
-3.54983e-05 -2.65191e-06 0.00130864
0.00276836 -5.86402e-05 -2.83673e-05
-5.86402e-05 0.00100645 -3.48127e-06
-2.83673e-05 -3.48127e-06 0.00101243
0.00295641 -6.72557e-05 -3.17634e-05
-6.72557e-05 0.00113178 -3.18047e-06
-3.17634e-05 -3.18047e-06 0.00113037
0.000679753 -2.10225e-05 -4.52781e-06
-2.10225e-05 -5.38459e-05 -3.79755e-06
-4.52781e-06 -3.79755e-06 -8.58573e-05
0.00368632 -7.3448e-05 8.44236e-07
-7.3448e-05 0.00153277 -1.73368e-07
8.44236e-07 -1.73368e-07 0.00152231
0.00316076 -7.11326e-05 9.02549e-07
-7.11326e-05 0.00125598 -1.50914e-07
9.02549e-07 -1.50914e-07 0.00124978
0.000692557 2.30306e-05 -7.51383e-08
2.30306e-05 -5.44347e-05 -1.55722e-07
-7.51383e-08 -1.55722e-07 -9.64995e-05
0.00186531 -4.50361e-05 -1.05593e-05
-4.50361e-05 0.000535885 -1.00463e-06
-1.05593e-05 -1.00463e-06 0.000540058
0.0007299 -1.96518e-06 -7.52187e-08
-1.96518e-06 -2.91932e-05 -5.82641e-08
-7.52187e-08 -5.82641e-08 -6.43238e-05
0.00115463 -3.84374e-05 5.70018e-06
-3.84374e-05 0.00018078 5.20117e-07
5.70018e-06 5.20117e-07 0.000155575
0.000886082 2.134e-05 9.68538e-08
2.134e-05 1.9968e-05 -2.35718e-07
9.68538e-08 -2.35718e-07 -4.11577e-05
0.00261538 -4.87186e-05 2.69443e-05
-4.87186e-05 0.000911887 3.74703e-06
2.69443e-05 3.74703e-06 0.000922379
0.000800763 -3.0958e-05 3.96253e-06
-3.0958e-05 -3.02887e-05 3.82482e-06
3.96253e-06 3.82482e-06 -4.63021e-05
0.000778227 3.15109e-05 1.00336e-05
3.15109e-05 -2.73449e-05 4.74105e-06
1.00336e-05 4.74105e-06 -7.09254e-05
0.000766703 1.3931e-05 8.42812e-06
1.3931e-05 -1.41528e-05 4.79377e-06
8.42812e-06 4.79377e-06 -5.36797e-05
0.00101335 4.28296e-05 3.51319e-06
4.28296e-05 2.32158e-05 1.64961e-06
3.51319e-06 1.64961e-06 -4.21264e-05
0.0015747 -4.78578e-05 1.27858e-05
-4.78578e-05 0.000386981 3.37548e-06
1.27858e-05 3.37548e-06 0.000368094
0.00093865 3.51633e-05 2.88153e-06
3.51633e-05 3.46384e-05 1.21804e-06
2.88153e-06 1.21804e-06 -2.63764e-05
0.000903884 1.36507e-05 2.70216e-06
1.36507e-05 3.37662e-05 1.68396e-06
2.70216e-06 1.68396e-06 -2.61945e-05
0.00093612 5.15155e-05 1.51677e-06
5.15155e-05 1.73418e-05 3.32667e-08
1.51677e-06 3.32667e-08 -5.55045e-05
0.0025165 -3.971e-05 2.42848e-05
-3.971e-05 0.000846809 4.02379e-06
2.42848e-05 4.02379e-06 0.000861049
0.00259089 -4.43472e-05 3.76085e-07
-4.43472e-05 0.000890594 -8.71071e-08
3.76085e-07 -8.71071e-08 0.000903156
0.00390572 -5.73533e-05 -4.86414e-05
-5.73533e-05 0.0016357 -1.6037e-06
-4.86414e-05 -1.6037e-06 0.00162668
0.00425843 -4.55589e-05 -5.66593e-05
-4.55589e-05 0.00179971 -6.14349e-07
-5.66593e-05 -6.14349e-07 0.00179171
0.00450931 -2.55764e-05 2.68387e-06
-2.55764e-05 0.00191711 -2.94255e-07
2.68387e-06 -2.94255e-07 0.00190961
0.00277207 -4.01889e-05 -2.353e-05
-4.01889e-05 0.00104827 -7.91879e-08
-2.353e-05 -7.91879e-08 0.00103252
0.00146889 -2.32158e-06 1.31966e-05
-2.32158e-06 0.000278537 -6.13513e-08
1.31966e-05 -6.13513e-08 0.000237535
0.00250414 -5.39815e-05 -2.05433e-05
-5.39815e-05 0.000928738 -2.09672e-07
-2.05433e-05 -2.09672e-07 0.000911705
0.00134913 6.49435e-06 1.08517e-05
6.49435e-06 0.000242811 1.10864e-08
1.08517e-05 1.10864e-08 0.0002039
0.0045453 3.23466e-05 6.02219e-05
3.23466e-05 0.00193367 7.38498e-07
6.02219e-05 7.38498e-07 0.00192593
0.000761508 -1.64378e-06 9.86016e-06
-1.64378e-06 -9.48656e-05 7.16451e-07
9.86016e-06 7.16451e-07 -0.000141573
0.00214111 -3.15953e-05 3.22159e-05
-3.15953e-05 0.000633267 2.25981e-06
3.22159e-05 2.25981e-06 0.000596897
0.00120109 4.02409e-06 5.7608e-06
4.02409e-06 3.83706e-07 1.54177e-06
5.7608e-06 1.54177e-06 -7.23382e-05
0.00200881 1.75986e-05 2.66058e-05
1.75986e-05 0.000589396 2.72726e-06
2.66058e-05 2.72726e-06 0.000553542
0.0011571 2.68266e-05 5.16488e-06
2.68266e-05 1.50968e-05 1.66242e-06
5.16488e-06 1.66242e-06 -5.5327e-05
0.00157273 1.62284e-05 -5.72269e-05
1.62284e-05 0.000425974 6.45854e-07
-5.72269e-05 6.45854e-07 0.000405258
0.00137858 3.47924e-05 -8.43252e-06
3.47924e-05 0.000346345 1.53206e-06
-8.43252e-06 1.53206e-06 0.000322954
0.00103121 4.20121e-05 -6.71438e-06
4.20121e-05 0.000132748 1.63905e-06
-6.71438e-06 1.63905e-06 0.000125099
0.0013136 5.17441e-05 -5.87011e-06
5.17441e-05 0.000326568 2.02382e-06
-5.87011e-06 2.02382e-06 0.000301821
0.00141362 -5.42475e-06 -2.63366e-05
-5.42475e-06 0.000281406 3.21146e-06
-2.63366e-05 3.21146e-06 0.000241861
0.00128699 -5.62837e-07 -2.17271e-05
-5.62837e-07 0.00024151 3.4468e-06
-2.17271e-05 3.4468e-06 0.00020407
0.00118719 1.50843e-05 -1.67918e-05
1.50843e-05 0.00020415 3.57666e-06
-1.67918e-05 3.57666e-06 0.000171349
0.00158007 -4.7696e-05 -5.50102e-06
-4.7696e-05 0.000328082 2.21415e-06
-5.50102e-06 2.21415e-06 0.000266043
0.00444157 5.64027e-05 -2.54608e-06
5.64027e-05 0.00188606 -2.99678e-07
-2.54608e-06 -2.99678e-07 0.00187771
0.00141417 2.59073e-05 2.32092e-05
2.59073e-05 0.000355915 -7.32026e-07
2.32092e-05 -7.32026e-07 0.000334302
0.00111338 1.39227e-05 -1.42576e-05
1.39227e-05 0.000101505 2.01277e-07
-1.42576e-05 2.01277e-07 5.89205e-05
0.00142584 6.89502e-07 -8.38569e-06
6.89502e-07 0.000277755 7.58547e-08
-8.38569e-06 7.58547e-08 0.000237531
0.00194917 4.61225e-05 1.93398e-05
4.61225e-05 0.000584685 -1.89357e-06
1.93398e-05 -1.89357e-06 0.000586528
0.00130852 3.21771e-05 -3.8734e-06
3.21771e-05 0.000267331 4.44657e-07
-3.8734e-06 4.44657e-07 0.000240042
0.00130368 4.64013e-07 -7.84648e-06
4.64013e-07 0.00024342 2.34551e-07
-7.84648e-06 2.34551e-07 0.000203561
0.0015791 -4.11766e-05 -2.3335e-06
-4.11766e-05 0.000247053 4.94979e-07
-2.3335e-06 4.94979e-07 0.00017997
0.00143148 -3.62175e-05 -1.18315e-06
-3.62175e-05 0.000281852 6.38832e-07
-1.18315e-06 6.38832e-07 0.000221908
0.00139309 -4.40671e-05 -6.30724e-07
-4.40671e-05 0.000211545 1.45336e-07
-6.30724e-07 1.45336e-07 0.000148821
0.00112229 -5.68921e-05 -1.74831e-10
-5.68921e-05 5.25853e-05 -3.88795e-08
-1.74831e-10 -3.88795e-08 -2.27769e-05
0.000743566 4.15532e-06 9.66531e-06
4.15532e-06 -9.73772e-05 -1.47793e-06
9.66531e-06 -1.47793e-06 -0.000143483
0.00140048 1.29103e-05 1.10033e-05
1.29103e-05 0.000260692 -1.79082e-06
1.10033e-05 -1.79082e-06 0.000220216
0.00154544 9.65059e-06 5.23104e-06
9.65059e-06 0.000182774 -9.53383e-07
5.23104e-06 -9.53383e-07 0.000113738
0.00144606 -2.97997e-05 4.89e-06
-2.97997e-05 0.000159162 -1.41502e-06
4.89e-06 -1.41502e-06 9.15338e-05
0.00132705 -4.25215e-05 3.84176e-06
-4.25215e-05 0.000149574 -1.94188e-06
3.84176e-06 -1.94188e-06 8.39928e-05
0.00166722 -5.34456e-05 1.73718e-06
-5.34456e-05 0.000229218 -6.24517e-07
1.73718e-06 -6.24517e-07 0.000149669
0.00275609 5.39676e-05 2.78426e-05
5.39676e-05 0.000987129 -3.5589e-06
2.78426e-05 -3.5589e-06 0.00099594
0.00114204 -5.42214e-05 1.92063e-06
-5.42214e-05 3.60102e-05 -7.7991e-07
1.92063e-06 -7.7991e-07 -3.90284e-05
0.000726412 4.15384e-05 3.69658e-06
4.15384e-05 -4.00889e-05 -3.66044e-06
3.69658e-06 -3.66044e-06 -6.66107e-05
0.000777734 -1.76423e-05 2.29005e-06
-1.76423e-05 -2.91751e-05 -1.50953e-06
2.29005e-06 -1.50953e-06 -8.88303e-05
0.00118238 -6.11739e-05 2.02865e-06
-6.11739e-05 0.000112323 -1.36943e-06
2.02865e-06 -1.36943e-06 3.58806e-05
0.00122085 -6.53033e-05 1.4193e-06
-6.53033e-05 7.10005e-05 -4.49434e-07
1.4193e-06 -4.49434e-07 -9.54522e-06
0.000731921 3.25134e-05 4.25761e-06
3.25134e-05 -5.86308e-05 -3.89828e-06
4.25761e-06 -3.89828e-06 -7.74742e-05
0.000914032 2.96392e-06 2.25054e-06
2.96392e-06 1.77392e-05 -2.57946e-06
2.25054e-06 -2.57946e-06 -3.0979e-05
0.00350529 -7.67407e-05 -3.9622e-05
-7.67407e-05 0.00144196 -2.42562e-06
-3.9622e-05 -2.42562e-06 0.0014318
0.0030647 -7.19016e-05 -3.27378e-05
-7.19016e-05 0.00120357 -2.91336e-06
-3.27378e-05 -2.91336e-06 0.00119837
0.000662202 1.90614e-05 -6.37134e-06
1.90614e-05 -6.58566e-05 -3.78723e-06
-6.37134e-06 -3.78723e-06 -0.000108201
0.00271087 -5.37629e-05 -2.76933e-05
-5.37629e-05 0.00096658 -3.5922e-06
-2.76933e-05 -3.5922e-06 0.000975324
0.00066136 -4.0071e-05 -3.62791e-06
-4.0071e-05 -6.92292e-05 -3.94592e-06
-3.62791e-06 -3.94592e-06 -9.70812e-05
0.000661503 -2.71957e-06 -5.92234e-06
-2.71957e-06 -5.85477e-05 -3.42237e-06
-5.92234e-06 -3.42237e-06 -9.43254e-05
0.000860751 2.0977e-05 -2.65013e-06
2.0977e-05 7.06851e-06 -1.4375e-06
-2.65013e-06 -1.4375e-06 -5.38795e-05
0.00264169 -4.88871e-05 3.31646e-07
-4.88871e-05 0.000923998 -9.69355e-08
3.31646e-07 -9.69355e-08 0.000934662
0.000784678 -2.97593e-05 1.49313e-07
-2.97593e-05 -3.93395e-05 -6.16792e-09
1.49313e-07 -6.16792e-09 -5.50091e-05
0.00128209 2.43768e-05 9.21878e-06
2.43768e-05 0.000232947 1.90482e-08
9.21878e-06 1.90482e-08 0.000193263
0.00120047 4.22677e-06 6.88608e-06
4.22677e-06 0.000211585 3.06541e-07
6.88608e-06 3.06541e-07 0.000175521
0.000994285 4.29439e-05 1.61241e-07
4.29439e-05 1.37118e-05 -3.20467e-09
1.61241e-07 -3.20467e-09 -5.14836e-05
0.000768859 -3.87639e-05 -3.3561e-08
-3.87639e-05 -2.6802e-05 8.95128e-09
-3.3561e-08 8.95128e-09 -4.94229e-05
0.000909173 3.37497e-05 -6.6178e-08
3.37497e-05 1.99322e-05 8.24975e-08
-6.6178e-08 8.24975e-08 -4.09656e-05
0.000875003 1.11169e-05 -6.61033e-10
1.11169e-05 2.05487e-05 -1.83004e-07
-6.61033e-10 -1.83004e-07 -3.9441e-05
0.000901375 5.06179e-05 -5.0578e-08
5.06179e-05 -9.61056e-07 -1.43448e-07
-5.0578e-08 -1.43448e-07 -7.39484e-05
0.000784986 -3.5293e-05 4.02969e-06
-3.5293e-05 -2.86231e-05 3.73758e-06
4.02969e-06 3.73758e-06 -4.78603e-05
0.000820183 -2.67548e-05 3.68482e-06
-2.67548e-05 -2.8176e-05 3.82654e-06
3.68482e-06 3.82654e-06 -4.09376e-05
0.00088872 6.64823e-07 2.80973e-06
6.64823e-07 4.06782e-06 2.04189e-06
2.80973e-06 2.04189e-06 -4.41316e-05
0.00105637 3.96444e-05 3.97081e-06
3.96444e-05 1.31242e-05 1.73086e-06
3.97081e-06 1.73086e-06 -5.42978e-05
0.000978411 4.16563e-05 3.10706e-06
4.16563e-05 3.58136e-05 1.55448e-06
3.10706e-06 1.55448e-06 -2.70693e-05
0.00117521 5.85022e-05 1.96936e-06
5.85022e-05 5.66728e-05 1.11509e-06
1.96936e-06 1.11509e-06 -2.09595e-05
0.000906849 8.29774e-06 2.69969e-06
8.29774e-06 2.81456e-05 1.86758e-06
2.69969e-06 1.86758e-06 -2.77623e-05
0.000951893 5.43235e-05 1.21642e-06
5.43235e-05 5.956e-06 3.73983e-07
1.21642e-06 3.73983e-07 -6.58719e-05
0.00104401 4.98568e-05 1.57534e-06
4.98568e-05 8.72787e-05 4.07053e-07
1.57534e-06 4.07053e-07 1.29882e-05
0.00107601 6.40493e-05 -1.0254e-07
6.40493e-05 8.06961e-05 -5.15337e-07
-1.0254e-07 -5.15337e-07 1.63085e-06
0.00244091 -3.53317e-05 2.22901e-05
-3.53317e-05 0.000801927 4.06582e-06
2.22901e-05 4.06582e-06 0.000818033
0.00251858 -3.98585e-05 4.30188e-07
-3.98585e-05 0.000847033 -7.55467e-08
4.30188e-07 -7.55467e-08 0.000861489
0.00260107 -4.45183e-05 -2.50379e-05
-4.45183e-05 0.000894798 -3.86424e-06
-2.50379e-05 -3.86424e-06 0.000907549
0.00076615 2.83893e-05 3.76409e-06
2.83893e-05 -4.90011e-05 -3.87835e-06
3.76409e-06 -3.87835e-06 -6.4277e-05
0.00270161 4.92461e-05 2.66068e-05
4.92461e-05 0.000952125 -3.70727e-06
2.66068e-05 -3.70727e-06 0.000962912
0.00372009 -7.00986e-05 -4.37008e-05
-7.00986e-05 0.00154835 -2.08028e-06
-4.37008e-05 -2.08028e-06 0.00153818
0.00407316 -5.03882e-05 -5.27036e-05
-5.03882e-05 0.00171345 -1.10884e-06
-5.27036e-05 -1.10884e-06 0.00170512
0.000688996 1.81387e-05 -8.29768e-06
1.81387e-05 -9.35736e-05 -3.05816e-06
-8.29768e-06 -3.05816e-06 -0.000135851
0.000728738 1.17463e-05 -9.26237e-06
1.17463e-05 -9.75321e-05 -1.95905e-06
-9.26237e-06 -1.95905e-06 -0.000142257
0.00445698 -2.81717e-05 -5.96984e-05
-2.81717e-05 0.00189207 -1.27119e-07
-5.96984e-05 -1.27119e-07 0.00188461
0.00456314 1.74906e-05 -1.05774e-06
1.74906e-05 0.00194249 3.04049e-07
-1.05774e-06 3.04049e-07 0.00193485
0.000754418 -8.53012e-08 6.89527e-08
-8.53012e-08 -9.79581e-05 -2.21312e-07
6.89527e-08 -2.21312e-07 -0.000144582
0.00141074 -6.1798e-06 1.20129e-05
-6.1798e-06 0.000262915 3.46455e-08
1.20129e-05 3.46455e-08 0.000223487
0.0012043 7.20765e-06 1.05498e-07
7.20765e-06 2.23223e-06 3.58363e-09
1.05498e-07 3.58363e-09 -7.04826e-05
0.000677459 2.39655e-05 -5.838e-08
2.39655e-05 -8.66791e-05 -9.21023e-08
-5.838e-08 -9.21023e-08 -0.000129434
0.00116094 2.76774e-05 9.79387e-08
2.76774e-05 1.77249e-05 -1.29259e-07
9.79387e-08 -1.29259e-07 -5.27651e-05
0.000739851 -2.14009e-06 9.96781e-06
-2.14009e-06 -0.000108386 -5.33671e-07
9.96781e-06 -5.33671e-07 -0.000155726
0.00123575 8.11771e-07 5.97555e-06
8.11771e-07 2.37876e-07 8.51328e-07
5.97555e-06 8.51328e-07 -7.481e-05
0.00118285 1.5675e-05 5.50233e-06
1.5675e-05 9.45022e-06 1.56322e-06
5.50233e-06 1.56322e-06 -6.1632e-05
0.0014117 4.59687e-06 2.87704e-06
4.59687e-06 4.16371e-05 1.09376e-06
2.87704e-06 1.09376e-06 -4.25069e-05
0.00111006 3.39339e-05 4.54579e-06
3.39339e-05 1.34117e-05 1.81767e-06
4.54579e-06 1.81767e-06 -5.58214e-05
0.00134987 3.07966e-05 2.42174e-06
3.07966e-05 5.05868e-05 6.82101e-07
2.42174e-06 6.82101e-07 -3.01845e-05
0.00450779 5.20258e-05 -6.65166e-05
5.20258e-05 0.00191723 -4.96938e-07
-6.65166e-05 -4.96938e-07 0.00190915
0.00135453 2.79455e-05 -9.19685e-06
2.79455e-05 0.000328198 1.08221e-06
-9.19685e-06 1.08221e-06 0.000305979
0.000139804 3.4732e-06 -1.10552e-05
3.4732e-06 -0.000396268 2.26499e-06
-1.10552e-05 2.26499e-06 -0.000444781
0.00146335 -1.15149e-06 -2.80821e-05
-1.15149e-06 0.000294517 2.57412e-06
-2.80821e-05 2.57412e-06 0.000255054
0.00267439 6.36564e-05 -1.09324e-05
6.36564e-05 0.000959876 1.41133e-06
-1.09324e-05 1.41133e-06 0.000965246
0.00159656 3.79825e-05 -1.49716e-05
3.79825e-05 0.000411597 3.58817e-06
-1.49716e-05 3.58817e-06 0.000385764
0.00134606 -5.26145e-06 -2.40029e-05
-5.26145e-06 0.000261177 3.43016e-06
-2.40029e-05 3.43016e-06 0.000222579
0.00142501 -3.85576e-05 -7.98494e-06
-3.85576e-05 0.000168178 2.60437e-06
-7.98494e-06 2.60437e-06 0.000100223
0.00159365 -4.8298e-05 -4.91784e-06
-4.8298e-05 0.000312004 1.87084e-06
-4.91784e-06 1.87084e-06 0.000249749
0.00153943 -4.10488e-05 -5.02922e-06
-4.10488e-05 0.000333346 2.37724e-06
-5.02922e-06 2.37724e-06 0.000272691
0.00111812 -5.64892e-05 -1.77202e-06
-5.64892e-05 5.08052e-05 7.81095e-07
-1.77202e-06 7.81095e-07 -2.44559e-05
0.000757664 5.22723e-06 -1.80114e-07
5.22723e-06 -9.11213e-05 -1.88278e-07
-1.80114e-07 -1.88278e-07 -0.000137311
0.00144347 8.86096e-06 -8.72091e-06
8.86096e-06 0.000280065 5.81793e-08
-8.72091e-06 5.81793e-08 0.000240448
0.00122414 7.86123e-06 -1.49437e-06
7.86123e-06 1.99348e-05 8.97508e-08
-1.49437e-06 8.97508e-08 -5.09548e-05
0.00162105 -3.13238e-05 -1.32657e-06
-3.13238e-05 0.000247523 1.06756e-07
-1.32657e-06 1.06756e-07 0.000180471
0.00271331 5.3645e-05 -2.83027e-07
5.3645e-05 0.000967141 -9.8931e-08
-2.83027e-07 -9.8931e-08 0.000975718
0.00116021 4.6523e-05 1.14237e-06
4.6523e-05 0.000181749 7.81511e-08
1.14237e-06 7.81511e-08 0.000157183
0.00111714 -1.8054e-05 1.15905e-07
-1.8054e-05 0.000140181 -3.62141e-08
1.15905e-07 -3.62141e-08 8.14543e-05
0.00132856 -4.2363e-05 -9.68471e-07
-4.2363e-05 0.000150717 1.12715e-07
-9.68471e-07 1.12715e-07 8.52615e-05
0.00140115 -4.93693e-05 -9.87341e-07
-4.93693e-05 9.42623e-05 4.22989e-07
-9.87341e-07 4.22989e-07 1.37715e-05
0.00101874 -5.65965e-05 -2.04765e-07
-5.65965e-05 3.25139e-05 -1.40167e-07
-2.04765e-07 -1.40167e-07 -4.4054e-05
0.00132153 -5.70232e-05 7.54331e-08
-5.70232e-05 0.000124695 1.05484e-07
7.54331e-08 1.05484e-07 5.0114e-05
0.00121034 -6.48433e-05 1.20952e-07
-6.48433e-05 6.62745e-05 1.87044e-08
1.20952e-07 1.87044e-08 -1.41208e-05
0.000754139 3.4191e-05 -1.30149e-07
3.4191e-05 -4.5808e-05 -2.11673e-08
-1.30149e-07 -2.11673e-08 -6.50989e-05
0.000897795 1.36655e-06 -3.02774e-07
1.36655e-06 9.18123e-06 -2.10709e-08
-3.02774e-07 -2.10709e-08 -3.94913e-05
0.00122479 4.24754e-06 5.81569e-06
4.24754e-06 9.29685e-07 -9.39914e-07
5.81569e-06 -9.39914e-07 -7.27729e-05
0.00147911 -5.5903e-06 5.05122e-06
-5.5903e-06 0.000163154 -1.12623e-06
5.05122e-06 -1.12623e-06 9.59382e-05
0.00174546 4.76899e-06 2.33643e-06
4.76899e-06 0.000218988 -2.22152e-07
2.33643e-06 -2.22152e-07 0.000138337
0.00117746 -3.34246e-05 3.42371e-06
-3.34246e-05 -4.5059e-05 -8.17745e-07
3.42371e-06 -8.17745e-07 -0.000126651
0.00132367 -5.48307e-05 1.62809e-06
-5.48307e-05 9.85923e-05 -9.57326e-07
1.62809e-06 -9.57326e-07 2.2307e-05
0.0016335 -5.33678e-05 8.20856e-07
-5.33678e-05 0.000174806 -3.08122e-07
8.20856e-07 -3.08122e-07 9.23598e-05
0.00068898 3.71301e-05 4.07328e-06
3.71301e-05 -6.9571e-05 -3.77921e-06
4.07328e-06 -3.77921e-06 -9.21203e-05
0.00126336 -6.1231e-05 9.76213e-07
-6.1231e-05 6.08165e-05 -4.61363e-07
9.76213e-07 -4.61363e-07 -1.79952e-05
0.00082686 -5.87124e-06 2.3919e-06
-5.87124e-06 -4.40711e-06 -1.44583e-06
2.3919e-06 -1.44583e-06 -6.25692e-05
0.000751915 -4.70829e-05 1.76753e-06
-4.70829e-05 -7.27138e-05 -1.57035e-06
1.76753e-06 -1.57035e-06 -0.00014715
0.00155287 -7.9124e-05 1.01355e-06
-7.9124e-05 0.000273287 -8.15851e-07
1.01355e-06 -8.15851e-07 0.000189631
0.00138166 -7.12815e-05 6.37593e-07
-7.12815e-05 0.000130035 4.94252e-07
6.37593e-07 4.94252e-07 4.97601e-05
0.000909229 -5.76561e-06 3.01392e-06
-5.76561e-06 2.11536e-05 -2.15866e-06
3.01392e-06 -2.15866e-06 -3.21999e-05
0.000902806 1.20478e-05 1.49954e-06
1.20478e-05 8.57194e-06 -2.45603e-06
1.49954e-06 -2.45603e-06 -3.42241e-05
0.000979689 -2.7205e-05 1.26374e-06
-2.7205e-05 4.77743e-05 -1.11231e-06
1.26374e-06 -1.11231e-06 -2.16367e-05
0.000671926 2.71119e-05 -7.16499e-06
2.71119e-05 -7.45205e-05 -3.76418e-06
-7.16499e-06 -3.76418e-06 -0.000117919
0.00266572 -4.90951e-05 -2.66637e-05
-4.90951e-05 0.000934965 -3.74641e-06
-2.66637e-05 -3.74641e-06 0.000945801
0.000771694 -2.86542e-05 -4.04469e-06
-2.86542e-05 -4.68341e-05 -3.83865e-06
-4.04469e-06 -3.83865e-06 -6.21734e-05
0.00064905 7.2482e-06 -5.90603e-06
7.2482e-06 -6.41148e-05 -3.51766e-06
-5.90603e-06 -3.51766e-06 -0.000103571
0.000980274 4.32601e-05 -3.37595e-06
4.32601e-05 6.76837e-06 -1.79196e-06
-3.37595e-06 -1.79196e-06 -5.83003e-05
0.000687537 -3.67744e-05 -4.21195e-06
-3.67744e-05 -6.8e-05 -3.82107e-06
-4.21195e-06 -3.82107e-06 -9.04583e-05
0.000841379 5.84261e-06 -2.30667e-06
5.84261e-06 5.29307e-06 -1.90727e-06
-2.30667e-06 -1.90727e-06 -5.49547e-05
0.00088329 3.19901e-05 -2.7523e-06
3.19901e-05 6.99584e-06 -9.68013e-07
-2.7523e-06 -9.68013e-07 -5.37849e-05
0.000865396 4.96983e-05 -1.72487e-06
4.96983e-05 -1.99055e-05 -3.37368e-07
-1.72487e-06 -3.37368e-07 -9.30302e-05
0.000761791 -3.41437e-05 9.85663e-08
-3.41437e-05 -4.1462e-05 -1.75039e-08
9.85663e-08 -1.75039e-08 -6.03553e-05
0.000804004 -2.59076e-05 1.36932e-07
-2.59076e-05 -3.67769e-05 2.48842e-08
1.36932e-07 2.48842e-08 -4.92695e-05
0.000894278 -1.61871e-06 1.14096e-07
-1.61871e-06 7.20532e-06 -6.28875e-09
1.14096e-07 -6.28875e-09 -4.09724e-05
0.00105774 4.03229e-05 2.11324e-07
4.03229e-05 1.4079e-05 3.56099e-09
2.11324e-07 3.56099e-09 -5.32906e-05
0.000942259 4.04983e-05 6.71316e-08
4.04983e-05 1.79626e-05 8.96698e-08
6.71316e-08 8.96698e-08 -4.47156e-05
0.00116635 5.86643e-05 1.26301e-07
5.86643e-05 5.27436e-05 4.53185e-08
1.26301e-07 4.53185e-08 -2.49333e-05
0.00088785 6.31936e-06 -2.25514e-07
6.31936e-06 2.09005e-05 1.95834e-08
-2.25514e-07 1.95834e-08 -3.52572e-05
0.00103802 5.69174e-05 -4.26587e-08
5.69174e-05 4.9729e-05 -6.7072e-08
-4.26587e-08 -6.7072e-08 -2.18231e-05
0.00102162 4.93942e-05 1.27797e-07
4.93942e-05 7.63258e-05 -2.06598e-07
1.27797e-07 -2.06598e-07 2.00695e-06
0.000987551 6.18757e-05 -5.51029e-07
6.18757e-05 3.60484e-05 2.26969e-07
-5.51029e-07 2.26969e-07 -4.33975e-05
0.000836129 -2.33084e-05 3.25084e-06
-2.33084e-05 -2.62323e-05 3.71527e-06
3.25084e-06 3.71527e-06 -3.58722e-05
0.000894435 5.58884e-06 2.9292e-06
5.58884e-06 1.20288e-05 1.74331e-06
2.9292e-06 1.74331e-06 -3.98296e-05
0.000885901 -5.43691e-06 2.28537e-06
-5.43691e-06 -3.42147e-07 2.30642e-06
2.28537e-06 2.30642e-06 -4.40314e-05
0.00100495 1.90747e-05 1.41121e-06
1.90747e-05 5.9571e-05 6.54501e-07
1.41121e-06 6.54501e-07 -7.53849e-06
0.00123092 5.05877e-05 2.47552e-06
5.05877e-05 4.74497e-05 1.03328e-06
2.47552e-06 1.03328e-06 -3.17437e-05
0.00112398 6.06302e-05 1.57528e-06
6.06302e-05 6.89107e-05 1.14568e-06
1.57528e-06 1.14568e-06 -5.46738e-06
0.0012513 6.46435e-05 9.85541e-07
6.46435e-05 6.6286e-05 1.15436e-06
9.85541e-07 1.15436e-06 -1.72947e-05
0.00105528 3.80405e-05 1.46674e-06
3.80405e-05 9.36137e-05 7.96517e-07
1.46674e-06 7.96517e-07 2.19801e-05
0.00112892 6.55347e-05 2.34728e-07
6.55347e-05 8.03768e-05 2.48588e-07
2.34728e-07 2.48588e-07 3.4189e-06
0.00105532 6.30207e-05 7.76204e-07
6.30207e-05 9.33906e-05 -4.03876e-07
7.76204e-07 -4.03876e-07 8.98909e-06
0.000900817 6.10274e-05 3.02637e-07
6.10274e-05 -1.87659e-05 -3.73775e-07
3.02637e-07 -3.73775e-07 -0.00010149
0.000912663 -6.95863e-06 9.07969e-07
-6.95863e-06 1.81731e-06 1.90755e-06
9.07969e-07 1.90755e-06 -2.80626e-05
0.000844019 -1.76897e-05 2.31199e-06
-1.76897e-05 -3.18834e-05 3.47432e-06
2.31199e-06 3.47432e-06 -3.66174e-05
0.00237145 -3.1153e-05 2.00411e-05
-3.1153e-05 0.000760566 4.06529e-06
2.00411e-05 4.06529e-06 0.000778415
0.00244168 -3.55224e-05 5.31273e-07
-3.55224e-05 0.000801566 -6.56133e-08
5.31273e-07 -6.56133e-08 0.000817876
0.00252215 -4.00236e-05 -2.30949e-05
-4.00236e-05 0.000848014 -3.92102e-06
-2.30949e-05 -3.92102e-06 0.000862679
0.000788928 2.55237e-05 3.21091e-06
2.55237e-05 -4.34291e-05 -3.65682e-06
3.21091e-06 -3.65682e-06 -5.50786e-05
0.00259706 4.46996e-05 2.43695e-05
4.46996e-05 0.000893147 -3.76317e-06
2.43695e-05 -3.76317e-06 0.000905914
0.000780168 2.9716e-05 -2.48144e-07
2.9716e-05 -4.07923e-05 1.92988e-09
-2.48144e-07 1.92988e-09 -5.64758e-05
0.00268105 4.90085e-05 -3.12865e-07
4.90085e-05 0.000942658 -9.42137e-08
-3.12865e-07 -9.42137e-08 0.000953274
0.000670017 2.70186e-05 -7.81138e-06
2.70186e-05 -8.9801e-05 -3.50267e-06
-7.81138e-06 -3.50267e-06 -0.000132664
0.000714746 1.8152e-05 -8.77824e-06
1.8152e-05 -9.22407e-05 -2.52219e-06
-8.77824e-06 -2.52219e-06 -0.00013525
0.0011509 2.71645e-05 -5.06124e-06
2.71645e-05 1.35539e-05 -1.87674e-06
-5.06124e-06 -1.87674e-06 -5.69868e-05
0.00120709 8.45887e-06 -5.59811e-06
8.45887e-06 3.92166e-06 -1.46272e-06
-5.59811e-06 -1.46272e-06 -6.87885e-05
0.000741408 3.90511e-06 -9.82945e-06
3.90511e-06 -0.00010378 -1.19782e-06
-9.82945e-06 -1.19782e-06 -0.000150413
0.00457963 2.08845e-05 -6.36772e-05
2.08845e-05 0.0019515 4.24471e-07
-6.36772e-05 4.24471e-07 0.00194313
0.000756726 -4.3474e-08 1.25242e-08
-4.3474e-08 -0.000100357 -3.14571e-07
1.25242e-08 -3.14571e-07 -0.000147733
0.0012397 4.17574e-06 1.72764e-08
4.17574e-06 2.12806e-06 -2.43201e-07
1.72764e-08 -2.43201e-07 -7.28425e-05
0.0011782 1.49749e-05 1.09744e-08
1.49749e-05 7.83422e-06 -3.96894e-08
1.09744e-08 -3.96894e-08 -6.33146e-05
0.00143862 3.81363e-06 8.13212e-08
3.81363e-06 5.48407e-05 3.49716e-08
8.13212e-08 3.49716e-08 -2.93024e-05
0.00111539 3.50369e-05 2.00281e-07
3.50369e-05 1.68805e-05 -3.18311e-08
2.00281e-07 -3.18311e-08 -5.24026e-05
0.00136275 3.2875e-05 2.97657e-08
3.2875e-05 5.68451e-05 -3.81659e-08
2.97657e-08 -3.81659e-08 -2.39952e-05
0.00124397 6.63645e-07 6.00683e-06
6.63645e-07 2.24064e-09 -4.39419e-07
6.00683e-06 -4.39419e-07 -7.5326e-05
0.00145687 5.93257e-06 3.06209e-06
5.93257e-06 4.61365e-05 8.47462e-07
3.06209e-06 8.47462e-07 -4.10124e-05
0.00139447 1.80553e-05 2.72435e-06
1.80553e-05 5.10275e-05 8.4787e-07
2.72435e-06 8.4787e-07 -3.08216e-05
0.00154163 -1.06247e-06 1.38445e-06
-1.06247e-06 7.59669e-05 7.85428e-07
1.38445e-06 7.85428e-07 -9.85462e-06
0.00129452 4.25262e-05 2.13265e-06
4.25262e-05 4.916e-05 6.42002e-07
2.13265e-06 6.42002e-07 -3.09484e-05
0.00144558 3.4593e-05 9.31899e-07
3.4593e-05 6.238e-05 4.36473e-07
9.31899e-07 4.36473e-07 -2.03692e-05
0.0007721 9.07443e-06 -9.6965e-06
9.07443e-06 -8.4428e-05 1.05678e-06
-9.6965e-06 1.05678e-06 -0.000130889
0.00149817 1.06035e-05 -2.93192e-05
1.06035e-05 0.000305932 1.8242e-06
-2.93192e-05 1.8242e-06 0.000266816
0.000888578 7.33341e-06 -6.35117e-06
7.33341e-06 -0.000150202 1.16782e-06
-6.35117e-06 1.16782e-06 -0.000222972
0.0017996 -3.23296e-05 -7.87455e-06
-3.23296e-05 0.000337689 1.89694e-06
-7.87455e-06 1.89694e-06 0.000271239
0.00267237 5.3288e-05 -2.75665e-05
5.3288e-05 0.000948028 3.57435e-06
-2.75665e-05 3.57435e-06 0.000956377
0.00159822 3.96254e-05 -1.38879e-05
3.96254e-05 0.00040451 2.98503e-06
-1.38879e-05 2.98503e-06 0.000382755
0.00144417 -2.36326e-05 -3.58901e-06
-2.36326e-05 0.000302905 1.74265e-06
-3.58901e-06 1.74265e-06 0.000245383
0.00134348 -4.24729e-05 -5.68167e-06
-4.24729e-05 0.000158756 2.17043e-06
-5.68167e-06 2.17043e-06 9.33731e-05
0.00113654 -4.52984e-05 -3.49695e-06
-4.52984e-05 -3.99246e-05 1.3745e-06
-3.49695e-06 1.3745e-06 -0.000121364
0.00149484 -5.98041e-05 -2.08264e-06
-5.98041e-05 0.000210298 9.45136e-07
-2.08264e-06 9.45136e-07 0.000136181
0.000841956 -5.15723e-05 -1.78576e-06
-5.15723e-05 -5.36892e-05 1.09739e-06
-1.78576e-06 1.09739e-06 -0.000130365
0.00119749 -6.4314e-05 -9.29591e-07
-6.4314e-05 6.03956e-05 4.2892e-07
-9.29591e-07 4.2892e-07 -1.98462e-05
0.000777818 3.55189e-05 -3.77952e-06
3.55189e-05 -3.237e-05 3.76947e-06
-3.77952e-06 3.76947e-06 -5.20709e-05
0.000882766 2.64315e-08 -2.76964e-06
2.64315e-08 1.25905e-06 2.16728e-06
-2.76964e-06 2.16728e-06 -4.73767e-05
0.00108128 7.84594e-06 -1.70301e-07
7.84594e-06 -7.111e-05 1.17352e-09
-1.70301e-07 1.17352e-09 -0.000145625
0.00150126 -8.59719e-06 -1.4188e-06
-8.59719e-06 0.000174105 1.70503e-07
-1.4188e-06 1.70503e-07 0.000106827
0.00164047 6.85271e-06 -1.11139e-06
6.85271e-06 0.000165157 2.26471e-07
-1.11139e-06 2.26471e-07 8.40134e-05
0.00144121 -3.62119e-05 5.20303e-07
-3.62119e-05 8.91491e-05 -3.52854e-07
5.20303e-07 -3.52854e-07 8.64651e-06
0.000733632 3.8437e-05 -1.35906e-08
3.8437e-05 -4.61849e-05 2.01327e-09
-1.35906e-08 2.01327e-09 -6.9062e-05
0.000872282 -1.05851e-05 1.58292e-07
-1.05851e-05 1.6523e-05 -7.45113e-08
1.58292e-07 -7.45113e-08 -4.14082e-05
0.000848208 -4.97339e-05 5.27151e-07
-4.97339e-05 -2.34175e-05 -3.44162e-07
5.27151e-07 -3.44162e-07 -9.71789e-05
0.00145438 -5.66783e-05 -5.07258e-07
-5.66783e-05 0.000162381 1.07635e-07
-5.07258e-07 1.07635e-07 8.60455e-05
0.00146446 -4.97192e-05 -3.03945e-07
-4.97192e-05 8.92058e-05 4.79023e-07
-3.03945e-07 4.79023e-07 6.87013e-06
0.00129863 -7.21715e-05 -6.47339e-07
-7.21715e-05 0.000147398 1.65244e-07
-6.47339e-07 1.65244e-07 6.29773e-05
0.00126791 -6.11074e-05 8.21617e-08
-6.11074e-05 6.28169e-05 1.85699e-07
8.21617e-08 1.85699e-07 -1.59327e-05
0.00126047 -6.81433e-05 3.72497e-07
-6.81433e-05 7.01709e-05 3.95559e-07
3.72497e-07 3.95559e-07 -1.00893e-05
0.000899826 -6.02338e-06 2.99415e-09
-6.02338e-06 1.49522e-05 -7.56993e-08
2.99415e-09 -7.56993e-08 -3.80844e-05
0.000951694 -2.55475e-05 -1.33414e-07
-2.55475e-05 3.23976e-05 -2.13908e-07
-1.33414e-07 -2.13908e-07 -3.68819e-05
0.0008914 1.06514e-05 -1.67635e-07
1.06514e-05 3.0217e-06 1.04325e-07
-1.67635e-07 1.04325e-07 -3.98678e-05
0.00175662 1.31756e-05 2.45795e-06
1.31756e-05 0.000208547 -2.86128e-07
2.45795e-06 -2.86128e-07 0.000125068
0.00154377 -1.19514e-05 3.05479e-06
-1.19514e-05 0.000126762 -2.92823e-07
3.05479e-06 -2.92823e-07 4.6792e-05
0.00168569 9.42506e-06 2.00928e-06
9.42506e-06 0.000155132 1.66083e-07
2.00928e-06 1.66083e-07 6.88679e-05
0.00147316 -3.06184e-05 1.65849e-06
-3.06184e-05 6.54658e-05 -7.3659e-07
1.65849e-06 -7.3659e-07 -1.79156e-05
0.00113929 -5.53823e-05 1.07649e-06
-5.53823e-05 -2.9832e-05 -1.0192e-06
1.07649e-06 -1.0192e-06 -0.00010938
0.00159657 -4.9057e-05 -3.10881e-07
-4.9057e-05 0.000132135 1.29502e-07
-3.10881e-07 1.29502e-07 5.37715e-05
0.000869011 -5.61605e-06 2.84314e-06
-5.61605e-06 9.97635e-06 -1.69429e-06
2.84314e-06 -1.69429e-06 -4.61626e-05
0.00128301 -6.36151e-05 1.22786e-07
-6.36151e-05 5.02076e-05 -3.00002e-07
1.22786e-07 -3.00002e-07 -2.71558e-05
0.00098058 -4.86267e-05 1.20227e-06
-4.86267e-05 5.1488e-05 -3.97142e-07
1.20227e-06 -3.97142e-07 -1.91369e-05
0.000833368 -6.00274e-05 1.53383e-06
-6.00274e-05 -4.35411e-05 -2.00386e-06
1.53383e-06 -2.00386e-06 -0.000127552
0.00140488 -7.87494e-05 1.77547e-06
-7.87494e-05 0.000181376 -1.25984e-07
1.77547e-06 -1.25984e-07 9.23317e-05
0.00163863 -7.84499e-05 -4.2339e-07
-7.84499e-05 0.00024582 1.44539e-06
-4.2339e-07 1.44539e-06 0.000169242
0.000901728 1.69251e-05 1.12073e-06
1.69251e-05 4.68896e-06 -2.13854e-06
1.12073e-06 -2.13854e-06 -3.26454e-05
0.000992018 -3.7982e-05 1.61903e-06
-3.7982e-05 5.3249e-05 -4.57721e-07
1.61903e-06 -4.57721e-07 -1.5964e-05
0.000833859 -1.66171e-05 1.43013e-06
-1.66171e-05 -2.63101e-05 -2.01465e-06
1.43013e-06 -2.01465e-06 -9.41216e-05
0.00114539 -6.19067e-05 3.78509e-07
-6.19067e-05 0.000135935 3.45934e-07
3.78509e-07 3.45934e-07 5.743e-05
0.00106079 4.12044e-05 -4.12001e-06
4.12044e-05 1.60061e-05 -1.9066e-06
-4.12001e-06 -1.9066e-06 -5.13412e-05
0.000788559 -2.51695e-05 -3.54141e-06
-2.51695e-05 -4.50034e-05 -3.77086e-06
-3.54141e-06 -3.77086e-06 -5.72339e-05
0.000739496 -3.27507e-05 -4.37381e-06
-3.27507e-05 -5.39774e-05 -3.82406e-06
-4.37381e-06 -3.82406e-06 -7.24956e-05
0.000902957 -7.85915e-06 -2.289e-06
-7.85915e-06 1.17747e-05 -2.31549e-06
-2.289e-06 -2.31549e-06 -3.62742e-05
0.000909639 3.94312e-05 -2.69705e-06
3.94312e-05 1.85635e-06 -1.38059e-06
-2.69705e-06 -1.38059e-06 -6.06228e-05
0.00114665 5.85018e-05 -1.93095e-06
5.85018e-05 4.35454e-05 -1.0928e-06
-1.93095e-06 -1.0928e-06 -3.41676e-05
0.000870687 3.92316e-06 -2.76198e-06
3.92316e-06 1.46293e-05 -1.81418e-06
-2.76198e-06 -1.81418e-06 -4.17918e-05
0.00100307 4.89037e-05 -1.49661e-06
4.89037e-05 6.73315e-05 -8.89426e-07
-1.49661e-06 -8.89426e-07 -7.02955e-06
0.00113158 5.97009e-05 -1.30065e-06
5.97009e-05 9.70486e-05 -4.61763e-07
-1.30065e-06 -4.61763e-07 2.57792e-05
0.000897507 5.96518e-05 -1.61631e-06
5.96518e-05 -9.3239e-06 2.4119e-07
-1.61631e-06 2.4119e-07 -8.9156e-05
0.000818555 -2.27911e-05 1.37491e-07
-2.27911e-05 -3.51737e-05 3.69066e-08
1.37491e-07 3.69066e-08 -4.46279e-05
0.000899143 3.3691e-06 -9.13189e-09
3.3691e-06 1.57911e-05 -3.91272e-08
-9.13189e-09 -3.91272e-08 -3.62978e-05
0.000892021 -9.54416e-06 5.614e-08
-9.54416e-06 2.47237e-06 6.21888e-08
5.614e-08 6.21888e-08 -4.10572e-05
0.000990849 1.83688e-05 1.66554e-07
1.83688e-05 5.29348e-05 -1.79257e-07
1.66554e-07 -1.79257e-07 -1.43064e-05
0.0012375 5.11365e-05 4.71386e-07
5.11365e-05 5.0778e-05 2.76802e-07
4.71386e-07 2.76802e-07 -2.85298e-05
0.00109305 6.0206e-05 5.35079e-08
6.0206e-05 5.45909e-05 2.36814e-08
5.35079e-08 2.36814e-08 -1.97557e-05
0.00124325 6.45068e-05 5.9873e-09
6.45068e-05 6.2588e-05 2.22648e-07
5.9873e-09 2.22648e-07 -2.09786e-05
0.00101754 3.98787e-05 -1.49015e-08
3.98787e-05 7.58605e-05 9.33789e-08
-1.49015e-08 9.33789e-08 4.31554e-06
0.00124459 6.86838e-05 -3.31846e-07
6.86838e-05 0.000138786 -4.78993e-07
-3.31846e-07 -4.78993e-07 6.21266e-05
0.00107194 6.38557e-05 1.97701e-07
6.38557e-05 0.000101234 -4.20702e-07
1.97701e-07 -4.20702e-07 1.65372e-05
0.000960933 6.26456e-05 -1.29261e-06
6.26456e-05 1.39186e-05 3.98534e-08
-1.29261e-06 3.98534e-08 -6.75466e-05
0.000848125 -2.04405e-05 2.76051e-06
-2.04405e-05 -2.53371e-05 3.587e-06
2.76051e-06 3.587e-06 -3.22294e-05
0.000888561 -1.07721e-05 1.70603e-06
-1.07721e-05 -2.06256e-06 2.31265e-06
1.70603e-06 2.31265e-06 -4.11714e-05
0.00103565 2.77834e-05 1.51877e-06
2.77834e-05 7.63064e-05 4.714e-07
1.51877e-06 4.714e-07 7.76223e-06
0.000986588 1.1889e-05 1.04968e-06
1.1889e-05 4.95532e-05 1.14922e-06
1.04968e-06 1.14922e-06 -1.46117e-05
0.000995619 4.79301e-05 9.31826e-07
4.79301e-05 5.96268e-05 -1.52326e-07
9.31826e-07 -1.52326e-07 -1.82525e-05
0.0013029 5.30196e-05 1.49632e-06
5.30196e-05 5.12865e-05 8.46781e-07
1.49632e-06 8.46781e-07 -3.25798e-05
0.00116394 6.71794e-05 6.01979e-07
6.71794e-05 6.86072e-05 1.15338e-06
6.01979e-07 1.15338e-06 -1.16322e-05
0.00130552 6.89505e-05 5.72829e-08
6.89505e-05 8.08368e-05 1.09632e-06
5.72829e-08 1.09632e-06 -5.21632e-06
0.00108668 6.07068e-05 1.5732e-06
6.07068e-05 0.000114101 1.39794e-06
1.5732e-06 1.39794e-06 3.10302e-05
0.00116303 6.96686e-05 1.27923e-06
6.96686e-05 8.78863e-05 3.54549e-07
1.27923e-06 3.54549e-07 7.16706e-06
0.000718831 5.67724e-05 1.16607e-06
5.67724e-05 -8.63752e-05 -6.68809e-07
1.16607e-06 -6.68809e-07 -0.000179306
0.000906216 -9.7926e-06 1.05147e-06
-9.7926e-06 5.30047e-07 2.05798e-06
1.05147e-06 2.05798e-06 -3.16519e-05
0.000971746 1.07441e-05 3.57041e-07
1.07441e-05 3.93231e-05 1.10055e-06
3.57041e-07 1.10055e-06 -9.0295e-06
0.000918481 -3.04527e-06 7.6939e-07
-3.04527e-06 3.42308e-06 1.83483e-06
7.6939e-07 1.83483e-06 -2.46189e-05
0.000916794 -4.80373e-06 1.20882e-07
-4.80373e-06 4.24693e-06 1.38518e-08
1.20882e-07 1.38518e-08 -2.56828e-05
0.0014361 -1.91328e-05 2.29882e-06
-1.91328e-05 0.000268332 2.07887e-06
2.29882e-06 2.07887e-06 0.000268564
0.00114363 -1.95569e-05 7.07359e-07
-1.95569e-05 0.0001221 -9.00771e-10
7.07359e-07 -9.00771e-10 0.000119029
0.00112051 -1.89237e-05 1.67172e-05
-1.89237e-05 0.000112169 6.69335e-06
1.67172e-05 6.69335e-06 0.000125459
0.00237029 -3.13361e-05 6.37589e-07
-3.13361e-05 0.000759278 -5.74678e-08
6.37589e-07 -5.74678e-08 0.000777309
0.00244022 -3.56924e-05 -2.08863e-05
-3.56924e-05 0.000800083 -3.9376e-06
-2.08863e-05 -3.9376e-06 0.000816603
0.000805327 2.34265e-05 2.66923e-06
2.34265e-05 -4.04746e-05 -3.44889e-06
2.66923e-06 -3.44889e-06 -4.8947e-05
0.00248112 4.0293e-05 2.1997e-05
4.0293e-05 0.000828298 -3.76293e-06
2.1997e-05 -3.76293e-06 0.000843111
0.000803988 2.6225e-05 -1.49795e-07
2.6225e-05 -3.54658e-05 5.11207e-08
-1.49795e-07 5.11207e-08 -4.74046e-05
0.00260075 4.44303e-05 -4.08781e-07
4.44303e-05 0.000895614 -8.51278e-08
-4.08781e-07 -8.51278e-08 0.00090816
0.000797071 3.11461e-05 -3.67698e-06
3.11461e-05 -3.11559e-05 3.88149e-06
-3.67698e-06 3.88149e-06 -4.72579e-05
0.00266216 4.89274e-05 -2.69806e-05
4.89274e-05 0.000934061 3.72331e-06
-2.69806e-05 3.72331e-06 0.000944482
0.00112425 3.61766e-05 -4.68475e-06
3.61766e-05 2.21088e-05 -1.98294e-06
-4.68475e-06 -1.98294e-06 -4.7226e-05
0.00117936 1.7318e-05 -5.30122e-06
1.7318e-05 8.90027e-06 -1.5362e-06
-5.30122e-06 -1.5362e-06 -6.23041e-05
0.00136905 3.08538e-05 -2.41277e-06
3.08538e-05 6.00759e-05 -7.74203e-07
-2.41277e-06 -7.74203e-07 -2.07655e-05
0.00146609 3.35755e-06 -2.94146e-06
3.35755e-06 6.82755e-05 -1.00646e-06
-2.94146e-06 -1.00646e-06 -1.58615e-05
0.00123979 6.65931e-06 -5.97083e-06
6.65931e-06 2.18016e-06 -1.2965e-06
-5.97083e-06 -1.2965e-06 -7.27554e-05
0.000771578 7.38514e-07 -1.00273e-05
7.38514e-07 -9.3223e-05 -1.07061e-07
-1.00273e-05 -1.07061e-07 -0.000140626
0.00124569 2.54128e-06 -2.99182e-08
2.54128e-06 4.68503e-07 -3.63538e-07
-2.99182e-08 -3.63538e-07 -7.49126e-05
0.00147324 7.35174e-06 4.7685e-09
7.35174e-06 5.42056e-05 -1.51943e-07
4.7685e-09 -1.51943e-07 -3.2902e-05
0.00140294 1.45011e-05 1.0124e-07
1.45011e-05 5.54766e-05 8.13243e-09
1.0124e-07 8.13243e-09 -2.63138e-05
0.00154021 -1.83781e-06 -2.50375e-08
-1.83781e-06 7.33851e-05 1.11428e-07
-2.50375e-08 1.11428e-07 -1.26413e-05
0.00130381 4.2765e-05 -3.50592e-08
4.2765e-05 5.36692e-05 -3.35322e-08
-3.50592e-08 -3.35322e-08 -2.65125e-05
0.00145957 3.41177e-05 -1.25573e-08
3.41177e-05 6.9543e-05 9.81676e-08
-1.25573e-08 9.81676e-08 -1.32462e-05
0.00147585 7.10415e-06 3.50024e-06
7.10415e-06 5.14033e-05 -4.93982e-07
3.50024e-06 -4.93982e-07 -3.63628e-05
0.00150839 2.47774e-06 1.36617e-06
2.47774e-06 4.55512e-05 1.27684e-06
1.36617e-06 1.27684e-06 -4.38982e-05
0.00147755 1.73915e-05 1.28363e-06
1.73915e-05 5.60218e-05 5.02649e-07
1.28363e-06 5.02649e-07 -2.77862e-05
0.00168555 -8.21846e-06 1.452e-06
-8.21846e-06 0.000127523 5.90549e-07
1.452e-06 5.90549e-07 4.33496e-05
0.00138496 4.20832e-05 6.55758e-07
4.20832e-05 6.052e-05 8.24982e-08
6.55758e-07 8.24982e-08 -2.24474e-05
0.00150665 2.50636e-05 -1.54995e-06
2.50636e-05 6.90986e-05 6.70967e-07
-1.54995e-06 6.70967e-07 -7.09815e-06
0.000941492 9.30476e-06 -5.85771e-06
9.30476e-06 -0.000141199 8.39559e-07
-5.85771e-06 8.39559e-07 -0.00021655
0.00151569 -1.35932e-05 -7.98105e-06
-1.35932e-05 0.00018084 1.39231e-06
-7.98105e-06 1.39231e-06 0.000113609
0.00153565 1.26583e-05 -4.47855e-06
1.26583e-05 0.000111643 6.58966e-07
-4.47855e-06 6.58966e-07 2.99683e-05
0.00170615 -3.90829e-05 -2.88214e-06
-3.90829e-05 0.000223986 2.77161e-07
-2.88214e-06 2.77161e-07 0.000144565
0.00077757 3.97447e-05 -3.63453e-06
3.97447e-05 -2.31841e-05 3.59734e-06
-3.63453e-06 3.59734e-06 -4.63785e-05
0.000916444 -1.3131e-05 -2.6451e-06
-1.3131e-05 3.70576e-05 1.53577e-06
-2.6451e-06 1.53577e-06 -2.08034e-05
0.000962238 -5.29902e-05 -9.17518e-07
-5.29902e-05 3.44736e-05 7.65462e-07
-9.17518e-07 7.65462e-07 -3.86334e-05
0.00158934 -5.85562e-05 -2.74035e-06
-5.85562e-05 0.000228305 1.18835e-06
-2.74035e-06 1.18835e-06 0.000151911
0.00129555 -4.60742e-05 -1.58749e-06
-4.60742e-05 3.65978e-06 1.12426e-06
-1.58749e-06 1.12426e-06 -7.85649e-05
0.00127068 -6.09503e-05 -8.54326e-07
-6.09503e-05 6.39592e-05 8.49727e-07
-8.54326e-07 8.49727e-07 -1.47288e-05
0.00104605 -6.52924e-05 -1.68659e-06
-6.52924e-05 2.22949e-05 1.19036e-06
-1.68659e-06 1.19036e-06 -6.28902e-05
0.00113088 -6.47987e-05 1.39081e-08
-6.47987e-05 6.20021e-06 -7.35834e-08
1.39081e-08 -7.35834e-08 -7.40359e-05
0.000893964 -6.53509e-06 -2.96594e-06
-6.53509e-06 1.05744e-05 1.79145e-06
-2.96594e-06 1.79145e-06 -4.2142e-05
0.000923311 -2.33752e-05 -1.64309e-06
-2.33752e-05 1.66586e-05 7.1066e-07
-1.64309e-06 7.1066e-07 -5.24177e-05
0.000879999 9.55058e-06 -1.90438e-06
9.55058e-06 -2.52953e-06 2.40676e-06
-1.90438e-06 2.40676e-06 -4.5516e-05
0.00161293 1.35415e-05 -1.14848e-06
1.35415e-05 0.000134653 3.85771e-07
-1.14848e-06 3.85771e-07 4.9992e-05
0.00153906 -1.72967e-05 -4.79185e-07
-1.72967e-05 0.000123411 3.63091e-08
-4.79185e-07 3.63091e-08 4.35936e-05
0.00156237 1.18218e-05 -4.97114e-07
1.18218e-05 9.25203e-05 2.46169e-07
-4.97114e-07 2.46169e-07 5.68676e-06
0.00157287 -2.93914e-05 3.07416e-08
-2.93914e-05 0.00011506 -3.60226e-07
3.07416e-08 -3.60226e-07 3.19033e-05
0.000889 -7.45693e-06 1.35471e-07
-7.45693e-06 1.79428e-05 -1.0259e-07
1.35471e-07 -1.0259e-07 -3.78704e-05
0.00102769 -5.03281e-05 7.65242e-09
-5.03281e-05 7.34907e-05 1.26334e-07
7.65242e-09 1.26334e-07 2.79924e-06
0.000927075 -6.22112e-05 3.4882e-07
-6.22112e-05 5.61817e-06 -4.78782e-07
3.4882e-07 -4.78782e-07 -7.76576e-05
0.00133679 -5.86781e-05 -2.24871e-08
-5.86781e-05 6.94711e-05 -2.87698e-07
-2.24871e-08 -2.87698e-07 -1.00109e-05
0.00148239 -4.74269e-05 3.56881e-07
-4.74269e-05 7.41769e-05 8.79378e-07
3.56881e-07 8.79378e-07 -3.11827e-06
0.00121752 -7.40269e-05 4.4807e-08
-7.40269e-05 9.04784e-05 1.15745e-07
4.4807e-08 1.15745e-07 3.07121e-07
0.00129422 -6.31097e-05 3.02248e-08
-6.31097e-05 5.53819e-05 3.16091e-07
3.02248e-08 3.16091e-07 -2.18339e-05
0.00147209 -7.42062e-05 6.30093e-07
-7.42062e-05 0.000162907 4.36928e-07
6.30093e-07 4.36928e-07 8.72393e-05
0.00101509 -3.65464e-05 1.94843e-08
-3.65464e-05 6.41722e-05 -1.09132e-07
1.94843e-08 -1.09132e-07 -4.82504e-06
0.00108195 -5.92081e-05 -3.25759e-07
-5.92081e-05 0.000102607 2.55553e-07
-3.25759e-07 2.55553e-07 2.38112e-05
0.000890284 1.58069e-05 -1.22021e-07
1.58069e-05 -6.33048e-07 9.00295e-08
-1.22021e-07 9.00295e-08 -3.80969e-05
0.000864445 -1.26623e-05 1.95948e-07
-1.26623e-05 -1.19189e-05 -5.45844e-07
1.95948e-07 -5.45844e-07 -7.87486e-05
0.00157574 1.31419e-05 2.484e-06
1.31419e-05 8.75795e-05 -2.3725e-07
2.484e-06 -2.3725e-07 -2.12133e-06
0.00165542 -9.78254e-06 2.05538e-06
-9.78254e-06 0.000142177 1.90228e-07
2.05538e-06 1.90228e-07 5.77449e-05
0.0016137 1.43703e-05 1.6809e-06
1.43703e-05 0.000101551 3.83041e-07
1.6809e-06 3.83041e-07 1.28866e-05
0.00148369 -2.41417e-05 4.65983e-07
-2.41417e-05 4.72119e-05 -1.40197e-06
4.65983e-07 -1.40197e-06 -3.40114e-05
0.00126406 -5.76092e-05 -3.49395e-07
-5.76092e-05 8.51883e-06 -4.18745e-07
-3.49395e-07 -4.18745e-07 -6.74815e-05
0.00167006 -4.67433e-05 1.51067e-06
-4.67433e-05 0.00014373 -3.81429e-07
1.51067e-06 -3.81429e-07 7.21826e-05
0.000988828 -4.51994e-05 1.38807e-06
-4.51994e-05 5.54514e-05 -1.99288e-07
1.38807e-06 -1.99288e-07 -1.38772e-05
0.00128566 -6.35039e-05 -1.11903e-06
-6.35039e-05 3.78612e-05 2.81319e-07
-1.11903e-06 2.81319e-07 -3.16715e-05
0.000812887 -5.6463e-05 5.46627e-07
-5.6463e-05 -3.49931e-05 -1.06536e-06
5.46627e-07 -1.06536e-06 -0.000114375
0.00110728 -7.15599e-05 1.7777e-06
-7.15599e-05 8.39277e-05 -1.88668e-06
1.7777e-06 -1.88668e-06 -8.75187e-06
0.00127955 -7.92341e-05 2.10367e-06
-7.92341e-05 0.000106707 1.31813e-06
2.10367e-06 1.31813e-06 1.33058e-05
0.00171389 -8.03972e-05 7.77326e-07
-8.03972e-05 0.000269822 6.56678e-07
7.77326e-07 6.56678e-07 0.000194788
0.00089737 1.50662e-05 1.13651e-06
1.50662e-05 2.36096e-07 -1.93296e-06
1.13651e-06 -1.93296e-06 -3.35515e-05
0.000796021 -5.58141e-06 8.64877e-07
-5.58141e-06 -4.81462e-05 -2.01208e-06
8.64877e-07 -2.01208e-06 -0.000109811
0.00102514 -5.87078e-05 7.24377e-07
-5.87078e-05 7.0816e-05 4.33467e-07
7.24377e-07 4.33467e-07 -5.81469e-06
0.0010261 -5.52668e-05 1.05709e-06
-5.52668e-05 7.99744e-05 -4.0579e-07
1.05709e-06 -4.0579e-07 -1.4134e-08
0.00114743 -6.38736e-05 3.6254e-07
-6.38736e-05 0.00013352 9.32753e-07
3.6254e-07 9.32753e-07 5.24836e-05
0.000801529 -2.23123e-05 -3.0043e-06
-2.23123e-05 -4.38474e-05 -3.67387e-06
-3.0043e-06 -3.67387e-06 -5.31177e-05
0.00124782 5.17643e-05 -1.66347e-06
5.17643e-05 5.59553e-05 -5.26779e-07
-1.66347e-06 -5.26779e-07 -2.34732e-05
0.000893487 -1.25869e-05 -1.77706e-06
-1.25869e-05 3.04464e-06 -2.37395e-06
-1.77706e-06 -2.37395e-06 -4.04026e-05
0.000904615 3.45194e-06 -2.85783e-06
3.45194e-06 2.0101e-05 -2.00332e-06
-2.85783e-06 -2.00332e-06 -3.22313e-05
0.000971874 1.76998e-05 -1.13789e-06
1.76998e-05 4.37684e-05 -9.5639e-07
-1.13789e-06 -9.5639e-07 -2.35855e-05
0.00106159 5.97803e-05 -1.5773e-06
5.97803e-05 3.99965e-05 -1.14895e-06
-1.5773e-06 -1.14895e-06 -3.4316e-05
0.00123477 6.43492e-05 -8.85178e-07
6.43492e-05 5.87156e-05 -6.90458e-07
-8.85178e-07 -6.90458e-07 -2.48408e-05
0.000983229 4.2624e-05 -1.36773e-06
4.2624e-05 6.01623e-05 -4.8518e-07
-1.36773e-06 -4.8518e-07 -1.14887e-05
0.00109483 6.4873e-05 -1.26638e-06
6.4873e-05 0.00011218 -8.82604e-07
-1.26638e-06 -8.82604e-07 2.71774e-05
0.00135833 7.1783e-05 -1.26727e-06
7.1783e-05 0.000196202 -9.34693e-07
-1.26727e-06 -9.34693e-07 0.000119848
0.00102694 6.43977e-05 -2.61805e-06
6.43977e-05 4.93562e-05 8.94318e-07
-2.61805e-06 8.94318e-07 -3.08367e-05
0.000830709 -2.00792e-05 1.19486e-07
-2.00792e-05 -3.41351e-05 3.74053e-08
1.19486e-07 3.74053e-08 -4.0888e-05
0.000893626 -1.17819e-05 3.65985e-08
-1.17819e-05 1.79011e-07 5.66079e-08
3.65985e-08 5.66079e-08 -3.88069e-05
0.00100738 2.83597e-05 4.8723e-08
2.83597e-05 6.29231e-05 -4.98389e-08
4.8723e-08 -4.98389e-08 -5.70918e-06
0.000978236 1.16697e-05 9.99215e-08
1.16697e-05 4.58969e-05 -4.9483e-08
9.99215e-08 -4.9483e-08 -1.83875e-05
0.000973638 4.78963e-05 1.13754e-07
4.78963e-05 4.87247e-05 -2.18885e-07
1.13754e-07 -2.18885e-07 -2.93175e-05
0.00131946 5.37888e-05 5.97263e-07
5.37888e-05 5.90122e-05 4.97362e-07
5.97263e-07 4.97362e-07 -2.49455e-05
0.00115795 6.73705e-05 1.1529e-07
6.73705e-05 6.60912e-05 -3.01504e-08
1.1529e-07 -3.01504e-08 -1.41832e-05
0.00126801 6.90894e-05 7.05159e-07
6.90894e-05 6.20311e-05 4.13475e-07
7.05159e-07 4.13475e-07 -2.43752e-05
0.0010513 6.01268e-05 5.09127e-07
6.01268e-05 9.7659e-05 5.21724e-07
5.09127e-07 5.21724e-07 1.46279e-05
0.00123944 7.12904e-05 1.28903e-07
7.12904e-05 0.000126522 -4.235e-07
1.28903e-07 -4.235e-07 4.60905e-05
0.000944167 6.35182e-05 -9.05555e-07
6.35182e-05 2.37888e-05 -5.05397e-07
-9.05555e-07 -5.05397e-07 -6.85102e-05
0.000896716 -1.08994e-05 1.34745e-06
-1.08994e-05 -1.16147e-06 2.22628e-06
1.34745e-06 2.22628e-06 -3.63927e-05
0.000967182 8.02562e-06 8.56788e-07
8.02562e-06 3.74377e-05 1.3092e-06
8.56788e-07 1.3092e-06 -2.21901e-05
0.00105401 5.6635e-05 6.15398e-07
5.6635e-05 8.90154e-05 -1.31448e-07
6.15398e-07 -1.31448e-07 9.68472e-06
0.00103549 3.90835e-05 6.53167e-07
3.90835e-05 8.0227e-05 3.02855e-07
6.53167e-07 3.02855e-07 4.36507e-06
0.00103766 5.5235e-05 -1.71667e-08
5.5235e-05 8.44385e-05 -7.69843e-07
-1.71667e-08 -7.69843e-07 1.37146e-06
0.00131829 5.31219e-05 -1.2651e-06
5.31219e-05 4.20058e-05 -2.72065e-07
-1.2651e-06 -2.72065e-07 -4.22315e-05
0.00118722 7.29274e-05 1.08386e-06
7.29274e-05 6.79027e-05 1.0131e-06
1.08386e-06 1.0131e-06 -1.56684e-05
0.00107916 7.16456e-05 -5.78141e-07
7.16456e-05 -3.03127e-05 -9.39714e-08
-5.78141e-07 -9.39714e-08 -0.0001148
0.00102228 6.4181e-05 6.60181e-07
6.4181e-05 8.49646e-05 1.75676e-06
6.60181e-07 1.75676e-06 -7.96948e-06
0.00118837 7.45027e-05 2.50446e-06
7.45027e-05 0.000112225 -1.21154e-08
2.50446e-06 -1.21154e-08 1.68076e-05
0.000909049 -8.58973e-06 1.00149e-07
-8.58973e-06 2.14679e-06 2.01014e-08
1.00149e-07 2.01014e-08 -3.00113e-05
0.000807951 -5.37208e-07 6.26139e-07
-5.37208e-07 -4.63036e-05 1.75548e-06
6.26139e-07 1.75548e-06 -9.86363e-05
0.000892544 3.64252e-06 -3.46145e-07
3.64252e-06 -1.6359e-06 2.74166e-08
-3.46145e-07 2.74166e-08 -5.06209e-05
0.00117079 1.76364e-05 3.71561e-07
1.76364e-05 0.000146941 2.65085e-07
3.71561e-07 2.65085e-07 8.64511e-05
0.000946131 7.13509e-06 7.97634e-07
7.13509e-06 2.79026e-05 1.05796e-06
7.97634e-07 1.05796e-06 -1.93442e-05
0.000931837 1.46451e-06 6.27195e-07
1.46451e-06 8.97222e-06 1.77494e-06
6.27195e-07 1.77494e-06 -1.77121e-05
0.000925611 -3.51965e-06 1.23739e-07
-3.51965e-06 7.387e-06 1.49035e-08
1.23739e-07 1.49035e-08 -2.07414e-05
0.00142486 -1.58287e-05 1.77321e-06
-1.58287e-05 0.000258514 2.02361e-06
1.77321e-06 2.02361e-06 0.000260495
0.000923724 -3.22109e-06 -1.03576e-06
-3.22109e-06 8.10231e-06 -1.88605e-06
-1.03576e-06 -1.88605e-06 -2.18881e-05
0.00145418 -1.80345e-05 -2.87202e-06
-1.80345e-05 0.000277261 -1.23869e-06
-2.87202e-06 -1.23869e-06 0.000277693
0.00112061 -1.63695e-05 1.42453e-05
-1.63695e-05 0.000106734 6.51196e-06
1.42453e-05 6.51196e-06 0.0001217
0.00144828 -1.99894e-05 -7.68916e-06
-1.99894e-05 0.000278642 -3.30957e-06
-7.68916e-06 -3.30957e-06 0.000277342
0.00169695 -2.32409e-05 1.23077e-05
-2.32409e-05 0.00040844 2.32141e-06
1.23077e-05 2.32141e-06 0.000424891
0.00237301 -3.15025e-05 -1.85903e-05
-3.15025e-05 0.000759996 -3.94303e-06
-1.85903e-05 -3.94303e-06 0.000778193
0.000815537 2.15139e-05 2.24652e-06
2.15139e-05 -4.02294e-05 -3.29713e-06
2.24652e-06 -3.29713e-06 -4.62179e-05
0.000820845 2.37185e-05 -1.56706e-07
2.37185e-05 -3.27312e-05 4.21346e-08
-1.56706e-07 4.21346e-08 -4.13625e-05
0.002388 3.61758e-05 1.9539e-05
3.61758e-05 0.000774722 -3.75565e-06
1.9539e-05 -3.75565e-06 0.000791432
0.00249272 4.00849e-05 -4.62526e-07
4.00849e-05 0.000834763 -6.96338e-08
-4.62526e-07 -6.96338e-08 0.000849326
0.000819403 2.70923e-05 -3.33957e-06
2.70923e-05 -2.73316e-05 3.80612e-06
-3.33957e-06 3.80612e-06 -3.95678e-05
0.00260352 4.42993e-05 -2.57949e-05
4.42993e-05 0.000897665 3.87333e-06
-2.57949e-05 3.87333e-06 0.000909972
0.00131502 4.31579e-05 -2.25445e-06
4.31579e-05 5.91387e-05 -7.39741e-07
-2.25445e-06 -7.39741e-07 -2.11263e-05
0.00141475 1.46545e-05 -2.65774e-06
1.46545e-05 6.14278e-05 -8.21924e-07
-2.65774e-06 -8.21924e-07 -2.03762e-05
0.00147362 3.47509e-05 -9.00781e-07
3.47509e-05 7.6697e-05 -2.58892e-07
-9.00781e-07 -2.58892e-07 -6.14973e-06
0.00153423 -2.70398e-06 -1.4076e-06
-2.70398e-06 6.86265e-05 -6.99487e-07
-1.4076e-06 -6.99487e-07 -1.76134e-05
0.00149346 1.0697e-05 -3.06649e-06
1.0697e-05 6.41552e-05 -1.12464e-06
-3.06649e-06 -1.12464e-06 -2.29421e-05
0.00125351 7.16288e-06 -5.98388e-06
7.16288e-06 3.81903e-06 -2.76026e-07
-5.98388e-06 -2.76026e-07 -7.15532e-05
0.00148844 1.15917e-05 4.78128e-08
1.15917e-05 5.74267e-05 -4.9664e-07
4.78128e-08 -4.9664e-07 -3.0365e-05
0.00151876 -5.34015e-06 1.14356e-07
-5.34015e-06 4.94036e-05 2.38874e-07
1.14356e-07 2.38874e-07 -4.06872e-05
0.00150243 1.64032e-05 5.79136e-08
1.64032e-05 6.849e-05 -5.42618e-08
5.79136e-08 -5.42618e-08 -1.52549e-05
0.00166676 -9.17736e-06 7.24207e-08
-9.17736e-06 0.000116859 -2.38681e-07
7.24207e-08 -2.38681e-07 3.28199e-05
0.00139346 4.30785e-05 -3.29729e-08
4.30785e-05 6.45759e-05 -3.01124e-08
-3.29729e-08 -3.01124e-08 -1.85981e-05
0.00151264 2.52673e-05 -1.48086e-07
2.52673e-05 7.02952e-05 8.86915e-07
-1.48086e-07 8.86915e-07 -5.54751e-06
0.00155001 1.0095e-06 2.37311e-06
1.0095e-06 6.18206e-05 -1.94231e-07
2.37311e-06 -1.94231e-07 -3.00035e-05
0.00159609 1.61942e-06 1.16257e-06
1.61942e-06 7.79636e-05 7.84318e-07
1.16257e-06 7.84318e-07 -1.21918e-05
0.0013982 8.06501e-06 2.85037e-07
8.06501e-06 -1.06721e-05 1.7117e-06
2.85037e-07 1.7117e-06 -8.99306e-05
0.0018293 -1.52902e-05 1.17596e-06
-1.52902e-05 0.00018951 4.94858e-07
1.17596e-06 4.94858e-07 0.00010574
0.00134545 3.79654e-05 -1.21884e-06
3.79654e-05 1.6479e-05 -8.30712e-07
-1.21884e-06 -8.30712e-07 -6.28827e-05
0.0017714 1.88322e-05 -1.13042e-07
1.88322e-05 0.000175469 3.18895e-07
-1.13042e-07 3.18895e-07 0.000106002
0.0014609 1.3104e-05 -4.40707e-06
1.3104e-05 5.65645e-05 9.42268e-07
-4.40707e-06 9.42268e-07 -2.926e-05
0.00153075 -1.93082e-05 -4.01825e-06
-1.93082e-05 0.000118509 3.87424e-07
-4.01825e-06 3.87424e-07 3.8808e-05
0.00144569 1.2077e-05 -2.8144e-06
1.2077e-05 3.31129e-05 1.76952e-07
-2.8144e-06 1.76952e-07 -5.42856e-05
0.00166654 -2.86025e-05 -1.98722e-06
-2.86025e-05 0.000161614 2.08549e-08
-1.98722e-06 2.08549e-08 7.86975e-05
0.000904777 -9.28269e-06 -2.81304e-06
-9.28269e-06 2.38705e-05 1.51354e-06
-2.81304e-06 1.51354e-06 -3.16239e-05
0.00107192 -5.20591e-05 -1.42562e-06
-5.20591e-05 9.41516e-05 7.47559e-07
-1.42562e-06 7.47559e-07 2.33764e-05
0.00100767 -6.39298e-05 -6.79079e-07
-6.39298e-05 4.8539e-05 9.30126e-07
-6.79079e-07 9.30126e-07 -3.40018e-05
0.00153579 -6.19455e-05 -1.03039e-06
-6.19455e-05 0.000169511 5.39557e-07
-1.03039e-06 5.39557e-07 9.00984e-05
0.00136528 -4.57505e-05 -2.27832e-07
-4.57505e-05 1.47559e-05 1.05155e-06
-2.27832e-07 1.05155e-06 -6.14629e-05
0.00130588 -6.26563e-05 2.20182e-07
-6.26563e-05 6.08035e-05 8.61594e-07
2.20182e-07 8.61594e-07 -1.62708e-05
0.00103583 -6.94484e-05 -1.5686e-06
-6.94484e-05 2.2848e-06 7.58292e-07
-1.5686e-06 7.58292e-07 -8.90123e-05
0.00130529 -6.99462e-05 8.61301e-07
-6.99462e-05 7.9742e-05 -1.82265e-06
8.61301e-07 -1.82265e-06 5.00115e-06
0.00103591 -3.64301e-05 -1.56148e-06
-3.64301e-05 7.4003e-05 3.19101e-07
-1.56148e-06 3.19101e-07 5.19169e-06
0.00102288 -5.72717e-05 -1.44698e-06
-5.72717e-05 7.1483e-05 -5.29304e-09
-1.44698e-06 -5.29304e-09 -7.66937e-06
0.000876806 1.53109e-05 -1.40556e-06
1.53109e-05 -6.92435e-06 2.2591e-06
-1.40556e-06 2.2591e-06 -4.45643e-05
0.000897132 -8.74922e-06 -6.5794e-07
-8.74922e-06 3.71108e-06 9.50661e-07
-6.5794e-07 9.50661e-07 -6.2256e-05
0.001571 1.35108e-05 -1.07126e-07
1.35108e-05 8.54117e-05 1.76026e-07
-1.07126e-07 1.76026e-07 -4.26733e-06
0.00165974 -7.37582e-06 -3.42086e-07
-7.37582e-06 0.000144638 1.23609e-07
-3.42086e-07 1.23609e-07 6.04206e-05
0.00156603 1.41743e-05 -7.24128e-07
1.41743e-05 7.93995e-05 2.89275e-07
-7.24128e-07 2.89275e-07 -9.24885e-06
0.00152327 -2.49151e-05 -2.06123e-07
-2.49151e-05 6.69467e-05 -3.32057e-07
-2.06123e-07 -3.32057e-07 -1.41222e-05
0.00102283 -4.57255e-05 3.52626e-08
-4.57255e-05 7.12366e-05 -1.33242e-08
3.52626e-08 -1.33242e-08 1.98092e-06
0.000878965 -5.76832e-05 3.28826e-07
-5.76832e-05 -1.39173e-06 -2.1067e-07
3.28826e-07 -2.1067e-07 -7.99846e-05
0.00111586 -7.16004e-05 4.97354e-08
-7.16004e-05 8.94285e-05 -1.5772e-07
4.97354e-08 -1.5772e-07 -3.49214e-06
0.00139027 -5.93627e-05 -6.02541e-07
-5.93627e-05 7.157e-05 -2.15704e-07
-6.02541e-07 -2.15704e-07 -5.1849e-06
0.00150113 -4.57688e-05 2.99657e-07
-4.57688e-05 6.71612e-05 8.05443e-07
2.99657e-07 8.05443e-07 -2.17518e-06
0.00128555 -7.89091e-05 -7.83108e-08
-7.89091e-05 0.000111272 5.50464e-07
-7.83108e-08 5.50464e-07 1.70261e-05
0.00130186 -6.32488e-05 3.7077e-09
-6.32488e-05 4.69009e-05 6.08588e-07
3.7077e-09 6.08588e-07 -2.25632e-05
0.00143069 -7.38235e-05 7.53457e-07
-7.38235e-05 0.000128814 -1.78345e-06
7.53457e-07 -1.78345e-06 5.6318e-05
0.00105507 -5.95125e-05 1.13564e-07
-5.95125e-05 8.529e-05 8.07159e-10
1.13564e-07 8.07159e-10 8.6795e-06
0.00110598 -6.24868e-05 -3.26145e-09
-6.24868e-05 0.000111725 1.0217e-07
-3.26145e-09 1.0217e-07 3.08227e-05
0.00103895 -5.08616e-05 -2.70928e-07
-5.08616e-05 8.62686e-05 1.57023e-07
-2.70928e-07 1.57023e-07 6.3272e-06
0.000762412 1.94355e-05 -2.4736e-07
1.94355e-05 -6.83429e-05 3.00911e-08
-2.4736e-07 3.00911e-08 -0.000103231
0.000840947 4.39021e-07 1.93793e-07
4.39021e-07 -2.71705e-05 -4.42886e-07
1.93793e-07 -4.42886e-07 -8.7678e-05
0.0016413 1.9312e-05 1.94584e-06
1.9312e-05 0.000104569 1.37709e-07
1.94584e-06 1.37709e-07 1.2802e-05
0.00158604 7.8339e-06 2.25826e-06
7.8339e-06 7.81369e-05 1.39712e-07
2.25826e-06 1.39712e-07 -9.744e-06
0.00155952 -2.82111e-05 1.90831e-06
-2.82111e-05 6.41413e-05 -2.22867e-06
1.90831e-06 -2.22867e-06 -1.19884e-05
0.00132178 -5.25042e-05 7.02592e-07
-5.25042e-05 3.66161e-06 -1.38748e-06
7.02592e-07 -1.38748e-06 -6.31286e-05
0.00101558 -5.97321e-05 3.67287e-07
-5.97321e-05 6.82934e-05 2.54315e-07
3.67287e-07 2.54315e-07 -7.72831e-06
0.00167197 -7.2195e-05 4.09405e-07
-7.2195e-05 0.000204419 4.69064e-07
4.09405e-07 4.69064e-07 0.000143248
0.000613781 -5.2835e-05 5.10281e-07
-5.2835e-05 -0.000130804 -2.06241e-06
5.10281e-07 -2.06241e-06 -0.000216764
0.00117943 -7.79646e-05 3.02566e-06
-7.79646e-05 0.000106942 -1.94307e-06
3.02566e-06 -1.94307e-06 2.90137e-06
0.00142272 -8.44247e-05 2.56351e-06
-8.44247e-05 0.000155331 1.50555e-06
2.56351e-06 1.50555e-06 5.89231e-05
0.000673484 1.48322e-05 9.51075e-07
1.48322e-05 -0.000116315 -2.44008e-06
9.51075e-07 -2.44008e-06 -0.00014939
0.00104539 -1.66561e-06 1.00063e-06
-1.66561e-06 7.70279e-05 -1.19278e-06
1.00063e-06 -1.19278e-06 2.24725e-05
0.00101959 -3.86771e-05 5.88545e-07
-3.86771e-05 7.46971e-05 -7.05155e-07
5.88545e-07 -7.05155e-07 1.04234e-06
0.00105645 -6.11501e-05 2.16751e-07
-6.11501e-05 8.45936e-05 7.05908e-07
2.16751e-07 7.05908e-07 6.3505e-06
0.00112948 -6.35713e-05 7.71366e-07
-6.35713e-05 0.000133594 7.20769e-07
7.71366e-07 7.20769e-07 4.59689e-05
0.00104703 -6.13997e-05 2.29063e-07
-6.13997e-05 7.72356e-05 5.36471e-07
2.29063e-07 5.36471e-07 -5.09923e-06
0.000814581 -1.97503e-05 -2.52306e-06
-1.97503e-05 -4.22683e-05 -3.56029e-06
-2.52306e-06 -3.56029e-06 -4.88861e-05
0.00090139 -1.24014e-05 -1.55182e-06
-1.24014e-05 3.84866e-06 -2.29264e-06
-1.55182e-06 -2.29264e-06 -3.50731e-05
0.0013377 5.46603e-05 -5.18221e-07
5.46603e-05 6.75034e-05 1.02742e-07
-5.18221e-07 1.02742e-07 -1.6543e-05
0.000972376 1.07971e-05 -9.17919e-07
1.07971e-05 4.34488e-05 -1.29751e-06
-9.17919e-07 -1.29751e-06 -2.09287e-05
0.000974407 2.82652e-05 -1.38356e-06
2.82652e-05 4.68918e-05 -4.22903e-07
-1.38356e-06 -4.22903e-07 -2.16221e-05
0.000952081 4.80678e-05 -5.63472e-07
4.80678e-05 3.80724e-05 -9.84786e-08
-5.63472e-07 -9.84786e-08 -4.01552e-05
0.00115082 6.74925e-05 -7.17442e-07
6.74925e-05 6.303e-05 -1.30594e-06
-7.17442e-07 -1.30594e-06 -1.72757e-05
0.0012286 6.91026e-05 3.71981e-08
6.91026e-05 4.22892e-05 -5.15691e-07
3.71981e-08 -5.15691e-07 -4.44578e-05
0.00100686 5.92365e-05 -3.29012e-07
5.92365e-05 7.65548e-05 -2.40306e-07
-3.29012e-07 -2.40306e-07 -6.39405e-06
0.00115839 6.98853e-05 -1.46321e-06
6.98853e-05 0.000128483 -1.0987e-07
-1.46321e-06 -1.0987e-07 3.68344e-05
0.00131108 7.27994e-05 -1.90021e-06
7.27994e-05 0.000162963 -7.58281e-07
-1.90021e-06 -7.58281e-07 8.2807e-05
0.000902033 -1.09341e-05 1.28923e-07
-1.09341e-05 1.34126e-06 3.96113e-08
1.28923e-07 3.96113e-08 -3.38087e-05
0.0009719 6.91789e-06 3.25025e-08
6.91789e-06 3.99492e-05 9.30857e-09
3.25025e-08 9.30857e-09 -1.96878e-05
0.00105236 5.67752e-05 -2.22625e-07
5.67752e-05 8.92093e-05 -1.8863e-07
-2.22625e-07 -1.8863e-07 1.03092e-05
0.00103159 4.20739e-05 1.83198e-08
4.20739e-05 7.89739e-05 -4.54771e-08
1.83198e-08 -4.54771e-08 2.66836e-06
0.000992373 5.47716e-05 -2.81891e-07
5.47716e-05 6.26064e-05 -1.10044e-07
-2.81891e-07 -1.10044e-07 -2.09886e-05
0.0013428 5.52529e-05 -4.41761e-07
5.52529e-05 5.51977e-05 3.87045e-08
-4.41761e-07 3.87045e-08 -2.96095e-05
0.00119967 7.29317e-05 5.86136e-07
7.29317e-05 7.28291e-05 -1.091e-07
5.86136e-07 -1.091e-07 -1.08306e-05
0.00119706 7.32004e-05 2.965e-07
7.32004e-05 2.5105e-05 5.15367e-07
2.965e-07 5.15367e-07 -5.86792e-05
0.000897776 6.05427e-05 3.95277e-07
6.05427e-05 2.30126e-05 7.9896e-07
3.95277e-07 7.9896e-07 -7.03492e-05
0.00120167 7.50291e-05 -1.09391e-07
7.50291e-05 0.000119555 -3.17161e-07
-1.09391e-07 -3.17161e-07 2.24342e-05
0.000959539 6.0827e-06 7.61058e-07
6.0827e-06 3.19511e-05 1.35321e-06
7.61058e-07 1.35321e-06 -2.3116e-05
0.000926883 3.11628e-05 9.5477e-07
3.11628e-05 2.16263e-05 9.7919e-07
9.5477e-07 9.7919e-07 -5.19874e-05
0.00113597 6.60799e-05 -7.55346e-08
6.60799e-05 0.000135704 -1.0853e-07
-7.55346e-08 -1.0853e-07 4.87453e-05
0.000951043 5.1019e-05 2.78854e-07
5.1019e-05 4.05619e-05 -2.98666e-07
2.78854e-07 -2.98666e-07 -4.38082e-05
0.00100487 5.7134e-05 -2.12945e-07
5.7134e-05 6.42683e-05 -7.31718e-07
-2.12945e-07 -7.31718e-07 -2.232e-05
0.00133997 5.54426e-05 -6.74437e-07
5.54426e-05 1.39781e-05 -4.15059e-07
-6.74437e-07 -4.15059e-07 -5.42714e-05
0.0014152 8.47823e-05 1.29088e-06
8.47823e-05 0.00017762 -1.07278e-07
1.29088e-06 -1.07278e-07 8.36171e-05
0.000550578 6.30249e-05 7.67499e-07
6.30249e-05 -0.000314911 -3.24189e-07
7.67499e-07 -3.24189e-07 -0.000397934
0.00145893 7.94547e-05 2.49891e-06
7.94547e-05 0.000289821 2.8081e-06
2.49891e-06 2.8081e-06 0.000189573
0.000367055 5.56095e-05 5.05598e-07
5.56095e-05 -0.000298488 2.75218e-07
5.05598e-07 2.75218e-07 -0.000407355
0.000912448 -6.3815e-06 -1.20629e-06
-6.3815e-06 4.03845e-06 -1.97246e-06
-1.20629e-06 -1.97246e-06 -2.80936e-05
0.000875024 4.33895e-06 3.71859e-07
4.33895e-06 -1.13099e-05 5.89006e-07
3.71859e-07 5.89006e-07 -6.34945e-05
0.000892472 1.29773e-05 5.11298e-07
1.29773e-05 2.12103e-06 1.22773e-06
5.11298e-07 1.22773e-06 -6.32373e-05
0.000815586 -4.1967e-06 -4.90803e-07
-4.1967e-06 -4.1484e-05 -1.06862e-06
-4.90803e-07 -1.06862e-06 -9.10943e-05
0.000955278 1.16357e-05 1.51686e-07
1.16357e-05 3.27086e-05 -4.68194e-09
1.51686e-07 -4.68194e-09 -1.46245e-05
0.00103366 6.69427e-06 -5.43962e-08
6.69427e-06 7.54627e-05 -4.9039e-07
-5.43962e-08 -4.9039e-07 1.44988e-05
0.00112929 2.21209e-05 2.52293e-07
2.21209e-05 0.000128673 2.066e-07
2.52293e-07 2.066e-07 5.81731e-05
0.000872757 -7.50581e-06 1.10786e-07
-7.50581e-06 -5.05144e-06 1.02393e-06
1.10786e-07 1.02393e-06 -6.58666e-05
0.00095042 -1.48124e-05 8.94604e-08
-1.48124e-05 3.01403e-05 9.7783e-07
8.94604e-08 9.7783e-07 -1.55474e-05
0.000936295 5.64823e-06 6.52951e-07
5.64823e-06 1.06228e-05 1.67608e-06
6.52951e-07 1.67608e-06 -1.54437e-05
0.000930456 -3.32221e-06 -1.19896e-07
-3.32221e-06 8.50834e-06 2.99392e-08
-1.19896e-07 2.99392e-08 -1.82061e-05
0.00141323 -1.20959e-05 1.32145e-06
-1.20959e-05 0.000248843 1.95596e-06
1.32145e-06 1.95596e-06 0.000252274
0.00093052 -3.70529e-06 -5.46074e-07
-3.70529e-06 1.01988e-05 -1.85941e-06
-5.46074e-07 -1.85941e-06 -1.79898e-05
0.00144033 -1.48869e-05 -2.33677e-06
-1.48869e-05 0.000266301 -1.215e-06
-2.33677e-06 -1.215e-06 0.000268427
0.00111097 -1.37191e-05 1.14961e-05
-1.37191e-05 9.73902e-05 6.37828e-06
1.14961e-05 6.37828e-06 0.000113769
0.00147164 -1.72402e-05 -6.84762e-06
-1.72402e-05 0.000285895 -4.51787e-06
-6.84762e-06 -4.51787e-06 0.00028649
0.00106009 -1.73585e-05 4.67013e-06
-1.73585e-05 7.59166e-05 2.47482e-06
4.67013e-06 2.47482e-06 9.08812e-05
0.00225965 -3.0332e-05 -5.61173e-06
-3.0332e-05 0.000697722 -1.65153e-06
-5.61173e-06 -1.65153e-06 0.000717136
0.000824982 1.93716e-05 1.84935e-06
1.93716e-05 -4.02013e-05 -3.25347e-06
1.84935e-06 -3.25347e-06 -4.41741e-05
0.000831874 2.16262e-05 -1.13358e-07
2.16262e-05 -3.22131e-05 3.43459e-08
-1.13358e-07 3.43459e-08 -3.82849e-05
0.00232217 3.20434e-05 1.7262e-05
3.20434e-05 0.000735097 -3.77441e-06
1.7262e-05 -3.77441e-06 0.000753466
0.000835433 2.40362e-05 -2.98303e-06
2.40362e-05 -2.54728e-05 3.5457e-06
-2.98303e-06 3.5457e-06 -3.42583e-05
0.00239529 3.5935e-05 -6.16535e-07
3.5935e-05 0.00077907 -6.22538e-08
-6.16535e-07 -6.22538e-08 0.000795571
0.00250266 3.9824e-05 -2.37613e-05
3.9824e-05 0.000840418 3.92787e-06
-2.37613e-05 3.92787e-06 0.000854735
0.00140127 4.40056e-05 -1.1557e-06
4.40056e-05 6.82921e-05 -2.62948e-07
-1.1557e-06 -2.62948e-07 -1.50876e-05
0.00153268 1.4524e-05 -9.58491e-07
1.4524e-05 8.36216e-05 -5.71738e-07
-9.58491e-07 -5.71738e-07 -4.32683e-08
0.00152191 2.54932e-05 1.46225e-06
2.54932e-05 7.30856e-05 2.55859e-07
1.46225e-06 2.55859e-07 -2.40132e-06
0.00164848 -1.02397e-05 -1.03803e-06
-1.02397e-05 0.00010655 -9.01883e-07
-1.03803e-06 -9.01883e-07 2.26297e-05
0.00153903 -1.00243e-05 -1.48812e-06
-1.00243e-05 5.80126e-05 -8.36408e-07
-1.48812e-06 -8.36408e-07 -3.27151e-05
0.00149842 1.50231e-05 -3.21305e-06
1.50231e-05 6.21935e-05 -4.60503e-07
-3.21305e-06 -4.60503e-07 -2.5604e-05
0.00156763 4.72864e-06 1.40526e-07
4.72864e-06 6.97774e-05 -3.37834e-07
1.40526e-07 -3.37834e-07 -2.22609e-05
0.00159983 -2.52597e-06 1.70169e-07
-2.52597e-06 8.10854e-05 -2.38948e-07
1.70169e-07 -2.38948e-07 -8.90232e-06
0.0014658 6.47441e-06 -1.31454e-07
6.47441e-06 2.09879e-05 1.78258e-07
-1.31454e-07 1.78258e-07 -5.8919e-05
0.00167919 -1.49889e-05 -1.78893e-07
-1.49889e-05 0.000114529 -5.24251e-07
-1.78893e-07 -5.24251e-07 3.05426e-05
0.0014031 3.92729e-05 -3.15666e-07
3.92729e-05 4.66624e-05 -7.51969e-08
-3.15666e-07 -7.51969e-08 -3.30763e-05
0.00159214 1.88156e-05 1.63992e-06
1.88156e-05 8.77964e-05 -5.00843e-07
1.63992e-06 -5.00843e-07 2.09714e-05
0.00160416 1.1975e-05 1.24677e-06
1.1975e-05 7.74705e-05 4.33175e-07
1.24677e-06 4.33175e-07 -1.57909e-05
0.00162081 -1.00088e-05 1.21183e-06
-1.00088e-05 8.93772e-05 7.67224e-07
1.21183e-06 7.67224e-07 9.35865e-07
0.00159359 -1.73425e-06 5.44267e-07
-1.73425e-06 6.76647e-05 1.73085e-06
5.44267e-07 1.73085e-06 -8.58895e-06
0.00157671 3.47776e-05 -9.11321e-07
3.47776e-05 9.24868e-05 -3.3462e-07
-9.11321e-07 -3.3462e-07 2.77679e-05
0.00156501 1.38348e-05 -2.19234e-06
1.38348e-05 8.26434e-05 5.99375e-07
-2.19234e-06 5.99375e-07 -7.01337e-06
0.00167141 -6.68517e-06 -3.06142e-06
-6.68517e-06 0.000150613 2.02512e-07
-3.06142e-06 2.02512e-07 6.66096e-05
0.00150319 1.38852e-05 -3.09592e-06
1.38852e-05 4.98941e-05 1.86593e-07
-3.09592e-06 1.86593e-07 -3.87518e-05
0.00156887 -2.52882e-05 -1.26148e-06
-2.52882e-05 8.96236e-05 4.88169e-07
-1.26148e-06 4.88169e-07 8.70645e-06
0.00105627 -4.4661e-05 -1.39083e-06
-4.4661e-05 8.66749e-05 2.5101e-07
-1.39083e-06 2.5101e-07 1.75582e-05
0.000965212 -5.95602e-05 -4.08515e-08
-5.95602e-05 4.19466e-05 3.99737e-07
-4.08515e-08 3.99737e-07 -3.58707e-05
0.00112223 -7.15727e-05 -1.29115e-06
-7.15727e-05 9.39813e-05 2.01466e-06
-1.29115e-06 2.01466e-06 8.07567e-07
0.00151757 -6.10954e-05 -5.46146e-07
-6.10954e-05 0.000135138 4.34608e-07
-5.46146e-07 4.34608e-07 5.7632e-05
0.0013479 -4.49941e-05 -4.69292e-07
-4.49941e-05 -1.7294e-06 2.17367e-06
-4.69292e-07 2.17367e-06 -6.88689e-05
0.00130913 -6.28529e-05 9.97615e-07
-6.28529e-05 5.16512e-05 9.70308e-07
9.97615e-07 9.70308e-07 -1.77459e-05
0.00129205 -7.85892e-05 -1.98538e-06
-7.85892e-05 0.000116031 5.10723e-08
-1.98538e-06 5.10723e-08 2.09463e-05
0.00117247 -6.77473e-05 -1.46833e-06
-6.77473e-05 3.53871e-07 -4.93183e-06
-1.46833e-06 -4.93183e-06 -6.96766e-05
0.0010846 -6.04069e-05 -6.64344e-07
-6.04069e-05 9.95532e-05 -2.92167e-07
-6.64344e-07 -2.92167e-07 2.29559e-05
0.00106129 -6.09897e-05 -1.06864e-06
-6.09897e-05 8.82773e-05 -8.74815e-07
-1.06864e-06 -8.74815e-07 7.52186e-06
0.00105158 -4.50222e-05 -8.74852e-07
-4.50222e-05 9.22436e-05 8.91401e-07
-8.74852e-07 8.91401e-07 1.25278e-05
0.000630708 1.94086e-05 -9.48802e-07
1.94086e-05 -0.000135507 2.02003e-06
-9.48802e-07 2.02003e-06 -0.000171358
0.000890512 7.1945e-06 -2.2689e-07
7.1945e-06 -4.03067e-06 8.90864e-07
-2.2689e-07 8.90864e-07 -6.32937e-05
0.00157113 1.80325e-05 -1.1153e-07
1.80325e-05 7.16466e-05 9.38392e-08
-1.1153e-07 9.38392e-08 -1.96741e-05
0.00162626 6.92301e-06 -1.86919e-07
6.92301e-06 9.96513e-05 1.27976e-07
-1.86919e-07 1.27976e-07 1.20451e-05
0.00161766 -2.86237e-05 -9.42128e-07
-2.86237e-05 9.70456e-05 1.84784e-07
-9.42128e-07 1.84784e-07 2.14331e-05
0.00106083 -6.06492e-05 3.86518e-08
-6.06492e-05 8.95331e-05 1.21179e-07
3.86518e-08 1.21179e-07 1.35047e-05
0.000898002 -6.09969e-05 6.33558e-07
-6.09969e-05 9.18445e-06 -5.27063e-07
6.33558e-07 -5.27063e-07 -7.59269e-05
0.00115098 -7.68137e-05 -1.2485e-07
-7.68137e-05 9.56854e-05 -2.76146e-07
-1.2485e-07 -2.76146e-07 -8.86728e-06
0.00139562 -5.31455e-05 3.49384e-07
-5.31455e-05 3.8973e-05 -4.22853e-07
3.49384e-07 -4.22853e-07 -2.89225e-05
0.00136787 -8.10453e-05 -2.00315e-07
-8.10453e-05 0.000130156 -4.53011e-07
-2.00315e-07 -4.53011e-07 3.66683e-05
0.00138713 -6.92533e-05 -5.71771e-07
-6.92533e-05 6.59403e-05 -7.07319e-07
-5.71771e-07 -7.07319e-07 4.22509e-06
0.000665563 1.88687e-05 -2.79907e-09
1.88687e-05 -0.000120358 -6.08101e-07
-2.79907e-09 -6.08101e-07 -0.000153153
0.00107019 -6.15385e-05 4.61632e-08
-6.15385e-05 9.1491e-05 1.16807e-07
4.61632e-08 1.16807e-07 1.30948e-05
0.00101971 -6.03613e-05 -7.89035e-07
-6.03613e-05 6.39413e-05 -5.04846e-08
-7.89035e-07 -5.04846e-08 -1.74762e-05
0.00112122 -6.01017e-05 -3.95504e-07
-6.01017e-05 0.000128947 5.31985e-07
-3.95504e-07 5.31985e-07 4.13823e-05
0.00109152 -3.8573e-05 -2.21882e-08
-3.8573e-05 0.000110478 2.02364e-08
-2.21882e-08 2.02364e-08 3.72192e-05
0.000938603 5.21397e-07 5.24281e-08
5.21397e-07 2.14672e-05 1.76418e-07
5.24281e-08 1.76418e-07 -3.33782e-05
0.0017034 2.15521e-05 2.17481e-06
2.15521e-05 0.000131943 4.49347e-07
2.17481e-06 4.49347e-07 4.05621e-05
0.00163983 7.25443e-06 2.38976e-06
7.25443e-06 8.6175e-05 -1.93257e-07
2.38976e-06 -1.93257e-07 -1.25758e-06
0.00140065 -3.4375e-05 2.44022e-06
-3.4375e-05 -1.60878e-05 -3.13662e-06
2.44022e-06 -3.13662e-06 -8.60742e-05
0.00158649 -6.30121e-05 1.22575e-06
-6.30121e-05 9.16564e-05 -1.41581e-06
1.22575e-06 -1.41581e-06 3.88828e-05
0.00103714 -6.20906e-05 1.38804e-07
-6.20906e-05 7.86588e-05 -6.99481e-09
1.38804e-07 -6.99481e-09 -1.07361e-06
0.00144014 -8.11492e-05 3.31214e-06
-8.11492e-05 0.000109466 2.44475e-06
3.31214e-06 2.44475e-06 2.8182e-05
0.000853052 -6.35483e-05 2.15333e-07
-6.35483e-05 -1.56152e-05 -2.84959e-06
2.15333e-07 -2.84959e-06 -0.000114189
0.00140956 -8.72574e-05 2.40803e-06
-8.72574e-05 0.000211634 -5.5606e-07
2.40803e-06 -5.5606e-07 9.81245e-05
0.000674311 1.45026e-05 7.36954e-07
1.45026e-05 -0.000117667 -2.3801e-06
7.36954e-07 -2.3801e-06 -0.000148316
0.00106683 -3.46563e-07 9.0619e-07
-3.46563e-07 8.71251e-05 -1.14543e-06
9.0619e-07 -1.14543e-06 3.73171e-05
0.00116238 -3.29766e-05 8.21527e-08
-3.29766e-05 0.000143364 1.85862e-07
8.21527e-08 1.85862e-07 7.51981e-05
0.00104144 -4.50386e-05 6.01162e-07
-4.50386e-05 8.98166e-05 -9.66313e-07
6.01162e-07 -9.66313e-07 3.43519e-06
0.00105277 -6.20611e-05 1.9416e-07
-6.20611e-05 8.14975e-05 3.00113e-07
1.9416e-07 3.00113e-07 1.67292e-07
0.00104156 -6.17558e-05 7.08691e-07
-6.17558e-05 8.01961e-05 1.1701e-06
7.08691e-07 1.1701e-06 -7.84293e-06
0.000904676 -1.09222e-05 -1.31685e-06
-1.09222e-05 2.43203e-06 -2.13767e-06
-1.31685e-06 -2.13767e-06 -3.2619e-05
0.000976375 6.22552e-06 -8.15199e-07
6.22552e-06 4.241e-05 -1.41779e-06
-8.15199e-07 -1.41779e-06 -1.72683e-05
0.00136931 5.74864e-05 -4.61463e-08
5.74864e-05 6.9402e-05 2.39471e-07
-4.61463e-08 2.39471e-07 -1.59888e-05
0.00102867 4.38562e-05 -7.84264e-07
4.38562e-05 7.80385e-05 -4.79525e-07
-7.84264e-07 -4.79525e-07 1.41109e-06
0.00105429 5.70801e-05 -5.01973e-07
5.70801e-05 9.1309e-05 -1.14581e-08
-5.01973e-07 -1.14581e-08 1.28123e-05
0.000951791 5.5459e-05 -6.05544e-07
5.5459e-05 4.34056e-05 1.70918e-07
-6.05544e-07 1.70918e-07 -4.08719e-05
0.00121467 7.30197e-05 -9.18946e-07
7.30197e-05 7.89853e-05 -1.38649e-06
-9.18946e-07 -1.38649e-06 -4.76621e-06
0.00132461 7.50315e-05 2.24303e-07
7.50315e-05 8.50824e-05 2.11866e-07
2.24303e-07 2.11866e-07 2.00244e-06
0.000777022 5.70614e-05 -2.63802e-07
5.70614e-05 -3.69519e-05 -2.48357e-07
-2.63802e-07 -2.48357e-07 -0.00013077
0.00122942 7.60314e-05 -1.64947e-06
7.60314e-05 0.000133991 -3.91425e-07
-1.64947e-06 -3.91425e-07 3.51438e-05
0.000965717 4.98665e-06 2.11489e-08
4.98665e-06 3.49864e-05 4.57948e-08
2.11489e-08 4.57948e-08 -2.00769e-05
0.000972983 3.56943e-05 4.06788e-07
3.56943e-05 4.60515e-05 3.73135e-07
4.06788e-07 3.73135e-07 -2.78237e-05
0.00113641 6.60223e-05 -1.39252e-07
6.60223e-05 0.000137073 -5.61788e-07
-1.39252e-07 -5.61788e-07 5.0787e-05
0.00100798 5.26405e-05 -2.14108e-07
5.26405e-05 7.04983e-05 -3.3105e-08
-2.14108e-07 -3.3105e-08 -1.3767e-05
0.00100037 5.77929e-05 -8.80807e-07
5.77929e-05 6.53119e-05 -3.78018e-07
-8.80807e-07 -3.78018e-07 -2.10614e-05
0.00162836 5.8405e-05 -8.44518e-07
5.8405e-05 0.000154269 -4.20985e-07
-8.44518e-07 -4.20985e-07 8.60325e-05
0.00143903 8.51441e-05 8.91235e-07
8.51441e-05 0.0001857 5.73879e-08
8.91235e-07 5.73879e-08 9.26018e-05
0.000931285 7.09926e-05 -5.31722e-07
7.09926e-05 -0.000119646 7.01942e-07
-5.31722e-07 7.01942e-07 -0.000200414
0.00122976 7.27889e-05 1.05933e-06
7.27889e-05 0.000177515 1.10544e-06
1.05933e-06 1.10544e-06 7.66338e-05
0.00079285 6.7829e-05 -1.35269e-06
6.7829e-05 -8.74583e-05 -4.62437e-07
-1.35269e-06 -4.62437e-07 -0.000198621
0.000936557 2.56162e-05 8.68631e-07
2.56162e-05 2.46759e-05 1.24949e-06
8.68631e-07 1.24949e-06 -4.45753e-05
0.000931115 5.0832e-05 6.06572e-07
5.0832e-05 2.91821e-05 3.01299e-08
6.06572e-07 3.01299e-08 -5.59996e-05
0.00114094 6.70738e-05 2.62951e-07
6.70738e-05 0.000138168 3.4917e-07
2.62951e-07 3.4917e-07 4.44907e-05
0.00081522 5.33062e-05 7.12923e-07
5.33062e-05 -2.76606e-05 -2.59985e-07
7.12923e-07 -2.59985e-07 -0.000118361
0.00215459 4.59539e-05 6.2905e-07
4.59539e-05 0.00031313 1.12253e-06
6.2905e-07 1.12253e-06 0.000254665
0.00111126 6.90361e-05 2.38764e-06
6.90361e-05 -0.000118197 -2.50956e-07
2.38764e-06 -2.50956e-07 -0.000182496
0.00127297 8.65329e-05 1.62587e-06
8.65329e-05 9.76877e-05 -1.01683e-06
1.62587e-06 -1.01683e-06 -8.5528e-06
0.000722601 6.20309e-05 8.69692e-07
6.20309e-05 -7.8039e-05 2.02097e-06
8.69692e-07 2.02097e-06 -0.000198169
0.000946305 9.84138e-06 -1.72095e-07
9.84138e-06 2.58305e-05 -7.13814e-07
-1.72095e-07 -7.13814e-07 -2.62308e-05
0.000968826 2.0186e-05 1.54964e-07
2.0186e-05 4.18202e-05 4.44308e-07
1.54964e-07 4.44308e-07 -2.34808e-05
0.00104965 2.853e-05 3.53776e-07
2.853e-05 8.65239e-05 6.00736e-07
3.53776e-07 6.00736e-07 1.18295e-05
0.000960774 1.1449e-05 -6.08512e-07
1.1449e-05 3.53094e-05 -1.05036e-06
-6.08512e-07 -1.05036e-06 -1.19055e-05
0.000895832 2.25136e-06 -1.7399e-07
2.25136e-06 4.26666e-06 -1.24747e-06
-1.7399e-07 -1.24747e-06 -5.76086e-05
0.000954883 -3.83354e-06 4.45248e-07
-3.83354e-06 3.24831e-05 1.83981e-08
4.45248e-07 1.83981e-08 -1.33313e-05
0.00105383 2.44947e-05 -5.79328e-08
2.44947e-05 8.99466e-05 -4.16001e-07
-5.79328e-08 -4.16001e-07 1.80337e-05
0.000918066 2.25937e-06 1.9525e-07
2.25937e-06 1.90509e-05 3.92142e-07
1.9525e-07 3.92142e-07 -4.18441e-05
0.00111114 2.93035e-05 3.79862e-07
2.93035e-05 0.000119684 3.08639e-07
3.79862e-07 3.08639e-07 4.07327e-05
0.000885076 -7.80037e-06 -7.2215e-08
-7.80037e-06 4.32195e-06 9.50879e-07
-7.2215e-08 9.50879e-07 -6.6203e-05
0.000872563 2.61135e-05 4.25219e-07
2.61135e-05 -2.11449e-06 9.91504e-07
4.25219e-07 9.91504e-07 -6.30261e-05
0.000970974 -1.99762e-05 -4.06196e-07
-1.99762e-05 4.02712e-05 9.43168e-07
-4.06196e-07 9.43168e-07 -4.6161e-06
0.00092191 7.76121e-06 5.08367e-07
7.76121e-06 3.87255e-06 1.59001e-06
5.08367e-07 1.59001e-06 -2.2118e-05
0.000927742 -2.156e-06 -2.62629e-07
-2.156e-06 6.32454e-06 3.03959e-08
-2.62629e-07 3.03959e-08 -1.96913e-05
0.00140693 -8.01055e-06 1.01533e-06
-8.01055e-06 0.000243098 1.87707e-06
1.01533e-06 1.87707e-06 0.000247151
0.000927212 -9.02361e-06 -8.98921e-08
-9.02361e-06 7.04529e-06 -1.75414e-06
-8.98921e-08 -1.75414e-06 -1.96787e-05
0.00143066 -1.13148e-05 -1.82131e-06
-1.13148e-05 0.0002579 -1.19119e-06
-1.82131e-06 -1.19119e-06 0.000261334
0.00110071 -1.07585e-05 8.73115e-06
-1.07585e-05 8.82501e-05 6.23915e-06
8.73115e-06 6.23915e-06 0.000105742
0.00145674 -1.42688e-05 -5.09396e-06
-1.42688e-05 0.000274586 -4.41231e-06
-5.09396e-06 -4.41231e-06 0.000276816
0.00105345 -1.44541e-05 3.4208e-06
-1.44541e-05 6.79128e-05 2.43379e-06
3.4208e-06 2.43379e-06 8.43565e-05
0.000999286 -1.77405e-05 -2.35578e-06
-1.77405e-05 4.49417e-05 -1.62494e-06
-2.35578e-06 -1.62494e-06 5.99794e-05
0.000833714 1.69007e-05 1.48019e-06
1.69007e-05 -4.04644e-05 -3.22288e-06
1.48019e-06 -3.22288e-06 -4.25251e-05
0.000841017 1.94204e-05 -1.18854e-07
1.94204e-05 -3.22995e-05 1.92735e-08
-1.18854e-07 1.92735e-08 -3.63297e-05
0.00226977 2.77649e-05 1.49553e-05
2.77649e-05 0.000702605 -3.79757e-06
1.49553e-05 -3.79757e-06 0.000722466
0.000848543 2.17532e-05 -2.5123e-06
2.17532e-05 -2.40533e-05 3.33999e-06
-2.5123e-06 3.33999e-06 -3.02063e-05
0.00232537 3.19142e-05 -6.87707e-07
3.19142e-05 0.000737383 -5.39369e-08
-6.87707e-07 -5.39369e-08 0.000755581
0.00240246 3.56667e-05 -2.13384e-05
3.56667e-05 0.000783371 3.89354e-06
-2.13384e-05 3.89354e-06 0.000799664
0.00145873 4.06482e-05 8.37537e-07
4.06482e-05 7.58448e-05 7.05442e-07
8.37537e-07 7.05442e-07 -4.27173e-06
0.00153287 4.79401e-06 -5.40249e-07
4.79401e-06 5.23427e-05 -7.16293e-07
-5.40249e-07 -7.16293e-07 -2.82046e-05
0.00141411 1.87647e-05 2.64559e-06
1.87647e-05 6.68254e-07 -2.11165e-06
2.64559e-06 -2.11165e-06 -6.35071e-05
0.00152295 -1.45758e-05 -1.40917e-06
-1.45758e-05 3.63944e-05 -1.52902e-06
-1.40917e-06 -1.52902e-06 -4.7787e-05
0.00161154 -5.27634e-06 -8.89169e-07
-5.27634e-06 8.80295e-05 -1.25961e-06
-8.89169e-07 -1.25961e-06 -1.82365e-06
0.00157406 3.90388e-06 -1.80442e-06
3.90388e-06 7.23487e-05 -5.31293e-07
-1.80442e-06 -5.31293e-07 -1.99101e-05
0.00161937 1.41759e-05 1.10179e-07
1.41759e-05 8.76045e-05 -4.10021e-08
1.10179e-07 -4.10021e-08 -5.05447e-06
0.00158634 -1.3992e-05 -1.11928e-07
-1.3992e-05 7.29421e-05 -1.02185e-07
-1.11928e-07 -1.02185e-07 -1.54642e-05
0.00157832 -1.19458e-06 7.08996e-07
-1.19458e-06 6.12917e-05 -1.85105e-07
7.08996e-07 -1.85105e-07 -1.4644e-05
0.00147995 3.15329e-05 5.83908e-09
3.15329e-05 4.11147e-05 -5.5762e-07
5.83908e-09 -5.5762e-07 -2.33396e-05
0.00162364 7.87687e-06 1.07453e-06
7.87687e-06 9.21715e-05 6.23925e-07
1.07453e-06 6.23925e-07 6.36486e-07
0.00178001 -2.21123e-05 1.33788e-06
-2.21123e-05 0.000160174 1.02738e-06
1.33788e-06 1.02738e-06 7.75346e-05
0.00156863 1.4978e-05 5.16064e-07
1.4978e-05 4.49875e-05 2.44256e-06
5.16064e-07 2.44256e-06 -2.33387e-05
0.0015114 1.69275e-05 -2.5156e-06
1.69275e-05 4.37534e-05 1.80966e-07
-2.5156e-06 1.80966e-07 -4.71107e-05
0.00166192 6.10719e-06 -2.33554e-06
6.10719e-06 0.000118978 4.97456e-07
-2.33554e-06 4.97456e-07 3.16448e-05
0.0016685 -2.90889e-05 -1.80498e-06
-2.90889e-05 0.000126317 1.72173e-06
-1.80498e-06 1.72173e-06 5.12345e-05
0.00109979 -6.12756e-05 -5.42389e-07
-6.12756e-05 0.000107672 1.43336e-07
-5.42389e-07 1.43336e-07 3.1657e-05
0.00119231 -6.94671e-05 -2.1744e-07
-6.94671e-05 0.000154038 8.56874e-07
-2.1744e-07 8.56874e-07 6.97711e-05
0.00112231 -7.56464e-05 -2.00552e-06
-7.56464e-05 8.45115e-05 2.59251e-06
-2.00552e-06 2.59251e-06 -2.0573e-05
0.00145918 -5.36997e-05 -8.0299e-07
-5.36997e-05 6.92664e-05 1.01969e-06
-8.0299e-07 1.01969e-06 2.74169e-07
0.00111418 -6.63691e-05 -2.12647e-06
-6.63691e-05 -6.68e-05 -8.41229e-07
-2.12647e-06 -8.41229e-07 -0.000129065
0.00131889 -7.79965e-05 -3.15332e-06
-7.79965e-05 0.000107911 -2.63842e-06
-3.15332e-06 -2.63842e-06 1.73322e-05
0.00108555 -6.19755e-05 -4.0823e-07
-6.19755e-05 9.91917e-05 -3.05531e-07
-4.0823e-07 -3.05531e-07 2.06386e-05
0.000983605 -5.90488e-05 -2.00249e-06
-5.90488e-05 4.6464e-05 -6.91146e-07
-2.00249e-06 -6.91146e-07 -3.40403e-05
0.0011095 -5.77218e-05 -7.95513e-07
-5.77218e-05 0.000122673 1.80921e-07
-7.95513e-07 1.80921e-07 3.50889e-05
0.0006533 2.07999e-05 -7.52076e-07
2.07999e-05 -0.000126444 1.17911e-06
-7.52076e-07 1.17911e-06 -0.000159004
0.00114829 -3.70396e-05 -5.34696e-07
-3.70396e-05 0.000138369 8.85848e-07
-5.34696e-07 8.85848e-07 6.57376e-05
0.000823627 5.58367e-06 5.07228e-08
5.58367e-06 -3.78399e-05 1.54743e-06
5.07228e-08 1.54743e-06 -9.31517e-05
0.00163783 2.1372e-05 4.74324e-09
2.1372e-05 9.94243e-05 -7.03127e-08
4.74324e-09 -7.03127e-08 7.90063e-06
0.0016343 5.60764e-06 4.84155e-07
5.60764e-06 8.20482e-05 -1.99234e-08
4.84155e-07 -1.99234e-08 -5.33188e-06
0.00147729 -3.47163e-05 -1.27447e-07
-3.47163e-05 1.96843e-05 -3.73871e-07
-1.27447e-07 -3.73871e-07 -5.16724e-05
0.00107755 -6.32917e-05 3.13044e-08
-6.32917e-05 9.75557e-05 3.43522e-07
3.13044e-08 3.43522e-07 1.76376e-05
0.000896606 -6.45433e-05 -1.00255e-07
-6.45433e-05 8.27519e-06 1.46344e-07
-1.00255e-07 1.46344e-07 -8.85043e-05
0.00143062 -8.72592e-05 -1.34101e-06
-8.72592e-05 0.000221281 1.44974e-06
-1.34101e-06 1.44974e-06 0.00010841
0.00160139 -6.46667e-05 -2.41987e-07
-6.46667e-05 0.000104455 5.50606e-07
-2.41987e-07 5.50606e-07 5.15173e-05
0.0013286 -7.84325e-05 2.59997e-07
-7.84325e-05 5.10484e-05 -9.31321e-07
2.59997e-07 -9.31321e-07 -2.9716e-05
0.000792379 1.48223e-05 9.88912e-08
1.48223e-05 -5.7602e-05 -5.77584e-07
9.88912e-08 -5.77584e-07 -8.72963e-05
0.00104863 8.62707e-06 -2.47954e-07
8.62707e-06 7.8244e-05 8.74183e-08
-2.47954e-07 8.74183e-08 2.85834e-05
0.000955854 -5.92605e-05 -6.33922e-07
-5.92605e-05 3.42543e-05 2.39808e-07
-6.33922e-07 2.39808e-07 -4.70561e-05
0.00106705 -6.23647e-05 4.737e-07
-6.23647e-05 9.25157e-05 1.48652e-07
4.737e-07 1.48652e-07 4.95753e-06
0.00103339 -4.32953e-05 -9.41995e-08
-4.32953e-05 8.57459e-05 -2.84285e-07
-9.41995e-08 -2.84285e-07 -7.58223e-08
0.00108782 -3.42479e-05 -6.0634e-07
-3.42479e-05 0.000105774 9.74529e-07
-6.0634e-07 9.74529e-07 3.67502e-05
0.00164032 2.59842e-05 1.68028e-06
2.59842e-05 9.56647e-05 1.16437e-06
1.68028e-06 1.16437e-06 5.8357e-06
0.00165956 -2.38723e-06 2.47157e-06
-2.38723e-06 8.31517e-05 -4.22969e-07
2.47157e-06 -4.22969e-07 -4.44692e-07
0.00150606 -4.70621e-05 1.90334e-06
-4.70621e-05 1.39064e-06 -3.90929e-06
1.90334e-06 -3.90929e-06 -4.86342e-05
0.00217283 -8.80778e-05 2.28876e-06
-8.80778e-05 0.000379114 -5.24071e-07
2.28876e-06 -5.24071e-07 0.00032511
0.00089458 -5.99548e-05 -4.17131e-07
-5.99548e-05 1.59902e-05 -4.03736e-07
-4.17131e-07 -4.03736e-07 -7.07071e-05
0.00139666 -8.958e-05 2.58476e-06
-8.958e-05 0.000175424 2.59973e-06
2.58476e-06 2.59973e-06 5.54244e-05
0.00143414 -8.37277e-05 1.47948e-06
-8.37277e-05 0.000267749 -3.78765e-06
1.47948e-06 -3.78765e-06 0.000159188
0.000918688 1.18178e-05 5.97701e-07
1.18178e-05 4.24865e-06 -1.76325e-06
5.97701e-07 -1.76325e-06 -2.26032e-05
0.000953028 -2.68046e-05 8.06929e-07
-2.68046e-05 3.18582e-05 -1.10456e-06
8.06929e-07 -1.10456e-06 -1.17939e-05
0.000795029 1.31103e-05 1.40695e-07
1.31103e-05 -4.99031e-05 -1.73747e-06
1.40695e-07 -1.73747e-06 -9.87274e-05
0.00105418 -2.49796e-05 4.12717e-07
-2.49796e-05 8.74826e-05 -4.68999e-07
4.12717e-07 -4.68999e-07 2.27352e-05
0.000973908 -2.53675e-05 8.1161e-08
-2.53675e-05 5.29551e-05 -8.73151e-07
8.1161e-08 -8.73151e-07 -2.66695e-05
0.00103219 -6.21355e-05 1.95473e-06
-6.21355e-05 9.00806e-05 8.35475e-07
1.95473e-06 8.35475e-07 -5.83736e-06
0.000815026 -5.64463e-05 8.03358e-08
-5.64463e-05 -4.27183e-05 5.15281e-07
8.03358e-08 5.15281e-07 -0.000124194
0.00170319 -8.38122e-05 3.33552e-07
-8.38122e-05 0.000424161 1.221e-06
3.33552e-07 1.221e-06 0.000330748
0.000970983 3.46731e-06 -5.43653e-07
3.46731e-06 3.75387e-05 -1.38291e-06
-5.43653e-07 -1.38291e-06 -1.74919e-05
0.00101876 4.05385e-05 -4.183e-07
4.05385e-05 7.03212e-05 -3.15643e-07
-4.183e-07 -3.15643e-07 -3.8238e-06
0.00190455 6.1156e-05 3.24911e-07
6.1156e-05 0.000288436 2.04998e-08
3.24911e-07 2.04998e-08 0.000220247
0.00107369 5.48087e-05 -7.07603e-07
5.48087e-05 0.000104674 8.10688e-08
-7.07603e-07 8.10688e-08 2.05112e-05
0.00113945 6.60588e-05 -6.22103e-07
6.60588e-05 0.000139515 -1.13616e-06
-6.22103e-07 -1.13616e-06 5.39237e-05
0.000975491 5.79326e-05 -9.74376e-07
5.79326e-05 5.62697e-05 1.31618e-07
-9.74376e-07 1.31618e-07 -2.98647e-05
0.00145059 8.51576e-05 -4.19695e-07
8.51576e-05 0.000187643 -2.38632e-07
-4.19695e-07 -2.38632e-07 9.54817e-05
0.0013188 7.90989e-05 -3.71708e-07
7.90989e-05 7.85201e-05 2.12879e-06
-3.71708e-07 2.12879e-06 6.53523e-08
0.000989428 6.57132e-05 1.39782e-07
6.57132e-05 5.97703e-05 -1.70393e-07
1.39782e-07 -1.70393e-07 -4.17301e-05
0.00117595 7.88595e-05 -3.57664e-06
7.88595e-05 0.000102207 -8.11002e-07
-3.57664e-06 -8.11002e-07 -1.11634e-05
0.00091683 2.79522e-05 3.39548e-07
2.79522e-05 1.53054e-05 4.37595e-07
3.39548e-07 4.37595e-07 -5.47557e-05
0.000981165 5.46428e-05 -3.3279e-07
5.46428e-05 5.51956e-05 -5.22367e-07
-3.3279e-07 -5.22367e-07 -2.96955e-05
0.00112232 6.643e-05 -2.39655e-07
6.643e-05 0.000129897 -8.0519e-07
-2.39655e-07 -8.0519e-07 3.69906e-05
0.00100947 5.87397e-05 -1.20343e-07
5.87397e-05 6.90678e-05 -2.76645e-07
-1.20343e-07 -2.76645e-07 -2.13295e-05
0.00190539 4.16526e-05 -8.09981e-07
4.16526e-05 0.000189763 -6.974e-07
-8.09981e-07 -6.974e-07 0.000131855
0.00126472 7.10684e-05 5.78765e-07
7.10684e-05 -3.20333e-05 -1.28378e-07
5.78765e-07 -1.28378e-07 -9.84362e-05
0.00151572 9.25704e-05 -7.86811e-07
9.25704e-05 0.000214858 9.65007e-10
-7.86811e-07 9.65007e-10 0.000110407
0.000825478 6.63826e-05 4.39868e-07
6.63826e-05 -3.37801e-05 5.77338e-07
4.39868e-07 5.77338e-07 -0.000152936
0.00106014 4.25935e-05 2.10374e-07
4.25935e-05 9.42771e-05 1.02371e-07
2.10374e-07 1.02371e-07 1.47332e-05
0.00169567 1.19023e-05 2.21996e-06
1.19023e-05 7.13072e-05 3.68512e-06
2.21996e-06 3.68512e-06 1.72244e-06
0.0011691 6.47833e-05 6.05571e-07
6.47833e-05 0.00015396 4.47292e-07
6.05571e-07 4.47292e-07 6.11829e-05
0.00110584 6.69515e-05 4.91789e-07
6.69515e-05 0.000120036 8.59554e-07
4.91789e-07 8.59554e-07 1.85464e-05
0.00190036 7.18944e-05 3.37909e-06
7.18944e-05 0.000141557 1.29319e-06
3.37909e-06 1.29319e-06 8.89032e-05
0.00133926 9.06069e-05 4.22425e-06
9.06069e-05 4.79069e-05 -1.0101e-06
4.22425e-06 -1.0101e-06 -5.09635e-05
0.0016257 9.44075e-05 8.88027e-07
9.44075e-05 0.000339957 2.12982e-06
8.88027e-07 2.12982e-06 0.000212002
0.0010414 2.67263e-05 -7.04687e-07
2.67263e-05 7.95681e-05 -3.87322e-07
-7.04687e-07 -3.87322e-07 1.43468e-05
0.00104718 2.80244e-05 -1.88571e-09
2.80244e-05 8.56128e-05 -4.09412e-08
-1.88571e-09 -4.09412e-08 1.09635e-05
0.00106132 3.52995e-05 5.26968e-07
3.52995e-05 9.61516e-05 3.26423e-07
5.26968e-07 3.26423e-07 1.33237e-05
0.000957123 9.07322e-06 2.86631e-08
9.07322e-06 3.41211e-05 -9.59738e-07
2.86631e-08 -9.59738e-07 -1.20754e-05
0.000968912 9.70375e-06 7.97583e-08
9.70375e-06 4.5581e-05 -2.123e-07
7.97583e-08 -2.123e-07 -1.51526e-05
0.000972655 2.2009e-05 -3.49208e-07
2.2009e-05 4.78642e-05 -1.13448e-06
-3.49208e-07 -1.13448e-06 -2.51286e-05
0.000955566 -1.86837e-05 1.48501e-07
-1.86837e-05 3.25985e-05 3.66119e-08
1.48501e-07 3.66119e-08 -1.24281e-05
0.000865568 2.66094e-06 -2.80917e-07
2.66094e-06 -6.61787e-06 3.89366e-07
-2.80917e-07 3.89366e-07 -6.69928e-05
0.00105637 2.4146e-05 1.08124e-07
2.4146e-05 9.07435e-05 -4.73397e-07
1.08124e-07 -4.73397e-07 1.10264e-05
0.00100436 1.2783e-05 1.16225e-07
1.2783e-05 6.67015e-05 4.40737e-07
1.16225e-07 4.40737e-07 -3.77606e-06
0.00111369 4.31325e-05 2.02328e-07
4.31325e-05 0.000117566 -9.38185e-08
2.02328e-07 -9.38185e-08 3.22169e-05
0.000966853 3.53954e-06 7.76273e-08
3.53954e-06 4.3349e-05 7.42435e-07
7.76273e-08 7.42435e-07 -3.50102e-05
0.00104997 1.86953e-05 1.55901e-07
1.86953e-05 8.88081e-05 1.77533e-07
1.55901e-07 1.77533e-07 2.05315e-05
0.000970538 2.0342e-05 5.61067e-07
2.0342e-05 5.00012e-05 6.81005e-07
5.61067e-07 6.81005e-07 -9.45565e-06
0.000967312 -6.46572e-06 -3.53992e-07
-6.46572e-06 3.73439e-05 8.32677e-07
-3.53992e-07 8.32677e-07 -6.73755e-06
0.000914762 1.04438e-05 3.25068e-07
1.04438e-05 1.12713e-06 1.55069e-06
3.25068e-07 1.55069e-06 -2.49723e-05
0.000920901 -1.62562e-07 -2.12878e-07
-1.62562e-07 3.34111e-06 1.82403e-08
-2.12878e-07 1.82403e-08 -2.26231e-05
0.00140948 -4.00528e-06 6.64457e-07
-4.00528e-06 0.000243188 1.82952e-06
6.64457e-07 1.82952e-06 0.000247232
0.000921352 -9.77045e-06 4.51929e-10
-9.77045e-06 3.11532e-06 -1.60655e-06
4.51929e-10 -1.60655e-06 -2.28489e-05
0.00143015 -7.36756e-06 -1.29942e-06
-7.36756e-06 0.000255294 -1.19334e-06
-1.29942e-06 -1.19334e-06 0.000259195
0.00110031 -7.5398e-06 6.20845e-06
-7.5398e-06 8.52913e-05 6.23715e-06
6.20845e-06 6.23715e-06 0.000103157
0.00144947 -1.08292e-05 -3.58888e-06
-1.08292e-05 0.000267647 -4.27375e-06
-3.58888e-06 -4.27375e-06 0.000271057
0.00105102 -1.12362e-05 2.27409e-06
-1.12362e-05 6.25559e-05 2.39241e-06
2.27409e-06 2.39241e-06 8.01968e-05
0.000995788 -1.45527e-05 -1.76728e-06
-1.45527e-05 3.83352e-05 -1.57107e-06
-1.76728e-06 -1.57107e-06 5.49132e-05
0.000922087 9.07611e-06 4.0071e-07
9.07611e-06 3.62591e-06 -1.7437e-06
4.0071e-07 -1.7437e-06 -2.12363e-05
0.000843468 1.40473e-05 1.12944e-06
1.40473e-05 -4.0095e-05 -3.16684e-06
1.12944e-06 -3.16684e-06 -4.03187e-05
0.000850854 1.6995e-05 -1.06896e-07
1.6995e-05 -3.18636e-05 2.32628e-08
-1.06896e-07 2.32628e-08 -3.40077e-05
0.00222199 2.32822e-05 1.26509e-05
2.32822e-05 0.000672957 -3.81157e-06
1.26509e-05 -3.81157e-06 0.000694211
0.000857853 1.94893e-05 -2.12561e-06
1.94893e-05 -2.39512e-05 3.22974e-06
-2.12561e-06 3.22974e-06 -2.80482e-05
0.00227405 2.7745e-05 -7.9304e-07
2.7745e-05 0.000705475 -4.76892e-08
-7.9304e-07 -4.76892e-08 0.000725162
0.00232714 3.16891e-05 -1.88211e-05
3.16891e-05 0.000738948 3.86939e-06
-1.88211e-05 3.86939e-06 0.000756988
0.00138345 2.83069e-05 7.88798e-07
2.83069e-05 -1.00759e-05 -4.9027e-07
7.88798e-07 -4.9027e-07 -7.42746e-05
0.00155864 -6.66819e-07 -4.82768e-07
-6.66819e-07 5.27787e-05 -1.9076e-06
-4.82768e-07 -1.9076e-06 -2.2838e-05
0.00156088 -1.40173e-05 -1.12198e-06
-1.40173e-05 6.07212e-05 -1.06944e-06
-1.12198e-06 -1.06944e-06 -2.75486e-05
0.00162312 1.6359e-05 -1.29022e-06
1.6359e-05 9.2157e-05 -7.37269e-07
-1.29022e-06 -7.37269e-07 1.46888e-07
0.00162429 8.38464e-06 2.74837e-08
8.38464e-06 9.32264e-05 9.12764e-08
2.74837e-08 9.12764e-08 1.88508e-06
0.00171313 -2.07542e-05 -3.13713e-08
-2.07542e-05 0.000126606 -5.05426e-08
-3.13713e-08 -5.05426e-08 4.32185e-05
0.00153922 1.5197e-05 -4.11931e-07
1.5197e-05 3.41938e-05 3.80534e-07
-4.11931e-07 3.80534e-07 -3.29567e-05
0.00164004 9.17455e-07 1.77165e-06
9.17455e-07 0.000103299 5.05682e-07
1.77165e-06 5.05682e-07 1.58489e-05
0.00181212 -1.31072e-05 1.63879e-06
-1.31072e-05 0.000162118 1.76615e-06
1.63879e-06 1.76615e-06 8.35373e-05
0.00128021 -1.30994e-05 2.1138e-06
-1.30994e-05 -0.000114562 1.03015e-06
2.1138e-06 1.03015e-06 -0.000188128
0.0015776 2.12694e-05 -1.56259e-06
2.12694e-05 6.94856e-05 -2.93888e-07
-1.56259e-06 -2.93888e-07 -2.21784e-05
0.00164145 3.73723e-06 -2.23817e-06
3.73723e-06 8.42973e-05 5.25183e-07
-2.23817e-06 5.25183e-07 -3.05257e-06
0.00156963 -3.5218e-05 -2.47745e-06
-3.5218e-05 6.2945e-05 1.32203e-06
-2.47745e-06 1.32203e-06 -9.77407e-06
0.00111101 -6.4287e-05 -4.09782e-07
-6.4287e-05 0.00011306 8.18917e-07
-4.09782e-07 8.18917e-07 3.29625e-05
0.000933217 -6.53338e-05 -2.41479e-07
-6.53338e-05 2.84411e-05 2.68566e-06
-2.41479e-07 2.68566e-06 -6.65023e-05
0.00140793 -8.59771e-05 -2.69629e-06
-8.59771e-05 0.000208808 3.47795e-06
-2.69629e-06 3.47795e-06 9.67007e-05
0.00157745 -6.58638e-05 1.72283e-06
-6.58638e-05 9.86042e-05 2.24149e-06
1.72283e-06 2.24149e-06 4.55143e-05
0.0012189 -7.57379e-05 -4.37465e-06
-7.57379e-05 -6.35763e-06 -2.81086e-06
-4.37465e-06 -2.81086e-06 -8.66171e-05
0.00086188 -5.6525e-05 -1.04599e-06
-5.6525e-05 -1.14739e-05 1.58212e-07
-1.04599e-06 1.58212e-07 -9.27753e-05
0.00108642 -6.28015e-05 -3.80774e-07
-6.28015e-05 0.000101769 -1.35135e-06
-3.80774e-07 -1.35135e-06 1.47056e-05
0.00103782 -3.31337e-05 -1.1175e-07
-3.31337e-05 8.69111e-05 1.86103e-07
-1.1175e-07 1.86103e-07 2.31606e-06
0.000910722 1.47384e-05 -7.24721e-07
1.47384e-05 2.45013e-06 1.22567e-06
-7.24721e-07 1.22567e-06 -2.62629e-05
0.00103642 2.13714e-05 -2.51599e-07
2.13714e-05 7.25027e-05 1.29527e-06
-2.51599e-07 1.29527e-06 2.2842e-05
0.00102761 -2.78462e-05 -1.04579e-06
-2.78462e-05 7.47461e-05 1.86362e-06
-1.04579e-06 1.86362e-06 5.22984e-06
0.00162974 2.59945e-05 1.5873e-07
2.59945e-05 9.14401e-05 2.8237e-07
1.5873e-07 2.8237e-07 2.21102e-06
0.000918972 1.13914e-05 -2.63981e-08
1.13914e-05 4.13531e-06 1.07693e-08
-2.63981e-08 1.07693e-08 -2.27046e-05
0.000856266 -1.63067e-06 -4.79775e-07
-1.63067e-06 -1.79541e-05 2.00542e-08
-4.79775e-07 2.00542e-08 -6.15496e-05
0.00172978 -2.90632e-06 1.61637e-07
-2.90632e-06 0.00011573 -1.17155e-07
1.61637e-07 -1.17155e-07 3.2283e-05
0.00139368 -4.76669e-05 -6.63807e-07
-4.76669e-05 -4.83904e-05 -3.89852e-07
-6.63807e-07 -3.89852e-07 -0.00010244
0.000890609 -5.94989e-05 -3.26107e-08
-5.94989e-05 1.46553e-05 9.18035e-07
-3.26107e-08 9.18035e-07 -7.0965e-05
0.00136754 -8.21489e-05 -5.41407e-07
-8.21489e-05 0.000234409 3.37135e-07
-5.41407e-07 3.37135e-07 0.000123138
0.00120614 -8.24845e-05 9.38087e-07
-8.24845e-05 7.63713e-05 1.2599e-06
9.38087e-07 1.2599e-06 -3.99556e-05
0.00177221 -8.32174e-05 3.22755e-07
-8.32174e-05 0.000184712 -1.00838e-06
3.22755e-07 -1.00838e-06 0.000130667
0.000999277 -3.82709e-07 6.84287e-07
-3.82709e-07 5.5097e-05 -4.89449e-07
6.84287e-07 -4.89449e-07 7.55815e-06
0.00103363 -1.45075e-05 -5.17813e-07
-1.45075e-05 7.79775e-05 5.01035e-07
-5.17813e-07 5.01035e-07 1.27652e-05
0.000997044 -6.15431e-05 3.94749e-07
-6.15431e-05 4.68881e-05 4.22698e-07
3.94749e-07 4.22698e-07 -3.53949e-05
0.00127426 -7.09867e-05 -7.65342e-07
-7.09867e-05 0.000207593 -4.70021e-07
-7.65342e-07 -4.70021e-07 0.000118043
0.000944501 -4.83849e-05 2.83886e-07
-4.83849e-05 4.67073e-05 3.36947e-07
2.83886e-07 3.36947e-07 -4.96813e-05
0.00100899 -2.09499e-05 2.09969e-07
-2.09499e-05 6.91252e-05 -2.81339e-07
2.09969e-07 -2.81339e-07 -1.0149e-05
0.00163673 2.87675e-05 2.24395e-06
2.87675e-05 9.03936e-05 7.74209e-07
2.24395e-06 7.74209e-07 7.30233e-06
0.00191249 -1.44381e-05 2.66095e-06
-1.44381e-05 0.000198571 -2.54495e-07
2.66095e-06 -2.54495e-07 0.000124361
0.00188341 -7.65876e-05 -6.06788e-07
-7.65876e-05 0.000140876 -4.27707e-06
-6.06788e-07 -4.27707e-06 0.000113713
0.00134656 -9.09584e-05 3.61169e-06
-9.09584e-05 5.35548e-05 2.07544e-06
3.61169e-06 2.07544e-06 -3.76284e-05
0.00113075 -6.66153e-05 -7.26644e-07
-6.66153e-05 0.000131455 -1.33134e-06
-7.26644e-07 -1.33134e-06 4.05664e-05
0.00159701 -9.80799e-05 1.05841e-06
-9.80799e-05 0.000338882 -3.21376e-06
1.05841e-06 -3.21376e-06 0.000203489
0.000766131 1.87401e-05 -4.84542e-07
1.87401e-05 -6.42789e-05 -1.44299e-06
-4.84542e-07 -1.44299e-06 -0.000106435
0.00093878 -9.90753e-06 7.84347e-07
-9.90753e-06 2.41382e-05 -1.18396e-06
7.84347e-07 -1.18396e-06 -2.07458e-05
0.0011803 -2.08093e-05 2.41848e-07
-2.08093e-05 0.000157929 -6.48666e-07
2.41848e-07 -6.48666e-07 0.000101498
0.000867308 1.34874e-05 -5.46528e-07
1.34874e-05 -3.43093e-06 -1.11371e-06
-5.46528e-07 -1.11371e-06 -6.8348e-05
0.00114126 -2.24182e-05 -3.84738e-08
-2.24182e-05 0.000135836 -5.71091e-07
-3.84738e-08 -5.71091e-07 6.08926e-05
0.000856104 -2.68112e-05 4.55736e-08
-2.68112e-05 5.67378e-07 -2.77554e-07
4.55736e-08 -2.77554e-07 -8.90213e-05
0.00119753 -5.2712e-05 2.8936e-06
-5.2712e-05 0.00018512 -2.95733e-07
2.8936e-06 -2.95733e-07 8.10762e-05
0.00095902 -6.66633e-05 -7.86742e-07
-6.66633e-05 5.34665e-05 7.16632e-07
-7.86742e-07 7.16632e-07 -3.55752e-05
0.000898407 3.1066e-05 -2.83888e-07
3.1066e-05 6.74247e-06 -4.07866e-07
-2.83888e-07 -4.07866e-07 -6.41948e-05
0.00102923 5.71943e-05 -1.37279e-06
5.71943e-05 8.00976e-05 -8.31826e-07
-1.37279e-06 -8.31826e-07 -4.39417e-06
0.00165471 3.72932e-05 -2.38044e-06
3.72932e-05 6.63255e-05 -2.92632e-06
-2.38044e-06 -2.92632e-06 8.87861e-06
0.00146422 7.3669e-05 -1.1527e-06
7.3669e-05 7.70629e-05 1.03237e-06
-1.1527e-06 1.03237e-06 8.44533e-06
0.00121424 6.44764e-05 -1.03774e-06
6.44764e-05 0.00017091 -1.03511e-09
-1.03774e-06 -1.03511e-09 8.08125e-05
0.0011209 6.62387e-05 -1.00832e-06
6.62387e-05 0.000130253 -1.79073e-06
-1.00832e-06 -1.79073e-06 3.80803e-05
0.00180681 9.99189e-05 -1.62336e-06
9.99189e-05 0.000356525 1.30537e-07
-1.62336e-06 1.30537e-07 0.000253719
0.00096492 7.16111e-05 -6.7045e-07
7.16111e-05 2.92701e-05 -1.51074e-06
-6.7045e-07 -1.51074e-06 -8.94424e-05
0.00103529 4.62065e-05 -2.70677e-07
4.62065e-05 8.29371e-05 -4.39655e-07
-2.70677e-07 -4.39655e-07 2.96564e-06
0.0015047 1.04683e-05 9.10073e-07
1.04683e-05 -2.4265e-05 6.89892e-07
9.10073e-07 6.89892e-07 -9.35672e-05
0.00106627 6.15667e-05 2.95111e-07
6.15667e-05 0.000102602 4.82851e-07
2.95111e-07 4.82851e-07 1.02541e-05
0.000950521 6.20543e-05 2.5053e-07
6.20543e-05 3.98229e-05 -3.03344e-07
2.5053e-07 -3.03344e-07 -6.29964e-05
0.00160504 6.56909e-05 6.55551e-07
6.56909e-05 -2.1689e-07 -3.03807e-07
6.55551e-07 -3.03807e-07 -5.42156e-05
0.00160093 9.86824e-05 8.75673e-07
9.86824e-05 0.000169685 -5.40403e-07
8.75673e-07 -5.40403e-07 7.16613e-05
0.00158008 9.34364e-05 9.21196e-08
9.34364e-05 0.000321707 4.60929e-07
9.21196e-08 4.60929e-07 0.000193683
0.00110622 5.16753e-05 2.12625e-07
5.16753e-05 0.000124394 2.55149e-07
2.12625e-07 2.55149e-07 3.52585e-05
0.0019207 4.30498e-05 3.76761e-06
4.30498e-05 7.86548e-05 1.66243e-06
3.76761e-06 1.66243e-06 2.17247e-05
0.00140686 7.25661e-05 -2.17598e-07
7.25661e-05 0.00026193 -3.32306e-07
-2.17598e-07 -3.32306e-07 0.000165155
0.00164172 8.78682e-05 -1.53044e-06
8.78682e-05 0.000377388 1.73659e-06
-1.53044e-06 1.73659e-06 0.0002594
0.00129277 9.89135e-05 5.20475e-06
9.89135e-05 -0.000133067 -5.88196e-07
5.20475e-06 -5.88196e-07 -0.000206052
0.00105801 8.57927e-05 4.15859e-08
8.57927e-05 1.39031e-05 2.38919e-06
4.15859e-08 2.38919e-06 -0.000115733
0.00221443 2.55344e-05 1.18505e-05
2.55344e-05 0.000346953 -2.89872e-06
1.18505e-05 -2.89872e-06 0.000327667
0.00104827 2.84872e-05 -3.75448e-07
2.84872e-05 8.64981e-05 -6.51513e-07
-3.75448e-07 -6.51513e-07 1.18335e-05
0.0010413 3.59303e-05 -2.45507e-10
3.59303e-05 8.71162e-05 -1.035e-07
-2.45507e-10 -1.035e-07 4.16024e-06
0.00114825 4.95712e-05 2.85893e-07
4.95712e-05 0.000136319 -1.63902e-07
2.85893e-07 -1.63902e-07 4.81209e-05
0.000944576 -1.41589e-05 4.06305e-07
-1.41589e-05 2.7077e-05 -8.54433e-07
4.06305e-07 -8.54433e-07 -1.8021e-05
0.000861981 -1.6771e-05 -2.88442e-08
-1.6771e-05 -8.8027e-06 -2.11276e-07
-2.88442e-08 -2.11276e-07 -6.90413e-05
0.00112387 3.32188e-05 -4.93473e-07
3.32188e-05 0.000129433 -8.79255e-08
-4.93473e-07 -8.79255e-08 5.88799e-05
0.000999306 2.0582e-05 -3.10654e-07
2.0582e-05 6.08546e-05 -1.12525e-06
-3.10654e-07 -1.12525e-06 -1.97054e-05
0.000957398 -1.56828e-05 -2.98144e-07
-1.56828e-05 3.34748e-05 2.22448e-08
-2.98144e-07 2.22448e-08 -1.14079e-05
0.000913957 6.26232e-06 1.9188e-07
6.26232e-06 1.88954e-05 5.25512e-08
1.9188e-07 5.25512e-08 -3.9904e-05
0.00105856 3.7912e-05 -3.34017e-07
3.7912e-05 8.88875e-05 -7.10516e-07
-3.34017e-07 -7.10516e-07 3.5955e-06
0.001044 6.82257e-06 -2.07188e-07
6.82257e-06 8.57418e-05 -1.05755e-07
-2.07188e-07 -1.05755e-07 1.74408e-05
0.00103719 7.56634e-06 1.84326e-07
7.56634e-06 8.0629e-05 -3.41362e-09
1.84326e-07 -3.41362e-09 2.84285e-06
0.0010782 3.25508e-05 -1.40873e-07
3.25508e-05 9.16222e-05 6.33435e-07
-1.40873e-07 6.33435e-07 6.0646e-06
0.00108807 2.84555e-05 1.97971e-07
2.84555e-05 0.000109927 -4.91824e-08
1.97971e-07 -4.91824e-08 3.4901e-05
0.00109855 2.58608e-05 1.71723e-07
2.58608e-05 0.000112993 -1.01423e-08
1.71723e-07 -1.01423e-08 4.59088e-05
0.000819398 8.72465e-06 -3.42098e-07
8.72465e-06 -2.95444e-05 6.35626e-07
-3.42098e-07 6.35626e-07 -8.88432e-05
0.000790275 1.29354e-05 4.95344e-07
1.29354e-05 -5.22731e-05 1.22608e-06
4.95344e-07 1.22608e-06 -9.80794e-05
0.00114493 -1.3862e-06 2.459e-07
-1.3862e-06 0.000139385 1.09596e-07
2.459e-07 1.09596e-07 8.03999e-05
0.000788488 7.26744e-07 -3.14492e-07
7.26744e-07 -5.27804e-05 1.19197e-06
-3.14492e-07 1.19197e-06 -9.83839e-05
0.000918421 1.18003e-05 2.32781e-07
1.18003e-05 3.39017e-06 1.56311e-06
2.32781e-07 1.56311e-06 -2.28127e-05
0.000915849 1.66959e-06 -2.7755e-07
1.66959e-06 1.69001e-06 6.47552e-09
-2.7755e-07 6.47552e-09 -2.43891e-05
0.000867936 3.02643e-07 1.41851e-07
3.02643e-07 -3.58579e-05 2.98548e-06
1.41851e-07 2.98548e-06 -3.47359e-05
0.000919999 -8.32189e-06 2.34302e-07
-8.32189e-06 2.88065e-06 -1.57682e-06
2.34302e-07 -1.57682e-06 -2.30621e-05
0.00115093 -3.2923e-06 -7.61698e-07
-3.2923e-06 0.000110248 -1.22309e-06
-7.61698e-07 -1.22309e-06 0.000112748
0.0021885 -5.17914e-06 3.59788e-06
-5.17914e-06 0.000643712 3.9209e-06
3.59788e-06 3.9209e-06 0.000667405
0.00145166 -6.99646e-06 -2.20332e-06
-6.99646e-06 0.000266604 -4.20453e-06
-2.20332e-06 -4.20453e-06 0.000270345
0.0010568 -7.75375e-06 1.20612e-06
-7.75375e-06 6.25049e-05 2.38967e-06
1.20612e-06 2.38967e-06 8.06127e-05
0.000999771 -1.1129e-05 -1.24492e-06
-1.1129e-05 3.60944e-05 -1.51455e-06
-1.24492e-06 -1.51455e-06 5.39354e-05
0.000929621 6.05998e-06 3.21117e-07
6.05998e-06 5.54644e-06 -1.69424e-06
3.21117e-07 -1.69424e-06 -1.77194e-05
0.000923573 8.70515e-06 -2.82193e-08
8.70515e-06 4.10849e-06 5.01168e-09
-2.82193e-08 5.01168e-09 -2.07278e-05
0.00085298 1.08993e-05 7.39359e-07
1.08993e-05 -3.91526e-05 -3.12169e-06
7.39359e-07 -3.12169e-06 -3.7751e-05
0.00113894 1.53482e-05 -4.41184e-07
1.53482e-05 0.000111838 2.75181e-08
-4.41184e-07 2.75181e-08 0.000112899
0.00218083 1.86701e-05 1.02808e-05
1.86701e-05 0.000647338 -3.83103e-06
1.02808e-05 -3.83103e-06 0.000669813
0.000867649 1.70879e-05 -1.70777e-06
1.70879e-05 -2.34259e-05 3.19894e-06
-1.70777e-06 3.19894e-06 -2.56523e-05
0.00222487 2.33667e-05 -8.72737e-07
2.33667e-05 0.000675092 -4.02274e-08
-8.72737e-07 -4.02274e-08 0.00069617
0.00227584 2.76544e-05 -1.6378e-05
2.76544e-05 0.000707048 3.86179e-06
-1.6378e-05 3.86179e-06 0.000726581
0.00149811 1.53976e-05 -1.13242e-06
1.53976e-05 1.75717e-05 -1.63112e-06
-1.13242e-06 -1.63112e-06 -4.83871e-05
0.00165244 -1.88303e-05 -9.52269e-07
-1.88303e-05 9.61592e-05 -9.35357e-07
-9.52269e-07 -9.35357e-07 1.2019e-05
0.00162294 4.81896e-06 -1.28196e-06
4.81896e-06 9.35254e-05 -6.53017e-07
-1.28196e-06 -6.53017e-07 2.2736e-06
0.0016331 2.15086e-06 -1.12125e-07
2.15086e-06 9.94185e-05 -3.00764e-07
-1.12125e-07 -3.00764e-07 1.20018e-05
0.00164631 -1.27448e-05 -1.96432e-07
-1.27448e-05 8.66355e-05 4.69386e-07
-1.96432e-07 4.69386e-07 8.61099e-06
0.0014725 -1.6348e-05 1.03789e-06
-1.6348e-05 -1.13274e-05 4.70915e-07
1.03789e-06 4.70915e-07 -8.74971e-05
0.00162892 4.48162e-06 1.96111e-06
4.48162e-06 9.3177e-05 2.04267e-07
1.96111e-06 2.04267e-07 1.43227e-05
0.00165375 -4.06852e-05 -2.36841e-06
-4.06852e-05 -2.77452e-05 -6.68664e-06
-2.36841e-06 -6.68664e-06 -5.01061e-05
0.00204728 -2.89287e-06 3.33272e-06
-2.89287e-06 0.000220453 1.02537e-06
3.33272e-06 1.02537e-06 0.000156675
0.000957436 -1.36746e-06 4.15298e-07
-1.36746e-06 3.18601e-05 -9.39578e-07
4.15298e-07 -9.39578e-07 -7.78017e-06
0.00161051 2.58882e-05 -2.06179e-06
2.58882e-05 8.29491e-05 -7.00951e-07
-2.06179e-06 -7.00951e-07 -5.67105e-06
0.00178541 -3.61561e-06 -2.45417e-06
-3.61561e-06 0.000141052 6.24209e-07
-2.45417e-06 6.24209e-07 5.77786e-05
0.00129477 -4.83031e-05 -5.90554e-07
-4.83031e-05 -9.26967e-05 2.77895e-06
-5.90554e-07 2.77895e-06 -0.000150252
0.000892306 -5.92279e-05 3.02781e-07
-5.92279e-05 1.62415e-05 1.33857e-06
3.02781e-07 1.33857e-06 -6.83247e-05
0.00133127 -8.14696e-05 -1.23674e-06
-8.14696e-05 0.000216541 4.42345e-06
-1.23674e-06 4.42345e-06 0.000102642
0.000947819 -7.39422e-05 -1.67005e-06
-7.39422e-05 -5.74842e-05 5.44984e-07
-1.67005e-06 5.44984e-07 -0.00017071
0.00144853 -7.93039e-05 -2.43033e-06
-7.93039e-05 2.84761e-05 -2.51685e-06
-2.43033e-06 -2.51685e-06 -2.58578e-05
0.00115962 -6.60864e-05 9.1874e-07
-6.60864e-05 0.00012633 -7.13083e-07
9.1874e-07 -7.13083e-07 4.33515e-05
0.000895136 -5.9681e-05 -3.99022e-06
-5.9681e-05 1.61892e-05 -3.60411e-06
-3.99022e-06 -3.60411e-06 -6.96494e-05
0.000860592 -4.5403e-05 3.61506e-09
-4.5403e-05 6.55582e-06 6.79482e-07
3.61506e-09 6.79482e-07 -9.11603e-05
0.000921817 1.11045e-05 -7.17639e-07
1.11045e-05 5.39822e-06 1.79893e-06
-7.17639e-07 1.79893e-06 -2.14499e-05
0.00104011 -2.35392e-05 4.52832e-08
-2.35392e-05 8.39104e-05 1.48205e-07
4.52832e-08 1.48205e-07 4.5757e-06
0.00120399 -2.00504e-05 -3.52943e-07
-2.00504e-05 0.000160725 6.91238e-07
-3.52943e-07 6.91238e-07 0.000114268
0.00101484 -3.29755e-06 -2.2664e-07
-3.29755e-06 6.91614e-05 1.59931e-06
-2.2664e-07 1.59931e-06 3.59761e-06
0.000758908 6.92821e-06 -1.66093e-08
6.92821e-06 -6.88393e-05 1.08571e-06
-1.66093e-08 1.08571e-06 -0.000111918
0.00164646 2.71659e-05 -1.30887e-08
2.71659e-05 9.25217e-05 2.54806e-07
-1.30887e-08 2.54806e-07 9.67666e-06
0.000869136 3.96506e-06 2.89189e-07
3.96506e-06 -1.22674e-05 -4.48534e-07
2.89189e-07 -4.48534e-07 -5.38528e-05
0.000943695 -1.16953e-05 -2.13584e-07
-1.16953e-05 2.71593e-05 2.82136e-08
-2.13584e-07 2.82136e-08 -1.80796e-05
0.000995798 -8.11044e-06 -6.44883e-07
-8.11044e-06 6.36179e-05 4.65176e-07
-6.44883e-07 4.65176e-07 6.05904e-06
0.00177624 -1.4168e-05 9.84652e-07
-1.4168e-05 0.00012341 4.4005e-07
9.84652e-07 4.4005e-07 5.10189e-05
0.00162719 -7.49803e-05 -1.55614e-06
-7.49803e-05 2.61803e-05 -9.92782e-07
-1.55614e-06 -9.92782e-07 -5.15766e-06
0.00098216 -6.29652e-05 -3.88682e-07
-6.29652e-05 5.16144e-05 6.39678e-07
-3.88682e-07 6.39678e-07 -3.75431e-05
0.00114177 -8.40827e-05 7.66401e-07
-8.40827e-05 0.000120439 -6.47592e-07
7.66401e-07 -6.47592e-07 -1.55151e-05
0.00139975 -9.31799e-05 -7.41048e-08
-9.31799e-05 8.21184e-05 9.48486e-07
-7.41048e-08 9.48486e-07 -8.24541e-06
0.000958162 8.64379e-06 -1.70894e-07
8.64379e-06 4.24358e-05 4.44119e-08
-1.70894e-07 4.44119e-08 -2.11013e-05
0.00109962 -2.65076e-05 -3.45487e-08
-2.65076e-05 0.000115658 -2.50416e-08
-3.45487e-08 -2.50416e-08 3.9436e-05
0.000910374 -6.47943e-05 -2.02738e-06
-6.47943e-05 2.85428e-05 2.61189e-07
-2.02738e-06 2.61189e-07 -6.17139e-05
0.00115236 -4.62374e-05 2.06951e-07
-4.62374e-05 0.000161728 -2.27294e-07
2.06951e-07 -2.27294e-07 5.92919e-05
0.00096418 -3.45544e-05 8.3343e-09
-3.45544e-05 5.49214e-05 6.46654e-07
8.3343e-09 6.46654e-07 -3.41935e-05
0.00150711 2.23327e-05 2.74176e-06
2.23327e-05 1.07586e-06 2.15202e-07
2.74176e-06 2.15202e-07 -7.84385e-05
0.00215388 -4.54555e-05 2.95601e-06
-4.54555e-05 0.000243285 -2.80491e-06
2.95601e-06 -2.80491e-06 0.000207441
0.00202378 -0.000109729 6.13404e-06
-0.000109729 0.000249512 -1.31614e-06
6.13404e-06 -1.31614e-06 0.000187435
0.00150826 -0.000102527 5.17078e-07
-0.000102527 0.000242319 -1.66549e-06
5.17078e-07 -1.66549e-06 0.000117202
0.00103254 -7.39367e-05 5.24405e-07
-7.39367e-05 9.87885e-05 -2.51151e-06
5.24405e-07 -2.51151e-06 -1.19129e-05
0.000773511 1.40315e-05 7.24339e-08
1.40315e-05 -4.94705e-05 -1.15852e-06
7.24339e-08 -1.15852e-06 -0.000105901
0.000886077 1.59391e-05 3.26778e-07
1.59391e-05 7.93845e-06 -1.21892e-06
3.26778e-07 -1.21892e-06 -5.39892e-05
0.00113112 1.10581e-05 3.11052e-07
1.10581e-05 0.000135798 -1.14039e-07
3.11052e-07 -1.14039e-07 6.78725e-05
0.00104995 -3.61373e-05 6.21679e-07
-3.61373e-05 9.49403e-05 -8.54044e-07
6.21679e-07 -8.54044e-07 2.00514e-05
0.00106889 -2.69828e-05 -9.44241e-11
-2.69828e-05 0.000103298 1.02659e-07
-9.44241e-11 1.02659e-07 2.01496e-05
0.00104508 -3.61297e-05 -1.91113e-07
-3.61297e-05 0.00010599 -1.5435e-06
-1.91113e-07 -1.5435e-06 9.31116e-06
0.000971495 -5.36935e-05 4.59836e-06
-5.36935e-05 9.49332e-05 8.42074e-08
4.59836e-06 8.42074e-08 -2.63103e-05
0.00100536 4.8673e-05 -7.14716e-07
4.8673e-05 6.89961e-05 -1.04403e-06
-7.14716e-07 -1.04403e-06 -1.13101e-05
0.000957259 5.86504e-05 -1.5523e-08
5.86504e-05 4.83437e-05 3.2495e-07
-1.5523e-08 3.2495e-07 -4.36299e-05
0.00136029 8.16052e-06 -1.36531e-06
8.16052e-06 -9.82771e-05 -1.10552e-06
-1.36531e-06 -1.10552e-06 -0.000167115
0.0012699 5.90788e-05 -1.32287e-06
5.90788e-05 -0.000161894 -1.92124e-06
-1.32287e-06 -1.92124e-06 -0.000216852
0.00185395 0.000106919 -2.63791e-06
0.000106919 0.000286596 -2.61794e-07
-2.63791e-06 -2.61794e-07 0.000189447
0.000817233 5.79737e-05 -6.08619e-08
5.79737e-05 -2.9108e-05 -1.03069e-06
-6.08619e-08 -1.03069e-06 -0.000132947
0.0014557 9.0345e-05 -3.2784e-07
9.0345e-05 0.000263876 -7.43105e-07
-3.2784e-07 -7.43105e-07 0.000136442
0.00109996 5.21268e-05 9.17644e-08
5.21268e-05 0.000121844 9.27914e-08
9.17644e-08 9.27914e-08 3.33517e-05
0.00163308 4.18001e-05 -1.50904e-06
4.18001e-05 -6.98528e-05 1.96111e-07
-1.50904e-06 1.96111e-07 -0.000126676
0.00119215 6.61644e-05 -4.12427e-07
6.61644e-05 0.000157639 -3.1608e-07
-4.12427e-07 -3.1608e-07 6.14678e-05
0.00127334 7.55589e-05 -3.00741e-07
7.55589e-05 0.000203736 4.31567e-07
-3.00741e-07 4.31567e-07 8.58835e-05
0.00164474 0.0001015 1.69436e-06
0.0001015 3.04172e-05 -1.17861e-06
1.69436e-06 -1.17861e-06 -3.9417e-05
0.0012492 9.17187e-05 -1.02263e-06
9.17187e-05 0.00011562 1.16698e-06
-1.02263e-06 1.16698e-06 -2.00822e-05
0.00175903 1.27555e-05 -3.52499e-06
1.27555e-05 4.40855e-05 -3.50755e-06
-3.52499e-06 -3.50755e-06 3.02202e-05
0.00114004 5.92457e-05 -6.23124e-07
5.92457e-05 0.000136792 -8.67619e-07
-6.23124e-07 -8.67619e-07 4.36957e-05
0.00222069 0.000115081 1.03362e-05
0.000115081 0.000210456 1.44679e-06
1.03362e-05 1.44679e-06 0.00015587
0.00129768 7.29526e-05 -1.67478e-06
7.29526e-05 0.000218582 -7.6209e-07
-1.67478e-06 -7.6209e-07 0.000117292
0.00103164 7.46081e-05 -1.7045e-06
7.46081e-05 0.000110798 1.4062e-06
-1.7045e-06 1.4062e-06 -3.19898e-05
0.000621921 0.000103163 1.77122e-07
0.000103163 -0.0002838 8.77626e-08
1.77122e-07 8.77626e-08 -0.000401106
0.00608458 -0.000117145 -2.00031e-05
-0.000117145 0.00212462 1.02037e-06
-2.00031e-05 1.02037e-06 0.0016091
0.00302059 -0.000128947 5.84126e-05
-0.000128947 0.000512204 1.28478e-05
5.84126e-05 1.28478e-05 0.000282611
0.00112009 0.000112146 8.79729e-06
0.000112146 -0.00022428 4.33317e-06
8.79729e-06 4.33317e-06 -0.000150684
-0.00257832 -0.000151347 -4.24142e-05
-0.000151347 -0.00139176 -2.13597e-05
-4.24142e-05 -2.13597e-05 -0.00135512
0.00153631 -0.000220954 -1.15958e-05
-0.000220954 -1.49304e-05 -2.38966e-06
-1.15958e-05 -2.38966e-06 0.000527791
0.00102632 3.60889e-05 -4.16301e-07
3.60889e-05 8.03951e-05 -5.85945e-07
-4.16301e-07 -5.85945e-07 -2.63956e-06
0.00111692 4.73146e-05 3.22605e-08
4.73146e-05 0.000121955 -5.68785e-08
3.22605e-08 -5.68785e-08 3.40137e-05
0.00112342 4.96361e-05 2.94603e-07
4.96361e-05 0.000111543 1.4968e-07
2.94603e-07 1.4968e-07 2.2977e-05
0.000947022 -2.59747e-05 2.22271e-07
-2.59747e-05 2.93617e-05 -8.15849e-07
2.22271e-07 -8.15849e-07 -1.63171e-05
0.000849252 1.74501e-05 4.94565e-08
1.74501e-05 -1.37348e-05 -7.14505e-07
4.94565e-08 -7.14505e-07 -7.35108e-05
0.00103577 -7.14962e-06 8.69817e-08
-7.14962e-06 8.09556e-05 -4.00749e-07
8.69817e-08 -4.00749e-07 1.30379e-05
0.0011022 1.48144e-05 -1.10996e-07
1.48144e-05 0.000115406 -5.05281e-07
-1.10996e-07 -5.05281e-07 3.81812e-05
0.001025 3.18212e-05 -6.11661e-07
3.18212e-05 7.06304e-05 -1.23003e-06
-6.11661e-07 -1.23003e-06 -1.45601e-05
0.00102037 3.05043e-05 -3.2251e-07
3.05043e-05 7.3503e-05 -4.56215e-07
-3.2251e-07 -4.56215e-07 5.05086e-06
0.000872217 7.30399e-06 1.64158e-07
7.30399e-06 -9.76627e-06 4.2972e-07
1.64158e-07 4.2972e-07 -5.54625e-05
0.000910555 4.28105e-06 -1.34382e-07
4.28105e-06 1.74205e-05 4.46543e-08
-1.34382e-07 4.46543e-08 -4.14906e-05
0.00105983 3.32433e-05 -3.6403e-08
3.32433e-05 8.48006e-05 1.68294e-07
-3.6403e-08 1.68294e-07 -3.61923e-07
0.00106067 2.62567e-05 -1.97199e-08
2.62567e-05 9.46768e-05 -2.74041e-07
-1.97199e-08 -2.74041e-07 1.95893e-05
0.00104722 4.45361e-05 1.41507e-08
4.45361e-05 9.00451e-05 -3.21495e-07
1.41507e-08 -3.21495e-07 1.53897e-05
0.00110919 5.16144e-05 2.76448e-07
5.16144e-05 0.000116397 6.35723e-07
2.76448e-07 6.35723e-07 3.3053e-05
0.000878708 2.07916e-05 1.92105e-07
2.07916e-05 -1.98537e-06 9.42202e-07
1.92105e-07 9.42202e-07 -7.04645e-05
0.000848137 5.29118e-06 3.71816e-07
5.29118e-06 -1.5668e-05 9.42043e-08
3.71816e-07 9.42043e-08 -7.49991e-05
0.000765764 -2.69309e-05 -1.08134e-06
-2.69309e-05 -6.34115e-05 1.23108e-06
-1.08134e-06 1.23108e-06 -0.00010968
0.00102621 7.3831e-06 -5.99066e-08
7.3831e-06 7.60345e-05 4.57676e-07
-5.99066e-08 4.57676e-07 1.73712e-05
0.0011419 3.96247e-05 1.56568e-07
3.96247e-05 0.000136625 1.33061e-07
1.56568e-07 1.33061e-07 6.84952e-05
0.00097195 -5.13349e-06 -3.26093e-07
-5.13349e-06 5.03117e-05 6.41966e-07
-3.26093e-07 6.41966e-07 -9.92411e-06
0.00100056 5.8578e-06 3.49623e-07
5.8578e-06 6.39709e-05 -4.51945e-07
3.49623e-07 -4.51945e-07 5.15956e-06
0.000951142 -2.10886e-05 -8.20707e-07
-2.10886e-05 3.15792e-05 7.6879e-07
-8.20707e-07 7.6879e-07 -1.38937e-05
0.000785875 4.09812e-06 1.6064e-07
4.09812e-06 -5.28401e-05 4.30792e-07
1.6064e-07 4.30792e-07 -9.92079e-05
0.000921215 1.06436e-05 -2.94502e-08
1.06436e-05 4.86068e-06 1.57401e-06
-2.94502e-08 1.57401e-06 -2.1551e-05
0.000915635 2.82236e-06 -2.15003e-07
2.82236e-06 1.90952e-06 -2.29326e-09
-2.15003e-07 -2.29326e-09 -2.42218e-05
0.000886382 3.5011e-06 -3.50552e-07
3.5011e-06 -2.57048e-05 4.19451e-06
-3.50552e-07 4.19451e-06 -2.47944e-05
0.00091663 -7.39356e-06 3.88759e-07
-7.39356e-06 2.10539e-06 -1.55143e-06
3.88759e-07 -1.55143e-06 -2.39499e-05
0.000870356 2.56689e-07 9.17742e-08
2.56689e-07 -3.46247e-05 7.52612e-09
9.17742e-08 7.52612e-09 -3.35102e-05
0.0021859 -9.12173e-07 9.03532e-09
-9.12173e-07 0.000641787 3.93135e-06
9.03532e-09 3.93135e-06 0.000665581
0.00088793 -2.88866e-06 -4.56039e-07
-2.88866e-06 -2.49077e-05 -4.22984e-06
-4.56039e-07 -4.22984e-06 -2.39663e-05
0.00161889 -4.50213e-06 -1.45734e-07
-4.50213e-06 0.000350293 1.85e-08
-1.45734e-07 1.85e-08 0.000371245
0.00101286 -7.41786e-06 -7.75105e-07
-7.41786e-06 3.95158e-05 -1.48774e-06
-7.75105e-07 -1.48774e-06 5.78976e-05
0.000932945 3.08759e-06 1.22654e-07
3.08759e-06 5.8317e-06 -1.72695e-06
1.22654e-07 -1.72695e-06 -1.64031e-05
0.000927454 5.60195e-06 1.38103e-08
5.60195e-06 4.15218e-06 -3.04641e-09
1.38103e-08 -3.04641e-09 -1.90679e-05
0.00086205 7.46006e-06 5.00185e-07
7.46006e-06 -3.74716e-05 -3.07533e-06
5.00185e-07 -3.07533e-06 -3.47476e-05
0.000924709 8.3691e-06 -5.32355e-07
8.3691e-06 4.40629e-06 1.73804e-06
-5.32355e-07 1.73804e-06 -2.04007e-05
0.0011311 1.18148e-05 -1.68096e-07
1.18148e-05 0.000103773 -5.95732e-07
-1.68096e-07 -5.95732e-07 0.000106541
0.00214396 1.40127e-05 7.70389e-06
1.40127e-05 0.000624737 -3.82829e-06
7.70389e-06 -3.82829e-06 0.000648255
0.000866333 1.42752e-05 -1.32876e-06
1.42752e-05 -2.8363e-05 3.17599e-06
-1.32876e-06 3.17599e-06 -2.88775e-05
0.00220541 1.82652e-05 -4.055e-06
1.82652e-05 0.000660884 1.11163e-06
-4.055e-06 1.11163e-06 0.000683075
0.00223155 2.34102e-05 -1.3939e-05
2.34102e-05 0.000679162 3.88342e-06
-1.3939e-05 3.88342e-06 0.000700052
0.00143215 -1.14689e-05 -1.17227e-06
-1.14689e-05 -1.21588e-05 -5.60616e-07
-1.17227e-06 -5.60616e-07 -8.96633e-05
0.00162175 2.81709e-06 -1.72857e-06
2.81709e-06 9.33521e-05 -1.16379e-06
-1.72857e-06 -1.16379e-06 5.95745e-06
0.00152524 -1.75167e-05 1.51899e-06
-1.75167e-05 2.50479e-05 -2.69263e-07
1.51899e-06 -2.69263e-07 -5.39723e-05
0.0017174 -3.85159e-05 -2.00465e-06
-3.85159e-05 2.50856e-05 -8.07153e-07
-2.00465e-06 -8.07153e-07 -8.46228e-06
0.00150995 2.72548e-06 -9.73093e-07
2.72548e-06 3.09856e-05 -3.64879e-07
-9.73093e-07 -3.64879e-07 -4.88655e-05
0.00153422 -2.41147e-07 -4.45477e-07
-2.41147e-07 -1.57043e-05 -4.40083e-07
-4.45477e-07 -4.40083e-07 -8.51855e-05
0.0021107 2.81456e-05 1.76694e-06
2.81456e-05 0.000268321 2.37479e-06
1.76694e-06 2.37479e-06 0.000177315
0.00192152 -0.000100995 0.000141851
-0.000100995 0.000175174 3.767e-05
0.000141851 3.767e-05 -4.20594e-05
0.00155875 -2.04223e-05 -5.86729e-06
-2.04223e-05 8.80253e-05 2.80864e-06
-5.86729e-06 2.80864e-06 3.00729e-05
0.00095485 3.11233e-06 -4.03616e-07
3.11233e-06 3.14336e-05 -9.95497e-07
-4.03616e-07 -9.95497e-07 -8.21908e-06
0.000958919 -1.5008e-05 3.74845e-07
-1.5008e-05 3.31993e-05 -1.25066e-08
3.74845e-07 -1.25066e-08 -6.9609e-06
0.000965967 -3.59153e-06 -1.48165e-07
-3.59153e-06 4.68858e-05 -4.77095e-07
-1.48165e-07 -4.77095e-07 -5.33673e-06
0.000977076 -1.72331e-05 -3.3735e-07
-1.72331e-05 5.4812e-05 -2.05268e-07
-3.3735e-07 -2.05268e-07 1.06181e-06
0.001675 2.58057e-05 -1.93857e-06
2.58057e-05 0.000104265 -9.67857e-07
-1.93857e-06 -9.67857e-07 2.15962e-05
0.00172023 -1.42411e-05 -3.12332e-07
-1.42411e-05 8.98535e-05 1.54785e-06
-3.12332e-07 1.54785e-06 1.88398e-05
0.00133416 -7.33063e-05 -4.39227e-06
-7.33063e-05 -0.000106627 1.22291e-06
-4.39227e-06 1.22291e-06 -0.000142839
0.000888996 -6.09277e-05 6.88427e-08
-6.09277e-05 -6.15331e-09 2.75827e-06
6.88427e-08 2.75827e-06 -8.76265e-05
0.000758164 -7.17624e-05 4.91048e-07
-7.17624e-05 -6.21248e-05 2.48467e-06
4.91048e-07 2.48467e-06 -0.000197696
0.00128402 -9.13732e-05 -2.7454e-06
-9.13732e-05 2.5629e-05 -9.13593e-07
-2.7454e-06 -9.13593e-07 -6.33754e-05
0.000863618 -6.29615e-05 -4.35039e-06
-6.29615e-05 4.96914e-06 8.44463e-07
-4.35039e-06 8.44463e-07 -8.65816e-05
0.00108591 -3.81724e-05 -9.81188e-07
-3.81724e-05 0.00012729 1.94103e-08
-9.81188e-07 1.94103e-08 2.67178e-05
0.00106781 -4.26535e-05 -4.7106e-07
-4.26535e-05 0.000107124 1.49631e-06
-4.7106e-07 1.49631e-06 1.84663e-05
0.000947864 -9.26639e-07 -7.49097e-07
-9.26639e-07 2.93849e-05 1.21676e-06
-7.49097e-07 1.21676e-06 -1.59614e-05
0.00105644 -3.29146e-05 -9.00684e-08
-3.29146e-05 9.45578e-05 6.96318e-07
-9.00684e-08 6.96318e-07 1.71395e-05
0.00104604 8.84763e-06 -5.7699e-07
8.84763e-06 8.66275e-05 1.01332e-06
-5.7699e-07 1.01332e-06 2.45834e-05
0.000971106 -5.31836e-06 -9.3906e-08
-5.31836e-06 3.95103e-05 5.01186e-07
-9.3906e-08 5.01186e-07 -1.67187e-06
0.000797573 1.52591e-05 2.37971e-08
1.52591e-05 -3.66581e-05 1.54829e-06
2.37971e-08 1.54829e-06 -9.58103e-05
0.00165319 2.19475e-05 -3.07543e-07
2.19475e-05 7.9138e-05 1.35078e-06
-3.07543e-07 1.35078e-06 7.1046e-07
0.000957646 1.19107e-05 1.91133e-07
1.19107e-05 4.3667e-05 -4.92372e-07
1.91133e-07 -4.92372e-07 -1.10401e-05
0.000929629 2.47782e-06 4.29675e-07
2.47782e-06 3.04069e-05 1.16445e-08
4.29675e-07 1.16445e-08 -3.06077e-05
0.00101162 2.54902e-05 -1.90922e-07
2.54902e-05 7.39032e-05 9.31357e-07
-1.90922e-07 9.31357e-07 6.50865e-06
0.00198039 -4.72603e-05 -2.92905e-06
-4.72603e-05 0.000158908 6.06639e-07
-2.92905e-06 6.06639e-07 0.000117941
0.00142071 -9.61758e-05 -9.929e-07
-9.61758e-05 -4.25523e-05 -1.41729e-06
-9.929e-07 -1.41729e-06 -0.000102496
0.00105003 -7.46076e-05 9.46677e-08
-7.46076e-05 0.000102624 -2.80195e-07
9.46677e-08 -2.80195e-07 -6.81948e-06
0.00144174 -0.000100956 1.22043e-07
-0.000100956 0.000214334 -2.63304e-07
1.22043e-07 -2.63304e-07 8.73899e-05
0.00108824 -2.2459e-05 -2.48434e-07
-2.2459e-05 0.00011367 8.95963e-08
-2.48434e-07 8.95963e-08 3.9925e-05
0.0010173 -2.91682e-05 -1.37276e-07
-2.91682e-05 7.70414e-05 7.33563e-07
-1.37276e-07 7.33563e-07 -6.03065e-06
0.000988914 -5.41054e-05 1.93764e-06
-5.41054e-05 9.78798e-05 -4.4605e-07
1.93764e-06 -4.4605e-07 -1.84005e-05
0.0011435 -4.37388e-05 7.05528e-08
-4.37388e-05 0.00015568 -5.48918e-07
7.05528e-08 -5.48918e-07 5.6873e-05
0.00107839 1.18354e-05 3.56797e-06
1.18354e-05 -0.000279782 -1.19537e-07
3.56797e-06 -1.19537e-07 -0.000345505
0.00210788 -0.000107518 1.1358e-05
-0.000107518 0.000136056 -5.25689e-06
1.1358e-05 -5.25689e-06 9.26811e-05
0.00192529 -0.000118328 5.01726e-06
-0.000118328 0.000347434 -1.74864e-06
5.01726e-06 -1.74864e-06 0.000227074
0.00112131 -8.83639e-05 2.59187e-07
-8.83639e-05 0.000143653 -1.5207e-06
2.59187e-07 -1.5207e-06 2.05211e-05
0.000928858 1.67868e-05 -5.76133e-07
1.67868e-05 3.43638e-05 -6.553e-07
-5.76133e-07 -6.553e-07 -3.69764e-05
0.000951053 -3.64056e-05 9.0062e-07
-3.64056e-05 4.74806e-05 -1.48687e-06
9.0062e-07 -1.48687e-06 -2.54853e-05
0.00102001 -5.05716e-05 5.89037e-07
-5.05716e-05 8.32711e-05 -1.04121e-06
5.89037e-07 -1.04121e-06 -4.38708e-06
0.00109778 -2.61179e-05 -6.26598e-07
-2.61179e-05 0.000148163 -6.04166e-07
-6.26598e-07 -6.04166e-07 2.21588e-05
0.000508881 -7.43376e-06 -1.13717e-05
-7.43376e-06 -0.000432809 -1.23108e-06
-1.13717e-05 -1.23108e-06 -0.000938238
0.00108768 5.34658e-05 -1.66265e-07
5.34658e-05 0.00011658 -2.73131e-07
-1.66265e-07 -2.73131e-07 2.86055e-05
0.000963116 5.98718e-05 6.88364e-07
5.98718e-05 4.61074e-05 4.96973e-07
6.88364e-07 4.96973e-07 -4.94654e-05
0.00132606 4.11415e-05 -3.77988e-06
4.11415e-05 -0.00023111 -1.35708e-06
-3.77988e-06 -1.35708e-06 -0.000288018
0.00179413 9.92134e-05 -3.50128e-06
9.92134e-05 9.63927e-05 3.00956e-07
-3.50128e-06 3.00956e-07 2.84524e-05
0.00138849 9.64712e-05 -2.15008e-06
9.64712e-05 0.000193422 -4.59188e-07
-2.15008e-06 -4.59188e-07 5.09368e-05
0.000876498 6.23221e-05 1.26288e-06
6.23221e-05 1.57867e-05 3.65144e-07
1.26288e-06 3.65144e-07 -0.000102427
0.00127487 9.44688e-06 -1.14453e-05
9.44688e-06 -0.00026379 -2.2629e-06
-1.14453e-05 -2.2629e-06 -0.000270087
0.00111286 5.90372e-05 9.8259e-08
5.90372e-05 0.000125715 -1.54473e-07
9.8259e-08 -1.54473e-07 3.27904e-05
0.0018952 0.000110583 9.12731e-09
0.000110583 3.70602e-05 3.93221e-07
9.12731e-09 3.93221e-07 -1.67352e-05
0.00109156 6.62242e-05 6.54827e-07
6.62242e-05 0.000119049 -1.74488e-09
6.54827e-07 -1.74488e-09 1.80068e-05
0.00107018 7.62699e-05 -2.61613e-07
7.62699e-05 0.000130438 -1.09007e-07
-2.61613e-07 -1.09007e-07 -1.00987e-05
0.000748255 0.000104401 -2.58959e-06
0.000104401 -0.000229044 -3.19284e-07
-2.58959e-06 -3.19284e-07 -0.000342218
0.00150751 -0.000120527 -1.2908e-05
-0.000120527 7.91011e-05 -5.7713e-06
-1.2908e-05 -5.7713e-06 -0.000431416
0.00275945 -0.000133377 3.74491e-06
-0.000133377 0.000256182 -3.58012e-06
3.74491e-06 -3.58012e-06 -4.60107e-05
0.000867166 0.000104318 3.06537e-06
0.000104318 -0.000363809 -5.17136e-07
3.06537e-06 -5.17136e-07 -0.000283438
-0.000340233 -0.000171563 -6.51699e-06
-0.000171563 -0.000407327 -4.09911e-06
-6.51699e-06 -4.09911e-06 -0.000464474
0.000518205 -0.000229985 -6.40168e-07
-0.000229985 -0.000508274 2.04146e-07
-6.40168e-07 2.04146e-07 -2.72196e-06
0.00110059 5.98268e-05 7.45489e-07
5.98268e-05 0.000123385 -7.21744e-07
7.45489e-07 -7.21744e-07 3.11321e-05
-0.000269651 3.25566e-05 -9.89473e-05
3.25566e-05 -0.000399763 -1.15036e-05
-9.89473e-05 -1.15036e-05 -0.000610817
0.0021844 -0.000119721 -7.12808e-06
-0.000119721 0.000794383 -7.90052e-06
-7.12808e-06 -7.90052e-06 0.00103406
0.00120712 0.000127007 4.71702e-06
0.000127007 -0.000208032 4.13602e-06
4.71702e-06 4.13602e-06 -0.000219692
0.00079363 3.31893e-05 -5.71942e-07
3.31893e-05 -1.9422e-05 -1.0384e-06
-5.71942e-07 -1.0384e-06 -0.000130598
0.00162006 6.76586e-05 -4.26761e-06
6.76586e-05 0.00044421 2.23372e-06
-4.26761e-06 2.23372e-06 0.000266298
0.00173932 0.000104642 2.40402e-06
0.000104642 0.000266619 6.37174e-06
2.40402e-06 6.37174e-06 0.000217913
0.00569594 -0.000232549 -6.72334e-05
-0.000232549 0.00175879 -1.67073e-05
-6.72334e-05 -1.67073e-05 0.00101384
0.00222076 -4.80704e-05 2.82652e-05
-4.80704e-05 -4.33214e-05 2.26176e-05
2.82652e-05 2.26176e-05 -0.000404102
6.95915e-05 -0.000248357 -5.28508e-05
-0.000248357 -0.000135448 -2.73636e-05
-5.28508e-05 -2.73636e-05 -4.94663e-05
-0.000390388 -0.000112152 -5.96107e-06
-0.000112152 -0.00119032 1.51314e-06
-5.96107e-06 1.51314e-06 -0.000921529
0.00105271 4.27981e-05 -5.76252e-07
4.27981e-05 9.13491e-05 -4.35863e-07
-5.76252e-07 -4.35863e-07 3.83338e-06
0.00112566 5.27953e-05 -5.01704e-07
5.27953e-05 0.000115057 1.97842e-07
-5.01704e-07 1.97842e-07 2.60897e-05
0.00122172 6.45071e-05 -5.16535e-07
6.45071e-05 0.000152627 -3.07891e-07
-5.16535e-07 -3.07891e-07 6.31767e-05
0.000948958 2.863e-06 3.42874e-08
2.863e-06 3.05012e-05 -4.10895e-07
3.42874e-08 -4.10895e-07 -1.5328e-05
0.000998498 -8.673e-06 8.40294e-08
-8.673e-06 6.21867e-05 -6.48106e-07
8.40294e-08 -6.48106e-07 4.02519e-06
0.00094777 1.47131e-05 -3.10784e-07
1.47131e-05 3.42232e-05 -9.01187e-07
-3.10784e-07 -9.01187e-07 -3.39918e-05
0.00103726 2.50914e-05 6.63808e-08
2.50914e-05 8.1434e-05 -5.94353e-07
6.63808e-08 -5.94353e-07 6.18674e-06
0.00103952 3.02518e-05 -2.07699e-07
3.02518e-05 7.68803e-05 -5.20968e-07
-2.07699e-07 -5.20968e-07 -7.82371e-06
0.000777709 -4.76401e-06 2.91853e-07
-4.76401e-06 -5.77231e-05 4.27746e-07
2.91853e-07 4.27746e-07 -0.000103904
0.00101296 3.54e-05 -2.97175e-07
3.54e-05 7.14895e-05 -5.68399e-07
-2.97175e-07 -5.68399e-07 -2.53491e-06
0.0010272 2.40118e-06 -1.01639e-07
2.40118e-06 7.4661e-05 4.40239e-07
-1.01639e-07 4.40239e-07 6.65973e-06
0.000932291 1.47243e-05 1.679e-07
1.47243e-05 2.74206e-05 -2.99337e-07
1.679e-07 -2.99337e-07 -3.16193e-05
0.00102433 4.85087e-05 1.63508e-08
4.85087e-05 7.16904e-05 1.68336e-07
1.63508e-08 1.68336e-07 -1.22194e-05
0.00100214 3.2461e-05 5.02409e-08
3.2461e-05 6.08921e-05 3.38832e-07
5.02409e-08 3.38832e-07 -1.64757e-05
0.00118901 5.42982e-05 3.83961e-08
5.42982e-05 0.000165006 2.78465e-07
3.83961e-08 2.78465e-07 7.36709e-05
0.00100509 -3.40099e-05 -2.42202e-07
-3.40099e-05 6.30808e-05 2.96009e-07
-2.42202e-07 2.96009e-07 -4.09208e-06
0.00101763 -2.29905e-05 -3.10142e-07
-2.29905e-05 7.02101e-05 1.97079e-08
-3.10142e-07 1.97079e-08 1.19484e-05
0.00103104 -7.14298e-07 -2.24537e-07
-7.14298e-07 7.76369e-05 -3.08841e-08
-2.24537e-07 -3.08841e-08 1.95948e-05
0.00103247 2.3311e-05 -2.30533e-07
2.3311e-05 7.89813e-05 -4.13691e-07
-2.30533e-07 -4.13691e-07 1.08976e-05
0.0010242 1.62253e-05 2.17981e-08
1.62253e-05 7.58455e-05 5.6475e-07
2.17981e-08 5.6475e-07 6.77259e-06
0.00100564 1.15685e-05 -4.78636e-09
1.15685e-05 6.581e-05 6.23928e-07
-4.78636e-09 6.23928e-07 -3.27967e-06
0.00107696 2.08015e-05 -3.88865e-08
2.08015e-05 9.91217e-05 -2.30419e-07
-3.88865e-08 -2.30419e-07 2.49849e-05
0.000979819 -1.936e-05 -1.12874e-07
-1.936e-05 6.10353e-05 1.07137e-06
-1.12874e-07 1.07137e-06 -1.61685e-05
0.000972496 -2.64369e-06 -1.69845e-07
-2.64369e-06 4.81393e-05 7.47009e-07
-1.69845e-07 7.47009e-07 -1.28464e-05
0.000966582 -6.6276e-06 3.31111e-08
-6.6276e-06 4.70904e-05 -2.51616e-08
3.31111e-08 -2.51616e-08 -1.27829e-05
0.000950391 -7.11078e-06 -7.18739e-07
-7.11078e-06 3.12868e-05 8.1318e-07
-7.18739e-07 8.1318e-07 -1.48275e-05
0.000861682 8.06283e-06 1.9647e-07
8.06283e-06 -8.87688e-06 -9.36193e-07
1.9647e-07 -9.36193e-07 -6.74893e-05
0.000870079 -9.168e-06 1.94445e-07
-9.168e-06 -1.00814e-05 -2.38433e-09
1.94445e-07 -2.38433e-09 -5.58681e-05
0.000925713 8.76773e-06 -3.02524e-07
8.76773e-06 7.58014e-06 1.61832e-06
-3.02524e-07 1.61832e-06 -1.9443e-05
0.000790389 4.07684e-06 1.8466e-07
4.07684e-06 -5.04989e-05 -3.67596e-07
1.8466e-07 -3.67596e-07 -9.6883e-05
0.000920229 3.01593e-06 -1.76899e-07
3.01593e-06 4.25595e-06 -1.46548e-08
-1.76899e-07 -1.46548e-08 -2.21154e-05
0.00144793 7.3862e-06 -2.41454e-06
7.3862e-06 0.000265128 4.15746e-06
-2.41454e-06 4.15746e-06 0.000268557
0.000913637 -6.10989e-06 5.58699e-07
-6.10989e-06 8.96262e-07 -1.54851e-06
5.58699e-07 -1.54851e-06 -2.5206e-05
0.00116132 3.7971e-06 -9.16966e-07
3.7971e-06 0.00011591 6.0435e-07
-9.16966e-07 6.0435e-07 0.000118262
0.00106506 2.19723e-06 -2.02467e-06
2.19723e-06 6.44089e-05 3.80075e-06
-2.02467e-06 3.80075e-06 8.2641e-05
0.000873643 2.07408e-07 3.54067e-08
2.07408e-07 -3.29347e-05 -2.96818e-06
3.54067e-08 -2.96818e-06 -3.18337e-05
0.00218266 -6.56517e-07 1.29083e-06
-6.56517e-07 0.000640111 2.52624e-10
1.29083e-06 2.52624e-10 0.000663925
0.00106022 -3.09338e-06 -1.05892e-06
-3.09338e-06 6.23672e-05 -3.81024e-06
-1.05892e-06 -3.81024e-06 8.05961e-05
0.000953261 2.53264e-05 1.91831e-07
2.53264e-05 3.15805e-05 -4.45333e-07
1.91831e-07 -4.45333e-07 -9.01734e-06
0.000934267 4.2707e-07 4.8394e-08
4.2707e-07 6.26637e-06 -1.72713e-06
4.8394e-08 -1.72713e-06 -1.56805e-05
0.000931321 2.61609e-06 -5.11709e-08
2.61609e-06 4.89633e-06 -7.13387e-09
-5.11709e-08 -7.13387e-09 -1.73219e-05
0.000870359 3.8271e-06 1.97486e-07
3.8271e-06 -3.51613e-05 -3.07464e-06
1.97486e-07 -3.07464e-06 -3.15724e-05
0.000925704 5.1722e-06 -3.58403e-07
5.1722e-06 2.97978e-06 1.69362e-06
-3.58403e-07 1.69362e-06 -2.01989e-05
0.000865757 7.53435e-06 6.1233e-08
7.53435e-06 -3.58884e-05 -6.10217e-07
6.1233e-08 -6.10217e-07 -3.3089e-05
0.00211129 9.29809e-06 5.08985e-06
9.29809e-06 0.000605292 -3.84273e-06
5.08985e-06 -3.84273e-06 0.000629619
0.00140274 1.34433e-05 -1.26229e-06
1.34433e-05 0.000243932 1.93078e-06
-1.26229e-06 1.93078e-06 0.000247822
0.00161566 1.23508e-05 2.49779e-07
1.23508e-05 0.000353492 1.19107e-06
2.49779e-07 1.19107e-06 0.000373961
0.00110165 1.41487e-05 -1.08876e-05
1.41487e-05 9.29129e-05 6.3096e-06
-1.08876e-05 6.3096e-06 0.000109427
0.00160676 -3.38821e-05 -2.20179e-06
-3.38821e-05 -1.83544e-06 -4.33541e-07
-2.20179e-06 -4.33541e-07 -4.11088e-05
0.00148577 -4.40025e-07 -2.14181e-06
-4.40025e-07 1.46605e-05 -4.73509e-07
-2.14181e-06 -4.73509e-07 -6.61254e-05
0.000988495 1.26232e-06 -5.97539e-06
1.26232e-06 -0.000267334 -4.03349e-06
-5.97539e-06 -4.03349e-06 -0.000342513
0.000996259 -8.39358e-05 3.53902e-05
-8.39358e-05 -5.66756e-05 6.39507e-06
3.53902e-05 6.39507e-06 -0.000263471
0.00134206 -2.37294e-05 -2.62361e-06
-2.37294e-05 -1.23283e-06 -8.57708e-07
-2.62361e-06 -8.57708e-07 -5.86039e-05
0.00176959 2.96344e-05 -2.16956e-06
2.96344e-05 9.08645e-05 -1.49696e-06
-2.16956e-06 -1.49696e-06 -3.0138e-08
0.00135643 4.59128e-05 1.65689e-06
4.59128e-05 3.50589e-05 7.78404e-07
1.65689e-06 7.78404e-07 -3.60406e-05
0.00123956 -4.29118e-05 0.000105293
-4.29118e-05 5.41827e-05 7.13724e-06
0.000105293 7.13724e-06 -0.000204522
0.00517605 9.44301e-05 -2.32777e-05
9.44301e-05 0.00153561 -3.87001e-06
-2.32777e-05 -3.87001e-06 0.000865782
0.00264054 0.000252518 -3.90587e-05
0.000252518 0.00104647 1.74933e-05
-3.90587e-05 1.74933e-05 0.00102697
0.00105027 0.00019437 -1.13779e-05
0.00019437 -5.17517e-05 6.00961e-06
-1.13779e-05 6.00961e-06 0.000370331
0.000777412 -1.08953e-05 8.96817e-07
-1.08953e-05 -4.68446e-05 -9.93744e-07
8.96817e-07 -9.93744e-07 -0.000100824
0.000959496 -8.79564e-06 -3.41799e-08
-8.79564e-06 3.38846e-05 -8.93542e-10
-3.41799e-08 -8.93542e-10 -5.8532e-06
0.000964915 -2.82734e-05 -7.01029e-07
-2.82734e-05 3.69943e-05 9.62488e-07
-7.01029e-07 9.62488e-07 -3.78258e-06
0.000901135 6.42269e-06 -2.44889e-07
6.42269e-06 1.49209e-05 6.29429e-09
-2.44889e-07 6.29429e-09 -3.82268e-05
0.00104583 3.75457e-05 1.19642e-07
3.75457e-05 9.45793e-05 3.27313e-07
1.19642e-07 3.27313e-07 3.09844e-05
0.00103175 4.34246e-05 1.87853e-07
4.34246e-05 8.44827e-05 2.43354e-07
1.87853e-07 2.43354e-07 2.30314e-05
0.00100572 -2.02333e-06 5.38897e-07
-2.02333e-06 6.97049e-05 -1.37928e-06
5.38897e-07 -1.37928e-06 1.4235e-05
0.000911462 -2.57144e-05 -3.66736e-07
-2.57144e-05 2.05658e-05 4.75981e-07
-3.66736e-07 4.75981e-07 -3.30418e-05
0.00180891 2.16051e-05 -2.89663e-06
2.16051e-05 0.00016195 1.73633e-07
-2.89663e-06 1.73633e-07 8.46092e-05
0.00178091 -4.86464e-05 -2.97183e-06
-4.86464e-05 5.84066e-05 1.58487e-06
-2.97183e-06 1.58487e-06 1.3244e-05
0.000939672 -8.52771e-05 -9.78704e-06
-8.52771e-05 -0.0002736 4.57817e-07
-9.78704e-06 4.57817e-07 -0.000331452
0.00101418 -7.36738e-05 6.06904e-08
-7.36738e-05 7.95671e-05 1.77036e-06
6.06904e-08 1.77036e-06 -2.88397e-05
0.00155932 -0.000104223 -1.01925e-06
-0.000104223 0.000278984 2.61403e-06
-1.01925e-06 2.61403e-06 0.000149275
0.00100927 -5.47938e-05 -4.8393e-07
-5.47938e-05 0.000102759 2.10706e-07
-4.8393e-07 2.10706e-07 -9.1045e-06
0.00123711 -5.16931e-05 1.54707e-07
-5.16931e-05 0.000202978 4.1672e-07
1.54707e-07 4.1672e-07 0.000101917
0.000964347 -3.11483e-05 -4.43926e-07
-3.11483e-05 5.00626e-05 1.0752e-06
-4.43926e-07 1.0752e-06 -3.28865e-05
0.000975012 -6.57124e-06 -5.89838e-08
-6.57124e-06 5.37051e-05 1.10273e-06
-5.89838e-08 1.10273e-06 -6.35732e-06
0.0011344 -1.35488e-05 -4.57609e-07
-1.35488e-05 0.000136388 8.14933e-07
-4.57609e-07 8.14933e-07 6.37793e-05
0.00115984 4.28981e-06 -8.94047e-08
4.28981e-06 0.00014566 2.80105e-07
-8.94047e-08 2.80105e-07 9.27643e-05
0.000918377 3.96289e-05 7.13122e-07
3.96289e-05 2.5055e-05 2.05728e-06
7.13122e-07 2.05728e-06 -4.18388e-05
0.00176895 2.21908e-05 1.55126e-06
2.21908e-05 5.28029e-05 -3.12505e-06
1.55126e-06 -3.12505e-06 -1.27481e-05
0.00095325 1.77803e-05 -2.65885e-07
1.77803e-05 4.73464e-05 3.24989e-07
-2.65885e-07 3.24989e-07 -2.32068e-05
0.000978255 -3.35698e-05 1.37309e-08
-3.35698e-05 6.09192e-05 -4.47037e-07
1.37309e-08 -4.47037e-07 -1.18072e-05
0.00215011 -0.000107288 -4.30015e-06
-0.000107288 0.000160277 -7.972e-07
-4.30015e-06 -7.972e-07 0.000120571
0.000924488 -9.50882e-05 1.67859e-06
-9.50882e-05 -0.000138224 1.79632e-06
1.67859e-06 1.79632e-06 -0.000253241
0.00117431 -9.13876e-05 8.39071e-07
-9.13876e-05 0.000168006 -7.6295e-07
8.39071e-07 -7.6295e-07 3.91326e-05
0.00104514 -4.3528e-05 4.58785e-08
-4.3528e-05 9.36611e-05 -1.72872e-07
4.58785e-08 -1.72872e-07 5.71399e-06
0.00111792 -3.27653e-05 -6.71645e-08
-3.27653e-05 0.000156725 2.71055e-07
-6.71645e-08 2.71055e-07 3.09436e-05
0.00236319 -5.06185e-05 -1.99798e-06
-5.06185e-05 0.000227475 1.00076e-05
-1.99798e-06 1.00076e-05 0.000213847
0.00267767 -0.000176167 1.16469e-05
-0.000176167 0.000566005 -3.97853e-06
1.16469e-05 -3.97853e-06 0.000446049
0.000530406 -9.07783e-05 -2.12794e-07
-9.07783e-05 -0.000189574 -2.71363e-06
-2.12794e-07 -2.71363e-06 -0.000319391
0.00116704 -6.38514e-05 3.14147e-07
-6.38514e-05 0.000195301 -7.22356e-07
3.14147e-07 -7.22356e-07 3.68109e-05
0.000875309 -3.66817e-05 3.73014e-07
-3.66817e-05 1.06228e-05 -4.39004e-07
3.73014e-07 -4.39004e-07 -6.69561e-05
0.00102124 -3.44211e-05 1.01706e-06
-3.44211e-05 7.9824e-05 -1.26138e-06
1.01706e-06 -1.26138e-06 -3.79996e-06
0.00120197 -2.0129e-05 -2.3924e-07
-2.0129e-05 0.000177065 -7.68414e-07
-2.3924e-07 -7.68414e-07 7.33973e-05
-0.000913151 -1.71464e-05 -8.59628e-05
-1.71464e-05 -0.000630502 -1.27066e-06
-8.59628e-05 -1.27066e-06 -0.00065429
0.005455 -2.32038e-05 -2.13052e-05
-2.32038e-05 0.00185085 -2.45083e-06
-2.13052e-05 -2.45083e-06 0.00133106
0.00111495 5.95678e-05 4.02609e-07
5.95678e-05 0.000128809 3.71342e-07
4.02609e-07 3.71342e-07 3.60641e-05
0.000884106 5.93674e-05 1.38724e-06
5.93674e-05 1.86832e-05 -7.60263e-07
1.38724e-06 -7.60263e-07 -8.20732e-05
0.00156071 0.000106318 -9.20609e-06
0.000106318 -0.000148498 1.23546e-06
-9.20609e-06 1.23546e-06 -0.000198533
0.00125435 0.000114703 -2.93462e-06
0.000114703 6.9109e-06 -1.62225e-06
-2.93462e-06 -1.62225e-06 -0.00010143
0.00108047 7.67894e-05 1.50748e-06
7.67894e-05 0.000135615 -1.65234e-06
1.50748e-06 -1.65234e-06 -2.02432e-06
0.00507833 -4.44436e-05 2.50922e-05
-4.44436e-05 0.00152688 -1.24987e-05
2.50922e-05 -1.24987e-05 0.0008891
0.00191027 -0.000131467 -5.38917e-05
-0.000131467 -3.13468e-05 -1.30985e-05
-5.38917e-05 -1.30985e-05 -0.000218969
0.000810618 8.81805e-05 -7.58519e-06
8.81805e-05 -0.000401903 -1.06461e-05
-7.58519e-06 -1.06461e-05 -0.000326661
0.00240684 -0.000228629 3.11133e-05
-0.000228629 0.00102657 1.43801e-05
3.11133e-05 1.43801e-05 0.000997253
-0.00058856 -0.000241351 1.41156e-05
-0.000241351 -0.00107075 1.58194e-05
1.41156e-05 1.58194e-05 -0.000595815
0.00107157 6.07491e-05 1.94694e-07
6.07491e-05 0.000105115 -3.13338e-07
1.94694e-07 -3.13338e-07 1.3131e-05
-0.00111049 -5.55881e-05 -1.30596e-05
-5.55881e-05 -0.000651414 -4.6962e-07
-1.30596e-05 -4.6962e-07 -0.000640503
0.000961187 -0.000112677 -1.795e-06
-0.000112677 0.000145598 2.19332e-07
-1.795e-06 2.19332e-07 0.000318588
0.00162067 0.000132271 7.55547e-07
0.000132271 -6.16457e-07 1.35459e-06
7.55547e-07 1.35459e-06 -2.14772e-05
0.00109714 4.83017e-05 -2.63253e-07
4.83017e-05 0.000138557 -1.21546e-06
-2.63253e-07 -1.21546e-06 3.12619e-05
0.00125788 7.29579e-05 6.26689e-07
7.29579e-05 0.000263051 1.24022e-07
6.26689e-07 1.24022e-07 8.61849e-05
0.0013643 7.6996e-05 -7.39332e-06
7.6996e-05 6.19797e-05 -2.62675e-06
-7.39332e-06 -2.62675e-06 4.19092e-05
0.00437842 -0.000155245 6.53053e-06
-0.000155245 0.00105162 6.06338e-06
6.53053e-06 6.06338e-06 0.000246122
0.00191305 -2.86336e-05 -9.43834e-06
-2.86336e-05 -7.35621e-06 -1.51371e-05
-9.43834e-06 -1.51371e-05 -0.000151402
0.00294732 -0.000336688 5.97857e-06
-0.000336688 0.000915691 -9.26329e-07
5.97857e-06 -9.26329e-07 0.000908248
0.000125529 -0.000135882 -2.32046e-06
-0.000135882 -0.000962471 2.93847e-06
-2.32046e-06 2.93847e-06 -0.000607952
0.00104839 3.07979e-05 -1.87979e-06
3.07979e-05 5.98977e-05 -1.57785e-06
-1.87979e-06 -1.57785e-06 -2.87422e-05
0.000201402 -2.44388e-05 -2.73162e-06
-2.44388e-05 -0.000194309 -1.16645e-06
-2.73162e-06 -1.16645e-06 -0.000218984
0.000991367 -7.67963e-06 3.43976e-06
-7.67963e-06 6.8315e-05 -7.03945e-06
3.43976e-06 -7.03945e-06 2.14278e-05
0.000313055 9.29889e-05 6.75676e-06
9.29889e-05 -0.00029343 -2.88184e-06
6.75676e-06 -2.88184e-06 -0.000449513
0.00189607 4.95267e-05 -7.40511e-06
4.95267e-05 0.000601869 6.45043e-08
-7.40511e-06 6.45043e-08 0.000467769
0.00392135 -4.66087e-05 -9.14894e-06
-4.66087e-05 0.00168739 -5.15335e-07
-9.14894e-06 -5.15335e-07 0.00165634
0.000675934 0.000149461 -5.45051e-05
0.000149461 -0.000281045 1.07737e-05
-5.45051e-05 1.07737e-05 -0.000514592
0.00169898 -0.000239545 1.39049e-05
-0.000239545 -8.27875e-05 9.20076e-06
1.39049e-05 9.20076e-06 -0.00100865
0.0038937 -0.000364476 -4.21567e-05
-0.000364476 0.000845583 -1.83978e-05
-4.21567e-05 -1.83978e-05 0.000915692
0.000620707 -4.14611e-05 -1.42821e-08
-4.14611e-05 -0.000438918 1.77452e-06
-1.42821e-08 1.77452e-06 -0.000368531
0.00113915 5.68407e-05 -1.25981e-07
5.68407e-05 0.000124347 1.00834e-06
-1.25981e-07 1.00834e-06 3.48882e-05
0.00111725 5.98079e-05 8.03312e-07
5.98079e-05 0.000100506 6.48231e-07
8.03312e-07 6.48231e-07 1.0439e-05
0.000708226 5.24135e-05 1.77949e-06
5.24135e-05 -7.83801e-05 -3.7549e-07
1.77949e-06 -3.7549e-07 -0.000174463
0.000790922 1.30301e-05 1.32541e-07
1.30301e-05 -5.09981e-05 -3.80479e-07
1.32541e-07 -3.80479e-07 -9.73879e-05
0.0010145 2.04754e-05 -7.80751e-08
2.04754e-05 6.96805e-05 -6.68802e-07
-7.80751e-08 -6.68802e-07 1.08864e-05
0.00118226 -1.73174e-05 2.12951e-07
-1.73174e-05 0.000154565 1.05015e-08
2.12951e-07 1.05015e-08 8.70229e-05
0.000974564 2.91183e-05 -4.49325e-07
2.91183e-05 5.13647e-05 -8.22285e-07
-4.49325e-07 -8.22285e-07 -2.2248e-05
0.000930602 4.55103e-05 -2.24091e-07
4.55103e-05 2.25707e-05 -1.16361e-07
-2.24091e-07 -1.16361e-07 -6.19159e-05
0.00100773 7.93286e-06 3.52833e-07
7.93286e-06 6.6033e-05 -4.15102e-07
3.52833e-07 -4.15102e-07 7.30614e-06
0.00102456 2.82174e-05 -1.71448e-07
2.82174e-05 7.38899e-05 -1.15858e-07
-1.71448e-07 -1.15858e-07 -2.78313e-06
0.000991903 -1.69293e-05 4.35242e-08
-1.69293e-05 5.69732e-05 -1.88503e-08
4.35242e-08 -1.88503e-08 -1.04625e-05
0.00108912 4.57506e-05 1.36174e-07
4.57506e-05 0.000116181 4.10692e-07
1.36174e-07 4.10692e-07 2.4075e-05
0.00127777 -1.15218e-06 -5.41708e-08
-1.15218e-06 0.000211804 -8.31474e-07
-5.41708e-08 -8.31474e-07 0.000115412
0.00110859 1.51221e-05 -2.73181e-07
1.51221e-05 0.000118763 7.59069e-07
-2.73181e-07 7.59069e-07 3.79649e-05
0.00102286 9.90193e-06 1.83776e-07
9.90193e-06 7.45953e-05 3.58482e-07
1.83776e-07 3.58482e-07 5.76796e-06
0.00102084 -1.34211e-05 3.34578e-08
-1.34211e-05 7.3776e-05 -5.4546e-07
3.34578e-08 -5.4546e-07 1.51128e-05
0.000919911 -2.5988e-08 -1.84648e-09
-2.5988e-08 2.00236e-05 -1.04931e-06
-1.84648e-09 -1.04931e-06 -4.8053e-05
0.00101674 2.69451e-06 2.29192e-07
2.69451e-06 7.16795e-05 9.0364e-09
2.29192e-07 9.0364e-09 2.95404e-06
0.000997118 9.58914e-06 2.58764e-08
9.58914e-06 6.17823e-05 3.87252e-08
2.58764e-08 3.87252e-08 -7.33907e-06
0.00104041 8.99314e-06 -2.61497e-07
8.99314e-06 7.85869e-05 -7.36909e-07
-2.61497e-07 -7.36909e-07 4.87585e-06
0.000966088 -1.95637e-06 -1.44892e-07
-1.95637e-06 4.85963e-05 1.19742e-06
-1.44892e-07 1.19742e-06 -2.33455e-05
0.0010804 1.63904e-05 9.28344e-08
1.63904e-05 0.000100805 2.24809e-08
9.28344e-08 2.24809e-08 2.51618e-05
0.000922381 -7.6166e-06 4.63449e-08
-7.6166e-06 1.68018e-05 2.92872e-07
4.63449e-08 2.92872e-07 -6.09051e-05
0.00101222 -3.26967e-05 4.4735e-07
-3.26967e-05 7.29418e-05 -5.33431e-07
4.4735e-07 -5.33431e-07 -1.2639e-05
0.000795543 -4.80723e-05 3.14947e-07
-4.80723e-05 -1.37574e-05 -6.49085e-08
3.14947e-07 -6.49085e-08 -0.00010358
0.000892135 -3.25418e-05 -6.5709e-07
-3.25418e-05 2.10781e-05 -4.13244e-07
-6.5709e-07 -4.13244e-07 -6.02468e-05
0.00100079 -1.981e-05 -6.39636e-08
-1.981e-05 7.15225e-05 2.9147e-07
-6.39636e-08 2.9147e-07 -5.67835e-06
0.000988489 -1.39387e-05 -4.04405e-07
-1.39387e-05 5.78802e-05 1.31622e-06
-4.04405e-07 1.31622e-06 -6.85523e-06
0.000984204 -8.6882e-06 -5.57042e-08
-8.6882e-06 5.47346e-05 -4.90761e-08
-5.57042e-08 -4.90761e-08 -6.61624e-06
0.000953573 7.01908e-06 -2.86748e-07
7.01908e-06 3.17619e-05 9.31561e-07
-2.86748e-07 9.31561e-07 -1.52836e-05
0.000971632 -9.63616e-07 3.5932e-07
-9.63616e-07 4.85588e-05 -5.55709e-07
3.5932e-07 -5.55709e-07 -1.0567e-05
0.000950851 -1.24026e-06 5.98565e-08
-1.24026e-06 3.10239e-05 -8.61532e-10
5.98565e-08 -8.61532e-10 -1.48167e-05
0.000923526 1.0072e-05 -6.00318e-07
1.0072e-05 8.05765e-06 1.60216e-06
-6.00318e-07 1.60216e-06 -1.99844e-05
0.000782702 1.05361e-05 1.25965e-07
1.05361e-05 -5.54162e-05 -7.75663e-07
1.25965e-07 -7.75663e-07 -0.000101124
0.000923834 3.82692e-06 -8.65495e-08
3.82692e-06 6.49294e-06 -1.13148e-08
-8.65495e-08 -1.13148e-08 -2.05092e-05
0.0014467 1.10963e-05 -3.78036e-06
1.10963e-05 0.000266926 4.18792e-06
-3.78036e-06 4.18792e-06 0.000269786
0.000919191 -3.43054e-06 6.21449e-07
-3.43054e-06 3.60428e-06 -1.55706e-06
6.21449e-07 -1.55706e-06 -2.27322e-05
0.00115897 7.36686e-06 -1.44327e-06
7.36686e-06 0.000116244 5.90506e-07
-1.44327e-06 5.90506e-07 0.000118298
0.00101536 6.92178e-06 -7.47761e-07
6.92178e-06 4.04322e-05 1.48827e-06
-7.47761e-07 1.48827e-06 5.85928e-05
0.000872097 3.50164e-06 3.71964e-07
3.50164e-06 -3.33496e-05 -2.96973e-06
3.71964e-07 -2.96973e-06 -3.23163e-05
0.00218138 4.04123e-06 1.23693e-06
4.04123e-06 0.000639797 8.54012e-09
1.23693e-06 8.54012e-09 0.000663558
0.00217954 -3.99239e-07 1.07414e-06
-3.99239e-07 0.000638488 -3.90412e-06
1.07414e-06 -3.90412e-06 0.000662322
0.00119655 2.02249e-05 -6.8131e-07
2.02249e-05 0.00015503 -8.0066e-07
-6.8131e-07 -8.0066e-07 0.000114907
0.000932048 -1.72277e-06 -1.34677e-07
-1.72277e-06 5.62893e-06 -1.68154e-06
-1.34677e-07 -1.68154e-06 -1.68577e-05
0.000951782 4.42891e-06 5.03921e-07
4.42891e-06 3.04995e-05 4.89621e-07
5.03921e-07 4.89621e-07 -9.73706e-06
0.000876573 1.48569e-07 -2.45407e-08
1.48569e-07 -3.25039e-05 -3.07625e-06
-2.45407e-08 -3.07625e-06 -2.86743e-05
0.000933163 -1.85844e-08 3.72577e-09
-1.85844e-08 5.68245e-06 -6.09322e-09
3.72577e-09 -6.09322e-09 -1.62611e-05
0.000927703 2.16327e-06 -2.91193e-07
2.16327e-06 2.92335e-06 1.7167e-06
-2.91193e-07 1.7167e-06 -1.92689e-05
0.00087425 3.93419e-06 -1.13216e-07
3.93419e-06 -3.31659e-05 3.32996e-09
-1.13216e-07 3.32996e-09 -2.96082e-05
0.00209072 4.64187e-06 2.20511e-06
4.64187e-06 0.000593125 -3.85362e-06
2.20511e-06 -3.85362e-06 0.000617945
0.00139205 9.19919e-06 -8.5089e-07
9.19919e-06 0.000235252 1.89026e-06
-8.5089e-07 1.89026e-06 0.000240597
0.00157866 8.49775e-06 1.48571e-06
8.49775e-06 0.000331178 2.68807e-08
1.48571e-06 2.68807e-08 0.000352767
0.0010987 1.06213e-05 -8.86123e-06
1.06213e-05 8.68857e-05 6.24031e-06
-8.86123e-06 6.24031e-06 0.000104749
-0.00271069 6.062e-05 -5.52376e-05
6.062e-05 -0.00164519 1.09508e-05
-5.52376e-05 1.09508e-05 -0.00162183
-0.00131556 8.23893e-05 -7.78696e-06
8.23893e-05 -0.00122936 7.12971e-06
-7.78696e-06 7.12971e-06 -0.00107147
0.00180649 -8.63909e-05 -5.9757e-05
-8.63909e-05 0.000373033 -1.411e-05
-5.9757e-05 -1.411e-05 0.000170785
0.00137109 -2.83691e-05 -2.24944e-06
-2.83691e-05 3.05925e-05 -1.09167e-06
-2.24944e-06 -1.09167e-06 -2.64442e-05
0.00139209 3.26398e-05 -1.29814e-05
3.26398e-05 -0.00010361 -9.38414e-07
-1.29814e-05 -9.38414e-07 -0.000194371
0.000867245 -2.75816e-05 2.1773e-05
-2.75816e-05 4.57166e-05 -1.85973e-06
2.1773e-05 -1.85973e-06 -0.000115171
0.0017295 5.32665e-05 2.20184e-06
5.32665e-05 0.000200756 1.70941e-06
2.20184e-06 1.70941e-06 0.000126236
0.00481569 0.000150864 -3.04609e-05
0.000150864 0.00138301 -3.6954e-07
-3.04609e-05 -3.6954e-07 0.000784087
-0.00222474 0.00013241 3.1923e-06
0.00013241 -0.00106668 -4.11248e-06
3.1923e-06 -4.11248e-06 -0.00106766
0.000341525 0.000210793 2.9145e-06
0.000210793 -0.000497887 -4.5751e-06
2.9145e-06 -4.5751e-06 -5.12226e-05
0.000927303 3.98421e-05 3.04579e-05
3.98421e-05 0.000141219 -1.31728e-05
3.04579e-05 -1.31728e-05 -6.63133e-05
0.00550607 0.000281865 -1.23677e-05
0.000281865 0.00165874 1.06151e-05
-1.23677e-05 1.06151e-05 0.000986202
8.94308e-05 0.000230895 -5.45794e-05
0.000230895 -0.00010808 3.85973e-05
-5.45794e-05 3.85973e-05 -9.03527e-06
0.00163196 0.000136322 -1.08256e-05
0.000136322 -0.000122053 7.9239e-06
-1.08256e-05 7.9239e-06 0.000265122
0.000909113 2.69755e-05 -3.49724e-07
2.69755e-05 2.65859e-05 -7.09296e-07
-3.49724e-07 -7.09296e-07 -4.06881e-05
0.000869863 4.31269e-06 5.16187e-08
4.31269e-06 -7.05532e-07 -4.36973e-07
5.16187e-08 -4.36973e-07 -5.39769e-05
0.000956879 -2.4472e-05 -6.61049e-07
-2.4472e-05 3.28954e-05 9.81121e-07
-6.61049e-07 9.81121e-07 -7.09169e-06
0.000831471 1.32854e-05 -2.53378e-09
1.32854e-05 -2.01355e-05 6.35478e-07
-2.53378e-09 6.35478e-07 -7.38839e-05
0.00100821 3.95458e-05 5.47372e-07
3.95458e-05 7.65881e-05 9.13598e-07
5.47372e-07 9.13598e-07 1.36966e-05
0.00104291 3.20428e-05 -3.09163e-07
3.20428e-05 9.49443e-05 -5.0949e-07
-3.09163e-07 -5.0949e-07 2.79967e-05
0.000981017 2.51315e-05 8.13633e-07
2.51315e-05 5.96248e-05 9.94089e-07
8.13633e-07 9.94089e-07 -2.19958e-06
0.00097289 5.53749e-06 5.59325e-07
5.53749e-06 5.30723e-05 -4.14782e-07
5.59325e-07 -4.14782e-07 -7.36776e-06
0.000931816 -8.3054e-06 2.33433e-07
-8.3054e-06 3.21234e-05 -5.22523e-07
2.33433e-07 -5.22523e-07 -2.41838e-05
0.000837834 -2.27836e-05 -3.99045e-07
-2.27836e-05 -1.67665e-05 1.11079e-06
-3.99045e-07 1.11079e-06 -7.07338e-05
0.00225029 3.10997e-05 -6.25625e-06
3.10997e-05 0.000281247 1.83013e-06
-6.25625e-06 1.83013e-06 0.000216045
0.00193772 -0.000104258 -1.43349e-05
-0.000104258 5.95268e-05 1.68502e-06
-1.43349e-05 1.68502e-06 2.35917e-05
-0.000299252 -6.62432e-05 -1.49564e-06
-6.62432e-05 -0.000733207 3.79171e-06
-1.49564e-06 3.79171e-06 -0.000842915
0.00117938 -9.30515e-05 -4.44565e-07
-9.30515e-05 0.000168112 2.06056e-06
-4.44565e-07 2.06056e-06 3.42515e-05
0.00112664 -3.89597e-05 4.98826e-07
-3.89597e-05 0.000158649 6.31839e-07
4.98826e-07 6.31839e-07 3.39751e-05
0.00107015 -3.97205e-05 -2.33772e-07
-3.97205e-05 0.000103791 5.98047e-07
-2.33772e-07 5.98047e-07 1.56627e-05
0.000988172 -3.63386e-05 -5.25413e-07
-3.63386e-05 6.60337e-05 6.28597e-07
-5.25413e-07 6.28597e-07 -6.66048e-06
0.000974274 1.86022e-05 -1.12943e-07
1.86022e-05 5.86379e-05 8.94858e-07
-1.12943e-07 8.94858e-07 -1.11237e-05
0.00194624 -4.37282e-05 -4.26641e-06
-4.37282e-05 5.41119e-06 1.2292e-06
-4.26641e-06 1.2292e-06 -1.87854e-05
0.000891279 -1.71001e-05 -1.60829e-07
-1.71001e-05 1.84514e-05 -2.04176e-08
-1.60829e-07 -2.04176e-08 -5.95706e-05
0.000971417 -3.75981e-05 4.36354e-07
-3.75981e-05 5.34859e-05 -5.52244e-07
4.36354e-07 -5.52244e-07 -3.14591e-05
0.00186302 -0.000150706 2.8088e-06
-0.000150706 0.000165126 3.8793e-07
2.8088e-06 3.8793e-07 5.4113e-05
0.000682857 -9.3133e-05 1.13054e-07
-9.3133e-05 -0.000103108 2.36037e-06
1.13054e-07 2.36037e-06 -0.000230445
0.00117508 -6.25081e-05 8.04872e-07
-6.25081e-05 0.00019179 -3.08437e-07
8.04872e-07 -3.08437e-07 4.0205e-05
0.0011795 -2.46195e-05 -2.00158e-07
-2.46195e-05 0.000165745 -3.64753e-07
-2.00158e-07 -3.64753e-07 5.73336e-05
0.00306909 -0.000132868 3.79427e-06
-0.000132868 0.000625829 -1.02203e-06
3.79427e-06 -1.02203e-06 0.000629963
0.00194626 -0.000151757 5.52141e-07
-0.000151757 0.000499274 -5.03649e-06
5.52141e-07 -5.03649e-06 0.000327818
0.00089229 9.57446e-07 -1.53386e-06
9.57446e-07 6.23318e-05 -6.33799e-07
-1.53386e-06 -6.33799e-07 -8.55923e-05
0.0009625 3.24537e-05 2.25682e-07
3.24537e-05 5.5452e-05 1.50077e-07
2.25682e-07 1.50077e-07 -2.39661e-05
0.000998374 -5.10652e-05 7.49286e-07
-5.10652e-05 6.54565e-05 -5.95478e-07
7.49286e-07 -5.95478e-07 -2.14215e-05
0.0011078 -6.24828e-06 2.91994e-07
-6.24828e-06 0.000108474 -5.94666e-08
2.91994e-07 -5.94666e-08 1.5543e-05
0.0011499 -8.07113e-06 -2.52608e-06
-8.07113e-06 0.00031013 1.13644e-07
-2.52608e-06 1.13644e-07 0.000297158
0.0013534 -8.4284e-06 7.40139e-06
-8.4284e-06 0.000359354 -2.11916e-06
7.40139e-06 -2.11916e-06 0.000204972
0.000532862 8.93142e-05 -3.75047e-05
8.93142e-05 -0.000525993 5.0273e-06
-3.75047e-05 5.0273e-06 -0.00103818
0.00105131 6.19959e-05 8.41537e-08
6.19959e-05 9.0945e-05 2.07251e-07
8.41537e-08 2.07251e-07 -7.63761e-07
0.00141634 6.38687e-05 2.50231e-06
6.38687e-05 0.000302737 4.53159e-07
2.50231e-06 4.53159e-07 0.000199636
0.00195275 0.000134768 -3.41159e-06
0.000134768 0.000171961 -8.3523e-07
-3.41159e-06 -8.3523e-07 0.000138265
0.000762024 7.41985e-05 2.34889e-06
7.41985e-05 1.86589e-05 -3.94485e-06
2.34889e-06 -3.94485e-06 -0.000158996
0.00392027 -0.000173325 4.59148e-05
-0.000173325 0.00156943 5.88021e-06
4.59148e-05 5.88021e-06 0.00152936
0.00061338 -0.000210018 3.12341e-05
-0.000210018 -0.000500161 2.97344e-05
3.12341e-05 2.97344e-05 -0.00103901
0.00343376 -1.06504e-05 -6.48599e-05
-1.06504e-05 0.000413301 -5.52982e-05
-6.48599e-05 -5.52982e-05 0.00017681
0.000516289 6.37193e-05 4.86125e-06
6.37193e-05 -0.000369433 -1.69465e-07
4.86125e-06 -1.69465e-07 -0.000353944
-0.0016401 -0.000218615 5.44589e-05
-0.000218615 -0.00110895 2.66781e-05
5.44589e-05 2.66781e-05 -0.00104612
0.00216628 -0.000113387 1.14468e-05
-0.000113387 0.000775672 8.68476e-06
1.14468e-05 8.68476e-06 0.000931247
0.00164172 -0.000167594 8.91083e-06
-0.000167594 -7.59132e-05 6.04558e-06
8.91083e-06 6.04558e-06 0.000314069
0.00116661 4.28713e-05 -5.12111e-08
4.28713e-05 0.00012763 2.42899e-07
-5.12111e-08 2.42899e-07 3.7172e-05
0.000708444 -3.92287e-05 -2.79366e-06
-3.92287e-05 6.91467e-05 4.13284e-07
-2.79366e-06 4.13284e-07 8.99251e-05
0.000883209 -2.15131e-06 -2.25307e-06
-2.15131e-06 -4.92572e-06 -3.61371e-06
-2.25307e-06 -3.61371e-06 -5.07997e-05
0.000952052 9.76444e-05 -1.75471e-06
9.76444e-05 1.62997e-05 6.70665e-07
-1.75471e-06 6.70665e-07 -0.000144917
0.000887493 2.94384e-05 -2.07573e-07
2.94384e-05 0.00011754 -2.39729e-07
-2.07573e-07 -2.39729e-07 -2.23452e-05
0.00227003 -1.39927e-07 1.30302e-05
-1.39927e-07 0.000793603 1.11603e-06
1.30302e-05 1.11603e-06 0.000692971
0.00405855 0.000232807 -2.70132e-05
0.000232807 0.00104106 -1.94502e-05
-2.70132e-05 -1.94502e-05 0.00064384
0.00615541 -0.000265795 -2.44043e-06
-0.000265795 0.00171882 4.19922e-06
-2.44043e-06 4.19922e-06 0.000918745
0.000188311 -0.000255981 8.57404e-06
-0.000255981 -0.000628101 1.58097e-05
8.57404e-06 1.58097e-05 -0.000603488
0.00177031 -5.86413e-05 -5.24743e-07
-5.86413e-05 0.000172538 6.83005e-07
-5.24743e-07 6.83005e-07 0.000322557
0.00141564 6.66538e-05 -5.80744e-07
6.66538e-05 0.000302252 -3.61413e-06
-5.80744e-07 -3.61413e-06 0.000224952
0.00192328 8.30683e-06 8.47098e-06
8.30683e-06 0.000727944 3.33049e-06
8.47098e-06 3.33049e-06 0.000663377
0.0011305 1.39206e-05 5.04129e-06
1.39206e-05 0.00016181 4.834e-07
5.04129e-06 4.834e-07 5.93908e-05
0.000407336 -3.29813e-05 -7.83145e-06
-3.29813e-05 -1.85829e-05 4.92837e-06
-7.83145e-06 4.92837e-06 -0.000156696
0.000711568 0.000124802 -2.19673e-05
0.000124802 0.000215749 4.26543e-05
-2.19673e-05 4.26543e-05 -2.46379e-05
0.00613367 -0.000174698 -2.12795e-05
-0.000174698 0.0013177 -1.54931e-05
-2.12795e-05 -1.54931e-05 0.000379828
-0.000215201 -0.000142226 -3.88046e-05
-0.000142226 -0.00125211 -4.5203e-05
-3.88046e-05 -4.5203e-05 -0.00110604
0.00217352 1.16189e-05 -1.61005e-07
1.16189e-05 0.000444562 1.22599e-05
-1.61005e-07 1.22599e-05 0.00058318
0.00100052 5.59944e-05 -9.26402e-08
5.59944e-05 4.26994e-05 -1.00631e-07
-9.26402e-08 -1.00631e-07 -4.81162e-05
0.00109043 6.07309e-05 5.55278e-07
6.07309e-05 0.000106252 -5.96838e-08
5.55278e-07 -5.96838e-08 1.28799e-05
0.0011425 5.34793e-05 -1.11812e-06
5.34793e-05 0.000133901 -2.49517e-06
-1.11812e-06 -2.49517e-06 4.1266e-05
0.00101239 4.01005e-05 -5.52633e-07
4.01005e-05 6.79985e-05 -8.47421e-07
-5.52633e-07 -8.47421e-07 9.43097e-06
0.000991683 -8.89291e-06 2.33913e-07
-8.89291e-06 5.70949e-05 -3.16479e-07
2.33913e-07 -3.16479e-07 -1.05776e-05
0.00104192 2.44495e-05 -2.48371e-07
2.44495e-05 8.43e-05 -3.17735e-07
-2.48371e-07 -3.17735e-07 8.38715e-06
0.0010057 3.69635e-05 2.47488e-07
3.69635e-05 7.55959e-05 1.74774e-08
2.47488e-07 1.74774e-08 -1.71392e-05
0.0010319 1.88273e-05 2.25425e-07
1.88273e-05 7.8046e-05 -2.66595e-09
2.25425e-07 -2.66595e-09 9.78962e-06
0.00108494 1.55394e-05 -5.52542e-08
1.55394e-05 0.000105532 4.50199e-07
-5.52542e-08 4.50199e-07 2.57012e-05
0.0010858 7.76286e-06 2.5916e-07
7.76286e-06 0.000121302 -5.26352e-07
2.5916e-07 -5.26352e-07 2.14027e-05
0.0013429 -5.69406e-06 -2.077e-07
-5.69406e-06 0.000258149 -8.92171e-07
-2.077e-07 -8.92171e-07 0.000163911
0.00109234 -3.29859e-05 3.61142e-07
-3.29859e-05 0.000104011 2.47443e-07
3.61142e-07 2.47443e-07 1.38241e-05
0.00110346 3.35048e-05 6.31421e-07
3.35048e-05 0.000112595 5.21163e-07
6.31421e-07 5.21163e-07 3.55826e-05
0.00101979 -5.51208e-06 4.87517e-07
-5.51208e-06 7.20145e-05 -5.14556e-07
4.87517e-07 -5.14556e-07 4.0785e-06
0.000987506 9.3956e-06 1.90101e-07
9.3956e-06 5.7244e-05 -6.47812e-07
1.90101e-07 -6.47812e-07 -1.1971e-05
0.00100795 3.24066e-06 -3.89648e-07
3.24066e-06 5.96155e-05 -1.31054e-06
-3.89648e-07 -1.31054e-06 -1.3446e-05
0.00109364 1.48775e-05 -1.61311e-07
1.48775e-05 0.000106065 -4.17249e-07
-1.61311e-07 -4.17249e-07 3.12638e-05
0.000985651 1.25558e-06 5.45167e-08
1.25558e-06 5.96626e-05 3.51229e-07
5.45167e-08 3.51229e-07 -1.26647e-05
0.000984473 2.80103e-06 2.21536e-08
2.80103e-06 4.6459e-05 -2.04413e-07
2.21536e-08 -2.04413e-07 -3.04306e-05
0.00100483 -1.82486e-05 4.86053e-10
-1.82486e-05 6.0467e-05 5.35929e-07
4.86053e-10 5.35929e-07 -2.11935e-05
0.0010459 -1.18726e-05 2.92707e-07
-1.18726e-05 7.515e-05 1.40626e-07
2.92707e-07 1.40626e-07 -4.76177e-06
0.000979348 -4.92899e-05 3.68823e-07
-4.92899e-05 5.36925e-05 -1.86346e-07
3.68823e-07 -1.86346e-07 -3.63624e-05
0.00108305 -3.58608e-05 -2.74293e-07
-3.58608e-05 0.000108129 -6.08607e-08
-2.74293e-07 -6.08607e-08 2.26239e-05
0.000819008 -4.89075e-05 -6.98002e-08
-4.89075e-05 -2.77865e-06 1.07857e-06
-6.98002e-08 1.07857e-06 -9.39908e-05
0.00109209 -6.46664e-05 -1.12831e-06
-6.46664e-05 0.000117357 1.78276e-06
-1.12831e-06 1.78276e-06 2.24454e-05
0.00112299 -5.16369e-05 3.85924e-07
-5.16369e-05 0.000137157 -1.11689e-06
3.85924e-07 -1.11689e-06 5.58073e-05
0.000847522 -5.14064e-05 3.0095e-07
-5.14064e-05 1.53645e-05 -1.27361e-06
3.0095e-07 -1.27361e-06 -7.18551e-05
0.00100489 -3.51298e-05 1.45689e-07
-3.51298e-05 7.76437e-05 -5.2295e-07
1.45689e-07 -5.2295e-07 -2.89535e-06
0.000872596 -1.96065e-05 -3.83046e-07
-1.96065e-05 5.01283e-07 7.87593e-07
-3.83046e-07 7.87593e-07 -6.98365e-05
0.00102025 -2.04781e-05 -1.16468e-07
-2.04781e-05 8.13123e-05 -1.63673e-07
-1.16468e-07 -1.63673e-07 4.11377e-06
0.000990803 -1.53519e-05 -9.72517e-08
-1.53519e-05 5.92098e-05 4.52477e-07
-9.72517e-08 4.52477e-07 -5.67032e-06
0.000948928 6.15543e-06 -2.97477e-07
6.15543e-06 2.93005e-05 1.14584e-06
-2.97477e-07 1.14584e-06 -2.05213e-05
0.000981417 -1.97591e-05 3.00681e-07
-1.97591e-05 5.48618e-05 -8.28263e-07
3.00681e-07 -8.28263e-07 -7.40407e-06
0.00094515 -1.78372e-06 -2.14342e-07
-1.78372e-06 2.82526e-05 -3.63507e-08
-2.14342e-07 -3.63507e-08 -1.91581e-05
0.00091622 1.14835e-05 -7.81098e-07
1.14835e-05 6.62842e-06 1.65e-06
-7.81098e-07 1.65e-06 -2.27104e-05
0.000949866 -1.07442e-06 6.82215e-07
-1.07442e-06 3.05899e-05 -8.65555e-07
6.82215e-07 -8.65555e-07 -1.5365e-05
0.00092042 5.29397e-06 -1.47776e-07
5.29397e-06 6.11418e-06 -6.57315e-10
-1.47776e-07 -6.57315e-10 -2.18634e-05
0.00144774 1.46439e-05 -5.21095e-06
1.46439e-05 0.000270934 4.22387e-06
-5.21095e-06 4.22387e-06 0.000272845
0.000919643 -1.99388e-06 8.9706e-07
-1.99388e-06 4.21398e-06 -1.5831e-06
8.9706e-07 -1.5831e-06 -2.27497e-05
0.00115634 1.08639e-05 -1.92426e-06
1.08639e-05 0.000117563 5.78794e-07
-1.92426e-06 5.78794e-07 0.000118956
0.00101124 1.06756e-05 -1.23968e-06
1.06756e-05 4.1595e-05 1.50276e-06
-1.23968e-06 1.50276e-06 5.90697e-05
0.00086988 6.84994e-06 6.49682e-07
6.84994e-06 -3.29827e-05 -3.00447e-06
6.49682e-07 -3.00447e-06 -3.22603e-05
0.00160167 8.26421e-06 2.92565e-06
8.26421e-06 0.000342424 -1.17716e-06
2.92565e-06 -1.17716e-06 0.000363271
0.00217873 4.47093e-06 3.84339e-06
4.47093e-06 0.000638702 -3.87443e-06
3.84339e-06 -3.87443e-06 0.000662441
0.00101762 -5.72372e-06 2.04625e-07
-5.72372e-06 6.42188e-05 -9.8042e-07
2.04625e-07 -9.8042e-07 1.99199e-05
0.000933364 -3.89465e-06 -2.47302e-07
-3.89465e-06 7.42719e-06 -1.6284e-06
-2.47302e-07 -1.6284e-06 -1.61968e-05
0.000997304 2.74658e-06 2.72214e-07
2.74658e-06 5.35829e-05 6.88748e-08
2.72214e-07 6.88748e-08 1.23697e-05
0.000880568 -3.40375e-06 -3.52951e-07
-3.40375e-06 -2.97593e-05 -3.07309e-06
-3.52951e-07 -3.07309e-06 -2.63998e-05
0.000932489 -2.17543e-06 -5.48498e-08
-2.17543e-06 5.86341e-06 -6.61412e-09
-5.48498e-08 -6.61412e-09 -1.66245e-05
0.000956437 -6.50722e-06 -4.27177e-07
-6.50722e-06 3.21151e-05 1.36538e-06
-4.27177e-07 1.36538e-06 -7.49322e-06
0.00208687 2.97112e-08 -7.69247e-07
2.97112e-08 0.000590729 -3.88148e-06
-7.69247e-07 -3.88148e-06 0.000615662
0.000875401 2.74968e-07 -7.75712e-08
2.74968e-07 -3.31428e-05 -4.55288e-09
-7.75712e-08 -4.55288e-09 -2.93004e-05
0.000930354 -4.85061e-07 -1.01911e-07
-4.85061e-07 4.20759e-06 1.7245e-06
-1.01911e-07 1.7245e-06 -1.77218e-05
0.000878276 4.04029e-06 -3.83753e-07
4.04029e-06 -3.10921e-05 3.05428e-06
-3.83753e-07 3.05428e-06 -2.75685e-05
0.00209292 4.82141e-06 -1.30795e-06
4.82141e-06 0.000594427 -8.38912e-09
-1.30795e-06 -8.38912e-09 0.000619189
0.00211201 9.24428e-06 -6.69176e-06
9.24428e-06 0.00060581 3.82946e-06
-6.69176e-06 3.82946e-06 0.000630111
-0.0010742 1.51194e-05 -4.67641e-08
1.51194e-05 -0.000966445 -1.40396e-06
-4.67641e-08 -1.40396e-06 -0.000988472
-0.00044139 0.000107735 2.52906e-05
0.000107735 -0.000386886 -2.37667e-06
2.52906e-05 -2.37667e-06 -0.000456101
0.00107274 9.43228e-06 1.32975e-06
9.43228e-06 5.39204e-05 4.29651e-06
1.32975e-06 4.29651e-06 3.63164e-05
-0.0011268 9.32048e-05 4.48114e-08
9.32048e-05 -0.00102738 1.01279e-06
4.48114e-08 1.01279e-06 -0.000869159
0.00205119 3.01202e-05 -7.5564e-05
3.01202e-05 0.000481662 -6.93336e-06
-7.5564e-05 -6.93336e-06 0.000245923
0.00179451 5.49431e-05 7.07681e-06
5.49431e-05 0.000225761 -2.06388e-06
7.07681e-06 -2.06388e-06 0.000148246
0.000557459 -1.19738e-05 -2.54281e-05
-1.19738e-05 -0.00045744 3.54677e-06
-2.54281e-05 3.54677e-06 -0.000932801
0.00422664 0.000199184 9.56143e-05
0.000199184 0.00190896 -2.93213e-05
9.56143e-05 -2.93213e-05 0.00186747
-0.000368616 0.000227839 1.3746e-05
0.000227839 -0.000960437 -1.39765e-05
1.3746e-05 -1.39765e-05 -0.000486475
0.00133913 5.30853e-05 -3.74003e-06
5.30853e-05 0.000165979 4.23144e-06
-3.74003e-06 4.23144e-06 -2.66455e-05
0.00268788 0.000186068 7.1169e-06
0.000186068 0.000442393 -7.15704e-06
7.1169e-06 -7.15704e-06 -0.000403828
0.00284654 0.000329 2.7888e-06
0.000329 0.000835486 -4.52067e-07
2.7888e-06 -4.52067e-07 0.000850462
0.00152391 0.000126504 -2.79786e-06
0.000126504 -0.000169092 1.76742e-06
-2.79786e-06 1.76742e-06 0.000224816
0.00162088 6.38546e-05 -1.96424e-07
6.38546e-05 0.000351419 1.22478e-06
-1.96424e-07 1.22478e-06 9.7088e-05
0.00316968 0.000231217 2.91449e-05
0.000231217 0.000658982 -1.62067e-05
2.91449e-05 -1.62067e-05 -0.00026655
-0.00225159 0.000227756 -5.37792e-05
0.000227756 -0.00201085 4.44754e-05
-5.37792e-05 4.44754e-05 -0.00187361
0.000838893 4.69302e-05 -1.10946e-07
4.69302e-05 -0.000388779 8.12645e-07
-1.10946e-07 8.12645e-07 -0.000232529
0.00105676 -3.20477e-06 7.30601e-07
-3.20477e-06 0.000102197 -6.53844e-07
7.30601e-07 -6.53844e-07 2.72188e-05
0.000993354 2.75266e-05 -7.87737e-07
2.75266e-05 6.87857e-05 -2.91588e-07
-7.87737e-07 -2.91588e-07 2.82472e-06
0.000956457 8.61836e-06 3.17936e-07
8.61836e-06 4.21062e-05 1.8111e-07
3.17936e-07 1.8111e-07 -1.01613e-05
0.00095606 4.10708e-05 1.1299e-06
4.10708e-05 5.14065e-05 1.44404e-06
1.1299e-06 1.44404e-06 -1.07615e-05
0.000941355 9.05544e-06 -2.46487e-07
9.05544e-06 4.088e-05 -3.36169e-07
-2.46487e-07 -3.36169e-07 -3.15427e-05
0.00106907 2.94679e-05 1.44177e-07
2.94679e-05 0.000107594 5.09851e-07
1.44177e-07 5.09851e-07 4.15178e-05
0.000944964 6.31533e-06 -2.62555e-07
6.31533e-06 4.02998e-05 1.68466e-06
-2.62555e-07 1.68466e-06 -2.07388e-05
0.00109072 3.69409e-05 -7.80058e-07
3.69409e-05 0.000112334 -5.91325e-07
-7.80058e-07 -5.91325e-07 4.94429e-05
0.00106262 1.92294e-05 -9.296e-08
1.92294e-05 9.95308e-05 4.56335e-07
-9.296e-08 4.56335e-07 3.91919e-05
0.00086559 -1.57869e-05 -6.69553e-07
-1.57869e-05 -1.40903e-06 3.07833e-07
-6.69553e-07 3.07833e-07 -5.87643e-05
0.00171448 -4.01996e-05 -6.97312e-06
-4.01996e-05 -0.00012367 1.62323e-07
-6.97312e-06 1.62323e-07 -0.000158218
0.00119513 -0.000126776 -7.27991e-06
-0.000126776 -0.000162937 4.93351e-06
-7.27991e-06 4.93351e-06 -0.000265661
0.000950998 -9.90526e-05 2.8335e-06
-9.90526e-05 3.97413e-05 4.43602e-06
2.8335e-06 4.43602e-06 -8.4811e-05
0.00119057 -6.12121e-05 7.09585e-07
-6.12121e-05 0.000193738 1.6756e-06
7.09585e-07 1.6756e-06 4.70689e-05
0.00114981 -2.09882e-05 -6.41338e-08
-2.09882e-05 0.000151799 3.26493e-07
-6.41338e-08 3.26493e-07 3.80551e-05
0.000918988 -4.1464e-05 -2.48693e-07
-4.1464e-05 2.67434e-05 5.0894e-07
-2.48693e-07 5.0894e-07 -6.00351e-05
0.00091309 2.14742e-05 2.33236e-08
2.14742e-05 2.90755e-05 1.72598e-07
2.33236e-08 1.72598e-07 -4.92466e-05
0.00100644 -6.23452e-06 2.53302e-07
-6.23452e-06 7.68343e-05 6.35619e-07
2.53302e-07 6.35619e-07 -2.56159e-06
0.00205438 -0.000130204 9.37081e-07
-0.000130204 0.000127955 -9.86366e-08
9.37081e-07 -9.86366e-08 0.00013212
0.00106642 -5.7633e-06 -1.62166e-07
-5.7633e-06 0.000101107 -2.07556e-07
-1.62166e-07 -2.07556e-07 1.51942e-05
0.00120649 -1.49903e-05 -1.0291e-07
-1.49903e-05 0.000160368 -3.39263e-08
-1.0291e-07 -3.39263e-08 6.53882e-05
0.00164102 -0.000139319 -3.08373e-07
-0.000139319 0.000360414 -1.76983e-06
-3.08373e-07 -1.76983e-06 0.000181438
0.00114979 -1.14126e-05 -4.7911e-07
-1.14126e-05 0.000182379 -1.85871e-08
-4.7911e-07 -1.85871e-08 3.73117e-05
0.000592095 -0.00013742 -7.16306e-06
-0.00013742 -0.000414847 -8.94606e-06
-7.16306e-06 -8.94606e-06 -0.000408607
0.00157805 -3.92304e-05 -2.01921e-06
-3.92304e-05 0.000454929 1.17068e-06
-2.01921e-06 1.17068e-06 0.000231007
0.000892542 2.84436e-05 -1.01341e-06
2.84436e-05 5.45597e-06 1.5751e-06
-1.01341e-06 1.5751e-06 -9.669e-05
0.00101923 2.80274e-05 -1.58883e-08
2.80274e-05 7.20385e-05 -8.81947e-07
-1.58883e-08 -8.81947e-07 -1.1293e-05
0.00106273 2.4045e-05 -2.08634e-07
2.4045e-05 8.07124e-05 4.71633e-08
-2.08634e-07 4.71633e-08 -1.28181e-05
0.00189681 -4.85164e-06 8.59702e-06
-4.85164e-06 0.000732174 8.77091e-07
8.59702e-06 8.77091e-07 0.000659875
5.79232e-05 -9.27582e-06 8.54992e-06
-9.27582e-06 -0.000299372 -4.20042e-07
8.54992e-06 -4.20042e-07 -0.000326613
-0.00295505 -1.82001e-05 7.89867e-05
-1.82001e-05 -0.00180542 4.01849e-07
7.89867e-05 4.01849e-07 -0.00184106
0.00133994 5.59224e-05 1.50139e-06
5.59224e-05 0.000223475 1.92865e-06
1.50139e-06 1.92865e-06 0.000131019
-9.06412e-05 1.36244e-05 2.39046e-06
1.36244e-05 -0.000351028 -1.31343e-06
2.39046e-06 -1.31343e-06 -0.000496044
0.0016196 0.000101027 1.32401e-06
0.000101027 0.000332876 -7.16925e-06
1.32401e-06 -7.16925e-06 0.000172015
-0.00112728 -2.08491e-05 4.12051e-06
-2.08491e-05 -0.00100705 1.12533e-06
4.12051e-06 1.12533e-06 -0.00103663
0.00226375 -0.000277128 2.43337e-05
-0.000277128 8.92667e-05 2.15186e-05
2.43337e-05 2.15186e-05 -0.000855737
0.00248101 0.000173048 5.12161e-05
0.000173048 0.000458312 -4.25411e-05
5.12161e-05 -4.25411e-05 0.000225592
0.00125861 2.27743e-06 4.14248e-05
2.27743e-06 0.000171338 1.38586e-05
4.14248e-05 1.38586e-05 9.86523e-06
0.0042615 -0.000373419 4.43689e-05
-0.000373419 0.00115026 5.00868e-05
4.43689e-05 5.00868e-05 0.00115441
0.000690323 2.689e-06 -5.64381e-06
2.689e-06 -0.000134904 -9.18128e-07
-5.64381e-06 -9.18128e-07 -0.00017947
0.00109125 -4.60979e-05 -1.28485e-06
-4.60979e-05 -0.000176681 -3.09931e-06
-1.28485e-06 -3.09931e-06 -6.3228e-05
0.00101917 5.90329e-05 1.4048e-06
5.90329e-05 0.000103774 -5.81726e-07
1.4048e-06 -5.81726e-07 2.91412e-05
0.00124947 1.09186e-05 2.81043e-07
1.09186e-05 0.000331539 9.63747e-07
2.81043e-07 9.63747e-07 0.000264782
0.000982911 1.44791e-05 -2.21711e-06
1.44791e-05 6.49731e-05 -2.64017e-06
-2.21711e-06 -2.64017e-06 -3.59881e-05
-0.000224576 -4.29536e-06 1.04668e-05
-4.29536e-06 -0.000326613 -5.02229e-07
1.04668e-05 -5.02229e-07 -0.00048027
0.00278872 0.000199025 -3.81186e-05
0.000199025 0.000892638 -1.89118e-05
-3.81186e-05 -1.89118e-05 0.000685308
0.00594679 4.1106e-06 1.98865e-05
4.1106e-06 0.00115819 4.38013e-06
1.98865e-05 4.38013e-06 0.00020448
0.00125901 -3.91598e-07 1.54794e-06
-3.91598e-07 -6.70039e-05 2.53147e-07
1.54794e-06 2.53147e-07 1.73258e-05
0.00168568 -0.000221638 -2.43263e-07
-0.000221638 -0.000386411 2.58329e-05
-2.43263e-07 2.58329e-05 -0.000308217
0.000862395 3.3606e-05 -2.06136e-06
3.3606e-05 6.03522e-05 -6.37009e-06
-2.06136e-06 -6.37009e-06 -1.83481e-06
0.00103868 1.29485e-05 1.25964e-05
1.29485e-05 0.000108018 2.19302e-06
1.25964e-05 2.19302e-06 -5.70871e-06
0.00166013 -6.72879e-06 -6.77409e-06
-6.72879e-06 0.000451857 -1.62305e-06
-6.77409e-06 -1.62305e-06 0.000328656
0.000836879 3.14919e-05 -4.63314e-07
3.14919e-05 -0.0003178 1.92389e-06
-4.63314e-07 1.92389e-06 -0.000213909
-0.00174858 4.92446e-05 -2.47652e-06
4.92446e-05 -0.000953365 5.28847e-07
-2.47652e-06 5.28847e-07 -0.00111517
0.00677408 -4.46636e-05 2.06824e-05
-4.46636e-05 0.00150416 1.65955e-05
2.06824e-05 1.65955e-05 0.000873085
0.000348206 5.08056e-06 -2.9678e-06
5.08056e-06 -0.000993494 -6.23096e-05
-2.9678e-06 -6.23096e-05 -0.00070893
0.0014501 7.05152e-05 1.0917e-06
7.05152e-05 0.000278605 2.39265e-06
1.0917e-06 2.39265e-06 0.000188062
0.00118771 5.62262e-05 -1.02935e-06
5.62262e-05 0.000145515 8.66623e-07
-1.02935e-06 8.66623e-07 4.96897e-05
0.00153909 5.35073e-05 -9.89171e-08
5.35073e-05 0.000341476 -3.72283e-06
-9.89171e-08 -3.72283e-06 0.000247338
0.00101783 4.34643e-05 -2.7034e-07
4.34643e-05 7.08986e-05 -3.77476e-07
-2.7034e-07 -3.77476e-07 2.78282e-06
0.0010658 2.62448e-05 -1.39581e-07
2.62448e-05 9.48222e-05 -3.23101e-07
-1.39581e-07 -3.23101e-07 1.57886e-05
0.000872623 -1.94821e-06 -1.82128e-07
-1.94821e-06 1.81095e-05 1.1981e-06
-1.82128e-07 1.1981e-06 -8.52564e-05
0.00112916 3.22122e-05 -4.25504e-08
3.22122e-05 0.00012412 -1.46358e-07
-4.25504e-08 -1.46358e-07 4.81426e-05
0.00104665 -3.50643e-05 -3.23031e-08
-3.50643e-05 8.14246e-05 1.1966e-07
-3.23031e-08 1.1966e-07 -1.00395e-05
0.00107144 -2.70538e-05 1.11333e-06
-2.70538e-05 0.000117825 7.30605e-07
1.11333e-06 7.30605e-07 1.91104e-05
0.000884264 -1.22124e-05 2.93783e-07
-1.22124e-05 3.45966e-05 -3.93802e-07
2.93783e-07 -3.93802e-07 -5.15712e-05
0.00108133 -2.89927e-05 -4.43863e-07
-2.89927e-05 8.80421e-05 2.89121e-07
-4.43863e-07 2.89121e-07 3.98344e-06
0.00110991 1.46923e-05 -5.66869e-07
1.46923e-05 0.00011266 -7.57275e-07
-5.66869e-07 -7.57275e-07 3.87933e-05
0.00100431 4.65295e-06 1.42326e-08
4.65295e-06 7.01665e-05 -2.96898e-07
1.42326e-08 -2.96898e-07 -2.50988e-06
0.0010404 6.56944e-06 -2.61073e-07
6.56944e-06 7.34744e-05 -5.12629e-07
-2.61073e-07 -5.12629e-07 -2.86945e-06
0.00102884 -1.66709e-05 2.17345e-07
-1.66709e-05 6.6039e-05 -1.98142e-08
2.17345e-07 -1.98142e-08 -1.39329e-05
0.00100651 -1.60246e-05 2.1453e-08
-1.60246e-05 6.02555e-05 4.31791e-07
2.1453e-08 4.31791e-07 -2.09219e-05
0.00103282 -5.32201e-05 8.0228e-08
-5.32201e-05 8.97281e-05 9.44725e-07
8.0228e-08 9.44725e-07 6.06499e-07
0.000969051 -4.9281e-05 1.06719e-07
-4.9281e-05 5.30681e-05 -7.85596e-07
1.06719e-07 -7.85596e-07 -3.55364e-05
0.00109991 -6.39955e-05 6.74409e-07
-6.39955e-05 0.000131929 8.89991e-07
6.74409e-07 8.89991e-07 2.47593e-05
0.00117575 -3.99662e-05 7.02244e-08
-3.99662e-05 0.000154114 -3.26152e-07
7.02244e-08 -3.26152e-07 6.86215e-05
0.00107958 -5.65697e-05 -1.39572e-07
-5.65697e-05 0.000123037 9.97819e-07
-1.39572e-07 9.97819e-07 3.13815e-05
0.000697928 -5.60047e-05 -3.33826e-07
-5.60047e-05 -8.05428e-05 1.80749e-06
-3.33826e-07 1.80749e-06 -0.000184063
0.00100574 -6.28101e-05 -1.82568e-06
-6.28101e-05 7.3163e-05 1.90601e-07
-1.82568e-06 1.90601e-07 -1.99499e-05
0.00105738 -5.94486e-05 -1.08344e-06
-5.94486e-05 0.000106195 2.25788e-07
-1.08344e-06 2.25788e-07 2.26813e-05
0.000971872 -6.06586e-05 -2.77447e-07
-6.06586e-05 6.04036e-05 -8.09642e-08
-2.77447e-07 -8.09642e-08 -3.42707e-05
0.00101785 -3.75127e-05 -4.22923e-07
-3.75127e-05 7.65864e-05 6.08643e-07
-4.22923e-07 6.08643e-07 3.07265e-06
0.00111121 -5.2596e-05 -2.70087e-07
-5.2596e-05 0.000131182 -3.4985e-07
-2.70087e-07 -3.4985e-07 4.91528e-05
0.000897588 -5.41217e-05 -1.19499e-07
-5.41217e-05 4.33357e-05 -1.41614e-06
-1.19499e-07 -1.41614e-06 -4.12126e-05
0.00112553 -3.81866e-05 3.54879e-07
-3.81866e-05 0.000138092 -6.97208e-07
3.54879e-07 -6.97208e-07 5.83085e-05
0.000942494 -2.0769e-05 5.90177e-08
-2.0769e-05 3.60313e-05 -2.50883e-08
5.90177e-08 -2.50883e-08 -3.34018e-05
0.000964528 1.31047e-06 -4.03394e-07
1.31047e-06 3.85141e-05 1.31382e-06
-4.03394e-07 1.31382e-06 -1.55358e-05
0.000995358 -1.79935e-05 2.48419e-07
-1.79935e-05 6.20759e-05 -4.41033e-07
2.48419e-07 -4.41033e-07 -3.2029e-06
0.000952824 2.7386e-06 -1.04722e-07
2.7386e-06 3.17739e-05 -9.79466e-08
-1.04722e-07 -9.79466e-08 -1.82391e-05
0.000906716 1.41736e-05 -9.56645e-07
1.41736e-05 4.45868e-06 1.74969e-06
-9.56645e-07 1.74969e-06 -2.6672e-05
0.00094446 -5.88398e-06 5.1727e-07
-5.88398e-06 2.82405e-05 -1.01802e-06
5.1727e-07 -1.01802e-06 -1.92887e-05
0.000911569 1.05067e-05 -6.84063e-08
1.05067e-05 3.92445e-06 -3.15093e-09
-6.84063e-08 -3.15093e-09 -2.5384e-05
0.00142115 1.80233e-05 -5.89143e-06
1.80233e-05 0.000262246 3.05609e-06
-5.89143e-06 3.05609e-06 0.000262843
0.000916583 1.30529e-06 9.42652e-07
1.30529e-06 3.7938e-06 -1.60165e-06
9.42652e-07 -1.60165e-06 -2.41152e-05
0.00115478 1.4194e-05 -2.40256e-06
1.4194e-05 0.000120445 5.65717e-07
-2.40256e-06 5.65717e-07 0.000120799
0.00100538 1.42444e-05 -1.7462e-06
1.42444e-05 4.29328e-05 1.51963e-06
-1.7462e-06 1.51963e-06 5.94142e-05
0.000868404 1.0154e-05 9.87863e-07
1.0154e-05 -3.09884e-05 -3.04302e-06
9.87863e-07 -3.04302e-06 -3.09574e-05
0.00160513 1.25332e-05 3.93929e-06
1.25332e-05 0.000347164 -1.15306e-06
3.93929e-06 -1.15306e-06 0.000367422
0.00218124 9.28195e-06 6.47682e-06
9.28195e-06 0.000641855 -3.84979e-06
6.47682e-06 -3.84979e-06 0.000665262
0.00078792 -3.79577e-07 -3.57038e-07
-3.79577e-07 -5.20563e-05 -1.52739e-06
-3.57038e-07 -1.52739e-06 -0.000101696
0.000680872 -6.7376e-06 -3.08249e-07
-6.7376e-06 -0.000118612 -2.2441e-06
-3.08249e-07 -2.2441e-06 -0.000145867
0.00103016 -8.18565e-07 -3.98641e-08
-8.18565e-07 7.08628e-05 4.85398e-08
-3.98641e-08 4.85398e-08 2.62263e-05
0.000881603 -6.82247e-06 -6.08161e-07
-6.82247e-06 -2.74713e-05 -3.09002e-06
-6.08161e-07 -3.09002e-06 -2.52219e-05
0.000807764 -4.40004e-06 3.58674e-08
-4.40004e-06 -5.60963e-05 -1.28518e-08
3.58674e-08 -1.28518e-08 -8.05814e-05
0.000797327 -1.74718e-05 -1.46456e-07
-1.74718e-05 -4.79821e-05 9.80381e-07
-1.46456e-07 9.80381e-07 -9.04775e-05
0.00210194 -4.523e-06 -3.86795e-06
-4.523e-06 0.000599184 -3.90261e-06
-3.86795e-06 -3.90261e-06 0.000623823
0.000874388 -3.29898e-06 -1.36917e-07
-3.29898e-06 -3.30222e-05 -1.60423e-08
-1.36917e-07 -1.60423e-08 -2.95969e-05
0.000932234 -2.67376e-06 -4.66362e-08
-2.67376e-06 5.748e-06 1.69357e-06
-4.66362e-08 1.69357e-06 -1.67391e-05
0.00208582 1.95174e-07 -1.33578e-06
1.95174e-07 0.000590186 2.04117e-10
-1.33578e-06 2.04117e-10 0.000615128
0.000875764 3.98693e-07 -8.08807e-08
3.98693e-07 -3.29849e-05 3.0677e-06
-8.08807e-08 3.0677e-06 -2.91379e-05
0.00209462 4.99898e-06 -3.52596e-06
4.99898e-06 0.000595458 3.85944e-06
-3.52596e-06 3.85944e-06 0.000620164
0.00124461 -1.28577e-05 6.95682e-06
-1.28577e-05 0.000288893 -2.58351e-07
6.95682e-06 -2.58351e-07 0.000212227
0.00121923 3.49455e-05 1.46973e-06
3.49455e-05 0.000359409 -1.67624e-07
1.46973e-06 -1.67624e-07 0.000388309
0.000462704 5.60617e-06 0.00010733
5.60617e-06 -0.000123782 -1.60469e-05
0.00010733 -1.60469e-05 -0.000299405
0.000992226 1.85184e-05 -3.79653e-07
1.85184e-05 5.62682e-05 -7.72858e-07
-3.79653e-07 -7.72858e-07 -8.80294e-06
0.00121834 -3.68977e-06 1.63549e-05
-3.68977e-06 0.000210135 3.39832e-06
1.63549e-05 3.39832e-06 0.000113234
0.00115632 4.65609e-06 -5.81915e-06
4.65609e-06 0.000135438 1.53031e-06
-5.81915e-06 1.53031e-06 9.92735e-05
0.00138104 0.000114161 9.43149e-06
0.000114161 0.000396827 -6.37657e-06
9.43149e-06 -6.37657e-06 0.000606276
0.00180739 7.65281e-05 -4.16148e-05
7.65281e-05 0.000162481 1.61548e-05
-4.16148e-05 1.61548e-05 -5.49886e-05
0.00633731 0.00030264 1.50229e-05
0.00030264 0.00223193 -1.22308e-05
1.50229e-05 -1.22308e-05 0.0013988
-0.00124407 0.000228406 5.64439e-05
0.000228406 -0.000976658 -3.69903e-05
5.64439e-05 -3.69903e-05 -0.000915423
0.00225902 0.000125228 5.39911e-06
0.000125228 0.000303037 -6.26099e-06
5.39911e-06 -6.26099e-06 0.000674625
0.00156314 6.55611e-05 -2.48517e-05
6.55611e-05 -6.99489e-05 7.81211e-06
-2.48517e-05 7.81211e-06 -0.000386506
0.00475363 0.000225505 2.49421e-05
0.000225505 0.0013238 -1.83574e-05
2.49421e-05 -1.83574e-05 0.000466961
0.00152177 0.000271229 -6.78027e-06
0.000271229 -0.00040648 1.2808e-05
-6.78027e-06 1.2808e-05 -0.000266996
0.00199249 5.30302e-05 5.3772e-07
5.30302e-05 0.000223384 1.34356e-06
5.3772e-07 1.34356e-06 0.000425276
0.00343371 -8.53529e-05 1.78778e-05
-8.53529e-05 0.00074947 -3.11057e-05
1.78778e-05 -3.11057e-05 0.000400597
0.00732767 0.00022919 2.52248e-05
0.00022919 0.00203137 -3.36576e-06
2.52248e-05 -3.36576e-06 0.00101621
0.00179741 0.000248048 8.31842e-06
0.000248048 -0.000527878 5.98092e-05
8.31842e-06 5.98092e-05 -0.00048913
0.00287823 3.12295e-05 -1.64277e-06
3.12295e-05 0.000811447 -3.19363e-06
-1.64277e-06 -3.19363e-06 0.00099367
0.000953935 -5.08157e-06 1.03039e-07
-5.08157e-06 4.11457e-05 -8.94989e-07
1.03039e-07 -8.94989e-07 -3.83031e-05
0.00102146 -1.59144e-05 3.00088e-07
-1.59144e-05 8.45042e-05 -4.22085e-08
3.00088e-07 -4.22085e-08 8.88134e-06
0.00108105 3.37871e-05 -4.86239e-07
3.37871e-05 0.000114107 5.61861e-07
-4.86239e-07 5.61861e-07 4.83749e-05
0.000975402 7.76599e-06 -3.2753e-07
7.76599e-06 5.10345e-05 -1.13545e-06
-3.2753e-07 -1.13545e-06 -2.04304e-05
0.00103274 3.00349e-05 -3.27498e-07
3.00349e-05 8.69095e-05 3.80544e-07
-3.27498e-07 3.80544e-07 1.56645e-05
0.00108746 1.51234e-05 3.18782e-07
1.51234e-05 0.000115767 1.47225e-06
3.18782e-07 1.47225e-06 5.08832e-05
0.00113909 3.69642e-05 -3.45278e-07
3.69642e-05 0.000136516 7.69642e-08
-3.45278e-07 7.69642e-08 7.38639e-05
0.00115307 3.77998e-05 6.76228e-07
3.77998e-05 0.00014603 1.40835e-06
6.76228e-07 1.40835e-06 8.59831e-05
0.00103505 -0.000124264 3.30648e-06
-0.000124264 -0.000371926 -3.7046e-06
3.30648e-06 -3.7046e-06 -0.000368666
0.00142236 -0.000128643 -1.14174e-06
-0.000128643 0.00026366 3.55207e-06
-1.14174e-06 3.55207e-06 7.80052e-05
0.000982952 -6.12521e-05 -1.31016e-06
-6.12521e-05 6.61792e-05 1.06806e-06
-1.31016e-06 1.06806e-06 -1.423e-05
0.00145303 -2.36508e-05 3.41078e-07
-2.36508e-05 0.00032483 5.02299e-07
3.41078e-07 5.02299e-07 0.000183553
0.00127092 -2.6734e-05 -6.89801e-07
-2.6734e-05 0.000193304 5.51034e-07
-6.89801e-07 5.51034e-07 9.71861e-05
0.00112793 5.20438e-06 -4.66078e-07
5.20438e-06 0.000133446 -3.20924e-07
-4.66078e-07 -3.20924e-07 4.85935e-05
0.00105251 2.49884e-05 9.46026e-08
2.49884e-05 9.03133e-05 2.70838e-07
9.46026e-08 2.70838e-07 6.24964e-06
0.0016136 -0.000165708 -1.32691e-06
-0.000165708 7.83027e-05 -8.76353e-07
-1.32691e-06 -8.76353e-07 8.37796e-05
0.00105976 1.1156e-05 1.21208e-08
1.1156e-05 8.31588e-05 -7.16313e-07
1.21208e-08 -7.16313e-07 -9.85206e-06
0.00110998 5.73968e-06 -3.13644e-07
5.73968e-06 0.000121039 1.53168e-07
-3.13644e-07 1.53168e-07 1.23907e-05
0.00109407 -3.17229e-05 -2.74806e-07
-3.17229e-05 0.000228081 4.09425e-07
-2.74806e-07 4.09425e-07 -1.073e-05
0.00118294 2.44442e-05 5.29732e-08
2.44442e-05 0.000145754 -4.79441e-07
5.29732e-08 -4.79441e-07 6.4403e-05
0.000512374 -0.000150241 -2.51285e-05
-0.000150241 -0.00013384 -6.57981e-06
-2.51285e-05 -6.57981e-06 -0.000251089
0.00143219 5.11702e-05 -5.42389e-06
5.11702e-05 0.000412145 4.89493e-06
-5.42389e-06 4.89493e-06 0.000222939
0.000893704 1.93381e-05 -6.47303e-07
1.93381e-05 -1.1365e-05 7.44589e-07
-6.47303e-07 7.44589e-07 -9.86195e-05
0.00117314 5.44298e-05 -4.11128e-07
5.44298e-05 0.000142949 -6.2081e-07
-4.11128e-07 -6.2081e-07 5.44708e-05
0.00144064 -7.30723e-07 1.46779e-05
-7.30723e-07 0.000394177 -1.13502e-06
1.46779e-05 -1.13502e-06 0.000280624
0.00160329 -4.9019e-06 -1.77884e-06
-4.9019e-06 0.000540188 2.84842e-07
-1.77884e-06 2.84842e-07 0.000463638
-0.00108042 -7.10918e-06 1.03785e-05
-7.10918e-06 -0.000941626 1.00342e-06
1.03785e-05 1.00342e-06 -0.000978958
0.000547113 4.65597e-05 2.84212e-06
4.65597e-05 -0.000132618 1.54809e-06
2.84212e-06 1.54809e-06 -0.000204
-0.000803139 1.6887e-05 -7.24881e-06
1.6887e-05 -0.000595565 1.85311e-06
-7.24881e-06 1.85311e-06 -0.000767731
0.000565696 1.31335e-05 -1.05364e-05
1.31335e-05 -7.16287e-05 -2.39585e-06
-1.05364e-05 -2.39585e-06 -0.000139953
0.00402696 -0.000327475 4.57195e-05
-0.000327475 0.000695314 1.13244e-05
4.57195e-05 1.13244e-05 -0.000329207
0.00390018 0.000231636 -2.32485e-05
0.000231636 0.00103621 -7.57279e-05
-2.32485e-05 -7.57279e-05 0.000584808
0.00253857 -0.000277574 1.34615e-05
-0.000277574 -0.000260317 0.000103372
1.34615e-05 0.000103372 -0.000107812
0.000821289 1.54001e-05 -1.48006e-05
1.54001e-05 -3.68998e-05 -5.05858e-06
-1.48006e-05 -5.05858e-06 -0.00013632
0.000587284 -7.22221e-06 -7.52359e-07
-7.22221e-06 -0.00042767 -2.3621e-06
-7.52359e-07 -2.3621e-06 -0.000403271
0.00112316 4.69387e-05 -1.56293e-06
4.69387e-05 0.000185686 -5.93193e-07
-1.56293e-06 -5.93193e-07 0.000118405
0.000987477 1.08257e-05 1.84562e-06
1.08257e-05 7.7143e-05 1.39734e-06
1.84562e-06 1.39734e-06 -3.76476e-05
0.00123381 -7.07869e-06 -5.03606e-06
-7.07869e-06 0.000200647 2.3117e-06
-5.03606e-06 2.3117e-06 6.9494e-05
4.83772e-05 6.63962e-05 7.7073e-06
6.63962e-05 -4.87041e-06 -3.56213e-06
7.7073e-06 -3.56213e-06 -0.000112777
0.00186256 3.93958e-05 -7.49815e-07
3.93958e-05 0.000214699 -1.99379e-06
-7.49815e-07 -1.99379e-06 0.00036397
0.00523101 8.91418e-05 2.5198e-05
8.91418e-05 0.000495646 -2.95034e-06
2.5198e-05 -2.95034e-06 9.96962e-05
0.00324324 2.27831e-05 -2.83427e-05
2.27831e-05 0.000196195 -5.01473e-06
-2.83427e-05 -5.01473e-06 0.000407078
0.000892569 6.57257e-05 1.69205e-06
6.57257e-05 0.000209925 -8.2097e-06
1.69205e-06 -8.2097e-06 0.000117008
0.00138868 -4.95781e-06 2.03981e-06
-4.95781e-06 0.000259369 -3.72079e-06
2.03981e-06 -3.72079e-06 0.000124233
0.00110298 -1.80172e-05 -1.70866e-05
-1.80172e-05 0.000131572 -2.55448e-06
-1.70866e-05 -2.55448e-06 2.09299e-05
0.00176743 0.000131983 8.05754e-06
0.000131983 3.39373e-05 -4.8325e-06
8.05754e-06 -4.8325e-06 0.000367849
0.00156411 0.000271054 -7.72977e-06
0.000271054 -0.000547574 -5.85394e-05
-7.72977e-06 -5.85394e-05 -0.000557738
0.0012515 0.000140325 1.0578e-05
0.000140325 0.000516209 -2.92598e-06
1.0578e-05 -2.92598e-06 0.000542056
0.00368615 -0.000152837 5.2464e-05
-0.000152837 0.000170216 2.10398e-05
5.2464e-05 2.10398e-05 -0.000349749
0.00125288 5.86356e-05 -1.24713e-06
5.86356e-05 0.000169668 4.31611e-06
-1.24713e-06 4.31611e-06 7.04183e-05
0.00129873 3.57608e-05 -5.90156e-07
3.57608e-05 0.000214908 1.1467e-06
-5.90156e-07 1.1467e-06 0.000125822
0.000177824 -2.16203e-05 8.26226e-07
-2.16203e-05 -0.000155242 -6.64649e-06
8.26226e-07 -6.64649e-06 -0.000354351
0.00115829 1.88171e-05 -4.61659e-07
1.88171e-05 0.000137004 -5.31342e-07
-4.61659e-07 -5.31342e-07 6.22253e-05
0.00100527 -3.5244e-05 -4.52726e-08
-3.5244e-05 6.04841e-05 5.1562e-07
-4.52726e-08 5.1562e-07 -3.15129e-05
0.000943181 -2.59562e-05 -8.37029e-07
-2.59562e-05 5.04498e-05 3.326e-06
-8.37029e-07 3.326e-06 -5.23993e-05
0.00103698 -3.75039e-05 -1.46449e-07
-3.75039e-05 6.79835e-05 1.18449e-07
-1.46449e-07 1.18449e-07 -1.67607e-05
0.000840787 -2.3221e-05 -5.12312e-07
-2.3221e-05 6.48695e-06 1.29178e-06
-5.12312e-07 1.29178e-06 -7.95156e-05
0.000887608 -4.27869e-05 1.34833e-06
-4.27869e-05 7.62875e-05 -1.31072e-07
1.34833e-06 -1.31072e-07 -5.12884e-05
0.0010091 -2.12219e-05 1.49889e-07
-2.12219e-05 5.60633e-05 -2.94574e-07
1.49889e-07 -2.94574e-07 -2.41564e-05
0.00101109 -4.60141e-06 -7.41289e-08
-4.60141e-06 6.08636e-05 1.21615e-07
-7.41289e-08 1.21615e-07 -1.93351e-05
0.00118776 -5.44261e-05 6.46914e-08
-5.44261e-05 0.000163183 3.66104e-07
6.46914e-08 3.66104e-07 7.19903e-05
0.00102844 -6.42317e-05 4.09495e-07
-6.42317e-05 0.000125179 9.97921e-07
4.09495e-07 9.97921e-07 2.25746e-06
0.000941979 -4.84808e-05 -5.0086e-07
-4.84808e-05 4.44173e-05 -5.98297e-07
-5.0086e-07 -5.98297e-07 -4.27195e-05
0.000840232 -5.55541e-05 6.97663e-07
-5.55541e-05 5.38352e-06 -2.45517e-07
6.97663e-07 -2.45517e-07 -9.88598e-05
0.00110806 -7.151e-05 7.89805e-07
-7.151e-05 0.000136071 7.49735e-07
7.89805e-07 7.49735e-07 1.66196e-05
0.00117661 -7.45131e-05 -2.14773e-06
-7.45131e-05 0.000126169 1.86825e-06
-2.14773e-06 1.86825e-06 2.16665e-05
0.0013273 -6.38171e-05 1.00004e-08
-6.38171e-05 0.000242552 -2.07203e-07
1.00004e-08 -2.07203e-07 0.000150478
0.000881062 -6.17269e-05 -3.55172e-07
-6.17269e-05 8.4124e-06 4.32518e-08
-3.55172e-07 4.32518e-08 -9.70188e-05
0.0012911 -7.21553e-05 1.34475e-07
-7.21553e-05 0.000209624 -2.91983e-07
1.34475e-07 -2.91983e-07 0.000122168
0.00083338 -5.25816e-05 -9.76377e-07
-5.25816e-05 9.28393e-07 -7.11979e-08
-9.76377e-07 -7.11979e-08 -8.43734e-05
0.00100505 -6.25145e-05 3.92167e-07
-6.25145e-05 7.22313e-05 4.76771e-08
3.92167e-07 4.76771e-08 -1.9331e-05
0.00103692 -4.49849e-05 -9.69784e-07
-4.49849e-05 8.9968e-05 2.65804e-07
-9.69784e-07 2.65804e-07 1.49511e-05
0.00108709 -6.00591e-05 -1.00423e-06
-6.00591e-05 0.000119708 6.30825e-07
-1.00423e-06 6.30825e-07 3.61104e-05
0.000848271 -5.65741e-05 -1.19242e-07
-5.65741e-05 1.96514e-06 -7.7229e-07
-1.19242e-07 -7.7229e-07 -9.2487e-05
0.000992323 -5.0518e-06 -8.07575e-07
-5.0518e-06 5.52984e-05 1.29171e-06
-8.07575e-07 1.29171e-06 -3.42606e-06
0.000978769 -3.58142e-05 2.66168e-07
-3.58142e-05 5.57807e-05 1.5033e-07
2.66168e-07 1.5033e-07 -1.76848e-05
0.00109575 -5.34162e-05 1.42507e-06
-5.34162e-05 0.000123458 -5.57495e-07
1.42507e-06 -5.57495e-07 4.07447e-05
0.00100895 -2.18697e-05 4.23368e-07
-2.18697e-05 6.99006e-05 -8.15567e-07
4.23368e-07 -8.15567e-07 1.37009e-06
0.000961136 1.28936e-06 1.18749e-07
1.28936e-06 3.66536e-05 -6.45617e-08
1.18749e-07 -6.45617e-08 -1.73746e-05
0.000906197 1.58892e-05 -1.07601e-06
1.58892e-05 8.07237e-06 1.92331e-06
-1.07601e-06 1.92331e-06 -2.58817e-05
0.000950793 -9.53804e-07 3.47708e-07
-9.53804e-07 3.12206e-05 -1.18162e-06
3.47708e-07 -1.18162e-06 -1.89545e-05
0.000903633 1.51749e-05 4.87347e-08
1.51749e-05 2.91438e-06 -2.55602e-08
4.87347e-08 -2.55602e-08 -2.83174e-05
0.000824839 1.86361e-05 -1.8935e-06
1.86361e-05 -3.93924e-05 3.21162e-06
-1.8935e-06 3.21162e-06 -4.33403e-05
0.000909863 8.90323e-06 8.32772e-07
8.90323e-06 2.71109e-06 -1.70396e-06
8.32772e-07 -1.70396e-06 -2.65605e-05
0.000844751 1.60906e-05 1.36043e-07
1.60906e-05 -3.44836e-05 7.31302e-09
1.36043e-07 7.31302e-09 -3.69143e-05
0.00217832 2.51059e-05 -4.39613e-06
2.51059e-05 0.000651701 1.56251e-06
-4.39613e-06 1.56251e-06 0.000672668
0.000865355 1.32794e-05 1.33695e-06
1.32794e-05 -2.88479e-05 -3.08194e-06
1.33695e-06 -3.08194e-06 -2.98861e-05
0.00161227 1.66497e-05 4.89015e-06
1.66497e-05 0.000354838 -1.13186e-06
4.89015e-06 -1.13186e-06 0.000374207
0.00219216 1.39488e-05 9.11242e-06
1.39488e-05 0.000650468 -3.83235e-06
9.11242e-06 -3.83235e-06 0.000673253
0.000788129 -7.41827e-06 -1.45149e-07
-7.41827e-06 -5.47166e-05 -1.61227e-06
-1.45149e-07 -1.61227e-06 -0.000106206
0.000657528 -8.60385e-06 -5.39759e-07
-8.60385e-06 -0.000128024 -2.33761e-06
-5.39759e-07 -2.33761e-06 -0.000158404
0.000924037 -1.50284e-06 -1.45117e-07
-1.50284e-06 1.6726e-05 -5.00531e-07
-1.45117e-07 -5.00531e-07 -3.22116e-05
0.000880699 -1.02736e-05 -8.36589e-07
-1.02736e-05 -2.49466e-05 -3.166e-06
-8.36589e-07 -3.166e-06 -2.43825e-05
0.000675595 -6.92444e-06 -6.92958e-08
-6.92444e-06 -0.000121079 -6.00869e-07
-6.92958e-08 -6.00869e-07 -0.000148693
0.00104069 2.49211e-07 3.73232e-08
2.49211e-07 7.66361e-05 1.07627e-06
3.73232e-08 1.07627e-06 3.15677e-05
0.00212962 -9.13544e-06 -6.66316e-06
-9.13544e-06 0.000615174 -3.92826e-06
-6.66316e-06 -3.92826e-06 0.000639179
0.000871381 -6.74147e-06 -1.03407e-07
-6.74147e-06 -3.26889e-05 -1.80691e-08
-1.03407e-07 -1.80691e-08 -3.03555e-05
0.000680711 -4.79901e-06 9.15073e-08
-4.79901e-06 -0.000120226 1.60785e-06
9.15073e-08 1.60785e-06 -0.000145588
0.00209898 -4.38651e-06 -1.39726e-06
-4.38651e-06 0.000597492 8.89091e-09
-1.39726e-06 8.89091e-09 0.000622207
0.000868748 -3.19626e-06 1.36065e-07
-3.19626e-06 -3.59932e-05 3.07784e-06
1.36065e-07 3.07784e-06 -3.2507e-05
0.00208714 3.67017e-07 -6.10502e-07
3.67017e-07 0.00059085 3.86868e-06
-6.10502e-07 3.86868e-06 0.000615789
0.0011625 -1.16756e-05 1.66789e-05
-1.16756e-05 0.000207774 -7.31096e-07
1.66789e-05 -7.31096e-07 9.65386e-05
0.00125086 -1.3624e-05 -5.81288e-06
-1.3624e-05 0.000292567 6.25994e-07
-5.81288e-06 6.25994e-07 0.000217714
0.00110297 1.60167e-05 8.28018e-06
1.60167e-05 0.000305537 2.66953e-06
8.28018e-06 2.66953e-06 0.000304681
0.00102733 2.45923e-05 -2.90309e-09
2.45923e-05 7.37209e-05 7.42893e-08
-2.90309e-09 7.42893e-08 9.37183e-06
0.00093387 1.16928e-05 -2.21351e-07
1.16928e-05 2.05819e-05 -7.192e-07
-2.21351e-07 -7.192e-07 -4.47718e-05
0.00112282 3.34954e-05 -2.71321e-07
3.34954e-05 0.000125375 -9.53072e-08
-2.71321e-07 -9.53072e-08 5.31253e-05
0.00148425 1.21014e-05 4.84226e-06
1.21014e-05 0.000345593 -5.31721e-07
4.84226e-06 -5.31721e-07 0.000234615
0.00114937 -6.28437e-06 2.07425e-06
-6.28437e-06 0.000188758 -8.49851e-07
2.07425e-06 -8.49851e-07 9.03627e-05
0.00125348 -3.79639e-07 -1.28513e-05
-3.79639e-07 0.000227109 5.18309e-07
-1.28513e-05 5.18309e-07 0.000171209
0.000712557 5.93446e-05 -3.51025e-05
5.93446e-05 -0.000403158 1.06492e-05
-3.51025e-05 1.06492e-05 -0.000561783
0.00251136 0.00019814 1.20008e-05
0.00019814 0.000469531 -1.88308e-05
1.20008e-05 -1.88308e-05 -0.000494225
0.00370675 0.000348307 4.0299e-05
0.000348307 0.000778485 -2.67844e-05
4.0299e-05 -2.67844e-05 0.000872018
0.000598847 3.56672e-05 2.23313e-06
3.56672e-05 -0.000615104 -2.24099e-06
2.23313e-06 -2.24099e-06 -0.000431455
0.00096962 -4.51735e-05 -1.02353e-05
-4.51735e-05 -0.000223229 8.42963e-06
-1.02353e-05 8.42963e-06 -0.000318131
0.00507427 0.000103806 3.39785e-05
0.000103806 0.00107849 -4.10504e-05
3.39785e-05 -4.10504e-05 0.000125267
0.00109813 0.000125757 -2.68196e-06
0.000125757 -0.000657628 1.26435e-05
-2.68196e-06 1.26435e-05 -0.000431196
0.00137218 2.05825e-05 1.04624e-06
2.05825e-05 -8.80463e-05 5.16512e-06
1.04624e-06 5.16512e-06 5.66868e-05
0.00315883 -0.000247848 1.71241e-05
-0.000247848 0.000572149 -5.55095e-05
1.71241e-05 -5.55095e-05 0.000460443
0.00814972 0.000138179 2.86894e-05
0.000138179 0.00221246 -3.16071e-05
2.86894e-05 -3.16071e-05 0.00157481
0.000384093 7.86197e-07 1.56993e-06
7.86197e-07 -0.00098864 5.98086e-05
1.56993e-06 5.98086e-05 -0.000736205
0.00041196 -1.72643e-05 -8.3968e-07
-1.72643e-05 -0.00064274 4.66012e-06
-8.3968e-07 4.66012e-06 -0.000481157
0.00106123 4.95202e-06 -1.01502e-07
4.95202e-06 8.88791e-05 -2.96013e-07
-1.01502e-07 -2.96013e-07 9.39971e-06
0.000972048 -4.5284e-06 -1.13349e-07
-4.5284e-06 5.19704e-05 -2.0408e-07
-1.13349e-07 -2.0408e-07 -2.79517e-05
0.00102573 -2.33485e-05 -2.19708e-07
-2.33485e-05 8.62691e-05 7.93277e-07
-2.19708e-07 7.93277e-07 1.03845e-05
0.000990165 1.84057e-05 -4.04946e-07
1.84057e-05 5.8677e-05 -6.35562e-07
-4.04946e-07 -6.35562e-07 -1.30976e-05
0.00111564 5.57182e-05 1.13647e-06
5.57182e-05 0.000129275 1.07079e-06
1.13647e-06 1.07079e-06 5.89141e-05
0.00118668 3.71451e-05 1.34569e-07
3.71451e-05 0.000160298 8.41174e-07
1.34569e-07 8.41174e-07 9.78814e-05
0.00260038 -0.000191002 5.0805e-06
-0.000191002 0.000555185 7.54969e-07
5.0805e-06 7.54969e-07 0.00055953
0.000591889 -1.77668e-05 1.19131e-06
-1.77668e-05 -1.10513e-05 4.10011e-06
1.19131e-06 4.10011e-06 -0.000262079
0.00111666 3.11389e-05 4.87122e-07
3.11389e-05 0.000123349 8.05927e-07
4.87122e-07 8.05927e-07 3.90017e-05
0.00123586 -2.2294e-05 9.23111e-07
-2.2294e-05 0.000189539 -5.71427e-07
9.23111e-07 -5.71427e-07 7.4715e-05
0.0011288 1.10741e-06 1.46818e-07
1.10741e-06 0.00012079 -1.93321e-07
1.46818e-07 -1.93321e-07 2.91624e-05
0.00108255 1.56749e-05 4.52526e-07
1.56749e-05 9.38212e-05 9.43885e-08
4.52526e-07 9.43885e-08 1.30525e-05
0.00110348 3.13224e-05 2.74351e-07
3.13224e-05 0.000106096 -2.65729e-07
2.74351e-07 -2.65729e-07 1.82463e-05
0.000915954 -0.000142641 -2.70097e-06
-0.000142641 1.46701e-05 2.81259e-06
-2.70097e-06 2.81259e-06 -6.33775e-05
0.00119643 -4.39875e-06 6.17741e-07
-4.39875e-06 0.000136762 -1.18988e-06
6.17741e-07 -1.18988e-06 5.09576e-05
0.0012717 4.88172e-05 -1.58709e-06
4.88172e-05 0.00036853 -9.19715e-07
-1.58709e-06 -9.19715e-07 0.000188131
0.000941751 -9.54674e-07 4.81214e-07
-9.54674e-07 2.23212e-05 -1.6725e-06
4.81214e-07 -1.6725e-06 -5.93492e-05
-0.000313994 -3.00229e-05 2.52208e-06
-3.00229e-05 -0.000200546 -7.82069e-06
2.52208e-06 -7.82069e-06 -0.000438445
0.000246132 1.60116e-05 -2.73322e-06
1.60116e-05 -0.000226135 1.23465e-05
-2.73322e-06 1.23465e-05 -0.00027121
0.00105174 -1.01566e-05 6.82432e-08
-1.01566e-05 6.9517e-05 -7.37879e-07
6.82432e-08 -7.37879e-07 -1.79524e-05
0.00136419 -3.436e-06 5.26448e-07
-3.436e-06 0.000275342 2.60955e-07
5.26448e-07 2.60955e-07 0.000140892
0.00110072 -1.75107e-06 5.25078e-06
-1.75107e-06 0.000172645 7.86255e-08
5.25078e-06 7.86255e-08 5.32542e-05
0.0012815 -4.67534e-06 -1.43953e-05
-4.67534e-06 0.000330932 1.33899e-06
-1.43953e-05 1.33899e-06 0.000249929
0.00133063 6.61898e-05 3.84223e-06
6.61898e-05 0.000285321 4.13991e-06
3.84223e-06 4.13991e-06 0.000212237
-4.11095e-05 7.97058e-05 9.18391e-06
7.97058e-05 -0.000151356 -1.41592e-05
9.18391e-06 -1.41592e-05 -0.000251816
0.000925521 8.67534e-06 -1.17919e-05
8.67534e-06 3.94154e-05 9.78274e-07
-1.17919e-05 9.78274e-07 -7.62852e-05
0.00345726 -1.28303e-05 -1.80387e-05
-1.28303e-05 0.000202016 -1.01847e-05
-1.80387e-05 -1.01847e-05 -0.000108119
-0.000746457 2.80503e-05 1.74623e-06
2.80503e-05 -0.00163558 6.98501e-05
1.74623e-06 6.98501e-05 -0.00138966
0.000838252 -7.21742e-06 -3.92642e-06
-7.21742e-06 -2.97558e-05 -2.50545e-06
-3.92642e-06 -2.50545e-06 -0.000169588
0.000663117 2.20252e-05 -1.33284e-06
2.20252e-05 -0.000497246 -1.05544e-06
-1.33284e-06 -1.05544e-06 -0.000370749
0.000599651 4.24777e-05 -1.5368e-06
4.24777e-05 4.05296e-05 -1.36684e-07
-1.5368e-06 -1.36684e-07 -4.96742e-05
0.00123848 -4.52698e-06 -8.21437e-07
-4.52698e-06 0.000174093 3.96475e-08
-8.21437e-07 3.96475e-08 3.82756e-05
0.00116957 -2.1752e-05 -2.23658e-06
-2.1752e-05 0.000198358 1.48089e-06
-2.23658e-06 1.48089e-06 8.60443e-05
0.00141904 0.000186681 3.36696e-05
0.000186681 0.000238777 1.63327e-06
3.36696e-05 1.63327e-06 0.00015702
0.00164594 0.000120816 1.94816e-06
0.000120816 -2.49526e-05 -2.65549e-06
1.94816e-06 -2.65549e-06 0.000306868
0.000830922 0.000148539 3.84154e-06
0.000148539 -0.000709984 -1.3779e-05
3.84154e-06 -1.3779e-05 -0.000528924
0.00670388 3.64528e-06 8.4147e-06
3.64528e-06 0.00162976 -1.82676e-05
8.4147e-06 -1.82676e-05 0.00119763
-0.000458874 1.25594e-05 -2.44355e-05
1.25594e-05 -2.79263e-05 -1.3121e-05
-2.44355e-05 -1.3121e-05 -0.000227232
0.00118041 -1.76987e-05 -1.62341e-05
-1.76987e-05 0.000221027 1.20585e-06
-1.62341e-05 1.20585e-06 0.0001
0.000955378 1.4959e-06 -3.70589e-06
1.4959e-06 -1.03216e-05 -3.4796e-06
-3.70589e-06 -3.4796e-06 -4.69033e-05
0.00130891 0.000200271 1.02819e-05
0.000200271 0.000138058 -3.19702e-06
1.02819e-05 -3.19702e-06 0.000537634
-0.00297111 0.000252119 4.74875e-05
0.000252119 -0.00217779 -3.82559e-05
4.74875e-05 -3.82559e-05 -0.00214576
0.007717 0.000190759 4.23074e-06
0.000190759 0.00205885 -1.69322e-05
4.23074e-06 -1.69322e-05 0.00115596
0.00135562 -3.25236e-05 -2.65245e-05
-3.25236e-05 0.000196972 9.82668e-05
-2.65245e-05 9.82668e-05 -3.33901e-05
0.000940882 1.82645e-05 2.17088e-06
1.82645e-05 3.31801e-05 5.51113e-06
2.17088e-06 5.51113e-06 -5.14385e-05
0.000324512 -1.62321e-05 1.20296e-06
-1.62321e-05 -8.4064e-05 -1.34265e-06
1.20296e-06 -1.34265e-06 -0.000289677
0.000604393 -4.07891e-05 2.79842e-06
-4.07891e-05 0.000139649 -3.22064e-06
2.79842e-06 -3.22064e-06 -0.000121596
0.000981074 -4.19417e-05 1.94908e-07
-4.19417e-05 4.13495e-05 -5.76893e-07
1.94908e-07 -5.76893e-07 -4.37515e-05
0.000733584 -3.07569e-05 -5.69761e-07
-3.07569e-05 -5.27739e-05 3.2511e-06
-5.69761e-07 3.2511e-06 -0.000138859
0.000786485 -2.5928e-05 -1.68565e-07
-2.5928e-05 2.71207e-05 5.76014e-07
-1.68565e-07 5.76014e-07 -9.26311e-05
0.000866193 -7.62571e-05 2.14081e-06
-7.62571e-05 0.000116649 -1.2563e-06
2.14081e-06 -1.2563e-06 -8.77563e-05
0.00134781 -5.7964e-05 -3.64451e-07
-5.7964e-05 0.000238653 5.77913e-08
-3.64451e-07 5.77913e-08 0.000145805
0.00130616 -7.57391e-05 6.86533e-08
-7.57391e-05 0.000252419 3.45214e-07
6.86533e-08 3.45214e-07 0.000126901
0.00109363 -7.82844e-05 1.96267e-06
-7.82844e-05 0.00015442 1.66925e-06
1.96267e-06 1.66925e-06 -7.28873e-06
0.000592237 -4.7584e-05 -2.1066e-07
-4.7584e-05 -0.000115592 -1.2103e-06
-2.1066e-07 -1.2103e-06 -0.000216643
0.00108787 -7.05574e-05 -3.8084e-07
-7.05574e-05 0.000123941 -6.51555e-08
-3.8084e-07 -6.51555e-08 2.38893e-06
0.0016779 -9.74145e-05 -8.03016e-07
-9.74145e-05 0.000378079 1.76706e-06
-8.03016e-07 1.76706e-06 0.000250442
0.00140113 -8.66904e-05 -2.0986e-06
-8.66904e-05 0.00021712 2.69708e-06
-2.0986e-06 2.69708e-06 0.000103508
0.00082154 -6.1254e-05 -4.78106e-07
-6.1254e-05 -3.7943e-05 1.63939e-06
-4.78106e-07 1.63939e-06 -0.000129264
0.00112059 -7.33604e-05 -6.80592e-07
-7.33604e-05 9.97404e-05 5.83121e-07
-6.80592e-07 5.83121e-07 -6.45503e-06
0.00105167 -6.70982e-05 -2.85131e-07
-6.70982e-05 9.07702e-05 -7.14228e-07
-2.85131e-07 -7.14228e-07 -1.65103e-05
0.00122464 -6.79116e-05 5.0648e-07
-6.79116e-05 0.000178098 -7.64826e-07
5.0648e-07 -7.64826e-07 9.58403e-05
0.00111284 -6.64136e-05 1.30044e-06
-6.64136e-05 0.000122562 -6.2921e-07
1.30044e-06 -6.2921e-07 3.71369e-05
0.000882609 -4.3215e-05 -4.9801e-07
-4.3215e-05 2.02454e-05 5.98473e-07
-4.9801e-07 5.98473e-07 -5.8189e-05
0.000948657 -5.60272e-05 2.52935e-07
-5.60272e-05 5.72524e-05 -1.1601e-07
2.52935e-07 -1.1601e-07 -2.73052e-05
0.00101733 -6.25917e-05 2.95193e-06
-6.25917e-05 7.76278e-05 -1.26418e-06
2.95193e-06 -1.26418e-06 -1.23972e-05
0.000972978 -2.82209e-06 -1.16498e-06
-2.82209e-06 4.93102e-05 1.11866e-06
-1.16498e-06 1.11866e-06 -1.33863e-05
0.00105453 -4.52805e-05 -2.31796e-07
-4.52805e-05 9.76784e-05 -2.49792e-08
-2.31796e-07 -2.49792e-08 2.28537e-05
0.00111019 -6.11458e-05 3.30271e-07
-6.11458e-05 0.000130094 8.76618e-09
3.30271e-07 8.76618e-09 4.63459e-05
0.000898389 1.40236e-05 -1.43059e-06
1.40236e-05 8.18332e-06 2.10654e-06
-1.43059e-06 2.10654e-06 -2.94674e-05
0.000975464 -5.74644e-06 1.56766e-07
-5.74644e-06 4.61186e-05 4.20037e-08
1.56766e-07 4.20037e-08 -1.22448e-05
0.000949026 -3.49382e-05 1.13021e-06
-3.49382e-05 3.96615e-05 -3.32522e-07
1.13021e-06 -3.32522e-07 -3.38124e-05
0.000960374 7.18389e-07 7.069e-07
7.18389e-07 3.61337e-05 -1.28864e-06
7.069e-07 -1.28864e-06 -1.78598e-05
0.0008976 1.7708e-05 1.80281e-07
1.7708e-05 3.98898e-06 -4.02903e-08
1.80281e-07 -4.02903e-08 -3.01164e-05
0.000811167 2.12224e-05 -2.26878e-06
2.12224e-05 -4.02826e-05 3.2827e-06
-2.26878e-06 3.2827e-06 -4.63361e-05
0.000900547 1.62874e-05 8.07296e-07
1.62874e-05 1.32354e-06 -1.89956e-06
8.07296e-07 -1.89956e-06 -2.99921e-05
0.000840602 1.88506e-05 9.93886e-08
1.88506e-05 -3.15873e-05 -1.2972e-08
9.93886e-08 -1.2972e-08 -3.56012e-05
0.00225459 2.70669e-05 -1.50413e-05
2.70669e-05 0.000695444 3.73466e-06
-1.50413e-05 3.73466e-06 0.00071531
0.000862354 1.62155e-05 1.73205e-06
1.62155e-05 -2.59171e-05 -3.13765e-06
1.73205e-06 -3.13765e-06 -2.83353e-05
0.00162134 2.07202e-05 5.80183e-06
2.07202e-05 0.00036487 -1.09513e-06
5.80183e-06 -1.09513e-06 0.000382996
0.00220734 1.84724e-05 1.16158e-05
1.84724e-05 0.000662228 -3.81983e-06
1.16158e-05 -3.81983e-06 0.00068415
0.000946956 1.8387e-05 -6.81905e-07
1.8387e-05 2.64353e-05 -1.19591e-06
-6.81905e-07 -1.19591e-06 -2.69332e-05
0.000899792 -1.11268e-05 -6.93286e-07
-1.11268e-05 -3.10181e-06 -1.85659e-06
-6.93286e-07 -1.85659e-06 -3.44134e-05
0.000863492 9.40591e-06 -5.62291e-07
9.40591e-06 -1.45607e-05 -5.43565e-07
-5.62291e-07 -5.43565e-07 -6.62469e-05
0.000873894 -1.35309e-05 -1.06638e-06
-1.35309e-05 -2.42517e-05 -3.26752e-06
-1.06638e-06 -3.26752e-06 -2.58461e-05
0.000789649 -8.82086e-06 -2.25999e-07
-8.82086e-06 -6.07051e-05 -5.96491e-07
-2.25999e-07 -5.96491e-07 -9.05217e-05
0.00106211 -2.47399e-06 1.29566e-07
-2.47399e-06 8.6554e-05 5.56678e-07
1.29566e-07 5.56678e-07 3.8316e-05
0.00217534 -1.38093e-05 -9.25184e-06
-1.38093e-05 0.000641502 -3.96158e-06
-9.25184e-06 -3.96158e-06 0.000664514
0.000865394 -1.01541e-05 -9.87177e-08
-1.01541e-05 -3.26771e-05 -2.11612e-08
-9.87177e-08 -2.11612e-08 -3.20048e-05
0.000672129 -7.06423e-06 8.85278e-08
-7.06423e-06 -0.000122678 1.12271e-06
8.85278e-08 1.12271e-06 -0.000150647
0.00212938 -8.99337e-06 -1.24375e-06
-8.99337e-06 0.000614767 2.02653e-08
-1.24375e-06 2.02653e-08 0.000638871
0.000859933 -6.65638e-06 4.53738e-07
-6.65638e-06 -3.85237e-05 3.0929e-06
4.53738e-07 3.0929e-06 -3.61047e-05
0.00209629 -4.24403e-06 2.37143e-06
-4.24403e-06 0.000595917 3.86148e-06
2.37143e-06 3.86148e-06 0.000620707
0.00130213 9.32961e-07 -6.03774e-07
9.32961e-07 0.000214043 2.7335e-06
-6.03774e-07 2.7335e-06 8.25981e-05
0.00126172 -1.07564e-05 4.06607e-06
-1.07564e-05 0.000266555 -7.33138e-07
4.06607e-06 -7.33138e-07 0.000155951
0.00129189 -1.46125e-05 -1.82195e-05
-1.46125e-05 0.000316891 3.79617e-06
-1.82195e-05 3.79617e-06 0.000244767
0.000931739 1.95362e-06 -1.39914e-07
1.95362e-06 1.71626e-05 -9.10274e-07
-1.39914e-07 -9.10274e-07 -4.91416e-05
0.00110845 2.29814e-05 -1.95177e-07
2.29814e-05 0.000110825 -6.00775e-07
-1.95177e-07 -6.00775e-07 3.69354e-05
0.00106373 2.9088e-05 1.11685e-06
2.9088e-05 9.21667e-05 8.26593e-07
1.11685e-06 8.26593e-07 2.83804e-05
0.000919952 8.69371e-06 -1.71755e-08
8.69371e-06 1.34569e-05 1.97112e-08
-1.71755e-08 1.97112e-08 -5.17949e-05
0.00105157 1.98953e-05 1.72339e-07
1.98953e-05 8.68379e-05 3.52501e-07
1.72339e-07 3.52501e-07 1.46858e-05
0.00102988 2.44073e-05 -4.21928e-07
2.44073e-05 7.37932e-05 -5.04737e-07
-4.21928e-07 -5.04737e-07 8.57491e-07
0.00103459 5.52996e-05 -1.82513e-07
5.52996e-05 8.16534e-05 8.11396e-08
-1.82513e-07 8.11396e-08 2.038e-06
0.00105558 2.7455e-05 -9.23332e-06
2.7455e-05 0.000132172 -9.11886e-07
-9.23332e-06 -9.11886e-07 2.84892e-05
0.0011328 1.13072e-05 3.09895e-06
1.13072e-05 0.000145876 -5.90179e-06
3.09895e-06 -5.90179e-06 2.42208e-05
0.0010677 -9.25521e-06 -1.196e-05
-9.25521e-06 0.000157889 3.59395e-06
-1.196e-05 3.59395e-06 5.86968e-05
0.000408287 1.14156e-05 5.84041e-06
1.14156e-05 -0.000621501 4.55905e-06
5.84041e-06 4.55905e-06 -0.000535793
0.000991423 -4.8925e-05 -6.14694e-05
-4.8925e-05 -0.000621531 5.61896e-05
-6.14694e-05 5.61896e-05 -0.000775035
0.00204832 7.87459e-05 5.21698e-05
7.87459e-05 -1.02008e-05 -5.35004e-05
5.21698e-05 -5.35004e-05 -0.000874825
0.00464064 0.000223382 2.02542e-05
0.000223382 0.000810028 -2.43428e-05
2.02542e-05 -2.43428e-05 0.000978129
0.00159948 -0.000207534 -2.28948e-05
-0.000207534 -0.00022681 1.96797e-05
-2.28948e-05 1.96797e-05 -0.000477332
0.00311976 -6.98173e-05 2.45903e-05
-6.98173e-05 -0.000157535 -4.84138e-05
2.45903e-05 -4.84138e-05 -0.000936613
0.00343835 -1.89048e-05 -9.07029e-06
-1.89048e-05 0.000222677 3.62866e-06
-9.07029e-06 3.62866e-06 0.000377934
0.00207626 -2.84886e-05 2.19383e-06
-2.84886e-05 0.000268429 2.10327e-06
2.19383e-06 2.10327e-06 0.000500133
0.00187717 -0.000163276 2.99405e-05
-0.000163276 0.000266463 -2.31875e-05
2.99405e-05 -2.31875e-05 0.000146715
0.00335849 -0.000273691 -1.58839e-05
-0.000273691 -0.000540468 -0.000105415
-1.58839e-05 -0.000105415 -0.000814038
9.14409e-05 -0.000102118 2.83791e-05
-0.000102118 -0.00115221 4.36184e-05
2.83791e-05 4.36184e-05 -0.00101699
-0.00049308 -8.68081e-05 -5.82759e-07
-8.68081e-05 -0.00126152 3.50117e-06
-5.82759e-07 3.50117e-06 -0.000960812
0.00113093 -9.64265e-07 -4.46824e-07
-9.64265e-07 0.000116033 -2.53725e-07
-4.46824e-07 -2.53725e-07 3.68001e-05
0.00100957 8.19691e-06 7.98181e-08
8.19691e-06 6.33574e-05 -1.88073e-07
7.98181e-08 -1.88073e-07 -1.66245e-05
0.000967164 -5.58735e-07 -1.22759e-08
-5.58735e-07 5.14927e-05 2.10826e-07
-1.22759e-08 2.10826e-07 -2.90861e-05
0.00101354 2.1994e-05 7.80376e-08
2.1994e-05 7.02776e-05 -1.9528e-07
7.80376e-08 -1.9528e-07 -1.59572e-06
0.00220885 -0.000151162 1.1865e-05
-0.000151162 0.000608771 5.48625e-06
1.1865e-05 5.48625e-06 0.00056951
0.000975331 4.07018e-05 3.0001e-06
4.07018e-05 0.000272972 -1.54691e-07
3.0001e-06 -1.54691e-07 9.54373e-05
0.000964138 1.03649e-05 9.08322e-08
1.03649e-05 3.2354e-05 6.66145e-07
9.08322e-08 6.66145e-07 -4.79326e-05
0.0010109 2.2724e-05 1.49025e-07
2.2724e-05 5.88082e-05 6.557e-07
1.49025e-07 6.557e-07 -2.8958e-05
0.00153091 -1.20532e-06 -1.65302e-07
-1.20532e-06 0.000302951 -1.47717e-06
-1.65302e-07 -1.47717e-06 0.00021772
0.000978944 1.67599e-05 -6.69356e-07
1.67599e-05 4.11354e-05 1.61385e-08
-6.69356e-07 1.61385e-08 -4.09727e-05
0.000993455 -1.74432e-06 -1.22658e-06
-1.74432e-06 4.06217e-05 6.34246e-07
-1.22658e-06 6.34246e-07 -4.84182e-05
0.000518992 -4.64856e-05 9.57273e-06
-4.64856e-05 0.000205973 -1.85764e-06
9.57273e-06 -1.85764e-06 1.50712e-05
0.00083212 5.60364e-06 2.91237e-06
5.60364e-06 6.2752e-05 5.55272e-06
2.91237e-06 5.55272e-06 2.21186e-05
0.00116829 -3.3176e-07 1.41402e-07
-3.3176e-07 0.000139237 -2.69128e-06
1.41402e-07 -2.69128e-06 5.00754e-05
-1.96129e-05 1.90156e-05 5.36845e-06
1.90156e-05 0.00022216 -2.15555e-06
5.36845e-06 -2.15555e-06 -0.000110402
0.00165806 -3.64115e-05 8.13732e-06
-3.64115e-05 0.000473413 2.69101e-06
8.13732e-06 2.69101e-06 0.000366192
0.00151706 -2.36093e-06 -1.48102e-05
-2.36093e-06 0.000449228 1.27375e-06
-1.48102e-05 1.27375e-06 0.000325071
0.00114387 -3.53041e-06 3.43926e-07
-3.53041e-06 0.000149754 2.4496e-09
3.43926e-07 2.4496e-09 1.41563e-05
0.000749943 -2.71497e-06 -4.89224e-06
-2.71497e-06 -5.5972e-05 -4.98679e-07
-4.89224e-06 -4.98679e-07 -0.000181279
0.000573931 2.36555e-05 -1.65339e-06
2.36555e-05 -6.31654e-06 6.55306e-06
-1.65339e-06 6.55306e-06 -9.29774e-05
0.00137413 0.000100727 -4.94609e-05
0.000100727 0.000520795 5.63557e-06
-4.94609e-05 5.63557e-06 0.000576519
0.00108943 -4.01614e-06 3.65312e-08
-4.01614e-06 8.99501e-05 4.10892e-06
3.65312e-08 4.10892e-06 -4.67441e-05
0.0035386 0.000182312 2.81922e-05
0.000182312 0.000107151 -8.63942e-05
2.81922e-05 -8.63942e-05 -0.000464857
0.00486482 0.000252717 -1.73466e-05
0.000252717 0.00099241 2.02122e-05
-1.73466e-05 2.02122e-05 0.00112498
0.00122279 -2.5795e-05 1.22425e-05
-2.5795e-05 0.000255728 -5.80129e-06
1.22425e-05 -5.80129e-06 0.000142259
0.0022453 0.000117852 -4.65101e-06
0.000117852 0.000388042 2.99905e-06
-4.65101e-06 2.99905e-06 0.000674917
-9.6799e-05 -9.26289e-06 2.06086e-05
-9.26289e-06 7.52487e-05 -2.89126e-07
2.06086e-05 -2.89126e-07 -9.30728e-05
0.00125962 -1.68432e-05 -4.34414e-06
-1.68432e-05 0.000267404 6.25753e-07
-4.34414e-06 6.25753e-07 0.000146725
0.0010984 -2.77188e-06 5.26623e-06
-2.77188e-06 0.000111061 -1.17407e-06
5.26623e-06 -1.17407e-06 5.67093e-05
0.00185158 -3.76993e-05 -1.10249e-05
-3.76993e-05 0.00055381 1.87635e-05
-1.10249e-05 1.87635e-05 0.000503891
0.000395515 0.000214218 -2.08853e-06
0.000214218 -0.000423429 3.30436e-06
-2.08853e-06 3.30436e-06 8.49301e-07
0.00136607 0.000307246 4.56553e-06
0.000307246 -0.000329147 -1.07089e-05
4.56553e-06 -1.07089e-05 -0.000282751
0.00314311 1.76755e-05 2.14757e-05
1.76755e-05 0.000316545 -1.00025e-05
2.14757e-05 -1.00025e-05 -0.000761738
0.00024424 -5.22769e-05 6.70585e-06
-5.22769e-05 0.000185214 -1.40588e-05
6.70585e-06 -1.40588e-05 -1.74071e-05
0.00129113 -1.47843e-05 -8.34456e-06
-1.47843e-05 0.000324931 9.92055e-07
-8.34456e-06 9.92055e-07 0.000235263
-0.00128676 8.0986e-05 7.97428e-06
8.0986e-05 -0.00118095 -6.83667e-06
7.97428e-06 -6.83667e-06 -0.00105393
-2.83747e-05 0.000254322 5.17918e-05
0.000254322 -7.73478e-05 -2.88007e-05
5.17918e-05 -2.88007e-05 -1.18061e-06
0.00693818 0.000407934 3.11524e-05
0.000407934 0.002049 -4.82161e-05
3.11524e-05 -4.82161e-05 0.00112219
0.0017421 -0.000163301 -5.74084e-05
-0.000163301 -6.59541e-05 0.000105717
-5.74084e-05 0.000105717 -0.000561619
0.000770212 -1.77153e-05 -2.15204e-06
-1.77153e-05 0.000121859 2.0784e-06
-2.15204e-06 2.0784e-06 -8.35463e-05
0.000584082 -2.57646e-05 2.97215e-07
-2.57646e-05 0.000134264 -1.02571e-06
2.97215e-07 -1.02571e-06 -0.000129643
0.00146431 -0.000116256 2.92023e-06
-0.000116256 0.000422233 -1.24578e-06
2.92023e-06 -1.24578e-06 0.000178715
0.000692508 -1.73815e-05 -1.48145e-06
-1.73815e-05 -1.63909e-05 -1.36385e-07
-1.48145e-06 -1.36385e-07 -0.000129698
0.000452737 -5.17372e-05 -8.43522e-08
-5.17372e-05 -6.51571e-05 3.51508e-07
-8.43522e-08 3.51508e-07 -0.0002764
0.00126109 -0.000100544 2.08233e-06
-0.000100544 0.000246325 3.98463e-06
2.08233e-06 3.98463e-06 5.82061e-05
0.00158766 -8.77062e-05 -1.59935e-06
-8.77062e-05 0.00038209 9.69647e-08
-1.59935e-06 9.69647e-08 0.000252751
0.00123935 -8.21649e-05 2.29483e-08
-8.21649e-05 0.000217498 7.07737e-07
2.29483e-08 7.07737e-07 5.59439e-05
0.00110669 -9.31312e-05 1.83609e-08
-9.31312e-05 8.73329e-05 2.99047e-07
1.83609e-08 2.99047e-07 -6.95275e-05
0.00111106 -7.09933e-05 -7.24091e-07
-7.09933e-05 0.000133618 -6.28375e-07
-7.24091e-07 -6.28375e-07 9.29712e-06
0.00157043 -9.48897e-05 8.0319e-08
-9.48897e-05 0.000322669 2.8284e-07
8.0319e-08 2.8284e-07 0.000192906
0.00133757 -9.12822e-05 -1.096e-07
-9.12822e-05 0.000175994 1.15358e-07
-1.096e-07 1.15358e-07 4.51328e-05
0.00132387 -8.39654e-05 -1.66439e-06
-8.39654e-05 0.000140662 1.7615e-08
-1.66439e-06 1.7615e-08 2.83558e-05
0.00153042 -8.58612e-05 -2.14737e-06
-8.58612e-05 0.000286521 3.03131e-06
-2.14737e-06 3.03131e-06 0.000185813
0.00135069 -8.58032e-05 -4.0518e-07
-8.58032e-05 0.000191335 4.6068e-07
-4.0518e-07 4.6068e-07 7.60323e-05
0.000787391 -5.7666e-05 2.14132e-07
-5.7666e-05 -4.99123e-05 -2.76429e-07
2.14132e-07 -2.76429e-07 -0.000133059
0.000957111 -6.49738e-05 9.81586e-07
-6.49738e-05 3.03829e-05 -3.19111e-07
9.81586e-07 -3.19111e-07 -6.02195e-05
0.00108542 -7.28458e-05 6.78302e-07
-7.28458e-05 8.38838e-05 -1.11524e-06
6.78302e-07 -1.11524e-06 -2.4066e-05
0.00110249 -5.80302e-05 -1.39095e-07
-5.80302e-05 0.000120445 1.80251e-08
-1.39095e-07 1.80251e-08 4.05001e-05
0.00115726 -6.56745e-05 -4.42464e-08
-6.56745e-05 0.000145913 -2.13682e-07
-4.42464e-08 -2.13682e-07 6.33639e-05
0.000916805 -6.0163e-05 2.01817e-06
-6.0163e-05 2.67619e-05 -2.35165e-07
2.01817e-06 -2.35165e-07 -5.66106e-05
0.000912026 5.20763e-07 -5.96862e-07
5.20763e-07 2.34326e-05 9.96816e-07
-5.96862e-07 9.96816e-07 -4.36042e-05
0.000927296 -4.19735e-05 -7.58096e-08
-4.19735e-05 4.08401e-05 2.23842e-07
-7.58096e-08 2.23842e-07 -3.67792e-05
0.00106795 -5.89157e-05 7.8395e-07
-5.89157e-05 0.000115452 -3.76344e-07
7.8395e-07 -3.76344e-07 3.1705e-05
0.0008744 1.85833e-05 -1.94627e-06
1.85833e-05 -7.13832e-07 2.16933e-06
-1.94627e-06 2.16933e-06 -4.25719e-05
0.000970939 -4.89631e-06 -2.0975e-07
-4.89631e-06 4.7758e-05 1.38872e-08
-2.0975e-07 1.38872e-08 -1.48391e-05
0.00106711 -4.50991e-05 4.44183e-07
-4.50991e-05 0.000102772 -2.95419e-07
4.44183e-07 -2.95419e-07 2.82106e-05
0.000833967 2.37035e-05 -3.76653e-06
2.37035e-05 -2.34307e-05 4.66043e-06
-3.76653e-06 4.66043e-06 -3.19269e-05
0.000888466 1.8189e-05 2.98827e-07
1.8189e-05 3.72386e-06 -4.27833e-08
2.98827e-07 -4.27833e-08 -3.41565e-05
0.000957199 -5.91494e-06 1.13028e-06
-5.91494e-06 3.62412e-05 -1.08722e-06
1.13028e-06 -1.08722e-06 -2.17903e-05
0.000887886 1.96508e-05 1.04087e-06
1.96508e-05 -6.98135e-07 -2.05592e-06
1.04087e-06 -2.05592e-06 -3.49363e-05
0.000829921 2.156e-05 1.07764e-07
2.156e-05 -3.09602e-05 -3.83372e-08
1.07764e-07 -3.83372e-08 -3.71224e-05
0.00229194 3.13239e-05 -1.70651e-05
3.13239e-05 0.000720788 3.69853e-06
-1.70651e-05 3.69853e-06 0.000739188
0.000857377 1.90832e-05 2.09465e-06
1.90832e-05 -2.32777e-05 -3.21493e-06
2.09465e-06 -3.21493e-06 -2.7359e-05
0.00225465 2.71e-05 6.86115e-07
2.71e-05 0.00069623 4.49437e-08
6.86115e-07 4.49437e-08 0.000715943
0.00222789 2.28469e-05 1.39889e-05
2.28469e-05 0.000677628 -3.8028e-06
1.39889e-05 -3.8028e-06 0.00069847
0.00102429 2.36458e-05 -4.72791e-07
2.36458e-05 6.63434e-05 -9.54213e-07
-4.72791e-07 -9.54213e-07 -2.29708e-06
0.000962558 1.39133e-05 -6.31854e-07
1.39133e-05 3.25089e-05 -1.40226e-06
-6.31854e-07 -1.40226e-06 -2.37052e-05
0.00089194 -1.74102e-05 -7.31413e-07
-1.74102e-05 -4.76315e-06 -1.99346e-06
-7.31413e-07 -1.99346e-06 -3.84271e-05
0.000957456 1.14359e-05 4.61753e-08
1.14359e-05 3.0911e-05 -4.23065e-08
4.61753e-08 -4.23065e-08 -2.19918e-05
0.000861843 -1.63095e-05 -1.51299e-06
-1.63095e-05 -2.5977e-05 -3.35375e-06
-1.51299e-06 -3.35375e-06 -2.97478e-05
0.000907176 -1.25712e-05 -2.73529e-08
-1.25712e-05 9.18853e-07 1.79786e-10
-2.73529e-08 1.79786e-10 -3.04612e-05
0.000940688 1.59553e-05 1.40683e-07
1.59553e-05 2.44616e-05 6.4748e-07
1.40683e-07 6.4748e-07 -2.61205e-05
0.00223821 -1.84621e-05 -1.17543e-05
-1.84621e-05 0.000677576 -4.0097e-06
-1.17543e-05 -4.0097e-06 0.000699281
0.000855684 -1.34058e-05 -9.76903e-08
-1.34058e-05 -3.34478e-05 -2.95176e-08
-9.76903e-08 -2.95176e-08 -3.49227e-05
0.000920601 -9.14652e-06 2.05817e-07
-9.14652e-06 5.95863e-06 1.2223e-06
2.05817e-07 1.2223e-06 -2.32869e-05
0.00217194 -1.36794e-05 -1.11249e-06
-1.36794e-05 0.000639354 3.13751e-08
-1.11249e-06 3.13751e-08 0.000662519
0.000850097 -1.00302e-05 6.74875e-07
-1.00302e-05 -4.03921e-05 3.15913e-06
6.74875e-07 3.15913e-06 -3.96131e-05
0.00212542 -8.83099e-06 5.43285e-06
-8.83099e-06 0.000612424 3.87408e-06
5.43285e-06 3.87408e-06 0.000636649
0.000981994 1.30192e-05 -1.23124e-05
1.30192e-05 8.90645e-05 -3.18492e-06
-1.23124e-05 -3.18492e-06 -3.31518e-05
0.00118322 7.49877e-07 1.15681e-06
7.49877e-07 0.000147107 -9.20309e-07
1.15681e-06 -9.20309e-07 1.40048e-05
0.0013601 -9.78183e-06 -8.34747e-06
-9.78183e-06 0.000325124 -1.51596e-06
-8.34747e-06 -1.51596e-06 0.000214994
0.000969571 1.51008e-05 -8.94168e-08
1.51008e-05 3.84523e-05 1.22852e-08
-8.94168e-08 1.22852e-08 -2.86909e-05
0.00105892 2.08033e-05 2.31826e-08
2.08033e-05 8.48315e-05 2.45699e-07
2.31826e-08 2.45699e-07 1.05583e-05
0.000979859 2.53107e-05 -7.14539e-07
2.53107e-05 4.84591e-05 -1.32911e-06
-7.14539e-07 -1.32911e-06 -2.87648e-05
0.000932526 1.52201e-05 -1.73197e-07
1.52201e-05 2.1766e-05 -1.1123e-06
-1.73197e-07 -1.1123e-06 -5.19934e-05
0.00112649 4.12745e-05 -3.67333e-07
4.12745e-05 0.000124466 -6.23396e-07
-3.67333e-07 -6.23396e-07 4.4774e-05
0.000901148 1.15647e-05 1.22411e-07
1.15647e-05 4.81643e-06 7.87985e-07
1.22411e-07 7.87985e-07 -6.09552e-05
0.000980835 7.40466e-06 2.47614e-07
7.40466e-06 4.84785e-05 8.16194e-07
2.47614e-07 8.16194e-07 -2.3556e-05
0.00101542 3.39207e-05 -1.32371e-07
3.39207e-05 6.82074e-05 -2.27965e-08
-1.32371e-07 -2.27965e-08 -5.47361e-06
0.00103442 2.67071e-05 4.08303e-07
2.67071e-05 7.73715e-05 4.56645e-07
4.08303e-07 4.56645e-07 -3.78649e-07
0.00107839 2.84401e-05 -2.82396e-07
2.84401e-05 0.000102476 -4.76477e-07
-2.82396e-07 -4.76477e-07 2.34698e-05
0.00103768 1.99078e-06 -6.29545e-06
1.99078e-06 0.000137344 6.94407e-06
-6.29545e-06 6.94407e-06 7.17809e-05
0.000954718 2.78703e-05 6.52615e-08
2.78703e-05 6.7605e-05 6.76499e-07
6.52615e-08 6.76499e-07 -3.459e-05
0.000724264 1.0827e-05 7.28294e-07
1.0827e-05 -8.93547e-05 -3.4381e-06
7.28294e-07 -3.4381e-06 -0.000220501
0.000942884 -2.09081e-05 6.88485e-06
-2.09081e-05 -0.000398298 2.18875e-06
6.88485e-06 2.18875e-06 -0.000175243
-0.00136175 1.96458e-05 -1.82878e-06
1.96458e-05 -0.00201756 -6.66085e-05
-1.82878e-06 -6.66085e-05 -0.00180267
0.00141555 -0.000242493 -6.8591e-05
-0.000242493 -0.000443757 9.03974e-05
-6.8591e-05 9.03974e-05 -0.000798354
0.00713192 0.00013843 -1.57876e-05
0.00013843 0.00150272 -4.52189e-05
-1.57876e-05 -4.52189e-05 0.00107647
0.00123049 -0.000206577 -3.62269e-05
-0.000206577 -0.000256953 3.19287e-05
-3.62269e-05 3.19287e-05 -0.000642861
0.00755615 -0.000119682 2.93567e-05
-0.000119682 0.00175831 1.81802e-06
2.93567e-05 1.81802e-06 0.00132532
0.00124067 -0.000181865 6.84857e-06
-0.000181865 -0.000663198 -2.1747e-05
6.84857e-06 -2.1747e-05 -0.000554831
5.7327e-05 -9.81666e-05 1.29152e-06
-9.81666e-05 -0.000956438 -3.49741e-06
1.29152e-06 -3.49741e-06 -0.000621687
0.00173732 -7.0064e-05 -3.02424e-05
-7.0064e-05 0.000254017 -5.64948e-05
-3.02424e-05 -5.64948e-05 -0.000178307
0.00717351 -0.000300708 -1.75261e-05
-0.000300708 0.00160261 4.72791e-05
-1.75261e-05 4.72791e-05 0.0010723
0.00582016 -0.000356018 1.85144e-05
-0.000356018 0.00174974 2.56769e-05
1.85144e-05 2.56769e-05 0.00190836
0.00124071 -0.000176396 3.2197e-06
-0.000176396 -9.25032e-05 2.24061e-06
3.2197e-06 2.24061e-06 0.000378487
0.000942225 2.40028e-05 -7.4734e-07
2.40028e-05 4.01001e-05 2.90047e-08
-7.4734e-07 2.90047e-08 -3.5548e-05
0.00109356 2.56456e-07 -1.07817e-07
2.56456e-07 0.00010126 1.26376e-07
-1.07817e-07 1.26376e-07 2.12013e-05
0.000992479 7.60213e-06 2.84676e-07
7.60213e-06 5.44946e-05 2.05297e-07
2.84676e-07 2.05297e-07 -2.56501e-05
0.000988037 -4.6821e-05 2.1094e-05
-4.6821e-05 0.000407312 -2.50778e-06
2.1094e-05 -2.50778e-06 0.000268207
0.00133967 -1.20094e-05 -1.44574e-08
-1.20094e-05 0.000309838 -1.20292e-06
-1.44574e-08 -1.20292e-06 0.000273629
0.0010116 1.06017e-05 -1.0416e-07
1.06017e-05 5.67909e-05 1.52107e-06
-1.0416e-07 1.52107e-06 -2.50969e-05
0.000970019 -1.88149e-05 -7.12428e-07
-1.88149e-05 2.78314e-05 2.23426e-06
-7.12428e-07 2.23426e-06 -6.15917e-05
0.00104719 -6.39447e-06 -4.97354e-08
-6.39447e-06 8.14406e-05 7.42284e-08
-4.97354e-08 7.42284e-08 -6.91933e-06
0.000848335 -3.87209e-05 1.03386e-06
-3.87209e-05 8.89485e-05 2.66762e-06
1.03386e-06 2.66762e-06 -2.71011e-05
-0.00012511 1.77469e-05 3.05396e-06
1.77469e-05 0.000101902 -8.88469e-06
3.05396e-06 -8.88469e-06 -0.000219992
0.000379743 1.21346e-05 -1.47435e-06
1.21346e-05 -0.000126018 1.46532e-06
-1.47435e-06 1.46532e-06 -0.000258443
0.00143881 5.91938e-05 8.71936e-06
5.91938e-05 0.000579718 3.93441e-06
8.71936e-06 3.93441e-06 0.000390289
0.00187165 -5.35509e-06 -1.20192e-05
-5.35509e-06 0.000731199 -1.40609e-06
-1.20192e-05 -1.40609e-06 0.000648033
0.00110365 -2.95893e-06 -5.23451e-06
-2.95893e-06 0.000182263 -1.29411e-07
-5.23451e-06 -1.29411e-07 5.2888e-05
0.0010207 -3.3299e-06 4.22501e-07
-3.3299e-06 8.5519e-05 -1.99097e-07
4.22501e-07 -1.99097e-07 -5.14174e-05
-0.000587126 -7.10325e-06 -1.03942e-05
-7.10325e-06 -0.000171 1.67014e-05
-1.03942e-05 1.67014e-05 -0.000325594
0.000351375 3.02e-05 2.88008e-05
3.02e-05 -0.000307809 -5.40235e-05
2.88008e-05 -5.40235e-05 -0.000691715
0.00132812 -1.5918e-05 7.45535e-06
-1.5918e-05 0.000307037 2.18878e-06
7.45535e-06 2.18878e-06 0.000186595
0.00843356 0.00018965 4.21007e-05
0.00018965 0.00222011 -3.71317e-06
4.21007e-05 -3.71317e-06 0.00125515
0.00400604 0.000401349 -3.29113e-05
0.000401349 0.00108244 2.01063e-05
-3.29113e-05 2.01063e-05 0.00105311
0.00127196 -7.37579e-06 1.38229e-05
-7.37579e-06 0.000249314 -2.44122e-06
1.38229e-05 -2.44122e-06 0.000179351
-0.000432375 0.00022816 -1.051e-05
0.00022816 -0.000950826 1.29343e-05
-1.051e-05 1.29343e-05 -0.000505511
-5.64426e-05 -2.10787e-05 -3.34409e-06
-2.10787e-05 9.00245e-05 -8.38641e-08
-3.34409e-06 -8.38641e-08 -0.000120601
0.00123007 -1.56525e-05 5.54708e-06
-1.56525e-05 0.000284825 -4.78499e-07
5.54708e-06 -4.78499e-07 0.000196846
-0.00113797 9.36242e-05 8.08115e-07
9.36242e-05 -0.00100938 -1.18604e-06
8.08115e-07 -1.18604e-06 -0.000871885
0.00211232 -0.000120433 1.43872e-05
-0.000120433 0.0004607 3.09175e-05
1.43872e-05 3.09175e-05 5.17187e-05
0.0029009 0.000361356 -3.00036e-06
0.000361356 0.00090637 -8.7606e-07
-3.00036e-06 -8.7606e-07 0.000889629
0.00563933 0.000145598 2.35873e-05
0.000145598 0.00138208 -1.25285e-05
2.35873e-05 -1.25285e-05 0.00017661
0.00141735 -6.61249e-05 5.78441e-06
-6.61249e-05 0.000212017 2.47089e-06
5.78441e-06 2.47089e-06 0.000266947
-0.00104113 1.65614e-05 -7.62275e-07
1.65614e-05 -0.000942863 9.4674e-07
-7.62275e-07 9.4674e-07 -0.000976582
0.0027581 0.000256035 4.25356e-05
0.000256035 0.001068 -1.49249e-05
4.25356e-05 -1.49249e-05 0.00104935
0.00388542 0.000328079 -2.95656e-05
0.000328079 0.000806799 2.67337e-05
-2.95656e-05 2.67337e-05 -9.51392e-05
0.00182659 -0.000101263 2.53603e-06
-0.000101263 0.000197571 4.1102e-05
2.53603e-06 4.1102e-05 -7.72404e-05
0.000713459 -1.12157e-05 -1.83483e-06
-1.12157e-05 0.000193006 3.98384e-06
-1.83483e-06 3.98384e-06 -6.75347e-05
0.000970941 -0.000105661 1.2501e-06
-0.000105661 0.000204957 -2.11187e-06
1.2501e-06 -2.11187e-06 -6.45684e-05
0.00275141 -0.000186012 5.80608e-07
-0.000186012 0.000811106 -1.74213e-07
5.80608e-07 -1.74213e-07 0.00062195
8.71555e-05 -2.79416e-05 -1.46013e-06
-2.79416e-05 -0.000227329 1.93117e-06
-1.46013e-06 1.93117e-06 -0.00044225
0.000816909 -8.70515e-05 1.07382e-06
-8.70515e-05 3.21196e-05 -1.17716e-07
1.07382e-06 -1.17716e-07 -0.000158413
0.0012561 -0.00011587 8.46842e-07
-0.00011587 0.000113311 1.58669e-06
8.46842e-07 1.58669e-06 -3.35887e-05
0.00136569 -8.48747e-05 -1.82224e-06
-8.48747e-05 0.000269527 2.42852e-07
-1.82224e-06 2.42852e-07 0.000110007
0.00121862 -9.44758e-05 -1.01937e-06
-9.44758e-05 0.000137903 -6.14049e-07
-1.01937e-06 -6.14049e-07 -1.32588e-05
0.00156704 -0.000105535 -1.05385e-06
-0.000105535 0.000228238 -2.48157e-07
-1.05385e-06 -2.48157e-07 0.000107572
0.00141894 -9.08477e-05 -3.51549e-07
-9.08477e-05 0.000244547 -8.85492e-07
-3.51549e-07 -8.85492e-07 0.000113373
0.00127286 -8.80607e-05 3.38303e-07
-8.80607e-05 0.000140771 -8.89492e-07
3.38303e-07 -8.89492e-07 1.28395e-05
0.00144415 -8.70115e-05 -1.53334e-06
-8.70115e-05 0.000162063 -1.84024e-06
-1.53334e-06 -1.84024e-06 5.34666e-05
0.00132427 -7.82499e-05 -1.35514e-06
-7.82499e-05 8.5683e-05 -1.144e-06
-1.35514e-06 -1.144e-06 -1.04129e-05
0.00113086 -7.55859e-05 -1.32301e-06
-7.55859e-05 6.09027e-05 9.42094e-07
-1.32301e-06 9.42094e-07 -4.25568e-05
0.00125138 -8.13529e-05 3.40337e-07
-8.13529e-05 0.000102803 -9.04804e-07
3.40337e-07 -9.04804e-07 -8.39166e-06
0.00125755 -7.41433e-05 -8.85912e-07
-7.41433e-05 0.000163959 1.91898e-06
-8.85912e-07 1.91898e-06 7.38065e-05
0.00124641 -7.82158e-05 -2.50065e-07
-7.82158e-05 0.000147072 5.59822e-07
-2.50065e-07 5.59822e-07 4.45423e-05
0.00129614 -8.46919e-05 7.85329e-07
-8.46919e-05 0.000163208 -1.60393e-06
7.85329e-07 -1.60393e-06 4.62665e-05
0.0010055 -6.00631e-05 -3.43772e-07
-6.00631e-05 6.3315e-05 -6.15563e-07
-3.43772e-07 -6.15563e-07 -1.47877e-05
0.0008689 -5.97342e-05 -1.89758e-07
-5.97342e-05 -8.55971e-06 -7.60339e-07
-1.89758e-07 -7.60339e-07 -9.07183e-05
0.00110507 -6.90715e-05 2.29349e-06
-6.90715e-05 0.000104804 -2.03202e-06
2.29349e-06 -2.03202e-06 1.49029e-05
0.000951077 -2.0712e-05 -5.7084e-07
-2.0712e-05 4.4745e-05 7.99873e-07
-5.7084e-07 7.99873e-07 -2.56006e-05
0.00103907 -5.52689e-05 1.55587e-07
-5.52689e-05 8.97251e-05 3.32203e-07
1.55587e-07 3.32203e-07 1.01078e-05
0.00109001 -6.34637e-05 5.08055e-07
-6.34637e-05 0.00011372 6.20667e-07
5.08055e-07 6.20667e-07 3.08883e-05
0.000866417 3.34081e-05 -1.76905e-06
3.34081e-05 5.77423e-07 2.1059e-06
-1.76905e-06 2.1059e-06 -4.65653e-05
0.000965292 -2.0739e-06 -6.29414e-08
-2.0739e-06 4.97481e-05 8.31385e-09
-6.29414e-08 8.31385e-09 -1.74382e-05
0.000970764 -4.12923e-05 1.3742e-07
-4.12923e-05 6.09962e-05 -1.27196e-07
1.3742e-07 -1.27196e-07 -1.58852e-05
0.00147024 3.03759e-05 -1.07158e-05
3.03759e-05 0.000309161 3.24037e-06
-1.07158e-05 3.24037e-06 0.000301246
0.000878252 1.76956e-05 1.00041e-07
1.76956e-05 1.28273e-06 -4.39152e-08
1.00041e-07 -4.39152e-08 -4.05111e-05
0.000973844 -6.28038e-06 8.3708e-07
-6.28038e-06 4.85431e-05 -1.04214e-06
8.3708e-07 -1.04214e-06 -1.38416e-05
0.0010227 2.2594e-05 -1.596e-05
2.2594e-05 7.61146e-05 3.76567e-06
-1.596e-05 3.76567e-06 8.63234e-05
0.00116288 2.62694e-05 -3.97442e-06
2.62694e-05 0.000145821 4.81997e-07
-3.97442e-06 4.81997e-07 0.000138627
0.000878701 2.25195e-05 1.3048e-06
2.25195e-05 -8.02627e-07 -2.08162e-06
1.3048e-06 -2.08162e-06 -3.88223e-05
0.000848437 2.19232e-05 2.45766e-06
2.19232e-05 -2.17669e-05 -3.32449e-06
2.45766e-06 -3.32449e-06 -2.80366e-05
0.00230066 3.13282e-05 5.74309e-07
3.13282e-05 0.000726046 4.80332e-08
5.74309e-07 4.80332e-08 0.000744216
0.00225643 2.709e-05 1.61781e-05
2.709e-05 0.000697924 -3.77796e-06
1.61781e-05 -3.77796e-06 0.000717475
0.000969829 2.13508e-05 -7.34531e-07
2.13508e-05 4.13159e-05 -1.32449e-06
-7.34531e-07 -1.32449e-06 -3.06793e-05
0.000972445 -6.18717e-08 -5.5851e-07
-6.18717e-08 3.68547e-05 -1.59502e-06
-5.5851e-07 -1.59502e-06 -2.19921e-05
0.00100781 1.65153e-05 -1.07175e-07
1.65153e-05 5.73537e-05 2.73754e-09
-1.07175e-07 2.73754e-09 -1.14348e-05
0.000883898 -2.24451e-05 -8.53303e-07
-2.24451e-05 -6.38253e-06 -2.19316e-06
-8.53303e-07 -2.19316e-06 -4.22318e-05
0.000966612 5.67088e-06 3.13201e-07
5.67088e-06 3.42574e-05 -7.25457e-08
3.13201e-07 -7.25457e-08 -2.15715e-05
0.000850375 -1.86952e-05 -1.95059e-06
-1.86952e-05 -2.73607e-05 -3.43497e-06
-1.95059e-06 -3.43497e-06 -3.30476e-05
0.000899523 -1.36945e-05 -2.42004e-07
-1.36945e-05 -9.10539e-07 -9.35972e-10
-2.42004e-07 -9.35972e-10 -3.45143e-05
0.000968021 1.6613e-05 6.87703e-07
1.6613e-05 3.7273e-05 1.32399e-06
6.87703e-07 1.32399e-06 -1.63578e-05
0.00229829 -2.29283e-05 -1.43367e-05
-2.29283e-05 0.000712784 -4.00447e-06
-1.43367e-05 -4.00447e-06 0.000733128
0.000844592 -1.61726e-05 -1.66785e-07
-1.61726e-05 -3.46417e-05 -1.15551e-08
-1.66785e-07 -1.15551e-08 -3.83154e-05
0.000916535 -1.19353e-05 5.8809e-07
-1.19353e-05 5.88186e-06 1.83939e-06
5.8809e-07 1.83939e-06 -2.55164e-05
0.00223097 -1.83888e-05 -9.73488e-07
-1.83888e-05 0.000673368 3.91628e-08
-9.73488e-07 3.91628e-08 0.000695271
0.000838201 -1.32836e-05 9.06439e-07
-1.32836e-05 -4.22649e-05 3.26793e-06
9.06439e-07 3.26793e-06 -4.36247e-05
0.00216805 -1.35183e-05 8.11426e-06
-1.35183e-05 0.000636952 3.88275e-06
8.11426e-06 3.88275e-06 0.000660273
0.000620495 8.10614e-06 -9.69287e-06
8.10614e-06 -1.30354e-05 -4.22858e-06
-9.69287e-06 -4.22858e-06 -9.3728e-05
0.000971283 1.11318e-05 -1.77655e-06
1.11318e-05 8.44729e-05 -1.99733e-06
-1.77655e-06 -1.99733e-06 -3.88358e-05
0.00108127 6.11895e-07 -3.28177e-07
6.11895e-07 9.10135e-05 -4.07961e-06
-3.28177e-07 -4.07961e-06 -4.38658e-05
0.00103822 4.72331e-05 -8.80892e-07
4.72331e-05 8.31088e-05 -2.94345e-07
-8.80892e-07 -2.94345e-07 4.17993e-06
0.00101809 1.46894e-05 2.55189e-07
1.46894e-05 6.36679e-05 8.83336e-07
2.55189e-07 8.83336e-07 -3.34753e-06
0.00101202 2.03094e-05 2.81662e-07
2.03094e-05 6.03549e-05 1.07875e-06
2.81662e-07 1.07875e-06 -1.44481e-05
0.00102929 1.49835e-05 7.63342e-08
1.49835e-05 7.11883e-05 -2.19747e-07
7.63342e-08 -2.19747e-07 -2.05243e-06
0.00103194 3.5067e-05 -1.19999e-07
3.5067e-05 7.6068e-05 -1.65151e-07
-1.19999e-07 -1.65151e-07 -1.42031e-06
0.00104619 3.89302e-05 8.07124e-08
3.89302e-05 8.28881e-05 4.04054e-07
8.07124e-08 4.04054e-07 3.39072e-06
0.00104537 4.82427e-05 -9.77588e-07
4.82427e-05 8.50218e-05 -1.29378e-06
-9.77588e-07 -1.29378e-06 2.5019e-06
0.000935493 3.60059e-05 -3.16801e-07
3.60059e-05 3.0463e-05 -9.56064e-07
-3.16801e-07 -9.56064e-07 -5.00588e-05
0.00100565 4.37704e-05 5.42071e-07
4.37704e-05 6.45013e-05 5.32891e-07
5.42071e-07 5.32891e-07 -9.68882e-06
0.000995584 1.26677e-06 3.73053e-07
1.26677e-06 5.48498e-05 6.61829e-07
3.73053e-07 6.61829e-07 -2.14787e-05
0.00105656 2.9011e-05 -1.0857e-07
2.9011e-05 9.17343e-05 -3.02367e-10
-1.0857e-07 -3.02367e-10 1.26616e-05
0.00149412 3.43471e-05 1.29627e-06
3.43471e-05 0.000310356 -7.73047e-07
1.29627e-06 -7.73047e-07 0.000228585
0.00193675 -9.02292e-05 7.46547e-06
-9.02292e-05 0.000694643 7.03748e-06
7.46547e-06 7.03748e-06 0.000864235
0.000827795 6.73458e-06 2.01019e-06
6.73458e-06 3.8659e-06 3.83039e-06
2.01019e-06 3.83039e-06 -6.07022e-05
0.000940759 2.79915e-05 1.41017e-05
2.79915e-05 5.71845e-05 1.76035e-06
1.41017e-05 1.76035e-06 -4.40023e-05
0.00157268 -0.000120543 -1.14854e-06
-0.000120543 -6.50301e-05 -8.55882e-06
-1.14854e-06 -8.55882e-06 0.000274127
0.00301432 -0.000243789 -3.29976e-06
-0.000243789 -0.000123752 -9.19342e-05
-3.29976e-06 -9.19342e-05 -4.99846e-06
0.00329337 5.34059e-05 -3.16118e-05
5.34059e-05 -0.000520063 0.000105555
-3.16118e-05 0.000105555 -0.00077708
0.00104695 -0.000199563 -5.9302e-05
-0.000199563 -4.46255e-05 7.13393e-05
-5.9302e-05 7.13393e-05 -0.000316172
0.00222241 -5.71188e-05 -1.88386e-05
-5.71188e-05 0.000716185 4.01013e-06
-1.88386e-05 4.01013e-06 0.000442344
0.000362195 -0.000182212 -1.89509e-06
-0.000182212 -0.00049656 -2.18553e-06
-1.89509e-06 -2.18553e-06 -6.00709e-05
0.00530167 -9.20755e-05 1.55392e-05
-9.20755e-05 0.00066283 5.28703e-05
1.55392e-05 5.28703e-05 -7.53844e-05
-0.000607941 -0.000215628 -6.25068e-06
-0.000215628 -0.000974057 -1.11164e-05
-6.25068e-06 -1.11164e-05 -0.000824849
0.00253463 0.000136826 -5.95371e-05
0.000136826 0.000644295 -5.03257e-05
-5.95371e-05 -5.03257e-05 0.000412931
0.00719081 -0.000262308 3.85517e-06
-0.000262308 0.00209209 3.5279e-05
3.85517e-06 3.5279e-05 0.00132012
-0.000126533 -0.000198229 3.16454e-05
-0.000198229 -9.67344e-05 1.97717e-05
3.16454e-05 1.97717e-05 1.86281e-05
0.000801058 7.22041e-05 -3.29598e-06
7.22041e-05 -4.24184e-06 -2.02181e-06
-3.29598e-06 -2.02181e-06 -7.6943e-05
0.00115997 2.77202e-05 2.1103e-06
2.77202e-05 0.000142347 2.6272e-07
2.1103e-06 2.6272e-07 6.75953e-05
0.00105398 1.33585e-05 -2.67142e-07
1.33585e-05 8.61969e-05 5.08533e-08
-2.67142e-07 5.08533e-08 4.75411e-06
-0.000429723 1.17276e-05 -7.12321e-06
1.17276e-05 -0.000114342 -1.71254e-05
-7.12321e-06 -1.71254e-05 -0.000428847
0.000294276 -2.74793e-05 -1.19711e-06
-2.74793e-05 -0.000175858 1.22266e-06
-1.19711e-06 1.22266e-06 -0.000301778
0.000885047 7.27985e-06 2.26788e-06
7.27985e-06 4.83212e-06 3.4778e-06
2.26788e-06 3.4778e-06 -8.31202e-05
0.00100628 3.59087e-05 1.59053e-07
3.59087e-05 0.000164758 2.24126e-07
1.59053e-07 2.24126e-07 3.47997e-05
0.00080601 3.13696e-05 1.04614e-06
3.13696e-05 0.000267684 -2.94185e-06
1.04614e-06 -2.94185e-06 9.78671e-05
-0.00109512 5.30727e-05 1.09675e-07
5.30727e-05 -0.000749676 1.46516e-05
1.09675e-07 1.46516e-05 -0.000914676
0.00260641 -2.06175e-05 -2.98535e-06
-2.06175e-05 0.00119558 -2.65064e-07
-2.98535e-06 -2.65064e-07 0.00118897
0.000913311 -3.60452e-06 -4.14521e-07
-3.60452e-06 0.000147451 -1.25631e-06
-4.14521e-07 -1.25631e-06 5.58241e-05
0.000670796 -3.51589e-06 5.38907e-06
-3.51589e-06 -9.70425e-05 -7.55439e-09
5.38907e-06 -7.55439e-09 -0.000231659
0.000231427 -2.79997e-05 7.79279e-06
-2.79997e-05 0.000231632 1.23164e-05
7.79279e-06 1.23164e-05 1.58277e-05
0.00125944 -9.615e-05 -5.69038e-06
-9.615e-05 0.000110859 -4.73223e-05
-5.69038e-06 -4.73223e-05 -0.000198168
0.00127332 -1.64637e-05 1.92075e-05
-1.64637e-05 0.0003107 -3.86845e-06
1.92075e-05 -3.86845e-06 0.000224811
0.00180529 0.000161477 -2.40587e-05
0.000161477 -9.68707e-05 2.67438e-05
-2.40587e-05 2.67438e-05 -0.0011754
-0.0016163 0.000247919 -5.55383e-05
0.000247919 -0.00109459 2.83578e-05
-5.55383e-05 2.83578e-05 -0.0010484
0.00123438 0.000117745 -7.15212e-06
0.000117745 0.000318644 4.99773e-06
-7.15212e-06 4.99773e-06 0.000526412
0.00163315 -8.17718e-05 7.19473e-06
-8.17718e-05 0.00036211 2.02889e-06
7.19473e-06 2.02889e-06 0.000382852
0.00123105 3.31871e-05 -1.9533e-06
3.31871e-05 0.000360293 1.3226e-07
-1.9533e-06 1.3226e-07 0.000387723
-0.00210297 0.000132918 -4.12928e-06
0.000132918 -0.0010112 3.15559e-06
-4.12928e-06 3.15559e-06 -0.00101881
0.00336538 -0.000163869 -1.17805e-05
-0.000163869 0.000646683 2.03049e-05
-1.17805e-05 2.03049e-05 0.000222268
0.00519798 0.00027633 -7.10158e-06
0.00027633 0.00138293 3.45606e-06
-7.10158e-06 3.45606e-06 0.000519935
0.000573237 -0.000104858 3.81346e-06
-0.000104858 -0.00036143 7.47486e-06
3.81346e-06 7.47486e-06 -0.000306192
-0.00268915 5.94762e-05 5.35024e-05
5.94762e-05 -0.00168405 -1.50381e-05
5.35024e-05 -1.50381e-05 -0.00165768
0.00546995 0.000263468 8.52089e-06
0.000263468 0.00159241 -1.89169e-06
8.52089e-06 -1.89169e-06 0.000906122
0.00349519 7.36304e-06 -1.11918e-05
7.36304e-06 0.000554174 3.07865e-05
-1.11918e-05 3.07865e-05 0.000272488
0.000516415 -9.48205e-05 -2.45353e-06
-9.48205e-05 1.42178e-05 -1.4164e-06
-2.45353e-06 -1.4164e-06 -0.000288585
0.00111837 -0.000140131 3.44888e-07
-0.000140131 4.96488e-05 7.54645e-07
3.44888e-07 7.54645e-07 -0.000144749
0.00177734 -0.000170772 -1.69083e-06
-0.000170772 0.000228254 2.30577e-06
-1.69083e-06 2.30577e-06 0.000104151
0.000251211 -7.01915e-05 -1.57244e-06
-7.01915e-05 -0.00023752 -1.27007e-06
-1.57244e-06 -1.27007e-06 -0.000434125
0.00122523 -0.000113983 -7.20295e-07
-0.000113983 9.18118e-05 -1.05298e-06
-7.20295e-07 -1.05298e-06 -5.45045e-05
0.00199567 -0.000124517 -5.91316e-06
-0.000124517 0.00031996 -1.13229e-06
-5.91316e-06 -1.13229e-06 0.000220386
0.00125679 -9.4281e-05 -8.85454e-07
-9.4281e-05 0.00015237 -2.26271e-06
-8.85454e-07 -2.26271e-06 5.47618e-06
0.00131412 -9.79646e-05 7.86812e-07
-9.79646e-05 0.000105781 -8.86269e-07
7.86812e-07 -8.86269e-07 -1.3795e-05
0.00173596 -9.27603e-05 -1.95857e-06
-9.27603e-05 0.000226561 -2.79005e-06
-1.95857e-06 -2.79005e-06 0.000142209
0.00119932 -8.45972e-05 -1.22564e-07
-8.45972e-05 0.000102032 -1.3322e-06
-1.22564e-07 -1.3322e-06 -2.32774e-05
0.00126821 -8.14682e-05 -3.20908e-07
-8.14682e-05 6.95323e-05 -7.46091e-07
-3.20908e-07 -7.46091e-07 -3.73245e-05
0.00145964 -7.61472e-05 -1.24642e-06
-7.61472e-05 9.61899e-05 -2.46759e-06
-1.24642e-06 -2.46759e-06 1.94738e-05
0.00141778 -7.1503e-05 -1.29079e-06
-7.1503e-05 9.52013e-05 -1.58306e-06
-1.29079e-06 -1.58306e-06 2.08433e-05
0.00130448 -7.7241e-05 -1.76477e-06
-7.7241e-05 9.86587e-05 -4.09443e-07
-1.76477e-06 -4.09443e-07 4.10875e-06
0.00130949 -7.60288e-05 6.35951e-07
-7.60288e-05 7.85725e-05 1.45787e-07
6.35951e-07 1.45787e-07 -1.55593e-05
0.000821137 -6.35665e-05 -1.25077e-06
-6.35665e-05 -7.84125e-05 1.44542e-06
-1.25077e-06 1.44542e-06 -0.00017216
0.00126398 -7.86138e-05 7.58662e-07
-7.86138e-05 0.000127087 -7.65909e-07
7.58662e-07 -7.65909e-07 2.47269e-05
0.00114928 -7.7881e-05 1.42406e-06
-7.7881e-05 5.04892e-05 -1.34773e-06
1.42406e-06 -1.34773e-06 -5.95633e-05
0.00104573 -6.45409e-05 -2.65645e-07
-6.45409e-05 7.38491e-05 7.38594e-07
-2.65645e-07 7.38594e-07 -6.84643e-06
0.001036 -6.7723e-05 2.95631e-07
-6.7723e-05 5.7036e-05 -1.57277e-07
2.95631e-07 -1.57277e-07 -3.32099e-05
0.000959754 -7.04842e-05 8.40187e-07
-7.04842e-05 6.35987e-06 -1.78668e-06
8.40187e-07 -1.78668e-06 -9.79951e-05
0.000993029 -4.30907e-05 -1.26053e-06
-4.30907e-05 6.17645e-05 1.50476e-07
-1.26053e-06 1.50476e-07 -9.21045e-06
0.00105423 -6.10621e-05 -2.01072e-07
-6.10621e-05 8.6411e-05 -2.94352e-07
-2.01072e-07 -2.94352e-07 8.2768e-06
0.000959831 -6.20946e-05 9.93278e-09
-6.20946e-05 3.76129e-05 -1.08227e-06
9.93278e-09 -1.08227e-06 -4.35954e-05
0.000901121 8.83705e-06 -2.00611e-06
8.83705e-06 2.44558e-05 2.054e-06
-2.00611e-06 2.054e-06 -2.7352e-05
0.00098698 -2.22566e-05 3.9801e-07
-2.22566e-05 6.19347e-05 2.46213e-07
3.9801e-07 2.46213e-07 -8.29641e-06
0.000976797 -5.2341e-05 7.00481e-07
-5.2341e-05 5.94584e-05 5.23434e-07
7.00481e-07 5.23434e-07 -1.98073e-05
0.000769842 2.88713e-05 -3.91867e-06
2.88713e-05 -4.36154e-05 3.49504e-06
-3.91867e-06 3.49504e-06 -5.78531e-05
0.000877069 1.26032e-05 -2.01851e-07
1.26032e-05 4.4806e-06 -6.99774e-08
-2.01851e-07 -6.99774e-08 -4.19008e-05
0.00100694 -5.64816e-06 6.61394e-07
-5.64816e-06 7.03392e-05 -1.04321e-06
6.61394e-07 -1.04321e-06 2.96539e-06
0.00239998 4.3847e-05 -8.08684e-06
4.3847e-05 0.0007907 1.54085e-06
-8.08684e-06 1.54085e-06 0.000804804
0.000792791 2.62864e-05 1.70426e-07
2.62864e-05 -3.7914e-05 2.95152e-08
1.70426e-07 2.95152e-08 -4.96946e-05
0.000880694 1.64278e-05 2.10996e-06
1.64278e-05 2.94273e-06 -2.06547e-06
2.10996e-06 -2.06547e-06 -3.90736e-05
0.00236807 3.54285e-05 5.22788e-07
3.54285e-05 0.000766581 4.53951e-08
5.22788e-07 4.53951e-08 0.000783089
0.000835143 2.45175e-05 3.01641e-06
2.45175e-05 -2.22519e-05 -3.44604e-06
3.01641e-06 -3.44604e-06 -3.12971e-05
0.00230897 3.12699e-05 1.8432e-05
3.12699e-05 0.000731094 -3.79489e-06
1.8432e-05 -3.79489e-06 0.000749043
0.00106957 4.3834e-05 -6.82189e-07
4.3834e-05 9.73624e-05 -3.19567e-07
-6.82189e-07 -3.19567e-07 2.32405e-05
0.000991713 2.13416e-05 -9.0604e-08
2.13416e-05 5.27351e-05 -2.36256e-07
-9.0604e-08 -2.36256e-07 -1.91213e-05
0.000969492 4.45281e-07 -8.64375e-07
4.45281e-07 4.08861e-05 -1.64543e-06
-8.64375e-07 -1.64543e-06 -2.22373e-05
0.000878793 -2.11136e-05 -1.3599e-06
-2.11136e-05 -6.13802e-06 -2.42436e-06
-1.3599e-06 -2.42436e-06 -4.43852e-05
0.000965228 -1.68389e-06 1.32104e-07
-1.68389e-06 3.38937e-05 -1.45422e-08
1.32104e-07 -1.45422e-08 -2.50051e-05
0.000981747 2.11248e-05 5.40786e-07
2.11248e-05 4.49624e-05 1.10471e-06
5.40786e-07 1.10471e-06 -2.48392e-05
0.000840221 -2.09263e-05 -2.53872e-06
-2.09263e-05 -2.83936e-05 -3.51585e-06
-2.53872e-06 -3.51585e-06 -3.56955e-05
0.000890573 -1.7697e-05 -1.7822e-07
-1.7697e-05 -3.54237e-06 -1.05107e-08
-1.7822e-07 -1.05107e-08 -3.91334e-05
0.000964894 -1.30765e-06 5.89594e-07
-1.30765e-06 3.30631e-05 1.41497e-06
5.89594e-07 1.41497e-06 -2.23738e-05
0.00234252 -2.71925e-05 -1.67327e-05
-2.71925e-05 0.000740294 -3.9846e-06
-1.67327e-05 -3.9846e-06 0.000759341
0.00083361 -1.85132e-05 -1.30511e-07
-1.85132e-05 -3.57414e-05 -1.13754e-08
-1.30511e-07 -1.13754e-08 -4.1349e-05
0.00090653 -1.27571e-05 8.30933e-07
-1.27571e-05 2.48219e-06 1.91629e-06
8.30933e-07 1.91629e-06 -3.10041e-05
0.0022945 -2.29338e-05 -9.5636e-07
-2.29338e-05 0.000710316 4.92232e-08
-9.5636e-07 4.92232e-08 0.000730826
0.000826308 -1.60295e-05 1.19986e-06
-1.60295e-05 -4.38184e-05 3.38442e-06
1.19986e-06 3.38442e-06 -4.73929e-05
0.00222372 -1.82554e-05 1.05603e-05
-1.82554e-05 0.000669153 3.90488e-06
1.05603e-05 3.90488e-06 0.000691258
0.000247053 -2.89453e-05 2.17455e-06
-2.89453e-05 -0.000141761 2.50718e-07
2.17455e-06 2.50718e-07 -0.000166129
0.000571912 1.02878e-05 -3.58348e-07
1.02878e-05 -4.5464e-05 -8.89598e-07
-3.58348e-07 -8.89598e-07 -0.000125826
0.000946042 9.21524e-06 1.18461e-05
9.21524e-06 7.08904e-05 -1.18593e-06
1.18461e-05 -1.18593e-06 -5.33473e-05
0.00102126 4.44752e-05 -4.63241e-08
4.44752e-05 7.39304e-05 2.66414e-07
-4.63241e-08 2.66414e-07 -5.15534e-06
0.00115581 6.22219e-05 -7.60465e-07
6.22219e-05 0.000147266 2.79687e-07
-7.60465e-07 2.79687e-07 6.80782e-05
0.00105767 5.48048e-05 -7.85786e-07
5.48048e-05 9.18439e-05 -3.40044e-07
-7.85786e-07 -3.40044e-07 9.85226e-06
0.00111074 1.15671e-05 -1.95835e-08
1.15671e-05 0.000112686 3.38912e-07
-1.95835e-08 3.38912e-07 4.02256e-05
0.00109005 3.57714e-05 4.85891e-07
3.57714e-05 0.000105477 8.62582e-07
4.85891e-07 8.62582e-07 2.85925e-05
0.000972454 2.50784e-05 1.57487e-07
2.50784e-05 4.28098e-05 1.39388e-06
1.57487e-07 1.39388e-06 -3.53973e-05
0.000972875 3.13288e-05 -2.1501e-07
3.13288e-05 4.83776e-05 4.36153e-08
-2.1501e-07 4.36153e-08 -3.17356e-05
0.00104253 4.0717e-05 1.35381e-07
4.0717e-05 8.25181e-05 4.08618e-08
1.35381e-07 4.08618e-08 7.77657e-07
0.00107143 4.70035e-05 -9.36072e-07
4.70035e-05 0.000109298 -1.38249e-06
-9.36072e-07 -1.38249e-06 2.22459e-05
0.000883301 4.06439e-05 -8.52172e-07
4.06439e-05 8.72497e-06 -2.04232e-06
-8.52172e-07 -2.04232e-06 -7.44652e-05
0.00104264 4.00098e-05 1.70779e-07
4.00098e-05 8.62408e-05 3.24304e-07
1.70779e-07 3.24304e-07 6.19154e-06
0.0012146 3.71398e-05 2.99859e-07
3.71398e-05 0.000173702 1.35278e-09
2.99859e-07 1.35278e-09 9.17234e-05
-0.00300126 -0.000117957 3.97595e-05
-0.000117957 -0.00158368 2.62542e-05
3.97595e-05 2.62542e-05 -0.00158343
0.0010216 -8.98856e-05 6.82741e-07
-8.98856e-05 0.000194674 -1.41685e-07
6.82741e-07 -1.41685e-07 0.000342891
0.000609714 1.16431e-05 8.5979e-06
1.16431e-05 -0.000136673 9.34532e-07
8.5979e-06 9.34532e-07 -0.000200642
-0.000417547 -0.00018603 -1.4059e-06
-0.00018603 -0.000861915 -8.87115e-06
-1.4059e-06 -8.87115e-06 -0.000453373
0.00397819 -0.000326705 -1.70001e-05
-0.000326705 0.00105535 -5.41758e-05
-1.70001e-05 -5.41758e-05 0.00118966
0.00501394 -8.99245e-05 3.8287e-05
-8.99245e-05 0.000730774 2.90282e-05
3.8287e-05 2.90282e-05 0.000201375
0.000890599 -5.43434e-05 -3.37436e-05
-5.43434e-05 -1.37969e-05 7.03985e-05
-3.37436e-05 7.03985e-05 -0.000566955
0.00204261 0.000115738 -3.82401e-05
0.000115738 0.000230954 -2.74358e-05
-3.82401e-05 -2.74358e-05 -0.000173983
0.00265 -0.00029022 -1.42585e-06
-0.00029022 0.000810632 -4.47541e-07
-1.42585e-06 -4.47541e-07 0.000861853
0.00308193 -0.000103646 3.16108e-05
-0.000103646 9.95004e-05 4.36196e-05
3.16108e-05 4.36196e-05 -0.000681735
0.00156516 0.000146301 -7.36369e-05
0.000146301 -4.30946e-05 -8.70196e-05
-7.36369e-05 -8.70196e-05 -0.000484978
0.00322291 -9.06084e-06 -4.1266e-05
-9.06084e-06 0.00049873 -8.8292e-06
-4.1266e-05 -8.8292e-06 -0.000310848
0.00226311 0.000158129 7.9545e-06
0.000158129 0.000684446 -7.00985e-06
7.9545e-06 -7.00985e-06 0.000546266
0.000906958 7.33844e-05 -4.60153e-07
7.33844e-05 3.70735e-05 -4.41851e-07
-4.60153e-07 -4.41851e-07 -3.34749e-05
0.00132971 3.69849e-05 1.55499e-06
3.69849e-05 0.000222598 -2.12958e-07
1.55499e-06 -2.12958e-07 0.000147562
-0.000410632 -1.14897e-05 -1.34224e-05
-1.14897e-05 -0.000306643 -7.16918e-06
-1.34224e-05 -7.16918e-06 -0.00046333
0.00163735 5.76002e-05 1.87425e-06
5.76002e-05 0.000455674 -1.20814e-06
1.87425e-06 -1.20814e-06 0.00032812
0.000910184 0.0001119 6.20715e-06
0.0001119 0.000153363 1.27289e-06
6.20715e-06 1.27289e-06 1.57893e-05
-4.87683e-07 0.000115227 2.16864e-05
0.000115227 -0.000437469 1.95589e-05
2.16864e-05 1.95589e-05 -0.000564014
-0.000958482 -2.35277e-05 6.72399e-05
-2.35277e-05 -0.000725753 -5.94778e-06
6.72399e-05 -5.94778e-06 -0.00068841
0.000683657 -1.15171e-05 -7.30725e-06
-1.15171e-05 8.68013e-05 5.94309e-07
-7.30725e-06 5.94309e-07 5.76045e-05
-0.000149761 -2.06678e-06 1.43155e-05
-2.06678e-06 -0.000501873 -1.1961e-06
1.43155e-05 -1.1961e-06 -0.000601778
0.00201664 -8.60827e-05 -3.40336e-05
-8.60827e-05 0.000647598 6.7804e-07
-3.40336e-05 6.7804e-07 0.000576764
0.00149345 -0.000124172 -3.86083e-05
-0.000124172 -0.000117715 -6.74754e-06
-3.86083e-05 -6.74754e-06 -0.00030513
0.00106818 1.8715e-05 -6.77617e-06
1.8715e-05 0.000270179 -1.62698e-06
-6.77617e-06 -1.62698e-06 0.000272261
0.00240096 0.00025815 1.47741e-05
0.00025815 0.000221534 -2.98722e-05
1.47741e-05 -2.98722e-05 -0.000719298
0.00417585 0.000211455 -9.70925e-05
0.000211455 0.00186932 2.31401e-05
-9.70925e-05 2.31401e-05 0.00182708
0.00150811 -0.000129489 1.22189e-05
-0.000129489 9.55774e-05 -8.90123e-07
1.22189e-05 -8.90123e-07 0.00013245
-0.000317991 9.85933e-05 -2.97165e-05
9.85933e-05 -0.000400289 2.69732e-06
-2.97165e-05 2.69732e-06 -0.00046085
0.00315002 0.000172957 -6.91206e-06
0.000172957 0.000560429 7.83014e-06
-6.91206e-06 7.83014e-06 -0.000303252
0.00143101 1.69795e-05 -8.12708e-06
1.69795e-05 -0.000262199 4.12229e-06
-8.12708e-06 4.12229e-06 -0.000298076
-0.000237645 -7.87946e-05 1.25997e-06
-7.87946e-05 -0.000799089 6.42309e-06
1.25997e-06 6.42309e-06 -0.000726054
0.00496485 9.44532e-05 1.85373e-05
9.44532e-05 0.00142086 6.424e-06
1.85373e-05 6.424e-06 0.000736642
0.00148641 7.8439e-05 -1.07359e-06
7.8439e-05 0.000144999 -1.88366e-06
-1.07359e-06 -1.88366e-06 -0.000101822
-0.00068468 -9.2283e-05 1.24709e-06
-9.2283e-05 -0.000790812 -5.45681e-06
1.24709e-06 -5.45681e-06 -0.000993911
0.00158334 -0.00016112 -1.86771e-07
-0.00016112 0.000161894 -5.0177e-07
-1.86771e-07 -5.0177e-07 3.2175e-05
0.00123706 -0.00014124 -1.49943e-05
-0.00014124 -0.000211224 9.19074e-06
-1.49943e-05 9.19074e-06 -0.000295377
0.00124941 -0.000113297 -2.52091e-06
-0.000113297 9.54671e-05 -2.53989e-06
-2.52091e-06 -2.53989e-06 -4.93131e-05
0.00148373 -0.000113755 -2.69623e-06
-0.000113755 6.41172e-05 6.3354e-07
-2.69623e-06 6.3354e-07 -3.36293e-05
0.00218172 -0.000101736 -7.36211e-06
-0.000101736 0.000305921 3.25256e-06
-7.36211e-06 3.25256e-06 0.000258837
0.00113246 -9.20765e-05 1.92977e-06
-9.20765e-05 1.96421e-05 -9.43785e-07
1.92977e-06 -9.43785e-07 -9.84786e-05
0.00142783 -8.56627e-05 -4.61333e-07
-8.56627e-05 6.87288e-05 -5.01149e-07
-4.61333e-07 -5.01149e-07 -1.37747e-05
0.00165588 -7.52208e-05 -1.24126e-06
-7.52208e-05 0.000101709 -5.55981e-07
-1.24126e-06 -5.55981e-07 5.48848e-05
0.00109483 -7.62442e-05 1.51986e-06
-7.62442e-05 -2.15718e-05 -1.46197e-08
1.51986e-06 -1.46197e-08 -0.000126696
0.00134069 -7.33576e-05 1.64577e-07
-7.33576e-05 3.49108e-05 2.24085e-07
1.64577e-07 2.24085e-07 -4.10635e-05
0.0013717 -6.61208e-05 -5.00374e-07
-6.61208e-05 1.61048e-05 -6.03313e-07
-5.00374e-07 -6.03313e-07 -3.89075e-05
0.00162482 -6.65007e-05 -4.43593e-07
-6.65007e-05 0.000179775 -5.2129e-07
-4.43593e-07 -5.2129e-07 0.000117585
0.00140664 -6.97379e-05 -6.90243e-07
-6.97379e-05 8.93316e-05 1.33363e-06
-6.90243e-07 1.33363e-06 1.70735e-05
0.00135589 -7.02146e-05 -7.28531e-07
-7.02146e-05 8.91239e-05 -2.23729e-06
-7.28531e-07 -2.23729e-06 1.08237e-05
0.00129194 -7.36193e-05 -1.62007e-06
-7.36193e-05 0.00010894 3.2835e-07
-1.62007e-06 3.2835e-07 1.92449e-05
0.00137831 -7.8406e-05 7.10002e-07
-7.8406e-05 0.000136763 -2.96985e-07
7.10002e-07 -2.96985e-07 4.21788e-05
0.00128295 -7.37031e-05 2.1248e-06
-7.37031e-05 6.5385e-05 1.47414e-06
2.1248e-06 1.47414e-06 -2.67316e-05
0.000861329 -6.14132e-05 -1.44768e-06
-6.14132e-05 -4.4512e-05 1.83292e-06
-1.44768e-06 1.83292e-06 -0.000129927
0.00107458 -6.99015e-05 9.38445e-08
-6.99015e-05 4.85499e-05 -7.15885e-08
9.38445e-08 -7.15885e-08 -4.4211e-05
0.00138987 -8.14192e-05 2.30409e-06
-8.14192e-05 0.000189559 -2.27979e-06
2.30409e-06 -2.27979e-06 8.83304e-05
0.000989128 -4.9825e-05 -9.5188e-07
-4.9825e-05 5.32727e-05 4.05162e-07
-9.5188e-07 4.05162e-07 -1.91642e-05
0.00108193 -6.509e-05 6.94175e-08
-6.509e-05 9.07648e-05 -1.73196e-07
6.94175e-08 -1.73196e-07 9.96642e-06
0.000839485 -6.20659e-05 4.61103e-07
-6.20659e-05 -3.78725e-05 -2.1252e-06
4.61103e-07 -2.1252e-06 -0.000128212
0.000886298 -3.69102e-06 -2.54518e-06
-3.69102e-06 2.17373e-05 1.80023e-06
-2.54518e-06 1.80023e-06 -3.44565e-05
0.00102297 -4.46501e-05 -6.72495e-08
-4.46501e-05 7.55036e-05 1.01182e-08
-6.72495e-08 1.01182e-08 4.62895e-06
0.00109759 -6.18502e-05 4.93752e-07
-6.18502e-05 0.000106895 -2.70793e-07
4.93752e-07 -2.70793e-07 2.8739e-05
0.000734323 3.30023e-05 -3.95437e-06
3.30023e-05 -5.26791e-05 3.58696e-06
-3.95437e-06 3.58696e-06 -7.05747e-05
0.000890988 8.29222e-06 -1.85626e-08
8.29222e-06 1.84608e-05 1.7726e-08
-1.85626e-08 1.7726e-08 -3.36003e-05
0.00102648 -2.41502e-05 1.30745e-06
-2.41502e-05 8.0947e-05 -3.0483e-07
1.30745e-06 -3.0483e-07 1.08017e-05
0.00251558 4.43841e-05 -2.31432e-05
4.43841e-05 0.000854499 3.59671e-06
-2.31432e-05 3.59671e-06 0.000867401
0.000786557 2.98189e-05 -5.45344e-09
2.98189e-05 -3.44998e-05 -1.17176e-08
-5.45344e-09 -1.17176e-08 -4.90465e-05
0.000889147 3.96143e-06 2.49902e-06
3.96143e-06 1.01058e-05 -2.07294e-06
2.49902e-06 -2.07294e-06 -3.62495e-05
0.00173294 3.50225e-05 8.76904e-06
3.50225e-05 0.000448017 -9.93641e-07
8.76904e-06 -9.93641e-07 0.000459061
0.000819987 2.70734e-05 3.6505e-06
2.70734e-05 -2.41421e-05 -3.50795e-06
3.6505e-06 -3.50795e-06 -3.60241e-05
0.00238504 3.55404e-05 2.06445e-05
3.55404e-05 0.000776432 -3.80394e-06
2.06445e-05 -3.80394e-06 0.000792523
0.00105574 4.92488e-05 -4.14726e-07
4.92488e-05 9.25439e-05 4.16434e-07
-4.14726e-07 4.16434e-07 1.78728e-05
0.00102112 3.78612e-05 1.53604e-07
3.78612e-05 7.16089e-05 4.13283e-07
1.53604e-07 4.13283e-07 -2.51054e-06
0.000967324 -1.76608e-07 -1.12152e-06
-1.76608e-07 4.42824e-05 -1.21801e-06
-1.12152e-06 -1.21801e-06 -2.22752e-05
0.00101523 3.0007e-05 5.36138e-07
3.0007e-05 6.59655e-05 8.94189e-07
5.36138e-07 8.94189e-07 -6.4793e-06
0.000973889 -6.52364e-06 -1.78132e-08
-6.52364e-06 4.26533e-05 4.73996e-08
-1.78132e-08 4.73996e-08 -2.00862e-05
0.000874385 -1.51415e-05 -1.91321e-06
-1.51415e-05 -3.42723e-06 -2.51773e-06
-1.91321e-06 -2.51773e-06 -4.53537e-05
0.00082953 -2.36135e-05 -2.96969e-06
-2.36135e-05 -2.9016e-05 -3.65646e-06
-2.96969e-06 -3.65646e-06 -3.80609e-05
0.000887163 -1.85888e-05 -1.95444e-07
-1.85888e-05 -2.49208e-06 -4.47464e-08
-1.95444e-07 -4.47464e-08 -4.04908e-05
0.000965169 -1.14559e-05 2.99941e-07
-1.14559e-05 3.37778e-05 1.6717e-06
2.99941e-07 1.6717e-06 -2.46502e-05
0.0023685 -3.12896e-05 -1.88029e-05
-3.12896e-05 0.000758916 -3.90717e-06
-1.88029e-05 -3.90717e-06 0.000776725
0.000825369 -2.07076e-05 -1.67754e-07
-2.07076e-05 -3.56672e-05 1.16698e-08
-1.67754e-07 1.16698e-08 -4.29124e-05
0.000900922 -1.16493e-05 1.4229e-06
-1.16493e-05 1.23134e-06 2.0933e-06
1.4229e-06 2.0933e-06 -3.41473e-05
0.00234665 -2.72828e-05 -7.91395e-07
-2.72828e-05 0.00074186 5.42164e-08
-7.91395e-07 5.42164e-08 0.000761014
0.000817449 -1.83569e-05 1.68041e-06
-1.83569e-05 -4.37644e-05 3.45241e-06
1.68041e-06 3.45241e-06 -4.93023e-05
0.00229037 -2.2926e-05 1.2914e-05
-2.2926e-05 0.000707669 3.92854e-06
1.2914e-05 3.92854e-06 0.000728347
0.000290237 4.99914e-05 0.000101798
4.99914e-05 -0.000198617 1.15808e-05
0.000101798 1.15808e-05 -0.000397087
0.00147093 -3.96484e-05 4.04456e-06
-3.96484e-05 0.00055442 2.11504e-07
4.04456e-06 2.11504e-07 0.00055141
0.000562958 1.26185e-05 1.27383e-05
1.26185e-05 -5.29415e-05 2.20914e-06
1.27383e-05 2.20914e-06 -0.000132986
0.000997541 4.22039e-05 1.09293e-06
4.22039e-05 6.13201e-05 6.90603e-07
1.09293e-06 6.90603e-07 -1.79537e-05
0.00101124 4.56892e-05 5.54523e-07
4.56892e-05 6.94049e-05 1.11001e-07
5.54523e-07 1.11001e-07 -1.23639e-05
0.00106985 5.99096e-05 -6.71361e-08
5.99096e-05 0.000106071 -5.19793e-08
-6.71361e-08 -5.19793e-08 2.73536e-05
0.00113718 6.48948e-05 -3.02398e-07
6.48948e-05 0.00014211 2.28284e-07
-3.02398e-07 2.28284e-07 6.26498e-05
0.00108263 5.8144e-05 -1.66979e-06
5.8144e-05 0.000113647 -6.45356e-08
-1.66979e-06 -6.45356e-08 3.08584e-05
0.00101419 3.46301e-05 3.92646e-07
3.46301e-05 6.903e-05 1.23509e-06
3.92646e-07 1.23509e-06 -1.11867e-05
0.00102634 4.43337e-05 1.0545e-06
4.43337e-05 7.5184e-05 1.08633e-06
1.0545e-06 1.08633e-06 -6.82865e-06
0.000951333 5.32826e-05 -4.25111e-07
5.32826e-05 5.12355e-05 -3.79965e-07
-4.25111e-07 -3.79965e-07 -3.59748e-05
0.000522911 4.80511e-05 -1.43339e-06
4.80511e-05 -0.000157897 4.15798e-07
-1.43339e-06 4.15798e-07 -0.000242647
0.000820044 5.64274e-05 -1.66936e-06
5.64274e-05 -1.81061e-05 -1.52802e-06
-1.66936e-06 -1.52802e-06 -0.000106822
0.00183658 0.000108543 7.7056e-07
0.000108543 0.000443763 -4.20569e-06
7.7056e-07 -4.20569e-06 0.000340748
0.00106188 4.60697e-05 -1.49147e-06
4.60697e-05 0.000107525 -7.2402e-09
-1.49147e-06 -7.2402e-09 2.24191e-05
0.00103283 3.57711e-05 6.2385e-07
3.57711e-05 8.45109e-05 8.44446e-07
6.2385e-07 8.44446e-07 2.58264e-06
0.00751813 -0.000108235 -8.11645e-06
-0.000108235 0.00209323 -1.00232e-05
-8.11645e-06 -1.00232e-05 0.00139616
-0.000197857 -0.000146351 4.90098e-06
-0.000146351 -0.00037568 5.21373e-06
4.90098e-06 5.21373e-06 -0.000450406
0.00209059 -9.85136e-05 -1.15548e-05
-9.85136e-05 0.000773562 -6.01225e-06
-1.15548e-05 -6.01225e-06 0.000919771
-0.00213501 -0.00017571 -2.96619e-05
-0.00017571 -0.00137843 -2.71003e-05
-2.96619e-05 -2.71003e-05 -0.00122513
0.00778021 -0.000249674 6.36154e-05
-0.000249674 0.00219617 4.39993e-05
6.36154e-05 4.39993e-05 0.00114773
0.00170238 9.93197e-05 3.14085e-05
9.93197e-05 0.000331938 1.2626e-05
3.14085e-05 1.2626e-05 9.6102e-05
0.0016514 0.000140758 -2.95417e-05
0.000140758 8.19897e-05 -2.45614e-05
-2.95417e-05 -2.45614e-05 -0.000252174
0.00531967 -0.000190645 2.67375e-05
-0.000190645 0.00133345 1.69233e-05
2.67375e-05 1.69233e-05 0.000646054
0.0013815 6.64655e-05 -3.92452e-05
6.64655e-05 -9.79728e-05 -4.80906e-05
-3.92452e-05 -4.80906e-05 -0.000406866
0.00222744 0.00018799 1.7606e-05
0.00018799 0.000460329 8.45439e-06
1.7606e-05 8.45439e-06 0.000303125
0.000898348 0.000106348 -1.89741e-07
0.000106348 6.27393e-05 -4.96285e-06
-1.89741e-07 -4.96285e-06 -8.72655e-05
0.000897044 5.66154e-05 6.23107e-07
5.66154e-05 2.1064e-05 2.43493e-06
6.23107e-07 2.43493e-06 -4.50818e-05
0.00196651 0.000148463 -2.27791e-05
0.000148463 0.000640742 -1.92524e-05
-2.27791e-05 -1.92524e-05 0.000516205
-8.33921e-07 0.000133693 -3.58201e-06
0.000133693 -0.000525141 1.3461e-05
-3.58201e-06 1.3461e-05 -0.000635711
0.000465675 2.81076e-05 -9.5252e-07
2.81076e-05 -0.000592211 -5.12715e-06
-9.5252e-07 -5.12715e-06 -0.00107468
0.00154475 4.74721e-06 -7.0841e-08
4.74721e-06 0.000364168 3.11853e-06
-7.0841e-08 3.11853e-06 0.000255795
-0.00112593 -6.0773e-06 -6.26297e-06
-6.0773e-06 -0.000955982 -2.46347e-07
-6.26297e-06 -2.46347e-07 -0.00100563
0.00264819 -0.000156858 -3.58696e-05
-0.000156858 0.000647459 -4.139e-07
-3.58696e-05 -4.139e-07 0.000677768
0.00160284 9.44759e-06 3.09613e-05
9.44759e-06 -0.000539837 -2.68341e-05
3.09613e-05 -2.68341e-05 -0.00067701
0.000388778 -1.10093e-06 -0.000115252
-1.10093e-06 -0.000205849 2.2394e-05
-0.000115252 2.2394e-05 -0.000391615
0.00576184 0.000292167 -2.14529e-05
0.000292167 0.0018922 7.16692e-06
-2.14529e-05 7.16692e-06 0.00105034
0.0010574 -0.00010679 1.19178e-06
-0.00010679 -0.000170466 -2.37823e-06
1.19178e-06 -2.37823e-06 -0.000110257
0.00480098 0.000172837 2.81984e-05
0.000172837 0.00136343 2.99954e-06
2.81984e-05 2.99954e-06 0.000756427
0.00226364 8.55936e-05 2.89742e-05
8.55936e-05 0.000141772 -7.21714e-06
2.89742e-05 -7.21714e-06 -0.000152111
0.00258434 -6.45803e-05 -6.7408e-06
-6.45803e-05 0.000481034 2.18773e-06
-6.7408e-06 2.18773e-06 0.000481011
0.000976417 6.73377e-05 -3.08104e-05
6.73377e-05 0.000186803 9.67186e-06
-3.08104e-05 9.67186e-06 -5.89124e-05
0.00131883 -0.000149015 8.22997e-06
-0.000149015 6.16172e-05 -6.58652e-06
8.22997e-06 -6.58652e-06 -7.27717e-05
0.00169282 -0.000145775 -3.96939e-06
-0.000145775 2.16371e-05 1.14535e-06
-3.96939e-06 1.14535e-06 -5.77123e-05
0.002081 -9.41624e-05 -1.37291e-05
-9.41624e-05 8.55107e-05 2.54937e-06
-1.37291e-05 2.54937e-06 4.67383e-05
0.000857667 -0.000100694 3.95742e-06
-0.000100694 -0.000243917 -1.90199e-06
3.95742e-06 -1.90199e-06 -0.000339213
0.00151438 -9.04256e-05 2.26238e-06
-9.04256e-05 -8.23933e-06 1.17543e-06
2.26238e-06 1.17543e-06 -5.31237e-05
0.0017173 -6.32968e-05 -2.02126e-06
-6.32968e-05 4.70409e-05 4.28022e-06
-2.02126e-06 4.28022e-06 2.32603e-05
0.00108749 -7.84115e-05 1.76505e-06
-7.84115e-05 -0.000105986 1.63523e-06
1.76505e-06 1.63523e-06 -0.00018638
0.00146459 -7.3145e-05 3.76218e-08
-7.3145e-05 7.97408e-06 1.73522e-06
3.76218e-08 1.73522e-06 -3.95201e-05
0.00154599 -6.04831e-05 9.52001e-07
-6.04831e-05 3.78131e-05 2.52248e-06
9.52001e-07 2.52248e-06 -1.65469e-06
0.00123543 -7.09139e-05 2.4532e-06
-7.09139e-05 -1.9664e-05 2.45667e-06
2.4532e-06 2.45667e-06 -9.49153e-05
0.00141124 -6.74084e-05 8.76083e-08
-6.74084e-05 3.70523e-05 1.09233e-06
8.76083e-08 1.09233e-06 -1.90335e-05
0.00147334 -5.98693e-05 2.01504e-07
-5.98693e-05 6.68586e-05 5.04824e-07
2.01504e-07 5.04824e-07 1.27533e-05
0.00143566 -6.38674e-05 -1.26081e-06
-6.38674e-05 8.71869e-05 1.08011e-06
-1.26081e-06 1.08011e-06 2.70647e-05
0.00159092 -6.5633e-05 1.04718e-06
-6.5633e-05 0.00017893 -1.34805e-06
1.04718e-06 -1.34805e-06 0.000110654
0.00141167 -6.83354e-05 1.55543e-06
-6.83354e-05 9.1763e-05 3.35468e-06
1.55543e-06 3.35468e-06 2.15419e-05
0.00136855 -6.9904e-05 9.32137e-08
-6.9904e-05 9.49565e-05 -4.82536e-07
9.32137e-08 -4.82536e-07 1.63219e-05
0.00134871 -6.79763e-05 -6.67302e-07
-6.79763e-05 0.000100405 -7.75958e-07
-6.67302e-07 -7.75958e-07 1.96297e-05
0.000970006 -6.2694e-05 -1.78136e-06
-6.2694e-05 -2.9622e-05 1.17071e-06
-1.78136e-06 1.17071e-06 -0.000114832
0.00128501 -7.30237e-05 4.31668e-08
-7.30237e-05 0.000106679 -1.43691e-07
4.31668e-08 -1.43691e-07 1.65359e-05
0.00145485 -7.9651e-05 2.14238e-06
-7.9651e-05 0.0001764 -3.13809e-07
2.14238e-06 -3.13809e-07 8.17519e-05
0.00102764 -5.65459e-05 -1.3249e-06
-5.65459e-05 5.6623e-05 1.07372e-06
-1.3249e-06 1.07372e-06 -1.88309e-05
0.000940577 -6.32448e-05 -4.10724e-07
-6.32448e-05 -2.63393e-06 4.72803e-07
-4.10724e-07 4.72803e-07 -8.7481e-05
0.00129744 -7.53051e-05 1.42309e-06
-7.53051e-05 0.00016065 -1.62605e-06
1.42309e-06 -1.62605e-06 6.88978e-05
0.000838252 -6.57511e-06 -2.29659e-06
-6.57511e-06 -8.64206e-07 1.48566e-06
-2.29659e-06 1.48566e-06 -5.99606e-05
0.00103679 -5.16459e-05 -1.37675e-08
-5.16459e-05 7.5539e-05 -1.21307e-07
-1.37675e-08 -1.21307e-07 3.0081e-06
0.00112204 -6.57766e-05 5.9124e-07
-6.57766e-05 0.000109652 -1.12392e-06
5.9124e-07 -1.12392e-06 2.87372e-05
0.000691056 3.67297e-05 -3.76324e-06
3.67297e-05 -6.6e-05 3.70842e-06
-3.76324e-06 3.70842e-06 -8.82121e-05
0.000896017 -5.64475e-06 -8.05117e-09
-5.64475e-06 2.44968e-05 1.1715e-07
-8.05117e-09 1.1715e-07 -3.13431e-05
0.0010526 -4.58218e-05 1.23652e-06
-4.58218e-05 8.91303e-05 -2.07235e-07
1.23652e-06 -2.07235e-07 1.83685e-05
0.00258782 4.93369e-05 -2.41631e-05
4.93369e-05 0.000898302 3.47769e-06
-2.41631e-05 3.47769e-06 0.000909234
0.000763968 3.43573e-05 -2.16915e-08
3.43573e-05 -3.66966e-05 -4.68853e-08
-2.16915e-08 -4.68853e-08 -5.50072e-05
0.000884747 -4.17258e-06 2.52529e-06
-4.17258e-06 1.33454e-05 -1.78717e-06
2.52529e-06 -1.78717e-06 -3.80906e-05
0.0025109 4.44878e-05 2.32985e-07
4.44878e-05 0.000852971 7.20614e-08
2.32985e-07 7.20614e-08 0.000865671
0.000807968 3.0921e-05 3.7535e-06
3.0921e-05 -2.29804e-05 -3.56213e-06
3.7535e-06 -3.56213e-06 -3.78608e-05
0.00245074 3.99543e-05 2.23571e-05
3.99543e-05 0.000816433 -3.72199e-06
2.23571e-05 -3.72199e-06 0.000830724
0.00106209 5.43491e-05 -6.04335e-07
5.43491e-05 0.000100123 6.70772e-08
-6.04335e-07 6.70772e-08 2.32019e-05
0.00102084 4.83166e-05 2.83206e-07
4.83166e-05 7.5858e-05 1.42768e-07
2.83206e-07 1.42768e-07 1.21647e-06
0.00090613 9.35855e-08 -1.46666e-06
9.35855e-08 1.54644e-05 -6.82571e-07
-1.46666e-06 -6.82571e-07 -5.33905e-05
0.000972086 2.98644e-05 1.10151e-06
2.98644e-05 4.53803e-05 1.07769e-06
1.10151e-06 1.07769e-06 -2.86726e-05
0.000945335 -3.76924e-06 -8.42444e-08
-3.76924e-06 3.27194e-05 1.98894e-07
-8.42444e-08 1.98894e-07 -3.39738e-05
0.000876404 -9.87084e-06 -2.30809e-06
-9.87084e-06 1.35783e-06 -2.24467e-06
-2.30809e-06 -2.24467e-06 -4.53187e-05
0.000968764 -7.95343e-06 7.17306e-07
-7.95343e-06 4.02321e-05 1.70165e-06
7.17306e-07 1.70165e-06 -2.24756e-05
0.000884372 -1.49479e-05 -9.95325e-08
-1.49479e-05 9.32576e-07 -7.10385e-08
-9.95325e-08 -7.10385e-08 -4.08619e-05
0.000819466 -2.70776e-05 -3.38275e-06
-2.70776e-05 -2.74089e-05 -3.78592e-06
-3.38275e-06 -3.78592e-06 -3.90958e-05
0.00239325 -3.53885e-05 -2.05421e-05
-3.53885e-05 0.0007776 -3.84374e-06
-2.05421e-05 -3.84374e-06 0.000794041
0.000817652 -2.31726e-05 -7.2928e-08
-2.31726e-05 -3.4853e-05 -8.35666e-09
-7.2928e-08 -8.35666e-09 -4.38037e-05
0.000892964 -1.674e-05 1.36777e-06
-1.674e-05 -1.08125e-07 2.32707e-06
1.36777e-06 2.32707e-06 -3.79061e-05
0.00238351 -3.1429e-05 -6.8424e-07
-3.1429e-05 0.000765932 6.51476e-08
-6.8424e-07 6.51476e-08 0.000783803
0.000811272 -2.04913e-05 2.16244e-06
-2.04913e-05 -4.25954e-05 3.54588e-06
2.16244e-06 3.54588e-06 -4.9782e-05
0.00234933 -2.73318e-05 1.54678e-05
-2.73318e-05 0.000742686 3.93078e-06
1.54678e-05 3.93078e-06 0.000761957
0.00577945 1.53411e-07 2.89504e-05
1.53411e-07 0.00170815 4.73309e-07
2.89504e-05 4.73309e-07 0.00115979
-0.000803109 -3.3747e-05 1.3209e-05
-3.3747e-05 -0.000496179 1.05282e-06
1.3209e-05 1.05282e-06 -0.000511828
0.00018217 -2.59766e-05 -3.09142e-07
-2.59766e-05 -0.000216478 -1.20774e-07
-3.09142e-07 -1.20774e-07 -0.000240952
0.000995098 3.94797e-05 1.40294e-06
3.94797e-05 6.26374e-05 5.78423e-07
1.40294e-06 5.78423e-07 -1.9335e-05
0.000988027 5.76847e-05 6.9491e-07
5.76847e-05 6.69017e-05 2.13729e-08
6.9491e-07 2.13729e-08 -1.13486e-05
0.0011244 6.05622e-05 1.79677e-07
6.05622e-05 0.000134828 -4.21859e-08
1.79677e-07 -4.21859e-08 5.20522e-05
0.00108503 6.357e-05 -3.53502e-07
6.357e-05 0.000116269 -1.84175e-07
-3.53502e-07 -1.84175e-07 3.68096e-05
0.00112288 6.61942e-05 2.26051e-06
6.61942e-05 0.000137932 8.13975e-07
2.26051e-06 8.13975e-07 5.5415e-05
0.000819737 5.64208e-05 -1.70341e-06
5.64208e-05 -9.61214e-06 6.61832e-07
-1.70341e-06 6.61832e-07 -9.11276e-05
0.000814063 4.96277e-05 1.07769e-06
4.96277e-05 -1.72124e-05 8.59833e-07
1.07769e-06 8.59833e-07 -0.000103701
0.000787699 5.58239e-05 6.27427e-07
5.58239e-05 -2.68745e-05 -1.32925e-07
6.27427e-07 -1.32925e-07 -0.000113373
0.000843441 5.43974e-05 8.09953e-07
5.43974e-05 1.91401e-06 9.564e-08
8.09953e-07 9.564e-08 -8.80238e-05
0.000459931 5.68448e-05 -1.22725e-07
5.68448e-05 -0.000209534 2.19799e-08
-1.22725e-07 2.19799e-08 -0.000295908
0.0026246 0.000127703 9.12453e-08
0.000127703 0.000813156 -8.91087e-07
9.12453e-08 -8.91087e-07 0.000716829
0.0018147 0.000124967 6.32788e-07
0.000124967 0.000307822 -3.94681e-06
6.32788e-07 -3.94681e-06 0.000189317
0.00123821 9.27084e-05 8.34712e-07
9.27084e-05 0.000154277 2.80375e-08
8.34712e-07 2.80375e-08 5.39141e-05
0.00121157 4.7781e-05 -1.11263e-06
4.7781e-05 0.000191922 1.13413e-06
-1.11263e-06 1.13413e-06 0.000105161
0.00110465 -5.06412e-05 -1.71695e-05
-5.06412e-05 -0.000230816 -1.8297e-05
-1.71695e-05 -1.8297e-05 -0.000366517
0.00384269 -9.97961e-05 -8.32187e-06
-9.97961e-05 0.000716031 -1.99667e-06
-8.32187e-06 -1.99667e-06 0.000134837
0.00287035 -0.00020347 -3.78973e-05
-0.00020347 0.00119702 -1.66287e-05
-3.78973e-05 -1.66287e-05 0.00113384
0.0043033 -0.000107615 0.00010615
-0.000107615 0.000900855 3.58559e-05
0.00010615 3.58559e-05 0.000112806
0.00290835 0.000167414 2.65087e-05
0.000167414 0.000768437 4.62202e-05
2.65087e-05 4.62202e-05 0.00058473
0.00113549 3.87944e-05 -1.84794e-05
3.87944e-05 -6.64944e-05 -6.36911e-06
-1.84794e-05 -6.36911e-06 -0.000209559
0.00112467 7.90929e-05 1.99623e-05
7.90929e-05 -0.000196151 1.22043e-05
1.99623e-05 1.22043e-05 -0.000248714
0.0019431 0.000185873 1.70271e-07
0.000185873 0.000321473 6.97213e-06
1.70271e-07 6.97213e-06 0.000184774
0.000277566 7.99413e-05 -1.56699e-06
7.99413e-05 -0.000230739 4.99858e-06
-1.56699e-06 4.99858e-06 -0.000377467
0.00206323 0.000208297 -5.91388e-05
0.000208297 0.000317909 -6.21754e-05
-5.91388e-05 -6.21754e-05 0.000253728
0.00213299 -3.83742e-06 -0.000113837
-3.83742e-06 0.000515014 -5.43276e-06
-0.000113837 -5.43276e-06 0.000225556
0.00554277 4.61187e-05 1.01874e-05
4.61187e-05 0.00180651 -1.51868e-06
1.01874e-05 -1.51868e-06 0.00128685
-0.00306393 -2.44929e-05 -6.37859e-05
-2.44929e-05 -0.00192707 5.81276e-06
-6.37859e-05 5.81276e-06 -0.00191199
0.00272636 -0.000137421 -1.91722e-06
-0.000137421 0.000643123 -2.61069e-06
-1.91722e-06 -2.61069e-06 0.000686099
0.00125663 8.35074e-05 3.66159e-05
8.35074e-05 -0.000265952 -8.61115e-06
3.66159e-05 -8.61115e-06 -0.000426488
0.00073081 -7.22265e-06 2.54548e-05
-7.22265e-06 -0.000353977 -1.9883e-06
2.54548e-05 -1.9883e-06 -0.000861418
0.001729 -7.76759e-05 8.011e-07
-7.76759e-05 3.02498e-05 2.76201e-06
8.011e-07 2.76201e-06 5.76579e-05
0.0013237 9.5198e-05 2.46103e-06
9.5198e-05 0.000177841 -5.2976e-06
2.46103e-06 -5.2976e-06 -2.59837e-05
0.00291508 -6.66922e-06 8.11117e-07
-6.66922e-06 0.000538617 -1.31653e-05
8.11117e-07 -1.31653e-05 0.000513341
0.000977519 5.97268e-05 5.40158e-06
5.97268e-05 -0.000181967 -1.66967e-06
5.40158e-06 -1.66967e-06 -0.000256127
0.00248376 -0.000155723 7.0782e-06
-0.000155723 0.000420375 -3.18119e-06
7.0782e-06 -3.18119e-06 0.000342775
0.00209412 -9.51141e-05 1.78003e-06
-9.51141e-05 9.10277e-05 -1.01774e-06
1.78003e-06 -1.01774e-06 5.55506e-05
0.00211759 -2.17861e-05 -2.55939e-06
-2.17861e-05 0.000200345 2.37794e-06
-2.55939e-06 2.37794e-06 0.000166016
0.00088077 -8.07151e-05 9.80987e-06
-8.07151e-05 -0.000308824 -1.53552e-06
9.80987e-06 -1.53552e-06 -0.000352179
0.00173761 -6.41661e-05 2.77952e-06
-6.41661e-05 6.84228e-05 -1.27551e-07
2.77952e-06 -1.27551e-07 4.23467e-05
0.00175087 -3.69393e-05 -3.49141e-07
-3.69393e-05 9.6751e-05 2.97107e-06
-3.49141e-07 2.97107e-06 5.14583e-05
0.00132082 -7.1639e-05 3.76853e-06
-7.1639e-05 -6.14058e-05 2.01427e-06
3.76853e-06 2.01427e-06 -0.000109855
0.00154148 -6.09359e-05 8.68284e-07
-6.09359e-05 4.34672e-05 8.12978e-07
8.68284e-07 8.12978e-07 1.90997e-06
0.00164949 -4.9236e-05 -2.01676e-07
-4.9236e-05 0.000107538 1.68045e-06
-2.01676e-07 1.68045e-06 5.2008e-05
0.00146381 -6.8773e-05 1.19088e-06
-6.8773e-05 6.45126e-05 2.14634e-06
1.19088e-06 2.14634e-06 7.30453e-06
0.00140898 -6.08306e-05 -8.44276e-08
-6.08306e-05 4.13287e-05 -3.27641e-08
-8.44276e-08 -3.27641e-08 -1.32433e-05
0.00140735 -5.77715e-05 1.60569e-06
-5.77715e-05 6.0257e-05 4.73814e-07
1.60569e-06 4.73814e-07 -6.46191e-06
0.001265 -6.14782e-05 -2.91405e-07
-6.14782e-05 3.76764e-06 2.38458e-06
-2.91405e-07 2.38458e-06 -5.43269e-05
0.00144993 -6.27062e-05 -8.70771e-07
-6.27062e-05 0.00010832 -6.11449e-07
-8.70771e-07 -6.11449e-07 4.13874e-05
0.0015538 -6.41794e-05 2.87045e-07
-6.41794e-05 0.000175708 -5.81444e-07
2.87045e-07 -5.81444e-07 0.000100624
0.00137969 -6.95713e-05 9.23708e-07
-6.95713e-05 9.99308e-05 1.15312e-06
9.23708e-07 1.15312e-06 2.09775e-05
0.00134903 -6.75305e-05 1.61664e-07
-6.75305e-05 0.000100986 -3.34859e-07
1.61664e-07 -3.34859e-07 1.9827e-05
0.00137995 -6.6183e-05 -9.13418e-07
-6.6183e-05 0.000137345 2.9952e-08
-9.13418e-07 2.9952e-08 5.72547e-05
0.00083583 -5.28608e-05 -2.31822e-06
-5.28608e-05 -6.9131e-05 1.46564e-06
-2.31822e-06 1.46564e-06 -0.000146707
0.00105588 -6.44326e-05 -3.33105e-07
-6.44326e-05 1.63288e-05 2.99736e-07
-3.33105e-07 2.99736e-07 -6.84719e-05
0.00127875 -7.24452e-05 1.43574e-06
-7.24452e-05 0.000104775 -8.49582e-07
1.43574e-06 -8.49582e-07 1.41796e-05
0.000855686 -2.16897e-05 -2.30257e-06
-2.16897e-05 2.14076e-06 1.58599e-06
-2.30257e-06 1.58599e-06 -5.96058e-05
0.00105574 -5.68758e-05 7.35657e-08
-5.68758e-05 6.99401e-05 7.85667e-09
7.35657e-08 7.85667e-09 -5.53191e-06
0.00103932 -6.56326e-05 4.49513e-07
-6.56326e-05 4.8682e-05 -7.71122e-07
4.49513e-07 -7.71122e-07 -3.56058e-05
0.000668912 3.96926e-05 -3.67993e-06
3.96926e-05 -6.81878e-05 3.60753e-06
-3.67993e-06 3.60753e-06 -9.53726e-05
0.000888411 -1.19552e-05 -1.03973e-07
-1.19552e-05 2.21158e-05 4.76209e-08
-1.03973e-07 4.76209e-08 -3.67376e-05
0.0010835 -5.3304e-05 1.27901e-06
-5.3304e-05 9.73983e-05 -7.93997e-07
1.27901e-06 -7.93997e-07 2.47712e-05
0.00269376 5.45101e-05 -2.55374e-05
5.45101e-05 0.000958907 3.38882e-06
-2.55374e-05 3.38882e-06 0.000967568
0.000739311 3.80973e-05 1.41376e-07
3.80973e-05 -4.09327e-05 2.11877e-09
1.41376e-07 2.11877e-09 -6.35181e-05
0.000902355 -7.54184e-06 2.63967e-06
-7.54184e-06 2.56305e-05 -1.48562e-06
2.63967e-06 -1.48562e-06 -2.98612e-05
0.00258972 4.93665e-05 2.24498e-07
4.93665e-05 0.000899997 7.78215e-08
2.24498e-07 7.78215e-08 0.00091066
0.000794565 3.54866e-05 3.47418e-06
3.54866e-05 -2.04326e-05 -3.62208e-06
3.47418e-06 -3.62208e-06 -3.91212e-05
0.00250676 4.45004e-05 2.36565e-05
4.45004e-05 0.000851679 -3.61035e-06
2.36565e-05 -3.61035e-06 0.000864188
0.00107305 5.96987e-05 -8.32781e-07
5.96987e-05 0.000106752 -6.04806e-07
-8.32781e-07 -6.04806e-07 2.71123e-05
0.00111208 5.6126e-05 1.52338e-07
5.6126e-05 0.000124922 1.07447e-07
1.52338e-07 1.07447e-07 4.83108e-05
0.000962063 2.27329e-05 -1.45978e-06
2.27329e-05 4.86497e-05 -4.60615e-07
-1.45978e-06 -4.60615e-07 -2.20089e-05
0.000988964 4.8592e-05 8.51824e-07
4.8592e-05 6.08242e-05 1.6427e-07
8.51824e-07 1.6427e-07 -1.38864e-05
0.000913407 3.8244e-06 -3.74796e-07
3.8244e-06 1.99503e-05 -2.64124e-08
-3.74796e-07 -2.64124e-08 -4.9172e-05
0.000876783 -1.38885e-06 -2.62632e-06
-1.38885e-06 5.92387e-06 -1.78323e-06
-2.62632e-06 -1.78323e-06 -4.56828e-05
0.000923556 -8.4623e-06 9.01391e-07
-8.4623e-06 2.18401e-05 1.38456e-06
9.01391e-07 1.38456e-06 -4.54999e-05
0.000880402 -1.11401e-05 -4.78803e-08
-1.11401e-05 3.53732e-06 -3.69525e-08
-4.78803e-08 -3.69525e-08 -4.31856e-05
0.000803206 -3.14669e-05 -3.61013e-06
-3.14669e-05 -2.8015e-05 -3.77654e-06
-3.61013e-06 -3.77654e-06 -4.31419e-05
0.000894024 -1.52493e-05 1.73227e-06
-1.52493e-05 5.16081e-06 2.56742e-06
1.73227e-06 2.56742e-06 -3.65114e-05
0.000803149 -2.62622e-05 -8.64404e-08
-2.62622e-05 -3.60191e-05 -2.49589e-08
-8.64404e-08 -2.49589e-08 -4.74537e-05
0.00245067 -3.97713e-05 -2.22436e-05
-3.97713e-05 0.000813582 -3.78231e-06
-2.22436e-05 -3.78231e-06 0.000828246
0.00241239 -3.55598e-05 -4.54197e-07
-3.55598e-05 0.000786504 6.49627e-08
-4.54197e-07 6.49627e-08 0.000803034
0.000805556 -2.27505e-05 2.77933e-06
-2.27505e-05 -4.08763e-05 3.60418e-06
2.77933e-06 3.60418e-06 -4.97216e-05
0.00239438 -3.15846e-05 1.77387e-05
-3.15846e-05 0.000770915 3.88647e-06
1.77387e-05 3.88647e-06 0.00078885
0.000831659 -2.86198e-05 -5.34105e-05
-2.86198e-05 -0.00017845 -7.41914e-06
-5.34105e-05 -7.41914e-06 -0.000341948
0.00161873 -5.15684e-05 -1.00001e-05
-5.15684e-05 -0.000123527 -5.37208e-06
-1.00001e-05 -5.37208e-06 -0.000644318
0.00316657 -0.000163338 -4.00897e-05
-0.000163338 0.00120366 -4.55793e-06
-4.00897e-05 -4.55793e-06 0.00113563
0.00118486 7.1174e-05 2.87009e-06
7.1174e-05 0.000143655 7.03067e-07
2.87009e-06 7.03067e-07 5.8574e-05
0.00114724 6.0489e-05 1.26102e-06
6.0489e-05 0.000146847 -1.05514e-07
1.26102e-06 -1.05514e-07 6.43363e-05
0.00102111 6.17957e-05 4.52768e-07
6.17957e-05 8.45436e-05 -1.56663e-07
4.52768e-07 -1.56663e-07 5.12767e-06
0.000998099 6.19729e-05 1.03079e-08
6.19729e-05 7.92311e-05 1.4461e-07
1.03079e-08 1.4461e-07 -2.85509e-06
0.00105853 6.46779e-05 -1.0563e-07
6.46779e-05 0.000107899 -3.44827e-07
-1.0563e-07 -3.44827e-07 2.48994e-05
0.00073391 5.94794e-05 -1.4478e-06
5.94794e-05 -5.99849e-05 8.02149e-07
-1.4478e-06 8.02149e-07 -0.00013705
0.00112795 6.62621e-05 2.32255e-06
6.62621e-05 0.000142657 -9.42214e-07
2.32255e-06 -9.42214e-07 5.40814e-05
0.00108892 5.72406e-05 9.66349e-07
5.72406e-05 0.00012955 1.00308e-06
9.66349e-07 1.00308e-06 3.8288e-05
0.0010183 7.32872e-05 -9.90839e-08
7.32872e-05 6.42072e-05 -1.16693e-07
-9.90839e-08 -1.16693e-07 -2.14813e-05
0.0019413 0.000108837 2.65562e-07
0.000108837 0.000489265 1.13025e-06
2.65562e-07 1.13025e-06 0.000395657
0.00153139 0.000105307 4.39717e-07
0.000105307 0.000180131 -1.85051e-06
4.39717e-07 -1.85051e-06 7.62006e-05
0.00191402 0.000107019 -4.15579e-06
0.000107019 0.000173237 -1.40226e-06
-4.15579e-06 -1.40226e-06 5.90972e-05
0.00135188 0.000111598 2.71315e-06
0.000111598 7.1974e-05 8.06415e-07
2.71315e-06 8.06415e-07 -4.56435e-05
0.000744041 7.76024e-05 -6.47189e-07
7.76024e-05 -9.12307e-05 4.31102e-06
-6.47189e-07 4.31102e-06 -0.000188794
0.00133893 -1.61164e-05 -5.47544e-06
-1.61164e-05 -0.000156139 3.97378e-06
-5.47544e-06 3.97378e-06 -0.000181367
0.00221913 -4.44871e-05 -8.88411e-07
-4.44871e-05 9.98092e-05 7.85638e-07
-8.88411e-07 7.85638e-07 -8.11514e-05
0.00092031 -0.000112792 -1.58131e-05
-0.000112792 -0.000497981 -6.35752e-06
-1.58131e-05 -6.35752e-06 -0.000994335
0.00246811 0.00010983 2.36529e-05
0.00010983 0.000153523 2.24115e-05
2.36529e-05 2.24115e-05 -9.0433e-05
0.00138527 8.1968e-05 2.08624e-06
8.1968e-05 -0.000108243 1.59883e-06
2.08624e-06 1.59883e-06 -0.000161457
0.000193593 0.000137151 -9.82953e-06
0.000137151 -0.000480848 -6.27209e-06
-9.82953e-06 -6.27209e-06 -0.000618471
0.00239286 -1.36725e-05 8.61368e-06
-1.36725e-05 0.000588279 -4.94078e-06
8.61368e-06 -4.94078e-06 0.000516058
0.000779418 -1.41851e-06 -2.27514e-05
-1.41851e-06 3.44818e-05 1.6193e-06
-2.27514e-05 1.6193e-06 -0.000181945
0.00125123 0.000133766 4.93429e-05
0.000133766 -0.000333706 -2.20058e-06
4.93429e-05 -2.20058e-06 -0.000813919
0.000828497 -8.8891e-05 -1.88592e-06
-8.8891e-05 -0.000444498 8.3385e-06
-1.88592e-06 8.3385e-06 -0.000394231
0.00183727 0.000112606 4.30892e-05
0.000112606 0.000215526 -1.56999e-05
4.30892e-05 -1.56999e-05 -1.87067e-05
0.00207054 -9.93378e-06 6.03001e-06
-9.93378e-06 9.12183e-05 -1.7201e-06
6.03001e-06 -1.7201e-06 6.55271e-05
0.00142164 6.9264e-05 2.65633e-07
6.9264e-05 4.53052e-05 -3.65011e-06
2.65633e-07 -3.65011e-06 -2.75894e-05
0.00132086 4.35102e-05 -5.03182e-06
4.35102e-05 -0.000208171 -5.12609e-07
-5.03182e-06 -5.12609e-07 -0.000280948
0.00103216 4.2641e-05 -4.82983e-06
4.2641e-05 -0.000260546 -3.65963e-06
-4.82983e-06 -3.65963e-06 -0.000352178
0.00183377 -9.22879e-05 1.21883e-05
-9.22879e-05 -3.70149e-05 -2.66773e-06
1.21883e-05 -2.66773e-06 -6.64942e-05
0.001874 -2.35639e-05 3.6477e-06
-2.35639e-05 8.44541e-05 9.65253e-07
3.6477e-06 9.65253e-07 4.52086e-05
0.00186306 7.5463e-06 -1.3311e-06
7.5463e-06 0.000165917 6.39852e-07
-1.3311e-06 6.39852e-07 9.73628e-05
0.0017533 -6.5569e-05 2.02526e-06
-6.5569e-05 8.69051e-05 -8.63621e-07
2.02526e-06 -8.63621e-07 5.79709e-05
0.00176575 -3.82452e-05 -8.11018e-08
-3.82452e-05 0.000106753 -2.44743e-07
-8.11018e-08 -2.44743e-07 5.95752e-05
0.00176971 -2.36617e-05 -5.67548e-07
-2.36617e-05 0.000143728 1.74327e-06
-5.67548e-07 1.74327e-06 7.59787e-05
0.00153004 -6.12358e-05 1.48743e-07
-6.12358e-05 4.55472e-05 -2.66325e-07
1.48743e-07 -2.66325e-07 1.94023e-06
0.00159023 -5.0793e-05 -8.58205e-07
-5.0793e-05 8.85322e-05 -1.04345e-06
-8.58205e-07 -1.04345e-06 3.35124e-05
0.00143937 -4.67493e-05 2.69203e-07
-4.67493e-05 3.68421e-05 2.02939e-06
2.69203e-07 2.02939e-06 -3.5364e-05
0.00133515 -6.16198e-05 -9.24482e-07
-6.16198e-05 1.09637e-05 -1.02482e-06
-9.24482e-07 -1.02482e-06 -4.40254e-05
0.00138731 -5.72192e-05 1.83403e-07
-5.72192e-05 5.12459e-05 -6.27486e-07
1.83403e-07 -6.27486e-07 -1.55057e-05
0.00138256 -5.76656e-05 4.4594e-07
-5.76656e-05 6.56867e-05 3.87152e-07
4.4594e-07 3.87152e-07 -9.9736e-06
0.0013064 -5.98039e-05 -1.66923e-06
-5.98039e-05 3.64206e-05 1.04702e-06
-1.66923e-06 1.04702e-06 -2.91645e-05
0.00142042 -6.08951e-05 -2.54266e-07
-6.08951e-05 0.000108414 -4.0143e-07
-2.54266e-07 -4.0143e-07 3.41352e-05
0.00134016 -5.84866e-05 -7.30593e-07
-5.84866e-05 8.98039e-05 -1.63169e-08
-7.30593e-07 -1.63169e-08 1.19888e-05
0.00134902 -6.70811e-05 9.882e-07
-6.70811e-05 0.000101367 1.1674e-07
9.882e-07 1.1674e-07 1.98286e-05
0.0012306 -6.28195e-05 2.45299e-07
-6.28195e-05 6.35494e-05 -1.86133e-07
2.45299e-07 -1.86133e-07 -1.70739e-05
0.0012229 -5.80847e-05 -1.97416e-06
-5.80847e-05 9.02275e-05 8.78084e-07
-1.97416e-06 8.78084e-07 1.38615e-05
0.00091823 -3.39013e-05 -2.77003e-06
-3.39013e-05 1.47214e-05 1.63025e-06
-2.77003e-06 1.63025e-06 -4.93101e-05
0.000933276 -5.49813e-05 -5.58617e-07
-5.49813e-05 -1.83351e-05 3.85835e-07
-5.58617e-07 3.85835e-07 -9.53753e-05
0.0011249 -6.566e-05 9.4794e-07
-6.566e-05 5.41043e-05 -6.35938e-07
9.4794e-07 -6.35938e-07 -3.02773e-05
0.000678242 2.29601e-05 -4.19991e-06
2.29601e-05 -5.72686e-05 3.63061e-06
-4.19991e-06 3.63061e-06 -8.90892e-05
0.000903033 -2.30029e-05 6.32823e-08
-2.30029e-05 2.52383e-05 5.99894e-08
6.32823e-08 5.99894e-08 -3.68291e-05
0.00108539 -5.73562e-05 1.55882e-06
-5.73562e-05 8.39714e-05 -1.09365e-06
1.55882e-06 -1.09365e-06 8.4758e-06
0.00277622 5.91555e-05 -2.72249e-05
5.91555e-05 0.00100945 3.30243e-06
-2.72249e-05 3.30243e-06 0.00101551
0.000733821 3.4365e-05 1.72665e-07
3.4365e-05 -3.71802e-05 -6.22774e-08
1.72665e-07 -6.22774e-08 -6.39949e-05
0.000931811 -1.45428e-05 2.57115e-06
-1.45428e-05 4.20789e-05 -1.5988e-06
2.57115e-06 -1.5988e-06 -1.67631e-05
0.00267387 5.40064e-05 3.68256e-07
5.40064e-05 0.000950025 1.00364e-07
3.68256e-07 1.00364e-07 0.000958409
0.000782213 3.93342e-05 3.55002e-06
3.93342e-05 -1.85986e-05 -3.51522e-06
3.55002e-06 -3.51522e-06 -4.15266e-05
0.00258559 4.9149e-05 2.51708e-05
4.9149e-05 0.000898667 -3.57156e-06
2.51708e-05 -3.57156e-06 0.000909093
0.000930311 6.08577e-05 -7.55885e-07
6.08577e-05 2.24606e-05 -7.18522e-07
-7.55885e-07 -7.18522e-07 -6.03187e-05
0.00103352 5.83519e-05 -3.37267e-08
5.83519e-05 8.67565e-05 -2.83783e-07
-3.37267e-08 -2.83783e-07 7.38036e-06
0.0010659 4.51331e-05 -1.25304e-06
4.51331e-05 0.000100002 -4.03014e-07
-1.25304e-06 -4.03014e-07 2.73566e-05
0.00116494 5.81176e-05 6.32475e-07
5.81176e-05 0.000151122 -1.88088e-07
6.32475e-07 -1.88088e-07 7.48029e-05
0.000982914 2.62154e-05 -4.00004e-07
2.62154e-05 5.95696e-05 -1.50729e-07
-4.00004e-07 -1.50729e-07 -1.07269e-05
0.000889099 4.03691e-06 -2.53723e-06
4.03691e-06 1.96688e-05 -1.55547e-06
-2.53723e-06 -1.55547e-06 -3.643e-05
0.000919381 1.02724e-05 8.0363e-07
1.02724e-05 2.32932e-05 3.82051e-07
8.0363e-07 3.82051e-07 -4.5671e-05
0.000881543 -7.62507e-06 -1.4297e-08
-7.62507e-06 9.51775e-06 4.66864e-08
-1.4297e-08 4.66864e-08 -4.21999e-05
0.000781595 -3.63946e-05 -3.53182e-06
-3.63946e-05 -2.95264e-05 -3.65006e-06
-3.53182e-06 -3.65006e-06 -4.85675e-05
0.000884635 -1.31554e-05 2.15265e-06
-1.31554e-05 5.92535e-06 2.51287e-06
2.15265e-06 2.51287e-06 -4.08318e-05
0.00078494 -3.02496e-05 -7.70989e-08
-3.02496e-05 -3.80447e-05 -8.77467e-09
-7.70989e-08 -8.77467e-09 -5.27989e-05
0.00251993 -4.44381e-05 -2.37111e-05
-4.44381e-05 0.000855956 -3.66397e-06
-2.37111e-05 -3.66397e-06 0.000868617
0.000791261 -2.55731e-05 3.26049e-06
-2.55731e-05 -4.24495e-05 3.72056e-06
3.26049e-06 3.72056e-06 -5.36366e-05
0.00245797 -3.98604e-05 -3.68207e-07
-3.98604e-05 0.000816278 6.7492e-08
-3.68207e-07 6.7492e-08 0.000831162
0.0024298 -3.56773e-05 1.98532e-05
-3.56773e-05 0.00079466 3.81833e-06
1.98532e-05 3.81833e-06 0.000811266
0.00109978 -4.55689e-05 -3.37076e-06
-4.55689e-05 -0.000181276 8.77452e-07
-3.37076e-06 8.77452e-07 -0.000215623
0.00230915 -9.71175e-06 -3.80259e-06
-9.71175e-06 0.00032717 7.32106e-06
-3.80259e-06 7.32106e-06 7.56328e-05
0.0047306 4.29737e-05 -6.82392e-05
4.29737e-05 0.00138869 -1.08524e-05
-6.82392e-05 -1.08524e-05 0.000865768
0.000903038 6.27307e-05 1.32384e-06
6.27307e-05 -8.72602e-06 6.26687e-07
1.32384e-06 6.26687e-07 -8.83974e-05
0.00133707 7.92227e-05 2.15583e-06
7.92227e-05 0.000156693 -1.07431e-06
2.15583e-06 -1.07431e-06 6.7579e-05
0.000873765 6.29844e-05 2.72654e-07
6.29844e-05 -2.9494e-06 -3.94535e-07
2.72654e-07 -3.94535e-07 -8.75122e-05
0.00115052 6.67569e-05 9.05881e-07
6.67569e-05 0.000154048 -9.74019e-07
9.05881e-07 -9.74019e-07 7.15906e-05
0.00102782 6.42519e-05 6.33541e-08
6.42519e-05 9.42562e-05 -2.5459e-07
6.33541e-08 -2.5459e-07 1.0722e-05
0.00100793 6.85042e-05 1.00433e-06
6.85042e-05 6.80272e-05 7.71223e-07
1.00433e-06 7.71223e-07 -1.01151e-05
0.00142462 9.3653e-05 -2.27291e-06
9.3653e-05 0.000139556 -3.04798e-06
-2.27291e-06 -3.04798e-06 4.54093e-05
0.00144885 8.58863e-05 2.22766e-06
8.58863e-05 0.000277105 2.43256e-07
2.22766e-06 2.43256e-07 0.000192051
0.000870031 7.93245e-05 -1.26819e-06
7.93245e-05 -1.98749e-05 3.95009e-06
-1.26819e-06 3.95009e-06 -0.000110841
0.00144282 0.000102797 -1.04507e-06
0.000102797 0.000141558 -2.85496e-07
-1.04507e-06 -2.85496e-07 3.90565e-05
0.00122551 8.6292e-05 -4.02666e-06
8.6292e-05 -0.000116009 -2.39178e-06
-4.02666e-06 -2.39178e-06 -0.000225104
0.00189743 3.3258e-05 -5.37104e-06
3.3258e-05 6.49814e-05 4.71672e-06
-5.37104e-06 4.71672e-06 -1.36881e-05
0.00196036 0.000107948 1.01074e-06
0.000107948 0.00019033 1.01005e-06
1.01074e-06 1.01005e-06 7.70388e-05
0.00112351 0.000103322 -4.71838e-07
0.000103322 -5.15401e-05 4.05094e-06
-4.71838e-07 4.05094e-06 -0.000167343
0.00152414 -1.31827e-05 4.8215e-07
-1.31827e-05 -5.82377e-05 3.8525e-07
4.8215e-07 3.8525e-07 -8.32857e-05
0.00311394 -6.25833e-05 4.80884e-05
-6.25833e-05 0.00042187 2.54386e-05
4.80884e-05 2.54386e-05 0.000174519
0.002125 9.22972e-05 -3.76044e-06
9.22972e-05 0.000218106 -2.90547e-06
-3.76044e-06 -2.90547e-06 0.000162028
0.00198016 1.66532e-05 -3.864e-06
1.66532e-05 0.000281278 -2.88198e-06
-3.864e-06 -2.88198e-06 0.000219427
0.00148167 -1.38488e-05 6.37729e-07
-1.38488e-05 0.000141923 -1.94901e-07
6.37729e-07 -1.94901e-07 7.04974e-05
0.000862811 5.39451e-05 5.59688e-05
5.39451e-05 -0.000144251 1.72085e-06
5.59688e-05 1.72085e-06 -0.000419615
0.00108551 -1.78202e-05 5.17371e-06
-1.78202e-05 -0.000420187 1.74057e-06
5.17371e-06 1.74057e-06 -0.000442807
0.00169298 7.56465e-05 -7.39072e-06
7.56465e-05 0.000196854 2.11015e-06
-7.39072e-06 2.11015e-06 0.000126766
0.00159948 4.767e-05 -2.02005e-06
4.767e-05 -7.67489e-05 4.03842e-06
-2.02005e-06 4.03842e-06 -0.000147138
0.00158302 5.22418e-05 3.82089e-07
5.22418e-05 1.10537e-05 1.2849e-06
3.82089e-07 1.2849e-06 -7.67712e-05
0.00170598 4.16311e-05 -4.45489e-06
4.16311e-05 9.29803e-05 -1.39036e-07
-4.45489e-06 -1.39036e-07 1.07657e-05
0.00141802 3.71801e-05 -2.59031e-06
3.71801e-05 -1.84349e-05 -1.6269e-06
-2.59031e-06 -1.6269e-06 -9.01332e-05
0.00156835 -2.49908e-05 8.73522e-06
-2.49908e-05 -6.63981e-05 -1.9719e-06
8.73522e-06 -1.9719e-06 -0.000109833
0.00174887 6.33136e-06 -1.09436e-06
6.33136e-06 0.000103293 -9.04583e-07
-1.09436e-06 -9.04583e-07 3.65537e-05
0.00167497 1.76816e-05 -9.2425e-07
1.76816e-05 9.24957e-05 -9.0672e-08
-9.2425e-07 -9.0672e-08 1.16681e-05
0.00183663 -3.94339e-05 -1.67095e-06
-3.94339e-05 0.000144587 -2.29939e-06
-1.67095e-06 -2.29939e-06 9.61571e-05
0.00168298 -2.3548e-05 -1.29507e-07
-2.3548e-05 0.000104152 -4.44384e-07
-1.29507e-07 -4.44384e-07 3.71554e-05
0.00147671 -1.77372e-05 -6.49244e-07
-1.77372e-05 2.15562e-05 1.60047e-06
-6.49244e-07 1.60047e-06 -5.71814e-05
0.00152531 -5.21403e-05 -2.98516e-06
-5.21403e-05 6.64574e-05 -2.80511e-06
-2.98516e-06 -2.80511e-06 1.20013e-05
0.00147004 -4.63206e-05 2.87017e-07
-4.63206e-05 5.16698e-05 -6.34352e-08
2.87017e-07 -6.34352e-08 -2.0593e-05
0.00144197 -4.8129e-05 -1.74332e-07
-4.8129e-05 5.79278e-05 1.37399e-06
-1.74332e-07 1.37399e-06 -2.21324e-05
0.00136784 -5.66542e-05 -1.09172e-06
-5.66542e-05 4.24896e-05 -1.74442e-06
-1.09172e-06 -1.74442e-06 -2.42917e-05
0.00138317 -5.69639e-05 5.65323e-08
-5.69639e-05 6.57005e-05 -4.37692e-07
5.65323e-08 -4.37692e-07 -9.88595e-06
0.00134418 -5.61147e-05 -6.12527e-07
-5.61147e-05 6.82285e-05 4.53606e-07
-6.12527e-07 4.53606e-07 -1.10156e-05
0.0012857 -5.76505e-05 -3.9345e-07
-5.76505e-05 4.04527e-05 1.98828e-07
-3.9345e-07 1.98828e-07 -3.30245e-05
0.0012398 -5.64556e-05 -1.83723e-07
-5.64556e-05 4.02259e-05 -1.79959e-07
-1.83723e-07 -1.79959e-07 -3.74e-05
0.00121015 -5.30221e-05 -1.9651e-06
-5.30221e-05 5.89137e-05 6.32174e-07
-1.9651e-06 6.32174e-07 -1.67156e-05
0.00108528 -5.956e-05 1.39714e-06
-5.956e-05 -8.28585e-06 -4.71355e-07
1.39714e-06 -4.71355e-07 -8.94458e-05
0.00106463 -5.41641e-05 8.81775e-08
-5.41641e-05 1.24105e-05 4.51763e-08
8.81775e-08 4.51763e-08 -6.40706e-05
0.000974192 -3.81847e-05 -3.15228e-06
-3.81847e-05 1.62708e-05 1.50188e-06
-3.15228e-06 1.50188e-06 -4.84655e-05
0.000694498 4.5046e-06 -5.45838e-06
4.5046e-06 -5.00111e-05 3.63175e-06
-5.45838e-06 3.63175e-06 -8.60331e-05
0.000936017 -3.54389e-05 5.74047e-08
-3.54389e-05 2.37753e-05 8.5802e-08
5.74047e-08 8.5802e-08 -4.0369e-05
0.00104249 -5.74694e-05 1.11908e-06
-5.74694e-05 3.81218e-05 -6.83383e-07
1.11908e-06 -6.83383e-07 -3.83859e-05
0.00286044 6.39861e-05 -2.824e-05
6.39861e-05 0.00106451 3.2143e-06
-2.824e-05 3.2143e-06 0.0010672
0.000739237 1.87362e-05 -2.36687e-10
1.87362e-05 -2.99797e-05 -6.9828e-08
-2.36687e-10 -6.9828e-08 -6.16071e-05
0.000946232 -2.69175e-05 2.81527e-06
-2.69175e-05 4.57633e-05 -1.66052e-06
2.81527e-06 -1.66052e-06 -1.63385e-05
0.00275189 5.86923e-05 3.26262e-07
5.86923e-05 0.000999198 9.64012e-08
3.26262e-07 9.64012e-08 0.0010048
0.000792996 2.94069e-05 4.69745e-06
2.94069e-05 -8.60207e-06 -3.4365e-06
4.69745e-06 -3.4365e-06 -3.52958e-05
0.00266078 5.37214e-05 2.65943e-05
5.37214e-05 0.00094456 -3.48208e-06
2.65943e-05 -3.48208e-06 0.00095263
0.000730894 5.99885e-05 -4.26435e-07
5.99885e-05 -0.000107414 -6.67336e-07
-4.26435e-07 -6.67336e-07 -0.000195342
0.000809861 5.76133e-05 -1.98348e-08
5.76133e-05 -3.93855e-05 -1.03807e-07
-1.98348e-08 -1.03807e-07 -0.000122618
0.00110413 5.40301e-05 -1.49428e-06
5.40301e-05 0.000106098 -4.56226e-07
-1.49428e-06 -4.56226e-07 3.09325e-05
0.000992498 5.69524e-05 4.27734e-07
5.69524e-05 6.60324e-05 -1.22292e-07
4.27734e-07 -1.22292e-07 -1.30761e-05
0.00100828 4.26743e-05 -6.57401e-08
4.26743e-05 7.19925e-05 -6.84523e-08
-6.57401e-08 -6.84523e-08 -4.80675e-07
0.000914149 8.25895e-06 -2.62447e-06
8.25895e-06 3.8198e-05 -1.38592e-06
-2.62447e-06 -1.38592e-06 -2.14362e-05
0.00100888 2.90743e-05 9.16068e-07
2.90743e-05 7.3121e-05 6.00485e-08
9.16068e-07 6.00485e-08 3.15246e-06
0.000882902 -7.72576e-07 1.05131e-07
-7.72576e-07 1.85363e-05 5.26142e-08
1.05131e-07 5.26142e-08 -3.77743e-05
0.000771723 -4.09048e-05 -3.37303e-06
-4.09048e-05 -2.40045e-05 -3.5396e-06
-3.37303e-06 -3.5396e-06 -4.74544e-05
0.000886023 -1.24022e-05 2.3955e-06
-1.24022e-05 1.30663e-05 2.13688e-06
2.3955e-06 2.13688e-06 -3.8807e-05
0.000760869 -3.5251e-05 -3.01402e-08
-3.5251e-05 -4.10818e-05 -4.31359e-09
-3.01402e-08 -4.31359e-09 -5.97348e-05
0.0025858 -4.92697e-05 -2.49731e-05
-4.92697e-05 0.000897386 -3.52475e-06
-2.49731e-05 -3.52475e-06 0.000907872
0.000768114 -2.91144e-05 3.74353e-06
-2.91144e-05 -4.73928e-05 3.75388e-06
3.74353e-06 3.75388e-06 -6.17773e-05
0.00252945 -4.45072e-05 -3.08502e-07
-4.45072e-05 0.000859672 7.51045e-08
-3.08502e-07 7.51045e-08 0.000872585
0.00247277 -3.99963e-05 2.14469e-05
-3.99963e-05 0.000822844 3.72014e-06
2.14469e-05 3.72014e-06 0.000837908
0.00165122 -2.48901e-05 2.92775e-07
-2.48901e-05 -4.09645e-06 1.86126e-06
2.92775e-07 1.86126e-06 -5.76522e-05
0.00112986 -4.76156e-05 5.27383e-07
-4.76156e-05 -0.000152695 -8.9837e-08
5.27383e-07 -8.9837e-08 -0.000189098
0.000821216 -4.08606e-05 4.55738e-05
-4.08606e-05 -0.000198256 1.80874e-05
4.55738e-05 1.80874e-05 -0.000371146
0.00182389 9.05616e-05 6.2498e-07
9.05616e-05 0.000343667 -2.22231e-06
6.2498e-07 -2.22231e-06 0.000256035
0.00089157 6.36661e-05 -7.78024e-07
6.36661e-05 -2.16043e-06 3.92097e-07
-7.78024e-07 3.92097e-07 -7.84423e-05
0.00075892 6.70763e-05 -2.70774e-06
6.70763e-05 -0.000197225 -4.89895e-08
-2.70774e-06 -4.89895e-08 -0.00029119
0.00132153 7.8896e-05 2.00413e-07
7.8896e-05 0.000147985 8.85429e-08
2.00413e-07 8.85429e-08 5.82969e-05
0.000569999 5.47825e-05 -1.22655e-06
5.47825e-05 -0.00014498 7.72588e-07
-1.22655e-06 7.72588e-07 -0.000229142
0.00169713 8.64671e-05 -3.49572e-06
8.64671e-05 0.000147222 -4.08938e-06
-3.49572e-06 -4.08938e-06 4.50722e-05
0.00127456 7.7129e-05 2.73909e-07
7.7129e-05 0.000192241 -1.30625e-07
2.73909e-07 -1.30625e-07 0.000113107
0.00141355 9.20008e-05 -2.78547e-08
9.20008e-05 0.000127788 2.97588e-07
-2.78547e-08 2.97588e-07 3.38348e-05
0.00159743 3.69159e-05 -1.94547e-06
3.69159e-05 1.42748e-06 2.91955e-06
-1.94547e-06 2.91955e-06 -8.83986e-05
0.00143095 0.00010231 1.68886e-06
0.00010231 0.000139834 3.10523e-06
1.68886e-06 3.10523e-06 3.87253e-05
0.00152634 9.36682e-05 -9.15375e-07
9.36682e-05 2.68764e-05 -7.612e-07
-9.15375e-07 -7.612e-07 -8.32843e-05
0.00186693 3.09485e-05 -3.47989e-07
3.09485e-05 6.31139e-05 1.65819e-06
-3.47989e-07 1.65819e-06 -1.79122e-05
0.00169409 0.000100942 3.51486e-06
0.000100942 6.37443e-05 2.30399e-06
3.51486e-06 2.30399e-06 -4.93784e-05
0.00156186 -5.18494e-06 -7.35253e-06
-5.18494e-06 -3.10229e-05 -6.5489e-06
-7.35253e-06 -6.5489e-06 -5.53878e-05
0.00170915 9.50781e-07 -1.88216e-06
9.50781e-07 0.000145313 -1.22417e-06
-1.88216e-06 -1.22417e-06 8.36957e-05
0.00154313 1.24116e-05 9.27917e-07
1.24116e-05 5.2994e-05 3.58761e-07
9.27917e-07 3.58761e-07 -8.63332e-06
0.000530205 -1.14335e-05 6.81985e-07
-1.14335e-05 -0.000322219 2.70331e-06
6.81985e-07 2.70331e-06 -0.000393653
0.0018946 5.22587e-05 1.55216e-06
5.22587e-05 6.06523e-05 -7.18246e-07
1.55216e-06 -7.18246e-07 -7.79667e-06
0.00217165 6.18092e-05 1.4453e-05
6.18092e-05 0.000304004 4.44556e-06
1.4453e-05 4.44556e-06 0.000219785
0.00185819 4.41044e-05 -2.99399e-06
4.41044e-05 0.000157672 -4.41492e-07
-2.99399e-06 -4.41492e-07 7.52406e-05
0.00157373 3.71924e-05 8.86556e-07
3.71924e-05 6.41489e-05 1.80475e-06
8.86556e-07 1.80475e-06 -7.16352e-06
0.00163733 3.61543e-05 -2.62908e-06
3.61543e-05 9.87508e-05 -1.81298e-06
-2.62908e-06 -1.81298e-06 2.10651e-05
0.00170804 4.84431e-06 -1.6269e-06
4.84431e-06 7.95764e-05 -1.87836e-06
-1.6269e-06 -1.87836e-06 1.40908e-05
0.00171191 1.69784e-05 -1.18159e-08
1.69784e-05 0.000109143 -2.3111e-07
-1.18159e-08 -2.3111e-07 2.90129e-05
0.00161341 2.12452e-05 -1.98827e-06
2.12452e-05 7.68502e-05 -6.79682e-07
-1.98827e-06 -6.79682e-07 -7.13663e-06
0.00160554 -2.36657e-05 -4.89106e-07
-2.36657e-05 6.96033e-05 -2.24696e-06
-4.89106e-07 -2.24696e-06 3.27012e-06
0.00153448 -1.79364e-05 2.41225e-07
-1.79364e-05 5.01075e-05 4.20493e-07
2.41225e-07 4.20493e-07 -2.90006e-05
0.0015261 -1.84189e-05 -1.14356e-06
-1.84189e-05 6.41825e-05 7.87708e-07
-1.14356e-06 7.87708e-07 -1.97987e-05
0.00149715 -4.58104e-05 -7.68485e-08
-4.58104e-05 6.48025e-05 -2.08414e-06
-7.68485e-08 -2.08414e-06 -7.51818e-06
0.00145802 -4.72097e-05 1.99395e-07
-4.72097e-05 6.49752e-05 5.87479e-08
1.99395e-07 5.87479e-08 -1.51259e-05
0.00140603 -4.88516e-05 -1.05889e-06
-4.88516e-05 6.48661e-05 9.61308e-07
-1.05889e-06 9.61308e-07 -1.75843e-05
0.0013839 -5.63221e-05 -3.29504e-07
-5.63221e-05 6.57805e-05 -1.25096e-06
-3.29504e-07 -1.25096e-06 -9.73593e-06
0.00134483 -5.56842e-05 9.17689e-09
-5.56842e-05 6.80929e-05 -2.54435e-07
9.17689e-09 -2.54435e-07 -1.10989e-05
0.00124925 -5.06415e-05 -1.8615e-06
-5.06415e-05 5.30188e-05 7.17251e-07
-1.8615e-06 7.17251e-07 -2.42729e-05
0.00113571 -5.43114e-05 5.93732e-07
-5.43114e-05 -1.11869e-05 -3.07265e-07
5.93732e-07 -3.07265e-07 -8.86165e-05
0.0011978 -5.23124e-05 -1.70073e-08
-5.23124e-05 5.29171e-05 -4.88187e-08
-1.70073e-08 -4.88187e-08 -2.26038e-05
0.00102514 -3.80577e-05 -3.47312e-06
-3.80577e-05 1.63371e-05 1.46426e-06
-3.47312e-06 1.46426e-06 -4.88518e-05
0.000897952 -4.99839e-05 1.7516e-06
-4.99839e-05 -6.95011e-05 -7.07364e-07
1.7516e-06 -7.07364e-07 -0.000146089
0.00097636 -3.85748e-05 6.83037e-08
-3.85748e-05 1.81009e-05 4.35794e-08
6.83037e-08 4.35794e-08 -4.67396e-05
0.0016634 1.00854e-05 -6.75704e-06
1.00854e-05 0.000442926 2.06656e-06
-6.75704e-06 2.06656e-06 0.000408628
0.00113134 3.50773e-05 -2.91774e-05
3.50773e-05 0.000191008 6.10285e-06
-2.91774e-05 6.10285e-06 0.000178602
0.00122639 1.06999e-05 -1.19136e-06
1.06999e-05 0.000217959 -1.46753e-08
-1.19136e-06 -1.46753e-08 0.000184638
0.000959438 -3.68461e-05 3.03505e-06
-3.68461e-05 3.55844e-05 -1.50293e-06
3.03505e-06 -1.50293e-06 -2.8681e-05
0.00287707 6.35355e-05 3.92054e-07
6.35355e-05 0.00107535 1.21664e-07
3.92054e-07 1.21664e-07 0.00107734
0.000806697 1.52369e-05 5.44951e-06
1.52369e-05 6.27769e-07 -3.43747e-06
5.44951e-06 -3.43747e-06 -3.06955e-05
0.00273866 5.79988e-05 2.83057e-05
5.79988e-05 0.000994359 -3.42357e-06
2.83057e-05 -3.42357e-06 0.000999526
0.00118035 7.10348e-05 -1.06002e-06
7.10348e-05 -2.40579e-05 -3.71335e-08
-1.06002e-06 -3.71335e-08 -0.000110225
0.000821034 6.48469e-05 7.06091e-07
6.48469e-05 -0.000101135 2.93903e-07
7.06091e-07 2.93903e-07 -0.000191784
0.000849151 6.36535e-05 -1.20981e-07
6.36535e-05 -5.38348e-05 -7.91657e-08
-1.20981e-07 -7.91657e-08 -0.000142471
0.00112268 5.9797e-05 -1.51539e-06
5.9797e-05 9.63088e-05 -6.8535e-07
-1.51539e-06 -6.8535e-07 1.87453e-05
0.000678193 5.40223e-05 3.36519e-07
5.40223e-05 -0.000106937 5.3908e-07
3.36519e-07 5.3908e-07 -0.00019058
0.00103605 5.09623e-05 -1.57211e-07
5.09623e-05 7.31053e-05 -4.50217e-08
-1.57211e-07 -4.50217e-08 -1.73287e-06
0.000937583 1.84936e-05 -2.76189e-06
1.84936e-05 4.95115e-05 -1.12286e-06
-2.76189e-06 -1.12286e-06 -1.21563e-05
0.000955255 4.03501e-05 1.23e-06
4.03501e-05 4.62456e-05 3.37714e-07
1.23e-06 3.37714e-07 -2.60623e-05
0.000872935 5.15604e-06 8.88006e-08
5.15604e-06 1.93405e-05 1.17233e-07
8.88006e-08 1.17233e-07 -4.04588e-05
0.000774974 -3.56858e-05 -4.19269e-06
-3.56858e-05 -1.43032e-05 -3.32246e-06
-4.19269e-06 -3.32246e-06 -4.18684e-05
0.000875668 -5.94166e-06 2.39482e-06
-5.94166e-06 1.69081e-05 1.6847e-06
2.39482e-06 1.6847e-06 -3.96092e-05
0.000731995 -3.96666e-05 -1.20867e-09
-3.96666e-05 -4.48219e-05 -3.14377e-08
-1.20867e-09 -3.14377e-08 -6.79179e-05
0.00264152 -5.40033e-05 -2.61796e-05
-5.40033e-05 0.00093525 -3.42317e-06
-2.61796e-05 -3.42317e-06 0.000943219
0.000736871 -3.3802e-05 3.98431e-06
-3.3802e-05 -5.43188e-05 3.69731e-06
3.98431e-06 3.69731e-06 -7.25541e-05
0.00260275 -4.94291e-05 -2.72593e-07
-4.94291e-05 0.000904666 8.282e-08
-2.72593e-07 8.282e-08 0.000915416
0.00254065 -4.45933e-05 2.3038e-05
-4.45933e-05 0.000864194 3.62827e-06
2.3038e-05 3.62827e-06 0.000877359
0.00159129 -2.0354e-05 1.64295e-07
-2.0354e-05 3.23339e-05 2.32472e-06
1.64295e-07 2.32472e-06 -3.69739e-05
0.00175922 -2.41183e-05 1.22007e-06
-2.41183e-05 7.05635e-05 -1.74701e-06
1.22007e-06 -1.74701e-06 1.58631e-05
0.00141857 -5.59404e-05 1.18458e-06
-5.59404e-05 -5.21307e-06 -2.9569e-06
1.18458e-06 -2.9569e-06 -4.46955e-05
0.00152037 7.76381e-05 -4.64235e-06
7.76381e-05 8.23699e-05 -2.71422e-06
-4.64235e-06 -2.71422e-06 -1.23522e-05
0.00153907 8.35429e-05 -1.40697e-07
8.35429e-05 0.000219969 4.06693e-07
-1.40697e-07 4.06693e-07 0.000134929
0.000803223 6.29666e-05 -4.1158e-06
6.29666e-05 -3.37764e-05 4.4779e-07
-4.1158e-06 4.4779e-07 -0.000106563
0.001334 7.98197e-05 1.06111e-06
7.98197e-05 8.23015e-05 1.04422e-06
1.06111e-06 1.04422e-06 -9.94214e-06
0.00132901 7.9103e-05 -1.54311e-06
7.9103e-05 0.000150616 7.37789e-07
-1.54311e-06 7.37789e-07 6.03302e-05
0.00174041 3.5395e-05 -1.64042e-06
3.5395e-05 9.08275e-05 1.36901e-06
-1.64042e-06 1.36901e-06 -6.19606e-06
0.00163598 8.68628e-05 -1.70041e-06
8.68628e-05 0.000114911 -1.55649e-06
-1.70041e-06 -1.55649e-06 1.08187e-05
0.00140853 9.0822e-05 1.97519e-06
9.0822e-05 0.000120053 4.4594e-06
1.97519e-06 4.4594e-06 2.60772e-05
0.00172526 3.59223e-05 -3.68182e-07
3.59223e-05 6.35031e-05 8.64176e-07
-3.68182e-07 8.64176e-07 -2.69684e-05
0.00191296 0.000102836 3.49318e-06
0.000102836 0.000208936 1.38699e-06
3.49318e-06 1.38699e-06 9.80047e-05
0.00168582 2.78679e-05 3.00853e-06
2.78679e-05 -1.54373e-05 -1.32294e-06
3.00853e-06 -1.32294e-06 -9.85755e-05
0.00143507 1.447e-06 -1.29766e-06
1.447e-06 1.35325e-05 1.35912e-07
-1.29766e-06 1.35912e-07 -5.83118e-05
0.00158431 2.50277e-06 -2.80542e-07
2.50277e-06 7.98122e-05 -5.71149e-07
-2.80542e-07 -5.71149e-07 1.73554e-05
0.000983462 7.5299e-06 5.44596e-06
7.5299e-06 -0.000236318 5.41567e-06
5.44596e-06 5.41567e-06 -0.000297484
0.00204208 4.70919e-05 4.07036e-06
4.70919e-05 0.000237061 -9.12082e-07
4.07036e-06 -9.12082e-07 0.000154551
0.00168985 3.71513e-05 6.94575e-06
3.71513e-05 0.000126141 5.08158e-06
6.94575e-06 5.08158e-06 5.53658e-05
0.00167848 3.64216e-05 -1.13574e-06
3.64216e-05 0.00011898 -3.89451e-07
-1.13574e-06 -3.89451e-07 4.16656e-05
0.00157493 3.07652e-05 -7.43741e-07
3.07652e-05 8.31287e-05 -7.27551e-07
-7.43741e-07 -7.27551e-07 5.0927e-07
0.00173854 1.60574e-05 1.29497e-06
1.60574e-05 0.000120255 -5.58786e-07
1.29497e-06 -5.58786e-07 4.09071e-05
0.00162429 1.92246e-05 -5.06101e-07
1.92246e-05 8.04549e-05 -8.62758e-08
-5.06101e-07 -8.62758e-08 -3.3978e-06
0.0015458 1.23647e-05 -2.30571e-06
1.23647e-05 6.06326e-05 -9.65454e-07
-2.30571e-06 -9.65454e-07 -2.41745e-05
0.00159016 -1.82991e-05 7.24076e-07
-1.82991e-05 7.77654e-05 -5.26217e-07
7.24076e-07 -5.26217e-07 -1.73884e-06
0.00153246 -1.88069e-05 6.86785e-08
-1.88069e-05 6.68467e-05 3.91418e-07
6.86785e-08 3.91418e-07 -1.72457e-05
0.00148077 -2.59939e-05 -1.79898e-06
-2.59939e-05 6.86761e-05 4.45448e-07
-1.79898e-06 4.45448e-07 -1.57991e-05
0.00147443 -4.62273e-05 7.49543e-07
-4.62273e-05 7.22025e-05 -1.23824e-06
7.49543e-07 -1.23824e-06 -7.93581e-06
0.00141359 -4.84486e-05 1.09142e-07
-4.84486e-05 6.78998e-05 1.20381e-07
1.09142e-07 1.20381e-07 -1.45853e-05
0.00131181 -4.54993e-05 -2.19457e-06
-4.54993e-05 5.38431e-05 9.54968e-07
-2.19457e-06 9.54968e-07 -2.60992e-05
0.0013448 -5.52855e-05 6.84275e-07
-5.52855e-05 6.76334e-05 -9.55833e-07
6.84275e-07 -9.55833e-07 -1.15104e-05
0.00125225 -5.02833e-05 3.9045e-10
-5.02833e-05 5.40952e-05 -1.28434e-07
3.9045e-10 -1.28434e-07 -2.31429e-05
0.00107176 -3.73329e-05 -3.81997e-06
-3.73329e-05 1.6608e-05 1.64938e-06
-3.81997e-06 1.64938e-06 -5.03875e-05
0.0011845 -5.15978e-05 1.71085e-06
-5.15978e-05 4.64593e-05 -6.59657e-07
1.71085e-06 -6.59657e-07 -2.89538e-05
0.00101918 -3.78608e-05 1.05111e-07
-3.78608e-05 1.38028e-05 -4.63983e-08
1.05111e-07 -4.63983e-08 -5.14733e-05
0.0017186 4.05252e-06 -7.00231e-06
4.05252e-06 0.000465213 2.15144e-06
-7.00231e-06 2.15144e-06 0.000428731
0.000980791 -3.91878e-05 3.22892e-06
-3.91878e-05 2.10359e-05 -1.34619e-06
3.22892e-06 -1.34619e-06 -4.39175e-05
0.00174855 5.85137e-06 6.70748e-06
5.85137e-06 0.000481154 -9.37578e-07
6.70748e-06 -9.37578e-07 0.000446969
0.00120405 3.22172e-05 -3.46088e-05
3.22172e-05 0.000242773 5.93919e-06
-3.46088e-05 5.93919e-06 0.000225503
0.00207919 5.04155e-05 -2.29351e-05
5.04155e-05 0.000678771 1.68262e-06
-2.29351e-05 1.68262e-06 0.000671625
0.0017816 1.15817e-05 1.73047e-05
1.15817e-05 0.00049704 -2.8147e-06
1.73047e-05 -2.8147e-06 0.00046696
0.00288628 6.2238e-05 3.11564e-05
6.2238e-05 0.00108219 -3.35672e-06
3.11564e-05 -3.35672e-06 0.00108361
0.00151634 7.12329e-05 -3.34923e-06
7.12329e-05 7.61752e-05 -2.17073e-06
-3.34923e-06 -2.17073e-06 -1.43916e-05
0.00142145 7.6332e-05 1.76814e-06
7.6332e-05 0.000147147 2.72462e-08
1.76814e-06 2.72462e-08 6.11584e-05
0.00118058 7.1261e-05 1.1073e-06
7.1261e-05 -1.36586e-05 6.88835e-07
1.1073e-06 6.88835e-07 -9.48333e-05
0.00113372 6.45837e-05 -1.52783e-06
6.45837e-05 7.80257e-05 -1.00353e-06
-1.52783e-06 -1.00353e-06 -3.52655e-06
0.00112548 7.35741e-05 -3.90186e-07
7.35741e-05 4.51766e-05 2.05899e-07
-3.90186e-07 2.05899e-07 -4.56504e-05
0.000998161 6.83635e-05 4.23149e-07
6.83635e-05 1.45402e-05 6.92589e-07
4.23149e-07 6.92589e-07 -7.48146e-05
0.0010836 5.8506e-05 -8.05369e-08
5.8506e-05 7.93726e-05 -1.19261e-07
-8.05369e-08 -1.19261e-07 1.6829e-06
0.000963993 3.06086e-05 -2.67298e-06
3.06086e-05 5.39705e-05 -1.1514e-06
-2.67298e-06 -1.1514e-06 -9.72648e-06
0.000969054 4.79803e-05 1.05468e-06
4.79803e-05 4.06608e-05 2.99419e-07
1.05468e-06 2.99419e-07 -3.38584e-05
0.000885852 1.48673e-05 -7.39833e-08
1.48673e-05 2.42522e-05 9.04946e-08
-7.39833e-08 9.04946e-08 -3.73879e-05
0.000785171 -2.70857e-05 -4.98483e-06
-2.70857e-05 -3.13869e-06 -3.08688e-06
-4.98483e-06 -3.08688e-06 -3.52699e-05
0.000837357 2.19102e-06 2.32816e-06
2.19102e-06 3.23097e-06 1.44103e-06
2.32816e-06 1.44103e-06 -5.674e-05
0.000718371 -4.28227e-05 -2.85235e-08
-4.28227e-05 -4.14113e-05 -3.50816e-08
-2.85235e-08 -3.50816e-08 -6.94607e-05
0.00269757 -5.84714e-05 -2.76736e-05
-5.84714e-05 0.000976156 -3.3146e-06
-2.76736e-05 -3.3146e-06 0.000981026
0.000691376 -3.83719e-05 3.80351e-06
-3.83719e-05 -6.60919e-05 3.64917e-06
3.80351e-06 3.64917e-06 -8.88238e-05
0.0026687 -5.44044e-05 -2.66794e-07
-5.44044e-05 0.000947232 9.01903e-08
-2.66794e-07 9.01903e-08 0.000955537
0.00261828 -4.95231e-05 2.44363e-05
-4.95231e-05 0.000911186 3.50409e-06
2.44363e-05 3.50409e-06 0.000922216
0.00161402 -1.56625e-05 -1.60553e-06
-1.56625e-05 5.06306e-05 2.51961e-06
-1.60553e-06 2.51961e-06 -3.08064e-05
0.00164859 -1.93511e-05 4.18097e-07
-1.93511e-05 5.97765e-05 -5.03507e-07
4.18097e-07 -5.03507e-07 -9.77712e-06
0.00206142 -2.42093e-05 2.50083e-07
-2.42093e-05 0.000240062 -5.19472e-06
2.50083e-07 -5.19472e-06 0.000184129
0.00149799 3.76866e-05 -1.99438e-06
3.76866e-05 -4.63982e-06 5.92431e-07
-1.99438e-06 5.92431e-07 -9.87035e-05
0.00157161 7.89585e-05 2.24809e-07
7.89585e-05 0.000109077 -6.50448e-07
2.24809e-07 -6.50448e-07 1.40807e-05
0.00133674 7.84077e-05 -1.2842e-06
7.84077e-05 0.000135719 1.894e-06
-1.2842e-06 1.894e-06 5.33407e-05
0.00184578 9.11766e-05 1.87505e-06
9.11766e-05 0.000330271 8.29913e-07
1.87505e-06 8.29913e-07 0.000239856
0.00183953 3.73882e-05 -2.8619e-07
3.73882e-05 0.000139386 -1.57033e-07
-2.8619e-07 -1.57033e-07 4.2682e-05
0.00160567 8.76055e-05 2.39732e-06
8.76055e-05 9.7005e-05 1.42605e-06
2.39732e-06 1.42605e-06 -8.88443e-06
0.00183924 3.41107e-05 2.42826e-06
3.41107e-05 0.000118821 -7.88227e-07
2.42826e-06 -7.88227e-07 2.77298e-05
0.00154861 1.05584e-06 4.73241e-07
1.05584e-06 6.58703e-05 6.34666e-07
4.73241e-07 6.34666e-07 -1.40161e-05
0.00147418 2.797e-06 2.39131e-08
2.797e-06 2.86751e-05 -2.82132e-07
2.39131e-08 -2.82132e-07 -4.48447e-05
0.0014876 4.84615e-06 1.26054e-06
4.84615e-06 2.91809e-05 8.92566e-07
1.26054e-06 8.92566e-07 -3.42702e-05
0.00158317 3.07183e-05 -3.74669e-07
3.07183e-05 9.46894e-05 4.17901e-08
-3.74669e-07 4.17901e-08 7.87779e-06
0.00171531 3.66096e-05 2.30923e-06
3.66096e-05 0.000137502 1.21001e-06
2.30923e-06 1.21001e-06 6.05077e-05
0.00157817 3.10963e-05 2.30535e-07
3.10963e-05 8.41857e-05 2.33175e-07
2.30535e-07 2.33175e-07 1.26701e-06
0.00158726 2.70539e-05 -5.9919e-07
2.70539e-05 9.41004e-05 -4.60804e-07
-5.9919e-07 -4.60804e-07 9.24396e-06
0.00165509 1.74557e-05 1.26549e-06
1.74557e-05 9.37478e-05 4.99405e-07
1.26549e-06 4.99405e-07 1.00336e-05
0.00156071 1.22665e-05 -6.80265e-07
1.22665e-05 6.82523e-05 -1.06155e-07
-6.80265e-07 -1.06155e-07 -1.65306e-05
0.00151425 5.94456e-06 -2.74151e-06
5.94456e-06 7.15448e-05 -4.3466e-07
-2.74151e-06 -4.3466e-07 -1.36759e-05
0.00154012 -1.85509e-05 1.88478e-06
-1.85509e-05 7.01299e-05 -2.69493e-08
1.88478e-06 -2.69493e-08 -1.40693e-05
0.00147451 -2.45721e-05 5.02648e-08
-2.45721e-05 6.57751e-05 1.80817e-07
5.02648e-08 1.80817e-07 -1.87976e-05
0.00138019 -3.14914e-05 -2.78922e-06
-3.14914e-05 5.89142e-05 5.65829e-07
-2.78922e-06 5.65829e-07 -2.23657e-05
0.00142253 -4.80092e-05 1.51535e-06
-4.80092e-05 7.16021e-05 -7.29795e-07
1.51535e-06 -7.29795e-07 -1.09133e-05
0.00131557 -4.51561e-05 5.70676e-08
-4.51561e-05 5.52894e-05 1.20771e-07
5.70676e-08 1.20771e-07 -2.46573e-05
0.00112721 -3.45023e-05 -4.45507e-06
-3.45023e-05 2.02988e-05 1.85464e-06
-4.45507e-06 1.85464e-06 -4.91452e-05
0.00125485 -4.98629e-05 1.89372e-06
-4.98629e-05 5.4996e-05 -9.51778e-07
1.89372e-06 -9.51778e-07 -2.21866e-05
0.00107015 -3.68094e-05 1.95329e-07
-3.68094e-05 1.52601e-05 -9.16591e-08
1.95329e-07 -9.16591e-08 -5.17913e-05
0.00177086 1.6511e-06 -6.93253e-06
1.6511e-06 0.000483815 2.28571e-06
-6.93253e-06 2.28571e-06 0.000446293
0.00101662 -3.77009e-05 3.41968e-06
-3.77009e-05 1.29926e-05 -1.40146e-06
3.41968e-06 -1.40146e-06 -5.23776e-05
0.00181662 -7.66469e-07 7.82634e-06
-7.66469e-07 0.000509806 -8.16447e-07
7.82634e-06 -8.16447e-07 0.000473645
0.00124617 2.75527e-05 -3.90104e-05
2.75527e-05 0.000273684 5.47902e-06
-3.90104e-05 5.47902e-06 0.000253861
0.00183661 1.05149e-06 2.13484e-05
1.05149e-06 0.000520735 -4.17918e-06
2.13484e-05 -4.17918e-06 0.000486774
0.00119336 3.82862e-05 -1.4206e-05
3.82862e-05 0.0002406 2.07254e-06
-1.4206e-05 2.07254e-06 0.000222634
0.00297208 7.54009e-05 1.19892e-05
7.54009e-05 0.00114024 -1.32734e-06
1.19892e-05 -1.32734e-06 0.00113722
0.00179281 4.79289e-05 -2.30111e-06
4.79289e-05 0.000175028 -8.4181e-07
-2.30111e-06 -8.4181e-07 8.11239e-05
0.00153317 6.9751e-05 -1.19254e-06
6.9751e-05 0.000123852 -1.9429e-06
-1.19254e-06 -1.9429e-06 3.62554e-05
0.00157473 7.34584e-05 -1.60046e-06
7.34584e-05 0.000114462 1.18782e-06
-1.60046e-06 1.18782e-06 2.47202e-05
0.00147486 7.20577e-05 -1.04606e-06
7.20577e-05 0.000206921 -2.38549e-07
-1.04606e-06 -2.38549e-07 0.000125413
0.00127544 7.40166e-05 4.3359e-07
7.40166e-05 7.33323e-05 -9.477e-07
4.3359e-07 -9.477e-07 -1.24084e-05
0.00125111 7.28275e-05 2.94153e-06
7.28275e-05 3.16468e-05 1.36275e-06
2.94153e-06 1.36275e-06 -4.46836e-05
0.000998422 4.33095e-05 -2.92335e-06
4.33095e-05 5.07406e-05 -1.54869e-06
-2.92335e-06 -1.54869e-06 -1.68676e-05
0.00112693 6.45936e-05 -7.5136e-08
6.45936e-05 7.46757e-05 -8.88187e-08
-7.5136e-08 -8.88187e-08 -6.95724e-06
0.00140447 8.14864e-05 1.60955e-06
8.14864e-05 0.00017972 1.03448e-06
1.60955e-06 1.03448e-06 8.86542e-05
0.0010277 5.6662e-05 1.20003e-06
5.6662e-05 5.41033e-05 3.61713e-07
1.20003e-06 3.61713e-07 -2.36757e-05
0.000918448 2.91074e-05 -6.02156e-08
2.91074e-05 3.19883e-05 -7.55595e-08
-6.02156e-08 -7.55595e-08 -3.15888e-05
0.000797935 -4.32395e-06 -5.68046e-06
-4.32395e-06 4.95074e-06 -3.15315e-06
-5.68046e-06 -3.15315e-06 -3.11456e-05
0.000824141 1.15391e-05 2.2427e-06
1.15391e-05 -6.20013e-06 1.09135e-06
2.2427e-06 1.09135e-06 -6.77426e-05
0.000723501 -2.57223e-05 -1.29091e-07
-2.57223e-05 -3.21762e-05 -3.88659e-08
-1.29091e-07 -3.88659e-08 -6.41219e-05
0.00279049 -6.2781e-05 -2.99443e-05
-6.2781e-05 0.00103916 -3.15186e-06
-2.99443e-05 -3.15186e-06 0.00104026
0.000655813 -4.13892e-05 3.53456e-06
-4.13892e-05 -7.25129e-05 3.57634e-06
3.53456e-06 3.57634e-06 -0.000100344
0.00272091 -5.90994e-05 -3.37904e-07
-5.90994e-05 0.000985349 9.95678e-08
-3.37904e-07 9.95678e-08 0.000990721
0.00269341 -5.46781e-05 2.55808e-05
-5.46781e-05 0.000957975 3.35735e-06
2.55808e-05 3.35735e-06 0.00096663
0.00165852 -4.4832e-06 -1.1411e-06
-4.4832e-06 7.67323e-05 1.01577e-06
-1.1411e-06 1.01577e-06 -7.16936e-06
0.00169985 -1.47471e-05 -1.4522e-07
-1.47471e-05 8.56922e-05 6.15841e-07
-1.4522e-07 6.15841e-07 3.26217e-06
0.0016649 -1.84373e-05 1.28024e-06
-1.84373e-05 6.71901e-05 -3.30891e-06
1.28024e-06 -3.30891e-06 -2.59186e-06
0.00162438 3.88642e-05 5.27487e-07
3.88642e-05 5.20019e-05 -8.76921e-08
5.27487e-07 -8.76921e-08 -4.15377e-05
0.00164111 8.07737e-05 1.98125e-06
8.07737e-05 0.000145264 9.24712e-07
1.98125e-06 9.24712e-07 4.9891e-05
0.00191 3.87677e-05 2.08237e-06
3.87677e-05 0.000174243 -1.06976e-06
2.08237e-06 -1.06976e-06 7.784e-05
0.00156981 2.58921e-06 -6.90598e-07
2.58921e-06 7.42534e-05 6.77565e-07
-6.90598e-07 6.77565e-07 -1.19378e-05
0.00153485 3.95752e-06 5.5943e-07
3.95752e-06 6.11775e-05 -2.83673e-07
5.5943e-07 -2.83673e-07 -1.91591e-05
0.00154399 4.22604e-06 1.04165e-06
4.22604e-06 5.86066e-05 -2.76171e-07
1.04165e-06 -2.76171e-07 -1.65732e-05
0.00155852 2.21802e-05 -6.83708e-07
2.21802e-05 8.27767e-05 -2.09636e-07
-6.83708e-07 -2.09636e-07 -3.45658e-06
0.00160561 1.99779e-05 -1.3538e-08
1.99779e-05 0.000112513 2.80136e-07
-1.3538e-08 2.80136e-07 2.35366e-05
0.00157563 3.14634e-05 1.25142e-06
3.14634e-05 8.23883e-05 5.89972e-07
1.25142e-06 5.89972e-07 -8.25514e-07
0.00158705 2.69003e-05 4.15221e-07
2.69003e-05 9.47317e-05 1.86615e-07
4.15221e-07 1.86615e-07 9.85989e-06
0.00155319 2.21004e-05 -7.11335e-07
2.21004e-05 9.3968e-05 -2.53575e-07
-7.11335e-07 -2.53575e-07 8.34926e-06
0.00157559 1.15156e-05 1.42557e-06
1.15156e-05 7.58678e-05 7.10995e-07
1.42557e-06 7.10995e-07 -8.89236e-06
0.00150458 4.79749e-06 -6.81318e-07
4.79749e-06 6.71117e-05 6.40878e-08
-6.81318e-07 6.40878e-08 -1.80678e-05
0.00141416 -2.87491e-06 -3.70361e-06
-2.87491e-06 6.13294e-05 2.24965e-07
-3.70361e-06 2.24965e-07 -2.07761e-05
0.00147068 -2.46857e-05 1.88211e-06
-2.46857e-05 6.3949e-05 -7.59707e-08
1.88211e-06 -7.59707e-08 -2.07115e-05
0.00137361 -3.07008e-05 8.87547e-08
-3.07008e-05 5.56809e-05 1.0801e-07
8.87547e-08 1.0801e-07 -2.56578e-05
0.00116001 -2.43092e-05 -5.12193e-06
-2.43092e-05 1.47882e-05 1.5323e-06
-5.12193e-06 1.5323e-06 -5.56057e-05
0.00131955 -4.47576e-05 2.45602e-06
-4.47576e-05 5.68544e-05 -7.02651e-07
2.45602e-06 -7.02651e-07 -2.30965e-05
0.00112449 -3.36413e-05 2.24707e-07
-3.36413e-05 1.7908e-05 8.29672e-08
2.24707e-07 8.29672e-08 -5.15419e-05
0.00188496 5.19656e-06 -7.07376e-06
5.19656e-06 0.000529048 2.3216e-06
-7.07376e-06 2.3216e-06 0.0004913
0.00107051 -3.63489e-05 3.86743e-06
-3.63489e-05 1.49652e-05 -1.66709e-06
3.86743e-06 -1.66709e-06 -5.21564e-05
0.0018889 -4.67562e-06 8.98915e-06
-4.67562e-06 0.000538538 -7.0259e-07
8.98915e-06 -7.0259e-07 0.000501439
0.00128846 2.12089e-05 -4.29943e-05
2.12089e-05 0.000299488 4.96608e-06
-4.29943e-05 4.96608e-06 0.000278498
0.00191376 -6.92491e-06 2.36879e-05
-6.92491e-06 0.000553684 -4.07305e-06
2.36879e-05 -4.07305e-06 0.000517988
0.00124425 3.67401e-05 -1.62992e-05
3.67401e-05 0.000276878 1.80462e-06
-1.62992e-05 1.80462e-06 0.000255854
0.00117846 4.59293e-05 7.50434e-06
4.59293e-05 0.000236469 -1.74401e-06
7.50434e-06 -1.74401e-06 0.000217631
0.0015762 8.42392e-06 -1.45366e-06
8.42392e-06 4.76655e-05 1.14299e-06
-1.45366e-06 1.14299e-06 -3.7134e-05
0.00154819 4.99179e-05 -2.62134e-06
4.99179e-05 8.65561e-05 -4.76208e-07
-2.62134e-06 -4.76208e-07 -4.43962e-06
0.00168709 4.68287e-05 -1.1869e-06
4.68287e-05 0.000119247 -9.21107e-07
-1.1869e-06 -9.21107e-07 2.50057e-05
0.00145255 6.60416e-05 -2.21436e-06
6.60416e-05 0.000136865 -8.20467e-07
-2.21436e-06 -8.20467e-07 5.4222e-05
0.00160133 7.12319e-05 8.17028e-07
7.12319e-05 0.000162229 6.23173e-07
8.17028e-07 6.23173e-07 7.51094e-05
0.00158726 7.47078e-05 3.83209e-06
7.47078e-05 0.000130324 2.61761e-06
3.83209e-06 2.61761e-06 4.14723e-05
0.000967019 4.75509e-05 -3.51271e-06
4.75509e-05 -7.11716e-07 -1.42041e-06
-3.51271e-06 -1.42041e-06 -7.08318e-05
0.00117248 6.59464e-05 1.00157e-06
6.59464e-05 5.40455e-05 6.17512e-07
1.00157e-06 6.17512e-07 -2.85234e-05
0.00111493 7.14049e-05 1.33205e-06
7.14049e-05 -8.26943e-06 1.18964e-06
1.33205e-06 1.18964e-06 -9.36543e-05
0.000806053 1.46527e-05 -6.5539e-06
1.46527e-05 6.38788e-06 -3.64919e-06
-6.5539e-06 -3.64919e-06 -3.47098e-05
0.000958385 4.11803e-05 -1.6741e-07
4.11803e-05 3.06283e-05 -1.43273e-07
-1.6741e-07 -1.43273e-07 -3.67129e-05
0.00112797 6.48458e-05 1.58213e-06
6.48458e-05 7.5204e-05 8.82812e-07
1.58213e-06 8.82812e-07 -6.52471e-06
0.00086699 2.69224e-05 2.4128e-06
2.69224e-05 7.07607e-06 9.28426e-07
2.4128e-06 9.28426e-07 -5.63791e-05
0.000734658 -7.68004e-06 -3.87478e-08
-7.68004e-06 -2.19002e-05 -5.01258e-08
-3.87478e-08 -5.01258e-08 -5.84441e-05
0.0029705 -6.58797e-05 -3.4432e-05
-6.58797e-05 0.00114742 -2.99243e-06
-3.4432e-05 -2.99243e-06 0.00114444
0.000671671 -3.50454e-05 3.64921e-06
-3.50454e-05 -5.4662e-05 3.39568e-06
3.64921e-06 3.39568e-06 -8.73809e-05
0.00279024 -6.37173e-05 -4.35179e-07
-6.37173e-05 0.00103591 1.15892e-07
-4.35179e-07 1.15892e-07 0.00103762
0.00275712 -5.97147e-05 2.67116e-05
-5.97147e-05 0.00100093 3.22586e-06
2.67116e-05 3.22586e-06 0.0010068
0.0016573 -1.16861e-05 -1.0109e-06
-1.16861e-05 9.34671e-05 -3.93045e-07
-1.0109e-06 -3.93045e-07 8.58497e-06
0.00170503 -5.00941e-06 -3.51234e-07
-5.00941e-06 9.79158e-05 2.29433e-07
-3.51234e-07 2.29433e-07 1.36865e-05
0.00175739 -1.38292e-05 6.61833e-07
-1.38292e-05 0.000107186 -1.73163e-06
6.61833e-07 -1.73163e-06 2.3723e-05
0.00173823 3.96377e-05 2.34747e-06
3.96377e-05 0.000102146 -4.80796e-07
2.34747e-06 -4.80796e-07 9.18845e-06
0.00160416 -1.52407e-06 -7.03496e-07
-1.52407e-06 9.19504e-05 -3.09235e-07
-7.03496e-07 -3.09235e-07 2.38911e-06
0.00162549 2.57658e-06 -2.57812e-07
2.57658e-06 0.00010181 -1.77383e-07
-2.57812e-07 -1.77383e-07 1.60181e-05
0.0015089 6.66413e-06 3.17072e-07
6.66413e-06 5.04534e-05 -2.72096e-07
3.17072e-07 -2.72096e-07 -3.03259e-05
0.00154896 1.72028e-05 -8.85818e-07
1.72028e-05 7.83519e-05 -6.53403e-07
-8.85818e-07 -6.53403e-07 -7.42764e-06
0.00156339 2.47022e-05 3.55608e-08
2.47022e-05 9.04868e-05 -3.07554e-07
3.55608e-08 -3.07554e-07 1.39532e-06
0.00157931 2.13925e-05 -1.33708e-06
2.13925e-05 0.000110233 6.24807e-07
-1.33708e-06 6.24807e-07 2.22445e-05
0.00159177 2.68028e-05 1.56468e-06
2.68028e-05 9.77966e-05 8.47493e-07
1.56468e-06 8.47493e-07 1.29062e-05
0.00157514 2.27086e-05 4.9527e-07
2.27086e-05 0.000106426 8.22344e-08
4.9527e-07 8.22344e-08 2.10924e-05
0.00132709 1.87741e-05 -2.74713e-06
1.87741e-05 1.26997e-05 2.92835e-08
-2.74713e-06 2.92835e-08 -7.06219e-05
0.00148788 5.17454e-06 1.23498e-06
5.17454e-06 5.93754e-05 5.74623e-07
1.23498e-06 5.74623e-07 -2.5777e-05
0.00139872 -9.8995e-07 -3.67328e-07
-9.8995e-07 5.37914e-05 1.41484e-07
-3.67328e-07 1.41484e-07 -2.82476e-05
0.0011709 -4.75793e-06 -5.41678e-06
-4.75793e-06 7.46915e-06 1.05159e-06
-5.41678e-06 1.05159e-06 -6.3147e-05
0.00136646 -2.77252e-05 2.84374e-06
-2.77252e-05 5.22271e-05 -3.10346e-07
2.84374e-06 -3.10346e-07 -2.91321e-05
0.00116274 -2.53909e-05 1.16957e-07
-2.53909e-05 1.54734e-05 1.73285e-07
1.16957e-07 1.73285e-07 -5.4964e-05
0.000690455 -1.22485e-05 -8.18715e-06
-1.22485e-05 -9.50855e-05 3.15236e-06
-8.18715e-06 3.15236e-06 -0.000137449
0.0011233 -3.29656e-05 4.60636e-06
-3.29656e-05 1.63341e-05 -1.59415e-06
4.60636e-06 -1.59415e-06 -5.31382e-05
0.00134389 -1.67113e-05 1.08617e-05
-1.67113e-05 0.000248109 -3.48609e-07
1.08617e-05 -3.48609e-07 0.000208416
0.00385769 7.93014e-05 -4.56269e-05
7.93014e-05 0.00161396 2.03288e-06
-4.56269e-05 2.03288e-06 0.00160311
0.00199982 -1.2339e-05 2.60632e-05
-1.2339e-05 0.000589339 -3.96399e-06
2.60632e-05 -3.96399e-06 0.000552818
0.00129504 3.50334e-05 -1.83868e-05
3.50334e-05 0.00030781 1.52614e-06
-1.83868e-05 1.52614e-06 0.000285104
0.00124482 4.8271e-05 7.31646e-06
4.8271e-05 0.000281713 -1.8051e-06
7.31646e-06 -1.8051e-06 0.000259219
0.0016657 -3.40028e-06 -4.49075e-07
-3.40028e-06 0.000103005 5.75629e-08
-4.49075e-07 5.75629e-08 2.01325e-05
0.00140398 1.75152e-05 -1.70332e-06
1.75152e-05 1.25538e-06 8.47142e-07
-1.70332e-06 8.47142e-07 -8.50841e-05
0.00162319 8.31264e-06 6.99689e-08
8.31264e-06 7.42636e-05 -3.12976e-08
6.99689e-08 -3.12976e-08 -1.04677e-05
0.00109752 4.71519e-05 -3.23483e-06
4.71519e-05 -8.8684e-05 -9.75603e-07
-3.23483e-06 -9.75603e-07 -0.000174439
0.0015654 5.00755e-05 1.14723e-07
5.00755e-05 9.79282e-05 -5.37025e-08
1.14723e-07 -5.37025e-08 7.71975e-06
0.00158126 4.58131e-05 1.36518e-06
4.58131e-05 6.384e-05 -7.08539e-07
1.36518e-06 -7.08539e-07 -3.08024e-05
0.000684128 4.02244e-05 -5.35018e-06
4.02244e-05 -0.000187945 -1.98274e-06
-5.35018e-06 -1.98274e-06 -0.000260709
0.00145148 6.67864e-05 5.92376e-07
6.67864e-05 0.000135766 -5.7303e-09
5.92376e-07 -5.7303e-09 5.30183e-05
0.00166279 7.27146e-05 2.61955e-06
7.27146e-05 0.000197979 1.73303e-06
2.61955e-06 1.73303e-06 0.000111235
0.000785682 3.01929e-05 -7.73597e-06
3.01929e-05 -1.5492e-05 -3.88137e-06
-7.73597e-06 -3.88137e-06 -6.01711e-05
0.0008018 4.35587e-05 -1.47196e-07
4.35587e-05 -8.62358e-05 8.14616e-08
-1.47196e-07 8.14616e-08 -0.000157227
0.000872696 5.98954e-05 2.87788e-06
5.98954e-05 -9.75553e-05 1.64352e-06
2.87788e-06 1.64352e-06 -0.000181188
0.0032919 -6.13978e-05 -4.24467e-05
-6.13978e-05 0.00132241 -3.06421e-06
-4.24467e-05 -3.06421e-06 0.00131602
0.000724833 1.10919e-05 -1.15556e-07
1.10919e-05 -2.89539e-05 -3.85989e-08
-1.15556e-07 -3.85989e-08 -7.02889e-05
0.000927018 3.91643e-05 2.61983e-06
3.91643e-05 1.48628e-05 1.36698e-06
2.61983e-06 1.36698e-06 -5.2228e-05
0.000667786 -9.81632e-06 4.94682e-06
-9.81632e-06 -5.05507e-05 3.29183e-06
4.94682e-06 3.29183e-06 -8.74054e-05
0.00293189 -6.87691e-05 -6.66756e-07
-6.87691e-05 0.00112514 1.48433e-07
-6.66756e-07 1.48433e-07 0.00112265
0.00280261 -6.42718e-05 2.7899e-05
-6.42718e-05 0.00103851 3.09917e-06
2.7899e-05 3.09917e-06 0.00104094
0.00161199 -1.26059e-05 -1.4495e-06
-1.26059e-05 8.3989e-05 -2.73053e-07
-1.4495e-06 -2.73053e-07 -2.02172e-06
0.00164778 -1.16172e-05 -4.10265e-07
-1.16172e-05 8.8893e-05 -2.18887e-07
-4.10265e-07 -2.18887e-07 4.24203e-06
0.00175662 -5.42806e-06 9.28063e-07
-5.42806e-06 0.000121754 -1.11477e-06
9.28063e-07 -1.11477e-06 3.71772e-05
0.00165475 1.25686e-05 -1.28881e-06
1.25686e-05 0.00012338 1.67077e-07
-1.28881e-06 1.67077e-07 3.22875e-05
0.00159964 2.17775e-06 -3.93992e-07
2.17775e-06 8.87384e-05 -3.2372e-07
-3.93992e-07 -3.2372e-07 -1.31278e-06
0.00168285 -3.13411e-07 -5.52411e-07
-3.13411e-07 0.00013004 -2.12991e-07
-5.52411e-07 -2.12991e-07 4.4749e-05
0.00150764 2.78586e-05 3.53227e-07
2.78586e-05 6.1736e-05 -1.07224e-06
3.53227e-07 -1.07224e-06 -2.73891e-05
0.00156934 2.35403e-05 3.66117e-07
2.35403e-05 0.00010472 7.77554e-08
3.66117e-07 7.77554e-08 1.68038e-05
0.00157839 1.77447e-05 -2.23498e-06
1.77447e-05 0.000133581 7.56341e-07
-2.23498e-06 7.56341e-07 5.02105e-05
0.00160164 2.33456e-05 2.1138e-06
2.33456e-05 0.000121066 5.90548e-07
2.1138e-06 5.90548e-07 3.60234e-05
0.00149091 2.12113e-05 5.08408e-08
2.12113e-05 9.73746e-05 6.29793e-08
5.08408e-08 6.29793e-08 1.51559e-05
0.000912809 1.32586e-05 -6.34624e-06
1.32586e-05 -0.000133433 1.05507e-06
-6.34624e-06 1.05507e-06 -0.000206985
0.00137875 -1.50065e-06 2.56879e-06
-1.50065e-06 4.4049e-05 9.42501e-08
2.56879e-06 9.42501e-08 -3.79793e-05
0.0011692 -2.94166e-06 -2.649e-08
-2.94166e-06 6.15857e-06 2.84303e-08
-2.649e-08 2.84303e-08 -6.43774e-05
0.000707878 -3.16255e-06 -8.36777e-06
-3.16255e-06 -9.3736e-05 2.51359e-06
-8.36777e-06 2.51359e-06 -0.000135921
0.00115995 -2.46649e-05 5.33384e-06
-2.46649e-05 1.34494e-05 -1.20946e-06
5.33384e-06 -1.20946e-06 -5.69944e-05
0.000701491 -9.70721e-06 -9.02496e-08
-9.70721e-06 -8.94041e-05 1.4944e-07
-9.02496e-08 1.4944e-07 -0.000131883
0.00392199 7.49216e-05 -4.74829e-05
7.49216e-05 0.00164273 1.44989e-06
-4.74829e-05 1.44989e-06 0.00163262
0.000779854 -2.48903e-05 1.04559e-05
-2.48903e-05 -4.24823e-05 -4.36931e-06
1.04559e-05 -4.36931e-06 -8.58808e-05
0.00266823 6.76805e-05 1.77177e-05
6.76805e-05 0.00100725 9.27581e-07
1.77177e-05 9.27581e-07 0.000989152
0.00131087 5.10226e-05 6.77845e-06
5.10226e-05 0.000321386 -1.84006e-06
6.77845e-06 -1.84006e-06 0.000296656
0.00176182 -1.21282e-05 -8.04018e-07
-1.21282e-05 0.000165681 6.39945e-08
-8.04018e-07 6.39945e-08 8.23166e-05
0.00152021 2.11397e-06 -1.17527e-06
2.11397e-06 5.94063e-05 1.96644e-07
-1.17527e-06 1.96644e-07 -2.36979e-05
0.00157648 -3.66068e-06 7.09657e-08
-3.66068e-06 5.94252e-05 1.54712e-07
7.09657e-08 1.54712e-07 -2.31734e-05
0.00136039 2.58421e-05 -2.73145e-06
2.58421e-05 2.65079e-05 7.2256e-08
-2.73145e-06 7.2256e-08 -5.61228e-05
0.00145461 1.73339e-05 4.20544e-07
1.73339e-05 2.67071e-05 -1.29017e-07
4.20544e-07 -1.29017e-07 -5.92267e-05
0.00166757 8.1132e-06 1.42774e-06
8.1132e-06 9.93638e-05 -8.90017e-07
1.42774e-06 -8.90017e-07 1.47298e-05
0.000779262 3.5171e-05 -6.10019e-06
3.5171e-05 -0.000178252 -1.9598e-06
-6.10019e-06 -1.9598e-06 -0.000251927
0.00146021 5.35376e-05 -8.57185e-07
5.35376e-05 9.44295e-05 -2.46293e-07
-8.57185e-07 -2.46293e-07 9.99112e-06
0.0016077 5.05724e-05 2.89205e-06
5.05724e-05 0.000121171 -1.93096e-07
2.89205e-06 -1.93096e-07 3.18054e-05
0.000752101 3.67559e-05 -8.90232e-06
3.67559e-05 -4.80239e-05 -3.86735e-06
-8.90232e-06 -3.86735e-06 -9.3594e-05
0.000749887 4.1934e-05 -1.41218e-06
4.1934e-05 -0.000159066 -5.59685e-07
-1.41218e-06 -5.59685e-07 -0.000232234
0.00145392 6.76277e-05 3.2678e-06
6.76277e-05 0.000136428 1.00229e-06
3.2678e-06 1.00229e-06 5.3567e-05
0.00366199 -6.17313e-05 -4.74823e-05
-6.17313e-05 0.00151469 -2.97386e-06
-4.74823e-05 -2.97386e-06 0.00150555
0.000717357 2.64038e-05 -1.50152e-07
2.64038e-05 -4.52686e-05 1.44822e-07
-1.50152e-07 1.44822e-07 -9.00835e-05
0.00063845 3.96065e-05 3.36516e-06
3.96065e-05 -0.000170883 1.82373e-06
3.36516e-06 1.82373e-06 -0.000242742
0.00317641 -7.19555e-05 -1.66585e-06
-7.19555e-05 0.00126342 1.64226e-07
-1.66585e-06 1.64226e-07 0.00125704
0.000648231 8.00352e-06 5.54759e-06
8.00352e-06 -6.21501e-05 3.62852e-06
5.54759e-06 3.62852e-06 -0.000103702
0.00287423 -6.88228e-05 2.91269e-05
-6.88228e-05 0.00109292 2.96637e-06
2.91269e-05 2.96637e-06 0.00109126
0.00164464 9.26297e-07 -1.22589e-06
9.26297e-07 0.0001161 -3.63011e-07
-1.22589e-06 -3.63011e-07 2.85257e-05
0.00162637 -1.16184e-05 2.33012e-07
-1.16184e-05 9.191e-05 3.19721e-07
2.33012e-07 3.19721e-07 5.88829e-06
0.00163041 -1.13653e-05 4.10214e-07
-1.13653e-05 8.04651e-05 -4.09411e-07
4.10214e-07 -4.09411e-07 -3.95089e-06
0.00161572 1.19553e-06 -2.83337e-06
1.19553e-06 0.000130702 2.0545e-07
-2.83337e-06 2.0545e-07 4.44685e-05
0.0016483 1.2345e-05 3.76605e-07
1.2345e-05 0.000122631 -4.18833e-08
3.76605e-07 -4.18833e-08 3.16774e-05
0.00159865 8.3586e-06 1.10837e-06
8.3586e-06 8.74713e-05 -4.13957e-07
1.10837e-06 -4.13957e-07 -3.19994e-06
0.00156593 2.44704e-05 1.58773e-06
2.44704e-05 0.000102448 -6.77482e-07
1.58773e-06 -6.77482e-07 1.4632e-05
0.00157413 1.81404e-05 6.22862e-07
1.81404e-05 0.0001312 -5.94737e-08
6.22862e-07 -5.94737e-08 4.79616e-05
0.000936881 1.0423e-05 -6.24686e-06
1.0423e-05 -0.000135148 1.19105e-06
-6.24686e-06 1.19105e-06 -0.000210704
0.00166461 2.36567e-05 3.09109e-06
2.36567e-05 0.000186929 -5.08324e-08
3.09109e-06 -5.08324e-08 0.000105816
0.0010438 1.52838e-05 -1.07218e-06
1.52838e-05 -6.54897e-05 2.4165e-07
-1.07218e-06 2.4165e-07 -0.000137964
0.000723809 3.04266e-06 -8.82842e-06
3.04266e-06 -9.24743e-05 2.08501e-06
-8.82842e-06 2.08501e-06 -0.000136289
0.00116919 -3.21002e-06 5.31233e-06
-3.21002e-06 5.57816e-06 -1.06191e-06
5.31233e-06 -1.06191e-06 -6.48934e-05
0.000710266 4.11025e-06 1.90053e-07
4.11025e-06 -9.21312e-05 1.21007e-08
1.90053e-07 1.21007e-08 -0.000134631
0.00402276 7.27474e-05 -5.0804e-05
7.27474e-05 0.00168989 8.6966e-07
-5.0804e-05 8.6966e-07 0.00168028
0.000705561 -5.12125e-06 8.10886e-06
-5.12125e-06 -8.73731e-05 -2.88947e-06
8.10886e-06 -2.88947e-06 -0.000129768
0.003977 7.79694e-05 -3.80505e-07
7.79694e-05 0.00167025 1.45283e-07
-3.80505e-07 1.45283e-07 0.00165987
0.00152774 1.86612e-05 4.50368e-05
1.86612e-05 0.000421106 -2.50928e-06
4.50368e-05 -2.50928e-06 0.000399348
0.00171169 -6.44878e-06 -1.12417e-06
-6.44878e-06 0.000159384 -1.76007e-07
-1.12417e-06 -1.76007e-07 7.60462e-05
0.00163554 -1.22859e-05 4.51621e-07
-1.22859e-05 0.000102906 2.92163e-07
4.51621e-07 2.92163e-07 1.99075e-05
0.00139783 2.48038e-06 -2.46972e-06
2.48038e-06 3.65388e-05 -2.38207e-07
-2.46972e-06 -2.38207e-07 -4.49748e-05
0.00153873 1.54293e-06 2.78946e-07
1.54293e-06 6.80015e-05 -1.47232e-07
2.78946e-07 -1.47232e-07 -1.51254e-05
0.0014855 -3.92861e-06 1.7791e-06
-3.92861e-06 1.49875e-05 -4.98298e-08
1.7791e-06 -4.98298e-08 -6.73364e-05
0.00117284 2.29595e-05 -5.55367e-06
2.29595e-05 1.79257e-06 -1.25577e-06
-5.55367e-06 -1.25577e-06 -6.97711e-05
0.00140317 2.61782e-05 -4.99613e-08
2.61782e-05 4.61996e-05 1.38222e-07
-4.99613e-08 1.38222e-07 -3.64334e-05
0.00149934 1.71012e-05 1.65588e-06
1.71012e-05 4.93372e-05 -6.54808e-07
1.65588e-06 -6.54808e-07 -3.62047e-05
0.000730053 3.24576e-05 -9.51179e-06
3.24576e-05 -7.43832e-05 -3.5935e-06
-9.51179e-06 -3.5935e-06 -0.000118869
0.00098755 3.88936e-05 -1.68328e-06
3.88936e-05 -7.34838e-05 -4.27964e-07
-1.68328e-06 -4.27964e-07 -0.000146534
0.00181688 5.97091e-05 2.68845e-06
5.97091e-05 0.000274533 3.92095e-07
2.68845e-06 3.92095e-07 0.000191429
0.00396368 -6.59754e-05 -5.02535e-05
-6.59754e-05 0.00166648 -2.65939e-06
-5.02535e-05 -2.65939e-06 0.0016559
0.000713015 3.37909e-05 2.82234e-08
3.37909e-05 -6.53252e-05 1.59768e-07
2.82234e-08 1.59768e-07 -0.000110945
0.000806473 4.35475e-05 3.26612e-06
4.35475e-05 -0.000134572 1.19182e-06
3.26612e-06 1.19182e-06 -0.000208157
0.00351655 -6.90827e-05 -1.55261e-06
-6.90827e-05 0.001442 2.06405e-07
-1.55261e-06 2.06405e-07 0.001433
0.000654098 2.24439e-05 6.52466e-06
2.24439e-05 -7.28971e-05 4.09461e-06
6.52466e-06 4.09461e-06 -0.000117826
0.00305514 -7.45203e-05 3.11229e-05
-7.45203e-05 0.00120101 2.8536e-06
3.11229e-05 2.8536e-06 0.00119511
0.00162252 5.6512e-06 -2.21808e-06
5.6512e-06 0.000137515 -5.80033e-07
-2.21808e-06 -5.80033e-07 5.37229e-05
0.0016451 -1.51601e-06 2.53738e-07
-1.51601e-06 0.000118416 2.08699e-07
2.53738e-07 2.08699e-07 3.10395e-05
0.00164426 -1.11523e-05 1.93526e-06
-1.11523e-05 0.000101587 8.7572e-07
1.93526e-06 8.7572e-07 1.55445e-05
0.000951491 -1.07707e-05 -6.8564e-06
-1.07707e-05 -0.000141254 4.29206e-07
-6.8564e-06 4.29206e-07 -0.000218647
0.00163278 8.06614e-06 6.47828e-07
8.06614e-06 0.000140094 1.19821e-07
6.47828e-07 1.19821e-07 5.37024e-05
0.00163393 1.23729e-05 2.09334e-06
1.23729e-05 0.000117957 -5.02564e-07
2.09334e-06 -5.02564e-07 2.7155e-05
0.0015715 1.82144e-05 3.34101e-06
1.82144e-05 0.000129653 -5.09621e-07
3.34101e-06 -5.09621e-07 4.65426e-05
0.000931036 1.02747e-05 -8.12902e-07
1.02747e-05 -0.000136368 2.20492e-07
-8.12902e-07 2.20492e-07 -0.000211545
0.000729836 8.86924e-06 -9.24032e-06
8.86924e-06 -9.97681e-05 1.44254e-06
-9.24032e-06 1.44254e-06 -0.000145303
0.00116816 1.81518e-05 4.32056e-06
1.81518e-05 -9.17216e-07 -8.15856e-07
4.32056e-06 -8.15856e-07 -7.2319e-05
0.000729745 1.21481e-05 2.70791e-07
1.21481e-05 -8.9509e-05 2.06221e-08
2.70791e-07 2.06221e-08 -0.000133515
0.00413671 7.02821e-05 -5.40015e-05
7.02821e-05 0.00174324 3.06049e-07
-5.40015e-05 3.06049e-07 0.00173399
0.000713934 1.24238e-05 8.28805e-06
1.24238e-05 -9.01223e-05 -2.39088e-06
8.28805e-06 -2.39088e-06 -0.000132724
0.00407457 7.49648e-05 9.87333e-08
7.49648e-05 0.00171526 1.48429e-07
9.87333e-08 1.48429e-07 0.00170555
0.00405631 8.14647e-05 5.07707e-05
8.14647e-05 0.00170963 -1.14403e-06
5.07707e-05 -1.14403e-06 0.00169901
0.00146824 -3.80314e-06 -2.65757e-06
-3.80314e-06 6.803e-05 -6.58913e-07
-2.65757e-06 -6.58913e-07 -1.44494e-05
0.00160781 -7.56501e-06 2.59982e-07
-7.56501e-06 0.000105897 1.22797e-07
2.59982e-07 1.22797e-07 2.25491e-05
0.00150702 -1.22816e-05 1.21834e-06
-1.22816e-05 3.89849e-05 5.37103e-07
1.21834e-06 5.37103e-07 -4.36364e-05
0.00118318 8.79085e-07 -5.50396e-06
8.79085e-07 -3.18829e-06 -1.27164e-06
-5.50396e-06 -1.27164e-06 -7.46517e-05
0.00142452 2.28245e-06 1.3438e-07
2.28245e-06 4.91691e-05 -9.02958e-08
1.3438e-07 -9.02958e-08 -3.23833e-05
0.00155604 9.77538e-07 1.25402e-06
9.77538e-07 7.60014e-05 -5.28638e-07
1.25402e-06 -5.28638e-07 -7.14842e-06
0.000720834 1.95898e-05 -9.52735e-06
1.95898e-05 -9.03635e-05 -3.12974e-06
-9.52735e-06 -3.12974e-06 -0.000133756
0.00118728 2.29433e-05 -1.07666e-07
2.29433e-05 9.23945e-06 1.58719e-07
-1.07666e-07 1.58719e-07 -6.24282e-05
0.00144721 2.64815e-05 2.98452e-06
2.64815e-05 6.65173e-05 2.76596e-07
2.98452e-06 2.76596e-07 -1.6122e-05
0.00412469 -6.78771e-05 -5.244e-05
-6.78771e-05 0.00174339 -2.16847e-06
-5.244e-05 -2.16847e-06 0.00173292
0.000711689 3.14769e-05 6.51924e-08
3.14769e-05 -8.23024e-05 1.44293e-07
6.51924e-08 1.44293e-07 -0.000126845
0.00120489 4.29663e-05 3.98392e-06
4.29663e-05 3.59745e-05 1.29312e-06
3.98392e-06 1.29312e-06 -3.65053e-05
0.00381596 -6.73625e-05 -9.54802e-07
-6.73625e-05 0.0015931 2.06298e-07
-9.54802e-07 2.06298e-07 0.0015828
0.00067209 3.13883e-05 7.8618e-06
3.13883e-05 -8.37856e-05 4.02334e-06
7.8618e-06 4.02334e-06 -0.000129386
0.00335476 -7.76437e-05 3.65661e-05
-7.76437e-05 0.00136159 2.75803e-06
3.65661e-05 2.75803e-06 0.0013525
0.00124019 -1.32358e-06 -5.88406e-06
-1.32358e-06 7.59381e-06 -5.85756e-07
-5.88406e-06 -5.85756e-07 -6.69789e-05
0.00149596 6.50634e-07 6.96035e-07
6.50634e-07 7.21169e-05 -1.02969e-07
6.96035e-07 -1.02969e-07 -1.29962e-05
0.00164588 -5.02552e-06 1.95251e-06
-5.02552e-06 0.000120771 1.02021e-06
1.95251e-06 1.02021e-06 3.35939e-05
0.000737647 1.01818e-05 -9.74462e-06
1.01818e-05 -0.000104156 3.27546e-07
-9.74462e-06 3.27546e-07 -0.000150374
0.00095571 -3.2315e-06 -1.00499e-06
-3.2315e-06 -0.000138615 3.19578e-07
-1.00499e-06 3.19578e-07 -0.000215734
0.00165132 1.44583e-05 4.0317e-06
1.44583e-05 0.000150272 -4.85314e-07
4.0317e-06 -4.85314e-07 6.37121e-05
0.000925213 1.04692e-05 4.28521e-06
1.04692e-05 -0.000137685 -5.8314e-07
4.28521e-06 -5.8314e-07 -0.000212464
0.000739993 1.14296e-05 2.19182e-07
1.14296e-05 -9.47436e-05 1.86301e-07
2.19182e-07 1.86301e-07 -0.000140484
0.00431029 6.91617e-05 -5.68541e-05
6.91617e-05 0.00182501 -2.44615e-07
-5.68541e-05 -2.44615e-07 0.00181585
0.000735666 1.96918e-05 8.73885e-06
1.96918e-05 -8.63543e-05 -1.92557e-06
8.73885e-06 -1.92557e-06 -0.000130692
0.00420019 7.16778e-05 5.43858e-07
7.16778e-05 0.00177376 1.84049e-07
5.43858e-07 1.84049e-07 0.00176445
0.00412134 7.72863e-05 5.49627e-05
7.72863e-05 0.0017381 -5.56173e-07
5.49627e-05 -5.56173e-07 0.0017283
0.00121539 -5.17413e-06 -5.80082e-06
-5.17413e-06 4.09235e-06 -1.30582e-06
-5.80082e-06 -1.30582e-06 -6.87022e-05
0.00140878 -5.21481e-06 -5.88218e-08
-5.21481e-06 3.64757e-05 -9.34283e-08
-5.88218e-08 -9.34283e-08 -4.63648e-05
0.00150646 -8.73772e-06 1.41111e-06
-8.73772e-06 5.37286e-05 3.0059e-07
1.41111e-06 3.0059e-07 -2.96412e-05
0.00214937 -4.67568e-06 -3.18157e-05
-4.67568e-06 0.000628801 -1.89224e-06
-3.18157e-05 -1.89224e-06 0.000592824
0.00120121 7.13106e-07 1.24951e-07
7.13106e-07 5.88455e-06 4.5891e-08
1.24951e-07 4.5891e-08 -6.5738e-05
0.00145495 1.89829e-06 2.79496e-06
1.89829e-06 6.36449e-05 1.01809e-07
2.79496e-06 1.01809e-07 -1.79508e-05
0.00421665 -5.57174e-05 -5.72912e-05
-5.57174e-05 0.00178251 -1.50578e-06
-5.72912e-05 -1.50578e-06 0.00177376
0.000718417 2.00514e-05 -5.08009e-08
2.00514e-05 -9.1471e-05 1.10376e-07
-5.08009e-08 1.10376e-07 -0.000134904
0.0012022 2.24193e-05 5.72199e-06
2.24193e-05 1.69698e-05 1.56514e-06
5.72199e-06 1.56514e-06 -5.48371e-05
0.004029 -6.06024e-05 1.14842e-06
-6.06024e-05 0.00169567 1.52745e-07
1.14842e-06 1.52745e-07 0.00168577
0.000687184 2.99653e-05 8.74368e-06
2.99653e-05 -9.32579e-05 3.72944e-06
8.74368e-06 3.72944e-06 -0.000137882
0.00368785 -7.55575e-05 4.27564e-05
-7.55575e-05 0.00153044 2.69156e-06
4.27564e-05 2.69156e-06 0.00151979
0.00077535 4.90476e-06 -1.25779e-05
4.90476e-06 -8.63113e-05 -1.175e-06
-1.25779e-05 -1.175e-06 -0.000133156
0.00109533 -4.06948e-06 1.53435e-07
-4.06948e-06 -6.64773e-05 2.76484e-07
1.53435e-07 2.76484e-07 -0.000141887
0.00136063 -4.18662e-06 3.67114e-06
-4.18662e-06 2.16268e-06 5.56104e-07
3.67114e-06 5.56104e-07 -8.42019e-05
0.00446229 -1.5415e-05 -5.71043e-05
-1.5415e-05 0.00189761 -8.49744e-07
-5.71043e-05 -8.49744e-07 0.00188815
0.0007499 7.34394e-06 9.33503e-08
7.34394e-06 -9.80589e-05 2.0661e-07
9.33503e-08 2.0661e-07 -0.000144585
0.00095585 3.94452e-06 4.66401e-06
3.94452e-06 -0.000137946 -9.65028e-08
4.66401e-06 -9.65028e-08 -0.00021481
0.000749153 1.81568e-05 9.35602e-06
1.81568e-05 -8.98747e-05 -1.01746e-06
9.35602e-06 -1.01746e-06 -0.000136044
0.00437104 7.30832e-05 2.17713e-06
7.30832e-05 0.00185454 2.90465e-07
2.17713e-06 2.90465e-07 0.00184519
0.00426306 7.54788e-05 6.01563e-05
7.54788e-05 0.00180419 7.81153e-09
6.01563e-05 7.81153e-09 0.00179465
0.00222587 -2.01972e-05 -3.59087e-05
-2.01972e-05 0.000658682 -1.76079e-06
-3.59087e-05 -1.76079e-06 0.000620983
0.00122184 -3.77207e-06 -4.21082e-08
-3.77207e-06 7.09091e-06 1.63272e-08
-4.21082e-08 1.63272e-08 -6.56498e-05
0.0013487 -6.46964e-06 2.62642e-06
-6.46964e-06 4.58448e-06 4.84199e-07
2.62642e-06 4.84199e-07 -7.86088e-05
0.00414551 -6.77414e-05 -1.55983e-05
-6.77414e-05 0.00174797 -5.69564e-07
-1.55983e-05 -5.69564e-07 0.00173748
0.000739075 4.53848e-06 -8.79327e-08
4.53848e-06 -8.8817e-05 5.60888e-08
-8.79327e-08 5.60888e-08 -0.000132507
0.00122173 1.78107e-06 5.6895e-06
1.78107e-06 1.59911e-05 1.29358e-06
5.6895e-06 1.29358e-06 -5.57248e-05
0.00414803 -5.31899e-05 5.50768e-07
-5.31899e-05 0.00174934 1.84338e-07
5.50768e-07 1.84338e-07 0.00174058
0.000712791 2.13326e-05 9.4892e-06
2.13326e-05 -9.41519e-05 3.31018e-06
9.4892e-06 3.31018e-06 -0.000137585
0.0039233 -5.81421e-05 4.93273e-05
-5.81421e-05 0.00164358 2.32921e-06
4.93273e-05 2.32921e-06 0.00163403
0.0015942 -8.51611e-06 -5.96645e-05
-8.51611e-06 0.000429471 -2.20146e-07
-5.96645e-05 -2.20146e-07 0.000407258
0.00151302 -7.67394e-07 -1.37715e-05
-7.67394e-07 0.000290424 3.91405e-07
-1.37715e-05 3.91405e-07 0.000248275
0.000962696 -3.06261e-06 5.87228e-06
-3.06261e-06 -0.000134431 9.72476e-07
5.87228e-06 9.72476e-07 -0.000210653
0.00447291 -2.38209e-06 2.49806e-06
-2.38209e-06 0.00190286 -4.79456e-07
2.49806e-06 -4.79456e-07 0.00189339
0.000753872 5.85639e-06 9.98509e-06
5.85639e-06 -9.61177e-05 8.57018e-08
9.98509e-06 8.57018e-08 -0.000142709
0.00442755 6.86877e-05 6.27088e-05
6.86877e-05 0.0018814 6.13897e-07
6.27088e-05 6.13897e-07 0.00187227
0.00142852 -2.67438e-05 -9.19369e-06
-2.67438e-05 0.000354591 -9.19922e-07
-9.19369e-06 -9.19922e-07 0.000330688
0.00150157 -2.43602e-06 -1.30175e-05
-2.43602e-06 0.000291134 1.80364e-07
-1.30175e-05 1.80364e-07 0.000249982
0.00122663 -4.85006e-06 5.54853e-06
-4.85006e-06 9.36347e-06 1.27562e-06
5.54853e-06 1.27562e-06 -6.3385e-05
0.00280867 -3.93997e-05 2.42617e-05
-3.93997e-05 0.00106233 3.823e-08
2.42617e-05 3.823e-08 0.00104646
0.000743874 1.03042e-05 9.83866e-06
1.03042e-05 -8.72605e-05 2.80815e-06
9.83866e-06 2.80815e-06 -0.000130919
0.00409126 -4.80927e-05 5.4248e-05
-4.80927e-05 0.00172155 1.8457e-06
5.4248e-05 1.8457e-06 0.00171303
0.00448968 -6.29247e-05 -1.98881e-06
-6.29247e-05 0.00190933 2.97757e-07
-1.98881e-06 2.97757e-07 0.00190054
0.000756671 3.69299e-06 1.00766e-05
3.69299e-06 -9.47105e-05 1.35163e-06
1.00766e-05 1.35163e-06 -0.00014096
0.00449507 2.24156e-05 6.19315e-05
2.24156e-05 0.00191267 -6.482e-07
6.19315e-05 -6.482e-07 0.00190348
0.00291654 -4.23434e-05 2.48431e-05
-4.23434e-05 0.00111123 -6.52672e-08
2.48431e-05 -6.52672e-08 0.00109478
0.000764098 3.97421e-06 9.85631e-06
3.97421e-06 -8.4212e-05 2.23483e-06
9.85631e-06 2.23483e-06 -0.000129349
0.00420649 -4.79459e-05 5.6836e-05
-4.79459e-05 0.00177452 1.2843e-06
5.6836e-05 1.2843e-06 0.00176639
0.00444258 -8.04585e-05 5.79925e-05
-8.04585e-05 0.00188851 -2.11422e-08
5.79925e-05 -2.11422e-08 0.00187829
0.00433417 -5.12519e-05 5.8531e-05
-5.12519e-05 0.00183455 6.53439e-07
5.8531e-05 6.53439e-07 0.00182633
